,case,Temp,Pressure,e11,e22,e33,e12,e23,e13,s11,s22,s33,s12,s23,s13
0,6.0,300.0,-79.63689699999999,0.0,0.0,0.0,0.0,0.0,0.0,0.053216156670525754,-0.0009394378598327981,-0.02806909074720357,-0.006301675240151925,0.021309026532037183,-0.00928969192847121
1,6.0,299.83238,190.14588,0.0,0.0,0.0,0.0,0.0,-9.966809583789038e-06,-0.02291556394984008,-0.007108053208310232,-0.02777598181127597,-0.04942838056370136,-0.0013967432753228285,-0.027561910436148775
2,6.0,299.88187999999997,-35.624359000000005,0.0,0.0,0.0,0.0,0.0,-1.9933619167633587e-05,0.00854053776633545,0.0018795018271673882,0.0004088760833129276,-0.040810868821719165,0.02237268886426248,-0.018170441790782983
3,6.0,299.05241,-279.29739,0.0,0.0,0.0,0.0,0.0,-2.990042875145038e-05,-0.007985801372437231,0.04151345441455896,0.05137178006999995,-0.00031829634744340367,0.036529753400205964,-0.024067926195819375
4,6.0,297.91354,99.870891,0.0,0.0,0.0,0.0,0.0,-3.986723833529493e-05,-0.03402165846742627,0.0034405254690284266,0.00022287557617360683,0.02011999172518858,0.01034106333433349,-0.0029993117924840274
5,6.0,297.71732000000003,301.23577,0.0,0.0,0.0,0.0,0.0,-4.9834047919111724e-05,-0.05793197867644115,-0.03088743475460247,-0.002748739095754427,0.0065812951827982635,-0.03876004656631876,-0.015611283105963686
6,6.0,299.41127,316.74984,0.0,0.0,0.0,0.0,0.0,-5.980085750292852e-05,-0.015605400175883088,-0.025709180601798574,-0.05496946235206354,0.0004271515180790725,-0.028451607858705076,0.02675515564027827
7,6.0,300.01468,563.9301,0.0,0.0,0.0,0.0,0.0,-6.976766708674531e-05,-0.03233074467404607,-0.07365760604293974,-0.06543231733516694,0.036871106213144864,-0.016480124801711682,0.0007567228161427273
8,6.0,300.04147,671.7719599999999,0.0,0.0,0.0,0.0,0.0,-7.973447667058986e-05,-0.05197996317752295,-0.06645774670136893,-0.08576419282851681,-0.002073232814487148,0.0038099297056857864,0.042942151241060364
9,6.0,299.35976,308.98434,0.0,0.0,0.0,0.0,0.0,-8.97012862543789e-05,-0.06292415552788064,-0.02798212045137027,-0.0030172466232290572,0.011952837228653188,-0.009772629622933451,-0.015521576021610287
10,6.0,299.08299999999997,256.35312999999996,0.0,0.0,0.0,0.0,0.0,-9.966809583819569e-05,-0.03127219216207507,-0.00997646950252588,-0.036676289629667964,-0.022422184105147278,0.024215476688631474,0.027277998771378875
11,6.0,300.19588,141.22673999999998,0.0,0.0,0.0,0.0,0.0,-0.00010963490542201249,-0.04900493625416066,0.02081889010091448,-0.014743355361805884,-0.0036996963021315964,0.05212962832329375,0.00943745753427954
12,6.0,300.53508,-36.027426,0.0,0.0,0.0,0.0,0.0,-0.00011960171500585703,0.03752776827170236,-0.009910559711346089,-0.016665770458533485,-0.011485789727559188,0.006047678467359394,-0.0055476042819059155
13,6.0,299.46134,221.14798,0.0,0.0,0.0,0.0,0.0,-0.00012956852458967383,-0.028684103160400574,-0.027162352484465475,-0.011377009223323388,-0.0024164684487618677,-0.02061127312892428,-0.025605711554586973
14,6.0,300.07338,489.96777000000003,0.0,0.0,0.0,0.0,0.0,-0.00013953533417351838,-0.06531663761100025,-0.030843285421245266,-0.05277804455253745,-0.022517666715070682,-0.022569247224661276,0.008368369653068784
15,6.0,300.80593,347.36568,0.0,0.0,0.0,0.0,0.0,-0.00014950214375730742,-0.07594058416125213,-0.04138955115258066,0.011739641301612388,0.029476430288097172,0.0015846413871169283,-0.007970202995097792
16,6.0,300.84776,431.63959000000006,0.0,0.0,0.0,0.0,0.0,-0.0001594689533411242,-0.03609902280919617,-0.06714257508620623,-0.027966059424035176,-0.019748355906510983,-0.0025136970912575875,-0.01023388883150619
17,6.0,300.23962,687.16128,0.0,0.0,0.0,0.0,0.0,-0.000169435762924941,-0.07928976179004023,-0.07025815905019044,-0.05933194986260754,0.015643049509848787,-0.015515631283273587,0.017687112373832085
18,6.0,299.79321,556.30074,0.0,0.0,0.0,0.0,0.0,-0.00017940257250878555,-0.001216284344437919,-0.05946245546223744,-0.1084227965529969,-0.0013022529412223588,-0.014496306748924086,0.008138760391633113
19,6.0,299.24831,154.72704,0.0,0.0,0.0,0.0,0.0,-0.00018936938209260235,-0.0056483431267230644,-0.013500979016692885,-0.027883833165170072,0.005963500688801694,0.00021768651976148678,0.03071698582278047
20,6.0,299.60901,109.64613999999999,0.0,0.0,0.0,0.0,0.0,-0.00019933619167641914,-0.003642204288807577,-0.026087293115115377,-0.0036001930144863867,-0.006003298518279434,-0.02268670722925368,-0.0036746434907590766
21,6.0,299.6656,248.36344,0.0,0.0,0.0,0.0,0.0,-0.00020930300126020818,-0.06430183115884665,-0.025178950877468978,0.013984497911412487,0.00047931065427177856,-0.021610913253581082,-0.0045710347474510055
22,6.0,299.90382999999997,247.639,0.0,0.0,0.0,0.0,0.0,-0.00021926981084405273,-0.044505123970813756,-0.017904410950527784,-0.012866536519578288,0.0026174307993953078,0.020363952965015683,-0.01157356150422159
23,6.0,300.74026000000003,622.6938700000001,0.0,0.0,0.0,0.0,0.0,-0.00022923662042786952,-0.09709468880599971,-0.058496739964178736,-0.03369195904388747,-0.00041805925002923563,0.03978186673566456,-0.012948884368455387
24,6.0,301.48613,668.91782,0.0,0.0,0.0,0.0,0.0,-0.0002392034300116863,-0.02217757945150668,-0.05911393289159094,-0.12204280307218687,-0.021541879511017978,0.01744290187448038,-0.008573564045394892
25,6.0,299.86163,351.45666,0.0,0.0,0.0,0.0,0.0,-0.00024917023959553086,-0.045868098356078864,-0.03894116603494386,-0.022024785389427082,-0.02252036702658718,-0.030226598105632975,-0.011421301424944689
26,6.0,299.78059,399.42888999999997,0.0,0.0,0.0,0.0,0.0,-0.00025913704917934766,-0.06504041550123923,-0.016648134840542984,-0.03972785949208447,0.014717927850546385,-0.026324353108511372,0.025766842638489374
27,6.0,300.21616,494.47103,0.0,0.0,0.0,0.0,0.0,-0.00026910385876316445,-0.09084453459765751,-0.016473505238808382,-0.04298880532866476,0.032814347668523966,0.017190233776543985,0.029170930316696674
28,6.0,299.15353,103.57269000000001,0.0,0.0,0.0,0.0,0.0,-0.0002790706683469535,-0.009549622699149381,-0.016257645477254685,-0.0056762423602765046,0.011962855232391888,0.015842757051558385,0.031888083063108766
29,6.0,298.80657,100.95535,0.0,0.0,0.0,0.0,0.0,-0.00028903747793079804,-0.004887784024111725,-0.012603737947142089,-0.01319638286438159,-0.015568885682029385,-0.017139570258293883,0.014708475240363486
30,6.0,299.27533,418.48305,0.0,0.0,0.0,0.0,0.0,-0.00029900428751461483,0.003047181577558407,-0.052330327836851244,-0.07792525233087362,-0.0012995570880062989,-0.005096878010772695,0.022742933490552775
31,6.0,300.86105,450.40421,0.0,0.0,0.0,0.0,0.0,-0.0003089710970984316,-0.049661218343930655,-0.037730608782721164,-0.04951980713347445,0.002452397081407748,0.00997913009463846,0.0015554916002900687
32,6.0,301.94993999999997,478.49034000000006,0.0,0.0,0.0,0.0,0.0,-0.0003189379066822762,-0.04613651945331996,-0.06036686527624575,-0.03894573072664436,0.0011037947368860589,0.001096542601945329,-0.03399798691859007
33,6.0,300.60663,339.06649,0.0,0.0,0.0,0.0,0.0,-0.00032890471626609297,-0.06468671218283144,-0.04541047104116455,0.007029437463526463,-0.03633486082297157,-0.018697990455347983,-0.023351862350149376
34,6.0,300.5639,206.03786000000002,0.0,0.0,0.0,0.0,0.0,-0.00033887152584990976,-0.04586904574492236,-0.02090491706090468,0.004143599347091416,0.003805274530751356,0.02582874006059818,-0.021168276973896283
35,6.0,300.81157,225.98575,0.0,0.0,0.0,0.0,0.0,-0.0003488383354337543,-0.03561810087448286,-0.009244623273298282,-0.023831299873466178,0.0033515259372198566,0.05218769262027425,-0.01095418400959379
36,6.0,299.86851,329.64139,0.0,0.0,0.0,0.0,0.0,-0.00035880514501754335,0.0004162596874541326,-0.04439796973298846,-0.05622104002133465,-0.013935936887119887,0.03025433076086997,-0.02392044055101368
37,6.0,299.98027,119.33153,0.0,0.0,0.0,0.0,0.0,-0.00036877195460136014,-0.021536447477231876,0.004620660089648646,-0.01935801853073768,-0.038184972419063365,-0.025136619314791178,0.01143737461128099
38,6.0,300.16331,4.6943150000000005,0.0,0.0,0.0,0.0,0.0,-0.00037873876418517693,0.03190764385628927,-0.021088293037502478,-0.01224630586836629,-0.006741849626068754,-0.028880092074243177,0.0017243616858062486
39,6.0,299.47306000000003,284.21502000000004,0.0,0.0,0.0,0.0,0.0,-0.0003887055737690215,-0.04994715346915025,-0.025254824058207077,-0.01119229069034309,0.020482772751242283,0.018054281786068882,0.02066360648333918
40,6.0,299.76477,686.58827,0.0,0.0,0.0,0.0,0.0,-0.0003986723833528383,-0.07869162708375893,-0.05907027599778235,-0.07094378587610653,0.015773922919264986,-0.016210758342127284,-0.00036506328071144064
41,6.0,299.29008,575.96925,0.0,0.0,0.0,0.0,0.0,-0.0004086391929366273,-0.053041313273020044,-0.06516333388412035,-0.05687562289068695,0.0006618517837146852,-0.019551266603059784,-0.0014560309704740688
42,6.0,299.96383,217.88307999999998,0.0,0.0,0.0,0.0,0.0,-0.0004186060025204441,-0.009099915554966741,-0.012345685438174289,-0.04478541427972625,-0.018600078071684782,-0.023213847554028378,-0.01035322537528379
43,6.0,300.98722000000004,171.80921999999998,0.0,0.0,0.0,0.0,0.0,-0.00042857281210428866,-0.05522365843115075,0.01207002872196909,-0.00907208329724491,0.033975415759362464,0.017014689209969083,0.01051788358278429
44,6.0,300.33723,227.93422999999999,0.0,0.0,0.0,0.0,0.0,-0.00043853962168810545,-0.04931202094871755,0.0007012850154089423,-0.020675580059770878,-0.0013867090595825287,0.0019147265549687982,-0.02294547103979168
45,6.0,299.56135,443.91799000000003,0.0,0.0,0.0,0.0,0.0,-0.00044850643127195,-0.0998929501964166,-0.005579245245428635,-0.02946778827799427,0.005001027591062995,-0.013487501777112786,0.015485324972782585
46,6.0,299.94424,418.38795,0.0,0.0,0.0,0.0,0.0,-0.00045847324085573904,-0.04479128707730586,-0.03267420403394287,-0.049713996515139455,-0.021525489177400377,-0.005703350245501844,0.01108129927438909
47,6.0,300.33213,212.77132000000003,0.0,0.0,0.0,0.0,0.0,-0.0004684400504395836,-0.024068822922157874,-0.006190158555346084,-0.03441818781456067,-0.01168878830559359,0.03464435840913197,0.015037908179125986
48,6.0,300.49187,409.51513,0.0,0.0,0.0,0.0,0.0,-0.0004784068600233726,-0.0050662289177728645,-0.053017044919874946,-0.06639910079883103,-0.012060236673002689,0.002379657275278888,-0.023368495863790976
49,6.0,299.96288,702.9318,0.0,0.0,0.0,0.0,0.0,-0.0004883736696072172,-0.09193977385599922,-0.06264181237426554,-0.059092129775939146,-0.0066058518055968135,-0.009655907365738861,0.010000011254024272
50,6.0,299.46311000000003,241.55552000000003,0.0,0.0,0.0,0.0,0.0,-0.000498340479191034,0.004660054949561616,-0.038350644889913965,-0.03973625730891326,0.005937758766036165,-0.013851223099259288,-0.016455149199996785
51,6.0,300.06207,-147.00994,0.0,0.0,0.0,0.0,0.0,-0.0005083072887748508,-0.004517167433709716,0.003875646979346577,0.04532887299736146,0.03290038070801477,0.007030068211713713,0.0026754498040963376
52,6.0,299.80327,-40.258675,0.0,0.0,0.0,0.0,0.0,-0.0005182740983586676,0.022020212591725777,-0.010262934658872791,0.0004803541397547625,0.002369323745459048,-0.010576523405821589,-0.06033288796064244
53,6.0,299.08428,203.54724,0.0,0.0,0.0,0.0,0.0,-0.0005282409079425121,-0.03855055913464397,0.001145204140647849,-0.024467921871545877,-0.0026877353602338273,-0.00980282994746399,0.005763351674023525
54,6.0,299.56379,288.66983999999997,0.0,0.0,0.0,0.0,0.0,-0.0005382077175263289,-0.018717528957026282,-0.05372814181355475,-0.015302751490263986,-0.016293346331278085,-0.0024223710358944077,-0.05943909903418235
55,6.0,300.12416,337.79708999999997,0.0,0.0,0.0,0.0,0.0,-0.0005481745271101734,-0.06213065100356785,0.003954895498817796,-0.04450612607516266,0.003832702805658316,0.050044809500538155,0.02850661416688377
56,6.0,299.39309,315.57942,0.0,0.0,0.0,0.0,0.0,-0.0005581413366939347,-0.024858275459320775,-0.039665311563411465,-0.03140467765240037,-0.007802513447273123,0.0003232429027090907,-0.04050009083054776
57,6.0,300.09281,422.73782,0.0,0.0,0.0,0.0,0.0,-0.0005681081462777793,-0.08584009944650822,-0.012089671588407689,-0.030571971494968674,0.019030159169380483,-0.011526491984076188,0.030026452839880174
58,6.0,300.97074,526.74352,0.0,0.0,0.0,0.0,0.0,-0.0005780749558615961,-0.04984308559112954,-0.02208866878173188,-0.08818512494794423,0.02272345071762998,-0.04460091156901726,-0.005233747834280695
59,6.0,300.22322,411.79962,0.0,0.0,0.0,0.0,0.0,-0.0005880417654454406,-0.04194094767149926,-0.025256911353413077,-0.057978943831826245,0.024901941472380274,0.01064991007081429,0.03177634792158137
60,6.0,300.23843999999997,-107.40688,0.0,0.0,0.0,0.0,0.0,-0.0005980085750292574,0.02061671833496168,0.025131153843751773,-0.013098862608507088,-0.017777659442518384,0.013008443209333387,-0.026882368177083178
61,6.0,299.78776,-41.044090000000004,0.0,0.0,0.0,0.0,0.0,-0.0006079753846130465,-0.007656312096969173,0.0003422742220498357,0.019790415918161983,-0.022864736285073777,0.007368125226052343,8.994815681719191e-05
62,6.0,299.5648,393.12209,0.0,0.0,0.0,0.0,0.0,-0.0006179421941968632,-0.04911585471610745,-0.036402182172865664,-0.033981261199189365,0.003957728242122366,0.014573172914760187,-0.0016727895861914784
63,6.0,300.73652999999996,520.91343,0.0,0.0,0.0,0.0,0.0,-0.0006279090037807078,-0.07901093765402242,-0.03219920251956387,-0.04713453635131655,0.017818226936772083,0.023398189157971476,0.019586387878025982
64,6.0,299.33067,246.01666,0.0,0.0,0.0,0.0,0.0,-0.0006378758133645246,0.013746388190912888,-0.041432016464271665,-0.047097292317390856,0.03789107213480767,-0.012401703983202887,-0.011408389578920389
65,6.0,299.64741000000004,353.06113,0.0,0.0,0.0,0.0,0.0,-0.0006478426229483691,-0.04903957116907886,-0.015046125637436984,-0.04323606976381786,-0.026915766926879376,-0.028723194349258574,0.009220901973882171
66,6.0,299.91361,537.72047,0.0,0.0,0.0,0.0,0.0,-0.0006578094325321582,-0.04850169748599486,-0.03518290083728197,-0.07976899767658713,0.011557548099641188,-0.019307560702257878,0.006983152806908523
67,6.0,299.83477,431.56612,0.0,0.0,0.0,0.0,0.0,-0.0006677762421160027,-0.04254114332848396,-0.049365708005266046,-0.03927847294023346,-0.0005928502929022684,0.03762449312624836,-0.008781371609728902
68,6.0,299.13211,365.79435,0.0,0.0,0.0,0.0,0.0,-0.0006777430516997918,-0.01847924495750948,-0.05462696254001145,-0.03808614203080957,-0.015159490085125184,0.03152987888775677,-0.036260791227411465
69,6.0,300.00607,156.34175,0.0,0.0,0.0,0.0,0.0,-0.0006877098612836363,-0.047749759520534354,0.015292738552775785,-0.015066966165493785,-0.03793993916063046,-0.011051799510977688,0.00047757670977315156
70,6.0,300.59639,-66.10595,0.0,0.0,0.0,0.0,0.0,-0.0006976766708674531,0.05295234383473944,-0.027667387745058572,-0.005190397347302335,-0.025496754744833774,-0.026847410035383077,-0.03170797583133357
71,6.0,301.37322,216.16124,0.0,0.0,0.0,0.0,0.0,-0.0007076434804512699,-0.03169572462437447,0.0039569996139754565,-0.03796889379548807,0.004862645593105756,0.016831041682344484,0.018051018107496784
72,6.0,300.15567000000004,566.6336,0.0,0.0,0.0,0.0,0.0,-0.0007176102900350867,-0.03557966221868926,-0.08113997065814163,-0.05552283166892685,0.033300322681485965,-0.01989404201913908,-0.05130981779988475
73,6.0,301.34941000000003,341.35609,0.0,0.0,0.0,0.0,0.0,-0.0007275770996189312,-0.05340250754941715,-0.022026480556844377,-0.028334739592171074,-0.0003066612472076087,0.004127735903525816,0.004980326688869975
74,6.0,300.97886,217.70594,0.0,0.0,0.0,0.0,0.0,-0.000737543909202748,-0.03414843226693787,-0.02229950383603968,-0.009729232222475459,0.012199098546207288,-0.002403390733696198,-0.003742780203008647
75,6.0,299.8217,472.11677000000003,0.0,0.0,0.0,0.0,0.0,-0.0007475107187865926,-0.08439708438284373,-0.028151855041871773,-0.030962768886287368,0.005968289916724354,0.02259208892166558,0.02979370321240957
76,6.0,299.22687,486.55392,0.0,0.0,0.0,0.0,0.0,-0.0007574775283703539,-0.04014326163558146,-0.026664202258301874,-0.08109278056123433,0.002437599576947348,0.004558790835892625,-0.0006184261541089094
77,6.0,299.64661,372.54512,0.0,0.0,0.0,0.0,0.0,-0.0007674443379541984,-0.06718108061650643,-0.014694720370255985,-0.031368612028340966,-0.02212105225492788,-0.017281978506848483,0.000891087621958501
78,6.0,300.43531,337.90754,0.0,0.0,0.0,0.0,0.0,-0.0007774111475380152,-0.027239555049334774,-0.019873533837115084,-0.05560236673552635,-0.018706310251919083,-0.00946572437496926,0.003817924248974786
79,6.0,300.69403,253.78267999999997,0.0,0.0,0.0,0.0,0.0,-0.0007873779571218598,-0.036869722113508266,-0.02991017935115487,-0.01036369630181719,0.0012665713389508587,0.014750054971467086,-0.015803499689683986
80,6.0,299.59045,157.17765,0.0,0.0,0.0,0.0,0.0,-0.0007973447667056766,-0.0004213232325763656,-0.04656970920232246,-0.0007870497969357672,0.02223475918114988,-0.019564803624395784,-0.028447955092094572
81,6.0,300.87511,632.97118,0.0,0.0,0.0,0.0,0.0,-0.0008073115762894656,-0.08047775700228621,-0.06031629295050465,-0.05161338145034416,0.012259811478949188,-0.01224393992938279,-0.013542819153072186
82,6.0,300.92359,527.73767,0.0,0.0,0.0,0.0,0.0,-0.0008172783858732824,-0.03110808516262897,-0.04894808177779955,-0.08036290611670133,-0.004063097335921486,-0.022250658088468978,-0.001105590114738249
83,6.0,301.35761,72.499397,0.0,0.0,0.0,0.0,0.0,-0.0008272451954571269,0.01172234208265509,-0.030241534425357073,-0.0035188136300548663,0.022635888683738278,0.018225421754459084,-0.019564705339136082
84,6.0,300.92331,228.20645,0.0,0.0,0.0,0.0,0.0,-0.0008372120050409437,0.007149911583191333,-0.03857827051162886,-0.037940702137955765,-0.017990053888730085,-0.01675726491606328,-0.02728206798378047
85,6.0,300.60897,491.94219000000004,0.0,0.0,0.0,0.0,0.0,-0.0008471788146247883,-0.06992757100631393,-0.04233395394803596,-0.037276617009165666,0.010233982050515391,-0.005423261877334275,0.004074400647412036
86,6.0,300.1925,290.03004,0.0,0.0,0.0,0.0,0.0,-0.0008571456242085773,-0.05616465164001955,-0.012866146418289788,-0.01913109103834168,-0.028054707662034075,-0.000951708288146295,-0.0006977596852635194
87,6.0,300.39325,161.65981000000002,0.0,0.0,0.0,0.0,0.0,-0.0008671124337924219,-0.018108056995376084,0.00031157849928040366,-0.03134406503141837,-0.0040051605058035655,0.03389563447298867,0.011963333486439088
88,6.0,299.69335,301.65744,0.0,0.0,0.0,0.0,0.0,-0.0008770792433762109,0.0011061640195948888,-0.04040588491575036,-0.052396607565642545,-0.03009292103319007,0.00964370661863474,-0.025434740798963476
89,6.0,299.6998,338.57943,0.0,0.0,0.0,0.0,0.0,-0.0008870460529600555,-0.03059512932600417,-0.018890720756868984,-0.05343384129550955,0.001248662447408389,0.003535172755569387,0.002050532871171838
90,6.0,300.19444,694.7051700000001,0.0,0.0,0.0,0.0,0.0,-0.0008970128625438722,-0.05214828428413495,-0.07507013342434533,-0.08395460819667472,0.009729291092306271,-0.013148875620192986,-0.017617916511252985
91,6.0,299.83622,614.72325,0.0,0.0,0.0,0.0,0.0,-0.000906979672127689,-0.09907256009395041,-0.06079245058324774,-0.02699550565674897,0.010827123460303888,-0.008114410167879933,0.004047689145625816
92,6.0,299.90159,69.67993100000001,0.0,0.0,0.0,0.0,0.0,-0.0009169464817115058,-0.025863710361299475,-0.012789030992929088,0.01747178254208068,0.013714701833785686,-0.016435887315595785,-0.0015831288073676485
93,6.0,301.42298999999997,54.966729,0.0,0.0,0.0,0.0,0.0,-0.0009269132912953504,-0.005582219235797145,-0.017538184874134083,0.006411890911829364,-0.00994146069832078,-0.0021376209066667584,-0.009315954459138121
94,6.0,300.87369,522.66,0.0,0.0,0.0,0.0,0.0,-0.0009368801008791672,-0.06926332679725813,-0.0002476052620892368,-0.08936465648210491,0.006609248422582034,0.011124031070856388,0.028483743085626574
95,6.0,299.74186000000003,566.54097,0.0,0.0,0.0,0.0,0.0,-0.0009468469104630117,-0.05153562058466975,-0.04716739605205955,-0.07351129171524963,0.011410102984839488,0.011416107504932091,-0.02323334755220288
96,6.0,300.64898,335.16494,0.0,0.0,0.0,0.0,0.0,-0.000956813720046773,-0.014245530388924385,-0.047165285452101254,-0.04047095786367256,0.011729725636133788,0.0015402105728819487,-0.016540037266874585
97,6.0,301.10811,399.03722,0.0,0.0,0.0,0.0,0.0,-0.0009667805296306176,-0.046951680172020054,-0.049007443034908046,-0.025338226700438275,0.007646998606025002,-0.012852766450719288,-0.024991840061002576
98,6.0,300.63587,413.80823,0.0,0.0,0.0,0.0,0.0,-0.0009767473392144344,-0.05903111286816724,-0.021993773856866478,-0.044762482403463054,0.022432169684882777,-0.007949680424922372,0.030861944421836766
99,6.0,301.74997,363.22401,0.0,0.0,0.0,0.0,0.0,-0.000986714148798279,-0.014132013953721186,-0.057808049069960246,-0.03847096529953867,-0.008304208832886602,-0.0038594520003482563,-0.03220594975197977
100,6.0,300.18422999999996,222.29359,0.0,0.0,0.0,0.0,0.0,-0.0009966809583820957,0.004688070402901525,-0.027206910157612976,-0.04505285961712105,-0.015638202121370386,-0.015194667088846885,0.0016350497689918485
101,6.0,300.06709,156.08158999999998,0.0,0.0,0.0,0.0,0.0,-0.0010066477679658847,0.008223867016557482,-0.047366921208751155,-0.008301851607853962,-0.032369547086625566,-0.01229730071939909,-0.043956364941905454
102,6.0,299.57735,134.3821,0.0,0.0,0.0,0.0,0.0,-0.0010166145775497015,-0.0025840187760227972,-0.02050674726185838,-0.017758035827831684,-0.011745122984653387,0.02007136889263988,-0.012560202643345487
103,6.0,298.97465,346.24936,0.0,0.0,0.0,0.0,0.0,-0.001026581387133546,-0.08304519698017282,-0.02288171025074898,0.0006757477488986103,0.01060171584305789,0.011764734440338888,-0.028630110102321873
104,6.0,298.49575,662.6938200000001,0.0,0.0,0.0,0.0,0.0,-0.0010365481967173629,-0.07748259274643651,-0.06084810841124075,-0.06311167265763715,0.016705030860158183,0.0040705274989047855,-0.0070428722479273734
105,6.0,299.59349,389.43915,0.0,0.0,0.0,0.0,0.0,-0.0010465150063012074,-0.054630373139848046,-0.022692752279350276,-0.04105665289847616,-0.002293688171869398,-0.02768661923195657,-0.005099710247452215
106,6.0,299.40668,287.25521000000003,0.0,0.0,0.0,0.0,0.0,-0.0010564818158849965,-0.001088901986916259,-0.033051095580889166,-0.05317841310430074,0.017520662740154784,-0.003227865652615537,0.010592555048903789
107,6.0,300.12854,584.75185,0.0,0.0,0.0,0.0,0.0,-0.001066448625468841,-0.057163506495848844,-0.046928402777472754,-0.07365805288623384,-0.001934157145511448,-0.006453231110609323,-0.016598212008115985
108,6.0,300.44445,579.53837,0.0,0.0,0.0,0.0,0.0,-0.00107641543505263,-0.05216949971472875,-0.05988788878172444,-0.06410780288394753,0.01069486696450119,-0.005121595537687125,-0.008692419498025012
109,6.0,301.26448,218.9015,0.0,0.0,0.0,0.0,0.0,-0.0010863822446364746,-0.03883182520340276,-0.033000234478869565,0.005291471577902585,-0.015481500966905183,-0.02252846593463648,-0.029891468674808273
110,6.0,300.3846,296.65828999999997,0.0,0.0,0.0,0.0,0.0,-0.0010963490542202914,-0.025478779688059772,-0.02007826000656998,-0.04461967392111896,-0.0008167853841754411,0.026735800536868075,0.012616229294374887
111,6.0,299.51001,288.61216,0.0,0.0,0.0,0.0,0.0,-0.0011063158638041082,-0.042924256231044254,-0.02519317386912268,-0.01961345989419778,-0.016825542774051783,0.025351420229990377,-0.027887988503830174
112,6.0,299.95065,317.25016,0.0,0.0,0.0,0.0,0.0,-0.001116282673387925,-0.013256445290559287,-0.03961302076550076,-0.043566660847444656,-0.011495497676767288,-0.0009768668726967541,-0.004975730181116335
113,6.0,299.71446000000003,473.36217999999997,0.0,0.0,0.0,0.0,0.0,-0.0011262494829717695,-0.019980651597936782,-0.06411628277403444,-0.05979334748114395,0.014333522040858486,-0.01012035658960143,-0.03825651496887406
114,6.0,299.00498999999996,418.14828,0.0,0.0,0.0,0.0,0.0,-0.0011362162925555863,-0.06105877323953174,-0.045300768479337755,-0.02074709423857878,0.00029780470166103573,0.02016030793341748,0.012326088167990188
115,6.0,298.95622000000003,306.67866000000004,0.0,0.0,0.0,0.0,0.0,-0.0011461831021394309,-0.03104568820822087,-0.04463980720060596,-0.017537158451782785,0.018534193510432482,0.0005756223358245015,-0.02106912538536078
116,6.0,298.6803,286.74653,0.0,0.0,0.0,0.0,0.0,-0.0011561499117231921,-0.049545252883235746,-0.023328329616576878,-0.014290202559333188,-0.016681636941849383,-0.007460193791088804,-0.012351548103252886
117,6.0,298.81652,404.27826,0.0,0.0,0.0,0.0,0.0,-0.0011661167213070367,-0.03921124683584876,-0.04190015726222356,-0.041779093127025456,-0.004702929918268046,-0.014741999633172086,-0.01023725484833839
118,6.0,300.02644,288.77828999999997,0.0,0.0,0.0,0.0,0.0,-0.0011760835308908535,-0.0027997829880920676,-0.03702997876257436,-0.047951627311457155,-0.008722432573937072,-0.011980336836367188,-0.003700009497737507
119,6.0,299.86017000000004,175.33979,0.0,0.0,0.0,0.0,0.0,-0.001186050340474698,0.015378295364719586,-0.05679428829190984,-0.011882924998253388,0.00974625492548047,-0.0018805419283950383,-0.030463211255734868
120,6.0,300.36176,365.72956,0.0,0.0,0.0,0.0,0.0,-0.0011960171500585148,-0.04888074624240405,-0.02905166267392587,-0.03324024505655677,-0.0025738485821190774,-0.0048399459537654755,-0.016240585385320985
121,6.0,299.98277,394.51299,0.0,0.0,0.0,0.0,0.0,-0.0012059839596423316,-0.04103049686039476,-0.038900626911692965,-0.03999097521180196,0.015235723982898885,-0.003000285221855097,-0.006893619292297254
122,6.0,300.40022,389.34021,0.0,0.0,0.0,0.0,0.0,-0.0012159507692261207,-0.038733315002180566,-0.04531508367675056,-0.03430130130952487,-0.020354481103080878,0.03425075026203587,0.006956601601288123
123,6.0,299.88766,480.02288,0.0,0.0,0.0,0.0,0.0,-0.0012259175788099652,-0.06896165083173503,-0.029503782974546675,-0.047449535542404546,-0.012367615210088589,0.020030207633827582,0.02150468411309708
124,6.0,299.8772,439.48,0.0,0.0,0.0,0.0,0.0,-0.001235884388393782,-0.027297463305799873,-0.05643483477918454,-0.04985865012591566,-0.04926012633159595,0.00016186496068482787,-0.01014945875367359
125,6.0,299.19812,273.96061000000003,0.0,0.0,0.0,0.0,0.0,-0.0012458511979775988,-0.03171371994615047,-0.02838868806724537,-0.023174775616922275,-0.013869592310322186,0.0055900099131660245,-0.0023533688054094178
126,6.0,299.91336,510.99730999999997,0.0,0.0,0.0,0.0,0.0,-0.0012558180075614156,-0.07104120480697103,-0.04602400816221596,-0.03826520865473206,0.007192544486448873,0.02121090440560328,0.008322144879531753
127,6.0,298.87125,485.98161,0.0,0.0,0.0,0.0,0.0,-0.0012657848171452601,-0.06380470532853415,-0.046689543251899154,-0.037232026912014965,0.03784389521015167,-0.0045104779565495155,-0.02327959431326708
128,6.0,299.19241,182.34038,0.0,0.0,0.0,0.0,0.0,-0.0012757516267290492,-0.018082331588587183,-0.0037198974693752967,-0.033624692409498766,-0.012354915133335188,-0.01967817111183428,0.00013850106497649087
129,6.0,299.78385,35.083503,0.0,0.0,0.0,0.0,0.0,-0.001285718436312866,0.018055307195170085,-0.025883715971273872,-0.0028360999995012777,0.016256424510884184,-0.039107975372406664,-0.04020705383537726
130,6.0,300.48061,251.69041,0.0,0.0,0.0,0.0,0.0,-0.0012956852458967105,0.004430870543892876,-0.03159681013636237,-0.04934166054064275,0.024234816593290177,0.014995653623455788,-0.010091436303922221
131,6.0,299.98796,285.10672999999997,0.0,0.0,0.0,0.0,0.0,-0.0013056520554805273,-0.015156478705827984,-0.05344773194113046,-0.01806111615799338,0.0025576528938456877,0.021357820603852776,-0.054308437238575445
132,6.0,299.87697000000003,304.3734,0.0,0.0,0.0,0.0,0.0,-0.0013156188650643441,-0.033792344771044765,-0.05227241451413566,-0.006457155022946583,-0.028221717623016677,0.012224238294438389,-0.022840266295158777
133,6.0,299.90609,493.24682,0.0,0.0,0.0,0.0,0.0,-0.001325585674648161,-0.04925560926265016,-0.05509610645556235,-0.04558300017544186,-0.06178374760658114,-0.015285097633771685,-0.007856955273821112
134,6.0,300.25512000000003,405.39161,0.0,0.0,0.0,0.0,0.0,-0.0013355524842320055,-0.05212125989071785,-0.029248460161348272,-0.041859207772682164,-7.075386025086233e-05,0.02085266577974788,0.02074201886882788
135,6.0,299.67365,429.55295,0.0,0.0,0.0,0.0,0.0,-0.0013455192938157945,-0.03473779932010387,-0.06102641003133774,-0.03480916049814667,0.018797822947950682,-0.00868167661516477,-0.029337472156133075
136,6.0,299.46917,558.08751,0.0,0.0,0.0,0.0,0.0,-0.0013554861033996113,-0.02868512958275187,-0.03368677626962597,-0.10727275768949689,0.01022316560569789,0.003142179144658937,0.0003532248414455777
137,6.0,299.90839,298.26361,0.0,0.0,0.0,0.0,0.0,-0.0013654529129834558,-0.04066652830522386,-0.03132941647472267,-0.018668745017711683,0.0073965343270561024,-0.03900342721383856,-0.02428459149120258
138,6.0,300.54095,111.12756,0.0,0.0,0.0,0.0,0.0,-0.0013754197225672726,-0.02294787446902888,-0.006794291195594333,-0.004037836402978426,0.03656978083215637,0.004613560347522956,-0.022359210611432277
139,6.0,299.93289,320.01427,0.0,0.0,0.0,0.0,0.0,-0.0013853865321510894,-0.05505567169707175,-0.016498614589536484,-0.025722062050319874,-0.0003660924185730086,-0.0039630242977450455,-0.017238971106353983
140,6.0,299.09924,411.9545,0.0,0.0,0.0,0.0,0.0,-0.001395353341734934,-0.04998123616276395,-0.035449888185631565,-0.03979275816098946,-0.003572470390425377,-0.015048976923218386,-0.022675294993377376
141,6.0,299.54938,250.58,0.0,0.0,0.0,0.0,0.0,-0.0014053201513187508,-0.023039453026316978,0.0015507126061934187,-0.05468132239462635,-0.03172675236893667,-0.016199429192759185,-0.00019189339746840379
142,6.0,299.84875,346.29547,0.0,0.0,0.0,0.0,0.0,-0.0014152869609025398,-0.016935850246188284,-0.04031538952281916,-0.048013937126356654,0.004685173216890595,0.01144063727660299,-0.022892215627785775
143,6.0,299.57352000000003,401.4141,0.0,0.0,0.0,0.0,0.0,-0.0014252537704863566,-0.06624985209885134,-0.014689768617017287,-0.04108024237405426,-0.0005594579772442035,0.023699833712741477,0.011043082520367389
144,6.0,300.18045,444.14180999999996,0.0,0.0,0.0,0.0,0.0,-0.0014352205800702011,-0.05989970125139025,-0.03551284141434457,-0.03959547634001926,0.006274520137471925,0.00976982666918182,-0.00995113146125021
145,6.0,300.11393,478.2681,0.0,0.0,0.0,0.0,0.0,-0.001445187389654018,-0.06414882026124563,-0.04398410671639336,-0.03724863205465376,-0.002661140280884097,0.006435564284515744,0.01839828830101968
146,6.0,300.73161,428.29905,0.0,0.0,0.0,0.0,0.0,-0.0014551541992378347,-0.05645773524469465,-0.022105842357676778,-0.05162863897034995,0.003518355235709627,0.009541897883037,0.0032507036005944667
147,6.0,300.80671,306.61533,0.0,0.0,0.0,0.0,0.0,-0.0014651210088216238,0.014180403738746888,-0.04994370031280945,-0.057440107561147244,0.008895870492229061,-0.008737881902186802,-0.02290313035786298
148,6.0,300.51971000000003,270.64943,0.0,0.0,0.0,0.0,0.0,-0.0014750878184054683,0.0047956045081893155,-0.05501744278404885,-0.03204882911197317,-0.013633237538995787,-0.022943771819373977,-0.05768016677483924
149,6.0,300.21204,435.26320999999996,0.0,0.0,0.0,0.0,0.0,-0.0014850546279892851,-0.039659368851574964,-0.02910098667554377,-0.06354879280377754,-0.00941001264207094,-0.015724807647167684,-0.027738097403287074
150,6.0,301.02553,195.67893999999998,0.0,0.0,0.0,0.0,0.0,-0.0014950214375731297,-0.012612622124018888,-0.045001171703019864,-0.0018677172218793381,0.004786334586999445,-0.014916390107883086,-0.05090898720607586
151,6.0,299.39315,-102.04365,0.0,0.0,0.0,0.0,0.0,-0.0015049882471569187,0.013184219810181188,0.01161470959078259,0.006219790547895534,0.01128241523373769,0.006030864493874984,-0.03984809985495126
152,6.0,299.72136,74.042017,0.0,0.0,0.0,0.0,0.0,-0.0015149550567407633,-0.015165451035463485,0.003438353060814027,-0.010779826972136091,-0.019664494261984484,-0.02462170891872348,-0.027675459295355177
153,6.0,300.04871,418.21938,0.0,0.0,0.0,0.0,0.0,-0.00152492186632458,-0.015463027391081987,-0.049234167877284046,-0.06243105432696535,0.0014303865223681586,-0.01208240455869049,3.1067128580336874e-05
154,6.0,299.25226000000004,312.16607999999997,0.0,0.0,0.0,0.0,0.0,-0.0015348886759084246,-0.04113229303169126,-0.008680926303465722,-0.045077474501800364,0.001739809291530808,0.009539018124927792,0.0007905035510941263
155,6.0,298.90778,555.7884,0.0,0.0,0.0,0.0,0.0,-0.0015448554854922136,-0.08393715395045212,-0.045831929380509256,-0.039176711219440365,0.02294787142927858,-0.0038435282684017064,0.02758841807201487
156,6.0,299.87537000000003,774.29288,0.0,0.0,0.0,0.0,0.0,-0.0015548222950760304,-0.0994362408860929,-0.07722760633227133,-0.05870185319517185,-0.01991806719226018,-0.008680604393908952,-0.015166401464057287
157,6.0,300.00516,467.08223,0.0,0.0,0.0,0.0,0.0,-0.0015647891046598472,-0.07864153402531512,-0.01051381335713259,-0.05282598648101895,-0.0069415373080763945,-0.0076488744359351326,0.02278562881001648
158,6.0,300.97932000000003,422.24280999999996,0.0,0.0,0.0,0.0,0.0,-0.0015747559142436918,-0.016823100841310785,-0.057618282524981745,-0.05390988747074165,0.008893996080869071,-0.011841162882131788,-0.017642777615706585
159,6.0,300.68787000000003,389.39142000000004,0.0,0.0,0.0,0.0,0.0,-0.0015847227238275086,-0.016283843058590184,-0.03608864408842186,-0.06599278041598033,0.0014051208271496287,-0.0014669466124763585,-0.008078110179072404
160,6.0,299.72435,8.5504358,0.0,0.0,0.0,0.0,0.0,-0.0015946895334113531,0.021968715168643377,-0.016402315300032486,-0.008165518806898961,0.01041113059199859,-0.023029821070866374,-0.05821314342018995
161,6.0,300.62805,-6.0257572999999995,0.0,0.0,0.0,0.0,0.0,-0.0016046563429951144,-0.017637168263152984,0.0006544047602497214,0.018814443289340982,0.011035392965358489,-0.00037484504518932565,-0.03305474429449926
162,6.0,300.50497,216.78388999999999,0.0,0.0,0.0,0.0,0.0,-0.001614623152578959,-0.030612833845001474,-0.013104017011765789,-0.02218003962274948,0.007190825608979233,0.02100426724645978,-0.040426424508527466
163,6.0,299.28432999999995,184.96448999999998,0.0,0.0,0.0,0.0,0.0,-0.0016245899621627757,-0.045926068420800055,-0.025933755327462372,0.015635236338327686,0.007994152883736462,-0.013843909460037487,-0.02384759192182408
164,6.0,299.1189,361.24834,0.0,0.0,0.0,0.0,0.0,-0.0016345567717466203,-0.024418912990709078,-0.04616015756490286,-0.039231402406837965,-0.02031389841007568,-0.02066847818981998,-0.02249163429350148
165,6.0,299.56735,642.43979,0.0,0.0,0.0,0.0,0.0,-0.001644523581330437,-0.04695621446621755,-0.06936343894688843,-0.07896600203858763,-0.018139003679930283,-0.005463898272594775,0.007610938250866123
166,6.0,299.15251,625.32872,0.0,0.0,0.0,0.0,0.0,-0.0016544903909142539,-0.06292176223114444,-0.07256755867811043,-0.05459499551260655,-0.006712166160414223,0.012781179317904188,-0.011983236758153389
167,6.0,300.31721,566.80648,0.0,0.0,0.0,0.0,0.0,-0.001664457200498043,-0.05620372357712565,-0.06497753927953384,-0.05111375491878486,0.00044561888267915964,0.019217358138605582,-0.002138061670460258
168,6.0,299.90056,276.86286,0.0,0.0,0.0,0.0,0.0,-0.0016744240100818875,-0.03703407431947856,-0.02183823692676618,-0.025287083914890877,0.013851417643278487,-0.009778095499272891,-0.03368375577107787
169,6.0,299.91568,87.894364,0.0,0.0,0.0,0.0,0.0,-0.0016843908196657043,-0.011909060771332788,0.004496662392761026,-0.019305293048534084,0.007616201274535543,0.017062856079972783,-0.007475799767803993
170,6.0,300.12906,115.85918999999998,0.0,0.0,0.0,0.0,0.0,-0.0016943576292495488,0.024322556959199475,-0.012431289872872788,-0.04710956784235236,-0.002122318499681528,0.0038653802227083265,-0.030238822968089468
171,6.0,300.08832,297.17954,0.0,0.0,0.0,0.0,0.0,-0.0017043244388333378,-0.023991936491319775,-0.041690668817298666,-0.024652555291517775,0.0026897531464829673,-0.0024031677173491878,-0.017663107465712983
172,6.0,299.78866,436.58342000000005,0.0,0.0,0.0,0.0,0.0,-0.0017142912484171824,-0.04588260100476016,-0.04225170033141816,-0.04457615584257405,-1.4395566384231785e-05,-0.025815471550538677,-0.03176554363576507
173,6.0,300.13539,387.57015,0.0,0.0,0.0,0.0,0.0,-0.0017242580580009992,-0.06181824269298553,-0.01124705685824809,-0.04474634740887066,-0.001066029284458899,0.002937957877728867,-0.0092691633801202
174,6.0,299.34995,528.22839,0.0,0.0,0.0,0.0,0.0,-0.0017342248675848437,-0.05850348719659464,-0.05267865991647896,-0.049386092570777855,-0.0011926979086101187,-0.005337923319462015,-0.024606616558483976
175,6.0,299.73308,792.18031,0.0,0.0,0.0,0.0,0.0,-0.0017441916771686328,-0.10779864462389789,-0.05447881828264075,-0.07852557261762062,-0.024565088503135477,-0.005584160926963775,0.016290169792214586
176,6.0,299.82178,620.73826,0.0,0.0,0.0,0.0,0.0,-0.0017541584867524496,-0.03485151941857716,-0.06991588823266094,-0.08392152456765962,-0.004224142293565386,0.005940996302755684,-0.023532904811766876
177,6.0,300.35423,264.47972999999996,0.0,0.0,0.0,0.0,0.0,-0.0017641252963362664,-0.015610672116153385,-0.01858123769932538,-0.04620332404566305,-0.01149750695171559,0.050974230380014855,0.022740791479841378
178,6.0,300.41795,142.68386999999998,0.0,0.0,0.0,0.0,0.0,-0.001774092105920111,-0.008724294927620871,-0.006039740767401005,-0.02860829888066927,0.005657686812520215,0.04076040288723856,-0.03621953168333947
179,6.0,299.94365,186.01471,0.0,0.0,0.0,0.0,0.0,-0.0017840589155039277,-0.007064344030796472,-0.023845033465321578,-0.025634449353923176,-0.016989220155455485,0.012429246147421089,-0.028234386289016974
180,6.0,299.31937,172.37895,0.0,0.0,0.0,0.0,0.0,-0.0017940257250877722,-0.01227740048743509,-0.030131595776256972,-0.0099899003352514,0.008091267231620902,-0.025953583618669274,-0.07756300731412283
181,6.0,300.66524,292.21277000000003,0.0,0.0,0.0,0.0,0.0,-0.0018039925346715335,-0.02329161145945308,-0.04944078477142555,-0.016092988283004286,0.013253204916739486,-0.029092000160406868,-0.026341175086671578
182,6.0,299.57236,194.69218,0.0,0.0,0.0,0.0,0.0,-0.001813959344255378,0.002867193503994967,-0.037393323155683666,-0.024655431908551677,0.02014007028917018,-0.015758605617503283,-0.06200748842741264
183,6.0,299.16212,341.20876,0.0,0.0,0.0,0.0,0.0,-0.0018239261538391949,-0.005735527826277525,-0.06965179371334684,-0.028331619795113176,0.0031997110800368973,-0.006564285246744514,-0.022317540701069775
184,6.0,299.25881,595.6467700000001,0.0,0.0,0.0,0.0,0.0,-0.0018338929634230394,-0.059604605332016544,-0.06663318285018315,-0.05482395659795325,0.002880467890905047,-0.0067330477251000736,-0.03395063267516657
185,6.0,300.19405,513.97615,0.0,0.0,0.0,0.0,0.0,-0.0018438597730068562,-0.05177100060939995,-0.03140364008429797,-0.07306127593508652,-0.014920952773083387,0.012752830606606386,0.014677065500513587
186,6.0,300.72745,203.20061,0.0,0.0,0.0,0.0,0.0,-0.001853826582590673,-0.02242649649757288,-0.026888944170232174,-0.01245246983971309,-0.008855973060266491,-0.0025508395975232675,-0.004405461372460185
187,6.0,301.21397,224.61577999999997,0.0,0.0,0.0,0.0,0.0,-0.001863793392174462,-0.02018478906908358,-0.004345616997704005,-0.043747182498510756,-0.03197996863517717,0.01134517898468199,0.0014799837975380287
188,6.0,299.75714,333.75147000000004,0.0,0.0,0.0,0.0,0.0,-0.0018737602017583066,-0.008329129111146043,-0.024345165608680774,-0.06877781889259223,-0.009370591235005351,-0.019637381715808682,-0.0059571728406021835
189,6.0,300.2198,404.09168999999997,0.0,0.0,0.0,0.0,0.0,-0.0018837270113421234,-0.05926221393772514,-0.02207630409076158,-0.041495266575263964,0.01966379714591568,0.015331914854642185,-0.0035839881056370865
190,6.0,300.40733,379.57259,0.0,0.0,0.0,0.0,0.0,-0.001893693820925968,-0.058039812805083545,-0.027476298908699574,-0.029864476705394372,0.015848036084579385,0.00979407485864993,-0.03315877670876647
191,6.0,299.76621,350.90879,0.0,0.0,0.0,0.0,0.0,-0.001903660630509757,-0.04865491204686595,-0.04876779418750655,-0.009244804239766142,0.018771595982362284,-0.01324354864328649,-0.02161651450013388
192,6.0,300.29607000000004,351.28073,0.0,0.0,0.0,0.0,0.0,-0.0019136274400936015,-0.051556363840716955,-0.04465226916358586,-0.01057193844911909,-0.012828378534062386,-0.047188017718094756,-0.030126037086208368
193,6.0,299.94383,480.32041,0.0,0.0,0.0,0.0,0.0,-0.0019235942496774183,-0.03447695125411017,-0.07001502056944453,-0.04151343921580746,0.02273412328093328,-0.014400214162440484,-0.01097030177893449
194,6.0,299.98447999999996,474.68002,0.0,0.0,0.0,0.0,0.0,-0.0019335610592612629,-0.022645937084979976,-0.07259898260346173,-0.049045951604958546,0.013844251938571289,-0.0015137865301490987,-0.02255329461508688
195,6.0,300.72803,287.32131,0.0,0.0,0.0,0.0,0.0,-0.001943527868845052,-0.031279037679750675,-0.02237021754726858,-0.033689249613120066,0.0015341141510052784,0.016751290793473685,-0.006376186207455584
196,6.0,300.43356,233.21268999999998,0.0,0.0,0.0,0.0,0.0,-0.0019534946784288687,0.009258362336704221,-0.04615007673965796,-0.03399912175870207,-0.027947176495171575,0.013757709234280187,-0.02270438844349868
197,6.0,299.38407,300.41765,0.0,0.0,0.0,0.0,0.0,-0.0019634614880126855,-0.027534830313976178,-0.03696785741219347,-0.026816776445109772,-0.016858058983010883,0.04254710427882226,-0.026055764825003772
198,6.0,299.56315,500.25514000000004,0.0,0.0,0.0,0.0,0.0,-0.00197342829759653,-0.028766498632032372,-0.04925577036941605,-0.07404280016120543,-0.008952367291304861,0.02265702406757418,-0.03339473428605367
199,6.0,299.96832,323.93232,0.0,0.0,0.0,0.0,0.0,-0.001983395107180347,0.0024102419255723575,-0.08283867330504051,-0.01803890571580138,-0.001132678950861709,0.00019365891484014682,-0.07104368422996572
200,6.0,301.18388,256.03361,0.0,0.0,0.0,0.0,0.0,-0.0019933619167641914,-0.008090280832648553,-0.041844479169228566,-0.027893063873581075,-0.013901231044694685,-0.02198784735703158,-0.027282652629088175
201,6.0,301.56484,306.21247999999997,0.0,0.0,0.0,0.0,0.0,-0.0020033287263479527,-0.05756513654398665,-0.034480615166471766,-0.001035194969340789,0.01039297720320699,-0.006585689243181924,-0.02983079627207037
202,6.0,299.69831,389.18601,0.0,0.0,0.0,0.0,0.0,-0.0020132955359317972,-0.03308629690261326,-0.05889433829016865,-0.02632219285929818,0.015062146134768088,0.016420972274123785,-0.02494868675249368
203,6.0,300.04535,542.03125,0.0,0.0,0.0,0.0,0.0,-0.002023262345515614,-0.09624322130971641,-0.035934309886190265,-0.032586435297030765,-0.0029598026379597775,-0.006464200758841943,-0.007856988913724432
204,6.0,300.20829,624.40167,0.0,0.0,0.0,0.0,0.0,-0.0020332291550994586,-0.06723827149190073,-0.054877750045762244,-0.06768649381938684,0.001085962751026179,-0.015105554782302185,0.011769614252820488
205,6.0,299.1374,426.31115,0.0,0.0,0.0,0.0,0.0,-0.0020431959646832754,-0.025175694291647576,-0.05637905536117955,-0.048033193944507155,-0.0017537160478282982,0.006197834938103683,0.013384764296473388
206,6.0,298.96084,441.93976,0.0,0.0,0.0,0.0,0.0,-0.002053162774267092,-0.04373477423778616,-0.03252035416525907,-0.058083524414397535,0.014287567095823088,-0.013342563443058486,0.01927017582656828
207,6.0,298.96623,709.0951200000001,0.0,0.0,0.0,0.0,0.0,-0.002063129583850909,-0.08411749220325013,-0.06364385491490944,-0.06778586325669385,-0.003867970191288936,-0.01746039665070698,-0.010561568847595688
208,6.0,299.23368,516.93815,0.0,0.0,0.0,0.0,0.0,-0.0020730963934347257,-0.05783118764924385,-0.049373930529827546,-0.049931172488573046,-0.02166010249293568,-0.002887287672028107,-0.016083463732064287
209,6.0,301.02647,309.24425,0.0,0.0,0.0,0.0,0.0,-0.0020830632030185425,-0.02159211746422608,-0.05566887748534045,-0.016741535221510884,-0.014530503939799086,0.02718357804756027,-0.04596606140224705
210,6.0,300.90476,291.21405,0.0,0.0,0.0,0.0,0.0,-0.002093030012602387,0.005629206682684444,-0.06298292200718043,-0.031168085780550574,-0.023063561285946277,0.02908413835288097,-0.04590762017622936
211,6.0,300.7985,312.51308,0.0,0.0,0.0,0.0,0.0,-0.002102996822186176,-0.007926583895517923,-0.05647461193836025,-0.03059497632523907,-0.014519274088940787,-0.001159655620199099,-0.04933434386167066
212,6.0,300.48737,286.71042,0.0,0.0,0.0,0.0,0.0,-0.0021129636317700207,-0.02927650185786577,-0.049469082820218356,-0.008407222424178252,0.010788485194240591,-0.014786168218281187,-0.02053710930110488
213,6.0,300.63498,331.64387,0.0,0.0,0.0,0.0,0.0,-0.0021229304413538375,-0.04428924799725845,-0.03946220254111617,-0.01706000580744148,0.016421590356684782,-0.006553510345181114,-0.025605749044840677
214,6.0,300.12577000000005,335.26909,0.0,0.0,0.0,0.0,0.0,-0.002132897250937682,-0.008938177027629392,-0.056809255009136944,-0.03616599864080617,0.02743795651166547,-0.0045149740512182455,-0.027950511101250675
215,6.0,300.65923,248.92846,0.0,0.0,0.0,0.0,0.0,-0.002142864060521471,-0.015473002838316485,-0.05503693062322215,-0.005158104053365235,-0.02346951385901068,-0.023227382548864178,-0.03343288011256837
216,6.0,300.71079,462.38356,0.0,0.0,0.0,0.0,0.0,-0.002152830870105288,-0.026241469250331374,-0.038544622502308064,-0.07576696375661712,-0.0053297038346508145,-0.007089084558488174,-0.013238229080261487
217,6.0,300.32916,644.56595,0.0,0.0,0.0,0.0,0.0,-0.0021627976796891046,-0.06606328134468824,-0.05113678812005805,-0.07873188351023193,-0.00922227431981761,0.014321253608647685,-0.002046404991589448
218,6.0,299.94986,369.71693,0.0,0.0,0.0,0.0,0.0,-0.002172764489272949,-0.027639795931585474,-0.034955476852336964,-0.049789442104335356,0.001868333379265148,0.01817186439392338,-0.021009665842992582
219,6.0,301.11771,147.83088,0.0,0.0,0.0,0.0,0.0,-0.002182731298856766,-0.017246157076063185,-0.0017257824650964682,-0.025964957351041772,-0.011217143688795889,-0.027661288992706676,-0.028227784964615473
220,6.0,300.03983999999997,253.8593,0.0,0.0,0.0,0.0,0.0,-0.0021926981084406105,-0.023877021770978578,-0.016912880879671383,-0.03637698466937886,-0.00913501403180569,-0.011672251050711489,-0.02625475194589227
221,6.0,299.19374,350.9682,0.0,0.0,0.0,0.0,0.0,-0.002202664918024372,-0.04052484149074046,-0.021592610917024777,-0.044568115703030556,0.017597627191250582,0.001094810146924349,-0.029236576764175473
222,6.0,298.99372999999997,409.75237999999996,0.0,0.0,0.0,0.0,0.0,-0.0022126317276082164,-0.02266547761315848,-0.05160220023549065,-0.050286814154422155,-0.002664365557277407,0.013513463271174989,-0.03898110936713596
223,6.0,300.1528,621.45193,0.0,0.0,0.0,0.0,0.0,-0.002222598537192033,-0.08870890938838771,-0.07271961306761703,-0.027477345596052874,-0.007674762064065043,-0.010440660752912992,-0.016470912331802486
224,6.0,300.61978999999997,330.6345,0.0,0.0,0.0,0.0,0.0,-0.0022325653467758777,-0.05338685992812285,-0.012120517961201989,-0.03499725315395996,-0.008118575740366042,-0.01122497408556869,0.012343805859238789
225,6.0,299.94454,188.98897,0.0,0.0,0.0,0.0,0.0,-0.0022425321563596945,-0.022707825387837877,-0.03205619949320057,-0.0026839039576306975,0.006883549815453474,0.011826151581900288,0.0025098498819528976
226,6.0,300.16526,725.4889,0.0,0.0,0.0,0.0,0.0,-0.0022524989659435113,-0.06633393260539944,-0.06598520231848244,-0.08821137521828491,-0.00948116215216785,0.00015809960172321586,-0.011607840768354688
227,6.0,300.93622999999997,817.59606,0.0,0.0,0.0,0.0,0.0,-0.002262465775527328,-0.049484553122745155,-0.0964101106939371,-0.10263412912919989,-0.0073443505283559635,-0.005960184625199425,-0.04788803066893066
228,6.0,301.4007,260.51347000000004,0.0,0.0,0.0,0.0,0.0,-0.0022724325851111726,0.016890231700186085,-0.05201443394592495,-0.04406538761291516,-0.01856984167545068,0.013879093556509887,-0.04028644907346296
229,6.0,300.52614,9.6296481,0.0,0.0,0.0,0.0,0.0,-0.0022823993946949617,-0.00959139038814653,-0.013985099781971886,0.02064931763042898,0.011405793632164188,0.016836808088663585,-0.06042683245691404
230,6.0,299.39824,254.43941,0.0,0.0,0.0,0.0,0.0,-0.0022923662042787785,-0.014596474627309885,-0.05828832049810934,-0.004458432162512996,-0.0008198938733622251,0.022382156673196877,-0.03465275825246097
231,6.0,299.5849,305.59281,0.0,0.0,0.0,0.0,0.0,-0.0023023330138625953,-0.044534737218236364,-0.04070134864491036,-0.007656498636312582,-0.0036191515318074467,-0.016157718752392684,-0.048584422263909154
232,6.0,300.20366,440.36342,0.0,0.0,0.0,0.0,0.0,-0.00231229982344644,-0.04337266803629905,-0.04851465290177345,-0.04197216388058007,0.004119906823978147,-0.0016124402075854583,-0.013541940665235487
233,6.0,299.74014,366.03821,0.0,0.0,0.0,0.0,0.0,-0.0023222666330302566,-0.024105281687256078,-0.04368374189649966,-0.04347745025564026,-0.0027317335166761074,0.0030474683273367074,-0.027172011797668774
234,6.0,300.22572,281.10405,0.0,0.0,0.0,0.0,0.0,-0.0023322334426140456,-0.00819880630183418,-0.037673428039827865,-0.03957637860213446,0.002994070958991797,0.002050495786218178,-0.028109695731710977
235,6.0,300.05152000000004,538.9418099999999,0.0,0.0,0.0,0.0,0.0,-0.00234220025219789,-0.07853164806522021,-0.04927762313432275,-0.036015581663461166,-0.012950561297370888,-0.007837433693419481,-0.015163368806507985
236,6.0,300.03337999999997,813.23369,0.0,0.0,0.0,0.0,0.0,-0.002352167061781707,-0.11039567555770491,-0.06437347604691744,-0.07243358168363793,-0.015022423691097787,0.017912530123579084,0.011947048530831887
237,6.0,300.45366,472.47284,0.0,0.0,0.0,0.0,0.0,-0.0023621338713655238,-0.06545081016274204,-0.024189138265532078,-0.05397999627166085,-0.0005920157598549064,0.01163053655734459,0.0021025309411286477
238,6.0,300.66302,115.87818,0.0,0.0,0.0,0.0,0.0,-0.0023721006809493683,0.011982030990534388,-0.018868292465905483,-0.02833781075322418,-0.023766560284826876,-0.004243015393903016,-0.04335140295645036
239,6.0,300.37198,373.93896,0.0,0.0,0.0,0.0,0.0,-0.002382067490533185,-0.0005142213657346974,-0.061662452450360235,-0.05149143274780875,-0.007607865569937872,-0.03509609975421536,-0.04521907113702486
240,6.0,299.64071,409.16747000000004,0.0,0.0,0.0,0.0,0.0,-0.002392034300117002,-0.04153986477841546,-0.03819036594934567,-0.04464646425376296,0.01197792834087949,-0.02234645581917348,-0.040464177194003366
241,6.0,299.27092000000005,185.83751999999998,0.0,0.0,0.0,0.0,0.0,-0.002402001109700791,-0.04957508904568036,-0.009057599596340482,0.002142722924895288,0.00016873364125771383,0.00922893988427545,-0.02054041249643088
242,6.0,300.09097,88.380921,0.0,0.0,0.0,0.0,0.0,-0.0024119679192846355,-0.015784999769358186,-0.025749318478009875,0.014668724425690385,-0.012279457385138089,0.01032516240051419,-0.04336325798262036
243,6.0,300.559,235.24587000000002,0.0,0.0,0.0,0.0,0.0,-0.0024219347288684523,-0.018085709764420584,-0.039279811443615566,-0.014143348169339787,-0.016123445567760183,-0.0026688173729167678,-0.031168287417320473
244,6.0,300.55472000000003,604.40436,0.0,0.0,0.0,0.0,0.0,-0.002431901538452269,-0.02301734998863558,-0.07119307275845922,-0.08951341172928591,0.014527504719503087,0.012274159100365188,-0.028254706006522374
245,6.0,300.07854,865.71655,0.0,0.0,0.0,0.0,0.0,-0.0024418683480361136,-0.05861135070948995,-0.08434844837804373,-0.1201964182099629,0.018756062858329283,-0.02049521444922018,-0.023491880341718077
246,6.0,299.66747000000004,685.22382,0.0,0.0,0.0,0.0,0.0,-0.0024518351576199304,-0.06112957307701914,-0.07065268114887674,-0.07650867802856863,-0.003902649182586486,-0.02221012605796878,-0.02023602203388988
247,6.0,300.25886,228.85002999999998,0.0,0.0,0.0,0.0,0.0,-0.0024618019672037472,-0.026395117482245274,-0.02082353078637248,-0.02234604747938318,-0.016644371629671587,-0.04630991592968286,-0.03207330923438917
248,6.0,298.85285,215.30239,0.0,0.0,0.0,0.0,0.0,-0.0024717687767875363,-0.013447872552451686,-0.04761368712485505,-0.004384990680689886,-0.008023454354103293,0.011573428768458488,-0.02426958424397148
249,6.0,298.72855,488.08734000000004,0.0,0.0,0.0,0.0,0.0,-0.002481735586371381,-0.06295604858802824,-0.03687126934641097,-0.04853904791118105,-0.01095091323827099,0.019898238901053283,-0.024487856554013275
250,6.0,298.58992,191.79921000000002,0.0,0.0,0.0,0.0,0.0,-0.0024917023959551976,-0.0033077781548772867,-0.02304695310355718,-0.031947439253966765,-0.003077171348718167,-0.013493933888747589,-0.054681099479604346
251,6.0,299.23246,-146.74508,0.0,0.0,0.0,0.0,0.0,-0.0025016692055390144,0.05841345688545935,-0.011118338631794589,-0.0026882790702374873,-0.015799836790572487,-0.014055050515875486,-0.052120605331153244
252,6.0,299.89265,168.40801000000002,0.0,0.0,0.0,0.0,0.0,-0.002511636015122831,-0.036404125586557465,0.00872654778789321,-0.023514251890675977,0.018539772465483082,0.003005601238504747,-0.01887639745345538
253,6.0,299.96055,693.47496,0.0,0.0,0.0,0.0,0.0,-0.0025216028247066757,-0.11211373229476389,-0.04867044719739915,-0.050014892278085546,0.02293278818828998,0.014889103282690087,0.003961893814608476
254,6.0,300.24935,776.44245,0.0,0.0,0.0,0.0,0.0,-0.0025315696342904648,-0.1018461650564339,-0.053117238129513245,-0.08105571587257633,-0.016593595640660385,0.004486286711737026,-0.027907434799749373
255,6.0,300.51895,678.29081,0.0,0.0,0.0,0.0,0.0,-0.0025415364438743093,-0.05782960900558804,-0.06490678098530053,-0.08344707831433541,-0.026674345905052972,-0.004913103928210605,-0.007199694789754554
256,6.0,299.73016,382.86912,0.0,0.0,0.0,0.0,0.0,-0.002551503253458126,-0.003890429893005536,-0.05079290724811965,-0.061699314488998236,-0.01070279969953409,-0.0006771162546161714,-0.029300212923455873
257,6.0,300.33871,414.13102000000003,0.0,0.0,0.0,0.0,0.0,-0.002561470063041943,-0.02037046107040798,-0.04383507890493546,-0.06167995026633715,0.02255922516792218,0.003905186259511876,-0.016556312089980783
258,6.0,300.11011,476.65852,0.0,0.0,0.0,0.0,0.0,-0.0025714368726257597,-0.05682239280993354,-0.05842821791291614,-0.029641676180655673,0.011924564511112887,-0.029457049853434475,-0.02715276511201927
259,6.0,300.56851,177.8787,0.0,0.0,0.0,0.0,0.0,-0.0025814036822096043,-0.028497906295524372,-0.03273857885254617,0.007165802891134683,0.003537262077275587,-0.02037349372795728,-0.032092044228738174
260,6.0,300.48405,2.085343,0.0,0.0,0.0,0.0,0.0,-0.002591370491793421,0.008026071072486542,-0.014941698055630784,0.006281734680833944,0.007298542605910073,0.008849925781019672,-0.03330254879195567
261,6.0,300.09052,204.89723999999998,0.0,0.0,0.0,0.0,0.0,-0.00260133730137721,-0.008701870385682741,-0.039693070563151064,-0.013888704233708388,-0.0040381326773076655,0.03632316994331776,-0.055380913833420656
262,6.0,299.58035,538.93559,0.0,0.0,0.0,0.0,0.0,-0.002611304110961027,-0.016726427662519885,-0.05604057004602364,-0.0910559654430241,-0.014054835706854287,0.012991289898390487,-0.05413155416861845
263,6.0,300.76361,603.73094,0.0,0.0,0.0,0.0,0.0,-0.0026212709205448714,-0.05277953909643495,-0.049011027913761857,-0.08172856358823122,-0.02877686012755497,-0.00887784912992549,-0.04616980877210536
264,6.0,298.99467000000004,353.6393,0.0,0.0,0.0,0.0,0.0,-0.0026312377301286882,-0.03216392925708267,-0.05564531536751505,-0.019688273215331283,-0.015595868532192384,0.007005678471206633,-0.005522138571117645
265,6.0,299.3611,414.59562999999997,0.0,0.0,0.0,0.0,0.0,-0.0026412045397125328,-0.05480806275688466,-0.027246658945785873,-0.043971998377698364,0.014934860643955985,0.019333192890037584,-0.0029539947897115875
266,6.0,299.73922000000005,498.36273,0.0,0.0,0.0,0.0,0.0,-0.002651171349296322,-0.06156702050294184,-0.05333662602791515,-0.03658617724527457,-0.0022627600297920277,-0.007607841555910503,-0.0026991445563598277
267,6.0,299.61621,325.32921,0.0,0.0,0.0,0.0,0.0,-0.0026611381588801664,-0.007626377547939863,-0.032811886484031064,-0.05845369304693035,0.015396188348235487,-0.013403858994607887,-0.017953433003615883
268,6.0,300.90873999999997,300.57521,0.0,0.0,0.0,0.0,0.0,-0.0026711049684639554,0.004352632032121336,-0.04005973942983846,-0.055660249660738945,0.025457412269950977,-0.005087667162063655,-0.015997785330108486
269,6.0,301.48263,240.33628,0.0,0.0,0.0,0.0,0.0,-0.0026810717780478,-0.00972527142783456,-0.048175007415253046,-0.015155949789275787,0.01917498199292338,0.012258867129855988,-0.014880326510323883
270,6.0,301.37982,252.87257999999997,0.0,0.0,0.0,0.0,0.0,-0.0026910385876316167,-0.04634816612095786,-0.009015223450658283,-0.02150356041873618,-0.018369799761208085,-0.03426621752481237,-0.02915527762915187
271,6.0,301.10515,492.52820999999994,0.0,0.0,0.0,0.0,0.0,-0.0027010053972154335,-0.062090799877134846,-0.03771234697616886,-0.04991312954404236,-0.012949125521979186,-0.016863221492270382,-0.01120001874885579
272,6.0,300.48192,456.52234000000004,0.0,0.0,0.0,0.0,0.0,-0.0027109722067992503,-0.06357943551330174,-0.029989576615740768,-0.04520238088137766,0.0007857532218428051,-0.006301206206680635,-0.02167806640395858
273,6.0,299.76383,320.23185,0.0,0.0,0.0,0.0,0.0,-0.002720939016383095,-0.007511177192395473,-0.029993273965355675,-0.05983803586355435,0.01780960316517098,0.024790062449338676,-0.025284725068658077
274,6.0,300.89036,542.22937,0.0,0.0,0.0,0.0,0.0,-0.002730905825966884,-0.03111915390672137,-0.07369559177593864,-0.06000944231672085,-0.006791340813953154,-0.003834938542003966,-0.05611547455966615
275,6.0,300.4139,447.84324000000004,0.0,0.0,0.0,0.0,0.0,-0.0027408726355507285,-0.06336478151936704,-0.03435047332362776,-0.038417909497802466,-0.02138627469316098,0.005163208706044025,-0.028546916189611273
276,6.0,299.35012,170.89473,0.0,0.0,0.0,0.0,0.0,-0.0027508394451345175,-0.01979741646310288,-0.034091306239549965,0.0019409905041858483,0.016968785940688784,0.03656486150292087,-0.02509458970064318
277,6.0,299.32041,155.98689,0.0,0.0,0.0,0.0,0.0,-0.002760806254718362,-0.015877357515973183,-0.04203804236233176,0.01049928233744849,0.014133458848363787,0.023903934706884677,-0.012761410808453187
278,6.0,299.24055,371.21705,0.0,0.0,0.0,0.0,0.0,-0.002770773064302179,-0.03546887446600537,-0.05259067231754525,-0.024781168139960875,0.0025718578496476074,-0.029561034644946974,-0.02710353635591077
279,6.0,298.89367000000004,352.58869,0.0,0.0,0.0,0.0,0.0,-0.0027807398738860234,0.012645785799791887,-0.05534890120976125,-0.06447504221044123,-0.02345191674452398,-0.04930891939016145,-0.03723065294487936
280,6.0,299.87212,289.36121,0.0,0.0,0.0,0.0,0.0,-0.00279070668346984,-0.0024815002587300077,-0.05636311491060635,-0.029113967422574872,0.024827531424786577,-0.015434619911278383,-0.060198184465848244
281,6.0,299.92351,289.91007,0.0,0.0,0.0,0.0,0.0,-0.0028006734930536292,-0.02311165824169308,-0.006003233568948024,-0.05901052869238574,0.029172678173119172,0.012278761282319388,-0.01944024276310258
282,6.0,301.13873,317.14132,0.0,0.0,0.0,0.0,0.0,-0.002810640302637446,-0.052001448132643346,-0.03910649805376086,-0.005295096784110364,0.015751311230033385,-0.0010125935038026981,-0.05510166818536124
283,6.0,300.85989,320.54597,0.0,0.0,0.0,0.0,0.0,-0.0028206071122212906,-0.05033607533453386,-0.02217202684095868,-0.02492986968488658,-0.016330051316150587,-0.016874065294840587,-0.018271278414234784
284,6.0,301.56297,437.61158,0.0,0.0,0.0,0.0,0.0,-0.0028305739218051074,-0.06914629843720833,-0.03301446861627436,-0.030862227118614673,-0.022679699591562078,0.02132018342888828,-0.018565153367237984
285,6.0,300.00178,447.78309,0.0,0.0,0.0,0.0,0.0,-0.002840540731388952,-0.004158802455566846,-0.07534078164530622,-0.05661529462199454,-0.013201595022895989,0.02139942870595918,-0.02180614425634888
286,6.0,299.42142,348.16709,0.0,0.0,0.0,0.0,0.0,-0.002850507540972741,-0.029681815070117072,-0.036499471407717365,-0.039652813123427964,-0.0007611339801880752,0.003892363275521346,-0.037452057210980265
287,6.0,299.03704,516.9814200000001,0.0,0.0,0.0,0.0,0.0,-0.0028604743505565855,-0.03964506581316336,-0.059574587797804036,-0.057929789042975036,-0.03496531247105767,-0.008911830295879173,-0.016618402029608584
288,6.0,299.52727999999996,619.93351,0.0,0.0,0.0,0.0,0.0,-0.0028704411601403745,-0.08486417849344233,-0.051178396222164454,-0.05240173359789845,0.010949028593084989,0.005351438758570885,-0.006522617160232193
289,6.0,300.32873,399.18639,0.0,0.0,0.0,0.0,0.0,-0.002880407969724219,-0.04780946224292655,-0.03057636697390247,-0.04295686464576246,0.011635099222544888,0.006360169965774904,-0.003945179747583926
290,6.0,300.59261000000004,215.17721,0.0,0.0,0.0,0.0,0.0,-0.002890374779308036,-0.007095815477577464,-0.04979332487871855,-0.008519359522020322,0.024759900020361877,-0.02028309155403528,-0.027638405752448268
291,6.0,300.13816,402.07658,0.0,0.0,0.0,0.0,0.0,-0.0029003415888918527,0.004690354876576985,-0.03829007381218607,-0.08862152163351322,0.0007608174205918334,-0.04880654391108086,-0.025002322133287076
292,6.0,300.53418,537.61382,0.0,0.0,0.0,0.0,0.0,-0.0029103083984756695,-0.03619662108532837,-0.06112655764472154,-0.06609799934611463,-0.007325030888699263,-0.007488352112692813,-0.034602007594702264
293,6.0,299.8965,527.57054,0.0,0.0,0.0,0.0,0.0,-0.002920275208059514,-0.04266147387060966,-0.06320121255572403,-0.054505585310532456,0.0030105979800478873,0.013626944242624688,-0.05245315908022375
294,6.0,299.63091000000003,580.20322,0.0,0.0,0.0,0.0,0.0,-0.002930242017643303,-0.061710608174612845,-0.08338919741562302,-0.03126748662861067,-0.00910711287307706,0.020355116410893583,-0.05023146232795935
295,6.0,299.57715,190.99526,0.0,0.0,0.0,0.0,0.0,-0.0029402088272271476,-0.038312398751639366,-0.03365108960110397,0.013905697451135486,0.01039960385886099,0.03900354069784976,-0.047252327688691656
296,6.0,298.79753999999997,264.58932000000004,0.0,0.0,0.0,0.0,0.0,-0.0029501756368109366,-0.003149188200900677,-0.05151750468613185,-0.02576185440824708,-0.006268445095172364,0.008603110215660872,-0.030402760754768873
297,6.0,299.60553,505.53995999999995,0.0,0.0,0.0,0.0,0.0,-0.002960142446394781,-0.01062249253635839,-0.047518765855487054,-0.0955302651021031,0.006048038779094954,-0.004029857565065976,-0.022156633545439477
298,6.0,300.47832999999997,317.85079,0.0,0.0,0.0,0.0,0.0,-0.002970109255978598,-0.007120749333388243,-0.06454491087108674,-0.024953042714673575,-0.014032496581899586,-0.037755642139691764,-0.039473279391209364
299,6.0,300.30158,149.97416,0.0,0.0,0.0,0.0,0.0,-0.0029800760655624425,0.027132563944775572,-0.04722733790147536,-0.025493625828524973,0.029570923965922973,-0.024666641494407976,-0.027278063619385274
300,6.0,301.48400000000004,513.13783,0.0,0.0,0.0,0.0,0.0,-0.0029900428751462593,-0.07424196966711193,-0.04656842034819525,-0.035170696239827465,0.005698008796274683,-0.0024129579424654077,-0.018960445536000282
301,6.0,300.3097,764.08365,0.0,0.0,0.0,0.0,0.0,-0.0030000096847300484,-0.091859492024076,-0.08171794371393312,-0.058684915706500244,-0.0015013247698192186,-0.005093683537182425,-0.0035606736261361263
302,6.0,299.38641,507.51099000000005,0.0,0.0,0.0,0.0,0.0,-0.003009976494313865,-0.04832097723790915,-0.05430578353656355,-0.05164390966260705,-0.018349855959489784,-0.0034753149045868765,-0.033449409261449674
303,6.0,300.35893,501.85969000000006,0.0,0.0,0.0,0.0,0.0,-0.0030199433038977097,-0.014854998297574185,-0.08034700822263233,-0.05735080577683385,-0.0002304673525478568,-0.006986105620349943,-0.03174449235168747
304,6.0,300.22289,493.35855999999995,0.0,0.0,0.0,0.0,0.0,-0.0030299101134815265,-0.06098450099395165,-0.03131946534549057,-0.05766471471081424,0.00964069858306287,0.024920143497176677,-0.025721225105737273
305,6.0,299.86825,455.29644,0.0,0.0,0.0,0.0,0.0,-0.003039876923065371,-0.042955034716081864,-0.03888148661730396,-0.05656222868775736,-0.0007448457011205472,0.00960729233521593,-0.03823920460416566
306,6.0,300.7015,461.39012,0.0,0.0,0.0,0.0,0.0,-0.00304984373264916,-0.08053617087055122,-0.062417916526168744,0.0027030114227164577,-0.0005406073507937915,0.003167012790034827,-0.04177238237161316
307,6.0,299.89182,259.71876000000003,0.0,0.0,0.0,0.0,0.0,-0.0030598105422330046,-0.02002925315223338,-0.021625633751033876,-0.037293128932795266,-0.009555691459298321,0.00027294909915547873,-0.025320022649141675
308,6.0,300.39685,114.4169,0.0,0.0,0.0,0.0,0.0,-0.0030697773518167937,0.023533341522559974,-0.05889342839157884,0.0005802084071021114,0.012365386059868588,0.013099706645840387,-0.022452345520873978
309,6.0,300.63767,410.77881,0.0,0.0,0.0,0.0,0.0,-0.0030797441614006382,-0.0024811052938410274,-0.05712282957058435,-0.06526256551941373,-0.018029560510129085,-0.019481517505926083,-0.02381134391274668
310,6.0,299.69125,770.73289,0.0,0.0,0.0,0.0,0.0,-0.003089710970984455,-0.08267341018723032,-0.07927455189278912,-0.07233559026646694,-0.018468968574995283,-0.025303510725512075,-0.03218112411127967
311,6.0,299.59842000000003,577.1805400000001,0.0,0.0,0.0,0.0,0.0,-0.003099677780568272,-0.026513483332427076,-0.0939008677487941,-0.05503412088069485,0.004335609430441336,-0.009220495457942051,-0.048456349477769355
312,6.0,299.70766000000003,286.781,0.0,0.0,0.0,0.0,0.0,-0.0031096445901520886,-0.05238187997543904,-0.034587573847027764,-0.00020480972205814583,0.020110241219476282,0.0006570294225137553,-0.026379173991921773
313,6.0,299.60815,256.02369,0.0,0.0,0.0,0.0,0.0,-0.003119611399735933,-0.03615616099558527,-0.03290830533704687,-0.008760343022453543,0.006100162897364204,0.007580177497705273,-0.02900479985680087
314,6.0,300.10795,414.12175,0.0,0.0,0.0,0.0,0.0,-0.00312957820931975,-0.045487413200758164,-0.05239990670796815,-0.027995350457925974,0.005679379686561134,0.013404393990660686,-0.04232959798585606
315,6.0,300.002,272.76963,0.0,0.0,0.0,0.0,0.0,-0.0031395450189035945,-0.0009344094643565341,-0.04391751591982136,-0.038063230419548365,-0.006534538148983703,0.006115315647309665,-0.03008312189147297
316,6.0,300.48086,303.25401,0.0,0.0,0.0,0.0,0.0,-0.0031495118284873558,-0.009492369204898902,-0.053929264865654046,-0.028760013831392376,0.016114775186654485,0.013329718471540786,-0.03087516632239167
317,6.0,300.32674,432.67457,0.0,0.0,0.0,0.0,0.0,-0.0031594786380712003,-0.026440774531751275,-0.06116642396990604,-0.04391506689432966,-0.016258282811567586,-0.03040350144059197,-0.024642230272998774
318,6.0,300.75932,429.82727,0.0,0.0,0.0,0.0,0.0,-0.003169445447655017,-0.05929054035752074,-0.03829449867537276,-0.033071718260174465,0.008446972934876323,-0.01229522355669409,-0.02193945959850608
319,6.0,299.96656,698.2901,0.0,0.0,0.0,0.0,0.0,-0.0031794122572388617,-0.04410997973656605,-0.09893277008365421,-0.06922000326273244,-0.020200406292874878,-0.016615282232550682,-0.019005573668954084
320,6.0,300.78891,710.7788099999999,0.0,0.0,0.0,0.0,0.0,-0.0031893790668226785,-0.06120919629637735,-0.05444935499623295,-0.10040045981375391,0.007543201367106013,0.02031761703794268,0.017115671741435284
321,6.0,300.14377,369.75199,0.0,0.0,0.0,0.0,0.0,-0.0031993458764064675,-0.018186382241356183,-0.05694283480957025,-0.037266155201883165,-0.016813996789162285,-0.003501463241967517,-0.03295786339943787
322,6.0,299.92146,449.73416,0.0,0.0,0.0,0.0,0.0,-0.0032093126859902843,-0.05362878960149945,-0.04273041439416356,-0.04034875179561176,0.005317733905919475,-0.012030911188608488,-0.034688752949013364
323,6.0,299.9305,714.58784,0.0,0.0,0.0,0.0,0.0,-0.003219279495574129,-0.08524842015661402,-0.06434412624452085,-0.06762431370050014,0.007859085632156362,-0.02972429760705977,-0.039847903284431864
324,6.0,299.69354,478.59025,0.0,0.0,0.0,0.0,0.0,-0.0032292463051579456,-0.07241107537241673,-0.05507992586471545,-0.017988485377575282,0.025753705850942873,-0.011236343764940789,-0.03184439678504727
325,6.0,299.31007,340.07305,0.0,0.0,0.0,0.0,0.0,-0.00323921311474179,-0.016076065993084185,-0.03341691433074267,-0.05388073626536465,0.024968600156708976,-0.015477655682775685,-0.052832269644889046
326,6.0,300.17922000000004,489.38324000000006,0.0,0.0,0.0,0.0,0.0,-0.0032491799243255792,-0.044891124636159054,-0.05762552928969694,-0.04624363214789116,-0.009726316595312711,-0.014701024812378186,-0.03937036965805296
327,6.0,300.90184,410.43202,0.0,0.0,0.0,0.0,0.0,-0.0032591467339094238,-0.016938625538212185,-0.056409494407433654,-0.05141296463356455,-0.01805983743636718,0.01902508278637948,-0.04453065888658386
328,6.0,299.9051,269.7372,0.0,0.0,0.0,0.0,0.0,-0.003269113543493213,-0.0008033776332871991,-0.03266111588240117,-0.04852887994642755,-0.04725970516266975,0.03171615782589107,-0.023827998704640377
329,6.0,300.33103,425.676,0.0,0.0,0.0,0.0,0.0,-0.0032790803530770574,-0.038910167674634566,-0.06527715632085374,-0.025207549861541476,-0.01019970075988209,0.024100298523264275,-0.04047338054466166
330,6.0,299.95554,434.84379,0.0,0.0,0.0,0.0,0.0,-0.003289047162660874,-0.05907675775867204,-0.03193811735304677,-0.04116677899884476,-0.013369436862210687,-0.006287405638993624,-0.02399756914862568
331,6.0,299.4049,186.42783,0.0,0.0,0.0,0.0,0.0,-0.003299013972244691,0.01125120003790699,-0.053080668920154145,-0.014839937348087787,0.02914316625070657,-0.021359710315289278,-0.04945858757568255
332,6.0,299.15918999999997,280.44901,0.0,0.0,0.0,0.0,0.0,-0.0033089807818285077,-0.031488417706914865,-0.05034357845152436,-0.0034174990565308968,0.0039005222693015767,-0.004256981627981376,-0.01960317439243268
333,6.0,299.5225,642.59419,0.0,0.0,0.0,0.0,0.0,-0.0033189475914123523,-0.06844122835512334,-0.04315398232021646,-0.08373737750773572,0.023198353946749278,-0.008058111459198682,-0.043579024525164864
334,6.0,299.8248,601.11355,0.0,0.0,0.0,0.0,0.0,-0.003328914400996169,-0.06400448987725134,-0.08236948075348483,-0.03634954079042036,-0.007811683360678123,-0.015440307284089686,-0.05779357985853225
335,6.0,300.43975,273.1728,0.0,0.0,0.0,0.0,0.0,-0.003338881210579958,-0.022426082078281978,-0.022470272954893275,-0.03814135402875856,0.013500682134413588,0.005098075875040914,-0.052861700507293656
336,6.0,300.8791,307.2843,0.0,0.0,0.0,0.0,0.0,-0.003348848020163775,-0.05693246318154665,-0.004204697618846346,-0.03226959401726097,-0.004922980178260316,0.034913766411970464,-0.012649833733941388
337,6.0,300.5995,424.83817,0.0,0.0,0.0,0.0,0.0,-0.0033588148297476195,-0.01058507523666559,-0.05811832752883235,-0.06043679270539704,0.0017641236462304485,0.04044602481846186,-0.026117486954845275
338,6.0,300.10593,474.01194000000004,0.0,0.0,0.0,0.0,0.0,-0.0033687816393314363,-0.07511456241473013,-0.0034972174200734864,-0.06547601273247934,-0.029477327014435676,0.014649945861587086,0.004080152564254706
339,6.0,300.24822,480.95369000000005,0.0,0.0,0.0,0.0,0.0,-0.003378748448915281,-0.018350879342090783,-0.06818747405307973,-0.05965955895119004,-0.014840152157108986,-0.008539672146775023,-0.02958244563281007
340,6.0,300.02169,191.58989,0.0,0.0,0.0,0.0,0.0,-0.0033887152584990976,-0.017533791421700484,-0.03323200226699327,-0.007472750695603072,-0.012894313757819686,0.02069604771179088,-0.02000334029417598
341,6.0,299.39422,227.23876,0.0,0.0,0.0,0.0,0.0,-0.0033986820680828866,8.604164603714931e-05,-0.03126006153187787,-0.03790088951502656,0.0003246953460649357,-0.000987428079814064,-0.05846264511156385
342,6.0,298.62241,842.13946,0.0,0.0,0.0,0.0,0.0,-0.0034086488776667034,-0.09208432614176541,-0.1099168946204529,-0.05398814381571495,0.010294886487526191,-0.0050498600650573855,-0.045738289872517754
343,6.0,299.13192999999995,700.61205,0.0,0.0,0.0,0.0,0.0,-0.003418615687250548,-0.05530734377015985,-0.07247833998030523,-0.0851828841533961,-0.0028163802273800877,-0.023131131895364976,-0.04672180716158336
344,6.0,298.58807,149.67868,0.0,0.0,0.0,0.0,0.0,-0.0034285824968343648,-0.02152395005049848,-0.029390033491820473,0.005415401285708494,0.028299682151961176,-0.004528759318828746,-0.02350713482197358
345,6.0,300.04339,258.05897000000004,0.0,0.0,0.0,0.0,0.0,-0.0034385493064181816,0.01042439606230779,-0.05577803694511364,-0.03308984226471317,-0.03318563087616677,-0.006690075079084004,-0.05724811591894914
346,6.0,300.27816,599.95782,0.0,0.0,0.0,0.0,0.0,-0.0034485161160019984,-0.08111116699754893,-0.03195069887953847,-0.06931033146939714,-0.016532004220081786,-0.0029242165851727075,-0.047836587961353656
347,6.0,299.96896,590.62305,0.0,0.0,0.0,0.0,0.0,-0.003458482925585843,-0.024546485231299476,-0.10060026766722341,-0.05438790644391844,-0.020038609503656782,0.004178800060865456,-0.05515343614622035
348,6.0,299.86695,294.50073,0.0,0.0,0.0,0.0,0.0,-0.003468449735169632,-0.02246444068731768,-0.030242669265469074,-0.03681375828398507,0.02483170702844868,0.015398924123505485,-0.04560113836548196
349,6.0,299.77612999999997,246.58768999999998,0.0,0.0,0.0,0.0,0.0,-0.0034784165447534487,0.011689747853438289,-0.03714919270308986,-0.04949705662897916,0.01990844435606048,-0.003352026482769257,-0.008669561791669132
350,6.0,299.94794,356.96307,0.0,0.0,0.0,0.0,0.0,-0.0034883833543372933,-0.033451710352426764,-0.06254596803405645,-0.012510181525658788,-0.012979481481725088,-0.015199145654288884,-0.03850880917752356
351,6.0,299.7896,681.2649700000001,0.0,0.0,0.0,0.0,0.0,-0.00349835016392111,-0.06332229999567444,-0.04912751722475845,-0.09463772146001591,-0.02026519755726928,-0.003438262476255087,-0.01125637774591799
352,6.0,299.63364,723.14927,0.0,0.0,0.0,0.0,0.0,-0.003508316973504927,-0.09825990615599772,-0.06851927799707623,-0.053040136889653956,-0.011831153997643989,0.01085481963853729,-0.027682503410050373
353,6.0,300.47194,335.40809,0.0,0.0,0.0,0.0,0.0,-0.0035182837830887437,-0.01107440106770829,-0.048453468807735045,-0.04242781535779936,-0.013323353234412588,0.01721203081269518,-0.024889566648908974
354,6.0,300.02051,265.76968999999997,0.0,0.0,0.0,0.0,0.0,-0.0035282505926725882,-0.03831335525973376,-0.017654576913121084,-0.024819416304735678,-0.00978720157792159,-0.006190247721354884,-0.02604818064800527
355,6.0,298.84313,675.43511,0.0,0.0,0.0,0.0,0.0,-0.0035382174022563773,-0.06951817642265984,-0.06283738484231703,-0.07295984757357633,-0.0034321004970969465,-0.019235795237425184,-0.026018171219793575
356,6.0,298.97227000000004,552.62497,0.0,0.0,0.0,0.0,0.0,-0.003548184211840194,-0.08093574706073632,-0.006230849463461964,-0.08081759399307552,0.03245431255024127,-0.01985158177369858,0.002186283255969358
357,6.0,299.92101,196.7694,0.0,0.0,0.0,0.0,0.0,-0.003558151021424011,0.011591444355236489,-0.041903880956341066,-0.02950054665372727,0.03739768114436376,-0.04358042990305355,-0.041882926944273056
358,6.0,299.07392000000004,168.71358999999998,0.0,0.0,0.0,0.0,0.0,-0.0035681178310078554,-0.02273689857295718,-0.039381293507381065,0.01083347451193069,0.03101310917775557,-0.0036082343699300064,-0.04665180373867455
359,6.0,300.15165,478.25739000000004,0.0,0.0,0.0,0.0,0.0,-0.003578084640591672,-0.008631281304216143,-0.060054075983625846,-0.07669294566525442,0.0017777869185289083,0.02417677762756218,-0.06252004099049764
360,6.0,300.39743,523.87552,0.0,0.0,0.0,0.0,0.0,-0.0035880514501755167,-0.03984144584154456,-0.08750568097413831,-0.031897950092582575,-0.008222783548225553,0.053172001257667946,-0.05330875759716475
361,6.0,300.38424,420.94454,0.0,0.0,0.0,0.0,0.0,-0.0035980182597593058,-0.025755425336362575,-0.04979682059156355,-0.052404382233659855,-0.03747028152727886,0.012205832606371888,-0.04671705299211416
362,6.0,300.27857,220.37436,0.0,0.0,0.0,0.0,0.0,-0.0036079850693431226,-0.02075936875029018,-0.04385360314326366,-0.002375329076151728,-0.03550136635696207,-0.013885221693114687,-0.03747426663992216
363,6.0,300.83194,13.801836999999999,0.0,0.0,0.0,0.0,0.0,-0.0036179518789269394,0.009905886601884892,-0.03767071556931016,0.023569414239370076,-0.030258828578063873,-0.0012560845043908888,-0.06858862686042044
364,6.0,299.78767999999997,441.08929000000006,0.0,0.0,0.0,0.0,0.0,-0.003627918688510784,-0.06309771412425953,-0.03226861015141387,-0.03871380689800526,0.004051408077467846,-0.0025201316346926276,-0.04964932481425686
365,6.0,298.58319,781.77008,0.0,0.0,0.0,0.0,0.0,-0.0036378854980946007,-0.04967441896623345,-0.08833280716326933,-0.09963135739159941,0.02087009266821778,-0.002815762955419167,-0.05774198415019014
366,6.0,298.85585,310.40038,0.0,0.0,0.0,0.0,0.0,-0.0036478523076784175,-0.043322508103348666,-0.025461927312396576,-0.025569529406766076,0.012363002895633387,-0.013647548683408187,-0.048307987371627156
367,6.0,299.31305,94.49882,0.0,0.0,0.0,0.0,0.0,-0.0036578191172622065,-0.001028527378382749,0.005447890238239905,-0.03314464490962177,0.04426266031463446,0.008987314084603841,-0.017796911194418383
368,6.0,300.00802000000004,505.12167,0.0,0.0,0.0,0.0,0.0,-0.003667785926846051,-0.06761132484746823,-0.04812064350763775,-0.037812407450044064,0.0036140773779566662,-0.0016898520086004085,-0.016328513202498784
369,6.0,301.30274,702.0181,0.0,0.0,0.0,0.0,0.0,-0.003677752736429868,-0.08359621251705382,-0.049590027391904656,-0.08020973411233442,-0.0027712702316030776,-0.012734266851524288,-0.005174230435331785
370,6.0,300.65756,681.06665,0.0,0.0,0.0,0.0,0.0,-0.0036877195460137124,-0.07556816408699712,-0.08966043837179631,-0.04179865392020596,-0.030970896165339473,-0.0099737217709047,-0.037480763599563365
371,6.0,300.34479,544.76727,0.0,0.0,0.0,0.0,0.0,-0.0036976863555975015,-0.01791027868185688,-0.06751318752228284,-0.08017218205037832,-0.0078035689499022926,0.019990042399863583,-0.031150041822769765
372,6.0,299.97319,375.71016000000003,0.0,0.0,0.0,0.0,0.0,-0.003707653165181346,-0.04924213100981995,-0.02346687940875068,-0.041497497751984164,-0.0007596490621665252,0.031471976710792264,-0.017720172698094883
373,6.0,300.24931000000004,399.28981,0.0,0.0,0.0,0.0,0.0,-0.003717619974765163,-0.02397981194062318,-0.03763812944609417,-0.05975618856022664,0.0005228041615017536,0.004797579636609245,-0.035451806268070866
374,6.0,299.21031,519.48467,0.0,0.0,0.0,0.0,0.0,-0.0037275867843490074,-0.06816390585575373,-0.04404932759883016,-0.04569713570645616,-0.006293474196492544,-0.02495965315832598,-0.04849084456417375
375,6.0,300.6962,442.31550999999996,0.0,0.0,0.0,0.0,0.0,-0.0037375535939327964,-0.04290498522739236,-0.03255568315649577,-0.05899220305107714,0.012017768321561388,-0.00841207650010731,-0.05531939739334945
376,6.0,299.42737999999997,-65.556618,0.0,0.0,0.0,0.0,0.0,-0.003747520403516613,0.018992808744194282,-0.014197320962416486,0.015132086736170686,0.004248347014604206,0.016109061469340585,-0.07726397998436113
377,6.0,298.98187,165.38189,0.0,0.0,0.0,0.0,0.0,-0.00375748721310043,0.017006650083675683,-0.04858651361211555,-0.018692100432516682,-0.011697388772442387,-0.001160054232788439,-0.05385692387476454
378,6.0,299.39173,702.85593,0.0,0.0,0.0,0.0,0.0,-0.0037674540226842745,-0.07705978779770893,-0.08225910843334193,-0.05433175617637685,-0.006521195469016884,0.001999527178362968,-0.06224434070453814
379,6.0,299.65657000000004,539.1881,0.0,0.0,0.0,0.0,0.0,-0.0037774208322680913,-0.02752588432884327,-0.07046577298243033,-0.06590806257511934,0.018050234865169483,0.004481539533693515,-0.022446751367071877
380,6.0,299.85433,217.38593999999998,0.0,0.0,0.0,0.0,0.0,-0.003787387641851936,-0.013931830184464589,-0.05382020065139025,0.0016721341147017885,0.03254453639214567,-0.010660796429888689,-0.048562712367266544
381,6.0,300.74458,449.70367000000005,0.0,0.0,0.0,0.0,0.0,-0.003797354451435697,-0.02864577292236767,-0.06573292229533434,-0.042319992374908064,0.0019415879164448083,-0.015160943085768588,-0.02153104786744898
382,6.0,300.91194,615.33367,0.0,0.0,0.0,0.0,0.0,-0.0038073212610195417,-0.05525214494446215,-0.07124734750006573,-0.06054657936698214,-0.003185539257513247,-0.03992155846070106,-0.06482473204520293
383,6.0,300.84065,610.42404,0.0,0.0,0.0,0.0,0.0,-0.0038172880706033585,-0.02280923449759618,-0.08356313294103912,-0.07918129741983562,-0.003961386074983367,0.008416585057752272,-0.02245180343207048
384,6.0,301.48659,362.50097999999997,0.0,0.0,0.0,0.0,0.0,-0.003827254880187203,-0.039800981698801065,-0.023739103233617078,-0.04665116235136125,-0.02274344923485368,0.01974032488621838,-0.03031146489425867
385,6.0,299.81404,92.0673,0.0,0.0,0.0,0.0,0.0,-0.00383722168977102,0.014162206780200987,0.0009218584772228482,-0.04307022605370037,-0.02395017437519818,0.024302845191754078,-0.017991935494165785
386,6.0,299.6936,342.1791,0.0,0.0,0.0,0.0,0.0,-0.0038471884993548366,-0.039420011820202265,-0.045197242690120557,-0.01939664869080018,-0.038791775479950164,0.02310927102445748,-0.05503866328089316
387,6.0,299.53532,937.7886300000001,0.0,0.0,0.0,0.0,0.0,-0.0038571553089386257,-0.11331673374099088,-0.07101404767779083,-0.1007335515986275,-0.014886115208145183,0.017353327525890083,-0.02646226759287247
388,6.0,299.7098,733.03176,0.0,0.0,0.0,0.0,0.0,-0.0038671221185224702,-0.09144280203970191,-0.06413634715251465,-0.06724420204473604,0.023280340065340677,0.016628786829883484,-0.04558332238897366
389,6.0,301.08804,150.18501,0.0,0.0,0.0,0.0,0.0,-0.003877088928106287,0.01941616388772618,-0.029738716155982767,-0.035329940652043666,0.003097551557254537,-0.008022090215493664,-0.018742150934456282
390,6.0,300.79816,245.50526000000002,0.0,0.0,0.0,0.0,0.0,-0.0038870557376901316,-0.008989769290921152,-0.037317206794921565,-0.028320493295765074,0.04285710308066676,-0.031082294907833673,-0.02206245802814508
391,6.0,299.64112,642.56489,0.0,0.0,0.0,0.0,0.0,-0.0038970225472739206,-0.04259986015852887,-0.06569956002254174,-0.08702426153362593,0.005085949905794175,-0.013407687053485686,0.012970370336825887
392,6.0,299.66842,690.6363299999999,0.0,0.0,0.0,0.0,0.0,-0.003906989356857765,-0.08217077632937421,-0.06861307759858354,-0.05915234621613204,-3.322492674154497e-05,0.025924315889530772,-0.018606344010303182
393,6.0,299.22925,408.8577,0.0,0.0,0.0,0.0,0.0,-0.003916956166441582,-0.02779393558979787,-0.060966822819456944,-0.03552177220072597,-0.008576115307821682,0.012463295403781488,-0.04856502663049496
394,6.0,298.25935,138.63243,0.0,0.0,0.0,0.0,0.0,-0.0039269229760254265,-0.008307082308845191,-0.03951831329190386,0.005684599140476255,-0.025234879243238677,0.015917031323638683,-0.0952605733892366
395,6.0,299.03497000000004,271.70859,0.0,0.0,0.0,0.0,0.0,-0.0039368897856092155,-0.010045746729088012,-0.04773774946709906,-0.02480913181622068,-0.008555445309756712,0.01760328416655888,-0.08159740038928642
396,6.0,299.55865,498.77929000000006,0.0,0.0,0.0,0.0,0.0,-0.003946856595193032,-0.06040603043236104,-0.05897015371565104,-0.03224026549311647,-0.002964552349128537,0.004960223806885975,-0.08685850394976692
397,6.0,298.7321,458.71768,0.0,0.0,0.0,0.0,0.0,-0.003956823404776849,-0.03141302987297467,-0.046148222491974956,-0.061877468174580647,0.009269849451762912,0.002984002495398117,-0.04187258368725226
398,6.0,300.32467,115.01523,0.0,0.0,0.0,0.0,0.0,-0.003966790214360694,-0.00044532839400799056,-0.05316435425916325,0.018647924754656882,-0.005303923611031505,-0.02030574985277148,-0.05922204667726094
399,6.0,300.86732,13.113721,0.0,0.0,0.0,0.0,0.0,-0.0039767570239445105,0.025106668655085273,-0.02336321379101968,-0.005729697889177154,0.008007924472470613,0.006191716326049823,-0.03695433457635887
400,6.0,300.52137999999997,626.25215,0.0,0.0,0.0,0.0,0.0,-0.003986723833528355,-0.058134312562409945,-0.07105076988791503,-0.061179932620239234,-0.007045843907820654,0.017761712912444584,-0.025362939870377275
401,6.0,300.11393,1036.9982,0.0,0.0,0.0,0.0,0.0,-0.003996690643112116,-0.10174023989097991,-0.09256962531691071,-0.12091168158805388,0.02275540355953348,0.007553730758170182,-0.012306797912586388
402,6.0,300.57011,629.87514,0.0,0.0,0.0,0.0,0.0,-0.004006657452695961,-0.05907214443096674,-0.06780040238237874,-0.06459376675115844,0.0076101035354337425,-0.02018712967681458,-0.023275672022129976
403,6.0,299.79162,378.53992999999997,0.0,0.0,0.0,0.0,0.0,-0.004016624262279778,-0.030587796435030467,-0.03905348784827917,-0.045425401281388056,0.017507086202064884,-0.03102419413384957,0.005536262770886594
404,6.0,299.66627,590.01071,0.0,0.0,0.0,0.0,0.0,-0.004026591071863622,-0.08881896354799923,-0.04919655704682215,-0.04133300369099986,0.013173535087876685,0.0037671161399354166,-0.013050311716715488
405,6.0,299.22376,664.92818,0.0,0.0,0.0,0.0,0.0,-0.004036557881447439,-0.07326674684336493,-0.05866488881827374,-0.07018992780170653,0.004218517640935277,0.01081420857452929,-0.04147473914148806
406,6.0,299.09051,512.69897,0.0,0.0,0.0,0.0,0.0,-0.004046524691031256,-0.05534132209901325,-0.06750024223900523,-0.03300611943545037,0.008088474714345303,0.0028720170810960176,-0.08313194233448391
407,6.0,299.55579,166.16368,0.0,0.0,0.0,0.0,0.0,-0.004056491500615045,-0.017532166168540083,-0.016303492004529383,-0.016673950426590783,-0.007574862392980713,0.0006442871945561954,-0.04455942708342305
408,6.0,301.11003,105.31623,0.0,0.0,0.0,0.0,0.0,-0.004066458310198889,0.011870414399268689,-0.03587626585421176,-0.008007652921443812,0.0060451377427336445,-0.007289988343265833,-0.05692778905883535
409,6.0,301.90837999999997,558.4228400000001,0.0,0.0,0.0,0.0,0.0,-0.004076425119782706,-0.040766649574105064,-0.07032401726694014,-0.05865593371388995,0.0055498889582313955,-0.021204888739759578,-0.02431719889267068
410,6.0,301.09477000000004,897.9184,0.0,0.0,0.0,0.0,0.0,-0.004086391929366551,-0.06933340114767393,-0.11281183121616088,-0.09079953818721673,-0.014232881987926087,-0.0034922287845311466,-0.03197476356941347
411,6.0,299.744,535.97479,0.0,0.0,0.0,0.0,0.0,-0.00409635873895034,-0.004387325614220327,-0.0914872553480891,-0.06704837322440924,0.01090965268094889,0.022756290153370978,-0.03445749279918976
412,6.0,299.57304,238.8336,0.0,0.0,0.0,0.0,0.0,-0.004106325548534184,0.008044070345937931,-0.05727748294659745,-0.023366037719048376,-0.0050390561845411255,0.03520204721117157,-0.05240416235838815
413,6.0,299.24982,540.2827,0.0,0.0,0.0,0.0,0.0,-0.004116292358118001,-0.03245775253433077,-0.08097157457102222,-0.05080312283562786,0.01989736142646668,0.010702450128249592,-0.05574597061919895
414,6.0,299.83367999999996,612.57059,0.0,0.0,0.0,0.0,0.0,-0.004126259167701846,-0.05166953475763605,-0.09451488616364301,-0.040021741537838364,0.005328225097454875,-0.02989093671850577,-0.08334463670272521
415,6.0,300.36537000000004,240.24526,0.0,0.0,0.0,0.0,0.0,-0.004136225977285635,-0.03602927573856267,-0.027838916801487174,-0.009160368589057992,0.014203294071755987,-0.024142427435922077,-0.04273463052782966
416,6.0,300.2374,-44.0086,0.0,0.0,0.0,0.0,0.0,-0.0041461927868694515,-0.006739492603686134,-0.004493197989344115,0.024610206503588274,0.01038316894223899,-0.02363443551153718,-0.048664017112264556
417,6.0,299.79517000000004,201.01013,0.0,0.0,0.0,0.0,0.0,-0.004156159596453268,-0.016575378417112485,-0.02028981041544838,-0.02423687349099318,-0.019954461109351982,-0.01055621584731739,-0.04087531456782947
418,6.0,301.15854,656.22632,0.0,0.0,0.0,0.0,0.0,-0.004166126406037113,-0.07151010858224822,-0.07218013236987443,-0.05578617334341665,-0.027799003866798074,0.0031372913275015467,-0.05880055692716315
419,6.0,301.48981000000003,1006.2091,0.0,0.0,0.0,0.0,0.0,-0.00417609321562093,-0.09401587771464472,-0.10361398250590391,-0.10823257911172389,-0.02816058419148327,0.019158883475334582,-0.016337220060608088
420,6.0,300.89124,914.98,0.0,0.0,0.0,0.0,0.0,-0.004186060025204774,-0.1013889562138109,-0.07562279042638832,-0.1011193293489508,0.007099416061807813,0.024503557877562875,-0.024468675729620273
421,6.0,299.8076,427.65711,0.0,0.0,0.0,0.0,0.0,-0.0041960268347885354,-0.04342189983215786,-0.05053906783306765,-0.036036117203237863,-0.005350760387628935,0.002939754370156167,-0.005868414766292444
422,6.0,299.69796,341.07385,0.0,0.0,0.0,0.0,0.0,-0.00420599364437238,-0.023416625243540976,-0.04700912638643955,-0.03325218012948467,0.028255432506844074,-0.015350878843513787,-0.01881605131724968
423,6.0,299.79811,681.9254,0.0,0.0,0.0,0.0,0.0,-0.004215960453956197,-0.059305085562706236,-0.07427001541662984,-0.07371319395667583,0.007476326049905932,-0.004143957632326777,-0.001095581432900469
424,6.0,299.69104,589.8321900000001,0.0,0.0,0.0,0.0,0.0,-0.004225927263540041,-0.045285121871293556,-0.08636173174373932,-0.04764740302193255,0.006169529999210204,0.004859553559100596,-0.05729962347453254
425,6.0,300.37982999999997,173.75143,0.0,0.0,0.0,0.0,0.0,-0.004235894073123858,0.007389688505405473,-0.030600289808763472,-0.02960549504608487,-0.02421289999362718,-0.015207227337086486,-0.07096196966240113
426,6.0,299.81516,188.51965,0.0,0.0,0.0,0.0,0.0,-0.004245860882707675,0.016823952984644883,-0.07394618372442013,-0.00018303530164917782,-0.027699061943184576,-0.016767891883112084,-0.09697908203584021
427,6.0,300.39254,469.87217000000004,0.0,0.0,0.0,0.0,0.0,-0.004255827692291464,-0.06020898976491465,-0.050699570701908045,-0.03192084650509227,-0.002460881531120098,0.023465474030861976,-0.052254846783901854
428,6.0,300.4611,633.70847,0.0,0.0,0.0,0.0,0.0,-0.0042657945018753085,-0.05351643941716135,-0.07831585112517273,-0.060799260637169845,0.01023900270476089,0.022086261299494276,-0.06049553182694415
429,6.0,299.64595,551.54751,0.0,0.0,0.0,0.0,0.0,-0.004275761311459125,-0.04237911045199256,-0.07508583069489452,-0.050191727725287856,0.014646454201742485,0.008270258875036001,-0.05110573605749345
430,6.0,299.41382999999996,298.14988,0.0,0.0,0.0,0.0,0.0,-0.00428572812104297,0.006160997926743154,-0.037705744638517266,-0.05908537342427235,-0.0025817942867532575,-0.015711992059902886,-0.026242021471635874
431,6.0,300.23204,257.15075,0.0,0.0,0.0,0.0,0.0,-0.004295694930626759,0.01928260536554498,-0.06285959021825854,-0.03459042209305886,-0.0013495982680449788,-0.011678208961299489,-0.030005833200345174
432,6.0,300.8259,669.94913,0.0,0.0,0.0,0.0,0.0,-0.0043056617402106034,-0.06738115698125244,-0.07089023155532113,-0.06537641734040003,0.015448664570914487,0.005602702897168725,-0.00024152727123188578
433,6.0,300.63149,785.7713,0.0,0.0,0.0,0.0,0.0,-0.00431562854979442,-0.096556899222674,-0.07462662068332403,-0.06767133559789083,-0.016735992743463886,-0.015856327510147684,-0.027382319961924573
434,6.0,300.56254,283.44344,0.0,0.0,0.0,0.0,0.0,-0.004325595359378265,-0.03489176165954876,-0.04623968351225145,-0.0050282821949028155,0.007189568976205213,-0.03021612109959897,-0.04733167226427236
435,6.0,300.72251,207.07374,0.0,0.0,0.0,0.0,0.0,-0.004335562168962054,-0.015241571449225985,-0.02337351347828618,-0.02433016140119998,0.0004375683978521386,0.016158462477966085,-0.04423142282730155
436,6.0,301.38677,758.60914,0.0,0.0,0.0,0.0,0.0,-0.004345528978545871,-0.08279187938892232,-0.060964180263196145,-0.08684217542440542,0.023803816477753776,0.002090126125454388,-0.04979530274291375
437,6.0,300.35501,817.87832,0.0,0.0,0.0,0.0,0.0,-0.004355495788129687,-0.07796731943527534,-0.08299781132599622,-0.08764945711032791,-0.0003587521714035826,0.007723138980814472,-0.06288246737901634
438,6.0,299.5708,337.62047,0.0,0.0,0.0,0.0,0.0,-0.004365462597713532,-0.026935081500285573,-0.03071436961102227,-0.044978742398806254,0.002763764784137347,-0.01154662425031309,-0.04138618918874886
439,6.0,300.12449,94.983083,0.0,0.0,0.0,0.0,0.0,-0.004375429407297349,-0.01200918811971459,-0.025832936942512374,0.00896963905118445,-0.00027103565740163675,0.00969185535146165,-0.027079171744006175
440,6.0,299.77935,244.95997999999997,0.0,0.0,0.0,0.0,0.0,-0.004385396216881193,-0.00926973363727648,-0.03138565894802337,-0.03380632458267447,-0.013863732684993886,-0.004210285693147846,-0.02599343474510227
441,6.0,300.32294,719.8324299999999,0.0,0.0,0.0,0.0,0.0,-0.004395363026464955,-0.05471414359186554,-0.08436999210166991,-0.07972694881068722,-0.004524669436125106,-0.003371368008628117,-0.03037106730489097
442,6.0,300.32555,703.84056,0.0,0.0,0.0,0.0,0.0,-0.004405329836048799,-0.02663388581530987,-0.1084679469774529,-0.07884812457495402,-0.012651119548318289,-0.027208829253302372,-0.05644894631332724
443,6.0,300.57877,210.72417000000002,0.0,0.0,0.0,0.0,0.0,-0.004415296645632616,-0.006067848933125064,-0.04805586946849505,-0.00993116709055488,0.01082190116928849,0.015109803339971487,-0.044859568988294754
444,6.0,300.44862,130.6779,0.0,0.0,0.0,0.0,0.0,-0.0044252634552164605,0.000913028276178875,-0.055398420768648454,0.014762573676452588,0.017950162232293083,0.011640882854115688,-0.08070235503270232
445,6.0,299.69327999999996,473.94635999999997,0.0,0.0,0.0,0.0,0.0,-0.004435230264800277,-0.06110497744409174,-0.06726423095946274,-0.015698648569335987,0.008184438111441154,0.010334650474450589,-0.07418262766175533
446,6.0,299.8131,627.00337,0.0,0.0,0.0,0.0,0.0,-0.004445197074384094,-0.05828920303894644,-0.07535152412286643,-0.05695264003078795,0.01122629029744859,0.017095696528963884,-0.08312420920972072
447,6.0,299.49947000000003,251.98736,0.0,0.0,0.0,0.0,0.0,-0.004455163883967883,-0.010524085686646392,-0.02968989067341407,-0.03638388794231017,-0.007780066208532752,0.014323447295114184,-0.04636979698409266
448,6.0,299.17316,148.99175,0.0,0.0,0.0,0.0,0.0,-0.004465130693551728,0.017207222940970684,-0.012179818423304489,-0.05031717416716845,-0.008234254349957632,0.007946808063538893,-0.03049115264049247
449,6.0,299.95626,651.6433599999999,0.0,0.0,0.0,0.0,0.0,-0.0044750975031355444,-0.058061439615217945,-0.06534846177014103,-0.07467340851994163,-0.03771948633637347,-0.017314184661276984,-0.038880753024231565
450,6.0,300.35947999999996,826.49648,0.0,0.0,0.0,0.0,0.0,-0.004485064312719361,-0.1005306492793526,-0.05620937244643315,-0.09449426956385831,-0.013328166172387588,-0.006924027434423304,-0.016759441377278087
451,6.0,299.84398999999996,763.29076,0.0,0.0,0.0,0.0,0.0,-0.004495031122303178,-0.07832881566020222,-0.06896321123688903,-0.08472930578588142,-0.01090734449722109,0.014108029310604087,-0.006374717197460604
452,6.0,300.9538,532.41862,0.0,0.0,0.0,0.0,0.0,-0.004504997931887023,-0.07289673323809744,-0.047007232622002654,-0.04193800012695836,0.009789142762463171,0.0017572571542777782,-0.011905655237746688
453,6.0,300.1887,394.03021,0.0,0.0,0.0,0.0,0.0,-0.004514964741470839,-0.023794210866805773,-0.07624387018118413,-0.01973726487091638,0.01940886038100538,0.002259600614655218,-0.04570167000065366
454,6.0,300.01252,515.64743,0.0,0.0,0.0,0.0,0.0,-0.004524931551054628,-0.023934076870859477,-0.08420010349715322,-0.048609762635660046,0.0016026419777934486,-0.0022215271341976582,-0.06556629838263985
455,6.0,299.78167,630.3290099999999,0.0,0.0,0.0,0.0,0.0,-0.004534898360638473,-0.055535611792438155,-0.06885505793446513,-0.06721360999771685,0.009757690263459053,0.014410269656432885,-0.056145371517116745
456,6.0,300.06447000000003,300.06375,0.0,0.0,0.0,0.0,0.0,-0.00454486517022229,-0.03500916390888547,-0.022830656631210377,-0.03337206788131667,-0.007035410066240914,-0.016252750466021586,-0.049890589795567854
457,6.0,300.03051,140.84163,0.0,0.0,0.0,0.0,0.0,-0.0045548319798061065,0.0004181198423852156,-0.030639911940673868,-0.012590548470590386,-0.0006040651881890924,0.0007631074874078452,-0.06753166109810603
458,6.0,299.92452000000003,366.58547000000004,0.0,0.0,0.0,0.0,0.0,-0.004564798789389923,-0.01840260474644568,-0.043434670836418256,-0.04959555365795005,-0.002824815939762627,-0.003204482677407817,-0.054311298656857854
459,6.0,298.88722,661.43292,0.0,0.0,0.0,0.0,0.0,-0.004574765598973768,-0.05174464394779875,-0.05872836893703874,-0.09058607982840002,-0.0016621968669960586,0.018761973146162583,-0.03379249777180987
460,6.0,298.20148,715.45343,0.0,0.0,0.0,0.0,0.0,-0.004584732408557585,-0.052344942956293654,-0.08446842529588452,-0.08066660959567451,-0.003566018723063647,0.0004814954747999036,-0.08055945434459913
461,6.0,299.23276,384.75337,0.0,0.0,0.0,0.0,0.0,-0.004594699218141374,-0.046101340423098054,-0.052515453696371756,-0.018338623068881184,-0.016332136584856383,0.0006339361253771244,-0.07666590100683533
462,6.0,300.72895,105.16257,0.0,0.0,0.0,0.0,0.0,-0.004604666027725218,0.027884129034199272,-0.07277284922787103,0.012921924823044686,0.0012796618209677886,0.011180983832477188,-0.08565698083543583
463,6.0,300.30348,198.39958000000001,0.0,0.0,0.0,0.0,0.0,-0.004614632837309035,-0.02152221536632728,-0.04053022488852176,0.001743921567061658,-0.01004326750874333,-0.004130162333540285,-0.03426055345675336
464,6.0,299.55346000000003,622.9399599999999,0.0,0.0,0.0,0.0,0.0,-0.004624599646892852,-0.05437653777779644,-0.06433761205962794,-0.07064404319177423,0.0014882554647293786,-0.006404921574991545,-0.03767970107119697
465,6.0,300.18307000000004,627.9631099999999,0.0,0.0,0.0,0.0,0.0,-0.004634566456476696,-0.06732858449981394,-0.055973701618924246,-0.06758281806915484,0.01841732423064838,-0.03295003198941497,-0.024088084806558874
466,6.0,299.86379,286.66305,0.0,0.0,0.0,0.0,0.0,-0.004644533266060513,0.004577993242512756,-0.03750660046386326,-0.05420980342084104,0.025631755121907275,-0.011665562586801388,-0.04231980492363956
467,6.0,300.75316000000004,439.68525,0.0,0.0,0.0,0.0,0.0,-0.004654500075644302,-0.058083129246858545,-0.03070533952613107,-0.044864868286317756,0.02179076514633108,-0.0030418496528821872,-0.026694545045796478
468,6.0,299.66817000000003,875.53735,0.0,0.0,0.0,0.0,0.0,-0.004664466885228119,-0.10022034244947771,-0.061439637740120144,-0.1044815171090229,0.008652459751181292,-0.03248813078557887,-0.026550776002357574
469,6.0,299.20043,932.59611,0.0,0.0,0.0,0.0,0.0,-0.004674433694811964,-0.11485781621558389,-0.08012869436933642,-0.08849942094346282,0.0012257013895423088,0.014743878198857486,-0.04767569701772495
470,6.0,299.45463,329.10853,0.0,0.0,0.0,0.0,0.0,-0.00468440050439578,-0.028065386304837972,-0.04745063086576266,-0.024524758109405177,-0.007650228239393743,0.03197231150417147,-0.052551086662638455
471,6.0,299.52365,11.34554,0.0,0.0,0.0,0.0,0.0,-0.004694367313979597,0.013075470716698488,-0.023287631413060273,0.006763399834495594,0.008269023520514082,0.03229369518413957,-0.05130667773782486
472,6.0,299.45616,324.55307999999997,0.0,0.0,0.0,0.0,0.0,-0.004704334123563414,-0.008413776835100122,-0.06397709970054814,-0.026265154984668977,-0.04370802038214576,-0.015484338067185187,-0.04993351816255455
473,6.0,300.1252,617.96855,0.0,0.0,0.0,0.0,0.0,-0.0047143009331472585,-0.05947367214084444,-0.0889677937756876,-0.039405543622024364,-0.011167747746420887,-0.01973934811312198,-0.0954003715055336
474,6.0,300.17186,630.2806400000001,0.0,0.0,0.0,0.0,0.0,-0.0047242677427310475,-0.025860398046722577,-0.1077201076086469,-0.05800906775729924,0.005103211330522745,-0.013608817198335687,-0.06551426900325494
475,6.0,300.96159,216.00367000000003,0.0,0.0,0.0,0.0,0.0,-0.004734234552314892,0.005672078712965585,-0.052835457329703656,-0.018496343552946982,0.028549258823842474,0.01176549133816359,-0.06466930251961324
476,6.0,300.40532,166.74983999999998,0.0,0.0,0.0,0.0,0.0,-0.004744201361898681,0.01926736405754078,-0.034149487060291965,-0.035805663600493864,0.032614846829834766,-0.009179625913833542,-0.05012660006186025
477,6.0,300.38415,711.19391,0.0,0.0,0.0,0.0,0.0,-0.004754168171482526,-0.06105139475230354,-0.08181802850581073,-0.07331576686995284,0.02010672321512908,0.004753994480907725,-0.050861436392132954
478,6.0,300.49657,710.19027,0.0,0.0,0.0,0.0,0.0,-0.0047641349810663425,-0.05918365665747214,-0.08277296808905593,-0.07392348388242984,-0.007774543894162742,0.014098240301387987,-0.07038950362090314
479,6.0,300.18555,315.61535,0.0,0.0,0.0,0.0,0.0,-0.004774101790650187,-0.03156571045104307,-0.04027694073452456,-0.02409653328589268,-0.005273694814173155,0.0009324105245592542,-0.046463626983102954
480,6.0,300.57532000000003,276.1209,0.0,0.0,0.0,0.0,0.0,-0.004784068600234004,-0.01193737908512759,-0.04603201081150575,-0.025964467951243474,-0.041951524989293165,0.0019213699292494485,-0.06472692098654974
481,6.0,300.51782000000003,617.96786,0.0,0.0,0.0,0.0,0.0,-0.004794035409817793,-0.07501616569751914,-0.06343743965753784,-0.04939319241422855,-0.012389765870524688,0.01966832130761218,-0.030277218054128772
482,6.0,299.27745,905.3856599999999,0.0,0.0,0.0,0.0,0.0,-0.00480400221940161,-0.08978850406518542,-0.0873538890164076,-0.09807224007847651,-0.007148794069656043,0.017029462396427084,-0.04380841522855396
483,6.0,300.26718,803.0684200000001,0.0,0.0,0.0,0.0,0.0,-0.004813969028985454,-0.0938407455408605,-0.08612745109536761,-0.06414455143857434,0.0004954444126990566,0.02040523480058988,-0.018743850154873985
484,6.0,299.8753,376.6665,0.0,0.0,0.0,0.0,0.0,-0.004823935838569271,-0.026696945435283375,-0.033364043953774764,-0.05443622124843674,-0.010004074994875331,0.0014712397531500586,-0.036109274873707964
485,6.0,299.43201,393.16572,0.0,0.0,0.0,0.0,0.0,-0.0048339026481531155,-0.031504114977464075,-0.04747430241459886,-0.040534144139908565,0.017200146402272284,0.007758860910439952,-0.05132063931095275
486,6.0,299.54075,762.3886200000001,0.0,0.0,0.0,0.0,0.0,-0.004843869457736905,-0.044346097407369056,-0.07471721638801512,-0.1126837868010239,0.01068911677018369,-0.006946895171955174,-0.03359280948185217
487,6.0,299.71137999999996,624.7776200000001,0.0,0.0,0.0,0.0,0.0,-0.004853836267320749,-0.03793238335463476,-0.04954872225157816,-0.1024356942296159,0.017472898130440784,0.0003064356977353487,-0.03003405424213037
488,6.0,300.322,190.30361000000002,0.0,0.0,0.0,0.0,0.0,-0.004863803076904538,0.0026570560723810175,-0.03168453226376987,-0.02882007017806947,0.0016086301845594385,-0.015848453543620585,-0.03743208706475936
489,6.0,300.82266,198.86296000000002,0.0,0.0,0.0,0.0,0.0,-0.004873769886488383,-0.016679533434641784,-0.03774182140832776,-0.006028019895544245,-0.013181835632695886,0.00873332369528694,-0.08338738065819372
490,6.0,300.11565,542.5912400000001,0.0,0.0,0.0,0.0,0.0,-0.0048837366960721995,-0.05078575268916355,-0.08145852534383052,-0.032689909410492865,-0.013719526930761885,-0.00922673039110739,-0.08090735275318402
491,6.0,301.30629,947.92929,0.0,0.0,0.0,0.0,0.0,-0.004893703505656016,-0.06764755157829352,-0.14079155735754487,-0.07970772745629023,-0.013110443043899985,0.006730716743245023,-0.08793785443329051
492,6.0,301.04889,665.8842099999999,0.0,0.0,0.0,0.0,0.0,-0.004903670315239833,-0.015626124180178384,-0.1086322454811679,-0.07815380001017952,0.000886486088484365,0.008128966316166513,-0.050697509751204656
493,6.0,299.75491,236.80881000000002,0.0,0.0,0.0,0.0,0.0,-0.004913637124823678,0.004105784650709396,-0.06396347351320335,-0.012126275248270188,0.0032678893355405666,0.02429012484999868,-0.06070655939877095
494,6.0,299.23706,210.63141000000002,0.0,0.0,0.0,0.0,0.0,-0.004923603934407467,0.022647957505679377,-0.051356005792443156,-0.03531864088692847,0.00995826818700455,-0.006268630215965634,-0.03482438762064947
495,6.0,299.82686,447.05229,0.0,0.0,0.0,0.0,0.0,-0.004933570743991311,-0.05436023661018765,-0.04841573030776055,-0.03311676634637037,-0.007638651755676233,-0.014535466838788886,-0.025413685461885476
496,6.0,300.00139,656.90115,0.0,0.0,0.0,0.0,0.0,-0.0049435375535751,-0.05291935443798365,-0.06541544064150134,-0.08134675271204943,-0.01949273215803288,-0.016384306806005184,-0.04230744023266926
497,6.0,299.4136,519.17116,0.0,0.0,0.0,0.0,0.0,-0.004953504363158945,-0.05924220832775074,-0.03971311062362886,-0.05885974897150494,-0.0038438478474832464,-0.0023849633620775575,-0.045278356400375856
498,6.0,299.36362,260.04418,0.0,0.0,0.0,0.0,0.0,-0.004963471172742762,-0.013907070405020988,-0.031193198171028967,-0.03394666681427517,-0.0013210004998725987,0.0048501669114992055,-0.05399048847644635
499,6.0,299.35615,626.19322,0.0,0.0,0.0,0.0,0.0,-0.004973437982326606,-0.07342347231583253,-0.056389522234712545,-0.06053410727150124,0.023889705635730375,0.0063816019279150735,-0.012397457452033788
500,6.0,300.44507000000004,1074.9422,0.0,0.0,0.0,0.0,0.0,-0.004983404791910423,-0.08955601281649032,-0.12040009161256389,-0.11679949724971288,0.00935715695722949,-0.0023868062613594376,-0.04699650129019355
501,6.0,300.6878,718.99264,0.0,0.0,0.0,0.0,0.0,-0.004993371601494212,-0.1110988103320989,-0.08172690489781752,-0.025730098136862976,0.017746228424416383,0.007312156431603653,-0.053493948304691646
502,6.0,300.96055,290.78578,0.0,0.0,0.0,0.0,0.0,-0.005003338411078029,-0.03258513124415207,-0.056931125691414654,0.0011246396219182888,-0.0014702911484064387,-0.005830839703559074,-0.07736582479166243
503,6.0,299.63337,96.16270300000001,0.0,0.0,0.0,0.0,0.0,-0.005013305220661873,-0.01975798887521168,-0.019127093766697183,0.00965402130200272,-0.016782871772590486,-0.0016685440682724785,-0.04105694775425526
504,6.0,299.68095,354.27642000000003,0.0,0.0,0.0,0.0,0.0,-0.00502327203024569,-0.003416669204698997,-0.06172817793134684,-0.04254633826174666,-0.025799583788970678,0.006280912428377795,-0.04690785001244436
505,6.0,299.5119,620.8299900000001,0.0,0.0,0.0,0.0,0.0,-0.005033238839829535,-0.04092021573276086,-0.07032842389162502,-0.07746817622401372,-0.0022307976633375876,0.02598790138630618,-0.04047646994421656
506,6.0,298.94473,405.38489,0.0,0.0,0.0,0.0,0.0,-0.005043205649413324,-0.010928502172559189,-0.07567435979022782,-0.03662402314975967,0.007458343697731212,0.005801591124847464,-0.05697870082335995
507,6.0,299.08322999999996,195.80516,0.0,0.0,0.0,0.0,0.0,-0.005053172458997168,-0.017190995740619185,-0.035819705220379666,-0.0065091780188558535,0.02081016804405368,-0.012839453357655387,-0.07727267670996943
508,6.0,299.45088,642.37512,0.0,0.0,0.0,0.0,0.0,-0.005063139268580957,-0.04100556989468466,-0.11543636175768189,-0.038824066747387066,0.02303317188894708,-0.012717841054153186,-0.08208594196475172
509,6.0,299.65812,961.0437,0.0,0.0,0.0,0.0,0.0,-0.005073106078164802,-0.09429619538130991,-0.12952413518553688,-0.06831295393221364,0.01812360126516018,0.01317338208711159,-0.0945892536547325
510,6.0,300.259,742.7944,0.0,0.0,0.0,0.0,0.0,-0.005083072887748619,-0.06428649764508335,-0.09382431873023932,-0.06768013263525903,0.004463499730238126,-0.0008581734792876282,-0.06094541284484395
511,6.0,300.41595,101.78393,0.0,0.0,0.0,0.0,0.0,-0.0050930396973324354,0.022643422198231778,-0.04817852136659986,-0.005404674310874824,-0.002266655165826448,-0.003583212057385496,-0.042660550799768555
512,6.0,300.03416,-27.619833,0.0,0.0,0.0,0.0,0.0,-0.005103006506916252,0.03650109767412787,-0.02212955038351658,-0.005975807117891244,-0.004815138247592146,-0.008911299048851741,-0.033909347799842074
513,6.0,300.43899,687.04615,0.0,0.0,0.0,0.0,0.0,-0.005112973316500097,-0.06772749498468335,-0.07251612508978433,-0.06860125398316665,0.001293243222658169,-9.230173617597211e-05,-0.02915755237562637
514,6.0,300.36631,853.8376400000001,0.0,0.0,0.0,0.0,0.0,-0.005122940126083886,-0.0892038253202321,-0.08797332527954123,-0.08236817264760572,-0.015903246056028185,-0.015237674489341387,-0.06384213478722814
515,6.0,300.53324,375.42262,0.0,0.0,0.0,0.0,0.0,-0.00513290693566773,-0.05244865417027915,-0.016284835030438087,-0.04538561398971136,-0.003785465085996316,-0.007162509524334654,-0.037161505718305066
516,6.0,300.46819,320.37627000000003,0.0,0.0,0.0,0.0,0.0,-0.005142873745251519,-0.03284952973849617,-0.04152566407826396,-0.02301119246777788,0.0060190748223364334,0.03134299199956247,-0.06211477134800064
517,6.0,299.45568,736.05725,0.0,0.0,0.0,0.0,0.0,-0.005152840554835364,-0.07587798050382363,-0.07543817017866772,-0.07242687194147572,0.026708954475468574,0.021856300136298877,-0.013608357182790288
518,6.0,300.17163999999997,1018.2394,0.0,0.0,0.0,0.0,0.0,-0.005162807364419181,-0.1037811687724039,-0.10196552591821391,-0.10377266760406491,0.018346204206129382,-0.005885514881605094,-0.046776730383253855
519,6.0,300.46037,754.0767099999999,0.0,0.0,0.0,0.0,0.0,-0.005172774174003025,-0.07524974720332182,-0.06676555890949763,-0.08720518443173161,-0.001044087556193419,-0.03413663600927367,-0.007452548008484223
520,6.0,299.81045,200.86157,0.0,0.0,0.0,0.0,0.0,-0.005182740983586842,0.007461272193170233,-0.05215014765106886,-0.016368026916648484,0.002382238023283588,-0.025862640369193873,-0.07854838898337244
521,6.0,299.23777,151.4431,0.0,0.0,0.0,0.0,0.0,-0.005192707793170631,0.0002893040196820837,-0.03111784681409237,-0.015206379246752784,-0.026329798314548774,0.0031656502726253566,-0.053972737347944444
522,6.0,299.91542000000004,547.08185,0.0,0.0,0.0,0.0,0.0,-0.005202674602754448,-0.026817292189410674,-0.08248557287044221,-0.05699635670635245,-0.01780539817725598,-0.0076627494775044925,-0.0931175190302336
523,6.0,301.43379,591.78043,0.0,0.0,0.0,0.0,0.0,-0.0052126414123382925,-0.04213381273528356,-0.06322748613081704,-0.07452517408331202,4.136145980680826e-05,-0.0005760526530094705,-0.05204691469113055
524,6.0,300.0629,42.09326,0.0,0.0,0.0,0.0,0.0,-0.005222608221922109,0.03925486725265376,-0.03842006468076517,-0.013630101529936288,0.00897025723507046,0.03342782906081987,-0.07991141099139222
525,6.0,299.45026,4.5740417,0.0,0.0,0.0,0.0,0.0,-0.005232575031505954,0.05094698003182545,-0.05270740075556545,0.0003700270004338217,0.035837627588148464,0.016119866768406984,-0.08199048772583112
526,6.0,299.43721,501.96795,0.0,0.0,0.0,0.0,0.0,-0.005242541841089743,-0.029674306886876074,-0.058246279738210234,-0.06466513502195194,-0.005055557063744635,-0.01996598176298898,-0.08026459653899892
527,6.0,300.16014,1002.2325,0.0,0.0,0.0,0.0,0.0,-0.005252508650673587,-0.1029476388426409,-0.11592939912384088,-0.0857766031157416,-0.02316114132357668,-0.009176898041914322,-0.06921922913965603
528,6.0,299.54028999999997,690.11019,0.0,0.0,0.0,0.0,0.0,-0.0052624754602573764,-0.08064879767216662,-0.07043411904930634,-0.05869335000033265,-0.015390826228706286,-0.006400207023601254,-0.07385700353011873
529,6.0,299.64795,325.52193,0.0,0.0,0.0,0.0,0.0,-0.005272442269841221,-0.031396281862071766,-0.03354514011764757,-0.03400911544443837,0.0005206116504053696,0.013833538845263987,-0.060034646912958345
530,6.0,299.84573,398.42017000000004,0.0,0.0,0.0,0.0,0.0,-0.005282409079425038,-0.04029262381957236,-0.05018177963580605,-0.030635381699476768,-0.014016740542844587,-0.01188588064879509,-0.028802223804058176
531,6.0,301.08881,814.55292,0.0,0.0,0.0,0.0,0.0,-0.005292375889008855,-0.07615667393057853,-0.06994637186191943,-0.1015006974348389,0.0029444081265404573,-0.03185712827255377,-0.00916221503471522
532,6.0,301.06742,906.93742,0.0,0.0,0.0,0.0,0.0,-0.005302342698592671,-0.07849908423350642,-0.09429051104824891,-0.10289673315761691,0.007005856600574213,0.009457032107661401,-0.03589151222846647
533,6.0,299.83066,396.92992999999996,0.0,0.0,0.0,0.0,0.0,-0.005312309508176516,-0.03169836211438477,-0.042601053767146665,-0.04635737251136645,0.012679520948621287,0.0035373374630830266,-0.04874757275526086
534,6.0,299.84531,146.66066,0.0,0.0,0.0,0.0,0.0,-0.005322276317760305,0.0025123026564699675,-0.030569127301937973,-0.016524353168576686,0.009791671429412731,0.002162145206787118,-0.07574468643991852
535,6.0,300.07993999999997,499.2192,0.0,0.0,0.0,0.0,0.0,-0.0053322431273441495,-0.05581301028556524,-0.05807985036953494,-0.037857308614975466,-0.02792937875716507,-0.0006502861823032493,-0.05188912327955775
536,6.0,300.7653,902.00349,0.0,0.0,0.0,0.0,0.0,-0.0053422099369279386,-0.09257559335999971,-0.08826367716194672,-0.09334726639765792,-0.013303851209737887,0.016898392416491482,-0.04561479495032975
537,6.0,299.97934,537.7171,0.0,0.0,0.0,0.0,0.0,-0.005352176746511783,-0.046177643221878555,-0.06240492665988674,-0.05487000172224755,-0.016784594297760483,0.008239124029938231,-0.054850691201841745
538,6.0,300.66561,223.20365,0.0,0.0,0.0,0.0,0.0,-0.0053621435560956,0.013495253140377788,-0.055085467329512354,-0.026258122015724875,-0.019295687437586084,-0.016063386181332785,-0.07536927930436872
539,6.0,300.26221,368.02736,0.0,0.0,0.0,0.0,0.0,-0.0053721103656794444,-0.02865510191603837,-0.05729505979608215,-0.025920965071450076,0.012286272505310688,-0.004887571140265715,-0.06675858369580923
540,6.0,300.04561,638.19829,0.0,0.0,0.0,0.0,0.0,-0.005382077175263261,-0.039707104077036065,-0.09215104764760032,-0.06213819262406214,0.01058561935196929,0.019027522692620282,-0.096490835316154
541,6.0,298.63766,631.3708799999999,0.0,0.0,0.0,0.0,0.0,-0.00539204398484705,-0.05905073749610404,-0.07937455663790882,-0.05349568805511336,0.026101545491021973,0.032593318304960074,-0.08422692118754992
542,6.0,298.98145,196.36144,0.0,0.0,0.0,0.0,0.0,-0.005402010794430867,-0.005543322894933375,-0.04347392921154276,-0.01067172129246689,-0.013405570374026789,-0.0020884781754917483,-0.06919694169045644
543,6.0,298.93947000000003,-80.878249,0.0,0.0,0.0,0.0,0.0,-0.005411977604014712,0.057062029498333854,-0.03413931098953767,0.0016622498599762887,-0.011274027549409888,0.0045442425909568256,-0.06926296709347264
544,6.0,300.42543,331.09513,0.0,0.0,0.0,0.0,0.0,-0.005421944413598528,-0.0003590965244500677,-0.05574859493695794,-0.044536961302205864,-0.011991180638937388,0.0099199364290965,-0.04898022612397195
545,6.0,300.10071,841.7918800000001,0.0,0.0,0.0,0.0,0.0,-0.005431911223182373,-0.06662372314724953,-0.0907822865910141,-0.0984777022384925,-0.007371185646654383,-0.003198058671773817,-0.05574167646527515
546,6.0,300.8962,726.13255,0.0,0.0,0.0,0.0,0.0,-0.005441878032766162,-0.07148773399354003,-0.07035970393546213,-0.07887872776772432,0.008372049473456952,-0.03459194602120926,-0.04806613470525816
547,6.0,300.38343,323.06677,0.0,0.0,0.0,0.0,0.0,-0.0054518448423500065,-0.04249235432291886,-0.025055981832082876,-0.030655894947751266,0.015525994805296385,-0.030706897904784872,-0.04795323229961555
548,6.0,300.32905,569.6195299999999,0.0,0.0,0.0,0.0,0.0,-0.005461811651933796,-0.08296058147757192,-0.06260152251053924,-0.02758801175872477,0.029787163696264173,0.006533432693124604,-0.045983676755235556
549,6.0,300.67273,921.0784199999999,0.0,0.0,0.0,0.0,0.0,-0.00547177846151764,-0.0992914292083011,-0.06472486510209685,-0.1159685409752039,0.022536797890208776,0.008293923736421543,-0.028544197639592973
550,6.0,300.11817,766.19632,0.0,0.0,0.0,0.0,0.0,-0.005481745271101457,-0.07824875775655113,-0.07296746214807782,-0.08168832844001032,0.008402773749614203,0.007648117639435442,-0.03741411910073606
551,6.0,299.05348,377.03617,0.0,0.0,0.0,0.0,0.0,-0.005491712080685274,-0.007877953159618442,-0.049588573378011154,-0.057143053029330246,0.00019374457500360084,-0.004505626717720736,-0.046027782518838455
552,6.0,299.37872999999996,127.26446999999999,0.0,0.0,0.0,0.0,0.0,-0.0055016788902690905,0.016476274451331683,-0.019574622017864782,-0.035586873519650966,0.0005794988483220835,-0.005110946887086185,-0.06331794403349454
553,6.0,299.30045,396.7875,0.0,0.0,0.0,0.0,0.0,-0.005511645699852935,-0.015041217453952588,-0.06400553453810444,-0.04156674123731796,-0.020370413447653283,-0.017896208690968286,-0.06834199874633014
554,6.0,300.56055,777.73703,0.0,0.0,0.0,0.0,0.0,-0.005521612509436724,-0.08785431500229582,-0.07431443731426392,-0.07424388470980092,-0.047893633941983656,-0.022589884089447978,-0.06595489499474134
555,6.0,301.23212,618.60961,0.0,0.0,0.0,0.0,0.0,-0.005531579319020541,-0.03613173153567426,-0.07932923193443563,-0.07258091027467813,-0.003813959097358457,0.010578206414237689,-0.06819524365484653
556,6.0,300.67509,103.47483000000001,0.0,0.0,0.0,0.0,0.0,-0.005541546128604358,0.018961154811070285,-0.052547790560063146,0.002132870384897918,-0.00014276991804529384,0.03468066518671517,-0.07539290221720013
557,6.0,300.57813,319.2393,0.0,0.0,0.0,0.0,0.0,-0.005551512938188202,0.008035852482326893,-0.06955359255340514,-0.03552303572360067,0.043125644754669755,0.022628600375768977,-0.07073111683911773
558,6.0,300.53296,877.35901,0.0,0.0,0.0,0.0,0.0,-0.005561479747772019,-0.08176727784805202,-0.10475269323328591,-0.08017526030418212,-0.0030310738393936974,0.007273353208424072,-0.04872635833791716
559,6.0,300.39551,729.9633,0.0,0.0,0.0,0.0,0.0,-0.005571446557355836,-0.06650433999396735,-0.08108501906546832,-0.07430125797021322,0.024551758184819875,-0.006326202782672604,-0.05180640356789395
560,6.0,299.8403,177.18909,0.0,0.0,0.0,0.0,0.0,-0.00558141336693968,-0.00969027812635599,-0.03938583692082946,-0.004784945015812305,0.0097678050325823,-0.008219606097236962,-0.05533087751698245
561,6.0,299.43286,37.892625,0.0,0.0,0.0,0.0,0.0,-0.005591380176523469,0.01969971686196068,-0.029914094549541272,-0.0013040346401981986,-0.0012343836256741786,-0.010750915907032789,-0.08534578741172343
562,6.0,300.10874,477.58237,0.0,0.0,0.0,0.0,0.0,-0.005601346986107286,-0.03964407181481526,-0.038640739406794064,-0.06688830402661164,-0.02095216896606808,-0.019957654873667182,-0.061015593586520235
563,6.0,299.65889,785.62555,0.0,0.0,0.0,0.0,0.0,-0.005611313795691131,-0.05848133552290844,-0.07993176921240142,-0.10039744539470641,-0.013382462192246185,-0.004988368145638605,-0.06376080829445184
564,6.0,299.0865,447.42391,0.0,0.0,0.0,0.0,0.0,-0.0056212806052749476,-0.027320709289594073,-0.04996998706015375,-0.058714998088719154,-0.017074711106142785,0.00982741514391536,-0.050643654495139544
565,6.0,300.02395,85.773067,0.0,0.0,0.0,0.0,0.0,-0.005631247414858764,-0.0009139115161585441,-0.02406941871321668,-0.001089540334479259,-0.002703148312804967,-0.00023968421996249079,-0.06632586409485314
566,6.0,300.90054,293.50614,0.0,0.0,0.0,0.0,0.0,-0.005641214224442581,-0.03355763957088117,-0.04714340431619175,-0.008517493014011111,0.002674143522067417,0.004230786073146076,-0.040685774990873357
567,6.0,300.62009,895.0944599999999,0.0,0.0,0.0,0.0,0.0,-0.005651181034026426,-0.10576258947545489,-0.08302813384848882,-0.08329564403389002,0.00877835546815623,0.01939315804420568,-0.04633542551420046
568,6.0,300.82227,963.2166599999999,0.0,0.0,0.0,0.0,0.0,-0.005661147843610215,-0.09430223232540572,-0.0987278372111789,-0.0997637425701648,-0.008655888893494721,0.028997976630627472,-0.04911792579931186
569,6.0,300.13525,420.20405999999997,0.0,0.0,0.0,0.0,0.0,-0.0056711146531940315,-0.005553627344475344,-0.06434439982204784,-0.057833516097973645,-0.0012190471734855888,0.007384234180117174,-0.07389466907608602
570,6.0,301.00732999999997,250.7638,0.0,0.0,0.0,0.0,0.0,-0.005681081462777876,-0.016733668347734484,-0.02348836943012158,-0.03600389686330797,-0.01128558265355029,-0.017248899944083882,-0.05623810112651844
571,6.0,300.48701,502.86931,0.0,0.0,0.0,0.0,0.0,-0.005691048272361693,-0.03338298767764437,-0.04745705284489645,-0.07201967509728853,0.013256811073845388,-0.017539152527979582,-0.06903394622637003
572,6.0,299.52488,613.35927,0.0,0.0,0.0,0.0,0.0,-0.00570101508194551,-0.06968158326628685,-0.06222711241308785,-0.05453720479315304,0.01107024572904819,0.0006315764381467413,-0.06846565984153453
573,6.0,299.43045,432.88311,0.0,0.0,0.0,0.0,0.0,-0.0057109818915293264,-0.01172954831736629,-0.07903280561768063,-0.04082330140044616,0.007376519293855773,-0.008058435091280623,-0.09256204113991222
574,6.0,299.49505,182.52396000000002,0.0,0.0,0.0,0.0,0.0,-0.005720948701113143,0.007038439481389893,-0.052809362086628245,-0.009711802699555301,-0.017670498111942382,0.005239064154905375,-0.06706958865500304
575,6.0,299.25414,300.53592000000003,0.0,0.0,0.0,0.0,0.0,-0.00573091551069696,0.007944800409790752,-0.06132162450097314,-0.03797859161219516,-0.004948684813422166,0.027663267870151973,-0.06973203197551574
576,6.0,300.0259,875.17565,0.0,0.0,0.0,0.0,0.0,-0.005740882320280777,-0.07978619759703463,-0.1030564011083749,-0.08318894373210951,-0.02854977963439387,0.03172138720965717,-0.039477446888870664
577,6.0,300.11307999999997,969.2009400000001,0.0,0.0,0.0,0.0,0.0,-0.005750849129864594,-0.08434559911876252,-0.11097203247958688,-0.0992952511876783,-0.01851798657508298,0.0034690510937936867,-0.05765265906112444
578,6.0,300.86435,547.65645,0.0,0.0,0.0,0.0,0.0,-0.005760815939448438,-0.06572851060439894,-0.05358065211574865,-0.04716472309829575,-0.017951686160443483,-0.01059174647532399,-0.02122285062428228
579,6.0,300.91626,238.94843999999998,0.0,0.0,0.0,0.0,0.0,-0.005770782749032255,-0.028440111523070473,-0.016561575924250282,-0.027632672783382474,0.023677883675825177,-0.005299694102464086,-0.059900514891220544
580,6.0,300.41625,546.5814799999999,0.0,0.0,0.0,0.0,0.0,-0.0057807495586160995,-0.07101189756107865,-0.03301700376802457,-0.062118218424840846,0.03683311338739526,0.008998183117101531,-0.05957734991757664
581,6.0,299.73196,699.6728400000001,0.0,0.0,0.0,0.0,0.0,-0.005790716368199861,-0.05572874435424885,-0.07899390086684102,-0.07796042832134523,0.011998605735670189,0.0067324883097198635,-0.08327879571122722
582,6.0,300.21884,376.18888,0.0,0.0,0.0,0.0,0.0,-0.005800683177783705,-0.027612534437644973,-0.046167006122328755,-0.04057248653694267,-0.005047173229767215,-0.005816689564587564,-0.06701348094396564
583,6.0,298.50366,18.356946,0.0,0.0,0.0,0.0,0.0,-0.005810649987367522,0.031048225386471267,-0.025449534250423476,-0.01117874454975619,0.004286499123269527,-0.011719783626152589,-0.07117704314187723
584,6.0,299.0094,304.14837,0.0,0.0,0.0,0.0,0.0,-0.005820616796951367,-0.04447128141747376,-0.03560027476547357,-0.01238195269900359,-0.008626694017038413,-0.0060245667392034435,-0.05500813709513045
585,6.0,299.48322,739.48362,0.0,0.0,0.0,0.0,0.0,-0.0058305836065351835,-0.05496423094179724,-0.09890353275201871,-0.07091679188019244,-0.011185915320713889,-0.023709136361909577,-0.05184560621426295
586,6.0,301.35271,701.67173,0.0,0.0,0.0,0.0,0.0,-0.005840550416119,-0.08135523158888622,-0.07072035612305573,-0.061215096451709645,-0.033174776941095566,-0.002098745134780018,-0.05429368229061924
587,6.0,300.87517,447.75710999999995,0.0,0.0,0.0,0.0,0.0,-0.005850517225702789,-0.02907338168981937,-0.044662147338810756,-0.062371453942833235,-0.002778074915299648,0.02037801890290388,-0.051277987561243354
588,6.0,299.85932,414.48158,0.0,0.0,0.0,0.0,0.0,-0.005860484035286634,-0.02963872863611477,-0.05294501601001624,-0.043408305055566164,0.015341652188103183,0.043019400415434256,-0.07279959295101043
589,6.0,300.03832,723.04883,0.0,0.0,0.0,0.0,0.0,-0.005870450844870451,-0.03783765662928597,-0.09072316040792881,-0.09122797275349992,0.018549037624397482,0.024939544196841378,-0.059472496770728446
590,6.0,300.33068,862.1457800000001,0.0,0.0,0.0,0.0,0.0,-0.005880417654454295,-0.08432888150536262,-0.08264203793763412,-0.09509986888362632,-0.007327209883039312,-0.0032163734713063466,-0.060314235039551536
591,6.0,300.24987999999996,423.43695999999994,0.0,0.0,0.0,0.0,0.0,-0.005890384464038084,-0.027097988811613273,-0.06557238801574083,-0.03604388477850447,-0.002830048869904077,-0.002956651734123807,-0.07344321346753084
592,6.0,301.31936,77.407235,0.0,0.0,0.0,0.0,0.0,-0.005900351273621929,-0.011256511494931188,-0.03403765869975537,0.02176430310671948,-0.017987727466500483,-0.006900153742192153,-0.07785037618823393
593,6.0,301.47842,358.49863,0.0,0.0,0.0,0.0,0.0,-0.005910318083205746,-0.014589095126831587,-0.05993799298591935,-0.03444754470970797,-0.005609552670494745,-0.0004506271347434355,-0.09046694998764282
594,6.0,301.74674,842.33516,0.0,0.0,0.0,0.0,0.0,-0.00592028489278959,-0.07271439482960203,-0.0941847702943131,-0.08914969040713941,-0.012815864895327387,0.00900630239147784,-0.04553353634531016
595,6.0,301.46293,900.96615,0.0,0.0,0.0,0.0,0.0,-0.005930251702373379,-0.06904845698105214,-0.10157529290720091,-0.1032474696797319,0.010508801822137991,0.021481906250849083,-0.05041845864716445
596,6.0,300.29758,500.1106,0.0,0.0,0.0,0.0,0.0,-0.005940218511957196,-0.036538676080586564,-0.06305899885118864,-0.05242346173304286,0.026314564099295272,0.007333859134170544,-0.013622427173678885
597,6.0,299.83702999999997,463.88815999999997,0.0,0.0,0.0,0.0,0.0,-0.005950185321541013,-0.006499685587944025,-0.052383645057113244,-0.08212708498506222,0.02130392380453358,-0.012887265590124089,-0.031810297879431966
598,6.0,299.71754,814.6790900000001,0.0,0.0,0.0,0.0,0.0,-0.005960152131124857,-0.1005194022032426,-0.059574094345005345,-0.08754860427487451,0.014048227289702089,-0.017123251865433384,-0.01170266476571309
599,6.0,299.85519,959.2248199999999,0.0,0.0,0.0,0.0,0.0,-0.005970118940708674,-0.07692565678922123,-0.09891756727915381,-0.1157371653148689,-0.02122593495758668,-0.002445427845894938,-0.06588745306808534
600,6.0,300.41989,541.84568,0.0,0.0,0.0,0.0,0.0,-0.005980085750292519,-0.05870254727149035,-0.06499489321399654,-0.04101011634788336,-0.008085054691282772,-0.00015312614466737385,-0.06342000162331685
601,6.0,300.39878,108.4307,0.0,0.0,0.0,0.0,0.0,-0.00599005255987628,0.009405751216125371,-0.034009150908191864,-0.008356824985404411,-0.026097380019860873,-0.015304248060661685,-0.08501000848758461
602,6.0,299.34347,248.16387000000003,0.0,0.0,0.0,0.0,0.0,-0.0060000193694601245,-0.02016347737973028,-0.037674793900962664,-0.017597347534222985,0.008041924687526174,-9.9046677633396e-06,-0.07037388335736153
603,6.0,300.30942999999996,774.80035,0.0,0.0,0.0,0.0,0.0,-0.006009986179043941,-0.061085543307173744,-0.08992453593086072,-0.08450988039722582,0.02172988705382288,-0.013388528520594887,-0.06071188402804645
604,6.0,300.09985,752.14847,0.0,0.0,0.0,0.0,0.0,-0.006019952988627786,-0.05569317522273845,-0.1197020636186739,-0.05323911083829115,0.01676784932660788,0.022653739110749978,-0.06652735698323893
605,6.0,301.16649,213.85756,0.0,0.0,0.0,0.0,0.0,-0.006029919798211603,0.02335514832022368,-0.05841819484292694,-0.02994431270727357,0.004241329345736616,0.0029172022600304475,-0.08019361634299373
606,6.0,300.09405,327.32698,0.0,0.0,0.0,0.0,0.0,-0.006039886607795419,-0.011796545427228388,-0.06571041699736323,-0.02199226512746758,0.012160135026861887,0.00027558650810577076,-0.06395266112138624
607,6.0,300.91103,871.68112,0.0,0.0,0.0,0.0,0.0,-0.0060498534173792085,-0.08280504252097143,-0.09536276979432261,-0.08680148228713933,-0.022686719388254877,0.017580795080589382,-0.051992360292496445
608,6.0,300.82164,927.4132800000001,0.0,0.0,0.0,0.0,0.0,-0.006059820226963053,-0.08854385803984842,-0.10869001086936889,-0.08467660563493032,-0.029393546429917174,0.006248488323852784,-0.05917517676738524
609,6.0,301.03387999999995,291.63127000000003,0.0,0.0,0.0,0.0,0.0,-0.00606978703654687,-0.0058298997114413055,-0.04249059025449475,-0.04032813316932686,-0.017466341389043682,-0.018093971805735982,-0.05620784446528235
610,6.0,299.72897,136.54899,0.0,0.0,0.0,0.0,0.0,-0.006079753846130714,-0.018377831794750783,-0.04348672453380555,0.02035707401008678,-0.014271907315527589,-0.015654706952249287,-0.07982980078858792
611,6.0,299.86489,609.43955,0.0,0.0,0.0,0.0,0.0,-0.006089720655714503,-0.040556702126884864,-0.06993861239265363,-0.07475909097489783,0.04041522404192206,-0.020777075295787678,-0.08511797231223982
612,6.0,299.83643,894.6968099999999,0.0,0.0,0.0,0.0,0.0,-0.006099687465298348,-0.11140376821469589,-0.1028117012092249,-0.05775001517048274,0.019151369212592983,-0.0018712991623078485,-0.07964671156176842
613,6.0,300.41917,618.67938,0.0,0.0,0.0,0.0,0.0,-0.006109654274882165,-0.04717741506904836,-0.06610287206584553,-0.07478279494773722,-0.012881336050538886,-0.012702613931650387,-0.05716512060325815
614,6.0,300.16283,78.755041,0.0,0.0,0.0,0.0,0.0,-0.006119621084466009,-0.0025446795435403176,-0.0018632795917413781,-0.01953160651136948,0.013049327850868386,-0.0022893280553640876,-0.03342515002755547
615,6.0,300.06255,241.39147000000003,0.0,0.0,0.0,0.0,0.0,-0.006129587894049798,0.022482335697333777,-0.06324309018235703,-0.03261622383672067,-0.016867088054651987,0.007711239472965082,-0.02111261103990248
616,6.0,300.71892,923.46329,0.0,0.0,0.0,0.0,0.0,-0.006139554703633615,-0.08634963556404551,-0.08351933520546662,-0.11084080645913591,0.008341276763944923,0.01157617771597979,-0.04163243328105126
617,6.0,299.54245,1028.2888,0.0,0.0,0.0,0.0,0.0,-0.006149521513217432,-0.056956397162158744,-0.13135590898131888,-0.12426182079118687,-0.03047919324956217,-0.003947547206442576,-0.04955181874388375
618,6.0,300.57526,360.66733,0.0,0.0,0.0,0.0,0.0,-0.0061594883228012764,-0.056088595061013345,-0.05735976088121764,0.003814494296061277,-0.00014137366953999487,0.009801743135406731,-0.07155690756461693
619,6.0,300.26628999999997,233.95292999999998,0.0,0.0,0.0,0.0,0.0,-0.006169455132385093,-0.006595189881419564,-0.04139849308471316,-0.02312216665848018,-0.025914639351075776,0.00024634759580011476,-0.07559707616535052
620,6.0,300.94187999999997,569.9047400000001,0.0,0.0,0.0,0.0,0.0,-0.006179421941968938,-0.07897856431332743,-0.07580943818755902,-0.018448807937755583,0.016139833874877586,0.020851138811847178,-0.1064674974375239
621,6.0,301.43331,825.24787,0.0,0.0,0.0,0.0,0.0,-0.006189388751552699,-0.07528848983414542,-0.07806948746935853,-0.09749676873718191,0.007149351053236014,0.02166792275720748,-0.08053842940502413
622,6.0,299.89012,466.68755,0.0,0.0,0.0,0.0,0.0,-0.006199355561136544,-0.02030917261160928,-0.06658902642407523,-0.05496316398944195,0.0063172916533431435,-0.003035451991750787,-0.07941645452954382
623,6.0,298.97719,115.75083000000001,0.0,0.0,0.0,0.0,0.0,-0.00620932237072036,0.04506972820478586,-0.04611693028913665,-0.03413815892417397,-0.01068614085463999,-0.014716661287921384,-0.08008860715563013
624,6.0,300.20394,399.78595,0.0,0.0,0.0,0.0,0.0,-0.006219289180304205,-0.026326528556476075,-0.06933535064086634,-0.025863067960736077,-0.0005246126204127346,-0.013857100963089387,-0.06368129146635414
625,6.0,299.04515,771.42405,0.0,0.0,0.0,0.0,0.0,-0.006229255989888022,-0.049435769183430546,-0.09031155693905672,-0.09474632059248381,-0.01071425651841479,-0.004812245114581616,-0.04851068197463155
626,6.0,299.26955,869.30398,0.0,0.0,0.0,0.0,0.0,-0.0062392227994718386,-0.09961512715149759,-0.0948658770115331,-0.06976569923658843,-0.0001869559817186188,0.016442805787278584,-0.034088415437014664
627,6.0,299.97011000000003,543.19727,0.0,0.0,0.0,0.0,0.0,-0.006249189609055628,-0.028743700504782373,-0.059122418861178444,-0.07725228707820714,-0.02336284294148308,0.026672990176419175,-0.024618687406925275
628,6.0,299.61166000000003,343.04717999999997,0.0,0.0,0.0,0.0,0.0,-0.006259156418639472,-0.005891527710348514,-0.06138498302972614,-0.03700126832099086,-0.009998582368733251,0.02391924896889608,-0.06574796095331853
629,6.0,300.16128,676.1512,0.0,0.0,0.0,0.0,0.0,-0.006269123228223289,-0.04805167359983095,-0.07852482889204723,-0.07895657982590772,-0.015408386866189385,0.0015222886104131884,-0.05780824057422915
630,6.0,300.25485,810.6183900000001,0.0,0.0,0.0,0.0,0.0,-0.0062790900378071335,-0.1188281556724259,-0.05981029104931614,-0.06776930269705944,-0.0017488515354232082,-0.005582252571725435,-0.07214830821073363
631,6.0,300.49411000000003,528.8369799999999,0.0,0.0,0.0,0.0,0.0,-0.0062890568473909225,-0.04300943712720096,-0.07727914935160823,-0.04046464936854997,-0.02162115011934138,-0.02186926669782858,-0.08526900433239551
632,6.0,301.05502,237.64667999999998,0.0,0.0,0.0,0.0,0.0,-0.006299023656974767,-0.04491702837496555,-0.02459282115837248,-0.002728808871587467,-0.007747627715856322,-0.0024323272313770076,-0.09782330783365882
633,6.0,300.55097,288.68211,0.0,0.0,0.0,0.0,0.0,-0.006308990466558584,0.0014218767414033086,-0.06195624836985565,-0.027217782331185974,-0.01143986720652699,0.0025949356339252075,-0.08319350335755951
634,6.0,299.7717,583.16342,0.0,0.0,0.0,0.0,0.0,-0.006318957276142428,-0.033016297532704866,-0.06460412622018084,-0.07964669433651672,0.03659651543604486,-0.008261265267148403,-0.040352146183446756
635,6.0,300.52437000000003,781.47867,0.0,0.0,0.0,0.0,0.0,-0.0063289240857262175,-0.03927361136625366,-0.08848244799103773,-0.10979394685331889,0.030624717242174266,-0.018665877519928684,-0.05628883455902545
636,6.0,299.99567,422.16520999999995,0.0,0.0,0.0,0.0,0.0,-0.006338890895310034,-0.017742600989058385,-0.07783523721848983,-0.03274984518040807,0.020578407348680678,-0.013192577097005989,-0.052133524269928254
637,6.0,299.49846,120.52405,0.0,0.0,0.0,0.0,0.0,-0.006348857704893851,0.03337983140358287,-0.038792554669277064,-0.031223578448777267,0.002907423687290377,-0.006519401003089785,-0.06742453624453364
638,6.0,298.88209,546.6691,0.0,0.0,0.0,0.0,0.0,-0.006358824514477696,-0.05626054562948354,-0.06579985759694033,-0.04411335284614896,-0.009678261385470031,0.004566329416636626,-0.05008546210780025
639,6.0,299.39306,986.22469,0.0,0.0,0.0,0.0,0.0,-0.006368791324061512,-0.05627958155911225,-0.11207504640594589,-0.13143304771143188,-0.013124605240547685,0.007004688829833962,-0.06198410565485494
640,6.0,299.93401,808.09209,0.0,0.0,0.0,0.0,0.0,-0.006378758133645357,-0.06437608415267485,-0.0973138213653764,-0.08394991178246122,-0.004374951500024095,0.009960941546068391,-0.07067002799058873
641,6.0,301.08848,239.12277999999998,0.0,0.0,0.0,0.0,0.0,-0.006388724943229118,0.008548769815447893,-0.05759007972169835,-0.023646045331182978,-0.0035711519493952567,-0.003124188179858367,-0.0875300324137916
642,6.0,300.1366,274.26937999999996,0.0,0.0,0.0,0.0,0.0,-0.006398691752812963,-0.021299502994347276,-0.04844364534801555,-0.013627894671218487,0.015687724720007883,-0.0065058790791802735,-0.0898990202668425
643,6.0,300.52485,688.19122,0.0,0.0,0.0,0.0,0.0,-0.0064086585623967796,-0.06939928773542643,-0.05776290168525454,-0.08203075631130533,0.023691756082944274,-0.016967507219062584,-0.07210846620355152
644,6.0,300.1036,756.05827,0.0,0.0,0.0,0.0,0.0,-0.006418625371980624,-0.09818344529020159,-0.08286618608500583,-0.04877320595629066,0.03331964536089296,-0.012458275762786089,-0.08594705711381412
645,6.0,300.21765,410.83807,0.0,0.0,0.0,0.0,0.0,-0.006428592181564441,0.004415293748780566,-0.06253185143366323,-0.06676795625923423,-0.004249424200785516,-0.020209189144741683,-0.053814861836613354
646,6.0,298.82777000000004,110.92376000000002,0.0,0.0,0.0,0.0,0.0,-0.006438558991148258,0.010825476928891388,-0.03966030610791746,-0.004883224905286776,-0.012789450478470488,-0.0004295293728837486,-0.040646117395209465
647,6.0,298.96204,609.36817,0.0,0.0,0.0,0.0,0.0,-0.006448525800732047,-0.03775187487581996,-0.07819526727052202,-0.06928556662370303,-0.01883883019274778,-0.0075899632645210525,-0.02137672075796808
648,6.0,298.72302,1002.8034,0.0,0.0,0.0,0.0,0.0,-0.006458492610315891,-0.09431776240968841,-0.10761341237311689,-0.1028960238825469,0.00016484606406903986,0.005847591159512314,-0.05836983241565394
649,6.0,299.75215,736.7968599999999,0.0,0.0,0.0,0.0,0.0,-0.006468459419899708,-0.06889453719811144,-0.08307127702449672,-0.07200203339979742,-0.0006330649633386475,-0.016517558313406084,-0.05796643627259185
650,6.0,299.23812000000004,133.39931,0.0,0.0,0.0,0.0,0.0,-0.006478426229483553,-0.003978546883977006,-0.03236797857547077,-0.004203532887856396,0.0029036120430641975,8.605448594241651e-05,-0.059791053482917536
651,6.0,300.15324,212.0113,0.0,0.0,0.0,0.0,0.0,-0.006488393039067342,0.014919447083434786,-0.03256783303844487,-0.046797754309578755,0.004416629820362426,-0.01223911989865709,-0.08078837591319192
652,6.0,300.32378,607.81818,0.0,0.0,0.0,0.0,0.0,-0.006498359848651186,-0.07496948323891194,-0.059825402661307536,-0.049966664613075855,0.021258913208591378,0.035309541901030465,-0.07147781224856084
653,6.0,300.38284,555.9047099999999,0.0,0.0,0.0,0.0,0.0,-0.006508326658235003,-0.03417298433011097,-0.06392053197396534,-0.07088763662181503,0.012372118093532988,0.04096444409962586,-0.08533432957959261
654,6.0,300.09189,52.444433,0.0,0.0,0.0,0.0,0.0,-0.0065182934678188476,0.01066116221317479,-0.036487325578768666,0.009884365068435881,-0.015456878989475184,0.02104373840410528,-0.08913170319136422
655,6.0,300.07356,40.239337,0.0,0.0,0.0,0.0,0.0,-0.006528260277402637,0.028617959207122675,-0.02073800842493208,-0.020111703339370582,-0.020062072322972378,-0.028159697597645774,-0.07259211884728434
656,6.0,301.13622000000004,694.33518,0.0,0.0,0.0,0.0,0.0,-0.006538227086986453,-0.09973803337537751,-0.06375240439812244,-0.047570118383805156,-0.01916533889172168,-0.0004181880341169456,-0.07528844322464083
657,6.0,300.00651,1048.3012,0.0,0.0,0.0,0.0,0.0,-0.00654819389657027,-0.057381433287606545,-0.14063318636691485,-0.12064277514401488,0.022804656633644376,-0.02390087469158268,-0.07340069546683463
658,6.0,299.97701,714.2051700000001,0.0,0.0,0.0,0.0,0.0,-0.006558160706154115,-0.09358374478549651,-0.08141362012589871,-0.04210317407875976,0.017780902856088483,0.004277760955732136,-0.053303795711425045
659,6.0,299.56712999999996,465.45255,0.0,0.0,0.0,0.0,0.0,-0.0065681275157379315,-0.0036179850782923264,-0.08136625574997422,-0.05650171333878495,0.010574262844848489,0.0003822822603933216,-0.05940560402562665
660,6.0,299.6073,516.10835,0.0,0.0,0.0,0.0,0.0,-0.0065780943253217206,-0.04217959238805166,-0.07578729664637383,-0.03891716214007487,-0.0024206163906962375,0.02378291211494068,-0.06355831735471754
661,6.0,298.14171,568.18738,0.0,0.0,0.0,0.0,0.0,-0.006588061134905537,-0.037979836896568066,-0.055550474144904945,-0.07918446382639813,-0.0005383375489797796,0.014313449556377488,-0.06022692125193435
662,6.0,298.48042000000004,625.43121,0.0,0.0,0.0,0.0,0.0,-0.006598027944489382,-0.06160099072579444,-0.049188018388229456,-0.07932646170866221,-0.011528158780490688,0.0036880734115595066,-0.06006740326219114
663,6.0,299.62764,369.50195,0.0,0.0,0.0,0.0,0.0,-0.006607994754073199,-0.004739934825170146,-0.02987506415568927,-0.07770436887532413,-0.006737357989700464,-0.030334440340276176,-0.07914710225546082
664,6.0,300.63072999999997,276.53494,0.0,0.0,0.0,0.0,0.0,-0.0066179615636570155,-0.03535157759467907,-0.047723674409959956,-0.0009844638267790151,-0.01171731636215909,0.0025347657019118976,-0.07978156907057782
665,6.0,300.69478,793.1713,0.0,0.0,0.0,0.0,0.0,-0.00662792837324086,-0.060554256762989846,-0.08914109703304132,-0.09140891490335751,0.005882860571643134,0.014675161603575687,-0.07159743655536684
666,6.0,300.57196,909.2159800000001,0.0,0.0,0.0,0.0,0.0,-0.006637895182824677,-0.0948218756126905,-0.1064995769356899,-0.07505750528834902,0.017713047523391683,0.030589402436438966,-0.05334856616709355
667,6.0,299.07796,422.67150999999996,0.0,0.0,0.0,0.0,0.0,-0.006647861992408466,0.0034116143026001167,-0.08405418940325263,-0.047839009629092655,0.0012152759579383988,-0.0009498107037565181,-0.07215384258277983
668,6.0,300.34378,465.22103,0.0,0.0,0.0,0.0,0.0,-0.00665782880199231,-0.024039842956047774,-0.06566284186541793,-0.05171289071616495,-0.005429318579807025,0.014920019569741287,-0.07001019243271803
669,6.0,300.24767,532.42353,0.0,0.0,0.0,0.0,0.0,-0.006667795611576127,-0.0008128845739404613,-0.09016751533134092,-0.07086305720088923,0.017735077607065882,-0.010088624433569709,-0.08162900771290582
670,6.0,299.96681,466.10792999999995,0.0,0.0,0.0,0.0,0.0,-0.006677762421159944,-0.053413799208531544,-0.04884385076651275,-0.03942752101669336,0.015105912459587487,-0.004438276186223756,-0.06007566530350655
671,6.0,299.314,420.85877,0.0,0.0,0.0,0.0,0.0,-0.006687729230743761,-0.006906731153891293,-0.04945132763871605,-0.07157250047040584,0.008615596496643172,-0.023763414143266375,-0.09525779404421232
672,6.0,298.66002000000003,378.41143999999997,0.0,0.0,0.0,0.0,0.0,-0.006697696040327605,-0.046480241244992664,-0.03208093191489147,-0.03646645667970907,-0.02123649707662908,0.02239723586118508,-0.07266829802955263
673,6.0,298.7068,362.45754,0.0,0.0,0.0,0.0,0.0,-0.006707662849911422,-0.014195191110706287,-0.05159726469425355,-0.04438558477701616,-0.016454472348929983,0.013644002308058187,-0.08720008677047851
674,6.0,300.30262,570.7688400000001,0.0,0.0,0.0,0.0,0.0,-0.006717629659495211,-0.040815458844672164,-0.06018869436541164,-0.07249532306523133,0.002217897976314488,0.034461560998341266,-0.04503825463017966
675,6.0,299.54267000000004,707.3496700000001,0.0,0.0,0.0,0.0,0.0,-0.006727596469079056,-0.04512689172242746,-0.10008146031127109,-0.06980828411179123,0.020079924776484282,-0.015465278832804184,-0.09390486400718852
676,6.0,299.04078,534.06749,0.0,0.0,0.0,0.0,0.0,-0.0067375632786628725,-0.07806020001894193,-0.06066158831958264,-0.02362139396950008,0.02133986682533088,-0.007161382384923414,-0.05893923945510004
677,6.0,299.39768,312.04027,0.0,0.0,0.0,0.0,0.0,-0.006747530088246689,-0.004332348791619536,-0.06781156130573003,-0.022708539729158376,0.016653529384075383,-0.016032384781273185,-0.08670873443923582
678,6.0,299.65983,467.27738,0.0,0.0,0.0,0.0,0.0,-0.006757496897830506,-0.04522417589102866,-0.062030023109636644,-0.03478645558990587,0.008822401753978262,0.0004452496948727236,-0.03593078580234246
679,6.0,301.38159,681.59497,0.0,0.0,0.0,0.0,0.0,-0.006767463707414351,-0.037460811691844266,-0.06388767024672215,-0.10583936343553191,-0.021499100091795977,0.003297799262592447,-0.04806796159518845
680,6.0,299.84776,541.03773,0.0,0.0,0.0,0.0,0.0,-0.0067774305169981675,-0.013709012434474185,-0.10051213416027531,-0.050240812599882154,-0.008450118569811772,0.02150964903858708,-0.06747134535940334
681,6.0,298.53827,389.71047000000004,0.0,0.0,0.0,0.0,0.0,-0.0067873973265819565,-0.00922206336114679,-0.038923641874464364,-0.07031654657395284,-0.014364365373902488,0.015098801470385684,-0.06743450662551764
682,6.0,299.77549,583.4513099999999,0.0,0.0,0.0,0.0,0.0,-0.006797364136165773,-0.08104828266984272,-0.04914163990465225,-0.047164705873044055,0.001037906021308349,0.006810423758386494,-0.06867524049221853
683,6.0,300.12987999999996,616.25117,0.0,0.0,0.0,0.0,0.0,-0.006807330945749618,-0.01940543660891748,-0.1017155875160469,-0.06620394578982074,0.009900220304675671,-0.025259191166138076,-0.09744558339513032
684,6.0,299.23581,618.82832,0.0,0.0,0.0,0.0,0.0,-0.006817297755333435,-0.08115191079732002,-0.05391824475756645,-0.053038200568712855,0.02019210777455588,-0.008186402702060043,-0.07280503815704784
685,6.0,299.21898999999996,675.7806,0.0,0.0,0.0,0.0,0.0,-0.006827264564917279,-0.021314432221320682,-0.11296347422612689,-0.07114251765796983,0.006375888615901213,0.018839223333786584,-0.08023058173314193
686,6.0,299.19147000000004,445.19255999999996,0.0,0.0,0.0,0.0,0.0,-0.006837231374501096,-0.028077092383243275,-0.06538500666149773,-0.04186532375028575,-0.003608014595983316,0.03492751013632687,-0.04566484747876955
687,6.0,299.41867,560.06893,0.0,0.0,0.0,0.0,0.0,-0.006847198184084885,-0.022949450072934377,-0.08326337201820502,-0.06403414973417854,-0.008827225939029371,0.01803845684600708,-0.05723810095496074
688,6.0,300.68908999999996,937.48407,0.0,0.0,0.0,0.0,0.0,-0.006857164993668702,-0.0974917247781841,-0.11809853454041788,-0.06938148797091974,-0.01143042168909479,0.024672709849256874,-0.06630074157187373
689,6.0,300.12753,593.88586,0.0,0.0,0.0,0.0,0.0,-0.006867131803252546,-0.019290823837106084,-0.08218290391982112,-0.07905274333989833,0.022817905891951977,-0.01908221894626838,-0.07664758853777803
690,6.0,300.9264,251.53052000000002,0.0,0.0,0.0,0.0,0.0,-0.006877098612836363,-0.025323338003468875,-0.04500920272331246,-0.006126457852034314,-0.0022383250983304876,-0.011605804135653689,-0.06198952654288994
691,6.0,299.8233,530.45462,0.0,0.0,0.0,0.0,0.0,-0.00688706542242018,0.00851903801776359,-0.1046882099969219,-0.06507579110198054,0.006981693321464483,-0.016656042244323384,-0.09160176780814061
692,6.0,300.19476000000003,754.65364,0.0,0.0,0.0,0.0,0.0,-0.006897032232003997,-0.08162706936546452,-0.07190974759393953,-0.07585904387270473,-0.003752930131910366,0.015387108614089384,-0.05200407447690254
693,6.0,300.26541000000003,673.21175,0.0,0.0,0.0,0.0,0.0,-0.006906999041587841,-0.08318388052135982,-0.09253156764315472,-0.028924114751337868,0.03103331743774997,0.027506396489669974,-0.1012866564572147
694,6.0,300.80551,519.06633,0.0,0.0,0.0,0.0,0.0,-0.00691696585117163,-0.0880135452290106,-0.04654256017914305,-0.02322709681233598,0.003697276255592757,-0.003959532131275396,-0.059126346218566043
695,6.0,301.07498,374.33911,0.0,0.0,0.0,0.0,0.0,-0.006926932660755475,-0.024824488634736276,-0.04795716573650375,-0.04100808883443326,-0.0017314674061075282,-0.024197199683327678,-0.08191300043768372
696,6.0,300.31096,628.1976599999999,0.0,0.0,0.0,0.0,0.0,-0.006936899470339264,-0.06801579807538664,-0.09467832543127322,-0.028262278024519676,-0.013092947254423289,-0.017280522466454784,-0.05387559402110715
697,6.0,299.09864,789.81566,0.0,0.0,0.0,0.0,0.0,-0.0069468662799231085,-0.02710297906835577,-0.08933675562735131,-0.12364449816776188,0.007572275362825393,0.0011597065866791288,-0.07212087750402643
698,6.0,300.30287999999996,666.39355,0.0,0.0,0.0,0.0,0.0,-0.006956833089506925,-0.06901345121659733,-0.096138659978897,-0.037414889170812066,0.005415845494552335,0.006987429836905634,-0.028956331038267374
699,6.0,299.81158999999997,269.86866000000003,0.0,0.0,0.0,0.0,0.0,-0.00696679989909077,-0.0024167647230911075,-0.05476226587886485,-0.02485430149242858,0.009425374121537001,0.01737110398564448,-0.06572870312191793
700,6.0,298.90317999999996,352.78886,0.0,0.0,0.0,0.0,0.0,-0.006976766708674587,-0.02686132398575627,-0.06544174461409734,-0.014935935702312088,0.0006581969399414803,0.016549648957323183,-0.059699341176616245
701,6.0,299.07547,741.03842,0.0,0.0,0.0,0.0,0.0,-0.006986733518258376,-0.04967246947304105,-0.1160651037097339,-0.05951959972812715,0.006673299609103394,0.0097698325460324,-0.07681980863077484
702,6.0,300.25064,682.09239,0.0,0.0,0.0,0.0,0.0,-0.006996700327842192,-0.04732118411248726,-0.05946776185301114,-0.10055010976077321,0.019828716771941982,-0.02663817388973308,-0.04502735104585355
703,6.0,300.30467000000004,333.11216,0.0,0.0,0.0,0.0,0.0,-0.007006667137426037,0.024940834064218678,-0.07945292342714301,-0.04674568845319025,-0.009059630048215871,-0.03356493193185087,-0.0999025487146139
704,6.0,300.18826,423.66585,0.0,0.0,0.0,0.0,0.0,-0.007016633947009854,-0.034937872645099566,-0.06587291799540083,-0.027973047809974876,-0.004799901701863415,0.009671227707250861,-0.06830337770551853
705,6.0,300.76262,607.95841,0.0,0.0,0.0,0.0,0.0,-0.007026600756593698,-0.08691023340712223,-0.056381379756908954,-0.04151256174122086,-0.01211549325395609,0.017671346202276086,-0.06468714585387424
706,6.0,301.14675,583.92631,0.0,0.0,0.0,0.0,0.0,-0.00703656756617746,-0.06385436370268503,-0.0938481827965945,-0.01979647312725978,-0.008514253349466382,0.007114228663694703,-0.06681663076753803
707,6.0,301.253,431.92185,0.0,0.0,0.0,0.0,0.0,-0.007046534375761304,-0.052507230158560146,-0.051017324920017953,-0.027768901219577174,-0.007638217172708343,-0.009875649597700731,-0.06266164471847285
708,6.0,301.46286000000003,524.62345,0.0,0.0,0.0,0.0,0.0,-0.007056501185345121,-0.010767304214150189,-0.08405557350288922,-0.06464955224866403,0.027782912441959972,-0.015229094287494586,-0.058763053501211845
709,6.0,300.34907000000004,625.66291,0.0,0.0,0.0,0.0,0.0,-0.0070664679949289655,-0.0014221926727844886,-0.1035367120532779,-0.08522699295674932,-0.008486667311518852,-0.011699057595357089,-0.08291506223007952
710,6.0,299.13973,776.5693,0.0,0.0,0.0,0.0,0.0,-0.007076434804512782,-0.08801488474564283,-0.06392411685281914,-0.08411867466611682,-0.002140168014768138,-0.01007089894029534,-0.027026539480811775
711,6.0,300.53517999999997,566.66206,0.0,0.0,0.0,0.0,0.0,-0.007086401614096599,-0.04989644536789575,-0.07256797715040172,-0.04978669417006416,-0.042026612901203755,-0.0015516186544328385,-0.07656354957448402
712,6.0,300.54166000000004,174.36296000000002,0.0,0.0,0.0,0.0,0.0,-0.007096368423680416,-0.004393959767925066,-0.02906226532297227,-0.019545761615266482,-0.0026875539884659277,0.020444881250502683,-0.05199961009696195
713,6.0,299.88295,363.79402999999996,0.0,0.0,0.0,0.0,0.0,-0.00710633523326426,-0.018467435527593983,-0.04198585288943106,-0.05013101377929586,-0.005431032188376145,0.04810030352513036,-0.08378630938156492
714,6.0,299.69052,776.70596,0.0,0.0,0.0,0.0,0.0,-0.0071163020428480495,-0.041363917951550866,-0.09530239022086359,-0.09943291033301421,0.01015535384275539,0.002091318011547018,-0.07923043093043473
715,6.0,300.11375,643.4068,0.0,0.0,0.0,0.0,0.0,-0.007126268852431894,-0.033356665466546566,-0.06895952807277553,-0.09326340779288173,-0.009172123303468092,-0.014182534603707187,-0.09382470883152781
716,6.0,300.10146000000003,276.91662,0.0,0.0,0.0,0.0,0.0,-0.007136235662015683,-0.01994430327709948,-0.05976940438128094,-0.004462031226868195,0.022508322522648477,-0.021701534289524683,-0.10093103100336721
717,6.0,300.86088,401.92655,0.0,0.0,0.0,0.0,0.0,-0.007146202471599528,-0.02313901194139268,-0.07936483855619973,-0.01967178560970408,0.017042993338262483,0.006303549854161933,-0.08602519186877543
718,6.0,301.54098999999997,648.41119,0.0,0.0,0.0,0.0,0.0,-0.007156169281183344,-0.06673908673738503,-0.06490855518622564,-0.06545316900897484,-0.004135683432010176,-0.018523445966621782,-0.06672943755668273
719,6.0,301.41046,740.23972,0.0,0.0,0.0,0.0,0.0,-0.007166136090767189,-0.027825667543179573,-0.12264514985913387,-0.07454357673162823,-0.041323913824352757,-0.007272236201513833,-0.057675957733923845
720,6.0,300.45252,520.64461,0.0,0.0,0.0,0.0,0.0,-0.007176102900351006,0.004409431286351986,-0.07466969293182493,-0.08800269939994022,-0.013395376064770686,0.004493756999424285,-0.08289226004982912
721,6.0,299.76427,309.41005,0.0,0.0,0.0,0.0,0.0,-0.007186069709934795,0.0027294906875797577,-0.04907601169567525,-0.04770640862825595,0.009801804538362791,0.030725309672351972,-0.06680807387044353
722,6.0,300.57912000000005,405.99602999999996,0.0,0.0,0.0,0.0,0.0,-0.0071960365195186116,-0.051421029091110446,-0.07354099412868102,0.0015493685299357684,0.0029174817144080275,-0.021588333988352682,-0.09652918683243901
723,6.0,299.3816,702.56717,0.0,0.0,0.0,0.0,0.0,-0.007206003329102456,-0.06784473410075394,-0.05574413562326785,-0.089974005840493,0.0013545212449808386,-0.02673017395906277,-0.059768640390705535
724,6.0,300.00933,950.05101,0.0,0.0,0.0,0.0,0.0,-0.007215970138686273,-0.11020977456185789,-0.11797946752116689,-0.06060254623625565,-0.004210920393010486,-0.007219030337437822,-0.09402184170473332
725,6.0,300.01953,620.07561,0.0,0.0,0.0,0.0,0.0,-0.0072259369482701175,-0.008531221843591043,-0.08418492703715542,-0.09577135479114682,0.00991207421627056,0.015053253851890486,-0.06898950203723374
726,6.0,300.14287,537.21823,0.0,0.0,0.0,0.0,0.0,-0.007235903757853879,0.002126756433794518,-0.07063870842999773,-0.0947889763951936,-0.006926140060881804,-0.015863647228870088,-0.08014675757886913
727,6.0,300.02096,823.0061099999999,0.0,0.0,0.0,0.0,0.0,-0.007245870567437723,-0.06054144218897514,-0.1056752270518329,-0.08395663672337492,-0.02009873880434108,-0.012686106061021187,-0.053006711795355155
728,6.0,301.16806,650.61626,0.0,0.0,0.0,0.0,0.0,-0.00725583737702154,-0.08555420890429301,-0.05228383282951255,-0.059933055418182044,-0.003405859953957207,-0.007894864303787441,-0.05475473641737174
729,6.0,302.15299,402.12562,0.0,0.0,0.0,0.0,0.0,-0.007265804186605385,-0.03543569964448126,-0.07290301437546734,-0.013897432370069787,0.0016351909147307784,0.025825144035993276,-0.1018041354422859
730,6.0,301.83482000000004,317.64064,0.0,0.0,0.0,0.0,0.0,-0.007275770996189201,-0.024865643814047975,-0.06441080519385153,-0.007278372545444442,0.01884624920997998,-0.016566889407774683,-0.06636914507287464
731,6.0,300.28187,307.43344,0.0,0.0,0.0,0.0,0.0,-0.007285737805773018,0.01940384884601078,-0.06649124170992464,-0.04636469526983916,-0.00906652622839647,-0.012257537745724788,-0.1049256651578569
732,6.0,300.24975,634.64186,0.0,0.0,0.0,0.0,0.0,-0.007295704615356835,-0.0073107883413186334,-0.12788678381894286,-0.05771770667779414,0.014127802886305588,0.014657360825818887,-0.1004330378309691
733,6.0,300.18236,856.2143,0.0,0.0,0.0,0.0,0.0,-0.0073056714249406796,-0.09542525388823932,-0.10609524961578591,-0.05874726503815365,-0.018287914967626683,0.026119326003776772,-0.0867916314696671
734,6.0,300.30754,533.12495,0.0,0.0,0.0,0.0,0.0,-0.007315638234524469,-0.06341474792154835,-0.07467643509799034,-0.023965488637209577,-0.02026776411977258,-0.002703120549752227,-0.0940284744398879
735,6.0,301.06246,412.80643,0.0,0.0,0.0,0.0,0.0,-0.007325605044108313,-0.045383275408480556,-0.09318372884476801,0.013084156296555688,-0.03252243031471397,-0.027153556460347374,-0.1064341209792299
736,6.0,299.28674,678.50095,0.0,0.0,0.0,0.0,0.0,-0.007335571853692102,-0.06238855051177054,-0.05808631693167315,-0.08577247918783461,0.011477894482779988,-0.0072431309976913735,-0.08001264987513372
737,6.0,298.57282999999995,798.4218099999999,0.0,0.0,0.0,0.0,0.0,-0.007345538663275947,-0.056172611732805154,-0.09888775746121181,-0.08763992344013702,0.027546749174902473,0.01078471691711869,-0.07956722107817332
738,6.0,300.11983,427.06189000000006,0.0,0.0,0.0,0.0,0.0,-0.0073555054728597635,0.016506688166333286,-0.048408876684084154,-0.09791396332010581,0.01995428277733438,0.005298876814933425,-0.07237516274912242
739,6.0,299.98251,120.31258999999999,0.0,0.0,0.0,0.0,0.0,-0.007365472282443608,-0.018909046398177583,-0.009876355529045401,-0.007786619504879513,0.017897750857620482,-0.013080956452739887,-0.05026871953413636
740,6.0,299.39164,494.93057999999996,0.0,0.0,0.0,0.0,0.0,-0.007375439092027425,-0.025170887433173177,-0.09352586186028392,-0.031749788609960174,0.012910335268400887,-0.013520840745153088,-0.06770322561828813
741,6.0,300.95745,838.9449699999999,0.0,0.0,0.0,0.0,0.0,-0.007385405901611214,-0.11929793894878987,-0.06706896955919193,-0.06865140884986654,-0.009189408539574012,-0.014725577888801387,-0.07281805031483203
742,6.0,300.29767999999996,862.9859,0.0,0.0,0.0,0.0,0.0,-0.007395372711195031,-0.06786472653847703,-0.1089282462328809,-0.08553319308396891,-0.03360707097700967,-0.02861238937132297,-0.07993660342862852
743,6.0,301.15757,635.27117,0.0,0.0,0.0,0.0,0.0,-0.007405339520778875,-0.01939618867525478,-0.08519932514951872,-0.08851105913411142,-0.02634273143882518,-0.03384312582630647,-0.08410656936717212
744,6.0,301.02572000000004,397.07335,0.0,0.0,0.0,0.0,0.0,-0.007415306330362692,-0.014576406195829287,-0.05534688078906186,-0.05077709649355925,-0.013031798624138386,0.02984080718305837,-0.05472439768287755
745,6.0,299.90032,564.86328,0.0,0.0,0.0,0.0,0.0,-0.007425273139946537,-0.05605359537605915,-0.08217449799699152,-0.03347624012409767,0.00026145808308390375,0.04561265293961836,-0.08869220596048921
746,6.0,299.67424,1073.6234,0.0,0.0,0.0,0.0,0.0,-0.007435239949530298,-0.11784640751803489,-0.07085160038200854,-0.13765669327065788,0.024974076773499478,0.019514879778718682,-0.04447561306165125
747,6.0,298.9562,796.70469,0.0,0.0,0.0,0.0,0.0,-0.007445206759114142,-0.07158024778067043,-0.08410059017833202,-0.08649749307163793,-0.005420916304677785,-0.009321996773459452,-0.09459576581312522
748,6.0,299.84403,130.88558999999998,0.0,0.0,0.0,0.0,0.0,-0.007455173568697959,0.028632340265791974,-0.05215505684780336,-0.016263235578056385,0.034385380802822864,-0.014121956433228586,-0.08746796881866642
749,6.0,300.83468,481.27227999999997,0.0,0.0,0.0,0.0,0.0,-0.007465140378281804,0.007155058184424264,-0.04993192128039695,-0.1035178959989209,0.012664454932884388,-0.0049746655592362654,-0.08750442150426402
750,6.0,299.50988,830.28216,0.0,0.0,0.0,0.0,0.0,-0.0074751071878656206,-0.05271698306176115,-0.11536554570819291,-0.08430251471126042,-0.01020928205282769,-0.014876550127201186,-0.08431984534097083
751,6.0,299.74546000000004,625.52967,0.0,0.0,0.0,0.0,0.0,-0.007485073997449437,-0.03313559253322836,-0.08377177836188082,-0.07323803032228084,-0.029497800745956274,-0.023253072491899576,-0.06259673490381673
752,6.0,301.32212999999996,509.5279,0.0,0.0,0.0,0.0,0.0,-0.007495040807033254,-0.022348910924165778,-0.07636627585951462,-0.05616857190465645,-0.03349775446347097,0.03284203776725677,-0.08341561892523063
753,6.0,300.62537000000003,361.41458,0.0,0.0,0.0,0.0,0.0,-0.007505007616617099,-0.037137130973899465,-0.055729941002616946,-0.016993936834670983,0.002019477262231888,0.01039222334513259,-0.06801930898698313
754,6.0,301.74891,479.43834000000004,0.0,0.0,0.0,0.0,0.0,-0.007514974426200888,-0.017419675142438085,-0.048363448629100754,-0.07995416001311123,-0.004564958894551365,-0.006093500980606723,-0.08595496553084461
755,6.0,300.96044,795.77251,0.0,0.0,0.0,0.0,0.0,-0.007524941235784732,-0.05525062810906245,-0.09553684312175231,-0.09110750035636023,0.011163447512996489,-0.03490128215748837,-0.08260827441780193
756,6.0,300.01403999999997,779.58866,0.0,0.0,0.0,0.0,0.0,-0.007534908045368521,-0.08130189916987272,-0.06392511895716804,-0.09174846919736891,0.026756229685384273,-0.009300640298451731,-0.0906439222236086
757,6.0,300.29556,376.34372,0.0,0.0,0.0,0.0,0.0,-0.007544874854952366,-0.03314122823028457,-0.03072928363924417,-0.05052858373428295,0.024003671953977977,0.015434722249538483,-0.06327381395188925
758,6.0,300.51379,314.62189,0.0,0.0,0.0,0.0,0.0,-0.007554841664536183,-0.00944110158693918,-0.07124531086736473,-0.014950785895777688,-0.0013241755190609487,0.011311480312856188,-0.08268951782407002
759,6.0,299.74557000000004,794.85563,0.0,0.0,0.0,0.0,0.0,-0.007564808474120027,-0.08641632059287682,-0.06594781440304254,-0.08925212897899933,-0.03603958657158026,-0.014177918236251587,-0.053304312468976045
760,6.0,300.22127,715.25777,0.0,0.0,0.0,0.0,0.0,-0.007574775283703844,-0.03005836008552917,-0.08973551311145561,-0.09762662990974821,-0.008862434758804213,0.008314117000314461,-0.08034629590781202
761,6.0,300.57531,315.8621,0.0,0.0,0.0,0.0,0.0,-0.007584742093287633,0.008341913591632772,-0.07733913781052863,-0.027016967307117074,0.016017170831021683,-0.012693712529521887,-0.09896930889551031
762,6.0,300.04618,375.23026,0.0,0.0,0.0,0.0,0.0,-0.00759470890287145,-0.03783008967753917,-0.04200733075180076,-0.03422320809781767,0.01824399158904178,0.006764117519541425,-0.07446472054259573
763,6.0,299.77436,700.3929400000001,0.0,0.0,0.0,0.0,0.0,-0.007604675712455294,-0.05692586489689545,-0.1118565491543819,-0.04411954988376055,-0.0026495863926438174,-0.012504790021876688,-0.08594919912452552
764,6.0,300.36089,569.59834,0.0,0.0,0.0,0.0,0.0,-0.007614642522039111,-0.028185676316959674,-0.07408590483370953,-0.07087209133878083,-0.008734746906377402,0.03581286578220467,-0.08377243494794563
765,6.0,299.63642999999996,556.04114,0.0,0.0,0.0,0.0,0.0,-0.007624609331622928,-0.05533493051738245,-0.07073103780560994,-0.042956654902991755,-0.040627002432072956,0.024075309749298078,-0.07107428944923623
766,6.0,299.89842999999996,394.69126,0.0,0.0,0.0,0.0,0.0,-0.007634576141206745,-0.0036250105491856866,-0.08360875959304212,-0.032742519382185066,-0.01831856983615208,-0.0015529309146373486,-0.09241999462164333
767,6.0,300.45158,139.38245,0.0,0.0,0.0,0.0,0.0,-0.007644542950790589,-0.0054154265156359845,-0.024872910843765177,-0.012080447972747389,-0.007868149458275893,-0.03140894951482197,-0.0905345266765621
768,6.0,301.07612,602.67475,0.0,0.0,0.0,0.0,0.0,-0.007654509760374378,-0.026650242711674176,-0.10789154952556691,-0.048656288040501754,0.019190312466936383,0.008679451416620163,-0.10615691601687191
769,6.0,300.9142,1121.614,0.0,0.0,0.0,0.0,0.0,-0.007664476569958223,-0.11594691821806989,-0.12622503338994087,-0.0987706835049075,0.024999312780490078,0.009003180770569762,-0.08232096937844713
770,6.0,300.34573,685.3324700000001,0.0,0.0,0.0,0.0,0.0,-0.00767444337954204,-0.06255785751072984,-0.07645119229739523,-0.06931490832009884,-0.01114476622090279,0.019511478298132982,-0.08376696643715592
771,6.0,299.98061,303.31709,0.0,0.0,0.0,0.0,0.0,-0.0076844101891258565,-0.01971050290927518,-0.07039983674542293,-0.002090482181539528,-0.010045863151524502,0.012636727343897888,-0.06848206436065353
772,6.0,300.49487,727.05439,0.0,0.0,0.0,0.0,0.0,-0.007694376998709673,-0.015167560622171686,-0.09876415513451321,-0.1070746672949469,-0.014629518739571088,0.015783063448417088,-0.06225245177158864
773,6.0,299.40356,884.87215,0.0,0.0,0.0,0.0,0.0,-0.007704343808293518,-0.07284884602512134,-0.1085969134501809,-0.08753327582736173,0.003565230211835827,-0.01675522929661238,-0.06411952517435443
774,6.0,298.85208,638.8054099999999,0.0,0.0,0.0,0.0,0.0,-0.007714310617877307,-0.03503253046944157,-0.0971985256629976,-0.06194983652322284,-0.011665800700574889,-0.035984830536176265,-0.08570097514152773
775,6.0,299.49936,406.45043,0.0,0.0,0.0,0.0,0.0,-0.007724277427461124,-0.05624741796118794,-0.029108762356811178,-0.03819460336126387,-0.011795978007172388,-0.05231946680902935,-0.08107153169338722
776,6.0,299.52505,241.7004,0.0,0.0,0.0,0.0,0.0,-0.0077342442370449405,-0.008080566601289831,-0.06289916776716453,-0.0024911516685825275,0.0016705772559231385,-0.0016852379716200386,-0.059939742868842044
777,6.0,300.55875,491.51381,0.0,0.0,0.0,0.0,0.0,-0.007744211046628785,-0.02363302709389818,-0.07378437173645053,-0.05199052529656535,-0.00045709861114462055,0.014048267819706087,-0.07509147449795152
778,6.0,300.61400000000003,1015.3387,0.0,0.0,0.0,0.0,0.0,-0.007754177856212602,-0.05050221694018075,-0.11562148255095189,-0.14251391027502786,0.004001503078242606,0.04330953850206866,-0.06290812895104894
779,6.0,300.37382,660.70503,0.0,0.0,0.0,0.0,0.0,-0.007764144665796419,-0.05310821311087255,-0.0883084516706156,-0.05942116653391254,0.013420140910464787,-0.00019667504628031584,-0.08148136298783443
780,6.0,300.49761,161.88991000000001,0.0,0.0,0.0,0.0,0.0,-0.007774111475380263,0.03559367749407246,-0.05727433579178685,-0.02752983195123287,0.015699493619919385,0.0023398917684793376,-0.09996848697812151
781,6.0,300.66093,517.60047,0.0,0.0,0.0,0.0,0.0,-0.007784078284964052,-0.049919169527888455,-0.08970559487575291,-0.017712853992622585,0.006048263517967134,-0.02290915514295758,-0.12167040326293388
782,6.0,300.46759,938.2906800000001,0.0,0.0,0.0,0.0,0.0,-0.007794045094547869,-0.09879047430586071,-0.1126198709847159,-0.07380658724489303,-0.028783405723200976,-0.03768276412624926,-0.08338185743189863
783,6.0,300.16504,623.29057,0.0,0.0,0.0,0.0,0.0,-0.007804011904131686,-0.04938312172148465,-0.08196503690981932,-0.058116610069912845,-0.025682774290942473,-0.03046377462279047,-0.07911335494763022
784,6.0,299.6067,88.15299999999999,0.0,0.0,0.0,0.0,0.0,-0.00781397871371553,0.049548286554035155,-0.053628216101942856,-0.02271638025843218,-0.013650597552959087,0.007548517181105643,-0.08876149200232722
785,6.0,299.80838,319.15153,0.0,0.0,0.0,0.0,0.0,-0.007823945523299347,-0.011778707159217888,-0.053734881953219946,-0.03150050679385797,0.015049205917740987,0.019789956915866682,-0.042870171980456555
786,6.0,300.41392,766.21553,0.0,0.0,0.0,0.0,0.0,-0.007833912332883164,-0.038367800227357064,-0.10472993563603991,-0.08981265792106922,0.004785649832581865,0.017352453091053783,-0.07905377989475063
787,6.0,299.94404,893.32197,0.0,0.0,0.0,0.0,0.0,-0.007843879142467008,-0.1144032519557219,-0.08413558175728543,-0.07300874398365204,0.007536391515833933,-0.014653735416961088,-0.06441361290987864
788,6.0,300.29807999999997,718.20442,0.0,0.0,0.0,0.0,0.0,-0.007853845952050797,-0.07192315187951243,-0.07213848779076443,-0.07425456943210543,-0.0074962553621478025,-0.005955623783849305,-0.093546198803041
789,6.0,298.80901,301.39681,0.0,0.0,0.0,0.0,0.0,-0.007863812761634614,-0.013039702988168487,-0.057817387182881846,-0.02076001419060388,0.003993280756331126,-0.029736977418811174,-0.08140357983065782
790,6.0,298.50396,469.46827,0.0,0.0,0.0,0.0,0.0,-0.007873779571218459,-0.019361664204597482,-0.06984786064744714,-0.05349710559200325,0.010122128257401282,-0.005751990303302245,-0.1047287906634269
791,6.0,299.34414,1060.1078,0.0,0.0,0.0,0.0,0.0,-0.007883746380802276,-0.12067875565506588,-0.09995545658183551,-0.10161208401833191,-0.004956284594472205,-0.015851772950948185,-0.05809620827914935
792,6.0,298.29656,695.11264,0.0,0.0,0.0,0.0,0.0,-0.007893713190386092,-0.049390229670936155,-0.08139094460191083,-0.08051571031128192,0.012986364489654387,0.013448531165016686,-0.07705425241241262
793,6.0,298.77961,236.12656,0.0,0.0,0.0,0.0,0.0,-0.007903679999969881,-0.006460252427177274,-0.05882213206154245,-0.006494192049876854,-0.0066279642665041435,0.0017541684639979485,-0.050724568595125155
794,6.0,299.70267,537.6023799999999,0.0,0.0,0.0,0.0,0.0,-0.007913646809553726,-0.022845565593181776,-0.0958205957062565,-0.044751539302383056,-0.00916939847129917,0.009839942765501741,-0.07293522660939643
795,6.0,300.75282999999996,912.0690099999999,0.0,0.0,0.0,0.0,0.0,-0.007923613619137543,-0.08673606179443283,-0.1043699988030169,-0.08614014103962,-0.032251567284731865,-0.023166148805570875,-0.04976415442158966
796,6.0,300.61531,781.9897599999999,0.0,0.0,0.0,0.0,0.0,-0.00793358042872136,-0.04018128789858436,-0.09953504594309422,-0.09798902590076392,-0.03119207751641837,0.016730933585714584,-0.08865445428826342
797,6.0,300.68843,530.17562,0.0,0.0,0.0,0.0,0.0,-0.007943547238305176,-0.018379390173404585,-0.0887848312051306,-0.05399592962948336,-0.005509159749261735,0.003986620055473767,-0.08422375376773732
798,6.0,299.23357999999996,390.68985,0.0,0.0,0.0,0.0,0.0,-0.007953514047889021,-0.006469619823026764,-0.06655937973939934,-0.04573096002129436,0.012697884080183588,0.0008441794112290211,-0.1003500688597807
799,6.0,300.14867999999996,436.50275999999997,0.0,0.0,0.0,0.0,0.0,-0.007963480857472838,-0.04463146409928256,-0.06417666032099324,-0.023877815145806877,0.02420356796020618,-0.017343726981192586,-0.11702578639454589
800,6.0,300.58049,498.84608,0.0,0.0,0.0,0.0,0.0,-0.007973447667056682,-0.03609166357371986,-0.06632472824149103,-0.049220360318171355,0.012751883217762886,-0.02249080038866918,-0.12859830830416488
801,6.0,300.39533,548.0495,0.0,0.0,0.0,0.0,0.0,-0.007983414476640444,-0.036200475488708764,-0.08025309108411342,-0.05013979663116265,-0.005291354142215995,-0.013219213415634787,-0.1036421001961789
802,6.0,298.98384,260.8408,0.0,0.0,0.0,0.0,0.0,-0.007993381286224288,0.02346117683718788,-0.06824180249694153,-0.03450846535872037,0.002247340592420248,0.006930291650516533,-0.0991840875192073
803,6.0,299.33274,395.41775,0.0,0.0,0.0,0.0,0.0,-0.008003348095808105,-0.023173594167305682,-0.06479339323286004,-0.032230132992116474,0.007792568600191643,0.036318967995153065,-0.06250874527838285
804,6.0,299.45862999999997,978.8880300000001,0.0,0.0,0.0,0.0,0.0,-0.00801331490539195,-0.0902165728481825,-0.0996945304955841,-0.1076464139288739,-0.0026024643861432377,0.035686160883699865,-0.026541022456894974
805,6.0,299.15096,993.08765,0.0,0.0,0.0,0.0,0.0,-0.008023281714975766,-0.12911504559016287,-0.09013372242725581,-0.08262508423696092,-0.027181373215342676,-0.006305911537495014,-0.033084972584732565
806,6.0,299.00377000000003,693.7162599999999,0.0,0.0,0.0,0.0,0.0,-0.008033248524559583,-0.028622832940103676,-0.10496227388396989,-0.07728731412091402,-0.03442253465748967,-0.029354749083588174,-0.07980176719807122
807,6.0,300.55203,831.44217,0.0,0.0,0.0,0.0,0.0,-0.008043215334143372,-0.09122484789019152,-0.09863150651092181,-0.06288130619440174,0.013567168566225288,-0.03400640500042087,-0.08775535795777951
808,6.0,300.59131,924.8562199999999,0.0,0.0,0.0,0.0,0.0,-0.008053182143727217,-0.06198488180443154,-0.1088040724331259,-0.11034424298262889,0.02036883379074738,-0.0035633035167706765,-0.10677459327783191
809,6.0,300.76085,516.09173,0.0,0.0,0.0,0.0,0.0,-0.008063148953311033,-0.06306221389375594,-0.06657439711913143,-0.027242387083364274,0.02546017438972358,0.00959064291354776,-0.10464592707024889
810,6.0,300.42871,313.86444,0.0,0.0,0.0,0.0,0.0,-0.008073115762894878,0.006832912135080925,-0.05128165451335525,-0.05095821089593386,0.014556465433861288,0.02758840591301368,-0.07578159002181063
811,6.0,300.28562999999997,332.75424,0.0,0.0,0.0,0.0,0.0,-0.008083082572478667,-0.032964551863347964,-0.05922993685578965,-0.008954491570139512,-0.004702363410137136,0.02268202094754118,-0.07778130698191733
812,6.0,299.8144,311.34977000000003,0.0,0.0,0.0,0.0,0.0,-0.008093049382062512,0.04403089961926146,-0.06769306677278553,-0.07098039054921913,-0.014712902130050385,0.012825523195280589,-0.09071925838179373
813,6.0,300.02011,565.05688,0.0,0.0,0.0,0.0,0.0,-0.0081030161916463,-0.04004471698385586,-0.07080467271687714,-0.060913791335723146,-0.03968646011949866,-0.01887579051664548,-0.08928405142339982
814,6.0,299.36286,823.23731,0.0,0.0,0.0,0.0,0.0,-0.008112983001230145,-0.02922312688234807,-0.11656718939928588,-0.10445326769623489,-0.036164386559897066,-0.04128187914395426,-0.07447229256059303
815,6.0,299.81675,597.92531,0.0,0.0,0.0,0.0,0.0,-0.008122949810813962,-0.05762832788647315,-0.1005530441330628,-0.023572989998972976,-0.004981271848563256,-0.007991976422521663,-0.1001207744151511
816,6.0,300.09595,607.1465599999999,0.0,0.0,0.0,0.0,0.0,-0.008132916620397779,-0.014288571226672188,-0.11292537602236688,-0.05734344958110785,0.002945538711002037,0.027980577271467973,-0.09177951822018322
817,6.0,300.02275,935.70326,0.0,0.0,0.0,0.0,0.0,-0.008142883429981596,-0.10224499042829491,-0.1060803041768109,-0.07610513192449173,0.0068421535839429835,0.027115318428073576,-0.07879195201591023
818,6.0,300.08083999999997,767.21059,0.0,0.0,0.0,0.0,0.0,-0.00815285023956544,-0.03316805605318227,-0.09794116300579021,-0.1021036420393449,-0.005617385195092754,0.006891266525565054,-0.09270155047993071
819,6.0,300.86636,238.19678,0.0,0.0,0.0,0.0,0.0,-0.008162817049149257,-0.03210258405627837,-0.043280099533663255,0.002976810547513327,-0.0061166521241915635,0.004328075713297816,-0.09833912002231551
820,6.0,301.23427000000004,288.5438,0.0,0.0,0.0,0.0,0.0,-0.008172783858733101,-0.008474897803657292,-0.03642843548295666,-0.04280677596144986,-0.0007180727659807643,-0.014076123078205185,-0.09444737837573051
821,6.0,300.67159,612.76382,0.0,0.0,0.0,0.0,0.0,-0.008182750668316863,-0.09422366592590181,-0.037186520836773866,-0.05485471583123895,0.008623336308857033,-0.008014952071189182,-0.06635467383494643
822,6.0,300.70038,705.3999200000001,0.0,0.0,0.0,0.0,0.0,-0.008192717477900707,-0.03917056889733417,-0.08976153236077351,-0.0854918595726396,-0.009401266267207742,-0.014471289603955087,-0.08177052328812233
823,6.0,301.04892,954.2963199999999,0.0,0.0,0.0,0.0,0.0,-0.008202684287484524,-0.0899212367885351,-0.0997585506766524,-0.10040246503570181,0.0006635336876881764,-0.001025284876737739,-0.02254848876986258
824,6.0,300.27153,943.7103599999999,0.0,0.0,0.0,0.0,0.0,-0.008212651097068369,-0.02612726076530987,-0.13879090516759587,-0.12194622007265488,-0.016975607140361986,0.003354816669569627,-0.07631865006506433
825,6.0,299.99261,598.94945,0.0,0.0,0.0,0.0,0.0,-0.008222617906652185,-0.06195473862720665,-0.07815939923023213,-0.041951539174794564,0.004333170841425665,-0.0021963730991401476,-0.05262858205678665
826,6.0,299.96111,888.66145,0.0,0.0,0.0,0.0,0.0,-0.008232584716236002,-0.06555100843863083,-0.11840342149550788,-0.08617646301595472,0.009495441885827152,0.007784816932951613,-0.09654817919231341
827,6.0,299.85841,848.4218900000001,0.0,0.0,0.0,0.0,0.0,-0.008242551525819791,-0.0991910911038985,-0.10039355350107232,-0.05831442384718554,0.01040715257210599,0.005134756339260995,-0.06840995337753673
828,6.0,300.55727,163.42661999999999,0.0,0.0,0.0,0.0,0.0,-0.008252518335403636,0.016158544551224185,-0.05822867654422294,-0.007607480838874903,0.0012725274256886786,1.087856616788089e-06,-0.12852072374400786
829,6.0,299.5055,27.220542,0.0,0.0,0.0,0.0,0.0,-0.008262485144987453,0.04030608788690116,-0.037791276119208565,-0.01078917623080879,-0.028330272172480176,0.01056704343788599,-0.088570411271969
830,6.0,298.93552,349.31194,0.0,0.0,0.0,0.0,0.0,-0.008272451954571297,0.02300180977185188,-0.05178576974285754,-0.07739814645660234,-0.016958548061678385,-0.013474263664556287,-0.10249418915788891
831,6.0,299.96209,722.99286,0.0,0.0,0.0,0.0,0.0,-0.008282418764155086,-0.021708979651259477,-0.10722582394486489,-0.0908369767651616,-0.02855867495702177,-0.007243761239253573,-0.08782685389808562
832,6.0,300.42287000000005,731.73046,0.0,0.0,0.0,0.0,0.0,-0.00829238557373893,-0.03174539515752657,-0.11790588529890489,-0.07277651111373243,0.023668094666609078,-0.016727941458169283,-0.1093713810316149
833,6.0,299.80068,691.938,0.0,0.0,0.0,0.0,0.0,-0.00830235238332272,-0.07430907114173434,-0.08690239490434862,-0.04912040826205686,0.03213009379649337,-0.025998106841313377,-0.07797762216229212
834,6.0,300.74521,691.84715,0.0,0.0,0.0,0.0,0.0,-0.008312319192906564,-0.059220613941619545,-0.095941370051926,-0.05514227519636885,0.05421070926643045,-0.01895886081284388,-0.07411475915680724
835,6.0,301.8001,878.9671800000001,0.0,0.0,0.0,0.0,0.0,-0.008322286002490381,-0.07893813462108733,-0.0889489969730825,-0.09929694432859541,0.014714886073746184,-9.046573408752282e-05,-0.05264136319354805
836,6.0,301.06872000000004,963.2970300000001,0.0,0.0,0.0,0.0,0.0,-0.008332252812074198,-0.06374379379877264,-0.1056959277513759,-0.12337852001651188,-0.005190419334829505,-0.002728602371217088,-0.055565254424113655
837,6.0,300.38219,557.34318,0.0,0.0,0.0,0.0,0.0,-0.008342219621658015,-0.06789443908440944,-0.05853563964876785,-0.04298832910111776,-0.02240243788719848,0.01842664613156838,-0.05246168152681485
838,6.0,299.38246000000004,18.263389,0.0,0.0,0.0,0.0,0.0,-0.00835218643124186,0.01174983155786809,-0.03480393111438057,0.017502485033360785,-0.00921100910653082,0.008095322157196091,-0.09889282675146209
839,6.0,298.62382,428.22934000000004,0.0,0.0,0.0,0.0,0.0,-0.008362153240825676,-0.08354923722916772,-0.03510410341675526,-0.011517686840707187,0.005261424963412214,0.006612112272664674,-0.08892073337479312
840,6.0,299.33302000000003,900.7771,0.0,0.0,0.0,0.0,0.0,-0.00837212005040952,-0.050715401721470446,-0.1148297694528159,-0.10826857988777691,-0.006120969785517683,0.0051022237156502755,-0.12350441634143688
841,6.0,298.8866,493.43505,0.0,0.0,0.0,0.0,0.0,-0.008382086859993282,-0.02017911689502378,-0.07236209384933263,-0.05745072236919485,0.02136746066530418,0.01010120504813632,-0.09030384002629512
842,6.0,298.5728,311.55411000000004,0.0,0.0,0.0,0.0,0.0,-0.008392053669577126,0.04871214547876445,-0.05610676567505665,-0.08731004872433092,-0.0020743392835963484,0.02197326770134268,-0.0927752431464536
843,6.0,299.4621,684.24342,0.0,0.0,0.0,0.0,0.0,-0.008402020479160943,-0.06421106725463893,-0.07970600189136992,-0.06407584598904364,0.017179685843002983,0.02210056737765618,-0.05808449206824304
844,6.0,300.15112999999997,769.07705,0.0,0.0,0.0,0.0,0.0,-0.008411987288744788,-0.04841330661352136,-0.10220677063452291,-0.08316014108476692,0.016814446672206686,0.004628663042913476,-0.09360735047307622
845,6.0,299.8376,738.58458,0.0,0.0,0.0,0.0,0.0,-0.008421954098328605,-0.1109907776064369,-0.1115130371054799,-0.002007459508095828,0.006560194452115783,-0.005525612499085494,-0.08579740716679482
846,6.0,300.69197,636.57528,0.0,0.0,0.0,0.0,0.0,-0.008431920907912421,-0.03342913210044847,-0.1020925672157519,-0.05798129355880814,0.002720946354786497,-0.04382860930304696,-0.09495523148485172
847,6.0,300.74568,248.26167,0.0,0.0,0.0,0.0,0.0,-0.00844188771749621,-0.014766990433638487,-0.05213575645989855,-0.008562602807138102,-0.020686209053319877,-0.03352811244971707,-0.11624402341239189
848,6.0,300.65951,268.92982,0.0,0.0,0.0,0.0,0.0,-0.008451854527080055,0.03971284616535276,-0.07399058333055203,-0.04747021091069505,-0.012175833310661188,-0.01049699137897239,-0.09590119063246061
849,6.0,299.92407000000003,735.24039,0.0,0.0,0.0,0.0,0.0,-0.008461821336663872,-0.05922744020754324,-0.09749838284459121,-0.06676889756857714,-0.013760049842011186,0.019116688701420283,-0.11132084382651189
850,6.0,299.13652,631.56624,0.0,0.0,0.0,0.0,0.0,-0.008471788146247716,-0.04004108448224736,-0.06734671863685364,-0.08459256261863592,0.0034390687193596565,0.03148244662407557,-0.05789784633357254
851,6.0,299.48888999999997,371.64342999999997,0.0,0.0,0.0,0.0,0.0,-0.008481754955831505,-0.051915610650421856,-0.05841799624590735,-0.0026367170017987072,0.005994886819924264,0.01980014717212238,-0.11159776507884189
852,6.0,299.10566,647.64904,0.0,0.0,0.0,0.0,0.0,-0.00849172176541535,-0.04285329832654126,-0.06733212580891343,-0.08668371121476623,0.003431241362337156,-0.0036225770264205165,-0.06410546734246704
853,6.0,299.3114,791.34112,0.0,0.0,0.0,0.0,0.0,-0.008501688574999167,-0.06662627552425145,-0.08091818946300351,-0.09300347367847821,0.0011527824407957688,-0.016437620986516882,-0.08062130515720332
854,6.0,299.88692000000003,711.30781,0.0,0.0,0.0,0.0,0.0,-0.008511655384582983,-0.02409252588174718,-0.09301594577395911,-0.0991113392017776,-0.026917311120031772,-0.04016143528937506,-0.03853627230823396
855,6.0,299.55627000000004,759.2977599999999,0.0,0.0,0.0,0.0,0.0,-0.0085216221941668,-0.08526693426244122,-0.08323514996316972,-0.06230547616257173,-0.0008775708757570023,0.01079696508432749,-0.05342806982293995
856,6.0,300.03007,827.91765,0.0,0.0,0.0,0.0,0.0,-0.008531589003750617,-0.10721997749178788,-0.0985178968567094,-0.045928419161032054,-0.005282843449326054,0.019813142104654877,-0.08080436803952022
857,6.0,300.43562000000003,593.2185599999999,0.0,0.0,0.0,0.0,0.0,-0.008541555813334434,-0.05840573895944764,-0.10938746131070191,-0.012530430315657187,0.03237909291581767,0.03322344536989877,-0.1006035617432985
858,6.0,301.03547000000003,701.8004099999999,0.0,0.0,0.0,0.0,0.0,-0.008551522622918278,-0.03519003209148576,-0.1024213364756989,-0.07571842705032693,-0.01051358537586009,0.0029474382509645076,-0.13166276164160287
859,6.0,300.74523999999997,817.92178,0.0,0.0,0.0,0.0,0.0,-0.008561489432502095,-0.04669507965044555,-0.09242448534608651,-0.10950823059012088,0.019668177426097982,-0.0074675083422356915,-0.0958805608604246
860,6.0,299.8657,379.06098,0.0,0.0,0.0,0.0,0.0,-0.00857145624208594,0.02081582704586218,-0.07415600654187803,-0.061884894284563535,-0.005784151976051355,-0.018043747024779185,-0.12129319051570589
861,6.0,299.11714,198.83399,0.0,0.0,0.0,0.0,0.0,-0.008581423051669701,0.03213016776375067,-0.05647397663054754,-0.036096759208472766,0.004939155500206696,0.012433427830583788,-0.08697767330727801
862,6.0,300.12921,673.47352,0.0,0.0,0.0,0.0,0.0,-0.008591389861253546,-0.040666721835992965,-0.08623497314297922,-0.07781743745398313,-0.017127292706832185,0.008040039839690153,-0.0951409744136831
863,6.0,299.21287,733.68733,0.0,0.0,0.0,0.0,0.0,-0.008601356670837362,-0.060464657083147036,-0.09193701781572722,-0.07062095527499564,-0.03257568775322007,0.006084369469380514,-0.07477590788680752
864,6.0,299.31299,497.47722000000005,0.0,0.0,0.0,0.0,0.0,-0.008611323480421207,-0.027446301639489076,-0.07491810537934133,-0.048856246868236156,-0.0034844524953136866,0.011162269103130187,-0.1139790446688559
865,6.0,299.29553,728.7613,0.0,0.0,0.0,0.0,0.0,-0.008621290290005024,-0.04112103683633036,-0.10384094039580291,-0.07656326383795582,0.002177280934130898,-0.015723144903753587,-0.08604129545261473
866,6.0,300.04761,617.34286,0.0,0.0,0.0,0.0,0.0,-0.00863125709958884,-0.04487446984426536,-0.07036959426968824,-0.07241275128808214,0.022885701442892877,-0.00976961186016062,-0.07606844923112144
867,6.0,301.10795,746.52253,0.0,0.0,0.0,0.0,0.0,-0.00864122390917263,-0.07542858888572213,-0.10470693485876989,-0.04678869078743425,-0.018668943614731284,-0.018936196434607085,-0.07797639410317092
868,6.0,300.99751000000003,805.9440400000001,0.0,0.0,0.0,0.0,0.0,-0.008651190718756474,-0.1031983270498819,-0.08172100778223552,-0.06006752890520354,0.006334684597934693,0.016406475704943083,-0.07874741055476434
869,6.0,299.86073,534.21105,0.0,0.0,0.0,0.0,0.0,-0.00866115752834029,-0.04347033217368776,-0.07015989405549243,-0.04875659270765105,-0.016186666294499587,0.031712707709300576,-0.08135313618767942
870,6.0,301.18639,292.19611000000003,0.0,0.0,0.0,0.0,0.0,-0.008671124337924135,0.02059169409724198,-0.07071890210916223,-0.038693113291212965,0.008780240012017222,0.009203042934244622,-0.1050186207220309
871,6.0,300.56815,663.21683,0.0,0.0,0.0,0.0,0.0,-0.008681091147507924,-0.028702184608435072,-0.07149869938612223,-0.1014004667349469,-0.017448388623771884,-0.0034809060186386767,-0.09139578014231123
872,6.0,299.97687,1092.0042,0.0,0.0,0.0,0.0,0.0,-0.008691057957091769,-0.1035636037109319,-0.1188735594094069,-0.10950482606978489,0.014903890654649485,-0.0011347392936150488,-0.08181262686952763
873,6.0,299.48213,775.45471,0.0,0.0,0.0,0.0,0.0,-0.008701024766675586,-0.06821525939732194,-0.0910988917835106,-0.07640471958155873,0.013900646399386988,0.0018174099623643983,-0.06031737104861104
874,6.0,299.26761,359.8809,0.0,0.0,0.0,0.0,0.0,-0.00871099157625943,-0.011545240150676489,-0.08019205289808942,-0.017657515338411083,0.027853478218674274,0.001159828480666159,-0.09723201661855291
875,6.0,299.71675,752.98104,0.0,0.0,0.0,0.0,0.0,-0.00872095838584322,-0.054093330321846045,-0.10416425837021188,-0.07062984147837263,0.002609017277189957,0.013444401157609087,-0.06377519644587185
876,6.0,300.18514,821.99298,0.0,0.0,0.0,0.0,0.0,-0.008730925195427036,-0.04484489307384636,-0.1025552273439129,-0.1024652203375299,-0.007702011804304383,0.009840496709331412,-0.12033393651353488
877,6.0,299.20086000000003,469.46644000000003,0.0,0.0,0.0,0.0,0.0,-0.008740892005010853,-0.008133669721805702,-0.07837022516528902,-0.056202180397223356,-0.01208261328821109,0.02520315438260768,-0.11246161145159689
878,6.0,299.62041,382.87802999999997,0.0,0.0,0.0,0.0,0.0,-0.008750858814594697,-0.012194291687732887,-0.050546735096574355,-0.053644335897783745,-0.00987275058783962,0.005361670862055715,-0.1120641033048659
879,6.0,300.46221,282.28614,0.0,0.0,0.0,0.0,0.0,-0.008760825624178514,-0.037534237873590864,-0.03955825257109556,-0.00871544682244763,0.0037102332925715168,-0.030972224536220568,-0.1111424307489039
880,6.0,300.63795,337.73222000000004,0.0,0.0,0.0,0.0,0.0,-0.008770792433762303,-0.02080766328980648,-0.05919062072540944,-0.02266387870450068,0.02012738642441838,0.0025830377472759775,-0.10289493970493989
881,6.0,301.23687,780.05818,0.0,0.0,0.0,0.0,0.0,-0.00878075924334612,-0.07511958104247543,-0.08156338355692923,-0.08043524305459043,0.015476001045362384,0.008777044119876811,-0.10026189583607871
882,6.0,301.13723,792.07678,0.0,0.0,0.0,0.0,0.0,-0.008790726052929965,-0.02863315897187277,-0.09991356578295121,-0.1122248453007299,-0.003267637441565707,-0.02823794583661827,-0.051475155898202354
883,6.0,300.16458,515.8222,0.0,0.0,0.0,0.0,0.0,-0.008800692862513781,-0.0014740346009008889,-0.09447295686125491,-0.06085007816943515,-0.01894005995723838,-0.02050156955384738,-0.0942943634251291
884,6.0,299.91222,883.8846300000001,0.0,0.0,0.0,0.0,0.0,-0.008810659672097598,-0.08265359506827473,-0.0938215555972166,-0.09220370524204721,-0.012197554353054888,-0.0023020849754480975,-0.034881129626249466
885,6.0,300.17717000000005,981.50638,0.0,0.0,0.0,0.0,0.0,-0.008820626481681443,-0.13539786495522887,-0.08802499292864042,-0.07493057240857172,0.01141820391938899,0.012238224185568688,-0.07763697355817273
886,6.0,299.52465,487.14020999999997,0.0,0.0,0.0,0.0,0.0,-0.00883059329126526,-0.037143975478324966,-0.06284353020417353,-0.04809095426645765,-0.021742674270084878,-0.006906636415006944,-0.05823775526511894
887,6.0,299.67116,336.17008,0.0,0.0,0.0,0.0,0.0,-0.008840560100849049,-0.007459902583010062,-0.05902552276736554,-0.03570188449875167,0.01821179658036438,-0.004032053784657726,-0.11826042150889489
888,6.0,299.45024,516.12951,0.0,0.0,0.0,0.0,0.0,-0.008850526910432865,-0.006719689441081714,-0.07325253702396252,-0.07691825803699102,0.0016821059142359282,0.006430460949062083,-0.09051947079332623
889,6.0,300.19177,473.72919,0.0,0.0,0.0,0.0,0.0,-0.00886049372001671,-0.025512553340392975,-0.05689194736304804,-0.061597343025434445,0.04801602138181236,0.03245894411644837,-0.1160526407335039
890,6.0,301.54969,530.0401099999999,0.0,0.0,0.0,0.0,0.0,-0.008870460529600527,-0.03681702500230746,-0.07855488492976352,-0.045747047393132054,0.005518441728127795,-0.003556441584443457,-0.1056713969664549
891,6.0,301.307,707.00776,0.0,0.0,0.0,0.0,0.0,-0.008880427339184344,-0.07286091484706243,-0.07618875444199463,-0.06586303475392544,0.01180509117857179,0.015587053256322383,-0.09356689342308341
892,6.0,300.65535,596.61738,0.0,0.0,0.0,0.0,0.0,-0.008890394148768188,-0.03711027275349876,-0.1059385808853239,-0.03830793538494886,-0.011936285788269689,0.00024112250821443877,-0.11474049198650489
893,6.0,299.66152,538.74046,0.0,0.0,0.0,0.0,0.0,-0.008900360958352005,-0.03135994164723527,-0.0919931609905181,-0.04041054687946046,9.431027347819931e-05,0.02079632198143718,-0.1004220238023821
894,6.0,298.91572,846.84334,0.0,0.0,0.0,0.0,0.0,-0.008910327767935794,-0.04300975832748266,-0.10671262290171589,-0.1076968433863509,-0.01879307891098248,-0.023819996055350578,-0.083020455439231
895,6.0,298.34612000000004,707.02752,0.0,0.0,0.0,0.0,0.0,-0.008920294577519639,-0.02064734280598408,-0.11425351385594389,-0.08001785392764732,-0.0027098707205934175,-0.017616269979840483,-0.08524241361002123
896,6.0,299.09693,355.26454,0.0,0.0,0.0,0.0,0.0,-0.008930261387103455,-0.002980590375686367,-0.06989034115788963,-0.03512061939338526,0.010865968429387592,-0.007969653813543592,-0.0923058651701296
897,6.0,299.68313,485.15389000000005,0.0,0.0,0.0,0.0,0.0,-0.008940228196687272,-0.053380114722207155,-0.05759837317376684,-0.036496180371392566,0.01070876166312249,0.006208324711088944,-0.08020917885127962
898,6.0,300.15665,640.07038,0.0,0.0,0.0,0.0,0.0,-0.008950195006271089,-0.054162718701944154,-0.07274645710251633,-0.06765623817140085,0.009063756002623071,-0.0012475995480534887,-0.0964920572957746
899,6.0,300.65692,617.5737799999999,0.0,0.0,0.0,0.0,0.0,-0.008960161815854933,-0.030693564546718972,-0.08474072815425872,-0.07229271560173552,-0.030612028311171973,-0.013732251325517687,-0.098569923196344
900,6.0,300.17882000000003,750.44527,0.0,0.0,0.0,0.0,0.0,-0.008970128625438722,-0.03897525379480807,-0.1015776943099379,-0.08756367333036172,0.0058446952907265145,-0.005523693606046115,-0.1017965360665359
901,6.0,300.08783999999997,817.47866,0.0,0.0,0.0,0.0,0.0,-0.00898009543502254,-0.04556023041919466,-0.1044116433821269,-0.09852123044953841,-0.009317727241513082,0.0037188812808500063,-0.0923832825440201
902,6.0,300.04236000000003,554.35689,0.0,0.0,0.0,0.0,0.0,-0.008990062244606356,-0.06772944549112583,-0.07083305283892803,-0.029948154951652768,0.004279899926693235,0.010636937429783989,-0.07847175485180923
903,6.0,298.80627999999996,749.37379,0.0,0.0,0.0,0.0,0.0,-0.0090000290541902,-0.06912378098023603,-0.0982089518349689,-0.06045818646800844,-0.022992356148418876,0.016761595546990683,-0.09231477873125932
904,6.0,298.11269,932.6351699999999,0.0,0.0,0.0,0.0,0.0,-0.009009995863774017,-0.12211839152964689,-0.08380368966053023,-0.07757571853662733,0.016069049236141685,0.030843429302759472,-0.07804092496228963
905,6.0,299.39502999999996,674.68216,0.0,0.0,0.0,0.0,0.0,-0.009019962673357862,-0.025539275785280275,-0.1081495128685259,-0.07139774117265843,0.008338023623173861,-0.0012079288814632989,-0.08462484679332212
906,6.0,298.67409,304.73811,0.0,0.0,0.0,0.0,0.0,-0.009029929482941623,0.008308129806798572,-0.049772742729437255,-0.05116816442265465,0.011800167796335888,-0.015401621395271686,-0.07435492678825993
907,6.0,298.91467,565.83837,0.0,0.0,0.0,0.0,0.0,-0.009039896292525468,-0.012225122861775689,-0.06504643319358315,-0.094729178427292,0.007872787306633613,-0.0060072824150226144,-0.07383117375856953
908,6.0,298.99183999999997,624.7468,0.0,0.0,0.0,0.0,0.0,-0.009049863102109285,-0.04751819843543105,-0.09486994217093431,-0.04751928767928855,0.025064980506220975,0.0013290087220379488,-0.08300263642297241
909,6.0,298.87973,410.10825,0.0,0.0,0.0,0.0,0.0,-0.009059829911693129,-0.013026113277827286,-0.07647906984739652,-0.035157483458523466,0.011632609667049189,0.015939545740860685,-0.1098276982141499
910,6.0,299.35142,601.0244799999999,0.0,0.0,0.0,0.0,0.0,-0.009069796721276946,-0.06354827300647624,-0.07937890449408792,-0.039769257851420166,-0.003922833631203536,-0.0070802430394405836,-0.11085436374547389
911,6.0,298.89079,642.31125,0.0,0.0,0.0,0.0,0.0,-0.009079763530860763,-0.03420695353971347,-0.10961319316797989,-0.051426435793644046,-0.004654920203354855,0.004285610705581846,-0.13549414397973086
912,6.0,299.56563,626.1605,0.0,0.0,0.0,0.0,0.0,-0.00908973034044458,-0.02397258746741018,-0.0982823263409604,-0.06808224397719434,-0.013951582481913985,0.023446266861966377,-0.11025920090173591
913,6.0,300.75734,780.13328,0.0,0.0,0.0,0.0,0.0,-0.009099697150028424,-0.06023660184338974,-0.1091180583741139,-0.06778637596124444,0.006301357788895594,0.03463688771614467,-0.0989187396095195
914,6.0,301.42823,631.75027,0.0,0.0,0.0,0.0,0.0,-0.009109663959612213,-0.050337569878431354,-0.07795569846987842,-0.06374303994069824,-0.02109122437004178,-0.002811257842824547,-0.04571413095038345
915,6.0,300.49916,263.52736,0.0,0.0,0.0,0.0,0.0,-0.009119630769196058,-0.004067576711963567,-0.05310907032045715,-0.022929089825424978,-0.01816149377914988,-0.005061627141118705,-0.09240180171609781
916,6.0,300.33001,703.34059,0.0,0.0,0.0,0.0,0.0,-0.009129597578779847,-0.04825319992547005,-0.0988333732885945,-0.06671140271815285,-0.01948535671055498,-0.02239053321177358,-0.07413274637258242
917,6.0,300.21758,994.23499,0.0,0.0,0.0,0.0,0.0,-0.009139564388363691,-0.07005641284927963,-0.11281040253351989,-0.11935579552949989,0.004029191859750276,-0.013233340148528987,-0.0995522478900419
918,6.0,299.85622,565.94374,0.0,0.0,0.0,0.0,0.0,-0.009149531197947508,-0.012374484032516488,-0.0889095470936891,-0.07074873624510664,0.0043096969776839755,-0.004768497129589026,-0.07792771452861663
919,6.0,299.20617000000004,329.36088,0.0,0.0,0.0,0.0,0.0,-0.009159498007531353,-0.0016778120642871584,-0.05095937917329915,-0.047480291735939956,0.03887940844134886,0.004162563133312996,-0.11410026991081988
920,6.0,299.29036,615.78516,0.0,0.0,0.0,0.0,0.0,-0.009169464817115142,-0.04190893910084026,-0.07233739486489503,-0.07293697851881933,0.02103814425030318,0.01020600013575379,-0.08327283374763882
921,6.0,300.06265,626.8058900000001,0.0,0.0,0.0,0.0,0.0,-0.009179431626698958,-0.03634073159405097,-0.09725413586823592,-0.05693847276788975,0.026952501296004773,0.007937763489171263,-0.1034014127674249
922,6.0,301.0784,637.6483900000001,0.0,0.0,0.0,0.0,0.0,-0.009189398436282775,-0.05382865521022465,-0.08437194058161222,-0.05562859471436485,-0.01059274148692219,-0.021895563577673877,-0.10707331967231389
923,6.0,300.47382000000005,616.689,0.0,0.0,0.0,0.0,0.0,-0.00919936524586662,-0.03340694597625887,-0.088862703528316,-0.06518840979759513,-0.008072430912261903,-0.00025473322323021176,-0.12665525938240088
924,6.0,299.65362999999996,352.74609,0.0,0.0,0.0,0.0,0.0,-0.009209332055450437,-0.005463056464411694,-0.07877231826872252,-0.022990628556998377,-0.027888123266093474,0.0026071414472798276,-0.1158782401262919
925,6.0,300.24667,423.6562,0.0,0.0,0.0,0.0,0.0,-0.009219298865034281,-0.017247969780492083,-0.06588261479885785,-0.04565032253858605,-0.0029962375916806274,0.02299604944503338,-0.1002249689494343
926,6.0,300.22609,768.74377,0.0,0.0,0.0,0.0,0.0,-0.009229265674618042,-0.04987627459815505,-0.096920990381107,-0.08688164455555072,-0.03354790122417007,0.017478407171234483,-0.08554933821106232
927,6.0,299.66942,716.67095,0.0,0.0,0.0,0.0,0.0,-0.009239232484201887,-0.04527869583915936,-0.0878455128986771,-0.08472586276204162,0.01041502552538299,0.008088444012867273,-0.08426137270420002
928,6.0,299.57858999999996,323.14681,0.0,0.0,0.0,0.0,0.0,-0.009249199293785704,0.0015906767100125686,-0.06510797597815694,-0.03471126331323497,0.003220441366482817,-0.0042157329256854465,-0.0944748891291956
929,6.0,298.30224,441.96649,0.0,0.0,0.0,0.0,0.0,-0.009259166103369548,-0.016757324697819185,-0.07418400973489173,-0.04340544161078356,0.017388937187404484,-0.016573798760206586,-0.11222625371836889
930,6.0,300.15323,933.25655,0.0,0.0,0.0,0.0,0.0,-0.009269132912953365,-0.08547821008054252,-0.09526150253957831,-0.1029469700975749,0.006167317162316814,-0.04668442431239395,-0.09518863567188691
931,6.0,300.34586,729.5022799999999,0.0,0.0,0.0,0.0,0.0,-0.009279099722537182,-0.055823077938558854,-0.09030111742327641,-0.07562628208623293,-0.002151204942807398,-0.016627131179220087,-0.09254799546702601
932,6.0,300.88352000000003,570.73725,0.0,0.0,0.0,0.0,0.0,-0.009289066532120999,-0.04819350226932836,-0.07455405779066264,-0.05074231161762625,0.007589984340123133,-9.7764379234343e-06,-0.0992094522089606
933,6.0,300.39049,754.9693,0.0,0.0,0.0,0.0,0.0,-0.009299033341704843,-0.056773109338319645,-0.07641877032069543,-0.0962999349443136,-0.0047094404554605855,0.007439645180385812,-0.05635120212918064
934,6.0,299.89957999999996,679.1116599999999,0.0,0.0,0.0,0.0,0.0,-0.009309000151288632,-0.05431123684860175,-0.08241396648587522,-0.06970778186087244,-0.0042514008490805956,-2.012247317468348e-05,-0.08389153743095012
935,6.0,298.9226,778.01327,0.0,0.0,0.0,0.0,0.0,-0.009318966960872477,-0.03952069746938917,-0.0992268902431816,-0.09774902038932722,-0.017059973383438284,0.0015849190176443282,-0.08849142032067323
936,6.0,299.98195,875.9381699999999,0.0,0.0,0.0,0.0,0.0,-0.009328933770456266,-0.1030217783524579,-0.07773546146789272,-0.08550609674979473,0.02935617979272937,0.027264915686087677,-0.1026569779189549
937,6.0,300.15351,466.83997,0.0,0.0,0.0,0.0,0.0,-0.00933890058004011,-0.018714380788965583,-0.07986599408215993,-0.04332732002807355,0.0048017964795504155,0.012748817122960289,-0.07831854029093813
938,6.0,300.50228,369.90932999999995,0.0,0.0,0.0,0.0,0.0,-0.009348867389623927,-0.01108673434792549,-0.07772786513189302,-0.023628599190961178,-0.013094353645562088,0.001263548104627489,-0.11390713430925889
939,6.0,300.36935,840.8091099999999,0.0,0.0,0.0,0.0,0.0,-0.009358834199207772,-0.04190538056648906,-0.09444720409671331,-0.11923239179982088,-0.03933276288059146,-0.005178968494124395,-0.06770294697451064
940,6.0,300.90344,731.35627,0.0,0.0,0.0,0.0,0.0,-0.00936880100879156,-0.039335925234153565,-0.09889903493482481,-0.08407908293170942,-0.0017385257063041283,-0.006951316995391573,-0.07618966434058443
941,6.0,300.3803,306.42009,0.0,0.0,0.0,0.0,0.0,-0.009378767818375378,0.01004784131969473,-0.07921680879609032,-0.023975088168656976,0.01141682387275279,-0.013499612142307986,-0.10602035016839391
942,6.0,300.0035,570.97392,0.0,0.0,0.0,0.0,0.0,-0.009388734627959194,-0.05613574057491624,-0.09201112388829091,-0.025414949998010274,0.019358112762996982,-0.019597008765574183,-0.11637775216058989
943,6.0,299.10331,877.3828699999999,0.0,0.0,0.0,0.0,0.0,-0.009398701437543039,-0.07787904812631362,-0.1133162068509389,-0.07550722823923323,0.017099353348574785,0.003503992618192147,-0.11305742277539889
944,6.0,299.03792999999996,692.2963,0.0,0.0,0.0,0.0,0.0,-0.009408668247126856,-0.06584431597157804,-0.07839327863156423,-0.06620319294499644,0.007318553687435014,0.03391321942847417,-0.12492757676939188
945,6.0,299.57181,699.79595,0.0,0.0,0.0,0.0,0.0,-0.0094186350567107,-0.03779148687522936,-0.08246540108745141,-0.09246360693244751,-0.016148159750949284,0.012462978256500187,-0.09013066443845401
946,6.0,300.75266,680.5453200000001,0.0,0.0,0.0,0.0,0.0,-0.009428601866294462,-0.04560226003334266,-0.07892119003966502,-0.08234533399035171,-0.038147279515343364,-0.022633755792277777,-0.08349090442091073
947,6.0,300.14865,413.25935,0.0,0.0,0.0,0.0,0.0,-0.009438568675878306,0.015233697482698885,-0.06782452786725973,-0.07302969394271963,-0.04514141362286066,-0.017595776996567985,-0.07830208713581434
948,6.0,300.68295,602.36632,0.0,0.0,0.0,0.0,0.0,-0.009448535485462123,-0.03856659280422636,-0.09107662966556351,-0.05346109772319955,0.008486655456492681,-0.007905315471943893,-0.1013889866113139
949,6.0,300.41682000000003,942.31745,0.0,0.0,0.0,0.0,0.0,-0.009458502295045967,-0.08404400218674721,-0.1024313879166909,-0.099965584016585,0.012233515612353989,0.012122999410696889,-0.07239395043247664
950,6.0,300.18011,671.66657,0.0,0.0,0.0,0.0,0.0,-0.009468469104629784,-0.06503481729443673,-0.08704577688624933,-0.052089270571810745,0.024014122615509375,-0.003045106947978657,-0.1040015202716509
951,6.0,300.23636,428.62628,0.0,0.0,0.0,0.0,0.0,-0.009478435914213601,-0.007453902723867923,-0.06591489188079334,-0.056922892021102046,0.004416956796169696,0.015103459381095386,-0.08730721669030142
952,6.0,299.5298,820.99814,0.0,0.0,0.0,0.0,0.0,-0.009488402723797418,-0.05856180885910054,-0.0959507892248556,-0.09505033513923772,0.007999023678292173,0.030909129452493574,-0.07716861795119963
953,6.0,299.11747,892.7846900000001,0.0,0.0,0.0,0.0,0.0,-0.009498369533381262,-0.07504042594466344,-0.09139646509937882,-0.10494735884249791,0.006369601095055684,0.0076939344784822125,-0.08796076503130161
954,6.0,299.90013,560.41614,0.0,0.0,0.0,0.0,0.0,-0.009508336342965051,-0.039976071316081066,-0.07483475643936544,-0.05554168420028744,-0.005282696021436504,-0.03883080384730197,-0.12668987200581688
955,6.0,299.58982000000003,438.58149000000003,0.0,0.0,0.0,0.0,0.0,-0.009518303152548896,-0.03173221581347587,-0.06890768614465914,-0.032677920635309665,0.0064541242905724735,-0.01052101047259289,-0.11419559648022788
956,6.0,299.85376,556.39095,0.0,0.0,0.0,0.0,0.0,-0.009528269962132685,-0.042301785283861165,-0.08109580409953271,-0.04573136734783455,-0.010667346078535091,-0.0005739130639658094,-0.12016736832959587
957,6.0,300.20194,506.35515,0.0,0.0,0.0,0.0,0.0,-0.00953823677171653,-0.024869967352224676,-0.08182792998578792,-0.04722142457389175,0.018373206308044284,-0.013377863050042288,-0.1182400349168829
958,6.0,299.6744,631.69103,0.0,0.0,0.0,0.0,0.0,-0.009548203581300346,-0.02030967011740838,-0.1022894417101819,-0.06941918898064053,-0.027632015184067577,-0.015721370702828485,-0.10362032545152991
959,6.0,299.4827,587.98353,0.0,0.0,0.0,0.0,0.0,-0.00955817039088419,-0.012078293803034788,-0.07226858910360444,-0.09438542725136641,0.016251658182413784,-0.004002172633908686,-0.08619819317759933
960,6.0,300.7783,400.15774,0.0,0.0,0.0,0.0,0.0,-0.009568137200468008,0.0050066802093958656,-0.09519853816511423,-0.03144610134298857,0.006594098003111804,0.018235564387960083,-0.1016486623469419
961,6.0,299.9323,691.19529,0.0,0.0,0.0,0.0,0.0,-0.009578104010051797,-0.028205307024397074,-0.09501600217284932,-0.08688480082961222,0.0011064806602511389,0.013124120906999888,-0.07803772309197363
962,6.0,299.62351,1012.4415,0.0,0.0,0.0,0.0,0.0,-0.009588070819635613,-0.1039159715657079,-0.1153437203010389,-0.08849722725699632,-0.025115605520967275,-0.027976511098816673,-0.10232847210403391
963,6.0,300.21671000000003,575.3272,0.0,0.0,0.0,0.0,0.0,-0.009598037629219458,-0.03971245099781376,-0.06871925607656253,-0.06645339580543953,-0.02235049970032258,-0.023872650610047178,-0.08622276246602412
964,6.0,299.74329,242.294,0.0,0.0,0.0,0.0,0.0,-0.009608004438803275,-0.0037688345107800064,-0.04823850070626936,-0.02164399080309558,-0.002337199968263678,0.007726494257195612,-0.1129416488189729
965,6.0,299.5441,588.97833,0.0,0.0,0.0,0.0,0.0,-0.00961797124838712,-0.034892864075657566,-0.06555368139239463,-0.07858816006304752,0.018206954258136482,0.004683827924732826,-0.08746141613026973
966,6.0,300.10879,727.14768,0.0,0.0,0.0,0.0,0.0,-0.00962793805797088,-0.07089250224879523,-0.09458850080990822,-0.05555373478372675,0.020205959916672983,0.02093211168033858,-0.1151504225794619
967,6.0,298.85972999999996,613.25995,0.0,0.0,0.0,0.0,0.0,-0.009637904867554725,-0.007698803347862732,-0.10087019648061331,-0.07784671328912242,0.01702995483597568,-0.0024302584786478378,-0.11796489698472888
968,6.0,299.84691000000004,668.70759,0.0,0.0,0.0,0.0,0.0,-0.009647871677138542,-0.044948275994799454,-0.1028175881923059,-0.05550455061062265,0.017703694211718586,-0.0026416230574578974,-0.1182009031980209
969,6.0,300.8128,705.66923,0.0,0.0,0.0,0.0,0.0,-0.009657838486722387,-0.05136074881616125,-0.10155624380532091,-0.06158883577759485,-0.014441771602041886,-0.017872827944910786,-0.1036215312191489
970,6.0,300.79247000000004,612.92272,0.0,0.0,0.0,0.0,0.0,-0.009667805296306203,-0.026228023421504373,-0.1015382788810479,-0.05854689584412874,-0.02240557592275818,-0.03082484933567577,-0.1020607308976099
971,6.0,301.38539,843.00043,0.0,0.0,0.0,0.0,0.0,-0.00967777210589002,-0.02418115790774448,-0.11857422506486488,-0.11349570410615388,-0.01887648155321368,-0.014418202391465787,-0.06842107582388444
972,6.0,300.90702999999996,716.77306,0.0,0.0,0.0,0.0,0.0,-0.009687738915473837,-0.04140291997440006,-0.07918523896272463,-0.097292954492817,0.012298996900066488,0.03258348572598967,-0.06992184512999883
973,6.0,299.77551,386.74016,0.0,0.0,0.0,0.0,0.0,-0.009697705725057681,0.011951176511739289,-0.06676257590120323,-0.06274795336199084,0.013002690988515688,0.021871808942329478,-0.09770973465645
974,6.0,300.38575,641.34273,0.0,0.0,0.0,0.0,0.0,-0.00970767253464147,-0.06946795569470345,-0.07837458822021963,-0.047109632690358755,0.025356538156245476,0.02476486291935168,-0.1258517317880989
975,6.0,299.99076,856.1234300000001,0.0,0.0,0.0,0.0,0.0,-0.009717639344225315,-0.09526098274227701,-0.08009105820762202,-0.08488810538130372,-0.018238903047039585,0.005909811909728025,-0.11344467683111788
976,6.0,299.75737999999996,555.95206,0.0,0.0,0.0,0.0,0.0,-0.009727606153809104,-0.049044496577814956,-0.10143072238293291,-0.018520328196064084,0.0008178735337228333,0.02355712351565708,-0.13873876331744986
977,6.0,299.65791,450.67305,0.0,0.0,0.0,0.0,0.0,-0.009737572963392949,-0.008223974218418062,-0.06826110592459664,-0.060508273446951644,-0.024549695207616275,-0.015676363146636587,-0.1006702447456296
978,6.0,299.82566,812.72266,0.0,0.0,0.0,0.0,0.0,-0.009747539772976765,-0.07181206623129913,-0.11574814894595288,-0.05948717471167705,-0.02041454251600848,-0.00925576993632337,-0.1121933737526239
979,6.0,299.88854,681.25942,0.0,0.0,0.0,0.0,0.0,-0.00975750658256061,-0.023697136440975274,-0.1024166552602369,-0.08097206397082052,-0.031954059830120174,-0.016807485644019685,-0.09142173657012291
980,6.0,300.33705,519.16778,0.0,0.0,0.0,0.0,0.0,-0.009767473392144427,-0.03635375287108607,-0.08738720670619582,-0.034073082936501464,0.007246619719110683,0.001962315771090488,-0.1118942825881059
981,6.0,299.26105,799.46026,0.0,0.0,0.0,0.0,0.0,-0.009777440201728216,-0.046964324520017954,-0.12125252878919289,-0.07479909814184622,0.012494896647900289,-0.01012489919244975,-0.10392250702885289
982,6.0,299.25399,586.0122700000001,0.0,0.0,0.0,0.0,0.0,-0.009787407011312033,-0.05727961178505754,-0.08780446208412572,-0.03304902247118457,0.013446758990591787,-0.009970468022183581,-0.09060354724687392
983,6.0,298.96867000000003,534.6664400000001,0.0,0.0,0.0,0.0,0.0,-0.009797373820895877,-0.005860264486463074,-0.0957349669535556,-0.06093001448307424,0.014271375359225087,0.01217515240659399,-0.1128680564642099
984,6.0,298.95828,966.9765800000001,0.0,0.0,0.0,0.0,0.0,-0.009807340630479694,-0.06673415423589824,-0.1100905960850959,-0.11711198358055289,0.006268836007060943,0.03086572283145967,-0.07926736896283022
985,6.0,299.12124,876.0754099999999,0.0,0.0,0.0,0.0,0.0,-0.00981730744006351,-0.05191130839049724,-0.1081166835652859,-0.1062770570812289,-0.008484042588459811,0.017835202928947483,-0.09419257535983341
986,6.0,300.53691000000003,324.45603,0.0,0.0,0.0,0.0,0.0,-0.0098272742496473,-0.02167015393392768,-0.06244268643811334,-0.014513692094139887,-0.03001065931057147,-0.002518162484448288,-0.1043297626415459
987,6.0,300.9418,463.70106,0.0,0.0,0.0,0.0,0.0,-0.009837241059231144,-0.036185881647518466,-0.05245789095819075,-0.05230977101882245,-0.010194991173417291,-0.018324973576784084,-0.13165243662308387
988,6.0,300.25782000000004,828.15027,0.0,0.0,0.0,0.0,0.0,-0.009847207868814961,-0.0946089066536721,-0.09041340883910873,-0.06671468666172693,-0.019892939603030284,-0.001142823002912849,-0.09370835225629431
989,6.0,300.52711,743.80921,0.0,0.0,0.0,0.0,0.0,-0.009857174678398778,-0.054254106768213455,-0.09159401340512531,-0.08025130877718752,0.008209670166756363,-0.0022907306974775175,-0.11293392785321088
990,6.0,299.45041000000003,568.26279,0.0,0.0,0.0,0.0,0.0,-0.009867141487982622,-0.019302942308302082,-0.07659360155919992,-0.07684115477063153,-0.00023226579041534876,0.004854534931355296,-0.09080490841274672
991,6.0,298.99775,574.45277,0.0,0.0,0.0,0.0,0.0,-0.00987710829756644,-0.02180199398393928,-0.08221368747110923,-0.07060361653928443,0.019589495516082682,0.013066299790043388,-0.06402961847973133
992,6.0,299.7915,640.26867,0.0,0.0,0.0,0.0,0.0,-0.009887075107150256,-0.04167656640240686,-0.10148203336799691,-0.05146708738765605,-0.014278759925953887,0.01161779189758679,-0.06436861447293764
993,6.0,299.48299,754.58142,0.0,0.0,0.0,0.0,0.0,-0.0098970419167341,-0.05242749750819115,-0.1042080814370369,-0.07273833083671433,0.007022410472757953,-0.0004605494066126875,-0.08792709270397842
994,6.0,300.12567,1106.9660000000001,0.0,0.0,0.0,0.0,0.0,-0.00990700872631789,-0.1165826515958119,-0.13741594504689789,-0.08249143553552082,-0.0034241205446093868,-0.027981955291603973,-0.1023122803674359
995,6.0,300.99057,672.8858299999999,0.0,0.0,0.0,0.0,0.0,-0.009916975535901706,-0.054139724004174744,-0.08442233052233532,-0.06597843583431463,0.032996512811252265,-0.02243179275584558,-0.12377007025265488
996,6.0,300.06565,254.61342000000002,0.0,0.0,0.0,0.0,0.0,-0.009926942345485523,-0.003094854082838317,-0.06206705638754153,-0.012234211715172687,0.023936010152050276,-0.025466784833375975,-0.13398458371574887
997,6.0,299.74876,577.5759099999999,0.0,0.0,0.0,0.0,0.0,-0.009936909155069368,-0.029881823547106372,-0.08057911240978922,-0.06510772063913174,0.013684117892767286,-0.01983633134644348,-0.1091606047458129
998,6.0,300.67416000000003,746.2412099999999,0.0,0.0,0.0,0.0,0.0,-0.009946875964653185,-0.07264103450911193,-0.06466550485823844,-0.08953215381638562,-0.01949785413728838,-0.02102981330798098,-0.07783021048474373
999,6.0,300.28886,458.32043,0.0,0.0,0.0,0.0,0.0,-0.009956842774237001,0.004075408729936526,-0.0999756618020796,-0.04341771409599476,-0.01054138287910349,-0.005686377698376785,-0.10955419161465689
1000,6.0,300.24447999999995,544.34593,0.0,0.0,0.0,0.0,0.0,-0.009966809583820846,-0.05080345720816085,-0.05168919484932635,-0.06297491935789065,-0.013386512152895887,0.016759526490286485,-0.08493427817511062
1001,6.0,299.4397,728.1297900000001,0.0,0.0,0.0,0.0,0.0,-0.009976776393404635,-0.03162645276803787,-0.12458475373055788,-0.06512206420754733,-0.012414459788711788,0.01037415304284919,-0.11072357342256589
1002,6.0,299.94162,617.1721,0.0,0.0,0.0,0.0,0.0,-0.009986743202988452,-0.025968144022606273,-0.0995654079823407,-0.06207135459446574,0.005072815043422866,0.008171114075276173,-0.1027594884315719
1003,6.0,300.70047,846.18865,0.0,0.0,0.0,0.0,0.0,-0.009996710012572269,-0.038417055327968165,-0.12234735565474389,-0.0964558133396976,-0.00871816111681551,0.016671804362878986,-0.1019716560813189
1004,6.0,299.60131,718.72762,0.0,0.0,0.0,0.0,0.0,-0.010006676822156113,-0.056829932403927655,-0.094794887696277,-0.06685043076437383,0.016847518142220585,0.03940501875847256,-0.05758419780486786
1005,6.0,299.04987,232.41234,0.0,0.0,0.0,0.0,0.0,-0.01001664363173993,0.01054472863093369,-0.05170645860453015,-0.02948581602377347,-0.004151504015096546,0.0015315801138301886,-0.09975420687347371
1006,6.0,299.05251,423.20518,0.0,0.0,0.0,0.0,0.0,-0.010026610441323719,-0.052167581632289454,-0.06040644181190164,-0.016069783842464186,0.01911897763339618,-0.002226641412752398,-0.1024298984390439
1007,6.0,299.34988,927.36958,0.0,0.0,0.0,0.0,0.0,-0.010036577250907536,-0.08029030168078582,-0.11472992378796189,-0.08687696941958932,0.000886001754936565,-0.016861575974107982,-0.14204944656168886
1008,6.0,298.76962000000003,789.5324,0.0,0.0,0.0,0.0,0.0,-0.01004654406049138,-0.08188753543617053,-0.08666968985988242,-0.07144090866666873,0.008156901621423513,-0.01080913016502809,-0.1119430908454229
1009,6.0,298.77272,482.38465999999994,0.0,0.0,0.0,0.0,0.0,-0.010056510870075197,0.0004136951109210286,-0.08156591769542933,-0.06548067064318903,-0.03143142238878987,-0.015991353218473687,-0.1032990947723269
1010,6.0,298.90782,621.28587,0.0,0.0,0.0,0.0,0.0,-0.010066477679659042,-0.03511353576193617,-0.08828449945150173,-0.06545735575838803,-0.017774380565194783,-9.65049042937925e-06,-0.08620295849281961
1011,6.0,299.93635,736.17822,0.0,0.0,0.0,0.0,0.0,-0.01007644448924283,-0.03692423902188867,-0.098279545982686,-0.08857601049202161,-0.02245173858406408,0.02210242466508948,-0.07340304215406622
1012,6.0,299.96754,790.2778099999999,0.0,0.0,0.0,0.0,0.0,-0.010086411298826675,-0.052845741818218654,-0.12095331603466289,-0.06642566315020253,0.00959281704428733,0.04747168620284065,-0.10978390554482789
1013,6.0,299.9974,741.98081,0.0,0.0,0.0,0.0,0.0,-0.010096378108410464,-0.03575058129855767,-0.1152372783780339,-0.07455577828933244,0.00015812871239858885,0.012552699526354988,-0.11530899622011188
1014,6.0,300.65385,437.51820999999995,0.0,0.0,0.0,0.0,0.0,-0.010106344917994309,-0.02189684736555058,-0.07197171999655573,-0.03912604263493976,0.021594116606673378,-0.016127786331188585,-0.12357512093341488
1015,6.0,300.94352000000003,280.70011,0.0,0.0,0.0,0.0,0.0,-0.010116311727578126,0.004397534919577905,-0.07689834665927593,-0.01282501150398009,-0.015926864915859183,-0.00977377966179695,-0.13435303184961186
1016,6.0,299.92411,582.55578,0.0,0.0,0.0,0.0,0.0,-0.010126278537161942,-0.05352336194184455,-0.06562628886806043,-0.05793275887901815,0.005373812536679005,-0.013442822513953288,-0.08273825008762951
1017,6.0,299.77483,863.1628699999999,0.0,0.0,0.0,0.0,0.0,-0.01013624534674576,-0.08626020813671972,-0.07681593497564253,-0.09930381821727381,-0.024278395466841077,-0.0014741419040864789,-0.07922859694775372
1018,6.0,299.57396,646.5763900000001,0.0,0.0,0.0,0.0,0.0,-0.010146212156329604,-0.05485744856675865,-0.07066972401555872,-0.07101590395197403,-0.00896783100770601,-0.006723191740052364,-0.10835758377656089
1019,6.0,299.6624,651.41285,0.0,0.0,0.0,0.0,0.0,-0.01015617896591342,-0.025186781274241773,-0.1009286488523821,-0.07189781049451142,0.007849428649428293,-0.01123046894086099,-0.13834825672890988
1020,6.0,298.94336,933.0034300000001,0.0,0.0,0.0,0.0,0.0,-0.010166145775497265,-0.091140175645585,-0.1103658049447569,-0.08210376098101033,0.015054173882981284,-0.002184721837565258,-0.1060629269375959
1021,6.0,299.4486,679.68305,0.0,0.0,0.0,0.0,0.0,-0.010176112585081026,-0.04407107802547676,-0.08618353144865232,-0.07635206604011222,0.026163095368346476,-0.01787047619142868,-0.12593981361929188
1022,6.0,299.55242999999996,323.7451,0.0,0.0,0.0,0.0,0.0,-0.010186079394664871,-0.01978796891917048,-0.06271459210244834,-0.01590786647648418,0.001775207386424328,-0.0064042240536227035,-0.07119121851077623
1023,6.0,300.71571,415.21643,0.0,0.0,0.0,0.0,0.0,-0.010196046204248688,-0.008729759689385202,-0.07825011855143543,-0.03923554963949726,-0.0017368998451936684,0.033912087628112465,-0.09502564223430071
1024,6.0,299.5759,457.23593,0.0,0.0,0.0,0.0,0.0,-0.010206013013832532,-0.03584956367432647,-0.054255552676106156,-0.04888318716189496,-0.016936344712237088,0.02147320141923998,-0.06499411402466963
1025,6.0,300.50132,621.9227599999999,0.0,0.0,0.0,0.0,0.0,-0.010215979823416349,-0.03142489503164567,-0.10818544271707191,-0.04943865694621555,-0.004949693605221725,0.028814822555801572,-0.12992281870238387
1026,6.0,300.1038,954.9907900000001,0.0,0.0,0.0,0.0,0.0,-0.010225946633000138,-0.10674602975751289,-0.09582426063186822,-0.08772305858434182,-0.027569977933444973,-0.02650381186022258,-0.1106381057766309
1027,6.0,299.66494,859.66246,0.0,0.0,0.0,0.0,0.0,-0.010235913442583955,-0.05790631609115845,-0.12346698688274288,-0.07994261605472193,0.012903630592489187,-0.036052749703629365,-0.14021699388833986
1028,6.0,299.85035,594.25399,0.0,0.0,0.0,0.0,0.0,-0.0102458802521678,-0.036891981191705066,-0.08696658125843332,-0.056779810974481044,-0.006062271092649574,-0.025302617038923874,-0.1009232755871018
1029,6.0,300.20703,750.44288,0.0,0.0,0.0,0.0,0.0,-0.010255847061751616,-0.05989946617736704,-0.08209256963365583,-0.08612386115026333,0.013869023877016086,-0.013376438420401685,-0.0962879958183853
1030,6.0,300.07657,860.05254,0.0,0.0,0.0,0.0,0.0,-0.01026581387133546,-0.06136931311692964,-0.10110475171976209,-0.0989604328246343,0.01123178819249119,-0.014612730198664187,-0.08401744287512601
1031,6.0,299.99461,516.58663,0.0,0.0,0.0,0.0,0.0,-0.01027578068091925,-0.01853229670624528,-0.09347152733692152,-0.04502561129543186,0.01988509096775568,-9.189700760902851e-05,-0.12432805695022389
1032,6.0,298.73272000000003,358.53656,0.0,0.0,0.0,0.0,0.0,-0.010285747490503094,-0.00997939830193993,-0.07459755965720592,-0.024409205041500976,0.013929372039721985,-0.006721923758877223,-0.100382374312719
1033,6.0,298.64988999999997,573.4308,0.0,0.0,0.0,0.0,0.0,-0.010295714300086883,-0.03635656869311397,-0.1043644563249699,-0.03358762062809007,0.008464987103104182,-0.015050842316652484,-0.10338826078112691
1034,6.0,300.82943,805.80902,0.0,0.0,0.0,0.0,0.0,-0.010305681109670728,-0.07471586065938134,-0.09521546957428523,-0.07501449282160402,-0.0024553551637496876,-0.030353994040705972,-0.08817707670239992
1035,6.0,300.74519,754.68723,0.0,0.0,0.0,0.0,0.0,-0.010315647919254545,-0.05936321774744345,-0.09297063018973682,-0.07707222544268642,0.007483044911319034,0.005058465192856645,-0.1142778723883479
1036,6.0,300.36341,655.37951,0.0,0.0,0.0,0.0,0.0,-0.010325614728838362,-0.05371157213466945,-0.08558649814522973,-0.05992093796023615,-0.003649926977094746,0.03640257430065437,-0.07567460601000213
1037,6.0,300.3436,463.79488,0.0,0.0,0.0,0.0,0.0,-0.010335581538422178,-0.0019785631351189785,-0.05616438718174345,-0.08283911305558392,-0.011533482396516088,0.04099155968555196,-0.1016056397476959
1038,6.0,300.83841,585.19038,0.0,0.0,0.0,0.0,0.0,-0.010345548348006023,-0.02522799420880918,-0.07423141565407032,-0.07842385446658183,-0.020612431273788583,0.030385103858526268,-0.09859867011493109
1039,6.0,300.62574,861.7017099999999,0.0,0.0,0.0,0.0,0.0,-0.01035551515758984,-0.05028944759143205,-0.08964663790543433,-0.12199971967793488,-0.013270456512942088,0.005964982060447895,-0.10865980588388789
1040,6.0,299.42427999999995,706.8326599999999,0.0,0.0,0.0,0.0,0.0,-0.010365481967173684,-0.06658890179431293,-0.07840485805370702,-0.06986571816720953,0.01183921034918909,-0.015474463944960685,-0.09702431453355431
1041,6.0,299.02641,443.7919,0.0,0.0,0.0,0.0,0.0,-0.010375448776757445,-0.01166159469940979,-0.10010528891387281,-0.023134773516224377,-0.011036472076714989,-0.044181181834343164,-0.1110941595141399
1042,6.0,299.70013,767.45504,0.0,0.0,0.0,0.0,0.0,-0.01038541558634129,-0.07693053052220222,-0.08052988466693083,-0.07582675361851793,0.01729836782721598,-0.01784034112020458,-0.07901802939147233
1043,6.0,300.49564,979.3412400000001,0.0,0.0,0.0,0.0,0.0,-0.010395382395925107,-0.05006075197761155,-0.14901868207449886,-0.098615843690876,-0.004342039616900946,-0.007190353130457603,-0.12752661393839687
1044,6.0,299.28237,650.94659,0.0,0.0,0.0,0.0,0.0,-0.010405349205508951,-0.02330660654768298,-0.1082930296126899,-0.06627187610302494,0.02986881138932217,0.03529943777103327,-0.09198185311940212
1045,6.0,300.63492,521.18285,0.0,0.0,0.0,0.0,0.0,-0.010415316015092768,0.002153256166309838,-0.1067996509528049,-0.053780175245940046,0.00022542421428263778,0.017402532977246282,-0.1021288517018329
1046,6.0,300.39691,659.55062,0.0,0.0,0.0,0.0,0.0,-0.010425282824676585,-0.06521994923345784,-0.09151360694343981,-0.043753364337370856,0.03175847824281777,0.006602568571297784,-0.0917430503358341
1047,6.0,300.02033,615.58053,0.0,0.0,0.0,0.0,0.0,-0.010435249634260374,-0.04801981802993705,-0.07519229693590193,-0.06390899510832673,-0.0036775620563471163,-0.012369036799978887,-0.12005197940820789
1048,6.0,300.71387000000004,714.4055900000001,0.0,0.0,0.0,0.0,0.0,-0.010445216443844219,-0.04776294494408566,-0.10397117343115592,-0.06542734633017634,0.0015485208449021084,-0.003733277335620786,-0.11229790063293987
1049,6.0,301.68885,706.87404,0.0,0.0,0.0,0.0,0.0,-0.010455183253428035,-0.037635529446337565,-0.09008949406039082,-0.08714703502174272,-0.028058036188612575,-0.0038473855088823864,-0.11830297801309489
1050,6.0,301.0215,385.97287,0.0,0.0,0.0,0.0,0.0,-0.01046515006301188,-0.008324794731193273,-0.05193899038322925,-0.05706232942036344,-0.031663875133981174,-0.003759384535047367,-0.1050188740345559
1051,6.0,302.22902999999997,573.03305,0.0,0.0,0.0,0.0,0.0,-0.010475116872595669,-0.031332456225022676,-0.11277211181224088,-0.030083167487727467,-0.024802200172286577,0.008591403630630523,-0.12494674746128388
1052,6.0,300.50445,884.5536099999999,0.0,0.0,0.0,0.0,0.0,-0.010485083682179513,-0.09727939315347861,-0.08422273747788701,-0.08738007849174231,0.002903383656491657,0.012924050621754488,-0.07826500927490501
1053,6.0,300.33359,790.46768,0.0,0.0,0.0,0.0,0.0,-0.010495050491763303,-0.06732893204459824,-0.10473327936136989,-0.06822022432281194,0.007701467587675673,0.0009287903238069682,-0.0904940321363156
1054,6.0,299.83191,456.4859,0.0,0.0,0.0,0.0,0.0,-0.010505017301347147,-0.025161167324963873,-0.0865091829380416,-0.027089965897321475,0.029308911675564372,-0.01026017861860079,-0.09563435729812622
1055,6.0,300.14757000000003,645.09094,0.0,0.0,0.0,0.0,0.0,-0.010514984110930964,-0.03985859813923736,-0.08574878028124573,-0.07048415941874493,0.018935601656798383,-0.0013044993166940588,-0.1175095525222899
1056,6.0,299.22937,912.9959699999999,0.0,0.0,0.0,0.0,0.0,-0.01052495092051478,-0.05021638719297155,-0.13803079534007887,-0.08928079889057883,0.01175463638984229,0.005923365244390634,-0.0958314678798295
1057,6.0,300.59893,718.1122799999999,0.0,0.0,0.0,0.0,0.0,-0.010534917730098597,-0.03903464747591976,-0.09039858093714531,-0.08885497141680292,0.005217313728258776,-0.0018291818007011883,-0.10529214758652589
1058,6.0,299.16052,644.57931,0.0,0.0,0.0,0.0,0.0,-0.010544884539682442,-0.07271556817321784,-0.06548983245059324,-0.05773061548406815,-0.010824037100499291,0.008833294699178311,-0.08326093312521432
1059,6.0,299.37251000000003,570.22075,0.0,0.0,0.0,0.0,0.0,-0.010554851349266259,-0.049696818886194156,-0.09094798540636732,-0.032688064282060766,0.004364152077808277,-0.0035079284868805866,-0.12602146131234987
1060,6.0,299.27693,501.71145,0.0,0.0,0.0,0.0,0.0,-0.010564818158850103,-0.03488093609548037,-0.07366817120173244,-0.04395864678113066,0.0032230177575120872,-9.748664434218271e-05,-0.13574382906937288
1061,6.0,300.28011000000004,834.69551,0.0,0.0,0.0,0.0,0.0,-0.010574784968433865,-0.03580478511265717,-0.13273070698200087,-0.08519109857195682,-0.0063440177459308045,-0.003905019681195436,-0.13925514596591287
1062,6.0,300.12007,928.61261,0.0,0.0,0.0,0.0,0.0,-0.01058475177801771,-0.04912951130095525,-0.13651326079780987,-0.0966322688181124,0.0010935278789227989,-0.025853149255507177,-0.12184938376059788
1063,6.0,300.2591,517.78918,0.0,0.0,0.0,0.0,0.0,-0.010594718587601526,-0.029997050348478372,-0.07806008653493073,-0.049337844640766154,0.006773383286405883,0.012459723697178989,-0.11555632043702088
1064,6.0,299.9766,373.14057,0.0,0.0,0.0,0.0,0.0,-0.01060468539718537,-0.01977560929445068,-0.07596883256079003,-0.017680974104726285,-0.007859508360098083,0.010479320297228392,-0.10854140760970289
1065,6.0,300.52876000000003,773.15909,0.0,0.0,0.0,0.0,0.0,-0.010614652206769187,-0.055026931871235356,-0.09735461785415271,-0.08263950683888432,0.008519668056675771,0.00939513113917725,-0.07643297811359763
1066,6.0,300.75332000000003,927.24593,0.0,0.0,0.0,0.0,0.0,-0.010624619016353004,-0.06546289722318493,-0.1086402197594549,-0.10775649341973789,-0.004226689604316786,-0.016239283358942484,-0.1071164638615719
1067,6.0,299.39603,651.6239,0.0,0.0,0.0,0.0,0.0,-0.010634585825936793,-0.02135228015230598,-0.10480825986876989,-0.07191685655664114,0.013822337365408487,-0.0036338082958289565,-0.13630374094213185
1068,6.0,298.69257000000005,544.18619,0.0,0.0,0.0,0.0,0.0,-0.010644552635520638,-0.027984531986608267,-0.06702210674206693,-0.07041237470216034,0.02023138742793248,-0.01033080215057079,-0.11206972684292088
1069,6.0,299.89845,631.87634,0.0,0.0,0.0,0.0,0.0,-0.010654519445104454,-0.05396922744959805,-0.09090098478722873,-0.04720441818421336,-0.002836462945687097,-0.003751919009635577,-0.10948939427076189
1070,6.0,299.77898,763.1786099999999,0.0,0.0,0.0,0.0,0.0,-0.010664486254688299,-0.07788725443887352,-0.08729343851544161,-0.06680654588929273,-0.01328255370588599,0.005306497772910555,-0.1015376607984869
1071,6.0,298.96935,894.4244699999999,0.0,0.0,0.0,0.0,0.0,-0.010674453064272088,-0.07730826711973193,-0.0997413973657095,-0.09483304162879251,-0.03156176181540337,0.020039000618195378,-0.1072345176307229
1072,6.0,299.32243,500.71258,0.0,0.0,0.0,0.0,0.0,-0.010684419873855933,-0.007415202750873534,-0.07296871452520143,-0.07182020465610234,-0.0077281281229818624,0.03387266004022126,-0.1045559403288679
1073,6.0,299.70867000000004,192.42502,0.0,0.0,0.0,0.0,0.0,-0.010694386683439722,0.03955321671809856,-0.04138120805125726,-0.05666440989409185,-0.01060656829778679,0.00022182119825204776,-0.1010743744817641
1074,6.0,300.13684,792.96889,0.0,0.0,0.0,0.0,0.0,-0.010704353493023566,-0.04407704302881546,-0.11029000370477589,-0.08667569134022472,0.0024210296954120278,-0.013009678361205288,-0.1008189280520535
1075,6.0,300.6003,1100.3767,0.0,0.0,0.0,0.0,0.0,-0.010714320302607383,-0.11897395222931488,-0.1118188461181609,-0.10369424204632491,-0.003871235896361236,-0.014377001615899587,-0.09331801792027132
1076,6.0,301.13367,586.81066,0.0,0.0,0.0,0.0,0.0,-0.0107242871121912,-0.03761765267482326,-0.09240167202008501,-0.048356463282911356,0.009793591538352232,0.022442479504650278,-0.10709218638917589
1077,6.0,301.57583,429.28738,0.0,0.0,0.0,0.0,0.0,-0.010734253921775017,-0.008047635669064803,-0.08868485584426382,-0.03376015077561747,0.004263623583711886,0.021580073973537478,-0.09276809669349831
1078,6.0,300.96116,801.50219,0.0,0.0,0.0,0.0,0.0,-0.010744220731358861,-0.02177851799237238,-0.11496233296339889,-0.1068957982547939,0.017036346417606485,-0.008364177128130012,-0.11896620086604989
1079,6.0,301.1229,853.0985099999999,0.0,0.0,0.0,0.0,0.0,-0.010754187540942678,-0.04417718354944855,-0.12201357080680189,-0.0931298938537049,-0.0042943420843435665,-0.028100217790275574,-0.13241559633340189
1080,6.0,300.33067,595.93817,0.0,0.0,0.0,0.0,0.0,-0.010764154350526522,-0.019946385506054983,-0.10362884688487091,-0.05757508767321874,0.027270242341863375,-0.014344723520713988,-0.14113534298397387
1081,6.0,299.79254,456.11003,0.0,0.0,0.0,0.0,0.0,-0.010774121160110284,-0.04282052373880666,-0.06781386644970754,-0.028011669864036574,-0.01944571634014278,-0.02065012417750858,-0.09646665410251751
1082,6.0,299.91675,368.39047999999997,0.0,0.0,0.0,0.0,0.0,-0.010784087969694128,-0.02370624961237468,-0.06701708811432164,-0.02125816846976788,-0.010094925126666541,0.014764117869604985,-0.11673750660859489
1083,6.0,298.69657,642.69826,0.0,0.0,0.0,0.0,0.0,-0.010794054779277945,-0.052678830142495754,-0.08788182474251081,-0.054803566966190945,-0.01186011775175249,0.014064247787033185,-0.11825663195352089
1084,6.0,298.87543,929.2537599999999,0.0,0.0,0.0,0.0,0.0,-0.01080402158886179,-0.04720083938486016,-0.11675786280310389,-0.11851124143864888,0.016667886124742286,0.03411218527111057,-0.10531372981365592
1085,6.0,300.36293,618.07192,0.0,0.0,0.0,0.0,0.0,-0.010813988398445606,-0.017443046769244686,-0.09176558501805811,-0.07866979863685462,-0.01095144620782359,-0.009440144166919691,-0.09216156113063792
1086,6.0,300.72482,396.47119,0.0,0.0,0.0,0.0,0.0,-0.010823955208029423,-0.014201131796042588,-0.07124465934755043,-0.03507154971754247,0.026892017357785476,-0.011497808900245389,-0.1066924896222289
1087,6.0,299.90021,851.68171,0.0,0.0,0.0,0.0,0.0,-0.010833922017613212,-0.08503643911644311,-0.11629973190288989,-0.05755379928861774,-0.009010262172868643,-0.015194970050626786,-0.09875956105855982
1088,6.0,301.12935,974.75582,0.0,0.0,0.0,0.0,0.0,-0.010843888827197057,-0.10076860701233721,-0.11195955615954789,-0.08357326240228882,0.010823475759943888,0.03006339492527607,-0.08642362409959761
1089,6.0,300.60737,618.63759,0.0,0.0,0.0,0.0,0.0,-0.010853855636780874,-0.03127621881797247,-0.09393377912529222,-0.06284038304936293,-0.005602291314978104,0.013482160935835687,-0.12124660127610788
1090,6.0,300.71047999999996,510.1696,0.0,0.0,0.0,0.0,0.0,-0.01086382244636469,-0.018451079644479784,-0.07723954647144973,-0.05938819233590824,-0.006605988999660353,0.008199560159908581,-0.12212857469315189
1091,6.0,300.79874,593.71028,0.0,0.0,0.0,0.0,0.0,-0.010873789255948507,-0.041182620150908164,-0.07308918489584093,-0.06620129512755914,0.02401040702739268,-0.018257690730393784,-0.1289416379680489
1092,6.0,300.52513,572.64057,0.0,0.0,0.0,0.0,0.0,-0.010883756065532352,-0.04036381578484846,-0.08588504924744442,-0.04781956839942396,0.005831221496196754,-0.015918548159038384,-0.12727887428894688
1093,6.0,299.68012000000004,720.4110000000001,0.0,0.0,0.0,0.0,0.0,-0.01089372287511614,-0.05255859484587945,-0.1029693730572859,-0.06345898540766425,-0.002686010909888638,-0.03543382817154656,-0.10040205365616121
1094,6.0,299.16315,858.9169199999999,0.0,0.0,0.0,0.0,0.0,-0.010903689684699985,-0.04861655343783025,-0.12637433579217588,-0.08609840932100142,-0.01887015988583978,-0.008544031959305302,-0.11121901219146188
1095,6.0,298.83152,501.54677000000004,0.0,0.0,0.0,0.0,0.0,-0.010913656494283802,-0.013911813428739088,-0.08459635014750971,-0.053949531894154246,0.0013773983044136288,0.02045880026712638,-0.0973806452094714
1096,6.0,299.80391000000003,581.18727,0.0,0.0,0.0,0.0,0.0,-0.010923623303867619,-0.002482340344387918,-0.1135812629445979,-0.060602817787282444,-0.015603797214224885,0.04032604283437056,-0.13036502131102587
1097,6.0,300.31183,942.0059699999999,0.0,0.0,0.0,0.0,0.0,-0.010933590113451436,-0.06977215465297552,-0.11347804315691089,-0.1030961002472929,-0.005218295871580705,-0.0025440920611323374,-0.0914788403060086
1098,6.0,299.43045,812.08554,0.0,0.0,0.0,0.0,0.0,-0.01094355692303528,-0.06178732741918444,-0.11729038652565989,-0.06777601142597153,0.016500239842696884,-0.0071941093499033135,-0.13223987850105987
1099,6.0,300.03301,660.0915,0.0,0.0,0.0,0.0,0.0,-0.010953523732619097,-0.05642064218503385,-0.10833095556393289,-0.03589973171327766,0.03343499983177757,-0.016674118626107383,-0.10770446302710289
1100,6.0,300.71314,538.78136,0.0,0.0,0.0,0.0,0.0,-0.010963490542202886,-0.03838303748236086,-0.07237256882886643,-0.05302047375821335,0.0004194275024342716,-0.02023332780187398,-0.1267025173670649
1101,6.0,300.28697999999997,679.14112,0.0,0.0,0.0,0.0,0.0,-0.010973457351786703,-0.05654153406771494,-0.07157361301901563,-0.07832679625275293,-0.01001295927307714,-0.00985737988779765,-0.08921520107910481
1102,6.0,300.60885,755.08612,0.0,0.0,0.0,0.0,0.0,-0.010983424161370547,-0.034658087947986964,-0.1072322276854969,-0.0876370113593496,-0.027217632370171174,0.01743541902249188,-0.10972081046110091
1103,6.0,299.75911,871.93126,0.0,0.0,0.0,0.0,0.0,-0.010993390970954364,-0.08115045880992672,-0.10913214255050391,-0.07476272550300653,0.005700127603558795,0.041327422709449065,-0.09384093603187932
1104,6.0,299.37744,783.34091,0.0,0.0,0.0,0.0,0.0,-0.011003357780538181,-0.07275536458414543,-0.09735073710626972,-0.06800997391381183,-0.01103652780547049,0.017166027231654984,-0.1020155703406529
1105,6.0,300.6373,600.76282,0.0,0.0,0.0,0.0,0.0,-0.011013324590122026,-0.04846245532287195,-0.09243346172872241,-0.04172097816753996,-0.008134671218204543,-0.016387283734798985,-0.11754373958066389
1106,6.0,299.83545,646.9603599999999,0.0,0.0,0.0,0.0,0.0,-0.011023291399705842,-0.01058816159647019,-0.1076620686429189,-0.07840956764017183,-0.020579997138087582,-0.03006888775406817,-0.11939866614123089
1107,6.0,300.08236,910.08935,0.0,0.0,0.0,0.0,0.0,-0.011033258209289631,-0.04958680120358625,-0.12214141257191889,-0.10491622166692491,0.012873696144784888,0.014671579764472184,-0.11092090387954089
1108,6.0,300.27787,616.35775,0.0,0.0,0.0,0.0,0.0,-0.011043225018873448,-0.00036355505793759065,-0.1034491165821329,-0.08354469482896941,-0.0067110342587275145,0.017532308023554086,-0.13854334790316386
1109,6.0,298.76117999999997,410.90252999999996,0.0,0.0,0.0,0.0,0.0,-0.011053191828457293,-0.028558172384972172,-0.07554322901528623,-0.02080270748356738,-0.003990922315398366,0.000996409052472917,-0.11636534997936589
1110,6.0,299.00999,675.9459,0.0,0.0,0.0,0.0,0.0,-0.01106315863804111,-0.05477716470833525,-0.1036573901401879,-0.04703612240885386,-0.009101471400495293,0.005439128563300194,-0.13232270156423387
1111,6.0,298.51891,603.5622400000001,0.0,0.0,0.0,0.0,0.0,-0.011073125447624926,-0.05792939590193624,-0.09141561856601911,-0.03412283554291167,0.019498636366365583,-0.007536962178290254,-0.11057115021002291
1112,6.0,298.51457,529.0428099999999,0.0,0.0,0.0,0.0,0.0,-0.011083092257208715,0.003235549736073897,-0.09440401025820042,-0.06964734351890764,0.03093190934124177,-0.00935851562428858,-0.13098117869683587
1113,6.0,299.52031,615.8019099999999,0.0,0.0,0.0,0.0,0.0,-0.01109305906679256,-0.037191402675755665,-0.06799347110943313,-0.08200353028111833,-0.01111112023808219,-0.04323367444058146,-0.07771088306021702
1114,6.0,299.02572000000004,794.84395,0.0,0.0,0.0,0.0,0.0,-0.011103025876376377,-0.04166915447792536,-0.11711110205296588,-0.08283245194942652,0.012484735775897487,0.006662800615542223,-0.13095330418658488
1115,6.0,299.19542,722.1378900000001,0.0,0.0,0.0,0.0,0.0,-0.011112992685960221,-0.08056859588700133,-0.08330533881084683,-0.05563795106578825,-0.001194142600602699,0.037216511013233665,-0.11981451411477188
1116,6.0,300.65465,842.58062,0.0,0.0,0.0,0.0,0.0,-0.011122959495544038,-0.0896410782021356,-0.10430781564437991,-0.06217457944840324,0.006714057797025913,0.03419488370452226,-0.13690124439360088
1117,6.0,299.58023,868.9191699999999,0.0,0.0,0.0,0.0,0.0,-0.011132926305127855,-0.07116249185719113,-0.1081936095128779,-0.08477363243800612,-0.01835854255259708,0.0034537924592127765,-0.11824986344285289
1118,6.0,299.21127,627.98734,0.0,0.0,0.0,0.0,0.0,-0.011142893114711672,-0.02087425611287868,-0.0950933111289791,-0.07492490226101213,-0.014283720798443485,-0.0049551332383835755,-0.1008718399722755
1119,6.0,300.27917,709.8910400000001,0.0,0.0,0.0,0.0,0.0,-0.011152859924295516,-0.022815775026991683,-0.10621434703253989,-0.08675902609469922,0.013559730297241187,-0.0064494376035599335,-0.10803554249727788
1120,6.0,300.29557,824.68066,0.0,0.0,0.0,0.0,0.0,-0.011162826733879305,-0.05616725569277654,-0.07958401468533073,-0.11493105393281187,0.011606118243184688,-0.01086508082229999,-0.07915731581646883
1121,6.0,300.99766,660.71,0.0,0.0,0.0,0.0,0.0,-0.011172793543463122,-0.05970984959340334,-0.09662491363563651,-0.044504576815759755,0.0021882587896893276,0.005367212225527605,-0.1180866491167449
1122,6.0,300.0031,602.08223,0.0,0.0,0.0,0.0,0.0,-0.011182760353046939,-0.05519397324297104,-0.08738404232613352,-0.040439947344362064,0.009252881565588312,0.0055748264617425354,-0.1025304736439699
1123,6.0,300.12997,810.37113,0.0,0.0,0.0,0.0,0.0,-0.011192727162630783,-0.05967573143603614,-0.1024521696762419,-0.08420468541410542,0.020437394345513782,0.04907219984879905,-0.13712087648527688
1124,6.0,299.74172999999996,733.6234400000001,0.0,0.0,0.0,0.0,0.0,-0.0112026939722146,-0.02062109253564338,-0.12314728621119087,-0.07923482539611842,-3.882509215648826e-05,0.004014242773074916,-0.11359731282618188
1125,6.0,299.86955,578.52068,0.0,0.0,0.0,0.0,0.0,-0.011212660781798445,0.0006548479457109603,-0.09571518020560281,-0.08079551020714602,-0.021540244125356583,-0.04266435859364436,-0.13002239078971087
1126,6.0,299.19903,640.1175099999999,0.0,0.0,0.0,0.0,0.0,-0.011222627591382206,-0.015497561994240284,-0.09149014412412422,-0.08759203318741061,-0.005438131018576745,-0.05099754931781625,-0.1058085302349889
1127,6.0,299.04663999999997,516.30626,0.0,0.0,0.0,0.0,0.0,-0.01123259440096605,-0.057753579784334534,-0.08746422688604712,-0.011726404202305989,-3.580495128567357e-05,-0.027116423883932674,-0.13875003065856187
1128,6.0,299.92281,510.5856,0.0,0.0,0.0,0.0,0.0,-0.011242561210549867,-0.043663478920999865,-0.07089446187448863,-0.04064733329532946,-7.716228209832432e-05,0.014714327772941085,-0.11619807252035688
1129,6.0,300.94108,854.64364,0.0,0.0,0.0,0.0,0.0,-0.011252528020133712,-0.08640569869207851,-0.1068418021569649,-0.06654282525926553,-0.02097171354724698,-0.0020503664955054185,-0.09429183840587992
1130,6.0,300.38502,907.53041,0.0,0.0,0.0,0.0,0.0,-0.011262494829717529,-0.03899519455677607,-0.12298497367767189,-0.11388641334471389,0.007301045333657072,0.008639223158499942,-0.1106827901060409
1131,6.0,300.39934,576.41446,0.0,0.0,0.0,0.0,0.0,-0.011272461639301345,-0.009143329674051381,-0.0870730414199401,-0.07899923056236702,0.016949512910536684,0.012583561097900788,-0.09151455635878351
1132,6.0,300.35464,721.60374,0.0,0.0,0.0,0.0,0.0,-0.011282428448885162,-0.025508873216029775,-0.11938226162211188,-0.07445838468972042,0.013884662379059486,-0.009327331028610901,-0.11291629730147089
1133,6.0,299.91399,827.10167,0.0,0.0,0.0,0.0,0.0,-0.011292395258469007,-0.09001637894642492,-0.1011908212362565,-0.06021105476861844,0.0027684439730991475,-0.01052662691789719,-0.09802803602961391
1134,6.0,299.40067,662.62276,0.0,0.0,0.0,0.0,0.0,-0.011302362068052796,-0.05887451506521225,-0.1020054378396529,-0.04054082247131766,-0.017357082630760683,-0.0011397116158307788,-0.14304246205719187
1135,6.0,298.73329,544.35275,0.0,0.0,0.0,0.0,0.0,-0.01131232887763664,-0.041660080823279856,-0.0974546580630259,-0.026354904625526577,0.02124648265636458,0.041592015747812364,-0.13759653661222088
1136,6.0,298.27103999999997,509.2212,0.0,0.0,0.0,0.0,0.0,-0.01132229568722043,-0.007246999181273132,-0.07300963361723983,-0.07453389614017283,-0.02299148779308318,0.034914962047088466,-0.1040267907291449
1137,6.0,299.24522,595.91943,0.0,0.0,0.0,0.0,0.0,-0.011332262496804274,-0.008021223380033114,-0.1060223158735879,-0.06710108654761164,0.005434391821732714,-0.0016379399635770885,-0.11428754892680289
1138,6.0,299.54424,916.32653,0.0,0.0,0.0,0.0,0.0,-0.01134222930638809,-0.08163598697959462,-0.07316292011886802,-0.12374147633483289,-0.004695376949372625,-0.046827957268559546,-0.08307556003266942
1139,6.0,300.31407,1126.4472,0.0,0.0,0.0,0.0,0.0,-0.011352196115971935,-0.10996502400020289,-0.14263523684200186,-0.08981157070371192,0.045668922770671756,-0.008036211274187303,-0.12582580271803986
1140,6.0,299.25577000000004,676.86557,0.0,0.0,0.0,0.0,0.0,-0.011362162925555724,-0.06629295271835503,-0.1000984636611992,-0.03935881455391256,0.017138924817980183,-0.01919666149206298,-0.11061386883423889
1141,6.0,299.7393,616.50612,0.0,0.0,0.0,0.0,0.0,-0.011372129735139541,-0.027600514251708674,-0.10556105403056489,-0.05424089905315995,0.004934186319066276,0.007038204610016713,-0.12152129337821788
1142,6.0,299.8129,1004.4358,0.0,0.0,0.0,0.0,0.0,-0.011382096544723358,-0.054156360557566646,-0.15503290910305684,-0.09613414797620172,-0.03067297530468697,0.02076397903824518,-0.1175066039644989
1143,6.0,300.16305,777.68526,0.0,0.0,0.0,0.0,0.0,-0.011392063354307203,-0.052235612257253546,-0.08865443402326141,-0.09550685497179272,-0.0019408742843993784,0.031294769400803266,-0.10734542798666889
1144,6.0,300.00404,208.68547,0.0,0.0,0.0,0.0,0.0,-0.01140203016389102,0.016317259033638086,-0.062253932129984736,-0.017498499920717486,-0.004032321384009136,0.01052593588132899,-0.12894101988548787
1145,6.0,300.74362,318.28751,0.0,0.0,0.0,0.0,0.0,-0.011411996973474864,-0.011922917979700387,-0.07292929808306134,-0.01189924035136359,-0.01048682138771869,-0.031924592490711966,-0.12238896983635088
1146,6.0,300.46426,724.9046400000001,0.0,0.0,0.0,0.0,0.0,-0.011421963783058625,-0.04391424210874826,-0.1056324375001099,-0.07080623210878102,0.00894545054214723,-0.018801438224307482,-0.15675055040757485
1147,6.0,301.86922000000004,863.48497,0.0,0.0,0.0,0.0,0.0,-0.01143193059264247,-0.048220264230969555,-0.13063475862014687,-0.08362284174293191,0.003623449130781587,0.025261645257880272,-0.12292118958387688
1148,6.0,301.48705,834.18061,0.0,0.0,0.0,0.0,0.0,-0.011441897402226286,-0.027410508579706575,-0.12384452387000287,-0.1023150465402089,0.01031285039854909,0.022863435271945377,-0.13772707362260386
1149,6.0,299.72956,521.3920400000001,0.0,0.0,0.0,0.0,0.0,-0.011451864211810131,-0.03305671405269367,-0.057788125533243945,-0.06764532040157334,-0.01118724571809519,-0.0005417714940986834,-0.07359850215135663
1150,6.0,299.47959,612.4583,0.0,0.0,0.0,0.0,0.0,-0.011461831021393948,-0.03089026070913137,-0.09060991552375242,-0.06467185489661514,0.007011051736486933,-0.011947474095873887,-0.1074263360071539
1151,6.0,299.66983999999997,930.4438,0.0,0.0,0.0,0.0,0.0,-0.011471797830977765,-0.1206399684412379,-0.08064333524087752,-0.08154837630969813,0.018598176201247082,-0.015485889353088285,-0.09444603784584822
1152,6.0,299.28831,746.8942400000001,0.0,0.0,0.0,0.0,0.0,-0.011481764640561581,-0.04869126036770325,-0.10458808062203989,-0.07375785903433393,0.029519351562333172,-0.014754571027162787,-0.12291630571839489
1153,6.0,300.13722,340.39696000000004,0.0,0.0,0.0,0.0,0.0,-0.011491731450145426,0.008833615595484982,-0.07179209912482852,-0.04051369371314026,-0.003983446657485576,-0.019432502545588683,-0.12823123819043786
1154,6.0,299.40528,349.7745,0.0,0.0,0.0,0.0,0.0,-0.011501698259729215,0.017613039738521682,-0.055011849643496855,-0.06892390321250964,0.00990549872974661,0.018982965019472782,-0.1069517195278129
1155,6.0,298.76951,849.50684,0.0,0.0,0.0,0.0,0.0,-0.01151166506931306,-0.05742020631593314,-0.12369025654227787,-0.07711840836899433,-0.015222957031638885,0.05055612488525105,-0.13112307424083985
1156,6.0,300.04039,966.28578,0.0,0.0,0.0,0.0,0.0,-0.011521631878896849,-0.07708661764710684,-0.0963227310450634,-0.12031740027190288,0.016313372206254485,0.018672666295598682,-0.0937506280902166
1157,6.0,300.17856,739.75694,0.0,0.0,0.0,0.0,0.0,-0.011531598688480693,-0.041740469046463564,-0.12349925889842787,-0.05962791413731695,-0.014950543729003788,-0.03557546229702476,-0.14643689042219585
1158,6.0,299.93953,669.89134,0.0,0.0,0.0,0.0,0.0,-0.01154156549806451,-0.013253792601797489,-0.12675744565498587,-0.06361900698270714,0.015643518644645086,-0.03624638483748967,-0.12630523213535588
1159,6.0,300.9096,787.36578,0.0,0.0,0.0,0.0,0.0,-0.011551532307648354,-0.057895282810819536,-0.08306771139739483,-0.0983765434015089,-0.001779376403960778,-0.023732949765759778,-0.1368743527359469
1160,6.0,299.50112,788.74613,0.0,0.0,0.0,0.0,0.0,-0.011561499117232144,-0.030109970992622772,-0.12681497799566388,-0.08283418055409712,-0.019214984093621282,-0.008794027204802912,-0.10874305451210389
1161,6.0,300.53868,666.86245,0.0,0.0,0.0,0.0,0.0,-0.01157146592681596,-0.06709482567524373,-0.08044415864222033,-0.05517054994040935,-0.03618933075085887,0.002734001778349967,-0.08537181071404172
1162,6.0,299.87678,553.19778,0.0,0.0,0.0,0.0,0.0,-0.011581432736399777,-0.03223455988180337,-0.08859017066216911,-0.04733358122746075,0.0022726226009653883,0.024066805541208776,-0.0871948340819601
1163,6.0,299.53682000000003,454.56951,0.0,0.0,0.0,0.0,0.0,-0.011591399545983622,-0.05129211834713795,-0.08044909114370713,-0.0064365701378900145,0.026152453202546177,0.035170989069106366,-0.11509099546109688
1164,6.0,299.25453,913.59874,0.0,0.0,0.0,0.0,0.0,-0.011601366355567438,-0.04781009552423905,-0.11503684737575288,-0.1148642604862199,0.010582091215121091,-0.0045917839816737955,-0.13201674056403787
1165,6.0,299.68571000000003,1080.8866,0.0,0.0,0.0,0.0,0.0,-0.011611333165151283,-0.07350095859072983,-0.15012214183090186,-0.1049394352267159,0.0035143703257163464,-0.044886392758192055,-0.13187851298539588
1166,6.0,299.72314,572.01269,0.0,0.0,0.0,0.0,0.0,-0.011621299974735044,-0.0032427598211354765,-0.09438418399349371,-0.07625063159910143,-0.016426545149673785,-0.02401097242094848,-0.14158098051045487
1167,6.0,300.76901000000004,419.83109,0.0,0.0,0.0,0.0,0.0,-0.011631266784318889,-0.03723038139385257,-0.06089214020758635,-0.029495646576243675,-3.6948770820059765e-05,0.02284436793156358,-0.13714373540753289
1168,6.0,299.19145,686.97443,0.0,0.0,0.0,0.0,0.0,-0.011641233593902706,-0.05676850512986525,-0.1031529942404079,-0.04890157055845925,-0.031818355244227166,0.030837858453709673,-0.12619703728967788
1169,6.0,299.61393,735.29268,0.0,0.0,0.0,0.0,0.0,-0.01165120040348655,-0.05794848350732005,-0.0978962446156071,-0.06766588633885304,-0.009507413638408672,0.0031120061778810966,-0.1191504705292359
1170,6.0,300.19142999999997,696.0015099999999,0.0,0.0,0.0,0.0,0.0,-0.011661167213070367,-0.016235264809045885,-0.13414092820617887,-0.06119088281406993,-0.01328095581047829,0.0011751093054242587,-0.13101489966016389
1171,6.0,300.14803,579.2275400000001,0.0,0.0,0.0,0.0,0.0,-0.011671134022654184,-0.034727835018620465,-0.09230718442175981,-0.049035689407945754,0.05090043841498215,0.01200898040344409,-0.12302392301151588
1172,6.0,300.44969,448.56935999999996,0.0,0.0,0.0,0.0,0.0,-0.011681100832238,-0.008915830708598983,-0.06135771444303494,-0.06608034042337184,0.029703103454718074,-0.026697699293357774,-0.10704651920716889
1173,6.0,300.21667,752.14124,0.0,0.0,0.0,0.0,0.0,-0.011691067641821845,-0.052804859203183854,-0.13788804866599086,-0.03793925319031276,0.0058773852720777646,-0.03570528091308687,-0.13397023609433287
1174,6.0,299.59436,1061.0464,0.0,0.0,0.0,0.0,0.0,-0.011701034451405634,-0.10399582580608889,-0.11345821385245389,-0.1050775513478469,-0.028201280368499674,-0.002511994932414598,-0.11369587166340889
1175,6.0,300.60175,948.96119,0.0,0.0,0.0,0.0,0.0,-0.011711001260989479,-0.07421732235842943,-0.13098338758205388,-0.08325979423210192,0.011278379458589389,0.04241471808700675,-0.13813398473026287
1176,6.0,300.35252,447.51179,0.0,0.0,0.0,0.0,0.0,-0.011720968070573268,0.013438062264983485,-0.0930062489705021,-0.05646422207183485,-0.02052422987908378,0.01094774987145879,-0.13559163890435288
1177,6.0,300.67233,529.0305400000001,0.0,0.0,0.0,0.0,0.0,-0.011730934880157112,-0.009405613110136742,-0.06825911286164993,-0.08314734677575422,-0.024004659872825476,-0.012705806682715488,-0.13320477630628788
1178,6.0,299.04432,904.2741699999999,0.0,0.0,0.0,0.0,0.0,-0.011740901689740929,-0.05482906135195704,-0.1134628748029139,-0.1065848317991039,-0.010654893234806092,-0.015896179649830786,-0.1038744891066139
1179,6.0,299.15528,859.98991,0.0,0.0,0.0,0.0,0.0,-0.011750868499324774,-0.11102247206956489,-0.07791710377356942,-0.07247588284881273,-0.005894670508183684,0.011976960687033989,-0.09469081576525591
1180,6.0,299.98532,664.51502,0.0,0.0,0.0,0.0,0.0,-0.011760835308908563,-0.06493186601802624,-0.09263106373672422,-0.044433042371949866,0.014299326876483685,0.016756464448484287,-0.1073040063225809
1181,6.0,300.07379,609.95657,0.0,0.0,0.0,0.0,0.0,-0.01177080211849238,-0.060154816348318145,-0.09694098889833072,-0.02831576040454797,-0.027806152346253575,0.014357711360495786,-0.09689321719586601
1182,6.0,300.49454,874.47739,0.0,0.0,0.0,0.0,0.0,-0.011780768928076196,-0.038199286603226065,-0.1151387094083059,-0.1124812989010399,0.021926586255985578,0.025347673231120575,-0.12944939785816087
1183,6.0,300.91792999999996,1112.5621,0.0,0.0,0.0,0.0,0.0,-0.01179073573766004,-0.08716351350811902,-0.14716671420422386,-0.1038608710252699,-0.01231113664951459,0.00933352229069693,-0.12322459719382088
1184,6.0,300.95173,937.24696,0.0,0.0,0.0,0.0,0.0,-0.011800702547243858,-0.05084638354864735,-0.10584759102634389,-0.1282057042879179,0.03933604277116516,-0.031416268220294266,-0.1136507313714539
1185,6.0,300.85693,354.67103,0.0,0.0,0.0,0.0,0.0,-0.011810669356827702,-0.015483876025139585,-0.05964081585084024,-0.032686446121651065,-0.021225996765842782,-0.06403189525270604,-0.1147556907380049
1186,6.0,300.39567,288.97271,0.0,0.0,0.0,0.0,0.0,-0.011820636166411463,0.027679222506226574,-0.08819979275639182,-0.027319917941265974,0.028078270793109577,0.012913942438756888,-0.12692637471165788
1187,6.0,299.40842000000004,874.6559,0.0,0.0,0.0,0.0,0.0,-0.011830602975995308,-0.07834838658588372,-0.10976666002812589,-0.07775850378841682,-0.0040888128128594055,0.043144643194044756,-0.14055128536133185
1188,6.0,298.41881,1018.079,0.0,0.0,0.0,0.0,0.0,-0.011840569785579125,-0.05966724343994845,-0.13456695934322488,-0.11523638671794588,0.006172845454862415,0.04083588090043766,-0.10720529549783889
1189,6.0,299.04897,317.55446,0.0,0.0,0.0,0.0,0.0,-0.01185053659516297,0.009720350173423872,-0.0890104262736451,-0.017238548581062284,-0.022305717085652876,-0.015073864372174586,-0.15511051392821584
1190,6.0,299.45542,190.88702,0.0,0.0,0.0,0.0,0.0,-0.011860503404746786,0.04076497568493986,-0.05942886216842204,-0.03936100114762836,0.014313347218117386,-0.02260319718251188,-0.0991980906355893
1191,6.0,299.69767,814.60541,0.0,0.0,0.0,0.0,0.0,-0.011870470214330603,-0.08238308160957712,-0.10587184823373791,-0.059364777139347354,-0.0013678949304007186,-0.01150417819037399,-0.1328067817995089
1192,6.0,300.25561,1013.2792,0.0,0.0,0.0,0.0,0.0,-0.01188043702391442,-0.08289941055578483,-0.12425927753343588,-0.1008528911821554,0.02889022558849327,-0.04018543513124367,-0.12861012280033088
1193,6.0,300.94898,818.56021,0.0,0.0,0.0,0.0,0.0,-0.011890403833498264,-0.07795464063677403,-0.1165325463783669,-0.05433467433666485,0.005074125682427214,-0.01058188147235039,-0.14807030024590084
1194,6.0,299.87108,535.3820599999999,0.0,0.0,0.0,0.0,0.0,-0.011900370643082053,0.0030439068545602167,-0.0897810891009536,-0.07600559530091822,0.017588909187390183,0.03466972005913497,-0.12910554130422486
1195,6.0,300.88082,496.39763,0.0,0.0,0.0,0.0,0.0,-0.01191033745266587,-0.015771048328731285,-0.08880233814035841,-0.046319098002089054,0.012092229031660089,0.05092282414944145,-0.11934850012877989
1196,6.0,300.32448999999997,815.50028,0.0,0.0,0.0,0.0,0.0,-0.011920304262249687,-0.03670936717918247,-0.10853416287148789,-0.1026481930405879,-0.017430195718226384,7.757732048503542e-05,-0.1097820816946479
1197,6.0,300.00601,902.59985,0.0,0.0,0.0,0.0,0.0,-0.011930271071833531,-0.08059715535431992,-0.08850610231462222,-0.1052645567863029,-0.011014248462271689,-0.030513997377247075,-0.06985493718614552
1198,6.0,299.50066,420.7881,0.0,0.0,0.0,0.0,0.0,-0.011940237881417348,0.01234946486104729,-0.08623006698599502,-0.054028473196195144,-0.014449423666797087,-0.007395350749614293,-0.12069014458618987
1199,6.0,299.39032000000003,210.50627999999998,0.0,0.0,0.0,0.0,0.0,-0.011950204691001193,-0.023187026823881376,-0.04547278896206486,0.004671164223658016,-0.002099807628834878,0.02110854182750088,-0.10746211386818491
1200,6.0,299.31604,978.3122699999999,0.0,0.0,0.0,0.0,0.0,-0.011960171500584982,-0.06996422431543134,-0.13054390048367986,-0.09687437277050621,-0.018730357716542384,-0.0074990193057705825,-0.14133321046350186
1201,6.0,300.15724,1277.0952,0.0,0.0,0.0,0.0,0.0,-0.011970138310168799,-0.11156336523794688,-0.16607597743792285,-0.1105656989244849,-0.013668671908242886,-0.0040828678718726865,-0.12529712934586387
1202,6.0,300.05855,738.6795599999999,0.0,0.0,0.0,0.0,0.0,-0.011980105119752615,-0.02189698212781388,-0.12058925527373288,-0.08205390704959012,0.006400130219243674,0.013358959856176687,-0.14494165751462787
1203,6.0,301.138,484.51257000000004,0.0,0.0,0.0,0.0,0.0,-0.01199007192933646,-0.027942813440240973,-0.07516002795996722,-0.04417688160091875,0.05444117502817566,0.018485504816627283,-0.13281853550066888
1204,6.0,300.70686,588.53237,0.0,0.0,0.0,0.0,0.0,-0.012000038738920277,-0.012862292014909387,-0.09539728007947851,-0.07063957171908294,0.0023914274924155174,-0.013905768378642486,-0.13710824125652984
1205,6.0,301.18413,705.46156,0.0,0.0,0.0,0.0,0.0,-0.012010005548504094,-0.049670123799059544,-0.1023683637604709,-0.062404212318566236,0.01888223884028188,-0.024038526744167874,-0.13731067849400888
1206,6.0,299.97234,747.0856,0.0,0.0,0.0,0.0,0.0,-0.012019972358087883,-0.04180744690457376,-0.1122345319716859,-0.07305338778305803,-0.022309010148477876,0.006258825197397954,-0.1334561129935929
1207,6.0,299.97053999999997,640.2537599999999,0.0,0.0,0.0,0.0,0.0,-0.012029939167671727,-0.034487761619427064,-0.1002702125928995,-0.05986318169128604,0.01778561244255328,0.04376957127272036,-0.1051738101073469
1208,6.0,300.42357000000004,356.98626,0.0,0.0,0.0,0.0,0.0,-0.012039905977255544,0.009250026632106553,-0.07018194744391892,-0.04758298767332526,-0.026755395780551975,0.0024744676950859477,-0.12851944704888188
1209,6.0,300.25732,733.34051,0.0,0.0,0.0,0.0,0.0,-0.01204987278683936,-0.03909877708799886,-0.10506536194914388,-0.07875306651682253,-0.00917588590638943,-0.004746189111412395,-0.08372668467943042
1210,6.0,299.52982000000003,1291.3864,0.0,0.0,0.0,0.0,0.0,-0.012059839596423205,-0.11964793579833188,-0.14208639979283585,-0.1308148942229249,0.014998872719023486,-0.006081400443937494,-0.12064293726403089
1211,6.0,299.50262000000004,1073.8113,0.0,0.0,0.0,0.0,0.0,-0.012069806406007022,-0.11398379681182488,-0.11468022387055687,-0.09774780752895751,0.013230926586790788,0.014118063526344387,-0.09394349619375122
1212,6.0,299.82307000000003,484.60175999999996,0.0,0.0,0.0,0.0,0.0,-0.012079773215590839,-0.02215863775413728,-0.09568206617908472,-0.02946613161408077,0.008780718063414402,-0.008412015198476262,-0.18088100021406484
1213,6.0,300.52873999999997,737.79391,0.0,0.0,0.0,0.0,0.0,-0.012089740025174628,-0.06726129456067294,-0.09113737299580842,-0.06587225836958574,-0.016828879406631084,-0.011926543388558187,-0.10963030696216888
1214,6.0,300.49911000000003,701.56258,0.0,0.0,0.0,0.0,0.0,-0.012099706834758472,-0.014024395647350087,-0.10396915706345691,-0.09526395460482032,-0.00045893723451107866,0.039387610108504466,-0.16326503927550484
1215,6.0,299.17413,432.55040999999994,0.0,0.0,0.0,0.0,0.0,-0.01210967364434229,-0.036238812819492365,-0.06108355328397735,-0.03416215876604257,-0.009730330180283821,0.024084795796734275,-0.07831307684639893
1216,6.0,299.62416,575.3408,0.0,0.0,0.0,0.0,0.0,-0.012119640453926106,-0.006841924285445353,-0.1018623871905349,-0.06618492404569344,-0.00017459031802822284,-0.007369206262584032,-0.12345424019648488
1217,6.0,298.72598999999997,434.31275999999997,0.0,0.0,0.0,0.0,0.0,-0.01212960726350995,-0.017094334720829486,-0.07602885344371363,-0.03889704507258947,-0.008499963584631091,-0.03772708976512386,-0.10939615499655989
1218,6.0,299.14427,469.0662,0.0,0.0,0.0,0.0,0.0,-0.012139574073093767,0.018659479858797283,-0.1057787609470509,-0.05546512504923165,0.027237926756424075,-0.0071831022114169935,-0.16360796363934885
1219,6.0,299.20139,1124.8195,0.0,0.0,0.0,0.0,0.0,-0.012149540882677584,-0.13257718945934988,-0.1310008053512729,-0.07833905252596253,-0.005106228991970565,0.007277836434816534,-0.12991565502417687
1220,6.0,299.88768,1174.5589,0.0,0.0,0.0,0.0,0.0,-0.012159507692261401,-0.07405733726039014,-0.16621687999682885,-0.11676236163354789,-0.026601643183877775,0.0022797003555639077,-0.13252645602684288
1221,6.0,299.48987,494.12785,0.0,0.0,0.0,0.0,0.0,-0.012169474501845218,-0.024417753832594678,-0.08133921717105572,-0.04444555803718505,-0.019295124070530485,-0.0026246143373042674,-0.11873584858831589
1222,6.0,301.17767000000003,654.62213,0.0,0.0,0.0,0.0,0.0,-0.012179441311429035,-0.014954469059891187,-0.1141263813658969,-0.06990793320612583,0.008768610940619523,0.01999126944573468,-0.12426603591160289
1223,6.0,300.18406,986.9803800000001,0.0,0.0,0.0,0.0,0.0,-0.012189408121012851,-0.08083556195709883,-0.10781432973544589,-0.11136750399361689,0.003994034310430496,-0.0006592849780313614,-0.10653275074396391
1224,6.0,300.37022,669.8514,0.0,0.0,0.0,0.0,0.0,-0.012199374930596696,-0.04986650180094055,-0.0979169189706475,-0.05583467863895375,0.02297079114654058,-0.03930385890823886,-0.13943897993155588
1225,6.0,299.69808,435.06583,0.0,0.0,0.0,0.0,0.0,-0.012209341740180513,-0.012241681394909887,-0.07099115126528113,-0.04901631505278366,-0.0028111931974681673,-0.026649468588597774,-0.15424566443786186
1226,6.0,298.68762999999996,514.22403,0.0,0.0,0.0,0.0,0.0,-0.012219308549764302,-0.012186333621447488,-0.09138988201347911,-0.052735048297794046,0.03234561614576377,0.01993558425998898,-0.12882901521943388
1227,6.0,298.34547000000003,677.5647799999999,0.0,0.0,0.0,0.0,0.0,-0.012229275359348118,-0.04196526668714936,-0.09852387401904932,-0.06547363260799444,-0.013611954220645288,0.01940967908708618,-0.10656046313419891
1228,6.0,299.98618999999997,957.9613699999999,0.0,0.0,0.0,0.0,0.0,-0.012239242168931963,-0.03913737077105776,-0.13473773251507887,-0.11732122985870388,-0.018141949197970984,-0.0035506182334687367,-0.1099440699881349
1229,6.0,298.22796,1003.7931,0.0,0.0,0.0,0.0,0.0,-0.01224920897851578,-0.08056329253597792,-0.1329248963636659,-0.09163985081314911,-0.020359308226557283,-0.007538639411180784,-0.09899813991385571
1230,6.0,297.82897,664.98758,0.0,0.0,0.0,0.0,0.0,-0.012259175788099624,-0.03734014677718557,-0.10851664377725889,-0.05628282598593245,-0.00041487582086505566,0.02326921457924268,-0.13187889802043387
1231,6.0,299.19795,628.28478,0.0,0.0,0.0,0.0,0.0,-0.012269142597683413,-0.06976204950972824,-0.07480491723717053,-0.04641592012864466,0.011993368245903288,0.011114136683629887,-0.11850812062834089
1232,6.0,299.62365,970.02316,0.0,0.0,0.0,0.0,0.0,-0.012279109407267258,-0.093570820780471,-0.1091993412971359,-0.092092661137088,-0.02158409454993428,-0.016499210380595285,-0.13797853189992088
1233,6.0,299.64051,840.1647800000001,0.0,0.0,0.0,0.0,0.0,-0.012289076216851047,-0.08517018812964311,-0.07833031729685043,-0.09188860979219972,0.007005923880380853,-0.0034117736868408467,-0.10000512306198721
1234,6.0,300.17114,338.47607999999997,0.0,0.0,0.0,0.0,0.0,-0.012299043026434892,0.040122202245503065,-0.0972840794351911,-0.04572639836934416,-0.0007267276038299302,0.01945419825672988,-0.14180968119052587
1235,6.0,299.54343,380.47598,0.0,0.0,0.0,0.0,0.0,-0.012309009836018708,-0.007088948681649764,-0.06797982769683664,-0.040586419739067764,0.04026566934041217,0.011350852171991888,-0.12499566717611188
1236,6.0,300.62856,883.7738800000001,0.0,0.0,0.0,0.0,0.0,-0.012318976645602525,-0.06526907159830585,-0.1155248995514199,-0.08785122053649042,-0.027562635923220374,-0.03175462079968707,-0.16179443847786784
1237,6.0,300.59668999999997,843.21825,0.0,0.0,0.0,0.0,0.0,-0.012328943455186342,-0.03730313173778246,-0.14150392284034988,-0.07751023522241464,0.013401524466377488,-0.018090352476378784,-0.14053728224494985
1238,6.0,299.46974,731.06629,0.0,0.0,0.0,0.0,0.0,-0.012338910264770186,-0.02246768106113748,-0.13817960124976486,-0.061578616137086234,-0.014890070936535587,0.01960084391720268,-0.14690666356605886
1239,6.0,299.61726,834.20638,0.0,0.0,0.0,0.0,0.0,-0.012348877074354003,-0.032169439311126466,-0.1132007773995469,-0.10820769368926789,0.018098373364170382,0.029643449368330677,-0.08311707288926642
1240,6.0,299.99747,753.70035,0.0,0.0,0.0,0.0,0.0,-0.012358843883937848,-0.03571214365601417,-0.10721904530169589,-0.08617489247829972,-0.03199017712993467,-0.006605249833712404,-0.09611604930291551
1241,6.0,298.95282000000003,872.09462,0.0,0.0,0.0,0.0,0.0,-0.012368810693521609,-0.06999794730525953,-0.09885986268595881,-0.0962371772728699,0.0037032946572117267,-0.016462522620974484,-0.1016528572023559
1242,6.0,298.61544,926.5844199999999,0.0,0.0,0.0,0.0,0.0,-0.012378777503105454,-0.07763930302015262,-0.10843706311440489,-0.09558215971922471,0.019543045091748378,0.013201136020600687,-0.14004043505841487
1243,6.0,299.71724,569.62734,0.0,0.0,0.0,0.0,0.0,-0.01238874431268927,-0.053709001519165744,-0.06656617662107014,-0.05287730861183404,0.01085023062883439,0.00984023133913022,-0.13020081399981986
1244,6.0,300.14186,527.2750599999999,0.0,0.0,0.0,0.0,0.0,-0.012398711122273115,-0.03970108841119236,-0.0901425356766256,-0.030434829107183772,-0.0032861954211222365,-0.019340515648510283,-0.15951706768560883
1245,6.0,300.67852,899.45875,0.0,0.0,0.0,0.0,0.0,-0.012408677931856932,-0.06943934353837965,-0.1286172054185299,-0.07535645155810274,-0.013587783139509787,-0.005597430551598385,-0.13503896163730789
1246,6.0,300.62567,788.94717,0.0,0.0,0.0,0.0,0.0,-0.01241864474144072,-0.017803444631063182,-0.12552250656560687,-0.0964942844194944,0.012559689938794888,0.03475466486801837,-0.13282683401898787
1247,6.0,299.97651,474.96038,0.0,0.0,0.0,0.0,0.0,-0.012428611551024538,0.0015905497497750386,-0.10787567189649991,-0.03809097219403627,0.008641813329730571,0.016634813641478285,-0.12375846853900989
1248,6.0,299.29436,621.76347,0.0,0.0,0.0,0.0,0.0,-0.012438578360608382,-0.02093299523442578,-0.08566953905717523,-0.08239803414130283,-0.008007919912845163,-0.021416081471352683,-0.13732921083833788
1249,6.0,299.57882,909.9359800000001,0.0,0.0,0.0,0.0,0.0,-0.012448545170192199,-0.06397201521154634,-0.12603878788905987,-0.08658701270472283,0.012100444463470889,-0.033516234118794765,-0.10378139168742591
1250,6.0,298.97112999999996,740.78462,0.0,0.0,0.0,0.0,0.0,-0.012458511979776044,-0.029230401004815974,-0.11533714430788988,-0.08061248278858262,0.013250364776709187,-0.013176613341680486,-0.13610227642474887
1251,6.0,299.55098,722.5187900000001,0.0,0.0,0.0,0.0,0.0,-0.012468478789359833,-0.057182242503447944,-0.08095379912451793,-0.08149162923784763,0.001860281182045458,-0.0028188345217723073,-0.10457075404532991
1252,6.0,298.9106,693.19178,0.0,0.0,0.0,0.0,0.0,-0.012478445598943677,-0.05965450384644115,-0.09724731162881241,-0.05381117765924975,-0.015024015507004884,-0.01879153370457998,-0.12046188973616287
1253,6.0,298.38892999999996,445.18798,0.0,0.0,0.0,0.0,0.0,-0.012488412408527466,-0.04337935852670936,-0.07536943534488413,-0.016577235704545785,-0.0001937789343144918,-0.003048461616409737,-0.13903931356211185
1254,6.0,298.88465,733.4493,0.0,0.0,0.0,0.0,0.0,-0.01249837921811131,-0.03106356193998487,-0.10653033920872589,-0.08535636878251772,0.020857903269514783,0.041287392237748355,-0.15795377476882386
1255,6.0,299.66197,941.3016,0.0,0.0,0.0,0.0,0.0,-0.012508346027695127,-0.08041323222266814,-0.11399914755083987,-0.0917198063785401,0.005262788190096755,0.007027653130100363,-0.15117265926957985
1256,6.0,299.00882,746.87219,0.0,0.0,0.0,0.0,0.0,-0.012518312837278944,-0.03023021743499017,-0.0997521003265158,-0.0970481775866594,0.012547258373317988,-0.016451768997663183,-0.14213946370057287
1257,6.0,299.08406,542.47215,0.0,0.0,0.0,0.0,0.0,-0.012528279646862761,-0.02101316358233778,-0.09938499474903531,-0.04449982872579116,-0.003612692062419947,-0.025197017126751976,-0.16179450940537485
1258,6.0,299.29151,708.14866,0.0,0.0,0.0,0.0,0.0,-0.012538246456446606,-0.043043995035111554,-0.08553998895238961,-0.08667552618045841,0.023316946764953477,0.013858735335500687,-0.08528417471289272
1259,6.0,300.64066,728.77046,0.0,0.0,0.0,0.0,0.0,-0.012548213266030422,-0.06268967932223965,-0.0938809401590774,-0.06495740296029653,-0.019508350395074283,-0.004192820098524126,-0.1066437624249199
1260,6.0,299.82367,658.16065,0.0,0.0,0.0,0.0,0.0,-0.012558180075614267,-0.013475814950459386,-0.1027371057368629,-0.08385148568099733,-0.022417496810184682,-0.01317682207120109,-0.09003587286509883
1261,6.0,300.24737999999996,853.82201,0.0,0.0,0.0,0.0,0.0,-0.012568146885198028,-0.060319283051549745,-0.12455790260290787,-0.07466338139695203,-0.027672509724314072,-0.00021867151031619775,-0.1301586425306579
1262,6.0,299.61728999999997,681.84331,0.0,0.0,0.0,0.0,0.0,-0.012578113694781873,-0.013431245118310687,-0.10900277077773589,-0.08482932269000232,0.01690255586115238,0.016590570075861785,-0.1179584425815919
1263,6.0,299.8578,555.1605,0.0,0.0,0.0,0.0,0.0,-0.01258808050436569,-0.032748996076824265,-0.10017399233690331,-0.03583194122858726,0.015260684385862287,0.018083023638405485,-0.17163596444665083
1264,6.0,300.54205,921.6626,0.0,0.0,0.0,0.0,0.0,-0.012598047313949534,-0.0954691053260671,-0.08873842536380072,-0.09595488680826,-0.0036532992760775662,-0.025809374824686978,-0.1281884993012199
1265,6.0,299.26047,829.27508,0.0,0.0,0.0,0.0,0.0,-0.012608014123533351,-0.1040364774001009,-0.08305426050231732,-0.06498818245858423,0.009001874083240801,-0.0043597754453263355,-0.15707413182700986
1266,6.0,298.12658,376.21166,0.0,0.0,0.0,0.0,0.0,-0.01261798093311714,0.008812116252213162,-0.07475049760079973,-0.048420570603488255,0.00018502971221851086,0.016117250556648786,-0.15356761773594385
1267,6.0,300.12226,624.03728,0.0,0.0,0.0,0.0,0.0,-0.012627947742700957,-0.02035241407287688,-0.09500000092727011,-0.07433933692222133,0.023851477735957576,0.013573400054340289,-0.12848690145566988
1268,6.0,299.43766,1022.337,0.0,0.0,0.0,0.0,0.0,-0.012637914552284801,-0.05588217575064135,-0.11906301691310489,-0.13581974176686487,-0.016963183680885882,-0.03130090057715837,-0.11325648589004489
1269,6.0,299.82869,861.3434300000001,0.0,0.0,0.0,0.0,0.0,-0.012647881361868618,-0.060461070177793036,-0.1268980645038639,-0.07446776535914623,-0.012777439411785088,-0.015296040734851687,-0.1115633044429409
1270,6.0,300.2148,571.34611,0.0,0.0,0.0,0.0,0.0,-0.012657848171452463,-0.029099804212677077,-0.094651897842165,-0.04992324887279105,-0.003702539076612156,0.016383562067181685,-0.0949170917378376
1271,6.0,300.10909,667.76776,0.0,0.0,0.0,0.0,0.0,-0.012667814981036252,-0.06650528940931102,-0.09483550180003532,-0.041643932656436164,0.007860907557161173,0.03631982520473767,-0.1043631998948459
1272,6.0,299.60257,796.53995,0.0,0.0,0.0,0.0,0.0,-0.012677781790620096,-0.04289272591443246,-0.1053825700254499,-0.0938529562178156,-0.014386331622820384,-0.017127872285889384,-0.1223520166052039
1273,6.0,299.76069,748.05931,0.0,0.0,0.0,0.0,0.0,-0.012687748600203885,-0.04068895963593767,-0.10656304692195391,-0.08013934464113752,0.015350507993977185,0.0004933144090013416,-0.15759353396077086
1274,6.0,299.92578,778.00046,0.0,0.0,0.0,0.0,0.0,-0.01269771540978773,-0.015547836424451985,-0.1033529794126449,-0.11759189935791689,-0.005674898081368835,0.013780095981989588,-0.14536902614180586
1275,6.0,300.70637,573.8385400000001,0.0,0.0,0.0,0.0,0.0,-0.012707682219371547,-0.02578035230207268,-0.08893855543080201,-0.05971367866553124,0.027176326216594576,0.017565930701622382,-0.15618356604911787
1276,6.0,300.50612,468.1014,0.0,0.0,0.0,0.0,0.0,-0.012717649028955363,-0.03915917186020936,-0.059926624319797346,-0.043205339914785056,-0.008220058614731622,-0.027632879486402872,-0.14208482925518087
1277,6.0,301.35414,1107.796,0.0,0.0,0.0,0.0,0.0,-0.01272761583853918,-0.09993247910931781,-0.14856214197694184,-0.08824770023436991,0.005793564258880275,-0.00956602458381812,-0.1265740777843889
1278,6.0,300.8018,1060.7611,0.0,0.0,0.0,0.0,0.0,-0.012737582648123025,-0.1043197010680529,-0.1033625343610879,-0.1147626618986929,-0.001062201630881139,0.008606332654953903,-0.12161688339265189
1279,6.0,300.58002,751.68272,0.0,0.0,0.0,0.0,0.0,-0.012747549457706842,-0.016469011474614884,-0.14797370711386787,-0.06405006282699904,-0.0005454355483152974,0.06238818776823474,-0.11743734832016389
1280,6.0,301.21515,841.9558,0.0,0.0,0.0,0.0,0.0,-0.012757516267290686,-0.027209010625070272,-0.12589206927457988,-0.1028324627037739,-0.008621950486695262,-0.0025020544423085475,-0.11206041507450189
1281,6.0,299.91375,952.72686,0.0,0.0,0.0,0.0,0.0,-0.012767483076874447,-0.08198853823263871,-0.11882735520484689,-0.08878927734656943,-0.015278035280574684,-0.016155064037130684,-0.0981773080343459
1282,6.0,299.9273,774.2634400000001,0.0,0.0,0.0,0.0,0.0,-0.012777449886458292,-0.06292160112437853,-0.12354543270548489,-0.048889716545539356,-0.008741943515212652,-0.007927212515879961,-0.14260818306433184
1283,6.0,300.84906,586.61404,0.0,0.0,0.0,0.0,0.0,-0.012787416696042109,-0.03722033197936076,-0.07048242169482344,-0.07061326774648694,0.003987589330519426,-0.021552004919267276,-0.13349970301289488
1284,6.0,299.70415,570.02192,0.0,0.0,0.0,0.0,0.0,-0.012797383505625953,-0.025168948072481774,-0.09662464512436,-0.05147883602256555,0.002759894371405367,-0.024857629005756977,-0.16031551889690984
1285,6.0,299.77147,634.27889,0.0,0.0,0.0,0.0,0.0,-0.01280735031520977,-0.01116629981202799,-0.08765890972051082,-0.0939797360968278,0.013313923928981987,-0.006275618500580323,-0.15427529187078587
1286,6.0,299.68186000000003,809.30101,0.0,0.0,0.0,0.0,0.0,-0.012817317124793559,-0.024555123188401976,-0.1050816144807479,-0.1163705580848799,0.04098911977931117,0.014129326814455988,-0.14073850358230885
1287,6.0,299.80575,995.84265,0.0,0.0,0.0,0.0,0.0,-0.012827283934377376,-0.1016196428640779,-0.11938355858223988,-0.08170810201571183,0.0030683472575722967,0.011093709561613888,-0.12166168931207388
1288,6.0,299.575,766.5566,0.0,0.0,0.0,0.0,0.0,-0.01283725074396122,-0.059123959001330446,-0.09800530882987091,-0.07588479765049644,0.01049770673354299,-0.04524814229564395,-0.1067866306890199
1289,6.0,299.07639,618.9103299999999,0.0,0.0,0.0,0.0,0.0,-0.012847217553545037,-0.04527257378205516,-0.13186336489640088,-0.01099735049035399,0.003918304099281506,-0.027857603159831372,-0.13643073157716487
1290,6.0,298.75347,1065.5638,0.0,0.0,0.0,0.0,0.0,-0.012857184363128882,-0.08326388573600572,-0.15311317506609387,-0.08752774550831592,0.016031471842933086,-0.012239463390440988,-0.1109771899225959
1291,6.0,299.15266,1194.1564,0.0,0.0,0.0,0.0,0.0,-0.01286715117271267,-0.06629080260164283,-0.16153886640514484,-0.13516406762715488,-0.0032640071691074266,0.008079730973932362,-0.12353314198177189
1292,6.0,299.12211,711.97154,0.0,0.0,0.0,0.0,0.0,-0.012877117982296515,-0.009077246009154431,-0.14809638130347486,-0.05924794636306704,-0.024225903032160476,0.013188305234584386,-0.12092854206971788
1293,6.0,300.25928999999996,462.44332,0.0,0.0,0.0,0.0,0.0,-0.012887084791880304,-0.027006192405553676,-0.08169663405108002,-0.03186839460041567,-0.014882369222525487,0.027837643146111476,-0.11296389979116889
1294,6.0,300.60335,594.91522,0.0,0.0,0.0,0.0,0.0,-0.012897051601464149,-0.03365388718463007,-0.08894707686414301,-0.05823840881143345,0.01087496102402509,0.035681458389985765,-0.14546672371644787
1295,6.0,299.83567999999997,640.9273400000001,0.0,0.0,0.0,0.0,0.0,-0.012907018411047966,-0.03743574388437026,-0.08293140696744263,-0.07445875756575723,0.006484537498949025,0.024188658998234778,-0.15458995668934084
1296,6.0,300.10318,938.51767,0.0,0.0,0.0,0.0,0.0,-0.012916985220631783,-0.06530170331777635,-0.1076503757367649,-0.11233385074648788,0.012861213916802988,-0.027434415202565975,-0.16477984817500485
1297,6.0,300.40842999999995,977.8914,0.0,0.0,0.0,0.0,0.0,-0.0129269520302156,-0.04784991523991895,-0.14968006081227186,-0.0997245966658014,-0.008441786918214502,-0.021354004703976182,-0.15412760053620986
1298,6.0,300.31442000000004,480.38754000000006,0.0,0.0,0.0,0.0,0.0,-0.012936918839799444,-0.03310145715060947,-0.07177127075577293,-0.04115308796349356,0.028811493015972973,-0.007310633922003393,-0.13477011598827487
1299,6.0,299.55441,586.44228,0.0,0.0,0.0,0.0,0.0,-0.01294688564938326,-0.05115039100265055,-0.08218462137874062,-0.04492879727487705,-0.018072153491332683,-0.01136404570154399,-0.1070224849147969
1300,6.0,299.55188,1052.6886,0.0,0.0,0.0,0.0,0.0,-0.012956852458967105,-0.07682911330644313,-0.14908626585616885,-0.09407567872229661,-0.005524276934128684,-0.021789363821442777,-0.11526090737036589
1301,6.0,298.83667,768.61676,0.0,0.0,0.0,0.0,0.0,-0.012966819268550867,-0.04879863346755016,-0.10946053690791391,-0.07538113230403852,-0.004876088787482496,-0.0017849529272111386,-0.1296565061786009
1302,6.0,298.88003,490.65192,0.0,0.0,0.0,0.0,0.0,-0.012976786078134711,0.00993419468185368,-0.1274894175272259,-0.031590713410510673,0.015924393598865286,0.01067574288211379,-0.15719592448902983
1303,6.0,298.45912999999996,579.78754,0.0,0.0,0.0,0.0,0.0,-0.012986752887718528,-0.023273806628695874,-0.08078684691879101,-0.07218027929113893,0.013004686077962587,0.034460392720975966,-0.14127501951025886
1304,6.0,299.25658,586.33397,0.0,0.0,0.0,0.0,0.0,-0.012996719697302372,-0.04636013361788896,-0.08354589654358802,-0.048324856972542046,-0.023858761990926475,0.005299939410313295,-0.13625254141457888
1305,6.0,299.55679,542.24175,0.0,0.0,0.0,0.0,0.0,-0.01300668650688619,-0.03955956979622557,-0.07619189450405453,-0.049076486909972156,-0.014171065625825286,0.03156197865092477,-0.12652519859956488
1306,6.0,300.71845,785.37478,0.0,0.0,0.0,0.0,0.0,-0.013016653316469978,-0.05737301013952525,-0.07051975692125813,-0.1108415562642099,-0.017925950621153586,0.010328325767326391,-0.12819682821704187
1307,6.0,299.42461000000003,741.86876,0.0,0.0,0.0,0.0,0.0,-0.013026620126053795,-0.04510881027439296,-0.08900988215834142,-0.09139088614432822,0.022528915817680878,0.02018921595877048,-0.09940707752171471
1308,6.0,299.94251,634.79158,0.0,0.0,0.0,0.0,0.0,-0.01303658693563764,-0.019548933088079482,-0.1068528668480569,-0.06655898761161064,-0.01227060867201479,-0.01892393408189688,-0.15697537033976286
1309,6.0,300.23941,1071.6896,0.0,0.0,0.0,0.0,0.0,-0.013046553745221456,-0.06490880241925004,-0.13985612486522486,-0.12100196217196389,0.030512584906607673,-0.01839231519168018,-0.11338424659515389
1310,6.0,300.45527999999996,1059.1504,0.0,0.0,0.0,0.0,0.0,-0.013056520554805273,-0.09775259310917982,-0.15544851389657385,-0.06875416152925744,0.01060124164201109,-0.034273501779781265,-0.13636084771776788
1311,6.0,300.04547,553.71588,0.0,0.0,0.0,0.0,0.0,-0.01306648736438909,-0.02964013908025397,-0.07758894145043232,-0.061086719690539845,0.028344863987170274,-0.008832834480982892,-0.10538400884059189
1312,6.0,299.76694,567.81443,0.0,0.0,0.0,0.0,0.0,-0.013076454173972935,-0.007030344221040953,-0.1057396292281889,-0.05983143757890314,-0.005238444552469225,-0.008436195297537653,-0.15160829601757386
1313,6.0,299.05176,839.0029400000001,0.0,0.0,0.0,0.0,0.0,-0.013086420983556724,-0.042647751424505366,-0.1285369864081129,-0.08385121007697012,-0.017886357873496083,0.00967296087154691,-0.1118333153295889
1314,6.0,299.59962,707.03816,0.0,0.0,0.0,0.0,0.0,-0.01309638779314054,-0.01855623676635798,-0.10765124713185088,-0.08871446301218582,-0.027923926458376973,0.02125494734769998,-0.16157598175630783
1315,6.0,299.31789,596.61556,0.0,0.0,0.0,0.0,0.0,-0.013106354602724385,-0.03235630593431876,-0.09304356494518491,-0.05595636186996295,-0.01914313554228038,0.012466968435393988,-0.14326008791366987
1316,6.0,298.77494,657.7932599999999,0.0,0.0,0.0,0.0,0.0,-0.013116321412308202,-0.08096631276325292,-0.07927902336548043,-0.03970739082681436,-0.014901627053926086,-0.015143858675832485,-0.13133523867927888
1317,6.0,298.9082,799.4385900000001,0.0,0.0,0.0,0.0,0.0,-0.013126288221892018,-0.06164318043345823,-0.1078013398691639,-0.07356485211553564,0.003990814201612697,-0.008942437845624903,-0.1238567639312109
1318,6.0,299.55922999999996,862.78169,0.0,0.0,0.0,0.0,0.0,-0.013136255031475863,-0.05456481788487825,-0.14964460719127287,-0.05805466705154953,0.00940370647742357,0.004474217687145905,-0.15606224961464485
1319,6.0,300.02079,927.8938,0.0,0.0,0.0,0.0,0.0,-0.01314622184105968,-0.05569180328210305,-0.12133745941257487,-0.10502728401038591,0.016172697628620985,0.0012351831813280888,-0.12343683255976688
1320,6.0,300.8099,740.49986,0.0,0.0,0.0,0.0,0.0,-0.013156188650643469,-0.036804359376057465,-0.12266851540643989,-0.06562059237599824,0.02225025481492918,-0.02022264003981918,-0.16282964570753486
1321,6.0,299.99062999999995,461.01513,0.0,0.0,0.0,0.0,0.0,-0.013166155460227286,-0.02591007871237568,-0.08664848253528942,-0.027578527737788773,-0.00014474069962229486,-0.02117796567135248,-0.13758171276325787
1322,6.0,299.73912,655.87321,0.0,0.0,0.0,0.0,0.0,-0.01317612226981113,-0.06844696841693984,-0.1057292636796659,-0.025192849629090675,0.016955059441584087,-0.017259413427121485,-0.13186775226933387
1323,6.0,300.19263,969.64856,0.0,0.0,0.0,0.0,0.0,-0.013186089079394947,-0.06293946573689164,-0.1195652140601679,-0.11224426930514689,-0.0007042185467009594,-0.020720867272990377,-0.10973164210466989
1324,6.0,300.83588,808.52779,0.0,0.0,0.0,0.0,0.0,-0.013196055888978764,-0.04965027220310036,-0.1098104222999449,-0.08631156370478811,0.002636550524807277,-0.012000473155604489,-0.13289664695087788
1325,6.0,299.27038999999996,806.99487,0.0,0.0,0.0,0.0,0.0,-0.013206022698562608,-0.015624407734508985,-0.1037350253628499,-0.1259468557074869,-0.017651516897819085,0.008578733546080082,-0.11972392955583189
1326,6.0,299.13681,873.60566,0.0,0.0,0.0,0.0,0.0,-0.013215989508146425,-0.03567294202289527,-0.12389056595454688,-0.10599079366297691,-0.0023567345182665877,0.04233847101698175,-0.13203674212101188
1327,6.0,298.7013,811.16247,0.0,0.0,0.0,0.0,0.0,-0.013225956317730214,-0.06684472110006034,-0.09904371083710321,-0.08068470320271022,-0.015094093910421087,0.04900825059523775,-0.10155834123302791
1328,6.0,299.91504,945.5459300000001,0.0,0.0,0.0,0.0,0.0,-0.013235923127314031,-0.08893787148698451,-0.14539935271729887,-0.053085131273594544,-0.012821555307888987,0.02222961896339258,-0.13808915854583886
1329,6.0,299.02995,898.8097,0.0,0.0,0.0,0.0,0.0,-0.013245889936897876,-0.08220225699673113,-0.1020957589535669,-0.08891768551849231,-0.022926621548181376,0.0039828891672805565,-0.1055951701614319
1330,6.0,299.70399,719.48287,0.0,0.0,0.0,0.0,0.0,-0.013255856746481692,-0.03819731481853147,-0.12425215438523289,-0.056255359815471744,0.0004810696969753825,-0.007238612408870423,-0.14866452076704587
1331,6.0,299.7056,680.10419,0.0,0.0,0.0,0.0,0.0,-0.013265823556065509,0.012348432359195386,-0.12124399722335089,-0.0978391307472204,-0.003394663540352207,-0.008270068991967262,-0.12713413151216188
1332,6.0,301.04457,824.96321,0.0,0.0,0.0,0.0,0.0,-0.013275790365649298,-0.021216328333388584,-0.11835045891278088,-0.1112014221697259,0.011974347515026091,-0.021925268017605477,-0.14651537677494186
1333,6.0,300.85901,789.52567,0.0,0.0,0.0,0.0,0.0,-0.013285757175233143,-0.07157468706412162,-0.1075523235245879,-0.060869080661810536,0.01092248549346539,-0.016505351689451383,-0.13271625803557485
1334,6.0,300.50514,449.68887,0.0,0.0,0.0,0.0,0.0,-0.01329572398481696,-0.03237168403108647,-0.08172108782899343,-0.02260141588883608,0.008539173830375842,-0.0066218528485259935,-0.15117175747699085
1335,6.0,299.23362000000003,585.64626,0.0,0.0,0.0,0.0,0.0,-0.013305690794400804,-0.024536659745079775,-0.10106103707069782,-0.052424143650360154,0.014031100323261787,0.007610205367068793,-0.13331315353698386
1336,6.0,300.26204,900.6215599999999,0.0,0.0,0.0,0.0,0.0,-0.013315657603984593,-0.06082044263051034,-0.11823136149602688,-0.0947146595666091,-0.003586033756263976,-0.005291737758703855,-0.15751771245578786
1337,6.0,300.2382,803.8605,0.0,0.0,0.0,0.0,0.0,-0.013325624413568438,-0.015060153071821385,-0.1204147634740119,-0.10887860711048189,0.0025381969720505377,0.00980716412476674,-0.14962177866651985
1338,6.0,300.24532,651.14595,0.0,0.0,0.0,0.0,0.0,-0.013335591223152254,-0.008779555764224692,-0.13473154155696787,-0.05442101337768585,-0.03200495234289287,0.03926110988651986,-0.13217496969965387
1339,6.0,301.40362999999996,788.03247,0.0,0.0,0.0,0.0,0.0,-0.013345558032736099,-0.07103241891535393,-0.0970517513197621,-0.07145802246085772,-0.006808500812346714,0.03486448901985717,-0.12486565705578087
1340,6.0,301.60506000000004,935.52802,0.0,0.0,0.0,0.0,0.0,-0.013355524842319888,-0.09191271501207872,-0.12467812472727288,-0.06778632428548934,-0.016456110774341684,-0.013270152537912088,-0.13566137077623486
1341,6.0,300.70537,899.8381699999999,0.0,0.0,0.0,0.0,0.0,-0.013365491651903705,-0.09799480041308381,-0.11598001096633588,-0.05955351827522465,0.01805678958006638,-0.024807376867047475,-0.13727875098335787
1342,6.0,301.26337,786.53174,0.0,0.0,0.0,0.0,0.0,-0.013375458461487522,-0.050886698743626155,-0.09675868595358882,-0.09144062456523701,0.0051825160853745155,-0.03068807374442707,-0.13257600395673286
1343,6.0,300.17089,452.29174000000006,0.0,0.0,0.0,0.0,0.0,-0.013385425271071366,0.03287269871528277,-0.101062346189827,-0.06929574776070783,0.04055141904086346,0.003695974229214257,-0.15794786752074086
1344,6.0,299.43565,520.9189,0.0,0.0,0.0,0.0,0.0,-0.013395392080655183,0.013122453097335288,-0.1055232496693339,-0.06594553965656803,0.0004508641136768236,-0.0064804379903694335,-0.15127180579186486
1345,6.0,299.93215,1104.1563,0.0,0.0,0.0,0.0,0.0,-0.013405358890239027,-0.0928182140699445,-0.12775271056571086,-0.1150650157285329,0.016839165921646283,-0.003998170903963746,-0.12325795338711287
1346,6.0,299.96398999999997,903.2089800000001,0.0,0.0,0.0,0.0,0.0,-0.013415325699822789,-0.07486033695139002,-0.13371718701435886,-0.06597545485252045,-0.014965050430685484,0.014274198274003686,-0.1302504531222189
1347,6.0,300.44137,327.87973,0.0,0.0,0.0,0.0,0.0,-0.013425292509406633,0.006888536323170604,-0.07309096821601693,-0.033464819782220566,0.009399978527655652,0.014236699914302887,-0.12894217499060187
1348,6.0,301.16581,645.7525400000001,0.0,0.0,0.0,0.0,0.0,-0.01343525931899045,-0.03172543615705677,-0.09234441224368391,-0.07222280033158543,-0.004987531707681055,-0.02986819026701087,-0.15216701225521487
1349,6.0,299.78397,1057.7983,0.0,0.0,0.0,0.0,0.0,-0.013445226128574295,-0.06295597056777054,-0.13058497764273388,-0.12800331771294388,-0.0035014017376864466,-0.036121877678451764,-0.15272532319281587
1350,6.0,298.49007,894.0740599999999,0.0,0.0,0.0,0.0,0.0,-0.013455192938158111,-0.0944901881924555,-0.11176627870297288,-0.06551972636829353,0.011897197639161989,-0.004172520949995756,-0.15365055225662885
1351,6.0,299.11602999999997,646.2305,0.0,0.0,0.0,0.0,0.0,-0.013465159747741928,-0.03962793479372267,-0.09783182825374971,-0.05897817257694245,-0.008190519739866363,0.011814241840224888,-0.14281534204727686
1352,6.0,298.98094,420.85927999999996,0.0,0.0,0.0,0.0,0.0,-0.013475126557325717,-0.013441539739326687,-0.09506213443665221,-0.019427038087799383,0.00967817931221193,0.006034037587888144,-0.14117835545071886
1353,6.0,300.15124,458.88475999999997,0.0,0.0,0.0,0.0,0.0,-0.013485093366909562,-0.01143486783053359,-0.08322674910659063,-0.04482789073716836,-0.006948494080612972,-0.014043167118702687,-0.15320711348286484
1354,6.0,300.39932000000005,663.08385,0.0,0.0,0.0,0.0,0.0,-0.013495060176493379,-0.027748767940090176,-0.0862822858431486,-0.0875298804262766,0.028765235109157676,0.015892952448262287,-0.12918138307420987
1355,6.0,299.93303,747.46902,0.0,0.0,0.0,0.0,0.0,-0.013505026986077223,-0.013406760942894289,-0.12355777409170288,-0.0902473867969736,-0.002034707221834968,0.013007116864952487,-0.15133722121832086
1356,6.0,300.50831,586.88475,0.0,0.0,0.0,0.0,0.0,-0.013514993795661012,-0.04676309912965855,-0.0874813913427411,-0.044153818002142554,-0.0005972366728501703,-0.006907526453894784,-0.14607212038619585
1357,6.0,300.45514,690.5423900000001,0.0,0.0,0.0,0.0,0.0,-0.013524960605244857,-0.05950045436748765,-0.1097842399173609,-0.04062295044492306,-0.016010737706136785,-0.007495558550054033,-0.14981656586574385
1358,6.0,299.18172999999996,1069.597,0.0,0.0,0.0,0.0,0.0,-0.013534927414828674,-0.1115745008565459,-0.1104133871694529,-0.1031428921369109,0.01090602929859129,0.01865546840165138,-0.1202251134527949
1359,6.0,299.90876000000003,1003.4392,0.0,0.0,0.0,0.0,0.0,-0.013544894224412518,-0.08615178936276961,-0.1152352417453329,-0.1036334470403249,0.0005941868812416795,0.025332432936366476,-0.13764413910191886
1360,6.0,300.00792,611.2529900000001,0.0,0.0,0.0,0.0,0.0,-0.013554861033996307,0.004018242780494686,-0.10252208393314191,-0.08730180390826722,-0.007633209184089093,-0.02129272333792818,-0.14853963769222087
1361,6.0,300.46906,703.06564,0.0,0.0,0.0,0.0,0.0,-0.013564827843580124,-0.03124612630325257,-0.1023605819997029,-0.08010768868151333,-0.0015320188511234883,-0.018821657630052984,-0.15063856500936884
1362,6.0,300.75611000000004,886.5703800000001,0.0,0.0,0.0,0.0,0.0,-0.01357479465316394,-0.08825665027250322,-0.10119913191357671,-0.08003947567153122,-0.0029483560529050875,0.01245186695590359,-0.12677381977660188
1363,6.0,300.51478,849.0655,0.0,0.0,0.0,0.0,0.0,-0.013584761462747785,-0.07436328610158494,-0.11289839317220389,-0.07083302953417574,0.014969539128628487,0.036142299734217266,-0.14344535056195387
1364,6.0,299.98931,817.81287,0.0,0.0,0.0,0.0,0.0,-0.013594728272331602,-0.034522994351904264,-0.12689044486311188,-0.08718125551737002,-0.010969348310590389,0.013527980105357688,-0.12888954678040787
1365,6.0,300.3519,700.96508,0.0,0.0,0.0,0.0,0.0,-0.013604695081915447,-0.007777791766033283,-0.12701050486746088,-0.07828758651363323,-0.016665853545041683,0.005404015799634835,-0.13485379018153287
1366,6.0,300.68228999999997,787.09646,0.0,0.0,0.0,0.0,0.0,-0.013614661891499208,0.005268127815473735,-0.12013008072591588,-0.12439571165940089,0.0014929368828413986,0.023095898149637677,-0.1243686984117349
1367,6.0,301.51075,1018.1009,0.0,0.0,0.0,0.0,0.0,-0.013624628701083052,-0.09043897111263151,-0.12601017370623588,-0.0930280986956585,0.008470902659838003,0.006975956400723293,-0.15463434717622185
1368,6.0,299.43267000000003,1034.4666,0.0,0.0,0.0,0.0,0.0,-0.01363459551066687,-0.092966275240807,-0.13685838391437088,-0.08462734040181821,-0.012553395629173687,-0.029020862910636176,-0.14574652259906185
1369,6.0,299.70481,608.8820099999999,0.0,0.0,0.0,0.0,0.0,-0.013644562320250714,-0.06506722305913494,-0.09952694298204451,-0.020490760201780582,-0.014318089228585386,-0.04539457720009595,-0.17409491978933084
1370,6.0,300.12462,565.1709400000001,0.0,0.0,0.0,0.0,0.0,-0.01365452912983453,-0.050332275646658854,-0.06953207618753163,-0.05193350059418746,0.007396762105678583,0.009826927466642231,-0.10610257541400892
1371,6.0,300.0762,756.75747,0.0,0.0,0.0,0.0,0.0,-0.013664495939418347,-0.042078844930608664,-0.092375641625016,-0.09558088910359931,0.016065216111013383,0.029401913849242973,-0.14642813594133186
1372,6.0,299.42246,802.77327,0.0,0.0,0.0,0.0,0.0,-0.013674462749002136,0.005897352175898344,-0.1083335798816919,-0.14158679656602888,-0.010924069203371689,0.013093103294938686,-0.11323363710028989
1373,6.0,299.22721,849.65709,0.0,0.0,0.0,0.0,0.0,-0.013684429558585981,-0.05378572279023755,-0.12983488885870587,-0.07465392473376872,0.003967890937975347,0.02464450400622318,-0.16317867996948185
1374,6.0,298.61355,900.8380300000001,0.0,0.0,0.0,0.0,0.0,-0.013694396368169798,-0.07589443872519792,-0.11961706206778487,-0.07832077146765833,-0.005662631473008215,0.012020965125626887,-0.11956340034248888
1375,6.0,301.13677,811.37629,0.0,0.0,0.0,0.0,0.0,-0.013704363177753642,-0.09958818077833821,-0.1082790568938109,-0.038770894421889364,0.005116371118846516,0.011519478266883989,-0.16555089097110084
1376,6.0,301.12905,834.74964,0.0,0.0,0.0,0.0,0.0,-0.013714329987337431,-0.07067144147447822,-0.1140320275165849,-0.06903957584392563,-0.034173094774371866,-0.024921016918762876,-0.12554398746772688
1377,6.0,300.0784,919.63541,0.0,0.0,0.0,0.0,0.0,-0.013724296796921276,-0.013177307417998989,-0.13868902287004087,-0.12767986801602188,-0.014312112066245487,-0.00944038724561868,-0.13404832727953986
1378,6.0,300.13727,854.95255,0.0,0.0,0.0,0.0,0.0,-0.013734263606505093,-0.004971685894667195,-0.12222891685055488,-0.13268363138235487,-0.008816219712468142,0.0009932208103707622,-0.1079538644067169
1379,6.0,300.45686,654.12392,0.0,0.0,0.0,0.0,0.0,-0.013744230416088937,-0.05801766113139734,-0.09100418430991372,-0.049815492764406354,0.030833596723789075,-0.0002493651153929208,-0.1345312220121979
1380,6.0,299.56671,705.95965,0.0,0.0,0.0,0.0,0.0,-0.013754197225672726,-0.06382533104756974,-0.08867218312526311,-0.06209659161470644,0.012170107434346088,-0.02032809911022718,-0.16660308027244383
1381,6.0,300.43862,883.1253199999999,0.0,0.0,0.0,0.0,0.0,-0.013764164035256543,-0.09261419616230951,-0.1199059903337999,-0.05592785914464995,0.00923793653191335,-0.00915381357018606,-0.16477400172192785
1382,6.0,298.78758999999997,670.36747,0.0,0.0,0.0,0.0,0.0,-0.01377413084484036,-0.03711979325143836,-0.1015310949378389,-0.06512408462824675,0.016215199417315584,0.029196469285467173,-0.16280811414290985
1383,6.0,298.69948999999997,550.88695,0.0,0.0,0.0,0.0,0.0,-0.013784097654424204,0.020070276609032083,-0.08868152123818472,-0.09884463252370572,0.00940190005514529,0.007719686635073753,-0.13787075248678388
1384,6.0,300.08427,712.74731,0.0,0.0,0.0,0.0,0.0,-0.013794064464008021,-0.00020419034253701777,-0.10981850803574289,-0.10663468370402389,0.0003678408120180617,-0.0036003496629518467,-0.13559217592690587
1385,6.0,300.62342,701.4386599999999,0.0,0.0,0.0,0.0,0.0,-0.013804031273591866,-0.03897464787124826,-0.08825483554157411,-0.0859903532905871,-0.024420636529129177,-0.025298810258298176,-0.11202627867863289
1386,6.0,300.67278,941.4059300000001,0.0,0.0,0.0,0.0,0.0,-0.013813998083175627,-0.06608836435091373,-0.13992555276207685,-0.08014997971418712,0.0003875039231936597,0.007813110219468941,-0.14626529651776088
1387,6.0,301.00597,948.8298199999999,0.0,0.0,0.0,0.0,0.0,-0.013823964892759472,-0.11447396668020089,-0.1089798105304699,-0.06496679578872352,-0.0015060392198844987,0.0009403542736207411,-0.1240095721787919
1388,6.0,299.94352000000003,654.4754,0.0,0.0,0.0,0.0,0.0,-0.013833931702343288,-0.057243539068247445,-0.08271057620089832,-0.05899006408011604,0.02156490156654008,-0.007220478069180703,-0.14958530166291986
1389,6.0,300.25374,782.87739,0.0,0.0,0.0,0.0,0.0,-0.013843898511927133,-0.017441191508311586,-0.13416092976315286,-0.08637305076060642,0.011547557453655188,0.01807518108263148,-0.16179975804089286
1390,6.0,301.22012,809.6206099999999,0.0,0.0,0.0,0.0,0.0,-0.01385386532151095,-0.04047049987462736,-0.10125448981954009,-0.10437946255895089,0.017120758256937284,0.03938359561160826,-0.13097914206413488
1391,6.0,299.50194,529.39072,0.0,0.0,0.0,0.0,0.0,-0.013863832131094767,-0.03315474599986867,-0.08843765929686741,-0.039329155710235465,0.013080648424709487,0.021797979487043078,-0.15621325427704785
1392,6.0,299.85606,339.93892999999997,0.0,0.0,0.0,0.0,0.0,-0.013873798940678556,-0.013013084908041487,-0.06156024996577364,-0.028759611571102676,-0.01645265356500048,-0.014644956618094685,-0.16508450208257183
1393,6.0,299.56403,539.2617700000001,0.0,0.0,0.0,0.0,0.0,-0.0138837657502624,-0.06178397356135344,-0.07563612682420452,-0.026502013341295073,-0.002216896986540698,-0.0025890784403971474,-0.15725305152966784
1394,6.0,299.67076000000003,932.71325,0.0,0.0,0.0,0.0,0.0,-0.013893732559846217,-0.04284184353416076,-0.13958519192098587,-0.1010945077612511,0.011298669791841888,-0.015185428274435087,-0.14477462323564286
1395,6.0,299.92918,1003.3317,0.0,0.0,0.0,0.0,0.0,-0.013903699369430061,-0.047150452483887356,-0.14544681335198287,-0.1123905319570819,0.005544803658629515,0.003725252394828786,-0.14980398129950187
1396,6.0,299.66122,850.7687900000001,0.0,0.0,0.0,0.0,0.0,-0.01391366617901385,-0.044612057320117256,-0.1006989197234596,-0.11330149445948688,0.009585831495447911,-0.023254527519043177,-0.11868114321541688
1397,6.0,299.42481000000004,859.27081,0.0,0.0,0.0,0.0,0.0,-0.013923632988597695,-0.06926361456028654,-0.12804399970445887,-0.06388926003612903,0.005329632603168786,0.003226124382318687,-0.1322132401559309
1398,6.0,300.66806,769.32209,0.0,0.0,0.0,0.0,0.0,-0.013933599798181512,-0.03984024412692597,-0.11538769535537889,-0.07862676590510763,0.013504964129336185,0.02368734236550868,-0.14231216204761687
1399,6.0,300.27466,648.75398,0.0,0.0,0.0,0.0,0.0,-0.013943566607765356,-0.07242043476359043,-0.1045422918500209,-0.020242277840007282,-0.006367275686076183,0.004611092678229416,-0.15249482906006787
1400,6.0,300.86501,588.82083,0.0,0.0,0.0,0.0,0.0,-0.013953533417349145,0.004233040453293566,-0.0963028429721006,-0.08691702826229282,-0.0041404824884588055,0.0059677262456937245,-0.16261252647610683
1401,6.0,300.9011,453.0059,0.0,0.0,0.0,0.0,0.0,-0.013963500226932962,-0.027660270676356177,-0.06910982346010852,-0.04093238790621216,-0.011644871006509289,0.009582506312594741,-0.15351662085841086
1402,6.0,301.23289,738.71992,0.0,0.0,0.0,0.0,0.0,-0.013973467036516779,-0.03882939846941326,-0.1058819908672389,-0.07984102658644583,0.012791964351968589,0.036627663757368964,-0.15329037224358186
1403,6.0,302.5227,991.6769400000001,0.0,0.0,0.0,0.0,0.0,-0.013983433846100624,-0.07960794562619253,-0.11124197243872791,-0.1105951034423869,-0.00990509667210693,0.025563805556951178,-0.1268244620165999
1404,6.0,301.44133,1045.1960000000001,0.0,0.0,0.0,0.0,0.0,-0.01399340065568444,-0.06178779554073065,-0.13914479289752185,-0.1167808939778769,0.004409661902074746,0.01162869649516299,-0.1187033232601059
1405,6.0,300.23482,1007.2594,0.0,0.0,0.0,0.0,0.0,-0.014003367465268285,-0.08561862222640011,-0.13115092848608886,-0.08941217284554441,0.007740851403162554,0.015393705885490485,-0.13830268073941188
1406,6.0,300.12305,1162.392,0.0,0.0,0.0,0.0,0.0,-0.014013334274852046,-0.047465399999220254,-0.15104761407473885,-0.15482514217005186,0.013306443103493685,0.00958705205651837,-0.1151090313128769
1407,6.0,300.0611,854.87321,0.0,0.0,0.0,0.0,0.0,-0.01402330108443589,-0.04834010638654705,-0.12712391795115388,-0.08439608835799542,0.009745606648066492,-0.02039669918174748,-0.15039211218754586
1408,6.0,299.69972,677.6986099999999,0.0,0.0,0.0,0.0,0.0,-0.014033267894019708,-0.030271642138828474,-0.1010324745636289,-0.07469933961650083,-0.0035150912531624963,-0.038903917948017765,-0.11601166489945991
1409,6.0,299.72193,689.7925799999999,0.0,0.0,0.0,0.0,0.0,-0.014043234703603552,-0.052208376094565544,-0.1180321565263669,-0.03943918656509467,0.005286103581522805,0.007064884599724822,-0.16163236912437284
1410,6.0,298.61124,571.77453,0.0,0.0,0.0,0.0,0.0,-0.014053201513187369,-0.04503151145076416,-0.07368177509757502,-0.05509189234839645,-0.0006918637957141403,0.014586062469282285,-0.13273885351280487
1411,6.0,299.38498,647.55086,0.0,0.0,0.0,0.0,0.0,-0.014063168322771186,-0.006057117297340934,-0.12546603813753388,-0.06531614010520115,-0.010616883183804791,0.012022373543265887,-0.19223640289225583
1412,6.0,300.61757,836.5037,0.0,0.0,0.0,0.0,0.0,-0.014073135132355002,-0.007555570415051742,-0.12418897824149787,-0.12253168611293588,-0.008188542179646192,-0.025427825367030976,-0.15169435134856685
1413,6.0,300.90418,916.1786900000001,0.0,0.0,0.0,0.0,0.0,-0.01408310194193882,-0.08296982839798452,-0.1184679047318719,-0.07705770962175383,0.012374154726233988,0.012443358694813887,-0.16686171236046884
1414,6.0,301.10351,906.41635,0.0,0.0,0.0,0.0,0.0,-0.014093068751522636,-0.07149784825603824,-0.10825091893853389,-0.0957791699891681,0.01235252284984909,0.026098946504515476,-0.14106231804926686
1415,6.0,300.1363,927.2986199999999,0.0,0.0,0.0,0.0,0.0,-0.014103035561106453,-0.07941091306474693,-0.12491089867274588,-0.07755380902971502,0.0037382171325083063,-0.00964759415529341,-0.14121056667139786
1416,6.0,300.16852,1058.2197,0.0,0.0,0.0,0.0,0.0,-0.01411300237069027,-0.06721629004423134,-0.15007808571655387,-0.10437797308130391,-0.027753517043308872,-0.02531714907185808,-0.1018400551583309
1417,6.0,299.62297,896.0595400000001,0.0,0.0,0.0,0.0,0.0,-0.014122969180274114,-0.034034259245669864,-0.13109762139832787,-0.1072478418695379,-0.012844969491199789,0.0019286970446975782,-0.11320381714984688
1418,6.0,299.28416,798.4654099999999,0.0,0.0,0.0,0.0,0.0,-0.014132935989857931,-0.011686588539626489,-0.11200110954614889,-0.11902585089943689,-0.0013943442030610587,0.009403438371447111,-0.13943292069595786
1419,6.0,299.47213999999997,926.9540699999999,0.0,0.0,0.0,0.0,0.0,-0.01414290279944172,-0.08579931815648342,-0.11441607970198787,-0.08155548932540013,-0.008066580304859492,-0.03236069128075157,-0.1309651085502499
1420,6.0,299.59604,787.99245,0.0,0.0,0.0,0.0,0.0,-0.014152869609025565,-0.04059991927015007,-0.12882142597618487,-0.07010868236893823,-0.000984306580495996,-0.036351096129323864,-0.17346605624726683
1421,6.0,299.21463,563.4703,0.0,0.0,0.0,0.0,0.0,-0.014162836418609381,-0.05751819165360354,-0.0959933548483065,-0.017769354844698784,0.023173060184502978,0.019556906353116382,-0.16103829045824186
1422,6.0,300.26007999999996,799.84684,0.0,0.0,0.0,0.0,0.0,-0.014172803228193198,-0.057041227473780855,-0.1101093310794449,-0.07598290964442933,0.016979641902260183,0.05392221467145825,-0.15888803189102785
1423,6.0,300.45659,735.0355400000001,0.0,0.0,0.0,0.0,0.0,-0.014182770037777043,-0.01267528860295359,-0.1190953091937919,-0.09166184745957001,0.0028281524710169173,0.03071288722612597,-0.14244834286105687
1424,6.0,299.84398999999996,518.3969900000001,0.0,0.0,0.0,0.0,0.0,-0.01419273684736086,0.018963150913767282,-0.0906951166849111,-0.0858477738027656,-0.013806684677863687,0.007095135080135312,-0.14628536900224187
1425,6.0,300.71733,982.1839699999999,0.0,0.0,0.0,0.0,0.0,-0.014202703656944676,-0.08317177116941471,-0.12288875544817589,-0.0924988781684285,0.017254278275614685,0.008573719680610253,-0.1380370369606949
1426,6.0,301.23454,1161.3904,0.0,0.0,0.0,0.0,0.0,-0.014212670466528465,-0.10720289409510189,-0.13096232211247488,-0.1148684654741349,0.008927261182977082,0.011494599937178688,-0.12187777502839987
1427,6.0,300.58572000000004,969.4045,0.0,0.0,0.0,0.0,0.0,-0.01422263727611231,-0.08297901148364083,-0.15051788692245885,-0.06117786356353504,-0.018262462125114683,-0.01974835995951138,-0.14068180210671286
1428,6.0,300.29386,751.5591900000001,0.0,0.0,0.0,0.0,0.0,-0.014232604085696127,-0.024801878972004875,-0.11820067015049789,-0.08545267516477242,-0.01932469577469898,-0.032998564642704765,-0.12223695192384788
1429,6.0,300.48534,741.66075,0.0,0.0,0.0,0.0,0.0,-0.014242570895279943,0.009304722683104632,-0.13223931108100387,-0.1025117589146229,0.0005422751604583914,0.006587137988174904,-0.14385386260477087
1430,6.0,299.65704,615.5727,0.0,0.0,0.0,0.0,0.0,-0.014252537704863788,-0.012232582409011887,-0.09427079320130291,-0.08061535535261613,0.026451781467587577,0.009072710093756771,-0.13616161235060487
1431,6.0,299.39504,613.45411,0.0,0.0,0.0,0.0,0.0,-0.014262504514447605,-0.05088327395828816,-0.08234483141830212,-0.05324662510103275,0.0028296810601177776,-0.028127568450224873,-0.16859485639151683
1432,6.0,299.39564,714.4943099999999,0.0,0.0,0.0,0.0,0.0,-0.014272471324031422,-0.05921341074665865,-0.10901572011401389,-0.048959301496156855,0.002036444945756468,-0.028212936797650075,-0.17607834672757983
1433,6.0,299.84604,621.11083,0.0,0.0,0.0,0.0,0.0,-0.01428243813361521,-0.07128786331856433,-0.08297466160096152,-0.03453965826304887,0.005991739057163604,0.008050901374137102,-0.18635444553175182
1434,6.0,299.93747,835.3096400000001,0.0,0.0,0.0,0.0,0.0,-0.014292404943199055,-0.03368941983913686,-0.12837447122457388,-0.09184938282782831,0.018936292693366583,0.03745413741343557,-0.14850526824882887
1435,6.0,300.50928999999996,1158.4905,0.0,0.0,0.0,0.0,0.0,-0.014302371752782872,-0.07700626691417684,-0.12801789838188288,-0.14712802831540586,-0.02154465176329158,-0.00881875385096824,-0.11282731367768889
1436,6.0,301.0846,1160.4704,0.0,0.0,0.0,0.0,0.0,-0.014312338562366689,-0.05886062847259174,-0.14837556210352784,-0.14551782191899088,-0.022777983838011977,-0.006788750946697554,-0.0939376588599251
1437,6.0,300.50271000000004,657.11283,0.0,0.0,0.0,0.0,0.0,-0.014322305371950506,-0.03180025859744117,-0.1055016978397069,-0.06244393476223654,-0.017289753174865783,0.015766822062564183,-0.1233655301502299
1438,6.0,300.3229,837.07953,0.0,0.0,0.0,0.0,0.0,-0.01433227218153435,-0.06465205598966114,-0.1238888738268799,-0.06591034948059504,0.012556874116766988,0.04379449418543005,-0.13062754427943488
1439,6.0,300.92134,945.9417199999999,0.0,0.0,0.0,0.0,0.0,-0.01434223899111814,-0.1059818669295959,-0.12399578184493087,-0.05756501394072454,-0.014104567035012385,0.003526636528776927,-0.16089161237376584
1440,6.0,300.28873,667.26316,0.0,0.0,0.0,0.0,0.0,-0.014352205800701984,-0.009668365073068341,-0.1095053124298329,-0.08365766208261842,-0.002080397303294228,-0.01006528938509172,-0.16722604669892582
1441,6.0,299.69152,493.36422999999996,0.0,0.0,0.0,0.0,0.0,-0.0143621726102858,0.008600208267374471,-0.09406632338412331,-0.06450429068782784,0.015458785926163385,0.012652666781220989,-0.16747492118848784
1442,6.0,299.45326,486.50385,0.0,0.0,0.0,0.0,0.0,-0.014372139419869617,0.0028104994251246973,-0.08480502697910453,-0.06589049383163544,0.035285825769189864,0.002200373815834988,-0.15083578400883285
1443,6.0,299.71027000000004,746.9517400000001,0.0,0.0,0.0,0.0,0.0,-0.014382106229453434,-0.06664914863200884,-0.1108004183101499,-0.04960510657989286,0.030210926166336267,-0.04262198650096256,-0.19077752539827583
1444,6.0,299.02099999999996,960.54202,0.0,0.0,0.0,0.0,0.0,-0.014392073039037279,-0.09470596892050141,-0.10671694947964291,-0.09055787195886611,-0.006677724877590134,-0.04205692833094566,-0.1801286518823138
1445,6.0,300.32621,944.48322,0.0,0.0,0.0,0.0,0.0,-0.014402039848621095,-0.09259856070001642,-0.12944471664269888,-0.06505604083103134,0.017067815939212284,0.012644147374380186,-0.17381490812419584
1446,6.0,299.73976,636.1065,0.0,0.0,0.0,0.0,0.0,-0.014412006658204884,-0.0007907033234838422,-0.1088318354858659,-0.08373795607354283,-0.0018176940776924381,0.026728652057412577,-0.13570949002348387
1447,6.0,299.95695,683.62532,0.0,0.0,0.0,0.0,0.0,-0.014421973467788701,-0.045522676330738365,-0.097219797835597,-0.06506255298942404,-0.01121897969797709,0.008285955031010091,-0.1039783472418639
1448,6.0,299.78423,831.3106,0.0,0.0,0.0,0.0,0.0,-0.014431940277372546,-0.017473134217714084,-0.12271375702340488,-0.11251077434644889,-0.027167752094248376,-0.014952706004717186,-0.10181872624372591
1449,6.0,300.44948999999997,785.7285,0.0,0.0,0.0,0.0,0.0,-0.014441907086956363,-0.037647188915238265,-0.12186512966715189,-0.07932952780346483,-0.017340601104634087,0.016714984015890482,-0.11846925235450488
1450,6.0,299.18835,773.77753,0.0,0.0,0.0,0.0,0.0,-0.014451873896540207,-0.0055513803610535845,-0.14076431106235587,-0.08889335839684143,0.0038465189773968663,0.01334959337225229,-0.1772864042918058
1451,6.0,299.32491,836.7099900000001,0.0,0.0,0.0,0.0,0.0,-0.014461840706123996,-0.07269215095015673,-0.1061291630966329,-0.07551763127800994,0.005123068499357495,-0.024477569025747978,-0.18670891081423482
1452,6.0,298.03772000000004,853.2380699999999,0.0,0.0,0.0,0.0,0.0,-0.01447180751570784,-0.03056527188530747,-0.12111178835030287,-0.10768601174278189,0.0037475780435571563,-0.029220818698620272,-0.2009232493120808
1453,6.0,297.99516,784.94196,0.0,0.0,0.0,0.0,0.0,-0.01448177432529163,-0.07595362570328923,-0.09050012278266671,-0.07214900836655272,0.019716187242336182,-0.015837098049749882,-0.14955043572697885
1454,6.0,298.83475,819.41931,0.0,0.0,0.0,0.0,0.0,-0.014491741134875474,-0.041704297031143665,-0.1091140560362189,-0.09826466032546691,0.005351359522413064,0.015766713644803483,-0.14203054944732388
1455,6.0,299.6126,696.15951,0.0,0.0,0.0,0.0,0.0,-0.014501707944459291,-0.051731427113494356,-0.09118545677930391,-0.06869822404423684,-0.01113136396183009,-0.016314047030821087,-0.11486521294131388
1456,6.0,299.76723,583.65436,0.0,0.0,0.0,0.0,0.0,-0.014511674754043108,-0.04365958804061586,-0.0969479479000175,-0.036808815649997266,0.0027652405829079975,-0.002401547226464258,-0.13528265841885886
1457,6.0,300.78325,986.5632099999999,0.0,0.0,0.0,0.0,0.0,-0.014521641563626925,-0.058330116051484235,-0.12997640950017286,-0.1115840558049889,-0.007280557720610103,0.025337884221904475,-0.10825737334167089
1458,6.0,299.86053,1093.7402,0.0,0.0,0.0,0.0,0.0,-0.01453160837321077,-0.07309539611895392,-0.14865506714361287,-0.11071925697713988,-0.013463235450467887,0.018261777168047083,-0.13614006052097788
1459,6.0,299.44851,1021.3058,0.0,0.0,0.0,0.0,0.0,-0.014541575182794558,-0.07067182752276634,-0.1331036640788089,-0.1066759635130979,-0.02622458242416477,-0.008097515235712532,-0.13272273270371387
1460,6.0,300.17274,929.41134,0.0,0.0,0.0,0.0,0.0,-0.014551541992378403,-0.062112863398062344,-0.1290837969570789,-0.09132118264344902,-0.013925759803115488,-0.017746622578705285,-0.16076001145077784
1461,6.0,300.24216,759.65996,0.0,0.0,0.0,0.0,0.0,-0.014561508801962192,-0.03777012249687087,-0.13056698232095787,-0.06258055633947003,0.012895247974411887,-0.002818419089231307,-0.15092476763261486
1462,6.0,299.18681000000004,558.90854,0.0,0.0,0.0,0.0,0.0,-0.014571475611546036,-0.013155659329612488,-0.10674105469952189,-0.04999752415812145,0.009803664460246352,0.016569674832299586,-0.17235021457464184
1463,6.0,300.88742,569.19225,0.0,0.0,0.0,0.0,0.0,-0.014581442421129853,0.007174618268329693,-0.12000267465834188,-0.06019216981325465,-0.007642781864408842,-0.004428720832480715,-0.15597222234325986
1464,6.0,300.42334,421.77075,0.0,0.0,0.0,0.0,0.0,-0.014591409230713698,-0.005104330667908215,-0.06561915558735644,-0.05748429033175775,0.0066981156239275435,-0.004295567509014506,-0.16575169687591884
1465,6.0,301.6985,565.01168,0.0,0.0,0.0,0.0,0.0,-0.014601376040297515,-0.04009401666747136,-0.07786112373204462,-0.053794301978834246,0.0061877262484810345,0.013009133232651487,-0.12281994563388489
1466,6.0,300.7206,967.66264,0.0,0.0,0.0,0.0,0.0,-0.014611342849881304,-0.06384712099097024,-0.14706704079188684,-0.08323111925427192,0.015635645691368084,0.004946117541643796,-0.16562766493117784
1467,6.0,300.32059,1279.8054,0.0,0.0,0.0,0.0,0.0,-0.01462130965946512,-0.12233565261608888,-0.15067012774998384,-0.11602309436058789,-0.03466343284226447,-0.018086834472031584,-0.10930208485727588
1468,6.0,298.9789,1194.4714,0.0,0.0,0.0,0.0,0.0,-0.014631276469048965,-0.07651215854266212,-0.17393574833112183,-0.11264158493435888,-0.02124492630421098,0.0016345608758185984,-0.15707184188178386
1469,6.0,299.53942,862.3475300000001,0.0,0.0,0.0,0.0,0.0,-0.014641243278632782,-0.04077157498284116,-0.1208652038059669,-0.10049533346036722,-0.018049466821593682,0.0011983093889889288,-0.11927589062661388
1470,6.0,298.90272000000004,726.80174,0.0,0.0,0.0,0.0,0.0,-0.014651210088216626,-0.006688033177482483,-0.1167118713810649,-0.09752968011368,-0.004455646535338076,0.03012402882451017,-0.14558962082107688
1471,6.0,300.74241,683.48724,0.0,0.0,0.0,0.0,0.0,-0.014661176897800415,-0.06724920952673023,-0.08743226999114323,-0.053081573752493456,-0.016548280056438085,-0.021174210566481878,-0.12172342664066689
1472,6.0,300.12267,447.24210999999997,0.0,0.0,0.0,0.0,0.0,-0.01467114370738426,-0.005146052152700805,-0.0869851156292625,-0.04381926713712496,0.009823825806761121,0.0056416545614879545,-0.17301418723267084
1473,6.0,300.64087,480.55334000000005,0.0,0.0,0.0,0.0,0.0,-0.014681110516968049,-0.06037479902452875,-0.07079164536034142,-0.014909772571479985,0.015022592903864485,0.00996896912131065,-0.13958311475828086
1474,6.0,299.81411,702.6979,0.0,0.0,0.0,0.0,0.0,-0.014691077326551893,-0.01136487251362559,-0.12450053238224588,-0.07773721337731564,0.031457963461909266,-0.002131100135648208,-0.18098058243389284
1475,6.0,299.97231,1104.3574,0.0,0.0,0.0,0.0,0.0,-0.01470104413613571,-0.06501566281454635,-0.15000559780439987,-0.12067580709727488,0.0026471900561573173,-0.00946540591046283,-0.15047668817339285
1476,6.0,300.18132,1258.2106,0.0,0.0,0.0,0.0,0.0,-0.014711010945719527,-0.08647491279315943,-0.14924788937961989,-0.14674180777478887,-0.01026943871126469,0.007103286474539794,-0.15499093015141385
1477,6.0,299.23073,1009.7647,0.0,0.0,0.0,0.0,0.0,-0.014720977755303344,-0.1066790944559069,-0.13063059416223588,-0.06963358155604944,0.01071292612103349,0.0021202763954299877,-0.12553406774924789
1478,6.0,299.1091,654.61762,0.0,0.0,0.0,0.0,0.0,-0.014730944564887188,-0.03105811673394747,-0.1008473081741044,-0.06708198475672643,-0.012546596721002687,-0.0007415551612882964,-0.16044404967209483
1479,6.0,299.67613,724.68606,0.0,0.0,0.0,0.0,0.0,-0.014740911374470977,-0.07564606984743584,-0.11928170668218789,-0.025358685233207376,0.016476559174609787,-0.03790984157966006,-0.15693039216782387
1480,6.0,299.13838,796.23722,0.0,0.0,0.0,0.0,0.0,-0.014750878184054822,-0.013468136541201587,-0.14304836930527484,-0.08551972293713953,-0.009318149462829751,-0.018860554274891785,-0.17030301367509884
1481,6.0,300.12674,697.48708,0.0,0.0,0.0,0.0,0.0,-0.014760844993638611,-0.025802376306246273,-0.1024818680366729,-0.08373441172469302,-0.004752327785818235,0.010312493734513891,-0.14115391585830686
1482,6.0,300.18605,468.31260999999995,0.0,0.0,0.0,0.0,0.0,-0.014770811803222456,0.023211438045290578,-0.09136172581970033,-0.07420505189971843,-0.014116688545958685,-0.014586043217530384,-0.16101484385092785
1483,6.0,299.48902999999996,563.45053,0.0,0.0,0.0,0.0,0.0,-0.014780778612806272,-0.03095827917509427,-0.07149658574641364,-0.06882002481225764,-0.004624814212408626,-0.01053256456348319,-0.14011539530081288
1484,6.0,300.556,1008.584,0.0,0.0,0.0,0.0,0.0,-0.014790745422390117,-0.062091165660420944,-0.15541248272301786,-0.08908070530058111,0.02915619462049237,0.007354582429190773,-0.2057001358485228
1485,6.0,299.78566,1080.6351,0.0,0.0,0.0,0.0,0.0,-0.014800712231973934,-0.13979745768443488,-0.1146963345471469,-0.07399229774972123,0.03433488751058957,0.009430261837369381,-0.15442716792827485
1486,6.0,299.71054,1001.0635,0.0,0.0,0.0,0.0,0.0,-0.014810679041557723,-0.048463830303257655,-0.15023006309905285,-0.1056044211348449,0.005625516932445295,0.0006843578416233603,-0.1932218696745138
1487,6.0,300.05523,660.10908,0.0,0.0,0.0,0.0,0.0,-0.01482064585114154,-0.034653438143278065,-0.08846123256044391,-0.07754200567930013,0.002710264469582278,-0.027565958370298273,-0.12120679067967889
1488,6.0,299.41847,670.07079,0.0,0.0,0.0,0.0,0.0,-0.014830612660725384,-0.016026599123202184,-0.08356517565324072,-0.1040930167556809,-0.00924059256440048,0.01883292395791488,-0.13188545374858088
1489,6.0,299.34887000000003,968.4074099999999,0.0,0.0,0.0,0.0,0.0,-0.014840579470309201,-0.07320725285049334,-0.1061695816431219,-0.11499483802660689,-0.01013119147557075,0.01871451048497838,-0.09009204137114223
1490,6.0,299.65401,1078.2239,0.0,0.0,0.0,0.0,0.0,-0.014850546279893045,-0.1052247259248719,-0.11371942972823389,-0.1088089866961109,-0.028566602625804176,0.008389729978426881,-0.15413309235175185
1491,6.0,298.97278,796.5799099999999,0.0,0.0,0.0,0.0,0.0,-0.014860513089476834,-0.07204294843883544,-0.11788387750673288,-0.05221357913382905,-0.02596010692281308,-0.013443726333042487,-0.15230135908597386
1492,6.0,299.10703,543.03274,0.0,0.0,0.0,0.0,0.0,-0.014870479899060679,0.015230246352858287,-0.1153757390041989,-0.06492290179439153,0.013366518701922687,0.005587316795725235,-0.1928299648008358
1493,6.0,299.12641,862.3645,0.0,0.0,0.0,0.0,0.0,-0.014880446708644468,-0.04344914410084666,-0.11985850943411389,-0.0988296181837239,0.015055312776093687,0.01123550074085759,-0.15471883196955988
1494,6.0,299.42512999999997,1084.7838,0.0,0.0,0.0,0.0,0.0,-0.014890413518228313,-0.08385228918832663,-0.11201538624005788,-0.13387950968037887,0.0006962186331864293,-0.0030875215971646565,-0.13464731007615488
1495,6.0,300.27566,926.1958099999999,0.0,0.0,0.0,0.0,0.0,-0.01490038032781213,-0.056333004157384646,-0.13178549662621586,-0.0934219024000239,0.015917644339949185,0.00963314581681747,-0.15670018174510383
1496,6.0,300.94525,564.3591,0.0,0.0,0.0,0.0,0.0,-0.014910347137395946,-0.057489112388983646,-0.07817613710863403,-0.03588582384240507,0.00969904294237101,0.04567729525624806,-0.15867647540264884
1497,6.0,300.40392,617.90553,0.0,0.0,0.0,0.0,0.0,-0.014920313946979763,-0.03610362296465017,-0.1211656831231219,-0.030558543904643472,0.02042022076956888,0.031051891325333068,-0.17393476547852482
1498,6.0,300.94287,1162.8318,0.0,0.0,0.0,0.0,0.0,-0.014930280756563608,-0.06774943691559884,-0.15395454755163085,-0.13176784580947387,-0.013897258091052586,-0.008375255903398403,-0.16121201218788686
1499,6.0,300.16044,1208.3531,0.0,0.0,0.0,0.0,0.0,-0.014940247566147397,-0.1075806539973839,-0.13590676981795385,-0.12382173587525389,-0.037136093405797065,-0.02096991502831948,-0.13384201942667887
1500,6.0,299.60742999999997,653.69334,0.0,0.0,0.0,0.0,0.0,-0.014950214375731241,0.0066189109781856536,-0.11746563826295588,-0.08785972170482942,-0.027033330282981976,0.008195982475130493,-0.13946350058397586
1501,6.0,299.92184,405.5873,0.0,0.0,0.0,0.0,0.0,-0.01496018118531503,0.015607414517081884,-0.09756119016528982,-0.04133463705016106,-0.01875149411362838,0.013722154288271187,-0.14144484022701886
1502,6.0,299.05915,678.04638,0.0,0.0,0.0,0.0,0.0,-0.014970147994898875,-0.03769576007203186,-0.0981526475534121,-0.07026076006319713,-0.007223993641727664,0.015124649480436684,-0.15633496587905985
1503,6.0,299.67267999999996,1051.0697,0.0,0.0,0.0,0.0,0.0,-0.014980114804482692,-0.1065708185502209,-0.14308016509341287,-0.06984795183995614,-0.004712467540134335,0.015296265676373886,-0.18176177799599083
1504,6.0,299.90499,889.6202199999999,0.0,0.0,0.0,0.0,0.0,-0.014990081614066536,-0.02707224111332218,-0.11935157027658289,-0.12399851762020088,0.025104671539138177,0.02586261909094177,-0.18327550271788381
1505,6.0,301.0964,431.12875999999994,0.0,0.0,0.0,0.0,0.0,-0.015000048423650353,-0.03311995504443507,-0.08129437984088063,-0.016638041856296883,0.027568710357569876,0.007037817345828493,-0.14640188263124085
1506,6.0,301.25473,651.0207,0.0,0.0,0.0,0.0,0.0,-0.015010015233234142,-0.015394357405304787,-0.08659048612606561,-0.09590919328175042,0.021375274850075378,-0.029775982481410675,-0.12667431861678188
1507,6.0,302.17708,1224.0463,0.0,0.0,0.0,0.0,0.0,-0.015019982042817959,-0.13091465882777087,-0.13900347490607487,-0.1021613770300429,0.006250919516142724,-0.040212395689904465,-0.12560485340123387
1508,6.0,300.26241,1203.3711,0.0,0.0,0.0,0.0,0.0,-0.015029948852401803,-0.100196412521866,-0.15384373852069486,-0.11175460606182089,0.014916615049405287,0.0031728863982145067,-0.12391352620181288
1509,6.0,300.49519,812.22634,0.0,0.0,0.0,0.0,0.0,-0.01503991566198562,-0.038048602127854665,-0.14522456707504885,-0.06362335889188664,-0.015490069009750786,0.018010969397294282,-0.17426691899380584
1510,6.0,300.54883,526.8544400000001,0.0,0.0,0.0,0.0,0.0,-0.015049882471569465,0.015581399320764383,-0.1084979493129139,-0.06723404623898373,-0.011492816617002688,0.004972549285077405,-0.14974348013603087
1511,6.0,300.1855,694.73689,0.0,0.0,0.0,0.0,0.0,-0.015059849281153254,-0.037431048483406865,-0.11408066352138489,-0.05967095598831485,-0.009230049089159921,-0.0006334810747572144,-0.18104318102507083
1512,6.0,299.94012000000004,929.9712300000001,0.0,0.0,0.0,0.0,0.0,-0.015069816090737098,-0.06406193507842074,-0.095514953879842,-0.12311114358012389,0.013482113313080987,-0.015175710192725986,-0.12012876350078588
1513,6.0,300.1057,561.4533,0.0,0.0,0.0,0.0,0.0,-0.015079782900320887,-0.007739403164794622,-0.12514207168306088,-0.037786307140718164,0.0045165154072703655,-0.011901359057322689,-0.17351011236161482
1514,6.0,299.54614,305.5786,0.0,0.0,0.0,0.0,0.0,-0.015089749709904732,0.008002334270343903,-0.06502351043657084,-0.035867086821555864,-0.0074561037057351435,-0.027312226359756872,-0.13029013199613487
1515,6.0,299.57536,845.90705,0.0,0.0,0.0,0.0,0.0,-0.015099716519488549,-0.029338704268254676,-0.13800269791480588,-0.08979321871790072,0.008154390990325732,-0.010588733069526589,-0.1987764661927098
1516,6.0,299.16782,1432.3176,0.0,0.0,0.0,0.0,0.0,-0.015109683329072365,-0.12875990143011287,-0.18416236000040984,-0.12246651386650388,0.03304616510590257,0.008482211949504142,-0.14579386164373387
1517,6.0,299.37802,1153.2649,0.0,0.0,0.0,0.0,0.0,-0.015119650138656182,-0.08656773460832023,-0.14399660927885885,-0.11999939172801788,0.02180719904970298,-0.0057873816094200945,-0.16592139600266684
1518,6.0,301.26646,626.80497,0.0,0.0,0.0,0.0,0.0,-0.015129616948240027,-0.002134498171183568,-0.11957551881368489,-0.06882303923130514,0.004433587067410976,-0.02821616703896887,-0.13471221887756088
1519,6.0,300.42866000000004,408.30215,0.0,0.0,0.0,0.0,0.0,-0.015139583757823843,-0.024355279871178977,-0.06893355847271253,-0.030824820964672973,-0.0024410647909643376,-0.024984638892541874,-0.14008094479741287
1520,6.0,299.78811,854.3645,0.0,0.0,0.0,0.0,0.0,-0.015149550567407633,-0.06265721681553585,-0.1045966628503869,-0.09245159383926191,0.016738979804758684,0.005189179927307185,-0.1300267477651409
1521,6.0,300.14788,1155.077,0.0,0.0,0.0,0.0,0.0,-0.01515951737699145,-0.06894560601640154,-0.15439029575713586,-0.12777865990077186,-0.0024814069383957975,0.031500341634091676,-0.16810685487835483
1522,6.0,299.74294,915.39771,0.0,0.0,0.0,0.0,0.0,-0.015169484186575294,-0.042013911811200254,-0.13478528434227188,-0.10145885020570891,-0.04233848520248316,0.009935488804881402,-0.17120105723872883
1523,6.0,300.34234,535.8269799999999,0.0,0.0,0.0,0.0,0.0,-0.01517945099615911,-0.01993597030827708,-0.0950017437174421,-0.04794030728133995,-0.026288246954447973,0.0005936618353048615,-0.17187947884318386
1524,6.0,299.40561,801.25172,0.0,0.0,0.0,0.0,0.0,-0.015189417805742955,-0.04563367585269316,-0.12332759406648588,-0.07459924874512262,-0.02027363083785158,0.024389241988030774,-0.16197794820347886
1525,6.0,299.08558,1220.5118,0.0,0.0,0.0,0.0,0.0,-0.015199384615326772,-0.12222639385780588,-0.12587697184808988,-0.12290174531445788,0.039217159150182264,0.0005694188944722694,-0.13740105027042787
1526,6.0,299.89159,1075.1567,0.0,0.0,0.0,0.0,0.0,-0.015209351424910561,-0.061271648979540946,-0.15893276688294286,-0.1066163742747169,0.003794209535684327,-0.05256400864116375,-0.15113286893815286
1527,6.0,299.98438,577.7759900000001,0.0,0.0,0.0,0.0,0.0,-0.015219318234494378,0.005988351458104274,-0.1127209528146919,-0.06889687273959194,0.023887206960983773,-0.02559847492237277,-0.16240476967560286
1528,6.0,298.91287,553.87084,0.0,0.0,0.0,0.0,0.0,-0.015229285044078222,-0.04156489408238566,-0.07451718764602383,-0.05228082246346545,0.03098177745816337,0.005340771666818125,-0.1434520988076199
1529,6.0,300.69392999999997,1110.8044,0.0,0.0,0.0,0.0,0.0,-0.01523925185366204,-0.07531099918511693,-0.14309019626940286,-0.11925560535961188,0.018855373527130483,0.025560240943099374,-0.16437751695779784
1530,6.0,300.28007,1004.0015,0.0,0.0,0.0,0.0,0.0,-0.015249218663245856,-0.08004619149319403,-0.1097596483374339,-0.11538553713266589,-0.025895044107391876,-0.011921113381272289,-0.15344612904895386
1531,6.0,300.67017000000004,631.31005,0.0,0.0,0.0,0.0,0.0,-0.015259185472829673,-0.04463059169094646,-0.10483997459689991,-0.042431922060454666,-0.03567923531926637,-0.002145825800676518,-0.16382690672095684
1532,6.0,301.39865,554.38932,0.0,0.0,0.0,0.0,0.0,-0.015269152282413517,-0.018951323245349982,-0.10050871849418822,-0.049060469452391356,-0.025125251661919274,0.02209235093259528,-0.17112975482919185
1533,6.0,298.96887000000004,649.80012,0.0,0.0,0.0,0.0,0.0,-0.015279119091997306,-0.03165543476064817,-0.09926570481476231,-0.06660187240884304,-0.003224754164208457,0.014473039486877786,-0.17237589033217582
1534,6.0,300.18605,1001.4809,0.0,0.0,0.0,0.0,0.0,-0.015289085901581123,-0.06231048769756634,-0.13966696120405586,-0.10244773164080391,-0.01098062781070359,-0.00888559410971486,-0.16154837069108285
1535,6.0,300.98928,1003.2827,0.0,0.0,0.0,0.0,0.0,-0.015299052711164968,-0.05842329554393035,-0.11658298596834488,-0.12996661137170587,-0.004230531646045966,0.015962515107377586,-0.14618104477194588
1536,6.0,299.20265,503.55110999999994,0.0,0.0,0.0,0.0,0.0,-0.015309019520748784,-0.03680229133260336,-0.06720909799502153,-0.049055575454408355,0.028042875940616375,0.03967039301266296,-0.1397790975926229
1537,6.0,299.6602,718.31974,0.0,0.0,0.0,0.0,0.0,-0.015318986330332601,-0.06309938497367444,-0.1021572632346369,-0.05309461529453055,0.02352127979336958,0.01824600896999088,-0.13516096708184888
1538,6.0,300.68164,1318.0391,0.0,0.0,0.0,0.0,0.0,-0.015328953139916418,-0.09964176245687631,-0.16837849709766384,-0.13263071946213287,0.001063693439003369,-0.03328177209865517,-0.17049167071121782
1539,6.0,300.11397999999997,1273.4197,0.0,0.0,0.0,0.0,0.0,-0.015338919949500263,-0.1093395852434769,-0.16096808235881285,-0.11678012390780089,0.003298709363832267,-0.027592206614138772,-0.14586149608790885
1540,6.0,301.48214,859.3385300000001,0.0,0.0,0.0,0.0,0.0,-0.015348886759084052,-0.06251852212859774,-0.1157164443503239,-0.08298249503748463,-0.00010156285019597291,0.018788743213804582,-0.17168778205676483
1541,6.0,300.8059,393.43592,0.0,0.0,0.0,0.0,0.0,-0.015358853568667868,0.017850026777910484,-0.06773087214726664,-0.06971385021572134,-0.011124742372426591,0.002120264641728828,-0.15813911847711587
1542,6.0,300.61692,420.30697000000004,0.0,0.0,0.0,0.0,0.0,-0.015368820378251685,-0.005194055990763415,-0.09086446421387441,-0.03170430279972107,-0.02974246619460287,-0.025013692825909276,-0.17028091469041784
1543,6.0,300.611,852.8820699999999,0.0,0.0,0.0,0.0,0.0,-0.01537878718783553,-0.033494387433388666,-0.11952166457086988,-0.10623880688995391,-0.019949463759858784,-0.004104413723324096,-0.14797665567165885
1544,6.0,300.23961,1014.4931,0.0,0.0,0.0,0.0,0.0,-0.015388753997419347,-0.07606659194368813,-0.14439405663058386,-0.08791993814502233,0.013777392630722788,0.027134310787947976,-0.17254193162606282
1545,6.0,300.39877,749.57029,0.0,0.0,0.0,0.0,0.0,-0.015398720807003191,-0.057967116163408945,-0.1046766690782829,-0.06520686310841634,-0.0009967492005314871,-0.00979054793770185,-0.15156533421333385
1546,6.0,301.28926,626.95234,0.0,0.0,0.0,0.0,0.0,-0.01540868761658698,-0.028586240425992268,-0.09587065228769671,-0.06612096364638104,0.005568269213720385,-0.04589037769927766,-0.15985850257180584
1547,6.0,300.43146,1004.8676,0.0,0.0,0.0,0.0,0.0,-0.015418654426170797,-0.037564827894109865,-0.15363880868796986,-0.11425103139319889,-0.011709613634898888,-0.03174016881351077,-0.14168986436620087
1548,6.0,300.25836,1189.2617,0.0,0.0,0.0,0.0,0.0,-0.015428621235754614,-0.1167717544619749,-0.11698343254036588,-0.12775066380050887,0.01873474610272548,0.043245470698245664,-0.1259628549265659
1549,6.0,299.85308,884.5032199999999,0.0,0.0,0.0,0.0,0.0,-0.015438588045338458,-0.07347280442345124,-0.1156906470027779,-0.07970343634211673,-0.017909862236065784,0.02829464325921387,-0.15764094393294986
1550,6.0,299.97218,496.39647,0.0,0.0,0.0,0.0,0.0,-0.015448554854922275,-0.017638412534275786,-0.1047180198148639,-0.028535694444753772,0.012809650632464089,-0.0011135973236534988,-0.19421570590259782
1551,6.0,300.18315,563.4707099999999,0.0,0.0,0.0,0.0,0.0,-0.015458521664506092,-0.03714700306962376,-0.08721524397872442,-0.046918776901522755,-0.0013283919567020786,-0.020472153890194283,-0.16873375271522484
1552,6.0,300.29937,931.6220400000001,0.0,0.0,0.0,0.0,0.0,-0.015468488474089881,-0.04030663504195516,-0.14876845996230384,-0.09411474255340191,0.03580231075591297,0.01183034947706459,-0.17999080933870984
1553,6.0,300.55006000000003,890.1357800000001,0.0,0.0,0.0,0.0,0.0,-0.015478455283673725,-0.04478294701573276,-0.1065735239279879,-0.11922257340635188,0.01164538979056049,-0.001997046843443178,-0.14823619968477386
1554,6.0,302.22017999999997,635.69795,0.0,0.0,0.0,0.0,0.0,-0.015488422093257542,-0.014760938290791184,-0.11800694686387889,-0.060468416241018036,-0.035617227452896666,-0.01815919471467298,-0.15966915652561883
1555,6.0,301.77992,615.71587,0.0,0.0,0.0,0.0,0.0,-0.015498388902841387,2.065291162853368e-05,-0.11823654933653889,-0.06894635683472564,-0.018379293914645083,0.0063639799888009245,-0.13877858404637985
1556,6.0,300.46134,1067.3996,0.0,0.0,0.0,0.0,0.0,-0.015508355712425176,-0.09078611870289231,-0.14568263718025684,-0.08799407360183892,-0.007105552507063432,0.05187684268834575,-0.16451725427908884
1557,6.0,300.28002999999995,1323.8759,0.0,0.0,0.0,0.0,0.0,-0.01551832252200902,-0.13487982057660186,-0.16326867684336382,-0.1042767291313119,0.025417190293981377,0.01809745130657938,-0.14790854499993686
1558,6.0,299.88304,927.62942,0.0,0.0,0.0,0.0,0.0,-0.015528289331592837,-0.03945233652489247,-0.13428480972037887,-0.1082390335148609,-0.008888147702616882,-0.04244641153688466,-0.18679172374490782
1559,6.0,299.42258,484.91655999999995,0.0,0.0,0.0,0.0,0.0,-0.015538256141176682,0.005897235449486823,-0.09656089953406881,-0.056738861484939646,0.03061518255873327,-0.02080863600990248,-0.14275402015122485
1560,6.0,299.86212,663.15001,0.0,0.0,0.0,0.0,0.0,-0.01554822295076047,-0.025474477428135175,-0.12298811475298188,-0.05311845706938354,0.034863721989531464,0.03162576173146967,-0.16599290106222386
1561,6.0,300.51185,983.1749900000001,0.0,0.0,0.0,0.0,0.0,-0.015558189760344288,-0.05792800470954894,-0.1147661373465359,-0.12616650806416488,0.012765674564873987,0.02341853724647968,-0.13438777619554088
1562,6.0,301.07376,841.42792,0.0,0.0,0.0,0.0,0.0,-0.015568156569928104,-0.07814472534228392,-0.1219048794685749,-0.05572346633447795,-0.045899444261172456,-0.02470377204432248,-0.18221841941855782
1563,6.0,301.24597,555.55058,0.0,0.0,0.0,0.0,0.0,-0.015578123379511949,-0.05015749507065936,-0.08724539120894972,-0.03147061895565827,-0.030671767510567768,-0.027862849768849177,-0.16213584296656183
1564,6.0,299.91162,586.71223,0.0,0.0,0.0,0.0,0.0,-0.015588090189095766,-0.02050205084764488,-0.10042260844768981,-0.05742120943353214,-0.015792891974387085,0.012224200804184687,-0.17754638400246384
1565,6.0,299.48821,1076.4499,0.0,0.0,0.0,0.0,0.0,-0.01559805699867961,-0.06257799788296754,-0.16645831723065685,-0.09817758971787371,0.0015787433596098385,-0.029274874578205174,-0.14933263761798385
1566,6.0,299.18116000000003,1247.8802,0.0,0.0,0.0,0.0,0.0,-0.015608023808263372,-0.0918985538286811,-0.13844934869138686,-0.14897652073783785,-0.007219774670961284,-0.037931833159830466,-0.12981463398920687
1567,6.0,299.02727000000004,840.3642199999999,0.0,0.0,0.0,0.0,0.0,-0.015617990617847216,-0.02338738385890508,-0.12580280194076987,-0.1062595481195009,-0.005851262063299605,0.03428818782673067,-0.1076405269457929
1568,6.0,298.55162,440.23689,0.0,0.0,0.0,0.0,0.0,-0.015627957427431033,-0.04873124524314945,-0.08310699814352213,-0.001982777444934898,0.029069022687889176,0.06843680551843684,-0.14264773021573485
1569,6.0,299.84712,818.75185,0.0,0.0,0.0,0.0,0.0,-0.015637924237014877,-0.08098445297979322,-0.08714005271530362,-0.08075561145795833,0.02283853262423768,0.02088277957271988,-0.16251344074882784
1570,6.0,300.02765,1250.8589,0.0,0.0,0.0,0.0,0.0,-0.015647891046598694,-0.11254906506772788,-0.16255840878826586,-0.1051224079297739,-0.00975741293690668,-0.043642673856696554,-0.1932985220445788
1571,6.0,300.73464,1007.3389,0.0,0.0,0.0,0.0,0.0,-0.01565785785618251,-0.05810564265083044,-0.1326436789309119,-0.11545655583217489,0.019949869059898782,-0.04770497285286425,-0.14850639295643986
1572,6.0,300.73667,656.1663,0.0,0.0,0.0,0.0,0.0,-0.0156678246657663,0.0012124464570341486,-0.11916088674026389,-0.08150972993763402,0.007777522342831692,-0.006128484757534354,-0.16283139863020785
1573,6.0,300.11433999999997,667.66562,0.0,0.0,0.0,0.0,0.0,-0.015677791475350145,-0.009079669500743612,-0.11942641906146988,-0.07444758648340473,-0.002252315549086238,-0.03913307155088346,-0.15732683640194983
1574,6.0,299.89892000000003,924.3813,0.0,0.0,0.0,0.0,0.0,-0.01568775828493396,-0.09182874292329131,-0.1000509614832611,-0.08910912797913623,-0.017298615060240385,-0.03374265599939087,-0.15974515028311884
1575,6.0,300.30787999999995,1116.9141,0.0,0.0,0.0,0.0,0.0,-0.015697725094517806,-0.06755870575652513,-0.17154088105726684,-0.10041441530738121,0.004149533851602106,0.024990039515574877,-0.15857742007287284
1576,6.0,299.39252999999997,807.2620400000001,0.0,0.0,0.0,0.0,0.0,-0.015707691904101595,-0.035888582922427366,-0.13518067479629386,-0.07431824612138983,0.02826512120430027,0.048027338372179255,-0.17354373199993284
1577,6.0,300.4587,659.80398,0.0,0.0,0.0,0.0,0.0,-0.01571765871368544,-0.015663336803350986,-0.12479168979848088,-0.06010891105253765,0.014992885424182588,-0.01897083844227598,-0.15365843534240686
1578,6.0,300.00139,761.14184,0.0,0.0,0.0,0.0,0.0,-0.015727625523269256,-0.009639384195033152,-0.14520989521360086,-0.07651883788732133,0.008537106698846832,-0.05336442150465835,-0.16801633111442082
1579,6.0,299.64286,894.2637699999999,0.0,0.0,0.0,0.0,0.0,-0.0157375923328531,-0.05271748968681115,-0.1086090319213769,-0.11050733571872488,0.0028180735709472074,-0.013348298438624487,-0.12205970408385489
1580,6.0,300.0487,786.78479,0.0,0.0,0.0,0.0,0.0,-0.01574755914243689,-0.06361779817533784,-0.1096505314341649,-0.06589459648129034,-0.005908122821811324,0.04181763412107916,-0.14754725041177985
1581,6.0,300.82142000000005,577.51991,0.0,0.0,0.0,0.0,0.0,-0.015757525952020707,-0.02170825112443758,-0.1184550567206039,-0.03538832412280567,-0.03620371383602836,-0.0032717620787477775,-0.1973597095053868
1582,6.0,298.79117,612.9685400000001,0.0,0.0,0.0,0.0,0.0,-0.015767492761604524,-0.046398299709405656,-0.08547723634719642,-0.05445159427895395,-0.015621254500197785,-0.006619104002329703,-0.1981472277481088
1583,6.0,299.57672,914.19609,0.0,0.0,0.0,0.0,0.0,-0.015777459571188368,-0.06855350761195445,-0.1260448775221609,-0.08329440381576762,0.005574317303567285,0.019461102542911283,-0.17522165390053085
1584,6.0,299.46991,939.6233,0.0,0.0,0.0,0.0,0.0,-0.015787426380772185,-0.06581328620051563,-0.11525132202441989,-0.1045574196740139,0.034685252169917864,0.016824294449928587,-0.13893874848968685
1585,6.0,298.98152999999996,727.95911,0.0,0.0,0.0,0.0,0.0,-0.01579739319035603,-0.03630024921280567,-0.09694786278700909,-0.08803328131445841,-0.0053814037051031945,-0.04167116476612376,-0.12185986076663188
1586,6.0,299.95743999999996,631.9173,0.0,0.0,0.0,0.0,0.0,-0.01580735999993979,-0.047570697962862354,-0.0975259858038154,-0.04699039747159116,-0.017955223416542584,-0.038412558524024365,-0.12796617196427787
1587,6.0,299.54954,873.55555,0.0,0.0,0.0,0.0,0.0,-0.015817326809523635,-0.04178046912066126,-0.12233929018394789,-0.1014193131868069,0.005958211725929714,0.016798451506128086,-0.15077487754532187
1588,6.0,299.14077000000003,1181.8208,0.0,0.0,0.0,0.0,0.0,-0.015827293619107452,-0.07834181160598483,-0.17396311621632282,-0.1069390842990659,0.02351074300557968,0.05379516932091986,-0.16510608430970183
1589,6.0,300.0399,1099.0773,0.0,0.0,0.0,0.0,0.0,-0.015837260428691297,-0.07065140242725053,-0.16230975721372584,-0.1011308935723421,-0.016223735036157986,0.015576583343039086,-0.18334344113708884
1590,6.0,300.30719,547.2421400000001,0.0,0.0,0.0,0.0,0.0,-0.015847227238275113,0.0038655148836466164,-0.1161052081486919,-0.054108256509069155,-0.02179529741402838,-0.016503934152561482,-0.16985100280548884
1591,6.0,300.58299,192.6778,0.0,0.0,0.0,0.0,0.0,-0.01585719404785893,0.022047162004635478,-0.07746585689453483,-0.003150546563984737,0.013200533136791188,0.02717941054989897,-0.15920750964755784
1592,6.0,300.50307000000004,686.97252,0.0,0.0,0.0,0.0,0.0,-0.01586716085744272,-0.03347616717009047,-0.08153799657567372,-0.09380833065691141,0.01037088328477649,0.02722819651571377,-0.15229329361517785
1593,6.0,300.05945,1100.6936,0.0,0.0,0.0,0.0,0.0,-0.015877127667026564,-0.06286759590729864,-0.15009595944831786,-0.12161980155293987,0.0014439399583557786,-0.024799273905997773,-0.18910178198539282
1594,6.0,298.75198,892.52771,0.0,0.0,0.0,0.0,0.0,-0.01588709447661038,-0.05017176061881725,-0.14550411264513785,-0.07563026111937564,-0.025768607720163577,-0.03392304390144377,-0.19178334837504282
1595,6.0,299.91314,573.29786,0.0,0.0,0.0,0.0,0.0,-0.015897061286194225,-0.01045503978508209,-0.09415840147371073,-0.06965479090714263,-0.005044303705484016,-0.003259789110266137,-0.18235923078495483
1596,6.0,299.84632999999997,640.99216,0.0,0.0,0.0,0.0,0.0,-0.015907028095778014,-0.025833314884799678,-0.11737980584698489,-0.05163249134723016,0.0010799719098099289,0.016576231573696684,-0.14357418531216884
1597,6.0,300.48839,952.55795,0.0,0.0,0.0,0.0,0.0,-0.01591699490536186,-0.07145178894624253,-0.1116316988246909,-0.1064703446703049,-0.017745286101823382,-0.029192701008345274,-0.12371636799735489
1598,6.0,299.0832,1063.9744,0.0,0.0,0.0,0.0,0.0,-0.015926961714945675,-0.07629634640386312,-0.15481699563924786,-0.09230829595711951,-0.009303224491506772,-0.02213875170767468,-0.12049801210222788
1599,6.0,299.50482,793.9571,0.0,0.0,0.0,0.0,0.0,-0.01593692852452952,-0.02192511704334058,-0.13221820508142088,-0.08719981015320122,0.019453888202199284,0.037979761916060666,-0.15557085371364784
1600,6.0,299.55913,715.01711,0.0,0.0,0.0,0.0,0.0,-0.01594689533411331,-0.05955143300651885,-0.10890442472302991,-0.04889148466696386,0.030592361126730968,0.056680788068708236,-0.16738083078420185
1601,6.0,300.12872000000004,933.9195699999999,0.0,0.0,0.0,0.0,0.0,-0.015956862143697126,-0.06788244017672523,-0.14443458663458386,-0.07157120249702772,0.010505726608084489,0.0012713013930676787,-0.19511054759591182
1602,6.0,299.74716,1195.3059,0.0,0.0,0.0,0.0,0.0,-0.015966828953280943,-0.1301937009841179,-0.12529691656334288,-0.10785251913171488,-0.013852417721127186,0.002994707482704617,-0.16680785811765383
1603,6.0,300.93566,911.3443699999999,0.0,0.0,0.0,0.0,0.0,-0.015976795762864787,-0.07465868092973814,-0.0996293329178996,-0.1027379163369429,0.0014969199689844985,0.0006126523004015744,-0.13748582890629488
1604,6.0,299.62667000000005,418.0502,0.0,0.0,0.0,0.0,0.0,-0.015986762572448604,0.01347615134949259,-0.07047266105661014,-0.07008031237938835,-0.005761006911967115,0.006017370738318254,-0.13764401751190689
1605,6.0,299.60382000000004,890.405,0.0,0.0,0.0,0.0,0.0,-0.01599672938203245,-0.02876887571676697,-0.14007566576439187,-0.1018163451059909,-0.017306383648757084,-0.026336566825216772,-0.16243298869088785
1606,6.0,299.85165,1213.8886,0.0,0.0,0.0,0.0,0.0,-0.01600669619161621,-0.08674786717134793,-0.16805072082281486,-0.11419322547499389,-0.019615409387390183,-0.03488855168323197,-0.16187088819791284
1607,6.0,299.90821,966.1075800000001,0.0,0.0,0.0,0.0,0.0,-0.016016663001200054,-0.06363147097218724,-0.15323660919327586,-0.07680450044826402,0.010745873974535188,0.02323817771542958,-0.18077347411345282
1608,6.0,300.61407,681.79788,0.0,0.0,0.0,0.0,0.0,-0.01602662981078387,-0.032996779296028574,-0.11236166446173289,-0.06189109132217515,0.008074201566811653,0.037875096220480964,-0.15767040924585785
1609,6.0,301.73452000000003,648.96925,0.0,0.0,0.0,0.0,0.0,-0.016036596620367716,-0.019762244525631682,-0.1136245185913669,-0.06388368817382914,-0.013342179421270589,-0.005152398239402115,-0.17492191425594883
1610,6.0,301.2704,893.7848,0.0,0.0,0.0,0.0,0.0,-0.016046563429951533,-0.012961010945652187,-0.13678556162968386,-0.12194168071220689,-0.023381767413600776,-0.03876767228657137,-0.16876048225286283
1611,6.0,301.33539,1186.4796,0.0,0.0,0.0,0.0,0.0,-0.01605653023953535,-0.07705519574825573,-0.14934668126436987,-0.13425829296526187,-0.0013869697688332588,-0.02140486276624548,-0.17226835409906285
1612,6.0,300.45675,1007.0996,0.0,0.0,0.0,0.0,0.0,-0.01606649704911914,-0.07190753465572114,-0.1419363881155309,-0.09228921645773651,0.013711726931492089,0.014360794680550088,-0.18161063147857384
1613,6.0,299.97914,682.45003,0.0,0.0,0.0,0.0,0.0,-0.016076463858702983,-0.035177728195521465,-0.1158161886901679,-0.05645384943056114,-0.03147902487848787,-0.008662414933413793,-0.2056300493391058
1614,6.0,300.58436,740.14074,0.0,0.0,0.0,0.0,0.0,-0.0160864306682868,-0.04367602599698816,-0.1135911725305759,-0.06771710511815793,-0.013369405451457587,-0.02372279092025718,-0.16570944434674884
1615,6.0,299.93115,994.87965,0.0,0.0,0.0,0.0,0.0,-0.016096397477870644,-0.07198174610629524,-0.13284272178055587,-0.09759410559478832,-0.015149179252107585,0.025565125821831475,-0.14707236035491186
1616,6.0,299.63477,952.15856,0.0,0.0,0.0,0.0,0.0,-0.016106364287454433,-0.03358928539800436,-0.12158634403463789,-0.13425680348761487,0.021409926990245277,0.03533357011390187,-0.13639033329567787
1617,6.0,300.3718,679.3055,0.0,0.0,0.0,0.0,0.0,-0.016116331097038278,-0.02009359048058298,-0.11665804753575289,-0.06974026868557863,-0.027572354004929474,-0.018417211759887284,-0.16991404722671083
1618,6.0,300.06146,691.08988,0.0,0.0,0.0,0.0,0.0,-0.016126297906622095,-0.02239893913460318,-0.10472346096790089,-0.08295166892969233,0.0026441632754585975,-0.012404675845746187,-0.14759833848182186
1619,6.0,299.54761,897.0736099999999,0.0,0.0,0.0,0.0,0.0,-0.01613626471620594,-0.04019432944062146,-0.14668825750700384,-0.08580538955108262,0.022530232029560778,0.020598996590712678,-0.18183212795043383
1620,6.0,299.42363,1078.7867,0.0,0.0,0.0,0.0,0.0,-0.016146231525789728,-0.07626628428664622,-0.12423134222817889,-0.12742659602102588,0.030945982371880672,0.03657572759699326,-0.13457997960700988
1621,6.0,299.52282,936.6285,0.0,0.0,0.0,0.0,0.0,-0.016156198335373545,-0.04057269323996306,-0.14347308321719088,-0.1006658979027006,-7.356021446982793e-05,-0.016676816911123684,-0.18081036654959382
1622,6.0,300.02859,513.25681,0.0,0.0,0.0,0.0,0.0,-0.016166165144957362,0.009179463692492533,-0.09283642724049201,-0.07236029026415464,-0.01841025174495038,-0.04529587144160446,-0.15155210116702786
1623,6.0,299.43945,532.88298,0.0,0.0,0.0,0.0,0.0,-0.016176131954541206,-0.018716657561940284,-0.0970643561510061,-0.04620210713229296,0.013434292974611487,-0.007688646934160373,-0.1882574001470588
1624,6.0,298.90931,999.28226,0.0,0.0,0.0,0.0,0.0,-0.016186098764125023,-0.08825501286034161,-0.12600609030833287,-0.08949575179329301,0.01828661496774838,-0.007164994317554884,-0.16508693388281184
1625,6.0,299.32261,1189.1798,0.0,0.0,0.0,0.0,0.0,-0.016196065573708868,-0.1033536785552139,-0.15802806626615587,-0.10009922663852451,-0.004286544820849036,-0.02256324777081918,-0.2079032455409528
1626,6.0,299.57725,834.3470599999999,0.0,0.0,0.0,0.0,0.0,-0.01620603238329263,-0.07037244352896943,-0.1163360265214719,-0.06691219646396963,-0.04819567467754275,-0.0070229228733335244,-0.15839481213985085
1627,6.0,300.12248999999997,564.7862200000001,0.0,0.0,0.0,0.0,0.0,-0.016215999192876474,-0.008588557816399662,-0.1076494536791739,-0.05544289839503805,-0.01995863873951428,0.028232472259578072,-0.17854869100138385
1628,6.0,300.04728,912.6360599999999,0.0,0.0,0.0,0.0,0.0,-0.01622596600246029,-0.02111867128875058,-0.14525491391554385,-0.11104498648678689,0.00047477424238156953,0.034773795029906365,-0.14590960520265686
1629,6.0,300.39835,1054.1886,0.0,0.0,0.0,0.0,0.0,-0.016235932812044135,-0.08084332953236542,-0.13083212960712587,-0.1087715673699179,-0.009044988178970832,-0.006750560233203424,-0.16780322435338885
1630,6.0,300.4935,893.7044800000001,0.0,0.0,0.0,0.0,0.0,-0.01624589962162795,-0.05258491097747665,-0.13953996043652186,-0.07953897166538533,0.01998384333575178,-0.012309738364376589,-0.17025796457565284
1631,6.0,300.38591,480.64224,0.0,0.0,0.0,0.0,0.0,-0.01625586643121177,-0.010091268205730631,-0.09165123569127272,-0.044360735831563754,0.00994951897504107,0.024560370810669876,-0.1777768781352118
1632,6.0,301.03893999999997,564.22812,0.0,0.0,0.0,0.0,0.0,-0.016265833240795557,-0.02071784170819178,-0.1058217632812949,-0.04497165775410705,0.018865940712423382,0.028029081553754973,-0.17653356960000682
1633,6.0,300.87523,1230.9544,0.0,0.0,0.0,0.0,0.0,-0.016275800050379402,-0.08643825543104161,-0.16692832342204286,-0.12081282890829788,-0.0024655913202349176,-0.013803475714796988,-0.17174106887952384
1634,6.0,300.85384,1404.6148,0.0,0.0,0.0,0.0,0.0,-0.01628576685996322,-0.1276081704389459,-0.14996393296028787,-0.14939572256920985,-0.012947087876028088,-0.001065069128664139,-0.17183954665674284
1635,6.0,299.80692999999997,849.15695,0.0,0.0,0.0,0.0,0.0,-0.016295733669547036,-0.06296896550030304,-0.12349439529794787,-0.07165915463220794,0.014691870097724685,-0.0015979961247599385,-0.16471203134581186
1636,6.0,299.81942000000004,557.30103,0.0,0.0,0.0,0.0,0.0,-0.016305700479130852,-0.0035942247687473666,-0.0963531001770606,-0.06945827206349774,0.008261715859467873,-0.03077140748565147,-0.17683132327439283
1637,6.0,299.75006,926.9822,0.0,0.0,0.0,0.0,0.0,-0.016315667288714697,-0.052191275472627856,-0.14085379117868688,-0.08873437337665081,0.01204613831111129,-0.03023198150341427,-0.16563633835203384
1638,6.0,299.89631,1182.8189,0.0,0.0,0.0,0.0,0.0,-0.016325634098298514,-0.0992655102707431,-0.13446721500338085,-0.1258146873644429,-0.007746855619280122,-0.016148928807775183,-0.16378592075441184
1639,6.0,300.07332,824.2957200000001,0.0,0.0,0.0,0.0,0.0,-0.016335600907882303,-0.004587918533867306,-0.13846319982025387,-0.1075141949233249,-0.008141836517611701,0.05876137657229635,-0.14990017926399585
1640,6.0,299.62868,443.31798,0.0,0.0,0.0,0.0,0.0,-0.016345567717466147,0.006903363921158974,-0.11222183594793289,-0.02943912241941517,-0.02259132797084048,0.05551355637751145,-0.16931970511555383
1641,6.0,299.86186000000004,734.18238,0.0,0.0,0.0,0.0,0.0,-0.016355534527049964,-0.035176653137165365,-0.12774203090965688,-0.06025442288614854,-0.010986131785246791,0.007238359197670433,-0.1812128396218148
1642,6.0,299.83921000000004,1186.3032,0.0,0.0,0.0,0.0,0.0,-0.01636550133663378,-0.07471094133014583,-0.14978884334300785,-0.13610676512269188,0.003698093543123416,-0.014141076462615587,-0.16636832035677485
1643,6.0,300.75979,1156.1128,0.0,0.0,0.0,0.0,0.0,-0.016375468146217598,-0.07432576139738152,-0.15638520281901785,-0.12071844466148289,0.032528794538592073,-0.02100077558661518,-0.17310198535383584
1644,6.0,300.21092000000004,854.03167,0.0,0.0,0.0,0.0,0.0,-0.016385434955801442,-0.027926072522088775,-0.11509919265440588,-0.11657903429295488,0.009529936566931511,-0.03343438276246667,-0.15353234649996286
1645,6.0,300.78411,776.10314,0.0,0.0,0.0,0.0,0.0,-0.01639540176538526,-0.04596709187759875,-0.1033679552491229,-0.08658093016437252,-0.027021897782103677,-0.04612791797322105,-0.17199331749191885
1646,6.0,299.58237,1032.6449,0.0,0.0,0.0,0.0,0.0,-0.016405368574969048,-0.0990127671922993,-0.12201364173430888,-0.09287184337123731,-0.02144044810975748,-0.007683492834876702,-0.15556905012846986
1647,6.0,299.40377,1147.758,0.0,0.0,0.0,0.0,0.0,-0.016415335384552893,-0.10875251826803789,-0.1292388647523829,-0.1108983793298179,-0.01121571095315449,0.03854582523017676,-0.14965110212441385
1648,6.0,299.00154,927.5553,0.0,0.0,0.0,0.0,0.0,-0.01642530219413671,-0.04126847485838136,-0.14716976408702487,-0.09351541018550241,0.014727715846512385,0.013721357873692587,-0.16756703575507884
1649,6.0,299.23547,655.9465799999999,0.0,0.0,0.0,0.0,0.0,-0.016435269003720526,0.006939633208488474,-0.14088609359187487,-0.06544492115316085,-0.007467586261168382,-0.02023921985120548,-0.16575815127905585
1650,6.0,299.79052,654.99622,0.0,0.0,0.0,0.0,0.0,-0.01644523581330437,-0.0014224608800859585,-0.1066252908755969,-0.091054748529654,0.002443212070576258,-0.01810993454781138,-0.17162169788524284
1651,6.0,300.08837,971.9885800000001,0.0,0.0,0.0,0.0,0.0,-0.016455202622888188,-0.04158824443094016,-0.14849198454001786,-0.1053800267676989,0.019166092749796082,0.01859729366040998,-0.15009735773345587
1652,6.0,300.75985,921.10649,0.0,0.0,0.0,0.0,0.0,-0.016465169432471977,-0.06978097803484634,-0.12165474854888887,-0.08855765141345971,0.001095315860049259,0.03093941752448277,-0.15791865552035786
1653,6.0,300.14949,761.44289,0.0,0.0,0.0,0.0,0.0,-0.016475136242055793,-0.05523159217943375,-0.1180319437438459,-0.05819609447400735,-0.024224064996479076,-0.002191274728611978,-0.16923893895008282
1654,6.0,300.4878,769.68907,0.0,0.0,0.0,0.0,0.0,-0.016485103051639638,-0.06021296778480724,-0.10918249094797289,-0.06457080447739223,-0.02172918487150358,-0.018133636494150587,-0.17155792392394884
1655,6.0,300.19732,796.20065,0.0,0.0,0.0,0.0,0.0,-0.016495069861223455,-0.06345002422377984,-0.08872427127315381,-0.08985082198608572,0.004452084454611526,-0.00986386803216298,-0.15116850494416986
1656,6.0,299.50392,1058.3847,0.0,0.0,0.0,0.0,0.0,-0.01650503667080727,-0.04822668418360316,-0.15938984400305284,-0.11410599477388489,0.011046015879406889,-0.017702520868102783,-0.17104256465808684
1657,6.0,299.35352,1018.0980000000001,0.0,0.0,0.0,0.0,0.0,-0.01651500348039109,-0.07868586270394001,-0.13289244196296288,-0.09789807454528772,0.003289883347511207,-0.04195835733471746,-0.17687725390142583
1658,6.0,298.69075,670.3603,0.0,0.0,0.0,0.0,0.0,-0.016524970289974933,-0.03089446265729607,-0.11638776307157789,-0.05649056353468455,0.005421051877541165,-0.005240784045625115,-0.16317769711688485
1659,6.0,299.51675,651.06601,0.0,0.0,0.0,0.0,0.0,-0.016534937099558722,-0.02047951008592028,-0.12292461436921487,-0.054503681413594546,0.01196383200548829,0.03964352972601176,-0.17786225458863783
1660,6.0,299.49782999999996,879.3990699999999,0.0,0.0,0.0,0.0,0.0,-0.016544903909142566,-0.035198164436788366,-0.1176004106587569,-0.1145167764969259,0.008230457397857901,0.047599988996753155,-0.17593731244616082
1661,6.0,299.52959,927.65901,0.0,0.0,0.0,0.0,0.0,-0.016554870718726356,-0.04463674313230356,-0.14698426839121784,-0.09036416691074892,0.0004461647205080296,0.014111295015676387,-0.16945760845416385
1662,6.0,298.61717000000004,676.11512,0.0,0.0,0.0,0.0,0.0,-0.0165648375283102,0.005333847520934765,-0.12130853112221988,-0.08954743565439383,-0.00837787464828185,-0.001024925375602259,-0.15764103512545885
1663,6.0,300.04597,547.06695,0.0,0.0,0.0,0.0,0.0,-0.016574804337894017,-0.042835663721800865,-0.07326954037389062,-0.050189488442566856,-0.0003788358016356826,-0.004829556796515145,-0.14056109362229988
1664,6.0,298.8086,821.29396,0.0,0.0,0.0,0.0,0.0,-0.01658477114747786,-0.05473321599849785,-0.12865690455744788,-0.06626273557387284,-0.026368737515891773,-0.027811679625549077,-0.18426628906316683
1665,6.0,300.38176,1059.8229,0.0,0.0,0.0,0.0,0.0,-0.016594737957061678,-0.08795277251451282,-0.14854568679531785,-0.08566124256535643,-0.015129552597670586,-0.006467530399995554,-0.18797888809207183
1666,6.0,299.88691,921.7457099999999,0.0,0.0,0.0,0.0,0.0,-0.016604704766645467,-0.06340981440681144,-0.13955433845544088,-0.07722353104036914,-0.013437413784919488,0.02182886841634158,-0.2064945441919248
1667,6.0,299.57453,804.23006,0.0,0.0,0.0,0.0,0.0,-0.016614671576229284,-0.06198952451638975,-0.1173586390523959,-0.06511769811286644,0.024702546011701475,0.028814926920561874,-0.16165974714207484
1668,6.0,300.2317,886.8715300000001,0.0,0.0,0.0,0.0,0.0,-0.01662463838581313,-0.017944886239022382,-0.13734427786732487,-0.11429763076529789,-0.0018869678592042282,-0.001064688653251589,-0.1828208979280178
1669,6.0,300.28924,1015.5003,0.0,0.0,0.0,0.0,0.0,-0.016634605195396945,-0.06056267180507034,-0.14846727137007887,-0.09965679604861,0.00835967120493531,-0.016620977711362783,-0.14708951467910486
1670,6.0,300.48277,972.22879,0.0,0.0,0.0,0.0,0.0,-0.01664457200498079,-0.04252233740662796,-0.13814809930415586,-0.11486284193607989,0.01901612058924498,-0.0018511538251446585,-0.17060489127739184
1671,6.0,300.13142,716.7257599999999,0.0,0.0,0.0,0.0,0.0,-0.01665453881456455,-0.025367779152854875,-0.13049011716837186,-0.062008837063295734,0.03868679871658976,0.004799277235826785,-0.15251908626746186
1672,6.0,298.91879,565.9759,0.0,0.0,0.0,0.0,0.0,-0.016664505624148396,-0.005699004821122984,-0.0975158249318126,-0.06882771132751624,-0.005920143615697684,0.00943829660668735,-0.17907551012587683
1673,6.0,299.32881000000003,1096.2702,0.0,0.0,0.0,0.0,0.0,-0.016674472433732213,-0.08098359374370842,-0.14672005329514187,-0.1055351148280049,-0.005226568450697145,-0.02176041425283568,-0.16979866843782385
1674,6.0,299.89351,1234.4725,0.0,0.0,0.0,0.0,0.0,-0.016684439243316057,-0.08739927654138702,-0.15924133193589585,-0.1286081976251409,-0.008243371574357432,-0.011338837052306091,-0.17670074573400582
1675,6.0,299.31834,774.05762,0.0,0.0,0.0,0.0,0.0,-0.016694406052899874,-0.08420572703520822,-0.08702928218787141,-0.06405918106464893,0.025918205991427773,-0.024134776384416978,-0.15951658132556085
1676,6.0,300.75806,752.04855,0.0,0.0,0.0,0.0,0.0,-0.01670437286248369,-0.037072022562223764,-0.1261520895152419,-0.06537987252324104,-0.014526618125665589,-0.027385354645974077,-0.1865951836230108
1677,6.0,300.33218999999997,1082.5269,0.0,0.0,0.0,0.0,0.0,-0.016714339672067507,-0.07848709241857292,-0.15706539761114785,-0.09350865890008611,-0.011849417830696488,-0.017372202348752884,-0.1853898415690528
1678,6.0,300.50895,1084.7837,0.0,0.0,0.0,0.0,0.0,-0.016724306481651352,-0.08490183998640922,-0.15009662819338387,-0.09474868045196672,-0.01145601638662079,0.012982941730816589,-0.1903716072757148
1679,6.0,301.07682,946.16505,0.0,0.0,0.0,0.0,0.0,-0.01673427329123514,-0.039557599024781065,-0.14757152788417585,-0.10048141950999401,0.027402107723127473,0.033364060165776366,-0.15866341460885985
1680,6.0,299.7504,510.13783,0.0,0.0,0.0,0.0,0.0,-0.016744240100818986,0.004035979115545127,-0.1024432733403639,-0.05666186460984064,-0.011551144359009188,0.023339678017696878,-0.16803937242169484
1681,6.0,300.14677,587.80287,0.0,0.0,0.0,0.0,0.0,-0.016754206910402775,0.007592946374140461,-0.1104154339346549,-0.07585490879904663,0.00027181959887150574,-0.029358235677182272,-0.13498832952981088
1682,6.0,300.72218,1084.5374,0.0,0.0,0.0,0.0,0.0,-0.01676417371998662,-0.03289198897068657,-0.16130759206981987,-0.13547271374011588,-0.002042557478309728,-0.019095651602844085,-0.17510640683415685
1683,6.0,299.17687,1181.6822,0.0,0.0,0.0,0.0,0.0,-0.016774140529570436,-0.09123629558982131,-0.12411771636196488,-0.14384788442918087,0.026364906417263675,-0.01192234751989409,-0.14841017472694387
1684,6.0,299.38749,910.7307800000001,0.0,0.0,0.0,0.0,0.0,-0.01678410733915428,-0.048866558714503856,-0.13468896478776587,-0.09328389773640391,0.014152258690719186,-0.025571446475955273,-0.20123665770051183
1685,6.0,300.04322,745.78548,0.0,0.0,0.0,0.0,0.0,-0.016794074148738097,-0.03141742535190847,-0.1134671000558309,-0.08181563926207493,-0.013515683302144086,-0.016270138850987683,-0.18179195258396882
1686,6.0,299.79915,874.56168,0.0,0.0,0.0,0.0,0.0,-0.016804040958321886,-0.05849547542805394,-0.14124843182763486,-0.06610100565916134,-0.03288662685115737,0.016158256788195786,-0.17915523264374483
1687,6.0,299.44822,977.9564300000001,0.0,0.0,0.0,0.0,0.0,-0.016814007767905703,-0.07669243701370423,-0.12950830821897488,-0.0910735899152635,-0.02296517672773648,0.02210724368256508,-0.15098160083072384
1688,6.0,300.24837,742.46723,0.0,0.0,0.0,0.0,0.0,-0.016823974577489548,-0.01778953270719018,-0.1257554426310959,-0.08214652520148083,-0.014557304404944085,0.01040559014045179,-0.16497026826629785
1689,6.0,300.85262,460.69822999999997,0.0,0.0,0.0,0.0,0.0,-0.016833941387073365,-0.001074258800446089,-0.10047599862195901,-0.03849049974821656,-0.007482730905113043,-0.015274364275462386,-0.17782259597972383
1690,6.0,301.51367,720.28422,0.0,0.0,0.0,0.0,0.0,-0.01684390819665721,-0.012578784636929387,-0.11460558786819089,-0.09176404285140591,0.014660172594846387,-0.0008378299504048782,-0.1861715234911988
1691,6.0,300.46387999999996,1027.8222,0.0,0.0,0.0,0.0,0.0,-0.016853875006240998,-0.07308888396056124,-0.11508670941317388,-0.12425670387818187,0.0073493551732498824,-0.0015999082290236483,-0.16701253463785384
1692,6.0,300.10142,1141.2943,0.0,0.0,0.0,0.0,0.0,-0.016863841815824843,-0.08759055688201492,-0.15542915068716287,-0.1039052513796499,0.0007659343031993302,-0.0013943216075838285,-0.16526013885490584
1693,6.0,299.36567,932.6930699999999,0.0,0.0,0.0,0.0,0.0,-0.01687380862540863,-0.07228355683408164,-0.11201527478254689,-0.09921657333066342,-0.0028153271565511573,-0.003186345601942827,-0.15871797812674485
1694,6.0,299.76169,711.32037,0.0,0.0,0.0,0.0,0.0,-0.016883775434992476,-0.026724910124793274,-0.1154790905143989,-0.07401962915791864,-0.002295859870808728,0.002240250172195478,-0.15388812900757584
1695,6.0,299.74481000000003,910.93353,0.0,0.0,0.0,0.0,0.0,-0.016893742244576293,-0.06804679035619535,-0.13147621216569186,-0.07737805066736902,-0.017242614753713584,-0.003911778262012456,-0.16504511705118485
1696,6.0,300.13801,1134.1794,0.0,0.0,0.0,0.0,0.0,-0.01690370905416011,-0.058708319757310036,-0.15086166241638685,-0.13519222584743387,-0.009674383373362301,-0.026431972428132576,-0.17708090703902482
1697,6.0,299.68121,925.61405,0.0,0.0,0.0,0.0,0.0,-0.016913675863743927,-0.05681201003615886,-0.15432618742330884,-0.07022536622395402,-0.022655587278932375,-0.03341730341878107,-0.18852909302887283
1698,6.0,300.80422000000004,653.9438299999999,0.0,0.0,0.0,0.0,0.0,-0.01692364267332777,-0.023745995360797276,-0.1179655251997909,-0.057071074781976545,0.002036314439143588,0.002039048187913388,-0.17415293849005684
1699,6.0,301.10433,676.08819,0.0,0.0,0.0,0.0,0.0,-0.01693360948291156,-0.02129548343120058,-0.11451711086945889,-0.06970133455048613,0.0066177437140704535,0.019987726110134982,-0.15315917662063386
1700,6.0,300.875,915.0668800000001,0.0,0.0,0.0,0.0,0.0,-0.016943576292495405,-0.023591687503068275,-0.16538042177427684,-0.08918536896966062,-0.015636056057658585,0.005710121897245155,-0.19006497753045282
1701,6.0,300.55517000000003,1098.5553,0.0,0.0,0.0,0.0,0.0,-0.016953543102079194,-0.062352741239986444,-0.14216515972310886,-0.12941547424481287,0.004534413457036765,0.0009314571980701681,-0.16435802202587382
1702,6.0,300.43747,960.94511,0.0,0.0,0.0,0.0,0.0,-0.01696350991166304,-0.026954867234988272,-0.16712962581940985,-0.09801882457295481,0.014989487996597287,0.002333881776836198,-0.2083932431568118
1703,6.0,299.37057999999996,692.88265,0.0,0.0,0.0,0.0,0.0,-0.016973476721246855,-0.023999564238072577,-0.11644648091487289,-0.07017298220703413,0.02041696013074708,-0.006646370258545675,-0.16275376340754585
1704,6.0,299.38837,904.70121,0.0,0.0,0.0,0.0,0.0,-0.0169834435308307,-0.05389640516491105,-0.13524320245996488,-0.08586697286566042,-0.03051543416588887,-0.026770453690288076,-0.17721074490683883
1705,6.0,300.13666,1248.5672,0.0,0.0,0.0,0.0,0.0,-0.016993410340414516,-0.1080631434300019,-0.17466022215262184,-0.09680988041489132,-0.003664206710754047,-0.020482927778507583,-0.14434316107806086
1706,6.0,300.49607000000003,1013.4033,0.0,0.0,0.0,0.0,0.0,-0.017003377149998306,-0.1023296474741499,-0.10434669405071689,-0.1013729468622309,-0.01066282495658889,-0.007666522618226873,-0.15109609809202385
1707,6.0,300.37537000000003,685.7975700000001,0.0,0.0,0.0,0.0,0.0,-0.017013343959582122,-0.036992627324138064,-0.09817691185355681,-0.07329579976348223,0.025717076859827874,-0.0013564268644439088,-0.13873681787725786
1708,6.0,300.47718,736.2486299999999,0.0,0.0,0.0,0.0,0.0,-0.017023310769165967,0.0016810882058354883,-0.14382554226447586,-0.08165674746089352,0.0014107291664531287,-0.034613495824336066,-0.2033111960877528
1709,6.0,300.27117999999996,1167.5232,0.0,0.0,0.0,0.0,0.0,-0.017033277578749784,-0.08298462691569503,-0.15166964831112886,-0.12024361539962088,0.008114484236462242,-0.02044864851437448,-0.17233835954847182
1710,6.0,299.77643,1108.3243,0.0,0.0,0.0,0.0,0.0,-0.017043244388333628,-0.07843482796516482,-0.14630160126884384,-0.1121664719624689,0.01882659114478988,0.006343546483309295,-0.19171526810082382
1711,6.0,300.02614,638.45628,0.0,0.0,0.0,0.0,0.0,-0.017053211197917417,-0.01811539900560068,-0.10814434529301589,-0.06781502155482154,0.011999286639737388,0.017227698698991482,-0.15001831409315486
1712,6.0,299.4229,490.37704,0.0,0.0,0.0,0.0,0.0,-0.017063178007501262,-0.005132135871852375,-0.09506656841908982,-0.04886367297821905,-0.02244561247395948,0.023076764947999377,-0.17179919903776084
1713,6.0,299.46488999999997,989.1791699999999,0.0,0.0,0.0,0.0,0.0,-0.01707314481708505,-0.05063285831532405,-0.16535839371710284,-0.08469451179069751,-0.013785676963540385,0.0014168916522363188,-0.17921963482010084
1714,6.0,300.72194,1326.2699,0.0,0.0,0.0,0.0,0.0,-0.017083111626668895,-0.08843633295248651,-0.17639859455418583,-0.13831800108092387,-0.0027956563244097973,-0.0062393219568231345,-0.2041441687299608
1715,6.0,300.82522,1032.4263,0.0,0.0,0.0,0.0,0.0,-0.017093078436252712,-0.08005233077554992,-0.13149518020756387,-0.1022843146646759,0.01153061692523329,-0.01966624313165708,-0.17120059114368286
1716,6.0,300.71991,640.15746,0.0,0.0,0.0,0.0,0.0,-0.01710304524583653,-0.019143868122102684,-0.13145929088902186,-0.04398872308384896,-0.008874595178554351,-0.05054666011606695,-0.1954855919879258
1717,6.0,300.4604,708.3549,0.0,0.0,0.0,0.0,0.0,-0.017113012055420346,-0.026606916137398177,-0.10723145761542088,-0.08148382721207763,-0.0033225179040819864,-0.010023514907318901,-0.16211667227466986
1718,6.0,300.68622,1097.7189,0.0,0.0,0.0,0.0,0.0,-0.01712297886500419,-0.07452689154223152,-0.1443381657550679,-0.11481408434126789,-0.0039061525961322464,0.015609816933068987,-0.16750085025854686
1719,6.0,300.0343,1053.0217,0.0,0.0,0.0,0.0,0.0,-0.01713294567458798,-0.06539820931030073,-0.13789454359913186,-0.1167995377797169,0.002420452446830058,0.014112777400572684,-0.17688133729932884
1720,6.0,299.86364,694.8127099999999,0.0,0.0,0.0,0.0,0.0,-0.017142912484171824,0.020230436999338682,-0.13868182879433086,-0.09275432257163892,0.004566635620816845,0.008718548482328742,-0.19572808300185782
1721,6.0,299.70845,624.72376,0.0,0.0,0.0,0.0,0.0,-0.017152879293755613,0.019784392146317484,-0.1294863510893079,-0.08019846069172183,0.013074255829828588,0.006013705508731524,-0.17672625937152384
1722,6.0,299.65761000000003,1116.0512,0.0,0.0,0.0,0.0,0.0,-0.017162846103339457,-0.06685157371048664,-0.1326332931173869,-0.13976682713391186,0.018748340879317184,0.017170562539102586,-0.16137897553936484
1723,6.0,299.22737,1313.5185,0.0,0.0,0.0,0.0,0.0,-0.017172812912923274,-0.13713938856460386,-0.13538105513606988,-0.12675637160987988,-0.0025511224969511875,0.00047232975625031753,-0.12960946097645787
1724,6.0,300.04561,824.5419099999999,0.0,0.0,0.0,0.0,0.0,-0.01718277972250712,-0.07973613493609383,-0.10771725024336488,-0.06318676563579824,-0.003912881894021376,0.0006212679052068684,-0.15683331267574285
1725,6.0,299.6775,645.55238,0.0,0.0,0.0,0.0,0.0,-0.017192746532090936,-0.040131303257901256,-0.10984479174333689,-0.04625570907583305,-0.026042533805197974,-0.007550447219896122,-0.18139505238729783
1726,6.0,300.11787999999996,945.13085,0.0,0.0,0.0,0.0,0.0,-0.017202713341674725,-0.044796416149312054,-0.15376056081998585,-0.08873919644712681,-0.012418644511624789,0.02956659130849537,-0.17635484241486782
1727,6.0,299.64749,1161.9546,0.0,0.0,0.0,0.0,0.0,-0.01721268015125854,-0.1093085493929139,-0.14061674131779187,-0.1032798835504309,-0.021852180261392278,-0.010803930165514888,-0.1899958029461258
1728,6.0,300.01093,981.8488800000001,0.0,0.0,0.0,0.0,0.0,-0.017222646960842386,-0.050294589835689546,-0.13826741963593187,-0.10989552517584389,0.01092958635016619,-0.010852218625530591,-0.16666580045363383
1729,6.0,300.38155,486.98769000000004,0.0,0.0,0.0,0.0,0.0,-0.017232613770426203,-0.017425346303247786,-0.09743352571894032,-0.03317322464194237,-0.003921805081027027,0.008503407925696023,-0.17961235029385883
1730,6.0,300.72552,530.36173,0.0,0.0,0.0,0.0,0.0,-0.017242580580010047,0.026252934175212878,-0.10643278348909789,-0.08103687144721652,0.03070371832597107,0.0041825457425101265,-0.15444805101283585
1731,6.0,300.54762,983.8192300000001,0.0,0.0,0.0,0.0,0.0,-0.017252547389593836,-0.04863856123000225,-0.14331325314641685,-0.10710466963040789,0.008152603515824322,-0.002377969200612288,-0.19169141619346983
1732,6.0,300.3231,1191.0482,0.0,0.0,0.0,0.0,0.0,-0.01726251419917768,-0.03205563713939507,-0.17854235818825884,-0.15145092814454286,0.000989449625221075,-0.02026885842988058,-0.18979959719676184
1733,6.0,300.18649,851.39751,0.0,0.0,0.0,0.0,0.0,-0.01727248100876147,-0.039591663479892965,-0.13960158630760386,-0.07961033689642852,0.017715330375866985,-0.0028677292093228376,-0.1954121009581728
1734,6.0,300.31325,595.05794,0.0,0.0,0.0,0.0,0.0,-0.017282447818345315,-0.015461887484719484,-0.11054284000222889,-0.054878023623289245,-0.006978654787064603,0.003432722531333337,-0.17057574007201481
1735,6.0,299.1908,853.2284300000001,0.0,0.0,0.0,0.0,0.0,-0.01729241462792913,-0.1090313950930609,-0.09902843811834591,-0.05130030034169545,-0.005966176074365734,-0.018939812724213984,-0.15281545178921085
1736,6.0,299.45372000000003,1271.9179,0.0,0.0,0.0,0.0,0.0,-0.017302381437512948,-0.11517911782229388,-0.14136272643891487,-0.13008943754882787,-0.03853148875451186,-0.04227100983857386,-0.16539447555316383
1737,6.0,299.93708,1041.1374,0.0,0.0,0.0,0.0,0.0,-0.017312348247096765,-0.08225369565130772,-0.14650365347128486,-0.08772241010427782,0.0016047127570228185,0.015795941857188085,-0.18092766038116984
1738,6.0,299.39668,586.08474,0.0,0.0,0.0,0.0,0.0,-0.01732231505668061,-0.013382629378512687,-0.1119362412747469,-0.05283624969128185,0.03342792025332887,0.015470725052091685,-0.18064029252030883
1739,6.0,299.79632000000004,634.56615,0.0,0.0,0.0,0.0,0.0,-0.0173322818662644,-0.027528839979384972,-0.08973126050078592,-0.07563216197656322,0.026777524149485876,0.003153819159157717,-0.18905414909819182
1740,6.0,300.4244,833.83508,0.0,0.0,0.0,0.0,0.0,-0.017342248675848215,-0.036914236216901465,-0.10163749633083989,-0.11491331192356088,0.014773950448575384,-0.0003862176731192167,-0.16465946393062383
1741,6.0,300.44754,905.58232,0.0,0.0,0.0,0.0,0.0,-0.017352215485432032,-0.04826157950379705,-0.1312930773426179,-0.09571976110930491,0.006740126492948693,0.005049116542134005,-0.17354966964551882
1742,6.0,300.49683999999996,845.90498,0.0,0.0,0.0,0.0,0.0,-0.017362182295015877,-0.0035306152579445966,-0.13712814148849387,-0.11647522682020989,0.012742728503109388,0.011181978844075388,-0.13688688663968387
1743,6.0,300.92701,792.04931,0.0,0.0,0.0,0.0,0.0,-0.017372149104599693,-0.030109521109578367,-0.13625323042464688,-0.07440046022125373,0.0015072948394084186,-0.005204286067748045,-0.1812419401646868
1744,6.0,300.20587,1104.4262,0.0,0.0,0.0,0.0,0.0,-0.01738211591418351,-0.07246058277230273,-0.15515865344046686,-0.10809876930351789,-0.012427395952738488,-0.024095473426288077,-0.16572169454045785
1745,6.0,300.12815,1445.8059,0.0,0.0,0.0,0.0,0.0,-0.017392082723767355,-0.12776015795394588,-0.18226651840080482,-0.12946220533942487,-0.024911129624287077,-0.004183570644986276,-0.18593788828314084
1746,6.0,299.87297,1178.2512,0.0,0.0,0.0,0.0,0.0,-0.017402049533351144,-0.09535136363794691,-0.14996463210285685,-0.1128429379942309,0.015527103300905785,0.003090615455019997,-0.14884430173228885
1747,6.0,300.32004,773.04732,0.0,0.0,0.0,0.0,0.0,-0.01741201634293496,-0.06276840682850944,-0.11312718504478389,-0.05909148940187594,0.015016970379059587,0.013856482880528386,-0.16982920779583785
1748,6.0,300.11737999999997,859.73097,0.0,0.0,0.0,0.0,0.0,-0.017421983152518805,-0.01034264805748989,-0.14908674208371586,-0.1019073552299729,0.012108956777560988,-0.007667517427175053,-0.19542012589896482
1749,6.0,298.94245,855.6990699999999,0.0,0.0,0.0,0.0,0.0,-0.017431949962102622,-0.02775197791640697,-0.15867199683720687,-0.07368717774710823,-0.003942177386212616,0.006908619041477613,-0.21204557406976882
1750,6.0,298.8809,774.14462,0.0,0.0,0.0,0.0,0.0,-0.01744191677168644,-0.011211195910708889,-0.12862992170728488,-0.0954795164708446,0.0062648047915380934,0.01423761386589309,-0.2021651696946488
1751,6.0,298.6501,722.97504,0.0,0.0,0.0,0.0,0.0,-0.017451883581270256,-0.016427023403720983,-0.14115700627111188,-0.062182327771917935,-0.006615412428240374,0.01010487848504886,-0.19228696407224583
1752,6.0,299.54906,667.84003,0.0,0.0,0.0,0.0,0.0,-0.0174618503908541,-0.012830894434060687,-0.1049590010861469,-0.08521679358124273,-0.00991075668716553,-0.007332619827973233,-0.17090800504480685
1753,6.0,300.56235,966.5674,0.0,0.0,0.0,0.0,0.0,-0.01747181720043789,-0.05897967826659104,-0.14560571123266486,-0.08922696896576622,-0.02002146936496518,0.013504836459823588,-0.14059815831095787
1754,6.0,300.3441,1233.2758,0.0,0.0,0.0,0.0,0.0,-0.017481784010021706,-0.06598542118050404,-0.15643228855116487,-0.15246734971735584,-0.004764401066059775,-0.0011687652452231489,-0.1381333970452049
1755,6.0,300.23098999999996,1209.2732,0.0,0.0,0.0,0.0,0.0,-0.01749175081960555,-0.11330872906520088,-0.15153395385773685,-0.1027461743252579,0.001965780579807438,-0.021869359916837777,-0.16721355332519283
1756,6.0,300.19937000000004,982.1862699999999,0.0,0.0,0.0,0.0,0.0,-0.017501717629189367,-0.06375553331443123,-0.14423393271728085,-0.09057063181737542,0.03213134009411637,-0.031179180869145572,-0.16655774746296984
1757,6.0,300.6761,676.31268,0.0,0.0,0.0,0.0,0.0,-0.017511684438773184,-0.05760999109941345,-0.09371043549849992,-0.05426174160771695,0.012573733585180887,-0.016161685626534184,-0.2069892939507528
1758,6.0,300.15532,840.60587,0.0,0.0,0.0,0.0,0.0,-0.017521651248356973,-0.025272072614659375,-0.1313663758548519,-0.0988847440554144,0.0023350359700251076,0.005608328259073906,-0.14805974217985884
1759,6.0,299.3439,910.8476800000001,0.0,0.0,0.0,0.0,0.0,-0.017531618057940818,-0.06180862289653615,-0.12731788441779687,-0.08774844353909711,-0.005502136102218555,-0.00932986901746138,-0.1879361390703528
1760,6.0,299.3381,788.06233,0.0,0.0,0.0,0.0,0.0,-0.017541584867524634,-0.007199257876311433,-0.13771426614133986,-0.09463774983101872,0.012645723991535789,-0.0024545576345959778,-0.17669685485362183
1761,6.0,300.27873999999997,713.65708,0.0,0.0,0.0,0.0,0.0,-0.01755155167710845,-0.03367929139113727,-0.12169596756295688,-0.06155867030886775,0.0022119308451505775,0.025493900419302076,-0.2136330937964448
1762,6.0,300.61257,911.4939199999999,0.0,0.0,0.0,0.0,0.0,-0.017561518486692268,-0.027122747577806774,-0.14525953433599986,-0.1046891117895109,0.015852453855015384,0.013663069648439986,-0.17331923630777685
1763,6.0,301.18352000000004,1168.628,0.0,0.0,0.0,0.0,0.0,-0.017571485296276113,-0.07789878319851133,-0.17990328479507184,-0.0974316775507579,-0.009900838285911661,0.011679660948692789,-0.1835459796995778
1764,6.0,301.15037,1134.4468,0.0,0.0,0.0,0.0,0.0,-0.01758145210585993,-0.052641798891091045,-0.17163966280951584,-0.1205620596410489,-0.009806295769431041,-0.016311116711531883,-0.18261556279525282
1765,6.0,300.57018,851.9631800000001,0.0,0.0,0.0,0.0,0.0,-0.017591418915443774,-0.05080475923453936,-0.12479596571390289,-0.08337481027745312,0.0025898051433688677,-0.0015635316385085585,-0.15758941003286384
1766,6.0,300.90815,613.24927,0.0,0.0,0.0,0.0,0.0,-0.017601385725027535,-0.0007457156573914053,-0.1078900195179159,-0.07777673215771583,-0.006174797379855055,-0.011305517336017689,-0.18282323853574883
1767,6.0,299.94327999999996,787.2829,0.0,0.0,0.0,0.0,0.0,-0.01761135253461138,-0.05728089050668374,-0.1203079871784739,-0.06172546444757904,-0.01989095261958418,-0.03472633540847246,-0.17635302869718883
1768,6.0,299.78211,980.1596599999999,0.0,0.0,0.0,0.0,0.0,-0.017621319344195197,-0.05207961531160786,-0.14356535990379785,-0.1022990878511339,-0.01060561584269279,-0.04422760388767466,-0.22337824954821678
1769,6.0,300.04265,859.29124,0.0,0.0,0.0,0.0,0.0,-0.01763128615377904,-0.05329498144880516,-0.12386044202907388,-0.08404766305935853,0.01022828049220269,-0.0032539568426905364,-0.18807419439647782
1770,6.0,299.95026,663.32902,0.0,0.0,0.0,0.0,0.0,-0.017641252963362858,-0.003726853532636806,-0.08928532609202561,-0.10862327821778289,0.006465781530322953,-0.0005713478896151465,-0.18252541393385582
1771,6.0,300.55627000000004,852.6936199999999,0.0,0.0,0.0,0.0,0.0,-0.017651219772946675,-0.05127603300180045,-0.1040932802007069,-0.1038282545045509,0.00018371987368173982,0.008396933072062773,-0.16075165213745285
1772,6.0,300.54795,1298.8084,0.0,0.0,0.0,0.0,0.0,-0.017661186582530464,-0.08175300926014384,-0.17511310441731784,-0.13793921779604087,-0.01302749129796329,0.00963218069609722,-0.16022415413539284
1773,6.0,299.47328999999996,1178.9898,0.0,0.0,0.0,0.0,0.0,-0.017671153392114308,-0.1049222403725189,-0.14285384555107686,-0.1106073637685969,0.00892286610934332,-0.0013426294378322086,-0.15371047586754286
1774,6.0,299.68745,969.0975599999999,0.0,0.0,0.0,0.0,0.0,-0.017681120201698125,-0.05958544375937544,-0.13987983491756487,-0.09511618322348642,0.005252617084267945,0.02304761982212298,-0.15318145799033286
1775,6.0,299.79457,987.33748,0.0,0.0,0.0,0.0,0.0,-0.01769108701128197,-0.06208624734443554,-0.14245113943133286,-0.0955885523141056,0.013805631911009787,0.006949439341631264,-0.15994496320283882
1776,6.0,298.32273,971.6742800000001,0.0,0.0,0.0,0.0,0.0,-0.01770105382086576,-0.04959164859206465,-0.15688127993547685,-0.08889178684593631,-0.006907788581695653,-0.0037903540177288164,-0.19079670622266884
1777,6.0,298.94999,948.9889800000001,0.0,0.0,0.0,0.0,0.0,-0.017711020630449603,-0.04669901916683436,-0.14264846988830787,-0.09912146461002691,0.00883687278925644,0.006542085342353555,-0.16512250909382284
1778,6.0,298.53747000000004,778.7359700000001,0.0,0.0,0.0,0.0,0.0,-0.01772098744003342,-0.04094668182537286,-0.11837724924542489,-0.07739235573228083,0.02031974486315268,0.019418677761224284,-0.2033110137027348
1779,6.0,299.36472000000003,742.85063,0.0,0.0,0.0,0.0,0.0,-0.017730954249617237,-0.02116614813543618,-0.1258033186983209,-0.07883857874576192,0.01137563525618779,-0.0011051472231195388,-0.21030375661786482
1780,6.0,300.53352,763.14852,0.0,0.0,0.0,0.0,0.0,-0.017740921059201054,-0.01953005522546638,-0.13025686699535188,-0.08219116697438662,-0.017222544295732785,-0.0021980202385027078,-0.2308840111214778
1781,6.0,300.06419,994.8565,0.0,0.0,0.0,0.0,0.0,-0.01775088786878487,-0.05072665589033115,-0.15998206842150087,-0.0917028141743631,-0.012063664498090989,0.014007354807168287,-0.19216916361561984
1782,6.0,299.69428999999997,1031.0526,0.0,0.0,0.0,0.0,0.0,-0.017760854678368687,-0.03894318949539356,-0.14305598894602686,-0.13141505238965587,0.0001279907230142009,0.03005506904920437,-0.16623763135887684
1783,6.0,301.1347,888.15174,0.0,0.0,0.0,0.0,0.0,-0.01777082148795253,-0.05206144672406475,-0.13774108687148687,-0.08017341416249993,-0.009231790866081821,0.015108115265304886,-0.14392164903646085
1784,6.0,300.69322,831.16907,0.0,0.0,0.0,0.0,0.0,-0.01778078829753635,-0.023808690210734777,-0.15405895284193485,-0.07478700196215242,-0.0031555989329583667,-0.008234314739663592,-0.1910830912309328
1785,6.0,300.86147,1011.1718,0.0,0.0,0.0,0.0,0.0,-0.017790755107120193,-0.085133953292817,-0.13839606186862788,-0.08384095801245833,0.01054944024389869,-0.006576582049958113,-0.16396057467414885
1786,6.0,300.64647,1152.7125,0.0,0.0,0.0,0.0,0.0,-0.017800721916703954,-0.07544282200987684,-0.16661237177586083,-0.10834063210238791,0.022606703027857878,-0.0014466139253696787,-0.19969578800843982
1787,6.0,299.47877,1067.7285,0.0,0.0,0.0,0.0,0.0,-0.0178106887262878,-0.09552567203939981,-0.12496246297033488,-0.10407468706137189,0.0008052272301522402,-0.012526815039300388,-0.16183128025150384
1788,6.0,300.1854,896.30706,0.0,0.0,0.0,0.0,0.0,-0.017820655535871616,-0.055456390833369645,-0.14058404373706487,-0.07641453189552713,-0.03209048990308477,-0.008208871117727503,-0.1998727622709058
1789,6.0,300.28463999999997,741.22466,0.0,0.0,0.0,0.0,0.0,-0.01783062234545546,-0.05147383968632245,-0.11514185048361589,-0.05869809707705114,-0.026102333799599777,-0.0032432735389361766,-0.15829237255474085
1790,6.0,300.00338,920.40751,0.0,0.0,0.0,0.0,0.0,-0.017840589155039277,-0.06747995089250264,-0.1250104504950709,-0.08729050312990191,-0.017068136126243885,0.023676331376671977,-0.17153351472903983
1791,6.0,300.25545,1227.1760000000002,0.0,0.0,0.0,0.0,0.0,-0.017850555964623094,-0.09016193232328991,-0.15329246967128884,-0.12957644928819986,0.02012921534084888,-0.004237367841820647,-0.17669496007593483
1792,6.0,300.21927999999997,1018.8571,0.0,0.0,0.0,0.0,0.0,-0.017860522774206883,-0.033237382625024264,-0.16348358718957384,-0.11298613049836288,0.015170232562685385,-0.021826849008892278,-0.2062701295597768
1793,6.0,299.60175,719.81643,0.0,0.0,0.0,0.0,0.0,-0.017870489583790727,-0.0005092290216969915,-0.1175954356007659,-0.10070155620021981,0.03356966178331767,-0.007693883309352164,-0.15721828691873685
1794,6.0,300.34434,812.3967700000001,0.0,0.0,0.0,0.0,0.0,-0.017880456393374544,-0.027118206190858578,-0.1359783660700199,-0.08385176229827462,0.05106859942807836,0.02083365214162138,-0.16238238698089386
1795,6.0,301.3346,1051.3059,0.0,0.0,0.0,0.0,0.0,-0.01789042320295839,-0.06316085176449074,-0.14009788633908488,-0.1163120023616009,0.016001015571427284,-0.00018466649245516383,-0.14273553846940087
1796,6.0,301.16021,840.10647,0.0,0.0,0.0,0.0,0.0,-0.017900390012542178,-0.04435772242576636,-0.13921249826920387,-0.07180117277947402,-0.0017682301462357284,-0.013129064554237787,-0.19170843879514982
1797,6.0,299.30944,583.27251,0.0,0.0,0.0,0.0,0.0,-0.017910356822126022,-0.0016380771576406284,-0.12271448656347689,-0.05294771429503254,0.005178293162932745,-0.014637648045123384,-0.20522355366398778
1798,6.0,299.57315,714.24189,0.0,0.0,0.0,0.0,0.0,-0.01792032363170984,-0.016680504128237586,-0.11895953368039187,-0.08147166618437743,-0.014940560175768487,0.02080039524683918,-0.2204472311164478
1799,6.0,300.70572999999996,1215.8347,0.0,0.0,0.0,0.0,0.0,-0.017930290441293684,-0.08485683749646783,-0.16989605190493484,-0.1148304989928879,-0.03095795392181217,-0.008459465498009243,-0.19799977959355683
1800,6.0,299.63406000000003,1169.1957,0.0,0.0,0.0,0.0,0.0,-0.017940257250877473,-0.09146669549031002,-0.16633222838821285,-0.0976073619458466,-0.02345758182583308,-0.008814175784366421,-0.2031651968808438
1801,6.0,299.4117,814.51405,0.0,0.0,0.0,0.0,0.0,-0.01795022406046129,-0.04732522495388605,-0.12119533082104789,-0.07907137700923733,-0.004602665477147715,0.013244647006394886,-0.14787625271924987
1802,6.0,299.38783,802.78722,0.0,0.0,0.0,0.0,0.0,-0.017960190870045106,-0.03432654035626576,-0.14023804922541785,-0.06946267970143273,0.023636619065502677,0.013333428993406986,-0.15067860865332086
1803,6.0,299.98375,1152.8277,0.0,0.0,0.0,0.0,0.0,-0.01797015767962895,-0.08583472415472772,-0.13298559004465588,-0.1316105184664469,0.013518414011163587,-0.02103510247350298,-0.14858005623870987
1804,6.0,300.76511,1476.2041,0.0,0.0,0.0,0.0,0.0,-0.017980124489212768,-0.09462104842962041,-0.18228772572539784,-0.17182040636235385,0.0011762557979124089,-0.02839333280570377,-0.16758695625204484
1805,6.0,301.21954,1006.8539,0.0,0.0,0.0,0.0,0.0,-0.017990091298796612,-0.05848262741678594,-0.14797283571878186,-0.0996029833490491,0.019022008585576084,-0.007953800097178953,-0.15523915616091186
1806,6.0,299.95881,543.17491,0.0,0.0,0.0,0.0,0.0,-0.018000058108380373,0.0008854544985575551,-0.10644984662078188,-0.059547221939103244,0.007061308434821883,0.0050365497077687555,-0.17354326590488683
1807,6.0,300.61201,788.53536,0.0,0.0,0.0,0.0,0.0,-0.018010024917964218,-0.05392710562969095,-0.1239114591716089,-0.06185649693726094,0.005613130355272835,-0.010708702894616689,-0.1746936290084188
1808,6.0,300.74016,1270.4461,0.0,0.0,0.0,0.0,0.0,-0.018019991727548035,-0.09288442185797871,-0.17228081707529283,-0.12101865040111089,-0.01975835668499798,-0.017078224044239483,-0.2028434595765908
1809,6.0,300.12338,1216.0118,0.0,0.0,0.0,0.0,0.0,-0.01802995853713188,-0.07579503179763723,-0.17457419721913184,-0.11926799740833488,0.017622346440690183,0.0038852016238145465,-0.20527699247426182
1810,6.0,300.08181,900.3091,0.0,0.0,0.0,0.0,0.0,-0.018039925346715696,-0.03133916495393477,-0.15582165337839984,-0.08651066430968782,0.015392522409373683,0.04466376347272026,-0.22375024405742977
1811,6.0,299.66104,696.0271799999999,0.0,0.0,0.0,0.0,0.0,-0.018049892156299513,-0.015965120173384684,-0.13685765437429886,-0.05875210432063124,0.01949075530708778,0.015015846684698686,-0.19201130938254082
1812,6.0,298.94272,798.3043200000001,0.0,0.0,0.0,0.0,0.0,-0.018059858965883302,-0.03284087354289187,-0.12843880247342288,-0.08138490461806472,-0.011894012994097687,0.009230393188893881,-0.18742955455035681
1813,6.0,298.99641,1064.0539,0.0,0.0,0.0,0.0,0.0,-0.018069825775467147,-0.06369149793461144,-0.16109872069420583,-0.0986556127440509,-0.007538381843005363,0.015548528474270285,-0.16127116572872485
1814,6.0,299.07729,860.8445800000001,0.0,0.0,0.0,0.0,0.0,-0.018079792585050963,-0.05052983509815645,-0.14206505061322885,-0.06908036625320134,-0.00011684305687151189,0.019852243426013882,-0.17720820164908782
1815,6.0,300.52058999999997,808.94839,0.0,0.0,0.0,0.0,0.0,-0.018089759394634808,-0.03232791669301697,-0.13692266450071486,-0.07664952587196922,-0.009694549583477551,-0.017261123793290284,-0.18092112491802484
1816,6.0,300.12978,846.7533400000001,0.0,0.0,0.0,0.0,0.0,-0.018099726204218597,-0.032570774503485174,-0.15149588605147984,-0.07332520934763473,-0.009290229660299283,-0.024845063691266874,-0.2191629264821968
1817,6.0,300.17298,1083.0782,0.0,0.0,0.0,0.0,0.0,-0.01810969301380244,-0.05386449893251215,-0.14969097351584887,-0.1256732579154849,0.0010401648597562789,0.003499348791658837,-0.18873317173151383
1818,6.0,300.62302999999997,1158.3233,0.0,0.0,0.0,0.0,0.0,-0.018119659823386258,-0.07031986902103073,-0.16126869339848085,-0.12051278528868589,0.018074740318837983,0.003308185582742497,-0.19057749969603482
1819,6.0,301.00781,816.00761,0.0,0.0,0.0,0.0,0.0,-0.018129626632970103,-0.055830464531787846,-0.11382382488603689,-0.07839165439165392,0.012424972258499289,-0.030459953656663367,-0.16640574981546885
1820,6.0,300.54492,619.78124,0.0,0.0,0.0,0.0,0.0,-0.018139593442553892,-0.02925550528929357,-0.09857026060862731,-0.060572256137766234,0.001044341375343469,-0.03319396891123967,-0.18354405452438782
1821,6.0,299.76506,866.6339199999999,0.0,0.0,0.0,0.0,0.0,-0.01814956025213771,-0.07244418129293402,-0.09003458806397201,-0.1009563034873614,0.001206693526941379,0.01132141725658689,-0.16099927019689086
1822,6.0,298.66468,1116.0594,0.0,0.0,0.0,0.0,0.0,-0.018159527061721525,-0.07162863553919592,-0.13560261240293586,-0.13202293152214886,-0.00925905529844761,0.03720996744408787,-0.18015197689961585
1823,6.0,299.2973,1010.548,0.0,0.0,0.0,0.0,0.0,-0.01816949387130537,-0.05548748646568854,-0.13081260427769886,-0.1208812739525529,-0.004282328687182936,0.04293282832689026,-0.15600457541895285
1824,6.0,299.65485,870.1991,0.0,0.0,0.0,0.0,0.0,-0.018179460680889187,-0.04239554131561416,-0.13592681190493186,-0.08619644532117683,-0.004103582047642017,0.005003194730376875,-0.18203674367562783
1825,6.0,299.92652999999996,910.2262599999999,0.0,0.0,0.0,0.0,0.0,-0.01818942749047303,-0.058964257613319145,-0.13845526607197087,-0.07926653201824763,0.010175611752004689,0.014176148088326887,-0.1775454112823678
1826,6.0,299.84612000000004,1037.7598,0.0,0.0,0.0,0.0,0.0,-0.018199394300056793,-0.062052427082597734,-0.15396009002967784,-0.09944054010626721,0.016627136245470586,-0.0047921097072694055,-0.1976737562413808
1827,6.0,299.55212,998.2643800000001,0.0,0.0,0.0,0.0,0.0,-0.018209361109640637,-0.033734295672815766,-0.18200684266517683,-0.08770630246743812,0.006115226886600904,-0.04849099452518855,-0.2060344273215148
1828,6.0,300.23789,835.2705599999999,0.0,0.0,0.0,0.0,0.0,-0.018219327919224454,-0.025766047237160875,-0.13403694848091688,-0.09409839477628851,-0.0007387982496212102,-0.04371237735757576,-0.22582743715993278
1829,6.0,300.64583,655.84353,0.0,0.0,0.0,0.0,0.0,-0.0182292947288083,0.0009212715824999261,-0.12269445460899989,-0.07758687847322873,0.008116723620508253,0.006101860496581744,-0.20466468543883182
1830,6.0,301.09986000000004,566.60314,0.0,0.0,0.0,0.0,0.0,-0.018239261538392115,-0.03090987216481687,-0.08623156862264322,-0.05509176366563375,-0.005603300816052735,0.02042039808833638,-0.1807164686628268
1831,6.0,300.29164,936.26885,0.0,0.0,0.0,0.0,0.0,-0.018249228347975932,-0.04495141504360926,-0.12542386666837188,-0.11422706802833389,-0.03358858726868547,-0.003976247920825116,-0.16989598097742784
1832,6.0,299.71218,1122.3668,0.0,0.0,0.0,0.0,0.0,-0.01825919515755972,-0.05947235288921424,-0.17007262086736086,-0.11162651098417889,-0.005699473347969225,-0.017086267223533284,-0.17478716212514983
1833,6.0,299.47353,805.8544099999999,0.0,0.0,0.0,0.0,0.0,-0.018269161967143566,-0.04742921886464945,-0.11753482297978389,-0.07999558167719922,0.013815763398759685,0.01156128293950979,-0.1936376365880468
1834,6.0,300.5582,964.4039,0.0,0.0,0.0,0.0,0.0,-0.018279128776727382,-0.051912725927387146,-0.14488295993633485,-0.09635901553114441,0.01785783184343078,0.013538903954685788,-0.19018663846995984
1835,6.0,299.92136,1177.7335,0.0,0.0,0.0,0.0,0.0,-0.018289095586311227,-0.07922858478875253,-0.17238532369060683,-0.1063876634621449,-0.024129283555624874,-0.016488976554585283,-0.2064822534682118
1836,6.0,300.0355,1255.5232,0.0,0.0,0.0,0.0,0.0,-0.018299062395895016,-0.09745114917792959,-0.16358771890235085,-0.12060885153066689,-0.032470590413097765,-0.013177601260527987,-0.15864863128990084
1837,6.0,300.11215,1087.9545,0.0,0.0,0.0,0.0,0.0,-0.01830902920547886,-0.098538360455729,-0.12729419463045888,-0.1048784477031969,-0.012256752476897288,0.02451674735411458,-0.16767330542556685
1838,6.0,299.85143999999997,771.80345,0.0,0.0,0.0,0.0,0.0,-0.018318996015062677,-0.04536488795891586,-0.0979527505339338,-0.0912913373617535,-0.0015687144127700585,0.0018857211562811882,-0.14790010462660386
1839,6.0,299.52935,699.0219900000001,0.0,0.0,0.0,0.0,0.0,-0.018328962824646522,-0.01897120726531238,-0.09039931756996801,-0.10311470351912891,0.0007541319052395242,-0.030796754950153073,-0.17290383416427982
1840,6.0,298.41641,989.19799,0.0,0.0,0.0,0.0,0.0,-0.01833892963423031,-0.030953325395355374,-0.16203163019377684,-0.1077065300573069,0.0035065567488952068,-0.04408601029220046,-0.20399751091048682
1841,6.0,297.69442000000004,973.4681699999999,0.0,0.0,0.0,0.0,0.0,-0.018348896443814128,-0.06155428394918485,-0.12575295003584988,-0.1086027801682599,0.03756887785475956,0.002226503104113748,-0.18927943512542583
1842,6.0,297.87341000000004,725.13413,0.0,0.0,0.0,0.0,0.0,-0.018358863253397945,-0.04025838305894307,-0.09643080328747931,-0.08373348358760141,0.036918856637357465,0.02306283883862498,-0.17720697561646684
1843,6.0,298.80261,745.7004,0.0,0.0,0.0,0.0,0.0,-0.01836883006298179,-0.025542256767074476,-0.16065395456281084,-0.04047809621062706,-0.01178445330053499,0.0019265824930638884,-0.1834476640423748
1844,6.0,299.10947000000004,1006.0061,0.0,0.0,0.0,0.0,0.0,-0.018378796872565606,-0.04088134847217496,-0.15720219650714884,-0.1077171894483589,-0.02420482945658068,0.0007966054951838412,-0.18284893455828483
1845,6.0,299.89952,1245.1007,0.0,0.0,0.0,0.0,0.0,-0.018388763682149395,-0.07719123571993183,-0.1882788303866738,-0.11300944538316389,-0.013264548251608986,0.026050514162985577,-0.2268836490641728
1846,6.0,300.26731,855.1042,0.0,0.0,0.0,0.0,0.0,-0.01839873049173321,-0.032588996793283566,-0.13673078532927788,-0.09061054272556432,0.017435753395024883,0.007118488468440113,-0.18942730884501985
1847,6.0,300.88315,610.71247,0.0,0.0,0.0,0.0,0.0,-0.018408697301317056,-0.0012967539316046488,-0.1155860187974519,-0.06875857220694273,-0.036980260606667564,-0.014321369119159088,-0.2242062876624378
1848,6.0,300.2409,796.76598,0.0,0.0,0.0,0.0,0.0,-0.018418664110900873,-0.025299988668164478,-0.14659161371246585,-0.07030535623984843,-0.014629135731033287,-0.012150648979425688,-0.18398048160745983
1849,6.0,300.17621,969.1381,0.0,0.0,0.0,0.0,0.0,-0.018428630920484718,-0.06890767803865834,-0.1200203558725869,-0.1056657430308969,-0.004923319009093755,0.04123125514245806,-0.1899530336594048
1850,6.0,300.60148,1001.9684,0.0,0.0,0.0,0.0,0.0,-0.018438597730068534,-0.06224292215439814,-0.12533881445497788,-0.1169916499986769,0.005353519366326225,0.03850587277873376,-0.17332511315835683
1851,6.0,300.99307999999996,975.8407,0.0,0.0,0.0,0.0,0.0,-0.01844856453965235,-0.043869134240796456,-0.14170135462233488,-0.1110607121283389,0.015424954518574485,-0.017801134420835182,-0.20226212759671783
1852,6.0,300.82737000000003,1017.2149,0.0,0.0,0.0,0.0,0.0,-0.01845853134923614,-0.04224038536755146,-0.15331920934142787,-0.11364832996871688,0.0036058914317237765,-0.04249243335642666,-0.17690254462392183
1853,6.0,300.47303,1258.5265,0.0,0.0,0.0,0.0,0.0,-0.018468498158819985,-0.09001018190881332,-0.16912317512615785,-0.12342728774382487,0.01908775129181438,-0.019105115358778083,-0.18175567823038882
1854,6.0,300.37053,1212.6521,0.0,0.0,0.0,0.0,0.0,-0.0184784649684038,-0.1160195074552339,-0.13043931280835788,-0.12215714834597188,0.017699021102257382,-0.02182602624981108,-0.13335553778866688
1855,6.0,299.59689,826.52869,0.0,0.0,0.0,0.0,0.0,-0.01848843177798762,-0.06030222498611624,-0.1087655891943279,-0.08217626915816632,-0.014178110753770588,-0.013995102586959088,-0.1309223392635289
1856,6.0,300.17477,706.41254,0.0,0.0,0.0,0.0,0.0,-0.018498398587571435,-0.03580822307024647,-0.1055991015718199,-0.07332444941005974,-0.02204060830298868,-0.0099726760968015,-0.16838468805577486
1857,6.0,299.66455,867.92336,0.0,0.0,0.0,0.0,0.0,-0.01850836539715528,-0.025306848371341475,-0.12480174123947288,-0.11371843674313589,0.00959142666250011,0.04699213519551266,-0.18858659497204783
1858,6.0,299.83473,1031.7602,0.0,0.0,0.0,0.0,0.0,-0.018518332206739097,-0.043742017962751054,-0.15970280656143984,-0.11018452436936589,0.011844126638674289,0.041409415920791164,-0.22477364692343177
1859,6.0,299.6951,959.084,0.0,0.0,0.0,0.0,0.0,-0.018528299016322886,-0.03575059953705946,-0.15006660559292084,-0.10572038760878989,-0.015102250573726087,-0.025043189549570376,-0.2286792802288878
1860,6.0,300.31504,751.92606,0.0,0.0,0.0,0.0,0.0,-0.01853826582590673,-0.05168821503647965,-0.12820954450579689,-0.04866898305100465,0.0008830737357250923,-0.04350952671405596,-0.2075034170514928
1861,6.0,300.4592,728.30727,0.0,0.0,0.0,0.0,0.0,-0.018548232635490547,-0.012296247952545188,-0.14522683675527287,-0.06386413649989954,0.0012477793999462387,0.010764747784147889,-0.1967066495509348
1862,6.0,301.61262999999997,940.50885,0.0,0.0,0.0,0.0,0.0,-0.018558199445074364,-0.04346037192520476,-0.13715456705110188,-0.1052762699574589,0.02596381136517868,0.011854336146681887,-0.17290711709460382
1863,6.0,300.7462,1008.1697,0.0,0.0,0.0,0.0,0.0,-0.01856816625465818,-0.01851172063646458,-0.1786000425164518,-0.1093466577291749,-0.026720783157135972,-0.015689859637968588,-0.21218801676882681
1864,6.0,300.83196,885.8618,0.0,0.0,0.0,0.0,0.0,-0.018578133064242025,-0.02164738113793018,-0.15502938299270885,-0.0926031020869646,-0.006206053105689754,-0.02722224367137627,-0.1896074849778018
1865,6.0,299.65235,953.47274,0.0,0.0,0.0,0.0,0.0,-0.018588099873825814,-0.04261980497349726,-0.16455376168019184,-0.08265833707874272,0.0015294688045968186,0.021939212365481683,-0.2159593843035318
1866,6.0,299.82369,1080.5051,0.0,0.0,0.0,0.0,0.0,-0.01859806668340963,-0.08219219542323812,-0.14811116462243387,-0.09814320507573021,0.00989374411666152,0.016972339408789484,-0.16967727094334284
1867,6.0,300.0845,1043.5161,0.0,0.0,0.0,0.0,0.0,-0.018608033492993448,-0.08349586326690012,-0.1250004598490849,-0.1087065065809969,-0.025688788943536076,-0.015352961072469286,-0.17987236040201984
1868,6.0,299.36877000000004,802.94042,0.0,0.0,0.0,0.0,0.0,-0.018618000302577292,-0.03813383875276686,-0.12523348710708287,-0.08070651341111272,-0.016414765104011183,-0.01166773803476609,-0.17508730706977182
1869,6.0,299.29713,733.66121,0.0,0.0,0.0,0.0,0.0,-0.01862796711216111,-0.02395884779605418,-0.09997582493534571,-0.09908001660143631,-0.01738374225414178,0.027038116876454375,-0.20054741458498881
1870,6.0,300.50156,965.72007,0.0,0.0,0.0,0.0,0.0,-0.018637933921744954,-0.05880069979542724,-0.12444056824132789,-0.11031351110709589,0.004617844571595776,0.002938921782548997,-0.2017223186059428
1871,6.0,299.66423,1064.4313,0.0,0.0,0.0,0.0,0.0,-0.01864790073132877,-0.097426318470979,-0.12988841886148886,-0.09624579800472072,-0.02590449063807418,-0.02101374518789518,-0.17294880220371783
1872,6.0,300.74164,987.05739,0.0,0.0,0.0,0.0,0.0,-0.01865786754091256,-0.08983605893212872,-0.11556307881518789,-0.09464166604265523,-0.008966770033526302,-0.017828111191497582,-0.16280146722225386
1873,6.0,300.40096,910.2660800000001,0.0,0.0,0.0,0.0,0.0,-0.018667834350496376,-0.07318846415388902,-0.12025127557037689,-0.08325841925171622,-0.008900663773152122,0.01147818933855909,-0.12781646426200288
1874,6.0,300.42951,1012.1566,0.0,0.0,0.0,0.0,0.0,-0.01867780116008022,-0.05003646437271455,-0.14820030023373085,-0.1094335743227529,0.011493994013618888,0.01211558343321499,-0.18579940739197381
1875,6.0,300.20926000000003,1113.8168,0.0,0.0,0.0,0.0,0.0,-0.018687767969664038,-0.03562778653218877,-0.16652656975739283,-0.13641812674592088,-0.00902160520376311,-0.019385977140746982,-0.19038110142915182
1876,6.0,300.77099,1147.6261,0.0,0.0,0.0,0.0,0.0,-0.018697734779247854,-0.04610022990098846,-0.17589725866970785,-0.12685220480433787,0.02361126248175018,0.0006190391197569044,-0.2239707374116908
1877,6.0,299.21237,876.8598,0.0,0.0,0.0,0.0,0.0,-0.01870770158883167,-0.03676249796142606,-0.14134821669748288,-0.08843276327238422,0.0013840175633418985,0.02457612482322468,-0.21633470227307278
1878,6.0,299.38665,630.67349,0.0,0.0,0.0,0.0,0.0,-0.018717668398415516,-0.0097460890564391,-0.13627453907424986,-0.04568836805334086,0.020236236842911082,-0.008417051051473263,-0.2188257877764238
1879,6.0,298.72893,531.42834,0.0,0.0,0.0,0.0,0.0,-0.018727635207999305,0.005525817884880765,-0.1031605226886509,-0.06390623906805473,-0.016916845727312682,-0.014297911366093985,-0.20874451670147978
1880,6.0,299.27067999999997,695.44135,0.0,0.0,0.0,0.0,0.0,-0.01873760201758315,-0.00874974989795808,-0.098837978510299,-0.10380907368015789,0.005414714403465705,0.0003486990281514147,-0.18216385590067283
1881,6.0,298.96788,811.88422,0.0,0.0,0.0,0.0,0.0,-0.01874756882716694,-0.0021852965530219782,-0.14528644625865586,-0.0993207861034484,0.019327010037927382,0.03946693543233326,-0.21197285311009179
1882,6.0,299.95588,855.55881,0.0,0.0,0.0,0.0,0.0,-0.018757535636750783,-0.04616608811773816,-0.13045031670444387,-0.08345211416733242,-0.0017397373507737084,0.013727054365754788,-0.19060913336415683
1883,6.0,301.22744,1004.5198,0.0,0.0,0.0,0.0,0.0,-0.0187675024463346,-0.06918627520665374,-0.14311822276716885,-0.09304443735352101,-0.009284409957024922,-0.01828595230218298,-0.18806257241783084
1884,6.0,301.48452000000003,957.3765199999999,0.0,0.0,0.0,0.0,0.0,-0.018777469255918444,-0.08447387860792271,-0.13393997031384589,-0.07260471354602734,-0.010400065900906589,0.004441905850731976,-0.16306286548305185
1885,6.0,300.15923,1003.857,0.0,0.0,0.0,0.0,0.0,-0.01878743606550226,-0.07214258132116844,-0.11120163495224689,-0.12180325048354487,-0.00034515725295686863,0.035641407653283066,-0.16166908930799684
1886,6.0,299.36742000000004,1083.9966,0.0,0.0,0.0,0.0,0.0,-0.01879740287508605,-0.03965137633478616,-0.16537690579642983,-0.12447961890018187,-0.015753675142516684,-0.014122564383288587,-0.18164918564487884
1887,6.0,299.24854,952.41906,0.0,0.0,0.0,0.0,0.0,-0.018807369684669867,-0.021360273682344878,-0.13430198430957388,-0.13384935535740286,-0.017480960561486483,-0.03261201682230547,-0.18071519196770083
1888,6.0,299.19372999999996,798.57571,0.0,0.0,0.0,0.0,0.0,-0.01881733649425371,-0.05450814883328544,-0.1060659666878959,-0.0821729578568395,0.013829180856583885,-0.015491884753929985,-0.2018992827359078
1889,6.0,299.09603,813.6396,0.0,0.0,0.0,0.0,0.0,-0.018827303303837528,-0.06555751857052333,-0.12363550050687389,-0.05813309767554005,0.023315058066767078,0.013477117990087988,-0.17768087268823682
1890,6.0,298.89553,800.39122,0.0,0.0,0.0,0.0,0.0,-0.018837270113421373,-0.06479516743378513,-0.10436505414252889,-0.07413872353492233,-0.0015010089397630485,0.011272741735032989,-0.18572738557486582
1891,6.0,299.19382,796.52168,0.0,0.0,0.0,0.0,0.0,-0.018847236923005134,-0.02549385887604798,-0.13515631626388985,-0.08147252846021251,-0.01993129314581548,-0.02931954472211377,-0.16300723805256184
1892,6.0,299.97066,1075.177,0.0,0.0,0.0,0.0,0.0,-0.01885720373258898,-0.03213923432564547,-0.14809707031354286,-0.14659067138987286,0.01854997386748988,0.016280255139986086,-0.16759470761530984
1893,6.0,300.47622,1339.3777,0.0,0.0,0.0,0.0,0.0,-0.018867170542172795,-0.08374659909689582,-0.19248850964963682,-0.1309022566465469,0.02069260063495068,0.03448529435543357,-0.19820108199092382
1894,6.0,299.51288,1236.8103,0.0,0.0,0.0,0.0,0.0,-0.01887713735175664,-0.08023385047796452,-0.2064173953293108,-0.08930818805403191,0.008546574507781231,-0.005498108534396064,-0.22095505180156577
1895,6.0,299.94883,981.13724,0.0,0.0,0.0,0.0,0.0,-0.018887104161340457,-0.05001714473305786,-0.18585445726990682,-0.06236962401315264,-0.02045855100760178,-0.030421781485646074,-0.22945749683569178
1896,6.0,299.85278,814.05185,0.0,0.0,0.0,0.0,0.0,-0.018897070970924273,-0.034606647266910165,-0.14519305499693885,-0.06765173427470635,-0.003847386522132486,0.015806457366725885,-0.17834742913402082
1897,6.0,300.63372999999996,646.90375,0.0,0.0,0.0,0.0,0.0,-0.01890703778050809,0.023355916363799478,-0.14973273968497086,-0.07026576450544103,0.03738062409218037,0.01028487861628849,-0.2141490204823628
1898,6.0,301.34682000000004,538.52031,0.0,0.0,0.0,0.0,0.0,-0.018917004590091935,0.024145664769991578,-0.09374026760794411,-0.09410212556315671,0.012856483052086089,0.0024739268221825677,-0.18105230027597083
1899,6.0,300.49359,743.90404,0.0,0.0,0.0,0.0,0.0,-0.018926971399675724,0.016330483973943283,-0.15331783132129187,-0.08914090856852272,-0.006748604761835433,-0.03459342131335486,-0.22942858881033878
1900,6.0,299.33134,997.1245,0.0,0.0,0.0,0.0,0.0,-0.01893693820925957,-0.08297487134373223,-0.13578352820829087,-0.08434255227571183,0.006756836506972843,-0.004005805338167206,-0.18014863317428584
1901,6.0,299.4454,1227.98,0.0,0.0,0.0,0.0,0.0,-0.018946905018843357,-0.12618095701059087,-0.13809262386118085,-0.1090016663351269,0.00939077102267194,0.03243112128195247,-0.18771015390054982
1902,6.0,299.17115,1284.5668,0.0,0.0,0.0,0.0,0.0,-0.018956871828427202,-0.11579183015776388,-0.15938315655239285,-0.11530125498934789,-0.017222779369755983,-0.007585513272731872,-0.1768376054250128
1903,6.0,300.02727000000004,1184.2321,0.0,0.0,0.0,0.0,0.0,-0.01896683863801102,-0.07487896859422882,-0.13875611015916187,-0.14634191849032288,-0.02977171061898907,-0.02395552636222638,-0.14615649372202286
1904,6.0,300.46464,1152.6074,0.0,0.0,0.0,0.0,0.0,-0.018976805447594863,-0.05825997989281235,-0.14845446388881486,-0.14364941913209386,-0.016354178827531783,-0.0005175107909918386,-0.16587686366077184
1905,6.0,300.15361,1222.6807,0.0,0.0,0.0,0.0,0.0,-0.01898677225717868,-0.10923730777838289,-0.14749600022172185,-0.11493111472781789,0.025795958380112876,-0.004413402416143906,-0.15137840983488585
1906,6.0,300.4339,865.7818,0.0,0.0,0.0,0.0,0.0,-0.01899673906676247,-0.07257455820980123,-0.1169116843007849,-0.07368980915761793,0.014198153853998686,-0.01213942115506759,-0.2256038533928668
1907,6.0,300.64892000000003,548.35606,0.0,0.0,0.0,0.0,0.0,-0.019006705876346286,-0.014533425139837386,-0.1202853207737369,-0.03186780590210757,-0.006351229553517555,-0.018020319669217084,-0.1840693841712338
1908,6.0,300.6711,700.80379,0.0,0.0,0.0,0.0,0.0,-0.01901667268593013,-0.0025471779143118878,-0.12277696356464289,-0.08770271758858432,0.009637089487531681,0.01014783451376329,-0.20983182525128882
1909,6.0,299.25178,1054.0725,0.0,0.0,0.0,0.0,0.0,-0.019026639495513947,-0.01975482956139988,-0.16057994677550685,-0.14007694245951788,0.008580468939526352,0.03945453426435936,-0.17258308984512485
1910,6.0,298.70089,1079.8789,0.0,0.0,0.0,0.0,0.0,-0.019036606305097792,-0.02835573109449277,-0.17669937784637083,-0.12320109992400188,0.0033270986051340667,0.02036450012006968,-0.22824652111117777
1911,6.0,299.05303,950.18115,0.0,0.0,0.0,0.0,0.0,-0.019046573114681553,-0.043961679438679964,-0.14469015870730687,-0.100179501377697,-0.0036454494249028462,-0.014612992630440086,-0.22082689592891777
1912,6.0,299.88756,962.23956,0.0,0.0,0.0,0.0,0.0,-0.019056539924265398,-0.06673904823388124,-0.15754371245335386,-0.06821404147070174,-0.008684624970305753,0.018616329590038682,-0.2048222863593858
1913,6.0,300.83814,1090.7407,0.0,0.0,0.0,0.0,0.0,-0.019066506733849214,-0.08973422932357891,-0.14530763331824684,-0.0965160814556456,0.01065687312550149,-0.005928241713146905,-0.2020642499846888
1914,6.0,300.71246,1221.7494,0.0,0.0,0.0,0.0,0.0,-0.01907647354343306,-0.1023672289203589,-0.16160436289160884,-0.1074096984405119,-0.00905026376694149,0.006692785016476454,-0.16639277008168785
1915,6.0,300.1627,1048.2412,0.0,0.0,0.0,0.0,0.0,-0.019086440353016876,-0.024397916422136876,-0.16197272996546383,-0.13226852308138687,-0.008634338786392892,-0.02388724546448758,-0.1939295032793518
1916,6.0,300.50732,709.93283,0.0,0.0,0.0,0.0,0.0,-0.019096407162600693,-0.016387418497062285,-0.11236956781251288,-0.08704486597440943,-0.004776464517775345,0.0015897318542943185,-0.16174082741507687
1917,6.0,300.10703,740.00919,0.0,0.0,0.0,0.0,0.0,-0.01910637397218451,-0.029042600165031473,-0.13086767442063388,-0.06503404013161004,0.022555486275053178,0.008101093427115673,-0.2040883285169498
1918,6.0,299.72405,960.35819,0.0,0.0,0.0,0.0,0.0,-0.019116340781768354,-0.0898743364811564,-0.13578202859814287,-0.06626854352344604,-0.012613312147336988,-0.02084291426078548,-0.2108859295953208
1919,6.0,298.0293,735.89185,0.0,0.0,0.0,0.0,0.0,-0.019126307591352143,-0.04907887615370795,-0.1004768254340406,-0.07413704457950662,0.0026489014355762174,-0.008959955419978752,-0.2059932184399478
1920,6.0,298.26566,644.43227,0.0,0.0,0.0,0.0,0.0,-0.019136274400935988,-0.006395010570463404,-0.1081896477049869,-0.08130666448509302,-0.015169437161356885,0.02845277613607037,-0.1928457613698948
1921,6.0,299.3883,1108.3402,0.0,0.0,0.0,0.0,0.0,-0.019146241210519777,-0.06098509678501044,-0.12898222876705487,-0.14694041492688983,0.006254827824428443,0.023863943751937875,-0.16057337078235784
1922,6.0,299.89804,1314.2366,0.0,0.0,0.0,0.0,0.0,-0.01915620802010362,-0.10073607256487631,-0.16492713420954083,-0.13383189705817988,-0.016703989239055382,0.01577055791568288,-0.18942653877494384
1923,6.0,300.58697,1217.6634,0.0,0.0,0.0,0.0,0.0,-0.019166174829687438,-0.1159077864992079,-0.16028875896176883,-0.09394274334892691,-0.008475042293121552,-0.019747393318915982,-0.17111114142485484
1924,6.0,300.69094,1055.7788,0.0,0.0,0.0,0.0,0.0,-0.019176141639271282,-0.07693660799630203,-0.15780012552365985,-0.0861936720556531,0.0028931844836350773,0.0072369703357583635,-0.21315284364654777
1925,6.0,300.11606,764.68335,0.0,0.0,0.0,0.0,0.0,-0.0191861084488551,-0.045691136252614055,-0.11744148238057188,-0.06931202258381403,0.007146666345771053,0.02211620486644948,-0.17258068844238783
1926,6.0,300.80715,787.74235,0.0,0.0,0.0,0.0,0.0,-0.01919607525843889,0.0037881414848104566,-0.15326100825568387,-0.08998114013444711,-0.0006326890779490504,-0.006767942336018904,-0.23170926279792375
1927,6.0,300.2764,830.71286,0.0,0.0,0.0,0.0,0.0,-0.019206042068022705,-0.01049089363987059,-0.13585643155298588,-0.10616863932052889,-0.02143715099393208,-0.031034057110322973,-0.19419778150832884
1928,6.0,299.65005,634.68341,0.0,0.0,0.0,0.0,0.0,-0.01921600887760655,-0.0005968541506724184,-0.12942305335556087,-0.06290800330803654,-0.0015354723114393187,0.007782330619856232,-0.2129095724300388
1929,6.0,299.4566,496.82309000000004,0.0,0.0,0.0,0.0,0.0,-0.019225975687190366,0.015688483644332785,-0.1101377324797479,-0.056572570931528045,0.027154747029214873,-0.004216139441625566,-0.2047346706232388
1930,6.0,300.0099,918.9073599999999,0.0,0.0,0.0,0.0,0.0,-0.01923594249677421,-0.048397214175433155,-0.14648883975482285,-0.08443883231346393,0.00036124386485699366,0.008965446222270652,-0.2144873953532578
1931,6.0,300.02182999999997,1321.5033,0.0,0.0,0.0,0.0,0.0,-0.019245909306357972,-0.097879423650697,-0.15253496389652885,-0.15128962886112385,0.019089223544209683,-0.01056865146579469,-0.2015617285975938
1932,6.0,300.36795,1035.5524,0.0,0.0,0.0,0.0,0.0,-0.019255876115941817,-0.06786461001471553,-0.1297106846614479,-0.11720677312740789,-0.01718815965358928,0.025219858823756273,-0.16349136895034186
1933,6.0,300.60496,926.55895,0.0,0.0,0.0,0.0,0.0,-0.019265842925525634,-0.05796328405153075,-0.1291980003758499,-0.0944895001956376,-0.012215826292108187,0.03272134448159527,-0.17912068081533483
1934,6.0,301.00512000000003,1263.1459,0.0,0.0,0.0,0.0,0.0,-0.019275809735109478,-0.14062239525334988,-0.14472747670848984,-0.09861495101753791,-0.022030865903277182,-0.017455448950468685,-0.16544390189304184
1935,6.0,300.12951,1152.6743,0.0,0.0,0.0,0.0,0.0,-0.019285776544693295,-0.09237404474285842,-0.16720049253140384,-0.090809673727967,-0.0020234154613955582,-0.04067293711210636,-0.2062472706375208
1936,6.0,299.54436,1006.1771,0.0,0.0,0.0,0.0,0.0,-0.019295743354277112,-0.06211797929781724,-0.16158252735195386,-0.08215222574654342,-0.004250515065843175,-0.015901814333636882,-0.1940486006961058
1937,6.0,299.83325,980.06842,0.0,0.0,0.0,0.0,0.0,-0.01930571016386093,-0.02992851512496447,-0.14877767040571285,-0.11921014082762489,0.024502436209702178,0.005971879760503645,-0.18399966243185284
1938,6.0,299.65289,598.5888,0.0,0.0,0.0,0.0,0.0,-0.019315676973444773,0.022377500788987377,-0.1303869987056949,-0.07394655052095633,-0.004702306364156506,0.007922498268464702,-0.2029800659550728
1939,6.0,300.87644,652.29661,0.0,0.0,0.0,0.0,0.0,-0.019325643783028562,-0.0028733518354527475,-0.1058340844025109,-0.08957444079605902,0.030508079996663072,-0.012676290707302487,-0.17951925287467083
1940,6.0,300.59411,973.86199,0.0,0.0,0.0,0.0,0.0,-0.019335610592612407,-0.07364258461020723,-0.1273478766207569,-0.09503927146139582,0.019490246655537585,0.005703457953987474,-0.18178521447080384
1941,6.0,300.01187999999996,1070.4441,0.0,0.0,0.0,0.0,0.0,-0.019345577402196196,-0.06921286694227813,-0.15295006206499587,-0.1032253605625499,0.03034094540591817,0.015272273940506087,-0.18036804235093984
1942,6.0,299.90427999999997,1028.3413,0.0,0.0,0.0,0.0,0.0,-0.01935554421178004,-0.05037507431763275,-0.16748960318243683,-0.09472540609716973,-0.00938835746093374,-0.022632900609193377,-0.23964685129880275
1943,6.0,300.36432,1159.3557,0.0,0.0,0.0,0.0,0.0,-0.019365511021363857,-0.05873699777489035,-0.17329883958326384,-0.12037935038301688,-0.029129725488130077,-0.01997315658694708,-0.2017216397283758
1944,6.0,298.9393,1207.7526,0.0,0.0,0.0,0.0,0.0,-0.0193754778309477,-0.07035481703022983,-0.17552863828332782,-0.12124317649076989,-0.022588777620338778,0.02326271863285158,-0.18868197220396082
1945,6.0,298.88655,938.02797,0.0,0.0,0.0,0.0,0.0,-0.01938544464053152,-0.06163446952234854,-0.13222007959410587,-0.09128253019188431,0.002143260555398348,0.03859921033819546,-0.17223586930085685
1946,6.0,298.78617,789.70828,0.0,0.0,0.0,0.0,0.0,-0.019395411450115307,-0.041195343532413865,-0.15985334512879684,-0.039002903363536866,-0.01800643105009638,0.0065801893216391235,-0.22571692197152576
1947,6.0,300.09279,780.59046,0.0,0.0,0.0,0.0,0.0,-0.019405378259699124,-0.03717792543617557,-0.13311022993945687,-0.06699185413383124,0.007680429475849373,-0.016621298911644482,-0.19933837416816583
1948,6.0,300.86521,696.4787200000001,0.0,0.0,0.0,0.0,0.0,-0.01941534506928297,-0.0036510027447259168,-0.12763177916627588,-0.08042935303175913,0.014560623812271686,-0.008755906000265642,-0.2042393230468518
1949,6.0,300.55334,815.9370200000001,0.0,0.0,0.0,0.0,0.0,-0.019425311878866786,0.011541640073071189,-0.14429825383362888,-0.11526786839855288,0.03539410471462617,0.015809489011025087,-0.19844316770481582
1950,6.0,300.4552,1121.5826,0.0,0.0,0.0,0.0,0.0,-0.019435278688450602,-0.060885434518424535,-0.13592300208455588,-0.14412467395899786,0.01040652131729369,-0.0016933173239424084,-0.18056262690014382
1951,6.0,300.31015,1197.4176,0.0,0.0,0.0,0.0,0.0,-0.01944524549803439,-0.09963840049304451,-0.17328798767469283,-0.09105865258228932,-0.017390635394572085,-0.028092927455806074,-0.17945263168059583
1952,6.0,299.88169,1083.8879,0.0,0.0,0.0,0.0,0.0,-0.019455212307618236,-0.1160449197677419,-0.1218995497730489,-0.09153038737834591,0.008250895766950012,-0.0013008991377637487,-0.16900458433445384
1953,6.0,300.22472,1352.9057,0.0,0.0,0.0,0.0,0.0,-0.019465179117202053,-0.1216533907937549,-0.17122675326126485,-0.1183694168221519,0.02231530040509868,-0.007954591141532023,-0.17503392905450382
1954,6.0,300.49136,1314.4882,0.0,0.0,0.0,0.0,0.0,-0.019475145926785897,-0.09307502129453941,-0.18875086307825983,-0.11774570059059589,0.012909272369045988,-0.02851402609136527,-0.2200065787804588
1955,6.0,299.21317,778.31208,0.0,0.0,0.0,0.0,0.0,-0.019485112736369714,0.0027534918466734872,-0.13459813704880189,-0.10474278364730791,-0.011048496315651688,-0.007517161042186033,-0.21239137606389683
1956,6.0,299.45717,648.9384200000001,0.0,0.0,0.0,0.0,0.0,-0.01949507954595353,-0.016480123788461584,-0.11829220716453188,-0.062488747774409235,0.002316422970988148,0.017426818555643084,-0.19892115830698978
1957,6.0,299.36342,666.89487,0.0,0.0,0.0,0.0,0.0,-0.019505046355537348,-0.026564632197475072,-0.1016909858036189,-0.07446377416700234,-0.0025719609985077876,0.05001749835734275,-0.18768570417563682
1958,6.0,299.07701000000003,642.47138,0.0,0.0,0.0,0.0,0.0,-0.019515013165121192,-0.008727402363027551,-0.13285675529444085,-0.05371110502637335,-0.005561188723346594,0.01956053176197418,-0.22845891859713977
1959,6.0,300.14567,939.9158699999999,0.0,0.0,0.0,0.0,0.0,-0.01952497997470498,-0.01838518393747638,-0.17768388204103383,-0.08964188576246532,-0.002678218408669578,-0.004560196821731386,-0.22837957098180878
1960,6.0,299.48503,1164.3423,0.0,0.0,0.0,0.0,0.0,-0.019534946784288798,-0.052229917791691546,-0.16351454198012885,-0.13818651161544687,0.02147201287687268,0.005115149037900905,-0.18738090841305582
1961,6.0,299.7458,1074.0201,0.0,0.0,0.0,0.0,0.0,-0.019544913593872615,-0.03175351129082757,-0.16771727034740586,-0.12700451655936987,0.015673304144584684,0.02107758298394548,-0.1885746791508718
1962,6.0,299.86401,1180.8419,0.0,0.0,0.0,0.0,0.0,-0.01955488040345646,-0.06951610736595563,-0.1861933387658518,-0.1032370129386999,0.0015058050577863888,-0.03213441024191937,-0.1930444293170018
1963,6.0,299.95122000000003,1145.277,0.0,0.0,0.0,0.0,0.0,-0.019564847213040276,-0.09175903131641132,-0.12874038623318687,-0.1276362070692129,0.009046384336283622,-0.026579076077650577,-0.18291975060777382
1964,6.0,300.76882,944.3452800000001,0.0,0.0,0.0,0.0,0.0,-0.019574814022624093,-0.08137978263880923,-0.12679581743627288,-0.07888178676977622,0.003927213303435776,0.005354144136337885,-0.18111503058966183
1965,6.0,300.41566,736.37358,0.0,0.0,0.0,0.0,0.0,-0.019584780832207938,-0.037174894805126465,-0.10956356417808188,-0.07710072614149922,0.0014834152703266886,0.027724737700718576,-0.19930764229263281
1966,6.0,299.60926,903.26599,0.0,0.0,0.0,0.0,0.0,-0.019594747641791727,-0.05962715825274235,-0.10970500375954088,-0.1052381413561959,-0.022014791703690778,-0.02347476148127858,-0.19982775370146383
1967,6.0,300.03522999999996,1009.0938,0.0,0.0,0.0,0.0,0.0,-0.019604714451375543,-0.036683163518346364,-0.14647220218818086,-0.12358396660678787,-0.04230695285937116,-0.01290466512084129,-0.22577991573024278
1968,6.0,299.22466000000003,813.654,0.0,0.0,0.0,0.0,0.0,-0.01961468126095936,-0.04887140407648205,-0.09983968059890931,-0.0986194133709783,-0.01018547472847809,0.004435974487296596,-0.17004357098699383
1969,6.0,298.73995,1075.7817,0.0,0.0,0.0,0.0,0.0,-0.019624648070543205,-0.07268482717843393,-0.15571474536034885,-0.09861121009816871,-0.008359045219023533,0.024785292067867875,-0.18957620594721483
1970,6.0,299.90924,1282.3378,0.0,0.0,0.0,0.0,0.0,-0.01963461488012702,-0.11415024340575189,-0.15773953316767983,-0.11790890478420289,0.007225550297856293,-0.00983964091829695,-0.17537503970066884
1971,6.0,299.44169,1071.2357,0.0,0.0,0.0,0.0,0.0,-0.01964458168971084,-0.043552107536258364,-0.17464205457832885,-0.1074347358504829,0.006187093575118594,-0.006203341851072175,-0.2038276597962238
1972,6.0,300.28073,978.8596699999999,0.0,0.0,0.0,0.0,0.0,-0.019654548499294683,-0.04286917494235816,-0.16149511426582683,-0.0931846113856051,0.027839418360286673,0.004423389515754556,-0.17463821436044985
1973,6.0,299.70336000000003,945.6845599999999,0.0,0.0,0.0,0.0,0.0,-0.019664515308878472,-0.024207532807847477,-0.15248644948174084,-0.1107705071671979,0.009099740769324492,0.02077587054141878,-0.1979225699359368
1974,6.0,299.74276000000003,759.8195599999999,0.0,0.0,0.0,0.0,0.0,-0.01967448211846229,-0.028005858874713078,-0.16243203623579386,-0.04052827539532936,-0.024955126970129277,-0.01135746565539459,-0.21762474190288977
1975,6.0,300.31185,649.29733,0.0,0.0,0.0,0.0,0.0,-0.019684448928046133,-0.028932146784880576,-0.11961455934003788,-0.048823470254001355,-0.026267272677377974,0.0033716129111772864,-0.25042752838777277
1976,6.0,300.2878,803.8353400000001,0.0,0.0,0.0,0.0,0.0,-0.01969441573762995,-0.026787792425999275,-0.13643686174026987,-0.08112122046504112,-0.0005653284139510704,0.008881414047752322,-0.2039288936137148
1977,6.0,299.71727999999996,861.3766400000001,0.0,0.0,0.0,0.0,0.0,-0.019704382547213767,-0.027346061820346178,-0.15234440195022186,-0.08214652216173052,0.011016910270284388,0.040399772991147165,-0.23123143431576576
1978,6.0,299.74312000000003,972.86646,0.0,0.0,0.0,0.0,0.0,-0.019714349356797556,-0.03298425653804267,-0.16311126844032883,-0.099631586386122,0.0048945390585533955,-0.007999498487289033,-0.2299372302280378
1979,6.0,299.70508,1098.8626,0.0,0.0,0.0,0.0,0.0,-0.0197243161663814,-0.051604362511204045,-0.15785992754456185,-0.12456252302336387,0.0013964690898457686,0.013033418811048287,-0.19549153976601283
1980,6.0,300.19003,1136.2198,0.0,0.0,0.0,0.0,0.0,-0.019734282975965217,-0.08364258694763062,-0.16638044896047183,-0.09535940175099021,0.01268760668441929,0.009607861275147081,-0.17755241284055884
1981,6.0,298.92089,1035.9914,0.0,0.0,0.0,0.0,0.0,-0.019744249785549034,-0.06532429879500634,-0.13817031987884887,-0.11142090227388689,-0.007754941557728143,0.003986105527072986,-0.15008427667466487
1982,6.0,300.01382,1333.7293,0.0,0.0,0.0,0.0,0.0,-0.01975421659513285,-0.12725555940414587,-0.16436379755144384,-0.11380105715628988,-0.013373094695071686,-0.02889062278253247,-0.16742538339109883
1983,6.0,300.81331,1250.4481,0.0,0.0,0.0,0.0,0.0,-0.019764183404716695,-0.09989528573789709,-0.13920549671101287,-0.14100420815603187,-0.046090834032811154,-0.008217695310198381,-0.17552462581293185
1984,6.0,300.24563,829.35604,0.0,0.0,0.0,0.0,0.0,-0.019774150214300512,-0.04467570665164896,-0.09869695740113131,-0.10873086511340088,0.00983095371723959,0.01998166687453698,-0.17341026669676082
1985,6.0,300.44146,984.01901,0.0,0.0,0.0,0.0,0.0,-0.019784117023884357,-0.025247893427523076,-0.15229743780808686,-0.12157188495571088,-0.02000360576570218,0.030277602075916676,-0.1939464549535248
1986,6.0,300.23807,1119.0191,0.0,0.0,0.0,0.0,0.0,-0.019794083833468118,-0.08463679402525122,-0.15184643005607587,-0.1036706333189949,0.023940417789985277,-0.00994336145418337,-0.2027791283277418
1987,6.0,299.78137999999996,874.3083300000001,0.0,0.0,0.0,0.0,0.0,-0.019804050643051962,-0.02769288415732487,-0.15149949322183587,-0.08657552852808942,-0.01132448436463959,-0.008151128628978764,-0.2228241739960338
1988,6.0,300.72596,727.88468,0.0,0.0,0.0,0.0,0.0,-0.01981401745263578,-0.016101579630602183,-0.14187504595447686,-0.06328213780146073,0.021448653409067278,-0.011423237745885788,-0.19450636682628383
1989,6.0,299.66067999999996,829.5131200000001,0.0,0.0,0.0,0.0,0.0,-0.019823984262219624,-0.00039426267626319663,-0.15805516057382982,-0.09370185124365271,0.01974728692765548,0.00951764128359306,-0.2137203852925598
1990,6.0,299.10646,987.4069599999999,0.0,0.0,0.0,0.0,0.0,-0.01983395107180344,-0.005997400997397395,-0.19097411618267782,-0.1031755491876339,0.013232384653684688,-0.00044035263687442156,-0.24221472089473176
1991,6.0,300.25191,1106.5495,0.0,0.0,0.0,0.0,0.0,-0.019843917881387257,-0.05610263668089915,-0.15848762584901085,-0.12177315695557488,0.01997240982162338,-0.003972209004601507,-0.2179103669735788
1992,6.0,300.21451,906.15309,0.0,0.0,0.0,0.0,0.0,-0.019853884690971046,-0.04506165057498866,-0.14857102818031886,-0.08181523193553472,-0.020021665935484583,0.006735155183983063,-0.18705778295616582
1993,6.0,300.10811,624.43404,0.0,0.0,0.0,0.0,0.0,-0.01986385150055489,-0.02044626129713888,-0.1121336426592289,-0.05723245309890335,-0.0015484853811486084,0.026897718916098177,-0.18031045934775683
1994,6.0,299.64461,920.4915599999999,0.0,0.0,0.0,0.0,0.0,-0.019873818310138708,-0.06277901657030653,-0.12780646348351588,-0.08922097255167442,0.013774644696451588,-0.01992908932684798,-0.20795742402379983
1995,6.0,299.38265,1207.5766,0.0,0.0,0.0,0.0,0.0,-0.019883785119722552,-0.07682498127253534,-0.16010771143390085,-0.13014045469136287,0.015114565615441486,0.01722948404566768,-0.17820847201530685
1996,6.0,300.56411,951.34251,0.0,0.0,0.0,0.0,0.0,-0.01989375192930634,-0.04444765647814216,-0.12627657742252787,-0.11846013310360488,0.006288556691107224,0.013029937283704688,-0.2073342144172938
1997,6.0,301.32685,831.30701,0.0,0.0,0.0,0.0,0.0,-0.019903718738890186,-0.026078884152535477,-0.13237895720978587,-0.094238734981389,-0.0033318839827063463,0.023003162460735378,-0.18390974661797882
1998,6.0,299.99854,959.41856,0.0,0.0,0.0,0.0,0.0,-0.019913685548473975,-0.05370408826943085,-0.15802395247074985,-0.07991124684487602,-0.0025528386386455574,-0.01773224658628648,-0.21180567697609282
1999,6.0,298.64734,1149.4771,0.0,0.0,0.0,0.0,0.0,-0.01992365235805782,-0.1129821180279669,-0.13194880214483287,-0.1044814157840129,-0.014953908732585884,-0.036112993501574965,-0.16410180147308684
2000,6.0,299.48904,1090.9131,0.0,0.0,0.0,0.0,0.0,-0.019933619167641636,-0.08050147110762662,-0.13508800294214787,-0.1160208753428689,0.005920521557984984,-0.029475614621766674,-0.16045059526774086
2001,6.0,300.34387999999996,955.70914,0.0,0.0,0.0,0.0,0.0,-0.019943585977225453,-0.030067315189912975,-0.13568880958894286,-0.12475558769741789,0.0031618217071225072,-0.002466122668587357,-0.17199195973678483
2002,6.0,300.93936,1080.8482,0.0,0.0,0.0,0.0,0.0,-0.01995355278680927,-0.038439879799720765,-0.16615869917608683,-0.12395228301813788,0.015097107316218486,-0.005675290614457574,-0.20953680735217278
2003,6.0,301.28398,1049.0228,0.0,0.0,0.0,0.0,0.0,-0.019963519596393114,-0.05549233182766674,-0.16197386480557585,-0.1014105587059429,0.016358784049236286,0.029266149481594072,-0.20908068268715682
2004,6.0,299.67644,987.1192900000001,0.0,0.0,0.0,0.0,0.0,-0.01997348640597693,-0.05186717729564185,-0.1353418220921979,-0.11285061842998889,0.0013534874259038085,0.031515826122119873,-0.2043239091651998
2005,6.0,300.59614,1111.5669,0.0,0.0,0.0,0.0,0.0,-0.019983453215560776,-0.08336211830670053,-0.15244186647734084,-0.10208461320246691,-0.008691468461481151,-0.0026344018266452173,-0.21105414937692282
2006,6.0,300.40126000000004,797.14895,0.0,0.0,0.0,0.0,0.0,-0.019993420025144537,-0.014374390470391884,-0.16019944096545385,-0.06773954354162243,-0.03635279534974156,-0.04182142367645316,-0.21438436808308978
2007,6.0,299.89213,748.22033,0.0,0.0,0.0,0.0,0.0,-0.02000338683472838,0.0013063773757544088,-0.15114632489948085,-0.07760034558030783,0.012686311750791488,-0.023264930557819877,-0.22166077036371482
2008,6.0,300.23967000000005,1020.4858,0.0,0.0,0.0,0.0,0.0,-0.0200133536443122,-0.04013200240047026,-0.16371271343468682,-0.10635748887416689,-0.003935665633119956,-0.0006804318723883973,-0.19936454641824883
2009,6.0,299.82574,1067.5574,0.0,0.0,0.0,0.0,0.0,-0.020023320453896043,-0.05215507002005465,-0.16475467904252084,-0.1076010507218969,0.02361227877160048,0.013274787143869489,-0.1973873611006158
2010,6.0,299.4146,990.3230699999999,0.0,0.0,0.0,0.0,0.0,-0.02003328726347986,-0.05996008386459954,-0.16081569967627385,-0.08025770441181872,-0.02065115971911078,0.0016627467578253282,-0.1998842525270398
2011,6.0,300.09264,937.70876,0.0,0.0,0.0,0.0,0.0,-0.020043254073063677,-0.08105295273955362,-0.13656092408251388,-0.06742617264344514,0.02193068890564048,0.004009562672188026,-0.17895975643445283
2012,6.0,299.33847000000003,914.1945199999999,0.0,0.0,0.0,0.0,0.0,-0.020053220882647466,-0.048907435250038045,-0.11328443132780289,-0.11570044513124488,0.01972631873008608,0.02077737724431748,-0.16771740206991884
2013,6.0,299.71339,1163.5504,0.0,0.0,0.0,0.0,0.0,-0.02006318769223131,-0.04069292448357896,-0.16673241151520785,-0.14626494188022587,0.00987714880254869,0.009169263709035872,-0.19337698813232282
2014,6.0,299.81777999999997,1238.7218,0.0,0.0,0.0,0.0,0.0,-0.020073154501815127,-0.06369751866670564,-0.17994556772174483,-0.13289741702095387,-0.0028128445924811476,-0.00920534807822212,-0.21694324001813078
2015,6.0,299.91205,885.2335199999999,0.0,0.0,0.0,0.0,0.0,-0.02008312131139897,-0.07029837089365902,-0.12387717078822488,-0.07491334209062123,-0.016749556109302483,-0.023605724056703577,-0.20733562283493281
2016,6.0,300.48046,669.33966,0.0,0.0,0.0,0.0,0.0,-0.02009308812098276,-0.03262856218318837,-0.1158089540844539,-0.05502503304054795,0.007507917364173752,0.013912564247063186,-0.19641420530707282
2017,6.0,301.10467,929.56614,0.0,0.0,0.0,0.0,0.0,-0.020103054930566605,-0.07402841302303553,-0.12753581424930488,-0.08100066599464333,-0.01137352566947959,0.002946969926768287,-0.18059386540072683
2018,6.0,301.01646,1320.5503,0.0,0.0,0.0,0.0,0.0,-0.020113021740150394,-0.05896784046567274,-0.19583329889224182,-0.14661319593959585,0.005250734566907155,-0.0006489271200766204,-0.18352014182202783
2019,6.0,300.19318,1197.2328,0.0,0.0,0.0,0.0,0.0,-0.02012298854973424,-0.04270696170734896,-0.18330224238802284,-0.13791967220161186,-0.003869738414038446,-0.01680307293983418,-0.1946557806860298
2020,6.0,299.46554,854.91715,0.0,0.0,0.0,0.0,0.0,-0.020132955359318055,-0.015355180090188287,-0.14537367695976486,-0.0991446133218115,0.023106493705933377,0.013271874049831989,-0.2034893963828398
2021,6.0,299.44273,930.6586599999999,0.0,0.0,0.0,0.0,0.0,-0.020142922168901872,-0.04476947585565326,-0.16120921561761084,-0.07691830160674533,-0.004681166319370146,0.014648191925663984,-0.2107690511962858
2022,6.0,299.66585,1138.2672,0.0,0.0,0.0,0.0,0.0,-0.02015288897848569,-0.07805165224109832,-0.16656211457090084,-0.10139103337651591,-0.01176368167348499,0.010728707491340991,-0.2103583302682508
2023,6.0,298.46109,954.8892599999999,0.0,0.0,0.0,0.0,0.0,-0.020162855788069534,-0.07703493783900643,-0.13642870507696486,-0.07679884955245633,-0.013460749947972589,0.0013091141642745086,-0.2120283285530668
2024,6.0,299.35625,733.35013,0.0,0.0,0.0,0.0,0.0,-0.02017282259765335,-0.02192339046517018,-0.1175830435520429,-0.08341369071029033,0.006435047324314724,0.01949863839286578,-0.2083670911717308
2025,6.0,300.04008,684.79164,0.0,0.0,0.0,0.0,0.0,-0.020182789407237195,-0.004580847264069426,-0.1091827442604979,-0.09439596809215672,0.03375348257670937,0.015730474754976985,-0.2148013204992398
2026,6.0,300.35425,837.6508,0.0,0.0,0.0,0.0,0.0,-0.020192756216820956,-0.02167637123654128,-0.14340643162561287,-0.08954212622386981,0.023119704460737182,-0.01025795250813109,-0.22590968267054976
2027,6.0,300.73856,1160.375,0.0,0.0,0.0,0.0,0.0,-0.0202027230264048,-0.0990625765407151,-0.15431433239713885,-0.0993481124453953,-0.006037646886069354,-0.013021838375655386,-0.2074425713829878
2028,6.0,300.86458999999996,1127.1893,0.0,0.0,0.0,0.0,0.0,-0.020212689835988618,-0.0976270281170375,-0.1409917857098059,-0.10401858340333489,-0.023593886255785276,0.00984774732439699,-0.16231863328460183
2029,6.0,300.22109,768.23324,0.0,0.0,0.0,0.0,0.0,-0.020222656645572462,-0.039359427570223066,-0.12272353488686988,-0.07144076073215413,-0.0001000046792584434,0.018250726662456484,-0.19261447690206882
2030,6.0,300.11542000000003,972.6658800000001,0.0,0.0,0.0,0.0,0.0,-0.02023262345515628,-0.017246865337883083,-0.14618087251942885,-0.13223839915591387,-0.018550028582995284,-0.002201464072942588,-0.18632674327401783
2031,6.0,300.14739,1315.5285,0.0,0.0,0.0,0.0,0.0,-0.020242590264740096,-0.07981920827204252,-0.16627125099719484,-0.15379737219611886,0.01965675303122048,-0.02101465103348458,-0.17447617540445784
2032,6.0,299.91947999999996,1211.7673,0.0,0.0,0.0,0.0,0.0,-0.020252557074323885,-0.07684697994545643,-0.15440268780585886,-0.13709733868545387,0.012265994331059387,-0.004508071487562016,-0.1834405003641678
2033,6.0,299.79446,820.58893,0.0,0.0,0.0,0.0,0.0,-0.02026252388390773,-0.06947300066695135,-0.11337959577719488,-0.06658595121002173,0.04352672967425376,0.00981855417046585,-0.19781446628276783
2034,6.0,299.63207,705.79103,0.0,0.0,0.0,0.0,0.0,-0.020272490693491546,-0.048671186869972155,-0.12873701211035388,-0.03713464547140417,0.0005063353921939126,-0.004721883166688585,-0.2230640305597058
2035,6.0,299.68518,1096.0124,0.0,0.0,0.0,0.0,0.0,-0.02028245750307539,-0.08066405620542252,-0.15427841268109385,-0.09821792315135432,0.01042164103528589,-0.008984187296120253,-0.21455602278253078
2036,6.0,299.4228,1300.766,0.0,0.0,0.0,0.0,0.0,-0.02029242431265918,-0.05718534406200405,-0.18282153627558081,-0.15539350454864484,-0.017175482881588183,0.01060956650483269,-0.21385772121111377
2037,6.0,298.79232,1045.3558,0.0,0.0,0.0,0.0,0.0,-0.020302391122243024,-0.03274219818190337,-0.16585450123106485,-0.1191653551732049,0.014324716897489487,0.003276985990963337,-0.2182604955456338
2038,6.0,299.87798,682.63845,0.0,0.0,0.0,0.0,0.0,-0.020312357931826813,-0.001032889926688299,-0.13697354992073685,-0.06949860549697834,-0.017378859401909884,-0.01837252135097668,-0.2216455918772168
2039,6.0,300.25397000000004,656.73298,0.0,0.0,0.0,0.0,0.0,-0.020322324741410658,-0.025876569518318578,-0.13030218967232488,-0.04345166912009586,0.004910430873121795,-0.030071641767839972,-0.19710566744031482
2040,6.0,300.19478,1164.1872,0.0,0.0,0.0,0.0,0.0,-0.020332291550994475,-0.07407470538035422,-0.15121228748099086,-0.1285968390915199,-0.0010132450134844972,-0.003107680613204197,-0.1884069051993138
2041,6.0,300.61492999999996,1384.736,0.0,0.0,0.0,0.0,0.0,-0.02034225836057829,-0.06633438147519373,-0.17827605579697683,-0.17631472784340882,0.016271667845388586,0.02187687012657898,-0.17352776317835683
2042,6.0,299.67172,825.15615,0.0,0.0,0.0,0.0,0.0,-0.020352225170162108,-0.0013107927143901688,-0.13843990520045485,-0.1110761743248649,0.00032834321867745265,0.02984543165651477,-0.2067489206295298
2043,6.0,300.43093,735.75031,0.0,0.0,0.0,0.0,0.0,-0.020362191979745953,-0.03497287536980407,-0.11721991498120489,-0.07145693017724994,0.015340027948192884,0.001037398585658269,-0.1853677628493738
2044,6.0,301.48066,1169.0641,0.0,0.0,0.0,0.0,0.0,-0.02037215878932977,-0.08939542686114173,-0.14387671139452587,-0.12209415458725488,0.008098197659654882,0.005428882375638974,-0.19970967966731082
2045,6.0,299.47649,1361.5656,0.0,0.0,0.0,0.0,0.0,-0.020382125598913614,-0.13693008149144686,-0.1804298506070398,-0.0965220039024801,0.008869597626411131,-0.017146439080721783,-0.19344586887412082
2046,6.0,299.26976,1190.7042,0.0,0.0,0.0,0.0,0.0,-0.020392092408497375,-0.09512849522545151,-0.15848150581840684,-0.1083343499517679,-0.01043992412009029,-0.02151002394112408,-0.20878318232529577
2047,6.0,300.29332999999997,790.85928,0.0,0.0,0.0,0.0,0.0,-0.02040205921808122,-0.034155903973175264,-0.1147878006336739,-0.0914577748364296,-0.02032788936745648,-0.02121607704736378,-0.1788685132629478
2048,6.0,299.42927000000003,664.2416599999999,0.0,0.0,0.0,0.0,0.0,-0.020412026027665037,0.019327568338732483,-0.12148080390422188,-0.09975964093376001,0.016702087368617686,0.005045324656284775,-0.1934241346594758
2049,6.0,300.02047999999996,1119.9545,0.0,0.0,0.0,0.0,0.0,-0.02042199283724888,-0.05011270333673875,-0.16616035077374985,-0.12416515673164688,0.01075054505749619,0.014114611383253685,-0.1737593009587078
2050,6.0,299.32015,1324.7785,0.0,0.0,0.0,0.0,0.0,-0.020431959646832698,-0.08962609425965681,-0.1865063418542428,-0.12656716741870688,0.0024613161140879876,0.024817318877028677,-0.2059632667669918
2051,6.0,299.72122,1111.4691,0.0,0.0,0.0,0.0,0.0,-0.020441926456416515,-0.09069467896086791,-0.15940339115688984,-0.08776079201806583,-0.013045882800528387,-0.005947640892936454,-0.19670138065041481
2052,6.0,300.65705,764.00143,0.0,0.0,0.0,0.0,0.0,-0.020451893266000304,-0.028067135174510573,-0.14252249250337487,-0.06164772587340685,-0.012438695717853688,0.003359464954403377,-0.2106042156700178
2053,6.0,300.85605,808.9422400000001,0.0,0.0,0.0,0.0,0.0,-0.02046186007558415,-0.0006343016654832003,-0.15901478947853787,-0.08624915357812872,0.007388677991080743,-0.018447546441381083,-0.22882213836048676
2054,6.0,300.24386,973.19779,0.0,0.0,0.0,0.0,0.0,-0.020471826885167965,-0.015429162546239784,-0.15849485032222385,-0.12190381555596988,0.007492896336741294,0.014327129445977587,-0.2322737849586378
2055,6.0,299.88975,875.8971,0.0,0.0,0.0,0.0,0.0,-0.02048179369475181,-0.04831225214129805,-0.13561419385157886,-0.08232439619028532,0.008853438009841301,0.008840297574594442,-0.23524380338675577
2056,6.0,299.77216,672.36716,0.0,0.0,0.0,0.0,0.0,-0.0204917605043356,-0.033437759925049965,-0.1194481026136099,-0.051496969146355154,0.004502907965052415,0.01970419238765238,-0.2393457437665858
2057,6.0,299.81001000000003,695.04175,0.0,0.0,0.0,0.0,0.0,-0.020501727313919443,-0.029907450668635573,-0.13027437595707989,-0.05109351018178686,0.007998884660378453,0.0006473538061163465,-0.23239164621026978
2058,6.0,300.27983,1078.7339,0.0,0.0,0.0,0.0,0.0,-0.02051169412350326,-0.03765131588289557,-0.16787924850839184,-0.1223776214352309,0.0015113516901587986,-0.009397165137427992,-0.21823875119848782
2059,6.0,299.97758,1392.832,0.0,0.0,0.0,0.0,0.0,-0.020521660933087077,-0.08024853956466423,-0.16284653658670184,-0.18029107587334384,-0.008446808788360122,-0.016893455862004286,-0.16975778379628884
2060,6.0,300.42978,1165.4543,0.0,0.0,0.0,0.0,0.0,-0.020531627742670894,-0.05363262880612835,-0.15705686604530586,-0.14357950487519386,-0.016021324143181588,-0.017840533637723584,-0.18549800601722782
2061,6.0,301.43941,716.31853,0.0,0.0,0.0,0.0,0.0,-0.02054159455225471,-0.04493525573101446,-0.1030271283129859,-0.06978056564205563,0.003419699531773067,-0.005429875968687036,-0.17671965298087183
2062,6.0,301.3929,809.5674,0.0,0.0,0.0,0.0,0.0,-0.020551561361838527,-0.05478193205005575,-0.12470217928464689,-0.06660416235406903,0.0030103959379779474,-0.006332224122716864,-0.21212568162267478
2063,6.0,300.68431,1310.7095,0.0,0.0,0.0,0.0,0.0,-0.020561528171422372,-0.13360553698583985,-0.14073093460406186,-0.12408648799388289,0.02288763979033418,0.0087574761326206,-0.17927665040322782
2064,6.0,300.83173999999997,1265.7939999999999,0.0,0.0,0.0,0.0,0.0,-0.02057149498100619,-0.07969870041114933,-0.15155680264749186,-0.15351427011817886,-0.007200307806065054,0.0024330125937446477,-0.19451798880493082
2065,6.0,299.19495,668.5868,0.0,0.0,0.0,0.0,0.0,-0.020581461790589978,0.02739530070895568,-0.1281439061643189,-0.1024850800394899,0.005211992645358625,0.013404984715468986,-0.2154129182595998
2066,6.0,299.37707,682.97465,0.0,0.0,0.0,0.0,0.0,-0.020591428600173795,0.04451590191212746,-0.13801309386083188,-0.11411004777428489,0.015330392952991987,-0.01148332347681579,-0.23196945529110277
2067,6.0,300.61229,1161.3585,0.0,0.0,0.0,0.0,0.0,-0.02060139540975764,-0.0885170444024521,-0.14826186530980687,-0.1162450873249969,0.03058670111167237,0.01077478605288859,-0.20983948542204478
2068,6.0,299.06892999999997,1221.2216,0.0,0.0,0.0,0.0,0.0,-0.020611362219341456,-0.11440558243095189,-0.15593366817695486,-0.1008816239152411,-0.011924974877403387,1.137695754756829e-05,-0.20968298894409979
2069,6.0,299.52677,937.8032400000001,0.0,0.0,0.0,0.0,0.0,-0.020621329028925273,-0.07644526275781002,-0.14237644263396085,-0.06624706667432644,-0.026125769261162675,-0.02167648370730238,-0.2122770105251098
2070,6.0,300.24257,498.6008,0.0,0.0,0.0,0.0,0.0,-0.020631295838509117,0.045225764667185454,-0.12870172060937088,-0.06808624023558874,-0.03692838321479767,-0.013581318603871788,-0.1994728932514418
2071,6.0,299.68438,795.05756,0.0,0.0,0.0,0.0,0.0,-0.020641262648092934,0.014585161689943385,-0.14594115781077086,-0.1103216475053989,-0.004763228026419006,-0.0095586286686882,-0.2009002789323138
2072,6.0,299.45268,1450.7175,0.0,0.0,0.0,0.0,0.0,-0.020651229457676723,-0.06967877656350983,-0.18402741535209183,-0.18727570265517282,0.014307687203058786,-0.026183287416339275,-0.1943164026975358
2073,6.0,300.65334,1254.2275,0.0,0.0,0.0,0.0,0.0,-0.02066119626726054,-0.09137623657438242,-0.18736860755684182,-0.1025090028743509,0.007771734759585504,0.013052234865405287,-0.2175750318529838
2074,6.0,300.7493,713.05581,0.0,0.0,0.0,0.0,0.0,-0.020671163076844384,-0.022811252891795378,-0.15698790424349984,-0.03695200916737936,0.0062899529497450245,0.013497989928897886,-0.22948213907812376
2075,6.0,300.90606,723.0613599999999,0.0,0.0,0.0,0.0,0.0,-0.0206811298864282,-0.06718738201887833,-0.10327794824273989,-0.04932726934947245,-0.0018477233656060985,0.01741299174477848,-0.2040030027260288
2076,6.0,301.02467,1099.2527,0.0,0.0,0.0,0.0,0.0,-0.020691096696012018,-0.06136390945414634,-0.15573128160198085,-0.1170501753244529,-0.018603849388556984,0.01166596991334159,-0.21229649532453282
2077,6.0,301.1927,1180.4571,0.0,0.0,0.0,0.0,0.0,-0.020701063505595863,-0.04594461697713066,-0.13877398389092585,-0.17411087847840584,-0.025585423247834676,-0.002056761522186558,-0.1770653941799938
2078,6.0,299.76642000000004,938.36276,0.0,0.0,0.0,0.0,0.0,-0.02071103031517968,-0.012845160995468686,-0.15392187023590587,-0.11847181587725789,0.0009452684555457332,-0.014111466254943287,-0.2083114637412408
2079,6.0,299.75942000000003,863.0198,0.0,0.0,0.0,0.0,0.0,-0.02072099712476347,-0.07006441853831974,-0.11749707941355889,-0.07477497367021534,-0.002138802660258388,0.008707984032811112,-0.17112199333342584
2080,6.0,300.40265,1288.1142,0.0,0.0,0.0,0.0,0.0,-0.020730963934347313,-0.14705538841573684,-0.14302174109264687,-0.1014774129475409,0.006179404526734745,-0.014793257929230886,-0.2076241052709038
2081,6.0,299.93136,1676.62,0.0,0.0,0.0,0.0,0.0,-0.02074093074393113,-0.16670339203234386,-0.21762962576837178,-0.12531758686538289,-0.023145199859753374,0.02043581570185798,-0.18609084851823682
2082,6.0,300.0571,1365.4575,0.0,0.0,0.0,0.0,0.0,-0.020750897553514946,-0.07133860485707214,-0.18527753292796884,-0.15844882850268185,-0.008550480586916731,0.01017677091011909,-0.21613253861312082
2083,6.0,300.75211,836.20962,0.0,0.0,0.0,0.0,0.0,-0.020760864363098763,0.012470412472483887,-0.14374217204624787,-0.12291507968577388,-0.0070358103000304146,-0.005326537630738334,-0.1975093665451568
2084,6.0,298.85679,730.9476099999999,0.0,0.0,0.0,0.0,0.0,-0.020770831172682608,0.007243678963345452,-0.13353089085097286,-0.09590261222235091,0.02109842959150288,-0.031815924457237264,-0.2128074266874578
2085,6.0,299.6003,1070.2232,0.0,0.0,0.0,0.0,0.0,-0.020780797982266397,-0.07408293195791613,-0.15559950842647585,-0.0956386869158035,0.02448898430137458,-0.027615003728138677,-0.21534279122017877
2086,6.0,299.60545,972.2871,0.0,0.0,0.0,0.0,0.0,-0.020790764791850214,-0.06924547434374624,-0.14678476957902886,-0.07952075545508752,0.04101605804646976,-0.026439825116407575,-0.2340987699787498
2087,6.0,300.01322000000005,730.08212,0.0,0.0,0.0,0.0,0.0,-0.02080073160143403,-0.013940204696541088,-0.15168286109243287,-0.05630367461999004,0.0023361364609587178,0.032393554021244865,-0.22368365326085776
2088,6.0,297.93586,650.84343,0.0,0.0,0.0,0.0,0.0,-0.020810698411017875,0.0015257257574024085,-0.1140580680441549,-0.08530781079797542,0.0006160396765458824,0.013940816699601486,-0.2281329459074688
2089,6.0,299.08661,1063.4474,0.0,0.0,0.0,0.0,0.0,-0.020820665220601692,-0.02034267268641548,-0.16665248634731986,-0.13626629121843586,-0.020313652190301377,0.039051411698824263,-0.2060130477444048
2090,6.0,299.31177,1290.6512,0.0,0.0,0.0,0.0,0.0,-0.020830632030185536,-0.06981705480465684,-0.16410540864344283,-0.15840326264568486,-0.016748217605920383,-0.012494546063365686,-0.19843713886672082
2091,6.0,300.8885,1382.3046,0.0,0.0,0.0,0.0,0.0,-0.020840598839769298,-0.0921752116359851,-0.19071558541966283,-0.13729528722498988,-0.013282608421391387,-0.028748409077997073,-0.17771777525687882
2092,6.0,300.43245,1140.1152,0.0,0.0,0.0,0.0,0.0,-0.020850565649353142,-0.0900879265624861,-0.16634745753721586,-0.09013115586475251,-0.029655293248749572,-0.040649932281835964,-0.2052053962221958
2093,6.0,300.61436000000003,915.97959,0.0,0.0,0.0,0.0,0.0,-0.02086053245893696,-0.060329472294555354,-0.11789558054538789,-0.1002098745626946,-0.0017705122894359584,-0.0018851381321736483,-0.18622419223139683
2094,6.0,299.05527,1127.0946,0.0,0.0,0.0,0.0,0.0,-0.020870499268520804,-0.03334623912301757,-0.16625640688322982,-0.14300597492109085,-0.002244978706437148,0.011294201358900888,-0.2194400199870438
2095,6.0,300.45611,1186.4643,0.0,0.0,0.0,0.0,0.0,-0.02088046607810462,-0.060389505336480145,-0.14815446079920686,-0.15211154694474086,0.014471794202504886,0.045762833829690056,-0.17603382451818583
2096,6.0,300.55687,850.8394900000001,0.0,0.0,0.0,0.0,0.0,-0.020890432887688437,-0.02224558778496858,-0.11986723351747489,-0.11652113718224089,0.03616896645034907,0.008192616762273322,-0.19639036353221984
2097,6.0,300.04339,669.38462,0.0,0.0,0.0,0.0,0.0,-0.020900399697272254,-0.04537533254094666,-0.12318415838232988,-0.034916718009511766,0.030120710430432674,-0.0008352851626462273,-0.20054622908237182
2098,6.0,299.12529,990.5392699999999,0.0,0.0,0.0,0.0,0.0,-0.0209103665068561,-0.08859803246969501,-0.11912907068712388,-0.09337210014435882,0.009727100952215122,-0.03345020466277817,-0.18473663975958682
2099,6.0,299.67804,1309.8438,0.0,0.0,0.0,0.0,0.0,-0.020920333316439887,-0.0969842891281041,-0.1861227456313848,-0.1150527655348239,-0.023611131772487276,-0.01131432653238709,-0.2177850887312148
2100,6.0,299.5901,1217.4268,0.0,0.0,0.0,0.0,0.0,-0.020930300126023732,-0.03970166900349966,-0.1910577093159278,-0.13930797682612686,-0.04130341780132996,-0.017996038143820683,-0.2098099289166278
2101,6.0,298.95592,1032.9153,0.0,0.0,0.0,0.0,0.0,-0.02094026693560752,-0.04892191763371736,-0.15658031425827384,-0.1084782112009659,-0.04258264605257996,0.016191410331467787,-0.2278566731352028
2102,6.0,299.91965,869.8182400000001,0.0,0.0,0.0,0.0,0.0,-0.020950233745191366,-0.03540971991191726,-0.14586147582290687,-0.08313182885047272,-0.004479781747420036,0.0063928803134531646,-0.2079318597237768
2103,6.0,299.44659,848.2420699999999,0.0,0.0,0.0,0.0,0.0,-0.020960200554775182,-0.04556895044955526,-0.14186919950139987,-0.07040625365830623,0.014390659213997488,0.028529434585635973,-0.21964188980446678
2104,6.0,298.88991,938.7108800000001,0.0,0.0,0.0,0.0,0.0,-0.020970167364359027,-0.03720294055464437,-0.15901827505888186,-0.08912345229579992,0.04078779205069166,-0.02267650177424648,-0.2083417599192308
2105,6.0,300.8893,738.81963,0.0,0.0,0.0,0.0,0.0,-0.020980134173942816,-0.008359471189365572,-0.14701311562156485,-0.06921012812725784,0.03161468082837607,0.012051574397897788,-0.25840522132760974
2106,6.0,299.76398,559.9213900000001,0.0,0.0,0.0,0.0,0.0,-0.020990100983526633,0.04074364271733446,-0.1146046050155939,-0.09634116105113232,0.02082776313204018,-0.00982790322648853,-0.2303867485024018
2107,6.0,300.04305,904.19296,0.0,0.0,0.0,0.0,0.0,-0.02100006779311045,-0.045946699206086156,-0.15626887157503686,-0.07263650629441502,-0.00931498386686733,0.0048884945150818445,-0.23928114907271075
2108,6.0,300.26138,1188.9088,0.0,0.0,0.0,0.0,0.0,-0.021010034602694294,-0.07925523529288273,-0.16356390752500083,-0.11857945343538089,-0.004547169059895646,-0.00987063502295583,-0.21447859020988877
2109,6.0,300.04623,1078.2713,0.0,0.0,0.0,0.0,0.0,-0.02102000141227811,-0.1031025141204259,-0.15406236749477187,-0.07060266307094033,-0.015597651852368385,-0.012895594505946089,-0.2018209179731738
2110,6.0,300.0671,1164.2065,0.0,0.0,0.0,0.0,0.0,-0.021029968221861955,-0.07432421011147843,-0.17477523617147284,-0.1047902544144929,-0.0020471896524668883,-0.02092018370016138,-0.20038919558187382
2111,6.0,299.55576,1105.3219,0.0,0.0,0.0,0.0,0.0,-0.021039935031445717,-0.06413301254643554,-0.12938986941478586,-0.14246736156543385,-0.02999523764404947,-0.008928612250660422,-0.17019356239929684
2112,6.0,298.90522000000004,1198.3535,0.0,0.0,0.0,0.0,0.0,-0.02104990184102956,-0.04221617983591256,-0.1836709843644148,-0.13838237285977686,-0.010077224863319661,-0.004742594809332665,-0.2122254259625188
2113,6.0,300.2339,1316.1196,0.0,0.0,0.0,0.0,0.0,-0.021059868650613378,-0.1134115840828519,-0.15652999625830785,-0.13012591455242786,-0.01979851887921168,0.03226369892817917,-0.18380860399299684
2114,6.0,298.66724,957.31291,0.0,0.0,0.0,0.0,0.0,-0.021069835460197223,-0.06659741613490323,-0.12002974870101389,-0.10437205570071989,0.00982451846452948,0.03116847790833927,-0.2002965946552348
2115,6.0,298.38367999999997,884.7203099999999,0.0,0.0,0.0,0.0,0.0,-0.02107980226978104,-0.06718709729560023,-0.14874571249755886,-0.05300007196744986,-0.022533576768140877,0.00997932990755818,-0.19720147023726983
2116,6.0,299.147,1021.5701,0.0,0.0,0.0,0.0,0.0,-0.021089769079364856,-0.050084871382991954,-0.15974568730567185,-0.1007012431059389,0.0002990745472163597,-0.014869283097483987,-0.2275447846219218
2117,6.0,299.15345,1192.1123,0.0,0.0,0.0,0.0,0.0,-0.021099735888948673,-0.04714029870463525,-0.20268530136848179,-0.11254677512250189,0.007469349620317414,-0.015946900923336588,-0.2192294362187608
2118,6.0,301.11502,1114.3358,0.0,0.0,0.0,0.0,0.0,-0.021109702698532518,-0.03448191212659977,-0.16484748261917984,-0.13940086146279385,0.02392576011403868,-0.022342360262269278,-0.2344351690119498
2119,6.0,301.20135,914.8053699999999,0.0,0.0,0.0,0.0,0.0,-0.021119669508116307,-0.04746630280505936,-0.13387424077985885,-0.0967374462049926,0.012089391931380089,-0.004318319533384956,-0.19108219957084482
2120,6.0,299.40779,948.18429,0.0,0.0,0.0,0.0,0.0,-0.02112963631770015,-0.05399998161663325,-0.15034080120248186,-0.08388357024541382,0.0008269672912503172,-0.016416764246458482,-0.2118979333976978
2121,6.0,300.47431,1204.1636,0.0,0.0,0.0,0.0,0.0,-0.02113960312728394,-0.09658963935990522,-0.15464493563976683,-0.11480108434248489,-0.01154952214559909,0.031181889286662868,-0.18614353752343682
2122,6.0,299.85014,969.1701800000001,0.0,0.0,0.0,0.0,0.0,-0.021149569936867785,-0.035428876418307866,-0.14540085232744684,-0.1137738108611009,-0.02993521270812547,0.01984440087023988,-0.21698816752756478
2123,6.0,299.70732999999996,817.33819,0.0,0.0,0.0,0.0,0.0,-0.0211595367464516,-0.010193276754248089,-0.12916324589741987,-0.1090938720942269,-0.037059892945276666,0.011826388682423687,-0.19824573592283082
2124,6.0,299.32518999999996,821.40513,0.0,0.0,0.0,0.0,0.0,-0.021169503556035446,-0.01258519040406159,-0.12655824068532587,-0.11054321490476589,-0.023916312570106273,-0.00015176489382052885,-0.22166782258441078
2125,6.0,298.79472999999996,965.34461,0.0,0.0,0.0,0.0,0.0,-0.021179470365619235,-0.05014561572648695,-0.15911721893114686,-0.08417782010095402,0.008254989500004032,0.01956772077143368,-0.21121573237036984
2126,6.0,299.92318,1059.5459,0.0,0.0,0.0,0.0,0.0,-0.021189437175203052,-0.08144959455744913,-0.14737297139457983,-0.09325294091934873,0.023145214045254776,-0.01109697121368579,-0.21129769417095878
2127,6.0,300.14811000000003,1084.9645,0.0,0.0,0.0,0.0,0.0,-0.02119940398478687,-0.10731048099071988,-0.12122261764624088,-0.101269018812724,0.03970096479468017,-0.015955131553898886,-0.17760532476078084
2128,6.0,300.34847,1048.5755,0.0,0.0,0.0,0.0,0.0,-0.021209370794370713,-0.061581894001159744,-0.17230143671482784,-0.08485744949952821,0.018688255148387182,-0.01765099811376788,-0.22374395177430878
2129,6.0,301.26466,1273.7715,0.0,0.0,0.0,0.0,0.0,-0.02121933760395453,-0.06692598578458053,-0.16759891260322485,-0.15266984774984085,0.017195878592851085,-0.011638529074133389,-0.18221831809354783
2130,6.0,299.7134,1361.786,0.0,0.0,0.0,0.0,0.0,-0.021229304413538375,-0.06270942959318884,-0.17489498206829082,-0.17634452752884983,-0.008737601333234112,-0.007618504189362823,-0.21028600447611281
2131,6.0,299.40754,1206.0632,0.0,0.0,0.0,0.0,0.0,-0.021239271223122136,-0.1029874291740679,-0.13566584934167686,-0.12795982901865188,-0.03346119741311307,-0.03145788848140187,-0.17271590666823283
2132,6.0,299.38199,1074.0275,0.0,0.0,0.0,0.0,0.0,-0.02124923803270598,-0.060755252145576547,-0.14818971177018586,-0.1175325735645619,-0.032837272452036464,-0.026502257534569175,-0.1996694840358438
2133,6.0,299.99222000000003,940.9191800000001,0.0,0.0,0.0,0.0,0.0,-0.021259204842289797,-0.07767584993800952,-0.14462522964089886,-0.06371485841566693,-0.020448667766126378,0.004092157551439506,-0.2104944198891818
2134,6.0,300.95508,956.8021699999999,0.0,0.0,0.0,0.0,0.0,-0.021269171651873642,-0.019220295550645482,-0.15154598113642384,-0.12007769569574588,-0.002861453442178467,0.008650564770844273,-0.21741772477495877
2135,6.0,301.82769,1039.0868,0.0,0.0,0.0,0.0,0.0,-0.02127913846145746,-0.03995658752990816,-0.16794967952284284,-0.10795017617635289,0.01928221222450618,0.010800942090969991,-0.2289427049898858
2136,6.0,299.52493,973.3724,0.0,0.0,0.0,0.0,0.0,-0.021289105271041275,-0.023947927999726476,-0.14727533461494385,-0.12465764694275189,0.02170065580168798,0.00837468149191671,-0.2134309807989978
2137,6.0,298.78046,1001.9738,0.0,0.0,0.0,0.0,0.0,-0.021299072080625092,-0.06181742905315524,-0.16162386795603384,-0.08113371991827473,0.03977513368875006,0.002068201318465578,-0.24624378832736976
2138,6.0,299.4271,1021.0272,0.0,0.0,0.0,0.0,0.0,-0.021309038890208937,-0.04453298530881346,-0.17362111391006985,-0.09221267250543222,-0.012739285479269589,-0.02138049511459058,-0.20677038126664782
2139,6.0,300.07121,1047.5839999999998,0.0,0.0,0.0,0.0,0.0,-0.021319005699792726,-0.08403430740979043,-0.1281416060865919,-0.10626346939738791,0.016655369446256982,-0.030699417079296572,-0.21352449365072682
2140,6.0,299.40817999999996,1191.4689,0.0,0.0,0.0,0.0,0.0,-0.02132897250937657,-0.05655982525852015,-0.1743925012111998,-0.13122448031084788,-0.01977041841418838,-0.008143455184646452,-0.19679091142925081
2141,6.0,300.21993,1019.4274,0.0,0.0,0.0,0.0,0.0,-0.02133893931896036,-0.03616562373826916,-0.15295662792564385,-0.12075822486040888,0.01113149771084329,0.027654950100081073,-0.22512683551078877
2142,6.0,300.37874,937.8597300000001,0.0,0.0,0.0,0.0,0.0,-0.021348906128544204,-0.013915861362888587,-0.14411444013298785,-0.12705563502691486,-0.02234995558501888,0.017597762966763984,-0.17636574498594382
2143,6.0,300.87854,1207.4256,0.0,0.0,0.0,0.0,0.0,-0.02135887293812802,-0.08738828683080241,-0.16915160692396386,-0.11048734429425189,0.0008973117032152701,-0.001876841336379818,-0.20038431171639182
2144,6.0,301.04312000000004,1323.1402,0.0,0.0,0.0,0.0,0.0,-0.021368839747711865,-0.11890567943757689,-0.16309656618137783,-0.1201993262377499,-0.01237084950440779,0.015522487946700286,-0.19789077414779882
2145,6.0,300.51496000000003,983.36101,0.0,0.0,0.0,0.0,0.0,-0.021378806557295654,-0.07408183967430833,-0.16093270979782184,-0.06390264405669993,-0.0033376481598752263,0.009199328663353051,-0.2430894394410598
2146,6.0,300.1844,788.94367,0.0,0.0,0.0,0.0,0.0,-0.02138877336687947,0.011580490108405388,-0.16500091908182285,-0.08639874475664222,-0.006535106480964795,0.017765148843533685,-0.23671476895442878
2147,6.0,300.25291,832.78877,0.0,0.0,0.0,0.0,0.0,-0.021398740176463288,-0.023901300256624677,-0.13214337656153588,-0.0971023124997521,-0.02004260373555098,-0.027867574554065473,-0.22894162081227876
2148,6.0,299.54978,1026.3399,0.0,0.0,0.0,0.0,0.0,-0.021408706986047132,-0.053498097563851155,-0.14990021979399987,-0.10858337642884489,0.002187447885634298,-0.0010260928423674789,-0.21545364078111878
2149,6.0,300.21997000000005,1118.2068,0.0,0.0,0.0,0.0,0.0,-0.02141867379563095,-0.0856327773302971,-0.16128729667031685,-0.0929868796815905,-0.0043198504529610455,-0.024408368096918376,-0.20204665996295282
2150,6.0,300.13408,937.56801,0.0,0.0,0.0,0.0,0.0,-0.021428640605214794,-0.049272003649268155,-0.14044016222286487,-0.09528509708140691,0.03059366213985937,-0.004771930324902855,-0.1985807772008968
2151,6.0,300.8058,1009.9967,0.0,0.0,0.0,0.0,0.0,-0.021438607414798555,-0.04127456955773286,-0.17836971050371983,-0.08736948090894642,-0.002723013081015467,-0.038283983165834964,-0.2030995484068648
2152,6.0,300.27584,1356.8271,0.0,0.0,0.0,0.0,0.0,-0.0214485742243824,-0.07122470440008102,-0.17717780414608783,-0.16403906102689483,0.006427420489487014,0.01012796184220201,-0.21400729719087577
2153,6.0,300.28495,1465.2493,0.0,0.0,0.0,0.0,0.0,-0.021458541033966216,-0.07185169444271014,-0.2116225421530188,-0.16192496535574985,-0.011452592614532887,0.021781847532200978,-0.24301295932351177
2154,6.0,300.16533,905.77627,0.0,0.0,0.0,0.0,0.0,-0.02146850784355006,-0.028345232810206674,-0.15675441089045583,-0.09023372818562561,-0.024325268416467077,0.038162395180335165,-0.2310680376046398
2155,6.0,301.47762,732.7909099999999,0.0,0.0,0.0,0.0,0.0,-0.021478474653133878,-0.01030339272211569,-0.15085076997781185,-0.06159597919079984,-0.01955155639258838,-0.012706278857262089,-0.2165933951561038
2156,6.0,299.98169,965.60046,0.0,0.0,0.0,0.0,0.0,-0.021488441462717695,-0.07966801007887044,-0.14098906006703688,-0.07286135966385633,-0.02685618579449918,0.0023636318130222976,-0.21315808214956478
2157,6.0,299.27725,1150.3053,0.0,0.0,0.0,0.0,0.0,-0.02149840827230151,-0.07992733219021352,-0.15621337586705986,-0.1135233759663849,0.019654414449989683,0.012128360516975988,-0.22513698827679077
2158,6.0,298.8514,1068.0302,0.0,0.0,0.0,0.0,0.0,-0.021508375081885356,-0.05163205159668675,-0.15524986621446885,-0.1177725821157489,0.025429666442462678,0.0016009588680523385,-0.20958599051202678
2159,6.0,299.84238,948.0304699999999,0.0,0.0,0.0,0.0,0.0,-0.021518341891469145,-0.013300177164875287,-0.15343644237799786,-0.12144097304279088,0.031004278703134068,-0.037752257884357765,-0.21736004044676577
2160,6.0,300.40045,1072.7326,0.0,0.0,0.0,0.0,0.0,-0.02152830870105299,-0.06548194024556434,-0.13422496716947288,-0.12637701077243987,-0.004489837342737446,-0.020657078112944878,-0.19554354989364583
2161,6.0,301.4871,1536.0999,0.0,0.0,0.0,0.0,0.0,-0.02153827551063678,-0.12349838750334188,-0.1986407312093138,-0.14479689447284086,0.00986977497627095,-0.005900625682996414,-0.21103217198225377
2162,6.0,300.28145,1399.8527,0.0,0.0,0.0,0.0,0.0,-0.021548242320220623,-0.12413920739658588,-0.17188335959106685,-0.12949769949042786,-0.01953523090697718,0.013456065692760286,-0.1953116980057638
2163,6.0,299.97393999999997,872.97035,0.0,0.0,0.0,0.0,0.0,-0.02155820912980444,-0.03399186182173557,-0.13818399875519888,-0.09318532471367551,-0.023298170227350378,-0.021205401444310178,-0.1990439743516108
2164,6.0,300.09165,764.68168,0.0,0.0,0.0,0.0,0.0,-0.021568175939388284,0.004486041403887816,-0.14479652970280488,-0.09213365014338332,-0.026333375087401772,0.006793024531644323,-0.22531888693474278
2165,6.0,299.77274,1086.7019,0.0,0.0,0.0,0.0,0.0,-0.0215781427489721,-0.04820632292284366,-0.16082327878702185,-0.12130063790394088,-0.00016684216676603986,0.007154618028580822,-0.24438944945186075
2166,6.0,299.10112999999996,1005.4473,0.0,0.0,0.0,0.0,0.0,-0.02158810955855589,-0.04298108132315246,-0.16483701574564683,-0.09781278320487011,0.007595167418359663,0.02259906109560368,-0.23945393861226377
2167,6.0,299.35562999999996,656.2504,0.0,0.0,0.0,0.0,0.0,-0.021598076368139707,-0.01052824710480709,-0.14348172624054387,-0.04547376573516126,0.019250330310109684,-0.028865547882307767,-0.22996203459048578
2168,6.0,298.74892,695.16418,0.0,0.0,0.0,0.0,0.0,-0.02160804317772355,-0.023110717945600278,-0.10618898538253689,-0.08201285015553812,-0.00014983877630793586,0.017066706430352786,-0.2100541323232288
2169,6.0,300.36032,1022.3542,0.0,0.0,0.0,0.0,0.0,-0.02161800998730737,-0.06395870414498264,-0.13550064904537287,-0.11131079238551989,0.022991008525785877,-0.0030290587889198273,-0.2178862313561968
2170,6.0,301.68095,1426.8065,0.0,0.0,0.0,0.0,0.0,-0.021627976796891185,-0.07482575675197722,-0.17894195363019583,-0.17994582103426984,-0.022535005450781877,0.0008489409976889532,-0.1939395141903398
2171,6.0,301.52616,1440.6671,0.0,0.0,0.0,0.0,0.0,-0.021637943606474974,-0.07615997205965402,-0.18211401412825381,-0.17965282963535384,-0.007857171704042471,-0.033926979364832174,-0.2166095260976958
2172,6.0,301.0061,1313.6470000000002,0.0,0.0,0.0,0.0,0.0,-0.02164791041605882,-0.08175580380391963,-0.1896224608142798,-0.12793761857645988,-0.017326122773955184,0.004647493992046945,-0.1990599735706898
2173,6.0,300.4317,1232.4303,0.0,0.0,0.0,0.0,0.0,-0.021657877225642636,-0.1086783078307139,-0.14871186994421887,-0.11723784950797488,0.026234595361652974,0.021668437488258276,-0.2172796390513308
2174,6.0,299.5642,1243.7208,0.0,0.0,0.0,0.0,0.0,-0.021667844035226452,-0.08705635521729332,-0.17532070923030685,-0.11568299696452289,-0.02045039941054728,0.006107270644165684,-0.17959254125440383
2175,6.0,300.30882,1127.7424,0.0,0.0,0.0,0.0,0.0,-0.021677810844810297,-0.05187202671062045,-0.16614351055708784,-0.12479000780331488,-0.001812500360329858,-0.0016775319006345085,-0.21013115959583079
2176,6.0,300.5878,801.93936,0.0,0.0,0.0,0.0,0.0,-0.021687777654394114,0.005018271182589805,-0.12585201549812688,-0.12293580065031888,-0.01070456478120829,0.017494986982620784,-0.18297380750060882
2177,6.0,300.56507999999997,687.70273,0.0,0.0,0.0,0.0,0.0,-0.02169774446397793,0.0024101548873887674,-0.15169361167599385,-0.059760999471701444,0.024862088319447077,0.018506447682944183,-0.2422473982104568
2178,6.0,299.94019,1063.3796,0.0,0.0,0.0,0.0,0.0,-0.021707711273561775,-0.07094720356869383,-0.14658109617642787,-0.1057125551855169,-0.00941673231408412,-0.006628502403632254,-0.19635901357412583
2179,6.0,300.12344,1317.1031,0.0,0.0,0.0,0.0,0.0,-0.021717678083145564,-0.0998275145049586,-0.16750948314939884,-0.13302945364148488,-0.015516805640139485,-0.02226255060489268,-0.23398495159501675
2180,6.0,300.44717,1305.9873,0.0,0.0,0.0,0.0,0.0,-0.02172764489272938,-0.08287446737807312,-0.1871296122557548,-0.1269834409572899,-0.0006186565773141503,-0.0008916270357817373,-0.21804421731178877
2181,6.0,300.35451,1187.2701,0.0,0.0,0.0,0.0,0.0,-0.021737611702313198,-0.05887957118321124,-0.17141771037511083,-0.13060319587953187,0.025495128478423276,8.331158245796302e-05,-0.21626121124331982
2182,6.0,299.71621,1099.5466,0.0,0.0,0.0,0.0,0.0,-0.021747578511897042,-0.04748641784604455,-0.17862400588131683,-0.10812429307353688,0.01943156326274598,0.003317619751773577,-0.23463455636662778
2183,6.0,299.83442,1079.2369,0.0,0.0,0.0,0.0,0.0,-0.02175754532148086,-0.04084146188198846,-0.16655300545250185,-0.12066661691886789,-0.00958467851815912,-0.024658861760140177,-0.2059212979478498
2184,6.0,299.49428,947.02857,0.0,0.0,0.0,0.0,0.0,-0.021767512131064676,-0.06294636495682254,-0.15562273211876784,-0.06930393684801603,0.01238477966678259,0.002750734894476398,-0.2307304530688228
2185,6.0,301.25157,888.57567,0.0,0.0,0.0,0.0,0.0,-0.02177747894064852,-0.07023428383808412,-0.14877957531590086,-0.05109095881803505,-0.006304551451885784,0.016893094131718585,-0.2155189852800678
2186,6.0,300.91639,750.24055,0.0,0.0,0.0,0.0,0.0,-0.02178744575023231,-0.05749488386155325,-0.11380675162185189,-0.056752763276311645,-0.004682038018431175,0.011246375954180888,-0.2107602561854178
2187,6.0,300.82299,816.53018,0.0,0.0,0.0,0.0,0.0,-0.021797412559816126,-0.015935546442715984,-0.13804577117655686,-0.0942234703686325,-0.02905192003945127,-0.03341335275664117,-0.2088222127191478
2188,6.0,299.4666,1226.3474,0.0,0.0,0.0,0.0,0.0,-0.021807379369399943,-0.05215500213229794,-0.16417484667279586,-0.15644913890032786,-0.003289669450415097,0.02023581330436928,-0.22104724742816478
2189,6.0,299.25661,1347.2863,0.0,0.0,0.0,0.0,0.0,-0.021817346178983787,-0.07258598564442903,-0.17380854491356784,-0.16314685378384083,0.007575778472396122,0.006545813494771493,-0.2257680708365738
2190,6.0,299.55621,1147.2059,0.0,0.0,0.0,0.0,0.0,-0.021827312988567604,-0.06478045402908304,-0.17254481938884783,-0.11139666533149489,0.024231596484472376,0.006236021699922424,-0.2287497112433388
2191,6.0,300.04984,1070.8463,0.0,0.0,0.0,0.0,0.0,-0.021837279798151393,-0.08438544720544522,-0.1248910187057839,-0.1162340631639089,0.01003292283317239,-0.02274372787863118,-0.1932220115295278
2192,6.0,299.67232,967.89481,0.0,0.0,0.0,0.0,0.0,-0.02184724660773521,-0.07903652424554762,-0.13926336342422385,-0.07591597130307302,0.028293861030136674,-0.024364294757318678,-0.20019440838264982
2193,6.0,301.00362,1190.5272,0.0,0.0,0.0,0.0,0.0,-0.021857213417319055,-0.046282660515242956,-0.18149559719472083,-0.13411229375835287,0.007255436109555794,0.019333666077834284,-0.18110211165088683
2194,6.0,300.96632999999997,1084.2777,0.0,0.0,0.0,0.0,0.0,-0.02186718022690287,-0.04923212313858225,-0.14252434675105788,-0.13783686940343987,-0.008775137487163642,0.0024901745915110974,-0.2112469911359548
2195,6.0,300.50172000000003,1033.4464,0.0,0.0,0.0,0.0,0.0,-0.021877147036486716,0.0022452294858368977,-0.19469739486763682,-0.12168973607484189,-0.01944586630115758,0.006821550156409583,-0.2153448785153848
2196,6.0,300.95787,1042.1499,0.0,0.0,0.0,0.0,0.0,-0.021887113846070505,-0.04524356443169216,-0.16777417447302184,-0.10376980010628191,-0.01121691469427329,0.01096159998707569,-0.26490485594907376
2197,6.0,301.08319,1241.2396,0.0,0.0,0.0,0.0,0.0,-0.02189708065565435,-0.07114255312172334,-0.1930904410040428,-0.1130728444419209,-0.004319143305716256,0.03935147558343826,-0.2228083875594758
2198,6.0,299.74422999999996,1103.5663,0.0,0.0,0.0,0.0,0.0,-0.02190704746523814,-0.07731442869359002,-0.17692713620384884,-0.08121501905329832,0.008858382467679282,-0.014028154805221087,-0.27247259803095175
2199,6.0,300.1633,894.2148599999999,0.0,0.0,0.0,0.0,0.0,-0.021917014274821983,-0.02066321334230038,-0.12020796926110289,-0.13094780223854188,0.005987275690473104,-0.03569508559058067,-0.2082107568138018
2200,6.0,299.6237,835.079,0.0,0.0,0.0,0.0,0.0,-0.0219269810844058,-0.0013414306616388986,-0.15383469019730184,-0.09866704017867872,0.02970826292422727,-0.018196214820326583,-0.24539500898360178
2201,6.0,299.59357,1025.6291,0.0,0.0,0.0,0.0,0.0,-0.021936947893989617,-0.03585780747714006,-0.14924876077470586,-0.1266590793352779,0.012093568548292289,9.171064051813551e-05,-0.2102209740846948
2202,6.0,300.75473,1317.819,0.0,0.0,0.0,0.0,0.0,-0.021946914703573434,-0.09397151863851681,-0.16614778647250983,-0.14046475380279186,0.0013513817908709987,-0.01670500552890568,-0.2157237732577788
2203,6.0,300.43371,1095.6902,0.0,0.0,0.0,0.0,0.0,-0.021956881513157278,-0.08500302415464532,-0.15130737087037485,-0.0967520623376851,-0.029375729440158767,-0.00012151710865530488,-0.18132104459999382
2204,6.0,299.10471,988.2407400000001,0.0,0.0,0.0,0.0,0.0,-0.021966848322741095,-0.06283686403176564,-0.12022659279794089,-0.11733705682526588,0.012417416452503589,0.01012721761000356,-0.18336834682454684
2205,6.0,298.95835,1138.5223,0.0,0.0,0.0,0.0,0.0,-0.02197681513232494,-0.06977031560404402,-0.14756531666106285,-0.12874671904631188,0.006087898112853765,0.04591846904505006,-0.2011689624613308
2206,6.0,300.18793999999997,1205.518,0.0,0.0,0.0,0.0,0.0,-0.0219867819419087,-0.04630887228207986,-0.1806325006270398,-0.13950599629316987,-0.014033375069736285,-0.0014105226660827488,-0.2256231760722738
2207,6.0,299.57001,1097.4762,0.0,0.0,0.0,0.0,0.0,-0.021996748751492545,-0.04928617800491705,-0.15321675962381684,-0.1311024343363029,0.008964852660362071,-0.01810921007398988,-0.23469443944753776
2208,6.0,300.39531,897.8168199999999,0.0,0.0,0.0,0.0,0.0,-0.022006715561076362,-0.05150778761767286,-0.15720247008467583,-0.06420364215790614,0.004722235980373406,8.028560222682202e-05,-0.23501151580133078
2209,6.0,300.13211,819.00406,0.0,0.0,0.0,0.0,0.0,-0.022016682370660207,-0.05226899378179804,-0.13866959886562388,-0.058018194100949945,0.016864199278616883,0.027250998695964177,-0.22084430356563578
2210,6.0,300.24325,1058.288,0.0,0.0,0.0,0.0,0.0,-0.022026649180244023,-0.06082287139100004,-0.16559935472338386,-0.0952709034740061,-0.016408259025119085,-0.008471510001947942,-0.19503004487546682
2211,6.0,300.67079,1281.882,0.0,0.0,0.0,0.0,0.0,-0.022036615989827812,-0.07136967515813852,-0.18910705088591281,-0.12918339944190887,-0.019348321727280682,0.009327384528216182,-0.2155093492716168
2212,6.0,301.1613,1123.9341,0.0,0.0,0.0,0.0,0.0,-0.02204658279941163,-0.045414052880268056,-0.15960504819179186,-0.13662881183921385,0.004644505613527016,-0.009431558493522351,-0.2138516518430148
2213,6.0,299.6747,914.24854,0.0,0.0,0.0,0.0,0.0,-0.022056549608995474,-0.019303176369075182,-0.16790192504562984,-0.09070362899900122,0.03367393433785857,0.02991393040302507,-0.24427189217525877
2214,6.0,299.15882999999997,1095.3348,0.0,0.0,0.0,0.0,0.0,-0.02206651641857929,-0.07422772235745584,-0.16801227811402084,-0.09071442619206682,0.007927228626556553,-0.008913826499901181,-0.24639060826685977
2215,6.0,299.16742,1276.1284,0.0,0.0,0.0,0.0,0.0,-0.022076483228163135,-0.09879850431290321,-0.17324821760826783,-0.11586444979243088,-0.015961711600048285,-0.019939172178593083,-0.22020536831757778
2216,6.0,299.50464,1147.2423,0.0,0.0,0.0,0.0,0.0,-0.022086450037746924,-0.04610154509961826,-0.2009883506310058,-0.1016431300013959,0.015728156438748184,-0.007576614910353672,-0.22063465198744478
2217,6.0,299.94697,984.1107,0.0,0.0,0.0,0.0,0.0,-0.02209641684733077,-0.04140649066775246,-0.14044737656357686,-0.1172912072582409,-0.01725083322527468,0.026085550324943377,-0.2064042129455098
2218,6.0,299.99217000000004,987.82034,0.0,0.0,0.0,0.0,0.0,-0.022106383656914558,-0.023428208718684177,-0.17133627546457383,-0.1055082333028519,0.01828102689344688,-0.01818163009838718,-0.2399999588261518
2219,6.0,300.54252,993.51898,0.0,0.0,0.0,0.0,0.0,-0.022116350466498402,-0.05082731620826555,-0.17008589444367084,-0.08109174603288222,-0.04045395046074406,-0.010050740937505902,-0.21131106907227878
2220,6.0,299.9024,1188.805,0.0,0.0,0.0,0.0,0.0,-0.02212631727608222,-0.10520900028331989,-0.15029354321781785,-0.10586448190551088,0.028387986898176173,0.0066641670846270835,-0.2113514065587598
2221,6.0,299.87922000000003,1282.7175,0.0,0.0,0.0,0.0,0.0,-0.022136284085666036,-0.12196225982173789,-0.17938811804672883,-0.08856370760930742,-0.0027760810417528673,0.029920356435159272,-0.16746016826703183
2222,6.0,300.2198,1069.7107,0.0,0.0,0.0,0.0,0.0,-0.022146250895249853,-0.07733775067114172,-0.14203058997732787,-0.1057969893163499,0.024346040043517078,0.015455394578078686,-0.18369952761973182
2223,6.0,300.02711,1098.8204,0.0,0.0,0.0,0.0,0.0,-0.022156217704833697,-0.04582285369936356,-0.14023705624031987,-0.14795405006192786,-0.02033789825194428,-0.011131569651600387,-0.19314590631451684
2224,6.0,300.37504,1341.5728,0.0,0.0,0.0,0.0,0.0,-0.022166184514417514,-0.04677180801426805,-0.2000585416767408,-0.16097427331692385,0.006935843551789464,0.002364610815268918,-0.21897035830069178
2225,6.0,300.86617,1329.5993,0.0,0.0,0.0,0.0,0.0,-0.02217615132400136,-0.056164036597208845,-0.18893872977930082,-0.15906220958321785,-0.015347458111176184,0.019053481146932182,-0.2295252528698788
2226,6.0,301.33326,1018.8391,0.0,0.0,0.0,0.0,0.0,-0.02218611813358512,-0.07898472284743521,-0.15937836387941984,-0.07133856736681844,-0.006914287162537014,-0.02869406138238337,-0.2200127292085658
2227,6.0,301.40502999999995,852.16294,0.0,0.0,0.0,0.0,0.0,-0.022196084943168964,-0.03011260037663227,-0.16805033578777684,-0.060873324153229345,-0.019099630635986783,-0.02082975619498688,-0.2257372882985358
2228,6.0,300.47434,774.95847,0.0,0.0,0.0,0.0,0.0,-0.02220605175275278,-0.02112480550485598,-0.1273720426356419,-0.08707117501325592,0.004005655073177377,0.0006764449662924203,-0.20449687095726982
2229,6.0,299.90477000000004,1093.7958,0.0,0.0,0.0,0.0,0.0,-0.022216018562336626,-0.011893629985559888,-0.19346565764857382,-0.12712731233898886,0.006535388367142614,0.038482305594657866,-0.2201176512564208
2230,6.0,299.40969,1268.8362,0.0,0.0,0.0,0.0,0.0,-0.022225985371920443,-0.04023327269496486,-0.1989108332884708,-0.14655042509590085,0.013395711450553786,-0.0003591229297476736,-0.2265833217345328
2231,6.0,299.42163999999997,1101.3767,0.0,0.0,0.0,0.0,0.0,-0.02223595218150423,-0.05052569799799816,-0.16517361742886685,-0.11909170202343587,-0.009700795966369021,-0.005306891319249395,-0.2273710527597758
2232,6.0,299.31462999999997,999.25959,0.0,0.0,0.0,0.0,0.0,-0.02224591899108805,-0.052588644804095155,-0.17923457012657484,-0.07192674587761713,0.02857479171311237,-0.014423838088521988,-0.2335934520213788
2233,6.0,299.71605,1171.9982,0.0,0.0,0.0,0.0,0.0,-0.022255885800671893,-0.07989961372047794,-0.15311819065408885,-0.12324036336537689,0.007127002809030413,0.018682818048350584,-0.1900293820544398
2234,6.0,300.51714,1282.1804,0.0,0.0,0.0,0.0,0.0,-0.02226585261025571,-0.06482895527161973,-0.18031693401589582,-0.14460494437389684,-0.003559881872507987,-0.016909417590829583,-0.23222623313144478
2235,6.0,300.69728,1081.9864,0.0,0.0,0.0,0.0,0.0,-0.022275819419839554,-0.03634349878007406,-0.13977800328251488,-0.15277533721775186,-0.02278116645657608,-0.011755638494191189,-0.1955265070269638
2236,6.0,300.20627,894.8798199999999,0.0,0.0,0.0,0.0,0.0,-0.022285786229423343,0.0016666675290872783,-0.14249746522590487,-0.13119032364997688,-0.0057750284695009335,0.015782697665130987,-0.24687393869706076
2237,6.0,300.3458,993.44832,0.0,0.0,0.0,0.0,0.0,-0.022295753039007188,-0.07029580939740623,-0.16255342359777383,-0.06913425089351934,-0.004364104657703596,0.024987897504863476,-0.21077988283985477
2238,6.0,301.07644,1199.3246,0.0,0.0,0.0,0.0,0.0,-0.022305719848590977,-0.13065114287426388,-0.12424190029422089,-0.10967167796375189,-0.01037066847575529,0.0033830696287329765,-0.2069720585665518
2239,6.0,300.38208,1225.3383,0.0,0.0,0.0,0.0,0.0,-0.02231568665817482,-0.11504549039910589,-0.15493590053848286,-0.1024908454325589,-0.0017458659940035584,-0.016075198650998587,-0.18933758554866484
2240,6.0,299.77305,994.59817,0.0,0.0,0.0,0.0,0.0,-0.022325653467758638,-0.03545258343089757,-0.14234316750067688,-0.12453726269837087,0.018921585368165083,0.011176837613067989,-0.18489190007240983
2241,6.0,298.7958,1071.5597,0.0,0.0,0.0,0.0,0.0,-0.022335620277342455,-0.008732359081191741,-0.15575182018150785,-0.16124321015846585,0.04444272802965575,0.008322938760985102,-0.20434699100247783
2242,6.0,300.09882999999996,1350.9372,0.0,0.0,0.0,0.0,0.0,-0.022345587086926272,-0.05343620216824254,-0.2062041163157618,-0.15101086349361187,0.00897937425682024,-0.01079780405541029,-0.22324854340291578
2243,6.0,300.0741,1406.2446,0.0,0.0,0.0,0.0,0.0,-0.022355553896510116,-0.1184670637342889,-0.18251882780820583,-0.12647735292984288,0.015081548860932985,-0.023566199196802775,-0.26086525071539574
2244,6.0,299.468,969.7750199999999,0.0,0.0,0.0,0.0,0.0,-0.022365520706093933,-0.06755438323159853,-0.15952455560384785,-0.06770844588280334,0.002929137434283357,0.004735549174762315,-0.24030629472888476
2245,6.0,299.79072,668.51624,0.0,0.0,0.0,0.0,0.0,-0.022375487515677778,0.0052633059608978554,-0.16179688041060883,-0.04667867513132655,0.01381400439658609,0.021799117366905377,-0.26510215600854575
2246,6.0,300.05556,797.89577,0.0,0.0,0.0,0.0,0.0,-0.02238545432526154,-0.015308868481117685,-0.11676005142331988,-0.1104714767976859,-0.02017403949877268,-0.003602914604254987,-0.2110363668376678
2247,6.0,300.0079,915.77713,0.0,0.0,0.0,0.0,0.0,-0.022395421134845384,0.018892119042006984,-0.1761316335503388,-0.12113386706998189,-0.028673788274382574,-0.029133955807297572,-0.26192109784959977
2248,6.0,300.20927,979.24186,0.0,0.0,0.0,0.0,0.0,-0.0224053879444292,-0.016457765411754983,-0.15947605132156084,-0.12173125906393989,-0.019462620391561082,0.013497922041141188,-0.24624002916949878
2249,6.0,300.1855,982.26548,0.0,0.0,0.0,0.0,0.0,-0.022415354754013045,-0.07107240480405023,-0.15401609236270486,-0.07349568057095893,-0.006257510302743183,0.018508539031150583,-0.25968929291433773
2250,6.0,299.83344,1133.2176,0.0,0.0,0.0,0.0,0.0,-0.02242532156359686,-0.09038747571604931,-0.1976721755712248,-0.05641021482825474,0.015728071325739786,-0.01046564952687919,-0.25321686405805877
2251,6.0,300.46106000000003,1207.6296,0.0,0.0,0.0,0.0,0.0,-0.02243528837318068,-0.1002273814979224,-0.14358748928598186,-0.12327435790623188,-0.025682479435163375,-0.020539147960306082,-0.20903029375968382
2252,6.0,300.58776,1253.0414,0.0,0.0,0.0,0.0,0.0,-0.022445255182764468,-0.04551704873968296,-0.18874095349228182,-0.14663530505677785,0.005026980776474375,0.009042768958601812,-0.20478119906783082
2253,6.0,299.51664,1027.5765,0.0,0.0,0.0,0.0,0.0,-0.022455221992348312,0.002239410593162618,-0.15656644286440485,-0.15803055886140185,0.012367229161800488,0.01138313837317829,-0.18049848816881384
2254,6.0,299.22306000000003,905.48305,0.0,0.0,0.0,0.0,0.0,-0.02246518880193213,-0.026313637988703873,-0.12731414552492787,-0.12161645782760988,0.0022230281628957977,0.02047851811407238,-0.2009106140833338
2255,6.0,298.6127,1049.4472,0.0,0.0,0.0,0.0,0.0,-0.022475155611515973,-0.0989627004783581,-0.15602835639879986,-0.06401468519975753,-0.0063555280644167845,-0.01888705684450738,-0.2131357906473648
2256,6.0,299.14845,1148.3019,0.0,0.0,0.0,0.0,0.0,-0.022485122421099762,-0.1073652370261239,-0.14482011816513288,-0.0968697351247985,-0.023759336824863978,0.016026248538667586,-0.24470336446534177
2257,6.0,298.70224,979.8251300000001,0.0,0.0,0.0,0.0,0.0,-0.022495089230683607,-0.05722804343446815,-0.15394909626609285,-0.08666523054619232,0.0019660045080795384,0.011794195700246488,-0.22606197416057977
2258,6.0,299.61003999999997,961.2294800000001,0.0,0.0,0.0,0.0,0.0,-0.022505056040267396,-0.014911447473895287,-0.16413003062087284,-0.11314828091186589,0.0027203885606064478,-0.024705005169694177,-0.23416476295776278
2259,6.0,299.55502,1132.4326,0.0,0.0,0.0,0.0,0.0,-0.02251502284985124,-0.013580205042011885,-0.16265000659730586,-0.16800103103791084,0.012545687835662988,-0.05043984531702515,-0.20345613138205682
2260,6.0,300.31345,1201.0074,0.0,0.0,0.0,0.0,0.0,-0.022524989659435057,-0.06471833673170253,-0.1852480980125638,-0.1151098115154539,-0.0018893244762868081,0.015103220254071787,-0.2300344313101308
2261,6.0,300.64897,1203.4911,0.0,0.0,0.0,0.0,0.0,-0.022534956469018874,-0.07708755389019922,-0.18099424104524084,-0.1077494411990419,0.0017388319104843486,0.0014474816727553187,-0.23435311601885178
2262,6.0,300.51127,968.42766,0.0,0.0,0.0,0.0,0.0,-0.02254492327860269,-0.05601658945590694,-0.15562220522871584,-0.08273903231670672,-0.00889470282281382,0.02016170925830578,-0.2249410966349578
2263,6.0,300.10988,796.0742,0.0,0.0,0.0,0.0,0.0,-0.022554890088186536,0.01104859156116109,-0.15531431905332985,-0.09772095437480731,0.0032538207632021067,0.007059338777952492,-0.23483409570882074
2264,6.0,300.40567000000004,874.17533,0.0,0.0,0.0,0.0,0.0,-0.022564856897770352,0.015628476946910587,-0.14215837094743886,-0.13919758322773187,0.0033870258637484266,0.017261859412862884,-0.2041002747356288
2265,6.0,299.64167000000003,1024.6328,0.0,0.0,0.0,0.0,0.0,-0.022574823707354197,-0.002133431928103338,-0.17138255059664084,-0.1379468171717909,0.0024584694892570477,-0.02296875451383958,-0.2206606722500128
2266,6.0,299.43637,1139.6977,0.0,0.0,0.0,0.0,0.0,-0.022584790516937958,-0.06855708337155735,-0.16896170359022186,-0.10892084950715089,-0.0059615405564832444,-0.04910994645477436,-0.21052834350252977
2267,6.0,299.27079,1218.9977,0.0,0.0,0.0,0.0,0.0,-0.022594757326521803,-0.10936595001107889,-0.16061992962445285,-0.1005589787388985,-0.0058843501506151445,-0.05386034967335265,-0.23467649478826677
2268,6.0,300.05768,1268.5754,0.0,0.0,0.0,0.0,0.0,-0.02260472413610562,-0.12406485510424788,-0.18935502358288583,-0.07219536962487823,-0.0005142215785172185,0.03414745853359177,-0.26008764205865176
2269,6.0,299.59117000000003,1304.1317,0.0,0.0,0.0,0.0,0.0,-0.022614690945689464,-0.09883678490168121,-0.15516695195878585,-0.14241972867823285,-0.014000742337015686,0.031106480174470572,-0.21764185569707878
2270,6.0,299.70493,1151.4224,0.0,0.0,0.0,0.0,0.0,-0.02262465775527328,-0.050263553985126545,-0.14983577708763984,-0.14990431332440385,-0.024502092717918277,0.00917454720035731,-0.19696354898128882
2271,6.0,298.90058999999997,941.57651,0.0,0.0,0.0,0.0,0.0,-0.022634624564857098,-0.027459939985835072,-0.14125395404067986,-0.11750185182152989,-0.006190354923215464,-0.020289490228416782,-0.17062470031684684
2272,6.0,300.41345,1001.8014,0.0,0.0,0.0,0.0,0.0,-0.022644591374440887,-0.07014188150846473,-0.1099192757581879,-0.12446146145838988,-0.0009269163278795192,0.035572888641770765,-0.19576723498572182
2273,6.0,299.77689,1119.4714,0.0,0.0,0.0,0.0,0.0,-0.02265455818402473,-0.07714735185810083,-0.17185172592294484,-0.09129226955184551,0.019868047087823585,0.009429137129758382,-0.2034432631057868
2274,6.0,299.94982999999996,1180.3092,0.0,0.0,0.0,0.0,0.0,-0.022664524993608548,-0.07536337509603602,-0.17021777907668684,-0.1132033510548009,-0.018836332531251283,-0.0072529407785345236,-0.2250022361459918
2275,6.0,299.85612000000003,1219.9179,0.0,0.0,0.0,0.0,0.0,-0.022674491803192365,-0.05315165722216015,-0.1925017730934458,-0.1251711418284299,0.014231307397270685,-0.013798694187575088,-0.24759562608078575
2276,6.0,300.83715,1248.753,0.0,0.0,0.0,0.0,0.0,-0.02268445861277618,-0.009180133856108672,-0.2236096961360588,-0.14679990753552286,0.026521312715949773,0.033742082499834264,-0.2308814374662238
2277,6.0,300.67931,1202.9453,0.0,0.0,0.0,0.0,0.0,-0.022694425422360026,-0.03759393248998226,-0.19539425762391183,-0.13267713644921386,0.026835829599990174,0.007359798336730544,-0.2512869367250898
2278,6.0,301.0701,1191.2417,0.0,0.0,0.0,0.0,0.0,-0.022704392231943815,-0.07069036797309614,-0.18129462916988684,-0.11012274651076889,-0.025781218630908178,-0.05211409418601066,-0.2108133403581568
2279,6.0,300.56557999999995,1105.7387,0.0,0.0,0.0,0.0,0.0,-0.02271435904152766,-0.08425914355398001,-0.18300605925129185,-0.06885176993789065,-0.010755235392209092,-0.04533218835168865,-0.26155830365129473
2280,6.0,300.56919,1090.2356,0.0,0.0,0.0,0.0,0.0,-0.022724325851111477,-0.06652442058444914,-0.15998943474972785,-0.1048905560418919,0.002915096827647657,0.027571289079074374,-0.2224010204892718
2281,6.0,300.48416000000003,962.40026,0.0,0.0,0.0,0.0,0.0,-0.022734292660695293,-0.02906595355333627,-0.15290912676095586,-0.11057056252496489,0.035112040204788565,0.023855021071557275,-0.25157132563065676
2282,6.0,299.94662,933.38141,0.0,0.0,0.0,0.0,0.0,-0.02274425947027911,3.5027698279714665e-05,-0.13450656963726487,-0.14925310761763486,-0.021884904186621878,0.005047434344317985,-0.1850496631129798
2283,6.0,299.08274,1075.8047,0.0,0.0,0.0,0.0,0.0,-0.022754226279862955,-0.04993522346247285,-0.14580461222729485,-0.13127793938612387,-0.016424283575450588,-0.007914143717415173,-0.21548576080928877
2284,6.0,299.58745,1226.1831,0.0,0.0,0.0,0.0,0.0,-0.02276419308944677,-0.08667986390413651,-0.16564247864763984,-0.12040668787071489,-0.006327531660178754,0.013354184408455386,-0.2028461446893558
2285,6.0,300.24834,1175.5151,0.0,0.0,0.0,0.0,0.0,-0.02277415989903056,-0.10114184376617281,-0.16440540160054984,-0.09177999647423041,0.008809742207228861,-0.004333989648831475,-0.2250218324029258
2286,6.0,299.9527,1143.6976,0.0,0.0,0.0,0.0,0.0,-0.022784126708614377,-0.07625331367211613,-0.16203567306167585,-0.10936652756363589,-0.016964121950478486,-0.030179691718753673,-0.20993498424396978
2287,6.0,299.74143,1321.7604,0.0,0.0,0.0,0.0,0.0,-0.022794093518198222,-0.08106267892726352,-0.17423789951094185,-0.14648157475160586,0.01232744896287449,-0.017120916323952882,-0.2160914715865678
2288,6.0,300.33232999999996,1322.6735,0.0,0.0,0.0,0.0,0.0,-0.02280406032778204,-0.061321449208705844,-0.17108984290775284,-0.16964841358049484,0.012721299276744487,0.028523754305575372,-0.2165551044348248
2289,6.0,300.64042,1034.0931,0.0,0.0,0.0,0.0,0.0,-0.022814027137365855,-0.07467481288458022,-0.13094129717289987,-0.1087223639450619,0.02044553986306768,-0.0036477260965525364,-0.2101469055023848
2290,6.0,301.32806,977.77183,0.0,0.0,0.0,0.0,0.0,-0.0228239939469497,-0.07730625176528302,-0.12612248234731988,-0.09378948825805182,-0.04282206894520916,-0.029086525570116574,-0.2102439849944658
2291,6.0,301.20624,998.9824,0.0,0.0,0.0,0.0,0.0,-0.022833960756533517,-0.09448804618174411,-0.14947982232750986,-0.059697834473717536,-0.0013459405365089886,-0.03153942775669917,-0.22679744174566477
2292,6.0,300.94232999999997,1142.1501,0.0,0.0,0.0,0.0,0.0,-0.022843927566117306,-0.05439057230493154,-0.1875864360633398,-0.1052080984907309,0.018053543126745984,0.030100081671646767,-0.24134753079664675
2293,6.0,299.84252999999995,1177.1108,0.0,0.0,0.0,0.0,0.0,-0.022853894375701123,-0.02204067821724558,-0.19264364837244782,-0.14312794996812886,0.014972098598381087,0.01132832660901879,-0.26269771352124577
2294,6.0,299.40229,1128.7053,0.0,0.0,0.0,0.0,0.0,-0.022863861185284967,0.00097340374597497,-0.2038325335292048,-0.14023908274051988,-0.005127125755407915,0.0011912709484942889,-0.23637833952372578
2295,6.0,299.87771000000004,1062.1878,0.0,0.0,0.0,0.0,0.0,-0.022873827994868784,-0.025531125201475876,-0.2013948665711258,-0.09595256443903082,-0.01229736354090529,0.005172638720749695,-0.2532277970266377
2296,6.0,300.01594,1044.5518,0.0,0.0,0.0,0.0,0.0,-0.0228837948044526,-0.058211596187287246,-0.20471300733610082,-0.054593049059164456,0.017208512808347984,0.02717991514844877,-0.2353653427362508
2297,6.0,299.24407,1035.9593,0.0,0.0,0.0,0.0,0.0,-0.02289376161403639,-0.05943086131086935,-0.17612663822734584,-0.07934824455931201,-0.007170035338127394,0.007228035800351593,-0.24820341402076979
2298,6.0,299.8702,1031.3758,0.0,0.0,0.0,0.0,0.0,-0.022903728423620234,-0.035271287656755065,-0.15861189084127486,-0.11962931226149388,-0.006175555290929854,-0.03115832615558737,-0.22044961225418278
2299,6.0,300.27702999999997,978.0754300000001,0.0,0.0,0.0,0.0,0.0,-0.02291369523320405,-0.009597765149825672,-0.15687970939782186,-0.1308330313997149,0.003501020755648847,0.0013607855623990787,-0.22588325710794177
2300,6.0,300.58553,897.4378199999999,0.0,0.0,0.0,0.0,0.0,-0.022923662042787896,-0.028711734490627576,-0.11974423508783588,-0.12434271867917088,-0.0038449408403661164,0.036402395968636765,-0.23941807969122478
2301,6.0,301.91823,1074.2898,0.0,0.0,0.0,0.0,0.0,-0.022933628852371712,-0.09155284100056191,-0.14577592711696385,-0.08922850302641762,-0.018084759335826785,0.011471988247947089,-0.21361117719678177
2302,6.0,300.95873,1210.9134,0.0,0.0,0.0,0.0,0.0,-0.02294359566195553,-0.12170660668900687,-0.15302107063200385,-0.09335975673164061,-0.03992905549819096,-0.018000380933749283,-0.22802165051648476
2303,6.0,299.6247,1438.5606,0.0,0.0,0.0,0.0,0.0,-0.022953562471539346,-0.1263674051614919,-0.1853194308196038,-0.12559965542822088,-0.004583405315271886,0.013909009765712384,-0.22362506714007577
2304,6.0,300.47137999999995,1412.0498,0.0,0.0,0.0,0.0,0.0,-0.02296352928112319,-0.050362210094363154,-0.1966252045078968,-0.18224047787323483,0.04772634027097305,0.01082684684302659,-0.23715578606045376
2305,6.0,300.30769,1118.3842,0.0,0.0,0.0,0.0,0.0,-0.02297349609070698,-0.003918293257505436,-0.17582608798268382,-0.16021648383213585,-0.0004867040970714546,0.025151511051510877,-0.19585844775972383
2306,6.0,299.78909,1010.1536,0.0,0.0,0.0,0.0,0.0,-0.022983462900290796,-0.01993741824266998,-0.13818781870807587,-0.14893622378136084,-0.01047411725796489,-0.021280757867497276,-0.19253012383124382
2307,6.0,300.12275,1159.3898,0.0,0.0,0.0,0.0,0.0,-0.022993429709874613,-0.1070370453187339,-0.16104912210181085,-0.08433937776314851,-0.02114493878434298,0.002098943934449638,-0.18287412395577082
2308,6.0,300.72406,1217.9848,0.0,0.0,0.0,0.0,0.0,-0.023003396519458458,-0.11404258558262689,-0.1815311318757278,-0.07466325474068954,0.003863965624243716,0.02298147586884508,-0.22037748911206476
2309,6.0,300.25666,1060.882,0.0,0.0,0.0,0.0,0.0,-0.023013363329042275,-0.08920835150842882,-0.15487684832265486,-0.07839642781287502,0.00027028357251491174,-0.014448724524228088,-0.24383524217716476
2310,6.0,300.27762,1102.4604,0.0,0.0,0.0,0.0,0.0,-0.02302333013862612,-0.013124476557784988,-0.1984836571788118,-0.1235122994272149,0.009504179546739492,-0.04137837095097726,-0.2560489284850617
2311,6.0,300.18611,1253.3438,0.0,0.0,0.0,0.0,0.0,-0.02303329694820988,-0.025244373396675675,-0.1953947439839598,-0.16034610891742884,-0.002174616795642968,-0.0012739194286760587,-0.27276478896228873
2312,6.0,300.45757000000003,1256.2636,0.0,0.0,0.0,0.0,0.0,-0.023043263757793725,-0.04249680857035846,-0.1979918154477708,-0.14138415667852985,0.041074757651262964,-0.0017308682713233982,-0.25522419356616677
2313,6.0,301.19073,922.3755800000001,0.0,0.0,0.0,0.0,0.0,-0.02305323056737754,-0.04243392322940216,-0.16355438297406083,-0.07439084042480434,0.0018839629647076682,0.007622085217866243,-0.25473448979283675
2314,6.0,301.18003,769.75717,0.0,0.0,0.0,0.0,0.0,-0.023063197376961386,-0.04382991639567596,-0.14128022761577286,-0.04887681077901566,-0.013129578272038487,-0.015743541628266588,-0.2078185074350898
2315,6.0,300.83848,1082.7002,0.0,0.0,0.0,0.0,0.0,-0.023073164186545203,-0.05293036036056986,-0.1804507944866068,-0.09573267599507951,-0.016747250965324985,0.01913634879311058,-0.23850361134347378
2316,6.0,300.48116,1374.2484,0.0,0.0,0.0,0.0,0.0,-0.02308313099612902,-0.02623997875943427,-0.1939508828564618,-0.1975463299088048,-0.012331300326504589,-0.0049176960789888155,-0.2062570687659878
2317,6.0,300.37483,1151.4946,0.0,0.0,0.0,0.0,0.0,-0.02309309780571281,-0.012810304178778589,-0.17393126976567982,-0.16328401744987786,-0.002033801376245568,-0.0089211332490223,-0.20044451903733382
2318,6.0,299.84682999999995,1042.026,0.0,0.0,0.0,0.0,0.0,-0.023103064615296653,-0.044572889124251655,-0.13928755983661187,-0.13288943261016586,-0.019165761417013382,-0.04363395585283616,-0.17393828145637183
2319,6.0,299.50788,1393.4187,0.0,0.0,0.0,0.0,0.0,-0.02311303142488047,-0.15994892501072983,-0.16415586849842284,-0.099459688506657,-0.016816699127178984,-0.013519095928480888,-0.19789405707812283
2320,6.0,298.9898,1629.8288,0.0,0.0,0.0,0.0,0.0,-0.023122998234464315,-0.18235501566453882,-0.19497592718762582,-0.11809631552269889,0.00935370765123907,-0.00028331719093622977,-0.22833016490693278
2321,6.0,299.56183,1416.8651,0.0,0.0,0.0,0.0,0.0,-0.023132965044048104,-0.13098214128443086,-0.16033829675915784,-0.13937117323486387,0.03444433169364086,0.0064580673533366235,-0.2291414337319988
2322,6.0,300.26555,992.57968,0.0,0.0,0.0,0.0,0.0,-0.02314293185363195,-0.006089479796259864,-0.16471938754153784,-0.13091057542986786,0.02815016798045527,-0.02998910342794407,-0.24450595294835878
2323,6.0,300.67094,900.67707,0.0,0.0,0.0,0.0,0.0,-0.023152898663215765,-0.02077959930178678,-0.13256308501795788,-0.12044065201406688,-0.0083532511509767,0.018662479079093283,-0.2027286583402608
2324,6.0,301.058,1218.136,0.0,0.0,0.0,0.0,0.0,-0.02316286547279961,-0.07071201403498244,-0.16476055589310085,-0.13481035214974588,-0.015835741307865983,0.00984263709884265,-0.22908435735386576
2325,6.0,300.36442999999997,1189.3572,0.0,0.0,0.0,0.0,0.0,-0.0231728322823834,-0.09748550544907031,-0.16342997612678284,-0.1006193988423615,-0.03829711995338146,0.006924119640182403,-0.1880917945507148
2326,6.0,298.71872,926.1900199999999,0.0,0.0,0.0,0.0,0.0,-0.023182799091967216,-0.046520985044763756,-0.16678330706773084,-0.06823435206895623,-0.015800850040672484,-0.015168452282259683,-0.23017335803134178
2327,6.0,299.24788,1067.8796,0.0,0.0,0.0,0.0,0.0,-0.023192765901551032,-0.03853050083566436,-0.18603473472769883,-0.1000434918035239,0.004127327665060526,0.024293652986846874,-0.23698668475126475
2328,6.0,298.81913,1320.7618,0.0,0.0,0.0,0.0,0.0,-0.023202732711134877,-0.012005041900305387,-0.2325681949076938,-0.15690537502285484,0.015250726163879484,0.016838109101791985,-0.2947909310935997
2329,6.0,298.02031,1298.2318,0.0,0.0,0.0,0.0,0.0,-0.023212699520718694,-0.04576301418820786,-0.19175751049749282,-0.15710951452050184,-0.013455932956997188,0.007168509788776832,-0.23341136084590777
2330,6.0,299.13849,972.51116,0.0,0.0,0.0,0.0,0.0,-0.023222666330302538,-0.04625258927877516,-0.16606390962923184,-0.08330261012832751,0.0037455352300305466,-0.03621483222937567,-0.24260796325854178
2331,6.0,300.1308,756.72505,0.0,0.0,0.0,0.0,0.0,-0.0232326331398863,-0.07355919716672753,-0.12074534645163788,-0.035720978183636065,-0.012005193887820387,-0.0017877967149417982,-0.23637033484793576
2332,6.0,299.75254,1012.6817,0.0,0.0,0.0,0.0,0.0,-0.023242599949470144,-0.09886437164890381,-0.14825905860702987,-0.06070650670976574,0.015680014899996986,-0.001013807387554999,-0.24938662669254374
2333,6.0,299.45622000000003,1257.6812,0.0,0.0,0.0,0.0,0.0,-0.02325256675905396,-0.07409549727240623,-0.17032719995498583,-0.13788098631279386,-0.005642751810021244,0.007282600939436753,-0.25122561482903777
2334,6.0,299.36252,1137.9388,0.0,0.0,0.0,0.0,0.0,-0.023262533568637805,-0.03528584907394217,-0.15195908320219384,-0.15866005061852784,-0.01030569482634289,-0.015065906305889186,-0.2164253476270188
2335,6.0,299.6706,1098.0801,0.0,0.0,0.0,0.0,0.0,-0.023272500378221622,-0.039453274794485065,-0.14518170659581886,-0.14915396109534987,0.006005165938213734,0.01190803536223159,-0.2037035771889778
2336,6.0,299.52756,1181.4067,0.0,0.0,0.0,0.0,0.0,-0.02328246718780544,-0.07141376470973983,-0.16544189565784384,-0.12226248582636788,-3.327864622209667e-05,0.016049179401680685,-0.19550740726257881
2337,6.0,299.42281,1365.4921,0.0,0.0,0.0,0.0,0.0,-0.023292433997389256,-0.10882318233001188,-0.17764070745427285,-0.12861162241047888,-0.04358722881122455,0.012268545694811188,-0.17764467939466483
2338,6.0,299.54703,1409.1365,0.0,0.0,0.0,0.0,0.0,-0.0233024008069731,-0.1100963209481609,-0.18632657102150083,-0.13191942802443388,-0.034949456120242764,-0.022188904547874377,-0.2039776917385308
2339,6.0,300.52464,1325.5906,0.0,0.0,0.0,0.0,0.0,-0.02331236761655689,-0.05158409750920405,-0.2006711324221988,-0.15069121348456485,-0.024957815122644576,0.01018599756552969,-0.22157975088571877
2340,6.0,301.76228,1018.048,0.0,0.0,0.0,0.0,0.0,-0.023322334426140734,-0.027320125657536474,-0.16195460292117486,-0.12018643769647788,0.03016195274925297,0.03984574404846876,-0.2752033273154537
2341,6.0,300.67861,939.18545,0.0,0.0,0.0,0.0,0.0,-0.023332301235724523,-0.03350351377703937,-0.14719143750666386,-0.1047939730423599,-0.0022384539837432076,0.0005601232975248654,-0.24232948160105774
2342,6.0,299.47132999999997,1112.9924,0.0,0.0,0.0,0.0,0.0,-0.023342268045308368,-0.07271348087801184,-0.16315232533438084,-0.1024561010866299,0.004237203999279476,-0.03503951682888107,-0.25436882809674877
2343,6.0,299.48013,1020.3860000000001,0.0,0.0,0.0,0.0,0.0,-0.023352234854892184,-0.08527920066815182,-0.15551441568307786,-0.06937825570310073,0.010164904738197991,0.0003435821151464147,-0.2458666262426468
2344,6.0,299.99607000000003,966.18931,0.0,0.0,0.0,0.0,0.0,-0.02336220166447603,-0.03351447511662117,-0.18204314741625982,-0.07813980499979832,0.04233175012906846,0.0011588802812225788,-0.2756169968012797
2345,6.0,299.46686,951.70325,0.0,0.0,0.0,0.0,0.0,-0.023372168474059818,0.005424880240393995,-0.1817308536029388,-0.11298804554105189,0.012978906968918387,-0.0014644101435010285,-0.25984529289973374
2346,6.0,299.07516,1206.6293,0.0,0.0,0.0,0.0,0.0,-0.023382135283643635,-0.004355305593835196,-0.1924496211107988,-0.16998024285574384,-0.015190488445434486,-0.01981122300896548,-0.23513249786327078
2347,6.0,299.73739,1390.2133,0.0,0.0,0.0,0.0,0.0,-0.02339210209322745,-0.03800873174966976,-0.2208975701233928,-0.16368381554183487,-0.036164345016642965,0.02026038360604418,-0.2187966669685498
2348,6.0,300.68593,1243.3061,0.0,0.0,0.0,0.0,0.0,-0.023402068902811296,-0.07022096871852003,-0.17760086646034084,-0.13011218501357286,-0.004915648199211705,0.012575575673862686,-0.2181264324249028
2349,6.0,299.82683,1058.3324,0.0,0.0,0.0,0.0,0.0,-0.023412035712395113,-0.1048634110717129,-0.15423533941934284,-0.06260788572116724,-0.0076950832001205826,-0.013029517798163288,-0.1992255386370298
2350,6.0,300.13632,1048.1602,0.0,0.0,0.0,0.0,0.0,-0.023422002521978957,-0.05932545695596674,-0.14861056519922086,-0.11067849392561689,-0.007384358303254423,-0.043510651421666956,-0.2165488830792108
2351,6.0,300.20056,1241.0105,0.0,0.0,0.0,0.0,0.0,-0.02343196933156272,-0.06731083539781224,-0.16767748001597885,-0.14224789159377388,0.014962193065403485,0.01872805155931478,-0.23806397225758477
2352,6.0,299.97828,1426.3816,0.0,0.0,0.0,0.0,0.0,-0.023441936141146563,-0.09078170194570641,-0.17484094544045783,-0.16796174733153382,0.03759196273178786,0.04216732800884126,-0.2526928009738378
2353,6.0,300.88745,1121.5843,0.0,0.0,0.0,0.0,0.0,-0.02345190295073038,-0.09259412063807822,-0.12239774458221689,-0.12594174892698287,0.012227911326050887,-0.001014538650152169,-0.2350773770578308
2354,6.0,300.66152,824.94929,0.0,0.0,0.0,0.0,0.0,-0.023461869760314225,-0.06399325394689244,-0.1129701110142819,-0.07380062325480444,-0.02554068926916977,-0.03387174304888076,-0.21840639342753276
2355,6.0,299.87406,1177.6944,0.0,0.0,0.0,0.0,0.0,-0.02347183656989804,-0.0960583751072235,-0.16242112353221685,-0.0995102010506422,-0.012428112320559188,-0.0030041791419893973,-0.21782498038765177
2356,6.0,299.77476,1605.6534,0.0,0.0,0.0,0.0,0.0,-0.023481803379481858,-0.07704367509461872,-0.2212354991642438,-0.18979936414923881,-0.0024923417308249777,0.010825029072347189,-0.2189056014868008
2357,6.0,299.25271000000004,1229.1207,0.0,0.0,0.0,0.0,0.0,-0.023491770189065675,-0.03127036831189507,-0.19488829118647683,-0.14746334317099885,-0.010762437573919889,-0.01930371643137848,-0.2385617313692098
2358,6.0,298.70271,828.50058,0.0,0.0,0.0,0.0,0.0,-0.02350173699864952,0.04049877360541776,-0.17465642246474683,-0.1176858377746879,-0.027102313363040077,-0.05033839567726286,-0.2278108134356768
2359,6.0,300.46275,797.38541,0.0,0.0,0.0,0.0,0.0,-0.02351170380823331,-0.011472835325030689,-0.16045633026330686,-0.07045608529822424,0.0034203029222076163,0.014919266724916986,-0.25650121293219874
2360,6.0,300.4839,1001.6903,0.0,0.0,0.0,0.0,0.0,-0.023521670617817153,-0.054396567705773245,-0.1932568977304708,-0.056835364437713747,-0.0051881054769011455,0.038253944353370366,-0.2662379688406417
2361,6.0,299.83677,966.57883,0.0,0.0,0.0,0.0,0.0,-0.023531637427400942,-0.08462540914712761,-0.14546990532176188,-0.06372051539097524,0.0001890749916527488,0.015283283916092686,-0.26535113182311776
2362,6.0,300.48417,798.82863,0.0,0.0,0.0,0.0,0.0,-0.023541604236984787,-0.016602918554830485,-0.13953855201888288,-0.08668248822189552,-0.01791699551676978,-0.0059188883001487945,-0.2585240755643397
2363,6.0,300.38662,733.10376,0.0,0.0,0.0,0.0,0.0,-0.023551571046568603,0.01783493948392148,-0.14215500695710687,-0.0985251638864266,0.013976357460109088,0.01879908444432518,-0.27351612404393977
2364,6.0,300.37655,1275.9419,0.0,0.0,0.0,0.0,0.0,-0.023561537856152448,-0.06333760007218443,-0.16236696531437186,-0.16214990687794986,0.00034835736021769463,0.019864379122461584,-0.2595577325213538
2365,6.0,299.43695,1812.9792,0.0,0.0,0.0,0.0,0.0,-0.023571504665736237,-0.14375756331526685,-0.2221354273730598,-0.18520742615354982,-0.022523184875115277,-0.02351389927964118,-0.2146020952645778
2366,6.0,299.78484,1352.8265,0.0,0.0,0.0,0.0,0.0,-0.023581471475320054,-0.13514254619503085,-0.16197248678543982,-0.11411043280932288,-0.015173445578752484,-0.03313001661792807,-0.1985533282556878
2367,6.0,300.3189,1023.9841,0.0,0.0,0.0,0.0,0.0,-0.02359143828490387,-0.04340878330961336,-0.15843901010921285,-0.1094178081511969,0.01201501430778959,0.008700145327387492,-0.17547037640257784
2368,6.0,301.32408,1292.9888,0.0,0.0,0.0,0.0,0.0,-0.023601405094487715,-0.06395749331111314,-0.1999550179140238,-0.12912378993852586,0.03242927311377007,0.024238335610887476,-0.20099484556414682
2369,6.0,300.02726,1350.0109,0.0,0.0,0.0,0.0,0.0,-0.023611371904071532,-0.05861434790328574,-0.17791572379641482,-0.17383950983662383,-0.002209918327801958,-0.02286672630827018,-0.19291902948462583
2370,6.0,300.5919,1165.5371,0.0,0.0,0.0,0.0,0.0,-0.023621338713655377,-0.04142067920890276,-0.16986143928151884,-0.14301206455419188,0.007100979709362134,-0.03285086621537807,-0.22796965052135276
2371,6.0,299.91412,910.02431,0.0,0.0,0.0,0.0,0.0,-0.023631305523239138,-0.04785390237906245,-0.14099730792285087,-0.08777345257806532,0.007600341985295352,-0.011686686824886189,-0.24173998282537876
2372,6.0,300.16777,982.05521,0.0,0.0,0.0,0.0,0.0,-0.023641272332822982,-0.09396432557605691,-0.14504394511222285,-0.05951199528612664,0.0026362933619318977,0.03886719776439376,-0.25838379108799475
2373,6.0,300.44077000000004,1251.6399,0.0,0.0,0.0,0.0,0.0,-0.0236512391424068,-0.1093046787775319,-0.18513554619145584,-0.08602705523570932,-0.006002653787240805,0.0031552978963536567,-0.25595232522052774
2374,6.0,300.10216,1374.8209,0.0,0.0,0.0,0.0,0.0,-0.023661205951990644,-0.07737451746427033,-0.18896113273901183,-0.15157556803934386,-0.026895243546103873,-5.211875918947105e-05,-0.25635881076314476
2375,6.0,299.26623,1208.1403,0.0,0.0,0.0,0.0,0.0,-0.02367117276157446,-0.015933929295556384,-0.18669000356736884,-0.16462055512678384,0.011893962331592688,0.029165143645375573,-0.24700055442955676
2376,6.0,300.02676,994.01226,0.0,0.0,0.0,0.0,0.0,-0.023681139571158277,0.008714560532585161,-0.19523880479356984,-0.11563066259685789,0.013646537459808386,0.015244468331261885,-0.25904066086282274
2377,6.0,299.52724,969.80665,0.0,0.0,0.0,0.0,0.0,-0.023691106380742094,-0.026063844481301175,-0.18574495533159982,-0.08298820774154843,0.007867993316435482,-0.029405831074129574,-0.23035218654149078
2378,6.0,300.54138,1117.1258,0.0,0.0,0.0,0.0,0.0,-0.02370107319032594,-0.08300907157435751,-0.17646106142285084,-0.08010820847881463,-0.025590769155362274,-0.021339743208818682,-0.2114745772409158
2379,6.0,300.60342,1186.3391,0.0,0.0,0.0,0.0,0.0,-0.023711039999909728,-0.07569892907865264,-0.1924146335848458,-0.09250391199492532,0.016880720321497383,9.873080502072181e-05,-0.23385023999422178
2380,6.0,301.29479,948.5361,0.0,0.0,0.0,0.0,0.0,-0.023721006809493572,-0.025362069488541375,-0.16178535975697186,-0.10118386223456971,0.0015326053202813685,0.018295233673098984,-0.2404284926909448
2381,6.0,300.03384,977.6891199999999,0.0,0.0,0.0,0.0,0.0,-0.02373097361907736,-0.023743905025840978,-0.16057136454715987,-0.11287781406267289,0.005120311141860365,-0.032996834011533964,-0.26130998644928777
2382,6.0,301.59297999999995,1313.8975,0.0,0.0,0.0,0.0,0.0,-0.023740940428661206,-0.06870448187685443,-0.16576144434188084,-0.16492612095944084,-0.010682265173007488,-0.03358266482185097,-0.2267631026997758
2383,6.0,300.41562000000005,1436.9285,0.0,0.0,0.0,0.0,0.0,-0.023750907238245023,-0.13156495260944986,-0.17968513204854183,-0.12554029923736287,-0.009213439994845732,0.007902332767624523,-0.24666237207618077
2384,6.0,300.07242,1351.0377,0.0,0.0,0.0,0.0,0.0,-0.023760874047828867,-0.13718097234870785,-0.16000657894141984,-0.1134941842310039,-0.00015065104825060085,0.03162199244109767,-0.2179959562095258
2385,6.0,299.84304,1163.8358,0.0,0.0,0.0,0.0,0.0,-0.023770840857412656,-0.09334309180724591,-0.16228995830677184,-0.09814395994705472,-0.0007901928886134662,-0.01042154882952679,-0.2109777401868818
2386,6.0,300.12487000000004,1086.7731,0.0,0.0,0.0,0.0,0.0,-0.023780807666996473,-0.028577013770581677,-0.16615124165535083,-0.13562362721000987,-0.012102855998708887,0.014005964628031088,-0.18606254844294381
2387,6.0,299.02804,1204.962,0.0,0.0,0.0,0.0,0.0,-0.02379077447658029,-0.02989391567379977,-0.16733584247976185,-0.16904859991879784,-0.0014586249920550787,0.016444751227470585,-0.2147481957964968
2388,6.0,299.55974,1384.874,0.0,0.0,0.0,0.0,0.0,-0.023800741286164134,-0.019516821165910282,-0.2244180366683358,-0.17703225076922283,0.00046733400769227555,0.018240368206684184,-0.2179635524713278
2389,6.0,298.41631,953.45034,0.0,0.0,0.0,0.0,0.0,-0.02381070809574795,-0.04836946226844425,-0.16262728953006383,-0.07882834390650183,-0.0005375131585659185,-0.018596303715062282,-0.24055729704365675
2390,6.0,299.20715,750.9766,0.0,0.0,0.0,0.0,0.0,-0.023820674905331768,-0.04094402305711046,-0.13662627871396388,-0.05070782767697295,-0.00903487087672233,-0.028405742079678473,-0.2508069196227158
2391,6.0,300.62172000000004,816.12837,0.0,0.0,0.0,0.0,0.0,-0.023830641714915557,-0.04176207660484606,-0.15207687352631885,-0.05424369967643635,0.008406965261302872,0.015474220764936686,-0.2650492947508287
2392,6.0,300.33836,1125.6618,0.0,0.0,0.0,0.0,0.0,-0.0238406085244994,-0.04772805367689215,-0.16909018370290183,-0.12535484407155986,-0.005894096704652055,0.022907059741750776,-0.26873732246480875
2393,6.0,300.5431,1344.2177,0.0,0.0,0.0,0.0,0.0,-0.02385057533408322,-0.06614938227193573,-0.1963981554254888,-0.14606108609260687,0.015864160946670786,-0.024202693525369877,-0.28099759801230373
2394,6.0,300.78022000000004,1093.2362,0.0,0.0,0.0,0.0,0.0,-0.023860542143667035,-0.016851707931384085,-0.18619032941305483,-0.12927446022839587,-0.012885199573170187,-0.02090401830806598,-0.25735253553371773
2395,6.0,299.99987000000004,912.80609,0.0,0.0,0.0,0.0,0.0,-0.02387050895325088,-0.045151180340574554,-0.15900037092961483,-0.07331870934824324,0.008506391947240522,0.0062296721681707745,-0.24595451555632075
2396,6.0,299.92317,1150.279,0.0,0.0,0.0,0.0,0.0,-0.023880475762834696,-0.08305630726751932,-0.17209791529974186,-0.09450188413835982,-0.00946066754769519,0.007824453250363413,-0.22903487021898178
2397,6.0,298.81122,1343.7296,0.0,0.0,0.0,0.0,0.0,-0.023890442572418513,-0.09015977815357733,-0.18968596119804682,-0.12861450004076289,-0.03560555886474507,-0.016639391505430087,-0.1997600483297818
2398,6.0,299.39847000000003,1129.7199,0.0,0.0,0.0,0.0,0.0,-0.023900409382002302,-0.03788876901733036,-0.14915517699546987,-0.15636268840179585,-0.00988321229379711,-0.02686653614427068,-0.1914520865198498
2399,6.0,299.61106,902.29667,0.0,0.0,0.0,0.0,0.0,-0.023910376191586147,-0.0025086734985867976,-0.16422139538238983,-0.10754559554392389,0.0016720342082419285,0.03771769794994697,-0.22587115890174778
2400,6.0,299.83713,1135.3891,0.0,0.0,0.0,0.0,0.0,-0.023920343001169964,-0.04918816530949396,-0.16526144594753484,-0.1306803244771439,-0.0036905162562255963,0.04141119214821646,-0.22029445326636982
2401,6.0,299.2677,1405.4866,0.0,0.0,0.0,0.0,0.0,-0.02393030981075378,-0.13452833424941288,-0.16520771329473183,-0.12749678385545288,-0.02132061406018078,-0.030588102436560672,-0.24747970013684475
2402,6.0,299.36191,1422.7926,0.0,0.0,0.0,0.0,0.0,-0.023940276620337625,-0.12467628061209088,-0.19402779867155281,-0.1137893237201319,-0.025239762095470575,-0.030762788780300872,-0.22648920093274377
2403,6.0,299.65708,1172.6572,0.0,0.0,0.0,0.0,0.0,-0.02395024342992144,-0.08028741391800083,-0.15994661480050185,-0.1162244676854619,0.027198997687582077,0.013714127320978988,-0.2363188617428558
2404,6.0,300.65502000000004,1034.4291,0.0,0.0,0.0,0.0,0.0,-0.02396021023950523,-0.041218324044681856,-0.16427965726313984,-0.1089426242517999,0.015781424009755286,0.03278371205175047,-0.23441194531965778
2405,6.0,299.67495,1175.2333,0.0,0.0,0.0,0.0,0.0,-0.023970177049089075,-0.03765747137725306,-0.17747967161587982,-0.14210442551211486,-0.003653583087430577,-0.007850139748348473,-0.24745026522143973
2406,6.0,299.7467,1373.4246,0.0,0.0,0.0,0.0,0.0,-0.023980143858672892,-0.07722583719759672,-0.21426429794623977,-0.12599663668489988,-0.026778562730838375,-0.03248854723136997,-0.24595089825346375
2407,6.0,299.73491,1105.0635,0.0,0.0,0.0,0.0,0.0,-0.02399011066825671,-0.04616450035483146,-0.17958579300873784,-0.11016142226708589,0.02037785678288788,0.023958075699477978,-0.24387294521338576
2408,6.0,300.3635,862.2784800000001,0.0,0.0,0.0,0.0,0.0,-0.024000077477840526,-0.014748891760352288,-0.17398768753124785,-0.07337454753475403,0.012407240381749288,0.01896024997873098,-0.25298856867802777
2409,6.0,300.25248,928.0051199999999,0.0,0.0,0.0,0.0,0.0,-0.02401004428742437,-0.01904124817847488,-0.17410107021743784,-0.08894806376974042,-0.0008598085001789922,-0.03855931057575766,-0.22399448799403476
2410,6.0,300.22589,1107.4632,0.0,0.0,0.0,0.0,0.0,-0.024020011097008187,-0.034045125339742265,-0.18035295505695081,-0.1222430719544519,-0.021169102772727783,-0.045023028520926954,-0.24551053976000375
2411,6.0,299.34396,1141.3410000000001,0.0,0.0,0.0,0.0,0.0,-0.024029977906591976,-0.023764770885150274,-0.1895683532589398,-0.13360606387589186,0.028490094137253372,0.021801046595095776,-0.25463038847756275
2412,6.0,299.41193,992.16405,0.0,0.0,0.0,0.0,0.0,-0.024039944716175793,-0.056982532935238146,-0.17178205484606884,-0.07282851110886443,0.017875725840196782,0.035826275134028064,-0.28115182481002476
2413,6.0,299.82518999999996,1029.489,0.0,0.0,0.0,0.0,0.0,-0.024049911525759637,-0.08958093066294952,-0.15576106102241988,-0.06759695088154964,-0.012529224548038188,-0.010945025241939889,-0.24091872335432676
2414,6.0,300.96502999999996,1224.3862,0.0,0.0,0.0,0.0,0.0,-0.024059878335343454,-0.1027754572531479,-0.16383148661140887,-0.10557587787952791,-0.017025167229253183,-0.030006410752902172,-0.2253853257437998
2415,6.0,300.22458,1419.5134,0.0,0.0,0.0,0.0,0.0,-0.0240698451449273,-0.1059979776061859,-0.16976917272741282,-0.15572948814930385,0.008717693197919332,0.032577552133404075,-0.19255973099916582
2416,6.0,301.00232,1417.3552,0.0,0.0,0.0,0.0,0.0,-0.024079811954511088,-0.07258005509159374,-0.16048912916904384,-0.1977714031535178,0.025277204726415876,0.02899698263227937,-0.17634116353851784
2417,6.0,301.11492999999996,1175.6304,0.0,0.0,0.0,0.0,0.0,-0.024089778764094932,-0.036491027994634065,-0.17248341643278783,-0.14838783256223886,-0.007787517548443142,-0.040012164297893164,-0.19868004531319383
2418,6.0,301.13273,1182.4826,0.0,0.0,0.0,0.0,0.0,-0.02409974557367872,-0.06790950003389584,-0.17151451628966483,-0.12002116647266688,-0.019374514242365682,-0.03359930542824327,-0.23124873049497277
2419,6.0,300.57667999999995,1242.6787,0.0,0.0,0.0,0.0,0.0,-0.024109712383262566,-0.07436244105100152,-0.17754224994205584,-0.1258386000668029,0.01002123448664384,0.03250259087775597,-0.22899074317712678
2420,6.0,300.42581,1287.7655,0.0,0.0,0.0,0.0,0.0,-0.024119679192846383,-0.08494964309962702,-0.19684193870428682,-0.10965697570480089,0.024480466921033978,0.026603521749563177,-0.24238652758168777
2421,6.0,299.68973,992.06195,0.0,0.0,0.0,0.0,0.0,-0.0241296460024302,-0.028828940169444876,-0.16081022812573384,-0.1119228967709299,-0.017538214258386982,-0.017069424980371083,-0.2288760027358028
2422,6.0,300.04584,844.6518199999999,0.0,0.0,0.0,0.0,0.0,-0.024139612812014016,-0.01075566197050119,-0.15761315048270685,-0.08838424885759623,-0.004158433632530446,-0.044479775493062056,-0.2457326137844208
2423,6.0,299.88908,1118.8664,0.0,0.0,0.0,0.0,0.0,-0.02414957962159786,-0.03393247523337457,-0.1944742873281178,-0.11170067075899788,0.023645887264167376,0.03096143139615537,-0.25187477377060474
2424,6.0,299.78282,1306.0693,0.0,0.0,0.0,0.0,0.0,-0.024159546431181678,-0.10522217253461989,-0.18691034493411482,-0.1048799371808439,0.030668381228733572,0.02380224897984908,-0.2577465682326058
2425,6.0,300.01574,1245.8174,0.0,0.0,0.0,0.0,0.0,-0.024169513240765494,-0.07115290752449523,-0.21102457260650379,-0.096519905461523,-0.004792878156145246,-0.02045835545033248,-0.27120305645065773
2426,6.0,300.0914,1010.0055,0.0,0.0,0.0,0.0,0.0,-0.024179480050349283,-0.07003716717688023,-0.14751102672070487,-0.08946826941083072,-0.013173546233627787,-0.018674547901034382,-0.2328259961306368
2427,6.0,298.83004,886.70185,0.0,0.0,0.0,0.0,0.0,-0.024189446859933128,0.003111854393016117,-0.15105655094062087,-0.12159052875755089,0.0009041134282215482,0.04909526243432516,-0.2316801926525548
2428,6.0,298.8324,1142.1493,0.0,0.0,0.0,0.0,0.0,-0.024199413669516945,-0.017368576939895086,-0.17473192986219885,-0.15508435181063385,-0.0016197628647331484,0.012970851630623387,-0.22617085801632578
2429,6.0,298.85229,1255.8023,0.0,0.0,0.0,0.0,0.0,-0.02420938047910079,-0.05882961086053053,-0.16552039214309083,-0.15738254489244785,-0.020610250759573377,-0.04531687408967726,-0.22964851474454379
2430,6.0,300.45642999999995,1187.2514,0.0,0.0,0.0,0.0,0.0,-0.024219347288684606,-0.07943273644540072,-0.2038095428844358,-0.07765250161595523,-0.01098414480180069,-0.060099454389354344,-0.25137620405889977
2431,6.0,300.89791,1048.7075,0.0,0.0,0.0,0.0,0.0,-0.024229314098268395,-0.07335312236138952,-0.16853956333355985,-0.07688820909202543,0.035301679080254465,0.032867166369736765,-0.26743851822162673
2432,6.0,300.38427,1287.4311,0.0,0.0,0.0,0.0,0.0,-0.024239280907852212,-0.11402176329307188,-0.17631931786636182,-0.101005816966748,0.02728004654983097,0.012798840267147187,-0.24332566856937374
2433,6.0,300.40174,1498.7093,0.0,0.0,0.0,0.0,0.0,-0.024249247717436057,-0.1074321520627279,-0.1950251610099848,-0.15311288122356487,-0.015589701892083786,-0.004276484159281126,-0.2074633734075408
2434,6.0,301.10138,1329.2965,0.0,0.0,0.0,0.0,0.0,-0.024259214527019873,-0.07464640337827642,-0.15757614658905486,-0.17185039856531384,-0.019412525306617082,-0.012735788753174488,-0.21374591919507976
2435,6.0,299.39171,881.99103,0.0,0.0,0.0,0.0,0.0,-0.024269181336603718,-0.016129371054344987,-0.14721512729400185,-0.1047587524688839,0.017075336281454485,0.04628085389031466,-0.2064853438810168
2436,6.0,299.71586,981.91749,0.0,0.0,0.0,0.0,0.0,-0.024279148146187507,-0.058087924959581844,-0.14478868714703086,-0.0956017853604116,-0.00029274055872124374,0.007986234131554942,-0.23916189966844179
2437,6.0,299.32417999999996,1267.6175,0.0,0.0,0.0,0.0,0.0,-0.02428911495577135,-0.07801871958634812,-0.16126573470818883,-0.14603961532298787,-0.023625049775860878,-0.019360016659934882,-0.23370078560447177
2438,6.0,300.018,1178.598,0.0,0.0,0.0,0.0,0.0,-0.02429908176535514,-0.08893720071541832,-0.17764796232498883,-0.09167921253978381,-0.022794118832604376,-0.008643327226704982,-0.25432357634728275
2439,6.0,299.63826,889.15884,0.0,0.0,0.0,0.0,0.0,-0.024309048574938985,0.01319861201460159,-0.14782988639467387,-0.13565081271019286,0.0034794506875200464,0.05896356759000104,-0.24170518781694478
2440,6.0,300.20516000000003,897.1871,0.0,0.0,0.0,0.0,0.0,-0.024319015384522802,0.0015642757693819986,-0.16882560383678982,-0.1054611475707049,0.012517722132902987,0.036178038078494366,-0.25169100059996774
2441,6.0,300.05534,1187.9267,0.0,0.0,0.0,0.0,0.0,-0.02432898219410662,-0.03405523250948977,-0.2128297485871608,-0.11421508127965088,-0.027204925200667075,-0.025273986644098273,-0.25828782617102375
2442,6.0,301.34983,1325.8447,0.0,0.0,0.0,0.0,0.0,-0.024338949003690435,-0.09926241884468799,-0.19240885805927582,-0.1113523863021249,0.014530418826790684,-0.04287361095129596,-0.24618466518403476
2443,6.0,300.57595,1124.2197,0.0,0.0,0.0,0.0,0.0,-0.02434891581327428,-0.04043703222382436,-0.2214669660170878,-0.07983070359442702,0.019106122529377483,0.0048552763264534645,-0.26534690657020077
2444,6.0,299.37654,786.3317099999999,0.0,0.0,0.0,0.0,0.0,-0.024358882622858097,-0.05705141975653674,-0.1198533114611009,-0.06212047189306324,0.02874683144759137,-0.01017736974092819,-0.2369982459349058
2445,6.0,299.63926000000004,988.8286800000001,0.0,0.0,0.0,0.0,0.0,-0.02436884943244194,-0.01822937646959938,-0.14646484599245485,-0.13588500520580588,-0.025123831085279075,-0.03221722519909257,-0.23695596300823277
2446,6.0,299.6719,1371.3774,0.0,0.0,0.0,0.0,0.0,-0.024378816242025703,-0.09050699971109541,-0.17629247687121283,-0.15006499452526187,0.003680526015539637,-0.019095807643359483,-0.22777444788958778
2447,6.0,299.26121,1310.5862,0.0,0.0,0.0,0.0,0.0,-0.024388783051609547,-0.06658099236403234,-0.15363496847009087,-0.17816951254896182,0.01059821506396239,0.05086994870622305,-0.22691254695702476
2448,6.0,299.03162000000003,1101.3715,0.0,0.0,0.0,0.0,0.0,-0.024398749861193364,-0.06346199374721115,-0.18468804428479083,-0.08663940077464312,0.025571249905435873,0.017663578627009485,-0.24819444675738475
2449,6.0,299.45309,1056.7166,0.0,0.0,0.0,0.0,0.0,-0.02440871667077721,-0.04664769500951905,-0.16241685774929585,-0.1121509084409329,-0.013675779857694387,-0.034821773435391466,-0.24397790779124476
2450,6.0,300.0283,1177.7013,0.0,0.0,0.0,0.0,0.0,-0.024418683480361025,-0.08135176120729372,-0.16631463836647684,-0.1103253965307689,0.004358885710413526,-0.01066611497966359,-0.2286996668208998
2451,6.0,301.52022,1339.2266,0.0,0.0,0.0,0.0,0.0,-0.024428650289944814,-0.04306801716848236,-0.2026711766620878,-0.16135225613422785,-0.0034911601096506762,0.04461235116264626,-0.2234954420547828
2452,6.0,300.41541,1114.8607,0.0,0.0,0.0,0.0,0.0,-0.02443861709952863,-0.062396143808019944,-0.15410194504367786,-0.12239173600912388,-0.0006721763665361424,0.013077682641666786,-0.20800629307612278
2453,6.0,299.68393,940.89936,0.0,0.0,0.0,0.0,0.0,-0.024448583909112476,-0.04548097804937305,-0.14674794807039487,-0.09378098303671241,-0.02351478587347868,-0.012143618036981788,-0.22424861111911482
2454,6.0,299.49129,1215.2314,0.0,0.0,0.0,0.0,0.0,-0.024458550718696292,-0.09149623477047532,-0.18040653572223883,-0.09749722469972691,0.025783400158373476,-0.00947414640847545,-0.23905211402010676
2455,6.0,299.44942000000003,1423.2346,0.0,0.0,0.0,0.0,0.0,-0.024468517528280137,-0.10589565961108789,-0.17025211812257582,-0.15647999236587284,0.03027383582529497,0.009093414542325142,-0.24830482009077776
2456,6.0,298.98295,1358.7646,0.0,0.0,0.0,0.0,0.0,-0.024478484337863926,-0.08196330931839882,-0.19072963919854982,-0.14033755038523785,0.009410051753524802,0.000963127211473255,-0.23922035406671077
2457,6.0,299.25894,917.1437300000001,0.0,0.0,0.0,0.0,0.0,-0.02448845114744777,0.007894926112043543,-0.14921687379405885,-0.13746684059942088,-0.011163880170789188,-0.04445296489541605,-0.26677910518904774
2458,6.0,299.07504,803.31801,0.0,0.0,0.0,0.0,0.0,-0.02449841795703156,-0.02114408968075918,-0.14809591520842888,-0.07494860826035173,0.01977601662099088,0.004936332585428096,-0.2609223777560338
2459,6.0,299.92269,1166.4637,0.0,0.0,0.0,0.0,0.0,-0.024508384766615404,-0.036366432682837464,-0.2092595415948088,-0.1089498588575139,0.014848709054203487,0.05128586355427066,-0.2854890418630747
2460,6.0,300.08788,1226.7833,0.0,0.0,0.0,0.0,0.0,-0.02451835157619922,-0.08286771406615663,-0.1963392653296768,-0.09370450697216481,-0.01056903548758259,0.0023203345216741876,-0.24544791077132277
2461,6.0,299.72452000000004,1015.6752,0.0,0.0,0.0,0.0,0.0,-0.024528318385783038,-0.01028266365156989,-0.2072358987600908,-0.09122134913759622,-0.02378760548940388,-0.019150625487019582,-0.27802542136147274
2462,6.0,298.68073,967.98005,0.0,0.0,0.0,0.0,0.0,-0.024538285195366855,-0.03228773423380127,-0.15570544372443085,-0.10624859488591988,-0.0016324325439835482,-0.005818320694598545,-0.23626059986210576
2463,6.0,298.84371,1246.9487,0.0,0.0,0.0,0.0,0.0,-0.0245482520049507,-0.03333050436221467,-0.18777157712161183,-0.15793920423238583,0.03853100340771397,0.01978645309702088,-0.2283719716060588
2464,6.0,299.63706,1410.0689,0.0,0.0,0.0,0.0,0.0,-0.024558218814534516,-0.10943588453298089,-0.1889659760744898,-0.13022386543959488,-0.017562473492281183,0.006165276983240464,-0.2147318419398828
2465,6.0,300.77783,1305.8905,0.0,0.0,0.0,0.0,0.0,-0.02456818562411836,-0.1063099066494709,-0.16011329444195185,-0.13053491295529288,-0.02003962984650748,-0.015579041487781683,-0.23906025041840975
2466,6.0,300.03695,1065.7198,0.0,0.0,0.0,0.0,0.0,-0.024578152433702122,-0.0976044133880556,-0.15522136348915586,-0.07112642420663154,0.002804575863715088,0.0013314440686532985,-0.23410797028965777
2467,6.0,300.00906000000003,984.3312,0.0,0.0,0.0,0.0,0.0,-0.024588119243285966,-0.04299688093196176,-0.16878080804986886,-0.08743441808135523,0.008591234519188832,0.04132936004364026,-0.26658252453714676
2468,6.0,300.60452000000004,1395.0285,0.0,0.0,0.0,0.0,0.0,-0.024598086052869783,-0.05728552409939104,-0.19194247930324781,-0.17482583788146683,-0.006128591351444874,-0.012479136555844888,-0.2359944697233408
2469,6.0,299.77985,1380.5459,0.0,0.0,0.0,0.0,0.0,-0.024608052862453628,-0.04279241922078296,-0.19670792624606082,-0.18015114603453383,-0.015680569147801686,-0.031207252963166073,-0.24170829849475176
2470,6.0,299.91187,1004.0739,0.0,0.0,0.0,0.0,0.0,-0.024618019672037444,-0.05507092921707754,-0.13983154341779885,-0.11031091718683989,0.012572532883812387,0.00984456906280832,-0.22559181598167877
2471,6.0,299.22081000000003,837.71712,0.0,0.0,0.0,0.0,0.0,-0.024627986481621233,-0.03323735526727157,-0.15517916162249085,-0.06622856371425034,0.029414506521485768,0.027051156391991276,-0.23953597134035978
2472,6.0,298.99208,1168.86,0.0,0.0,0.0,0.0,0.0,-0.02463795329120505,-0.08581510054004102,-0.19425157495613782,-0.07523759022862203,0.011788708950954989,0.02029622124883108,-0.2243964037787008
2473,6.0,299.0575,1463.906,0.0,0.0,0.0,0.0,0.0,-0.024647920100788895,-0.08048918443691402,-0.2047589075656308,-0.15974277927788486,-0.014843186841158486,-0.005178689039746815,-0.24655622399570476
2474,6.0,300.70884,1335.0057,0.0,0.0,0.0,0.0,0.0,-0.02465788691037271,-0.04964514617084445,-0.20431115234644082,-0.15185210425663587,0.0007551400181615173,0.027698771140405875,-0.22766096387838777
2475,6.0,300.49724,791.94633,0.0,0.0,0.0,0.0,0.0,-0.024667853719956556,0.04105630839344216,-0.17548629456164883,-0.10630192223868291,-0.013125581000393988,0.018850077268857783,-0.2662099727403787
2476,6.0,300.37597999999997,734.2053900000001,0.0,0.0,0.0,0.0,0.0,-0.024677820529540345,-0.016665645828771183,-0.12283885288075089,-0.08367561180813991,-0.001139737453708329,-0.02287128492047008,-0.2178567255132848
2477,6.0,299.68631,1221.5003,0.0,0.0,0.0,0.0,0.0,-0.02468778733912419,-0.05026017175629275,-0.20070788300332582,-0.12033752341888888,-0.03314583243873897,-0.03659948324558777,-0.28972666656379575
2478,6.0,300.11034,1530.3553,0.0,0.0,0.0,0.0,0.0,-0.02469775414870798,-0.12711818295558788,-0.1766472866587298,-0.16142432861384085,0.012868965280067987,0.016072757731507684,-0.24714847881165575
2479,6.0,300.68858,1191.9964,0.0,0.0,0.0,0.0,0.0,-0.024707720958291823,-0.04018318875577196,-0.19067043499520683,-0.13148351769891287,0.027888495128880173,0.03296917836330457,-0.28421228594206877
2480,6.0,299.94056,753.20662,0.0,0.0,0.0,0.0,0.0,-0.02471768776787564,0.0015153076211992186,-0.14690099949799987,-0.08357031891074833,0.015737921129961883,0.005864732210129005,-0.24123652924819175
2481,6.0,299.21611,977.86379,0.0,0.0,0.0,0.0,0.0,-0.024727654577459457,-0.027911201050371072,-0.14682524892052387,-0.12250972898326888,-0.0061841499822530835,-0.047031353040633155,-0.2321830990746878
2482,6.0,299.07698,1513.2427,0.0,0.0,0.0,0.0,0.0,-0.024737621387043274,-0.14720155987516287,-0.18975096119196183,-0.12303547406265587,-0.0027280172192843378,-0.013565329517293787,-0.2057211202580938
2483,6.0,299.70024,1420.4232,0.0,0.0,0.0,0.0,0.0,-0.02474758819662712,-0.12894307678319086,-0.1872666138017758,-0.11556348411522789,0.006475056315113304,0.026434597759141677,-0.2199128835437118
2484,6.0,300.17942999999997,1010.5641,0.0,0.0,0.0,0.0,0.0,-0.024757555006210935,-0.09902392814215082,-0.14270178710856987,-0.06546053939020223,-0.004567899143691545,0.01061890867075469,-0.2175334075388758
2485,6.0,300.18111,1079.1151,0.0,0.0,0.0,0.0,0.0,-0.02476752181579478,-0.04083360514071306,-0.16897176516371484,-0.11821867560477488,-0.01790597236893188,-0.011529640152136887,-0.22982665424462478
2486,6.0,300.04639,1448.7739,0.0,0.0,0.0,0.0,0.0,-0.02477748862537854,-0.08268509296088333,-0.17847093418870985,-0.17923505648662283,-0.00976238546177243,0.012154745549579989,-0.24652875478549374
2487,6.0,300.33946000000003,1531.0776,0.0,0.0,0.0,0.0,0.0,-0.024787455434962385,-0.07085433413077834,-0.21235297388510677,-0.18220205542944284,0.01004674589501162,0.016579883327057086,-0.25335384533907773
2488,6.0,300.9746,1070.3447,0.0,0.0,0.0,0.0,0.0,-0.024797422244546202,-0.05887008918877545,-0.15852522756022186,-0.10796273034509189,-0.004705879793284176,-0.01066051170661059,-0.24058371247376378
2489,6.0,300.66949,589.43674,0.0,0.0,0.0,0.0,0.0,-0.024807389054130047,0.0060608120125055735,-0.13327840919105485,-0.051956450708952454,0.0023699124437671477,-0.04971490033422865,-0.26828109647478277
2490,6.0,300.48434,854.3888400000001,0.0,0.0,0.0,0.0,0.0,-0.024817355863713864,-0.03284785584933097,-0.17006239717385183,-0.05680262126073224,0.0027149351472432375,0.007780306956756512,-0.27055477903667774
2491,6.0,300.53879,1426.0011,0.0,0.0,0.0,0.0,0.0,-0.024827322673297653,-0.06577746375648023,-0.2098435485549458,-0.15784772801335786,0.015768368282216786,0.03901523461725386,-0.28130361980750573
2492,6.0,299.77646,1380.2867,0.0,0.0,0.0,0.0,0.0,-0.02483728948288147,-0.06985724233012303,-0.2055789308715608,-0.14413653911766888,0.009765343645439382,0.009366618180038241,-0.2392283790075028
2493,6.0,299.1774,960.62076,0.0,0.0,0.0,0.0,0.0,-0.024847256292465314,-0.017454820735406683,-0.18167376709230482,-0.09287613448541081,0.006699571968296274,-0.03371780806718857,-0.25873796252794873
2494,6.0,299.26015,1050.2174,0.0,0.0,0.0,0.0,0.0,-0.02485722310204913,-0.06864059949779973,-0.15827100311013187,-0.09232826610334041,0.005343933716405194,-0.013192810144528987,-0.2255123467763358
2495,6.0,299.53671,1503.3887,0.0,0.0,0.0,0.0,0.0,-0.024867189911632948,-0.1123171017223349,-0.20554460195817278,-0.13913092150365286,0.020346324439775878,-0.0006821297249184623,-0.26054379712117076
2496,6.0,300.15179,1488.0774,0.0,0.0,0.0,0.0,0.0,-0.024877156721216764,-0.13480965300717687,-0.1803618412603278,-0.13716687803981686,-0.008774532982153981,-0.0011390104467615789,-0.2197803808281348
2497,6.0,300.40783,956.8041599999999,0.0,0.0,0.0,0.0,0.0,-0.02488712353080061,-0.016899480647098883,-0.15324417817152286,-0.12070091543475289,-0.004605779498680046,-0.015109713160712586,-0.25908285259698677
2498,6.0,300.90817000000004,748.5738200000001,0.0,0.0,0.0,0.0,0.0,-0.024897090340384398,-0.014181466638101787,-0.12738853834726988,-0.08597774440634273,-0.027086317183711375,0.042421091430135754,-0.23877270017253077
2499,6.0,300.78527,1167.4306,0.0,0.0,0.0,0.0,0.0,-0.024907057149968215,-0.05146257437171065,-0.16478212798772984,-0.13862503612622587,-0.00987533488221967,0.05474270204593405,-0.24309964286956678
2500,6.0,299.87793999999997,1496.6879,0.0,0.0,0.0,0.0,0.0,-0.02491702395955206,-0.12679105516080288,-0.19381597873814782,-0.13434871540418586,-0.02898273329612307,0.0005454552154997385,-0.21354836582308281
2501,6.0,299.26211,1454.9858,0.0,0.0,0.0,0.0,0.0,-0.024926990769135876,-0.10018821634180711,-0.1949339178384798,-0.14715719978578487,0.012306461513553189,-0.035880614723640965,-0.2110269740092408
2502,6.0,298.88016,1174.3056,0.0,0.0,0.0,0.0,0.0,-0.024936957578719693,-0.07151663593939243,-0.17682405827117584,-0.10861888071234889,0.01183544105881709,0.006999901527086494,-0.23792972675183577
2503,6.0,299.70043,1163.7276,0.0,0.0,0.0,0.0,0.0,-0.024946924388303537,-0.02190266747412498,-0.19927280675419481,-0.13256865789350786,0.03597256210396547,0.0006568800289190115,-0.24183254322201375
2504,6.0,300.98271,1395.0202,0.0,0.0,0.0,0.0,0.0,-0.024956891197887354,-0.06851972180062003,-0.18438023916941282,-0.17115135732132383,-0.01119358967697129,-0.004472469830723406,-0.24177868897919877
2505,6.0,300.35683,1186.0407,0.0,0.0,0.0,0.0,0.0,-0.024966858007471143,-0.05147707094089136,-0.1871935888670688,-0.12185610160876088,-0.029553303546683975,-0.017358767665676983,-0.2336569118751418
2506,6.0,301.03217,863.52482,0.0,0.0,0.0,0.0,0.0,-0.02497682481705496,-0.04425648252877475,-0.15244956717810085,-0.06578393741136915,-0.008507555462330353,0.015229860304570185,-0.2711365771115968
2507,6.0,300.22872,812.3697099999999,0.0,0.0,0.0,0.0,0.0,-0.024986791626638805,-0.025286700906353078,-0.15169054152819084,-0.06996286656029733,-0.004141648536673886,0.040825890254451665,-0.27009155148846076
2508,6.0,299.66379,1022.6606,0.0,0.0,0.0,0.0,0.0,-0.02499675843622262,-0.04336058705535676,-0.17058570032049783,-0.09691700020221321,-0.007669778190798174,-5.697805943604665e-05,-0.28197917391417776
2509,6.0,299.30287000000004,1332.0508,0.0,0.0,0.0,0.0,0.0,-0.025006725245806438,-0.039476095213237264,-0.18451002637472183,-0.18092405321081384,-0.00961241107207111,-0.03344587909810127,-0.26420337277234274
2510,6.0,299.55472000000003,1331.5124,0.0,0.0,0.0,0.0,0.0,-0.025016692055390283,-0.06917084442088084,-0.19951115357521781,-0.13606452272602287,-0.015068319867627385,0.01950786808802668,-0.2557473953878027
2511,6.0,298.37543,1022.0129,0.0,0.0,0.0,0.0,0.0,-0.025026658864974072,-0.03221566074093817,-0.17019346107428684,-0.1082572922816629,0.017006443380655285,0.03719160228602536,-0.2366290581284698
2512,6.0,300.19982999999996,1094.0524,0.0,0.0,0.0,0.0,0.0,-0.02503662567455789,-0.09845719608296871,-0.15865621040064887,-0.07545119854845353,-0.005322090273399415,0.01012601903646027,-0.2002646063495778
2513,6.0,300.5137,1498.9864,0.0,0.0,0.0,0.0,0.0,-0.025046592484141705,-0.11351138921770189,-0.21209280165692979,-0.13005024503495988,-0.017049687881673183,-0.03423148331138437,-0.2027800098553288
2514,6.0,301.13223999999997,1585.9595,0.0,0.0,0.0,0.0,0.0,-0.02505655929372555,-0.13972137273442586,-0.1871587026661258,-0.15521201119073286,0.002118997572478778,-0.013919508049998487,-0.21365976253907681
2515,6.0,300.54711000000003,1132.0219,0.0,0.0,0.0,0.0,0.0,-0.025066526103309367,-0.04275859287944456,-0.17014530129703384,-0.13120250291617888,0.033889192228852866,-0.0016174923739090685,-0.24344881898652776
2516,6.0,299.74165,761.7496,0.0,0.0,0.0,0.0,0.0,-0.025076492912893183,-0.013170035322031287,-0.14232349018373486,-0.07605933099347152,0.015117088608190487,-0.017887685231127083,-0.2517733879655988
2517,6.0,298.57892000000004,1135.0789,0.0,0.0,0.0,0.0,0.0,-0.025086459722476973,-0.030782883556284068,-0.16790001000294086,-0.14635276026639288,-0.0017155371893603384,-0.02672354223715827,-0.24373297484457174
2518,6.0,299.64147,1516.5095,0.0,0.0,0.0,0.0,0.0,-0.025096426532060817,-0.12074607599170989,-0.2073236563512518,-0.13291128841482286,-0.008137443166503111,0.01124908335844809,-0.26330201588088575
2519,6.0,299.43107000000003,1322.8284,0.0,0.0,0.0,0.0,0.0,-0.025106393341644634,-0.10849418002254191,-0.16683086902742486,-0.12678174339238388,0.0032961106813007967,0.03069157047052217,-0.24592199022811076
2520,6.0,299.60558,822.01689,0.0,0.0,0.0,0.0,0.0,-0.02511636015122848,-0.015453013440343685,-0.13852817954916688,-0.0958914127689956,-0.013594382437411087,0.006810651030383925,-0.24697002520404376
2521,6.0,300.59727000000004,803.83509,0.0,0.0,0.0,0.0,0.0,-0.025126326960812267,0.012024615865737187,-0.15593209763929985,-0.10043831179773959,0.00021400234239788682,-0.02109991096314908,-0.2351784791528088
2522,6.0,299.99202,1455.3913,0.0,0.0,0.0,0.0,0.0,-0.025136293770396112,-0.06964153962233484,-0.2060852012840258,-0.16667586202712684,-0.0016444268920422981,0.004063429681954286,-0.2465693151869968
2523,6.0,299.69597999999996,1641.5604,0.0,0.0,0.0,0.0,0.0,-0.02514626057997993,-0.1137695856081839,-0.23090683964623077,-0.15431694658239686,0.012098100815989589,0.028771147423491173,-0.23284354562236875
2524,6.0,299.99699,1054.8323,0.0,0.0,0.0,0.0,0.0,-0.025156227389563773,-0.07449999583157714,-0.1851509273279738,-0.06099176295741835,-0.011903389610523089,-0.0006950441445980164,-0.23805351551655277
2525,6.0,298.85778999999997,683.64255,0.0,0.0,0.0,0.0,0.0,-0.025166194199147562,-0.013833119359722588,-0.14126985193474886,-0.05270729639080515,0.002659029782250808,-0.023379239354601275,-0.24133455106286575
2526,6.0,298.73772,1111.3464,0.0,0.0,0.0,0.0,0.0,-0.02517616100873138,-0.037018773229718464,-0.18863898000221782,-0.11216378684970389,0.02799385490077837,0.0028565572150452473,-0.28107669231510973
2527,6.0,299.28515,1529.2747,0.0,0.0,0.0,0.0,0.0,-0.025186127818315196,-0.058206844044318244,-0.21684281680071982,-0.18981166500545282,0.03458453510997787,0.0039883314348926665,-0.2785199380727777
2528,6.0,300.15505,1203.2322,0.0,0.0,0.0,0.0,0.0,-0.02519609462789904,-0.05046513502627105,-0.18528364282607182,-0.13000375712037188,-0.0017696408943499583,-0.02118995748628598,-0.2711325342436977
2529,6.0,300.12455,784.84412,0.0,0.0,0.0,0.0,0.0,-0.025206061437482857,0.006103498111393364,-0.15663013576569085,-0.08804637959850112,-0.026474614045340978,-0.03551588420439486,-0.2519045633235448
2530,6.0,301.31217999999996,868.6513199999999,0.0,0.0,0.0,0.0,0.0,-0.025216028247066702,-0.07112630160336943,-0.12228839463142488,-0.07063361988799553,-0.029741901814297173,-0.0017373019028333486,-0.2283060191570498
2531,6.0,300.16664,1434.9859,0.0,0.0,0.0,0.0,0.0,-0.025225995056650463,-0.1120578211542459,-0.1882531748941418,-0.13588887582118786,-0.02278387284759318,0.03799137680195696,-0.23354785576687875
2532,6.0,299.08106000000004,1578.5581,0.0,0.0,0.0,0.0,0.0,-0.025235961866234308,-0.14030681850970486,-0.18216869923615084,-0.15736671792588586,-0.008481476633906571,0.018755026303476984,-0.22137930975093678
2533,6.0,299.7581,1169.0316,0.0,0.0,0.0,0.0,0.0,-0.025245928675818124,-0.04658354411918786,-0.14877201647015487,-0.16000086421085585,-0.004140828513367956,0.014557859665998887,-0.23249323466529576
2534,6.0,299.43667999999997,772.97779,0.0,0.0,0.0,0.0,0.0,-0.02525589548540197,-0.008101470558802892,-0.14433331228708887,-0.08253116507194182,0.02328732541153008,0.01200775639732329,-0.25706310064265275
2535,6.0,298.80366000000004,1207.6403,0.0,0.0,0.0,0.0,0.0,-0.025265862294985786,-0.07131928319091524,-0.16470163539978583,-0.13107159100325888,0.018694761227279283,-0.0042429543962469955,-0.23699124437671476
2536,6.0,298.94851,1589.744,0.0,0.0,0.0,0.0,0.0,-0.025275829104569603,-0.13916160271668088,-0.2126079177427678,-0.1314729495003699,0.003142029284969147,-0.012582667411312589,-0.2531324096622238
2537,6.0,300.47197,1214.3485,0.0,0.0,0.0,0.0,0.0,-0.02528579591415339,-0.05818067888698595,-0.19455236838082382,-0.11639858458264589,-0.004379002575248906,-0.007494540841653593,-0.24958483867710576
2538,6.0,301.22042000000005,649.00216,0.0,0.0,0.0,0.0,0.0,-0.025295762723737236,0.017575366086553586,-0.13598438477561386,-0.07887142730075383,0.013748247504846387,0.014425599117195787,-0.27993222632715975
2539,6.0,301.20531,795.31506,0.0,0.0,0.0,0.0,0.0,-0.025305729533321053,0.029260436777530274,-0.15984713390568386,-0.11116922108154789,0.0061445210615670145,0.007110280737330073,-0.26916353598687276
2540,6.0,300.95448999999996,1432.2912,0.0,0.0,0.0,0.0,0.0,-0.025315696342904898,-0.07234653032779663,-0.2266312281992608,-0.13640299892192786,-0.006292598140456083,-0.023834681089049875,-0.27402390419905376
2541,6.0,302.04747000000003,1480.0149,0.0,0.0,0.0,0.0,0.0,-0.025325663152488687,-0.1000339429345815,-0.18235408347444682,-0.16749955329841884,-0.02882212504927227,-0.017699015022756785,-0.23445117836352977
2542,6.0,302.73163,989.92308,0.0,0.0,0.0,0.0,0.0,-0.02533562996207253,-0.05671806959288765,-0.18345911376850482,-0.06073471559254975,-0.030948887359917368,0.007940965562137282,-0.25798253391589376
2543,6.0,301.80512000000004,622.33727,0.0,0.0,0.0,0.0,0.0,-0.025345596771656348,-0.00020709571560875581,-0.11251005493887789,-0.07645784428430172,0.002950666364458097,0.02091829601522508,-0.2578804084383147
2544,6.0,301.62032999999997,1196.8911,0.0,0.0,0.0,0.0,0.0,-0.025355563581240192,-0.054408221095173355,-0.19287796245807282,-0.11653881839648589,-0.004089613584413437,0.0013398749174353586,-0.26039814241929576
2545,6.0,300.75792,1793.7435,0.0,0.0,0.0,0.0,0.0,-0.02536553039082398,-0.10564694724154189,-0.24630704553111277,-0.1932992414521498,0.004440577682500896,-0.003915370436266976,-0.2690770956208417
2546,6.0,300.39181,1436.4041,0.0,0.0,0.0,0.0,0.0,-0.0253754972004078,-0.0851194141671321,-0.18293962044223483,-0.16857192654175385,0.015570456219684385,-0.021505024565130683,-0.24191214414986978
2547,6.0,299.50961,776.02706,0.0,0.0,0.0,0.0,0.0,-0.025385464009991615,-0.030797998208025767,-0.14890788317606385,-0.05618696847347204,0.0074288375508441825,-0.022804651567393877,-0.25605737899089576
2548,6.0,299.1566,827.8316599999999,0.0,0.0,0.0,0.0,0.0,-0.02539543081957546,-0.062017457795146544,-0.1158577927392739,-0.07376490821527963,0.01103298446987079,-0.03253055860701617,-0.22597483465197976
2549,6.0,299.53517,1338.6246,0.0,0.0,0.0,0.0,0.0,-0.025405397629159276,-0.1028161189796609,-0.18033649987532682,-0.12375582395624889,-0.004250439173410686,-0.011848728820628488,-0.2411183842865318
2550,6.0,300.50254,1531.4834,0.0,0.0,0.0,0.0,0.0,-0.02541536443874312,-0.083271285501486,-0.21382186229007483,-0.16843957581369184,0.008358265523071583,0.02815773189245177,-0.24815922618390876
2551,6.0,298.89227999999997,1179.4359,0.0,0.0,0.0,0.0,0.0,-0.025425331248326882,-0.04689688158011186,-0.16457218256700984,-0.14704999792520487,-0.025728851839239977,0.04143461545077816,-0.2619944571568397
2552,6.0,299.839,921.86271,0.0,0.0,0.0,0.0,0.0,-0.025435298057910727,-0.015656812485957086,-0.17700037392107684,-0.08756605953434722,-0.0006288659029367324,0.004174329500099246,-0.26898454535670774
2553,6.0,300.66586,1190.818,0.0,0.0,0.0,0.0,0.0,-0.025445264867494544,-0.06134043751557985,-0.1898985917315318,-0.1107399272791799,-0.027405203202182975,-0.012305243586932987,-0.24939219956809378
2554,6.0,300.85829,1526.5963,0.0,0.0,0.0,0.0,0.0,-0.025455231677078388,-0.10698199544080089,-0.2082578628109508,-0.14880730797113786,0.006333898619832124,0.0004630406643685555,-0.24171483395789675
2555,6.0,300.78716000000003,1376.0996,0.0,0.0,0.0,0.0,0.0,-0.025465198486662205,-0.08285773861892212,-0.2143746510146308,-0.12106750932093288,-0.0013005875633579989,0.006359035024337894,-0.25673047089982476
2556,6.0,299.67505,836.16232,0.0,0.0,0.0,0.0,0.0,-0.025475165296246022,-0.0013491014715209487,-0.15630094094070185,-0.09652242034827122,0.007299723346251602,0.008127799558676362,-0.27436365709008476
2557,6.0,299.7662,806.81907,0.0,0.0,0.0,0.0,0.0,-0.02548513210582981,0.020019430705763983,-0.15659508744473183,-0.1086772033881049,0.009234446797243941,0.002947700784065417,-0.2734221349646637
2558,6.0,299.9286,1414.8723,0.0,0.0,0.0,0.0,0.0,-0.025495098915413655,-0.07016560777280634,-0.2050704211763748,-0.15484983507498887,0.028232027442784174,0.0013580123982003887,-0.2674248393452768
2559,6.0,298.37073,1480.0583,0.0,0.0,0.0,0.0,0.0,-0.025505065724997472,-0.12495596803719387,-0.17131798630026884,-0.15362682193928684,-0.009114192552850772,-0.015371732543821886,-0.2559286455656908
2560,6.0,298.2959,983.04316,0.0,0.0,0.0,0.0,0.0,-0.025515032534581317,-0.043794932922723365,-0.17028929426874484,-0.08473634888732652,-0.002457824454243388,-0.04784730612091146,-0.24898157996506876
2561,6.0,299.2795,751.763,0.0,0.0,0.0,0.0,0.0,-0.025524999344165106,-0.0020664940933720877,-0.1256262431108449,-0.1008244462120981,-0.007247794683926643,-0.03671415681240517,-0.23719197935402575
2562,6.0,299.53159,1133.7953,0.0,0.0,0.0,0.0,0.0,-0.02553496615374895,-0.03211161414116957,-0.15963471615471986,-0.15289914624747086,0.01084620498618709,-0.003861884915163366,-0.2317650219509268
2563,6.0,299.03979,1666.8604,0.0,0.0,0.0,0.0,0.0,-0.025544932963332767,-0.10183306373264091,-0.23216048333245579,-0.17269039303071484,-0.00881638760800971,0.03142401249080857,-0.25017521898037176
2564,6.0,300.24065,1590.0907,0.0,0.0,0.0,0.0,0.0,-0.02555489977291661,-0.14313845737166586,-0.18728780086136682,-0.15292162013468885,-0.0044922723853777664,0.03129210151328997,-0.23799768543604277
2565,6.0,300.20357,900.7335400000001,0.0,0.0,0.0,0.0,0.0,-0.0255648665825004,-0.04205169388092906,-0.15143177771765287,-0.08031703729792443,-0.028777322169600574,0.02966201920291337,-0.2457863970997288
2566,6.0,300.85334,834.6047599999999,0.0,0.0,0.0,0.0,0.0,-0.025574833392084217,-0.04883267157815945,-0.12147449135609888,-0.08339184706463453,0.006801603112290964,0.00968949488402869,-0.24217196174051175
2567,6.0,300.77617999999995,1570.5906,0.0,0.0,0.0,0.0,0.0,-0.025584800201668034,-0.1013077624567977,-0.1879759699317838,-0.18813658020513482,0.021721083936954082,-0.014520698718581384,-0.23816958331550778
2568,6.0,299.34058,1586.0701,0.0,0.0,0.0,0.0,0.0,-0.02559476701125188,-0.10117800159599132,-0.19453636916174483,-0.1864113496573678,0.018685971282661782,-0.03248460264873067,-0.25674422070368175
2569,6.0,300.46934,1017.0095,0.0,0.0,0.0,0.0,0.0,-0.025604733820835696,-0.0009470257453266641,-0.16386029331175184,-0.14433818602006987,0.009039034726683272,-0.014358802630853486,-0.25413545633371676
2570,6.0,299.93147,676.96975,0.0,0.0,0.0,0.0,0.0,-0.02561470063041954,-0.010551513353603291,-0.13989321995138587,-0.055337161694102646,0.0054685206182259645,-0.0030664093154310367,-0.27005763800761373
2571,6.0,298.72182999999995,1094.4653,0.0,0.0,0.0,0.0,0.0,-0.0256246674400033,-0.04915942548365755,-0.19160107481455382,-0.09192962412974752,-0.0045955916742245854,0.02229465644756128,-0.25274313923880576
2572,6.0,298.73239,1482.5292,0.0,0.0,0.0,0.0,0.0,-0.025634634249587146,-0.1016793739574729,-0.22043236673748076,-0.12854010721842088,-0.014052066494330986,0.00937906058729121,-0.26585967191580673
2573,6.0,299.38632,1256.6187,0.0,0.0,0.0,0.0,0.0,-0.025644601059170963,-0.04705458889192636,-0.2087189422689558,-0.12620717992317887,-0.007185027285281982,0.007924500349337293,-0.2607512600791458
2574,6.0,299.1496,834.91519,0.0,0.0,0.0,0.0,0.0,-0.025654567868754807,0.004986968239300445,-0.16114849153911787,-0.0976318491610133,0.006190244782929594,0.00044456058347971364,-0.27247826209901077
2575,6.0,299.89439,958.07787,0.0,0.0,0.0,0.0,0.0,-0.025664534678338624,-0.029446115871605373,-0.14878327367876587,-0.11300236276496489,0.01757093615711638,0.011491448729367687,-0.25382447974552574
2576,6.0,299.96965,1525.1194,0.0,0.0,0.0,0.0,0.0,-0.02567450148792244,-0.09737678067359,-0.22488185190161078,-0.14133957367412983,0.0014404863967149386,0.0025490702601986474,-0.27271234313711273
2577,6.0,300.08684,1611.2165,0.0,0.0,0.0,0.0,0.0,-0.02568446829750623,-0.12822854294517189,-0.17502417145604082,-0.18651686952278182,-0.007766465251115443,-0.0025806848792187674,-0.23917693629992579
2578,6.0,300.38626,1091.2459,0.0,0.0,0.0,0.0,0.0,-0.025694435107090074,-0.05522398571093304,-0.17251149359305884,-0.10397602689913492,-0.01984856431490078,-0.013044233229365588,-0.2580198823145798
2579,6.0,299.43846,761.2962,0.0,0.0,0.0,0.0,0.0,-0.02570440191667389,-0.011153754762539889,-0.14717514444505586,-0.07308614007929043,-0.002056082745944568,-0.00862386482010919,-0.24714817483662577
2580,6.0,301.39658,1413.598,0.0,0.0,0.0,0.0,0.0,-0.025714368726257736,-0.07296011203185243,-0.1955921858984458,-0.16114620159389184,0.03510642578598447,-0.018122272894279083,-0.2520105188865018
2581,6.0,301.25642999999997,1772.8176,0.0,0.0,0.0,0.0,0.0,-0.025724335535841525,-0.11743459227989189,-0.2382699356054118,-0.1831877451267228,0.03447834345974757,-0.016064478464940586,-0.24446709480702378
2582,6.0,301.15198,1288.1687,0.0,0.0,0.0,0.0,0.0,-0.02573430234542537,-0.07697884330022033,-0.18108739925943484,-0.13350487058840488,-0.005504718471423415,0.0023017011563102176,-0.24114514422167277
2583,6.0,301.01514,930.8539099999999,0.0,0.0,0.0,0.0,0.0,-0.025744269155009186,-0.04651886735205476,-0.16104886878928584,-0.07538860806327632,-0.017776116262616083,0.017007432312752886,-0.2327893367420188
2584,6.0,299.94178,1070.3518,0.0,0.0,0.0,0.0,0.0,-0.02575423596459303,-0.06836488198658854,-0.18064984746875182,-0.07634549207346343,-0.008363247369838253,0.029584338383996874,-0.25553797685713475
2585,6.0,299.9027,1465.6389,0.0,0.0,0.0,0.0,0.0,-0.02576420277417682,-0.09305748497505871,-0.19696200884113682,-0.15549812262146986,-0.005438702795608176,0.028167426669408573,-0.24964168200771578
2586,6.0,299.57187000000005,1601.8136,0.0,0.0,0.0,0.0,0.0,-0.025774169583760637,-0.08236025409807421,-0.23704770267228678,-0.16750339351629784,0.004977574802923385,-0.01956379645379638,-0.2753343101558807
2587,6.0,299.27616,1207.968,0.0,0.0,0.0,0.0,0.0,-0.025784136393344453,-0.06064812019925344,-0.17946530743934683,-0.12707867633418887,-0.024266997416466176,-0.030545382799094575,-0.2677343872508267
2588,6.0,299.57362,790.48362,0.0,0.0,0.0,0.0,0.0,-0.025794103202928298,-0.01080856375822219,-0.15695888476063585,-0.07251983561165053,-0.008355089287983113,-0.01832947848672868,-0.2923066647634217
2589,6.0,301.03778,953.5481199999999,0.0,0.0,0.0,0.0,0.0,-0.025804070012512115,-0.03280688913453787,-0.17153838846202082,-0.08550953774713432,0.0052243818569813446,0.004542027626238225,-0.2734841154732808
2590,6.0,300.4332,1397.0772,0.0,0.0,0.0,0.0,0.0,-0.02581403682209596,-0.07096502359820252,-0.19446858273005482,-0.15924297340105786,0.02282509692791168,0.009493383974874052,-0.2598380380290178
2591,6.0,301.04094,1219.0687,0.0,0.0,0.0,0.0,0.0,-0.02582400363167972,-0.04911421933044605,-0.2076494466559048,-0.11380278981396089,0.026206781646407978,-0.0015225579322897683,-0.25920701626424075
2592,6.0,299.93989,751.11327,0.0,0.0,0.0,0.0,0.0,-0.025833970441263565,0.025315399188935377,-0.16708725170022784,-0.08654782627035541,0.018641417662514682,-0.028896404387603075,-0.28219416532039576
2593,6.0,300.14162999999996,1026.1981,0.0,0.0,0.0,0.0,0.0,-0.025843937250847382,-0.054573353503720654,-0.15606108437702984,-0.10130417251169341,0.014979653391126686,-0.017534229145743683,-0.2316676384838158
2594,6.0,299.75038,1626.0893,0.0,0.0,0.0,0.0,0.0,-0.025853904060431226,-0.1072517631474249,-0.2302819784420618,-0.15675681229319285,0.008513115874904123,-0.008268016552564702,-0.2340584831547738
2595,6.0,299.37346,1723.8866,0.0,0.0,0.0,0.0,0.0,-0.025863870870015043,-0.13813691302305187,-0.19161046764298081,-0.1942711104180658,-0.026551058699135474,-0.008067336797384151,-0.2036548499916688
2596,6.0,299.5616,1348.4366,0.0,0.0,0.0,0.0,0.0,-0.02587383767959886,-0.07656335401721473,-0.18725699805832682,-0.14607070183605586,-0.03272782117623447,0.009577174387918521,-0.24829388712219877
2597,6.0,299.98305,1080.9568,0.0,0.0,0.0,0.0,0.0,-0.02588380448918265,-0.04916444309815275,-0.15828629305414085,-0.12113314766241089,-0.023581430372305978,0.03842969359646546,-0.23580131385677777
2598,6.0,300.05937,1148.954,0.0,0.0,0.0,0.0,0.0,-0.025893771298766494,-0.05472219994341065,-0.14946896028643786,-0.14506217348152187,0.004806097118274855,0.026406144683083575,-0.26612807173479575
2599,6.0,300.26995,1520.7576,0.0,0.0,0.0,0.0,0.0,-0.02590373810835031,-0.0997097728168384,-0.2062459128823868,-0.15631664631725187,-0.0041468224956595166,-0.015562461676395386,-0.2543347524958858
2600,6.0,299.88784,1449.2446,0.0,0.0,0.0,0.0,0.0,-0.025913704917934127,-0.0927037664578994,-0.17861181648261384,-0.16921859288807484,-0.010168929367595189,-0.026609587064661773,-0.2586362626154118
2601,6.0,300.16179,946.2739300000001,0.0,0.0,0.0,0.0,0.0,-0.025923671727517944,-0.014953754718570685,-0.16648957599624184,-0.10620031351865492,0.009737918612932741,-0.001081015253437899,-0.23391769205337878
2602,6.0,300.63253,870.74309,0.0,0.0,0.0,0.0,0.0,-0.02593363853710179,-0.012909795206097589,-0.16610359863564886,-0.08567076711629641,0.00952619433033718,0.012072858729498388,-0.2470040501424018
2603,6.0,300.76069,1521.7987,0.0,0.0,0.0,0.0,0.0,-0.025943605346685605,-0.07754675984876933,-0.2109099638876928,-0.17413207567049782,0.02538016917507768,-0.009578422914691742,-0.2329364302590358
2604,6.0,300.43253,1757.8348,0.0,0.0,0.0,0.0,0.0,-0.025953572156269394,-0.12890082425402088,-0.25095239193957275,-0.15448466987144985,0.013115750447923789,-0.013346562741203187,-0.26481620669782474
2605,6.0,300.2695,1196.2862,0.0,0.0,0.0,0.0,0.0,-0.02596353896585324,-0.05567724085166586,-0.18241722922067882,-0.12554665231548987,0.01788002810012138,0.005685523325892464,-0.24336475975823174
2606,6.0,300.22795,805.07021,0.0,0.0,0.0,0.0,0.0,-0.025973505775437056,-0.008393718029495472,-0.15210729129432085,-0.08422022968388951,-0.02294199052569818,0.003440085921135047,-0.25657985127245975
2607,6.0,300.31645,1051.7138,0.0,0.0,0.0,0.0,0.0,-0.025983472585020873,-0.023635637226155776,-0.16707037095356184,-0.12898872370019587,-0.012550589939646788,0.0037391663452019863,-0.2608032094117727
2608,6.0,299.7017,1349.2983,0.0,0.0,0.0,0.0,0.0,-0.025993439394604717,-0.07888656627049792,-0.16706336939537084,-0.16420304542307884,-0.03332198495537387,0.016784461561997383,-0.2700323675501198
2609,6.0,299.41166,1347.3974,0.0,0.0,0.0,0.0,0.0,-0.026003406204188534,-0.06616499037647613,-0.2041564290561708,-0.13925373754827386,-5.9404280720996046e-05,0.03046423058533547,-0.25808451753845874
2610,6.0,300.04701,954.92308,0.0,0.0,0.0,0.0,0.0,-0.02601337301377235,-0.05367313449212594,-0.14573115159504485,-0.09086848580352132,-0.014772092147891986,0.011644157678438887,-0.2643159144609497
2611,6.0,299.96312,860.79207,0.0,0.0,0.0,0.0,0.0,-0.02602333982335614,-0.045530930266052955,-0.14297060236009987,-0.07315776064935883,0.015462464024026384,-0.01837240280071498,-0.24676398079620876
2612,6.0,299.74881,1266.1141,0.0,0.0,0.0,0.0,0.0,-0.026033306632939984,-0.08537147026200811,-0.1832602330388768,-0.1162353803890389,0.01887654032171948,-0.028634911894545773,-0.2323379540874708
2613,6.0,299.97456,1697.1388,0.0,0.0,0.0,0.0,0.0,-0.0260432734425238,-0.13752996608065088,-0.2043978561574978,-0.17395999540601484,0.05048419122090175,-0.017842704019437786,-0.2001111496219328
2614,6.0,300.32067,1438.987,0.0,0.0,0.0,0.0,0.0,-0.026053240252107618,-0.05584818424953665,-0.20962498037587482,-0.17194295896194883,0.014520072530019587,0.006297434585833404,-0.2001647708172248
2615,6.0,299.99301,1157.993,0.0,0.0,0.0,0.0,0.0,-0.026063207061691462,-0.053513976206168254,-0.1828823110165788,-0.1156046524667909,-0.003977825652555826,-0.0024530479932719875,-0.23044364249551677
2616,6.0,299.68786,1389.9472,0.0,0.0,0.0,0.0,0.0,-0.02607317387127528,-0.07124629878621222,-0.20053061489833082,-0.15073234130612387,-0.017030242599004083,0.0070119580887013835,-0.24501223349332477
2617,6.0,299.38704,1547.0377,0.0,0.0,0.0,0.0,0.0,-0.026083140680859096,-0.1229650227832029,-0.2140867157337138,-0.13320910288421486,-0.006451803947843474,0.02281520760693568,-0.24984420030520277
2618,6.0,300.07142999999996,1496.9921,0.0,0.0,0.0,0.0,0.0,-0.026093107490442885,-0.09210340969414882,-0.1997010467764588,-0.16324376102340485,-0.02822581216667077,0.015829720575771786,-0.25765213332328574
2619,6.0,301.11784,1177.0492,0.0,0.0,0.0,0.0,0.0,-0.02610307430002673,-0.04550872083711106,-0.17990568619780883,-0.1323791699923069,-0.038863645309543164,0.0031559545837434666,-0.26987219297431175
2620,6.0,299.31146,932.32006,0.0,0.0,0.0,0.0,0.0,-0.026113041109610546,-0.0017378093384834282,-0.17445072256194583,-0.10721349269114791,-0.02835558417322827,-0.0010544539153164991,-0.2829754014124977
2621,6.0,298.91799,1183.5624,0.0,0.0,0.0,0.0,0.0,-0.026123007919194363,-0.06741535518537754,-0.18161952781445184,-0.1107385289940419,0.03093185259923617,-0.0015234514162279487,-0.28470549556074476
2622,6.0,298.3636,1436.7205,0.0,0.0,0.0,0.0,0.0,-0.02613297472877818,-0.100505170092338,-0.2216400190016668,-0.1145819588758589,0.026098809715751976,-0.003356177667103947,-0.25374324748500876
2623,6.0,299.4344,1086.1008,0.0,0.0,0.0,0.0,0.0,-0.026142941538362025,-0.07654122868803113,-0.1902344334771768,-0.06337187629656724,0.015607802591870184,-0.026322755213103673,-0.28599355935286674
2624,6.0,299.84864,730.9483299999999,0.0,0.0,0.0,0.0,0.0,-0.026152908347945814,-0.004279734361626896,-0.16805513859325083,-0.04985516555882175,0.004550795178028515,-0.02580989360873818,-0.25648582166317974
2625,6.0,299.73183,1036.1176,0.0,0.0,0.0,0.0,0.0,-0.026162875157529658,-0.025550737670411473,-0.1912624364986328,-0.0981407195732349,0.004456833051205176,-0.0015584206023541386,-0.2723470766085638
2626,6.0,299.06019,1482.4885,0.0,0.0,0.0,0.0,0.0,-0.026172841967113475,-0.07658596165344593,-0.19442127408288581,-0.17963224039332185,0.015654186141697883,-0.006849497215367744,-0.22878455691427776
2627,6.0,300.9969,1473.3894,0.0,0.0,0.0,0.0,0.0,-0.02618280877669729,-0.08275838539361671,-0.21444280221635678,-0.15067240756270886,0.002000327544616958,-0.017037279620948587,-0.25345917268697277
2628,6.0,300.7403,1069.6146,0.0,0.0,0.0,0.0,0.0,-0.02619277558628111,-0.04925946974553115,-0.16548945761753783,-0.11038720478686889,-0.01052054944379739,0.03285728920776197,-0.2608028953042417
2629,6.0,300.63336,1052.2613,0.0,0.0,0.0,0.0,0.0,-0.026202742395864953,-0.07629140984937592,-0.13486369976751086,-0.10870606075095289,0.004963549293714176,0.02915692010756397,-0.26240224979208576
2630,6.0,300.65673,1234.0758,0.0,0.0,0.0,0.0,0.0,-0.02621270920544877,-0.07353990792457384,-0.15828511768402484,-0.14330321183792585,-0.008792652325742223,0.02062480001775928,-0.2677717153845108
2631,6.0,299.24973,1384.2429,0.0,0.0,0.0,0.0,0.0,-0.02622267601503256,-0.08391531942404722,-0.18258009904175285,-0.15427986162873686,-0.018895714053361785,-0.0036466806250993566,-0.2525090278032007
2632,6.0,299.06171,1251.7491,0.0,0.0,0.0,0.0,0.0,-0.026232642824616376,-0.04893576673608416,-0.18457494530862883,-0.14698976020675988,-0.003062694740564437,-0.014057573508624487,-0.26816042852037375
2633,6.0,299.27531,855.7833699999999,0.0,0.0,0.0,0.0,0.0,-0.02624260963420022,-0.038970550287843866,-0.14860340152101387,-0.07256282072064284,-0.002353856077382508,-0.00993343879727908,-0.23330167652258277
2634,6.0,300.12355,1024.2983,0.0,0.0,0.0,0.0,0.0,-0.026252576443784037,-0.04304221779443616,-0.18111897213255085,-0.08719991350471142,0.0024425427175601977,-0.0018474792736570083,-0.25967720484064477
2635,6.0,299.51085,1587.6306,0.0,0.0,0.0,0.0,0.0,-0.02626254325336788,-0.10031455951002621,-0.22165710239835282,-0.16062839026278786,0.003482351926531377,-0.017622651428970283,-0.2314690617292178
2636,6.0,300.50903999999997,1696.8794,0.0,0.0,0.0,0.0,0.0,-0.02627251006295167,-0.0850689137821481,-0.2503289391530427,-0.18041110548018982,0.015206699433784386,0.02927686865440197,-0.26636970148614275
2637,6.0,299.26089,1178.9389999999999,0.0,0.0,0.0,0.0,0.0,-0.026282476872535515,-0.006855018516487654,-0.1979434935505018,-0.15356950238112985,0.00947633411676636,0.024182010051078576,-0.2529641290856158
2638,6.0,300.73497000000003,967.3142300000001,0.0,0.0,0.0,0.0,0.0,-0.026292443682119304,-0.007084303132591284,-0.17276363074794285,-0.1141914421548179,0.013199314196920888,-0.008763213154686802,-0.27836860917034273
2639,6.0,300.62284,1145.5328,0.0,0.0,0.0,0.0,0.0,-0.02630241049170315,-0.06347804666854544,-0.15116608327643086,-0.13356924236725787,-0.0019836113497671984,-0.03164722743483817,-0.27586175749543573
2640,6.0,300.99669,1236.5249,0.0,0.0,0.0,0.0,0.0,-0.026312377301286966,-0.08152110164350633,-0.16963643696431283,-0.1247151691509289,0.002286302997190538,-0.0006278777105117055,-0.27096882342504075
2641,6.0,299.28195,1023.0521,0.0,0.0,0.0,0.0,0.0,-0.026322344110870782,-0.04790365194572235,-0.14857317627053088,-0.11450545849330888,-0.027236357232019174,0.020097821813000582,-0.2846578525410427
2642,6.0,300.34192,951.74425,0.0,0.0,0.0,0.0,0.0,-0.0263323109204546,-0.024769013191761273,-0.14182567027710385,-0.1227118014507119,-0.04647992409771136,0.022972450850204378,-0.23782562543656177
2643,6.0,299.72637000000003,1225.057,0.0,0.0,0.0,0.0,0.0,-0.026342277730038444,-0.05103457854272075,-0.1958585693497358,-0.12549357827525187,-0.017656142384525585,-7.232255683043063e-05,-0.2514515189388328
2644,6.0,300.24195,1664.0566,0.0,0.0,0.0,0.0,0.0,-0.026352244539622233,-0.12978106501339387,-0.2080653351594498,-0.16798525473385384,0.016783985334450382,0.006710610922835733,-0.24416893583259774
2645,6.0,300.3558,1708.3383,0.0,0.0,0.0,0.0,0.0,-0.026362211349206077,-0.13794256152137085,-0.2357037378721478,-0.14564587646662885,0.05514018891441294,-0.006796449924932384,-0.2305451802880378
2646,6.0,300.6114,1111.5414,0.0,0.0,0.0,0.0,0.0,-0.026372178158789866,-0.06738313180569734,-0.16861372310837883,-0.1018839694176649,0.007454971094773363,-0.030874434755819472,-0.2507043280500908
2647,6.0,299.59901,969.81702,0.0,0.0,0.0,0.0,0.0,-0.02638214496837371,-0.017417745914247683,-0.15767167580848285,-0.11971072690702889,0.024947752535901476,-0.02281431493359758,-0.24041732667484278
2648,6.0,299.62617,1278.3166,0.0,0.0,0.0,0.0,0.0,-0.026392111777957528,-0.047445983087553954,-0.17697145576322285,-0.16415888798372086,0.014783974531814684,0.011941419926526389,-0.25634132206641874
2649,6.0,298.9819,1390.9186,0.0,0.0,0.0,0.0,0.0,-0.026402078587541372,-0.07312023290540513,-0.17760300441805182,-0.17208128786560084,0.011469360890437789,0.03589361269592376,-0.2597160224519757
2650,6.0,300.05587,1118.9337,0.0,0.0,0.0,0.0,0.0,-0.02641204539712519,-0.03635188849090207,-0.15859898203500084,-0.14517702538035684,-0.030558375705126872,0.009453454524208321,-0.27885023734037573
2651,6.0,299.86778,822.05531,0.0,0.0,0.0,0.0,0.0,-0.026422012206708978,-0.046557246226092454,-0.13400996563075387,-0.06931708072831323,-0.05090159757309655,0.00019380858201241782,-0.27462917927878977
2652,6.0,300.20896,1155.0392,0.0,0.0,0.0,0.0,0.0,-0.026431979016292795,-0.06046209660014435,-0.19025501258670782,-0.10038595919157281,-0.02984971263818727,0.001140079628267099,-0.2871126332933107
2653,6.0,300.74671,1564.6566,0.0,0.0,0.0,0.0,0.0,-0.02644194582587664,-0.11916284231295687,-0.2160641239663688,-0.14038957064537186,-0.0030649392921859573,0.01228084959077549,-0.2733424833743027
2654,6.0,301.11400000000003,1570.3898,0.0,0.0,0.0,0.0,0.0,-0.026451912635460456,-0.06260919990654694,-0.2539644602468408,-0.16078562641330585,0.007017576763155904,0.0041102074873958965,-0.25272739333225175
2655,6.0,300.84945,1137.9832,0.0,0.0,0.0,0.0,0.0,-0.0264618794450443,-0.044207261878667053,-0.2055301023492418,-0.09618112326408781,0.007280521243606503,-0.016461217554845683,-0.2703169185757027
2656,6.0,300.52351,898.05065,0.0,0.0,0.0,0.0,0.0,-0.02647184625462809,-0.01151610617055119,-0.1855649615838358,-0.07590390754738242,0.04010514215356936,-0.016346949288068284,-0.26184520541710976
2657,6.0,300.1072,1139.4923,0.0,0.0,0.0,0.0,0.0,-0.026481813064211934,-0.07120425296006264,-0.19157244036672783,-0.08360051882997882,0.025035656035076875,-0.006049373330801665,-0.2862179030575077
2658,6.0,299.5947,1444.6531,0.0,0.0,0.0,0.0,0.0,-0.026491779873795723,-0.1000802484641515,-0.17995811175798282,-0.15910010513695785,0.017309747639089084,-0.024714949206175577,-0.24504610644416777
2659,6.0,299.44901,1210.2187,0.0,0.0,0.0,0.0,0.0,-0.026501746683379568,-0.05112172615732155,-0.19880908271342881,-0.11794546284781088,-0.0021866658592071177,-0.018817243912617382,-0.2899206938254447
2660,6.0,298.21301,869.66395,0.0,0.0,0.0,0.0,0.0,-0.026511713492963385,0.01086753390079209,-0.16035447836325484,-0.11486917474920488,0.008142563524558452,0.02442943052674708,-0.26329692936538374
2661,6.0,298.46675,1154.09,0.0,0.0,0.0,0.0,0.0,-0.0265216803025472,-0.05815009190621724,-0.16833196865307185,-0.12433249498566187,0.01068852604537539,0.03547802107465806,-0.27247725898141173
2662,6.0,300.09206,1624.5808,0.0,0.0,0.0,0.0,0.0,-0.026531647112131018,-0.14176718548133185,-0.2042030486932718,-0.14786176324281988,-0.0024159648634621677,0.01309582792445759,-0.2409382385512528
2663,6.0,300.77751,1665.4646,0.0,0.0,0.0,0.0,0.0,-0.026541613921714863,-0.13716070734670788,-0.22153410396871379,-0.14756484043351586,-0.019527935506257182,0.008278743223423342,-0.25277070977402677
2664,6.0,300.50695,1323.9962,0.0,0.0,0.0,0.0,0.0,-0.026551580731298652,-0.099308268411713,-0.18327197660753583,-0.11988155074138789,-0.006851925469232393,0.0026796176057326676,-0.24380649627182777
2665,6.0,300.16792999999996,1066.737,0.0,0.0,0.0,0.0,0.0,-0.026561547540882496,-0.03484015176570527,-0.17649245191094884,-0.1129288109402059,-0.0077695581970456925,0.017390234147532484,-0.24830563069085776
2666,6.0,299.88087,1198.396,0.0,0.0,0.0,0.0,0.0,-0.026571514350466285,-0.03683583599041396,-0.18063713117999683,-0.14680949288146886,0.026388661052608075,0.013482670600635988,-0.23298974747929777
2667,6.0,299.16466,1488.4175,0.0,0.0,0.0,0.0,0.0,-0.02658148116005013,-0.06291849145982165,-0.22834982195887277,-0.16117342762407885,0.01071221481946329,-0.0014709988022762787,-0.23851467603456578
2668,6.0,299.27648999999997,1245.6637,0.0,0.0,0.0,0.0,0.0,-0.026591447969633947,-0.06365706769621345,-0.1877504812545298,-0.12724312682541888,0.02012853443678168,0.030263071056232573,-0.27568741768322974
2669,6.0,300.1595,730.04526,0.0,0.0,0.0,0.0,0.0,-0.02660141477921779,-0.0097407654404137,-0.15185275273669988,-0.06032201477381935,-0.006808301202077013,-0.0010436678680019991,-0.27077059117547675
2670,6.0,299.6925,901.8991800000001,0.0,0.0,0.0,0.0,0.0,-0.026611381588801608,-0.02104170886415498,-0.16382375551314585,-0.08928936490692421,0.029282078786416175,-0.025250144869245275,-0.28644649228006774
2671,6.0,299.57832,1480.5325,0.0,0.0,0.0,0.0,0.0,-0.026621348398385397,-0.07674279757017444,-0.2101535524230408,-0.16314857630901086,-0.004323372206333616,-0.014646620374758884,-0.2669257731410227
2672,6.0,300.03986000000003,1561.6971,0.0,0.0,0.0,0.0,0.0,-0.026631315207969214,-0.07562028465889102,-0.2292595482961558,-0.16983709088161583,0.02988851201101647,-0.0027046763952807778,-0.3038086239360767
2673,6.0,301.33083999999997,1126.3133,0.0,0.0,0.0,0.0,0.0,-0.02664128201755306,-0.038383732571929466,-0.17285590743454982,-0.13113148421666987,-0.01191682024059859,0.01159089821343259,-0.25779814266269574
2674,6.0,301.21153,909.4100900000001,0.0,0.0,0.0,0.0,0.0,-0.026651248827136875,-0.04316436813374146,-0.15530494648990487,-0.07796864172665582,-0.018380778326041583,-0.003950883535046846,-0.27509495008475776
2675,6.0,300.11827,1217.9086,0.0,0.0,0.0,0.0,0.0,-0.02666121563672072,-0.06767776669627554,-0.18557007849684082,-0.11696596410864189,-0.015286202076380685,0.0029421180799894474,-0.23218756750762878
2676,6.0,299.03487,1385.9829,0.0,0.0,0.0,0.0,0.0,-0.02667118244630451,-0.08221818630155323,-0.1869033839059278,-0.15218261630675486,-0.007581575174893212,0.0067334349892882945,-0.2522437487945198
2677,6.0,299.61289,1445.8784,0.0,0.0,0.0,0.0,0.0,-0.026681149255888353,-0.04512995984373026,-0.21210577125820979,-0.18227519182166083,0.019641240172189482,0.0004965235544530594,-0.24753781003007974
2678,6.0,300.04097,1120.191,0.0,0.0,0.0,0.0,0.0,-0.026691116065472142,-0.021197300509760677,-0.17823582976800684,-0.14107696964571287,0.009464594905082791,-0.01893614374560188,-0.23188898296816077
2679,6.0,299.86916,998.0120900000001,0.0,0.0,0.0,0.0,0.0,-0.026701082875055987,-0.01013732508372609,-0.17336566342735882,-0.11986777054002788,0.027701753135450178,0.006032100760321995,-0.26515482474874374
2680,6.0,299.89417000000003,1484.2633,0.0,0.0,0.0,0.0,0.0,-0.026711049684639804,-0.092953082724505,-0.20668267433799178,-0.15154322509615184,0.01152340765077179,0.02068435683213708,-0.24826483724183177
2681,6.0,299.0786,1810.339,0.0,0.0,0.0,0.0,0.0,-0.02672101649422362,-0.13996465408343586,-0.2113290441290528,-0.19900414349017978,0.015451160205910787,0.0026324062305732674,-0.25795063680274577
2682,6.0,299.95716,1462.0778,0.0,0.0,0.0,0.0,0.0,-0.026730983303807437,-0.10579160895831889,-0.19390808317223782,-0.14473545098677687,-0.013156556055950988,-0.004825964014310565,-0.2596579328237427
2683,6.0,300.60489,1097.5674,0.0,0.0,0.0,0.0,0.0,-0.026740950113391282,-0.04960183276881975,-0.17234140943127285,-0.1116898492479299,-0.0012581199211917687,-0.014026125265270788,-0.2965211569643597
2684,6.0,301.59452999999996,1136.8319,0.0,0.0,0.0,0.0,0.0,-0.02675091692297507,-0.04596653256354355,-0.15697320198454884,-0.14262878243886487,0.0012485712548993887,0.004089027621880606,-0.28253605616913774
2685,6.0,301.50795,1292.2113,0.0,0.0,0.0,0.0,0.0,-0.026760883732558916,-0.08866642381169473,-0.18988049508474583,-0.11425305789339889,-0.007083354629172673,0.013730838854878288,-0.26776452130880074
2686,6.0,301.39373,1281.1861,0.0,0.0,0.0,0.0,0.0,-0.026770850542142705,-0.07345563287400653,-0.19375606525973482,-0.12223687086383989,-0.035135292268083367,0.007786972926514393,-0.2535074033917328
2687,6.0,300.06421,1032.0699,0.0,0.0,0.0,0.0,0.0,-0.02678081735172655,-0.04536800167647316,-0.1893906190588988,-0.07896486719847563,-0.0032875482113307467,0.01936332492151138,-0.25309576040610676
2688,6.0,300.71131,1066.27,0.0,0.0,0.0,0.0,0.0,-0.026790784161310366,0.002946578609579667,-0.2162094138982078,-0.1108566030281949,0.006940945570017993,0.026247352180411975,-0.2756400887710587
2689,6.0,300.50745,1469.0258,0.0,0.0,0.0,0.0,0.0,-0.02680075097089421,-0.054117805378011544,-0.2153227592657018,-0.17710661319406182,0.03883794726050696,0.012205798155868489,-0.26174444782716577
2690,6.0,299.42947999999996,1867.5165,0.0,0.0,0.0,0.0,0.0,-0.026810717780478027,-0.1071274069626519,-0.28118662995095967,-0.17936435733188383,-0.002722328529247907,-0.03145673742928827,-0.2862525866084307
2691,6.0,299.37527,1381.4766,0.0,0.0,0.0,0.0,0.0,-0.026820684590061816,-0.09247534847460631,-0.17538329768898384,-0.15207573868620686,0.005196966450350654,-0.026283072286187276,-0.27432612630638076
2692,6.0,300.05034,792.73929,0.0,0.0,0.0,0.0,0.0,-0.026830651399645633,-0.028327591112715576,-0.13411555642367487,-0.07852979787053763,-0.015173266233484785,-0.015811451676468788,-0.28258681999914775
2693,6.0,299.79241,937.9733,0.0,0.0,0.0,0.0,0.0,-0.026840618209229478,-0.03597477808193417,-0.17148153499890983,-0.07766415095235493,-0.0054833729395167745,-0.003427539757071837,-0.2589826624270987
2694,6.0,299.13965,1405.5207,0.0,0.0,0.0,0.0,0.0,-0.026850585018813294,-0.10005065852148122,-0.17804512596668584,-0.14914741549970384,-0.02071287272970138,-0.017452079893886183,-0.24615232224084277
2695,6.0,299.9591,1447.2577,0.0,0.0,0.0,0.0,0.0,-0.02686055182839714,-0.08533304173871552,-0.21524072653760581,-0.13935643044590887,-0.016540198373640482,0.0017937737759566883,-0.27144804005983575
2696,6.0,299.73662,879.47575,0.0,0.0,0.0,0.0,0.0,-0.026870518637980928,-0.044594593954643755,-0.15811423305465985,-0.06462984149446874,0.01041782412215919,0.017586424698144983,-0.26459149822314776
2697,6.0,298.41024,886.6663800000001,0.0,0.0,0.0,0.0,0.0,-0.026880485447564773,-0.047673895459047155,-0.15231996235780984,-0.06953057961713394,-0.01183506109002959,0.019309627732461882,-0.2529083598001117
2698,6.0,299.58337,1679.0297,0.0,0.0,0.0,0.0,0.0,-0.02689045225714856,-0.1115870752902869,-0.22867890532635077,-0.17011711267925184,0.006416770015035895,0.02167275596018448,-0.22412822687473377
2699,6.0,299.71808,1987.5691,0.0,0.0,0.0,0.0,0.0,-0.026900419066732406,-0.1337989157674249,-0.2305474601007628,-0.23982500093138479,-0.016437990822803384,0.008592196498833771,-0.2141265161976418
2700,6.0,299.80787000000004,1295.1682,0.0,0.0,0.0,0.0,0.0,-0.026910385876316223,-0.04886475006307536,-0.1890032738106708,-0.15583075236429783,0.021152910022879678,0.034469536289878366,-0.23754183434855378
2701,6.0,300.64122000000003,684.8290400000001,0.0,0.0,0.0,0.0,0.0,-0.02692035268590004,0.02676298705030118,-0.13571483998401188,-0.0992190709921599,-0.005823649376874444,0.016820351893789484,-0.23302590024286576
2702,6.0,300.12961,857.8587699999999,0.0,0.0,0.0,0.0,0.0,-0.026930319495483857,-0.03500914769688387,-0.15314074560131485,-0.07261775508806444,0.028107184897963173,-0.013974291443155186,-0.27624814015606874
2703,6.0,300.16058,1503.7295,0.0,0.0,0.0,0.0,0.0,-0.0269402863050677,-0.11481747872910289,-0.23066257544462376,-0.1116161657006579,-0.022927040020472682,-0.05066717405646075,-0.26397551308985473
2704,6.0,300.8479,1354.3795,0.0,0.0,0.0,0.0,0.0,-0.026950253114651518,-0.09404124443089822,-0.19804797990081383,-0.11960830758692088,0.00970013198357849,-0.025931070214697375,-0.3046496417840787
2705,6.0,300.20617000000004,739.9779,0.0,0.0,0.0,0.0,0.0,-0.026960219924235307,-0.014125310291059588,-0.14567028566153786,-0.06513920941248943,-0.004892894553641096,-0.018629000282539183,-0.25714198216293777
2706,6.0,299.84709,1024.6886,0.0,0.0,0.0,0.0,0.0,-0.026970186733819124,-0.018705804640119183,-0.2004856772563958,-0.09228825184364133,0.016659758845690185,-0.004946345928216335,-0.3073402159671177
2707,6.0,298.8927,1824.1946,0.0,0.0,0.0,0.0,0.0,-0.026980153543402968,-0.11192440651357889,-0.23602867704671676,-0.2065565247005418,0.01200652833820209,-0.006736590959374763,-0.25521130502489475
2708,6.0,298.28968,1875.4251,0.0,0.0,0.0,0.0,0.0,-0.026990120352986785,-0.13807989743992488,-0.27217808675688576,-0.15982441683844184,0.021977787810038778,0.017166372749939086,-0.2855534339069297
2709,6.0,300.14169,1342.8671,0.0,0.0,0.0,0.0,0.0,-0.02700008716257063,-0.038546333881726964,-0.20804339829478483,-0.16160832469949984,0.01872810323506988,0.014301454701693687,-0.24149306390850978
2710,6.0,299.85417,858.47698,0.0,0.0,0.0,0.0,0.0,-0.027010053972154446,-0.015631150913924485,-0.15920603030241184,-0.08611838858647324,-0.012226314443893289,-0.01983290656110548,-0.25293907141064276
2711,6.0,299.21972999999997,1021.4799,0.0,0.0,0.0,0.0,0.0,-0.027020020781738235,-0.02950284065195367,-0.17557980741337784,-0.1054217321418149,-0.007934561517530253,-0.023336461961879478,-0.24310841761543275
2712,6.0,299.80931,1478.4117,0.0,0.0,0.0,0.0,0.0,-0.027029987591322052,-0.08612514595139012,-0.1846627636947958,-0.17861233324016482,-0.011670495088288189,-0.007487726329431053,-0.2407508480777588
2713,6.0,300.3216,1342.2765,0.0,0.0,0.0,0.0,0.0,-0.027039954400905897,-0.09331495081221859,-0.17489442478073583,-0.13980917085559086,0.02014559250221518,0.012241876952179188,-0.25471681871109275
2714,6.0,300.41652999999997,923.48991,0.0,0.0,0.0,0.0,0.0,-0.027049921210489714,-0.06423774207677153,-0.14037360182379585,-0.07610652413012912,-0.006853701696657693,0.012505258143422888,-0.26192085466957576
2715,6.0,301.24104,1276.1302,0.0,0.0,0.0,0.0,0.0,-0.02705988802007353,-0.08377837158028151,-0.1933910317787088,-0.11074231854941591,0.01136055809469979,-0.007729927452509442,-0.29037506556778775
2716,6.0,299.95371,1743.8504,0.0,0.0,0.0,0.0,0.0,-0.027069854829657347,-0.14632147110330487,-0.2181860723257888,-0.16557944435891886,-0.0035158574728881165,-0.024775811086682177,-0.2783422748002437
2717,6.0,300.35684,1737.0902,0.0,0.0,0.0,0.0,0.0,-0.02707982163924119,-0.12871571359325187,-0.2032610807378068,-0.19605524119414583,0.02546109239431418,0.00011182879623414288,-0.2527270184297148
2718,6.0,300.12237999999996,1122.2925,0.0,0.0,0.0,0.0,0.0,-0.02708978844882498,-0.01834005377802238,-0.17644371458113883,-0.14636514218261487,-0.005208103588824804,-0.004013250091951946,-0.24773165490671076
2719,6.0,299.3703,783.04134,0.0,0.0,0.0,0.0,0.0,-0.027099755258408798,-0.006402475386600124,-0.14694503534734585,-0.08467750844076942,0.013068798464789986,0.005977375730371055,-0.23853645077921476
2720,6.0,297.93942999999996,1147.2293,0.0,0.0,0.0,0.0,0.0,-0.027109722067992642,-0.03310960773441387,-0.1768694518756558,-0.13875000026105888,-0.014119202419456788,0.019035657064423082,-0.25150342774145573
2721,6.0,298.91949,1479.2223,0.0,0.0,0.0,0.0,0.0,-0.02711968887757646,-0.06893927421652662,-0.23071242734954378,-0.14999493841334788,0.00030250733723014977,0.018670322648117382,-0.24225867568406978
2722,6.0,298.70596,1283.3584,0.0,0.0,0.0,0.0,0.0,-0.027129655687160276,-0.06248868495290304,-0.19285886269368782,-0.13476135137490988,-0.03695066863749707,-0.006095840676412634,-0.26934318522960277
2723,6.0,299.64371,1008.4954,0.0,0.0,0.0,0.0,0.0,-0.027139622496744092,-0.019170759779756682,-0.20563759805235082,-0.08174905961125402,-0.013608004571755485,0.0022916682577950476,-0.2974149752750727
2724,6.0,300.59418999999997,981.4598800000001,0.0,0.0,0.0,0.0,0.0,-0.027149589306327937,-0.016393666197178886,-0.2107949802663448,-0.07115064899002234,0.01113433481112329,-0.0002152117070547418,-0.3087698915932157
2725,6.0,300.63905,1291.4278,0.0,0.0,0.0,0.0,0.0,-0.027159556115911726,-0.08713254149231232,-0.1899887304604278,-0.1154405464805949,0.04524961454803925,0.019386324685531284,-0.3018303037783317
2726,6.0,300.24291,1574.4569,0.0,0.0,0.0,0.0,0.0,-0.027169522925495543,-0.1124732131652419,-0.2160168963792078,-0.15010548399925785,-0.008410993133100392,-0.025264767081438377,-0.2728618684543697
2727,6.0,299.76675,1173.8316,0.0,0.0,0.0,0.0,0.0,-0.02717948973507936,-0.05923090146988484,-0.16930640114174084,-0.1282781922000719,-0.018570474956763183,-0.024132793453971277,-0.2869481118745737
2728,6.0,299.16005,908.89212,0.0,0.0,0.0,0.0,0.0,-0.027189456544663204,-0.02097692773226158,-0.14664201277243985,-0.10866156893906188,-0.03594676576966956,-0.0027709945262508673,-0.24136626579099577
2729,6.0,299.55786,1219.0528,0.0,0.0,0.0,0.0,0.0,-0.02719942335424702,-0.04185372001014056,-0.17656602400070984,-0.15214185325523186,-0.013342674900569488,0.014573344154027086,-0.26030217750232476
2730,6.0,299.98846000000003,1580.5626,0.0,0.0,0.0,0.0,0.0,-0.027209390163830866,-0.11294428326923288,-0.1920493873212988,-0.17545788302884482,0.006790677540437692,0.005549160330084485,-0.1872996660200378
2731,6.0,300.72742,1472.8608,0.0,0.0,0.0,0.0,0.0,-0.027219356973414655,-0.07307589206777902,-0.2152315971542048,-0.15940540752458884,-0.016658957364861084,0.015208109877923587,-0.26158921791184575
2732,6.0,301.6298,1226.2908,0.0,0.0,0.0,0.0,0.0,-0.02722932378299847,-0.05725958388358095,-0.19906121986831282,-0.11644096883432889,0.025237586647505875,0.029179520651044472,-0.24167218626118778
2733,6.0,299.79307,1216.5047,0.0,0.0,0.0,0.0,0.0,-0.027239290592582288,-0.05152808504367605,-0.21230636438050676,-0.1059526143992089,-0.0008643858169757381,-0.0017071916562366985,-0.2713320330558867
2734,6.0,300.60812999999996,1542.1468,0.0,0.0,0.0,0.0,0.0,-0.027249257402166133,-0.13143114280124388,-0.2005578003985138,-0.13678518672714687,0.004490169080820185,-0.030600011164985973,-0.27912256856975276
2735,6.0,299.76771,1695.85,0.0,0.0,0.0,0.0,0.0,-0.02725922421174995,-0.1103701517876859,-0.24168358532481277,-0.16344231751300084,-0.02849302648304277,-0.023733909313604477,-0.2766752048082167
2736,6.0,298.88969,1210.3006,0.0,0.0,0.0,0.0,0.0,-0.027269191021333766,-0.07707722380542972,-0.19236724387766882,-0.09845669047116881,0.005484060024409584,0.011209204874262389,-0.29662048587166273
2737,6.0,298.6704,784.22991,0.0,0.0,0.0,0.0,0.0,-0.027279157830917555,-0.013845407043685287,-0.13122007267291289,-0.09332083576879942,0.0014758183263769286,0.01023450995381749,-0.26986691394129075
2738,6.0,299.5725,1074.6965,0.0,0.0,0.0,0.0,0.0,-0.0272891246405014,-0.05355584674005054,-0.14857462521817386,-0.12455041468466888,-0.001061611210047869,-0.016816049633864884,-0.2823670359199567
2739,6.0,300.03987,1590.5837,0.0,0.0,0.0,0.0,0.0,-0.027299091450085217,-0.07649268691549042,-0.22860736986929076,-0.17839766607397883,0.004492657521740776,-0.011636511693184288,-0.2712505272178427
2740,6.0,300.79377999999997,1371.8059,0.0,0.0,0.0,0.0,0.0,-0.02730905825966906,-0.05035307767121186,-0.22452377944877178,-0.14211789160594385,0.01929349172461938,0.002383183892251938,-0.2779494580014757
2741,6.0,300.46943999999996,900.5904199999999,0.0,0.0,0.0,0.0,0.0,-0.02731902506925285,0.013317597973844587,-0.18685066450322482,-0.1002239303680818,0.024537188661631976,0.004595397028880376,-0.2776613099380377
2742,6.0,300.43368,1170.583,0.0,0.0,0.0,0.0,0.0,-0.027328991878836695,-0.045862732183549255,-0.2041813955386348,-0.1057838677275549,0.00941683819871957,-0.013353217767859988,-0.25605682170334076
2743,6.0,299.78131,1434.7734,0.0,0.0,0.0,0.0,0.0,-0.02733895868842051,-0.08277034985079751,-0.2057439183853438,-0.14762101501905986,-0.0027458426190185674,-0.00967938092550552,-0.27266566270500575
2744,6.0,299.95912000000004,1474.2637,0.0,0.0,0.0,0.0,0.0,-0.027348925498004356,-0.06989498488309794,-0.2318543602122438,-0.14638999720756787,-0.023098144525109377,-0.002790431094969107,-0.2864208367875357
2745,6.0,299.94197,1201.5416,0.0,0.0,0.0,0.0,0.0,-0.027358892307588145,-0.06226786938511024,-0.14793448420249686,-0.15503629335839084,-0.020738903124770378,-0.009122621273807622,-0.2711046698659477
2746,6.0,298.7568,943.0360599999999,0.0,0.0,0.0,0.0,0.0,-0.027368859117171962,-0.04862920994482936,-0.12062313835707687,-0.11740707240717588,-0.028890351231505677,-0.013544160696204588,-0.25493958174557774
2747,6.0,299.29929,1153.7053,0.0,0.0,0.0,0.0,0.0,-0.02737882592675578,-0.07291315903546854,-0.14539729581959585,-0.13238715440309487,0.01216228007732359,0.024038632122178275,-0.27990991455995773
2748,6.0,299.6531,1645.5824,0.0,0.0,0.0,0.0,0.0,-0.027388792736339623,-0.14516382273155387,-0.17200696597076584,-0.18304518083765284,0.03484152066659037,0.04102900839599786,-0.2312694919895218
2749,6.0,298.81056,1480.6034,0.0,0.0,0.0,0.0,0.0,-0.02739875954592344,-0.08124419660317793,-0.19593751166502682,-0.17288476479739784,0.02170127388424898,0.03312832753001137,-0.25070757045041075
2750,6.0,299.49009,1057.0527,0.0,0.0,0.0,0.0,0.0,-0.027408726355507285,-0.04335953935475337,-0.13853577892491686,-0.13942231196741087,-0.017612202793939085,-0.015605505553893485,-0.23151018955077676
2751,6.0,300.73822,1193.2056,0.0,0.0,0.0,0.0,0.0,-0.027418693165091046,-0.033787136665530765,-0.2003968050901248,-0.12852077440651288,-0.0038940327063861063,0.010999462103562388,-0.25543531435700273
2752,6.0,300.52524,1456.4153,0.0,0.0,0.0,0.0,0.0,-0.02742865997467489,-0.0951246002920671,-0.2159274871903838,-0.13166179905400785,-0.021818991254366777,0.007935130356136393,-0.26157237769518377
2753,6.0,300.93215,1370.1167,0.0,0.0,0.0,0.0,0.0,-0.027438626784258707,-0.058026554427525044,-0.2168531519517398,-0.1416015697524869,0.01996129750777668,-0.016016700682975286,-0.27302274217274675
2754,6.0,299.72831,984.2905,0.0,0.0,0.0,0.0,0.0,-0.027448593593842552,-0.04017029818799976,-0.16599220191965483,-0.09303723213205992,-0.01071691832642749,-0.04917588066528155,-0.2684500559289577
2755,6.0,299.74633,1006.5196,0.0,0.0,0.0,0.0,0.0,-0.02745856040342637,-0.02338645065556298,-0.17253495033287383,-0.11003541448464989,0.02787323254262387,-0.005346264698260245,-0.3050906183600997
2756,6.0,299.38142,1114.4698,0.0,0.0,0.0,0.0,0.0,-0.027468527213010185,-0.03991826945087646,-0.17073471901270484,-0.12811798722676088,0.02409495261573668,0.003918629960513667,-0.2944991961248077
2757,6.0,298.94853,1188.4748,0.0,0.0,0.0,0.0,0.0,-0.027478494022593974,-0.026390563936295873,-0.19399494910331083,-0.14088114893138687,0.002661374746957237,0.0047271546003338355,-0.3035484922379037
2758,6.0,298.21033,1360.6391,0.0,0.0,0.0,0.0,0.0,-0.02748846083217782,-0.07049388560645484,-0.18972538675943781,-0.15338105812753186,-0.015553379915749085,-0.024064406164971977,-0.2736789128050057
2759,6.0,298.73672999999997,1169.6278,0.0,0.0,0.0,0.0,0.0,-0.027498427641761636,-0.06544199387362194,-0.16593392990640385,-0.12416171168130688,-0.01135531249893209,0.004993765019646235,-0.2964885201786387
2760,6.0,299.18339,1094.4909,0.0,0.0,0.0,0.0,0.0,-0.02750839445134548,-0.030968510974604076,-0.21512802272898277,-0.0866013785646406,0.0007790322832670002,0.03116523348151907,-0.2759380552279658
2761,6.0,301.04933,1452.1511,0.0,0.0,0.0,0.0,0.0,-0.02751836126092927,-0.06238759299042603,-0.20922941766933578,-0.16980066454052084,-0.006305169737096805,-0.0028314317536405572,-0.2523078064658417
2762,6.0,301.04798,1699.8021,0.0,0.0,0.0,0.0,0.0,-0.027528328070513114,-0.100486323640478,-0.24740199398667578,-0.16880906759515782,-0.01054302333101539,-0.0012644256805390988,-0.2242711356688378
2763,6.0,299.75288,1345.7322,0.0,0.0,0.0,0.0,0.0,-0.02753829488009693,-0.06615271890451503,-0.22230779134757078,-0.1206084766281299,-0.0076641987291225224,0.005782815701819474,-0.2651398489122657
2764,6.0,300.11352,1186.8602,0.0,0.0,0.0,0.0,0.0,-0.027548261689680775,-0.07680246077581272,-0.17056037920049882,-0.1134130228979939,0.027480987216912275,0.02069740648017498,-0.25289166143846376
2765,6.0,299.5679,1239.5797,0.0,0.0,0.0,0.0,0.0,-0.027558228499264564,-0.06045526425472003,-0.1930248735900718,-0.1233211295308479,0.011311041575562888,-0.017210663938310285,-0.2721141912055797
2766,6.0,299.69549,1341.8670000000002,0.0,0.0,0.0,0.0,0.0,-0.02756819530884838,-0.08535182030281882,-0.16131461389301285,-0.16122764663692984,0.004192691719736456,-0.009304334101691281,-0.25400665198100475
2767,6.0,300.16,1449.1656,0.0,0.0,0.0,0.0,0.0,-0.027578162118432198,-0.09260105633501271,-0.1888941670399028,-0.15901494146605286,-0.0014582280006658985,-0.023859938374292577,-0.27978572049520073
2768,6.0,300.45785,1152.9924,0.0,0.0,0.0,0.0,0.0,-0.027588128928016042,-0.07665215829572902,-0.16054354069941384,-0.11328521153037989,0.005780417946782834,0.01028802070484859,-0.27565480116251073
2769,6.0,299.33986,870.7951800000001,0.0,0.0,0.0,0.0,0.0,-0.02759809573759986,-0.031213894817571572,-0.15283109637075484,-0.08065499673627842,-0.013224208738627787,0.002293123082288628,-0.2794665872437047
2770,6.0,299.99309,1303.2808,0.0,0.0,0.0,0.0,0.0,-0.027608062547183704,-0.08294900712167962,-0.19684016551661182,-0.11637563446788089,0.019650145627318382,-0.007020341922678803,-0.29504442600361774
2771,6.0,299.45241,1740.1688,0.0,0.0,0.0,0.0,0.0,-0.027618029356767465,-0.10081475548814171,-0.2719988022841917,-0.15615428312122787,0.007992043803653313,-0.004223094795612006,-0.3031816653042007
2772,6.0,299.02205,1305.401,0.0,0.0,0.0,0.0,0.0,-0.02762799616635131,-0.03961666339961026,-0.22408904449336678,-0.13310360328380288,0.04574672619285036,0.012712205357096988,-0.30701327055735067
2773,6.0,300.04712,831.1300200000001,0.0,0.0,0.0,0.0,0.0,-0.027637962975935126,0.03129913245573387,-0.2026077978683328,-0.08133410532430121,0.01109729748021799,-0.013158478191390688,-0.3082735814292337
2774,6.0,300.93107000000003,1016.7179,0.0,0.0,0.0,0.0,0.0,-0.02764792978551897,-0.011408436188424988,-0.19674609537732782,-0.100902333734035,-0.011558551217240188,-0.0038866127772288167,-0.25799961731257975
2775,6.0,300.06487999999996,1329.5269,0.0,0.0,0.0,0.0,0.0,-0.027657896595102788,-0.06174313958232344,-0.2107647246183588,-0.13163511004637388,-0.04822233126117355,-0.008680497394698393,-0.2819688691606607
2776,6.0,300.74817,1307.1491,0.0,0.0,0.0,0.0,0.0,-0.027667863404686605,-0.086099074013067,-0.19201055957746682,-0.11923105430968889,-0.00990733615747795,0.02430988322694868,-0.28570699195958477
2777,6.0,300.62555,1023.2073,0.0,0.0,0.0,0.0,0.0,-0.027677830214270394,-0.052678796705242455,-0.13110401500645888,-0.1272466529357669,-0.022963412659312378,-0.003468100563874877,-0.26892288908812273
2778,6.0,300.3706,1136.3509,0.0,0.0,0.0,0.0,0.0,-0.027687797023854238,-0.034553596531424466,-0.18693823970936782,-0.1239304576109839,0.008304491023039451,-0.0027242485368623973,-0.2679907901886317
2779,6.0,299.96311000000003,1639.2445,0.0,0.0,0.0,0.0,0.0,-0.027697763833438055,-0.12238083343804787,-0.18639158114791682,-0.18951696121386782,0.014679134557217786,0.0016558596968956284,-0.28159723942148374
2780,6.0,301.15623999999997,1939.6198,0.0,0.0,0.0,0.0,0.0,-0.0277077306430219,-0.16605894470374183,-0.2216071390359218,-0.2019299132864308,0.025111357976548076,0.019166572017093382,-0.25562719352843977
2781,6.0,299.74408,1494.1628,0.0,0.0,0.0,0.0,0.0,-0.02771769745260569,-0.13604644634423887,-0.17134593173802684,-0.14679580387261787,0.008165129921510582,-0.007856545718130692,-0.24607986472619178
2782,6.0,300.98573,1122.9496,0.0,0.0,0.0,0.0,0.0,-0.027727664262189533,-0.06360498664107343,-0.15741194941034986,-0.12033169723081388,-0.002968178568586417,0.0027857790611099872,-0.2373451422391418
2783,6.0,300.00653,1171.2298,0.0,0.0,0.0,0.0,0.0,-0.02773763107177335,-0.023906701892907774,-0.19576522875052382,-0.1363526606569599,0.0027660520949130876,0.024301270601098678,-0.2529402467807587
2784,6.0,299.61372,1460.3073,0.0,0.0,0.0,0.0,0.0,-0.027747597881357194,-0.06356508991838594,-0.2059910196872308,-0.17434083558860083,-0.02919608121067887,0.027363729862339873,-0.23893848815389276
2785,6.0,299.21387000000004,1218.3123,0.0,0.0,0.0,0.0,0.0,-0.027757564690940983,-0.039920139910561064,-0.17941148359403483,-0.15100490558302385,-0.020896254785799782,-0.01020586030723999,-0.24929606239860577
2786,6.0,299.50835,737.55286,0.0,0.0,0.0,0.0,0.0,-0.0277675315005248,-0.007845578096398272,-0.14108175218618488,-0.07527032225985242,-0.049782672580417256,-0.004806250017714946,-0.27339052156154375
2787,6.0,299.25957999999997,867.6461400000001,0.0,0.0,0.0,0.0,0.0,-0.027777498310108617,-0.02735986836620877,-0.15003309741211385,-0.08634979768406151,-0.0030919140363481565,0.011200161617119888,-0.29620588419574473
2788,6.0,299.6822,1373.0848,0.0,0.0,0.0,0.0,0.0,-0.02778746511969246,-0.08179420496945952,-0.20917226023119478,-0.12641702401888888,0.012112027938614088,0.01825215939809788,-0.3213390868311987
2789,6.0,299.7261,1543.6785,0.0,0.0,0.0,0.0,0.0,-0.02779743192927628,-0.08130469371364853,-0.2249823764440318,-0.16295265426967484,0.044570323574998454,0.004622431554798475,-0.3115778609328407
2790,6.0,300.43505,1376.9094,0.0,0.0,0.0,0.0,0.0,-0.027807398738860123,-0.054881766569158656,-0.20593085289629282,-0.15773346379958086,0.03376312973091147,-0.00952845144625994,-0.3208537096357957
2791,6.0,301.21897,1079.8354,0.0,0.0,0.0,0.0,0.0,-0.027817365548443884,-0.020541153182253982,-0.19988855883996481,-0.1078132962203439,0.017795013376981084,-0.027969754747149873,-0.3086871597225507
2792,6.0,300.1844,1009.1439999999999,0.0,0.0,0.0,0.0,0.0,-0.02782733235802773,-0.030058030779246674,-0.18292985271127082,-0.09376670735605351,-0.01969624445386798,-0.00892500700547961,-0.29306418067068274
2793,6.0,300.47361,1364.9628,0.0,0.0,0.0,0.0,0.0,-0.027837299167611546,-0.08596338563917562,-0.1871204423423498,-0.14183076692510688,-0.024526027711780477,-0.01928258814029328,-0.23334718158457377
2794,6.0,300.90313,1428.5126,0.0,0.0,0.0,0.0,0.0,-0.02784726597719539,-0.09249491433403731,-0.1958546582043498,-0.14588258182248987,-0.017404210919411883,0.009681228992362912,-0.24353809645283875
2795,6.0,299.89335,1045.2786,0.0,0.0,0.0,0.0,0.0,-0.027857232786779207,-0.024778349278182676,-0.16207375100043384,-0.13088650060749188,-0.007838768143801182,0.03281488773082727,-0.23675080012798477
2796,6.0,299.52402,1221.0357,0.0,0.0,0.0,0.0,0.0,-0.027867199596363024,-0.04665603101809176,-0.20565229017880082,-0.1188560301826769,-0.03099488587470707,0.042266679207646464,-0.2636959067247598
2797,6.0,298.84817999999996,1728.3939,0.0,0.0,0.0,0.0,0.0,-0.027877166405946813,-0.13231894240636285,-0.19283101858093982,-0.2002386164845128,-0.015940776839732183,-0.003183415789278677,-0.22030086713950278
2798,6.0,299.01876,1885.6102,0.0,0.0,0.0,0.0,0.0,-0.027887133215530657,-0.18234831808137783,-0.2050815466624728,-0.18574853210445283,-0.008453268359072633,0.006716041335421674,-0.24933993612793576
2799,6.0,298.71303,1655.7309,0.0,0.0,0.0,0.0,0.0,-0.027897100025114474,-0.15487714216518383,-0.2035715101709438,-0.14485218753079787,0.029373042300893572,0.00041309990754728667,-0.26053623827542477
2800,6.0,299.74734,1300.0375,0.0,0.0,0.0,0.0,0.0,-0.02790706683469832,-0.09232822658658651,-0.17521830004269984,-0.1276324276463399,0.03432992157184947,-0.003149559455737317,-0.25337003707567574
2801,6.0,298.98034,1112.0929,0.0,0.0,0.0,0.0,0.0,-0.027917033644282108,-0.034355893198412674,-0.1799513229823128,-0.12374124328730988,-0.00012066011185322589,-0.03348139250085617,-0.27996082024498176
2802,6.0,300.07602,1282.9311,0.0,0.0,0.0,0.0,0.0,-0.027927000453865952,-0.049388404807506045,-0.18761185850834883,-0.15297875730782784,0.02874516566442697,-0.018416520723319084,-0.2709974578728668
2803,6.0,299.58847000000003,1299.8094,0.0,0.0,0.0,0.0,0.0,-0.02793696726344977,-0.05235128590191965,-0.21480676165227677,-0.12795155076533488,0.01029714299549889,-0.017414839912960882,-0.2855075032798967
2804,6.0,299.29143999999997,808.8304400000001,0.0,0.0,0.0,0.0,0.0,-0.027946934073033614,-0.0004092272960625896,-0.2018260855486838,-0.04362894634434176,0.013046646791103787,-0.004629455505816686,-0.27980971425756873
2805,6.0,299.88298,848.8765900000001,0.0,0.0,0.0,0.0,0.0,-0.027956900882617403,0.004044107914472376,-0.1927532313707628,-0.06932816061815673,-0.004542390471099036,-0.037772323276088066,-0.2621661726512868
2806,6.0,299.96714,1469.5887,0.0,0.0,0.0,0.0,0.0,-0.02796686769220122,-0.058961824799829046,-0.24368358903469775,-0.14407285634888387,0.0052621886500125855,-0.008363238959862422,-0.2741134147128877
2807,6.0,299.59623,1821.4446,0.0,0.0,0.0,0.0,0.0,-0.027976834501785036,-0.10452168234298691,-0.26142221403036375,-0.18772977042248581,-0.015748144823470884,0.014152993297041687,-0.2877912879452887
2808,6.0,299.62567,1429.9687,0.0,0.0,0.0,0.0,0.0,-0.02798680131136888,-0.06024950963641365,-0.2095673163126838,-0.16485795962521385,-0.0026831561790568977,0.026893736843205174,-0.30289394280580473
2809,6.0,299.3711,1046.1988,0.0,0.0,0.0,0.0,0.0,-0.027996768120952698,-0.051306017098759656,-0.18435835296725284,-0.08235393141745022,-0.037395003124349464,0.008869998468150692,-0.27795809089232776
2810,6.0,299.36136,1194.1489,0.0,0.0,0.0,0.0,0.0,-0.028006734930536542,-0.08671403272400872,-0.16670516522001885,-0.1095722578639399,-0.005191654892001445,0.009685686988827881,-0.2796386168456827
2811,6.0,300.07174,1453.0221,0.0,0.0,0.0,0.0,0.0,-0.028016701740120303,-0.1181123654042829,-0.17353450129152184,-0.15003559000735986,0.02258436896915368,0.03236054638598727,-0.2635917648794817
2812,6.0,299.70791,1385.2646,0.0,0.0,0.0,0.0,0.0,-0.028026668549704148,-0.08534842388848361,-0.1988825940081838,-0.13685483753902086,0.02819958824083267,0.02178941144419748,-0.27446601561518674
2813,6.0,300.38509,1271.4349,0.0,0.0,0.0,0.0,0.0,-0.028036635359287965,-0.05489183320890215,-0.17826267076315583,-0.15332993965998687,0.02350762726152218,-0.03072897459796367,-0.23068374223921279
2814,6.0,301.7603,1327.8265,0.0,0.0,0.0,0.0,0.0,-0.02804660216887181,-0.04999490186686265,-0.2206969060735888,-0.13293428919209288,0.002127734828091078,-0.013387094771703387,-0.25511101352999677
2815,6.0,301.17129,1579.4053,0.0,0.0,0.0,0.0,0.0,-0.028056568978455626,-0.11654369212946689,-0.2184561338749418,-0.14509993731274884,0.00029069678260703875,-0.017680794759458586,-0.2500237380904217
2816,6.0,300.73287,1850.7757,0.0,0.0,0.0,0.0,0.0,-0.028066535788039443,-0.15939829450888685,-0.2248918729450998,-0.17829943147678384,-0.006682796599640674,-0.013044424733634487,-0.23445522123142876
2817,6.0,299.92122,1352.8359,0.0,0.0,0.0,0.0,0.0,-0.028076502597623232,-0.04991549143002545,-0.2132427189304178,-0.14807012799338387,-0.01172879344604179,-0.008064237164003242,-0.2536003690884078
2818,6.0,299.6252,945.58923,0.0,0.0,0.0,0.0,0.0,-0.028086469407207076,0.003678930247957147,-0.17633239892515284,-0.11478204537310589,-0.0005850855952659525,0.008196548476636352,-0.27335057924260175
2819,6.0,299.56054,1334.2397,0.0,0.0,0.0,0.0,0.0,-0.028096436216790893,-0.027109949215793676,-0.2122259629850718,-0.16623962746157384,0.003708317337957426,0.02033488180639658,-0.3185807870114757
2820,6.0,299.6451,1338.7502,0.0,0.0,0.0,0.0,0.0,-0.02810640302637471,-0.0903117129795721,-0.18799165504333182,-0.1286432560786009,0.01217890244521409,0.01241700304646279,-0.30815043101207973
2821,6.0,299.08608,873.67261,0.0,0.0,0.0,0.0,0.0,-0.028116369835958527,-0.018544147679414882,-0.14796881311588486,-0.0990616950131281,0.006410862564302874,-0.004017401377611646,-0.3142192418235247
2822,6.0,300.00626,788.15574,0.0,0.0,0.0,0.0,0.0,-0.02812633664554237,-0.012065668706788789,-0.17224967989971987,-0.05526431610466335,-0.015575290435911484,0.007635260407591534,-0.3124962606909797
2823,6.0,300.69108,1161.0881,0.0,0.0,0.0,0.0,0.0,-0.028136303455126188,-0.036051727334278465,-0.18918833380893482,-0.12770173395317988,0.02063869066338018,0.01956970370187938,-0.2842617832094537
2824,6.0,300.41722999999996,1366.4219,0.0,0.0,0.0,0.0,0.0,-0.028146270264709977,-0.059869963374205346,-0.21179853356288778,-0.14368964516106386,-0.029740177262626972,-0.01008533015484459,-0.2876604874898797
2825,6.0,299.85796,1363.6661,0.0,0.0,0.0,0.0,0.0,-0.02815623707429382,-0.05171822547794145,-0.1997042587792758,-0.16309795433401483,0.00921075518605576,-0.03354844837922407,-0.24204063439505075
2826,6.0,299.2783,1265.2873,0.0,0.0,0.0,0.0,0.0,-0.02816620388387764,-0.05422619882070915,-0.2012355836554058,-0.12915396452650388,-0.026901759757496976,-0.03410018231042597,-0.26981960529412174
2827,6.0,299.80905,1254.3603,0.0,0.0,0.0,0.0,0.0,-0.028176170693461455,-0.06662040070017164,-0.18813301356478282,-0.1265407925186039,0.020494630817162584,0.024030272808853274,-0.23636364739727578
2828,6.0,301.10274,1526.7659,0.0,0.0,0.0,0.0,0.0,-0.028186137503045272,-0.13089337044316987,-0.17491529773279585,-0.15829006234451284,-0.018450534515925984,0.007865705397709682,-0.2817763516416607
2829,6.0,300.44371,1629.3701,0.0,0.0,0.0,0.0,0.0,-0.028196104312629117,-0.1254846718068729,-0.16446431196136385,-0.2053388311278648,-0.012408995330922488,0.010242430529849189,-0.2010050388601528
2830,6.0,300.88723,1258.4301,0.0,0.0,0.0,0.0,0.0,-0.028206071122212933,-0.05063958629598805,-0.16129528108110486,-0.17059644077155783,-0.022183269864068277,0.016442928390540682,-0.2907204014668697
2831,6.0,300.94925,1110.0619,0.0,0.0,0.0,0.0,0.0,-0.028216037931796722,-0.027801286719273375,-0.14826560420267584,-0.16136419222040585,0.01021329452322369,0.02965222310094657,-0.26812167170404877
2832,6.0,301.45332,1324.8569,0.0,0.0,0.0,0.0,0.0,-0.028226004741380567,-0.08875501226793772,-0.18110465490863784,-0.13286373658762987,0.0004438499911845836,-0.008988717841292381,-0.2975639939672797
2833,6.0,300.5346,1406.201,0.0,0.0,0.0,0.0,0.0,-0.028235971550964384,-0.1036303768925219,-0.18264409591806882,-0.14117552848293985,0.0011493679906087889,-0.05601334806883705,-0.2422888806695508
2834,6.0,300.00849,1225.6019999999999,0.0,0.0,0.0,0.0,0.0,-0.0282459383605482,-0.08977222620232891,-0.19876196658377882,-0.08401820585245133,0.008457754929190424,-0.004428214612730756,-0.2774489225845767
2835,6.0,299.74839,1210.3263,0.0,0.0,0.0,0.0,0.0,-0.028255905170132045,-0.03134788802404567,-0.21622343727959178,-0.12033765514140189,-0.0001256075081164959,0.030346148445181673,-0.2635923728295418
2836,6.0,300.85045,1313.8918,0.0,0.0,0.0,0.0,0.0,-0.028265871979715862,-0.050227355625304046,-0.22112638226097478,-0.12803656244872488,-0.007560444046707733,0.02410013437674808,-0.27586660083091374
2837,6.0,300.2271,1382.1038,0.0,0.0,0.0,0.0,0.0,-0.02827583878929965,-0.030181790159710772,-0.2206758912665148,-0.16926737074788883,-0.05229976517408495,-0.02024061307009298,-0.2622457127841368
2838,6.0,299.94841,1427.1729,0.0,0.0,0.0,0.0,0.0,-0.028285805598883468,-0.08329215744029592,-0.22848339871955575,-0.12204937906533588,-0.01781655811385738,-0.012841987496155487,-0.28765957556478977
2839,6.0,300.56264,1436.1165,0.0,0.0,0.0,0.0,0.0,-0.028295772408467312,-0.06760175166052344,-0.22125235964590778,-0.14768943979831287,-0.0017004756319238786,0.016741598043017083,-0.2944948796793817
2840,6.0,300.8981,1063.9248,0.0,0.0,0.0,0.0,0.0,-0.02830573921805113,-0.06275392951108064,-0.18387468816451882,-0.07677794518964323,0.015507437129714884,0.01129071476530679,-0.2984825761104367
2841,6.0,301.04281000000003,1000.9767,0.0,0.0,0.0,0.0,0.0,-0.028315706027634946,-0.02973402075501937,-0.16307160983141483,-0.11146628574586591,-0.015515861291046285,-0.015586154503483683,-0.2845197870824167
2842,6.0,301.06379,1222.1843,0.0,0.0,0.0,0.0,0.0,-0.028325672837218763,-0.04785413846633575,-0.18805008917659882,-0.13560928972109487,0.028593488203957573,-0.0038980354495811464,-0.3035031594284297
2843,6.0,300.35302,1150.5504,0.0,0.0,0.0,0.0,0.0,-0.028335639646802607,-0.02202732560742778,-0.2022838922088658,-0.12542737251371788,0.03404502198823207,0.03198246933642397,-0.3129380782645837
2844,6.0,300.95492,1235.1947,0.0,0.0,0.0,0.0,0.0,-0.028345606456386396,-0.06606159225677152,-0.21230736749810578,-0.09709939636596432,0.02918644418897777,0.0025716005854472175,-0.3117854049508237
2845,6.0,300.98831,1467.3363,0.0,0.0,0.0,0.0,0.0,-0.02835557326597024,-0.10882859308554589,-0.21436364711854478,-0.12284135560849788,-0.03304877625141027,-0.03594167216141686,-0.24760993317219776
2846,6.0,299.98284,1622.4645,0.0,0.0,0.0,0.0,0.0,-0.02836554007555403,-0.15448626067410684,-0.2126552669199408,-0.1260471674673869,0.006197827845352984,-0.006691507105450333,-0.25063547770579575
2847,6.0,299.34488999999996,1651.8966,0.0,0.0,0.0,0.0,0.0,-0.028375506885137874,-0.1021943481882969,-0.22430557603973678,-0.17563539431386385,-0.006809186681339403,0.03401220889699367,-0.2296036176326128
2848,6.0,299.79285,1537.5196,0.0,0.0,0.0,0.0,0.0,-0.02838547369472169,-0.08365270627637932,-0.2105596529306198,-0.17315521138158882,-0.01016947854914939,0.02035891001926798,-0.24271379723148678
2849,6.0,299.68892,1286.7517,0.0,0.0,0.0,0.0,0.0,-0.028395440504305536,-0.04850278369010205,-0.17768277759842482,-0.16495484659977583,-0.03178777434295907,-0.024290213002757376,-0.2419361581772398
2850,6.0,300.0576,1169.5477,0.0,0.0,0.0,0.0,0.0,-0.028405407313889353,-0.05120648047518615,-0.17547599994063284,-0.12883081880461186,0.0009043622216511021,-0.004269506108492446,-0.2922973732600047
2851,6.0,300.19316000000003,1189.5385,0.0,0.0,0.0,0.0,0.0,-0.02841537412347314,-0.034381239649664164,-0.19455276354836282,-0.1326560101846289,0.045935746985755255,0.022790252270222775,-0.3145950866831177
2852,6.0,300.47,1176.9929,0.0,0.0,0.0,0.0,0.0,-0.02842534093305696,-0.06247183561699014,-0.18479954232579482,-0.11050506603850091,0.02432387013132908,-0.0016594765944525885,-0.2852713552115907
2853,6.0,300.86192,954.6278300000001,0.0,0.0,0.0,0.0,0.0,-0.028435307742640803,-0.005414949072188865,-0.17026372996872183,-0.11450434391819889,0.01988960803670148,-0.03926525509267896,-0.3078300514629607
2854,6.0,301.5207,1031.0243,0.0,0.0,0.0,0.0,0.0,-0.02844527455222462,-0.028107661125510174,-0.18979944520924683,-0.09549854328122241,-0.005931009304470045,-0.025997222273976075,-0.2963937711617877
2855,6.0,301.93854,1379.1638,0.0,0.0,0.0,0.0,0.0,-0.028455241361808464,-0.035350541039826766,-0.23598875499277677,-0.14789204928830885,0.028803489353433073,0.017105105569392483,-0.3058440508694577
2856,6.0,302.19532000000004,1450.7801,0.0,0.0,0.0,0.0,0.0,-0.028465208171392226,-0.07384264172320133,-0.23020681554964376,-0.13695146106855688,-0.016334351549574987,-0.01950930386341838,-0.29831444752134373
2857,6.0,300.86877000000004,1411.3358,0.0,0.0,0.0,0.0,0.0,-0.02847517498097607,-0.07940311610522742,-0.21205496689819578,-0.13755274394289888,-0.0059830210533032046,-0.019350092888455482,-0.27157052173192375
2858,6.0,299.92251,1288.7819,0.0,0.0,0.0,0.0,0.0,-0.028485141790559887,-0.0861093341835796,-0.1814983633674938,-0.12414983639013488,-0.013613990853346289,-0.013735515004089786,-0.23577264901144876
2859,6.0,300.26713,1357.1591,0.0,0.0,0.0,0.0,0.0,-0.02849510860014373,-0.045559385368611253,-0.1923795042038788,-0.17460359160453282,0.03933392102545576,0.049479731065519256,-0.25772991040096177
2860,6.0,300.05064,1379.8511,0.0,0.0,0.0,0.0,0.0,-0.02850507540972755,-0.052886896997530346,-0.1793317205461628,-0.18722165589483883,-0.009018816232862862,0.016209013525455087,-0.25086071307052477
2861,6.0,299.98824,1291.8452,0.0,0.0,0.0,0.0,0.0,-0.028515042219311365,-0.044811194402020554,-0.16991751254205284,-0.17795996229578082,-0.004903136688301915,-0.003191511252277637,-0.27859973151815276
2862,6.0,300.42221,1271.7777,0.0,0.0,0.0,0.0,0.0,-0.028525009028895182,-0.062371266491564735,-0.1797128647037788,-0.14450455155398886,-0.02143591685531028,0.004471347858887676,-0.30915676061389674
2863,6.0,299.61044,1221.1984,0.0,0.0,0.0,0.0,0.0,-0.028534975838479026,-0.08560893555544412,-0.17502969366908583,-0.1105752032104229,0.014578775174563087,0.036619217304535365,-0.28644129430705473
2864,6.0,299.91625,1345.2343,0.0,0.0,0.0,0.0,0.0,-0.028544942648062815,-0.12309343196837588,-0.18481447763226883,-0.10100973115188432,0.0026653687762014174,-0.0040968044177231155,-0.27613978319037474
2865,6.0,299.98861,1486.3891,0.0,0.0,0.0,0.0,0.0,-0.02855490945764666,-0.1120061555316469,-0.16852219622684583,-0.17129682963818083,0.005892329799127675,-0.047832742677224156,-0.2290736878303128
2866,6.0,299.47102,1409.1378,0.0,0.0,0.0,0.0,0.0,-0.02856487626723045,-0.08310293602387121,-0.2009824940454278,-0.14425727799958485,0.002111300722069158,-0.02876669013630127,-0.24309302634641378
2867,6.0,298.69579,1361.1392,0.0,0.0,0.0,0.0,0.0,-0.028574843076814294,-0.036097436059539564,-0.20945931398452478,-0.16819558518961183,0.03330255284495607,0.0028848305405356073,-0.26755392740801676
2868,6.0,299.28238999999996,1494.2902,0.0,0.0,0.0,0.0,0.0,-0.02858480988639811,-0.08410047568107072,-0.2061576385336748,-0.16396878199995885,0.015083864137411486,0.01097865399950879,-0.26114155388516475
2869,6.0,298.37091000000004,1355.4379999999999,0.0,0.0,0.0,0.0,0.0,-0.028594776695981955,-0.08244996118242762,-0.2047204547243358,-0.12484889789912688,-0.016309985924420282,-0.003095721323598907,-0.2947142381935307
2870,6.0,299.84021,1147.721,0.0,0.0,0.0,0.0,0.0,-0.02860474350556577,-0.06750400342337644,-0.18297572254329783,-0.09839880247970571,-0.0037040669564379464,0.02030564852776148,-0.2920885018843907
2871,6.0,300.69603,853.99828,0.0,0.0,0.0,0.0,0.0,-0.02861471031514956,0.012569146601978188,-0.16934619147316785,-0.1028171119647589,-0.014975303508447385,0.03353168212981937,-0.3353442803759037
2872,6.0,300.67419,901.47445,0.0,0.0,0.0,0.0,0.0,-0.028624677124733378,-0.005575120304271534,-0.17536969987264184,-0.0930809052378701,-0.00848648330530069,0.011958999815761387,-0.3042381811834707
2873,6.0,301.02815,1208.0629,0.0,0.0,0.0,0.0,0.0,-0.028634643934317222,-0.024032956908368177,-0.2015423451231808,-0.14164566639683887,-0.04260851838063336,-0.03311918497435907,-0.33512187197895366
2874,6.0,299.98067000000003,1397.6301,0.0,0.0,0.0,0.0,0.0,-0.02864461074390104,-0.08294068225885802,-0.22398058620266276,-0.1179233739956309,0.03356963442556497,0.01005807595630481,-0.3171530365605677
2875,6.0,299.72575,1325.5719,0.0,0.0,0.0,0.0,0.0,-0.028654577553484883,-0.07904431917856693,-0.2194295125835068,-0.10446692630758289,0.01945136723595048,0.025989751580988773,-0.30966279797883867
2876,6.0,300.73101,1261.8893,0.0,0.0,0.0,0.0,0.0,-0.028664544363068645,-0.08682428345413962,-0.18378792355845583,-0.11297063790433388,0.03916783616181446,-0.0024044501880007576,-0.24628310243124976
2877,6.0,300.4432,1444.6346,0.0,0.0,0.0,0.0,0.0,-0.02867451117265249,-0.07501551519095492,-0.21888163812193578,-0.14523570269364786,-0.040132001387220166,-0.06350199990090945,-0.23701140805370477
2878,6.0,299.18165,1592.9633,0.0,0.0,0.0,0.0,0.0,-0.028684477982236306,-0.10525672436302991,-0.1996079696222728,-0.17935639318609783,-0.004201189341700106,-0.0030558915767430173,-0.21695464921425678
2879,6.0,299.31571,1539.4943,0.0,0.0,0.0,0.0,0.0,-0.02869444479182015,-0.06469448482434853,-0.22126613984726778,-0.1820071973027118,-0.013005449055287888,0.02012515119469778,-0.2561176977693488
2880,6.0,298.73013,1318.8501,0.0,0.0,0.0,0.0,0.0,-0.028704411601403967,-0.08647029237270341,-0.18271897510045884,-0.13170823630609085,-0.006825886258887523,0.01771419756225518,-0.26083673785758177
2881,6.0,299.72514,1201.7409,0.0,0.0,0.0,0.0,0.0,-0.028714378410987784,-0.0866564993700806,-0.15882732807753686,-0.1198154057748599,-0.021096283527791082,-0.012132691147903387,-0.27880390141330275
2882,6.0,300.2337,1327.0394,0.0,0.0,0.0,0.0,0.0,-0.0287243452205716,-0.08558747897132651,-0.19951605770570183,-0.1182833209611549,0.017454232037098585,0.018442562264139182,-0.3027948874760287
2883,6.0,299.79214,1202.5728,0.0,0.0,0.0,0.0,0.0,-0.028734312030155446,-0.06138913431538585,-0.17067572759188285,-0.13348724003666487,0.02153356072769698,0.017150988573670783,-0.3036331188862557
2884,6.0,299.96071,1219.8726,0.0,0.0,0.0,0.0,0.0,-0.028744278839739235,-0.05163461917244015,-0.18720103625530382,-0.13197515677993388,-0.0027203579604534274,-0.023302138114741976,-0.27344511547693173
2885,6.0,301.34028,1320.8120000000001,0.0,0.0,0.0,0.0,0.0,-0.02875424564932308,-0.033403755251693965,-0.22866823580279777,-0.13942188640236888,-0.008982828629061163,-0.04288482256365246,-0.27963397616022473
2886,6.0,300.19069,1320.546,0.0,0.0,0.0,0.0,0.0,-0.028764212458906868,-0.05368134181793595,-0.2216566363033068,-0.12607502171263588,-0.005566190328490215,0.007024726053211483,-0.27002149537654674
2887,6.0,300.46997999999996,1467.7524,0.0,0.0,0.0,0.0,0.0,-0.028774179268490713,-0.06170768494807435,-0.25115254936432674,-0.13329983943066986,0.013271906473835188,0.041245421392106164,-0.2689509662483937
2888,6.0,299.6621,1406.8089,0.0,0.0,0.0,0.0,0.0,-0.02878414607807453,-0.07345511408995534,-0.1989320304805628,-0.15524762693174785,-0.01200444104299609,-0.005887020773903714,-0.2539438000773018
2889,6.0,299.30224,1141.0144,0.0,0.0,0.0,0.0,0.0,-0.028794112887658374,-0.035629088558567265,-0.1843998556913488,-0.12681093512776487,-0.0077577169510770535,-0.028459446361478676,-0.2578149626143557
2890,6.0,299.2649,1123.5874,0.0,0.0,0.0,0.0,0.0,-0.02880407969724219,-0.04252604792849416,-0.1952380043259908,-0.1037784532621359,0.014495759593870087,0.00895151869434611,-0.29860895879540966
2891,6.0,299.27035,1206.1860000000001,0.0,0.0,0.0,0.0,0.0,-0.02881404650682598,-0.024944288233809578,-0.19800435948400882,-0.14370179402976288,0.04660207139726636,0.021909009406500878,-0.32434189403255265
2892,6.0,298.65238999999997,1174.758,0.0,0.0,0.0,0.0,0.0,-0.028824013316409797,-0.07851172047550352,-0.1897754210493758,-0.08880997196661182,0.006515093879564704,-0.011473029869049889,-0.3186455438253667
2893,6.0,301.34224,1309.0813,0.0,0.0,0.0,0.0,0.0,-0.02883398012599364,-0.051772678551565546,-0.2049989161168178,-0.14115641858605385,-0.0034107799924677773,-0.026472157927098575,-0.30634465721386367
2894,6.0,301.6295,1394.0649,0.0,0.0,0.0,0.0,0.0,-0.028843946935577458,-0.09058902534644073,-0.17923308064892784,-0.15393881177757787,-0.00993580757336286,0.0039009897828977164,-0.26999925453685175
2895,6.0,301.2215,1397.3506,0.0,0.0,0.0,0.0,0.0,-0.028853913745161303,-0.07061484639014273,-0.18448664056241385,-0.16965819144395983,0.003852295617541976,0.048775094654477054,-0.25643340623550676
2896,6.0,300.63366,1503.4555,0.0,0.0,0.0,0.0,0.0,-0.02886388055474509,-0.11932755624921289,-0.16071099041093986,-0.17697437392351084,-0.03523155508058377,0.011944054376786388,-0.21297594031158879
2897,6.0,300.57133,1795.7493,0.0,0.0,0.0,0.0,0.0,-0.028873847364328936,-0.12186594026723187,-0.22640705674713676,-0.1975899604581108,-0.006716691740660863,-0.006217015255871635,-0.2239771614173248
2898,6.0,299.85053,1659.4239,0.0,0.0,0.0,0.0,0.0,-0.028883814173912725,-0.13236348488075889,-0.20992090006757977,-0.16213904483687783,-0.006489251341064244,0.006081879204609744,-0.24348345187494577
2899,6.0,299.57055,1323.2466,0.0,0.0,0.0,0.0,0.0,-0.02889378098349657,-0.04894261124050966,-0.21144398722039678,-0.14184731329923986,0.039407734268740564,0.006552233954030143,-0.27787159986379173
2900,6.0,299.42706,1278.8527,0.0,0.0,0.0,0.0,0.0,-0.028903747793080387,-0.05160610428812595,-0.2029604899631408,-0.13417269359681386,0.007110325016359443,-0.032395156982903066,-0.25707102425843475
2901,6.0,299.55044,1172.4456,0.0,0.0,0.0,0.0,0.0,-0.028913714602664203,-0.038935009527336265,-0.17151467840968085,-0.14594449140359986,-0.006950654735126214,-0.03527457666657967,-0.28220414583388076
2902,6.0,300.35545,1173.1028,0.0,0.0,0.0,0.0,0.0,-0.02892368141224802,-0.043169687696766455,-0.1978767406339138,-0.11554752542615289,0.017055705574017085,0.007809644194851873,-0.3266322546910937
2903,6.0,300.72887000000003,1233.0183,0.0,0.0,0.0,0.0,0.0,-0.028933648221831865,-0.047248073051521754,-0.21611220268361378,-0.1114464969714129,-0.004603668290771685,0.034981775758682464,-0.35507271578544863
2904,6.0,299.67606,1191.1698,0.0,0.0,0.0,0.0,0.0,-0.028943615031415654,-0.07985771076259242,-0.17492615977386783,-0.1073019899548819,0.014745806413797788,0.011636132737646888,-0.30640738752755475
2905,6.0,300.11387,1360.3726,0.0,0.0,0.0,0.0,0.0,-0.0289535818409995,-0.06709610541012004,-0.23109512177981278,-0.11532805545449289,-0.027498926809932774,-0.026436596901588977,-0.3020805461555287
2906,6.0,300.44435,1578.3615,0.0,0.0,0.0,0.0,0.0,-0.028963548650583287,-0.07908839353141672,-0.22350905000362578,-0.17718502861930083,0.03738310250192496,0.018620978381497483,-0.2634722824276897
2907,6.0,300.0117,1429.9117,0.0,0.0,0.0,0.0,0.0,-0.028973515460167132,-0.037458579501873965,-0.2314249549523648,-0.16577392758311285,-0.007449776060185653,0.011363649520754889,-0.25807343258236476
2908,6.0,300.88878,1305.1915,0.0,0.0,0.0,0.0,0.0,-0.02898348226975095,-0.025868529378775075,-0.2231721038153718,-0.14770500331984884,-0.0019722969938505584,0.009429472211566451,-0.24344172623582777
2909,6.0,301.16632000000004,1296.5825,0.0,0.0,0.0,0.0,0.0,-0.028993449079334793,-0.06980078302130092,-0.18683227401390984,-0.13749565743226486,-0.042948265192163756,-0.03283827556963547,-0.26406076795326877
2910,6.0,300.39395,1483.6303,0.0,0.0,0.0,0.0,0.0,-0.02900341588891861,-0.09532249614259791,-0.22869682972061978,-0.12696724922069186,0.025655264550727478,0.012363390970421688,-0.28816361682703473
2911,6.0,299.84165,1459.8899,0.0,0.0,0.0,0.0,0.0,-0.0290133826985024,-0.10350316334246691,-0.1953716013516758,-0.14489530132255288,0.016626839363191283,0.016924601143578084,-0.30582321844740173
2912,6.0,299.80735,1197.8946,0.0,0.0,0.0,0.0,0.0,-0.029023349508086216,-0.08519915998975242,-0.14687009536994985,-0.13206079667838588,0.0025428699801867275,-0.0014680295741832385,-0.26102037930570576
2913,6.0,300.70203,1291.9221,0.0,0.0,0.0,0.0,0.0,-0.02903331631767006,-0.08127398716936803,-0.16654720966192985,-0.14489086328711484,-0.03005201916640337,-0.03329684318064257,-0.2750813117384117
2914,6.0,299.89023,1447.7444,0.0,0.0,0.0,0.0,0.0,-0.029043283127253877,-0.10100457776187571,-0.16878911670068883,-0.17028445093326686,0.02228197258280948,0.014964169916348587,-0.2502229430600818
2915,6.0,298.96905,1315.0385,0.0,0.0,0.0,0.0,0.0,-0.02905324993683772,-0.09375301632070232,-0.2020540870861858,-0.1039317580022659,0.016992613530040383,0.01088157349417769,-0.2975058840740447
2916,6.0,300.16228,1317.4169,0.0,0.0,0.0,0.0,0.0,-0.02906321674642151,-0.07841690053114551,-0.2005952602547108,-0.12144968699365088,-0.004688309327275105,-0.006872003627913952,-0.23460912378911777
2917,6.0,300.65946,1410.5427,0.0,0.0,0.0,0.0,0.0,-0.029073183556005355,-0.08127683034914862,-0.2011356873280468,-0.14635722869933385,-0.027256004151458176,-0.03794141850577647,-0.2565178201013378
2918,6.0,300.39252,1466.6553,0.0,0.0,0.0,0.0,0.0,-0.029083150365589144,-0.06843548424030643,-0.24308922665853877,-0.13430187285206288,0.001251476749561139,-0.001379323580928639,-0.24813933608444574
2919,6.0,299.46766,1392.0299,0.0,0.0,0.0,0.0,0.0,-0.02909311717517299,-0.04181379592970036,-0.2089894597806538,-0.17233906882354183,0.028005447495172472,0.008073258940243622,-0.27572900146733376
2920,6.0,299.42316,1247.6962,0.0,0.0,0.0,0.0,0.0,-0.029103083984756806,-0.03304952605648427,-0.2087310303426488,-0.13748795673150488,-0.017344877020056083,0.0028616813221259575,-0.29267648078491976
2921,6.0,300.57977999999997,987.32251,0.0,0.0,0.0,0.0,0.0,-0.029113050794340622,-0.028600478616397473,-0.17843034338970382,-0.0930905655643235,-0.017244137668613883,0.006990654707998903,-0.3208358257715307
2922,6.0,300.79427999999996,1106.1858,0.0,0.0,0.0,0.0,0.0,-0.02912301760392444,-0.04814541544608255,-0.1956244173841268,-0.09248302992361442,-0.01163288324457619,0.03937481478624166,-0.3423898136212437
2923,6.0,300.25831,1146.6778,0.0,0.0,0.0,0.0,0.0,-0.029132984413508284,-0.02719315528750547,-0.22768415717317678,-0.09368410619465141,0.03377912084398967,0.038787623181040363,-0.3377206659679347
2924,6.0,301.04202999999995,1119.0596,0.0,0.0,0.0,0.0,0.0,-0.029142951223092073,-0.05138627461268045,-0.17848880792047384,-0.11029109801488389,-0.012635442542771089,0.0022803291785759676,-0.30275118599921574
2925,6.0,300.92902999999995,1272.139,0.0,0.0,0.0,0.0,0.0,-0.02915291803267589,-0.01991993562544458,-0.2142749776022938,-0.15250357340843085,-0.006138190578917244,-0.02892895302056537,-0.26074369110089873
2926,6.0,300.16142,1533.6699,0.0,0.0,0.0,0.0,0.0,-0.029162884842259706,-0.1035139544560319,-0.23229332042056577,-0.13039006885349788,-0.018038322083743785,-0.02050671889085558,-0.2698193215840937
2927,6.0,298.90923,1728.7042,0.0,0.0,0.0,0.0,0.0,-0.02917285165184355,-0.1134147048931599,-0.2271611985315648,-0.18490700763140083,0.04183961252899826,-0.0016112767938206386,-0.25821996881182674
2928,6.0,299.44477,1643.6823,0.0,0.0,0.0,0.0,0.0,-0.029182818461427368,-0.1110632047235849,-0.23638138940652678,-0.15219377219035585,0.007662497786179653,0.0021660940450768376,-0.2534150051151137
2929,6.0,299.2468,1405.3045,0.0,0.0,0.0,0.0,0.0,-0.029192785271011185,-0.06165889695575934,-0.2036570386118848,-0.16186154603199085,0.004532391921762255,-0.009393463836137702,-0.24304957818212575
2930,6.0,298.80079,1244.6236,0.0,0.0,0.0,0.0,0.0,-0.02920275208059503,-0.09435675936628711,-0.14785955435760184,-0.13611818445131887,-0.03021272265876357,0.025817479812236876,-0.23846651625731277
2931,6.0,298.99014,1284.1197,0.0,0.0,0.0,0.0,0.0,-0.029212718890178818,-0.03461304999429207,-0.19699670252456083,-0.15873058295798884,0.007192678640762113,0.021314222478549978,-0.2922779289905857
2932,6.0,299.89729,1298.5133,0.0,0.0,0.0,0.0,0.0,-0.029222685699762635,-0.09654199228720281,-0.15185210425663587,-0.14632153189831087,0.015322328495446087,-0.001774372164366898,-0.26013333963816176
2933,6.0,300.27783999999997,1351.4708,0.0,0.0,0.0,0.0,0.0,-0.02923265250934648,-0.05882981857680104,-0.2175198806500408,-0.1344636787605319,-0.002328825152212148,-0.02201805234251258,-0.3081464894691907
2934,6.0,300.64819,1426.3635,0.0,0.0,0.0,0.0,0.0,-0.029242619318930296,-0.08476318785597532,-0.22637951660941877,-0.1224361872910109,-0.0015632382012795987,-0.003430983895486747,-0.3145713158357717
2935,6.0,299.43847999999997,1504.6105,0.0,0.0,0.0,0.0,0.0,-0.029252586128514113,-0.09506136132682591,-0.19924247004620083,-0.16306020063528884,-0.010301111896140589,-0.005221966775367995,-0.2975010306060657
2936,6.0,300.17581,1451.6828,0.0,0.0,0.0,0.0,0.0,-0.02926255293809793,-0.07891421989222712,-0.24307678394731078,-0.11928432086744589,0.003996700576743636,0.005094738735836565,-0.28022602832615573
2937,6.0,301.0917,1250.6008,0.0,0.0,0.0,0.0,0.0,-0.029272519747681774,-0.02106199413115698,-0.1940431190130648,-0.16504631268630285,-0.02235045005106768,-0.028994992609082972,-0.25364038233485675
2938,6.0,299.64491,1127.0825,0.0,0.0,0.0,0.0,0.0,-0.029282486557265563,-0.024808885596446378,-0.20966399050472478,-0.1081320545693029,-0.007075699524667174,0.028183866652281075,-0.2859270394838017
2939,6.0,298.77991000000003,1151.7177,0.0,0.0,0.0,0.0,0.0,-0.02929245336684938,-0.03437180122498267,-0.2199210199420148,-0.0958005951625326,0.01986407109443118,0.015324694434429586,-0.30948765769905373
2940,6.0,299.45082,1206.0307,0.0,0.0,0.0,0.0,0.0,-0.029302420176433225,-0.02950015148618827,-0.18789907438169481,-0.14920398525278686,0.030693068054169974,-0.007471884772067612,-0.3028461477985877
2941,6.0,300.35566,1235.3772,0.0,0.0,0.0,0.0,0.0,-0.02931238698601704,-0.04042896776627846,-0.21545179666593678,-0.1196430418003489,0.007574421021237152,-0.03494231169378767,-0.2927312469528247
2942,6.0,301.17035,1336.3427,0.0,0.0,0.0,0.0,0.0,-0.02932235379560086,-0.05611283402990554,-0.18026149910292483,-0.16984048526945084,0.011910604964485188,-0.02243114832878198,-0.3093501089979787
2943,6.0,301.11835,1478.0129,0.0,0.0,0.0,0.0,0.0,-0.029332320605184647,-0.07707803643200993,-0.19833613809675282,-0.17386485122162482,0.006780768055784703,0.0025745176311601074,-0.27381236797567676
2944,6.0,300.26336000000003,1345.0723,0.0,0.0,0.0,0.0,0.0,-0.029342287414768492,-0.1040719512861019,-0.17839050239577184,-0.12640594919529588,-0.011673208572055989,0.024685265031245976,-0.2836311464797147
2945,6.0,300.75764,1530.101,0.0,0.0,0.0,0.0,0.0,-0.02935225422435231,-0.11434004541448389,-0.18819831753372784,-0.16257414456231883,-0.01940453278982828,-0.002152161856201838,-0.26756329997144174
2946,6.0,299.62574,1528.3215,0.0,0.0,0.0,0.0,0.0,-0.029362221033936126,-0.10878910672914889,-0.2116007775408708,-0.14418170980712686,-0.018046453415796283,0.013812432845680985,-0.2722783174567777
2947,6.0,299.49512000000004,1364.0724,0.0,0.0,0.0,0.0,0.0,-0.029372187843519942,-0.0996849593351395,-0.1982519572784448,-0.1167070280455869,-0.01152085628701999,0.025276338397580374,-0.26058569501280576
2948,6.0,299.78463999999997,1371.9598,0.0,0.0,0.0,0.0,0.0,-0.029382154653103787,-0.06016377854545264,-0.18275824867433482,-0.17411951136925782,0.0027885441193078774,0.008452742279620711,-0.21952543697047378
2949,6.0,300.07613,1360.6797,0.0,0.0,0.0,0.0,0.0,-0.029392121462687604,-0.049208431324744055,-0.21220299260530479,-0.15220121957859084,0.0017667387434135385,-0.017304141326285785,-0.2781179614931057
2950,6.0,299.46272999999997,1353.4412,0.0,0.0,0.0,0.0,0.0,-0.02940208827227145,-0.07802180797265293,-0.2071232658789748,-0.12626727578660987,0.025627748731011875,-0.002927993576245467,-0.26637591270925576
2951,6.0,299.9864,1322.8074,0.0,0.0,0.0,0.0,0.0,-0.02941205508185521,-0.06699716457760534,-0.1929399834966938,-0.14216325481292086,0.008751715603152082,-0.005699197135991965,-0.3227860181064997
2952,6.0,300.38072,1275.9129,0.0,0.0,0.0,0.0,0.0,-0.029422021891439054,-0.06542601491954494,-0.2114171968877528,-0.1110024603800899,-0.004401573835801516,0.0022539237796449577,-0.30601229091606175
2953,6.0,299.72682000000003,1161.8956,0.0,0.0,0.0,0.0,0.0,-0.02943198870102287,-0.03119345249680407,-0.16687237175152084,-0.15512141649929187,-0.003447558437972527,-0.03887423478633826,-0.3109208797005017
2954,6.0,299.33853999999997,1241.0773,0.0,0.0,0.0,0.0,0.0,-0.029441955510606715,-0.029327221104871373,-0.2089377941580548,-0.13899147802489087,-0.006155113679437425,-0.028346699996351473,-0.31466168761219065
2955,6.0,299.5225,1235.4404,0.0,0.0,0.0,0.0,0.0,-0.029451922320190532,-0.05318118231682405,-0.18650819610192584,-0.13585365524771187,0.008231383103149262,0.02553516097662418,-0.32719932010955866
2956,6.0,299.93515,1115.8492,0.0,0.0,0.0,0.0,0.0,-0.02946188912977435,-0.08845355415118611,-0.16371473993488686,-0.08702199185340191,-0.011478047483545091,0.039743867830414364,-0.2896374194949877
2957,6.0,300.82521,1112.0531,0.0,0.0,0.0,0.0,0.0,-0.029471855939358138,-0.03858806458709546,-0.21083861081565078,-0.08860969396509591,0.005495237186262684,0.022989398471376977,-0.2890658653785797
2958,6.0,299.74086,1390.2827,0.0,0.0,0.0,0.0,0.0,-0.029481822748941983,-0.08630667983930611,-0.2073146992203678,-0.1289898484078069,-0.0067219978274595344,0.005856582031624645,-0.2895451124108777
2959,6.0,298.42071,1510.6336,0.0,0.0,0.0,0.0,0.0,-0.0294917895585258,-0.053588253517998855,-0.23302576852035278,-0.17258086069490486,0.025334873855857375,0.006906465581040083,-0.27513624002633275
2960,6.0,298.89344,1183.4551,0.0,0.0,0.0,0.0,0.0,-0.029501756368109644,-0.026318201667154276,-0.19288002948827682,-0.14054256127797088,0.008780853433627762,-0.018115418257352585,-0.2791660977940487
2961,6.0,299.76646,1125.1686,0.0,0.0,0.0,0.0,0.0,-0.029511723177693433,-0.03361032452308077,-0.16159877988355786,-0.14681405250691887,0.008198930728946462,-0.027812552033885173,-0.25555740086155176
2962,6.0,299.20673,1227.7263,0.0,0.0,0.0,0.0,0.0,-0.029521689987277278,-0.08961411359047441,-0.18058810000765782,-0.1029959303424069,-0.002422778869059658,-0.017648354544256985,-0.2969882348629567
2963,6.0,299.81559,1488.8025,0.0,0.0,0.0,0.0,0.0,-0.029531656796861067,-0.1184042118305859,-0.18559097171390282,-0.14856360105708585,0.007548411499120213,0.011188430207462092,-0.28268219723106075
2964,6.0,300.21199,1456.7992,0.0,0.0,0.0,0.0,0.0,-0.02954162360644491,-0.1228593002677689,-0.17441126660305184,-0.14556000352065385,-0.018099499085031483,0.0017135397694382085,-0.28858411561853475
2965,6.0,300.38864,1253.5169,0.0,0.0,0.0,0.0,0.0,-0.029551590416028728,-0.050633565563893854,-0.19168278330261782,-0.13872149753574586,-0.005698302436153665,-0.007808189876983342,-0.27411257371530473
2966,6.0,299.62559,1265.6207,0.0,0.0,0.0,0.0,0.0,-0.029561557225612545,-0.035361286557137266,-0.19647572985314482,-0.15288007688058886,0.0009351438477640121,-0.00873102412418499,-0.2957631445645497
2967,6.0,300.31469,1439.1168,0.0,0.0,0.0,0.0,0.0,-0.02957152403519636,-0.08785338179895372,-0.21187420308035582,-0.13772797541519285,0.015345925063774885,0.006857066396264764,-0.27985695197723076
2968,6.0,300.05181,1428.0802,0.0,0.0,0.0,0.0,0.0,-0.029581490844780206,-0.08508968338269793,-0.23038110469934475,-0.11862992342286188,-0.004506360412118146,0.004697590292891065,-0.2895153633879417
2969,6.0,299.04209,1144.1162,0.0,0.0,0.0,0.0,0.0,-0.029591457654364023,-0.028655333950311272,-0.19419657574070984,-0.12493083943471388,-0.002700936894461717,-0.015518237362530787,-0.28060516624857373
2970,6.0,299.26783,1010.7056,0.0,0.0,0.0,0.0,0.0,-0.029601424463947867,0.008987051956802971,-0.2055585544120498,-0.11065777296107189,0.00986870356561521,-0.0035196090313833663,-0.3356478805033667
2971,6.0,298.83628999999996,1215.2327,0.0,0.0,0.0,0.0,0.0,-0.02961139127353163,0.011422593318822189,-0.2214353627464688,-0.15938762498533385,0.017562683235051883,0.01889613151240298,-0.3056600750488007
2972,6.0,299.08894,1375.7545,0.0,0.0,0.0,0.0,0.0,-0.029621358083115473,-0.04827472439734436,-0.21374575707506382,-0.15617452785822586,0.004023341657647906,-0.013510992967431187,-0.31033670048784767
2973,6.0,299.61069,1391.7019,0.0,0.0,0.0,0.0,0.0,-0.02963132489269929,-0.08078151114376442,-0.2012767824044718,-0.14098431805656886,-0.018987825580202483,-0.0011971424288487588,-0.29051599852419674
2974,6.0,300.19606,1177.4552,0.0,0.0,0.0,0.0,0.0,-0.029641291702283135,-0.09363860417241072,-0.17071436281819585,-0.09356402085904991,-0.008030366340985452,0.021944500517753582,-0.2986639377458357
2975,6.0,300.53447,1197.8358,0.0,0.0,0.0,0.0,0.0,-0.02965125851186695,-0.07763031143876523,-0.19337020948915382,-0.09311164927240433,-0.003357594292068757,0.030154547917522177,-0.2969684866185077
2976,6.0,301.06178,1493.6464,0.0,0.0,0.0,0.0,0.0,-0.029661225321450768,-0.12154434481799288,-0.1940345874472228,-0.13845227698417586,-0.015726779431862285,-0.002918603483593737,-0.28799299564269576
2977,6.0,299.91164,1521.6178,0.0,0.0,0.0,0.0,0.0,-0.029671192131034557,-0.044386908081646755,-0.22881524825980679,-0.18933165803557983,-0.009389650165411321,-0.040432522247629256,-0.27341504221396373
2978,6.0,299.02927999999997,1178.911,0.0,0.0,0.0,0.0,0.0,-0.029681158940618402,-0.026093598570487677,-0.20128732020551182,-0.1309785949090809,0.025429202373916875,-0.019424414783290482,-0.27459332035775075
2979,6.0,300.53454,1258.1175,0.0,0.0,0.0,0.0,0.0,-0.02969112575020222,-0.050971836070028545,-0.19188303191988082,-0.13958142263061388,0.018634659284347682,0.0006651791450555703,-0.25035403735801975
2980,6.0,299.59807,1463.0224,0.0,0.0,0.0,0.0,0.0,-0.029701092559786063,-0.0963229742250874,-0.1989044599453418,-0.14949483869399185,0.012298937118310588,-0.01725107640529868,-0.26228402377041776
2981,6.0,300.56859,1669.0322,0.0,0.0,0.0,0.0,0.0,-0.029711059369369852,-0.12458998210107389,-0.2101488712075788,-0.1726052698898138,-0.029150298518160474,0.011959375731548488,-0.27040484841938073
2982,6.0,301.15828999999997,1632.2511,0.0,0.0,0.0,0.0,0.0,-0.029721026178953697,-0.09125566690523311,-0.21516087229722478,-0.18974703991407482,-0.016422433380767983,0.04383001265443546,-0.28754723652620273
2983,6.0,301.23615,1221.7333,0.0,0.0,0.0,0.0,0.0,-0.029730992988537513,-0.011255114223043289,-0.1921626484174768,-0.16795865691872885,-0.014908595174863787,0.03895170890223436,-0.3097657948515037
2984,6.0,301.05669,1186.8628,0.0,0.0,0.0,0.0,0.0,-0.029740959798121358,-0.050387951713153654,-0.18264054954271883,-0.12774817120526288,-0.03698204595334376,0.002266223318633828,-0.27309035635191975
2985,6.0,300.45715,1308.5602,0.0,0.0,0.0,0.0,0.0,-0.029750926607705147,-0.08054729736989934,-0.18621305661279783,-0.13100928625460986,-0.024111587142628378,-0.023903177809059976,-0.2906445394318827
2986,6.0,299.03837000000004,1432.1296,0.0,0.0,0.0,0.0,0.0,-0.029760893417288964,-0.0873280714038596,-0.2309980422877318,-0.11700552139254589,-0.0015245359991349883,0.009098941618970622,-0.3020344027459747
2987,6.0,299.67537000000004,1340.635,0.0,0.0,0.0,0.0,0.0,-0.02977086022687278,-0.06032145951276454,-0.2088309570675108,-0.1383671538432749,0.013945262841040286,0.03967041226441486,-0.3104738033588787
2988,6.0,299.94808,1246.4224,0.0,0.0,0.0,0.0,0.0,-0.029780827036456625,-0.027495377394832474,-0.2165585190876618,-0.13482738488392687,0.01020624230252769,-0.009468400165833342,-0.31372027694428073
2989,6.0,298.97434,1318.0035,0.0,0.0,0.0,0.0,0.0,-0.029790793846040442,-0.002982674327167037,-0.2123599349132938,-0.18529755474994483,-0.005572546446367514,-0.008303207843112812,-0.3184078150869047
2990,6.0,299.96188,1474.5493,0.0,0.0,0.0,0.0,0.0,-0.029800760655624287,-0.06495840911764585,-0.2230798676587688,-0.16018788991431385,0.006712630532935054,-0.004138880742700726,-0.26930328344066473
2991,6.0,300.41157000000004,1333.5252,0.0,0.0,0.0,0.0,0.0,-0.029810727465208048,-0.06788186059766803,-0.2019561969940248,-0.13552029596481185,0.02995223125680507,0.009628807079889272,-0.28654900279268475
2992,6.0,300.48062000000004,1089.4160000000002,0.0,0.0,0.0,0.0,0.0,-0.029820694274791892,-0.06186502850310294,-0.15889113243633385,-0.1103991003430429,-0.026022522115722972,-0.042217941877836465,-0.2535386317598147
2993,6.0,299.6728,1036.8023,0.0,0.0,0.0,0.0,0.0,-0.02983066108437571,-0.06655243390996385,-0.18055722627711082,-0.06805234296674334,0.006907761325267963,-0.013816711800853287,-0.2981560258682087
2994,6.0,299.28002999999995,1357.4356,0.0,0.0,0.0,0.0,0.0,-0.029840627893959554,-0.058806891766788355,-0.19603209856186182,-0.15778754095741784,-0.0025847145748664675,0.004363465296890496,-0.28430865615907974
2995,6.0,299.37439,1624.453,0.0,0.0,0.0,0.0,0.0,-0.02985059470354337,-0.08637695886624211,-0.21312081481088677,-0.19429536762545982,0.017806125690827783,0.04500115346451806,-0.30763103901081973
2996,6.0,299.84708,1530.849,0.0,0.0,0.0,0.0,0.0,-0.029860561513127187,-0.09288498522503431,-0.2230419315750248,-0.14941294782090986,-0.005812670508065915,-0.026206495909879772,-0.27220041878908974
2997,6.0,299.91319,1358.8815,0.0,0.0,0.0,0.0,0.0,-0.029870528322710976,-0.08868903955392672,-0.17923028407865182,-0.14514671906986587,0.007450282786560664,-0.003874467556230176,-0.2673919087170267
2998,6.0,300.25516,1373.7889,0.0,0.0,0.0,0.0,0.0,-0.02988049513229482,-0.09124509769344001,-0.19812826983873782,-0.12822415557223887,-0.0029550192868876973,0.02109292460370958,-0.29017446231298977
2999,6.0,300.54259,1511.8254,0.0,0.0,0.0,0.0,0.0,-0.029890461941878638,-0.08963267734555651,-0.2182136428610098,-0.15171086732519687,0.004307005177468316,0.0099742182634537,-0.26682697112377174
3000,6.0,301.04951,1502.51,0.0,0.0,0.0,0.0,0.0,-0.029900428751462482,-0.06062414264888705,-0.2048593409155428,-0.19124204990662083,-0.01922287224564978,-0.04008266826635136,-0.30483526920239873
3001,6.0,300.35576000000003,1128.4772,0.0,0.0,0.0,0.0,0.0,-0.02991039556104627,0.002136518186582928,-0.22705032870562278,-0.11811508091455088,-0.02291709801049148,-0.04736275675084016,-0.29121469526315275
3002,6.0,299.69372999999996,805.62197,0.0,0.0,0.0,0.0,0.0,-0.029920362370630116,-0.015096506458909184,-0.14439112833779488,-0.08540132364970442,0.027574528439644072,0.020282729823749582,-0.3044394937133387
3003,6.0,300.15441,1207.2485,0.0,0.0,0.0,0.0,0.0,-0.029930329180213933,-0.052959658487211354,-0.2104955040667888,-0.10351822023895291,0.03344356483487287,0.008518350628895752,-0.2904945074895757
3004,6.0,299.77367999999996,1640.0472,0.0,0.0,0.0,0.0,0.0,-0.029940295989797777,-0.14887130484745387,-0.2298501413819428,-0.11981196072451988,0.025854508023891273,-0.03200335647398537,-0.3046460852762277
3005,6.0,299.12008,1561.3228,0.0,0.0,0.0,0.0,0.0,-0.029950262799381566,-0.10233415643709491,-0.21142159439318678,-0.16084739413940186,-0.01099705360807469,-0.024758150137439178,-0.2927168790664067
3006,6.0,299.37276,1177.1333,0.0,0.0,0.0,0.0,0.0,-0.029960229608965383,-0.018755931135816282,-0.2154732370380528,-0.1235899549148789,0.024659405875443876,0.016145253749662483,-0.3355298571317187
3007,6.0,300.20227,1321.9491,0.0,0.0,0.0,0.0,0.0,-0.0299701964185492,-0.044428772536028456,-0.19773856371777682,-0.15967218614341783,-0.0022180140947759483,0.03433656747925537,-0.3059313119680697
3008,6.0,299.96775,1466.7256,0.0,0.0,0.0,0.0,0.0,-0.029980163228133044,-0.1039083924549599,-0.19670319436809383,-0.14523637143871387,-0.03316434857106637,-0.0006420966390325043,-0.27786185239782973
3009,6.0,299.15381,1444.9906,0.0,0.0,0.0,0.0,0.0,-0.02999013003771686,-0.07540067080571683,-0.2245180647182078,-0.13932231431504188,-0.03556261225925657,0.0043696773306035755,-0.26989056319862476
3010,6.0,300.16226,1267.0558,0.0,0.0,0.0,0.0,0.0,-0.030000096847300706,-0.11168193576464888,-0.15120123292239987,-0.12227016626212589,0.0007055101973984354,0.013285173970644588,-0.2305328389018198
3011,6.0,300.03134,1013.1363,0.0,0.0,0.0,0.0,0.0,-0.030010063656884467,-0.01941779218063688,-0.18676791236755783,-0.10178242149264291,0.013259251993336288,0.003360982803053177,-0.28331060481057974
3012,6.0,300.32084,1287.1609,0.0,0.0,0.0,0.0,0.0,-0.03002003046646831,-0.031132213687260265,-0.21069640116411578,-0.14943615124819984,0.002047110213659048,-0.05237950491720465,-0.2814196369439557
3013,6.0,301.09553999999997,1708.2302,0.0,0.0,0.0,0.0,0.0,-0.03002999727605213,-0.1021966887960279,-0.22975035651209477,-0.18731227085128183,-0.006941696388342093,-0.02210027150862698,-0.3005124099032657
3014,6.0,299.42765,1771.933,0.0,0.0,0.0,0.0,0.0,-0.030039964085635973,-0.12034753432987688,-0.2540744282801938,-0.16420142422291883,0.03486160632332267,0.030921829529246967,-0.2893254195241957
3015,6.0,300.00882,1326.6239,0.0,0.0,0.0,0.0,0.0,-0.03004993089521979,-0.08548064289403261,-0.18962238988677282,-0.12815751411316187,0.005587874691230295,0.029663187480278675,-0.3062591895679287
3016,6.0,300.89738,1239.4516,0.0,0.0,0.0,0.0,0.0,-0.030059897704803606,-0.06999872852108663,-0.2057294390414148,-0.10103417783704699,-0.018088910621486484,-0.013770494424041987,-0.27407584339917973
3017,6.0,300.57218,1480.7126,0.0,0.0,0.0,0.0,0.0,-0.030069864514387395,-0.05353886973462504,-0.24445739800356675,-0.15210338014893485,-0.04637468186282476,-0.030837915195715267,-0.3067120414351217
3018,6.0,299.16546,1413.7978,0.0,0.0,0.0,0.0,0.0,-0.03007983132397124,-0.023109088639439477,-0.2011422126586908,-0.2055079121720518,0.002121253979126468,0.006498888869390394,-0.27164236116401375
3019,6.0,298.24959,1109.2248,0.0,0.0,0.0,0.0,0.0,-0.030089798133555057,-0.02085171231140378,-0.2046294851303578,-0.11169545252098291,0.007699640393770343,0.00023366753073618976,-0.2935126755624457
3020,6.0,298.46581000000003,1090.0695,0.0,0.0,0.0,0.0,0.0,-0.0300997649431389,-0.016863165763514883,-0.16503890582807185,-0.14945183635974785,0.011984965362823988,0.007423485259840952,-0.26263099100216075
3021,6.0,300.00882,1310.7036,0.0,0.0,0.0,0.0,0.0,-0.03010973175272269,-0.09050992800388442,-0.20177525079116682,-0.1061359822698059,-0.014389553758138385,0.017436769684875182,-0.27552229844693377
3022,6.0,300.88138,1548.6044,0.0,0.0,0.0,0.0,0.0,-0.030119698562306535,-0.10828565315196191,-0.2246658472452928,-0.13778557868337787,0.01113626809231409,0.06882665248116174,-0.2746692229227417
3023,6.0,300.7548,1688.9736,0.0,0.0,0.0,0.0,0.0,-0.030129665371890352,-0.1183434370895879,-0.2125128343533838,-0.18254951915373482,-0.008206177797636691,0.006894356229094984,-0.3005081339878437
3024,6.0,300.90079,1467.6573,0.0,0.0,0.0,0.0,0.0,-0.030139632181474196,-0.04859496817094996,-0.23744885851937778,-0.16008735523939185,-0.00912691856880673,-0.03410387662029057,-0.3020916311116227
3025,6.0,300.48537999999996,1150.751,0.0,0.0,0.0,0.0,0.0,-0.030149598991057985,-0.06158762899672574,-0.17093774393524183,-0.11727418465656088,-0.002212258732882938,-0.03151878683891207,-0.3208846441613487
3026,6.0,300.97382999999996,1599.9643,0.0,0.0,0.0,0.0,0.0,-0.030159565800641802,-0.08260039031877382,-0.2175820942061808,-0.18616672068572482,0.02319482175690068,-0.0007430162881974984,-0.2738752502768827
3027,6.0,300.48995,1727.3669,0.0,0.0,0.0,0.0,0.0,-0.03016953261022562,-0.14565008145454386,-0.23515320869531478,-0.14427312523114888,0.017549890952539383,0.003622252279763466,-0.29017820120585874
3028,6.0,299.13941,1255.3399,0.0,0.0,0.0,0.0,0.0,-0.030179499419809463,-0.08386650508722962,-0.16567414271326483,-0.1320513430549529,-0.007811948730879313,-0.029113326035261573,-0.25091768812364773
3029,6.0,298.85818,906.3637699999999,0.0,0.0,0.0,0.0,0.0,-0.03018946622939328,0.012908319913951988,-0.20017672716840482,-0.08824355097521042,0.0024386301536240577,-0.02230586603341758,-0.3034090386266407
3030,6.0,299.48782,1324.8253,0.0,0.0,0.0,0.0,0.0,-0.03019943303897707,-0.03464517306221237,-0.21185199263816382,-0.15621663853238185,-0.003715799075370817,0.017778781110379085,-0.25887314022378977
3031,6.0,300.2009,1731.289,0.0,0.0,0.0,0.0,0.0,-0.030209399848560886,-0.09664340038371101,-0.23522094446449976,-0.1944042818787088,0.008866443378849832,0.001297443042997659,-0.2852175617637817
3032,6.0,300.63437999999996,1612.9301,0.0,0.0,0.0,0.0,0.0,-0.03021936665814473,-0.06432237581787423,-0.26812962571733373,-0.15783847703994486,-0.01977098279449408,-0.015493491768588585,-0.2993520257562447
3033,6.0,301.75408999999996,1241.4638,0.0,0.0,0.0,0.0,0.0,-0.030229333467728547,-0.07774139303397813,-0.17292665255653183,-0.12670595228490386,-0.0007812404896074333,0.018991319266547284,-0.28445972161648875
3034,6.0,301.25149,1017.2766,0.0,0.0,0.0,0.0,0.0,-0.030239300277312392,-0.05144401770937925,-0.18179937970720184,-0.07598329265296713,0.012069666991683388,0.02810644725189037,-0.3190353614038387
3035,6.0,301.28843,1408.6518,0.0,0.0,0.0,0.0,0.0,-0.03024926708689621,-0.047649790239168155,-0.23554179010866477,-0.14500340497572187,-0.004759708400871645,-0.013892192853802686,-0.3037527026630577
3036,6.0,301.30033,1744.3829999999998,0.0,0.0,0.0,0.0,0.0,-0.030259233896480026,-0.11439244057715489,-0.21549319806502282,-0.20036324624681282,-0.015071708175961786,-0.024105696106546975,-0.3102001042418667
3037,6.0,300.19889,1488.8443,0.0,0.0,0.0,0.0,0.0,-0.030269200706063815,-0.04770408423252655,-0.24761854579804776,-0.15724884654175286,0.014403075580722886,-0.03051410579500777,-0.27072034410301776
3038,6.0,299.81372000000005,861.7185099999999,0.0,0.0,0.0,0.0,0.0,-0.03027916751564766,-0.0024881815285643974,-0.15607219973062686,-0.1033805296828639,0.019776860658324184,0.01987256618326958,-0.3060730352595567
3039,6.0,300.16821,1100.1148,0.0,0.0,0.0,0.0,0.0,-0.030289134325231476,-0.07251761659393152,-0.16219808692020485,-0.0996917167000564,-0.005672841994265915,-0.011731855487843989,-0.24769479286807275
3040,6.0,300.15767,1664.8966,0.0,0.0,0.0,0.0,0.0,-0.030299101134815293,-0.13373196020081687,-0.23179706091908878,-0.14055796267949086,-0.017403584730850085,-0.006867118343881813,-0.2987756688343627
3041,6.0,299.81465,1684.6376,0.0,0.0,0.0,0.0,0.0,-0.03030906794439911,-0.09623428647033459,-0.2206122490277338,-0.19524123659380982,-0.02070011489769228,-0.004399403454087316,-0.2765764737184727
3042,6.0,299.71329,1068.1875,0.0,0.0,0.0,0.0,0.0,-0.030319034753982954,-0.01920162844405318,-0.21484759563130681,-0.09065309517676391,0.01118291204741749,0.04699470378451616,-0.3299758989610857
3043,6.0,300.17928,1061.935,0.0,0.0,0.0,0.0,0.0,-0.03032900156356677,-0.0035095773487683166,-0.16577354254807483,-0.15351859669610585,-0.0029426863106455274,-0.0026489562524066278,-0.29090592756017974
3044,6.0,300.57262000000003,1552.1529999999998,0.0,0.0,0.0,0.0,0.0,-0.03033896837315056,-0.0935738351995185,-0.2046961873844408,-0.17354571797012883,-0.010977796789924188,0.003273777129221647,-0.29761892225520076
3045,6.0,299.6056,1520.7257,0.0,0.0,0.0,0.0,0.0,-0.030348935182734404,-0.11837008556721788,-0.2079132463194398,-0.13597929826011187,0.0032645410505851165,-0.002945975117820107,-0.2896153610403107
3046,6.0,299.61868,1236.1868,0.0,0.0,0.0,0.0,0.0,-0.03035890199231822,-0.07319679002996073,-0.16477919969494084,-0.13779392786420186,0.016467416618957485,0.03423424543115697,-0.2953607120223327
3047,6.0,299.23827,981.3504800000001,0.0,0.0,0.0,0.0,0.0,-0.030368868801902038,-0.02954210206682847,-0.16786591413707583,-0.10089802640785991,-0.006246941901550164,-0.003948358718447666,-0.30159953606805673
3048,6.0,298.72713,1116.0089,0.0,0.0,0.0,0.0,0.0,-0.030378835611485855,-0.04700446644922966,-0.17699937080347783,-0.11523499856530889,-0.02187202071160038,-0.03322749127754807,-0.29892122221122774
3049,6.0,298.91834,1708.0432,0.0,0.0,0.0,0.0,0.0,-0.0303888024210697,-0.08932400184834262,-0.2265638268026088,-0.20331466140309482,-0.01079132432102079,-0.014079981534585985,-0.26441508124823676
3050,6.0,299.11021,1520.0599,0.0,0.0,0.0,0.0,0.0,-0.03039876923065349,-0.07093352671884402,-0.24227436079561776,-0.14885238746808685,0.012023909630417488,0.03235550749323997,-0.2987630234731147
3051,6.0,299.80473,1086.4531,0.0,0.0,0.0,0.0,0.0,-0.030408736040237305,-0.04892363914563725,-0.1739876571337448,-0.10734332042646089,0.006356407362853564,0.008646097959103432,-0.2776430511712357
3052,6.0,301.16812000000004,1221.3355,0.0,0.0,0.0,0.0,0.0,-0.030418702849821122,-0.028622202698541474,-0.2156465332026558,-0.12698674415261588,-0.0017707518217595984,0.006300079675219453,-0.31144974559019667
3053,6.0,300.99383,1632.4822,0.0,0.0,0.0,0.0,0.0,-0.030428669659404967,-0.11408043047386188,-0.2449071391929528,-0.13724625605265087,-0.0012499018549307088,-0.006479265457353714,-0.2908440078465687
3054,6.0,299.84334,1803.6758,0.0,0.0,0.0,0.0,0.0,-0.030438636468988783,-0.08788266168709341,-0.24288062886045178,-0.2175090996689768,0.022844781337604377,0.04570453952493686,-0.2993268768887627
3055,6.0,300.64535,1480.1169,0.0,0.0,0.0,0.0,0.0,-0.030448603278572628,-0.06808034615975704,-0.2321045113969318,-0.14973371240506686,0.0008864049068863533,-0.004817430117993336,-0.3101595033103597
3056,6.0,299.9421,1052.0288,0.0,0.0,0.0,0.0,0.0,-0.030458570088156445,-0.02671654067896727,-0.15868451047594184,-0.13438944805820588,0.005506680022292005,-0.01041183885381849,-0.28642505190795176
3057,6.0,299.64949,1053.3844,0.0,0.0,0.0,0.0,0.0,-0.030468536897740234,-0.06782298671385764,-0.15027530471601785,-0.1021042702544069,-0.0005195627440343505,-0.01101836631067809,-0.2978709074225697
3058,6.0,298.77827,1491.0263,0.0,0.0,0.0,0.0,0.0,-0.03047850370732405,-0.049400323668432354,-0.23012116551869077,-0.17371328927166682,0.009366060183208172,0.017424944042958083,-0.2991245207112917
3059,6.0,299.13759,1677.1737,0.0,0.0,0.0,0.0,0.0,-0.030488470516907895,-0.11963060922162189,-0.21380284358569782,-0.17638547296539084,0.005347290107361445,-0.04609541594976336,-0.3069098379871427
3060,6.0,298.78637000000003,1410.3443,0.0,0.0,0.0,0.0,0.0,-0.030498437326491712,-0.05319302923699325,-0.2210871694821048,-0.15442925522348083,-0.016612720736297885,-0.020793443337903082,-0.28313445128069475
3061,6.0,298.90666,1215.6144,0.0,0.0,0.0,0.0,0.0,-0.03050840413607553,-0.051751643479489545,-0.2022178384348468,-0.11554694787359589,0.02590726694334818,-0.017259082094338782,-0.30598309918068073
3062,6.0,298.90151000000003,1501.9948,0.0,0.0,0.0,0.0,0.0,-0.030518370945659345,-0.09062170874166632,-0.2077739244306898,-0.15817328527048785,0.014284859691555884,0.016425027301023982,-0.2550638568703427
3063,6.0,299.45842000000005,1609.4225,0.0,0.0,0.0,0.0,0.0,-0.03052833775524319,-0.094783904065193,-0.24433342685383178,-0.15010693294690086,0.00918471283463558,-0.01117791267142409,-0.3089042282914737
3064,6.0,300.05577999999997,1298.9260000000002,0.0,0.0,0.0,0.0,0.0,-0.03053830456482698,-0.04503877645398116,-0.2007254831575628,-0.14907682236523687,-0.03029863917449287,-0.02416244013864718,-0.2880431211251427
3065,6.0,300.79066,958.0816599999999,0.0,0.0,0.0,0.0,0.0,-0.030548271374410824,-0.04742160631664816,-0.15666557925418884,-0.08714571374361231,-0.0064928933672236825,0.017730726711136485,-0.3030275398314897
3066,6.0,300.35339,1167.2984,0.0,0.0,0.0,0.0,0.0,-0.030558238183994613,-0.029925682077684868,-0.2029998851270288,-0.12190397767598589,-0.016626339830891984,0.02629612193422518,-0.3014703872103107
3067,6.0,300.29442,1504.1512,0.0,0.0,0.0,0.0,0.0,-0.030568204993578457,-0.07489162510122793,-0.2089184208161428,-0.17341433996216285,0.013696138078703589,-0.0027421025102494475,-0.3079777630625387
3068,6.0,300.59692,1551.6668,0.0,0.0,0.0,0.0,0.0,-0.030578171803162274,-0.1026658641223319,-0.2003640061843878,-0.16863811203828585,-0.009011582843048982,-0.01901184467382298,-0.3079605378108387
3069,6.0,300.67919,1339.7608,0.0,0.0,0.0,0.0,0.0,-0.03058813861274612,-0.05248108222647955,-0.20706055583028582,-0.14771220752805986,0.03593815517031976,-0.03687994175401686,-0.2996088035965867
3070,6.0,299.38835,1155.6143,0.0,0.0,0.0,0.0,0.0,-0.030598105422329908,-0.00961863820321068,-0.18622577290155282,-0.15543348739759086,0.025913431556956575,-0.002679896148185157,-0.31082534034857273
3071,6.0,300.27429,1549.8277,0.0,0.0,0.0,0.0,0.0,-0.030608072231913724,-0.07796683104872712,-0.24196662660774676,-0.15117546597235684,-0.006631967921624273,-0.029316963974109073,-0.28572103560597073
3072,6.0,299.47316,1744.9373,0.0,0.0,0.0,0.0,0.0,-0.03061803904149754,-0.09300261444239341,-0.23462315730300276,-0.20279161156897382,-0.012931005570440886,-0.007077966570440914,-0.3079534450601387
3073,6.0,299.04508,1254.1245,0.0,0.0,0.0,0.0,0.0,-0.030628005851081386,-0.06770252850221935,-0.19459869417539583,-0.11892131388661989,0.0036791127343001563,0.03333776024618077,-0.25814295167172574
3074,6.0,299.789,831.00702,0.0,0.0,0.0,0.0,0.0,-0.030637972660665203,-0.02199162475340438,-0.16617429309512585,-0.06443946294642984,0.005683012086844625,0.05778856224403704,-0.2909690226439067
3075,6.0,300.54789,1298.7587,0.0,0.0,0.0,0.0,0.0,-0.030647939470249047,-0.03344735236374667,-0.1972652441985638,-0.16407762532570083,-0.02142393415962768,-0.010963557586268888,-0.2401241326259068
3076,6.0,299.47699,1659.5776,0.0,0.0,0.0,0.0,0.0,-0.03065790627983281,-0.10265337074859891,-0.23372767726212576,-0.16808911286910383,-0.03210460042397737,-0.014645818893929786,-0.3016419709822447
3077,6.0,300.02985,1661.8734,0.0,0.0,0.0,0.0,0.0,-0.030667873089416653,-0.1085919485246909,-0.2225672441681768,-0.17400883406083484,-0.025083188610517976,-0.0061945804801074944,-0.2770685383645357
3078,6.0,300.79113,1272.201,0.0,0.0,0.0,0.0,0.0,-0.03067783989900047,-0.06862140651440553,-0.17300678037443984,-0.14508915633168487,-0.0067592201778330935,0.027537386743978473,-0.3358729537480797
3079,6.0,300.51628999999997,1183.3869,0.0,0.0,0.0,0.0,0.0,-0.030687806708584314,-0.054423390462420444,-0.18613548218514184,-0.1191612008477949,-0.0029027066027748375,-0.015855807712846382,-0.2993275658988307
3080,6.0,299.48149,1509.5816,0.0,0.0,0.0,0.0,0.0,-0.03069777351816813,-0.09689666123295591,-0.19514231298654683,-0.16683612779544385,-0.005504442664746195,-0.03866028702772326,-0.3033772935010077
3081,6.0,299.55154,1804.8419,0.0,0.0,0.0,0.0,0.0,-0.030707740327751948,-0.1020124090003409,-0.24328002165236876,-0.2033344400450468,0.011250677200855388,-0.01947369521515408,-0.26780651039294473
3082,6.0,298.4173,1299.4284,0.0,0.0,0.0,0.0,0.0,-0.030717707137335765,-0.06311269806673835,-0.20054317919957082,-0.13133790352704186,0.021725159228856275,-0.00821173932478557,-0.28276252769898874
3083,6.0,299.42092,889.1936400000001,0.0,0.0,0.0,0.0,0.0,-0.03072767394691961,-0.015715234460222882,-0.15888309736304085,-0.09569433765104582,0.006243276064013374,0.0017305866891206081,-0.2805533182409567
3084,6.0,299.51786,1241.8589,0.0,0.0,0.0,0.0,0.0,-0.030737640756503398,-0.02485569977756658,-0.2336279329222818,-0.11901045963041788,-0.02869366621484437,0.011363957548785289,-0.3134861655086757
3085,6.0,299.69526,1736.4415,0.0,0.0,0.0,0.0,0.0,-0.030747607566087243,-0.1380744664193889,-0.23938242342020574,-0.15037795708364887,-0.025043711373371875,0.034815520669024366,-0.2992127950600037
3086,6.0,299.59594,1429.9075,0.0,0.0,0.0,0.0,0.0,-0.030757574375671032,-0.07367459318086624,-0.21589453629713182,-0.14508704877147685,-0.03713442154313206,0.03321406976672347,-0.3263562453638537
3087,6.0,300.6405,935.3453400000001,0.0,0.0,0.0,0.0,0.0,-0.030767541185254876,-0.005007885774364845,-0.1915980046667508,-0.08771573177286872,-0.04142036611462186,-0.0008914225213815532,-0.3120090495128957
3088,6.0,300.16147,1047.504,0.0,0.0,0.0,0.0,0.0,-0.030777507994838693,-0.03642217359733867,-0.16316625752325584,-0.11882662566477488,-0.017595839818074183,-0.04385452114785426,-0.30831745515856374
3089,6.0,300.0978,1554.8217,0.0,0.0,0.0,0.0,0.0,-0.030787474804422538,-0.0947992294729555,-0.2165781964046038,-0.16124953283908983,0.01174578261046849,-0.015757172881861885,-0.3059293665278777
3090,6.0,300.43156,1715.9831,0.0,0.0,0.0,0.0,0.0,-0.030797441614006354,-0.0868075242974856,-0.24680348741760777,-0.18800498941464783,0.03809324896701096,0.008183534191026942,-0.3238994786413897
3091,6.0,300.51245,1280.339,0.0,0.0,0.0,0.0,0.0,-0.030807408423590144,-0.08756590653358211,-0.16256973692438384,-0.13905542423870187,0.03000624457988577,-0.006269800013206084,-0.2937172507576357
3092,6.0,299.75012999999996,1106.1844,0.0,0.0,0.0,0.0,0.0,-0.03081737523317396,-0.00838918343132294,-0.2170955821706658,-0.11076768019941889,0.013155984582894588,-0.008735788426155192,-0.28977654886621873
3093,6.0,298.98874,1322.8612,0.0,0.0,0.0,0.0,0.0,-0.030827342042757805,-0.061078286409957536,-0.1964944648474938,-0.14454401764538385,0.001175768931239359,-0.0011932193271115788,-0.2864112818390927
3094,6.0,299.10823,1860.8233,0.0,0.0,0.0,0.0,0.0,-0.03083730885234162,-0.12219773914497789,-0.2619822880231388,-0.18146381153908384,-0.012508695087762088,0.006581354761904144,-0.24894327911128877
3095,6.0,299.15049,1581.5482,0.0,0.0,0.0,0.0,0.0,-0.030847275661925466,-0.08970353899130001,-0.22817664738428176,-0.16287097617911384,-0.015820073421569686,-0.014115779660618987,-0.2942882881164927
3096,6.0,298.64815,1011.5089999999999,0.0,0.0,0.0,0.0,0.0,-0.030857242471509227,-0.022858206901429378,-0.15047910984113186,-0.13413618619571085,-0.028423767798957476,-0.04299759020703176,-0.26719965464305273
3097,6.0,299.14415,1124.0187,0.0,0.0,0.0,0.0,0.0,-0.030867209281093072,-0.053828419122951346,-0.17937653659808583,-0.10846864612002188,0.009399531684361553,0.0075081659144232826,-0.3325388036315247
3098,6.0,299.29868999999997,1639.3409,0.0,0.0,0.0,0.0,0.0,-0.03087717609067689,-0.08766502164511401,-0.21880381038175478,-0.19184987837660883,-0.0020855175600245583,0.03058107250736687,-0.2932498486190067
3099,6.0,299.76096,1634.4720000000002,0.0,0.0,0.0,0.0,0.0,-0.030887142900260733,-0.12106321314050889,-0.20900698900738382,-0.16676848321876783,0.0014693183269854286,0.01152766431444189,-0.3207954984175507
3100,6.0,300.35503,1282.4994,0.0,0.0,0.0,0.0,0.0,-0.03089710970984455,-0.06501794060077114,-0.2083548105805188,-0.11647503430269089,-0.014688745234416286,-0.021584257683200377,-0.2906900850238777
3101,6.0,300.25791,1034.3034,0.0,0.0,0.0,0.0,0.0,-0.030907076519428367,-0.03618227346391236,-0.16935285865882582,-0.1088672688418629,0.017762450558517384,0.005380728171261525,-0.3023120535383767
3102,6.0,300.01529,1337.7629,0.0,0.0,0.0,0.0,0.0,-0.030917043329012184,-0.06926444542536854,-0.22457398599122677,-0.11280809232329188,0.018020795896764086,0.001114150152908059,-0.3021278953327017
3103,6.0,300.73911,1841.1792,0.0,0.0,0.0,0.0,0.0,-0.03092701013859603,-0.11798419939913388,-0.26127043929788474,-0.18041785372585584,0.0030626853173385074,0.015977656103621885,-0.2947485569744177
3104,6.0,300.09327,1647.7445,0.0,0.0,0.0,0.0,0.0,-0.030936976948179817,-0.06768959841769323,-0.24048331965385578,-0.19270027892053682,0.006858067690013583,-0.01908644926543588,-0.3157868613182367
3105,6.0,299.86298,1171.6835,0.0,0.0,0.0,0.0,0.0,-0.030946943757763662,-0.028263781687668077,-0.21753692351672282,-0.1103618330043649,-0.007047346963018994,0.024573019211668178,-0.2881041491786657
3106,6.0,299.69392999999997,992.86632,0.0,0.0,0.0,0.0,0.0,-0.03095691056734745,0.005665143016031084,-0.1985505823479168,-0.1089211332171789,0.02209262653662248,0.03250493047223686,-0.32196911561087765
3107,6.0,299.69597999999996,1269.28,0.0,0.0,0.0,0.0,0.0,-0.030966877376931295,-0.04347856584400036,-0.20991103101160583,-0.1324398231432929,-0.03147828419266477,-0.013816702681602388,-0.28633209634377776
3108,6.0,299.91797,1504.5513,0.0,0.0,0.0,0.0,0.0,-0.030976844186515112,-0.09407148082713232,-0.2149185738008118,-0.14835598611159587,0.0016464561280175685,-0.024966672955018775,-0.3040776215726247
3109,6.0,298.32558,1247.5927,0.0,0.0,0.0,0.0,0.0,-0.030986810996098957,-0.055067916824530244,-0.15922400535918585,-0.16494508900131286,-0.017430435858500085,0.003917352657437606,-0.2940522312406957
3110,6.0,298.13428,1053.5235,0.0,0.0,0.0,0.0,0.0,-0.030996777805682774,-0.023542473945711278,-0.19822170163045882,-0.09848065180953361,0.025075463591755578,-0.01101242765184199,-0.3231621264111187
3111,6.0,299.6595,1470.6509,0.0,0.0,0.0,0.0,0.0,-0.031006744615266563,-0.10837018860780491,-0.1960748881135848,-0.14259608485813785,-0.015243940427959785,-0.01224239978923079,-0.2736202557567167
3112,6.0,299.06552,2017.4976,0.0,0.0,0.0,0.0,0.0,-0.03101671142485038,-0.16803991957674883,-0.24046053165910677,-0.20476845238157282,0.01071922549690519,-0.015472128403480183,-0.27968436508769773
3113,6.0,299.38126,1917.1028,0.0,0.0,0.0,0.0,0.0,-0.031026678234434224,-0.12333723007493688,-0.2752518417302417,-0.18416230933790484,0.02964100844883977,0.02221227009518038,-0.2628763393813747
3114,6.0,300.26066000000003,1315.5993,0.0,0.0,0.0,0.0,0.0,-0.03103664504401804,-0.06932519990136453,-0.18133249432612383,-0.14925162827248886,0.027135736430838674,0.02327673188173458,-0.2677034223277707
3115,6.0,299.69496000000004,1129.6248,0.0,0.0,0.0,0.0,0.0,-0.031046611853601885,0.024056092447901477,-0.23292791895819576,-0.13450590089219888,0.007328519204818533,-0.013517095772783486,-0.2893865590352297
3116,6.0,300.40222,1286.7517,0.0,0.0,0.0,0.0,0.0,-0.031056578663185647,-0.06619861204129435,-0.18861332450968582,-0.13632845411207087,-0.024199865544340775,-0.02186352562276198,-0.29406749078720174
3117,6.0,300.56449,1593.9688,0.0,0.0,0.0,0.0,0.0,-0.03106654547276949,-0.1078974669061509,-0.2174411511172708,-0.15918809577564186,-0.002085452002743088,0.024066036484382877,-0.2946911766212547
3118,6.0,299.23822,1235.7249,0.0,0.0,0.0,0.0,0.0,-0.031076512282353308,-0.05991279345593235,-0.2023964237649718,-0.11332028011634089,-0.027449060719511375,0.003915878378542106,-0.34258221968273267
3119,6.0,299.23231,858.37184,0.0,0.0,0.0,0.0,0.0,-0.031086479091937153,0.0002288121781120038,-0.15909336702379284,-0.10205904890244391,-0.029423882124661075,0.0034718079446657665,-0.3329505884721647
3120,6.0,299.07547,1144.624,0.0,0.0,0.0,0.0,0.0,-0.03109644590152097,-0.038289779969657066,-0.20375153431621082,-0.10589579133360091,-0.025987834511799576,-0.018382690328980284,-0.3241089984970677
3121,6.0,298.8282,1731.1684,0.0,0.0,0.0,0.0,0.0,-0.031106412711104786,-0.07385667219733602,-0.24771447018501475,-0.2046608249559508,0.013275705148460088,0.02227419284854168,-0.3094055337784487
3122,6.0,298.92352,1790.7496,0.0,0.0,0.0,0.0,0.0,-0.031116379520688603,-0.12335142570883789,-0.2384518139983618,-0.18253991354278684,0.01949159529142068,-0.002043935397120718,-0.28973374918199474
3123,6.0,299.3498,1213.6343,0.0,0.0,0.0,0.0,0.0,-0.031126346330272447,-0.054286394995900045,-0.20258080488566882,-0.11204730361820789,0.006129997641258664,-0.024228373335904274,-0.2956823378690747
3124,6.0,300.15594,1150.7517,0.0,0.0,0.0,0.0,0.0,-0.031136313139856236,-0.039519335661254755,-0.18612781188188482,-0.12415263296041087,-0.005283889427404285,-0.02994486492857807,-0.28067646865811074
3125,6.0,300.03737,1528.1423,0.0,0.0,0.0,0.0,0.0,-0.03114627994944008,-0.0942533318623296,-0.2141602979559758,-0.15610346862871285,0.003819107522441566,0.030383773461144972,-0.27571358993331274
3126,6.0,300.40398999999996,1757.4676,0.0,0.0,0.0,0.0,0.0,-0.03115624675902387,-0.09460033759757641,-0.25498818735287476,-0.18463773641732584,0.005323143445553355,0.004292494118811186,-0.2803356417219737
3127,6.0,299.97085,1489.5163,0.0,0.0,0.0,0.0,0.0,-0.031166213568607715,-0.053983297440486654,-0.2111669139805518,-0.18762555764970082,-0.02085215611494758,-0.004503821916642616,-0.3075930826620737
3128,6.0,300.20071,1197.7283,0.0,0.0,0.0,0.0,0.0,-0.03117618037819153,-0.04255492960934455,-0.1938549584694948,-0.1276696139250099,-0.02059291202386218,-0.011633889401925489,-0.2867139396439627
3129,6.0,300.07071,1232.7562,0.0,0.0,0.0,0.0,0.0,-0.031186147187775376,-0.06522517152447323,-0.17759062250182983,-0.1319113017586319,0.00028387388067367073,0.03759408853049767,-0.3138947890090037
3130,6.0,300.20918,1707.3059,0.0,0.0,0.0,0.0,0.0,-0.031196113997359193,-0.12652056804660788,-0.1945770004907548,-0.1978807733693118,-0.015782484882609985,0.03162490452188507,-0.2838734247111257
3131,6.0,299.73115,1719.9776,0.0,0.0,0.0,0.0,0.0,-0.031206080806942982,-0.14134767967492987,-0.2297628701508298,-0.15171968260106686,-0.024758401423463975,-0.0037512726573967867,-0.3082394349008637
3132,6.0,300.34583,1280.9768,0.0,0.0,0.0,0.0,0.0,-0.0312160476165268,-0.05147784506396775,-0.17587617293512683,-0.16203093105120783,-0.022022665670217878,-0.014272367331072988,-0.2747565954788647
3133,6.0,298.87191,1150.2358,0.0,0.0,0.0,0.0,0.0,-0.031226014426110643,-0.033463119548552765,-0.21105792879979582,-0.10512192156972591,0.01011284496131009,0.016127275653138182,-0.3118119217059407
3134,6.0,298.83825,1572.7862,0.0,0.0,0.0,0.0,0.0,-0.03123598123569446,-0.10922875594753889,-0.21471686610340476,-0.15414209001263984,0.026144977443308376,-0.0038158540776954764,-0.2702040121170597
3135,6.0,299.46767,1726.2888,0.0,0.0,0.0,0.0,0.0,-0.031245948045278277,-0.09121146589612081,-0.24328285875264877,-0.19025436410664381,-0.0022324625345768977,-0.024522742754956275,-0.3108589498543897
3136,6.0,300.52353,1178.9482,0.0,0.0,0.0,0.0,0.0,-0.031255914854862066,-0.023232764933395378,-0.2214021180106878,-0.1137359457048639,0.017925894892398084,-0.0030665977799496373,-0.30398257871324474
3137,6.0,300.35022999999995,809.92002,0.0,0.0,0.0,0.0,0.0,-0.03126588166444591,0.0015312886017764186,-0.17224101661136484,-0.07548573416486193,0.003066204841560857,0.04040202949911986,-0.3397619190893907
3138,6.0,300.61382000000003,1171.5585,0.0,0.0,0.0,0.0,0.0,-0.03127584847402973,-0.025163976054241075,-0.1982231505781018,-0.13273740456516187,0.028706402768601372,0.017388861193646982,-0.3146180266653817
3139,6.0,300.56453,1473.7243,0.0,0.0,0.0,0.0,0.0,-0.03128581528361357,-0.06732437444564843,-0.23848664953679977,-0.14216434912302886,-0.029728309064205673,-0.05304294156593074,-0.3412963546433277
3140,6.0,300.90533999999997,1643.4785,0.0,0.0,0.0,0.0,0.0,-0.03129578209319739,-0.11134390539878788,-0.20527390206145682,-0.18295861888160983,-0.009287276948182871,-0.03815245924985456,-0.2742267568690737
3141,6.0,299.94004,1363.0067,0.0,0.0,0.0,0.0,0.0,-0.031305748902781205,-0.06692173317391084,-0.20043965543685383,-0.14695862303118687,-0.04665705642719295,0.018352041539955483,-0.30040756891541875
3142,6.0,299.53267,1255.3407,0.0,0.0,0.0,0.0,0.0,-0.03131571571236502,-0.08213864819520342,-0.17173996443691483,-0.12771360924435188,-0.0046038661785162156,0.02156563009336198,-0.27399622220632175
3143,6.0,299.77639,1795.9818,0.0,0.0,0.0,0.0,0.0,-0.03132568252194887,-0.12208843985669089,-0.2274168820617988,-0.1964283097484648,-0.01855383536362098,0.01153705916936909,-0.2843943061900327
3144,6.0,300.69506,2019.1587,0.0,0.0,0.0,0.0,0.0,-0.031335649331532656,-0.10629404928540591,-0.27674754073285573,-0.2307322465214998,0.028421311680715072,0.0042203634786424455,-0.2866388983415567
3145,6.0,299.42626,1375.2336,0.0,0.0,0.0,0.0,0.0,-0.03134561614111647,-0.05604772156522945,-0.2160501005849848,-0.14593885773304385,0.03848064082474356,0.014601290605035186,-0.2960243807053317
3146,6.0,300.39622,940.2475199999999,0.0,0.0,0.0,0.0,0.0,-0.03135558295070029,-0.01952007977823188,-0.17930514299603983,-0.08698654735165383,0.029039278731203672,-0.01900648762054428,-0.3080084138780637
3147,6.0,300.36123,1096.6725,0.0,0.0,0.0,0.0,0.0,-0.031365549760284134,-0.02349165641344598,-0.20824247154193182,-0.1016269281322969,0.015609875701574785,-0.051120305580681355,-0.3087319555094717
3148,6.0,300.74687,1326.5194,0.0,0.0,0.0,0.0,0.0,-0.03137551656986795,-0.07432598431240353,-0.1869262833581878,-0.14197651281949086,0.005850662827190464,-0.014270537401392386,-0.3111969903527517
3149,6.0,299.88489,1381.9794,0.0,0.0,0.0,0.0,0.0,-0.03138548337945177,-0.03570477732778717,-0.23383422051014077,-0.15054824389545485,0.007356612881066163,0.02148615784826868,-0.3236607366528277
3150,6.0,299.17947000000004,1326.4105,0.0,0.0,0.0,0.0,0.0,-0.03139545018903561,-0.05443347838041604,-0.2037153410226388,-0.14504686327251085,-0.04197803262515926,-0.017450052380436086,-0.3243107365919777
3151,6.0,298.92819,1343.8496,0.0,0.0,0.0,0.0,0.0,-0.0314054169986194,-0.09949676028806571,-0.1859485071441888,-0.1230514732817349,-0.04135624258204336,-0.05389465325548815,-0.3187303224612337
3152,6.0,299.30547,1574.8210000000001,0.0,0.0,0.0,0.0,0.0,-0.03141538380820322,-0.10776368749544789,-0.21750157122073382,-0.15344100200344787,-0.007506425961351562,-0.019510296848516382,-0.3240652666227517
3153,6.0,300.17182,1789.293,0.0,0.0,0.0,0.0,0.0,-0.031425350617787035,-0.1097681900357769,-0.23915074378484077,-0.1949814696656728,0.04126172154646486,0.038976386608419865,-0.30543441411902966
3154,6.0,300.86433,1498.4161,0.0,0.0,0.0,0.0,0.0,-0.03143531742737088,-0.07913728386199183,-0.21770267096808082,-0.15864113323916085,2.8584241283544972e-05,0.02178496023650818,-0.29123602417775774
3155,6.0,300.5157,1104.8005,0.0,0.0,0.0,0.0,0.0,-0.031445284236954696,-0.0054937844895943146,-0.2098881619568488,-0.12044981179497088,0.021679438344593977,-0.004757784846881805,-0.30409181720652567
3156,6.0,300.32592999999997,1140.8307,0.0,0.0,0.0,0.0,0.0,-0.031455251046538485,-0.016252336046730684,-0.19402144559342582,-0.13651028184251587,0.014971313329553586,-0.016328095743457584,-0.3062144545760137
3157,6.0,300.25121,1464.3757,0.0,0.0,0.0,0.0,0.0,-0.03146521785612233,-0.08578515798633592,-0.23100936029134878,-0.12833914932608786,0.02961882029814997,0.003397961061477647,-0.30330576817644866
3158,6.0,299.57158,1491.1101,0.0,0.0,0.0,0.0,0.0,-0.031475184665706146,-0.07289892185831344,-0.23820447964895178,-0.14215683080728686,-0.03717398186678637,-0.05764680146229635,-0.3138948194065067
3159,6.0,299.46429,1357.1868,0.0,0.0,0.0,0.0,0.0,-0.03148515147528996,-0.07391194296379083,-0.2006625907238558,-0.13797635341220588,-0.03099364768308487,-0.030354727633778368,-0.3034401251397087
3160,6.0,299.09815,1420.6768,0.0,0.0,0.0,0.0,0.0,-0.03149511828487381,-0.06804116783139043,-0.2152888660498568,-0.14852024408530687,-0.022788709090320478,0.02902353485114987,-0.3021874237760767
3161,6.0,298.88832,1685.64,0.0,0.0,0.0,0.0,0.0,-0.031505085094457624,-0.07574635424958312,-0.2272455516023898,-0.20940056574372679,0.026970336524264973,0.06122010798670424,-0.2856453660885027
3162,6.0,299.6894,1932.2681,0.0,0.0,0.0,0.0,0.0,-0.03151505190404144,-0.12773368172883287,-0.24439749465765476,-0.2152300874115558,-0.013367157049485686,0.017686663504037786,-0.2947595912680067
3163,6.0,301.022,1732.7628,0.0,0.0,0.0,0.0,0.0,-0.03152501871362523,-0.15443662155170787,-0.2074247989762338,-0.16485521371744286,-0.01037240113342629,-0.035693832200206964,-0.2814192519089177
3164,6.0,300.88452,1219.7712,0.0,0.0,0.0,0.0,0.0,-0.031534985523209075,-0.05425499538855114,-0.19963145675959082,-0.11689352685899289,0.007243740366301513,0.0004725565722852026,-0.31385894022046573
3165,6.0,299.74408,1034.0406,0.0,0.0,0.0,0.0,0.0,-0.03154495233279289,-0.030934181047965973,-0.18164360263682783,-0.1017447387214239,0.026272519286395776,0.018679200745493584,-0.3090627512696187
3166,6.0,299.95414,1445.6529999999998,0.0,0.0,0.0,0.0,0.0,-0.03155491914237671,-0.046728318306725955,-0.23066094411196278,-0.16205315162590084,0.0013440426177466786,-0.0027796775729828174,-0.3258073272546797
3167,6.0,299.48208999999997,1452.1765,0.0,0.0,0.0,0.0,0.0,-0.031564885951960525,-0.01952516629373388,-0.2355723902616848,-0.18632783758412583,-0.025330468244422578,-0.01886983767230798,-0.3080952696766357
3168,6.0,298.51232000000005,1132.8409,0.0,0.0,0.0,0.0,0.0,-0.03157485276154437,-0.027959333469871374,-0.21247236514438977,-0.1039236520014659,0.008072625861581141,0.027177567447967076,-0.3306773618728147
3169,6.0,298.38795,1072.8044,0.0,0.0,0.0,0.0,0.0,-0.031584819571128186,-0.03004189882440457,-0.1896710866865788,-0.1063927601101479,0.004375542832782456,0.016431818103194183,-0.2927759008847317
3170,6.0,299.28757,1430.5155,0.0,0.0,0.0,0.0,0.0,-0.03159478638071203,-0.08090636078133612,-0.2291445038798018,-0.12479011926082588,0.004218189347902876,0.004776392880993276,-0.3105291774768437
3171,6.0,299.03938999999997,1764.8264,0.0,0.0,0.0,0.0,0.0,-0.03160475319029579,-0.13438952911821386,-0.23458137086887879,-0.16749226803019984,-0.03715074702874326,-0.022415617231249182,-0.2971613486425417
3172,6.0,299.81485,1680.8305,0.0,0.0,0.0,0.0,0.0,-0.03161471999987964,-0.1057588911125899,-0.2208417805728868,-0.18432982997693784,-0.01127509247526499,0.024584990761599677,-0.3090365080920287
3173,6.0,299.72513,1411.0816,0.0,0.0,0.0,0.0,0.0,-0.031624686809463454,-0.06655452525817024,-0.19017094322591083,-0.17220810624811683,0.00011516274370067788,0.028745149452425373,-0.30144883538068373
3174,6.0,299.66961000000003,1423.5287,0.0,0.0,0.0,0.0,0.0,-0.0316346536190473,-0.09633391124666682,-0.1963183214501098,-0.14006494557833388,0.0027981527700061772,-0.007477536174500364,-0.3086628822501547
3175,6.0,300.34125,1644.8165,0.0,0.0,0.0,0.0,0.0,-0.031644620428631115,-0.1103153957522819,-0.2151347304446448,-0.17453302886756883,-0.006171598650614364,-0.04123379029420826,-0.3072314233038807
3176,6.0,299.59611,1569.8923,0.0,0.0,0.0,0.0,0.0,-0.03165458723821493,-0.10935639506263589,-0.22630057429412778,-0.14155108963250487,0.02402405449298958,0.01143642316943709,-0.3223435419203307
3177,6.0,299.89065,1140.2375,0.0,0.0,0.0,0.0,0.0,-0.03166455404779872,-0.03259578759545377,-0.17706975115542384,-0.13693817735974587,0.02121563324381998,0.01128858187384629,-0.2808984818875217
3178,6.0,300.28297000000003,991.91635,0.0,0.0,0.0,0.0,0.0,-0.031674520857382565,0.018558344326565984,-0.21749442780752878,-0.1025817137015269,0.019286015965381584,-0.0015562355285134884,-0.3263049242462887
3179,6.0,300.48911,1387.1215,0.0,0.0,0.0,0.0,0.0,-0.03168448766696638,-0.04916147630185995,-0.20905138962676578,-0.16343743364751884,-0.00973120978269563,-0.013546855941470589,-0.2736225558344437
3180,6.0,300.37807000000004,1744.6086,0.0,0.0,0.0,0.0,0.0,-0.03169445447655023,-0.14870518249355885,-0.22425073894432476,-0.15736154021787485,-0.019095312164060584,0.01169556289576219,-0.3000566297432837
3181,6.0,299.46842999999996,1627.4454,0.0,0.0,0.0,0.0,0.0,-0.031704421286134016,-0.08433242180121202,-0.23231348409755578,-0.17805686953534483,-0.01739333874583888,0.008199088188012002,-0.28557068955613274
3182,6.0,299.0492,1319.5421,0.0,0.0,0.0,0.0,0.0,-0.03171438809571786,-0.08282242077343652,-0.1852035048756628,-0.13308192986416387,-0.030071571853583074,-0.016733136391431983,-0.3382105115962787
3183,6.0,299.62946,1441.8112,0.0,0.0,0.0,0.0,0.0,-0.03172435490530165,-0.05337694122289395,-0.2119593160887558,-0.17293833533018482,0.012102962389969387,-0.025468070647752875,-0.3019139070440827
3184,6.0,298.97092000000004,1560.7245,0.0,0.0,0.0,0.0,0.0,-0.031734321714885494,-0.06835811955542113,-0.2272843489487188,-0.17877881023159484,0.016779140985722283,0.015821714886731685,-0.3464934866587447
3185,6.0,299.08747999999997,1485.0320000000002,0.0,0.0,0.0,0.0,0.0,-0.03174428852446931,-0.09043980907046423,-0.19211237094751482,-0.16886047990523184,0.03060607242708417,0.026383639385112477,-0.28769066207785776
3186,6.0,300.10528999999997,1139.7566,0.0,0.0,0.0,0.0,0.0,-0.03175425533405313,-0.06975055418734373,-0.1966405653794128,-0.08006643015069143,-0.011052503719797189,-0.0057298213030393345,-0.33547879945917963
3187,6.0,300.65914,938.0917400000001,0.0,0.0,0.0,0.0,0.0,-0.031764222143636944,-0.015127460236214087,-0.16629261030930284,-0.1037363932504849,-0.0045526390905604956,-0.0012679879639156688,-0.3040678437091597
3188,6.0,300.63263,1197.7844,0.0,0.0,0.0,0.0,0.0,-0.03177418895322079,-0.05008943202169205,-0.19554823110910782,-0.11845887667348089,-0.008802116486976262,0.005175197987852275,-0.32722575580466773
3189,6.0,300.76545,1813.7042,0.0,0.0,0.0,0.0,0.0,-0.031784155762804606,-0.0979393523278615,-0.2572368122397967,-0.19614464025046882,0.0017649742696893983,0.02229349424969658,-0.28799115152751376
3190,6.0,299.96768,1781.7743,0.0,0.0,0.0,0.0,0.0,-0.03179412257238845,-0.099929269133001,-0.24205360399633077,-0.1996320444446488,-0.02092997777562798,-0.01019851221751479,-0.3122020229944407
3191,6.0,299.67821000000004,1358.4166,0.0,0.0,0.0,0.0,0.0,-0.03180408938197221,-0.08082301082811012,-0.2072198387460058,-0.12488188932238288,0.0009990110787297171,-0.01942287160338818,-0.28549534427869677
3192,6.0,299.08799999999997,1138.3037,0.0,0.0,0.0,0.0,0.0,-0.031814056191556056,-0.08194896068373272,-0.16801316977410885,-0.0960537749517695,0.019404237934049183,0.030890507942155768,-0.3057602956161917
3193,6.0,299.86546,1458.9033,0.0,0.0,0.0,0.0,0.0,-0.03182402300113987,-0.1031796731155409,-0.18736302454879084,-0.15292745645526484,-0.0010158294294545591,0.02473232745864068,-0.2720214484239267
3194,6.0,299.46988,1496.7744,0.0,0.0,0.0,0.0,0.0,-0.03183398981072372,-0.07343781284449784,-0.2216452271071808,-0.15989900217830286,-0.024278501858101577,-0.012971176883905486,-0.3143544600493697
3195,6.0,298.90731,1283.5038,0.0,0.0,0.0,0.0,0.0,-0.031843956620307534,-0.022284124726021877,-0.1901613274824618,-0.17770764275587883,-0.02795893323608187,-0.008894109868855301,-0.3003103273033217
3196,6.0,299.01985,1268.8471,0.0,0.0,0.0,0.0,0.0,-0.03185392342989135,-0.004811724101380195,-0.23290694468112577,-0.14797916853190687,0.005829767887603294,0.0005539615818117515,-0.33606161078419866
3197,6.0,298.79805,1337.2441,0.0,0.0,0.0,0.0,0.0,-0.03186389023947514,-0.07071376391790514,-0.2061260757930598,-0.1296489878628589,0.0029757523091088873,0.009398106142795862,-0.29555635035164074
3198,6.0,299.63274,1687.5075,0.0,0.0,0.0,0.0,0.0,-0.031873857049058985,-0.1055949472464099,-0.24105202653748278,-0.16631315902133084,-0.019384073243809082,-0.011535322458697688,-0.2942947121221267
3199,6.0,300.30707,1696.2553,0.0,0.0,0.0,0.0,0.0,-0.0318838238586428,-0.10747074675903691,-0.25770264384077074,-0.15044585497284987,-0.005680080349005285,-0.0003191759903852177,-0.2981785605504327
3200,6.0,299.8918,1224.4966,0.0,0.0,0.0,0.0,0.0,-0.031893790668226646,-0.030153880185706267,-0.2094461518657258,-0.13261636170821586,0.024522094274892273,0.05019562468517245,-0.28703852418099673
3201,6.0,299.45824,1117.1005,0.0,0.0,0.0,0.0,0.0,-0.031903757477810435,0.003446365741279817,-0.2061528255956998,-0.13686418983744386,0.02223614429403658,0.03898572269484126,-0.3050423065953317
3202,6.0,300.07588,1598.3676,0.0,0.0,0.0,0.0,0.0,-0.03191372428739428,-0.08408382899517783,-0.2450901017635098,-0.15668990738908983,-0.004226737328396496,-0.007768279880719533,-0.28422796092111574
3203,6.0,299.78275,1714.0898,0.0,0.0,0.0,0.0,0.0,-0.03192369109697807,-0.13548281584361288,-0.20677610612971278,-0.17878156627186684,-0.037053212587367365,-0.027810772766709572,-0.3012378564448617
3204,6.0,299.87502,1364.5815,0.0,0.0,0.0,0.0,0.0,-0.03193365790656191,-0.07792018810687383,-0.2131402388153038,-0.12373826433201589,-0.01186354253709049,-0.014248598510227185,-0.3036853316639087
3205,6.0,299.9344,1122.1095,0.0,0.0,0.0,0.0,0.0,-0.03194362471614573,-0.037609051194724366,-0.17514195164766483,-0.12834226000389487,-0.00978068556917851,-0.007910661582121514,-0.32960807904228473
3206,6.0,300.23353,1342.5263,0.0,0.0,0.0,0.0,0.0,-0.03195359152572955,-0.05476641919102475,-0.19101240690395682,-0.16231564419680683,0.006460333284535254,-0.0006904903959985964,-0.3023503138621527
3207,6.0,299.56671,1666.7020000000002,0.0,0.0,0.0,0.0,0.0,-0.03196355833531336,-0.06320177288302935,-0.25784909901022474,-0.1855849327433068,-0.01009239696634203,-0.002687492990809907,-0.33319307948609667
3208,6.0,298.76543,1562.6458,0.0,0.0,0.0,0.0,0.0,-0.03197352514489721,-0.09361921867149751,-0.2164714099765648,-0.16491468136581186,0.04434932663543776,0.03461327797556457,-0.29918783871004073
3209,6.0,298.91823,1190.93,0.0,0.0,0.0,0.0,0.0,-0.031983491954481025,-0.05076836937044795,-0.21765190713807078,-0.09359269482362981,0.03385464749319357,-0.009061932253768081,-0.3076108044063227
3210,6.0,299.79311,1196.8931,0.0,0.0,0.0,0.0,0.0,-0.03199345876406487,-0.04173236203241346,-0.2153258091485028,-0.1067674498646269,0.02152419931002308,-0.047508646526738356,-0.2940429397372787
3211,6.0,299.5369,1626.7122,0.0,0.0,0.0,0.0,0.0,-0.03200342557364863,-0.12798011428565387,-0.21608705381613177,-0.15041273182708087,-0.010571971886372392,-0.04253277185615776,-0.2765749639758237
3212,6.0,300.24887,1894.0557,0.0,0.0,0.0,0.0,0.0,-0.032013392383232475,-0.11011109413461889,-0.2683687020784288,-0.1972658521486238,-0.0027204445933369775,0.008115254407863252,-0.3044262404020307
3213,6.0,299.93852999999996,1419.3968,0.0,0.0,0.0,0.0,0.0,-0.03202335919281629,-0.056683075987434044,-0.2143451958342238,-0.16043289378849385,-0.020879440913640378,0.04670617372579045,-0.2953591212196757
3214,6.0,300.51016,1159.9124,0.0,0.0,0.0,0.0,0.0,-0.032033326002400137,-0.034922562436088565,-0.18956935637653882,-0.1280924837217439,-0.011579229625280988,0.007319671099645294,-0.33504417596128566
3215,6.0,300.43838,1481.1401,0.0,0.0,0.0,0.0,0.0,-0.03204329281198395,-0.1014468735895269,-0.2028901501411988,-0.14589257246847587,-0.007997052704197653,-0.0035021538732356765,-0.3193866957435127
3216,6.0,298.65235,1597.3966,0.0,0.0,0.0,0.0,0.0,-0.03205325962156777,-0.1047824625212239,-0.2096567761640128,-0.17112944072166084,-0.0012653178472521488,0.017568138573590283,-0.3277849584023567
3217,6.0,297.987,1478.3163,0.0,0.0,0.0,0.0,0.0,-0.03206322643115156,-0.07650918566686872,-0.23642512128084278,-0.13643692253527587,0.02324086789444508,0.014724392386184384,-0.3140979051240497
3218,6.0,299.83272999999997,1309.8644,0.0,0.0,0.0,0.0,0.0,-0.032073193240735404,-0.016796837398718786,-0.2136696417275518,-0.16769959926566183,0.018896392930928783,-0.005155370507245456,-0.2903296618308067
3219,6.0,299.87155,1303.5169,0.0,0.0,0.0,0.0,0.0,-0.03208316005031922,-0.02113450028181278,-0.23707140259212575,-0.13803068388256787,0.0031537631264271873,-0.001143719425276319,-0.2956558717764627
3220,6.0,300.01473,1466.4012,0.0,0.0,0.0,0.0,0.0,-0.032093126859903065,-0.0944896825806556,-0.2093111869524058,-0.14194848632172485,0.016476329166837084,0.01044744243583229,-0.27584570761385174
3221,6.0,299.76342999999997,1704.4786,0.0,0.0,0.0,0.0,0.0,-0.032103093669486854,-0.1040942833183059,-0.2504873506736767,-0.16353728944487383,-0.023093578820158778,0.00879229738423219,-0.2928389959684587
3222,6.0,299.67224,1423.844,0.0,0.0,0.0,0.0,0.0,-0.0321130604790707,-0.0994824015208986,-0.2238702331342718,-0.1094603747878979,-0.015164661713635588,-0.03507861713698997,-0.2925954106444187
3223,6.0,300.0779,1255.753,0.0,0.0,0.0,0.0,0.0,-0.03212302728865449,-0.06395235613310614,-0.20037461491293482,-0.1173905868280489,-0.00034474474870865764,-0.03775362982499317,-0.3281948383328087
3224,6.0,299.62795,1555.3444,0.0,0.0,0.0,0.0,0.0,-0.03213299409823833,-0.07575030085872263,-0.2244874746976888,-0.17254808205416985,0.006992754364856124,0.027943447734803575,-0.3177743108593827
3225,6.0,299.5031,1704.756,0.0,0.0,0.0,0.0,0.0,-0.03214296090782215,-0.07658360483371333,-0.2411545370500998,-0.20046511841186682,0.010423054519175391,0.054181798201327146,-0.3312119019630697
3226,6.0,300.56865,1393.9476,0.0,0.0,0.0,0.0,0.0,-0.032152927717405966,-0.06811119253255134,-0.2025610363762178,-0.15305302854015784,-0.03103445531761227,0.0004549699652020396,-0.3095999359426347
3227,6.0,301.24608,1205.5643,0.0,0.0,0.0,0.0,0.0,-0.03216289452698978,-0.04594920193383316,-0.19078945135195283,-0.12972280313264387,-0.027078672211706872,-0.005002222516905926,-0.3124083815098067
3228,6.0,300.57705,1260.9828,0.0,0.0,0.0,0.0,0.0,-0.03217286133657363,-0.0927995611488536,-0.16953091709889884,-0.12097682343698289,-0.015566755830319186,-0.002254431823245098,-0.2770476755449767
3229,6.0,300.27022999999997,1494.5889,0.0,0.0,0.0,0.0,0.0,-0.032182828146157444,-0.07192587752228144,-0.22236549594076577,-0.16002632718586884,0.017365239294065683,0.02258674402738808,-0.29074236872903775
3230,6.0,299.86527,1612.7868,0.0,0.0,0.0,0.0,0.0,-0.03219279495574129,-0.043337258998304456,-0.2561564849831768,-0.19075315673337082,-0.006518219249498154,-0.02905568021057237,-0.28915115063949676
3231,6.0,299.01137,1366.1023,0.0,0.0,0.0,0.0,0.0,-0.03220276176532505,-0.05322252089440385,-0.21030879247086182,-0.15172966311455185,-0.004507349749515786,-0.0010108723566528341,-0.30222786258756773
3232,6.0,298.75271000000004,1184.2778,0.0,0.0,0.0,0.0,0.0,-0.032212728574908894,-0.05939156747199134,-0.19504105890405382,-0.1055582574602889,0.026295409619404873,0.02082755338926948,-0.3057227445674857
3233,6.0,298.96227999999996,1293.8334,0.0,0.0,0.0,0.0,0.0,-0.03222269538449271,-0.05788893581219315,-0.20757739444129378,-0.12782672848551588,0.017603022748033086,0.035569414207177866,-0.3325667288042807
3234,6.0,299.67455,1791.4933,0.0,0.0,0.0,0.0,0.0,-0.032232662194076556,-0.11329431051627789,-0.24390651418919876,-0.18736840490682183,-0.01774552928184738,-0.03195123691534157,-0.3078268394601437
3235,6.0,299.7746,1734.6031,0.0,0.0,0.0,0.0,0.0,-0.03224262900366037,-0.09619276956073722,-0.24366927181078477,-0.18741397076381883,-0.030787097663449975,-0.03128474835731427,-0.34213283313088166
3236,6.0,300.62366000000003,1281.1308,0.0,0.0,0.0,0.0,0.0,-0.03225259581324419,-0.02333727357520958,-0.1955770074119478,-0.17051748832376584,-0.0005110419490409135,0.012780485241585687,-0.31802703569932467
3237,6.0,300.51097999999996,1170.4607,0.0,0.0,0.0,0.0,0.0,-0.03226256262282798,-0.04674353225697745,-0.18448893050763981,-0.12455835856545289,-0.004337488705401806,0.023588724759775876,-0.3176783459424117
3238,6.0,300.90084,1515.4189,0.0,0.0,0.0,0.0,0.0,-0.03227252943241182,-0.06993422299322043,-0.2199744587522888,-0.17074081877830682,-0.0009593194479949581,-0.007303776346651603,-0.28082837511310277
3239,6.0,300.19178,1610.6187,0.0,0.0,0.0,0.0,0.0,-0.03228249624199564,-0.08072993874017463,-0.23973906719040375,-0.16911886881323285,-0.024531234804044375,-0.0071157087181157735,-0.3123711850986357
3240,6.0,299.79857000000004,1534.7777,0.0,0.0,0.0,0.0,0.0,-0.032292463051579484,-0.1015110325858589,-0.2166182704460588,-0.14840479436891285,0.030612071880926267,0.012006186872918389,-0.28073281549617174
3241,6.0,299.56662,1369.4487,0.0,0.0,0.0,0.0,0.0,-0.03230242986116327,-0.05468237516148024,-0.22460904444468677,-0.13698681336454588,0.039318953294978566,0.00988883998617752,-0.3372345288349567
3242,6.0,299.74925,1386.9567,0.0,0.0,0.0,0.0,0.0,-0.03231239667074712,-0.034908457994696565,-0.2206799037369108,-0.16601183870659283,0.04213067672622406,-0.046922906908930355,-0.3057218022448927
3243,6.0,299.30658999999997,1590.0716,0.0,0.0,0.0,0.0,0.0,-0.03232236348033091,-0.09943905062862021,-0.23585850169242178,-0.14804451303085586,-0.002841365758945967,-0.05144102862158425,-0.32971111644495366
3244,6.0,299.61212,1651.8842,0.0,0.0,0.0,0.0,0.0,-0.03233233028991475,-0.11913657887036488,-0.2029185414090008,-0.18007640870715783,-0.014455889215685186,-0.014200143877195086,-0.2725805395641047
3245,6.0,299.62627000000003,1273.874,0.0,0.0,0.0,0.0,0.0,-0.03234229709949857,-0.07517287191823484,-0.18312604832813384,-0.1289269559740999,-0.014821009836219787,0.027286948809512174,-0.30941946596732367
3246,6.0,299.70429,1022.9724,0.0,0.0,0.0,0.0,0.0,-0.032352263909082385,-0.03572374232990886,-0.15405476811902186,-0.12117954438448987,-0.003256356826877397,0.016674380044633185,-0.3024449615539937
3247,6.0,300.18014,1444.0273,0.0,0.0,0.0,0.0,0.0,-0.0323622307186662,-0.04903296275192666,-0.21766723761208379,-0.17224804856705883,0.007689267853821654,0.02120106878688258,-0.32957157164118167
3248,6.0,301.16927000000004,1796.0456,0.0,0.0,0.0,0.0,0.0,-0.032372197528250046,-0.10143540359839491,-0.24936015046743076,-0.19515745094304082,0.024900921129529578,0.026001807230678575,-0.3273633450357467
3249,6.0,301.05276000000003,1532.2875,0.0,0.0,0.0,0.0,0.0,-0.03238216433783386,-0.0886679325410936,-0.24370760306206776,-0.13340161027071387,0.008364137104751063,0.01941569272642968,-0.33406301549195266
3250,6.0,300.20911,1284.6901,0.0,0.0,0.0,0.0,0.0,-0.03239213114741765,-0.04177446561381876,-0.22525867961380078,-0.12348055430158189,0.004181602609317046,-0.03886947453736846,-0.3178499702443497
3251,6.0,299.89612,1340.8870000000002,0.0,0.0,0.0,0.0,0.0,-0.03240209795700147,-0.045539576329156256,-0.23679970971031175,-0.1252568729193909,-0.006429055976473425,-0.04557154234331105,-0.2987646244082727
3252,6.0,300.20735,1672.9404,0.0,0.0,0.0,0.0,0.0,-0.03241206476658531,-0.08051180524539653,-0.24022021913288974,-0.18780007984692484,0.0023925627378275577,-0.005458194586456864,-0.28956340157518273
3253,6.0,301.16535,1768.7923,0.0,0.0,0.0,0.0,0.0,-0.03242203157616913,-0.07523114899773634,-0.24873201646543877,-0.2137055209135928,0.007603407776122923,0.009055557289438923,-0.3128383440572407
3254,6.0,300.72254,1260.0496,0.0,0.0,0.0,0.0,0.0,-0.03243199838575295,-0.03682819709791006,-0.21591205539136082,-0.13028335335296587,0.005508313178803184,0.002446447276820548,-0.3232213306144617
3255,6.0,299.13128,945.4164800000001,0.0,0.0,0.0,0.0,0.0,-0.03244196519533679,-0.02008052664704368,-0.16372511561591085,-0.1035773535147889,0.00905081163127056,-0.0017239943826449985,-0.3360810651861187
3256,6.0,299.2332,1435.8431,0.0,0.0,0.0,0.0,0.0,-0.03245193200492061,-0.1114652724957659,-0.18299314031251682,-0.14200202645700888,-0.0018422238493633382,0.019847980682843182,-0.31271363323493273
3257,6.0,299.14041000000003,1954.1337,0.0,0.0,0.0,0.0,0.0,-0.0324618988145044,-0.16655179968488285,-0.2408915885166488,-0.18656446187997883,-0.011297178287694689,0.035475846639943465,-0.3029897760002627
3258,6.0,298.86602999999997,1546.9191,0.0,0.0,0.0,0.0,0.0,-0.032471865624088214,-0.08285135514329212,-0.2147307678947768,-0.17264264868600285,-0.035858751826233264,0.01113433987737379,-0.2917150685600357
3259,6.0,298.99252,1103.7930000000001,0.0,0.0,0.0,0.0,0.0,-0.03248183243367206,0.013628764039804288,-0.20892694224948383,-0.14022733917186087,-0.007823448308914231,0.010973345582234888,-0.3209861110263627
3260,6.0,299.90852,1407.4189999999999,0.0,0.0,0.0,0.0,0.0,-0.032491799243255876,-0.06645617920346424,-0.2081523936080418,-0.15321164271081186,-0.011373686776245489,0.004699788538983015,-0.2926584246681377
3261,6.0,299.95774,1863.3242,0.0,0.0,0.0,0.0,0.0,-0.03250176605283969,-0.1107183045220459,-0.2710783557608507,-0.18460735917932783,0.014567001208401088,-0.007738506539781133,-0.33291828605897666
3262,6.0,300.84796,1690.283,0.0,0.0,0.0,0.0,0.0,-0.03251173286242354,-0.1065406642272449,-0.24392563421858576,-0.16333753732015985,-0.016963542371421284,-0.03092428058123887,-0.3131980073127367
3263,6.0,300.1616,1270.808,0.0,0.0,0.0,0.0,0.0,-0.032521699672007354,-0.06558954740618433,-0.2110974556861968,-0.1096069110173599,0.014210201397687685,-0.013180045219769187,-0.3001840256783567
3264,6.0,299.81132,1114.0872,0.0,0.0,0.0,0.0,0.0,-0.03253166648159114,-0.009264048594940412,-0.1943635897546928,-0.13502705594863287,0.013757210715230986,0.03168515439933127,-0.2964376550236187
3265,6.0,299.64668,1460.3163,0.0,0.0,0.0,0.0,0.0,-0.03254163329117499,-0.05840808767317945,-0.22093678290226276,-0.16455483572529783,0.02107436591487798,0.05122791578105165,-0.3118276169499897
3266,6.0,299.8816,1815.1731,0.0,0.0,0.0,0.0,0.0,-0.032551600100758804,-0.0959962486905921,-0.25419556232964874,-0.2015754784014508,-0.02192742218731808,0.006393853134874175,-0.3238544903369497
3267,6.0,300.01605,1526.1014,0.0,0.0,0.0,0.0,0.0,-0.03256156691034262,-0.08401832642921322,-0.22539647149489977,-0.15448192396367885,-0.015333420544290786,-0.02127145420507908,-0.3238983741987807
3268,6.0,299.73216,1094.3763,0.0,0.0,0.0,0.0,0.0,-0.03257153371992644,-0.03923282298347817,-0.19057068052286183,-0.1028595772764499,-0.016405450295841884,-0.024371052122235577,-0.33090016543730366
3269,6.0,299.44593,1356.9635,0.0,0.0,0.0,0.0,0.0,-0.03258150052951028,-0.1073320328203469,-0.19198473183241782,-0.11316626610114089,0.005218651522365805,-0.02484959595896418,-0.2902563734510737
3270,6.0,299.18453,2003.1829,0.0,0.0,0.0,0.0,0.0,-0.03259146733909407,-0.1127902185915279,-0.2673544589933307,-0.2287729248031298,-0.004988611730962646,-0.01062857406345859,-0.2916985019209007
3271,6.0,299.34963,1567.3215,0.0,0.0,0.0,0.0,0.0,-0.03260143414867789,-0.07883124281503792,-0.2236202440695998,-0.17397511309750685,0.014000626826504287,0.010276705740981891,-0.3008909601406257
3272,6.0,299.95414,1262.1437,0.0,0.0,0.0,0.0,0.0,-0.032611400958261705,-0.02224094304651018,-0.21173099031122178,-0.14968824787307985,-0.004221833704537546,0.027501429537679773,-0.2906984139396997
3273,6.0,300.32076,1311.7939999999999,0.0,0.0,0.0,0.0,0.0,-0.03262136776784555,-0.05142711365796095,-0.2045543019729378,-0.14277119474041988,-0.015169476678110786,0.00986061144634158,-0.3298445918806267
3274,6.0,299.57003,1328.5901,0.0,0.0,0.0,0.0,0.0,-0.032631334577429366,-0.07744446718492383,-0.2048582871354388,-0.12155547030409089,-0.011578520350210989,-0.02055859830922568,-0.3072805861987327
3275,6.0,301.13828,1484.2633,0.0,0.0,0.0,0.0,0.0,-0.03264130138701321,-0.10650334622606189,-0.20297049074162782,-0.14170515431020986,-0.006544881406004504,-0.03173158050566317,-0.3237718395262927
3276,6.0,300.71044,1384.3046,0.0,0.0,0.0,0.0,0.0,-0.03265126819659697,-0.049733730574087046,-0.19932997432483682,-0.17173032842846384,0.004528134751467106,0.006625474711008444,-0.2865587097286427
3277,6.0,300.22337000000005,1078.8029,0.0,0.0,0.0,0.0,0.0,-0.03266123500618082,-0.028272912084319174,-0.19241658915753881,-0.1072396548087299,0.0011128364741534089,-0.019915292913486378,-0.3252341823356147
3278,6.0,299.14187999999996,1359.1801,0.0,0.0,0.0,0.0,0.0,-0.03267120181576463,-0.03595454753043757,-0.2089379562780708,-0.16826432407639583,0.024345494914963274,-0.005057953298906125,-0.3138818700702287
3279,6.0,299.34717,2000.2588,0.0,0.0,0.0,0.0,0.0,-0.03268116862534848,-0.12983298394851786,-0.2742513383164997,-0.2039443963402448,-0.016215138622309586,-0.005214969878127455,-0.32365267118203167
3280,6.0,299.68417999999997,1824.817,0.0,0.0,0.0,0.0,0.0,-0.032691135434932295,-0.14484868168545187,-0.23980496897690776,-0.17004517192215185,0.014424451104832486,0.009925255890796491,-0.3098211993669717
3281,6.0,300.31467999999995,1192.2239,0.0,0.0,0.0,0.0,0.0,-0.03270110224451611,-0.06642202760884373,-0.1887455941777398,-0.1072386618236319,-0.02235916704167798,0.015741670155331882,-0.3227893314343267
3282,6.0,299.70939,1003.4296,0.0,0.0,0.0,0.0,0.0,-0.03271106905409993,-0.008838474433689512,-0.17876641818287184,-0.11741266554772789,-0.02048494515945668,-0.008465059043861283,-0.3200612669975877
3283,6.0,299.15989,1295.8426,0.0,0.0,0.0,0.0,0.0,-0.03272103586368377,-0.05564510461149425,-0.18700886324133784,-0.15124981826469486,0.013972360188464589,-0.0006713863455656734,-0.2747437373350957
3284,6.0,299.21926,1556.8174,0.0,0.0,0.0,0.0,0.0,-0.03273100267326756,-0.05448150035565545,-0.2307164398199398,-0.18803568076017682,-0.02312581942509068,0.0026674358064054174,-0.31495691829382766
3285,6.0,298.37076,1492.058,0.0,0.0,0.0,0.0,0.0,-0.032740969482851406,-0.07289487088441364,-0.22584701315186476,-0.15480647810320985,0.01126437026270679,0.005830578183708265,-0.2902471934051677
3286,6.0,298.46236,1290.0626,0.0,0.0,0.0,0.0,0.0,-0.032750936292435195,-0.0937403932509565,-0.2045297711880168,-0.093876660190655,-0.014266188531963188,-0.01195310168692929,-0.3396706759178857
3287,6.0,299.93015,1375.5407,0.0,0.0,0.0,0.0,0.0,-0.03276090310201904,-0.07162031878237514,-0.2188522640015368,-0.1276574447913089,0.046303346016034454,0.015848668352641787,-0.3037740518426647
3288,6.0,300.67739,1858.7963,0.0,0.0,0.0,0.0,0.0,-0.03277086991160286,-0.1155025979167189,-0.27430554719684974,-0.17521953620782185,0.03125554648943227,0.0014806282246016286,-0.32607286970838667
3289,6.0,300.26103,1847.6749,0.0,0.0,0.0,0.0,0.0,-0.0327808367211867,-0.1127401437715859,-0.23625466221651978,-0.21265223730214178,0.012048959199389688,0.003054251530131157,-0.2936949997854397
3290,6.0,300.52672,1298.718,0.0,0.0,0.0,0.0,0.0,-0.03279080353077049,-0.01007734067780609,-0.2321137117078398,-0.15258680177164485,-0.05232657881148125,-0.0028201109129232776,-0.34759728078768065
3291,6.0,300.09347,1060.0458,0.0,0.0,0.0,0.0,0.0,-0.03280077034035431,-0.017321106172710085,-0.1959854485272578,-0.1089208900371549,-0.025969760156515774,-0.007433209117075622,-0.3196531197248067
3292,6.0,300.71986,1564.2871,0.0,0.0,0.0,0.0,0.0,-0.032810737149938124,-0.11842415259255389,-0.22854193417783278,-0.12853815164572788,-0.022403350825538577,0.008471374429084562,-0.32533557827312165
3293,6.0,300.39912999999996,1722.3547,0.0,0.0,0.0,0.0,0.0,-0.03282070395952197,-0.09452887610777372,-0.2552467181158897,-0.17377723548547783,0.005463221016227934,-0.01953652482735488,-0.3061900251161027
3294,6.0,299.82232999999997,1287.9832,0.0,0.0,0.0,0.0,0.0,-0.032830670769105785,-0.050117229524935455,-0.20835071705011482,-0.13304678021819488,0.006748937107868234,-0.0051597406549267555,-0.32709273633153974
3295,6.0,299.23649,1279.7661,0.0,0.0,0.0,0.0,0.0,-0.03284063757868963,-0.018837720683888285,-0.21794812067230482,-0.15223110032403986,0.04381206394216405,-0.016153571519733383,-0.29410676436107774
3296,6.0,299.34475,1403.6789999999999,0.0,0.0,0.0,0.0,0.0,-0.03285060438827339,-0.03463909660136267,-0.21494837348625281,-0.17709589300800385,0.016928106988924083,0.006306890945041674,-0.3299502738660567
3297,6.0,299.06174,1746.9334,0.0,0.0,0.0,0.0,0.0,-0.032860571197857236,-0.11703342630029989,-0.24829804144760878,-0.16569266492509283,0.010946925085877388,-0.0031617411537395567,-0.3059772223301007
3298,6.0,299.71922,1867.8015,0.0,0.0,0.0,0.0,0.0,-0.03287053800744105,-0.15374728724367587,-0.24460487655562174,-0.16941284306474583,-0.013827654901933288,-0.0016728996251523384,-0.3302097773491677
3299,6.0,299.63591,1503.2249,0.0,0.0,0.0,0.0,0.0,-0.0328805048170249,-0.08533419076432892,-0.2206838959423048,-0.15092474736761285,-0.0015761751759063784,0.025142900452161075,-0.2827183398621277
3300,6.0,299.9643,1133.98,0.0,0.0,0.0,0.0,0.0,-0.032890471626608714,-0.05321836960874415,-0.16950726784156483,-0.12197595896308988,0.0005160443850496155,0.0090024698742996,-0.3008727013738237
3301,6.0,299.94948999999997,1552.3118,0.0,0.0,0.0,0.0,0.0,-0.03290043843619253,-0.07355412990297742,-0.1952936114914788,-0.20301628964614782,0.014654856071571687,-0.029155736631447174,-0.2861237822557187
3302,6.0,300.59448,2035.5741,0.0,0.0,0.0,0.0,0.0,-0.03291040524577635,-0.1002986839074594,-0.2795196308864398,-0.23894539851957478,-0.025427598399008575,-0.015590628002675183,-0.3022406700688317
3303,6.0,300.27657999999997,1483.3499,0.0,0.0,0.0,0.0,0.0,-0.03292037205536019,-0.09488789088320572,-0.2112993153711188,-0.14471412207217188,0.0035101402091988667,-0.01072230780370939,-0.3051048139940007
3304,6.0,300.04929,1268.7154,0.0,0.0,0.0,0.0,0.0,-0.03293033886494398,-0.04076549750874136,-0.2259927083837438,-0.11889959993697688,0.0007664995751651184,0.028731313522309874,-0.3334159438455917
3305,6.0,299.73691,1320.2855,0.0,0.0,0.0,0.0,0.0,-0.032940305674527826,-0.05074577186671775,-0.20993383927135678,-0.14065422143899087,-0.004662491410752076,0.013972826283510587,-0.34099313955090266
3306,6.0,299.67574,1532.4044,0.0,0.0,0.0,0.0,0.0,-0.032950272484111615,-0.05816403625409344,-0.24490628806286877,-0.16274234407891885,0.02251622283367818,-0.0005645476439540144,-0.32838845016191665
3307,6.0,300.20869,1569.5399,0.0,0.0,0.0,0.0,0.0,-0.03296023929369546,-0.037477378330979264,-0.23922287705945977,-0.20040067570550682,-0.006263066662316554,-0.0072794496303007425,-0.34379223281965166
3308,6.0,299.50394,1492.4578,0.0,0.0,0.0,0.0,0.0,-0.032970206103279276,-0.05926694277594185,-0.22376712480409577,-0.17063581567044384,0.01211284563144479,0.01075464264090059,-0.3078804505229347
3309,6.0,299.23951,1338.8735,0.0,0.0,0.0,0.0,0.0,-0.03298017291286312,-0.06840018969957314,-0.2132107204922598,-0.1253732041633719,-0.016832147138203586,-0.031118190305876266,-0.3153194490471067
3310,6.0,299.38692000000003,1503.1549,0.0,0.0,0.0,0.0,0.0,-0.03299013972244691,-0.0995925448465189,-0.21336658875514278,-0.14396243235298586,-0.0007859691454391153,0.015803253469909684,-0.30134098504003975
3311,6.0,300.02179,1918.0810000000001,0.0,0.0,0.0,0.0,0.0,-0.033000106532030726,-0.1249830724773689,-0.25015202568558276,-0.2079136414869788,-0.004764729764392215,0.025741121284700873,-0.30042635457227274
3312,6.0,300.43363,1606.9263,0.0,0.0,0.0,0.0,0.0,-0.03301007334161454,-0.1070845870134259,-0.18903539383884083,-0.19234548939802182,0.0025481980545125674,0.027807569883143472,-0.2920634442094177
3313,6.0,300.92042000000004,1234.6337,0.0,0.0,0.0,0.0,0.0,-0.03302004015119839,-0.00880125410981615,-0.20979608792026178,-0.15670045532263083,-0.008616390682071554,-0.012714124452786387,-0.34253836621840467
3314,6.0,300.64419,1488.6203,0.0,0.0,0.0,0.0,0.0,-0.033030006960782204,-0.09412872641803201,-0.22124084912477177,-0.1371338156890539,-0.01142227009204029,-0.04072674575866686,-0.3296853393624097
3315,6.0,300.04242,1696.4664,0.0,0.0,0.0,0.0,0.0,-0.03303997377036605,-0.13308861731482388,-0.23777466908903278,-0.14482011816513288,0.006290230377622405,-0.018645336913901484,-0.3164502766887107
3316,6.0,299.55439,1442.9204,0.0,0.0,0.0,0.0,0.0,-0.03304994057994981,-0.10174351268880291,-0.2095675392277058,-0.1273007098286019,-0.008052053946125851,0.01049830151135169,-0.31675156660594567
3317,6.0,299.0948,1308.4239,0.0,0.0,0.0,0.0,0.0,-0.033059907389533655,-0.06412493694313853,-0.19716845854901183,-0.13643479471006587,0.019240796639918782,0.00994224525787321,-0.30665813652980173
3318,6.0,299.09634,1272.6141,0.0,0.0,0.0,0.0,0.0,-0.03306987419911747,-0.04075553118075776,-0.18721320538900482,-0.15887417062965986,-0.0060238000128527746,-0.0005066461256020795,-0.28731472602575575
3319,6.0,299.00748,1523.8439,0.0,0.0,0.0,0.0,0.0,-0.033079841008701316,-0.030720488628376175,-0.24029077173735275,-0.1921992267460868,0.02838288214417237,0.008763505679990673,-0.3168917700222827
3320,6.0,300.12821,1951.8877,0.0,0.0,0.0,0.0,0.0,-0.03308980781828513,-0.14583719835051084,-0.24675875242569278,-0.2007291713879268,-0.012779506441989089,-0.0001509647504815609,-0.30149359063760073
3321,6.0,299.72142,1787.97,0.0,0.0,0.0,0.0,0.0,-0.03309977462786895,-0.13791932769657786,-0.25375026930820177,-0.15182864751682085,-0.011173168634455888,-0.008154862455597264,-0.3225401124397307
3322,6.0,300.53285,1192.3126,0.0,0.0,0.0,0.0,0.0,-0.03310974143745277,-0.06038053098034444,-0.2024763894628638,-0.0995763267654183,-0.02304320914443768,-0.006115998679202073,-0.3202595195121537
3323,6.0,300.43613999999997,1126.2758,0.0,0.0,0.0,0.0,0.0,-0.03311970824703661,-0.006697904361281693,-0.2130641032027898,-0.1225977094894519,-0.013115554890654487,0.012790131382537687,-0.3286147595717517
3324,6.0,300.64658,1624.6955,0.0,0.0,0.0,0.0,0.0,-0.0331296750566204,-0.07640286026762522,-0.2274510387226698,-0.19001296740281984,-0.014306229136164885,0.01073048979826689,-0.3175793412751407
3325,6.0,300.63942000000003,1742.6346,0.0,0.0,0.0,0.0,0.0,-0.033139641866204245,-0.05125526542775086,-0.26245900193018673,-0.21600315670785178,-0.01119073332493939,0.004529949685046226,-0.3361046333834447
3326,6.0,299.63746000000003,1121.8569,0.0,0.0,0.0,0.0,0.0,-0.033149608675788034,-0.056385024417518644,-0.2036469669058908,-0.08098448641704652,0.0009304982987055322,-0.022582492429968477,-0.34541848909765066
3327,6.0,299.29267000000004,1192.1612,0.0,0.0,0.0,0.0,0.0,-0.03315957548537188,-0.059303141135764355,-0.2004872984565558,-0.10259680099551591,0.02032310277398408,0.001132959317164379,-0.3335007934089657
3328,6.0,299.91791,1581.6707,0.0,0.0,0.0,0.0,0.0,-0.033169542294955695,-0.1194624198375229,-0.2127320307475168,-0.14859393776507984,0.014972557600676386,0.0025534665497325276,-0.29196499682970173
3329,6.0,299.43232,1645.2107,0.0,0.0,0.0,0.0,0.0,-0.03317950910453954,-0.09763603793692671,-0.2367796068283278,-0.16568733522956683,0.010994986577870689,0.0024008913496745277,-0.2988245885491907
3330,6.0,299.58256,1511.4262,0.0,0.0,0.0,0.0,0.0,-0.03318947591412333,-0.05450269349474704,-0.20282582902485083,-0.2021073029814378,-0.004227157928513006,0.008156839813167413,-0.27316034153632673
3331,6.0,299.90747999999996,1400.8108,0.0,0.0,0.0,0.0,0.0,-0.033199442723707145,-0.03505434371759436,-0.2249125736446428,-0.16584459164508686,0.005298652987986335,0.014529655849465384,-0.31829964050622866
3332,6.0,299.18658999999997,1406.4370000000001,0.0,0.0,0.0,0.0,0.0,-0.03320940953329096,-0.09761852390894821,-0.19441374563464284,-0.13548945263176787,0.001842620840752518,-0.00996609574667707,-0.3117246606073287
3333,6.0,300.03227000000004,1793.7495,0.0,0.0,0.0,0.0,0.0,-0.03321937634287481,-0.14170609663280284,-0.24049584342509175,-0.16305312814959086,-0.023199929550654776,-0.00970337701834875,-0.3546934866705217
3334,6.0,300.37551,1705.4915,0.0,0.0,0.0,0.0,0.0,-0.033229343152458624,-0.1380781343847509,-0.2341599601522888,-0.14618874547270586,0.007992172993041061,0.0001198489139556669,-0.2915234832311277
3335,6.0,299.00635,944.35554,0.0,0.0,0.0,0.0,0.0,-0.03323930996204247,-0.007354468843854562,-0.16734938963359883,-0.1123566488737379,0.005518603645493775,0.04295507828583616,-0.3342645002743377
3336,6.0,301.09592999999995,988.3608300000001,0.0,0.0,0.0,0.0,0.0,-0.03324927677162623,0.02815862861879027,-0.19286016978631682,-0.1357354697560479,0.01248536500420959,0.02071388800630158,-0.2861608266793747
3337,6.0,300.788,1480.0723,0.0,0.0,0.0,0.0,0.0,-0.033259243581210074,-0.048550785400339455,-0.2196231649426188,-0.18173106638545983,-0.014297874889090385,-0.01072580250330429,-0.3356867893072067
3338,6.0,299.61126,1616.8456,0.0,0.0,0.0,0.0,0.0,-0.03326921039079389,-0.11700031328703188,-0.21592131649727478,-0.15855905998106085,0.0037638917754671966,-0.04017814074377376,-0.3166838814992657
3339,6.0,299.52472,1501.5679,0.0,0.0,0.0,0.0,0.0,-0.033279177200377735,-0.07638378380799252,-0.2629842403845238,-0.1170711192040199,0.0034321988836816565,-0.03894293111661806,-0.37002093106572265
3340,6.0,299.07038,1518.6503,0.0,0.0,0.0,0.0,0.0,-0.03328914400996155,-0.10341092718586391,-0.2223854671002368,-0.13583538634840886,0.03486631590978746,-0.039279623992347065,-0.3043130704983617
3341,6.0,297.2302,1485.5278,0.0,0.0,0.0,0.0,0.0,-0.03329911081954537,-0.05995620919621714,-0.22626476603559378,-0.16534238436552284,0.0011920335205195488,-0.034388279711358966,-0.33953914592240464
3342,6.0,298.74582000000004,1706.1643,0.0,0.0,0.0,0.0,0.0,-0.033309077629129186,-0.05356599545305215,-0.26206942753173873,-0.2029959334516388,0.023121871802701078,-0.014763877729331286,-0.3044054890399827
3343,6.0,299.35062,1514.6909,0.0,0.0,0.0,0.0,0.0,-0.03331904443871303,-0.07952176465218712,-0.2128659013507288,-0.16804054779181085,-0.005570622689727655,0.01953468983142378,-0.31613840844043173
3344,6.0,298.54942,1128.3091,0.0,0.0,0.0,0.0,0.0,-0.03332901124829682,-0.050276428340897156,-0.19755108205177382,-0.09515028111585161,0.015891184326837785,0.00933255443420141,-0.31772171304669167
3345,6.0,300.39545,1173.0447,0.0,0.0,0.0,0.0,0.0,-0.033338978057880664,-0.07284816613430423,-0.18830474932423183,-0.0954233722828036,-0.02053131553703308,0.0034682572123403374,-0.35849729847342865
3346,6.0,300.16388,1608.8164,0.0,0.0,0.0,0.0,0.0,-0.03334894486746445,-0.12650917911548387,-0.2077446313702988,-0.15478619283620784,-0.0011723536704522988,0.00914175366484584,-0.3026024408845357
3347,6.0,299.55253,1852.3994,0.0,0.0,0.0,0.0,0.0,-0.0333589116770483,-0.10100928532184031,-0.2625434968560258,-0.1995303749296148,-0.0002940581080912757,0.012121295124028689,-0.3206477057579647
3348,6.0,299.71056,1515.9592,0.0,0.0,0.0,0.0,0.0,-0.033368878486632114,-0.045637168525787856,-0.21369211561476983,-0.20148446827746883,0.016115919146017385,-0.004688615835430355,-0.28423574268188373
3349,6.0,300.33839,1228.6554,0.0,0.0,0.0,0.0,0.0,-0.03337884529621596,-0.036732819865997066,-0.2078129041620368,-0.12893484919237888,-0.005531531399544645,-0.014817552626878587,-0.3154272385927447
3350,6.0,299.85013,1580.9135,0.0,0.0,0.0,0.0,0.0,-0.03338881210579975,-0.098921450053537,-0.2124799645201398,-0.16915680489697682,0.03283645982545627,-0.013159306016722385,-0.3121242357842637
3351,6.0,300.86593,1783.6659,0.0,0.0,0.0,0.0,0.0,-0.033398778915383565,-0.14704768771497684,-0.24019350986025376,-0.15494870801974686,0.021077079398645778,0.02136064858488188,-0.3289513207249677
3352,6.0,300.94892000000004,1442.2792,0.0,0.0,0.0,0.0,0.0,-0.03340874572496738,-0.10962617290176088,-0.20109707236673582,-0.1276936178198789,0.022502139670538275,-0.021537984577633583,-0.3217482574865807
3353,6.0,300.3354,1345.3356,0.0,0.0,0.0,0.0,0.0,-0.033418712534551226,-0.039819660964394564,-0.2013967106863078,-0.16773205366636484,-0.005252337224590326,-0.004640762059707555,-0.3135790096153387
3354,6.0,300.70099,1373.7187,0.0,0.0,0.0,0.0,0.0,-0.03342867934413504,-0.03469730174010707,-0.2124056527578058,-0.17047323969189884,-0.03459656238866487,-0.006551587196491314,-0.3134500330101097
3355,6.0,299.61735,1616.8926,0.0,0.0,0.0,0.0,0.0,-0.03343864615371886,-0.07126919621197203,-0.24568383592460677,-0.17454193533594783,-0.027525363518291872,0.0008971124982456101,-0.2944713621445607
3356,6.0,299.42188,1820.4563,0.0,0.0,0.0,0.0,0.0,-0.03344861296330265,-0.1098816233844719,-0.2437024456190588,-0.1997891894026578,-0.02934635734625997,0.0046951101606212955,-0.3159353328553897
3357,6.0,299.55044,1575.6232,0.0,0.0,0.0,0.0,0.0,-0.03345857977288649,-0.1010806404203825,-0.24827792843312374,-0.1295915365821889,-0.012438972335130987,0.035395268938991066,-0.3199001095691827
3358,6.0,299.01681,1344.8263,0.0,0.0,0.0,0.0,0.0,-0.03346854658247031,-0.07253237052863763,-0.19921539600352883,-0.13704584531537187,0.02255164504392408,0.00852584320808521,-0.33007706185106966
3359,6.0,299.25375,1606.5453,0.0,0.0,0.0,0.0,0.0,-0.03347851339205413,-0.060672294320139236,-0.22777791320492977,-0.1998994512785398,0.01854577495907548,0.025260142607981977,-0.3135121249762377
3360,6.0,300.1422,1772.892,0.0,0.0,0.0,0.0,0.0,-0.03348848020163797,-0.10159560857170591,-0.2525001821298278,-0.18481910818522582,0.022635162183416577,-0.015859671235477685,-0.31696550423205966
3361,6.0,300.38488,1348.286,0.0,0.0,0.0,0.0,0.0,-0.03349844701122179,-0.03731416805787167,-0.2043096932662968,-0.16822141293466086,-0.008154244980986321,-0.015291915793694587,-0.3061788793650027
3362,6.0,301.10945,1189.059,0.0,0.0,0.0,0.0,0.0,-0.033508413820805605,-0.07124063978440373,-0.20403228565391882,-0.08617133597044874,-0.008187363161829832,-4.7674674648374056e-05,-0.3397573493314397
3363,6.0,300.9764,1413.3567,0.0,0.0,0.0,0.0,0.0,-0.03351838063038945,-0.08695878429891382,-0.2151259556987788,-0.12754040427225788,-0.019076340069188184,0.019408254457445585,-0.3173321487807447
3364,6.0,300.44975,1638.6798,0.0,0.0,0.0,0.0,0.0,-0.03352834743997324,-0.10592187239117491,-0.2274361540787008,-0.16475971489551783,-0.003688046155131816,0.015923271931004585,-0.3325005534402497
3365,6.0,299.95358,1800.7121,0.0,0.0,0.0,0.0,0.0,-0.033538314249557055,-0.07917179110739742,-0.26265680861470875,-0.2055429199630068,-0.0055284143382620145,0.015339405812631485,-0.3198612007653427
3366,6.0,299.85835,1636.3714,0.0,0.0,0.0,0.0,0.0,-0.03354828105914087,-0.12093810715066189,-0.2134681772101688,-0.16300975091280984,0.011735115113415689,-0.02464503089627518,-0.30700972418200073
3367,6.0,299.68485,1290.2847,0.0,0.0,0.0,0.0,0.0,-0.03355824786872472,-0.04998826710520785,-0.2049992707543528,-0.13722678138572886,-0.002196598648612408,-0.01015659507412789,-0.3118328655855077
3368,6.0,299.51277000000005,1357.6767,0.0,0.0,0.0,0.0,0.0,-0.03356821467830853,-0.08013672336312883,-0.2139494406101658,-0.1186136506262559,-0.001011350600567533,-0.026769722123715877,-0.3140649137007937
3369,6.0,299.07816,1488.0718,0.0,0.0,0.0,0.0,0.0,-0.03357818148789235,-0.08268585492495852,-0.21711289861487482,-0.15253791245431986,-0.004625257610652386,0.003756674293679887,-0.3191657666917087
3370,6.0,300.09335,1413.6854,0.0,0.0,0.0,0.0,0.0,-0.033588148297476195,-0.043382020334722056,-0.24109157368888579,-0.14525145873270284,-0.01948791922005788,0.008938478672184162,-0.33311869679625566
3371,6.0,300.10929,1114.1157,0.0,0.0,0.0,0.0,0.0,-0.033598115107059984,-0.018959163774623783,-0.1865572576717678,-0.13314691972557788,-0.00952274553097181,-0.0032450002184315875,-0.3277393621478567
3372,6.0,300.32966,1229.9308,0.0,0.0,0.0,0.0,0.0,-0.0336080819166438,-0.036140573156046865,-0.19845922771890082,-0.1392684296747239,-0.013118845926979287,-0.035297922962133764,-0.3213207976668937
3373,6.0,301.51527999999996,1603.3953,0.0,0.0,0.0,0.0,0.0,-0.03361804872622762,-0.07681047862385403,-0.2653449509975077,-0.14523668554624486,0.0015370874320987185,-0.01847818307140468,-0.33665113995738066
3374,6.0,301.12112,1679.9409,0.0,0.0,0.0,0.0,0.0,-0.03362801553581146,-0.100436228555534,-0.2230029518436778,-0.18722090608976483,0.00952430168047539,-0.008173937496679821,-0.3245972634552557
3375,6.0,299.89177,1614.1687,0.0,0.0,0.0,0.0,0.0,-0.03363798234539528,-0.08809858325690323,-0.2415787848669698,-0.16098960379093682,0.005609836279197734,0.014794454577598985,-0.3147726688956437
3376,6.0,299.98555,1437.9323,0.0,0.0,0.0,0.0,0.0,-0.03364794915497907,-0.03580194801237716,-0.2278291532624868,-0.17346440464960383,0.00965758034297897,0.003093686312098067,-0.33249899303509567
3377,6.0,299.74199,1445.2495,0.0,0.0,0.0,0.0,0.0,-0.033657915964562884,-0.07231298161698564,-0.2031379911156588,-0.16386880461259185,-0.011464425349200688,-6.506498073666365e-05,-0.3165136858799687
3378,6.0,298.72399,1646.6875,0.0,0.0,0.0,0.0,0.0,-0.03366788277414673,-0.09593164690396641,-0.2527871548231498,-0.15183308555225886,0.01111110098633029,-0.002955588834768907,-0.32054893413821667
3379,6.0,299.30598,1449.3467,0.0,0.0,0.0,0.0,0.0,-0.033677849583730546,-0.09298809456846041,-0.20665610692036981,-0.14092100005781988,-0.006886471927416863,-0.00973038844216457,-0.3029031228517107
3380,6.0,299.50012999999996,1202.8634,0.0,0.0,0.0,0.0,0.0,-0.03368781639331439,-0.05350197527198385,-0.2096713568329518,-0.1024670847177139,0.01692601868046798,-0.007625257805254353,-0.2950754213241767
3381,6.0,299.11998,1419.1807,0.0,0.0,0.0,0.0,0.0,-0.03369778320289821,-0.04042951289483226,-0.23325263521774278,-0.15771334065259485,0.016278826457345085,0.01133628264880399,-0.3175285875776317
3382,6.0,300.65169,1859.4095,0.0,0.0,0.0,0.0,0.0,-0.033707750012482024,-0.08427816631135743,-0.25859726261906274,-0.2223386245481138,0.015031500385493588,0.018990557302472084,-0.3009294433794237
3383,6.0,301.00487999999996,1663.2405,0.0,0.0,0.0,0.0,0.0,-0.03371771682206581,-0.09167126156624911,-0.23072965260124378,-0.18318266874372183,-0.012742152977052588,0.017926051946163583,-0.3266671814220407
3384,6.0,300.39979,1291.5775,0.0,0.0,0.0,0.0,0.0,-0.03372768363164966,-0.06218906993808335,-0.19146808573892882,-0.13895015768581287,-0.004533345187456335,-0.019033581928218284,-0.3291289434674977
3385,6.0,300.04811,1325.781,0.0,0.0,0.0,0.0,0.0,-0.033737650441233474,-0.07196124907002234,-0.2059003540682828,-0.1251427201631249,-0.02345188128077048,-0.002074356407523038,-0.3454151251073187
3386,6.0,299.97069,1530.8829,0.0,0.0,0.0,0.0,0.0,-0.03374761725081729,-0.12126751475817188,-0.2218146425239008,-0.12226800803941287,0.005608033099319775,0.01017060123026019,-0.3407813398824997
3387,6.0,299.74606,1676.0605,0.0,0.0,0.0,0.0,0.0,-0.03375758406040111,-0.08953951811811241,-0.23717416641726777,-0.18276686130018482,0.009700054773920871,0.005616448344050295,-0.3293239637142447
3388,6.0,300.26061,1547.8052,0.0,0.0,0.0,0.0,0.0,-0.03376755086998495,-0.05565896485961215,-0.2405472456026648,-0.17428792366837884,-0.013860837829458185,-0.007778646543817643,-0.33293249182537865
3389,6.0,299.18802999999997,1167.0283,0.0,0.0,0.0,0.0,0.0,-0.03377751767956877,-0.00948164415524042,-0.2090457964862138,-0.1362200262188699,0.01949342623435138,-0.012619916511488789,-0.33266266332374866
3390,6.0,299.76505,1308.7019,0.0,0.0,0.0,0.0,0.0,-0.033787484489152614,-0.05807417008947435,-0.2141807250779918,-0.12555781833159188,0.01102170496975759,0.01039513137291959,-0.3234944724439187
3391,6.0,299.49156,1806.0579,0.0,0.0,0.0,0.0,0.0,-0.033797451298736375,-0.1080361504473379,-0.28406473646250674,-0.15689562755689285,0.008912959360465602,0.0040247252506594566,-0.31434767127369967
3392,6.0,300.06285,1636.2954,0.0,0.0,0.0,0.0,0.0,-0.03380741810832022,-0.14136211848885488,-0.2105429444364708,-0.14548788037853586,-0.01971239768696218,-0.01203970214647609,-0.3152366158514317
3393,6.0,299.52011,1219.0569,0.0,0.0,0.0,0.0,0.0,-0.033817384917904036,0.01000444027153638,-0.2214538342957918,-0.15911346990577685,0.005806987694880064,-0.0008784084789521672,-0.3321165316523497
3394,6.0,298.29241,1120.0929,0.0,0.0,0.0,0.0,0.0,-0.03382735172748788,-0.014036891047583287,-0.21346200651705982,-0.11298136822289288,-0.012542073572556288,0.028134641949172975,-0.32574195235822767
3395,6.0,298.25081,1506.5034,0.0,0.0,0.0,0.0,0.0,-0.0338373185370717,-0.06557235660498774,-0.2033556271046378,-0.18901144060647682,0.014505211190802884,-0.01126421118244109,-0.31181809239904973
3396,6.0,299.37137,1751.0898,0.0,0.0,0.0,0.0,0.0,-0.03384728534665549,-0.12964361763732887,-0.25014010986440677,-0.15250383685345686,-0.00991480320276489,-0.03879709200322486,-0.34687614055900967
3397,6.0,299.26959,1594.5486,0.0,0.0,0.0,0.0,0.0,-0.033857252156239304,-0.11752012072083289,-0.22319151768728776,-0.14399132011333685,0.03340252009982207,0.0002234983906125738,-0.3249794613929757
3398,6.0,299.57333,1614.8282,0.0,0.0,0.0,0.0,0.0,-0.03386721896582315,-0.13183093076069988,-0.2306407601699708,-0.12839575960917488,0.030975875276330868,0.026968829821366273,-0.3266964440849287
3399,6.0,300.37327999999997,1668.8454,0.0,0.0,0.0,0.0,0.0,-0.033877185775406965,-0.08663358573231923,-0.2459455786904388,-0.17470815901485284,0.015157316663660686,0.0011067241442501688,-0.2989488130114507
3400,6.0,300.03522000000004,1699.3845,0.0,0.0,0.0,0.0,0.0,-0.03388715258499081,-0.09226238863483881,-0.21959176432201982,-0.2047163105314268,-0.03371331024999467,-0.029926955733060572,-0.2839593685846077
3401,6.0,300.45058,1691.2528,0.0,0.0,0.0,0.0,0.0,-0.0338971193945746,-0.05548110299005854,-0.2631459145704797,-0.19547160913654582,-0.01204461843596129,-0.02042789613907638,-0.28777581561626175
3402,6.0,300.63915,1275.1099,0.0,0.0,0.0,0.0,0.0,-0.03390708620415844,-0.03146977897132537,-0.2085111753359508,-0.14762059958651888,0.015773654407988485,0.013297367422347987,-0.3212264640825837
3403,6.0,299.35495,1223.415,0.0,0.0,0.0,0.0,0.0,-0.03391705301374223,-0.06272859116582995,-0.2163067973653188,-0.0928522329288019,0.022860257719631776,-0.0025015790253616276,-0.3244962322877847
3404,6.0,299.81178,1610.9661,0.0,0.0,0.0,0.0,0.0,-0.03392701982332608,-0.10807520110619191,-0.23955759409749378,-0.14206066324029587,0.015003904519020086,-0.017276088484017182,-0.35380600117293365
3405,6.0,299.30162,1667.8406,0.0,0.0,0.0,0.0,0.0,-0.033936986632909893,-0.07931370894290363,-0.23024160042557676,-0.1974265941444878,0.01017964651390289,0.0025190665061875076,-0.3293427595035997
3406,6.0,299.75319,1345.6537,0.0,0.0,0.0,0.0,0.0,-0.03394695344249371,-0.04526922195072436,-0.23877173758493575,-0.12500415821194988,0.0016509896116149883,0.03129305802138437,-0.33968851925214666
3407,6.0,299.44608,1400.0921,0.0,0.0,0.0,0.0,0.0,-0.03395692025207753,-0.03673613218057396,-0.2016833186095938,-0.1871735771775938,-0.026888782050216175,-0.026870226401134876,-0.3177625368932207
3408,6.0,299.59116,1693.2004,0.0,0.0,0.0,0.0,0.0,-0.03396688706166137,-0.1106222889425699,-0.22088197620435376,-0.18318637723908782,-0.04556434826760105,-0.031016697096359673,-0.3082004349045147
3409,6.0,298.88082,1784.4238,0.0,0.0,0.0,0.0,0.0,-0.03397685387124519,-0.11598220971905288,-0.25825694230797575,-0.16818112611068484,-0.023620623899424077,-0.013195365561281187,-0.30427206426681475
3410,6.0,299.37883,1708.9615,0.0,0.0,0.0,0.0,0.0,-0.03398682068082903,-0.09439238118680272,-0.24111047080325076,-0.18397877934729182,0.017813928729847883,0.04562832285241486,-0.31849601850810966
3411,6.0,299.48112000000003,1372.5441,0.0,0.0,0.0,0.0,0.0,-0.033996787490412794,-0.037444744585008564,-0.2245757490464008,-0.15519864642191383,0.01171296850597999,0.01903364170997418,-0.32810176117862266
3412,6.0,300.79328,1218.2138,0.0,0.0,0.0,0.0,0.0,-0.03400675429999664,-0.030755947315625674,-0.21201999963724477,-0.12753064667379488,0.01111495336321049,0.0033601220470932266,-0.3219107220076147
3413,6.0,300.5152,1480.6274,0.0,0.0,0.0,0.0,0.0,-0.034016721109580456,-0.03480044958703697,-0.22768469419572976,-0.18758862468355583,0.00948572491869316,-0.0030183705202399772,-0.3266695017647697
3414,6.0,299.92021,1633.6405,0.0,0.0,0.0,0.0,0.0,-0.0340266879191643,-0.09680957542661121,-0.23912136966444175,-0.16065496781291083,0.015103788687377884,0.00915202994603503,-0.31785762028260467
3415,6.0,300.47314,1424.0414,0.0,0.0,0.0,0.0,0.0,-0.03403665472874812,-0.1065964841752539,-0.20639227685933179,-0.11988427638415688,0.018141854965711683,-0.030274854141645473,-0.3300109168845417
3416,6.0,299.99427000000003,1256.4961,0.0,0.0,0.0,0.0,0.0,-0.034046621538331906,-0.06785647969591314,-0.2143240797021398,-0.0997628742148291,-0.025686294321789874,-0.025152537473862178,-0.34005699778351267
3417,6.0,299.06768,1501.0334,0.0,0.0,0.0,0.0,0.0,-0.03405658834791572,-0.09030817268372271,-0.2083729376248078,-0.15759556046097084,-0.017299256447553684,0.003268874214637767,-0.3274181010711507
3418,6.0,299.03643,1945.7194,0.0,0.0,0.0,0.0,0.0,-0.03406655515749957,-0.14163973888375386,-0.25063515346576376,-0.19917521050456283,-0.019418303871937378,0.037038206353386366,-0.30406246335112874
3419,6.0,299.21819,1780.1467,0.0,0.0,0.0,0.0,0.0,-0.034076521967083384,-0.06494306040513104,-0.27176609926622575,-0.2044109980112948,-0.016359881399094583,0.022565528596794275,-0.3091720302929037
3420,6.0,299.47789,1408.6729999999998,0.0,0.0,0.0,0.0,0.0,-0.03408648877666723,-0.0885355037927739,-0.2048419839413298,-0.13482393983358687,-0.027019798327896475,-0.018973581310296684,-0.27774436604873476
3421,6.0,300.14313,1425.9679,0.0,0.0,0.0,0.0,0.0,-0.03409645558625102,-0.05949008375271415,-0.21524612716063882,-0.15872242629468383,0.012374526589020687,-0.00016284995123953884,-0.29852818249743773
3422,6.0,300.07502,1595.6341,0.0,0.0,0.0,0.0,0.0,-0.03410642239583486,-0.08477576938246702,-0.25814312392424277,-0.14211404125556387,0.008185641548584923,0.022499192125997377,-0.3423150256313627
3423,6.0,299.82142000000005,1715.7199,0.0,0.0,0.0,0.0,0.0,-0.03411638920541865,-0.08519821057440873,-0.2382857727044748,-0.1980520227687128,0.014507438314522685,-0.006261566849518534,-0.3375254126736647
3424,6.0,299.74406,1511.6684,0.0,0.0,0.0,0.0,0.0,-0.034126356015002496,-0.07536033027948552,-0.25695046776153674,-0.1271986552785299,-0.026767178865964875,-0.026518791749700975,-0.35803289555509565
3425,6.0,299.41357,1021.6021,0.0,0.0,0.0,0.0,0.0,-0.03413632282458631,0.003465543627247527,-0.2065215878370938,-0.10748547941549089,0.003134703993371197,-0.014999982227882985,-0.36504976395510663
3426,6.0,300.76726,1308.9641,0.0,0.0,0.0,0.0,0.0,-0.03414628963417013,-0.0984521237529681,-0.19770338367430482,-0.10173690629815091,-0.01019151369907409,0.013737628643798386,-0.33553442688966967
3427,6.0,300.44277,1773.0689,0.0,0.0,0.0,0.0,0.0,-0.034156256443753946,-0.12240368222780287,-0.24219785028056678,-0.17436713956119684,0.013566108706620686,-0.01147840414758029,-0.3269797082828847
3428,6.0,300.94608,1626.2514,0.0,0.0,0.0,0.0,0.0,-0.03416622325333779,-0.1002616607620555,-0.2200857845407758,-0.17399235861420884,0.02089231932241138,-0.006843617831662494,-0.3284490729153997
3429,6.0,299.85716,1360.0197,0.0,0.0,0.0,0.0,0.0,-0.03417619006292161,-0.046231690995462656,-0.2082132595415488,-0.15896706539882785,0.03147052472339897,0.00898160594016549,-0.3178090754703137
3430,6.0,299.75461,1447.9455,0.0,0.0,0.0,0.0,0.0,-0.03418615687250545,-0.07120680432381443,-0.2129666285431698,-0.15596584900013083,0.0009809725924994571,0.014899837654249485,-0.34179880510291566
3431,6.0,299.33821,1826.4585,0.0,0.0,0.0,0.0,0.0,-0.03419612368208921,-0.0963265043884358,-0.24526865669613174,-0.21360260510093582,-0.023135199081266378,-0.016824443397693283,-0.31090901454183073
3432,6.0,300.05331,1678.4197,0.0,0.0,0.0,0.0,0.0,-0.03420609049167306,-0.1165576851133479,-0.2361298095391978,-0.15751017387504385,-0.026012886107271975,-0.005514438478307705,-0.3068713142183407
3433,6.0,298.40249,1352.7328,0.0,0.0,0.0,0.0,0.0,-0.034216057301256875,-0.02988264529293747,-0.2187265095316258,-0.16258784370367083,-0.0007745395120585983,0.006601403333682784,-0.29257200456710875
3434,6.0,298.89097000000004,1048.3353,0.0,0.0,0.0,0.0,0.0,-0.03422602411084072,-0.030713564077192772,-0.17200179839525584,-0.11595237963610888,0.015632080064266186,0.03212273861401747,-0.32464334606980366
3435,6.0,300.40304,1203.3841,0.0,0.0,0.0,0.0,0.0,-0.034235990920424536,-0.02908321528203987,-0.2045448990120098,-0.13217061272422387,-0.0044080601563166654,-0.016030111048048783,-0.32860861927614565
3436,6.0,300.75972,1762.3342,0.0,0.0,0.0,0.0,0.0,-0.034245957730008325,-0.11132943618735991,-0.2282341087974528,-0.1961420361977118,0.027201180228297473,-0.028809702603046272,-0.33006764875764066
3437,6.0,300.18126,1868.1948,0.0,0.0,0.0,0.0,0.0,-0.03425592453959214,-0.12998633935115286,-0.25158471066447774,-0.1863135102277118,0.005862341851818094,-0.002941768204729917,-0.3270925134165177
3438,6.0,300.91194,1500.0323,0.0,0.0,0.0,0.0,0.0,-0.034265891349175986,-0.1109247238324179,-0.2158116727039538,-0.1292359668570969,0.02745098690795147,-0.009394134709028912,-0.3192756334000517
3439,6.0,300.09812999999997,1528.158,0.0,0.0,0.0,0.0,0.0,-0.0342758581587598,-0.07739584637887532,-0.2000917864125218,-0.18703425528884382,-0.024176478718782677,-0.015673996194402986,-0.29789986611042774
3440,6.0,298.89565,1805.1928,0.0,0.0,0.0,0.0,0.0,-0.03428582496834365,-0.12354996193343189,-0.24325876366527074,-0.18192480993708082,-0.019445745724395683,-0.0025606669075931474,-0.3111588617514887
3441,6.0,298.96788,1631.7292,0.0,0.0,0.0,0.0,0.0,-0.03429579177792744,-0.07676998914985803,-0.22754190699163776,-0.1916930373936298,-0.004086915603372166,0.0040151426404887265,-0.3312469502840287
3442,6.0,299.43044,1209.6694,0.0,0.0,0.0,0.0,0.0,-0.03430575858751128,-0.013528724844181186,-0.20428406817126782,-0.14989650116613285,0.004685368976809916,0.028448666393664772,-0.34585717572844565
3443,6.0,299.45945,925.24947,0.0,0.0,0.0,0.0,0.0,-0.03431572539709507,-0.015752318400632785,-0.1878906340083618,-0.07760977893873883,-0.014751422859102088,-0.001090075026557029,-0.33535981349993665
3444,6.0,300.42541,1150.5722,0.0,0.0,0.0,0.0,0.0,-0.034325692206678915,-0.05460822551916225,-0.1924686803451798,-0.1026683161875739,0.02265165789504458,0.0007448223963682472,-0.32164351782374373
3445,6.0,300.80418,1485.5533,0.0,0.0,0.0,0.0,0.0,-0.03433565901626273,-0.051229908843998355,-0.2398923010030268,-0.16044889300757284,0.009013355220123902,0.02448138897862498,-0.3268783630078827
3446,6.0,301.08259,1795.4117,0.0,0.0,0.0,0.0,0.0,-0.03434562582584655,-0.09767950839271691,-0.25640092143730076,-0.1916799056723338,0.01925395470571738,-0.003689463995996746,-0.3231620453511107
3447,6.0,301.66357999999997,1642.632,0.0,0.0,0.0,0.0,0.0,-0.034355592635430365,-0.04546731437177455,-0.24687952170511177,-0.2069722612165718,-0.012385502114103887,-0.03626676838975137,-0.32316380840628467
3448,6.0,300.89583,1615.0129,0.0,0.0,0.0,0.0,0.0,-0.03436555944501421,-0.09076861784716511,-0.23442494531844077,-0.16573002345627982,-0.024255045118286578,-0.016538598451732587,-0.3322500678830287
3449,6.0,300.4515,2004.5663,0.0,0.0,0.0,0.0,0.0,-0.03437552625459803,-0.16403927380941585,-0.25245192102756475,-0.19284689621000684,-0.01043892505549169,-0.008366795265063402,-0.3251259874899367
3450,6.0,299.87834,1724.3839,0.0,0.0,0.0,0.0,0.0,-0.03438549306418187,-0.16141411505283285,-0.2086309516302718,-0.15412459118341285,-0.002347143903420068,0.005325274715813694,-0.3122432724060117
3451,6.0,300.13277,1178.7106,0.0,0.0,0.0,0.0,0.0,-0.03439545987376563,-0.041642285111773564,-0.1987635472539348,-0.11789275357760888,0.0012112150541876189,0.02036331563070278,-0.33715284061189466
3452,6.0,300.3259,976.0477900000001,0.0,0.0,0.0,0.0,0.0,-0.03440542668334948,-0.04361460277592616,-0.15410273537875585,-0.0989768180920014,0.014879750984267085,-0.0006512030723187394,-0.3025760153219277
3453,6.0,300.04717,1117.9335,0.0,0.0,0.0,0.0,0.0,-0.034415393492933294,0.015869436939941483,-0.2140557305456558,-0.14163756039603886,0.014967540999431286,0.0069570400346063935,-0.35247992023705965
3454,6.0,299.35737,1474.8524,0.0,0.0,0.0,0.0,0.0,-0.03442536030251714,-0.034380671216358065,-0.24304405596908077,-0.17089357636338282,-0.005303656822280175,-0.034278017835476966,-0.3233793064375527
3455,6.0,299.85497000000004,1819.3361,0.0,0.0,0.0,0.0,0.0,-0.034435327112100955,-0.11419296202996788,-0.2574497467483118,-0.18139002666680182,-0.016999082118678784,-0.023316825174941477,-0.34299056960553365
3456,6.0,298.21036000000004,1844.6365,0.0,0.0,0.0,0.0,0.0,-0.03444529392168477,-0.12947437447312587,-0.26397988019778573,-0.16726919088818384,-0.038552539025339366,-0.023563174645254276,-0.3179200871512697
3457,6.0,300.02871,1563.2094,0.0,0.0,0.0,0.0,0.0,-0.03445526073126856,-0.08989826843526832,-0.23020093869906377,-0.15507743131245086,-0.01067567600760719,0.02328631216143008,-0.3241448067556017
3458,6.0,300.50334,1637.2114,0.0,0.0,0.0,0.0,0.0,-0.034465227540852406,-0.07302691155794504,-0.24387891325647476,-0.18076556063017182,-0.0034920877401172262,0.0072436587996684626,-0.3064829151900087
3459,6.0,300.40405,1830.0572,0.0,0.0,0.0,0.0,0.0,-0.03447519435043622,-0.07768593684275503,-0.26136626235984173,-0.2172395042148698,0.01929086740686038,0.016874889067171883,-0.32735476280739967
3460,6.0,300.19077000000004,1375.9626,0.0,0.0,0.0,0.0,0.0,-0.03448516116002004,-0.07293363681998953,-0.19170184253699882,-0.15362278920388883,0.025936249949208578,-0.017566324855911284,-0.3136758965899007
3461,6.0,300.56141,994.52718,0.0,0.0,0.0,0.0,0.0,-0.034495127969603856,-0.04823134817381346,-0.16905670591959784,-0.08502338034915433,0.025751615515986575,-0.007039852053354305,-0.35239519226369764
3462,6.0,300.87948,1342.8479,0.0,0.0,0.0,0.0,0.0,-0.0345050947791877,-0.07651456602489973,-0.21642097038658678,-0.11525670238245089,0.01878570751650498,-0.019481577287681982,-0.3484052058874167
3463,6.0,300.85957,1556.3913,0.0,0.0,0.0,0.0,0.0,-0.03451506158877149,-0.07823456110940002,-0.23571103327286777,-0.15915849874022084,-0.022960444849769477,0.0001367796037190959,-0.3470022901964596
3464,6.0,299.77125,1701.9015,0.0,0.0,0.0,0.0,0.0,-0.034525028398355334,-0.1024764471486379,-0.24480121402749874,-0.17005790847590882,-0.023252022764795977,0.002365331236090018,-0.3375193331730647
3465,6.0,299.89656,1808.3119,0.0,0.0,0.0,0.0,0.0,-0.03453499520793915,-0.05423176663000865,-0.27127497694275576,-0.22417491743934181,-0.02849418057490668,0.01096672703258169,-0.3284901399419527
3466,6.0,299.7426,1426.7318,0.0,0.0,0.0,0.0,0.0,-0.03454496201752297,-0.08260041666327642,-0.2157953593773438,-0.13529507073258387,0.0008439883223926622,-0.000971008068101035,-0.2975231397232477
3467,6.0,299.82619,1547.3567,0.0,0.0,0.0,0.0,0.0,-0.034554928827106784,-0.08272457019802942,-0.23360381756990178,-0.15402940646901886,0.007103202577431514,-0.016021188367668183,-0.3237235176290237
3468,6.0,300.3535,1850.7876,0.0,0.0,0.0,0.0,0.0,-0.03456489563669063,-0.15822939906102584,-0.2118633815692878,-0.19250042547081284,0.02225713478310818,-0.0077218202358093225,-0.2773342733357617
3469,6.0,299.30457,1619.2918,0.0,0.0,0.0,0.0,0.0,-0.034574862446274446,-0.1175509336563739,-0.22516573418212776,-0.14950762591025385,0.005740751535843064,0.020354840806866382,-0.3403284677503047
3470,6.0,299.36269,1199.3213,0.0,0.0,0.0,0.0,0.0,-0.034584829255858235,-0.017041561615871184,-0.19125883946077782,-0.15626331896448886,0.018012490285694384,0.003683312048014596,-0.3253794114724477
3471,6.0,300.63532999999995,1351.4316,0.0,0.0,0.0,0.0,0.0,-0.03459479606544205,0.013879122940762788,-0.2526739646544788,-0.17200661133323084,-0.040909758991728856,-0.004449520830533516,-0.3705953526799136
3472,6.0,299.63007000000005,1683.6729,0.0,0.0,0.0,0.0,0.0,-0.034604762875025896,-0.09975920219646671,-0.2500398082370078,-0.16199551796021286,-0.012557828598361187,-0.02185364440778678,-0.34588141267083766
3473,6.0,300.63014,1518.9662,0.0,0.0,0.0,0.0,0.0,-0.03461472968460971,-0.09594967160999532,-0.2104908127188258,-0.15528730580566386,-0.016943992723991882,0.002755485213595217,-0.36932057259660267
3474,6.0,301.44727,1354.0006,0.0,0.0,0.0,0.0,0.0,-0.03462469649419353,-0.06519227534672664,-0.24890183718219877,-0.0974882574363419,0.04020893341431276,9.674283061602402e-05,-0.36195029269421264
3475,6.0,301.26484,1256.9031,0.0,0.0,0.0,0.0,0.0,-0.034634663303777374,-0.047490021976650254,-0.21434943121964178,-0.12022771750555189,0.015963003493925786,0.01063404764049879,-0.3392703002733717
3476,6.0,300.43748999999997,1483.7156,0.0,0.0,0.0,0.0,0.0,-0.03464463011336119,-0.05722567445573435,-0.1956067665673848,-0.1981800469188478,0.015259580956503383,0.009121761024472722,-0.3037891391366537
3477,6.0,300.16188999999997,1832.1772,0.0,0.0,0.0,0.0,0.0,-0.03465459692294498,-0.09503110770534011,-0.25326598642290676,-0.20863900696856677,-0.03315791443293137,0.016059565215205684,-0.30869601552842474
3478,6.0,300.11136,1689.1161,0.0,0.0,0.0,0.0,0.0,-0.0346645637325288,-0.1226442581990459,-0.19306592035162282,-0.19773893862031383,-0.005422455634229705,-0.0054134436865152956,-0.2697543621201828
3479,6.0,299.60135,1381.4188,0.0,0.0,0.0,0.0,0.0,-0.03467453054211264,-0.051655227666224046,-0.2135918849148778,-0.15466971973721286,-0.03392986712761717,-0.02788752950153487,-0.3253756117845727
3480,6.0,299.44402,1591.0852,0.0,0.0,0.0,0.0,0.0,-0.03468449735169646,-0.1123619684367629,-0.2122382739737868,-0.15904993912450685,-0.0035929027813418964,-0.027740935516817174,-0.3022090262682087
3481,6.0,300.31372000000005,1785.6731,0.0,0.0,0.0,0.0,0.0,-0.034694464161280275,-0.1275387830720979,-0.21601578180409778,-0.1992454692664968,0.009029031009770982,-0.0012234593710460388,-0.3695165250334416
3482,6.0,299.25702,1408.9423,0.0,0.0,0.0,0.0,0.0,-0.034704430970864064,-0.03240415261729087,-0.24795585675633777,-0.14792324725888786,0.028126207655340574,-0.0006672148253014763,-0.34254420253898066
3483,6.0,299.55245,1002.1382,0.0,0.0,0.0,0.0,0.0,-0.03471439778044791,-0.002133203744180818,-0.17687850019904883,-0.12561328364206586,0.03210261952003187,-0.0002626581055748368,-0.37222473990072164
3484,6.0,299.70137,1284.0357,0.0,0.0,0.0,0.0,0.0,-0.034724364590031725,-0.045434150696001555,-0.1955319076499968,-0.14934871789707085,0.002698850308530787,0.0036375160819198866,-0.2945027323676567
3485,6.0,299.37009,1623.6733,0.0,0.0,0.0,0.0,0.0,-0.03473433139961557,-0.0971519566884016,-0.24369320477814677,-0.15271096543889884,0.00016845012374723284,0.024474213141416776,-0.3342888486742407
3486,6.0,299.70864,1585.7625,0.0,0.0,0.0,0.0,0.0,-0.03474429820919939,-0.13561203562886587,-0.1993174302885988,-0.14710271732790786,-0.03356594112895047,0.018821045626992584,-0.28197497905876373
3487,6.0,300.74795,1543.4717,0.0,0.0,0.0,0.0,0.0,-0.034754265018783204,-0.07612182927288963,-0.25333900122511277,-0.13971603290639886,-0.02853611899654567,-0.01779456856018718,-0.3357473715306857
3488,6.0,299.14949,1708.3242,0.0,0.0,0.0,0.0,0.0,-0.03476423182836702,-0.07040419980035352,-0.24216913477273275,-0.2067145613186388,-0.025526734788792575,-0.023610344477159578,-0.3118907930937247
3489,6.0,300.63392000000005,1854.6456,0.0,0.0,0.0,0.0,0.0,-0.034774198637950865,-0.1107487830850539,-0.26309240483269875,-0.1899247538491138,-0.0036866036922894568,-0.002563747390547168,-0.33427411601778667
3490,6.0,301.1524,1684.7442,0.0,0.0,0.0,0.0,0.0,-0.034784165447534654,-0.07973810976053873,-0.2580726017172828,-0.17430945523300384,0.02446547791230468,-0.011327333623920788,-0.3558093587406497
3491,6.0,300.07431,1351.4729,0.0,0.0,0.0,0.0,0.0,-0.03479413225711847,-0.050886736233879855,-0.1996509314265128,-0.16027635678054483,0.04524268493060536,0.01039182919084369,-0.3354490301712417
3492,6.0,299.17845,1182.6166,0.0,0.0,0.0,0.0,0.0,-0.03480409906670229,-0.058469562569996546,-0.21797675512013082,-0.08303960485287092,0.03207699746475317,0.015754710684118885,-0.3564183423157517
3493,6.0,299.57411,1554.5378,0.0,0.0,0.0,0.0,0.0,-0.03481406587628613,-0.06424984230946575,-0.24399657185808676,-0.16429425819708085,0.03186702164653017,0.02744701800730977,-0.34724493319790667
3494,6.0,299.26086000000004,1737.0497,0.0,0.0,0.0,0.0,0.0,-0.03482403268586995,-0.09813527740694782,-0.23086089888669678,-0.1990235573620958,-0.03558174140789447,0.004880789153371386,-0.3433039881264657
3495,6.0,298.03629,1513.1033,0.0,0.0,0.0,0.0,0.0,-0.034833999495453793,-0.07310129120803573,-0.24682986231771076,-0.14001445532585086,-0.043130812330179756,-0.032147453810456667,-0.31446073985235873
3496,6.0,298.91087999999996,1524.3813,0.0,0.0,0.0,0.0,0.0,-0.034843966305037555,-0.08048589137408901,-0.21624022683374877,-0.16664773420435083,-0.01983870944442818,-0.005261467621241425,-0.2946631501234887
3497,6.0,299.35714,1873.6612,0.0,0.0,0.0,0.0,0.0,-0.0348539331146214,-0.13339409195497187,-0.26705518544379475,-0.16909695221356985,-0.018422936622952284,0.025444784133954675,-0.28388407396967674
3498,6.0,299.89564,1796.0869,0.0,0.0,0.0,0.0,0.0,-0.034863899924205216,-0.13721015395158787,-0.24421793660743374,-0.16453746861858384,0.02154769657984208,0.0003013170318076757,-0.2831626905609817
3499,6.0,299.75962000000004,1557.9751,0.0,0.0,0.0,0.0,0.0,-0.03487386673378906,-0.07044932489355703,-0.2260361058855268,-0.17710010812841984,-0.005711760525306875,-0.012746897014020788,-0.3233368005958577
3500,6.0,300.13268999999997,1510.0672,0.0,0.0,0.0,0.0,0.0,-0.03488383354337288,-0.091007308159972,-0.24156150895276476,-0.12645390632252887,0.003231516696700867,0.017326010303194084,-0.3461780619026147
3501,6.0,299.20411,1462.2888,0.0,0.0,0.0,0.0,0.0,-0.034893800352956694,-0.08159075042888013,-0.1958616192325368,-0.16704690408124584,0.01766810684170638,0.0017492570381132287,-0.35914092506944967
3502,6.0,300.81824,1444.7301,0.0,0.0,0.0,0.0,0.0,-0.03490376716254048,-0.06330692696515723,-0.24215212230355376,-0.13370281912794088,-0.024947913642667376,0.012887485465395788,-0.36223426616723864
3503,6.0,300.60496,1180.7033,0.0,0.0,0.0,0.0,0.0,-0.03491373397212433,-0.02621108795933297,-0.20380750625173483,-0.1288857470925329,-0.025567039851270373,-0.03827982580067467,-0.34966025799128064
3504,6.0,298.61393,1094.5203,0.0,0.0,0.0,0.0,0.0,-0.034923700781708145,-0.03320909673523267,-0.18002474308455882,-0.1194729981685669,-0.0006559636049985674,0.007771312842243863,-0.3190598009962507
3505,6.0,298.84487,1422.8162,0.0,0.0,0.0,0.0,0.0,-0.03493366759129199,-0.023456038645930776,-0.2646427281482038,-0.14440182825885087,0.016475248028980385,0.02067846478280558,-0.3246572681261777
3506,6.0,299.85447,1648.116,0.0,0.0,0.0,0.0,0.0,-0.03494363440087578,-0.1057232855040759,-0.24253419865126177,-0.15272862638814186,0.03692228040944537,0.01200668539196759,-0.3307742893773807
3507,6.0,299.26875,1748.5844,0.0,0.0,0.0,0.0,0.0,-0.03495360121045962,-0.11672581370244088,-0.23182203753405378,-0.1829781340785358,-0.01887586043090238,-0.02314437203442168,-0.3011467956583747
3508,6.0,298.95583,1706.5995,0.0,0.0,0.0,0.0,0.0,-0.03496356802004344,-0.097590485252181,-0.26217687257234273,-0.15899628753171186,-0.005720998833093625,0.0008150941380360284,-0.34091904057108974
3509,6.0,298.96939,1682.5201,0.0,0.0,0.0,0.0,0.0,-0.034973534829627284,-0.1068387421416629,-0.22500160793092977,-0.1796037579330108,-0.0015953844726271885,0.012715376829909988,-0.3158120608482237
3510,6.0,299.55563,1646.0673,0.0,0.0,0.0,0.0,0.0,-0.03498350163921107,-0.08428120808815763,-0.22759831462470478,-0.1884838311469058,-0.018198090346261683,0.028274289091205076,-0.3234122066682997
3511,6.0,300.63822000000005,1442.5209,0.0,0.0,0.0,0.0,0.0,-0.03499346844879489,-0.06199764368944104,-0.2123202965693818,-0.16417238447505283,-0.03423031402076897,-0.024281140361361978,-0.3295456831011267
3512,6.0,300.42502,1219.24,0.0,0.0,0.0,0.0,0.0,-0.03500343525837871,-0.052442782385949654,-0.16906212680763286,-0.14911361347636787,-0.004369762544936985,-0.00936454729948386,-0.3347287816026587
3513,6.0,299.98997,1309.8392,0.0,0.0,0.0,0.0,0.0,-0.03501340206796255,-0.06435722351531344,-0.21442622544472079,-0.11937496622139189,0.025880267881183576,-0.009146238005813411,-0.35706450203702267
3514,6.0,299.94517,1500.655,0.0,0.0,0.0,0.0,0.0,-0.03502336887754637,-0.07605623956741643,-0.2230863929894128,-0.15701901102156987,0.03206543729436227,0.0006818833227591444,-0.3477196712672596
3515,6.0,299.98752,1540.6499,0.0,0.0,0.0,0.0,0.0,-0.03503333568713021,-0.07576388043656283,-0.21051600211631177,-0.1820392261383728,-0.0028345908648023375,-0.02008407808864418,-0.3115957954596107
3516,6.0,300.70676000000003,1803.9561,0.0,0.0,0.0,0.0,0.0,-0.035043302496713974,-0.08005343217840863,-0.2698725476118467,-0.1984316166536758,-0.004820067709328645,0.004816068715158975,-0.27225178043665876
3517,6.0,299.71204,1871.565,0.0,0.0,0.0,0.0,0.0,-0.03505326930629782,-0.08575150693726483,-0.23843376801408078,-0.24472374092485275,-0.01145736400925379,0.014216530157812286,-0.2835515962143637
3518,6.0,299.75752,1697.9412,0.0,0.0,0.0,0.0,0.0,-0.035063236115881635,-0.09614884618215232,-0.25404191308448476,-0.16594095172959686,-0.031833897487511066,0.006924930746887453,-0.3111233372029827
3519,6.0,299.71587999999997,1482.3111,0.0,0.0,0.0,0.0,0.0,-0.03507320292546548,-0.06408386890333544,-0.2187299951119698,-0.16777171227527884,-0.03427396888807737,-0.033561079554970674,-0.35312731612345266
3520,6.0,298.70387999999997,1472.3165,0.0,0.0,0.0,0.0,0.0,-0.0350831697350493,-0.0935012459623545,-0.2126418717536188,-0.14140433048802087,-0.03852917854428386,0.0007320396992016934,-0.35156466155423066
3521,6.0,298.40699,1249.0272,0.0,0.0,0.0,0.0,0.0,-0.03509313654463311,-0.039798118254018466,-0.22665034822864777,-0.1132246090418989,0.03433156810326196,0.019283111990594983,-0.38994440698701666
3522,6.0,299.24064,1140.6773,0.0,0.0,0.0,0.0,0.0,-0.0351031033542169,-0.013534590549010087,-0.2118598250614368,-0.1213429917581209,0.015453103619602587,0.03505017419343287,-0.37435364928832865
3523,6.0,298.68522,1268.5047,0.0,0.0,0.0,0.0,0.0,-0.03511307016380075,-0.04122065350666176,-0.20019596878780382,-0.14417714004917587,0.028125325114503476,-0.013250873428259386,-0.34747931821103867
3524,6.0,299.16819,1419.0424,0.0,0.0,0.0,0.0,0.0,-0.035123036973384564,-0.09280202334659661,-0.2136416861572928,-0.12490974356763189,0.003456282217358497,-0.014832701729123687,-0.33706502222572765
3525,6.0,299.55155,1725.694,0.0,0.0,0.0,0.0,0.0,-0.03513300378296841,-0.097123853183628,-0.24424188983979778,-0.1832021535431448,0.02275673699666508,-0.001837148175637408,-0.3137694398391327
3526,6.0,300.42322,1833.2854,0.0,0.0,0.0,0.0,0.0,-0.0351429705925522,-0.11671632968150489,-0.26847335054875676,-0.17208331436580082,-0.006366661555190574,0.004911309766258535,-0.3275387791580607
3527,6.0,300.68717999999996,1709.404,0.0,0.0,0.0,0.0,0.0,-0.03515293740213604,-0.08129689472762883,-0.25703761740263775,-0.18128160890610184,-0.0033412470215804066,-0.02806231109078447,-0.2795533518497677
3528,6.0,300.19935,1523.5649,0.0,0.0,0.0,0.0,0.0,-0.03516290421171986,-0.06465984382992973,-0.22211082566063178,-0.17635500453488384,-0.02564026946249758,0.01899588497149788,-0.3242138901474197
3529,6.0,299.43624,1743.0619,0.0,0.0,0.0,0.0,0.0,-0.0351728710213037,-0.1118123005225149,-0.23850300339341376,-0.17953199956092883,0.023941694485111277,0.025900317060912274,-0.2883384936617937
3530,6.0,299.91536,1826.3637,0.0,0.0,0.0,0.0,0.0,-0.03518283783088749,-0.12312749743673788,-0.25946909340260577,-0.17257236965906683,0.02079052923061548,0.030280630680465572,-0.36073908392217563
3531,6.0,299.32057000000003,1236.4205,0.0,0.0,0.0,0.0,0.0,-0.03519280464047131,-0.017533590798180683,-0.2148435223659048,-0.14346385250877985,0.004395768824653605,-0.031491892141507764,-0.35621621918580365
3532,6.0,300.17201,1106.1493,0.0,0.0,0.0,0.0,0.0,-0.035202771450055126,-0.06809787133348663,-0.19448354843403182,-0.07366036005671152,0.00957305076398655,-0.04233319502371106,-0.3926221939537936
3533,6.0,299.06564,1649.0203,0.0,0.0,0.0,0.0,0.0,-0.03521273825963897,-0.07454811001257564,-0.24467827639286577,-0.18203459558541582,-0.009959735474474362,-0.023445105677351776,-0.3378319410939167
3534,6.0,300.04124,1580.8836,0.0,0.0,0.0,0.0,0.0,-0.03522270506922279,-0.07277727611755794,-0.25924445585543576,-0.14852738749851185,0.005128777961020975,-0.002658274708276287,-0.35716609049204867
3535,6.0,300.28705,1487.8339999999998,0.0,0.0,0.0,0.0,0.0,-0.03523267187880663,-0.06213900626389243,-0.23576971058615875,-0.15435568313371986,-0.011581271324232489,-0.01293982287281109,-0.29897789328932073
3536,6.0,300.76232999999996,1715.2252,0.0,0.0,0.0,0.0,0.0,-0.03524263868839039,-0.0993679498558531,-0.2550813151695658,-0.16693635849533583,-0.004229350196429366,-0.0004563753430907396,-0.29981571939950774
3537,6.0,299.86242000000004,1749.8186,0.0,0.0,0.0,0.0,0.0,-0.03525260549797424,-0.07953041780804113,-0.2699886255433028,-0.18238210997221282,0.015115660938799588,0.013496772002277686,-0.3127113939522117
3538,6.0,300.66278,1899.3031,0.0,0.0,0.0,0.0,0.0,-0.035262572307558054,-0.12406257529152288,-0.28804500577032877,-0.16523314587224186,0.019565956703009584,0.026523658389931273,-0.3250047318504697
3539,6.0,299.67666,1862.3903,0.0,0.0,0.0,0.0,0.0,-0.0352725391171419,-0.07779120947514462,-0.2822319291516227,-0.2060970056476908,0.00879274098512597,0.0013405273491747488,-0.33233600162400967
3540,6.0,299.51987,1360.65,0.0,0.0,0.0,0.0,0.0,-0.035282505926725716,-0.05729106049793745,-0.2120005249703228,-0.14431205429999086,-0.02297899239284998,-0.002646066969746478,-0.3358908477448457
3541,6.0,299.09109,1124.0054,0.0,0.0,0.0,0.0,0.0,-0.03529247273630953,-0.06106925531181624,-0.16953706752700584,-0.11106323512108789,-0.02318667522609668,-0.014687649911058184,-0.3403493001723607
3542,6.0,299.8343,1337.7943,0.0,0.0,0.0,0.0,0.0,-0.03530243954589335,-0.05386776159783415,-0.2082932455044428,-0.14449505740055185,-0.02254763358677818,-0.01864720534708588,-0.35478445626449967
3543,6.0,299.56602999999996,1516.5221,0.0,0.0,0.0,0.0,0.0,-0.035312406355477194,-0.09089938283882061,-0.2174065992888608,-0.15267886567573086,-0.016656722135140484,-0.035432691304934365,-0.34452618052958667
3544,6.0,299.69437,1402.6517,0.0,0.0,0.0,0.0,0.0,-0.03532237316506098,-0.05641720726719485,-0.21868414554494478,-0.15126974889416184,0.006046272278870614,-0.017904517341788283,-0.3361182109347847
3545,6.0,299.61391000000003,1573.2289,0.0,0.0,0.0,0.0,0.0,-0.03533233997464483,-0.07130513923276934,-0.22758872927875878,-0.1793284477483398,0.02959953916199707,-0.007933864198811431,-0.3236497226242407
3546,6.0,299.63178999999997,1856.1872,0.0,0.0,0.0,0.0,0.0,-0.035342306784228616,-0.11099186178404388,-0.2555134562047148,-0.19772923168435583,0.026354127462699873,0.005570852900150375,-0.3018505586478307
3547,6.0,299.56054,1683.4175,0.0,0.0,0.0,0.0,0.0,-0.03535227359381246,-0.0986093335589835,-0.24735543514458075,-0.16575212244096085,0.028217882471388175,0.009342180310151412,-0.2979132714092507
3548,6.0,299.76333999999997,1792.4155,0.0,0.0,0.0,0.0,0.0,-0.03536224040339628,-0.06898392612193344,-0.25932129061051873,-0.21654433358626182,0.006248075424437035,0.01244908761087929,-0.30702154881066773
3549,6.0,299.68504,1878.4947,0.0,0.0,0.0,0.0,0.0,-0.03537220721298012,-0.12837092484922388,-0.24228018698369275,-0.2003643709544238,-0.04110600425784676,0.02400167179828058,-0.3104934401458167
3550,6.0,299.66759,1528.9293,0.0,0.0,0.0,0.0,0.0,-0.03538217402256391,-0.05498431153227904,-0.24146144037288877,-0.16831056881095985,-0.04762204441167986,0.0019167514339686381,-0.3419948993947687
3551,6.0,299.60751,1361.9158,0.0,0.0,0.0,0.0,0.0,-0.03539214083214773,-0.04307887110355356,-0.2112590488121448,-0.15965046206127387,-0.050018233976915356,-0.0025705957453230474,-0.37267223167488567
3552,6.0,300.36163999999997,1565.4587,0.0,0.0,0.0,0.0,0.0,-0.035402107641731545,-0.08757040435077602,-0.21804715573707878,-0.17024280635415684,-0.015470245784794385,-0.012558122440890189,-0.3262871214420317
3553,6.0,300.24136,1447.2537,0.0,0.0,0.0,0.0,0.0,-0.03541207445131539,-0.1070533079828389,-0.18045191919421782,-0.15242374956555285,-0.015304907686476786,0.009630656463971791,-0.35413785071318465
3554,6.0,300.82452,1394.2775,0.0,0.0,0.0,0.0,0.0,-0.035422041260899206,-0.05455470058262974,-0.21365385529099382,-0.15561698699070084,0.015298860609879986,0.0034168047775623767,-0.35355976113363163
3555,6.0,301.0907,1520.4289,0.0,0.0,0.0,0.0,0.0,-0.03543200807048305,-0.08090276982298172,-0.2210665498425698,-0.16020310893081585,0.025796161030132877,0.0029359759605332675,-0.3377349933243487
3556,6.0,299.65432000000004,1645.8276,0.0,0.0,0.0,0.0,0.0,-0.03544197488006681,-0.03953833308737967,-0.24921718087832076,-0.2115349770793768,0.040571693162114356,0.012806359596139289,-0.3187153364922547
3557,6.0,299.84424,1676.6243,0.0,0.0,0.0,0.0,0.0,-0.03545194168965066,-0.08377414430086433,-0.23295145675801876,-0.1929263350178468,-0.0016203124515873886,0.013226873586390788,-0.31845953137200866
3558,6.0,299.82689,1790.9149,0.0,0.0,0.0,0.0,0.0,-0.035461908499234474,-0.12378074990870887,-0.2691868508716737,-0.15142579954206287,-0.016571303125210286,-0.014011026825530685,-0.31661717924518273
3559,6.0,299.27164,1529.8285,0.0,0.0,0.0,0.0,0.0,-0.03547187530881832,-0.07841957348490933,-0.2183146942934828,-0.16829540045696284,-0.03891100664571736,-0.022545202799788278,-0.3108733988008157
3560,6.0,299.33696000000003,1231.7605,0.0,0.0,0.0,0.0,0.0,-0.035481842118402135,-0.03727725940972907,-0.22676072156204077,-0.1103864448492939,-0.013966715372157488,-0.0031748617292844572,-0.3469334702496677
3561,6.0,300.65932999999995,1562.2358,0.0,0.0,0.0,0.0,0.0,-0.03549180892798595,-0.06222467453334724,-0.25446615076885376,-0.15818985190962284,-0.004146101669538376,0.02646101926874927,-0.3483215114291567
3562,6.0,300.527,1665.8898,0.0,0.0,0.0,0.0,0.0,-0.03550177573756977,-0.098877829636732,-0.22414127753602175,-0.18336980590469082,0.007803653860260673,0.033701395442068766,-0.3905041364747576
3563,6.0,300.65281,1301.5538,0.0,0.0,0.0,0.0,0.0,-0.03551174254715361,-0.036012353448642564,-0.2195170168621428,-0.14011048103782786,0.01044114204671049,0.012914295049791687,-0.34748273286387565
3564,6.0,300.17352,1054.7257,0.0,0.0,0.0,0.0,0.0,-0.0355217093567374,-0.05277929388991075,-0.16519535164351185,-0.1026356186068469,-0.001701305990380828,-0.02232306595386508,-0.36921802155398165
3565,6.0,299.59836,1544.5965,0.0,0.0,0.0,0.0,0.0,-0.03553167616632125,-0.06345181564995664,-0.2213715279901688,-0.1846954106130178,0.007878989511820722,-0.014188668819812587,-0.3070420873901947
3566,6.0,299.52524,1754.6808,0.0,0.0,0.0,0.0,0.0,-0.035541642975905036,-0.12686947058604187,-0.2612695983003018,-0.14524005966907785,-0.008055200594311402,-0.03955418335869396,-0.3637290228472596
3567,6.0,299.02915,1670.6862,0.0,0.0,0.0,0.0,0.0,-0.03555160978548888,-0.08015045999473452,-0.24236818775487776,-0.1853282562279748,-0.00037684143159635365,-0.005107504065896404,-0.3134590813335027
3568,6.0,299.41937,1524.5355,0.0,0.0,0.0,0.0,0.0,-0.0355615765950727,-0.05876196223085415,-0.24739895423637576,-0.15725982004033584,0.00021578412243373481,-0.022322368837796275,-0.34125866173960767
3569,6.0,299.5109,1514.5631,0.0,0.0,0.0,0.0,0.0,-0.03557154340465654,-0.06324033211558484,-0.22582501549219378,-0.17132401513836382,0.014249147691781386,0.014039763611616787,-0.2906073024907077
3570,6.0,300.1628,1651.8755,0.0,0.0,0.0,0.0,0.0,-0.03558151021424033,-0.11643375449361688,-0.23651232158444876,-0.14918284885570085,-0.0032193596206760568,-0.008805373579422711,-0.3459272723703637
3571,6.0,300.63174,1836.5777,0.0,0.0,0.0,0.0,0.0,-0.03559147702382415,-0.10917816437004589,-0.25091533738341576,-0.19818024956886782,-0.016159009633020086,-0.0007747421114160932,-0.3193960176444327
3572,6.0,300.62596,1509.7999,0.0,0.0,0.0,0.0,0.0,-0.035601443833407964,-0.0985558278742029,-0.2042607938164708,-0.15612485833832385,-0.006107803715043295,-0.02099293505734138,-0.3432597090970957
3573,6.0,300.91848999999996,1202.5368,0.0,0.0,0.0,0.0,0.0,-0.03561141064299181,-0.020532400727890178,-0.21162123506038977,-0.13338753622682487,-0.004585310732084936,0.016649027513881087,-0.35447907281686064
3574,6.0,300.27833,1582.9002,0.0,0.0,0.0,0.0,0.0,-0.035621377452575625,-0.07867970518308233,-0.26052135363145573,-0.14196108102046787,0.0037225863311656665,-0.001013950154494089,-0.38897387551123264
3575,6.0,299.51341,1763.8696,0.0,0.0,0.0,0.0,0.0,-0.03563134426215944,-0.13905333694349586,-0.2160603242784938,-0.18105864322159682,0.0032780648996698167,-0.00021337776490374578,-0.3245423047698317
3576,6.0,298.79263,1495.8345,0.0,0.0,0.0,0.0,0.0,-0.03564131107174323,-0.055954082057237946,-0.26176170347636873,-0.13698055147892788,0.03877543783533776,-0.013946108904873787,-0.3378291850536447
3577,6.0,299.12416,1339.0931,0.0,0.0,0.0,0.0,0.0,-0.035651277881327076,-0.04152659829485616,-0.23878058325830875,-0.12674367558612687,0.019517191002196784,-0.017434789794179784,-0.3305244117702197
3578,6.0,298.52166,1594.4229999999998,0.0,0.0,0.0,0.0,0.0,-0.03566124469091089,-0.09311781185951251,-0.2244295978519768,-0.16711736549319983,0.024651401199653877,-0.04466809106389737,-0.33407805212343666
3579,6.0,298.90695,1821.0974,0.0,0.0,0.0,0.0,0.0,-0.03567121150049471,-0.07530667260718993,-0.3034713839052937,-0.17479007015293682,0.009915599617343491,-0.008375279208150701,-0.34528176112915665
3580,6.0,299.43467999999996,1619.7049,0.0,0.0,0.0,0.0,0.0,-0.035681178310078554,-0.057124977660796356,-0.2297253292346248,-0.2054995427262258,-0.012286154968299089,0.016343606575988382,-0.31766238725333673
3581,6.0,299.65502999999995,1462.4693,0.0,0.0,0.0,0.0,0.0,-0.03569114511966237,-0.06696465444814685,-0.22578364449061078,-0.15180584938957087,-0.03198780409820047,0.024865512091534977,-0.33223235627128067
3582,6.0,299.21599,1369.5647,0.0,0.0,0.0,0.0,0.0,-0.03570111192924619,-0.051689402565596856,-0.20535141569410678,-0.15927264136398583,-0.029525410797931174,-0.0024689305872644778,-0.32765110806414666
3583,6.0,299.95153999999997,1407.4849,0.0,0.0,0.0,0.0,0.0,-0.03571107873882998,-0.07572506383848193,-0.19237711293364282,-0.15973808792992183,-0.03717335365172436,0.012355645686657288,-0.3610504860754086
3584,6.0,299.83681,1669.6709,0.0,0.0,0.0,0.0,0.0,-0.03572104554841382,-0.09561836314529772,-0.24502849615742975,-0.16689141072089983,-0.008137372441646131,0.0020129489931625982,-0.3309272597449777
3585,6.0,299.70949,1541.2062,0.0,0.0,0.0,0.0,0.0,-0.03573101235799764,-0.06336323327321423,-0.22598100534508878,-0.17914396530263282,-0.005911727864342115,0.005422849585868584,-0.3886759394518286
3586,6.0,299.70963,1393.8414,0.0,0.0,0.0,0.0,0.0,-0.035740979167581455,-0.06066037951221334,-0.23914246553152377,-0.12389014038950487,0.01991699416040428,-0.00992858725447527,-0.3471690407654167
3587,6.0,299.67229,1440.9089999999999,0.0,0.0,0.0,0.0,0.0,-0.0357509459771653,-0.08693272755934223,-0.21153660841203778,-0.13953100330563786,0.013769563247200089,0.014133846923152088,-0.3502018199047287
3588,6.0,300.67245,1903.0867,0.0,0.0,0.0,0.0,0.0,-0.035760912786749116,-0.11172408696880891,-0.2511046631646007,-0.2156620967241918,0.011354337752335889,0.024124608419663476,-0.28068635797908675
3589,6.0,301.03535,1761.0334,0.0,0.0,0.0,0.0,0.0,-0.035770879596332905,-0.09935578173540222,-0.2534020355138338,-0.1825523562540148,-0.009225581973444051,-0.0012736637856758288,-0.3289648374813017
3590,6.0,300.14997,1658.1089,0.0,0.0,0.0,0.0,0.0,-0.03578084640591675,-0.07572754832772713,-0.2335043772050878,-0.1947917689819508,0.001033319038105649,-0.02912197817786547,-0.32130385612522167
3591,6.0,298.93939,1654.7618,0.0,0.0,0.0,0.0,0.0,-0.035790813215500566,-0.08794784406602642,-0.22450166019908877,-0.1905567787314898,-0.0010767331571902889,-0.014988236632723787,-0.3429622593977397
3592,6.0,299.10532,1604.2934,0.0,0.0,0.0,0.0,0.0,-0.03580078002508438,-0.0938133482714066,-0.21922465367828878,-0.17462712940435585,0.008138025076035543,-0.011170620310454389,-0.3309303298927807
3593,6.0,298.67248,1500.6898,0.0,0.0,0.0,0.0,0.0,-0.0358107468346682,-0.06697242101016335,-0.2097068915139588,-0.17949291850457183,0.0006781340238116174,-0.001012823197467867,-0.3309444849966777
3594,6.0,299.40542999999997,1577.7152,0.0,0.0,0.0,0.0,0.0,-0.035820713644252045,-0.08180623934089722,-0.2366917479121568,-0.16108803090565085,-0.01116538890018809,0.01018249273343379,-0.3409916298082537
3595,6.0,299.51355,1280.6366,0.0,0.0,0.0,0.0,0.0,-0.03583068045383586,-0.04780538188477386,-0.21139598956315983,-0.13008019670791587,0.005271974822128405,0.01876663510987268,-0.3349537231248587
3596,6.0,299.71207000000004,1149.5344,0.0,0.0,0.0,0.0,0.0,-0.03584064726341965,-0.026368044452823373,-0.19614118506762782,-0.12692051812607988,-0.00016113555233534084,0.010451801437762491,-0.3560950648713467
3597,6.0,300.67343999999997,1878.2522,0.0,0.0,0.0,0.0,0.0,-0.03585061407300347,-0.0926265892242826,-0.28806904006270073,-0.1902461466483328,-0.004575593764950946,-0.01953587432079068,-0.3552789527108027
3598,6.0,301.27328,2012.9575,0.0,0.0,0.0,0.0,0.0,-0.03586058088258731,-0.14786426597056687,-0.27159966280479975,-0.1924248978083588,0.006399673750073624,-0.02918085104842577,-0.3463224399093637
3599,6.0,300.25604,1577.2839,0.0,0.0,0.0,0.0,0.0,-0.03587054769217113,-0.029655502991520272,-0.26979202462639973,-0.18000740637534782,0.021850634041739682,-0.02148593898624708,-0.3255363335154347
3600,6.0,299.89484,1459.6268,0.0,0.0,0.0,0.0,0.0,-0.03588051450175497,-0.07736010904784833,-0.21345905795926878,-0.15287093736468685,0.017587334596734786,-0.007101993263437164,-0.3138092707005637
3601,6.0,299.6027,1743.1615,0.0,0.0,0.0,0.0,0.0,-0.03589048131133876,-0.09392241349892051,-0.24126316759332078,-0.1946920043771048,-0.004837228720972305,-0.0004316043672335347,-0.3039585241558707
3602,6.0,299.03112000000004,1692.3674,0.0,0.0,0.0,0.0,0.0,-0.03590044812092261,-0.08738694427441991,-0.26201164187853576,-0.16503885516556685,-0.008980933648724142,0.0034625192783490463,-0.3473802730137637
3603,6.0,299.92421,1606.9579999999999,0.0,0.0,0.0,0.0,0.0,-0.035910414930506396,-0.08583036211304722,-0.2205477455263678,-0.18209699152657383,-0.007840418626889072,0.013310919642435488,-0.33277483010981873
3604,6.0,300.73944,1428.4327,0.0,0.0,0.0,0.0,0.0,-0.03592038174009024,-0.08934985391139401,-0.2000744902333148,-0.14478353983652287,-0.011022711127106889,0.015292944242546085,-0.3332480584365227
3605,6.0,300.8921,1386.8159,0.0,0.0,0.0,0.0,0.0,-0.03593034854967406,-0.025200233182569375,-0.23567134426645078,-0.16068582127845585,-0.010364558577652292,-0.009754468026816041,-0.3429930723332807
3606,6.0,301.95318,1784.8031,0.0,0.0,0.0,0.0,0.0,-0.035940315359257874,-0.1265630637558019,-0.22679664127808577,-0.18917586070020384,-0.027096543916970677,0.0013881070407454987,-0.3370616379703937
3607,6.0,300.42174,2041.5339,0.0,0.0,0.0,0.0,0.0,-0.03595028216884169,-0.14023032825965587,-0.28191842957068275,-0.19842657066817782,-0.00890276981348497,-0.006685888532320824,-0.3186808251938487
3608,6.0,300.25494,1486.3669,0.0,0.0,0.0,0.0,0.0,-0.035960248978425535,-0.07176113014877213,-0.22423183169745878,-0.15582546319877585,-0.005044003783454415,0.017988851160861383,-0.3373346278123357
3609,6.0,300.08327,1191.0487,0.0,0.0,0.0,0.0,0.0,-0.035970215788009324,-0.05186438984461675,-0.22626423914554178,-0.08392043836355241,0.012190420059100789,-0.005310315699287355,-0.3367148733886707
3610,6.0,299.45002,1679.1967,0.0,0.0,0.0,0.0,0.0,-0.03598018259759317,-0.08378177610061752,-0.25934482841034173,-0.16730725869444082,0.04371219598580786,-0.0033833825203638565,-0.3568930702526037
3611,6.0,299.74725,1876.6760000000002,0.0,0.0,0.0,0.0,0.0,-0.03599014940717696,-0.1019096755727019,-0.26340096988565176,-0.20515199794192582,0.01965261998406258,0.0025096795546110874,-0.3257875587452287
3612,6.0,300.76065,1395.5262,0.0,0.0,0.0,0.0,0.0,-0.0360001162167608,-0.04570853780983146,-0.23607601609138876,-0.14242056967581587,0.008348700340802572,-0.0075184061239089136,-0.3316485924911677
3613,6.0,299.30866000000003,1343.1547,0.0,0.0,0.0,0.0,0.0,-0.03601008302634462,-0.051290612657489354,-0.2138866596339698,-0.14310822198868184,-0.02820166236378737,-0.017061407132329783,-0.34980998595855767
3614,6.0,300.02423,1718.5472,0.0,0.0,0.0,0.0,0.0,-0.036020049835928464,-0.08828971566301651,-0.25119780111379275,-0.18290793611160783,-0.023900096515505877,0.018035106027926382,-0.35013803581093367
3615,6.0,299.52087,1737.2358,0.0,0.0,0.0,0.0,0.0,-0.03603001664551228,-0.10670591518605389,-0.25644201886135676,-0.16492838050716385,0.00024097202030958683,0.017897701208365584,-0.38075359023245364
3616,6.0,299.29994,1699.7005,0.0,0.0,0.0,0.0,0.0,-0.03603998345509607,-0.057529358682955646,-0.24920906474501975,-0.20992809414328978,-0.012915566678667187,0.017575111760778483,-0.3375583331694137
3617,6.0,299.31755,1482.4998,0.0,0.0,0.0,0.0,0.0,-0.036049950264679886,-0.06628267430934064,-0.23593246894972178,-0.14842778501368184,-0.017066230202805784,-0.028483346904837472,-0.36473542337658366
3618,6.0,300.2024,1182.276,0.0,0.0,0.0,0.0,0.0,-0.03605991707426373,-0.04429537309411296,-0.1876160128337588,-0.12747100677290887,0.004842867863078845,-0.018585423435488482,-0.3158916617760797
3619,6.0,300.78092000000004,1519.1524,0.0,0.0,0.0,0.0,0.0,-0.03606988388384755,-0.08494128277305192,-0.21704255879293277,-0.15980055479858685,0.013224861271692187,0.01058505395841349,-0.3486822791272617
3620,6.0,301.31651,1988.6373,0.0,0.0,0.0,0.0,0.0,-0.03607985069343139,-0.12615421734045187,-0.27909570730960176,-0.1992461582765648,0.006434543840340034,0.018290404523122382,-0.2811740048547137
3621,6.0,299.81043999999997,1539.4519,0.0,0.0,0.0,0.0,0.0,-0.03608981750301518,-0.09156524014203561,-0.22263001501187177,-0.15375968942489984,-0.019157396024187784,-0.006883583354031784,-0.34922581687840465
3622,6.0,300.4506,1649.5728,0.0,0.0,0.0,0.0,0.0,-0.036099784312599026,-0.050549385758835955,-0.25568513116915775,-0.1951944143066888,-0.00868280953010158,0.00937086187410706,-0.33713666914029866
3623,6.0,299.82943,1836.0176,0.0,0.0,0.0,0.0,0.0,-0.036109751122182815,-0.13813531208789387,-0.24282500142996177,-0.17714318139017082,0.012264432912655289,0.002026526139202558,-0.35473643834226065
3624,6.0,299.78424,1729.9819,0.0,0.0,0.0,0.0,0.0,-0.03611971793176666,-0.0964802377333581,-0.22465742713696177,-0.2047336472406378,-0.01917016398869788,-0.0012718085247427286,-0.3259883747825477
3625,6.0,299.65217,1588.3055,0.0,0.0,0.0,0.0,0.0,-0.036129684741350476,-0.05693934517622584,-0.26948895138898876,-0.15637691443319984,-0.018710078529040983,-0.02049950556339368,-0.3692966294967397
3626,6.0,298.4801,1473.2618,0.0,0.0,0.0,0.0,0.0,-0.03613965155093429,-0.06854709880507194,-0.22676212997967976,-0.15252556093560085,-0.0018644825222600982,0.023665384222591578,-0.3448315133147207
3627,6.0,298.2625,1318.1735,0.0,0.0,0.0,0.0,0.0,-0.03614961836051811,-0.05913428300659935,-0.20366488116765882,-0.13789265895394587,0.012062924825517988,0.023596635203306578,-0.3505968658537167
3628,6.0,299.23181,1388.7883,0.0,0.0,0.0,0.0,0.0,-0.036159585170101954,-0.013413843561093288,-0.2361267799213988,-0.17261634471340684,0.01906574653939268,-0.005592858665822175,-0.3353063341596587
3629,6.0,299.83749,1726.1455,0.0,0.0,0.0,0.0,0.0,-0.03616955197968577,-0.09174079180136122,-0.24656353966142674,-0.18640080172382684,-0.007523486661235322,-0.05029026123126236,-0.3226129347244177
3630,6.0,300.25206000000003,1883.0972,0.0,0.0,0.0,0.0,0.0,-0.03617951878926959,-0.09551366907871522,-0.27482890100600077,-0.20207196081794981,0.014827796585389586,-0.01815969019397188,-0.33648905033888366
3631,6.0,300.90378,1544.5872,0.0,0.0,0.0,0.0,0.0,-0.03618948559885338,-0.07636982730111513,-0.2278894517759378,-0.16525666340706285,0.014807983492934185,0.0028030457547390778,-0.3494244645605097
3632,6.0,299.73385,1566.264,0.0,0.0,0.0,0.0,0.0,-0.03619945240843722,-0.08121494305954083,-0.2334839703480738,-0.16140624209955584,0.01303307227951409,0.024719397374114577,-0.3301966354953707
3633,6.0,299.66722999999996,1858.3731,0.0,0.0,0.0,0.0,0.0,-0.03620941921802104,-0.09806901996965871,-0.25790356120309976,-0.20892644575693478,-0.009499656803593132,-0.001980898980574508,-0.34909265555026264
3634,6.0,300.92843999999997,1636.6995,0.0,0.0,0.0,0.0,0.0,-0.03621938602760488,-0.07429585430742994,-0.24186849333556176,-0.18135145223549484,-0.01185965976270729,0.027486362508692772,-0.35871232027714967
3635,6.0,300.68135,1292.7455,0.0,0.0,0.0,0.0,0.0,-0.0362293528371887,-0.05311521264256336,-0.21291607749568078,-0.12693106605962087,-0.015169907309403286,-0.00047932388731808455,-0.3391256385565947
3636,6.0,299.10805,1256.8093,0.0,0.0,0.0,0.0,0.0,-0.03623931964677249,-0.07180613466521373,-0.17466202573779982,-0.13557048224226487,-0.012919334955789088,-0.015152726640707687,-0.3300198436179227
3637,6.0,299.3343,1513.8970000000002,0.0,0.0,0.0,0.0,0.0,-0.036249286456356306,-0.07787767010617762,-0.2245887591776848,-0.15772044353579584,-0.007514511393174533,-0.033188402115190266,-0.2989963243086397
3638,6.0,298.78667,1711.7220000000002,0.0,0.0,0.0,0.0,0.0,-0.03625925326594015,-0.11403385136676489,-0.23741214846825476,-0.16887475659914084,-0.004583593982440505,0.0001977571568571118,-0.3365882779211767
3639,6.0,298.76639,2125.2551,0.0,0.0,0.0,0.0,0.0,-0.03626922007552397,-0.12536562505262389,-0.2875849294299227,-0.23307391816510475,0.0026730368503081973,0.01110202733168479,-0.3070191372754297
3640,6.0,299.65862999999996,1729.7571,0.0,0.0,0.0,0.0,0.0,-0.03627918688510781,-0.0954523816331666,-0.24840003520267476,-0.18195056675462282,-0.009582804106799132,0.0032347271796427167,-0.3427018439895387
3641,6.0,298.51673,1489.4117,0.0,0.0,0.0,0.0,0.0,-0.0362891536946916,-0.06287096699038135,-0.24926548251058775,-0.14060750047687987,0.027739283919154173,-0.005908540686152564,-0.32091533550687773
3642,6.0,300.079,1842.3467,0.0,0.0,0.0,0.0,0.0,-0.036299120504275445,-0.1074455776265529,-0.26698228209909974,-0.18559952354474682,-0.00902685019158075,0.014059576704072185,-0.3584236757211627
3643,6.0,301.02936,1843.1998,0.0,0.0,0.0,0.0,0.0,-0.036309087313859234,-0.11776180113468489,-0.26205868708067875,-0.18046621615312883,0.0011742694224163687,-0.005581822751033015,-0.31154204254180573
3644,6.0,299.994,1287.5429,0.0,0.0,0.0,0.0,0.0,-0.03631905412344308,-0.04852747254203865,-0.2240521013947208,-0.11880131467727688,-0.01797887166062648,-0.008369242770679951,-0.3712814547201267
3645,6.0,300.8474,1318.2,0.0,0.0,0.0,0.0,0.0,-0.036329020933026895,-0.02229712371155478,-0.2143755629397208,-0.16402718573572284,-0.005080243585206005,-0.006299402925477664,-0.3630330010885677
3646,6.0,299.93919,1678.7658,0.0,0.0,0.0,0.0,0.0,-0.03633898774261071,-0.07692462530061943,-0.25419252257934877,-0.17918574160425582,0.008342573217447873,0.018110362139353586,-0.38576419303696163
3647,6.0,299.97567999999995,1635.8231,0.0,0.0,0.0,0.0,0.0,-0.03634895455219453,-0.10179251346363889,-0.22723922892176576,-0.16821764364428884,-5.497791792414804e-05,0.015244094441974984,-0.35051749797338366
3648,6.0,300.1768,1594.1388,0.0,0.0,0.0,0.0,0.0,-0.036358921361778374,-0.05598336599837804,-0.26444200330339374,-0.16415302126564185,-0.006469021701492734,0.024345211204935272,-0.35511622474474264
3649,6.0,299.17404,1484.3771,0.0,0.0,0.0,0.0,0.0,-0.03636888817136219,-0.08585920022414333,-0.2156007241656348,-0.14975363290203283,0.013647818207934787,-0.002822692978153107,-0.3210597743086327
3650,6.0,298.93717999999996,1516.4392,0.0,0.0,0.0,0.0,0.0,-0.036378854980946035,-0.06090322516368034,-0.24099093768895377,-0.15906548238104085,0.01294743947381279,0.008899668558903902,-0.34753326364636267
3651,6.0,299.4539,1655.0792,0.0,0.0,0.0,0.0,0.0,-0.036388821790529796,-0.07495746811922614,-0.2424073397387418,-0.18573795377340882,0.0015688221212556885,-0.016485433218985587,-0.34276220329799567
3652,6.0,298.74424,1739.9638,0.0,0.0,0.0,0.0,0.0,-0.03639878860011364,-0.10005315212997731,-0.23815131441620477,-0.19070108581073184,-0.02153742526357838,-0.028821875789747674,-0.32757273316891167
3653,6.0,299.40271,1522.9641,0.0,0.0,0.0,0.0,0.0,-0.03640875540969746,-0.09047872294055471,-0.2089867949328908,-0.16347754821897784,-0.01117610604649579,-0.012505902570486487,-0.34777776089549267
3654,6.0,299.89592999999996,1338.0902,0.0,0.0,0.0,0.0,0.0,-0.0364187222192813,-0.04085226414130456,-0.2050130306907108,-0.16088071993519085,0.011025589770640989,0.0017933618897910384,-0.35168662646876764
3655,6.0,301.2785,1737.7448,0.0,0.0,0.0,0.0,0.0,-0.03642868902886512,-0.13358976068178288,-0.22416727753358778,-0.17047399962947385,0.0067424872643566825,0.023516853916932777,-0.33401457200467166
3656,6.0,300.12051,1656.3271,0.0,0.0,0.0,0.0,0.0,-0.03643865583844891,-0.07334389975897933,-0.22138935105942778,-0.2087488230144048,-0.014887197359251985,0.004272954299907756,-0.3402267779702687
3657,6.0,299.93861,1365.3266,0.0,0.0,0.0,0.0,0.0,-0.036448622648032725,-0.03334277887392607,-0.2405662845720438,-0.14111614189457888,-0.006046696729337504,0.0019443181188392583,-0.35256293581775267
3658,6.0,299.67735,1523.2243,0.0,0.0,0.0,0.0,0.0,-0.03645858945761657,-0.050010767336928455,-0.2367779856281678,-0.17623339425788181,-0.006329860919508634,0.0045095685645847655,-0.34638748043328266
3659,6.0,299.52614,1782.8742,0.0,0.0,0.0,0.0,0.0,-0.036468556267200386,-0.11232298870541589,-0.24590092475853176,-0.18372530470227583,-0.005483132393943035,0.006077849407637034,-0.33249874985507166
3660,6.0,299.49959,1765.957,0.0,0.0,0.0,0.0,0.0,-0.03647852307678423,-0.07516642460784852,-0.2856995445713498,-0.17594086895401184,0.0011343667215532789,0.001027412600622729,-0.35772952847515566
3661,6.0,299.63124,1552.6435,0.0,0.0,0.0,0.0,0.0,-0.03648848988636802,-0.11886903018145989,-0.21512117315830678,-0.13797465115203786,-0.03127052739216077,0.008266908968880392,-0.3299098857170707
3662,6.0,298.96537,1712.2232,0.0,0.0,0.0,0.0,0.0,-0.036498456695951864,-0.051139266529802656,-0.27023191702481375,-0.1991019221248298,0.02419802953515958,0.017141929104526683,-0.37438432036885566
3663,6.0,299.99788,1589.5568,0.0,0.0,0.0,0.0,0.0,-0.03650842350553565,-0.07328948822860934,-0.24124216291874778,-0.16865392887234684,-0.002769490863102467,-0.013860027229378185,-0.35584022233869567
3664,6.0,300.08734,1526.8187,0.0,0.0,0.0,0.0,0.0,-0.0365183903151195,-0.03148164615649657,-0.24264298118199776,-0.1899901287455658,0.014985692361722685,-0.02113855530871298,-0.37717986726225466
3665,6.0,300.19035,1583.3868,0.0,0.0,0.0,0.0,0.0,-0.036528357124703315,-0.07706311024478683,-0.24090331182030578,-0.16334362695326085,-0.014700631671339384,-0.024555934801732078,-0.3466992777540547
3666,6.0,300.2311,1287.1977,0.0,0.0,0.0,0.0,0.0,-0.03653832393428713,-0.04389102956220736,-0.2061612457040308,-0.14122368826019285,0.009955933658774152,0.012698863893030288,-0.36132766064026367
3667,6.0,300.16643999999997,1305.643,0.0,0.0,0.0,0.0,0.0,-0.03654829074387095,-0.08208107633777152,-0.19334474651414083,-0.12145704318937688,0.007319542518207603,0.012048546806598988,-0.3332173164284887
3668,6.0,300.81606,1816.1966,0.0,0.0,0.0,0.0,0.0,-0.03655825755345479,-0.08136213080881712,-0.26826326327302275,-0.2024530340480588,0.006962943128363983,-0.002042082567987858,-0.36826811985023367
3669,6.0,301.08675,1866.2778,0.0,0.0,0.0,0.0,0.0,-0.03656822436303861,-0.1115914727957209,-0.2525916583488558,-0.2031187190987568,-0.008646838847576553,0.004866952108680776,-0.3261453576205407
3670,6.0,300.4425,1569.3804,0.0,0.0,0.0,0.0,0.0,-0.036578191172622454,-0.07866599692247941,-0.24131951443138175,-0.15706693775129987,-0.006527475390486665,-0.006482583040831134,-0.3691666599064126
3671,6.0,300.31233,1859.0347,0.0,0.0,0.0,0.0,0.0,-0.036588157982206215,-0.11723818388050788,-0.24729379914099775,-0.20056815581453583,-0.016001196943195184,-0.006611775265681415,-0.28577630839892576
3672,6.0,299.62752,1758.1247,0.0,0.0,0.0,0.0,0.0,-0.03659812479179006,-0.14191752139866887,-0.22290563930407378,-0.16960283759099684,0.004817812417256066,-0.027399183483338873,-0.3141438357510827
3673,6.0,300.01061,1621.4183,0.0,0.0,0.0,0.0,0.0,-0.03660809160137388,-0.09199943908813772,-0.2309155130670868,-0.16995570193832185,-0.006129658607775204,0.004887837118416965,-0.3099851736306547
3674,6.0,299.88903,1557.7924,0.0,0.0,0.0,0.0,0.0,-0.03661805841095772,-0.07192628180907133,-0.21680112155910478,-0.18480257194359384,0.017254268143113684,0.008398566735199002,-0.3479784249452967
3675,6.0,299.77691,1632.4014,0.0,0.0,0.0,0.0,0.0,-0.03662802522054154,-0.08573935401556541,-0.23614155310785676,-0.17432835234736885,0.014868907181696886,-0.003109741563907597,-0.33611316494928667
3676,6.0,298.88329,1415.9867,0.0,0.0,0.0,0.0,0.0,-0.03663799203012533,-0.04196890628150857,-0.24518620853549478,-0.14326947060959586,0.015374440961339183,-0.02778301680672027,-0.3933557971586946
3677,6.0,299.72982,1542.3334,0.0,0.0,0.0,0.0,0.0,-0.036647958839709144,-0.06480573563232814,-0.24386166773977277,-0.16016344018940085,-0.0043582345958992665,-0.021657537956932583,-0.35017314492689866
3678,6.0,300.53106,1759.691,0.0,0.0,0.0,0.0,0.0,-0.03665792564929299,-0.10190179248692391,-0.27414933442893274,-0.15885098746737186,0.03224049448763907,-0.003483502269369906,-0.3775119194525256
3679,6.0,300.5707,1514.52,0.0,0.0,0.0,0.0,0.0,-0.036667892458876805,-0.07507857785067873,-0.2131063253344568,-0.17219135722396384,-0.01080116196624169,0.014549587492182487,-0.3231393181513677
3680,6.0,300.92922000000004,1496.5821,0.0,0.0,0.0,0.0,0.0,-0.03667785926846062,-0.030987146670443267,-0.27400827988251175,-0.14992815509925686,-0.0025840338734492876,-0.004137440812983616,-0.3666664956821657
3681,6.0,300.70181,1738.2407,0.0,0.0,0.0,0.0,0.0,-0.03668782607804444,-0.08227762051266892,-0.25596522389430076,-0.19013893465525183,-0.012892174786858588,-0.0008283080541801403,-0.3315312986595917
3682,6.0,300.04461000000003,1649.4414,0.0,0.0,0.0,0.0,0.0,-0.03669779288762828,-0.05456526878117275,-0.24761856606304974,-0.1992051621775188,-0.014043994944034384,0.008372663199042523,-0.3613486754473377
3683,6.0,300.19649,1563.4671,0.0,0.0,0.0,0.0,0.0,-0.03670775969721207,-0.0992150848662665,-0.21860694601982578,-0.15743293381992085,-0.010528041415036792,0.013928227067108988,-0.3200160051156207
3684,6.0,300.19636,1668.7409,0.0,0.0,0.0,0.0,0.0,-0.03671772650679589,-0.12501797894331387,-0.2107225126191928,-0.17151507357721985,-0.03167823896739877,-0.00032532039978662366,-0.3279416170003177
3685,6.0,298.89617000000004,1615.9337,0.0,0.0,0.0,0.0,0.0,-0.036727693316379734,-0.08846650450071422,-0.24713261131508976,-0.15560439229195785,0.008201533261828311,0.030556181005410268,-0.3304780454456437
3686,6.0,300.49236,1539.6576,0.0,0.0,0.0,0.0,0.0,-0.03673766012596355,-0.03759210661330207,-0.25225865370349076,-0.17816669571368385,0.005821091021696954,0.0069140743800160135,-0.3721113268170287
3687,6.0,300.32764,1809.2774,0.0,0.0,0.0,0.0,0.0,-0.03674762693554737,-0.12410904294110887,-0.24461145254877079,-0.18125464632094082,0.019039198373522585,-0.015026631718763086,-0.3560047336249316
3688,6.0,299.34611,1795.1193,0.0,0.0,0.0,0.0,0.0,-0.03675759374513121,-0.08464489293330052,-0.26167104798992175,-0.19935550822735681,0.0010022837954927091,-0.043962977412058055,-0.36522349581725266
3689,6.0,299.82023,1373.6088,0.0,0.0,0.0,0.0,0.0,-0.03676756055471503,-0.08289201079030452,-0.1961998319834158,-0.1384509496265449,0.007901369166779424,-0.01032081049133469,-0.35163078625575667
3690,6.0,300.78983999999997,1497.3214,0.0,0.0,0.0,0.0,0.0,-0.03677752736429882,-0.06019917035819554,-0.21652279188913579,-0.17842636131681083,0.01222698116245909,-0.01733520858760188,-0.31993275648740466
3691,6.0,301.47484,1763.4816,0.0,0.0,0.0,0.0,0.0,-0.036787494173882634,-0.11977948605881489,-0.23659305735241679,-0.17968181872071484,-0.015639068450205885,-0.0018613143931724282,-0.3223508170560487
3692,6.0,301.49092,1556.5859,0.0,0.0,0.0,0.0,0.0,-0.03679746098346648,-0.06057815325334824,-0.2315115675709128,-0.18107351773306482,-0.02264606779424288,-0.01103020512484649,-0.33354222520555465
3693,6.0,300.66995,1557.2272,0.0,0.0,0.0,0.0,0.0,-0.036807427793050296,-0.08168041293022912,-0.2619114517086477,-0.12976632222443887,-0.024152647076430677,0.015995359609369087,-0.37354350517087365
3694,6.0,299.55415,1925.7720000000002,0.0,0.0,0.0,0.0,0.0,-0.03681739460263411,-0.07317861840266733,-0.3074595261663927,-0.2047484508245988,-0.008513410730683221,0.032639880186805366,-0.36388305712746166
3695,6.0,300.25325,1748.2266,0.0,0.0,0.0,0.0,0.0,-0.03682736141221796,-0.13405243094244487,-0.24963402183695976,-0.14773078040239285,-0.021641586360608277,0.02436030761817518,-0.37267487625764667
3696,6.0,299.63228,1502.7242,0.0,0.0,0.0,0.0,0.0,-0.036837328221801746,-0.03814508076262636,-0.2681323513601027,-0.15051320570699683,0.010892314958487791,0.002259502734695558,-0.37781653283008865
3697,6.0,300.62996,1505.6777,0.0,0.0,0.0,0.0,0.0,-0.03684729503138556,-0.08028823870358223,-0.2196307947158718,-0.15776938351562586,-0.008955327906772052,0.019290828903356583,-0.3539689520540157
3698,6.0,299.94059,1517.8102,0.0,0.0,0.0,0.0,0.0,-0.03685726184096938,-0.05042259574732275,-0.2508223210242358,-0.16013149241374786,0.027905384994797076,-0.003943435133561746,-0.35701571404470767
3699,6.0,299.86315,1517.3755,0.0,0.0,0.0,0.0,0.0,-0.036867228650553224,-0.07841950357065243,-0.22645340280671078,-0.15637134155764987,-0.0050617451847553546,-0.019755156841182182,-0.35372523500746267
3700,6.0,299.06649,1680.9251,0.0,0.0,0.0,0.0,0.0,-0.03687719546013704,-0.093516926007652,-0.22540353384809678,-0.19203879885775382,0.0034028023704554466,-0.03809816626974626,-0.33413470293652764
3701,6.0,299.49539,1650.9963,0.0,0.0,0.0,0.0,0.0,-0.03688716226972086,-0.0905325812363701,-0.2460910104772918,-0.16523803987022484,-0.008032682326739022,-0.009451859567225912,-0.3242298184389917
3702,6.0,298.10278,1564.7459,0.0,0.0,0.0,0.0,0.0,-0.03689712907930465,-0.05436885227578795,-0.22605506379489776,-0.1952197556916898,-0.011838834433401989,0.012379952543306188,-0.3324742697326557
3703,6.0,298.8663,1980.0071,0.0,0.0,0.0,0.0,0.0,-0.03690709588888849,-0.11512100792905888,-0.27610303260924773,-0.2106486770844058,-0.02117641945169988,-0.0001394779090003979,-0.3144084865447017
3704,6.0,300.04443,1932.4533,0.0,0.0,0.0,0.0,0.0,-0.03691706269847231,-0.1408546727062739,-0.26610326737234774,-0.18045961989497783,-0.021972751957041778,-0.01983040079360818,-0.34106394546789065
3705,6.0,301.06363,1507.5896,0.0,0.0,0.0,0.0,0.0,-0.03692702950805615,-0.07780467962197402,-0.2307477391155288,-0.14971717616343486,-0.02177958089172728,0.015038485731682984,-0.36126229587631264
3706,6.0,301.60942,1436.0116,0.0,0.0,0.0,0.0,0.0,-0.03693699631763994,-0.06596647137713384,-0.2444253387704028,-0.1261198478970599,0.015372647508662185,0.0048901967752498455,-0.38003824579435463
3707,6.0,300.74959,1713.1427,0.0,0.0,0.0,0.0,0.0,-0.036946963127223786,-0.1073845597055309,-0.2301488779089258,-0.18321915587982282,-0.004529176068594876,0.0004962351632095976,-0.34118735933007066
3708,6.0,299.2893,1637.6775,0.0,0.0,0.0,0.0,0.0,-0.0369569299368076,-0.059236882685225145,-0.24141082853039378,-0.1971653580037058,0.02055734998510248,-0.006193877284538093,-0.3391172995082717
3709,6.0,299.39086000000003,1446.9682,0.0,0.0,0.0,0.0,0.0,-0.03696689674639145,-0.056589370618186044,-0.21722054630549878,-0.16603227596110987,0.01316210461349859,0.00012495313093691387,-0.3312162184084957
3710,6.0,299.38045,1472.7604,0.0,0.0,0.0,0.0,0.0,-0.03697686355597524,-0.06532829100040034,-0.21417584121250982,-0.16817824848040083,0.01171737715716509,0.00969005642723411,-0.3488855370973217
3711,6.0,299.61177999999995,1686.1183,0.0,0.0,0.0,0.0,0.0,-0.036986830365559054,-0.08578729189104652,-0.27167820995255176,-0.15507236506195085,-0.01221629340040429,-0.02518498478181448,-0.35012299917944967
3712,6.0,300.15307,1849.2018,0.0,0.0,0.0,0.0,0.0,-0.03699679717514287,-0.12343838283241988,-0.27860840493900874,-0.16006438485962485,-0.011939589996845789,-0.03325580351184227,-0.37863037531040866
3713,6.0,300.23747000000003,1899.4301,0.0,0.0,0.0,0.0,0.0,-0.037006763984726715,-0.1103880559169529,-0.27446868046294975,-0.1925225751179988,-0.0006092437574626774,0.006733876665006884,-0.33834347027440065
3714,6.0,300.30695,1372.5558,0.0,0.0,0.0,0.0,0.0,-0.03701673079431053,-0.016327202056869383,-0.23817402135094576,-0.16272148125935987,0.005971388942155204,0.014489171441719885,-0.34759466660242266
3715,6.0,300.1356,1167.1007,0.0,0.0,0.0,0.0,0.0,-0.037026697603894376,-0.013570770670330789,-0.2147365535528478,-0.1264621541783429,-0.021349480542279684,0.01761204675342368,-0.3153418824043207
3716,6.0,300.63905,1764.4508,0.0,0.0,0.0,0.0,0.0,-0.03703666441347814,-0.10573069236230691,-0.24086817230683774,-0.1897501201943788,-0.015115341765018088,-0.012452757602741489,-0.3422963109020157
3717,6.0,299.7522,1901.9088,0.0,0.0,0.0,0.0,0.0,-0.03704663122306198,-0.12804208466176986,-0.26926991711487175,-0.18082078276062183,0.021938221406883878,0.03049156098028277,-0.35896782142236566
3718,6.0,298.90637999999996,1486.4183,0.0,0.0,0.0,0.0,0.0,-0.0370565980326458,-0.07572010803224283,-0.21270569637741776,-0.16340824191213785,0.026140761309642272,0.012270193239473788,-0.36274807516044766
3719,6.0,298.57976,1571.974,0.0,0.0,0.0,0.0,0.0,-0.03706656484222964,-0.07819419322541601,-0.23863996440943078,-0.16100669732012385,0.011730734833233388,-0.021192430829780083,-0.36752112147901067
3720,6.0,299.52214,1975.9884,0.0,0.0,0.0,0.0,0.0,-0.03707653165181346,-0.0992701063731967,-0.2588194582334918,-0.24256156653646277,-0.02135012294284308,-0.02150075675570948,-0.3088939843329627
3721,6.0,300.16792000000004,1989.6085,0.0,0.0,0.0,0.0,0.0,-0.03708649846139728,-0.13716193337932886,-0.27490882617388873,-0.19272054392253682,0.005839439765107834,0.004620392692947256,-0.3317858676147157
3722,6.0,300.49719,1780.891,0.0,0.0,0.0,0.0,0.0,-0.037096465270981066,-0.09742627692772492,-0.2671758736632057,-0.17674425469329982,0.005682702032314024,0.004708989457841076,-0.3089648105149527
3723,6.0,299.77116,1577.0529,0.0,0.0,0.0,0.0,0.0,-0.03710643208056491,-0.1027762779857289,-0.23225979197475677,-0.14434863262860087,-0.005471835972553165,-0.014117758538064287,-0.3448698749635067
3724,6.0,300.18567,1543.0812,0.0,0.0,0.0,0.0,0.0,-0.03711639889014873,-0.07787696792385833,-0.24478240810564278,-0.14639878208593485,-0.009406036547353532,-0.014246509188520988,-0.3239758776989297
3725,6.0,299.8488,1569.8014,0.0,0.0,0.0,0.0,0.0,-0.03712636569973257,-0.07099384752379723,-0.24334376521615977,-0.16284282809133582,0.013974232674649386,0.04049815754935696,-0.36786316431526767
3726,6.0,299.97328,1787.9174,0.0,0.0,0.0,0.0,0.0,-0.03713633250931636,-0.06501283179376693,-0.24797667904589277,-0.23049274459536281,0.010997592657127889,0.026153552578904678,-0.30254309482617875
3727,6.0,299.15819,1477.8122,0.0,0.0,0.0,0.0,0.0,-0.037146299318900206,-0.06632166822618904,-0.2223284109871058,-0.16056792962932084,0.002699867206331148,-0.011533767119794189,-0.3657654225007366
3728,6.0,297.85561,1485.9062,0.0,0.0,0.0,0.0,0.0,-0.03715626612848402,-0.04939283169719295,-0.23310802416347076,-0.16917753599402283,-0.055443575246104854,-0.016233609158382484,-0.36505407026803166
3729,6.0,298.73248,1897.7114,0.0,0.0,0.0,0.0,0.0,-0.03716623293806787,-0.12915907130700788,-0.27459667421558176,-0.17310111395874983,-0.007573995658845174,-0.003072315854238967,-0.4150120726060026
3730,6.0,299.13366,2001.4507,0.0,0.0,0.0,0.0,0.0,-0.037176199747651656,-0.13220105075722788,-0.28518505670057376,-0.19100493925071982,0.004641695870999715,0.004163550849510476,-0.36171658655864763
3731,6.0,299.78508,1514.7488,0.0,0.0,0.0,0.0,0.0,-0.03718616655723547,-0.06931556693266384,-0.23461619627481578,-0.15651403756923285,0.004027100511543876,-0.018647917661906183,-0.38264429465405164
3732,6.0,299.82206,1403.4854,0.0,0.0,0.0,0.0,0.0,-0.03719613336681929,-0.03889705216534017,-0.21859287197593677,-0.16913459445478482,-0.0001990667116838548,-0.04178652632975906,-0.3179977426389337
3733,6.0,299.44658,1434.9460000000001,0.0,0.0,0.0,0.0,0.0,-0.037206100176403134,-0.06736895542354823,-0.2198760924325808,-0.14894268831699886,0.0031082655624869266,-0.007847265765764833,-0.3369009972995397
3734,6.0,300.1642,1651.2924,0.0,0.0,0.0,0.0,0.0,-0.03721606698598695,-0.07444977915662113,-0.2366298484635478,-0.1908720109701008,0.018627100438601683,0.022030690611009877,-0.31023627727043673
3735,6.0,300.83072999999996,1834.4978,0.0,0.0,0.0,0.0,0.0,-0.037226033795570795,-0.12101343216309589,-0.2606365804328277,-0.17599150106150885,-0.01011853760302191,-0.016073800365860588,-0.34735466818373667
3736,6.0,299.7008,1826.2309,0.0,0.0,0.0,0.0,0.0,-0.03723600060515456,-0.1052436939667439,-0.24917152382881474,-0.2007133849513688,-0.003676516382243916,0.015191681040802185,-0.3229318551933927
3737,6.0,299.34278,1509.5392,0.0,0.0,0.0,0.0,0.0,-0.0372459674147384,-0.033604900595295466,-0.24571692867287276,-0.17954038927175683,-0.011097228579211188,0.026099645647084477,-0.38361801786765065
3738,6.0,299.03456,1552.8166,0.0,0.0,0.0,0.0,0.0,-0.03725593422432222,-0.07225613625987544,-0.21853295849752377,-0.18122837274584783,0.0004069844163037346,0.018708908225175482,-0.3264862554841847
3739,6.0,299.76281,1991.2162,0.0,0.0,0.0,0.0,0.0,-0.03726590103390606,-0.12439464774679587,-0.26154828260780577,-0.2193370737768838,-0.024687923799508377,-0.03894582698540386,-0.3360330675288817
3740,6.0,299.97634,1733.4551,0.0,0.0,0.0,0.0,0.0,-0.03727586784348988,-0.12144467140565587,-0.23687272451251778,-0.16860968024047981,-0.01008374077073773,-0.033526515567559464,-0.34666964018862967
3741,6.0,299.75158999999996,1305.6622,0.0,0.0,0.0,0.0,0.0,-0.037285834653073696,-0.06837121378646344,-0.2288000596408078,-0.09971744615984571,0.013961481935390986,0.0053235007175386154,-0.37710485635735164
3742,6.0,299.7103,1509.1793,0.0,0.0,0.0,0.0,0.0,-0.037295801462657485,-0.07476849292257572,-0.22801357491318777,-0.15597074299811386,0.004746826141750265,0.013596934814412988,-0.3563605870600517
3743,6.0,300.65862999999996,1826.0567,0.0,0.0,0.0,0.0,0.0,-0.03730576827224133,-0.05875968545787945,-0.29044023781421974,-0.2058757320908528,0.0028875976252336973,-0.03412936492655607,-0.3455356309417117
3744,6.0,300.06692999999996,1745.9209,0.0,0.0,0.0,0.0,0.0,-0.03731573508182515,-0.07823118698656702,-0.25969106610201276,-0.1927940957472958,0.0014318981901923487,-0.00913749193492524,-0.3428276795194577
3745,6.0,301.23732,1637.2287,0.0,0.0,0.0,0.0,0.0,-0.03732570189140899,-0.05978215613378945,-0.2717838311429757,-0.16611067112134684,0.03457388078517637,0.016707344110136486,-0.3357091618694147
3746,6.0,300.40665,1396.569,0.0,0.0,0.0,0.0,0.0,-0.03733566870099278,-0.05013819670925475,-0.2317565917100948,-0.14262731322621988,-0.0070213747285057335,0.023822790599126377,-0.35848549410976366
3747,6.0,300.50762000000003,1429.2973,0.0,0.0,0.0,0.0,0.0,-0.037345635510576625,-0.058597235122346845,-0.24211401396729276,-0.13375942941102786,-0.016172519296603384,-0.014304796400523486,-0.37226392228208866
3748,6.0,300.5023,1781.7513,0.0,0.0,0.0,0.0,0.0,-0.03735560232016044,-0.10079697902838732,-0.25178931625717077,-0.18902159337247884,-0.01871112217664398,0.015444754438778586,-0.3878370798265397
3749,6.0,299.76589,1758.49,0.0,0.0,0.0,0.0,0.0,-0.037365569129744286,-0.08203904571037342,-0.27585660005242674,-0.17664139967564885,0.014441470666762185,0.027146709929421673,-0.3729304989928746
3750,6.0,299.55377000000004,1099.4139,0.0,0.0,0.0,0.0,0.0,-0.037375535939328075,-0.03276198391660607,-0.19068485354412978,-0.11074753678743089,0.005236279946280595,0.01013107302663406,-0.34712403219597465
3751,6.0,300.4831,1399.0303,0.0,0.0,0.0,0.0,0.0,-0.03738550274891189,-0.05511990668716125,-0.21472237818394876,-0.15542799558204884,-0.02041169123022708,-0.05488874178284704,-0.3354948189432607
3752,6.0,300.14447,2091.2762,0.0,0.0,0.0,0.0,0.0,-0.03739546955849571,-0.18166315836375782,-0.25426740176173873,-0.19976518550778882,-0.017045522410512083,-0.02274757822901118,-0.2993590678444398
3753,6.0,300.428,2019.7473,0.0,0.0,0.0,0.0,0.0,-0.03740543636807955,-0.14571584138603386,-0.27503167261601275,-0.1932052422403728,0.02891854592878827,0.0014217771389184789,-0.35869851981078765
3754,6.0,300.6478,1628.1922,0.0,0.0,0.0,0.0,0.0,-0.03741540317766337,-0.06180451214088044,-0.2403126072770078,-0.19281265848912782,0.014730169938254586,0.02101317371483878,-0.33650509008796664
3755,6.0,300.63214,1637.253,0.0,0.0,0.0,0.0,0.0,-0.037425369987247215,-0.04796104445788655,-0.2626098343400728,-0.1871131469416298,0.02303934866155668,-0.011475404927284289,-0.3453848491943307
3756,6.0,300.38377,1688.7958,0.0,0.0,0.0,0.0,0.0,-0.037435336796830976,-0.08129918771260512,-0.24247784168069977,-0.1895747266020688,-0.00886012313002607,0.00895072167181745,-0.3258125961551997
3757,6.0,299.95887,1678.7677,0.0,0.0,0.0,0.0,0.0,-0.03744530360641482,-0.07502362929775573,-0.25549135722003374,-0.17978848355874183,0.01164676983719669,0.027351872809669678,-0.3587435993077367
3758,6.0,299.55692,1522.3143,0.0,0.0,0.0,0.0,0.0,-0.03745527041599864,-0.08918120755149991,-0.22770907299313578,-0.14585524433479186,-0.016572573740835685,-0.006436454526053604,-0.33740837215461367
3759,6.0,300.00355,1231.3924,0.0,0.0,0.0,0.0,0.0,-0.03746523722558248,-0.04008350723743417,-0.20224655394268082,-0.1319824825781569,-0.0013714484998264287,-0.052718373240898356,-0.39758962217154065
3760,6.0,300.33271,1473.0287,0.0,0.0,0.0,0.0,0.0,-0.0374752040351663,-0.03920252376573786,-0.24293436151325476,-0.16562706711361885,-0.015290141592769485,-0.003897422433270646,-0.3825715432968716
3761,6.0,299.85522000000003,1917.9482,0.0,0.0,0.0,0.0,0.0,-0.037485170844750115,-0.12165305642122189,-0.26832719935433275,-0.19302809572538981,0.03585442727480647,0.007535701087215793,-0.3928485438936326
3762,6.0,299.61842,2005.5032,0.0,0.0,0.0,0.0,0.0,-0.037495137654333904,-0.1204878897337289,-0.27390259789708177,-0.21523239762178378,-0.019909808190695082,0.0032554601005388975,-0.3272479561143587
3763,6.0,298.71479,1395.8271,0.0,0.0,0.0,0.0,0.0,-0.03750510446391775,-0.07890723859903813,-0.23783310322229978,-0.10755624480247489,-0.0029772887002355174,-0.030237821876990673,-0.35680504921641665
3764,6.0,298.34881,1499.4849,0.0,0.0,0.0,0.0,0.0,-0.037515071273501566,-0.0905638248032036,-0.2231889541645348,-0.14205319558705887,0.0032781242761256765,-0.0013549727492253986,-0.3104440847334457
3765,6.0,298.79986,1780.8185,0.0,0.0,0.0,0.0,0.0,-0.03752503808308541,-0.08840523428041733,-0.2585350186654197,-0.19438410806921783,0.016535215209648683,0.0033971108433187365,-0.37683929363864266
3766,6.0,299.00453999999996,1559.9349,0.0,0.0,0.0,0.0,0.0,-0.0375350048926692,-0.040345565124047265,-0.24603391383415676,-0.1878017821070928,0.017469945519649383,-0.005805662566399285,-0.34376964747492267
3767,6.0,299.408,1419.8531,0.0,0.0,0.0,0.0,0.0,-0.037544971702253044,-0.05151982502886085,-0.22826701916070077,-0.15181306373028286,0.0026797164989424273,-0.04078351512201956,-0.3658982393238447
3768,6.0,300.39113,1575.9765,0.0,0.0,0.0,0.0,0.0,-0.03755493851183686,-0.08830275923155383,-0.21670505531712378,-0.1740496984373678,0.016983810413171586,0.02026534853153418,-0.3195354509906937
3769,6.0,299.79591,1602.7195,0.0,0.0,0.0,0.0,0.0,-0.037564905321420705,-0.10128814897461201,-0.23209568598856078,-0.15380288427666286,0.012061280320605688,0.027229551231097476,-0.3476371217816127
3770,6.0,300.38957,1965.5909,0.0,0.0,0.0,0.0,0.0,-0.037574872131004494,-0.14896102814380888,-0.24389752666081177,-0.2046320081231068,-0.02162136087536218,0.012805515558805988,-0.3324612697338727
3771,6.0,300.34676,2147.4123,0.0,0.0,0.0,0.0,0.0,-0.03758483894058831,-0.1086621667566209,-0.2965787804975467,-0.24751878119320178,-0.016341993481829183,-0.017741492493448984,-0.37003001991911966
3772,6.0,300.47515,1750.2057,0.0,0.0,0.0,0.0,0.0,-0.03759480575017213,-0.07152808971852284,-0.26001255009374075,-0.2004781792056558,0.016563425105682785,0.016072206523453283,-0.35785230398977264
3773,6.0,300.16811,1464.6018,0.0,0.0,0.0,0.0,0.0,-0.03760477255975597,-0.05613329256267465,-0.2285230775934718,-0.16054601302965785,0.0027501128602400076,0.013947713893032187,-0.3622377821450857
3774,6.0,301.0098,1661.9373,0.0,0.0,0.0,0.0,0.0,-0.03761473936933979,-0.0998258021122896,-0.24179372561068277,-0.16356791999539685,-0.006852295812143943,-0.006007885805457165,-0.3291142513410477
3775,6.0,299.8346,1596.9306,0.0,0.0,0.0,0.0,0.0,-0.037624706178923634,-0.0997720978304894,-0.23654275961745277,-0.14911216452872486,-0.03406681294488267,-0.02156113126291798,-0.31126980250493774
3776,6.0,299.51401,1348.8703,0.0,0.0,0.0,0.0,0.0,-0.037634672988507395,-0.04723071303755846,-0.23571701144845777,-0.12707517048884287,0.02298092263429048,0.018429084011308983,-0.3495835954887147
3777,6.0,299.62317,1553.8118,0.0,0.0,0.0,0.0,0.0,-0.03764463979809124,-0.040404599101373465,-0.2668264746312227,-0.16508891985300783,0.03189011057655887,0.0018530664360334181,-0.36449544522289967
3778,6.0,299.86184,1703.8716,0.0,0.0,0.0,0.0,0.0,-0.037654606607675056,-0.06858956816976333,-0.2827456064223188,-0.16659926031956684,0.027112961608340973,-0.009804323782086422,-0.38528189612186264
3779,6.0,299.25685,1711.9727,0.0,0.0,0.0,0.0,0.0,-0.0376645734172589,-0.054662034165722746,-0.2639408396714328,-0.2017940567130228,-0.01732707421579908,-0.027982118424870073,-0.36754965460182665
3780,6.0,300.20751,1853.1746,0.0,0.0,0.0,0.0,0.0,-0.03767454022684272,-0.12076579383865589,-0.2577330312112697,-0.18481997958031182,-0.0025381654599724275,0.02852743240343837,-0.3858622351166376
3781,6.0,299.71731,1697.1074,0.0,0.0,0.0,0.0,0.0,-0.037684507036426534,-0.12423827285886287,-0.2238204622893598,-0.16781953767999885,-0.026091525460783076,0.015952209340610483,-0.32740838400269173
3782,6.0,300.39405,1323.6267,0.0,0.0,0.0,0.0,0.0,-0.037694473846010323,-0.07179132297525194,-0.20183305670937182,-0.12872508615667688,-0.008057153329904122,0.016310614139482284,-0.36510250362281166
3783,6.0,300.52085,1646.2335,0.0,0.0,0.0,0.0,0.0,-0.03770444065559417,-0.05273453052699295,-0.2373225670269138,-0.2103567799955978,-0.027821181884986872,0.004411989945504506,-0.3314608777776417
3784,6.0,300.3389,2068.5949,0.0,0.0,0.0,0.0,0.0,-0.037714407465177985,-0.13473290944460287,-0.27540769986062374,-0.21866058748011982,0.02194303535810898,-0.001093242851669669,-0.35006658141388164
3785,6.0,300.12864,1909.8479,0.0,0.0,0.0,0.0,0.0,-0.0377243742747618,-0.09448023503672322,-0.2888286027351637,-0.1972372278332988,0.029942543572598974,0.01318857070611059,-0.34508112747685565
3786,6.0,300.71147,1453.8095,0.0,0.0,0.0,0.0,0.0,-0.03773434108434562,-0.10926794846140689,-0.2147832339849548,-0.1178706039304229,0.006280866325498244,-0.02208229037235238,-0.34446527406607563
3787,6.0,299.84862999999996,1619.8142,0.0,0.0,0.0,0.0,0.0,-0.03774430789392946,-0.09891682152708021,-0.24865803907563774,-0.14480821247645786,0.013858989661275786,-0.01249343554125609,-0.3241778893713667
3788,6.0,300.34857,1745.9668,0.0,0.0,0.0,0.0,0.0,-0.03775427470351328,-0.09771653964412161,-0.24564675097094676,-0.18736700662168382,0.0031252105492092673,0.019937926894220182,-0.35534995114530965
3789,6.0,300.43815,1833.4842,0.0,0.0,0.0,0.0,0.0,-0.03776424151309707,-0.06930251323162553,-0.2579655822417207,-0.23006531517317877,0.026707139744539476,0.04123127743396026,-0.3752090654202516
3790,6.0,300.4002,1740.0512,0.0,0.0,0.0,0.0,0.0,-0.03777420832268091,-0.06636773057573504,-0.27004009864838274,-0.1925242976431688,-0.001210442957611419,-0.024046440227448874,-0.39791841169648967
3791,6.0,300.12156,1362.9107,0.0,0.0,0.0,0.0,0.0,-0.03778417513226473,-0.04827014552014246,-0.1882511585264428,-0.17776952193948584,-0.02210360712795618,-0.01938281073418448,-0.35517065654011465
3792,6.0,299.79079,1448.0939,0.0,0.0,0.0,0.0,0.0,-0.03779414194184855,-0.07157050639420903,-0.24009775772580375,-0.12851612358855388,-0.008111922942859463,0.001748138713977858,-0.3734675519433776
3793,6.0,299.89962,1888.9585,0.0,0.0,0.0,0.0,0.0,-0.03780410875143239,-0.15219364046784287,-0.24552853508177974,-0.17647403102413084,-0.01150798091799929,0.030438503152046367,-0.3384970485920577
3794,6.0,300.57942,1884.6465,0.0,0.0,0.0,0.0,0.0,-0.03781407556101621,-0.1095267224044459,-0.2689524962560447,-0.19440625771640382,0.00024168746607269577,0.016395254973335684,-0.35431918195108064
3795,6.0,300.13087,1385.4132,0.0,0.0,0.0,0.0,0.0,-0.037824042370600025,-0.03193008126650367,-0.24910174129442775,-0.14009919343171387,-0.001152037397997239,0.017772663106275285,-0.37294132050394263
3796,6.0,300.16492999999997,1537.3024,0.0,0.0,0.0,0.0,0.0,-0.037834009180183814,-0.01908142354493988,-0.28019106106520475,-0.16802905753567685,0.012735493897395388,0.04913879571162155,-0.38593326394864763
3797,6.0,299.81021,1913.3081,0.0,0.0,0.0,0.0,0.0,-0.03784397598976766,-0.1135438132209019,-0.27676582989716075,-0.1912882439786798,0.007485438309380242,0.018659522415301482,-0.3644889401572577
3798,6.0,300.39357,1805.2149,0.0,0.0,0.0,0.0,0.0,-0.037853942799351475,-0.1052089496208149,-0.2843257598207677,-0.15920553380986285,0.012248539071586687,-0.027009784377158178,-0.36978665751010165
3799,6.0,298.57726,1273.3381,0.0,0.0,0.0,0.0,0.0,-0.03786390960893529,-0.06253410287538544,-0.17817569337457184,-0.14635318583143486,0.006088802134592984,-0.02596062064061377,-0.3297362349149327
3800,6.0,299.49208,1465.7761,0.0,0.0,0.0,0.0,0.0,-0.03787387641851914,-0.037178474617729766,-0.24483229040806576,-0.16354857705098785,0.030392752883531174,-0.005111703075635816,-0.3555998996799777
3801,6.0,299.83577,1753.2372,0.0,0.0,0.0,0.0,0.0,-0.037883843228102954,-0.06927856506551203,-0.2329228324426938,-0.23073894410466078,-0.004358490441549516,0.029680003378938266,-0.36529926665973067
3802,6.0,299.29082999999997,1869.2686,0.0,0.0,0.0,0.0,0.0,-0.03789381003768674,-0.1014597621307989,-0.24564240412801777,-0.2211088125042408,0.002094034129765078,-0.009222760983840641,-0.38199888473785465
3803,6.0,299.87324,1846.0251,0.0,0.0,0.0,0.0,0.0,-0.03790377684727056,-0.13765106973260285,-0.2380831429494768,-0.1854113224711728,-0.0100367661921267,-0.00978715446179194,-0.3513443708499897
3804,6.0,301.23944,1541.592,0.0,0.0,0.0,0.0,0.0,-0.037913743656854404,-0.11088126553562888,-0.1969164632491418,-0.16080774566298886,0.014467843540364985,0.01134345949926229,-0.33701477515326866
3805,6.0,300.57105,1627.2589,0.0,0.0,0.0,0.0,0.0,-0.03792371046643822,-0.10579637123378889,-0.26144975416808175,-0.12739995767589687,-0.007860248944596172,0.02042389076143108,-0.34233965774129366
3806,6.0,301.6938,2010.3657,0.0,0.0,0.0,0.0,0.0,-0.03793367727602204,-0.1041489076311969,-0.2973233470685297,-0.2096287091362428,0.009333346593129592,-0.0055399371197242244,-0.34786039144114766
3807,6.0,300.65806000000003,1913.1452,0.0,0.0,0.0,0.0,0.0,-0.037943644085605854,-0.07604621447092702,-0.2598730458199727,-0.2456291204192068,-0.01114576224575109,0.009319957303658172,-0.3262988042156847
3808,6.0,299.89485,1594.7254,0.0,0.0,0.0,0.0,0.0,-0.0379536108951897,-0.03025406731584397,-0.2886728763272947,-0.16582974753112184,0.05497943273304754,0.026071044636511775,-0.3923317154151256
3809,6.0,300.79334,1667.0609,0.0,0.0,0.0,0.0,0.0,-0.03796357770477349,-0.07962536947491212,-0.23657377520301376,-0.19054575457040182,-0.009276457564940081,0.01119202420556679,-0.34101768046832465
3810,6.0,299.87577000000005,1622.9798,0.0,0.0,0.0,0.0,0.0,-0.03797354451435733,-0.09731298847379422,-0.23747201128416276,-0.15856032654368585,0.00917156895433838,-0.04290757205489766,-0.38291106314037965
3811,6.0,300.15446000000003,1435.4719,0.0,0.0,0.0,0.0,0.0,-0.03798351132394115,-0.06704033815111624,-0.1984465215626468,-0.17086074706014284,-0.044465873701690056,-0.04511082562884186,-0.3232986010670877
3812,6.0,300.76754,1410.33,0.0,0.0,0.0,0.0,0.0,-0.037993478133524966,-0.03895535356284406,-0.2228501030660928,-0.16689964844421284,0.007821762463397853,-0.0017940455296335085,-0.3792732622338566
3813,6.0,298.94585,1639.3548,0.0,0.0,0.0,0.0,0.0,-0.03800344494310878,-0.05480664521999474,-0.26026403876856075,-0.18325224862808884,-0.004423026164268696,0.02828578644008977,-0.34771214281901663
3814,6.0,300.08557,1710.6655,0.0,0.0,0.0,0.0,0.0,-0.03801341175269263,-0.09424304230756411,-0.26575639133311374,-0.16000016506828685,0.003843658876339596,0.01857913621861798,-0.40663636489438465
3815,6.0,300.28803,1980.5239,0.0,0.0,0.0,0.0,0.0,-0.038023378562276444,-0.13673958034014586,-0.27458725098965175,-0.1907029704559178,-0.00827789057346419,0.01006845791947943,-0.33633790382146667
3816,6.0,300.62081,2038.241,0.0,0.0,0.0,0.0,0.0,-0.03803334537186023,-0.17622414328446884,-0.2691139779244817,-0.17423624791327882,0.02569408824155908,-0.002150248637363018,-0.36260941188426266
3817,6.0,301.52276,1805.7244,0.0,0.0,0.0,0.0,0.0,-0.03804331218144405,-0.094814524483215,-0.2502257598953598,-0.2038548351639058,0.017985199407500985,0.022052763251188278,-0.30940620252351475
3818,6.0,301.31322,1488.5039,0.0,0.0,0.0,0.0,0.0,-0.038053278991027895,-0.06251563436581274,-0.23853983503454879,-0.15141253609825386,0.012779586488746988,-0.01894022207725438,-0.34874810998625866
3819,6.0,300.47402,1637.5398,0.0,0.0,0.0,0.0,0.0,-0.03806324580061171,-0.04927193576151145,-0.23551866774138278,-0.2129806113945498,-0.0012067725604491789,0.01070839486658629,-0.3027907128856167
3820,6.0,300.78033999999997,1718.2503,0.0,0.0,0.0,0.0,0.0,-0.038073212610195556,-0.09717925972559621,-0.24144615042887976,-0.18367977937528282,-0.0012615064056759888,-0.009805929378194881,-0.3527232015860697
3821,6.0,299.92472000000004,1694.7827,0.0,0.0,0.0,0.0,0.0,-0.038083179419779345,-0.1072451364917709,-0.24788897211723676,-0.16003752359947385,0.013856901352819686,-0.001895372870108738,-0.3507543654492607
3822,6.0,299.64201,1592.9472,0.0,0.0,0.0,0.0,0.0,-0.03809314622936319,-0.13529010580709386,-0.2106852351480138,-0.13824082182080685,-0.026004317051176274,-0.028930651227732973,-0.35982667247212763
3823,6.0,299.66373,1697.8655,0.0,0.0,0.0,0.0,0.0,-0.03810311303894698,-0.08636109035642602,-0.2510494309016498,-0.17869818592113784,-0.017029651874195785,-0.006847446093190313,-0.3389897617181847
3824,6.0,299.79105,1866.4158,0.0,0.0,0.0,0.0,0.0,-0.03811307984853082,-0.1070166283292189,-0.2753080872432927,-0.18501908322496183,-0.009138685746193061,0.015314640966937383,-0.3685914884871477
3825,6.0,300.03386,2190.4314,0.0,0.0,0.0,0.0,0.0,-0.03812304665811464,-0.1132586542452589,-0.2991563570294337,-0.2534214392532488,0.008528841719106142,0.03966864920924086,-0.36385512182220464
3826,6.0,299.81286,1947.3715,0.0,0.0,0.0,0.0,0.0,-0.03813301346769846,-0.1014346436608199,-0.30767512552267073,-0.18284254095015381,0.008145905730013303,0.014182084720662787,-0.3729953773967776
3827,6.0,300.75039,1264.6189,0.0,0.0,0.0,0.0,0.0,-0.038142980277282273,-0.041143704254317466,-0.22523447306891178,-0.11803437554408588,-0.008317495277472872,0.0025014068741696376,-0.36559093070101567
3828,6.0,300.5566,1310.3717,0.0,0.0,0.0,0.0,0.0,-0.03815294708686612,-0.030142348386318175,-0.24317442072694678,-0.12500350973188587,-0.01068554607683129,-0.01259090513462559,-0.3591415634170127
3829,6.0,300.10499,1767.1056,0.0,0.0,0.0,0.0,0.0,-0.03816291389644991,-0.07313512160237454,-0.27015052264428074,-0.1938703497385138,-0.010150578395034091,-0.011481963695181589,-0.3616864930306776
3830,6.0,300.176,1750.6371,0.0,0.0,0.0,0.0,0.0,-0.03817288070603375,-0.06819253017107874,-0.26315402057127973,-0.2008034020902528,-0.005667403475679175,-0.013324547856280488,-0.3585905782776347
3831,6.0,301.18775,1532.7415,0.0,0.0,0.0,0.0,0.0,-0.03818284751561754,-0.04552973159118466,-0.2559799464182538,-0.16440546239555584,0.03284591142238907,0.01289727143486159,-0.37799334497253867
3832,6.0,301.09957,1763.5072,0.0,0.0,0.0,0.0,0.0,-0.038192814325201385,-0.10061874428279691,-0.25364811343311977,-0.18179528617679783,0.023527525466985978,-0.002768574074411987,-0.33554905822111364
3833,6.0,300.6275,1971.5628,0.0,0.0,0.0,0.0,0.0,-0.0382027811347852,-0.16493649664046484,-0.27057759742892973,-0.16379177733998984,-0.009588114955873271,0.005414873078431365,-0.38070986849063865
3834,6.0,300.75299,2031.4384,0.0,0.0,0.0,0.0,0.0,-0.03821274794436905,-0.14125441000322486,-0.25889263515571376,-0.2173594932917118,-0.005623282108024734,-0.0099477339323399,-0.3266338758912537
3835,6.0,300.67807999999997,1922.6853,0.0,0.0,0.0,0.0,0.0,-0.03822271475395286,-0.11876563814125589,-0.25265874563797674,-0.2130239379688258,0.005015687090859776,0.02864736777802507,-0.33600800985390866
3836,6.0,299.9441,1540.9256,0.0,0.0,0.0,0.0,0.0,-0.03823268156353665,-0.04630897968659045,-0.23232673740886375,-0.18976717319356182,0.017446092599045282,0.03842137785289476,-0.3112864806015837
3837,6.0,299.45373,1364.2726,0.0,0.0,0.0,0.0,0.0,-0.03824264837312047,-0.03936604510662617,-0.21356392934461876,-0.16177484222093386,-0.004846543529141605,0.002083790069929068,-0.3668255556828636
3838,6.0,299.31981,1775.0727,0.0,0.0,0.0,0.0,0.0,-0.038252615182704314,-0.1084476921079539,-0.2514751985936698,-0.1796548865330568,0.0013213743891594988,-0.002826884591166787,-0.3321456321952217
3839,6.0,298.95345,1722.1539,0.0,0.0,0.0,0.0,0.0,-0.03826258199228813,-0.10043158381707559,-0.23471055012412778,-0.1883496363036618,0.006222118388675275,-0.02192015211785058,-0.3565662464328487
3840,6.0,299.89982000000003,1408.5047,0.0,0.0,0.0,0.0,0.0,-0.038272548801871975,-0.04527063644786396,-0.23479152907211978,-0.14808810305015785,0.02450114330257458,-0.002124325545479608,-0.3518778166301367
3841,6.0,299.97319,1451.5377,0.0,0.0,0.0,0.0,0.0,-0.038282515611455764,-0.03811120173228276,-0.24903766335810373,-0.15408233865424284,0.009064068691603932,-0.01946334081238218,-0.38420338258292164
3842,6.0,299.92154,1767.5179,0.0,0.0,0.0,0.0,0.0,-0.03829248242103961,-0.0996347396204332,-0.2412982767092858,-0.1963482933880678,0.003551510906806837,-0.004656167007602905,-0.37324017862093767
3843,6.0,301.13621,1804.7271,0.0,0.0,0.0,0.0,0.0,-0.0383024492306234,-0.08073620670529322,-0.2705160931478597,-0.1973396674184088,-0.004176791697842246,0.01165873530762759,-0.39251621812583465
3844,6.0,301.10717999999997,1596.5104,0.0,0.0,0.0,0.0,0.0,-0.03831241604020724,-0.08586841066755233,-0.2600367161086257,-0.1393941740121339,-0.005855515180594355,0.018213055036988585,-0.3948493582035976
3845,6.0,300.52936,1629.8237,0.0,0.0,0.0,0.0,0.0,-0.03832238284979106,-0.07506955891153863,-0.24735731978976677,-0.17299883649365586,-0.007196947970058463,-0.00894044022305275,-0.38001345156440763
3846,6.0,301.13636,1645.6879,0.0,0.0,0.0,0.0,0.0,-0.038332349659374876,-0.08816410912762011,-0.24889270779879777,-0.16319121387321883,-0.01894756307422888,0.026589577401686975,-0.37366688863555064
3847,6.0,301.25704,1686.9372,0.0,0.0,0.0,0.0,0.0,-0.03834231646895869,-0.05221451132392105,-0.24961862043543975,-0.2109536552320048,0.013620215248710588,0.02414900950857168,-0.33116344834328765
3848,6.0,300.19419,1844.3213,0.0,0.0,0.0,0.0,0.0,-0.03835228327854254,-0.10880484250320191,-0.24860096269750478,-0.20322180716393082,0.0062487370767523335,0.032520848631307865,-0.3472512862760337
3849,6.0,299.32585,1738.9553,0.0,0.0,0.0,0.0,0.0,-0.038362250088126326,-0.08101547261835462,-0.2610726326133627,-0.18651088121469084,0.019623749448963283,-0.02033164751207738,-0.34899339757046666
3850,6.0,299.82306,1575.4957,0.0,0.0,0.0,0.0,0.0,-0.03837221689771017,-0.12732656797115388,-0.21557044825264682,-0.13601432631606886,0.004345357403028386,-0.015572136188350186,-0.36089394906745964
3851,6.0,300.60647,1765.527,0.0,0.0,0.0,0.0,0.0,-0.03838218370729396,-0.08895030406571151,-0.2627305529569867,-0.18499526171511083,0.015096782062936385,-0.017656952984605585,-0.3400232768201847
3852,6.0,300.14546,1747.4035,0.0,0.0,0.0,0.0,0.0,-0.038392150516877804,-0.11544383954341987,-0.24871278497854077,-0.16701040681264384,0.0073631578687621034,0.017317475697601784,-0.36114085785182765
3853,6.0,299.67907,1675.5027,0.0,0.0,0.0,0.0,0.0,-0.03840211732646162,-0.06331698144589953,-0.24735802906483678,-0.1986359891988458,-0.014290032333316384,-0.004015814020004986,-0.3356888259399077
3854,6.0,299.26392999999996,1705.9419,0.0,0.0,0.0,0.0,0.0,-0.038412084136045466,-0.13051269238059987,-0.2254582189559938,-0.16259283902666385,-0.005664998019941775,0.015826772017980786,-0.36118964584414265
3855,6.0,300.4752,1906.6962,0.0,0.0,0.0,0.0,0.0,-0.03842205094562928,-0.11135273080715889,-0.26496873123537773,-0.2032665624208478,0.025595911399619774,-0.0021951897243483575,-0.34457932549733167
3856,6.0,300.47687,1814.049,0.0,0.0,0.0,0.0,0.0,-0.03843201775521307,-0.12804528653208588,-0.26510711080153476,-0.15827320186284885,-0.01113849217628359,0.017423168828782882,-0.3569886805320397
3857,6.0,300.476,1840.2809,0.0,0.0,0.0,0.0,0.0,-0.03844198456479689,-0.07041025903595152,-0.2872634353056937,-0.2017257433912808,0.020453902216142978,-0.01994003749417848,-0.37493729147842964
3858,6.0,299.86506,1747.0399,0.0,0.0,0.0,0.0,0.0,-0.03845195137438073,-0.08309740266507512,-0.25815414808533077,-0.18980496742229183,-0.01915441706889378,0.0027189535958148272,-0.3446456933788817
3859,6.0,301.67715,1383.4229,0.0,0.0,0.0,0.0,0.0,-0.03846191818396455,-0.005727851848819965,-0.24678091220537976,-0.16801725317201183,0.030774762356732568,0.0068111960576127135,-0.36118290773097766
3860,6.0,300.99797,1338.3515,0.0,0.0,0.0,0.0,0.0,-0.038471884993548394,-0.01800940392588978,-0.24358567867753475,-0.14523035273311988,-0.04259272383807455,0.030088016902706072,-0.35260788359218864
3861,6.0,301.17762,1698.2848,0.0,0.0,0.0,0.0,0.0,-0.03848185180313218,-0.08434415017111951,-0.2729567694587357,-0.15893524934568784,-0.015737918090211588,-0.03461097080508686,-0.39385241129770665
3862,6.0,299.7214,1724.3783,0.0,0.0,0.0,0.0,0.0,-0.03849181861271603,-0.13071627459069188,-0.25036206229881175,-0.14308961871684586,-0.03353971821636247,6.750819118603974e-05,-0.37301788168149863
3863,6.0,299.79041,1622.5042,0.0,0.0,0.0,0.0,0.0,-0.03850178542229982,-0.08845560091638811,-0.23830259265613477,-0.16644257132410284,0.006137860056734624,-0.009588792212240111,-0.3905223648440566
3864,6.0,299.11834,1690.7833,0.0,0.0,0.0,0.0,0.0,-0.03851175223188366,-0.09088105922401221,-0.23329310442673676,-0.18978175386250082,-0.007689237658968674,0.02622873370982447,-0.3419646032167787
3865,6.0,299.62236,1825.7687,0.0,0.0,0.0,0.0,0.0,-0.03852171904146748,-0.08976810126117181,-0.26360139075543176,-0.2016185921932058,0.008851820052081622,-0.011650386126803589,-0.3455218608728527
3866,6.0,299.54453,1793.4659,0.0,0.0,0.0,0.0,0.0,-0.038531685851051295,-0.0966314399795306,-0.2332479742672828,-0.21528944360241378,-0.003636388841183637,0.024282371460233477,-0.3153149806141657
3867,6.0,300.44097,1736.8857,0.0,0.0,0.0,0.0,0.0,-0.03854165266063511,-0.11178638158495689,-0.24290320407267976,-0.17328030723893484,0.032378214427980966,-0.00857282173837163,-0.34274573798387065
3868,6.0,299.87254,1593.9827,0.0,0.0,0.0,0.0,0.0,-0.038551619470218956,-0.08349619966593333,-0.2353496170946988,-0.16568512634434884,0.013001173139865888,0.03130115692943367,-0.3438712764599527
3869,6.0,299.32591,1524.277,0.0,0.0,0.0,0.0,0.0,-0.038561586279802745,-0.06488765892941334,-0.24034659168536177,-0.15810787997653283,-0.007770018415241112,-0.019848658547160083,-0.37898707987561264
3870,6.0,301.04798,1830.1758,0.0,0.0,0.0,0.0,0.0,-0.03857155308938659,-0.08123115506114083,-0.27767114859650877,-0.19742544917187482,-0.035297766921618366,0.00974164625872563,-0.33126093313540866
3871,6.0,301.19588999999996,1813.9695,0.0,0.0,0.0,0.0,0.0,-0.03858151989897038,-0.09401102525991581,-0.26620955730783774,-0.19118084960058082,0.00010791930244580592,0.012964871428533187,-0.3480285098977397
3872,6.0,300.32627,1712.3621,0.0,0.0,0.0,0.0,0.0,-0.038591486708554223,-0.07259502788832142,-0.26598412942558974,-0.18193616847070185,-0.0026044741677165874,0.01167873179835109,-0.3438773356955507
3873,6.0,300.13563,1844.5577,0.0,0.0,0.0,0.0,0.0,-0.03860145351813804,-0.10602439303629291,-0.2862522421033967,-0.16842286731954284,-0.0008880359659698261,-0.03574134147089576,-0.3962828335175706
3874,6.0,299.57517,2071.1401,0.0,0.0,0.0,0.0,0.0,-0.038611420327721885,-0.14302437554290687,-0.28845815849860373,-0.19809232985769082,-0.005503730552575916,-0.009505675407862122,-0.36764046207578865
3875,6.0,299.36337000000003,1839.6586,0.0,0.0,0.0,0.0,0.0,-0.0386213871373057,-0.10003250107968921,-0.25201073166902277,-0.2071670382832948,0.014974582074376186,-0.026448489418012675,-0.38857586073945166
3876,6.0,299.17,1541.4102,0.0,0.0,0.0,0.0,0.0,-0.03863135394688949,-0.060231456559381946,-0.24999145594223574,-0.15832731955068985,-0.0015821251831435986,0.006319450484006203,-0.3632143525914657
3877,6.0,298.90872,1408.8036,0.0,0.0,0.0,0.0,0.0,-0.03864132075647331,-0.03255439632886877,-0.2358208695837078,-0.15986586890003285,-0.002219658093063198,-0.025789599222485273,-0.37285924724584263
3878,6.0,300.21035,1607.2079,0.0,0.0,0.0,0.0,0.0,-0.03865128756605715,-0.08785937821304551,-0.25918275905684673,-0.14150891816334285,-0.020124566549390082,0.02638653626714837,-0.35544266352945963
3879,6.0,299.71173,1701.6464,0.0,0.0,0.0,0.0,0.0,-0.03866125437564097,-0.08086928899992742,-0.25915363824897275,-0.1772351034392428,-0.02179272375877438,0.01147057476405759,-0.3804852917384746
3880,6.0,299.3177,1712.7475,0.0,0.0,0.0,0.0,0.0,-0.03867122118522481,-0.1120587634768389,-0.24469725456723876,-0.16387644451834585,0.009436190465029491,0.02155495246380818,-0.38298820187049265
3881,6.0,299.6553,1589.279,0.0,0.0,0.0,0.0,0.0,-0.0386811879948086,-0.03385965294868757,-0.25246549857890477,-0.19677599638777882,-0.011330386546472091,-0.03005634777083057,-0.37672849474020764
3882,6.0,300.25267,1493.5501,0.0,0.0,0.0,0.0,0.0,-0.03869115480439245,-0.06792104399228514,-0.22213858871337178,-0.16394228550984385,0.0002477125652748268,-0.009644023867241051,-0.3520211915192867
3883,6.0,300.42886,1805.9879,0.0,0.0,0.0,0.0,0.0,-0.038701121613976236,-0.09201284438696071,-0.2206944844058498,-0.23626789526282577,-0.004594714402288006,-0.009549633642250461,-0.31597991585978974
3884,6.0,301.31689,1928.8121,0.0,0.0,0.0,0.0,0.0,-0.03871108842356008,-0.15017580355619786,-0.24149431020613277,-0.1946406123320328,-0.006136212410747014,0.02125049816651088,-0.3290849177506527
3885,6.0,299.34558,1628.4147,0.0,0.0,0.0,0.0,0.0,-0.0387210552331439,-0.07176417699182283,-0.2325768277985458,-0.1906564217463238,0.013211663689139688,-0.02107834393477058,-0.3496674925969947
3886,6.0,299.52393,1733.7543,0.0,0.0,0.0,0.0,0.0,-0.038731022042727714,-0.1176185984980519,-0.24280059223505274,-0.16659882462202383,0.01108103278961279,-0.006518926700717974,-0.39464980872890365
3887,6.0,299.63712000000004,1876.8243,0.0,0.0,0.0,0.0,0.0,-0.03874098885231153,-0.10345766841297689,-0.26286059347482077,-0.2041894610094308,0.015441656933222886,0.0098507121955146,-0.36474273904230564
3888,6.0,299.28327,1591.8726,0.0,0.0,0.0,0.0,0.0,-0.038750955661895375,-0.08569813500149742,-0.23678502771636278,-0.16140634342456583,-0.01101485742558179,0.011468620204614689,-0.38244778492965764
3889,6.0,298.85979,1543.5549,0.0,0.0,0.0,0.0,0.0,-0.038760922471479164,-0.037776970041046666,-0.2539681586097058,-0.17745701534364383,-0.006019324588486084,-0.01130695513790959,-0.34586127939135064
3890,6.0,299.07557,1469.9409,0.0,0.0,0.0,0.0,0.0,-0.03877088928106298,-0.07369491695137202,-0.21637110834916579,-0.15675930488843887,-0.016200828491147286,-0.02710913456271327,-0.3725516245154826
3891,6.0,299.8812,1497.3018,0.0,0.0,0.0,0.0,0.0,-0.0387808560906468,-0.03551150088446227,-0.25104976527418277,-0.16858107619015683,0.0018215043033684784,-0.00913368231719926,-0.3610587339312227
3892,6.0,300.94547,1636.5907,0.0,0.0,0.0,0.0,0.0,-0.03879082290023064,-0.08475865254852773,-0.26490396428898577,-0.14782007813370585,-0.004412762244730726,0.000985411499332543,-0.4032129373115186
3893,6.0,301.212,1795.4298,0.0,0.0,0.0,0.0,0.0,-0.03880078970981446,-0.07290081055649983,-0.27001822257872377,-0.2028467830369188,0.0007145098442566313,-0.026715853695399472,-0.36996041976975064
3894,6.0,300.32276,1628.4535,0.0,0.0,0.0,0.0,0.0,-0.038810756519398304,-0.07620121843147472,-0.26448196588733774,-0.15432602530329287,0.004535000331494686,0.0097235077647105,-0.36031393431271663
3895,6.0,299.41071,1556.839,0.0,0.0,0.0,0.0,0.0,-0.03882072332898212,-0.05656348207813105,-0.23490263194558478,-0.18177405858720283,-0.0006611300456684554,0.031127591240304075,-0.3565253111288087
3896,6.0,300.06142,1778.9996,0.0,0.0,0.0,0.0,0.0,-0.03883069013856591,-0.13340448790099788,-0.24858278499071076,-0.15878418388827886,-0.0008000697364807352,0.00910752293539253,-0.3401925098518867
3897,6.0,299.68096,1686.4922,0.0,0.0,0.0,0.0,0.0,-0.03884065694814973,-0.08152790561792782,-0.25236638245412274,-0.17875723813696584,-0.018590812912770382,-0.004047439987426226,-0.3804188326644157
3898,6.0,300.20892000000003,1593.6849,0.0,0.0,0.0,0.0,0.0,-0.03885062375773357,-0.0990309773230965,-0.24219949174572877,-0.14320994216622088,-0.011812518301804789,-0.0017641199985300884,-0.3715966160312306
3899,6.0,300.03432000000004,1652.7331,0.0,0.0,0.0,0.0,0.0,-0.03886059056731739,-0.08343977784736492,-0.24013469069194876,-0.17881511498267783,0.002157706158099018,0.00889303369592409,-0.37942162231349863
3900,6.0,299.0234,1662.6343,0.0,0.0,0.0,0.0,0.0,-0.038870557376901205,-0.1009373850947443,-0.2328837007238318,-0.17157820919095085,-0.005647144451854765,0.018375296643000583,-0.3335520739965267
3901,6.0,298.89949,1695.4116,0.0,0.0,0.0,0.0,0.0,-0.03888052418648502,-0.08708264500438792,-0.2575763624808078,-0.17070378448715184,0.006354175172883264,0.01166510561100629,-0.3478851248760887
3902,6.0,299.24762999999996,1747.6118,0.0,0.0,0.0,0.0,0.0,-0.038890490996068866,-0.1040577455196999,-0.2372826348404728,-0.18988998923818282,0.0004937925211935275,-0.013529098733468088,-0.32274629870257965
3903,6.0,298.22426,1768.1094,0.0,0.0,0.0,0.0,0.0,-0.038900457805652655,-0.08980676992473811,-0.27943357555544673,-0.16822075432209582,0.012883531763505589,0.005118465101503175,-0.35774858770953666
3904,6.0,299.83665,1923.4159,0.0,0.0,0.0,0.0,0.0,-0.03891042461523647,-0.1080843912845989,-0.2917578885092617,-0.18482811597861482,0.030995728898790268,-0.023199440150856475,-0.38076497916357765
3905,6.0,299.92512999999997,1898.7842,0.0,0.0,0.0,0.0,0.0,-0.038920391424820316,-0.10045381249776941,-0.28428696247443874,-0.19244219398756582,-0.004252947271383215,-0.0014459927017333686,-0.37948665270491666
3906,6.0,299.89265,1890.0441,0.0,0.0,0.0,0.0,0.0,-0.03893035823440413,-0.10961158210032089,-0.2993566360441997,-0.16555798372180083,0.002090154091157148,0.0019486472298915081,-0.3594619936286366
3907,6.0,300.53137000000004,1613.0686,0.0,0.0,0.0,0.0,0.0,-0.03894032504398795,-0.07239957903678214,-0.2311278396255418,-0.1868051695737348,-0.012847083130908387,0.027537661334755572,-0.37127096758159167
3908,6.0,300.67954,1568.4832,0.0,0.0,0.0,0.0,0.0,-0.03895029185357177,-0.07660798464436942,-0.25118151818468576,-0.14899021987918984,0.0010901019790096889,0.011134556712895188,-0.3743664669020937
3909,6.0,300.32736,1602.3726,0.0,0.0,0.0,0.0,0.0,-0.03896025866315561,-0.04932444846119405,-0.26079059444802777,-0.17696622739270684,-0.023560894832529274,-0.007905398457127082,-0.39215050576724164
3910,6.0,299.54455,1662.5887,0.0,0.0,0.0,0.0,0.0,-0.0389702254727394,-0.07723466260596772,-0.25110576760720976,-0.17704503798548485,0.010523790830867292,-0.019174556427881382,-0.36593387532986166
3911,6.0,300.03529,1622.0576,0.0,0.0,0.0,0.0,0.0,-0.03898019228232322,-0.03668142478117476,-0.27107497150551674,-0.18530859917603482,-0.0006409304185649074,-0.00029056303359383873,-0.3999645892134316
3912,6.0,299.6761,1801.6702,0.0,0.0,0.0,0.0,0.0,-0.03899015909190706,-0.09124230213641411,-0.26323636740690676,-0.19318410584328682,0.022156840248459878,-0.004342685867814726,-0.3252408596537737
3913,6.0,298.74597,1856.1931,0.0,0.0,0.0,0.0,0.0,-0.03900012590149088,-0.09148575067169061,-0.26303066750410575,-0.20971995230774781,-0.008003133420697773,-0.006257642329231214,-0.3493204747027467
3914,6.0,300.28215,1929.1925,0.0,0.0,0.0,0.0,0.0,-0.039010092711074695,-0.1269838969198349,-0.2699655437060247,-0.18947689730491382,0.001928874059490048,-0.012333920591263188,-0.3050628046448547
3915,6.0,300.6324,2071.7402,0.0,0.0,0.0,0.0,0.0,-0.03902005952065854,-0.11200364267139888,-0.2960774344805677,-0.22167622242773977,0.006074028137534905,0.036888700287881264,-0.34429184617895964
3916,6.0,301.22274,2124.808,0.0,0.0,0.0,0.0,0.0,-0.03903002633024233,-0.15460329106065687,-0.2852659140585537,-0.2060193805575298,0.004429753030357586,0.021933989061216182,-0.3360832436738337
3917,6.0,301.12925,1857.2826,0.0,0.0,0.0,0.0,0.0,-0.039039993139826146,-0.0961623153157316,-0.26067619851173773,-0.2077290070537568,-0.01101775430761769,-0.0005811606494135904,-0.35827896334188064
3918,6.0,300.2679,1596.1539,0.0,0.0,0.0,0.0,0.0,-0.03904995994940996,-0.11636252301158688,-0.19425467550144382,-0.17457375138908782,-0.019414148533277283,-0.02413429205086918,-0.34612703462757866
3919,6.0,299.04276,1673.3282,0.0,0.0,0.0,0.0,0.0,-0.03905992675899381,-0.08446900791469202,-0.24271935997453575,-0.18146162291886783,-0.003978585387480806,0.03324483305300957,-0.3622308109843977
3920,6.0,301.10497000000004,1666.6503,0.0,0.0,0.0,0.0,0.0,-0.039069893568577624,-0.1197682288502039,-0.2084707871869648,-0.17838106903734083,0.015182602319906187,0.008397714389214883,-0.36121326470397364
3921,6.0,299.14606000000003,1597.0059,0.0,0.0,0.0,0.0,0.0,-0.03907986037816144,-0.027775512676479673,-0.2740048854946768,-0.18366952528427083,-0.011794545271530989,-0.004907697225677006,-0.36410556684942164
3922,6.0,298.48714,1738.2184,0.0,0.0,0.0,0.0,0.0,-0.03908982718774523,-0.09404081987910631,-0.26164109631696575,-0.17269307814347984,0.018023101040741583,-0.02058673221150228,-0.36174256629121165
3923,6.0,298.26311,1903.9003,0.0,0.0,0.0,0.0,0.0,-0.039099793997329074,-0.05766716373630594,-0.2845572165411107,-0.23651378066459278,0.011262875718809288,0.03330041286074487,-0.3575788683177866
3924,6.0,299.28007,1953.0399,0.0,0.0,0.0,0.0,0.0,-0.03910976080691289,-0.12663123522252986,-0.2926414020664577,-0.17440273503720982,0.009267335983564851,-0.0038410969747867565,-0.3554855746711946
3925,6.0,299.55129,1920.7133,0.0,0.0,0.0,0.0,0.0,-0.039119727616496736,-0.10649811785554589,-0.25917799678137676,-0.2181727784844768,-0.034221076219607266,-0.026687098670811576,-0.3344992297925037
3926,6.0,300.10148,1661.4435,0.0,0.0,0.0,0.0,0.0,-0.039129694426080525,-0.10751045603045589,-0.23350269520992178,-0.16402417638292585,-0.022878866057718276,-0.023670394744336076,-0.3557432441716247
3927,6.0,299.89465,1506.4149,0.0,0.0,0.0,0.0,0.0,-0.03913966123566437,-0.026134018130226772,-0.26638336009749075,-0.16539512403322784,-0.009041587812960241,0.02429143194262768,-0.3863746559572096
3928,6.0,300.30582999999996,1531.3337,0.0,0.0,0.0,0.0,0.0,-0.039149628045248186,-0.08729617733046191,-0.2140041155855618,-0.16418692461398784,-0.003731726049717687,0.018860080073844984,-0.39376743001181963
3929,6.0,300.02942,1684.8826,0.0,0.0,0.0,0.0,0.0,-0.03915959485483203,-0.05822791559339785,-0.2757701090238907,-0.17816422338343985,-0.022462916759167277,0.020097048703174282,-0.4018837153003346
3930,6.0,300.21749,1567.5571,0.0,0.0,0.0,0.0,0.0,-0.03916956166441582,-0.1027930168773809,-0.2276162086214708,-0.14608899100036085,0.004145860212039546,-0.01051194087094779,-0.37605028591827366
3931,6.0,299.60407000000004,1577.7797,0.0,0.0,0.0,0.0,0.0,-0.039179528473999636,-0.07134176417088393,-0.22015620542272576,-0.18810766204728083,0.014187093215907087,0.027051113835487074,-0.37668470207088567
3932,6.0,299.52682000000004,1912.0639999999999,0.0,0.0,0.0,0.0,0.0,-0.03918949528358345,-0.1283724244593719,-0.2830597848808257,-0.16978749228922083,0.013849704237359385,-0.015887733196997187,-0.3521369046807067
3933,6.0,298.76794,1987.6291,0.0,0.0,0.0,0.0,0.0,-0.0391994620931673,-0.1136008490690309,-0.24949637181087478,-0.24109239442146674,0.011426704074477888,-0.03386727562918987,-0.34586775405948966
3934,6.0,298.54026,1898.9713,0.0,0.0,0.0,0.0,0.0,-0.039209428902751114,-0.1327006641165359,-0.25639370709658876,-0.1881454968060148,0.0070742784414019235,-0.01056944990687349,-0.3265756545405077
3935,6.0,299.57456,1788.6289,0.0,0.0,0.0,0.0,0.0,-0.03921939571233496,-0.08872535545076082,-0.25596259957654177,-0.1990105674958138,0.02193830449339208,0.03713723533865976,-0.3434675773551107
3936,6.0,299.73219,1715.1791,0.0,0.0,0.0,0.0,0.0,-0.03922936252191872,-0.12212725746802189,-0.22438557213513177,-0.17485878877471883,0.008071247030845061,0.009119129309987992,-0.3302945965150387
3937,6.0,299.34732,1675.8937,0.0,0.0,0.0,0.0,0.0,-0.039239329331502565,-0.06476016977533114,-0.26969827872714774,-0.17497138112583083,-0.026017356566713175,-0.005218301140481225,-0.36884028191670165
3938,6.0,299.94698999999997,1719.9638,0.0,0.0,0.0,0.0,0.0,-0.03924929614108638,-0.1147683664967559,-0.2361890644050458,-0.17186859653710984,0.011611111539677489,-0.01975522371568878,-0.34680678358966466
3939,6.0,299.78992,1522.9645,0.0,0.0,0.0,0.0,0.0,-0.039259262950670226,-0.062120039235270534,-0.24585746646174278,-0.15496566982642085,-0.0016810980343614581,0.01924600575868288,-0.4088728814426116
3940,6.0,299.84035,1367.8868,0.0,0.0,0.0,0.0,0.0,-0.03926922976025404,-0.03212474383596537,-0.25093090090495174,-0.1327477802461859,0.01106398789643059,0.0005890866665983275,-0.4255839999093706
3941,6.0,299.41789,1500.7232,0.0,0.0,0.0,0.0,0.0,-0.03927919656983786,-0.05006736850076455,-0.23939022544597577,-0.16672478174195485,-0.024069733833997773,-0.02095948868479048,-0.4321384310962426
3942,6.0,299.07826,1706.9539,0.0,0.0,0.0,0.0,0.0,-0.03928916337942165,-0.07723923641691913,-0.26951643073170073,-0.17211568770649582,-0.017893857950736284,-0.015013214260938886,-0.3787301196502526
3943,6.0,300.21845,1638.9494,0.0,0.0,0.0,0.0,0.0,-0.03929913018900549,-0.06069478847235925,-0.24562781332657777,-0.1918770942742948,-0.009269099545363901,0.024866337890366477,-0.3723505247681356
3944,6.0,300.4615,1710.9982,0.0,0.0,0.0,0.0,0.0,-0.03930909699858931,-0.07817544911181612,-0.26088183761953276,-0.18104345460259783,0.0039138064847376265,-0.004001426273885026,-0.33351408725027765
3945,6.0,300.66847,1789.2356,0.0,0.0,0.0,0.0,0.0,-0.039319063808173155,-0.08913547856123683,-0.2659875339459257,-0.18875993166665483,-0.008713810119561101,-0.006818496321933193,-0.3593508806226707
3946,6.0,300.75253,2049.011,0.0,0.0,0.0,0.0,0.0,-0.039329030617756944,-0.13281867735568287,-0.2631094476993807,-0.22692006527276679,0.012658367326283589,-0.017513241696422384,-0.3258583545297157
3947,6.0,300.42099,2107.7561,0.0,0.0,0.0,0.0,0.0,-0.03933899742734079,-0.13015078984238287,-0.2830240272847967,-0.22753041673550378,0.02187915095255408,0.01197373956496609,-0.34467421636919665
3948,6.0,301.30359,1914.767,0.0,0.0,0.0,0.0,0.0,-0.039348964236924605,-0.12035056394767588,-0.2663787092795317,-0.1953120729083008,0.013896780850255488,-0.02428455704069918,-0.3523892951481157
3949,6.0,299.89345,1529.0972,0.0,0.0,0.0,0.0,0.0,-0.03935893104650845,-0.056471017940255545,-0.22686494446732677,-0.18147141091483385,0.006022006965475814,-0.018468902713738782,-0.37181410003269466
3950,6.0,299.70566,1530.539,0.0,0.0,0.0,0.0,0.0,-0.03936889785609224,-0.1001941570271434,-0.23535383221511477,-0.1296976542651619,-0.0038788766127153163,-0.021711495551257776,-0.37041705105981665
3951,6.0,299.87819,1920.5279999999998,0.0,0.0,0.0,0.0,0.0,-0.039378864665676055,-0.12444235156150388,-0.26009241446662273,-0.19925779038771282,0.01750574465893248,0.02160678831242398,-0.3934623100092066
3952,6.0,300.06765,1947.8615,0.0,0.0,0.0,0.0,0.0,-0.03938883147525987,-0.13487904037402487,-0.2650912737024717,-0.1921309336893468,-0.01981661856574798,0.00894158934999116,-0.4025973270807626
3953,6.0,299.93789,1745.3026,0.0,0.0,0.0,0.0,0.0,-0.03939879828484372,-0.052315008508589354,-0.26876785169032175,-0.2094455337831648,-0.029289357975134576,-0.014661984286025186,-0.37564633350090665
3954,6.0,300.18942000000004,1715.8706,0.0,0.0,0.0,0.0,0.0,-0.039408765094427534,-0.07132608919183693,-0.24027533993832978,-0.2099803879809508,-0.028103394329339077,-0.008294801717633192,-0.36842214399793466
3955,6.0,298.99692999999996,1832.9596,0.0,0.0,0.0,0.0,0.0,-0.03941873190401138,-0.06131368568643964,-0.28054088566222973,-0.21531937501036777,-0.021108135514210778,0.013333491814913187,-0.3249949641195057
3956,6.0,299.03618,1881.6991,0.0,0.0,0.0,0.0,0.0,-0.03942869871359514,-0.11747445353882588,-0.25963594529657275,-0.1948791415380738,0.003067175535156657,-0.013579637621955886,-0.36306853576957465
3957,6.0,299.51639,1810.5786,0.0,0.0,0.0,0.0,0.0,-0.039438665523178984,-0.07331364512424343,-0.2810067375282057,-0.1960503167986598,-0.0026285294343656577,-0.015201850018805786,-0.3556643018563337
3958,6.0,299.04467999999997,1366.7943,0.0,0.0,0.0,0.0,0.0,-0.0394486323327628,-0.06085173280684844,-0.23456505754226878,-0.12005453279845989,0.02009031768275998,-0.004326708838912915,-0.4055780352974356
3959,6.0,300.11009,1435.425,0.0,0.0,0.0,0.0,0.0,-0.039458599142346645,-0.018178128306041586,-0.25172565375338773,-0.16642957132531985,0.041807645501593355,0.026234635891656977,-0.38264981686709665
3960,6.0,300.27135,1701.4761,0.0,0.0,0.0,0.0,0.0,-0.03946856595193046,-0.1002845490685644,-0.2526646934160638,-0.16425700099090385,-0.0093939714744378,0.013763868781638086,-0.41034201302760365
3961,6.0,300.81588999999997,1918.8898,0.0,0.0,0.0,0.0,0.0,-0.03947853276151428,-0.0927638795465821,-0.2556967734128067,-0.23483394372130578,0.0039051929469625358,-0.016019848851035984,-0.35558968611896963
3962,6.0,300.89754,1725.1082,0.0,0.0,0.0,0.0,0.0,-0.03948849957109807,-0.1146122347888469,-0.24049538746254676,-0.16928218446435084,-0.03192588742433977,-0.008511539561723553,-0.36405086147652266
3963,6.0,300.01772,1576.4814,0.0,0.0,0.0,0.0,0.0,-0.03949846638068191,-0.06325467872375073,-0.22150020062036777,-0.1944560994888228,-0.0005110908484907395,0.018344079420669682,-0.3429142212104987
3964,6.0,299.25254,1944.6277,0.0,0.0,0.0,0.0,0.0,-0.03950843319026573,-0.14809123399296686,-0.24708546478793678,-0.19594154440042483,-0.02294204929420398,-0.0032643114481124575,-0.3408038542997217
3965,6.0,299.6487,2073.7602,0.0,0.0,0.0,0.0,0.0,-0.039518399999849574,-0.10532536192480389,-0.2668524138337827,-0.2581935229842167,-0.0038183486994416765,-0.009801528529035552,-0.3443103075957817
3966,6.0,300.54036,1700.8648,0.0,0.0,0.0,0.0,0.0,-0.03952836680943336,-0.11930121174661289,-0.2341794652167138,-0.16353975164261686,-0.01078928363531939,-0.0041805927029423765,-0.3427062009649687
3967,6.0,300.77072999999996,1558.6469,0.0,0.0,0.0,0.0,0.0,-0.03953833361901721,-0.04931260762052545,-0.24960077710117878,-0.17487636866395384,0.04248858401929676,0.00021066533491604977,-0.3483000507920387
3968,6.0,300.44921,1606.8931,0.0,0.0,0.0,0.0,0.0,-0.039548300428601024,-0.09760144456526261,-0.24350186262926277,-0.14735208831001886,0.03046901413905757,0.017199622551970585,-0.38328012935680367
3969,6.0,299.19212000000005,1915.2910000000002,0.0,0.0,0.0,0.0,0.0,-0.03955826723818487,-0.10824903429334791,-0.28364782457636073,-0.19030379044652182,0.009965416970435079,-0.014085694238649787,-0.3827936274537897
3970,6.0,300.31853,2029.1791,0.0,0.0,0.0,0.0,0.0,-0.03956823404776866,-0.1074388496458889,-0.30205269191027967,-0.2073282362417038,-0.0058771262853522035,0.008019460223534102,-0.3997365167484226
3971,6.0,300.06481,1536.994,0.0,0.0,0.0,0.0,0.0,-0.039578200857352475,-0.05337067731077575,-0.24616956775754475,-0.16766755016499885,-0.02222960376464108,0.015072281675518384,-0.40535916314333464
3972,6.0,300.08132,1339.3552,0.0,0.0,0.0,0.0,0.0,-0.03958816766693629,-0.016993598409137584,-0.23781000112001976,-0.15232694365099886,-0.008377244710694683,0.009117799723206772,-0.3942691813288386
3973,6.0,299.61253,1519.9238,0.0,0.0,0.0,0.0,0.0,-0.039598134476520136,-0.06111345632092854,-0.23330673264058177,-0.16759867955570185,-0.037115126221477765,-0.007106466661303654,-0.3900215558496306
3974,6.0,299.06257999999997,1725.1691,0.0,0.0,0.0,0.0,0.0,-0.03960810128610395,-0.08678667667667811,-0.24508787261328974,-0.19253379179660582,0.007485115487898383,0.006724476237204134,-0.3481870227433837
3975,6.0,301.52747,1727.7944,0.0,0.0,0.0,0.0,0.0,-0.0396180680956878,-0.08283983144990482,-0.25670982086278676,-0.18565671138039083,0.012716533961524189,0.023807110553828878,-0.37199396205794566
3976,6.0,301.34227999999996,1557.3191,0.0,0.0,0.0,0.0,0.0,-0.03962803490527156,-0.05718966658693065,-0.26515241321350574,-0.15104402716938486,0.014276771929257685,0.010627283182831189,-0.36518327992078364
3977,6.0,300.19377000000003,1721.9323,0.0,0.0,0.0,0.0,0.0,-0.0396380017148554,-0.08336864465059463,-0.26445143666182475,-0.17560432806579784,0.008000652376502913,-0.00922234484202457,-0.3824935331716726
3978,6.0,299.6838,2123.7992,0.0,0.0,0.0,0.0,0.0,-0.03964796852443922,-0.13167863927066986,-0.31868028817129573,-0.19522298795950882,-0.023746843451130976,0.005256301058981525,-0.35571946319177766
3979,6.0,299.8736,2071.2819,0.0,0.0,0.0,0.0,0.0,-0.039657935334023064,-0.1336366640289119,-0.26885349158877375,-0.2271278119407698,0.01140739558057229,-0.01047690166923969,-0.38736934331537765
3980,6.0,298.58346,1782.4743,0.0,0.0,0.0,0.0,0.0,-0.03966790214360688,-0.1095946202936469,-0.24049605620761277,-0.1917370124479698,-0.00998217369528884,-0.01142647001370479,-0.36202242596883166
3981,6.0,299.45264,1451.0928,0.0,0.0,0.0,0.0,0.0,-0.0396778689531907,-0.058335744655789744,-0.20952529683103682,-0.17323494403195783,-0.003032471111281597,-0.024121304211087376,-0.37731366693795965
3982,6.0,299.24321000000003,1634.2417,0.0,0.0,0.0,0.0,0.0,-0.03968783576277449,-0.09005788471027122,-0.19849868367779483,-0.20821210443643481,0.0008463624788344732,-0.014123012239832788,-0.3429378400703297
3983,6.0,300.18548,2087.715,0.0,0.0,0.0,0.0,0.0,-0.03969780257235833,-0.13463535372497487,-0.2598622445739067,-0.24011562132506675,0.008409347412287972,0.009952642723774361,-0.36329226139165466
3984,6.0,301.35651,1815.5015,0.0,0.0,0.0,0.0,0.0,-0.03970776938194215,-0.1024697495654769,-0.2577041839809227,-0.19169319951364583,0.0009860753706655621,-0.004673401885178855,-0.3679181635306956
3985,6.0,300.59371,1513.8921,0.0,0.0,0.0,0.0,0.0,-0.03971773619152599,-0.07231669112560174,-0.23386297654797877,-0.15400572681418187,0.002213175724223438,-0.01886703907553178,-0.3721745434907676
3986,6.0,300.52088,1848.2733,0.0,0.0,0.0,0.0,0.0,-0.03972770300110978,-0.11898038636744987,-0.26394172119901976,-0.1789068343817298,-0.02127581928650988,0.015521324735585484,-0.3710060736079486
3987,6.0,300.17269,2084.5467,0.0,0.0,0.0,0.0,0.0,-0.03973766981069363,-0.1031668048392709,-0.3208995490703197,-0.2095837917593098,0.010982667483154887,-0.004797841865735126,-0.38519429051821663
3988,6.0,299.30859,1682.7187,0.0,0.0,0.0,0.0,0.0,-0.03974763662027744,-0.06434183224629444,-0.27877751638069875,-0.16838511362081685,-0.005702891243206545,0.01070675846767479,-0.4031872412889826
3989,6.0,299.20846,1258.3079,0.0,0.0,0.0,0.0,0.0,-0.03975760342986129,0.00934000972578719,-0.24634852799020676,-0.14548566136081686,0.006856860706494464,-0.01178589211567699,-0.40273312285916457
3990,6.0,299.71724,1217.4557,0.0,0.0,0.0,0.0,0.0,-0.03976757023944508,-0.04560271295613736,-0.2117035514985138,-0.11276988266202088,0.005519223957204995,-0.007925394745200563,-0.4051973167048616
3991,6.0,299.63746000000003,1507.5017,0.0,0.0,0.0,0.0,0.0,-0.039777537049028894,-0.04940207355135505,-0.23899530108699976,-0.16984550085744585,0.0035552555752014063,0.02002581418139398,-0.3844367036834486
3992,6.0,299.97182000000004,1860.0944,0.0,0.0,0.0,0.0,0.0,-0.03978750385861271,-0.12631654000647188,-0.27087673925595274,-0.16822897178040686,0.002914544707668167,0.009844528330154301,-0.3956712154922086
3993,6.0,299.82069,1932.0514,0.0,0.0,0.0,0.0,0.0,-0.039797470668196555,-0.07947341742366563,-0.25972362182772574,-0.24809832985289879,0.008086689468994112,-0.0016332299718122487,-0.35383962081125164
3994,6.0,300.54233,1834.2991,0.0,0.0,0.0,0.0,0.0,-0.03980743747778037,-0.1048659441969629,-0.2553330267594077,-0.1973821529951018,-0.013688783909477788,0.009343909320122051,-0.3569688106975787
3995,6.0,300.31182,1912.3194,0.0,0.0,0.0,0.0,0.0,-0.039817404287364216,-0.06397306493864995,-0.27514329224702877,-0.2421809999314038,0.012309314825834788,-0.0099591603537176,-0.34924249497505067
3996,6.0,299.62323,2102.335,0.0,0.0,0.0,0.0,0.0,-0.03982737109694798,-0.15778045833921886,-0.27106422092195576,-0.2102126553013738,-0.019537677905968682,-0.018292610368590086,-0.34097245911636165
3997,6.0,300.18429,2131.3494,0.0,0.0,0.0,0.0,0.0,-0.03983733790653182,-0.14651824427272486,-0.3057791522005527,-0.1955795911997028,-0.0044558052103037355,-0.011354672124868887,-0.3500687295040937
3998,6.0,299.64133,1630.3634,0.0,0.0,0.0,0.0,0.0,-0.03984730471611564,-0.1136873502300679,-0.2234002877378918,-0.15850212545794184,0.006868165335210144,0.008952409645159042,-0.34198637796142767
3999,6.0,299.33432,1566.0736,0.0,0.0,0.0,0.0,0.0,-0.039857271525699484,-0.06178545391974954,-0.24625335340831378,-0.16800846829364482,0.008982233851252462,0.03793478171762146,-0.36426318803497765
4000,6.0,298.91661,1764.3112,0.0,0.0,0.0,0.0,0.0,-0.0398672383352833,-0.07793851780118283,-0.25211390079420476,-0.2062541100756958,0.00013001834792181189,0.012647952128505687,-0.3668481511600936
4001,6.0,299.1559,1815.3316,0.0,0.0,0.0,0.0,0.0,-0.03987720514486712,-0.07876531468403133,-0.25149316351794276,-0.22155701355347476,-0.01037165335485249,-0.022578904511364378,-0.37629065923949667
4002,6.0,298.84743,1880.479,0.0,0.0,0.0,0.0,0.0,-0.039887171954450906,-0.1168431277990189,-0.2676466296596658,-0.18712891311318583,-0.004669593078052955,-0.03885333954277606,-0.35798730943309665
4003,6.0,299.9273,1823.5597,0.0,0.0,0.0,0.0,0.0,-0.03989713876403475,-0.10846025640919389,-0.26082720317414076,-0.18502916506345682,-0.00045547593163947455,-0.01047337961189209,-0.36604187765802065
4004,6.0,300.40938,1653.2604,0.0,0.0,0.0,0.0,0.0,-0.03990710557361857,-0.07340183132019673,-0.2701298016797357,-0.15901825479387985,-0.004823501005967485,-0.001206213753019029,-0.38467782680974566
4005,6.0,300.4589,1833.8084,0.0,0.0,0.0,0.0,0.0,-0.039917072383202384,-0.0884532684146579,-0.2863044244835467,-0.1826742603735458,0.007359634088889333,0.007438190558542253,-0.39785750523297864
4006,6.0,300.11768,1954.0832,0.0,0.0,0.0,0.0,0.0,-0.0399270391927862,-0.1069710320747189,-0.2761477270711587,-0.21087375032911881,0.018277325490831584,0.028417271852566373,-0.36551983094149865
4007,6.0,300.99779,1595.4534,0.0,0.0,0.0,0.0,0.0,-0.039937006002370046,-0.04619612085070216,-0.27312698534303476,-0.16565489096136485,-0.002846675189469967,0.01905126719546368,-0.4026853582494506
4008,6.0,299.89862,1501.8543,0.0,0.0,0.0,0.0,0.0,-0.03994697281195386,-0.06994979867375764,-0.26106995763309876,-0.12550645668402288,-0.010682946077074689,0.01081607498121349,-0.3912212844980346
4009,6.0,299.49976000000004,1716.2052,0.0,0.0,0.0,0.0,0.0,-0.03995693962153765,-0.0953841949676871,-0.24597661454100175,-0.18032271967396682,-0.02958981500078737,-0.012605440207310088,-0.37791442292224964
4010,6.0,300.03244,1881.7581,0.0,0.0,0.0,0.0,0.0,-0.039966906431121496,-0.1159898394923059,-0.26184680635226776,-0.19417081892316781,0.004896372230634316,-0.01309658786203259,-0.3343284768856517
4011,6.0,299.30776000000003,1859.5358,0.0,0.0,0.0,0.0,0.0,-0.03997687324070531,-0.10177188369160291,-0.24934164852060478,-0.21413893864386782,-0.0017904540646540583,-0.01026056061388849,-0.3693047557625416
4012,6.0,299.50967,1884.3875,0.0,0.0,0.0,0.0,0.0,-0.03998684005028913,-0.1014139226962749,-0.24442203557507677,-0.22697077844027178,-0.0003222555816791497,-0.011319315775879489,-0.34703843282752667
4013,6.0,299.86139,1813.3447,0.0,0.0,0.0,0.0,0.0,-0.039996806859872946,-0.09793642200857232,-0.26216888816155476,-0.19110619333321283,-0.011122083604164189,-0.021739332571255078,-0.3885182777362686
4014,6.0,299.05902000000003,1994.908,0.0,0.0,0.0,0.0,0.0,-0.04000677366945679,-0.16499519421875786,-0.2403737974505468,-0.2010332477429368,6.121153893060855e-05,-3.2891328331621366e-05,-0.3255077902601177
4015,6.0,299.86081,2182.5307,0.0,0.0,0.0,0.0,0.0,-0.04001674047904061,-0.15651195027402687,-0.2823640670971637,-0.2245588176372298,0.009812378917731401,0.015624896121057184,-0.3623467267958376
4016,6.0,299.32725,1957.9454,0.0,0.0,0.0,0.0,0.0,-0.0400267072886244,-0.13813885846324386,-0.26832945890205573,-0.18869819433806181,0.01252692345706109,-0.0001000074079409627,-0.35949318146671466
4017,6.0,299.68074,1428.2993,0.0,0.0,0.0,0.0,0.0,-0.04003667409820824,-0.02124994999820678,-0.22349651609988877,-0.1894208645743838,-0.015154198893102986,0.012318166578708387,-0.37691731389634264
4018,6.0,300.67842,1619.5739999999998,0.0,0.0,0.0,0.0,0.0,-0.04004664090779206,-0.06757585805421794,-0.24910974597021776,-0.17562444108028283,-0.01017037324898769,0.0005043235537228595,-0.37193762535238567
4019,6.0,300.96266,1901.6273,0.0,0.0,0.0,0.0,0.0,-0.040056607717375875,-0.07777861274990143,-0.2633874936593218,-0.23688112435584677,0.0007956126418083542,0.012016349771421388,-0.3770884113082287
4020,6.0,299.95673,1687.2263,0.0,0.0,0.0,0.0,0.0,-0.04006657452695972,-0.1147565925305939,-0.2522811985182158,-0.14583687411047885,-0.008485427903996532,0.005459710813906504,-0.4040383713729826
4021,6.0,300.41909,1556.1487,0.0,0.0,0.0,0.0,0.0,-0.040076541336543536,-0.034222536313001366,-0.2728232737580607,-0.16598454174889885,0.015292221795224787,0.002318001513318938,-0.39475124519641464
4022,6.0,299.88894,1507.136,0.0,0.0,0.0,0.0,0.0,-0.040086508146127325,-0.07490487131978522,-0.22194092388386377,-0.16128590851767982,0.0027732600521494575,-0.0050752767345408146,-0.38075965960055264
4023,6.0,300.09382,1679.2508,0.0,0.0,0.0,0.0,0.0,-0.04009647495571114,-0.03705636379517836,-0.27498305687621477,-0.19841090582163182,0.03414694684229126,0.01185803653604709,-0.40069676373569163
4024,6.0,299.55026000000004,1885.3832,0.0,0.0,0.0,0.0,0.0,-0.04010644176529499,-0.08409558674933823,-0.2789257447378277,-0.2100880964665808,-0.011509107652110488,-0.026867654772381077,-0.3984773407166516
4025,6.0,299.70914,1806.6925,0.0,0.0,0.0,0.0,0.0,-0.040116408574878804,-0.0941084249390284,-0.26732490248791374,-0.1877560946600838,-0.012612272552734387,-0.014592548283172385,-0.37783659518206864
4026,6.0,300.34153,1520.0012,0.0,0.0,0.0,0.0,0.0,-0.04012637538446262,-0.08916866452851202,-0.23358038109508875,-0.13929335562718387,-0.03396703516778537,0.0017395962050347784,-0.36221811496064465
4027,6.0,300.94593,1571.6707,0.0,0.0,0.0,0.0,0.0,-0.04013634219404644,-0.07336584168989484,-0.24233773958937277,-0.16204504562510083,-0.008487518036302813,0.041225419835132164,-0.36622590414118267
4028,6.0,300.41479,2044.5618,0.0,0.0,0.0,0.0,0.0,-0.04014630900363028,-0.1238253734431129,-0.2660076874904147,-0.23166268369082677,-0.012669591097641288,0.007132221553670462,-0.35471086390973666
4029,6.0,300.48875,2055.3965,0.0,0.0,0.0,0.0,0.0,-0.04015627581321407,-0.10164958440453291,-0.2773182133216767,-0.24582140489068377,0.016145915401977785,0.003541343955303437,-0.33659037534888364
4030,6.0,300.65148,1509.8198,0.0,0.0,0.0,0.0,0.0,-0.040166242622797915,-0.04709541881795595,-0.21950611429106678,-0.1923459960230718,0.02370441765619388,0.002912722174713297,-0.3611453364172697
4031,6.0,299.80487999999997,1700.7338,0.0,0.0,0.0,0.0,0.0,-0.040176209432381704,-0.08283775631370001,-0.25713861817260575,-0.17700423440395782,0.02217531281103298,0.026275681639957874,-0.35570869234321467
4032,6.0,300.81244,2114.6142,0.0,0.0,0.0,0.0,0.0,-0.04018617624196555,-0.19389780881622382,-0.25862078015388373,-0.1902713259133178,-0.010076454083968591,0.0036723801940107066,-0.3618804696298216
4033,6.0,300.43598,1963.6465,0.0,0.0,0.0,0.0,0.0,-0.040196143051549366,-0.13462095544105387,-0.27132371427256574,-0.1909548239007738,-0.031151779546691266,-0.006528784509615864,-0.35265955934728865
4034,6.0,299.3203,1667.9368,0.0,0.0,0.0,0.0,0.0,-0.04020610986113321,-0.09089600567623732,-0.22956774857907278,-0.18654739874829482,-0.003414174380302777,-0.016882433727416483,-0.3470881834074367
4035,6.0,299.31532000000004,1768.8547,0.0,0.0,0.0,0.0,0.0,-0.04021607667071703,-0.05764803357441794,-0.2623007018670638,-0.2177389250566588,-0.02407248683451948,-0.004321272346826376,-0.37460097350523763
4036,6.0,299.26869,1853.3459,0.0,0.0,0.0,0.0,0.0,-0.040226043480300816,-0.06093505844207204,-0.2995411184899067,-0.20289468950164682,0.003135914624590677,-0.027180558562262272,-0.3940219989669436
4037,6.0,299.36151,1868.8582,0.0,0.0,0.0,0.0,0.0,-0.04023601028988463,-0.09599262733473472,-0.2978750414829777,-0.17421857683153483,-0.015333306047029484,-0.014432425383119486,-0.40538007662539866
4038,6.0,299.69686,1798.9352,0.0,0.0,0.0,0.0,0.0,-0.04024597709946848,-0.10965798895490089,-0.28678992326896174,-0.15038344889919086,0.04848852726119505,0.02088672516860928,-0.3877057930110826
4039,6.0,300.18442999999996,1389.3184,0.0,0.0,0.0,0.0,0.0,-0.040255943909052294,-0.04726620212231096,-0.26212549065977175,-0.11292639940496788,0.01749673382579318,0.034502922880673366,-0.4207690556991726
4040,6.0,301.04672,1372.9545,0.0,0.0,0.0,0.0,0.0,-0.04026591071863614,-0.025403409079371272,-0.26087615328647173,-0.1310643260000419,0.027441403588505678,0.021472808278201184,-0.3970566120889366
4041,6.0,301.19133999999997,1837.3891,0.0,0.0,0.0,0.0,0.0,-0.0402758775282199,-0.07415110038489384,-0.2849060481530377,-0.1994632673754918,-0.02099515711481068,-0.015939407938847086,-0.4023950316982976
4042,6.0,300.23929,2159.7349,0.0,0.0,0.0,0.0,0.0,-0.040285844337803745,-0.10958350494004991,-0.3000693561645397,-0.2468526097824558,0.015572271963863587,-0.014388859681819886,-0.3487912643080177
4043,6.0,300.73497000000003,1917.0214,0.0,0.0,0.0,0.0,0.0,-0.04029581114738756,-0.12824279937407887,-0.27223087708709576,-0.18225294084946483,-0.017292354187872484,0.007847202336308572,-0.38757193254037164
4044,6.0,300.00629,1844.4815,0.0,0.0,0.0,0.0,0.0,-0.040305777956971406,-0.12914109625023387,-0.26398900958118676,-0.16754621346552384,0.006775285156843582,-0.018819489274838983,-0.3594755205174716
4045,6.0,299.50697,1944.7733,0.0,0.0,0.0,0.0,0.0,-0.04031574476655522,-0.14511986794221587,-0.24127727203471278,-0.2047653721012688,-0.020704330018108282,-0.008507719102221502,-0.37233763622686367
4046,6.0,300.19471,1966.164,0.0,0.0,0.0,0.0,0.0,-0.04032571157613904,-0.13066792229591986,-0.2642439838363507,-0.20275286488514982,0.02085643405686978,0.007330845829698154,-0.3540079925803687
4047,6.0,299.77895,1784.9484,0.0,0.0,0.0,0.0,0.0,-0.040335678385722856,-0.07092962570595902,-0.2510544971521498,-0.22059561146109177,0.02321824201971208,0.02154302954988148,-0.3646872838643327
4048,6.0,299.47604,1558.5998,0.0,0.0,0.0,0.0,0.0,-0.0403456451953067,-0.06872187938107144,-0.2390332473032448,-0.16602028921242684,0.0016995005813526484,-0.006730740757272393,-0.3574128168913987
4049,6.0,299.80721,1347.0379,0.0,0.0,0.0,0.0,0.0,-0.04035561200489049,-0.05316644966037005,-0.2254517240228528,-0.13084771339366388,-0.017060390842479484,0.005192010441461534,-0.36726869048159766
4050,6.0,299.61232,1749.6535,0.0,0.0,0.0,0.0,0.0,-0.040365578814474334,-0.09774053543298981,-0.24733648736771074,-0.1867739614706548,-0.006817437880878733,0.010129293759458459,-0.34819502741917363
4051,6.0,299.93997,2235.5601,0.0,0.0,0.0,0.0,0.0,-0.04037554562405812,-0.16377965886879384,-0.2904816088158027,-0.2252931807797058,0.006294980696741223,0.046488085827266865,-0.36990247199653165
4052,6.0,300.34713999999997,2014.785,0.0,0.0,0.0,0.0,0.0,-0.04038551243364197,-0.1073366633733039,-0.2687827160692887,-0.23632496150845778,-0.005523261049578425,0.007561831794044693,-0.3787000970497897
4053,6.0,300.74563,1665.7533,0.0,0.0,0.0,0.0,0.0,-0.040395479243225785,-0.05818061403897954,-0.2577811504585188,-0.19038563065709882,0.003246586461463137,-0.01761762976147468,-0.38182589254828164
4054,6.0,300.67174,1785.7285,0.0,0.0,0.0,0.0,0.0,-0.04040544605280963,-0.0910819857055921,-0.25677590503430875,-0.1949589653809518,0.005319401918234095,-0.01047197423400339,-0.3667034185158096
4055,6.0,300.252,1769.6808,0.0,0.0,0.0,0.0,0.0,-0.040415412862393446,-0.09688050293361122,-0.2623479902492307,-0.17871027399483083,0.03202668351778757,0.013810778208267687,-0.38722908923653565
4056,6.0,299.75272,1487.8921,0.0,0.0,0.0,0.0,0.0,-0.040425379671977235,-0.04612141088107886,-0.23602392490374777,-0.17013672920118783,-0.012567560865571687,-0.015547724966940984,-0.3953648998544776
4057,6.0,299.38249,1269.0484,0.0,0.0,0.0,0.0,0.0,-0.04043534648156105,-0.026684884719343074,-0.2328543772659378,-0.12621977462192188,-0.0094284888523444,-0.014775068063435686,-0.36625063757612364
4058,6.0,299.76965,1423.8002,0.0,0.0,0.0,0.0,0.0,-0.040445313291144896,-0.010063853711025032,-0.23493629211390676,-0.18779956308937382,-0.026367913743560473,-0.003184050083841277,-0.37426687454976465
4059,6.0,299.50575,1865.3556,0.0,0.0,0.0,0.0,0.0,-0.04045528010072871,-0.07784113636057202,-0.2824320257813707,-0.2067483633419748,0.013610745413275987,0.04718109215366125,-0.3725354023813816
4060,6.0,299.45792,2118.0138,0.0,0.0,0.0,0.0,0.0,-0.04046524691031256,-0.14288295622644986,-0.28751389046541176,-0.21342646170355178,-0.009429153240434971,-0.0015433367534154786,-0.39012382318222366
4061,6.0,299.33647,2080.575,0.0,0.0,0.0,0.0,0.0,-0.04047521371989632,-0.14893191746843584,-0.26928805429166175,-0.2142228965471538,-0.0014965172020697485,0.002194306170261158,-0.3439566529133787
4062,6.0,300.72008,1796.0289,0.0,0.0,0.0,0.0,0.0,-0.040485180529480164,-0.12095551478737988,-0.2490282502646748,-0.17596418383881282,0.006524572935575214,0.0017878218435442785,-0.37420743729889866
4063,6.0,301.1551,2000.0451,0.0,0.0,0.0,0.0,0.0,-0.04049514733906398,-0.14915182313763886,-0.2465590408309828,-0.21225289517272977,0.02088505533244448,0.052651696318067855,-0.34172054166519167
4064,6.0,300.28882999999996,2130.7464,0.0,0.0,0.0,0.0,0.0,-0.040505114148647825,-0.1271965477183219,-0.26758820565889974,-0.2529089373526688,-0.0027986325439285273,-0.017587639585014882,-0.37882900272751163
4065,6.0,299.60138,1664.0533,0.0,0.0,0.0,0.0,0.0,-0.04051508095823164,-0.087946310005375,-0.23805010086371578,-0.17983425206575884,-0.018391457982095585,-0.017666862570583582,-0.36558492212792265
4066,6.0,300.14198,1347.6914,0.0,0.0,0.0,0.0,0.0,-0.04052504776781546,-0.05103726061573545,-0.20143016820460982,-0.15719709985914584,-0.017145140094093583,-0.0035146081355148166,-0.37595902248176666
4067,6.0,300.35231,1687.2316,0.0,0.0,0.0,0.0,0.0,-0.040535014577399275,-0.07016528150627414,-0.2782176653029457,-0.16449332131172686,-0.00964656783426712,0.0034186595318704267,-0.3957916301340926
4068,6.0,299.85811,1770.4825,0.0,0.0,0.0,0.0,0.0,-0.04054498138698312,-0.07675654838728152,-0.2769869413339827,-0.18443897727770983,-0.007220332566466343,-0.009665727380408022,-0.39307336382582064
4069,6.0,300.56651,1800.3396,0.0,0.0,0.0,0.0,0.0,-0.04055494819656691,-0.06991807077337633,-0.2831196578292347,-0.19422054923807583,-0.010370287493717689,-0.008485185534572611,-0.3822646501065836
4070,6.0,300.31465,1720.8989,0.0,0.0,0.0,0.0,0.0,-0.040564915006150754,-0.03165929828327947,-0.28291918629694973,-0.20853180510798677,0.028708354288293974,0.017941544540192585,-0.38744141579499064
4071,6.0,300.27436,1692.3886,0.0,0.0,0.0,0.0,0.0,-0.04057488181573454,-0.06433609623747834,-0.27348598998596574,-0.17662179328621383,0.004799730665246535,0.024888167350520875,-0.40704001333672163
4072,6.0,299.98126,1809.2393,0.0,0.0,0.0,0.0,0.0,-0.04058484862531839,-0.08167547029624132,-0.2912748924515937,-0.17701320166734283,-0.004632297976322215,-0.021118527407236378,-0.40792718472677864
4073,6.0,299.70282000000003,1978.1329999999998,0.0,0.0,0.0,0.0,0.0,-0.040594815434902204,-0.13139744210291787,-0.2900455566352677,-0.17986004941330483,-0.0053314739825755155,-0.027123794265160074,-0.40989112686560464
4074,6.0,299.69219,1861.8139999999999,0.0,0.0,0.0,0.0,0.0,-0.04060478224448605,-0.11635148871799789,-0.25746583715989974,-0.19212764062652182,0.013200504765788388,0.020140204038183382,-0.37231380458451163
4075,6.0,299.75843,1465.1989999999998,0.0,0.0,0.0,0.0,0.0,-0.040614749054069865,-0.060362511340566034,-0.24611839862749477,-0.13890298076115687,0.023608639177241274,0.01765256865142288,-0.3869225304187806
4076,6.0,299.96361,1603.1083,0.0,0.0,0.0,0.0,0.0,-0.040624715863653654,-0.05351771205928695,-0.2549364913327728,-0.17885071045869083,-0.01958137735628148,-0.012576391340193189,-0.37824121634450164
4077,6.0,301.17795,1961.0311,0.0,0.0,0.0,0.0,0.0,-0.04063468267323747,-0.12757900910106787,-0.25092840830970575,-0.2175970599101578,-0.00947110827937561,-0.012848872530584986,-0.3601632133603417
4078,6.0,300.62518,1887.6086,0.0,0.0,0.0,0.0,0.0,-0.040644649482821316,-0.08337907099412363,-0.27788976743808474,-0.21251704947379982,0.017578232571086483,0.015329696850173284,-0.36186701366849366
4079,6.0,300.78931,1738.4720000000002,0.0,0.0,0.0,0.0,0.0,-0.04065461629240513,-0.1014609982959209,-0.2324372120672668,-0.1945538781234728,0.0007004360030176514,0.018829295509306784,-0.3798975053554646
4080,6.0,300.74036,1793.9514,0.0,0.0,0.0,0.0,0.0,-0.04066458310198898,-0.09149979330482651,-0.27182024735156973,-0.18199639605664583,-0.008305716042410352,-0.014320876679610486,-0.36619513173564566
4081,6.0,300.89963,1775.4842,0.0,0.0,0.0,0.0,0.0,-0.040674549911572766,-0.11438209529363388,-0.24037775925843777,-0.18494302867245582,-0.027157527387489274,-0.02099384698243138,-0.35772641779734865
4082,6.0,300.33755,1881.0115,0.0,0.0,0.0,0.0,0.0,-0.04068451672115658,-0.08576697318679123,-0.25602420518262176,-0.22998934168068078,0.005015221097138785,0.012011666529459187,-0.35964959688465165
4083,6.0,300.13914,2023.2715,0.0,0.0,0.0,0.0,0.0,-0.0406944835307404,-0.14955204679463785,-0.2730290040583647,-0.19244297419014283,0.021776841063456877,0.02135131249846048,-0.37200919120694864
4084,6.0,299.47826000000003,1820.6996,0.0,0.0,0.0,0.0,0.0,-0.040704450340324244,-0.07092901674264894,-0.29358518373960174,-0.18893302518123783,-0.0006119159816864053,0.0002140472091123148,-0.4138254959438966
4085,6.0,300.4811,1690.955,0.0,0.0,0.0,0.0,0.0,-0.04071441714990806,-0.09676535009949651,-0.2564547959451178,-0.16078796702103684,0.006475668723473744,-0.010579094021325291,-0.38662034884145763
4086,6.0,300.0835,1924.399,0.0,0.0,0.0,0.0,0.0,-0.04072438395949188,-0.09468036915672491,-0.2960517181930297,-0.19423716653971582,-0.007174178517786293,0.01991475386443318,-0.39977965080517963
4087,6.0,299.3418,1968.3883,0.0,0.0,0.0,0.0,0.0,-0.040734350769075695,-0.11455501655569988,-0.26833922663301973,-0.21544665948792976,0.03275465203888247,0.012644850569949588,-0.3648244171328667
4088,6.0,299.16103,1540.5715,0.0,0.0,0.0,0.0,0.0,-0.04074431757865954,-0.02161290327677748,-0.25391620927707875,-0.19276614017703683,-0.02427757980051058,-0.03503474340765996,-0.4152773617471846
4089,6.0,301.50653,1545.606,0.0,0.0,0.0,0.0,0.0,-0.04075428438824333,-0.05166159492985245,-0.25784100314192576,-0.16032303721265184,-0.014991775915323087,-0.025853398515031774,-0.38760744695637667
4090,6.0,302.13777000000005,1764.9141,0.0,0.0,0.0,0.0,0.0,-0.04076425119782717,-0.05950581750026694,-0.2745674318176958,-0.2024165570444588,-0.025457137679173875,-0.0028403953693251975,-0.4044929153678426
4091,6.0,300.32116,1958.7511,0.0,0.0,0.0,0.0,0.0,-0.04077421800741096,-0.12028002147571389,-0.28560862563987677,-0.1895227772694418,0.03757168557078667,0.014070905853440287,-0.3953339754614256
4092,6.0,299.95792,2101.1273,0.0,0.0,0.0,0.0,0.0,-0.040784184816994806,-0.13019115772636689,-0.29253403808586176,-0.21596504837159078,0.0037049023811453964,0.005396289666297324,-0.39635121776681964
4093,6.0,299.34997000000004,1901.9373,0.0,0.0,0.0,0.0,0.0,-0.04079415162657862,-0.12081122797313987,-0.2347466826226938,-0.2225835372297848,0.022026175568564278,-0.006527621906451123,-0.3316631630276057
4094,6.0,300.02067,1624.1302,0.0,0.0,0.0,0.0,0.0,-0.04080411843616247,-0.07273127557626802,-0.25952028279765776,-0.16144347904073086,0.005333734239573585,0.002940211041976237,-0.3825028449400916
4095,6.0,299.28132999999997,1824.1818,0.0,0.0,0.0,0.0,0.0,-0.040814085245746284,-0.13419341456135886,-0.21177866372842682,-0.20853364922316878,0.007677465516656852,-0.0036884125463679763,-0.3428666592508047
4096,6.0,299.68242000000004,2174.4363,0.0,0.0,0.0,0.0,0.0,-0.04082405205533007,-0.15571401582027686,-0.28488693825615174,-0.2203733854491598,0.003215011865821967,-0.015926386661811984,-0.3959930034589666
4097,6.0,299.39563,1843.7949,0.0,0.0,0.0,0.0,0.0,-0.04083401886491389,-0.13498511752699388,-0.25017248320510177,-0.17530999917674983,-0.011133013532992888,0.008193145374850492,-0.35459627545592765
4098,6.0,300.15997000000004,1433.3902,0.0,0.0,0.0,0.0,0.0,-0.040843985674497735,-0.059267374420484444,-0.19398075346940982,-0.18246669609056082,-0.013209138669890487,0.028387724466400272,-0.38258150354535464
4099,6.0,300.16607999999997,1706.8373,0.0,0.0,0.0,0.0,0.0,-0.04085395248408155,-0.043720886631915555,-0.2703733870037757,-0.20474165191642782,-0.008044857945240663,0.005082773468055685,-0.3478720235522957
4100,6.0,300.87297,2007.0065,0.0,0.0,0.0,0.0,0.0,-0.040863919293665396,-0.1068910359793239,-0.2654203773349517,-0.2377684578659198,-0.012869747509145187,-0.02119702287923328,-0.37273219581580364
4101,6.0,300.37296000000003,1818.4948,0.0,0.0,0.0,0.0,0.0,-0.040873886103249185,-0.08421179235030682,-0.25590607035346274,-0.2126591476678238,0.03862808695279536,-0.005999879204491974,-0.36878036843828865
4102,6.0,301.46518,1725.4873,0.0,0.0,0.0,0.0,0.0,-0.04088385291283303,-0.054951246141765754,-0.3076413437643367,-0.16191247198201686,0.0099436201369339,0.013326815510004288,-0.4304033112274996
4103,6.0,300.9564,1610.34,0.0,0.0,0.0,0.0,0.0,-0.04089381972241682,-0.07398739159273703,-0.23790084912398576,-0.17761489997422583,0.02760866179576277,0.029945383712629267,-0.3930320536192436
4104,6.0,300.0922,1645.961,0.0,0.0,0.0,0.0,0.0,-0.04090378653200066,-0.05895802916495444,-0.29080069140479375,-0.15057231871783086,-0.03357473917956877,0.0056145671439146345,-0.4297147267245416
4105,6.0,300.78882999999996,1945.4817,0.0,0.0,0.0,0.0,0.0,-0.04091375334158448,-0.08772014853005461,-0.28629208309732873,-0.21736562345481678,0.011853961244144888,-0.004123852419867546,-0.3668928354895037
4106,6.0,299.42794,1693.4285,0.0,0.0,0.0,0.0,0.0,-0.0409237201511683,-0.07576985151940213,-0.22112914843374779,-0.21786098116370478,-0.00937849803083569,-0.009743655432348921,-0.37151789663096163
4107,6.0,298.73778,1546.8463,0.0,0.0,0.0,0.0,0.0,-0.040933686960752114,-0.03468421156206517,-0.28041005480931774,-0.15510837597050486,0.009348244611999913,-0.02019143902948988,-0.3930147473075356
4108,6.0,299.5946,1801.1186,0.0,0.0,0.0,0.0,0.0,-0.04094365377033596,-0.07677364698271903,-0.26622002418137075,-0.2045014204502188,0.003247126321116417,-0.018213119884994983,-0.4039099621878096
4109,6.0,300.06253,2102.9445,0.0,0.0,0.0,0.0,0.0,-0.04095362057991975,-0.18199667976667383,-0.2734046969304427,-0.18384122051371582,0.020582237434058678,-0.0019278286893618783,-0.37020967929435067
4110,6.0,299.6738,1939.3596,0.0,0.0,0.0,0.0,0.0,-0.040963587389503564,-0.1024007371011659,-0.2922892267292007,-0.19482693889292182,0.018357518156745984,0.03309509393998147,-0.36808974730262967
4111,6.0,300.70488,1673.5663,0.0,0.0,0.0,0.0,0.0,-0.04097355419908738,-0.1104820753937319,-0.21856098499528978,-0.17967930586046685,-0.016024252435970585,0.0053587216963146556,-0.3281855873593957
4112,6.0,298.91525,1682.4688,0.0,0.0,0.0,0.0,0.0,-0.040983521008671225,-0.062104535495490436,-0.2561434039243857,-0.1931805594679368,-0.02885995575500587,0.007724658653314453,-0.3495502595604247
4113,6.0,300.5584,1991.6769,0.0,0.0,0.0,0.0,0.0,-0.04099348781825504,-0.14257675204622985,-0.25926337323480275,-0.2035799100142728,-0.03978885106860386,-0.02545550432001268,-0.3267526186704727
4114,6.0,301.12302,2073.7335,0.0,0.0,0.0,0.0,0.0,-0.04100345462783886,-0.1136923151555579,-0.2842971152404407,-0.2323737623460048,0.012055207912756386,0.02035199357408538,-0.38471944099135263
4115,6.0,300.12706000000003,1835.0308,0.0,0.0,0.0,0.0,0.0,-0.041013421437422704,-0.1306975902588479,-0.26448242184988274,-0.16262353037219285,-0.0019827192843791582,0.023194073978326877,-0.3796462395956666
4116,6.0,299.38212000000004,1722.2042,0.0,0.0,0.0,0.0,0.0,-0.04102338824700649,-0.060506529643529545,-0.25689127369069475,-0.2061092761064018,-0.007596749304415783,-0.0019899893538466583,-0.4128874897963226
4117,6.0,299.61292000000003,1767.9682,0.0,0.0,0.0,0.0,0.0,-0.04103335505659031,-0.11086773864679389,-0.26652159780863377,-0.16002884004611684,-0.020047306229265083,0.0026643438737252675,-0.37144754667651864
4118,6.0,299.04839,1888.7231,0.0,0.0,0.0,0.0,0.0,-0.041043321866174154,-0.07967590329714942,-0.29803864084412374,-0.1964101117766688,-0.002007517769976578,0.01066172558023039,-0.41760027813143863
4119,6.0,299.29486,1719.1555,0.0,0.0,0.0,0.0,0.0,-0.04105328867575797,-0.07293260533138773,-0.27187410159438474,-0.17777365599989384,0.030704579588556075,0.0006315831863924074,-0.3926242711164986
4120,6.0,300.03754,1452.8604,0.0,0.0,0.0,0.0,0.0,-0.04106325548534179,-0.015234280101506386,-0.3003605237132757,-0.1260384940465309,0.000989928112315798,-0.024189203113538477,-0.4605192624222126
4121,6.0,299.54169,1595.1365,0.0,0.0,0.0,0.0,0.0,-0.041073222294925604,-0.07673306631621402,-0.24920359319447974,-0.15894500694415084,0.0019270645974614684,-0.015469756384996085,-0.4138624593075446
4122,6.0,300.25275,1909.6689999999999,0.0,0.0,0.0,0.0,0.0,-0.04108318910450945,-0.06653638605488003,-0.3046660564356987,-0.2092892500877408,0.004167160147691686,0.0006845485960871864,-0.3933174152449066
4123,6.0,299.99742000000003,1909.8192,0.0,0.0,0.0,0.0,0.0,-0.04109315591409324,-0.1123686052249179,-0.2918034644987597,-0.17636526875839684,0.013072996359954289,0.00891058865920663,-0.36400319819181864
4124,6.0,300.7195,1860.5937,0.0,0.0,0.0,0.0,0.0,-0.041103122723677055,-0.08592319710045931,-0.26526662676477775,-0.21438418569807183,0.01274119241595779,-0.0034587551555525565,-0.3499737981022247
4125,6.0,300.1697,2024.8686,0.0,0.0,0.0,0.0,0.0,-0.0411130895332609,-0.12343529241961487,-0.2980546197982007,-0.19401957108074083,-0.006841809281559004,0.015544013431824684,-0.3709325217831897
4126,6.0,300.00841,2031.52,0.0,0.0,0.0,0.0,0.0,-0.041123056342844716,-0.1151454576539719,-0.26444666425385377,-0.23793922090527278,-0.002104132990861758,0.03744807513808726,-0.37114175792883963
4127,6.0,299.34718,2005.0693,0.0,0.0,0.0,0.0,0.0,-0.04113302315242853,-0.15280545101072385,-0.25860527742735373,-0.19808028231400182,-0.005197493644377685,-0.008742517622719312,-0.3889802589868626
4128,6.0,299.6642,1942.9041,0.0,0.0,0.0,0.0,0.0,-0.04114298996201232,-0.11939457261082688,-0.25719097280527276,-0.21400879680102383,-0.003384603993359407,-0.03572900717742846,-0.37401698681010265
4129,6.0,298.53035,1645.2422,0.0,0.0,0.0,0.0,0.0,-0.041152956771596166,-0.12156756851028487,-0.1925365275718758,-0.18600845102010483,0.006336312485545353,-0.017878811186751283,-0.34869624171363967
4130,6.0,299.35662,1603.5338,0.0,0.0,0.0,0.0,0.0,-0.04116292358117998,-0.05591360980849365,-0.2477460126606278,-0.1837746094521418,-0.012996227466127786,0.021683311999726278,-0.36700858918092766
4131,6.0,298.94586,1943.4783,0.0,0.0,0.0,0.0,0.0,-0.0411728903907638,-0.1361807729099959,-0.24608042201374675,-0.2085076897556068,0.01170689204513029,0.017750500286837983,-0.35459778519857665
4132,6.0,300.25907,2037.8369,0.0,0.0,0.0,0.0,0.0,-0.04118285720034762,-0.10380347040710489,-0.2853140637033057,-0.2303339885696948,-0.00025581007503898873,-0.009383173369447112,-0.3962076706251526
4133,6.0,300.55953999999997,1753.339,0.0,0.0,0.0,0.0,0.0,-0.04119282400993146,-0.08908272774778071,-0.28965114903384276,-0.15423739631704586,0.04645536494178755,0.0033508809022061966,-0.38523381740461765
4134,6.0,300.22446,1775.1147,0.0,0.0,0.0,0.0,0.0,-0.04120279081951528,-0.053190329938726855,-0.26381707117171777,-0.2225831521947468,-0.0047065716404524555,-0.0066926189447850636,-0.38172872186369167
4135,6.0,299.45689,1943.2954,0.0,0.0,0.0,0.0,0.0,-0.04121275762909912,-0.1121465514655029,-0.28105403604287377,-0.19751270013798583,0.005415840529626845,-0.007479730671566942,-0.3667880248991596
4136,6.0,300.86045,1896.8221,0.0,0.0,0.0,0.0,0.0,-0.041222724438682884,-0.04514711214142305,-0.2926536218626637,-0.2387858318938268,-0.03293975965990117,-0.03529239872258857,-0.3905752362342746
4137,6.0,299.87776,1762.2765,0.0,0.0,0.0,0.0,0.0,-0.04123269124826673,-0.09350366053734281,-0.2577756383779748,-0.18440875202722684,0.025898449640977976,0.017077014223620086,-0.4030022522182256
4138,6.0,299.06559,1623.8644,0.0,0.0,0.0,0.0,0.0,-0.041242658057850545,-0.033351206075007765,-0.27774330213612974,-0.18251972960079482,-0.016102108547154385,0.02162427295614958,-0.4080739236062606
4139,6.0,298.91084,1610.1395,0.0,0.0,0.0,0.0,0.0,-0.04125262486743439,-0.07951645522166313,-0.24330694370752576,-0.16661880591399583,0.016900564824705883,0.006617118944058794,-0.4189603637406686
4140,6.0,298.79337999999996,1776.9426,0.0,0.0,0.0,0.0,0.0,-0.04126259167701821,-0.06639263119694253,-0.27547747226250974,-0.1982760726308248,0.0034674911952647367,-0.020084629296698582,-0.3946757783289666
4141,6.0,299.63975,2001.6758,0.0,0.0,0.0,0.0,0.0,-0.04127255848660202,-0.1329710397732199,-0.28927578040179674,-0.18621264118025682,0.017131154202963284,-0.016796211210156984,-0.3772587285175376
4142,6.0,300.46166,1961.241,0.0,0.0,0.0,0.0,0.0,-0.04128252529618581,-0.0905038859935381,-0.27106097852163574,-0.2346034191910548,0.035620114202431566,-0.008107555328303413,-0.3350291494623027
4143,6.0,299.87187,1755.9587,0.0,0.0,0.0,0.0,0.0,-0.04129249210576966,-0.09583762540068722,-0.2867401828215527,-0.15118978319626988,-0.01078515869416229,-0.01089791012553999,-0.3776419599703596
4144,6.0,300.2391,2145.0545,0.0,0.0,0.0,0.0,0.0,-0.041302458915353474,-0.14013536646028385,-0.2759177598284627,-0.23598987970038776,-0.003937844323484976,-0.021563184107620578,-0.32767981343947966
4145,6.0,300.31991,2416.4683,0.0,0.0,0.0,0.0,0.0,-0.04131242572493732,-0.17095225367667385,-0.3019082632410257,-0.26168550706884874,-0.007800275279127233,-0.010468604164170791,-0.36586463995052865
4146,6.0,300.13166,1888.7176,0.0,0.0,0.0,0.0,0.0,-0.04132239253452111,-0.10752277715167191,-0.26943420548608576,-0.19716600648376983,0.03128167213001067,0.016431373286400285,-0.35751074751356365
4147,6.0,300.06006,1556.2454,0.0,0.0,0.0,0.0,0.0,-0.04133235934410495,-0.07570897747989433,-0.2037124025973488,-0.1936383661281188,-0.012186120838926489,0.007613472895991273,-0.3571067950961967
4148,6.0,300.87539,1717.2307,0.0,0.0,0.0,0.0,0.0,-0.04134232615368874,-0.07942942919707432,-0.26551711232199876,-0.17704871608334785,-0.016492109523894485,-0.0008603647238213871,-0.37274591522215766
4149,6.0,299.29375,1659.1552,0.0,0.0,0.0,0.0,0.0,-0.041352292963272586,-0.13223539993561786,-0.2294345467209268,-0.14267181517061187,-0.024523257486007078,0.01833800701282038,-0.4041860931050616
4150,6.0,299.36704,1841.0733,0.0,0.0,0.0,0.0,0.0,-0.0413622597728564,-0.08630163081405783,-0.27800710179966476,-0.1953315982377278,0.01094039164923259,0.03643830048593026,-0.39714331589999363
4151,6.0,299.94273,1809.2596,0.0,0.0,0.0,0.0,0.0,-0.04137222658244022,-0.08918378931275472,-0.3109030971612467,-0.14988285268728585,-0.011378248428195688,0.030670372265180074,-0.4306817320899776
4152,6.0,298.65241000000003,1786.089,0.0,0.0,0.0,0.0,0.0,-0.041382193392024036,-0.049243581983963156,-0.2918213787605277,-0.2018614986396788,-0.0007514605524108824,-0.020777729855352284,-0.3956437766795006
4153,6.0,298.88051,1886.5710000000001,0.0,0.0,0.0,0.0,0.0,-0.04139216020160788,-0.11313459190301489,-0.2993373842922997,-0.16099848999431385,-0.02244653858455088,-0.028247658852076873,-0.3941994494569566
4154,6.0,299.19723999999997,1971.5122,0.0,0.0,0.0,0.0,0.0,-0.0414021270111917,-0.0936199745560721,-0.3000456461121997,-0.2056248817635958,0.027667849787104175,-0.002081777349930428,-0.35945294530524363
4155,6.0,299.70099,1789.9715,0.0,0.0,0.0,0.0,0.0,-0.04141209382077554,-0.11860900994079789,-0.24978247310911075,-0.17571515736173585,0.022642510273141774,0.003974322036360046,-0.36762012614628164
4156,6.0,300.85504,1736.3166,0.0,0.0,0.0,0.0,0.0,-0.0414220606303593,-0.060155185171354535,-0.2899173703651167,-0.17772433098502582,0.02741647763604568,0.006075588441363894,-0.4004000739739106
4157,6.0,300.71881,1916.5523,0.0,0.0,0.0,0.0,0.0,-0.04143202743994315,-0.1051770018451619,-0.27891304871407474,-0.1984939923298318,-0.026203720617855874,0.016456572816387287,-0.4035936863015956
4158,6.0,300.13392000000005,1865.9053,0.0,0.0,0.0,0.0,0.0,-0.041441994249526964,-0.09166085650097222,-0.26274021936294073,-0.21278754672049577,-0.00928051634086565,0.02293816550657068,-0.38353041226400464
4159,6.0,300.64457000000004,1795.953,0.0,0.0,0.0,0.0,0.0,-0.04145196105911081,-0.09075239773956432,-0.2881132076345597,-0.16705924546746384,-0.028246383170200975,0.020146967482600878,-0.39237293442919363
4160,6.0,300.57932,1777.5347,0.0,0.0,0.0,0.0,0.0,-0.041461927868694626,-0.12637008014175588,-0.2287556792864278,-0.18520042459535882,-0.012811846345430788,-0.026770240907767074,-0.35886518931973665
4161,6.0,299.88667999999996,1859.351,0.0,0.0,0.0,0.0,0.0,-0.04147189467827844,-0.14255375126895986,-0.28494445033182775,-0.13769806427224085,-0.012073882112099388,-0.009913185954280281,-0.3888470165987126
4162,6.0,300.38747,1888.5461,0.0,0.0,0.0,0.0,0.0,-0.04148186148786223,-0.09637379378385291,-0.27026455381053477,-0.2074324895444928,0.022975541263009377,0.007347984144539573,-0.3744456726624107
4163,6.0,299.31816000000003,1961.2208,0.0,0.0,0.0,0.0,0.0,-0.041491828297446076,-0.0943744405805321,-0.27946389199843874,-0.2223238209641528,0.0004575201434512226,0.024040621132124577,-0.3765833466633826
4164,6.0,299.28032,1895.57,0.0,0.0,0.0,0.0,0.0,-0.04150179510702989,-0.055966295773943346,-0.2871974727241837,-0.23304217303947178,-0.004846993209535985,0.0008275857081838503,-0.37187299012850666
4165,6.0,299.15222,1781.3734,0.0,0.0,0.0,0.0,0.0,-0.04151176191661374,-0.1085540428384499,-0.2377000533516688,-0.19523894664858382,-0.00989945317302496,0.012585411292583388,-0.36910358508768765
4166,6.0,300.6935,1814.85,0.0,0.0,0.0,0.0,0.0,-0.041521728726197527,-0.1051259543051239,-0.24885825729539776,-0.19768489185997978,-0.008185281844799422,-0.003655395589209457,-0.3542770510119227
4167,6.0,299.70845,1799.6706,0.0,0.0,0.0,0.0,0.0,-0.04153169553578137,-0.13749851479754688,-0.2552081538170838,-0.15434824587798587,0.001136521397890929,-0.007682066280060912,-0.3886742371916606
4168,6.0,300.56767,1862.1871,0.0,0.0,0.0,0.0,0.0,-0.04154166234536516,-0.07700549785735092,-0.26104116106525677,-0.2280117105330038,-0.005161333585408965,-0.03395222651757387,-0.41677110517710564
4169,6.0,300.82488,1835.5436,0.0,0.0,0.0,0.0,0.0,-0.041551629154949005,-0.09015138945599942,-0.28328588150813977,-0.1845221549784188,0.0037313656366571167,-0.0002200691267091318,-0.42724252820305464
4170,6.0,301.71445,1853.2505,0.0,0.0,0.0,0.0,0.0,-0.04156159596453282,-0.04507378728468646,-0.28188521523240473,-0.23638285861917177,-0.0027805047903644575,0.023398006772953478,-0.4081779742590296
4171,6.0,300.16632999999996,1638.9631,0.0,0.0,0.0,0.0,0.0,-0.04157156277411664,-0.07025329038345994,-0.2533692568730988,-0.17458131023483384,-0.00910124868812331,0.03547558623466777,-0.3746257474701827
4172,6.0,300.15792999999996,1669.8055,0.0,0.0,0.0,0.0,0.0,-0.041581529583700455,-0.08135840914119984,-0.26492974137152975,-0.16129101529818385,-0.026688144344914774,-0.002200480713720538,-0.38112386221649663
4173,6.0,299.13876,1927.013,0.0,0.0,0.0,0.0,0.0,-0.0415914963932843,-0.14760475235495485,-0.25109036620568975,-0.18706871592474483,0.011297823728008388,-0.001037497681518049,-0.37351240852530465
4174,6.0,299.8423,1958.7116,0.0,0.0,0.0,0.0,0.0,-0.041601463202868116,-0.08871815529555023,-0.26970642525795174,-0.2369748297250948,0.028663730753889973,-0.0073829243517129035,-0.3762557831710547
4175,6.0,299.78086,1938.021,0.0,0.0,0.0,0.0,0.0,-0.04161143001245196,-0.07093267558876004,-0.3079218823195237,-0.21025541445559381,-0.00039520177672087867,0.0013994969851195988,-0.4049374889817186
4176,6.0,299.53642,1985.4977,0.0,0.0,0.0,0.0,0.0,-0.04162139682203572,-0.07541171421855673,-0.25372047975526174,-0.27440953705461274,-0.012473806860318888,-0.04270257838741637,-0.38151866498546066
4177,6.0,299.77088,1977.1271,0.0,0.0,0.0,0.0,0.0,-0.04163136363161957,-0.1357959607870179,-0.2597561978184407,-0.20544509066585182,0.0018999620824616584,-0.007936559241427412,-0.38651306592086965
4178,6.0,300.93599,1780.0782,0.0,0.0,0.0,0.0,0.0,-0.041641330441203384,-0.13539861476030285,-0.22947964648287777,-0.17622108326916683,0.04077475962790546,0.02782472319408637,-0.3433485508658637
4179,6.0,301.62683,1743.7669,0.0,0.0,0.0,0.0,0.0,-0.04165129725078723,-0.12263121767025889,-0.24049666415767276,-0.16693372404507584,0.0006344588712362153,0.015434252101492088,-0.38624675339708664
4180,6.0,300.83122000000003,1910.8932,0.0,0.0,0.0,0.0,0.0,-0.041661264060371045,-0.08579857139115973,-0.29324634277366074,-0.2018189016054748,-0.0023442041609049377,-0.013112289185582188,-0.3889264959365566
4181,6.0,299.5201,1875.0466,0.0,0.0,0.0,0.0,0.0,-0.04167123086995486,-0.0900069628132456,-0.24712756532959174,-0.23283281530380975,-0.046143634495522154,0.00959785522775956,-0.4152947491189006
4182,6.0,301.12984,1924.1471,0.0,0.0,0.0,0.0,0.0,-0.04168119767953865,-0.07747480997241843,-0.30445888732025267,-0.2029589802204918,0.01114290488046909,0.03359531626259957,-0.37403699849957767
4183,6.0,300.67334,1819.6544,0.0,0.0,0.0,0.0,0.0,-0.041691164489122495,-0.11498582010071688,-0.2644042293396658,-0.17373946152174982,-0.026286780781553273,0.02913546960294697,-0.3662797685164986
4184,6.0,299.71866,1698.3670000000002,0.0,0.0,0.0,0.0,0.0,-0.04170113129870631,-0.0961411981703975,-0.2560252792277278,-0.16409467832488384,0.008128581382453523,0.01726721747939168,-0.3522974744240537
4185,6.0,299.0577,1865.8506,0.0,0.0,0.0,0.0,0.0,-0.04171109810829016,-0.11330461526979488,-0.2941825554685577,-0.15968483150466584,-0.002335366188232698,-0.008127702793291811,-0.38063745150599165
4186,6.0,299.83778,2100.1492,0.0,0.0,0.0,0.0,0.0,-0.041721064917873946,-0.1113286458522819,-0.2826638270067477,-0.2444004432154458,0.043703466836196365,0.005690469607580625,-0.4071279127828966
4187,6.0,299.90481,1675.4644,0.0,0.0,0.0,0.0,0.0,-0.04173103172745779,-0.04976949424961665,-0.27728221254562374,-0.18224763141894082,0.04624495849227205,-0.03345368315037147,-0.4182541486859706
4188,6.0,299.86006000000003,1477.411,0.0,0.0,0.0,0.0,0.0,-0.04174099853704161,-0.022517471157801377,-0.2741271949142477,-0.15245138089577986,0.01006962721009483,-0.038584876902280865,-0.4548496518851656
4189,6.0,298.5665,1697.0339999999999,0.0,0.0,0.0,0.0,0.0,-0.04175096534662545,-0.1039214228512459,-0.23374198435353777,-0.1781925538562358,-0.0016424425430464583,-0.0004575385035430346,-0.38136360732265767
4190,6.0,298.54699,1706.9591,0.0,0.0,0.0,0.0,0.0,-0.04176093215620924,-0.1189562507500679,-0.2521327877760688,-0.14778390510513587,-0.014101294237189387,0.04758066125109566,-0.38742498087836863
4191,6.0,299.46359,1731.3235,0.0,0.0,0.0,0.0,0.0,-0.04177089896579306,-0.09689175203622141,-0.2576456789201488,-0.17174167682958383,-0.027911484760399077,0.040384855923174964,-0.35466467997017864
4192,6.0,300.28657000000004,1845.0338,0.0,0.0,0.0,0.0,0.0,-0.041780865775376874,-0.08514751564540551,-0.26935464508823376,-0.2063420297868728,-0.008191691867582044,-0.00019939425491118082,-0.3882174336490776
4193,6.0,300.42087000000004,2169.5455,0.0,0.0,0.0,0.0,0.0,-0.04179083258496072,-0.10621121608973089,-0.34077092367147166,-0.21250552882016277,-0.007174702976038054,-0.007081867684650924,-0.3823081691983786
4194,6.0,299.6935,2146.0412,0.0,0.0,0.0,0.0,0.0,-0.041800799394544536,-0.13974761591201587,-0.2722371997677197,-0.24035814273650177,0.02865724392674977,0.008684118041280721,-0.36408126911202365
4195,6.0,300.21479,2079.2563,0.0,0.0,0.0,0.0,0.0,-0.04181076620412838,-0.15720012947694487,-0.2892926915459657,-0.1855491751472778,0.013492172860073788,-0.015141140125814186,-0.3585205424307226
4196,6.0,299.74042000000003,1816.3756,0.0,0.0,0.0,0.0,0.0,-0.04182073301371214,-0.12953251476386388,-0.23782333549133577,-0.18477696711356684,0.009076657614821362,-0.013405077934478187,-0.34713023328658665
4197,6.0,300.10374,1600.3139,0.0,0.0,0.0,0.0,0.0,-0.041830699823295986,-0.08487506282601652,-0.22863735193974977,-0.17294305707565083,-0.0035084946910364664,-0.0009162067302850642,-0.3974477874225426
4198,6.0,299.80317,1776.8516,0.0,0.0,0.0,0.0,0.0,-0.0418406666328798,-0.08075714045235922,-0.28915391681226976,-0.17020747432316985,0.0007927501494808483,0.020020583784377783,-0.4044230517734476
4199,6.0,299.56926,2033.6578,0.0,0.0,0.0,0.0,0.0,-0.04185063344246365,-0.1059486120613139,-0.2700521664570737,-0.24218040211384478,-0.005322280967068235,-0.01964766215132328,-0.4117690947334456
4200,6.0,298.52455,1762.6433,0.0,0.0,0.0,0.0,0.0,-0.041860600252047464,-0.06490329236520623,-0.2905165355467497,-0.18037971499209182,-0.025013123379353075,-0.04766478330089786,-0.4263067512057006
4201,6.0,299.7157,1651.7285,0.0,0.0,0.0,0.0,0.0,-0.04187056706163128,-0.06132626518643114,-0.26998995290093375,-0.17076801441099082,0.007634176635284573,0.0047867356313890256,-0.37950967374718864
4202,6.0,301.1831,1865.5231,0.0,0.0,0.0,0.0,0.0,-0.04188053387121507,-0.1087653054842999,-0.25628416462827774,-0.20202296004311382,-0.003923979515741627,0.03955817657733807,-0.35891257902691365
4203,6.0,300.85929,1902.4386,0.0,0.0,0.0,0.0,0.0,-0.041890500680798914,-0.07853928290472373,-0.28308504520581873,-0.2166695003711148,0.005470077578329625,0.039931721359204066,-0.3500989648870777
4204,6.0,300.67005,1968.09,0.0,0.0,0.0,0.0,0.0,-0.04190046749038273,-0.0935959686347029,-0.2754073148255857,-0.2292469333324108,-0.045268468092649956,0.011216111186943989,-0.4116300160247196
4205,6.0,301.0462,1993.2832,0.0,0.0,0.0,0.0,0.0,-0.041910434299966576,-0.10629815294831091,-0.27805874715726175,-0.2215514204129228,0.01723333135629738,0.008850888773914711,-0.3945298297845626
4206,6.0,300.1019,1729.3427,0.0,0.0,0.0,0.0,0.0,-0.041920401109550365,-0.07383947126363842,-0.2878951663455407,-0.16394237670235284,-0.008132410454581422,0.013618505895791886,-0.4193245562241116
4207,6.0,299.66963,1761.2612,0.0,0.0,0.0,0.0,0.0,-0.04193036791913421,-0.10440150074862589,-0.2296084711005918,-0.2013694441261168,-0.006022168680191775,-0.024691046636316577,-0.37601962497024766
4208,6.0,299.20103,2027.8745,0.0,0.0,0.0,0.0,0.0,-0.041940334728718026,-0.14030365716939286,-0.2765461876729837,-0.19957336713135782,-0.016282109387669084,-0.022934757946484377,-0.3758251012160496
4209,6.0,299.44531,2046.0475,0.0,0.0,0.0,0.0,0.0,-0.04195030153830187,-0.12515005609384888,-0.27576341144072974,-0.22103387252684478,0.004439666466685966,0.013130697913398987,-0.38566309094198364
4210,6.0,300.18335,1808.5792,0.0,0.0,0.0,0.0,0.0,-0.04196026834788566,-0.08956523035265,-0.24354936379395078,-0.21664833357652577,0.02987748481017817,0.023637299969569876,-0.38411931322212467
4211,6.0,300.77652,1682.7321,0.0,0.0,0.0,0.0,0.0,-0.041970235157469477,-0.05917199009582074,-0.2660122167183618,-0.1863243418712808,-0.008474448629887962,-0.015284549465467588,-0.4408182050303696
4212,6.0,300.66314,1970.1428,0.0,0.0,0.0,0.0,0.0,-0.04198020196705329,-0.10123211421758181,-0.26681932108551676,-0.2308227804179348,-0.015397478215612787,-0.03484333235776917,-0.3501454325366637
4213,6.0,300.93483,1969.5882,0.0,0.0,0.0,0.0,0.0,-0.04199016877663714,-0.12255719975045389,-0.27058668628232674,-0.2055617258848628,-0.005736207919744645,0.004873536714455626,-0.38628908698626463
4214,6.0,300.38815,1768.6934,0.0,0.0,0.0,0.0,0.0,-0.042000135586220955,-0.09501058128481432,-0.25656873591886276,-0.18605932630762584,0.01815443953195368,0.04760109242611205,-0.3265197737974927
4215,6.0,300.51139,1755.5655,0.0,0.0,0.0,0.0,0.0,-0.042010102395804744,-0.08427350029464692,-0.2339909297706068,-0.21538363533170982,-0.0017404665868706781,0.007906178051754023,-0.3898247117527036
4216,6.0,299.24812000000003,1900.8033,0.0,0.0,0.0,0.0,0.0,-0.04202006920538856,-0.0955838407011406,-0.2990354357624997,-0.18317746063820783,-0.03952376559069196,0.002390774452726068,-0.40410719131977463
4217,6.0,300.17283,2010.1934,0.0,0.0,0.0,0.0,0.0,-0.042030036014972405,-0.0987226361984156,-0.29022489177046673,-0.22210106806216878,0.0012346164705471588,0.021491924254587777,-0.4396238364749946
4218,6.0,300.37986,1925.6478,0.0,0.0,0.0,0.0,0.0,-0.04204000282455622,-0.1022069631520419,-0.28303089712047474,-0.2001109976344178,0.004019946763187856,0.027159743365457973,-0.41135251721983257
4219,6.0,300.37535,1610.8342,0.0,0.0,0.0,0.0,0.0,-0.042049969634140066,-0.08277071766058383,-0.26772216745462074,-0.13916048814157086,0.012613257431831589,-0.03624020806488006,-0.39682263237584464
4220,6.0,300.02951,1564.8029999999999,0.0,0.0,0.0,0.0,0.0,-0.04205993644372388,-0.06077349875337734,-0.2259131378533908,-0.18897438605031983,0.008135084320270311,-0.06906060888950144,-0.3776580909119516
4221,6.0,300.02173999999997,1811.5838,0.0,0.0,0.0,0.0,0.0,-0.0420699032533077,-0.08937086162571732,-0.27227710155665774,-0.18902828082313883,0.015764792522613886,-0.02320387919954458,-0.3674559289675767
4222,6.0,298.98897,1964.42,0.0,0.0,0.0,0.0,0.0,-0.04207987006289149,-0.08923266647107851,-0.2947318687452707,-0.2131700992957508,0.01989269946275658,0.015237166851041286,-0.40473321776155863
4223,6.0,299.10936,1912.2272,0.0,0.0,0.0,0.0,0.0,-0.042089836872475334,-0.08532574025849492,-0.28858200805832673,-0.2073615823024948,-0.0033528052667961173,-0.02104688555891588,-0.3942042623949316
4224,6.0,298.74593,1961.2827,0.0,0.0,0.0,0.0,0.0,-0.04209980368205915,-0.08191449599483133,-0.3345397901940067,-0.17972667530264183,-0.0061820739341231935,-0.0007446403051927764,-0.42031260679412463
4225,6.0,299.73352,2060.6006,0.0,0.0,0.0,0.0,0.0,-0.04210977049164297,-0.14688626684154588,-0.26100218133390973,-0.2184826911600628,-0.0011076704185185588,0.01994576843674408,-0.3504137816931477
4226,6.0,300.6081,1964.0565,0.0,0.0,0.0,0.0,0.0,-0.042119737301226784,-0.13564592884471086,-0.2727688014326847,-0.18860941336429982,0.012112234641634488,0.05183698649566225,-0.36696624545924866
4227,6.0,300.81602999999996,1805.6196,0.0,0.0,0.0,0.0,0.0,-0.04212970411081063,-0.09246824559140532,-0.27673231158385275,-0.17966270882382884,-0.025747034612284475,-0.025514159341801474,-0.35272092177334463
4228,6.0,300.32872000000003,1818.1819,0.0,0.0,0.0,0.0,0.0,-0.042139670920394445,-0.1057068303224519,-0.25530321694146574,-0.19167185033403883,-0.016720120180647384,-0.04105329904064516,-0.38327537721383464
4229,6.0,300.687,1925.8018,0.0,0.0,0.0,0.0,0.0,-0.042149637729978234,-0.07844008571993372,-0.3051181382328157,-0.2018374339498038,0.004090744574175056,-0.0050301615711882955,-0.4175485719788356
4230,6.0,301.25947,1990.2951,0.0,0.0,0.0,0.0,0.0,-0.04215960453956208,-0.13624174016851287,-0.27447201405577876,-0.19428624837455982,0.006446374345857614,0.014469660297794286,-0.4021015134093296
4231,6.0,300.46487,1873.5642,0.0,0.0,0.0,0.0,0.0,-0.042169571349145896,-0.1056145333708429,-0.2503908487341528,-0.21351135179692976,0.008004139476722062,-0.02065849767633498,-0.37619028668459065
4232,6.0,300.32912000000005,1614.476,0.0,0.0,0.0,0.0,0.0,-0.04217953815872971,-0.09528711344910591,-0.2619975577021457,-0.13347572951552886,-0.005316871832734395,-0.038995793387585166,-0.3856068048989286
4233,6.0,300.09535,1639.8538,0.0,0.0,0.0,0.0,0.0,-0.04218950496831353,-0.06861736060675623,-0.2257151994463558,-0.2041420611697528,0.03845516974372976,0.014330812610091087,-0.35650558314936165
4234,6.0,300.25205,1965.8949,0.0,0.0,0.0,0.0,0.0,-0.042199471777897374,-0.11385509378412288,-0.2956804025613837,-0.18804744459383782,-0.013950107189768387,0.03822502214251596,-0.3983957943486036
4235,6.0,300.2003,2211.0614,0.0,0.0,0.0,0.0,0.0,-0.04220943858748116,-0.08319770429247413,-0.34864470781355367,-0.2402650453173138,-0.01959721344209438,0.0051959680950271255,-0.4057169620186466
4236,6.0,299.8253,1785.0420000000001,0.0,0.0,0.0,0.0,0.0,-0.04221940539706498,-0.08070612634957451,-0.27476849103503875,-0.18713358419614684,-0.044473143771157554,-0.0070221102467533224,-0.4139739269510456
4237,6.0,299.60989,1778.1849,0.0,0.0,0.0,0.0,0.0,-0.042229372206648796,-0.07211341593029003,-0.2993170382302917,-0.16909336530821584,-0.0038642044472922857,0.025236749702923274,-0.37663049319053565
4238,6.0,300.20083999999997,1940.0398,0.0,0.0,0.0,0.0,0.0,-0.04223933901623264,-0.1235826696466599,-0.24786623478499276,-0.21827477223954278,0.02128323931699218,0.016270897775312584,-0.37782780017120066
4239,6.0,300.19067,1850.8575,0.0,0.0,0.0,0.0,0.0,-0.04224930582581646,-0.09396479167110292,-0.26209793025705175,-0.20655173202756882,0.013658617427500587,-0.03818698878676236,-0.3560013291045957
4240,6.0,300.55731000000003,1876.7453,0.0,0.0,0.0,0.0,0.0,-0.0422592726354003,-0.04973708443191805,-0.3119067517827997,-0.2088398838008918,-0.011128976744594489,-0.038061373132115064,-0.4297472013902466
4241,6.0,300.99827,1924.5217,0.0,0.0,0.0,0.0,0.0,-0.04226923944498412,-0.09859408110522822,-0.25104764758147374,-0.23536481584619878,0.03072692377976127,0.016762339272564084,-0.3940737152520476
4242,6.0,300.2992,1970.4646,0.0,0.0,0.0,0.0,0.0,-0.04227920625456791,-0.10611937510066691,-0.29395246663584973,-0.1989002042949218,0.0008561409603820342,0.06886396136309383,-0.40651693310509757
4243,6.0,300.41587000000004,1967.3779,0.0,0.0,0.0,0.0,0.0,-0.042289173064151725,-0.13055400258717687,-0.26174496458471674,-0.2057347991344438,-0.007738211684002033,0.025820753623309975,-0.38211841785215167
4244,6.0,299.87064,2098.2960000000003,0.0,0.0,0.0,0.0,0.0,-0.04229913987373557,-0.13842424035390888,-0.2793298491427097,-0.22007552031726277,-0.04944437572977995,-0.027690592185598675,-0.3486345854450547
4245,6.0,300.36043,1940.786,0.0,0.0,0.0,0.0,0.0,-0.042309106683319386,-0.11800374499356288,-0.2810003135225717,-0.19094642405744483,-0.01037674189685469,-0.007139084499247783,-0.3737990772435966
4246,6.0,301.09368,1904.8588,0.0,0.0,0.0,0.0,0.0,-0.0423190734929032,-0.09142030788748191,-0.2587688362584957,-0.22884037686228678,0.012180648275136386,0.0023926908126401976,-0.35348212591096967
4247,6.0,300.92046,2009.4494,0.0,0.0,0.0,0.0,0.0,-0.04232904030248702,-0.08948885459986232,-0.3165206469081557,-0.2048129441934638,0.017748218447612783,-0.014178182694527688,-0.4189209179142756
4248,6.0,300.0281,2058.7541,0.0,0.0,0.0,0.0,0.0,-0.042339007112070864,-0.11373826604759288,-0.2981052721706997,-0.2139663010918298,-0.02247448706205918,-0.026819712843899574,-0.37216278978960765
4249,6.0,299.08002999999997,1844.3787,0.0,0.0,0.0,0.0,0.0,-0.04234897392165465,-0.09349214697645651,-0.2611087043169228,-0.2060442355824828,-0.017413077871036985,0.004287972388914926,-0.3956466137797806
4250,6.0,299.56344,1695.8892,0.0,0.0,0.0,0.0,0.0,-0.0423589407312385,-0.11494624255181089,-0.23549351887390077,-0.16506821915346484,0.009402174443272371,0.038523310812954764,-0.36874010187931466
4251,6.0,299.62237999999996,1849.8189,0.0,0.0,0.0,0.0,0.0,-0.04236890754082229,-0.1033755039623679,-0.25515287089162775,-0.2037703909005718,0.023699650314473377,-0.00012121955763093887,-0.4114680074662306
4252,6.0,299.71349,1854.6779999999999,0.0,0.0,0.0,0.0,0.0,-0.04237887435040613,-0.07158269477966193,-0.28293054483057073,-0.20926254081510479,-0.002186865469476818,-0.02318388878832168,-0.4068327834262696
4253,6.0,300.0439,1955.7277,0.0,0.0,0.0,0.0,0.0,-0.04238884115998995,-0.08686724829812992,-0.3119121220083297,-0.1957130159728708,-0.003321160452923017,0.008413605089208173,-0.4401714778890426
4254,6.0,300.25881,1989.5503,0.0,0.0,0.0,0.0,0.0,-0.04239880796957379,-0.1105070925387009,-0.27392664232195474,-0.22033988740085378,0.02283285031767688,0.03330988776242998,-0.39121412081982765
4255,6.0,299.85296,1751.4834,0.0,0.0,0.0,0.0,0.0,-0.04240877477915758,-0.0895662243509981,-0.2897655855001367,-0.15307541123486684,0.007119821297621653,0.005607370028454334,-0.39334494525012365
4256,6.0,301.44922,1760.2873,0.0,0.0,0.0,0.0,0.0,-0.0424187415887414,-0.0966538328067406,-0.2598987722400118,-0.1785307666071148,-0.011872486495723188,-0.031979183366349674,-0.37558719009256963
4257,6.0,301.23519,1870.4456,0.0,0.0,0.0,0.0,0.0,-0.042428708398325216,-0.0964333718764828,-0.27252171026329874,-0.1996136944853378,-0.00906363431128606,-0.01258692306173259,-0.36461648807984565
4258,6.0,300.22192,2012.5489,0.0,0.0,0.0,0.0,0.0,-0.04243867520790906,-0.08868919458119201,-0.30667442959140967,-0.2164009789621138,0.008075451613460023,-0.0003969888053922446,-0.4018057153076366
4259,6.0,300.21435,1977.638,0.0,0.0,0.0,0.0,0.0,-0.04244864201749288,-0.1201246497053799,-0.26909740115284575,-0.2119305093884128,0.013524374961501887,-0.01935116490706128,-0.4124531804059596
4260,6.0,299.64575,1816.0658,0.0,0.0,0.0,0.0,0.0,-0.04245860882707672,-0.08413524434500212,-0.2863483184778787,-0.18155508510809182,-0.008127112575108562,-0.020022262739793482,-0.4245395822362946
4261,6.0,300.08985,1835.8694,0.0,0.0,0.0,0.0,0.0,-0.04246857563666048,-0.09411841355851422,-0.26079805196876377,-0.2031419833210528,0.00041400622936423357,0.027178327385542076,-0.37950061529129464
4262,6.0,299.91053,2058.3009,0.0,0.0,0.0,0.0,0.0,-0.04247854244624433,-0.14539936284979987,-0.26996070037054676,-0.2103119943411778,0.026714090640225476,0.03762454885500386,-0.3616139443235176
4263,6.0,299.35721,1968.8372,0.0,0.0,0.0,0.0,0.0,-0.042488509255828144,-0.095774133122921,-0.2959352045640307,-0.2067680203939148,-0.007097670029235494,0.010801763836801091,-0.39230663747515065
4264,6.0,299.35227000000003,1798.4389999999999,0.0,0.0,0.0,0.0,0.0,-0.04249847606541199,-0.09367038273529701,-0.25360648911901174,-0.1994036781371108,-0.0014515901992607986,-0.012843319920036986,-0.38443673408095164
4265,6.0,299.78595,1861.9368,0.0,0.0,0.0,0.0,0.0,-0.042508442874995805,-0.07873175381421912,-0.2931887597704777,-0.19406177294740581,-0.014160299843512787,0.0016314654980881084,-0.41565594238204767
4266,6.0,299.43953999999997,1949.5874,0.0,0.0,0.0,0.0,0.0,-0.04251840968457962,-0.12465351288234389,-0.2730998302403547,-0.19487254527992282,0.015169612453624186,0.02065010796550698,-0.3814963126882546
4267,6.0,300.61659,1982.656,0.0,0.0,0.0,0.0,0.0,-0.04252837649416344,-0.1047555809960709,-0.27819187808790075,-0.21973045799570778,-0.024600254361106078,0.0013275581531947888,-0.37842973152560666
4268,6.0,300.5408,1732.6867,0.0,0.0,0.0,0.0,0.0,-0.042538343303747284,-0.11388639307971189,-0.2471443751487508,-0.16566270311963585,-0.005837762126917265,-0.0035803278409758466,-0.35733487769370664
4269,6.0,301.27066,1862.8732,0.0,0.0,0.0,0.0,0.0,-0.04254831011333107,-0.053824141181029156,-0.28272148093743776,-0.22972130663172777,0.016525081695398586,0.026980756788293373,-0.38252824712009864
4270,6.0,301.68549,2029.8636,0.0,0.0,0.0,0.0,0.0,-0.04255827692291492,-0.10515381868287389,-0.2883638857092997,-0.2235101341812328,0.038909763387844666,0.039122360484076364,-0.40850257906106563
4271,6.0,300.28436,2088.598,0.0,0.0,0.0,0.0,0.0,-0.042568243732498706,-0.1105860449864929,-0.3252730911394547,-0.1990225035819918,0.009150428402926972,-0.017047275333185084,-0.4313002402160196
4272,6.0,299.94653,1967.71,0.0,0.0,0.0,0.0,0.0,-0.04257821054208255,-0.1075647358383129,-0.28406743170777277,-0.2065025488677148,-0.008252205291379253,-0.06788317579629784,-0.4246901613336556
4273,6.0,299.51021000000003,1736.055,0.0,0.0,0.0,0.0,0.0,-0.04258817735166637,-0.07835256117629573,-0.27688333651125774,-0.17248147099259584,0.023059572120302577,0.003678041728944457,-0.39613143368762865
4274,6.0,299.80523999999997,1822.1363,0.0,0.0,0.0,0.0,0.0,-0.04259814416125021,-0.08531428141311402,-0.26707433587068474,-0.2014953201860398,0.022864727165822878,0.015982118457062287,-0.36235951401209965
4275,6.0,300.15655,2037.2996,0.0,0.0,0.0,0.0,0.0,-0.04260811097083403,-0.11113175109284991,-0.29354329598046774,-0.2146131599556698,0.004074837358205136,-0.006068599143499104,-0.37195651233424964
4276,6.0,300.53954,1997.2669,0.0,0.0,0.0,0.0,0.0,-0.04261807778041782,-0.093960648491444,-0.3155810702229267,-0.19757752787938382,-0.037280405551289565,-0.008777728874294392,-0.3997868651458916
4277,6.0,299.67332999999996,1921.0877,0.0,0.0,0.0,0.0,0.0,-0.042628044590001635,-0.09645349907646922,-0.26641806391341577,-0.22109114142249678,-0.010066714116057331,0.03289082170657137,-0.41137467699951963
4278,6.0,300.01428,2141.1418,0.0,0.0,0.0,0.0,0.0,-0.04263801139958548,-0.1079616461674849,-0.3158530062847647,-0.22703898030450279,4.183863271615156e-05,0.03133921460318967,-0.4072604762934796
4279,6.0,299.79742000000005,2022.1355,0.0,0.0,0.0,0.0,0.0,-0.042647978209169296,-0.12565505994368886,-0.2773292273502638,-0.2116944221151128,-0.025416254050888976,-0.00947864361771929,-0.4059430079834556
4280,6.0,300.59296,1810.9535,0.0,0.0,0.0,0.0,0.0,-0.04265794501875314,-0.10547651857472189,-0.24455318053551978,-0.2004549352483618,-0.01313645418721709,-0.05227317242521044,-0.36635112158854066
4281,6.0,301.42562999999996,1728.2669,0.0,0.0,0.0,0.0,0.0,-0.0426679118283369,-0.07161136469124144,-0.28320458845261676,-0.17053404483039983,-0.003157460780017117,-0.01790759356909188,-0.4195874540950576
4282,6.0,300.95615,1844.2528,0.0,0.0,0.0,0.0,0.0,-0.042677878637920746,-0.098425322274573,-0.27196455443081174,-0.19021693464794984,0.04712706160532886,0.014931964775170186,-0.3744673460820496
4283,6.0,300.75271000000004,1994.4723,0.0,0.0,0.0,0.0,0.0,-0.04268784544750456,-0.1129730393070709,-0.3016049164260877,-0.1916918113610088,0.0025621652005160173,-0.006911149532277353,-0.4293975895757426
4284,6.0,300.68433999999996,2037.2567,0.0,0.0,0.0,0.0,0.0,-0.04269781225708841,-0.1041025210416189,-0.3026935624660287,-0.21247908299255278,-0.0034006428305173165,-0.027209552713873774,-0.37527318388657965
4285,6.0,299.80602000000005,1978.0986,0.0,0.0,0.0,0.0,0.0,-0.042707779066672225,-0.13818070569237387,-0.25153528432459976,-0.2115766013934848,-0.007897559447728433,0.021532779511869878,-0.37225634317134065
4286,6.0,300.07891,2040.6252,0.0,0.0,0.0,0.0,0.0,-0.04271774587625604,-0.1264487286145179,-0.2716222076195247,-0.2222281600222118,0.022792164273161476,0.046711232883539754,-0.32672836146307865
4287,6.0,299.43985,2067.1959,0.0,0.0,0.0,0.0,0.0,-0.04272771268583986,-0.12256051307828088,-0.27184692622670276,-0.23396851667839477,-0.012844416256645187,0.013001787169426486,-0.3856357129242816
4288,6.0,299.65206,2062.2752,0.0,0.0,0.0,0.0,0.0,-0.0427376794954237,-0.1145158949693389,-0.27139045705665277,-0.24097379349726178,-0.024579551635062875,-0.02275396778414178,-0.3958712715919526
4289,6.0,300.16024,1950.5782,0.0,0.0,0.0,0.0,0.0,-0.04274764630500749,-0.07287131180633853,-0.30725638978634473,-0.21279936121666182,-0.023121257773140478,0.006589793919337024,-0.4295695279852116
4290,6.0,299.84713,1746.2147,0.0,0.0,0.0,0.0,0.0,-0.042757613114591336,-0.04959671585581475,-0.2796604726503397,-0.2015484854187868,0.008428499967003181,0.022280516542415776,-0.4187195952519066
4291,6.0,298.70097000000004,1542.3759,0.0,0.0,0.0,0.0,0.0,-0.042767579924175125,-0.04845378291526605,-0.2636406845943097,-0.15674928384494985,-0.016338452172729685,-0.006083125603557754,-0.4181155968672966
4292,6.0,299.75718,1634.0262,0.0,0.0,0.0,0.0,0.0,-0.04277754673375897,-0.07671860419753673,-0.26941045490374177,-0.15057410203800686,0.0005425502781255436,-0.022689780416806977,-0.40448705878226465
4293,6.0,300.02423,1679.1563,0.0,0.0,0.0,0.0,0.0,-0.04278751354334279,-0.09804713984699931,-0.22830120621907476,-0.1840732345216138,0.012943623573936186,0.012291701499346488,-0.38287879112469464
4294,6.0,300.94173,1899.4895,0.0,0.0,0.0,0.0,0.0,-0.04279748035292663,-0.10779067034561089,-0.3006730303091177,-0.16893368722495683,0.03192599381560027,0.046372659415625156,-0.4005596000696546
4295,6.0,301.11863,2052.5679,0.0,0.0,0.0,0.0,0.0,-0.04280744716251045,-0.08181378704089212,-0.29651055836831375,-0.24560502533182874,-0.012488345986003789,0.008379009387068842,-0.4066313391738886
4296,6.0,300.46606,2139.1034,0.0,0.0,0.0,0.0,0.0,-0.04281741397209424,-0.0975558108205089,-0.3047683845632977,-0.24790984506929678,-0.01783193722387518,-0.01891220571198938,-0.39420936917543564
4297,6.0,299.34166,2117.3365,0.0,0.0,0.0,0.0,0.0,-0.042827380781678054,-0.11389895738095189,-0.28640736056120575,-0.24331110816543677,-0.03624971032431786,0.0002852323146852377,-0.3790035553222386
4298,6.0,299.20055,1913.6799,0.0,0.0,0.0,0.0,0.0,-0.0428373475912619,-0.12569716048534388,-0.23727641348485878,-0.21873734117519478,0.007375152520795882,0.024796161201690578,-0.35809742945396467
4299,6.0,299.2353,1824.8469,0.0,0.0,0.0,0.0,0.0,-0.042847314400845715,-0.09594021292031182,-0.2869946605841677,-0.17177300652267583,-0.028060731433878574,-0.007101637106027014,-0.4092566499179866
4300,6.0,299.79736,1915.8877,0.0,0.0,0.0,0.0,0.0,-0.04285728121042956,-0.12440354408267387,-0.27421668516307973,-0.18376179183837682,-0.005977778902585844,-0.016750216748367682,-0.4177025859940356
4301,6.0,300.33136,1894.2954,0.0,0.0,0.0,0.0,0.0,-0.04286724802001332,-0.08365039099990082,-0.2869706465567977,-0.2051974726064138,0.003957728140797356,0.03283092140040967,-0.4288514680368446
4302,6.0,300.81727,1808.5462,0.0,0.0,0.0,0.0,0.0,-0.042877214829597166,-0.1115180020309699,-0.2778449007236567,-0.16038998264675886,0.01976606447850868,0.06556138614615503,-0.38610098723770064
4303,6.0,301.02434,2057.3468,0.0,0.0,0.0,0.0,0.0,-0.04288718163918098,-0.1084273663109479,-0.27691825310970375,-0.24003642569725078,0.008852386256237502,0.009073040109314342,-0.36502637814279865
4304,6.0,301.4507,2038.9331,0.0,0.0,0.0,0.0,0.0,-0.04289714844876483,-0.11752415345623089,-0.27610636620207674,-0.2261542407146858,0.0003658375659078567,-0.03490898387149847,-0.34849600322887764
4305,6.0,300.71372,2058.8852,0.0,0.0,0.0,0.0,0.0,-0.042907115258348644,-0.12100273224203988,-0.28695662317541376,-0.2178903451516028,0.007405969306687263,-0.017310077958621682,-0.3656649992833257
4306,6.0,300.46868,2108.1486,0.0,0.0,0.0,0.0,0.0,-0.04291708206793246,-0.13514792655306188,-0.27739321409407874,-0.22828338314981578,0.03667149999644526,0.0002657196002219827,-0.38051603374650866
4307,6.0,300.22972000000004,2038.3031,0.0,0.0,0.0,0.0,0.0,-0.04292704887751628,-0.07644202339724032,-0.33900133303432667,-0.20414988346052482,-0.004677342718792785,-0.023858638374414275,-0.4357786030079996
4308,6.0,299.82662,1936.1795,0.0,0.0,0.0,0.0,0.0,-0.04293701568710012,-0.08402634630375472,-0.29832660652254367,-0.20619727687758682,-0.01070812534205969,-0.01225789238325979,-0.4128288023505306
4309,6.0,299.81793,1722.4786,0.0,0.0,0.0,0.0,0.0,-0.04294698249668391,-0.06282436457853204,-0.27695105201544074,-0.18381506852863483,-0.0034345052435592774,0.01895189978465688,-0.41451583336952763
4310,6.0,299.70546,1586.3493,0.0,0.0,0.0,0.0,0.0,-0.042956949306267755,-0.06343718938476314,-0.2633645030145528,-0.15540888568516284,0.0077536747924531225,0.03533369778341447,-0.3860969848998056
4311,6.0,299.5981,1645.0082,0.0,0.0,0.0,0.0,0.0,-0.042966916115851544,-0.09360062857191281,-0.2501752595103758,-0.15626552784970685,-0.011270648360326388,-0.029012927135852976,-0.3975199409621636
4312,6.0,300.03301,1986.9378,0.0,0.0,0.0,0.0,0.0,-0.04297688292543539,-0.09461205482173281,-0.3091142243746987,-0.2002532174184538,0.0013949934937251389,-0.02156687132473448,-0.43324444424289754
4313,6.0,300.6772,2142.1522,0.0,0.0,0.0,0.0,0.0,-0.042986849735019206,-0.11543534850758189,-0.3168017934134027,-0.2189236474710818,0.003423008502624637,0.0025972155479752177,-0.4206422575816586
4314,6.0,300.81732999999997,2102.8336,0.0,0.0,0.0,0.0,0.0,-0.04299681654460305,-0.11190072685874189,-0.2967663533560587,-0.23054183656270777,0.010761199382297689,0.018037635100175982,-0.3783146465792486
4315,6.0,300.60157999999996,1922.846,0.0,0.0,0.0,0.0,0.0,-0.04300678335418687,-0.09137156650467151,-0.2890190329589577,-0.2041065670187498,-0.0038444732254449662,-0.03271051486452647,-0.38534145496274064
4316,6.0,300.36629,1966.7158,0.0,0.0,0.0,0.0,0.0,-0.043016750163770656,-0.1072664552738749,-0.2766440878976457,-0.21392193086995082,0.006986500483913913,-0.031759871461705266,-0.34751467050702767
4317,6.0,301.0626,2027.6197,0.0,0.0,0.0,0.0,0.0,-0.04302671697335447,-0.11188686559737389,-0.28650043771539174,-0.2179584558233248,0.026293269635193676,0.02129294017344958,-0.3703243690731696
4318,6.0,299.82501,1948.2253,0.0,0.0,0.0,0.0,0.0,-0.04303668378293832,-0.12190575086366089,-0.27439146067282877,-0.19591462234526782,0.029471707529381073,0.04214015264115926,-0.4011253178654866
4319,6.0,300.18993,1868.213,0.0,0.0,0.0,0.0,0.0,-0.043046650592522134,-0.07234760842590303,-0.2849370434735967,-0.21060545183513982,0.0013009990442236089,-0.00972954389820622,-0.42939934249841555
4320,6.0,300.37447000000003,1772.7418,0.0,0.0,0.0,0.0,0.0,-0.04305661740210595,-0.09184550106669523,-0.2767906443921097,-0.17023309941819884,-0.004358893512439296,-0.015497599484493986,-0.4112689848815886
4321,6.0,299.43255,1883.4648,0.0,0.0,0.0,0.0,0.0,-0.04306658421168974,-0.06621286745695124,-0.28120298380757375,-0.2251104107266678,0.016320459890703985,0.008291839379640831,-0.38625012751991966
4322,6.0,299.45029,2092.6524,0.0,0.0,0.0,0.0,0.0,-0.043076551021273585,-0.14888822612412386,-0.26535562052106076,-0.22187021929188577,0.008435683403587132,0.024766670557530075,-0.3394746424210387
4323,6.0,299.92242999999996,1953.5694,0.0,0.0,0.0,0.0,0.0,-0.0430865178308574,-0.0969178989550519,-0.28516919933650875,-0.21174920854801982,-0.02019910831949678,-0.023665862476638776,-0.38457632954722865
4324,6.0,299.52791,1893.0059,0.0,0.0,0.0,0.0,0.0,-0.043096484640441246,-0.08356598422682052,-0.29072798057761773,-0.2011325462527368,-0.0057896845242473745,-0.01870482178752218,-0.4063126922824406
4325,6.0,300.82437999999996,2150.6115,0.0,0.0,0.0,0.0,0.0,-0.04310645145002506,-0.1080554224642399,-0.3326931520192577,-0.2129836207473468,0.009827769578800341,0.01779945850516978,-0.4146681755220626
4326,6.0,300.16823,2073.4951,0.0,0.0,0.0,0.0,0.0,-0.04311641825960888,-0.11139357491868988,-0.3080093967306607,-0.2108877534455008,-0.010328140342558089,0.02738840250227487,-0.4060760071915816
4327,6.0,300.63325,1734.2973,0.0,0.0,0.0,0.0,0.0,-0.043126385069192696,-0.06000123296441064,-0.25922322826584077,-0.20795860952641682,-0.02082458963272698,-0.045170508086232054,-0.37441253938414065
4328,6.0,299.89566,1582.1043,0.0,0.0,0.0,0.0,0.0,-0.04313635187877654,-0.05001828159967005,-0.26359632450493176,-0.16730560709677783,-0.04512278805952245,-0.014523097081568088,-0.4004618720975096
4329,6.0,298.18924,1707.7916,0.0,0.0,0.0,0.0,0.0,-0.04314631868836033,-0.06175579102307204,-0.24784857383574974,-0.20952163899817577,0.02155507202731998,0.015582407504613883,-0.3666022961558297
4330,6.0,299.25531,2106.6425,0.0,0.0,0.0,0.0,0.0,-0.04315628549794415,-0.11414101269734088,-0.2996315105313277,-0.22659417364310377,-0.0021084990855426583,0.026034848303189473,-0.4327683078884066
4331,6.0,300.4667,2133.1525,0.0,0.0,0.0,0.0,0.0,-0.043166252307527964,-0.12716080025479387,-0.2809614047187317,-0.24030289020854875,-0.0007911246430079233,-0.0017621578397114383,-0.4054633860486206
4332,6.0,299.45923999999997,1864.0211,0.0,0.0,0.0,0.0,0.0,-0.04317621911711181,-0.11186054135977588,-0.27057857014902575,-0.18417675828433083,-0.004955462139366035,-0.012568354240399988,-0.4276313730614306
4333,6.0,299.82664,1825.2533,0.0,0.0,0.0,0.0,0.0,-0.043186185926695625,-0.09720789012042182,-0.2689853356917858,-0.1886382099321418,0.03341455345800967,0.023267225569296376,-0.3532118211817926
4334,6.0,299.67073999999997,2033.2441,0.0,0.0,0.0,0.0,0.0,-0.04319615273627944,-0.16591627908966186,-0.2609384681676218,-0.1912006789050378,0.007293864430198372,0.015809520421778182,-0.35763784960610767
4335,6.0,299.73832999999996,2160.9852,0.0,0.0,0.0,0.0,0.0,-0.043206119545863286,-0.12647738332734587,-0.2842167949050137,-0.24619137289969678,-0.015939202249076787,-0.041973117348924165,-0.3628288007959147
4336,6.0,301.48454,1975.4803,0.0,0.0,0.0,0.0,0.0,-0.043216086355447075,-0.11843280574840788,-0.27627738255395473,-0.2057865052870468,-0.02929628961906867,-0.007478898995884863,-0.4039351819827986
4337,6.0,299.82025,1838.7718,0.0,0.0,0.0,0.0,0.0,-0.04322605316503089,-0.07742782759178163,-0.28874849518225776,-0.19276439738686482,-0.005552328864472194,0.02251140381620258,-0.4187312476280566
4338,6.0,299.37777,1970.8217,0.0,0.0,0.0,0.0,0.0,-0.04323601997461471,-0.10560950765034689,-0.28839423254979474,-0.2050768451820088,0.005484187795247194,0.046771886034525756,-0.4257379733945666
4339,6.0,301.12313,2109.4889,0.0,0.0,0.0,0.0,0.0,-0.04324598678419855,-0.1178860965244519,-0.29652900965263473,-0.2268168657500818,-0.01912816578530298,-0.015305443695779684,-0.4162794762285856
4340,6.0,300.7428,1629.2919,0.0,0.0,0.0,0.0,0.0,-0.04325595359378237,-0.07297948436051432,-0.24882870078998073,-0.17345585281875983,0.021874677453362582,-0.009323516040659391,-0.39370100133526365
4341,6.0,300.34754,1572.9423,0.0,0.0,0.0,0.0,0.0,-0.04326592040336616,-0.032415971166457266,-0.27019850003651574,-0.17552070453504484,0.025304744864133873,0.018032814056200185,-0.38953470944158264
4342,6.0,299.68661000000003,1889.0681,0.0,0.0,0.0,0.0,0.0,-0.043275887212950004,-0.09051696603907901,-0.2758367200854647,-0.2078758472582488,0.019341060777064083,0.014211727352338287,-0.3990126610094836
4343,6.0,299.15536000000003,2133.7838,0.0,0.0,0.0,0.0,0.0,-0.04328585402253382,-0.10888521350113389,-0.3271330332880167,-0.2125987376968618,-0.02670525003310297,-0.04640369931918855,-0.40276104803192064
4344,6.0,300.06089,2398.8999,0.0,0.0,0.0,0.0,0.0,-0.04329582083211764,-0.14421748766815787,-0.34180754945127867,-0.24318063195005976,-0.053777902525965746,-0.01106990122401419,-0.42727241908100455
4345,6.0,299.37593,2101.0628,0.0,0.0,0.0,0.0,0.0,-0.04330578764170148,-0.14145453703047586,-0.26963344085324875,-0.22758264977815879,-0.01015409943913159,0.028990910224430073,-0.3537552981379296
4346,6.0,300.41704,1753.4957,0.0,0.0,0.0,0.0,0.0,-0.0433157544512853,-0.1005837030545886,-0.2697098196457867,-0.16272537213974386,-0.020636729011186582,0.022026388351085276,-0.39097489247121764
4347,6.0,301.49249,1959.2633,0.0,0.0,0.0,0.0,0.0,-0.043325721260869116,-0.1054171927813669,-0.2719866635479937,-0.21816326406603778,-0.005292938460072355,-0.02103294931704048,-0.36004389302856565
4348,6.0,300.53495,2158.875,0.0,0.0,0.0,0.0,0.0,-0.043335688070452905,-0.14712247570485784,-0.3049005326413397,-0.2042210946775528,-0.009788690244968512,-0.027771780876361375,-0.39721011947908663
4349,6.0,300.73724,1846.3949,0.0,0.0,0.0,0.0,0.0,-0.04334565488003675,-0.06283211492854694,-0.28735385774461775,-0.21107198257868282,0.025588796357417575,0.026594097510383077,-0.4145038668858466
4350,6.0,300.98635,1710.976,0.0,0.0,0.0,0.0,0.0,-0.043355621689620566,-0.06122233004417354,-0.25697458311391674,-0.2018970637181888,0.01760075104130888,0.008133964982884842,-0.4084186312902806
4351,6.0,298.75954,1871.8664,0.0,0.0,0.0,0.0,0.0,-0.04336558849920438,-0.09777103932725031,-0.27309415603979476,-0.1981354537819468,-0.018670242601359483,-0.02408333367683998,-0.4205455023296095
4352,6.0,298.89956,2183.2082,0.0,0.0,0.0,0.0,0.0,-0.0433755553087882,-0.15193205982202687,-0.29135999532749274,-0.22034872294172578,-0.02427004223301668,0.012860635350995887,-0.37243731977170164
4353,6.0,299.40265,2068.4239,0.0,0.0,0.0,0.0,0.0,-0.043385522118372044,-0.12005152344566287,-0.2979337998562767,-0.21076389375327678,-0.0028603109013657074,0.03387322442052697,-0.4095943661763166
4354,6.0,299.01671,1748.6313,0.0,0.0,0.0,0.0,0.0,-0.04339548892795586,-0.09555244818654242,-0.2896820632943937,-0.14630573532925184,-0.0032366533680828168,0.02127986722065938,-0.38170367432121965
4355,6.0,299.81692000000004,1737.9897,0.0,0.0,0.0,0.0,0.0,-0.043405455737539705,-0.037992008056769264,-0.2963882590812437,-0.19392520709892783,-0.007257274145237192,-0.04100331338671196,-0.43965417318298855
4356,6.0,300.72348,1876.2994,0.0,0.0,0.0,0.0,0.0,-0.04341542254712347,-0.08481832183366662,-0.2989228738088907,-0.18660695758917284,0.0036718562423839964,-0.03779137947071876,-0.4157975846135266
4357,6.0,300.17778,1982.1443,0.0,0.0,0.0,0.0,0.0,-0.04342538935670731,-0.09549761007788031,-0.29129387062596673,-0.2157308862734808,0.027253206567932075,0.006338565548467713,-0.42743061781911756
4358,6.0,301.2424,2101.5437,0.0,0.0,0.0,0.0,0.0,-0.04343535616629113,-0.12184270644243887,-0.2893738123489717,-0.22760027019739776,-0.0017679786575609084,-0.013976609759383987,-0.38494646980875863
4359,6.0,300.12733,1733.5622,0.0,0.0,0.0,0.0,0.0,-0.04344532297587497,-0.06618650978209994,-0.28218586680207675,-0.17858723503518784,-0.025010332888577676,-0.04017641213910317,-0.39165132810547665
4360,6.0,299.24307000000005,1724.8912,0.0,0.0,0.0,0.0,0.0,-0.04345528978545879,-0.09230519845156382,-0.2540985537650748,-0.17792009090434582,-0.029056201021123773,-0.017345311704348984,-0.41727702095203556
4361,6.0,299.18102999999996,2233.2489,0.0,0.0,0.0,0.0,0.0,-0.043465256595042606,-0.09617643090287471,-0.3354909685928807,-0.24718449985271077,0.017001589912676283,0.041525579978505665,-0.3913159828523806
4362,6.0,299.99256,2171.9097,0.0,0.0,0.0,0.0,0.0,-0.043475223404626395,-0.13084729796112288,-0.3142554249845957,-0.21510360340157278,-0.013701144547447685,0.014681648430715887,-0.42107596915446255
4363,6.0,300.35544,1817.9186,0.0,0.0,0.0,0.0,0.0,-0.04348519021421024,-0.08790660985320692,-0.26287566050380773,-0.20181957035054082,0.01846373919122918,-0.00920881400151418,-0.37447187530999665
4364,6.0,299.48025,1756.631,0.0,0.0,0.0,0.0,0.0,-0.04349515702379406,-0.0960609447094771,-0.27563139508520074,-0.16227963328825284,0.015578377808966187,-0.0092920081168748,-0.3909079875671146
4365,6.0,299.73284,1947.7321,0.0,0.0,0.0,0.0,0.0,-0.0435051238333779,-0.13168085828838888,-0.25732085120309073,-0.2030602241704838,0.02426111549963568,0.027273374297922478,-0.36651937176764565
4366,6.0,300.54044,2189.1875,0.0,0.0,0.0,0.0,0.0,-0.04351509064296169,-0.13446931243108787,-0.3042788530424847,-0.2267101603820508,0.00905491742200077,-0.0018014630269905583,-0.38602567235776764
4367,6.0,300.97478,2272.6647,0.0,0.0,0.0,0.0,0.0,-0.043525057452545535,-0.1026597542242289,-0.33764725599818973,-0.2505263000075208,-0.054896727206885154,-0.024967634529363677,-0.4215397843877376
4368,6.0,300.16609,1997.5694,0.0,0.0,0.0,0.0,0.0,-0.043535024262129324,-0.1028018220207499,-0.26819171768346173,-0.2362176684553688,-0.02284439326281608,-0.00962011055693099,-0.4031609170513846
4369,6.0,300.78364,1699.7912,0.0,0.0,0.0,0.0,0.0,-0.04354499107171317,-0.056294269632561844,-0.24655849367592877,-0.21384131669199483,-0.014691275319915986,0.028157696428698267,-0.4182623965417846
4370,6.0,299.8772,1775.1802,0.0,0.0,0.0,0.0,0.0,-0.043554957881296985,-0.0976231260909024,-0.25363926775974677,-0.18834807589850783,0.016799598505241282,-0.002669759188884717,-0.3752546414097496
4371,6.0,299.49273,1979.9789,0.0,0.0,0.0,0.0,0.0,-0.0435649246908808,-0.1032319264231979,-0.27547214256698377,-0.2231600664041838,-0.012357739061363887,-0.03423411877489446,-0.40781114732532664
4372,6.0,299.88771,1774.4341,0.0,0.0,0.0,0.0,0.0,-0.04357489150046462,-0.10904004824891489,-0.2562227110097128,-0.17412090965439583,0.029673364564283072,-0.006236176017912654,-0.4261827800559656
4373,6.0,300.10332999999997,1628.1809,0.0,0.0,0.0,0.0,0.0,-0.04358485831004846,-0.024926262514530576,-0.2936011221636747,-0.17639894919172083,0.028469187747940074,0.01837993327545818,-0.4419611714081716
4374,6.0,299.29388,1772.9265,0.0,0.0,0.0,0.0,0.0,-0.04359482511963228,-0.08657873039840541,-0.26983082197272873,-0.18251583872041083,-0.002071146735181268,-0.0035365507757053865,-0.42892915392201164
4375,6.0,299.75162,2115.2317,0.0,0.0,0.0,0.0,0.0,-0.043604791929216125,-0.07711444960085363,-0.3321297241686517,-0.23373344265519477,-0.03975441272420506,-0.025464722869422477,-0.4045560712465756
4376,6.0,300.39364,2025.2379999999998,0.0,0.0,0.0,0.0,0.0,-0.043614758738799886,-0.14381113384805386,-0.27052482736372174,-0.2012858307278648,-0.015752221128623185,-0.01132080424027639,-0.40921435685881263
4377,6.0,299.91606,1845.6514,0.0,0.0,0.0,0.0,0.0,-0.04362472554838373,-0.10026773316990481,-0.2564272558073997,-0.2043369496939868,-0.012567677389333187,0.05647316805696774,-0.37116507281364064
4378,6.0,301.00607,1851.3915,0.0,0.0,0.0,0.0,0.0,-0.04363469235796755,-0.09982452237741331,-0.26129608465791576,-0.2016561736394148,-0.015143209182518385,-0.0018760026692720482,-0.40394101830337464
4379,6.0,301.05655,2031.8622,0.0,0.0,0.0,0.0,0.0,-0.04364465916755139,-0.08238714474247813,-0.27312836336317076,-0.26211987725421776,-0.016008609880926786,-0.007407730031386033,-0.38861678591099064
4380,6.0,300.12698,2338.7999,0.0,0.0,0.0,0.0,0.0,-0.04365462597713521,-0.13330851285152587,-0.3126744711185677,-0.2649537959289038,-0.009517064744286161,0.015415923420433185,-0.4025555001166346
4381,6.0,300.92522,2257.9303,0.0,0.0,0.0,0.0,0.0,-0.043664592786719025,-0.12823376118318688,-0.28691811967161374,-0.2712025599581087,0.039699323329518164,0.015679906482236283,-0.3669327271459406
4382,6.0,300.36992000000004,1761.2718,0.0,0.0,0.0,0.0,0.0,-0.043674559596302814,-0.1056422660260799,-0.27119422090978573,-0.15854616130728785,0.0005114498227361675,-0.023976407420287178,-0.36468411239151965
4383,6.0,299.9368,1756.116,0.0,0.0,0.0,0.0,0.0,-0.04368452640588666,-0.1065911646122289,-0.26641538893315175,-0.16080885010559784,-0.051191949455502046,-0.03653981294719876,-0.39075284884430367
4384,6.0,300.07877,2312.5762,0.0,0.0,0.0,0.0,0.0,-0.043694493215470476,-0.15746441550052784,-0.3269221658097057,-0.21857883846205178,0.0007980098294249383,-0.01005517177886819,-0.4067682900574046
4385,6.0,299.43637,2190.3839,0.0,0.0,0.0,0.0,0.0,-0.04370446002505432,-0.10821126032961989,-0.33152632360160067,-0.2260844176502948,-0.015217834039133286,0.06181297987196615,-0.42139212345066457
4386,6.0,299.20395,1709.622,0.0,0.0,0.0,0.0,0.0,-0.04371442683463811,-0.08202390066112872,-0.26685040759858475,-0.17080809858494683,0.02152000952085958,0.014024588164869086,-0.40318507293376865
4387,6.0,299.16021,1636.3731,0.0,0.0,0.0,0.0,0.0,-0.043724393644221954,-0.02673933981946737,-0.27601124228268875,-0.1946659841145368,-0.01272696638455379,-0.018114089886471483,-0.4077480421090986
4388,6.0,299.1383,1852.8667,0.0,0.0,0.0,0.0,0.0,-0.04373436045380574,-0.10996429446013088,-0.27734892493220775,-0.17591200145866281,-0.0044018258311013855,-0.001108127900938709,-0.38114280999336664
4389,6.0,300.56376,2050.6932,0.0,0.0,0.0,0.0,0.0,-0.04374432726338959,-0.1005921444411717,-0.29199396565006075,-0.23077342500556378,-0.0042921976418319255,0.007284916317240263,-0.4122747673283516
4390,6.0,300.41536,1977.6069,0.0,0.0,0.0,0.0,0.0,-0.043754294072973404,-0.1118470043384399,-0.2773739826071807,-0.2119221399425868,-0.02330359212863548,-0.020433860129164982,-0.41155282663210163
4391,6.0,299.88401,1711.5263,0.0,0.0,0.0,0.0,0.0,-0.04376426088255722,-0.031099025693484873,-0.29370443314387074,-0.1954578086701838,-0.05529310254000436,-0.03300247274834047,-0.44865752853655055
4392,6.0,300.80596,1798.8366,0.0,0.0,0.0,0.0,0.0,-0.04377422769214104,-0.06187459358404695,-0.3075473648175617,-0.17737946118098982,-0.015593230028931987,-0.002780601150448967,-0.41990222023862256
4393,6.0,301.09122,2136.9708,0.0,0.0,0.0,0.0,0.0,-0.04378419450172488,-0.0981296538688928,-0.33290515433768064,-0.2185509436867988,0.005161701597845285,0.03374471492359407,-0.4100004160213906
4394,6.0,300.12489,2041.8003,0.0,0.0,0.0,0.0,0.0,-0.0437941613113087,-0.15629526674014185,-0.2772356537035287,-0.1871253768703368,0.02175239336504408,-0.02439183894803708,-0.3751838253602606
4395,6.0,299.57284,1750.0493,0.0,0.0,0.0,0.0,0.0,-0.043804128120892544,-0.0985988565529495,-0.26639169914581373,-0.16698073884971584,0.023261582779489476,-0.02961442887221657,-0.40255535826162064
4396,6.0,299.78285,1824.5892,0.0,0.0,0.0,0.0,0.0,-0.043814094930476305,-0.09123556503649922,-0.2867167362142387,-0.17667725859668781,0.03646312106037986,0.0097741621637097,-0.4140836720693766
4397,6.0,300.61656,2081.5299,0.0,0.0,0.0,0.0,0.0,-0.04382406174006015,-0.12562405449062888,-0.2795300470974677,-0.2275790122102998,0.017691342692999584,0.03736968909710117,-0.3868700440636006
4398,6.0,300.08128,2244.2077,0.0,0.0,0.0,0.0,0.0,-0.043834028549643966,-0.12860128725945888,-0.3061557266002177,-0.24742607894155275,-0.035614737897400967,-0.006399560874012484,-0.39697744685862363
4399,6.0,299.02361,1989.5685,0.0,0.0,0.0,0.0,0.0,-0.04384399535922781,-0.10563776719563589,-0.27217865417694176,-0.22696273323447777,-0.03738446228355916,-0.02182783895423998,-0.3690354541509636
4400,6.0,298.73323999999997,1860.7057,0.0,0.0,0.0,0.0,0.0,-0.04385396216881163,-0.1055993447518439,-0.27178112576520874,-0.18822759032911685,-0.026442502123171775,0.011366015459738388,-0.3834862953546506
4401,6.0,299.82525,1912.1217,0.0,0.0,0.0,0.0,0.0,-0.043863928978395444,-0.06301389908923764,-0.2954347603396407,-0.22278860891752378,-0.00014762532133198486,0.04839630832984375,-0.3939416077040096
4402,6.0,300.34307,2033.1816,0.0,0.0,0.0,0.0,0.0,-0.043873895787979234,-0.1022610200448769,-0.3052211756354847,-0.2105542523075868,0.014153423928334186,-0.01854070060257468,-0.4261461004023456
4403,6.0,300.78224,2017.6418,0.0,0.0,0.0,0.0,0.0,-0.04388386259756308,-0.0972886714846443,-0.31373178746541674,-0.2022922819196938,0.018091651463006984,-0.005582082447033645,-0.42809339484202863
4404,6.0,300.64732999999995,1747.6337,0.0,0.0,0.0,0.0,0.0,-0.043893829407146895,-0.07852788282784862,-0.27187411172688575,-0.18083501892452683,0.04089603857212476,0.022445513175449683,-0.4360136668986985
4405,6.0,300.93379,1614.4375,0.0,0.0,0.0,0.0,0.0,-0.04390379621673074,-0.03342893755642926,-0.28045630967638274,-0.17686343317006184,0.04386734281461966,0.03627154181097246,-0.4229586689002706
4406,6.0,301.17238,1946.0947,0.0,0.0,0.0,0.0,0.0,-0.04391376302631453,-0.1041898125377339,-0.3029857635298667,-0.18438862888024082,-0.03577892393035486,-0.022015086559469876,-0.3829720810614016
4407,6.0,300.57677,2352.5169,0.0,0.0,0.0,0.0,0.0,-0.04392372983589837,-0.12368165404892889,-0.3237078527824777,-0.26771689855410075,-0.031124837226532268,-0.03358715858604447,-0.4076306570850136
4408,6.0,299.01561,2070.4888,0.0,0.0,0.0,0.0,0.0,-0.04393369664548216,-0.14207587212429684,-0.2886414351766917,-0.19865958779367482,-0.013692287728323588,0.010715181615756091,-0.4153827600225866
4409,6.0,299.26707999999996,1932.7587,0.0,0.0,0.0,0.0,0.0,-0.04394366345506601,-0.09243866274148572,-0.28833077269603175,-0.2067409564837438,0.012390125574310188,0.026766488842646773,-0.42332980214689864
4410,6.0,299.8171,1936.4357,0.0,0.0,0.0,0.0,0.0,-0.04395363026464982,-0.09672174690794322,-0.27388961816330076,-0.2180167278365758,-0.002255118604162878,-0.030820070848204175,-0.4133718638741266
4411,6.0,299.84559,2075.4732,0.0,0.0,0.0,0.0,0.0,-0.04396359707423364,-0.1138664523177439,-0.3048223198661207,-0.21220326618283178,-0.004097705501037046,-0.025240154223259273,-0.3931636140122276
4412,6.0,299.92607000000004,2097.7451,0.0,0.0,0.0,0.0,0.0,-0.04397356388381746,-0.12544384796034388,-0.28079253645706576,-0.23142574528744275,0.017342542491825683,0.03784396816415886,-0.3939421041965586
4413,6.0,299.39203,1849.4538,0.0,0.0,0.0,0.0,0.0,-0.0439835306934013,-0.08648529759343432,-0.25792164771738474,-0.21778081281579278,0.007828287186091793,0.023509779404734577,-0.35516997766254765
4414,6.0,299.42577,1794.0201,0.0,0.0,0.0,0.0,0.0,-0.04399349750298512,-0.07978151739482273,-0.2875452606885077,-0.17801052347577082,0.0025458153969024175,-0.023535502785023275,-0.40726845057176664
4415,6.0,301.14387,2181.7689,0.0,0.0,0.0,0.0,0.0,-0.04400346431256896,-0.12730349626637688,-0.28742079304622375,-0.2484789572529638,-0.01135831070597799,-0.04134635630081766,-0.3902441567640996
4416,6.0,301.21868,2579.173,0.0,0.0,0.0,0.0,0.0,-0.044013431122152724,-0.1894260220173928,-0.33461774965670066,-0.25996042850859674,0.021405357232294277,0.013384722753219289,-0.43419556184676555
4417,6.0,300.49537999999995,2207.7591,0.0,0.0,0.0,0.0,0.0,-0.04402339793173657,-0.14344009179393485,-0.28746964183354473,-0.24019389489529178,0.00920949835063172,0.03217369496154647,-0.3796488639134256
4418,6.0,300.44794,1804.2799,0.0,0.0,0.0,0.0,0.0,-0.044033364741320385,-0.06867903612709314,-0.27901175953881674,-0.2007652532239878,-0.004598404557827195,-0.0027906910949447674,-0.4055429363139716
4419,6.0,300.50237999999996,1901.9759,0.0,0.0,0.0,0.0,0.0,-0.04404333155090423,-0.08025886255668302,-0.28223947786486775,-0.2156548418534758,-0.009252294691130392,-0.0002212867797518048,-0.37389930794348863
4420,6.0,299.67267000000004,2001.4548,0.0,0.0,0.0,0.0,0.0,-0.04405329836048805,-0.13038201351520287,-0.26076865758336276,-0.2172416016425768,0.015739502813367987,0.024733066117963578,-0.41624124630231263
4421,6.0,300.21637999999996,1944.8236,0.0,0.0,0.0,0.0,0.0,-0.044063265170071864,-0.09342518837009822,-0.3068784373665437,-0.1908741894578158,-0.004870156410797016,0.007557931895734803,-0.4162391387421046
4422,6.0,299.77682999999996,1676.8559,0.0,0.0,0.0,0.0,0.0,-0.04407323197965565,-0.07179566677843063,-0.28018932840753374,-0.15773732428246184,-0.018034718966388183,-0.04898232760467936,-0.4317316821085996
4423,6.0,299.28564,1742.2586,0.0,0.0,0.0,0.0,0.0,-0.0440831987892395,-0.05098203544553515,-0.29385456641118773,-0.18476651037253483,-0.013590627332540487,-0.030809136866375073,-0.4153274770971306
4424,6.0,300.0759,2013.648,0.0,0.0,0.0,0.0,0.0,-0.044093165598823314,-0.10801927983317289,-0.29571520770231874,-0.2083642135414468,0.011688283707043789,0.02739231770066127,-0.4075086820379756
4425,6.0,300.10836,2251.8886,0.0,0.0,0.0,0.0,0.0,-0.04410313240840716,-0.12599089155683288,-0.3002476172546327,-0.2582793857976908,0.011693539435312489,0.02027287596652708,-0.3869130362653436
4426,6.0,299.00931,2042.4579,0.0,0.0,0.0,0.0,0.0,-0.04411309921799095,-0.12695585015706687,-0.2960804944958697,-0.1978198567732998,-0.0019070314270843484,0.0016779147065222886,-0.4036327065629466
4427,6.0,298.72331,1835.1274,0.0,0.0,0.0,0.0,0.0,-0.04412306602757479,-0.07189175227216353,-0.2839155657827847,-0.2020255944933738,0.025134272627559576,-0.036587443807899564,-0.43081875390100055
4428,6.0,299.3628,1918.2746,0.0,0.0,0.0,0.0,0.0,-0.04413303283715858,-0.12952153113277987,-0.26627822526711475,-0.1873078226833428,0.011521162288550189,0.02620136278487318,-0.4335742976804515
4429,6.0,299.11419,2019.3961,0.0,0.0,0.0,0.0,0.0,-0.044142999646742426,-0.12740143702104287,-0.2649935963928317,-0.22145094653300676,-0.01211227111863809,0.0005342136920002865,-0.3892400867100056
4430,6.0,299.68019,1948.3020000000001,0.0,0.0,0.0,0.0,0.0,-0.04415296645632624,-0.09999505642224371,-0.28188535708741874,-0.2103547534953978,-0.06771796638074294,-0.02151444171156008,-0.3992694692473286
4431,6.0,299.23046,1670.3419,0.0,0.0,0.0,0.0,0.0,-0.04416293326591006,-0.05877627337526654,-0.26146182197677276,-0.18750412975771683,-0.034254705990426265,0.009340387668074492,-0.35682995490387465
4432,6.0,300.16522000000003,1892.4567,0.0,0.0,0.0,0.0,0.0,-0.044172900075493876,-0.08678646693390742,-0.30013947307145966,-0.1883336370845828,-0.006318451622057624,0.04492273195977846,-0.41544157919089164
4433,6.0,300.85146000000003,2327.618,0.0,0.0,0.0,0.0,0.0,-0.04418286688507772,-0.14017415367411187,-0.3216139511858257,-0.24574965665110274,0.04949228726075845,0.02084705845369448,-0.38230416686048363
4434,6.0,299.86701,2334.5791,0.0,0.0,0.0,0.0,0.0,-0.04419283369466154,-0.14517874790552684,-0.34741811790499866,-0.2170568962818478,0.0023491563194436775,-0.02198398180790008,-0.4307362956078626
4435,6.0,300.18082999999996,2223.4559,0.0,0.0,0.0,0.0,0.0,-0.044202800504245326,-0.1119054790017109,-0.3151939276247187,-0.24877565714724575,0.05246134411453155,-0.006042787813101724,-0.3940995429970966
4436,6.0,300.11798,1898.2372,0.0,0.0,0.0,0.0,0.0,-0.04421276731382914,-0.08500281745162493,-0.27927112116691377,-0.2127427711985768,0.016136876197835683,0.024315341605237375,-0.4097163513558556
4437,6.0,300.49897999999996,1592.0189,0.0,0.0,0.0,0.0,0.0,-0.04422273412341299,-0.08460545115990792,-0.22508044892121076,-0.17424807254194583,0.007045703167381764,0.009379463962156023,-0.37321272967572866
4438,6.0,299.9154,1873.6482,0.0,0.0,0.0,0.0,0.0,-0.044232700932996805,-0.1017647301458969,-0.27873390609639476,-0.1890436315621538,-0.043582817120289156,-0.025529204079286272,-0.4021044214371166
4439,6.0,299.38426,2036.0972,0.0,0.0,0.0,0.0,0.0,-0.04424266774258062,-0.09633867048238651,-0.3091789811885897,-0.2134050618614398,-0.014751822079641486,0.001111710854617319,-0.43953618020884355
4440,6.0,298.38914,1765.0339,0.0,0.0,0.0,0.0,0.0,-0.044252634552164466,-0.08815360273733323,-0.29375606836896667,-0.15461657476946786,0.0018377821662249783,0.028686954446181974,-0.4389285138588716
4441,6.0,299.8595,1895.8202,0.0,0.0,0.0,0.0,0.0,-0.04426260136174828,-0.06339860482095513,-0.29720323640167573,-0.21568016297347478,0.001212420923131629,0.004231474475264016,-0.4394462339974666
4442,6.0,299.7168,2081.4072,0.0,0.0,0.0,0.0,0.0,-0.04427256817133207,-0.10934102405861891,-0.3037903246392707,-0.2195644673643258,-0.02095612266795828,-0.011303577975326289,-0.38509306683322664
4443,6.0,299.98778,2215.6858,0.0,0.0,0.0,0.0,0.0,-0.044282534980915916,-0.1233070656194599,-0.31417825585697967,-0.23602784618163478,-1.8627492566390382e-05,-0.0016945589606149486,-0.3809567164800007
4444,6.0,300.78732,2166.8719,0.0,0.0,0.0,0.0,0.0,-0.04429250179049973,-0.1114691431111479,-0.3085175517883117,-0.23868824577669578,0.03295188725034807,0.03535997439825776,-0.37700537546253365
4445,6.0,300.84745,1920.9141,0.0,0.0,0.0,0.0,0.0,-0.04430246860008355,-0.1018613739404349,-0.2857033442592247,-0.1963452029752628,0.015349635585641086,-0.014847615757345585,-0.40358448599068764
4446,6.0,300.15292999999997,1950.8777,0.0,0.0,0.0,0.0,0.0,-0.04431243540966737,-0.10765969763768489,-0.26951013844857974,-0.21584826116506478,-0.0021739206928242678,-0.033774541966787766,-0.3900227109547446
4447,6.0,300.63113,2182.94,0.0,0.0,0.0,0.0,0.0,-0.04432240221925121,-0.12192296598285988,-0.30061321815571473,-0.24102304758462278,-0.0013294037882519386,-0.034061378884596365,-0.4161426773325846
4448,6.0,300.04687,2187.0403,0.0,0.0,0.0,0.0,0.0,-0.044332369028835,-0.14269761251815788,-0.2877170876404657,-0.2343909507775858,0.026519918483812174,0.0022413502578290476,-0.4030043901759366
4449,6.0,299.26517,2048.6499,0.0,0.0,0.0,0.0,0.0,-0.04434233583841882,-0.1359281899250679,-0.2624835631126108,-0.22432666177431776,0.014585880084264287,-0.023643789836460375,-0.39478155150690564
4450,6.0,299.86413999999996,1937.489,0.0,0.0,0.0,0.0,0.0,-0.04435230264800266,-0.08018267324191372,-0.2981466026422787,-0.2106189888564758,0.013974192144645386,-0.02186663832706918,-0.40140215805780866
4451,6.0,299.67389,2081.7071,0.0,0.0,0.0,0.0,0.0,-0.04436226945758648,-0.1008271586826158,-0.2981763111352107,-0.23378349721013478,0.002383510158784138,0.003950868944245406,-0.4245854622008226
4452,6.0,298.85208,2346.7613,0.0,0.0,0.0,0.0,0.0,-0.044372236267170295,-0.12438897354623588,-0.3443213418893707,-0.24464654139973374,0.005451133347834975,0.05982338730685865,-0.4201476294128426
4453,6.0,299.50577000000004,2027.4175,0.0,0.0,0.0,0.0,0.0,-0.04438220307675411,-0.07882791124870912,-0.3086800568393497,-0.22877630905846377,-0.024405246273360274,0.014678049366360685,-0.4173329624900566
4454,6.0,298.80859,1656.5279,0.0,0.0,0.0,0.0,0.0,-0.04439216988633796,-0.08058895309476043,-0.24935667501958775,-0.17359749505023883,-0.014937712942987487,-0.027727104652952174,-0.38390027894800766
4455,6.0,299.14893,1840.5294,0.0,0.0,0.0,0.0,0.0,-0.044402136695921746,-0.10035312380883221,-0.2665766983490718,-0.19254515033022682,-0.004617129521000206,-0.023180709209507877,-0.3946678851106876
4456,6.0,299.75548,2113.2204,0.0,0.0,0.0,0.0,0.0,-0.04441210350550556,-0.1180652796721359,-0.2942953909996937,-0.2300055638147818,0.04150880157009976,0.01783553628823038,-0.39391659055904066
4457,6.0,300.13775,2206.6556,0.0,0.0,0.0,0.0,0.0,-0.04442207031508938,-0.12365750829904588,-0.3180687208084387,-0.22904196296968177,0.03289317447330357,-0.002834989274741657,-0.4380345840906476
4458,6.0,300.61361,2188.6131,0.0,0.0,0.0,0.0,0.0,-0.044432037124673224,-0.13025339154750887,-0.29633857942884073,-0.23869174148954075,0.015255866381636786,-0.03474565099512877,-0.4195483933037026
4459,6.0,300.56352000000004,1925.0289,0.0,0.0,0.0,0.0,0.0,-0.04444200393425704,-0.08456761336142363,-0.28106838366428977,-0.21952471756290282,0.005715541164079995,-0.015217021412553088,-0.4625377174164185
4460,6.0,300.38806,1849.6468,0.0,0.0,0.0,0.0,0.0,-0.044451970743840885,-0.11066135986642589,-0.26138536212422675,-0.1901997195287508,-0.013036651078867287,0.02895404514604177,-0.40247490620368065
4461,6.0,300.24951,2061.7832,0.0,0.0,0.0,0.0,0.0,-0.044461937553424646,-0.1184975726947999,-0.2969553852947147,-0.21127765208398078,-0.030131595776256972,0.002016148330353348,-0.4341448689442626
4462,6.0,299.53823,1884.2364,0.0,0.0,0.0,0.0,0.0,-0.04447190436300849,-0.0977845054210793,-0.26487376943600577,-0.2101025251480048,-0.05847017254655674,-0.02411552665901718,-0.36884674645233967
4463,6.0,299.93632,1724.0088,0.0,0.0,0.0,0.0,0.0,-0.04448187117259231,-0.07720050594509673,-0.26565836951843974,-0.18119675934272783,0.0015782289325340685,0.014054410141812287,-0.4330873296823916
4464,6.0,299.57544,1986.8405,0.0,0.0,0.0,0.0,0.0,-0.04449183798217615,-0.08188605609102452,-0.2921982267377197,-0.22986560357846877,0.006475945239426034,0.03279796848065747,-0.3888440173784166
4465,6.0,298.3974,2194.1744,0.0,0.0,0.0,0.0,0.0,-0.04450180479175997,-0.1113328812376999,-0.3138858420106207,-0.2417555159494118,0.031578482468553576,0.002849784752701857,-0.4020862943928276
4466,6.0,299.87121,2269.3255,0.0,0.0,0.0,0.0,0.0,-0.044511771601343786,-0.14369258358635384,-0.3211636425763837,-0.2249620506470258,0.013337073654016686,-0.02956058577515267,-0.3893774023635576
4467,6.0,301.01072999999997,2140.1158,0.0,0.0,0.0,0.0,0.0,-0.0445217384109276,-0.13842584128906688,-0.2881199660127267,-0.22399595720667975,0.04168429142116926,-0.009384816658459291,-0.4097395547831456
4468,6.0,300.81725,1976.7248,0.0,0.0,0.0,0.0,0.0,-0.04453170522051145,-0.1065334093565289,-0.29757996278885573,-0.1967616082363588,0.018728271434586483,0.02121491180974878,-0.4329728020235886
4469,6.0,300.65865,1871.8318,0.0,0.0,0.0,0.0,0.0,-0.044541672030095236,-0.08541438444349342,-0.2888828217480147,-0.19469291630219482,-0.006159376726583154,-0.0016176471985243485,-0.4357327230434716
4470,6.0,299.47443,1828.2488,0.0,0.0,0.0,0.0,0.0,-0.04455163883967908,-0.06037492669404135,-0.2702532966019237,-0.22511375445199777,-0.03509089975470217,-0.045957973639948864,-0.4372102342067906
4471,6.0,300.00184,1902.3227,0.0,0.0,0.0,0.0,0.0,-0.04456160564926287,-0.1073033274450139,-0.28479536071211375,-0.18615991164505283,-0.03022679568940247,0.0025514421773577376,-0.4172619539230486
4472,6.0,300.64081,1932.9036,0.0,0.0,0.0,0.0,0.0,-0.044571572458846714,-0.11050550173604388,-0.2720827297899747,-0.2049661982710888,0.006158803531001584,0.040199651030146666,-0.38782879144072163
4473,6.0,299.95524,1797.4371,0.0,0.0,0.0,0.0,0.0,-0.04458153926843053,-0.07156913648007383,-0.2916741940510017,-0.18313266485128682,-0.0028444085489962674,0.018712590376038882,-0.41578620581490355
4474,6.0,298.95566,2083.4982,0.0,0.0,0.0,0.0,0.0,-0.044591506078014376,-0.1039698460735249,-0.31199315161882674,-0.21736843015759377,-0.011078789453891388,-0.013811353734324485,-0.37017554289848165
4475,6.0,299.45932,2395.1018,0.0,0.0,0.0,0.0,0.0,-0.044601472887598165,-0.13809482261389786,-0.3287562802132187,-0.26120002854843577,-0.0035800658144999865,0.005066753679999655,-0.4177562173218286
4476,6.0,300.08878,2257.5645,0.0,0.0,0.0,0.0,0.0,-0.04461143969718198,-0.12237121769459888,-0.3209023051105917,-0.24296970367674278,0.011608540924173788,0.02173703654652848,-0.38089871804427666
4477,6.0,301.05014,2061.806,0.0,0.0,0.0,0.0,0.0,-0.0446214065067658,-0.12411592290928787,-0.3108335882043867,-0.1917880295905048,-0.027150355603281474,-0.003026309334773477,-0.4297254266455976
4478,6.0,301.11646,1852.9347,0.0,0.0,0.0,0.0,0.0,-0.04463137331634964,-0.11850183847772087,-0.24126064460057178,-0.2034833878097468,-0.01887929028249088,-0.03896530165232586,-0.37998573917417267
4479,6.0,300.12442999999996,1899.9714,0.0,0.0,0.0,0.0,0.0,-0.04464134012593346,-0.09764669631472861,-0.28326288073086975,-0.19663430349379482,-0.016367495973596085,-0.009675988057545671,-0.45118852596134057
4480,6.0,300.36213,2059.3751,0.0,0.0,0.0,0.0,0.0,-0.044651306935517304,-0.14326085798374588,-0.2579181925345438,-0.22481954715296182,0.044631467139032856,0.018368721663101682,-0.41154685858901263
4481,6.0,299.53868,1943.879,0.0,0.0,0.0,0.0,0.0,-0.044661273745101066,-0.08832596468534401,-0.2976836588040897,-0.20488104473268479,0.003927974558235906,-0.016425189421039984,-0.43981705313656355
4482,6.0,299.744,1642.1402,0.0,0.0,0.0,0.0,0.0,-0.04467124055468491,-0.022012441976708878,-0.2956423752851307,-0.18151480841661685,0.014700695506095684,-0.009351949459665552,-0.43065378665221954
4483,6.0,300.17779,1953.0739999999998,0.0,0.0,0.0,0.0,0.0,-0.04468120736426873,-0.09957624570541031,-0.2847771627403177,-0.20933233348199282,-0.00999113589242334,0.016117169496640788,-0.3954861352289426
4484,6.0,299.29532,2501.1594,0.0,0.0,0.0,0.0,0.0,-0.04469117417385257,-0.14305838021626285,-0.3632197633469996,-0.25401184995401777,0.016974782354780584,0.04970021226077905,-0.3831337957773616
4485,6.0,297.61494,2291.1593,0.0,0.0,0.0,0.0,0.0,-0.04470114098343639,-0.15440450152353785,-0.3286040292531927,-0.2134466861755478,-0.042449349962174664,0.01870868834990378,-0.3858629646567096
4486,6.0,299.21002000000004,1928.4135,0.0,0.0,0.0,0.0,0.0,-0.044711107793020205,-0.09173651892568951,-0.3098939507241517,-0.18455906767956184,-0.01921620404674168,-0.014609065273052486,-0.4009337224040776
4487,6.0,300.01026,1811.3657,0.0,0.0,0.0,0.0,0.0,-0.04472107460260402,-0.07060563999973414,-0.29000015289828673,-0.19000415212694982,-0.02355742749068708,0.0036105181343303967,-0.4170972602517946
4488,6.0,299.49456000000004,2200.5606,0.0,0.0,0.0,0.0,0.0,-0.044731041412187866,-0.1076094606977269,-0.2937869218345117,-0.26751909186957873,0.017616299364093382,0.014466100750192985,-0.4061386767102666
4489,6.0,300.13347999999996,2264.1956,0.0,0.0,0.0,0.0,0.0,-0.044741008221771655,-0.15649746079759685,-0.28702165356683174,-0.24473981107143877,0.005883931273023804,-0.016130905114996385,-0.4233169338706286
4490,6.0,299.59926,1863.5676,0.0,0.0,0.0,0.0,0.0,-0.0447509750313555,-0.07791638740574873,-0.26489167356527277,-0.22366993385450382,-0.0026786952441666375,-0.041263173533858166,-0.40084242857006763
4491,6.0,300.11475,1582.1214,0.0,0.0,0.0,0.0,0.0,-0.04476094184093929,-0.05898114545273585,-0.2557292987410168,-0.16621494468913783,0.01028557471910719,0.01036089973154119,-0.4283948975417846
4492,6.0,301.23345,1886.9225,0.0,0.0,0.0,0.0,0.0,-0.044770908650523134,-0.10514150769415889,-0.28667856708297174,-0.18175726903304582,-0.0018201422925840582,0.017842577363175283,-0.4160308449190476
4493,6.0,299.8405,2311.3405,0.0,0.0,0.0,0.0,0.0,-0.04478087546010695,-0.12489016757569987,-0.3332839477550647,-0.24441569262945076,-0.015269384151220885,-0.01971724304894038,-0.43613403087807756
4494,6.0,299.59907000000004,2253.5771,0.0,0.0,0.0,0.0,0.0,-0.044790842269690795,-0.1255507357133929,-0.3198448570412297,-0.23963557382518974,-0.04519131619028566,-0.052680361163396854,-0.38116813111336567
4495,6.0,299.43672999999995,1782.4229999999998,0.0,0.0,0.0,0.0,0.0,-0.044800809079274584,-0.050214270513512654,-0.3139070392027127,-0.17769077214171383,-0.02120271227854478,0.022845607136435877,-0.40700340461060863
4496,6.0,300.01074,1740.4725,0.0,0.0,0.0,0.0,0.0,-0.0448107758888584,-0.07912241543002442,-0.25185629208878074,-0.19808147794911982,-0.013733710405661686,0.03655876275056896,-0.3629020283806416
4497,6.0,299.4209,2162.2627,0.0,0.0,0.0,0.0,0.0,-0.04482074269844222,-0.15067440366540585,-0.2963318919781807,-0.2102675734567938,0.009236048543002022,0.01014449585468379,-0.3962305295474086
4498,6.0,298.88094,2162.3426,0.0,0.0,0.0,0.0,0.0,-0.04483070950802606,-0.13848486310739186,-0.2894571724346987,-0.22935612116318677,0.004699045725334705,-0.031210058652692968,-0.4231341638175906
4499,6.0,297.9045,1823.6129,0.0,0.0,0.0,0.0,0.0,-0.04484067631760988,-0.08906700210622873,-0.2611982148307567,-0.2040675568898998,0.03762681144247717,-0.0006404485370823494,-0.45852327118272357
4500,6.0,298.55324,1907.9432,0.0,0.0,0.0,0.0,0.0,-0.04485064312719372,-0.08175362632945472,-0.2934329327795757,-0.2047805303227648,0.024498604097823975,0.011656400779397188,-0.4491680140694315
4501,6.0,298.57476,1923.1758,0.0,0.0,0.0,0.0,0.0,-0.044860609936777485,-0.13023235647543288,-0.24331052048037874,-0.2110545546769628,-0.006174471619947905,-0.006542919551160884,-0.4110991135023236
4502,6.0,299.48852999999997,2109.9649,0.0,0.0,0.0,0.0,0.0,-0.04487057674636133,-0.09530034041591132,-0.3027411142932217,-0.24333519312031376,-0.01048235396802779,-0.03705082638338186,-0.4100065765819986
4503,6.0,299.35537,1987.16,0.0,0.0,0.0,0.0,0.0,-0.044880543555945146,-0.10019362304434071,-0.3080247069396717,-0.1958286987367878,0.018553564825844283,0.004811653984473276,-0.37966622088763863
4504,6.0,299.05037999999996,1886.0478,0.0,0.0,0.0,0.0,0.0,-0.04489051036552899,-0.059665108521987746,-0.29983385657629774,-0.2138124694616478,0.028563884075785875,0.028708899416847768,-0.4025939732229316
4505,6.0,300.09247,2112.299,0.0,0.0,0.0,0.0,0.0,-0.04490047717511281,-0.12943760362699686,-0.3055890259517887,-0.2070595121826828,-0.007395736088627322,-0.007419217247769733,-0.3954711087299596
4506,6.0,299.89923,2310.2378,0.0,0.0,0.0,0.0,0.0,-0.044910443984696624,-0.14472274483052286,-0.31174845171967674,-0.24578340801193377,-0.008916002353165923,-0.03596895999985997,-0.3890725154084676
4507,6.0,300.80274,2294.2524,0.0,0.0,0.0,0.0,0.0,-0.04492041079428044,-0.13042118576406886,-0.3127446082904897,-0.25422965819551374,-0.022702851343096977,0.015284719691484384,-0.3943328742301246
4508,6.0,300.28747999999996,2008.6999,0.0,0.0,0.0,0.0,0.0,-0.044930377603864285,-0.1072824342279519,-0.2923998939051227,-0.2109122943629228,0.008707536074941902,0.03391842246773767,-0.40321721322694065
4509,6.0,300.21487,1905.3197,0.0,0.0,0.0,0.0,0.0,-0.044940344413448075,-0.11779100300256688,-0.24792817476360576,-0.2134504352009178,-0.03200042412819597,0.007676233708510284,-0.39916154797917763
4510,6.0,300.63167000000004,1981.7568,0.0,0.0,0.0,0.0,0.0,-0.04495031122303192,-0.11165027169902389,-0.26590231961251576,-0.2248519812886628,-0.015439880705797587,-0.044666784984518454,-0.4398214101119936
4511,6.0,300.83995,2051.4877,0.0,0.0,0.0,0.0,0.0,-0.04496027803261571,-0.08641327273657601,-0.3141250602267297,-0.22306270320207477,-0.0013569912447496087,0.003368664049411257,-0.45168874727070857
4512,6.0,299.30028,1825.4124,0.0,0.0,0.0,0.0,0.0,-0.04497024484219955,-0.07838883350337553,-0.2782772849388297,-0.19821365642466482,0.03375716878057317,0.038125571645200966,-0.43047232369181054
4513,6.0,299.22933,1936.5387,0.0,0.0,0.0,0.0,0.0,-0.04498021165178337,-0.11212019683040188,-0.2960710814024407,-0.18046812106331683,-0.002242357428428448,0.008068989408297252,-0.4147825714583526
4514,6.0,298.58985,1937.05,0.0,0.0,0.0,0.0,0.0,-0.044990178461367214,-0.1113388290157869,-0.26937146503989373,-0.2081045276733178,0.004395030165330706,-0.008219274967104282,-0.37208505324193564
4515,6.0,299.65331000000003,2053.8493,0.0,0.0,0.0,0.0,0.0,-0.045000145270951,-0.12118306036233688,-0.30489645937593773,-0.1982393828447038,-0.01088992672800209,0.018911234005143482,-0.3839122555641897
4516,6.0,299.70294,2287.2531,0.0,0.0,0.0,0.0,0.0,-0.04501011208053482,-0.09951399668551682,-0.35625491520712266,-0.23949889651920075,0.04048477251553596,0.022302682401603376,-0.3940200535267516
4517,6.0,299.62307000000004,2118.3948,0.0,0.0,0.0,0.0,0.0,-0.04502007889011864,-0.13420482375748485,-0.30236859289395673,-0.2073657062304018,-0.022546575753673775,-0.0004661424762371805,-0.4145881490291646
4518,6.0,300.62584,1945.1841,0.0,0.0,0.0,0.0,0.0,-0.04503004569970248,-0.1034046956977489,-0.3096286615829697,-0.17825403787230382,-0.012855862943024886,-0.026661396568774975,-0.43975108042255256
4519,6.0,300.34252000000004,1909.1259,0.0,0.0,0.0,0.0,0.0,-0.0450400125092863,-0.11113722264338989,-0.2627659255179777,-0.2064234748299108,-0.004679463451252086,-0.0029346724142796173,-0.43629701215666256
4520,6.0,300.37015,1963.8147,0.0,0.0,0.0,0.0,0.0,-0.04504997931887014,-0.09776696504859822,-0.2942922701893857,-0.2048913900162058,0.03065849190775757,0.044577952335001364,-0.4227964171617576
4521,6.0,300.22823999999997,1830.1156,0.0,0.0,0.0,0.0,0.0,-0.045059946128453904,-0.09096658563845302,-0.25713016766677177,-0.2082126921214928,0.01902920468778628,-0.0006927562360047173,-0.3951227229480766
4522,6.0,300.21417,1948.4561,0.0,0.0,0.0,0.0,0.0,-0.04506991293803775,-0.09161338472053711,-0.27508720885399374,-0.22558140990315179,0.00046151174089516256,-0.01984206634200948,-0.41132273779939366
4523,6.0,298.95856000000003,2034.7923,0.0,0.0,0.0,0.0,0.0,-0.045079879747621565,-0.0976725443247796,-0.3007992204765717,-0.2200542724626658,0.001720453276195518,0.012863571749785687,-0.4086947216775286
4524,6.0,299.65902,2108.2367,0.0,0.0,0.0,0.0,0.0,-0.04508984655720541,-0.1113434899662469,-0.3141361857128277,-0.21537164858302682,0.004473315489256865,0.0099754686140771,-0.4259261643356396
4525,6.0,298.6834,2323.257,0.0,0.0,0.0,0.0,0.0,-0.045099813366789226,-0.14840766186669585,-0.33235260879314865,-0.22545185574536578,-0.037244861751031665,-0.015526256223822183,-0.3929627371799026
4526,6.0,299.58369,2155.4515,0.0,0.0,0.0,0.0,0.0,-0.04510978017637304,-0.14078789952468387,-0.3018440333171867,-0.2125714914016728,-0.03182509133089197,-0.039723877419191464,-0.36680869520119963
4527,6.0,299.80976,1882.4997,0.0,0.0,0.0,0.0,0.0,-0.04511974698595686,-0.0963379875518191,-0.28233934379472375,-0.19355558359494882,0.02381879130098168,0.028061361675440773,-0.3835167029901516
4528,6.0,299.80327,1915.4262,0.0,0.0,0.0,0.0,0.0,-0.045129713795540705,-0.048225618244497954,-0.2909613118106457,-0.24305481668514275,0.015384712277602883,0.027543881677119474,-0.37616317211191463
4529,6.0,299.11773,2037.2306,0.0,0.0,0.0,0.0,0.0,-0.045139680605124494,-0.11432355983535689,-0.28769063168035475,-0.21725303110370478,0.02040050900212348,-0.013975775854551687,-0.4229903329658956
4530,6.0,300.52066,2110.0495,0.0,0.0,0.0,0.0,0.0,-0.04514964741470834,-0.12475334841469689,-0.28257610994559074,-0.23407289157119576,-0.01977678567781678,-0.027991661214311875,-0.43963430334852754
4531,6.0,300.23093,1935.7264,0.0,0.0,0.0,0.0,0.0,-0.04515961422429213,-0.12722279089591187,-0.2668447232655238,-0.1943449763503558,0.02183718821291268,0.02010163568637698,-0.4643161739919386
4532,6.0,300.71834,1891.0374,0.0,0.0,0.0,0.0,0.0,-0.04516958103387597,-0.09119351313084902,-0.2931372562678947,-0.1904973820106278,-0.005019563684417365,0.017998281479542085,-0.4186958142720596
4533,6.0,300.72539,1960.7609,0.0,0.0,0.0,0.0,0.0,-0.04517954784345979,-0.099531436746238,-0.29151499219528976,-0.2049759356045498,-0.018330622446091585,-0.016039741990249285,-0.4022560543145816
4534,6.0,299.91335,2063.98,0.0,0.0,0.0,0.0,0.0,-0.04518951465304363,-0.07896894451687803,-0.3112166068746877,-0.2372128320410838,-0.015232230296554086,-0.002266200115206538,-0.3897036790282586
4535,6.0,300.26401,2209.065,0.0,0.0,0.0,0.0,0.0,-0.04519948146262742,-0.13944516075716587,-0.3025710807939407,-0.2294843682283438,0.007567253999304822,0.035373564108598966,-0.38037185838977966
4536,6.0,300.86705,2131.4922,0.0,0.0,0.0,0.0,0.0,-0.04520944827221124,-0.09625621522899881,-0.3220541475592697,-0.22961003150574577,0.024803248886140078,0.03913429555700426,-0.4222189051347616
4537,6.0,299.70647,1955.4777,0.0,0.0,0.0,0.0,0.0,-0.045219415081795056,-0.11915106834679488,-0.2872625436456057,-0.1880027703969288,0.010143286034064392,-0.022210648895020377,-0.4064707491655396
4538,6.0,301.75285,2214.8986,0.0,0.0,0.0,0.0,0.0,-0.0452293818913789,-0.13463524226746387,-0.3029485772511967,-0.23569004886329675,-0.0067476847307446335,-0.014991474980043386,-0.4319470788148576
4539,6.0,301.90435,2116.0981,0.0,0.0,0.0,0.0,0.0,-0.04523934870096272,-0.13825039703425185,-0.2737419065637227,-0.2312486696999668,0.008152412518180472,0.013844615695357186,-0.40384124356602763
4540,6.0,301.12162,1719.4569,0.0,0.0,0.0,0.0,0.0,-0.045249315510546534,-0.060123859531262945,-0.24774549590307673,-0.21480260732686682,-0.015237911589864785,0.01038181017385489,-0.4069649720343156
4541,6.0,301.03643999999997,1882.629,0.0,0.0,0.0,0.0,0.0,-0.04525928232013032,-0.08615918608849961,-0.28716677124615375,-0.19894625651196682,-0.021823730225084482,-0.029463022962773974,-0.4118013262191266
4542,6.0,300.07256,2070.4317,0.0,0.0,0.0,0.0,0.0,-0.04526924912971417,-0.0995710153083941,-0.2912342611225837,-0.2385542535834718,-0.03155299314903797,-0.027587927658966477,-0.4224994538224496
4543,6.0,299.71164,2203.9581,0.0,0.0,0.0,0.0,0.0,-0.045279215939297984,-0.15747590575666184,-0.32163245313265165,-0.1908398706769288,0.03246481083452737,0.026382941255793577,-0.44064042016782357
4544,6.0,300.36281,2153.95,0.0,0.0,0.0,0.0,0.0,-0.0452891827488818,-0.12868249925497388,-0.30729138744479867,-0.21877311903622582,0.005424108650442845,0.002534689302854357,-0.4099395906178876
4545,6.0,299.71193,2065.9806,0.0,0.0,0.0,0.0,0.0,-0.045299149558465646,-0.097066634950481,-0.3168742407955527,-0.2140656401316338,-9.254184605216911e-05,-0.031628466095986574,-0.39768728934867964
4546,6.0,300.02335,2078.5199,0.0,0.0,0.0,0.0,0.0,-0.04530911636804946,-0.1017674557886659,-0.3155288169152697,-0.2145218661216598,0.0013945794797342785,-0.00018660708931168585,-0.38420462888054463
4547,6.0,300.76652,2184.8013,0.0,0.0,0.0,0.0,0.0,-0.04531908317763328,-0.1215062668792349,-0.2998347178388827,-0.24278405599342076,0.026037979245998474,0.04449372896018916,-0.40406073380268964
4548,6.0,300.31025,2086.822,0.0,0.0,0.0,0.0,0.0,-0.045329049987217124,-0.0994142411999217,-0.3168956507701657,-0.21803190632307382,0.007318401091969953,0.019168120263246182,-0.40716121831368357
4549,6.0,300.16123,1733.0401,0.0,0.0,0.0,0.0,0.0,-0.04533901679680091,-0.06822967389324454,-0.2737950413989667,-0.18477618691098982,-0.038699291077072664,-0.034207817842048766,-0.42427855887803356
4550,6.0,300.30438,1790.1941,0.0,0.0,0.0,0.0,0.0,-0.04534898360638473,-0.06740411418876813,-0.2945765577699427,-0.18219363532111182,-0.0014434097245784486,-0.0007812131521197351,-0.45870459228811855
4551,6.0,299.83744,2117.0826,0.0,0.0,0.0,0.0,0.0,-0.045358950415968546,-0.13150153328569086,-0.29866374522831673,-0.21337498859847182,0.017466038427263783,0.03212751608823897,-0.42509565389117465
4552,6.0,300.12113999999997,2103.2682,0.0,0.0,0.0,0.0,0.0,-0.04536891722555239,-0.13507228743309688,-0.27344467977938874,-0.2308240267155578,0.02997618651566927,0.008375515092773981,-0.4241391964592796
4553,6.0,299.60889,1981.7681,0.0,0.0,0.0,0.0,0.0,-0.04537888403513621,-0.11274081251665188,-0.2787745576904067,-0.21089263731098282,-0.008868237439476892,-0.04573010382495986,-0.37740730137970063
4554,6.0,299.12866,1977.3267,0.0,0.0,0.0,0.0,0.0,-0.045388850844720025,-0.08205555662075292,-0.3124762996640097,-0.2065260968000388,0.008053896845407731,0.002070565940223948,-0.43046598074618453
4555,6.0,300.29273,2234.3841,0.0,0.0,0.0,0.0,0.0,-0.04539881765430387,-0.15156036928784386,-0.29493563334038075,-0.23270097120079777,0.02066252838523278,0.03454089240167067,-0.38176253401952864
4556,6.0,300.42597,2306.4571,0.0,0.0,0.0,0.0,0.0,-0.04540878446388766,-0.12710750329953388,-0.31802912299453073,-0.25596875000464875,0.006264670130599804,0.010167799593733689,-0.4272581727845986
4557,6.0,299.5861,2094.6551,0.0,0.0,0.0,0.0,0.0,-0.045418751273471475,-0.13632671132189889,-0.2916929391778517,-0.20870321662740382,-0.023295313875318475,-0.03369287502197787,-0.38394856031527264
4558,6.0,300.13081,1839.6172,0.0,0.0,0.0,0.0,0.0,-0.04542871808305529,-0.0858055060748441,-0.2811285301902257,-0.1922636694524468,0.004998484434637005,-0.013625361545968486,-0.4141066525816446
4559,6.0,300.75305,1822.8328,0.0,0.0,0.0,0.0,0.0,-0.045438684892639136,-0.08633871475446772,-0.28099503448955077,-0.18676192405946682,0.01951109934259558,0.03590650832994646,-0.42189570875036464
4560,6.0,300.02512,2018.6428,0.0,0.0,0.0,0.0,0.0,-0.04544865170222295,-0.09855068056369491,-0.2851012811823057,-0.22996503381078176,-0.009724938879151742,0.013971836338162886,-0.4307854889002176
4561,6.0,299.51846,2100.3942,0.0,0.0,0.0,0.0,0.0,-0.04545861851180674,-0.12269266115632288,-0.27956617959603375,-0.23620852893946678,-0.01016583794154009,-0.03553572465460297,-0.4137542745943676
4562,6.0,299.75912,2061.6546,0.0,0.0,0.0,0.0,0.0,-0.04546858532139056,-0.07996672026135082,-0.3116394462739187,-0.23508536146861878,0.006578534177600774,0.011074442610962389,-0.43775464335301956
4563,6.0,299.24119,2024.6401,0.0,0.0,0.0,0.0,0.0,-0.0454785521309744,-0.11855731392069589,-0.28863791919884474,-0.20824480201716178,0.010882240212743489,0.03364501820650477,-0.43257225412655764
4564,6.0,299.41752,2007.7473,0.0,0.0,0.0,0.0,0.0,-0.04548851894055822,-0.12462289246432187,-0.2971355006324907,-0.18854665265310583,-0.00916037081820821,-0.013958663073612787,-0.4167267552202286
4565,6.0,299.64986,2059.0213,0.0,0.0,0.0,0.0,0.0,-0.045498485750142065,-0.12843542835058988,-0.2895627733601207,-0.2078928597274278,-0.030000346451053674,-0.04965780470434375,-0.4159172899803406
4566,6.0,299.72761,2019.2089999999998,0.0,0.0,0.0,0.0,0.0,-0.04550845255972588,-0.08875227750591781,-0.3150156564021247,-0.2100211915624778,0.0004190863411256016,-0.005472563790099995,-0.42645192968002865
4567,6.0,299.24789,1752.3618,0.0,0.0,0.0,0.0,0.0,-0.0455184193693097,-0.07093933872141762,-0.27636361013746474,-0.18537126869471984,0.027985542196957976,0.04142024553785996,-0.4061815675869996
4568,6.0,300.84689,1662.0551,0.0,0.0,0.0,0.0,0.0,-0.04552838617889349,-0.029516139559516173,-0.26403742267096475,-0.21166968868017177,-0.001007347766179984,0.01056706876913849,-0.4113721742717726
4569,6.0,300.82077999999996,1846.8357,0.0,0.0,0.0,0.0,0.0,-0.04553835298847733,-0.12990327310795488,-0.23586108548017676,-0.1956275787244388,-0.0028694914538967575,-0.015386282815257885,-0.3882782083900756
4570,6.0,300.99087000000003,2154.7849,0.0,0.0,0.0,0.0,0.0,-0.04554831979806115,-0.13435674034497788,-0.2904042471706677,-0.23023980697289978,0.00957069272835383,-0.005938548695814124,-0.4415875253012956
4571,6.0,300.62053,2185.8341,0.0,0.0,0.0,0.0,0.0,-0.045558286607644966,-0.15235294364856486,-0.29165099062371175,-0.2204350518502458,0.04743309454628195,0.023646063569684773,-0.4132609737831826
4572,6.0,300.33494,2019.8596,0.0,0.0,0.0,0.0,0.0,-0.04556825341722878,-0.09664635704750281,-0.3013987605607417,-0.21594176388429276,-0.011157665907925888,-0.005700947322889694,-0.4384203993312246
4573,6.0,298.84296,2064.093,0.0,0.0,0.0,0.0,0.0,-0.04557822022681263,-0.12030849380352389,-0.2704825039070447,-0.23664173388722076,-0.04173131939806056,-0.016906586570050182,-0.37480862898073164
4574,6.0,299.54535,2182.7353,0.0,0.0,0.0,0.0,0.0,-0.045588187036396444,-0.07748303452348013,-0.3127983713407957,-0.2732156143292817,-0.048313490332920254,-0.0022062862314934976,-0.4243143266065636
4575,6.0,299.46991,2059.5577,0.0,0.0,0.0,0.0,0.0,-0.04559815384598029,-0.1277359210115539,-0.2989291356945087,-0.1993890670706688,0.0012166657317755588,0.031503170628370866,-0.3883867072107836
4576,6.0,299.30092,1836.5937,0.0,0.0,0.0,0.0,0.0,-0.04560812065556405,-0.08275470932225393,-0.27464907951075374,-0.2008748463548038,-0.016889176906831983,-0.007838084402633701,-0.42673909489086964
4577,6.0,300.28002999999995,1750.7911,0.0,0.0,0.0,0.0,0.0,-0.045618087465147894,-0.1105408844295359,-0.24849597985464375,-0.17315991286205284,0.011459723868736688,-0.046166227946251956,-0.40577590277696357
4578,6.0,300.35957,1933.1936,0.0,0.0,0.0,0.0,0.0,-0.04562805427473171,-0.09222296003369751,-0.29613280859853275,-0.19928682000307782,-0.005129061671048975,0.001128066940381539,-0.44722207738488257
4579,6.0,300.68036,2230.8266,0.0,0.0,0.0,0.0,0.0,-0.045638021084315555,-0.10523129178551989,-0.32645887746648267,-0.24642540327529375,0.013764355141686089,0.03813388536227146,-0.42320711782479054
4580,6.0,300.66269,2205.8993,0.0,0.0,0.0,0.0,0.0,-0.04564798789389937,-0.07761844628009422,-0.3349015812747127,-0.2580182712469208,-0.0016067274021966484,-0.005821771520464114,-0.4211557828648396
4581,6.0,300.55023,1982.5349,0.0,0.0,0.0,0.0,0.0,-0.04565795470348316,-0.12019429038475289,-0.27648187668913676,-0.2059649284971558,-0.030735827208389972,-0.014527302069483087,-0.4061977694560986
4582,6.0,300.46756,1986.8185,0.0,0.0,0.0,0.0,0.0,-0.04566792151306698,-0.1104617090667219,-0.2980350539387697,-0.1954464501365628,-0.009158528526876392,-0.002704260354789717,-0.43878931356013356
4583,6.0,299.79846000000003,2077.5093,0.0,0.0,0.0,0.0,0.0,-0.04567788832265082,-0.14658687170199788,-0.2990069836996917,-0.1859171065235898,0.007810574763743713,0.027267857151127974,-0.4337429835570996
4584,6.0,298.65328999999997,1992.3084,0.0,0.0,0.0,0.0,0.0,-0.04568785513223464,-0.09277763441668961,-0.3012360629921847,-0.2115983254756288,0.0015474106267675386,-0.005087245042071995,-0.4423902929580226
4585,6.0,299.80393,1830.308,0.0,0.0,0.0,0.0,0.0,-0.045697821941818484,-0.05775090885707094,-0.2877644976126448,-0.2108525328720248,-0.029354262723540175,-0.023094361049235977,-0.40764539987396864
4586,6.0,300.07011,1796.9679999999998,0.0,0.0,0.0,0.0,0.0,-0.04570778875140227,-0.049837583643086554,-0.27455993376695575,-0.2218358903784978,-0.005045028179305516,0.00962730929359145,-0.41655096646037953
4587,6.0,298.60252,2047.424,0.0,0.0,0.0,0.0,0.0,-0.04571775556098612,-0.11210813915421189,-0.2971751795064067,-0.21308245316210078,0.0014205841382507387,0.029449219456661676,-0.3941794782974856
4588,6.0,299.23863,2087.6204,0.0,0.0,0.0,0.0,0.0,-0.045727722370569907,-0.1072041707902279,-0.3136075731356577,-0.2137727196602248,0.009436467994231881,-0.004984682245749836,-0.44364430141428357
4589,6.0,300.51031,2196.7359,0.0,0.0,0.0,0.0,0.0,-0.04573768918015375,-0.14829964940603585,-0.3258636740927407,-0.1935895376057998,-0.015558980149051787,-0.04130467119170366,-0.41212171590074664
4590,6.0,301.18581,2128.1858,0.0,0.0,0.0,0.0,0.0,-0.04574765598973757,-0.1089310732006599,-0.3129982146580187,-0.2249860444093938,0.030762801952552175,-0.0054335711904767246,-0.4687457487916035
4591,6.0,301.1394,2065.9741,0.0,0.0,0.0,0.0,0.0,-0.045757622799321385,-0.095169739570772,-0.29327759140674475,-0.23955721919495676,0.015149566313645784,0.03437896895619007,-0.41531631108102857
4592,6.0,300.55811,2009.4546,0.0,0.0,0.0,0.0,0.0,-0.0457675896089052,-0.05641702386892675,-0.3076256282552857,-0.24678136816792476,0.025883974350049375,0.011791251195455888,-0.4112336528506016
4593,6.0,299.90911,2006.2068,0.0,0.0,0.0,0.0,0.0,-0.045777556418489046,-0.12134581872589988,-0.26203752028608973,-0.22645344333671477,-0.026013864906868578,-0.03147013968836097,-0.37117116244674164
4594,6.0,299.89416,2109.8721,0.0,0.0,0.0,0.0,0.0,-0.04578752322807286,-0.11714125637594189,-0.3006959601588807,-0.22351120822633877,-0.008690085983044712,0.013999048182848486,-0.4177079866170686
4595,6.0,299.17384,1974.842,0.0,0.0,0.0,0.0,0.0,-0.04579749003765671,-0.15016038188967584,-0.2749736336502847,-0.17516864065529883,0.00037224566351528666,0.03038060300158207,-0.4069519011080256
4596,6.0,298.08134,1973.9407,0.0,0.0,0.0,0.0,0.0,-0.04580745684724047,-0.08219763353652482,-0.2989591582949717,-0.21887188052347278,-0.0051362954661628955,-0.01171880178680569,-0.44256047844481855
4597,6.0,299.90016,2181.6202,0.0,0.0,0.0,0.0,0.0,-0.04581742365682431,-0.09094812320838092,-0.30358636752664175,-0.26862357500858275,-0.02436159951205268,-0.04866101181246795,-0.41257964415094056
4598,6.0,300.56685,2135.3066,0.0,0.0,0.0,0.0,0.0,-0.04582739046640813,-0.092331676703177,-0.29919781922352573,-0.25755039288074477,0.009037228000429961,-0.014879003205693287,-0.4270396451355316
4599,6.0,300.01837,2007.9742,0.0,0.0,0.0,0.0,0.0,-0.045837357275991975,-0.11841883302952888,-0.2713697056946048,-0.22058549922509377,0.036449479674283566,0.025268553597062076,-0.4036541165375596
4600,6.0,300.57429,1844.8153,0.0,0.0,0.0,0.0,0.0,-0.04584732408557579,-0.08549944374963811,-0.2893541755620337,-0.1859241688767868,0.040509383347214864,-0.008505638393141153,-0.43537355628052454
4601,6.0,300.96529,1938.2648,0.0,0.0,0.0,0.0,0.0,-0.04585729089515958,-0.11595705071906988,-0.29578193022140375,-0.17744512991997083,0.008523733722702022,-0.018573730529334483,-0.41950175340159956
4602,6.0,300.5994,2246.5807,0.0,0.0,0.0,0.0,0.0,-0.0458672577047434,-0.12820896695323986,-0.3208417532846157,-0.23385372557456577,0.010809392596803991,-0.01138238147535359,-0.44524043376680955
4603,6.0,300.2844,2267.4427,0.0,0.0,0.0,0.0,0.0,-0.04587722451432724,-0.1295988826454139,-0.3195800238625927,-0.24006706638027478,0.0019403827567758681,0.026299317725040575,-0.4117341274724946
4604,6.0,299.52365,1847.9137,0.0,0.0,0.0,0.0,0.0,-0.04588719132391106,-0.07172220107993013,-0.2817935971583627,-0.2082038261831178,-0.014638094888417484,-0.01887924367298628,-0.41784352908294564
4605,6.0,300.09272000000004,1896.6197,0.0,0.0,0.0,0.0,0.0,-0.0458971581334949,-0.11245268471821589,-0.2599938961593998,-0.20407844932847483,-0.03866423465011286,-0.04593294534922875,-0.37326714120609866
4606,6.0,300.96088,2239.3372,0.0,0.0,0.0,0.0,0.0,-0.04590712494307869,-0.15141713625370784,-0.3042054430727397,-0.22508001322366777,-0.01959843947471538,-0.0092801510642046,-0.40822164533833966
4607,6.0,300.12512000000004,2333.8281,0.0,0.0,0.0,0.0,0.0,-0.04591709175266254,-0.19845682631616382,-0.2904710811472637,-0.22049755924891482,0.02063791451380358,0.03042791266200117,-0.3955951609397026
4608,6.0,300.50554,2288.8658,0.0,0.0,0.0,0.0,0.0,-0.045927058562246326,-0.1196816162316559,-0.3404226797446027,-0.23565376437721577,0.016506941478858284,0.006873941975355253,-0.43459043554323656
4609,6.0,299.49189,2001.6419,0.0,0.0,0.0,0.0,0.0,-0.04593702537183017,-0.09072443608980471,-0.3017906046394137,-0.2159341239785388,0.01053186238116389,-0.03758938097053307,-0.41931289371546054
4610,6.0,299.02724,1944.8349,0.0,0.0,0.0,0.0,0.0,-0.04594699218141399,-0.06514099070616523,-0.2995694692277047,-0.2264707901784268,-0.002001318908514798,-0.03144673259780087,-0.44647866591901353
4611,6.0,299.09721,2056.2599,0.0,0.0,0.0,0.0,0.0,-0.045956958990997804,-0.13414776764435388,-0.2855143528505727,-0.20538953416286881,0.00943708942051821,0.02166366406703718,-0.4187976763046126
4612,6.0,298.59691000000004,1977.204,0.0,0.0,0.0,0.0,0.0,-0.04596692580058162,-0.1027198804851629,-0.2896440765481447,-0.2086566881828118,-0.0050458919750157654,0.003754419508232356,-0.42127275245638357
4613,6.0,298.49504,1643.83,0.0,0.0,0.0,0.0,0.0,-0.045976892610165465,-0.07118682809809293,-0.2569591817123968,-0.17153726375440984,-0.022416841237369978,-0.024731474302056477,-0.4139757710662276
4614,6.0,300.19659,1848.0754,0.0,0.0,0.0,0.0,0.0,-0.04598685941974928,-0.04834340856862295,-0.29921262280748673,-0.2142127336486508,-0.02517730637255668,0.0034954864849276565,-0.43291444895032954
4615,6.0,299.24067,2327.0478,0.0,0.0,0.0,0.0,0.0,-0.045996826229333126,-0.14142900312795587,-0.31653760871482967,-0.24939782310614877,0.012010888353382387,0.03218252847591827,-0.42357757219385156
4616,6.0,299.33673999999996,2378.0342,0.0,0.0,0.0,0.0,0.0,-0.04600679303891689,-0.15160091955684585,-0.3130394438045877,-0.2582226539245917,-0.004790344929570235,0.006836284839363784,-0.40815476069923856
4617,6.0,300.66868,2133.965,0.0,0.0,0.0,0.0,0.0,-0.04601675984850073,-0.1177247668435299,-0.3268360091537027,-0.2041112887642158,-0.023844251236244375,-0.029171759155278473,-0.4229829261076646
4618,6.0,301.02236,1919.0435,0.0,0.0,0.0,0.0,0.0,-0.04602672665808455,-0.0941167812126031,-0.2841825774491367,-0.2050419387160638,-0.01121072069641199,0.016119373315608285,-0.41079950558025463
4619,6.0,300.4737,2051.85,0.0,0.0,0.0,0.0,0.0,-0.046036693467668394,-0.10842603895331689,-0.3202552435967317,-0.1950299030204528,-0.024077111307975876,0.04537902077131066,-0.44149333357199955
4620,6.0,300.32732999999996,2051.3818,0.0,0.0,0.0,0.0,0.0,-0.04604666027725221,-0.09277218414440172,-0.2822175004701987,-0.2485791676878538,0.006654144217287904,0.013545093899546687,-0.41313335493308756
4621,6.0,299.53339,1857.4783,0.0,0.0,0.0,0.0,0.0,-0.046056627086836,-0.07341426997842433,-0.26864657578585277,-0.22256617012307078,-0.030356052964909175,-0.04087397505119726,-0.4278461415526266
4622,6.0,298.9185,1841.3438,0.0,0.0,0.0,0.0,0.0,-0.046066593896419816,-0.06267212273775695,-0.2961275903605177,-0.2009228338795398,0.039758409995849564,-0.023888274926589178,-0.42299103210846456
4623,6.0,299.14881,1965.1871,0.0,0.0,0.0,0.0,0.0,-0.04607656070600366,-0.12681311361547987,-0.25774779426522676,-0.21280690992990678,0.03182759000563857,-0.0034556021238913767,-0.4089367769939176
4624,6.0,299.69858999999997,2391.1501,0.0,0.0,0.0,0.0,0.0,-0.04608652751558748,-0.16827751659269785,-0.3196434837163557,-0.23892893320544978,0.03367037580350737,-0.01364723558912729,-0.4071704996845996
4625,6.0,300.08779,2441.0663,0.0,0.0,0.0,0.0,0.0,-0.04609649432517132,-0.15436733550986986,-0.3300026183662227,-0.25765323776589477,-0.03300869613045467,-0.026777221187705976,-0.4031344914887766
4626,6.0,299.94816000000003,2074.0486,0.0,0.0,0.0,0.0,0.0,-0.04610646113475511,-0.06328218745071564,-0.3158590857853647,-0.2513177192631278,-0.007255516460288724,0.040986511673553765,-0.4195381290801896
4627,6.0,300.86242999999996,1992.6661,0.0,0.0,0.0,0.0,0.0,-0.046116427944338956,-0.09145660047956372,-0.3166557942064937,-0.1976083205499228,-0.033344635148109265,0.048966020357569945,-0.4375359738489386
4628,6.0,301.21252000000004,2273.9037,0.0,0.0,0.0,0.0,0.0,-0.046126394753922745,-0.12661463818589186,-0.30046392588598075,-0.2641313914852388,-0.03187038665011227,0.000998453781042216,-0.4217420392401986
4629,6.0,300.0161,2034.7061,0.0,0.0,0.0,0.0,0.0,-0.04613636156350659,-0.12646901388151988,-0.2933948953708217,-0.1986359284038398,-0.03146226470858377,-0.022485168744613378,-0.43220282314009756
4630,6.0,299.51547,1788.9521,0.0,0.0,0.0,0.0,0.0,-0.046146328373090406,-0.08442720425531633,-0.27061095362222176,-0.1887586144415248,0.014495991628142987,0.02144605644906098,-0.4355076599312596
4631,6.0,298.70561000000004,1761.0088,0.0,0.0,0.0,0.0,0.0,-0.04615629518267422,-0.054042103436540354,-0.26120606751903175,-0.2200545257751908,0.03149418816623437,0.008974040406968831,-0.43308286124945056
4632,6.0,298.63854,1942.6626,0.0,0.0,0.0,0.0,0.0,-0.04616626199225804,-0.08197541664384371,-0.2952396894303887,-0.2133058241466458,0.012939141968743887,-0.017438043340250883,-0.4219890392170756
4633,6.0,299.60659,2263.4588,0.0,0.0,0.0,0.0,0.0,-0.046176228801841884,-0.12242532524993888,-0.3200728585787317,-0.24553676267259175,0.014943615124819986,-0.03423715447219407,-0.4208097275581866
4634,6.0,300.3035,2182.7568,0.0,0.0,0.0,0.0,0.0,-0.0461861956114257,-0.13677374713351786,-0.3012657005576097,-0.22546410593907476,0.010552930890493188,0.020667005937424678,-0.3998092782381036
4635,6.0,299.71018,1975.4382,0.0,0.0,0.0,0.0,0.0,-0.046196162421009546,-0.11607165943788089,-0.3207333456564167,-0.16367888101384784,0.02393121139957668,0.005766230317557624,-0.43058026522496357
4636,6.0,301.40594,2024.5582,0.0,0.0,0.0,0.0,0.0,-0.04620612923059331,-0.13591789530405185,-0.25863380041766876,-0.22086345399252577,-0.034059267271387965,-0.01950552444054538,-0.37953934171011666
4637,6.0,301.54541,2210.4225,0.0,0.0,0.0,0.0,0.0,-0.04621609604017715,-0.1009043207174811,-0.33350414726679667,-0.2375047797923968,-0.02949154899283927,-0.02421422127175758,-0.4234408543578586
4638,6.0,301.35982,2245.4011,0.0,0.0,0.0,0.0,0.0,-0.04622606284976097,-0.1065194873001549,-0.31235044386908867,-0.26367593556528873,-0.029686004859280576,0.046079414704184155,-0.3949012264762166
4639,6.0,300.34339,2020.1722,0.0,0.0,0.0,0.0,0.0,-0.04623602965934481,-0.09645183835955531,-0.2826180888972337,-0.2350119818963768,0.013335246764086385,0.05807551467235705,-0.4278535585433586
4640,6.0,299.37565,1859.793,0.0,0.0,0.0,0.0,0.0,-0.04624599646892863,-0.08116340915945482,-0.2936931050077527,-0.19047411778833181,-0.014205843409007587,0.009567206540059771,-0.4390694164177776
4641,6.0,300.13974,1964.1960000000001,0.0,0.0,0.0,0.0,0.0,-0.04625596327851242,-0.12084226382370289,-0.2663556274422537,-0.20986864675992278,0.011453560268378389,-0.039610833158534864,-0.43316430629248853
4642,6.0,299.28878,2100.4677,0.0,0.0,0.0,0.0,0.0,-0.046265930088096235,-0.12617557665255988,-0.3043743822619127,-0.20793975294205577,0.017083496997759882,0.001852600543637438,-0.4106736497853336
4643,6.0,298.92002,2088.2392,0.0,0.0,0.0,0.0,0.0,-0.04627589689768008,-0.08821885199077281,-0.3301806565412937,-0.21637307405435982,0.04884444149132105,-0.0015643108278354583,-0.4312787491813986
4644,6.0,299.08543,2102.6393,0.0,0.0,0.0,0.0,0.0,-0.0462858637072639,-0.10469679222526891,-0.30106993050578873,-0.23338313169812175,-0.014149417537438785,-0.03808170196887136,-0.39521485777966964
4645,6.0,298.7982,2111.1798,0.0,0.0,0.0,0.0,0.0,-0.046295830516847714,-0.10729057062625491,-0.3275019171194227,-0.20695345529471582,0.0005505336857959444,-0.04629645692860455,-0.4069715682924666
4646,6.0,298.94248999999996,2178.9259,0.0,0.0,0.0,0.0,0.0,-0.04630579732643153,-0.12921392866742187,-0.3086691644007747,-0.22445596261957879,-0.006073015495384964,0.03537391671963377,-0.41535151138950266
4647,6.0,300.25235,2231.7241,0.0,0.0,0.0,0.0,0.0,-0.046315764136015375,-0.15103691415368287,-0.3017476833651777,-0.2256038027303618,0.0035269365521315363,0.03494787443683667,-0.43001667525434156
4648,6.0,299.28356,1896.6448,0.0,0.0,0.0,0.0,0.0,-0.046325730945599164,-0.11820159220808889,-0.27602706924925074,-0.18230400865450483,-0.01965540439533738,0.0099883703276004,-0.42409264774968564
4649,6.0,300.49347,1745.0485,0.0,0.0,0.0,0.0,0.0,-0.04633569775518301,-0.05419664434179235,-0.2746052057814238,-0.20164933420123982,-0.027771495139833176,-0.006390205333189164,-0.45540198464717657
4650,6.0,300.40209,1898.2486,0.0,0.0,0.0,0.0,0.0,-0.046345664564766825,-0.08847358914541341,-0.28193682005999776,-0.2066097608607958,-0.005477769463813755,0.03699263745663906,-0.42675236846717957
4651,6.0,299.74563,2075.1457,0.0,0.0,0.0,0.0,0.0,-0.04635563137435064,-0.1018920247559599,-0.3013674815301547,-0.2275329701257558,0.005471451444140215,0.018554435207680183,-0.4502846764746376
4652,6.0,299.21558999999996,2030.9371,0.0,0.0,0.0,0.0,0.0,-0.04636559818393446,-0.1271706591782669,-0.2889933268039207,-0.2011901697859238,0.005453834976576605,-0.00925252328035295,-0.4138684982781406
4653,6.0,300.1267,2021.0963,0.0,0.0,0.0,0.0,0.0,-0.0463755649935183,-0.10672461978289989,-0.3155178434166867,-0.19212035535830282,0.018187986216264482,-0.03266350411288686,-0.4352327043841236
4654,6.0,299.79717,2131.9337,0.0,0.0,0.0,0.0,0.0,-0.04638553180310212,-0.13333489788412986,-0.3067675979381047,-0.2079521145932758,0.03241142066025817,0.025825273732006077,-0.38529313306547164
4655,6.0,300.42172999999997,2267.8183,0.0,0.0,0.0,0.0,0.0,-0.04639549861268591,-0.1062835013518649,-0.31698250656873767,-0.2660941379889467,0.029857792294484674,0.012248857232118089,-0.42878523187780765
4656,6.0,299.43295,2234.5327,0.0,0.0,0.0,0.0,0.0,-0.046405465422269726,-0.12999753576475787,-0.3183723006708997,-0.23087230808282277,-0.003080527435699387,-0.017978043835294784,-0.4011364838815886
4657,6.0,300.3746,2043.9624,0.0,0.0,0.0,0.0,0.0,-0.04641543223185357,-0.08511913653660473,-0.29028241397864374,-0.24591196918462177,-0.014155789867317687,-0.023023017096444876,-0.4319078660359876
4658,6.0,300.81782999999996,1974.6484,0.0,0.0,0.0,0.0,0.0,-0.04642539904143739,-0.10738647474821988,-0.2930519608744767,-0.19980537100675483,-0.007898761871622103,0.03145220921459137,-0.4206122856437006
4659,6.0,300.60104,2010.6548,0.0,0.0,0.0,0.0,0.0,-0.046435365851021204,-0.10534997376973292,-0.2963717228396117,-0.20946716667279983,0.012650046516462387,-0.0006236092931404453,-0.4397920157265926
4660,6.0,300.80322,2301.599,0.0,0.0,0.0,0.0,0.0,-0.04644533266060505,-0.13198584656848886,-0.3200024680942847,-0.24764030027769476,-0.015696650440138786,-0.018383468505057083,-0.4138852776997966
4661,6.0,301.2572,2147.6338,0.0,0.0,0.0,0.0,0.0,-0.046455299470188866,-0.10319602697215491,-0.3143579253647117,-0.23527309644714678,-0.0061499743736052135,-0.005168508814667105,-0.4179217823881686
4662,6.0,300.34207999999995,1864.1302,0.0,0.0,0.0,0.0,0.0,-0.046465266279772655,-0.08113500167965122,-0.28482275899481774,-0.2006912657016858,0.0027794226392576574,0.04907638659821225,-0.41438751537686364
4663,6.0,300.65105,2028.0985,0.0,0.0,0.0,0.0,0.0,-0.04647523308935647,-0.08762712913112432,-0.28950500797191975,-0.23935916933041076,0.006399624404793754,0.022411510528593876,-0.41376160039259063
4664,6.0,300.12219,2314.3608,0.0,0.0,0.0,0.0,0.0,-0.046485199898940316,-0.14032106480611087,-0.32503750035870366,-0.23814930818100677,-0.013065449673209488,-0.029658338065300074,-0.39243839038565365
4665,6.0,298.92259,2241.4059,0.0,0.0,0.0,0.0,0.0,-0.04649516670852413,-0.12075232774482689,-0.31282500968592475,-0.24775407813142378,0.00960236905430504,-0.008658918815268752,-0.4307982457189766
4666,6.0,299.29303,1920.4928,0.0,0.0,0.0,0.0,0.0,-0.04650513351810795,-0.08901718059881172,-0.27017003784120674,-0.2245946360282648,0.024508115476512677,0.021726424778231182,-0.4218503252783856
4667,6.0,300.33625,1847.8235,0.0,0.0,0.0,0.0,0.0,-0.04651510032769174,-0.07127090151189033,-0.2904319291633997,-0.1999893569599128,0.016812868028550882,0.0034151986748288668,-0.4439825648276676
4668,6.0,299.38804,1875.3893,0.0,0.0,0.0,0.0,0.0,-0.04652506713727558,-0.09005716428945011,-0.27356575303383773,-0.2064486034323908,-0.023708760446122475,-0.02738929416236287,-0.4337514137979316
4669,6.0,300.27539,2049.7865,0.0,0.0,0.0,0.0,0.0,-0.0465350339468594,-0.08666026967370273,-0.30812345829441773,-0.2283001727039728,0.01205896504412719,-0.004614677962383256,-0.4477365044606526
4670,6.0,300.84038,1955.1367,0.0,0.0,0.0,0.0,0.0,-0.046545000756443244,-0.1113958851289179,-0.2762734308785647,-0.2066434108966168,-0.003354643201152507,0.034522400587345674,-0.40817040528078263
4671,6.0,300.16864,1836.8724,0.0,0.0,0.0,0.0,0.0,-0.04655496756602706,-0.08103084260912151,-0.2710953783625307,-0.20623710773901782,0.003122961235312277,0.012943936668217089,-0.42423376309111255
4672,6.0,300.14834,2125.9348,0.0,0.0,0.0,0.0,0.0,-0.04656493437561088,-0.1175854348222789,-0.3012918728076927,-0.2273537768455708,-0.03191707012196957,-0.03245153725821737,-0.4057044787774146
4673,6.0,299.82817,2408.5114,0.0,0.0,0.0,0.0,0.0,-0.046574901185194695,-0.15966696790540283,-0.3177907356435037,-0.2546696215214348,-0.0037080709155331063,0.0009551802098789473,-0.41844028272934064
4674,6.0,299.20578,2368.8634,0.0,0.0,0.0,0.0,0.0,-0.04658486799477854,-0.15520087557213386,-0.3254955907289137,-0.23937886691235474,-0.004583588713539986,0.029162861806150374,-0.4297967797176396
4675,6.0,299.54777,2027.3324,0.0,0.0,0.0,0.0,0.0,-0.04659483480436233,-0.09599088859756309,-0.3000002525077197,-0.22026728803118878,0.01565095590037909,0.012859926075925886,-0.42162910238405266
4676,6.0,299.50386000000003,1901.1779,0.0,0.0,0.0,0.0,0.0,-0.046604801613946145,-0.10539415147409291,-0.2834510818044437,-0.18906539617430182,-7.577848035725372e-05,-0.04622908896920586,-0.4056742129969276
4677,6.0,300.10576000000003,2093.825,0.0,0.0,0.0,0.0,0.0,-0.04661476842352996,-0.1011076921715523,-0.3011416179503637,-0.23422120098833277,0.031581416840843174,0.003475456455625846,-0.4231056205622736
4678,6.0,299.75416,2177.5959,0.0,0.0,0.0,0.0,0.0,-0.046624735233113807,-0.1173079765473959,-0.3158264186021407,-0.22880038388083976,0.043057936343237464,0.03016319904687597,-0.43587077836959665
4679,6.0,300.7852,2028.6482,0.0,0.0,0.0,0.0,0.0,-0.04663470204269762,-0.1071101411809479,-0.30072913396715467,-0.2088191121738418,-0.0060000650345603136,0.016442679131016085,-0.4157463040259656
4680,6.0,300.64487,1946.4891,0.0,0.0,0.0,0.0,0.0,-0.04664466885228147,-0.1117817510319999,-0.2923175977320007,-0.18758474393567282,-0.043344514882270556,-0.03599657714458557,-0.4472136066140466
4681,6.0,300.25535,2030.8599,0.0,0.0,0.0,0.0,0.0,-0.04665463566186523,-0.08518146459000601,-0.3253652766335527,-0.2067839588179878,-0.037479392672178063,-0.001950338952258468,-0.44522491077527754
4682,6.0,299.82108999999997,2027.1139,0.0,0.0,0.0,0.0,0.0,-0.046664602471449074,-0.11516095024800088,-0.29294919704933475,-0.20808185113607977,-0.011455602980579987,0.023361720260372275,-0.4286208624465856
4683,6.0,299.689,2072.2993,0.0,0.0,0.0,0.0,0.0,-0.04667456928103289,-0.07420656670861793,-0.3191376287364317,-0.23658306670643076,-0.024516180947308678,0.005069822814552555,-0.42272905629510954
4684,6.0,298.21721,1998.2667,0.0,0.0,0.0,0.0,0.0,-0.046684536090616735,-0.1071870772610409,-0.28454980968287974,-0.21568629313657978,-0.015706142567075587,-0.03877520985406526,-0.4222460095749366
4685,6.0,299.52355,2088.26,0.0,0.0,0.0,0.0,0.0,-0.04669450290020055,-0.1133777820595159,-0.2989224887738527,-0.2224786354469318,0.03078611379760287,0.005394923399862485,-0.4351196864679696
4686,6.0,299.91792999999996,2188.2167,0.0,0.0,0.0,0.0,0.0,-0.04670446970978437,-0.12992172439227587,-0.3110231875630987,-0.2242183352061268,0.03644651085149057,0.015852975678816883,-0.4461236940114806
4687,6.0,301.16308,2104.593,0.0,0.0,0.0,0.0,0.0,-0.04671443651936816,-0.09685858329419791,-0.3125633581126017,-0.2303217789059898,0.01942675235127118,0.008996208191331621,-0.4353419530099056
4688,6.0,301.22614,1908.2867,0.0,0.0,0.0,0.0,0.0,-0.046724403328952,-0.12449542560174187,-0.26599607564426875,-0.18957999550258883,-0.0008098807230915042,-0.04434089335485546,-0.4193087089925476
4689,6.0,300.17807999999997,1934.6825,0.0,0.0,0.0,0.0,0.0,-0.04673437013853582,-0.08595722811831792,-0.27765133955705373,-0.2244866134351038,0.002394224974616608,0.003952765444457576,-0.42459582774934557
4690,6.0,299.50609,1925.8105,0.0,0.0,0.0,0.0,0.0,-0.046744336948119664,-0.1128556644154869,-0.27148432454591676,-0.2010583155504108,0.024083063139063273,0.0030045889003298375,-0.4411121083543756
4691,6.0,299.22539,1887.5463,0.0,0.0,0.0,0.0,0.0,-0.04675430375770345,-0.07550326440484202,-0.27658729522954073,-0.2216763845477558,-0.02811935504491427,0.009752370193809002,-0.4170063615853236
4692,6.0,298.8279,2166.3991,0.0,0.0,0.0,0.0,0.0,-0.0467642705672873,-0.12690394135444388,-0.3132141483868297,-0.21841314167319878,-0.032378515363260675,-0.03854638758398226,-0.4382835092427146
4693,6.0,300.23665,2346.8684,0.0,0.0,0.0,0.0,0.0,-0.046774237376871114,-0.13468528668990287,-0.3174930934266287,-0.26121102231202076,-0.017368660026403283,0.01039141679805299,-0.41430747875146456
4694,6.0,300.11335,2207.9691,0.0,0.0,0.0,0.0,0.0,-0.04678420418645496,-0.11181190535497589,-0.32195018809900966,-0.23740540022258874,0.029761548733736175,0.025687016769111178,-0.41582328063606266
4695,6.0,300.34005,2138.9137,0.0,0.0,0.0,0.0,0.0,-0.04679417099603875,-0.09659945268712371,-0.3092608315316677,-0.24431605974711776,0.011143936369070889,0.011878572075823789,-0.3939280808151746
4696,6.0,301.28598999999997,2174.0542,0.0,0.0,0.0,0.0,0.0,-0.046804137805622564,-0.13813482572784586,-0.28306231800607573,-0.23966104693270376,0.011990790537648888,-0.045242517744338864,-0.4032224821274606
4697,6.0,301.0462,1988.0311,0.0,0.0,0.0,0.0,0.0,-0.04681410461520638,-0.1005861460005797,-0.2980470913499577,-0.2056785840188958,-0.016404699477517784,0.004045653120874877,-0.4446602974220546
4698,6.0,300.5321,1878.7022,0.0,0.0,0.0,0.0,0.0,-0.046824071424790226,-0.09501837317808332,-0.28155363926968074,-0.19450653907880083,0.011759998509371488,0.006564046525020953,-0.4529465047523396
4699,6.0,300.40416,1968.2486,0.0,0.0,0.0,0.0,0.0,-0.04683403823437404,-0.07494307490155563,-0.3101266942721217,-0.2132286651515308,-0.025483399095265678,0.02274878906288068,-0.4518548797571046
4700,6.0,300.15972999999997,1945.5929,0.0,0.0,0.0,0.0,0.0,-0.04684400504395789,-0.08944617245264991,-0.2881860704492507,-0.2137794172433858,-0.02225821997396528,-0.028849454430969472,-0.41750111134415163
4701,6.0,299.91208,2046.2101,0.0,0.0,0.0,0.0,0.0,-0.04685397185354165,-0.09228496992656741,-0.2980725239274677,-0.23163928774601777,0.0029344232560800276,0.024721507974072875,-0.42956066204683657
4702,6.0,299.71218,2143.3965,0.0,0.0,0.0,0.0,0.0,-0.04686393866312549,-0.12623779020869988,-0.3069624256673327,-0.2183387893808608,0.01972352114655998,0.024578167535426274,-0.4123446511877486
4703,6.0,299.67728,2132.8227,0.0,0.0,0.0,0.0,0.0,-0.04687390547270931,-0.09957880112216251,-0.3155739470747237,-0.23317211223229578,0.01679158774995068,0.012486936555114687,-0.4247319579002806
4704,6.0,298.27244,2218.7109,0.0,0.0,0.0,0.0,0.0,-0.046883872282293154,-0.1386081553795599,-0.2902543672158757,-0.24557017966088976,-0.007053315918033084,-0.05853358680406524,-0.41887102547935157
4705,6.0,298.78499,2398.3507,0.0,0.0,0.0,0.0,0.0,-0.04689383909187697,-0.13937226754497187,-0.3354682616581397,-0.2541981866474078,-0.015684686996208088,-0.0014801128856007685,-0.4303862176983126
4706,6.0,300.18658999999997,2110.1668,0.0,0.0,0.0,0.0,0.0,-0.04690380590146079,-0.1278739864701799,-0.3044729917616447,-0.2090910178381768,0.011996581261970387,-0.013176967979215488,-0.42304201885349657
4707,6.0,299.98846000000003,1651.2472,0.0,0.0,0.0,0.0,0.0,-0.04691377271104458,-0.05513537800293815,-0.27287157539032775,-0.17393095565814884,-0.027446295559988475,0.016142636524654183,-0.4274415609201976
4708,6.0,300.74224,1907.1869,0.0,0.0,0.0,0.0,0.0,-0.04692373952062842,-0.12007903318587788,-0.27357141710189675,-0.18608672459032982,-0.012775573005100887,-0.03302264453133127,-0.4337124745965886
4709,6.0,300.62408999999997,2205.5575,0.0,0.0,0.0,0.0,0.0,-0.04693370633021224,-0.11711219636307388,-0.3191010402753207,-0.23422118072333076,0.005590066148546575,0.01086366531191029,-0.43427896246249664
4710,6.0,299.78307,2273.5543,0.0,0.0,0.0,0.0,0.0,-0.04694367313979608,-0.14372352824440787,-0.34124670538842766,-0.20613350291629282,0.03326342720559467,0.012415530794067488,-0.4380397415336566
4711,6.0,300.12657,2300.4561,0.0,0.0,0.0,0.0,0.0,-0.04695363994937987,-0.10642379596071089,-0.31152469570009367,-0.2813327102178767,0.01976040952970058,0.003243457646479347,-0.4192336778226426
4712,6.0,300.33885,2309.3518,0.0,0.0,0.0,0.0,0.0,-0.046963606758963716,-0.12539400618792487,-0.3305110976639057,-0.24608017883372277,-0.0012413852851901888,-0.044065124167889165,-0.3913345658592146
4713,6.0,299.97516,2198.219,0.0,0.0,0.0,0.0,0.0,-0.04697357356854753,-0.1098506280639129,-0.3025892585007347,-0.2557638100394228,-0.013820886391265289,0.002961908982267657,-0.4099051502469886
4714,6.0,300.3533,2256.0718,0.0,0.0,0.0,0.0,0.0,-0.04698354037813138,-0.17180202600553982,-0.3021089880858357,-0.21187846886327677,-0.025570252867337474,0.006987219182209843,-0.3961465007166156
4715,6.0,299.88674,1983.286,0.0,0.0,0.0,0.0,0.0,-0.04699350718771517,-0.07533260573024933,-0.3102005602044117,-0.2173362493344178,-0.044721163077635157,0.03390881280378927,-0.4206507688824986
4716,6.0,300.25268,1642.9939,0.0,0.0,0.0,0.0,0.0,-0.04700347399729898,-0.09454167852278722,-0.2552128755625498,-0.14967456899672985,-0.03200549645819657,-0.02313398014139608,-0.4124806597486716
4717,6.0,300.69919,1999.4776,0.0,0.0,0.0,0.0,0.0,-0.0470134408068828,-0.06255427060537584,-0.3320519774884787,-0.2131850042047218,0.012349316926532688,0.017468306080987584,-0.46579688702557354
4718,6.0,299.40134,2276.4513,0.0,0.0,0.0,0.0,0.0,-0.047023407616466645,-0.14207599371430887,-0.3221083361746177,-0.22780000205710982,0.02930858844878247,0.015947226176618683,-0.43532740273846954
4719,6.0,299.68777,2105.9959,0.0,0.0,0.0,0.0,0.0,-0.04703337442605046,-0.1057579285249949,-0.3048327056796457,-0.22957952254523475,0.04371951773103046,0.0025844594384912874,-0.43965074839765056
4720,6.0,299.03994,2097.0387,0.0,0.0,0.0,0.0,0.0,-0.047043341235634306,-0.15005439592921585,-0.3015094885316697,-0.1858835274152758,0.019829038985473783,-0.04061024631516926,-0.42256398772131865
4721,6.0,299.22491,2190.6573,0.0,0.0,0.0,0.0,0.0,-0.04705330804521807,-0.09813527842019791,-0.3349066373927117,-0.2328631925418078,-0.0024610912738907975,-0.0034646690910862163,-0.44544586009208365
4722,6.0,300.40315,2102.5212,0.0,0.0,0.0,0.0,0.0,-0.04706327485480191,-0.14878173353861385,-0.27555392198255474,-0.21477827919196582,0.015875457672035687,-0.014487731613327785,-0.4158613383098186
4723,6.0,299.81262000000004,1887.6151,0.0,0.0,0.0,0.0,0.0,-0.04707324166438573,-0.03634926721289336,-0.2930718104439357,-0.24436679317962479,-0.026154702617768175,0.0006525384042280264,-0.42276810695396355
4724,6.0,299.57212000000004,1827.2999,0.0,0.0,0.0,0.0,0.0,-0.04708320847396957,-0.07428296171315751,-0.27881607054700375,-0.2023545157408358,-0.00976935621716039,-0.012453456745310487,-0.4099549008268986
4725,6.0,300.75852000000003,1910.1034,0.0,0.0,0.0,0.0,0.0,-0.04709317528355339,-0.08109468952442273,-0.28646188354908675,-0.2130671632180918,-0.023394906227647477,0.03506388042753557,-0.4242743944201226
4726,6.0,300.80914,2089.1742,0.0,0.0,0.0,0.0,0.0,-0.04710314209313721,-0.13260416217701188,-0.3157915729312017,-0.1866610651445128,0.016105674174256287,0.041507737657494756,-0.4561633711698196
4727,6.0,300.6119,2254.1299,0.0,0.0,0.0,0.0,0.0,-0.047113108902720996,-0.11542422302148389,-0.3274632413631057,-0.24231174972430777,-0.0012305339845692488,0.025881532417308374,-0.44634691300851054
4728,6.0,300.47297000000003,2326.4387,0.0,0.0,0.0,0.0,0.0,-0.04712307571230484,-0.15430681408139685,-0.3216040618648497,-0.23126840781191477,-0.026090783761709875,-0.015205732793188986,-0.4295704905728066
4729,6.0,299.70009,2020.3156,0.0,0.0,0.0,0.0,0.0,-0.04713304252188866,-0.05745625268824065,-0.3037656013368307,-0.2529036380546457,-0.01126155849367929,0.0006792151515358163,-0.4524920418174876
4730,6.0,300.47784,1939.7739,0.0,0.0,0.0,0.0,0.0,-0.0471430093314725,-0.11060379712824489,-0.27647609103106574,-0.2025629615514078,0.01043169450277809,-0.013820975557274087,-0.42128175011727165
4731,6.0,300.60584,2057.8515,0.0,0.0,0.0,0.0,0.0,-0.04715297614105629,-0.12363322069414888,-0.26830991330762677,-0.2335923374462688,0.004937994214267085,-0.007627145591515663,-0.3925085478225776
4732,6.0,299.78951,2045.0299,0.0,0.0,0.0,0.0,0.0,-0.047162942950640135,-0.14172465937463488,-0.2833596967779247,-0.19655367918333783,0.01808129300723468,-0.03212656363314497,-0.3893250679958926
4733,6.0,299.57857,2189.2188,0.0,0.0,0.0,0.0,0.0,-0.04717290976022395,-0.12133727702755688,-0.3198176816735477,-0.22431288157295778,-0.014584290294857385,0.004980364584423715,-0.4186653762390556
4734,6.0,299.56089,2197.545,0.0,0.0,0.0,0.0,0.0,-0.0471828765698078,-0.12825373234265786,-0.31056488441036767,-0.22918019054832375,0.001086619641066009,0.01052352029309059,-0.4248324317801966
4735,6.0,299.49798,2034.4822,0.0,0.0,0.0,0.0,0.0,-0.047192843379391586,-0.04190803426850096,-0.3222263291487627,-0.25429742436220176,0.0024524845248913778,0.004963605934394766,-0.44428645879765954
4736,6.0,300.28006,2097.1462,0.0,0.0,0.0,0.0,0.0,-0.0472028101889754,-0.10966078552517691,-0.2989277272768697,-0.22889157638983978,-0.0021320207746890678,0.006892991685185313,-0.41512579979722664
4737,6.0,300.04726,2193.7146,0.0,0.0,0.0,0.0,0.0,-0.04721277699855922,-0.11378829020502988,-0.3252685011165017,-0.2277776700249058,-0.016040171608291683,-0.004101518665138377,-0.4587106211262136
4738,6.0,299.95275,1932.7583,0.0,0.0,0.0,0.0,0.0,-0.047222743808143064,-0.1385815676969359,-0.28137562135961175,-0.16755307316870086,0.0020058758995145382,0.007376820533110503,-0.43095146939909856
4739,6.0,300.31316,1717.7547,0.0,0.0,0.0,0.0,0.0,-0.04723271061772688,-0.05669389445875175,-0.28020026137611276,-0.18526036847127483,-0.015864518623956086,0.002974948497804557,-0.44575353348494856
4740,6.0,300.04129,2001.0168,0.0,0.0,0.0,0.0,0.0,-0.047242677427310725,-0.09590332960342171,-0.29080617308783474,-0.2215496269602458,0.0037195390828149264,-0.020240535049835282,-0.4106118313967326
4741,6.0,300.2637,2309.5147,0.0,0.0,0.0,0.0,0.0,-0.04725264423689449,-0.09095802367510801,-0.3211452419545677,-0.28993153560151474,0.006796892715226083,-0.0025270568951510975,-0.42514943720648257
4742,6.0,299.61312000000004,2329.5581,0.0,0.0,0.0,0.0,0.0,-0.04726261104647833,-0.15824288541985684,-0.3163351512123487,-0.23354944656953577,0.010769105772827988,0.009934190628853281,-0.41863691404374664
4743,6.0,299.0569,2020.8095,0.0,0.0,0.0,0.0,0.0,-0.04727257785606215,-0.09568710203208171,-0.28594191399526975,-0.23264662046543377,0.035792210678916164,-0.012840803006788588,-0.41976292874737564
4744,6.0,299.42911000000004,2154.5651,0.0,0.0,0.0,0.0,0.0,-0.04728254466564599,-0.16051610188670584,-0.2932196638985277,-0.2011982251242188,-0.030491889273315174,-0.025625286533268874,-0.4112908305537446
4745,6.0,299.67457,2389.1064,0.0,0.0,0.0,0.0,0.0,-0.04729251147522981,-0.14261504276750886,-0.33782503072823467,-0.24578860598494678,0.01076983531289999,-0.003278303722718387,-0.43892889889390957
4746,6.0,299.21398,2296.5758,0.0,0.0,0.0,0.0,0.0,-0.047302478284813626,-0.10942818383222089,-0.33993806248677466,-0.24873545138327777,-0.05761348275925804,0.012079504636904288,-0.44459168012528255
4747,6.0,299.70161,1910.73,0.0,0.0,0.0,0.0,0.0,-0.04731244509439744,-0.053310065703043856,-0.2930221713215367,-0.2344819811665698,-0.002284514813414058,0.00903717723659995,-0.4204678063119416
4748,6.0,300.64736,1933.7057,0.0,0.0,0.0,0.0,0.0,-0.04732241190398129,-0.100424890286915,-0.29612105489737267,-0.19125231413013383,-0.014173382928803987,-0.0004779274057652626,-0.4008607987943806
4749,6.0,301.23162,2228.5076,0.0,0.0,0.0,0.0,0.0,-0.047332378713565076,-0.12238314364827589,-0.3352065594223117,-0.21982096149463978,0.04436913263514246,0.007860359895482123,-0.4210697883288526
4750,6.0,300.61779,2414.9918,0.0,0.0,0.0,0.0,0.0,-0.04734234552314892,-0.2159901161790648,-0.32539218855620866,-0.19271491025198081,0.016865976519292284,0.018488569898179784,-0.4263310793406016
4751,6.0,300.05792,2180.5942,0.0,0.0,0.0,0.0,0.0,-0.04735231233273271,-0.10819792595830391,-0.3335641924677227,-0.2210840689367988,0.003473093353742627,-0.013800233314476986,-0.4543437867727405
4752,6.0,299.41693,1914.7646,0.0,0.0,0.0,0.0,0.0,-0.047362279142316555,-0.058033324964693246,-0.29894118323819774,-0.2250661316972978,-0.023465766860140878,0.0026668462974972374,-0.45148236849034057
4753,6.0,299.79025,2269.4369,0.0,0.0,0.0,0.0,0.0,-0.04737224595190037,-0.07585658674121222,-0.3597952110565227,-0.25420036513512273,-0.01153816766497849,-0.01049114087289499,-0.4576700031410126
4754,6.0,299.6922,2384.578,0.0,0.0,0.0,0.0,0.0,-0.047382212761484216,-0.15266837853719584,-0.3333958004336037,-0.2387880002490408,-0.01038348710277039,0.019006913185586283,-0.4171509523745936
4755,6.0,298.89465,1890.8146,0.0,0.0,0.0,0.0,0.0,-0.047392179571068005,-0.08174357488846272,-0.29331650021058475,-0.1997003577663908,0.004531128804187596,-0.026411576716869674,-0.4386310438945136
4756,6.0,299.50157,1714.4383,0.0,0.0,0.0,0.0,0.0,-0.04740214638065182,-0.12468409277036188,-0.25203711670162676,-0.14442522420365986,0.001000570754343645,-0.006449608234876774,-0.3958354430684166
4757,6.0,299.97839,2109.5592,0.0,0.0,0.0,0.0,0.0,-0.04741211319023564,-0.1053534998800809,-0.29195514803872974,-0.2439446833204658,0.036061496078492565,-0.016825284395276283,-0.4339382165863676
4758,6.0,298.77237,2302.7226,0.0,0.0,0.0,0.0,0.0,-0.04742207999981948,-0.11362580541899389,-0.35282623898873866,-0.23351812700894475,0.024055786446371276,0.0014170704908789686,-0.4336479508302206
4759,6.0,298.96916,2312.702,0.0,0.0,0.0,0.0,0.0,-0.0474320468094033,-0.11737726258923388,-0.33472711987249465,-0.25089926723682976,0.011080704496580388,-0.019317897879778084,-0.4251424052507886
4760,6.0,298.65997000000004,2174.9635,0.0,0.0,0.0,0.0,0.0,-0.04744201361898712,-0.13373401709851987,-0.29973204520624974,-0.22766852272413377,-0.019421252429728378,0.026678615740974375,-0.3997904013887406
4761,6.0,300.16106,2084.8917,0.0,0.0,0.0,0.0,0.0,-0.047451980428570906,-0.1110807542153169,-0.31491342959953567,-0.2077608433718988,0.0033471441371624067,0.02077915448499288,-0.43435233190223754
4762,6.0,300.76026,2130.607,0.0,0.0,0.0,0.0,0.0,-0.04746194723815475,-0.14857715834342386,-0.2985882783608687,-0.2004858697739148,-0.03601707722060876,0.021773456808122878,-0.43395465150298956
4763,6.0,299.77605,2072.3681,0.0,0.0,0.0,0.0,0.0,-0.04747191404773857,-0.0853755739249131,-0.2896410773278487,-0.2549315162747818,-0.030789826345969266,-0.021733301706659876,-0.4410769789734086
4764,6.0,300.66168999999996,1945.0676,0.0,0.0,0.0,0.0,0.0,-0.047481880857322384,-0.07478635246883833,-0.2838533623591457,-0.2326122510220418,-0.014882295255268187,0.0009470909783681022,-0.46976315321701356
4765,6.0,300.97636,1767.1883,0.0,0.0,0.0,0.0,0.0,-0.04749184766690623,-0.039620857241774166,-0.2835671698684007,-0.21399308129197278,0.0012937402218322186,-0.022338415679629978,-0.4336674558946456
4766,6.0,300.29513,2027.4285,0.0,0.0,0.0,0.0,0.0,-0.047501814476490045,-0.12750204262347187,-0.28844437829724373,-0.2003412384546408,0.03392771903740517,-0.0014087229312551286,-0.4407499018411286
4767,6.0,300.5844,2298.8534,0.0,0.0,0.0,0.0,0.0,-0.04751178128607386,-0.15854557362222985,-0.3178959920638917,-0.2223524554119788,0.003960890595684466,-0.03442102795459096,-0.3962140135707786
4768,6.0,299.31097,1992.5174,0.0,0.0,0.0,0.0,0.0,-0.04752174809565765,-0.12974142666948188,-0.2905646953240027,-0.18536941444703683,0.003854457285305316,0.008165594091381392,-0.40274604179793966
4769,6.0,299.48695,2182.3494,0.0,0.0,0.0,0.0,0.0,-0.047531714905241496,-0.05999875252816585,-0.34103555420008863,-0.26234540646147575,-0.0056617949337256545,-0.02031330565876718,-0.43895947878192754
4770,6.0,300.00088,2522.0155,0.0,0.0,0.0,0.0,0.0,-0.04754168171482531,-0.14379902550935886,-0.3437387230818707,-0.27909198868173474,-0.02237596368858568,0.012896270343762787,-0.43690349300401754
4771,6.0,298.51735,2254.0541,0.0,0.0,0.0,0.0,0.0,-0.04755164852440913,-0.09666125587697322,-0.33135792143498066,-0.25715697826441775,-0.016063123749556884,-0.030063459773282473,-0.44799602820876555
4772,6.0,299.77521,2008.4545,0.0,0.0,0.0,0.0,0.0,-0.047561615333992974,-0.14336477691400187,-0.27104814064286875,-0.19610707906926184,-0.015583573755478985,0.011124320860384989,-0.42675016971446256
4773,6.0,300.87762000000004,1879.8229999999999,0.0,0.0,0.0,0.0,0.0,-0.04757158214357679,-0.11058389689628088,-0.2622000354696287,-0.1986353204537798,0.02268295820388368,0.007011131073969764,-0.4273368212573606
4774,6.0,299.84992,1729.8003,0.0,0.0,0.0,0.0,0.0,-0.04758154895316058,-0.10405569875449791,-0.2582162299189577,-0.16354415928055185,-0.0028162763692448378,0.012402687849049989,-0.4331241917210296
4775,6.0,300.76454,2120.9315,0.0,0.0,0.0,0.0,0.0,-0.047591515762744424,-0.08507032625278751,-0.2855701930635837,-0.2740697031035737,-0.0010039676955688971,-0.015493959890134785,-0.42568315656415656
4776,6.0,299.57354,2355.8469,0.0,0.0,0.0,0.0,0.0,-0.04760148257232824,-0.1308887601552149,-0.3243440725202677,-0.26088581969242575,-0.02440110106720118,0.002152548309789978,-0.4344771845795596
4777,6.0,299.63414,2312.8597,0.0,0.0,0.0,0.0,0.0,-0.04761144938191206,-0.1073165706238209,-0.33918647409259867,-0.25654855197687076,0.00955897185649707,0.0078104785049842125,-0.4331626546948256
4778,6.0,301.02422,2304.36,0.0,0.0,0.0,0.0,0.0,-0.047621416191495874,-0.17721432167969184,-0.3044606199779237,-0.21879296860568478,-0.012300235091688688,0.02378180767233168,-0.4332333086242986
4779,6.0,299.4778,2168.6624,0.0,0.0,0.0,0.0,0.0,-0.04763138300107972,-0.16604758617012083,-0.3140685512686527,-0.1791030806610978,0.006252716109895034,-0.006006739920919073,-0.39522474710064565
4780,6.0,299.69766,2169.7227,0.0,0.0,0.0,0.0,0.0,-0.047641349810663536,-0.12069735892690188,-0.3235487015892707,-0.2152954623080078,-0.013545661319602687,0.03042765225672547,-0.4215713572608536
4781,6.0,299.92838,2083.6381,0.0,0.0,0.0,0.0,0.0,-0.047651316620247325,-0.07013791564757334,-0.3065963688037057,-0.25663967355836376,0.0011837211206741788,0.0026024749239442774,-0.4428092110793666
4782,6.0,298.24115,1944.6533,0.0,0.0,0.0,0.0,0.0,-0.04766128342983114,-0.06614223784548065,-0.31451320594253673,-0.2104705882468298,0.006553960228225514,0.01095132664431179,-0.47846586713340455
4783,6.0,298.6788,1908.1423,0.0,0.0,0.0,0.0,0.0,-0.047671250239414986,-0.07327612244654023,-0.2829635869163318,-0.2237879065636468,0.012505482071694989,-0.023331268041866877,-0.4597008501839415
4784,6.0,299.73318,1791.6635,0.0,0.0,0.0,0.0,0.0,-0.0476812170489988,-0.10673264472369191,-0.27420705928712974,-0.16368126215158285,0.015101159303368384,-0.0008837121542155992,-0.4679739156604295
4785,6.0,298.74706000000003,1977.8005,0.0,0.0,0.0,0.0,0.0,-0.04769118385858265,-0.11644366407959489,-0.3027583598099237,-0.18199994243199583,0.0008387069487639313,0.004755018167483756,-0.4575897436005915
4786,6.0,300.411,2211.8173,0.0,0.0,0.0,0.0,0.0,-0.04770115066816644,-0.1024254097411009,-0.3132046542333927,-0.25670717628002576,-0.026425054969699872,0.01033480043546539,-0.43258311616762957
4787,6.0,300.52659,2005.7084,0.0,0.0,0.0,0.0,0.0,-0.04771111747775028,-0.03605252374885707,-0.3263051674263127,-0.24732756063432976,0.003663668877600966,0.008017088103724992,-0.44399606131899955
4788,6.0,300.52587,2119.9072,0.0,0.0,0.0,0.0,0.0,-0.04772108428733407,-0.08218796510407061,-0.3092398775195997,-0.2529710191862958,0.0014028739450528786,0.01894949635541968,-0.4126134867042806
4789,6.0,300.10226,2427.9427,0.0,0.0,0.0,0.0,0.0,-0.047731051096917915,-0.14332774262284687,-0.3463179714764227,-0.24838824097151077,0.03932552422187706,-0.0011281657322662888,-0.4316473087727726
4790,6.0,299.44244,2196.8552,0.0,0.0,0.0,0.0,0.0,-0.04774101790650173,-0.18076715143282882,-0.30485143054149366,-0.18217053321883184,0.02287013994785708,-0.022622990009965278,-0.4150759681573086
4791,6.0,300.3096,2237.2091,0.0,0.0,0.0,0.0,0.0,-0.04775098471608555,-0.16813713079134282,-0.2958870447867777,-0.21603151757815078,0.005219511569050685,-0.023312796492543877,-0.4216642925600256
4792,6.0,301.37434,2344.056,0.0,0.0,0.0,0.0,0.0,-0.047760951525669365,-0.12882919760445188,-0.3327062128130467,-0.25099909263668174,0.0034329902320097572,-0.015679130332659684,-0.40740663762040463
4793,6.0,300.92783,2014.2315,0.0,0.0,0.0,0.0,0.0,-0.04777091833525321,-0.07165128775843153,-0.29486154449306873,-0.24576326459994577,-0.02559015917880208,0.007133038334576072,-0.42363961349747464
4794,6.0,300.72022999999996,2088.5128,0.0,0.0,0.0,0.0,0.0,-0.047780885144837,-0.08123714944873242,-0.2953247720412857,-0.25829382461161576,0.0025523126605186473,-0.008932298961149271,-0.4345813466898396
4795,6.0,300.10595,2350.5068,0.0,0.0,0.0,0.0,0.0,-0.04779085195442084,-0.14491346889684587,-0.32608799753237966,-0.24349392888097976,0.0008048923307291882,-0.006809563306401574,-0.4437754362422256
4796,6.0,300.49457,2193.59,0.0,0.0,0.0,0.0,0.0,-0.04780081876400463,-0.17122915466400185,-0.2743276664465327,-0.2212397649471648,0.03911613203571167,0.005161947412319545,-0.4290716371510736
4797,6.0,301.07701000000003,2109.6865,0.0,0.0,0.0,0.0,0.0,-0.04781078557358848,-0.1036322108752029,-0.3341595680939817,-0.20350022802640882,0.006738501037138273,-0.0018772675093718782,-0.43249202498363964
4798,6.0,299.60798,2217.6844,0.0,0.0,0.0,0.0,0.0,-0.047820752383172294,-0.08844668634200832,-0.34696044296732964,-0.23871356689669476,0.01819362393982088,-0.0011456532130921689,-0.4336858565164616
4799,6.0,299.88667999999996,2157.2903,0.0,0.0,0.0,0.0,0.0,-0.04783071919275614,-0.0903563709644795,-0.29508203784732967,-0.27032396066389774,-0.03202112584098907,-0.004081831215695376,-0.4097886670154926
4800,6.0,300.96747999999997,2062.9053,0.0,0.0,0.0,0.0,0.0,-0.047840686002339955,-0.07986179112074512,-0.3455066013263467,-0.2017033201665678,-0.017670126249155683,0.0015707749581734185,-0.44518422878376257
4801,6.0,299.88217000000003,2014.8377,0.0,0.0,0.0,0.0,0.0,-0.047850652811923744,-0.1052483447847029,-0.3049614796348547,-0.2022505157505718,-0.019710268848502084,0.008914724847439841,-0.45352077437901556
4802,6.0,300.04537,2099.2493,0.0,0.0,0.0,0.0,0.0,-0.04786061962150756,-0.15113871539122983,-0.3093111495316337,-0.17766948375711283,0.017907914769373583,-0.026490172500626477,-0.46029273009735555
4803,6.0,301.12554,2153.1946,0.0,0.0,0.0,0.0,0.0,-0.047870586431091405,-0.12200689348864288,-0.3274021930445807,-0.2051083065976138,0.015884325636910883,-0.008018895336603353,-0.4551090540432665
4804,6.0,299.61877999999996,2093.4617,0.0,0.0,0.0,0.0,0.0,-0.04788055324067522,-0.08088570871779792,-0.2950272818119257,-0.26044709253162673,0.01924412010024678,-0.02188032530941998,-0.4341807683953056
4805,6.0,300.36528,2200.8738,0.0,0.0,0.0,0.0,0.0,-0.04789052005025907,-0.06760746132483693,-0.3236140866182237,-0.2777891415706537,0.027918871353628076,0.005370594859661445,-0.4263339468383846
4806,6.0,298.82193,2163.2564,0.0,0.0,0.0,0.0,0.0,-0.047900486859842856,-0.09212989503851272,-0.2988237171541047,-0.26662232500107474,0.012172998236881387,-0.027369642176673377,-0.41322154822179163
4807,6.0,299.67465,2229.3004,0.0,0.0,0.0,0.0,0.0,-0.0479104536694267,-0.16601254798166284,-0.29503652265283775,-0.2166025954670118,0.01046096324516669,0.003101408088460147,-0.43104984585130757
4808,6.0,300.45396,2394.6615,0.0,0.0,0.0,0.0,0.0,-0.04792042047901049,-0.1970106448459368,-0.3165347310845457,-0.2143719355043628,-0.006487238418415584,-0.008778539677024412,-0.4099484362912606
4809,6.0,301.28808,2208.5835,0.0,0.0,0.0,0.0,0.0,-0.047930387288594334,-0.13509782133561687,-0.29713619977505973,-0.23912021455932778,-0.04267410301985605,0.028557551262660873,-0.4093051136702696
4810,6.0,300.02411,2024.7258,0.0,0.0,0.0,0.0,0.0,-0.04794035409817815,-0.09942254073149082,-0.3042536535124977,-0.21178988040703378,-0.03244201676027777,-0.0046033805277432855,-0.4382510447095106
4811,6.0,300.87102000000004,2263.2779,0.0,0.0,0.0,0.0,0.0,-0.04795032090776197,-0.11829542929984987,-0.3133225762800307,-0.25636198223595774,-0.025325517504433976,0.01990340343681298,-0.4012508798178786
4812,6.0,299.91267,2134.019,0.0,0.0,0.0,0.0,0.0,-0.047960287717345784,-0.13298876151746888,-0.28166692063086074,-0.23403281752974076,0.02546116332182118,0.005059033626162745,-0.42506816441596157
4813,6.0,300.37145,2056.303,0.0,0.0,0.0,0.0,0.0,-0.04797025452692963,-0.11101929046425088,-0.3288847907234017,-0.18516068492643684,0.016767608173084085,0.01891797515805878,-0.43653444705259564
4814,6.0,299.38527,2137.6196,0.0,0.0,0.0,0.0,0.0,-0.04798022133651342,-0.13572037232955786,-0.29508505733262774,-0.2189775625089028,0.029964934373308768,-0.03080275339074507,-0.4538889489353516
4815,6.0,298.6548,2182.9533,0.0,0.0,0.0,0.0,0.0,-0.04799018814609726,-0.1065122324294389,-0.29474612517417775,-0.2623049473849828,0.0093332909656991,-0.0025856235615311775,-0.44331285717407254
4816,6.0,299.21215,1983.1597,0.0,0.0,0.0,0.0,0.0,-0.04800015495568105,-0.07875556721806933,-0.29307351270410376,-0.2310019331681158,-0.01669299040921988,-0.024961092986718076,-0.45933040594738156
4817,6.0,300.21171,1952.6769,0.0,0.0,0.0,0.0,0.0,-0.048010121765264896,-0.07205896488316613,-0.28014640713329775,-0.24135963913534178,-0.0037685262800995862,0.010429891930850189,-0.4354532686658916
4818,6.0,300.01791000000003,2036.4951,0.0,0.0,0.0,0.0,0.0,-0.04802008857484871,-0.1019908166407099,-0.3098545150302597,-0.2071983375788838,-0.02129434555133828,-0.025280577835998776,-0.44679617797034954
4819,6.0,300.67099,2189.868,0.0,0.0,0.0,0.0,0.0,-0.04803005538443256,-0.14070188472369488,-0.3316276182140977,-0.1933356880582468,0.01057969386538449,0.02227174990255058,-0.4417889898186786
4820,6.0,299.56437,2153.4945,0.0,0.0,0.0,0.0,0.0,-0.048040022194016374,-0.11799021810472789,-0.3253216967467517,-0.2112966403908548,0.021886183921498183,0.003415218027905777,-0.45146842616896454
4821,6.0,299.43292,2240.2665,0.0,0.0,0.0,0.0,0.0,-0.04804998900360016,-0.1019886077554919,-0.3525799888169357,-0.2264164799730668,0.017274399396100485,0.04648760959971986,-0.43945867670869454
4822,6.0,300.47612999999996,2180.0756,0.0,0.0,0.0,0.0,0.0,-0.04805995581318398,-0.10884658840732189,-0.29862401569189573,-0.25521795194555075,-0.0028619358505510774,-0.01198056380438959,-0.4353551556587086
4823,6.0,301.24464,2103.6435,0.0,0.0,0.0,0.0,0.0,-0.048069922622767824,-0.09575511239204382,-0.3007290123771427,-0.2429709803718688,-0.01986992565350898,0.017379272807950683,-0.4204257969627956
4824,6.0,300.45628,2183.774,0.0,0.0,0.0,0.0,0.0,-0.04807988943235164,-0.15536347181568086,-0.2846583591660927,-0.2237909159164438,-0.005859614182548894,-0.019377855941195482,-0.41609276463265865
4825,6.0,299.51946,2232.6259,0.0,0.0,0.0,0.0,0.0,-0.048089856241935486,-0.15059684950275187,-0.26517666028839876,-0.26288903540512776,-0.014864071952219685,-0.006161975713089654,-0.40011114570789563
4826,6.0,299.59125,2237.9719,0.0,0.0,0.0,0.0,0.0,-0.048099823051519275,-0.11992634652830887,-0.32775430758683166,-0.2326069010615138,0.0075138055631548736,-0.033114271724624174,-0.43462580810422763
4827,6.0,299.4458,2399.4954,0.0,0.0,0.0,0.0,0.0,-0.04810978986110312,-0.13193974368893888,-0.30487880855919575,-0.2925681339517267,-0.0036601597898546466,0.010093418018467802,-0.4131255022448126
4828,6.0,299.76741,2367.0152,0.0,0.0,0.0,0.0,0.0,-0.04811975667068691,-0.14632336588099187,-0.3157932143963637,-0.25739692602059877,0.015971036540718585,0.0026287622792386376,-0.42932703697127955
4829,6.0,299.23447000000004,1981.2733,0.0,0.0,0.0,0.0,0.0,-0.04812972348027075,-0.08350591166814182,-0.3281000487859537,-0.19065164933835282,0.016536274056003185,0.02186972772662408,-0.44830775460203054
4830,6.0,300.51159,2046.2782,0.0,0.0,0.0,0.0,0.0,-0.04813969028985457,-0.12135278988658788,-0.3161393406305237,-0.18452532645123182,0.01270317324570559,-0.016349191610539583,-0.44019342488620855
4831,6.0,300.71957000000003,2215.8732,0.0,0.0,0.0,0.0,0.0,-0.04814965709943839,-0.12690601851714886,-0.34772288327007667,-0.1989412307914708,0.014487646500319385,-0.009659878698180802,-0.4442307807046646
4832,6.0,300.63229,2010.1842,0.0,0.0,0.0,0.0,0.0,-0.0481596239090222,-0.06048253790766173,-0.3387676572962647,-0.21179559513759777,-0.005460233752283114,-0.02279241454593618,-0.46145318517188355
4833,6.0,300.96835,1938.5925,0.0,0.0,0.0,0.0,0.0,-0.04816959071860605,-0.06150403586347574,-0.2993192977780147,-0.2284603878097848,-0.017767484385014184,0.007369509730988983,-0.4416044769754686
4834,6.0,299.92367,2069.2318,0.0,0.0,0.0,0.0,0.0,-0.048179557528189865,-0.07712222224237072,-0.3083284185246457,-0.24354417595343875,-0.03369604244179047,-0.01151663812685369,-0.42532525636383456
4835,6.0,300.41305,2220.9441,0.0,0.0,0.0,0.0,0.0,-0.04818952433777368,-0.12436751290911789,-0.31220474863720965,-0.23853929801199578,-0.003603814876968837,0.043309429071057864,-0.4357555617007256
4836,6.0,300.33711,2237.1238,0.0,0.0,0.0,0.0,0.0,-0.04819949114735747,-0.12999742430724687,-0.3161904996280727,-0.2338418401508928,0.03864237479245546,0.020208058357630083,-0.4440355375428956
4837,6.0,299.97762,2377.4584,0.0,0.0,0.0,0.0,0.0,-0.048209457956941315,-0.16669704908671784,-0.33240107254543166,-0.22358985669910078,0.03344405220817097,0.02278088375979818,-0.4369448437405986
4838,6.0,299.08493,2348.0214,0.0,0.0,0.0,0.0,0.0,-0.04821942476652513,-0.11728809658043389,-0.3241975058933027,-0.27225427303190475,0.023553640975063374,-0.04341123537485536,-0.4548359932738176
4839,6.0,300.69292,1964.5677,0.0,0.0,0.0,0.0,0.0,-0.048229391576108976,-0.0913952066427546,-0.3048417844005417,-0.20094252132898283,-0.015471717023939586,-0.03528356318171656,-0.44582940565243656
4840,6.0,298.77686,1992.0272,0.0,0.0,0.0,0.0,0.0,-0.04823935838569279,-0.08082383054744102,-0.3055206315700387,-0.2191820566440848,0.00987974272280469,-0.010622136885573289,-0.43672480634888255
4841,6.0,299.63927,2219.6554,0.0,0.0,0.0,0.0,0.0,-0.04824932519527658,-0.1362044728298349,-0.3080377879984627,-0.23047755597636377,-0.026744027114429973,-1.7348323083646185e-05,-0.4184514791429456
4842,6.0,298.9441,1886.3457,0.0,0.0,0.0,0.0,0.0,-0.0482592920048604,-0.1077697771285489,-0.29655322633002473,-0.16907897715679585,0.0022371188240864377,-0.024437377447281375,-0.4334295042411616
4843,6.0,300.22983,2134.0544,0.0,0.0,0.0,0.0,0.0,-0.048269258814444244,-0.11863722895608289,-0.2949117915655277,-0.23515021960751978,-0.01107570106758659,-0.015986398425484685,-0.41107693345763463
4844,6.0,299.80009,2568.7418,0.0,0.0,0.0,0.0,0.0,-0.04827922562402806,-0.14478207062387785,-0.3376386737698427,-0.29841261119103174,0.03350923762685427,0.01013529858352609,-0.42630992267851353
4845,6.0,300.49435,2398.6616,0.0,0.0,0.0,0.0,0.0,-0.048289192433611905,-0.1264743233120439,-0.3171428128670587,-0.2855160855082437,0.0060404757790235445,0.019950135544675084,-0.4073353048133646
4846,6.0,300.66033999999996,2251.4084,0.0,0.0,0.0,0.0,0.0,-0.048299159243195694,-0.1089036242554509,-0.2925514963850847,-0.28291681529171575,-0.024901148097551975,-0.01128034921678379,-0.4219815006363316
4847,6.0,301.3216,2374.5608,0.0,0.0,0.0,0.0,0.0,-0.04830912605277954,-0.15315261075998585,-0.3202752147562027,-0.24837935476813378,-0.029367358981082673,0.011320617802257989,-0.41447394561039363
4848,6.0,300.28866,2123.681,0.0,0.0,0.0,0.0,0.0,-0.04831909286236333,-0.14285525396871585,-0.3125611897573877,-0.19012957222432783,-0.022375799542069478,0.02149126057577228,-0.4834765206004175
4849,6.0,299.75905,1941.72,0.0,0.0,0.0,0.0,0.0,-0.04832905967194717,-0.08560107374791823,-0.30710640850654275,-0.19752691603688882,0.018816929805086383,0.006773855359627472,-0.4552130135035266
4850,6.0,299.1834,2035.6311,0.0,0.0,0.0,0.0,0.0,-0.04833902648153099,-0.08985082198608572,-0.3344909616716877,-0.19443923900715882,-0.007385810290647723,-0.03783037034781687,-0.47942761373082154
4851,6.0,299.69436,1882.2347,0.0,0.0,0.0,0.0,0.0,-0.048348993291114806,-0.06524418313609953,-0.28933332287497576,-0.2175748292029638,0.022217490359695582,-0.03885643704833176,-0.42428875217403966
4852,6.0,299.6743,1713.2334,0.0,0.0,0.0,0.0,0.0,-0.04835896010069862,-0.034347550097089265,-0.28011431750263077,-0.2063183197345328,0.02219289675326838,0.000991365407582648,-0.4651189416486656
4853,6.0,299.22988,2257.9568,0.0,0.0,0.0,0.0,0.0,-0.04836892691028247,-0.11825448386330888,-0.3257229133888487,-0.24238509889904677,0.01783117525979998,0.006073198184377995,-0.4197623714598206
4854,6.0,299.12317,2425.24,0.0,0.0,0.0,0.0,0.0,-0.048378893719866284,-0.17109629731088982,-0.3270532499751427,-0.23906284433866576,-0.004863398741905086,0.003905334903301546,-0.4311410687578106
4855,6.0,301.16044,2204.2894,0.0,0.0,0.0,0.0,0.0,-0.04838886052945013,-0.1050610049737139,-0.32079366443486973,-0.24419426708509775,-0.03303291483434487,0.00993636242911762,-0.4136578942448556
4856,6.0,300.84123999999997,2209.9156,0.0,0.0,0.0,0.0,0.0,-0.04839882733903389,-0.10743299306031089,-0.3191668407368147,-0.24515931687784076,-0.0048502657033839556,0.032023853510258264,-0.4356515921079646
4857,6.0,300.45953,2422.1429,0.0,0.0,0.0,0.0,0.0,-0.048408794148617734,-0.13844876100632889,-0.31993289834241867,-0.27788931147553975,-0.014168405844312787,-0.0037274193314926467,-0.4052538661929426
4858,6.0,300.63646,2169.6882,0.0,0.0,0.0,0.0,0.0,-0.04841876095820155,-0.11510431969991189,-0.3198021080195107,-0.22462460796622277,-0.008822476633160652,-0.013621888124625687,-0.45815756895663157
4859,6.0,300.41472999999996,2012.8271,0.0,0.0,0.0,0.0,0.0,-0.048428727767785396,-0.15209602395320884,-0.27008967697577574,-0.1896634974433298,0.01620439411824918,-0.011095875890327688,-0.42856914616148156
4860,6.0,299.81455,2201.8079,0.0,0.0,0.0,0.0,0.0,-0.04843869457736921,-0.16059039338403786,-0.3285468312850477,-0.18015739778765083,0.02129900346204798,0.027547234521700374,-0.4748601862550515
4861,6.0,300.11201,2035.1836,0.0,0.0,0.0,0.0,0.0,-0.048448661386953,-0.1140393735798099,-0.3030840183920637,-0.20152158362863182,0.02895369760125747,-0.014797754733174687,-0.43997245530440054
4862,6.0,299.50049,2038.3963,0.0,0.0,0.0,0.0,0.0,-0.04845862819653682,-0.07708128896483094,-0.3081816087176567,-0.23435866862939977,-0.017323328230179385,-0.04572423305388046,-0.4417947754767496
4863,6.0,299.63773,2430.7938,0.0,0.0,0.0,0.0,0.0,-0.04846859500612066,-0.1063912503674989,-0.3357721961581357,-0.2967371717531787,0.002193051665312348,-0.03024835866478057,-0.4112247058522186
4864,6.0,300.66854,2380.6333,0.0,0.0,0.0,0.0,0.0,-0.04847856181570448,-0.1079990553611769,-0.3367446224116067,-0.27890939088121375,-0.005012784534623315,0.012296006799021387,-0.4265167878189296
4865,6.0,300.84623,2121.2009,0.0,0.0,0.0,0.0,0.0,-0.048488528625288296,-0.13967856291770087,-0.3027859607426477,-0.20232758355317781,0.013568175736824686,-0.011181919062319488,-0.4260133443742436
4866,6.0,301.17089,2439.0027,0.0,0.0,0.0,0.0,0.0,-0.04849849543487211,-0.14722099401208086,-0.37333229318752864,-0.2208426215704698,-0.0051788557193882655,-0.002899162456575057,-0.4556245045016376
4867,6.0,300.78317000000004,2287.5536,0.0,0.0,0.0,0.0,0.0,-0.04850846224445596,-0.14119727283008585,-0.3110799700987027,-0.24308194139031977,0.033542335441370766,0.007700282085058673,-0.4525225203804956
4868,6.0,300.79456,1952.1105,0.0,0.0,0.0,0.0,0.0,-0.04851842905403975,-0.07498938549737613,-0.3141171467434487,-0.2042863277189908,0.022879494272780278,0.061689738262303145,-0.46776735449504353
4869,6.0,300.96834,2164.0694,0.0,0.0,0.0,0.0,0.0,-0.048528395863623563,-0.08933534315671192,-0.3396957842553637,-0.22879193337500578,0.0004944411431125415,-0.0013144921918302787,-0.4721636744264266
4870,6.0,300.05818,2004.5511,0.0,0.0,0.0,0.0,0.0,-0.04853836267320741,-0.08494335993575691,-0.28368498045752777,-0.24070512010074577,-0.025073130076775273,-0.006820487763679733,-0.4519077815448256
4871,6.0,300.06074,1853.1505,0.0,0.0,0.0,0.0,0.0,-0.048548329482791225,-0.11145017506927589,-0.2870244704021097,-0.16483683336062882,-0.03038677268144097,-0.02743761504638177,-0.4575838566175106
4872,6.0,299.77991000000003,2255.3012,0.0,0.0,0.0,0.0,0.0,-0.04855829629237504,-0.13678331221446188,-0.32602293674345867,-0.22274899083861377,0.0072472034524932935,0.03908914006629776,-0.44779359097128657
4873,6.0,299.71877,2390.8285,0.0,0.0,0.0,0.0,0.0,-0.048568263101958886,-0.15159962259671786,-0.3135077274708037,-0.26164480481233177,0.0005095507893987474,-0.015763331415969684,-0.42383081379134463
4874,6.0,300.16096,2265.2887,0.0,0.0,0.0,0.0,0.0,-0.0485782299115427,-0.08192747978161272,-0.34070308657727666,-0.26596063215577076,0.008895040336422131,-0.00950119532254497,-0.39308573560954163
4875,6.0,299.83457000000004,2303.1327,0.0,0.0,0.0,0.0,0.0,-0.04858819672112649,-0.0958854599246581,-0.3162681145857327,-0.2879412692250907,0.013916948580245884,-0.03177771884896667,-0.39331533808220165
4876,6.0,299.29267000000004,2504.0862,0.0,0.0,0.0,0.0,0.0,-0.04859816353071031,-0.15049208957491284,-0.3375725288033147,-0.27311505938935776,0.04105890028719796,0.027598548546514678,-0.41159919295667763
4877,6.0,300.30055,2253.8044,0.0,0.0,0.0,0.0,0.0,-0.04860813034029415,-0.17607308795956084,-0.2897666595452427,-0.2192605125993278,-0.009413218058762291,-0.034070473817493965,-0.4345332375750916
4878,6.0,300.92692,1970.9988,0.0,0.0,0.0,0.0,0.0,-0.04861809714987797,-0.1015066958754309,-0.2974852846995117,-0.2001424387850208,-0.031781748544614366,-0.006081338331706364,-0.4749135946678225
4879,6.0,301.16789,1954.8548,0.0,0.0,0.0,0.0,0.0,-0.04862806395946179,-0.10504444846707992,-0.2922360108339487,-0.1969465871746148,-0.03857674962322876,-0.005737984147169944,-0.4665886305212125
4880,6.0,301.54607000000004,1940.4804,0.0,0.0,0.0,0.0,0.0,-0.04863803076904563,-0.07731472253611901,-0.27622424771871074,-0.23631860843033078,-0.012819324131168788,0.05582590389308774,-0.4682090403461346
4881,6.0,301.09574,1973.0289,0.0,0.0,0.0,0.0,0.0,-0.04864799757862942,-0.05597023934333254,-0.3159116835980557,-0.2278695920739778,-0.03502544582474237,0.0015066950966742287,-0.47066957635897055
4882,6.0,300.46112,2176.5375,0.0,0.0,0.0,0.0,0.0,-0.04865796438821324,-0.10903832572374489,-0.3266718626375027,-0.22590287362987777,-0.013485556336920787,-0.012115109232168188,-0.4483877000349206
4883,6.0,300.42851,2221.3212,0.0,0.0,0.0,0.0,0.0,-0.048667931197797054,-0.14260855796686886,-0.3167875572494977,-0.2158300834582708,0.0035159986186270465,-0.02317634514132718,-0.4226848380607456
4884,6.0,299.52375,2146.8844,0.0,0.0,0.0,0.0,0.0,-0.0486778980073809,-0.12212106650991088,-0.33690032855447366,-0.1935778446996458,0.038944183493741666,0.030907564994339172,-0.45094344102715256
4885,6.0,299.5146,2430.3953,0.0,0.0,0.0,0.0,0.0,-0.048687864816964715,-0.13076169859267486,-0.3443453559167407,-0.26367242971994276,0.047390996031127154,-0.0027688220167114575,-0.4225265785276266
4886,6.0,299.70306,2453.4499,0.0,0.0,0.0,0.0,0.0,-0.04869783162654853,-0.12010710021364789,-0.32826120621435867,-0.2974191903954887,-0.007496253234322592,-0.0004516096327029005,-0.4204593254086046
4887,6.0,300.25735,2150.5571,0.0,0.0,0.0,0.0,0.0,-0.04870779843613232,-0.06837225439431613,-0.3363134743615557,-0.24902992212733976,-0.0035781581685367164,-0.001316719011575049,-0.44361209019360454
4888,6.0,299.90868,1992.971,0.0,0.0,0.0,0.0,0.0,-0.048717765245716166,-0.11534844204650489,-0.29101131570308075,-0.19945365163204282,-0.035281969339309265,0.04770192297006325,-0.45882458136496057
4889,6.0,300.36737999999997,2129.0827,0.0,0.0,0.0,0.0,0.0,-0.04872773205529998,-0.1263418003314649,-0.31553178573806273,-0.2053143915354528,-0.003893533782036866,-0.0024136635698350476,-0.4630917727035995
4890,6.0,299.60794,1881.3166,0.0,0.0,0.0,0.0,0.0,-0.04873769886488383,-0.10936699365868188,-0.2800982574885457,-0.18240802890977084,-0.025441483978378976,-0.018636948216323584,-0.4680339811263576
4891,6.0,300.42855,2105.0841,0.0,0.0,0.0,0.0,0.0,-0.048747665674467616,-0.11838298424099088,-0.3118433729890447,-0.20966664521998682,0.026852826870417675,-0.02046499933123818,-0.45133984473127453
4892,6.0,300.27869,2319.6620000000003,0.0,0.0,0.0,0.0,0.0,-0.04875763248405146,-0.12887561459153288,-0.3241031723089927,-0.25214052900683276,0.010970276447681988,0.02943049763456397,-0.42544552915070455
4893,6.0,299.77319,2105.8925,0.0,0.0,0.0,0.0,0.0,-0.04876759929363528,-0.1095033264596369,-0.2864045437259277,-0.24423085554620877,0.013070001192658687,0.004198732514182637,-0.4064980967857386
4894,6.0,299.432,2135.7994,0.0,0.0,0.0,0.0,0.0,-0.04877756610321912,-0.1026828563265089,-0.33590374641861864,-0.2106430940763548,-0.023957972347967777,-0.01092533677924679,-0.41870370749033864
4895,6.0,299.14082,2637.1831,0.0,0.0,0.0,0.0,0.0,-0.04878753291280291,-0.17747242687766482,-0.3523919599958787,-0.27177343519694974,0.010914100848887888,-0.0005204540798823186,-0.3969105926170256
4896,6.0,299.67751,2553.4521,0.0,0.0,0.0,0.0,0.0,-0.04879749972238673,-0.16608578569889085,-0.3315596696623917,-0.27854021320727873,0.003881615225085596,0.012553201085154488,-0.41966371129758356
4897,6.0,299.90716000000003,2058.3954,0.0,0.0,0.0,0.0,0.0,-0.048807466531970545,-0.11225125059833589,-0.3130992964879947,-0.2003502462480298,0.03187072811539597,-0.014091054331678787,-0.45338823113343457
4898,6.0,300.58157,1928.7675,0.0,0.0,0.0,0.0,0.0,-0.04881743334155439,-0.04425646530352305,-0.2879264453761277,-0.25411424900912377,-0.01046251655756999,-0.03004353218356577,-0.44734886536989554
4899,6.0,300.20597999999995,2115.553,0.0,0.0,0.0,0.0,0.0,-0.048827400151138206,-0.12434675141456887,-0.3075369587390347,-0.2111915562229838,0.034292529603409165,0.0036886085089373162,-0.45509913432478755
4900,6.0,301.03467,2157.7851,0.0,0.0,0.0,0.0,0.0,-0.04883736696072205,-0.11496647715630788,-0.3314708988211307,-0.2094754246611148,0.01138103385272059,0.027208646868284374,-0.4677868798244706
4901,6.0,301.11528,1917.7224,0.0,0.0,0.0,0.0,0.0,-0.04884733377030581,-0.13070427770950788,-0.2882237329554677,-0.16401170327419484,0.003057286923455727,-0.005269963115379864,-0.4733526018287646
4902,6.0,300.7694,1871.4187,0.0,0.0,0.0,0.0,0.0,-0.048857300579889656,-0.08804092122021241,-0.30588379053837966,-0.17493984878271884,0.0010161150646577492,-0.040347725373260465,-0.45242722420859055
4903,6.0,299.81639,1966.5205,0.0,0.0,0.0,0.0,0.0,-0.04886726738947347,-0.09246476913031222,-0.3038075904209747,-0.2015007613390768,0.017633106143502084,-0.007118669637557993,-0.4509339874037196
4904,6.0,299.72815,2452.0666,0.0,0.0,0.0,0.0,0.0,-0.04887723419905732,-0.1066025130133489,-0.33741555609782264,-0.3013489390533247,0.027848295444412773,0.02589277848016827,-0.42734535282320263
4905,6.0,300.23461000000003,2700.0458,0.0,0.0,0.0,0.0,0.0,-0.048887201008641135,-0.18230305619941084,-0.3507459757384327,-0.2876974609860287,0.0031624494155594574,0.008636918014522441,-0.41734221346346956
4906,6.0,300.40341,2211.7715,0.0,0.0,0.0,0.0,0.0,-0.04889716781822495,-0.11592803123620589,-0.29475308620236473,-0.2616421906270737,-0.013050593400243287,0.015063467412898485,-0.41820419545604054
4907,6.0,300.12137,1939.9369,0.0,0.0,0.0,0.0,0.0,-0.04890713462780874,-0.09538339450010809,-0.30939540127744874,-0.18491359375705083,-0.002964406643764157,0.03201764228714527,-0.4620803059237755
4908,6.0,299.52002999999996,2507.0628,0.0,0.0,0.0,0.0,0.0,-0.048917101437392585,-0.17625385177740083,-0.3021072858256677,-0.2837233421063137,0.042577621345334056,0.03529232475533127,-0.4094148689211016
4909,6.0,300.6745,2491.8691,0.0,0.0,0.0,0.0,0.0,-0.0489270682469764,-0.14968296884005886,-0.3214165396688427,-0.28636647591967074,-0.006097447387096204,-0.03499541410502847,-0.44959141075621756
4910,6.0,300.42368,1692.0585,0.0,0.0,0.0,0.0,0.0,-0.048937035056560246,-0.022986807590871277,-0.30157901775353174,-0.18977770086210083,-0.0047095873767250855,-0.06716560220797883,-0.4472619386438166
4911,6.0,301.40637999999996,1653.5162,0.0,0.0,0.0,0.0,0.0,-0.048947001866144035,-0.08322308722072923,-0.23665336599836875,-0.18275119645363883,-0.03470336502870546,-0.01132470930616179,-0.43568107768587455
4912,6.0,300.32272,2143.2173,0.0,0.0,0.0,0.0,0.0,-0.04895696867572788,-0.12496179422526889,-0.3119565530252147,-0.21456621607853682,0.006288076410559823,0.028309009119131673,-0.42739279319288453
4913,6.0,299.01341,2284.9303,0.0,0.0,0.0,0.0,0.0,-0.0489669354853117,-0.16757163591053284,-0.3192139163364607,-0.2077762042434148,-0.016477838909486085,0.013509875352570887,-0.4330237279736146
4914,6.0,299.06747,2547.2935,0.0,0.0,0.0,0.0,0.0,-0.04897690229489554,-0.15687347790970685,-0.3283196707451287,-0.28912045929396774,-0.005102868446688905,-0.005285830915920895,-0.4229917413835346
4915,6.0,298.71788,2438.8841,0.0,0.0,0.0,0.0,0.0,-0.04898686910447933,-0.10759350200865189,-0.35663543114967666,-0.27713092417319274,0.007109862163713763,0.008679444222544451,-0.4285915592536936
4916,6.0,299.42231,2088.3418,0.0,0.0,0.0,0.0,0.0,-0.04899683591406315,-0.03754545455219786,-0.3218655918481607,-0.2753927138916447,0.024767817556643274,0.004297404531445806,-0.46289713749189054
4917,6.0,299.94012999999995,2289.8403,0.0,0.0,0.0,0.0,0.0,-0.049006802723646964,-0.13178698610386286,-0.3291419941287857,-0.23512530378756077,-0.00043499300994046756,0.002721136845805297,-0.4428375516846636
4918,6.0,299.73565,2409.2749,0.0,0.0,0.0,0.0,0.0,-0.04901676953323081,-0.1337295182680759,-0.3599741510241826,-0.23865575084598878,-0.024688062614772077,-0.03805764943799756,-0.46791571457468556
4919,6.0,300.08277999999996,1726.0972,0.0,0.0,0.0,0.0,0.0,-0.049026736342814625,-0.08979360172643851,-0.26417932834746977,-0.17071750389350585,-0.03405658519837327,0.02027411922439978,-0.45235719849417955
4920,6.0,301.01038,1453.7701,0.0,0.0,0.0,0.0,0.0,-0.04903670315239847,-0.034432036916927464,-0.27762565366701875,-0.12985211411040587,-0.0027141203928378274,0.002107701961688988,-0.49311185017385056
4921,6.0,299.77341,2218.1122,0.0,0.0,0.0,0.0,0.0,-0.04904666996198223,-0.0973954285284304,-0.3299214165032087,-0.24693388257297677,-0.011515964315537188,-0.005491713507714925,-0.4529538812130676
4922,6.0,300.47072000000003,2571.2877,0.0,0.0,0.0,0.0,0.0,-0.049056636771566076,-0.14651626843502985,-0.3496092813787497,-0.2854816957998497,-0.010367543612446892,-0.03678526569117306,-0.47377207723766357
4923,6.0,300.06566000000004,2369.9376,0.0,0.0,0.0,0.0,0.0,-0.04906660358114989,-0.14566307132082584,-0.3522151985159337,-0.2225235933538688,0.014805700640458885,0.012218250999597488,-0.43467171846625857
4924,6.0,298.44051,2326.7331,0.0,0.0,0.0,0.0,0.0,-0.04907657039073374,-0.15936437089553887,-0.3059337944308147,-0.24197058841563776,-0.008260146335062972,0.035226929593877264,-0.43153394635158454
4925,6.0,299.67825,2495.5183,0.0,0.0,0.0,0.0,0.0,-0.049086537200317554,-0.17545450890601183,-0.34727344605572064,-0.23584728501381477,-0.005419804161368025,0.03462990439645547,-0.4186414534041946
4926,6.0,300.01452,2276.1220000000003,0.0,0.0,0.0,0.0,0.0,-0.04909650400990137,-0.12536492591005488,-0.3094824394610387,-0.25703689799506674,-0.024265055016024478,-0.024243942936940873,-0.4353060434263616
4927,6.0,300.09152,2401.9408,0.0,0.0,0.0,0.0,0.0,-0.04910647081948516,-0.09153962315300741,-0.33814895665270367,-0.3004414519987627,0.020069515658206978,0.012435901174077887,-0.4239756072306346
4928,6.0,299.52321,2101.1199,0.0,0.0,0.0,0.0,0.0,-0.049116437629069004,-0.10554509534148988,-0.3149890484544987,-0.2181538509726088,0.026077972227445477,-0.0007912487864101751,-0.45589687626101855
4929,6.0,299.88007000000005,1605.2713,0.0,0.0,0.0,0.0,0.0,-0.04912640443865282,-0.08421299609142562,-0.25205605434599576,-0.15169332796596585,0.023301118785141378,-0.0019429397947282284,-0.47082725833953254
4930,6.0,298.75369,2004.3749,0.0,0.0,0.0,0.0,0.0,-0.049136371248236665,-0.12374117235980288,-0.3126342146920947,-0.17290453330684882,-0.013819357396864386,-0.043873743515501364,-0.46311205797060156
4931,6.0,300.98287999999997,2630.1804,0.0,0.0,0.0,0.0,0.0,-0.049146338057820455,-0.22208929409600678,-0.3396960274353877,-0.23772384446401676,0.014282651819587986,0.01944242023756748,-0.4315298325561786
4932,6.0,300.23666000000003,2454.1099,0.0,0.0,0.0,0.0,0.0,-0.0491563048674043,-0.12226924420453489,-0.35205210577983764,-0.27166679062392474,-0.003515454098023307,0.02071233266739808,-0.45062475360570053
4933,6.0,299.53481,2277.5697,0.0,0.0,0.0,0.0,0.0,-0.049166271676988116,-0.06517641088991094,-0.37001670581280566,-0.25713119104937276,-0.011207463097340489,0.015736418480063585,-0.45960738799471756
4934,6.0,298.63639,2498.7683,0.0,0.0,0.0,0.0,0.0,-0.04917623848657196,-0.13016687012146988,-0.34642261994675067,-0.2829736890198287,-0.018073715922986882,-0.037086729887425264,-0.4461780751443476
4935,6.0,299.24615,2358.2751,0.0,0.0,0.0,0.0,0.0,-0.04918620529615575,-0.14901735471686786,-0.32197957235190966,-0.24585980706947377,0.003173977060622147,0.01086146959894359,-0.4397186462868516
4936,6.0,299.01341,2108.923,0.0,0.0,0.0,0.0,0.0,-0.049196172105739566,-0.1072213149819199,-0.3136560064904377,-0.2201826208528328,0.024296711988898774,0.0008774877081887942,-0.4388259121537456
4937,6.0,299.81588,2060.4482,0.0,0.0,0.0,0.0,0.0,-0.04920613891532338,-0.1288062677546889,-0.2913251800540567,-0.2061933454671988,-0.0066101590304469045,-0.005387925894671885,-0.4367562880294896
4938,6.0,298.99907,1726.5068,0.0,0.0,0.0,0.0,0.0,-0.04921610572490723,-0.01044415241275759,-0.29105172411706876,-0.2233190757423768,0.01068418730844719,-0.02352632983186798,-0.46030640897370556
4939,6.0,299.98597,1805.8605,0.0,0.0,0.0,0.0,0.0,-0.049226072534491044,-0.04079705011685536,-0.2825244240579898,-0.2256150194089688,0.01156122518425409,0.018760896061306282,-0.48554687426474546
4940,6.0,300.60052,2581.4457,0.0,0.0,0.0,0.0,0.0,-0.04923603934407489,-0.16599172569210785,-0.3547760868186737,-0.26392720132508674,0.03445673894111537,0.014572462626440089,-0.44657252327577657
4941,6.0,300.94761,2518.4736,0.0,0.0,0.0,0.0,0.0,-0.04924600615365865,-0.1975355387952398,-0.3476385504642537,-0.2203789988547138,-0.015197479871124485,-0.01030568266734169,-0.48306361105216655
4942,6.0,300.4105,2159.7466,0.0,0.0,0.0,0.0,0.0,-0.049255972963242495,-0.16200262084341385,-0.2958576301363747,-0.19864879668010982,-0.005633673595750295,-0.05407803936458695,-0.4062365060074216
4943,6.0,299.88282999999996,2353.7003,0.0,0.0,0.0,0.0,0.0,-0.04926593977282631,-0.1887657375897278,-0.30736382469444773,-0.2193365468868318,-0.03234635581833677,0.013901351621456587,-0.4105259280532546
4944,6.0,299.0471,2560.9569,0.0,0.0,0.0,0.0,0.0,-0.049275906582410156,-0.12868009785223689,-0.32094267299457574,-0.32884416952689266,0.024674407043174376,0.028854297766447472,-0.3975124733089266
4945,6.0,300.12715,2341.4602,0.0,0.0,0.0,0.0,0.0,-0.04928587339199397,-0.0991099074793863,-0.3198263348294017,-0.2928091861505167,-0.0004914948347367635,0.02828774201278277,-0.4403821427173336
4946,6.0,300.46064,2117.0903,0.0,0.0,0.0,0.0,0.0,-0.04929584020157779,-0.09412295494546241,-0.3052159168674657,-0.24420370044352877,0.01113844050052849,-0.018630959908232585,-0.4748834606098486
4947,6.0,298.8968,2102.0543,0.0,0.0,0.0,0.0,0.0,-0.04930580701116158,-0.14031719419072886,-0.29012334384544475,-0.2085314707354538,0.023359375599640877,0.0004428864410019886,-0.44298245658146457
4948,6.0,299.98132000000004,1943.29,0.0,0.0,0.0,0.0,0.0,-0.04931577382074542,-0.10967372472895391,-0.28841923956226273,-0.19261868188998382,0.03527168991704476,-0.009185960753458742,-0.47405598991568354
4949,6.0,299.5024,2030.2602,0.0,0.0,0.0,0.0,0.0,-0.04932574063032924,-0.09764601845041171,-0.3165808136990937,-0.2029215608942988,0.0006588738112732823,-0.01140480976631709,-0.45145594292773256
4950,6.0,298.58497,2424.5476,0.0,0.0,0.0,0.0,0.0,-0.049335707439913085,-0.06929181229731943,-0.3716648888229686,-0.2960452333923897,-0.01071075371281909,-0.04547375560266025,-0.4842680817110385
4951,6.0,299.56851,2190.3371,0.0,0.0,0.0,0.0,0.0,-0.049345674249496874,-0.09266433076400742,-0.3294652715731907,-0.24367817827916377,-0.02232671770722548,0.01120670518626569,-0.4311308146667986
4952,6.0,299.98116,1889.6008,0.0,0.0,0.0,0.0,0.0,-0.04935564105908072,-0.07208167587090752,-0.3246933195647357,-0.17761647051188084,0.007388712846884183,0.024867007648682576,-0.4873485342675556
4953,6.0,300.27765,2338.2856,0.0,0.0,0.0,0.0,0.0,-0.049365607868664535,-0.1794387906842298,-0.3148612978818907,-0.2164803671074488,-0.003393135660526417,0.02133068576617478,-0.4102844198919196
4954,6.0,300.76937999999996,2374.0851,0.0,0.0,0.0,0.0,0.0,-0.04937557467824838,-0.18015528009494183,-0.31864582753539467,-0.2228614717322148,-0.0030532931981865773,-0.008768302811264112,-0.4297828475287646
4955,6.0,299.78102,2106.8955,0.0,0.0,0.0,0.0,0.0,-0.04938554148783217,-0.09338233295711872,-0.2978627203617617,-0.24919857760648473,-0.007783657065562142,-0.0003867312490649026,-0.4164123943767036
4956,6.0,299.96693,2243.7865,0.0,0.0,0.0,0.0,0.0,-0.049395508297415985,-0.07023890831154052,-0.3282855546142617,-0.2835306118047927,0.004484712931681706,0.013445908873757885,-0.45553791214809153
4957,6.0,301.12469,2351.0938,0.0,0.0,0.0,0.0,0.0,-0.0494054751069998,-0.1065608684342389,-0.3263520505084397,-0.2817608894451347,-0.025935931788677178,0.02159128558589398,-0.4445966146532696
4958,6.0,299.78312,2073.1468,0.0,0.0,0.0,0.0,0.0,-0.04941544191658365,-0.09140948029691331,-0.3120637751507967,-0.2267115991971928,-0.026754686505481975,-0.007918577598527763,-0.46850701693554253
4959,6.0,299.17559,2277.1145,0.0,0.0,0.0,0.0,0.0,-0.049425408726167464,-0.16130015481408586,-0.3353533185667957,-0.1955324852025538,-0.005386660243971974,0.0042071337760617765,-0.43769875247750356
4960,6.0,299.50217000000004,2330.115,0.0,0.0,0.0,0.0,0.0,-0.04943537553575131,-0.2116466068428938,-0.28570088206148175,-0.21094929825657477,0.014973483711267785,0.00927759027722687,-0.41440704070629064
4961,6.0,299.76114,2054.8326,0.0,0.0,0.0,0.0,0.0,-0.04944534234533507,-0.1003264722914519,-0.30691183408983974,-0.2173794847161848,0.04087270139582156,-0.011838701697638888,-0.4349626327024696
4962,6.0,299.84065,2165.947,0.0,0.0,0.0,0.0,0.0,-0.049455309154918914,-0.06728943048944973,-0.3248892213390697,-0.2662151504483898,0.01013467340821439,-0.05165907497685375,-0.4419823787327646
4963,6.0,299.62253,2525.462,0.0,0.0,0.0,0.0,0.0,-0.04946527596450273,-0.13033249598281588,-0.36249118586259466,-0.2748537155009497,0.004077634840406226,-0.015202616035881385,-0.42683752200558356
4964,6.0,300.19112,2270.4737,0.0,0.0,0.0,0.0,0.0,-0.049475242774086575,-0.1047080798313829,-0.34851913572866067,-0.23694008537916578,-0.025197406214790375,0.023209099464059777,-0.46456935479442557
4965,6.0,300.91474,2195.6881,0.0,0.0,0.0,0.0,0.0,-0.04948520958367039,-0.16449232832662886,-0.3205240892457647,-0.18241794862824984,-0.03020582445208277,0.03162535541817957,-0.47317388477612654
4966,6.0,300.75675,2272.8576,0.0,0.0,0.0,0.0,0.0,-0.04949517639325421,-0.13413854706844386,-0.3311880196582127,-0.2255654005515718,-0.04615595764323836,0.003149079276514927,-0.4514192531416115
4967,6.0,300.12698,1994.2775,0.0,0.0,0.0,0.0,0.0,-0.049505143202838,-0.062384894705409734,-0.3298046900916887,-0.21402096593472478,-0.018013924034585883,0.00974393438010145,-0.45839032263710255
4968,6.0,299.95009,1986.9555,0.0,0.0,0.0,0.0,0.0,-0.04951511001242184,-0.00995251829666208,-0.34803092143297765,-0.24600141890344976,0.015695085981984384,0.01072386212936279,-0.49529478605678956
4969,6.0,299.82726,2245.5761,0.0,0.0,0.0,0.0,0.0,-0.04952507682200566,-0.14175164222479789,-0.29238605290875674,-0.24846135709872674,0.02053193159309388,-0.015274718912997386,-0.4553267305622496
4970,6.0,299.46757,2289.8979999999997,0.0,0.0,0.0,0.0,0.0,-0.049535043631589476,-0.12340309133143688,-0.34532043688547365,-0.22734829516252975,0.012162569866852189,-0.014363258904793287,-0.44839494477313563
4971,6.0,299.97495,2076.8595,0.0,0.0,0.0,0.0,0.0,-0.04954501044117329,-0.17947348436765384,-0.2936108290996327,-0.15822912548349885,0.007684264931452904,-0.0010056507039849971,-0.4201359466391896
4972,6.0,299.09902999999997,2550.4041,0.0,0.0,0.0,0.0,0.0,-0.04955497725075714,-0.17295804304462983,-0.33944370789548567,-0.2628574017370058,0.008348597597242432,0.03406428589913327,-0.4142758856133466
4973,6.0,299.29818,2749.6972,0.0,0.0,0.0,0.0,0.0,-0.049564944060340954,-0.17876370267260383,-0.3421188705445037,-0.3149567055113067,-0.015459982574531485,0.006473024343362764,-0.41602146222312164
4974,6.0,298.75507999999996,2191.4123,0.0,0.0,0.0,0.0,0.0,-0.0495749108699248,-0.07810633228274483,-0.3058383057413907,-0.28218999072998374,-0.024885280600985975,-0.007888789666787924,-0.4220865037441946
4975,6.0,299.45794,2219.0431,0.0,0.0,0.0,0.0,0.0,-0.04958487767950859,-0.1107984526049559,-0.3317821185893457,-0.2319531318319918,-0.0075217165133106235,-0.008119325545440042,-0.4512415898690776
4976,6.0,300.17955,2597.9339,0.0,0.0,0.0,0.0,0.0,-0.049594844489092405,-0.17286104461255683,-0.3159699150813027,-0.30087608562915774,0.017542871155846584,0.03747994793323286,-0.42751407922985457
4977,6.0,300.27064,2272.7049,0.0,0.0,0.0,0.0,0.0,-0.04960481129867622,-0.1863886427226268,-0.3182144565703217,-0.18624242060069582,0.008349166131873541,-0.013122116698302088,-0.4731075067620755
4978,6.0,299.51255,1936.0243,0.0,0.0,0.0,0.0,0.0,-0.049614778108260066,-0.08010110154261323,-0.29578222406393273,-0.21261972210643282,-0.007197411126679174,-0.013807575324701588,-0.4440489023117146
4979,6.0,299.65418999999997,2016.1683,0.0,0.0,0.0,0.0,0.0,-0.04962474491784388,-0.05394288396024815,-0.29338476286982174,-0.26553715440897674,0.0016592177090520384,-0.026383781240126476,-0.4564791302984825
4980,6.0,300.75358,1897.3065,0.0,0.0,0.0,0.0,0.0,-0.0496347117274277,-0.03349190294414347,-0.3104097862175607,-0.23283210602873977,0.009831415657960179,0.01134187274960569,-0.45474782025011556
4981,6.0,300.31791,2069.1097,0.0,0.0,0.0,0.0,0.0,-0.04964467853701149,-0.08407339555889812,-0.3263970590778817,-0.2184872305205108,0.01039039138895179,-0.03379742216729587,-0.4663400904041835
4982,6.0,300.24836,2382.6345,0.0,0.0,0.0,0.0,0.0,-0.04965464534659533,-0.17502581292120284,-0.3228486369626797,-0.22638694373265178,0.008760577083226641,-0.026789929370460177,-0.4365128749579666
4983,6.0,299.22466000000003,2232.2835,0.0,0.0,0.0,0.0,0.0,-0.04966461215617915,-0.17547770220080083,-0.3261126499073127,-0.17696810190539183,0.02124403160437268,-0.008073682580110432,-0.42598468966141556
4984,6.0,299.79557,2149.8366,0.0,0.0,0.0,0.0,0.0,-0.04967457896576297,-0.08675054721786242,-0.3224963096379077,-0.24424979319057777,0.03574742097149577,0.03239045955543947,-0.46709474894616254
4985,6.0,299.28661,2500.3777,0.0,0.0,0.0,0.0,0.0,-0.04968454577534681,-0.1077327023073899,-0.3445566388275927,-0.3077630553663487,0.007927535134711802,-0.03584873888874507,-0.4447043332714005
4986,6.0,299.17561,2408.6385,0.0,0.0,0.0,0.0,0.0,-0.04969451258493063,-0.1056974172290229,-0.34224292275424667,-0.2842256203133847,-0.017075312976702183,-0.03761389351695226,-0.46757032801309856
4987,6.0,299.01275,1787.5965,0.0,0.0,0.0,0.0,0.0,-0.04970447939451442,-0.07391822410116072,-0.25872208489888177,-0.2107443785563508,0.004850052110262875,-0.02096887442046678,-0.45580246161670057
4988,6.0,299.75059,1930.1993,0.0,0.0,0.0,0.0,0.0,-0.049714446204098234,-0.1053230517145759,-0.3166985938907177,-0.16471074451818485,-0.007506236280932842,0.03473999199332027,-0.4835086710260905
4989,6.0,299.34236,2297.6616,0.0,0.0,0.0,0.0,0.0,-0.04972441301368208,-0.18974117319599582,-0.2889382769259877,-0.2197522834028618,-0.02996561325087577,0.00979964976070013,-0.4049472567126826
4990,6.0,300.32363,2188.5151,0.0,0.0,0.0,0.0,0.0,-0.049734379823265895,-0.09202560019246961,-0.3265276568832707,-0.24670069319496274,-0.026959625457457875,0.0029504394977607077,-0.4433693154696446
4991,6.0,299.7737,2189.319,0.0,0.0,0.0,0.0,0.0,-0.04974434663284971,-0.06863675725342054,-0.34891399929263067,-0.2479475683705198,0.026938039177327476,-0.004973656564786685,-0.4242069930234706
4992,6.0,300.10452999999995,2568.6189,0.0,0.0,0.0,0.0,0.0,-0.04975431344243353,-0.13821240015550185,-0.3344510801477517,-0.3081325066178107,0.030869549877087368,0.03508226483734997,-0.41379036656292956
4993,6.0,301.09763,2583.0322,0.0,0.0,0.0,0.0,0.0,-0.04976428025201737,-0.15092888142802086,-0.3957740097148536,-0.23847438921058975,0.036634752455068566,-0.03029562475544537,-0.4530452257095826
4994,6.0,300.73547,2221.1719,0.0,0.0,0.0,0.0,0.0,-0.04977424706160116,-0.19046045917698382,-0.3035340736889807,-0.18118625193919083,-0.010703854492888189,-0.01804762067991148,-0.4378169582341696
4995,6.0,299.66781000000003,2295.8888,0.0,0.0,0.0,0.0,0.0,-0.04978421387118501,-0.1811812768811998,-0.2915214465984267,-0.22519015350953775,-0.008402261653013662,-0.008859586310123091,-0.45814830785071753
4996,6.0,299.32815,2053.0163,0.0,0.0,0.0,0.0,0.0,-0.049794180680768824,-0.06256432711261835,-0.3339019087260527,-0.22759944946481678,-0.02342318097168798,0.03357442608528787,-0.46645458766548353
4997,6.0,298.8867,1716.5701,0.0,0.0,0.0,0.0,0.0,-0.04980414749035264,-0.0100677260489322,-0.2839518097388617,-0.2277749139846338,-0.026757407082000473,-0.004538230167513446,-0.4833701192074165
4998,6.0,298.44026,2110.4713,0.0,0.0,0.0,0.0,0.0,-0.04981411429993646,-0.0973877095891686,-0.30799136087888074,-0.2361514930913378,-0.024311096087318376,0.0003452745974509496,-0.4484800273840326
4999,6.0,299.17455,2310.869,0.0,0.0,0.0,0.0,0.0,-0.0498240811095203,-0.12179849834057589,-0.34286445036558666,-0.23778352489490676,0.024831825578710373,0.007118842498025054,-0.4625347992561305
5000,6.0,299.09666,2084.4105,0.0,0.0,0.0,0.0,0.0,-0.04983404791910412,-0.13302042558309388,-0.3130241335955767,-0.1875641850911438,0.029248729685874872,0.034531180399462166,-0.4295864796593846
5001,6.0,299.73066,2536.1402,0.0,0.0,0.0,0.0,0.0,-0.04984401472868791,-0.14293408482649586,-0.3793459325310286,-0.24864327602168074,0.03390486416814957,-0.02234408886693988,-0.4439830309227135
5002,6.0,300.63602000000003,2762.0236,0.0,0.0,0.0,0.0,0.0,-0.049853981538271724,-0.13210945294818788,-0.3829433756860687,-0.3245333780364507,-0.018331521198930285,-0.014043454881731088,-0.4452943589371316
5003,6.0,299.81408,1922.8129999999999,0.0,0.0,0.0,0.0,0.0,-0.04986394834785557,-0.06777955982782173,-0.29686589504588273,-0.2198416925916858,0.0032466844427478073,-0.003165175666278517,-0.4699840113413105
5004,6.0,299.89769,2054.6291,0.0,0.0,0.0,0.0,0.0,-0.049873915157439386,-0.06659404809157085,-0.3378797563661357,-0.2200821469729168,-0.02841857286569477,0.03545450759283746,-0.47422487844235156
5005,6.0,300.09893999999997,2538.724,0.0,0.0,0.0,0.0,0.0,-0.04988388196702323,-0.20998700450410382,-0.3055252114604907,-0.25619647796462375,-0.013254462360113588,-0.013411089547321486,-0.44664477814040754
5006,6.0,300.96398999999997,2200.7488,0.0,0.0,0.0,0.0,0.0,-0.04989384877660702,-0.16458094718037483,-0.30206032168353275,-0.20233143390355782,-0.024577242438084977,-0.012875991156261387,-0.4418225689269926
5007,6.0,300.78821,1888.3366,0.0,0.0,0.0,0.0,0.0,-0.049903815586190836,-0.08889844896534382,-0.2621519162223797,-0.2229568084341238,0.012873524905517988,0.004510567426533345,-0.4663555120707056
5008,6.0,299.98534,2267.8731,0.0,0.0,0.0,0.0,0.0,-0.04991378239577465,-0.06711589418457303,-0.3137729862144827,-0.30848791422288674,0.02198105351511108,0.047274406408370655,-0.4048036386435086
5009,6.0,299.08083999999997,2499.1336,0.0,0.0,0.0,0.0,0.0,-0.0499237492053585,-0.11700524781501889,-0.36838709567697564,-0.27428187767451373,0.027640591332913973,-0.012721863657050188,-0.45613876945739157
5010,6.0,300.41572,2674.9194,0.0,0.0,0.0,0.0,0.0,-0.049933716014942314,-0.16145394591426385,-0.34593417260354464,-0.30572059647727373,-0.016441276792877685,-0.008953291071421031,-0.4086965353952076
5011,6.0,300.14134,2604.7513,0.0,0.0,0.0,0.0,0.0,-0.04994368282452613,-0.21581839055211677,-0.35131372003446465,-0.2246472338409558,0.0037748539256490764,-0.01054747656520489,-0.43388061331818256
5012,6.0,300.21727000000004,2016.9518,0.0,0.0,0.0,0.0,0.0,-0.04995364963410995,-0.14682696131319287,-0.2978235582453967,-0.16845246435496383,0.0026455131272418177,0.023858578592658376,-0.4066235878106236
5013,6.0,299.6438,1766.8415,0.0,0.0,0.0,0.0,0.0,-0.04996361644369379,-0.02810693259868827,-0.2881553284412167,-0.2208134197025878,-0.0016018790004681484,-0.025516327697015475,-0.47059276186888954
5014,6.0,299.66567000000003,2264.3887,0.0,0.0,0.0,0.0,0.0,-0.04997358325327758,-0.09869172903061531,-0.32662943785581566,-0.26299647031323076,-0.016102886723231184,-0.02446987035148818,-0.4488069930588015
5015,6.0,300.57142999999996,2294.4973,0.0,0.0,0.0,0.0,0.0,-0.049983550062861426,-0.1106875523815109,-0.3180538260319687,-0.26872850718893876,0.013972004537679487,-0.007559038567494024,-0.4803108233129875
5016,6.0,300.61599,1811.5334,0.0,0.0,0.0,0.0,0.0,-0.049993516872445215,-0.06591828322887804,-0.2893529697944147,-0.19538966760095883,0.023870922005376577,0.038420735452331364,-0.4859003972246355
5017,6.0,300.67437,2069.8515,0.0,0.0,0.0,0.0,0.0,-0.05000348368202906,-0.13925077885798187,-0.3058637281863997,-0.18406866476366282,-0.005080945970175325,0.005120664563495245,-0.4840711160240995
5018,6.0,301.03774,2679.2922,0.0,0.0,0.0,0.0,0.0,-0.050013450491612876,-0.2144767156972038,-0.3389702769187617,-0.26099094439030074,-0.025442142590943975,-0.00013749305337950785,-0.44477744939861663
5019,6.0,300.73158,2461.7994,0.0,0.0,0.0,0.0,0.0,-0.05002341730119672,-0.11436509295695589,-0.35263636605249965,-0.28132407732702475,-0.02048568280552948,-0.008738298145327882,-0.4491317802458556
5020,6.0,300.57532000000003,2165.1888,0.0,0.0,0.0,0.0,0.0,-0.05003338411078054,-0.08444388235196232,-0.31746849171420066,-0.2562509604225008,0.004885037609715676,0.02642133532858277,-0.4348060754295186
5021,6.0,300.10831,2145.2734,0.0,0.0,0.0,0.0,0.0,-0.05004335092036433,-0.08094861939000672,-0.3170349929239177,-0.25412594191527776,-0.018892053180750483,-0.014394486259625187,-0.4166124910064516
5022,6.0,299.74771,2145.6683,0.0,0.0,0.0,0.0,0.0,-0.050053317729948144,-0.12993981090656087,-0.33192563533350966,-0.1903641193574758,0.01121176231751479,-0.02488309806027058,-0.4515597605329785
5023,6.0,299.94829,2383.8581,0.0,0.0,0.0,0.0,0.0,-0.05006328453953199,-0.21385321224816878,-0.3099812219552647,-0.20079891339230982,-0.006149203898229175,0.0003828335799052326,-0.4404878449677656
5024,6.0,299.24876,2422.1839,0.0,0.0,0.0,0.0,0.0,-0.050073251349115805,-0.17776628967166683,-0.3265106444140917,-0.2320064895822578,0.017734557809764583,0.041709362268393564,-0.44918634376374056
5025,6.0,300.14645,1997.7939,0.0,0.0,0.0,0.0,0.0,-0.05008321815869965,-0.051479251455106546,-0.3199026325619317,-0.23589756248377677,-0.012959998708802288,0.0006518714323497014,-0.4737416594696615
5026,6.0,300.33036,2030.8483,0.0,0.0,0.0,0.0,0.0,-0.05009318496828344,-0.06883742231647463,-0.2904921871468467,-0.25799756041487676,-0.017178876256173085,-0.02070876096079558,-0.46771944803031557
5027,6.0,300.79883,2650.3059999999996,0.0,0.0,0.0,0.0,0.0,-0.05010315177786728,-0.1270116903700779,-0.37823481260386965,-0.30038034288523174,-0.03054540914359717,-0.0026052626789444073,-0.4415627817338536
5028,6.0,301.26774,2436.0873,0.0,0.0,0.0,0.0,0.0,-0.05011311858745107,-0.18990893701505282,-0.2994028098512567,-0.2511979632338088,0.01143560750310659,0.018558867163617584,-0.44276031162954055
5029,6.0,300.77612,1811.9784,0.0,0.0,0.0,0.0,0.0,-0.05012308539703492,-0.11713423455274888,-0.27845471516384074,-0.15520722865026085,0.012917661066623887,0.004886262831736595,-0.44616808449836154
5030,6.0,299.69016,1928.7461,0.0,0.0,0.0,0.0,0.0,-0.05013305220661873,-0.1072444576142039,-0.30454853968910073,-0.17449765630657782,0.005902749049905974,-0.01280262880927109,-0.4497252306969246
5031,6.0,301.16992,2454.1353,0.0,0.0,0.0,0.0,0.0,-0.05014301901620255,-0.11110287346499989,-0.35259539021845565,-0.2822975776256017,-0.0014197431406677385,0.014058277717443987,-0.43457601699431364
5032,6.0,299.87289,2300.0282,0.0,0.0,0.0,0.0,0.0,-0.05015298582578637,-0.08054983556139983,-0.35470283896894467,-0.26389846555225077,-0.01205620495085479,0.008982862876914542,-0.45680002660515256
5033,6.0,299.73284,2244.3628,0.0,0.0,0.0,0.0,0.0,-0.05016295263537021,-0.06160136765483164,-0.35100346285384465,-0.26962542604495776,-0.009882099542537291,0.00815035774830268,-0.46278301513312753
5034,6.0,299.54446,2188.7584,0.0,0.0,0.0,0.0,0.0,-0.050172919444954,-0.13391023142341088,-0.3184336529644547,-0.21298402604738678,-0.009284302045889271,-0.022813909633557578,-0.4772277869687156
5035,6.0,299.98847,1978.8951,0.0,0.0,0.0,0.0,0.0,-0.050182886254537845,-0.14077540615095085,-0.2989241403715157,-0.16183515086688585,-0.0029539041038276373,0.004326073936400256,-0.4765178228886476
5036,6.0,300.27768,2341.6685,0.0,0.0,0.0,0.0,0.0,-0.050192853064121634,-0.12984731130493188,-0.3176078338679527,-0.2643536073646698,0.0038323283084213565,-0.019184001945313583,-0.47171223097687254
5037,6.0,301.35281000000003,2480.5572,0.0,0.0,0.0,0.0,0.0,-0.05020281987370548,-0.14156274200865487,-0.3198800674822047,-0.29258464992835675,0.011538034929215388,-0.026754850651998174,-0.44887471869548556
5038,6.0,300.40193,1958.5792,0.0,0.0,0.0,0.0,0.0,-0.050212786683289296,-0.04573342728528786,-0.2856072577522417,-0.26401849515909676,0.006104843302226124,-0.029727923015917576,-0.44589081874099756
5039,6.0,300.41449,1893.9613,0.0,0.0,0.0,0.0,0.0,-0.05022275349287314,-0.05295536534653765,-0.2933798080768327,-0.22938175639071678,0.02145689113238028,0.015595714518177185,-0.44929408264687354
5040,6.0,300.52465,2484.9036,0.0,0.0,0.0,0.0,0.0,-0.05023272030245696,-0.2002938487474638,-0.3096796483280017,-0.24537513914914078,0.017716332480215882,0.01259992002076529,-0.4173617185278946
5041,6.0,300.98341,2731.2421,0.0,0.0,0.0,0.0,0.0,-0.050242687112040746,-0.23384324856853178,-0.34115684023705867,-0.2552293003466708,-0.017204804312981985,0.02019740707257888,-0.43339380744013856
5042,6.0,299.25335,2363.2386,0.0,0.0,0.0,0.0,0.0,-0.05025265392162456,-0.1197368383621059,-0.3662320039067847,-0.23239669219576775,-0.01901132791627198,-0.014829685283575984,-0.45104052051923355
5043,6.0,299.2031,2195.8561,0.0,0.0,0.0,0.0,0.0,-0.05026262073120841,-0.09131908318924181,-0.3285209832749967,-0.24764537666069575,-0.03634508147673026,0.017633974498837784,-0.4470212512150626
5044,6.0,300.07833,2251.3222,0.0,0.0,0.0,0.0,0.0,-0.050272587540792224,-0.08443757790984012,-0.3221569823119187,-0.2777511852219077,-0.021353450456171482,-0.01023171338354149,-0.4462478374137326
5045,6.0,300.37669,2200.0026,0.0,0.0,0.0,0.0,0.0,-0.05028255435037607,-0.08540428436649661,-0.3283570495413177,-0.25498452952001377,-0.0028001061135489573,-0.025730845915436774,-0.47120200888901753
5046,6.0,299.94194,2138.5019,0.0,0.0,0.0,0.0,0.0,-0.05029252115995986,-0.15662943662312187,-0.28266541780940474,-0.21075632477502976,0.03943904876308106,-0.046158387416978156,-0.44566500582371155
5047,6.0,298.68056,1942.1268,0.0,0.0,0.0,0.0,0.0,-0.0503024879695437,-0.11962787344635188,-0.2887933112341807,-0.18193686761327083,0.039066692523582365,-0.002137652114769838,-0.46153182351214456
5048,6.0,298.66711000000004,1706.056,0.0,0.0,0.0,0.0,0.0,-0.05031245477912749,-0.03126280338664847,-0.3018042936482647,-0.18553134194551782,0.033625021715781266,0.003644323906691767,-0.48693424669916857
5049,6.0,300.03708,2381.8104,0.0,0.0,0.0,0.0,0.0,-0.050322421588711336,-0.1159111099595359,-0.3426539679223137,-0.26544579977996074,-0.031586975530891764,0.010180171377454689,-0.4649876447007076
5050,6.0,300.74309,2963.2833,0.0,0.0,0.0,0.0,0.0,-0.05033238839829515,-0.14749861440697984,-0.41522384187690264,-0.33804168386461664,-0.0033151061822505067,-0.007021856832903313,-0.44368845885364155
5051,6.0,300.33358,2360.2773,0.0,0.0,0.0,0.0,0.0,-0.05034235520787897,-0.10892429455749089,-0.35445704475968665,-0.25408404402364276,-0.025130550959942276,0.02766121401219927,-0.45285694357600054
5052,6.0,300.99987999999996,1994.9212,0.0,0.0,0.0,0.0,0.0,-0.050352322017462786,-0.11526191048796489,-0.3258423451781357,-0.16530198608403585,0.012560302955105388,0.008191098609648492,-0.4325648168708236
5053,6.0,300.04891000000003,2237.8524,0.0,0.0,0.0,0.0,0.0,-0.05036228882704663,-0.12771771290725686,-0.33264783947478566,-0.2198857081760298,-0.024180184174398375,0.016274494813167586,-0.4465901031650115
5054,6.0,300.76375,2367.6655,0.0,0.0,0.0,0.0,0.0,-0.05037225563663042,-0.13203553635339288,-0.3365951781543577,-0.25108048701721475,0.004351828322142016,-0.006170549632785834,-0.44609450227609954
5055,6.0,300.40862999999996,2135.0126,0.0,0.0,0.0,0.0,0.0,-0.050382222446214264,-0.08285392575879583,-0.3281161493300427,-0.23802043290078775,-0.013630265676452487,0.03482919650562407,-0.4683368314487466
5056,6.0,298.7384,1987.9116,0.0,0.0,0.0,0.0,0.0,-0.05039218925579805,-0.07361990705971913,-0.3039067673407627,-0.22674880574086478,0.015960456183174383,0.006780519606860182,-0.44953920811106557
5057,6.0,299.7722,2061.2922,0.0,0.0,0.0,0.0,0.0,-0.0504021560653819,-0.11478809447620289,-0.2819526976890647,-0.2298405560359968,-0.023577159523134477,0.004929199203399085,-0.44503478452651357
5058,6.0,300.03711,2306.9167,0.0,0.0,0.0,0.0,0.0,-0.050412122874965715,-0.18650536913414684,-0.2984447514842037,-0.21629496260415082,0.005958994866932005,-0.045655529630849956,-0.4310669495129956
5059,6.0,299.80143,2866.8109,0.0,0.0,0.0,0.0,0.0,-0.05042208968454956,-0.20439406660212378,-0.36375597529991965,-0.3032888975622837,-0.017467029385861584,0.017861764267068883,-0.44689007585711654
5060,6.0,300.56112,2666.6352,0.0,0.0,0.0,0.0,0.0,-0.050432056494133376,-0.18377201553188582,-0.3407044038024067,-0.2861140955847627,-0.004954646675685555,0.003945749498115156,-0.4324177740163116
5061,6.0,300.61644,1897.7723,0.0,0.0,0.0,0.0,0.0,-0.050442023303717165,-0.050310552577764955,-0.31495035243317965,-0.21161449694722478,-0.017199996441257484,0.013759168314424187,-0.4703470791171425
5062,6.0,299.39769,1922.1104,0.0,0.0,0.0,0.0,0.0,-0.05045199011330098,-0.06794026939968253,-0.28792283820577175,-0.22841046497735779,0.004224602005135756,-0.013969087390641587,-0.4530935070768476
5063,6.0,300.68484,2369.3663,0.0,0.0,0.0,0.0,0.0,-0.050461956922884826,-0.14152153312708787,-0.33149289648080166,-0.24721375238309776,0.015594384120795883,0.02241485222742368,-0.4298965443224856
5064,6.0,300.2207,2034.0351,0.0,0.0,0.0,0.0,0.0,-0.05047192373246864,-0.1082531075587499,-0.3222653494101137,-0.18777744383969083,0.017893305729431784,-0.004159319517092875,-0.4695128500448105
5065,6.0,299.9272,1683.4558,0.0,0.0,0.0,0.0,0.0,-0.05048189054205249,-0.025870756502494874,-0.2919417427399067,-0.19391601692052082,-0.015689263846909784,-0.010691802896198789,-0.4523875352021736
5066,6.0,298.71098,2023.9266,0.0,0.0,0.0,0.0,0.0,-0.05049185735163628,-0.0953321392437996,-0.2991838769021497,-0.22070715003209979,-0.016894820709888982,-0.026979949227963672,-0.47263910150584754
5067,6.0,298.90302,2457.3824,0.0,0.0,0.0,0.0,0.0,-0.05050182416122012,-0.1229906377457309,-0.35812758377694065,-0.2658646773713007,-0.022620610898730478,0.03442996076747257,-0.46830696083579854
5068,6.0,299.07673,2599.6594,0.0,0.0,0.0,0.0,0.0,-0.05051179097080391,-0.14616345475020986,-0.36931514157606665,-0.2747529376460037,-0.007634184741285372,0.016932761859883485,-0.4928718517551645
5069,6.0,299.95014,2595.0683,0.0,0.0,0.0,0.0,0.0,-0.050521757780387755,-0.19745086148438282,-0.34513388740956263,-0.24625121545060277,-0.018094024494741182,-0.0008716118809913951,-0.46051083218138056
5070,6.0,299.65301,1987.5103,0.0,0.0,0.0,0.0,0.0,-0.05053172458997157,-0.11978502853686189,-0.28291083711612575,-0.2014576374148208,0.0004009404503847416,-0.02330782346105308,-0.4456349224282426
5071,6.0,300.06144,1774.2520000000002,0.0,0.0,0.0,0.0,0.0,-0.05054169139955539,-0.046079561625448656,-0.27917282577471275,-0.2140759144876478,0.022535803891860683,0.013543795926168589,-0.43016250220873364
5072,6.0,299.78283,2403.3728,0.0,0.0,0.0,0.0,0.0,-0.050551658209139205,-0.14780936808014886,-0.3151798029183247,-0.26757614798270973,0.007711313237572363,0.012084474628644789,-0.4243503577801196
5073,6.0,300.74532,2507.9967,0.0,0.0,0.0,0.0,0.0,-0.05056162501872305,-0.11702552294951989,-0.32291744677697065,-0.3224254125284107,-0.0027044148754299673,0.0018354004205399183,-0.4162096632966956
5074,6.0,299.67062999999996,1915.2020000000002,0.0,0.0,0.0,0.0,0.0,-0.05057159182830684,-0.08888464444598142,-0.30779463837196575,-0.18549429752186183,-0.014103826349189287,-0.039719856842794665,-0.44851328225231457
5075,6.0,299.95355,2142.9688,0.0,0.0,0.0,0.0,0.0,-0.050581558637890656,-0.14335693435822786,-0.2899556002913897,-0.2180964807519468,0.013652710179417587,0.008790426721897572,-0.4346745049040336
5076,6.0,300.18232,2771.7808,0.0,0.0,0.0,0.0,0.0,-0.05059152544747447,-0.1986936937920408,-0.3694578679851527,-0.27440059005622974,-0.003095130902765637,-0.001121299341638629,-0.45408502296220254
5077,6.0,301.12592,2863.7477,0.0,0.0,0.0,0.0,0.0,-0.05060149225705832,-0.14776638601090686,-0.40388548206539365,-0.3188559249436297,0.01165049961081479,-0.005557671124299434,-0.45068032024118454
5078,6.0,300.59067000000005,2440.738,0.0,0.0,0.0,0.0,0.0,-0.050611459066642134,-0.14669840014050486,-0.3176224246693927,-0.27760257182974074,-0.02012543389147568,-0.01404078699421779,-0.44707413273778157
5079,6.0,300.98135,2046.37,0.0,0.0,0.0,0.0,0.0,-0.05062142587622598,-0.06923191604415813,-0.3131676604722417,-0.23964580765119975,0.004731568115119415,0.039455731925977566,-0.4676283771113276
5080,6.0,301.19206,1719.4814,0.0,0.0,0.0,0.0,0.0,-0.050631392685809795,-0.07711492785490083,-0.2769137948092637,-0.16865069660452783,-0.007764755999521753,0.02884067461885297,-0.4992684996364645
5081,6.0,299.56711,2122.7098,0.0,0.0,0.0,0.0,0.0,-0.050641359495393584,-0.12704191562056089,-0.31783522745539466,-0.2003736421928388,-0.010152245191448589,0.005071047428623415,-0.48731106427885756
5082,6.0,299.62788,2707.6431,0.0,0.0,0.0,0.0,0.0,-0.0506513263049774,-0.16466267593344083,-0.3982283952995826,-0.2601648213187688,0.007231032892822383,-0.038428635763361065,-0.4810568793616175
5083,6.0,299.18317,2065.4313,0.0,0.0,0.0,0.0,0.0,-0.050661293114561246,-0.06794868342851294,-0.32370052698425467,-0.23619034110017176,0.024467692877023276,-0.025939064757986376,-0.45508228397562456
5084,6.0,299.0786,1800.3424,0.0,0.0,0.0,0.0,0.0,-0.05067125992414506,-0.03371872607177917,-0.3178145166233507,-0.1957258842491408,0.02970430415608657,0.007965906105398723,-0.46361491373022956
5085,6.0,299.25527999999997,2638.4012,0.0,0.0,0.0,0.0,0.0,-0.05068122673372888,-0.10521845390675291,-0.37506671391370267,-0.32172291610157966,-0.005101768158405315,-0.013944293160694588,-0.4409776196686026
5086,6.0,300.07795,2922.1107,0.0,0.0,0.0,0.0,0.0,-0.050691193543312696,-0.21556697280480377,-0.35639437895088666,-0.3162873460726307,-0.012555970297677788,0.0016524704766361386,-0.4288473137114346
5087,6.0,300.31575,2400.4478,0.0,0.0,0.0,0.0,0.0,-0.05070116035289654,-0.16435450604802684,-0.32606938412804265,-0.23925231197486477,-0.006189941719824683,0.01756094855088068,-0.44294312221258264
5088,6.0,301.08393,2216.3322,0.0,0.0,0.0,0.0,0.0,-0.05071112716248033,-0.12899712354352488,-0.30127726174125075,-0.24343527183269076,-0.0037890790451279867,0.03725680087695996,-0.4599368665297346
5089,6.0,301.04461000000003,2005.4514,0.0,0.0,0.0,0.0,0.0,-0.050721093972064146,-0.1028338711214129,-0.2756096507380547,-0.23116361748657277,-0.013408791496094686,-0.023028115770948078,-0.4440738991916816
5090,6.0,300.91737,2230.2004,0.0,0.0,0.0,0.0,0.0,-0.05073106078164799,-0.1042932957704469,-0.3275886614604837,-0.2460432863975818,-0.012930572912648187,-0.035464790054852265,-0.4496674247787196
5091,6.0,299.72634,2703.2981,0.0,0.0,0.0,0.0,0.0,-0.05074102759123181,-0.17019313683425485,-0.35505931048662565,-0.2964826635930607,0.032625360312872366,-0.024521398172073577,-0.4587637964914616
5092,6.0,298.64099999999996,2388.8935,0.0,0.0,0.0,0.0,0.0,-0.050750994400815624,-0.1858804876649758,-0.3296750954038987,-0.21060840039293077,0.02865617494789427,0.01201606910114369,-0.45536815222633753
5093,6.0,299.8989,1787.8646,0.0,0.0,0.0,0.0,0.0,-0.05076096121039941,-0.07639829354942453,-0.3085870506126707,-0.15848086747084383,0.00978378114955902,-0.0026320540248385075,-0.48598081888507255
5094,6.0,299.19846,2032.7493,0.0,0.0,0.0,0.0,0.0,-0.05077092801998326,-0.07022116934203984,-0.33577052429547066,-0.2119133449317188,0.001072042518502359,0.004915178557790356,-0.4539708195434316
5095,6.0,299.07957000000005,2673.8018,0.0,0.0,0.0,0.0,0.0,-0.050780894829567075,-0.13214212013141188,-0.3753694021160756,-0.30525744998906473,0.005691228126605484,0.006241674824880344,-0.46102870430749054
5096,6.0,299.508,2375.5883,0.0,0.0,0.0,0.0,0.0,-0.05079086163915089,-0.07920843732376412,-0.34837507182944266,-0.2945360075009407,-0.016208357952640383,0.01097312368046299,-0.4594963661812606
5097,6.0,299.71907999999996,1755.5794,0.0,0.0,0.0,0.0,0.0,-0.050800828448734736,-0.03615951282691607,-0.29667241493928775,-0.20082038416192882,-0.014581878759619384,-0.034917473894086365,-0.46690523064745854
5098,6.0,300.17831,1925.8867,0.0,0.0,0.0,0.0,0.0,-0.05081079525831855,-0.1072838223805889,-0.2872898102057967,-0.19084783482271483,-0.02144672620737708,-0.011227314693299689,-0.4511574394482726
5099,6.0,300.20756,2353.0098,0.0,0.0,0.0,0.0,0.0,-0.05082076206790237,-0.14349947838229585,-0.3219127181103117,-0.24984401792018476,-0.003448287066119437,0.01125467143274959,-0.48007703611741454
5100,6.0,298.98575,2470.0531,0.0,0.0,0.0,0.0,0.0,-0.050830728877486214,-0.16076997169926083,-0.37092944150288565,-0.2191350418394448,0.014088899148716088,0.04901698683759995,-0.5036907587704075
5101,6.0,299.45279,2344.0005,0.0,0.0,0.0,0.0,0.0,-0.05084069568707,-0.11909973709672889,-0.3477538887231367,-0.24566399648764878,-0.007833740194154962,0.0012284588483644488,-0.47423964149630854
5102,6.0,300.23562000000004,1925.5168,0.0,0.0,0.0,0.0,0.0,-0.05085066249665382,-0.06258317761747874,-0.3111142483495857,-0.2116116091844398,0.014541040727588987,0.006848574955126723,-0.46595167111084956
5103,6.0,299.49339,1978.0493,0.0,0.0,0.0,0.0,0.0,-0.05086062930623764,-0.08978175885926971,-0.3014367270419887,-0.21005910738121983,-0.001158208699056299,0.0052027677124731955,-0.4513803646027736
5104,6.0,300.02423999999996,2742.2099,0.0,0.0,0.0,0.0,0.0,-0.05087059611582148,-0.23607442528873177,-0.3341996218704347,-0.26328929959213077,-0.024104191430148476,0.02314970679619818,-0.43860264249421055
5105,6.0,300.63594,2582.4794,0.0,0.0,0.0,0.0,0.0,-0.0508805629254053,-0.15968929993760686,-0.34148499141444466,-0.28383494147232774,-0.02449143231361618,-0.008981787413258403,-0.42651146825590464
5106,6.0,300.05387,1822.8410000000001,0.0,0.0,0.0,0.0,0.0,-0.050890529734989115,-0.08846498969181472,-0.26476471332774276,-0.2008684527466728,-0.037303851145353464,0.01840211635989748,-0.43719047582984055
5107,6.0,300.10778999999997,2257.7889,0.0,0.0,0.0,0.0,0.0,-0.050900496544572904,-0.07785556098899563,-0.3276025531193547,-0.2808533517280677,0.007295654741800063,-0.006028324174549274,-0.4315210679428136
5108,6.0,299.48922999999996,2867.591,0.0,0.0,0.0,0.0,0.0,-0.05091046335415675,-0.17645340125209483,-0.3680974682683916,-0.3271251805997417,0.0009106139849006032,0.011908262330253988,-0.43801921308663055
5109,6.0,299.33517,2618.6346,0.0,0.0,0.0,0.0,0.0,-0.050920430163740565,-0.16168280871435084,-0.3406208815966637,-0.2936958407830227,0.02277743262995758,-0.02954200783456917,-0.4409257919259876
5110,6.0,299.27261,2112.7583,0.0,0.0,0.0,0.0,0.0,-0.05093039697332441,-0.12508437722236687,-0.3219865739101007,-0.1951548367577828,-0.0016434533613462186,0.013044929332184289,-0.4633321156273196
5111,6.0,299.49916,1816.9381,0.0,0.0,0.0,0.0,0.0,-0.0509403637829082,-0.06063513337272174,-0.2778351735226967,-0.2138334944012228,0.013467528591141588,0.022390276859498275,-0.4759055766482235
5112,6.0,300.13376,1961.172,0.0,0.0,0.0,0.0,0.0,-0.050950330592492044,-0.1174806343644359,-0.3200431196882967,-0.15862357361492785,-0.012270508360254888,0.03520214549643126,-0.49748016387246957
5113,6.0,301.28766,2439.501,0.0,0.0,0.0,0.0,0.0,-0.05096029740207586,-0.10171914402389791,-0.36093383059139567,-0.2788944150447357,-0.012684608477373387,-0.017503824549992983,-0.4874158850017025
5114,6.0,299.9218,2395.6062,0.0,0.0,0.0,0.0,0.0,-0.050970264211659705,-0.12971630819950286,-0.3331111278180087,-0.26537704062817474,-0.013785356776508788,-0.003896820258736216,-0.4508070170336886
5115,6.0,300.65112999999997,1948.4015,0.0,0.0,0.0,0.0,0.0,-0.050980231021243494,-0.07179937831354694,-0.31060093584892573,-0.20986509025207178,0.023656881027752374,-0.03224669861800137,-0.43911985600775555
5116,6.0,300.66632999999996,1995.8469,0.0,0.0,0.0,0.0,0.0,-0.05099019783082731,-0.08086402820540822,-0.3173388564964067,-0.2084847295083408,0.00896345224739886,0.00828809643377143,-0.46760075591360156
5117,6.0,299.32425,2727.1763,0.0,0.0,0.0,0.0,0.0,-0.05100016464041113,-0.15513577425320885,-0.37343664781532765,-0.3004210856717527,0.025749816997059076,-0.02086795977675728,-0.4443313153795866
5118,6.0,298.95402,2870.2723,0.0,0.0,0.0,0.0,0.0,-0.05101013144999497,-0.18944266971653584,-0.3790374282730816,-0.30401102064355173,-0.02147863851927658,0.016304116166590985,-0.4573298044199376
5119,6.0,299.16916000000003,2263.1316,0.0,0.0,0.0,0.0,0.0,-0.05102009825957879,-0.09123435116287941,-0.34733250840404967,-0.24936863137076776,0.01264365493483159,0.018723355145101282,-0.46262584991011657
5120,6.0,299.3367,2025.3670000000002,0.0,0.0,0.0,0.0,0.0,-0.05103006506916263,-0.12089829655423288,-0.3012487387509357,-0.1935139694133418,-0.01927297543659458,0.03746702190170717,-0.47722480801342154
5121,6.0,299.69694,2207.4129,0.0,0.0,0.0,0.0,0.0,-0.051040031878746395,-0.17806111505326383,-0.28431758289246073,-0.20861970455416182,-0.008981996750729061,-0.023449164757252377,-0.43210008971245856
5122,6.0,300.0185,2328.9499,0.0,0.0,0.0,0.0,0.0,-0.05104999868833024,-0.15802732659358287,-0.3086141955828497,-0.24130109354456378,-0.03350618774405326,-0.029245680816323973,-0.4460162692358786
5123,6.0,299.39255,2382.5459,0.0,0.0,0.0,0.0,0.0,-0.051059965497914056,-0.12150472673908289,-0.34300804816975866,-0.25972166625503273,0.005960813954836534,-0.02038635693797678,-0.4587681737318936
5124,6.0,300.31066,2396.4627,0.0,0.0,0.0,0.0,0.0,-0.0510699323074979,-0.1174732781687099,-0.33860519277523066,-0.27238635018243973,-0.0008538006566260642,0.025103918694313873,-0.44990938890259957
5125,6.0,300.05363,2219.7296,0.0,0.0,0.0,0.0,0.0,-0.05107989911708172,-0.06987482120610794,-0.3503922906585267,-0.25447527001975373,0.027685400292086274,-0.011769106614520387,-0.47175872902396154
5126,6.0,298.97042999999996,2446.9022,0.0,0.0,0.0,0.0,0.0,-0.051089865926665534,-0.15533327696270086,-0.35522197765767966,-0.23324192516418576,0.022016673309126482,0.01938457784235888,-0.4418191137441516
5127,6.0,299.32712999999995,2796.3538,0.0,0.0,0.0,0.0,0.0,-0.05109983273624932,-0.1890184218996658,-0.3654724817643257,-0.2955308164491207,0.019649928791796983,0.005540329855462984,-0.4372815771463316
5128,6.0,299.76956,2352.4949,0.0,0.0,0.0,0.0,0.0,-0.05110979954583317,-0.11933637152508288,-0.35994139264844965,-0.23582195376131476,-0.0005924424394720164,0.008457298358695362,-0.45557641565189155
5129,6.0,298.8512,1732.5233,0.0,0.0,0.0,0.0,0.0,-0.051119766355416985,-0.025029272559446876,-0.31517689489053774,-0.18643767389496582,-0.023645107061590377,-0.04218757679883966,-0.48651674712796456
5130,6.0,298.325,2126.1669,0.0,0.0,0.0,0.0,0.0,-0.05112973316500083,-0.08458896254103063,-0.3082179641312447,-0.25349471750048075,-0.014142671318272987,-0.01020842281674289,-0.4652331248024345
5131,6.0,299.01441,2418.8781,0.0,0.0,0.0,0.0,0.0,-0.05113969997458462,-0.12049592480702188,-0.35506054665174763,-0.25972207155507276,-0.004562983056856366,0.018047471732146783,-0.5040165693400626
5132,6.0,299.5579,2137.3573,0.0,0.0,0.0,0.0,0.0,-0.05114966678416846,-0.13947172817478787,-0.33091164556093666,-0.17931987565249383,0.005857652327705275,0.05831607544484854,-0.4911930179294765
5133,6.0,300.33819,2092.5474,0.0,0.0,0.0,0.0,0.0,-0.05115963359375228,-0.10934778243678589,-0.3196046357075217,-0.2071297304146128,0.018029424734615683,0.0027276111086442577,-0.48691396143216653
5134,6.0,299.5474,2269.9592,0.0,0.0,0.0,0.0,0.0,-0.051169600403336124,-0.12966943524987687,-0.31749678165699274,-0.24284470914440678,0.0005985751762322704,-0.007702937712245762,-0.45171331858563357
5135,6.0,299.39231,2507.9505,0.0,0.0,0.0,0.0,0.0,-0.05117956721291991,-0.1097535992343369,-0.35283873236247165,-0.2997619968792057,0.00025104877228908476,-0.012980239392799886,-0.45334323269649357
5136,6.0,299.78981,2677.3594,0.0,0.0,0.0,0.0,0.0,-0.05118953402250373,-0.12178962226969989,-0.36114524522476066,-0.3309155263088197,-0.008280175959064742,-0.001180991931529829,-0.43885158791127954
5137,6.0,299.98398,2442.613,0.0,0.0,0.0,0.0,0.0,-0.05119950083208755,-0.13080815610975988,-0.33052436110771466,-0.28116085286841574,-0.006166193265305894,-0.03052139004997667,-0.4280415367019106
5138,6.0,300.65061000000003,2050.5712,0.0,0.0,0.0,0.0,0.0,-0.05120946764167139,-0.14565559353508786,-0.28139785206680573,-0.1962689761702398,0.02266834004469098,-0.012050862083077488,-0.4303548981377216
5139,6.0,300.56003,2214.2523,0.0,0.0,0.0,0.0,0.0,-0.05121943445125521,-0.15253212679624886,-0.3091785454910467,-0.21136675729777482,0.024211066010946178,0.008926944339670811,-0.4446808056040786
5140,6.0,299.1232,2612.0568,0.0,0.0,0.0,0.0,0.0,-0.05122940126083905,-0.18457544180117783,-0.3395977725731907,-0.26982682976733474,0.023131911084691877,0.007085246873734423,-0.4517213637914275
5141,6.0,299.7191,2358.7318,0.0,0.0,0.0,0.0,0.0,-0.051239368070422814,-0.09410137879783301,-0.34246588843875164,-0.2804283237086207,-0.023231149812735975,-0.030166749475226372,-0.47119392315321956
5142,6.0,299.52232000000004,2001.6662,0.0,0.0,0.0,0.0,0.0,-0.05124933488000666,-0.05169243522314615,-0.3208984040977067,-0.23586571603313378,-0.018558403095071785,-0.012279034859846386,-0.4853217199600245
5143,6.0,300.0027,2173.8733,0.0,0.0,0.0,0.0,0.0,-0.051259301689590475,-0.1078142790729409,-0.3122531921244907,-0.24073574051876778,-0.0038662111891153363,0.01770774113261798,-0.4750795650342025
5144,6.0,300.40822000000003,2400.4999,0.0,0.0,0.0,0.0,0.0,-0.05126926849917432,-0.16514641166368182,-0.3461539364177337,-0.21839169116858181,-0.01113399841209009,0.038815024503494666,-0.4880417290584685
5145,6.0,300.62953999999996,2289.0189,0.0,0.0,0.0,0.0,0.0,-0.051279235308758137,-0.12102621937935788,-0.34195960789378566,-0.23281876152492276,-0.00099170243483091,0.002952312895870597,-0.48715357481581456
5146,6.0,299.89747,2236.1028,0.0,0.0,0.0,0.0,0.0,-0.05128920211834195,-0.12344184814776188,-0.3229288965031007,-0.2333486811947218,0.006441690293295334,-0.02451977798516368,-0.4526006115657026
5147,6.0,300.96393,2217.952,0.0,0.0,0.0,0.0,0.0,-0.05129916892792574,-0.05320608901753215,-0.33748742592741565,-0.28350852295261275,0.029729641488087172,-0.017759255780952086,-0.4579129298524876
5148,6.0,300.80078,2056.2345,0.0,0.0,0.0,0.0,0.0,-0.05130913573750959,-0.03720259300986007,-0.3266967784574617,-0.26114456323796176,0.035504702989541365,-0.02062824000184878,-0.4553963611091215
5149,6.0,300.94509,2349.0476,0.0,0.0,0.0,0.0,0.0,-0.051319102547093404,-0.11540812247739488,-0.3335637365051777,-0.26507995569885473,0.01018585469726559,-0.005239592362182505,-0.4356715430024336
5150,6.0,300.59582,2313.6463,0.0,0.0,0.0,0.0,0.0,-0.05132906935667725,-0.15442604322066383,-0.3265645594519127,-0.22230009064681078,-0.0012934325991018588,-0.008946077642634121,-0.4636923057728675
5151,6.0,301.41316,2186.6656,0.0,0.0,0.0,0.0,0.0,-0.05133903616626104,-0.13809658566907188,-0.3216975949815807,-0.2048975607093148,-0.011099832631968188,0.04256496889133536,-0.47150395741881757
5152,6.0,301.46182999999996,2459.5254,0.0,0.0,0.0,0.0,0.0,-0.05134900297584488,-0.18520133652044884,-0.3219467126511667,-0.24048625807914578,-0.012238054972801988,0.014546930750420288,-0.4824417085382896
5153,6.0,300.91208,2811.6684,0.0,0.0,0.0,0.0,0.0,-0.0513589697854287,-0.16255504479793384,-0.36091535904207267,-0.3312065722675437,-0.03992850125038626,-0.013298157757425988,-0.4521493302361646
5154,6.0,300.09499,2476.5455,0.0,0.0,0.0,0.0,0.0,-0.05136893659501254,-0.12054293961166188,-0.3392172667631377,-0.29304778628406475,-0.034425897634571566,-0.011381757313291989,-0.46659341306168456
5155,6.0,300.09732,2266.5358,0.0,0.0,0.0,0.0,0.0,-0.05137890340459633,-0.1266807527549169,-0.3083939960711177,-0.25389555924004076,0.01102560598264259,0.03133104375438327,-0.43301091035984957
5156,6.0,300.10378,2359.7999,0.0,0.0,0.0,0.0,0.0,-0.05138887021418015,-0.17015668009565685,-0.3180934947733837,-0.22907006039495478,0.024788680376202275,0.02338595011001358,-0.46160531454189757
5157,6.0,300.38967,2200.3271,0.0,0.0,0.0,0.0,0.0,-0.051398837023763966,-0.13725987413399487,-0.3037460557424017,-0.2278385866209178,0.0012817979548286089,-0.0005718661467762944,-0.4289728250013216
5158,6.0,300.40737,2208.3865,0.0,0.0,0.0,0.0,0.0,-0.05140880383334781,-0.12086523420346988,-0.3312225816191237,-0.2192065468990018,-0.004888118396644725,-0.03080671519863607,-0.45801363677992657
5159,6.0,299.98174,2482.7875,0.0,0.0,0.0,0.0,0.0,-0.05141877064293163,-0.07332221012733872,-0.3571584100562907,-0.3242247927184957,-0.01065807078711969,0.01849341931315838,-0.45460754590627156
5160,6.0,299.65184,2332.0173,0.0,0.0,0.0,0.0,0.0,-0.05142873745251547,-0.08237854123587901,-0.34567381799034963,-0.28082268064754073,0.0043568031774829956,-0.014991953234090588,-0.4741787856953026
5161,6.0,300.65642,2246.8406,0.0,0.0,0.0,0.0,0.0,-0.05143870426209923,-0.07804980001991553,-0.3563215465336987,-0.24861208818360275,-0.01343715641939409,-0.006713002497046764,-0.47867120226616955
5162,6.0,300.60755,2426.5461,0.0,0.0,0.0,0.0,0.0,-0.05144867107168308,-0.15710037500459986,-0.3433900839874626,-0.23711894428681776,-0.0023657400825053674,-0.008790401086670042,-0.4854496123876465
5163,6.0,301.62138999999996,2328.4302,0.0,0.0,0.0,0.0,0.0,-0.051458637881266894,-0.13570180958772587,-0.3388360922080187,-0.23324674823466177,0.018100343122364783,0.027965127233943177,-0.4873428803319976
5164,6.0,300.79624,2003.3711,0.0,0.0,0.0,0.0,0.0,-0.05146860469085074,-0.0998700132539029,-0.3284021999657737,-0.18070257700395584,0.032680069738771765,0.02083008854101968,-0.49978357519229855
5165,6.0,300.38661,2202.617,0.0,0.0,0.0,0.0,0.0,-0.051478571500434556,-0.05735797958754185,-0.33874727070425265,-0.2734353072159637,-0.0014045176393650987,0.024763732132240077,-0.4759396623815876
5166,6.0,300.42379,2458.2336,0.0,0.0,0.0,0.0,0.0,-0.05148853831001837,-0.12791719145444388,-0.35387982657521966,-0.2654446142773437,0.022807331613908376,-0.012288354734266187,-0.4412572260336976
5167,6.0,300.59937,2309.6893,0.0,0.0,0.0,0.0,0.0,-0.05149850511960216,-0.1014844753007379,-0.34981869990941766,-0.25078468891552175,-0.014374141210867285,0.0050922239504133755,-0.44917143885476957
5168,6.0,298.89087,2374.2268,0.0,0.0,0.0,0.0,0.0,-0.051508471929186006,-0.15125513782771988,-0.3353443006409057,-0.23510621415567678,0.0011720617530984888,-0.02090346710001158,-0.43531795924753763
5169,6.0,299.37807000000004,2824.2064,0.0,0.0,0.0,0.0,0.0,-0.05151843873876982,-0.19206493057783283,-0.38853931280834464,-0.27788396151501177,-0.04049738443953066,-0.013293455263711888,-0.43528803797208454
5170,6.0,299.4637,2616.5826,0.0,0.0,0.0,0.0,0.0,-0.05152840554835367,-0.17263575858532285,-0.3427847683777227,-0.2799552473694317,-0.008294378787041451,-0.006762693903150923,-0.45304146655171157
5171,6.0,300.76704,2413.3879,0.0,0.0,0.0,0.0,0.0,-0.051538372357937456,-0.08647051326122522,-0.35139811363529366,-0.29574103544736774,0.004826233437512155,0.03250412291190717,-0.4548049168932506
5172,6.0,300.62037000000004,2422.7531,0.0,0.0,0.0,0.0,0.0,-0.0515483391675213,-0.14637842589142586,-0.3365816917955267,-0.25349634883314176,0.012340699234432187,-0.0016565257061863584,-0.45857617297044456
5173,6.0,300.17906,2154.8239,0.0,0.0,0.0,0.0,0.0,-0.05155830597710512,-0.10842800465851091,-0.2862973519978487,-0.26028731312335773,0.009585737364513621,-0.008779579271627012,-0.4415305401156716
5174,6.0,300.1143,2084.0767,0.0,0.0,0.0,0.0,0.0,-0.05156827278668896,-0.1257583709238849,-0.3283184345800067,-0.17943048203340983,0.026549487148230373,-0.030860251280919675,-0.4595335929899345
5175,6.0,300.06658,2255.1728,0.0,0.0,0.0,0.0,0.0,-0.05157823959627275,-0.13871585373268888,-0.3072156267348217,-0.23958473906767278,0.014259392663542488,0.018023768772557482,-0.45363024591981954
5176,6.0,298.49785,2224.572,0.0,0.0,0.0,0.0,0.0,-0.05158820640585657,-0.10311708465686391,-0.3265541027108807,-0.2465431429369138,0.004731802986492595,-0.016383952168470186,-0.4881151288957125
5177,6.0,298.40002999999996,2178.2491,0.0,0.0,0.0,0.0,0.0,-0.051598173215440385,-0.05054950430909765,-0.3692464128217836,-0.24233741534934075,-0.04239107389592326,0.004902750538688805,-0.5005432695872745
5178,6.0,298.8053,2425.4817,0.0,0.0,0.0,0.0,0.0,-0.05160814002502423,-0.13809371817128885,-0.3400451224923407,-0.2591470318583208,-0.016871329519570582,-0.01081809337541269,-0.4711197937759036
5179,6.0,299.63791000000003,2472.8921,0.0,0.0,0.0,0.0,0.0,-0.051618106834608046,-0.1099935773880209,-0.38124200717815665,-0.2604618859830868,0.0070276825143532635,0.01919110685501478,-0.48175545451056156
5180,6.0,299.2456,2096.1794,0.0,0.0,0.0,0.0,0.0,-0.05162807364419189,-0.1018958143113339,-0.3311172644037297,-0.2041731172853178,0.023757640644196578,-0.014399407615360885,-0.46256232926134755
5181,6.0,299.53816,2048.8889,0.0,0.0,0.0,0.0,0.0,-0.05163804045377565,-0.07980525379166532,-0.31017513775940275,-0.23283068747859978,0.000983119932906383,-0.007200855974369154,-0.46195541271644963
5182,6.0,300.02107,2250.8341,0.0,0.0,0.0,0.0,0.0,-0.0516480072633595,-0.09494656009049592,-0.3470649799801467,-0.24218581286937876,0.006405018644351124,-0.014656521854736088,-0.47372109049263156
5183,6.0,300.22505,2147.1664,0.0,0.0,0.0,0.0,0.0,-0.05165797407294331,-0.06676483342242603,-0.3216519277995737,-0.26426822077874274,-0.0037944120843793165,0.019570672368974983,-0.48465037084126755
5184,6.0,300.10572,2186.3347,0.0,0.0,0.0,0.0,0.0,-0.05166794088252716,-0.14709955598759586,-0.3101576794601797,-0.2073339104422638,0.014623745240501286,-0.0035743397355348667,-0.4902857335249345
5185,6.0,299.5865,2484.9811,0.0,0.0,0.0,0.0,0.0,-0.051677907692110975,-0.15292974640049084,-0.3259492126661827,-0.27649324535525877,-0.009151554529088111,-0.0017113311881952382,-0.4520581782571686
5186,6.0,299.99835,2457.4058,0.0,0.0,0.0,0.0,0.0,-0.05168787450169479,-0.2114567035091518,-0.2907857864958227,-0.24474750163969775,0.012838024675014386,-0.012743361784421887,-0.42750459520891854
5187,6.0,300.17781,2533.5406,0.0,0.0,0.0,0.0,0.0,-0.05169784131127858,-0.11711083860793987,-0.35686897516522564,-0.2961532762505527,0.015267722421056885,0.032770629979709365,-0.4374669411196256
5188,6.0,300.63437000000005,2707.2473,0.0,0.0,0.0,0.0,0.0,-0.051707808120862425,-0.15493989274387684,-0.3462563861353447,-0.3217393003556967,0.008854648539735773,0.013316530008239185,-0.46087570354239055
5189,6.0,299.78459,2370.5206,0.0,0.0,0.0,0.0,0.0,-0.05171777493044624,-0.11191246029489989,-0.3201520339415457,-0.28851456613167076,-0.025181517439972274,0.005385094772567474,-0.44846481850003156
5190,6.0,300.24172999999996,2125.2067,0.0,0.0,0.0,0.0,0.0,-0.05172774174003006,-0.13430799288266687,-0.33446877149449766,-0.17723300601153585,-0.03036844704013237,0.012807707218772288,-0.4811489635307055
5191,6.0,299.36559,2286.0493,0.0,0.0,0.0,0.0,0.0,-0.051737708549613876,-0.11804141763228089,-0.3211321203657727,-0.25572835641842373,0.0015306728496906484,0.023389007085565277,-0.4429917176873786
5192,6.0,299.61179,2288.1577,0.0,0.0,0.0,0.0,0.0,-0.05174767535919772,-0.16694682536886885,-0.3422767957050897,-0.1863191945607728,0.009709559465158911,-0.015263491088639287,-0.45299730911235353
5193,6.0,299.34655,1997.2141,0.0,0.0,0.0,0.0,0.0,-0.05175764216878154,-0.03172577660909037,-0.3229714834048037,-0.2524059498705278,-0.0014465819066665185,-0.03375768452487407,-0.4689648742582296
5194,6.0,300.55127000000005,2114.9344,0.0,0.0,0.0,0.0,0.0,-0.051767608978365326,-0.07450993784155834,-0.3165979680232867,-0.2517793458761868,0.024111066332076977,-0.020623746237655283,-0.4879669309360865
5195,6.0,299.8658,2294.383,0.0,0.0,0.0,0.0,0.0,-0.05177757578794917,-0.08569312853275332,-0.34535847429422767,-0.2663835222175068,0.024864931499227676,0.027395252072950873,-0.5005249804229696
5196,6.0,300.33682999999996,2388.9382,0.0,0.0,0.0,0.0,0.0,-0.05178754259753299,-0.16045522582069785,-0.3367967338642497,-0.22892561146069879,0.014412247520628085,0.024901715517607975,-0.5091557839797635
5197,6.0,299.6125,2497.6315,0.0,0.0,0.0,0.0,0.0,-0.051797509407116804,-0.15689894088471987,-0.35404300037132364,-0.24827565875289975,0.0005338957847814115,0.0013479651115337987,-0.4782409458762066
5198,6.0,299.47959,2419.8161,0.0,0.0,0.0,0.0,0.0,-0.05180747621670062,-0.19872719184034682,-0.3299957586630457,-0.2068407109560888,-0.016535515131678287,0.0008165415962013811,-0.44373714552094656
5199,6.0,298.61187,2068.2835,0.0,0.0,0.0,0.0,0.0,-0.051817443026284465,-0.03713037360898257,-0.3206121305469537,-0.2709640510170698,-0.007961509714539832,-0.005899039642614884,-0.42808425532612654
5200,6.0,299.01366,2049.1705,0.0,0.0,0.0,0.0,0.0,-0.05182740983586828,-0.047607607624255054,-0.3439378672565247,-0.23135119034508478,-0.017204480072949984,-0.02031385281382118,-0.46004027883494053
5201,6.0,298.39316,2384.4004,0.0,0.0,0.0,0.0,0.0,-0.05183737664545207,-0.1110167066764959,-0.3261716210631327,-0.2876098553823827,-0.027367005699913172,-0.03187497160681477,-0.43510639262665757
5202,6.0,299.55257,2467.3638,0.0,0.0,0.0,0.0,0.0,-0.051847343455035916,-0.17378612168885485,-0.33879709221166965,-0.23743378135788976,-0.021534921522581275,0.0009740266414739449,-0.4564720476802836
5203,6.0,299.56732,2318.7793,0.0,0.0,0.0,0.0,0.0,-0.05185731026461973,-0.16126021249514386,-0.34372718216323167,-0.19986360249000182,0.016169249538530685,0.03353454861435227,-0.4685198142843055
5204,6.0,300.43026000000003,2550.8155,0.0,0.0,0.0,0.0,0.0,-0.05186727707420355,-0.19902734691746982,-0.32594473410074065,-0.25041214725125477,0.025780158771303577,0.01034990900770649,-0.4497532977246946
5205,6.0,300.28645,2683.4624,0.0,0.0,0.0,0.0,0.0,-0.051877243883787394,-0.14070115518362286,-0.37080028251263863,-0.3042041258476097,0.02103815032980378,-0.042754226784763656,-0.45431714842761156
5206,6.0,300.40934,2489.955,0.0,0.0,0.0,0.0,0.0,-0.05188721069337121,-0.14654654434801787,-0.3328029376675927,-0.2775346638080387,0.004097580161999676,-0.02055583720270318,-0.4336198838024506
5207,6.0,299.40958,2392.2038,0.0,0.0,0.0,0.0,0.0,-0.051897177502955,-0.13332639671579086,-0.3123740424639177,-0.2814697826914047,-0.005001839001743075,-0.005963366433163444,-0.4616534844516516
5208,6.0,300.18492000000003,2300.5456,0.0,0.0,0.0,0.0,0.0,-0.05190714431253882,-0.14183185110271387,-0.3409119883503937,-0.2165645985882618,-0.04713879098848646,-0.0003062411030536437,-0.4695270456787115
5209,6.0,299.54282,2049.9226,0.0,0.0,0.0,0.0,0.0,-0.05191711112212266,-0.12307868917942089,-0.31652497348608266,-0.18352162116717383,-0.038933227220410364,-0.025732449890345076,-0.4979963641359146
5210,6.0,300.18716,2213.8385,0.0,0.0,0.0,0.0,0.0,-0.05192707793170648,-0.12216772667701589,-0.33531874647338367,-0.2154651513022548,-0.01933443817441048,0.0043224606865436555,-0.46052927333320054
5211,6.0,300.04122,2445.3149,0.0,0.0,0.0,0.0,0.0,-0.051937044741290295,-0.08206277704096551,-0.37597270135811667,-0.2852791977673647,0.008010863708360693,-0.0007922620365101752,-0.47863082424968456
5212,6.0,299.04742999999996,2139.1335,0.0,0.0,0.0,0.0,0.0,-0.05194701155087411,-0.05714157773718465,-0.35281930835805464,-0.24028229083401578,0.004429937441875785,0.006730545098678083,-0.45823205297148256
5213,6.0,299.49944,2129.5473,0.0,0.0,0.0,0.0,0.0,-0.051956978360457956,-0.05526332413281545,-0.3519535874726147,-0.24011229786473876,0.015519919357696785,-0.009945983644117161,-0.48481150800467054
5214,6.0,300.92832000000004,2658.8489,0.0,0.0,0.0,0.0,0.0,-0.051966945170041745,-0.2041705233650618,-0.35160755243096364,-0.25244558821443974,0.009348716583896492,0.033367441381360066,-0.4708651032307675
5215,6.0,299.25825,2582.2899,0.0,0.0,0.0,0.0,0.0,-0.05197691197962559,-0.2002285853085228,-0.34100876386744466,-0.24371429051272778,0.005830884995838545,0.03793959161584616,-0.4775351867840535
5216,6.0,299.51787,2248.2838,0.0,0.0,0.0,0.0,0.0,-0.05198687878920938,-0.1198155881598779,-0.3479815457556047,-0.2156250016380308,-0.020588513505178083,0.01230219978363259,-0.49192276065149654
5217,6.0,300.80001,2315.6698,0.0,0.0,0.0,0.0,0.0,-0.05199684559879322,-0.08100437145025902,-0.3197806169848897,-0.30312078923819274,-0.0049988050269686455,-0.036468765876686966,-0.4596166085706275
5218,6.0,301.17078,2321.3758,0.0,0.0,0.0,0.0,0.0,-0.05200681240837704,-0.11757958836920189,-0.3158643850833877,-0.27219628472868174,0.006872599418972753,-0.00898224408507847,-0.4429925586849615
5219,6.0,300.81632,2349.6108,0.0,0.0,0.0,0.0,0.0,-0.052016779217960885,-0.10678373279373389,-0.3185213193631067,-0.2889179409964807,0.034680542583453065,-0.02220873891858188,-0.4448573543015026
5220,6.0,300.52902,2465.6714,0.0,0.0,0.0,0.0,0.0,-0.0520267460275447,-0.17614102637876583,-0.3381381959366417,-0.23522331546973377,0.007879834157104082,0.012323684738752987,-0.44373331543556854
5221,6.0,298.97179,2206.9991,0.0,0.0,0.0,0.0,0.0,-0.05203671283712849,-0.1392322769111559,-0.32264911788548867,-0.20899122283582783,-0.03956028819054646,-0.009450718748938321,-0.46542952306931756
5222,6.0,300.8316,2223.0209,0.0,0.0,0.0,0.0,0.0,-0.05204667964671231,-0.1071553321354079,-0.3234546010524837,-0.24513291158023476,-0.02004797700083128,0.03818040570086267,-0.4631729239041085
5223,6.0,300.12656,2499.4525,0.0,0.0,0.0,0.0,0.0,-0.05205664645629615,-0.1038334828750669,-0.35364236128178367,-0.30229529438172276,-0.006055523860233675,0.019863331421858182,-0.4478007951794976
5224,6.0,299.28206,2623.9127,0.0,0.0,0.0,0.0,0.0,-0.05206661326587997,-0.14233131247450687,-0.3547108031147307,-0.3005618159781417,-0.024897992836740577,0.01871656636943128,-0.4423005392641646
5225,6.0,299.71121,2417.8551,0.0,0.0,0.0,0.0,0.0,-0.05207658007546381,-0.10995575276178789,-0.3382911055092327,-0.28672071828713175,-0.0074911280126667736,-0.025386358106688475,-0.45994541836057856
5226,6.0,301.03292000000005,2274.3127,0.0,0.0,0.0,0.0,0.0,-0.052086546885047574,-0.16187082740290684,-0.3174783303726717,-0.21198512356880278,-0.011003935602753888,0.013026196364335487,-0.47136541573264457
5227,6.0,301.26072999999997,2498.8236,0.0,0.0,0.0,0.0,0.0,-0.05209651369463142,-0.18561015253829583,-0.3254901698408787,-0.24847966652803374,0.03497263320303017,0.0025859572247891073,-0.4735825792039616
5228,6.0,301.72407000000004,2307.4021,0.0,0.0,0.0,0.0,0.0,-0.052106480504215236,-0.11955225459138888,-0.3367318351953447,-0.24510854291532977,0.00998429878472357,0.012922566210357988,-0.5033818998749254
5229,6.0,299.9019,1974.9616,0.0,0.0,0.0,0.0,0.0,-0.05211644731379908,-0.04539214641310605,-0.3188210286101857,-0.23612581733380378,0.038169573044043566,-0.03211433674418827,-0.4956336776852356
5230,6.0,300.33681,2123.3329,0.0,0.0,0.0,0.0,0.0,-0.0521264141233829,-0.07304127741786283,-0.30978243241814574,-0.2626164609957268,-0.004193369888028386,-0.009357248048413482,-0.47582523604779453
5231,6.0,300.14409,2129.6706,0.0,0.0,0.0,0.0,0.0,-0.052136380932966714,-0.08469127648312821,-0.33209519260524367,-0.2305802184764958,0.00995423474233148,-0.003596816763828177,-0.4776014736055955
5232,6.0,299.21258,2177.9553,0.0,0.0,0.0,0.0,0.0,-0.05214634774255053,-0.12373379589907489,-0.33147568136160266,-0.2068345706604828,-0.030623936026347175,-0.002164515908046088,-0.4799378662161795
5233,6.0,299.87859,2632.2945,0.0,0.0,0.0,0.0,0.0,-0.052156314552134375,-0.18198353791287683,-0.36162755227236065,-0.25654071955359775,-0.025709114740542077,-0.02297076277553778,-0.4599701416630186
5234,6.0,299.32561,2544.7635,0.0,0.0,0.0,0.0,0.0,-0.052166281361718164,-0.12127959269936389,-0.36722130077442067,-0.28504366778161977,0.004129931109867466,0.024260868266611276,-0.45840410283846256
5235,6.0,299.55685,2232.1112,0.0,0.0,0.0,0.0,0.0,-0.05217624817130201,-0.10135585333304391,-0.30259865132916175,-0.27455154405612775,0.03038073877709547,0.03650858559236687,-0.42870988660037157
5236,6.0,301.14127,2400.9337,0.0,0.0,0.0,0.0,0.0,-0.0521862149808858,-0.12542745357372587,-0.3235969018965277,-0.28079952788275575,0.01959921765079218,0.038970567513095564,-0.4536010136544346
5237,6.0,300.23753999999997,2508.1077,0.0,0.0,0.0,0.0,0.0,-0.05219618179046964,-0.18131721451461583,-0.3393910898177927,-0.24169378875331982,0.004337671597044856,-0.02891340571103097,-0.45394500193088355
5238,6.0,300.37177,2426.3935,0.0,0.0,0.0,0.0,0.0,-0.05220614860005346,-0.1992350733204708,-0.3170727466226437,-0.2212552170111898,0.007154192362213813,-0.006480462713671874,-0.4619045779589325
5239,6.0,300.47763,2435.2805,0.0,0.0,0.0,0.0,0.0,-0.052216115409637304,-0.17628910274837983,-0.3445519373471287,-0.2194234330829068,0.015608376091426786,-0.017148811099205883,-0.4775397261445016
5240,6.0,299.67416000000003,2407.1047,0.0,0.0,0.0,0.0,0.0,-0.05222608221922112,-0.13402885261261788,-0.32789103555532567,-0.26977982509519577,0.0013605282981986888,-0.023946490197834576,-0.4729774459792396
5241,6.0,299.91919,2331.6294,0.0,0.0,0.0,0.0,0.0,-0.05223604902880491,-0.0986204489125805,-0.33648482508596667,-0.27365183876233373,-0.0065887210901311435,-0.05778819139450045,-0.48016992075408155
5242,6.0,300.15031,2517.4427,0.0,0.0,0.0,0.0,0.0,-0.052246015838388726,-0.12337896584655589,-0.37553532181995064,-0.26632543258927377,-0.014816230335498087,0.003506291581344036,-0.46718082454215754
5243,6.0,299.3211,2648.5299,0.0,0.0,0.0,0.0,0.0,-0.05225598264797257,-0.16817731629030883,-0.3681311993642206,-0.2687784300213657,0.0024034491982269676,0.024162793762932077,-0.45397698010403964
5244,6.0,300.21089,2278.2795,0.0,0.0,0.0,0.0,0.0,-0.05226594945755639,-0.15227693975856385,-0.33991382554438265,-0.20034930392543682,-0.02947556598576187,0.020766649965508782,-0.4585156312769696
5245,6.0,298.94279,2025.7924,0.0,0.0,0.0,0.0,0.0,-0.05227591626714023,-0.05811092168385144,-0.35121973095518866,-0.20645964785848078,-0.006178674277387675,-0.012463506159802289,-0.48418931164826456
5246,6.0,298.73037999999997,2315.8532,0.0,0.0,0.0,0.0,0.0,-0.052285883076723993,-0.0922554205139011,-0.34361096237676164,-0.2680951752139337,-0.006214052917879274,0.01054822941002919,-0.46801982602246056
5247,6.0,298.78461,2386.5986,0.0,0.0,0.0,0.0,0.0,-0.05229584988630784,-0.1042823628018679,-0.3653056197378577,-0.25587837822822973,0.02322407226078748,-0.003007289718471387,-0.4892085270786225
5248,6.0,299.38321,2174.9838,0.0,0.0,0.0,0.0,0.0,-0.052305816695891655,-0.1032988819898059,-0.3255494855017327,-0.23229238823047377,0.013224189486875886,0.0036719324387915167,-0.49375418994224457
5249,6.0,299.45705,2213.6363,0.0,0.0,0.0,0.0,0.0,-0.0523157835054755,-0.15030855958429987,-0.3179404636107807,-0.2046411273740068,-0.013668938393019185,-0.019346623520113085,-0.4656736251509086
5250,6.0,300.08487,2370.7435,0.0,0.0,0.0,0.0,0.0,-0.052325750315059316,-0.16349336505303885,-0.35144064987449164,-0.2057128014747728,0.005956602279470874,0.009541675778615082,-0.4664720763622095
5251,6.0,299.33943999999997,2400.8678,0.0,0.0,0.0,0.0,0.0,-0.05233571712464313,-0.13239870545423488,-0.33785510399120267,-0.2595500419530947,-0.02057711444155308,0.014146698987420487,-0.46053346818861457
5252,6.0,299.6141,2586.7728,0.0,0.0,0.0,0.0,0.0,-0.05234568393422695,-0.12425021907754188,-0.3539233659320167,-0.3081407443411237,0.0008560413376322022,0.02216025287479668,-0.4703237946298445
5253,6.0,300.34985,2389.0421,0.0,0.0,0.0,0.0,0.0,-0.052355650743810794,-0.11164088900309789,-0.3246825487161727,-0.28988571643199273,-0.037862965590283765,-0.020213788286945582,-0.4277073262889266
5254,6.0,300.78381,2075.4383,0.0,0.0,0.0,0.0,0.0,-0.05236561755339458,-0.08613166216278323,-0.3044742177942657,-0.24027554258834977,-0.0054456957411733245,0.0037172105327601163,-0.4519814042970916
5255,6.0,299.77727999999996,2405.8777,0.0,0.0,0.0,0.0,0.0,-0.05237558436297843,-0.17844466061361683,-0.3401276111829817,-0.2127544742372318,-0.02040965257102588,0.012929536357795887,-0.4500395003479406
5256,6.0,299.5452,2733.2729,0.0,0.0,0.0,0.0,0.0,-0.05238555117256222,-0.20946765303284778,-0.34353823128458366,-0.27784083759075573,-0.005105038220453045,0.004524774003535425,-0.4455880900086206
5257,6.0,300.87913,2515.229,0.0,0.0,0.0,0.0,0.0,-0.05239551798214606,-0.13913755829180788,-0.34536364186973767,-0.2800656207028247,-0.005085576016507275,-0.01951299108053228,-0.4642259744680366
5258,6.0,300.73172,2317.0018,0.0,0.0,0.0,0.0,0.0,-0.05240548479172988,-0.09166882672625883,-0.3537557844979776,-0.25888607942756675,0.00019351403020834783,-0.0030623340235288376,-0.47522508801356456
5259,6.0,300.46221,2374.384,0.0,0.0,0.0,0.0,0.0,-0.05241545160131372,-0.091337769547586,-0.3243959407928867,-0.30601973830429674,0.025250889608068774,0.011733502019256489,-0.47189088723450456
5260,6.0,300.48497000000003,2361.7821,0.0,0.0,0.0,0.0,0.0,-0.05242541841089754,-0.12765167939823988,-0.3553883938541037,-0.23488273171362076,0.013783802450855387,-0.0038091379520576465,-0.48307564846335455
5261,6.0,300.28101000000004,2180.5622,0.0,0.0,0.0,0.0,0.0,-0.05243538522048133,-0.14180069366213885,-0.3054785715583877,-0.21555719494133876,-0.007630935450864693,0.01006736239347131,-0.4820720749018095
5262,6.0,299.79784,2026.4543,0.0,0.0,0.0,0.0,0.0,-0.052445352030065145,-0.10248371215185491,-0.2915639828376247,-0.2219438015141478,-0.02123698444992718,-0.005895100227551095,-0.47434712706691656
5263,6.0,300.22866,2087.8534,0.0,0.0,0.0,0.0,0.0,-0.05245531883964899,-0.05520158275122204,-0.3405330632104967,-0.23892063468713076,-0.01138646588650669,0.0046512478810174255,-0.48704220849732355
5264,6.0,299.06637,2165.4969,0.0,0.0,0.0,0.0,0.0,-0.05246528564923281,-0.05996873499395335,-0.32245123014095867,-0.27583702406049476,-0.018808172284472083,-0.014522835663042286,-0.4773942842251475
5265,6.0,299.03775,2579.5796,0.0,0.0,0.0,0.0,0.0,-0.05247525245881665,-0.13155729243869388,-0.36006536379818466,-0.2925051401930097,0.0004605000005378117,0.0033168449194221064,-0.46226264027927055
5266,6.0,300.23825,2592.9044,0.0,0.0,0.0,0.0,0.0,-0.05248521926840041,-0.17217175083452885,-0.34097627906923866,-0.27503015274086273,0.01789562708541088,0.011734620647366887,-0.46930742371953654
5267,6.0,300.3718,2207.4096,0.0,0.0,0.0,0.0,0.0,-0.05249518607798426,-0.16040771452350883,-0.3170082735187807,-0.1935814012074968,0.02010316062777748,0.02228390383750008,-0.4774847978565805
5268,6.0,299.33858,2351.4638,0.0,0.0,0.0,0.0,0.0,-0.052505152887568074,-0.12238471418593089,-0.3698691259357406,-0.22253244915974277,0.03419358370464397,-0.008690089225445032,-0.48321969209757054
5269,6.0,299.51835,2615.637,0.0,0.0,0.0,0.0,0.0,-0.05251511969715192,-0.17641387436569383,-0.3286139895016757,-0.29006047167673976,-0.006510711370232184,-0.012111892163100688,-0.4411727412403596
5270,6.0,299.5283,2393.3377,0.0,0.0,0.0,0.0,0.0,-0.052525086506735735,-0.11105856403812689,-0.32611969199550767,-0.2903366329914947,0.018555765605061482,-0.03003621854434397,-0.46516548022575854
5271,6.0,299.80163,2216.1474,0.0,0.0,0.0,0.0,0.0,-0.05253505331631955,-0.1068607094038309,-0.3010495743112797,-0.2657431785518097,-0.007632088124178453,0.0015302246891714187,-0.4450869263766596
5272,6.0,299.91001,2364.1945,0.0,0.0,0.0,0.0,0.0,-0.05254502012590337,-0.14245296328151286,-0.31249007986536975,-0.26371307118145376,0.0027104346955990778,-0.025440039083736373,-0.46069570979462654
5273,6.0,300.05844,2394.2269,0.0,0.0,0.0,0.0,0.0,-0.05255498693548721,-0.16187009786283485,-0.3270289319727427,-0.23888618418373075,-0.03193482327697167,-0.005928874893134394,-0.45339914383701163
5274,6.0,300.19998,2421.4035,0.0,0.0,0.0,0.0,0.0,-0.052564953745071,-0.12714251109048888,-0.3374322037969657,-0.2714715069321518,-0.0091501581691253,-0.004627187142817815,-0.4813381271918745
5275,6.0,300.40219,2417.5785,0.0,0.0,0.0,0.0,0.0,-0.05257492055465485,-0.12039456939951888,-0.3488927818355367,-0.26559616609480075,-0.00942383580523518,0.005738201084016355,-0.47304615446852055
5276,6.0,300.43781,2150.2933,0.0,0.0,0.0,0.0,0.0,-0.052584887364238636,-0.05177052032885255,-0.36311699952185766,-0.23874796673758977,0.00997604586265907,-0.01884615801747098,-0.49300148697295854
5277,6.0,300.37586,2041.6527,0.0,0.0,0.0,0.0,0.0,-0.05259485417382248,-0.07721465699599334,-0.3548068592242107,-0.18858991843237582,-0.002000158635825288,0.006205298437015274,-0.5000623000298066
5278,6.0,299.78122,2465.9207,0.0,0.0,0.0,0.0,0.0,-0.0526048209834063,-0.16355405873402884,-0.35505470019867064,-0.2309695699599218,0.023032639932644577,0.015414738931066286,-0.4736308403062246
5279,6.0,299.75616,2629.087,0.0,0.0,0.0,0.0,0.0,-0.05261478779299014,-0.19423602156710282,-0.3755797731018376,-0.2293610151611698,0.007718166658598743,0.02016497698987828,-0.5071365183854776
5280,6.0,299.62796000000003,2361.8237,0.0,0.0,0.0,0.0,0.0,-0.05262475460257396,-0.1145555130482489,-0.3563526431792677,-0.24702728396719478,0.02097778798159648,-0.027171689584136974,-0.48501522193727553
5281,6.0,299.95782,2433.2146,0.0,0.0,0.0,0.0,0.0,-0.05263472141215775,-0.13376077703366088,-0.35213762408827765,-0.25373809004199976,-0.015792355965084184,-0.02228049931716408,-0.4763456412991546
5282,6.0,300.35438,2547.5296,0.0,0.0,0.0,0.0,0.0,-0.052644688221741565,-0.12085624667508288,-0.31904826007761167,-0.33448088996569364,0.04579544325765836,-0.025694346620334575,-0.43325419170885954
5283,6.0,301.17895,2506.2,0.0,0.0,0.0,0.0,0.0,-0.05265465503132541,-0.1363323956549599,-0.3493316204538467,-0.2761582142096937,0.003569755082807397,0.017516388851232984,-0.45515095193490157
5284,6.0,301.37867,2443.7004,0.0,0.0,0.0,0.0,0.0,-0.052664621840909226,-0.16040275973051987,-0.3213802146527577,-0.26104092801773376,0.01953712872441448,0.002008100996734138,-0.44141341853661253
5285,6.0,300.50756,2495.3082,0.0,0.0,0.0,0.0,0.0,-0.05267458865049307,-0.16359633152820083,-0.35279549698070467,-0.24211954631283875,-0.038427220252971364,0.04728907421681825,-0.4515070715277786
5286,6.0,300.7284,2319.8202,0.0,0.0,0.0,0.0,0.0,-0.05268455546007686,-0.11516010925041789,-0.35450902448981664,-0.23549827101686976,-0.006297814250645874,0.03161597677525397,-0.47930434172365555
5287,6.0,300.33149,2331.0357,0.0,0.0,0.0,0.0,0.0,-0.052694522269660676,-0.13370103580776488,-0.3169608838116037,-0.2579147170867007,-0.03213443658642197,0.04159673648002826,-0.4648597016105806
5288,6.0,299.19453,2496.0815,0.0,0.0,0.0,0.0,0.0,-0.05270448907924449,-0.12519383863066988,-0.37268072271072367,-0.26087189763605173,-0.005463247259405525,-0.022708057422110777,-0.4969881397564105
5289,6.0,299.51585,2286.3437,0.0,0.0,0.0,0.0,0.0,-0.05271445588882834,-0.15218866540985188,-0.3166313850115847,-0.2261713241113718,-0.026582060099195077,-0.005374363035458334,-0.4589944831417285
5290,6.0,299.68394,2271.2849,0.0,0.0,0.0,0.0,0.0,-0.052724422698412154,-0.14928927051370386,-0.3196277175447997,-0.22149691769004376,0.023141652471153275,-0.003065947273385437,-0.4807515871064875
5291,6.0,299.96116,2517.6256,0.0,0.0,0.0,0.0,0.0,-0.05273438950799597,-0.19114426113946983,-0.33189053635004573,-0.24226052993175276,0.01048816698385149,0.022440286831433877,-0.44642386935360556
5292,6.0,300.32646,2438.5675,0.0,0.0,0.0,0.0,0.0,-0.05274435631757979,-0.09546847001825441,-0.3474639472070217,-0.29833121681049873,-0.003514738844777716,-0.01814353898737788,-0.48957314512710753
5293,6.0,300.84232000000003,2205.8902,0.0,0.0,0.0,0.0,0.0,-0.05275432312716363,-0.08301173034261991,-0.3419589898112247,-0.24556481956786075,-0.01817159588264688,-0.004526106528741935,-0.4727094919902945
5294,6.0,300.43631,2264.6566,0.0,0.0,0.0,0.0,0.0,-0.05276428993674742,-0.06284563877763163,-0.3441420472841757,-0.2814113688231398,-0.0074910717772862226,-0.004983636875621665,-0.47823654837077256
5295,6.0,300.74096000000003,2363.7217,0.0,0.0,0.0,0.0,0.0,-0.05277425674633124,-0.14700994414875185,-0.3461796527052717,-0.2253227980801288,-0.009512994214659431,0.0018717755925048683,-0.4727693953362066
5296,6.0,299.29474,2238.7903,0.0,0.0,0.0,0.0,0.0,-0.052784223555915055,-0.11056697561961089,-0.3520417706288177,-0.21792761249028078,0.005309327375139815,-0.012430774128571888,-0.4971431366242075
5297,6.0,299.5747,2360.1108,0.0,0.0,0.0,0.0,0.0,-0.0527941903654989,-0.11691365000597889,-0.35759770463714563,-0.24290339659019874,-0.025843885109842875,0.027153092391801574,-0.4732649759601166
5298,6.0,298.35656,2381.4043,0.0,0.0,0.0,0.0,0.0,-0.05280415717508272,-0.0966520991358195,-0.35162032951472466,-0.2756150209635847,0.006701301383566954,0.016309662697638384,-0.47459919329429356
5299,6.0,299.65109,2332.6183,0.0,0.0,0.0,0.0,0.0,-0.05281412398466653,-0.08913050755624623,-0.34250943792804966,-0.27741776514400174,0.013010015773488589,0.027367031031165678,-0.4878926901012596
5300,6.0,299.88666,2403.6895,0.0,0.0,0.0,0.0,0.0,-0.05282409079425038,-0.13268881922286688,-0.3241224747233977,-0.27385030405942073,0.02653693095299118,-0.06491362143672563,-0.4744923359387475
5301,6.0,300.29729,2616.0907,0.0,0.0,0.0,0.0,0.0,-0.05283405760383417,-0.18137511162532982,-0.35780795403289567,-0.25604317322449377,0.026154206125219178,-0.02981675059918417,-0.4614242670140296
5302,6.0,299.74387,2341.3299,0.0,0.0,0.0,0.0,0.0,-0.052844024413417984,-0.14626247968248285,-0.32212752713151166,-0.24331581977840178,0.012481039439532687,-0.02359097518824798,-0.4566361637989806
5303,6.0,300.35235,2431.1021,0.0,0.0,0.0,0.0,0.0,-0.05285399122300183,-0.14501425688429287,-0.3238200803635537,-0.2701599965327158,0.012896786088063687,0.014151935463937287,-0.45057727270601455
5304,6.0,299.00975,2631.3941,0.0,0.0,0.0,0.0,0.0,-0.052863958032585645,-0.13607873862492587,-0.3514600840114096,-0.3123392879854877,-0.03847719273465326,-0.01816665932815968,-0.45811248945968264
5305,6.0,299.89017,2339.5825,0.0,0.0,0.0,0.0,0.0,-0.05287392484216946,-0.1129377072760839,-0.3251628900585787,-0.27307405315781075,-0.01854699085919548,0.0017608304820804382,-0.4459912824884126
5306,6.0,299.08617999999996,2350.437,0.0,0.0,0.0,0.0,0.0,-0.05288389165175328,-0.11037469114813389,-0.3600241245191147,-0.24407534192086078,-0.0026162962632583376,0.016893361629744984,-0.47073526536295357
5307,6.0,300.39742,2538.5158,0.0,0.0,0.0,0.0,0.0,-0.05289385846133712,-0.2053943471008438,-0.34680596285708365,-0.2194451065025458,0.002801884063499427,0.022277714905889277,-0.4408694349554256
5308,6.0,300.11238,2306.6002,0.0,0.0,0.0,0.0,0.0,-0.05290382527092091,-0.10109971789326531,-0.35764367579418266,-0.24240547535855775,0.01065453758402099,-0.021461933064877876,-0.47365574599368254
5309,6.0,300.74054,2157.2775,0.0,0.0,0.0,0.0,0.0,-0.05291379208050473,-0.13361962116222986,-0.3114880160464737,-0.2106508454396198,-0.013105328157395187,0.008029827697232293,-0.45835037018565955
5310,6.0,301.65708,2467.9613,0.0,0.0,0.0,0.0,0.0,-0.052923758890088574,-0.09539181156868881,-0.3520648220685927,-0.30274197555580673,-0.006763491027004594,0.04738334801937236,-0.4788031172966885
5311,6.0,301.43969,2486.3042,0.0,0.0,0.0,0.0,0.0,-0.05293372569967239,-0.12496966717854587,-0.36245057479858667,-0.26835416193949374,-0.018163154496063785,0.0021727608254347975,-0.4713399223601285
5312,6.0,300.37156,2347.9203,0.0,0.0,0.0,0.0,0.0,-0.05294369250925621,-0.09016476334406931,-0.3610061867810367,-0.26253820769050373,-0.0020328670583283576,-0.02798734882188627,-0.5185004120995066
5313,6.0,300.94515,2481.4149,0.0,0.0,0.0,0.0,0.0,-0.052953659318839996,-0.18114961281557482,-0.3495235097577847,-0.2236150562290878,0.012688020090460089,-0.04277754876231536,-0.4885668459227936
5314,6.0,299.8082,2318.0582,0.0,0.0,0.0,0.0,0.0,-0.05296362612842384,-0.11734913476645789,-0.3586095767170096,-0.22867308927077676,0.06331867965306714,0.006764504783729643,-0.48745840097589854
5315,6.0,299.79896,2138.3415,0.0,0.0,0.0,0.0,0.0,-0.05297359293800766,-0.11040846277396689,-0.33028179916627565,-0.2093121394074998,0.026069009017060874,0.01930357457636448,-0.46816606840939357
5316,6.0,300.36102999999997,2387.9833,0.0,0.0,0.0,0.0,0.0,-0.052983559747591474,-0.1051296931979929,-0.34727622236099465,-0.27348138983051173,0.008162926710493143,-0.013850728633210489,-0.4736226735104186
5317,6.0,299.97296,2591.1251,0.0,0.0,0.0,0.0,0.0,-0.05299352655717529,-0.15410263405374586,-0.36652704207090264,-0.26700763361660174,-0.020161847060319378,0.004179154394425426,-0.4691181283358546
5318,6.0,300.24827999999997,2358.1426,0.0,0.0,0.0,0.0,0.0,-0.053003493366759136,-0.13956032676353186,-0.33482780653493166,-0.24242832414831275,-0.002227820227918738,0.03595178135766457,-0.46176308771496855
5319,6.0,299.8517,2433.5716,0.0,0.0,0.0,0.0,0.0,-0.05301346017634295,-0.17829699967654383,-0.34618193251799667,-0.2152660780551078,0.013346234448170789,0.04477167866137066,-0.48407343636682854
5320,6.0,299.41641,2694.8996,0.0,0.0,0.0,0.0,0.0,-0.0530234269859268,-0.18022428242675181,-0.35381785619910366,-0.2851400582636327,-0.004729034685894386,0.003448990565663867,-0.45276536603196255
5321,6.0,299.54422999999997,2523.6223,0.0,0.0,0.0,0.0,0.0,-0.05303339379551056,-0.17633337164524882,-0.3196693013289037,-0.27111549137701574,-0.0021570564621348977,-0.019924311852626483,-0.45478031518082257
5322,6.0,299.80705,2289.08,0.0,0.0,0.0,0.0,0.0,-0.0530433606050944,-0.06896627226544114,-0.32878022331308165,-0.2980766681203767,-2.6208452495822872e-05,0.0019250845041160483,-0.4627897735112946
5323,6.0,300.02914,2280.0819,0.0,0.0,0.0,0.0,0.0,-0.05305332741467822,-0.1127328483708659,-0.3206609286717697,-0.25969418691232077,0.0072261657459670335,-0.022305205394352375,-0.4638557126164946
5324,6.0,300.65305,2285.0894,0.0,0.0,0.0,0.0,0.0,-0.053063294224262064,-0.1104500161605679,-0.3377458553654207,-0.24641424739169276,-0.025117919784195676,-0.033232725727564666,-0.48806730349099253
5325,6.0,300.15729,2235.928,0.0,0.0,0.0,0.0,0.0,-0.05307326103384588,-0.15002645049145785,-0.3259786577140887,-0.2036611726722928,-0.012151523414261988,-0.03676369258329397,-0.47138505251958257
5326,6.0,301.07481,2424.589,0.0,0.0,0.0,0.0,0.0,-0.0530832278434297,-0.12778151726605386,-0.3536657876240957,-0.25556720912251973,0.016631247001126285,0.03793420011206407,-0.48992876551470455
5327,6.0,300.46738999999997,2369.9333,0.0,0.0,0.0,0.0,0.0,-0.05309319465301349,-0.12970293329818286,-0.34325126872376266,-0.24744635407605375,0.015617680767095085,0.014353584392838487,-0.4490476196925496
5328,6.0,300.60501,2308.335,0.0,0.0,0.0,0.0,0.0,-0.05310316146259733,-0.05242311114850824,-0.3573726313924327,-0.2918804512413577,-0.02282324065372848,0.009419065626414402,-0.5042121266093625
5329,6.0,300.11507,2663.6427,0.0,0.0,0.0,0.0,0.0,-0.05311312827218115,-0.15173091954467585,-0.37170194337912565,-0.2862479965854777,-0.005469271639200085,-0.01819861217006318,-0.47169916005058254
5330,6.0,300.24249,2569.4782,0.0,0.0,0.0,0.0,0.0,-0.05312309508176499,-0.17369454414481683,-0.3409592260700557,-0.26640344271447275,-0.0031434642497607675,0.022586280972092376,-0.5060113142819285
5331,6.0,300.32295,2201.8575,0.0,0.0,0.0,0.0,0.0,-0.05313306189134878,-0.14124250431454985,-0.3247571847185387,-0.2033100308501378,0.04735194739877336,-0.002078743679131028,-0.49391159834527953
5332,6.0,299.61665,2196.7636,0.0,0.0,0.0,0.0,0.0,-0.053143028700932626,-0.11690426731005289,-0.3226575886563247,-0.22819943537903079,-1.7046554912363983e-05,-0.02806195037374887,-0.4641705902175705
5333,6.0,299.42487,2333.6953,0.0,0.0,0.0,0.0,0.0,-0.053152995510516415,-0.13315023305340487,-0.30266325615553774,-0.27357160961941573,-0.008470943797792061,-0.045684932122251755,-0.4489461629600366
5334,6.0,299.37337,2193.2045,0.0,0.0,0.0,0.0,0.0,-0.05316296232010026,-0.04285636138159355,-0.3298161904803237,-0.2940068680337187,-0.03162023850517457,-0.006089697949006395,-0.43400329764029055
5335,6.0,299.20914,2185.299,0.0,0.0,0.0,0.0,0.0,-0.05317292912968408,-0.086316993712074,-0.3255955073212747,-0.2523638290638707,0.005560079923762166,0.01182927036570809,-0.4828296414715755
5336,6.0,299.64217,2524.0226,0.0,0.0,0.0,0.0,0.0,-0.053182895939267893,-0.15568710389762083,-0.34828107261766567,-0.2632716791728918,0.0026737370061272973,0.01157605409946759,-0.46096527485123057
5337,6.0,300.71078,2680.6819,0.0,0.0,0.0,0.0,0.0,-0.05319286274885171,-0.19993488463453682,-0.36674079731199866,-0.24818467902642077,0.040257217821328066,-0.003758682352728066,-0.49518005574796653
5338,6.0,300.07992,2646.4959,0.0,0.0,0.0,0.0,0.0,-0.053202829558435555,-0.16401309142683185,-0.35968775588341767,-0.28076782328712674,0.02053976300311678,0.04509536039256556,-0.4525538095435836
5339,6.0,300.24157,2771.6111,0.0,0.0,0.0,0.0,0.0,-0.05321279636801937,-0.15944140830064185,-0.38355797266672464,-0.2995011761709647,0.04503382267424226,0.0022985729492764877,-0.45718719960086357
5340,6.0,300.81251000000003,2414.0936,0.0,0.0,0.0,0.0,0.0,-0.053222763177603216,-0.08300960555716022,-0.33741760286302463,-0.3133969488373707,-0.04233568559245686,-0.025120253299175974,-0.4555135232181846
5341,6.0,300.39133,2209.1228,0.0,0.0,0.0,0.0,0.0,-0.05323272998718698,-0.11315839314786388,-0.3441421891391897,-0.2142175871166298,-0.024430550168107575,-0.05136102948643895,-0.47651898812626253
5342,6.0,300.80933999999996,2490.1254,0.0,0.0,0.0,0.0,0.0,-0.05324269679677082,-0.15976100764718384,-0.35694798840802366,-0.24022695724605478,-0.04437431236965366,0.038941382870465266,-0.49025656205455553
5343,6.0,299.85126,2454.7602,0.0,0.0,0.0,0.0,0.0,-0.05325266360635464,-0.1863457721108958,-0.3487952058509067,-0.21104481734350178,0.011568656360487489,0.02848550715405068,-0.4846588213471016
5344,6.0,299.74692999999996,2115.2038,0.0,0.0,0.0,0.0,0.0,-0.05326263041593848,-0.09240864824702351,-0.3367766411147667,-0.2137838350138218,-0.004143512106257807,0.027314619656493077,-0.4957372926404615
5345,6.0,299.40168,2190.6912,0.0,0.0,0.0,0.0,0.0,-0.0532725972255223,-0.09668521518883781,-0.31788312378762174,-0.2513470629860238,0.028128787390095177,-0.018404817684664083,-0.4773473808780186
5346,6.0,299.63632,2562.9313,0.0,0.0,0.0,0.0,0.0,-0.05328256403510612,-0.07535193955540744,-0.37333117861241866,-0.33038400570386267,0.01098760403764209,0.024261020254126277,-0.4621010775508255
5347,6.0,300.04311,2437.6799,0.0,0.0,0.0,0.0,0.0,-0.053292530844689906,-0.1180624324393549,-0.3704553215160936,-0.2524760769099488,0.012058631684844289,-0.00031475267747117075,-0.4871516597731256
5348,6.0,299.81286,2339.0269,0.0,0.0,0.0,0.0,0.0,-0.05330249765427375,-0.10240688752927289,-0.35795256508716766,-0.2506463093493647,-0.019576871433086784,0.01973291600148718,-0.47402222842235153
5349,6.0,300.07215,2477.8749,0.0,0.0,0.0,0.0,0.0,-0.05331246446385757,-0.19656278830173682,-0.3432742695010327,-0.21337503926097678,-0.005633815653414314,0.007396289120531903,-0.4775012530382045
5350,6.0,299.7081,2469.4509,0.0,0.0,0.0,0.0,0.0,-0.05332243127344141,-0.16072289609961485,-0.3397854366242117,-0.25014306855469876,0.0023304387529963977,0.03715314235197967,-0.4383861616103456
5351,6.0,300.05748,2279.5809,0.0,0.0,0.0,0.0,0.0,-0.0533323980830252,-0.1064069456115479,-0.3311900461584127,-0.2553386705624648,-0.004409073406416666,-0.016940874953434184,-0.4885262145937835
5352,6.0,299.75255,2546.4454,0.0,0.0,0.0,0.0,0.0,-0.053342364892609045,-0.1119111633347719,-0.36453192222649966,-0.2976127211645887,-0.001936409904458778,-0.028763968546532678,-0.4500331675348156
5353,6.0,299.71889,2564.6318,0.0,0.0,0.0,0.0,0.0,-0.053352331702192834,-0.16349641493583983,-0.35443444928245665,-0.26165317425815776,0.011640890960116489,-0.031611194234781974,-0.48863321380434355
5354,6.0,300.87387,2474.8229,0.0,0.0,0.0,0.0,0.0,-0.05336229851177668,-0.15515694104779784,-0.3534201555348537,-0.24370725855703376,0.03123099746600947,0.02154959237077918,-0.4678277442010036
5355,6.0,301.11793,2707.3459,0.0,0.0,0.0,0.0,0.0,-0.053372265321360496,-0.2071918122482398,-0.3622266667914887,-0.25354709239814976,0.019066684808985282,0.016426721455191185,-0.4914636367661845
5356,6.0,301.03355,2569.7355,0.0,0.0,0.0,0.0,0.0,-0.05338223213094431,-0.14562957327251988,-0.3517663895166397,-0.28373946291540475,-0.012253255750802187,0.009942473745770761,-0.4601958025927896
5357,6.0,300.6036,2323.8661,0.0,0.0,0.0,0.0,0.0,-0.05339219894052813,-0.06661736094987164,-0.3783948655896657,-0.26138502775169375,-0.01080362011098429,-0.02139793112231138,-0.4812835028789835
5358,6.0,300.74474,2449.444,0.0,0.0,0.0,0.0,0.0,-0.053402165750111974,-0.11453807501402789,-0.3277555032219497,-0.3022762452798427,-0.03600077199999956,0.021334322320783684,-0.4614129490104125
5359,6.0,300.00985,2516.1884,0.0,0.0,0.0,0.0,0.0,-0.05341213255969579,-0.13133880531963088,-0.36744680971667665,-0.26607283947184474,-0.019097471400023682,-0.00889449480256829,-0.46790173172330557
5360,6.0,300.58146,2257.3096,0.0,0.0,0.0,0.0,0.0,-0.053422099369279635,-0.11545491436701288,-0.34644036195600164,-0.22427048718877376,-0.022313426905663777,-0.0036452832518864466,-0.49405843854977155
5361,6.0,299.91004,2199.7941,0.0,0.0,0.0,0.0,0.0,-0.0534320661788634,-0.14361160463836187,-0.3141442613161247,-0.2109266115868358,0.01990208823818318,-0.0009937286006583771,-0.46756835217540355
5362,6.0,298.59255,2519.4269,0.0,0.0,0.0,0.0,0.0,-0.05344203298844724,-0.16494389336619483,-0.35183464204337567,-0.24906432196823475,0.02195260043905298,0.015153402478524385,-0.49805882087207853
5363,6.0,299.71215,2545.0188,0.0,0.0,0.0,0.0,0.0,-0.05345199979803106,-0.12512696412406987,-0.34772777726805965,-0.30076742468843376,0.018637587577136683,-0.023772107829124377,-0.4867454376755345
5364,6.0,299.79058,2379.5939,0.0,0.0,0.0,0.0,0.0,-0.0534619666076149,-0.11349139779322888,-0.35159713621993566,-0.25824860325965276,-0.008235594474539892,-0.01924871316295008,-0.5125060143754055
5365,6.0,299.09131,2474.6786,0.0,0.0,0.0,0.0,0.0,-0.05347193341719872,-0.1252894387776049,-0.3589766873607406,-0.26797436540451075,0.013486575666521386,-0.025113052130715272,-0.46748051352423453
5366,6.0,299.76366,2482.5051,0.0,0.0,0.0,0.0,0.0,-0.053481900226782536,-0.14556102690325484,-0.3487316446721337,-0.2603268805397627,0.022188848819118877,0.02217921990341858,-0.4703802529254165
5367,6.0,300.23396,2242.2076,0.0,0.0,0.0,0.0,0.0,-0.053491867036366325,-0.1115487339065029,-0.3237689618960087,-0.24625742667371575,0.04096638852656776,0.017611222981092384,-0.47535635456401953
5368,6.0,300.89609,2415.5208,0.0,0.0,0.0,0.0,0.0,-0.05350183384595017,-0.11235936438400589,-0.34514872139102665,-0.2767499218705907,0.0057515526805840544,0.014069529859804485,-0.46348759885516455
5369,6.0,301.44192000000004,2438.2214,0.0,0.0,0.0,0.0,0.0,-0.053511800655533986,-0.10446248827214491,-0.3476681880296787,-0.28902774690981775,-0.01180409819347379,0.03151470344100907,-0.47407493769255354
5370,6.0,300.44308,2243.7918,0.0,0.0,0.0,0.0,0.0,-0.05352176746511783,-0.13474502791579887,-0.3170788565207467,-0.23023280541470875,-0.023053535176206775,0.020944724617583378,-0.47272494405431953
5371,6.0,300.32732000000004,2549.7877,0.0,0.0,0.0,0.0,0.0,-0.05353173427470162,-0.16848121026030083,-0.34821573825121765,-0.25837483395711075,-0.02002570272388298,0.007451707922826313,-0.4783011835946515
5372,6.0,300.49388999999996,2689.5984,0.0,0.0,0.0,0.0,0.0,-0.053541701084285465,-0.1967572715259308,-0.36874160148946267,-0.25207187118005675,-0.02257859040383338,-0.02066391451136958,-0.47156379996972353
5373,6.0,299.25641,2432.7842,0.0,0.0,0.0,0.0,0.0,-0.053551667893869254,-0.14093084884879187,-0.3287660783416857,-0.2698087432530497,0.008855151111785373,-0.014052332979107287,-0.46992957954593856
5374,6.0,299.72638,2405.0985,0.0,0.0,0.0,0.0,0.0,-0.0535616347034531,-0.11469250446176889,-0.32537795239230366,-0.29101943183638174,0.01875130463585968,-0.00043751686395205263,-0.4920880116103055
5375,6.0,299.67614,2534.2366,0.0,0.0,0.0,0.0,0.0,-0.053571601513036915,-0.13291102496979687,-0.34762772895318567,-0.28980589258911477,0.022541580430680778,0.0014513344549355587,-0.48185053789994553
5376,6.0,299.32522,2221.7347,0.0,0.0,0.0,0.0,0.0,-0.05358156832262073,-0.1086993125052869,-0.3160805822572247,-0.2505719671895278,-0.006955680151647182,-0.025073997418860874,-0.4936404120885155
5377,6.0,300.24865,2195.0294,0.0,0.0,0.0,0.0,0.0,-0.05359153513220455,-0.10787344274627989,-0.3408935573310747,-0.21846712763852677,0.014876289721925487,-0.008084328697586123,-0.46731550574544956
5378,6.0,300.26108,2343.4692,0.0,0.0,0.0,0.0,0.0,-0.05360150194178839,-0.14663474776922286,-0.3279802927566347,-0.2377410798482178,-0.003993399103942806,0.01227655138385129,-0.48748862622638156
5379,6.0,300.71095,2190.0717,0.0,0.0,0.0,0.0,0.0,-0.05361146875137221,-0.12719024530269987,-0.3110634338570707,-0.22747342141737878,0.0033281929152420672,0.011893780959824789,-0.4618708975256086
5380,6.0,300.56073,2259.1432,0.0,0.0,0.0,0.0,0.0,-0.053621435560956054,-0.06304768490057204,-0.36780264288679465,-0.25587278508767775,-0.007227779448076294,-0.0045999589848056055,-0.5132068693370746
5381,6.0,299.66482,2643.3552,0.0,0.0,0.0,0.0,0.0,-0.053631402370539816,-0.17527782848607484,-0.34535032776342367,-0.28288583010365775,-0.02123514236124538,0.006618152155185765,-0.4887295738888535
5382,6.0,298.91727000000003,2623.9451,0.0,0.0,0.0,0.0,0.0,-0.05364136918012366,-0.16488930958330783,-0.38941636182990264,-0.24330813934264378,-0.018392698200217984,0.0035865808099929666,-0.5267123076674575
5383,6.0,300.35598,2402.0796,0.0,0.0,0.0,0.0,0.0,-0.05365133598970748,-0.16405606336357284,-0.34772936807071664,-0.2183867667730958,-0.009589293771039611,0.006041068935632084,-0.5211405466925675
5384,6.0,300.12667000000005,2497.1758,0.0,0.0,0.0,0.0,0.0,-0.05366130279929132,-0.17026281804363183,-0.3351703559962387,-0.25364593494540477,0.030479187170061574,-0.02289287829335118,-0.46651087370853855
5385,6.0,299.07989,2343.6045,0.0,0.0,0.0,0.0,0.0,-0.05367126960887514,-0.1047773152107159,-0.3389841077826267,-0.2686358252022918,0.03911493538734356,-0.012017840262318488,-0.4616306761919005
5386,6.0,300.22252000000003,2152.1655,0.0,0.0,0.0,0.0,0.0,-0.053681236418458955,-0.04113106598582016,-0.3096754028100827,-0.3033980853930597,0.049228945586268655,-0.017720371295114484,-0.4540842731571286
5387,6.0,300.30939,2236.2177,0.0,0.0,0.0,0.0,0.0,-0.053691203228042744,-0.08046567703459402,-0.34639354980138165,-0.25289511662130476,-0.012734190857766788,0.015748095174215986,-0.4838014800399885
5388,6.0,300.72438,2472.5051,0.0,0.0,0.0,0.0,0.0,-0.05370117003762659,-0.12964555294501987,-0.3800230977053596,-0.24191116129727278,0.003912151036724246,-0.013246874130114687,-0.4854549724806756
5389,6.0,300.29607999999996,2609.8689,0.0,0.0,0.0,0.0,0.0,-0.053711136847210406,-0.17824372298628582,-0.35696773665247267,-0.25812349726980577,-0.013087709764656388,0.007954836753356263,-0.48576444945871855
5390,6.0,300.4641,2772.3376,0.0,0.0,0.0,0.0,0.0,-0.05372110365679425,-0.2187752164639328,-0.3796367049122256,-0.24430947362146777,0.014409733647129986,0.014578211807507487,-0.47831883441139356
5391,6.0,299.21021,2751.8077,0.0,0.0,0.0,0.0,0.0,-0.05373107046637804,-0.16211192013170084,-0.3717263221765317,-0.30264259598599874,-0.012566829298999488,0.018073038058669985,-0.4478769510570136
5392,6.0,300.25771000000003,2328.3423,0.0,0.0,0.0,0.0,0.0,-0.053741037275961884,-0.09448141851284,-0.3007669079308827,-0.3125095849297947,0.007955971998768303,0.0062968569319513945,-0.45652995492349857
5393,6.0,299.36627000000004,2394.5416,0.0,0.0,0.0,0.0,0.0,-0.0537510040855457,-0.1223281545653489,-0.3492591832041977,-0.25629350679419977,-0.037519999683185666,0.01030639498216199,-0.45628830490714956
5394,6.0,299.00239,2838.2063,0.0,0.0,0.0,0.0,0.0,-0.053760970895129545,-0.19242544496341282,-0.3531629217319667,-0.31715549875831067,0.008074802424120951,-0.010376837142364091,-0.46994242755720655
5395,6.0,299.18402000000003,2591.3057,0.0,0.0,0.0,0.0,0.0,-0.053770937704713334,-0.20577142812555882,-0.35137900373840764,-0.23054179603270378,-0.015078971152678585,0.020758838820487877,-0.4734417171750595
5396,6.0,299.39318,2016.8327,0.0,0.0,0.0,0.0,0.0,-0.05378090451429715,-0.100104004112746,-0.3327039026028187,-0.18025885452016382,0.025443770883854678,-0.0011651020421366187,-0.4943981002482935
5397,6.0,300.06774,2154.8714,0.0,0.0,0.0,0.0,0.0,-0.05379087132388097,-0.06268868836364185,-0.3136361062584737,-0.27870231295827674,0.027650686343660275,-0.008144087250058833,-0.4519967550361066
5398,6.0,300.25088999999997,2537.4661,0.0,0.0,0.0,0.0,0.0,-0.05380083813346481,-0.06765181432146423,-0.39991973263150465,-0.3037548000907647,0.03228421116320357,-0.015498468853079785,-0.49697930421553854
5399,6.0,300.1344,2541.4664,0.0,0.0,0.0,0.0,0.0,-0.05381080494304863,-0.11012682990867188,-0.3749409290462887,-0.2874745662290307,0.022162773841045477,0.02011207925515768,-0.48733384214110553
5400,6.0,299.43667999999997,2370.9649,0.0,0.0,0.0,0.0,0.0,-0.05382077175263242,-0.11351675944323189,-0.36480899546634465,-0.24238838182937078,-0.012847378999937589,0.007537946145462363,-0.5211696877654435
5401,6.0,299.91028,2067.0876,0.0,0.0,0.0,0.0,0.0,-0.053830738562216235,-0.14259026880256387,-0.3235720367390737,-0.16218070968098983,-0.03106873863474577,0.04335085377489616,-0.4988407865042525
5402,6.0,299.21398999999997,2109.4046,0.0,0.0,0.0,0.0,0.0,-0.05384070537180008,-0.13754956233758486,-0.2945020433575887,-0.2091547310044648,-0.015644633219755084,-0.0008653986617756982,-0.49398226240725357
5403,6.0,300.2685,2620.5875,0.0,0.0,0.0,0.0,0.0,-0.053850672181383896,-0.11803780032942388,-0.38769622793013864,-0.2908591356705617,-0.012386769689978988,0.03427254121868647,-0.49810131658127255
5404,6.0,299.85147,2545.8251,0.0,0.0,0.0,0.0,0.0,-0.05386063899096774,-0.13059551544377387,-0.33089863542965264,-0.3123731204063267,-0.003687256326678866,-0.026488574605218772,-0.45202617981901055
5405,6.0,298.96164,2243.3577,0.0,0.0,0.0,0.0,0.0,-0.05387060580055156,-0.08752547886784222,-0.3229680484869647,-0.27143118971067276,0.012105868391256188,-0.009673205976746101,-0.46271145941106556
5406,6.0,300.10263,2536.6426,0.0,0.0,0.0,0.0,0.0,-0.053880572610135374,-0.16027228351514286,-0.36696425948905265,-0.24383945729758078,0.01099476771584909,-0.02062719331449548,-0.4743463468643396
5407,6.0,299.69375,2924.3853,0.0,0.0,0.0,0.0,0.0,-0.05389053941971916,-0.23720690452799878,-0.3581476359964197,-0.2935855890396417,0.017479627124354885,0.029122941778710575,-0.4838643015461886
5408,6.0,300.43362,2725.6736,0.0,0.0,0.0,0.0,0.0,-0.05390050622930301,-0.1841632820580008,-0.34783790742142867,-0.29653554511577973,0.017070155533693183,-0.008767318033491922,-0.46173264968196454
5409,6.0,300.25617,2299.6056,0.0,0.0,0.0,0.0,0.0,-0.053910473038886825,-0.08187125352031363,-0.3372249840190147,-0.27992645080158973,-0.008224410625236133,0.035353157251584964,-0.47698607615736055
5410,6.0,300.05097,2217.0912,0.0,0.0,0.0,0.0,0.0,-0.05392043984847064,-0.08075755791140042,-0.3119272194348197,-0.2812555816202647,-0.014417278307374588,0.0008134312628994152,-0.4286225241767496
5411,6.0,299.29702000000003,2420.2218,0.0,0.0,0.0,0.0,0.0,-0.05393040665805446,-0.11392840242885789,-0.36749215265865165,-0.25426644930664477,-0.03083186406611807,0.016004701775291088,-0.47152125359802455
5412,6.0,301.16539,2654.5131,0.0,0.0,0.0,0.0,0.0,-0.0539403734676383,-0.18957836416992782,-0.36259514532285464,-0.2547321795826088,-0.014333348775091386,-0.012836662866879987,-0.48563125773307353
5413,6.0,300.98044,2568.5901,0.0,0.0,0.0,0.0,0.0,-0.05395034027722212,-0.20647462369495878,-0.34970802260099465,-0.2246046165417498,-0.022479677942321478,0.006951224586982453,-0.5002365283845015
5414,6.0,300.98614,2258.4679,0.0,0.0,0.0,0.0,0.0,-0.05396030708680591,-0.11514268134869789,-0.3585274426639037,-0.21284771351143378,0.014080939055930487,-0.0036990878454465463,-0.5129883315555065
5415,6.0,300.53972000000005,2248.6224,0.0,0.0,0.0,0.0,0.0,-0.05397027389638975,-0.08262850699579873,-0.34562127084016364,-0.2552752816362088,0.0032521589317130967,0.007935609319458664,-0.5255571214934496
5416,6.0,299.41702000000004,2637.3844,0.0,0.0,0.0,0.0,0.0,-0.05398024070597357,-0.1132315092750799,-0.3842791939554036,-0.3041882887485467,0.04427081799118956,-0.007469604351392553,-0.4938007285193375
5417,6.0,299.69586,2628.9561,0.0,0.0,0.0,0.0,0.0,-0.05399020751555739,-0.14576585541096987,-0.3625535818037527,-0.2908175620189587,0.02048236441145198,0.008782843051524122,-0.49606688263298954
5418,6.0,299.74985,2197.0893,0.0,0.0,0.0,0.0,0.0,-0.054000174325141204,-0.097846381564936,-0.33822550769775866,-0.23178837736573177,0.012181622008482487,-0.013397431949223588,-0.45496614524916257
5419,6.0,299.89617000000004,1938.5686,0.0,0.0,0.0,0.0,0.0,-0.05401014113472505,-0.08499330404643601,-0.3278120121800267,-0.17647114326134583,-0.03850781416592536,-0.004035354649508496,-0.5087215556494085
5420,6.0,299.39394,2399.6132,0.0,0.0,0.0,0.0,0.0,-0.05402010794430884,-0.1282065047554969,-0.3197312818375207,-0.2814847281303797,0.015081065540635284,-0.011602009514029187,-0.44874295565248157
5421,6.0,299.50464,2668.5433,0.0,0.0,0.0,0.0,0.0,-0.054030074753892654,-0.14641117413465785,-0.37161722553826465,-0.29314211986837474,-0.00986304122008138,0.008793560603131861,-0.48216567894604756
5422,6.0,300.57707999999997,2537.3776,0.0,0.0,0.0,0.0,0.0,-0.05404004156347647,-0.14679108212715186,-0.3501099687831637,-0.27439840143601374,0.022663822975745183,-0.007977807538423302,-0.4464585731695305
5423,6.0,300.87992,2352.8456,0.0,0.0,0.0,0.0,0.0,-0.054050008373060315,-0.13897991684124986,-0.32909403700155265,-0.24713235800256475,-0.005770071143386684,0.011408189968650688,-0.48671701601022954
5424,6.0,301.67213,2398.192,0.0,0.0,0.0,0.0,0.0,-0.05405997518264413,-0.17476860951581882,-0.3297333066221437,-0.22448857914029777,0.0016716105683751185,-0.0031159791315231973,-0.4560583781944576
5425,6.0,300.76525,2610.8055,0.0,0.0,0.0,0.0,0.0,-0.05406994199222798,-0.18549439884687183,-0.3398311443362227,-0.26829415726857175,-0.0044458305736693165,0.006713933775213674,-0.5085232119423335
5426,6.0,300.68154,2785.211,0.0,0.0,0.0,0.0,0.0,-0.054079908801811793,-0.17585678946071384,-0.3508484457210457,-0.3199293823645717,-0.0017798046034530385,-0.009843765352829001,-0.44309996319556155
5427,6.0,299.83119,2472.5513,0.0,0.0,0.0,0.0,0.0,-0.05408987561139558,-0.0963657546575595,-0.3810914686107996,-0.27413663840517977,-0.029632323882232674,-0.016816465066405883,-0.49946883944623655
5428,6.0,299.88669,2151.6247,0.0,0.0,0.0,0.0,0.0,-0.0540998424209794,-0.08033250861370132,-0.3189734923527327,-0.25473417568530576,-0.008150128956430103,-0.017208096362556883,-0.44678748428449155
5429,6.0,299.09766,2316.4892,0.0,0.0,0.0,0.0,0.0,-0.054109809230563244,-0.0992709848610334,-0.3661485728935507,-0.2387353112438408,0.0048746014376607055,0.002389311420906678,-0.48716536904697855
5430,6.0,299.53216000000003,2622.9617,0.0,0.0,0.0,0.0,0.0,-0.05411977604014706,-0.1812343103914338,-0.36388475938762965,-0.2521957815347857,0.006223536938815275,0.007491057895759853,-0.45984241135541254
5431,6.0,299.05206,2401.3701,0.0,0.0,0.0,0.0,0.0,-0.05412974284973088,-0.11148671286788189,-0.35747575998761066,-0.26099407533310975,0.017090729576973683,-0.005359125071179464,-0.5050441366639755
5432,6.0,299.84055,2264.9548,0.0,0.0,0.0,0.0,0.0,-0.054139709659314694,-0.07788391476654392,-0.38306322290789663,-0.22754257573670378,0.01960474695658788,0.003061141326836127,-0.5038195428581176
5433,6.0,300.97512,2347.5224,0.0,0.0,0.0,0.0,0.0,-0.05414967646889854,-0.0971304980777838,-0.34623630351836265,-0.2702213792237737,0.04952170900391215,0.01783849903152278,-0.4997625401202225
5434,6.0,300.33928,2480.7909,0.0,0.0,0.0,0.0,0.0,-0.05415964327848233,-0.14122736635805586,-0.36481373747681267,-0.24805739454885878,-0.003470803813816666,0.01957092568149998,-0.5053219191788906
5435,6.0,300.42811,2509.6571,0.0,0.0,0.0,0.0,0.0,-0.05416961008806617,-0.13923680613910286,-0.37058499726389166,-0.25305127872671673,-0.006515133092343574,-0.01744571364350788,-0.5189234136187535
5436,6.0,300.71055,2402.1399,0.0,0.0,0.0,0.0,0.0,-0.05417957689764996,-0.17521460167983482,-0.3144906509953107,-0.24048528535904978,-0.03348019382598787,-0.002190330683493808,-0.4740991543699435
5437,6.0,299.20102,2187.1593,0.0,0.0,0.0,0.0,0.0,-0.054189543707233806,-0.08473653025909442,-0.3373555716919027,-0.24274970681503075,0.0003274127713756247,-0.005377965848838905,-0.4951686769493435
5438,6.0,299.44552000000004,2229.5663,0.0,0.0,0.0,0.0,0.0,-0.05419951051681762,-0.09223786798241881,-0.3153155379017207,-0.2701790557670967,-0.01105410364170509,-0.00907267280615309,-0.4586740022675996
5439,6.0,298.95288999999997,2747.4587,0.0,0.0,0.0,0.0,0.0,-0.05420947732640147,-0.14934267892647485,-0.3700784735389016,-0.31573769842338467,0.013077133460112588,-0.009330506250449271,-0.45248313534910856
5440,6.0,299.32546,2781.7367,0.0,0.0,0.0,0.0,0.0,-0.054219444135985256,-0.18783635420050482,-0.3834284387739406,-0.27431370386015475,-0.0030049702876674767,-0.007384335302477153,-0.43781222635620254
5441,6.0,299.22244,2387.4173,0.0,0.0,0.0,0.0,0.0,-0.05422941094556907,-0.15166376132804785,-0.3402283181104207,-0.23382314568654775,0.03068227896710517,0.015854213870439088,-0.46986037456410856
5442,6.0,299.63675,2562.6228,0.0,0.0,0.0,0.0,0.0,-0.05423937775515289,-0.2107463138640418,-0.3471959628205737,-0.2210310658240678,-0.022255633146459976,0.0030341200744943373,-0.4431253653755685
5443,6.0,299.6789,2871.4333,0.0,0.0,0.0,0.0,0.0,-0.054249344564736734,-0.17107816013409985,-0.4011024690757316,-0.30066338416816574,0.012789781811253188,-0.023392748004934478,-0.4898762690270235
5444,6.0,299.99528,2466.4267,0.0,0.0,0.0,0.0,0.0,-0.05425931137432055,-0.1102820800889939,-0.33749817651097663,-0.3019518735253297,-0.031818157660457674,-0.004163751371705266,-0.4605015913404686
5445,6.0,299.50165,2162.6673,0.0,0.0,0.0,0.0,0.0,-0.054269278183904396,-0.07913015767403853,-0.3224564483789737,-0.25581024729150575,0.02150422511080178,0.005752152625968265,-0.49603129728947754
5446,6.0,299.8041,2291.9126,0.0,0.0,0.0,0.0,0.0,-0.05427924499348816,-0.12136472597276587,-0.32106880236702373,-0.25425067300258775,-0.006987610499398463,0.01990646243886488,-0.4727757788118365
5447,6.0,299.70112,2150.1048,0.0,0.0,0.0,0.0,0.0,-0.054289211803072,-0.1006659536314561,-0.3353102047750407,-0.2176020045706458,-0.02107086716228268,0.01050087516660569,-0.5177960411599906
5448,6.0,301.00844,2525.6981,0.0,0.0,0.0,0.0,0.0,-0.05429917861265582,-0.14494087731205085,-0.39273623525254864,-0.2300720228888408,-0.0065451346172044934,0.03173107084086287,-0.49621163554227554
5449,6.0,300.54111,2713.9788,0.0,0.0,0.0,0.0,0.0,-0.05430914542223966,-0.1012694757885191,-0.3988984271932096,-0.32481389632663565,-0.001102246186758229,0.012438318788816488,-0.4945525398285356
5450,6.0,300.07516,2393.6059,0.0,0.0,0.0,0.0,0.0,-0.05431911223182348,-0.06991448285477223,-0.39782227452700164,-0.25985967091865275,-0.005137824967188845,0.0038680076815426363,-0.49576719365091254
5451,6.0,300.15266,2406.0423,0.0,0.0,0.0,0.0,0.0,-0.0543290790414073,-0.09564412604234031,-0.37014595599556166,-0.2655867124713678,0.0033235062282295272,-0.061038785868059144,-0.4722976260896466
5452,6.0,299.04127,2810.5813,0.0,0.0,0.0,0.0,0.0,-0.05433904585099111,-0.2148853391975318,-0.3721496276708086,-0.2673115579840968,-0.003122357034277647,-0.008244144988158762,-0.45682406089752453
5453,6.0,298.31825,2716.6759,0.0,0.0,0.0,0.0,0.0,-0.05434901266057496,-0.2041024329583418,-0.3745827654009406,-0.24711643984349377,0.01890476136350468,-0.0024838184736337976,-0.4753143654798756
5454,6.0,299.53156,2346.9202,0.0,0.0,0.0,0.0,0.0,-0.05435897947015875,-0.17098578212248283,-0.30157556257069074,-0.24084377324442974,0.005126851772580875,0.03256164815983447,-0.4662318854260045
5455,6.0,298.46542,2305.5385,0.0,0.0,0.0,0.0,0.0,-0.05436894627974259,-0.09690795795832081,-0.3238764373341157,-0.28004173839796775,-0.011073782985147291,0.0038401404666923563,-0.4982951107953985
5456,6.0,299.55102999999997,2496.6341,0.0,0.0,0.0,0.0,0.0,-0.05437891308932638,-0.14253754939986088,-0.3246953967274407,-0.2916814691867197,-0.0005633159675299574,0.011017761400368389,-0.45272569729054757
5457,6.0,299.99601,2403.9165,0.0,0.0,0.0,0.0,0.0,-0.054388879898910225,-0.1157804006966359,-0.3100303240551107,-0.3049198654532477,-0.0015120875123814188,-0.0011709490018386689,-0.4734679198226456
5458,6.0,299.83714,2450.6081,0.0,0.0,0.0,0.0,0.0,-0.05439884670849404,-0.15897887989499385,-0.3456727135477407,-0.2402720874055088,-0.034784043041417766,0.004868848304917915,-0.4726543509198526
5459,6.0,300.53724,2530.8344,0.0,0.0,0.0,0.0,0.0,-0.054408813518077886,-0.17282877259687185,-0.34706157545981065,-0.24942013487335074,-0.01049165155094539,-0.03697636162028276,-0.48003824890358654
5460,6.0,300.94804,2405.5179,0.0,0.0,0.0,0.0,0.0,-0.054418780327661675,-0.13893336813165588,-0.35064960552142166,-0.24163442242996075,-0.010410460833682491,-0.01153356548302429,-0.5006225462750985
5461,6.0,299.44936,2601.2309,0.0,0.0,0.0,0.0,0.0,-0.05442874713724549,-0.0912100301207291,-0.4015926085466046,-0.2979066042235927,0.039205500694531666,-0.015643224802116086,-0.48918311476611454
5462,6.0,300.18311,2839.3373,0.0,0.0,0.0,0.0,0.0,-0.05443871394682931,-0.17428118555521385,-0.3859025624706176,-0.3029039030542877,0.0070177740429503725,0.00015157543631683085,-0.48383842313863457
5463,6.0,299.08181,2227.3911,0.0,0.0,0.0,0.0,0.0,-0.054448680756413154,-0.08654005058908801,-0.34954241700465066,-0.2409888098637438,0.026162244238262477,-0.025369725606296977,-0.48049970326412855
5464,6.0,298.04389,1912.5792,0.0,0.0,0.0,0.0,0.0,-0.05445864756599697,-0.1020175056483439,-0.3056723657725137,-0.17368644827651786,-0.0025943068109131476,0.006038515646705094,-0.5099758275506955
5465,6.0,299.35886,2413.095,0.0,0.0,0.0,0.0,0.0,-0.054468614375580815,-0.16156409633263485,-0.31926213690871974,-0.2526943816439937,0.008244119150281212,0.01062318357292659,-0.4881128896129916
5466,6.0,298.54081,2457.7981,0.0,0.0,0.0,0.0,0.0,-0.054478581185164576,-0.12960524585604188,-0.37721071059529865,-0.24029328459760077,-0.025265049778216274,0.02402361271594598,-0.5487967522095225
5467,6.0,300.32262000000003,2329.2034,0.0,0.0,0.0,0.0,0.0,-0.05448854799474842,-0.07581507996411584,-0.3493052252887417,-0.28289935699249275,-0.011053623361157689,0.004182132032494295,-0.5087135408411175
5468,6.0,299.93592,2257.2994,0.0,0.0,0.0,0.0,0.0,-0.05449851480433224,-0.1020269795367789,-0.34562867769839467,-0.23850699559880775,-0.0099606093013606,0.011796156339189989,-0.5127887111533055
5469,6.0,300.25886,2268.4442,0.0,0.0,0.0,0.0,0.0,-0.05450848161391608,-0.09333140903359291,-0.33711623188578166,-0.25910276296145174,0.03534747899802457,-0.02035050713618868,-0.46823785717897853
5470,6.0,300.57145,2514.5959,0.0,0.0,0.0,0.0,0.0,-0.0545184484234999,-0.17874430906568983,-0.3371354633726797,-0.24849459170200675,-0.003196919981311437,0.0006186136256424114,-0.4739093016987066
5471,6.0,301.28345,2902.0349,0.0,0.0,0.0,0.0,0.0,-0.054528415233083716,-0.1997416173104628,-0.39370624997078163,-0.28869828863980274,0.006500383007987854,-0.01990496992146758,-0.44928069761305256
5472,6.0,299.46243,2483.7032,0.0,0.0,0.0,0.0,0.0,-0.05453838204266753,-0.14496364504179785,-0.3275265897593577,-0.2824935097974387,-0.02410916344838918,0.007470921475197544,-0.47002185623254555
5473,6.0,300.02895,2320.8437,0.0,0.0,0.0,0.0,0.0,-0.05454834885225138,-0.09511847215546232,-0.33680826465038766,-0.27355178031495875,-0.008203068639704842,-0.007765686467088582,-0.45381560989311354
5474,6.0,299.28845,2699.8224,0.0,0.0,0.0,0.0,0.0,-0.054558315661835166,-0.17257229873155983,-0.3570031193459647,-0.2911031870896477,-0.026322447185073275,0.0019388725075018183,-0.46772338957320453
5475,6.0,298.88957999999997,2871.9781,0.0,0.0,0.0,0.0,0.0,-0.05456828247141901,-0.17932716092071282,-0.35784947702199366,-0.3358329911641357,0.001014456982194109,0.0012730246275127488,-0.4388244024110966
5476,6.0,300.1394,2455.7787,0.0,0.0,0.0,0.0,0.0,-0.0545782492810028,-0.1852813326158438,-0.3446145460708077,-0.2165995455842108,0.01110164229664679,-0.001917197061362618,-0.48066528859547053
5477,6.0,299.47421,2182.7281,0.0,0.0,0.0,0.0,0.0,-0.054588216090586644,-0.09611920760347721,-0.3249260935102087,-0.24244954160540677,0.024925194548925177,0.0001177345953694999,-0.4864026754317065
5478,6.0,300.06897999999995,2482.7527,0.0,0.0,0.0,0.0,0.0,-0.05459818290017046,-0.12481582541586288,-0.36846620011228265,-0.26141281106943576,-0.010614555748325089,-0.007423345633977173,-0.5143936486492006
5479,6.0,301.39704,2627.7316,0.0,0.0,0.0,0.0,0.0,-0.054608149709754306,-0.1096042563020979,-0.4029831625863416,-0.2861773831860087,-0.0018093173364657183,0.007550356736662192,-0.5121866075463825
5480,6.0,300.18422999999996,2465.1079,0.0,0.0,0.0,0.0,0.0,-0.05461811651933812,-0.11506899780142588,-0.3600957207711807,-0.27416651915062873,-0.03326434014393477,0.010772668360179592,-0.5082113031640505
5481,6.0,299.94083,2348.4878,0.0,0.0,0.0,0.0,0.0,-0.05462808332892191,-0.10149879252465091,-0.37016705186264365,-0.24221580507233878,-0.013583839570120586,0.0015300778692319285,-0.4772564923440486
5482,6.0,300.00746000000004,2261.5977,0.0,0.0,0.0,0.0,0.0,-0.05463805013850573,-0.14040085825148588,-0.3360423894298017,-0.2110259810241428,-0.014334836226238185,-0.011502731269231188,-0.47886285852258453
5483,6.0,299.55669,2353.7497,0.0,0.0,0.0,0.0,0.0,-0.05464801694808957,-0.11401953414285189,-0.3438174526146407,-0.25764413877999676,-0.00952620841451357,-0.007981303453918322,-0.4854827152684136
5484,6.0,300.03923,2731.4057,0.0,0.0,0.0,0.0,0.0,-0.05465798375767339,-0.14419917823885087,-0.40311964737481165,-0.28296031411850875,0.02273241291476448,-0.002786327938689157,-0.5069729595543355
5485,6.0,300.9225,2475.9026,0.0,0.0,0.0,0.0,0.0,-0.054667950567257234,-0.11691164377078088,-0.34062319180689166,-0.2950777214019037,0.024633405877877875,-0.01036392732283999,-0.49594384367334654
5486,6.0,299.42021,2074.6287,0.0,0.0,0.0,0.0,0.0,-0.054677917376840995,-0.0944628365192561,-0.3199131095679657,-0.2162593772606388,0.02080215019601238,0.004740804396405966,-0.5187991992889945
5487,6.0,301.78365,2611.3609,0.0,0.0,0.0,0.0,0.0,-0.05468788418642484,-0.16949906051575483,-0.3684582055689936,-0.2558312418335778,0.009034924173677591,0.01093453405040449,-0.4751304301892226
5488,6.0,301.11316,2883.0547,0.0,0.0,0.0,0.0,0.0,-0.05469785099600866,-0.24011550986755575,-0.3628839013363526,-0.2733772074552297,0.02132317656968368,0.025056783312911977,-0.4564002893082016
5489,6.0,299.67916,2576.0893,0.0,0.0,0.0,0.0,0.0,-0.0547078178055925,-0.11889343937636888,-0.3950484415832456,-0.26912496155556576,-0.027121768778210174,-0.02240370039682308,-0.48235598757982956
5490,6.0,300.19032000000004,2528.106,0.0,0.0,0.0,0.0,0.0,-0.05471778461517632,-0.13893781629959487,-0.35954117912395167,-0.27000209163713174,-0.015842861416318684,-0.031790985332525966,-0.47816257098097154
5491,6.0,300.23166000000003,2707.0384,0.0,0.0,0.0,0.0,0.0,-0.054727751424760135,-0.14126200937897487,-0.3679772866740306,-0.31363279293064666,-0.04063272121563736,-0.02622274337523327,-0.46450851925842157
5492,6.0,300.07805,2635.6445,0.0,0.0,0.0,0.0,0.0,-0.05473771823434395,-0.16044983533016585,-0.37508354399786364,-0.2656367467613057,0.012889389362333688,-0.011324463086387489,-0.46305404940237654
5493,6.0,300.44596,2614.7691,0.0,0.0,0.0,0.0,0.0,-0.054747685043927796,-0.17559660710003583,-0.3435841821766187,-0.27564373647141877,-0.008650946664806963,0.017406827131170085,-0.42657973091514156
5494,6.0,298.86253,2447.288,0.0,0.0,0.0,0.0,0.0,-0.054757651853511585,-0.15247746195335385,-0.34911253551722465,-0.24232445588056176,0.014971232269545585,-0.01026349498617809,-0.4571578558779676
5495,6.0,299.45762,2250.2936,0.0,0.0,0.0,0.0,0.0,-0.05476761866309543,-0.06576580226107934,-0.3424525338024337,-0.27581472242579375,0.014373111748765688,-0.003290617041908617,-0.4839259578147735
5496,6.0,301.29843,2496.6621,0.0,0.0,0.0,0.0,0.0,-0.05477758547267922,-0.0988752205177245,-0.37874991855720663,-0.28129779361943075,0.023638687108956776,-0.004418157497538195,-0.5303604335924995
5497,6.0,300.36267999999995,2761.4084,0.0,0.0,0.0,0.0,0.0,-0.05478755228226306,-0.13781179146346487,-0.40035624077458465,-0.3012311689942017,0.016467783415493684,-0.012947319910300988,-0.5223852231154075
5498,6.0,298.76386,2482.2774,0.0,0.0,0.0,0.0,0.0,-0.05479751909184688,-0.16258823887120985,-0.34010260417051363,-0.25185948382659573,-0.004787649785629245,-0.026361236425401474,-0.5221034281300965
5499,6.0,300.06617,2093.0370000000003,0.0,0.0,0.0,0.0,0.0,-0.054807485901430725,-0.11798985333469189,-0.31661887137284966,-0.2016222398935658,-0.016699930159154785,0.016418973131676486,-0.49487645562050353
5500,6.0,299.16328,2095.9914,0.0,0.0,0.0,0.0,0.0,-0.05481745271101454,-0.12141438536016687,-0.3299014149462347,-0.18581323825583884,-0.02256693093493268,0.022425887534262775,-0.47936712269985154
5501,6.0,300.33491000000004,2517.9121,0.0,0.0,0.0,0.0,0.0,-0.05482741952059833,-0.1067757179854429,-0.3407642970158177,-0.3178423911336017,-0.03818815301112726,0.03434596537393286,-0.4653512191015896
5502,6.0,300.33849,2645.2047,0.0,0.0,0.0,0.0,0.0,-0.05483738633018215,-0.14740322704256587,-0.37949053345279965,-0.2771824175432747,-0.025456479066608875,-0.003689083013959147,-0.4974241412744405
5503,6.0,299.74197999999996,2497.8956,0.0,0.0,0.0,0.0,0.0,-0.05484735313976599,-0.09726716525127181,-0.3581831909424287,-0.30384754287241766,-0.004629449831616126,0.022746501144154878,-0.48510380026101757
5504,6.0,300.16728,2363.982,0.0,0.0,0.0,0.0,0.0,-0.05485731994934981,-0.16866271375071384,-0.32962608449656167,-0.22030271125468479,0.024455373782307478,0.013539645653758987,-0.4966623494517575
5505,6.0,301.22916000000004,2381.1348,0.0,0.0,0.0,0.0,0.0,-0.05486728675893365,-0.1294392754896619,-0.35333445484139564,-0.24103179193298577,0.023653930443461178,-0.002309717281826348,-0.5040302887464165
5506,6.0,299.35309,2506.679,0.0,0.0,0.0,0.0,0.0,-0.054877253568517415,-0.19502179701965283,-0.3185323536566957,-0.24841366341651977,0.0069217022280938225,-0.04037585015628616,-0.4912277116129006
5507,6.0,300.47283,2640.7797,0.0,0.0,0.0,0.0,0.0,-0.05488722037810126,-0.14337135290715086,-0.3502030459373497,-0.3091566998188907,0.024128068668754978,0.01301482364521309,-0.5021947355277615
5508,6.0,300.0906,2380.0496,0.0,0.0,0.0,0.0,0.0,-0.054897187187685076,-0.1176978650533749,-0.3437464744451357,-0.2620313090629768,0.005794899823837084,0.004721099721711266,-0.4981292822840325
5509,6.0,298.03539,2363.6436,0.0,0.0,0.0,0.0,0.0,-0.05490715399726892,-0.09046832395477841,-0.3442855336308367,-0.2837347614349407,-0.00956449518411718,0.023523527182091376,-0.4897456712216345
5510,6.0,299.40407999999996,2830.7469,0.0,0.0,0.0,0.0,0.0,-0.05491712080685274,-0.22748405041092779,-0.37384253554038566,-0.2591497878985928,-0.035263181655955066,-0.036926501609361964,-0.47064076965862756
5511,6.0,299.21828999999997,2730.9729,0.0,0.0,0.0,0.0,0.0,-0.054927087616436554,-0.19563556313522681,-0.33375778403182865,-0.3007542321721317,-0.023080859491653477,0.008930887909060011,-0.45623024567641957
5512,6.0,300.21165,2410.6025,0.0,0.0,0.0,0.0,0.0,-0.05493705442602037,-0.13238124715501187,-0.34998664611349267,-0.2503950638545688,-0.023002965890215978,0.008521064213988561,-0.4597878478375276
5513,6.0,301.22539,2259.5603,0.0,0.0,0.0,0.0,0.0,-0.054947021235604215,-0.06275202865389304,-0.3479063524656837,-0.27619154000548274,-0.014061774443539087,0.0059825292217046645,-0.4789918553928156
5514,6.0,300.1064,2443.601,0.0,0.0,0.0,0.0,0.0,-0.054956988045188004,-0.1112074611403219,-0.37307523163715867,-0.25851099450554876,-0.02227680399404938,-0.036146837068165065,-0.5017178189706936
5515,6.0,300.07176,2498.0742,0.0,0.0,0.0,0.0,0.0,-0.05496695485477182,-0.1089853124785129,-0.39168102646590763,-0.2586858510753058,0.005730937296699474,0.018892214287516383,-0.5275822436733135
5516,6.0,300.72211,2399.21,0.0,0.0,0.0,0.0,0.0,-0.05497692166435564,-0.16846794681649185,-0.35444836120632967,-0.2063836237034778,0.05556690703502675,0.0017634292659369187,-0.5254638720867465
5517,6.0,299.01103,2327.1287,0.0,0.0,0.0,0.0,0.0,-0.05498688847393948,-0.10873398592370889,-0.35517045389009466,-0.24348455631755478,0.026721990951255176,-0.0007045839449520213,-0.5214491117455204
5518,6.0,299.59811,2408.6017,0.0,0.0,0.0,0.0,0.0,-0.0549968552835233,-0.11842820559295389,-0.3601693739209496,-0.25355719450164677,0.013032584906215988,-0.030019304360424673,-0.5057798778265875
5519,6.0,300.28145,2697.5808,0.0,0.0,0.0,0.0,0.0,-0.055006822093107116,-0.13664367621818085,-0.3524793325520017,-0.3308742059697417,-0.020838741696873678,0.00023835576802138276,-0.48149891985024357
5520,6.0,300.02269,2723.2673,0.0,0.0,0.0,0.0,0.0,-0.05501678890269096,-0.16920014160375382,-0.3573400351367157,-0.3012650824750487,0.0010012489530330782,0.0007624986254227553,-0.46198576968944555
5521,6.0,300.69433,2368.6165,0.0,0.0,0.0,0.0,0.0,-0.05502675571227475,-0.13120727532414986,-0.3379056246411887,-0.2508873818131568,-0.026006798500671176,-0.012146775324293388,-0.5015508252217126
5522,6.0,300.23377999999997,2337.2103,0.0,0.0,0.0,0.0,0.0,-0.055036722521858567,-0.14707058716723687,-0.3368159957486507,-0.22656698814292078,-0.0036263034563132866,-0.024388948145501774,-0.4718079425813186
5523,6.0,299.88612,2671.2472,0.0,0.0,0.0,0.0,0.0,-0.05504668933144238,-0.16175674557414785,-0.36907214393708465,-0.2811635683786837,-0.02134398568698738,0.02161844372832428,-0.48657076349079553
5524,6.0,300.05773,2738.7333,0.0,0.0,0.0,0.0,0.0,-0.05505665614102623,-0.16926687425533982,-0.36656484643213366,-0.29667480620952374,0.03197531680396807,0.01198021625960529,-0.4720733837100155
5525,6.0,299.03777,2444.7425,0.0,0.0,0.0,0.0,0.0,-0.055066622950610045,-0.1001370472117571,-0.38309482617851565,-0.2599088236810037,0.002474370423076348,0.009372333518552302,-0.48608203243756154
5526,6.0,299.4038,2479.8361,0.0,0.0,0.0,0.0,0.0,-0.055076589760193834,-0.13424752211669888,-0.35793982853341066,-0.26162091237497376,0.024588292943675576,-0.018059235565807782,-0.49046307255743654
5527,6.0,299.83783,2619.821,0.0,0.0,0.0,0.0,0.0,-0.05508655656977768,-0.16477305939933484,-0.3548278638987837,-0.2767592235065087,-0.01195933824129479,-0.0022047037374873183,-0.4981617265522345
5528,6.0,300.67135,2574.5852,0.0,0.0,0.0,0.0,0.0,-0.055096523379361495,-0.20119223681612783,-0.3385569114079657,-0.24286047531596278,0.002075784178238948,0.0028872296127973773,-0.4771456731806116
5529,6.0,299.92197000000004,2561.3181,0.0,0.0,0.0,0.0,0.0,-0.05510649018894531,-0.14654454824532084,-0.34523013603656166,-0.2868020518726587,-0.016550125184870184,-0.016284425677397685,-0.48549262485439154
5530,6.0,299.26903,2463.2792,0.0,0.0,0.0,0.0,0.0,-0.055116456998529156,-0.14548659355090884,-0.33964671255302065,-0.2636420626144457,0.0033275332894269665,-0.02040357408367598,-0.4804738349890755
5531,6.0,299.15071,2293.1889,0.0,0.0,0.0,0.0,0.0,-0.05512642380811297,-0.08125552372604583,-0.34634158020375266,-0.26947504959761676,-0.014439285086296485,0.015894021427117787,-0.5005830295211985
5532,6.0,299.66834,2549.7656,0.0,0.0,0.0,0.0,0.0,-0.05513639061769679,-0.12590843326369489,-0.3918940116369276,-0.2572626197198437,0.007167473639224572,0.01023485445885149,-0.4948760199229605
5533,6.0,300.27071,2633.5409,0.0,0.0,0.0,0.0,0.0,-0.05514635742728058,-0.12409748175746788,-0.3997524045099906,-0.2766807776837667,-0.02053872543501438,0.01243137903888159,-0.5122402490066765
5534,6.0,300.95391,2397.4933,0.0,0.0,0.0,0.0,0.0,-0.055156324236864424,-0.13882719978617786,-0.37256933612723064,-0.2173815517463888,0.013579454223687787,-0.0038091471726335565,-0.5008335657409245
5535,6.0,300.5556,2287.8566,0.0,0.0,0.0,0.0,0.0,-0.05516629104644824,-0.06124988132764265,-0.3763733809776606,-0.25782802340814476,0.001119660713576909,0.029078071011282174,-0.5174384651997005
5536,6.0,300.14437999999996,2527.7803,0.0,0.0,0.0,0.0,0.0,-0.05517625785603206,-0.16187829505614384,-0.34654610473643765,-0.25995770286582776,-0.02443430020672768,0.012858112358246887,-0.46922694126409353
5537,6.0,300.69558,2739.1398,0.0,0.0,0.0,0.0,0.0,-0.055186224665615874,-0.13101385601256088,-0.39067667270178563,-0.3109395741648467,-0.01864976279033828,-0.01060644265477439,-0.4793374446044225
5538,6.0,299.25559,2482.5251,0.0,0.0,0.0,0.0,0.0,-0.05519619147519972,-0.16423715142144485,-0.3240251115212887,-0.26636339907052076,-0.014742848736755885,-0.007042852793525452,-0.4594759694567475
5539,6.0,299.88455,2452.4707,0.0,0.0,0.0,0.0,0.0,-0.055206158284783535,-0.16012113699772584,-0.3322960694375687,-0.2530726380388248,0.03783684805570617,0.003182283684941947,-0.4817269112552446
5540,6.0,298.54192,2548.373,0.0,0.0,0.0,0.0,0.0,-0.05521612509436738,-0.2096631191096388,-0.3138263844947527,-0.25115225552179776,0.02150579260870648,0.0044256026566229754,-0.45535891138542556
5541,6.0,299.05109,2639.7506,0.0,0.0,0.0,0.0,0.0,-0.05522609190395114,-0.14324795930997286,-0.35610587624991363,-0.3030644221351297,0.02395870087478968,-0.008602426879793432,-0.47675302863436053
5542,6.0,299.76756,2925.6111,0.0,0.0,0.0,0.0,0.0,-0.055236058713534986,-0.19352137627157281,-0.3714261974969117,-0.3243651582548487,0.0023925628391525677,-0.026895528269381973,-0.4688848680303336
5543,6.0,300.10077,2647.1116,0.0,0.0,0.0,0.0,0.0,-0.0552460255231188,-0.0995530250528686,-0.38743894346474667,-0.3176638665984827,0.015997017286532682,-0.004651071676825036,-0.4960128865351605
5544,6.0,299.64187000000004,2066.5239,0.0,0.0,0.0,0.0,0.0,-0.05525599233270265,-0.09036009263209682,-0.32437033596285963,-0.2134412450225108,-0.02208493292861318,0.01178803615288859,-0.4994725175440995
5545,6.0,300.34747000000004,2282.4789,0.0,0.0,0.0,0.0,0.0,-0.055265959142286464,-0.10799807250857989,-0.3332306609323057,-0.2525878687934818,-0.01945517908282668,-0.005281778624795965,-0.4952735989971985
5546,6.0,299.97647,2567.7949,0.0,0.0,0.0,0.0,0.0,-0.05527592595187025,-0.16108409949526284,-0.35779094156371666,-0.26167050083486776,-0.039683694959975764,-0.0036285411178341265,-0.4987833250910815
5547,6.0,299.03702000000004,2419.8704,0.0,0.0,0.0,0.0,0.0,-0.05528589276145407,-0.1120157003475889,-0.3464993432443227,-0.2770651237116987,0.015720601646002585,0.013947730105033787,-0.4946375211144225
5548,6.0,300.60148,2334.3507,0.0,0.0,0.0,0.0,0.0,-0.055295859571037914,-0.11799758443295488,-0.3398307998311887,-0.2517559397988768,0.007289152513258342,0.007593397675735003,-0.49602688965154257
5549,6.0,300.53631,2289.0738,0.0,0.0,0.0,0.0,0.0,-0.05530582638062173,-0.09099749685925372,-0.32661234432662867,-0.2782114236823297,0.020224075815210883,0.003307223501772547,-0.4950396598141106
5550,6.0,300.99251,2534.8275,0.0,0.0,0.0,0.0,0.0,-0.055315793190205576,-0.15517279841186285,-0.34604759581973865,-0.26930389139072475,0.016319279454337483,-0.0067012296454598734,-0.4901600297175286
5551,6.0,300.07017,2801.3164,0.0,0.0,0.0,0.0,0.0,-0.055325759999789365,-0.17734088674968282,-0.38447461950219064,-0.28971473047761775,0.02080276827857338,0.01293944797027409,-0.5269972538605795
5552,6.0,299.51457,2670.317,0.0,0.0,0.0,0.0,0.0,-0.05533572680937321,-0.15663505002867587,-0.3699096559397406,-0.2851649842160927,0.00997644092887306,0.014896521286672187,-0.49735591914520755
5553,6.0,298.91555,2228.5904,0.0,0.0,0.0,0.0,0.0,-0.055345693618957,-0.0949739553334496,-0.34204725402743563,-0.24041463142957675,-0.01178873022920709,-0.0013625849932516689,-0.5447745748775645
5554,6.0,299.46443999999997,2171.3014,0.0,0.0,0.0,0.0,0.0,-0.05535566042854084,-0.07799418373517662,-0.33690113915455366,-0.24512608227456076,-0.033792229260533366,-0.006511205532305953,-0.49978204518464747
5555,6.0,298.93402000000003,2416.3274,0.0,0.0,0.0,0.0,0.0,-0.05536562723812466,-0.09793221195440681,-0.36748002405495467,-0.2690909568822097,-0.035605406877230066,-0.0015618927064718084,-0.5245230795013975
5556,6.0,299.52274,2530.029,0.0,0.0,0.0,0.0,0.0,-0.055375594047708476,-0.16627240610230884,-0.3519101798383307,-0.25088304510272874,0.004308270524193196,0.017379587928731784,-0.4519733388262956
5557,6.0,299.71445,2326.0627,0.0,0.0,0.0,0.0,0.0,-0.05538556085729229,-0.13468857975272785,-0.33486876210397365,-0.23750762702517778,0.024494045485624078,-0.02512422625281808,-0.4845830606371245
5558,6.0,300.29019,2461.8175,0.0,0.0,0.0,0.0,0.0,-0.05539552766687614,-0.15180087433157985,-0.34071891354383865,-0.25581126054160575,0.03159715666789657,-0.022447517384147478,-0.47044466523427353
5559,6.0,300.14416,2944.2505,0.0,0.0,0.0,0.0,0.0,-0.055405494476459954,-0.17512075445557282,-0.40318921712667766,-0.3166686624827637,0.01115693332810359,-0.024323780965320275,-0.47346316767967656
5560,6.0,300.6871,3085.3909999999996,0.0,0.0,0.0,0.0,0.0,-0.0554154612860438,-0.1999073951593238,-0.4136203837261536,-0.3243540429012517,0.012826179781345386,0.0023651061932428077,-0.48714846803531053
5561,6.0,300.7408,2833.2137,0.0,0.0,0.0,0.0,0.0,-0.05542542809562756,-0.16135910570490383,-0.36525404530776767,-0.33461305830873767,0.002029911610436678,-0.003984877467951786,-0.48523792417675454
5562,6.0,299.66359,2530.9038,0.0,0.0,0.0,0.0,0.0,-0.055435394905211405,-0.15594326365540184,-0.36106096308144264,-0.25232735206027074,-0.007879817438477432,0.0008785477501784122,-0.4869660526198076
5563,6.0,299.37982,2375.3283,0.0,0.0,0.0,0.0,0.0,-0.05544536171479522,-0.11237691387573788,-0.35010883394305164,-0.2595547434335588,-0.0046757185802074955,0.018305859626897684,-0.4893328832633956
5564,6.0,299.98179,2489.6633,0.0,0.0,0.0,0.0,0.0,-0.055455328524379066,-0.10604726209104991,-0.3902468925393696,-0.26050130141197675,-0.02862889926845237,0.032777321483369766,-0.5081181854798605
5565,6.0,298.98081,2395.7982,0.0,0.0,0.0,0.0,0.0,-0.05546529533396288,-0.1037661828034249,-0.37256418881672265,-0.25193244796629677,0.007617272381216253,-0.0002603327269928398,-0.5086829812181015
5566,6.0,299.02243,2134.5385,0.0,0.0,0.0,0.0,0.0,-0.0554752621435467,-0.07225459510647333,-0.36382550452178164,-0.21276630899839982,-0.017190465810816884,-0.012985234715792889,-0.5027703933070745
5567,6.0,299.40272000000004,2130.6606,0.0,0.0,0.0,0.0,0.0,-0.05548522895313049,-0.08144770889901301,-0.35553888175895565,-0.21068103016009881,0.015430775640398985,-0.008120345482990702,-0.5083386484366185
5568,6.0,299.76192000000003,2857.1379,0.0,0.0,0.0,0.0,0.0,-0.05549519576271433,-0.2054254538789138,-0.4059478715839356,-0.2571252534037868,-0.0023693161460832976,0.0020476664879639484,-0.47261614125858153
5569,6.0,300.09372,3170.8219,0.0,0.0,0.0,0.0,0.0,-0.05550516257229815,-0.2163646843435318,-0.4105858212666656,-0.3369001563019567,0.01876252435421698,-0.011942625694145387,-0.4874403448591165
5570,6.0,300.15185,2651.5525,0.0,0.0,0.0,0.0,0.0,-0.055515129381881995,-0.17047992714255886,-0.35721048097892966,-0.2783153426125857,0.015555095348168386,-0.02427173942693418,-0.4894338131058565
5571,6.0,299.93271,2387.266,0.0,0.0,0.0,0.0,0.0,-0.055525096191465784,-0.09424983614948461,-0.3328912120163047,-0.2985281926299387,0.018352066871207984,-0.0017954148358186482,-0.48424148389591354
5572,6.0,300.74156,2513.1767,0.0,0.0,0.0,0.0,0.0,-0.05553506300104963,-0.15237481971822386,-0.3334249111089767,-0.27814324208310076,-0.005108464626991205,0.01919104909975908,-0.4833744052553396
5573,6.0,300.06539,2599.0945,0.0,0.0,0.0,0.0,0.0,-0.05554502981063342,-0.1281878710861579,-0.3660095651123317,-0.2958624025443457,-0.008898696852058002,-0.0053652677985857045,-0.49117672486786856
5574,6.0,299.61442,2400.3434,0.0,0.0,0.0,0.0,0.0,-0.05555499662021726,-0.15467296213753287,-0.3329179618189447,-0.24205351280382176,-0.023339679030946976,0.014149169291164288,-0.48575872459565356
5575,6.0,299.7968,2329.0614,0.0,0.0,0.0,0.0,0.0,-0.05556496342980108,-0.09216915138713701,-0.36153067543029965,-0.2542766831326548,-0.012690425546197488,0.016365817018180382,-0.4801233011169805
5576,6.0,299.89009,2363.4917,0.0,0.0,0.0,0.0,0.0,-0.055574930239384895,-0.12084824199929288,-0.3479479058522847,-0.24964629229567079,-0.004277426380549116,0.022170230348531376,-0.49500192638038654
5577,6.0,299.85711000000003,2789.5887,0.0,0.0,0.0,0.0,0.0,-0.05558489704896871,-0.13968191677553188,-0.4007363210195956,-0.3075470608425317,0.0008622476768797201,-0.016789665614510983,-0.46719464527352156
5578,6.0,299.06942999999995,2999.4942,0.0,0.0,0.0,0.0,0.0,-0.05559486385855256,-0.1930135049239498,-0.4101919304227916,-0.3085659142155847,-0.005157688114199185,-0.02357697308511608,-0.4886743618909046
5579,6.0,299.67824,2703.4284,0.0,0.0,0.0,0.0,0.0,-0.055604830668136374,-0.18780456854486782,-0.35801740296106666,-0.2759527676194177,0.008026901025643452,-0.017296490274780682,-0.47132650692880457
5580,6.0,300.44605,2394.2532,0.0,0.0,0.0,0.0,0.0,-0.05561479747772022,-0.14259675360320387,-0.3488015791940357,-0.23639487576535778,0.005360737760038625,0.013449355950598088,-0.5084678783543725
5581,6.0,300.47895,2528.8863,0.0,0.0,0.0,0.0,0.0,-0.05562476428730398,-0.15332104332410887,-0.34675376021193166,-0.26864347524054677,0.02083304520481148,0.0006078447731821085,-0.49133130630312455
5582,6.0,300.74106,2729.2469,0.0,0.0,0.0,0.0,0.0,-0.055634731096887824,-0.13789090603127288,-0.36564060022091766,-0.3260913919202147,-0.008471799082201472,0.004835079516185195,-0.5037601461372555
5583,6.0,301.059,2545.7437,0.0,0.0,0.0,0.0,0.0,-0.05564469790647164,-0.1198260752984129,-0.3596927005439057,-0.2943237316049907,0.019458238084878583,0.00890585678123963,-0.5282390019906306
5584,6.0,301.27901,2391.6273,0.0,0.0,0.0,0.0,0.0,-0.055654664716055485,-0.0991509319494351,-0.34092079349376264,-0.2869232669821217,-0.009277638406606621,0.007378912387941953,-0.5026199763297295
5585,6.0,300.94131,2376.6944,0.0,0.0,0.0,0.0,0.0,-0.0556646315256393,-0.12055604093545488,-0.34970022057522465,-0.2521995102951538,0.0026300654201922473,-0.028685195444008372,-0.5186227012540755
5586,6.0,299.6234,2480.4738,0.0,0.0,0.0,0.0,0.0,-0.05567459833522312,-0.14008761198307088,-0.36828244720664766,-0.24563202844699375,-0.02189083169970688,-0.028753765118025677,-0.49109348637215355
5587,6.0,299.62676,2625.4714,0.0,0.0,0.0,0.0,0.0,-0.05568456514480691,-0.14587439476168187,-0.36779885333142065,-0.28440448935353774,-0.004798396417514855,0.003483524966172147,-0.4890184818898666
5588,6.0,299.74514,2559.2126,0.0,0.0,0.0,0.0,0.0,-0.05569453195439075,-0.15405838542187883,-0.3486778410918237,-0.27520051048017574,0.004829036188613766,0.008906871145914742,-0.4526582857613946
5589,6.0,298.53593,2227.3261,0.0,0.0,0.0,0.0,0.0,-0.05570449876397457,-0.08827677949898982,-0.3358861665293837,-0.25288856089315775,0.011322820607975388,0.007902880226653553,-0.4865709357433125
5590,6.0,299.57059,2530.7592,0.0,0.0,0.0,0.0,0.0,-0.055714465573558414,-0.16441618258161383,-0.3328017724299777,-0.2720696487311837,-0.00015771160799492385,-0.017257863154468485,-0.4559101295723265
5591,6.0,299.85228,3168.5097,0.0,0.0,0.0,0.0,0.0,-0.0557244323831422,-0.25401378526170876,-0.3832658729278966,-0.3258681830556857,0.006338283662289894,-0.009391708886964502,-0.4912859025661436
5592,6.0,299.90865,2917.2833,0.0,0.0,0.0,0.0,0.0,-0.05573439919272605,-0.2341675291305358,-0.35515370486594167,-0.29746003450701974,0.017474091739058582,0.005723569448597324,-0.4945269856610135
5593,6.0,300.6044,2386.0942,0.0,0.0,0.0,0.0,0.0,-0.055744366002309836,-0.12862943534723686,-0.3283095382441287,-0.2683740824364597,0.001999084894694318,-0.024064549033236078,-0.5193722530155505
5594,6.0,300.34705,2307.6672,0.0,0.0,0.0,0.0,0.0,-0.05575433281189368,-0.09210063541537501,-0.3309940329265677,-0.27837853902132276,0.017364951531037287,-0.028746228563781874,-0.49629774153577355
5595,6.0,300.26897,2404.2767,0.0,0.0,0.0,0.0,0.0,-0.0557642996214775,-0.0901714437019786,-0.3475311054236496,-0.29313753997792275,-0.012476468668331589,0.006152452276724764,-0.5001997474058715
5596,6.0,300.56654,2526.379,0.0,0.0,0.0,0.0,0.0,-0.055774266431061315,-0.12989485299962386,-0.3877868428865816,-0.2502744465626648,0.004074339649756016,0.020590055671830282,-0.5050013065822485
5597,6.0,298.82341,2298.2357,0.0,0.0,0.0,0.0,0.0,-0.05578423324064513,-0.1183719904774059,-0.3558438295090517,-0.2243904560006138,-0.04521785928990525,0.016803308013857383,-0.4833466016725956
5598,6.0,298.93998,2260.3797,0.0,0.0,0.0,0.0,0.0,-0.055794200050228976,-0.09549056191018471,-0.37839879700005363,-0.2132096261821518,-0.03125628616200527,0.018511766232719083,-0.4979190531532845
5599,6.0,299.14125,2381.6228,0.0,0.0,0.0,0.0,0.0,-0.05580416685981279,-0.1014554051553689,-0.37774148139518166,-0.24475697552813275,-0.02162859750757638,0.02129367984602258,-0.49061001408693855
5600,6.0,299.05228999999997,2862.4502,0.0,0.0,0.0,0.0,0.0,-0.05581413366939664,-0.16407788877072685,-0.39681564095015465,-0.3092198556976237,0.0033721951246847466,0.018701685778462682,-0.47905502140404954
5601,6.0,299.34075,2936.2962,0.0,0.0,0.0,0.0,0.0,-0.0558241004789804,-0.14541009316835887,-0.4177328517745226,-0.3294177805410037,-0.006956402396318464,-0.006383788622955884,-0.5033570043199685
5602,6.0,300.2874,2458.8628,0.0,0.0,0.0,0.0,0.0,-0.05583406728856424,-0.15248376436897584,-0.33407993676862263,-0.26086919225828475,0.028151154886052677,-0.023306678488440077,-0.5079682548625636
5603,6.0,300.15632999999997,2344.851,0.0,0.0,0.0,0.0,0.0,-0.05584403409814806,-0.13693934259736087,-0.35454369790823864,-0.22129313282993177,0.014384481428137788,0.014465156401099787,-0.5375446706440284
5604,6.0,300.8538,2682.5105,0.0,0.0,0.0,0.0,0.0,-0.055854000907731904,-0.20062508020515382,-0.3729258988374206,-0.24186524080274077,0.01334819812686459,-0.00019563752884042083,-0.5115706528105926
5605,6.0,300.31266,2770.6163,0.0,0.0,0.0,0.0,0.0,-0.05586396771731572,-0.15745715049731085,-0.38464015417102765,-0.3001008783751507,0.001058975949187789,-0.019313916820135182,-0.5128651710058516
5606,6.0,300.3716,2437.1623,0.0,0.0,0.0,0.0,0.0,-0.05587393452689954,-0.09015913676626401,-0.3706861702863767,-0.2799911772179777,0.007189889872511884,-0.036450385519872966,-0.4767304128921286
5607,6.0,300.83603999999997,2480.4633,0.0,0.0,0.0,0.0,0.0,-0.05588390133648333,-0.09089369343950911,-0.3760628400870127,-0.28704237453137676,-0.005984000663499885,-0.0016855026325461584,-0.47873299025726757
5608,6.0,299.73134,2704.889,0.0,0.0,0.0,0.0,0.0,-0.05589386814606717,-0.17792931148025581,-0.37089470728945767,-0.2733946860194547,-0.004774568625513236,0.007881631561456472,-0.4481170305357076
5609,6.0,299.56296000000003,2849.5763,0.0,0.0,0.0,0.0,0.0,-0.05590383495565099,-0.2001001558583478,-0.38981135711638565,-0.27628851817255373,-0.030405884604827172,0.017741308081930786,-0.4788906722378295
5610,6.0,299.66426,2733.7261,0.0,0.0,0.0,0.0,0.0,-0.05591380176523483,-0.19086813022221782,-0.3668473608250157,-0.27326898221204876,0.005505855439360625,0.004457827657503336,-0.4781167923414536
5611,6.0,299.37664,2331.1601,0.0,0.0,0.0,0.0,0.0,-0.05592376857481862,-0.1151729065991809,-0.33296877631145966,-0.2604727885541627,0.012382203985028388,0.027765810806772175,-0.4861055803698855
5612,6.0,298.93036,2238.5139,0.0,0.0,0.0,0.0,0.0,-0.055933735384402467,-0.06764728002726673,-0.3413685284479507,-0.2714365092736977,0.024752880223669078,-0.008724276081169012,-0.5092268432092766
5613,6.0,299.46082,2580.375,0.0,0.0,0.0,0.0,0.0,-0.055943702193986256,-0.1206522591649509,-0.3437320761612147,-0.3199852225775827,-0.008322261403293252,-0.037742743465918764,-0.5054026752118606
5614,6.0,299.39453,2742.7659,0.0,0.0,0.0,0.0,0.0,-0.0559536690035701,-0.18440156808401784,-0.3710998499047037,-0.27823093887925576,0.006307413883418284,-0.024019031812243876,-0.5307969822655835
5615,6.0,300.12812,2501.8999,0.0,0.0,0.0,0.0,0.0,-0.05596363581315392,-0.15138780266331286,-0.3613731454372527,-0.24775414905893073,-0.0022414570543895875,0.024604283043503677,-0.5107785040149135
5616,6.0,300.65134,2381.6308,0.0,0.0,0.0,0.0,0.0,-0.055973602622737734,-0.14152946687537088,-0.36536728613894365,-0.2170595408646088,0.006738443281882574,-0.0016798195153852782,-0.5248732182059536
5617,6.0,300.45023,2579.5233,0.0,0.0,0.0,0.0,0.0,-0.05598356943232155,-0.1289454883184289,-0.38308681137022466,-0.2720783525495427,-0.023354247540884776,-0.00859515174407543,-0.48561759912172553
5618,6.0,300.28115,2760.0136,0.0,0.0,0.0,0.0,0.0,-0.055993536241905395,-0.13046983190136988,-0.3918862906711656,-0.3166190841553707,0.0038717544777624163,-0.013992558315957986,-0.47345795957416253
5619,6.0,300.38515,2702.2015,0.0,0.0,0.0,0.0,0.0,-0.05600350305148921,-0.11666181682612488,-0.4053616354735786,-0.2993783398613417,0.03909425089980216,-0.0047832834882983255,-0.46587107719789556
5620,6.0,299.26523,2474.4869,0.0,0.0,0.0,0.0,0.0,-0.056013469861073,-0.15937196013878785,-0.3306065052933217,-0.26220375409749574,0.019618930431487682,-0.017878139401934983,-0.4559630110950456
5621,6.0,299.69046000000003,2416.0914,0.0,0.0,0.0,0.0,0.0,-0.05602343667065682,-0.16079558666178886,-0.31629716446609973,-0.25733869453735175,-0.0008605030425925383,-0.011549649815111689,-0.48973272188535655
5622,6.0,299.69827999999995,2579.7251,0.0,0.0,0.0,0.0,0.0,-0.05603340348024066,-0.1796607431186348,-0.33142267824887167,-0.27308860342924673,-0.007005968058085212,0.004953746200321685,-0.4850264892783876
5623,6.0,300.26191,2818.9614,0.0,0.0,0.0,0.0,0.0,-0.05604337028982448,-0.16704237485329884,-0.36064406132779764,-0.3292074500852457,-0.004822528285871485,0.03115727845498397,-0.5100249093855396
5624,6.0,299.27799,2659.9463,0.0,0.0,0.0,0.0,0.0,-0.056053337099408296,-0.13259433365104187,-0.3615814696578127,-0.3143814530320337,0.012990652564077589,0.005363625421498615,-0.49682246323255946
5625,6.0,300.32529,2361.3738,0.0,0.0,0.0,0.0,0.0,-0.05606330390899214,-0.1257247918155709,-0.3237818808347837,-0.2682920193108607,-0.0003169608939441047,-0.008032843433504923,-0.5047592411333586
5626,6.0,299.38937000000004,2430.9188,0.0,0.0,0.0,0.0,0.0,-0.05607327071857596,-0.14959481608135886,-0.3569438948776197,-0.23239990419858475,0.003355338594696137,-0.017352644595322684,-0.4832630389368486
5627,6.0,300.91028,2566.5996,0.0,0.0,0.0,0.0,0.0,-0.056083237528159746,-0.18258750589998382,-0.3585744878660466,-0.23902020677445776,-0.007854456497749502,0.005656777015255425,-0.49110542245833155
5628,6.0,300.16642,2453.1316,0.0,0.0,0.0,0.0,0.0,-0.05609320433774359,-0.15507872827257885,-0.36945333875720565,-0.2211586948066638,0.005643799611949655,-0.005841566982367774,-0.49248411133939757
5629,6.0,300.38935,2368.911,0.0,0.0,0.0,0.0,0.0,-0.05610317114732741,-0.11378873603507389,-0.35830602725205163,-0.24799502900520376,-0.04807894319977225,-0.015621721608493884,-0.48810093326181153
5630,6.0,300.33802000000003,2459.4489,0.0,0.0,0.0,0.0,0.0,-0.056113137956911224,-0.09663445642507831,-0.3591595790037907,-0.2918170217850977,0.0020752134144576178,0.0060695779430957044,-0.49318527027609654
5631,6.0,300.9743,2519.8561,0.0,0.0,0.0,0.0,0.0,-0.05612310476649504,-0.1071835511506929,-0.36083102623624963,-0.29795874607373873,-0.021935242451589877,0.02051961655137848,-0.48736292241897555
5632,6.0,299.79073,2557.7602,0.0,0.0,0.0,0.0,0.0,-0.056133071576078886,-0.13567336765741886,-0.3670793545679117,-0.2747425011699738,0.007963718701082841,0.0017708281194921283,-0.5191179576379535
5633,6.0,300.1271,2644.5621,0.0,0.0,0.0,0.0,0.0,-0.056143038385662675,-0.20062386430503382,-0.3346379741286967,-0.2686190153831327,-0.02269601697117248,-0.014210552995472385,-0.5164670319313276
5634,6.0,299.98143,2375.3567,0.0,0.0,0.0,0.0,0.0,-0.05615300519524649,-0.13257615594424788,-0.3503175837286537,-0.23915537433779774,0.02384043432311768,0.014329351503446887,-0.5470215582993244
5635,6.0,299.8696,2183.9923,0.0,0.0,0.0,0.0,0.0,-0.056162972004830336,-0.07362607471307783,-0.3367439637990417,-0.2535091056519007,-0.006552201023401893,0.03883441608390846,-0.5150252277015325
5636,6.0,300.16121,2486.7342,0.0,0.0,0.0,0.0,0.0,-0.05617293881441415,-0.10482648823806891,-0.3475336284163987,-0.3035449762600567,0.00945135344880096,0.006913011176686083,-0.5085624855162095
5637,6.0,300.27817999999996,2598.1363,0.0,0.0,0.0,0.0,0.0,-0.05618290562399797,-0.15711003127805284,-0.36802086656083166,-0.26463765176520276,-0.008960850322467072,-0.013333640762677885,-0.46218281643639253
5638,6.0,300.68616000000003,2371.8961,0.0,0.0,0.0,0.0,0.0,-0.056192872433581786,-0.15070001862793386,-0.3481711957768217,-0.22212597374962678,-0.0003285945350997557,-0.006274067822627284,-0.4774912117297136
5639,6.0,300.8829,2526.6306,0.0,0.0,0.0,0.0,0.0,-0.05620283924316563,-0.17351433761453183,-0.37288091053298067,-0.22163738455140677,-0.00928792360439669,-0.003458867322338627,-0.4659375970669606
5640,6.0,300.22665,2808.4821,0.0,0.0,0.0,0.0,0.0,-0.05621280605274942,-0.1883683510330088,-0.38023810937657965,-0.2851019701923737,-0.0030679575615838372,-0.03686555562909707,-0.4869610471643136
5641,6.0,301.33477,2966.1465,0.0,0.0,0.0,0.0,0.0,-0.05622277286233324,-0.15049628443032687,-0.3973356915639796,-0.35380248519508667,-0.008935441049709373,-0.02528247666668618,-0.4899441263862205
5642,6.0,301.6517,2704.7971,0.0,0.0,0.0,0.0,0.0,-0.056232739671917054,-0.12627832021269988,-0.38139137037539766,-0.3145211092933167,0.015387413602369487,0.002099279928182798,-0.5174524277860785
5643,6.0,301.02738,2360.2198,0.0,0.0,0.0,0.0,0.0,-0.0562427064815009,-0.0988728636979919,-0.33099426597409065,-0.28758075483951073,0.0030112959067167674,0.02564375605609168,-0.48129699937031556
5644,6.0,300.23921,2104.1622,0.0,0.0,0.0,0.0,0.0,-0.056252673291084715,-0.10621213814732189,-0.3226554608311147,-0.2107451790239298,-0.03220991459962107,0.013640913921753386,-0.5181644386313485
5645,6.0,299.40817000000004,2338.9331,0.0,0.0,0.0,0.0,0.0,-0.05626264010066856,-0.13674801058097788,-0.3395585293968177,-0.23467071926269675,-0.031487924254116166,-0.006645638489323453,-0.5097448470578995
5646,6.0,298.87613999999996,2610.6667,0.0,0.0,0.0,0.0,0.0,-0.05627260691025232,-0.15701868678153785,-0.3785368624586796,-0.2580219189472807,-0.009048946035186441,0.017281982559848884,-0.5243876282280295
5647,6.0,299.58631,2371.6619,0.0,0.0,0.0,0.0,0.0,-0.056282573719836165,-0.07456919574715663,-0.3673428603889176,-0.27901394815903274,-0.0034694058326536965,0.008353320254633522,-0.5008225719773396
5648,6.0,299.47965,2222.9848,0.0,0.0,0.0,0.0,0.0,-0.05629254052941998,-0.07371182404254063,-0.35966064131074166,-0.24235939274400975,-0.0008141788489556963,-0.015241141831183587,-0.5333483460173835
5649,6.0,300.4096,2795.1184,0.0,0.0,0.0,0.0,0.0,-0.05630250733900383,-0.15478355838594787,-0.3845308447502397,-0.3103317862248627,-0.005172299585941224,-0.009578195744019321,-0.4824558737746875
5650,6.0,300.75367,2907.3937,0.0,0.0,0.0,0.0,0.0,-0.05631247414858764,-0.2087946016539228,-0.41764516511086863,-0.25733532041451873,0.001292940868828329,0.016552264155831286,-0.5138927383297645
5651,6.0,300.1911,2532.6701,0.0,0.0,0.0,0.0,0.0,-0.05632244095817146,-0.15457114063498384,-0.3565059884494017,-0.2587913506757178,0.016658505455316486,0.016577574130079185,-0.4815940133721286
5652,6.0,300.3228,2522.7052,0.0,0.0,0.0,0.0,0.0,-0.05633240776775528,-0.12452614734477388,-0.35437531600662064,-0.2879379153672597,-0.011566520429276689,0.0036567585119189664,-0.4927093264391246
5653,6.0,299.91691000000003,2640.0077,0.0,0.0,0.0,0.0,0.0,-0.056342374577339094,-0.10569121613841091,-0.3574625877363107,-0.3393426361980107,0.026106806285541177,-0.018303305223395586,-0.4744803390575636
5654,6.0,300.52476,2720.6291,0.0,0.0,0.0,0.0,0.0,-0.05635234138692291,-0.14213203657733986,-0.36264449060272463,-0.3222267952438087,0.007503239188462053,-0.007828366928874663,-0.5079136102846705
5655,6.0,301.20085,2739.4325,0.0,0.0,0.0,0.0,0.0,-0.056362308196506755,-0.17562248550758983,-0.35772523229473163,-0.2993713484356517,0.03136102379834207,0.003674066039527087,-0.48631199968025757
5656,6.0,299.70364,2548.6446,0.0,0.0,0.0,0.0,0.0,-0.056372275006090544,-0.21119516339333977,-0.3363608742012337,-0.22716828114976378,-0.007262785719156143,-0.013558974412666588,-0.5001426912927405
5657,6.0,300.60154,2423.8884,0.0,0.0,0.0,0.0,0.0,-0.05638224181567439,-0.16168188665675987,-0.3438147877668777,-0.23130487468301375,-0.01020090247450069,-0.0037917168391133163,-0.4736753422506166
5658,6.0,299.61668,2693.2274,0.0,0.0,0.0,0.0,0.0,-0.056392208625258206,-0.14704444531465685,-0.4055007040498036,-0.26612874047986174,-0.029464261154396175,0.006716770672843654,-0.5036635530052225
5659,6.0,299.41863,2886.4168,0.0,0.0,0.0,0.0,0.0,-0.05640217543484205,-0.14642920998643785,-0.38409322203204965,-0.34687621148651665,-0.001249297856546099,-0.013272002732594686,-0.48738711883136354
5660,6.0,300.03567000000004,2583.6417,0.0,0.0,0.0,0.0,0.0,-0.05641214224442584,-0.12553200071904386,-0.3828402774883936,-0.2769902850593128,0.0003661724146684037,0.014135939284608587,-0.5032648593558745
5661,6.0,300.23073,2387.5186,0.0,0.0,0.0,0.0,0.0,-0.056422109054009656,-0.1160774146984489,-0.3694154026734616,-0.24025322068864677,-0.0025436403542377574,-0.01202401703492809,-0.5088222625768475
5662,6.0,299.12467999999996,2508.634,0.0,0.0,0.0,0.0,0.0,-0.05643207586359347,-0.18550003251742783,-0.3435643326071597,-0.2334977302844318,0.006814207842209954,0.03837253615832446,-0.4938715141713236
5663,6.0,299.92573,2556.2197,0.0,0.0,0.0,0.0,0.0,-0.05644204267317732,-0.13589748844703786,-0.35977382134691166,-0.28135566033264175,-0.013887597764599188,0.009095618361292641,-0.5028252405349876
5664,6.0,298.5927,2280.2308,0.0,0.0,0.0,0.0,0.0,-0.056452009482761134,-0.06294715630515064,-0.3473806276512987,-0.28280543884072373,0.014564991933452787,0.00993588974794597,-0.5020705617280065
5665,6.0,299.35438,2387.5878,0.0,0.0,0.0,0.0,0.0,-0.05646197629234498,-0.08830978612099732,-0.3475319058912287,-0.28992537504090676,-0.004690121727728975,-0.012734901146086886,-0.5008452485145776
5666,6.0,299.90653,2555.098,0.0,0.0,0.0,0.0,0.0,-0.05647194310192874,-0.12164305564273488,-0.37515678171509165,-0.27988616397761373,0.014968553236281185,0.027556444965109374,-0.5235481707851816
5667,6.0,299.42497000000003,2557.498,0.0,0.0,0.0,0.0,0.0,-0.056481909911512584,-0.16754893910829285,-0.36511937423697666,-0.24474720779716877,-0.005320078971950915,-0.019444105272483782,-0.5137455637527395
5668,6.0,300.68386,2810.6336,0.0,0.0,0.0,0.0,0.0,-0.0564918767210964,-0.2350386303740068,-0.38130662213703365,-0.23801719050046777,-0.01761765205297688,0.0006504379773007304,-0.5078937100527066
5669,6.0,301.20731,2797.1517,0.0,0.0,0.0,0.0,0.0,-0.056501843530680246,-0.2037593566069828,-0.38697655691411265,-0.25952837866595674,-0.008549272995447553,-0.008166444714840343,-0.47127072751079957
5670,6.0,300.60089,2459.2463,0.0,0.0,0.0,0.0,0.0,-0.05651181034026406,-0.11380673135684989,-0.3436653637746307,-0.2900773828209087,0.007743657396664482,0.01992506267095058,-0.49290258363069755
5671,6.0,300.77332,2449.9333,0.0,0.0,0.0,0.0,0.0,-0.05652177714984788,-0.11420999476414889,-0.34393388518363166,-0.2865746684177177,0.026730893366633774,-0.018935759723813984,-0.48426239737797755
5672,6.0,299.05587,2644.9212,0.0,0.0,0.0,0.0,0.0,-0.056531743959431696,-0.14852909989118085,-0.3477203096148227,-0.30774058147913075,-0.0012921259117728986,-0.015035800618917985,-0.4915932111889725
5673,6.0,298.97927000000004,2468.0116,0.0,0.0,0.0,0.0,0.0,-0.05654171076901554,-0.15611696512004486,-0.32628506454432865,-0.2678118806184747,0.015849908570764185,-0.006997901270064083,-0.49643597924691657
5674,6.0,299.78312,2431.1137,0.0,0.0,0.0,0.0,0.0,-0.05655167757859933,-0.16333281557469384,-0.35738756669890664,-0.2182774877498108,0.017967935652297182,0.02396606618976658,-0.5058036790714365
5675,6.0,298.63066000000003,2540.8070000000002,0.0,0.0,0.0,0.0,0.0,-0.056561644388183174,-0.12148981169761087,-0.3502055993276017,-0.3006464831564977,0.009193150370868302,-0.0032328216615046565,-0.49793836570019057
5676,6.0,298.83104,2593.3651,0.0,0.0,0.0,0.0,0.0,-0.05657161119776696,-0.12381006323410189,-0.3729977281370096,-0.2915104528348417,-0.04416784239677666,0.006184051089043324,-0.48539335674209455
5677,6.0,300.30192,2657.8344,0.0,0.0,0.0,0.0,0.0,-0.05658157800735081,-0.1211231772814269,-0.3927760965114826,-0.2940160176821217,-0.01140216518355609,-0.02752122236513318,-0.49334888990224457
5678,6.0,300.8995,2660.1967,0.0,0.0,0.0,0.0,0.0,-0.056591544816934625,-0.17675881509723684,-0.36160320387245765,-0.27027136285120673,0.0024888893850842577,0.016922042687075586,-0.48940965722347257
5679,6.0,300.79073999999997,2465.8682,0.0,0.0,0.0,0.0,0.0,-0.05660151162651847,-0.15499140637896083,-0.38334895943609665,-0.2112219841234868,0.036448460344682965,-0.016881544093828683,-0.5127079753853375
5680,6.0,300.14062,2340.4279,0.0,0.0,0.0,0.0,0.0,-0.05661147843610226,-0.15925538571478284,-0.3442763434524297,-0.20789990181562282,-0.009718098427726642,-0.015827242166027183,-0.5141827710383885
5681,6.0,300.10954,2667.0944,0.0,0.0,0.0,0.0,0.0,-0.056621445245686075,-0.1186966358094459,-0.39949683243726763,-0.29253663200611774,0.008939123200572772,-0.0023717313290216578,-0.5153604007021115
5682,6.0,300.15233,2633.7727,0.0,0.0,0.0,0.0,0.0,-0.05663141205526989,-0.11839452515962988,-0.3905233983591586,-0.2916832119768917,-0.004842326280900396,0.053934667515187246,-0.4996564629672536
5683,6.0,299.75516,2216.2401,0.0,0.0,0.0,0.0,0.0,-0.056641378864853736,-0.04006246507260746,-0.3431814355268707,-0.2904377654839757,0.03338300388964597,0.006066265932493834,-0.5075207326908966
5684,6.0,299.8728,2228.3907,0.0,0.0,0.0,0.0,0.0,-0.05665134567443755,-0.08808254958732081,-0.3515397052042677,-0.23775286394688075,-0.01085189134574829,0.006512720847830504,-0.5006822976334955
5685,6.0,299.5366,2626.9583,0.0,0.0,0.0,0.0,0.0,-0.0566613124840214,-0.17120809932692382,-0.35488411954433563,-0.2724374990474877,0.024955255652891976,-0.01052496417448309,-0.4784166637085486
5686,6.0,299.74157,2723.1157,0.0,0.0,0.0,0.0,0.0,-0.05667127929360516,-0.1993120499305678,-0.35056377310545067,-0.27788334343245075,-0.005385508482583306,0.02045063651107068,-0.4977668933857675
5687,6.0,300.09823,2626.3179999999998,0.0,0.0,0.0,0.0,0.0,-0.056681246103189004,-0.15282558429021084,-0.38112766190437164,-0.2643818365124558,0.002716327048905607,-0.016288751242074587,-0.4961506176212535
5688,6.0,300.13063999999997,2669.072,0.0,0.0,0.0,0.0,0.0,-0.05669121291277282,-0.15994768884560784,-0.35375209626761367,-0.2976314561589377,-0.029516468865798673,-0.013296462590008686,-0.4687247339845295
5689,6.0,300.40907999999996,2551.2394,0.0,0.0,0.0,0.0,0.0,-0.056701179722356665,-0.13296696650781786,-0.35421497931079665,-0.28833114759856876,-0.015687847323269985,-0.012330417785667487,-0.4849513871809755
5690,6.0,301.48062000000004,2706.9257,0.0,0.0,0.0,0.0,0.0,-0.05671114653194048,-0.17788399893578385,-0.38556886881518465,-0.2593849531143017,-0.02232074459788598,0.04110719077371386,-0.4968991358676266
5691,6.0,300.89718,2702.5978,0.0,0.0,0.0,0.0,0.0,-0.0567211133415243,-0.2076139423724008,-0.3522412289110027,-0.26166706591702876,-6.638050157999544e-05,-0.0006669818689709853,-0.5100831307362855
5692,6.0,300.91505,2330.4345,0.0,0.0,0.0,0.0,0.0,-0.056731080151108115,-0.1190338859727299,-0.34788721217129465,-0.24147278877400877,0.003988289587663536,-0.003472432005402356,-0.5046295552530595
5693,6.0,300.24207,2203.6076,0.0,0.0,0.0,0.0,0.0,-0.05674104696069196,-0.07984126773996963,-0.3373917548529737,-0.25260867081803473,0.01143944468123529,0.001862781680642238,-0.5133051849942776
5694,6.0,300.34589,2606.6069,0.0,0.0,0.0,0.0,0.0,-0.05675101377027575,-0.12217766666049688,-0.33992218485770764,-0.3302435692400027,0.0027606942310343073,0.03353082593348487,-0.47982416942245854
5695,6.0,299.71755,2861.6641,0.0,0.0,0.0,0.0,0.0,-0.05676098057985959,-0.12399342097219788,-0.4301681865417946,-0.3157128231334297,-0.006654243110497664,0.004684666693165605,-0.5092704433610795
5696,6.0,299.90828,2478.0515,0.0,0.0,0.0,0.0,0.0,-0.05677094738944338,-0.10790237103663491,-0.36526728848657464,-0.28009610939833374,-0.00996049247362407,0.011777258211574887,-0.4897719650617295
5697,6.0,300.12391,2432.0577,0.0,0.0,0.0,0.0,0.0,-0.05678091419902723,-0.13779142513645487,-0.3820541575308096,-0.21943923978446678,0.0017374262286206181,0.00042923662466485657,-0.5298123868784115
5698,6.0,299.75083,2671.9263,0.0,0.0,0.0,0.0,0.0,-0.056790881008611044,-0.16575434145867984,-0.39199414101180957,-0.25445039472979875,-0.005579832423861585,0.026115657025164673,-0.49738098695268157
5699,6.0,299.72848,2744.4414,0.0,0.0,0.0,0.0,0.0,-0.05680084781819489,-0.17007789990038183,-0.3814100952372456,-0.28275368202561574,-0.02177462407223808,-0.02041708780025968,-0.5286017961889355
5700,6.0,299.81415,2661.7409,0.0,0.0,0.0,0.0,0.0,-0.05681081462777868,-0.11521525032085989,-0.40640703599925165,-0.28748049374211576,-0.012722938715406288,-0.02328894559843998,-0.49939040375599547
5701,6.0,299.63917000000004,2374.7873,0.0,0.0,0.0,0.0,0.0,-0.056820781437362494,-0.08558525691385722,-0.34594280549439665,-0.2903479915251157,0.004819792206626455,-0.0038421300845887163,-0.5166063031575725
5702,6.0,299.92089,2212.6723,0.0,0.0,0.0,0.0,0.0,-0.05683074824694631,-0.0939699258093596,-0.3486467039162507,-0.2299804858748068,0.03961094360279576,0.042170337361638256,-0.5041059785288866
5703,6.0,300.67212,2584.8704,0.0,0.0,0.0,0.0,0.0,-0.056840715056530156,-0.15320498565765486,-0.3559069549902817,-0.2766241167381748,0.012592093676992887,-0.0023629201061520578,-0.5091877722854204
5704,6.0,300.57128,2974.3877,0.0,0.0,0.0,0.0,0.0,-0.05685068186611397,-0.2031015039795578,-0.3681339554044927,-0.3329041410875807,0.007949070144387144,-0.012033124126826888,-0.45746961266873554
5705,6.0,300.80666,2494.5991,0.0,0.0,0.0,0.0,0.0,-0.05686064867569782,-0.13230753321023686,-0.3407850990403707,-0.2852032040098647,0.018458937399005282,-0.010221643704047689,-0.4775546411859735
5706,6.0,300.19799,2395.1149,0.0,0.0,0.0,0.0,0.0,-0.05687061548528158,-0.11949080097282389,-0.3291108366882107,-0.2794534859199117,0.02364590550266918,0.022690999356677278,-0.46397837667360053
5707,6.0,300.29676,2906.4421,0.0,0.0,0.0,0.0,0.0,-0.05688058229486542,-0.1898652152732378,-0.3860808539582136,-0.30753975530931066,-0.004894507141175245,0.0009143598894602951,-0.48403742545827455
5708,6.0,300.67963,3069.4998,0.0,0.0,0.0,0.0,0.0,-0.05689054910444924,-0.22918372679117277,-0.4204555966482366,-0.28341195008558173,-0.026562413179756078,-0.04197784618714086,-0.4780438079367506
5709,6.0,299.84078,2764.3079,0.0,0.0,0.0,0.0,0.0,-0.056900515914033084,-0.17129247266275086,-0.3919045899679716,-0.27708350406851273,-0.0026341441571447874,-0.005725102090698584,-0.5006753163403066
5710,6.0,299.73036,2525.3808,0.0,0.0,0.0,0.0,0.0,-0.0569104827236169,-0.15613609528193284,-0.35662166108081766,-0.25489494807867275,0.005060862137293205,0.011812454467048488,-0.49813818875241156
5711,6.0,299.4481,2347.6195,0.0,0.0,0.0,0.0,0.0,-0.05692044953320072,-0.12136792784308188,-0.34327732951633466,-0.2489724607141688,0.005930721845416675,0.008301029051422782,-0.5184494861494805
5712,6.0,299.9874,2233.4729,0.0,0.0,0.0,0.0,0.0,-0.056930416342784534,-0.08717707484745742,-0.3204431001652717,-0.27129981170270673,-0.013955347719285588,-0.02160447708894588,-0.5217721561424026
5713,6.0,300.29052,2526.5248,0.0,0.0,0.0,0.0,0.0,-0.05694038315236838,-0.12354792530073089,-0.37792109010790764,-0.26653141620210274,0.015327551799711587,0.012792355466507187,-0.5323643991102756
5714,6.0,300.81254,2575.6515,0.0,0.0,0.0,0.0,0.0,-0.05695034996195217,-0.14412125930616085,-0.3746234575249566,-0.26418901501842573,0.02321970413960638,0.023646253047453478,-0.5110130916780655
5715,6.0,300.03777,2319.7745,0.0,0.0,0.0,0.0,0.0,-0.05696031677153601,-0.09229276384633661,-0.36841485872971563,-0.24444590774743277,0.025447365895209476,-0.008216354273691032,-0.5156354373092554
5716,6.0,300.73577,2523.5532,0.0,0.0,0.0,0.0,0.0,-0.0569702835811198,-0.13152547638555387,-0.3814579510394686,-0.25411373225157274,0.016324056928558983,-0.030334330909265367,-0.5110424556659635
5717,6.0,299.45577000000003,2905.7857,0.0,0.0,0.0,0.0,0.0,-0.056980250390703646,-0.19035722925679582,-0.37872945090518667,-0.3141996253015887,0.018926020363852783,0.02224600929701018,-0.4645288045254236
5718,6.0,298.67385,2781.2645,0.0,0.0,0.0,0.0,0.0,-0.05699021720028746,-0.17120308373892884,-0.4066351489942646,-0.26759671695973974,0.03031829318668257,0.024172458142385875,-0.5083667863918955
5719,6.0,298.71011,2592.599,0.0,0.0,0.0,0.0,0.0,-0.05700018400987131,-0.19091999849483682,-0.3560212698665636,-0.24114408030906778,-0.02029055515427188,-0.012127936978434187,-0.4993875159932105
5720,6.0,299.87605,2484.1843,0.0,0.0,0.0,0.0,0.0,-0.0570101508194551,-0.16422104074485486,-0.3333436383184557,-0.2575653180547177,-0.008917047216669041,-0.04518367932428196,-0.4841459546764856
5721,6.0,300.19563,2390.5581,0.0,0.0,0.0,0.0,0.0,-0.05702011762903891,-0.11353643676017389,-0.3440458391871807,-0.2690876942168877,-0.004036483815419936,0.0020157071612598083,-0.48361352214643855
5722,6.0,300.31291,2527.9541,0.0,0.0,0.0,0.0,0.0,-0.05703008443862273,-0.12369749114799188,-0.3249121309238307,-0.3198253013142997,0.015336735898617984,0.024519017034338578,-0.4803892083407235
5723,6.0,299.67787999999996,2752.1098,0.0,0.0,0.0,0.0,0.0,-0.057040051248206575,-0.14390390702720987,-0.3894973205128926,-0.3031714416106917,-0.0019041548100504483,-0.0010730845449051988,-0.4891007375329845
5724,6.0,300.03292000000005,2593.9075,0.0,0.0,0.0,0.0,0.0,-0.05705001805779039,-0.14716175941123485,-0.35583789186346565,-0.28548344872252274,0.0013328008105371989,-0.027054187023040372,-0.4980382012325435
5725,6.0,300.22878,2604.6539,0.0,0.0,0.0,0.0,0.0,-0.05705998486737421,-0.16231495518673886,-0.35685517469886363,-0.2725796377715158,0.0089890696417271,0.01785981274737628,-0.5205877579680115
5726,6.0,299.90661,2919.8274,0.0,0.0,0.0,0.0,0.0,-0.057069951676958,-0.18320739204616182,-0.42568098820894257,-0.2786662311222157,0.03560981451516507,0.006826007747574514,-0.5133978771134255
5727,6.0,300.11082000000005,2780.2264,0.0,0.0,0.0,0.0,0.0,-0.05707991848654184,-0.18731575643162585,-0.37328003987987163,-0.2845236070352937,-0.008706178015832872,-0.005828428573621114,-0.5089479258542495
5728,6.0,300.64553,2284.0588,0.0,0.0,0.0,0.0,0.0,-0.05708988529612566,-0.09882522169154,-0.3443803434426937,-0.2510912679982788,-0.006366187354143775,-0.03306425769968817,-0.5028940706142805
5729,6.0,301.05936,2174.9516,0.0,0.0,0.0,0.0,0.0,-0.057099852105709475,-0.08355126879561822,-0.3516728766649107,-0.2259068455702698,-0.010828664613705989,0.029231569282181274,-0.4985419182547565
5730,6.0,301.80065,2509.6635,0.0,0.0,0.0,0.0,0.0,-0.05710981891529332,-0.11783006379392189,-0.3450660705803697,-0.2999789134606137,-0.016362709380123686,0.05451542700875374,-0.4929538236882545
5731,6.0,301.45097000000004,2721.0170000000003,0.0,0.0,0.0,0.0,0.0,-0.05711978572487714,-0.15657331270008285,-0.40380742127768965,-0.2667404699627347,-0.03288194867544567,0.020873426261046782,-0.5237489969550015
5732,6.0,300.49567,2618.7749,0.0,0.0,0.0,0.0,0.0,-0.057129752534460954,-0.11741669828312588,-0.3932089670867036,-0.28541651342091673,-0.017317068371061582,-0.03382855022361797,-0.5300213393140335
5733,6.0,299.96082,2440.2228,0.0,0.0,0.0,0.0,0.0,-0.0571397193440448,-0.11300928326314791,-0.35081761252050264,-0.27793991318553374,-0.002847111494963028,0.007883917555007081,-0.5196704322549786
5734,6.0,299.82621,2530.0113,0.0,0.0,0.0,0.0,0.0,-0.05714968615362859,-0.0923699684377061,-0.39220859539547465,-0.2844816990111577,0.030614448965660866,0.0017440121516205985,-0.5233179907599645
5735,6.0,299.58967,2779.5967,0.0,0.0,0.0,0.0,0.0,-0.057159652963212404,-0.14733540008087184,-0.38840312186240367,-0.30918946832712474,-0.015316275339348684,-0.01646358653357948,-0.5236589392861135
5736,6.0,299.82166,2817.6149,0.0,0.0,0.0,0.0,0.0,-0.05716961977279622,-0.19112472567754182,-0.38096145849046864,-0.2843983794554347,-0.00019015289724162983,-0.03826881075883756,-0.4788713596909236
5737,6.0,299.6228,2417.5155,0.0,0.0,0.0,0.0,0.0,-0.057179586582380065,-0.14350320714266387,-0.34810342961013363,-0.2432577098851668,0.004464672972528915,0.018658489913449584,-0.49984483629334453
5738,6.0,299.57499,2391.3015,0.0,0.0,0.0,0.0,0.0,-0.05718955339196388,-0.12867963175719088,-0.3463870042057357,-0.25182929910611673,0.03927849421848557,0.026245216249201175,-0.47190547803594457
5739,6.0,301.07635,2910.6317,0.0,0.0,0.0,0.0,0.0,-0.05719952020154767,-0.18588409483533183,-0.3857401688770906,-0.31313509461402766,-0.01138881156048819,-0.017711234818962782,-0.48370003343997653
5740,6.0,302.27332,2953.7966,0.0,0.0,0.0,0.0,0.0,-0.057209487011131516,-0.16851908554903886,-0.3855139506597647,-0.3438473840225947,-0.013697420853330186,-0.044496070581170256,-0.4613589427800826
5741,6.0,300.39896,2565.8528,0.0,0.0,0.0,0.0,0.0,-0.05721945382071533,-0.12074672447177388,-0.3626175280175637,-0.2965909394987467,-0.042254465490941064,0.02687328033693627,-0.48602354764178957
5742,6.0,300.25302,2624.3265,0.0,0.0,0.0,0.0,0.0,-0.05722942063029915,-0.13926904775728485,-0.38552773086112463,-0.2729329580813858,0.01223508918975929,0.02036882467149648,-0.5126838296354546
5743,6.0,299.74098,2688.6212,0.0,0.0,0.0,0.0,0.0,-0.057239387439882966,-0.16902502158897084,-0.36177104875152266,-0.28647761932313975,-0.01880690673509718,0.0066872695922071245,-0.5151920694629986
5744,6.0,300.1285,2552.6599,0.0,0.0,0.0,0.0,0.0,-0.05724935424946681,-0.13172719421546186,-0.4096720925914876,-0.23454559300784777,0.007480207405738993,-0.025258592335328976,-0.5522275461206154
5745,6.0,300.13876,2427.481,0.0,0.0,0.0,0.0,0.0,-0.05725932105905063,-0.14486277599434286,-0.33550213460898265,-0.25752869919610377,0.027330994791359177,0.0007417199765495623,-0.5017706599634085
5746,6.0,299.10285,2340.7163,0.0,0.0,0.0,0.0,0.0,-0.057269287868634416,-0.07767053544123502,-0.3525252023840287,-0.2813235605694737,0.03466787391745276,0.016361605950764784,-0.5256538159504924
5747,6.0,299.8643,2347.3767,0.0,0.0,0.0,0.0,0.0,-0.05727925467821823,-0.10345928961313691,-0.36671573963702564,-0.2433688735536378,0.002946792101375737,-0.01198657339073269,-0.5014894830606584
5748,6.0,300.37403,2554.3496,0.0,0.0,0.0,0.0,0.0,-0.05728922148780208,-0.14629243135543885,-0.3587223311881376,-0.2714437236144097,-0.02533928858654308,-0.02603167277737608,-0.5264867784601995
5749,6.0,300.2803,2904.4682,0.0,0.0,0.0,0.0,0.0,-0.057299188297385895,-0.2004834785036788,-0.38928634157707065,-0.2931159780157947,-0.017511580979508484,0.03219309971421157,-0.4964219761305345
5750,6.0,300.77853999999996,2693.8663,0.0,0.0,0.0,0.0,0.0,-0.05730915510696974,-0.15645247249315686,-0.38900589421439263,-0.27340971251843776,0.00028216805386531874,0.016456506955130786,-0.5358966598863825
5751,6.0,300.55295,2517.1910000000003,0.0,0.0,0.0,0.0,0.0,-0.057319121916553556,-0.12601579724429088,-0.37986334869459365,-0.2592840638018447,0.006647055722238324,-0.002898763438685677,-0.5112574977346865
5752,6.0,300.25736,2540.7263,0.0,0.0,0.0,0.0,0.0,-0.05732908872613737,-0.10683359483115491,-0.37351997750355165,-0.2919637910620827,-0.009968993743288081,-0.02836767022042107,-0.5348716560852225
5753,6.0,300.5871,2542.831,0.0,0.0,0.0,0.0,0.0,-0.05733905553572116,-0.12965291927324687,-0.3482081996704737,-0.2950960105662087,0.0037865927320326065,0.004689332304576066,-0.4777465710199156
5754,6.0,299.80733,2411.1220000000003,0.0,0.0,0.0,0.0,0.0,-0.057349022345305006,-0.13093207659698985,-0.3456502092630197,-0.25633859642364976,-0.002963480431847747,0.01916674730936068,-0.4996793522870125
5755,6.0,299.26903,2693.7715,0.0,0.0,0.0,0.0,0.0,-0.05735898915488882,-0.17080893958252982,-0.36690251202795865,-0.2811278310476567,-0.008358738913518302,0.0099871959707345,-0.4944516201185756
5756,6.0,299.47603,2821.6961,0.0,0.0,0.0,0.0,0.0,-0.05736895596447264,-0.20072905993041582,-0.3646463282952907,-0.29234976842267574,-0.0012075108144720388,-0.013130583416137686,-0.4702513877776986
5757,6.0,298.41925,2665.6236,0.0,0.0,0.0,0.0,0.0,-0.05737892277405646,-0.16026057034398683,-0.35388475097070565,-0.2961376924640147,0.007051454780249404,0.02043201196098258,-0.4849325001991115
5758,6.0,299.80432,2810.8335,0.0,0.0,0.0,0.0,0.0,-0.0573888895836403,-0.15752188704619985,-0.36706884716437466,-0.32983245314442866,0.014206713790843487,0.007739190686248653,-0.47039904871477156
5759,6.0,299.91901,2728.2075,0.0,0.0,0.0,0.0,0.0,-0.05739885639322412,-0.15956184320752784,-0.37778070430655264,-0.2919644091446437,0.015263687659158686,-0.029288978006347072,-0.4879193588438915
5760,6.0,300.0529,2540.0647,0.0,0.0,0.0,0.0,0.0,-0.05740882320280796,-0.1285993823492709,-0.37782052503548264,-0.26569633599968673,0.02118414852346268,-0.02955821071691827,-0.5125770837374195
5761,6.0,300.67599,2542.0675,0.0,0.0,0.0,0.0,0.0,-0.057418790012391724,-0.14552960601765386,-0.3609822031511697,-0.26621323540570074,0.004647255776948436,0.00882086566682666,-0.5165171371487726
5762,6.0,299.85521,2457.6748,0.0,0.0,0.0,0.0,0.0,-0.05742875682197557,-0.1328927662029949,-0.3768510473398027,-0.2373279575174458,0.011828237863856188,0.022067480708890776,-0.5462425918874465
5763,6.0,300.397,2306.8793,0.0,0.0,0.0,0.0,0.0,-0.057438723631559385,-0.09481864435812161,-0.3533853807914216,-0.2530296661020838,-0.02280326037500658,-0.0034879115285050663,-0.5348545929535385
5764,6.0,300.47516,2346.8068,0.0,0.0,0.0,0.0,0.0,-0.05744869044114323,-0.06707047828859085,-0.3693952795264756,-0.27690491873838774,-0.020197578311845783,-0.01060638996576919,-0.5492127521705784
5765,6.0,300.09377,2437.6626,0.0,0.0,0.0,0.0,0.0,-0.05745865725072705,-0.100458104625193,-0.35920862030863066,-0.2813218380443038,-0.008998495502107361,0.015557954739950586,-0.4843286031395116
5766,6.0,300.63906000000003,2591.5941,0.0,0.0,0.0,0.0,0.0,-0.057468624060310836,-0.13561306914396787,-0.35699092994726167,-0.2951759053365937,-0.014157920732277987,0.007548404710344543,-0.5039443246079326
5767,6.0,299.82535,2755.8989,0.0,0.0,0.0,0.0,0.0,-0.05747859086989465,-0.16992230521502585,-0.3865388430034136,-0.2812633025860267,-0.008266773396017012,-0.030480219671913472,-0.5038537197839905
5768,6.0,299.92285,2902.6981,0.0,0.0,0.0,0.0,0.0,-0.0574885576794785,-0.2052478108713818,-0.38800121621023864,-0.2890987250793227,0.007281509871729072,-0.0016056701770423086,-0.49620005409363255
5769,6.0,300.64201,2987.5772,0.0,0.0,0.0,0.0,0.0,-0.057498524489062314,-0.18406183545798882,-0.4040108818977696,-0.32007615164155667,0.02041746776904718,0.022438836870540775,-0.48166292451142956
5770,6.0,299.88746000000003,2654.8579999999997,0.0,0.0,0.0,0.0,0.0,-0.05750849129864616,-0.14701297376655084,-0.36888230139834866,-0.2911152447658377,0.027353851687114975,0.02843442719000947,-0.48555737153578155
5771,6.0,299.72777,2675.6969,0.0,0.0,0.0,0.0,0.0,-0.05751845810822995,-0.15771755577301083,-0.38469706842914464,-0.2709304009812487,-0.00998434752205338,-0.016355161680128783,-0.4958584368224175
5772,6.0,299.71226,2713.8604,0.0,0.0,0.0,0.0,0.0,-0.05752842491781379,-0.15849659311239586,-0.38021401428920165,-0.28623518910421375,-0.01016110403707289,-0.027695159917049475,-0.4884376970650475
5773,6.0,299.19852000000003,2362.6976,0.0,0.0,0.0,0.0,0.0,-0.05753839172739758,-0.11986989836523788,-0.3442656941938787,-0.2540654711493098,-0.017048899573095383,-0.0058859406492971144,-0.5178652765393235
5774,6.0,300.95567,2432.2108,0.0,0.0,0.0,0.0,0.0,-0.057548358536981425,-0.14982306079888486,-0.3237077109274637,-0.2658005690374738,-0.0003216216518865857,0.0015747986756455283,-0.48483124611661854
5775,6.0,301.6858,2669.2962,0.0,0.0,0.0,0.0,0.0,-0.05755832534656524,-0.14761694175365786,-0.36566749187857167,-0.2981149588416557,-0.025389798090777977,-0.028334156973363576,-0.5254105548664845
5776,6.0,301.6855,2698.5457,0.0,0.0,0.0,0.0,0.0,-0.05756829215614906,-0.14034087384556584,-0.36831467869232865,-0.3116349677084767,0.0034189292590470466,0.01039293363345269,-0.47959300654464454
5777,6.0,300.57721000000004,2714.7866,0.0,0.0,0.0,0.0,0.0,-0.057578258965732876,-0.14279677930544485,-0.38376158527431964,-0.2986689533338307,0.021086205742296478,0.0007848155298027621,-0.5131969394860945
5778,6.0,300.47011000000003,2923.7042,0.0,0.0,0.0,0.0,0.0,-0.05758822577531672,-0.16557743812372086,-0.4052893198139416,-0.3178663139684627,0.029396767551985073,-0.0026421255281824873,-0.4878623736582675
5779,6.0,300.03475,2702.0433,0.0,0.0,0.0,0.0,0.0,-0.05759819258490054,-0.16976177600168285,-0.3982837795500486,-0.2533081376270668,-0.0035987554152445062,-0.03884836043178467,-0.5267259054837995
5780,6.0,299.88678,2513.0954,0.0,0.0,0.0,0.0,0.0,-0.05760815939448438,-0.14032788397928386,-0.40082753379359765,-0.2227628318349798,-0.007656857732148024,-0.01025167238401129,-0.5341835782073144
5781,6.0,299.77502999999996,2627.281,0.0,0.0,0.0,0.0,0.0,-0.05761812620406814,-0.14265822748677087,-0.38920507891905065,-0.26676451438760773,-0.005108077261477975,0.03610907526343827,-0.5244214809138705
5782,6.0,299.98286,2459.0051,0.0,0.0,0.0,0.0,0.0,-0.05762809301365199,-0.11608698991189388,-0.36601419566528864,-0.26537496346546974,-0.01242607974085859,0.03651598738434736,-0.5173594722219045
5783,6.0,298.92666,2272.4172,0.0,0.0,0.0,0.0,0.0,-0.057638059823235804,-0.08296916167941872,-0.3669941706320046,-0.24079476233709277,-0.027507251672754373,-0.019731090124806984,-0.5167568417249294
5784,6.0,299.95628,2678.9986,0.0,0.0,0.0,0.0,0.0,-0.05764802663281965,-0.14595965975759687,-0.3646873953218437,-0.3037016348580177,-0.03881449660019256,-0.019766407970292582,-0.5166675541261174
5785,6.0,300.17424,2657.0037,0.0,0.0,0.0,0.0,0.0,-0.057657993442403466,-0.16240300662042884,-0.3587366889420547,-0.2865230939876277,0.013902787396848288,0.00931542564391093,-0.4828868090422176
5786,6.0,300.92661,2563.3179,0.0,0.0,0.0,0.0,0.0,-0.057667960251987255,-0.14392182128897785,-0.35321213528932366,-0.28205067897373476,0.0044235390714693155,0.00958669083285772,-0.4917810576250115
5787,6.0,301.10621000000003,2998.3457,0.0,0.0,0.0,0.0,0.0,-0.05767792706157107,-0.17039640493681582,-0.4033690082244216,-0.3376568109466327,0.007704159286566322,-0.015202614009381185,-0.4974770430621615
5788,6.0,300.29901,2973.6149,0.0,0.0,0.0,0.0,0.0,-0.057687893871154916,-0.2098029070934348,-0.38015329021070865,-0.31394849126430374,-0.007359928134068354,-0.008500385096672692,-0.47555836623645653
5789,6.0,298.81806,2620.6781,0.0,0.0,0.0,0.0,0.0,-0.05769786068073873,-0.14183324938785186,-0.37684294133900265,-0.27794452347348875,0.01776341314611238,0.009503825010529501,-0.5154426056827245
5790,6.0,299.98488,2711.0358,0.0,0.0,0.0,0.0,0.0,-0.05770782749032258,-0.16382303610557483,-0.37179295350310765,-0.2884711990273907,-0.012636587515384089,0.0036033769502756166,-0.48023407975041355
5791,6.0,298.94979,2669.1064,0.0,0.0,0.0,0.0,0.0,-0.057717794299906366,-0.17131008294948885,-0.37293973983378664,-0.26709187522991573,0.00988160588708857,-0.03826206453967176,-0.5243466118639815
5792,6.0,299.41943,2477.4021,0.0,0.0,0.0,0.0,0.0,-0.05772776110949021,-0.13610788983030286,-0.3554382862890276,-0.26152219141773075,0.01005289693106868,-0.012767085009013187,-0.49611591380532855
5793,6.0,300.45043,2349.8753,0.0,0.0,0.0,0.0,0.0,-0.057737727919074,-0.09805507359528232,-0.34571263560168064,-0.27053571980229674,0.03914055440287196,0.005046821631982516,-0.5226995940914335
5794,6.0,300.97882999999996,2605.4371,0.0,0.0,0.0,0.0,0.0,-0.057747694728657845,-0.13412673257227786,-0.38124007187046566,-0.2766210060603677,-0.005952863082626844,0.028188602583248477,-0.5011192820041225
5795,6.0,301.80512999999996,2698.4192,0.0,0.0,0.0,0.0,0.0,-0.05775766153824166,-0.13247656359191887,-0.36822606997108365,-0.3195494338420737,-0.025568699554934175,-0.0038760517727615264,-0.5243538262046935
5796,6.0,301.10894,2576.0232,0.0,0.0,0.0,0.0,0.0,-0.05776762834782548,-0.14492525299550885,-0.38550709095658764,-0.2526143855485988,-0.045316127324353556,0.011414762922049388,-0.5196693278123695
5797,6.0,299.96178,2651.1649,0.0,0.0,0.0,0.0,0.0,-0.057777595157409295,-0.16273764259845483,-0.3798806144762977,-0.2632696830701947,-0.01060682161031179,0.015548180929485985,-0.5118978110028805
5798,6.0,299.56562,2626.4113,0.0,0.0,0.0,0.0,0.0,-0.05778756196699314,-0.1115349638376439,-0.4023224728586366,-0.2845060271460587,-0.0018478751504710782,0.004551966292494095,-0.5214266277258015
5799,6.0,299.71832,2491.8134,0.0,0.0,0.0,0.0,0.0,-0.057797528776576956,-0.12386256985428389,-0.38739617417802563,-0.24619029885459076,0.019470005971539982,-0.040401472211564864,-0.5183968680717874
5800,6.0,300.12346,2648.1806,0.0,0.0,0.0,0.0,0.0,-0.0578074955861608,-0.14232642860902486,-0.3745879836389556,-0.2880663650824367,0.03378223152179667,0.0013375471779806288,-0.5312192846422615
5801,6.0,301.28695,2551.1748,0.0,0.0,0.0,0.0,0.0,-0.05781746239574456,-0.15535031982938285,-0.35374600663451267,-0.26639712003384874,0.03895619253392686,0.015119966238474487,-0.4995715222113705
5802,6.0,300.79224,2356.085,0.0,0.0,0.0,0.0,0.0,-0.05782742920532841,-0.12641979019166186,-0.34549230436743567,-0.24427890386595077,-0.007488919634073822,0.011810641762619591,-0.5147751170468485
5803,6.0,299.7961,2587.9223,0.0,0.0,0.0,0.0,0.0,-0.057837396014912223,-0.17344249818244184,-0.3307046284330057,-0.2825166220322198,-0.030707324483076972,-0.03164043865916817,-0.4954144306285975
5804,6.0,299.66292000000004,3008.4256,0.0,0.0,0.0,0.0,0.0,-0.05784736282449607,-0.18647118207577282,-0.3870727042161016,-0.3409423757208927,-0.027311582945943373,0.013878395427190986,-0.4954689941464825
5805,6.0,299.83496,2892.3262,0.0,0.0,0.0,0.0,0.0,-0.057857329634079885,-0.18010881244535581,-0.3770631611157366,-0.3220229597211917,0.009404822065783672,0.015417950933883285,-0.47328298141439357
5806,6.0,299.31027,2771.0511,0.0,0.0,0.0,0.0,0.0,-0.057867296443663674,-0.13983995339362887,-0.38319409429081264,-0.31929630370209167,0.005486819611056934,0.011469218022173688,-0.48019562690911854
5807,6.0,299.21247,2964.5839,0.0,0.0,0.0,0.0,0.0,-0.05787726325324749,-0.19073251682883383,-0.40510419902067163,-0.3053227742230117,0.004176622282425526,-0.03075175651321207,-0.4808501155462115
5808,6.0,299.54581,2664.4044,0.0,0.0,0.0,0.0,0.0,-0.057887230062831335,-0.1992666867235908,-0.3470797835641077,-0.2635659472669338,-0.005710263245634104,0.017080946647258184,-0.47848426775522057
5809,6.0,299.89775,2476.8372,0.0,0.0,0.0,0.0,0.0,-0.05789719687241515,-0.13836600887066186,-0.3805765247774786,-0.2339541285269748,0.04127929636944936,0.016664324550640784,-0.5229774981963605
5810,6.0,300.14866,2482.5479,0.0,0.0,0.0,0.0,0.0,-0.057907163681999,-0.1048582232312009,-0.3792133791529466,-0.27056096999478874,0.011806115574422888,0.01180903778771129,-0.5208641827277926
5811,6.0,300.47556000000003,2333.851,0.0,0.0,0.0,0.0,0.0,-0.057917130491582786,-0.09134375582917682,-0.35334427323486467,-0.26474439766323776,0.008622669691616241,-0.04965870649693275,-0.5415702626288236
5812,6.0,300.19751,2457.3383,0.0,0.0,0.0,0.0,0.0,-0.05792709730116663,-0.09187675375277961,-0.38626487030887463,-0.26882786649374474,-0.01899044381846088,-0.01985722355025538,-0.5419182228456645
5813,6.0,300.31113,2790.9043,0.0,0.0,0.0,0.0,0.0,-0.05793706411075042,-0.17806042604319583,-0.37500981992058763,-0.29529497235584473,-0.0017140177195103783,0.01951760744798788,-0.5230567647516835
5814,6.0,300.64466,2664.4123,0.0,0.0,0.0,0.0,0.0,-0.057947030920334264,-0.16111480097329287,-0.3810902020481747,-0.26770980580340076,-0.01175190365432259,0.023431320409741274,-0.5267724339283916
5815,6.0,300.79413999999997,2601.9692,0.0,0.0,0.0,0.0,0.0,-0.05795699772991808,-0.13251014270023287,-0.3778598695368656,-0.28056367365697876,0.0014619246410057288,-0.005237003204201975,-0.5181161167340794
5816,6.0,300.71644,2910.7083,0.0,0.0,0.0,0.0,0.0,-0.0579669645395019,-0.16079514083174484,-0.38782983508832464,-0.3361576871586807,0.0019170910754021581,0.019965665628957782,-0.5090112033229945
5817,6.0,301.52808,2939.7809,0.0,0.0,0.0,0.0,0.0,-0.057976931349085714,-0.1910010585028368,-0.39609502761153564,-0.3065238910240527,0.023824102758005877,0.004395652908842166,-0.4617898881801136
5818,6.0,301.32021000000003,2617.1246,0.0,0.0,0.0,0.0,0.0,-0.05798689815866956,-0.1212507657340189,-0.38964139454461166,-0.2846483685201067,0.02037649193500318,-0.008013227519518983,-0.49028449735981255
5819,6.0,300.00874,2454.51,0.0,0.0,0.0,0.0,0.0,-0.057996864968253375,-0.16873280026013082,-0.3499867981010077,-0.2273901423916598,-0.0016262822172015585,-0.03631001795701976,-0.47890379382662457
5820,6.0,299.0082,2667.3363,0.0,0.0,0.0,0.0,0.0,-0.05800683177783722,-0.18768307985787783,-0.3635392107060266,-0.25958135138118477,-0.011756953692820989,0.0023744278915127878,-0.5118677782699165
5821,6.0,299.85082,2869.3226,0.0,0.0,0.0,0.0,0.0,-0.05801679858742098,-0.19056371949467482,-0.3670470116247197,-0.3145917024277837,-0.006695766504895704,-0.010289662170010589,-0.49497987805821053
5822,6.0,300.0812,2870.7769,0.0,0.0,0.0,0.0,0.0,-0.058026765397004826,-0.17006879078198284,-0.3972394429369806,-0.3053362808468447,0.003392487383112437,0.006287850151812494,-0.5275069186608795
5823,6.0,299.59159,2757.4139,0.0,0.0,0.0,0.0,0.0,-0.05803673220658864,-0.15368475958000485,-0.36735689390280263,-0.31714332962460967,0.03193714564620087,-0.018732649688268585,-0.4900828909874156
5824,6.0,300.59605,2625.7940000000003,0.0,0.0,0.0,0.0,0.0,-0.05804669901617249,-0.13585023046237388,-0.35954332721416365,-0.3027822421147807,0.021408149749569876,0.008923835080413951,-0.5003485127855536
5825,6.0,301.1021,2626.1964,0.0,0.0,0.0,0.0,0.0,-0.058056665825756304,-0.17105019443133984,-0.37422471321310363,-0.2530232420964498,-0.0002068219151667338,0.014916510684644984,-0.4988746797200975
5826,6.0,301.05674,2696.3368,0.0,0.0,0.0,0.0,0.0,-0.05806663263534009,-0.15965677460939684,-0.36970312517185766,-0.2902591598888487,-0.036947964272980166,0.018422248626134383,-0.5102069498985055
5827,6.0,301.47038,2556.3157,0.0,0.0,0.0,0.0,0.0,-0.05807659944492391,-0.10061010429919422,-0.4092547247427966,-0.26719131559472975,-0.02139216066299188,0.006772086630252914,-0.5429285851828796
5828,6.0,300.45409,2281.8066,0.0,0.0,0.0,0.0,0.0,-0.058086566254507754,-0.08533799754495462,-0.36764320798355965,-0.2406310312534338,-0.014163802649108487,0.019981774279047584,-0.5171928837729636
5829,6.0,299.36009,2532.6421,0.0,0.0,0.0,0.0,0.0,-0.05809653306409157,-0.11320007825697788,-0.3940197090217176,-0.26264017104806675,0.004859927245737475,0.006514594245940393,-0.5218800470130505
5830,6.0,300.3939,2741.8423,0.0,0.0,0.0,0.0,0.0,-0.05810649987367539,-0.15431184993439384,-0.3874631905396397,-0.29167655492373473,0.010710024172747091,-0.016830393202280483,-0.5195179279824275
5831,6.0,299.34909,2487.8571,0.0,0.0,0.0,0.0,0.0,-0.058116466683259205,-0.14625074624632486,-0.3632477290497596,-0.24674798157712974,0.01020694043184659,-0.008890113306485873,-0.5328076453665205
5832,6.0,299.22721,2547.9575,0.0,0.0,0.0,0.0,0.0,-0.05812643349284305,-0.11942471680130189,-0.38042689813521163,-0.2746638324322097,0.018333511222126682,0.01040782435692229,-0.5278420612639555
5833,6.0,300.2098,2732.9926,0.0,0.0,0.0,0.0,0.0,-0.05813640030242684,-0.17874914226866684,-0.35462941886669863,-0.2973829667044137,-0.011556582472295887,0.014726579993150288,-0.5239040748828065
5834,6.0,300.34225,2731.2044,0.0,0.0,0.0,0.0,0.0,-0.05814636711201068,-0.16531097361242283,-0.3493317420438587,-0.3155752035048477,-0.011750886351222189,0.004804771381844016,-0.5167725673664815
5835,6.0,300.0449,2851.7091,0.0,0.0,0.0,0.0,0.0,-0.0581563339215945,-0.16693866870556384,-0.38991641088675366,-0.30999326949895367,-0.008184489584546232,-0.004325085612252716,-0.49843650984685356
5836,6.0,300.88993,2924.0318,0.0,0.0,0.0,0.0,0.0,-0.058166300731178316,-0.1946256972905608,-0.37512961647991067,-0.3190773403554817,0.017706449238740485,0.0006731284669926073,-0.47359974366065555
5837,6.0,300.93695,2740.3124,0.0,0.0,0.0,0.0,0.0,-0.05817626754076213,-0.20289450711662882,-0.35965224146741265,-0.27043978528282875,-0.0017179801353514384,-0.014557893103252185,-0.45480715617597156
5838,6.0,300.90361,2798.6298,0.0,0.0,0.0,0.0,0.0,-0.05818623435034598,-0.16047898653554285,-0.3945627401478106,-0.2956718405980387,-0.025039948162500474,-0.014827528074113085,-0.4995831036600135
5839,6.0,300.51896,3008.1326,0.0,0.0,0.0,0.0,0.0,-0.058196201159929795,-0.1884787648964058,-0.38854916159931663,-0.3373692607007537,-0.012807374872739488,0.01085961737776079,-0.4873321905434425
5840,6.0,299.97614,2847.5039,0.0,0.0,0.0,0.0,0.0,-0.058206167969513584,-0.13533029130605986,-0.4247966741841676,-0.3054431280698897,0.023050694022926376,0.03332388581256147,-0.5277368149760685
5841,6.0,299.63317,2474.252,0.0,0.0,0.0,0.0,0.0,-0.0582161347790974,-0.10634693080812489,-0.36191320774055263,-0.28385069751138275,0.02987049034473787,0.015937767486935185,-0.5114989653660176
5842,6.0,299.12178,2375.3341,0.0,0.0,0.0,0.0,0.0,-0.058226101588681245,-0.12696485795045587,-0.32798132627173665,-0.26709608021783077,0.006239079790049233,-0.028104923323739976,-0.5184023396223275
5843,6.0,300.16171,2380.9174,0.0,0.0,0.0,0.0,0.0,-0.05823606839826506,-0.1137005934088749,-0.36246980628548464,-0.24756904853066275,-0.005748858853868194,-0.034241852912907766,-0.5360045507570305
5844,6.0,300.34354,2446.5612,0.0,0.0,0.0,0.0,0.0,-0.05824603520784888,-0.09970274390089472,-0.3634239433746506,-0.2805668248647898,0.003941316731577676,-0.019285470836827783,-0.5284247915289665
5845,6.0,300.47881,2771.5346,0.0,0.0,0.0,0.0,0.0,-0.05825600201743272,-0.13394943406977985,-0.4108038017606786,-0.2977240976155807,0.03529262366411077,0.002483454514197878,-0.5467599371235045
5846,6.0,300.07041,2792.345,0.0,0.0,0.0,0.0,0.0,-0.05826596882701654,-0.16758262967411786,-0.4065429837651686,-0.27467755183856374,0.008967000750574071,0.0039315643006901865,-0.5197983348151015
5847,6.0,300.60841,2646.9683,0.0,0.0,0.0,0.0,0.0,-0.05827593563660033,-0.1353324697937749,-0.3884587898228976,-0.28082101891737676,-0.01046940361849969,0.024851438047645977,-0.5391989838172965
5848,6.0,301.50492,2800.3108,0.0,0.0,0.0,0.0,0.0,-0.058285902446184146,-0.18135624490846783,-0.40427238148357764,-0.26559594317977875,-0.003155583430231837,0.01974797087147298,-0.49607272908606653
5849,6.0,301.11008,2832.8368,0.0,0.0,0.0,0.0,0.0,-0.05829586925576799,-0.17468009198708284,-0.37577107472071763,-0.3106604744248017,-0.021329549912812683,0.016864477922394382,-0.5077310226166505
5850,6.0,299.2121,2589.652,0.0,0.0,0.0,0.0,0.0,-0.05830583606535181,-0.15174031237310287,-0.36249002062497965,-0.2729592215239778,-0.0005104145445789936,-0.019055607958892083,-0.5274716271598965
5851,6.0,299.34629,2449.8019,0.0,0.0,0.0,0.0,0.0,-0.058315802874935624,-0.10900346992030491,-0.3544171024407447,-0.2812580336855067,-0.024881762596638775,0.004585807427283956,-0.5226675449907705
5852,6.0,299.53791,2600.2419,0.0,0.0,0.0,0.0,0.0,-0.05832576968451941,-0.15126316276851187,-0.3532901352820217,-0.2858553013767217,0.026769658288959577,-0.015706972418907485,-0.4940538485268185
5853,6.0,299.62335,2772.187,0.0,0.0,0.0,0.0,0.0,-0.05833573649410326,-0.15677543583003084,-0.39266027189255165,-0.29323991876802674,0.011924750949131289,-0.00968971901495081,-0.49594315466327854
5854,6.0,299.34297999999995,2828.4453,0.0,0.0,0.0,0.0,0.0,-0.058345703303687074,-0.1983601419916218,-0.35463074622432966,-0.3067858567049067,0.026243847348316078,-0.03158240982594117,-0.4766765586493136
5855,6.0,299.98432,2937.6753,0.0,0.0,0.0,0.0,0.0,-0.05835567011327092,-0.19577798556928283,-0.3916794964582566,-0.3055224554202187,-0.006451511321214593,0.0005540416184371505,-0.4795076604887215
5856,6.0,300.09215,2833.1785,0.0,0.0,0.0,0.0,0.0,-0.058365636922854736,-0.16179188508761586,-0.3894006057908476,-0.3100230286543907,0.01104082398589449,0.003012306927666547,-0.5056489861786695
5857,6.0,300.7201,2839.1931,0.0,0.0,0.0,0.0,0.0,-0.05837560373243855,-0.16467515917467285,-0.3930963848680926,-0.3052722738380277,-0.027493297192377173,0.008903029104185561,-0.5074741941138036
5858,6.0,300.44982000000005,2852.5195,0.0,0.0,0.0,0.0,0.0,-0.05838557054202237,-0.15589189187533187,-0.4102626856772746,-0.30094011290297673,0.006091086810918463,-0.03778744806033076,-0.5296881016211454
5859,6.0,300.128,2438.5767,0.0,0.0,0.0,0.0,0.0,-0.058395537351606214,-0.12166235805713987,-0.36035726088699266,-0.25924680659566773,-0.03237668644683017,0.025131262261512476,-0.5247122228975646
5860,6.0,300.20261,2208.3988,0.0,0.0,0.0,0.0,0.0,-0.05840550416119,-0.08937219506284891,-0.35630805004236665,-0.22561784637674775,0.008116850682070794,0.018714537842731083,-0.5116054275540245
5861,6.0,299.93613,2568.7598,0.0,0.0,0.0,0.0,0.0,-0.05841547097077382,-0.100530947174882,-0.4097573575874026,-0.27055053351875874,-0.014602527783407288,0.008884851701366592,-0.5236970172248715
5862,6.0,298.70063,2723.1041,0.0,0.0,0.0,0.0,0.0,-0.058425437780357636,-0.13358792669910188,-0.3842230700323646,-0.3099446537591557,-0.010443788655971691,-0.015910651901009085,-0.5341133498428835
5863,6.0,300.35208,2680.8644,0.0,0.0,0.0,0.0,0.0,-0.05843540458994148,-0.1181264698456749,-0.40685755739121465,-0.28993179904654076,0.01915285565048968,0.0015399246337037286,-0.5607743512441195
5864,6.0,300.89213,2603.598,0.0,0.0,0.0,0.0,0.0,-0.0584453713995253,-0.13935076637784988,-0.35670933761197066,-0.29536869643312075,0.03008735525039077,0.008619251188428862,-0.5066845075158675
5865,6.0,299.98805,2669.7452,0.0,0.0,0.0,0.0,0.0,-0.05845533820910914,-0.15677739140272387,-0.36571975531872963,-0.2890387406734027,0.015561395737290184,-0.011771464447503089,-0.5246684504932445
5866,6.0,299.77794,2702.2617,0.0,0.0,0.0,0.0,0.0,-0.058465305018692904,-0.18552927491531382,-0.34586717650693266,-0.2900236400356047,-0.02562387608912968,-0.04583569360463075,-0.4763128626584196
5867,6.0,300.11971,2924.6387,0.0,0.0,0.0,0.0,0.0,-0.05847527182827675,-0.17992818035002883,-0.3981783610096446,-0.3109105850794857,-0.005401670429628365,0.02102078626284008,-0.5172987988059164
5868,6.0,299.66014,2921.2121,0.0,0.0,0.0,0.0,0.0,-0.058485238637860565,-0.1974307079398938,-0.38062917325267465,-0.3099156646737947,0.0053624807528606456,0.02288534477885768,-0.4991165019889635
5869,6.0,300.5222,2622.1778,0.0,0.0,0.0,0.0,0.0,-0.05849520544744441,-0.13294072333022786,-0.37941060828491163,-0.2847252336726927,-0.006435023512937374,0.03333756570216157,-0.5189311852470205
5870,6.0,299.17869,2652.8558,0.0,0.0,0.0,0.0,0.0,-0.058505172257028226,-0.15347584767438685,-0.3814380102775007,-0.27148807357128674,-0.033125969697028676,-0.02757408970235077,-0.5019679600228805
5871,6.0,299.84132,2858.3904,0.0,0.0,0.0,0.0,0.0,-0.05851513906661204,-0.1950281298327778,-0.3766633224937756,-0.29718785526515773,-0.007885274600866013,0.016869559371645883,-0.4941894821852045
5872,6.0,301.2233,2773.8094,0.0,0.0,0.0,0.0,0.0,-0.05852510587619583,-0.18859691999056682,-0.36262223963052864,-0.2919496460906867,0.012739615798802187,0.016063352744079485,-0.4669380396856966
5873,6.0,301.06862,2472.8608,0.0,0.0,0.0,0.0,0.0,-0.05853507268577968,-0.11298591771584189,-0.3613305484030487,-0.2773714697469327,0.005281247175118515,0.00862798003406533,-0.5073845924074606
5874,6.0,300.28521,2695.3467,0.0,0.0,0.0,0.0,0.0,-0.05854503949536349,-0.13765999646598387,-0.3872842100419756,-0.29437387735243975,-0.00971957645564751,-0.04512337878433076,-0.5190667378453985
5875,6.0,300.26833999999997,2896.7786,0.0,0.0,0.0,0.0,0.0,-0.05855500630494734,-0.14170542788773685,-0.4090103592161796,-0.3298325747344407,-0.0053889587004988145,-0.01141921311648859,-0.5358226419665775
5876,6.0,299.62491,2829.8107,0.0,0.0,0.0,0.0,0.0,-0.05856497311453113,-0.16157750163145784,-0.3934732125802826,-0.3051410782150797,0.037831941898721966,-0.009028983083041252,-0.5277965156719605
5877,6.0,300.37031,2740.1134,0.0,0.0,0.0,0.0,0.0,-0.05857493992411497,-0.15473628013628185,-0.3908330374572176,-0.28735675563990376,0.01719318436083518,-0.006075335027513884,-0.5310747445154964
5878,6.0,299.73919,2555.2944,0.0,0.0,0.0,0.0,0.0,-0.05858490673369879,-0.13110561594161688,-0.37349911468399266,-0.27214095114072073,-0.019164690411657682,-0.0037970727778169062,-0.5148747701941835
5879,6.0,300.2132,2461.6018,0.0,0.0,0.0,0.0,0.0,-0.05859487354328263,-0.09448603285379541,-0.38036482643408565,-0.27341460651642074,-0.038431874110680664,0.061402159645421346,-0.5337572329627375
5880,6.0,300.86444,2701.4626,0.0,0.0,0.0,0.0,0.0,-0.05860484035286642,-0.15699266651896987,-0.3789516769171186,-0.2852328213102877,-0.039807113888406256,0.05870822957805114,-0.5072655456532116
5881,6.0,300.46094,2787.1334,0.0,0.0,0.0,0.0,0.0,-0.05861480716245024,-0.14863273511140887,-0.4019708142789306,-0.2966153993561607,-0.02759695470410737,0.012597502406026688,-0.5109059810099945
5882,6.0,300.2761,2552.926,0.0,0.0,0.0,0.0,0.0,-0.058624773972034055,-0.16345722242197186,-0.35707723859077967,-0.25549129642502777,-0.014761620208108485,-0.048780700967280356,-0.5092002149966485
5883,6.0,302.26576,2754.7972,0.0,0.0,0.0,0.0,0.0,-0.0586347407816179,-0.15856221118887184,-0.38241647550156765,-0.2964108748234757,0.033421503340445566,-0.014338522430101986,-0.5135440181753484
5884,6.0,300.70387,3048.6019,0.0,0.0,0.0,0.0,0.0,-0.05864470759120172,-0.23167842959738078,-0.37254016465685164,-0.3224802698888247,0.03536430908218557,-0.012510258532666386,-0.4801706705591556
5885,6.0,300.62995,3177.6941,0.0,0.0,0.0,0.0,0.0,-0.05865467440078556,-0.2074877724699488,-0.39372903796553066,-0.3647228489428426,0.02233482370802548,-0.01850767878181568,-0.4935569000152735
5886,6.0,301.04447000000005,2923.2193,0.0,0.0,0.0,0.0,0.0,-0.05866464121036932,-0.19360668179749183,-0.3937701657870897,-0.30120881669699573,-0.007428783848588883,-0.016772655171832185,-0.5201887198136296
5887,6.0,300.01818,2599.9786,0.0,0.0,0.0,0.0,0.0,-0.05867460801995317,-0.12447676153489988,-0.36623483087456365,-0.2996169703923927,0.015998150100144486,0.02405477522277148,-0.5262159772384735
5888,6.0,299.49872,2603.1375,0.0,0.0,0.0,0.0,0.0,-0.058684574829536984,-0.15786008966457785,-0.3561586463151217,-0.2772700738094257,0.01171892641656799,0.018125058318803983,-0.5091016460269205
5889,6.0,300.27869,2699.3556,0.0,0.0,0.0,0.0,0.0,-0.05869454163912083,-0.15423031369884685,-0.3685572811637716,-0.2977491147605497,-0.013805649136261486,-0.004321447031143615,-0.5011229398369835
5890,6.0,298.83857,2581.9528,0.0,0.0,0.0,0.0,0.0,-0.058704508448704645,-0.14180265936733288,-0.3604291712465897,-0.28261736948966276,-0.014201143955043787,-0.01921944239406128,-0.5123431445543315
5891,6.0,299.67524,2354.0278,0.0,0.0,0.0,0.0,0.0,-0.05871447525828846,-0.09393893251530082,-0.36533604763836064,-0.2562906798264208,-0.018035489036464184,0.016590970309651284,-0.5260533911274275
5892,6.0,301.23214,2508.1764,0.0,0.0,0.0,0.0,0.0,-0.05872444206787225,-0.11658763678630389,-0.38882867677190264,-0.2570066727445838,-0.01122979310304429,0.042388181066887756,-0.5535170385953785
5893,6.0,300.36617,2906.3501,0.0,0.0,0.0,0.0,0.0,-0.058734408877456096,-0.14469871053815087,-0.4206223674821956,-0.3181367909501567,-0.03328166672064477,-0.012306643898571187,-0.5204708187739705
5894,6.0,300.83109,3041.2831,0.0,0.0,0.0,0.0,0.0,-0.05874437568703991,-0.17824267933868285,-0.43250010058693655,-0.3137313517678737,0.010714600010198689,-0.025620395575036176,-0.5319772362470655
5895,6.0,300.36969,2696.8277,0.0,0.0,0.0,0.0,0.0,-0.05875434249662376,-0.11783281983419389,-0.3879147353142036,-0.3140207359964337,0.030633655121306374,-0.011401216781462489,-0.5085401636165066
5896,6.0,299.08688,2387.577,0.0,0.0,0.0,0.0,0.0,-0.058764309306207546,-0.13012651236998687,-0.3403096415634467,-0.2553276464013768,0.023900716624567078,0.0008211107259373193,-0.5047590080858355
5897,6.0,299.27466,2618.3122,0.0,0.0,0.0,0.0,0.0,-0.05877427611579139,-0.14394429517619586,-0.36967280872886565,-0.28228443577180473,-0.014902893616551088,-0.013254412710858686,-0.5156653788497105
5898,6.0,300.04042000000004,2781.6998,0.0,0.0,0.0,0.0,0.0,-0.05878424292537521,-0.1846589032119148,-0.36911094128341365,-0.29179743566066474,-0.025963258130624077,-0.008990011660345071,-0.5188272764492655
5899,6.0,298.56604,2565.8968,0.0,0.0,0.0,0.0,0.0,-0.05879420973495905,-0.10996805361800188,-0.3991426711298146,-0.27085783200908675,0.03713121258006537,0.028219456048793473,-0.5403799977363535
5900,6.0,299.87902,2569.1535,0.0,0.0,0.0,0.0,0.0,-0.05880417654454284,-0.14658703382201385,-0.36371968068133764,-0.27065177746875074,0.02079451636975898,0.02080035978308568,-0.5029043855002986
5901,6.0,300.07582,2756.9328,0.0,0.0,0.0,0.0,0.0,-0.05881414335412666,-0.17514776770323884,-0.3615778928849596,-0.3013130598672837,0.016143707530009883,-0.018461275980236082,-0.5090528175046015
5902,6.0,300.16909,2962.9517,0.0,0.0,0.0,0.0,0.0,-0.058824110163710475,-0.2061055068160298,-0.4017975890418346,-0.29276022590568473,-0.03073965526726777,-0.023523997330137776,-0.4806977227311715
5903,6.0,301.09373,3080.0031,0.0,0.0,0.0,0.0,0.0,-0.05883407697329432,-0.18702906744833184,-0.4059963556012206,-0.34321862180554064,0.005670527021762444,0.028143276866525173,-0.5129313362373815
5904,6.0,299.98855,2855.3245,0.0,0.0,0.0,0.0,0.0,-0.058844043782878136,-0.17318600405212783,-0.39512131453043764,-0.2996400420971697,-0.028993856755720873,0.02411069244279008,-0.4873013472103985
5905,6.0,299.39366,2473.7184,0.0,0.0,0.0,0.0,0.0,-0.05885401059246198,-0.09978592160160371,-0.36682523144283163,-0.2853374596481147,-0.0009016425570576923,-0.012141394966262388,-0.5318022682197975
5906,6.0,299.97,2652.6075,0.0,0.0,0.0,0.0,0.0,-0.05886397740204574,-0.14829106717768886,-0.35834955647634764,-0.2996858308691887,-0.009603006996568,-0.016616243806895584,-0.49555639710010857
5907,6.0,298.64787,2504.516,0.0,0.0,0.0,0.0,0.0,-0.058873944211629586,-0.1122214711778969,-0.36073306521658166,-0.28835577970849974,0.051803721494879246,-0.010525000651486689,-0.5419174527755884
5908,6.0,298.74494,2357.089,0.0,0.0,0.0,0.0,0.0,-0.0588839110212134,-0.1058330812849119,-0.35500683426394664,-0.25565627380630973,0.03896793812908606,-0.007906726726683173,-0.5084378354889075
5909,6.0,299.57934,2349.7159,0.0,0.0,0.0,0.0,0.0,-0.05889387783079725,-0.101212621312158,-0.35063233973971764,-0.26241000115535074,0.033849735256708764,-0.05149811513221825,-0.5506973966146015
5910,6.0,298.83062,2686.1099,0.0,0.0,0.0,0.0,0.0,-0.058903844640381064,-0.15101413629143484,-0.3956054251632156,-0.2698907962461477,-0.0034574225290210365,-0.012840966140054687,-0.5342269757090975
5911,6.0,299.63712999999996,3051.4122,0.0,0.0,0.0,0.0,0.0,-0.05891381144996488,-0.15983138799912983,-0.44850688864418353,-0.31921483839405174,0.005667486866162405,0.034686803455820966,-0.5458587626170656
5912,6.0,300.60059,2970.6347,0.0,0.0,0.0,0.0,0.0,-0.05892377825954867,-0.18221781146849783,-0.4085762119458326,-0.3122047283722077,-0.030599203604656264,0.03524238469765257,-0.5020412382701125
5913,6.0,300.0054,2769.1143,0.0,0.0,0.0,0.0,0.0,-0.058933745069132515,-0.15885776611054087,-0.3957716184446176,-0.28711220772826873,-0.014828368058445987,-0.013490789773687287,-0.48840099714642554
5914,6.0,301.45932999999997,2614.8002,0.0,0.0,0.0,0.0,0.0,-0.05894371187871633,-0.17263908204565084,-0.3546483362460657,-0.26754655094728874,-0.040961256414811256,-0.004272759350588516,-0.4714732762057896
5915,6.0,300.78303999999997,2526.4321,0.0,0.0,0.0,0.0,0.0,-0.058953678688300176,-0.13174305157952687,-0.3565990858685897,-0.2796301460748467,0.0029527655146902674,0.010796320657263887,-0.5069042409325535
5916,6.0,299.99048999999997,2781.422,0.0,0.0,0.0,0.0,0.0,-0.058963645497883965,-0.17973648356360983,-0.37432826737332364,-0.29141808495572574,-0.02448585943806618,0.012872577516674488,-0.5004558362361455
5917,6.0,299.91829,2870.7424,0.0,0.0,0.0,0.0,0.0,-0.05897361230746781,-0.15349204954348586,-0.3936440566796436,-0.3254979212041437,0.02130396433453758,-0.01739969992996668,-0.5302077266699285
5918,6.0,299.2022,2675.6585,0.0,0.0,0.0,0.0,0.0,-0.05898357911705163,-0.16517206715621385,-0.37671603176397767,-0.27144526375456174,0.03413222431833826,-0.0016734504279066985,-0.5209746472536945
5919,6.0,298.7068,2753.687,0.0,0.0,0.0,0.0,0.0,-0.05899354592663547,-0.13353417378129687,-0.3955010604029156,-0.3080168643838977,0.03179199047662517,0.02085656881913308,-0.5251691682951615
5920,6.0,299.31023,2797.797,0.0,0.0,0.0,0.0,0.0,-0.05900351273621926,-0.17119939550856483,-0.39785591443032164,-0.28140510693752174,-0.0036824116739757363,-0.00943310988075046,-0.5031000643596105
5921,6.0,298.76362,2665.0611,0.0,0.0,0.0,0.0,0.0,-0.05901347954580308,-0.15031721274015386,-0.38425905054341564,-0.2755357442757608,-0.04288310409148286,-0.026066278308041375,-0.5176697699325286
5922,6.0,300.90486,2716.1077,0.0,0.0,0.0,0.0,0.0,-0.059023446355386894,-0.15125097336980886,-0.38141347949257964,-0.29296445659584075,-0.03481065808179446,0.006092502827933214,-0.5223811295850035
5923,6.0,300.97576000000004,2584.3987,0.0,0.0,0.0,0.0,0.0,-0.05903341316497074,-0.11928343933985888,-0.3909480818735716,-0.2753611612835307,-0.0090467438374191,0.016853023130013883,-0.5233015355783405
5924,6.0,300.11069,2690.5715,0.0,0.0,0.0,0.0,0.0,-0.059043379974554555,-0.15769153551044285,-0.38403047145335667,-0.27614453533334377,-0.005570436150384245,0.022783456401802078,-0.5282623574054355
5925,6.0,300.35515,2969.5178,0.0,0.0,0.0,0.0,0.0,-0.0590533467841384,-0.17322954340892482,-0.39965430163530863,-0.32977542742880067,-0.004729093657050206,-0.028388267568453873,-0.4944629786521965
5926,6.0,300.51902,2766.0062,0.0,0.0,0.0,0.0,0.0,-0.05906331359372216,-0.16982441512286484,-0.39671195506742163,-0.27426043730239774,0.013075104933412386,0.01019733988714909,-0.5438130309301675
5927,6.0,299.7593,2602.8879,0.0,0.0,0.0,0.0,0.0,-0.059073280403306005,-0.1115696575210679,-0.37783477133188864,-0.3018085087686807,0.008406733328354983,0.04054038880027486,-0.5086628783361175
5928,6.0,300.35957,2554.6492,0.0,0.0,0.0,0.0,0.0,-0.05908324721288982,-0.1205803994678589,-0.3634097274757476,-0.2925594301333677,-0.01029271205281159,0.0055980442771839545,-0.5436681159008655
5929,6.0,299.23462,2573.1003,0.0,0.0,0.0,0.0,0.0,-0.05909321402247367,-0.11439291680470189,-0.37764908311856266,-0.29011624096224375,-0.03124147447204347,-0.0076618650114922025,-0.5144156159113685
5930,6.0,299.54408,2599.4987,0.0,0.0,0.0,0.0,0.0,-0.059103180832057484,-0.1866103215795048,-0.3313164795058907,-0.27225588409956375,-0.012212160353246387,0.01075356352954409,-0.5236251879252825
5931,6.0,299.19445,2618.6469,0.0,0.0,0.0,0.0,0.0,-0.0591131476416413,-0.13422088377156988,-0.37697405590194266,-0.28480831004839174,0.047852578061181754,0.04098039265619986,-0.5196255452755485
5932,6.0,299.52662000000004,2474.0749,0.0,0.0,0.0,0.0,0.0,-0.05912311445122512,-0.13957724804020186,-0.3521108945506397,-0.26036885949140576,-0.008269232452684702,0.010867141773003389,-0.4870204236201735
5933,6.0,300.57265,2607.6541,0.0,0.0,0.0,0.0,0.0,-0.059133081260808934,-0.13665979702727188,-0.36614033517023764,-0.2898615808146107,-0.003213283362476377,-0.04299665599043956,-0.5093586873122885
5934,6.0,300.58628999999996,3069.8896,0.0,0.0,0.0,0.0,0.0,-0.05914304807039275,-0.1856315827779108,-0.42762172692047856,-0.3199164735582977,-0.015622293081550286,-0.011466569386412289,-0.4938971696638555
5935,6.0,300.09881,3080.4137,0.0,0.0,0.0,0.0,0.0,-0.059153014879976595,-0.1983845005240258,-0.4034177860842356,-0.3345665602616487,0.004998628012176175,0.01883082956995818,-0.5369031718732175
5936,6.0,300.11717000000004,2879.8732,0.0,0.0,0.0,0.0,0.0,-0.059162981689560384,-0.18085048112105281,-0.40502536816289164,-0.2895337032147517,0.007717955294627882,-0.014302919861338286,-0.49629466125546956
5937,6.0,300.28548,2689.5058,0.0,0.0,0.0,0.0,0.0,-0.05917294849914423,-0.14087078338286385,-0.3808107172730916,-0.29586110558421774,-0.014984298129585086,-0.015128504897067184,-0.5327400717173515
5938,6.0,300.36107999999996,2862.0446,0.0,0.0,0.0,0.0,0.0,-0.059182915308728046,-0.17259429639123083,-0.3890780578865146,-0.3083177388685917,0.00013811225051561787,0.00982901557244831,-0.5131584258497935
5939,6.0,300.80906,2829.8976,0.0,0.0,0.0,0.0,0.0,-0.05919288211831189,-0.15670654495573186,-0.40317607527288063,-0.3003355673633127,0.007461867680254002,0.02957855880542647,-0.5432958072841214
5940,6.0,300.37252,2520.3782,0.0,0.0,0.0,0.0,0.0,-0.05920284892789568,-0.1102729608380939,-0.36810720560185267,-0.2877518623838977,0.002353403458562838,-0.006658917638509004,-0.5284466372011225
5941,6.0,300.23783,2456.3265,0.0,0.0,0.0,0.0,0.0,-0.059212815737479496,-0.13682323426840187,-0.35678348725428866,-0.25305520000460374,0.016699676846629784,-0.05614302381663504,-0.5321020990568885
5942,6.0,299.88263,2731.2357,0.0,0.0,0.0,0.0,0.0,-0.05922278254706331,-0.15254757886027384,-0.41448657070663963,-0.26319331441015775,0.024000589647173776,-0.03089380809773147,-0.5433512016670884
5943,6.0,299.71471,2720.0748,0.0,0.0,0.0,0.0,0.0,-0.05923274935664716,-0.15728632666295186,-0.38007718499569765,-0.2894712870085917,0.01047900112344689,0.03539580190854367,-0.5270134861271816
5944,6.0,299.88927,2828.5399,0.0,0.0,0.0,0.0,0.0,-0.059242716166230974,-0.1338555564480149,-0.4213402855755486,-0.3046096488026317,-0.012417130715975387,-0.008971065403350222,-0.5207796675369515
5945,6.0,299.82261,2780.4141,0.0,0.0,0.0,0.0,0.0,-0.05925268297581479,-0.15944432646092982,-0.39250649092487466,-0.2932256522066187,-0.02997325720963017,0.011352941493698091,-0.4999911293427825
5946,6.0,299.64842000000004,2668.5769,0.0,0.0,0.0,0.0,0.0,-0.05926264978539858,-0.14823799313745087,-0.37534303734847363,-0.2875997127488817,-0.015764492600584285,0.009359780464388413,-0.5286215950958895
5947,6.0,300.13989,2902.2019,0.0,0.0,0.0,0.0,0.0,-0.059272616594982425,-0.18801184911782481,-0.39467837224922264,-0.2995066882515087,0.024912752850947274,0.03192042803280097,-0.5244684855860094
5948,6.0,299.72132,2889.0618,0.0,0.0,0.0,0.0,0.0,-0.05928258340456624,-0.19221723220036382,-0.36250773223672766,-0.32347769302226265,0.013350761649617588,0.00910996010585806,-0.49812268602588156
5949,6.0,300.52484,2707.4119,0.0,0.0,0.0,0.0,0.0,-0.05929255021415006,-0.15761187378758085,-0.3776592358845646,-0.2877145241177127,0.042074943917723664,-0.008344771666189842,-0.5307170267001925
5950,6.0,300.81619,2627.1143,0.0,0.0,0.0,0.0,0.0,-0.0593025170237339,-0.15273670199143885,-0.3686506014979817,-0.2771898649315097,0.007851777565810113,0.013190883956088887,-0.4976790952646025
5951,6.0,299.9989,2621.3701,0.0,0.0,0.0,0.0,0.0,-0.05931248383331772,-0.13999697676162587,-0.3654628457558747,-0.2913712221386007,-0.0041289602136216465,0.026678843722246874,-0.5271214276603344
5952,6.0,299.74492000000004,2778.1769,0.0,0.0,0.0,0.0,0.0,-0.059322450642901536,-0.15784834609591883,-0.3991988153178556,-0.28744924510903175,-0.014526099341614385,-0.01789236239358868,-0.5047491390298615
5953,6.0,299.37156,2791.5682,0.0,0.0,0.0,0.0,0.0,-0.059332417452485325,-0.14984952689149686,-0.40157568726993464,-0.2971418131806137,-0.03427308533399017,-0.025690511468706077,-0.5196114205691545
5954,6.0,298.49701,2709.4063,0.0,0.0,0.0,0.0,0.0,-0.05934238426206917,-0.13566595066668685,-0.42184645466300363,-0.2660794458624967,0.022339781540764776,-0.016628373423842685,-0.5328808222887426
5955,6.0,297.90635,2537.9078,0.0,0.0,0.0,0.0,0.0,-0.05935235107165299,-0.1082432486352769,-0.3719743961985147,-0.2912429446759407,0.03595460832544357,0.024462219299983077,-0.5335770162999515
5956,6.0,299.46115,2635.3781,0.0,0.0,0.0,0.0,0.0,-0.059362317881236804,-0.13547879324071588,-0.37205120055609464,-0.2935591432120317,-0.012640329448003387,0.013164246624209987,-0.5228911996853435
5957,6.0,299.56811,2914.2221,0.0,0.0,0.0,0.0,0.0,-0.05937228469082065,-0.15275935826367487,-0.4098726958462856,-0.3232186961642017,-0.023101246083665476,-0.009252789562479232,-0.49686704623695954
5958,6.0,299.87284,2813.5136,0.0,0.0,0.0,0.0,0.0,-0.059382251500404465,-0.1998489204960528,-0.3544243877089637,-0.30096457276039074,-0.03476778341706307,-0.005569127233905065,-0.5409118324488416
5959,6.0,300.16136,2595.875,0.0,0.0,0.0,0.0,0.0,-0.059392218309988254,-0.14059073118772486,-0.37042280632038466,-0.2780676434931398,-0.006935368540142583,0.027208652947784975,-0.5044230346176775
5960,6.0,300.04193,2510.4195,0.0,0.0,0.0,0.0,0.0,-0.0594021851195721,-0.1264606039056899,-0.3629167610370957,-0.27372748801479974,-0.004881498631091405,-0.031099632630294766,-0.5444386926019155
5961,6.0,299.93869,2814.7003,0.0,0.0,0.0,0.0,0.0,-0.059412151929155915,-0.16756076373695986,-0.36405214830414967,-0.3239856960923987,-0.022913852570421177,-0.011850219311525589,-0.47928735965197955
5962,6.0,301.25704,2970.1152,0.0,0.0,0.0,0.0,0.0,-0.05942211873873973,-0.18785399488474583,-0.41836024610394157,-0.2966266261672687,0.02106361938431738,0.004337598947012686,-0.5236439431846335
5963,6.0,300.82203,2639.7154,0.0,0.0,0.0,0.0,0.0,-0.05943208554832355,-0.14888118403592887,-0.3701230261457987,-0.28340333745973173,0.017409237653157984,0.06255815540625924,-0.49719733537205657
5964,6.0,299.92854,2462.8439,0.0,0.0,0.0,0.0,0.0,-0.05944205235790739,-0.13744571433483588,-0.3528945624429817,-0.25830276147749776,0.020718993773555478,0.013223786213336088,-0.4961229964235275
5965,6.0,300.09586,2826.5198,0.0,0.0,0.0,0.0,0.0,-0.05945201916749121,-0.16276413908856988,-0.40566423248344263,-0.2907630694285807,-0.016130868637992787,-0.02657865557885908,-0.5099462811777795
5966,6.0,298.96873,3086.1504,0.0,0.0,0.0,0.0,0.0,-0.059461985977075,-0.18714933010270082,-0.3957618101836496,-0.3552015302706617,0.0022222485682688578,-0.015744088783320585,-0.4945364494169476
5967,6.0,298.99312000000003,2854.8863,0.0,0.0,0.0,0.0,0.0,-0.059471952786658816,-0.15840228992558886,-0.3943732421141086,-0.3150386166493907,-0.0009554344444615381,0.008143265909527773,-0.5225394803106315
5968,6.0,299.25223,2440.9381,0.0,0.0,0.0,0.0,0.0,-0.05948191959624266,-0.11547389254138589,-0.34771170712147365,-0.27879863251278275,0.012295047251176689,-0.013554408707715987,-0.48479038174008554
5969,6.0,299.19695,2399.0797,0.0,0.0,0.0,0.0,0.0,-0.05949188640582648,-0.1133577703700409,-0.34427444867474266,-0.27162810473510673,-0.04191310153225106,-0.01054577126528659,-0.5395127671082645
5970,6.0,299.78218,2688.1666,0.0,0.0,0.0,0.0,0.0,-0.05950185321541032,-0.16377336658567285,-0.38209103983444964,-0.27127112659237573,-0.016775426410855682,0.016804551271730087,-0.5400549673692755
5971,6.0,300.46042,2777.7838,0.0,0.0,0.0,0.0,0.0,-0.05951182002499411,-0.16247049920958984,-0.39014939761474765,-0.29175701711417573,-0.01962379605846788,0.03907690912434067,-0.5690132904572395
5972,6.0,300.42127999999997,2552.2856,0.0,0.0,0.0,0.0,0.0,-0.059521786834577955,-0.12299163073082889,-0.3979374304008666,-0.25490203069687173,0.016743386429443584,0.0009593364604641371,-0.5401883009499344
5973,6.0,300.17102,2437.3029,0.0,0.0,0.0,0.0,0.0,-0.059531753644161745,-0.10131632138039241,-0.38896805945565865,-0.25059483624428475,0.015056774895987987,-0.018408457279023283,-0.5451073363429055
5974,6.0,299.79982,2704.3452,0.0,0.0,0.0,0.0,0.0,-0.05954172045374559,-0.13347410831536888,-0.37687921569258265,-0.3117000994249047,-0.00937400801566756,-0.022910349764825477,-0.5099125298169486
5975,6.0,299.61906,2936.7936,0.0,0.0,0.0,0.0,0.0,-0.059551687263329406,-0.18503586264661784,-0.41611340453719564,-0.2915626453474927,0.0015286171678877685,0.026636228449541076,-0.5278102857408196
5976,6.0,299.98895,2877.9868,0.0,0.0,0.0,0.0,0.0,-0.05956165407291322,-0.20107423370948183,-0.3672463584493937,-0.3065155114457257,0.0017847954681455983,-0.02618769606752437,-0.4820360234632516
5977,6.0,300.03816,2618.0831,0.0,0.0,0.0,0.0,0.0,-0.05957162088249704,-0.14790756214733985,-0.38384436780748965,-0.2640799589101627,0.004794508678206165,-0.02182061650752718,-0.5125506277773084
5978,6.0,299.97221,2635.4171,0.0,0.0,0.0,0.0,0.0,-0.059581587692080884,-0.14495604566604786,-0.37457297740497464,-0.28157197909649073,0.001965549356134618,-0.013027861134249788,-0.4962040564315275
5979,6.0,300.95991000000004,2960.8934,0.0,0.0,0.0,0.0,0.0,-0.05959155450166467,-0.19006946622839582,-0.37834523659976765,-0.33162296739613867,-0.014980724396482386,0.026226832852636873,-0.5120189957148404
5980,6.0,300.5399,3162.3801,0.0,0.0,0.0,0.0,0.0,-0.05960152131124852,-0.19045409596635582,-0.42541664139035357,-0.3454138484121927,0.007016860294010193,0.0043107046549084255,-0.4798852988009915
5981,6.0,301.28934,2785.0866,0.0,0.0,0.0,0.0,0.0,-0.05961148812083231,-0.16754078244498785,-0.37826093419144763,-0.3007950661511617,-0.013883354273180385,0.014159246063408787,-0.5378856191701774
5982,6.0,301.22463999999997,2551.0667,0.0,0.0,0.0,0.0,0.0,-0.05962145493041615,-0.14509161852942787,-0.3681624378648036,-0.26220652027026875,0.006875038413288464,0.028161108041784972,-0.5289142115922685
5983,6.0,300.25101,2600.1342,0.0,0.0,0.0,0.0,0.0,-0.05963142173999997,-0.13602940347755688,-0.39514413292268963,-0.25920233504877876,-0.0038268745910831166,0.01236398270848009,-0.5737443780891615
5984,6.0,299.21819,2798.6467,0.0,0.0,0.0,0.0,0.0,-0.05964138854958381,-0.18349452685949982,-0.37969269711275166,-0.2875314906196487,0.02990078652272787,-0.02397290866769188,-0.5088718206392385
5985,6.0,299.8753,2707.6809999999996,0.0,0.0,0.0,0.0,0.0,-0.05965135535916763,-0.13223695020827086,-0.39715996359913663,-0.29367049939802176,0.023889761364485874,-0.055758295793415354,-0.5190586014470955
5986,6.0,300.04773,2427.8307,0.0,0.0,0.0,0.0,0.0,-0.05966132216875142,-0.1082312112240889,-0.36235687956183965,-0.26741182921399276,0.04287471843365526,-0.026409712336685674,-0.5034049513147004
5987,6.0,300.33218,2599.2061,0.0,0.0,0.0,0.0,0.0,-0.059671288978335235,-0.12550710516408686,-0.3749182018465456,-0.28966843508054874,0.0022869760992319677,0.012549914101830088,-0.5115507627111295
5988,6.0,300.9695,2944.1745,0.0,0.0,0.0,0.0,0.0,-0.05968125578791908,-0.18408614332788784,-0.4087930373347316,-0.3020763614326157,-0.042437034920459256,-9.619979746343081e-05,-0.5199055062781786
5989,6.0,300.66505,3152.3515,0.0,0.0,0.0,0.0,0.0,-0.059691222597502896,-0.1784854236651398,-0.4254875486323516,-0.35426316948555264,-0.058052729717358344,0.006717309924546873,-0.5276430589443155
5990,6.0,299.83117999999996,2890.4345,0.0,0.0,0.0,0.0,0.0,-0.05970118940708674,-0.18125838521380983,-0.4004541511317476,-0.2969073977699787,-0.01872598554236088,0.014726747179416785,-0.5552615816900515
5991,6.0,300.38772,2459.6246,0.0,0.0,0.0,0.0,0.0,-0.05971115621667053,-0.1092523950723719,-0.37416562046727164,-0.26424646629909576,0.0053247100315329645,0.04025837799269256,-0.5332351862462156
5992,6.0,299.48404,2439.6127,0.0,0.0,0.0,0.0,0.0,-0.059721123026254375,-0.14039595412100186,-0.33277973424030266,-0.2684056553095758,0.01110524744050259,-0.013632798801702487,-0.5203019910423085
5993,6.0,299.59717,2728.7844,0.0,0.0,0.0,0.0,0.0,-0.059731089835838164,-0.14307082292749088,-0.3799136768270606,-0.3064978099664787,0.004023739662287186,-0.02752863023661427,-0.5139224670876985
5994,6.0,299.94478,2675.7375,0.0,0.0,0.0,0.0,0.0,-0.05974105664542201,-0.15874803112471084,-0.3762469374976816,-0.27836241821223173,0.04190066084752326,-0.006125630533327665,-0.5432495625495575
5995,6.0,299.73652999999996,2595.3892,0.0,0.0,0.0,0.0,0.0,-0.059751023455005825,-0.13056956610871287,-0.36637403117330164,-0.29198991264966073,0.026904631308280372,0.01077413554632439,-0.5271949288225884
5996,6.0,299.32384,2656.9639,0.0,0.0,0.0,0.0,0.0,-0.05976099026458964,-0.14965109199191284,-0.37547370608136965,-0.2825258831381337,0.026802020483903476,-0.01049665396668909,-0.5044684180896565
5997,6.0,300.17409,3034.4131,0.0,0.0,0.0,0.0,0.0,-0.05977095707417346,-0.17260150059944182,-0.40732111931196463,-0.34246318306098467,-0.024261768032700075,-0.02938310691413687,-0.4889094156491025
5998,6.0,299.81967000000003,3116.9881,0.0,0.0,0.0,0.0,0.0,-0.0597809238837573,-0.1972392442009978,-0.42134460202097457,-0.3289027049851697,-0.003285063418110517,0.0017025738702309585,-0.4975315863150445
5999,6.0,300.43105,2841.1874,0.0,0.0,0.0,0.0,0.0,-0.05979089069334109,-0.15408040334655185,-0.4028791929935806,-0.3066904288104887,-0.006597783396375524,0.025976942073224575,-0.5078603335944125
6000,6.0,300.13015,2542.9796,0.0,0.0,0.0,0.0,0.0,-0.05980085750292494,-0.12058455379326889,-0.36437213268572965,-0.2880456137203887,-0.011344947963659188,0.008834087871356592,-0.5350695438297525
6001,6.0,299.63862,2530.2731,0.0,0.0,0.0,0.0,0.0,-0.059810824312508726,-0.12824471441676788,-0.37611169900683467,-0.26478343818959077,-0.01013463186496029,-0.008264124050980542,-0.5481446244451625
6002,6.0,299.65033999999997,2668.9605,0.0,0.0,0.0,0.0,0.0,-0.05982079112209257,-0.16087321175194985,-0.39299543476062965,-0.25742869141123376,0.014322391488509986,0.02394965761764718,-0.5730518115133105
6003,6.0,299.80817,2640.4474,0.0,0.0,0.0,0.0,0.0,-0.05983075793167639,-0.14470587421635786,-0.37484411299923365,-0.28308008028032877,0.05324651972302235,0.02114991688208428,-0.5416586079050424
6004,6.0,298.87067,2309.8443,0.0,0.0,0.0,0.0,0.0,-0.05984072474126023,-0.1095075314475519,-0.3536753527050397,-0.23895211636773778,0.006600051050099324,-0.024352094212864578,-0.5356720527367155
6005,6.0,299.93164,2457.4858,0.0,0.0,0.0,0.0,0.0,-0.05985069155084405,-0.11225308458101689,-0.3687832055385687,-0.26597802965998774,-0.028314364145910178,-0.035531346400920864,-0.5225339783625885
6006,6.0,299.50978,2953.9721,0.0,0.0,0.0,0.0,0.0,-0.05986065836042784,-0.16126775107588784,-0.4062837842570876,-0.33038221225118564,-0.043926189340677366,-0.025048377390082376,-0.5194510737408294
6007,6.0,299.2827,3073.3351,0.0,0.0,0.0,0.0,0.0,-0.059870625170011654,-0.21889420242317578,-0.4245294801327976,-0.29079344666657875,-0.016366262848224383,0.015284489683711686,-0.5235904233143515
6008,6.0,300.60289,2832.7571,0.0,0.0,0.0,0.0,0.0,-0.0598805919795955,-0.16195894976410385,-0.3852570410969096,-0.3138714538592007,-0.007721343906937311,0.012250380147018387,-0.5060853727317375
6009,6.0,301.32091,2569.612,0.0,0.0,0.0,0.0,0.0,-0.059890558789179316,-0.13048079526745188,-0.3764682414520226,-0.27414884806888473,0.02008793654502498,-0.02011097075954828,-0.5182763217073905
6010,6.0,299.88173,2688.6306,0.0,0.0,0.0,0.0,0.0,-0.05990052559876316,-0.1301665458814379,-0.3913595728716826,-0.2957504586732977,0.003116416652916377,0.012392782316072387,-0.5064225722325165
6011,6.0,300.91803,2825.3667,0.0,0.0,0.0,0.0,0.0,-0.05991049240834695,-0.16632034296453985,-0.36492001727980167,-0.3276005671491587,0.014077281223069487,0.016314710709636585,-0.5156971138428426
6012,6.0,300.17366,2753.4615,0.0,0.0,0.0,0.0,0.0,-0.059920459217930794,-0.13554406681215786,-0.39433216495505463,-0.30710732043163275,-0.018712961225575482,0.007129825217183964,-0.5155176571176315
6013,6.0,299.86586,2506.9646,0.0,0.0,0.0,0.0,0.0,-0.05993042602751458,-0.14836684815266787,-0.35511014524414264,-0.25857764609712675,-0.017518791267220085,0.004914305338854175,-0.5345999632034085
6014,6.0,298.57977,2727.0288,0.0,0.0,0.0,0.0,0.0,-0.05994039283709843,-0.15903628051315885,-0.39650546482954263,-0.27340692608066275,-0.021718181988667682,0.02010420427538048,-0.5384573354066016
6015,6.0,298.85309,3134.5227,0.0,0.0,0.0,0.0,0.0,-0.059950359646682244,-0.2106972928242038,-0.4273882943624406,-0.3147310445815357,0.00011881149784078189,0.037241645695214265,-0.5181284986503015
6016,6.0,298.50645,3096.0258,0.0,0.0,0.0,0.0,0.0,-0.05996032645626606,-0.2075223648283628,-0.3941594970055136,-0.33943268373439767,-0.035644469695085265,0.005640725715121284,-0.4847349569596155
6017,6.0,299.86705,2724.6496,0.0,0.0,0.0,0.0,0.0,-0.05997029326584988,-0.13504799982819987,-0.3991538371459166,-0.29402359679286977,0.02978811412485797,-0.03053765980683237,-0.4988500273451645
6018,6.0,299.49773,2618.639,0.0,0.0,0.0,0.0,0.0,-0.05998026007543372,-0.12256707893892889,-0.3811494366490206,-0.29228435299621974,0.01020128143003809,-0.025081603887361574,-0.5082220233501086
6019,6.0,299.70216,2861.6616,0.0,0.0,0.0,0.0,0.0,-0.05999022688501751,-0.17619347220394183,-0.38584500986493764,-0.3078351886409677,0.04397698660794066,-0.025635491988276075,-0.5098732562430726
6020,6.0,299.69281,2938.855,0.0,0.0,0.0,0.0,0.0,-0.060000193694601356,-0.18592012600888783,-0.3991526516432996,-0.3082657692709627,0.02035910456328718,-0.026401550607130175,-0.5271929327198915
6021,6.0,300.26052000000004,2696.0772,0.0,0.0,0.0,0.0,0.0,-0.060010160504185145,-0.13680755928935487,-0.3903566275251996,-0.29237596093776075,0.003944725304914077,-0.011108192958543291,-0.5361606419349355
6022,6.0,299.83654,2458.6259,0.0,0.0,0.0,0.0,0.0,-0.06002012731376899,-0.10992922587416988,-0.38235538665303864,-0.2550762691840678,0.0017570306928804283,0.03708698218670017,-0.5659087934758494
6023,6.0,300.73601,2591.3999,0.0,0.0,0.0,0.0,0.0,-0.060030094123352806,-0.11975526938142488,-0.3940261026298486,-0.27393948020072173,-0.04600554877189416,0.036329860433728066,-0.5567662074260464
6024,6.0,300.23926,2739.9702,0.0,0.0,0.0,0.0,0.0,-0.06004006093293665,-0.16934385086543682,-0.3780872327268046,-0.2854514502843647,-0.043183111234091257,0.027034221943069977,-0.5401046267566765
6025,6.0,299.85395,2886.4513,0.0,0.0,0.0,0.0,0.0,-0.06005002774252047,-0.16838718065102085,-0.4219487827906026,-0.28707314693691377,-0.03476345278613567,-0.025758858227701374,-0.5031737276418805
6026,6.0,298.43474,2867.8132,0.0,0.0,0.0,0.0,0.0,-0.06005999455210426,-0.17952922325565482,-0.39944941233258763,-0.29276495778365175,0.03850647566254326,0.02250354707492718,-0.5297232310021125
6027,6.0,298.31802000000005,2862.8335,0.0,0.0,0.0,0.0,0.0,-0.06006996136168807,-0.18625960532239183,-0.38084144914862467,-0.3031288445764877,0.032190084281913965,-0.010988428823223489,-0.4948163901545755
6028,6.0,299.04232,2932.5661,0.0,0.0,0.0,0.0,0.0,-0.06007992817127192,-0.19198607945505083,-0.4064566548566486,-0.2929841440452837,0.03207620510317497,-0.003195476201243947,-0.5322780803342565
6029,6.0,300.43135,2943.6617,0.0,0.0,0.0,0.0,0.0,-0.060089894980855735,-0.15730162673946185,-0.3802804024357537,-0.35721761425963366,-0.004127017002579865,-0.012672163739645187,-0.49021185746014356
6030,6.0,299.49607000000003,2718.4268,0.0,0.0,0.0,0.0,0.0,-0.06009986179043958,-0.14564465043400784,-0.4067731131278806,-0.27391609438841374,0.014808414124226687,-0.0074657035411575725,-0.5527852997706615
6031,6.0,299.99575,2593.4015,0.0,0.0,0.0,0.0,0.0,-0.06010982860002337,-0.10573544450527589,-0.38239522764697065,-0.30019862661229774,-0.001310885426774319,0.02141126650687748,-0.5122885506389435
6032,6.0,300.05562000000003,2566.9826,0.0,0.0,0.0,0.0,0.0,-0.06011979540960721,-0.15047175364540585,-0.36132460062496163,-0.2685022585741097,-0.016112981733977485,-0.0015927988610220086,-0.5581767528902565
6033,6.0,300.3024,2694.9745,0.0,0.0,0.0,0.0,0.0,-0.060129762219191,-0.15259653910510587,-0.38496036146762963,-0.2816480539139987,-0.003888119176152486,-0.005356811010601085,-0.5263251752017505
6034,6.0,300.11355,2752.3803,0.0,0.0,0.0,0.0,0.0,-0.060139729028774846,-0.16907641363404283,-0.37317619187712264,-0.2944022888852437,-0.02025862257737038,0.014136623228426088,-0.5582276281777775
6035,6.0,299.7941,2868.155,0.0,0.0,0.0,0.0,0.0,-0.06014969583835866,-0.14133989791416185,-0.41517565170214665,-0.3153319626858417,0.005839767855490214,0.016266441501372787,-0.5245827801972895
6036,6.0,298.83199,2721.9897,0.0,0.0,0.0,0.0,0.0,-0.06015966264794248,-0.16737851044147284,-0.37466389633644764,-0.2853744939392697,-0.02074127109025408,-0.015115889933322186,-0.5146366665531845
6037,6.0,300.406,2845.6485,0.0,0.0,0.0,0.0,0.0,-0.0601696294575263,-0.13924830652773787,-0.3866147455684046,-0.3391430360608117,-0.005644772129395635,-0.04357039163431286,-0.5076749088261124
6038,6.0,300.24591000000004,2948.1073,0.0,0.0,0.0,0.0,0.0,-0.06017959626711014,-0.16743264839431582,-0.4042001063539446,-0.3245182502124577,0.022432332818148878,-0.03327614653409997,-0.5111201516836315
6039,6.0,299.97851,2709.3594,0.0,0.0,0.0,0.0,0.0,-0.06018956307669396,-0.14978148714728187,-0.37358949659291263,-0.3002066110230857,0.036670721820368464,-0.013070838137241289,-0.5232835098590616
6040,6.0,300.00609,2430.7301,0.0,0.0,0.0,0.0,0.0,-0.0601995298862778,-0.1060692698832219,-0.36338329178063866,-0.26942867314053975,0.016905355471178683,0.0018245695875709984,-0.5298617726882855
6041,6.0,300.49391,2488.8079,0.0,0.0,0.0,0.0,0.0,-0.060209496695861564,-0.1122513012608409,-0.37507962271997664,-0.2692045422184198,-0.019603414532706382,-0.007181409374474924,-0.5539887065169284
6042,6.0,300.23559,2845.4245,0.0,0.0,0.0,0.0,0.0,-0.06021946350544541,-0.16573763296453084,-0.3923325969427126,-0.3068677779754917,-0.03181844238373577,0.033855075084735765,-0.5322116516577005
6043,6.0,299.56237000000004,2934.2944,0.0,0.0,0.0,0.0,0.0,-0.060229430315029225,-0.16822171690969084,-0.4141056798615486,-0.3096248314975917,0.008393104303909903,0.012544891421084387,-0.5546089067706375
6044,6.0,298.74601,2887.6533,0.0,0.0,0.0,0.0,0.0,-0.06023939712461307,-0.18751228642102183,-0.40474184051990963,-0.2855203816886677,0.01124289645333749,-0.004972317757429555,-0.5031249599145675
6045,6.0,298.28084,2782.0747,0.0,0.0,0.0,0.0,0.0,-0.06024936393419689,-0.18329250505456182,-0.36627776228130066,-0.29611098319137874,0.009010958782312391,-0.03335292758692767,-0.5038686753554665
6046,6.0,297.8425,2956.9701,0.0,0.0,0.0,0.0,0.0,-0.060259330743780676,-0.17212983267789184,-0.42184774149063065,-0.3048675006880797,-0.01931377597837128,-0.014494050240951387,-0.49425573860924354
6047,6.0,299.01198,3030.3428,0.0,0.0,0.0,0.0,0.0,-0.06026929755336449,-0.18933412023332283,-0.4118949606608676,-0.31991947277859367,-0.008427646303793931,0.05154577537717195,-0.5084243187325735
6048,6.0,299.12953999999996,2909.224,0.0,0.0,0.0,0.0,0.0,-0.06027926436294834,-0.16024265608221885,-0.40367859665997563,-0.3204102201995267,-0.028313709586345576,0.023381433041067778,-0.5082622595115794
6049,6.0,299.53213999999997,2533.1352,0.0,0.0,0.0,0.0,0.0,-0.060289231172532154,-0.1187502975347419,-0.36974515478600567,-0.2815144062258087,0.007800711584620293,-0.007812075691116842,-0.5508849390756104
6050,6.0,300.89195,2494.6315,0.0,0.0,0.0,0.0,0.0,-0.06029919798211597,-0.12149219283534587,-0.3651158886566327,-0.2716976136919667,0.008358651267384653,-0.013815773531260686,-0.5299556807075535
6051,6.0,300.32664,2591.893,0.0,0.0,0.0,0.0,0.0,-0.06030916479169979,-0.13278671944752887,-0.3910880015798806,-0.2639960415368807,0.05278908188587675,-0.008996146180425501,-0.5589322422973174
6052,6.0,300.62916,2598.1671,0.0,0.0,0.0,0.0,0.0,-0.06031913160128363,-0.14314964365276986,-0.3758626927947596,-0.2707655958524837,0.003009706421284897,-0.02300397002106508,-0.5328949571276375
6053,6.0,299.63667000000004,2508.0345,0.0,0.0,0.0,0.0,0.0,-0.06032909841086742,-0.12872439714660888,-0.36775573953966567,-0.2658997256922597,-0.02044757548251858,-0.027781800906600273,-0.5431305157953085
6054,6.0,299.35061,2639.8357,0.0,0.0,0.0,0.0,0.0,-0.06033906522045124,-0.13751241658891888,-0.37736873708089463,-0.2875629925652577,-0.03447584073200057,0.03708220876547907,-0.5190024775240565
6055,6.0,299.78001,3006.9734,0.0,0.0,0.0,0.0,0.0,-0.06034903203003508,-0.19691851001434382,-0.39816549273337465,-0.3189608267264827,-0.035257868172430665,0.04457065288128096,-0.5156082720740746
6056,6.0,301.20587,3062.9593,0.0,0.0,0.0,0.0,0.0,-0.0603589988396189,-0.2083937599143628,-0.40733527441586165,-0.31533411077605367,-0.025290094280937973,0.011039214944735688,-0.4995286414671385
6057,6.0,299.8836,2936.8371,0.0,0.0,0.0,0.0,0.0,-0.060368965649202716,-0.18157178346973982,-0.3949544221064666,-0.3161989298689047,-0.017838647979287484,-0.046421860813980954,-0.5136847687467395
6058,6.0,301.07037,2894.5082,0.0,0.0,0.0,0.0,0.0,-0.06037893245878656,-0.1989937272791518,-0.39743303450108663,-0.2834314450175057,0.02930801292272567,-0.01436361658207859,-0.5184558189626055
6059,6.0,301.09047000000004,2844.8643,0.0,0.0,0.0,0.0,0.0,-0.06038889926837038,-0.16768256653148086,-0.3933448743226166,-0.3037402802168317,0.02847354269686987,0.01067241638203549,-0.5098900356647285
6060,6.0,301.18517,2773.4842,0.0,0.0,0.0,0.0,0.0,-0.060398866077954166,-0.14370209800479286,-0.40361720383641664,-0.2957506410583157,0.0043499725545838655,0.013166662212448388,-0.5509233513869015
6061,6.0,299.77637000000004,2652.8506,0.0,0.0,0.0,0.0,0.0,-0.06040883288753798,-0.14494277208973785,-0.37138160436001066,-0.29007597440326977,-0.015858179731330486,-0.0077164026914996525,-0.5223640563208185
6062,6.0,299.01363,2539.7622,0.0,0.0,0.0,0.0,0.0,-0.06041879969712183,-0.14592382110155985,-0.37316310068583064,-0.25293735901797376,0.012676565298079588,0.007815088184989154,-0.5467852582435035
6063,6.0,299.12051,2739.8275,0.0,0.0,0.0,0.0,0.0,-0.060428766506705645,-0.15589041253018587,-0.38578968640947764,-0.2911590374351597,0.012831793186899388,0.014995539126194486,-0.5071718605489656
6064,6.0,300.0068,2934.3008,0.0,0.0,0.0,0.0,0.0,-0.06043873331628946,-0.18229700709631383,-0.4145111926840696,-0.2951459739286397,-0.005591346997997985,-0.027597094532621175,-0.5147719962365405
6065,6.0,299.91516,3060.9120000000003,0.0,0.0,0.0,0.0,0.0,-0.060448700125873306,-0.15329825532935987,-0.4312943734979406,-0.3458481780675577,-0.03867306005848386,-0.02464603300062408,-0.49573608687284254
6066,6.0,300.1347,3040.9136,0.0,0.0,0.0,0.0,0.0,-0.060458666935457095,-0.17225514131775885,-0.40556506569615564,-0.3465415856409917,0.0013294074359522987,-0.0007187957807221202,-0.5105514042700006
6067,6.0,300.25253,2919.4970000000003,0.0,0.0,0.0,0.0,0.0,-0.06046863374504091,-0.16870129831452182,-0.39244363902117163,-0.3263092406917147,0.01199191220550959,0.03073641084044757,-0.5066498138324435
6068,6.0,300.30794,2697.6186,0.0,0.0,0.0,0.0,0.0,-0.06047860055462473,-0.16841403177867084,-0.37589506613545465,-0.27569958681693074,0.001145619066563799,-0.0029257920877531975,-0.5305917889878325
6069,6.0,299.75916,2565.9964,0.0,0.0,0.0,0.0,0.0,-0.06048856736420857,-0.11232364731798089,-0.3893815060264626,-0.27829366919294674,-0.011220434725120689,-0.03429056389821517,-0.5491286726772805
6070,6.0,299.33752999999996,2621.8437,0.0,0.0,0.0,0.0,0.0,-0.06049853417379239,-0.14942649497474686,-0.38113036728213867,-0.26641817537092677,-0.0027062576733868377,-0.03205295405313027,-0.5567418184961396
6071,6.0,298.27206,2675.5436,0.0,0.0,0.0,0.0,0.0,-0.06050850098337621,-0.11961165131225089,-0.3814607374772436,-0.31222605728681274,-0.0014040726199211785,-0.028617277289805374,-0.5410277381277805
6072,6.0,299.34884,2589.0386,0.0,0.0,0.0,0.0,0.0,-0.060518467792959996,-0.13282391585869988,-0.3870489333687556,-0.26713023687870174,0.014268342701675785,-0.014609857634630683,-0.5466951904421146
6073,6.0,299.75858999999997,2683.3005,0.0,0.0,0.0,0.0,0.0,-0.06052843460254384,-0.13566117825871588,-0.3943159124234506,-0.2856792491718467,0.0028586701454787777,-0.007130725793872843,-0.5189892951402555
6074,6.0,299.2468,2875.0302,0.0,0.0,0.0,0.0,0.0,-0.06053840141212766,-0.20213691014935983,-0.37897701830211966,-0.29282346284442573,0.024409061159986777,0.025900111371141975,-0.5145027047574635
6075,6.0,299.6003,3146.3979999999997,0.0,0.0,0.0,0.0,0.0,-0.0605483682217115,-0.2221809425675518,-0.4159787537314066,-0.31826674027548174,0.017810973079306184,0.036098859675930066,-0.5079303289113205
6076,6.0,299.92307,3086.2839,0.0,0.0,0.0,0.0,0.0,-0.06055833503129529,-0.2161502603573698,-0.3955749769977106,-0.3264280037359357,-0.002029903099135838,-0.013620128109201986,-0.5086409009414485
6077,6.0,300.27212000000003,2913.7687,0.0,0.0,0.0,0.0,0.0,-0.060568301840879135,-0.15906846133633484,-0.4003698284584256,-0.32627463820079966,-0.03204709138805167,-0.015299938707986386,-0.5234906789745075
6078,6.0,300.23757,2738.8333,0.0,0.0,0.0,0.0,0.0,-0.06057826865046295,-0.11696024937807789,-0.3922789048199136,-0.3232977904670077,-0.057752619223239744,-0.013269875920634788,-0.5372644360638715
6079,6.0,300.42532,2686.8012,0.0,0.0,0.0,0.0,0.0,-0.060588235460046796,-0.16123536760269183,-0.35983053295500866,-0.29565458494883573,-0.008396018613847523,0.027124088107689077,-0.5295605030360525
6080,6.0,299.69921,2729.578,0.0,0.0,0.0,0.0,0.0,-0.060598202269630586,-0.14411237310278385,-0.40504817642264257,-0.2805630150444137,0.005462894749695735,0.008045713533625102,-0.5488635051261105
6081,6.0,300.04093,2556.7037,0.0,0.0,0.0,0.0,0.0,-0.0606081690792144,-0.1186636747836929,-0.3984435994883216,-0.26006682990159774,0.015825690880124085,0.01123899645370259,-0.5564910593613914
6082,6.0,299.59286000000003,2510.9083,0.0,0.0,0.0,0.0,0.0,-0.06061813588879822,-0.1124004212780579,-0.3995956445870196,-0.2512573498221698,0.03735227234113226,-0.007606180737671593,-0.5499964099304194
6083,6.0,299.57801,2874.8501,0.0,0.0,0.0,0.0,0.0,-0.060628102698382064,-0.15988537396445784,-0.4172029017072206,-0.2967943697213237,0.022203430501307977,-0.0053263196806418245,-0.5301498092942125
6084,6.0,299.1154,3105.2721,0.0,0.0,0.0,0.0,0.0,-0.06063806950796588,-0.1914420654763608,-0.4268343404002696,-0.3256487840115327,0.01096288276170229,-0.04173572804924566,-0.5004650365470535
6085,6.0,298.43512000000004,2816.1456,0.0,0.0,0.0,0.0,0.0,-0.060648036317549725,-0.17782308233977184,-0.39562141424979363,-0.28259345678730274,-0.018608430292259084,-0.026945534188317178,-0.5167051963673325
6086,6.0,299.34983,2756.5812,0.0,0.0,0.0,0.0,0.0,-0.060658003127133486,-0.1328101761873439,-0.4049114585866496,-0.30021021819344174,-0.01995484513113988,0.019581397621283483,-0.5158600343264216
6087,6.0,300.13173,2990.7470000000003,0.0,0.0,0.0,0.0,0.0,-0.06066796993671733,-0.17410132352996283,-0.4078076617449826,-0.3272034339049647,-0.028388942393020474,0.024406970825030478,-0.5191032959090065
6088,6.0,300.14696000000004,2956.0086,0.0,0.0,0.0,0.0,0.0,-0.06067793674630115,-0.18491142540183683,-0.4103348493493966,-0.3033065078490217,-0.017555215581814883,0.011467294873483889,-0.5250766078985265
6089,6.0,299.98296,2696.2458,0.0,0.0,0.0,0.0,0.0,-0.06068790355588499,-0.14003111315749486,-0.4008361768169506,-0.27872410796792774,-0.022729489688225978,-0.000996690016593146,-0.5445453878374454
6090,6.0,299.74379,2422.9647,0.0,0.0,0.0,0.0,0.0,-0.06069787036546881,-0.11600396419869988,-0.36785104584407163,-0.25266575732866875,0.008487484903024542,0.003515647932767437,-0.5451463870017594
6091,6.0,299.31892,2504.4396,0.0,0.0,0.0,0.0,0.0,-0.060707837175052626,-0.1295985381403799,-0.38032018263467965,-0.25136838176812776,0.012792845879555589,0.01059713189960549,-0.5539890611544634
6092,6.0,300.16237,2869.5215,0.0,0.0,0.0,0.0,0.0,-0.060717803984636415,-0.1817518684100128,-0.3983430546808986,-0.2921679710897337,0.024694322473889876,-0.024480731379310075,-0.5260309273727105
6093,6.0,300.38287,3045.5808,0.0,0.0,0.0,0.0,0.0,-0.06072777079422026,-0.1994800974596528,-0.41792089072808064,-0.3083795167271887,0.011074886414506189,-0.013087863778671587,-0.5302543564395304
6094,6.0,300.29567000000003,2930.1052,0.0,0.0,0.0,0.0,0.0,-0.060737737603804076,-0.18119798537534884,-0.40327402616004765,-0.3062067944052577,0.02634727282577337,-0.003758803942740067,-0.5057668474303015
6095,6.0,300.16356,2858.5193,0.0,0.0,0.0,0.0,0.0,-0.06074770441338792,-0.16321288729285785,-0.3970800384312486,-0.3086255642489717,0.008653196384003992,0.005115631243623495,-0.5097095454244155
6096,6.0,300.96932000000004,3117.0854,0.0,0.0,0.0,0.0,0.0,-0.06075767122297171,-0.22254932990640877,-0.41458620358897263,-0.3103806147471817,-0.005600434736819875,-0.014170798127798884,-0.5037248141062686
6097,6.0,301.12982999999997,3113.6506,0.0,0.0,0.0,0.0,0.0,-0.060767638032555554,-0.1846435828704028,-0.4044304788966806,-0.3573979626449327,-0.0035607947095230765,0.011743257591219289,-0.5170996141012585
6098,6.0,300.59071,2656.598,0.0,0.0,0.0,0.0,0.0,-0.06077760484213937,-0.11535320432197489,-0.3979130110734566,-0.2942732616175097,0.015784278335286984,0.036006378312802866,-0.5469000594798334
6099,6.0,300.42066,2444.0145,0.0,0.0,0.0,0.0,0.0,-0.060787571651723216,-0.09529436122707122,-0.37624013858951066,-0.27138488418110274,-0.012647788995239589,0.03674517746421667,-0.5406094380889975
6100,6.0,299.45738,2620.3367,0.0,0.0,0.0,0.0,0.0,-0.060797538461307005,-0.14034455194342887,-0.36940704336013663,-0.28676533168903473,0.003043572279377197,-0.01101621518071579,-0.5409996305700064
6101,6.0,299.44102999999996,2703.972,0.0,0.0,0.0,0.0,0.0,-0.06080750527089082,-0.15471124272631087,-0.3903415402312106,-0.27688717672913676,-0.03333341239000167,-0.006765213450849584,-0.5424977208428565
6102,6.0,299.76662000000005,2756.7653,0.0,0.0,0.0,0.0,0.0,-0.06081747208047464,-0.16244899804246785,-0.3771818228349476,-0.2983570040255437,0.01021210902060669,-0.02937964261204497,-0.5422557161889724
6103,6.0,300.05456000000004,2826.4627,0.0,0.0,0.0,0.0,0.0,-0.06082743889005848,-0.1367369560223869,-0.40880530779344265,-0.3136318100780497,0.008758786872949962,-0.021585102733783775,-0.5110536318145665
6104,6.0,300.13473999999997,2963.1008,0.0,0.0,0.0,0.0,0.0,-0.0608374056996423,-0.17833791471558183,-0.4070848496536466,-0.3152859003362957,0.016113861235064284,-0.029242254004485768,-0.5215123689492636
6105,6.0,300.40508,3169.1557,0.0,0.0,0.0,0.0,0.0,-0.060847372509226144,-0.2101860473537478,-0.4132629800183806,-0.3398951614775407,0.007700107299416423,-0.004246150288387406,-0.5071387475356975
6106,6.0,300.06532000000004,3099.9223,0.0,0.0,0.0,0.0,0.0,-0.060857339318809905,-0.20802180593515382,-0.41399679600580264,-0.3202803620667107,0.004732308699617506,0.034435587345277865,-0.5141060578733175
6107,6.0,300.57375,2708.8583,0.0,0.0,0.0,0.0,0.0,-0.06086730612839375,-0.14852616146589084,-0.3682151066050016,-0.3066840048048547,-0.023834887792070276,0.02954955452131397,-0.5040122934246405
6108,6.0,301.46651,2544.9352,0.0,0.0,0.0,0.0,0.0,-0.06087727293797757,-0.15937302405139286,-0.34325021494365865,-0.27097351477300374,-0.030298604723989472,-0.019514893964220084,-0.5223792449398175
6109,6.0,300.82865,2728.5836,0.0,0.0,0.0,0.0,0.0,-0.06088723974756141,-0.13896285370956588,-0.36946324834318367,-0.3209951796147577,-0.029317566857918573,-0.024519949224430578,-0.5523970425973435
6110,6.0,299.52973,2722.2665,0.0,0.0,0.0,0.0,0.0,-0.06089720655714523,-0.14465221249106186,-0.37884406975649865,-0.3040047587579337,-0.0038459230850130563,-0.004523700971679526,-0.5272343239864765
6111,6.0,300.03958,2796.272,0.0,0.0,0.0,0.0,0.0,-0.060907173366729045,-0.13919095657207786,-0.40594877337652463,-0.3048571452720577,0.011888453290798988,0.014750336654994886,-0.5287339442669775
6112,6.0,299.24066,2905.3245,0.0,0.0,0.0,0.0,0.0,-0.060917140176312834,-0.17952282964752383,-0.4002721308837836,-0.3033511516484277,0.004850637667495665,0.02118249996554998,-0.5089806133024755
6113,6.0,299.96176,2929.7463,0.0,0.0,0.0,0.0,0.0,-0.06092710698589668,-0.21304327078073382,-0.3906480686514626,-0.2868783800026917,0.006836227286758104,0.009283500058435121,-0.5203938826938775
6114,6.0,300.17704,2869.0249,0.0,0.0,0.0,0.0,0.0,-0.060937073795480495,-0.16233909080412084,-0.4224194273295516,-0.28735340178207275,0.008874610478630862,0.03051601577144627,-0.5355791984975514
6115,6.0,299.91594,2977.7374,0.0,0.0,0.0,0.0,0.0,-0.06094704060506434,-0.16940711820168086,-0.4220178053874146,-0.31373288177552466,0.012088517496543789,-0.0031638758690502367,-0.5319848862853205
6116,6.0,299.85987,3091.4444,0.0,0.0,0.0,0.0,0.0,-0.06095700741464813,-0.17412771869506785,-0.4331628168148416,-0.33243137885592267,0.027889802221509174,-0.04422918151808036,-0.5432880153908525
6117,6.0,300.48156,2781.4524,0.0,0.0,0.0,0.0,0.0,-0.06096697422423197,-0.16169369102042486,-0.39834451376104263,-0.28545386181960275,-0.0030851764298082075,-0.045085194454312257,-0.5400028559166326
6118,6.0,299.14845,2363.9496,0.0,0.0,0.0,0.0,0.0,-0.06097694103381579,-0.09047779075046272,-0.34514306745546863,-0.2829608106110577,0.0011475950055838088,-0.004185223255899376,-0.5394095979830824
6119,6.0,299.44014,2425.7376,0.0,0.0,0.0,0.0,0.0,-0.060986907843399635,-0.1006907134108997,-0.37144576335634266,-0.26522719107088577,-0.02117628266293638,0.02172506398334688,-0.5309515535683385
6120,6.0,299.79062999999996,2758.8332,0.0,0.0,0.0,0.0,0.0,-0.060996874652983424,-0.13264673894621387,-0.3961786207447856,-0.30979104504399574,-0.03474090797141067,0.02072746353114138,-0.5440857573270835
6121,6.0,300.22441000000003,2890.4515,0.0,0.0,0.0,0.0,0.0,-0.06100684146256724,-0.15013873886753984,-0.42608604506891856,-0.30240030762208675,-0.01051235630348879,-0.003946124400652156,-0.5665082525000115
6122,6.0,300.77071,2873.0632,0.0,0.0,0.0,0.0,0.0,-0.06101680827215106,-0.15895738886037283,-0.4264893794037246,-0.2878927244127997,0.006500736530947743,0.011706891031880188,-0.5297646931962045
6123,6.0,300.47137999999995,2939.7082,0.0,0.0,0.0,0.0,0.0,-0.0610267750817349,-0.17752290699764683,-0.40144043864658663,-0.31463453250951073,0.02307104312468468,-0.0008008893747516272,-0.5115093613120435
6124,6.0,299.78721,3162.9769,0.0,0.0,0.0,0.0,0.0,-0.06103674189131872,-0.22613848467563077,-0.42639516740942657,-0.30893235611424974,-0.007985392829996912,-0.017200423019549584,-0.4749445089283736
6125,6.0,300.36189,3327.3481,0.0,0.0,0.0,0.0,0.0,-0.06104670870090256,-0.25115567017463475,-0.4374688257648116,-0.3228062527109967,-0.02202627182732378,-0.009629131522571293,-0.5024791852283345
6126,6.0,299.43737000000004,2966.5808,0.0,0.0,0.0,0.0,0.0,-0.061056675510486325,-0.1813375605766238,-0.3958855888158656,-0.32454333828493365,0.016719671310853085,0.028032279371070574,-0.5009966990070246
6127,6.0,299.33211,2511.342,0.0,0.0,0.0,0.0,0.0,-0.06106664232007017,-0.11450775857103589,-0.38643469102563466,-0.2624428000610877,0.02741671271006887,0.0009327225954575531,-0.5543689792794585
6128,6.0,299.22516,2612.2219,0.0,0.0,0.0,0.0,0.0,-0.061076609129653986,-0.14084046693987187,-0.35511659964727965,-0.29809315369950373,0.022537590251786976,-0.039284700375348064,-0.5364855507120015
6129,6.0,298.8224,2906.7529,0.0,0.0,0.0,0.0,0.0,-0.06108657593923783,-0.1813257967429628,-0.3959334851480926,-0.30632100795652967,0.026454455434601475,-0.03156314186203957,-0.5608375881828604
6130,6.0,299.63284,2632.9734,0.0,0.0,0.0,0.0,0.0,-0.06109654274882165,-0.16230854131360584,-0.3620464399962016,-0.27600319707689475,0.018018379295275583,0.029289884865186574,-0.5375454913766095
6131,6.0,300.81886000000003,2390.3925,0.0,0.0,0.0,0.0,0.0,-0.061106509558405464,-0.09809821170503971,-0.3573931801044607,-0.2711282177982718,-0.011449292458957188,0.03223657017000177,-0.5204887533007405
6132,6.0,300.36126,2801.5377,0.0,0.0,0.0,0.0,0.0,-0.06111647636798925,-0.13338911689698088,-0.42071735967907065,-0.2974910196950777,-0.04022797643669216,0.017293570087992483,-0.5373651429913104
6133,6.0,299.57747,3187.1309,0.0,0.0,0.0,0.0,0.0,-0.0611264431775731,-0.1826258776812708,-0.47251542419864156,-0.31366688879651167,-0.03272801166725327,0.002429095571508068,-0.5383569324541925
6134,6.0,300.29855,3071.9440000000004,0.0,0.0,0.0,0.0,0.0,-0.061136409987156914,-0.18391934209642583,-0.44226699055335356,-0.3076079369085397,0.009132960781803052,0.00998872060815997,-0.5399568036995875
6135,6.0,299.83226,2650.2674,0.0,0.0,0.0,0.0,0.0,-0.06114637679674076,-0.13361603425687588,-0.4003579126372496,-0.2716411655288957,0.02024151992893248,-0.011702800541226488,-0.5296294040428524
6136,6.0,299.15307,2444.6778,0.0,0.0,0.0,0.0,0.0,-0.06115634360632455,-0.14063698605478986,-0.33807571893547567,-0.2644083127375687,0.019791058318725383,-0.040013418701516965,-0.5293315693084585
6137,6.0,298.43512999999996,2593.6593,0.0,0.0,0.0,0.0,0.0,-0.06116631041590839,-0.13088440317978486,-0.37569771541347763,-0.28182554493401574,0.022563706773114478,-0.011416855283505887,-0.5669276975114075
6138,6.0,298.69718,3033.3779999999997,0.0,0.0,0.0,0.0,0.0,-0.06117627722549221,-0.17204248038677084,-0.4138577172970766,-0.3361709607349907,0.017186578983433284,0.028860591062818575,-0.5393170983814535
6139,6.0,299.27236,2791.7495,0.0,0.0,0.0,0.0,0.0,-0.061186244035076054,-0.15710745762279885,-0.36277086315519663,-0.3287438273694897,0.007867450822331942,0.00963991311158535,-0.5488734653745935
6140,6.0,299.46347000000003,2441.466,0.0,0.0,0.0,0.0,0.0,-0.06119621084465984,-0.11706905217381589,-0.3666433935798857,-0.25843226497277877,-0.006888885894455104,-0.01000108084082983,-0.5248992080710184
6141,6.0,298.96292,2765.7822,0.0,0.0,0.0,0.0,0.0,-0.06120617765424366,-0.14926309826362086,-0.3880005677301746,-0.3034650713571707,-0.003845611105307267,-0.015830584878107085,-0.5436213240112474
6142,6.0,299.52227999999997,3093.4229,0.0,0.0,0.0,0.0,0.0,-0.06121614446382748,-0.2082103211162588,-0.3984269720541806,-0.3336860357922477,-0.01149889713085279,0.013941049747124486,-0.4763234916519685
6143,6.0,299.23194,3133.2079,0.0,0.0,0.0,0.0,0.0,-0.06122611127341132,-0.16748596561457782,-0.43525741755406255,-0.34967358223009565,-0.024498465282560274,-0.0018798516011019081,-0.4923156483777716
6144,6.0,299.72767999999996,3012.4432,0.0,0.0,0.0,0.0,0.0,-0.06123607808299514,-0.17769396387952882,-0.4054558778653796,-0.3325576804808877,-0.026947289137490373,0.012028725608142788,-0.48518517437654857
6145,6.0,300.06476000000004,3033.6626,0.0,0.0,0.0,0.0,0.0,-0.06124604489257898,-0.18048201272218783,-0.4388385372499916,-0.30283712987269773,-0.0011587896966636388,0.03701527042412276,-0.5124847563883075
6146,6.0,299.34817000000004,2810.5879,0.0,0.0,0.0,0.0,0.0,-0.061256011702162744,-0.16765448937120986,-0.3864438508065386,-0.3002502010423877,0.014323860701154986,0.05852692975090824,-0.5471191748139586
6147,6.0,300.00621,2842.5619,0.0,0.0,0.0,0.0,0.0,-0.06126597851174659,-0.16141092331501786,-0.38943081077632863,-0.3132261148705107,0.027272786612864475,-0.01013772126451519,-0.5174992298081975
6148,6.0,300.41297000000003,2842.7847,0.0,0.0,0.0,0.0,0.0,-0.061275945321330405,-0.18417313084897283,-0.38146344285501066,-0.2984989907620567,0.01001844916344395,-0.034276714795848366,-0.5476246852888484
6149,6.0,299.62624,2584.4375,0.0,0.0,0.0,0.0,0.0,-0.06128591213091425,-0.11479113422650289,-0.36799352907313365,-0.30281982356098974,0.014606687175067785,-0.05111166863682895,-0.5543319855183074
6150,6.0,299.57402,2397.9317,0.0,0.0,0.0,0.0,0.0,-0.061295878940498066,-0.0999889961733956,-0.3697897175254036,-0.25913264370690076,-0.003039289473854517,-0.011512139296409688,-0.5628815466820835
6151,6.0,299.66139,2776.9079,0.0,0.0,0.0,0.0,0.0,-0.06130584575008188,-0.14558929658104486,-0.39735201502309064,-0.30116935060560074,-0.017343339919654383,-0.01862064400896448,-0.5368353347790225
6152,6.0,298.74762999999996,3110.9934,0.0,0.0,0.0,0.0,0.0,-0.06131581255966567,-0.1986460305073368,-0.42858011966006465,-0.3184381720599007,-0.017843515632767884,-0.003205504337483647,-0.5262406802759115
6153,6.0,299.60336,2892.9411,0.0,0.0,0.0,0.0,0.0,-0.06132577936924952,-0.16534332668811585,-0.4362015842622446,-0.27783694671037173,0.00987158828864991,0.016332337208376183,-0.5507145712037965
6154,6.0,299.3659,2723.4389,0.0,0.0,0.0,0.0,0.0,-0.061335746178833334,-0.14492113920010286,-0.3982416486108906,-0.2846946335196727,0.003212196043794067,0.044358833961126054,-0.5139695933498495
6155,6.0,299.46526,2932.5239,0.0,0.0,0.0,0.0,0.0,-0.06134571298841715,-0.14258895157743387,-0.4059188824985746,-0.3429062064022077,-0.004958292248220345,0.003791089535976406,-0.5287585459794055
6156,6.0,299.56331,3009.7597,0.0,0.0,0.0,0.0,0.0,-0.06135567979800097,-0.17439963449190382,-0.43287927903935863,-0.3076128815690277,-0.04510620419513575,-0.01175758798738359,-0.49977719171666857
6157,6.0,299.6122,2964.7466,0.0,0.0,0.0,0.0,0.0,-0.06136564660758481,-0.1756713545599128,-0.4060547897344876,-0.3194827822504957,0.00967490023223831,0.0076327208988659035,-0.5548089730028825
6158,6.0,300.58275,2873.6067,0.0,0.0,0.0,0.0,0.0,-0.06137561341716863,-0.17683780807503283,-0.39660037596640957,-0.30006648866675667,-0.0008242423172263832,0.04479133368681046,-0.5371373643688305
6159,6.0,300.43682,2564.7325,0.0,0.0,0.0,0.0,0.0,-0.06138558022675247,-0.14538521787840386,-0.3640014250041437,-0.27022800587942775,0.029196701319740077,0.0006590082391640494,-0.5465110525014415
6160,6.0,299.79057,2777.3726,0.0,0.0,0.0,0.0,0.0,-0.06139554703633626,-0.16338154277200284,-0.38498164985223066,-0.2958887267819437,0.00909783038758595,-0.03372599816774687,-0.5447199404321725
6161,6.0,300.0126,3357.9785,0.0,0.0,0.0,0.0,0.0,-0.06140551384592008,-0.2057514974960918,-0.4568266953477846,-0.35816342243297766,0.019379625075870082,-0.03286434548145837,-0.5488000148748444
6162,6.0,299.46027999999995,3035.9618,0.0,0.0,0.0,0.0,0.0,-0.061415480655503896,-0.19539552418653683,-0.4239840374714666,-0.30347702770835067,0.013495579406909987,0.008384363299272233,-0.5320319213549625
6163,6.0,300.56133,2537.6965,0.0,0.0,0.0,0.0,0.0,-0.06142544746508774,-0.11651695245932789,-0.39413891789598265,-0.26074047909808173,5.537732490156645e-05,-0.015631379908447086,-0.5201608149058755
6164,6.0,301.13642000000004,2823.3525,0.0,0.0,0.0,0.0,0.0,-0.06143541427467156,-0.17267399864409683,-0.4010997130354596,-0.2844549593410187,-0.03398729510353487,0.015929822592901086,-0.5268871541047135
6165,6.0,300.52671000000004,3117.5697,0.0,0.0,0.0,0.0,0.0,-0.061445381084255374,-0.1997616593974408,-0.4022025952393056,-0.3456990985803447,-0.01676139998972138,0.016699893682151183,-0.5088795010749966
6166,6.0,300.48298,2971.9573,0.0,0.0,0.0,0.0,0.0,-0.06145534789383916,-0.14909173740670886,-0.43211525806645557,-0.3221938038205527,-0.007817748777101733,0.05987530421548245,-0.5387150150395325
6167,6.0,300.49298,2651.0796,0.0,0.0,0.0,0.0,0.0,-0.06146531470342301,-0.1254770319011189,-0.36879965058769165,-0.31158531845357673,-0.010137460859239491,-0.014735144996245588,-0.5361247830138964
6168,6.0,299.86294,2583.2149,0.0,0.0,0.0,0.0,0.0,-0.061475281513006824,-0.13702707992351987,-0.3774752803289096,-0.27073045633901577,0.0025683522069516276,-0.04368885070350386,-0.5513472952287415
6169,6.0,300.22641,2783.7782,0.0,0.0,0.0,0.0,0.0,-0.06148524832259064,-0.15316553983126185,-0.3990774279558756,-0.2939561042037087,0.012233216703574488,-0.03749355993507626,-0.5849597394710314
6170,6.0,300.01524,3013.7826,0.0,0.0,0.0,0.0,0.0,-0.061495215132174486,-0.18596623902093884,-0.4218761530234346,-0.30827226420410375,0.037322392608933365,-0.00969538936516043,-0.5640198622419265
6171,6.0,299.45976,2887.2025,0.0,0.0,0.0,0.0,0.0,-0.0615051819417583,-0.15537514445683284,-0.4050985552176146,-0.3171637567466257,0.027295271645833574,-0.003944748001716316,-0.5312433290671345
6172,6.0,300.01111000000003,2512.2177,0.0,0.0,0.0,0.0,0.0,-0.06151514875134209,-0.10750183327210489,-0.36442045458299865,-0.2917291628689267,-0.012341221058233688,-0.006489488846887683,-0.5264402398831065
6173,6.0,299.57627,2533.3547,0.0,0.0,0.0,0.0,0.0,-0.06152511556092591,-0.11522661898698189,-0.3671383561212347,-0.2877115958249237,-0.00047436934764160955,0.007755234387007043,-0.5126650845086045
6174,6.0,300.70763,3017.7151,0.0,0.0,0.0,0.0,0.0,-0.06153508237050975,-0.18215810064010485,-0.4148127865763346,-0.3203391609700137,-0.01187087948106459,0.01177173295877959,-0.5164862532857245
6175,6.0,300.45711,2973.1538,0.0,0.0,0.0,0.0,0.0,-0.06154504918009357,-0.16888052199220985,-0.4129971538546456,-0.32188683970275767,-0.0007751572805120673,-0.008157606742168103,-0.5048600189883046
6176,6.0,300.54258,2663.2855,0.0,0.0,0.0,0.0,0.0,-0.061555015989677386,-0.14765500955991487,-0.3759025844511967,-0.28601469574995275,-0.008423777816237142,-0.02318787592746518,-0.5530699318562524
6177,6.0,299.60184,2842.4212,0.0,0.0,0.0,0.0,0.0,-0.0615649827992612,-0.15661987154217785,-0.4051126799240086,-0.3022925282089497,0.0043057598930954155,0.026041921802137574,-0.5457574680045685
6178,6.0,300.81894,2997.7459999999996,0.0,0.0,0.0,0.0,0.0,-0.06157494960884505,-0.16732714879390384,-0.4096750816792826,-0.33423772007419467,0.013598145648282487,0.04969931350794036,-0.5518930519976035
6179,6.0,299.73053,2802.7296,0.0,0.0,0.0,0.0,0.0,-0.06158491641842884,-0.14094601720278888,-0.4052908194240896,-0.30572298774750967,-0.027117872831575678,0.010834449258526889,-0.5250857170169255
6180,6.0,299.67405,2700.4199,0.0,0.0,0.0,0.0,0.0,-0.06159488322801268,-0.15964610508584384,-0.3800984835127997,-0.28111562138395174,-0.02369621235688408,-0.015452460205789087,-0.5570388223654514
6181,6.0,298.77114,2793.0236,0.0,0.0,0.0,0.0,0.0,-0.0616048500375965,-0.1836885946511528,-0.3877838841962897,-0.2775369638857657,-0.01257732758328559,-0.025645629555526576,-0.5277053535604636
6182,6.0,299.89179,2744.3374,0.0,0.0,0.0,0.0,0.0,-0.061614816847180315,-0.15716859713383285,-0.4070777974329506,-0.26996364892833774,0.022891862003500876,0.0014129917539264286,-0.5500238690081295
6183,6.0,300.74907,3019.7214,0.0,0.0,0.0,0.0,0.0,-0.06162478365676413,-0.16759995625082783,-0.40348060759043564,-0.3468393393153777,0.01857179927464388,-0.005747138659173425,-0.5008972890397135
6184,6.0,300.76603,3151.1975,0.0,0.0,0.0,0.0,0.0,-0.061634750466347976,-0.17721291326205285,-0.4274303645065926,-0.3532420666972777,0.0045096672551445055,-0.004020625134129806,-0.5053869495703085
6185,6.0,300.88024,2735.742,0.0,0.0,0.0,0.0,0.0,-0.06164471727593179,-0.14067498293353986,-0.38810047419003463,-0.3028217993986847,-0.006688458641199473,0.027520943721355672,-0.5307546993389105
6186,6.0,301.12529,2681.6518,0.0,0.0,0.0,0.0,0.0,-0.06165468408551558,-0.13779300580661089,-0.39357206526003863,-0.2837901355529057,-0.007888423579526793,0.01767950387883118,-0.5472969191465005
6187,6.0,301.6935,2959.4809999999998,0.0,0.0,0.0,0.0,0.0,-0.0616646508950994,-0.17673528742991484,-0.4118482194337546,-0.31102480876325866,-0.005215818069786164,0.008454093144654033,-0.5382763385412385
6188,6.0,301.70752999999996,3037.0372,0.0,0.0,0.0,0.0,0.0,-0.06167461770468324,-0.19777031897591082,-0.4078804941621706,-0.3175326507105327,-0.024426431306451078,-0.026851301929017177,-0.5369568943935195
6189,6.0,300.46828,2808.6382,0.0,0.0,0.0,0.0,0.0,-0.06168458451426706,-0.14921140224351884,-0.39748738523645066,-0.3070571138891777,0.0015898784715837886,0.02002084925590398,-0.5414268269446675
6190,6.0,300.9543,2628.258,0.0,0.0,0.0,0.0,0.0,-0.061694551323850905,-0.14995515821442185,-0.37504060245862564,-0.27392904372469173,-0.00967942419128479,0.035469085222026166,-0.5390041966180725
6191,6.0,300.23924,2701.2152,0.0,0.0,0.0,0.0,0.0,-0.061704518133434666,-0.14734935253474885,-0.3651089884234517,-0.3086436304982547,0.003214867072382677,0.022401549266860776,-0.5159151449993605
6192,6.0,299.60891000000004,2962.1548,0.0,0.0,0.0,0.0,0.0,-0.06171448494301851,-0.1842239453414878,-0.4157415924130006,-0.30045554630765375,-0.002893257133667247,-0.03058135115114437,-0.5459860470946275
6193,6.0,299.72312,3298.5006,0.0,0.0,0.0,0.0,0.0,-0.06172445175260233,-0.2236826400107578,-0.43704883359836155,-0.3419303452308977,0.011649989946014488,-0.017508862429490183,-0.5258826280880745
6194,6.0,299.88635,3033.1451,0.0,0.0,0.0,0.0,0.0,-0.06173441856218617,-0.18092411400581984,-0.42154903536115057,-0.31952722339988165,0.041154070816090564,-0.013943967907412487,-0.5402443539454664
6195,6.0,299.11207,2445.5613,0.0,0.0,0.0,0.0,0.0,-0.06174438537176999,-0.08583752579125423,-0.38737692242612565,-0.2701751344892097,0.016757966085132484,-0.018917116935224083,-0.5189901564028405
6196,6.0,299.81329,2736.8471,0.0,0.0,0.0,0.0,0.0,-0.061754352181353805,-0.09833451176086072,-0.4121546465289966,-0.3214440291440557,0.014400108784430087,-0.013237826819971786,-0.5318096852105296
6197,6.0,299.5333,3189.3721,0.0,0.0,0.0,0.0,0.0,-0.06176431899093762,-0.2033141041155398,-0.4255078237668526,-0.3406675417637687,-0.036121998255213665,0.013006465345138187,-0.5300023915371636
6198,6.0,300.71837,2892.8706,0.0,0.0,0.0,0.0,0.0,-0.06177428580052147,-0.15339637846904383,-0.42887149999132157,-0.2970925590932527,-0.02394694210737918,0.02701629957530118,-0.5669832945443946
6199,6.0,301.83422,2397.7987,0.0,0.0,0.0,0.0,0.0,-0.061784252610105256,-0.13186296972886186,-0.3551462676102076,-0.24186168429488977,-0.03664311784789417,0.002757412617935437,-0.5258655649563906
6200,6.0,300.58914,2590.9506,0.0,0.0,0.0,0.0,0.0,-0.0617942194196891,-0.1148628824660839,-0.39993736318324463,-0.2727840305816877,-0.0021199881257765382,-0.024220085963336375,-0.5562143914215865
6201,6.0,300.37932,3139.6872,0.0,0.0,0.0,0.0,0.0,-0.06180418622927289,-0.2109122842304218,-0.39580122561253966,-0.34767301110015464,0.005079119485545065,-0.008595054978690881,-0.5205312895399385
6202,6.0,299.95932,3295.1641,0.0,0.0,0.0,0.0,0.0,-0.061814153038856734,-0.22295991911193078,-0.4251310872471716,-0.3535565997933197,0.029910569452443372,-0.031685762349391265,-0.5543130073439345
6203,6.0,299.66316,2951.4657,0.0,0.0,0.0,0.0,0.0,-0.06182411984844055,-0.18983846547059782,-0.3912689376502376,-0.3160644614481337,0.002540155077868788,-0.0045819556583538154,-0.5071208130089275
6204,6.0,300.2635,2681.1774,0.0,0.0,0.0,0.0,0.0,-0.061834086658024395,-0.14295806845636286,-0.3917250623152536,-0.28032785996120574,-0.006937107682614223,-0.03126528888914377,-0.5426275789756725
6205,6.0,298.53192,2917.3015,0.0,0.0,0.0,0.0,0.0,-0.06184405346760821,-0.17482198753108683,-0.4152705729715146,-0.2966942504789427,-0.014799607967607587,0.016047593665274185,-0.5112283262643075
6206,6.0,298.84405,3115.0083,0.0,0.0,0.0,0.0,0.0,-0.061854020277192,-0.18688888429699682,-0.42596941998240856,-0.3340264270308417,0.0019011552857794184,0.008171655454804602,-0.5331683421371185
6207,6.0,300.02902,2803.0378,0.0,0.0,0.0,0.0,0.0,-0.06186398708677582,-0.13110998304954788,-0.3906079946100076,-0.3303355115540767,-0.005750586647938714,0.03243423803926007,-0.5174887325371615
6208,6.0,300.05418,2196.3373,0.0,0.0,0.0,0.0,0.0,-0.06187395389635966,-0.043945581934341255,-0.37877317264700167,-0.2449129451160258,-0.0015871284094873786,-0.004017187277865516,-0.5701385553557944
6209,6.0,300.31285,2527.4709,0.0,0.0,0.0,0.0,0.0,-0.06188392070594348,-0.14356143862591086,-0.37404692835055764,-0.25067967567515775,-0.014718582410110986,0.016910741908710284,-0.5563494171299125
6210,6.0,299.58515,3097.0191,0.0,0.0,0.0,0.0,0.0,-0.061893887515527324,-0.2210070112666938,-0.41522233213425364,-0.3051871202996237,0.004368872404724136,0.0017109947891620382,-0.5679391541587304
6211,6.0,298.72073,3070.6711,0.0,0.0,0.0,0.0,0.0,-0.06190385432511111,-0.2193385531220298,-0.41176393729043664,-0.3023048695951677,-0.02318705316838398,0.003383757929525907,-0.5414767903070985
6212,6.0,299.69943,2959.4457,0.0,0.0,0.0,0.0,0.0,-0.06191382113469496,-0.14376917516141285,-0.4346351908001536,-0.32119322947930373,-0.0005363673449553355,-0.03159969384614697,-0.5467366526362065
6213,6.0,299.36572,2880.5865,0.0,0.0,0.0,0.0,0.0,-0.061923787944278746,-0.14947404680193985,-0.40818084175681263,-0.31797147919634167,-0.01005209008001405,-0.002374640066083728,-0.5170589321097435
6214,6.0,300.26283,3036.488,0.0,0.0,0.0,0.0,0.0,-0.06193375475386259,-0.15361993183860684,-0.4415790038679546,-0.3278176053205787,0.01058058957847289,0.02058685177501408,-0.5443762358657515
6215,6.0,299.41058,3066.3311,0.0,0.0,0.0,0.0,0.0,-0.06194372156344641,-0.19316892735678884,-0.39563913599404266,-0.3432800146290997,0.005557157507823745,0.025712527366878877,-0.5000745096935115
6216,6.0,298.66807,2932.2403,0.0,0.0,0.0,0.0,0.0,-0.061953688373030225,-0.16423555048628685,-0.42400312710335064,-0.3030891555700707,-0.007293763307838393,-0.00870398929429186,-0.5377193448287675
6217,6.0,299.19753,2574.9296,0.0,0.0,0.0,0.0,0.0,-0.06196365518261404,-0.13229883952437888,-0.3775092140747586,-0.27290625894125076,0.007227576494081264,-0.004003536671193306,-0.5453624017905785
6218,6.0,299.55781,2372.8629,0.0,0.0,0.0,0.0,0.0,-0.061973621992197886,-0.0986672245901969,-0.3599819834474557,-0.26264185304323273,0.011656668277423591,-0.007162780974036442,-0.5700175124988485
6219,6.0,300.46091,2830.0145,0.0,0.0,0.0,0.0,0.0,-0.061983588801781675,-0.14379372621133585,-0.41106309246126865,-0.30539691373282873,0.02120577634684718,0.0050245725849617055,-0.5464028373907616
6220,6.0,300.96697,3021.1740000000004,0.0,0.0,0.0,0.0,0.0,-0.06199355561136552,-0.16364827072832683,-0.4067640749369886,-0.34794913188490567,-0.015555917093999484,-0.02109650238981268,-0.5502063958811435
6221,6.0,300.03541,2806.6953,0.0,0.0,0.0,0.0,0.0,-0.06200352242094931,-0.17834563568134382,-0.4041498795464876,-0.27066978292302774,-0.029533260446455874,0.004995693031936515,-0.5427158229268815
6222,6.0,300.88689,2913.6648,0.0,0.0,0.0,0.0,0.0,-0.06201348923053315,-0.1926034324759788,-0.3911733172383006,-0.3019046054081647,-0.013365926963864287,0.015944948390393884,-0.5191875780523245
6223,6.0,300.42975,3093.6485,0.0,0.0,0.0,0.0,0.0,-0.06202345604011697,-0.24709881942425474,-0.3858075601412417,-0.30748550589895673,-0.004591498853095655,0.01825098909423238,-0.5246634045077465
6224,6.0,299.23347,3071.6764,0.0,0.0,0.0,0.0,0.0,-0.062033422849700814,-0.17940705569109783,-0.4191709779064546,-0.3351348922427387,0.018648710023484383,-0.023281291507184578,-0.5215555739335275
6225,6.0,299.99679,3144.2486,0.0,0.0,0.0,0.0,0.0,-0.06204338965928463,-0.17619720096430982,-0.4357444260821266,-0.3438314253335197,0.006824579166258523,-0.02272140901867848,-0.5379300400545615
6226,6.0,298.814,2864.248,0.0,0.0,0.0,0.0,0.0,-0.06205335646886842,-0.13672818127652087,-0.40497817097323363,-0.3289534992126827,0.019382069035111284,-0.006989039182039462,-0.5286520736588974
6227,6.0,298.81428,2414.8672,0.0,0.0,0.0,0.0,0.0,-0.06206332327845224,-0.11109261937398789,-0.38761862310497963,-0.2353480972195488,-0.011366844298320189,0.0049187032495882155,-0.5521221681102155
6228,6.0,300.70781,2636.4124,0.0,0.0,0.0,0.0,0.0,-0.06207329008803608,-0.12147382261103289,-0.38149804534592563,-0.2984316906904147,-0.0005932532725995395,0.002216368069988498,-0.5475874078176695
6229,6.0,300.59012,3043.3548,0.0,0.0,0.0,0.0,0.0,-0.0620832568976199,-0.17724874178558883,-0.4395229876925416,-0.3083321371525127,-0.013319791660311086,0.03074405074620157,-0.5608657869331435
6230,6.0,301.06691,2971.031,0.0,0.0,0.0,0.0,0.0,-0.06209322370720374,-0.16045006837768885,-0.4286509357095536,-0.31401822313618566,0.02895975582360537,0.03262191728903257,-0.5564904412788305
6231,6.0,300.28168,2725.3604,0.0,0.0,0.0,0.0,0.0,-0.06210319051678753,-0.13383221116571087,-0.3957181188393376,-0.29889117934576276,-0.0037294881855468266,-0.002098206592351868,-0.5403950647653405
6232,6.0,299.63828,2973.8918,0.0,0.0,0.0,0.0,0.0,-0.06211315732637138,-0.17179216708206682,-0.41356785684096964,-0.3186288251987167,-0.003474688006750007,-0.016759501159033983,-0.5298343541405794
6233,6.0,299.71999,3317.7323,0.0,0.0,0.0,0.0,0.0,-0.062123124135955166,-0.2292648374616778,-0.44328456723128057,-0.3359583504665077,-0.006085464792738614,-0.016031665373702184,-0.5212216776280745
6234,6.0,299.50467000000003,3058.7578,0.0,0.0,0.0,0.0,0.0,-0.06213309094553901,-0.19175333590708082,-0.3983350094751046,-0.3396976486355477,-0.0006760447831654253,0.034269644336650563,-0.5214985583504005
6235,6.0,299.30114,2819.1588,0.0,0.0,0.0,0.0,0.0,-0.06214305775512283,-0.16476657459869484,-0.4108131844566046,-0.28137411161696274,-0.009039054181085191,0.0015841737721957784,-0.5488991917946325
6236,6.0,299.65767999999997,2747.7806,0.0,0.0,0.0,0.0,0.0,-0.062153024564706644,-0.1377154212464539,-0.3765066740283156,-0.3210346051761487,0.008440833956495452,-0.015475879455350386,-0.5099765773557695
6237,6.0,299.077,2787.4574,0.0,0.0,0.0,0.0,0.0,-0.06216299137429046,-0.13267303278630888,-0.42728760770000357,-0.28735680630240873,0.018050089970405185,-0.023390548238967374,-0.5621329372432015
6238,6.0,300.00952,3048.3612,0.0,0.0,0.0,0.0,0.0,-0.062172958183874305,-0.17998901588603283,-0.4137764445065556,-0.33286021669574567,0.016759472788031183,0.02260026990297298,-0.4961984936884785
6239,6.0,301.44444,3002.2634,0.0,0.0,0.0,0.0,0.0,-0.062182924993458094,-0.20304436680641882,-0.40942244803184963,-0.30014630237713374,-0.012629899051473988,0.007742283936153932,-0.5471992114393575
6240,6.0,300.74801,2716.2336,0.0,0.0,0.0,0.0,0.0,-0.06219289180304194,-0.13503215259663587,-0.4098278088668556,-0.28080723871601676,-0.02965095045882097,0.012952119676024687,-0.5206072731649375
6241,6.0,300.94215,3015.1940000000004,0.0,0.0,0.0,0.0,0.0,-0.06220285861262573,-0.17968144381817783,-0.4193421665108496,-0.3175200762767917,-0.02131880844850258,0.027068603545463175,-0.5700244836595365
6242,6.0,301.13792,3347.0409999999997,0.0,0.0,0.0,0.0,0.0,-0.06221282542220957,-0.2125739029369108,-0.43475287979926863,-0.3700901056500497,-0.02072445721809468,0.02954081523920147,-0.5200869692385875
6243,6.0,299.87052,2896.0158,0.0,0.0,0.0,0.0,0.0,-0.06222279223179339,-0.16694329925852086,-0.4082557108067016,-0.3051174796202507,-0.002783402786975467,-0.03065284810470057,-0.5472584561727044
6244,6.0,300.22165,2547.3594,0.0,0.0,0.0,0.0,0.0,-0.062232759041377234,-0.12102055531129888,-0.36922068640174466,-0.28409239819023674,-0.003455455709251927,-0.040491378906187966,-0.5334575743781634
6245,6.0,300.03353,2668.5902,0.0,0.0,0.0,0.0,0.0,-0.06224272585096105,-0.12766209560926786,-0.4003937107632826,-0.2831289898626557,0.03783230362900767,-0.013894442269024686,-0.5432603435306215
6246,6.0,299.8449,2847.3904,0.0,0.0,0.0,0.0,0.0,-0.06225269266054484,-0.15260868797380486,-0.38565261393594963,-0.3272742803519567,0.033359394149065864,0.02064973103646978,-0.5422771261635855
6247,6.0,299.41438,2981.6421,0.0,0.0,0.0,0.0,0.0,-0.062262659470128656,-0.16572269765805683,-0.4348961330984066,-0.3057259160402987,0.03790739255416836,0.003938104931410696,-0.5676342165411354
6248,6.0,299.25518999999997,2859.1855,0.0,0.0,0.0,0.0,0.0,-0.0622726262797125,-0.15119863900214386,-0.3918135291814846,-0.3261088400869367,-0.01117345031798369,0.007972743010448473,-0.5444966707726374
6249,6.0,299.17963,2714.6533,0.0,0.0,0.0,0.0,0.0,-0.06228259308929632,-0.15254303949982587,-0.3850295563169587,-0.2876142224903137,0.005044449613498415,0.015942653378917385,-0.5479953423079296
6250,6.0,300.20318,2832.3763,0.0,0.0,0.0,0.0,0.0,-0.06229255989888016,-0.18437573020646783,-0.38264778023439566,-0.2939481805879267,-0.017623863276089884,0.01831233530828678,-0.5130238966340166
6251,6.0,300.12034,3220.1692,0.0,0.0,0.0,0.0,0.0,-0.06230252670846395,-0.2328168160847308,-0.4113715359242096,-0.3346626872986357,-0.017867573229892183,-0.03335076936421467,-0.5439599217971646
6252,6.0,300.31735,3263.7106,0.0,0.0,0.0,0.0,0.0,-0.062312493518047796,-0.21989722882966678,-0.4183522312956506,-0.3538370572884987,-0.051081555857107046,-0.025786837102712675,-0.5117798180287355
6253,6.0,301.26103,2693.511,0.0,0.0,0.0,0.0,0.0,-0.062322460327631585,-0.13862723487894285,-0.39873742175231963,-0.2813954303990667,-0.030155312921347675,-0.00894446394052486,-0.5853024105223504
6254,6.0,300.71091,2753.1653,0.0,0.0,0.0,0.0,0.0,-0.06233242713721543,-0.14673071268619386,-0.37335942802520666,-0.31680335381855673,0.004610260495922285,0.043871511325531055,-0.5196354548615265
6255,6.0,301.22542000000004,3112.7843,0.0,0.0,0.0,0.0,0.0,-0.062342393946799246,-0.2074758262512698,-0.4171952921989696,-0.3215375723932877,0.022184406730680478,-0.01188056817852079,-0.5507887107136135
6256,6.0,300.54111,2989.4135,0.0,0.0,0.0,0.0,0.0,-0.06235236075638306,-0.18836992157066382,-0.4065849323193086,-0.3137522044549317,0.025817312625970375,-0.006368931944689644,-0.5137514608683215
6257,6.0,300.74863,2620.1458,0.0,0.0,0.0,0.0,0.0,-0.06236232756596688,-0.13312780982869188,-0.3880218358497737,-0.27530924234840676,0.035367111731962164,-0.005137368801993825,-0.5561085574486415
6258,6.0,300.97864,2664.3056,0.0,0.0,0.0,0.0,0.0,-0.062372294375550724,-0.10979892191130991,-0.4007973794706216,-0.2992860733072357,0.01833817217258668,0.01042190853331229,-0.5328994964880855
6259,6.0,300.4047,2955.1203,0.0,0.0,0.0,0.0,0.0,-0.06238226118513451,-0.15536902442622885,-0.4223139682591436,-0.3205997992932367,-0.017696370439995786,-0.037601172161946764,-0.5780959427636274
6260,6.0,299.12672000000003,3052.6406,0.0,0.0,0.0,0.0,0.0,-0.06239222799471833,-0.16371435489984884,-0.43779735184473456,-0.32641480108713267,-0.04645446314919855,0.002865700986597667,-0.5736218964170735
6261,6.0,298.22844,2931.9618,0.0,0.0,0.0,0.0,0.0,-0.06240219480430215,-0.18866993479277283,-0.42707916188943157,-0.2754940794316488,-0.02813176735863927,0.036426703838535766,-0.5526590589407026
6262,6.0,299.55942999999996,2723.3972,0.0,0.0,0.0,0.0,0.0,-0.06241216161388599,-0.16115881655763684,-0.36924201531634965,-0.29744392383042967,-0.022868566370451777,0.04177155049328106,-0.5294227719499595
6263,6.0,299.18995,2691.2892,0.0,0.0,0.0,0.0,0.0,-0.06242212842346981,-0.15109923916733387,-0.39815618096495564,-0.26882929517638576,-0.013029703222931588,-0.002102147020665758,-0.5203951999190075
6264,6.0,300.0605,3007.8122,0.0,0.0,0.0,0.0,0.0,-0.06243209523305365,-0.15263262094116686,-0.41263982107437963,-0.34902736171381865,-0.0013354005063187686,-0.004196205772408266,-0.5281772950595405
6265,6.0,301.68244,3116.9241,0.0,0.0,0.0,0.0,0.0,-0.06244206204263747,-0.19283321733365683,-0.4153286625997476,-0.33930521687181764,0.02012534067246648,0.004357597362911376,-0.5385959581527825
6266,6.0,301.35694,2839.6513,0.0,0.0,0.0,0.0,0.0,-0.06245202885222126,-0.13526093433671485,-0.4091519406526526,-0.3187701938526687,0.005943769770929405,0.017262743980200182,-0.5460246215259345
6267,6.0,300.49537000000004,2828.6733,0.0,0.0,0.0,0.0,0.0,-0.062461995661805075,-0.18063262221705184,-0.38810944145341963,-0.2911039976897277,-0.013825135962184687,-0.036347940868512466,-0.5371260058352094
6268,6.0,299.97815,3119.1878,0.0,0.0,0.0,0.0,0.0,-0.06247196247138892,-0.2077298987138448,-0.4051066308209116,-0.33531868567837764,-0.0020618914047928383,-0.003348789655324807,-0.5211973393606725
6269,6.0,299.36107999999996,2995.6571,0.0,0.0,0.0,0.0,0.0,-0.06248192928097274,-0.18684031921970382,-0.4087464987576386,-0.3150181287323687,0.017917015781771784,-0.013092095111089188,-0.5331790825881785
6270,6.0,299.89122000000003,2928.8775,0.0,0.0,0.0,0.0,0.0,-0.062491896090556553,-0.14761902904886387,-0.4119611461573996,-0.33072544059005965,0.004597096350623086,-0.010675093388799689,-0.5084710295621835
6271,6.0,299.84817999999996,2854.2961,0.0,0.0,0.0,0.0,0.0,-0.06250186290014037,-0.14899073663674087,-0.3996350904134126,-0.31900890544372773,-0.014240900849217487,-0.06656054903001474,-0.5456591320823635
6272,6.0,298.01434,2722.3065,0.0,0.0,0.0,0.0,0.0,-0.06251182970972421,-0.13153051223855086,-0.3932672796299586,-0.3027154182706857,-0.02712021343930668,-0.027267860190878273,-0.5372849847758995
6273,6.0,299.52983,3009.3342,0.0,0.0,0.0,0.0,0.0,-0.062521796519308,-0.18401442548580985,-0.4196709965658026,-0.31107704180591367,0.008629425435332981,0.024617310400039377,-0.5528469053767415
6274,6.0,300.85193,3185.4770000000003,0.0,0.0,0.0,0.0,0.0,-0.06253176332889182,-0.23513236614075778,-0.41417905943379063,-0.31899403093225964,-0.01930411970491828,0.03510841783568107,-0.5342072882596545
6275,6.0,301.176,2910.6283,0.0,0.0,0.0,0.0,0.0,-0.06254173013847567,-0.19518366372312781,-0.3980139003859136,-0.29156076070230674,-0.029882290655402474,0.002102042655905458,-0.5392715122594545
6276,6.0,301.48796,2634.2109,0.0,0.0,0.0,0.0,0.0,-0.06255169694805948,-0.10967317757389991,-0.3997703896992656,-0.2912907599481597,-0.030307396695107174,0.002082904286691648,-0.5779098188527584
6277,6.0,300.81502,3018.7375,0.0,0.0,0.0,0.0,0.0,-0.0625616637576433,-0.16694378561856885,-0.4247994099594376,-0.32587762654661767,0.03415325128441347,0.02357983146364818,-0.5601393474064496
6278,6.0,299.81226000000004,3219.8389,0.0,0.0,0.0,0.0,0.0,-0.06257163056722709,-0.1777645874114988,-0.4352368384445316,-0.36574918010163365,0.019036802037036085,-0.013768317962827188,-0.5637642496391995
6279,6.0,300.15371,2838.6693,0.0,0.0,0.0,0.0,0.0,-0.06258159737681093,-0.17154089118976784,-0.4240613484540966,-0.26728234598371375,0.02258920014563048,-0.044616401123295964,-0.5437494697513945
6280,6.0,299.06289,2558.7791,0.0,0.0,0.0,0.0,0.0,-0.06259156418639475,-0.12727934038399288,-0.36804218534293565,-0.2824834380914447,0.012656845424633387,-0.02987409954159407,-0.5433249990195025
6281,6.0,299.43476,2845.4632,0.0,0.0,0.0,0.0,0.0,-0.06260153099597857,-0.19109733752733882,-0.38964239766221065,-0.2842100263943457,0.03004185120164987,0.01852578150810228,-0.49979737565866056
6282,6.0,299.93675,3187.8546,0.0,0.0,0.0,0.0,0.0,-0.06261149780556241,-0.18661193264716383,-0.43643761074053855,-0.34597864415043367,-0.005097824487691105,-0.011061430453178188,-0.5446477666275495
6283,6.0,299.71802,3231.6893,0.0,0.0,0.0,0.0,0.0,-0.06262146461514623,-0.2090966717737348,-0.4110354206010376,-0.36222074941090465,-0.03666842072939137,-0.027600569980464177,-0.5032084010603025
6284,6.0,299.84781,2990.8642,0.0,0.0,0.0,0.0,0.0,-0.06263143142473004,-0.14778780611802086,-0.4434285298054886,-0.3179316888649147,-0.025157555088357375,-0.017126025130957085,-0.5595666888474324
6285,6.0,300.72381,2774.6527,0.0,0.0,0.0,0.0,0.0,-0.06264139823431389,-0.17558672791156082,-0.37383710451984964,-0.2940012951581687,-0.007018595687456463,0.034938449184406466,-0.5247540295966905
6286,6.0,300.07923999999997,3017.4274,0.0,0.0,0.0,0.0,0.0,-0.06265136504389768,-0.1934656981785778,-0.4111590675107406,-0.31259780861600167,0.008156268948061072,0.03092039172735507,-0.5584615065658594
6287,6.0,299.8395,3321.9239,0.0,0.0,0.0,0.0,0.0,-0.0626613318534815,-0.2612666193450077,-0.4340844995033046,-0.31443080844440474,-0.017479265394069184,-0.01180405968996999,-0.5346784900861584
6288,6.0,297.91299,2884.8036,0.0,0.0,0.0,0.0,0.0,-0.06267129866306531,-0.13809259346367786,-0.42020591155859455,-0.3186097558318347,0.005861256660960995,0.018466616821513182,-0.5506542118953396
6289,6.0,299.83584,2429.0571,0.0,0.0,0.0,0.0,0.0,-0.06268126547264916,-0.08728401326301141,-0.39960017381496665,-0.2514885025674828,0.0021035691171811077,0.03471793151214307,-0.5568511279169275
6290,6.0,299.72276,2699.5731,0.0,0.0,0.0,0.0,0.0,-0.06269123228223297,-0.09668014285883722,-0.41204265199544365,-0.3118800121126607,0.004295209223779147,-0.002968979948090507,-0.5395661045935285
6291,6.0,299.86974,3128.215,0.0,0.0,0.0,0.0,0.0,-0.06270119909181679,-0.2056916448126848,-0.4215829995045026,-0.3236246041542617,-0.034989531174947866,-0.05551581491198435,-0.5287455054506185
6292,6.0,299.53202999999996,2975.6069,0.0,0.0,0.0,0.0,0.0,-0.06271116590140058,-0.16946852115774086,-0.43271276151792454,-0.3023289140200407,-0.005085331417933135,-0.031037923672704575,-0.5528636138708904
6293,6.0,299.7922,2861.9881,0.0,0.0,0.0,0.0,0.0,-0.06272113271098442,-0.21072161082660382,-0.3968059340141966,-0.26244537371634175,0.015698885669859382,0.044434556167599254,-0.5358801439097525
6294,6.0,300.74183999999997,2882.6376,0.0,0.0,0.0,0.0,0.0,-0.06273109952056824,-0.13640080016921088,-0.4106590589838936,-0.3291900019185237,0.002045037914554528,0.02415648628105958,-0.5640207741670165
6295,6.0,301.50226000000004,3007.4382,0.0,0.0,0.0,0.0,0.0,-0.06274106633015208,-0.16439242186676883,-0.42251488562147255,-0.3272788298449057,-0.013456188296022386,0.002296218460019118,-0.5652230156756685
6296,6.0,300.75948999999997,3161.991,0.0,0.0,0.0,0.0,0.0,-0.06275103313973587,-0.14884869923772287,-0.4388915302302216,-0.37342608974928565,0.014563236984279585,-0.027167653808988675,-0.5762967550910615
6297,6.0,299.8504,2968.8172,0.0,0.0,0.0,0.0,0.0,-0.06276099994931972,-0.18244890341880482,-0.4104099919768126,-0.3095873919063967,0.00926144940578389,0.018055976953486184,-0.5368429341547725
6298,6.0,300.03106,2467.2891,0.0,0.0,0.0,0.0,0.0,-0.06277096675890351,-0.13071068145013987,-0.3548278537662827,-0.2644557531072508,-0.0055925591490926145,-0.02230650843398098,-0.5392422191990635
6299,6.0,300.14979,2567.6874,0.0,0.0,0.0,0.0,0.0,-0.06278093356848735,-0.17952930431566283,-0.3376312770441127,-0.26335228321834675,-0.02974978793982547,-0.02202955171789748,-0.5044475046075925
6300,6.0,299.49216,3136.8854,0.0,0.0,0.0,0.0,0.0,-0.06279090037807117,-0.17805330289499283,-0.45024020492774863,-0.32524133588132065,-0.0074453290068217624,0.003092255298981837,-0.5530849786202374
6301,6.0,299.48307,3167.9567,0.0,0.0,0.0,0.0,0.0,-0.06280086718765499,-0.2073212448160138,-0.4042597057248266,-0.35139879251286066,0.015156769508606685,0.060011090874633535,-0.5282424673059726
6302,6.0,299.82991,3008.8674,0.0,0.0,0.0,0.0,0.0,-0.0628108339972388,-0.14493206203618086,-0.4307595902276616,-0.3389289160496797,0.0093767593949891,0.006936011346006023,-0.5384417313550615
6303,6.0,299.69512000000003,3074.1428,0.0,0.0,0.0,0.0,0.0,-0.06282080080682265,-0.19151636710619382,-0.4136281857519236,-0.32931809699616565,0.008626923720836082,-0.03143507211565007,-0.5150635184228115
6304,6.0,300.10441000000003,3068.0175,0.0,0.0,0.0,0.0,0.0,-0.06283076761640646,-0.1885400665274558,-0.4073861091733786,-0.33667454603469066,0.030597587470746767,-0.03809114140680296,-0.5320438270436375
6305,6.0,300.36014,2893.5225,0.0,0.0,0.0,0.0,0.0,-0.06284073442599031,-0.17294617788595884,-0.4165502470528086,-0.2900621840694087,0.03394397156900917,0.01988918044515928,-0.5639744382399434
6306,6.0,299.45416,2836.4175,0.0,0.0,0.0,0.0,0.0,-0.06285070123557407,-0.14187731563470085,-0.38983279748850164,-0.3304899815318217,-0.011612710448335289,-0.017301190741994585,-0.5704118593052674
6307,6.0,299.82397000000003,2657.8351,0.0,0.0,0.0,0.0,0.0,-0.06286066804515791,-0.12389440617242589,-0.39628347186513363,-0.2877376262199927,-0.052282875308168046,-0.02182427434038818,-0.5788265062182285
6308,6.0,299.94626,2572.1662,0.0,0.0,0.0,0.0,0.0,-0.06287063485474173,-0.08623900182537682,-0.39537681567565364,-0.3002584691632037,-0.027512430394015474,-0.010524570020194189,-0.5796543822124335
6309,6.0,300.52567,3021.9507,0.0,0.0,0.0,0.0,0.0,-0.06288060166432557,-0.16534779512105685,-0.41996093808191753,-0.3332888113555447,0.003851596677622997,0.057459926733103246,-0.5442467931654765
6310,6.0,300.6093,3154.4341,0.0,0.0,0.0,0.0,0.0,-0.06289056847390939,-0.1982019837835128,-0.4295464562804346,-0.33112077024907566,0.03286993152925967,0.0008955016838991352,-0.5154500429384585
6311,6.0,300.2328,2923.3353,0.0,0.0,0.0,0.0,0.0,-0.06290053528349321,-0.17965961841102382,-0.4226313992504716,-0.2863299178560627,0.01014862079584089,-0.01260129601440109,-0.5261496093569235
6312,6.0,301.06498,2929.9451,0.0,0.0,0.0,0.0,0.0,-0.062910502093077,-0.15596732834527685,-0.42441695870919255,-0.3102458727488837,0.020622484741280783,0.011024329287516592,-0.5501967497401914
6313,6.0,301.17888,3192.9762,0.0,0.0,0.0,0.0,0.0,-0.06292046890266084,-0.2077061886615048,-0.44411785398101955,-0.3187609834092597,0.012401489174181688,0.042448484646589256,-0.5433343209204224
6314,6.0,300.42548,3195.991,0.0,0.0,0.0,0.0,0.0,-0.06293043571224466,-0.18036922785355683,-0.4281631469789126,-0.36296908527225963,-0.0035187805981016064,-0.02348930769971418,-0.5432430270864125
6315,6.0,300.28641,2898.5353,0.0,0.0,0.0,0.0,0.0,-0.0629404025218285,-0.20826179422133878,-0.3839688455822746,-0.2888517149699447,-0.04867008040086295,-0.025081418462593274,-0.5277239770973015
6316,6.0,298.80197999999996,2677.8735,0.0,0.0,0.0,0.0,0.0,-0.06295036933141229,-0.13274461890587386,-0.37557410903377864,-0.3056879394265507,-0.004517196919287625,-0.016993867933664183,-0.5608139186605244
6317,6.0,299.3004,2660.8959999999997,0.0,0.0,0.0,0.0,0.0,-0.06296033614099614,-0.15580361752661986,-0.3670918884716487,-0.2859504556936127,0.01929235181825688,0.038132138519099065,-0.5363199349831566
6318,6.0,300.42049,2868.3109,0.0,0.0,0.0,0.0,0.0,-0.06297030295057995,-0.12312225893372089,-0.4226832371255876,-0.32608938568501666,0.013299760719084187,-0.030710924560682272,-0.5771004245403775
6319,6.0,300.04578,3163.5219,0.0,0.0,0.0,0.0,0.0,-0.0629802697601638,-0.2032437845585998,-0.43325546840398566,-0.32513243176057266,-0.016379433073024186,-0.03197086762277897,-0.5477667936153735
6320,6.0,300.66087999999996,3073.9735,0.0,0.0,0.0,0.0,0.0,-0.06299023656974759,-0.15739872649654485,-0.4351767628461026,-0.3418357076715577,-0.009547300937870241,0.00048805763708503855,-0.5456676940457085
6321,6.0,300.84058999999996,2675.1194,0.0,0.0,0.0,0.0,0.0,-0.0630002033793314,-0.16541958389064185,-0.3983694498460036,-0.24938047626443674,0.016447497135241584,0.06081205291968235,-0.5267815329142895
6322,6.0,300.35165,2768.7836,0.0,0.0,0.0,0.0,0.0,-0.06301017018891522,-0.14808624880247484,-0.3822498262576206,-0.3113049926809107,0.001214415607278489,-0.01178568439940649,-0.4944309092865315
6323,6.0,300.24701,3355.7429,0.0,0.0,0.0,0.0,0.0,-0.06302013699849907,-0.21344757783563578,-0.47262878661982954,-0.3339856842443207,-0.031490969070666675,-0.011025584704390488,-0.5275198983946605
6324,6.0,298.75622000000004,3224.3701,0.0,0.0,0.0,0.0,0.0,-0.06303010380808288,-0.17160814059890483,-0.4506851129141575,-0.3578347443655397,0.0032280880610124868,-0.016068279166065683,-0.5558054639462285
6325,6.0,298.58369,2963.1324,0.0,0.0,0.0,0.0,0.0,-0.06304007061766673,-0.14633104631674987,-0.4397247663174556,-0.3146624576822667,-0.015085836935356185,0.047925358802614657,-0.5951508975193205
6326,6.0,299.73094,2808.2792,0.0,0.0,0.0,0.0,0.0,-0.06305003742725049,-0.14289150805729386,-0.40948215886024264,-0.3012730770183377,-0.003966158584279377,-0.014294745972781586,-0.5555673501727285
6327,6.0,299.46096,2769.2547,0.0,0.0,0.0,0.0,0.0,-0.06306000423683433,-0.17359764703775382,-0.3841311277182906,-0.2840555057540957,-0.015934876684399885,-0.023474866859288977,-0.5512656070056795
6328,6.0,300.6935,2984.0011,0.0,0.0,0.0,0.0,0.0,-0.06306997104641815,-0.18015062927698283,-0.4079028059293726,-0.3190083785536757,0.014310099751546883,0.008471829479704472,-0.5298645895235634
6329,6.0,300.15884,2940.2162,0.0,0.0,0.0,0.0,0.0,-0.063079937856002,-0.18897370717275283,-0.39636720685339766,-0.3084113935753347,0.022913544542390776,0.030593075468051473,-0.5377236004791875
6330,6.0,299.43208,2768.5603,0.0,0.0,0.0,0.0,0.0,-0.06308990466558581,-0.12643417834308188,-0.38928201499914367,-0.3258570069070827,0.017793706284352086,-0.04066409954473416,-0.5314310032506565
6331,6.0,300.0234,2989.2168,0.0,0.0,0.0,0.0,0.0,-0.06309987147516963,-0.18513386419628983,-0.4173052399673206,-0.3062081622928927,-0.00912505915354822,-0.04887656151949105,-0.5568376212930946
6332,6.0,300.19101,3257.8239,0.0,0.0,0.0,0.0,0.0,-0.06310983828475342,-0.2165421247010438,-0.43632195837412463,-0.33743303466204766,0.000909882468990908,-0.004459445615263016,-0.5491216103240835
6333,6.0,299.48413,3009.0014,0.0,0.0,0.0,0.0,0.0,-0.06311980509433726,-0.2280841781801558,-0.39331731391989666,-0.2932597886024877,0.017411021986584084,0.057670756721160545,-0.5312576361585465
6334,6.0,300.49019,2817.6757,0.0,0.0,0.0,0.0,0.0,-0.06312977190392108,-0.15553722394282885,-0.3940784673950166,-0.3068873640999247,-0.005509836802978556,0.012682993356713988,-0.5190177674680655
6335,6.0,299.65882,2816.2848,0.0,0.0,0.0,0.0,0.0,-0.06313973871350492,-0.15860071469267184,-0.3921847536206216,-0.3052947983877507,-0.012216732137697589,0.008022348999569202,-0.5163401527538055
6336,6.0,299.86231000000004,3131.3286,0.0,0.0,0.0,0.0,0.0,-0.06314970552308871,-0.15438577666168984,-0.4542926987026986,-0.34316720949546664,-0.021250127316974277,-0.006251095011060044,-0.5682133092382875
6337,6.0,300.71837,3108.5596,0.0,0.0,0.0,0.0,0.0,-0.06315967233267256,-0.18843433387952083,-0.41323533855565264,-0.3432548150991127,-0.006585997879162384,0.03471866814496576,-0.5556771358210635
6338,6.0,299.71133,2757.6672,0.0,0.0,0.0,0.0,0.0,-0.06316963914225637,-0.16155688199192283,-0.3854463263480906,-0.29125876151000174,-0.02895848419472987,-0.014296068264162088,-0.5686231891687394
6339,6.0,298.88768,2692.5233,0.0,0.0,0.0,0.0,0.0,-0.06317960595184022,-0.16431661049428684,-0.38469522431396264,-0.2694480059524477,-0.022936251477131776,-0.021676569833560876,-0.5554639176025205
6340,6.0,300.05953,2860.3031,0.0,0.0,0.0,0.0,0.0,-0.063189572761424,-0.16100355624481383,-0.4017428634039336,-0.30671430098284475,0.01991299283575938,-0.0018388161879520281,-0.5380874788550996
6341,6.0,298.85117,3031.0992,0.0,0.0,0.0,0.0,0.0,-0.06319953957100782,-0.17701760930527785,-0.4324739080718516,-0.3118869528758457,0.022739630295226777,0.025997346903738377,-0.5324311216293605
6342,6.0,299.31742,3098.9449,0.0,0.0,0.0,0.0,0.0,-0.06320950638059164,-0.16873522192786986,-0.4070625885489496,-0.36620404833652564,0.02297961250191118,-0.007958600470852712,-0.5170660045954415
6343,6.0,299.17656,2869.2942,0.0,0.0,0.0,0.0,0.0,-0.06321947319017548,-0.16502620980431884,-0.4137305442770256,-0.2934370263099797,-0.025879273882835476,-0.03941125227308776,-0.5627897563555244
6344,6.0,298.90916,2747.4851,0.0,0.0,0.0,0.0,0.0,-0.0632294399997593,-0.11922281658637589,-0.4237503009383986,-0.2921937481722777,0.013915756998128286,0.012347217472325488,-0.5617511952680265
6345,6.0,299.91787999999997,3119.8272,0.0,0.0,0.0,0.0,0.0,-0.06323940680934315,-0.2090163413058068,-0.4199635421346746,-0.3193696934068347,0.01106420979820249,0.013020795741302486,-0.5430750808823375
6346,6.0,300.63152,3146.4851,0.0,0.0,0.0,0.0,0.0,-0.06324937361892691,-0.1892746019224488,-0.41897626163473756,-0.3482020391098657,0.003981783103471396,-0.014383261475017386,-0.5298931631763835
6347,6.0,299.08585,2718.4537,0.0,0.0,0.0,0.0,0.0,-0.06325934042851075,-0.15042460711825284,-0.37444249105709665,-0.3014749569682617,-0.01236371419720359,-0.026442767594697977,-0.5472747593668135
6348,6.0,299.95814,2673.1128,0.0,0.0,0.0,0.0,0.0,-0.06326930723809457,-0.10529662615196789,-0.39750134782282864,-0.30976156959858675,-0.014746118494828585,0.0013720883672645786,-0.5649699868606964
6349,6.0,299.69171,2738.3372,0.0,0.0,0.0,0.0,0.0,-0.06327927404767841,-0.15786557134761883,-0.38927908670635464,-0.2852414643336407,-0.002225717227336188,0.010196928507608491,-0.5612024798088725
6350,6.0,300.28199,2971.2876,0.0,0.0,0.0,0.0,0.0,-0.06328924085726223,-0.17543221740381185,-0.4055882083284396,-0.32217682174887674,-0.013646136212768788,0.003839044839359226,-0.5445623091141155
6351,6.0,300.46245,3164.1282,0.0,0.0,0.0,0.0,0.0,-0.06329920766684605,-0.22920292788056776,-0.4297227921953376,-0.3028902343104387,0.017055763329272784,0.0021423074923542884,-0.5364120394172465
6352,6.0,300.02626000000004,3024.7868,0.0,0.0,0.0,0.0,0.0,-0.06330917447642984,-0.1882091998398018,-0.42330665951461466,-0.3079437989191867,0.006069003632939024,0.01987042214605798,-0.5540040369909415
6353,6.0,300.17301000000003,3035.8683,0.0,0.0,0.0,0.0,0.0,-0.06331914128601368,-0.16837866935018084,-0.4290408242155325,-0.3254086538703337,0.013143739455436088,-0.0006116062007333324,-0.5314389369989395
6354,6.0,299.86248,3204.2753,0.0,0.0,0.0,0.0,0.0,-0.0633291080955975,-0.1717706253849408,-0.4502004145963216,-0.35204864046449563,-0.01748409758379608,-0.033521879948351964,-0.5460663066350485
6355,6.0,299.38601,3193.7559,0.0,0.0,0.0,0.0,0.0,-0.06333907490518134,-0.1998972221283198,-0.4141941771252826,-0.35673065639407464,-0.01865494252484948,-0.05333303304306054,-0.5306229768259104
6356,6.0,300.07282000000004,2939.6084,0.0,0.0,0.0,0.0,0.0,-0.06334904171476513,-0.15125408404761587,-0.4333523553785476,-0.3089611222845887,0.005728957304679064,0.0025936286426212173,-0.5588511417593135
6357,6.0,300.64221000000003,2622.8273,0.0,0.0,0.0,0.0,0.0,-0.06335900852434898,-0.12760496856862988,-0.39540653430108663,-0.2742624840675998,0.02513327052321068,0.000897615151355218,-0.5650919315102314
6358,6.0,301.04111,2760.6002,0.0,0.0,0.0,0.0,0.0,-0.06336897533393279,-0.16644281450412685,-0.3819948114724526,-0.2907158925039247,-0.005302958591636265,0.020502212967660877,-0.5550342387651145
6359,6.0,300.66274,3101.905,0.0,0.0,0.0,0.0,0.0,-0.06337894214351664,-0.17323598767956083,-0.4454013480151906,-0.32426432973739766,0.0017823104722753482,0.015732397903666786,-0.5619224446674275
6360,6.0,299.91777,2974.1078,0.0,0.0,0.0,0.0,0.0,-0.06338890895310043,-0.16420478821325085,-0.43048311480537554,-0.3093666047096067,-0.01956312872198048,0.059513091622734854,-0.5606476747166175
6361,6.0,300.24075,2975.0646,0.0,0.0,0.0,0.0,0.0,-0.06339887576268424,-0.16359828710089386,-0.4296798810536026,-0.31106719301494173,-0.01684535789300738,0.0063939239610561645,-0.5499382797721826
6362,6.0,300.55978999999996,3071.3868,0.0,0.0,0.0,0.0,0.0,-0.06340884257226806,-0.1861026630144028,-0.42721865603069864,-0.3203035756265017,-0.03528790698489526,-0.013059531279375388,-0.5379850291374885
6363,6.0,299.64935,2959.703,0.0,0.0,0.0,0.0,0.0,-0.0634188093818519,-0.18752936981770782,-0.39758973362905164,-0.31455671490183074,0.008322745838166062,-0.021093145492231378,-0.5373141055837736
6364,6.0,299.65263999999996,3140.3824,0.0,0.0,0.0,0.0,0.0,-0.06342877619143572,-0.1952432833590118,-0.4408658075200676,-0.3184887535048927,0.019846110223158582,0.01617111391871468,-0.5586177092012754
6365,6.0,299.59828999999996,3110.1917,0.0,0.0,0.0,0.0,0.0,-0.06343874300101957,-0.1973639854208088,-0.4084156523349866,-0.33964097755745465,0.026593358851060178,-0.010805140999384389,-0.5328574972714405
6366,6.0,300.18237,2743.1707,0.0,0.0,0.0,0.0,0.0,-0.06344870981060333,-0.14250450731409986,-0.39562947972058965,-0.2957213986604297,-0.02898040687389347,-0.01045424641025379,-0.5525437004168176
6367,6.0,300.93428,2738.8679,0.0,0.0,0.0,0.0,0.0,-0.06345867662018717,-0.14892375067262986,-0.37321929553637667,-0.3104043855945277,0.004915461558543285,-0.03936343193461826,-0.5359919661907885
6368,6.0,300.82861,3050.7470000000003,0.0,0.0,0.0,0.0,0.0,-0.06346864342977099,-0.18110540471371184,-0.40457711645115263,-0.34166838968254465,-0.021165988041920377,0.0038275815356778866,-0.5540391967694115
6369,6.0,300.543,3063.4854,0.0,0.0,0.0,0.0,0.0,-0.06347861023935483,-0.20455478833298582,-0.4107185570297656,-0.3159497210068097,3.209032575656857e-05,-0.02307160345198998,-0.5202072420254575
6370,6.0,299.43685,3008.8044,0.0,0.0,0.0,0.0,0.0,-0.06348857704893865,-0.1844489780561968,-0.4146260445829046,-0.3155263851150297,-0.020163779328260082,0.003540632349758207,-0.5510668377335625
6371,6.0,299.47902999999997,3099.2112,0.0,0.0,0.0,0.0,0.0,-0.06349854385852247,-0.18584815485428482,-0.42715610810202553,-0.3290785545400247,-0.02228646432050278,0.022354490892466477,-0.5420969702958055
6372,6.0,298.57412999999997,3029.5457,0.0,0.0,0.0,0.0,0.0,-0.06350851066810626,-0.15870175599264386,-0.42422324555507457,-0.3379812434961517,-0.016136088902507985,0.07506593755568122,-0.5760019398419655
6373,6.0,299.732,3033.2472,0.0,0.0,0.0,0.0,0.0,-0.0635184774776901,-0.16739646523324483,-0.4213042037394876,-0.3333307396446827,-0.0038742526458839656,0.026698851358721472,-0.5373732895221145
6374,6.0,299.69366,2930.5504,0.0,0.0,0.0,0.0,0.0,-0.06352844428727392,-0.15780013565616086,-0.4000924816410536,-0.3329215385917977,-0.01058016603993109,0.016107364275423086,-0.5319835589276896
6375,6.0,300.16998,2872.4753,0.0,0.0,0.0,0.0,0.0,-0.06353841109685773,-0.14665825517154285,-0.4092716966819716,-0.31723080350574273,0.024770237197882076,-0.047707592104372754,-0.5370054797358145
6376,6.0,300.15238,2764.8263,0.0,0.0,0.0,0.0,0.0,-0.06354837790644155,-0.14082985821132485,-0.3933333536689796,-0.3062749456069837,0.02098250668731218,-0.003838270817607837,-0.5561158123193575
6377,6.0,300.0794,2921.2883,0.0,0.0,0.0,0.0,0.0,-0.0635583447160254,-0.16620564305321986,-0.4125029613833726,-0.30929009419455566,-0.0036700122285270066,-0.05768285695385474,-0.5774344323033415
6378,6.0,299.65219,3109.3087,0.0,0.0,0.0,0.0,0.0,-0.06356831152560921,-0.1893063673130838,-0.4250169243584046,-0.3308289238227727,-0.026076825228332275,-0.028901961051151476,-0.5637208014749115
6379,6.0,300.87854,2952.0571,0.0,0.0,0.0,0.0,0.0,-0.063578278335193,-0.15381199339506185,-0.4224930196843146,-0.32104662232233466,-0.006353681112134504,-0.014227107475606186,-0.5746913008376154
6380,6.0,299.82003,2866.6734,0.0,0.0,0.0,0.0,0.0,-0.06358824514477684,-0.15430307518852784,-0.40539285370915956,-0.3117012241325157,0.030192341133002072,0.03589649539245827,-0.5494254941615745
6381,6.0,299.18028,3045.1539,0.0,0.0,0.0,0.0,0.0,-0.06359821195436066,-0.1835941698743338,-0.3902379556734876,-0.35181863269179564,0.019229112853015682,0.004696602171393545,-0.5136049347713605
6382,6.0,299.38892000000004,3058.1632,0.0,0.0,0.0,0.0,0.0,-0.06360817876394448,-0.17237237435432884,-0.41636299843432856,-0.34086988780873867,0.008414393701761001,0.003100161993487167,-0.5089467808816365
6383,6.0,299.55279,3020.5825,0.0,0.0,0.0,0.0,0.0,-0.0636181455735283,-0.16921492492271284,-0.4125677384622656,-0.3363990129349977,0.004050220447025636,-0.008644872838407522,-0.5457751796163165
6384,6.0,299.47582,3097.6072,0.0,0.0,0.0,0.0,0.0,-0.06362811238311214,-0.19849758936768683,-0.4390011233610376,-0.30409653895199174,-0.02215000688978548,0.04041541858594126,-0.5632698443854055
6385,6.0,299.20078,2836.2936,0.0,0.0,0.0,0.0,0.0,-0.06363807919269593,-0.16311975947616686,-0.4117736948888996,-0.2872689575187387,-0.014305373953080487,0.005803218505833074,-0.5572163741804744
6386,6.0,299.16197999999997,2768.3294,0.0,0.0,0.0,0.0,0.0,-0.06364804600227975,-0.15578909765268686,-0.3951540019786636,-0.2905599026510297,-0.04344986654816796,-0.01774463762175938,-0.5563497818999484
6387,6.0,300.31697,3028.2563,0.0,0.0,0.0,0.0,0.0,-0.06365801281186359,-0.17284314048328983,-0.42353730563487757,-0.3241338535220207,-0.011465215684278688,-0.03869510736740976,-0.5218440259719955
6388,6.0,299.89146,2903.6706,0.0,0.0,0.0,0.0,0.0,-0.06366797962144741,-0.17325267590870783,-0.4134554367423746,-0.29593525522653574,0.025452602371726273,-0.0019610554906161082,-0.5654124427818634
6389,6.0,300.38562,2826.2128,0.0,0.0,0.0,0.0,0.0,-0.06367794643103122,-0.15396343375500784,-0.4032623231213926,-0.3018723536574817,0.015950598272951484,-0.020630475231569377,-0.5457421780605595
6390,6.0,300.86232,3025.7479,0.0,0.0,0.0,0.0,0.0,-0.06368791324061507,-0.19258859849451482,-0.4278329389038236,-0.29933028140909873,0.001969195536619468,-0.017539540602767884,-0.5805495076157754
6391,6.0,300.39687000000004,3142.4769,0.0,0.0,0.0,0.0,0.0,-0.06369788005019889,-0.17297930103172784,-0.44839478265311955,-0.3338604262669587,0.006107450394733424,-0.004746589649176926,-0.5686209600185195
6392,6.0,300.08926,3060.2766,0.0,0.0,0.0,0.0,0.0,-0.06370784685978267,-0.17195936348106783,-0.4414283741080886,-0.3168599235716397,0.005365931578726215,0.058684212510930846,-0.5493583359449465
6393,6.0,299.61537000000004,3032.4714,0.0,0.0,0.0,0.0,0.0,-0.06371781366936649,-0.15516050768814985,-0.44197115192165654,-0.3246639150468337,0.00030186736846698976,0.014933007409523089,-0.5315379619312125
6394,6.0,298.50364,2935.8462,0.0,0.0,0.0,0.0,0.0,-0.06372778047895034,-0.17249141097607684,-0.38640158814486764,-0.33353092746693974,-0.02232555956236118,-0.00997667397639606,-0.5129895677206285
6395,6.0,300.24531,2948.9249,0.0,0.0,0.0,0.0,0.0,-0.06373774728853415,-0.15012140215832886,-0.42638135681056366,-0.3198967759763537,-0.00017367306324269683,-0.01095132157806129,-0.5652446586978045
6396,6.0,299.23503999999997,2889.328,0.0,0.0,0.0,0.0,0.0,-0.06374771409811797,-0.16864372544383985,-0.4220992099004486,-0.28754063013555076,0.01023528914314439,0.017125486081903882,-0.5684177324459625
6397,6.0,299.30958,2944.1035,0.0,0.0,0.0,0.0,0.0,-0.06375768090770179,-0.17542344265794582,-0.4056987133843456,-0.3138117936933127,0.0036796866391567967,-0.00871918662724172,-0.5617998515378285
6398,6.0,299.77033,2912.495,0.0,0.0,0.0,0.0,0.0,-0.06376764771728563,-0.18712164810996884,-0.4136808646246226,-0.2845232422652577,-0.02024593060661778,-0.016700016285413285,-0.5490123920958044
6399,6.0,300.86234,3057.192,0.0,0.0,0.0,0.0,0.0,-0.06377761452686942,-0.16413409375377386,-0.42970868775394555,-0.3354672484080397,0.018439166863054083,-0.011495225112490388,-0.5360628835652875
6400,6.0,300.4348,3200.8032,0.0,0.0,0.0,0.0,0.0,-0.06378758133645326,-0.1927107153965668,-0.4180428455101166,-0.36221068783741167,-7.987741239753682e-05,0.02058829666965668,-0.5372017462801845
6401,6.0,300.44935,3133.8017,0.0,0.0,0.0,0.0,0.0,-0.06379754814603705,-0.2021403045371948,-0.42709673164616563,-0.3233604194556887,0.010900797888324988,-0.009467333922753111,-0.5326348456944665
6402,6.0,299.9177,2959.2445,0.0,0.0,0.0,0.0,0.0,-0.0638075149556209,-0.16566690810755086,-0.4062036969691836,-0.32766581032309766,-0.021664027823823078,-0.03086234465562627,-0.5444518749857166
6403,6.0,299.84867,3170.5557,0.0,0.0,0.0,0.0,0.0,-0.06381748176520471,-0.2079780335308338,-0.4343233732143796,-0.3214683674114577,0.017302347873608785,0.011277523262254889,-0.5641030095451324
6404,6.0,299.97851,3119.7241,0.0,0.0,0.0,0.0,0.0,-0.06382744857478856,-0.17201161678872484,-0.43614328185149054,-0.34016333838150764,0.015885762425552685,0.03213455716318387,-0.5495555954744145
6405,6.0,300.25492,2698.0341,0.0,0.0,0.0,0.0,0.0,-0.06383741538437238,-0.13092745617653387,-0.3964781273418446,-0.2927294129701437,0.001271072297220069,0.010845035695571688,-0.5400766002589105
6406,6.0,299.84848999999997,2663.5527,0.0,0.0,0.0,0.0,0.0,-0.06384738219395616,-0.12051143766605288,-0.39044114271604063,-0.29870093150698673,-0.03789809091825036,-0.03327983172471367,-0.5430044168203635
6407,6.0,299.68422000000004,2810.2645,0.0,0.0,0.0,0.0,0.0,-0.06385734900353998,-0.16407578121051883,-0.38679390845108663,-0.3033805460338287,-0.03411552291693997,-0.022823301448734477,-0.5699494930196355
6408,6.0,298.86249,2882.5977,0.0,0.0,0.0,0.0,0.0,-0.06386731581312383,-0.14821057458974488,-0.4243642291739886,-0.3036629185716967,-0.003125832988745697,0.004812621334343746,-0.5916217271560184
6409,6.0,298.89864,3098.8793,0.0,0.0,0.0,0.0,0.0,-0.06387728262270764,-0.19029518795317282,-0.4203253737453846,-0.3313613563528197,0.005594608143444834,-0.006081702392467294,-0.5825138955846455
6410,6.0,300.42113,3218.0946,0.0,0.0,0.0,0.0,0.0,-0.06388724943229149,-0.20168417987217882,-0.42593209184872466,-0.3506041308569337,0.02249584130791668,-0.015504545313929486,-0.5249334153943945
6411,6.0,299.98229,2916.7732,0.0,0.0,0.0,0.0,0.0,-0.06389721624187525,-0.16517485359398884,-0.41588094469925363,-0.3055704024149507,0.018534809566493282,0.01982963680303278,-0.5484428036845905
6412,6.0,299.85832,2929.6709,0.0,0.0,0.0,0.0,0.0,-0.0639071830514591,-0.16094863808939383,-0.4183864994140326,-0.3112116622141997,0.040467767139107665,0.02014114332102608,-0.5204269855746445
6413,6.0,300.99416,3074.2775,0.0,0.0,0.0,0.0,0.0,-0.06391714986104291,-0.1873244703824858,-0.41680404593785664,-0.3303750891029827,-0.002481504717030448,-0.0007029358024718623,-0.5415567560049905
6414,6.0,300.59446,3088.2626,0.0,0.0,0.0,0.0,0.0,-0.06392711667062675,-0.19701033073840582,-0.40963952673327364,-0.3321048691436987,-0.02383254009158858,-0.03980856486254946,-0.5299803128174845
6415,6.0,300.36566,2914.1106,0.0,0.0,0.0,0.0,0.0,-0.06393708348021057,-0.1883364944498648,-0.3919506928475216,-0.3055296596284297,-0.026834911595399576,-0.008203793113526342,-0.5737892042735854
6416,6.0,300.05294,3009.7538,0.0,0.0,0.0,0.0,0.0,-0.06394705028979439,-0.1848541666386858,-0.42284985597203156,-0.3071859689043947,-0.019920308501481382,0.016601928609482786,-0.5511771401394485
6417,6.0,299.38129,3095.8126,0.0,0.0,0.0,0.0,0.0,-0.0639570170993782,-0.1942084307668798,-0.4159742042384576,-0.3308671030865407,-0.02210615950495808,0.008751755626531032,-0.5476720547310234
6418,6.0,300.40662000000003,3066.2493,0.0,0.0,0.0,0.0,0.0,-0.06396698390896205,-0.17549308333731883,-0.4249542143097156,-0.3316159151754427,-0.02424285673283368,-0.026526368833948773,-0.5388660500994386
6419,6.0,300.38369,3044.7745,0.0,0.0,0.0,0.0,0.0,-0.06397695071854584,-0.17448396729772683,-0.42329750986621156,-0.3277539428167957,-0.010177482211689291,0.015966087827230184,-0.5457768616114824
6420,6.0,299.96522999999996,2891.5745,0.0,0.0,0.0,0.0,0.0,-0.06398691752812968,-0.15999510895028785,-0.40146033887855065,-0.3175109874233947,0.013773649684853386,0.0025750872803663276,-0.5654265978857604
6421,6.0,299.34918999999996,2779.3784,0.0,0.0,0.0,0.0,0.0,-0.06399688433771347,-0.13478588215983087,-0.43353339277391456,-0.2765423474551047,0.0027800676742713174,0.013408772244342788,-0.5488538488526575
6422,6.0,300.10041,3070.4706,0.0,0.0,0.0,0.0,0.0,-0.06400685114729732,-0.16674898828684384,-0.4272132959376696,-0.33938410852460366,0.008537060190667243,-0.015083171074343088,-0.5499370740045635
6423,6.0,299.91213,3234.4590000000003,0.0,0.0,0.0,0.0,0.0,-0.06401681795688113,-0.1920580202121508,-0.4401957148314346,-0.35094103651518366,-0.014868610299417585,0.02836475712638357,-0.5233554607486625
6424,6.0,300.43247,2938.0455,0.0,0.0,0.0,0.0,0.0,-0.06402678476646498,-0.15552015067864383,-0.44690637905122554,-0.2906659392739947,0.017375297827808382,0.03129362442819027,-0.5660073117830725
6425,6.0,300.28246,2916.4462,0.0,0.0,0.0,0.0,0.0,-0.0640367515760488,-0.14977871084200786,-0.4192573270799766,-0.31749077308389967,-0.025973663195900977,0.013409063047121488,-0.5416375930979686
6426,6.0,300.64367000000004,3241.8184,0.0,0.0,0.0,0.0,0.0,-0.06404671838563258,-0.22562495939244978,-0.44731712024426257,-0.3124897657578387,-0.003260459172557267,-0.036383004388222964,-0.5606823177375365
6427,6.0,301.39565,3305.0961,0.0,0.0,0.0,0.0,0.0,-0.0640566851952164,-0.2121870541812318,-0.46029189923227354,-0.3321877428693777,-0.015056591497719884,-0.011893451653542289,-0.5622954017642354
6428,6.0,300.67562000000004,2920.5871,0.0,0.0,0.0,0.0,0.0,-0.06406665200480025,-0.18100902436419983,-0.40763518631296064,-0.2991413203979497,0.017725659447386383,-0.006445679864239074,-0.5710836643865694
6429,6.0,300.24587,2781.9176,0.0,0.0,0.0,0.0,0.0,-0.06407661881438406,-0.13393402253575887,-0.40911026567603964,-0.30258919770572873,-0.006837340645967983,0.00027893895751913175,-0.5301761943268165
6430,6.0,300.03475,2927.9565,0.0,0.0,0.0,0.0,0.0,-0.0640865856239679,-0.18144481309970883,-0.3942143037034226,-0.3143665481230627,-0.006791428257436783,-0.019682076177719682,-0.5114609279572635
6431,6.0,300.40189,3218.0997,0.0,0.0,0.0,0.0,0.0,-0.06409655243355167,-0.19209267336557082,-0.4270832148898316,-0.35904605446258664,0.0038609101685671663,0.01125570900085199,-0.5394148364860994
6432,6.0,300.37687999999997,3288.2996,0.0,0.0,0.0,0.0,0.0,-0.06410651924313551,-0.2238344147432368,-0.4310409191179266,-0.34468561543282167,0.0014002367590176085,-0.004405851271098666,-0.5465962060398455
6433,6.0,300.86595,3121.7329999999997,0.0,0.0,0.0,0.0,0.0,-0.06411648605271933,-0.18292879893116684,-0.42494448710875565,-0.34105558615456566,0.0026294677039582575,0.013595805040551487,-0.5454927969459474
6434,6.0,299.28427,2752.5785,0.0,0.0,0.0,0.0,0.0,-0.06412645286230317,-0.15502744768501786,-0.4107687838372226,-0.27091891072511476,-0.01947346318088118,-0.03255070911175487,-0.5651316002516464
6435,6.0,300.32244,3073.6171,0.0,0.0,0.0,0.0,0.0,-0.06413641967188699,-0.18082337668087783,-0.41133834185093365,-0.3421411519142027,0.0022457761342658477,0.026058258433499872,-0.5325344934045625
6436,6.0,300.09267,3238.1112,0.0,0.0,0.0,0.0,0.0,-0.06414638648147081,-0.2083932634218138,-0.4358122631763216,-0.34009942256519965,-0.004118596387623816,-0.001931290762303558,-0.5509828494327734
6437,6.0,299.35542000000004,2724.3826,0.0,0.0,0.0,0.0,0.0,-0.06415635329105462,-0.11488581231584691,-0.4129671008566796,-0.30029136939395074,-0.012788745256400887,-0.01151488925718109,-0.5632880930197065
6438,6.0,299.69482,2643.0536,0.0,0.0,0.0,0.0,0.0,-0.06416632010063847,-0.13470814561215885,-0.3834734878733866,-0.28524067399856273,-0.01732083563493338,-0.040966410818069954,-0.5823196758054775
6439,6.0,299.59459,3080.7783,0.0,0.0,0.0,0.0,0.0,-0.06417628691022226,-0.17599273722663084,-0.4423193553185216,-0.3181675836206957,-0.00988558451493123,0.001776332094035328,-0.5472571186825725
6440,6.0,300.13401,3115.5761,0.0,0.0,0.0,0.0,0.0,-0.0641862537198061,-0.18222396189660484,-0.43433137789016957,-0.33050198854550666,0.033193445060937965,0.003594793202053466,-0.5700466333067225
6441,6.0,301.35679,3087.7146,0.0,0.0,0.0,0.0,0.0,-0.06419622052938989,-0.16721815348064684,-0.41787392658594563,-0.35349606823234564,-0.006763175095623414,-0.02046913237839608,-0.5049940922415365
6442,6.0,300.82245,2997.8401,0.0,0.0,0.0,0.0,0.0,-0.06420618733897374,-0.16513781930283383,-0.41980062165109555,-0.3263301035112737,0.020327446577162782,-0.016303515309281685,-0.5364609287345715
6443,6.0,300.13029,2935.3042,0.0,0.0,0.0,0.0,0.0,-0.06421615414855755,-0.14600474938704686,-0.4023040621043196,-0.34395038089525964,0.008251191737304223,0.02686785539590087,-0.5452742591643794
6444,6.0,299.80508,3216.5371,0.0,0.0,0.0,0.0,0.0,-0.0642261209581414,-0.1928745883352398,-0.44883861659442253,-0.3360337565389497,0.036232065587076465,0.03974922083069267,-0.5809201747673575
6445,6.0,299.61061,3243.6616,0.0,0.0,0.0,0.0,0.0,-0.06423608776772521,-0.2046859839559338,-0.43683723657997864,-0.34446891163393467,-0.005837532625769614,-0.008199044415607681,-0.5795177758339515
6446,6.0,299.75426,2922.0111,0.0,0.0,0.0,0.0,0.0,-0.064246054577309,-0.18391035456803884,-0.3803970275222636,-0.32391103982503067,-0.02254100693112418,-0.04076645300358566,-0.5407877498415955
6447,6.0,300.45434,2562.4416,0.0,0.0,0.0,0.0,0.0,-0.06425602138689282,-0.13871664406776685,-0.3818974482703436,-0.2583041800276378,-0.012881183049773788,0.01826096758121718,-0.5554523462863784
6448,6.0,299.6395,2891.8493,0.0,0.0,0.0,0.0,0.0,-0.06426598819647666,-0.17503765781487185,-0.3804093182459766,-0.3236030117946307,-0.0038763462232405867,-0.006812901154880994,-0.5040710416654385
6449,6.0,300.29537999999997,3193.3103,0.0,0.0,0.0,0.0,0.0,-0.06427595500606048,-0.18581041128805983,-0.41742025398617155,-0.36745591883507567,-0.0025998147371317374,-0.0026274647111605774,-0.5537087860443025
6450,6.0,300.66254,3127.2236,0.0,0.0,0.0,0.0,0.0,-0.06428592181564433,-0.17633748544065483,-0.44113938504706757,-0.3331210272714857,-0.018102856995862882,-0.02997799820684807,-0.5357326349601945
6451,6.0,301.58447,3077.5994,0.0,0.0,0.0,0.0,0.0,-0.06429588862522809,-0.17541805216741385,-0.43648626701034055,-0.32360905076522667,0.02204243113991858,0.029442491475997673,-0.5776063909778124
6452,6.0,301.95523,3077.9681,0.0,0.0,0.0,0.0,0.0,-0.06430585543481193,-0.18668259670913784,-0.4334725369729086,-0.3154703017219947,0.014920695407557985,0.004764443115938925,-0.5546905747286975
6453,6.0,300.80287000000004,2941.7895,0.0,0.0,0.0,0.0,0.0,-0.06431582224439575,-0.16012071143268383,-0.4144460508351406,-0.3196637993808607,-0.00038232103747464863,-0.02343592360494558,-0.5692675959673374
6454,6.0,299.87934,2958.8567,0.0,0.0,0.0,0.0,0.0,-0.06432578905397959,-0.14691601586448186,-0.4165918511019146,-0.3359106871818037,0.0024946991585076375,-0.03322190320324657,-0.5535289442840534
6455,6.0,300.43852999999996,2895.94,0.0,0.0,0.0,0.0,0.0,-0.06433575586356341,-0.14489079235960786,-0.4477403446785315,-0.28766230120755876,-0.025489975088414676,0.012482483320925188,-0.5831111558560904
6456,6.0,300.86532,2748.8497,0.0,0.0,0.0,0.0,0.0,-0.06434572267314723,-0.13717286634790787,-0.39091496886030364,-0.3074938348147787,0.009508970497187321,0.03793958350984536,-0.5862697806578224
6457,6.0,300.81801,2838.4582,0.0,0.0,0.0,0.0,0.0,-0.06435568948273104,-0.15022281836083787,-0.4230696299187216,-0.2895279682191857,-0.04899029782996595,-0.011104396310418591,-0.5692947409375164
6458,6.0,300.61445,3198.0616,0.0,0.0,0.0,0.0,0.0,-0.06436565629231489,-0.19932498913434482,-0.4384103782877356,-0.3343955033797667,-0.0006342994565979825,-0.004409109478120225,-0.5316024755650796
6459,6.0,299.41897,3245.5911,0.0,0.0,0.0,0.0,0.0,-0.06437562310189868,-0.20280095373489582,-0.4312330009393836,-0.3525447074484537,-0.01902263984038838,-0.0010190621025735992,-0.5165536648148775
6460,6.0,299.97067999999996,3141.6834,0.0,0.0,0.0,0.0,0.0,-0.06438558991148252,-0.1912213492070778,-0.43431256183581257,-0.3294593845901097,0.016974137927716983,0.010265177994594189,-0.5282022919395074
6461,6.0,300.17819,3212.1820000000002,0.0,0.0,0.0,0.0,0.0,-0.06439555672106631,-0.20215657733380082,-0.42803381573614857,-0.34623272674550964,-0.007419021082550373,-0.024907394784418474,-0.5381524079215075
6462,6.0,300.05734,3139.5634,0.0,0.0,0.0,0.0,0.0,-0.06440552353065016,-0.2017269694239018,-0.41675227899024764,-0.33586964042025264,-0.012422283092733888,-0.00911601690965582,-0.5524306723681626
6463,6.0,298.92545,2955.801,0.0,0.0,0.0,0.0,0.0,-0.06441549034023397,-0.16222031762739886,-0.4218329784366736,-0.31443640158495667,0.014894976080269686,0.01876395101035778,-0.5871461305368114
6464,6.0,298.37491,2967.0453,0.0,0.0,0.0,0.0,0.0,-0.06442545714981782,-0.2025670044193068,-0.39632057708379564,-0.30302009244325473,-0.006932519990136453,-0.004630210985091246,-0.5288602053619386
6465,6.0,298.67219,2860.4722,0.0,0.0,0.0,0.0,0.0,-0.06443542395940163,-0.14795888326490486,-0.4149141014538336,-0.3066391380904267,0.004515549779925066,-0.04965242231981255,-0.5615699653551405
6466,6.0,298.82473,2784.1598,0.0,0.0,0.0,0.0,0.0,-0.06444539076898542,-0.17150894341411482,-0.38720796297195065,-0.2875981624762287,-0.00986894715093925,-0.033737358727868066,-0.5201604096058355
6467,6.0,299.65153,3235.9255,0.0,0.0,0.0,0.0,0.0,-0.06445535757856924,-0.16754609187551184,-0.46735570137691657,-0.34873876782033664,0.01227585021478209,0.02172308409265148,-0.5674530980857605
6468,6.0,300.17086,3374.5575,0.0,0.0,0.0,0.0,0.0,-0.06446532438815308,-0.2159084279560028,-0.47322918796658453,-0.3366436013766367,-0.02159183375419808,0.041582287533602255,-0.5552073322796974
6469,6.0,300.34316,3106.4424,0.0,0.0,0.0,0.0,0.0,-0.0644752911977369,-0.15718042176249986,-0.4413971862700106,-0.3457033035682596,-0.020107862108241482,0.007203707462800572,-0.5883560930112254
6470,6.0,300.86144,2967.3403,0.0,0.0,0.0,0.0,0.0,-0.06448525800732074,-0.16890770749239284,-0.40628833375003665,-0.3268013154702787,-0.03075547818082937,0.013705942286671187,-0.5489869291207915
6471,6.0,300.68835,3118.5219,0.0,0.0,0.0,0.0,0.0,-0.0644952248169045,-0.15631609916219785,-0.4421110513629636,-0.34952562745049365,0.015844112780192182,0.017038267539796086,-0.5447305491607194
6472,6.0,299.76049,3000.7255,0.0,0.0,0.0,0.0,0.0,-0.06450519162648835,-0.15814346532004486,-0.4118714633910486,-0.3421306951731707,0.028756220223017975,0.015862448554001787,-0.5589527200818385
6473,6.0,299.12887,2790.2459999999996,0.0,0.0,0.0,0.0,0.0,-0.06451515843607217,-0.12824878768216985,-0.4199708881978996,-0.29994542554480874,-0.0006350661322861474,-0.02686270200589227,-0.5616573987062694
6474,6.0,299.64415,2935.2682,0.0,0.0,0.0,0.0,0.0,-0.06452512524565601,-0.13361833433460288,-0.4277427191149196,-0.3308871857035227,-0.009980355215334372,-0.011731617374070488,-0.5773635959888505
6475,6.0,298.67576,2755.4638,0.0,0.0,0.0,0.0,0.0,-0.06453509205523983,-0.13675991626965286,-0.40456715620266964,-0.2962650985315887,0.032673812919404265,0.02182863030256808,-0.5819991240038415
6476,6.0,298.97697999999997,3011.3409,0.0,0.0,0.0,0.0,0.0,-0.06454505886482365,-0.18335501245323083,-0.4318875503714826,-0.3001298674605117,0.013378890485643686,0.021048586805833783,-0.5672736312280484
6477,6.0,300.33259,3272.6992,0.0,0.0,0.0,0.0,0.0,-0.06455502567440746,-0.23147348963215475,-0.4088378331216526,-0.3545075147471677,0.010922263591693489,-0.03696956980486246,-0.5414015970171775
6478,6.0,300.90642,3079.8628,0.0,0.0,0.0,0.0,0.0,-0.06456499248399131,-0.20916501549297978,-0.40350815786065464,-0.32352822380474966,-0.016784197103721286,-0.037867802846261164,-0.5155793133862164
6479,6.0,300.76452,3067.0858,0.0,0.0,0.0,0.0,0.0,-0.0645749592935751,-0.18212205933404782,-0.4249159539859396,-0.32527947461508466,0.007850433185577432,0.026692330081077877,-0.5553079176171244
6480,6.0,300.49239,3223.6751,0.0,0.0,0.0,0.0,0.0,-0.06458492610315891,-0.1952474579494238,-0.41214969173600763,-0.37251956528231867,-0.027136680779931876,0.03624611531296307,-0.5269878711646535
6481,6.0,299.06485,3141.2685,0.0,0.0,0.0,0.0,0.0,-0.06459489291274273,-0.1938340348549298,-0.43847884359699263,-0.3225542979411307,-0.030237582749967074,0.0019809600795555383,-0.5793134539512864
6482,6.0,300.54128,2943.5076,0.0,0.0,0.0,0.0,0.0,-0.06460485972232657,-0.16930157807126484,-0.39609915153944264,-0.3293520814045197,-0.027803084224950775,0.014292570524816887,-0.5296976565695884
6483,6.0,299.29156,2827.6433,0.0,0.0,0.0,0.0,0.0,-0.06461482653191039,-0.13919522235499887,-0.4134903634733216,-0.3068473812509787,0.013875874460942187,0.025049326805426077,-0.5766406927050055
6484,6.0,298.4544,2936.5199,0.0,0.0,0.0,0.0,0.0,-0.06462479334149421,-0.14631646564781084,-0.4314198239928215,-0.3148924350574637,0.027552476064467677,0.01926087520390038,-0.5335404987663475
6485,6.0,298.52019,3103.5508,0.0,0.0,0.0,0.0,0.0,-0.06463476015107805,-0.15873629768855285,-0.43951484116173756,-0.3451508086862327,-0.004774398804796475,-0.036193381724758666,-0.5875552707946905
6486,6.0,299.22312,3138.0735,0.0,0.0,0.0,0.0,0.0,-0.06464472696066184,-0.15765406552174485,-0.4606923356717936,-0.33554958511116567,0.011029107774988188,-0.002788352615038977,-0.5695992225925665
6487,6.0,300.08848,2973.2983,0.0,0.0,0.0,0.0,0.0,-0.06465469377024566,-0.16486100950801486,-0.42416782077460463,-0.3147796197913297,0.01921494255036718,0.02003928534147348,-0.5840257660588554
6488,6.0,301.40043,2963.949,0.0,0.0,0.0,0.0,0.0,-0.0646646605798295,-0.15215666697169386,-0.4245032166902056,-0.3243066126640707,0.01348781892439409,0.013798429729298987,-0.5600445477270934
6489,6.0,300.40092999999996,3072.5172,0.0,0.0,0.0,0.0,0.0,-0.06467462738941332,-0.1926101604566428,-0.4228865153606496,-0.31847185249322474,-0.0032985425828658066,-0.05976789666513215,-0.5505032984254455
6490,6.0,300.54693,3248.3632,0.0,0.0,0.0,0.0,0.0,-0.06468459419899714,-0.21414652788711677,-0.4140104546171506,-0.35926430853412666,-0.009369484563246131,-0.030012073807711075,-0.5291932708023095
6491,6.0,300.47553,2921.7090000000003,0.0,0.0,0.0,0.0,0.0,-0.06469456100858095,-0.15801301950217087,-0.40027828131189064,-0.32983530037720965,0.03252873880983657,0.0011614124945474888,-0.5446594494012025
6492,6.0,300.15188,2945.6198,0.0,0.0,0.0,0.0,0.0,-0.06470452781816477,-0.1386371343324199,-0.43277008107608156,-0.3239876617975927,0.006825264224651133,0.03585921082852857,-0.5724998637863374
6493,6.0,298.77476,3183.5882,0.0,0.0,0.0,0.0,0.0,-0.06471449462774859,-0.1929223630774548,-0.43037490982719656,-0.3444340254329917,-0.004491939127419876,-0.007259318478638953,-0.5602203364869425
6494,6.0,299.77926,3220.0640000000003,0.0,0.0,0.0,0.0,0.0,-0.0647244614373324,-0.19409375112056182,-0.44638827387759256,-0.3383370361362657,-0.01161798137535549,0.02854846544901417,-0.5732961567749254
6495,6.0,299.99125,3043.5992,0.0,0.0,0.0,0.0,0.0,-0.06473442824691625,-0.18157955509800683,-0.4056157484661576,-0.33798286469631167,0.00968317220340469,0.016197782661346683,-0.5435073029774945
6496,6.0,299.58086000000003,2882.6515,0.0,0.0,0.0,0.0,0.0,-0.06474439505650006,-0.17933960363194082,-0.3952059918412946,-0.30170847058630773,0.01061444935706459,0.002065080102857538,-0.5484564724284395
6497,6.0,299.87577000000005,2826.5040000000004,0.0,0.0,0.0,0.0,0.0,-0.06475436186608388,-0.14338811206380486,-0.4146528146505466,-0.30114573174576975,-0.008872060229454172,-0.06432908758653665,-0.5606493972417874
6498,6.0,300.51489,2923.1756,0.0,0.0,0.0,0.0,0.0,-0.06476432867566767,-0.16885461318715284,-0.3983384747904466,-0.32137929259516673,-0.011326358877324591,-0.020968165145396782,-0.5540932941922504
6499,6.0,300.35901,3169.1668,0.0,0.0,0.0,0.0,0.0,-0.06477429548525152,-0.17583751744381185,-0.4653737132538095,-0.3221363525398827,-0.014977975448961086,-0.004073388207912116,-0.5841408003427084
6500,6.0,300.80325,3179.1104,0.0,0.0,0.0,0.0,0.0,-0.06478426229483533,-0.2314830749781008,-0.42758819847466967,-0.3072989158930417,-0.014326335057899185,0.01849069671013968,-0.5714433073770635
6501,6.0,300.75837,2889.8078,0.0,0.0,0.0,0.0,0.0,-0.06479422910441915,-0.14307072160248085,-0.4201899427370186,-0.31516873822723274,-0.003805228833171846,-0.008404882931022362,-0.5858345188123655
6502,6.0,299.94764,2731.5154,0.0,0.0,0.0,0.0,0.0,-0.06480419591400297,-0.15594076092765485,-0.41766134671496563,-0.25671037815034176,-0.001075515939845159,0.005445504743529474,-0.5864897065920275
6503,6.0,299.55017000000004,3095.8129,0.0,0.0,0.0,0.0,0.0,-0.06481416272358681,-0.14849153870997386,-0.4268901096857736,-0.3656681707561386,0.014024660105626188,0.02185570535849018,-0.5421605314745785
6504,6.0,300.26132,3067.43,0.0,0.0,0.0,0.0,0.0,-0.06482412953317063,-0.16183921399978685,-0.4372767236783526,-0.33330618859475963,-0.012143235028443987,0.003271199623617267,-0.5686733247836875
6505,6.0,300.45612,3024.9218,0.0,0.0,0.0,0.0,0.0,-0.06483409634275447,-0.13838702367773587,-0.43839504781372257,-0.3427186335436957,-0.004968439846646836,-0.011876382442357688,-0.5429690847893766
6506,6.0,300.41537999999997,3089.5458,0.0,0.0,0.0,0.0,0.0,-0.06484406315233826,-0.19040647321165582,-0.4239642993595186,-0.3247740148026997,-0.026600406005505676,0.026066452587058572,-0.5432235422869895
6507,6.0,299.86508,3178.348,0.0,0.0,0.0,0.0,0.0,-0.06485402996192208,-0.1997262463064458,-0.44462762010632956,-0.3217845622376637,0.019050521443390082,0.03217230478240927,-0.5234196906725015
6508,6.0,299.54781,3361.2289,0.0,0.0,0.0,0.0,0.0,-0.0648639967715059,-0.24213562659192575,-0.4386251265139296,-0.3409689127410117,-0.017304527374573882,0.02126130650532758,-0.5377943354686685
6509,6.0,299.1386,3302.4753,0.0,0.0,0.0,0.0,0.0,-0.06487396358108974,-0.22142568620801378,-0.4445506840262366,-0.33789366829000866,-0.014272513239087384,-0.013629555388132387,-0.5468268116301045
6510,6.0,299.96809,2944.5361,0.0,0.0,0.0,0.0,0.0,-0.06488393039067356,-0.16157957879416285,-0.43448022432985955,-0.2990056563420607,-0.012439247939158187,0.008340631830256273,-0.5875868538003075
6511,6.0,300.05617,2758.3818,0.0,0.0,0.0,0.0,0.0,-0.06489389720025737,-0.14985164458420586,-0.3832192026282906,-0.3054083431939567,0.0032280637430100872,0.009334837590651741,-0.5720263517496055
6512,6.0,299.78575,3162.7015,0.0,0.0,0.0,0.0,0.0,-0.06490386400984116,-0.2008763054349478,-0.4459244079818126,-0.3145815901917857,0.01124611656215529,-0.0033591541905977065,-0.5669440108380175
6513,6.0,299.73929,3251.3969,0.0,0.0,0.0,0.0,0.0,-0.064913830819425,-0.22205493478511576,-0.4034900105513636,-0.3627985147504257,-0.002125094095680458,-0.03688593208860807,-0.5286312108393385
6514,6.0,300.46616,2942.7222,0.0,0.0,0.0,0.0,0.0,-0.06492379762900882,-0.16793737866662883,-0.39988954791102566,-0.3266871323165097,0.013038366511286589,0.002774332070755257,-0.5376433004087625
6515,6.0,300.51179,2925.4354,0.0,0.0,0.0,0.0,0.0,-0.06493376443859267,-0.14224335223332585,-0.4288149505032406,-0.3182010006089937,0.022162292547247976,-0.0007573661894262233,-0.5546201133167434
6516,6.0,301.04961000000003,3356.9029,0.0,0.0,0.0,0.0,0.0,-0.06494373124817646,-0.21695266324406082,-0.42535408332917957,-0.37810790302884467,-0.015329559048159684,0.00043702262081827463,-0.5280888383258106
6517,6.0,300.99984,3452.6141,0.0,0.0,0.0,0.0,0.0,-0.0649536980577603,-0.2154138504496918,-0.4847638953824715,-0.34933073892625965,-0.03803722130273146,-0.028618698879695672,-0.5674216873326604
6518,6.0,300.49107999999995,3109.6706,0.0,0.0,0.0,0.0,0.0,-0.06496366486734409,-0.19484082041929182,-0.4399316517228736,-0.31048975191545275,-0.03440393138565367,0.01847537231562728,-0.5611202039007525
6519,6.0,299.33229,2753.8466,0.0,0.0,0.0,0.0,0.0,-0.06497363167692793,-0.14021265717791184,-0.3959486231045866,-0.3009393327003997,-0.023609955389121178,0.05115957915455736,-0.5679903739512855
6520,6.0,299.60831,2707.2394,0.0,0.0,0.0,0.0,0.0,-0.06498359848651175,-0.10976080344254789,-0.44180034835229953,-0.27137201590483273,-0.0008776913005313873,0.016999496537969682,-0.5726953298631284
6521,6.0,300.64423,2918.281,0.0,0.0,0.0,0.0,0.0,-0.06499356529609557,-0.14528807759131684,-0.40828592592468366,-0.3335105408749277,0.004773076310765956,-0.0065348280398373135,-0.5892846252703644
6522,6.0,299.04147,3148.3594,0.0,0.0,0.0,0.0,0.0,-0.06500353210567938,-0.18670195991854882,-0.43148165251392356,-0.33883903063330867,0.012425480910049488,-0.02998465931300547,-0.5722059199323274
6523,6.0,299.15209,3054.9547,0.0,0.0,0.0,0.0,0.0,-0.06501349891526323,-0.17012967698049183,-0.4390449666928646,-0.3194552927752827,0.03043262123521587,-0.03313396322706757,-0.5810374483339314
6524,6.0,300.62711,2976.6846,0.0,0.0,0.0,0.0,0.0,-0.06502346572484705,-0.18129391989481683,-0.39797218487929664,-0.3255717060764257,0.02831764910273437,-0.02998666048195297,-0.5332781784479586
6525,6.0,299.64097000000004,3218.2594,0.0,0.0,0.0,0.0,0.0,-0.06503343253443089,-0.1991643889934948,-0.4415364473637546,-0.33756965117303067,0.018810952642746483,-0.033921478430039266,-0.5375944110914375
6526,6.0,300.63646,3540.1864,0.0,0.0,0.0,0.0,0.0,-0.06504339934401465,-0.24857492216993476,-0.4502480880135266,-0.37730526709463064,-0.004603290855109436,0.012111640877075888,-0.5202524127149155
6527,6.0,301.35265,3348.9382,0.0,0.0,0.0,0.0,0.0,-0.0650533661535985,-0.1973932278186948,-0.4343104948056086,-0.3862898671888416,-0.01934575111177698,0.04848016997437025,-0.5463814071511465
6528,6.0,300.23805,3010.5088,0.0,0.0,0.0,0.0,0.0,-0.06506333296318231,-0.17587588922509884,-0.43869244685057357,-0.30055115658708975,-0.005031987954493545,0.01956845841750648,-0.5546675638189265
6529,6.0,300.4583,2883.837,0.0,0.0,0.0,0.0,0.0,-0.06507329977276616,-0.17366427836432982,-0.3909001146138376,-0.3120500456119417,-0.015236488986724384,-0.011146195916793888,-0.5468129706337385
6530,6.0,300.84618,2937.6373,0.0,0.0,0.0,0.0,0.0,-0.06508326658234997,-0.1959914773653528,-0.41566670309810955,-0.28131019580065475,0.008785434033354831,-0.014275715109403385,-0.5663694271038104
6531,6.0,300.34623,3029.4297,0.0,0.0,0.0,0.0,0.0,-0.06509323339193379,-0.15896936547655485,-0.4315362565618126,-0.3303653720345237,0.01001548145522606,-0.012249812726962387,-0.5543772879302785
6532,6.0,300.22182000000004,2951.6381,0.0,0.0,0.0,0.0,0.0,-0.06510320020151758,-0.16953984383227982,-0.39546167537152865,-0.3322227709253347,0.006083181230988244,-0.0028376606073052973,-0.5561754420877425
6533,6.0,299.31432,2880.1766,0.0,0.0,0.0,0.0,0.0,-0.06511316701110142,-0.1140976151955579,-0.4612526021820876,-0.3001515510126517,0.005166542298873025,0.0025796618005927974,-0.5690821205365324
6534,6.0,298.84904,3030.6156,0.0,0.0,0.0,0.0,0.0,-0.06512313382068524,-0.19903055892028682,-0.40393720848299863,-0.3182637106576827,0.0053111612564958055,0.0019617507828347284,-0.5692237627680115
6535,6.0,299.95772999999997,3453.2281,0.0,0.0,0.0,0.0,0.0,-0.06513310063026909,-0.2111470846760948,-0.4783155413485685,-0.36023249940217966,-0.014479682354533384,0.01029104322989689,-0.5680595991981175
6536,6.0,300.08665,3214.9991,0.0,0.0,0.0,0.0,0.0,-0.06514306743985288,-0.2006505431801668,-0.4723053977179136,-0.3043234968418907,-0.0029726320054259373,-0.029884597825880172,-0.5727513017986525
6537,6.0,300.63962000000004,2835.0953,0.0,0.0,0.0,0.0,0.0,-0.06515303424943672,-0.11366067135493489,-0.4081698682582296,-0.3399676291246927,-0.006899493812402024,-0.026047104576399076,-0.5417976258187625
6538,6.0,299.97507,2924.4406,0.0,0.0,0.0,0.0,0.0,-0.06516300105902051,-0.15288269106584687,-0.4427427520053076,-0.2933314659145617,0.02913500857415147,-0.015886782768403385,-0.5606917814934704
6539,6.0,299.8243,3122.5481,0.0,0.0,0.0,0.0,0.0,-0.06517296786860435,-0.15929838804902685,-0.4360073138205716,-0.35387094037184263,8.765533700065821e-05,0.027055450545915072,-0.5428963334321965
6540,6.0,300.7603,3155.4759,0.0,0.0,0.0,0.0,0.0,-0.06518293467818817,-0.1974276580570928,-0.4303173268240136,-0.33144088635316865,0.004564029541559646,0.019650222634325983,-0.5541067298885765
6541,6.0,301.44956,3168.7133,0.0,0.0,0.0,0.0,0.0,-0.06519290148777199,-0.17630940828038383,-0.45993552903960255,-0.3269647831089117,-0.014019320277599185,0.004228699284565126,-0.5659640764013055
6542,6.0,301.11728,3085.4169,0.0,0.0,0.0,0.0,0.0,-0.0652028682973558,-0.2130159940880418,-0.39300242618631964,-0.3318712845981457,0.005048075832956295,-0.01031631064764059,-0.5403776976586264
6543,6.0,300.56971,3089.9099,0.0,0.0,0.0,0.0,0.0,-0.06521283510693965,-0.14799660656612787,-0.45371649376833156,-0.3375423542153367,-0.008338437941139752,-0.007013907987193822,-0.5675390419592424
6544,6.0,300.20351,3293.962,0.0,0.0,0.0,0.0,0.0,-0.06522280191652347,-0.2146473267490418,-0.43913141719139653,-0.3475034538284206,-0.014757512492203088,-0.019464721872268484,-0.5318432035238374
6545,6.0,299.56948,3396.5769,0.0,0.0,0.0,0.0,0.0,-0.06523276872610731,-0.1989751544048188,-0.4494826484904835,-0.38401676217950365,-0.024003659794976775,-0.014374357033138588,-0.5266819912244656
6546,6.0,299.92901,3017.5336,0.0,0.0,0.0,0.0,0.0,-0.06524273553569107,-0.2008558175179258,-0.4245735362471456,-0.2918255128209357,0.005808034382233364,0.008894998691843022,-0.5759892235532105
6547,6.0,299.83287,2821.4773,0.0,0.0,0.0,0.0,0.0,-0.06525270234527492,-0.17025672841053086,-0.3820710889399806,-0.30533080929630474,0.014543686323600086,0.01818427670764838,-0.5639614078436574
6548,6.0,299.68219,3059.1867,0.0,0.0,0.0,0.0,0.0,-0.06526266915485873,-0.2062256174828838,-0.42045376266555556,-0.3032369786271597,0.014252999055411485,-0.0063606620000234634,-0.5666408768056004
6549,6.0,298.42523,3053.2896,0.0,0.0,0.0,0.0,0.0,-0.06527263596444258,-0.14247640988882687,-0.4503081838769576,-0.3353392039929027,-0.0077105362773956816,-0.03530077931416566,-0.5699374252109445
6550,6.0,299.6671,3001.9891,0.0,0.0,0.0,0.0,0.0,-0.0652826027740264,-0.16653414886814086,-0.3971353821517106,-0.34886020584482164,0.003474651732396426,-0.016326160435766585,-0.5542845856786295
6551,6.0,300.6073,2917.8452,0.0,0.0,0.0,0.0,0.0,-0.06529256958361021,-0.1328722073584659,-0.46403866505455055,-0.2900412097923387,0.0014257962967651387,0.02077958815603568,-0.5989405035558254
6552,6.0,300.77771,2835.9937,0.0,0.0,0.0,0.0,0.0,-0.065302536393194,-0.16324391301091987,-0.40546415611869663,-0.2933632110401947,-0.029779046549713074,-0.011175172843153688,-0.5734406766366884
6553,6.0,300.29327,3043.0133,0.0,0.0,0.0,0.0,0.0,-0.06531250320277784,-0.17983571114590283,-0.4276787019736016,-0.3174856460383937,-0.055035935611623954,0.013749494815719486,-0.6104543886821574
6554,6.0,300.65929,3472.865,0.0,0.0,0.0,0.0,0.0,-0.06532247001236166,-0.2311701022872128,-0.4855853372385415,-0.33890880303519466,-0.02062396712617708,0.013622250868161486,-0.5850498275374224
6555,6.0,299.96775,3172.6868,0.0,0.0,0.0,0.0,0.0,-0.0653324368219455,-0.18233568285263083,-0.41896726397384965,-0.3631146183841226,0.00943108307657543,0.03330958378739997,-0.5749463561527874
6556,6.0,300.08467,2878.3862,0.0,0.0,0.0,0.0,0.0,-0.0653424036315293,-0.13498229055921487,-0.44258269901951164,-0.2973925419178587,0.015909166476362483,-0.015273304415857785,-0.5515628743200175
6557,6.0,300.11467000000005,3168.6519,0.0,0.0,0.0,0.0,0.0,-0.06535237044111314,-0.18760903154056982,-0.42533645277743964,-0.35024556191154566,0.002291246745753448,-0.026183855849645374,-0.5477367304849065
6558,6.0,299.51367,3452.2938,0.0,0.0,0.0,0.0,0.0,-0.06536233725069693,-0.24390717280176374,-0.43589926082990754,-0.3696046777921416,0.004717276830408975,-0.003970986214380827,-0.5303523681217035
6559,6.0,299.80722000000003,3145.2051,0.0,0.0,0.0,0.0,0.0,-0.06537230406028077,-0.2249704302253528,-0.42007716800088857,-0.31101619613740866,-0.005915782789917305,0.032462641466063265,-0.5562794420780065
6560,6.0,300.49024,3098.1803,0.0,0.0,0.0,0.0,0.0,-0.06538227086986459,-0.18805122401671082,-0.3996325268906596,-0.35408570886303864,-0.010545675006527089,0.012444157135892687,-0.5451870284632705
6561,6.0,299.48176,3069.2008,0.0,0.0,0.0,0.0,0.0,-0.0653922376794484,-0.16032658358800184,-0.4221385847993346,-0.35049524700118767,-0.039130320576861964,-0.027091076419431075,-0.5451353324431685
6562,6.0,298.42012,3151.7573,0.0,0.0,0.0,0.0,0.0,-0.06540220448903222,-0.1854365523986628,-0.42135049913655664,-0.3512684581524977,0.008202242232923283,-0.007434581969636113,-0.5481166486099015
6563,6.0,298.94611000000003,3380.0243,0.0,0.0,0.0,0.0,0.0,-0.06541217129861607,-0.20391222564956982,-0.4403962775562286,-0.3831344847874296,-0.006134453813873454,-0.003895687546449426,-0.5433751852969555
6564,6.0,299.45749,3186.9074,0.0,0.0,0.0,0.0,0.0,-0.06542213810819988,-0.2149429525982178,-0.44933070150548754,-0.3044666184185157,0.015087521970272487,-0.005788225140128345,-0.5649103368273094
6565,6.0,299.93854,2752.2765,0.0,0.0,0.0,0.0,0.0,-0.06543210491778373,-0.15472176026234885,-0.3837492641531036,-0.2981523072403417,-0.026578752850868675,-0.013910733304132488,-0.5546729847069615
6566,6.0,300.15639,2848.0308,0.0,0.0,0.0,0.0,0.0,-0.06544207172736749,-0.14263778009975286,-0.4339564753531696,-0.28913598228549975,0.01619620908394138,0.032719661473179174,-0.5822618192247675
6567,6.0,300.35238,3296.2759,0.0,0.0,0.0,0.0,0.0,-0.06545203853695133,-0.17645091878934982,-0.44867466259574157,-0.3768599943381856,-0.008814548153778171,0.04177708283882706,-0.5514809530494325
6568,6.0,299.92605,3150.5304,0.0,0.0,0.0,0.0,0.0,-0.06546200534653515,-0.18677916957616883,-0.4158063390943906,-0.35509707431785265,0.013277588780395987,-0.006248063873385894,-0.5715453011321295
6569,6.0,300.64005,2730.8304,0.0,0.0,0.0,0.0,0.0,-0.065471972156119,-0.1014710497369129,-0.42561270528470363,-0.3030204977432947,-0.012046708770917588,-0.033355091889141264,-0.5776657978311754
6570,6.0,300.2113,2735.5572,0.0,0.0,0.0,0.0,0.0,-0.06548193896570281,-0.16687395242167682,-0.3948991189160086,-0.26976800046652877,0.004359472888846476,-0.010250500053645589,-0.6023676902965623
6571,6.0,299.59042,3129.3146,0.0,0.0,0.0,0.0,0.0,-0.06549190577528663,-0.18049308754578083,-0.44055913724480156,-0.3301812644913537,-0.0004320274903427936,0.010879263283949689,-0.5873476558492005
6572,6.0,299.32148,3189.6747,0.0,0.0,0.0,0.0,0.0,-0.06550187258487042,-0.19792285364596482,-0.4268779912145776,-0.3447806076296967,-0.003408318909299887,-0.00900101555643107,-0.5922123810368114
6573,6.0,299.25012999999996,3004.2707,0.0,0.0,0.0,0.0,0.0,-0.06551183939445426,-0.15004359468314987,-0.4008456101753816,-0.36233407130208867,-0.0065048291494266535,-0.02375769231995168,-0.5420466928258435
6574,6.0,299.06375,2789.9518,0.0,0.0,0.0,0.0,0.0,-0.06552180620403808,-0.15195054150385084,-0.40256823667039165,-0.2935569039293107,0.013772657713005485,-0.033173388788458574,-0.5475669806956536
6575,6.0,299.92615,2961.2161,0.0,0.0,0.0,0.0,0.0,-0.06553177301362192,-0.17672746513914284,-0.3950593036243176,-0.32834900433552366,0.01996139680628648,-0.022073012041186682,-0.5319299275998965
6576,6.0,298.62626,3345.2579,0.0,0.0,0.0,0.0,0.0,-0.06554173982320571,-0.2717832434579177,-0.43135513810643755,-0.3137364990783817,0.01110603372258019,-0.04322641956986546,-0.5564233235922065
6577,6.0,299.79258,3453.9726,0.0,0.0,0.0,0.0,0.0,-0.06555170663278956,-0.22718720866163178,-0.4588641994438706,-0.36387002673117563,0.002708524820485588,-0.030515332840878873,-0.5374000291922535
6578,6.0,299.39204,3095.995,0.0,0.0,0.0,0.0,0.0,-0.06556167344237335,-0.17754494518732183,-0.4281843644360066,-0.3353758532490197,0.006683629187247843,0.041718057980751753,-0.5766717792180734
6579,6.0,299.90687,3043.0569,0.0,0.0,0.0,0.0,0.0,-0.06557164025195719,-0.14675856693144285,-0.4422268962468966,-0.3360278391583657,0.018007101821662583,0.04785712654088066,-0.5704980868887775
6580,6.0,300.21805,3177.1377,0.0,0.0,0.0,0.0,0.0,-0.06558160706154101,-0.2048970135542608,-0.43275453781954765,-0.32811898643032267,0.011835734901346089,0.002867790814928917,-0.5663292821348485
6581,6.0,299.98886,3239.8847,0.0,0.0,0.0,0.0,0.0,-0.06559157387112483,-0.2102673201442688,-0.4313677632026836,-0.3432089655320877,-0.013072191839374886,-0.024153850817549477,-0.5712298257134945
6582,6.0,299.5865,3022.3919,0.0,0.0,0.0,0.0,0.0,-0.06560154068070864,-0.18281017774195985,-0.44628699953009754,-0.2896345114672007,-0.022624229214837577,-0.008716689877670311,-0.5887258482377175
6583,6.0,300.05275,2780.4476,0.0,0.0,0.0,0.0,0.0,-0.06561150749029249,-0.12622819473025287,-0.4075513398671856,-0.3114071080259887,-0.019940776153501382,-0.01960238000435428,-0.5959207548127994
6584,6.0,299.41247999999996,2968.5898,0.0,0.0,0.0,0.0,0.0,-0.0656214742998763,-0.13060491840470187,-0.4466050283389846,-0.3251672267690067,-0.038282830087221165,-0.005144357086608516,-0.5691332187390754
6585,6.0,300.54755,3177.8562,0.0,0.0,0.0,0.0,0.0,-0.06563144110946009,-0.16469612331924183,-0.44624733078868256,-0.3550454897552616,-0.0025326101136491576,-0.003883175630239596,-0.5881389129847914
6586,6.0,300.68731,3300.188,0.0,0.0,0.0,0.0,0.0,-0.06564140791904391,-0.1872297112331338,-0.45603309760446253,-0.3599119476005437,0.00027470655105642575,0.03110879443769897,-0.5527513862898145
6587,6.0,300.70312,2988.6279999999997,0.0,0.0,0.0,0.0,0.0,-0.06565137472862775,-0.17124915622097583,-0.4489927724646366,-0.28822635727322676,0.04215318607719556,0.016787585412055682,-0.5956534797014215
6588,6.0,301.67456,3016.6852,0.0,0.0,0.0,0.0,0.0,-0.06566134153821157,-0.1980336018818948,-0.42922733316143963,-0.28973603912722073,0.015201855085056285,-0.026925759599365575,-0.5592174012729604
6589,6.0,300.8928,3342.5453,0.0,0.0,0.0,0.0,0.0,-0.06567130834779542,-0.1991650678710618,-0.4647640811986436,-0.3521211689066536,0.029550776500934572,-0.028792709385619175,-0.5874689824161745
6590,6.0,300.67647999999997,3378.6662,0.0,0.0,0.0,0.0,0.0,-0.06568127515737923,-0.2142074951456338,-0.4426139273875936,-0.37020873697175766,-0.00920801697898552,-0.00883110111403682,-0.5549429854611084
6591,6.0,300.9181,3047.5925,0.0,0.0,0.0,0.0,0.0,-0.06569124196696305,-0.15933810745294685,-0.4006796499415026,-0.36637426422082464,0.006724647172496004,0.0021454136105358377,-0.5586821012451305
6592,6.0,298.828,2833.012,0.0,0.0,0.0,0.0,0.0,-0.06570120877654684,-0.13584329983168986,-0.4098149203255836,-0.3155066875330857,-0.038102679285691665,-0.0002161557825704148,-0.5282550620047155
6593,6.0,300.07999,3050.7687,0.0,0.0,0.0,0.0,0.0,-0.06571117558613068,-0.19430866146677184,-0.40565149592968563,-0.32739734970910267,-0.014575976577786887,0.011961188435977387,-0.5402959486405585
6594,6.0,299.97643,3374.2164,0.0,0.0,0.0,0.0,0.0,-0.0657211423957145,-0.22982934948989076,-0.42572146755043766,-0.37012672450866363,-0.02412233873943948,0.035080165383142764,-0.5504375587589575
6595,6.0,298.90983,3247.1991,0.0,0.0,0.0,0.0,0.0,-0.06573110920529832,-0.16819113702167285,-0.4700396286392996,-0.34883669844250165,0.014909665166969385,-0.0023894931979746175,-0.5731659338720735
6596,6.0,300.23561,3109.9028,0.0,0.0,0.0,0.0,0.0,-0.06574107601488213,-0.16842985874523284,-0.42551107629967366,-0.35139187201467764,0.003288854696009687,-0.009711491935749631,-0.5421017832337804
6597,6.0,300.53145,2983.5531,0.0,0.0,0.0,0.0,0.0,-0.06575104282446598,-0.14617848124919286,-0.4084992657332386,-0.35224789609666063,0.0047103614998014855,-0.01099289522966429,-0.5513762336515975
6598,6.0,300.20906,3264.3214,0.0,0.0,0.0,0.0,0.0,-0.0657610096340498,-0.20782400938313278,-0.4536041952597486,-0.3308440009842607,-0.0038554708393803458,0.026429185990357575,-0.5527185063240694
6599,6.0,301.47753,3402.9598,0.0,0.0,0.0,0.0,0.0,-0.06577097644363358,-0.24066644434442877,-0.4309998318263716,-0.36274853112299266,-0.038445458754771365,-0.004288582973425186,-0.5422976850081145
6600,6.0,301.34875,3067.5273,0.0,0.0,0.0,0.0,0.0,-0.06578094325321743,-0.18494513623266381,-0.44453532315472055,-0.3029712335234327,-0.019093141782346383,-0.015484368464688184,-0.5632392746298885
6601,6.0,300.47725,2782.8223,0.0,0.0,0.0,0.0,0.0,-0.06579091006280124,-0.11436632912207788,-0.4260806647108876,-0.3054614881617017,-0.014426392492024086,-0.02221242005619518,-0.5954509918014375
6602,6.0,301.29713,3093.8745,0.0,0.0,0.0,0.0,0.0,-0.06580087687238506,-0.18440584399943982,-0.4181547893811646,-0.33789995044062865,-0.001171437895011919,0.020627448653520678,-0.5532554579495624
6603,6.0,300.04762,3244.1681,0.0,0.0,0.0,0.0,0.0,-0.06581084368196888,-0.15014965157111684,-0.47368156360623054,-0.36231489047769566,0.01132460494140149,-0.015714736954423783,-0.5789554524259545
6604,6.0,299.86849,3107.3608,0.0,0.0,0.0,0.0,0.0,-0.06582081049155272,-0.19963823540275982,-0.4090741635749766,-0.3358476934230867,0.005954893230527204,0.0005632264468836225,-0.5613905288949315
6605,6.0,299.91396000000003,2970.2154,0.0,0.0,0.0,0.0,0.0,-0.06583077730113651,-0.16131129043268483,-0.4248505689569866,-0.3167094356667877,-0.02005091745262148,0.023469256493485278,-0.5677677527718145
6606,6.0,300.55976,3103.8127,0.0,0.0,0.0,0.0,0.0,-0.06584074411072033,-0.20035091499309582,-0.43182835630064054,-0.3113022974356447,-0.01272663505177109,0.024270649169826578,-0.5788416543072235
6607,6.0,300.0417,3379.0968,0.0,0.0,0.0,0.0,0.0,-0.06585071092030415,-0.18053641412005683,-0.45847343954280556,-0.38815117722503867,-0.026461663695812876,-0.013603747908085386,-0.5623942240464885
6608,6.0,300.34505,3279.4112,0.0,0.0,0.0,0.0,0.0,-0.06586067772988799,-0.2173113031169558,-0.4400140289560036,-0.33953379596187666,-0.01887110626143318,-0.028405599211414372,-0.5607590511676094
6609,6.0,300.74064,3127.3414,0.0,0.0,0.0,0.0,0.0,-0.0658706445394718,-0.17184860511263683,-0.4418066609004226,-0.3369784400046827,0.02848374207237647,-0.030623514514305575,-0.5533971305785446
6610,6.0,300.29206,2842.8009,0.0,0.0,0.0,0.0,0.0,-0.06588061134905565,-0.2161548909103268,-0.36042609096628564,-0.28755951711741473,0.030777853782787672,0.023851479762457776,-0.5595820801164515
6611,6.0,300.57029,2930.5788,0.0,0.0,0.0,0.0,0.0,-0.06589057815863947,-0.18871428474964982,-0.42698430141506966,-0.27512419248264375,0.013782886472764986,-0.004037309816901456,-0.5525028664377875
6612,6.0,299.85731,3366.5253,0.0,0.0,0.0,0.0,0.0,-0.06590054496822326,-0.24073669297386177,-0.4415272875828506,-0.34107562824154364,0.0036961485082314567,-0.003037077751536237,-0.5511348470802745
6613,6.0,299.4142,3292.5905,0.0,0.0,0.0,0.0,0.0,-0.06591051177780707,-0.18156728463929583,-0.4398713329444206,-0.3794266682989966,0.0028053015534367075,0.005892505192719984,-0.5605229436293074
6614,6.0,299.53559,3039.5764,0.0,0.0,0.0,0.0,0.0,-0.06592047858739092,-0.14988147466714985,-0.46412294719786856,-0.30995089537977166,0.0014772748733956787,0.015567027381345985,-0.5885747321178034
6615,6.0,299.19437,3079.9229,0.0,0.0,0.0,0.0,0.0,-0.06593044539697474,-0.16584037652467085,-0.40078026567643266,-0.3695990238565836,-0.03609347627814877,-0.023872054818988377,-0.5622094882882565
6616,6.0,299.65206,3260.672,0.0,0.0,0.0,0.0,0.0,-0.06594041220655855,-0.2220464538817788,-0.45564779912143655,-0.3134686058844427,-0.03794171032180526,-0.008599580153637482,-0.5758292516274225
6617,6.0,300.02133,3069.6952,0.0,0.0,0.0,0.0,0.0,-0.06595037901614237,-0.17963431755602682,-0.4395987078725146,-0.3138776549498127,0.0005784807346216035,0.016772815265347983,-0.5800975474086705
6618,6.0,300.7008,2860.1128,0.0,0.0,0.0,0.0,0.0,-0.06596034582572621,-0.15936896091849187,-0.4073522260900346,-0.3026816770423557,-0.002330629244015198,0.046271544148395856,-0.5843142687598284
6619,6.0,300.38344,2903.9134,0.0,0.0,0.0,0.0,0.0,-0.06597031263531,-0.1251431355956659,-0.46621946297977856,-0.29135458457195873,0.011500574059768289,0.006231273508628813,-0.5946251727049354
6620,6.0,301.05523,3001.0414,0.0,0.0,0.0,0.0,0.0,-0.06598027944489385,-0.15531374150077285,-0.4243811200531556,-0.3325467880423127,-0.016765818773407486,-0.025334359124806576,-0.5694016996180725
6621,6.0,299.77601,3149.9836,0.0,0.0,0.0,0.0,0.0,-0.06599024625447764,-0.15672861354290987,-0.46887038868640457,-0.3319173469476917,0.036708895004635866,-0.02082368784013798,-0.5915568284871134
6622,6.0,300.18915,3336.3975,0.0,0.0,0.0,0.0,0.0,-0.06600021306406148,-0.23066797606765677,-0.46543068830693257,-0.3180828657798347,0.03433037044164376,-0.008217685076372373,-0.5644916517534885
6623,6.0,299.66195,3215.6742,0.0,0.0,0.0,0.0,0.0,-0.0660101798736453,-0.21270300113215182,-0.42792024053243966,-0.33686140961813266,0.01154628683802979,-0.02065112222885708,-0.5619275210504285
6624,6.0,299.79769,3181.1126,0.0,0.0,0.0,0.0,0.0,-0.06602014668322914,-0.18474507000041882,-0.43759978834023655,-0.3446339295452207,-0.021992982508538376,-0.02940451080924927,-0.5383044055690085
6625,6.0,299.49147,3420.0329,0.0,0.0,0.0,0.0,0.0,-0.06603011349281293,-0.1914057809902798,-0.4277963808402156,-0.4204024314154896,0.0034422494127485668,0.004112085647781256,-0.5570194591560405
6626,6.0,299.47879,3351.6446,0.0,0.0,0.0,0.0,0.0,-0.06604008030239675,-0.2038570643141258,-0.4123536083186326,-0.4026055952015786,0.005616665382221714,0.04430894861895276,-0.5151336961247375
6627,6.0,300.4896,2976.6577,0.0,0.0,0.0,0.0,0.0,-0.06605004711198056,-0.17152205487040884,-0.4266441634890006,-0.3066633851653197,0.025156448619248175,0.015616163931695385,-0.5740393757232755
6628,6.0,300.99037999999996,3108.6801,0.0,0.0,0.0,0.0,0.0,-0.06606001392156441,-0.21725623297402077,-0.3987288800539766,-0.3289760237624057,-0.014894298215952787,-0.026069536920362974,-0.5343270746864766
6629,6.0,301.07951,3245.5733,0.0,0.0,0.0,0.0,0.0,-0.06606998073114823,-0.20525955444004082,-0.4597392422302306,-0.3215744445644267,0.014445990775458287,-0.010965774577487689,-0.6026475499741825
6630,6.0,300.40087,3401.594,0.0,0.0,0.0,0.0,0.0,-0.06607994754073207,-0.20357446886123579,-0.5126497540345916,-0.3177754254344927,-0.008131729955814264,0.004401290936373595,-0.5945148702990494
6631,6.0,300.30026000000004,3137.4481,0.0,0.0,0.0,0.0,0.0,-0.06608991435031583,-0.16366164562964686,-0.4196660417728136,-0.37037817265347966,-0.0041449418021489055,-0.003167850950517547,-0.5867145265242154
6632,6.0,300.0332,2933.8758,0.0,0.0,0.0,0.0,0.0,-0.06609988115989968,-0.12477719018954987,-0.4578898885452135,-0.3091579055865097,-0.008688223528035902,-0.015284071211420384,-0.5921336819015444
6633,6.0,300.28366,2841.1056,0.0,0.0,0.0,0.0,0.0,-0.06610984796948349,-0.13321676305497088,-0.3976498193599816,-0.33275856744571364,0.002470690805338198,0.007807438957334232,-0.5616214891227255
6634,6.0,299.53808,3034.1957,0.0,0.0,0.0,0.0,0.0,-0.06611981477906734,-0.1879770642418918,-0.4100438337881756,-0.3242988207708017,0.039476156008243266,0.004407922455628076,-0.5700435834239215
6635,6.0,298.7013,3245.2376,0.0,0.0,0.0,0.0,0.0,-0.06612978158865115,-0.18211996190634083,-0.4738266610205505,-0.33052456375773465,0.012817867077524988,-0.03190952647497507,-0.5585052688376785
6636,6.0,300.08196,3081.0984,0.0,0.0,0.0,0.0,0.0,-0.06613974839823497,-0.18199502816901084,-0.3928684441255966,-0.3617135062783437,0.0005497395611625704,-0.025503085531458577,-0.5606168820460785
6637,6.0,300.12581,3078.7571,0.0,0.0,0.0,0.0,0.0,-0.06614971520781879,-0.13609173862370885,-0.45595935326218456,-0.34381417981681767,-0.04042715303534936,-0.005497820366067625,-0.5819723944662034
6638,6.0,299.50957,3355.3996,0.0,0.0,0.0,0.0,0.0,-0.06615968201740263,-0.18670342913119384,-0.4613948320986246,-0.37185943284216866,0.008329986624705674,0.053337779106528954,-0.5637388981216974
6639,6.0,299.68831,3433.0969,0.0,0.0,0.0,0.0,0.0,-0.06616964882698642,-0.2262220980738828,-0.45012333666121457,-0.36723028830280763,-0.04033300183605736,0.015510971346063685,-0.5547401530560905
6640,6.0,299.64035,3160.6275,0.0,0.0,0.0,0.0,0.0,-0.06617961563657027,-0.2375708436989168,-0.4500282634043316,-0.2731527421605767,0.01046021850634319,-0.012914273771539588,-0.5768254791257424
6641,6.0,300.43512000000004,3109.5041,0.0,0.0,0.0,0.0,0.0,-0.06618958244615405,-0.1926140006745218,-0.4144497593305066,-0.3381478420775937,-0.013571987583700887,-0.02348970692025358,-0.5601363380536525
6642,6.0,300.20873,2926.0734,0.0,0.0,0.0,0.0,0.0,-0.0661995492557379,-0.19151618472117582,-0.4254501394386596,-0.27248694565236775,0.030859365700332268,0.008731997148256022,-0.5818617880852874
6643,6.0,299.7453,3131.7568,0.0,0.0,0.0,0.0,0.0,-0.06620951606532172,-0.15574987474131585,-0.43389172867177955,-0.36233426381960765,-0.008410434224345233,-0.001968803408830768,-0.5466815419632675
6644,6.0,300.02329,3430.7725,0.0,0.0,0.0,0.0,0.0,-0.06621948287490556,-0.2218757111074278,-0.4351027651912996,-0.38589070744444764,0.005391800360404265,-0.020148138799716483,-0.5484473025150345
6645,6.0,299.92307,3289.9585,0.0,0.0,0.0,0.0,0.0,-0.06622944968448935,-0.18391077000057982,-0.4482659985654096,-0.36788846517026463,-0.0009356382732828082,0.00961808355010594,-0.5354409709189094
6646,6.0,299.45242,3063.4015,0.0,0.0,0.0,0.0,0.0,-0.06623941649407317,-0.19351818453375783,-0.4104840098966176,-0.3271953785666697,0.009211460306800352,0.0060179945964048236,-0.5739782767422454
6647,6.0,300.28172,3382.9346,0.0,0.0,0.0,0.0,0.0,-0.06624938330365698,-0.18787052099387683,-0.4646336049832665,-0.37582352054589363,-0.0005789180837622664,0.001944428765750178,-0.5575316165515865
6648,6.0,299.15033999999997,3404.4914,0.0,0.0,0.0,0.0,0.0,-0.06625935011324083,-0.2266535298339618,-0.4836261168451816,-0.3246007287705977,-0.013115302591379588,-0.038790735885347566,-0.5842835571492975
6649,6.0,299.42015,2977.2347,0.0,0.0,0.0,0.0,0.0,-0.06626931692282464,-0.13763104791062686,-0.4156530647517636,-0.35172088445464866,0.0008292660922821912,0.005640500976249105,-0.5622016761299855
6650,6.0,299.35996,2766.4628,0.0,0.0,0.0,0.0,0.0,-0.06627928373240849,-0.13423476529793985,-0.4450895810919216,-0.26161127636652276,0.006722447102553874,0.019377882285698082,-0.5932641143756094
6651,6.0,298.75822,2880.2652,0.0,0.0,0.0,0.0,0.0,-0.06628925054199225,-0.13146221918181086,-0.42917555608132957,-0.31489092531481466,-0.0042872729423708966,0.01791356769168148,-0.5540275950557665
6652,6.0,299.72812000000005,3136.4446,0.0,0.0,0.0,0.0,0.0,-0.0662992173515761,-0.19956461265049383,-0.43880410701159356,-0.31503213184875073,-0.023425673566933976,-0.015284741982986585,-0.5757252009746534
6653,6.0,299.36124,3192.1020000000003,0.0,0.0,0.0,0.0,0.0,-0.06630918416115991,-0.18211116689547283,-0.4622772817432156,-0.3259308424418697,-0.017681342927762685,0.023238282080189878,-0.5910902369485644
6654,6.0,300.1764,3136.1092,0.0,0.0,0.0,0.0,0.0,-0.06631915097074376,-0.21450559332505378,-0.39671854119307165,-0.34207474350264866,0.007191841797504523,0.013275221828162386,-0.5451915475587165
6655,6.0,301.65008,3112.1472,0.0,0.0,0.0,0.0,0.0,-0.06632911778032757,-0.14039670392607587,-0.4389498326409756,-0.36666849178486266,-0.005843008229310014,-0.0002481631373292947,-0.5658943951919284
6656,6.0,301.13465,3278.0736,0.0,0.0,0.0,0.0,0.0,-0.06633908458991139,-0.21316243912499477,-0.41707272946687357,-0.36621736244283964,0.002841136257798317,-0.020872368427942378,-0.5507068198405315
6657,6.0,299.10911,3515.3913,0.0,0.0,0.0,0.0,0.0,-0.0663490513994952,-0.22327608354063377,-0.4477511459245975,-0.3975639362815056,0.021240185306993082,-0.01135170735507629,-0.5653569774713895
6658,6.0,299.44779,3153.1251,0.0,0.0,0.0,0.0,0.0,-0.06635901820907905,-0.2131432177705978,-0.43039395892907656,-0.3149341201665777,0.03778701337603786,-0.020884993524188378,-0.5795946207215354
6659,6.0,299.17712,2628.7677,0.0,0.0,0.0,0.0,0.0,-0.06636898501866284,-0.13149195807224587,-0.38903772040003365,-0.2785500518657497,0.015377144312605987,-0.0004635402068003566,-0.5769164081897165
6660,6.0,300.13824,2969.2075,0.0,0.0,0.0,0.0,0.0,-0.06637895182824669,-0.17575521113818884,-0.44257301234855556,-0.28423670526947875,-0.003267513115778437,-0.02199707299919208,-0.5655294123734075
6661,6.0,299.51321,3351.4248,0.0,0.0,0.0,0.0,0.0,-0.06638891863783047,-0.19017762054406984,-0.4491352962237025,-0.37943654748747163,-0.014439683293585786,0.04282603277960036,-0.5694983839426144
6662,6.0,298.49156,3194.0457,0.0,0.0,0.0,0.0,0.0,-0.06639888544741432,-0.17994468619415782,-0.4387004008638586,-0.35226506055335466,-0.027913794970627074,0.020602496356558083,-0.5561003703878334
6663,6.0,300.43362,3020.3565,0.0,0.0,0.0,0.0,0.0,-0.06640885225699814,-0.15195803955459086,-0.44838329239698554,-0.31777162574661766,-0.01113674533311119,0.0029274545271922676,-0.5677143950215485
6664,6.0,300.78234,3268.2064,0.0,0.0,0.0,0.0,0.0,-0.06641881906658198,-0.2003590412588978,-0.4364124821380586,-0.3566816049567337,-0.018873508677420284,-0.009973271482560261,-0.5444332109188744
6665,6.0,299.93645,3383.9874,0.0,0.0,0.0,0.0,0.0,-0.06642878587616577,-0.22641201154012577,-0.4611989201917896,-0.34103674983520665,0.0015924042001080586,0.028337765156969678,-0.5860933636829114
6666,6.0,300.18383,3358.9266,0.0,0.0,0.0,0.0,0.0,-0.06643875268574959,-0.21063645728819982,-0.4586099952587826,-0.3517833614558146,0.02240045293025258,0.0027896738931693773,-0.5924495727527205
6667,6.0,300.23386,2980.2936,0.0,0.0,0.0,0.0,0.0,-0.0664487194953334,-0.14810652393697585,-0.39548840490916665,-0.36233989749016365,-0.02060061272462218,-0.016565548877892383,-0.5954942677132085
6668,6.0,299.9233,2768.3233,0.0,0.0,0.0,0.0,0.0,-0.06645868630491725,-0.11760975282467889,-0.42484530005646665,-0.29904610528605274,0.020688454415541478,-0.03218853502251107,-0.5703688975010274
6669,6.0,299.68072,2943.4869,0.0,0.0,0.0,0.0,0.0,-0.06646865311450106,-0.13326975603520086,-0.41944924678141765,-0.34202750578298663,-0.02021074651014538,-0.0073895267906895126,-0.5794125802085694
6670,6.0,300.28701,3389.5064,0.0,0.0,0.0,0.0,0.0,-0.06647861992408491,-0.25266784462387476,-0.44108657445185556,-0.33657090068196166,-0.002224974515012888,-0.0015768979272027086,-0.5488824326379784
6671,6.0,300.33813,3280.3196,0.0,0.0,0.0,0.0,0.0,-0.06648858673366867,-0.2058367726245078,-0.47831369723338657,-0.3129847789616927,-0.028574731931356474,-0.014920541393542786,-0.5686804580643915
6672,6.0,300.88254,2911.9292,0.0,0.0,0.0,0.0,0.0,-0.06649855354325251,-0.16837707854752385,-0.41017416814853863,-0.3066025293643137,0.003309273712024887,0.007303246923474352,-0.5464186643573234
6673,6.0,298.97742,3088.7463,0.0,0.0,0.0,0.0,0.0,-0.06650852035283633,-0.1283098258681939,-0.4522758041136466,-0.3583161293555487,0.012293887079812188,0.03895471521528106,-0.5587626242305774
6674,6.0,299.24962999999997,3452.3375,0.0,0.0,0.0,0.0,0.0,-0.06651848716242018,-0.21888518449728578,-0.44426354921289857,-0.38627566142243963,0.02063283711755248,0.01113051992449679,-0.5596732320954474
6675,6.0,299.05688,3376.355,0.0,0.0,0.0,0.0,0.0,-0.06652845397200399,-0.1953636980008958,-0.4374970853101006,-0.3934668291046526,-0.0041406236341977355,-0.026569290108184776,-0.5622928787714865
6676,6.0,299.71452999999997,2945.9145,0.0,0.0,0.0,0.0,0.0,-0.06653842078158781,-0.19889213882412582,-0.4038457423964716,-0.2927465774268377,0.0042149887948120055,-0.03837205689102716,-0.5776154291687045
6677,6.0,300.09792999999996,2874.6472,0.0,0.0,0.0,0.0,0.0,-0.06654838759117163,-0.16939251726773982,-0.38635502930277266,-0.31807341215640167,-0.0025973981356432374,0.01008323262581258,-0.5590801565469155
6678,6.0,299.69741,3091.558,0.0,0.0,0.0,0.0,0.0,-0.06655835440075547,-0.1912822962005928,-0.4142911755573556,-0.33418297417129167,0.01178670575550729,-0.0005883458794502175,-0.5783740900485784
6679,6.0,300.58937000000003,3384.5548,0.0,0.0,0.0,0.0,0.0,-0.06656832121033926,-0.18355363987033382,-0.48076563075287354,-0.36450086611093463,-0.011970763649422388,-0.0025313152813463673,-0.5748982774355424
6680,6.0,300.34492,3345.3920000000003,0.0,0.0,0.0,0.0,0.0,-0.0665782880199231,-0.19657535260297682,-0.44865270546607455,-0.37168758562520865,0.013751065353374486,-0.0042079248204148455,-0.5567537545823175
6681,6.0,299.67509,3106.7094,0.0,0.0,0.0,0.0,0.0,-0.0665882548295069,-0.13310271162371487,-0.4996588643699905,-0.3116004868075737,0.00898325581530332,0.020795409043097082,-0.5764364417498474
6682,6.0,300.20316,3152.1706,0.0,0.0,0.0,0.0,0.0,-0.06659822163909074,-0.2059813836787798,-0.4536796823921986,-0.29852009676163976,0.016795301311567184,0.006501147201213273,-0.5679489928172015
6683,6.0,300.98395,3319.9504,0.0,0.0,0.0,0.0,0.0,-0.06660818844867455,-0.19392071840098482,-0.45051466398233553,-0.3647466299226897,-0.022114390135520377,-0.037007577829363564,-0.5707667197552895
6684,6.0,298.89652,2959.6802,0.0,0.0,0.0,0.0,0.0,-0.0666181552582584,-0.16721978481330785,-0.4254320427918736,-0.3070170702452257,-0.02091937208683128,-0.03499471597570957,-0.5743414863730915
6685,6.0,299.74731,2897.3838,0.0,0.0,0.0,0.0,0.0,-0.06662812206784222,-0.11957259052089589,-0.3947743472986946,-0.36638539983942364,-0.0037788222183407164,0.007917255509797282,-0.5694523925205754
6686,6.0,299.72975,3221.2031,0.0,0.0,0.0,0.0,0.0,-0.066638088877426,-0.1997719033559518,-0.4245147576088446,-0.35487863786129464,-0.0005343971206658895,0.006192711134998004,-0.5642706517741775
6687,6.0,299.76171,3379.8466,0.0,0.0,0.0,0.0,0.0,-0.06664805568700982,-0.2135888147670748,-0.45231543232505755,-0.36148473467076564,-0.014604969716148287,-0.007483178457682213,-0.5943630651690675
6688,6.0,300.47827,3269.4545,0.0,0.0,0.0,0.0,0.0,-0.06665802249659367,-0.2506961713867858,-0.41828970363197965,-0.3248466445698677,-0.004443976224661306,0.007313539517990153,-0.5621307182254826
6689,6.0,299.28452999999996,3107.9118,0.0,0.0,0.0,0.0,0.0,-0.06666798930617748,-0.1910016563203958,-0.45067859771601454,-0.3030473184734417,0.02870419287013327,0.046473170785794854,-0.5964957742445495
6690,6.0,298.98508,3207.2911,0.0,0.0,0.0,0.0,0.0,-0.06667795611576133,-0.2095321565342138,-0.42779036213462157,-0.3376138896723967,-0.00848159599476835,0.01164038534831659,-0.5419048986068495
6691,6.0,298.8231,3170.0251,0.0,0.0,0.0,0.0,0.0,-0.06668792292534509,-0.15750674908970586,-0.45500688803568357,-0.35109484788036366,0.012455496417761789,-0.03204145771749567,-0.5805393447172724
6692,6.0,298.65301,2985.6912,0.0,0.0,0.0,0.0,0.0,-0.06669788973492893,-0.15921859460365184,-0.4169763693823636,-0.3313806081047197,-0.025846147697316177,-0.03310514740747367,-0.5398795433794624
6693,6.0,298.40847,2853.8446,0.0,0.0,0.0,0.0,0.0,-0.06670785654451275,-0.14198848943567285,-0.40364581801924065,-0.32186317018042165,0.01029929209896099,0.02442572811088168,-0.5616862864666204
6694,6.0,299.84016,2917.2369,0.0,0.0,0.0,0.0,0.0,-0.0667178233540966,-0.17755419616073484,-0.4088439835497596,-0.3003689944841117,-0.02014474339863138,0.016522311469625184,-0.5683377059530644
6695,6.0,300.2404,3192.7792,0.0,0.0,0.0,0.0,0.0,-0.06672779016368041,-0.1930086717209728,-0.4392329549839176,-0.33828353653098564,-0.013136080297930189,0.005820566664770204,-0.6110205624405344
6696,6.0,300.81692000000004,3440.4092,0.0,0.0,0.0,0.0,0.0,-0.06673775697326423,-0.23148917474370279,-0.4298819535210456,-0.3844273817825286,-0.016498969227071485,0.02012080536501888,-0.5666990170963384
6697,6.0,299.85663,3217.9101,0.0,0.0,0.0,0.0,0.0,-0.06674772378284805,-0.15219147211262885,-0.47676199589774554,-0.3492108613069287,0.01982067156614798,0.02931094729501527,-0.6157894544336874
6698,6.0,300.51356,3154.2916,0.0,0.0,0.0,0.0,0.0,-0.06675769059243189,-0.17783501842594984,-0.43450581902738555,-0.34648504628541166,0.013836816709337486,-0.001110418454114769,-0.5637218653875165
6699,6.0,299.76259,3206.0294,0.0,0.0,0.0,0.0,0.0,-0.06676765740201568,-0.19585863014474184,-0.44881465322955755,-0.32987959967158165,-0.03142310867171937,-0.04627362739060146,-0.5884368591766965
6700,6.0,300.42746,3211.1226,0.0,0.0,0.0,0.0,0.0,-0.0667776242115995,-0.22426821750854978,-0.4317873804665966,-0.32004551095853273,-0.013357717611554087,-0.014121930088725988,-0.5550181483535265
6701,6.0,300.54613,2944.7459,0.0,0.0,0.0,0.0,0.0,-0.06678759102118331,-0.17469332503338883,-0.41385307661161863,-0.3065828115173677,-0.0036856450563698463,0.02759993365940137,-0.5721423486210535
6702,6.0,300.35182000000003,3056.2719,0.0,0.0,0.0,0.0,0.0,-0.06679755783076716,-0.16918823591507884,-0.43131366577984454,-0.3285284509282337,-0.004849412040174706,0.030242857729987672,-0.5354292982777575
6703,6.0,300.05377000000004,3241.2856,0.0,0.0,0.0,0.0,0.0,-0.06680752464035097,-0.16039992263023983,-0.4485905729699426,-0.37627940203088567,-0.025238353677831577,-0.02278849124154898,-0.5749132532720205
6704,6.0,300.96479,3323.1414,0.0,0.0,0.0,0.0,0.0,-0.06681749144993479,-0.2080475120901908,-0.43578736762136455,-0.36631711691518465,-0.006108870059448534,0.007798583658085283,-0.5275454018996776
6705,6.0,300.4815,3362.1971,0.0,0.0,0.0,0.0,0.0,-0.06682745825951864,-0.2135649628597208,-0.4538091757549786,-0.35464981559121167,0.011522427837925089,0.00996906112441973,-0.5830064465907565
6706,6.0,301.46702,3398.205,0.0,0.0,0.0,0.0,0.0,-0.06683742506910242,-0.24441079863146778,-0.43233931806106857,-0.35621933999611166,0.02896438131031187,-0.00929872282396249,-0.5531385896830284
6707,6.0,300.14243,3119.8727,0.0,0.0,0.0,0.0,0.0,-0.06684739187868624,-0.18069349828305983,-0.43042793320492956,-0.3372419762231917,-0.012910293725146788,-0.042599940205286756,-0.6061173134841213
6708,6.0,299.85017,3200.4434,0.0,0.0,0.0,0.0,0.0,-0.06685735868827006,-0.1866250947659628,-0.4370050814590436,-0.34922470230329467,0.004215574149394776,0.001924517793335118,-0.5861576645342574
6709,6.0,300.00194,3258.1374,0.0,0.0,0.0,0.0,0.0,-0.0668673254978539,-0.16122443463411285,-0.45482477659521053,-0.3743432128122986,-0.005066592573233756,0.007508438580025193,-0.5687957557932705
6710,6.0,299.73817,2939.52,0.0,0.0,0.0,0.0,0.0,-0.06687729230743772,-0.17046456627104284,-0.42161930425558564,-0.3014568096589707,0.002952070121146637,0.016993987497175983,-0.5806651802471914
6711,6.0,299.22626,2878.9724,0.0,0.0,0.0,0.0,0.0,-0.06688725911702151,-0.14348098656797087,-0.4179343872194126,-0.3137203478717877,-0.02305615240121508,-0.01992249306869698,-0.5633778872435684
6712,6.0,300.1117,3058.3858,0.0,0.0,0.0,0.0,0.0,-0.06689722592660535,-0.19875221911781682,-0.42209824731285356,-0.3088224488759027,0.008428983084650862,0.01034698476791789,-0.5766957932454434
6713,6.0,300.22987,3233.7955,0.0,0.0,0.0,0.0,0.0,-0.06690719273618917,-0.1771647940148038,-0.4770915656252716,-0.3287367244862887,0.02270265983882808,0.02211515209959558,-0.5797340135377924
6714,6.0,300.62597,3360.1847,0.0,0.0,0.0,0.0,0.0,-0.06691715954577299,-0.18838110785176782,-0.4721228607123985,-0.36090828655637464,0.017934833784780283,0.002219221787570138,-0.6022158851665804
6715,6.0,301.52187000000004,3472.7107,0.0,0.0,0.0,0.0,0.0,-0.06692712635535683,-0.16992580092787085,-0.5032253426019745,-0.3824662058164756,-0.011986305892706288,-0.04326214575514136,-0.5794685521440934
6716,6.0,300.47475,3226.4163,0.0,0.0,0.0,0.0,0.0,-0.06693709316494065,-0.18935263231264984,-0.43670777361470153,-0.35468958565763664,-0.028336292904574373,-0.00959943377009035,-0.5796955708289985
6717,6.0,300.3564,3068.3113,0.0,0.0,0.0,0.0,0.0,-0.06694705997452446,-0.17774072537164382,-0.4154631918155246,-0.3394860921471687,0.02188175804506138,0.015977258909582685,-0.5432600496880925
6718,6.0,300.4927,3033.5316,0.0,0.0,0.0,0.0,0.0,-0.06695702678410825,-0.19327890552264282,-0.41283518582616063,-0.31600374750214166,0.0046665050970481955,0.0008975160048329332,-0.5754438315543845
6719,6.0,300.57475,3013.9788,0.0,0.0,0.0,0.0,0.0,-0.0669669935936921,-0.17458906159809884,-0.4008459040179106,-0.34073933053335365,-0.007597530520242883,-0.016189409162520284,-0.5601262156851535
6720,6.0,299.5859,3107.8054,0.0,0.0,0.0,0.0,0.0,-0.06697696040327591,-0.1860803917772048,-0.43269734998390363,-0.3259174979380527,-0.01911331255208708,0.015010602102181086,-0.6062378902460215
6721,6.0,299.03571,3477.1838,0.0,0.0,0.0,0.0,0.0,-0.06698692721285973,-0.2226723789985528,-0.4590681666890005,-0.3752364941004587,0.02298177579087468,0.027545296174259073,-0.5588805361447144
6722,6.0,298.98188999999996,3565.4623,0.0,0.0,0.0,0.0,0.0,-0.06699689402244355,-0.24214198980255378,-0.47310214666904654,-0.3685673933997697,-0.005209686285481005,0.014930321283507984,-0.5447049645956944
6723,6.0,301.22375,3375.0316,0.0,0.0,0.0,0.0,0.0,-0.06700686083202739,-0.19207726183154983,-0.4764871720731225,-0.3573608878237736,0.007531964524822023,-0.037032727710095664,-0.5289713994279125
6724,6.0,301.12948,3294.8384,0.0,0.0,0.0,0.0,0.0,-0.06701682764161121,-0.19747910076466982,-0.45348348677533556,-0.3505860038126447,-0.01936658353383298,-0.011729473336858887,-0.5444449240900304
6725,6.0,300.51611,3329.6267,0.0,0.0,0.0,0.0,0.0,-0.06702679445119505,-0.18767472054455284,-0.4569023648652526,-0.3675463007439957,0.016793335606373184,0.01020096833575719,-0.5664989711290954
6726,6.0,300.34446,3201.8089,0.0,0.0,0.0,0.0,0.0,-0.06703676126077882,-0.17448912474073583,-0.45341410954098854,-0.34536671201754066,0.008561458847775202,0.02855152749081637,-0.6179814589050214
6727,6.0,301.11301000000003,2969.4685,0.0,0.0,0.0,0.0,0.0,-0.06704672807036266,-0.15478898940648386,-0.4183420177346426,-0.3295132489654257,-0.008239185635544311,-0.0027478361885903174,-0.5863284478386124
6728,6.0,301.12982,2825.8432,0.0,0.0,0.0,0.0,0.0,-0.06705669487994648,-0.15455131133052685,-0.4179173038227266,-0.2865171563420417,-0.02096485485732008,0.02256008541725708,-0.5999666320645964
6729,6.0,300.26723,2921.4284,0.0,0.0,0.0,0.0,0.0,-0.06706666168953032,-0.17183589895638285,-0.4002799531745556,-0.3159254334019127,0.0054834958467539045,0.02920848237865277,-0.5541124040891364
6730,6.0,298.38445,3045.9704,0.0,0.0,0.0,0.0,0.0,-0.06707662849911414,-0.17050351560488686,-0.43696498715258664,-0.3184304510941387,-0.008359355070904111,0.013762261766979486,-0.5969853766928693
6731,6.0,299.90713999999997,3279.6543,0.0,0.0,0.0,0.0,0.0,-0.06708659530869793,-0.17811758348133683,-0.4785461165413245,-0.3402693040769657,0.022122608607081477,-0.023057670249864878,-0.5828601940713225
6732,6.0,300.64032000000003,3362.5454,0.0,0.0,0.0,0.0,0.0,-0.06709656211828174,-0.17332436335328283,-0.48542288285000856,-0.36338257237306765,0.0012193991765703288,-0.028271548249684572,-0.6057478318351565
6733,6.0,300.06801,3269.6843,0.0,0.0,0.0,0.0,0.0,-0.06710652892786559,-0.20996663817709382,-0.4603338883164176,-0.3236018668220177,0.023437475904098778,0.01118596193021849,-0.5755314675555334
6734,6.0,299.60565,3286.4596,0.0,0.0,0.0,0.0,0.0,-0.0671164957374494,-0.19592204946850084,-0.46074131618162756,-0.34233827972115766,0.004631153206359235,0.01093676826687499,-0.5681413076861814
6735,6.0,298.78978,3062.5934,0.0,0.0,0.0,0.0,0.0,-0.06712646254703325,-0.19239202797511482,-0.4037023269773176,-0.3348575656903687,0.005040630572546506,-0.012039527867458887,-0.5271366466768365
6736,6.0,298.81858,2923.7062,0.0,0.0,0.0,0.0,0.0,-0.06713642935661704,-0.11726840913099087,-0.4417113849935196,-0.3297538857316747,-0.015029553932051486,-0.002331989126974408,-0.5629954157283215
6737,6.0,300.96168,3128.0918,0.0,0.0,0.0,0.0,0.0,-0.06714639616620088,-0.16825522509049784,-0.4034031851502946,-0.37920338850696067,-0.02981980149523527,0.011462623790522888,-0.5531219926463905
6738,6.0,300.61592,3312.4713,0.0,0.0,0.0,0.0,0.0,-0.06715636297578467,-0.1930923560467318,-0.45335053822971455,-0.3604656583826907,-0.01046545092985959,0.016784940829294683,-0.5949893854533804
6739,6.0,300.50903999999997,3258.9233,0.0,0.0,0.0,0.0,0.0,-0.06716632978536852,-0.24255941844625079,-0.4173436826761146,-0.3307282067628327,-0.027203562379282578,-0.014940754719787685,-0.5938718111230844
6740,6.0,300.63501,3215.0570000000002,0.0,0.0,0.0,0.0,0.0,-0.06717629659495233,-0.2079258916806878,-0.43242018555154954,-0.33695097079447167,0.009298591709399551,-0.00928544296550187,-0.5872722396442575
6741,6.0,300.28028,3330.329,0.0,0.0,0.0,0.0,0.0,-0.06718626340453615,-0.2282860277325768,-0.43970032672504356,-0.34435051335974964,-0.004797104219662326,-0.005779589006876025,-0.5535400697701515
6742,6.0,300.03159,3420.1016,0.0,0.0,0.0,0.0,0.0,-0.06719623021411997,-0.20371802613540382,-0.4419820848902356,-0.39392537543740763,0.025980499594325676,0.022327292220032182,-0.5501884917518766
6743,6.0,300.55088,3254.6522,0.0,0.0,0.0,0.0,0.0,-0.06720619702370381,-0.17281823479583183,-0.4381509254671296,-0.37836383987160366,0.0011709836549920888,-0.03132147664693907,-0.5515487597461245
6744,6.0,299.1381,3004.2845,0.0,0.0,0.0,0.0,0.0,-0.06721616383328763,-0.14567686165468685,-0.4503113654822716,-0.3172392438790757,0.010474035184706791,-0.027799915791888074,-0.5913972010663594
6745,6.0,298.60767999999996,3073.7942,0.0,0.0,0.0,0.0,0.0,-0.06722613064287147,-0.18618991398051382,-0.41713574349059257,-0.33103101655521766,-0.02183612430030768,0.015752041783355486,-0.5412513218948465
6746,6.0,299.33036,3174.6327,0.0,0.0,0.0,0.0,0.0,-0.06723609745245523,-0.17848375180247483,-0.4703845693708426,-0.3161407591806637,-0.011978282978414488,0.009018210410628072,-0.6029025850243525
6747,6.0,300.71835,3240.1529,0.0,0.0,0.0,0.0,0.0,-0.06724606426203908,-0.1962865864569778,-0.4438805406750986,-0.34475845798251065,-0.04391436876501076,-0.0048277722604390255,-0.5533310666720245
6748,6.0,300.0627,3174.3015,0.0,0.0,0.0,0.0,0.0,-0.0672560310716229,-0.15040619636393587,-0.44842425809852854,-0.36607794936158067,-0.012047476814493387,-0.0037806083756169967,-0.5972666042581244
6749,6.0,300.17967000000004,3172.764,0.0,0.0,0.0,0.0,0.0,-0.06726599788120674,-0.14563002923506485,-0.48483078002157254,-0.33398023295878265,0.01964087844190378,0.003835807910589767,-0.5940471540528895
6750,6.0,299.97235,3296.5443,0.0,0.0,0.0,0.0,0.0,-0.06727596469079056,-0.20416738228975181,-0.43564157106447565,-0.36225820926710167,0.024979249415259974,0.00897650787361235,-0.6180653965433054
6751,6.0,300.94706,3334.4404,0.0,0.0,0.0,0.0,0.0,-0.06728593150037435,-0.22914157558701279,-0.4572435261739226,-0.32720150872977466,-0.00940366280634426,-0.013168080762588385,-0.5876886145078505
6752,6.0,300.73559,3003.0059,0.0,0.0,0.0,0.0,0.0,-0.06729589830995816,-0.2023992811302538,-0.42382454177322565,-0.28661498563919674,0.005559939183323275,-0.015342343224671384,-0.5945839334258654
6753,6.0,299.75596,2959.9191,0.0,0.0,0.0,0.0,0.0,-0.06730586511954201,-0.18350652374068382,-0.4010578962038326,-0.3151770772755557,-0.004910763928429665,0.025850411453736975,-0.5307893524923305
6754,6.0,298.64124,3239.1798,0.0,0.0,0.0,0.0,0.0,-0.06731583192912582,-0.17739810498282982,-0.4589496974873085,-0.34828198454275566,0.007086189297652433,0.012313975776294788,-0.5413907147111034
6755,6.0,298.69311,3397.9459,0.0,0.0,0.0,0.0,0.0,-0.06732579873870967,-0.17240980381302284,-0.4525957378327216,-0.4078851551126306,-0.005768069062514094,-0.01953643262159578,-0.5317751232496185
6756,6.0,299.16871000000003,3286.49,0.0,0.0,0.0,0.0,0.0,-0.06733576554829346,-0.18451179956239683,-0.45218980957765953,-0.36230928720464267,-0.0014816053016730585,-0.038192105699767366,-0.5655238698953605
6757,6.0,300.01231,3267.6075,0.0,0.0,0.0,0.0,0.0,-0.0673457323578773,-0.19035613494668782,-0.4544459325153215,-0.34846903051121564,0.022134907436795276,-0.003352338867775087,-0.5859802140442445
6758,6.0,300.43506,3327.4735,0.0,0.0,0.0,0.0,0.0,-0.06735569916746109,-0.25594612412991574,-0.40538738215861964,-0.35013536083066965,0.011551887071332489,0.010545686152278189,-0.5620719294546804
6759,6.0,300.52749,3377.1415,0.0,0.0,0.0,0.0,0.0,-0.06736566597704494,-0.21489386063087282,-0.4720347484837025,-0.3396380593971667,0.016474422230148885,0.016607678803800284,-0.5775682015815435
6760,6.0,299.82095,3153.48,0.0,0.0,0.0,0.0,0.0,-0.06737563278662875,-0.18630940656480682,-0.4245423078790636,-0.34772746316052866,-0.027792635589919575,-0.0015072481285788085,-0.5592278985439965
6761,6.0,300.89467,3059.5482,0.0,0.0,0.0,0.0,0.0,-0.06738559959621257,-0.15743365322749184,-0.4210961024339496,-0.35149650022000367,0.008331539835783962,0.024352066855111876,-0.5839477255361534
6762,6.0,301.37377000000004,2984.1352,0.0,0.0,0.0,0.0,0.0,-0.06739556640579639,-0.14758418337792487,-0.4414035393481376,-0.31811486421799273,-0.007156067280198853,-0.00922485577709738,-0.6099564269205124
6763,6.0,300.49867,3051.0685,0.0,0.0,0.0,0.0,0.0,-0.06740553321538023,-0.16029953994283286,-0.4261802975932206,-0.3409688012835007,-0.0052059366521609455,-0.011104829981461388,-0.5893825254950265
6764,6.0,299.76552000000004,3300.6932,0.0,0.0,0.0,0.0,0.0,-0.06741550002496405,-0.19416416187001082,-0.46182900976647456,-0.3473351631193117,-0.005212826448865914,-0.03277940979182587,-0.5847459436999314
6765,6.0,299.25277,3230.1709,0.0,0.0,0.0,0.0,0.0,-0.06742546683454789,-0.1834401457266328,-0.47128754746245954,-0.3271636030435337,0.010109738843128541,0.03080396422461457,-0.5738842572654664
6766,6.0,299.35336,3142.3028,0.0,0.0,0.0,0.0,0.0,-0.06743543364413165,-0.14682191532769487,-0.43351572169217056,-0.3748439508792176,0.02022800823884898,0.014132762745545088,-0.5687294081767225
6767,6.0,299.58178,3318.6556,0.0,0.0,0.0,0.0,0.0,-0.0674454004537155,-0.16369803144073783,-0.4976461038413465,-0.3474442901550817,0.023784450228592477,-0.013566150249874788,-0.5854580558702115
6768,6.0,299.70419,3263.5841,0.0,0.0,0.0,0.0,0.0,-0.06745536726329932,-0.17465111303422282,-0.4427586904293806,-0.37463827124141863,0.009204001975464272,-0.03413001340662007,-0.5721227017016145
6769,6.0,300.58146,3083.9214,0.0,0.0,0.0,0.0,0.0,-0.06746533407288316,-0.2026711462645848,-0.42009908460055156,-0.3146648793500057,0.0007029499170457553,0.0004490026415206105,-0.5997082532890965
6770,6.0,301.09086,3114.9404,0.0,0.0,0.0,0.0,0.0,-0.06747530088246698,-0.2086967419592648,-0.43018555364850863,-0.3079817957979367,0.008178732094828013,0.02036563799993198,-0.5718761982172864
6771,6.0,299.58993,3086.7099,0.0,0.0,0.0,0.0,0.0,-0.0674852676920508,-0.2283377845476848,-0.3968008474986946,-0.3131440922749157,-0.028425527814381173,0.005400131100076444,-0.5887375107463685
6772,6.0,300.02532,3331.4412,0.0,0.0,0.0,0.0,0.0,-0.06749523450163458,-0.2065259144150208,-0.46439634233985055,-0.34175267182586266,0.006261433404480364,-0.009016501463009412,-0.5555509051236055
6773,6.0,300.15177,3399.5977,0.0,0.0,0.0,0.0,0.0,-0.06750520131121843,-0.23969840546389076,-0.44189003111865055,-0.3518043863953897,-0.012427516529500388,0.02094915860002098,-0.5893546509847755
6774,6.0,299.9848,3378.8717,0.0,0.0,0.0,0.0,0.0,-0.06751516812080224,-0.1984219097177178,-0.43156252000440454,-0.39710818651902663,0.03558580048779507,-0.0021260411805489278,-0.5285065709445376
6775,6.0,301.03032,3280.3772,0.0,0.0,0.0,0.0,0.0,-0.06752513493038609,-0.19053983718981782,-0.4759737379824506,-0.3306391927415477,-0.003561296977597647,-0.025441934874673475,-0.5952856800476225
6776,6.0,299.97614,3250.2947,0.0,0.0,0.0,0.0,0.0,-0.06753510173996988,-0.1959184625631468,-0.4234291006566986,-0.36866087585399565,0.005084426686918845,-0.030128490164700473,-0.5204399045134196
6777,6.0,300.45378999999997,3247.2569,0.0,0.0,0.0,0.0,0.0,-0.06754506854955372,-0.20382073929804082,-0.46123631925298053,-0.3220279449116837,-0.006188116755069573,0.007257056195140683,-0.5794501717872794
6778,6.0,301.31641,3149.7027,0.0,0.0,0.0,0.0,0.0,-0.06755503535913751,-0.18291646767744982,-0.4462080774798085,-0.32830642756632167,0.016556715363520585,0.018386656189871682,-0.5489545355150945
6779,6.0,299.43282,2985.6967,0.0,0.0,0.0,0.0,0.0,-0.06756500216872136,-0.16548213181931484,-0.43727646023332656,-0.3048186620332597,-0.03625548382338767,-0.009277190043437371,-0.6026881914356934
6780,6.0,299.73654,3128.8938,0.0,0.0,0.0,0.0,0.0,-0.06757496897830517,-0.14877056752251186,-0.47869908690892155,-0.3236359221578787,-0.008764731307311632,-0.023348973574114276,-0.6002646593165094
6781,6.0,300.37635,3300.9652,0.0,0.0,0.0,0.0,0.0,-0.06758493578788899,-0.19756474066312182,-0.4675748977710495,-0.3382713673972847,-0.004351250870910026,0.0013810275636218087,-0.6015447690953465
6782,6.0,299.62613999999996,3118.0818,0.0,0.0,0.0,0.0,0.0,-0.0675949025974728,-0.17567883234565085,-0.4404972884586976,-0.3316428777606037,0.02318613820354368,0.0070372767769001435,-0.5809471474850194
6783,6.0,299.96197,3184.9664,0.0,0.0,0.0,0.0,0.0,-0.06760486940705665,-0.1845192773481348,-0.4648162838437956,-0.3188146957970607,0.002406383570516568,0.004656624895323096,-0.5992264832640494
6784,6.0,300.82752,3315.9424,0.0,0.0,0.0,0.0,0.0,-0.06761483621664047,-0.18739012898896582,-0.4436059093679946,-0.3769676420288096,0.003026141439231907,0.0035875087444345467,-0.5829994956950705
6785,6.0,300.25088999999997,3255.9709,0.0,0.0,0.0,0.0,0.0,-0.06762480302622431,-0.18330184722048382,-0.4569600795909486,-0.34947193532769466,0.012153519516958988,0.016717454319634284,-0.5808248380654484
6786,6.0,301.81984,3452.429,0.0,0.0,0.0,0.0,0.0,-0.06763476983580807,-0.1896870352431528,-0.4709152084482125,-0.3888499550240026,0.008133659184004664,-0.01177033670014179,-0.5645332254050915
6787,6.0,301.24477,3205.4366,0.0,0.0,0.0,0.0,0.0,-0.06764473664539192,-0.1911810522506008,-0.4454538343703705,-0.33773780002712567,-0.005631552052690915,-0.030089012927554372,-0.5485180273720145
6788,6.0,300.78913,3061.0505,0.0,0.0,0.0,0.0,0.0,-0.06765470345497573,-0.16902338012380885,-0.4464185092605766,-0.3150410180521277,-0.00916775214253669,-0.03566768224162617,-0.5606590737802425
6789,6.0,300.05343999999997,3369.9093,0.0,0.0,0.0,0.0,0.0,-0.06766467026455958,-0.23088358555643576,-0.42449952845984157,-0.3689851766810016,0.027187055521903477,0.0005066333079883146,-0.5402398044525175
6790,6.0,299.71112,3411.6575,0.0,0.0,0.0,0.0,0.0,-0.0676746370741434,-0.24999841697042277,-0.4322570421529486,-0.35480323178885265,0.016106376356575584,0.017953520143124485,-0.5603651704562365
6791,6.0,299.75296000000003,3283.3513,0.0,0.0,0.0,0.0,0.0,-0.06768460388372721,-0.2157628036516308,-0.4288577805849676,-0.35343621554893867,-0.008598277316658902,0.015378897235278985,-0.5641778785950214
6792,6.0,300.09197,3190.7032,0.0,0.0,0.0,0.0,0.0,-0.067694570693311,-0.17898043686899384,-0.42251183573867157,-0.36840182833342966,-0.019711078435331982,0.007849834354768333,-0.5760569187923914
6793,6.0,299.91171,3273.8134,0.0,0.0,0.0,0.0,0.0,-0.06770453750289485,-0.2015282305492878,-0.4301978849022256,-0.36343140089538667,-0.01133441928187009,0.025003503582903677,-0.5505398868865565
6794,6.0,299.79422999999997,3398.3566,0.0,0.0,0.0,0.0,0.0,-0.06771450431247866,-0.2126306044125068,-0.43073920363564955,-0.38964573125503965,-0.012092077044145088,0.014536909706931287,-0.5509853014980155
6795,6.0,299.84155,3334.2670000000003,0.0,0.0,0.0,0.0,0.0,-0.06772447112206251,-0.1993862806328938,-0.47174495895510254,-0.3424026616325117,0.009055595083667652,-0.010025961906310402,-0.5526466567594784
6796,6.0,300.1012,3053.7629,0.0,0.0,0.0,0.0,0.0,-0.0677344379316463,-0.16860675194769084,-0.44663351079929564,-0.3130274063933997,-0.016467636494229183,-0.005823571255291734,-0.5980406766720193
6797,6.0,300.47182000000004,3076.7521,0.0,0.0,0.0,0.0,0.0,-0.06774440474123014,-0.17424911618954883,-0.44766214203581356,-0.3133445638072007,0.02099355719290278,0.016651249571350384,-0.6067490445239684
6798,6.0,300.38504,3211.6264,0.0,0.0,0.0,0.0,0.0,-0.06775437155081393,-0.17291469620535183,-0.4864916590554885,-0.31684787602795067,-0.018287812629366584,-0.0008043793323360592,-0.6171921066796184
6799,6.0,301.2545,3356.4488,0.0,0.0,0.0,0.0,0.0,-0.06776433836039777,-0.2042129177492458,-0.47582374657014753,-0.3402399704865707,-0.0064337070984074535,0.0024185137954137277,-0.5969899971133255
6800,6.0,301.01482000000004,3109.4593,0.0,0.0,0.0,0.0,0.0,-0.06777430516998159,-0.13520818453650887,-0.45245583839141457,-0.3575339813383567,-0.022663041759918078,-0.019480452580070983,-0.5938861587445005
6801,6.0,299.93133,2887.8519,0.0,0.0,0.0,0.0,0.0,-0.06778427197956541,-0.14864259403488186,-0.43773998162407257,-0.29145227201409973,0.00886391795430059,0.016007491252816385,-0.5767269304210164
6802,6.0,299.63662,3237.0191,0.0,0.0,0.0,0.0,0.0,-0.06779423878914922,-0.1933861783107298,-0.4234234568536416,-0.36716334286870067,-0.007362767868798613,0.002037051781241358,-0.5725121747750525
6803,6.0,299.5809,3365.5,0.0,0.0,0.0,0.0,0.0,-0.06780420559873307,-0.24055477405090778,-0.4375307758759256,-0.34494242367066663,0.004630370673307006,-0.0037543897186794167,-0.5731111069091624
6804,6.0,299.01007000000004,3297.3411,0.0,0.0,0.0,0.0,0.0,-0.06781417240831689,-0.2083008448801928,-0.4397930087116906,-0.3542155163333497,0.0002442588009839668,0.00937149393951944,-0.5846904986544594
6805,6.0,299.47986000000003,3315.6356,0.0,0.0,0.0,0.0,0.0,-0.06782413921790068,-0.24003203832431774,-0.4223758170452476,-0.34546256547700066,-0.002001243117407318,0.01052134180537559,-0.5694328367936454
6806,6.0,299.93679,3399.6361,0.0,0.0,0.0,0.0,0.0,-0.06783410602748449,-0.2076275401887428,-0.46520598996475654,-0.36057094520058164,0.03153489346250167,0.01061320508594179,-0.5491273047896456
6807,6.0,301.01658,3411.4279,0.0,0.0,0.0,0.0,0.0,-0.06784407283706834,-0.24916045913772278,-0.4285980035243296,-0.35923043558328366,-0.006184768166139093,-0.012110565818719788,-0.5504536187730424
6808,6.0,301.13891,3275.188,0.0,0.0,0.0,0.0,0.0,-0.06785403964665215,-0.1942152803375558,-0.4554706019439486,-0.3458894781416337,0.014015794167251187,-0.008318266259473963,-0.5626790790471015
6809,6.0,300.08402,3150.1621,0.0,0.0,0.0,0.0,0.0,-0.06786400645623597,-0.19144198441635282,-0.4435620153736625,-0.3225666190623467,-0.03353642616678757,-0.01247469244090629,-0.5853537012424124
6810,6.0,299.91434,3147.4657,0.0,0.0,0.0,0.0,0.0,-0.06787397326581981,-0.19182315897147184,-0.41971826468296763,-0.3452095569270307,-0.003913642642196457,0.0013366882458708586,-0.5695164197943945
6811,6.0,300.89206,3175.6302,0.0,0.0,0.0,0.0,0.0,-0.06788394007540363,-0.1984995449403798,-0.4493569446830775,-0.3174558058229487,-0.007324976071868853,-0.017060154755206183,-0.6052163213627004
6812,6.0,300.37456000000003,3068.8909,0.0,0.0,0.0,0.0,0.0,-0.06789390688498742,-0.14581262703558587,-0.42383671090692654,-0.36321687558421467,0.014732210623955987,-0.006751187435015323,-0.5756629468885094
6813,6.0,299.22434,2989.9015,0.0,0.0,0.0,0.0,0.0,-0.06790387369457127,-0.16460683572042983,-0.4274341337969646,-0.3168144083771477,0.027445908498450272,0.0035812745205442767,-0.5784631851298714
6814,6.0,298.36124,3052.7986,0.0,0.0,0.0,0.0,0.0,-0.06791384050415508,-0.1348260980562999,-0.4488057771586816,-0.3443426809364767,0.005128423424810985,0.006219092519901644,-0.6074985658879404
6815,6.0,297.74508,3308.8473,0.0,0.0,0.0,0.0,0.0,-0.0679238073137389,-0.2043208694148998,-0.4436252725774056,-0.35786083555561465,0.009091383279849671,0.000980295792095162,-0.5833416905188424
6816,6.0,298.50773,3364.2232,0.0,0.0,0.0,0.0,0.0,-0.06793377412332272,-0.18687319918544884,-0.49530976189326753,-0.34045687693547766,-0.038071212803836164,-0.014407854068194486,-0.6418513413157954
6817,6.0,299.5304,3121.2248,0.0,0.0,0.0,0.0,0.0,-0.06794374093290656,-0.18163705704118183,-0.4432540481382686,-0.3238832970372927,-0.02006872127012858,-0.007735538932888254,-0.5919465751380785
6818,6.0,299.16747000000004,3025.6794,0.0,0.0,0.0,0.0,0.0,-0.06795370774249035,-0.14786710307084688,-0.4467630750895826,-0.3251008082249517,-0.03141594499351237,-0.014470848840161586,-0.6072748807958644
6819,6.0,299.00817,3104.6692,0.0,0.0,0.0,0.0,0.0,-0.06796367455207417,-0.17926936513500882,-0.4288828585249426,-0.3355896794176227,0.01008886599239355,0.0017154901745556983,-0.5441763520185244
6820,6.0,300.27072000000004,3157.4539,0.0,0.0,0.0,0.0,0.0,-0.06797364136165801,-0.17365357844327384,-0.43453642931290654,-0.35159715648493767,0.01730270149789368,-0.004105022078684136,-0.5750266663557134
6821,6.0,300.02476,3074.4578,0.0,0.0,0.0,0.0,0.0,-0.06798360817124183,-0.1990220476194468,-0.4137329456797626,-0.32180340868952373,0.02905387662539437,-0.003077646664340077,-0.5436110699202356
6822,6.0,299.78482,3239.1066,0.0,0.0,0.0,0.0,0.0,-0.06799357498082564,-0.19504594276953582,-0.4397761482300266,-0.3497854349086347,0.003075834871836267,-0.0006451684080356644,-0.5870107197934474
6823,6.0,301.17721,3534.4666,0.0,0.0,0.0,0.0,0.0,-0.06800354179040946,-0.2608551182143958,-0.43719283670257364,-0.3763416257195266,-0.004980471380984256,-0.013906917404255885,-0.5522605780738755
6824,6.0,300.83984,3554.4709,0.0,0.0,0.0,0.0,0.0,-0.0680135085999933,-0.2211152061123718,-0.4907719517179205,-0.36858325076383464,-0.02280037261222158,-0.006561543695948943,-0.5938784783087425
6825,6.0,300.60884,3541.1674,0.0,0.0,0.0,0.0,0.0,-0.0680234754095771,-0.2315074943055108,-0.4465321655242936,-0.3983867865552146,-0.023307085814980276,0.016890631933975584,-0.5464659223419875
6826,6.0,301.85559,3418.9727,0.0,0.0,0.0,0.0,0.0,-0.06803344221916091,-0.2087048986225698,-0.44631238144510255,-0.38426505911650866,-0.039585676185052064,0.01018775859420349,-0.5585945361714885
6827,6.0,299.48742999999996,3245.9359999999997,0.0,0.0,0.0,0.0,0.0,-0.06804340902874473,-0.1952884844459728,-0.45574321688335356,-0.3356517916487527,-0.003806518903199166,0.012741992883536788,-0.5653232767730635
6828,6.0,298.80938,3120.5787,0.0,0.0,0.0,0.0,0.0,-0.06805337583832857,-0.17919028096470382,-0.42522267492371063,-0.3441650277964437,-0.02098252492581398,0.016780873643393285,-0.5855425203985475
6829,6.0,299.61967000000004,3086.0764,0.0,0.0,0.0,0.0,0.0,-0.06806334264791239,-0.17081140178027285,-0.4583419602098296,-0.30893680428218867,0.045211173865745455,0.02635337157812527,-0.5883058054087624
6830,6.0,299.28332,2881.7876,0.0,0.0,0.0,0.0,0.0,-0.06807330945749623,-0.1287811290197079,-0.4380815786302856,-0.3091287746461347,-0.0072416434452195625,0.0011708437251532788,-0.6061705597768765
6831,6.0,299.21347000000003,2995.1555,0.0,0.0,0.0,0.0,0.0,-0.06808327626708,-0.14614237914812986,-0.4286652428009656,-0.33564485088556767,0.024049976470297874,0.0011517922927980488,-0.5729197242302745
6832,6.0,299.26604,3207.5227,0.0,0.0,0.0,0.0,0.0,-0.06809324307666384,-0.16153323273458886,-0.47755801530880654,-0.33591557104728564,-0.007660836157340663,-0.034619811412209364,-0.6093883077219434
6833,6.0,298.73273,3410.4368,0.0,0.0,0.0,0.0,0.0,-0.06810320988624766,-0.22459002574030978,-0.43899888407831655,-0.37309871877447665,-0.007490141512369413,-0.0034173508180412667,-0.5671917808849705
6834,6.0,299.365,3470.3752,0.0,0.0,0.0,0.0,0.0,-0.0681131766958315,-0.17878302535201082,-0.5081189150199326,-0.36800547529181266,-0.041123668246840064,-0.005230273906312845,-0.6103441268062754
6835,6.0,300.49105,3360.4852,0.0,0.0,0.0,0.0,0.0,-0.06812314350541532,-0.2035599185897998,-0.4552344133456386,-0.36270924741661564,0.005060353181767975,-0.013839335649086088,-0.5788482910953785
6836,6.0,300.31567,3242.4263,0.0,0.0,0.0,0.0,0.0,-0.06813311031499913,-0.16021275507176785,-0.45779048871040356,-0.36761338803311666,0.004786989754514105,0.01041951928957649,-0.6032919365077785
6837,6.0,300.2054,3183.1545,0.0,0.0,0.0,0.0,0.0,-0.06814307712458292,-0.2057818747340898,-0.4363947097313046,-0.3254229102992407,0.031247460753634267,0.006981214459467222,-0.5590695478183685
6838,6.0,300.06365,3233.3748,0.0,0.0,0.0,0.0,0.0,-0.06815304393416677,-0.1919276655867858,-0.4100258485989006,-0.38091169777805767,0.005586237583043724,-0.006898821520960674,-0.5471067523677324
6839,6.0,299.8588,3196.191,0.0,0.0,0.0,0.0,0.0,-0.06816301074375058,-0.2212322972939278,-0.4160133460898206,-0.3343166117269807,-0.021771414095921277,-0.01127720104872309,-0.5413878978758254
6840,6.0,299.93146,3291.7663,0.0,0.0,0.0,0.0,0.0,-0.06817297755333443,-0.18520451812576283,-0.46391610232245456,-0.35149414947977164,-0.019394519852340083,-0.02133968241381268,-0.5744502993013304
6841,6.0,299.90245,3388.6798,0.0,0.0,0.0,0.0,0.0,-0.06818294436291822,-0.24822812719070877,-0.42917163480344256,-0.3526743021362437,-0.012379498607261388,0.005780018320943395,-0.5595667395099375
6842,6.0,300.18056,3397.6383,0.0,0.0,0.0,0.0,0.0,-0.06819291117250206,-0.2008178915666828,-0.4631434788562025,-0.36883584388126367,-0.006441666481917983,0.004305517219696465,-0.5839661869529754
6843,6.0,299.77541,3365.6662,0.0,0.0,0.0,0.0,0.0,-0.06820287798208588,-0.22480103507363478,-0.4582206235103546,-0.34005684579599765,-0.01000745002963342,0.007775509217533013,-0.5902007452157785
6844,6.0,298.88855,3380.2624,0.0,0.0,0.0,0.0,0.0,-0.06821284479166972,-0.1887801865361538,-0.4641522098607566,-0.37458294778595863,-0.00921953803792256,0.008770821852337721,-0.5655626875066915
6845,6.0,299.16607999999997,3295.8595,0.0,0.0,0.0,0.0,0.0,-0.06822281160125351,-0.2073433640656968,-0.4667777232548746,-0.3277378929352117,0.022993201199002274,0.016133610492763385,-0.6029808585945774
6846,6.0,300.62712999999997,3097.5519,0.0,0.0,0.0,0.0,0.0,-0.06823277841083733,-0.15184441368837687,-0.4277547362611056,-0.3619792919120747,0.014462326393570485,-0.016454330493915984,-0.5807554608311014
6847,6.0,299.82482999999996,2910.6779,0.0,0.0,0.0,0.0,0.0,-0.06824274522042115,-0.15937431087901985,-0.42330246465920063,-0.3020966365671167,0.0032244694409303567,-0.03845028385174756,-0.6094543007009564
6848,6.0,300.06101,3051.3412,0.0,0.0,0.0,0.0,0.0,-0.06825271203000499,-0.13014445702925787,-0.4598768213288086,-0.33751025445216865,-0.0032279175310206566,-0.02133261803411548,-0.6078316414608124
6849,6.0,300.77259,3078.7987,0.0,0.0,0.0,0.0,0.0,-0.06826267883958881,-0.18836022476720682,-0.42048089750323364,-0.3270368049260197,-0.019292502792521784,0.017144410554021584,-0.5838985626413014
6850,6.0,300.75073,3125.4979,0.0,0.0,0.0,0.0,0.0,-0.06827264564917265,-0.17070212275698782,-0.46850512215785556,-0.3108660831350937,-0.009465383213660592,0.02370375195087818,-0.6047236892965814
6851,6.0,300.08655,3302.3284,0.0,0.0,0.0,0.0,0.0,-0.06828261245875641,-0.2116652101147298,-0.4678696724901415,-0.32429048172247865,-0.024708536346292678,0.01170129890457829,-0.5725378302675844
6852,6.0,300.79446,3286.1555,0.0,0.0,0.0,0.0,0.0,-0.06829257926834026,-0.16244276655435286,-0.47285948340259754,-0.36360697687271465,0.003616681430713666,0.009850918087934922,-0.6055199721526684
6853,6.0,299.76346,3284.7838,0.0,0.0,0.0,0.0,0.0,-0.06830254607792408,-0.19706612028891182,-0.4586238463876496,-0.34280229760445263,0.03068211482058897,0.016620716292836984,-0.5691032164036145
6854,6.0,299.63959,3339.453,0.0,0.0,0.0,0.0,0.0,-0.06831251288750792,-0.1946108329115938,-0.43902507659340156,-0.38147441635359364,0.03267846069761297,-0.002398232784062148,-0.5913201028662505
6855,6.0,299.77265,3195.7404,0.0,0.0,0.0,0.0,0.0,-0.06832247969709174,-0.2158031411381118,-0.41861696314927765,-0.3370051898073227,-0.0005113826645195396,-0.02378827220796968,-0.5702930658635434
6856,6.0,298.48784,3078.4118,0.0,0.0,0.0,0.0,0.0,-0.06833244650667555,-0.17954658022986783,-0.4160122011172076,-0.34020155817527964,-0.013999311627874487,-0.01786561056444848,-0.5951605132627693
6857,6.0,298.77069,3183.3928,0.0,0.0,0.0,0.0,0.0,-0.06834241331625937,-0.19154582228660083,-0.41824202008227357,-0.3578840693804077,-0.020477234326195682,0.03247820904059967,-0.5569486735040544
6858,6.0,299.85007,3264.2861,0.0,0.0,0.0,0.0,0.0,-0.06835238012584319,-0.1981446338278528,-0.4403660219082426,-0.35375080943998666,-0.006943148578385414,0.01130647992361269,-0.5829285276580665
6859,6.0,299.72722999999996,3314.9295,0.0,0.0,0.0,0.0,0.0,-0.068362346935427,-0.19172169210645781,-0.44445321949911754,-0.37148088260480866,-0.006986637677977452,0.005496829407469824,-0.5597238844679465
6860,6.0,299.78643999999997,3256.1234,0.0,0.0,0.0,0.0,0.0,-0.06837231374501085,-0.1994418979308828,-0.4534715810866606,-0.33686671904865667,0.01971827757729248,0.008010216140221783,-0.5989237241341694
6861,6.0,300.62626,3294.4891,0.0,0.0,0.0,0.0,0.0,-0.06838228055459464,-0.2027218898295928,-0.46364794568348955,-0.33507259762659064,0.03641222246810656,0.04190060613201786,-0.5828683304696254
6862,6.0,301.07322999999997,3233.9034,0.0,0.0,0.0,0.0,0.0,-0.06839224736417848,-0.2093450396382468,-0.44856891981530556,-0.32511190331354667,0.007505546865564803,0.022287361046841276,-0.6107179755631714
6863,6.0,299.77038,3398.5413,0.0,0.0,0.0,0.0,0.0,-0.0684022141737623,-0.1930638229239158,-0.4872536332631896,-0.35275424756913365,-0.003411299181819017,-0.004268691962037096,-0.6017838961189464
6864,6.0,299.79562999999996,3289.7509,0.0,0.0,0.0,0.0,0.0,-0.06841218098334614,-0.18492019001520182,-0.4510951853621286,-0.36398676327519663,-0.04084369508520886,-0.01111717238092949,-0.6001913304067724
6865,6.0,298.77178,2993.8564,0.0,0.0,0.0,0.0,0.0,-0.06842214779292993,-0.12499427902347489,-0.4412179119298175,-0.34384538791989766,0.017032769644753483,0.006278344345999344,-0.5829388020140804
6866,6.0,298.93577999999997,3004.5256,0.0,0.0,0.0,0.0,0.0,-0.06843211460251375,-0.13840632609214085,-0.42540917373711656,-0.34948524943400866,0.00975402260207208,-0.016747284402578284,-0.5869159707765964
6867,6.0,298.94401,3363.5569,0.0,0.0,0.0,0.0,0.0,-0.06844208141209757,-0.2197037791205748,-0.44405384697220257,-0.35867968349142865,0.014788088327220686,-0.02138720485675278,-0.5907416586491624
6868,6.0,299.72575,3311.4501,0.0,0.0,0.0,0.0,0.0,-0.06845204822168141,-0.19421805664282982,-0.44464724676076656,-0.36773285021990665,0.01045262115709339,-0.015479682182975685,-0.6041691071193485
6869,6.0,299.66012,3225.8919,0.0,0.0,0.0,0.0,0.0,-0.06846201503126523,-0.19279585880246983,-0.44867670936094356,-0.3391180189158427,0.01834991371474548,0.030610458786767072,-0.5895394678030155
6870,6.0,301.09244,3379.2158,0.0,0.0,0.0,0.0,0.0,-0.06847198184084907,-0.19169048400337782,-0.46716546367064155,-0.3683412663749527,-0.0095334088736992,0.017050158029719584,-0.5777313348476435
6871,6.0,300.51576,3399.4441,0.0,0.0,0.0,0.0,0.0,-0.06848194865043283,-0.2186404643331338,-0.44952876150253457,-0.36517688631265266,-0.016700929223753384,-0.005300747375943035,-0.5677900138765115
6872,6.0,300.45842999999996,3420.5959999999995,0.0,0.0,0.0,0.0,0.0,-0.06849191546001668,-0.19908435236809582,-0.4671548752070966,-0.3735365340101856,-0.018682346887054082,-0.027352339917965773,-0.5573536189065194
6873,6.0,300.19012999999995,3458.8527,0.0,0.0,0.0,0.0,0.0,-0.0685018822696005,-0.2441743769856348,-0.4635095458523306,-0.34372095067511665,0.007194112693628643,0.005821257498688385,-0.5514191853233364
6874,6.0,299.56695,3260.8619,0.0,0.0,0.0,0.0,0.0,-0.06851184907918434,-0.19293674109637382,-0.4367942342457346,-0.3614896286687486,0.0094173866709987,-0.012078762937831089,-0.5711989925129514
6875,6.0,299.62817,3169.7214,0.0,0.0,0.0,0.0,0.0,-0.06852181588876816,-0.21139535121559677,-0.42163297299943464,-0.3304878233091087,0.005262036865147605,-0.016646806469661886,-0.5887704312421175
6876,6.0,299.68441,3384.4501,0.0,0.0,0.0,0.0,0.0,-0.06853178269835197,-0.1917799843847108,-0.4661869984465746,-0.3708213479822176,0.014262953224393886,0.002104414269089518,-0.5783646566901475
6877,6.0,299.01007999999996,3402.4347,0.0,0.0,0.0,0.0,0.0,-0.06854174950793579,-0.21046357655613782,-0.44280166236612156,-0.3809899612157816,0.0015340850707274084,0.05402877818447525,-0.5808203189700024
6878,6.0,299.48546,3137.0759999999996,0.0,0.0,0.0,0.0,0.0,-0.06855171631751963,-0.15624027765721485,-0.4567664474968386,-0.3405860359257247,0.002884282169581487,-0.0029906587379550367,-0.5727223633757965
6879,6.0,300.98807,2996.4462,0.0,0.0,0.0,0.0,0.0,-0.06856168312710342,-0.18665247278366484,-0.42135428869193065,-0.30283806206278974,-0.026388299322322374,-0.021229627240951083,-0.6098596919334655
6880,6.0,300.75562,3222.1439,0.0,0.0,0.0,0.0,0.0,-0.06857164993668727,-0.16325153265167186,-0.4630985412142676,-0.35310122493337764,-0.0001264902313386139,-0.02183868680981058,-0.5929865345107145
6881,6.0,301.33982000000003,3216.3669,0.0,0.0,0.0,0.0,0.0,-0.06858161674627106,-0.17925202842579782,-0.49224232960053554,-0.3062008668921727,0.01031097487261399,0.003288538460653477,-0.6329202813568684
6882,6.0,300.97812999999996,3244.7387,0.0,0.0,0.0,0.0,0.0,-0.0685915835558549,-0.17435257915725985,-0.44667735413112253,-0.36528960025377666,0.009509252383365141,0.003259694067406757,-0.5938824198516315
6883,6.0,300.16142,3228.6778,0.0,0.0,0.0,0.0,0.0,-0.06860155036543872,-0.1941133575099968,-0.45884948705241857,-0.3284745764204167,-0.009828624052609671,-0.0007088004737856602,-0.6144533423218234
6884,6.0,300.06436,3072.6517,0.0,0.0,0.0,0.0,0.0,-0.06861151717502256,-0.15530707431511487,-0.43389482921708555,-0.34480749928735066,0.02876964882659327,0.013320266874607987,-0.5702304875373674
6885,6.0,300.74676,3324.6799,0.0,0.0,0.0,0.0,0.0,-0.06862148398460635,-0.19632208060798081,-0.4564592807290236,-0.35783832113839265,-0.002043738016001238,0.03634717586468696,-0.5825503624557444
6886,6.0,299.38696,3569.0798,0.0,0.0,0.0,0.0,0.0,-0.06863145079419017,-0.20919968891140178,-0.48022838528485157,-0.3954830549486386,0.0004851973536427505,-0.01097417543406679,-0.5681035742524574
6887,6.0,299.8704,3251.6558,0.0,0.0,0.0,0.0,0.0,-0.06864141760377399,-0.2117518429982798,-0.4335874597992506,-0.3430828665571427,-0.053130807574852446,-0.023645967310925275,-0.5681762850796335
6888,6.0,299.8405,3100.4968,0.0,0.0,0.0,0.0,0.0,-0.06865138441335783,-0.17301683181543184,-0.42079478211921156,-0.34866199386025964,-0.0029675221851716374,-0.015124073954379886,-0.5901214381304514
6889,6.0,299.65066,3355.5159,0.0,0.0,0.0,0.0,0.0,-0.06866135122294165,-0.2215220868225278,-0.4399225020744706,-0.35854844733847663,-0.016947172302805683,0.008373432965143491,-0.5773397744789994
6890,6.0,299.21797999999995,3429.755,0.0,0.0,0.0,0.0,0.0,-0.06867131803252549,-0.22857942443153279,-0.45819801790062353,-0.35578242655299164,0.020824036398172378,-0.007243371239290083,-0.5594164542551054
6891,6.0,301.07364,3333.188,0.0,0.0,0.0,0.0,0.0,-0.06868128484210925,-0.2176956491448878,-0.4502100202072696,-0.3453002428109807,-0.009617117922760642,-0.00982551256420259,-0.5748340475117034
6892,6.0,300.45514,3252.6752,0.0,0.0,0.0,0.0,0.0,-0.0686912516516931,-0.18865283113108483,-0.45290123273787153,-0.3471779674987977,0.017772144322224084,0.003399405652145216,-0.5889467671570204
6893,6.0,299.88524,3281.6624,0.0,0.0,0.0,0.0,0.0,-0.06870121846127691,-0.2066168333464938,-0.4357896676990916,-0.35513692544428566,0.00029276814952146677,0.030927763121832572,-0.5943315328259554
6894,6.0,299.99579,3382.7269,0.0,0.0,0.0,0.0,0.0,-0.06871118527086076,-0.20097041610423583,-0.47189589268999854,-0.35539820211507167,-0.015507136194435184,0.01113977799066049,-0.5993427638455254
6895,6.0,300.2432,3447.7571,0.0,0.0,0.0,0.0,0.0,-0.06872115208044458,-0.2046020868476538,-0.4884994343936405,-0.35493053653141665,-0.04537494142640805,0.013475746049452588,-0.6095576927411605
6896,6.0,300.12602999999996,3324.5885,0.0,0.0,0.0,0.0,0.0,-0.06873111889002839,-0.18591949779382583,-0.45108867016398563,-0.37358372106734267,-0.026110991008454175,-0.001983623103468358,-0.5699709131267495
6897,6.0,300.31221,3232.6936,0.0,0.0,0.0,0.0,0.0,-0.06874108569961221,-0.15134450648653985,-0.49149801634207757,-0.3398156213446907,-0.001036829037777059,0.008498051379042372,-0.6004743615572053
6898,6.0,299.61802,3222.0576,0.0,0.0,0.0,0.0,0.0,-0.06875105250919605,-0.16791077071900284,-0.44749480378179857,-0.3640194709884247,-0.0038684608069873565,-0.023150458627772378,-0.5915825954371564
6899,6.0,298.67627000000005,3473.3152,0.0,0.0,0.0,0.0,0.0,-0.06876101931877984,-0.22205226993735278,-0.4834253008078625,-0.35032351124173866,0.01017353560254979,-0.03492345206967637,-0.6084724410890544
6900,6.0,299.20166,3323.3484,0.0,0.0,0.0,0.0,0.0,-0.06877098612836369,-0.2039556231513528,-0.4613820550148635,-0.3448772615567357,0.014278647455192788,-0.013923484043390886,-0.6048019831318084
6901,6.0,298.695,3017.9809999999998,0.0,0.0,0.0,0.0,0.0,-0.06878095293794748,-0.17997200341685385,-0.4234052892793486,-0.31401357231822674,0.011590414893134888,0.020502148119654482,-0.5904171957021405
6902,6.0,299.06701,3200.485,0.0,0.0,0.0,0.0,0.0,-0.06879091974753132,-0.1942385141623488,-0.4333022096310986,-0.3453268102286027,-0.01827134022249088,0.0027981622945571173,-0.5723737445463905
6903,6.0,299.80474,3409.3811,0.0,0.0,0.0,0.0,0.0,-0.06880088655711514,-0.22458767500007779,-0.4284540916126266,-0.38332494540872664,-0.026542551451295873,0.008559558091912613,-0.5586754644569755
6904,6.0,300.14665,3264.1589,0.0,0.0,0.0,0.0,0.0,-0.06881085336669898,-0.1989870296959908,-0.4377704196570766,-0.35546534006669767,-0.011666593062153091,0.005734933048468824,-0.5653246851907024
6905,6.0,300.33192,3318.8913,0.0,0.0,0.0,0.0,0.0,-0.06882082017628277,-0.23309073811676478,-0.44005290736234054,-0.33571644713763366,0.023985163927651376,0.02206160588481098,-0.5790669605994594
6906,6.0,300.55997,3451.6123,0.0,0.0,0.0,0.0,0.0,-0.06883078698586659,-0.21919345570770982,-0.43059710544162555,-0.39941338115903163,0.017229947100963382,-0.004314066821390246,-0.5732946166347734
6907,6.0,300.73152999999996,3376.6043,0.0,0.0,0.0,0.0,0.0,-0.0688407537954504,-0.2204166613609308,-0.4668278892673256,-0.3391588326298707,0.011753252290205688,-0.006327956009320634,-0.6066827577024264
6908,6.0,300.21191,3444.1442,0.0,0.0,0.0,0.0,0.0,-0.06885072060503425,-0.1899144896256008,-0.47666969894613653,-0.3803496378150866,0.004917229983942816,-0.013077053413354689,-0.5685014269042225
6909,6.0,299.1166,3356.3839,0.0,0.0,0.0,0.0,0.0,-0.06886068741461807,-0.2034717354335968,-0.44478982118233756,-0.3719953603430836,0.01028518664431889,0.006035427868350354,-0.5725309300344035
6910,6.0,299.73969,3185.3506,0.0,0.0,0.0,0.0,0.0,-0.06887065422420188,-0.14776961827872584,-0.46738921969022457,-0.3531082163590677,-0.006246274777684324,-0.02225824429196768,-0.5534973410134345
6911,6.0,300.35932,2987.5296,0.0,0.0,0.0,0.0,0.0,-0.06888062103378567,-0.16020160932066785,-0.42785058972056556,-0.3200821906121527,-0.02857547667017997,-0.008454312108000643,-0.5969361530030114
6912,6.0,299.13326,3216.843,0.0,0.0,0.0,0.0,0.0,-0.06889058784336952,-0.18129576400999883,-0.4425012742414756,-0.35404290917881465,-0.005067733391521345,-0.006604216521260424,-0.5590721012086205
6913,6.0,299.8975,3192.5353,0.0,0.0,0.0,0.0,0.0,-0.06890055465295333,-0.1961113651171848,-0.45383529734255657,-0.3205043511338167,-0.005840289679291714,0.016016855710240585,-0.6147561419817074
6914,6.0,300.64389,3064.2463,0.0,0.0,0.0,0.0,0.0,-0.06891052146253715,-0.14304616042005686,-0.4196463137933666,-0.36876187662396365,0.012452472879463388,0.016479992065948586,-0.5871329278880084
6915,6.0,300.81254,3344.7717,0.0,0.0,0.0,0.0,0.0,-0.068920488272121,-0.16319270335086586,-0.4982113352771305,-0.3553230290901527,0.0025885905604739975,0.01126539161880759,-0.6219016222169115
6916,6.0,300.72046,3597.0417,0.0,0.0,0.0,0.0,0.0,-0.06893045508170481,-0.23833292936412875,-0.4762038977426655,-0.37887403156195565,0.01954317174801088,0.01918512969267488,-0.5686673466080975
6917,6.0,300.49313,3520.5189,0.0,0.0,0.0,0.0,0.0,-0.06894042189128863,-0.21870617360211878,-0.4784358242679395,-0.3730078302405066,-0.00994079397975498,-0.01014125750736419,-0.5945430285193284
6918,6.0,299.42233,3395.8235,0.0,0.0,0.0,0.0,0.0,-0.06895038870087247,-0.2032391540056428,-0.47104265504579057,-0.3579637513682717,-0.011326326453321387,-0.03713196238513936,-0.5689075983393085
6919,6.0,299.42368999999997,3288.6446,0.0,0.0,0.0,0.0,0.0,-0.06896035551045626,-0.2115046809013868,-0.44412076200880657,-0.3440403777691417,-0.02833984333292477,-0.03678310949496026,-0.5673848556915255
6920,6.0,299.29854,3167.0926,0.0,0.0,0.0,0.0,0.0,-0.06897032232004008,-0.17550814023380484,-0.44534894272001857,-0.3418599750114527,0.0013239270701364285,0.016770236543843485,-0.5651142331449325
6921,6.0,299.32692000000003,3176.7653,0.0,0.0,0.0,0.0,0.0,-0.0689802891296239,-0.22374747788465682,-0.42780201451077154,-0.3141078349750297,0.00933778564181769,0.0034671890440849166,-0.5596375656919275
6922,6.0,299.94198,3475.2914,0.0,0.0,0.0,0.0,0.0,-0.06899025593920774,-0.22592539817960075,-0.44517940571328657,-0.3852970036808536,0.033212618792580265,-0.003955216901749516,-0.5580791667731255
6923,6.0,300.23411,3393.1641,0.0,0.0,0.0,0.0,0.0,-0.06900022274879156,-0.2009425719914878,-0.49574458804118154,-0.33474999905975267,0.028054798854543078,0.008785445077780922,-0.5866855779688585
6924,6.0,300.13116,3361.4334,0.0,0.0,0.0,0.0,0.0,-0.06901018955837535,-0.18656248604228381,-0.4666111550709356,-0.36861816736228065,0.03530017643035617,0.03108295858664917,-0.5824982408706004
6925,6.0,300.42728999999997,3638.1964,0.0,0.0,0.0,0.0,0.0,-0.06902015636795919,-0.24484651643946978,-0.4839794979500575,-0.37709486571136563,0.00036960379626455465,0.01001030141673983,-0.5696622771462895
6926,6.0,301.29462,3470.7916,0.0,0.0,0.0,0.0,0.0,-0.069030123177543,-0.2000455011479538,-0.47894927862361353,-0.37603921109468064,-0.03184481221758827,-0.004084039391638306,-0.6078644504990505
6927,6.0,300.63734,2910.0994,0.0,0.0,0.0,0.0,0.0,-0.06904008998712682,-0.16457390509217984,-0.41586924166059863,-0.3041543955327017,-0.008890145426514041,0.014727110936202686,-0.5938524073836694
6928,6.0,299.94417999999996,2943.1171,0.0,0.0,0.0,0.0,0.0,-0.06905005679671064,-0.16374803533317284,-0.4174267691843146,-0.3134592839835227,-0.02242417412834368,0.03508017146264337,-0.5987917381761435
6929,6.0,299.78972000000005,3312.6949,0.0,0.0,0.0,0.0,0.0,-0.06906002360629448,-0.18788957009575682,-0.4625936082919346,-0.3564933532206547,-0.008972534615995221,-0.0073766523335939025,-0.6018878049167014
6930,6.0,299.97968,3329.6462,0.0,0.0,0.0,0.0,0.0,-0.0690699904158783,-0.2172130786522618,-0.4530293075505116,-0.3418869274641127,-0.02561924046992218,-0.03368826676052307,-0.5948739560019884
6931,6.0,300.05587,3484.2945,0.0,0.0,0.0,0.0,0.0,-0.06907995722546209,-0.18768888578095083,-0.5128673292285645,-0.35858233042182064,-8.759104628181322e-05,0.0014860887307155386,-0.6204495132335994
6932,6.0,299.33353999999997,3413.7665,0.0,0.0,0.0,0.0,0.0,-0.06908992403504591,-0.19963914732784982,-0.46934861233610153,-0.3687120145865427,0.014484052502214687,0.029161795867045176,-0.5842110793696444
6933,6.0,300.17618999999996,3332.3111,0.0,0.0,0.0,0.0,0.0,-0.06909989084462975,-0.21129056089025483,-0.4720623494164266,-0.32958646641765166,0.012948158881383788,0.009741244809036011,-0.5947586177431055
6934,6.0,300.43887,3522.8998,0.0,0.0,0.0,0.0,0.0,-0.06910985765421357,-0.2510989383015358,-0.45882523997752556,-0.36094938398043064,-0.017481767108566082,-0.0042477088696912255,-0.5719864195631644
6935,6.0,299.08959,3509.417,0.0,0.0,0.0,0.0,0.0,-0.06911982446379741,-0.2337475572290878,-0.4517479717390535,-0.3812795987568667,0.003582345221924947,-0.007704818811056413,-0.5909342268306674
6936,6.0,298.75767,3096.055,0.0,0.0,0.0,0.0,0.0,-0.06912979127338123,-0.17338995103225582,-0.4194204299485736,-0.34831305079082164,0.005066341996484025,0.00945457203774361,-0.5702113573754796
6937,6.0,300.39412000000004,3107.7659999999996,0.0,0.0,0.0,0.0,0.0,-0.06913975808296505,-0.15599431119543983,-0.41585138819383666,-0.37283756369370263,0.013675022959869687,-0.013732978839089487,-0.5796156963236154
6938,6.0,300.15015,3523.8766,0.0,0.0,0.0,0.0,0.0,-0.06914972489254884,-0.2211668717349708,-0.44731505321405857,-0.4026885601197666,-0.0072934537599328424,-0.011172254682865689,-0.5779955904737235
6939,6.0,300.33427,3474.9315,0.0,0.0,0.0,0.0,0.0,-0.06915969170213268,-0.25878865543045176,-0.44634755135607357,-0.3511562001739187,-0.002063372979089058,0.012408535315377089,-0.5866344189713094
6940,6.0,300.67377,3292.2433,0.0,0.0,0.0,0.0,0.0,-0.0691696585117165,-0.20957118692806578,-0.4430047582161656,-0.34818380060806564,-0.003079584505156327,0.04322148301537825,-0.5968225372692985
6941,6.0,300.33209,3381.7317,0.0,0.0,0.0,0.0,0.0,-0.06917962532130031,-0.2217229332573498,-0.45423377820938354,-0.35200529362521765,-0.005896078419197635,0.01886344811717738,-0.6011641214302794
6942,6.0,300.34157999999996,3601.2466,0.0,0.0,0.0,0.0,0.0,-0.06918959213088413,-0.22375434772033478,-0.48478032016659256,-0.3861543855179706,-0.04187109319635516,-0.015162541994426385,-0.5915930623106895
6943,6.0,300.74591000000004,3462.5263,0.0,0.0,0.0,0.0,0.0,-0.06919955894046798,-0.16591207410174685,-0.4914674871165645,-0.39514197469997664,-0.009749114013287642,-0.01214186308780859,-0.6219092519901643
6944,6.0,299.06707,3288.4043,0.0,0.0,0.0,0.0,0.0,-0.06920952575005176,-0.17698805279986085,-0.4761395462288146,-0.34646520684845367,0.005758612905955844,0.016225406898822983,-0.6010065509072284
6945,6.0,299.62807000000004,3209.8577,0.0,0.0,0.0,0.0,0.0,-0.06921949255963561,-0.19609348125291984,-0.4356164120644926,-0.3440066872033167,0.03777548056339967,-0.006921422368416202,-0.5966085591131804
6946,6.0,300.53702999999996,3086.4947,0.0,0.0,0.0,0.0,0.0,-0.0692294593692194,-0.1755607583114978,-0.4352898010272586,-0.3273667495560827,0.0012396432042932587,-0.026110551257910775,-0.5814886790009645
6947,6.0,300.57315,3142.1231,0.0,0.0,0.0,0.0,0.0,-0.06923942617880324,-0.16669661338917485,-0.4438526661648476,-0.34457767389966865,0.014373582910062186,-0.02014686919734118,-0.5964554266255675
6948,6.0,299.67179,3339.289,0.0,0.0,0.0,0.0,0.0,-0.06924939298838706,-0.16812969353560883,-0.4686681439664446,-0.3782626161866136,0.0009179647090760631,0.00998707458337252,-0.5688520114388225
6949,6.0,299.48134,3296.7672,0.0,0.0,0.0,0.0,0.0,-0.0692593597979709,-0.15198655241240486,-0.47243921765862057,-0.37770913845198967,-0.008233203305628902,-0.006410054396023114,-0.6077579984435445
6950,6.0,298.49834,3438.4413,0.0,0.0,0.0,0.0,0.0,-0.06926932660755472,-0.2253735315126358,-0.47053265587295756,-0.34929409980264364,-0.04475222527270076,-0.039736072897395065,-0.5602181579992275
6951,6.0,298.58902,3591.9205,0.0,0.0,0.0,0.0,0.0,-0.06927929341713851,-0.25398521160888876,-0.4752632875423346,-0.36260565272639167,-0.007562217943657804,-0.019455430368851483,-0.5963342520461083
6952,6.0,299.41591,3473.5939,0.0,0.0,0.0,0.0,0.0,-0.06928926022672233,-0.24818631035908176,-0.4456893643561156,-0.36201013524511866,-0.008035700596136902,0.030855362349187173,-0.5534118733674994
6953,6.0,299.61891,3372.112,0.0,0.0,0.0,0.0,0.0,-0.06929922703630617,-0.24079484339710075,-0.4529093995336776,-0.3313335831675787,0.026792400687454074,0.02165940740336708,-0.5887101327286663
6954,6.0,299.14187999999996,3405.6126,0.0,0.0,0.0,0.0,0.0,-0.06930919384588999,-0.1987022152253818,-0.4541746550660486,-0.3823443118294456,-0.003826950888815647,-0.003613078212033057,-0.5808554686159715
6955,6.0,299.61444,3355.5682,0.0,0.0,0.0,0.0,0.0,-0.06931916065547383,-0.18355676068064183,-0.45300674247078454,-0.3834454411106186,0.018598167081996183,0.005704970432411745,-0.5888293922654364
6956,6.0,299.95682,3208.5727,0.0,0.0,0.0,0.0,0.0,-0.06932912746505762,-0.18615359909692983,-0.44841395334501155,-0.34075843029773867,0.02014391557329968,0.028884284903156972,-0.5888027437878065
6957,6.0,299.28011000000004,3178.1941,0.0,0.0,0.0,0.0,0.0,-0.06933909427464147,-0.18513088524099583,-0.4496155565061006,-0.33134519501372467,0.004457615685582415,0.0028253157760369575,-0.5729760204058304
6958,6.0,300.03472,3301.6059999999998,0.0,0.0,0.0,0.0,0.0,-0.06934906108422526,-0.2010827956728268,-0.4691540987144045,-0.3333688783784467,-0.015866146916866785,-0.026317662618101076,-0.6114912880394914
6959,6.0,300.24451,3350.8106,0.0,0.0,0.0,0.0,0.0,-0.0693590278938091,-0.2062537959681648,-0.4730576143271515,-0.33925133223149967,-0.01960669341002998,-0.00936057556174188,-0.5944968648447724
6960,6.0,300.01993,3402.1845,0.0,0.0,0.0,0.0,0.0,-0.06936899470339292,-0.17371129316896985,-0.49501597002677256,-0.36545188238979265,-0.005114177635030035,0.017973453812341784,-0.6261819756743494
6961,6.0,300.69811,3440.0679,0.0,0.0,0.0,0.0,0.0,-0.06937896151297673,-0.1940369685849578,-0.49219322750068956,-0.3594645368863877,-0.015693512404579085,0.0025705204608406176,-0.5771852234412465
6962,6.0,299.71115,3208.9629999999997,0.0,0.0,0.0,0.0,0.0,-0.06938892832256055,-0.18735846492334082,-0.4641835902163536,-0.32390255892169373,-0.016573690342445883,-0.025943307236155073,-0.5995614941446125
6963,6.0,298.5488,3240.7729999999997,0.0,0.0,0.0,0.0,0.0,-0.0693988951321444,-0.20655356601024982,-0.4453573628283496,-0.3332031511920907,0.006613426255394354,0.0069953864846408935,-0.5735238644698984
6964,6.0,299.09209,3401.4326,0.0,0.0,0.0,0.0,0.0,-0.06940886194172821,-0.24861510766890077,-0.4357425515694416,-0.34959290725713366,0.017499803973596184,0.03100301416700927,-0.5934367823251504
6965,6.0,299.03525,3261.5517,0.0,0.0,0.0,0.0,0.0,-0.06941882875131206,-0.20053909580166782,-0.4374317509436526,-0.3534594291087297,0.012108254595241688,0.01087022813280799,-0.5893923337559944
6966,6.0,299.2093,3186.7507,0.0,0.0,0.0,0.0,0.0,-0.06942879556089582,-0.15475060749269587,-0.4569299961954795,-0.35701203594684466,-0.01132342551828509,-0.025595653020844274,-0.6244111691370844
6967,6.0,299.96671000000003,3311.4086,0.0,0.0,0.0,0.0,0.0,-0.06943876237047966,-0.17546901864744383,-0.45351780555622256,-0.3775987144560916,-0.019634015698976482,-0.006366737244973044,-0.5895289300019755
6968,6.0,299.73488,3234.9463,0.0,0.0,0.0,0.0,0.0,-0.06944872918006348,-0.2019191829678718,-0.4323518620973066,-0.3490718636582107,-0.005482286228784525,0.002147851591601448,-0.5666742735288964
6969,6.0,300.34286000000003,3397.3618,0.0,0.0,0.0,0.0,0.0,-0.06945869598964732,-0.2052668498407608,-0.4567696392346536,-0.37067665586793763,0.011803435527908388,-0.023482347684777277,-0.5648537265442225
6970,6.0,300.88895,3458.5924,0.0,0.0,0.0,0.0,0.0,-0.06946866279923114,-0.25395558417596475,-0.46005330923122656,-0.3373168148755777,0.008519421634251451,-0.034185483783344565,-0.5642150547411905
6971,6.0,299.28545,3328.4033,0.0,0.0,0.0,0.0,0.0,-0.06947862960881493,-0.2180454534769108,-0.4450008507806646,-0.3487051785795217,0.01162832767212659,-0.019397625463896583,-0.5777510324295875
6972,6.0,299.8715,3436.2145,0.0,0.0,0.0,0.0,0.0,-0.06948859641839875,-0.1998010646938298,-0.4763902648335585,-0.3683320863290467,0.02138033400782468,0.011985033250580687,-0.6096090037262245
6973,6.0,300.01229,3419.526,0.0,0.0,0.0,0.0,0.0,-0.06949856322798259,-0.2138878755340898,-0.4427310388341516,-0.3828315838025356,0.002452529513195818,-0.010474943056796391,-0.5913383312355495
6974,6.0,299.0946,3171.8116,0.0,0.0,0.0,0.0,0.0,-0.06950853003756641,-0.18069866585856983,-0.4393187975323896,-0.3441340730058887,-0.009184761774615413,-0.02337283460071918,-0.6149584981591785
6975,6.0,299.31194,2953.5175,0.0,0.0,0.0,0.0,0.0,-0.06951849684715025,-0.15091247690890186,-0.41232898634120263,-0.3345541175504207,-0.021395950218365878,0.009226227312432741,-0.6093569577638495
6976,6.0,299.40733,3057.5434,0.0,0.0,0.0,0.0,0.0,-0.06952846365673404,-0.17567183078745985,-0.4242394676891756,-0.3295055685296677,0.016826134512110184,0.03608367105693107,-0.6130107680219524
6977,6.0,299.17787999999996,3273.4102,0.0,0.0,0.0,0.0,0.0,-0.06953843046631789,-0.16177514619596384,-0.4369269396113316,-0.39633289820501166,-0.0051885297247180155,0.026753004510315977,-0.5869866551035724
6978,6.0,300.12004,3272.192,0.0,0.0,0.0,0.0,0.0,-0.06954839727590167,-0.14696813744962586,-0.4695876481671925,-0.37810886561643964,-0.011802774888843189,-0.01073785815299409,-0.6304236128454664
6979,6.0,300.29911,3385.4248,0.0,0.0,0.0,0.0,0.0,-0.06955836408548552,-0.2042835615462178,-0.4690222647438936,-0.3557787687201307,0.004364134852556576,-0.01058161600082419,-0.5701753768644284
6980,6.0,299.56928999999997,3428.5177,0.0,0.0,0.0,0.0,0.0,-0.06956833089506934,-0.2129798919869788,-0.45681122301875754,-0.37239267597229564,-0.013793003775013487,-0.0013792512348714987,-0.5769937900998534
6981,6.0,301.37823,3463.7111,0.0,0.0,0.0,0.0,0.0,-0.06957829770465315,-0.24956303353495374,-0.4619481882432366,-0.3413704738881427,0.017353434930400684,-0.011789499286032989,-0.5458736168635314
6982,6.0,300.95682999999997,3418.6387,0.0,0.0,0.0,0.0,0.0,-0.06958826451423697,-0.23129899783243377,-0.44860617702148253,-0.35927562653774364,0.0020715770624987377,-0.05013880161956445,-0.5796107212656244
6983,6.0,301.02164,3426.4759999999997,0.0,0.0,0.0,0.0,0.0,-0.06959823132382081,-0.2178079071234668,-0.4689397659207516,-0.3548154617175596,0.00935998210115831,0.01733516299134738,-0.6005371425334014
6984,6.0,300.33235,3151.388,0.0,0.0,0.0,0.0,0.0,-0.06960819813340463,-0.17673870208275183,-0.4315284241385396,-0.34967612548784666,-0.015829551363005085,0.029667290129933573,-0.6115750432927575
6985,6.0,299.60209,3104.6834,0.0,0.0,0.0,0.0,0.0,-0.06961816494298848,-0.19169698906901983,-0.4198699279579356,-0.3321793126285457,-0.023816352407990977,0.028051510857968573,-0.6246027645984934
6986,6.0,299.06868,3418.607,0.0,0.0,0.0,0.0,0.0,-0.06962813175257224,-0.20052417062769481,-0.4737334217463485,-0.36491358314166666,-0.028000024580637273,-0.009718934257734131,-0.5973184623982425
6987,6.0,299.46171,3343.9745,0.0,0.0,0.0,0.0,0.0,-0.06963809856215608,-0.2066225784745608,-0.43827222163660057,-0.3715899488455726,0.012889199884564988,-0.003044647033758267,-0.5899883578623174
6988,6.0,298.83984,3131.9075,0.0,0.0,0.0,0.0,0.0,-0.0696480653717399,-0.16368372434932585,-0.4522070550943616,-0.3361308866935357,0.012484825955156388,0.01054594453105369,-0.5794876012459734
6989,6.0,299.93857,3269.6516,0.0,0.0,0.0,0.0,0.0,-0.06965803218132374,-0.16815645347074984,-0.4544516573783866,-0.37128432221790963,0.001139582122467999,-0.0034646350458828567,-0.5707740151560095
6990,6.0,300.11276000000004,3543.4621,0.0,0.0,0.0,0.0,0.0,-0.06966799899090756,-0.21645851130279178,-0.4898141061333885,-0.37085137058268064,-0.005930560232025725,-0.025314952345641274,-0.5851951579992655
6991,6.0,300.33286,3561.3959999999997,0.0,0.0,0.0,0.0,0.0,-0.06967796580049135,-0.2157838893862118,-0.5095731518284545,-0.35721841472721266,-0.02036365202973598,0.0006452041757641943,-0.6040459465696935
6992,6.0,301.14142000000004,3453.1214,0.0,0.0,0.0,0.0,0.0,-0.06968793261007517,-0.22388978886120178,-0.47369260803232055,-0.35208027413261767,0.013021169630589387,0.02827335892761327,-0.5837335244650135
6993,6.0,300.57684,3166.2536,0.0,0.0,0.0,0.0,0.0,-0.06969789941965901,-0.22353568834875479,-0.43613070741774956,-0.3027956170161007,-0.03138783034298767,-0.004944104213695095,-0.5663430522037074
6994,6.0,299.75284,2986.0635,0.0,0.0,0.0,0.0,0.0,-0.06970786622924283,-0.15278685787138885,-0.4486915838724116,-0.30621029011810275,-0.01235271739386829,-0.019122537180997483,-0.6174213545147434
6995,6.0,299.87172000000004,3238.4642,0.0,0.0,0.0,0.0,0.0,-0.06971783303882667,-0.17435088702959284,-0.44326953059979657,-0.36679183471953564,0.015202514710871385,0.012167106187549888,-0.6008848595702184
6996,6.0,299.72455,3359.8021,0.0,0.0,0.0,0.0,0.0,-0.06972779984841046,-0.1879784929245328,-0.4624702045622555,-0.37084725678727465,0.029164179031280373,0.02907963952243697,-0.6231207140747265
6997,6.0,299.53146,3128.1996,0.0,0.0,0.0,0.0,0.0,-0.0697377666579943,-0.16377531202586484,-0.44624973219141956,-0.34086952303870266,-0.0014699379294215785,0.005349497979329345,-0.5937253863511335
6998,6.0,299.49901,3172.114,0.0,0.0,0.0,0.0,0.0,-0.0697477334675781,-0.17887588972367582,-0.4561222737457636,-0.3292452949764807,-0.01715206768502728,-0.023394915346898377,-0.6120735116794525
6999,6.0,299.93433999999996,3690.7343,0.0,0.0,0.0,0.0,0.0,-0.06975770027716194,-0.2593924511650417,-0.48827611407160054,-0.37422252459288763,-0.00948614339098446,-0.0025708595956490878,-0.5588382228205384
7000,6.0,300.18889,3694.5262,0.0,0.0,0.0,0.0,0.0,-0.06976766708674575,-0.23566504185082876,-0.4866534852289595,-0.4007251955334976,0.024939557369092678,0.004854439381870866,-0.5751059937060424
7001,6.0,300.6697,3461.5922,0.0,0.0,0.0,0.0,0.0,-0.06977763389632957,-0.18977867358219683,-0.4951234150673765,-0.36733550419319166,0.007164394372170674,-0.008094098860350361,-0.5543501632251014
7002,6.0,300.49231000000003,3362.2887,0.0,0.0,0.0,0.0,0.0,-0.06978760070591339,-0.19533036207260582,-0.4752675837227585,-0.3514538423907937,-0.0035004064221132165,-0.03346990224472217,-0.5886552044407455
7003,6.0,299.50011,3372.0303,0.0,0.0,0.0,0.0,0.0,-0.06979756751549723,-0.19796453875507883,-0.45405964104719754,-0.3729888216686306,-0.01137646612126979,0.017553334989629285,-0.5938648703598994
7004,6.0,300.08046,3337.7309999999998,0.0,0.0,0.0,0.0,0.0,-0.06980753432508105,-0.22696223674192878,-0.46889228502106556,-0.3187323489614337,0.02205530549568918,0.028469333655954474,-0.6088574761270544
7005,6.0,299.74581,3256.592,0.0,0.0,0.0,0.0,0.0,-0.0698175011346649,-0.22765956559324976,-0.4124585303664876,-0.34980456507052266,0.00982250574453084,-0.007059675886260764,-0.5905631645115464
7006,6.0,299.51026,3225.2087,0.0,0.0,0.0,0.0,0.0,-0.06982746794424866,-0.17529157828993183,-0.46398613816936657,-0.34110518474696067,-0.002185548750971868,-0.021061123749321082,-0.6007642422783145
7007,6.0,300.34372,2962.9256,0.0,0.0,0.0,0.0,0.0,-0.0698374347538325,-0.14207975287217986,-0.4282475912422466,-0.3303280439008397,0.0024181490253777278,-0.001971845388280988,-0.6065209619264584
7008,6.0,300.38805,3330.3967,0.0,0.0,0.0,0.0,0.0,-0.06984740156341632,-0.19621163634708083,-0.44111273656943756,-0.37503305374538065,0.015168975119311286,0.014199203581102287,-0.5675613334614424
7009,6.0,300.08558,3819.7657,0.0,0.0,0.0,0.0,0.0,-0.06985736837300016,-0.24448161468095675,-0.49859756595024857,-0.41803421261926454,-0.014778339848008587,0.0033130656991991266,-0.5745554645292094
7010,6.0,300.3886,3366.3991,0.0,0.0,0.0,0.0,0.0,-0.06986733518258398,-0.2038395857499008,-0.4690045835296485,-0.3504570880024217,-0.006905766337146073,-0.01672214262784698,-0.5985087070257105
7011,6.0,299.48519,3054.8111,0.0,0.0,0.0,0.0,0.0,-0.06987730199216777,-0.14374875817189786,-0.46086763807159453,-0.3239698893908387,-0.011703553386050789,0.03367692139915337,-0.5735001544175584
7012,6.0,298.65148,3372.6396,0.0,0.0,0.0,0.0,0.0,-0.06988726880175158,-0.1998296079491468,-0.4777436629921286,-0.34762496278041266,0.005011205181692445,0.025165530379894475,-0.5935299810693484
7013,6.0,298.34609,3523.1495,0.0,0.0,0.0,0.0,0.0,-0.06989723561133543,-0.23268880206709677,-0.4674188167256455,-0.37084185616424165,0.004755202275026926,-0.004404505978940896,-0.5649405114152874
7014,6.0,298.73184,3262.2614,0.0,0.0,0.0,0.0,0.0,-0.06990720242091925,-0.16679861727674183,-0.4551270392325416,-0.36972033015855565,-0.016172710800872285,-0.018114533690015283,-0.6237992066066884
7015,6.0,299.79514,3075.6452,0.0,0.0,0.0,0.0,0.0,-0.06991716923050306,-0.1836301199878818,-0.4184675188920286,-0.3328217030594447,0.01097494753064299,0.008024427175524304,-0.6098971011271574
7016,6.0,299.76169,2998.7558,0.0,0.0,0.0,0.0,0.0,-0.06992713604008688,-0.18176421992873182,-0.4031217042725146,-0.32666098033142865,0.0005877902333603794,0.018073177887183784,-0.6065768730669764
7017,6.0,300.18643,3332.3403,0.0,0.0,0.0,0.0,0.0,-0.06993710284967072,-0.21121358428015782,-0.44831801882554356,-0.35341663955700664,0.025891792587820976,-0.013254215127089188,-0.5871323807329545
7018,6.0,300.55906,3690.8424,0.0,0.0,0.0,0.0,0.0,-0.06994706965925451,-0.24783044679146077,-0.4863903745754925,-0.38770309776581663,0.02792092217183047,-0.03635437500664747,-0.5817970211388955
7019,6.0,301.12396,3557.0974,0.0,0.0,0.0,0.0,0.0,-0.06995703646883836,-0.24900782314265876,-0.46673955412360757,-0.36552140147915363,0.02297372957183058,-0.01036199201514899,-0.5523998999626255
7020,6.0,300.95231,3302.258,0.0,0.0,0.0,0.0,0.0,-0.06996700327842217,-0.18839788727342383,-0.4688848477653315,-0.34652122944648267,0.009582919819960551,0.002106740083369058,-0.5581989937299515
7021,6.0,299.51117999999997,3503.1199,0.0,0.0,0.0,0.0,0.0,-0.06997697008800599,-0.23660698954129175,-0.44168099762302054,-0.38657297939928265,-0.018151104925874583,-0.016926725929037784,-0.5547596682530165
7022,6.0,299.22222999999997,3745.4627,0.0,0.0,0.0,0.0,0.0,-0.06998693689758981,-0.24618858646192177,-0.49386320552050356,-0.3984753547464556,-0.012513519171488187,0.0015692273199706785,-0.5833728682244194
7023,6.0,300.76877,3416.0706,0.0,0.0,0.0,0.0,0.0,-0.06999690370717365,-0.2054007204439728,-0.4681006833804406,-0.36489874916020265,0.006917117372716333,0.01095591160101429,-0.5902183656350174
7024,6.0,300.20414,2917.9204,0.0,0.0,0.0,0.0,0.0,-0.07000687051675747,-0.14635264880888188,-0.4250312719798206,-0.31559101020640773,0.003980003430995756,0.03318396610625247,-0.5888517952251474
7025,6.0,298.17519,3035.5015,0.0,0.0,0.0,0.0,0.0,-0.07001683732634126,-0.16996846888958184,-0.4448581345040795,-0.3078900561338827,-0.01809401436224018,-0.006365394891240563,-0.6042488093722144
7026,6.0,298.84516,3410.7853,0.0,0.0,0.0,0.0,0.0,-0.07002680413592507,-0.19398725853505183,-0.4857295125952706,-0.35707678262823467,0.02371894056987718,-0.011813439346145689,-0.6284684353200054
7027,6.0,298.90094,3350.8488,0.0,0.0,0.0,0.0,0.0,-0.07003677094550892,-0.2053596128874158,-0.46402317246052155,-0.3491915892900267,0.003426285758748077,-0.0047872814692178954,-0.6299772153814104
7028,6.0,300.95321,3428.8369,0.0,0.0,0.0,0.0,0.0,-0.07004673775509274,-0.2039078686741398,-0.49030539057687456,-0.34806754029159165,0.040666087541430355,0.011388953415502188,-0.6168657793524124
7029,6.0,300.92021,3245.3709999999996,0.0,0.0,0.0,0.0,0.0,-0.07005670456467655,-0.17782431850489383,-0.47311739608305153,-0.3355700324981837,-0.028230907801423673,-0.017583780115383984,-0.5906848862460594
7030,6.0,299.81155,3233.1181,0.0,0.0,0.0,0.0,0.0,-0.0700666713742604,-0.18093102437150183,-0.4707242310693645,-0.33113190586767466,-0.0029674026216598374,-0.0036358900181594064,-0.6083926577761803
7031,6.0,300.30933,3737.9742,0.0,0.0,0.0,0.0,0.0,-0.07007663818384419,-0.23523252591314278,-0.5049333175005385,-0.3960849863030446,-0.015069837716277186,-0.008783191913533552,-0.5818587787324905
7032,6.0,300.33173999999997,3528.3038,0.0,0.0,0.0,0.0,0.0,-0.070086604993428,-0.22700795458644077,-0.4618898858324826,-0.3836184029026886,-0.011426401112697989,0.016584665867529085,-0.5647120032527355
7033,6.0,299.09661,3116.063,0.0,0.0,0.0,0.0,0.0,-0.07009657180301182,-0.17418426818314883,-0.4384025661294646,-0.3346185197267767,-0.002061831319061908,-0.027351078421591273,-0.5870960759818715
7034,6.0,299.35474,3317.6878,0.0,0.0,0.0,0.0,0.0,-0.07010653861259566,-0.1915815900151308,-0.4522333388019556,-0.36467929945354466,-0.012466343260082289,0.003850309546020966,-0.6069218745935254
7035,6.0,299.18466,3526.1821,0.0,0.0,0.0,0.0,0.0,-0.07011650542217948,-0.22869113525505777,-0.4809899339275106,-0.36219022018539165,0.004478220835640986,0.02155956579151348,-0.6055220493153735
7036,6.0,300.36502,3318.9896,0.0,0.0,0.0,0.0,0.0,-0.0701264722317633,-0.2117659271746698,-0.4381701164240236,-0.35895390949849265,0.019068926118206483,0.012032846496299487,-0.5819690102108694
7037,6.0,300.88621,3194.4169,0.0,0.0,0.0,0.0,0.0,-0.07013643904134714,-0.1962384570772278,-0.4376786191980166,-0.33710590686726266,0.009802068692663861,-0.0035935904741847668,-0.5914145175105684
7038,6.0,299.98532,3137.0633,0.0,0.0,0.0,0.0,0.0,-0.07014640585093093,-0.18290902028921482,-0.43570888126861856,-0.33497101930406564,-0.01127957408045729,-0.016936181578970984,-0.6053597063843514
7039,6.0,300.18675,3377.2854,0.0,0.0,0.0,0.0,0.0,-0.07015637266051475,-0.2135381522620748,-0.45368824435554356,-0.35938402403344166,0.005677121861363305,-0.013257449421408387,-0.6157962938718624
7040,6.0,300.70628999999997,3753.6001,0.0,0.0,0.0,0.0,0.0,-0.0701663394700986,-0.2205628125553548,-0.5095382048325056,-0.4108996754851406,-0.02794639021309397,0.012340213887634288,-0.5764164199278714
7041,6.0,300.40541,3591.9871,0.0,0.0,0.0,0.0,0.0,-0.07017630627968241,-0.22275605319181077,-0.4715785123611755,-0.3975398107966246,-0.010701713495426889,-0.018176655040396183,-0.5639378092488284
7042,6.0,300.24116000000004,3304.3317,0.0,0.0,0.0,0.0,0.0,-0.07018627308926623,-0.17373018015083383,-0.4752503787360605,-0.35545375861805467,-0.015987071223551086,0.024490711892795076,-0.5789399294344224
7043,6.0,300.82016,3316.5119,0.0,0.0,0.0,0.0,0.0,-0.07019623989885004,-0.1874831453481458,-0.46553533677726056,-0.35511833230495066,-0.016358201430428786,0.02531571126996618,-0.5907547701054564
7044,6.0,300.29302,3560.4541,0.0,0.0,0.0,0.0,0.0,-0.07020620670843389,-0.22128996135711876,-0.47356152386688355,-0.3874376465046186,-0.0035089020175766666,0.011601621439240888,-0.5900817896540385
7045,6.0,300.14252,3300.5866,0.0,0.0,0.0,0.0,0.0,-0.07021617351801768,-0.2010972040892488,-0.4459063417325295,-0.35629234466581666,0.0037736777449329964,-0.0035789284412627367,-0.6000653124918355
7046,6.0,300.18415,3030.4591,0.0,0.0,0.0,0.0,0.0,-0.0702261403276015,-0.12658454465792188,-0.4390832270166406,-0.3555161140292087,-0.004715141203173206,0.013633442215515988,-0.6242092587896574
7047,6.0,300.29811,3276.1079,0.0,0.0,0.0,0.0,0.0,-0.07023610713718531,-0.18067796515902684,-0.46487604533469357,-0.35030099682451665,0.003279578391344187,0.0005110791555845855,-0.6133708061799854
7048,6.0,298.97246,3417.0708,0.0,0.0,0.0,0.0,0.0,-0.07024607394676916,-0.2064769744351908,-0.44955332268495857,-0.38267390182197364,-0.021135452736906778,0.0005062334592338525,-0.5839105696549864
7049,6.0,299.00582,3527.9776,0.0,0.0,0.0,0.0,0.0,-0.07025604075635297,-0.24012197440319374,-0.46676485497860454,-0.36553028768253065,0.017296498380781483,-0.021051870749407876,-0.5908177233341694
7050,6.0,299.90819,3704.9097,0.0,0.0,0.0,0.0,0.0,-0.07026600756593682,-0.25913125555426375,-0.4819072900380465,-0.38516149161247965,0.016157027715824484,-0.013521816504999387,-0.5826512315031994
7051,6.0,299.32545,3553.3799,0.0,0.0,0.0,0.0,0.0,-0.07027597437552058,-0.23092941485845875,-0.4803661670334496,-0.36884317981198766,0.020998578860398378,0.0072908494032008124,-0.5841733560684215
7052,6.0,299.28052,3220.6218,0.0,0.0,0.0,0.0,0.0,-0.07028594118510442,-0.15805411692622684,-0.45349727710919663,-0.3674372142382296,-0.014509831611258885,-0.011941911352824887,-0.5712862840090664
7053,6.0,300.02392000000003,3316.067,0.0,0.0,0.0,0.0,0.0,-0.07029590799468824,-0.18008173840268382,-0.4705093105906536,-0.3574105168136717,-0.007384759651619033,-0.009173963162999671,-0.5647472339587124
7054,6.0,300.58252000000005,3508.1414,0.0,0.0,0.0,0.0,0.0,-0.07030587480427208,-0.22072418276628078,-0.47009665435492753,-0.37556654005553164,0.02018535851563978,0.01095586296500949,-0.5862176996026824
7055,6.0,301.72573,3309.9099,0.0,0.0,0.0,0.0,0.0,-0.0703158416138559,-0.21159021947482878,-0.4431746903904366,-0.35136505128453066,0.018337259234246582,0.01910497755676448,-0.5996768830660004
7056,6.0,300.62982,3085.1555,0.0,0.0,0.0,0.0,0.0,-0.07032580842343972,-0.18057184747605382,-0.4572686041138976,-0.29996978407721275,-0.01157456867482099,0.008553405130680362,-0.6238298878197164
7057,6.0,299.66008,3390.7186,0.0,0.0,0.0,0.0,0.0,-0.0703357752330235,-0.19947007641616382,-0.4594057816223206,-0.3718179301180726,-0.023487439266529776,-0.007764605227906873,-0.6087636795652974
7058,6.0,299.84488999999996,3716.0791,0.0,0.0,0.0,0.0,0.0,-0.07034574204260735,-0.20903682922282882,-0.5137861444192445,-0.4067722822627986,0.018863771343959283,0.004246128604835266,-0.6499623273062874
7059,6.0,299.71246,3478.7902,0.0,0.0,0.0,0.0,0.0,-0.07035570885219117,-0.2234062557809808,-0.4597119655375385,-0.3743471340901856,0.007665577762508623,0.009560147023963052,-0.5935592943947414
7060,6.0,299.55007,3138.2206,0.0,0.0,0.0,0.0,0.0,-0.07036567566177501,-0.18081568611261883,-0.4498193616312146,-0.32330566342028466,0.015685969770834685,-0.008027213005349242,-0.5945450651520294
7061,6.0,299.85502,2999.5665,0.0,0.0,0.0,0.0,0.0,-0.0703756424713588,-0.18840346014897383,-0.42438921592145457,-0.2990006508865667,-0.024809656679772477,-0.03342716639525447,-0.5633540353362145
7062,6.0,298.92595,3291.1841,0.0,0.0,0.0,0.0,0.0,-0.07038560928094265,-0.20775589871141079,-0.4613345538501756,-0.3313473431039367,0.01822713516037818,-0.006462875731686174,-0.5969951038938295
7063,6.0,300.15021,3749.2403,0.0,0.0,0.0,0.0,0.0,-0.07039557609052646,-0.24297771848503377,-0.4995274154345175,-0.39717030888265764,0.004399709759592546,0.0023388582533773374,-0.5906366454087985
7064,6.0,301.00077999999996,3516.8996,0.0,0.0,0.0,0.0,0.0,-0.07040554290011031,-0.18229090733071185,-0.49276394061951456,-0.39399482359926163,0.004750566351844396,0.0077083812970830026,-0.6051383619000064
7065,6.0,300.66958999999997,3151.7146,0.0,0.0,0.0,0.0,0.0,-0.0704155097096941,-0.14906391355896287,-0.4738855612488636,-0.33509308554361267,-0.0037999915460549664,-0.016908274644716784,-0.5866122895891254
7066,6.0,301.11324,3343.33,0.0,0.0,0.0,0.0,0.0,-0.07042547651927791,-0.20975624692632977,-0.45581100331504354,-0.35072158680852566,-0.005416693990186075,0.01863756528563448,-0.6235177257289084
7067,6.0,301.10553,3738.9554,0.0,0.0,0.0,0.0,0.0,-0.07043544332886173,-0.2834286889772337,-0.4929516654655415,-0.36016873557338663,0.019211117531239684,0.012254919507466388,-0.6024528742324694
7068,6.0,299.46811,3423.5974,0.0,0.0,0.0,0.0,0.0,-0.07044541013844557,-0.24119297975889378,-0.4532575826655406,-0.3462375700809877,-0.008079523358986871,-0.012131486393534488,-0.5948486044844864
7069,6.0,299.67147,3075.9744,0.0,0.0,0.0,0.0,0.0,-0.07045537694802939,-0.15493326608822286,-0.4553072964253316,-0.3247788480056767,-0.015142822120980184,-0.003239158628955067,-0.6049190540483624
7070,6.0,299.05156,3052.8315,0.0,0.0,0.0,0.0,0.0,-0.07046534375761324,-0.14825899781202384,-0.4320933110692896,-0.34763224804863163,-0.0013058565652030087,-0.01155129533327409,-0.6055608365292013
7071,6.0,299.63088999999997,3481.6536,0.0,0.0,0.0,0.0,0.0,-0.070475310567197,-0.2122233487998138,-0.4677788548836786,-0.37833356395861567,0.013554968021771186,0.00930965336074125,-0.5810868240113045
7072,6.0,299.87527,3680.4573,0.0,0.0,0.0,0.0,0.0,-0.07048527737678084,-0.21544767273802978,-0.5041281484410746,-0.3991913071346146,0.01761628517859198,-0.01128927291041449,-0.5870984368546045
7073,6.0,299.60107,3396.8469,0.0,0.0,0.0,0.0,0.0,-0.07049524418636466,-0.2104032679101858,-0.4650850585653215,-0.35706832198989963,0.024511615242358075,-0.007747016624721013,-0.5694353192563905
7074,6.0,299.77746,3128.4435,0.0,0.0,0.0,0.0,0.0,-0.0705052109959485,-0.15677169693716186,-0.4636330610395206,-0.3305639487891217,-0.0007800791631378193,-0.009671161136719291,-0.6209732824752914
7075,6.0,300.6544,3165.58,0.0,0.0,0.0,0.0,0.0,-0.07051517780553232,-0.16478809603081884,-0.45613750289476657,-0.3413316866743147,9.637327905280211e-05,0.011227768629344489,-0.6118083542607835
7076,6.0,299.59689,3416.8557,0.0,0.0,0.0,0.0,0.0,-0.07052514461511614,-0.17355701570874382,-0.46615021746794455,-0.3989315908689826,-0.03384567516355807,0.012964918038037789,-0.6104261899318744
7077,6.0,299.26264,3310.1992,0.0,0.0,0.0,0.0,0.0,-0.07053511142469993,-0.1996316695421118,-0.46138743537289456,-0.34519880634346967,-0.02291339458137598,0.025904358915561178,-0.6026170511461724
7078,6.0,298.97253,3124.8198,0.0,0.0,0.0,0.0,0.0,-0.07054507823428377,-0.17468275683484583,-0.4226968957369356,-0.3524875601428136,-0.021089472460618878,0.02058589324041948,-0.5925461962822565
7079,6.0,299.88116,3249.6609999999996,0.0,0.0,0.0,0.0,0.0,-0.07055504504386759,-0.23394190873076878,-0.4277990659529806,-0.32607482528107967,-0.010383855925806791,0.015737552306925487,-0.5928994456646194
7080,6.0,299.81105,3592.9872,0.0,0.0,0.0,0.0,0.0,-0.07056501185345143,-0.24573765976991876,-0.45148420247302157,-0.3949565195341736,-0.00862566597348695,-0.009186457347332751,-0.5685174362558024
7081,6.0,300.59459,3714.2535,0.0,0.0,0.0,0.0,0.0,-0.07057497866303522,-0.23086525586212678,-0.48365452837798556,-0.41452053484999163,0.012790383681812588,-0.00987635644097049,-0.5903246353055054
7082,6.0,299.87812,3519.9743,0.0,0.0,0.0,0.0,0.0,-0.07058494547261907,-0.2075921878927538,-0.47016850391951853,-0.39222360162945563,0.014136186517632985,-0.026227098324163076,-0.5766813139015144
7083,6.0,300.45621,3321.8599,0.0,0.0,0.0,0.0,0.0,-0.07059491228220288,-0.1952162397138428,-0.4450482506203426,-0.36949795215910863,0.03688914105167476,-0.00918000010709547,-0.5825534224710465
7084,6.0,301.14929,3200.0533,0.0,0.0,0.0,0.0,0.0,-0.07060487909178673,-0.2001603935767928,-0.4440638578831905,-0.3285120565416157,0.007749061160772793,-0.006792816916698833,-0.5554988240684654
7085,6.0,300.30055,3371.2265,0.0,0.0,0.0,0.0,0.0,-0.07061484590137052,-0.18683143301632682,-0.48751754438423556,-0.35041970920623267,-0.004394143368843186,0.012133431833726487,-0.5991258979266224
7086,6.0,299.15063,3545.703,0.0,0.0,0.0,0.0,0.0,-0.07062481271095433,-0.2019721759481018,-0.4729308466071406,-0.4029021532408466,-0.016028915412930785,0.015532134087652286,-0.5922685556223555
7087,6.0,299.71632999999997,3287.4708,0.0,0.0,0.0,0.0,0.0,-0.07063477952053815,-0.15413629422206784,-0.48223325259521654,-0.36293948823683864,-0.025358980088986478,0.018042327461389084,-0.6228647772319674
7088,6.0,298.81299,2996.4239,0.0,0.0,0.0,0.0,0.0,-0.070644746330122,-0.15736610997582584,-0.4292541032290816,-0.3242178519553107,0.013905331667849387,0.00895253842924675,-0.6273794346425294
7089,6.0,299.57013,3417.1486,0.0,0.0,0.0,0.0,0.0,-0.07065471313970581,-0.19085527207844882,-0.4639052706788856,-0.38396732570712466,-0.01764861292303248,0.011706733978114689,-0.5981266002804995
7090,6.0,299.90984,3723.6853,0.0,0.0,0.0,0.0,0.0,-0.07066467994928965,-0.2377279785244248,-0.5172011113637754,-0.37697827102235865,0.016031630923198786,-0.03948353044247106,-0.6209223159952615
7091,6.0,298.9903,3473.3909999999996,0.0,0.0,0.0,0.0,0.0,-0.07067464675887342,-0.22806874638113278,-0.4563840367765976,-0.37137133000399664,-0.0008083090303313902,-0.007147781224856083,-0.5764825040993935
7092,6.0,299.74865,3257.4361,0.0,0.0,0.0,0.0,0.0,-0.07068461356845726,-0.16936748999026985,-0.45806239437473856,-0.36274934172307266,0.01084976554703849,0.0007981331723596113,-0.6013414199327775
7093,6.0,300.14331,3221.3141,0.0,0.0,0.0,0.0,0.0,-0.07069458037804108,-0.18021846637117783,-0.4522936373154065,-0.34668696676533967,-0.00989721378897895,0.005744019470065584,-0.5684391829505796
7094,6.0,300.54802,3503.1090000000004,0.0,0.0,0.0,0.0,0.0,-0.07070454718762492,-0.2102291003504968,-0.4875865467160455,-0.36704201630172667,-0.02836690420334547,-0.0006520787737176644,-0.6046640899256994
7095,6.0,300.97472,3760.3033,0.0,0.0,0.0,0.0,0.0,-0.07071451399720874,-0.2504607224610487,-0.5149723360463125,-0.3776052499192366,-0.003708481585798637,-0.0062990559886434245,-0.5774856419633955
7096,6.0,300.53882999999996,3471.1176,0.0,0.0,0.0,0.0,0.0,-0.07072448080679256,-0.23185371173217975,-0.47690426634428656,-0.34637507825205865,0.02187901011079018,-0.02032068110624508,-0.6013551292066304
7097,6.0,299.6757,2940.7994,0.0,0.0,0.0,0.0,0.0,-0.07073444761637634,-0.16227995752828486,-0.42755271445616755,-0.30409691385452875,0.0074420195293451435,-0.003996079657082356,-0.6007209258365395
7098,6.0,299.9969,3101.1929999999998,0.0,0.0,0.0,0.0,0.0,-0.07074441442596019,-0.16202684765330486,-0.4476080243479726,-0.3330503632095117,0.01137484289460959,-0.03860793239505626,-0.6196376465909744
7099,6.0,299.4851,3620.6036,0.0,0.0,0.0,0.0,0.0,-0.070754381235544,-0.24046847553989076,-0.45749823698406056,-0.4026063855366566,-0.008213359005070423,-0.01814877141089428,-0.5967893229310204
7100,6.0,299.8928,3448.7632,0.0,0.0,0.0,0.0,0.0,-0.07076434804512785,-0.2297825981302768,-0.4473105746486166,-0.37124472440400164,0.01218345903091379,0.013470427499677686,-0.5703220752139064
7101,6.0,299.44588,3137.0703,0.0,0.0,0.0,0.0,0.0,-0.07077431485471164,-0.17678607152492684,-0.44721783186696357,-0.3295871452952187,0.0025358480556687177,0.017166937130244784,-0.6144643462179095
7102,6.0,299.43789,3262.637,0.0,0.0,0.0,0.0,0.0,-0.07078428166429548,-0.22074165119800476,-0.4423113303777296,-0.3287071983783747,-0.01212445545109059,-0.007288672941986014,-0.5847372094840694
7103,6.0,299.84199,3694.2861,0.0,0.0,0.0,0.0,0.0,-0.0707942484738793,-0.2264158010954998,-0.5231010336485525,-0.3734539135970316,-0.026161344472173678,-0.015641765721972085,-0.6186323505042594
7104,6.0,300.27907000000005,3689.7876,0.0,0.0,0.0,0.0,0.0,-0.07080421528346315,-0.2023708999949528,-0.5209253830338325,-0.39830700324234064,0.00041633206390877557,-0.0013319021590235088,-0.5970810781648144
7105,6.0,299.84436,3285.3136,0.0,0.0,0.0,0.0,0.0,-0.07081418209304693,-0.18578489765054182,-0.4759189616820445,-0.3369494306543197,0.009299108264300531,0.016218434724884885,-0.6174496748550384
7106,6.0,299.54874,2892.3866,0.0,0.0,0.0,0.0,0.0,-0.07082414890263075,-0.13224063843863487,-0.4424426881206936,-0.3045299668147677,0.006867464774091003,-0.015991013779690186,-0.6033022412612955
7107,6.0,299.6488,2898.4121,0.0,0.0,0.0,0.0,0.0,-0.07083411571221457,-0.15807754326853884,-0.40299578768258765,-0.3199715943637377,-0.017126705021774186,0.006945638032556102,-0.5856989358164845
7108,6.0,299.99767,3400.0159999999996,0.0,0.0,0.0,0.0,0.0,-0.07084408252179841,-0.23149493000427077,-0.4441499841416906,-0.35787505145451765,0.01079682424256359,-0.003159772408795257,-0.5881157602200064
7109,6.0,300.87416,3602.6432,0.0,0.0,0.0,0.0,0.0,-0.07085404933138223,-0.23203629940019976,-0.46616731099713155,-0.39690997453446464,0.005781419139206645,0.013708363954410187,-0.5929180286714535
7110,6.0,300.95971000000003,3304.9415,0.0,0.0,0.0,0.0,0.0,-0.07086401614096607,-0.16914452430576482,-0.4445000620512406,-0.39097510525373863,-0.015315953125816885,-0.014861738437239385,-0.6041911453090234
7111,6.0,300.2727,3524.2333,0.0,0.0,0.0,0.0,0.0,-0.07087398295054984,-0.2383789815811738,-0.4582907606822766,-0.37460916056604565,-0.018645382510155982,-0.006567840741345414,-0.5873235810268245
7112,6.0,299.75919,4043.8458,0.0,0.0,0.0,0.0,0.0,-0.07088394976013368,-0.2920246164655857,-0.5093524558241735,-0.4278510862131146,-0.027086535032482872,0.02171178736728658,-0.5748887123545985
7113,6.0,299.59806000000003,3613.7584,0.0,0.0,0.0,0.0,0.0,-0.0708939165697175,-0.25903010279678074,-0.4529007970403286,-0.38656140808314066,0.01114056528598819,0.02919577926214907,-0.5916399757903194
7114,6.0,299.76448999999997,3213.2385,0.0,0.0,0.0,0.0,0.0,-0.07090388337930134,-0.18801310554794884,-0.4567144171042036,-0.3320167569150027,0.011578643966723189,-0.018969250679369283,-0.6023495024572675
7115,6.0,298.40668,2985.7519,0.0,0.0,0.0,0.0,0.0,-0.07091385018888516,-0.15378316642971687,-0.4287562022624426,-0.3250546546828967,-0.015211457656253986,-0.028897592929970375,-0.6078779267253804
7116,6.0,299.17392,3123.9284,0.0,0.0,0.0,0.0,0.0,-0.07092381699846897,-0.17385156751281383,-0.44832670237890054,-0.3274179389511347,0.003116220487697017,-0.026599888234704577,-0.5739187584313714
7117,6.0,300.26153,3397.5917,0.0,0.0,0.0,0.0,0.0,-0.07093378380805276,-0.18729822720489583,-0.4705730946844486,-0.37491171704590565,6.569525776261715e-05,0.010545446012004491,-0.6102794003898874
7118,6.0,300.3817,3501.2626,0.0,0.0,0.0,0.0,0.0,-0.07094375061763661,-0.22432352069900777,-0.47040306118516756,-0.36956984225370365,0.004769406926853815,0.01092268409048499,-0.5870545225952705
7119,6.0,300.45172,3386.7455,0.0,0.0,0.0,0.0,0.0,-0.07095371742722043,-0.2059507531282568,-0.4701833784309865,-0.35335194353812166,-0.016685837876763983,-0.01027534697259779,-0.6157496438372585
7120,6.0,300.11591,3433.6594,0.0,0.0,0.0,0.0,0.0,-0.07096368423680427,-0.20821368510659077,-0.47703696157738257,-0.35849607244080767,-0.015351562787331284,0.02211083058791908,-0.6052550072515184
7121,6.0,300.0472,3869.2191,0.0,0.0,0.0,0.0,0.0,-0.07097365104638806,-0.2297619379607378,-0.5154593344418755,-0.43092472972895957,-0.01020833770373449,0.01719681179619318,-0.6263583521192564
7122,6.0,300.67307,3709.5435,0.0,0.0,0.0,0.0,0.0,-0.0709836178559719,-0.23925618259024678,-0.4885981148208795,-0.3997543094201786,0.01748412392829868,-0.02654117748416027,-0.6016132850671084
7123,6.0,299.28192,2974.1539,0.0,0.0,0.0,0.0,0.0,-0.07099358466555572,-0.13315269525114787,-0.4363099716254416,-0.3346058642330277,0.01192532140893759,-0.03686921447520817,-0.5982526992554444
7124,6.0,299.64218999999997,2948.9606,0.0,0.0,0.0,0.0,0.0,-0.07100355147513956,-0.15745979508007185,-0.43053606725560156,-0.3084145245181437,0.017645972393271883,-0.013941157151635087,-0.5838448097234964
7125,6.0,300.60944,3402.2918,0.0,0.0,0.0,0.0,0.0,-0.07101351828472335,-0.2074069556419728,-0.4645055301706266,-0.36229927629365466,0.014097302031795387,0.012816283367618687,-0.5787473815179194
7126,6.0,300.41629,3502.4171,0.0,0.0,0.0,0.0,0.0,-0.07102348509430717,-0.19160883631031983,-0.4999008386263715,-0.3731376782408216,0.004081596242997186,0.011425268299086189,-0.6135195816921685
7127,6.0,299.91669,3633.2314,0.0,0.0,0.0,0.0,0.0,-0.07103345190389099,-0.20762365944085984,-0.5162645035013395,-0.38052348113474366,-0.019109224087933585,-0.008207578919874973,-0.5852961587692334
7128,6.0,299.14875,3628.6943,0.0,0.0,0.0,0.0,0.0,-0.07104341871347483,-0.2395151794483078,-0.48737991462315255,-0.37613735449936664,-0.033487875274995964,0.024763157619433377,-0.6025852452255334
7129,6.0,298.27751,3442.3775,0.0,0.0,0.0,0.0,0.0,-0.07105338552305865,-0.2041242583654958,-0.48069679054107955,-0.3615757549272487,-0.013226644591868187,0.030775029854758974,-0.5922842812639074
7130,6.0,299.80802,3501.2887,0.0,0.0,0.0,0.0,0.0,-0.07106335233264247,-0.2400775028563048,-0.46410339147093854,-0.36012345342641766,-0.012562628364084887,0.012418925181902489,-0.6084960092863805
7131,6.0,298.84893,3531.2783,0.0,0.0,0.0,0.0,0.0,-0.07107331914222625,-0.2394102574004528,-0.4468813517737556,-0.3871288281391406,0.000993069177493297,-0.02669219734531477,-0.5730878933493715
7132,6.0,298.92478,3270.9502,0.0,0.0,0.0,0.0,0.0,-0.0710832859518101,-0.18482312065562184,-0.4590941666865665,-0.35036989783131667,0.02160348714359818,0.008762422819608802,-0.6061681786391414
7133,6.0,299.72322,3157.7714,0.0,0.0,0.0,0.0,0.0,-0.07109325276139392,-0.16103286957020685,-0.4428777371836296,-0.3559730391618037,0.016372566277096486,-0.006507388112554204,-0.5951784781870425
7134,6.0,299.54947999999996,3499.3263,0.0,0.0,0.0,0.0,0.0,-0.07110321957097773,-0.2077474279405748,-0.49391082827520355,-0.3620495506740087,0.008414012719723403,-0.017794848217214783,-0.6028585491750064
7135,6.0,299.6548,3674.1018,0.0,0.0,0.0,0.0,0.0,-0.07111318638056158,-0.24666439857638078,-0.47564173645468455,-0.3945290597144866,0.0018061793009060182,-0.04473056299881286,-0.5827182579973145
7136,6.0,299.9972,3487.1593,0.0,0.0,0.0,0.0,0.0,-0.0711231531901454,-0.2371453191869208,-0.4889588014589766,-0.3339052321863807,-0.01920357692399548,0.007515896911361273,-0.5916754902063244
7137,6.0,300.16085,3252.2415,0.0,0.0,0.0,0.0,0.0,-0.07113311999972921,-0.1780493714846048,-0.4835594753861045,-0.32699136065903467,-0.01977134655127998,0.02394183532687518,-0.6257285057245954
7138,6.0,301.36857000000003,3220.7463,0.0,0.0,0.0,0.0,0.0,-0.071143086809313,-0.17592913551785383,-0.45974189694549256,-0.3433554105690407,-0.04362650238510055,0.01912362034535438,-0.6075979859877525
7139,6.0,300.94757999999996,3298.8203,0.0,0.0,0.0,0.0,0.0,-0.07115305361889684,-0.17959941109008182,-0.47273930180823653,-0.3504202867587897,-0.004918455104638725,-0.002297171421738168,-0.6076673328245965
7140,6.0,300.24408,3421.8973,0.0,0.0,0.0,0.0,0.0,-0.07116302042848066,-0.2288152279948048,-0.44698355831134257,-0.3643725582507717,0.007699170651023983,0.030264343698358176,-0.5959442926126225
7141,6.0,300.11661000000004,3444.0418,0.0,0.0,0.0,0.0,0.0,-0.07117298723806448,-0.2118149684795098,-0.4629834157379056,-0.37210433539133864,0.036321008680854465,0.02087458035291068,-0.6019742655477345
7142,6.0,299.81548,3336.4286,0.0,0.0,0.0,0.0,0.0,-0.07118295404764832,-0.20805023773295983,-0.4525495741581656,-0.35359117188673167,0.004853097433438426,0.003065928325608567,-0.6035689894826214
7143,6.0,299.27051,3504.9109999999996,0.0,0.0,0.0,0.0,0.0,-0.07119292085723214,-0.2098406303946578,-0.44259335841056363,-0.4129714476996086,-0.007359006279127373,-0.025139885019863476,-0.5817784381320614
7144,6.0,299.94863,3770.7328,0.0,0.0,0.0,0.0,0.0,-0.07120288766681593,-0.23905521456541276,-0.5083436032296075,-0.3988097982069626,-0.024347151578876777,0.005384214562205605,-0.6063445652165494
7145,6.0,299.72407000000004,3444.1727,0.0,0.0,0.0,0.0,0.0,-0.07121285447639977,-0.2001401488397948,-0.47872352650133354,-0.36807882446655166,-0.0008151319525297602,-0.004357492998151076,-0.5999045097009654
7146,6.0,299.44457,3122.7345,0.0,0.0,0.0,0.0,0.0,-0.07122282128598359,-0.17768604026374685,-0.4436555788878966,-0.3278916840353897,-0.01067393017768489,-0.0022444225334572582,-0.6186509943060994
7147,6.0,299.77043,3273.0084,0.0,0.0,0.0,0.0,0.0,-0.0712327880955674,-0.2131344531572328,-0.45510556846292255,-0.3266727948275947,0.001862667791330998,-0.046308330193276355,-0.5737358769208225
7148,6.0,300.53019,3426.6292,0.0,0.0,0.0,0.0,0.0,-0.07124275490515122,-0.22552303656489076,-0.4564688052799636,-0.3596178618915197,0.01982721209554348,-0.015762063840094584,-0.5669098643096474
7149,6.0,300.4053,3367.6295,0.0,0.0,0.0,0.0,0.0,-0.07125272171473507,-0.17095525289696986,-0.4784602841253535,-0.37425974126906064,0.03527281766440607,-0.009895802432914661,-0.6101113832583055
7150,6.0,300.50195,3354.7626,0.0,0.0,0.0,0.0,0.0,-0.07126268852431888,-0.17145401512619385,-0.47812807994756756,-0.37018196690411564,0.013798180469774386,-0.005107775515598195,-0.6152026407707735
7151,6.0,300.12393,3381.5437,0.0,0.0,0.0,0.0,0.0,-0.07127265533390267,-0.2107179327287408,-0.42039831762008356,-0.39678858717248466,-0.013619487735138788,-0.012493281527240887,-0.6025793987724565
7152,6.0,299.85837999999995,3520.2822,0.0,0.0,0.0,0.0,0.0,-0.07128262214348649,-0.2212416597248518,-0.4713177119179366,-0.3775185157106766,-0.03403404241014847,0.03237029993144987,-0.6167524675937295
7153,6.0,300.20474,3569.3467,0.0,0.0,0.0,0.0,0.0,-0.07129258895307033,-0.24568168783439476,-0.46100050555720756,-0.37831006668879663,0.00013762603232263186,0.018817630974155584,-0.6277252872991624
7154,6.0,299.81507,3312.7101,0.0,0.0,0.0,0.0,0.0,-0.07130255576265415,-0.19378954304303883,-0.4567723344799196,-0.35641929477084566,-0.012010698875613688,0.006237952346662964,-0.6174371916138064
7155,6.0,299.33584,3106.3099,0.0,0.0,0.0,0.0,0.0,-0.071312522572238,-0.15466826065706885,-0.4483622370599075,-0.3412101371923187,0.0047520310048639455,-0.046539953086635756,-0.6114775078381314
7156,6.0,299.38586000000004,3283.9659,0.0,0.0,0.0,0.0,0.0,-0.07132248938182179,-0.18979274762608583,-0.4481107483850875,-0.36034014709280365,0.006406622213959384,-0.02873864641328357,-0.5979876836917895
7157,6.0,299.42402999999996,3665.4515,0.0,0.0,0.0,0.0,0.0,-0.07133245619140563,-0.22914488891483978,-0.5098089553917265,-0.3752518955019786,0.01802672239659898,-0.03437223185627517,-0.5903088691339495
7158,6.0,299.84042,3397.0415,0.0,0.0,0.0,0.0,0.0,-0.07134242300098942,-0.2043306371458638,-0.47503027041683754,-0.3532548741785417,0.007899700546514742,0.0057380702734284444,-0.6061092581458264
7159,6.0,300.3996,3262.8638,0.0,0.0,0.0,0.0,0.0,-0.07135238981057326,-0.1971488521595768,-0.4467103151568756,-0.34796996430696164,-0.0013203549582338889,-0.00043416156730591055,-0.5598809382334464
7160,6.0,300.72656,3568.2741,0.0,0.0,0.0,0.0,0.0,-0.07136235662015708,-0.2265946600031518,-0.4782287463450025,-0.3798428303800686,0.009590777473161042,0.04186615461536776,-0.5967985232419284
7161,6.0,300.92659,3713.3645,0.0,0.0,0.0,0.0,0.0,-0.0713723234297409,-0.2124790627275508,-0.4894896735838695,-0.42680133884451255,-0.006963216199265933,0.024154641152627478,-0.5994289508990314
7162,6.0,299.6617,3353.4476,0.0,0.0,0.0,0.0,0.0,-0.07138229023932471,-0.17765535905071883,-0.4798572216407206,-0.36185175412198767,-0.004600151502324606,0.016610145054543685,-0.6367922747590044
7163,6.0,300.01524,3203.9944,0.0,0.0,0.0,0.0,0.0,-0.07139225704890856,-0.1852881517890168,-0.4431290029434276,-0.3455171492598877,-0.009818938090928741,-0.027343885359131372,-0.6074851909866203
7164,6.0,299.76171,3304.9589,0.0,0.0,0.0,0.0,0.0,-0.07140222385849235,-0.21349275865759482,-0.4502480373510216,-0.3408841746351487,-0.008671500240435441,0.006923595181930644,-0.6102979226017153
7165,6.0,299.16181,3355.8291,0.0,0.0,0.0,0.0,0.0,-0.07141219066807619,-0.2267326342692688,-0.46588095638637056,-0.3274746708242337,0.0007088767613856894,0.014794451537848686,-0.6259729928412244
7166,6.0,299.21404,3481.9077,0.0,0.0,0.0,0.0,0.0,-0.07142215747765998,-0.1978746128087038,-0.5070307350750376,-0.35350764968098863,-0.024846455896904273,0.011204351406283388,-0.6080279080051824
7167,6.0,299.4116,3411.1757,0.0,0.0,0.0,0.0,0.0,-0.07143212428724383,-0.18302423695808584,-0.4835301316632085,-0.3703578671214756,-0.03008506834491507,-0.015738875611556086,-0.5799941958984705
7168,6.0,299.20525,3449.3115,0.0,0.0,0.0,0.0,0.0,-0.07144209109682764,-0.1874270619551108,-0.5002001324409094,-0.3608773925608257,0.0033100515841266564,-0.0073491408708537325,-0.5808451334649515
7169,6.0,300.97042999999996,3723.3903,0.0,0.0,0.0,0.0,0.0,-0.07145205790641149,-0.22567472010486078,-0.5179369335863956,-0.3882060143204506,0.015441555608212885,-0.007021182818936794,-0.5917840903520425
7170,6.0,300.66003,3659.9267,0.0,0.0,0.0,0.0,0.0,-0.0714620247159953,-0.2281746512815848,-0.48513152278375354,-0.3992201644974626,0.01918149415131608,-0.010758161658497889,-0.5856455881987194
7171,6.0,300.19431000000003,3308.3993,0.0,0.0,0.0,0.0,0.0,-0.07147199152557909,-0.20206286183205183,-0.4556524803368986,-0.34795542416802666,0.03377929816275717,-0.012854316723372288,-0.6017489795205004
7172,6.0,299.41991,3330.1062,0.0,0.0,0.0,0.0,0.0,-0.07148195833516291,-0.18676144783191984,-0.44801311160545154,-0.37749457261081365,0.023796283976510374,0.03273902974884067,-0.6064937460287725
7173,6.0,299.42737999999997,3651.8615,0.0,0.0,0.0,0.0,0.0,-0.07149192514474675,-0.2330183920596248,-0.4901782986168316,-0.3868780284743886,0.015859124080423684,0.027217650608672973,-0.6211227469975423
7174,6.0,299.08176000000003,3473.2235,0.0,0.0,0.0,0.0,0.0,-0.07150189195433057,-0.21636624474868577,-0.47631560856619054,-0.36309136429432765,-0.036456708200496964,0.01898536844870998,-0.6323053398711784
7175,6.0,299.07392000000004,3217.9827,0.0,0.0,0.0,0.0,0.0,-0.07151185876391442,-0.1922829516018498,-0.45167427805928057,-0.3342291479783487,-0.03155258176949737,-0.00036091744633727865,-0.6049138155453454
7176,6.0,299.23393,3310.1068,0.0,0.0,0.0,0.0,0.0,-0.0715218255734982,-0.20837149880966582,-0.4483813064267896,-0.3494369984642467,-0.038324263910310366,0.0015956022200736785,-0.5814070515729084
7177,6.0,300.51706,3517.2113,0.0,0.0,0.0,0.0,0.0,-0.07153179238308205,-0.2326137708971918,-0.48943648808612056,-0.3470941311855237,-0.029247326334486373,0.017427284650689084,-0.6027588554976675
7178,6.0,300.2298,3536.3895,0.0,0.0,0.0,0.0,0.0,-0.07154175919266584,-0.18209324250120382,-0.5055187430108156,-0.3873621087096636,-0.023637431692082878,-8.915420038333451e-05,-0.5987105160481274
7179,6.0,300.81694,3521.5186,0.0,0.0,0.0,0.0,0.0,-0.07155172600224968,-0.20943914017503382,-0.4897777709848026,-0.37123682105322164,0.008767666895501352,0.004677989780306646,-0.5858476910636655
7180,6.0,300.81167999999997,3564.0139,0.0,0.0,0.0,0.0,0.0,-0.0715616928118335,-0.18067386149612183,-0.4876533401626375,-0.4150440102491546,0.011573619259477289,-0.013476799829556588,-0.5799750454715804
7181,6.0,299.1478,3504.9217,0.0,0.0,0.0,0.0,0.0,-0.07157165962141732,-0.2294917041590678,-0.46347189347861456,-0.37244507113496667,0.04086295798285996,-0.004072159236865826,-0.6066853313576804
7182,6.0,298.81622000000004,3647.5505,0.0,0.0,0.0,0.0,0.0,-0.07158162643100113,-0.22521794695978076,-0.4723798716002635,-0.4111664541039696,0.014209345201353186,-0.02428680544267108,-0.5855335024726575
7183,6.0,299.75672000000003,3362.9421,0.0,0.0,0.0,0.0,0.0,-0.07159159324058498,-0.19141761575144783,-0.45383004870703864,-0.37700276127727567,0.0028064853335285373,-0.01034865156433239,-0.6010703856635284
7184,6.0,300.02182,3157.5442,0.0,0.0,0.0,0.0,0.0,-0.07160156005016877,-0.14254934363102487,-0.4536616465404186,-0.36360361288238263,-0.013204162598649385,-0.002085888510886168,-0.6328888098087624
7185,6.0,299.87262999999996,3507.6457,0.0,0.0,0.0,0.0,0.0,-0.07161152685975261,-0.2370184501418998,-0.4813156837021595,-0.3479025629103097,-0.027842021399793575,0.03428994480240407,-0.6474062823390254
7186,6.0,300.05336,3541.8661,0.0,0.0,0.0,0.0,0.0,-0.0716214936693364,-0.2257750723947648,-0.4678994417780796,-0.38296432969813665,-0.016146228496258682,0.012712233728099789,-0.6201184844259295
7187,6.0,299.62248999999997,3218.3741,0.0,0.0,0.0,0.0,0.0,-0.07163146047892024,-0.18254637807842483,-0.45950863663997155,-0.3362503387478247,-0.013803096759259588,-0.00040682205310771065,-0.6081229002020574
7188,6.0,301.19639,3427.3382,0.0,0.0,0.0,0.0,0.0,-0.07164142728850406,-0.2042361313090368,-0.46432294250260653,-0.3732661482210007,-0.004996705876736476,-0.00959443854842236,-0.5710942021876094
7189,6.0,300.81652,3704.075,0.0,0.0,0.0,0.0,0.0,-0.0716513940980879,-0.23405928362235276,-0.4849388836747415,-0.4069481520826556,-0.008207724726564362,-0.015890378793008284,-0.5914062696547544
7190,6.0,299.09506,3496.2467,0.0,0.0,0.0,0.0,0.0,-0.07166136090767172,-0.19788361046959183,-0.4787313082621016,-0.38615676665570564,0.018401957279631783,0.0018137808044812282,-0.5882677173375034
7191,6.0,298.20256,3363.9781,0.0,0.0,0.0,0.0,0.0,-0.07167132771725551,-0.19266516980457182,-0.4662844123111886,-0.3636157617510817,0.005161182307169035,0.015648403523377184,-0.6125690416408573
7192,6.0,299.32069,3490.6936,0.0,0.0,0.0,0.0,0.0,-0.07168129452683933,-0.2011155540485598,-0.47113532689993654,-0.38883280069980963,0.027534870843980173,0.01753587567715618,-0.6026607728879874
7193,6.0,300.19871,3368.1042,0.0,0.0,0.0,0.0,0.0,-0.07169126133642317,-0.21336881790536283,-0.45786143648240557,-0.35258931071785565,-0.005271958002176745,0.017835229273450083,-0.6314170944360153
7194,6.0,300.9181,3137.8704,0.0,0.0,0.0,0.0,0.0,-0.07170122814600699,-0.19084772336520384,-0.4279795663257946,-0.3350069592851127,0.026330994962916875,-0.034761498226692764,-0.6064339541403714
7195,6.0,299.91626,3335.8595,0.0,0.0,0.0,0.0,0.0,-0.07171119495559083,-0.18822473296383482,-0.4660911956496196,-0.35970205284232865,-0.0032960060125654667,-0.01041435070081639,-0.6064907062784725
7196,6.0,299.83673,3551.7357,0.0,0.0,0.0,0.0,0.0,-0.07172116176517462,-0.22242663545179978,-0.47770315325313056,-0.3795091772546397,0.0036803422119714964,-0.023177675538708475,-0.5973849923998084
7197,6.0,300.57137,3595.9129,0.0,0.0,0.0,0.0,0.0,-0.07173112857475847,-0.23582379787649677,-0.5080820732462965,-0.34916186053209264,-0.025334724908092677,0.009627992832108911,-0.6476470001652824
7198,6.0,300.47418999999996,3683.0417,0.0,0.0,0.0,0.0,0.0,-0.07174109538434226,-0.24053263453622278,-0.5021721400505316,-0.3768479366619956,-0.023315503896811078,0.0078108477333206534,-0.6215307524153094
7199,6.0,300.47519,3490.3215,0.0,0.0,0.0,0.0,0.0,-0.0717510621939261,-0.2217104905461218,-0.4749863865550065,-0.3642737157035167,-0.03211080252783947,0.032964972362139466,-0.6087766187690744
7200,6.0,299.80973,3274.7340000000004,0.0,0.0,0.0,0.0,0.0,-0.07176102900350992,-0.17636152986552783,-0.46927092645093454,-0.34980491970805766,-0.0033657958423531868,0.017304466579567884,-0.5823891746298364
7201,6.0,299.50035,3375.7566,0.0,0.0,0.0,0.0,0.0,-0.07177099581309374,-0.17878049222676082,-0.4791251079134666,-0.36824009335246766,-0.016038174492344584,0.009365855405362961,-0.6033781742237894
7202,6.0,299.65957000000003,3402.5215,0.0,0.0,0.0,0.0,0.0,-0.07178096262267755,-0.2119113285640198,-0.4469320244112565,-0.37543822206286764,0.022457135154096683,-0.02899251926558887,-0.5862548960138535
7203,6.0,300.23073,3208.4818,0.0,0.0,0.0,0.0,0.0,-0.0717909294322614,-0.18393945511091084,-0.44742048188696354,-0.3439384144115787,0.013372832263295787,-0.011144790538905188,-0.6124392949655524
7204,6.0,300.025,3379.7044,0.0,0.0,0.0,0.0,0.0,-0.07180089624184519,-0.2008315400455298,-0.4597447036482696,-0.36676950268733166,0.03462240533246536,0.0034759017790447965,-0.6165475478935054
7205,6.0,300.50349,3707.7322,0.0,0.0,0.0,0.0,0.0,-0.07181086305142903,-0.26629499455626976,-0.49911288468610654,-0.3616501376170897,0.014317682915295286,0.012309051380808789,-0.6273118508608594
7206,6.0,299.78185,3652.2659,0.0,0.0,0.0,0.0,0.0,-0.07182082986101282,-0.23312255416990477,-0.48837471343883154,-0.38870037904424065,0.017781725615169684,-0.004150595028431837,-0.5857589911499115
7207,6.0,299.83922,3479.1538,0.0,0.0,0.0,0.0,0.0,-0.07183079667059666,-0.2161619735285258,-0.4752804621315296,-0.36613345520205864,0.004398961981018746,-0.017689906917607884,-0.5834395096834964
7208,6.0,300.27,3606.9279,0.0,0.0,0.0,0.0,0.0,-0.07184076348018048,-0.2110660246680948,-0.5141932480444225,-0.37115675403031967,-0.004174541978645216,-0.02443288469633798,-0.5789261998955675
7209,6.0,300.06789,3560.1979,0.0,0.0,0.0,0.0,0.0,-0.07185073028976433,-0.2166072057549668,-0.49771096198024756,-0.36789310585572266,-0.017279442341848184,-0.0013745808611855688,-0.6156447116569025
7210,6.0,298.8508,3261.6008,0.0,0.0,0.0,0.0,0.0,-0.07186069709934814,-0.17762579241280083,-0.4663066328858816,-0.34751277572934064,-0.03762985423252746,0.01015245290771909,-0.6262734518933775
7211,6.0,299.57133,3265.1834,0.0,0.0,0.0,0.0,0.0,-0.07187066390893193,-0.19081189484166783,-0.4492853382985106,-0.3524369786978217,-0.01901580445521378,0.05985694311042035,-0.6116160292593024
7212,6.0,299.3902,3255.4414,0.0,0.0,0.0,0.0,0.0,-0.07188063071851575,-0.16562421988083786,-0.4484071949668446,-0.3755414925130596,-0.012796694203435387,0.04704027065476325,-0.6006685610713715
7213,6.0,299.41032,3316.7652,0.0,0.0,0.0,0.0,0.0,-0.07189059752809959,-0.17512513169600483,-0.4776352857614325,-0.35545340398051967,0.018698198171618483,0.033240587535090564,-0.6128049870591434
7214,6.0,299.78925,3520.0024,0.0,0.0,0.0,0.0,0.0,-0.07190056433768341,-0.1994549992546758,-0.4761322710930965,-0.3944055647922986,0.0035858026339161664,-0.03953768562056576,-0.6010731417038004
7215,6.0,299.98112000000003,3602.9562,0.0,0.0,0.0,0.0,0.0,-0.07191053114726725,-0.2376592295051398,-0.4681148688818406,-0.38943463072920564,0.02136740291004848,-0.04464057524418175,-0.5920562594614035
7216,6.0,300.70043,3579.5287,0.0,0.0,0.0,0.0,0.0,-0.07192049795685104,-0.2246097739847588,-0.4860275297146826,-0.37745004026891865,0.011727047616119488,-0.05727247749110345,-0.6179176646787253
7217,6.0,300.33423999999997,3641.2411,0.0,0.0,0.0,0.0,0.0,-0.07193046476643489,-0.25416926848955373,-0.4704516769249656,-0.3822254170627116,-0.0031503013574605367,0.0004665789033202526,-0.5960793487184514
7218,6.0,300.3947,3738.3536,0.0,0.0,0.0,0.0,0.0,-0.07194043157601868,-0.23223006321682277,-0.5174076725291614,-0.3867284220971236,-0.012644017678367387,-0.00027920705336309076,-0.5912942244586965
7219,6.0,299.91205,3359.9689,0.0,0.0,0.0,0.0,0.0,-0.07195039838560252,-0.2070250718117838,-0.45104732955990556,-0.36327424580487666,-0.02017904394101658,0.024862574679495077,-0.5653245332031874
7220,6.0,299.75937000000005,3367.4594,0.0,0.0,0.0,0.0,0.0,-0.07196036519518634,-0.19084818946024984,-0.44768394717796556,-0.3850914355005656,-0.013032164407424487,0.005582834886557905,-0.5914989111113974
7221,6.0,299.08853,3641.4824,0.0,0.0,0.0,0.0,0.0,-0.07197033200477015,-0.2107983341241758,-0.4955959645165135,-0.4005254130112806,-0.014657156149298686,-0.014654733468309587,-0.5972013205541814
7222,6.0,299.11957,3583.7346,0.0,0.0,0.0,0.0,0.0,-0.07198029881435397,-0.2170697645581178,-0.4726515340845746,-0.3996445339043446,0.010185902320020292,-0.012045802925328189,-0.6175185150668324
7223,6.0,299.90162000000004,3423.4769,0.0,0.0,0.0,0.0,0.0,-0.07199026562393782,-0.19350078702954082,-0.48708249532129955,-0.36006821103096565,0.012777215483512988,0.014417556951152086,-0.6180991681691383
7224,6.0,300.2367,3389.1343,0.0,0.0,0.0,0.0,0.0,-0.0720002324335216,-0.1977588996472838,-0.4647747304571946,-0.36767857041204965,0.016558288940925883,0.027653222508660574,-0.5935517152839934
7225,6.0,300.64948,3482.8423,0.0,0.0,0.0,0.0,0.0,-0.07201019924310545,-0.2066235511946568,-0.49279742853531955,-0.35927610276529065,-0.005834530669698345,0.008943066263336921,-0.6129432450352884
7226,6.0,301.05383,3481.4011,0.0,0.0,0.0,0.0,0.0,-0.07202016605268924,-0.2255174940868438,-0.47957215385758656,-0.35316934573760067,0.03205845802767347,0.007820651535988212,-0.5937643660824804
7227,6.0,300.10162,3492.567,0.0,0.0,0.0,0.0,0.0,-0.07203013286227308,-0.22973242198532476,-0.46030791871635457,-0.37161282803283063,0.012062148675941386,-0.0014578338463769986,-0.6150193742251864
7228,6.0,299.90209,3539.7313,0.0,0.0,0.0,0.0,0.0,-0.0720400996718569,-0.22233463234271977,-0.47984786934229756,-0.3738074061594186,0.024925948406999576,-0.006951563417815893,-0.5956634095524015
7229,6.0,299.64246,3444.0185,0.0,0.0,0.0,0.0,0.0,-0.07205006648144074,-0.19445082045580184,-0.4838238526021965,-0.36862094366755466,-0.03165527770688267,-0.038916555203264966,-0.6245058978889334
7230,6.0,299.71224,3478.2733,0.0,0.0,0.0,0.0,0.0,-0.07206003329102456,-0.19927799459470683,-0.47200815066857754,-0.38602207531991267,-0.02013498580016838,-0.002033366995927698,-0.6078827092658524
7231,6.0,300.54597,3548.1641,0.0,0.0,0.0,0.0,0.0,-0.07207000010060835,-0.21289971350656578,-0.48628679001776953,-0.37936677508558564,-0.02318118847680518,0.02230129526221648,-0.6024185250540794
7232,6.0,300.28761000000003,3368.2531,0.0,0.0,0.0,0.0,0.0,-0.07207996691019217,-0.1915084434904118,-0.4651426922310095,-0.36721370139867066,0.007092305275256033,0.037266203837887965,-0.5929326397378955
7233,6.0,298.4611,3385.0002,0.0,0.0,0.0,0.0,0.0,-0.07208993371977601,-0.20115508093496082,-0.47936485301962756,-0.3484356033904167,-0.017648336305755182,-0.004579810911867146,-0.6189931587323684
7234,6.0,299.19273,3739.4629,0.0,0.0,0.0,0.0,0.0,-0.07209990052935983,-0.24271524617912976,-0.49309756334744054,-0.40089053768481564,0.004987237763827045,-0.008494801784646663,-0.6154529135454735
7235,6.0,299.57982999999996,3502.4834,0.0,0.0,0.0,0.0,0.0,-0.07210986733894365,-0.22150702992604182,-0.47148740091218355,-0.3716730657512756,0.0016805014327025785,0.0011955520314917989,-0.6268055095208874
7236,6.0,299.92626,3347.6374,0.0,0.0,0.0,0.0,0.0,-0.07211983414852746,-0.18481367716468983,-0.47919689668305154,-0.35358761537888067,0.013602900831001788,0.021629832659448275,-0.6267323528636674
7237,6.0,300.5378,3621.4309999999996,0.0,0.0,0.0,0.0,0.0,-0.0721298009581113,-0.2565857585205427,-0.48154484034477557,-0.36269400813511166,-0.01982846548591718,-0.003577208043917947,-0.5938299132314495
7238,6.0,300.96116,3466.9887,0.0,0.0,0.0,0.0,0.0,-0.0721397677676951,-0.24420402468356076,-0.4555733556365896,-0.35410061377200963,-0.026672056973077073,0.02329429758546818,-0.5941081415764085
7239,6.0,300.58229,3273.6288,0.0,0.0,0.0,0.0,0.0,-0.07214973457727891,-0.19340299826238982,-0.45893095236045856,-0.34276745193351366,0.005451206403167184,0.012733391403437887,-0.5854644596108434
7240,6.0,301.0517,3474.3392,0.0,0.0,0.0,0.0,0.0,-0.07215970138686276,-0.18687009864014284,-0.4671788487044625,-0.4020634253380706,0.004730991271837485,0.004282840074508406,-0.5828737310926585
7241,6.0,300.15337999999997,3680.353,0.0,0.0,0.0,0.0,0.0,-0.07216966819644657,-0.18280159551361283,-0.5217215341674065,-0.4142123041695716,0.016465912955809084,-0.04106977752702146,-0.6246714021602674
7242,6.0,299.76656,3473.0173,0.0,0.0,0.0,0.0,0.0,-0.07217963500603039,-0.19531373463846483,-0.4791646347998675,-0.3812321887846876,-0.007740882307290603,-0.028952947796183473,-0.6259087629173854
7243,6.0,299.57956,3319.0714,0.0,0.0,0.0,0.0,0.0,-0.07218960181561423,-0.1952925881088778,-0.4689351758977986,-0.3446870542479637,0.01979854725021448,0.012035035116515488,-0.6379355045818323
7244,6.0,300.02629,3386.6932,0.0,0.0,0.0,0.0,0.0,-0.07219956862519805,-0.2290536660083368,-0.47108153345212755,-0.3293349676103307,0.0017723888286211582,0.03972186409124276,-0.6008100107853314
7245,6.0,299.94176,3417.4945,0.0,0.0,0.0,0.0,0.0,-0.07220953543478184,-0.21581025415381383,-0.47364242175486754,-0.34938032738615366,0.00879245869364811,0.013238921130079788,-0.6307581576309834
7246,6.0,299.43388999999996,3440.5242,0.0,0.0,0.0,0.0,0.0,-0.07221950224436566,-0.20408032384115982,-0.48447879720183457,-0.3572743360002317,-0.008068264630500721,-0.00016871081273296082,-0.5871799021626445
7247,6.0,299.61222999999995,3516.8584,0.0,0.0,0.0,0.0,0.0,-0.0722294690539495,-0.17894325059032384,-0.4968683938595926,-0.39322549319583466,0.023868970485683975,-0.007295519878211753,-0.6261978735684184
7248,6.0,299.5046,3501.3197,0.0,0.0,0.0,0.0,0.0,-0.07223943586353332,-0.20215753992139582,-0.4779299084930095,-0.3842263023001836,0.0073754366361239235,-0.02891491849343027,-0.5959674048474034
7249,6.0,299.8076,3591.8492,0.0,0.0,0.0,0.0,0.0,-0.07224940267311714,-0.2376273121269898,-0.49679371732722255,-0.35741141860626063,0.010767854408954489,-0.04025701618455817,-0.6235969922842314
7250,6.0,300.22218,3800.4009,0.0,0.0,0.0,0.0,0.0,-0.07225936948270098,-0.2945565359479667,-0.4799381904562115,-0.38073224105284664,-0.014892788473303786,-0.002273888150340288,-0.5954136738002545
7251,6.0,300.46644,3514.3669,0.0,0.0,0.0,0.0,0.0,-0.07226933629228477,-0.21545837265908582,-0.46546810763312557,-0.3873532934337936,0.012955849449642788,0.04344374449106376,-0.5960212996202224
7252,6.0,300.42276,3269.1475,0.0,0.0,0.0,0.0,0.0,-0.07227930310186859,-0.15034715428060885,-0.4744491410869846,-0.36894291401933066,-0.015817681138083586,0.04668883499007925,-0.6214446058918074
7253,6.0,300.21689,3372.1821,0.0,0.0,0.0,0.0,0.0,-0.0722892699114524,-0.16604141547701184,-0.45513154819548657,-0.4038861913404636,-0.024523087259990275,-0.014449511819555786,-0.5906105238212204
7254,6.0,300.03226,3395.5241,0.0,0.0,0.0,0.0,0.0,-0.07229923672103625,-0.21574193069957082,-0.4588022493327566,-0.35761037026339565,-0.015804652768297785,-0.012617981203797788,-0.6057132293442414
7255,6.0,300.11216,3405.8029,0.0,0.0,0.0,0.0,0.0,-0.07230920353062006,-0.21816158207087177,-0.46893254144753854,-0.3481849151831757,0.008470916642689381,0.0003897019058405837,-0.5789871570215834
7256,6.0,299.69124,3569.8984,0.0,0.0,0.0,0.0,0.0,-0.07231917034020388,-0.2640661989738048,-0.47780824755350254,-0.3432855267096437,0.011436419116436688,0.006754111573478914,-0.5941207261426504
7257,6.0,298.40425,3661.3454,0.0,0.0,0.0,0.0,0.0,-0.07232913714978767,-0.22304003679733778,-0.5095219624334025,-0.38039558870712165,0.004763146865085995,-0.031649807169592765,-0.6034871087420404
7258,6.0,300.03654,3746.1236,0.0,0.0,0.0,0.0,0.0,-0.07233910395937151,-0.21806460390380078,-0.5054090080249856,-0.41525442176492067,0.016364728787572985,0.005969180563562254,-0.6020751244626884
7259,6.0,300.41163,3833.8889,0.0,0.0,0.0,0.0,0.0,-0.07234907076895533,-0.1990824778554108,-0.5378154414682516,-0.4285085639380026,0.012254099788135488,-0.007660887630445742,-0.6130258857134444
7260,6.0,299.97927000000004,3567.4595,0.0,0.0,0.0,0.0,0.0,-0.07235903757853918,-0.20382086088805282,-0.49343065918531454,-0.38716707833041564,0.0026184690767727774,0.002482296875958628,-0.6061547226778135
7261,6.0,300.59771,3273.0671,0.0,0.0,0.0,0.0,0.0,-0.07236900438812296,-0.18875478435614682,-0.4450223316827846,-0.3611535538755807,-0.03097197122369557,-0.040806001168238765,-0.6290689785217743
7262,6.0,300.4068,3258.9076,0.0,0.0,0.0,0.0,0.0,-0.07237897119770681,-0.20830875836347382,-0.4421017395945446,-0.3402160172542067,-0.006589925641850024,0.025143098035930577,-0.6138499214897705
7263,6.0,299.47218,3278.8374,0.0,0.0,0.0,0.0,0.0,-0.07238893800729063,-0.1868005390207778,-0.4411674216773346,-0.3687167261995077,-0.015022298048085385,0.05129049816022804,-0.6231176337944224
7264,6.0,300.85469,3261.0609,0.0,0.0,0.0,0.0,0.0,-0.07239890481687447,-0.15325219297981385,-0.47522969830151957,-0.3627991936279927,0.017848895990798884,0.047586823838203854,-0.6194767728725974
7265,6.0,299.1689,3207.1452,0.0,0.0,0.0,0.0,0.0,-0.07240887162645826,-0.15330519609254487,-0.47793138783815553,-0.3436554643211537,-0.012283361437773387,-0.030415619911787973,-0.6302337399092274
7266,6.0,299.50981,3564.2316,0.0,0.0,0.0,0.0,0.0,-0.07241883843604208,-0.2165013211195168,-0.49283935682445756,-0.3740967194604716,-0.004361470106118586,-0.02706893994449637,-0.5860515772487875
7267,6.0,300.52927,3928.8324,0.0,0.0,0.0,0.0,0.0,-0.0724288052456259,-0.27629774888096476,-0.5223766712845636,-0.3955925366219436,0.02964442512817697,-0.05007610474312675,-0.5798107469678655
7268,6.0,300.67532,3795.4339,0.0,0.0,0.0,0.0,0.0,-0.07243877205520974,-0.27489148946467773,-0.49783419345740954,-0.38099145069342866,0.018734768394227684,-0.015453327547874686,-0.5957362824995934
7269,6.0,300.61025,3670.8798,0.0,0.0,0.0,0.0,0.0,-0.07244873886479355,-0.2156463001551328,-0.5091952804686616,-0.3910142268400997,0.011856129599358887,-0.03004030396874717,-0.5896838458097644
7270,6.0,300.61806,3470.8579,0.0,0.0,0.0,0.0,0.0,-0.0724587056743774,-0.1991830733253388,-0.46302936662994054,-0.39284170445545763,0.008144609479160373,0.015389818044856786,-0.6296055653772314
7271,6.0,298.62681000000003,3378.7587,0.0,0.0,0.0,0.0,0.0,-0.07246867248396116,-0.18768743683330782,-0.4585780474831296,-0.3807927827463216,0.003242378636447857,0.045074607004017365,-0.6167450303379954
7272,6.0,299.41681,3449.2774,0.0,0.0,0.0,0.0,0.0,-0.072478639293545,-0.18850232296123082,-0.48465319780904653,-0.37533868037304363,0.023106159333400378,0.011226833399502189,-0.6495556593786525
7273,6.0,298.95911,3287.6978,0.0,0.0,0.0,0.0,0.0,-0.07248860610312882,-0.20944017369013582,-0.4416146196089696,-0.3483232440868277,0.005281687938912015,-0.03230002698401447,-0.6165187817231664
7274,6.0,300.32787,3235.1125,0.0,0.0,0.0,0.0,0.0,-0.07249857291271267,-0.19125589090298684,-0.4630598249279466,-0.3290777034099407,-0.016003564908678884,0.004104304190988286,-0.6203289060741964
7275,6.0,299.85107,3399.0742,0.0,0.0,0.0,0.0,0.0,-0.07250853972229648,-0.2064721817622178,-0.4687822460602055,-0.35797925409480164,0.013984846469446886,0.015713522067553883,-0.6117710159945984
7276,6.0,299.65485,3812.4326,0.0,0.0,0.0,0.0,0.0,-0.0725185065318803,-0.22776445724360178,-0.5259149305012625,-0.4052049262131126,-0.023058307584177776,0.03675078580352017,-0.6167662579275904
7277,6.0,301.32486,3860.8379999999997,0.0,0.0,0.0,0.0,0.0,-0.07252847334146409,-0.22852648211380777,-0.5288028655387794,-0.4162689890900506,-0.001865234049859268,0.009263942507654941,-0.6262611307721614
7278,6.0,302.19581,3595.724,0.0,0.0,0.0,0.0,0.0,-0.07253844015104793,-0.2232866314741748,-0.5002304691489036,-0.36949320001613967,-0.017622126565418485,0.010202514555409792,-0.6056258567881184
7279,6.0,299.7537,3345.1745,0.0,0.0,0.0,0.0,0.0,-0.07254840696063175,-0.2202714626216008,-0.43588234968573863,-0.3606956965528937,0.018137415917023583,-0.0005369414727269975,-0.5997514988033644
7280,6.0,300.23665,3313.9698,0.0,0.0,0.0,0.0,0.0,-0.0725583737702156,-0.2103853941784218,-0.44930495482044663,-0.34767372037522465,0.003347225602470447,-0.031035366229452174,-0.6131364616968574
7281,6.0,299.32457,3368.2892,0.0,0.0,0.0,0.0,0.0,-0.07256834057979938,-0.17202937906297786,-0.47775165753541754,-0.37409477402027963,0.018115394952600283,-0.04069309470959576,-0.6376709551132234
7282,6.0,299.00782000000004,3541.1794,0.0,0.0,0.0,0.0,0.0,-0.07257830738938323,-0.2059282285785338,-0.4912232330474585,-0.37927866285688966,-0.007214186292684753,-0.00991362641409875,-0.6408880343132244
7283,6.0,300.59516,3515.2501,0.0,0.0,0.0,0.0,0.0,-0.07258827419896705,-0.1879314983848948,-0.4932385773638575,-0.38737817885624964,-0.0037056635346205164,0.035566159647856664,-0.6270675461292484
7284,6.0,300.17832000000004,3352.3423,0.0,0.0,0.0,0.0,0.0,-0.07259824100855089,-0.2102645641039968,-0.47319832436853854,-0.3355654728727337,-0.025162219078567676,0.03280413512076607,-0.6201165896482425
7285,6.0,299.96436,3565.4817,0.0,0.0,0.0,0.0,0.0,-0.07260820781813468,-0.22625771381489776,-0.47319517316072757,-0.38436451974632463,-0.01068416400369489,0.01200684143248299,-0.5926497200449734
7286,6.0,300.70971000000003,3737.1202,0.0,0.0,0.0,0.0,0.0,-0.0726181746277185,-0.2548586331950887,-0.4801661210662066,-0.4009664706473096,-0.022818735743783878,0.017168147964114283,-0.5931603980953735
7287,6.0,301.24307000000005,3469.0746,0.0,0.0,0.0,0.0,0.0,-0.07262814143730231,-0.2144874460157628,-0.45634350677259755,-0.38368112308387864,0.0030244082749358568,0.026659954713882675,-0.5748349189067895
7288,6.0,300.08563,3305.07,0.0,0.0,0.0,0.0,0.0,-0.07263810824688616,-0.17490104130388884,-0.4697505078557656,-0.36000719310994367,-0.0014558088660521485,0.0025913538961467174,-0.6325936196571295
7289,6.0,298.92548,3483.6908,0.0,0.0,0.0,0.0,0.0,-0.07264807505646997,-0.18777846722229183,-0.48625261309189655,-0.3849239351265346,-0.0077338421442707935,-0.029445133019008373,-0.6004835010731074
7290,6.0,299.20448999999996,3581.2438,0.0,0.0,0.0,0.0,0.0,-0.07265804186605382,-0.22801099112543277,-0.49247869045136256,-0.3681190302305197,0.02089279656320848,-0.02541245132326368,-0.6425915914413524
7291,6.0,300.31378,3537.6772,0.0,0.0,0.0,0.0,0.0,-0.07266800867563758,-0.2174676678723878,-0.4812961381077306,-0.3766017270201966,0.031991687885833765,0.015490259500769585,-0.5903067109112364
7292,6.0,299.52218999999997,3347.1866,0.0,0.0,0.0,0.0,0.0,-0.07267797548522142,-0.1809627289671308,-0.4785703534837165,-0.3579280545672487,0.03397138201071437,-0.0007640013361160614,-0.6380537610010034
7293,6.0,299.68724,3324.1082,0.0,0.0,0.0,0.0,0.0,-0.07268794229480524,-0.17148997537224284,-0.4714814126040926,-0.3674745018419096,0.014333979016653587,-0.027461569291995874,-0.6077015300154714
7294,6.0,301.2574,3553.4149,0.0,0.0,0.0,0.0,0.0,-0.07269790910438909,-0.2091911472130588,-0.4985830359438146,-0.37237522780557364,-0.0072332167507629126,-0.02294968008070708,-0.6435044487214444
7295,6.0,300.71627,3574.9668,0.0,0.0,0.0,0.0,0.0,-0.0727078759139729,-0.23870752792609876,-0.4782972623167645,-0.36969587030114165,-0.014935039989223685,0.013423911214086887,-0.6013007987362684
7296,6.0,301.23446,3395.1073,0.0,0.0,0.0,0.0,0.0,-0.07271784272355672,-0.23886058948620478,-0.46787292502296257,-0.3252943389940517,-0.01936949054836988,0.004437525063924626,-0.6241590117171985
7297,6.0,300.72716,3323.2144,0.0,0.0,0.0,0.0,0.0,-0.07272780953314051,-0.19079740536523782,-0.46864396781905854,-0.35073282375213466,-0.03851451377558656,-0.003057593938236027,-0.5984236750773184
7298,6.0,299.81284,3626.3639,0.0,0.0,0.0,0.0,0.0,-0.07273777634272435,-0.23310422447559578,-0.4944740534757896,-0.3747457973420307,-0.011960630135172288,-0.010409654286602892,-0.5910371122458214
7299,6.0,299.82626,3946.9161,0.0,0.0,0.0,0.0,0.0,-0.07274774315230817,-0.23155973748066677,-0.5316860686983296,-0.4365181235934846,0.0025932754236363577,0.014251801393793288,-0.5936700223656693
7300,6.0,300.86761,3745.1027,0.0,0.0,0.0,0.0,0.0,-0.07275770996189201,-0.24705417562484877,-0.4925481791432206,-0.3988153508175106,0.03571916547920717,-0.006036970338977584,-0.6135867703062994
7301,6.0,299.97198,3514.7479,0.0,0.0,0.0,0.0,0.0,-0.0727676767714758,-0.2002126468844498,-0.4974098037855255,-0.3707731476749606,-0.015729413882122286,-0.02268403528873998,-0.6152990920477924
7302,6.0,299.45615,3393.8891,0.0,0.0,0.0,0.0,0.0,-0.07277764358105965,-0.21211683594930178,-0.4774637019894985,-0.3420769929178707,0.013941731664441787,-0.016438683885871785,-0.6269341314885813
7303,6.0,299.07219,3423.9779,0.0,0.0,0.0,0.0,0.0,-0.07278761039064346,-0.19930148173202483,-0.46441397289159053,-0.37708834038072164,0.004566528418956266,0.029419064120435573,-0.5969585255652194
7304,6.0,299.86228,3427.7016,0.0,0.0,0.0,0.0,0.0,-0.07279757720022731,-0.20871288303335778,-0.48070978040736156,-0.3525130433828287,0.02750211956099787,0.007186588501036063,-0.6230498574952335
7305,6.0,299.5668,3415.7307,0.0,0.0,0.0,0.0,0.0,-0.0728075440098111,-0.18384843485442784,-0.46304663241164457,-0.39140176460584664,-0.016969717117530685,-0.0054251068031163545,-0.5819268387417075
7306,6.0,301.15809,3413.6789,0.0,0.0,0.0,0.0,0.0,-0.07281751081939491,-0.2117897588170218,-0.4856746653673576,-0.34020872185348666,-0.006700039380567404,-0.02229933057027258,-0.6158987233244714
7307,6.0,299.98147,3656.8806,0.0,0.0,0.0,0.0,0.0,-0.07282747762897873,-0.2265966155758448,-0.5031546582749985,-0.38184911624057366,-0.00028357265155144176,0.03043916683086187,-0.5924586210761135
7308,6.0,299.31827999999996,3967.3808,0.0,0.0,0.0,0.0,0.0,-0.07283744443856258,-0.27744612601430074,-0.5287572996817824,-0.3997812821378406,-0.0029922150901086375,0.0038943092223383967,-0.6201624898777723
7309,6.0,299.0709,3744.841,0.0,0.0,0.0,0.0,0.0,-0.0728474112481464,-0.2267943108028558,-0.5021808337363896,-0.40936300064848263,-0.01880709621286588,0.017195953573358482,-0.5873344633328984
7310,6.0,300.06834,3553.0962,0.0,0.0,0.0,0.0,0.0,-0.07285737805773024,-0.19004393232587583,-0.49994849177857453,-0.39006011001593566,0.006956868592689473,0.00907877226778006,-0.5967525824823944
7311,6.0,300.40896000000004,3423.9061,0.0,0.0,0.0,0.0,0.0,-0.072867344867314,-0.17574309266699284,-0.45902379646712155,-0.4060150804630686,0.025163238408168274,0.046093871756610956,-0.5788341562564835
7312,6.0,299.87678,3354.8704,0.0,0.0,0.0,0.0,0.0,-0.07287731167689784,-0.1978653821002928,-0.4661403484119706,-0.35579108984134666,0.007737310499363093,-0.01687300442198588,-0.6205737883583644
7313,6.0,299.78879,3307.0427,0.0,0.0,0.0,0.0,0.0,-0.07288727848648166,-0.18564208004894683,-0.46343080618705956,-0.3561855177077737,-0.005022644268696396,-0.04097186615660836,-0.6078236773150264
7314,6.0,301.1885,3518.2059999999997,0.0,0.0,0.0,0.0,0.0,-0.0728972452960655,-0.2505284582302338,-0.4773991984881325,-0.34151909741281067,0.009757888049878571,-0.03742261824257487,-0.6064815667625704
7315,6.0,300.70055,3618.3253,0.0,0.0,0.0,0.0,0.0,-0.07290721210564932,-0.2276324307555718,-0.5052881475530575,-0.3669599633086287,0.02155928410798568,0.019088180909856783,-0.6271060496330484
7316,6.0,300.60845,3583.5902,0.0,0.0,0.0,0.0,0.0,-0.07291717891523314,-0.22413501565040378,-0.48919428078221655,-0.37599262185508264,0.03314118263403007,0.007890728520854273,-0.6169799422411795
7317,6.0,300.79433,3695.6521,0.0,0.0,0.0,0.0,0.0,-0.07292714572481693,-0.17545340446340285,-0.5255483163500805,-0.4223842472860796,-0.021585959943368378,-0.005591212033084665,-0.6076847607263164
7318,6.0,298.93867,3646.3155,0.0,0.0,0.0,0.0,0.0,-0.07293711253440077,-0.22902908456091078,-0.5020457472330575,-0.3773140317079956,-0.020205118919089982,-0.03813441225232346,-0.5920316476164744
7319,6.0,298.99224,3424.8613,0.0,0.0,0.0,0.0,0.0,-0.07294707934398459,-0.1918772057318058,-0.48092772037137055,-0.36826738017766064,-0.008752616889116032,0.006708828109284784,-0.6209592084314024
7320,6.0,300.26538,3446.4208,0.0,0.0,0.0,0.0,0.0,-0.07295704615356843,-0.2278253941046158,-0.49455016882330155,-0.3252502930122047,-0.009524865959456081,0.002312290633105318,-0.6216934601163674
7321,6.0,300.20681,3466.4858,0.0,0.0,0.0,0.0,0.0,-0.07296701296315222,-0.19223858137997082,-0.47433959861867353,-0.38714692478592666,-0.006910084809072275,0.024278881826889077,-0.6170629882193754
7322,6.0,299.98812999999996,3408.4086,0.0,0.0,0.0,0.0,0.0,-0.07297697977273607,-0.18866813120759482,-0.4629937610214266,-0.38440923447323766,-0.0023123735169634976,0.018721402612158582,-0.6096561603858784
7323,6.0,299.79292999999996,3557.2091,0.0,0.0,0.0,0.0,0.0,-0.07298694658231988,-0.18619172769819284,-0.5007143163366555,-0.39439669885392364,0.028759147502556873,0.03403633742162497,-0.5979047795686074
7324,6.0,300.10927999999996,3650.6146,0.0,0.0,0.0,0.0,0.0,-0.07299691339190373,-0.25482043366631874,-0.4896714101218055,-0.36520384889781365,-0.0004602649062496096,-0.018105181391592284,-0.6307932667469485
7325,6.0,300.82351,3611.4449,0.0,0.0,0.0,0.0,0.0,-0.07300688020148752,-0.24712060430140476,-0.47917111960050757,-0.37149734791893363,0.01235331825117759,-0.03271277339899937,-0.6124327088399024
7326,6.0,301.44744,3654.9643,0.0,0.0,0.0,0.0,0.0,-0.07301684701107133,-0.2548384695180988,-0.49309438174212655,-0.36308502134870163,-0.011880081818472788,-0.02774048259402247,-0.6312130967933824
7327,6.0,300.53702999999996,3644.8044,0.0,0.0,0.0,0.0,0.0,-0.07302681382065515,-0.2198084782534078,-0.4983139167172545,-0.3898071217309676,0.01148369027335199,0.020246739180197582,-0.6132400361220794
7328,6.0,299.04591,3538.3309999999997,0.0,0.0,0.0,0.0,0.0,-0.073036780630239,-0.2108130363831268,-0.49249226800270257,-0.37225896748909965,-0.0012501063288008888,0.018411161643540182,-0.6348403801638675
7329,6.0,299.00727,3421.9902,0.0,0.0,0.0,0.0,0.0,-0.07304674743982281,-0.17928452335650483,-0.47046477824875854,-0.3904502822319426,-0.016611591975686485,-0.0016833248541062286,-0.6012587285921164
7330,6.0,299.95321,3433.5498,0.0,0.0,0.0,0.0,0.0,-0.07305671424940666,-0.22898615315417375,-0.4481476205562266,-0.36657962975109265,-0.00868721980248684,-0.01004118112546242,-0.5865982763402424
7331,6.0,299.09431,3419.2881,0.0,0.0,0.0,0.0,0.0,-0.07306668105899042,-0.18639028418778883,-0.48160907026861455,-0.37137884831973866,-0.014371081195565287,-0.01055294710249479,-0.6276448656387253
7332,6.0,298.92346000000003,3440.7376,0.0,0.0,0.0,0.0,0.0,-0.07307664786857426,-0.2247777607188378,-0.4725650329235375,-0.34855553167225267,0.016375498622885884,-0.011202169878818091,-0.6134774203555075
7333,6.0,299.44846,3499.0395,0.0,0.0,0.0,0.0,0.0,-0.07308661467815808,-0.17179450768979784,-0.4905896274949265,-0.4012365017989596,-0.02085132524986558,-0.010231952510565091,-0.6453815046641954
7334,6.0,300.25177,3652.7326,0.0,0.0,0.0,0.0,0.0,-0.07309658148774192,-0.24058771481165878,-0.47691637468298154,-0.39283542230483764,0.008107688469366553,0.005980243126829044,-0.6025920137362014
7335,6.0,300.29195,3641.6805,0.0,0.0,0.0,0.0,0.0,-0.07310654829732574,-0.19440798024157382,-0.5040158296674895,-0.40855611919634965,-0.015542546245679885,0.024476521325144576,-0.6234242230096804
7336,6.0,300.91224,3510.8692,0.0,0.0,0.0,0.0,0.0,-0.07311651510690956,-0.23701814616686975,-0.4744236071844645,-0.35577483730974263,0.006286878343641584,0.004889591358315095,-0.6016940714975815
7337,6.0,300.13001,3606.4023,0.0,0.0,0.0,0.0,0.0,-0.07312648191649335,-0.2173122150420458,-0.4962794422389676,-0.38266460018605564,-0.005130689052034585,0.006773642881081504,-0.6235673344538044
7338,6.0,299.87189,3699.828,0.0,0.0,0.0,0.0,0.0,-0.07313644872607719,-0.2407953398896498,-0.4953596441956905,-0.3885003634745006,0.004328556500470266,-0.012774924525036887,-0.5901812705488564
7339,6.0,299.7762,3602.5738,0.0,0.0,0.0,0.0,0.0,-0.07314641553566101,-0.18916585992171683,-0.4979087281347655,-0.4080178908757306,0.016224932697776185,-0.0005184953357165055,-0.6398908340948083
7340,6.0,300.4029,3436.2454,0.0,0.0,0.0,0.0,0.0,-0.07315638234524482,-0.1821207218439158,-0.4734466517030465,-0.38896542500539866,0.005730787943634734,-0.01028225531177959,-0.6085704933012315
7341,6.0,299.10246,3202.9253,0.0,0.0,0.0,0.0,0.0,-0.07316634915482864,-0.14802638598656687,-0.4646988785547086,-0.3608840394814817,-0.003879943463745606,0.0012542099917058887,-0.6176773116225044
7342,6.0,299.07898,3342.7182,0.0,0.0,0.0,0.0,0.0,-0.07317631596441249,-0.2107218540066278,-0.43559187114707054,-0.36978915010534763,-0.02055036666541328,-0.013392226883459887,-0.5802156214428235
7343,6.0,299.58883,3625.4994,0.0,0.0,0.0,0.0,0.0,-0.0731862827739963,-0.2325051808839748,-0.48602485473441853,-0.3835312633940886,-0.012772144166762487,-0.003814737780060306,-0.6032816621517644
7344,6.0,300.54703,3699.0040000000004,0.0,0.0,0.0,0.0,0.0,-0.07319624958358015,-0.23721567927386478,-0.49576432615312954,-0.39142484644312464,0.003089544652314317,0.0015221159525961485,-0.6008936545810865
7345,6.0,299.81039,3509.6847,0.0,0.0,0.0,0.0,0.0,-0.07320621639316394,-0.17748549780395484,-0.5054140438779826,-0.38395696015860165,0.02626614695651687,0.0007737270070684102,-0.6386295403703284
7346,6.0,300.50221,3671.8279,0.0,0.0,0.0,0.0,0.0,-0.07321618320274775,-0.23700359589543377,-0.49230085492631154,-0.3868395452355906,0.024693964796604576,0.016972876431342484,-0.5783008320663484
7347,6.0,299.69548,3825.0283,0.0,0.0,0.0,0.0,0.0,-0.07322615001233157,-0.26206519214632074,-0.4994438628312715,-0.4012040271332546,-0.004029088508240077,-0.006632341202961114,-0.6223019066689164
7348,6.0,300.41,3780.3339,0.0,0.0,0.0,0.0,0.0,-0.07323611682191541,-0.2807366557140507,-0.4963023822212315,-0.37208808285973466,-0.010139330305673992,-0.014731233850859587,-0.5931254004369193
7349,6.0,299.97278,3374.1816,0.0,0.0,0.0,0.0,0.0,-0.07324608363149923,-0.18995163537426682,-0.4797282653004935,-0.3559870524106866,-0.0071655106698058435,0.01071789408627379,-0.6304773049682655
7350,6.0,299.7301,3197.7874,0.0,0.0,0.0,0.0,0.0,-0.07325605044108305,-0.15920186584450086,-0.46162812280164855,-0.35121753220247165,-0.002244440974609078,0.020381547039752083,-0.5906178192219405
7351,6.0,299.08681,3393.5314,0.0,0.0,0.0,0.0,0.0,-0.07326601725066684,-0.13050197219454188,-0.5111109716377256,-0.38993587542117464,0.01265684745113359,-0.003369896566832897,-0.6569552526064354
7352,6.0,298.42577,3500.8717,0.0,0.0,0.0,0.0,0.0,-0.07327598406025068,-0.21245552492772782,-0.4677534020411665,-0.38396864293225463,-0.022030234648464878,-0.023618263026691077,-0.6131941865550544
7353,6.0,299.31602999999996,3469.8576,0.0,0.0,0.0,0.0,0.0,-0.0732859508698345,-0.2087484987743728,-0.5015972320762925,-0.3444043473375627,0.03401865722063007,-0.015672239218729588,-0.6506691705760473
7354,6.0,299.97077,3393.7675,0.0,0.0,0.0,0.0,0.0,-0.07329591767941832,-0.22940285225779877,-0.46281843835662356,-0.33939927687860066,-0.0061037730061454945,-0.0003716141452579607,-0.5783937572330194
7355,6.0,300.55105,3509.1935,0.0,0.0,0.0,0.0,0.0,-0.07330588448900216,-0.21202464032270282,-0.5013388330357905,-0.3533437260798107,0.03136492987747757,0.013151809992482588,-0.6321641333372424
7356,6.0,300.29885,3773.8725,0.0,0.0,0.0,0.0,0.0,-0.07331585129858598,-0.24267239583240077,-0.5288059458190835,-0.37568466475218965,0.0029488189055507674,0.01967668366068748,-0.6126662427229504
7357,6.0,300.69939,3757.4074,0.0,0.0,0.0,0.0,0.0,-0.07332581810816977,-0.2137257453855888,-0.5150871372826424,-0.4133451343364886,0.015270812833861884,0.02765565836190097,-0.6457572380662774
7358,6.0,299.56358,3524.204,0.0,0.0,0.0,0.0,0.0,-0.07333578491775358,-0.2312478287023838,-0.47237092460188057,-0.3676512734543556,0.004860604704754336,0.017738126476616784,-0.5934537643968265
7359,6.0,299.76999,3494.43,0.0,0.0,0.0,0.0,0.0,-0.07334575172733743,-0.2190634253223768,-0.4689736895340995,-0.37418234922642263,0.0005939437518801844,-0.014319213936196385,-0.6135453689072135
7360,6.0,299.03635,3608.8821,0.0,0.0,0.0,0.0,0.0,-0.07335571853692124,-0.25982234278496874,-0.45611165488471556,-0.38107605707677866,-0.04381271850172866,0.005758779281622265,-0.5801807656393835
7361,6.0,298.29519,3524.1447,0.0,0.0,0.0,0.0,0.0,-0.07336568534650506,-0.19232760553375683,-0.4879982910266815,-0.39092610447890264,0.002255522485652738,-0.000985064511835798,-0.6092162781199655
7362,6.0,299.07502999999997,3452.8012,0.0,0.0,0.0,0.0,0.0,-0.07337565215608888,-0.18629035746292683,-0.46355381474919954,-0.3997211862744096,-0.004061346946373736,0.04811300765488416,-0.5906597171135755
7363,6.0,300.5639,3583.4437,0.0,0.0,0.0,0.0,0.0,-0.07338561896567272,-0.17500655103680182,-0.5041972824953975,-0.4100735828111116,0.014654866204072687,0.01910901535841298,-0.6270510098876164
7364,6.0,300.94631,3654.6865,0.0,0.0,0.0,0.0,0.0,-0.07339558577525651,-0.25041897655692874,-0.4936692694513636,-0.3668451823373007,-0.013760536202059186,-0.004416932072867256,-0.6159298908975473
7365,6.0,300.41471,3685.4498,0.0,0.0,0.0,0.0,0.0,-0.07340555258484036,-0.24811103600915277,-0.48887724495842755,-0.38329641228591066,0.015647142027002684,-0.028924167440343075,-0.5899268434487465
7366,6.0,300.33168,3613.1022,0.0,0.0,0.0,0.0,0.0,-0.07341551939442417,-0.25631596041641574,-0.4850416576323846,-0.35693522145676365,0.01121338149117459,-0.007725716891718894,-0.5914796694919984
7367,6.0,300.73436,3512.4344,0.0,0.0,0.0,0.0,0.0,-0.07342548620400799,-0.17559872479274483,-0.5067273375975945,-0.38536628972269166,0.03099739366870457,-0.006946471228113333,-0.6119801710802404
7368,6.0,300.86175,3557.3893,0.0,0.0,0.0,0.0,0.0,-0.0734354530135918,-0.17909819679561584,-0.5065797881180325,-0.3956795342755296,0.0015846979264725084,0.004622519302257135,-0.6458661523195264
7369,6.0,299.20009,3490.7176,0.0,0.0,0.0,0.0,0.0,-0.07344541982317565,-0.15457560906792486,-0.5067880110135825,-0.3997273671000196,0.01049959644497949,0.02086300903676868,-0.6545431702133814
7370,6.0,298.11836,3239.7458,0.0,0.0,0.0,0.0,0.0,-0.07345538663275947,-0.1911514957451838,-0.4448428141625676,-0.3488075269721227,-0.012537951671149487,0.02080864006290288,-0.6351643162208375
7371,6.0,297.46853,3276.4629999999997,0.0,0.0,0.0,0.0,0.0,-0.07346535344234326,-0.19168318860265782,-0.4721581522133816,-0.3321215979028497,-0.009603856809426872,-0.016558276781924685,-0.6362561438660924
7372,6.0,299.07238,3395.4025,0.0,0.0,0.0,0.0,0.0,-0.07347532025192707,-0.21391066352883878,-0.4738956836173625,-0.3443112195208717,-0.02237917569140268,0.005125427345590295,-0.6403915316317235
7373,6.0,299.91652999999997,3347.4126,0.0,0.0,0.0,0.0,0.0,-0.07348528706151092,-0.16557266571574986,-0.47584927034016655,-0.3761079094514606,-0.024386596392019677,-0.00945797220110418,-0.6308246167050423
7374,6.0,299.24391,3475.5761,0.0,0.0,0.0,0.0,0.0,-0.07349525387109473,-0.17720952900671882,-0.4812940609450255,-0.3979847593130376,-0.0062938225518769245,0.03263302251012857,-0.6077913749018384
7375,6.0,298.74106,3650.0674,0.0,0.0,0.0,0.0,0.0,-0.07350522068067858,-0.2324334022468908,-0.4915714972393295,-0.38552446819580266,-0.017089411338593586,0.018274029388256282,-0.6186095118470054
7376,6.0,300.39292,3710.8538,0.0,0.0,0.0,0.0,0.0,-0.07351518749026234,-0.2658424770616097,-0.49029150905050456,-0.37187288880349667,0.007186189989771733,0.004615269396466626,-0.6114034493883225
7377,6.0,300.43087,3466.2038,0.0,0.0,0.0,0.0,0.0,-0.07352515429984618,-0.23342662039241377,-0.46727260473621557,-0.3529401688299827,-0.0032589763823609266,-0.024414080800982178,-0.6223675855403984
7378,6.0,300.46882999999997,3323.0574,0.0,0.0,0.0,0.0,0.0,-0.07353512110943,-0.2086159859262948,-0.4314193882952786,-0.37009109863514766,0.014471336213459685,-0.00908105228315508,-0.5861721641431885
7379,6.0,299.79436,3509.9363,0.0,0.0,0.0,0.0,0.0,-0.07354508791901385,-0.19810064864101182,-0.4662083678911836,-0.40262396542589163,0.02848537137853727,-0.029239340910448268,-0.6213206854045774
7380,6.0,299.74388999999996,3606.9087,0.0,0.0,0.0,0.0,0.0,-0.07355505472859766,-0.17888364108694083,-0.5113226193186134,-0.4062039300167066,-0.015136197491826384,-0.011403311169419188,-0.6380594757315674
7381,6.0,299.48332999999997,3398.684,0.0,0.0,0.0,0.0,0.0,-0.07356502153818148,-0.20214446899510582,-0.46988827947186257,-0.36108231226104964,0.012631475668629589,0.007134577968103023,-0.6419675104397604
7382,6.0,300.09941000000003,3456.5091,0.0,0.0,0.0,0.0,0.0,-0.0735749883477653,-0.22654969196371377,-0.4767128634003966,-0.34742990200366164,-0.040777560251181864,0.023404129843307777,-0.6232880421962405
7383,6.0,298.49035,3414.1239,0.0,0.0,0.0,0.0,0.0,-0.07358495515734914,-0.22335748805366776,-0.4729112706152086,-0.34153964612483867,-0.017417189639942786,0.016116766223100987,-0.6255619983356624
7384,6.0,298.59103999999996,3612.428,0.0,0.0,0.0,0.0,0.0,-0.07359492196693293,-0.21592263372240478,-0.5050624967557875,-0.3771027690621456,-0.04133851779804407,0.0014222978481448687,-0.6189304790811824
7385,6.0,299.31791,3731.9663,0.0,0.0,0.0,0.0,0.0,-0.07360488877651677,-0.20897672322689678,-0.5241148207711055,-0.40133300373848363,0.002730317904961398,0.00024202022753803677,-0.6256253872619184
7386,6.0,298.97899,3511.664,0.0,0.0,0.0,0.0,0.0,-0.07361485558610056,-0.17641934591623382,-0.4992441411040605,-0.39179467259712364,-0.01084925486898809,0.01161886796919299,-0.6108421088329224
7387,6.0,299.20263,3492.5013,0.0,0.0,0.0,0.0,0.0,-0.07362482239568441,-0.2148439884609508,-0.4799974149245566,-0.36679177392452966,0.008919945618580092,-0.015296659830662787,-0.6155220678647985
7388,6.0,299.64391,3745.9998,0.0,0.0,0.0,0.0,0.0,-0.07363478920526823,-0.25077847769240874,-0.5090241526592726,-0.37888777123331163,0.0076388191445927525,-0.009494561472815261,-0.6279483340436753
7389,6.0,299.14832,3623.1612,0.0,0.0,0.0,0.0,0.0,-0.07364475601485207,-0.22485012704097979,-0.4758106959088595,-0.4006897115149956,0.02196203379748398,-0.030203313618334972,-0.6238456235937694
7390,6.0,299.87427,3376.9053,0.0,0.0,0.0,0.0,0.0,-0.07365472282443589,-0.1893510516424938,-0.47753211663625056,-0.35961171146341264,0.04153214887890396,0.0024861994087187777,-0.6091137980048514
7391,6.0,300.67367,3465.3945,0.0,0.0,0.0,0.0,0.0,-0.07366468963401968,-0.17699176129522684,-0.4876266815525065,-0.38877497451660264,0.014855059092580183,-0.03008740591289577,-0.6285109816917044
7392,6.0,300.53367000000003,3608.6873,0.0,0.0,0.0,0.0,0.0,-0.07367465644360349,-0.2312798575380448,-0.4943323605818055,-0.37133862229076864,-0.008166257668871883,-0.006587225330333523,-0.6280498617036954
7393,6.0,301.89697,3761.6985,0.0,0.0,0.0,0.0,0.0,-0.07368462325318734,-0.25859200385104375,-0.5119585756113776,-0.3729118349260327,-0.02054379168551438,-0.017548889861440584,-0.6213807204730024
7394,6.0,300.29458999999997,3663.7395,0.0,0.0,0.0,0.0,0.0,-0.07369459006277115,-0.26427651929706175,-0.4808443704181446,-0.36856444484197864,-0.0007672965368987723,0.015668431424853784,-0.5949100885005545
7395,6.0,299.22837000000004,3746.4545,0.0,0.0,0.0,0.0,0.0,-0.073704556872355,-0.2425418790870198,-0.49688460586119254,-0.39940213408292163,0.004258761503107036,0.014410702314225587,-0.5674396826544365
7396,6.0,300.21341,3755.8807,0.0,0.0,0.0,0.0,0.0,-0.07371452368193876,-0.24117735544235178,-0.5060301202037845,-0.3944864829452846,-0.024804023009216476,0.004355095040464416,-0.6167708682155455
7397,6.0,300.39068,3691.2851,0.0,0.0,0.0,0.0,0.0,-0.0737244904915226,-0.1937228711864588,-0.5033001609893586,-0.42503546683523463,0.013324070615483385,0.01861549061895588,-0.5906295425255974
7398,6.0,299.89625,3640.2106,0.0,0.0,0.0,0.0,0.0,-0.07373445730110642,-0.2344700450803918,-0.4907498628657405,-0.3813132082626836,-0.0076013696235467726,0.0009060189564921091,-0.6251371223037304
7399,6.0,299.77936,3547.3335,0.0,0.0,0.0,0.0,0.0,-0.07374442411069027,-0.2149554459719508,-0.4776892818592615,-0.38565607925129164,0.02761631487376807,-0.026703542706684475,-0.5823683016777764
7400,6.0,300.02651000000003,3459.7281,0.0,0.0,0.0,0.0,0.0,-0.07375439092027408,-0.21267474158686278,-0.4815050196158456,-0.35749119178663363,0.0003149554186836797,-0.03269211018971007,-0.6708577633860063
7401,6.0,300.74158,3561.0224,0.0,0.0,0.0,0.0,0.0,-0.0737643577298579,-0.2011286047098478,-0.4799514437675196,-0.4013818423933036,0.01939963473884488,0.0002265076826145678,-0.6048839753299005
7402,6.0,299.97036,3464.8,0.0,0.0,0.0,0.0,0.0,-0.07377432453944172,-0.18846600807764682,-0.48250028452657057,-0.3822463812072806,0.025331134962988375,0.01149278520624959,-0.6383414227043934
7403,6.0,298.42215,3339.1979,0.0,0.0,0.0,0.0,0.0,-0.07378429134902556,-0.18009424190891785,-0.46899697402139756,-0.36594155576561965,0.007301987858900093,-0.005726859269022004,-0.6124714453912253
7404,6.0,298.75025,3551.7827,0.0,0.0,0.0,0.0,0.0,-0.07379425815860935,-0.2188569958795038,-0.5132690828932145,-0.34752717401326166,0.0039569379070443665,-0.01144128069041649,-0.6579990116669464
7405,6.0,300.05962999999997,3685.6744,0.0,0.0,0.0,0.0,0.0,-0.0738042249681932,-0.23617290306595076,-0.49632094496306356,-0.38785913828121665,-0.03612353535561536,-0.016653866796358684,-0.6086189671860154
7406,6.0,300.54065,3572.0323,0.0,0.0,0.0,0.0,0.0,-0.07381419177777698,-0.2078907622997208,-0.4908614520992535,-0.3870564010219927,-0.03401305901382757,0.0017186448274170384,-0.6288269637353895
7407,6.0,299.93108,3633.04,0.0,0.0,0.0,0.0,0.0,-0.07382415858736083,-0.20458077819805082,-0.48789870880685354,-0.4118739661187956,-0.03698505226639046,0.014734787318960286,-0.5826565308012225
7408,6.0,300.25075,3610.2767,0.0,0.0,0.0,0.0,0.0,-0.07383412539694464,-0.1989279166851568,-0.49196732339089455,-0.4065387179822476,-0.022624010352815978,0.030985689616799473,-0.6181433661385004
7409,6.0,299.97922,3505.6157,0.0,0.0,0.0,0.0,0.0,-0.07384409220652849,-0.2002253023781988,-0.47397360255005255,-0.39142072251521765,-0.003897674631220536,0.030762049107727868,-0.6072080265542664
7410,6.0,299.82526,3349.8779,0.0,0.0,0.0,0.0,0.0,-0.0738540590161123,-0.2165379501106318,-0.4596901299978836,-0.3420511449078197,0.01916793281197768,0.009773451267439542,-0.6213080096458264
7411,6.0,300.2725,3511.1959,0.0,0.0,0.0,0.0,0.0,-0.0738640258256961,-0.24185900931462576,-0.4496744364694116,-0.37578244338683964,0.04168864029059846,-0.013464902246882387,-0.6242905721101824
7412,6.0,300.10257,3579.3133,0.0,0.0,0.0,0.0,0.0,-0.07387399263527991,-0.22173513278855378,-0.4898555683274805,-0.37643118689586563,0.03513882040493157,-0.04783036255273925,-0.6295783292145434
7413,6.0,299.99297,3549.6421,0.0,0.0,0.0,0.0,0.0,-0.07388395944486376,-0.20085274737012282,-0.48412202170912355,-0.3940278150225176,0.025511658640554675,-0.0034507076192833268,-0.6134637414791574
7414,6.0,300.77046,3749.4847,0.0,0.0,0.0,0.0,0.0,-0.07389392625444757,-0.21930455858117479,-0.4897713267141665,-0.4306738388716986,-0.010752160178155591,0.0015301822339922287,-0.5873201562414864
7415,6.0,300.65792999999996,3806.1186,0.0,0.0,0.0,0.0,0.0,-0.07390389306403142,-0.24441781032215976,-0.5022804463537205,-0.4102667488101756,-0.04148911209415656,-0.0016887852588951284,-0.5876476589388084
7416,6.0,300.51859,3740.3751,0.0,0.0,0.0,0.0,0.0,-0.0739138598736152,-0.24626863321982176,-0.5134539199764565,-0.3772580800374737,-0.030272974562709967,0.008434085710829452,-0.6302068685165754
7417,6.0,300.02119,3611.6555,0.0,0.0,0.0,0.0,0.0,-0.07392382668319905,-0.24326981822386176,-0.48454882291624557,-0.37003445795455764,-0.022459795948859277,0.026709193602492173,-0.6299170688554744
7418,6.0,300.19777,3539.2607,0.0,0.0,0.0,0.0,0.0,-0.07393379349278284,-0.2003881316692688,-0.4967589831137945,-0.37869977280975764,-0.018543752511875882,0.0014002284503667887,-0.6333995283891664
7419,6.0,300.26166,3402.5809,0.0,0.0,0.0,0.0,0.0,-0.07394376030236668,-0.17227523406724185,-0.47486066248259856,-0.38716374473758663,-0.004106158134696256,-0.009085636327932491,-0.6353885788654704
7420,6.0,300.62911,3427.5843,0.0,0.0,0.0,0.0,0.0,-0.0739537271119505,-0.17090236124174985,-0.48657431999864653,-0.3844233693121326,0.0030278737929278774,-0.006642463166160073,-0.6468959487936594
7421,6.0,300.16882000000004,3392.6542,0.0,0.0,0.0,0.0,0.0,-0.07396369392153432,-0.2072127257303038,-0.4829714964855755,-0.34109795014124666,0.005733025605155574,0.00905171129603435,-0.6401400226919014
7422,6.0,300.40821,3548.9093,0.0,0.0,0.0,0.0,0.0,-0.07397366073111813,-0.23576058120275775,-0.4854573941484146,-0.35756183558360566,0.020000909507186082,-0.012437137339199886,-0.6113227541503584
7423,6.0,300.19342,3788.1705,0.0,0.0,0.0,0.0,0.0,-0.07398362754070198,-0.25168940979731075,-0.5149125238929095,-0.38490729755989267,-0.002134815014489838,-0.03408101364503417,-0.6364773160979204
7424,6.0,299.51911,3940.5937,0.0,0.0,0.0,0.0,0.0,-0.07399359435028577,-0.26686663986518677,-0.5156490756556015,-0.41532636252202065,0.0012092295906166689,-0.04624951001172125,-0.6195282662426794
7425,6.0,299.28911,3614.7154,0.0,0.0,0.0,0.0,0.0,-0.07400356115986961,-0.2020528509210638,-0.48249266488581855,-0.41423770634957857,0.024461939642955476,0.005329885915693785,-0.6081228900695564
7426,6.0,298.36998,3321.0326,0.0,0.0,0.0,0.0,0.0,-0.0740135279694534,-0.18653467232703883,-0.46154687027612956,-0.36142943148030765,0.018191912560401983,-0.008027441493246794,-0.5885194593248485
7427,6.0,298.87047,3512.9367,0.0,0.0,0.0,0.0,0.0,-0.07402349477903725,-0.22945945240838478,-0.4630714063765896,-0.37531420025062767,-0.006347982897547134,6.116621726688565e-05,-0.5865028889758285
7428,6.0,300.20597000000004,3609.2783,0.0,0.0,0.0,0.0,0.0,-0.07403346158862106,-0.2632701592977417,-0.4840402625585545,-0.34982005766455165,-0.02678299164702547,-0.00916244149611257,-0.6295407882983384
7429,6.0,300.18212,3590.3212,0.0,0.0,0.0,0.0,0.0,-0.07404342839820491,-0.21555257452088278,-0.5073636485278935,-0.3684517612983576,-0.024496771128393078,0.023226284185755775,-0.6513310762038724
7430,6.0,300.02539,3583.2166,0.0,0.0,0.0,0.0,0.0,-0.07405339520778872,-0.23625816806186578,-0.47441482230609755,-0.37853538311353363,-0.007862617416704923,-0.001225976993569509,-0.6221151545429854
7431,6.0,300.50032999999996,3706.9556,0.0,0.0,0.0,0.0,0.0,-0.07406336201737251,-0.2128083994075538,-0.5176564355612124,-0.3963570946173996,-0.04198939419853056,-0.009206679995478572,-0.6115323044035395
7432,6.0,300.47952000000004,3755.4572,0.0,0.0,0.0,0.0,0.0,-0.07407332882695633,-0.22004847667209382,-0.5017321868571115,-0.4197845515045096,0.01942444822054378,0.001845216179558658,-0.6180390520407054
7433,6.0,300.60008,3790.9604,0.0,0.0,0.0,0.0,0.0,-0.07408329563654018,-0.25522507509375375,-0.5003358674243055,-0.3967963689332526,-0.0032987488805861667,0.03288803932179677,-0.5914413382407154
7434,6.0,299.60811,3481.6164,0.0,0.0,0.0,0.0,0.0,-0.07409326244612399,-0.2131072271270458,-0.48681884764527955,-0.35839837486616566,0.036927508779961364,0.002660427256788727,-0.6125582302622904
7435,6.0,299.7455,3260.5141,0.0,0.0,0.0,0.0,0.0,-0.07410322925570784,-0.18273219801426382,-0.4596822469121056,-0.3487004365690537,-0.027591019085021574,-0.02423610342091718,-0.6016453544327734
7436,6.0,299.87581,3533.5984,0.0,0.0,0.0,0.0,0.0,-0.07411319606529163,-0.1799612427007918,-0.5154013664036545,-0.37876307054350467,-0.009477513742532782,-0.02289289855835318,-0.6420830108186594
7437,6.0,299.68357000000003,3700.9331,0.0,0.0,0.0,0.0,0.0,-0.07412316287487547,-0.2073019626666108,-0.5126982684493795,-0.4049910189845016,-0.019421576669760382,0.01101317239066549,-0.6111692467602085
7438,6.0,300.58707999999996,3500.1868,0.0,0.0,0.0,0.0,0.0,-0.07413312968445926,-0.1902321333994498,-0.4675226140658896,-0.4062146502027646,-0.01923961316380198,-0.015747248097132384,-0.6159250678270713
7439,6.0,301.38227,3391.5916,0.0,0.0,0.0,0.0,0.0,-0.0741430964940431,-0.20447428561254083,-0.46593892442459156,-0.36054595845311566,-0.026005666700309477,-0.017583401159846582,-0.6016433887275795
7440,6.0,300.48947999999996,3652.9824,0.0,0.0,0.0,0.0,0.0,-0.07415306330362692,-0.24317401542690678,-0.47627187669187454,-0.39096955264319067,-0.011056435130185189,-0.0014750223170983687,-0.6365779115678484
7441,6.0,301.30081,3827.1389,0.0,0.0,0.0,0.0,0.0,-0.07416303011321074,-0.24840265952043378,-0.5164131675560115,-0.3985388247327196,0.025772964695593575,0.06239795955219914,-0.6285527985233315
7442,6.0,300.13083,3622.908,0.0,0.0,0.0,0.0,0.0,-0.07417299692279455,-0.22448368514231476,-0.4945010869884575,-0.38228878572396563,0.027968613827537275,0.008696058788409181,-0.6201902022680074
7443,6.0,299.60558,3552.1127,0.0,0.0,0.0,0.0,0.0,-0.0741829637323784,-0.21619600859938481,-0.4796062801209546,-0.3839512758255406,0.004620397455222726,0.0009209002263382759,-0.6023746918547535
7444,6.0,299.99994,3472.1839,0.0,0.0,0.0,0.0,0.0,-0.07419293054196219,-0.21376373213183777,-0.4838296787902716,-0.3578637942459067,0.005408648885717084,-0.019005625344709183,-0.6010715812986465
7445,6.0,299.25049,3599.1645,0.0,0.0,0.0,0.0,0.0,-0.074202897351546,-0.23722594349737777,-0.4874298779855835,-0.36940031537947265,0.004215009667764067,0.025250656560545776,-0.6119780027250264
7446,6.0,298.4897,3880.388,0.0,0.0,0.0,0.0,0.0,-0.07421286416112982,-0.24679350690412277,-0.5154795285163686,-0.4172680131586466,-0.0007414359118840272,-0.012412864933054388,-0.5725913197403635
7447,6.0,299.61461,3744.7539,0.0,0.0,0.0,0.0,0.0,-0.07422283097071367,-0.2270063029887778,-0.5123944758043976,-0.39891090030194065,-0.014104437338999586,-0.04091910825040156,-0.6356647503127264
7448,6.0,300.98097,3450.5658,0.0,0.0,0.0,0.0,0.0,-0.07423279778029748,-0.17775869029591682,-0.4789561180617885,-0.39217104434676864,0.005812876299161224,-0.015823924785199787,-0.6223677273954124
7449,6.0,301.75787,3535.2864,0.0,0.0,0.0,0.0,0.0,-0.07424276458988133,-0.2009988276370398,-0.49125977084606454,-0.38238017075048464,0.015409810482579885,0.03218319418123397,-0.6510762336712214
7450,6.0,300.14612,3755.9804,0.0,0.0,0.0,0.0,0.0,-0.07425273139946514,-0.24289333501670576,-0.49539974863464853,-0.4034311711180566,0.030587965647797172,-0.016576075533181283,-0.6096206561023745
7451,6.0,299.81916,3588.3533,0.0,0.0,0.0,0.0,0.0,-0.07426269820904893,-0.25963090944357575,-0.4642539503032976,-0.36688494227122465,-0.015123401156313485,-0.022225058324692477,-0.6177278829349955
7452,6.0,301.12675,3521.9886,0.0,0.0,0.0,0.0,0.0,-0.07427266501863275,-0.20802571708053982,-0.5127175404662815,-0.34985332266533464,-0.029069124012899173,-0.022239232680341378,-0.6533164891123173
7453,6.0,299.47493,3518.6969,0.0,0.0,0.0,0.0,0.0,-0.0742826318282166,-0.22213222550274378,-0.4941484860861585,-0.3533152841495037,0.006367115389910364,0.018672579156090083,-0.6310843937656805
7454,6.0,299.98921,3760.3567,0.0,0.0,0.0,0.0,0.0,-0.07429259863780041,-0.20609015607701478,-0.5270252803583455,-0.4099391143903406,-0.007461001959368562,-0.0032215512806423566,-0.6208608623766965
7455,6.0,300.76955,3916.1498,0.0,0.0,0.0,0.0,0.0,-0.07430256544738423,-0.24047928691845777,-0.5376869917530744,-0.4122454844004616,0.005108057705751045,-0.02001734037080768,-0.6152586735013034
7456,6.0,300.90691,3836.5738,0.0,0.0,0.0,0.0,0.0,-0.07431253225696804,-0.24686499169867776,-0.5067054311304325,-0.4126522232556036,-0.01055582067977839,-0.02893582184299327,-0.6075118495967514
7457,6.0,300.7209,3408.3244,0.0,0.0,0.0,0.0,0.0,-0.07432249906655189,-0.2311319027584428,-0.4693820698544036,-0.33553154925938566,0.016611535233680884,0.02093178440055628,-0.6121865498606085
7458,6.0,300.41466,3468.8939,0.0,0.0,0.0,0.0,0.0,-0.07433246587613568,-0.18513039888094784,-0.4924446756455055,-0.3768820527928627,0.007323645978462583,-0.007215284250493113,-0.6092367863019895
7459,6.0,299.22774,3708.448,0.0,0.0,0.0,0.0,0.0,-0.0743424326857195,-0.2554068420291928,-0.47543344263162757,-0.3964353175251196,-0.008771106372965801,-0.011156262556537387,-0.6316737000238404
7460,6.0,299.29708,3701.5164,0.0,0.0,0.0,0.0,0.0,-0.07435239949530334,-0.2181352375682718,-0.5034184072760285,-0.4036149138911906,-0.02181784425525358,0.006222032161091765,-0.6400626711792674
7461,6.0,299.1937,3398.3116,0.0,0.0,0.0,0.0,0.0,-0.07436236630488716,-0.2039547112262628,-0.47160864641914957,-0.3574385129139347,-0.03126639839800327,0.03039739762198957,-0.6369718936042315
7462,6.0,299.86422000000005,3313.6896,0.0,0.0,0.0,0.0,0.0,-0.07437233311447097,-0.21670151907427476,-0.44282498738342363,-0.34775237898048766,0.0006922666740864014,0.004218871974495246,-0.6044630104433545
7463,6.0,299.43417,3721.5454,0.0,0.0,0.0,0.0,0.0,-0.07438229992405476,-0.23970948028748376,-0.5154673695151685,-0.37608000454370666,0.019191244657028383,-0.03389507617218357,-0.6295704866587694
7464,6.0,300.2471,3779.3752,0.0,0.0,0.0,0.0,0.0,-0.0743922667336386,-0.2196073177110548,-0.5206128359079866,-0.40861554631471464,0.028049249283745376,-0.017163701822675483,-0.6372904797006734
7465,6.0,299.93502,3685.1826,0.0,0.0,0.0,0.0,0.0,-0.07440223354322242,-0.22765483371528278,-0.5130683479159035,-0.37948029962678964,0.027770489995733973,0.014801533142797588,-0.6349228080595024
7466,6.0,300.46287,3473.0231,0.0,0.0,0.0,0.0,0.0,-0.07441220035280624,-0.16051735831682984,-0.4808160298128476,-0.41437891288351464,0.009352990675468312,0.014900198371285088,-0.6197853683230534
7467,6.0,300.80088,3336.4509,0.0,0.0,0.0,0.0,0.0,-0.07442216716239008,-0.17321686765017383,-0.47467973654474255,-0.36630116835861065,-0.011853029054052888,0.015440416715100486,-0.6168935626701545
7468,6.0,300.39009,3559.3472,0.0,0.0,0.0,0.0,0.0,-0.0744321339719739,-0.2040849341291148,-0.49141297426118447,-0.38645477364261666,-0.02323204755232458,0.016859181664121682,-0.6394194802807894
7469,6.0,298.52965,3779.0374,0.0,0.0,0.0,0.0,0.0,-0.07444210078155772,-0.26385983032593774,-0.4694500792011156,-0.4154231076415686,-0.04120911461452296,0.017178736427659283,-0.6126429278381493
7470,6.0,299.33791,3602.4769,0.0,0.0,0.0,0.0,0.0,-0.07445206759114156,-0.2244864513150878,-0.4960390486527425,-0.37453752378397565,-0.04074571988003946,-0.025338803239745175,-0.6469553353820204
7471,6.0,299.98304,3429.7613,0.0,0.0,0.0,0.0,0.0,-0.07446203440072535,-0.2024694790971818,-0.4847324947618725,-0.3553597999362817,0.005760915719458115,-0.018981117864540483,-0.6344912749744134
7472,6.0,300.43169,3620.0256,0.0,0.0,0.0,0.0,0.0,-0.07447200121030917,-0.18662022103298181,-0.5103231392874725,-0.4034540300403126,-0.003481993438645997,0.02135412021448758,-0.6711089075557924
7473,6.0,299.53275,3697.1939,0.0,0.0,0.0,0.0,0.0,-0.07448196801989299,-0.25123235294220275,-0.4987546095832476,-0.37386766414286565,0.027451551288257176,0.04661268316556366,-0.6139604164131754
7474,6.0,299.39234,3486.7291,0.0,0.0,0.0,0.0,0.0,-0.07449193482947683,-0.21169361151503277,-0.45580391056434355,-0.3923810708274966,0.0025459158099873274,0.025101531477078273,-0.6093196498951674
7475,6.0,300.66623,3519.2582,0.0,0.0,0.0,0.0,0.0,-0.07450190163906065,-0.2149814459695168,-0.4897726946018015,-0.36501245608642463,0.005269248976709385,-0.0016238883125152981,-0.6042418078140234
7476,6.0,300.26318,3657.9833,0.0,0.0,0.0,0.0,0.0,-0.07451186844864446,-0.2077096539768468,-0.5006992999701735,-0.4035266395424786,0.01124342638313979,-0.0008042520782560001,-0.6117914937791193
7477,6.0,299.01227,3645.5222,0.0,0.0,0.0,0.0,0.0,-0.07452183525822825,-0.2015849928198898,-0.5073793843019465,-0.3991833531213296,0.011371322863762188,-0.001929353833412398,-0.6273783707299244
7478,6.0,299.80742999999995,3684.9339,0.0,0.0,0.0,0.0,0.0,-0.0745318020678121,-0.19704712184953682,-0.5016752523339926,-0.4214055186169866,-0.01964717781777548,-0.01000747323306071,-0.6102908399835164
7479,6.0,300.8178,3702.2453,0.0,0.0,0.0,0.0,0.0,-0.07454176887739591,-0.2325519727735928,-0.48596900438890656,-0.4068691388398576,-0.0032027415084359767,-0.011638862433416289,-0.6215322418929564
7480,6.0,300.6634,3470.5254,0.0,0.0,0.0,0.0,0.0,-0.07455173568697976,-0.22049742752640178,-0.4860747573018436,-0.34838088788501664,-0.003301621849919707,0.03270815196529327,-0.6248538479732734
7481,6.0,301.50337,3507.0987,0.0,0.0,0.0,0.0,0.0,-0.07456170249656355,-0.2297469722567608,-0.48070485601187557,-0.3556186042768237,0.03585506663561957,0.04082594496995706,-0.6318079657945914
7482,6.0,300.76931,3652.6804,0.0,0.0,0.0,0.0,0.0,-0.07457166930614739,-0.25783807484913673,-0.48218887224083656,-0.37029667694793666,-0.002134658467349388,-0.008194000659259904,-0.5923045563984084
7483,6.0,300.4218,3556.4812,0.0,0.0,0.0,0.0,0.0,-0.07458163611573118,-0.19129076697142883,-0.5228091466922454,-0.3669815658007607,-0.0027500221743560573,-0.018129084974701382,-0.6374300346369464
7484,6.0,299.42933,3494.3476,0.0,0.0,0.0,0.0,0.0,-0.07459160292531503,-0.17335026202583884,-0.5040407049574445,-0.38480344955714363,-0.02018894542099378,0.003930551253240207,-0.6390688349511834
7485,6.0,298.77305,3725.5175,0.0,0.0,0.0,0.0,0.0,-0.07460156973489884,-0.25078621892317277,-0.5050908576260865,-0.37658721727876465,0.00873612097483801,0.02145295262924158,-0.6251579547257864
7486,6.0,300.08352,3912.1852,0.0,0.0,0.0,0.0,0.0,-0.07461153654448266,-0.25777716838562575,-0.5322299002920016,-0.3991995549904286,-0.03280427697578007,-0.0031611251990037673,-0.6105582569499084
7487,6.0,301.71779,3688.4958,0.0,0.0,0.0,0.0,0.0,-0.07462150335406648,-0.25408399336113774,-0.48207192291429457,-0.38505471531694163,-0.0014375830298783987,-0.03445765998545627,-0.6107570870170315
7488,6.0,300.85031000000004,3498.3861,0.0,0.0,0.0,0.0,0.0,-0.07463147016365032,-0.17827528572690082,-0.5027186770219706,-0.38242806708271165,0.00898902647727284,-0.004127136768741687,-0.6364666465743675
7489,6.0,300.41956,3441.0112,0.0,0.0,0.0,0.0,0.0,-0.07464143697323414,-0.17057478761692083,-0.48573166068548257,-0.3896750344479316,0.025167939888632276,-0.007132395528712634,-0.6204633440974644
7490,6.0,299.78013,3528.2962,0.0,0.0,0.0,0.0,0.0,-0.07465140378281798,-0.18421483622308882,-0.48662134493578757,-0.4016777620850086,0.0028529330220875672,0.0011522157300148388,-0.6255417839961673
7491,6.0,300.57068,3771.2937,0.0,0.0,0.0,0.0,0.0,-0.07466137059240174,-0.2736967966692707,-0.5076160592603045,-0.3650662596667346,-0.01148231731946649,-0.003185838571592787,-0.6224632160848363
7492,6.0,299.51236,3725.4061,0.0,0.0,0.0,0.0,0.0,-0.07467133740198559,-0.23786706736565177,-0.49678956300181254,-0.3977738006422176,-0.009375030081043432,0.03094712329149327,-0.6187139272698104
7493,6.0,298.59438,3472.8128,0.0,0.0,0.0,0.0,0.0,-0.0746813042115694,-0.22457899144672075,-0.5062237421653935,-0.32484565158476975,0.012805069728761987,0.006545943190784294,-0.6315740671415074
7494,6.0,300.01272,3517.8348,0.0,0.0,0.0,0.0,0.0,-0.07469127102115325,-0.18716828801207183,-0.4863195179959996,-0.3958461227244706,0.002852194362764667,-0.010973935293793091,-0.6235533212049214
7495,6.0,300.56243,3816.4002,0.0,0.0,0.0,0.0,0.0,-0.07470123783073707,-0.22388293929052577,-0.5042608436741705,-0.43194659245480954,0.013595178851989687,-0.023870057703041278,-0.6236286968798604
7496,6.0,299.54879,3585.3353,0.0,0.0,0.0,0.0,0.0,-0.07471120464032088,-0.1990610982783008,-0.49764019659326353,-0.3931511307709956,0.02184109327879808,-0.004538948156534306,-0.6440056832809123
7497,6.0,300.51455,3307.0464,0.0,0.0,0.0,0.0,0.0,-0.07472117144990467,-0.20787248326791682,-0.4476672285513155,-0.3497198168321587,0.04824264388592825,-0.0016106464509334285,-0.6171996756578655
7498,6.0,300.45895,3436.0314,0.0,0.0,0.0,0.0,0.0,-0.07473113825948852,-0.20333585859518682,-0.46490562210511255,-0.3762262773281426,0.024520035350689078,-0.02175467419101918,-0.6141287780497914
7499,6.0,300.23496,3698.1919,0.0,0.0,0.0,0.0,0.0,-0.07474110506907233,-0.25295779627249076,-0.49366962408889853,-0.3775305733868667,-0.01127476316898249,-0.039693628863956165,-0.6249640591866504
7500,6.0,299.49994,3898.5232,0.0,0.0,0.0,0.0,0.0,-0.07475107187865618,-0.2159534770554488,-0.5225707188112145,-0.4465294905440296,-0.015853482303866885,-0.018520936146124083,-0.6243912891701224
7501,6.0,298.76847999999995,3742.9716,0.0,0.0,0.0,0.0,0.0,-0.07476103868823997,-0.2003143163994838,-0.5310949791199935,-0.4063606190121706,-2.188341774872518e-05,0.014121781140961286,-0.6213730096397414
7502,6.0,299.74006,3444.974,0.0,0.0,0.0,0.0,0.0,-0.07477100549782381,-0.18985192143192584,-0.4805148918831275,-0.3768192414191637,-0.01253955361955759,0.0011314757163679592,-0.6331978713542643
7503,6.0,300.39264,3576.6814,0.0,0.0,0.0,0.0,0.0,-0.07478097230740763,-0.23542477998711675,-0.4777488204351375,-0.3740482354431866,-0.00977478561649623,-0.0019995225174125083,-0.6315053789172284
7504,6.0,299.6848,3628.3612,0.0,0.0,0.0,0.0,0.0,-0.07479093911699145,-0.23945703915756977,-0.4914615292059766,-0.37201263625728864,-0.011720850578507889,0.037232738213585165,-0.6608781516935953
7505,6.0,300.20068,3556.4662,0.0,0.0,0.0,0.0,0.0,-0.07480090592657526,-0.2283632069926938,-0.47200664092592853,-0.3807070719203627,0.02069902160083438,0.05047574780781845,-0.6238879774479494
7506,6.0,300.75212999999997,3409.8073,0.0,0.0,0.0,0.0,0.0,-0.07481087273615908,-0.14809823555115786,-0.4964051460463735,-0.39199290484668764,-0.015168674184031585,0.025907089624580677,-0.6532298764937693
7507,6.0,300.95742,3597.6295,0.0,0.0,0.0,0.0,0.0,-0.0748208395457429,-0.18157295883985583,-0.5075855604322945,-0.40443100578673263,-0.0011858876520379987,-0.006713218623293094,-0.6278162467606394
7508,6.0,300.03096,3897.1683,0.0,0.0,0.0,0.0,0.0,-0.07483080635532674,-0.27004056474342875,-0.5002850326667885,-0.4143162433648296,-0.01955332755376318,-0.0031183908694112166,-0.6354260589866694
7509,6.0,299.73433,3828.1574,0.0,0.0,0.0,0.0,0.0,-0.07484077316491056,-0.26667331174610676,-0.5174360840619655,-0.3795548748341496,0.01164010569128899,0.013256437184558488,-0.6141900898133424
7510,6.0,299.44552999999996,3568.9338,0.0,0.0,0.0,0.0,0.0,-0.0748507399744944,-0.23053339618937477,-0.47716647520516453,-0.37716686726347165,-0.0015700385280007383,-0.013285444508421288,-0.6048242948990105
7511,6.0,300.01788999999997,3771.7459999999996,0.0,0.0,0.0,0.0,0.0,-0.07486070678407816,-0.23148193000548778,-0.5173894340273615,-0.3976452496020306,0.009309454155771592,-0.025459481326655178,-0.6206136394847974
7512,6.0,298.37545,3770.9219,0.0,0.0,0.0,0.0,0.0,-0.07487067359366201,-0.2026122460362718,-0.5169437559708765,-0.4267101058055086,0.014506716880451487,0.010598537277494189,-0.6214676775965844
7513,6.0,298.62285,3630.0483,0.0,0.0,0.0,0.0,0.0,-0.07488064040324582,-0.22109799099317282,-0.47675322115187957,-0.4055928490138976,0.02145323228626918,0.04934373061059705,-0.6173384503915614
7514,6.0,298.81142,3571.8468,0.0,0.0,0.0,0.0,0.0,-0.07489060721282967,-0.2148216462962458,-0.4992180600464865,-0.37171252171016966,0.007767080091276123,0.017484652844850884,-0.6035151555048084
7515,6.0,299.93143,3381.6968,0.0,0.0,0.0,0.0,0.0,-0.07490057402241349,-0.22449462824339478,-0.47357907335861554,-0.32987769476139367,-0.025475167451453274,-0.023483255556866877,-0.6323722751727844
7516,6.0,299.44261,3466.3192,0.0,0.0,0.0,0.0,0.0,-0.0749105408319973,-0.2193693153950658,-0.47459399532128055,-0.35971117209322867,-0.0019013633060249485,-0.001026514861034129,-0.6153687833896704
7517,6.0,300.14689,3772.4328,0.0,0.0,0.0,0.0,0.0,-0.07492050764158109,-0.24586390059987775,-0.5239668153289986,-0.37689464749160567,-0.00941021579871599,0.025377044311769275,-0.6345375906364844
7518,6.0,299.92432,3596.5766,0.0,0.0,0.0,0.0,0.0,-0.07493047445116494,-0.17060361458226583,-0.5084132540414815,-0.4142526213910506,-0.0025229519150209677,-0.0017167694028069488,-0.6169035533161404
7519,6.0,300.73249,3569.6033,0.0,0.0,0.0,0.0,0.0,-0.07494044126074875,-0.2081914543993968,-0.5078876305521065,-0.3689911852540947,-0.024667381166980976,-0.01953094384580408,-0.6465376027632933
7520,6.0,299.84094,3860.9288,0.0,0.0,0.0,0.0,0.0,-0.0749504080703326,-0.2098771377957608,-0.5373508358998984,-0.4263979639797026,-0.009334116663205591,0.009514148813148382,-0.6286479427077214
7521,6.0,300.16146000000003,3843.7614,0.0,0.0,0.0,0.0,0.0,-0.07496037487991639,-0.2676126047213077,-0.5172724340383146,-0.3835224582507196,0.007470411709072232,0.016184705655556086,-0.6179247776944274
7522,6.0,299.78787,3576.2879,0.0,0.0,0.0,0.0,0.0,-0.07497034168950023,-0.20785876386156282,-0.5034711368112326,-0.37577233115084163,-2.5485870412259576e-05,-0.033027747258834866,-0.6164845338697864
7523,6.0,299.8616,3579.5844,0.0,0.0,0.0,0.0,0.0,-0.07498030849908405,-0.20858675366090978,-0.49870006633036457,-0.3808174655187576,0.017871671826546684,-0.028925853488509474,-0.6272877456409804
7524,6.0,299.47006,3568.5856,0.0,0.0,0.0,0.0,0.0,-0.07499027530866789,-0.16309525908874883,-0.5122320518133675,-0.40943359378294963,-0.005946124868136835,-0.02024750823702348,-0.6235458636841854
7525,6.0,300.17873,3545.7364,0.0,0.0,0.0,0.0,0.0,-0.07500024211825168,-0.23121820126945977,-0.47730215952605554,-0.36929497789907667,0.01876324274853788,0.031423280924236366,-0.6283580619866124
7526,6.0,299.50872000000004,3644.4195,0.0,0.0,0.0,0.0,0.0,-0.0750102089278355,-0.2106197487940508,-0.48293965003493255,-0.4142531280161006,0.004813890734069026,-0.0032313457614089967,-0.6016846888016555
7527,6.0,298.80256,3680.5315,0.0,0.0,0.0,0.0,0.0,-0.07502017573741931,-0.26717924778603874,-0.48846210625995656,-0.36314830894994765,-0.004730048442619436,0.004051478700999816,-0.6194725070896764
7528,6.0,298.88999,3631.6594,0.0,0.0,0.0,0.0,0.0,-0.07503014254700316,-0.22430485663216582,-0.4859168321412575,-0.3937120862913576,0.016459217399148286,0.0019525212903238483,-0.6104888391855574
7529,6.0,298.39037,3777.3011,0.0,0.0,0.0,0.0,0.0,-0.07504010935658698,-0.2561296541205288,-0.49999524313818855,-0.3920803179328146,-0.008210489987412271,0.03079158636139297,-0.6168530833286594
7530,6.0,299.66476,3875.5028,0.0,0.0,0.0,0.0,0.0,-0.07505007616617082,-0.24734919352396476,-0.5031340892979685,-0.42757280720565055,0.01035754688696029,-0.0014063480756707487,-0.6089180279530304
7531,6.0,300.63396,3654.3351,0.0,0.0,0.0,0.0,0.0,-0.07506004297575458,-0.25156819468784775,-0.47722880021881553,-0.38202962674588864,-0.004731512285038905,-0.026528751998183973,-0.6251178502868284
7532,6.0,300.08714,3421.8465,0.0,0.0,0.0,0.0,0.0,-0.07507000978533843,-0.18105363776610284,-0.47723839569726256,-0.3818638488970276,0.02062276642480858,-0.015369153822317384,-0.6340259601309904
7533,6.0,300.56153,3546.7058,0.0,0.0,0.0,0.0,0.0,-0.07507997659492224,-0.23550241520977877,-0.4802577594052505,-0.3623498374736447,0.013273895483781488,-0.01945206131226898,-0.6231758146151644
7534,6.0,300.50019,3670.5011,0.0,0.0,0.0,0.0,0.0,-0.07508994340450609,-0.2061556728284808,-0.5153527810613595,-0.39423220783268964,0.01931147590064428,-0.014084952539576588,-0.6296008233667635
7535,6.0,298.80518,3500.5490000000004,0.0,0.0,0.0,0.0,0.0,-0.0750999102140899,-0.18632489915883582,-0.49487969802082354,-0.3828748901118096,-0.01930700240145278,-0.006161290452047025,-0.6383315536484193
7536,6.0,300.03032,3592.5627,0.0,0.0,0.0,0.0,0.0,-0.07510987702367372,-0.19113787766383983,-0.5184174775788215,-0.3824939992667186,0.0006689484556925724,0.0019881248723376483,-0.6540227446970193
7537,6.0,300.47715,3454.0198,0.0,0.0,0.0,0.0,0.0,-0.07511984383325751,-0.21194966994780381,-0.4721931296068335,-0.36579298290345663,-0.014168601401582088,0.04027089061817746,-0.6161088409977085
7538,6.0,299.40418999999997,3411.5038,0.0,0.0,0.0,0.0,0.0,-0.07512981064284135,-0.21238151714042378,-0.48012988724263056,-0.34450056556705866,-0.029389273554245473,-0.0002292040627206798,-0.6501724247145224
7539,6.0,299.13599,3788.3849,0.0,0.0,0.0,0.0,0.0,-0.07513977745242517,-0.27226097061506577,-0.48033634708300654,-0.39897708579847263,-0.004135050961297756,0.014706751701943386,-0.6148181731528295
7540,6.0,299.33657,3829.3586,0.0,0.0,0.0,0.0,0.0,-0.07514974426200902,-0.21743059305122878,-0.5248295775241465,-0.4217692146078806,-0.003997240132421886,0.005839467832135604,-0.6333901558257414
7541,6.0,300.08799999999997,3756.1095,0.0,0.0,0.0,0.0,0.0,-0.0751597110715928,-0.2194351462540628,-0.5160084146710655,-0.4063199268881546,0.03888790251693716,0.02589323748246358,-0.6257821370523884
7542,6.0,300.04805,3720.902,0.0,0.0,0.0,0.0,0.0,-0.07516967788117665,-0.2039264415484728,-0.5072222494764386,-0.41991259591964664,0.011745740053964289,-0.003386495325996067,-0.6234721294744083
7543,6.0,298.36779,3708.2014,0.0,0.0,0.0,0.0,0.0,-0.07517964469076047,-0.24098192989556477,-0.4953667470788915,-0.39085196496908564,0.005829457427772655,-0.010211047134501891,-0.6221210313935654
7544,6.0,299.36964,3600.7521,0.0,0.0,0.0,0.0,0.0,-0.07518961150034431,-0.2065519144125868,-0.4998634598301825,-0.38812334324479164,0.022457950820427182,-0.026073562563010275,-0.6267506318954714
7545,6.0,300.15333,3521.2824,0.0,0.0,0.0,0.0,0.0,-0.0751995783099281,-0.23021874150332078,-0.4695313317266345,-0.37063183981601466,-0.004241270779880836,0.0036477169773016364,-0.5903796547859355
7546,6.0,300.62372,3525.9895,0.0,0.0,0.0,0.0,0.0,-0.07520954511951192,-0.19343903956844682,-0.4824521956768245,-0.39592151866441166,0.004401794825648326,-0.017749987582287383,-0.6034544618238185
7547,6.0,300.64637,3690.1423,0.0,0.0,0.0,0.0,0.0,-0.07521951192909573,-0.2438885796624288,-0.48923938054416755,-0.38858316627267264,-0.01905782191036058,-0.013280673113700386,-0.5958393502997654
7548,6.0,300.50333,3841.1786,0.0,0.0,0.0,0.0,0.0,-0.07522947873867958,-0.23464411131507076,-0.5228117000824974,-0.4101665586402876,0.00978216005072403,0.004590855945907206,-0.6545807719245924
7549,6.0,299.70725,4093.1944,0.0,0.0,0.0,0.0,0.0,-0.0752394455482634,-0.3018909366643157,-0.5322997841513986,-0.41003817985261765,-0.0035535947569624964,0.010076651262438051,-0.6153412837819564
7550,6.0,300.31666,3783.9076,0.0,0.0,0.0,0.0,0.0,-0.07524941235784724,-0.2260291955198448,-0.5309381989320205,-0.39324604190786266,0.0015894650655429883,-0.018286885505525083,-0.6555511716778634
7551,6.0,298.67681,3386.5809999999997,0.0,0.0,0.0,0.0,0.0,-0.075259379167431,-0.1885827750191708,-0.47917887096377254,-0.36167440495698466,0.006186602047495084,-0.025782884414072577,-0.6305819737035954
7552,6.0,300.01942,3636.4721,0.0,0.0,0.0,0.0,0.0,-0.07526934597701485,-0.15475913905853786,-0.5377244617417725,-0.4129131250238526,-6.469309768496164e-05,0.004327317092947946,-0.6686767121482533
7553,6.0,299.63317,3440.1447,0.0,0.0,0.0,0.0,0.0,-0.07527931278659866,-0.19255794767898982,-0.4661598028138906,-0.3870003480264606,0.0017468870461293284,0.031551496578640266,-0.6105644479080193
7554,6.0,298.91674,3131.7886,0.0,0.0,0.0,0.0,0.0,-0.0752892795961825,-0.14438694361488186,-0.48427342153906555,-0.3233251786172107,-0.0016015076443064984,-0.009637104382308151,-0.6604267994365504
7555,6.0,299.31461,3434.1194,0.0,0.0,0.0,0.0,0.0,-0.07529924640576632,-0.22246454113804076,-0.4791796410338485,-0.3422423553341907,-0.02060622106392568,-0.0012317459330138587,-0.6152563734235764
7556,6.0,300.76601,3862.1668,0.0,0.0,0.0,0.0,0.0,-0.07530921321535014,-0.2369887923114728,-0.5353596981283885,-0.4016537683226406,0.005008189344094805,-0.017975794420072785,-0.6335700786459985
7557,6.0,300.34766,4166.8401,0.0,0.0,0.0,0.0,0.0,-0.07531918002493393,-0.27911919444691974,-0.5648016860190864,-0.42269447406919664,-0.006682500933261493,4.7574695234506855e-05,-0.6102415858961554
7558,6.0,300.72404,4170.9971,0.0,0.0,0.0,0.0,0.0,-0.07532914683451777,-0.24386417046751976,-0.5542963697772925,-0.4697184384901006,-0.002872139785683127,-0.013142660344079588,-0.6081342182056745
7559,6.0,299.26067,3910.1791,0.0,0.0,0.0,0.0,0.0,-0.07533911364410159,-0.26936118055137875,-0.5200312911455925,-0.3992043375309006,-0.01041867322574299,0.0023884987943264776,-0.6073744022206864
7560,6.0,300.63599999999997,3584.6547,0.0,0.0,0.0,0.0,0.0,-0.07534908045368541,-0.23935399162239976,-0.4681233497851775,-0.38216817856456264,0.008984159938367552,0.02094550482016038,-0.6478958746548443
7561,6.0,301.21926,3692.0293,0.0,0.0,0.0,0.0,0.0,-0.07535904726326922,-0.25427812194779675,-0.5012337387354185,-0.3667728666776636,-0.015654864006014787,0.015315847747806486,-0.6320396960924614
7562,6.0,301.11938,3666.4395,0.0,0.0,0.0,0.0,0.0,-0.07536901407285307,-0.21125267546901583,-0.5094698915107635,-0.39378350015840563,0.0006390722597365214,-0.016352043909571085,-0.6438916318496564
7563,6.0,299.94109,3523.7811,0.0,0.0,0.0,0.0,0.0,-0.07537898088243689,-0.19419515719056982,-0.47913266675921257,-0.39781366190115164,-0.013063242814491689,-0.02191665032550498,-0.6331652953635494
7564,6.0,299.91854,3463.9762,0.0,0.0,0.0,0.0,0.0,-0.07538894769202067,-0.15010278875399186,-0.5190908430652775,-0.3837686476275166,0.0008994698448682622,-0.005391087944258954,-0.6548381070524893
7565,6.0,298.1358,3620.7139,0.0,0.0,0.0,0.0,0.0,-0.07539891450160452,-0.2334416367588958,-0.47568028048848854,-0.39148469912653167,0.01144628310616019,-0.013225290889734587,-0.6019576279810924
7566,6.0,299.95162,4023.7901,0.0,0.0,0.0,0.0,0.0,-0.07540888131118834,-0.2533720737083768,-0.5615810807087375,-0.40817856194408764,0.007441857206679123,-0.011514562990648888,-0.6405498215623454
7567,6.0,298.46704,3855.1129,0.0,0.0,0.0,0.0,0.0,-0.07541884812077215,-0.26293389198705475,-0.5121524407530105,-0.39677171655831966,0.0029515734259476173,-0.008075888526903142,-0.6223701186656484
7568,6.0,299.66618,3644.5142,0.0,0.0,0.0,0.0,0.0,-0.075428814930356,-0.20787701249586382,-0.5088832501003665,-0.3910810405516936,0.004033671742417406,0.004360510051648836,-0.6653348410659364
7569,6.0,301.06846,3595.4387,0.0,0.0,0.0,0.0,0.0,-0.07543878173993981,-0.2079476968228398,-0.49646462382724355,-0.3885112559130756,0.0049678234866110055,0.005417407216931465,-0.6140851475004854
7570,6.0,301.06234,3578.9344,0.0,0.0,0.0,0.0,0.0,-0.0754487485495236,-0.18073086694674784,-0.4914940140041826,-0.41568181065710064,-0.016349065967527186,-0.01129251733723469,-0.6424485509247354
7571,6.0,299.73078,3501.6742,0.0,0.0,0.0,0.0,0.0,-0.07545871535910742,-0.22260828079722678,-0.4579686484754866,-0.38384459072251165,-0.017495714496192583,0.012707936534425687,-0.6113218827552724
7572,6.0,301.25816000000003,3527.2361,0.0,0.0,0.0,0.0,0.0,-0.07546868216869126,-0.1918020935018928,-0.4869682919025286,-0.3934213139101606,-0.01837697863816658,0.055206673319724446,-0.6560056751427193
7573,6.0,299.35076000000004,3454.2243,0.0,0.0,0.0,0.0,0.0,-0.07547864897827508,-0.20770299692368982,-0.4731509954563676,-0.3691439428391707,-0.008805059066591672,0.00890264427179758,-0.6436016498035374
7574,6.0,299.3484,3639.1037,0.0,0.0,0.0,0.0,0.0,-0.0754886157878589,-0.21676790722082678,-0.5010160216864316,-0.3884127477383536,0.004092374082985876,-0.02446187074194868,-0.6494110483243805
7575,6.0,299.50911,3946.8904,0.0,0.0,0.0,0.0,0.0,-0.07549858259744274,-0.2566866883630038,-0.5244917092783016,-0.41857774023790656,0.01088901480291209,-0.041185843299476256,-0.6187001166709474
7576,6.0,299.51923,3716.5368,0.0,0.0,0.0,0.0,0.0,-0.07550854940702656,-0.23371230625810877,-0.4978612067050755,-0.39816087231291863,0.04094654807635966,-0.008899390827051492,-0.6152538706958295
7577,6.0,299.73331,3630.4467,0.0,0.0,0.0,0.0,0.0,-0.07551851621661035,-0.22600896091534778,-0.49619670023580154,-0.38135946312974867,0.026536275380176475,-0.00015931161096283185,-0.5900745449158235
7578,6.0,299.73036,3719.4529,0.0,0.0,0.0,0.0,0.0,-0.07552848302619417,-0.2284397377727468,-0.48497316192562456,-0.4172079071627146,0.003768593661231236,0.014250337247398787,-0.6050302987768414
7579,6.0,299.45829,3914.8854,0.0,0.0,0.0,0.0,0.0,-0.07553844983577801,-0.24118848092844974,-0.5335187341541995,-0.4153201816964106,-0.006844511720900713,0.012949707127536588,-0.6445058235302724
7580,6.0,301.31658999999996,3986.5953,0.0,0.0,0.0,0.0,0.0,-0.07554841664536183,-0.24753442577474577,-0.5406879041767415,-0.4236031060963716,-0.007123818569266154,0.03239811465994497,-0.6665722423530583
7581,6.0,300.86953,3718.2405,0.0,0.0,0.0,0.0,0.0,-0.07555838345494564,-0.21041329908617581,-0.4866532927114406,-0.43318566560459665,-0.0014351361322119086,-0.007254151511079013,-0.6481098224134594
7582,6.0,298.77367999999996,3348.6122,0.0,0.0,0.0,0.0,0.0,-0.07556835026452946,-0.15692893308767983,-0.5125832139005245,-0.3483823469651606,-0.01348504261912009,-0.03451541524115627,-0.6473833018267574
7583,6.0,299.75433,3383.696,0.0,0.0,0.0,0.0,0.0,-0.0755783170741133,-0.1965576004612248,-0.44987402647410957,-0.3821274763080456,0.012665214870459386,-0.01115041002395979,-0.6393690508233124
7584,6.0,300.32705,3682.1834,0.0,0.0,0.0,0.0,0.0,-0.0755882838836971,-0.2089598019502268,-0.5155196025578235,-0.3948124049724506,-0.007351186217505593,0.02231811724037668,-0.6321745799457734
7585,6.0,300.97202000000004,3581.9733,0.0,0.0,0.0,0.0,0.0,-0.07559825069328094,-0.2357799545446698,-0.5064696376996615,-0.3465808389498657,-0.013277351679872589,0.0012568924700206289,-0.6454473557881943
7586,6.0,300.43399,3468.8841,0.0,0.0,0.0,0.0,0.0,-0.07560821750286473,-0.2029937448314228,-0.4724093977081775,-0.37905101595692264,-0.025426615546411575,-0.012567664217081886,-0.6313171474461514
7587,6.0,299.13172000000003,3710.3158,0.0,0.0,0.0,0.0,0.0,-0.07561818431244857,-0.23670472764593778,-0.5293019216105325,-0.36183669722550166,0.02738410530860077,-0.01963325778790168,-0.6448094337902364
7588,6.0,299.07934,3931.7876,0.0,0.0,0.0,0.0,0.0,-0.07562815112203239,-0.26249735344647174,-0.5171584839320685,-0.41550940615258564,0.03795264531688446,0.0027539246057911976,-0.6185366591648154
7589,6.0,300.02547999999996,3893.5085,0.0,0.0,0.0,0.0,0.0,-0.07563811793161623,-0.2609716622408978,-0.5064850188361795,-0.41607268201567654,0.012975481170330289,-0.03330558651575547,-0.6216114172557704
7590,6.0,299.77366,3651.6447,0.0,0.0,0.0,0.0,0.0,-0.07564808474120002,-0.2115705624228888,-0.5141198076771745,-0.38431842699927565,-0.01059656549279959,-0.005453127728006805,-0.6420077972637364
7591,6.0,299.01561,3439.0435,0.0,0.0,0.0,0.0,0.0,-0.07565805155078384,-0.2109113824378328,-0.4605499031052365,-0.37392208580573666,-0.016973290850633385,0.028898124886272872,-0.6401015901156084
7592,6.0,299.86249,3408.7923,0.0,0.0,0.0,0.0,0.0,-0.07566801836036766,-0.18168582476849482,-0.4939203122961396,-0.3605816147241347,-0.015551449674308587,0.050896444183087954,-0.6703780502586624
7593,6.0,299.93836,3494.0106,0.0,0.0,0.0,0.0,0.0,-0.0756779851699515,-0.18345081525018583,-0.49440747281171854,-0.3842336990259136,-0.027993374620230972,0.001293497953733309,-0.6573247342554004
7594,6.0,300.07597999999996,3618.6619,0.0,0.0,0.0,0.0,0.0,-0.07568795197953532,-0.22881304950708978,-0.4776253964404565,-0.3935443933998076,-0.018363497345586084,-0.024716572432835773,-0.6052339823119435
7595,6.0,300.33007000000003,3620.5611,0.0,0.0,0.0,0.0,0.0,-0.07569791878911916,-0.19998855649233382,-0.5254021550231555,-0.37516945747384267,0.016799586346240084,-0.023404142002308975,-0.6270384759838795
7596,6.0,300.23467,3720.1045,0.0,0.0,0.0,0.0,0.0,-0.07570788559870292,-0.24457893735306177,-0.4979368154275376,-0.3883031242100346,0.039563555922118965,0.003059105403410197,-0.5880184274154004
7597,6.0,299.91143999999997,4050.5109,0.0,0.0,0.0,0.0,0.0,-0.07571785240828677,-0.26450697289980574,-0.5437801610969235,-0.4229670383460966,0.015208724920734286,-0.032636735058494966,-0.6129253611710234
7598,6.0,300.53083,4027.1712,0.0,0.0,0.0,0.0,0.0,-0.07572781921787058,-0.24934219567565877,-0.5528949232989805,-0.4219223572279946,-0.002269853489767098,-0.014008878735318685,-0.6258184418034715
7599,6.0,299.08692,3708.3836,0.0,0.0,0.0,0.0,0.0,-0.07573778602745443,-0.21308058878191677,-0.4891281966106945,-0.4250472104038936,0.012265851462795288,0.012139848746609788,-0.6634796206628404
7600,6.0,300.31815,3741.4284,0.0,0.0,0.0,0.0,0.0,-0.07574775283703825,-0.21275418039470279,-0.5307154055000325,-0.3938312242381156,0.03016226989653427,0.029790993781642173,-0.6496148737144964
7601,6.0,299.37402000000003,3627.6215,0.0,0.0,0.0,0.0,0.0,-0.07575771964662206,-0.19652272439278282,-0.5119912529271025,-0.39419235670625663,-0.03485659174857776,-0.014327460778760286,-0.6560032838724834
7602,6.0,299.32759,3474.0316,0.0,0.0,0.0,0.0,0.0,-0.07576768645620588,-0.2270023107833838,-0.46662350658965457,-0.36239304245790865,-0.021627568045474777,-0.019744785213158582,-0.6280217136159174
7603,6.0,300.36609,3486.4684,0.0,0.0,0.0,0.0,0.0,-0.07577765326578972,-0.20614890431781283,-0.4983145145348135,-0.3553359277639257,-0.018569215486888883,0.016850198188735087,-0.6443067806806284
7604,6.0,300.02736,3532.1294,0.0,0.0,0.0,0.0,0.0,-0.07578762007537351,-0.20895470530222382,-0.45610396431645656,-0.40862046057769963,0.011595351447622089,0.04963003658535325,-0.6253819133953895
7605,6.0,299.53686,3751.715,0.0,0.0,0.0,0.0,0.0,-0.07579758688495736,-0.2275478851672278,-0.5199598468810415,-0.3929199374956786,-0.004995278106020565,-0.017389744747734182,-0.6374714056385294
7606,6.0,300.11888,3990.012,0.0,0.0,0.0,0.0,0.0,-0.07580755369454115,-0.2620175592591198,-0.5322295760519694,-0.41861688208926956,-0.007122721016757833,-0.01853739234099818,-0.6320965596880733
7607,6.0,300.51679,4047.3851,0.0,0.0,0.0,0.0,0.0,-0.07581752050412499,-0.2810426572442507,-0.5137133727970625,-0.4355479771527386,0.005715639044039655,-0.007061257265691833,-0.6071920577326905
7608,6.0,300.48958,3761.9056,0.0,0.0,0.0,0.0,0.0,-0.07582748731370881,-0.25820641152548873,-0.5057563400267645,-0.37956260593241264,0.017559164217454584,0.013982012408917185,-0.6147149432326414
7609,6.0,299.01953,3591.153,0.0,0.0,0.0,0.0,0.0,-0.07583745412329265,-0.21472509369421677,-0.4960301016543595,-0.3808656455610126,-0.02094682103204028,-0.005815960125840574,-0.6273907121161424
7610,6.0,297.9885,3755.0449,0.0,0.0,0.0,0.0,0.0,-0.07584742093287647,-0.2022265929157108,-0.5127428919837834,-0.4264704012293516,-0.028508680183837672,0.001866472545456498,-0.6240795627768574
7611,6.0,300.73951,3601.6227,0.0,0.0,0.0,0.0,0.0,-0.07585738774246026,-0.2101314230408568,-0.49437849385885857,-0.39029346151396566,0.01928539889607068,0.03668248464077937,-0.6669641066967325
7612,6.0,300.72527,3373.6921,0.0,0.0,0.0,0.0,0.0,-0.07586735455204408,-0.17368619496399285,-0.47371050202908654,-0.3781214603151827,0.013253056982224886,0.05225464413388185,-0.6410106274428234
7613,6.0,299.80088,3379.7751,0.0,0.0,0.0,0.0,0.0,-0.07587732136162792,-0.2077024902986398,-0.47690907928226156,-0.3427556779673517,0.015675862601087186,-0.0030291290071517572,-0.6670917255468273
7614,6.0,299.36667,3634.1289,0.0,0.0,0.0,0.0,0.0,-0.07588728817121174,-0.24134136010353777,-0.4860589303352815,-0.37728416109504764,-0.016804623212487182,-0.030865708645958265,-0.6063365402757573
7615,6.0,300.17501,3909.7084,0.0,0.0,0.0,0.0,0.0,-0.07589725498079558,-0.23121836338947577,-0.5547691826714555,-0.4024662023853216,0.006892347055471692,-0.012178992624472989,-0.6453765904012104
7616,6.0,300.56387,4019.2519,0.0,0.0,0.0,0.0,0.0,-0.07590722179037934,-0.2327969766477728,-0.5374046394802086,-0.45155061088457554,-0.005369797127857715,0.014073533210949587,-0.6094892578294064
7617,6.0,300.40621,3805.5456,0.0,0.0,0.0,0.0,0.0,-0.07591718859996319,-0.2055358880073128,-0.5393252347797565,-0.4119297252717986,0.006016429834275395,-0.018534621101974683,-0.6496403366895094
7618,6.0,299.99377000000004,3672.2928,0.0,0.0,0.0,0.0,0.0,-0.075927155409547,-0.22188826527616679,-0.5035630284628015,-0.3908340000448126,-0.024603607205686977,-0.01146772449152629,-0.6095365360790724
7619,6.0,299.19083,3886.3963,0.0,0.0,0.0,0.0,0.0,-0.07593712221913085,-0.28291431256396876,-0.5038780884488956,-0.39457504100402463,0.017735233647581283,0.009426292430102632,-0.6144541934519074
7620,6.0,299.03104,3882.0716,0.0,0.0,0.0,0.0,0.0,-0.07594708902871466,-0.2953632046175787,-0.48584951180461355,-0.3988401247824556,0.00940122908092907,0.02008515821325078,-0.5984344965883864
7621,6.0,299.57732000000004,3471.7567,0.0,0.0,0.0,0.0,0.0,-0.07595705583829848,-0.18695368164089182,-0.4922795260117065,-0.37609413938260167,0.007644952448773062,-0.025765901329146475,-0.6288654267091854
7622,6.0,299.41832999999997,3460.9277,0.0,0.0,0.0,0.0,0.0,-0.0759670226478823,-0.17550326650082385,-0.4787889419277896,-0.3977434132717186,-0.0054195540912433445,-0.033974967902818266,-0.6432965703309284
7623,6.0,300.32693,3709.2107,0.0,0.0,0.0,0.0,0.0,-0.07597698945746614,-0.2105623279108838,-0.5197299606983535,-0.3972151553320836,-0.0019908366335802783,0.004919708900312464,-0.6404262861101534
7624,6.0,300.04839,3686.1938,0.0,0.0,0.0,0.0,0.0,-0.07598695626704993,-0.23853276254885078,-0.4880836472151055,-0.3938944510443556,0.004857612273234006,0.02157116547865828,-0.6221544179843604
7625,6.0,300.08805,3631.5741,0.0,0.0,0.0,0.0,0.0,-0.07599692307663378,-0.2623809411424828,-0.49821809365529757,-0.3433088111969417,-0.0029781395263444874,-0.016213681568665785,-0.6191782693931374
7626,6.0,299.20939,3611.7801,0.0,0.0,0.0,0.0,0.0,-0.07600688988621757,-0.23541430298108276,-0.49721591837889056,-0.36526073275842763,-0.00939622504398521,-0.04449084626365466,-0.6025388282384524
7627,6.0,300.06601,3728.7377,0.0,0.0,0.0,0.0,0.0,-0.07601685669580141,-0.21873515255497877,-0.5308764514709265,-0.3838315501937246,0.012196640401464688,-0.026482746390643578,-0.6348616584159674
7628,6.0,298.27277000000004,3940.4425,0.0,0.0,0.0,0.0,0.0,-0.07602682350538523,-0.23942984352488578,-0.5526384798311714,-0.4057278037947166,0.023296207561906677,-0.003637199745238666,-0.6295676191609864
7629,6.0,300.24936,3925.6634,0.0,0.0,0.0,0.0,0.0,-0.07603679031496907,-0.24013501493198078,-0.5223020859447025,-0.4308665590407186,0.013863168304688185,-0.012210000104033189,-0.6301205598730574
7630,6.0,300.27532,3555.013,0.0,0.0,0.0,0.0,0.0,-0.07604675712455289,-0.2093819320743878,-0.5037880814425125,-0.36746516980848865,0.016907748767914885,-0.004668205837341045,-0.6322675355099474
7631,6.0,300.81878,3155.1258,0.0,0.0,0.0,0.0,0.0,-0.07605672393413668,-0.18448459379721183,-0.44168303425572153,-0.3329118316558397,0.008134372613400071,0.02346505961157108,-0.6377127212823454
7632,6.0,299.94372000000004,3412.0828,0.0,0.0,0.0,0.0,0.0,-0.0760666907437205,-0.21840486341988177,-0.4505175213476176,-0.36826556645998165,0.02954046566791697,0.02836079937149297,-0.6320959416055124
7633,6.0,301.35967,3748.1871,0.0,0.0,0.0,0.0,0.0,-0.07607665755330434,-0.2158769057453918,-0.5146356533030845,-0.4088427271196356,0.0016612905147816081,-0.020558773601492983,-0.6604715850909704
7634,6.0,300.28217,3678.4264,0.0,0.0,0.0,0.0,0.0,-0.07608662436288816,-0.2067614747982688,-0.49535236905997254,-0.4160359314345496,0.0046696381676824055,-0.02108105944503858,-0.6504783046547103
7635,6.0,299.85707,3902.5365,0.0,0.0,0.0,0.0,0.0,-0.076096591172472,-0.21341108056703378,-0.5474327554549065,-0.4254298237741546,-0.005681145173535375,0.003549207688004527,-0.6523370916981583
7636,6.0,298.84121,3853.8158,0.0,0.0,0.0,0.0,0.0,-0.07610655798205576,-0.25106694999587875,-0.5079535019411076,-0.4124433316149876,0.008847597534939891,0.03543361944202597,-0.6027113036704744
7637,6.0,297.90235,3765.7199,0.0,0.0,0.0,0.0,0.0,-0.0761165247916396,-0.27101610167470674,-0.4958424072058355,-0.37782630056105265,-0.03377217704105437,0.008551871779304034,-0.5916029009691605
7638,6.0,299.13739,3967.8494,0.0,0.0,0.0,0.0,0.0,-0.07612649160122342,-0.26287706892144674,-0.5341651066579916,-0.4090849749535436,-0.014597289280390287,-0.0009413839586373631,-0.5907793819503854
7639,6.0,299.98304,3840.5516,0.0,0.0,0.0,0.0,0.0,-0.07613645841080727,-0.2527116068956937,-0.5171490303086355,-0.3975711607547186,-0.02431571346802408,0.01030518313504239,-0.6083379726682835
7640,6.0,299.36574,3583.7616,0.0,0.0,0.0,0.0,0.0,-0.07614642522039108,-0.2009389040261258,-0.4871055062310706,-0.4013296194831496,0.006459116877790203,-0.0034496939638832863,-0.6376841881595294
7641,6.0,299.75256,3663.9495,0.0,0.0,0.0,0.0,0.0,-0.0761563920299749,-0.23350090175724475,-0.4850284448510806,-0.39521980244015764,-0.011882985793259387,-0.018771316325334683,-0.6555548497757263
7642,6.0,300.31936,3786.3109,0.0,0.0,0.0,0.0,0.0,-0.07616635883955872,-0.25772921125839277,-0.4891562332409615,-0.40405853504997263,0.014996460170535384,-0.03811770983767507,-0.6437476692754484
7643,6.0,300.18695,3718.4977,0.0,0.0,0.0,0.0,0.0,-0.07617632564914256,-0.24871966494671977,-0.4805036346745165,-0.4011071604236946,0.024133367966777976,0.01987835792084118,-0.6493633039796685
7644,6.0,300.12477,3592.1712,0.0,0.0,0.0,0.0,0.0,-0.07618629245872635,-0.17627482605447084,-0.5037492840961836,-0.4119062583994826,0.005593538050014224,0.035541444451417464,-0.6535893472317463
7645,6.0,300.66166,3550.4539,0.0,0.0,0.0,0.0,0.0,-0.0761962592683102,-0.18994903132150984,-0.4864146317828865,-0.4028856575292186,-0.015182588134404786,0.03131730003002687,-0.6358437409428914
7646,6.0,300.10887,3738.1159,0.0,0.0,0.0,0.0,0.0,-0.07620622607789398,-0.1871372420290078,-0.5235405106144255,-0.4256161300700416,-0.045997765997876056,-0.026875908707695677,-0.6353106295352774
7647,6.0,300.37753,3694.6605,0.0,0.0,0.0,0.0,0.0,-0.07621619288747783,-0.23023434555486078,-0.5122246044251325,-0.3806255762148196,-0.008612571235819601,0.009185239420712551,-0.6326669384343654
7648,6.0,299.22828,3622.9572,0.0,0.0,0.0,0.0,0.0,-0.07622615969706165,-0.2297591109929588,-0.5031841742504115,-0.36834524844784566,0.006778593722395114,-0.003213381749061087,-0.6084140981482964
7649,6.0,298.48398,3560.4198,0.0,0.0,0.0,0.0,0.0,-0.07623612650664549,-0.23494576600234177,-0.49086847392244654,-0.3564644654603037,0.00934067137810249,-0.011098299584566889,-0.6186609038920774
7650,6.0,298.69338,3740.364,0.0,0.0,0.0,0.0,0.0,-0.07624609331622931,-0.22823646967018577,-0.5181337574183205,-0.39060702188991164,-0.007834416639921722,-0.04054070797405636,-0.6214504016823794
7651,6.0,299.45631000000003,3877.1339,0.0,0.0,0.0,0.0,0.0,-0.0762560601258131,-0.23504283536192178,-0.5247640810376825,-0.4187449670344106,0.018252850434666085,0.0036911315016863165,-0.6477776992956814
7652,6.0,298.91905,3823.1587,0.0,0.0,0.0,0.0,0.0,-0.07626602693539691,-0.2153980437481318,-0.5240997030796135,-0.4226470235670136,0.003210113409538527,0.006421223249225394,-0.6672887317637703
7653,6.0,299.41822,3614.8151,0.0,0.0,0.0,0.0,0.0,-0.07627599374498076,-0.2095549647939648,-0.4946754673306675,-0.39458310647482064,-0.0011624634375512089,-0.004753725159031145,-0.6750308440553573
7654,6.0,300.95352,3602.3132,0.0,0.0,0.0,0.0,0.0,-0.07628596055456457,-0.25797703196785077,-0.4634454172535015,-0.3735908138180426,-0.02722077040573087,-0.037982221074053364,-0.6386963844794254
7655,6.0,300.7282,3659.5626,0.0,0.0,0.0,0.0,0.0,-0.07629592736414842,-0.2166302977247458,-0.4915145627162106,-0.4042708008134216,0.004896896182261025,0.005335590209781755,-0.6220249246215803
7656,6.0,300.56767,3653.8582,0.0,0.0,0.0,0.0,0.0,-0.07630589417373218,-0.2205122209778618,-0.49911553940136855,-0.39105388544901365,-0.008871996192047852,0.00023292196104760776,-0.6067805059395734
7657,6.0,300.55632,3725.0016,0.0,0.0,0.0,0.0,0.0,-0.07631586098331603,-0.2044684391594638,-0.5161438558119325,-0.4116951680061496,-0.011056148380406888,0.01207009964947609,-0.6195092880683064
7658,6.0,299.77047000000005,3749.7678,0.0,0.0,0.0,0.0,0.0,-0.07632582779289984,-0.24666193637863779,-0.5035379403903255,-0.3896358925965686,-0.030578790668141672,-0.028618837694959372,-0.6360633932995693
7659,6.0,299.95026,3697.6832,0.0,0.0,0.0,0.0,0.0,-0.07633579460248369,-0.24804295573493373,-0.5072542580470975,-0.36870616813346563,0.0009629849714242172,0.022893260288638875,-0.6321782479111354
7660,6.0,299.76496000000003,3655.5635,0.0,0.0,0.0,0.0,0.0,-0.0763457614120675,-0.2548133915781237,-0.5068244373546775,-0.3495622057791037,0.01128711975395199,-0.01111281844524979,-0.6487809080871904
7661,6.0,299.2078,3683.6845,0.0,0.0,0.0,0.0,0.0,-0.07635572822165132,-0.22334142803958276,-0.4939096630375885,-0.40249702545336363,0.01978435870906418,0.012462895169991989,-0.6300064780442984
7662,6.0,300.24884,3697.3546,0.0,0.0,0.0,0.0,0.0,-0.07636569503123514,-0.21747063669518077,-0.49757561203188955,-0.4088572165960656,0.013790076495474589,-0.01955080050801378,-0.6626495155184153
7663,6.0,300.3728,3595.8374,0.0,0.0,0.0,0.0,0.0,-0.07637566184081898,-0.18260087066880282,-0.5146972589091645,-0.39574665196215364,5.063480071576575e-05,0.018718525995124684,-0.6369222342168304
7664,6.0,299.068,3578.3028,0.0,0.0,0.0,0.0,0.0,-0.07638562865040277,-0.1872213924498128,-0.5071310468349375,-0.39336226169433264,0.015072502564040186,0.007748598409452122,-0.6690132733014693
7665,6.0,299.63687000000004,3856.0374,0.0,0.0,0.0,0.0,0.0,-0.07639559545998659,-0.2495911410927278,-0.5473935832060405,-0.37515434991485164,-0.01851262648205398,-0.01114146505207699,-0.6331532072898565
7666,6.0,299.56636000000003,3741.4403,0.0,0.0,0.0,0.0,0.0,-0.0764055622695704,-0.2552178911505448,-0.5179915578992865,-0.36409499865087863,0.013680101369370886,-0.03210224360424477,-0.6585968494909484
7667,6.0,299.81257999999997,3683.7017,0.0,0.0,0.0,0.0,0.0,-0.07641552907915425,-0.2248454863555218,-0.5055599620248835,-0.3893478863881446,-0.013340651440119788,-0.0009608106684321299,-0.5968733314968114
7668,6.0,299.86394,3753.4162,0.0,0.0,0.0,0.0,0.0,-0.07642549588873807,-0.21984186484420282,-0.5354586521331545,-0.38564428502012765,0.00898831000812713,0.016435400955547783,-0.6334512649392724
7669,6.0,299.41828,3811.7903,0.0,0.0,0.0,0.0,0.0,-0.07643546269832188,-0.19545324904473382,-0.5243917116259326,-0.43884411012554153,-0.03473283540786397,0.01313316011114199,-0.6051236191110514
7670,6.0,299.91506,3843.985,0.0,0.0,0.0,0.0,0.0,-0.07644542950790573,-0.24919748329637678,-0.5185300293999294,-0.4007479429982426,-0.017753377917121983,0.010211204188267391,-0.6482935955840964
7671,6.0,300.85631,3915.0354,0.0,0.0,0.0,0.0,0.0,-0.07645539631748952,-0.25594124026443377,-0.5194199770952606,-0.41471179593886764,-0.016117812910454287,0.029027278810269373,-0.6511208369406234
7672,6.0,301.11337000000003,3701.72,0.0,0.0,0.0,0.0,0.0,-0.07646536312707333,-0.23578722968038776,-0.5016919506956404,-0.38775127780807167,0.01119274057338749,0.01196216318257359,-0.6558450040743624
7673,6.0,300.44171,3702.6223,0.0,0.0,0.0,0.0,0.0,-0.07647532993665718,-0.20024508102015082,-0.5063281170581945,-0.41893152664282257,0.02050747578868028,-0.02031660986734328,-0.6582708261387724
7674,6.0,299.97959,3869.0423,0.0,0.0,0.0,0.0,0.0,-0.076485296746241,-0.25185461009361476,-0.4879857571229445,-0.4362518819972086,0.016787579332555085,-0.023538952901613775,-0.6296895334130185
7675,6.0,298.91205,3714.0917,0.0,0.0,0.0,0.0,0.0,-0.07649526355582481,-0.22904553974253475,-0.4800700852217285,-0.4198755210984876,0.007642642542520092,0.01057701584537019,-0.6443984190196724
7676,6.0,299.60241,3484.0023,0.0,0.0,0.0,0.0,0.0,-0.0765052303654086,-0.2186827472598068,-0.47992213044212656,-0.36044484622563666,-0.01001475110455398,-0.017393482627353084,-0.6283051804638934
7677,6.0,299.42402999999996,3591.7615,0.0,0.0,0.0,0.0,0.0,-0.07651519717499244,-0.21982459906249877,-0.5096295189315175,-0.36235170185382864,-0.001188366061782599,-0.00982200519898144,-0.6548748272361133
7678,6.0,299.89231,4031.8719,0.0,0.0,0.0,0.0,0.0,-0.07652516398457626,-0.25366288661957775,-0.5565331700355475,-0.41539232510353064,-0.005229042098166275,-0.03855764479259326,-0.6181585952875034
7679,6.0,300.04391,4032.155,0.0,0.0,0.0,0.0,0.0,-0.07653513079416008,-0.25513374072973977,-0.5442215733704875,-0.4263191432544236,0.024507609864712777,-0.001203743043975189,-0.6188473115129743
7680,6.0,299.56147000000004,3584.8988,0.0,0.0,0.0,0.0,0.0,-0.07654509760374392,-0.19427809171125482,-0.4941331758771475,-0.40130846282106164,0.03525983185112447,0.0056598108887048445,-0.6236741816768494
7681,6.0,300.02826,3449.187,0.0,0.0,0.0,0.0,0.0,-0.07655506441332774,-0.16439287782931383,-0.4922529079315795,-0.3918209157747136,0.011947152895592188,-0.0066494622925508335,-0.6463542044951934
7682,6.0,300.29553,3707.6233,0.0,0.0,0.0,0.0,0.0,-0.07656503122291156,-0.2006380599389348,-0.5197754758928455,-0.4066113578819166,-0.012893871980776088,-0.013045696362509988,-0.6658061948799554
7683,6.0,299.26931,3852.093,0.0,0.0,0.0,0.0,0.0,-0.07657499803249534,-0.24576651713276676,-0.49902795406272454,-0.4261456140422976,0.002815507008443907,0.017305969229466183,-0.6658866266728933
7684,6.0,299.62723,3778.9725,0.0,0.0,0.0,0.0,0.0,-0.07658496484207919,-0.2284858102547938,-0.5145416946213115,-0.4056857843130696,0.005369326169211235,0.012514436162828688,-0.6714437563163393
7685,6.0,299.57021000000003,3316.0257,0.0,0.0,0.0,0.0,0.0,-0.076594931651663,-0.16517468134147184,-0.45022282768853356,-0.39259150260826464,0.007018855586107113,-0.004117991679964137,-0.6392805231620754
7686,6.0,299.36569,3421.8191,0.0,0.0,0.0,0.0,0.0,-0.07660489846124682,-0.17259070948587685,-0.4892650259041985,-0.37829181805449563,-0.010734811309943389,-0.01980255668086018,-0.6304404631946294
7687,6.0,299.58797999999996,3996.3109,0.0,0.0,0.0,0.0,0.0,-0.07661486527083064,-0.24673381634073174,-0.5389458739423165,-0.4290990253012766,0.0020430276263561278,0.014820051301625186,-0.6259300411694854
7688,6.0,299.71116,4091.4429,0.0,0.0,0.0,0.0,0.0,-0.07662483208041448,-0.2999941426096167,-0.5279775125373235,-0.4157248231238456,-0.022166536038666775,0.026090353130417375,-0.6211746355351635
7689,6.0,299.43116000000003,3676.8116,0.0,0.0,0.0,0.0,0.0,-0.0766347988899983,-0.21641504287350177,-0.5257929554542244,-0.3754509079541197,0.005612471641382824,-0.0016341396677520285,-0.6604000597664114
7690,6.0,301.04154,3617.0829,0.0,0.0,0.0,0.0,0.0,-0.07664476569958215,-0.2073026212791758,-0.5088189492490205,-0.38338132264429065,-0.04338327271184566,0.0008349644791220782,-0.6334391768655795
7691,6.0,300.22053,3628.8322,0.0,0.0,0.0,0.0,0.0,-0.07665473250916593,-0.2218315435355688,-0.4800605708032896,-0.4011822625211066,0.022049057795572577,0.0074449977753640725,-0.6388345613955624
7692,6.0,300.26282000000003,3794.3645,0.0,0.0,0.0,0.0,0.0,-0.07666469931874975,-0.26320205875852076,-0.4773768563234276,-0.41281315776898664,0.01808181685753638,-0.0058848236423868746,-0.6242496469386435
7693,6.0,300.4872,3786.7646,0.0,0.0,0.0,0.0,0.0,-0.07667466612833357,-0.24705929253785378,-0.49494189131196153,-0.4090806990381216,0.002103812297205108,-0.016250876966586683,-0.6405558504004404
7694,6.0,299.90355,3533.6198,0.0,0.0,0.0,0.0,0.0,-0.07668463293791741,-0.24742162064111275,-0.46443043820571556,-0.36228012586676467,0.0050474465033191855,-0.012959614687014388,-0.6467966502838594
7695,6.0,300.31807000000003,3694.9188,0.0,0.0,0.0,0.0,0.0,-0.07669459974750123,-0.22104578834802077,-0.5238772440201586,-0.3782400105768826,-0.004357702234296726,0.017636328278820085,-0.6578301028752763
7696,6.0,300.1658,3882.5313,0.0,0.0,0.0,0.0,0.0,-0.07670456655708505,-0.2581930670216717,-0.5236578044460015,-0.3983417070582656,0.02329137334567958,0.045383372680490155,-0.6444026037425854
7697,6.0,298.85397,3799.0838,0.0,0.0,0.0,0.0,0.0,-0.07671453336666884,-0.21245302219998077,-0.5424159414272856,-0.3999576281852446,-0.002138071093686188,-0.007358668765519062,-0.6177078611130193
7698,6.0,300.00416,3538.4436,0.0,0.0,0.0,0.0,0.0,-0.07672450017625268,-0.2049239153444158,-0.5174398432198365,-0.35323473076655365,-0.012146849291550688,0.006462912512664804,-0.6435894401398323
7699,6.0,300.12984,3589.9362,0.0,0.0,0.0,0.0,0.0,-0.0767344669858365,-0.20886000694787782,-0.5029063005429875,-0.37948465660221964,-0.022652947762421875,0.01072945932291519,-0.6233680281591344
7700,6.0,299.55579,3859.7659,0.0,0.0,0.0,0.0,0.0,-0.07674443379542034,-0.2657043305429757,-0.5276513979926385,-0.37991673684236266,-0.004068412845946086,0.02000205144004878,-0.6749006718150103
7701,6.0,300.65571,4015.2368,0.0,0.0,0.0,0.0,0.0,-0.07675440060500413,-0.24386162720976878,-0.5310070796738185,-0.4456630299860166,-0.018967339689680684,-0.028640774559624372,-0.6466809573874414
7702,6.0,300.38959,3728.4106,0.0,0.0,0.0,0.0,0.0,-0.07676436741458798,-0.21524126356015877,-0.5247519423014845,-0.3933505181256736,0.0038596960922973457,-0.025768468904899876,-0.6829686149412544
7703,6.0,300.2065,3531.0918,0.0,0.0,0.0,0.0,0.0,-0.07677433422417176,-0.17536996331766785,-0.4961982099784505,-0.4017955524091336,0.026890969657182077,-0.016466048731322486,-0.6252991916572254
7704,6.0,300.72069,3529.5668,0.0,0.0,0.0,0.0,0.0,-0.07678430103375561,-0.20801800624727879,-0.49817450363599547,-0.36670765390122767,0.007314494911509443,0.018468429525942083,-0.6386106128584603
7705,6.0,300.15695,3632.5518,0.0,0.0,0.0,0.0,0.0,-0.07679426784333943,-0.2199585203282158,-0.4841947325362996,-0.40005179964953863,-0.009622665669708161,-0.035906584323703965,-0.6322740608405913
7706,6.0,300.04114,3846.9365,0.0,0.0,0.0,0.0,0.0,-0.07680423465292324,-0.2952590222422967,-0.5059054600439815,-0.36820814557681464,-0.017556245043916483,0.019606044929965982,-0.6315206789937383
7707,6.0,299.62962999999996,3820.3639,0.0,0.0,0.0,0.0,0.0,-0.07681420146250706,-0.2360069833620758,-0.5231556680939445,-0.40213258978989663,-0.007230516844546453,0.02511223950413508,-0.6282752794534424
7708,6.0,300.35323,3720.3779,0.0,0.0,0.0,0.0,0.0,-0.0768241682720909,-0.2453435156135198,-0.48733116716084157,-0.3982273009894746,-0.004979195496458336,0.02921227294727687,-0.6098908189765374
7709,6.0,300.39045,3868.1726,0.0,0.0,0.0,0.0,0.0,-0.07683413508167472,-0.2106438742789318,-0.5175089164791535,-0.4476750812395906,-0.03801617508490436,-0.024837167433237578,-0.6162360646802644
7710,6.0,300.66281000000004,4033.2518,0.0,0.0,0.0,0.0,0.0,-0.07684410189125856,-0.2745016718862058,-0.5101942437422515,-0.4413119212740956,0.007120401585953924,-0.01025902553998699,-0.5983860531011054
7711,6.0,299.93261,4096.0643,0.0,0.0,0.0,0.0,0.0,-0.07685406870084233,-0.25679890581157877,-0.5501850061715324,-0.43811734635881555,0.007909712166777813,-0.025753546770677177,-0.6301882652447394
7712,6.0,299.8533,3762.967,0.0,0.0,0.0,0.0,0.0,-0.07686403551042617,-0.2614895343670078,-0.5066527015952285,-0.37570577075177264,0.01941880948373728,0.02062172683020598,-0.6582597411826784
7713,6.0,300.27866,3642.9699,0.0,0.0,0.0,0.0,0.0,-0.07687400232000999,-0.2022790590058888,-0.49828839294723554,-0.4068044428209726,-0.01109875149411149,-0.017254121221849182,-0.6552174881549314
7714,6.0,300.26946,3661.3904,0.0,0.0,0.0,0.0,0.0,-0.07688396912959383,-0.21333136818166681,-0.5053020797419325,-0.39433779862561064,0.015650252704809686,0.013625869184268589,-0.6504131324082784
7715,6.0,299.4189,3657.0023,0.0,0.0,0.0,0.0,0.0,-0.07689393593917765,-0.17444668982654785,-0.5102973520724275,-0.4268933419535926,0.027512972482818976,0.007203172872047813,-0.6222742348086854
7716,6.0,299.62296000000003,3747.0958,0.0,0.0,0.0,0.0,0.0,-0.07690390274876147,-0.22079871744363677,-0.5114895928025924,-0.4067352581041446,-0.007839110419684962,0.0038075045928964465,-0.6288886909314814
7717,6.0,299.81551,3694.3169,0.0,0.0,0.0,0.0,0.0,-0.07691386955834525,-0.24676123488843776,-0.4835454925347245,-0.39267334281884164,0.016765320254358285,-0.042874893725922555,-0.6257993521715874
7718,6.0,299.80517000000003,3783.6806,0.0,0.0,0.0,0.0,0.0,-0.0769238363679291,-0.24405995065184177,-0.5301647648656885,-0.3759196982453856,-0.019982571706876284,-0.01932585087981298,-0.6444278235375743
7719,6.0,301.04307,3870.5170000000003,0.0,0.0,0.0,0.0,0.0,-0.07693380317751292,-0.24359873947132377,-0.5218088155310205,-0.41113297632066564,0.03203906442075947,0.0015380927788479386,-0.6386387305487354
7720,6.0,300.04927999999995,3960.9052,0.0,0.0,0.0,0.0,0.0,-0.07694376998709676,-0.2308832106538988,-0.5453734259516665,-0.42775963025908864,0.0077292218251398025,0.009230300273859711,-0.6392914257331513
7721,6.0,299.90416,3831.4448,0.0,0.0,0.0,0.0,0.0,-0.07695373679668055,-0.2039638102121608,-0.5253244286079845,-0.4353753193356986,-0.0006615078258357394,-0.02047602653207648,-0.6379714850928835
7722,6.0,300.42413,3592.3724,0.0,0.0,0.0,0.0,0.0,-0.0769637036062644,-0.2323893056025388,-0.47270074764193154,-0.38690146494920163,-0.016109925771675884,0.008269206817457173,-0.6231240578000564
7723,6.0,299.36364,3470.5274,0.0,0.0,0.0,0.0,0.0,-0.07697367041584818,-0.2275736115872668,-0.45688088396313253,-0.37049916484792067,-0.007816670273695293,0.010409539789341591,-0.6128747493285284
7724,6.0,299.10799,3774.44,0.0,0.0,0.0,0.0,0.0,-0.07698363722543203,-0.25921003574953877,-0.49137406545734447,-0.3967514211588166,-0.002096160131124898,-0.005065588543709664,-0.6304105925816814
7725,6.0,299.58314,4038.3837,0.0,0.0,0.0,0.0,0.0,-0.07699360403501584,-0.26550630094343175,-0.5224738217041516,-0.43958769384392754,-0.002109092647451238,-0.03388531756047047,-0.6274885312807964
7726,6.0,298.90767,3817.3412,0.0,0.0,0.0,0.0,0.0,-0.07700357084459966,-0.2422585844915608,-0.4976677265984805,-0.42045007443519156,0.03619094181851786,-0.0069803004065520135,-0.6210386472392424
7727,6.0,299.57761,3729.2068,0.0,0.0,0.0,0.0,0.0,-0.07701353765418348,-0.2142737920996768,-0.5201301944878535,-0.39918177245117364,0.03244975089829107,-0.004157046189168517,-0.6299615100048604
7728,6.0,300.39846,3782.5316,0.0,0.0,0.0,0.0,0.0,-0.07702350446376732,-0.26067300677392274,-0.5171803903992305,-0.3719417695452947,0.033478081199529365,0.0025965102245806074,-0.6403983406723954
7729,6.0,300.30982,4011.0384,0.0,0.0,0.0,0.0,0.0,-0.07703347127335114,-0.27655028120338776,-0.5466196931771635,-0.3960855638556016,-6.618321975902524e-05,-0.018211849269369584,-0.6501754948623254
7730,6.0,299.63624,3764.909,0.0,0.0,0.0,0.0,0.0,-0.07704343808293498,-0.26006257425117774,-0.5123399629490175,-0.3720357890220736,-0.015369552029606683,0.014261605601760884,-0.6581214629415314
7731,6.0,299.84745,3473.8095,0.0,0.0,0.0,0.0,0.0,-0.07705340489251875,-0.18516139420150682,-0.49701408909147154,-0.37377587381630667,-0.00981082145100269,0.01934219967017648,-0.6498636570115494
7732,6.0,299.86598,3418.0419,0.0,0.0,0.0,0.0,0.0,-0.07706337170210259,-0.1784041103446148,-0.4787775225991625,-0.38181773588497664,-0.017016573855155086,0.0018694083362962382,-0.6591187340874544
7733,6.0,300.49982,3631.5,0.0,0.0,0.0,0.0,0.0,-0.0770733385116864,-0.18323366562125484,-0.5185371120181285,-0.4021145539381166,-0.006169178604075525,-0.016418656997645286,-0.6522144377735534
7734,6.0,300.11681,3788.2778,0.0,0.0,0.0,0.0,0.0,-0.07708330532127025,-0.26215016329970675,-0.5140670882744715,-0.3753246164616556,-0.024465311739288276,0.0014249211526537685,-0.6453112762997644
7735,6.0,299.86217,3708.1737,0.0,0.0,0.0,0.0,0.0,-0.07709327213085407,-0.24250881673625677,-0.49740019817457753,-0.3872832069243766,0.0034776127531636566,0.01128317111831229,-0.6443526707776575
7736,6.0,299.43467999999996,3627.1081,0.0,0.0,0.0,0.0,0.0,-0.07710323894043788,-0.22179426606438976,-0.5199409497666765,-0.3608150878121767,0.00960209253835275,0.002025560815832288,-0.6576426110767724
7737,6.0,298.81186,3690.1777,0.0,0.0,0.0,0.0,0.0,-0.07711320575002167,-0.2084857326259398,-0.5132682925581364,-0.39996784174625266,0.007476515527674633,-0.03527424026754647,-0.6445419864263414
7738,6.0,299.43855,3973.6164,0.0,0.0,0.0,0.0,0.0,-0.07712317255960552,-0.24596043293690478,-0.5247279992016215,-0.4371917322599646,0.017856896613588483,-0.014912400942239385,-0.6341247317507385
7739,6.0,299.50408999999996,3917.6842,0.0,0.0,0.0,0.0,0.0,-0.07713313936918934,-0.2417752439288588,-0.5260399149010975,-0.4230630336605706,-0.012478320889514387,0.012381304218939588,-0.6010646810654654
7740,6.0,299.02436,3748.4736,0.0,0.0,0.0,0.0,0.0,-0.07714310617877318,-0.2782582763669537,-0.46999116488701653,-0.3911929236277356,-0.0007541949901907502,0.013708180556142086,-0.6160341847303404
7741,6.0,297.51386,3683.284,0.0,0.0,0.0,0.0,0.0,-0.07715307298835697,-0.22347480215024582,-0.5056966291983716,-0.39045492291740064,-0.03694225156891636,0.007554411155612333,-0.6329042922702903
7742,6.0,299.32125,3793.9869,0.0,0.0,0.0,0.0,0.0,-0.07716303979794081,-0.24213202955407076,-0.5026013325278896,-0.40854390953264463,-0.01089645509839639,0.01189406770960309,-0.6138680181365564
7743,6.0,299.54753,3914.2345,0.0,0.0,0.0,0.0,0.0,-0.0771730066075246,-0.21925740192152077,-0.5158111044790925,-0.4547610431639206,-0.011509297129879189,0.011735653149218789,-0.6441917463967753
7744,6.0,300.13915,3739.1592,0.0,0.0,0.0,0.0,0.0,-0.07718297341710845,-0.2198502140250268,-0.5127209652516196,-0.4040398507181286,0.017822381262182083,0.004809827094542975,-0.6329871355984664
7745,6.0,299.58738999999997,3580.075,0.0,0.0,0.0,0.0,0.0,-0.07719294022669226,-0.1986018933329808,-0.5054436003833995,-0.3842079219433696,0.014837873357634087,-0.013205243736506089,-0.6484340219154554
7746,6.0,300.46805,3731.4184,0.0,0.0,0.0,0.0,0.0,-0.07720290703627608,-0.24912120582884875,-0.49870713881606255,-0.3864296754376396,0.00861695445442719,-0.01172846211325909,-0.6213809231230224
7747,6.0,299.90848,3907.4758,0.0,0.0,0.0,0.0,0.0,-0.0772128738458599,-0.23744552492654877,-0.5456940385483084,-0.4046355201869166,0.017016436053141484,0.01860196676987118,-0.6687953536024623
7748,6.0,301.06061,4015.3751,0.0,0.0,0.0,0.0,0.0,-0.07722284065544374,-0.2680923077161507,-0.5303143915079556,-0.4221670571271446,-0.015410966600943985,-0.0027742370278958776,-0.6306263135279714
7749,6.0,299.9029,3641.3472,0.0,0.0,0.0,0.0,0.0,-0.07723280746502756,-0.18076224730234483,-0.5273778913931455,-0.39873847553242364,0.0070508882721184935,0.00961178518748434,-0.7084915540951724
7750,6.0,299.10081,3408.764,0.0,0.0,0.0,0.0,0.0,-0.0772427742746114,-0.16304310710610184,-0.4814776719956465,-0.39165837019367167,-0.02305769760761758,0.009332551901076161,-0.6151422510648134
7751,6.0,299.75317,3651.8146,0.0,0.0,0.0,0.0,0.0,-0.07725274108419516,-0.2160461387770938,-0.49966917925600857,-0.3943451548213366,-0.0014984176539573086,0.023445800766920377,-0.6773735897440684
7752,6.0,299.7718,3943.0135,0.0,0.0,0.0,0.0,0.0,-0.07726270789377901,-0.27958188497258374,-0.5179486163600485,-0.4010471557527726,-0.03687629506690696,-0.0038075277963237363,-0.6068738566712865
7753,6.0,299.18571000000003,3651.0201,0.0,0.0,0.0,0.0,0.0,-0.07727267470336283,-0.22412090107651078,-0.49231504042771157,-0.3933830130563806,-0.03095740879325837,-0.0024819939141787276,-0.6850283294795324
7754,6.0,299.67892,3639.5869,0.0,0.0,0.0,0.0,0.0,-0.07728264151294667,-0.19042526900101084,-0.5151865979124585,-0.4007316803341376,-0.014334512999456286,-0.017771636683923984,-0.6293691437313984
7755,6.0,300.92185,3886.8426,0.0,0.0,0.0,0.0,0.0,-0.07729260832253049,-0.2075165589052898,-0.5504976242248855,-0.4234889229426026,0.02154610375068488,0.005029697502642495,-0.6683864767896093
7756,6.0,301.53553,4130.7502,0.0,0.0,0.0,0.0,0.0,-0.0773025751321143,-0.26392737357760376,-0.5286380908075174,-0.46307944144988256,0.04180112321069966,-0.010186146513294391,-0.5974126642600395
7757,6.0,300.47292999999996,3953.4747,0.0,0.0,0.0,0.0,0.0,-0.07731254194169809,-0.27529403346440573,-0.5342663202104805,-0.39219724699435465,0.025185834898648375,-0.002850148914787797,-0.6457715552901905
7758,6.0,299.63908,3643.1604,0.0,0.0,0.0,0.0,0.0,-0.07732250875128194,-0.23879140476937677,-0.47452315900678954,-0.39411522810864463,0.011205744625170887,-0.0011234807677789188,-0.5984416602665934
7759,6.0,300.43679,3630.1106,0.0,0.0,0.0,0.0,0.0,-0.07733247556086575,-0.22100783199927476,-0.5229645995225874,-0.3594905672814567,-0.0003296643549528387,0.013207206401949787,-0.6445081134754984
7760,6.0,300.07238,3940.1215,0.0,0.0,0.0,0.0,0.0,-0.0773424423704496,-0.25777028841744676,-0.5100775679932366,-0.42985071502046257,0.0022884699338543975,-0.014994035463046087,-0.6234435659540895
7761,6.0,299.50657,4062.1809999999996,0.0,0.0,0.0,0.0,0.0,-0.07735240918003339,-0.24469781185479378,-0.5343760855938136,-0.45572768375932055,-0.0022952469558232378,-0.013204700634452487,-0.6526975655537344
7762,6.0,300.67062000000004,3698.861,0.0,0.0,0.0,0.0,0.0,-0.07736237598961723,-0.2076576337167128,-0.5144348372657656,-0.4022689124583506,-0.01009463239871265,-0.04198496528234346,-0.6199563036149234
7763,6.0,299.62195,3340.7355,0.0,0.0,0.0,0.0,0.0,-0.07737234279920102,-0.17712273400315284,-0.46947080016566056,-0.36890663966575066,0.004193987261314316,0.01915486999168848,-0.6439869989490684
7764,6.0,300.14367000000004,3796.6639,0.0,0.0,0.0,0.0,0.0,-0.07738230960878487,-0.25676182085791877,-0.5152005503663355,-0.3821286415456606,-0.009581600467005342,-0.004814328458112225,-0.6493755440408764
7765,6.0,299.84362999999996,4050.0956,0.0,0.0,0.0,0.0,0.0,-0.07739227641836868,-0.24877254646943878,-0.5487493118398404,-0.43360608333608863,0.006051074071094515,0.012380430797353388,-0.6750071846655223
7766,6.0,298.86851,3661.8459999999995,0.0,0.0,0.0,0.0,0.0,-0.0774022432279525,-0.19627440719077582,-0.5139293267908754,-0.4029060238562286,0.0026795554935015375,0.004920110552652105,-0.6681384027676264
7767,6.0,299.14045,3398.5918,0.0,0.0,0.0,0.0,0.0,-0.07741221003753632,-0.13435081283189287,-0.5142596868534796,-0.38447655480988163,0.024192190174833275,0.02114360230746108,-0.6872042232742763
7768,6.0,300.25329,3504.0081,0.0,0.0,0.0,0.0,0.0,-0.07742217684712016,-0.20850634213297378,-0.49298760544658854,-0.36363701973817963,0.03104271735892767,-0.007782344602707613,-0.6419525852657874
7769,6.0,300.9369,3601.1941,0.0,0.0,0.0,0.0,0.0,-0.07743214365670398,-0.24016862443779774,-0.48381682064650255,-0.3706876496315227,0.004085751379007266,-0.0060423114842297135,-0.6344792172982234
7770,6.0,300.03683,3653.8992,0.0,0.0,0.0,0.0,0.0,-0.07744211046628777,-0.25554408675523776,-0.48177790813277754,-0.37337213418146065,0.019232622751362085,-0.02007286039678708,-0.6402281653181003
7771,6.0,299.98197999999996,3872.9172,0.0,0.0,0.0,0.0,0.0,-0.07745207727587158,-0.2105173801364478,-0.5343969585458735,-0.4323557935076946,-0.03200572747921937,0.004172245244643546,-0.6345209733348444
7772,6.0,299.88187999999997,3937.4278,0.0,0.0,0.0,0.0,0.0,-0.07746204408545543,-0.2219133229511398,-0.5343211674383935,-0.44064524323829957,-0.007589956577070393,-0.014772703137702287,-0.6505753334842864
7773,6.0,299.73719,4175.0419,0.0,0.0,0.0,0.0,0.0,-0.07747201089503924,-0.24986248946950776,-0.5597715984151554,-0.4594743989190926,-0.0073068822621831335,-0.007732526540340952,-0.6404409579716014
7774,6.0,299.05652000000003,4258.9647,0.0,0.0,0.0,0.0,0.0,-0.07748197770462309,-0.31091001765942966,-0.5435674900334345,-0.44014142489107655,-0.016451925038178584,0.017735725073879785,-0.6163060498646714
7775,6.0,299.31852000000003,3830.5953,0.0,0.0,0.0,0.0,0.0,-0.0774919445142069,-0.25750579974384374,-0.5110541384396164,-0.3958453931843986,-0.0006058124569265344,0.014783419270759884,-0.6176768353949574
7776,6.0,299.18887,3566.9818,0.0,0.0,0.0,0.0,0.0,-0.07750191132379072,-0.23490040279536478,-0.5008849476534954,-0.3484880593480937,-0.0007446576520344883,-0.013823273608500886,-0.6352761790318774
7777,6.0,300.2357,3596.9069,0.0,0.0,0.0,0.0,0.0,-0.07751187813337451,-0.2102457885796438,-0.4969033509880425,-0.38622073313451866,0.008507205485745812,0.0016379900181320284,-0.6458493526328684
7778,6.0,300.5408,3575.4519,0.0,0.0,0.0,0.0,0.0,-0.07752184494295836,-0.19272914641588582,-0.49826830019775253,-0.39585064181991664,0.02551813432194377,-0.024842309677495077,-0.6563335932725824
7779,6.0,300.17847,3630.4918,0.0,0.0,0.0,0.0,0.0,-0.07753181175254217,-0.2024680706795428,-0.5011770676573255,-0.3999337357478866,0.03263628112245017,0.016333835805274085,-0.6548564772768024
7780,6.0,300.11516,3773.5820000000003,0.0,0.0,0.0,0.0,0.0,-0.07754177856212599,-0.2497799602488628,-0.5133855154622055,-0.38390923607889166,0.01164730280674929,-0.008294280907081793,-0.6616697735992224
7781,6.0,299.86609,3776.8907,0.0,0.0,0.0,0.0,0.0,-0.07755174537170981,-0.2506871838583988,-0.5253967544001226,-0.3719965154481977,0.01104040450035309,-0.004393440578573826,-0.6533038336185684
7782,6.0,299.44599999999997,3775.8459,0.0,0.0,0.0,0.0,0.0,-0.07756171218129365,-0.21641742401123681,-0.5264056171271895,-0.40493982958944963,0.0011161761464830089,0.006874085552894423,-0.6520656723938714
7783,6.0,299.66271,3840.6868,0.0,0.0,0.0,0.0,0.0,-0.07757167899087747,-0.2021088937840948,-0.5551021163893135,-0.41026187507719464,-0.0015684813652470586,0.023344296411652678,-0.6552064133313383
7784,6.0,298.81366,3746.7753,0.0,0.0,0.0,0.0,0.0,-0.07758164580046126,-0.17076589671828182,-0.5580778596804964,-0.4100823980869816,-0.015529753963167385,0.009333742469943661,-0.6724375317494173
7785,6.0,299.85434,3498.1948,0.0,0.0,0.0,0.0,0.0,-0.0775916126100451,-0.22699697095535679,-0.46951584926510653,-0.36685106932038164,-0.04610252288596475,-0.0008742444972687141,-0.6643433555780843
7786,6.0,299.56332000000003,3507.2703,0.0,0.0,0.0,0.0,0.0,-0.07760157941962892,-0.2306345185493548,-0.48721763248713656,-0.3482704334916157,0.01073826547953429,-5.168262594892805e-05,-0.6536095210412374
7787,6.0,300.16091,3616.8704,0.0,0.0,0.0,0.0,0.0,-0.07761154622921274,-0.24773789652732678,-0.4729223555713025,-0.37877805651248364,-0.007474575356383153,0.008694668609271981,-0.6401931879246484
7788,6.0,299.66776,3720.1138,0.0,0.0,0.0,0.0,0.0,-0.07762151303879655,-0.2098576327313358,-0.5047387329513345,-0.41622533827574265,0.02090783724769288,-7.214120330103243e-05,-0.6596848369183245
7789,6.0,300.13212999999996,3895.4088,0.0,0.0,0.0,0.0,0.0,-0.0776314798483804,-0.2124966324842848,-0.5358341727527155,-0.43577620160526265,-0.008353557760456962,-0.0036596008810994866,-0.6448254634068183
7790,6.0,299.78233,3891.2087,0.0,0.0,0.0,0.0,0.0,-0.07764144665796419,-0.2268276771286488,-0.5069364420207315,-0.44906615203687855,-0.0006709955755321073,-0.00018136645846947587,-0.6515866178790924
7791,6.0,300.36506,3808.7832,0.0,0.0,0.0,0.0,0.0,-0.077651413467548,-0.24052127600260179,-0.5160282743730255,-0.4012254269753666,0.02660003211621877,0.002138371117040798,-0.6223329729169824
7792,6.0,300.46162000000004,3909.5447,0.0,0.0,0.0,0.0,0.0,-0.07766138027713182,-0.25466995589396774,-0.5354016061525244,-0.3983324256873496,0.003310772004947757,0.0011002782524140089,-0.6511877215797244
7793,6.0,301.22131,3935.6345,0.0,0.0,0.0,0.0,0.0,-0.07767134708671566,-0.25714221521046077,-0.5078898090398215,-0.4313025808237506,-0.00971765188840757,0.013879761288325788,-0.6167782345437725
7794,6.0,300.77227,3499.0321,0.0,0.0,0.0,0.0,0.0,-0.07768131389629948,-0.20317795369960281,-0.48595105972963554,-0.37448936400672267,-0.037750564743440664,-0.0013237936250982587,-0.6416132579397984
7795,6.0,301.61105,3373.2419,0.0,0.0,0.0,0.0,0.0,-0.07769128070588333,-0.13978134700784486,-0.47238685289345256,-0.41321311798095955,-0.023002752094444877,0.015300783758569785,-0.6253937278915555
7796,6.0,301.07582,3674.9494,0.0,0.0,0.0,0.0,0.0,-0.07770124751546714,-0.1989573617330628,-0.5128652824633625,-0.40527019978455464,-0.01111713185092549,0.012029945561263189,-0.6695752420719313
7797,6.0,299.68824,3957.6152,0.0,0.0,0.0,0.0,0.0,-0.07771121432505093,-0.26676580121523474,-0.5095715103632925,-0.42667887743742655,0.004519482000913146,0.0002132322925868888,-0.6425178065690704
7798,6.0,300.22907000000004,3845.2842,0.0,0.0,0.0,0.0,0.0,-0.07772118113463475,-0.27116669090456874,-0.5089590817378505,-0.3887446074111056,0.013640496462712186,-0.0025240175501511377,-0.6651342884736434
7799,6.0,300.35055,3819.5447,0.0,0.0,0.0,0.0,0.0,-0.07773114794421859,-0.2382345123819158,-0.5178630372566024,-0.4049486549978206,0.03419157138994537,-0.007204739964652473,-0.6298761740814384
7800,6.0,300.00864,3970.5696,0.0,0.0,0.0,0.0,0.0,-0.07774111475380241,-0.24113945988861174,-0.5416640186605766,-0.4241505448603996,0.019830867901904282,-0.00886504256058658,-0.6584072805297394
7801,6.0,300.31973,4082.09,0.0,0.0,0.0,0.0,0.0,-0.07775108156338623,-0.2267693443203918,-0.5575297015088975,-0.4565543843834095,0.014101613410970886,-0.015061000148904985,-0.6181252796242154
7802,6.0,300.13602000000003,3894.6427,0.0,0.0,0.0,0.0,0.0,-0.07776104837297004,-0.23647020077779177,-0.5299978420442145,-0.4174060887497736,-0.023920589498778375,0.00924885338981576,-0.6511258221311154
7803,6.0,299.71955,3574.4834,0.0,0.0,0.0,0.0,0.0,-0.07777101518255389,-0.23969995573654376,-0.4707230759642506,-0.3761306569162057,-0.021471258005548183,0.007337237208678933,-0.5942116248091214
7804,6.0,300.52837999999997,3414.5490000000004,0.0,0.0,0.0,0.0,0.0,-0.07778098199213768,-0.1989160920564898,-0.49257933658379555,-0.3464421959386827,-0.02209199021555968,0.0034702724654642266,-0.6711847493257773
7805,6.0,299.3609,3675.4558,0.0,0.0,0.0,0.0,0.0,-0.07779094880172152,-0.23303975137173277,-0.49028749658010856,-0.39391953911683164,-0.007050434336073693,-0.0015589826521846084,-0.6274799997149544
7806,6.0,298.46932999999996,3978.3806,0.0,0.0,0.0,0.0,0.0,-0.07780091561130531,-0.26438697369046277,-0.5250916040000064,-0.41984978454594757,0.01246447077389749,0.01132333837877649,-0.6578446328817104
7807,6.0,299.44669,3980.8066,0.0,0.0,0.0,0.0,0.0,-0.07781088242088915,-0.26065523436716875,-0.5093027761717706,-0.4401077951202576,-0.012772637619561187,0.0013043516861544887,-0.6267001619079904
7808,6.0,299.67252,3824.4498,0.0,0.0,0.0,0.0,0.0,-0.07782084923047297,-0.23174528383897877,-0.5259712266768185,-0.4048207220401946,0.00960374737841607,0.012890306353674186,-0.6495110155792463
7809,6.0,298.91528999999997,3892.1942,0.0,0.0,0.0,0.0,0.0,-0.07783081604005682,-0.26527993073859074,-0.5306908037876046,-0.3871591141846296,0.008184044767752332,-0.02005247076502478,-0.6296397119056014
7810,6.0,299.94937999999996,3973.2607,0.0,0.0,0.0,0.0,0.0,-0.0778407828496406,-0.25060341847263173,-0.5256126070689255,-0.43155600480626155,0.03548191094179196,-0.013380738653826088,-0.6251871059311634
7811,6.0,300.17852,3644.7232,0.0,0.0,0.0,0.0,0.0,-0.07785074965922442,-0.2174001246207218,-0.5062482932153165,-0.3842564363581576,0.01212342700223909,-0.030028689082850873,-0.6414289173491055
7812,6.0,300.49966,3436.0842,0.0,0.0,0.0,0.0,0.0,-0.07786071646880824,-0.17331611549746884,-0.5052584897226305,-0.3659092026899266,0.02704228538736577,-0.0032770339176930673,-0.6345966732498154
7813,6.0,300.89366,3606.7734,0.0,0.0,0.0,0.0,0.0,-0.07787068327839208,-0.1993893811781998,-0.49602909853676047,-0.4009505727532406,-0.01757625875989168,-0.02133638225823698,-0.6525484151390144
7814,6.0,300.48365,3824.5386,0.0,0.0,0.0,0.0,0.0,-0.0778806500879759,-0.21414226210419582,-0.5457005436139505,-0.40272145021801264,0.019786687157793983,-0.0036691370844156366,-0.6422783249079353
7815,6.0,300.13939,4050.1582,0.0,0.0,0.0,0.0,0.0,-0.07789061689755974,-0.26306529026002273,-0.5367609520891815,-0.43132072813304156,0.006137516564950724,0.007341148354064932,-0.6503386889234314
7816,6.0,300.02727999999996,4067.4513,0.0,0.0,0.0,0.0,0.0,-0.0779005837071435,-0.24582621782865874,-0.5516524962913625,-0.4389249066885156,0.01073364809882859,0.015649951769529987,-0.6493313460715143
7817,6.0,300.19503,3751.7495,0.0,0.0,0.0,0.0,0.0,-0.07791055051672735,-0.24539328645843175,-0.5181694339543415,-0.37687545653471166,-0.0037391420271995863,0.012714389924312588,-0.6574702369697604
7818,6.0,299.12826,3726.3188,0.0,0.0,0.0,0.0,0.0,-0.07792051732631117,-0.2057667773075998,-0.5085716756946165,-0.41836939575234455,-0.01753541667486088,0.007943189950081812,-0.6428504768419024
7819,6.0,299.21569,3860.5028,0.0,0.0,0.0,0.0,0.0,-0.07793048413589501,-0.25831937877913774,-0.5018699483407075,-0.4133071475902396,0.0015260111899555785,-0.006153297124658144,-0.6196648320911574
7820,6.0,298.76029,3767.1696,0.0,0.0,0.0,0.0,0.0,-0.07794045094547883,-0.24092516762496274,-0.5117135616046965,-0.39248676294542767,-0.007787886067504512,0.0017732631621324485,-0.6535951328898173
7821,6.0,299.56869,3640.562,0.0,0.0,0.0,0.0,0.0,-0.07795041775506265,-0.26076847519834473,-0.4702517626802356,-0.37561970528827865,0.029046672417183374,-0.0011069932634767288,-0.6140845598154274
7822,6.0,300.26457999999997,3872.0503,0.0,0.0,0.0,0.0,0.0,-0.07796038456464646,-0.24306549634119679,-0.5277623792760915,-0.4061787406192206,0.038492287121392965,0.002319706610587218,-0.6422893895990274
7823,6.0,300.3444,4019.2071,0.0,0.0,0.0,0.0,0.0,-0.0779703513742303,-0.27887025916235175,-0.5218328903533965,-0.42103546954796556,0.05084464683797595,-0.02912596531700897,-0.6071097311620655
7824,6.0,299.01896,4001.9147,0.0,0.0,0.0,0.0,0.0,-0.0779803181838141,-0.2342361160298048,-0.5378474703039126,-0.44439857492122464,0.026986017582812574,-0.016138203555466683,-0.6487361123002693
7825,6.0,300.13684,3972.815,0.0,0.0,0.0,0.0,0.0,-0.07799028499339794,-0.24721856532107278,-0.5354365531484735,-0.42498144033990265,-0.017243655361566284,-0.00869998057292123,-0.6468414258057784
7826,6.0,300.37596,3670.821,0.0,0.0,0.0,0.0,0.0,-0.07800025180298173,-0.2118211391726188,-0.5000755533411145,-0.4039412310858956,-0.04870218219053116,0.016588934690200383,-0.6504032734848054
7827,6.0,300.37459,3474.1038,0.0,0.0,0.0,0.0,0.0,-0.07801021861256557,-0.1915256991396148,-0.5090015065195376,-0.35551360116896064,-0.026423174377514274,-0.008812521957553202,-0.6572751964580114
7828,6.0,299.84009,3563.8298,0.0,0.0,0.0,0.0,0.0,-0.07802018542214939,-0.2095926273001818,-0.4877760244847455,-0.38594661858496565,-0.0014032581694907985,0.023962497522914374,-0.6543110346154714
7829,6.0,299.73382999999995,3793.0944,0.0,0.0,0.0,0.0,0.0,-0.07803015223173324,-0.24076762749941477,-0.5041302053387775,-0.4081081613271397,0.005169465930711565,0.00968740221859716,-0.6297658412780495
7830,6.0,301.07264,3747.4955,0.0,0.0,0.0,0.0,0.0,-0.07804011904131702,-0.2079099329916128,-0.5294581141134475,-0.40177699979980264,-0.009290782996178892,0.006369627946183333,-0.6415386523349353
7831,6.0,301.62815,3788.3151,0.0,0.0,0.0,0.0,0.0,-0.07805008585090084,-0.2215778054455268,-0.5243699571462855,-0.4056054234476386,0.0006817748644684403,-0.00950365103548733,-0.6288562162657764
7832,6.0,300.68221,3942.1308,0.0,0.0,0.0,0.0,0.0,-0.07806005266048466,-0.2503342283185647,-0.5296035965628055,-0.4183715134450536,-0.007011908439446484,0.0064952468432309535,-0.6597276670000514
7833,6.0,300.37281,4102.5269,0.0,0.0,0.0,0.0,0.0,-0.0780700194700685,-0.2618323574058417,-0.5594180045277585,-0.4258153654372046,0.012719011358018688,0.012577787598830988,-0.6305427102622204
7834,6.0,300.51925,4060.5243,0.0,0.0,0.0,0.0,0.0,-0.07807998627965232,-0.2780850815273607,-0.5276613379761195,-0.42855156627224655,-0.034156148166449365,0.008547474273870032,-0.6521116030209044
7835,6.0,299.95912999999996,3888.3684,0.0,0.0,0.0,0.0,0.0,-0.07808995308923616,-0.24207898591133578,-0.5243282011096645,-0.4155597038875496,-0.027055760600445677,-0.018200395490239184,-0.6136998591499604
7836,6.0,300.36938,3712.9763,0.0,0.0,0.0,0.0,0.0,-0.07809991989881993,-0.19791362293755382,-0.5357715032340306,-0.39496696614270466,-0.026169971283525075,0.005446687915671245,-0.6668485252578253
7837,6.0,300.07743,3721.2469,0.0,0.0,0.0,0.0,0.0,-0.07810988670840377,-0.23323977707397375,-0.49454901371818755,-0.4033773371402436,0.023641454294979877,-0.002277902444586468,-0.6040608514786644
7838,6.0,300.26327000000003,3957.1721,0.0,0.0,0.0,0.0,0.0,-0.07811985351798759,-0.23968997522305877,-0.5408814349458415,-0.4223101077762626,-0.003366826013729857,-0.002207393612527788,-0.6513064238289394
7839,6.0,300.49528,3957.6529,0.0,0.0,0.0,0.0,0.0,-0.07812982032757143,-0.27049572682084977,-0.5126965965867145,-0.4198353355995216,-0.03274237144767047,-0.013906214208686487,-0.6283130534171704
7840,6.0,300.37838,3762.393,0.0,0.0,0.0,0.0,0.0,-0.07813978713715525,-0.23532933182769675,-0.48951671722903856,-0.4188274861225546,0.0008847993209103942,0.015510679530034883,-0.6673642796912264
7841,6.0,299.13397000000003,3912.5307,0.0,0.0,0.0,0.0,0.0,-0.07814975394673906,-0.25969611208751076,-0.5356642304459435,-0.3939512943749656,0.004464239706786156,0.016731262891997088,-0.6297555466570335
7842,6.0,298.62827999999996,3957.6591,0.0,0.0,0.0,0.0,0.0,-0.07815972075632288,-0.25742585431095377,-0.5086997707722586,-0.4369039185690596,0.01317359993588309,0.02712480447550977,-0.6221810968594934
7843,6.0,299.01426000000004,3832.0847,0.0,0.0,0.0,0.0,0.0,-0.07816968756590673,-0.24143269446755178,-0.5175916686148205,-0.40583368843016665,-0.017724891403810582,-0.015871761335670885,-0.6518402647766254
7844,6.0,299.58567,3647.2273,0.0,0.0,0.0,0.0,0.0,-0.07817965437549051,-0.2091410926581188,-0.5213393666271895,-0.37818555851650865,-0.0006698598842900233,0.01159498566433599,-0.6392658614331284
7845,6.0,299.10815,3556.7492,0.0,0.0,0.0,0.0,0.0,-0.07818962118507436,-0.2022116880067398,-0.4974692005063875,-0.3814820461268466,0.0018514643863003083,-0.024966068044709078,-0.6684726435781133
7846,6.0,300.30158,3728.3376,0.0,0.0,0.0,0.0,0.0,-0.07819958799465815,-0.2164068963426978,-0.5237609533061814,-0.39315368416124763,0.029926518009017373,-0.028081791837207073,-0.6277946746660104
7847,6.0,300.36756,3814.2113,0.0,0.0,0.0,0.0,0.0,-0.07820955480424199,-0.2343306319991328,-0.5268428345453395,-0.3982515277993656,-0.004038765654645136,-0.039841063846256866,-0.6622358257675873
7848,6.0,299.68145,3804.8349,0.0,0.0,0.0,0.0,0.0,-0.07821952161382581,-0.2159681995794018,-0.5232872690169325,-0.4173193444087126,-0.0028286541311414275,-0.008183561548779642,-0.6303444982776585
7849,6.0,300.78558,3718.6893,0.0,0.0,0.0,0.0,0.0,-0.07822948842340965,-0.23467527888814677,-0.5212037734988075,-0.37450964927372465,-0.005479854023244485,0.002289047385086388,-0.6636490563445624
7850,6.0,299.89652,3883.3481,0.0,0.0,0.0,0.0,0.0,-0.07823945523299344,-0.23682039014485276,-0.5075976586384885,-0.4360228064146006,-0.023298756899158276,0.014129197118443187,-0.6338201690356804
7851,6.0,299.40942,4029.7127,0.0,0.0,0.0,0.0,0.0,-0.07824942204257726,-0.27754323590388474,-0.5287353729496185,-0.4186534198878756,-0.003583365463450637,-0.0053064626131320855,-0.6637123743433113
7852,6.0,300.41707,3899.5866,0.0,0.0,0.0,0.0,0.0,-0.07825938885216108,-0.2510197325412188,-0.5105087869707945,-0.42384841394558165,-0.0007222921116496814,0.015666741323686985,-0.6521698041066484
7853,6.0,300.34533999999996,3590.1259999999997,0.0,0.0,0.0,0.0,0.0,-0.07826935566174492,-0.2316543041124998,-0.4737860803540455,-0.3858682842197346,0.01744661847584718,0.0023305151520539376,-0.6323867241192104
7854,6.0,299.6679,3794.9261,0.0,0.0,0.0,0.0,0.0,-0.07827932247132874,-0.2116967931203468,-0.5342017761791105,-0.40766420579582463,0.026069264356086076,0.0011992927482109789,-0.6248960397074375
7855,6.0,300.29952000000003,3930.9236,0.0,0.0,0.0,0.0,0.0,-0.07828928928091258,-0.27113811725174874,-0.49894677246471253,-0.4248177295212456,0.01179901471772209,0.002957024711485617,-0.6221741155663044
7856,6.0,299.96179,3845.1615,0.0,0.0,0.0,0.0,0.0,-0.07829925609049634,-0.20900909656759178,-0.5429280177628235,-0.41689597811942963,0.005953402840955115,-0.013014194416900987,-0.6490050086118074
7857,6.0,301.42159,3752.6549,0.0,0.0,0.0,0.0,0.0,-0.07830922290008019,-0.2285671539728218,-0.5294078771734895,-0.38273835466083467,-0.009542553151876671,-0.01889322551111618,-0.6645218395831993
7858,6.0,300.65542999999997,3725.37,0.0,0.0,0.0,0.0,0.0,-0.078319189709664,-0.2206523028041868,-0.5050522730622785,-0.40671486137963164,-0.013903593943927884,-0.012803239799081387,-0.6384355232411804
7859,6.0,299.72547000000003,3828.7777,0.0,0.0,0.0,0.0,0.0,-0.07832915651924785,-0.25341785234789477,-0.5303543338268975,-0.38008064017853865,0.0029355327649395278,-0.004102355913696006,-0.6634772192601034
7860,6.0,299.39509,3936.7039,0.0,0.0,0.0,0.0,0.0,-0.07833912332883167,-0.26574087847408273,-0.4995302221372946,-0.43138856522723656,-0.01024806724015549,0.026003386887584475,-0.6300507266761655
7861,6.0,299.16983999999997,3780.2533,0.0,0.0,0.0,0.0,0.0,-0.07834909013841548,-0.23889857623245375,-0.5003952134826626,-0.40980883069248264,0.00959746097214565,0.012847650550964387,-0.6599642406333994
7862,6.0,299.30045,3607.0482,0.0,0.0,0.0,0.0,0.0,-0.0783590569479993,-0.20795175995574078,-0.5027606863711166,-0.38574014861208866,-0.00916583983562296,0.020808574201646377,-0.6446229045793274
7863,6.0,299.92501,3884.027,0.0,0.0,0.0,0.0,0.0,-0.07836902375758314,-0.23922941252260477,-0.5066606252110105,-0.43475717597969255,0.02283824182145898,0.016162552968619785,-0.6594608174537154
7864,6.0,299.1287,4043.93,0.0,0.0,0.0,0.0,0.0,-0.07837899056716693,-0.26321213046451475,-0.5559789323633485,-0.4100626701075346,0.01791829855639838,-0.02172057224565358,-0.6681012671514613
7865,6.0,299.97089,3853.0626,0.0,0.0,0.0,0.0,0.0,-0.07838895737675078,-0.2178761596502028,-0.5304274600866146,-0.42293119969005954,0.029042176626489676,-0.026378962222650872,-0.6591062407137214
7866,6.0,300.74981,3520.6044,0.0,0.0,0.0,0.0,0.0,-0.07839892418633457,-0.2021573879338808,-0.47819954447712054,-0.3898188855646286,-0.0053982894166946845,-0.03296064274446217,-0.6366943745343424
7867,6.0,300.11012,3463.7146,0.0,0.0,0.0,0.0,0.0,-0.07840889099591841,-0.17101607830047283,-0.5278542303976564,-0.3540124306158067,0.002010681339438798,-0.02034698305234088,-0.6466714227040004
7868,6.0,299.66562999999996,3772.4416,0.0,0.0,0.0,0.0,0.0,-0.07841885780550223,-0.23047193243830877,-0.5007824979358845,-0.4154736384240556,-0.005904136999892954,-0.004020343146626976,-0.6418911519122243
7869,6.0,300.08538,4027.3024,0.0,0.0,0.0,0.0,0.0,-0.07842882461508607,-0.2667862587347537,-0.5465537609931564,-0.4108593379986596,0.012951177353431688,0.008566413944739231,-0.6582923374383954
7870,6.0,299.73053,3802.3573,0.0,0.0,0.0,0.0,0.0,-0.07843879142466986,-0.24367890781923576,-0.5131676768232065,-0.3989750896957756,0.003388010844170637,0.00029718749049512176,-0.6564040749495385
7871,6.0,298.82241,3579.8920000000003,0.0,0.0,0.0,0.0,0.0,-0.07844875823425368,-0.2246413772553778,-0.4733782978513006,-0.39017810299008066,-0.012054792480215388,0.004201525132783246,-0.6417782353210805
7872,6.0,299.02825,3701.3746,0.0,0.0,0.0,0.0,0.0,-0.0784587250438375,-0.2217023642803198,-0.5099612772792594,-0.39346181351665765,0.01963332466240828,-0.00040494035647950163,-0.6515160247446253
7873,6.0,299.04183,3998.8586,0.0,0.0,0.0,0.0,0.0,-0.07846869185342134,-0.2496564045316688,-0.5138166533797555,-0.45208010498933254,0.002701434704235847,0.005753917606317454,-0.6653483071597653
7874,6.0,299.34747000000004,3910.3979,0.0,0.0,0.0,0.0,0.0,-0.07847865866300516,-0.2294370089186698,-0.5468072761681765,-0.4124190338775896,0.009361427806400991,-0.003132869808040177,-0.6556122199963884
7875,6.0,299.59262,3669.1466,0.0,0.0,0.0,0.0,0.0,-0.078488625472589,-0.2116793753511278,-0.5321033656195134,-0.37154619670625466,-0.010873053074086791,-0.02206137993003868,-0.6875920954125563
7876,6.0,300.70521,3737.8295,0.0,0.0,0.0,0.0,0.0,-0.07849859228217276,-0.2021692125625478,-0.5283673199832944,-0.4056702917190406,-0.003007300256272427,0.008466162371895172,-0.6542128101507774
7877,6.0,299.58893,3721.7785,0.0,0.0,0.0,0.0,0.0,-0.07850855909175661,-0.2116630721570188,-0.5401681778029485,-0.37949649136338764,0.004158153266227776,-0.005272413052796654,-0.6689630971565174
7878,6.0,300.63487000000003,3865.4842,0.0,0.0,0.0,0.0,0.0,-0.07851852590134042,-0.23751436513834276,-0.49576032381523455,-0.44173597657344654,0.0063078888950651646,-0.014074830171077586,-0.5982453633247204
7879,6.0,299.84386,3824.0671,0.0,0.0,0.0,0.0,0.0,-0.07852849271092427,-0.23277605303320778,-0.5124472053396015,-0.4171976632042036,-0.022240520521218478,-0.008470593618557502,-0.6527833371746994
7880,6.0,299.23028999999997,3672.7415,0.0,0.0,0.0,0.0,0.0,-0.07853845952050809,-0.2266860348971698,-0.49543328721295854,-0.3943023754021146,0.0006134242551227604,-0.0007823581348652364,-0.6187351143294014
7881,6.0,299.80432,3849.2057,0.0,0.0,0.0,0.0,0.0,-0.0785484263300919,-0.25174083223988575,-0.5157428215548535,-0.4025787744714316,-0.030359732076022272,0.015205344718400685,-0.6713150026261323
7882,6.0,300.81065,4094.7548,0.0,0.0,0.0,0.0,0.0,-0.07855839313967572,-0.26177836130801274,-0.5377797244022265,-0.44514512746240353,0.012648104116020686,0.018103852007461084,-0.6348925017490115
7883,6.0,300.77263,3988.1228,0.0,0.0,0.0,0.0,0.0,-0.07856835994925956,-0.26704257048004976,-0.5439708041032385,-0.4012763833228956,-0.016628533517358483,0.015624553642523385,-0.6839759375281692
7884,6.0,300.9223,3871.4065,0.0,0.0,0.0,0.0,0.0,-0.07857832675884335,-0.2270174082098738,-0.5128539137972405,-0.43693959510508057,0.014624188030794986,0.030651917941108768,-0.6296496113590784
7885,6.0,301.3618,3736.3799,0.0,0.0,0.0,0.0,0.0,-0.07858829356842717,-0.21108310806478078,-0.5357557471949754,-0.38892733693413967,-0.013960525427296587,0.0022134189042474378,-0.6776024728091573
7886,6.0,300.71667,3793.7527,0.0,0.0,0.0,0.0,0.0,-0.07859826037801099,-0.23724426305918578,-0.5109219802290735,-0.40503985763932165,0.00020173353528454981,-0.02743461683933587,-0.6191503644853834
7887,6.0,300.22822,3784.5345,0.0,0.0,0.0,0.0,0.0,-0.07860822718759483,-0.25547549985596874,-0.5078460265030006,-0.38708247194706563,-0.008388199970775882,-0.03946444992983796,-0.6676480707792344
7888,6.0,298.60065,3735.7988,0.0,0.0,0.0,0.0,0.0,-0.07861819399717865,-0.2256684278217398,-0.5250309711140225,-0.38489014323569964,0.019408816811251083,-0.022749073786158775,-0.6623731920836443
7889,6.0,299.3296,3654.8482,0.0,0.0,0.0,0.0,0.0,-0.07862816080676246,-0.23827342118575578,-0.49093175139119155,-0.38177742879599863,-0.004543678919926196,0.013873014055909886,-0.6554495933553384
7890,6.0,299.63282000000004,3733.7452,0.0,0.0,0.0,0.0,0.0,-0.07863812761634631,-0.2036125569324948,-0.5170326281371475,-0.4143201241127126,-0.003278836996246017,-0.0019751465571067883,-0.6539310556954704
7891,6.0,300.10965,3894.09,0.0,0.0,0.0,0.0,0.0,-0.0786480944259301,-0.23383509190522678,-0.5262166865135435,-0.42365433602142755,-0.006481777405676624,0.010242135674070089,-0.6678000380292324
7892,6.0,300.61073,3950.1524,0.0,0.0,0.0,0.0,0.0,-0.07865806123551392,-0.24828327839365177,-0.5278599957907255,-0.4246044302426946,0.003314235496439577,0.012169212734507788,-0.6667268035233124
7893,6.0,300.85564,3694.5329,0.0,0.0,0.0,0.0,0.0,-0.07866802804509773,-0.21652591269944377,-0.5175584644090435,-0.38896138213749964,-0.0015189785249865085,0.012069794661195989,-0.6799428677576363
7894,6.0,300.31564,3672.6857,0.0,0.0,0.0,0.0,0.0,-0.07867799485468158,-0.2075101146346538,-0.5012460294591315,-0.40764861187678564,-0.033007865265372666,-0.01831351979765368,-0.6659577162999094
7895,6.0,300.10889,3788.3878,0.0,0.0,0.0,0.0,0.0,-0.0786879616642654,-0.22639877849381979,-0.5184703591015405,-0.4067061575612726,0.009467739628093151,-0.012714119386535888,-0.6546880143151764
7896,6.0,298.82908,3839.8674,0.0,0.0,0.0,0.0,0.0,-0.07869792847384918,-0.2338884293904908,-0.5187585780924855,-0.41457680062804464,0.012536714492777387,0.017277168608623786,-0.6444655265737954
7897,6.0,298.90002000000004,3940.2537,0.0,0.0,0.0,0.0,0.0,-0.07870789528343303,-0.2519461268426468,-0.5073199875810845,-0.4384726121088776,0.021874496081594683,0.006563072791674854,-0.6313960694964404
7898,6.0,299.84372,3809.5749,0.0,0.0,0.0,0.0,0.0,-0.07871786209301684,-0.25526257547995473,-0.5203089014079906,-0.3824441574942996,-0.00014906928378449286,-0.025866951748369373,-0.6290825662056154
7899,6.0,300.54483,3985.385,0.0,0.0,0.0,0.0,0.0,-0.07872782890260066,-0.24765852864699375,-0.5353623832411535,-0.4284366130484016,0.008421580178095252,-0.02909440156314387,-0.6455305841514084
7900,6.0,300.5557,4031.9051,0.0,0.0,0.0,0.0,0.0,-0.0787377957121845,-0.28040190827851375,-0.5195461976602176,-0.4256503677909206,0.02521131408566298,-0.01045371445395129,-0.6448796520221663
7901,6.0,300.95612,3909.38,0.0,0.0,0.0,0.0,0.0,-0.07874776252176832,-0.22680227494864177,-0.5368288094483785,-0.4247228082518776,0.013544139417952489,0.019130872176320084,-0.6510692219805294
7902,6.0,299.66482,3822.0243,0.0,0.0,0.0,0.0,0.0,-0.07875772933135214,-0.22594328204386577,-0.49838360805913257,-0.4374730712827306,-0.017036387960860586,0.015232542377584883,-0.6375015396965035
7903,6.0,299.75979,3748.2176,0.0,0.0,0.0,0.0,0.0,-0.07876769614093593,-0.2112417323679358,-0.5110561548073155,-0.4170666702312756,-0.022660566389923777,0.02008039188478038,-0.6418929048348975
7904,6.0,300.27133,3770.8225,0.0,0.0,0.0,0.0,0.0,-0.07877766295051977,-0.2279527393771838,-0.5460830657917024,-0.37220006726078664,0.007085363600145942,0.012870334180953088,-0.6724143688521313
7905,6.0,300.79155,3778.9790000000003,0.0,0.0,0.0,0.0,0.0,-0.07878762976010359,-0.23437706925121576,-0.5061564522262525,-0.4081817232843996,0.021974176586682378,-0.007980387475827922,-0.6470733080911634
7906,6.0,300.68469,3823.7670000000003,0.0,0.0,0.0,0.0,0.0,-0.0787975965696874,-0.23937185522166277,-0.5354681361540905,-0.3874896971622557,0.008194713075405213,-0.027471901403265574,-0.6588941269377874
7907,6.0,300.63079,3921.3627,0.0,0.0,0.0,0.0,0.0,-0.07880756337927122,-0.23202330953391775,-0.5250051332364725,-0.4349678914704886,-0.0005193605398443945,-0.026775617212797677,-0.6420627154191564
7908,6.0,302.04854,3791.566,0.0,0.0,0.0,0.0,0.0,-0.07881753018885507,-0.21466912175869277,-0.5183782040049455,-0.4194940628333406,0.011979112830246387,0.01014475828645969,-0.6637690656864064
7909,6.0,301.91561,3770.6513,0.0,0.0,0.0,0.0,0.0,-0.07882749699843888,-0.2167165658382598,-0.5370285615730925,-0.39243871462568564,-0.009989609127172661,0.015753853474534285,-0.6477256587705454
7910,6.0,300.95848,3794.1091,0.0,0.0,0.0,0.0,0.0,-0.07883746380802273,-0.2237706914444478,-0.5087629671809955,-0.4207807688703286,-0.015369046417806785,-0.015698122692534087,-0.6725948590924443
7911,6.0,299.39173,3839.6394,0.0,0.0,0.0,0.0,0.0,-0.07884743061760649,-0.24680880698063273,-0.5375171609038135,-0.38282852378723364,-0.018331536397681782,-0.018261986910817783,-0.6780178546876524
7912,6.0,299.84963,3883.3344,0.0,0.0,0.0,0.0,0.0,-0.07885739742719033,-0.23558636298056376,-0.5254572454310925,-0.41939307219587363,0.006593474550325274,-0.01233947421506129,-0.6674006958998204
7913,6.0,300.29578,3796.9190000000003,0.0,0.0,0.0,0.0,0.0,-0.07886736423677415,-0.22409485041643976,-0.5093055119470405,-0.42076820456908864,0.030904404667277268,-0.0034359588521527366,-0.6516543941782814
7914,6.0,300.32275,3879.8381,0.0,0.0,0.0,0.0,0.0,-0.078877331046358,-0.2291336925012348,-0.5258140614538075,-0.4244261387550986,-0.001333290007685479,0.014186351516833886,-0.6217974803716334
7915,6.0,299.63561,4076.0281,0.0,0.0,0.0,0.0,0.0,-0.07888729785594181,-0.2932984744913057,-0.5141923057218295,-0.4315199837652066,-0.036571052461031865,0.007856944026745003,-0.6328630935212244
7916,6.0,299.97402,4096.7124,0.0,0.0,0.0,0.0,0.0,-0.0788972646655256,-0.27622115730590574,-0.5446320713835004,-0.4244450358694636,-0.015614423168023585,0.016506029553768287,-0.6133106697865504
7917,6.0,298.97677000000004,3762.5214,0.0,0.0,0.0,0.0,0.0,-0.07890723147510942,-0.24304407623408278,-0.5189519163440665,-0.3817165831274936,-0.012367209910048589,-0.005422732758132056,-0.6511019398262584
7918,6.0,299.43605,3772.0862,0.0,0.0,0.0,0.0,0.0,-0.07891719828469326,-0.24807060733016273,-0.48850789503197556,-0.4100415235779476,0.02391649698162448,-0.03914056858837336,-0.6349071026829524
7919,6.0,299.44392,4048.1862,0.0,0.0,0.0,0.0,0.0,-0.07892716509427708,-0.24265518071320177,-0.5683010870944505,-0.41959126391543355,0.0031486421604217866,-0.04263186062318706,-0.6819722151904174
7920,6.0,300.0338,3977.3329,0.0,0.0,0.0,0.0,0.0,-0.07893713190386092,-0.23705147196265877,-0.5322981224212344,-0.43966029321359257,0.02712317314284877,0.002909638652008977,-0.6513318564064494
7921,6.0,300.6585,3723.6843,0.0,0.0,0.0,0.0,0.0,-0.07894709871344471,-0.21418051229547078,-0.5058499440710025,-0.4118765904365546,-0.002995031621411607,0.010002921004336439,-0.6638798240548374
7922,6.0,300.87195,3784.5951,0.0,0.0,0.0,0.0,0.0,-0.07895706552302856,-0.2207517533015018,-0.5331579461910925,-0.39651270956775764,-0.004063238785635446,0.02137564063336148,-0.6598691369790134
7923,6.0,300.51457999999997,3916.1362,0.0,0.0,0.0,0.0,0.0,-0.07896703233261235,-0.27020070892173376,-0.5166747482018275,-0.40353216175552364,-0.015832449258291085,-0.0009576777092554308,-0.6510203529282064
7924,6.0,301.38715,4064.1055,0.0,0.0,0.0,0.0,0.0,-0.07897699914219619,-0.25570579133869675,-0.5570409805881644,-0.42263981935880257,-0.008796531351100053,0.024912346537657178,-0.6499595813985164
7925,6.0,300.24176,4016.7503,0.0,0.0,0.0,0.0,0.0,-0.07898696595178001,-0.25756596653478175,-0.5362030059216164,-0.42722281035610854,-0.00990032629063613,0.003353005485015877,-0.6424232399372374
7926,6.0,299.35618999999997,3769.8912,0.0,0.0,0.0,0.0,0.0,-0.07899693276136383,-0.2225425309982378,-0.5056628271750355,-0.41774742231096057,-0.035481931206793965,-0.004785590253475985,-0.6297668545281494
7927,6.0,298.5469,3758.3737,0.0,0.0,0.0,0.0,0.0,-0.07900689957094764,-0.22994066514587677,-0.5228452994558135,-0.38966580373952064,-0.019934857759667284,0.01922964987556868,-0.6577789033477234
7928,6.0,299.10554,4003.113,0.0,0.0,0.0,0.0,0.0,-0.07901686638053149,-0.25192932715598876,-0.5346067215815754,-0.43031034553082464,-0.02118510908455748,0.022284383104797377,-0.6569227880732313
7929,6.0,299.58924,3875.1795,0.0,0.0,0.0,0.0,0.0,-0.0790268331901153,-0.26482297520849274,-0.5072898028606055,-0.40584502669878564,0.021982659516519582,-0.0014497963412837588,-0.6521720839193733
7930,6.0,300.57152,3715.3173,0.0,0.0,0.0,0.0,0.0,-0.07903679999969915,-0.22386771014152282,-0.5070471091966535,-0.39844886838884164,0.007772189810205414,-0.028500819389561872,-0.6564274404968444
7931,6.0,300.03144,3780.5695,0.0,0.0,0.0,0.0,0.0,-0.07904676680928291,-0.23517593589505778,-0.47535179493856955,-0.43867098621345557,0.05007743716700825,-0.04564571225063105,-0.6262138018599904
7932,6.0,300.34026,3961.7243,0.0,0.0,0.0,0.0,0.0,-0.07905673361886675,-0.24700742426523475,-0.5411947724067655,-0.41606306627222756,0.02082365744263498,-0.009154877685441081,-0.6495030413009594
7933,6.0,300.48287,4149.6418,0.0,0.0,0.0,0.0,0.0,-0.07906670042845057,-0.26826440824563574,-0.5244038706271326,-0.46871920163898356,0.01233581435570009,0.007331894948851693,-0.6153919969494615
7934,6.0,300.29856,4070.5969,0.0,0.0,0.0,0.0,0.0,-0.07907666723803441,-0.2897804093490997,-0.5222344717655295,-0.4253449336807766,-0.008649428816157162,0.032393577325997173,-0.6306891046366684
7935,6.0,299.55834,3979.1186,0.0,0.0,0.0,0.0,0.0,-0.07908663404761823,-0.25803746220381474,-0.5581858316111525,-0.3933294019935897,-0.02788760954829277,0.05760660279107905,-0.6426714659467354
7936,6.0,299.02261,3840.5898,0.0,0.0,0.0,0.0,0.0,-0.07909660085720202,-0.24491648135887475,-0.5001199336954946,-0.42240699475082466,-0.01841986647514928,0.03463237267369907,-0.6512815384064834
7937,6.0,299.19834,3886.8225,0.0,0.0,0.0,0.0,0.0,-0.07910656766678584,-0.21211139479626478,-0.5587572742700495,-0.4106283169758596,0.0006150251497507566,-0.015770178960145487,-0.6656362829706863
7938,6.0,299.62497,3764.3941,0.0,0.0,0.0,0.0,0.0,-0.07911653447636968,-0.22200158716735077,-0.5226063953472355,-0.39967383709723664,-0.014150835074328686,-0.027497076615250176,-0.6558124483486494
7939,6.0,300.72289,3624.2844,0.0,0.0,0.0,0.0,0.0,-0.0791265012859535,-0.2028794400876418,-0.5027814174681625,-0.3960310915302256,0.005869899988289025,-0.03738060585367857,-0.6556947796145364
7940,6.0,300.724,3472.3046,0.0,0.0,0.0,0.0,0.0,-0.07913646809553734,-0.1911442104769648,-0.5117405343223584,-0.35260914002231264,-0.015283463261360385,0.011216414148723888,-0.6976686650070364
7941,6.0,300.00879,3749.6102,0.0,0.0,0.0,0.0,0.0,-0.07914643490512113,-0.22410088938703576,-0.49766407889812053,-0.4180228946156476,0.03232592059031997,0.001101788805663089,-0.6554081919562523
7942,6.0,300.37587,3998.9883,0.0,0.0,0.0,0.0,0.0,-0.07915640171470498,-0.24868511311830976,-0.5403096477819105,-0.4265978275619276,0.02125314477577208,-0.022126296837445478,-0.6614484696448814
7943,6.0,299.95939,4043.8414,0.0,0.0,0.0,0.0,0.0,-0.07916636852428877,-0.23968258862982975,-0.5374710073617585,-0.4520731946236506,0.011570335315903188,-0.016217115473254683,-0.6240055448570524
7944,6.0,299.65643,3988.6836,0.0,0.0,0.0,0.0,0.0,-0.07917633533387261,-0.2501601012888798,-0.5320937904060685,-0.43020632527555863,-0.005773902039364765,-0.018509561400501483,-0.6359572350865924
7945,6.0,298.46831000000003,3761.6615,0.0,0.0,0.0,0.0,0.0,-0.07918630214345643,-0.2270570060237818,-0.5283446130485535,-0.3880495583725096,0.0014755550840009487,-0.03510947262903517,-0.6284410370373014
7946,6.0,298.84623,3948.5408,0.0,0.0,0.0,0.0,0.0,-0.07919626895304024,-0.28573469421731873,-0.5098616241319245,-0.4046614897869796,-0.013650830600482089,0.014753896202596187,-0.6363527268656244
7947,6.0,299.43565,4134.7509,0.0,0.0,0.0,0.0,0.0,-0.07920623576262406,-0.28541256174552676,-0.5447505000551884,-0.42669795693680956,-0.022484510132048375,0.017689489458566684,-0.6289486348073974
7948,6.0,300.16306000000003,3955.4557,0.0,0.0,0.0,0.0,0.0,-0.0792162025722079,-0.2658686087816888,-0.5411230444321865,-0.39536812198979565,-0.009147791723516752,0.024924218789078877,-0.6607922787476204
7949,6.0,298.95132,3531.3307,0.0,0.0,0.0,0.0,0.0,-0.07922616938179172,-0.18173230255058181,-0.47967149289739053,-0.4120325498919466,-0.0025054189392655977,-0.016776442700705985,-0.6401744833278025
7950,6.0,299.1525,3708.8341,0.0,0.0,0.0,0.0,0.0,-0.07923613619137557,-0.2135594102491728,-0.5333159321466845,-0.38051762454916566,0.020747000006319478,-0.01894581116480598,-0.6584298760069693
7951,6.0,299.72544,4188.2626,0.0,0.0,0.0,0.0,0.0,-0.07924610300095933,-0.2750045377783348,-0.5447130401989915,-0.4534096613730496,0.017955263946546583,-0.035790567187253965,-0.6452959052957474
7952,6.0,299.6933,4027.6789,0.0,0.0,0.0,0.0,0.0,-0.07925606981054317,-0.27749362717898873,-0.5176388658044785,-0.42918130120939657,0.006216742691594734,-0.005181343451033785,-0.6553205660876044
7953,6.0,299.82023,3717.2823,0.0,0.0,0.0,0.0,0.0,-0.07926603662012699,-0.2054983166936048,-0.5569590491850784,-0.36750362264978365,0.004957488740891046,-0.01157042549516209,-0.6782345990165434
7954,6.0,300.5856,3650.6245,0.0,0.0,0.0,0.0,0.0,-0.07927600342971083,-0.20529611250364882,-0.4880699075437495,-0.4163326718588356,0.003244723803804307,0.014773666738547384,-0.6455303004413804
7955,6.0,300.76464,3907.0136,0.0,0.0,0.0,0.0,0.0,-0.07928597023929465,-0.22206530033363878,-0.5650794584015004,-0.40048980740276663,0.030698483875954474,-0.00984112664691858,-0.6878057898586464
7956,6.0,300.00917999999996,4068.7038,0.0,0.0,0.0,0.0,0.0,-0.07929593704887844,-0.24698865887338275,-0.5672509546908104,-0.4225447562344206,-0.013680808617940687,-0.016660299921243585,-0.6681630044800544
7957,6.0,300.57456,3933.8487,0.0,0.0,0.0,0.0,0.0,-0.07930590385846226,-0.25290567468734676,-0.5236601855837365,-0.4192259061943756,-0.015400995206709883,-0.018788058256736982,-0.6529647292076014
7958,6.0,301.08111,3777.2259999999997,0.0,0.0,0.0,0.0,0.0,-0.0793158706680461,-0.2288629115445108,-0.5572183601506705,-0.3621011048390967,-0.036056037700203866,-0.0075813278405438035,-0.6552780602459093
7959,6.0,301.10545,3840.1363,0.0,0.0,0.0,0.0,0.0,-0.07932583747762992,-0.23978317396725676,-0.5080898043445595,-0.4194325889497736,-0.0008272253863157892,0.025287975574978878,-0.6533187385275394
7960,6.0,300.48079,4196.599,0.0,0.0,0.0,0.0,0.0,-0.07933580428721376,-0.26654268354321475,-0.5441378282497226,-0.46498079513003154,-0.012480541933733588,0.05531270994268945,-0.6664087037869183
7961,6.0,298.84172,4017.8402,0.0,0.0,0.0,0.0,0.0,-0.07934577109679755,-0.25526203845740175,-0.5218463057847205,-0.4442147409555816,-0.003496166578394777,0.02100676490795628,-0.6582685969885524
7962,6.0,298.82307000000003,3851.5849,0.0,0.0,0.0,0.0,0.0,-0.0793557379063814,-0.2284416629479368,-0.5007167076068915,-0.4416272548377166,-0.016229627085489483,0.008753585252236601,-0.6553878965567494
7963,6.0,299.72305,3866.0267,0.0,0.0,0.0,0.0,0.0,-0.07936570471596519,-0.2414882104405308,-0.5338910225059414,-0.3997963592993286,0.02218076612307118,-0.017954255762697085,-0.6455378795521284
7964,6.0,299.43541,4006.8754,0.0,0.0,0.0,0.0,0.0,-0.07937567152554903,-0.2817749330915207,-0.5027090612785216,-0.43350606541871756,0.022961473298620978,-0.013409217061136689,-0.6262700473730414
7965,6.0,299.42052,4035.9586,0.0,0.0,0.0,0.0,0.0,-0.07938563833513285,-0.26818026795733174,-0.5206779169619095,-0.4379724515945156,0.02206532045967758,-0.02120350970637348,-0.6214867976259715
7966,6.0,299.90359,3917.1821,0.0,0.0,0.0,0.0,0.0,-0.07939560514471666,-0.2243340787650498,-0.5446242389602275,-0.4217672185051836,-0.013663174013200288,-0.022225331902219477,-0.6373560471146444
7967,6.0,300.42231,3900.9452,0.0,0.0,0.0,0.0,0.0,-0.07940557195430048,-0.24051916844239377,-0.5177824534761495,-0.4274883122798116,-0.005169249500490206,0.009494141581973821,-0.6455862622444034
7968,6.0,300.7333,3898.0894,0.0,0.0,0.0,0.0,0.0,-0.07941553876388432,-0.24065855112614976,-0.5612615928197064,-0.3830016882293236,-0.0005161870303986935,0.028097126364220473,-0.6899725238724863
7969,6.0,300.87158999999997,3896.7767,0.0,0.0,0.0,0.0,0.0,-0.07942550557346814,-0.24469713297722676,-0.5418859204324765,-0.3979397406110946,-0.0015235091714836484,0.01159781263211499,-0.6678916966332784
7970,6.0,299.7111,3675.4869,0.0,0.0,0.0,0.0,0.0,-0.07943547238305199,-0.25423516014355674,-0.46296202602829456,-0.4000590342552526,-0.04054715629769276,-0.008492695744313812,-0.6565609969925253
7971,6.0,299.76923999999997,3585.6592,0.0,0.0,0.0,0.0,0.0,-0.07944543919263575,-0.16889544716618285,-0.5296094024858785,-0.3914460132377136,-0.010295063806293688,0.006389702558489544,-0.6742366180969733
7972,6.0,300.17727,3591.7828,0.0,0.0,0.0,0.0,0.0,-0.07945540600221959,-0.19840323551837483,-0.48206242876085753,-0.4113466099717496,-0.002960297104008577,0.03354766817664707,-0.6765662928593944
7973,6.0,300.04166000000004,3838.0128,0.0,0.0,0.0,0.0,0.0,-0.07946537281180341,-0.18873213821641183,-0.5391040220179244,-0.4388238957860466,0.005843241884783074,0.013168770785906489,-0.6606154868701725
7974,6.0,300.16258999999997,3958.2749,0.0,0.0,0.0,0.0,0.0,-0.07947533962138725,-0.2537683355574848,-0.5402882175422955,-0.40916016824346463,-0.006426760762346904,-0.017162833467339784,-0.6723680734550623
7975,6.0,300.02982000000003,4105.5766,0.0,0.0,0.0,0.0,0.0,-0.07948530643097107,-0.24217950032125576,-0.5599516529579255,-0.4458616168731156,-0.01049989940675939,-0.026167500979781273,-0.6549775505312514
7976,6.0,299.67233999999996,4065.8995,0.0,0.0,0.0,0.0,0.0,-0.07949527324055489,-0.26921022655148075,-0.5707429590404445,-0.39597873689755864,0.03564917421529957,-0.0023150896351815577,-0.6611825725536394
7977,6.0,300.05456000000004,3941.6552,0.0,0.0,0.0,0.0,0.0,-0.07950524005013868,-0.23849403613002876,-0.5086347809108445,-0.45103593049628055,0.006667463187202384,-0.03188303809086087,-0.6191414377520025
7978,6.0,300.52882999999997,3880.8435,0.0,0.0,0.0,0.0,0.0,-0.07951520685972252,-0.24587169249314675,-0.5168676507558655,-0.41694017608879164,0.016971145800171682,-0.008275412265044602,-0.6411223686638513
7979,6.0,298.93646,3814.4245,0.0,0.0,0.0,0.0,0.0,-0.07952517366930634,-0.23403420568237776,-0.5127805544900005,-0.4126750315153546,-0.038138577723484564,0.008175401947049351,-0.6509538127941394
7980,6.0,298.79912,3908.6174,0.0,0.0,0.0,0.0,0.0,-0.07953514047889018,-0.27172830503749573,-0.5095553490241975,-0.40683844749432857,0.019354298889620584,0.047419130946653856,-0.6721615629521814
7981,6.0,298.93911,3917.9486,0.0,0.0,0.0,0.0,0.0,-0.07954510728847397,-0.2577634388467707,-0.5369951851147985,-0.39619990912938663,-0.015723728535811183,0.01161032120459949,-0.6535895194842634
7982,6.0,299.64426000000003,3894.6816,0.0,0.0,0.0,0.0,0.0,-0.07955507409805782,-0.24165532577952378,-0.5054105988276425,-0.43682001132827863,0.01019948392436069,-0.03222375458273697,-0.6589816312164234
7983,6.0,299.11169,3994.0895,0.0,0.0,0.0,0.0,0.0,-0.0795650409076416,-0.24711229565058476,-0.5220397858913155,-0.4449513940432836,0.0026940386877809175,-0.032307875619289064,-0.6171623880541854
7984,6.0,299.65378,3908.3549,0.0,0.0,0.0,0.0,0.0,-0.07957500771722545,-0.2065427546316828,-0.5623247454871315,-0.4191747775943296,-0.0012219716159242089,0.016689607167135984,-0.6730517943575404
7985,6.0,300.38684,3847.3288,0.0,0.0,0.0,0.0,0.0,-0.07958497452680927,-0.21821841526898078,-0.5321980437088575,-0.4190754081570226,0.010907482299234689,0.026327756615597272,-0.6543798748272653
7986,6.0,299.98129,3885.8936,0.0,0.0,0.0,0.0,0.0,-0.07959494133639308,-0.24440598569349276,-0.5558741015080024,-0.3809345567003136,-0.008381505630015202,0.0030160511907610776,-0.6847218517217853
7987,6.0,300.13046,3844.5409,0.0,0.0,0.0,0.0,0.0,-0.0796049081459769,-0.23220059790391478,-0.5644860687454375,-0.37195777889687465,-0.007805858185853223,0.02333227419921618,-0.6779916419075653
7988,6.0,299.17447999999996,3717.7957,0.0,0.0,0.0,0.0,0.0,-0.07961487495556074,-0.2097385758445858,-0.5337359141806335,-0.38664257954865167,-0.008728102518846653,-0.01378052357353179,-0.6895569494764723
7989,6.0,299.83382,3769.2795,0.0,0.0,0.0,0.0,0.0,-0.07962484176514456,-0.2139666658618658,-0.5286879325799365,-0.4031122506490816,0.007832838401565963,-0.0038381921894000766,-0.6696456629538814
7990,6.0,299.81774,3802.134,0.0,0.0,0.0,0.0,0.0,-0.07963480857472835,-0.2014724106012788,-0.5321271364668595,-0.4221542597783816,-0.007910875377892613,-0.025424424899695375,-0.6491948815480464
7991,6.0,300.09927000000005,3810.1134,0.0,0.0,0.0,0.0,0.0,-0.07964477538431217,-0.2183963521190418,-0.5291859044740825,-0.4105970784752766,0.007179371323223783,-0.001169223842218409,-0.6742000600333653
7992,6.0,298.77242,3992.6108,0.0,0.0,0.0,0.0,0.0,-0.07965474219389601,-0.27726846274176675,-0.5432597355805615,-0.39312578938599463,-0.013557619697282888,0.04886011951011836,-0.6746486157201343
7993,6.0,298.96932999999996,4022.1862,0.0,0.0,0.0,0.0,0.0,-0.07966470900347983,-0.2746902478623167,-0.5259766070348495,-0.42197731591341864,-0.019702952169529983,0.03241511699662297,-0.6716569846673833
7994,6.0,299.69689,3843.5503,0.0,0.0,0.0,0.0,0.0,-0.07967467581306364,-0.24012052545555077,-0.5123777065152425,-0.4158450857782146,0.0002239221318043938,0.005420045618866855,-0.6342500302581043
7995,6.0,300.09983,3938.5213,0.0,0.0,0.0,0.0,0.0,-0.07968464262264749,-0.24033880992459378,-0.5197108305364655,-0.43716249999457957,-0.0090184234971241,-0.02650111256195618,-0.6423968245071304
7996,6.0,300.15117999999995,4296.3815,0.0,0.0,0.0,0.0,0.0,-0.0796946094322313,-0.2745643312723897,-0.5690453091603994,-0.46238304478865355,0.04237101863669396,-0.024176065312741878,-0.6149847413367685
7997,6.0,300.66787999999997,4088.11,0.0,0.0,0.0,0.0,0.0,-0.0797045762418151,-0.2793896005011067,-0.5374515630923395,-0.42584220643235354,0.004461893728829626,0.001118471157959509,-0.6532543667486864
7998,6.0,301.63585,3951.8572,0.0,0.0,0.0,0.0,0.0,-0.07971454305139894,-0.28092327611746876,-0.5138503946080856,-0.4064922503326616,0.02057841646793158,-0.003521316965751927,-0.6512168930501034
7999,6.0,299.90834,3899.7998,0.0,0.0,0.0,0.0,0.0,-0.07972450986098276,-0.25713342019959273,-0.5116439411903254,-0.4166643998090746,-0.009691752709226521,0.01211944188959579,-0.6661294925893624
8000,6.0,299.65651,3865.8999,0.0,0.0,0.0,0.0,0.0,-0.07973447667056657,-0.23024650455606077,-0.5343558205918135,-0.41053471293162164,0.013282137260094886,0.025442535731982775,-0.6904334310779743
8001,6.0,299.99967999999996,3792.5698,0.0,0.0,0.0,0.0,0.0,-0.07974444348015039,-0.17831814620613085,-0.5242412946485875,-0.4502870677448736,0.004554075372577245,-0.009760603762796591,-0.6558900329088063
8002,6.0,299.1073,3675.8338,0.0,0.0,0.0,0.0,0.0,-0.07975441028973423,-0.17912998245125283,-0.5226288793669545,-0.4156028075468036,0.003055662886195447,-0.053136828306946646,-0.6684742039832673
8003,6.0,300.21599,3593.3758,0.0,0.0,0.0,0.0,0.0,-0.07976437709931802,-0.17911735735500683,-0.5260152017311585,-0.3871639473876066,-0.008106260901300661,-0.02283957120559018,-0.6785449473896724
8004,6.0,300.59232000000003,3706.0647,0.0,0.0,0.0,0.0,0.0,-0.07977434390890184,-0.2148864537726418,-0.5338987840017074,-0.3777658703250886,0.037134775167416964,0.014415163654415884,-0.7072037030855713
8005,6.0,299.88424,4049.1738,0.0,0.0,0.0,0.0,0.0,-0.07978431071848568,-0.25006740916973175,-0.5767534269111314,-0.4040268912493496,0.010570310156208391,0.025921581127510876,-0.6791903877033724
8006,6.0,299.82878999999997,4022.4795,0.0,0.0,0.0,0.0,0.0,-0.0797942775280695,-0.24630975090887977,-0.5528365702257214,-0.42358699541978156,0.0017290410774180682,0.00044901736404456366,-0.6698073168748353
8007,6.0,300.33848,3801.8738,0.0,0.0,0.0,0.0,0.0,-0.07980424433765332,-0.1990896111361148,-0.5053916713157746,-0.45119341995932355,-0.03593765259827017,-0.02863751696055287,-0.6525082499050504
8008,6.0,298.98748,3862.4509,0.0,0.0,0.0,0.0,0.0,-0.07981421114723714,-0.2152705160905458,-0.5308219386155465,-0.42799617349493363,0.0011438863075677887,-0.014610057244900384,-0.6475380048520254
8009,6.0,299.35795,4069.8579999999997,0.0,0.0,0.0,0.0,0.0,-0.07982417795682098,-0.25699388552832175,-0.5180668221167145,-0.4620744898682016,0.0009939057674383622,-0.03861246466275356,-0.6383608568413114
8010,6.0,299.07388,3811.0531,0.0,0.0,0.0,0.0,0.0,-0.07983414476640477,-0.2813909518336247,-0.48793675634810857,-0.3891372620898576,-0.005560441046097805,-0.028910323404226772,-0.6491345729020944
8011,6.0,298.75475,3891.2235,0.0,0.0,0.0,0.0,0.0,-0.07984411157598859,-0.2751102602937688,-0.5171720006884025,-0.39055251916703265,-0.045033862190996164,0.01055735271392959,-0.6487167592233594
8012,6.0,300.43375,4100.635,0.0,0.0,0.0,0.0,0.0,-0.0798540783855724,-0.29680573838744573,-0.5175065150764165,-0.4321783835476856,-0.004278886777918246,0.05870761960149094,-0.6426491440470324
8013,6.0,301.06441,4033.0291,0.0,0.0,0.0,0.0,0.0,-0.07986404519515625,-0.2426106281063048,-0.5493977716388384,-0.43393175205072965,-0.001115533036644539,0.04053621117011256,-0.6394692815232044
8014,6.0,300.6418,4029.941,0.0,0.0,0.0,0.0,0.0,-0.07987401200474006,-0.2670798682162307,-0.5247422252330255,-0.4331793530564736,0.03407690795562897,-0.005654843328764584,-0.6411888885329163
8015,6.0,299.43818,4179.2089,0.0,0.0,0.0,0.0,0.0,-0.07988397881432391,-0.28579720161598776,-0.5251859477168175,-0.45939201155346154,-0.001956619583003318,-0.03145940227705127,-0.6317132573077444
8016,6.0,298.63063,3904.2084,0.0,0.0,0.0,0.0,0.0,-0.07989394562390767,-0.2781772568889577,-0.5311479619677224,-0.3774566466595706,0.002827185425121477,-0.00884738171266859,-0.6713720182092593
8017,6.0,299.01039,3626.82,0.0,0.0,0.0,0.0,0.0,-0.07990391243349151,-0.2266058766817588,-0.5081462525076306,-0.36771059924771066,0.0024689114368375877,-0.029459981185973767,-0.6704971071454123
8018,6.0,300.61481000000003,3803.8059,0.0,0.0,0.0,0.0,0.0,-0.07991387924307533,-0.2121005428876938,-0.5442099412593395,-0.3999515182871416,0.002112415803804208,-0.0031701690640963272,-0.6948271976191054
8019,6.0,299.82392999999996,3835.1059,0.0,0.0,0.0,0.0,0.0,-0.07992384605265918,-0.18927230184472182,-0.5590390388578574,-0.4174650801705956,0.0040796491816050265,0.0005075281800791315,-0.6704100385643194
8020,6.0,300.51402,3612.5369,0.0,0.0,0.0,0.0,0.0,-0.07993381286224299,-0.16456263775106786,-0.5304994616387204,-0.40305891316381764,-0.006342125704019074,0.026655271471920473,-0.6876869254894153
8021,6.0,301.73735,3709.7472,0.0,0.0,0.0,0.0,0.0,-0.07994377967182681,-0.1796530930803798,-0.5612881703698295,-0.3867292630947066,-0.013919679289265385,0.03240580624145407,-0.6851490886264503
8022,6.0,300.29859,3923.6369,0.0,0.0,0.0,0.0,0.0,-0.0799537464814106,-0.24923067736965274,-0.5387332636738335,-0.4047237033431196,0.00043423529138318667,-0.009559565823705691,-0.6591311565336804
8023,6.0,300.18951,4070.5959999999995,0.0,0.0,0.0,0.0,0.0,-0.07996371329099444,-0.2539202825424807,-0.5721869113604514,-0.4112523574474476,-0.008197369310542362,-0.007333721838781994,-0.6799355115619103
8024,6.0,300.06965,4211.1779,0.0,0.0,0.0,0.0,0.0,-0.07997368010057826,-0.2712295630732737,-0.5631418303677715,-0.4457215553117925,-0.027129399564713275,0.03039842809734127,-0.6462018116801534
8025,6.0,299.1114,3920.4477,0.0,0.0,0.0,0.0,0.0,-0.0799836469101621,-0.2199129747362208,-0.5222594078504905,-0.4495458246342186,-0.012870635116232787,0.028743082422221376,-0.6470544312418003
8026,6.0,299.30217999999996,3638.8888,0.0,0.0,0.0,0.0,0.0,-0.07999361371974589,-0.22026856472631479,-0.49819808196582255,-0.38766467532202464,-0.008850837503459651,0.01069906992591599,-0.6154845776110984
8027,6.0,300.0571,3991.4885,0.0,0.0,0.0,0.0,0.0,-0.08000358052932974,-0.29253849638630175,-0.49865723624863756,-0.4221171140297156,0.019541734959369082,-0.013388844654626086,-0.6365977206073035
8028,6.0,300.30692,4426.1065,0.0,0.0,0.0,0.0,0.0,-0.08001354733891355,-0.34862837422194165,-0.5463451834600714,-0.45045230857118157,0.014217548474162787,-0.006429102687303034,-0.5922401542220525
8029,6.0,301.11905,4228.7544,0.0,0.0,0.0,0.0,0.0,-0.0800235141484974,-0.29152596569387274,-0.5429027675703315,-0.4510070123384266,0.006138500228147805,-0.007304797094802343,-0.6491791559064944
8030,6.0,301.34756,3896.4031,0.0,0.0,0.0,0.0,0.0,-0.08003348095808119,-0.2258825883628758,-0.5287808476141065,-0.4297458132376095,0.0015793415824688784,-0.004518137722005476,-0.6263175586702304
8031,6.0,300.22917,4009.45,0.0,0.0,0.0,0.0,0.0,-0.080043447767665,-0.2237185698593038,-0.5581216118198145,-0.43693250235438064,0.008455820229449481,-0.02051342964626788,-0.6637298731725383
8032,6.0,300.92792000000003,4118.0101,0.0,0.0,0.0,0.0,0.0,-0.08005341457724882,-0.28027384359837476,-0.5375126823383715,-0.43398570761855454,0.004668669601911816,0.025059969984476477,-0.6431843326173514
8033,6.0,300.22649,3716.2246,0.0,0.0,0.0,0.0,0.0,-0.08006338138683267,-0.23760623652490978,-0.49742890354991054,-0.39460433406441564,-0.009761292367564551,0.011759850574856888,-0.6774737799139564
8034,6.0,300.16005,3638.5476,0.0,0.0,0.0,0.0,0.0,-0.08007334819641648,-0.22544492511468175,-0.5199184454819555,-0.3606642452697897,-0.0007805911888108523,0.0034251511212860966,-0.6626425848877313
8035,6.0,299.54305,3771.8721,0.0,0.0,0.0,0.0,0.0,-0.08008331500600033,-0.2190190753654998,-0.5271736809679916,-0.4003621885526716,-0.004014602071560376,-0.02459310588165058,-0.6763790645059163
8036,6.0,299.0862,3861.8111,0.0,0.0,0.0,0.0,0.0,-0.08009328181558409,-0.2139153447443008,-0.5455430541509074,-0.41443574608162365,0.028303540608341973,0.011085157730769887,-0.6969971537682633
8037,6.0,300.16772000000003,3976.6323,0.0,0.0,0.0,0.0,0.0,-0.08010324862516793,-0.21748506537660478,-0.5634636082020285,-0.4278482592453356,0.013363644111388987,0.027160496210282273,-0.6875150580074533
8038,6.0,300.43627000000004,3923.8963,0.0,0.0,0.0,0.0,0.0,-0.08011321543475175,-0.24129811458926978,-0.5312126275891045,-0.42025576346351456,0.00965400174627579,0.02040367844843628,-0.6667019079683554
8039,6.0,299.76981,3651.9952,0.0,0.0,0.0,0.0,0.0,-0.0801231822443356,-0.2051019231219838,-0.5367350432841246,-0.3682783638087446,0.004741428558467565,-0.027608497649246576,-0.6814755301238984
8040,6.0,300.06685,3862.3544,0.0,0.0,0.0,0.0,0.0,-0.08013314905391941,-0.25280081343449773,-0.5238196711494765,-0.39743882015915766,0.02610150192126768,-0.02356321720175848,-0.6509159375054014
8041,6.0,299.35482,4133.7746,0.0,0.0,0.0,0.0,0.0,-0.08014311586350323,-0.2517227862556048,-0.5301834491975326,-0.4746580225950996,0.013270145445161387,-0.025628959564881378,-0.6535409341419683
8042,6.0,298.60314,3927.9359999999997,0.0,0.0,0.0,0.0,0.0,-0.08015308267308702,-0.23046645075526778,-0.5168666577707675,-0.4466613447795426,-0.01036600245904479,-0.05116155397900225,-0.6210522957180894
8043,6.0,299.63554,3811.9187,0.0,0.0,0.0,0.0,0.0,-0.08016304948267086,-0.2129995490389188,-0.5025853839713155,-0.44314316817982563,-0.036591049965005465,-0.024305198971736375,-0.6356940332406165
8044,6.0,299.1797,4110.4498,0.0,0.0,0.0,0.0,0.0,-0.08017301629225468,-0.3069688699379687,-0.5308620734520074,-0.41164315787851663,-0.014408256328484186,0.049332336613222554,-0.6208543978410583
8045,6.0,299.18485,4341.5207,0.0,0.0,0.0,0.0,0.0,-0.08018298310183852,-0.3456355880640767,-0.5466103712762435,-0.4274679155552986,0.0068399360860991335,0.06093098213691975,-0.6263591728518374
8046,6.0,300.26859,4179.2972,0.0,0.0,0.0,0.0,0.0,-0.08019294991142231,-0.3202463877908577,-0.5227970687510536,-0.4273585250745026,0.010882117609481387,0.015829264613226784,-0.6382312925510244
8047,6.0,299.14938,3891.7656,0.0,0.0,0.0,0.0,0.0,-0.08020291672100616,-0.22743221253581178,-0.5374516542848485,-0.4181156981923066,-0.0002047167462289698,-0.05995535401313274,-0.6585650030403054
8048,6.0,300.08497,3725.9141,0.0,0.0,0.0,0.0,0.0,-0.08021288353058997,-0.21990648993558082,-0.48675228724621056,-0.42592606301062963,0.024529792949152078,-0.03895909346896317,-0.6842797909681574
8049,6.0,300.54731,3696.0777,0.0,0.0,0.0,0.0,0.0,-0.08022285034017382,-0.20141620561823181,-0.5096739702134045,-0.4124251539081936,0.03139209409940847,-0.025613839846889176,-0.6666154372048214
8050,6.0,300.23142,3840.5582,0.0,0.0,0.0,0.0,0.0,-0.08023281714975761,-0.23998958314512778,-0.5296253003799475,-0.3978188902716676,0.009871816168597402,-0.0046799326873733955,-0.6809834046828294
8051,6.0,299.55078,3958.1947,0.0,0.0,0.0,0.0,0.0,-0.08024278395934142,-0.25160432718641373,-0.5358094291852735,-0.41577857604165064,-0.017437266177424183,0.00862302645697645,-0.6414364052673444
8052,6.0,300.82235,3782.9236,0.0,0.0,0.0,0.0,0.0,-0.08025275076892524,-0.20440080471528882,-0.5596257106657574,-0.3858877994166606,-0.025645393468253275,0.04382418950611076,-0.6853901205602384
8053,6.0,300.70685,3767.0934,0.0,0.0,0.0,0.0,0.0,-0.08026271757850909,-0.18272805382135485,-0.5331794068282105,-0.4291948787607366,-0.0015937479723906786,0.023344677393690276,-0.6586765010813093
8054,6.0,300.4281,4135.5267,0.0,0.0,0.0,0.0,0.0,-0.0802726843880929,-0.2249782525161248,-0.5763211744184714,-0.4557974156312025,0.002632038623436987,-0.026416703762375676,-0.6651174786544845
8055,6.0,299.36508,4034.8473,0.0,0.0,0.0,0.0,0.0,-0.08028265119767675,-0.22162925828560479,-0.5826594286965084,-0.4222041319483036,0.012222672823033888,-0.04195716271284956,-0.6720850727021324
8056,6.0,299.31883999999997,3703.4951,0.0,0.0,0.0,0.0,0.0,-0.08029261800726051,-0.2551654453253688,-0.5022023754335155,-0.3684021931034656,-0.004643326494385646,-0.00848104357081383,-0.6782774088332684
8057,6.0,299.90852,3822.5755,0.0,0.0,0.0,0.0,0.0,-0.08030258481684435,-0.27139579688467974,-0.5250063592690934,-0.3655653562684917,0.013834852017393588,0.024769086145768476,-0.6708413689993884
8058,6.0,299.53177,3910.2152,0.0,0.0,0.0,0.0,0.0,-0.08031255162642817,-0.2714986924323347,-0.5132092808723125,-0.4038997992893066,-0.006791834165426844,0.017678615258493482,-0.6599628626132633
8059,6.0,299.60752,3872.8189,0.0,0.0,0.0,0.0,0.0,-0.08032251843601201,-0.2069707616064238,-0.5152596735096705,-0.4550098163284726,0.004415155541466926,0.0012075725214031289,-0.6541149504561193
8060,6.0,300.15925,4132.6589,0.0,0.0,0.0,0.0,0.0,-0.08033248524559583,-0.24354681040369877,-0.5507158377664215,-0.4619624750696466,-0.017469603041115583,0.035052624232174666,-0.6553121459792733
8061,6.0,300.95871,4372.4583,0.0,0.0,0.0,0.0,0.0,-0.08034245205517965,-0.2993464224831917,-0.5390864927911945,-0.4906852175093605,-0.010224936766872689,-0.0008226272674944901,-0.6110054244840404
8062,6.0,300.86165,4180.6349,0.0,0.0,0.0,0.0,0.0,-0.08035241886476346,-0.3061195029091427,-0.5345768104386235,-0.4301123159312806,-0.01607020636775588,-0.02137663767145988,-0.6116748281626054
8063,6.0,300.01965,4119.8745,0.0,0.0,0.0,0.0,0.0,-0.08036238567434728,-0.3075288223407317,-0.5435460395288175,-0.4012641229966856,0.008164412337789763,-0.02159239610800358,-0.6255497278769514
8064,6.0,300.60821,4279.9168,0.0,0.0,0.0,0.0,0.0,-0.0803723524839311,-0.30911955407022473,-0.5307849043243915,-0.46108338941538757,0.01060273314615829,0.02224365146402748,-0.6301086237868794
8065,6.0,299.30991,3977.6456,0.0,0.0,0.0,0.0,0.0,-0.08038231929351494,-0.2255186289269558,-0.5584877497434495,-0.4250985517864606,-0.003313025878470197,0.015649536336988987,-0.6602252133291554
8066,6.0,299.83293,3724.7454,0.0,0.0,0.0,0.0,0.0,-0.08039228610309873,-0.18586569421351581,-0.5269332873817665,-0.4194306029795776,-0.01286079949751209,-0.015329817426935186,-0.6705544976310763
8067,6.0,300.04537,3760.0124,0.0,0.0,0.0,0.0,0.0,-0.08040225291268258,-0.2290783994432778,-0.5210163323628085,-0.3928551401517836,0.02097286865236098,-0.03619501001766936,-0.6675861915956274
8068,6.0,299.7431,3625.9856,0.0,0.0,0.0,0.0,0.0,-0.08041221972226639,-0.22024844157932877,-0.5461553611863375,-0.3358052787739007,0.025769594625760974,0.018255441315171782,-0.7175269078868923
8069,6.0,298.3423,3522.7877,0.0,0.0,0.0,0.0,0.0,-0.08042218653185024,-0.2225170578907238,-0.47720643778910854,-0.37111600111129767,0.011806743789484889,0.01967317984184168,-0.6931421221728014
8070,6.0,299.47336,3933.6497,0.0,0.0,0.0,0.0,0.0,-0.08043215334143403,-0.2034709754960218,-0.5812878123011405,-0.41097249776982764,-0.040203393976016064,0.00977308295102819,-0.6931667036202274
8071,6.0,299.21051,4059.7366,0.0,0.0,0.0,0.0,0.0,-0.08044212015101784,-0.1981929557251218,-0.5568300421823464,-0.47903554673712756,-0.023802404007114378,0.007998201425836023,-0.6726130469317394
8072,6.0,300.13498,4074.5976,0.0,0.0,0.0,0.0,0.0,-0.08045208696060166,-0.21248577044321282,-0.5625609543504434,-0.4635291927717695,0.003295904383580437,0.005679199024068305,-0.6669297676508433
8073,6.0,300.20416,4166.6091,0.0,0.0,0.0,0.0,0.0,-0.0804620537701855,-0.28457001388987374,-0.5615663277872814,-0.4204087946261176,-0.003142939183558947,-0.018327578642791182,-0.6243431091278674
8074,6.0,299.59907000000004,4033.4097,0.0,0.0,0.0,0.0,0.0,-0.08047202057976932,-0.2911557038423307,-0.5253001308705865,-0.4095999897143716,0.004855477557923326,-0.05737308917303304,-0.6361066692113404
8075,6.0,299.54245,3767.0292,0.0,0.0,0.0,0.0,0.0,-0.08048198738935317,-0.26011989380933476,-0.4940900620853926,-0.39087286831864865,0.008837725135240561,-0.026446033299770275,-0.6332334769627784
8076,6.0,300.44667999999996,3928.2499,0.0,0.0,0.0,0.0,0.0,-0.08049195419893693,-0.2271596077289078,-0.5361010526965545,-0.43082923090703457,0.02291515358354958,0.046456671021166455,-0.6729248239875094
8077,6.0,301.41571,4004.3111,0.0,0.0,0.0,0.0,0.0,-0.08050192100852077,-0.26154023740201177,-0.4943771158387225,-0.4612932335110976,0.018614292957337682,0.061593778411582645,-0.6402705597022844
8078,6.0,300.56957,3763.5708,0.0,0.0,0.0,0.0,0.0,-0.08051188781810459,-0.23151264161601878,-0.5174201963003975,-0.39509869878820564,-0.03675333311427157,0.027568564449555476,-0.6699009310515743
8079,6.0,299.63622999999995,3932.0133,0.0,0.0,0.0,0.0,0.0,-0.08052185462768843,-0.28763842903520276,-0.4955181063788295,-0.4120773355463666,-0.04796494749727175,-0.0037425616449620765,-0.6354652008380324
8080,6.0,299.35888,4349.8401,0.0,0.0,0.0,0.0,0.0,-0.08053182143727225,-0.3348989366919517,-0.5402597350819845,-0.4470840929862646,0.0018103509528927285,-0.034715737825676565,-0.6588814207815333
8081,6.0,298.64128,4154.6395,0.0,0.0,0.0,0.0,0.0,-0.08054178824685607,-0.26601074750571674,-0.5595056303964064,-0.4373902887495606,0.023753396139527677,-0.03962281788071766,-0.6347003895300514
8082,6.0,299.84932000000003,3765.8345,0.0,0.0,0.0,0.0,0.0,-0.08055175505643988,-0.19386756330073882,-0.5234848122564285,-0.4273672694228656,0.003664110857294587,-0.057647872467652045,-0.6692666567539765
8083,6.0,300.49719,3827.7527,0.0,0.0,0.0,0.0,0.0,-0.08056172186602373,-0.18139042183434081,-0.5382982044783965,-0.44385261550234256,0.0017107222248851385,-0.001069738286449949,-0.6365671508517864
8084,6.0,299.21423,3774.5918,0.0,0.0,0.0,0.0,0.0,-0.08057168867560752,-0.21916846896024378,-0.5392566884104916,-0.3889565084045186,0.004015267776876077,0.042566212149208055,-0.6993426757622484
8085,6.0,299.62599,3659.5988,0.0,0.0,0.0,0.0,0.0,-0.08058165548519136,-0.2053381927803018,-0.5222812535226464,-0.38480719858251367,0.03562247811491486,0.04629767890822516,-0.6676822173076044
8086,6.0,300.59573,3533.6718,0.0,0.0,0.0,0.0,0.0,-0.08059162229477515,-0.2009013935074238,-0.5273182312272575,-0.34592836668047167,0.0037599959301577064,-0.009086956694137803,-0.6982794622998173
8087,6.0,300.46502000000004,3582.3031,0.0,0.0,0.0,0.0,0.0,-0.080601589104359,-0.17633552986796183,-0.5098107691094055,-0.4027844034467256,-0.019483913842412583,-0.024714314911612977,-0.6794222699887573
8088,6.0,299.71993,3792.3956,0.0,0.0,0.0,0.0,0.0,-0.08061155591394281,-0.18661991705795183,-0.5518815009464635,-0.4142921584099526,-0.02966446012240427,0.002742465152460237,-0.7085151324249993
8089,6.0,299.60857000000004,4081.2336,0.0,0.0,0.0,0.0,0.0,-0.08062152272352666,-0.2382051078640138,-0.5526034315102125,-0.4497845666227806,-0.01802079184376368,0.02241608028654488,-0.6877245677306304
8090,6.0,299.53315,4117.5981,0.0,0.0,0.0,0.0,0.0,-0.08063148953311045,-0.2805729752928967,-0.5491207997240035,-0.42195322082604053,-0.002017153778427578,-0.0019180976380514983,-0.6753355587579304
8091,6.0,300.39256,3824.8971,0.0,0.0,0.0,0.0,0.0,-0.08064145634269426,-0.27146433312144375,-0.5041908990197675,-0.38701797857820064,0.02790327034183837,0.004846396911852135,-0.6541793627649763
8092,6.0,299.15816,3985.4318,0.0,0.0,0.0,0.0,0.0,-0.08065142315227808,-0.27713107616070776,-0.5169719648536605,-0.41736872008608555,0.02173736179981058,0.01096619811602949,-0.6468540103720204
8093,6.0,299.28465,4286.8481,0.0,0.0,0.0,0.0,0.0,-0.08066138996186192,-0.29168516754958473,-0.5296273370126485,-0.4817822752407085,0.025943233268897775,-0.007762216085496082,-0.6005636086260134
8094,6.0,299.26826,4043.5479,0.0,0.0,0.0,0.0,0.0,-0.08067135677144574,-0.23629972144846678,-0.5437202476185105,-0.4491176352744596,0.009155257654228581,-0.044862730328606756,-0.6441101189687193
8095,6.0,299.98244,3876.0515,0.0,0.0,0.0,0.0,0.0,-0.08068132358102956,-0.22745593272065281,-0.5184729023592914,-0.4322940460466006,0.0034075721439761866,-0.00020579509764789478,-0.6441916653367674
8096,6.0,300.3607,3873.8669,0.0,0.0,0.0,0.0,0.0,-0.08069129039061335,-0.26672872639407574,-0.5185319241776165,-0.39229814643931266,0.000995771191269965,0.02387542590207108,-0.6762935360649753
8097,6.0,300.26007000000004,3956.6709,0.0,0.0,0.0,0.0,0.0,-0.08070125720019719,-0.2969711210687677,-0.5351433894970404,-0.37061463482931667,-0.019842497986552084,0.029865926666287474,-0.6607213816381233
8098,6.0,300.64716,3969.5349,0.0,0.0,0.0,0.0,0.0,-0.08071122400978101,-0.24655959811853775,-0.5228003212838744,-0.43727956077863256,0.003022576217430047,-0.029043850515654872,-0.6808579035254433
8099,6.0,299.98548999999997,3938.3896,0.0,0.0,0.0,0.0,0.0,-0.08072119081936485,-0.2057926253176508,-0.5551890633803944,-0.43619040811364157,0.016672017145399985,-0.025127137320355375,-0.6786502443400644
8100,6.0,299.76072999999997,3788.9531,0.0,0.0,0.0,0.0,0.0,-0.08073115762894867,-0.18124032909702784,-0.5232882214720265,-0.4472185918045386,0.023774347111845374,0.006552177819974604,-0.6780930175800703
8101,6.0,299.20198,3770.4369,0.0,0.0,0.0,0.0,0.0,-0.08074112443853249,-0.1990160694438568,-0.5473639051106115,-0.3997386851036366,-0.01034103395008059,0.011795536230128788,-0.6861246255577284
8102,6.0,299.17644,3934.6201,0.0,0.0,0.0,0.0,0.0,-0.0807510912481163,-0.2555332551116688,-0.5527172397614445,-0.3877757781954897,-0.025616081156110374,-0.0026103716885986276,-0.6721968443206633
8103,6.0,299.2661,3912.0642,0.0,0.0,0.0,0.0,0.0,-0.08076105805770015,-0.26910405820600275,-0.5474733057239085,-0.37259245849451267,-0.0025202460306289177,0.008844193115928902,-0.6805893922489433
8104,6.0,300.25127000000003,3692.1175,0.0,0.0,0.0,0.0,0.0,-0.08077102486728394,-0.1900492316238988,-0.5362585218945956,-0.39600379457253165,0.026345115616310477,0.017215928785829882,-0.6712806635802434
8105,6.0,298.83494,3736.4863,0.0,0.0,0.0,0.0,0.0,-0.08078099167686775,-0.1854046654180158,-0.5148459837588425,-0.43554789609273065,0.005731916602921125,-0.0092755924520047,-0.6662780046565193
8106,6.0,299.97285,4021.4320000000002,0.0,0.0,0.0,0.0,0.0,-0.08079095848645157,-0.20553371965209882,-0.5386406424821925,-0.4782405405761665,0.0048090317945394855,-0.05945963964020955,-0.6415477817183364
8107,6.0,300.51452,3924.6366,0.0,0.0,0.0,0.0,0.0,-0.08080092529603541,-0.22647375900121983,-0.5376445771038885,-0.4288732022514896,0.026449730649385175,-0.024443506597136275,-0.6863228679397934
8108,6.0,300.5303,4056.2405,0.0,0.0,0.0,0.0,0.0,-0.08081089210561923,-0.2988798512096447,-0.5273952787648615,-0.40672068756770663,0.02953957096807867,0.024845250129285273,-0.6573720631675714
8109,6.0,300.27661,4076.2519,0.0,0.0,0.0,0.0,0.0,-0.08082085891520302,-0.3213433830116227,-0.5188086630449286,-0.39892675766600566,-0.006452024431065234,0.03525781041717496,-0.6744869111366754
8110,6.0,301.27916,4007.4186,0.0,0.0,0.0,0.0,0.0,-0.08083082572478686,-0.25731504528001775,-0.5283415834307544,-0.4324985604467846,-0.038649598252418364,0.0074846588160783125,-0.6557181856918464
8111,6.0,300.27941,4118.7457,0.0,0.0,0.0,0.0,0.0,-0.08084079253437068,-0.23685831609609576,-0.5475166728281885,-0.4676208689280865,-0.025435424742780974,0.008781468476438462,-0.6386038038177884
8112,6.0,300.99067,4292.0969,0.0,0.0,0.0,0.0,0.0,-0.0808507593439545,-0.27515001009519174,-0.5290337751040685,-0.5005064886086444,0.02015671190881258,-0.006882586011958354,-0.6104169997534674
8113,6.0,300.78295,4033.6716,0.0,0.0,0.0,0.0,0.0,-0.08086072615353831,-0.26761188531373675,-0.5290573027713905,-0.42946627780002156,0.002243323663723808,0.0007463441561634334,-0.6275704221538784
8114,6.0,300.54791,3671.3142,0.0,0.0,0.0,0.0,0.0,-0.08087069296312216,-0.2584547591249987,-0.4880944585936725,-0.36943863649825465,0.00023439493285047877,-0.026791549557370075,-0.6618223082692763
8115,6.0,300.10795,3982.0774,0.0,0.0,0.0,0.0,0.0,-0.08088065977270598,-0.2652504958231858,-0.5447173262469145,-0.4004842851897216,-0.0051921168327220355,0.015898436157803484,-0.6853477565735574
8116,6.0,299.81437,4108.4775,0.0,0.0,0.0,0.0,0.0,-0.08089062658228977,-0.24816702820967879,-0.5446016637479995,-0.45610586922664453,0.014954597742653885,0.03619164906708767,-0.6846379039510003
8117,6.0,299.73066,3775.4014,0.0,0.0,0.0,0.0,0.0,-0.08090059339187358,-0.1997542018767048,-0.5217441701746405,-0.4261293919081966,0.006029003052116275,0.02032774447269218,-0.7000001230896333
8118,6.0,299.38842,3712.433,0.0,0.0,0.0,0.0,0.0,-0.08091056020145743,-0.17949184445946584,-0.5397590172800675,-0.4092360809409566,-0.009193230012326163,-0.03711998374245717,-0.6856524712761303
8119,6.0,299.51509,3806.1020000000003,0.0,0.0,0.0,0.0,0.0,-0.08092052701104124,-0.2323698005381138,-0.5158775939506545,-0.4087125852767916,-0.019942287922650584,-0.007738798862434982,-0.6938762826652574
8120,6.0,300.35347,3854.9633,0.0,0.0,0.0,0.0,0.0,-0.08093049382062509,-0.26979354450154974,-0.5453291570547975,-0.35668990347505264,-0.0034050708347793273,0.001180150528646789,-0.6760029764662994
8121,6.0,299.75112,4073.7703,0.0,0.0,0.0,0.0,0.0,-0.0809404606302089,-0.27578956342581074,-0.5401996696160565,-0.4223352161137406,-0.0038933988171235465,0.02645740601889268,-0.6667220615128443
8122,6.0,300.23553,4043.8573,0.0,0.0,0.0,0.0,0.0,-0.08095042743979272,-0.25778394702879476,-0.5400206080583845,-0.4314270991285396,0.0062028050311691936,-0.0010520169475009891,-0.6479175379419824
8123,6.0,301.69427,3765.0638,0.0,0.0,0.0,0.0,0.0,-0.08096039424937651,-0.1762597184954798,-0.5353058236205716,-0.43291983944086154,-0.01057139332056529,0.024390671683921877,-0.6546415061355864
8124,6.0,300.55771,3789.4275,0.0,0.0,0.0,0.0,0.0,-0.08097036105896036,-0.19536165123569382,-0.5065389440065016,-0.44999075288562956,-0.01761228689369738,0.03169763358756287,-0.6457184407199483
8125,6.0,300.89599999999996,4204.9922,0.0,0.0,0.0,0.0,0.0,-0.08098032786854417,-0.3048429800356597,-0.5228073329745665,-0.4505623171345386,-0.01843729336361918,-0.008329794411161702,-0.6419312664836834
8126,6.0,299.91199,3998.8635,0.0,0.0,0.0,0.0,0.0,-0.08099029467812799,-0.2942346770537017,-0.5189306380919666,-0.4023893372327356,-0.01001367442499772,-0.03595639063236947,-0.6690330418109204
8127,6.0,299.60562000000004,3737.8409,0.0,0.0,0.0,0.0,0.0,-0.0810002614877118,-0.2381778413038228,-0.5118562778812815,-0.38617617039512064,0.005229421560328725,0.0017830840887266984,-0.6873775599688833
8128,6.0,299.19057999999995,3841.5732,0.0,0.0,0.0,0.0,0.0,-0.08101022829729565,-0.2287290105437958,-0.5177895664918515,-0.42122375168154763,0.012202453417288388,0.016248704558372285,-0.6762739803380454
8129,6.0,299.74602999999996,4059.1832,0.0,0.0,0.0,0.0,0.0,-0.08102019510687944,-0.25997727885775973,-0.5331100093288614,-0.4408030366763726,-0.011582534847107188,0.02038534267462668,-0.6450647829479375
8130,6.0,299.86011,3930.3456,0.0,0.0,0.0,0.0,0.0,-0.08103016191646328,-0.23413264292959277,-0.5290828366739104,-0.43151144206686354,0.019758384042750682,-0.01153466789913309,-0.6680851260773684
8131,6.0,299.88141,4053.8123,0.0,0.0,0.0,0.0,0.0,-0.08104012872604707,-0.2831481301570447,-0.5380517009940685,-0.4110578742232536,0.01243948402643149,-0.014893328535607087,-0.6383538046206154
8132,6.0,299.50016,4105.7885,0.0,0.0,0.0,0.0,0.0,-0.08105009553563092,-0.2732371053639027,-0.5463728451878015,-0.42844723190944956,0.03559815504626437,-0.015331531846104385,-0.6463370907010043
8133,6.0,299.82234,4194.228,0.0,0.0,0.0,0.0,0.0,-0.08106006234521473,-0.28343019871988273,-0.5733756462452705,-0.4181347472941866,-0.0048183929082383555,-0.02054787407016728,-0.6538356885960583
8134,6.0,300.30793,4277.2412,0.0,0.0,0.0,0.0,0.0,-0.08107002915479858,-0.25692822692184175,-0.5759681276861285,-0.46727816747926454,-0.005224078489901405,-0.03952314548163076,-0.6753819554800093
8135,6.0,300.82887999999997,3997.9015,0.0,0.0,0.0,0.0,0.0,-0.0810799959643824,-0.21999982040229182,-0.5511703716287805,-0.4440920363684716,0.005741036259121165,0.0025873056580221873,-0.6792722380464503
8136,6.0,300.69809,3489.7594,0.0,0.0,0.0,0.0,0.0,-0.08108996277396618,-0.15052040991520785,-0.5451000409421854,-0.36517927758288865,0.0053719018509654345,0.02159079314634538,-0.7015337176459873
8137,6.0,300.37775,3481.6789,0.0,0.0,0.0,0.0,0.0,-0.08109992958355,-0.22330714978869978,-0.4812756400582076,-0.3537606683634596,0.01045054399438839,0.00957326263458246,-0.6947299661395093
8138,6.0,300.69639,4081.263,0.0,0.0,0.0,0.0,0.0,-0.08110989639313385,-0.26431899474125375,-0.5612039591540184,-0.4150790889676166,0.005177245867629385,-0.029700215691933072,-0.7033269676729673
8139,6.0,299.95959,4017.7403,0.0,0.0,0.0,0.0,0.0,-0.08111986320271766,-0.23551811045382776,-0.5514421354381015,-0.4343324823327786,0.030566566818935267,-0.03702858250393657,-0.7003915821332674
8140,6.0,300.03335,3852.032,0.0,0.0,0.0,0.0,0.0,-0.08112983001230151,-0.1797814414705468,-0.5419566554219575,-0.44918345600095555,0.023038291841702377,-0.008982961466149271,-0.6514021354333854
8141,6.0,299.65426,4098.4595,0.0,0.0,0.0,0.0,0.0,-0.0811397968218853,-0.23653561620424776,-0.5530495351317395,-0.4562442082627976,0.006607678492877094,0.0015096665539174885,-0.6531380051072023
8142,6.0,299.25856,4255.7906,0.0,0.0,0.0,0.0,0.0,-0.08114976363146914,-0.29718582876495775,-0.5331901067492665,-0.46327812966199156,-0.04943708640856055,0.0017230908675308282,-0.6133557594160004
8143,6.0,300.15227999999996,4357.6853,0.0,0.0,0.0,0.0,0.0,-0.08115973044105293,-0.34400076982273264,-0.5598254627904715,-0.42080127705235265,-0.030255141360949974,0.02251433312224168,-0.6502116273608914
8144,6.0,300.39687999999995,4383.142,0.0,0.0,0.0,0.0,0.0,-0.08116969725063677,-0.3175516694149097,-0.5575801816288796,-0.4572338597679686,-0.012776935826485387,0.02530786871419218,-0.6199416114884734
8145,6.0,299.81766,3932.3609,0.0,0.0,0.0,0.0,0.0,-0.08117966406022059,-0.26473255276956875,-0.5005867582815665,-0.4300202013646896,0.02257853670157808,-0.007956851905155143,-0.6484112947157123
8146,6.0,301.05113,3630.6301,0.0,0.0,0.0,0.0,0.0,-0.08118963086980441,-0.1801297461924218,-0.5107069077628476,-0.41278424974363365,0.008678074308409252,-0.04098495734790036,-0.6909378067127524
8147,6.0,300.67167,3907.2879,0.0,0.0,0.0,0.0,0.0,-0.08119959767938822,-0.22969932923705877,-0.5235839587787136,-0.43443465847286256,0.005192840293293435,-0.027498091891850374,-0.6782145771945673
8148,6.0,299.29571,3967.7677,0.0,0.0,0.0,0.0,0.0,-0.08120956448897207,-0.25457007983161073,-0.5208287899017995,-0.4307034460396206,0.026246296373807775,0.022159726997994778,-0.6662993031736213
8149,6.0,300.47964,3756.4381,0.0,0.0,0.0,0.0,0.0,-0.08121953129855586,-0.24656942664450776,-0.5257138408864165,-0.36958012674221863,-0.0017300213968898185,0.04564894857145046,-0.6630616448640895
8150,6.0,299.62082999999996,3823.0211,0.0,0.0,0.0,0.0,0.0,-0.0812294981081397,-0.22749952273995477,-0.5200468141371245,-0.4145566268185536,-0.0018490838565153685,0.025227651730275375,-0.6780249981008574
8151,6.0,299.16873,3987.4159,0.0,0.0,0.0,0.0,0.0,-0.08123946491772349,-0.24409589063288878,-0.5597399444820315,-0.40823904284255663,-0.024806671644977876,0.009894572752593301,-0.6484301209025704
8152,6.0,299.15044,4094.4601,0.0,0.0,0.0,0.0,0.0,-0.08124943172730734,-0.20507951002977182,-0.5653409377223064,-0.47419317384672255,-0.01042681367704639,-0.00955428942513495,-0.6485887654707274
8153,6.0,300.21889,4128.0059,0.0,0.0,0.0,0.0,0.0,-0.08125939853689115,-0.25011323847175476,-0.5392223290996006,-0.4654751699863226,0.0052214462687916255,-0.02051910992632848,-0.6522011439322414
8154,6.0,300.06457,4051.8128,0.0,0.0,0.0,0.0,0.0,-0.081269365346475,-0.2642477632592237,-0.5682142718258825,-0.3991878722167756,-0.006407201995666604,0.01019741790740679,-0.6789879808633964
8155,6.0,299.76237000000003,3869.035,0.0,0.0,0.0,0.0,0.0,-0.08127933215605881,-0.2694724455448597,-0.5348963185926565,-0.37172125592603167,0.008008684106070581,0.02134141000523318,-0.6879249075404024
8156,6.0,299.67705,3809.1997,0.0,0.0,0.0,0.0,0.0,-0.0812892989656426,-0.24047089720762976,-0.5462264508133535,-0.37120424506250665,-0.01163961730474079,0.03505911105931486,-0.7057699339290693
8157,6.0,300.53105,4085.7616,0.0,0.0,0.0,0.0,0.0,-0.08129926577522642,-0.27744644012183173,-0.5469117118559834,-0.4176113326900296,-0.008022536146862673,0.002156996984354028,-0.6754375221154933
8158,6.0,300.20569,3957.3320000000003,0.0,0.0,0.0,0.0,0.0,-0.08130923258481026,-0.2178812866957088,-0.5365925093925574,-0.44845631733169256,0.0001993294271697828,-0.02282013200242168,-0.6850423427284154
8159,6.0,300.38262000000003,3760.4044,0.0,0.0,0.0,0.0,0.0,-0.08131919939439408,-0.2094079320719538,-0.5309133033770636,-0.40274781498561457,-0.004593791534096925,-0.0033961480530737163,-0.6609936926024983
8160,6.0,299.51859,3989.8508,0.0,0.0,0.0,0.0,0.0,-0.08132916620397793,-0.27967650226692176,-0.5119153706271136,-0.4212231437314876,-0.02110660550655978,0.0024172407479880875,-0.6573277942707024
8161,6.0,300.2363,4437.5233,0.0,0.0,0.0,0.0,0.0,-0.08133913301356172,-0.3404021006350717,-0.5513690699733905,-0.4571251076347356,-0.005713595115937934,0.0025082974814746874,-0.6277396450530794
8162,6.0,301.12775,4201.9783,0.0,0.0,0.0,0.0,0.0,-0.08134909982314556,-0.3097956553319507,-0.5392343259807845,-0.4282665086216136,-0.017087238930379185,0.02247579212818798,-0.6624868990098665
8163,6.0,301.40511000000004,4032.2722,0.0,0.0,0.0,0.0,0.0,-0.08135906663272935,-0.24790238754856075,-0.5199461173421865,-0.4578615580724175,0.033517151110135264,-0.0028318845751102474,-0.6239880764253284
8164,6.0,300.26932999999997,3963.6968,0.0,0.0,0.0,0.0,0.0,-0.0813690334423132,-0.2112689583981228,-0.5409814022007076,-0.4526144829595716,0.005752897567441784,-0.008044316059087182,-0.6585115946275344
8165,6.0,300.35393,3982.2839,0.0,0.0,0.0,0.0,0.0,-0.08137900025189701,-0.2402790585661968,-0.5404258878333825,-0.42980993170393755,-0.019686966122702283,-0.015612396667823587,-0.6389765785295785
8166,6.0,299.70784,4065.1636,0.0,0.0,0.0,0.0,0.0,-0.08138896706148083,-0.27542478325730974,-0.5548500096319324,-0.4054334343756646,-0.02090189352260628,-0.011063759915158091,-0.6997645931038883
8167,6.0,300.31125,3954.9558,0.0,0.0,0.0,0.0,0.0,-0.08139893387106464,-0.2718056058876247,-0.5306520368387785,-0.3997501854922716,-0.01104172679173359,0.03065131505729927,-0.7037849972481713
8168,6.0,299.91641,3511.6440000000002,0.0,0.0,0.0,0.0,0.0,-0.08140890068064849,-0.2103448439094198,-0.5007414815718365,-0.3563657647680627,-0.0034051739836395067,0.036488456365880266,-0.7061963804986564
8169,6.0,299.85185,3710.0069,0.0,0.0,0.0,0.0,0.0,-0.0814188674902323,-0.20061808877946383,-0.5224228349591196,-0.4047085349891226,0.003004913950961917,0.0006790404064235703,-0.6875011866135844
8170,6.0,299.63343,4293.8979,0.0,0.0,0.0,0.0,0.0,-0.08142883429981615,-0.24819077879202275,-0.5685092289299924,-0.48853773524742056,-0.0036657683318081667,-0.028962694248895374,-0.6748764348726184
8171,6.0,299.7862,4146.7461,0.0,0.0,0.0,0.0,0.0,-0.08143880110939991,-0.2652598177241058,-0.5494687498083435,-0.4457787026174326,0.04975147258333805,-0.02904720336023577,-0.6548831257544324
8172,6.0,298.87185,3794.33,0.0,0.0,0.0,0.0,0.0,-0.08144876791898376,-0.2182248899371198,-0.5379948475309575,-0.39716183811182165,0.04120460869132826,-0.0032814775260066164,-0.6529470378608554
8173,6.0,300.32409,4068.6427,0.0,0.0,0.0,0.0,0.0,-0.08145873472856757,-0.26844689458864573,-0.5362237674161655,-0.43209511465446754,-0.011096541595643388,0.0013951535872409387,-0.6435591844918463
8174,6.0,300.76223,4319.1654,0.0,0.0,0.0,0.0,0.0,-0.08146870153815142,-0.2937118602671037,-0.5828183164446894,-0.4363882451956666,-0.030277843229440472,0.0017865758498963084,-0.6833668931580613
8175,6.0,300.33902,4027.5506,0.0,0.0,0.0,0.0,0.0,-0.08147866834773523,-0.2221994647793798,-0.5447341664635764,-0.45734118321856054,-0.02034853231174378,0.02411516492873148,-0.6778644486225124
8176,6.0,300.86244,3690.7884,0.0,0.0,0.0,0.0,0.0,-0.08148863515731902,-0.17873539246480982,-0.5014208252338825,-0.4417513070474596,-0.009714651553536461,0.023180638282000874,-0.6701262981388163
8177,6.0,301.30146,3608.3373,0.0,0.0,0.0,0.0,0.0,-0.08149860196690284,-0.22633649401017278,-0.49699162533675456,-0.3735163095381897,-0.01136155411954809,-0.010374243222108089,-0.6551959971203104
8178,6.0,300.77805,3823.3623,0.0,0.0,0.0,0.0,0.0,-0.08150856877648668,-0.23020453573691876,-0.5195133886219795,-0.41248876574947163,-0.027205093400183677,0.009974332862040011,-0.6774231275414574
8179,6.0,300.55388,4231.3665,0.0,0.0,0.0,0.0,0.0,-0.0815185355860705,-0.3233614124407867,-0.5430920122915085,-0.4197763441786996,-0.0023327536241748575,0.0016732314645600884,-0.6686081556464873
8180,6.0,300.14886,4386.6417,0.0,0.0,0.0,0.0,0.0,-0.08152850239565435,-0.3011365415673627,-0.5654051676461455,-0.46688783314324156,0.012284492224884988,0.01932036311727138,-0.6444870581384203
8181,6.0,299.67495,4132.4209,0.0,0.0,0.0,0.0,0.0,-0.08153846920523813,-0.24455474094067375,-0.5647759089365425,-0.4468221273054106,0.02116683106600358,-0.010705980291597991,-0.6603334183073344
8182,6.0,299.54115,4197.9434,0.0,0.0,0.0,0.0,0.0,-0.08154843601482198,-0.22189664485449379,-0.5787655794897154,-0.4754077364765905,-0.003105487230712727,-0.027914869015733073,-0.6522394346535204
8183,6.0,299.47876,4443.8384,0.0,0.0,0.0,0.0,0.0,-0.08155840282440577,-0.3158175425312647,-0.5746121660048055,-0.4603861922865795,0.01946234073453348,-0.002465039706880478,-0.6563076743350243
8184,6.0,299.77252999999996,4121.5629,0.0,0.0,0.0,0.0,0.0,-0.08156836963398961,-0.24966646610516177,-0.5475364008076355,-0.4556493392615886,0.009825500607851412,-0.006087953436309224,-0.6446187097239134
8185,6.0,300.19344,3464.4689,0.0,0.0,0.0,0.0,0.0,-0.08157833644357343,-0.1955091196552478,-0.5090480957591355,-0.34855481226468166,0.012389387928237388,-0.0063775226843374834,-0.6947128219478174
8186,6.0,300.69567,3500.4603,0.0,0.0,0.0,0.0,0.0,-0.08158830325315725,-0.17338724565448885,-0.5110511898818255,-0.37961406890499166,-0.030376308847658268,-0.004174342976325576,-0.6938823216358533
8187,6.0,300.31143,3701.4844,0.0,0.0,0.0,0.0,0.0,-0.08159827006274106,-0.18124638833262582,-0.5306290867240134,-0.4132833666103926,-0.0005407603718238936,0.015353861851808186,-0.7266594120982003
8188,6.0,299.71849,3877.4389,0.0,0.0,0.0,0.0,0.0,-0.08160823687232491,-0.2201309856277368,-0.5486967545571535,-0.4098168758982766,-0.014195214415458589,0.016008548072670683,-0.6856872561520634
8189,6.0,299.80772,4270.9704,0.0,0.0,0.0,0.0,0.0,-0.08161820368190872,-0.2835978814789317,-0.5754672274991934,-0.43920324649098563,0.01193360979475559,-0.012023182116845688,-0.6846637316960493
8190,6.0,299.62126,4372.7429,0.0,0.0,0.0,0.0,0.0,-0.08162817049149257,-0.2901437608349597,-0.5988666781535394,-0.4401942050887856,0.0009054721966056483,-0.013538121725608587,-0.6706807688585383
8191,6.0,299.60098999999997,4191.8226,0.0,0.0,0.0,0.0,0.0,-0.08163813730107633,-0.29128757834284574,-0.5662431964063525,-0.41667861570797765,0.0025135985020228574,0.007649004841223003,-0.6568719735807164
8192,6.0,298.9658,4277.0891,0.0,0.0,0.0,0.0,0.0,-0.08164810411066017,-0.26293122713929173,-0.5624724976167135,-0.4747245728616675,0.0074164793446745226,-0.0017091851244834383,-0.6370890658457954
8193,6.0,299.87635,4304.1904,0.0,0.0,0.0,0.0,0.0,-0.08165807092024399,-0.26920779475124074,-0.5566060835127435,-0.4825525277017266,0.005081952330174645,-0.023731440023110777,-0.6362043667859824
8194,6.0,298.8654,3885.9886,0.0,0.0,0.0,0.0,0.0,-0.08166803772982784,-0.24517832544971677,-0.49770727374988355,-0.43835790206505654,0.00979904170931512,-0.016819602088715486,-0.6521329420680103
8195,6.0,299.74982,3770.3696,0.0,0.0,0.0,0.0,0.0,-0.08167800453941165,-0.2391243891497398,-0.5173825844566855,-0.3895912386646616,0.02096705158353688,-0.0011019891252078589,-0.6706625303567383
8196,6.0,301.05528,4031.8167,0.0,0.0,0.0,0.0,0.0,-0.08168797134899544,-0.27743665212586577,-0.5288307096515275,-0.41930423042710563,0.002396491716415318,-0.004870806410736166,-0.6726443664923304
8197,6.0,300.64121,4062.7875,0.0,0.0,0.0,0.0,0.0,-0.08169793815857926,-0.3000856188286447,-0.5378367399853534,-0.3970635933821256,-0.006141746276168165,-0.005833914410987524,-0.6718280212842634
8198,6.0,299.48649,4090.8559999999998,0.0,0.0,0.0,0.0,0.0,-0.0817079049681631,-0.24142751675954077,-0.5629489075487315,-0.43914166114990755,-0.03213710143418497,-0.01876211297467638,-0.6971041023163184
8199,6.0,300.01292,4197.9824,0.0,0.0,0.0,0.0,0.0,-0.08171787177774692,-0.25862964609225875,-0.5683974269139584,-0.44905476310575454,-0.01913664871514018,0.025939734516302475,-0.6573020779831643
8200,6.0,299.3209,3911.1675,0.0,0.0,0.0,0.0,0.0,-0.08172783858733074,-0.24870949191571579,-0.5254976639775816,-0.4146901022542266,-0.016871618295849086,0.0011224421864264188,-0.6592646218368524
8201,6.0,299.8234,3962.3501,0.0,0.0,0.0,0.0,0.0,-0.08173780539691455,-0.23474726017525077,-0.5379949184584645,-0.4317133220167876,-0.0008847344222414893,0.00014962979347481087,-0.6700460284658943
8202,6.0,299.68818999999996,3989.1087,0.0,0.0,0.0,0.0,0.0,-0.0817477722064984,-0.27809640966347876,-0.5154244685059345,-0.41906855858634656,0.023623412363699275,-0.027655062570842177,-0.6633653361840613
8203,6.0,298.98746,3766.4567,0.0,0.0,0.0,0.0,0.0,-0.08175773901608219,-0.2138569308760358,-0.5377676667260365,-0.3932841806416266,0.03897271256355726,0.007881318365850562,-0.6946751594416003
8204,6.0,299.50355,3739.9247,0.0,0.0,0.0,0.0,0.0,-0.08176770582566603,-0.19570263015934583,-0.5158085713538425,-0.4253325416320536,0.04548203486922736,-0.026541996190241078,-0.6799654227048623
8205,6.0,299.8594,3969.6865,0.0,0.0,0.0,0.0,0.0,-0.08177767263524985,-0.23572030451128276,-0.5245646734180025,-0.4464005949988086,0.010173234667270091,-0.027782048139624677,-0.6930354168047703
8206,6.0,299.58317,4128.6594,0.0,0.0,0.0,0.0,0.0,-0.08178763944483367,-0.26506859716523373,-0.5686576498046405,-0.42128312813740754,-0.005889417110390214,-0.03307158147141097,-0.6879187672447963
8207,6.0,300.80526000000003,3946.3391,0.0,0.0,0.0,0.0,0.0,-0.08179760625441748,-0.24191537641768876,-0.5403313819965555,-0.4173417676334256,-0.03720563883966067,0.025745148953848374,-0.7028016380261213
8208,6.0,300.74529,3796.4075,0.0,0.0,0.0,0.0,0.0,-0.08180757306400133,-0.25339403083804374,-0.5207434641108786,-0.37987558875580163,-0.012339861276599487,0.01955507237043538,-0.6825697085093854
8209,6.0,299.61019,4018.0355,0.0,0.0,0.0,0.0,0.0,-0.08181753987358514,-0.2687318509142687,-0.5274996941876665,-0.4251509064191276,-0.02874792069144887,0.014359362958158785,-0.6508597223898533
8210,6.0,300.33717,4126.6683,0.0,0.0,0.0,0.0,0.0,-0.08182750668316893,-0.26344050690455373,-0.5141567507758205,-0.4768068524796726,-0.0012570338184095789,0.006006016055047635,-0.6545348311650584
8211,6.0,299.84065,4106.7088,0.0,0.0,0.0,0.0,0.0,-0.08183747349275275,-0.27284998303069674,-0.5405456134651985,-0.43494135445036963,0.0002883715053500518,0.014647963944391487,-0.6248653179644054
8212,6.0,299.90268,4156.3454,0.0,0.0,0.0,0.0,0.0,-0.0818474403023366,-0.25715471871669476,-0.5336064309503545,-0.47266405785581056,0.026628725332550576,-0.013482697958388688,-0.6372636893680295
8213,6.0,300.35991,4152.1618,0.0,0.0,0.0,0.0,0.0,-0.08185740711192041,-0.28504739654198774,-0.5388291373982955,-0.4382769636470686,0.024001445843508273,-0.019337872078999382,-0.6414318557743953
8214,6.0,300.30764,4157.8232,0.0,0.0,0.0,0.0,0.0,-0.08186737392150423,-0.2764361183146208,-0.5655056111285585,-0.42193271264401666,0.024719673991391876,-0.0011484801808711689,-0.6930727956009592
8215,6.0,300.92341,4207.7228,0.0,0.0,0.0,0.0,0.0,-0.08187734073108807,-0.2763496880810907,-0.5581976866373224,-0.44449527951076856,-0.015001462586279086,0.019917556514209782,-0.6895678824450513
8216,6.0,300.58867999999995,3950.5883,0.0,0.0,0.0,0.0,0.0,-0.08188730754067186,-0.2122407463040308,-0.5717486705597004,-0.4168907801464166,-0.006465795006549284,-0.006897527296607944,-0.7007241916110933
8217,6.0,299.7936,3621.4006,0.0,0.0,0.0,0.0,0.0,-0.08189727435025568,-0.1959714960733808,-0.5054140945404875,-0.3994297755456496,-0.020087897028271084,-0.003164121784849507,-0.6962572684127424
8218,6.0,299.58598,3757.4907,0.0,0.0,0.0,0.0,0.0,-0.0819072411598395,-0.1867615592894308,-0.5429268322602064,-0.4124949567075826,0.004416078004357965,-0.012221837904951488,-0.6878424695122664
8219,6.0,299.85694,3947.4206,0.0,0.0,0.0,0.0,0.0,-0.08191720796942334,-0.24825126982299278,-0.5512462843262725,-0.4004197310258506,0.005834156071136375,0.027491465236196375,-0.7147241061227773
8220,6.0,300.07997,4103.7101,0.0,0.0,0.0,0.0,0.0,-0.08192717477900716,-0.2554975380456438,-0.5530298578147975,-0.4388979846333586,-0.006862151189241593,-0.006743125915894713,-0.6654815799454183
8221,6.0,300.18016,4187.8071,0.0,0.0,0.0,0.0,0.0,-0.08193714158859097,-0.24890198916971376,-0.5779079544725744,-0.4461788350819225,-0.006582116219354294,-0.0029336144798502075,-0.6942266949473404
8222,6.0,298.99805,4249.8715,0.0,0.0,0.0,0.0,0.0,-0.08194710839817482,-0.25727645058370874,-0.5762490006138484,-0.45832937564358756,-0.01997796243217138,-0.0030698796970235367,-0.6567710741357583
8223,6.0,300.04826,4197.9014,0.0,0.0,0.0,0.0,0.0,-0.0819570752077586,-0.2512139219228838,-0.5510651861358995,-0.47377810607575854,-0.013218778731341885,0.03481451552492517,-0.6698098803975884
8224,6.0,300.91078,4060.8151,0.0,0.0,0.0,0.0,0.0,-0.08196704201734242,-0.24552604248653379,-0.5585670669612774,-0.4302933026641426,-0.03227691170948317,-0.004859689942564055,-0.6515314058811434
8225,6.0,299.91364,3992.3782,0.0,0.0,0.0,0.0,0.0,-0.08197700882692627,-0.2699741664643758,-0.5308717499904625,-0.4127373666615066,-0.016806982058719985,0.0020771604758497778,-0.6502790692875473
8226,6.0,299.97382999999996,3937.1987,0.0,0.0,0.0,0.0,0.0,-0.08198697563651008,-0.2673199375624238,-0.5284560806920545,-0.4010340848264826,0.03530431961001507,-0.011071433258165389,-0.6684596030493264
8227,6.0,300.36874,3919.3863,0.0,0.0,0.0,0.0,0.0,-0.0819969424460939,-0.2241407911759738,-0.5451111664282835,-0.4221435902548286,0.02854922133358877,0.017852860838440184,-0.6867820526201114
8228,6.0,300.77855,3940.7578,0.0,0.0,0.0,0.0,0.0,-0.08200690925567772,-0.24204389706037277,-0.5171452002232575,-0.43870288332660357,0.0034937090416022366,-0.02290453269600138,-0.6685376435720284
8229,6.0,300.57945,4056.7754,0.0,0.0,0.0,0.0,0.0,-0.08201687606526156,-0.24057264778267176,-0.5509909453010724,-0.44159484096701757,-0.00992383886053164,-0.016712699136914984,-0.6492609353220654
8230,6.0,299.44621,4210.0793,0.0,0.0,0.0,0.0,0.0,-0.08202684287484535,-0.27272922388377874,-0.5580269337304704,-0.44900282390562857,0.00027727363031727675,0.005296908272639145,-0.6792499161467473
8231,6.0,299.3863,4322.8987,0.0,0.0,0.0,0.0,0.0,-0.08203680968442917,-0.2990007826090797,-0.5573314692593334,-0.45772102028354755,0.014484635121022185,0.033365845512452565,-0.6501073943231044
8232,6.0,299.5727,4055.1986,0.0,0.0,0.0,0.0,0.0,-0.08204677649401299,-0.2565167764537348,-0.5571870912525845,-0.4189752686496396,0.0014081676702003285,0.009649222448204112,-0.6848167831236543
8233,6.0,299.67273,4029.0437,0.0,0.0,0.0,0.0,0.0,-0.08205674330359683,-0.2219459698693618,-0.5544524609551975,-0.4483302487542506,-0.0075359352493139025,3.633280797826897e-05,-0.6506981191314044
8234,6.0,299.86527,4100.9621,0.0,0.0,0.0,0.0,0.0,-0.08206671011318065,-0.2577034240433478,-0.5568150764783695,-0.4320715768546446,0.002123978912620398,-0.013462769355421886,-0.6870000128491224
8235,6.0,300.40717,4103.6208,0.0,0.0,0.0,0.0,0.0,-0.08207667692276449,-0.2535186606003438,-0.5468728030521435,-0.44700679213613553,0.02071052097621928,-0.00026530573821863777,-0.6629260010732024
8236,6.0,300.66934,3892.0668,0.0,0.0,0.0,0.0,0.0,-0.08208664373234825,-0.23284598755510977,-0.5396281965596564,-0.4106169381772366,0.014159121433646487,-0.016014658984023784,-0.6814427818806664
8237,6.0,300.49062999999995,3825.7748,0.0,0.0,0.0,0.0,0.0,-0.0820966105419321,-0.2202957502264978,-0.5412296079452035,-0.40141464129904064,0.004572022260998465,-0.011222034647028591,-0.6717684219133814
8238,6.0,299.52061000000003,4038.2529,0.0,0.0,0.0,0.0,0.0,-0.08210657735151591,-0.24291857507669676,-0.5521808048935025,-0.4324286664548866,0.002087681760913148,-0.008168390459007373,-0.6945057541573814
8239,6.0,301.44403,4095.8720000000003,0.0,0.0,0.0,0.0,0.0,-0.08211654416109976,-0.24030215053597578,-0.5705749013788585,-0.4341657722938256,0.01005744612004265,0.01933232960095238,-0.6856242117308414
8240,6.0,301.38077000000004,3783.7344,0.0,0.0,0.0,0.0,0.0,-0.08212651097068357,-0.24731728627831576,-0.49869222377459055,-0.40415127783162563,-0.008263106241255093,-0.02275792553903238,-0.6521760963897694
8241,6.0,299.41142,3850.0931,0.0,0.0,0.0,0.0,0.0,-0.08213647778026739,-0.2203518437520338,-0.5146476501842685,-0.43533268177149054,-0.003006560887674457,-0.008051409316412232,-0.6555835348860574
8242,6.0,299.15981,4112.0138,0.0,0.0,0.0,0.0,0.0,-0.08214644458985118,-0.2878462871607167,-0.5320414155083996,-0.4300618358112986,0.016948508779687586,-0.0025980608012086378,-0.6592564550410464
8243,6.0,299.7328,4302.3133,0.0,0.0,0.0,0.0,0.0,-0.08215641139943503,-0.28267653316300173,-0.5631774258437845,-0.46194185543011157,0.009079261566253351,0.018550979011589083,-0.6604611992774454
8244,6.0,300.25066,4250.6041,0.0,0.0,0.0,0.0,0.0,-0.08216637820901884,-0.28323855259596875,-0.5528704431765645,-0.4559685333080906,0.016390613274627586,-0.015308396306571085,-0.6560820640677584
8245,6.0,300.16132000000005,4058.0148,0.0,0.0,0.0,0.0,0.0,-0.08217634501860269,-0.26697298046318174,-0.5503435291496775,-0.4162186609575836,-0.001036360409605809,-0.004794472809152625,-0.6535736418551964
8246,6.0,298.97551,4006.1699,0.0,0.0,0.0,0.0,0.0,-0.08218631182818648,-0.28027688334867473,-0.5252141262020985,-0.41228459585432164,-0.0011996213452184089,0.017693672154979485,-0.6742365876994704
8247,6.0,300.37077,4155.0881,0.0,0.0,0.0,0.0,0.0,-0.08219627863777032,-0.2920387209069777,-0.5430332032557045,-0.4279711056874596,-0.02733953344995187,0.013508998891234384,-0.6639792542871504
8248,6.0,300.85291,4020.9366,0.0,0.0,0.0,0.0,0.0,-0.08220624544735414,-0.27006942210627677,-0.5269282717937714,-0.42526663984554963,0.0012072048129418388,-0.008033363230806223,-0.6706027182033354
8249,6.0,300.22986000000003,3750.4209,0.0,0.0,0.0,0.0,0.0,-0.08221621225693798,-0.21914090855752377,-0.5277371797461045,-0.39315621728649763,0.00015605718336414483,-0.012925486397146187,-0.6671342617860254
8250,6.0,299.45966,3844.2164,0.0,0.0,0.0,0.0,0.0,-0.08222617906652177,-0.2066050999103358,-0.5406873772866895,-0.42125333858446756,0.021726292042468082,-0.003059130228037647,-0.6936831673286983
8251,6.0,300.22693,4056.2353,0.0,0.0,0.0,0.0,0.0,-0.08223614587610559,-0.26012199123704177,-0.5435431922960364,-0.4293290533389786,-0.0014125918241119587,-0.006421399960042834,-0.6668047427210043
8252,6.0,299.66062999999997,4106.1636,0.0,0.0,0.0,0.0,0.0,-0.0822461126856894,-0.25293633563537277,-0.5544128935387924,-0.4408219743207416,-0.018250984027981882,0.0011858287822071889,-0.6690301540481354
8253,6.0,299.87997,3973.8009,0.0,0.0,0.0,0.0,0.0,-0.08225607949527325,-0.2398809120719028,-0.5483347912239305,-0.4197205444956926,-0.007300762028929114,0.007794378264870243,-0.6820188044300153
8254,6.0,299.19485,3921.0373,0.0,0.0,0.0,0.0,0.0,-0.08226604630485707,-0.22988518970290178,-0.5331705915523405,-0.42884164964337557,-0.010072602619013481,0.00928007395587199,-0.6720023104339643
8255,6.0,299.98897,3989.9639,0.0,0.0,0.0,0.0,0.0,-0.08227601311444091,-0.22093340877942977,-0.5537348873668785,-0.43818108992260657,-0.017778870276387884,0.005106276310750235,-0.7031384930218664
8256,6.0,299.48744,4267.635,0.0,0.0,0.0,0.0,0.0,-0.08228597992402467,-0.2519164183497148,-0.5743981169211804,-0.4709399317506526,-0.018108844290703783,-0.02447177424842608,-0.6544937641385054
8257,6.0,299.51291000000003,4235.4908,0.0,0.0,0.0,0.0,0.0,-0.08229594673360852,-0.2737472058617457,-0.5720547632824095,-0.44168148398306856,0.013239531106639986,-0.005868993230774534,-0.6766646693116033
8258,6.0,299.70577000000003,4035.4993,0.0,0.0,0.0,0.0,0.0,-0.08230591354319233,-0.2577912221645128,-0.5596548010761285,-0.40924498740933557,0.0071126244861363834,0.003496747677327127,-0.6666890903545903
8259,6.0,299.62149,3918.4562,0.0,0.0,0.0,0.0,0.0,-0.08231588035277618,-0.26226066835561274,-0.5242386601983275,-0.40461350226224363,-0.004500395814079486,0.007350950231557303,-0.6912841457294333
8260,6.0,299.30728,4068.8264,0.0,0.0,0.0,0.0,0.0,-0.08232584716236,-0.28954618645598373,-0.5390334086184555,-0.4082420319303516,-0.013976501341623287,0.010904556032945888,-0.6535393332068103
8261,6.0,299.72357,4234.6885,0.0,0.0,0.0,0.0,0.0,-0.08233581397194381,-0.24734458323600977,-0.5696284143279474,-0.47026655613169555,0.0009543601460430132,0.009157604341460181,-0.6648053469611794
8262,6.0,300.58006,3976.8253,0.0,0.0,0.0,0.0,0.0,-0.0823457807815276,-0.2266022087163968,-0.5309947281550995,-0.4512586428682606,0.014990053390153087,0.009945883028382231,-0.6644414483202654
8263,6.0,301.23686000000004,3886.5581,0.0,0.0,0.0,0.0,0.0,-0.08235574759111144,-0.22388849190107377,-0.5465729012875455,-0.4109552117231216,0.0024407720630104475,-0.027028128256968577,-0.6677452009338204
8264,6.0,301.17107999999996,4043.335,0.0,0.0,0.0,0.0,0.0,-0.08236571440069526,-0.2743372720574807,-0.5144737359371045,-0.4402618699304636,-0.005116575795366715,-0.016168928338248987,-0.6656076383903594
8265,6.0,299.83089,4210.1929,0.0,0.0,0.0,0.0,0.0,-0.0823756812102791,-0.29175864844683674,-0.5586670544811455,-0.4293678304203056,0.004705684236014875,-0.013166545688686887,-0.6674650676786734
8266,6.0,299.59274,4290.1407,0.0,0.0,0.0,0.0,0.0,-0.0823856480198629,-0.3071769205810017,-0.5725754927738014,-0.4243432244994156,0.025026028132626676,0.003010595953547687,-0.6870634727028854
8267,6.0,299.4661,4097.2737,0.0,0.0,0.0,0.0,0.0,-0.08239561482944674,-0.24154524628865978,-0.5541088982437905,-0.44981474121075854,0.029040302113804674,-0.007396640515666582,-0.6713899020735243
8268,6.0,299.75154,3778.1566,0.0,0.0,0.0,0.0,0.0,-0.08240558163903056,-0.23280900392645978,-0.5315768910000546,-0.3840793709031826,-0.005989254466593394,0.004634704445309715,-0.6935885905643643
8269,6.0,299.06207,3961.3029,0.0,0.0,0.0,0.0,0.0,-0.0824155484486144,-0.2339393654730178,-0.5314074755833345,-0.4387903268102336,-0.0029066441939884476,0.008240307607380043,-0.6504875252306204
8270,6.0,299.01714,4227.5071,0.0,0.0,0.0,0.0,0.0,-0.08242551525819819,-0.2836736016589047,-0.5608999638590165,-0.44048303202979056,-0.031212983905731673,0.009055078427441661,-0.6889029573319283
8271,6.0,299.6925,4129.788,0.0,0.0,0.0,0.0,0.0,-0.082435482067782,-0.27904276499187675,-0.5537270346786034,-0.42258264165565956,-0.013348715897665687,0.008755618946512311,-0.6568989665633803
8272,6.0,299.64236,3940.4035,0.0,0.0,0.0,0.0,0.0,-0.08244544887736582,-0.2538171032847978,-0.5272170784697745,-0.4167500802375306,-0.013864142038034287,0.011687677783483988,-0.6836336312468864
8273,6.0,299.93602999999996,4091.1881,0.0,0.0,0.0,0.0,0.0,-0.08245541568694967,-0.2127280284096218,-0.5799773354168064,-0.4509136514742126,0.01717455879749698,-0.01160632899920549,-0.6857045016687653
8274,6.0,300.44796,4312.1087,0.0,0.0,0.0,0.0,0.0,-0.08246538249653348,-0.26414577963665875,-0.5847619327865095,-0.4618656488900906,0.006945307814348514,-0.0021830466311749275,-0.6852971447310624
8275,6.0,301.32096,4249.8299,0.0,0.0,0.0,0.0,0.0,-0.08247534930611733,-0.24514155460358777,-0.5776731337618994,-0.4690274728494076,0.022920845009361274,-0.03637900812982857,-0.6769930636690134
8276,6.0,300.00127000000003,3991.6485,0.0,0.0,0.0,0.0,0.0,-0.08248531611570109,-0.2627641725953047,-0.5419327123220945,-0.4086645876195546,0.013429564136394788,0.001142714078527099,-0.6573673920846104
8277,6.0,299.91143999999997,3765.7074,0.0,0.0,0.0,0.0,0.0,-0.08249528292528494,-0.25396155221905375,-0.4744819906552266,-0.4162374871444416,0.008671911923951071,-0.007916034036801732,-0.6498201683172574
8278,6.0,299.60981,3963.9819,0.0,0.0,0.0,0.0,0.0,-0.08250524973486875,-0.24746534238292778,-0.5488964357543604,-0.40858973883466765,0.0028027118888311275,0.03366759544523297,-0.6553089947714624
8279,6.0,299.53594,4412.6309,0.0,0.0,0.0,0.0,0.0,-0.0825152165444526,-0.28745231525683473,-0.5606649810283254,-0.49321231392126547,-0.01892172620992898,-0.00958041597763844,-0.6806888427462584
8280,6.0,299.35107,4402.487,0.0,0.0,0.0,0.0,0.0,-0.08252518335403641,-0.3265378501792767,-0.5318846049229236,-0.4798236627974085,-0.011912187661141388,0.01121812958114319,-0.6489717537435254
8281,6.0,299.82771,3938.7021,0.0,0.0,0.0,0.0,0.0,-0.08253515016362023,-0.2240956610165198,-0.5536765241611185,-0.41949489369842263,0.01073772643048109,-0.0015882244421205483,-0.6838588159491104
8282,6.0,300.37716,3968.8507,0.0,0.0,0.0,0.0,0.0,-0.08254511697320402,-0.2813807990676227,-0.5067416953515116,-0.41830902631138667,0.007200632350072083,0.01994480584914908,-0.6542005295595654
8283,6.0,301.46972999999997,4543.1384,0.0,0.0,0.0,0.0,0.0,-0.08255508378278786,-0.3101165516386207,-0.6111035172262214,-0.45978055243680754,-0.01027643925620559,-0.01832652587593728,-0.6829192189988794
8284,6.0,300.17127999999997,4216.2865,0.0,0.0,0.0,0.0,0.0,-0.08256505059237168,-0.27383660491806877,-0.5567895324433485,-0.4510196982296785,-0.010107589233041392,0.007555835582602914,-0.6763185025474394
8285,6.0,298.99478999999997,3675.2608,0.0,0.0,0.0,0.0,0.0,-0.08257501740195552,-0.17982065424941684,-0.5081891028543595,-0.42917776496654764,0.001801232411267798,-0.006517530138105143,-0.6970362044271173
8286,6.0,299.89322999999996,3633.2557,0.0,0.0,0.0,0.0,0.0,-0.08258498421153931,-0.18619203167322282,-0.5258512578649785,-0.39237571073446764,-0.004968220376675175,0.0033082807269268874,-0.6975234156052014
8287,6.0,299.36462,3710.0179,0.0,0.0,0.0,0.0,0.0,-0.08259495102112316,-0.19162350817176782,-0.5206943113485275,-0.41543497280023967,-0.01061290009766169,-0.022212280227681378,-0.6931050878816464
8288,6.0,298.77943999999997,4079.8729,0.0,0.0,0.0,0.0,0.0,-0.08260491783070698,-0.27374721599424673,-0.5529552319449325,-0.41347703923450657,-0.00035788799065829464,-0.002122276247152358,-0.6654306742603944
8289,6.0,298.41609,4191.197,0.0,0.0,0.0,0.0,0.0,-0.08261488464029082,-0.2923979484649307,-0.5482568520262384,-0.4333644333197396,0.025433717416362474,0.0015636020593905087,-0.6729483415223304
8290,6.0,299.03434,4015.4807,0.0,0.0,0.0,0.0,0.0,-0.08262485144987461,-0.23926342732846176,-0.5486598925185154,-0.4326825362674416,0.022819962789654976,0.03492264552259677,-0.6627367563520253
8291,6.0,299.98213,3947.2662,0.0,0.0,0.0,0.0,0.0,-0.08263481825945843,-0.2131624188599928,-0.5663527186096614,-0.4203552240933306,-0.005301783525495295,-2.7299749198025474e-05,-0.6963528584271763
8292,6.0,299.80098,4547.2011,0.0,0.0,0.0,0.0,0.0,-0.08264478506904224,-0.27868185543875773,-0.6045870727855984,-0.4989666524316745,-0.013441072631030589,0.016641106937849384,-0.6582166172584224
8293,6.0,298.99835,4350.6172,0.0,0.0,0.0,0.0,0.0,-0.08265475187862609,-0.2764456023355567,-0.5593086140469624,-0.48672476737349457,0.007812792666887603,-0.02099942695073208,-0.6849131634731663
8294,6.0,299.73542000000003,3732.2588,0.0,0.0,0.0,0.0,0.0,-0.0826647186882099,-0.24270319863544076,-0.5128470338290615,-0.37896324823326066,0.01711688358855488,0.0032647680186075174,-0.6803079215036644
8295,6.0,299.91093,3525.6848,0.0,0.0,0.0,0.0,0.0,-0.08267468549779375,-0.19548729424809383,-0.49077763605098157,-0.38545520241896664,-0.0013043893790582088,-0.039843321367479666,-0.6829099274954623
8296,6.0,299.56703,3812.3373,0.0,0.0,0.0,0.0,0.0,-0.08268465230737751,-0.23862860587580978,-0.5299879831207415,-0.3902387561410666,-0.017760612522835985,-0.0038436801545916966,-0.6625467111632694
8297,6.0,300.47806,4201.3987,0.0,0.0,0.0,0.0,0.0,-0.08269461911696135,-0.25907470606618277,-0.5606827027725745,-0.4573628769032016,0.0037834406122965163,0.014537979699036887,-0.6836226070857984
8298,6.0,301.02931,4289.9104,0.0,0.0,0.0,0.0,0.0,-0.08270458592654517,-0.2970015388367697,-0.5421176405978455,-0.4649064529701946,0.009034042848740612,0.03027366255952787,-0.6701126597924704
8299,6.0,300.18964,4042.9806,0.0,0.0,0.0,0.0,0.0,-0.08271455273612902,-0.25388392712889274,-0.5718860166107554,-0.40319521556726967,-0.006174064901357764,-0.00902240080774163,-0.6949375101574924
8300,6.0,300.23301000000004,3979.9391,0.0,0.0,0.0,0.0,0.0,-0.08272451954571283,-0.2921974161376397,-0.5186445063962275,-0.3989601746543036,-0.005759908852833745,0.006092732531730884,-0.6608605718043603
8301,6.0,300.20501,4465.7087,0.0,0.0,0.0,0.0,0.0,-0.08273448635529665,-0.2889647531511007,-0.6012385446501244,-0.4672606281200335,-0.0017394249657678785,-0.005084621636238086,-0.6834545899542164
8302,6.0,298.90385,4631.4433,0.0,0.0,0.0,0.0,0.0,-0.08274445316488044,-0.3247008074829747,-0.5986333975830165,-0.4845089211273076,0.0006558915730489585,-0.0008119325950740083,-0.6769153980488484
8303,6.0,299.31816000000003,4035.0627,0.0,0.0,0.0,0.0,0.0,-0.08275441997446428,-0.21257270730179278,-0.5489309166552635,-0.4650546914598246,-0.0014858288320648886,-0.027355475927025273,-0.6833290786643295
8304,6.0,298.71544,3378.0838,0.0,0.0,0.0,0.0,0.0,-0.0827643867840481,-0.14016069771278386,-0.5259927075789385,-0.3606997292882917,-0.004272608680298646,-0.0004612691384237196,-0.7239473874105443
8305,6.0,298.7669,3715.9109,0.0,0.0,0.0,0.0,0.0,-0.08277435359363194,-0.2068110835231648,-0.5095941159730235,-0.4131389379411386,0.01127731453273429,0.015616763775754586,-0.6844687013168014
8306,6.0,300.50187999999997,4214.8609,0.0,0.0,0.0,0.0,0.0,-0.08278432040321573,-0.2957448857977477,-0.5556394023873396,-0.4298281702057376,0.007123168366676982,1.919046648095158e-05,-0.6973261662082344
8307,6.0,300.56973999999997,3975.6728,0.0,0.0,0.0,0.0,0.0,-0.08279428721279958,-0.23680241508807875,-0.5633991148331634,-0.40830371859643966,0.003403176057092327,-0.024133777319818375,-0.6814453454034193
8308,6.0,299.55672999999996,3791.5007,0.0,0.0,0.0,0.0,0.0,-0.0828042540223834,-0.2232818995962078,-0.5382945263805334,-0.3909451231832796,-0.017296821607563382,0.012792806362801687,-0.6963412668460323
8309,6.0,300.24912,3993.0152,0.0,0.0,0.0,0.0,0.0,-0.08281422083196724,-0.22716632557707078,-0.5633418155400085,-0.4232687740933756,-0.008793738935149462,0.03490872549272296,-0.6855325835242984
8310,6.0,300.17703,4445.5367,0.0,0.0,0.0,0.0,0.0,-0.08282418764155103,-0.3030701166006917,-0.5851557425703754,-0.4631062925775326,-0.03641863634123957,0.02319365955903598,-0.6821505776055203
8311,6.0,300.44406000000004,4761.2973,0.0,0.0,0.0,0.0,0.0,-0.08283415445113484,-0.35673106169411467,-0.5804106923520754,-0.5101737254277265,0.008483943593925042,-0.004424579983297045,-0.6412346773049353
8312,6.0,300.63782000000003,4305.2599,0.0,0.0,0.0,0.0,0.0,-0.08284412126071866,-0.30481837832323166,-0.5498982665257335,-0.45397485227882955,0.02539926792621258,-0.002362337183369528,-0.6469936463683014
8313,6.0,299.47553999999997,3457.2285,0.0,0.0,0.0,0.0,0.0,-0.0828540880703025,-0.16092832242488886,-0.4788357642149106,-0.4111470402320536,0.01137212941084179,-0.008183031011027284,-0.6686818999887654
8314,6.0,299.89126,3666.7893,0.0,0.0,0.0,0.0,0.0,-0.08286405487988632,-0.20812326266766681,-0.4909443055599305,-0.41554481924358067,-0.017699574336811984,-0.031195125372719176,-0.6681331034696033
8315,6.0,299.45427,4232.1263,0.0,0.0,0.0,0.0,0.0,-0.08287402168947014,-0.25033569753120977,-0.5561235231526185,-0.48000149832245953,-0.025021773495456773,-0.043781821466429366,-0.6843290855855224
8316,6.0,298.42092,3920.4058,0.0,0.0,0.0,0.0,0.0,-0.08288398849905393,-0.25286006830034574,-0.5290283136860295,-0.4098170684157956,0.016405839383880284,0.023051412417247275,-0.6807591319056954
8317,6.0,298.5047,3576.7943,0.0,0.0,0.0,0.0,0.0,-0.08289395530863777,-0.18905069391535081,-0.5417105167076655,-0.35649493389081066,0.007826574185472732,0.03181172960182327,-0.7000779609623153
8318,6.0,299.92439,3829.8911,0.0,0.0,0.0,0.0,0.0,-0.08290392211822159,-0.24074635937981578,-0.5297250751172945,-0.39371982752212165,0.007972319066606634,0.010191802475352589,-0.6643694670331614
8319,6.0,299.66637000000003,4341.3815,0.0,0.0,0.0,0.0,0.0,-0.08291388892780541,-0.29064568440449573,-0.5770438041247895,-0.4519820933071595,-0.025077057434162876,-0.018747666054750582,-0.6697661890532763
8320,6.0,299.99294,4602.1077,0.0,0.0,0.0,0.0,0.0,-0.08292385573738925,-0.31332990207825373,-0.6076950857448353,-0.4779008180826385,0.015446970416747287,0.0032673883846911275,-0.6743498386631473
8321,6.0,300.01332,4285.5123,0.0,0.0,0.0,0.0,0.0,-0.08293382254697307,-0.25593740004655474,-0.5588660162707815,-0.48788531364053156,-0.004882781405718005,0.008575483445059321,-0.6915173959024533
8322,6.0,300.33564,3754.6746,0.0,0.0,0.0,0.0,0.0,-0.08294378935655686,-0.2156648831619668,-0.5330710599950175,-0.39259139115075364,-0.01025779038811509,-0.004004311807519806,-0.6920138479214494
8323,6.0,299.79564,3692.2055,0.0,0.0,0.0,0.0,0.0,-0.08295375616614067,-0.2382779808112058,-0.4910579314261445,-0.3930023451263116,-0.038893265649716464,-0.0017305550757174884,-0.6818308668014674
8324,6.0,299.10011000000003,4114.0122,0.0,0.0,0.0,0.0,0.0,-0.08296372297572452,-0.24457744787541474,-0.5724338809398255,-0.4335456328351226,0.00013145961512905387,0.01833955019272268,-0.6777065741244314
8325,6.0,299.19915,3878.0251,0.0,0.0,0.0,0.0,0.0,-0.08297368978530834,-0.21019833807746077,-0.5348401744046154,-0.43378429376367655,-0.004353261665733475,0.00928045108755921,-0.6784821056184703
8326,6.0,299.30626,3716.2176,0.0,0.0,0.0,0.0,0.0,-0.08298365659489215,-0.16172414931843085,-0.5623273698048904,-0.4055858271907046,0.02406688964096708,-0.03958376215561317,-0.6871074173597224
8327,6.0,299.4894,4073.25,0.0,0.0,0.0,0.0,0.0,-0.082993623404476,-0.24196317142490578,-0.5709962614329435,-0.4252068580896496,-0.007838077715183044,-0.03486686711784187,-0.6888059183698514
8328,6.0,299.88361000000003,4672.8365,0.0,0.0,0.0,0.0,0.0,-0.08300359021405981,-0.35430885693256164,-0.6015320528065914,-0.46458470553344056,0.02918297482063537,-0.02066922090214328,-0.6538453955320164
8329,6.0,300.7066,4615.1102,0.0,0.0,0.0,0.0,0.0,-0.0830135570236436,-0.33550249937901866,-0.5932879156204585,-0.47408783636632656,0.007376489402977822,0.018767347424692982,-0.6645470593781884
8330,6.0,300.57592999999997,4182.6171,0.0,0.0,0.0,0.0,0.0,-0.08302352383322745,-0.27891761847202573,-0.5485575947884195,-0.44393592492556455,0.011338293950252489,0.02144572005002778,-0.6431741595863474
8331,6.0,300.36006000000003,3974.1944,0.0,0.0,0.0,0.0,0.0,-0.08303349064281126,-0.25954098349720073,-0.49646387402216957,-0.4520510145789616,-0.02095343552869308,0.018736418978640583,-0.6288003456552624
8332,6.0,300.27825,3819.5766,0.0,0.0,0.0,0.0,0.0,-0.08304345745239508,-0.24762776637395775,-0.4891158146944725,-0.42431232037136557,-0.027974194809088075,0.012795692099086486,-0.6630378233542383
8333,6.0,299.65267,3853.7331,0.0,0.0,0.0,0.0,0.0,-0.0830534242619789,-0.21134963337108478,-0.5382201842206965,-0.42186880696020956,-0.05150741372838595,0.0015417013677540784,-0.7051571607985934
8334,6.0,299.47884,4023.3726,0.0,0.0,0.0,0.0,0.0,-0.08306339107156274,-0.2688145219899277,-0.5376495420293784,-0.4165407326343696,0.007409178776379013,-0.03304714998499977,-0.6907161075908723
8335,6.0,299.65712,3956.8449,0.0,0.0,0.0,0.0,0.0,-0.08307335788114656,-0.2231521934509068,-0.5981243609977784,-0.3815055028666616,-0.006144922511256635,-0.005159118012740305,-0.7038763316121853
8336,6.0,299.2483,3822.5987,0.0,0.0,0.0,0.0,0.0,-0.08308332469073035,-0.22565593444800677,-0.5449038149278194,-0.3914148051346336,0.016251840567431786,0.016919566303831183,-0.6869558858072674
8337,6.0,300.8811,4315.71,0.0,0.0,0.0,0.0,0.0,-0.08309329150031416,-0.2551016207015698,-0.6004734192346124,-0.4562930469176176,0.012827241667450187,0.009660528394144921,-0.6656959532690753
8338,6.0,299.92933,4366.4967,0.0,0.0,0.0,0.0,0.0,-0.08310325830989801,-0.26180825218596276,-0.5932851291826834,-0.47221260427375555,0.029537834257407268,-0.010984232954559388,-0.6739298160991943
8339,6.0,298.55024,4080.7912,0.0,0.0,0.0,0.0,0.0,-0.08311322511948183,-0.25199813697027973,-0.5471100555630585,-0.4413504349103966,0.024547310016880874,-0.003509481393983846,-0.6647573797014453
8340,6.0,299.02558,4025.4126,0.0,0.0,0.0,0.0,0.0,-0.08312319192906567,-0.27669650332531875,-0.5557296728387484,-0.3911987498158106,0.01981081466917518,-0.015889774895948686,-0.6918833210435673
8341,6.0,299.07535,3956.5995,0.0,0.0,0.0,0.0,0.0,-0.08313315873864946,-0.24145478331973175,-0.5243137622957396,-0.4369388858300106,-0.005148275628720245,-0.0022790175263215176,-0.6625459005631894
8342,6.0,298.12005,3965.3009,0.0,0.0,0.0,0.0,0.0,-0.0831431255482333,-0.23675916957381077,-0.5416911028357495,-0.4269021774944646,-0.00997558189543828,-0.01065785293834819,-0.6822269462655574
8343,6.0,298.57262000000003,4050.4970000000003,0.0,0.0,0.0,0.0,0.0,-0.0831530923578171,-0.23472413780796875,-0.5488563313154025,-0.44766947796653755,-0.011884772153185688,0.02161290023702718,-0.6582785369720334
8344,6.0,298.56352000000004,4004.1407,0.0,0.0,0.0,0.0,0.0,-0.08316305916740094,-0.24248116514102777,-0.5288969458105645,-0.44578067845512764,-0.0025518696675749276,0.01928702921548158,-0.6865382342485484
8345,6.0,300.0562,3867.3590000000004,0.0,0.0,0.0,0.0,0.0,-0.08317302597698475,-0.2212721180228578,-0.5476003368889455,-0.4067081333989676,-0.029112014889632172,0.006901841310233703,-0.6937663551619083
8346,6.0,300.60835,4111.2279,0.0,0.0,0.0,0.0,0.0,-0.08318299278656857,-0.2867431212468427,-0.5543370315038055,-0.4086304816211886,0.006006491877294595,-0.02615347455864698,-0.6853566326444334
8347,6.0,300.21331000000004,4611.8184,0.0,0.0,0.0,0.0,0.0,-0.08319295959615239,-0.3309921178838787,-0.6029677876682874,-0.46791774107488554,0.002030821306376458,-0.017035900587562484,-0.6506991121165024
8348,6.0,300.8532,4394.1301,0.0,0.0,0.0,0.0,0.0,-0.08320292640573623,-0.3273128851807667,-0.5714801694157015,-0.4369127743749336,0.034322255321592866,0.008329142688697383,-0.6197624283407894
8349,6.0,301.13747,4037.1019,0.0,0.0,0.0,0.0,0.0,-0.08321289321532002,-0.25684589021871573,-0.5452329590903034,-0.4250993319890376,0.006470713525184703,0.003536148312765666,-0.6380605903066774
8350,6.0,299.92407000000003,4133.389,0.0,0.0,0.0,0.0,0.0,-0.08322286002490387,-0.27964507124881977,-0.5341316390071885,-0.4426703451531616,0.006615198024519214,0.0050248793970919855,-0.6213163588266504
8351,6.0,299.84257,4232.5858,0.0,0.0,0.0,0.0,0.0,-0.08323282683448766,-0.2908611013757557,-0.5779061508873965,-0.4178331331369196,-0.003963190774736476,-0.0066853041909881545,-0.7064364802423524
8352,6.0,299.15285,4064.2813,0.0,0.0,0.0,0.0,0.0,-0.0832427936440715,-0.2924707606171167,-0.5109684377461585,-0.43200084186516363,0.02050292832223148,-0.005483574677611684,-0.6981923531887203
8353,6.0,299.9758,3859.5064,0.0,0.0,0.0,0.0,0.0,-0.08325276045365532,-0.19381857265840383,-0.5702748476267455,-0.4091001737050436,0.003479717577596387,-0.007909269883109162,-0.7657068386843813
8354,6.0,299.36859,3616.3995,0.0,0.0,0.0,0.0,0.0,-0.08326272726323916,-0.17575934519859682,-0.5065208980222206,-0.41701489315116563,-0.02276972280994668,-0.01148902807487879,-0.6880676339494883
8355,6.0,299.10685,3704.8316,0.0,0.0,0.0,0.0,0.0,-0.08327269407282298,-0.15715037889703487,-0.5594295961089024,-0.4095963217490096,-0.04436383840336996,0.0037497429537208166,-0.7330321675421423
8356,6.0,299.77026,4157.4598,0.0,0.0,0.0,0.0,0.0,-0.08328266088240677,-0.23055347880635677,-0.5807370602092855,-0.4524734182806495,-0.02099779359157088,0.02799031257842877,-0.6724581007264474
8357,6.0,300.80505,4266.9743,0.0,0.0,0.0,0.0,0.0,-0.08329262769199058,-0.2835845369751147,-0.5740457997289095,-0.4394232940152026,-0.003958873822685426,0.039525435426856756,-0.7025934151305714
8358,6.0,299.85909,4010.097,0.0,0.0,0.0,0.0,0.0,-0.08330259450157443,-0.2546268724997157,-0.5563443711444145,-0.40799811223377863,0.021349147182996776,0.009145171560083163,-0.6596440029392944
8359,6.0,300.58111,4064.7229,0.0,0.0,0.0,0.0,0.0,-0.08331256131115825,-0.25949694764785475,-0.5596122648369305,-0.4164650631169016,0.004467963907528706,-0.014392424295671686,-0.6726096322789024
8360,6.0,299.83988999999997,4593.9264,0.0,0.0,0.0,0.0,0.0,-0.08332252812074209,-0.3456365101216677,-0.5451065054778235,-0.5056958895257985,0.023522735833763273,0.00849189791118507,-0.6063859159531304
8361,6.0,299.59512,4437.5381,0.0,0.0,0.0,0.0,0.0,-0.08333249493032588,-0.30072650964939573,-0.5592704753131985,-0.48890379211104756,-0.00028989928385083177,0.0066406918023352544,-0.6651227982175094
8362,6.0,299.58563,4006.9001,0.0,0.0,0.0,0.0,0.0,-0.08334246173990972,-0.23899823951228977,-0.5156739205480535,-0.46332542817665956,-0.0008078612447146973,-0.004126759839704486,-0.6521374814284584
8363,6.0,300.30984,3942.0682,0.0,0.0,0.0,0.0,0.0,-0.08335242854949351,-0.25344276816785377,-0.5225323571624285,-0.4223151638942616,-0.04510325766384496,-0.02059650804846708,-0.6995903444841913
8364,6.0,300.30756,4145.2078,0.0,0.0,0.0,0.0,0.0,-0.08336239535907736,-0.2687792710189487,-0.5455400751956134,-0.4457202988816686,-0.030882954162660268,0.013033351936541687,-0.6928994183763484
8365,6.0,300.53326,4155.1731,0.0,0.0,0.0,0.0,0.0,-0.08337236216866117,-0.2712527158380587,-0.5478485021034375,-0.44396762952119356,-0.015982922977641686,0.006285728304778084,-0.7240556633162303
8366,6.0,300.00164,3906.6192,0.0,0.0,0.0,0.0,0.0,-0.08338232897824499,-0.24919840535396776,-0.5096788135488824,-0.42863745948322357,-0.0034379438090986368,-0.02823415222824387,-0.6210515661780174
8367,6.0,299.73967000000005,3832.7727,0.0,0.0,0.0,0.0,0.0,-0.08339229578782881,-0.1898193251762088,-0.5527052023502564,-0.42254266893921466,0.007780364306712173,-0.033234122999452574,-0.6583547536445554
8368,6.0,300.1761,4105.6716,0.0,0.0,0.0,0.0,0.0,-0.08340226259741265,-0.27433930869018175,-0.5421274893888175,-0.4315548395686466,0.01101223918732339,0.025925952288442276,-0.6047100813477384
8369,6.0,299.4281,4463.861,0.0,0.0,0.0,0.0,0.0,-0.08341222940699644,-0.29405269733574174,-0.6151896610369925,-0.44765993315059555,0.022165915929605578,0.03606016872086157,-0.6930169047254433
8370,6.0,299.08986,4470.4676,0.0,0.0,0.0,0.0,0.0,-0.08342219621658029,-0.2976159432999067,-0.6070520873638764,-0.4542424921602436,0.005389484982600755,-0.00026436511788580574,-0.6763414222647013
8371,6.0,299.76048,3899.6001,0.0,0.0,0.0,0.0,0.0,-0.08343216302616407,-0.2135743354231458,-0.5548306970850265,-0.4169760248773296,0.042767216651045666,-0.04524191992677986,-0.7339882804690033
8372,6.0,300.48168,3772.7141,0.0,0.0,0.0,0.0,0.0,-0.08344212983574792,-0.21770762576106978,-0.5531007143942905,-0.37600254157356167,0.029247764058529573,-0.02151803976266518,-0.7015954448420794
8373,6.0,300.60329,4085.7052,0.0,0.0,0.0,0.0,0.0,-0.08345209664533174,-0.23067246476559977,-0.5519206630628285,-0.4593592329127266,0.01086701106374049,-0.043618510881561864,-0.7201416200349443
8374,6.0,299.41253,4019.4819,0.0,0.0,0.0,0.0,0.0,-0.08346206345491558,-0.26839508711103277,-0.5272386302994015,-0.42618841372652166,-0.01047342723464679,-0.040564564947660864,-0.6935452639900883
8375,6.0,300.43376,4038.9926,0.0,0.0,0.0,0.0,0.0,-0.0834720302644994,-0.23464490165014878,-0.5680640169685535,-0.42504399840107654,-0.02494884380625918,-0.01300007984300799,-0.6991377965920283
8376,6.0,301.61226,4231.8342,0.0,0.0,0.0,0.0,0.0,-0.08348199707408319,-0.29021770782725775,-0.5405186204825345,-0.45563559959023253,-0.0005210778163788765,0.04900941177985235,-0.6597487426021313
8377,6.0,301.13726,4326.2767,0.0,0.0,0.0,0.0,0.0,-0.083491963883667,-0.3034780612234527,-0.5738761917946704,-0.43772584678517756,-0.015534983346933486,0.02407777296029118,-0.6557338100083884
8378,6.0,299.59109,4370.8083,0.0,0.0,0.0,0.0,0.0,-0.08350193069325085,-0.31423797681787374,-0.5503395876067885,-0.46403901969208555,-0.019741884278122283,-0.023404666865860776,-0.5985972346869475
8379,6.0,299.76414,4362.4899,0.0,0.0,0.0,0.0,0.0,-0.08351189750283466,-0.2874080463599657,-0.5600174736844216,-0.4786624781828085,-0.004088854254788496,-0.04926011923884525,-0.6093484160655064
8380,6.0,299.20342,4244.4286,0.0,0.0,0.0,0.0,0.0,-0.08352186431241851,-0.3153217896548377,-0.5562188091920225,-0.4186597223034976,0.030979505751439172,-0.0018625813610974682,-0.6259901674304194
8381,6.0,299.07683,4151.5709,0.0,0.0,0.0,0.0,0.0,-0.0835318311220023,-0.24922595562418678,-0.5603410753688585,-0.4524068477490795,0.04054918178464267,-0.0031077554923865875,-0.6961105599307633
8382,6.0,299.65094,4149.5182,0.0,0.0,0.0,0.0,0.0,-0.08354179793158614,-0.25584912569784274,-0.5744867155099245,-0.4310140781227776,-0.02880202723353877,-0.006180596108852344,-0.7020000862695144
8383,6.0,300.06981,4129.0031,0.0,0.0,0.0,0.0,0.0,-0.08355176474116993,-0.2428817535680628,-0.5583348705683614,-0.4538971967911656,-0.0020792369292797082,0.007472192496122983,-0.7304927804065243
8384,6.0,301.01896,3851.0597,0.0,0.0,0.0,0.0,0.0,-0.08356173155075378,-0.23516423285640278,-0.5029303956303656,-0.4325313694850226,0.01028401127420289,0.04643170352545236,-0.7069550717760333
8385,6.0,301.37879,3752.1486,0.0,0.0,0.0,0.0,0.0,-0.08357169836033759,-0.21727524154589678,-0.5303920469956195,-0.3928921947079406,0.017058048208248282,0.01892591093284198,-0.7267480309519463
8386,6.0,301.14968999999996,3913.4782,0.0,0.0,0.0,0.0,0.0,-0.08358166516992141,-0.25687477797906677,-0.5277381018036955,-0.4049867633340816,-0.027235038993639073,-0.03640237975663517,-0.6776979209685773
8387,6.0,300.08667,4073.4225,0.0,0.0,0.0,0.0,0.0,-0.08359163197950523,-0.2057831412967148,-0.5881755926384115,-0.4442599825725466,-0.04115036029422436,-0.032477480513777766,-0.7119120736502513
8388,6.0,299.86347,4360.1959,0.0,0.0,0.0,0.0,0.0,-0.08360159878908907,-0.2594321705689618,-0.6222367445549853,-0.4437217745169296,-0.01988023243352618,0.038739270886268364,-0.6774794541145163
8389,6.0,299.68667999999997,4310.9716,0.0,0.0,0.0,0.0,0.0,-0.08361156559867286,-0.2726449518729618,-0.5788943534449245,-0.45888843638626253,0.011798541529925387,0.039139194621237765,-0.6826172907340813
8390,6.0,299.90344,3926.3043,0.0,0.0,0.0,0.0,0.0,-0.0836215324082567,-0.2083990490798848,-0.5643713890991194,-0.4207280393351246,-0.00939247115501473,0.01957348109825218,-0.6599452016640204
8391,6.0,300.6668,3986.6954,0.0,0.0,0.0,0.0,0.0,-0.0836314992178405,-0.2719401756334057,-0.5212712052929624,-0.4186444627569916,0.0017612535139971883,-0.011248620303152388,-0.6661306983569814
8392,6.0,300.07018999999997,4321.107,0.0,0.0,0.0,0.0,0.0,-0.08364146602742434,-0.30213352900325774,-0.5558793197460175,-0.4554957609439316,0.024000723396186977,0.026649249726576178,-0.6660805120795283
8393,6.0,299.03988,4168.1482,0.0,0.0,0.0,0.0,0.0,-0.08365143283700816,-0.26596911305910775,-0.5427713388998605,-0.4582725221804766,0.03997979197044826,-0.0027602429294397678,-0.7139417149255614
8394,6.0,299.6625,3984.7081,0.0,0.0,0.0,0.0,0.0,-0.083661399646592,-0.23990704379198174,-0.5154933897777365,-0.4558513104040216,0.0024715913820270775,-0.052130045782334954,-0.6838448027002273
8395,6.0,300.52234,4046.5986,0.0,0.0,0.0,0.0,0.0,-0.08367136645617582,-0.23482887747080575,-0.5384727773381255,-0.4567632760240256,-0.019245046210838182,-0.03588813303938297,-0.6855885858573254
8396,6.0,300.51854,4276.0515,0.0,0.0,0.0,0.0,0.0,-0.0836813332657596,-0.27477418550060073,-0.5425717792926654,-0.48246691820077753,-0.030095724696216773,0.026945524055816177,-0.6765882905190653
8397,6.0,298.839,4222.2034,0.0,0.0,0.0,0.0,0.0,-0.08369130007534342,-0.3137683657940267,-0.5398044818120545,-0.42987156770752055,-0.0063177896657672945,0.032048262705167266,-0.6410228371065284
8398,6.0,300.1539,4268.2301,0.0,0.0,0.0,0.0,0.0,-0.08370126688492727,-0.3014437589976827,-0.5771395157292355,-0.4188521080999846,-0.03840843763586767,-0.016480182556967385,-0.6618695865189423
8399,6.0,300.84381,4322.2775,0.0,0.0,0.0,0.0,0.0,-0.08371123369451108,-0.2969970602713277,-0.5717001764099144,-0.4451671960495816,-0.006559426712515014,-0.02312045325256108,-0.6512067098865983
8400,6.0,300.37397000000004,4215.3285,0.0,0.0,0.0,0.0,0.0,-0.08372120050409493,-0.25869462582117175,-0.6017353107766514,-0.4209246706495306,0.012827263958952386,0.014800224023668384,-0.6856016466511143
8401,6.0,300.08732000000003,4230.6089,0.0,0.0,0.0,0.0,0.0,-0.08373116731367872,-0.2392209316192678,-0.5997383873470704,-0.44704015846192857,0.03418912135120357,0.005915339796973584,-0.6983190803787274
8402,6.0,300.24928,3977.9190000000003,0.0,0.0,0.0,0.0,0.0,-0.08374113412326256,-0.2130211819285538,-0.5585171238638484,-0.4376497517026676,0.01871066013459838,-0.02770633606565247,-0.7154740631842923
8403,6.0,300.58451,3539.6695,0.0,0.0,0.0,0.0,0.0,-0.08375110093284635,-0.20002235851566982,-0.5080668947597985,-0.3678818790446146,0.018551456252386182,-0.022944124430408778,-0.7262564222684282
8404,6.0,299.82612,3631.164,0.0,0.0,0.0,0.0,0.0,-0.0837610677424302,-0.1938714845786258,-0.5206472661463845,-0.3892644452424096,0.017638408481275382,0.016440565491307485,-0.7543365209647183
8405,6.0,299.24354,3884.3371,0.0,0.0,0.0,0.0,0.0,-0.08377103455201401,-0.2442485975554598,-0.5168996289290215,-0.4195932498856296,-0.009713617531809412,-0.003525972951286437,-0.7267212608843043
8406,6.0,298.87636000000003,3989.3513,0.0,0.0,0.0,0.0,0.0,-0.08378100136159783,-0.20022334680550583,-0.5766444012003714,-0.4357954229596595,-0.02043597883512408,-0.03060386151536597,-0.7060960687387563
8407,6.0,299.50905,4071.5253,0.0,0.0,0.0,0.0,0.0,-0.08379096817118165,-0.21802672861506278,-0.5334874247261094,-0.4861278718720855,-0.013032967914753788,-0.015806411770471384,-0.6537737283524433
8408,6.0,299.70099999999996,4459.3508,0.0,0.0,0.0,0.0,0.0,-0.08380093498076549,-0.30263009247976475,-0.5997276671610124,-0.4531735234372446,-0.001149007374898199,0.04067573773538276,-0.6656614115731664
8409,6.0,299.62607,4585.9313,0.0,0.0,0.0,0.0,0.0,-0.08381090179034928,-0.35593110074016465,-0.5880320556292454,-0.45004544812602754,-0.008366014657186362,0.014405640116725986,-0.6201736558938744
8410,6.0,300.01151,4368.1298,0.0,0.0,0.0,0.0,0.0,-0.08382086859993312,-0.3393457570083187,-0.5738431395764085,-0.4146134904141656,-0.034871888785337465,-0.015904169126869285,-0.6836587497168654
8411,6.0,300.36172999999997,4312.4736,0.0,0.0,0.0,0.0,0.0,-0.08383083540951691,-0.3175275945925337,-0.5772415702793074,-0.41611512706236564,-0.0022310713421895977,0.0030700499230403373,-0.6436994183056863
8412,6.0,300.38797999999997,4058.0377,0.0,0.0,0.0,0.0,0.0,-0.08384080221910076,-0.24578399569699177,-0.5312758341303425,-0.45648230177129556,0.03496669758394436,0.014176261572338087,-0.6873709535782313
8413,6.0,299.63702,3764.5774,0.0,0.0,0.0,0.0,0.0,-0.08385076902868457,-0.18507855087333083,-0.5183226981644675,-0.44093626893202154,0.016668298517532983,0.004533709248217266,-0.6743498487956484
8414,6.0,300.33047,3781.9823,0.0,0.0,0.0,0.0,0.0,-0.08386073583826842,-0.2162156656513248,-0.5066072573282435,-0.4268052702549006,-0.0071251667998492125,-0.034155728680907965,-0.7101742078737373
8415,6.0,299.16688,4115.6098,0.0,0.0,0.0,0.0,0.0,-0.08387070264785224,-0.27686805669974973,-0.5085417341541615,-0.4656328317018825,0.013956459254645287,0.0017439823620676584,-0.6581176024586504
8416,6.0,299.00146,4271.2191,0.0,0.0,0.0,0.0,0.0,-0.08388066945743602,-0.28723946180832777,-0.5933455796836494,-0.41775890243459357,0.01820179073562688,0.06563771934243853,-0.7286977369268673
8417,6.0,298.88395,4334.3298,0.0,0.0,0.0,0.0,0.0,-0.08389063626701984,-0.31153630754623973,-0.5568229798291494,-0.44916875374200455,0.013425617527255287,0.02192330433891168,-0.6773018415044874
8418,6.0,298.43441,4284.0684,0.0,0.0,0.0,0.0,0.0,-0.08390060307660369,-0.22235886928511178,-0.6122855545278795,-0.4676053864665585,-0.03522522834695937,-0.023762818352207577,-0.7055196003593633
8419,6.0,299.53927999999996,4127.7478,0.0,0.0,0.0,0.0,0.0,-0.0839105698861875,-0.21842111595148578,-0.5874522333920215,-0.4488589018614246,-0.027293037429363076,-0.01023831977419349,-0.6434113107722524
8420,6.0,300.13482999999997,4055.4699,0.0,0.0,0.0,0.0,0.0,-0.08392053669577132,-0.2297715537041868,-0.5569804794246934,-0.4460095615202166,0.017215598466297284,0.031610560953469466,-0.6683250940985513
8421,6.0,300.29219,4043.4697,0.0,0.0,0.0,0.0,0.0,-0.08393050350535514,-0.25179847603807476,-0.5763840567196775,-0.40093127033883563,0.004017105812557476,0.016344440480820684,-0.6680008945965553
8422,6.0,300.22047000000003,3795.5087,0.0,0.0,0.0,0.0,0.0,-0.08394047031493898,-0.2383103946819048,-0.5362678539280165,-0.3791616223378386,-0.001923315673416478,-0.028212944903650873,-0.7426059624370024
8423,6.0,299.8988,3837.1289,0.0,0.0,0.0,0.0,0.0,-0.08395043712452277,-0.23584047597314278,-0.5259212126518825,-0.40462968386634063,0.016355642973926283,-0.004979434623481935,-0.7254322649020903
8424,6.0,300.01867000000004,4260.2394,0.0,0.0,0.0,0.0,0.0,-0.08396040393410659,-0.2361644626926178,-0.6022880184411994,-0.4565539385533655,0.040124868106516165,0.01946092725064398,-0.7621958257628713
8425,6.0,300.63945,4313.307,0.0,0.0,0.0,0.0,0.0,-0.08397037074369043,-0.26459402121589676,-0.5233556026036765,-0.5231879806396335,0.03199452903911417,-0.02932718665436797,-0.6626676830927084
8426,6.0,300.21176,3953.1811,0.0,0.0,0.0,0.0,0.0,-0.08398033755327425,-0.2266705727006438,-0.5279279443424315,-0.4470698162923556,-0.002819051661268737,-0.048318855492199754,-0.6883384858337193
8427,6.0,300.44256,4210.5881,0.0,0.0,0.0,0.0,0.0,-0.08399030436285806,-0.2926208432219287,-0.5293830728110415,-0.4579097077171696,-0.017230220678490383,-0.019068223935887182,-0.6167218775732104
8428,6.0,299.73845,4449.1313,0.0,0.0,0.0,0.0,0.0,-0.08400027117244191,-0.3477635956590947,-0.5375369395457655,-0.46712429531907856,0.01136813923194799,0.026022413697962272,-0.6385063088931664
8429,6.0,299.08271,4462.1392,0.0,0.0,0.0,0.0,0.0,-0.0840102379820257,-0.32425779427425266,-0.5951397011057155,-0.4369814018042065,-0.017352466263305086,0.0018914771261242585,-0.6786604579010723
8430,6.0,298.601,4357.8523,0.0,0.0,0.0,0.0,0.0,-0.08402020479160952,-0.2629990439684848,-0.5643694436589274,-0.4973097858681545,-0.0020136098348778183,-0.037472429617490866,-0.6793591445075273
8431,6.0,298.7043,4118.4221,0.0,0.0,0.0,0.0,0.0,-0.08403017160119333,-0.25180170830589377,-0.5512044573621445,-0.4488913157321236,-0.012972964257081887,0.0005547072629578445,-0.6850740473240443
8432,6.0,298.98336,3791.9235,0.0,0.0,0.0,0.0,0.0,-0.08404013841077718,-0.18009150613364783,-0.5532985413438145,-0.41926000206024056,0.030104188374302072,0.03401348863186996,-0.6932388672923493
8433,6.0,300.36431,3833.9506,0.0,0.0,0.0,0.0,0.0,-0.084050105220361,-0.24039764935790078,-0.5038404360751795,-0.4211871530879356,0.009755154301108772,-0.003009297676194557,-0.6930385173500764
8434,6.0,299.88515,3969.0234,0.0,0.0,0.0,0.0,0.0,-0.08406007202994481,-0.2452715241939148,-0.5620637525263734,-0.3991487404979136,0.010769101719827591,-0.028486035057352768,-0.7321385417489483
8435,6.0,300.42527,3879.3713,0.0,0.0,0.0,0.0,0.0,-0.08407003883952865,-0.24374028037779277,-0.5244043164571766,-0.4110874104636686,-0.004210003908295036,0.00939973575293169,-0.7484890546376183
8436,6.0,300.26884,3932.4355,0.0,0.0,0.0,0.0,0.0,-0.08408000564911244,-0.19887796345522682,-0.5554535925840015,-0.4410306531788366,0.006935016435732832,0.02214201741274698,-0.7287885342683283
8437,6.0,300.43825,4176.5705,0.0,0.0,0.0,0.0,0.0,-0.08408997245869626,-0.24559006976035277,-0.5862978274205904,-0.43768525598617153,-0.027489600856012375,-0.014896791824448885,-0.6990213640230373
8438,6.0,300.18607000000003,4393.6174,0.0,0.0,0.0,0.0,0.0,-0.08409993926828008,-0.25483024192728676,-0.5842137543499084,-0.4965059846963255,0.0020784719254542078,-0.04685907417913055,-0.6451286784992434
8439,6.0,298.93919,4300.859,0.0,0.0,0.0,0.0,0.0,-0.08410990607786392,-0.2935363552172827,-0.5851392975212524,-0.42867809081223357,0.01017907402759639,0.01076804996622379,-0.6464065591278604
8440,6.0,299.47486000000004,4196.3717,0.0,0.0,0.0,0.0,0.0,-0.08411987288744774,-0.2954091555096137,-0.5608244665940655,-0.41935860142747156,0.027828971751755676,0.028307685814501073,-0.6653704669394523
8441,6.0,299.85401,4220.5166,0.0,0.0,0.0,0.0,0.0,-0.08412983969703156,-0.2935294347190997,-0.5561989089600585,-0.4332033164213386,-0.01786615164000188,-0.01084201114402319,-0.6925307675924653
8442,6.0,300.14292,3973.8802,0.0,0.0,0.0,0.0,0.0,-0.08413980650661534,-0.2162175401640098,-0.5720835294527485,-0.4196592935271476,-0.023520628273555277,-0.004553731475493305,-0.7208987306421653
8443,6.0,300.34536,3979.8057,0.0,0.0,0.0,0.0,0.0,-0.08414977331619919,-0.24345095694423874,-0.5177127722667725,-0.44859782784065855,0.006638424047286443,0.032630164131596466,-0.6982770203670763
8444,6.0,299.27927999999997,4031.7763,0.0,0.0,0.0,0.0,0.0,-0.084159740125783,-0.22462157834842378,-0.5421871394222045,-0.45875061410766055,0.01339321682880759,0.05336427660989405,-0.6674097239582114
8445,6.0,300.12366000000003,4001.259,0.0,0.0,0.0,0.0,0.0,-0.08416970693536685,-0.28391197887743075,-0.5209614243398896,-0.4114094314779496,-0.03311744826368767,-0.002916949859430537,-0.6658401995533113
8446,6.0,301.24217999999996,4288.1272,0.0,0.0,0.0,0.0,0.0,-0.08417967374495064,-0.3144302612893507,-0.5175243786756796,-0.47152895429878455,-0.013690372685634587,-0.043735865508143866,-0.6447045725373874
8447,6.0,301.12834,4514.9974,0.0,0.0,0.0,0.0,0.0,-0.08418964055453448,-0.3164800459766487,-0.5889255496999264,-0.4670408541733435,0.007104151587475174,-0.013065046399669687,-0.6778360776197123
8448,6.0,301.24262000000004,4542.5679,0.0,0.0,0.0,0.0,0.0,-0.0841996073641183,-0.2991206298309077,-0.5794989091170895,-0.5022076645990375,0.033937357072356365,0.014643041575405686,-0.6856362998045343
8449,6.0,300.70376,4374.3082,0.0,0.0,0.0,0.0,0.0,-0.08420957417370215,-0.27697338404764477,-0.5750337996364174,-0.4776732826401825,-0.0059145701321976244,-0.022548214179085476,-0.6801171974373413
8450,6.0,301.52495,4171.6997,0.0,0.0,0.0,0.0,0.0,-0.08421954098328593,-0.23367168506159977,-0.6112493745781165,-0.4231714716862726,-0.01823666173781838,-0.03750148557735847,-0.6924683412538044
8451,6.0,301.58288999999996,3933.6152,0.0,0.0,0.0,0.0,0.0,-0.08422950779286975,-0.23196433837809777,-0.5532761687816065,-0.41048029126875063,0.016180857331676287,0.02783742327083977,-0.6716223720439674
8452,6.0,300.04312000000004,3898.0028,0.0,0.0,0.0,0.0,0.0,-0.08423947460245357,-0.2249167887650588,-0.5687101260273194,-0.3912685931452036,0.016780353846091983,0.047995943831080856,-0.7173549390799203
8453,6.0,299.53885,4053.6591,0.0,0.0,0.0,0.0,0.0,-0.08424944141203741,-0.24398642922458577,-0.5569332822350355,-0.43129143507265055,-0.0018983818176056984,0.002568701474261098,-0.7070042752008894
8454,6.0,300.81342,3937.6293,0.0,0.0,0.0,0.0,0.0,-0.08425940822162123,-0.22746228579877975,-0.5321617794877785,-0.4373169091773186,-0.03699907058152396,-0.027185618733261675,-0.7128615497889573
8455,6.0,299.22879,3851.0167,0.0,0.0,0.0,0.0,0.0,-0.08426937503120507,-0.20034816908532482,-0.5415932532735925,-0.4286715046865836,-0.01205122786636359,0.02388200797472068,-0.7086392758272513
8456,6.0,300.60128,4453.3705,0.0,0.0,0.0,0.0,0.0,-0.08427934184078884,-0.27762340425179677,-0.5703822116073415,-0.5057078256119765,0.014173270458042887,0.028225630794902874,-0.6815206197533483
8457,6.0,299.65871,4709.7542,0.0,0.0,0.0,0.0,0.0,-0.08428930865037268,-0.35959865066962365,-0.5839773934990814,-0.4880716300689195,0.0035428356621006567,-0.01950406738690158,-0.6314254942793445
8458,6.0,299.08533,4398.5402,0.0,0.0,0.0,0.0,0.0,-0.0842992754599565,-0.30574433692711667,-0.5705651640453974,-0.4607368984111916,-0.008319040990500423,-0.04677632001696336,-0.6468852286076013
8459,6.0,299.39356000000004,4270.6542,0.0,0.0,0.0,0.0,0.0,-0.08430924226954034,-0.27870286011333073,-0.5611670869828795,-0.4583022914684146,-0.004651457218488086,-0.007514610083734273,-0.6381327337137974
8460,6.0,300.16094,4163.7257,0.0,0.0,0.0,0.0,0.0,-0.08431920907912416,-0.2592098330995188,-0.5655327358337354,-0.4409260756360156,0.01061023119689829,0.026419732366924575,-0.6836127785598284
8461,6.0,300.35458,4236.6519,0.0,0.0,0.0,0.0,0.0,-0.08432917588870797,-0.26719627038771876,-0.5794651780212605,-0.44117495012557756,-0.027094046255474177,-0.025039120337168774,-0.7037673059014253
8462,6.0,301.26502,4224.3064,0.0,0.0,0.0,0.0,0.0,-0.08433914269829176,-0.2800952380032477,-0.5534107081298845,-0.45057772866855955,-0.018513120948102785,-0.018984805081654378,-0.6904182221939733
8463,6.0,300.53389,3901.6462,0.0,0.0,0.0,0.0,0.0,-0.08434910950787561,-0.25469226766116976,-0.5279315920427915,-0.4033791609904236,-0.012406860412961788,0.02340442267258668,-0.6708087220811663
8464,6.0,300.67377,3876.0867,0.0,0.0,0.0,0.0,0.0,-0.08435907631745942,-0.22415595952997078,-0.5148012082369235,-0.4392764031482056,0.05529558297624915,0.044287437319329756,-0.6867213184091173
8465,6.0,300.36795,4190.4975,0.0,0.0,0.0,0.0,0.0,-0.08436904312704327,-0.24553699572011478,-0.5331479454126055,-0.49512165201220254,0.017554377623982185,-0.023807476337114976,-0.6900835152884404
8466,6.0,299.47777,4528.0222,0.0,0.0,0.0,0.0,0.0,-0.08437900993662706,-0.3044054586424797,-0.5789948881198465,-0.4930053474558395,0.025711088551736875,-0.03533678616971926,-0.6964785217045784
8467,6.0,299.82127,4357.9657,0.0,0.0,0.0,0.0,0.0,-0.0843889767462109,-0.27598401625250174,-0.5694197759998565,-0.47930895201161056,-0.01123090970465449,0.02047748865197078,-0.7073664614491343
8468,6.0,300.28144,3877.5871,0.0,0.0,0.0,0.0,0.0,-0.08439894355579472,-0.2083390038789588,-0.5733832456210205,-0.39696738528513065,0.0008869020783129201,0.03897312090334756,-0.7042062053147413
8469,6.0,299.67744,4028.1562,0.0,0.0,0.0,0.0,0.0,-0.08440891036537856,-0.2656119525313588,-0.5668018315839856,-0.39204511762434063,-0.03399476883627247,-0.03242856890495057,-0.6771671906986984
8470,6.0,299.89252,4293.8538,0.0,0.0,0.0,0.0,0.0,-0.08441887717496235,-0.28045644139889575,-0.5606945071362395,-0.46407340940047953,-0.019735694333261382,-0.037299882244711764,-0.6459536059356574
8471,6.0,299.14897,4123.6434,0.0,0.0,0.0,0.0,0.0,-0.08442884398454617,-0.27419431260087174,-0.5628678880707354,-0.41642243568519466,-0.012308445457248988,-0.004550378428262386,-0.6765663333893984
8472,6.0,299.89172,4062.547,0.0,0.0,0.0,0.0,0.0,-0.08443881079412999,-0.22618503338522478,-0.5583989890346894,-0.45032882378149464,0.024131381996581977,0.01819882495258418,-0.6890562316745553
8473,6.0,301.25617,4046.4197,0.0,0.0,0.0,0.0,0.0,-0.08444877760371383,-0.2529745756941467,-0.5700315561452345,-0.4070044279932096,-0.015054837561796786,-0.01735997039354568,-0.7249287707948993
8474,6.0,300.67705,4199.2252,0.0,0.0,0.0,0.0,0.0,-0.08445874441329765,-0.29004548570776073,-0.5627142084280684,-0.4236999221434266,0.0007547825536587383,-0.005838924020806934,-0.7163560568663383
8475,6.0,300.4076,4459.1106,0.0,0.0,0.0,0.0,0.0,-0.08446871122288149,-0.35505298780600164,-0.5454880448029784,-0.4549172457993365,0.024621473844700276,0.03178327956551547,-0.6732462471842314
8476,6.0,301.1624,4322.3036,0.0,0.0,0.0,0.0,0.0,-0.08447867803246525,-0.27361869535156275,-0.5823013866411725,-0.4579522946188726,0.012474073345095187,0.04930440840071625,-0.6785831266534403
8477,6.0,300.69552000000004,3892.4578,0.0,0.0,0.0,0.0,0.0,-0.0844886448420491,-0.22998047574230576,-0.5299915294960915,-0.4232379712903356,-0.01016137356159949,-0.035914088453944566,-0.6693694712416234
8478,6.0,300.17415,4056.9704,0.0,0.0,0.0,0.0,0.0,-0.08449861165163292,-0.24594210324259574,-0.5523353154012515,-0.43494029053776456,-0.03530154330474107,-0.049806892297557546,-0.6741108940245654
8479,6.0,299.56673,4491.0837,0.0,0.0,0.0,0.0,0.0,-0.08450857846121676,-0.2935092507771077,-0.5958461593404375,-0.4758218821899635,0.013882476798593786,0.010545726682282191,-0.6729718286596483
8480,6.0,299.23688,4334.3725,0.0,0.0,0.0,0.0,0.0,-0.08451854527080058,-0.2897882924348777,-0.5755282859502194,-0.4522244323335765,0.004511401432690656,0.04411528004783916,-0.6850425352459344
8481,6.0,299.86618,4033.7621,0.0,0.0,0.0,0.0,0.0,-0.0845285120803844,-0.24683070331529375,-0.5765111486797204,-0.40282109323284665,0.01030462078123689,-0.003002583070431877,-0.7047555489889573
8482,6.0,300.29845,3972.4814,0.0,0.0,0.0,0.0,0.0,-0.08453847888996818,-0.24653367918097976,-0.5405896797120475,-0.42041178371391263,-0.04924924098577166,-0.01731192916655438,-0.6902073851131654
8483,6.0,300.27327,4036.6695,0.0,0.0,0.0,0.0,0.0,-0.08454844569955203,-0.26352777813566675,-0.5398729673863135,-0.42364600710560557,0.04912899960965475,0.021583541315379682,-0.6858786894934563
8484,6.0,300.38383,4196.6248,0.0,0.0,0.0,0.0,0.0,-0.08455841250913584,-0.23804782105099076,-0.5963297937456684,-0.4412915245495826,0.022420772647757978,0.045035028441861254,-0.7122469122782974
8485,6.0,298.86842,4225.5955,0.0,0.0,0.0,0.0,0.0,-0.08456837931871969,-0.2651041622437438,-0.5587215470715234,-0.4606497994325956,0.018658135275914586,-0.02136747586405568,-0.7057727912943513
8486,6.0,298.49486,4030.2924,0.0,0.0,0.0,0.0,0.0,-0.08457834612830348,-0.2510167434534238,-0.5593057262841775,-0.41478579359367057,-0.03364746723199647,-0.01993591863252198,-0.7034197712496263
8487,6.0,298.89738,4100.5111,0.0,0.0,0.0,0.0,0.0,-0.08458831293788732,-0.28275075373282677,-0.5515240364436844,-0.4121781944613206,0.025128238723214076,0.026220904326301774,-0.6756085485998723
8488,6.0,299.73115,4352.6158,0.0,0.0,0.0,0.0,0.0,-0.08459827974747114,-0.28087872351057175,-0.5629273253216015,-0.4792804898163015,0.0015191278780512486,0.04329062922870246,-0.6680542523468214
8489,6.0,299.88163,4464.9174,0.0,0.0,0.0,0.0,0.0,-0.08460824655705498,-0.2878047337741157,-0.6030099996674534,-0.46640866717095153,-0.027177705249980675,-0.030370912277625672,-0.6557722932471864
8490,6.0,300.2364,4291.995,0.0,0.0,0.0,0.0,0.0,-0.08461821336663877,-0.2274813754306638,-0.5767619179469694,-0.5004160155072155,-0.046417923324092364,-0.03376077189792877,-0.6931400146125933
8491,6.0,299.39265,4121.9457,0.0,0.0,0.0,0.0,0.0,-0.08462818017622259,-0.2533531360640077,-0.5542301336182555,-0.44538528800110555,0.005228196439632815,0.004038514875245387,-0.6567256096037714
8492,6.0,300.10107,4139.4685,0.0,0.0,0.0,0.0,0.0,-0.0846381469858064,-0.2568675839033568,-0.5590108806375784,-0.4424166171956206,0.01015960544017499,0.037173697143508266,-0.6983401559808073
8493,6.0,299.68155,4110.5097,0.0,0.0,0.0,0.0,0.0,-0.08464811379539025,-0.27097950308109475,-0.5272052943711115,-0.45130751192058355,-0.01303324453203109,-0.028042482799577575,-0.6785270533929063
8494,6.0,299.34848999999997,3997.4966,0.0,0.0,0.0,0.0,0.0,-0.08465808060497407,-0.24081620270920878,-0.5553206136408775,-0.41900232242730956,-0.03254969788815507,-0.018683577985925584,-0.7040702372838223
8495,6.0,298.78562,3947.6922,0.0,0.0,0.0,0.0,0.0,-0.08466804741455791,-0.26262731290429775,-0.5015858431451685,-0.43578669887629856,0.005340399500056395,0.04089080006910776,-0.6529579404319313
8496,6.0,299.54544,4058.7304,0.0,0.0,0.0,0.0,0.0,-0.08467801422414167,-0.22891679618482877,-0.5448170097917525,-0.46001887899282856,0.013926183341657287,0.05443194229326445,-0.6895498567257723
8497,6.0,298.90116,4312.2293,0.0,0.0,0.0,0.0,0.0,-0.08468798103372552,-0.28006418188768273,-0.5809278856006184,-0.44981797347857755,0.006433002281637894,-0.02251611948216798,-0.6816287740690223
8498,6.0,299.87957,4561.2118,0.0,0.0,0.0,0.0,0.0,-0.08469794784330933,-0.3115419918793007,-0.5894569892448754,-0.48549550248467555,-0.001976459121286328,-0.032927264259667965,-0.6900061029808003
8499,6.0,300.63437000000005,4406.4903,0.0,0.0,0.0,0.0,0.0,-0.08470791465289318,-0.30144945346324475,-0.6123327111875334,-0.4256808666189306,0.010074579469958581,-0.000988494454616807,-0.6848478291067184
8500,6.0,300.61231000000004,4068.1298,0.0,0.0,0.0,0.0,0.0,-0.084717881462477,-0.23550483687751778,-0.5635170166147995,-0.43758800424157357,0.007105103839919153,0.012245505400787289,-0.6987318176744614
8501,6.0,300.529,4286.6633,0.0,0.0,0.0,0.0,0.0,-0.08472784827206081,-0.2626288733094518,-0.5717807804553694,-0.46862894132007554,0.0014518489833363385,-0.05759062890325253,-0.6968655832427784
8502,6.0,300.31131,4272.5946,0.0,0.0,0.0,0.0,0.0,-0.0847378150816446,-0.23988013186932577,-0.6043018935449535,-0.45458005643105853,-0.002712668608094547,-0.011729311216842888,-0.7081520950466703
8503,6.0,299.59241000000003,3889.7207,0.0,0.0,0.0,0.0,0.0,-0.08474778189122845,-0.24664626139959075,-0.5162889633587535,-0.41944275184827656,0.026913921798447274,0.02155292697685828,-0.6807123197510754
8504,6.0,300.47814,3985.3031,0.0,0.0,0.0,0.0,0.0,-0.08475774870081226,-0.25518902365519575,-0.5337027707698625,-0.4225408349565336,0.007765978283117383,0.04305997196268836,-0.6847475984068264
8505,6.0,299.72086,4163.9554,0.0,0.0,0.0,0.0,0.0,-0.08476771551039611,-0.29402183373769575,-0.5327708947853934,-0.4389457391105716,-0.02003238206854218,-0.02575255378557918,-0.6751790926774883
8506,6.0,298.63782000000003,4371.0971,0.0,0.0,0.0,0.0,0.0,-0.0847776823199799,-0.2817985418188507,-0.5745825588368835,-0.4723232815821785,0.0040724808424475656,-0.012549878638076589,-0.6822092853163144
8507,6.0,299.44232999999997,4579.1814,0.0,0.0,0.0,0.0,0.0,-0.08478764912956374,-0.2950199357487007,-0.5992352782749174,-0.49770157928432157,0.024603964882972274,0.039721844839490865,-0.6848180902162833
8508,6.0,299.41815,4576.3196,0.0,0.0,0.0,0.0,0.0,-0.08479761593914756,-0.3002464114870137,-0.5906023874229175,-0.5002380887896556,0.008812571100183053,0.024413177995143077,-0.6854136178300574
8509,6.0,298.65666,4274.7184,0.0,0.0,0.0,0.0,0.0,-0.0848075827487314,-0.28624491630517374,-0.5727662472376275,-0.44039649033874956,-0.01026079366141149,-0.049063736170713745,-0.7008998689134314
8510,6.0,299.67152999999996,4189.0756,0.0,0.0,0.0,0.0,0.0,-0.08481754955831519,-0.2483669525869098,-0.5818161715657855,-0.44319124689707057,-0.016945410260881782,-0.03134679574043787,-0.6998179001916494
8511,6.0,299.68231000000003,4102.9403,0.0,0.0,0.0,0.0,0.0,-0.08482751636789901,-0.25269995451954375,-0.5605694518088975,-0.4339219843197656,0.024005888945196775,0.017055771435273585,-0.6814513134465083
8512,6.0,300.13192999999995,3750.2223,0.0,0.0,0.0,0.0,0.0,-0.08483748317748283,-0.2039780463760658,-0.5353151657864935,-0.40068071385410764,-0.008069483469046013,0.025450896058557874,-0.7014714128973384
8513,6.0,300.81392,3674.3447,0.0,0.0,0.0,0.0,0.0,-0.08484744998706667,-0.1881108436525948,-0.5295876378737304,-0.3992105791515166,-0.0012808515792352088,-0.02239496111471058,-0.7341100427335203
8514,6.0,299.89691,3983.0691,0.0,0.0,0.0,0.0,0.0,-0.08485741679665049,-0.22671717207274278,-0.5647745207839054,-0.4192618461754226,-0.009538993502950361,-0.009280877868501331,-0.7194173387309634
8515,6.0,299.70805,4320.3448,0.0,0.0,0.0,0.0,0.0,-0.08486738360623433,-0.2788540167632487,-0.5885240594803025,-0.4458988639467915,0.04047758147957626,0.03417346055765797,-0.7103773645187874
8516,6.0,300.17047,4260.5928,0.0,0.0,0.0,0.0,0.0,-0.08487735041581809,-0.25968561481647473,-0.5609450838859694,-0.4744831254953386,0.010816909899295889,0.029257603730250673,-0.6934575063989273
8517,6.0,300.49321000000003,4262.5414,0.0,0.0,0.0,0.0,0.0,-0.08488731722540194,-0.2825240896854567,-0.5568519790470116,-0.4563300913412736,-0.02022096007115338,-0.017331286296464785,-0.6813228434663294
8518,6.0,299.81012999999996,4258.1299,0.0,0.0,0.0,0.0,0.0,-0.08489728403498575,-0.25845544813506677,-0.5550667843583265,-0.48084294173550357,-0.013722499806555287,-0.006076357903489834,-0.6764173349621934
8519,6.0,299.23818,4222.3678,0.0,0.0,0.0,0.0,0.0,-0.0849072508445696,-0.25896973335582274,-0.5538622022419435,-0.4706624329457656,0.016714432807836088,0.037050946960143764,-0.6840531775832924
8520,6.0,299.11762999999996,4145.2689,0.0,0.0,0.0,0.0,0.0,-0.08491721765415342,-0.26266275639279574,-0.5614957853153194,-0.43589971679245254,-0.0019400806055960482,0.0040674445841505265,-0.6982649120283814
8521,6.0,300.29353,4043.8277,0.0,0.0,0.0,0.0,0.0,-0.08492718446373723,-0.25635647015541374,-0.5488285581301615,-0.42403762826925556,0.001758933069943178,-0.03234232713593917,-0.6985000873765913
8522,6.0,300.88732000000005,3731.7219,0.0,0.0,0.0,0.0,0.0,-0.08493715127332102,-0.1943014775235628,-0.5369577353911025,-0.4030910635894906,-0.011703888771833888,-0.03112916684420957,-0.7186035469131483
8523,6.0,300.13212000000004,3779.3317,0.0,0.0,0.0,0.0,0.0,-0.08494711808290487,-0.23775498163958975,-0.5194454907327785,-0.3916219843825806,0.029344238640300873,0.020435271586554282,-0.6792920065559013
8524,6.0,300.44479,4231.11,0.0,0.0,0.0,0.0,0.0,-0.08495708489248868,-0.26079180021564674,-0.5556656252999275,-0.46969435353522354,0.003225045473612207,0.007142657523075413,-0.6883870509110124
8525,6.0,299.9367,4326.1147,0.0,0.0,0.0,0.0,0.0,-0.0849670517020725,-0.27774939176923075,-0.5730957865676504,-0.46418567751155954,-0.013727659276064487,-0.012068429813311288,-0.7023833075898352
8526,6.0,299.52081,4371.1403,0.0,0.0,0.0,0.0,0.0,-0.08497701851165632,-0.2800819340294347,-0.5723005473591665,-0.4763350021731045,-0.0026881835207530572,-0.012512434993881187,-0.7004943054284054
8527,6.0,299.63543,4620.6272,0.0,0.0,0.0,0.0,0.0,-0.08498698532124016,-0.3143848372873677,-0.5858252881039544,-0.5043451460824905,0.011665067107502489,0.03268125220163847,-0.6919408432517443
8528,6.0,300.01394,4441.5115,0.0,0.0,0.0,0.0,0.0,-0.08499695213082398,-0.2703360284725887,-0.5730585090964715,-0.5067140538887834,0.00897981887096412,0.004481022066867446,-0.6791637797557464
8529,6.0,298.76007999999996,4129.7685,0.0,0.0,0.0,0.0,0.0,-0.08500691894040782,-0.24902689250954074,-0.5565952316041725,-0.44972438969934153,-0.008587607185155841,-0.023843763862946277,-0.6668793077958634
8530,6.0,300.16561,4070.2785,0.0,0.0,0.0,0.0,0.0,-0.08501688574999161,-0.2350459663047308,-0.5473232940466034,-0.4548937687945196,-0.010121061507696,-0.02034107985725828,-0.6875432668902374
8531,6.0,299.46632,3798.5171,0.0,0.0,0.0,0.0,0.0,-0.08502685255957543,-0.2062435722746558,-0.5394804039000705,-0.40893038338578663,0.0016549295333038283,0.01790728148806108,-0.6934979249454163
8532,6.0,300.05991,3858.3766,0.0,0.0,0.0,0.0,0.0,-0.08503681936915924,-0.2272187714022468,-0.5583154668289465,-0.3873159146376046,0.027726703405912573,0.013019570721931589,-0.7173789429747893
8533,6.0,299.90663,4309.0938,0.0,0.0,0.0,0.0,0.0,-0.08504678617874309,-0.27170691532788477,-0.5972689448658555,-0.44088104680157153,0.003988366999971176,-0.016576675377240484,-0.7154353165004683
8534,6.0,300.47862000000003,4410.4606,0.0,0.0,0.0,0.0,0.0,-0.0850567529883269,-0.3025294260823297,-0.5874894602006954,-0.4506510069157916,0.028077430808776678,-0.004430199873651686,-0.6938029030930153
8535,6.0,299.69162,4267.0978,0.0,0.0,0.0,0.0,0.0,-0.08506671979791072,-0.28128015293518976,-0.5645681825335415,-0.4512428665642036,0.015598328703435185,0.027889040257433974,-0.6663735845384524
8536,6.0,299.97781000000003,4492.6907,0.0,0.0,0.0,0.0,0.0,-0.08507668660749451,-0.2845020146756627,-0.5854999841593495,-0.49566379147820755,0.01266682289836809,-0.01083393858047649,-0.6638673306811044
8537,6.0,300.60339,4747.3254,0.0,0.0,0.0,0.0,0.0,-0.08508665341707836,-0.3446297346898067,-0.6003021090402054,-0.49813654728724954,-0.0010375119683444592,-0.026929560300490672,-0.6794911912605593
8538,6.0,301.0513,4469.5847,0.0,0.0,0.0,0.0,0.0,-0.08509662022666217,-0.3049320751169527,-0.5778529653896475,-0.47585710276343957,0.01003592661309384,-0.006444696201041994,-0.6745666336545433
8539,6.0,300.84018,4039.9035,0.0,0.0,0.0,0.0,0.0,-0.08510658703624599,-0.26547658231799875,-0.5474074140699055,-0.41514580135420065,-0.00989052927674424,0.044592732614210054,-0.7093045251804063
8540,6.0,300.11784,4018.1779,0.0,0.0,0.0,0.0,0.0,-0.08511655384582983,-0.24714069705088776,-0.5479362090320935,-0.4263488517473556,-0.025983718689893378,0.0018386893290395084,-0.6689513029253533
8541,6.0,299.35957,4024.0216,0.0,0.0,0.0,0.0,0.0,-0.08512652065541365,-0.25420932226600673,-0.5544521367151655,-0.4145406377319756,-0.03077338433659657,-0.026541415597933774,-0.7078059181500054
8542,6.0,299.40709,4339.5336,0.0,0.0,0.0,0.0,0.0,-0.08513648746499744,-0.25091371618325575,-0.5945471727122374,-0.4736489774830145,-0.009857827136391792,-0.029230534753829175,-0.6823638262215663
8543,6.0,299.64156,4437.3474,0.0,0.0,0.0,0.0,0.0,-0.08514645427458126,-0.3122716434088117,-0.5884361701666284,-0.44813499545998053,0.015771883246813685,0.04351351587969966,-0.6952148975048683
8544,6.0,299.54087999999996,4169.1659,0.0,0.0,0.0,0.0,0.0,-0.0851564210841651,-0.24694013432609374,-0.5883102535767014,-0.4320719416246806,0.014736158246345587,0.015087414565761884,-0.6925107964329944
8545,6.0,299.52522,4132.2858,0.0,0.0,0.0,0.0,0.0,-0.08516638789374892,-0.26783062574532474,-0.5528784579848555,-0.4354026061608916,0.0006075140280844665,0.01212220806236879,-0.6930666553053533
8546,6.0,299.92382000000003,4500.8071,0.0,0.0,0.0,0.0,0.0,-0.08517635470333274,-0.3069686774204497,-0.5713379698966674,-0.4898263360620955,0.005530363223504355,-0.027730298417267374,-0.6531177907677074
8547,6.0,300.30893,4473.8174,0.0,0.0,0.0,0.0,0.0,-0.08518632151291655,-0.31793374576261774,-0.5652678722575954,-0.47672716035930757,0.009069389065229012,0.008103517020029863,-0.6582585252825583
8548,6.0,300.99379,4110.8229,0.0,0.0,0.0,0.0,0.0,-0.0851962883225004,-0.2348588696737658,-0.5585161714087544,-0.4562124631371646,-0.005067483726696706,-0.01076320663074579,-0.6769331603231014
8549,6.0,300.11834,4060.6468,0.0,0.0,0.0,0.0,0.0,-0.08520625513208419,-0.2582942096466537,-0.5710358997768554,-0.4050051234258936,-0.017409940848727382,-0.02035183449381968,-0.7126419075647803
8550,6.0,300.19954,4371.2203,0.0,0.0,0.0,0.0,0.0,-0.08521622194166803,-0.2684160917856057,-0.5948987198344324,-0.46542701020906957,0.014455138397361088,-0.02752646796090087,-0.7164433888924573
8551,6.0,300.7537,4401.208,0.0,0.0,0.0,0.0,0.0,-0.08522618875125185,-0.2985583570854157,-0.5903556914210705,-0.4489432751972516,0.00959232521268879,0.04401075620727346,-0.7260512087256753
8552,6.0,299.20126,4172.7951,0.0,0.0,0.0,0.0,0.0,-0.08523615556083566,-0.25248046428288173,-0.5628373081827175,-0.4531077432407526,0.014794237742077589,0.018183411392062983,-0.6827731691294654
8553,6.0,299.64612,4021.5725,0.0,0.0,0.0,0.0,0.0,-0.08524612237041948,-0.22882204716797777,-0.5540158920171114,-0.4396196618845826,-0.008742668596984212,-0.013854066279039885,-0.6822708402598894
8554,6.0,299.47286,4004.8206,0.0,0.0,0.0,0.0,0.0,-0.08525608918000332,-0.22377844280771278,-0.5378904017106495,-0.45569661751125456,0.0015528397221283485,-0.01246358721981029,-0.6565474194411853
8555,6.0,299.75451,4443.7726,0.0,0.0,0.0,0.0,0.0,-0.08526605598958714,-0.3065206587562337,-0.5763937737881364,-0.4678814667213056,0.024510737767771476,0.008783710900234772,-0.6706397727594924
8556,6.0,299.41092000000003,4663.8243,0.0,0.0,0.0,0.0,0.0,-0.08527602279917093,-0.3177916171710907,-0.6014746521884264,-0.4984198621477105,0.025335502070919374,0.0040429061998537765,-0.6799348732143473
8557,6.0,300.32497,4244.2381,0.0,0.0,0.0,0.0,0.0,-0.08528598960875475,-0.27399934301662976,-0.5677882710863394,-0.4483547896716726,-0.014239217840801385,-0.007120851975623373,-0.6944205094264683
8558,6.0,300.7538,3975.6976,0.0,0.0,0.0,0.0,0.0,-0.08529595641833859,-0.2373539777800138,-0.5490940296563614,-0.42206477966205064,-0.005743284965068094,-0.03524905593631097,-0.7084797193340043
8559,6.0,301.76752,4281.6737,0.0,0.0,0.0,0.0,0.0,-0.08530592322792241,-0.26102025771569376,-0.5673430996549045,-0.4731585340371115,0.004417277996451396,0.026850780105215678,-0.7012004090255923
8560,6.0,300.14247,4230.8903,0.0,0.0,0.0,0.0,0.0,-0.08531589003750625,-0.2865985405900737,-0.5568975347715075,-0.4425889305076266,0.006342872773317804,-0.008056364616026284,-0.7350341774872253
8561,6.0,300.36888999999996,3897.2137,0.0,0.0,0.0,0.0,0.0,-0.08532585684709001,-0.24257616747040375,-0.5300114297280555,-0.4120680541754506,-0.0007977728606240512,-0.006915461316752894,-0.7200593137293213
8562,6.0,300.11787999999996,3823.8619,0.0,0.0,0.0,0.0,0.0,-0.08533582365667386,-0.2220658576211938,-0.5405576508763865,-0.3997350374032766,0.004526201166301276,0.018820444769683285,-0.7196599412024064
8563,6.0,299.88957,4059.5561,0.0,0.0,0.0,0.0,0.0,-0.08534579046625768,-0.2508126343532798,-0.5507679694840665,-0.4324230834468356,0.007142291841114322,0.04926101191218336,-0.6706908000345284
8564,6.0,300.3551,4515.6131,0.0,0.0,0.0,0.0,0.0,-0.08535575727584152,-0.28206703283034873,-0.5972673034006935,-0.4932992913098495,0.021678008648702878,0.017886288972489284,-0.6712394445661753
8565,6.0,300.04287,4636.7979,0.0,0.0,0.0,0.0,0.0,-0.08536572408542534,-0.28602566924853573,-0.6191306263734354,-0.5043144952669656,-0.019627404242073983,-0.01065226587729679,-0.6587153288251414
8566,6.0,299.3141,4291.0316,0.0,0.0,0.0,0.0,0.0,-0.08537569089500915,-0.2667750521886477,-0.5814938972389795,-0.4560975099133196,0.017384143501181382,-0.025527430891611275,-0.6664679282552634
8567,6.0,300.10225,4076.8582,0.0,0.0,0.0,0.0,0.0,-0.08538565770459297,-0.2609788664491087,-0.5626322263624775,-0.4156520008391586,0.0009683888064600341,0.007039083300503433,-0.6805745987974834
8568,6.0,300.51457999999997,4352.9269,0.0,0.0,0.0,0.0,0.0,-0.08539562451417682,-0.2889732745844417,-0.5671696413702855,-0.4670381487955766,0.017539569987020782,0.0077557510432330334,-0.6913031543013093
8569,6.0,300.83907999999997,4437.8652,0.0,0.0,0.0,0.0,0.0,-0.0854055913237606,-0.33156591128300766,-0.5551377422628295,-0.4622965638926186,-0.0002056194912730638,-0.007574308854451082,-0.7004333483023893
8570,6.0,301.1033,4219.7045,0.0,0.0,0.0,0.0,0.0,-0.08541555813334445,-0.23745808922778874,-0.5774015422050954,-0.4678251705457495,-0.004230456361563536,0.004699511820380706,-0.7013892484467295
8571,6.0,301.36822,4049.2275,0.0,0.0,0.0,0.0,0.0,-0.08542552494292824,-0.23010669630726277,-0.5609948648633825,-0.4397624896186786,0.0053378437793291655,0.01929302360307318,-0.7138301763545533
8572,6.0,300.34272999999996,4099.495,0.0,0.0,0.0,0.0,0.0,-0.08543549175251208,-0.25926689934515074,-0.5466430789894714,-0.44023414740772754,0.006535977673400774,-0.01170866016655479,-0.6929142422253114
8573,6.0,300.51455,4358.9902,0.0,0.0,0.0,0.0,0.0,-0.0854454585620959,-0.30406016327340174,-0.5893110913629764,-0.4316529323108276,0.014658058955137786,-0.024167540839650576,-0.6940892881012795
8574,6.0,299.94829,4289.8469,0.0,0.0,0.0,0.0,0.0,-0.08545542537167974,-0.2779689124033957,-0.5936759600112554,-0.43236145757575356,0.011187501057120389,-0.016896721567076587,-0.6852278992192283
8575,6.0,300.28878,4170.9102,0.0,0.0,0.0,0.0,0.0,-0.08546539218126356,-0.2918410054149647,-0.5649447062707015,-0.41106685161913964,-0.001860476637989748,0.014399343780604588,-0.6699560619895154
8576,6.0,299.07831,4206.4431,0.0,0.0,0.0,0.0,0.0,-0.08547535899084735,-0.22815673701981676,-0.5912114419255264,-0.4592855088354506,-0.02080829049161838,0.007401552245526333,-0.6805829783758104
8577,6.0,299.77295,4380.505,0.0,0.0,0.0,0.0,0.0,-0.08548532580043117,-0.3008156553931937,-0.5683361860779145,-0.46241230745154155,-0.02918858721293927,0.0019059948722320481,-0.6826314255729764
8578,6.0,299.98921,4576.875,0.0,0.0,0.0,0.0,0.0,-0.08549529261001501,-0.28523121024262876,-0.6093777800534045,-0.4966467352677166,-0.016834064207392786,-0.005021475484706045,-0.7009191105328303
8579,6.0,300.68236,4316.6875,0.0,0.0,0.0,0.0,0.0,-0.08550525941959883,-0.30087829451437575,-0.5605378080082745,-0.4507490996579726,-0.009369510198473662,0.007285471476970053,-0.7132472738370252
8580,6.0,300.3445,4010.2025,0.0,0.0,0.0,0.0,0.0,-0.08551522622918267,-0.24621359347438976,-0.5429751338924735,-0.42981269787671056,-0.016488451691033485,0.005360663083506255,-0.7179287932740553
8581,6.0,301.69781,4072.2466,0.0,0.0,0.0,0.0,0.0,-0.08552519303876643,-0.27428402576472577,-0.5447018640503885,-0.4188753723222806,0.007348347698675452,-0.027750834970294177,-0.7099553154546343
8582,6.0,301.3205,4299.9513,0.0,0.0,0.0,0.0,0.0,-0.08553515984835028,-0.22358462832858478,-0.5994039945490685,-0.4840891822733826,0.020614761749018582,-0.025445036433229578,-0.6933007363434553
8583,6.0,301.50254,4325.7964,0.0,0.0,0.0,0.0,0.0,-0.0855451266579341,-0.27826600746521674,-0.5849763162426674,-0.4516917667560066,0.02446851664935458,0.012251958790674188,-0.6810448583013944
8584,6.0,300.90214,4320.5889,0.0,0.0,0.0,0.0,0.0,-0.08555509346751794,-0.2651434358176198,-0.5907052323080675,-0.4575024825019796,0.008162316125982883,0.007726277624324233,-0.6781525358909444
8585,6.0,299.81154,4318.795,0.0,0.0,0.0,0.0,0.0,-0.08556506027710176,-0.3024294284299607,-0.5837481253989544,-0.42662829599243457,0.009177542367652912,-0.013209915832717186,-0.6507989476488554
8586,6.0,299.68658,4318.8587,0.0,0.0,0.0,0.0,0.0,-0.08557502708668557,-0.29071884106171575,-0.5820056695994874,-0.4401006922370566,-6.763445430750094e-05,-0.004820199127866615,-0.6694975460542634
8587,6.0,300.95655,4588.9538,0.0,0.0,0.0,0.0,0.0,-0.08558499389626939,-0.3065863477602167,-0.5874267906820104,-0.5009142204488846,0.012495984878507687,-0.0008876404944557962,-0.6563285878170884
8588,6.0,300.03269,4461.3372,0.0,0.0,0.0,0.0,0.0,-0.08559496070585323,-0.2764270395937247,-0.5855807199273174,-0.4941273496890725,-0.024516450471835274,0.008054445824311912,-0.6838938440050674
8589,6.0,300.16691000000003,4078.1288,0.0,0.0,0.0,0.0,0.0,-0.08560492751543702,-0.26970153125996876,-0.5264217480687815,-0.4435260551276136,-0.015283506831114685,-0.008189509732166683,-0.6813996680889114
8590,6.0,299.29567000000003,3919.465,0.0,0.0,0.0,0.0,0.0,-0.08561489432502087,-0.22916128330145777,-0.5344338915120185,-0.4278243161454726,-0.010655615682127388,0.004093124698659956,-0.7349080785122803
8591,6.0,299.19301,4278.2439,0.0,0.0,0.0,0.0,0.0,-0.08562486113460466,-0.28605470899640173,-0.5581664987992445,-0.45625812018667056,0.010965921498752189,0.02192952265477538,-0.6905854084604733
8592,6.0,298.85285,4281.9319,0.0,0.0,0.0,0.0,0.0,-0.0856348279441885,-0.26288623883485174,-0.5826183110074504,-0.4560958279181536,0.007573405136686893,0.011758057122179888,-0.7262488228926783
8593,6.0,299.32707999999997,4022.8177,0.0,0.0,0.0,0.0,0.0,-0.08564479475377232,-0.22638364053732576,-0.5416858845977345,-0.45476659577446854,-0.003788173199538587,-0.02381567049067368,-0.6702689232228924
8594,6.0,300.36983,3970.4612,0.0,0.0,0.0,0.0,0.0,-0.08565476156335616,-0.2044477789899248,-0.5690244970033455,-0.43344878639056456,0.012691438796297487,-0.004065721552355476,-0.6875943346952773
8595,6.0,300.76046,4241.1744,0.0,0.0,0.0,0.0,0.0,-0.08566472837293998,-0.28386167100996573,-0.5599277909180704,-0.4454216535471946,0.026710941458914672,0.008995344496946382,-0.6435775141861554
8596,6.0,300.32396,4575.1272,0.0,0.0,0.0,0.0,0.0,-0.08567469518252377,-0.28911875703379974,-0.6181973217063254,-0.4834083491336896,0.02044503121151748,0.017182044689235784,-0.7109503473178364
8597,6.0,299.50354,4506.0907,0.0,0.0,0.0,0.0,0.0,-0.08568466199210759,-0.3275678797009327,-0.5929910738711625,-0.4491801021431246,-0.0029873787460563276,-0.015852489318768884,-0.6751826998478443
8598,6.0,299.81859,4200.7413,0.0,0.0,0.0,0.0,0.0,-0.08569462880169143,-0.2597875376440338,-0.5557050103313145,-0.4614279147143896,-0.017767343543250283,-0.0041743582764020865,-0.7190956318242133
8599,6.0,300.14035,4105.4242,0.0,0.0,0.0,0.0,0.0,-0.08570459561127525,-0.2297708849591208,-0.5570278286018665,-0.4611477206642366,0.003259858720548007,0.0016256902764931384,-0.7078543109747812
8600,6.0,299.4432,4181.8627,0.0,0.0,0.0,0.0,0.0,-0.08571456242085909,-0.26313008760391776,-0.5399425168731775,-0.46810924534378556,-0.005481613329393114,-0.0013938666582889287,-0.7017317776430343
8601,6.0,299.03841,4346.0998,0.0,0.0,0.0,0.0,0.0,-0.08572452923044285,-0.30608846705857967,-0.5564808761978864,-0.4585364738315265,0.002047387337561398,-0.01954435826387798,-0.6961986417619563
8602,6.0,299.20527000000004,3945.8003,0.0,0.0,0.0,0.0,0.0,-0.0857344960400267,-0.24168295710975077,-0.5359358827977535,-0.4218059145265026,-0.007161352696695483,0.02065257218975018,-0.7165641277743733
8603,6.0,299.98534,3899.6041,0.0,0.0,0.0,0.0,0.0,-0.08574446284961051,-0.25690667509221476,-0.5252247349306455,-0.4032508531302606,0.02761960996309327,0.02448980908695598,-0.6887746596042663
8604,6.0,301.24325,4383.7406,0.0,0.0,0.0,0.0,0.0,-0.08575442965919436,-0.26128175730150177,-0.5993846921346635,-0.47188123096105156,0.0013138247639894087,0.013875168225622488,-0.6879311491610183
8605,6.0,300.39196,4629.7521,0.0,0.0,0.0,0.0,0.0,-0.08576439646877818,-0.28819947574807375,-0.6134530314256004,-0.5056765161838865,-0.004949257705028705,-0.024758425741466375,-0.6744276968008314
8606,6.0,299.46487,4451.5624,0.0,0.0,0.0,0.0,0.0,-0.08577436327836199,-0.2801411382327777,-0.6113020939808194,-0.4617205920057746,-0.006120328499529394,-0.01260435501645299,-0.6804291264806264
8607,6.0,300.12587,4193.0561,0.0,0.0,0.0,0.0,0.0,-0.08578433008794581,-0.2829754115449987,-0.5598857917014255,-0.43172316067525857,-0.014410392259694987,-0.005249175580303295,-0.6864756660548733
8608,6.0,299.11737,4120.0876,0.0,0.0,0.0,0.0,0.0,-0.08579429689752965,-0.2437592585521658,-0.5632483330857825,-0.44539616017467853,-0.001027158173522619,0.004490036649032116,-0.6954329286613864
8609,6.0,299.8184,4313.016,0.0,0.0,0.0,0.0,0.0,-0.08580426370711344,-0.3175792399501307,-0.5585989944719285,-0.4348709133034176,0.011818429602888189,-0.023333081759545876,-0.7216297804568143
8610,6.0,300.48022000000003,4435.6326,0.0,0.0,0.0,0.0,0.0,-0.08581423051669729,-0.27287176790784673,-0.5862025008511824,-0.4892472838949476,0.013663057489438789,0.018068290981951483,-0.7358521033654483
8611,6.0,299.62061,4020.5489,0.0,0.0,0.0,0.0,0.0,-0.08582419732628108,-0.25285892332773274,-0.5347607153317735,-0.43452683383445956,0.018742762937516682,0.016182905110128383,-0.7066200608954704
8612,6.0,299.80964,3885.0012,0.0,0.0,0.0,0.0,0.0,-0.08583416413586492,-0.22743333724342277,-0.5401492401585795,-0.4133607586530306,-0.0075026737949062524,-0.007882442972136552,-0.7198337743895623
8613,6.0,299.22817000000003,4362.6142,0.0,0.0,0.0,0.0,0.0,-0.08584413094544874,-0.3097392983613887,-0.5767847667367244,-0.4396017070928106,-0.014436620238533487,-0.018671125142196585,-0.6919080544785083
8614,6.0,298.44222,4719.0752,0.0,0.0,0.0,0.0,0.0,-0.08585409775503258,-0.31559399929420273,-0.6227320516013685,-0.4961549745966835,-0.015761825726321087,0.01599887052096559,-0.6847898002734913
8615,6.0,298.91359,4471.3321,0.0,0.0,0.0,0.0,0.0,-0.0858640645646164,-0.29346448538768977,-0.6119495709272205,-0.45375925292255154,0.012345082554364789,0.03561161303409257,-0.6741966555130294
8616,6.0,298.50854,4131.2415,0.0,0.0,0.0,0.0,0.0,-0.08587403137420019,-0.2215635186191168,-0.5719286643074645,-0.4623020658406616,-0.02323646532276058,0.005933208867787124,-0.6885845840180074
8617,6.0,299.57501,4115.4116,0.0,0.0,0.0,0.0,0.0,-0.085883998183784,-0.22777298880944377,-0.5905130998241055,-0.4326962658062966,0.014988672330266786,-0.036078845959954864,-0.6804060345108474
8618,6.0,300.15763,4122.5816,0.0,0.0,0.0,0.0,0.0,-0.08589396499336785,-0.24679655678692375,-0.5603934198690245,-0.44597186861649657,0.02647911084928477,0.007825062011023492,-0.7019541759074833
8619,6.0,300.08881,4095.4526,0.0,0.0,0.0,0.0,0.0,-0.08590393180295167,-0.27998996131785775,-0.5450826535704695,-0.4198427221927506,0.03967044874141846,0.016658561184071982,-0.7033659980668193
8620,6.0,300.92064,4079.9840000000004,0.0,0.0,0.0,0.0,0.0,-0.08591389861253551,-0.2734522994201407,-0.5506860178159785,-0.41607494156339964,0.008022916520950212,0.012241251776867489,-0.7314751061134723
8621,6.0,300.35152,4152.9454,0.0,0.0,0.0,0.0,0.0,-0.0859238654221193,-0.27339359170934674,-0.5460898039048675,-0.4429083069391466,-0.016762867175866183,-0.01916718300690368,-0.7341596615909173
8622,6.0,299.51986,4387.2628,0.0,0.0,0.0,0.0,0.0,-0.08593383223170314,-0.24750306568415079,-0.5910825362478044,-0.4950327494484285,-0.012896218668007687,0.05136692862852116,-0.7441185219212803
8623,6.0,299.73004,4620.3986,0.0,0.0,0.0,0.0,0.0,-0.08594379904128693,-0.3087216000934497,-0.5887495076275524,-0.5070146953259546,-0.027383315986772877,0.02703816551245918,-0.6820762759756873
8624,6.0,299.23937,4369.6287,0.0,0.0,0.0,0.0,0.0,-0.08595376585087078,-0.27944091148617073,-0.5746571543092455,-0.4741599595084446,-0.017867346261869786,-0.017447878958971583,-0.6781533870210283
8625,6.0,299.38572999999997,4141.6867,0.0,0.0,0.0,0.0,0.0,-0.0859637326604546,-0.27545108722990574,-0.5628396082604444,-0.4206786535252506,-0.013743497388377589,-0.03601123988678267,-0.6678763458942634
8626,6.0,299.93831,4354.0305,0.0,0.0,0.0,0.0,0.0,-0.08597369947003841,-0.2854994783391047,-0.5845991845554475,-0.45341787883136053,0.03433893240498876,0.0018881985527756883,-0.6592807629109454
8627,6.0,298.93195,4424.21,0.0,0.0,0.0,0.0,0.0,-0.08598366627962223,-0.2897387445049877,-0.5766557293364895,-0.4784548936348216,0.05417744831864785,0.02001843366766558,-0.6552921950848043
8628,6.0,300.05433,4221.9844,0.0,0.0,0.0,0.0,0.0,-0.08599363308920607,-0.21789608014716877,-0.5849659709591465,-0.48051579367571656,0.01177706265430559,-0.0065851150343502534,-0.7043091109948973
8629,6.0,300.57215,4201.1907,0.0,0.0,0.0,0.0,0.0,-0.08600359989878986,-0.2377787119569318,-0.5835560334449965,-0.45572231353379056,0.002545004492847388,-0.011940097635145887,-0.6940152803139754
8630,6.0,301.6198,4110.6399,0.0,0.0,0.0,0.0,0.0,-0.0860135667083737,-0.23914592071436475,-0.5456675015281895,-0.4647184748116426,0.0038580849233133367,0.0025716835706304075,-0.7353004596135053
8631,6.0,300.59384,4172.3378,0.0,0.0,0.0,0.0,0.0,-0.0860235335179575,-0.27454020578750876,-0.5472349994328896,-0.44651132296973656,0.014477038785022487,0.01002724447828698,-0.7150902339139114
8632,6.0,300.49709,4384.9756,0.0,0.0,0.0,0.0,0.0,-0.08603350032754134,-0.3108984970057927,-0.5587953724738094,-0.4632292099471636,-0.007310480921238293,-0.01924798260962798,-0.7252243155840673
8633,6.0,298.9807,4373.7228,0.0,0.0,0.0,0.0,0.0,-0.08604346713712516,-0.3106632304650737,-0.5593654776425744,-0.45947382136653553,-0.004694972763907735,-0.02835287879546127,-0.7077639797283664
8634,6.0,300.43399,4189.3481,0.0,0.0,0.0,0.0,0.0,-0.086053433946709,-0.2388805707781768,-0.5595388751321875,-0.47503776846757756,0.0007029409801798735,0.03526034860867547,-0.6957276223204704
8635,6.0,299.55966,4138.751,0.0,0.0,0.0,0.0,0.0,-0.08606340075629282,-0.26314502291039177,-0.5549217173415094,-0.4400102090031266,-0.009793336705952081,0.023590828266983478,-0.6732683866989164
8636,6.0,299.03155,4379.2248,0.0,0.0,0.0,0.0,0.0,-0.08607336756587661,-0.2663349672727147,-0.5945151742740795,-0.47032486867495055,-0.01036000401845279,-0.0013420496561249884,-0.6468765045242404
8637,6.0,298.78618,4320.7715,0.0,0.0,0.0,0.0,0.0,-0.08608333437546042,-0.27707641131781274,-0.5879242660836075,-0.44840596893422363,-0.012182774073846188,-0.01025942678702659,-0.6792045529397703
8638,6.0,299.66632999999996,4054.4426,0.0,0.0,0.0,0.0,0.0,-0.08609330118504427,-0.23106762217209875,-0.5672743911656234,-0.43410730776305556,0.02111249856914138,0.024207647305108777,-0.6821204334150454
8639,6.0,299.19296,4136.8245,0.0,0.0,0.0,0.0,0.0,-0.08610326799462809,-0.24586501517498774,-0.5631137937375045,-0.44851255271224255,0.0070354213133170225,0.002966168483038037,-0.7215452551334723
8640,6.0,299.86301000000003,4320.5978,0.0,0.0,0.0,0.0,0.0,-0.0861132348042119,-0.25436083355345973,-0.5722640196930614,-0.4867289723614095,0.0032131697771401665,-0.022784622652667178,-0.7127129667942933
8641,6.0,299.24431,4124.0189,0.0,0.0,0.0,0.0,0.0,-0.08612320161379572,-0.2618874579462797,-0.5468377040686795,-0.4448736270981086,0.008511563474425913,-0.016281075872567087,-0.7514128485961743
8642,6.0,299.97512,4310.0055,0.0,0.0,0.0,0.0,0.0,-0.08613316842337956,-0.28157106717140074,-0.5515516475089094,-0.4770113466148545,0.01719062691758278,0.016511555819813683,-0.6975075683736374
8643,6.0,300.74455,4187.7798,0.0,0.0,0.0,0.0,0.0,-0.08614313523296335,-0.2993989595008767,-0.5392015270750474,-0.43437998349746654,-0.001152143383957699,0.015449990915295383,-0.6971982535156104
8644,6.0,300.06528,4055.32,0.0,0.0,0.0,0.0,0.0,-0.08615310204254717,-0.28854941180260973,-0.5401398574626535,-0.40402675952683664,-0.026880805745428973,-0.032695203642265365,-0.6748035517929253
8645,6.0,300.47951,4357.9923,0.0,0.0,0.0,0.0,0.0,-0.08616306885213101,-0.3081241878344897,-0.5745405697527395,-0.44205607241253764,-0.025899049485037177,-0.008422431206854241,-0.6852002577565003
8646,6.0,300.87512000000004,4630.9987,0.0,0.0,0.0,0.0,0.0,-0.08617303566171483,-0.2909300935750647,-0.6283684174026344,-0.48840943751975857,-0.011520648570749489,0.030003587838123572,-0.6730055597554774
8647,6.0,299.1735,4416.6596,0.0,0.0,0.0,0.0,0.0,-0.08618300247129865,-0.26866835053050175,-0.6135301296257094,-0.4603557542535756,-0.014241142002741285,0.024230562969370376,-0.6889038084620123
8648,6.0,299.38102000000003,4281.485,0.0,0.0,0.0,0.0,0.0,-0.08619296928088244,-0.2362776933912928,-0.5987427779313114,-0.4664440599969445,-0.01940810550968088,-0.016293273377270885,-0.6889157445481903
8649,6.0,298.50191,4297.5078,0.0,0.0,0.0,0.0,0.0,-0.08620293609046628,-0.26791419861357274,-0.5992632743751805,-0.4391575793089786,0.011806395231450488,0.006278070059197275,-0.7029416185274363
8650,6.0,299.18383,4258.3155,0.0,0.0,0.0,0.0,0.0,-0.0862129029000501,-0.28141198690570074,-0.5709989870757124,-0.44201058761554857,0.04172862415279456,0.036390493319712065,-0.7155872938829674
8651,6.0,300.76644,4287.5343,0.0,0.0,0.0,0.0,0.0,-0.08622286970963391,-0.27757407923692873,-0.5645401965657795,-0.46118908153331856,0.025723046929417077,-0.004170652212836326,-0.7208667626015103
8652,6.0,301.17711,4144.6815,0.0,0.0,0.0,0.0,0.0,-0.08623283651921776,-0.25280853440025974,-0.5593109141246895,-0.4477602449104956,-0.0015470368388056485,-0.05805470859480365,-0.7254855719898513
8653,6.0,299.78407000000004,3940.0998,0.0,0.0,0.0,0.0,0.0,-0.08624280332880158,-0.24028941398221876,-0.5291072965313245,-0.4282952545269506,-0.03426089492203707,-0.03994946336845506,-0.6982831403976804
8654,6.0,300.64839,4196.8694,0.0,0.0,0.0,0.0,0.0,-0.08625277013838539,-0.2730805480909518,-0.5665312330122795,-0.43613172066784955,-0.015268550246388585,0.04854276349929775,-0.7137880555478964
8655,6.0,300.43937999999997,4704.1486,0.0,0.0,0.0,0.0,0.0,-0.08626273694796924,-0.3561523438994996,-0.6073250265433134,-0.4664663413666435,-0.018185465250015683,0.039884644746307964,-0.6590139336296114
8656,6.0,300.45351,4702.291,0.0,0.0,0.0,0.0,0.0,-0.08627270375755303,-0.3443826029904167,-0.6163420303757224,-0.46865441442758954,-0.015660807731101383,-0.007962523673914902,-0.6930140270951592
8657,6.0,299.93313,4343.6423,0.0,0.0,0.0,0.0,0.0,-0.08628267056713684,-0.25679125577332373,-0.6020004580628193,-0.46156707448312356,0.0026374262768687072,0.007897556711953163,-0.6922744051846644
8658,6.0,299.36002,4185.7424,0.0,0.0,0.0,0.0,0.0,-0.08629263737672066,-0.23739255221132075,-0.5744448176182895,-0.46052381191516156,0.03923589414453126,0.018280802965174783,-0.6980855667606813
8659,6.0,299.27162000000004,4303.909000000001,0.0,0.0,0.0,0.0,0.0,-0.0863026041863045,-0.24183936239518677,-0.5902982097428974,-0.47614329525418453,0.02735101661333518,-0.011522908118472489,-0.6945638437856143
8660,6.0,299.98802,4125.592000000001,0.0,0.0,0.0,0.0,0.0,-0.08631257099588832,-0.25190915334649777,-0.5325424879478515,-0.4696253106734095,0.0027276759566506573,-0.05033024509345845,-0.7089775088431323
8661,6.0,299.13117,3938.1908,0.0,0.0,0.0,0.0,0.0,-0.08632253780547214,-0.2640374530684677,-0.5062425582197505,-0.4268316552875046,0.01117477362261429,-0.012218046323077289,-0.6912740638909384
8662,6.0,298.18552,3985.7044,0.0,0.0,0.0,0.0,0.0,-0.08633250461505593,-0.26893318370913877,-0.5289103409768865,-0.41371107974260457,0.006776267806790563,0.028873676174609973,-0.6974148762544894
8663,6.0,298.35708,4291.1819,0.0,0.0,0.0,0.0,0.0,-0.08634247142463977,-0.2752532298828787,-0.5529858624954556,-0.47617304427712054,-0.01034036317851439,0.00956123251879518,-0.6974856112439703
8664,6.0,298.86134,4557.0436,0.0,0.0,0.0,0.0,0.0,-0.08635243823422359,-0.29579258961245575,-0.5855677097960335,-0.5038671554803165,-0.013046146245554387,-0.05566049081426275,-0.7031208422051243
8665,6.0,299.9989,4589.375,0.0,0.0,0.0,0.0,0.0,-0.08636240504380743,-0.2834263990320077,-0.6008770676769494,-0.5107519365972915,-0.0008143202885371553,-0.013124173596005087,-0.6970086845544013
8666,6.0,300.90488999999997,4320.0843,0.0,0.0,0.0,0.0,0.0,-0.08637237185339122,-0.27878186322362775,-0.5728009814510554,-0.46161491002034455,0.023862265809772274,0.03441179116667936,-0.6999542431251053
8667,6.0,300.09382999999997,4188.8836,0.0,0.0,0.0,0.0,0.0,-0.08638233866297507,-0.28549611434877276,-0.5647320757372165,-0.42308781775801657,0.002270504097656308,0.033425363823326566,-0.6819691247776124
8668,6.0,300.11095,4271.33,0.0,0.0,0.0,0.0,0.0,-0.08639230547255886,-0.2781390370951857,-0.5687887035725744,-0.45144992422213853,-0.003997137895486795,-0.006186751907184874,-0.6913312213290794
8669,6.0,299.78677999999996,4097.0466,0.0,0.0,0.0,0.0,0.0,-0.0864022722821427,-0.21426879677668378,-0.5613146364624415,-0.4698164400397725,-0.01848513498034078,0.004557112792402016,-0.6769124900210614
8670,6.0,299.59619,3877.6176,0.0,0.0,0.0,0.0,0.0,-0.08641223909172652,-0.18031510003321483,-0.5708791398538845,-0.4275046864014276,0.005031842553104195,0.03138841600154547,-0.7078883865756443
8671,6.0,299.86169,4141.5236,0.0,0.0,0.0,0.0,0.0,-0.08642220590131033,-0.23010976645506578,-0.5723196268585494,-0.45649037737459264,-0.006699884353302103,-0.013715931919407088,-0.7072117280263633
8672,6.0,299.19555,4486.1618,0.0,0.0,0.0,0.0,0.0,-0.08643217271089415,-0.31313052485607673,-0.5885826658660864,-0.4619679871501906,-0.013919006491198987,-0.04337458409223816,-0.7063458247559053
8673,6.0,298.33204,4480.7932,0.0,0.0,0.0,0.0,0.0,-0.086442139520478,-0.35785968045050065,-0.5580566016933984,-0.44613296524989554,0.0016831443942634185,-0.0005451340962780465,-0.7091366296388364
8674,6.0,299.19621,4440.7694,0.0,0.0,0.0,0.0,0.0,-0.08645210633006181,-0.3074656259319947,-0.5735885604887834,-0.46882882516730257,0.027620621186693076,0.04013241074026056,-0.6734295035973173
8675,6.0,300.16627,4386.1205,0.0,0.0,0.0,0.0,0.0,-0.08646207313964566,-0.26790319471748675,-0.5801835014146535,-0.48518442457147454,-0.004677440902727476,0.026969357724668373,-0.6881833369784074
8676,6.0,300.11818,4443.8979,0.0,0.0,0.0,0.0,0.0,-0.08647203994922942,-0.2654659634569507,-0.5945914821391105,-0.4907765518733745,-0.013293345832701087,-0.012361493152984387,-0.6812094405151373
8677,6.0,300.36579,4530.5711,0.0,0.0,0.0,0.0,0.0,-0.08648200675881326,-0.27956194421061575,-0.6038690128372315,-0.49374951885928353,-0.008662236905371221,-0.002110515858541698,-0.6953326574314903
8678,6.0,300.47292999999996,4310.7572,0.0,0.0,0.0,0.0,0.0,-0.08649197356839708,-0.30743371868634567,-0.5802575497319615,-0.4226712909069086,-0.010076576687230691,0.02540998203276998,-0.6838308198488473
8679,6.0,300.60442,3949.0255,0.0,0.0,0.0,0.0,0.0,-0.08650194037798092,-0.26287305645105075,-0.5386679090423835,-0.3988641894723306,-0.020601779988737377,-0.005295760969550914,-0.6922518907674424
8680,6.0,300.18138,4109.3532,0.0,0.0,0.0,0.0,0.0,-0.08651190718756474,-0.2232791638209378,-0.5723039417470015,-0.4535576668151566,-0.015198167867942385,-0.035635685829968365,-0.7090700287097633
8681,6.0,299.58886,4411.1439,0.0,0.0,0.0,0.0,0.0,-0.08652187399714856,-0.26575005851998873,-0.5875568818623494,-0.4875706488219765,0.013425602328503788,-0.02009334628730888,-0.7112543831428424
8682,6.0,298.77224,4457.004,0.0,0.0,0.0,0.0,0.0,-0.08653184080673235,-0.25513313277967975,-0.6039059255383744,-0.4957788561595635,0.038146347325251365,0.003083442758887107,-0.6996440366069903
8683,6.0,299.78457000000003,4277.8133,0.0,0.0,0.0,0.0,0.0,-0.08654180761631619,-0.27586891104114175,-0.5752447380422355,-0.44923477711852056,0.021811933967420278,-0.006617304976777154,-0.7012183030223583
8684,6.0,299.64106,4110.7573,0.0,0.0,0.0,0.0,0.0,-0.08655177442590001,-0.2936202725905647,-0.5500279625385335,-0.4059193384611196,-0.01076718667713859,-0.033892358635415364,-0.7034280292379413
8685,6.0,299.17021,4251.7511,0.0,0.0,0.0,0.0,0.0,-0.08656174123548385,-0.3130495256430827,-0.5414247295169605,-0.43795192314748954,0.0030003342631599373,0.008778183519614262,-0.6995768479928594
8686,6.0,299.18232,4425.245,0.0,0.0,0.0,0.0,0.0,-0.08657170804506764,-0.2923037364706327,-0.5724570742346144,-0.4804031810596025,-0.02098834199463808,0.026527209831531774,-0.7114539427500374
8687,6.0,299.70943,4413.1096,0.0,0.0,0.0,0.0,0.0,-0.08658167485465149,-0.26994803474429674,-0.5873472505491605,-0.4841798478923306,-0.017458902106809483,0.004618378453073465,-0.6800580134990003
8688,6.0,299.19212000000005,4157.3212,0.0,0.0,0.0,0.0,0.0,-0.08659164166423527,-0.20803666018161981,-0.5919559375690024,-0.4637292488715135,-0.05070500780194466,-0.015440954750903587,-0.7159081901896374
8689,6.0,299.64389,4097.2714,0.0,0.0,0.0,0.0,0.0,-0.08660160847381912,-0.22994012812332376,-0.5784552412490874,-0.43707283749323056,0.005090330388626495,0.007499568892624823,-0.7112192132318713
8690,6.0,298.87591000000003,4279.8198,0.0,0.0,0.0,0.0,0.0,-0.08661157528340294,-0.31842821181141767,-0.5708552879465305,-0.4116748726066466,0.00939459127952397,0.016664400544398286,-0.6971151062124044
8691,6.0,299.5683,4404.1841,0.0,0.0,0.0,0.0,0.0,-0.08662154209298675,-0.29245443715800573,-0.5834069944877874,-0.46290056227722853,0.026597824244250876,-0.021384262378462377,-0.6813775285742264
8692,6.0,300.21876000000003,4091.7583,0.0,0.0,0.0,0.0,0.0,-0.08663150890257057,-0.24998657207675376,-0.5581538939680005,-0.43565187581799253,0.008132200813135732,-0.02850267870349537,-0.6974487998678374
8693,6.0,299.87978,4092.4199,0.0,0.0,0.0,0.0,0.0,-0.08664147571215441,-0.22732059290479578,-0.5552303026594645,-0.4614425561783345,0.024113542715321377,4.612219209690596e-05,-0.7049089043915924
8694,6.0,299.49818999999997,4545.467000000001,0.0,0.0,0.0,0.0,0.0,-0.08665144252173823,-0.3048520080940507,-0.5762834713822504,-0.5005729882127076,0.001178580396291829,0.02914562338219907,-0.6747287536705433
8695,6.0,300.07332,4808.9639,0.0,0.0,0.0,0.0,0.0,-0.08666140933132208,-0.3567523196812126,-0.5947357892183525,-0.5103168267393495,-0.0027559654941426174,-0.012651391099345089,-0.6838075150965474
8696,6.0,300.50799,4550.1356,0.0,0.0,0.0,0.0,0.0,-0.08667137614090584,-0.3584179305930957,-0.5733884942565385,-0.45132119079693356,-0.029265089621989475,-0.01324125464506009,-0.6912541839239764
8697,6.0,300.82135,4303.3316,0.0,0.0,0.0,0.0,0.0,-0.08668134295048968,-0.2715839574282497,-0.5669733140309094,-0.4695480807507876,0.002137705918350148,0.011270874315098689,-0.7019605999131173
8698,6.0,300.24269,4123.7199,0.0,0.0,0.0,0.0,0.0,-0.0866913097600735,-0.27496143411908075,-0.5564617156384954,-0.42208474068902063,0.013957952785292686,0.01878331016676838,-0.7081829485122153
8699,6.0,299.44613,4215.1156,0.0,0.0,0.0,0.0,0.0,-0.08670127656965734,-0.24042114662771977,-0.5667360108574895,-0.4741327436107585,0.005864837486814395,-0.012760334736846988,-0.7108333067987853
8700,6.0,299.04507,4242.6606,0.0,0.0,0.0,0.0,0.0,-0.08671124337924116,-0.23163694713828678,-0.5848380582665225,-0.47318786762750653,2.004093896563668e-05,-0.042934195201275165,-0.7064317280993834
8701,6.0,299.37089,3957.1648,0.0,0.0,0.0,0.0,0.0,-0.08672121018882498,-0.22394947942459278,-0.5664208292813835,-0.4125089902214676,-0.012234777108728489,0.00962814299577373,-0.6925283256597243
8702,6.0,300.33102,4011.7821,0.0,0.0,0.0,0.0,0.0,-0.08673117699840877,-0.2638204047645467,-0.5547361811156986,-0.40092500845321766,0.003943287705672196,0.024683247650296874,-0.7087759430007394
8703,6.0,300.10863,4457.0992,0.0,0.0,0.0,0.0,0.0,-0.08674114380799261,-0.3029685585431687,-0.5846595641289064,-0.46721874036089955,9.012691338658381e-05,-0.0015024979107849986,-0.6844566639056133
8704,6.0,300.67814,4746.9506,0.0,0.0,0.0,0.0,0.0,-0.08675111061757643,-0.3217507399493257,-0.6112154914947724,-0.5099882297319195,-0.0008720961132141851,-0.016484494949392983,-0.6945447642862314
8705,6.0,300.96795,4600.077,0.0,0.0,0.0,0.0,0.0,-0.08676107742716027,-0.2911123570030527,-0.6076309875435094,-0.4995651893982455,0.022288845458237776,-0.01125179380246559,-0.7072809938031993
8706,6.0,301.21187000000003,4346.8961,0.0,0.0,0.0,0.0,0.0,-0.08677104423674406,-0.2635127009741787,-0.5745526983564364,-0.48328249333876855,0.022670754619679274,0.01825999688762138,-0.7065879307347993
8707,6.0,301.46891,4207.6289,0.0,0.0,0.0,0.0,0.0,-0.0867810110463279,-0.30551591995707367,-0.5428833030359105,-0.4306148981133816,-0.003200258741715947,-0.004046520462960476,-0.7210854929005973
8708,6.0,299.66386,4143.5163,0.0,0.0,0.0,0.0,0.0,-0.08679097785591172,-0.26123938318231976,-0.5645535106720935,-0.4337325977435746,-0.009716255731094782,-0.00900349193967547,-0.7061001420041583
8709,6.0,299.25404,4172.553,0.0,0.0,0.0,0.0,0.0,-0.08680094466549554,-0.2447342787258928,-0.6024141072836434,-0.4212035272095516,-0.013194454649441288,0.01730625091299398,-0.7348579226323303
8710,6.0,298.78497999999996,4278.77,0.0,0.0,0.0,0.0,0.0,-0.08681091147507936,-0.27087708376098674,-0.5790285077581644,-0.4507336577264486,0.00013830152563429788,0.01969341849933908,-0.6682994487385203
8711,6.0,299.83439,4162.1142,0.0,0.0,0.0,0.0,0.0,-0.08682087828466317,-0.24191751437539977,-0.5678244846449134,-0.4554367897881116,-0.00023955700641243576,-0.01855520527775618,-0.7328713140887673
8712,6.0,299.89468999999997,4312.6759,0.0,0.0,0.0,0.0,0.0,-0.08683084509424699,-0.2578511356429258,-0.5845589281289745,-0.4685357020458736,-0.006192302592557684,-0.025517566901887775,-0.6636755123046734
8713,6.0,300.83867999999995,4683.9175,0.0,0.0,0.0,0.0,0.0,-0.08684081190383083,-0.3310768762547437,-0.5913076398900204,-0.5014094667002615,0.032927197385161366,0.002704077767121698,-0.6928418657706683
8714,6.0,300.02334,4720.0896,0.0,0.0,0.0,0.0,0.0,-0.08685077871341465,-0.33667912592514265,-0.5993161558978994,-0.4987941162046466,0.018246553085294583,0.042979757005271756,-0.6733912939360464
8715,6.0,300.84837000000005,4367.9125,0.0,0.0,0.0,0.0,0.0,-0.0868607455229985,-0.29140101169154076,-0.5634705793627165,-0.4728647523031176,0.011229765745291592,-0.006626955069404544,-0.7082286562242264
8716,6.0,300.39395,4271.0952,0.0,0.0,0.0,0.0,0.0,-0.08687071233258226,-0.27711855238947175,-0.5550633798379905,-0.4661243491928916,0.0013785094344732887,-0.03821648956342386,-0.6843913194066644
8717,6.0,300.50274,4329.0348,0.0,0.0,0.0,0.0,0.0,-0.0868806791421661,-0.25085184713214975,-0.5995766523661084,-0.46549000396778656,0.0051436225816110254,-0.015752953708445486,-0.7285215428669783
8718,6.0,299.90609,4344.2882,0.0,0.0,0.0,0.0,0.0,-0.08689064595174992,-0.28727763093959474,-0.5740575534300694,-0.4592199515539806,0.007367465397587224,-0.007529837104912062,-0.7188879459512163
8719,6.0,299.08465,4357.2187,0.0,0.0,0.0,0.0,0.0,-0.08690061276133376,-0.28330375523990375,-0.6041752778124574,-0.4370066621291996,-0.00926497987310732,-0.007368968959410613,-0.7174562032949143
8720,6.0,298.8184,4172.7643,0.0,0.0,0.0,0.0,0.0,-0.08691057957091758,-0.25623880142130073,-0.5760567060098705,-0.4361206458442566,-0.017734378464496884,-0.008881612340796891,-0.7387983408137192
8721,6.0,299.2897,4121.5756,0.0,0.0,0.0,0.0,0.0,-0.0869205463805014,-0.2067069112803838,-0.5932009888943794,-0.4529481766150046,-0.007179400808801693,0.03841548681681336,-0.7001469734266264
8722,6.0,299.19127000000003,4392.1913,0.0,0.0,0.0,0.0,0.0,-0.08693051319008518,-0.25414344074450473,-0.5943697019572225,-0.4866033293490095,-0.014061003360212987,0.050628493233893256,-0.6997793054953403
8723,6.0,299.86357000000004,4530.9142,0.0,0.0,0.0,0.0,0.0,-0.08694047999966903,-0.2471095902728178,-0.6113046068410674,-0.5188705928910404,-0.013322194076298186,-0.003078963686820057,-0.6720550197041664
8724,6.0,299.42777,4232.7879,0.0,0.0,0.0,0.0,0.0,-0.08695044680925285,-0.3035577938738217,-0.5541079660536984,-0.42899607909111664,-0.02306357445819758,-0.025874844966648373,-0.6927808377171454
8725,6.0,299.68842,4174.4356,0.0,0.0,0.0,0.0,0.0,-0.08696041361883669,-0.2584188495414548,-0.5577569228438225,-0.45274842449029057,0.013379023221406787,-0.007841686506739201,-0.6979074475256023
8726,6.0,300.07497,4504.0668,0.0,0.0,0.0,0.0,0.0,-0.08697038042842048,-0.3131065918887147,-0.5853768033446924,-0.4706404352860945,0.008130512231844082,0.014944795561186486,-0.7066039907488844
8727,6.0,300.30216,4532.1722,0.0,0.0,0.0,0.0,0.0,-0.08698034723800432,-0.3139262706896107,-0.5764711556982735,-0.48726975407228057,0.00044481127168695465,-0.014135484335313687,-0.7150420437391554
8728,6.0,299.27581000000004,4345.1639,0.0,0.0,0.0,0.0,0.0,-0.08699031404758814,-0.28016164641480173,-0.5897859611548425,-0.4508737091552706,-0.013626360610567089,-0.01724330173728138,-0.7130253315351214
8729,6.0,300.23447999999996,4178.920999999999,0.0,0.0,0.0,0.0,0.0,-0.08700028085717199,-0.2240346126979948,-0.5714604313037535,-0.47479260247338156,0.02170146437526778,0.0044641582414781155,-0.7295030275763433
8730,6.0,299.64493,4073.375,0.0,0.0,0.0,0.0,0.0,-0.08701024766675577,-0.28472186968236074,-0.5458350728297274,-0.40764735544666164,-0.007271976606838213,0.027678239653629574,-0.6881639737689963
8731,6.0,299.99557999999996,4459.7726,0.0,0.0,0.0,0.0,0.0,-0.08702021447633959,-0.25508042350947774,-0.6067170764833134,-0.49386200988538553,-0.007390007172561924,-0.002978342784314547,-0.6996668144692383
8732,6.0,298.83547999999996,4658.0011,0.0,0.0,0.0,0.0,0.0,-0.08703018128592341,-0.33869437904903266,-0.5781296333294524,-0.4990920016015455,-0.024405068954592775,-0.024429425460496576,-0.6678301011596994
8733,6.0,298.52198,4443.0169,0.0,0.0,0.0,0.0,0.0,-0.08704014809550725,-0.26911544713712676,-0.5984019104651704,-0.4830488378657085,-0.004838746265647075,0.02294822201381318,-0.6891339580897263
8734,6.0,298.65103999999997,4249.133,0.0,0.0,0.0,0.0,0.0,-0.08705011490509107,-0.2688457199605067,-0.5615965631702655,-0.4611880378857156,-0.00915811704601078,0.028046355441459773,-0.6738344996622874
8735,6.0,298.63657,4435.3041,0.0,0.0,0.0,0.0,0.0,-0.08706008171467491,-0.28374014179297175,-0.5968863618930974,-0.4675952134355546,-0.01881691460633488,0.0055134150957067045,-0.7040660221634063
8736,6.0,299.87048,4640.2659,0.0,0.0,0.0,0.0,0.0,-0.08707004852425868,-0.37650068572022466,-0.5949184680788815,-0.4391058224938706,-0.0020223831621936778,-0.023563302314766877,-0.7198684883379883
8737,6.0,300.3267,4259.5056,0.0,0.0,0.0,0.0,0.0,-0.08708001533384252,-0.2564157858162678,-0.5887354234511624,-0.4496321130127346,0.02535734065032468,0.012759617355776187,-0.7510571167510663
8738,6.0,300.40752000000003,3794.825,0.0,0.0,0.0,0.0,0.0,-0.08708998214342634,-0.2276736295046378,-0.5444673169172405,-0.38139109679787064,0.03629498943153657,0.000993154412091709,-0.7369691001431873
8739,6.0,300.92155,4054.0629,0.0,0.0,0.0,0.0,0.0,-0.08709994895301018,-0.22921625211938276,-0.5797932481386385,-0.4233243913913646,-0.0076883885553848735,-0.030885883468699367,-0.7353723497081003
8740,6.0,300.16578,4428.4493,0.0,0.0,0.0,0.0,0.0,-0.087109915762594,-0.26324706732796277,-0.5742124185753534,-0.5086785127851605,-0.018113968296459483,-0.03147722028005977,-0.6916891012643993
8741,6.0,299.83467,4481.2589,0.0,0.0,0.0,0.0,0.0,-0.08711988257217781,-0.2942671922494107,-0.5995121285997405,-0.46841148771611457,-0.014863936176706284,0.011869492341677688,-0.6970335801093583
8742,6.0,300.43813,4487.2862,0.0,0.0,0.0,0.0,0.0,-0.0871298493817616,-0.3089830186192497,-0.5714264266303974,-0.48361352214643855,-0.01887346916066638,0.022389389252410682,-0.6579311543077493
8743,6.0,299.31408,4404.272,0.0,0.0,0.0,0.0,0.0,-0.08713981619134545,-0.27243294955453873,-0.5814342978680974,-0.48492146590552254,-0.02677368595810707,-0.00902716399513672,-0.6961707064566993
8744,6.0,297.97606,4596.5134,0.0,0.0,0.0,0.0,0.0,-0.08714978300092927,-0.3064922066934257,-0.5919457341404954,-0.49878734769397853,0.0035182655630757774,0.0026823928977565675,-0.6647096860192383
8745,6.0,299.42071,4646.5859,0.0,0.0,0.0,0.0,0.0,-0.08715974981051308,-0.3038157369517787,-0.5986135074835535,-0.5100168236497414,0.02074937810430418,0.02161486391572098,-0.7236775589089143
8746,6.0,299.76057000000003,4231.0213,0.0,0.0,0.0,0.0,0.0,-0.0871697166200969,-0.2666266414465007,-0.5717315263680085,-0.4477666385186265,0.02068921333986638,0.025096649638096477,-0.6815895308926494
8747,6.0,301.2945,3985.7125,0.0,0.0,0.0,0.0,0.0,-0.08717968342968074,-0.25896230623258976,-0.5532132358178955,-0.39938154484088967,-0.008231355745396561,-0.02673784730207008,-0.7379460150946013
8748,6.0,301.28857,4127.2154,0.0,0.0,0.0,0.0,0.0,-0.08718965023926456,-0.2893244670691017,-0.5524055437656825,-0.4128404243291776,-0.002333859485333998,-0.015718357297031086,-0.7047269044086303
8749,6.0,300.18298,4375.0091,0.0,0.0,0.0,0.0,0.0,-0.08719961704884835,-0.25562982797869976,-0.6043697407716494,-0.46989395367242254,0.0010118744711342348,0.004798445864119735,-0.7516389756209912
8750,6.0,300.19352000000003,4491.3964,0.0,0.0,0.0,0.0,0.0,-0.0872095838584322,-0.2995162431999517,-0.5722805458021925,-0.4934755664297465,0.01914565954827948,0.011907370670165989,-0.6863905429139723
8751,6.0,300.3757,4206.8791,0.0,0.0,0.0,0.0,0.0,-0.08721955066801601,-0.2126198031664408,-0.5896632464352314,-0.4765031611597005,-0.008426882617193562,-0.015219687273566184,-0.7202922903248143
8752,6.0,299.05273,4072.151,0.0,0.0,0.0,0.0,0.0,-0.08722951747759983,-0.24757657697890578,-0.5598427285721754,-0.43041291683844757,0.011999293732488089,-0.025892691340659676,-0.6762046740312053
8753,6.0,299.66854,4377.5408,0.0,0.0,0.0,0.0,0.0,-0.08723948428718367,-0.27087767144604474,-0.5950771430445414,-0.46470829164813754,0.001002491086198167,0.031513396348380074,-0.6961945988940574
8754,6.0,299.46449,4639.7937,0.0,0.0,0.0,0.0,0.0,-0.08724945109676749,-0.3174723420645807,-0.6294142434933494,-0.46349484359337956,0.02120338001036068,0.021239041347630182,-0.6780213605329983
8755,6.0,299.95943,4507.6555,0.0,0.0,0.0,0.0,0.0,-0.08725941790635128,-0.2673698603948507,-0.6073645128997104,-0.4954803324151015,-0.018402489235934284,0.003939542834627606,-0.7209250751447653
8756,6.0,300.55226,4274.6272,0.0,0.0,0.0,0.0,0.0,-0.0872693847159351,-0.27542169284450474,-0.5896723555536304,-0.4342858728281786,-0.020418995750197982,-0.013959153486661187,-0.7253064597696743
8757,6.0,301.47247000000004,4314.912,0.0,0.0,0.0,0.0,0.0,-0.08727935152551894,-0.23676760994714377,-0.5914679360558405,-0.48338996877687557,-0.0035148523287889164,0.003334623405676707,-0.7447912591926743
8758,6.0,301.02327,4521.863,0.0,0.0,0.0,0.0,0.0,-0.08728931833510276,-0.3128137524773137,-0.5735738176998284,-0.4881458911687485,-0.0007880637157808332,-0.007139525060391264,-0.7241443530974834
8759,6.0,300.71959,4556.8167,0.0,0.0,0.0,0.0,0.0,-0.08729928514468657,-0.3139381966432877,-0.5949151952810584,-0.47630510116265357,-0.02113611134947178,-0.021722688925112477,-0.7093653100539054
8760,6.0,300.21291,4321.3655,0.0,0.0,0.0,0.0,0.0,-0.08730925195427042,-0.2979375488816467,-0.5651415402351275,-0.4505081183866896,0.011583624090964688,-0.009033464181608502,-0.7152837444180092
8761,6.0,300.72567000000004,4000.8409,0.0,0.0,0.0,0.0,0.0,-0.08731921876385423,-0.2078910460097488,-0.5571589836948104,-0.45110571303066754,0.025289440734623473,0.027169130114384373,-0.6931962601256444
8762,6.0,300.22591,4164.6353,0.0,0.0,0.0,0.0,0.0,-0.08732918557343802,-0.2744461255157237,-0.5692622257418075,-0.42223679913152756,0.03265281331108177,0.008668599913349201,-0.6910181067831773
8763,6.0,299.67339,4627.2852,0.0,0.0,0.0,0.0,0.0,-0.08733915238302184,-0.26030401148500576,-0.6123062653599234,-0.5339688705111245,-0.007129606557812382,-0.023614670041836476,-0.6627703455928403
8764,6.0,299.49174,4532.2767,0.0,0.0,0.0,0.0,0.0,-0.08734911919260568,-0.3404106625984167,-0.5942582444462224,-0.4430300388061606,-0.017652449087911085,-0.017291572972045383,-0.6801262761582374
8765,6.0,299.56266,4399.342000000001,0.0,0.0,0.0,0.0,0.0,-0.0873590860021895,-0.2801782535839407,-0.5955569980268994,-0.4615548850844206,-0.009822695019649521,0.02245041527943348,-0.6980532643474933
8766,6.0,299.8427,4401.1442,0.0,0.0,0.0,0.0,0.0,-0.08736905281177332,-0.3228030913706847,-0.5714713136098274,-0.4435635251163116,-0.013245863919764986,0.01914330779479738,-0.7170243662347953
8767,6.0,299.97735,4448.331,0.0,0.0,0.0,0.0,0.0,-0.08737901962135713,-0.2614299653936288,-0.6147273656788674,-0.47602421810243256,-0.030982499905484674,0.00998733731912345,-0.7338678658271193
8768,6.0,299.65944,4264.4971,0.0,0.0,0.0,0.0,0.0,-0.08738898643094098,-0.2698933496363997,-0.5475365122651464,-0.47887077200586553,-0.010762474050923489,0.017439963449190382,-0.7333989235483382
8769,6.0,300.27382,3970.3372,0.0,0.0,0.0,0.0,0.0,-0.08739895324052477,-0.19156955260394282,-0.5820688153457194,-0.4332450116629536,0.008945589560060951,0.024834125656437375,-0.7404755939692512
8770,6.0,300.045,3927.218,0.0,0.0,0.0,0.0,0.0,-0.08740892005010861,-0.26650078565157975,-0.5268464315831944,-0.4004290022642656,0.01943170005150948,-0.02098698221300388,-0.7023796598894754
8771,6.0,299.58971,4127.8769,0.0,0.0,0.0,0.0,0.0,-0.0874188868596924,-0.25842845515240276,-0.5554612932847615,-0.4408817560766416,-0.005889352262383814,-0.02969675746934177,-0.6891402402403464
8772,6.0,299.77293,4504.495,0.0,0.0,0.0,0.0,0.0,-0.08742885366927625,-0.29969083632468274,-0.6152433835572945,-0.4543197727453705,0.004878766706171786,-0.027472168901291977,-0.6968052441993233
8773,6.0,299.83269,4730.8953,0.0,0.0,0.0,0.0,0.0,-0.08743882047886006,-0.29414909795025573,-0.6274163473436724,-0.5165085853179285,0.012395013492792588,0.026062400599908674,-0.6878132068493783
8774,6.0,300.07099,4575.6148,0.0,0.0,0.0,0.0,0.0,-0.08744878728844391,-0.2829475167697457,-0.6058299557557615,-0.5020951837054365,-0.018489634824034883,0.02409628301311798,-0.6829227248442253
8775,6.0,300.41641,4509.2995,0.0,0.0,0.0,0.0,0.0,-0.0874587540980277,-0.26028116269525076,-0.6084061745325144,-0.5020271135637185,-0.030368721630909472,0.0018109340783252783,-0.6967572161445834
8776,6.0,299.85459,4533.4167,0.0,0.0,0.0,0.0,0.0,-0.08746872090761151,-0.3392938583381967,-0.5649496407986885,-0.47380197824811454,-0.01794435428271988,0.017363241164868485,-0.6895632417595933
8777,6.0,300.09132999999997,4432.8217,0.0,0.0,0.0,0.0,0.0,-0.08747868771719533,-0.3042589832080237,-0.5842969016531144,-0.45891122438101156,-0.007333091799869812,0.028162851845207074,-0.7218054172291483
8778,6.0,300.71872,4278.3636,0.0,0.0,0.0,0.0,0.0,-0.08748865452677917,-0.28776040408224074,-0.5628064344521705,-0.44994886512649557,0.031245332928424265,-0.0014990706936467587,-0.7025814689118923
8779,6.0,301.3973,4056.2308,0.0,0.0,0.0,0.0,0.0,-0.08749862133636299,-0.23844583582277176,-0.5348117223418075,-0.45973533108484455,-0.004297609714591056,0.004876101047808706,-0.7245993935848923
8780,6.0,300.61939,4360.8892,0.0,0.0,0.0,0.0,0.0,-0.08750858814594684,-0.2623193963314087,-0.5830856928810774,-0.4801963361841885,0.014714257858684188,-0.016685070846438284,-0.7113927019139934
8781,6.0,300.3835,4693.7751,0.0,0.0,0.0,0.0,0.0,-0.0875185549555306,-0.3052282683861847,-0.6063684880514104,-0.5151936703981566,0.008389977819401342,-0.02283543207893168,-0.6995139251616493
8782,6.0,300.02633,4790.502,0.0,0.0,0.0,0.0,0.0,-0.08752852176511444,-0.3554903876091697,-0.6086910700631314,-0.4920115416252585,0.017025227011009086,-0.028256581532457473,-0.6459214048474794
8783,6.0,299.7201,4595.3753,0.0,0.0,0.0,0.0,0.0,-0.08753848857469826,-0.2927909983112217,-0.6275923995485474,-0.47649594681898855,0.0007085754208059492,-0.019748771339051983,-0.6996001324801574
8784,6.0,299.26131000000004,4368.9673,0.0,0.0,0.0,0.0,0.0,-0.0875484553842821,-0.2858961454882527,-0.5869208445095775,-0.4552399862211886,0.025123520017498374,0.013228292136530788,-0.6652321380358004
8785,6.0,299.8543,4346.857,0.0,0.0,0.0,0.0,0.0,-0.08755842219386592,-0.24429108313215275,-0.6159237911319454,-0.4611211228491115,0.006367579863756204,0.03622312264169387,-0.7478907507185703
8786,6.0,300.0025,4484.6186,0.0,0.0,0.0,0.0,0.0,-0.08756838900344974,-0.26943025381069574,-0.5944042639181334,-0.4993775354797255,0.0030432558413709667,0.017217838762268383,-0.7078765619469773
8787,6.0,299.92363,4053.2342,0.0,0.0,0.0,0.0,0.0,-0.08757835581303355,-0.24997796958340474,-0.5407454770474235,-0.4413585409111966,-0.03418028581033157,-0.006880785061230614,-0.7528762249205984
8788,6.0,300.44682,3851.8152,0.0,0.0,0.0,0.0,0.0,-0.0875883226226174,-0.23580831541496877,-0.5482956696375695,-0.3867516559219166,-0.021430783730303684,-0.00969205475908133,-0.7296865778319582
8789,6.0,300.55998,3922.7775,0.0,0.0,0.0,0.0,0.0,-0.08759828943220119,-0.23996201260990677,-0.5246221854936786,-0.4278422101422386,-0.019925376778481583,-0.005548618241280985,-0.7231203625464233
8790,6.0,300.47176,4356.5058,0.0,0.0,0.0,0.0,0.0,-0.08760825624178503,-0.2933912578029627,-0.5968362060131475,-0.4340415073015616,0.005743614372675604,-7.767146357832663e-05,-0.7149268979977913
8791,6.0,300.21404,4721.6186,0.0,0.0,0.0,0.0,0.0,-0.08761822305136882,-0.2931460918087667,-0.6328898838538685,-0.5092181900534225,0.02127912957458658,-0.01040808577544809,-0.7184794440409004
8792,6.0,300.19187,4479.3141,0.0,0.0,0.0,0.0,0.0,-0.08762818986095267,-0.26993621011562974,-0.5901291996262175,-0.5015342383175755,0.01746462595662438,0.008594691019254962,-0.7195131212629163
8793,6.0,300.84448,4181.1077,0.0,0.0,0.0,0.0,0.0,-0.08763815667053648,-0.23469955636054277,-0.5968421841887375,-0.4394105979914496,0.036308026920573264,0.00965915169123405,-0.6822338059687343
8794,6.0,300.94684,4356.0284,0.0,0.0,0.0,0.0,0.0,-0.08764812348012033,-0.29475995603804267,-0.5454690260986015,-0.4838948814342065,0.007388645668402554,-0.00982650443472548,-0.6726143438918674
8795,6.0,300.2482,4610.6755,0.0,0.0,0.0,0.0,0.0,-0.08765809028970412,-0.3218426822633997,-0.5851230956521535,-0.4945644455172105,-0.002150550180592778,0.003422981246196947,-0.6495921667797554
8796,6.0,298.95889,4380.6686,0.0,0.0,0.0,0.0,0.0,-0.08766805709928793,-0.31986951954866366,-0.5643697071039535,-0.4473746627174416,-0.003975081264659976,0.00980366010327092,-0.6959989402997473
8797,6.0,300.00498,4168.6426,0.0,0.0,0.0,0.0,0.0,-0.08767802390887175,-0.23268061500628878,-0.5421473693557796,-0.49233527503220853,2.4889968909198674e-05,0.025364923814073077,-0.7050328350113234
8798,6.0,300.0837,4291.0627,0.0,0.0,0.0,0.0,0.0,-0.0876879907184556,-0.27634570600819774,-0.5843722165330474,-0.4436579904231346,-0.023293649105404178,-0.007375019785032784,-0.7319700382573183
8799,6.0,300.3534,4558.4702,0.0,0.0,0.0,0.0,0.0,-0.08769795752803941,-0.3131118101267297,-0.5842374846672505,-0.4883118007401226,0.0044542697311021956,0.002847502508176617,-0.7150100756985003
8800,6.0,300.28841,4548.3419,0.0,0.0,0.0,0.0,0.0,-0.08770792433762326,-0.3345017831827557,-0.5889252659898984,-0.4591553061976006,-0.011578454488954488,0.007706169068139674,-0.7157773694692263
8801,6.0,301.04649,4255.7244,0.0,0.0,0.0,0.0,0.0,-0.08771789114720702,-0.24876317390601377,-0.5987885667033304,-0.4460822115523866,0.03194917596463817,0.007761211346696923,-0.7061676649908223
8802,6.0,300.90696,4005.8534,0.0,0.0,0.0,0.0,0.0,-0.08772785795679086,-0.2452196559212958,-0.5393119308059435,-0.43314781058086066,-0.007081681449282543,0.003069561131192097,-0.6699026535767444
8803,6.0,301.43028,4375.561,0.0,0.0,0.0,0.0,0.0,-0.08773782476637468,-0.2292371352039438,-0.6218838903401614,-0.47894027083022456,0.002388386627540408,3.123787642093837e-05,-0.7025222039135434
8804,6.0,299.71554,4584.4055,0.0,0.0,0.0,0.0,0.0,-0.08774779157595852,-0.30129461871546376,-0.5995271956287275,-0.4927229850504726,-0.01836340919282738,0.0007106277791485014,-0.7129566433108424
8805,6.0,301.04072,4508.6374,0.0,0.0,0.0,0.0,0.0,-0.08775775838554234,-0.28217877405137676,-0.6080888246011944,-0.4802456004040505,-0.004005654465227317,7.120089910223163e-05,-0.6937226334200933
8806,6.0,300.8529,4036.6113,0.0,0.0,0.0,0.0,0.0,-0.08776772519512616,-0.24902683171453477,-0.5836530217445685,-0.39434919768923565,-0.014090102889834885,-0.027295197678576275,-0.7330470825836143
8807,6.0,298.8572,3997.6134,0.0,0.0,0.0,0.0,0.0,-0.08777769200470997,-0.23736373537847674,-0.5447254525127165,-0.4330854653022076,0.013451135217773686,-0.024315891800041678,-0.7090816912184144
8808,6.0,299.40017,4501.9539,0.0,0.0,0.0,0.0,0.0,-0.08778765881429382,-0.2994198831154417,-0.6125404781205384,-0.45652121057513556,0.0013819144614343388,0.013336084721919089,-0.7625932325845923
8809,6.0,299.87876,4655.8169,0.0,0.0,0.0,0.0,0.0,-0.0877976256238776,-0.3078623640086497,-0.6057339807062894,-0.5016557371370665,0.016271474314619484,-0.010309943384012189,-0.7221786985659883
8810,6.0,299.57476,4343.6894,0.0,0.0,0.0,0.0,0.0,-0.08780759243346145,-0.27823994667264473,-0.5745240841736124,-0.46760909496192454,-0.017830203552954085,-0.020291124600828082,-0.7183312562137752
8811,6.0,299.94091000000003,4270.846,0.0,0.0,0.0,0.0,0.0,-0.08781755924304524,-0.2939918111372327,-0.5746030264889035,-0.4296356830842406,0.001164346360212039,-0.004087116429541985,-0.6778384790224493
8812,6.0,300.08578,4603.3971,0.0,0.0,0.0,0.0,0.0,-0.08782752605262908,-0.3189577464461787,-0.5791279075929744,-0.5012321175352585,-0.0033002127230056374,0.008809782230607811,-0.6615644462513274
8813,6.0,300.19367,4719.7831,0.0,0.0,0.0,0.0,0.0,-0.0878374928622129,-0.34604199254668566,-0.5983828512307895,-0.4902713555060155,0.004222261093429726,0.011952750089144589,-0.6517020169329814
8814,6.0,300.88937999999996,4634.3322,0.0,0.0,0.0,0.0,0.0,-0.08784745967179675,-0.2958715521927487,-0.5972393376979334,-0.5156103695017815,-0.004385770376641836,0.004324530249872905,-0.6307320056459024
8815,6.0,300.44714,4293.1601,0.0,0.0,0.0,0.0,0.0,-0.08785742648138056,-0.2456568024119388,-0.5740016929520565,-0.4853549748283066,0.017036494352121085,0.00973878605634335,-0.6883218077370734
8816,6.0,299.71896,4201.7036,0.0,0.0,0.0,0.0,0.0,-0.08786739329096435,-0.23445716667162078,-0.6037192240749484,-0.43903656684953557,0.007451453191751173,0.01123307400686809,-0.7049298178736564
8817,6.0,300.44993999999997,4411.572,0.0,0.0,0.0,0.0,0.0,-0.08787736010054817,-0.28162025033125476,-0.5935513910439615,-0.46583609980444357,-0.005200333480432955,0.002125929317737888,-0.7567867015615323
8818,6.0,299.30854,4475.5733,0.0,0.0,0.0,0.0,0.0,-0.08788732691013201,-0.3022560309403477,-0.5984900024288644,-0.4597165048979866,-0.015555407429199183,0.0037664196318166763,-0.7176240177764763
8819,6.0,299.11877000000004,4148.2922,0.0,0.0,0.0,0.0,0.0,-0.08789729371971583,-0.26009334665671474,-0.5814401443211745,-0.41944374483337454,-0.014564436672397986,0.003727160648742116,-0.7689546598924162
8820,6.0,299.27106000000003,4103.9259999999995,0.0,0.0,0.0,0.0,0.0,-0.08790726052929967,-0.2555022293936068,-0.5353552195629465,-0.45663358001122556,-0.008055695870960283,0.02147977639913888,-0.7184102795890743
8821,6.0,299.29025,4414.2117,0.0,0.0,0.0,0.0,0.0,-0.08791722733888344,-0.27343955273388276,-0.6088005517364364,-0.4595700193310296,-0.02030803878474738,-0.004273879093274026,-0.7252057629747363
8822,6.0,299.88488,4632.4161,0.0,0.0,0.0,0.0,0.0,-0.08792719414846728,-0.3164331020995157,-0.5853901985110144,-0.5063155122269505,-0.020257177682727782,-0.013429635063901787,-0.6512307137814675
8823,6.0,299.64928,4520.4014,0.0,0.0,0.0,0.0,0.0,-0.0879371609580511,-0.29528090844445676,-0.5974581591895295,-0.4813500734105536,-0.01094520560045769,-0.005889366751860244,-0.6867093316604344
8824,6.0,299.64817,4358.2993,0.0,0.0,0.0,0.0,0.0,-0.08794712776763494,-0.2611538952713828,-0.6104417838509134,-0.4532184813441816,0.020498712188565377,0.025918782530734676,-0.6880982341025084
8825,6.0,299.98629,4283.9536,0.0,0.0,0.0,0.0,0.0,-0.08795709457721876,-0.2795006628445677,-0.5720299386549594,-0.45068432257907953,0.02178015033828348,-0.0016003809101952982,-0.6903584201730714
8826,6.0,300.64803,4376.3805,0.0,0.0,0.0,0.0,0.0,-0.08796706138680258,-0.26403629796335376,-0.5937090122295174,-0.47256508358604254,-0.0054916036714040845,-0.007156224536614374,-0.7009808883914272
8827,6.0,299.86407,4334.2237,0.0,0.0,0.0,0.0,0.0,-0.08797702819638639,-0.29676063862549473,-0.5653851154266665,-0.4553500150495476,0.0009534315631213691,-0.006235946820740034,-0.7153401216535733
8828,6.0,300.83439,4335.6287,0.0,0.0,0.0,0.0,0.0,-0.08798699500597024,-0.2952720222410797,-0.5618277260480795,-0.46082311586220054,-0.012554049175488188,0.002718620743156977,-0.7275726341483283
8829,6.0,299.09531,4148.6776,0.0,0.0,0.0,0.0,0.0,-0.08799696181555403,-0.27798180094466773,-0.5543513993902235,-0.42876121785043764,-0.013039128475361789,-0.0009558363298487009,-0.7132165622264943
8830,6.0,299.9756,4349.4491,0.0,0.0,0.0,0.0,0.0,-0.08800692862513787,-0.2982093836184747,-0.5452064018051824,-0.47870813523231454,-0.034057144512428465,-0.014664906499313585,-0.6992351699266383
8831,6.0,299.50292,4662.268,0.0,0.0,0.0,0.0,0.0,-0.08801689543472166,-0.3441979685571947,-0.5839951557733344,-0.48901994097001056,0.004425856374448016,0.023923868376101977,-0.6797598241270714
8832,6.0,298.68445,4662.7739,0.0,0.0,0.0,0.0,0.0,-0.0880268622443055,-0.3193502694024177,-0.6031687860906244,-0.49484779077517455,0.004497459111314656,0.029500357175958575,-0.7097447114213493
8833,6.0,298.2056,4396.3046,0.0,0.0,0.0,0.0,0.0,-0.08803682905388932,-0.2809365294287767,-0.5853021065473205,-0.4701281866980396,0.04345955321912396,-0.009134196744275031,-0.6836435813628684
8834,6.0,298.11307,4195.034000000001,0.0,0.0,0.0,0.0,0.0,-0.08804679586347317,-0.2642865606055527,-0.5828450662473295,-0.4280539794131386,-0.007816283617457133,-0.013166417005924188,-0.6918788424781254
8835,6.0,298.59826,4434.8652,0.0,0.0,0.0,0.0,0.0,-0.08805676267305698,-0.24439240814215274,-0.6248352447014374,-0.47886063950486557,0.01017194479989279,-0.014875098139807886,-0.7128312536109673
8836,6.0,300.44907,4374.2244,0.0,0.0,0.0,0.0,0.0,-0.08806672948264077,-0.27602746441678977,-0.6066676298784334,-0.4469598887890066,-0.0030803159704035172,0.01271918259728559,-0.7209319348479423
8837,6.0,300.28181,4141.1551,0.0,0.0,0.0,0.0,0.0,-0.08807669629222459,-0.2163623234707988,-0.6063981965443425,-0.4360472358745116,-0.01107239685901049,0.007874627470140222,-0.7417398666490254
8838,6.0,300.59982,3938.3265,0.0,0.0,0.0,0.0,0.0,-0.08808666310180843,-0.23329510052943378,-0.5374996722070875,-0.4263581331182716,-0.004260797122557936,-0.008450317572131412,-0.7354285242936442
8839,6.0,300.19372999999996,4184.694,0.0,0.0,0.0,0.0,0.0,-0.08809662991139225,-0.24585562234656078,-0.5863523301434694,-0.4398345215682876,-0.01010551257696144,-0.018203051218751286,-0.7404895058931243
8840,6.0,299.82207,4507.7676,0.0,0.0,0.0,0.0,0.0,-0.0881065967209761,-0.30265878772259674,-0.5927584215157015,-0.47483158220472854,0.008231343991695403,0.01227475793117429,-0.7476870367859653
8841,6.0,300.14047999999997,4613.9263,0.0,0.0,0.0,0.0,0.0,-0.08811656353055985,-0.27448212629177676,-0.6243656336775905,-0.5036706153584196,0.01206392794311699,-0.027812833717412975,-0.7178118540800144
8842,6.0,300.13494,4375.6033,0.0,0.0,0.0,0.0,0.0,-0.0881265303401437,-0.2961620205989157,-0.5803215060782735,-0.4535906177084086,0.0016118252660997682,-0.011959428420553688,-0.6991652961997423
8843,6.0,299.58007000000003,4494.647,0.0,0.0,0.0,0.0,0.0,-0.08813649714972752,-0.2917288487613957,-0.5900738863032584,-0.48445774186475654,0.02450512537546758,-0.007570777779177593,-0.6821828698862074
8844,6.0,300.6985,4727.4914,0.0,0.0,0.0,0.0,0.0,-0.08814646395931136,-0.3302357469492307,-0.6289900058089805,-0.47781358738152957,0.006146723765959405,0.018041594881566782,-0.6953185124600944
8845,6.0,300.7171,4507.2054,0.0,0.0,0.0,0.0,0.0,-0.08815643076889518,-0.3157960920266477,-0.5907001356600645,-0.4635816689944486,-0.007042837493448942,-0.009670621682366052,-0.6748862330010853
8846,6.0,301.64634,4421.7509,0.0,0.0,0.0,0.0,0.0,-0.088166397578479,-0.27797457647145474,-0.5874203058813704,-0.4787069801272005,0.007582650030599293,-0.02136338537340198,-0.6973293072835444
8847,6.0,301.37127000000004,4277.2889,0.0,0.0,0.0,0.0,0.0,-0.08817636438806281,-0.25464127078363674,-0.5722243205541434,-0.47332343035838553,0.0005003379141895075,-0.018512462335537782,-0.6952861593844013
8848,6.0,299.90954,4359.1561,0.0,0.0,0.0,0.0,0.0,-0.08818633119764666,-0.2806916775421118,-0.5853208516741704,-0.45906206692339857,0.026433234937757174,-0.008253892656770782,-0.7275287908165013
8849,6.0,299.38567,4470.0153,0.0,0.0,0.0,0.0,0.0,-0.08819629800723044,-0.2865676567270257,-0.5786688445026684,-0.49353655395326557,0.014434993972122986,-0.02092916920204818,-0.7243173554195573
8850,6.0,300.50997,4360.9487,0.0,0.0,0.0,0.0,0.0,-0.08820626481681426,-0.3035415210772157,-0.5674520139081535,-0.4546259769255906,0.009141646462985263,0.008030462802394972,-0.7097603560028933
8851,6.0,300.65033,4350.7802,0.0,0.0,0.0,0.0,0.0,-0.08821623162639808,-0.29454638318196474,-0.5658905448415485,-0.46209161379489155,-0.007231629595806273,-0.00998543737386094,-0.7021795632597273
8852,6.0,300.36679,4385.5637,0.0,0.0,0.0,0.0,0.0,-0.08822619843598192,-0.2606332468399987,-0.5961129379592665,-0.47635566234264354,0.0009834749048139159,0.029456515870631767,-0.7213298178972103
8853,6.0,298.88118,4475.3164,0.0,0.0,0.0,0.0,0.0,-0.08823616524556574,-0.25890373024430874,-0.6221160462030734,-0.47936467063460947,-0.033303314809031266,0.012833196538287886,-0.7232736571540523
8854,6.0,299.71353,4470.7492,0.0,0.0,0.0,0.0,0.0,-0.08824613205514956,-0.26159797239270977,-0.6049527648791894,-0.49244539505307655,0.01330569937792029,0.026643621122270675,-0.6862228601549234
8855,6.0,299.61332999999996,4363.6325,0.0,0.0,0.0,0.0,0.0,-0.0882560988647334,-0.25172177300550475,-0.6221887266327464,-0.45252482045822257,-0.00947826425688185,0.03170337770237977,-0.7350922569829573
8856,6.0,300.20755,4291.8729,0.0,0.0,0.0,0.0,0.0,-0.08826606567431719,-0.2831691449641187,-0.5941804369710435,-0.4272726115985236,0.02215712193198768,0.02750492018427427,-0.7094322149580083
8857,6.0,300.00827999999996,4225.6453,0.0,0.0,0.0,0.0,0.0,-0.088276032483901,-0.26985994278060277,-0.5816400383009024,-0.43299068588785355,-0.0024296026018581075,-0.012485829072755387,-0.7279365834517473
8858,6.0,300.13022,4272.0507,0.0,0.0,0.0,0.0,0.0,-0.08828599929348485,-0.24812084427012077,-0.5765205009781434,-0.4739553843132545,-0.008656971044601522,-0.022088856233000376,-0.7011103817542074
8859,6.0,300.69372999999996,4540.502,0.0,0.0,0.0,0.0,0.0,-0.08829596610306867,-0.30112283229350967,-0.5970920719283994,-0.4819843274431495,0.002055715645433338,-0.03267132944340917,-0.6975487063276974
8860,6.0,301.79138,4742.767,0.0,0.0,0.0,0.0,0.0,-0.08830593291265249,-0.3069359393097187,-0.6096067847085054,-0.5251400170897845,-0.02169476881860698,0.0062452734839355045,-0.6968383065500864
8861,6.0,300.40522000000004,4555.0207,0.0,0.0,0.0,0.0,0.0,-0.08831589972223627,-0.3166139875073677,-0.5871326137804774,-0.4808659729102765,0.0026343848040435375,0.0011251072368394389,-0.7068803749786614
8862,6.0,300.21351,4544.2229,0.0,0.0,0.0,0.0,0.0,-0.08832586653182012,-0.3410812619120997,-0.5756787231925664,-0.4645702971170186,0.006598299951276505,0.025116605598815976,-0.6942462912042743
8863,6.0,299.44746000000004,4635.5781,0.0,0.0,0.0,0.0,0.0,-0.08833583334140394,-0.3587083382042566,-0.5852572499653934,-0.4651343937126906,-0.017990549368028984,0.030674076707545673,-0.6879349792463963
8864,6.0,300.55167,4658.4784,0.0,0.0,0.0,0.0,0.0,-0.08834580015098775,-0.3103516053968187,-0.5962780571955625,-0.5094314589344705,0.016021498422198785,0.014670243287590286,-0.7148214895898883
8865,6.0,300.64064,4307.7474,0.0,0.0,0.0,0.0,0.0,-0.0883557669605716,-0.2530115491902957,-0.5824894154622295,-0.4739466906273966,-0.00924412313304892,0.014303653454410686,-0.6820713515802014
8866,6.0,299.94202,4054.5233,0.0,0.0,0.0,0.0,0.0,-0.08836573377015541,-0.2054038007242768,-0.5896196158859255,-0.4374504150104946,0.015538566199287085,0.02150255932763738,-0.7037717642018654
8867,6.0,299.90001,4305.9368,0.0,0.0,0.0,0.0,0.0,-0.08837570057973923,-0.2670312322114307,-0.5527762210497654,-0.48908982482940755,1.7614966940211884e-05,-0.005084348362686115,-0.6904851068330743
8868,6.0,300.88217000000003,4565.6598,0.0,0.0,0.0,0.0,0.0,-0.08838566738932302,-0.33284961809969965,-0.6054266416859574,-0.44957030475663456,-0.018012448742440283,0.007200334150567654,-0.7352858080170593
8869,6.0,299.68046,4445.0252,0.0,0.0,0.0,0.0,0.0,-0.08839563419890686,-0.27418047160450576,-0.6122458857864644,-0.4647503111297846,-0.01990909992887518,0.003142363758827157,-0.7283549746830393
8870,6.0,299.47821,4292.9539,0.0,0.0,0.0,0.0,0.0,-0.08840560100849068,-0.25957290087535073,-0.5829202899347534,-0.4624575997310116,0.007382785840424233,-0.005429390621889135,-0.7244526344404083
8871,6.0,298.88746000000003,4376.3289,0.0,0.0,0.0,0.0,0.0,-0.0884155678180745,-0.2390414444965538,-0.6116488889600454,-0.4796043752107665,0.025950351350850276,0.018037835723695782,-0.7315096579418823
8872,6.0,299.03926,4293.1505,0.0,0.0,0.0,0.0,0.0,-0.08842553462765831,-0.27134106111427775,-0.5605945500138745,-0.47307494090386154,0.030032272948454574,0.0010225614631189592,-0.7023858812450894
8873,6.0,298.93342,4255.3376,0.0,0.0,0.0,0.0,0.0,-0.08843550143724216,-0.25419029342912874,-0.5670374122322355,-0.47228865882626153,0.009926341588278641,-9.143955355988131e-05,-0.7112704026269233
8874,6.0,299.44707999999997,4287.1711,0.0,0.0,0.0,0.0,0.0,-0.08844546824682598,-0.30899490404292274,-0.5641271147650114,-0.4300709651946996,-0.005155785331836395,-0.003926352142175786,-0.7028230885307384
8875,6.0,299.09882000000005,4489.9975,0.0,0.0,0.0,0.0,0.0,-0.08845543505640982,-0.2896796922891597,-0.5899893407149145,-0.4851781018908506,-0.007812627405796293,0.014074750124319687,-0.6974443618323993
8876,6.0,300.13083,4674.4518,0.0,0.0,0.0,0.0,0.0,-0.08846540186599361,-0.3013165859776317,-0.6335306328196054,-0.48606941747381655,-0.015909257668871486,0.01896486837268678,-0.7342991658646854
8877,6.0,299.90165,4728.2821,0.0,0.0,0.0,0.0,0.0,-0.08847536867557743,-0.27773197400001176,-0.6331566726051984,-0.5263910567232526,-0.02579690475570627,0.005485580912809684,-0.6758719632283693
8878,6.0,299.35755,4419.1173,0.0,0.0,0.0,0.0,0.0,-0.08848533548516124,-0.2573568925091478,-0.6007592874853254,-0.4851851338465445,-0.015784832583091685,0.0004757909780619136,-0.7060905667907134
8879,6.0,298.92366,4225.6539,0.0,0.0,0.0,0.0,0.0,-0.08849530229474509,-0.27915248984520574,-0.5636705240049494,-0.44167023690695856,0.01027888524194699,-0.008963691577072481,-0.6490175729130474
8880,6.0,300.32117,4385.0739,0.0,0.0,0.0,0.0,0.0,-0.0885052691043289,-0.3306894094165037,-0.5607073247500045,-0.4415562158732056,0.022628523368761377,-0.01112175328463159,-0.7185288906457803
8881,6.0,300.22114,4373.7216,0.0,0.0,0.0,0.0,0.0,-0.0885152359139127,-0.3122070588474377,-0.5653380296945194,-0.45195705589718854,0.002928457847441287,-0.03837787395985126,-0.6822568979385133
8882,6.0,299.97201,4368.3879,0.0,0.0,0.0,0.0,0.0,-0.08852520272349651,-0.2794712988566697,-0.5880567991966875,-0.4603527550332795,0.013658634652752287,-0.004330988098060246,-0.7526131142671313
8883,6.0,300.22566,4461.6172,0.0,0.0,0.0,0.0,0.0,-0.08853516953308035,-0.2772591915033517,-0.5861100620445595,-0.49285097880310447,0.012453864071850687,0.011386222706482688,-0.7218120236198002
8884,6.0,300.35828,4526.2570000000005,0.0,0.0,0.0,0.0,0.0,-0.08854513634266417,-0.2666271075415467,-0.6320441847904044,-0.47719782516325854,0.030269841593400768,0.01023693770105709,-0.7555953727564573
8885,6.0,299.85612000000003,4404.2586,0.0,0.0,0.0,0.0,0.0,-0.08855510315224802,-0.2929023950272157,-0.5910030873074634,-0.45487914759557657,0.007519745944516144,0.0017093748049021582,-0.7101278314166604
8886,6.0,299.16093,4332.9038,0.0,0.0,0.0,0.0,0.0,-0.0885650699618318,-0.27670415336357373,-0.5969051374174504,-0.4434852616785876,-0.0048276986984817655,0.008565318520056122,-0.7032979785876063
8887,6.0,299.2626,4400.9467,0.0,0.0,0.0,0.0,0.0,-0.08857503677141565,-0.2717742863270337,-0.6238794762796105,-0.44212415268675653,-0.0005021469506530455,0.01163363912915079,-0.7358011267529173
8888,6.0,299.09612000000004,4275.2625,0.0,0.0,0.0,0.0,0.0,-0.08858500358099944,-0.2502046944257808,-0.5798806916222684,-0.46948765051482355,-0.0003104474487237777,0.015018854010995486,-0.7307821849000863
8889,6.0,299.78397,4126.8201,0.0,0.0,0.0,0.0,0.0,-0.08859497039058328,-0.2154061902789358,-0.5979599105065485,-0.44108417304911857,-0.006836715977281333,-0.01209643908582559,-0.7359289887830364
8890,6.0,299.42914,4185.4344,0.0,0.0,0.0,0.0,0.0,-0.0886049372001671,-0.25558224575400373,-0.5616415717397075,-0.4550437196768185,0.016370745466666784,0.0028127868372254477,-0.7097189546038073
8891,6.0,299.43856,4484.7778,0.0,0.0,0.0,0.0,0.0,-0.08861490400975092,-0.32204841256370365,-0.5724880290251695,-0.4687240145769585,0.005650120874023515,0.005844204675028095,-0.6743812291512453
8892,6.0,299.849,4609.7343,0.0,0.0,0.0,0.0,0.0,-0.08862487081933473,-0.31631322448018473,-0.6088868502474534,-0.4760440575393905,0.03835865868495487,-0.022574897107218876,-0.7150173710992203
8893,6.0,299.87872000000004,4547.8886,0.0,0.0,0.0,0.0,0.0,-0.08863483762891858,-0.3094316249685237,-0.5656632728441184,-0.5073496656765135,0.004987834568135945,-0.02700179490011968,-0.7080779960668574
8894,6.0,300.14558,4532.0182,0.0,0.0,0.0,0.0,0.0,-0.0886448044385024,-0.29313945502061173,-0.5952716971962425,-0.4892092160886905,0.02751053055007797,0.01839060583876148,-0.7421067949077383
8895,6.0,300.00614,4558.5057,0.0,0.0,0.0,0.0,0.0,-0.08865477124808624,-0.29299851193170173,-0.5973937570131734,-0.4952796379677945,0.0025397622408050175,0.021732925790872777,-0.7043494788788813
8896,6.0,300.07959,4576.9825,0.0,0.0,0.0,0.0,0.0,-0.08866473805767,-0.29757398461326573,-0.5926566202781544,-0.5010577979880546,-0.0016281280549087286,0.030725156671586866,-0.6971830648966113
8897,6.0,299.62937999999997,4380.1009,0.0,0.0,0.0,0.0,0.0,-0.08867470486725385,-0.3143235964513237,-0.5782312116519774,-0.43888649437722455,-0.03121774111495117,0.0005846586522038165,-0.6524202288688634
8898,6.0,299.29491,4261.9991,0.0,0.0,0.0,0.0,0.0,-0.08868467167683766,-0.2753818417180718,-0.5612689186179295,-0.4588905540789716,-0.01802511335544018,0.01109922468190819,-0.6663440179005343
8899,6.0,299.47954,4428.9411,0.0,0.0,0.0,0.0,0.0,-0.0886946384864215,-0.2721689269759817,-0.5962345279712664,-0.4778840386609825,-0.02397203321960548,0.0004303086736681596,-0.6684992413932384
8900,6.0,298.66696,4707.1473,0.0,0.0,0.0,0.0,0.0,-0.08870460529600532,-0.2917668557726467,-0.6452844049071124,-0.4938039709196575,-0.01626304103403718,-0.02089122095930298,-0.7287687049638714
8901,6.0,298.65954,4640.4434,0.0,0.0,0.0,0.0,0.0,-0.08871457210558914,-0.3145088185696037,-0.5924427231820444,-0.5036273901091535,0.007404589158726054,-0.02085100404958388,-0.7133354468607274
8902,6.0,298.70761,4364.0678,0.0,0.0,0.0,0.0,0.0,-0.08872453891517293,-0.28519281819633974,-0.5819769946216574,-0.45939783774153653,0.011698625950814489,0.01188434050864309,-0.7488391224146673
8903,6.0,300.18018,4234.3661,0.0,0.0,0.0,0.0,0.0,-0.08873450572475677,-0.2715932793291697,-0.5582285401028675,-0.45731976311144656,0.048171919028948254,0.018622458739893585,-0.7103244728635673
8904,6.0,300.71361,4251.4722,0.0,0.0,0.0,0.0,0.0,-0.08874447253434059,-0.25708355816217177,-0.5760038650171555,-0.45925396635983756,0.0038385029532057463,0.012180114292333689,-0.7481610250502443
8905,6.0,300.72244,4362.6447,0.0,0.0,0.0,0.0,0.0,-0.08875443934392444,-0.23742977901999476,-0.6266780629233094,-0.4620272217510365,0.00885948934208852,-0.014095480208115586,-0.7404152245282932
8906,6.0,300.43009,4165.0832,0.0,0.0,0.0,0.0,0.0,-0.08876440615350822,-0.24493519608822178,-0.5700558640151334,-0.45109022043663854,-0.013830754433989187,0.02006775564278328,-0.7409434318054233
8907,6.0,300.27533999999997,4284.8369,0.0,0.0,0.0,0.0,0.0,-0.08877437296309207,-0.2462047781985198,-0.6120942833065024,-0.4441843738500846,-0.01159451956928999,0.036897320006481965,-0.7125754484907213
8908,6.0,299.79846000000003,4476.5702,0.0,0.0,0.0,0.0,0.0,-0.08878433977267586,-0.3099852344256607,-0.6240609696375224,-0.4267193466464206,-0.02465274172953618,0.006975711599499133,-0.7171264613148712
8909,6.0,299.56149,4764.8501,0.0,0.0,0.0,0.0,0.0,-0.0887943065822597,-0.34674882568394466,-0.5890981061919565,-0.5125485100845996,-0.02124483308520178,-0.022625271849190477,-0.6464758350371974
8910,6.0,299.5743,4849.3054,0.0,0.0,0.0,0.0,0.0,-0.08880427339184352,-0.3462115092884157,-0.6322813258438084,-0.49557491931193653,-0.007971016128303043,-0.00998930028854218,-0.6727270578329914
8911,6.0,299.94102999999996,4610.4716,0.0,0.0,0.0,0.0,0.0,-0.08881424020142734,-0.3082697209463527,-0.5747465533655685,-0.5184519787447265,0.015050573805375986,-0.012323052470690588,-0.6545698288235124
8912,6.0,299.01072999999997,4471.7105,0.0,0.0,0.0,0.0,0.0,-0.08882420701101115,-0.26862690860141175,-0.5891990765644215,-0.5014623583554816,0.005457295934943175,0.006798385435273404,-0.7314235215508813
8913,6.0,299.21466000000004,4645.86,0.0,0.0,0.0,0.0,0.0,-0.088834173820595,-0.3163176827806247,-0.5970530212695454,-0.49885472882562854,-0.011699352451136189,-0.008738441418892021,-0.6952122427896062
8914,6.0,299.19749,4541.3738,0.0,0.0,0.0,0.0,0.0,-0.08884414063017881,-0.3355343559621627,-0.5505732228148464,-0.49435666845170456,0.014810933063975285,0.01857312257927448,-0.7154117584356433
8915,6.0,299.69928,4245.9871,0.0,0.0,0.0,0.0,0.0,-0.08885410743976266,-0.2954450752256587,-0.5661877918908844,-0.4290411687205666,0.016048094210823587,-0.0037800304177599566,-0.6927053607171964
8916,6.0,300.08049,4209.3665,0.0,0.0,0.0,0.0,0.0,-0.08886407424934642,-0.24335994682025677,-0.5803126705374014,-0.4558697110258376,-0.0034902284261837265,-0.02224295738770898,-0.7214542652744923
8917,6.0,300.51381000000003,4581.292,0.0,0.0,0.0,0.0,0.0,-0.08887404105893026,-0.3047028779443327,-0.6099408836639784,-0.47795462166294855,-0.005487010000750725,-0.022824611581113777,-0.6976403142692383
8918,6.0,299.43764,4599.2126,0.0,0.0,0.0,0.0,0.0,-0.08888400786851408,-0.2646413501280677,-0.6541542645599994,-0.47925016324080855,-0.008771207799300811,0.03225831857014817,-0.7411660732498963
8919,6.0,300.55472000000003,4375.8071,0.0,0.0,0.0,0.0,0.0,-0.08889397467809793,-0.26397454036975876,-0.5937970636632075,-0.47236448033124456,-0.009030409131231992,0.03033592272517247,-0.7067718356279493
8920,6.0,301.10876,4096.1011,0.0,0.0,0.0,0.0,0.0,-0.08890394148768174,-0.24621874078489775,-0.5867130978415744,-0.4121806363940616,-0.03305250805152857,0.019351631002107284,-0.7351388158250522
8921,6.0,299.89124,4047.5471,0.0,0.0,0.0,0.0,0.0,-0.08891390829726556,-0.23582209561632878,-0.5590852227974155,-0.43544593273516763,-0.02635060135235187,-0.016572649734593183,-0.7181007114185223
8922,6.0,299.44576,4357.6121,0.0,0.0,0.0,0.0,0.0,-0.08892387510684935,-0.2845760021979647,-0.5567905862234525,-0.48323867027194356,-0.02112279724315778,-0.0017930734174875682,-0.7163744777531563
8923,6.0,299.39862,4576.1924,0.0,0.0,0.0,0.0,0.0,-0.08893384191643319,-0.27596334595046174,-0.5975614499047234,-0.5175234160880845,0.016929982514859183,-0.02063723056998608,-0.7320853359861973
8924,6.0,299.92702,4328.2224,0.0,0.0,0.0,0.0,0.0,-0.08894380872601701,-0.2299984609315808,-0.6010608104500834,-0.4846122726375075,0.02032070846399778,-0.028058103063119174,-0.7510160699895153
8925,6.0,299.65892,4314.2613,0.0,0.0,0.0,0.0,0.0,-0.08895377553560085,-0.25189878779797475,-0.5949419856137024,-0.4645869245511596,0.03458183074546097,-0.023649343460258477,-0.7357408181069653
8926,6.0,300.39137999999997,4740.8465,0.0,0.0,0.0,0.0,0.0,-0.08896374234518464,-0.34586406582912566,-0.6320004123860844,-0.4632344585826816,0.04540290712916805,0.02135578802415218,-0.7077947825314063
8927,6.0,300.47288,4803.5535,0.0,0.0,0.0,0.0,0.0,-0.08897370915476849,-0.37899502375639665,-0.5831861464959914,-0.4979791388842146,0.016976951723244683,0.003104671057757177,-0.6886183860413433
8928,6.0,299.95707000000004,4456.0039,0.0,0.0,0.0,0.0,0.0,-0.08898367596435228,-0.3000136780715447,-0.5962488046651755,-0.4582514465783966,-0.014995574589947986,-0.008703672045685552,-0.6966667329106534
8929,6.0,300.11204,4327.4628,0.0,0.0,0.0,0.0,0.0,-0.08899364277393612,-0.27003011813489775,-0.5895240461364935,-0.4558864803149926,-0.03970098404643206,-0.026271249684020472,-0.6886804881399723
8930,6.0,300.5631,4538.2993,0.0,0.0,0.0,0.0,0.0,-0.08900360958351994,-0.26443034079474276,-0.5942277760157154,-0.5208715591885205,0.0008944780479856099,0.029924251368543677,-0.6925461791264863
8931,6.0,300.44461,4674.0705,0.0,0.0,0.0,0.0,0.0,-0.08901357639310375,-0.3162813780295417,-0.6065772581020145,-0.49794209446055854,-0.029297365690674874,0.013409993210713287,-0.7096251681745513
8932,6.0,299.82738,4558.7879,0.0,0.0,0.0,0.0,0.0,-0.08902354320268757,-0.3033224969355997,-0.5788334571139144,-0.5036017244841204,-0.007418279180827153,0.0008335348845559882,-0.7252999547040323
8933,6.0,299.82486,4274.7073,0.0,0.0,0.0,0.0,0.0,-0.08903351001227142,-0.2782085764495488,-0.5752593997711825,-0.4459363136704875,0.009512118057297961,-0.026001219545620572,-0.7254715182109642
8934,6.0,300.39421,4219.5455,0.0,0.0,0.0,0.0,0.0,-0.08904347682185523,-0.2462771850506658,-0.5801305793619305,-0.45622870553626754,0.04313070695216936,0.02465621616412908,-0.7337202048900463
8935,6.0,300.4773,4477.1896,0.0,0.0,0.0,0.0,0.0,-0.08905344363143908,-0.2683790980244547,-0.6066115667504004,-0.4859631782008315,0.04862985639839316,-0.0007225315527808122,-0.7369628585225713
8936,6.0,300.22332,4617.0837,0.0,0.0,0.0,0.0,0.0,-0.08906341044102284,-0.2774992304520417,-0.6312751178320034,-0.4947037978034636,0.02337896983007468,-0.022732654068288276,-0.7564167842150242
8937,6.0,299.59828,4330.4223,0.0,0.0,0.0,0.0,0.0,-0.08907337725060668,-0.2562488832597958,-0.6179588532952904,-0.4421325120000816,-0.002375280338821918,-0.03260269289488527,-0.7369612981174173
8938,6.0,298.17245,3975.0443,0.0,0.0,0.0,0.0,0.0,-0.0890833440601905,-0.23188888164315075,-0.5710891562021114,-0.4053361826310666,-0.014545063330485986,-0.002377418195207908,-0.7096531034798083
8939,6.0,298.79742000000005,4243.7968,0.0,0.0,0.0,0.0,0.0,-0.08909331086977434,-0.2866300830656867,-0.5864986029279055,-0.41687958373281164,-0.007675019429590442,-0.008228917966980973,-0.7135141233833613
8940,6.0,299.30365,4481.2168,0.0,0.0,0.0,0.0,0.0,-0.08910327767935816,-0.2917138121299117,-0.5937201883781205,-0.4767439904434685,-0.028163155820237075,-0.004503498689860715,-0.7011263505757833
8941,6.0,299.71861,4389.2453,0.0,0.0,0.0,0.0,0.0,-0.08911324448894198,-0.2544231383021088,-0.5972257094840885,-0.4825721442236625,-0.031012599512955267,-0.006016135586446354,-0.7251451807512573
8942,6.0,299.29146000000003,4396.21,0.0,0.0,0.0,0.0,0.0,-0.08912321129852577,-0.25638752627097877,-0.5857293029219814,-0.4942212475758395,0.0006687496762879544,0.04506766320108205,-0.7063692105682133
8943,6.0,299.62745,4522.1971,0.0,0.0,0.0,0.0,0.0,-0.08913317810810961,-0.3091745735506547,-0.5741622525629024,-0.4912981628923535,0.021318902680761878,0.022702646666576776,-0.7299114180291483
8944,6.0,299.70062,4736.1034,0.0,0.0,0.0,0.0,0.0,-0.08914314491769343,-0.34447985473501463,-0.5794504048348025,-0.5157269033957825,0.0015637601264061084,-0.009546102769626991,-0.6938632725339733
8945,6.0,299.85388,4753.4241,0.0,0.0,0.0,0.0,0.0,-0.08915311172727727,-0.34747289420540467,-0.5864598765090835,-0.5109894626857335,-0.022380897203322578,-0.040500602521848256,-0.7143110445870113
8946,6.0,300.04336,4362.6738,0.0,0.0,0.0,0.0,0.0,-0.08916307853686106,-0.3051076105642767,-0.5552220953336544,-0.4658141832047806,0.0026118465754441877,0.0036260029263336263,-0.6851295227670193
8947,6.0,300.89948,4310.7928,0.0,0.0,0.0,0.0,0.0,-0.0891730453464449,-0.2686376085224677,-0.5759245174018245,-0.4658112650444926,0.03583734590462067,0.0006526870378851953,-0.7175820793548373
8948,6.0,300.3163,4517.4756,0.0,0.0,0.0,0.0,0.0,-0.0891830121560287,-0.29229431324470273,-0.6030355437024745,-0.4778699240870895,0.022427528999424778,-0.01027558407312119,-0.7139531443866893
8949,6.0,300.3923,4702.1065,0.0,0.0,0.0,0.0,0.0,-0.08919297896561254,-0.3053642364171037,-0.6328749789448974,-0.4910837591711935,-0.006309968590895414,-0.017061591543847985,-0.7040349457828394
8950,6.0,302.58427,4436.0572,0.0,0.0,0.0,0.0,0.0,-0.08920294577519636,-0.2795510517720407,-0.6094863396691185,-0.45941324927555754,-0.004124693214800527,0.009581218573042652,-0.7065013687787562
8951,6.0,300.28235,4148.0788,0.0,0.0,0.0,0.0,0.0,-0.08921291258478017,-0.2309857211665158,-0.5810917788042934,-0.44883487770155356,-0.027028472762002577,0.015456280158666087,-0.7008013911362123
8952,6.0,300.46378,4409.0927,0.0,0.0,0.0,0.0,0.0,-0.08922287939436399,-0.27835522413652175,-0.5816966181864864,-0.4802022332997706,-0.03740180405902067,-0.009493021231338251,-0.7178305181468563
8953,6.0,300.33282,4647.4027,0.0,0.0,0.0,0.0,0.0,-0.08923284620394784,-0.27555691107034974,-0.6190723543601844,-0.5180650995915445,-0.040424200424557966,-0.00024905653007496574,-0.7315891474122272
8954,6.0,299.97251,4539.6311,0.0,0.0,0.0,0.0,0.0,-0.08924281301353165,-0.2863990519103857,-0.6055059183737814,-0.4880295295272645,-0.008195000433133572,0.03085681028358007,-0.7377993167451232
8955,6.0,299.90653,4463.8105,0.0,0.0,0.0,0.0,0.0,-0.08925277982311544,-0.29364565450556973,-0.6013431120604444,-0.46189816408579953,0.004981726595208136,0.013614863261682385,-0.7271642436955232
8956,6.0,300.43143,4204.5419,0.0,0.0,0.0,0.0,0.0,-0.08926274663269926,-0.26900978541669873,-0.5594453420154565,-0.4496206126240996,0.001877788927873338,-0.007840222562994721,-0.7048509971483774
8957,6.0,299.68382,4318.4942,0.0,0.0,0.0,0.0,0.0,-0.0892727134422831,-0.2899413337299817,-0.5877288608018225,-0.4350442196005216,0.003510901160023966,-0.02725666884352377,-0.7172867473481903
8958,6.0,300.23531,4790.9463,0.0,0.0,0.0,0.0,0.0,-0.08928268025186692,-0.33720989672502566,-0.6160874006255924,-0.5030307580527705,0.021821813155895278,0.00999461853434205,-0.6762652461221833
8959,6.0,299.76338,4566.6535,0.0,0.0,0.0,0.0,0.0,-0.08929264706145076,-0.2977437951975247,-0.6207259278608794,-0.46967892173620057,0.00991188321862671,0.000985309647432491,-0.6979692557817023
8960,6.0,298.98877999999996,4254.6265,0.0,0.0,0.0,0.0,0.0,-0.08930261387103458,-0.2715259184625217,-0.5770252616479594,-0.4447490479983136,0.005242131972233145,-0.011454736651744488,-0.6864516317625013
8961,6.0,298.49012,4541.9458,0.0,0.0,0.0,0.0,0.0,-0.0893125806806184,-0.3016510497031407,-0.5925980848198774,-0.4863889661578535,-0.02365086536190868,-0.02422760731882868,-0.7071824045684693
8962,6.0,298.22572,4717.5267,0.0,0.0,0.0,0.0,0.0,-0.08932254749020219,-0.3185020777437077,-0.6159170530187804,-0.49959116913080953,-0.025934645974300275,-0.005450777291749835,-0.6789155030837434
8963,6.0,299.29169,4560.8682,0.0,0.0,0.0,0.0,0.0,-0.08933251429978603,-0.3137297710977177,-0.5676840988435584,-0.5049761678472675,-0.028717297233676574,0.005058801997189885,-0.7110778952404243
8964,6.0,299.69032000000004,4382.6236,0.0,0.0,0.0,0.0,0.0,-0.08934248110936985,-0.29483058970251375,-0.5650274178763645,-0.4723501225773275,-0.02243685292684498,0.0016175315866879384,-0.6978100944559944
8965,6.0,299.25827000000004,4207.6102,0.0,0.0,0.0,0.0,0.0,-0.08935244791895366,-0.2708899013747517,-0.5719556268926255,-0.43616292877092955,0.004403875737378696,0.02306795777813018,-0.7403016999870893
8966,6.0,300.77599,4555.1866,0.0,0.0,0.0,0.0,0.0,-0.08936241472853748,-0.29013970783455967,-0.6021948906245084,-0.49232838493152853,0.022437515592410376,0.04364639755081406,-0.7296160454924973
8967,6.0,300.76931,4824.5878,0.0,0.0,0.0,0.0,0.0,-0.08937238153812133,-0.3261599078919767,-0.6538839598308224,-0.48651037378483547,0.030864460321835072,0.011715296954709789,-0.7598565656545043
8968,6.0,300.16272000000004,4559.1843,0.0,0.0,0.0,0.0,0.0,-0.08938234834770512,-0.27924866754469774,-0.6253084527631394,-0.4813210539276896,0.012185791532643988,-0.03873777938212116,-0.7119427548632794
8969,6.0,300.70743999999996,4034.0252,0.0,0.0,0.0,0.0,0.0,-0.08939231515728893,-0.2212731920679638,-0.5862094821443715,-0.4187602569784197,-0.001966251031828868,-0.052500771702422754,-0.7258327418716143
8970,6.0,301.07788,4041.055,0.0,0.0,0.0,0.0,0.0,-0.08940228196687278,-0.20401139243685681,-0.5945191259494693,-0.42984928633782155,0.003381229161251337,-0.01048010759255609,-0.7127924765296403
8971,6.0,298.54345,4581.6466,0.0,0.0,0.0,0.0,0.0,-0.0894122487764566,-0.2894877320577147,-0.6155730850073334,-0.4876453557518496,-0.012085905337785988,0.00998325361724542,-0.7236010382613624
8972,6.0,299.11752,4688.1983,0.0,0.0,0.0,0.0,0.0,-0.08942221558604041,-0.2966382988084207,-0.6210825817635784,-0.5073743585814505,-0.013728295597127287,0.01056538981372279,-0.7368397790329243
8973,6.0,299.79441,4262.3417,0.0,0.0,0.0,0.0,0.0,-0.08943218239562423,-0.26277194422357175,-0.5666454566960525,-0.46622804520812555,-0.005688845266345314,0.017869355536818083,-0.7366187587886113
8974,6.0,299.84397,4303.9647,0.0,0.0,0.0,0.0,0.0,-0.08944214920520807,-0.26594945600716774,-0.5711212458327785,-0.47122708682899256,0.0019306171536370782,0.017150989586920882,-0.7176306039021263
8975,6.0,299.90002000000004,4580.9628,0.0,0.0,0.0,0.0,0.0,-0.08945211601479186,-0.3135404149190297,-0.5768195009501524,-0.5021383684246985,-0.005351922382843615,-0.009102173177514552,-0.6827751652321623
8976,6.0,300.07991,4743.1613,0.0,0.0,0.0,0.0,0.0,-0.08946208282437568,-0.3425571518752587,-0.5985656516813305,-0.5006798050382495,0.001104034877159759,-0.03727452870070957,-0.6946102911701983
8977,6.0,299.71282,4785.1343,0.0,0.0,0.0,0.0,0.0,-0.0894720496339595,-0.3476903478093657,-0.5982837553710094,-0.5085872493486535,0.022418349966768877,-0.003128788740612407,-0.6933973700054923
8978,6.0,300.34386,4432.9632,0.0,0.0,0.0,0.0,0.0,-0.08948201644354334,-0.31067734503896666,-0.5821012697464225,-0.4547314967910045,0.02076991871033138,0.005575077545117314,-0.7212947189137463
8979,6.0,300.07726,4202.1999,0.0,0.0,0.0,0.0,0.0,-0.08949198325312716,-0.24791765722756778,-0.5781165624031624,-0.4513296311702666,0.0037654927106251963,0.011098915640627689,-0.7156510171817563
8980,6.0,300.46055,4694.6826,0.0,0.0,0.0,0.0,0.0,-0.089501950062711,-0.3075590779887177,-0.6275300238723914,-0.49197718231436754,-0.01798643861237328,-0.03259624862424927,-0.7181066895941123
8981,6.0,299.88015,4764.4676,0.0,0.0,0.0,0.0,0.0,-0.08951191687229482,-0.3096148104541027,-0.6033903940199954,-0.5352739771699285,0.0061190364030018745,-0.01899593158100248,-0.6790578241927894
8982,6.0,300.57077000000004,4179.6492,0.0,0.0,0.0,0.0,0.0,-0.0895218836818786,-0.24018346855176279,-0.5825676687674524,-0.4477578333752576,0.010079447832714052,-0.006731623804734545,-0.7182598220817253
8983,6.0,300.35357999999997,4009.7290000000003,0.0,0.0,0.0,0.0,0.0,-0.08953185049146242,-0.2195725125701198,-0.5693592545713835,-0.4299257157928646,0.020146456804550482,-0.007271499568691134,-0.7349929078106523
8984,6.0,299.77959,4472.1761,0.0,0.0,0.0,0.0,0.0,-0.08954181730104627,-0.2932711066061047,-0.5990268425968464,-0.4671319149598306,-0.01019989327740109,-0.024193780977490274,-0.7465750454637202
8985,6.0,300.0469,4811.0933,0.0,0.0,0.0,0.0,0.0,-0.08955178411063008,-0.30541873913998274,-0.6528477494835564,-0.5041857517092595,0.0073165620430384526,0.011572993070915489,-0.7363912436111573
8986,6.0,301.68183999999997,4620.1575,0.0,0.0,0.0,0.0,0.0,-0.0895617509202139,-0.3194284011176287,-0.6059932207443745,-0.47899088267271955,-0.013020859576058787,0.017625036619705683,-0.7493368207312863
8987,6.0,299.08295,4326.0035,0.0,0.0,0.0,0.0,0.0,-0.08957171772979772,-0.27171867916154574,-0.5919855244719224,-0.45129285019163656,-0.005812394093438635,0.008760120715381601,-0.7134655279085653
8988,6.0,299.05262,4186.9515,0.0,0.0,0.0,0.0,0.0,-0.08958168453938156,-0.2569994482713707,-0.5794401710087924,-0.4362891088058826,-0.013180549818318987,-0.026568240381081177,-0.7163498659082274
8989,6.0,299.33804,4491.4093,0.0,0.0,0.0,0.0,0.0,-0.08959165134896535,-0.27939710868434775,-0.6090671581027485,-0.47681202005518253,0.007119975919586913,0.003731009985872017,-0.7106048999612433
8990,6.0,299.98078,4933.4231,0.0,0.0,0.0,0.0,0.0,-0.0896016181585492,-0.3465948116687447,-0.6552377328919294,-0.4978048801320165,0.02077925986300328,0.0028685011032490173,-0.7245475557097764
8991,6.0,299.74762999999996,4456.8144,0.0,0.0,0.0,0.0,0.0,-0.08961158496813298,-0.27804277833568575,-0.5940713707302795,-0.4826461317459645,-0.0016912390466622981,0.00924196683551111,-0.7084162898777444
8992,6.0,300.58771,3961.4624,0.0,0.0,0.0,0.0,0.0,-0.08962155177771683,-0.22682527572591177,-0.5675190809322724,-0.40984130535818764,-0.008769252125282801,-0.03888953587609836,-0.7281030199131733
8993,6.0,300.9928,4440.6996,0.0,0.0,0.0,0.0,0.0,-0.08963151858730065,-0.27405947941006475,-0.5762471058361615,-0.4995552088847605,-0.02854069990024777,0.008982246922178751,-0.6796532099515493
8994,6.0,301.12681000000003,5071.2092,0.0,0.0,0.0,0.0,0.0,-0.08964148539688449,-0.36780835761735864,-0.6131612863243074,-0.5605513348971094,0.006925607395304234,0.02259829406527798,-0.6847646412735083
8995,6.0,301.20597000000004,4824.2632,0.0,0.0,0.0,0.0,0.0,-0.08965145220646828,-0.3412325401520297,-0.6121815241401124,-0.5130414765232515,-0.0011088907769389988,0.007600256568311923,-0.6978237631998434
8996,6.0,301.10778999999997,4482.6312,0.0,0.0,0.0,0.0,0.0,-0.0896614190160521,-0.29603203074358675,-0.5940885858494784,-0.47248734703837053,0.0047970117099281956,-0.02775846170379687,-0.7283034914454584
8997,6.0,299.05449,4545.8565,0.0,0.0,0.0,0.0,0.0,-0.08967138582563591,-0.3108850309119637,-0.6049655014329465,-0.46597635388328557,-0.01120962942605429,0.00987712701767154,-0.7115864758631174
8998,6.0,298.89947,4740.0248,0.0,0.0,0.0,0.0,0.0,-0.08968135263521976,-0.3315209939060747,-0.6215652434487134,-0.4877629535584555,0.014836906717038684,0.03287377073388857,-0.7217372761599233
8999,6.0,298.95709,4619.6634,0.0,0.0,0.0,0.0,0.0,-0.08969131944480357,-0.2984023571000197,-0.6149989572356714,-0.4908610062692095,-0.04334567302713486,0.02926555470378537,-0.6994114551790364
9000,6.0,299.04306,4396.5913,0.0,0.0,0.0,0.0,0.0,-0.08970128625438742,-0.2823360608643997,-0.5883316432863125,-0.4657862681645255,-0.02654416049245468,-0.01025515492460499,-0.6910520303965254
9001,6.0,299.34602,4065.0793,0.0,0.0,0.0,0.0,0.0,-0.08971125306397118,-0.23584320161591177,-0.5689115601471995,-0.43092783027426557,-0.027091409778713972,0.005754900256264434,-0.7152770367023473
9002,6.0,300.19349,4301.4546,0.0,0.0,0.0,0.0,0.0,-0.08972121987355502,-0.26365303611302876,-0.5999653249719674,-0.4439164198611396,-0.011529713106144089,-0.0030406295984367776,-0.7286713417617623
9003,6.0,300.4015,4903.8148,0.0,0.0,0.0,0.0,0.0,-0.08973118668313884,-0.3315399923454497,-0.6434117262047934,-0.5156855323941996,0.0039178288849846055,-0.025621219347367476,-0.7380616066660093
9004,6.0,300.43987000000004,4785.781,0.0,0.0,0.0,0.0,0.0,-0.08974115349272269,-0.3087853436572407,-0.6082515019047494,-0.5377210774864385,-0.002150653430777968,-0.03226403330071217,-0.7155118878105253
9005,6.0,299.96835,4115.8893,0.0,0.0,0.0,0.0,0.0,-0.0897511203023065,-0.22999888649662278,-0.5692496310430645,-0.4518790457719896,0.009440771166081571,0.03405579790304557,-0.7300199472473593
9006,6.0,300.61613,4355.5598,0.0,0.0,0.0,0.0,0.0,-0.08976108711189032,-0.26727272010776376,-0.5768674580773854,-0.4798412426866435,0.017090244230175786,0.04794611320441296,-0.7023178212358724
9007,6.0,300.72287,4813.722,0.0,0.0,0.0,0.0,0.0,-0.08977105392147414,-0.33615572145348666,-0.6140325496877944,-0.5130630283528785,-0.015684641399953587,0.02909691543664197,-0.7064082612270673
9008,6.0,300.25548,4574.3229,0.0,0.0,0.0,0.0,0.0,-0.08978102073105798,-0.3066637195378527,-0.5994556804366694,-0.4843605407826636,-0.02073216805135568,-0.03699536411265817,-0.7236686625730363
9009,6.0,300.89722,4291.9277,0.0,0.0,0.0,0.0,0.0,-0.08979098754064177,-0.28376060944499176,-0.5760864550328064,-0.44479179702003263,-0.0073420776057316435,-0.006606561587291863,-0.7184172406172613
9010,6.0,299.26376,4235.3494,0.0,0.0,0.0,0.0,0.0,-0.08980095435022561,-0.27491186592418876,-0.5503974137899955,-0.46213119134379754,0.007458829247179133,0.0005685425445932804,-0.6995289617931333
9011,6.0,298.37221,4342.7442,0.0,0.0,0.0,0.0,0.0,-0.0898109211598094,-0.27135140639779876,-0.5745372564249124,-0.4741971356546136,0.016431505008913286,-0.007450588382790823,-0.7029350830642913
9012,6.0,299.71805,4805.255,0.0,0.0,0.0,0.0,0.0,-0.08982088796939325,-0.3236296906697637,-0.6073879899045275,-0.5296598522083574,-0.005744767045989365,-0.022251363310538577,-0.6895544670137274
9013,6.0,299.68859,4903.4998,0.0,0.0,0.0,0.0,0.0,-0.08983085477897707,-0.3305192644597117,-0.6363062490835374,-0.5237159852667435,0.03676758143717776,0.024057129002753776,-0.7066695480303543
9014,6.0,299.05637,4365.0422,0.0,0.0,0.0,0.0,0.0,-0.08984082158856091,-0.2963582770107847,-0.5779841508800945,-0.4525214058053856,0.015808168746144786,0.02630165529302127,-0.7172934044013473
9015,6.0,300.16423,4204.0879,0.0,0.0,0.0,0.0,0.0,-0.0898507883981447,-0.25678603753530876,-0.5814649182861193,-0.43968678970370756,0.012508173263960589,-0.015616621920740587,-0.7454085716835983
9016,6.0,299.88831,4582.8755,0.0,0.0,0.0,0.0,0.0,-0.08986075520772852,-0.3167711831278817,-0.6034269216861005,-0.47288159251977957,-0.026029003876612677,-0.04037936714738326,-0.7092122991563043
9017,6.0,300.52392000000003,4599.4472,0.0,0.0,0.0,0.0,0.0,-0.08987072201731233,-0.27684888600785773,-0.6047961670762344,-0.5164720373868216,-0.014104186052974787,0.022256159023261876,-0.7125373705519633
9018,6.0,301.04082,4057.558,0.0,0.0,0.0,0.0,0.0,-0.08988068882689618,-0.24584546958055875,-0.5758525766447244,-0.4116982685514556,-0.012721595145773687,0.045727349811188055,-0.7131874008886163
9019,6.0,300.41866,4181.2411,0.0,0.0,0.0,0.0,0.0,-0.08989065563648,-0.24600028406333777,-0.5993351746022765,-0.42565742001161655,0.011717952683221889,0.008037645631028862,-0.7184329257288092
9020,6.0,300.08585,4696.4186,0.0,0.0,0.0,0.0,0.0,-0.08990062244606384,-0.3182163614805097,-0.6406380655135544,-0.4687395578334925,-0.008665957458413412,-0.02205769980567548,-0.7248727481968703
9021,6.0,299.422,4693.7362,0.0,0.0,0.0,0.0,0.0,-0.0899105892556476,-0.28109464710688176,-0.6459716823174414,-0.4997122829152626,0.01856539350751168,-0.024678721462100178,-0.7346611697279123
9022,6.0,299.52948,4756.4322,0.0,0.0,0.0,0.0,0.0,-0.08992055606523144,-0.3036537587907927,-0.6287251321003394,-0.5134577297968325,0.012956095669417089,0.007343458564292933,-0.7242215019600973
9023,6.0,299.14105,4562.1483,0.0,0.0,0.0,0.0,0.0,-0.08993052287481526,-0.29825604378557974,-0.5989125378530654,-0.4896105847183025,-0.003233438122865497,-0.0055715765633717945,-0.7054410126816073
9024,6.0,298.73782,4129.7513,0.0,0.0,0.0,0.0,0.0,-0.0899404896843991,-0.25098450183524174,-0.5535209700057664,-0.45083579333652857,-0.013257961112708888,-0.003810029004195587,-0.7092046288530474
9025,6.0,299.23737,4361.7315,0.0,0.0,0.0,0.0,0.0,-0.08995045649398292,-0.2986005690845817,-0.5756977925594485,-0.45155909178791254,-0.0018084016623503482,0.03318534817938887,-0.7131612691685373
9026,6.0,298.85725,4683.5125,0.0,0.0,0.0,0.0,0.0,-0.08996042330356674,-0.3492735105606117,-0.5843574433465895,-0.4900398987856725,0.02101232055825458,0.024340991018268775,-0.7013388696517573
9027,6.0,299.24224,4593.7727,0.0,0.0,0.0,0.0,0.0,-0.08997039011315056,-0.3012709897231317,-0.6228568536161854,-0.47226435095636254,0.02807064000660647,-0.02005553078032678,-0.7257872165446213
9028,6.0,299.61942,4442.8936,0.0,0.0,0.0,0.0,0.0,-0.0899803569227344,-0.28246957683007673,-0.6028378282104614,-0.46522131030626857,-0.004876627633885675,-0.02736136797635677,-0.7048780306610453
9029,6.0,300.06866,4668.3658,0.0,0.0,0.0,0.0,0.0,-0.08999032373231819,-0.29160734994190474,-0.6205025974063384,-0.5069566867577295,0.014703029021075986,-0.005979442253950004,-0.7228850554757003
9030,6.0,299.7154,4837.3349,0.0,0.0,0.0,0.0,0.0,-0.09000029054190203,-0.3288026769352977,-0.6328700950794154,-0.5087562493328325,-0.003578318768677567,0.034509762318848364,-0.6820089049765383
9031,6.0,300.54482,4587.1443,0.0,0.0,0.0,0.0,0.0,-0.09001025735148582,-0.3110869615243927,-0.6117186714944324,-0.4715717033205036,-0.009090092095247242,0.01142668786247629,-0.7559270095141873
9032,6.0,299.56025,4265.684,0.0,0.0,0.0,0.0,0.0,-0.09002022416106967,-0.27752458196954377,-0.5696817822107144,-0.4494550779552626,-0.01004042382233768,0.00018280817150676182,-0.7190736949595483
9033,6.0,299.7043,4182.3566,0.0,0.0,0.0,0.0,0.0,-0.09003019097065348,-0.2258488066045418,-0.5800468443736664,-0.46543631184498757,2.7788151958227076e-06,0.005275366372863125,-0.7655925339406002
9034,6.0,301.10508,4274.2511,0.0,0.0,0.0,0.0,0.0,-0.09004015778023733,-0.25052734365512375,-0.5670877403647024,-0.4816505223302055,0.016753834051224683,0.004787344088074076,-0.7222888895143633
9035,6.0,300.6462,4581.4419,0.0,0.0,0.0,0.0,0.0,-0.09005012458982112,-0.27507474587776376,-0.6153901224367765,-0.5021790605487145,0.011163661308767591,-0.028667622647524073,-0.7306998380644593
9036,6.0,300.04319,4670.4905,0.0,0.0,0.0,0.0,0.0,-0.09006009139940493,-0.3109884026871657,-0.5915279001967585,-0.5171961869682896,0.012952518896564088,-0.012963372831635287,-0.7109218243275213
9037,6.0,298.78266,4290.5881,0.0,0.0,0.0,0.0,0.0,-0.09007005820898875,-0.2678497255097097,-0.5988309306900114,-0.43755099021542054,0.00990548008594477,-0.009455495919184792,-0.7343997714671143
9038,6.0,299.83076,4566.7197,0.0,0.0,0.0,0.0,0.0,-0.0900800250185726,-0.28489645267459074,-0.6161081722526424,-0.4871641227493555,-0.008616694657101553,0.02034424727707088,-0.7238116828246512
9039,6.0,300.5142,5072.0114,0.0,0.0,0.0,0.0,0.0,-0.09008999182815641,-0.35319894277302166,-0.6658905580832813,-0.5226753166190375,-0.01135195053510029,-0.013670126935386486,-0.7101920613404994
9040,6.0,300.05022,4718.0466,0.0,0.0,0.0,0.0,0.0,-0.09009995863774026,-0.30341266606199874,-0.6351594424878564,-0.4955962482265415,0.008884137258721081,-0.0035699124405479264,-0.7148696594996423
9041,6.0,300.53403,4227.9391,0.0,0.0,0.0,0.0,0.0,-0.09010992544732402,-0.24918985352312376,-0.5688025547014415,-0.4671955065361066,0.004813220367802865,0.011882177219679591,-0.6905409470460853
9042,6.0,301.01146,4260.5925,0.0,0.0,0.0,0.0,0.0,-0.09011989225690786,-0.26551536953182675,-0.5772282055104885,-0.4523701579629586,0.006877004017157453,0.021412477340746982,-0.7090052617633713
9043,6.0,299.8482,4430.9089,0.0,0.0,0.0,0.0,0.0,-0.09012985906649168,-0.27271893939526376,-0.5698473878070585,-0.5043193284699425,0.008325863406073743,0.003396308146589517,-0.6959690696867994
9044,6.0,300.44113,4606.8366,0.0,0.0,0.0,0.0,0.0,-0.09013982587607552,-0.3086830560596457,-0.5822973640382754,-0.5093828735921755,-0.015061482455952586,-0.02115257463709658,-0.7358515967403982
9045,6.0,300.30003,4595.4618,0.0,0.0,0.0,0.0,0.0,-0.09014979268565934,-0.2912304411697067,-0.5920333194791395,-0.5136418981350085,0.036632049103801766,0.001969046994154808,-0.7136748957767283
9046,6.0,300.06216,4383.4696,0.0,0.0,0.0,0.0,0.0,-0.09015975949524316,-0.28923112646988974,-0.5665813483622255,-0.47665282833197153,-0.01167290257052579,0.01891208310872728,-0.7176671619657343
9047,6.0,301.36592,4529.7419,0.0,0.0,0.0,0.0,0.0,-0.09016972630482697,-0.29828270239571075,-0.6048095926400594,-0.4738361349089856,-0.004936111595581286,-0.016058030141304185,-0.7223926361921023
9048,6.0,300.01052000000004,4810.7983,0.0,0.0,0.0,0.0,0.0,-0.09017969311441082,-0.3545435560532247,-0.6268819288434295,-0.4809370726697936,-0.023701807523936275,-0.02226052815769308,-0.7093828190156333
9049,6.0,300.45974,4693.4902,0.0,0.0,0.0,0.0,0.0,-0.09018965992399461,-0.30709626587304173,-0.6403187093470364,-0.47928885926212755,0.007550168677443633,0.007935132787936634,-0.7075176890265593
9050,6.0,300.66393999999997,4302.9553,0.0,0.0,0.0,0.0,0.0,-0.09019962673357845,-0.25600160970539176,-0.6321078979566923,-0.4198814587440736,-0.015386199728749684,0.025258927721112077,-0.7356211330051533
9051,6.0,299.19626,4478.1369,0.0,0.0,0.0,0.0,0.0,-0.09020959354316224,-0.2636472200574547,-0.6294756565819104,-0.4681189218822406,-0.00956793932253209,0.0023338802569610475,-0.7360641664788773
9052,6.0,299.30946,4739.5551,0.0,0.0,0.0,0.0,0.0,-0.09021956035274609,-0.3213062372629567,-0.6306205582674034,-0.48877960817879157,-0.006022965196095385,0.01833340989711668,-0.7371388499324403
9053,6.0,298.69807000000003,4470.0232,0.0,0.0,0.0,0.0,0.0,-0.0902295271623299,-0.27059437685058574,-0.6122104017679624,-0.47597066783464753,0.027142829181538673,0.011521691205102387,-0.7403034123797584
9054,6.0,299.94486,4271.8515,0.0,0.0,0.0,0.0,0.0,-0.09023949397191375,-0.26723196718874176,-0.5719085208954765,-0.45939569978382555,0.014641794264532586,0.02309155941270948,-0.7331403319903173
9055,6.0,300.66921,4547.2345,0.0,0.0,0.0,0.0,0.0,-0.09024946078149754,-0.29173318547182375,-0.6126717142734904,-0.4778408438092196,-0.014612556932897086,-0.04154181933785836,-0.7328909610082063
9056,6.0,300.68801,4506.6648,0.0,0.0,0.0,0.0,0.0,-0.09025942759108135,-0.29550965978703275,-0.5920051612588604,-0.48239874673404953,-0.006783367447591243,-0.02604979779516487,-0.7463745536664332
9057,6.0,300.65202999999997,4571.9157,0.0,0.0,0.0,0.0,0.0,-0.09026939440066517,-0.30178023909089075,-0.5968079566003595,-0.4911600163737196,-0.006638611093254905,0.008011356350559311,-0.7094008042049083
9058,6.0,300.87831,4781.8997,0.0,0.0,0.0,0.0,0.0,-0.09027936121024902,-0.3100822429902347,-0.6454830424567164,-0.4980128294500395,0.014729995659237386,0.04205336675684416,-0.7194258804293063
9059,6.0,299.92259,4421.8659,0.0,0.0,0.0,0.0,0.0,-0.09028932801983283,-0.2981355683486897,-0.5771200207973115,-0.46888124059497555,-0.026983053826270073,0.0013703633089693285,-0.6903901652987043
9060,6.0,300.44632,4220.8602,0.0,0.0,0.0,0.0,0.0,-0.09029929482941668,-0.2611930168577437,-0.5966841678356425,-0.4251589212274186,-0.005957827197516764,-0.0017463601560773281,-0.7350817191819172
9061,6.0,300.36987,4606.0996,0.0,0.0,0.0,0.0,0.0,-0.09030926163900044,-0.3281851415293517,-0.5875051453122434,-0.48444896711889057,0.016977926469840882,-0.018371778638653382,-0.6975212776474904
9062,6.0,300.00574,4731.5839,0.0,0.0,0.0,0.0,0.0,-0.09031922844858428,-0.3175343124406967,-0.6292974562868233,-0.49145157908999454,0.004596180372532685,0.004985293235560136,-0.7104155741800583
9063,6.0,299.79638,4459.5732,0.0,0.0,0.0,0.0,0.0,-0.0903291952581681,-0.28823181869126574,-0.6109537588614414,-0.45641331970448756,-0.0047082112817642754,-0.01848049024188238,-0.7444561267220993
9064,6.0,299.4878,4443.2449,0.0,0.0,0.0,0.0,0.0,-0.09033916206775194,-0.25395362860327175,-0.5776088531755554,-0.5190730301285195,-0.02412611512256218,0.004660213624527275,-0.7323082307431953
9065,6.0,300.00275,4541.5424,0.0,0.0,0.0,0.0,0.0,-0.09034912887733576,-0.2904744755350987,-0.6038986808001594,-0.4861423410835135,-0.024799491754769275,0.029233866320157974,-0.7262942570271623
9066,6.0,300.15955,4418.6707,0.0,0.0,0.0,0.0,0.0,-0.09035909568691958,-0.26278108373947373,-0.5878061515194505,-0.4925783132011945,-0.004848951214029225,0.02185654432957298,-0.7218599098195263
9067,6.0,300.71283999999997,4473.6371,0.0,0.0,0.0,0.0,0.0,-0.0903690624965034,-0.28871343672879773,-0.6043259784998305,-0.4668345564529835,-0.014541503782884685,-0.016489895572425986,-0.7533964376544393
9068,6.0,301.39035,4468.7216,0.0,0.0,0.0,0.0,0.0,-0.09037902930608724,-0.2797178530035027,-0.6246901878171214,-0.4539717314685216,-0.002531094291499558,-0.019115052302508782,-0.7162172821326424
9069,6.0,300.39526,4206.3241,0.0,0.0,0.0,0.0,0.0,-0.09038899611567103,-0.2509871160204998,-0.5805639970922054,-0.44706638137451654,0.02279855889454258,-0.004052120088313117,-0.7493537622729582
9070,6.0,301.06025,4393.9243,0.0,0.0,0.0,0.0,0.0,-0.09039896292525484,-0.22293638131210777,-0.6268300605708105,-0.4858768290273095,0.01221588100761359,0.04537232724115005,-0.7326492603293523
9071,6.0,299.84098,4809.3057,0.0,0.0,0.0,0.0,0.0,-0.09040892973483866,-0.28923525039779674,-0.6592221159951573,-0.5134514679112145,0.0001979007343962818,0.01395264436801879,-0.7352665056026544
9072,6.0,300.84247999999997,4616.6768,0.0,0.0,0.0,0.0,0.0,-0.0904188965444225,-0.2870291921475757,-0.6121995093293874,-0.5041257774358405,-0.008064320757136492,-0.002212367961243718,-0.7247705720567863
9073,6.0,299.54435,4282.5913,0.0,0.0,0.0,0.0,0.0,-0.09042886335400632,-0.26004078937402775,-0.5813287476051805,-0.46043127178352855,-0.004383065505499886,-0.009536219629476601,-0.7147861879564044
9074,6.0,299.38133999999997,4635.4362,0.0,0.0,0.0,0.0,0.0,-0.09043883016359014,-0.3144699300307657,-0.5912193655413085,-0.5033675826510126,0.017612227111941485,-0.02065943391942738,-0.6938156396467724
9075,6.0,299.84497999999996,4887.9773,0.0,0.0,0.0,0.0,0.0,-0.09044879697317396,-0.3600522422093897,-0.5922095135390284,-0.5335612805258985,0.002782826956943637,-0.03360973683802276,-0.6811986494015724
9076,6.0,300.48061,4609.4967,0.0,0.0,0.0,0.0,0.0,-0.09045876378275777,-0.26316234948710177,-0.6166580225519084,-0.5213515256283895,-0.013883776798472088,-0.02363176965052408,-0.7352657051350753
9077,6.0,299.52906,4588.253,0.0,0.0,0.0,0.0,0.0,-0.09046873059234159,-0.3159754676918507,-0.5787663191622885,-0.4999725463359485,-0.001917504481442958,0.02379625459225748,-0.6752177785663064
9078,6.0,299.43778,4741.9368,0.0,0.0,0.0,0.0,0.0,-0.0904786974019254,-0.3237047927671757,-0.6327090491085214,-0.48501654929490656,-0.0015355503316970185,0.03111618001767787,-0.7081469680011644
9079,6.0,299.01353,4537.0338,0.0,0.0,0.0,0.0,0.0,-0.09048866421150925,-0.32805722883672767,-0.5937321548618014,-0.4573555916349826,0.012855616723250588,-0.012744655704799587,-0.7066330912917563
9080,6.0,300.96603999999996,4673.6759999999995,0.0,0.0,0.0,0.0,0.0,-0.09049863102109307,-0.31118744553680966,-0.6420308081735074,-0.4674625384674606,0.001109316038005969,-0.03786595569132886,-0.7351089553446053
9081,6.0,301.3121,4565.0174,0.0,0.0,0.0,0.0,0.0,-0.09050859783067686,-0.28264634844252273,-0.6167922781901585,-0.4882126846153405,0.030393008222556372,-0.004757358268589706,-0.7024047986244564
9082,6.0,299.55579,4089.9204,0.0,0.0,0.0,0.0,0.0,-0.0905185646402607,-0.19888319182574282,-0.5761291635245214,-0.4682213108048455,0.015919362812118785,0.014128610446635288,-0.7472175473521303
9083,6.0,299.53289,4391.5861,0.0,0.0,0.0,0.0,0.0,-0.09052853144984452,-0.24807757849085074,-0.6072604723794425,-0.4795944656247885,-0.0006622974820361723,0.0037062190996503463,-0.7039550206149514
9084,6.0,300.97881,4825.4867,0.0,0.0,0.0,0.0,0.0,-0.09053849825942833,-0.3174753007548727,-0.6370492248518633,-0.5123029286578625,-0.00960825208571065,-0.01824505651489688,-0.7323961403218713
9085,6.0,299.57256,4553.2518,0.0,0.0,0.0,0.0,0.0,-0.09054846506901218,-0.3019497051701157,-0.5934593676698795,-0.4886657999275595,-0.006136844678809415,0.008049949121693123,-0.6917506460754734
9086,6.0,300.92242000000005,4365.8081,0.0,0.0,0.0,0.0,0.0,-0.090558431878596,-0.2870273176348907,-0.6047298599896904,-0.43533948067966155,-0.004895068279080626,-0.0014768968297833686,-0.7450003230858072
9087,6.0,299.94326,4752.1437,0.0,0.0,0.0,0.0,0.0,-0.09056839868817981,-0.3197331462177047,-0.6188022218835244,-0.5059976759355825,0.009214146635465471,-0.003773317939822486,-0.7159001145863403
9088,6.0,300.22875,4813.3923,0.0,0.0,0.0,0.0,0.0,-0.0905783654977636,-0.3291629076108497,-0.6383727523974854,-0.4956154087859326,-0.0030065786195512074,-0.012223684046633689,-0.7550322792783842
9089,6.0,300.83556,4564.2179,0.0,0.0,0.0,0.0,0.0,-0.09058833230734745,-0.29738497293961175,-0.6299403330777704,-0.4600829670616535,0.014194434212881588,0.015611931586027684,-0.7086671402050013
9090,6.0,301.40171000000004,4354.7711,0.0,0.0,0.0,0.0,0.0,-0.09059829911693126,-0.28722219602662374,-0.5638620890688554,-0.47265739067015256,0.015255255391826485,0.025607165568480476,-0.7208007696224973
9091,6.0,300.13118,4410.7451,0.0,0.0,0.0,0.0,0.0,-0.09060826592651508,-0.3156017101274637,-0.5752513950953925,-0.44990325873949455,-0.009489154567631641,0.023388767958541678,-0.6778505468311403
9092,6.0,300.15512,4452.6225,0.0,0.0,0.0,0.0,0.0,-0.0906182327360989,-0.2942979241249437,-0.5909479867670254,-0.4682401471242046,0.036256099879448465,-0.01739843843359218,-0.7307104366605053
9093,6.0,298.50405,4779.6375,0.0,0.0,0.0,0.0,0.0,-0.09062819954568274,-0.3170039064108497,-0.6073967646503934,-0.5284897915228814,-0.0072937072751078635,0.0003022302639903047,-0.6976947561971113
9094,6.0,299.44768,4761.7565,0.0,0.0,0.0,0.0,0.0,-0.09063816635526656,-0.2912166609683467,-0.6245075494865964,-0.5317308644852505,0.008271915944249543,-0.02260181004312498,-0.7248749570820883
9095,6.0,300.36662,4420.8044,0.0,0.0,0.0,0.0,0.0,-0.0906481331648504,-0.28013506886467876,-0.5867811781157934,-0.47689792339866055,-0.02299662902409058,-0.03623597571921237,-0.7202022326559263
9096,6.0,300.22874,4643.2111,0.0,0.0,0.0,0.0,0.0,-0.09065809997443416,-0.29790113267305274,-0.6437712881352794,-0.4697478126104996,-0.013177674214535187,-0.016049142924677087,-0.7413793016009403
9097,6.0,299.75888,4804.1632,0.0,0.0,0.0,0.0,0.0,-0.09066806678401801,-0.36741344339088366,-0.5942648407043735,-0.49866735861713657,0.018788770571557284,0.00997512755409344,-0.6966073868522963
9098,6.0,300.23434,4484.6228,0.0,0.0,0.0,0.0,0.0,-0.09067803359360183,-0.2902097234164697,-0.6052215801307194,-0.4677820567539946,0.0030069884792166567,0.016078657886839983,-0.7283542046129633
9099,6.0,300.17483,4130.1973,0.0,0.0,0.0,0.0,0.0,-0.09068800040318567,-0.25257866848257376,-0.5690237269332694,-0.4338744628900756,0.010194043784573791,0.01980712339906088,-0.7400353266683003
9100,6.0,300.2004,4528.6456,0.0,0.0,0.0,0.0,0.0,-0.09069796721276949,-0.27567064839407474,-0.6002536351554214,-0.5006709087023715,-0.007411723554005164,-0.012422611385766289,-0.7166912399994183
9101,6.0,298.58597000000003,4666.8769,0.0,0.0,0.0,0.0,0.0,-0.09070793402235328,-0.30032305372457774,-0.6286354695989904,-0.4896555223602375,-0.0052674891639357055,0.007810004101287392,-0.7375921172321743
9102,6.0,299.24365,4533.5584,0.0,0.0,0.0,0.0,0.0,-0.09071790083193709,-0.2927681089914627,-0.6019425710846064,-0.48337788070318255,-0.014227196641614986,-0.026859104968037274,-0.7287517228921954
9103,6.0,298.78931,4484.8754,0.0,0.0,0.0,0.0,0.0,-0.09072786764152094,-0.3182302430068797,-0.5910755042921105,-0.4539843970947716,-0.015610968998432683,-0.02152516291086818,-0.7290251281666783
9104,6.0,299.34519,4356.0782,0.0,0.0,0.0,0.0,0.0,-0.09073783445110475,-0.26713862658952975,-0.5845224916553785,-0.47247788328243656,-0.02215135045941808,0.01821266392244998,-0.7170741877422123
9105,6.0,299.88027999999997,4442.1025,0.0,0.0,0.0,0.0,0.0,-0.0907478012606886,-0.24898439680034679,-0.6106581532772675,-0.49064568049045854,0.010913683389846688,0.04146206135623686,-0.7340281518604382
9106,6.0,299.81081,4707.5381,0.0,0.0,0.0,0.0,0.0,-0.09075776807027239,-0.2938272897184957,-0.6143451170786425,-0.5228016283765036,0.006129082980393395,0.02100211814299768,-0.6900780032078964
9107,6.0,300.57718,4609.9678,0.0,0.0,0.0,0.0,0.0,-0.09076773487985623,-0.30783780282622575,-0.5920693607851965,-0.5014079366926105,-0.008058724272859162,-0.01848801261062478,-0.7258610014169034
9108,6.0,301.42233999999996,4312.1204,0.0,0.0,0.0,0.0,0.0,-0.09077770168944002,-0.2966213066042437,-0.5504744613275995,-0.46368116002176757,0.001075088753602999,-0.02845179328347337,-0.7104125040322553
9109,6.0,300.15334,4470.5768,0.0,0.0,0.0,0.0,0.0,-0.09078766849902387,-0.2994064676841177,-0.5883126955094424,-0.4712245537037426,-0.006731681559990244,0.0019437041906036684,-0.7240979969054083
9110,6.0,300.48738,4975.1214,0.0,0.0,0.0,0.0,0.0,-0.09079763530860768,-0.34696090906237564,-0.6258690739109684,-0.5394826938452965,0.0025052257124715278,-0.007844362500253303,-0.6734081645502114
9111,6.0,299.9265,4684.8388,0.0,0.0,0.0,0.0,0.0,-0.0908076021181915,-0.2969334382975487,-0.6103252296919104,-0.5168153467857035,-0.020732953320183177,-0.002356819732599998,-0.7178503677163153
9112,6.0,299.30827999999997,4408.4275,0.0,0.0,0.0,0.0,0.0,-0.09081756892777532,-0.25806826500685476,-0.6099369725185925,-0.4720466440398765,-0.004194200955760406,0.004818554825604336,-0.7256575103993204
9113,6.0,300.60200000000003,4542.9533,0.0,0.0,0.0,0.0,0.0,-0.09082753573735916,-0.2810424444617297,-0.5975651077375844,-0.5023368033242824,0.015768796887009086,0.020029751671282583,-0.7206236231075144
9114,6.0,299.88166,4582.4358,0.0,0.0,0.0,0.0,0.0,-0.09083750254694298,-0.3073847179115097,-0.6260152149728914,-0.4595461167611706,-0.012853746263565988,-0.005916171168680634,-0.7241333897314013
9115,6.0,299.12793999999997,4587.3672,0.0,0.0,0.0,0.0,0.0,-0.09084746935652682,-0.3142290602169937,-0.5996472657655774,-0.48056876639094454,0.007158725744486223,-0.014229123843305186,-0.7185602811338783
9116,6.0,300.27994,4673.9875,0.0,0.0,0.0,0.0,0.0,-0.09085743616611058,-0.2973295380266407,-0.6218817625149514,-0.5015642102555335,-0.00995386662857015,-0.00042973043210109164,-0.7268745757569353
9117,6.0,300.02131,4347.1887,0.0,0.0,0.0,0.0,0.0,-0.09086740297569443,-0.22112100190294381,-0.6322938192175415,-0.46802199437767456,0.003511934877775987,0.04161643608847246,-0.7352621384947232
9118,6.0,300.23202000000003,4312.1197,0.0,0.0,0.0,0.0,0.0,-0.09087736978527824,-0.23478660467663376,-0.6159883148983134,-0.46000179559614257,-0.030755801407611267,-0.009121880385334503,-0.7480671271634772
9119,6.0,300.03513,4909.8508,0.0,0.0,0.0,0.0,0.0,-0.09088733659486209,-0.3260551682291397,-0.6683398875500113,-0.49807698844637155,-0.026389194022160677,-0.025975147607297477,-0.7358010355604083
9120,6.0,299.2181,4649.9524,0.0,0.0,0.0,0.0,0.0,-0.0908973034044459,-0.3483837249852967,-0.5918161698502085,-0.47326952545306555,-0.018432516902647782,-0.012080454052247988,-0.7412176679449882
9121,6.0,301.29471,4273.7549,0.0,0.0,0.0,0.0,0.0,-0.0909072702140297,-0.26117023899549574,-0.5860600682846254,-0.4518844666600245,0.029886897903607174,0.016283189512275684,-0.7374229449954782
9122,6.0,301.9231,4261.4687,0.0,0.0,0.0,0.0,0.0,-0.09091723702361351,-0.24016395335483678,-0.5799953611360854,-0.4752207614356375,0.00954371545106638,0.013856176878998186,-0.7162972883605383
9123,6.0,301.75734,4733.9171,0.0,0.0,0.0,0.0,0.0,-0.09092720383319736,-0.28427390168064975,-0.6362368211866853,-0.5184818696226765,0.02032906169782218,0.008426549359235673,-0.7090644457017123
9124,6.0,301.53187,4816.4307,0.0,0.0,0.0,0.0,0.0,-0.09093717064278117,-0.34025267664282466,-0.6259781604167344,-0.49784381933335947,0.022474175994278478,0.008709924609402632,-0.7198027385389992
9125,6.0,299.88817,4681.487,0.0,0.0,0.0,0.0,0.0,-0.09094713745236502,-0.3135078490608157,-0.6284374399994465,-0.4811098520768455,0.025373396611409273,0.00975067188531639,-0.7164593374490313
9126,6.0,299.51624,4687.8754,0.0,0.0,0.0,0.0,0.0,-0.0909571042619488,-0.3449352397274577,-0.6211289987506594,-0.45893281674064257,-0.004128448319671126,-0.04389538248463696,-0.7053750095700934
9127,6.0,299.79253,4661.9485,0.0,0.0,0.0,0.0,0.0,-0.09096707107153265,-0.3074927405046707,-0.6205513651336514,-0.4890718396401325,-0.03425989383093827,-0.044121730397975754,-0.7239966009679013
9128,6.0,299.94192999999996,4788.4861,0.0,0.0,0.0,0.0,0.0,-0.09097703788111644,-0.3236922487309377,-0.6146828130719705,-0.5172051339666726,-0.01832767186180038,0.01106465056199599,-0.7051223455251573
9129,6.0,300.01089,4749.6238,0.0,0.0,0.0,0.0,0.0,-0.09098700469070028,-0.3235192869388677,-0.6011838088797224,-0.5190639412751226,0.01096199515461469,0.044283420795933365,-0.7215200758684873
9130,6.0,299.37753,4275.4651,0.0,0.0,0.0,0.0,0.0,-0.0909969715002841,-0.25563452945916376,-0.5740742416592164,-0.46992588118307355,-0.02915589064546237,0.018516954073231083,-0.7177483840937503
9131,6.0,299.95861,4155.4296,0.0,0.0,0.0,0.0,0.0,-0.09100693830986792,-0.2537856722666958,-0.5772781182104145,-0.4320830468457766,-0.0035815688696983266,0.0003844289117901796,-0.7470157991247193
9132,6.0,301.54431,4837.6081,0.0,0.0,0.0,0.0,0.0,-0.09101690511945174,-0.35097216355825567,-0.6140073805553105,-0.5055325333446765,0.005067497912198105,-0.025189367088496978,-0.7045998833760942
9133,6.0,301.55191,4808.2404,0.0,0.0,0.0,0.0,0.0,-0.09102687192903558,-0.31925682747819567,-0.6203279130890984,-0.5220002792699164,0.047130053732874155,-0.002081744621952198,-0.7345902320884112
9134,6.0,300.96898999999996,4436.7023,0.0,0.0,0.0,0.0,0.0,-0.0910368387386194,-0.25147818768146474,-0.6035201710928034,-0.49364835596929957,0.0051040050093260755,-0.02128729231739218,-0.6895911264023453
9135,6.0,300.77495,4457.6389,0.0,0.0,0.0,0.0,0.0,-0.09104680554820324,-0.2624684859511227,-0.5947506333323174,-0.4977917788082235,0.005436527550293495,-0.025331010333226076,-0.7432595290165043
9136,6.0,300.05961,4635.4157,0.0,0.0,0.0,0.0,0.0,-0.091056772357787,-0.2928440318214557,-0.6119971430194154,-0.5042094313640966,-0.02298033494923248,0.01060437967757079,-0.7076643063160293
9137,6.0,299.84715,4661.7772,0.0,0.0,0.0,0.0,0.0,-0.09106673916737085,-0.3276542592719577,-0.6106895133678624,-0.47872009158349454,0.01731469533932738,0.03150709798575847,-0.7500711940062633
9138,6.0,300.07824,4702.8363,0.0,0.0,0.0,0.0,0.0,-0.09107670597695466,-0.35373198325312866,-0.5887368014712985,-0.4870760307856616,-0.012808452970845888,0.02012706623738678,-0.7105293824312904
9139,6.0,299.74568,4297.1428,0.0,0.0,0.0,0.0,0.0,-0.09108667278653851,-0.2556459183902878,-0.5894030235445494,-0.46117517974194655,-0.0014211156892531987,0.00038911542655020265,-0.7497149555361052
9140,6.0,300.52153,4052.6411,0.0,0.0,0.0,0.0,0.0,-0.09109663959612233,-0.2257446140967588,-0.5469399916662744,-0.45921709418869855,-0.03221205458383227,0.0027989781635376376,-0.7143441879977823
9141,6.0,300.66104,4473.0117,0.0,0.0,0.0,0.0,0.0,-0.09110660640570611,-0.26484892454355374,-0.5943597822387434,-0.5004751487830515,-0.007607330776535092,0.006659140958831044,-0.7466653361801313
9142,6.0,300.19571,4903.1908,0.0,0.0,0.0,0.0,0.0,-0.09111657321528993,-0.3372691515908737,-0.6218186269012204,-0.5313597920336285,-0.000900648893082125,-0.02057749238384038,-0.7095528423824133
9143,6.0,299.26068,4408.9833,0.0,0.0,0.0,0.0,0.0,-0.09112654002487378,-0.3089448900179867,-0.5736688301617054,-0.4576071309723076,-0.01242254349800959,-0.02980966392798477,-0.7489467498402893
9144,6.0,298.76886,4311.8258,0.0,0.0,0.0,0.0,0.0,-0.09113650683445759,-0.28603730135968375,-0.5975390672100145,-0.4271110184725756,0.0004015863162634836,-0.02089407325833448,-0.7331118697950083
9145,6.0,299.01309,4696.7656,0.0,0.0,0.0,0.0,0.0,-0.09114647364404144,-0.3211346332260207,-0.6063795324775004,-0.5001852781944436,0.013245114114690986,0.005658825401657584,-0.7234252900315172
9146,6.0,299.0823,4807.6681,0.0,0.0,0.0,0.0,0.0,-0.09115644045362523,-0.3215491031794257,-0.6145496720088304,-0.5253122898717866,0.037114639861429766,-0.018445585802437586,-0.6925315376625414
9147,6.0,299.80212,4520.8931,0.0,0.0,0.0,0.0,0.0,-0.09116640726320907,-0.2607890137778718,-0.6064217748741694,-0.5070278371797515,-0.0071100155697789045,-0.009591120458319892,-0.7219172800401883
9148,6.0,300.29462,4525.7193,0.0,0.0,0.0,0.0,0.0,-0.09117637407279286,-0.28836403769681473,-0.6105389646680045,-0.47680265762425855,-0.007889712940279044,0.009080955416445522,-0.7305109783783202
9149,6.0,300.25389,4636.2390000000005,0.0,0.0,0.0,0.0,0.0,-0.0911863408823767,-0.3134909277841457,-0.6332158160135354,-0.46259414531448756,-0.027714847366492473,0.02215065030359898,-0.7445992077687202
9150,6.0,300.1806,4698.8937,0.0,0.0,0.0,0.0,0.0,-0.09119630769196052,-0.32817568790591867,-0.6213075536832814,-0.47886310170260854,-0.02241979182166118,0.011702311141428189,-0.7342086623657532
9151,6.0,299.94353,4949.7305,0.0,0.0,0.0,0.0,0.0,-0.09120627450154434,-0.31407253334154567,-0.6645879946822283,-0.5259339289406375,-0.022385820585558477,-0.008653553858639272,-0.7315160008875083
9152,6.0,299.43122,4544.4589,0.0,0.0,0.0,0.0,0.0,-0.09121624131112815,-0.2805310571362597,-0.6174041292630434,-0.48346683392946155,0.004015484612397476,0.005188091798024795,-0.7431416981623753
9153,6.0,299.61676,4084.4373,0.0,0.0,0.0,0.0,0.0,-0.091226208120712,-0.21571770388967978,-0.5719434374939225,-0.4539058094170156,0.029892510295911074,0.013992746780476588,-0.7360182257193433
9154,6.0,299.29216,4452.9618,0.0,0.0,0.0,0.0,0.0,-0.09123617493029582,-0.29925602030926973,-0.6083350342429934,-0.44599815232409057,0.014382002005143087,-0.005705435210232614,-0.7564974693204872
9155,6.0,300.22747000000004,4921.8517,0.0,0.0,0.0,0.0,0.0,-0.09124614173987966,-0.3566010819712867,-0.6155070920283203,-0.5240118542959435,0.016544980914112484,-0.01171557154548689,-0.7253462095710973
9156,6.0,300.22148,4452.6551,0.0,0.0,0.0,0.0,0.0,-0.09125610854946342,-0.3009168182831777,-0.6115899988642334,-0.44098914032223957,-0.00954190973806317,0.006512231346707194,-0.7501014496542493
9157,6.0,300.37583,4259.6474,0.0,0.0,0.0,0.0,0.0,-0.09126607535904727,-0.2348824074735888,-0.6020704837772305,-0.4578735650861026,0.009495428308275811,0.004944416396050905,-0.7372089364418574
9158,6.0,301.22657000000004,4680.7623,0.0,0.0,0.0,0.0,0.0,-0.09127604216863108,-0.3025224245241387,-0.5885682675821654,-0.5317441785915645,-0.004255461955481396,-0.030325532858647072,-0.7138183415933853
9159,6.0,300.95241,4894.8976,0.0,0.0,0.0,0.0,0.0,-0.09128600897821493,-0.2852162952011567,-0.6695616239905874,-0.5331487256151825,-0.003160466586438767,-0.018166121292356584,-0.7184672951722013
9160,6.0,299.87253,4701.5294,0.0,0.0,0.0,0.0,0.0,-0.09129597578779874,-0.3013473482506677,-0.6329653608538174,-0.49483481104139354,-0.003202462864658477,-0.009642573703697931,-0.7489885464069143
9161,6.0,299.60893,4524.0606,0.0,0.0,0.0,0.0,0.0,-0.09130594259738253,-0.30670926512984775,-0.6044654523760954,-0.4640267391008736,0.0034686139777005466,0.025333184767940678,-0.7321175978693812
9162,6.0,298.94062,4187.7631,0.0,0.0,0.0,0.0,0.0,-0.09131590940696635,-0.2662620740605207,-0.5635977422502665,-0.4431155976446046,-0.020831329772392177,0.012692264595128988,-0.7309078177799853
9163,6.0,299.42659,4210.3803,0.0,0.0,0.0,0.0,0.0,-0.0913258762165502,-0.23893042268309675,-0.5617926371971165,-0.4791274079911935,0.008398873648654293,0.004684779873201776,-0.7347644401781043
9164,6.0,299.94487999999996,4735.1037,0.0,0.0,0.0,0.0,0.0,-0.09133584302613401,-0.3104451081160467,-0.6086847473825074,-0.5202234134970535,0.022729291091206378,0.0025148087279422975,-0.7206666558392613
9165,6.0,299.82786,4713.1666,0.0,0.0,0.0,0.0,0.0,-0.09134580983571786,-0.3148713391903817,-0.6154514240678264,-0.5023621953717885,0.02839862805072637,-0.012784995217780789,-0.7235678239230843
9166,6.0,299.54696,4411.7596,0.0,0.0,0.0,0.0,0.0,-0.09135577664530165,-0.30299639252341576,-0.5854838126877535,-0.4525845616841186,0.003060369331584937,-0.038311069367508166,-0.7221730952929353
9167,6.0,300.03857999999997,4662.3219,0.0,0.0,0.0,0.0,0.0,-0.09136574345488549,-0.3010441838207477,-0.6451977112285564,-0.47098754437285156,0.019156426343842084,-0.022212390671942278,-0.7457630167010794
9168,6.0,300.07148,5038.053,0.0,0.0,0.0,0.0,0.0,-0.09137571026446928,-0.33156821136073467,-0.6376641055425474,-0.5622099847808055,0.015348705422049285,0.01096484340064579,-0.7028728188456463
9169,6.0,300.00936,4712.6748,0.0,0.0,0.0,0.0,0.0,-0.09138567707405312,-0.2839826024094007,-0.6104787472145614,-0.5380741242187815,0.0004501509477264396,0.03483830562402307,-0.7189753793023453
9170,6.0,300.04667,4337.8145,0.0,0.0,0.0,0.0,0.0,-0.09139564388363694,-0.25622968217040076,-0.5724145683929194,-0.4899430422086135,-0.0023563140194750878,0.011095513146791889,-0.7088333740164073
9171,6.0,301.1225,4374.3646,0.0,0.0,0.0,0.0,0.0,-0.09140561069322076,-0.28717904170486475,-0.5592926148278835,-0.48322595398318857,-0.014999672173352385,0.0027424981844134974,-0.7110987377949813
9172,6.0,300.98485,4493.2384,0.0,0.0,0.0,0.0,0.0,-0.09141557750280457,-0.2990902120629057,-0.6091774098461294,-0.4575646656606166,-0.018455098194376383,0.008620096340337271,-0.7292294095193393
9173,6.0,299.98165,4584.4264,0.0,0.0,0.0,0.0,0.0,-0.09142554431238842,-0.3280604915020497,-0.6002925135617585,-0.4651981372764815,-0.01033470113695559,0.005951073784275254,-0.7498630724357233
9174,6.0,299.36672000000004,4821.1365,0.0,0.0,0.0,0.0,0.0,-0.09143551112197223,-0.32438383245419167,-0.6198412997285734,-0.5212799699063275,-0.026743576218135477,-0.00901465066037675,-0.7255547060441743
9175,6.0,299.97365,4485.3084,0.0,0.0,0.0,0.0,0.0,-0.09144547793155602,-0.2867839856233757,-0.6039020549229924,-0.4727357149028826,0.0014786237119287986,0.009696554805425452,-0.7512846521935223
9176,6.0,300.23568,4519.2897,0.0,0.0,0.0,0.0,0.0,-0.09145544474113984,-0.24660763630577878,-0.6338199765181615,-0.49332360931224956,0.03339449921203047,0.00954012662053719,-0.7310115543252232
9177,6.0,300.05483,4879.077,0.0,0.0,0.0,0.0,0.0,-0.09146541155072369,-0.3318727842082937,-0.6498550849157033,-0.5013896880583095,0.013363858920410187,-0.0037784857179825066,-0.7164863000341922
9178,6.0,300.15666,4895.6317,0.0,0.0,0.0,0.0,0.0,-0.0914753783603075,-0.3750811729926296,-0.6216808350201214,-0.49138777473119755,0.01345873054052329,-0.03987206929931686,-0.7126678974298453
9179,6.0,300.70631000000003,4331.6152,0.0,0.0,0.0,0.0,0.0,-0.09148534516989132,-0.27363982161614775,-0.5890305122777854,-0.4540325264745215,-0.016807936540314185,-0.015980653297417685,-0.7245690974069023
9180,6.0,300.05711,4321.6224,0.0,0.0,0.0,0.0,0.0,-0.09149531197947516,-0.24301426641614074,-0.6044800026475314,-0.4661710296249985,0.010012477472654591,0.02478888505272248,-0.7342839975106883
9181,6.0,299.52245,4705.8001,0.0,0.0,0.0,0.0,0.0,-0.09150527878905898,-0.31252446957376373,-0.5923141417443544,-0.5256071152533834,-0.025397928409580377,0.03344701191171307,-0.6990427334676463
9182,6.0,298.61552,4619.1367,0.0,0.0,0.0,0.0,0.0,-0.09151524559864277,-0.2991648683302737,-0.6154861886787574,-0.4894511700800696,-0.02182799296825518,0.013686246731227385,-0.7313103820447153
9183,6.0,298.92028,4534.7919,0.0,0.0,0.0,0.0,0.0,-0.09152521240822661,-0.3135083556858657,-0.5994618511297785,-0.4654933071631126,-0.011940470511182688,-0.01141928100424529,-0.7206215763423124
9184,6.0,299.42797,4498.4087,0.0,0.0,0.0,0.0,0.0,-0.09153517921781043,-0.3388127570582157,-0.5937430878303804,-0.4348480847786646,0.02151949782955908,0.01211547805520459,-0.7472315403360112
9185,6.0,299.66569,4488.1789,0.0,0.0,0.0,0.0,0.0,-0.09154514602739425,-0.2835316351873937,-0.6256451659038704,-0.4551175146816016,-0.001098924955580449,0.015103351976584786,-0.7370090323296283
9186,6.0,300.81096,4736.3398,0.0,0.0,0.0,0.0,0.0,-0.09155511283697806,-0.3141628037929547,-0.6272496069072164,-0.49831663222752254,0.004508532617682526,-0.003593167340943007,-0.7458636121710073
9187,6.0,301.16136,4898.5656,0.0,0.0,0.0,0.0,0.0,-0.09156507964656191,-0.31443637118745366,-0.6192907300217364,-0.5553145240077765,-0.013738271044361788,0.025645096585973973,-0.7083564574593394
9188,6.0,300.47351000000003,4338.0995,0.0,0.0,0.0,0.0,0.0,-0.0915750464561457,-0.25791520344674873,-0.6003977497171444,-0.4603609724915905,0.002023132156667598,0.03489539618765747,-0.7443151127056823
9189,6.0,300.26351,4247.5056,0.0,0.0,0.0,0.0,0.0,-0.09158501326572951,-0.26090519303433773,-0.5697721945171375,-0.46045824450119055,0.0011736004747003488,0.012141610788533687,-0.7093402929089363
9190,6.0,299.39561000000003,4782.8196,0.0,0.0,0.0,0.0,0.0,-0.09159498007531336,-0.3566348941271236,-0.6239899509380135,-0.47323289646195055,-0.01117916808829799,-0.03354146100653447,-0.7426607286049073
9191,6.0,299.70457999999996,4919.0943,0.0,0.0,0.0,0.0,0.0,-0.09160494688489718,-0.3107034868915467,-0.6442735866073525,-0.5403047639164285,0.0017456691195091283,-0.02383306799489068,-0.7199568234817063
9192,6.0,299.62422999999995,4322.7676,0.0,0.0,0.0,0.0,0.0,-0.09161491369448099,-0.25093965538581575,-0.6087249531464755,-0.4543487820957336,0.02174740310830158,0.016202002848013184,-0.7659195401453733
9193,6.0,299.28283999999996,4260.0407,0.0,0.0,0.0,0.0,0.0,-0.09162488050406481,-0.21312455370375577,-0.5970846954676714,-0.4847367706772946,-0.01620995382154788,0.028414820800574475,-0.7109708453673593
9194,6.0,299.72625,4604.7251,0.0,0.0,0.0,0.0,0.0,-0.09163484731364865,-0.3047289387369047,-0.6180485765916455,-0.4769439452182026,-0.022158356070609477,-0.0026828444020011275,-0.7440201961315762
9195,6.0,300.45055,4689.1652,0.0,0.0,0.0,0.0,0.0,-0.09164481412323244,-0.33059356608954465,-0.6063519416772774,-0.4884436245781325,-0.017733848534694584,0.004760920450641266,-0.7140308404043574
9196,6.0,299.45595,4632.3595,0.0,0.0,0.0,0.0,0.0,-0.09165478093281626,-0.34365399510850864,-0.6000792345482094,-0.4643883781940646,0.007068594310990943,0.014188783317073886,-0.7398181263768643
9197,6.0,299.05986,4600.0465,0.0,0.0,0.0,0.0,0.0,-0.09166474774240008,-0.29106901016377473,-0.5997113538344024,-0.5075188987082155,0.0024692641491973976,-0.02415420545508448,-0.7170072220431033
9198,6.0,299.27468,4466.941,0.0,0.0,0.0,0.0,0.0,-0.09167471455198392,-0.27034059823053974,-0.5959335825590655,-0.4915643436936235,0.013085947722732487,-0.04648798044925646,-0.7303936440167403
9199,6.0,298.67317,4920.5698,0.0,0.0,0.0,0.0,0.0,-0.09168468136156774,-0.3038662981317687,-0.6369352848781183,-0.5549287796947064,0.012420220115530288,0.005565657460262625,-0.7154722393341123
9200,6.0,299.80082000000004,5143.4963,0.0,0.0,0.0,0.0,0.0,-0.09169464817115158,-0.37945539393933164,-0.6361506240006783,-0.5478884241573775,0.00947325940933791,0.02030604572180068,-0.6958999558974783
9201,6.0,299.57254,4360.8504,0.0,0.0,0.0,0.0,0.0,-0.09170461498073534,-0.28945642262962473,-0.5922105977166354,-0.4439226108192506,0.007997848510826192,0.021062475424954482,-0.7143984982031423
9202,6.0,300.0741,4107.3643,0.0,0.0,0.0,0.0,0.0,-0.09171458179031919,-0.25624317866173274,-0.5770126466842145,-0.4152803609674806,-0.017071750389350583,0.009573819719487441,-0.7293973962534184
9203,6.0,300.003,4586.0343,0.0,0.0,0.0,0.0,0.0,-0.091724548599903,-0.28592918757401375,-0.6137783860327104,-0.4943323301843025,-0.0006303408607097994,0.02004594138138038,-0.7437636209412543
9204,6.0,299.68091,4703.713,0.0,0.0,0.0,0.0,0.0,-0.09173451540948685,-0.30314361776294574,-0.6310449175417844,-0.49562277511415953,-0.02097923084973888,0.0009191466045227072,-0.7476144475488012
9205,6.0,300.01457,4421.1744,0.0,0.0,0.0,0.0,0.0,-0.09174448221907067,-0.2500950303674578,-0.6109639521574475,-0.4828676282178246,-0.016694934836161784,-0.0067714748298425345,-0.7644734397351544
9206,6.0,300.98381,4469.9558,0.0,0.0,0.0,0.0,0.0,-0.09175444902865448,-0.27764113612854674,-0.6020327402110054,-0.4790810720641205,-0.009136618006713991,-0.023919616778682377,-0.7200823449040943
9207,6.0,299.37976000000003,4639.4758,0.0,0.0,0.0,0.0,0.0,-0.09176441583823827,-0.3216410353609987,-0.6154540078555815,-0.47318974214019155,0.006307914732942714,0.00838476819401219,-0.7265164019790863
9208,6.0,299.7334,4918.9755,0.0,0.0,0.0,0.0,0.0,-0.09177438264782212,-0.3255152883108577,-0.6270216256347164,-0.5427088315011915,0.01100534300714279,0.01645507421948938,-0.7078027466771923
9209,6.0,298.88448999999997,5014.9954,0.0,0.0,0.0,0.0,0.0,-0.09178434945740593,-0.33136523710070265,-0.6479000695102584,-0.5451680705538995,0.026474849119364176,-0.017773643932372084,-0.7217493135711114
9210,6.0,298.77313,4791.1529,0.0,0.0,0.0,0.0,0.0,-0.09179431626698978,-0.2998941956197527,-0.6270283434828795,-0.5294682972769525,0.024204279261776377,-0.03509724067382797,-0.6860014751405743
9211,6.0,299.89865,4273.484,0.0,0.0,0.0,0.0,0.0,-0.09180428307657357,-0.2570934677481498,-0.5745222501909315,-0.4674167091654376,0.005811005434176585,-0.02856749327264207,-0.7293191429481953
9212,6.0,299.93945,4451.9291,0.0,0.0,0.0,0.0,0.0,-0.09181424988615741,-0.3026881111804907,-0.5893996595542175,-0.4611875109956635,0.009562201287215792,-0.010839201401495888,-0.7151820850354763
9213,6.0,300.3078,4863.1231,0.0,0.0,0.0,0.0,0.0,-0.09182421669574123,-0.3681187059904876,-0.6246938253849804,-0.48545546897322456,-0.026844572935103075,0.006667829882413573,-0.7184055882411113
9214,6.0,301.26621,4633.6372,0.0,0.0,0.0,0.0,0.0,-0.09183418350532507,-0.29899993147899573,-0.6256786538196754,-0.4838314317129445,-0.009202744228115142,0.0059090731490801145,-0.7381872496784092
9215,6.0,300.53833,4343.8369,0.0,0.0,0.0,0.0,0.0,-0.09184415031490886,-0.25015831796870375,-0.5995425868977464,-0.4707170673911575,-0.016683991735081786,0.026287153657590077,-0.7590638393062683
9216,6.0,299.92509,4779.4417,0.0,0.0,0.0,0.0,0.0,-0.09185411712449268,-0.3089076024143067,-0.6093357301742545,-0.5345876116846895,0.012270862997789888,0.015494239547162385,-0.7211801811224423
9217,6.0,299.46547000000004,4912.2891,0.0,0.0,0.0,0.0,0.0,-0.0918640839340765,-0.3265732328727687,-0.6316142830379764,-0.5350257004979254,0.004985509361806465,-0.02082224699849578,-0.7305201888217294
9218,6.0,299.09065,4656.4045,0.0,0.0,0.0,0.0,0.0,-0.09187405074366034,-0.3491604521144537,-0.5906850483660755,-0.4755851869666035,0.013566010421360988,-0.030054006149849474,-0.7011395532245863
9219,6.0,299.67935,4615.9696,0.0,0.0,0.0,0.0,0.0,-0.09188401755324416,-0.3081179968763787,-0.6090659827326323,-0.48595551803007553,0.0023420512070924577,-0.007650353173131072,-0.7169264862751353
9220,6.0,299.50437,4429.264,0.0,0.0,0.0,0.0,0.0,-0.091893984362828,-0.3119466130417337,-0.5808443127323705,-0.45359472137131357,0.01351182484576329,-0.015918457979779484,-0.7022442998086164
9221,6.0,299.76946,4374.2251,0.0,0.0,0.0,0.0,0.0,-0.09190395117241176,-0.2423817551737168,-0.6187037745038084,-0.4685696661892255,-0.011950385163411188,-0.01097360598751059,-0.7373268888859983
9222,6.0,301.00245,4710.9052,0.0,0.0,0.0,0.0,0.0,-0.09191391798199561,-0.3078158152990557,-0.6377990501908654,-0.4863826840072335,-0.01066861568091039,0.0003169807637785657,-0.7412396960021623
9223,6.0,300.66357999999997,4651.7985,0.0,0.0,0.0,0.0,0.0,-0.09192388479157942,-0.28552704887432573,-0.6238791925695825,-0.5046243471475456,0.013632827172705288,0.003948787424564976,-0.7506881011971472
9224,6.0,300.47907999999995,4277.8685,0.0,0.0,0.0,0.0,0.0,-0.09193385160116327,-0.3008256359066787,-0.5868715600247135,-0.4126679995596606,0.024230752447139077,0.0013698436129930386,-0.7555676806312244
9225,6.0,300.29766,4603.2728,0.0,0.0,0.0,0.0,0.0,-0.09194381841074709,-0.27986963786848273,-0.6339981768132483,-0.48541217279645155,0.0011557065792593588,-0.007392849643067452,-0.7460722910291022
9226,6.0,299.97733,4843.7327,0.0,0.0,0.0,0.0,0.0,-0.0919537852203309,-0.36434299161285366,-0.6146092815122135,-0.49342149940441055,-0.0045352987336491355,0.0018759792631947382,-0.7271805468896323
9227,6.0,300.30989,4699.9411,0.0,0.0,0.0,0.0,0.0,-0.09196375202991469,-0.2845384004867537,-0.6352027386646295,-0.5089236078518495,-0.006648022869458774,0.018544770828226382,-0.7409533616564034
9228,6.0,299.78137999999996,4555.976,0.0,0.0,0.0,0.0,0.0,-0.09197371883949854,-0.28414536077296376,-0.5940351673042064,-0.5067224030696075,-0.01044587088492719,0.011740886585985289,-0.7373655241123113
9229,6.0,299.35103,4608.3083,0.0,0.0,0.0,0.0,0.0,-0.09198368564908235,-0.3047688709233457,-0.6176774433450174,-0.4783643293408835,-0.0050672371016223655,-0.02240687693588658,-0.7114534867874923
9230,6.0,299.0309,4769.661,0.0,0.0,0.0,0.0,0.0,-0.0919936524586662,-0.3370330035225677,-0.6341394441421904,-0.47868539790007053,-0.012279900175431789,-0.03150264272506877,-0.7126571468462843
9231,6.0,299.82613,4878.7164,0.0,0.0,0.0,0.0,0.0,-0.09200361926824999,-0.33301068433559566,-0.6303574577464374,-0.5196398321019585,0.017174072437448985,0.009073932985302461,-0.7235935300781213
9232,6.0,299.51239,4820.9123,0.0,0.0,0.0,0.0,0.0,-0.09201358607783383,-0.3394588154544767,-0.6283863316644024,-0.49759182403348956,0.016716580898048086,-0.0068423439736367735,-0.7123250541260093
9233,6.0,299.67086,4542.8147,0.0,0.0,0.0,0.0,0.0,-0.09202355288741765,-0.25247385789222976,-0.6240511005815484,-0.5043772965081635,0.012232948192297989,0.0008989721566841441,-0.7425006857516123
9234,6.0,299.68334,4393.2698,0.0,0.0,0.0,0.0,0.0,-0.09203351969700149,-0.2684390722978738,-0.5771105165113735,-0.48989472031134457,0.005263590988150985,-0.0003683985454031057,-0.7447180417404483
9235,6.0,300.06726000000003,4748.3827,0.0,0.0,0.0,0.0,0.0,-0.09204348650658528,-0.30170972701643173,-0.6296537048894824,-0.5120263620430675,0.0033477372937709467,0.015561125199513484,-0.7504743864860552
9236,6.0,300.42815,4746.0774,0.0,0.0,0.0,0.0,0.0,-0.0920534533161691,-0.3250003546100377,-0.6075723507602224,-0.5101163248095615,-0.014319822899506486,0.012514410831576187,-0.7152057342928103
9237,6.0,301.85947000000004,4396.8641,0.0,0.0,0.0,0.0,0.0,-0.09206342012575292,-0.27338026747053173,-0.5957098468044845,-0.46744679256090654,-0.044297508012073654,-0.01733260453484488,-0.7577981784738573
9238,6.0,301.5443,4478.6907,0.0,0.0,0.0,0.0,0.0,-0.09207338693533676,-0.29819428619198474,-0.5966081436806394,-0.46660771002059553,-0.02614190830875547,0.009539190478769801,-0.7182421206024784
9239,6.0,301.06472,4809.6733,0.0,0.0,0.0,0.0,0.0,-0.09208335374492058,-0.2935759935611947,-0.6312246681095244,-0.5372199239869785,-0.00962310197520122,0.03808696377664066,-0.7515405282412753
9240,6.0,301.75975,4868.6056,0.0,0.0,0.0,0.0,0.0,-0.09209332055450442,-0.2954715413182707,-0.6603979319412014,-0.5240650600586945,0.01060371295900499,0.019301517678661482,-0.7322630904512403
9241,6.0,300.8995,4707.3445,0.0,0.0,0.0,0.0,0.0,-0.09210328736408818,-0.31215967927276167,-0.6225621295595984,-0.49619336664297253,0.02113551961141338,-0.02496357848921338,-0.7607796871581093
9242,6.0,300.53749,4789.376,0.0,0.0,0.0,0.0,0.0,-0.09211325417367203,-0.3207949005999917,-0.6183645383703285,-0.5166912844434595,0.012183711330188689,-0.02776073543702127,-0.6964366643429473
9243,6.0,299.91053,4570.7026,0.0,0.0,0.0,0.0,0.0,-0.09212322098325584,-0.31395321300976975,-0.6167310981491204,-0.4586951487971866,0.04977688286934586,0.0039433143541498265,-0.7464613284049972
9244,6.0,299.67841,4625.753,0.0,0.0,0.0,0.0,0.0,-0.09213318779283969,-0.2913837053798327,-0.5936746833161295,-0.5210550081191254,0.003132567251560317,0.0067370893770989536,-0.7028239193958203
9245,6.0,300.10647,4749.9391,0.0,0.0,0.0,0.0,0.0,-0.0921431546024235,-0.28569397169579974,-0.6339284449413664,-0.5242404536510045,-0.008424413833324913,0.0074111484332484035,-0.7336996460455173
9246,6.0,300.98315,4532.5027,0.0,0.0,0.0,0.0,0.0,-0.09215312141200732,-0.2770942546520737,-0.5948332638779724,-0.5058401358100345,-0.018032821148950884,0.01031913660216949,-0.7111513457401732
9247,6.0,299.69933,4416.4299,0.0,0.0,0.0,0.0,0.0,-0.09216308822159111,-0.2817028606119077,-0.5870537221276915,-0.47372781847329554,-0.006710618623536494,0.04740887482914166,-0.7510243786403352
9248,6.0,298.83848,4750.924,0.0,0.0,0.0,0.0,0.0,-0.09217305503117496,-0.3259295758792447,-0.6286220541676664,-0.4896106353808075,-0.016233418667363685,0.004520487752962405,-0.7053851724685963
9249,6.0,298.88088,4730.7512,0.0,0.0,0.0,0.0,0.0,-0.09218302184075877,-0.3483471770541897,-0.6106091727674334,-0.47907389825341257,-0.02148042994545338,-0.014235044263639486,-0.7312336486146422
9250,6.0,299.71342000000004,4660.3927,0.0,0.0,0.0,0.0,0.0,-0.09219298865034262,-0.3109797495313117,-0.6194280963377935,-0.48623516492517455,-0.01023446638406319,0.008418700217336024,-0.7134102348506084
9251,6.0,300.10905,4689.9085,0.0,0.0,0.0,0.0,0.0,-0.0922029554599264,-0.28998414354670676,-0.6359910371099284,-0.49963988619561756,-0.009094349569517421,0.037082734642280964,-0.7435497137126433
9252,6.0,300.71817000000004,4664.4464,0.0,0.0,0.0,0.0,0.0,-0.09221292226951025,-0.3084032875745347,-0.6171020186132274,-0.49236993831812953,0.0028005465733674274,0.010653864785954592,-0.7193512748244434
9253,6.0,301.03431,4604.8963,0.0,0.0,0.0,0.0,0.0,-0.09222288907909407,-0.2764471323432077,-0.6401307615859874,-0.4831955868776915,-0.012929901127831886,-0.025425623574563676,-0.7673403802305994
9254,6.0,300.40205,4753.8579,0.0,0.0,0.0,0.0,0.0,-0.09223285588867791,-0.33064949749506467,-0.6240790865493104,-0.49032550359135946,0.03076134692540857,-0.01963325474815138,-0.7137739815040074
9255,6.0,299.56966,4751.2154,0.0,0.0,0.0,0.0,0.0,-0.0922428226982617,-0.3417904356570897,-0.6247069672387774,-0.4777534509880946,0.05138484289028915,-0.0006586894504175874,-0.7271740924864952
9256,6.0,299.1652,4415.3642,0.0,0.0,0.0,0.0,0.0,-0.09225278950784552,-0.26698328521669873,-0.6164652415878824,-0.45871193835134355,0.03122504360842187,-0.0074828038591202425,-0.7330111122050643
9257,6.0,299.16696,4408.8547,0.0,0.0,0.0,0.0,0.0,-0.09226275631742933,-0.24592418898082777,-0.5970680477685284,-0.49718949281628255,0.0022832846264676477,-0.008772665156919641,-0.7407044567693383
9258,6.0,299.52387000000004,4877.6617,0.0,0.0,0.0,0.0,0.0,-0.09227272312701318,-0.32111960672703765,-0.6700217104634943,-0.49154604439681754,-0.02063368520788618,0.021288274156739083,-0.7359839981309653
9259,6.0,300.44355,4811.4694,0.0,0.0,0.0,0.0,0.0,-0.092282689936597,-0.3197974268040487,-0.6447874867930704,-0.49798164161196157,-0.012584510513244489,0.04373128967069226,-0.7443849357700734
9260,6.0,299.37424,4495.7032,0.0,0.0,0.0,0.0,0.0,-0.09229265674618084,-0.31749796715960965,-0.6001394317366504,-0.4489441060623336,-0.036487254651261666,0.0020113121889510583,-0.7538703549912112
9261,6.0,300.88016,4661.8285,0.0,0.0,0.0,0.0,0.0,-0.0923026235557646,-0.3305954507347307,-0.6104507815118014,-0.4760332157633205,-0.015758994705541686,-0.027829976895854872,-0.7249879952632443
9262,6.0,300.64301,4827.5398,0.0,0.0,0.0,0.0,0.0,-0.09231259036534845,-0.3351343957501897,-0.6218279184046375,-0.5104892413763655,0.015498204394803684,-0.02444556045508898,-0.7378760603076973
9263,6.0,300.29376,4813.4697,0.0,0.0,0.0,0.0,0.0,-0.09232255717493226,-0.2994813975290127,-0.6372658070607384,-0.5264274020043396,0.02062342807712388,-0.010650451146367689,-0.7074313601180393
9264,6.0,300.218,4813.7106,0.0,0.0,0.0,0.0,0.0,-0.09233252398451611,-0.3177710380615597,-0.6446470908592145,-0.5008297052580435,0.03534913870168836,-0.025822829772764875,-0.7387339285048623
9265,6.0,300.71294,4615.6753,0.0,0.0,0.0,0.0,0.0,-0.09234249079409992,-0.28000554510439574,-0.6300645372750284,-0.49297994527583255,-0.0024146034606278076,-0.017804102230378083,-0.7336865041917203
9266,6.0,300.89019,4399.7552,0.0,0.0,0.0,0.0,0.0,-0.09235245760368374,-0.3003337739106357,-0.6056621514067004,-0.43141978346281756,0.01922006959587318,-0.0014635210165382785,-0.7538236644266033
9267,6.0,301.59021,4848.5602,0.0,0.0,0.0,0.0,0.0,-0.09236242441326756,-0.35951967795682965,-0.6254702586716084,-0.4888512854908655,0.007944838406669503,0.026585840535318175,-0.7212761764369163
9268,6.0,299.72517999999997,4793.129,0.0,0.0,0.0,0.0,0.0,-0.0923723912228514,-0.3384160797765667,-0.6030406403504774,-0.5155348013093235,-0.014875858077382885,0.007690446972963023,-0.7428613521247073
9269,6.0,300.14561000000003,4520.2925,0.0,0.0,0.0,0.0,0.0,-0.09238235803243519,-0.25917577776365774,-0.6233477935546374,-0.49153247697797847,-0.02091303623395598,-0.024869308739659677,-0.7429077893767904
9270,6.0,300.36005,4660.3977,0.0,0.0,0.0,0.0,0.0,-0.09239232484201904,-0.28424679724047475,-0.6069690717831834,-0.5254286515132706,-0.015296076198605185,-0.007146895948243712,-0.7384720438840163
9271,6.0,298.90004,4943.6188,0.0,0.0,0.0,0.0,0.0,-0.09240229165160282,-0.3189375118416817,-0.6500197583219554,-0.5337793927424245,-0.006000095229413295,0.02922106897139497,-0.7256822742317642
9272,6.0,299.82817,4685.4767,0.0,0.0,0.0,0.0,0.0,-0.09241225846118667,-0.31893154379859273,-0.6116607439862155,-0.49367564279449255,-0.01101895703548639,0.011302031755673689,-0.7411968659204353
9273,6.0,299.2854,4367.5446,0.0,0.0,0.0,0.0,0.0,-0.09242222527077049,-0.28825185064574277,-0.5868524298628254,-0.45252022030276856,-0.01214216908933879,-0.007828198425383034,-0.7487197818178893
9274,6.0,299.2292,4409.4882,0.0,0.0,0.0,0.0,0.0,-0.09243219208035433,-0.2669467474180927,-0.6165686437605874,-0.4568589167009645,0.0025405788190606075,-0.0050319543145902245,-0.7573002167122123
9275,6.0,299.9292,4504.5261,0.0,0.0,0.0,0.0,0.0,-0.09244215888993812,-0.29112507329180776,-0.5972099331800315,-0.4809284397789415,0.03593117387713076,-0.008178912149370783,-0.7453154843969113
9276,6.0,300.07226,4671.4281,0.0,0.0,0.0,0.0,0.0,-0.09245212569952194,-0.2784350378468987,-0.6414849804771383,-0.5000774683838035,0.02188720527759898,-0.01927201284899958,-0.7432453941776093
9277,6.0,300.6559,4712.4013,0.0,0.0,0.0,0.0,0.0,-0.09246209250910575,-0.29998655336636776,-0.6277895374880034,-0.5046762255526656,0.01085626453317989,-0.03235490866243087,-0.7382910470186532
9278,6.0,301.29377,4743.5008,0.0,0.0,0.0,0.0,0.0,-0.0924720593186896,-0.31624102027805867,-0.6340675033850904,-0.4915972743218735,0.024954287999046476,-0.0003464416893136327,-0.7202930401298884
9279,6.0,300.63543,4669.4136,0.0,0.0,0.0,0.0,0.0,-0.09248202612827341,-0.3233336493880467,-0.5918111542622134,-0.5042403354921465,0.00923273947082544,0.005624212068966515,-0.7319432580571753
9280,6.0,300.1592,4925.6087,0.0,0.0,0.0,0.0,0.0,-0.09249199293785723,-0.34785588247820265,-0.6307134834340744,-0.5186926864384824,0.002072865207350868,-0.001084506609307469,-0.7109360503589254
9281,6.0,300.18076,4887.4691,0.0,0.0,0.0,0.0,0.0,-0.09250195974744102,-0.32438532193183867,-0.6345311261008464,-0.5267521081313855,-0.03563318614197167,-0.022269573441335774,-0.7407773297165303
9282,6.0,299.51822999999996,4479.2332,0.0,0.0,0.0,0.0,0.0,-0.09251192655702487,-0.2660547833550628,-0.6028406045157354,-0.49267965847619655,-0.02907357927358887,0.013710151327586587,-0.7224412823294033
9283,6.0,299.84494,4409.6989,0.0,0.0,0.0,0.0,0.0,-0.09252189336660868,-0.2815427873611097,-0.5860241789660835,-0.47287140935627453,-0.007253657754305283,0.015007405298115586,-0.7298428716598834
9284,6.0,300.33601,4641.9874,0.0,0.0,0.0,0.0,0.0,-0.09253186017619253,-0.32758693893531365,-0.5910584614254285,-0.4924028689463795,-0.010679305469465388,0.016437546006009485,-0.7076723819193264
9285,6.0,299.51922,4619.7841,0.0,0.0,0.0,0.0,0.0,-0.09254182698577634,-0.29639683117708976,-0.6208307080537203,-0.48707146102771054,0.0046046888362724055,0.0076211779537267025,-0.7357400885668933
9286,6.0,299.13386,4698.3407,0.0,0.0,0.0,0.0,0.0,-0.09255179379536016,-0.3191412561717897,-0.6335708892460784,-0.47546610981485155,-0.014337093747460988,0.02462087400064108,-0.7357424291746243
9287,6.0,298.74644,4819.045999999999,0.0,0.0,0.0,0.0,0.0,-0.09256176060494398,-0.3222039667190557,-0.6478421926645465,-0.4948234930377765,0.04233258707365106,0.020835070691761378,-0.7460969231390333
9288,6.0,299.60022000000004,4774.7822,0.0,0.0,0.0,0.0,0.0,-0.09257172741452782,-0.3163342899497637,-0.6460347976661704,-0.4890454647400295,-0.0001951171945165678,-0.002180709569819278,-0.7343481666395213
9289,6.0,299.78033999999997,4581.3489,0.0,0.0,0.0,0.0,0.0,-0.09258169422411161,-0.2877130549050677,-0.6163805338795224,-0.4885220704008745,0.007755620536620153,-0.016115489527974987,-0.7206162669117883
9290,6.0,299.74725,4453.8854,0.0,0.0,0.0,0.0,0.0,-0.09259166103369543,-0.27404176779831674,-0.5990241473515804,-0.48080403293166357,-0.02673633249317058,0.002037855187245648,-0.7431312718188463
9291,6.0,299.65162000000004,4417.6107,0.0,0.0,0.0,0.0,0.0,-0.09260162784327924,-0.26807273172421875,-0.5991635604328395,-0.47560705290376154,-0.0033791880702498975,0.006872809972343534,-0.7217106276822933
9292,6.0,299.8172,4536.6677,0.0,0.0,0.0,0.0,0.0,-0.09261159465286309,-0.3193077331632197,-0.6177354417807415,-0.4419905353960696,-0.005177986148152445,0.004533181446240176,-0.7484874030399553
9293,6.0,300.36342,4806.8074,0.0,0.0,0.0,0.0,0.0,-0.0926215614624469,-0.3292697447013937,-0.6345320988209424,-0.49734759022938557,-0.008126770907174842,-0.015353439326516484,-0.7374856145141633
9294,6.0,300.9925,4680.8403,0.0,0.0,0.0,0.0,0.0,-0.0926315282720307,-0.3115281914129387,-0.6376786963439874,-0.4736516727282805,-0.0062969853107390636,0.014367374726699486,-0.7532982030572443
9295,6.0,300.00667999999996,4609.6216,0.0,0.0,0.0,0.0,0.0,-0.09264149508161454,-0.27767317509670875,-0.6360213231554174,-0.48751536589652056,0.013692743690868588,-0.014392542845933387,-0.7238468324706203
9296,6.0,299.94135,4908.8684,0.0,0.0,0.0,0.0,0.0,-0.09265146189119836,-0.34909897823088665,-0.6329753717648053,-0.5100990792928595,0.030270122263678468,0.012420126896521088,-0.7232760078942843
9297,6.0,300.27033,4934.4495,0.0,0.0,0.0,0.0,0.0,-0.09266142870078217,-0.3324020452655277,-0.6418703397551704,-0.5256770497752855,0.008294308568809522,-0.024667800652522377,-0.7029141087872214
9298,6.0,299.72137999999995,4671.9638,0.0,0.0,0.0,0.0,0.0,-0.09267139551036599,-0.3210702817121697,-0.6214553564753684,-0.4776346879438735,0.015744788939139685,0.024914532118122876,-0.7243509649253743
9299,6.0,299.58574,4746.6931,0.0,0.0,0.0,0.0,0.0,-0.09268136231994983,-0.2837191776484027,-0.6441690799920384,-0.5149878995678485,-0.027702824140805875,0.011087523669753388,-0.7385702480837083
9300,6.0,298.55293,4685.7744,0.0,0.0,0.0,0.0,0.0,-0.09269132912953365,-0.3309960695592687,-0.6036966792602234,-0.4896656649937385,0.002206625872927018,0.008368688016250202,-0.7327803850247934
9301,6.0,299.03772000000004,4667.066,0.0,0.0,0.0,0.0,0.0,-0.09270129593911744,-0.2795414461610927,-0.6007159609110494,-0.5384141202898365,-0.016523821212274182,0.0004422399570406855,-0.7188042818904593
9302,6.0,299.45847000000003,4721.345,0.0,0.0,0.0,0.0,0.0,-0.09271126274870126,-0.3101952609063887,-0.5975164413352814,-0.5274592857736785,-0.02440798610163068,0.02850903076837227,-0.7042061039897314
9303,6.0,300.20552999999995,4806.325,0.0,0.0,0.0,0.0,0.0,-0.0927212295582851,-0.27287925582608574,-0.6536781484705103,-0.5344453919006535,-0.01997951270482438,0.016245989048104283,-0.7253229250837994
9304,6.0,300.29889,4762.7987,0.0,0.0,0.0,0.0,0.0,-0.09273119636786892,-0.3315290087143657,-0.6374519715016114,-0.4787909076329835,-0.03493987280079697,0.009221144444631102,-0.7313364732347902
9305,6.0,300.7413,4927.8607,0.0,0.0,0.0,0.0,0.0,-0.09274116317745276,-0.3267034456431197,-0.6590497114906424,-0.5121934267195556,0.005936270909589324,-0.017121943759554285,-0.7636568614795642
9306,6.0,300.57523,4892.71,0.0,0.0,0.0,0.0,0.0,-0.09275112998703658,-0.3531530830734957,-0.6502661300837703,-0.4838424558740325,0.016083457652563686,-0.013565907069850789,-0.7411560522064073
9307,6.0,300.65751,4523.8993,0.0,0.0,0.0,0.0,0.0,-0.0927610967966204,-0.2567180383210978,-0.6195934080916083,-0.49884097902177155,0.024034705778040774,-0.005171141339751915,-0.7436310067681663
9308,6.0,299.95862999999997,4539.4774,0.0,0.0,0.0,0.0,0.0,-0.09277106360620418,-0.2898168154251927,-0.6070854435571684,-0.48298552999946054,0.01014613731984579,-0.01022042071117699,-0.7181809608264423
9309,6.0,299.82271000000003,4698.2238,0.0,0.0,0.0,0.0,0.0,-0.09278103041578803,-0.2853089569228017,-0.6163472182162344,-0.5264865555451774,0.027759313847130974,-0.0028970217630887867,-0.7428718899257474
9310,6.0,300.11315,4646.8508,0.0,0.0,0.0,0.0,0.0,-0.09279099722537185,-0.30248787269572874,-0.5977736650056674,-0.5122650736341265,0.030220438558275074,0.01807843868170298,-0.7239050436888653
9311,6.0,300.23317000000003,4558.9616,0.0,0.0,0.0,0.0,0.0,-0.09280096403495566,-0.28051806726997774,-0.6219744951641034,-0.4833179165622645,0.02450543441674808,-0.006534387580018844,-0.7803374811183132
9312,6.0,300.33912000000004,4673.0154,0.0,0.0,0.0,0.0,0.0,-0.09281093084453948,-0.32711685168391974,-0.6114010074555815,-0.48196212713345854,0.007004391744904644,-0.008990476235515922,-0.7476950313292543
9313,6.0,300.12537000000003,4825.7462,0.0,0.0,0.0,0.0,0.0,-0.09282089765412332,-0.3217334539026197,-0.6310444210492354,-0.5141284608330284,0.011233836984193389,-0.024047471716050678,-0.7596994206964952
9314,6.0,300.18551,4931.5949,0.0,0.0,0.0,0.0,0.0,-0.09283086446370711,-0.3296054547245257,-0.6355842374597804,-0.5338920154910395,-0.0049420069886381155,0.02080918823120698,-0.7126758615756312
9315,6.0,299.23997,4861.3746,0.0,0.0,0.0,0.0,0.0,-0.09284083127329096,-0.3092635166444327,-0.6400606750765704,-0.5284122880227324,-0.01047611741366229,0.005268522780362715,-0.7408852104546774
9316,6.0,298.63011,4727.0315,0.0,0.0,0.0,0.0,0.0,-0.09285079808287475,-0.3275005289667857,-0.6235353461481474,-0.4858636871735126,-0.04883392496853316,-0.00042927843136398257,-0.7173630653457223
9317,6.0,298.62866,4485.857,0.0,0.0,0.0,0.0,0.0,-0.09286076489245859,-0.29596224820919975,-0.6020846591461294,-0.4655415986628786,-0.01818632144635018,0.011748446444981388,-0.7532383605063383
9318,6.0,299.09439,4568.342000000001,0.0,0.0,0.0,0.0,0.0,-0.09287073170204241,-0.3305137321141657,-0.5843540590912555,-0.47379411542733857,0.01122477751504929,0.01183731253175179,-0.7154253967819894
9319,6.0,300.00517,4766.7289,0.0,0.0,0.0,0.0,0.0,-0.09288069851162625,-0.2922884363941227,-0.6242766095238045,-0.5324015043289375,0.049695293944793655,0.003078413694665777,-0.7285848507332263
9320,6.0,300.20853999999997,4596.3009,0.0,0.0,0.0,0.0,0.0,-0.09289066532121007,-0.2833368175906667,-0.6193109139637284,-0.49451299267713256,0.014117111071250387,-0.025888534988749476,-0.7133520540298663
9321,6.0,300.35093,4659.6235,0.0,0.0,0.0,0.0,0.0,-0.09290063213079386,-0.2663690732710807,-0.6210928155895884,-0.5289473144730356,0.018207803361720284,-0.027038416798483976,-0.7327541215822013
9322,6.0,300.32434,4933.9436,0.0,0.0,0.0,0.0,0.0,-0.09291059894037768,-0.3465504515793667,-0.6324533047832814,-0.5207919075981595,-0.009017039701462531,0.027091911337513475,-0.7243717568174263
9323,6.0,300.74426,4805.4258,0.0,0.0,0.0,0.0,0.0,-0.09292056574996152,-0.3269314775781247,-0.6361631680369164,-0.4976348061027315,-0.021839586575899378,0.023232016141571478,-0.7592377028909273
9324,6.0,299.1187,4622.0998,0.0,0.0,0.0,0.0,0.0,-0.09293053255954534,-0.3214363487082977,-0.6334099446001944,-0.4501566117944985,-0.008068579953931843,-0.006988869259997693,-0.7706623713459543
9325,6.0,298.84078,4606.5299,0.0,0.0,0.0,0.0,0.0,-0.09294049936912918,-0.2883849613113797,-0.6217088615178874,-0.4901762518516295,-0.040146186888620164,0.0010664680217521989,-0.7575063624450573
9326,6.0,298.60666000000003,4472.6301,0.0,0.0,0.0,0.0,0.0,-0.09295046617871297,-0.2864035000783247,-0.5959298234011944,-0.47723454534688253,0.00941488546312685,0.01919810436020538,-0.7341438852868603
9327,6.0,299.75723,4473.9539,0.0,0.0,0.0,0.0,0.0,-0.09296043298829682,-0.24503514307808574,-0.6221865177475284,-0.49274863041050354,-0.0071256171895186645,-0.006316207374411134,-0.7369594337372333
9328,6.0,299.8628,4535.5908,0.0,0.0,0.0,0.0,0.0,-0.0929703997978806,-0.29450748451062575,-0.6124298818721234,-0.47176899324747457,0.02549596744950608,-0.026820767637253676,-0.7542081219120463
9329,6.0,299.68003,4554.0249,0.0,0.0,0.0,0.0,0.0,-0.09298036660746445,-0.28240806241650573,-0.6202847385023375,-0.4816170546794026,0.016402233226774383,-0.02639617936835008,-0.7315893095322433
9330,6.0,300.09412000000003,4645.3124,0.0,0.0,0.0,0.0,0.0,-0.09299033341704827,-0.3192531189828297,-0.6175252531799974,-0.4752806141190445,0.03184304308291367,0.019894790810962983,-0.7624396947969393
9331,6.0,299.55865,4983.4177,0.0,0.0,0.0,0.0,0.0,-0.09300030022663208,-0.3120510487295407,-0.6653983414497033,-0.5373851749457875,0.000995396856153021,0.025083460161544776,-0.7181738782082434
9332,6.0,300.19287,5171.9799,0.0,0.0,0.0,0.0,0.0,-0.0930102670362159,-0.36770346596700665,-0.6552526378009004,-0.5491966313614874,-0.003418080256788257,-0.015414646725307185,-0.7451777837083213
9333,6.0,300.63207,4900.8431,0.0,0.0,0.0,0.0,0.0,-0.09302023384579974,-0.3028838913648127,-0.6512263466735363,-0.5356237004419435,-0.015840460013581685,-0.012084877902184588,-0.7165982337727393
9334,6.0,299.9857,4502.5584,0.0,0.0,0.0,0.0,0.0,-0.09303020065538353,-0.3088767489487617,-0.6085808183197504,-0.4512077473157376,-0.00987098581014045,0.03142440360534717,-0.7504153545352293
9335,6.0,300.10149,4624.897,0.0,0.0,0.0,0.0,0.0,-0.09304016746496738,-0.3157206656892037,-0.5953719076311325,-0.49476062086907147,-0.025220529595322477,0.01212521741516579,-0.7189534323051793
9336,6.0,300.3036,4741.9272,0.0,0.0,0.0,0.0,0.0,-0.09305013427455117,-0.34956772799214864,-0.6077626695265054,-0.4840970653591606,-0.02032419911059228,-0.017874137064039987,-0.7477626556409283
9337,6.0,299.95304,4629.5361,0.0,0.0,0.0,0.0,0.0,-0.09306010108413501,-0.2687583980668888,-0.6315942004209945,-0.5069107763956986,-0.015771179037994184,0.005354960511943454,-0.7307612004905153
9338,6.0,299.76432,4659.0154,0.0,0.0,0.0,0.0,0.0,-0.09307006789371883,-0.2959094781439917,-0.6008681004135644,-0.5194467572954035,0.00882761046744232,0.044163330394081365,-0.7251328292325383
9339,6.0,300.75523,4781.6111,0.0,0.0,0.0,0.0,0.0,-0.09308003470330267,-0.27146937910694174,-0.6468710127086984,-0.5351499857551915,-0.013676620855277386,0.04655026594615355,-0.7258166007975213
9340,6.0,299.47326,4895.726,0.0,0.0,0.0,0.0,0.0,-0.09309000151288649,-0.3378041881736777,-0.6387937578140354,-0.5115805218665664,-0.02305770875336868,-0.016045390859556787,-0.7354478368405503
9341,6.0,300.41918,5180.8356,0.0,0.0,0.0,0.0,0.0,-0.09309996832247028,-0.34863631810272566,-0.6732478886493933,-0.5529604400504465,0.0012450243729243387,-0.032291042495377766,-0.7387390555503683
9342,6.0,299.64602,4918.9245,0.0,0.0,0.0,0.0,0.0,-0.0931099351320541,-0.34160293372608463,-0.6460881148864324,-0.5075391839752176,0.058643856785948044,0.002608834790846948,-0.7400392479461874
9343,6.0,300.67269,4427.9352,0.0,0.0,0.0,0.0,0.0,-0.09311990194163794,-0.26714815114046975,-0.6013631845449254,-0.47747037930765757,0.04199515756509936,-0.005287608663221345,-0.7668334309405673
9344,6.0,300.40241000000003,4502.5386,0.0,0.0,0.0,0.0,0.0,-0.09312986875122176,-0.3118375771984727,-0.5904995628027694,-0.46632215587741355,-0.000928886035411414,-0.05432783895149025,-0.7537945436187293
9345,6.0,298.67479,4654.9848,0.0,0.0,0.0,0.0,0.0,-0.0931398355608056,-0.28638341746134277,-0.6281578032368484,-0.5004579133988506,-0.02607777261717577,-0.021335260590376277,-0.7617987735786853
9346,6.0,298.55267000000003,4528.9429,0.0,0.0,0.0,0.0,0.0,-0.09314980237038939,-0.29578615547432074,-0.5937659366201354,-0.48713348206633156,-0.015809054326732186,0.012143083040928988,-0.7557957733612353
9347,6.0,297.97401,4523.7267,0.0,0.0,0.0,0.0,0.0,-0.09315976917997323,-0.26158878221430276,-0.6257484363540624,-0.48776275090843557,-0.013339827667788488,0.029457433875222372,-0.7524762343111223
9348,6.0,298.86582999999996,4776.0985,0.0,0.0,0.0,0.0,0.0,-0.09316973598955702,-0.30824110676352867,-0.6221520165816234,-0.5214215614753015,-0.043237832818991864,-0.004346223529213866,-0.7233673929208033
9349,6.0,299.23312999999996,4934.8854,0.0,0.0,0.0,0.0,0.0,-0.09317970279914087,-0.3122049918172337,-0.6584338580798623,-0.5294430876144645,0.00017521981991784982,0.002446911649341378,-0.7583348767868253
9350,6.0,299.14142999999996,5019.5302,0.0,0.0,0.0,0.0,0.0,-0.09318966960872468,-0.3173112859611857,-0.6629296589060634,-0.5455708982636555,0.02192705235103158,0.014123815747162087,-0.7274159755503673
9351,6.0,299.46565,4807.1277,0.0,0.0,0.0,0.0,0.0,-0.0931996364183085,-0.3174332103457187,-0.6190522514782004,-0.5247613249974106,0.03919321098406876,0.0069626970099146935,-0.7380582426756773
9352,6.0,300.78231,4677.0048,0.0,0.0,0.0,0.0,0.0,-0.09320960322789232,-0.3093758860805227,-0.6322978722179414,-0.4800189262241795,0.01936335430576428,-0.045339104796871255,-0.7204241546928283
9353,6.0,300.16433,4546.9789,0.0,0.0,0.0,0.0,0.0,-0.09321957003747616,-0.29351814711298574,-0.5885363704690174,-0.5001135299548625,-0.006753339780877743,-0.018921094955116683,-0.7506991253582352
9354,6.0,300.04299,4763.2077,0.0,0.0,0.0,0.0,0.0,-0.09322953684705998,-0.3166691083128077,-0.6156595963008714,-0.5155674988900505,-0.0038966766811970466,0.004113703301565906,-0.7251770272019002
9355,6.0,299.30622,4869.7038,0.0,0.0,0.0,0.0,0.0,-0.0932395036566438,-0.3247554723258697,-0.6411472743513094,-0.5143656221514346,0.02166549703646808,-0.003551642933294866,-0.7524664564476573
9356,6.0,299.84666,4801.668,0.0,0.0,0.0,0.0,0.0,-0.09324947046622759,-0.31246775796566667,-0.6277789186269555,-0.5193404876249156,0.009535393729320092,-0.025688220510229974,-0.7343928712339333
9357,6.0,300.09281,4771.3438,0.0,0.0,0.0,0.0,0.0,-0.09325943727581143,-0.29741481315505675,-0.6533963940152034,-0.49955818784005457,0.0013252164308886786,0.00033461265300869765,-0.7428591939019943
9358,6.0,300.77622,4929.241,0.0,0.0,0.0,0.0,0.0,-0.09326940408539525,-0.33649811892727866,-0.6447159006735054,-0.5171521713839454,0.011846084237867488,0.017686837783054982,-0.7320785776080303
9359,6.0,300.71275,4834.4204,0.0,0.0,0.0,0.0,0.0,-0.09327937089497909,-0.29782838131587275,-0.6289089964634854,-0.5428057184757534,-0.008485567529860311,0.027675009412310773,-0.7242717692975583
9360,6.0,301.31346,4649.4321,0.0,0.0,0.0,0.0,0.0,-0.09328933770456291,-0.31365964405829666,-0.6299271202964665,-0.4697245078581995,0.00022189552014688276,-0.01081842470819539,-0.7330937326182183
9361,6.0,300.6162,4497.1653,0.0,0.0,0.0,0.0,0.0,-0.0932993045141467,-0.27307390117029573,-0.6169883522170094,-0.47696370359515255,-0.0025642510771718774,0.012544484094544187,-0.7513814783730782
9362,6.0,300.13867,4426.1075,0.0,0.0,0.0,0.0,0.0,-0.09330927132373051,-0.27879915940283473,-0.6350431923038834,-0.43158380838900556,-0.0034032713026017265,-0.002934953591182367,-0.7685012811351712
9363,6.0,299.23462,4545.9149,0.0,0.0,0.0,0.0,0.0,-0.09331923813331436,-0.26607776386733073,-0.6507635548228623,-0.46500327914975054,-0.007253090030274253,-0.025216433025168176,-0.7613130822757513
9364,6.0,298.76747,4812.2006,0.0,0.0,0.0,0.0,0.0,-0.09332920494289818,-0.34230772009814164,-0.6294100182404324,-0.4910710935449435,0.01996260966665618,-0.07091142672091294,-0.7526706770053122
9365,6.0,299.56483,4707.8436,0.0,0.0,0.0,0.0,0.0,-0.09333917175248202,-0.2751000163352577,-0.6502117185534004,-0.5057551545241474,0.03979420609538237,-0.017515289474874483,-0.7612821072201943
9366,6.0,300.47679,4500.6674,0.0,0.0,0.0,0.0,0.0,-0.09334913856206581,-0.3062201693065777,-0.5945322880682684,-0.4673380708251766,0.03366244813472497,0.02366037268759698,-0.7380661460264574
9367,6.0,300.39457999999996,4789.0296,0.0,0.0,0.0,0.0,0.0,-0.09335910537164965,-0.29597520767797875,-0.6218728459140713,-0.5378973526063355,-0.01872070650933988,0.03108667113501557,-0.7455589076009353
9368,6.0,299.14108,4970.1617,0.0,0.0,0.0,0.0,0.0,-0.09336907218123344,-0.34835449271991165,-0.6420994457352813,-0.5203511134071565,-0.03658859891301357,0.020521682568332377,-0.7266650255037543
9369,6.0,301.09655,4984.1529,0.0,0.0,0.0,0.0,0.0,-0.09337903899081729,-0.3195458874667237,-0.6495943452674703,-0.5459177743028896,-0.046949255464530756,0.023986066733490477,-0.7225815566732473
9370,6.0,301.03,4849.6848,0.0,0.0,0.0,0.0,0.0,-0.0933890058004011,-0.3352018174118437,-0.6330830802504354,-0.5058981950407645,-0.01178192118853509,0.03116874844611597,-0.7171832945129804
9371,6.0,301.44416,4814.0157,0.0,0.0,0.0,0.0,0.0,-0.09339897260998492,-0.30871474039027275,-0.6407371309758314,-0.5138886954618656,-0.045419511258556755,0.008842612547097912,-0.7226808957130513
9372,6.0,300.11733,4866.6441,0.0,0.0,0.0,0.0,0.0,-0.09340893941956874,-0.36177081570399966,-0.6189149459571495,-0.4986525347681735,-0.013089823404364986,-0.02228865598046908,-0.7402217849517023
9373,6.0,300.28029,4979.1396,0.0,0.0,0.0,0.0,0.0,-0.09341890622915258,-0.32675902241110466,-0.6565764287915484,-0.5301986682140345,0.02349534261730978,-0.01797260369550788,-0.7398536103953662
9374,6.0,299.97739,4809.5551,0.0,0.0,0.0,0.0,0.0,-0.0934288730387364,-0.3220319675145807,-0.6433143630026844,-0.49663831515938556,0.03891090329420717,-0.003110262273133987,-0.7658276890238083
9375,6.0,300.7249,4627.7266,0.0,0.0,0.0,0.0,0.0,-0.09343883984832024,-0.27622746985402874,-0.6233404373589114,-0.5071454248538565,0.008749098276818771,-0.02240107202606368,-0.7416400513816742
9376,6.0,299.66008,4650.8339,0.0,0.0,0.0,0.0,0.0,-0.093448806657904,-0.29839111002390967,-0.6190133122768574,-0.4963329418442475,-0.016330504238945286,-0.038276034218800464,-0.7611562716902753
9377,6.0,300.45875,4824.4192,0.0,0.0,0.0,0.0,0.0,-0.09345877346748785,-0.3243408807824527,-0.6116203051747244,-0.5305417952278985,-0.01878149239608898,0.002555507438083948,-0.7383555403875183
9378,6.0,300.50266,4654.3155,0.0,0.0,0.0,0.0,0.0,-0.09346874027707167,-0.3130968140252497,-0.6020197402122225,-0.4996791293719905,0.016795798817366283,0.025985074418527175,-0.7482050102370853
9379,6.0,299.38524,4585.198,0.0,0.0,0.0,0.0,0.0,-0.09347870708665551,-0.27712359837496975,-0.6258005072767013,-0.49086158382176653,0.011695329848239188,0.025816669212156872,-0.7322019002777013
9380,6.0,299.20501,4844.6957,0.0,0.0,0.0,0.0,0.0,-0.09348867389623933,-0.32117172831218166,-0.6391207640188084,-0.5123740182848785,-0.009954105755593752,-0.003403108979935707,-0.7361240090297833
9381,6.0,298.73335,4932.3339,0.0,0.0,0.0,0.0,0.0,-0.09349864070582312,-0.3187095305691817,-0.6624398740727254,-0.5181569507131095,-0.0033717482813906473,-0.013061374381307288,-0.7397931497618992
9382,6.0,299.02917,4843.6931,0.0,0.0,0.0,0.0,0.0,-0.09350860751540693,-0.3197371384230987,-0.6410210639188534,-0.5116035631738405,-0.02599460910196818,0.02455850947023618,-0.7506530022136834
9383,6.0,299.132,4722.068,0.0,0.0,0.0,0.0,0.0,-0.09351857432499078,-0.31167597394002367,-0.6262595906320094,-0.4974552075225065,-0.0034253444494051766,-0.016295892628779382,-0.7508037029010562
9384,6.0,298.77912000000003,4550.2991,0.0,0.0,0.0,0.0,0.0,-0.0935285411345746,-0.29353683144482967,-0.6206445132153444,-0.4689959709037985,-0.01956914236132398,-0.009116139208942891,-0.7558403563656353
9385,6.0,299.29337000000004,4716.8963,0.0,0.0,0.0,0.0,0.0,-0.09353850794415841,-0.30035621740035073,-0.6134880898790604,-0.5199743768874755,-0.01161620210817989,0.01073882783333979,-0.7517854206579443
9386,6.0,300.67805,4985.6651,0.0,0.0,0.0,0.0,0.0,-0.09354847475374223,-0.34946768980977566,-0.6493877537045813,-0.5166622446955935,0.02803662317424927,0.01831108799741368,-0.7281442389272412
9387,6.0,300.08304,4768.9123,0.0,0.0,0.0,0.0,0.0,-0.09355844156332607,-0.3254140950233707,-0.6012478361535414,-0.5229683282829556,0.04084374878746416,-0.01063485013457799,-0.7216798856742592
9388,6.0,299.86672999999996,4625.2406,0.0,0.0,0.0,0.0,0.0,-0.09356840837290986,-0.3176918525662447,-0.6055253626432004,-0.4827404248002706,0.015109108250402884,-0.016721825480565684,-0.7221459300577543
9389,6.0,300.42854,5093.0561,0.0,0.0,0.0,0.0,0.0,-0.0935783751824937,-0.35442939316445765,-0.6449599622250923,-0.5487725253996315,0.01210503144667359,-0.017045016798712183,-0.7260199094300863
9390,6.0,300.18212,5308.4772,0.0,0.0,0.0,0.0,0.0,-0.09358834199207752,-0.38171304688464464,-0.6589696039377363,-0.5729618653019335,-0.025648469695556873,0.023486633732700275,-0.7274800028241863
9391,6.0,300.32274,4924.8141,0.0,0.0,0.0,0.0,0.0,-0.09359830880166134,-0.3183208782283247,-0.6530156450251264,-0.5256839905384705,-0.016859275896380983,-0.0020188150019665283,-0.7353284151837644
9392,6.0,300.57948,4662.9245,0.0,0.0,0.0,0.0,0.0,-0.09360827561124516,-0.29416624214194775,-0.6419954457450174,-0.48125093702076954,-0.03672921269564106,-0.007550897102940522,-0.7482223874763003
9393,6.0,300.39739,4655.6056,0.0,0.0,0.0,0.0,0.0,-0.093618242420829,-0.31872560071576767,-0.6199620284779884,-0.47650022273441056,-0.024590402530383776,0.017176212421660182,-0.7425755041389963
9394,6.0,300.14661,4639.6878,0.0,0.0,0.0,0.0,0.0,-0.09362820923041282,-0.3235244545143777,-0.6287054446508964,-0.4581193288978575,-0.025492360279150077,0.04391788372960766,-0.7536165561061633
9395,6.0,299.63382,4678.1417,0.0,0.0,0.0,0.0,0.0,-0.0936381760399966,-0.32043748675971767,-0.6085509781043054,-0.4930497886052256,0.022356600479174683,-0.010772831493445689,-0.7426779538566073
9396,6.0,299.49356,4727.9248,0.0,0.0,0.0,0.0,0.0,-0.09364814284958042,-0.2916302088641607,-0.6329367365384924,-0.5126041273825885,0.038151526046512466,-0.03936206202048306,-0.7647327405682453
9397,6.0,299.76899,4629.1139,0.0,0.0,0.0,0.0,0.0,-0.09365810965916427,-0.27745049312223174,-0.6315415722108004,-0.4981429814253845,0.05043076254312875,-0.025788053002832677,-0.7537680572611153
9398,6.0,300.70557,4797.6211,0.0,0.0,0.0,0.0,0.0,-0.09366807646874808,-0.3118325514779767,-0.6362237705253974,-0.5103007160627595,0.016256484292640084,0.02058418186100058,-0.7537328468201403
9399,6.0,300.39763,5101.3354,0.0,0.0,0.0,0.0,0.0,-0.0936780432783319,-0.3566764779112277,-0.6539985077546274,-0.5400035955892055,0.004942969981533155,0.006616144400112613,-0.7121716176633663
9400,6.0,300.97927999999996,4934.0873,0.0,0.0,0.0,0.0,0.0,-0.09368801008791575,-0.35304963023828567,-0.6512127285921924,-0.49557698634214054,-0.03281239412233117,-0.0026325076569082774,-0.7336226390379172
9401,6.0,301.0596,4588.8869,0.0,0.0,0.0,0.0,0.0,-0.09369797689749954,-0.30530358326611773,-0.6059929370343464,-0.4836105330586436,0.002006758946976688,0.0035107145193555467,-0.7211322037302074
9402,6.0,302.14258,4619.3304,0.0,0.0,0.0,0.0,0.0,-0.09370794370708335,-0.3145287289340687,-0.6257680427434974,-0.46386433537484556,-0.023108637743144977,0.028834552561748772,-0.7498832766427174
9403,6.0,300.32256,4761.0470000000005,0.0,0.0,0.0,0.0,0.0,-0.09371791051666717,-0.32059321316758665,-0.6173149024592374,-0.5093312890295845,-0.02326579891315558,-0.019109266644437784,-0.7205252770528083
9404,6.0,299.46852,4798.4071,0.0,0.0,0.0,0.0,0.0,-0.09372787732625101,-0.3266789553882027,-0.6378749730208584,-0.49404202389815155,0.005747049695814645,-0.025907539507625074,-0.7463665793881463
9405,6.0,299.80831,4945.3737,0.0,0.0,0.0,0.0,0.0,-0.09373784413583483,-0.3326728363547527,-0.6441181945720164,-0.5264791081569425,0.005225700196686455,-0.005950928484210915,-0.7349551135819222
9406,6.0,299.50087,4815.2263,0.0,0.0,0.0,0.0,0.0,-0.09374781094541865,-0.3421773148102717,-0.6172650302893155,-0.5042662138997005,0.045641821370247054,0.03706555802658577,-0.7390078910669002
9407,6.0,299.86782,4698.6624,0.0,0.0,0.0,0.0,0.0,-0.09375777775500249,-0.3076856227937067,-0.6101579319678995,-0.5104324993707655,-0.007144370928994513,-0.01981067078766098,-0.7394591622639373
9408,6.0,301.07147000000003,4860.088,0.0,0.0,0.0,0.0,0.0,-0.09376774456458628,-0.3292543230348717,-0.6337671152604444,-0.5143239573073225,0.013889227070759987,-0.02081298487933168,-0.7568100569763372
9409,6.0,300.45071,4917.4269,0.0,0.0,0.0,0.0,0.0,-0.0937777113741701,-0.3164816975743117,-0.6354739958489004,-0.5428193061595945,0.015897435066704685,-0.03938539919678626,-0.7293390330476583
9410,6.0,299.40744,4615.4441,0.0,0.0,0.0,0.0,0.0,-0.09378767818375394,-0.29671934868391975,-0.6219364780203515,-0.48432393205655055,0.050175580571694245,0.02119570058785278,-0.7497706234965993
9411,6.0,299.28254,4508.7653,0.0,0.0,0.0,0.0,0.0,-0.09379764499333776,-0.2955376761522977,-0.5990560343322274,-0.4759583669784335,-0.005872293386350235,-0.01127209832121949,-0.7105812507039093
9412,6.0,299.71372,4710.2314,0.0,0.0,0.0,0.0,0.0,-0.09380761180292158,-0.3325001886702137,-0.6321641637347454,-0.46712836858448054,-0.015781178803231086,0.0013881810080027986,-0.7558379043003932
9413,6.0,300.02025,4933.8667,0.0,0.0,0.0,0.0,0.0,-0.09381757861250539,-0.3433064807217117,-0.6604351283523724,-0.49603066907441556,-0.03100443879664987,0.01139542099089049,-0.7350429522330912
9414,6.0,299.83942,4829.6043,0.0,0.0,0.0,0.0,0.0,-0.09382754542208924,-0.31849614009812166,-0.6500491324423544,-0.4995338495726525,-0.008004983210080332,0.025068881519105975,-0.7789870619150373
9415,6.0,300.00675,4735.3298,0.0,0.0,0.0,0.0,0.0,-0.09383751223167303,-0.29329076365804474,-0.6414272252214384,-0.5047040190029085,-0.006712718584368744,-0.023711929892435275,-0.7346679382385803
9416,6.0,301.13405,4753.9451,0.0,0.0,0.0,0.0,0.0,-0.09384747904125684,-0.3173767925801507,-0.6106922187456294,-0.5170115829325704,-0.039888710918959264,-0.020968259377656083,-0.7469494413756703
9417,6.0,301.21972,4852.7107,0.0,0.0,0.0,0.0,0.0,-0.09385744585084066,-0.3228980430375557,-0.6322125869570244,-0.5199922506192395,0.0028325405532249872,0.0017003274947592585,-0.7327871636679623
9418,6.0,300.27065,4910.7688,0.0,0.0,0.0,0.0,0.0,-0.0938674126604245,-0.3394305761741897,-0.6354124307728244,-0.5179080762235475,0.006658293273797383,0.03989769034134546,-0.7440911945660833
9419,6.0,299.60326000000003,4867.6666,0.0,0.0,0.0,0.0,0.0,-0.09387737947000832,-0.32299437272456266,-0.6109554611216095,-0.5456992669188244,0.02594997847481348,0.0032712992261020968,-0.7271607885126823
9420,6.0,299.54762,4735.9274,0.0,0.0,0.0,0.0,0.0,-0.09388734627959217,-0.3036617229365787,-0.6360546996137113,-0.4998872610750315,-0.01106235555051949,-0.016957508467075784,-0.7386547531420483
9421,6.0,299.93991,4844.6966,0.0,0.0,0.0,0.0,0.0,-0.09389731308917593,-0.3055659643795127,-0.6362283605483504,-0.5308724592655325,-0.0029700871264747774,-0.013451325708792488,-0.7313499494611203
9422,6.0,299.28439,4973.095,0.0,0.0,0.0,0.0,0.0,-0.0939072798987598,-0.34458179782757564,-0.6540467485918884,-0.5130681351333826,-0.004905115059122165,0.015401059041466186,-0.7035261929076294
9423,6.0,298.9466,4869.5537,0.0,0.0,0.0,0.0,0.0,-0.09391724670834359,-0.3207256246906547,-0.6517435500545804,-0.5077535572988745,-0.019805190117870082,0.0019335119078477678,-0.7365610339304143
9424,6.0,299.46752000000004,4713.5188,0.0,0.0,0.0,0.0,0.0,-0.0939272135179274,-0.3328802283852207,-0.6213197734794874,-0.47859202690335556,-0.028215936017946072,0.005883325552114025,-0.7237944575729512
9425,6.0,300.46457000000004,4654.287,0.0,0.0,0.0,0.0,0.0,-0.09393718032751125,-0.2906234942273057,-0.6232434389268384,-0.5009201074319656,-0.020483924816605978,0.03267243996551877,-0.7673653264480612
9426,6.0,299.11132000000003,4716.9185,0.0,0.0,0.0,0.0,0.0,-0.09394714713709507,-0.2926242882722687,-0.6318282105315894,-0.5093729437411955,-0.02033348250800848,0.046120091629448655,-0.7468943307027313
9427,6.0,300.08754,4782.9133,0.0,0.0,0.0,0.0,0.0,-0.09395711394667891,-0.2913292938494627,-0.6280751828236943,-0.5344817270492395,0.00968333310752057,-0.030147342696061074,-0.7649098060232203
9428,6.0,301.53652999999997,4791.1762,0.0,0.0,0.0,0.0,0.0,-0.0939670807562627,-0.3127560377516177,-0.6214979535095724,-0.5221439378690945,0.00026803750101824175,-0.02997408098196147,-0.7214879457078163
9429,6.0,300.98015,4656.9259,0.0,0.0,0.0,0.0,0.0,-0.09397704756584652,-0.3018159662894167,-0.5961429098972244,-0.5176303241061355,0.03245239244130177,-0.021634408496899876,-0.7399478325221652
9430,6.0,301.02327,4815.8652,0.0,0.0,0.0,0.0,0.0,-0.09398701437543036,-0.3164378441099837,-0.6383717391473853,-0.5090932056535875,0.017885110562622986,-0.003165915946801577,-0.7260135360869574
9431,6.0,300.3201,4985.9012,0.0,0.0,0.0,0.0,0.0,-0.09399698118501415,-0.3330329859702967,-0.6743200896402114,-0.5082363912365265,-0.006838633654420593,-0.0022323672890674977,-0.7386233322564473
9432,6.0,299.61418,4939.1535,0.0,0.0,0.0,0.0,0.0,-0.09400694799459802,-0.3340590334190597,-0.6545371515077874,-0.5127831686752585,-0.012060136361242788,-0.011365387244676388,-0.7484109837174133
9433,6.0,300.52359,4655.335999999999,0.0,0.0,0.0,0.0,0.0,-0.09401691480418181,-0.3015944698175567,-0.6415678339378155,-0.4719436167697086,0.015805770383158085,0.013915102438563686,-0.7514326576356293
9434,6.0,299.43107000000003,4400.7344,0.0,0.0,0.0,0.0,0.0,-0.0940268816137656,-0.2765079476142097,-0.6018779763907314,-0.4593274573895906,-0.03102778914520437,0.017673658439004283,-0.7544481608607363
9435,6.0,298.82504,4410.5403,0.0,0.0,0.0,0.0,0.0,-0.09403684842334945,-0.29380100601090176,-0.6002778011703065,-0.44661530269499855,-0.024952105458331077,-0.031868108863887475,-0.7647472300446753
9436,6.0,300.0244,4655.8074,0.0,0.0,0.0,0.0,0.0,-0.09404681523293326,-0.30361401912187075,-0.6238948371511264,-0.48774032768372255,-0.025027639200285678,-0.007161802985039924,-0.7608844166884453
9437,6.0,299.72331,4884.6853,0.0,0.0,0.0,0.0,0.0,-0.0940567820425171,-0.32380142642921267,-0.6534528725757773,-0.5075680616030676,0.012350995881948388,0.036229553740078566,-0.7641639526246103
9438,6.0,300.49827999999997,4884.2975,0.0,0.0,0.0,0.0,0.0,-0.09406674885210092,-0.3243312143764987,-0.6284438234750764,-0.5319294311073475,0.043670929348985164,0.013190815055082088,-0.7316872401544082
9439,6.0,300.91021,4749.2923,0.0,0.0,0.0,0.0,0.0,-0.09407671566168471,-0.29172789630630175,-0.6449348741526164,-0.5070035090448505,-0.004241808207733876,-0.03264089748990577,-0.7522649716652723
9440,6.0,299.41211,4838.1617,0.0,0.0,0.0,0.0,0.0,-0.09408668247126858,-0.3427942321336567,-0.6159115308057354,-0.5119745950954585,0.026471305783764474,-0.05119182583898985,-0.7070098886064433
9441,6.0,300.91046,5148.6891,0.0,0.0,0.0,0.0,0.0,-0.09409664928085235,-0.3580063484024757,-0.6625158982277284,-0.5445506871354685,0.015007602881885088,-0.004683515742377016,-0.7279248702805913
9442,6.0,300.84772999999996,4806.1325,0.0,0.0,0.0,0.0,0.0,-0.09410661609043622,-0.33955998847696167,-0.6354944331034174,-0.4858898391585936,0.03551904149170647,0.01966827064510718,-0.7147572292685463
9443,6.0,300.59783999999996,4393.1767,0.0,0.0,0.0,0.0,0.0,-0.09411658290002001,-0.24173072171946478,-0.6072692572578094,-0.48641605033302654,-0.04116928983259256,-0.010178207698760891,-0.7602209506554662
9444,6.0,300.47643,4637.4698,0.0,0.0,0.0,0.0,0.0,-0.09412654970960382,-0.3056944748896957,-0.6287710424623705,-0.4752095143595276,-0.017123206269178882,0.0071638332342652935,-0.7489135051045083
9445,6.0,299.93588,4939.6546,0.0,0.0,0.0,0.0,0.0,-0.09413651651918767,-0.3256040692846197,-0.6590607863142354,-0.5168667894932805,-0.03371064033598117,0.03166851480618907,-0.7739622837416302
9446,6.0,299.56986,4935.6498,0.0,0.0,0.0,0.0,0.0,-0.09414648332877149,-0.34066647785116366,-0.6355987978637174,-0.5240490203096114,0.01866191267228738,0.017541495162210784,-0.7588848689411053
9447,6.0,300.13739,4839.3664,0.0,0.0,0.0,0.0,0.0,-0.09415645013835533,-0.30690857142451766,-0.6607366107871264,-0.5034013644093465,-0.029051709283430472,-0.013820567217483787,-0.7431259117258173
9448,6.0,299.50481,4698.0505,0.0,0.0,0.0,0.0,0.0,-0.09416641694793912,-0.3173425041967667,-0.6122657758859275,-0.49848175146381857,-0.0040295215713328164,-0.02317996041768398,-0.7421186904639123
9449,6.0,298.9708,4700.4964,0.0,0.0,0.0,0.0,0.0,-0.09417638375752291,-0.2962987890974137,-0.6267376318966884,-0.5057971233432896,-0.0006879324055911423,0.015416577979997785,-0.7436624985812742
9450,6.0,298.72017999999997,4770.1866,0.0,0.0,0.0,0.0,0.0,-0.09418635056710678,-0.31103919691467874,-0.6188579911690284,-0.5201204267568895,0.028531206760060875,-0.013709878763309686,-0.7395520266356023
9451,6.0,299.71198,4808.0147,0.0,0.0,0.0,0.0,0.0,-0.09419631737669057,-0.31817778704920274,-0.6220524444942964,-0.5212861811294405,0.023713350469075477,-0.035305498019881365,-0.7388859565498663
9452,6.0,299.97907999999995,4551.7146,0.0,0.0,0.0,0.0,0.0,-0.09420628418627444,-0.2868381945037257,-0.6149252534233974,-0.48184412402681254,0.011431194798921091,-0.028171080449269175,-0.7551617219786593
9453,6.0,300.12089,4539.003,0.0,0.0,0.0,0.0,0.0,-0.09421625099585823,-0.28876370406625873,-0.6218345855902954,-0.46914527330603356,0.024440793113368477,0.03330430475437897,-0.7610082966456713
9454,6.0,299.71445,4881.3559,0.0,0.0,0.0,0.0,0.0,-0.09422621780544202,-0.3274762413618887,-0.6403809431681784,-0.5159531317456095,0.010418322641208391,-0.0017386782004441782,-0.7552189503443073
9455,6.0,300.14542,4900.8179,0.0,0.0,0.0,0.0,0.0,-0.09423618461502586,-0.3115437448019737,-0.6547884679300904,-0.5233940554449715,-0.007656900389977232,0.0005321543827620486,-0.7730029790769543
9456,6.0,300.99114,4700.0577,0.0,0.0,0.0,0.0,0.0,-0.09424615142460968,-0.2933288010667987,-0.6322597942791833,-0.5031115951457484,-0.02263592718724208,-0.008765417784254383,-0.7452123355367313
9457,6.0,301.3791,4671.1488,0.0,0.0,0.0,0.0,0.0,-0.09425611823419353,-0.3129381390595897,-0.6151903399145594,-0.4917841075078125,-0.016092060145912686,0.052939071271679544,-0.7557989347015474
9458,6.0,299.00446,4636.0143,0.0,0.0,0.0,0.0,0.0,-0.09426608504377734,-0.32001670425818973,-0.5861882545547765,-0.5030276169774606,-0.006973594109440154,0.015093698742882087,-0.7273801774243344
9459,6.0,300.03787,4754.6901,0.0,0.0,0.0,0.0,0.0,-0.09427605185336113,-0.32691281351128265,-0.6071613258571574,-0.5112329264197615,0.0005802939254105515,-0.010639121996999592,-0.7476345099007813
9460,6.0,299.23127,4930.896,0.0,0.0,0.0,0.0,0.0,-0.094286018662945,-0.3315201529084917,-0.6167303584765474,-0.5506187380093385,0.003276714845236577,-0.01000597119111247,-0.7157055705671403
9461,6.0,299.72382999999996,4723.6851,0.0,0.0,0.0,0.0,0.0,-0.09429598547252876,-0.3046053222247047,-0.6462661834590064,-0.48501081429934056,0.02900877888994357,0.017655006531163486,-0.7716137827923513
9462,6.0,300.00682,4473.7972,0.0,0.0,0.0,0.0,0.0,-0.09430595228211267,-0.26055803328507576,-0.6139275364474304,-0.48543705821890754,0.021532291125321682,-0.008799802426397881,-0.7399779767126403
9463,6.0,299.99525,4793.7256,0.0,0.0,0.0,0.0,0.0,-0.09431591909169643,-0.3168224738479437,-0.6463817547654124,-0.4939686443259095,0.016720512308436082,-0.011994643927779188,-0.7745117996683633
9464,6.0,299.84286000000003,5060.6819,0.0,0.0,0.0,0.0,0.0,-0.09432588590128024,-0.3234139697234737,-0.6691916357165724,-0.5457153168004085,0.028069342033228372,-0.02894071280122597,-0.7315116439120783
9465,6.0,301.54927000000004,4877.6347,0.0,0.0,0.0,0.0,0.0,-0.09433585271086409,-0.3215465193916707,-0.6705338374615374,-0.49059880754083257,-0.005742808433546064,0.012945469715618387,-0.7669775860322943
9466,6.0,300.38277,4555.3255,0.0,0.0,0.0,0.0,0.0,-0.0943458195204479,-0.28183977096541973,-0.6076898472418184,-0.4951755771825245,-0.03168980825704057,-0.009139221856820971,-0.7545240634257273
9467,6.0,300.77192,4756.329000000001,0.0,0.0,0.0,0.0,0.0,-0.09435578633003175,-0.31665445671636167,-0.6462269402826334,-0.4829238534658736,-0.05031580020003286,-0.02039945015576898,-0.7568993040451453
9468,6.0,300.75955,4988.4795,0.0,0.0,0.0,0.0,0.0,-0.09436575313961554,-0.3270292866102777,-0.6412201776960044,-0.5481237413606015,-0.030041789393393768,-0.0002911945822486677,-0.7270307479948483
9469,6.0,300.65216000000004,4995.6078,0.0,0.0,0.0,0.0,0.0,-0.09437571994919933,-0.3363094010961537,-0.6427287247098864,-0.5395018949346915,0.00955938435061278,0.060888197651447235,-0.7350947191807002
9470,6.0,300.27921000000003,4780.265,0.0,0.0,0.0,0.0,0.0,-0.0943856867587832,-0.30544673524024574,-0.6349588594980604,-0.5126756020446425,0.011626558537451988,0.04145113852015886,-0.7442632849630674
9471,6.0,299.66724,4516.7523,0.0,0.0,0.0,0.0,0.0,-0.09439565356836699,-0.2909094334055257,-0.5998747606780295,-0.48219571167901154,-0.00908446460551685,0.014673309382392885,-0.7455005139976724
9472,6.0,299.04476,4631.6996,0.0,0.0,0.0,0.0,0.0,-0.09440562037795086,-0.3030192311806697,-0.6289067065182594,-0.4759950972945585,0.03135033299653697,-0.02035763231089188,-0.7572672962164633
9473,6.0,300.27353,5056.7622,0.0,0.0,0.0,0.0,0.0,-0.09441558718753465,-0.34493619218255167,-0.6828822252377283,-0.5093110341600855,0.02307199557977868,-0.004071214178497556,-0.7764868368957842
9474,6.0,299.48256000000003,4998.0936,0.0,0.0,0.0,0.0,0.0,-0.09442555399711844,-0.3610919178719976,-0.6530278546888314,-0.5051758794419775,0.01995155206831488,-0.01986574093059598,-0.7511844113611293
9475,6.0,299.98999,4526.4174,0.0,0.0,0.0,0.0,0.0,-0.09443552080670228,-0.28401916047300874,-0.6277738827739584,-0.4641248318430546,-0.029811309446147172,-0.04642705777374386,-0.7554447227315894
9476,6.0,299.58774,4587.7849,0.0,0.0,0.0,0.0,0.0,-0.0944454876162861,-0.2830707989094127,-0.6208197953501434,-0.49068144821898857,-0.01144867437639619,-0.015624299316748285,-0.7313283672339903
9477,6.0,300.94343,5112.3065,0.0,0.0,0.0,0.0,0.0,-0.09445545442586994,-0.3535007595803087,-0.6538020385602373,-0.5467107336986484,-0.009300844164371852,0.025408058884080178,-0.7307772503720993
9478,6.0,299.64404,5047.2908,0.0,0.0,0.0,0.0,0.0,-0.09446542123545376,-0.3353863910500597,-0.6650264482655004,-0.5338375431656635,0.005870452310918535,0.012191681555475288,-0.7478513859521853
9479,6.0,300.74501000000004,4851.9642,0.0,0.0,0.0,0.0,0.0,-0.09447538804503755,-0.2960149878769047,-0.6421881253840334,-0.5366728702579885,-0.01791530845535328,-0.006327702798120644,-0.7511846241436503
9480,6.0,300.50037000000003,4694.8968,0.0,0.0,0.0,0.0,0.0,-0.09448535485462142,-0.28994791985563173,-0.6374456994834924,-0.49973778642027955,0.012173898002970189,0.0067930461138714536,-0.7665180568469423
9481,6.0,300.61197999999996,4801.9539,0.0,0.0,0.0,0.0,0.0,-0.09449532166420518,-0.2976402511698057,-0.6528923831504614,-0.5091414464908485,0.015608182560657687,0.025232930763296375,-0.7455223090073233
9482,6.0,299.43627000000004,4932.1551,0.0,0.0,0.0,0.0,0.0,-0.09450528847378903,-0.3238755963365327,-0.6613836115059804,-0.5139927866446384,0.026592129778688876,0.014583505026029885,-0.7839899741512862
9483,6.0,299.88441,4914.0704,0.0,0.0,0.0,0.0,0.0,-0.09451525528337285,-0.32051773616763773,-0.6557421287917093,-0.5174948323027635,-0.03434946919277867,-0.008382926611955442,-0.7275913792751783
9484,6.0,299.24872,4653.4336,0.0,0.0,0.0,0.0,0.0,-0.09452522209295666,-0.2835835338575157,-0.6440815655809013,-0.4868625085920885,-0.002750388869567247,-0.004978865784875795,-0.7717460017979003
9485,6.0,299.92497000000003,4662.6757,0.0,0.0,0.0,0.0,0.0,-0.0945351889025405,-0.31079815484838974,-0.6282464018255924,-0.4782924291137876,0.006581646780582964,0.0019154992594950582,-0.7118709559611933
9486,6.0,299.24604,5076.9704,0.0,0.0,0.0,0.0,0.0,-0.09454515571212432,-0.36301860280464665,-0.6608238820182394,-0.5194297448262245,0.026117223509819272,-0.025424531290955878,-0.7471119058967043
9487,6.0,299.78265,5108.044,0.0,0.0,0.0,0.0,0.0,-0.09455512252170817,-0.37574824619596464,-0.6274469778941955,-0.5495226040511585,0.01071524646376249,-0.04016813287253606,-0.6987123430075394
9488,6.0,300.30557000000005,4681.1662,0.0,0.0,0.0,0.0,0.0,-0.09456508933129196,-0.30855047228406074,-0.5994140358575594,-0.5149931076733625,0.0063897963854488045,-0.005499652828873474,-0.7414411098570403
9489,6.0,300.85544,4641.2611,0.0,0.0,0.0,0.0,0.0,-0.09457505614087575,-0.2994315456240927,-0.6050767765589284,-0.5063191700598115,0.023872745855556578,0.03331102868204257,-0.7425266046891703
9490,6.0,300.00617,4835.0801,0.0,0.0,0.0,0.0,0.0,-0.09458502295045962,-0.3246601761539647,-0.6132355980866414,-0.5318478340767945,-0.011929208236321188,0.03555537157404197,-0.7467010228486533
9491,6.0,300.36638999999997,4950.4378,0.0,0.0,0.0,0.0,0.0,-0.09459498976004341,-0.3577115331533796,-0.6529797151765804,-0.4941182405706735,-0.001043121523548079,0.017446577945843183,-0.7674043771069152
9492,6.0,299.69343,4863.7782,0.0,0.0,0.0,0.0,0.0,-0.09460495656962725,-0.3325899018340677,-0.6438663107296574,-0.5020109218271205,-0.019144863133700882,0.005648207553859684,-0.7476545722527613
9493,6.0,299.99698,4640.9598,0.0,0.0,0.0,0.0,0.0,-0.09461492337921107,-0.2956807977289227,-0.6283254353333924,-0.48672964110647554,0.015955843868719184,0.027157872905773373,-0.7715128833473933
9494,6.0,299.291,4587.7609999999995,0.0,0.0,0.0,0.0,0.0,-0.09462489018879486,-0.27353728070602773,-0.6455390042597394,-0.4754884925095606,-0.01919229033113158,-0.0015678553793352784,-0.7510335992162452
9495,6.0,299.88365,4845.4761,0.0,0.0,0.0,0.0,0.0,-0.0946348569983787,-0.2925635236637717,-0.6569167389701344,-0.5234234802278754,0.0036299429493474767,-0.00950788226657992,-0.7524262912136932
9496,6.0,299.24026000000003,5054.1438,0.0,0.0,0.0,0.0,0.0,-0.09464482380796252,-0.3493818573938047,-0.6511650653074883,-0.5357865905280195,-0.024485855385065775,7.911459212600233e-05,-0.7217734289234913
9497,6.0,299.89128,4852.148,0.0,0.0,0.0,0.0,0.0,-0.09465479061754636,-0.33479339656153567,-0.6251365143536705,-0.5150019229492325,0.007174918291684304,0.01045509855358789,-0.7398320180357353
9498,6.0,299.34137999999996,4537.3479,0.0,0.0,0.0,0.0,0.0,-0.09466475742713018,-0.29134541465855374,-0.6082533460199314,-0.4796416932119495,-0.0058367717762695245,-0.005520254939181744,-0.7452350728689753
9499,6.0,299.63307000000003,4738.5476,0.0,0.0,0.0,0.0,0.0,-0.09467472423671397,-0.3240227202510527,-0.6253589328831214,-0.49101848559975153,-0.008950187081064691,-0.02359407269380368,-0.7605641688618393
9500,6.0,300.12387,4989.3659,0.0,0.0,0.0,0.0,0.0,-0.09468469104629781,-0.3306940906319657,-0.6522769249072203,-0.5336716335942895,0.003272939272713957,0.0016605062592042082,-0.7598159748554982
9501,6.0,299.94028,4762.576,0.0,0.0,0.0,0.0,0.0,-0.0946946578558816,-0.3104397784205207,-0.6053332706892424,-0.5319311232350146,0.009706777789659381,0.009759810286643281,-0.7349645570728542
9502,6.0,299.46492,4545.1569,0.0,0.0,0.0,0.0,0.0,-0.09470462466546545,-0.2786939941749558,-0.6291990393046104,-0.47372117155263954,0.012284323012118289,0.022332530723049183,-0.7614745132816833
9503,6.0,299.65932000000004,4505.2225,0.0,0.0,0.0,0.0,0.0,-0.09471459147504926,-0.3082041839298847,-0.5841141316000764,-0.4771568189317115,-0.016371579371499086,-0.005961237594703344,-0.7105462834429583
9504,6.0,299.29995,4784.969,0.0,0.0,0.0,0.0,0.0,-0.09472455828463308,-0.3018537605181467,-0.6517911930742823,-0.5008661518641405,0.0011939273862814589,0.005515559943518385,-0.7473522893504283
9505,6.0,299.62212,5044.3283,0.0,0.0,0.0,0.0,0.0,-0.09473452509421693,-0.35896799367488263,-0.6553276892358073,-0.5190541735441585,0.016079727878945585,-0.011539099855070489,-0.7014814542058294
9506,6.0,299.98486,5044.6671,0.0,0.0,0.0,0.0,0.0,-0.09474449190380074,-0.3307234546198637,-0.6733849307254184,-0.5293444274522274,-0.004591323763478376,-0.0005917890248800295,-0.7351017916663983
9507,6.0,300.56254,4899.2251,0.0,0.0,0.0,0.0,0.0,-0.09475445871338459,-0.3103056241072807,-0.6606010581887484,-0.5183354347182245,-0.01946125858342668,-0.036316837130192764,-0.7301431787245213
9508,6.0,300.15177,4947.9701,0.0,0.0,0.0,0.0,0.0,-0.09476442552296835,-0.3321635971194947,-0.6472301490741424,-0.5246656032604635,-0.0014852653636842786,0.01690220932961818,-0.7492993304775863
9509,6.0,299.79455,5119.6089,0.0,0.0,0.0,0.0,0.0,-0.09477439233255217,-0.37604703338545264,-0.6517411689168453,-0.5284450666634676,0.0065525607271873934,0.003216315716050647,-0.7320595589036533
9510,6.0,300.01977,4979.7935,0.0,0.0,0.0,0.0,0.0,-0.09478435914213601,-0.3407058020875447,-0.6625624469373224,-0.5104646193989355,0.00975768144818318,0.007100550395294763,-0.7648895612862223
9511,6.0,300.31754,4637.6426,0.0,0.0,0.0,0.0,0.0,-0.09479432595171983,-0.28029919511587675,-0.6261343731846514,-0.5032939801637485,-0.020319795525657682,-0.024024072731491375,-0.7552693696692833
9512,6.0,298.79659,4406.0616,0.0,0.0,0.0,0.0,0.0,-0.09480429276130367,-0.2773364720884788,-0.6117202015020835,-0.4502760233187835,-0.002660885549808958,0.0008399790639994791,-0.7688989108719143
9513,6.0,299.3061,4781.1301,0.0,0.0,0.0,0.0,0.0,-0.09481425957088749,-0.2984083048781067,-0.6266020489008074,-0.5283338118024875,-0.004332618113496115,-0.024830707963850077,-0.7299488677528443
9514,6.0,298.89625,4835.7876,0.0,0.0,0.0,0.0,0.0,-0.09482422638047128,-0.34023830875640665,-0.6300312013467384,-0.4996891909454835,-0.01124454906425059,0.007778296972533143,-0.7385964709962963
9515,6.0,299.58191,4968.3169,0.0,0.0,0.0,0.0,0.0,-0.09483419319005512,-0.3458870868713977,-0.6703443698253384,-0.4940128220302695,-0.03590446257799457,-0.02834482852341677,-0.7264722242747264
9516,6.0,300.09718,4976.6448,0.0,0.0,0.0,0.0,0.0,-0.09484415999963894,-0.3530969388854547,-0.6443222530096554,-0.5153565706167335,-0.02001702828977688,0.014317467093023986,-0.7435732515124662
9517,6.0,300.19633999999996,4960.0156,0.0,0.0,0.0,0.0,0.0,-0.09485412680922278,-0.3389719183839237,-0.6563550640422013,-0.5123938982518406,-0.0038758278444894264,0.016771275125195984,-0.7119445077859523
9518,6.0,300.11014,5047.5321,0.0,0.0,0.0,0.0,0.0,-0.09486409361880657,-0.3338574878416687,-0.6666763234033304,-0.5337899102784625,0.005105195476868565,0.014143039128059287,-0.7585331799638962
9519,6.0,300.70284,4987.0558,0.0,0.0,0.0,0.0,0.0,-0.09487406042839039,-0.32996193637470767,-0.6235204817691804,-0.5624580182727845,-0.008897770234841553,-0.012367380136065387,-0.7178267995189893
9520,6.0,300.31411,4574.4507,0.0,0.0,0.0,0.0,0.0,-0.09488402723797423,-0.2997231488703717,-0.6296552044996304,-0.4611404556610195,-0.026869835286596273,0.014278722435700187,-0.7800839152807884
9521,6.0,300.34335,4491.9397,0.0,0.0,0.0,0.0,0.0,-0.09489399404755802,-0.3021713536294907,-0.5844144893272194,-0.47885167224148056,-0.007747617684680332,-0.015867317220732285,-0.7223682877921993
9522,6.0,299.96528,4821.4872,0.0,0.0,0.0,0.0,0.0,-0.09490396085714187,-0.3249857840735997,-0.6403159229092614,-0.5003100194142546,-0.018546181272365583,0.00939623132613583,-0.7823277069647332
9523,6.0,299.53938999999997,4952.0329,0.0,0.0,0.0,0.0,0.0,-0.09491392766672568,-0.33714399493852165,-0.6466013260620824,-0.5215490283378815,0.008411273195428032,-0.007393527811359384,-0.7419773015449583
9524,6.0,299.30897999999996,4881.5417,0.0,0.0,0.0,0.0,0.0,-0.0949238944763095,-0.2855141400680517,-0.6649415885696254,-0.5334110763310745,-0.013642096384620087,0.013916686148469987,-0.7682736241027033
9525,6.0,299.36485,4821.8086,0.0,0.0,0.0,0.0,0.0,-0.09493386128589335,-0.31224645401132567,-0.6458816550460564,-0.5075813047818745,0.007393319284488804,0.008144299728604802,-0.7035368522986813
9526,6.0,299.69392,4836.8293,0.0,0.0,0.0,0.0,0.0,-0.0949438280954771,-0.31479383569023267,-0.6462742185322994,-0.5092072672173444,-0.018167689803511383,-0.013797070960914886,-0.7354695102601894
9527,6.0,299.59682999999995,4871.0256,0.0,0.0,0.0,0.0,0.0,-0.094953794905061,-0.33135973515265965,-0.6518402242466214,-0.4974701833589846,0.009299494413913641,-0.021312942743673683,-0.7313484498509724
9528,6.0,300.03943,4880.7901,0.0,0.0,0.0,0.0,0.0,-0.09496376171464477,-0.3250976468846397,-0.6415057115741843,-0.5170349687448785,-0.03472102192494807,0.021468000406476683,-0.7513293871854373
9529,6.0,301.67748,4797.143,0.0,0.0,0.0,0.0,0.0,-0.09497372852422858,-0.3153153352517007,-0.6281575803218264,-0.5147387818982625,0.0011380194881637788,0.0028190864157471673,-0.7402295160499653
9530,6.0,301.07372000000004,4636.1712,0.0,0.0,0.0,0.0,0.0,-0.09498369533381243,-0.2986622760156717,-0.6046768771419615,-0.5059411163150005,-0.037033095519881966,0.00021474885440906182,-0.7385224936064952
9531,6.0,300.62072,4836.2363,0.0,0.0,0.0,0.0,0.0,-0.09499366214339625,-0.34149573186550464,-0.6155590920234524,-0.5130402302256285,-0.013987135401422787,-0.013324221589748287,-0.7595561572648563
9532,6.0,300.08321,4943.3415,0.0,0.0,0.0,0.0,0.0,-0.09500362895298009,-0.3549053370014297,-0.6250121277713945,-0.5227349261224206,0.008382585247996751,0.0014221145512017786,-0.7392082815391773
9533,6.0,299.97992,4642.1075,0.0,0.0,0.0,0.0,0.0,-0.09501359576256391,-0.3018673988644927,-0.6433705173232264,-0.4658468605205055,0.019538290922279183,-0.009032726434210691,-0.7794161733323872
9534,6.0,300.62605,4671.1494,0.0,0.0,0.0,0.0,0.0,-0.0950235625721477,-0.3037150097593377,-0.6188695624851704,-0.49732821688747353,0.02420479905907768,-0.005276644790514295,-0.7430621377645233
9535,6.0,299.42976,4832.9395,0.0,0.0,0.0,0.0,0.0,-0.09503352938173154,-0.3174574270231087,-0.6381257625531094,-0.5135097297919645,0.034072082858652764,-0.009770449108718252,-0.7871674048748742
9536,6.0,298.97987,4821.2933,0.0,0.0,0.0,0.0,0.0,-0.09504349619131533,-0.29442355700484274,-0.6625025638564124,-0.5086266445125416,0.020552097296584082,0.030912273567553866,-0.7328712634262623
9537,6.0,299.71668,4888.4101,0.0,0.0,0.0,0.0,0.0,-0.0950534630008992,-0.3371210144262537,-0.6302994998407174,-0.5185341127978325,-0.0023021907587585377,-0.007915200334619453,-0.7232266828794164
9538,6.0,300.21639,5054.2826,0.0,0.0,0.0,0.0,0.0,-0.09506342981048299,-0.32454737102033165,-0.6565126041677494,-0.5553157399078965,-0.026831029834266475,-0.02918671776650477,-0.7044895708377074
9539,6.0,300.17432,4921.2957,0.0,0.0,0.0,0.0,0.0,-0.09507339662006681,-0.3315848286623747,-0.6410657989107684,-0.5233003906057275,-0.002263775306392228,-0.030317876740891474,-0.7307435800712763
9540,6.0,300.79582,4987.5929,0.0,0.0,0.0,0.0,0.0,-0.09508336342965065,-0.3191684720694757,-0.6535545319583104,-0.5433806872449984,0.007451488250204633,0.006089655493827204,-0.7624853822439484
9541,6.0,299.7681,4996.8984,0.0,0.0,0.0,0.0,0.0,-0.09509333023923444,-0.35624709291635065,-0.6395820967893384,-0.5231031513412615,0.0077154319979038525,-0.0005313730656099386,-0.7561245831511862
9542,6.0,300.00588,4858.6644,0.0,0.0,0.0,0.0,0.0,-0.09510329704881829,-0.3289920635114887,-0.6423257956751204,-0.5055947975633215,0.0026649105845061977,-0.004235814934717386,-0.7751966148809493
9543,6.0,299.84219,4558.6764,0.0,0.0,0.0,0.0,0.0,-0.0951132638584021,-0.3263458696828297,-0.5966648654212374,-0.46271305021372255,-0.001995669836557278,0.011372729254900989,-0.7634057274422793
9544,6.0,300.23058,4746.2698,0.0,0.0,0.0,0.0,0.0,-0.09512323066798589,-0.2913831480922777,-0.6461299317180593,-0.5052344351652566,0.03552038607458917,0.03856467978803756,-0.7535436730264703
9545,6.0,299.70872,4877.6137,0.0,0.0,0.0,0.0,0.0,-0.09513319747756976,-0.3083791823546557,-0.6490184443081334,-0.5252751339906195,-0.007937549186775113,0.012670471611978188,-0.7440209459366504
9546,6.0,300.07277999999997,4784.8754,0.0,0.0,0.0,0.0,0.0,-0.09514316428715355,-0.3032952911704147,-0.6247126414393374,-0.5264747207840095,-0.011542182161874689,-0.02123319793430348,-0.7587634714466243
9547,6.0,299.86012,5061.2009,0.0,0.0,0.0,0.0,0.0,-0.09515313109673743,-0.3296212107635807,-0.6679035617919493,-0.5409539127254945,-0.04165295159557626,-0.023464844802549876,-0.7584863272792723
9548,6.0,299.85847,5041.6861,0.0,0.0,0.0,0.0,0.0,-0.09516309790632119,-0.37496942163910063,-0.6553603969490354,-0.5022168446449434,-6.363595257737953e-05,0.011976696228757886,-0.7341141463964254
9549,6.0,299.58344,4804.6237,0.0,0.0,0.0,0.0,0.0,-0.095173064715905,-0.3238912206530747,-0.6349207308967973,-0.5016736716638366,-0.010689985125519389,-0.013841342897534187,-0.7307536720422723
9550,6.0,300.63738,4875.9355,0.0,0.0,0.0,0.0,0.0,-0.09518303152548885,-0.3428948377360857,-0.6233794373552604,-0.5158883647992175,0.02578155401669127,-0.03035400315995687,-0.7182731463205403
9551,6.0,299.7156,4953.5007,0.0,0.0,0.0,0.0,0.0,-0.09519299833507266,-0.3110422670624817,-0.6573669867845703,-0.5373312599079665,0.003074986882827577,0.00010922252445942389,-0.7415970085174263
9552,6.0,300.07392999999996,4714.83,0.0,0.0,0.0,0.0,0.0,-0.09520296514465651,-0.28791546174504373,-0.6305276736307364,-0.5147474654516195,0.04016165212489646,0.02276630309085918,-0.7541701452982983
9553,6.0,300.1327,4690.58,0.0,0.0,0.0,0.0,0.0,-0.09521293195424033,-0.26598169762534973,-0.6412503320189804,-0.5185871767055695,0.00963924821686973,0.02256527832401958,-0.7991470202771702
9554,6.0,299.99411000000003,4884.7848,0.0,0.0,0.0,0.0,0.0,-0.09522289876382409,-0.3535712209922626,-0.6419004636806435,-0.4893809214506365,-0.0013123691288957488,0.002063749705476238,-0.7884636861253073
9555,6.0,299.73323,4916.2097,0.0,0.0,0.0,0.0,0.0,-0.09523286557340796,-0.35045767568747965,-0.6428960021688954,-0.5010513131874146,-0.006624595817871704,0.011944571134337388,-0.7765542281599352
9556,6.0,300.82239,4832.8792,0.0,0.0,0.0,0.0,0.0,-0.09524283238299175,-0.3098192437942787,-0.6512061829965464,-0.5080491831480505,-0.008597978306554392,0.022158901199163278,-0.7570637748013773
9557,6.0,299.77581000000004,4790.4888,0.0,0.0,0.0,0.0,0.0,-0.09525279919257562,-0.27190715381264674,-0.6611015936056474,-0.5231802191438675,-0.024721866664608277,0.015676131112363684,-0.7273669747755314
9558,6.0,299.77918,4880.6445,0.0,0.0,0.0,0.0,0.0,-0.09526276600215941,-0.2887171350916627,-0.6485339081103134,-0.5463430151048575,-0.025074369281647576,-0.04260467613625416,-0.7388997772812302
9559,6.0,299.52142000000003,4925.8106,0.0,0.0,0.0,0.0,0.0,-0.09527273281174323,-0.3315546439418957,-0.6585813670294204,-0.5071874139380006,-0.015078810045912687,-0.018309763679532985,-0.7392522261960143
9560,6.0,299.21044,4810.9923,0.0,0.0,0.0,0.0,0.0,-0.09528269962132707,-0.35270807376207663,-0.6103521618795684,-0.49936128294812154,0.013225329393238386,0.007538716012888343,-0.7529345273313522
9561,6.0,299.65109,4739.498,0.0,0.0,0.0,0.0,0.0,-0.09529266643091086,-0.3275672413533697,-0.6162035393520544,-0.49691826602951455,0.0017168298938379186,0.012064578449681188,-0.7469009370933832
9562,6.0,299.37332000000004,4762.3999,0.0,0.0,0.0,0.0,0.0,-0.0953026332404947,-0.3026400121982437,-0.6361580815214144,-0.5088525587548375,-0.006324977965951724,-0.026661298283515274,-0.7515792546600972
9563,6.0,298.89508,4953.3202,0.0,0.0,0.0,0.0,0.0,-0.09531260005007852,-0.3181660232155417,-0.6411202712361443,-0.5463993619429185,-0.014272781750363886,0.00898683116960618,-0.7623946355649923
9564,6.0,300.23537999999996,4943.849,0.0,0.0,0.0,0.0,0.0,-0.09532256685966231,-0.3103604105401877,-0.6568403500450954,-0.5356058773726845,0.01054171117213589,0.03204012529361417,-0.7554702667666103
9565,6.0,300.41547,4601.1449,0.0,0.0,0.0,0.0,0.0,-0.09533253366924618,-0.2863682592398467,-0.6315416228733054,-0.4807232667661926,-0.0019421328423485883,0.043120110382623554,-0.7849002577761243
9566,6.0,301.56091000000004,4782.7679,0.0,0.0,0.0,0.0,0.0,-0.09534250047882997,-0.32343412326796267,-0.6326978222974133,-0.4977100804526605,-0.0023991582867034875,-0.005814298497001584,-0.7350989849636212
9567,6.0,300.73852,4926.6331,0.0,0.0,0.0,0.0,0.0,-0.09535246728841384,-0.35633685674270965,-0.6643154810678334,-0.47692111669344955,-0.014355071843985287,-0.004869582100640335,-0.7840413357988553
9568,6.0,299.70982000000004,4841.664000000001,0.0,0.0,0.0,0.0,0.0,-0.0953624340979976,-0.3308116073785637,-0.6097532196129574,-0.5311801225258965,0.006949283503765884,0.012457225022432386,-0.7211062645276473
9569,6.0,300.16947000000005,4831.2544,0.0,0.0,0.0,0.0,0.0,-0.09537240090758142,-0.29779542029011974,-0.6493193694553324,-0.5214659215646795,-0.023752981720236776,0.008986977888220662,-0.7854587105687393
9570,6.0,299.53272999999996,4858.366,0.0,0.0,0.0,0.0,0.0,-0.09538236771716527,-0.27905825758590574,-0.6561908972609994,-0.5415727856215725,-0.01244019938100209,-0.031390822470532966,-0.7129285053555653
9571,6.0,298.5087,4842.0907,0.0,0.0,0.0,0.0,0.0,-0.09539233452674908,-0.3104996817664327,-0.6549083252844193,-0.5064666587443676,-0.016012562569566884,-0.011957054375569388,-0.7763366934959662
9572,6.0,299.83358,4964.0659,0.0,0.0,0.0,0.0,0.0,-0.09540230133633293,-0.3517786802403527,-0.6580034395698834,-0.4991699610642395,0.025476369166071874,0.010712253322967092,-0.7443985741164193
9573,6.0,298.75406,4626.4609,0.0,0.0,0.0,0.0,0.0,-0.09541226814591675,-0.3161931847408377,-0.6164436897582555,-0.47369170623973156,0.016414747878759482,0.0036769927111159266,-0.7880093042504632
9574,6.0,299.93273999999997,4536.5809,0.0,0.0,0.0,0.0,0.0,-0.0954222349555005,-0.28411224775969574,-0.6158396812411444,-0.4790553861740855,0.0006993333335963264,-0.016339872749369884,-0.7539458927861662
9575,6.0,300.49572,4732.1207,0.0,0.0,0.0,0.0,0.0,-0.09543220176508438,-0.2904568247183567,-0.6497965595899273,-0.4981931474378355,0.0037637206375253068,-0.002189137277526028,-0.7794313923488893
9576,6.0,300.53387999999995,5080.799,0.0,0.0,0.0,0.0,0.0,-0.09544216857466817,-0.35238514082270567,-0.6399247881056593,-0.5521260995206035,0.006904899096385484,0.022676327495229277,-0.7230895901408864
9577,6.0,300.95872,5034.2998,0.0,0.0,0.0,0.0,0.0,-0.09545213538425204,-0.35828060480704266,-0.6468123455279083,-0.5252084925315426,-0.013241962906879986,0.026383015223050876,-0.7466685684479503
9578,6.0,300.61075,4804.748,0.0,0.0,0.0,0.0,0.0,-0.09546210219383583,-0.3140465941389857,-0.6459720470874774,-0.5005047660834745,-0.017030282115757984,-0.02071230024339488,-0.7231184981662393
9579,6.0,299.18742000000003,4869.873,0.0,0.0,0.0,0.0,0.0,-0.09547206900341965,-0.31982638549190673,-0.6420478611726904,-0.5184455446065915,-0.053190079665952156,-0.015706199309081185,-0.7498427770362203
9580,6.0,299.50462000000005,5124.1302,0.0,0.0,0.0,0.0,0.0,-0.09548203581300349,-0.34167107479530967,-0.6541413152237213,-0.5617952311173724,-0.005468779098326475,0.0017125573221412483,-0.7350428306430794
9581,6.0,299.5609,4855.1782,0.0,0.0,0.0,0.0,0.0,-0.09549200262258728,-0.3212133627587907,-0.6256161970835115,-0.5290233690255415,0.003203539645539747,-0.00946674887214537,-0.7732280928516713
9582,6.0,300.16505,4563.9325,0.0,0.0,0.0,0.0,0.0,-0.09550196943217112,-0.26121537928745076,-0.6199442966012384,-0.5061618528492855,0.033176795335294766,-0.01003765714293963,-0.7538537174245692
9583,6.0,299.54496,4566.0057,0.0,0.0,0.0,0.0,0.0,-0.09551193624175494,-0.2773037542427497,-0.6417138736747283,-0.4689341119851936,0.018684382506504983,-0.00841974173711381,-0.7580034325466143
9584,6.0,299.31732999999997,4764.6718,0.0,0.0,0.0,0.0,0.0,-0.09552190305133873,-0.30290946579733674,-0.6250149446066724,-0.5204168429411435,0.043482617831150254,0.015204000135517984,-0.7436379779288543
9585,6.0,300.09522000000004,5075.4097,0.0,0.0,0.0,0.0,0.0,-0.0955318698609226,-0.34442033642414066,-0.6729326868082853,-0.5254447925873634,0.01140766814484919,0.005813575948355275,-0.7543297727190523
9586,6.0,300.89058,4956.6445,0.0,0.0,0.0,0.0,0.0,-0.09554183667050639,-0.34053321519801166,-0.6388546642775464,-0.5273082811112755,0.03068796026041587,-0.025102181983642474,-0.7319462066149662
9587,6.0,300.0789,4754.2419,0.0,0.0,0.0,0.0,0.0,-0.09555180348009024,-0.30588198695320173,-0.6404300250030224,-0.49885881222353146,-0.015079376452718587,-0.019775937587483083,-0.7656355058773413
9588,6.0,300.39893,4904.420999999999,0.0,0.0,0.0,0.0,0.0,-0.09556177028967403,-0.34354111904736867,-0.6519008368676034,-0.4953795545601555,-0.0008722101038504352,-0.0020595487705616384,-0.7396391965417053
9589,6.0,299.86593,5189.0542,0.0,0.0,0.0,0.0,0.0,-0.09557173709925784,-0.38273568981307166,-0.6500800568354064,-0.5445271594681464,-0.005337022844098145,0.0001974028131646408,-0.7552997570397822
9590,6.0,299.83114,4957.6698,0.0,0.0,0.0,0.0,0.0,-0.09558170390884169,-0.3392678887381337,-0.6422848097085754,-0.5254551378708845,-0.01130223541894379,-0.01799058381853238,-0.7355987503104443
9591,6.0,299.91877,4622.5057,0.0,0.0,0.0,0.0,0.0,-0.0955916707184255,-0.26073960770299576,-0.6412476367737144,-0.5031390542234585,-0.011727717374435589,-0.004499017388643446,-0.7695466309983392
9592,6.0,300.23177000000004,4672.2029,0.0,0.0,0.0,0.0,0.0,-0.09560163752800935,-0.2993824840542507,-0.6077809485583094,-0.5130695840810255,-0.003074942198498167,0.009774300067048311,-0.7300389760842373
9593,6.0,299.82558,4924.0738,0.0,0.0,0.0,0.0,0.0,-0.09561160433759316,-0.3309198224892437,-0.6397006166535354,-0.5261750621994354,0.013878299168431488,0.014185585499758287,-0.7768845375600343
9594,6.0,299.16536,5002.752,0.0,0.0,0.0,0.0,0.0,-0.09562157114717693,-0.35298621091452664,-0.6359877237821014,-0.5317377545859305,0.006304850158015264,-0.028469051972426673,-0.7375819745986733
9595,6.0,299.85896,4949.0656,0.0,0.0,0.0,0.0,0.0,-0.0956315379567608,-0.3351391884231627,-0.6646791567937254,-0.5045740190150785,0.004090235719974837,-0.002112653613602678,-0.7718720602428413
9596,6.0,300.35397,4839.0002,0.0,0.0,0.0,0.0,0.0,-0.09564150476634459,-0.29377469190580474,-0.6511681658527944,-0.5259923732064055,-0.004134177641036566,0.017457720657192883,-0.7412104941342803
9597,6.0,299.65081000000004,4767.6468,0.0,0.0,0.0,0.0,0.0,-0.09565147157592843,-0.3171406951743497,-0.6363901461918174,-0.4957147275607346,-0.005229187296905605,0.03303816549636307,-0.7586432391897583
9598,6.0,300.40848,4952.7526,0.0,0.0,0.0,0.0,0.0,-0.09566143838551225,-0.3219833720397847,-0.6635552091203004,-0.5199745390074916,-0.007088819289611994,0.005273685390947224,-0.7455444383895072
9599,6.0,299.69309,4975.625,0.0,0.0,0.0,0.0,0.0,-0.09567140519509607,-0.34452432628190366,-0.6702157579901454,-0.4977256642391985,0.005023773231957815,-0.012669473560629687,-0.7689927175661723
9600,6.0,300.14365,4720.1482,0.0,0.0,0.0,0.0,0.0,-0.09568137200467991,-0.29957215434046974,-0.6518338103734884,-0.4834012361179875,-0.004335018705633036,-0.006860090137213183,-0.7655748223288522
9601,6.0,300.78803999999997,4579.3972,0.0,0.0,0.0,0.0,0.0,-0.0956913388142637,-0.29218791185170173,-0.6213743876598774,-0.47846010174033554,-0.0033238039211089068,-0.009336214800187662,-0.7880183627063573
9602,6.0,300.83991000000003,5011.7385,0.0,0.0,0.0,0.0,0.0,-0.09570130562384754,-0.3180026163719147,-0.6450894454553714,-0.5603512990623675,-0.015978921652996785,-0.012138753423251688,-0.7403337186902492
9603,6.0,300.30564,5116.995,0.0,0.0,0.0,0.0,0.0,-0.09571127243343136,-0.3217314274024197,-0.6616834423430714,-0.5720238287568564,-0.003454524532410027,0.007170500115948264,-0.7593240317994473
9604,6.0,300.60017999999997,4941.3922,0.0,0.0,0.0,0.0,0.0,-0.09572123924301515,-0.29281363431845575,-0.6759920029677163,-0.5332542150830935,-0.0010680159639299691,0.01690089514423848,-0.7222443267749653
9605,6.0,298.77114,4697.2559,0.0,0.0,0.0,0.0,0.0,-0.095731206052599,-0.3205251531583697,-0.6198262225670854,-0.48749713752722157,0.015889338185155585,0.023814683585076275,-0.7502003935265142
9606,6.0,299.54631,4935.6604,0.0,0.0,0.0,0.0,0.0,-0.09574117286218281,-0.3509500443085727,-0.6478391326492444,-0.5015283412019935,0.008503204566400952,-0.02076734302857718,-0.7136831335000413
9607,6.0,300.08082,5050.3722,0.0,0.0,0.0,0.0,0.0,-0.09575113967176666,-0.3577976492793786,-0.6713350953756153,-0.5060543166161725,0.029021627914461674,-0.03304176962696877,-0.7651755207294443
9608,6.0,300.47397,4975.019,0.0,0.0,0.0,0.0,0.0,-0.09576110648135044,-0.3334697676909037,-0.6565899759453854,-0.5222218162717805,0.0031854871764581067,-0.011444576792991788,-0.7094318299229703
9609,6.0,299.87493,4806.9504,0.0,0.0,0.0,0.0,0.0,-0.09577107329093426,-0.30853507088254073,-0.6466158155385124,-0.5060420056274575,-0.010950177618698388,0.003424260981073247,-0.7636600734823813
9610,6.0,299.7303,4780.7925,0.0,0.0,0.0,0.0,0.0,-0.0957810401005181,-0.31403086849743367,-0.6140409900611274,-0.5251696951852135,-0.038280239206715465,0.005234295901259785,-0.7299431428897794
9611,6.0,299.77131,5028.6606,0.0,0.0,0.0,0.0,0.0,-0.09579100691010192,-0.36798755089754365,-0.6371516441719713,-0.5234480718078025,-0.03638717796538487,0.024323625938054975,-0.7606077994111453
9612,6.0,301.0778,5134.9822,0.0,0.0,0.0,0.0,0.0,-0.09580097371968577,-0.36976355540782163,-0.6573693881873074,-0.5337734246993355,-0.014735204778001486,0.03114838819860657,-0.7590296725128963
9613,6.0,300.19197,4789.412,0.0,0.0,0.0,0.0,0.0,-0.09581094052926958,-0.33369833664846166,-0.6287269964805233,-0.4934363333858745,-0.015499120372894087,0.005682902655833824,-0.7550166448293413
9614,6.0,300.50948,4549.4632,0.0,0.0,0.0,0.0,0.0,-0.09582090733885334,-0.26189371983189774,-0.6362866325616015,-0.48474287044289655,0.01991571037252758,-0.0016538003673923886,-0.7750946109933823
9615,6.0,300.66049,4785.6331,0.0,0.0,0.0,0.0,0.0,-0.09583087414843719,-0.2694048414981877,-0.6381719971551725,-0.5471361366206324,0.015200062645629384,-0.00842023569653756,-0.7248312860027784
9616,6.0,300.8386,5064.9093,0.0,0.0,0.0,0.0,0.0,-0.095840840958021,-0.30802853702504973,-0.6932233139033144,-0.5383540953539125,0.02911084053276627,0.010874303424710189,-0.7577483670989412
9617,6.0,300.68435,4971.2793,0.0,0.0,0.0,0.0,0.0,-0.09585080776760485,-0.3377533432836597,-0.6576388215213984,-0.5157525994183185,0.0015763832974769185,-0.029279121109374272,-0.7226605800485463
9618,6.0,300.63482999999997,4813.4381,0.0,0.0,0.0,0.0,0.0,-0.09586077457718867,-0.3442661096264197,-0.6359078188792153,-0.48299105221250554,0.01048608171514569,-0.03315833999797337,-0.7815525402407302
9619,6.0,299.64006,4965.0969,0.0,0.0,0.0,0.0,0.0,-0.09587074138677248,-0.35103662652961765,-0.6458559691560214,-0.5123728935772676,0.002863315593212247,-0.022642266079867683,-0.7286716153392894
9620,6.0,299.87757999999997,5142.9163,0.0,0.0,0.0,0.0,0.0,-0.09588070819635633,-0.3638472691339297,-0.6658792806096684,-0.5335915868363895,-0.01081455713256369,0.028866295660881575,-0.7799499838825702
9621,6.0,299.97163,5270.469,0.0,0.0,0.0,0.0,0.0,-0.09589067500594012,-0.35181720400915467,-0.6630523634931733,-0.5872213947542394,-0.01369606715119659,0.0032049984217087167,-0.7153542564924683
9622,6.0,299.31987000000004,4915.3239,0.0,0.0,0.0,0.0,0.0,-0.09590064181552396,-0.32663555788641974,-0.6356135609176744,-0.5318866212906225,-0.02341539515791958,0.01002474347306515,-0.7395206969425103
9623,6.0,300.09313,4662.4547,0.0,0.0,0.0,0.0,0.0,-0.09591060862510775,-0.3090758424609107,-0.5891259300397025,-0.5190680348055265,0.012744021410236988,-0.0069186875050712944,-0.7173411892760633
9624,6.0,300.10918,4891.897,0.0,0.0,0.0,0.0,0.0,-0.09592057543469157,-0.37340242022694964,-0.6234131988485924,-0.4901989182563665,0.017177433388030683,0.034180010206304366,-0.7432880520068192
9625,6.0,299.93025,5128.3924,0.0,0.0,0.0,0.0,0.0,-0.09593054224427541,-0.3810103883377976,-0.6397267483736144,-0.5381660867978575,0.01980274615862888,-0.01012348560723524,-0.7311988738712103
9626,6.0,299.83014,4854.3231,0.0,0.0,0.0,0.0,0.0,-0.09594050905385923,-0.35347821476558366,-0.6393927000806464,-0.48272210523846254,-0.015168468494261286,-0.028973880529999368,-0.7504419827478572
9627,6.0,300.7346,4850.233,0.0,0.0,0.0,0.0,0.0,-0.09595047586344307,-0.30931296324931273,-0.6562464233664794,-0.5087903350661965,0.020368673697231582,-0.03864792740300346,-0.7425614604926103
9628,6.0,299.44894,4824.2991,0.0,0.0,0.0,0.0,0.0,-0.09596044267302686,-0.31504545608756573,-0.6551499347707644,-0.49627108292564254,0.007773248251259872,0.026405012882721877,-0.7491319314285653
9629,6.0,300.15334,4891.7505,0.0,0.0,0.0,0.0,0.0,-0.09597040948261068,-0.3019617628463057,-0.6794459597760953,-0.5055622621026105,-0.005004260973457105,0.008835782329498821,-0.7365207369739373
9630,6.0,300.41202999999996,4942.8264,0.0,0.0,0.0,0.0,0.0,-0.09598037629219452,-0.3380408529995347,-0.6588535665362844,-0.5056013634239696,-0.02084738573347678,0.015015651127429384,-0.7907497607359253
9631,6.0,300.0715,4742.3596,0.0,0.0,0.0,0.0,0.0,-0.09599034310177834,-0.3177518369721647,-0.6088646398052614,-0.5149424147708594,-0.01084943421425579,0.00938548195847495,-0.7434763442729022
9632,6.0,299.76018,4430.7614,0.0,0.0,0.0,0.0,0.0,-0.09600030991136219,-0.26318124660146675,-0.6190667004246264,-0.4645928723292465,-0.016029831391021186,0.02436679039231498,-0.8079208947480843
9633,6.0,299.92472999999995,4767.6193,0.0,0.0,0.0,0.0,0.0,-0.09601027672094598,-0.3051607757970237,-0.6207503674532914,-0.5233260764957625,-0.013009471658184887,-0.004336928682071535,-0.7560469276635222
9634,6.0,299.18971,5256.4057,0.0,0.0,0.0,0.0,0.0,-0.09602024353052976,-0.3549233829857107,-0.6950812194191753,-0.5478114779447835,-0.029678176489007974,-0.019503703630115683,-0.7898910110111732
9635,6.0,299.77015,5064.7244,0.0,0.0,0.0,0.0,0.0,-0.09603021034011361,-0.3530870900944827,-0.6559289822426503,-0.5305336689620965,0.02394364904455418,-0.016918011978177785,-0.7343049109927523
9636,6.0,299.90769,4688.1049,0.0,0.0,0.0,0.0,0.0,-0.09604017714969743,-0.3195436988465077,-0.6210202466174264,-0.48450289228921256,0.03050198833706187,0.03815920648227047,-0.7481725963663863
9637,6.0,299.1677,4794.278,0.0,0.0,0.0,0.0,0.0,-0.09605014395928127,-0.32950174857679065,-0.6581903132858263,-0.46964872688322057,0.03745014622129166,0.0026600235779488876,-0.7239454622353543
9638,6.0,300.04707,5251.7715,0.0,0.0,0.0,0.0,0.0,-0.09606011076886509,-0.36216683437308367,-0.6940562257505163,-0.5401843290095425,-0.005524348469585745,-0.007622309450113373,-0.7392734233881063
9639,6.0,301.13103,5134.6167,0.0,0.0,0.0,0.0,0.0,-0.0960700775784489,-0.36008776675789567,-0.6512735438631944,-0.5494339547999095,0.0027620002090881974,-0.027553441691812976,-0.7438163099464542
9640,6.0,300.15947,4799.8392,0.0,0.0,0.0,0.0,0.0,-0.09608004438803275,-0.3137670485688967,-0.6420590575862954,-0.5032051687924836,0.008645701879639343,0.002094001199136828,-0.7311787811217273
9641,6.0,300.06076,4571.8514,0.0,0.0,0.0,0.0,0.0,-0.09609001119761651,-0.28494167402655374,-0.5923468494575824,-0.5124401429864045,0.023835005329081876,-0.017239795891935385,-0.7512020925753743
9642,6.0,299.09067999999996,4622.2628,0.0,0.0,0.0,0.0,0.0,-0.09609997800720038,-0.2963704562769867,-0.6249436421971354,-0.48373838495626154,-0.005179968267998065,0.0057335564468829646,-0.7547565435286713
9643,6.0,299.62001000000004,5076.7432,0.0,0.0,0.0,0.0,0.0,-0.09610994481678417,-0.3341063116687257,-0.6514437090849884,-0.5576531356360794,-0.02130850774798598,-0.0022679085562001475,-0.7826443374884822
9644,6.0,300.70074,5277.8887,0.0,0.0,0.0,0.0,0.0,-0.09611991162636799,-0.39639126141077163,-0.6433328244195065,-0.5646222698238795,-0.012180882335909488,0.043195979510361256,-0.7564775792210243
9645,6.0,299.78874,4776.5884,0.0,0.0,0.0,0.0,0.0,-0.09612987843595183,-0.3043878078257377,-0.6497510139979324,-0.49782478036398053,-0.016284896838694184,0.0043073754190548555,-0.7794379278120342
9646,6.0,299.33004,4688.8872,0.0,0.0,0.0,0.0,0.0,-0.09613984524553565,-0.29065868440327874,-0.6385156611915894,-0.4961302816917465,-0.011721343018056489,-0.019259874112801584,-0.7757716241801983
9647,6.0,299.92961,5254.5451,0.0,0.0,0.0,0.0,0.0,-0.0961498120551195,-0.3457352006814077,-0.6979869167309454,-0.5535284072615004,-0.017846816801593682,-0.03569988130330397,-0.7498020849122043
9648,6.0,300.51457999999997,5192.3906,0.0,0.0,0.0,0.0,0.0,-0.09615977886470328,-0.3491430140802326,-0.6802738965653063,-0.5489401980261795,0.003486785604993947,0.023176815289373577,-0.7498057630100673
9649,6.0,300.64083999999997,4731.0175,0.0,0.0,0.0,0.0,0.0,-0.09616974567428707,-0.3048371335825827,-0.6309325785031974,-0.5023414642747425,0.017602131087945085,0.01711598483571618,-0.7378113845538143
9650,6.0,300.68206000000004,4455.3676,0.0,0.0,0.0,0.0,0.0,-0.09617971248387094,-0.2605527643845557,-0.6252771230700473,-0.4684906022839226,0.022983469945041878,0.0035225708627506765,-0.7869990432382582
9651,6.0,299.19088,4567.5651,0.0,0.0,0.0,0.0,0.0,-0.09618967929345473,-0.2885594632436017,-0.6035675000049745,-0.49629878518337656,0.0064214405913718435,-0.021224189127664377,-0.7543071873743232
9652,6.0,299.06825,4937.7681,0.0,0.0,0.0,0.0,0.0,-0.0961996461030386,-0.3358156544549247,-0.6296561062922194,-0.5354864455833974,0.0073982620198016135,0.005401488247260385,-0.7959667727183043
9653,6.0,298.33313,5055.2275,0.0,0.0,0.0,0.0,0.0,-0.0962096129126224,-0.35811155416035867,-0.6339863724495834,-0.5445650144918824,-0.008546969270020192,-0.011806560391216789,-0.7527262436407963
9654,6.0,299.97209,4854.3425,0.0,0.0,0.0,0.0,0.0,-0.09621957972220618,-0.3141061124498597,-0.6399918247322754,-0.5215009698856385,-0.013896810234508386,-0.017367700478558585,-0.7714780579414563
9655,6.0,299.34904,4785.6481,0.0,0.0,0.0,0.0,0.0,-0.09622954653179003,-0.3006154777034377,-0.6433523598814344,-0.5107496871820696,-0.03290395140136717,-0.014156152610853488,-0.7478198637415743
9656,6.0,299.31082000000004,5252.4814,0.0,0.0,0.0,0.0,0.0,-0.09623951334137384,-0.39482532391122566,-0.6693126887060193,-0.5324851785221956,-0.021466638598342275,0.02914519680390697,-0.7373664461699023
9657,6.0,300.01496000000003,5543.3932,0.0,0.0,0.0,0.0,0.0,-0.09624948015095769,-0.4192321782124946,-0.6854555663841974,-0.5803653696751024,-0.01985760351904288,0.01932184651541778,-0.7116747400793283
9658,6.0,300.48176,4952.1029,0.0,0.0,0.0,0.0,0.0,-0.0962594469605415,-0.34113039440944865,-0.6576573234682244,-0.5065279198454136,0.004918835377401256,-0.009603517471968382,-0.7574404403935513
9659,6.0,300.33707999999996,4512.9751,0.0,0.0,0.0,0.0,0.0,-0.09626941377012527,-0.2526480457169208,-0.6299757664337674,-0.4892079292610635,0.020273623745100878,-0.021027757423528082,-0.7499250732093423
9660,6.0,300.92356,4787.5056,0.0,0.0,0.0,0.0,0.0,-0.09627938057970917,-0.3013755470009507,-0.6565312175720864,-0.49737540394463053,0.026163500668386474,0.017260247331953783,-0.7550838131784703
9661,6.0,298.19872999999995,5031.6042,0.0,0.0,0.0,0.0,0.0,-0.09628934738929293,-0.3228951755397727,-0.6633931701643084,-0.5431936818065425,0.0025233505276103076,-0.014333455166351884,-0.7563059346540842
9662,6.0,299.84251,4920.1473,0.0,0.0,0.0,0.0,0.0,-0.0962993141988768,-0.3389584320250927,-0.6398236657456794,-0.5168198253511455,-0.028581446739769176,-0.007682495290153252,-0.7762642461138163
9663,6.0,301.23067000000003,4812.8274,0.0,0.0,0.0,0.0,0.0,-0.09630928100846059,-0.2794295428200487,-0.6840341284814123,-0.49951568199835944,-0.02234035808007168,0.014295139113820384,-0.7796169589722033
9664,6.0,301.88469,4864.5002,0.0,0.0,0.0,0.0,0.0,-0.0963192478180444,-0.3122791414595517,-0.6526912023431064,-0.5137162402948455,-0.01955538546471628,0.03995168238617407,-0.7903129587503162
9665,6.0,300.69059,5336.5754,0.0,0.0,0.0,0.0,0.0,-0.09632921462762825,-0.3712269114672436,-0.6861200963297813,-0.5648386696477364,-0.019600982732466382,0.017980553655792483,-0.7602119023320733
9666,6.0,301.20751,5496.4169999999995,0.0,0.0,0.0,0.0,0.0,-0.09633918143721207,-0.4058085294301836,-0.6997583109532683,-0.5652067023490585,-0.026814418612127078,-0.02089515642269138,-0.7650818660227012
9667,6.0,299.91726,4791.3646,0.0,0.0,0.0,0.0,0.0,-0.09634914824679591,-0.3245026258959157,-0.6364848546786644,-0.4954677073188555,0.00928333398674373,-0.006206946083002885,-0.7240279306609934
9668,6.0,300.82013,4246.4869,0.0,0.0,0.0,0.0,0.0,-0.0963591150563797,-0.24257114174990776,-0.6050624593350153,-0.44319239186968357,0.02962129161514387,0.007137619339603183,-0.7426849047522933
9669,6.0,299.50424,4580.7157,0.0,0.0,0.0,0.0,0.0,-0.09636908186596349,-0.2921525392907107,-0.6148879252897135,-0.48538271761604457,0.007478548715325293,0.013160855276125287,-0.7467932894027592
9670,6.0,300.24894,5074.287,0.0,0.0,0.0,0.0,0.0,-0.09637904867554736,-0.36786493750294263,-0.6420507388029744,-0.5325408566151906,-0.0046863880024354855,-0.02233089229763748,-0.7749655533281452
9671,6.0,299.42997,5010.3503,0.0,0.0,0.0,0.0,0.0,-0.09638901548513115,-0.3334389952853667,-0.6689432273220564,-0.5206391702780855,-0.00926974184460229,0.002742068667696107,-0.7664578191284973
9672,6.0,300.1056,4909.9682,0.0,0.0,0.0,0.0,0.0,-0.09639898229471502,-0.3077647778915187,-0.6606503832036165,-0.5240925697989095,0.01002082766672869,0.010703947711897388,-0.7699655896496872
9673,6.0,299.00372000000004,5113.6131,0.0,0.0,0.0,0.0,0.0,-0.09640894910429881,-0.37826602070694965,-0.6306980009725465,-0.5454466839338965,-0.006757744176412425,0.0004260870279215156,-0.7504302797092023
9674,6.0,300.00079,5482.9098,0.0,0.0,0.0,0.0,0.0,-0.0964189159138826,-0.4180562406764386,-0.6835776187813584,-0.5650338216169964,-0.015818104676625384,-0.0064929794934821825,-0.7533311944805003
9675,6.0,300.37511,5211.0367,0.0,0.0,0.0,0.0,0.0,-0.09642888272346645,-0.36385788799497765,-0.6595641183014104,-0.5606030410497125,-0.025603059879075275,0.020900113242180583,-0.7667778845700853
9676,6.0,300.97587999999996,4799.1074,0.0,0.0,0.0,0.0,0.0,-0.09643884953305026,-0.3220057344694917,-0.6407285487474843,-0.4960745428037455,0.014900448644059787,0.024503012749009078,-0.7490822923061663
9677,6.0,300.8283,4484.3240000000005,0.0,0.0,0.0,0.0,0.0,-0.09644881634263411,-0.26616943260387776,-0.6222254772138733,-0.4747276024794666,-0.026682083082816575,0.010954373487362489,-0.7985455347528082
9678,6.0,300.83947,4593.9669,0.0,0.0,0.0,0.0,0.0,-0.09645878315221793,-0.2928779655673047,-0.6161742361591624,-0.48739903465253953,-0.0061055974642755554,-0.04207105506383986,-0.7494662229015573
9679,6.0,300.35799,4973.3158,0.0,0.0,0.0,0.0,0.0,-0.09646874996180169,-0.3220105676724687,-0.6586767442613334,-0.5310765075706705,-0.01129370182660159,-0.023080939538411376,-0.7885360423149482
9680,6.0,300.36354,4945.0928,0.0,0.0,0.0,0.0,0.0,-0.09647871677138559,-0.3029328921396487,-0.6590476343279374,-0.5412042057651965,0.02207914220429168,0.0027243641486988076,-0.7380503494573982
9681,6.0,300.43669,4743.5576,0.0,0.0,0.0,0.0,0.0,-0.09648868358096935,-0.28801240951461177,-0.6452567533118834,-0.5086538908077306,0.013593065212281086,0.0031047525230652167,-0.7908550779513192
9682,6.0,300.28827,5021.1801,0.0,0.0,0.0,0.0,0.0,-0.09649865039055322,-0.35393880786354065,-0.6468037025045554,-0.5255708712973065,0.007195350378625793,-0.008604765258374211,-0.7446071212520013
9683,6.0,299.88961,5237.4027,0.0,0.0,0.0,0.0,0.0,-0.09650861720013701,-0.3620648203530156,-0.6571259649832835,-0.5728488575182804,-0.004061170336881306,0.02144018669123168,-0.7676561089617592
9684,6.0,300.05492000000004,5044.9569,0.0,0.0,0.0,0.0,0.0,-0.09651858400972083,-0.34867611856665365,-0.6392358590976674,-0.5456289473618845,0.02154365979144368,0.012133603072993387,-0.7382606089856493
9685,6.0,300.49522,4937.6991,0.0,0.0,0.0,0.0,0.0,-0.09652855081930467,-0.34691044920739567,-0.6262146631225753,-0.5278121095909996,0.007842398416259461,0.0030338309942408073,-0.7379828771332394
9686,6.0,300.65436,4858.7701,0.0,0.0,0.0,0.0,0.0,-0.09653851762888849,-0.34261824072378766,-0.6144599081824714,-0.5198666582693445,0.0016252360364733085,-0.042884624979882956,-0.7296933260776243
9687,6.0,300.2456,4930.5979,0.0,0.0,0.0,0.0,0.0,-0.09654848443847233,-0.3362072249560697,-0.6441255203702394,-0.5184458992441265,-0.0008948407712564082,-0.008061132059071793,-0.7455786254478813
9688,6.0,301.33626,5218.0414,0.0,0.0,0.0,0.0,0.0,-0.09655845124805612,-0.34813565096331367,-0.6916092470240183,-0.5464093931189085,0.018628929355032183,0.020713957920558478,-0.7596491533590343
9689,6.0,300.58276,5100.0975,0.0,0.0,0.0,0.0,0.0,-0.09656841805763991,-0.3096313466957347,-0.6757624612900623,-0.5649084825796264,-0.014715010703508486,0.023009651314375774,-0.7719260664731713
9690,6.0,301.81615,4815.9044,0.0,0.0,0.0,0.0,0.0,-0.09657838486722378,-0.30158052749618075,-0.6620486784741173,-0.5002854784968325,0.001000444361526171,-0.025942452053070678,-0.7830914543601092
9691,6.0,301.48396,4614.8582,0.0,0.0,0.0,0.0,0.0,-0.09658835167680757,-0.2811608123384117,-0.6077712517548525,-0.5138695855649794,-0.009141542503525,-0.016534412715569484,-0.7674537021217832
9692,6.0,300.89566,4870.9816,0.0,0.0,0.0,0.0,0.0,-0.09659831848639144,-0.3195039287800827,-0.6600812710199494,-0.5010715781894145,0.026713950811711677,-0.00023700406199047978,-0.7648000811698913
9693,6.0,299.7254,5032.9954,0.0,0.0,0.0,0.0,0.0,-0.09660828529597523,-0.31174321321665965,-0.6687790098783494,-0.5493827147423525,-0.011053531155398592,0.00949630780936261,-0.7433183684498114
9694,6.0,300.77878,4882.2896,0.0,0.0,0.0,0.0,0.0,-0.09661825210555902,-0.3258013288140877,-0.6483553835751944,-0.5099374152394045,-0.016620761889091486,-0.011007652204120689,-0.7752418666304152
9695,6.0,299.47524,4897.1111,0.0,0.0,0.0,0.0,0.0,-0.09662821891514287,-0.2884182871071687,-0.6674114160858784,-0.5327698004752854,-0.03297229917361257,0.035324395134246366,-0.7744208199418843
9696,6.0,300.05138999999997,4999.7502,0.0,0.0,0.0,0.0,0.0,-0.09663818572472668,-0.37935449449437364,-0.6353246326516594,-0.5051200898914715,0.02629603175496627,0.047137220450831456,-0.7560270071665564
9697,6.0,299.32607,5012.0937,0.0,0.0,0.0,0.0,0.0,-0.09664815253431053,-0.3291451858666007,-0.6806899877188713,-0.5137161491023365,-0.00909520840030218,0.02637413509917447,-0.7803732691118452
9698,6.0,300.1129,4905.1572,0.0,0.0,0.0,0.0,0.0,-0.09665811934389434,-0.37232919585353064,-0.6214033463477354,-0.49731277495594955,-0.016664852453942884,-0.03394033704090047,-0.7544741507258013
9699,6.0,300.58641,4879.6021,0.0,0.0,0.0,0.0,0.0,-0.0966680861534781,-0.3194811509178347,-0.6422983973924163,-0.5214976565578116,-0.00908289163606161,-0.02419160654277568,-0.7580804598192162
9700,6.0,300.25941,4756.3509,0.0,0.0,0.0,0.0,0.0,-0.096678052963062,-0.3186056015064247,-0.6304707796376214,-0.49673552637397955,-0.001156655893278049,0.00923723272839389,-0.7571893570187712
9701,6.0,299.29389,4899.2126,0.0,0.0,0.0,0.0,0.0,-0.09668801977264577,-0.2771394861365377,-0.6863373878137263,-0.5257614231111124,-0.008909423624241653,0.01910183242845408,-0.7697837315217393
9702,6.0,298.70601,5161.7861,0.0,0.0,0.0,0.0,0.0,-0.09669798658222961,-0.36616033672721165,-0.6683008166261554,-0.5345929515127165,-0.011862191874707188,-0.012198428787891187,-0.7379763011400903
9703,6.0,299.37731,5020.0988,0.0,0.0,0.0,0.0,0.0,-0.09670795339181343,-0.35336168087158265,-0.6283816707139424,-0.5442413317474375,0.02021146895746668,0.0036770213860937567,-0.7470570789337933
9704,6.0,299.96249,4899.4647,0.0,0.0,0.0,0.0,0.0,-0.09671792020139724,-0.35659731268091466,-0.6304346471390554,-0.5022829592139685,0.06078630218164094,0.0034384721177007772,-0.7157601948800313
9705,6.0,300.28826000000004,5054.0313,0.0,0.0,0.0,0.0,0.0,-0.09672788701098109,-0.36554183873367063,-0.6501178206666334,-0.5206396566381335,0.039632411332664465,0.02142360991959568,-0.7535582435629082
9706,6.0,300.31999,5162.6856,0.0,0.0,0.0,0.0,0.0,-0.0967378538205649,-0.35642318565122966,-0.6679648938205024,-0.5449394408013355,-0.013336934838752989,-0.006210549706983534,-0.7609584548732523
9707,6.0,300.76496000000003,5043.6918,0.0,0.0,0.0,0.0,0.0,-0.09674782063014875,-0.3418141153119267,-0.6681457690958533,-0.5231964919404736,-0.029687547025932768,0.01345859375175979,-0.7736563328739353
9708,6.0,300.86081,4931.6232,0.0,0.0,0.0,0.0,0.0,-0.09675778743973254,-0.3281077596192147,-0.6372286207820684,-0.5337539196349105,-0.036965108464672165,0.04985934318898405,-0.7604877394067963
9709,6.0,300.87167999999997,4850.3334,0.0,0.0,0.0,0.0,0.0,-0.09676775424931633,-0.28443503884405275,-0.6673648065812784,-0.5225803852171685,-0.04077176040760946,0.041926198803043664,-0.7537732147041243
9710,6.0,299.87355,4845.7855,0.0,0.0,0.0,0.0,0.0,-0.09677772105890017,-0.3151175589646817,-0.6501549157527944,-0.5077253078860865,-0.036913490464827864,-0.035453231910961565,-0.7582850856769113
9711,6.0,300.01687999999996,5042.9683,0.0,0.0,0.0,0.0,0.0,-0.09678768786848399,-0.3411513585540177,-0.6452459824633203,-0.5465391195292114,-0.012868119216234488,-0.042060125135011166,-0.7470443322475353
9712,6.0,300.43712999999997,4946.1541,0.0,0.0,0.0,0.0,0.0,-0.09679765467806783,-0.3372139598579267,-0.6496490202428663,-0.5166443506988275,0.03499093655283657,-0.001198267643084809,-0.7489953655800873
9713,6.0,299.84339,4723.6556,0.0,0.0,0.0,0.0,0.0,-0.09680762148765165,-0.27011526154080073,-0.6465250688595564,-0.5192330223193095,0.03196974494166817,0.01039958562035919,-0.7639812028365743
9714,6.0,299.4669,4954.4639,0.0,0.0,0.0,0.0,0.0,-0.09681758829723544,-0.33309621277653667,-0.6543435700761824,-0.5185935399161975,0.005027977206622715,-0.005146607717730635,-0.7590349616784183
9715,6.0,299.14284,5194.7287,0.0,0.0,0.0,0.0,0.0,-0.09682755510681929,-0.35080394377665364,-0.6730713500844704,-0.5551925286957364,0.0037517490875938067,-0.007129661374642794,-0.7528574797937483
9716,6.0,298.66612000000003,4968.3098,0.0,0.0,0.0,0.0,0.0,-0.0968375219164031,-0.39599530353669365,-0.6183495726663514,-0.49589723416874654,0.003049557142417857,0.01050494741875759,-0.7198260838213033
9717,6.0,299.35367,4867.3735,0.0,0.0,0.0,0.0,0.0,-0.09684748872598695,-0.3224277531361417,-0.6560199214391254,-0.5011123311084366,-0.00896259220071398,0.008395277117424342,-0.7536619801081462
9718,6.0,298.73929,4831.8479,0.0,0.0,0.0,0.0,0.0,-0.09685745553557076,-0.33562508237611666,-0.6413439563282204,-0.49179206152109756,-0.028638433951893374,-0.02396455239411718,-0.7509611822315982
9719,6.0,298.52281,4950.6579,0.0,0.0,0.0,0.0,0.0,-0.09686742234515455,-0.3105953933708787,-0.6541876815482974,-0.5400933087530595,-0.015919965695928285,-0.019028454882712282,-0.7688705601341163
9720,6.0,298.69581,5080.6908,0.0,0.0,0.0,0.0,0.0,-0.09687738915473837,-0.3434044721388827,-0.6610167947047784,-0.5399818816395625,-0.012393768208419687,0.034736342266460066,-0.7535161936837583
9721,6.0,300.10635,4921.8946,0.0,0.0,0.0,0.0,0.0,-0.09688735596432219,-0.3127538592639027,-0.6396785176688544,-0.5437006918915804,0.024025846932416477,0.02588790373393718,-0.7396057896859083
9722,6.0,300.30955,4655.7285,0.0,0.0,0.0,0.0,0.0,-0.09689732277390603,-0.3064143282907397,-0.6298685037781814,-0.47894236825793157,-0.0029963326345400073,-0.0020212719308090083,-0.7614753542792663
9723,6.0,300.6692,4620.2007,0.0,0.0,0.0,0.0,0.0,-0.09690728958348985,-0.27478960716712275,-0.6319889930574574,-0.49764705629644057,0.014343026326796487,-0.014221219479275085,-0.7510965625774593
9724,6.0,299.85179,4971.8215,0.0,0.0,0.0,0.0,0.0,-0.09691725639307366,-0.34757765413324365,-0.6559552558177434,-0.5077766796661566,0.03253061636227187,0.0036963419376755467,-0.7623752318255772
9725,6.0,300.34342000000004,5261.755,0.0,0.0,0.0,0.0,0.0,-0.09692722320265751,-0.35715640382109265,-0.6815175090755413,-0.5607682109485134,0.006545296433245464,-0.012831351409855788,-0.7371382115848772
9726,6.0,300.1494,4958.0407,0.0,0.0,0.0,0.0,0.0,-0.09693719001224133,-0.3167109555419377,-0.6711867859584784,-0.5192228391558045,-0.011002368104849189,-0.008830269539679752,-0.7906471185007953
9727,6.0,300.19015,4862.9113,0.0,0.0,0.0,0.0,0.0,-0.09694715682182517,-0.29665425749749574,-0.6659942237010124,-0.5155551271063294,-0.01161909189746509,-0.004498694060536536,-0.7494006656200872
9728,6.0,299.70594,5043.5259,0.0,0.0,0.0,0.0,0.0,-0.09695712363140893,-0.36487155352751866,-0.6588646920223824,-0.5093697013408754,0.010141243321862791,0.040236070278490965,-0.7751389508177582
9729,6.0,299.70738,5079.8885,0.0,0.0,0.0,0.0,0.0,-0.09696709044099275,-0.3321032986060437,-0.6603604619525033,-0.5516954986256065,-0.0040573409607783766,-0.014803716696763088,-0.7538146971632183
9730,6.0,299.04171,4867.9288,0.0,0.0,0.0,0.0,0.0,-0.09697705725057659,-0.3339268144135107,-0.6537728569573574,-0.4920291215144936,0.01096541892670259,-0.018093489498688383,-0.7900605378854042
9731,6.0,300.16613,4764.6185,0.0,0.0,0.0,0.0,0.0,-0.09698702406016041,-0.25312131457362874,-0.6561554943025054,-0.5390482425999195,-0.0002094523326913358,-0.025655311160232078,-0.7813297062787382
9732,6.0,300.85112999999996,4685.8094,0.0,0.0,0.0,0.0,0.0,-0.09699699086974425,-0.2916553982616467,-0.6210492458352884,-0.5116644088423455,0.015973067093918984,0.024604280003753375,-0.7415359298013983
9733,6.0,300.53922,5000.1201,0.0,0.0,0.0,0.0,0.0,-0.09700695767932807,-0.3210799177206207,-0.6413574122895483,-0.5574743172584314,0.00992432866562998,0.008399168605758402,-0.7359390908865333
9734,6.0,300.46377,5239.1017,0.0,0.0,0.0,0.0,0.0,-0.09701692448891186,-0.3876554344811126,-0.6572815799336413,-0.5476190820157955,-0.002465426869743688,0.014731264248362588,-0.7140110718949063
9735,6.0,300.318,5149.5283,0.0,0.0,0.0,0.0,0.0,-0.0970268912984957,-0.3438153754519357,-0.6605410433853254,-0.5609716006410864,0.005998722883477854,-0.004950924501443205,-0.7550484000874752
9736,6.0,299.93149,5173.516,0.0,0.0,0.0,0.0,0.0,-0.09703685810807952,-0.37147521853674964,-0.6875438647077964,-0.5136005980609326,0.02325259221135218,0.012276388250585187,-0.7286166971838692
9737,6.0,300.05955,5406.9621,0.0,0.0,0.0,0.0,0.0,-0.09704682491766337,-0.36955916259764965,-0.7017494791222813,-0.5722728248364305,0.024436206130165776,-0.013490932641951387,-0.7515529608200022
9738,6.0,299.34548,5343.0261,0.0,0.0,0.0,0.0,0.0,-0.09705679172724715,-0.39366665215687363,-0.6792675568309884,-0.5512122897854175,-0.000999979715427814,-0.013840110785412587,-0.7471283914758313
9739,6.0,298.92969,4835.1474,0.0,0.0,0.0,0.0,0.0,-0.09706675853683097,-0.30544470874004576,-0.6509936841855744,-0.5133256830438006,0.006208194305801073,-0.03592125719840207,-0.7671247099468143
9740,6.0,299.18655,4530.9474,0.0,0.0,0.0,0.0,0.0,-0.09707672534641482,-0.2982667234416337,-0.6123554991822824,-0.4666726390870035,-0.014937080674925088,0.016786448545443484,-0.7558787382794233
9741,6.0,299.28718,4791.516,0.0,0.0,0.0,0.0,0.0,-0.0970866921559986,-0.3074034225083557,-0.6531882927096654,-0.4959094944949566,-0.005006876273290215,0.005395079136402855,-0.7560891295301873
9742,6.0,299.82674,5008.5786,0.0,0.0,0.0,0.0,0.0,-0.09709665896558245,-0.34751887549494265,-0.6568599361695284,-0.5181040083953845,-0.028274328607958976,0.023951287937058075,-0.7869384711472803
9743,6.0,299.63058,5002.2434,0.0,0.0,0.0,0.0,0.0,-0.09710662577516627,-0.29143474278736975,-0.6751183685989953,-0.5540039863284365,-0.023492605828789682,-0.0019175829070006984,-0.7867747197986191
9744,6.0,299.87417999999997,4976.0656,0.0,0.0,0.0,0.0,0.0,-0.09711659258475008,-0.2965799153376587,-0.6735807311747424,-0.5424390435295655,-0.01299559925106579,0.03216027041097157,-0.7558728208988393
9745,6.0,300.03435,4912.1244,0.0,0.0,0.0,0.0,0.0,-0.09712655939433393,-0.32354762754416466,-0.6512079359192193,-0.5184075983903466,0.007326959002314554,0.019454913611300483,-0.7429481876582773
9746,6.0,300.20443,5081.3115,0.0,0.0,0.0,0.0,0.0,-0.09713652620391769,-0.37255664010347767,-0.6607951361129023,-0.5112400495679645,-0.006902927818315933,0.016696326028549084,-0.7524363325221842
9747,6.0,300.80634,5164.5982,0.0,0.0,0.0,0.0,0.0,-0.09714649301350159,-0.3803648973615926,-0.6656091886630123,-0.5239348168908405,0.0021904343389790378,-0.01093527372297749,-0.7658878152847423
9748,6.0,300.44326,4978.6429,0.0,0.0,0.0,0.0,0.0,-0.09715645982308535,-0.3231789159652757,-0.6689075811835383,-0.5212966378704725,-0.013248557138530789,0.0026090445336176475,-0.7469022340535113
9749,6.0,300.19514,4767.9745,0.0,0.0,0.0,0.0,0.0,-0.09716642663266917,-0.29903256826471675,-0.6637929074612594,-0.4865197159507575,0.032781803088562066,-0.022000655851545682,-0.7750675572157122
9750,6.0,299.2843,5055.1941,0.0,0.0,0.0,0.0,0.0,-0.09717639344225301,-0.3477014935604657,-0.6587870871972233,-0.5301641974456325,-0.004403133227705416,-0.02373065374103318,-0.7342617060084883
9751,6.0,299.92269,5205.1943,0.0,0.0,0.0,0.0,0.0,-0.09718636025183683,-0.38600985552370665,-0.6470448661608563,-0.5491943515487625,0.012339224955536687,-0.04191658204634456,-0.7621082606892293
9752,6.0,299.37868,4950.9024,0.0,0.0,0.0,0.0,0.0,-0.09719632706142067,-0.35316528260469965,-0.6321890288921994,-0.5195963940701716,-0.015898351044795086,0.02025253598401968,-0.7169369430161673
9753,6.0,299.59965,4750.7542,0.0,0.0,0.0,0.0,0.0,-0.09720629387100449,-0.3219479893462927,-0.6229957702048954,-0.4991668909164365,0.0008389494904403683,0.03568529050186397,-0.7596979109538462
9754,6.0,299.10937,5042.9524,0.0,0.0,0.0,0.0,0.0,-0.09721626068058828,-0.35481222944974067,-0.6320804591439845,-0.5460389083523445,-0.013461681124814487,0.05241768924722315,-0.7466110867697773
9755,6.0,299.88806,5282.0583,0.0,0.0,0.0,0.0,0.0,-0.09722622749017212,-0.36058329671930067,-0.6802894600868423,-0.5647410632656035,0.0058050272585865835,0.011202942988644389,-0.7904773180490372
9756,6.0,299.51617999999996,5137.8764,0.0,0.0,0.0,0.0,0.0,-0.09723619429975591,-0.36012860073692565,-0.6474018949660924,-0.5542556269907715,-0.004542114157796766,0.008195961500853423,-0.7506425454726513
9757,6.0,300.21196000000003,4913.4005,0.0,0.0,0.0,0.0,0.0,-0.09724616110933978,-0.3079159142764347,-0.6664664083801134,-0.5191687316004645,0.011407452322577888,-0.032844693495768865,-0.7462188779210693
9758,6.0,300.01805,4680.5292,0.0,0.0,0.0,0.0,0.0,-0.09725612791892357,-0.3106977822934837,-0.6187294705263444,-0.4933367309010446,0.0001092246117546299,-0.02386436526397948,-0.7584594052241154
9759,6.0,300.35222000000005,4789.7041,0.0,0.0,0.0,0.0,0.0,-0.09726609472850739,-0.3141755606117137,-0.6333097341653043,-0.5084651628441045,0.01037951313587819,-0.024489687496943975,-0.7502129274302513
9760,6.0,300.77651000000003,4989.9759,0.0,0.0,0.0,0.0,0.0,-0.09727606153809124,-0.30932043090254974,-0.6787219317846394,-0.5287856909495845,0.01025652990499069,0.03157024879824097,-0.7819471099621712
9761,6.0,300.30669,4844.6675,0.0,0.0,0.0,0.0,0.0,-0.09728602834767502,-0.2876336363622297,-0.6681104167998644,-0.5169138752254275,-0.0038473188370258065,0.008045479979477053,-0.7896938629392163
9762,6.0,299.50325,4732.9583,0.0,0.0,0.0,0.0,0.0,-0.09729599515725887,-0.2759479952114467,-0.6661307996819914,-0.4966223463378095,-0.013911462844204485,0.006590220598954134,-0.8131651226281492
9763,6.0,299.8616,4915.615,0.0,0.0,0.0,0.0,0.0,-0.09730596196684269,-0.3248537981155737,-0.6715938186561493,-0.4977765901892245,-0.007350368220699862,-0.02772681790317387,-0.7866158421829392
9764,6.0,299.25612,5089.8344,0.0,0.0,0.0,0.0,0.0,-0.09731592877642647,-0.34295674731719566,-0.6593965267348704,-0.5448292903829646,0.03758241183634526,-0.004089355509612966,-0.7516874799032783
9765,6.0,299.57381000000004,5153.0307,0.0,0.0,0.0,0.0,0.0,-0.09732589558601035,-0.34674241181081167,-0.6601619054629073,-0.5594883443497004,0.022799440422129582,0.002007799656154398,-0.7226376501987832
9766,6.0,299.69771000000003,5021.0624,0.0,0.0,0.0,0.0,0.0,-0.09733586239559411,-0.33566217746227767,-0.6447421641160974,-0.5458732520934955,-0.0034965572876333373,0.021252444619952977,-0.7628491491623492
9767,6.0,299.95676000000003,4880.3284,0.0,0.0,0.0,0.0,0.0,-0.09734582920517801,-0.3310207624642057,-0.6216444897390344,-0.5308327297291114,-0.01075454435564089,0.014246956031815089,-0.7504181004430003
9768,6.0,300.06742,5025.0876,0.0,0.0,0.0,0.0,0.0,-0.09735579601476177,-0.35121790710500866,-0.6559402394512613,-0.5203429972738555,-0.0006896903945146423,0.02499950023175858,-0.7687416341913923
9769,6.0,300.375,5294.9762,0.0,0.0,0.0,0.0,0.0,-0.09736576282434559,-0.37743358508729463,-0.6774928796783414,-0.5546140946111494,0.0075031163825499325,-0.016030496083086786,-0.7533063799855513
9770,6.0,299.16551,5142.0719,0.0,0.0,0.0,0.0,0.0,-0.09737572963392943,-0.35572817714263766,-0.6703622334246014,-0.5369710494974165,0.01060065395695309,-0.022821624519818978,-0.7726818091927573
9771,6.0,300.86741,4898.7791,0.0,0.0,0.0,0.0,0.0,-0.09738569644351325,-0.3177063217776727,-0.6551955411577653,-0.5162046609504335,-0.0017261932366870085,-0.002117485803329578,-0.7468274967261352
9772,6.0,300.9216,4688.0155,0.0,0.0,0.0,0.0,0.0,-0.09739566325309706,-0.2938883380370207,-0.6322606150117643,-0.4988907093366795,0.010920948393063689,0.01175502345138049,-0.7827401909479422
9773,6.0,300.96247,4968.6042,0.0,0.0,0.0,0.0,0.0,-0.09740563006268088,-0.3111000729806867,-0.6651705729597244,-0.5340609749452144,0.01187417963664029,0.011611971789012387,-0.7582281004912873
9774,6.0,300.0508,5203.6222,0.0,0.0,0.0,0.0,0.0,-0.0974155968722647,-0.3429306054646157,-0.6862918219567294,-0.5525487970648205,-0.022456517071535682,0.0020087568735238683,-0.8087989367547402
9775,6.0,300.20158,4943.4924,0.0,0.0,0.0,0.0,0.0,-0.09742556368184857,-0.33291803274645165,-0.6404842136183704,-0.5292959940974475,0.016058362487336983,-0.004337047434983256,-0.7860158967987293
9776,6.0,299.93564,4612.7933,0.0,0.0,0.0,0.0,0.0,-0.09743553049143233,-0.2794014960572807,-0.6417799578462504,-0.4809925278477666,0.0014682349599785087,0.014853039685130884,-0.7707870416382583
9777,6.0,300.41562999999996,4854.9446,0.0,0.0,0.0,0.0,0.0,-0.0974454973010162,-0.3015539195485547,-0.6455957969278444,-0.5286322342219395,0.009096616209991122,0.012742025307539987,-0.7527519700608353
9778,6.0,299.31293999999997,5183.0078,0.0,0.0,0.0,0.0,0.0,-0.09745546411059997,-0.33742706661895866,-0.6968113642299273,-0.5412665003813445,-0.0043542536375813755,0.0037596403806976165,-0.7676771845638393
9779,6.0,299.82762,5190.4174,0.0,0.0,0.0,0.0,0.0,-0.09746543092018378,-0.3614634969486697,-0.6791047782024233,-0.5371890097264275,-0.0074899533518258425,0.025250070901987977,-0.7850734830132203
9780,6.0,299.57388,4855.8682,0.0,0.0,0.0,0.0,0.0,-0.09747539772976765,-0.3222078474669387,-0.6628493588356383,-0.49100548560096846,-0.013255479663213988,0.016077123826188585,-0.7806940742260062
9781,6.0,299.17831,4707.0296,0.0,0.0,0.0,0.0,0.0,-0.09748536453935147,-0.2978882339992797,-0.6462324624956783,-0.4866987673759285,0.006521849015331384,-0.01156938691380959,-0.7849531696963462
9782,6.0,298.98884,5252.1659,0.0,0.0,0.0,0.0,0.0,-0.09749533134893529,-0.34543255300903863,-0.6894158949300513,-0.5616788289458845,0.007286876854858753,-0.039064546459870564,-0.7503071394245493
9783,6.0,299.7425,5442.8292,0.0,0.0,0.0,0.0,0.0,-0.0975052981585191,-0.3757778027013816,-0.6895537476061564,-0.5891526190473364,0.018352273574228382,-0.02041646059844778,-0.7395054272635033
9784,6.0,299.79233,4888.9136,0.0,0.0,0.0,0.0,0.0,-0.09751526496810287,-0.3305768170653917,-0.6196011898523763,-0.5359296310446365,0.03322542526059417,0.00965794217458968,-0.7300801545683013
9785,6.0,300.84931,4721.6965,0.0,0.0,0.0,0.0,0.0,-0.09752523177768674,-0.3006193381863187,-0.6313246961593963,-0.5033338110251795,0.009661714200736951,0.015493252641564984,-0.7512293591355653
9786,6.0,300.48047,5054.2075,0.0,0.0,0.0,0.0,0.0,-0.09753519858727056,-0.32777785551915567,-0.6673058252929573,-0.5412691956266105,-0.004445711922082605,0.004088996413777526,-0.7709894079482302
9787,6.0,299.87257999999997,5430.2,0.0,0.0,0.0,0.0,0.0,-0.09754516539685443,-0.41542181068144063,-0.6863347027009613,-0.5488886843910955,0.001004004983172577,0.019413751339238082,-0.7818672658542912
9788,6.0,299.90684,5242.7059,0.0,0.0,0.0,0.0,0.0,-0.09755513220643819,-0.3727924031367456,-0.6722427040201894,-0.5486165862092415,0.01186336319182279,0.011825819235867488,-0.7727683407512972
9789,6.0,299.69547,4705.6086,0.0,0.0,0.0,0.0,0.0,-0.097565099016022,-0.30121975979807575,-0.6089868478998224,-0.5201808975228575,-0.012778414158381287,-0.015636622464464484,-0.7458221499769153
9790,6.0,299.37252,4613.308,0.0,0.0,0.0,0.0,0.0,-0.09757506582560588,-0.26328801276450375,-0.6399455090702043,-0.49909692599703154,-0.014558245714286985,-0.038022969940074966,-0.7702724929724762
9791,6.0,299.86845,5029.5973,0.0,0.0,0.0,0.0,0.0,-0.09758503263518964,-0.3147080134067627,-0.6740591473419584,-0.5401048395391974,-0.01003765754823967,-0.003581522766818777,-0.7693000768515063
9792,6.0,299.02879,5246.5398,0.0,0.0,0.0,0.0,0.0,-0.09759499944477351,-0.3503939219911877,-0.6941152171713383,-0.5503079539386664,0.005704790985819034,0.01081351247171059,-0.7733449813832073
9793,6.0,299.20043,4851.727,0.0,0.0,0.0,0.0,0.0,-0.09760496625435733,-0.3118010900623717,-0.6631421678495364,-0.4998605923323995,-0.0008067806742780532,0.022840698952951478,-0.7797150517143843
9794,6.0,299.85222999999996,4563.3297,0.0,0.0,0.0,0.0,0.0,-0.09761493306394109,-0.2666045931243247,-0.6321126399671604,-0.4884210392334035,-0.003061219347093827,-0.006412456710685204,-0.7816770889430222
9795,6.0,300.62063,4930.0295,0.0,0.0,0.0,0.0,0.0,-0.09762489987352496,-0.3185915274625357,-0.6469722870561934,-0.5330420405121535,0.0005685817371071485,0.01903318270767888,-0.7788157719856322
9796,6.0,299.86868,5365.6958,0.0,0.0,0.0,0.0,0.0,-0.09763486668310872,-0.3884935746988306,-0.6852427332006924,-0.5573012338763494,0.005676702781121944,0.004329799555692945,-0.7550851304036003
9797,6.0,301.65123,5138.7133,0.0,0.0,0.0,0.0,0.0,-0.09764483349269265,-0.3480082043657357,-0.6441405063392184,-0.5698918188239435,-0.004045862762320567,0.002260160435335468,-0.7785991999092583
9798,6.0,301.04704,4762.7691,0.0,0.0,0.0,0.0,0.0,-0.09765480030227641,-0.2987446431163007,-0.6508638969802654,-0.49815435009150655,-0.0021038983221385982,-0.016692945826215486,-0.7800078303307793
9799,6.0,301.49417,4918.1598,0.0,0.0,0.0,0.0,0.0,-0.09766476711186023,-0.3318778301937917,-0.6563643555456183,-0.5067555870103825,-0.006623158522604854,0.01861009303567318,-0.7936823902353533
9800,6.0,300.16544,5183.1229,0.0,0.0,0.0,0.0,0.0,-0.09767473392144405,-0.38145076709625964,-0.6576195697694983,-0.5364696122879286,0.02975784226487037,0.03151391107943087,-0.7560795644492433
9801,6.0,300.10202999999996,5148.178,0.0,0.0,0.0,0.0,0.0,-0.09768470073102786,-0.36743703185321164,-0.6774156396232184,-0.5200648905189086,-0.0015556172433024687,0.0006565240538938794,-0.7391195309629183
9802,6.0,299.12512000000004,4731.9071,0.0,0.0,0.0,0.0,0.0,-0.09769466754061173,-0.30015354711534875,-0.6207830447690165,-0.5174450107953465,0.007568849766887312,-0.039218619243576364,-0.7415175291795824
9803,6.0,300.34306000000004,4640.6753,0.0,0.0,0.0,0.0,0.0,-0.09770463435019555,-0.26528737812682573,-0.6462037469878443,-0.4991582884230875,-0.02390613345960168,-0.016144777522115482,-0.7586027497157622
9804,6.0,299.28587000000005,4941.1852,0.0,0.0,0.0,0.0,0.0,-0.09771460115977931,-0.3137829160654627,-0.6347067730056813,-0.5535072505994125,0.002214579480911978,0.008329460139953712,-0.7618712918883424
9805,6.0,299.41915,5537.1087,0.0,0.0,0.0,0.0,0.0,-0.09772456796936319,-0.4223699604596697,-0.6957718810848383,-0.5650009315187505,-0.004319998184825626,0.02337507287019008,-0.7495272104250763
9806,6.0,298.95484,5279.7507,0.0,0.0,0.0,0.0,0.0,-0.09773453477894695,-0.38111148030027464,-0.6725739253453784,-0.5512269616468655,0.010394810172637891,0.028448891335186976,-0.7706685623040653
9807,6.0,299.87226,4721.4744,0.0,0.0,0.0,0.0,0.0,-0.09774450158853082,-0.3172045603281527,-0.6309438559768104,-0.4870618959467665,0.00905216887977951,0.04447150027949536,-0.7693125904902413
9808,6.0,298.57162999999997,4729.7531,0.0,0.0,0.0,0.0,0.0,-0.09775446839811464,-0.2797253409217417,-0.6420459359975004,-0.5159555534133485,0.012206132528401487,0.014469988590826686,-0.7820586282681772
9809,6.0,299.02455,5054.4935,0.0,0.0,0.0,0.0,0.0,-0.09776443520769845,-0.3280418173027067,-0.6620775054394623,-0.5463204905551344,-0.011189188118536888,0.002095137255148948,-0.7615082646425143
9810,6.0,299.41421,5061.8746,0.0,0.0,0.0,0.0,0.0,-0.09777440201728227,-0.2983041225028247,-0.6917848736638513,-0.5485944973570615,-0.0005520467012427675,-0.03503427325961357,-0.7868777166712843
9811,6.0,300.58145,4593.5934,0.0,0.0,0.0,0.0,0.0,-0.09778436882686609,-0.2843290427510917,-0.6511269772362295,-0.46088166145297854,0.005278695912691724,0.014307153220256087,-0.7949559138885401
9812,6.0,299.71531,4443.6123,0.0,0.0,0.0,0.0,0.0,-0.0977943356364499,-0.27744869966955477,-0.6179062149525955,-0.45539226757871754,0.002083285066079228,-0.016819978004502585,-0.7878489270246353
9813,6.0,299.76557,4888.157999999999,0.0,0.0,0.0,0.0,0.0,-0.09780430244603372,-0.33803850225930265,-0.6486399953957834,-0.4991994871721535,-0.002744305315966847,-0.013648225534474987,-0.7633094382852762
9814,6.0,299.35922999999997,5400.5504,0.0,0.0,0.0,0.0,0.0,-0.09781426925561754,-0.37036927631760164,-0.7009270037511093,-0.5703361999203005,0.002425323545360798,-0.030951805520205367,-0.7629684694941252
9815,6.0,299.77432999999996,5437.0168,0.0,0.0,0.0,0.0,0.0,-0.09782423606520141,-0.36936618911610464,-0.6849285547421854,-0.5984226010322125,0.022694510268273776,0.0016858280884782782,-0.7578139243804113
9816,6.0,300.01534,4942.5751,0.0,0.0,0.0,0.0,0.0,-0.09783420287478517,-0.3087699219907187,-0.6388313595252464,-0.5548181429162875,0.023570215720199177,0.007697147697199333,-0.7552232059947273
9817,6.0,299.9175,4880.1278,0.0,0.0,0.0,0.0,0.0,-0.09784416968436899,-0.3322444646099757,-0.6266068415737804,-0.5245856780925755,-0.0034138788152486064,0.03093534223258057,-0.7540199208384724
9818,6.0,298.99806,5257.1877,0.0,0.0,0.0,0.0,0.0,-0.0978541364939528,-0.3838407302396306,-0.6696667486884624,-0.5445462997625354,0.01932470286744968,0.0019931409669576984,-0.7541045981493294
9819,6.0,298.90567000000004,5254.5511,0.0,0.0,0.0,0.0,0.0,-0.09786410330353662,-0.37796677755491664,-0.6631589776686954,-0.5561265629029185,0.007438723528094853,0.03382617009913307,-0.7636537305367552
9820,6.0,298.4128,4839.7295,0.0,0.0,0.0,0.0,0.0,-0.09787407011312049,-0.3018427971520647,-0.6544745731816113,-0.5148395394882065,0.004548882567139756,0.011069269969201889,-0.7644286034182293
9821,6.0,298.72839,4777.2103,0.0,0.0,0.0,0.0,0.0,-0.09788403692270431,-0.27877760757320774,-0.6617657891786983,-0.5116092576394026,-0.03144505668213547,-0.02925958564744627,-0.7618869769998903
9822,6.0,299.5475,4884.9679,0.0,0.0,0.0,0.0,0.0,-0.09789400373228813,-0.2982046517405077,-0.6463227126820854,-0.5403808792639405,-0.023975276633175578,-0.040192682909208965,-0.7513083115833573
9823,6.0,300.04697000000004,5183.5128,0.0,0.0,0.0,0.0,0.0,-0.09790397054187194,-0.36377506493180367,-0.6850128470180044,-0.5268705368030735,0.005477810601767814,-0.0003604676848828907,-0.7593575399802542
9824,6.0,299.83988,5158.4796,0.0,0.0,0.0,0.0,0.0,-0.0979139373514557,-0.3544990439763317,-0.6685424565100033,-0.5450075008105525,0.013855162615648087,0.021976862712697477,-0.7453856215688333
9825,6.0,300.52966000000004,4911.4187,0.0,0.0,0.0,0.0,0.0,-0.09792390416103958,-0.34962695246049363,-0.6504323132326714,-0.49288937084939355,0.016994754527501682,0.011207743767618189,-0.7633887048405993
9826,6.0,300.42907,4867.2811,0.0,0.0,0.0,0.0,0.0,-0.0979338709706234,-0.3021691852742767,-0.6563947530486184,-0.5209679800680366,0.01747729968887518,-0.027116844382724176,-0.7781296395479163
9827,6.0,300.12877000000003,5246.1809,0.0,0.0,0.0,0.0,0.0,-0.09794383778020721,-0.35395494893763363,-0.6690317853807964,-0.5717212418794935,0.04102800223864857,0.027560758370785074,-0.7822076165628813
9828,6.0,299.54301,5327.5936,0.0,0.0,0.0,0.0,0.0,-0.09795380458979103,-0.3286410635443477,-0.7238522229611524,-0.5669621378823064,0.013187329474738087,0.0012760096623073488,-0.7879150922561653
9829,6.0,299.21587,4821.379,0.0,0.0,0.0,0.0,0.0,-0.09796377139937484,-0.3219707165460357,-0.6059222932373745,-0.5376858163829585,0.007427797145641503,0.01123710167601559,-0.7480842409576663
9830,6.0,300.18722,4691.7177,0.0,0.0,0.0,0.0,0.0,-0.09797373820895872,-0.2995226368080827,-0.6398258746308974,-0.4868165374350515,-0.046529098138314455,-0.016819034668659485,-0.7676979460583883
9831,6.0,299.91066,4844.7259,0.0,0.0,0.0,0.0,0.0,-0.09798370501854248,-0.36632274045323965,-0.6194298999229714,-0.4869230502855636,-0.013757673770526687,0.03977362799910146,-0.7436216646022443
9832,6.0,299.73454,5083.733,0.0,0.0,0.0,0.0,0.0,-0.09799367182812635,-0.36169470035648765,-0.6538263869601404,-0.5298068140028614,-0.014793135325968786,0.031949936915463266,-0.7611436263290272
9833,6.0,298.73783,5095.7449,0.0,0.0,0.0,0.0,0.0,-0.09800363863771011,-0.3341282586658917,-0.6861163169069083,-0.5287346332770455,0.005679575446480454,0.010939908328934888,-0.7439290036225763
9834,6.0,298.56518,5000.5354,0.0,0.0,0.0,0.0,0.0,-0.09801360544729393,-0.3280290098214427,-0.6458335560638093,-0.5461753323458085,0.007245339274959313,-0.023122019737215678,-0.7352293497214873
9835,6.0,298.16078999999996,5071.2745,0.0,0.0,0.0,0.0,0.0,-0.0980235722568778,-0.3555667157392027,-0.6563907000482183,-0.5295834126208135,0.0011742351745629889,0.0036088661313673563,-0.7532312677556383
9836,6.0,298.50035,5274.5268,0.0,0.0,0.0,0.0,0.0,-0.09803353906646162,-0.3881802473704076,-0.6750709282293134,-0.5400732565335805,0.03979025948624287,-0.01018207831414289,-0.7428821642817612
9837,6.0,298.83409,5311.5814,0.0,0.0,0.0,0.0,0.0,-0.09804350587604543,-0.3953233059378726,-0.6703280362337264,-0.5489367631083405,0.011982635900844089,-0.014836737504271986,-0.7406187054133753
9838,6.0,299.60351,5022.3104,0.0,0.0,0.0,0.0,0.0,-0.09805347268562925,-0.3449350776074417,-0.6670918066068354,-0.5146300804275344,0.012459351834392288,-0.006829426149436883,-0.7859207019518343
9839,6.0,299.59387000000004,4800.3201,0.0,0.0,0.0,0.0,0.0,-0.09806343949521307,-0.3103236700915617,-0.6394309198744184,-0.5094228767061235,-0.008103574268660511,0.029885290888948573,-0.7897144623137492
9840,6.0,300.34954,4808.7244,0.0,0.0,0.0,0.0,0.0,-0.09807340630479688,-0.30675880292723673,-0.6388927827463085,-0.5160805479456846,-0.02990711325635227,0.027080614612148574,-0.7806490555240633
9841,6.0,300.69477,4917.0284,0.0,0.0,0.0,0.0,0.0,-0.0980833731143807,-0.29489487028885775,-0.6843750466100583,-0.5153839385019345,-0.029384528504027174,0.0017757268797505984,-0.7636883026301673
9842,6.0,299.92211000000003,4827.5635,0.0,0.0,0.0,0.0,0.0,-0.09809333992396457,-0.2992682705029787,-0.6331366305182204,-0.5350538688507055,-0.031081540036509172,-0.0024542163719622977,-0.7585422080222872
9843,6.0,299.75057000000004,4842.4912,0.0,0.0,0.0,0.0,0.0,-0.09810330673354833,-0.3299430696578457,-0.6580068035602153,-0.48404653457667357,-0.00873891460668872,0.04497302462849196,-0.7441261922245374
9844,6.0,299.87037000000004,4881.6001,0.0,0.0,0.0,0.0,0.0,-0.09811327354313215,-0.3105830823821637,-0.6577170241641164,-0.5155844201667205,-0.017692022583816684,0.014407187349628687,-0.7828386889901633
9845,6.0,300.60155,5044.8561,0.0,0.0,0.0,0.0,0.0,-0.09812324035271597,-0.34864077640316565,-0.6515591588013824,-0.5333103491386335,0.0003944627931579466,-0.0014632242355839887,-0.7539821266097423
9846,6.0,300.58033,5299.1281,0.0,0.0,0.0,0.0,0.0,-0.09813320716229978,-0.3377936301076357,-0.7252274161293732,-0.5477815566693305,0.010318599579616491,-0.024509053746105274,-0.7978720476763402
9847,6.0,300.40976,5231.3684,0.0,0.0,0.0,0.0,0.0,-0.09814317397188366,-0.3756002103563546,-0.6320677631202314,-0.5825373928544645,0.05218608560561565,0.0034825667355525766,-0.7320422120619413
9848,6.0,300.14517,5084.2028,0.0,0.0,0.0,0.0,0.0,-0.09815314078146747,-0.36510029473759364,-0.6559664218338455,-0.5244039719521425,0.030166096942161973,-0.018999894402143582,-0.7523168906003963
9849,6.0,299.9001,5042.9626,0.0,0.0,0.0,0.0,0.0,-0.09816310759105129,-0.35489691689309866,-0.6412204614060324,-0.5368173293247455,-0.003078803390654237,-0.03514297067734117,-0.7239122681620783
9850,6.0,299.85347,5081.2191,0.0,0.0,0.0,0.0,0.0,-0.09817307440063511,-0.3501144068186017,-0.6467625544179944,-0.5476867671224754,0.0035007041149925965,-0.037776738006773766,-0.7654019922592953
9851,6.0,299.35983999999996,5131.1062,0.0,0.0,0.0,0.0,0.0,-0.09818304121021887,-0.36593786753525565,-0.6911833374769843,-0.5026069661984456,-0.01019220878864269,0.01924714465179528,-0.7744893967086524
9852,6.0,299.6376,5094.3951,0.0,0.0,0.0,0.0,0.0,-0.09819300801980274,-0.3600624355053957,-0.6533184750825134,-0.5351879927664425,-0.01212970408660859,0.03901245729872976,-0.7758288120158423
9853,6.0,299.57705,5095.3625,0.0,0.0,0.0,0.0,0.0,-0.09820297482938656,-0.35733442173116164,-0.6681218766584953,-0.5234066602762155,-0.04172367645255626,-0.009055018949660792,-0.7603777308434393
9854,6.0,300.4893,5019.3838,0.0,0.0,0.0,0.0,0.0,-0.09821294163897037,-0.3212263019625677,-0.6812358660777453,-0.5233051731461995,-0.026107749621384277,-0.007894074981959542,-0.7456241305098723
9855,6.0,301.14023,5107.5161,0.0,0.0,0.0,0.0,0.0,-0.09822290844855419,-0.3239541536167857,-0.6901432666468373,-0.5384599495918595,0.016155414621665285,0.024175111844397777,-0.7707747509145453
9856,6.0,301.62555,5126.1712,0.0,0.0,0.0,0.0,0.0,-0.09823287525813801,-0.3402665176391907,-0.6561606821430174,-0.5618008546554275,0.017160783662387484,0.01931587441932838,-0.7444550020144883
9857,6.0,300.94999,4911.9198,0.0,0.0,0.0,0.0,0.0,-0.09824284206772188,-0.3109330387017017,-0.6654581536031063,-0.5167097661252835,0.01059852917149339,-0.0006834505977488224,-0.7940847214525601
9858,6.0,300.31768999999997,4748.8931,0.0,0.0,0.0,0.0,0.0,-0.09825280887730564,-0.2717700610741168,-0.6412068433246884,-0.5305680181404865,-0.015126936385912384,-0.023265487845374876,-0.7948619552067673
9859,6.0,300.2344,4915.6118,0.0,0.0,0.0,0.0,0.0,-0.09826277568688946,-0.30022778795017574,-0.6662535042691013,-0.5277419420215745,0.03771430153561176,-0.0018797450071913883,-0.7981757896588173
9860,6.0,300.38903999999997,5094.6798,0.0,0.0,0.0,0.0,0.0,-0.09827274249647333,-0.3432706420656747,-0.6550907305674214,-0.5502940724122964,0.015075787520864385,-0.011656857755192289,-0.7598375469501273
9861,6.0,299.80228,4838.0496,0.0,0.0,0.0,0.0,0.0,-0.09828270930605709,-0.3280506528435787,-0.6327666726417084,-0.5098289366836984,0.006701310705467874,-0.04337763600153936,-0.7624812684485422
9862,6.0,299.3142,5008.6088,0.0,0.0,0.0,0.0,0.0,-0.09829267611564096,-0.3351412149233627,-0.6612643013067054,-0.5260864737431925,-0.01932270879125288,-0.02055553424092328,-0.7533519154450453
9863,6.0,299.71607,5287.6618,0.0,0.0,0.0,0.0,0.0,-0.09830264292522473,-0.3923235384868186,-0.6848430769637494,-0.5301505388342845,-0.0004086227201254226,0.04026175616852596,-0.7690539077397113
9864,6.0,300.68259,5339.672,0.0,0.0,0.0,0.0,0.0,-0.09831260973480854,-0.38442491958478564,-0.6908304933946613,-0.5478715434107115,0.002297613198781768,0.05713211094150035,-0.7573214848318113
9865,6.0,301.35812999999996,5329.019,0.0,0.0,0.0,0.0,0.0,-0.09832257654439241,-0.4127449052422506,-0.6653449431694334,-0.5417988619838845,-0.004413699906373266,-0.001056912566684149,-0.7481962861537244
9866,6.0,300.95174,5077.7104,0.0,0.0,0.0,0.0,0.0,-0.09833254335397623,-0.33740068158635467,-0.6573525885006494,-0.5487438909518054,-0.028554707069630172,-0.029510702459479576,-0.7272584252923183
9867,6.0,300.94063,4733.6105,0.0,0.0,0.0,0.0,0.0,-0.09834251016356005,-0.28908064869753874,-0.6386436448117204,-0.5111750799715525,0.008104799288031414,-0.005608141010455425,-0.7640074865441683
9868,6.0,300.93006,4965.8677,0.0,0.0,0.0,0.0,0.0,-0.09835247697314387,-0.29741194565727375,-0.6546016347441515,-0.5574861925496034,0.005626238062541465,0.02788899364792937,-0.7383021826372523
9869,6.0,300.53522999999996,5216.2313,0.0,0.0,0.0,0.0,0.0,-0.09836244378272763,-0.36146310178113067,-0.6648723937202964,-0.5592685501380085,0.030435603230260174,-0.001988761902675518,-0.7856132008114862
9870,6.0,300.43933,5039.076,0.0,0.0,0.0,0.0,0.0,-0.09837241059231155,-0.3314224958638537,-0.6727241599377053,-0.5276066224707195,-0.005691048072062715,-0.0005791745272300754,-0.7642212417852643
9871,6.0,300.92661,4929.5049,0.0,0.0,0.0,0.0,0.0,-0.09838237740189532,-0.33171832436304965,-0.6665710467179403,-0.5001570389141565,0.022719033960444078,0.01921789617440868,-0.8041123409347092
9872,6.0,300.02881,5163.1078,0.0,0.0,0.0,0.0,0.0,-0.09839234421147919,-0.35283288590939466,-0.6800640322045943,-0.5365589404167445,0.004398977787720306,-0.017202252949230185,-0.7330210623210462
9873,6.0,300.03129,5233.4198,0.0,0.0,0.0,0.0,0.0,-0.09840231102106295,-0.35615662994742264,-0.6883524889501013,-0.5463198319425694,0.004419826725752936,-0.05250525229436495,-0.7785328725577123
9874,6.0,299.68484,4974.0598,0.0,0.0,0.0,0.0,0.0,-0.09841227783064677,-0.32525584562275267,-0.6755364761202594,-0.5111976653162815,-0.011058270126116291,-0.03368073425927967,-0.7474402090616054
9875,6.0,299.75422000000003,4908.2197,0.0,0.0,0.0,0.0,0.0,-0.09842224464023064,-0.3002933958941507,-0.6817387927648803,-0.5099440520275594,-0.0046760997648951155,0.04749018207016605,-0.7978405153332283
9876,6.0,299.70565,5042.2225,0.0,0.0,0.0,0.0,0.0,-0.09843221144981446,-0.3663710015555026,-0.6600530621371653,-0.5062856720115055,-0.02676759328525577,0.08309410352274951,-0.7768946700610343
9877,6.0,299.78639,4990.971,0.0,0.0,0.0,0.0,0.0,-0.09844217825939827,-0.3266416576520217,-0.6681839787571243,-0.5223049129124815,0.0099003330794118,0.02038975639206228,-0.7969859604638903
9878,6.0,300.14434,5029.3388,0.0,0.0,0.0,0.0,0.0,-0.09845214506898209,-0.31789963976425173,-0.6580651465009734,-0.5528286162124365,0.01997295798992748,0.0014346654775404587,-0.7636911903929523
9879,6.0,300.8432,5182.2871,0.0,0.0,0.0,0.0,0.0,-0.09846211187856585,-0.3166515588210757,-0.6902413999190223,-0.5683929078185125,0.008022022125086943,0.008766513107612482,-0.7465784905140603
9880,6.0,301.2659,5019.7707,0.0,0.0,0.0,0.0,0.0,-0.09847207868814972,-0.3345937964243367,-0.6557637819463463,-0.5355273707549365,0.005748073585040694,-0.021940678538376376,-0.7477565862728294
9881,6.0,300.70585,5022.2663,0.0,0.0,0.0,0.0,0.0,-0.09848204549773354,-0.3357030621038127,-0.6577453242394093,-0.5331951628672655,-0.024825330645569375,-0.035742043653215066,-0.7561975675558893
9882,6.0,300.89902,5216.6515,0.0,0.0,0.0,0.0,0.0,-0.09849201230731741,-0.4036468616668436,-0.6561979089516914,-0.5258870357260095,0.0008241245876972643,-0.025015001945038477,-0.7718787172959983
9883,6.0,300.20448,5031.7708,0.0,0.0,0.0,0.0,0.0,-0.09850197911690117,-0.36809387123053666,-0.6529916715277604,-0.5084471371248256,0.02107537713847778,0.01850628049667768,-0.7603100356042582
9884,6.0,300.36487999999997,4932.851,0.0,0.0,0.0,0.0,0.0,-0.09851194592648499,-0.3146769876887007,-0.6641697149084473,-0.5206168078483786,-0.018328520965384183,0.024388228737930773,-0.7779393207816333
9885,6.0,300.04517999999996,5093.4826,0.0,0.0,0.0,0.0,0.0,-0.0985219127360688,-0.34435158740485566,-0.6480306571831463,-0.5559092916839755,-0.008075730054587503,-0.005382157664502605,-0.7500240373466093
9886,6.0,299.98641000000003,5148.0039,0.0,0.0,0.0,0.0,0.0,-0.09853187954565262,-0.3358067074565417,-0.6682388867800434,-0.5608190355735295,-0.015556459182802986,-0.014597543606165386,-0.7563596065118813
9887,6.0,299.1124,4938.7045,0.0,0.0,0.0,0.0,0.0,-0.0985418463552365,-0.3065978988113567,-0.6531736107157164,-0.5414713390215605,0.024464060375414775,0.028729004325331976,-0.7882728303364713
9888,6.0,299.35714,4935.0553,0.0,0.0,0.0,0.0,0.0,-0.09855181316482031,-0.3510346506919227,-0.6415074644968574,-0.5075914575478765,-0.007266943286966462,0.02160835885007898,-0.7829084005970433
9889,6.0,299.5453,5030.6919,0.0,0.0,0.0,0.0,0.0,-0.09856177997440407,-0.3205368257995217,-0.6702484859683754,-0.5384193993228574,-0.008423460871605863,0.015530152170456685,-0.7991318012606682
9890,6.0,301.05127000000005,4913.6155,0.0,0.0,0.0,0.0,0.0,-0.09857174678398795,-0.3246120873042187,-0.6420068549411434,-0.5269974666431004,-0.015045612932886386,0.01127177002818709,-0.7821356859382823
9891,6.0,300.65824,4999.8521,0.0,0.0,0.0,0.0,0.0,-0.09858171359357171,-0.2715078724782407,-0.6938033995855644,-0.5545189402942585,0.012487782618948187,0.004269751112366626,-0.7731722019761553
9892,6.0,300.57226,5123.1752,0.0,0.0,0.0,0.0,0.0,-0.09859168040315558,-0.3139532231422707,-0.6908870327502413,-0.5524770690902414,-0.003699213589783957,-0.0031513450050635367,-0.7670403163459854
9893,6.0,300.13993,5025.596,0.0,0.0,0.0,0.0,0.0,-0.0986016472127394,-0.3234046680875557,-0.6812473462013783,-0.5230036704464435,-0.013568573944113985,-0.026463129868707577,-0.7747218565465942
9894,6.0,300.48445,4906.0202,0.0,0.0,0.0,0.0,0.0,-0.09861161402232321,-0.36172399341687866,-0.6468933852709063,-0.4826902689203206,-0.02146991950216608,-0.004549228490723896,-0.7763342312982232
9895,6.0,300.58545,5065.1051,0.0,0.0,0.0,0.0,0.0,-0.09862158083190703,-0.34791537039157366,-0.6450155997880834,-0.5467345146784954,-0.01701545016079418,0.02497307466915058,-0.7877084095007673
9896,6.0,300.49559,5114.37,0.0,0.0,0.0,0.0,0.0,-0.09863154764149085,-0.3298993276510287,-0.6723933844425604,-0.5523480722200105,0.008682142912860792,0.012115643214970887,-0.7893278972680983
9897,6.0,298.88212999999996,4961.4397,0.0,0.0,0.0,0.0,0.0,-0.09864151445107472,-0.3048127345201747,-0.6572440694149394,-0.5460969878480765,0.0032888391932831564,-0.003624931819652917,-0.7776776894733123
9898,6.0,299.60949,5041.4523,0.0,0.0,0.0,0.0,0.0,-0.09865148126065848,-0.31754045273630266,-0.6440227768100995,-0.5709123744571645,0.010265483996124392,-0.017868144702948584,-0.7672976312088803
9899,6.0,299.31021,5011.1244,0.0,0.0,0.0,0.0,0.0,-0.0986614480702423,-0.3656122190856167,-0.6409785175471544,-0.5166659531909594,0.025837577627970374,-0.016477167124669786,-0.7655784902942143
9900,6.0,300.10222999999996,5080.1133,0.0,0.0,0.0,0.0,0.0,-0.09867141487982617,-0.36887597871772465,-0.6603796123793934,-0.5149719915412786,0.03084997489840547,-0.03541856558529026,-0.7707015131973172
9901,6.0,301.70074,5339.1295,0.0,0.0,0.0,0.0,0.0,-0.09868138168940993,-0.3936944962696216,-0.6740951582505124,-0.5551723954162495,0.028105841328330574,-0.007872855802340373,-0.7816210967424962
9902,6.0,300.77655,5250.8867,0.0,0.0,0.0,0.0,0.0,-0.0986913484989938,-0.3479135972038987,-0.7004899687179773,-0.5477348661047226,-0.012380958700655488,0.004552771724998586,-0.7692983137963323
9903,6.0,300.81958,4878.8132,0.0,0.0,0.0,0.0,0.0,-0.09870131530857756,-0.29950466175130874,-0.6529170355253944,-0.5306157118226935,-0.018064995892626282,0.035410387643733165,-0.7868107205746723
9904,6.0,301.20007999999996,5044.8215,0.0,0.0,0.0,0.0,0.0,-0.09871128211816138,-0.31139271987456874,-0.6926769593168933,-0.5294300876156814,-0.005726374631499175,0.014855338749607786,-0.7668226702245052
9905,6.0,299.94006,4995.1191,0.0,0.0,0.0,0.0,0.0,-0.09872124892774525,-0.3430956740384067,-0.6583627684528464,-0.5169330357848185,0.00928653160140931,0.00992028215003062,-0.7681037831209412
9906,6.0,299.46962,4738.6952,0.0,0.0,0.0,0.0,0.0,-0.09873121573732907,-0.3077015713502807,-0.6458691515398224,-0.48687429269075155,-0.0029969891192797972,-0.0014802245457617887,-0.7901531590770452
9907,6.0,299.79447000000005,4853.7611,0.0,0.0,0.0,0.0,0.0,-0.09874118254691289,-0.2681020551821127,-0.6725755262805364,-0.5347445945226824,-0.004724284670750595,-0.0034862424016153365,-0.8266314596371732
9908,6.0,298.97991,5098.8818,0.0,0.0,0.0,0.0,0.0,-0.0987511493564967,-0.31547670546262674,-0.6736235207264654,-0.5608325320648615,0.016375840088169585,0.004678804433387045,-0.7801773673375112
9909,6.0,300.80271,5246.5641,0.0,0.0,0.0,0.0,0.0,-0.09876111616608046,-0.3025784065921637,-0.7243006570579094,-0.5679453957793464,0.023215636953704977,0.00894070174290356,-0.8068201201044463
9910,6.0,300.6549,5254.5767,0.0,0.0,0.0,0.0,0.0,-0.09877108297566439,-0.37882787801990064,-0.6539040829778083,-0.5645281490220905,0.02795271795996847,-5.621830728581494e-05,-0.7310261248616613
9911,6.0,300.82062,5246.5928,0.0,0.0,0.0,0.0,0.0,-0.09878104978524815,-0.3794221289385486,-0.6885099885456453,-0.5269010862935886,-0.01027816887412629,-0.01054454016641509,-0.7378226518949262
9912,6.0,302.05877000000004,5043.3951,0.0,0.0,0.0,0.0,0.0,-0.09879101659483197,-0.35585015218967564,-0.6636085770030674,-0.5136074577641095,-0.01118443496231779,-0.03087837731195857,-0.7432640886419543
9913,6.0,301.74642,5083.9514,0.0,0.0,0.0,0.0,0.0,-0.09880098340441579,-0.32180257782444166,-0.6776816684369733,-0.5459100432046264,0.0036162440106454964,-0.005019728236233605,-0.7669632485433794
9914,6.0,301.22782,5322.1547,0.0,0.0,0.0,0.0,0.0,-0.0988109502139996,-0.3581052416122356,-0.7023612592676592,-0.5573356438497454,-0.0084953230004981,-0.005638321677934025,-0.7886111241473582
9915,6.0,300.53011000000004,5201.0374,0.0,0.0,0.0,0.0,0.0,-0.09882091702358348,-0.34020467898558765,-0.6698271360467913,-0.5709536947962425,-0.0040238591244739766,0.015657903756314786,-0.7654486321613982
9916,6.0,298.99671,4836.16,0.0,0.0,0.0,0.0,0.0,-0.0988308838331673,-0.3331794614047527,-0.6476429674298845,-0.48924945225016153,-0.019511264502361878,0.01190142593182929,-0.7991207872320812
9917,6.0,299.37321000000003,4893.7691,0.0,0.0,0.0,0.0,0.0,-0.09884085064275111,-0.35068253614967165,-0.6228806548610344,-0.5140204281073666,0.01180742469355209,0.028229516609036373,-0.7422524901396172
9918,6.0,300.36406,5226.2011,0.0,0.0,0.0,0.0,0.0,-0.09885081745233493,-0.35780596806269965,-0.6731218504694544,-0.5577068277588785,-0.006476115364117824,-0.03354170823955887,-0.7824934645485923
9919,6.0,299.83665,5196.7747,0.0,0.0,0.0,0.0,0.0,-0.09886078426191869,-0.3163351106823447,-0.6787369278861193,-0.5846177168997765,-0.0019549314070117082,-0.004268541190422215,-0.7545404882098483
9920,6.0,300.44756,5156.8634,0.0,0.0,0.0,0.0,0.0,-0.09887075107150256,-0.3298559909442517,-0.6736520943792854,-0.5640496112648624,6.0580742107353744e-05,-0.01072757771747949,-0.7938694260713123
9921,6.0,300.68744,5101.4956,0.0,0.0,0.0,0.0,0.0,-0.09888071788108638,-0.3145166003303717,-0.6638358692654994,-0.5723748185914964,-0.012728373788942688,0.02895542012642747,-0.7434901548717653
9922,6.0,301.3974,5081.0908,0.0,0.0,0.0,0.0,0.0,-0.0988906846906702,-0.36231012820222563,-0.6759626389798183,-0.5062519713131796,0.008421586561570882,0.0037593347844674563,-0.7970537975580853
9923,6.0,300.3019,5192.7195,0.0,0.0,0.0,0.0,0.0,-0.09890065150025401,-0.36524652699202564,-0.6693823192528914,-0.5438282195491665,0.0063489065763382944,-0.015440751087633486,-0.7545145591397893
9924,6.0,300.59833,5201.0699,0.0,0.0,0.0,0.0,0.0,-0.09891061830983783,-0.3777726185707546,-0.6697733122014794,-0.5334494379798606,0.02425156359094298,-0.014632415621606986,-0.7804234655217993
9925,6.0,300.35327,5009.4776,0.0,0.0,0.0,0.0,0.0,-0.09892058511942164,-0.29940040844851973,-0.6882930922292393,-0.5350625929340664,-0.023390244263937376,0.00991627069288472,-0.7812468426855602
9926,6.0,299.96828999999997,4851.0678,0.0,0.0,0.0,0.0,0.0,-0.09893055192900546,-0.3188813980511437,-0.6480160055867004,-0.5077060763991885,-0.004657133850848326,-0.01140012855085509,-0.7804183688737963
9927,6.0,299.12551,5073.901,0.0,0.0,0.0,0.0,0.0,-0.09894051873858933,-0.3329633250259217,-0.6797913159401794,-0.5295845677259275,-0.035258141749957665,0.017478803352023585,-0.7790687602706002
9928,6.0,300.16797,5030.627,0.0,0.0,0.0,0.0,0.0,-0.09895048554817315,-0.3978161544963976,-0.6071764435486494,-0.5241923951987615,0.0045091266862161555,0.04135354328377696,-0.7504038642790953
9929,6.0,299.96524,5127.8739,0.0,0.0,0.0,0.0,0.0,-0.09896045235775691,-0.3267206202323147,-0.6636271397448994,-0.5683978423464994,-0.02359573341071758,0.04268922476434846,-0.7693428562707283
9930,6.0,300.25793,5338.5241,0.0,0.0,0.0,0.0,0.0,-0.09897041916734073,-0.36670350970831866,-0.6811525971845274,-0.5749219064278744,-0.010360466060498391,-0.01150605878255959,-0.7655025168017162
9931,6.0,299.98254,5302.1339,0.0,0.0,0.0,0.0,0.0,-0.09898038597692455,-0.32815823973919667,-0.6870188289034794,-0.5965392426738394,-0.0028749747581379172,-0.034295409260193366,-0.7723156611366212
9932,6.0,300.24742000000003,5204.0248,0.0,0.0,0.0,0.0,0.0,-0.09899035278650842,-0.35051085105272767,-0.6866785795198993,-0.5447041641281155,0.026380127460265874,-0.036623969447504366,-0.7864244493715502
9933,6.0,300.91441000000003,5207.9068,0.0,0.0,0.0,0.0,0.0,-0.09900031959609223,-0.37130401979985367,-0.6604435281957014,-0.5513260676391465,0.003392337219447617,0.01132868935255459,-0.7591192539542372
9934,6.0,301.31899,5001.2131,0.0,0.0,0.0,0.0,0.0,-0.09901028640567605,-0.3520313544177897,-0.6795943299882384,-0.48861822783536457,0.007881407734509382,-0.01773499654705788,-0.7929721931077622
9935,6.0,301.12717999999995,4742.2059,0.0,0.0,0.0,0.0,0.0,-0.09902025321525987,-0.3060583633981087,-0.6468011389818024,-0.4886526783387646,-0.014193533433542687,0.013098460348217386,-0.7890798435111173
9936,6.0,299.65391,5130.0152,0.0,0.0,0.0,0.0,0.0,-0.09903022002484368,-0.3356614884522096,-0.6850361821678074,-0.5386988638329384,0.015174503411856884,0.006700600011847733,-0.7845771728492382
9937,6.0,299.57239,5293.8640000000005,0.0,0.0,0.0,0.0,0.0,-0.09904018683442756,-0.3653089330656846,-0.6894902573548903,-0.5544032879278444,0.006527793247043034,0.010307183290739791,-0.7591005898873953
9938,6.0,299.94521000000003,5046.0742,0.0,0.0,0.0,0.0,0.0,-0.09905015364401132,-0.3141964842262787,-0.6831319305923723,-0.5365521313760725,0.0013238311153519588,-0.0030860092200653976,-0.7816357888689462
9939,6.0,300.24696,5030.3065,0.0,0.0,0.0,0.0,0.0,-0.09906012045359514,-0.3408820772074417,-0.6607069732217014,-0.5274985188175505,-0.02891048552424277,-0.008105111065087182,-0.7731645316728982
9940,6.0,299.89861,5173.0246,0.0,0.0,0.0,0.0,0.0,-0.09907008726317895,-0.3790362427704646,-0.6554537780782514,-0.5379802972595215,0.004380287984325766,-0.004314161762924615,-0.7567090663388703
9941,6.0,299.37529,5134.3405,0.0,0.0,0.0,0.0,0.0,-0.09908005407276277,-0.3459106246712207,-0.6659594084275764,-0.5488412845514176,-0.011569531808573888,0.029875881848519976,-0.7763642741636883
9942,6.0,299.80557000000005,5070.7274,0.0,0.0,0.0,0.0,0.0,-0.09909002088234664,-0.3263715961028687,-0.6663608175871923,-0.5486420897142585,0.01112407261411049,-0.0011964378147292188,-0.7715306760191493
9943,6.0,300.88709,4997.8863,0.0,0.0,0.0,0.0,0.0,-0.09909998769193046,-0.29688431593270076,-0.6752278300072984,-0.5471204717740865,-0.01959278553915738,-0.0044087984103395265,-0.7864145093880692
9944,6.0,300.62579,4921.0219,0.0,0.0,0.0,0.0,0.0,-0.09910995450151422,-0.3243859400143997,-0.6528083543196684,-0.5186734954815886,0.018038957391556483,-0.03471548147340126,-0.7525217596381153
9945,6.0,301.30935,5153.1296,0.0,0.0,0.0,0.0,0.0,-0.09911992131109809,-0.35066702329064064,-0.6967027539517083,-0.5190529475115375,0.042097819051981254,-0.01992135518883468,-0.7851049646938273
9946,6.0,300.58356000000003,5387.8841,0.0,0.0,0.0,0.0,0.0,-0.09912988812068191,-0.4161070615915696,-0.6767241977549784,-0.5449509715874735,0.024058254723614877,-0.013094105399287589,-0.7281521220130193
9947,6.0,300.55784,5209.2656,0.0,0.0,0.0,0.0,0.0,-0.09913985493026573,-0.3342329577987247,-0.6818098925243974,-0.5674438065823435,0.008945603948212371,0.001120393394724219,-0.7667721799720223
9948,6.0,300.88265,5000.3134,0.0,0.0,0.0,0.0,0.0,-0.09914982173984954,-0.33056048347377964,-0.6669310848759733,-0.5224788372921465,-0.024761324650002477,0.012486702494341589,-0.7450161196548664
9949,6.0,299.90702000000005,5271.2828,0.0,0.0,0.0,0.0,0.0,-0.0991597885494333,-0.3561897530931917,-0.6637626720782753,-0.5823859119645145,-0.006079799103479454,0.017220146945996183,-0.7585094901765582
9950,6.0,298.84867,5363.9212,0.0,0.0,0.0,0.0,0.0,-0.09916975535901718,-0.37880241504488765,-0.6733820936251383,-0.5783136091501094,0.001176173927304329,-0.017889987335354282,-0.7688768118872332
9951,6.0,300.0893,4894.157,0.0,0.0,0.0,0.0,0.0,-0.09917972216860099,-0.3157552276501147,-0.6485765963370264,-0.5233696867800665,-0.0002489251216694968,-0.01897328544126748,-0.7815822689986642
9952,6.0,299.19517,4861.8032,0.0,0.0,0.0,0.0,0.0,-0.09918968897818481,-0.3262465610405287,-0.6472229549984324,-0.5043972676676345,-0.007995098246079763,-0.017600208952505383,-0.7800113260436242
9953,6.0,299.40572000000003,5143.5533,0.0,0.0,0.0,0.0,0.0,-0.09919965578776863,-0.3461039021277957,-0.6752943600088643,-0.5421135166699386,-0.0026307183585566876,-0.0004100388891276876,-0.7805630711205772
9954,6.0,300.40521,5155.2006,0.0,0.0,0.0,0.0,0.0,-0.09920962259735244,-0.34210744108337565,-0.6805028302929004,-0.5444419856647406,0.014254631401322588,0.01201609848539659,-0.7927280504961672
9955,6.0,300.77058999999997,5030.1109,0.0,0.0,0.0,0.0,0.0,-0.09921958940693631,-0.30509538063556974,-0.6823795518631183,-0.5415531690996365,0.024093581688351375,0.014873597516409785,-0.7683590613511352
9956,6.0,300.92104,5030.0118,0.0,0.0,0.0,0.0,0.0,-0.09922955621652008,-0.32649824223286766,-0.6666205642503273,-0.5358791610571555,0.011594480052536089,-0.006149341193617724,-0.7652409868184054
9957,6.0,301.19203,5180.7682,0.0,0.0,0.0,0.0,0.0,-0.09923952302610395,-0.35839637876346864,-0.6820636610119424,-0.5343641393751345,-0.0045905677775787655,0.0009301257165112611,-0.7379284960003722
9958,6.0,300.93361,5369.1694,0.0,0.0,0.0,0.0,0.0,-0.09924948983568771,-0.3960534336949306,-0.6724908692346814,-0.5635491366429695,0.009376587750422162,0.0032880233243026374,-0.7552514047450103
9959,6.0,299.93486,5285.5986,0.0,0.0,0.0,0.0,0.0,-0.09925945664527153,-0.3518669545890647,-0.6833014270691004,-0.5715216012122905,-0.01331624224521079,0.015954001780037384,-0.7536249559494923
9960,6.0,299.60012,4940.4846,0.0,0.0,0.0,0.0,0.0,-0.0992694234548554,-0.3331892797982217,-0.6367882622886084,-0.5318064022802055,-0.011342024737120688,0.018576959757403182,-0.7719624421517612
9961,6.0,299.89427,5057.1878,0.0,0.0,0.0,0.0,0.0,-0.09927939026443922,-0.31568124012781273,-0.6805068934258014,-0.5410706796670185,-0.03516047659931887,0.004359614439885446,-0.7797951592672903
9962,6.0,299.66615,5357.2929,0.0,0.0,0.0,0.0,0.0,-0.09928935707402303,-0.4027267900460396,-0.6799838233266784,-0.5457726464910665,-0.013953852162137986,0.010301958973224189,-0.7788771344116883
9963,6.0,299.73607999999996,5373.7254,0.0,0.0,0.0,0.0,0.0,-0.09929932388360685,-0.3803447944796086,-0.6830531199995944,-0.5700804353300585,0.01040116426401499,-0.025752874985860874,-0.7745739422969963
9964,6.0,300.42278,5101.9983,0.0,0.0,0.0,0.0,0.0,-0.09930929069319067,-0.35228921643573863,-0.6814109962250294,-0.5171798837741804,0.04096299515198286,-0.018504689694020682,-0.7658520982187172
9965,6.0,299.91225,5061.7033,0.0,0.0,0.0,0.0,0.0,-0.09931925750277448,-0.3199574189948387,-0.6760336171493233,-0.5426403661919346,0.013541122972404786,-0.011179407215321591,-0.7700211866826743
9966,6.0,298.89333999999997,5125.9286,0.0,0.0,0.0,0.0,0.0,-0.0993292243123583,-0.3468807711119667,-0.6755101417501603,-0.5357633769682285,-0.011930032008652489,0.017643391645267185,-0.7622501461007323
9967,6.0,299.21303,5146.3671,0.0,0.0,0.0,0.0,0.0,-0.09933919112194217,-0.3201396114953197,-0.6908230460064264,-0.5534044259792644,-0.013406356656104387,0.03364516918076967,-0.7703050689631913
9968,6.0,298.50667999999996,5142.0461,0.0,0.0,0.0,0.0,0.0,-0.09934915793152593,-0.33372327273342267,-0.6775200043835183,-0.5518103403919404,-0.026302305799585476,0.03473719035679376,-0.7369221663985552
9969,6.0,299.05402000000004,5062.1798,0.0,0.0,0.0,0.0,0.0,-0.09935912474110975,-0.33626134264391067,-0.6737906765954623,-0.5287242474635205,0.0018351387993640982,0.016103071134749385,-0.7613835031577013
9970,6.0,299.1907,5115.2287,0.0,0.0,0.0,0.0,0.0,-0.09936909155069357,-0.32589826645115466,-0.6631515201479593,-0.5658520109402454,-0.038496749474833364,-0.00990093728044643,-0.7745364824407992
9971,6.0,300.28448,5276.3843,0.0,0.0,0.0,0.0,0.0,-0.09937905836027738,-0.3724075099537596,-0.6841960053173883,-0.5472855504803785,-0.006967317633020714,-0.02142802667678158,-0.7855762273153373
9972,6.0,299.61691,5354.9293,0.0,0.0,0.0,0.0,0.0,-0.09938902516986126,-0.36850432871354566,-0.6879083003712634,-0.5713521756630694,0.0021204336518455083,-0.03498221956222626,-0.7962445451007182
9973,6.0,301.05451,4995.8104,0.0,0.0,0.0,0.0,0.0,-0.09939899197944507,-0.3261932843502707,-0.6709830010983664,-0.5214253408981745,0.030814247699879473,-0.0014618517883235387,-0.7956420969887612
9974,6.0,300.25813,4865.2454,0.0,0.0,0.0,0.0,0.0,-0.09940895878902883,-0.3229052776432697,-0.6622924765806784,-0.4937153520659115,0.007184604962640303,0.007558205371936793,-0.7933976264272493
9975,6.0,300.32731,4991.3488,0.0,0.0,0.0,0.0,0.0,-0.0994189255986127,-0.34829977721451166,-0.6507606163975724,-0.5181850076083786,-0.002515757028710888,0.0095557226674014,-0.7916135564461753
9976,6.0,300.07826,4980.5885,0.0,0.0,0.0,0.0,0.0,-0.09942889240819647,-0.32832984377613267,-0.6594517387328193,-0.5261929663287025,6.977511942276813e-05,0.008913518167895752,-0.7668585494105462
9977,6.0,300.51166,4984.6764,0.0,0.0,0.0,0.0,0.0,-0.0994388592177804,-0.32405622843185966,-0.6791208280840074,-0.5120400915819224,0.013980178426236185,-0.01184826069908229,-0.7836156998293483
9978,6.0,298.58653,5157.0171,0.0,0.0,0.0,0.0,0.0,-0.09944882602736416,-0.35096636776768364,-0.6603085430173794,-0.5563295270304495,0.009522940986916101,0.005477586977470745,-0.7512710645096813
9979,6.0,298.95811000000003,5298.1746,0.0,0.0,0.0,0.0,0.0,-0.09945879283694797,-0.34670093948421865,-0.6987786804915863,-0.5650331630044314,-0.017411009827582882,-0.02149061412220848,-0.7782281679876403
9980,6.0,299.2524,5373.9252,0.0,0.0,0.0,0.0,0.0,-0.09946875964653179,-0.3853658641576496,-0.6780738671531804,-0.5700993425769245,-0.022600688375264275,0.002071232253489708,-0.7337222617877492
9981,6.0,298.90497999999997,5339.9527,0.0,0.0,0.0,0.0,0.0,-0.09947872645611561,-0.36797666859146966,-0.6791991725817393,-0.5760364207428684,-0.0009031786543417932,-0.009381830103789542,-0.7843945446512143
9982,6.0,299.4525,5170.2536,0.0,0.0,0.0,0.0,0.0,-0.09948869326569948,-0.35264002388536064,-0.6697154556207693,-0.5492725136614766,-0.002068959736165428,-0.015974592035319483,-0.7592508447447243
9983,6.0,300.96154,4922.5948,0.0,0.0,0.0,0.0,0.0,-0.0994986600752833,-0.3253024145973487,-0.6602928477733303,-0.5107506497696646,0.01037044049448279,-0.02081025011731178,-0.8091606366429372
9984,6.0,299.85022999999995,4898.4826,0.0,0.0,0.0,0.0,0.0,-0.09950862688486706,-0.3354293021917947,-0.6268446513722503,-0.5267424214604295,-0.026033498654056277,-0.00860903073732018,-0.7778694774522403
9985,6.0,300.13237000000004,5199.1258,0.0,0.0,0.0,0.0,0.0,-0.09951859369445093,-0.3550162169598726,-0.6851830831673054,-0.5402051310340955,0.012789991554023886,0.01858005017020818,-0.7949316060186412
9986,6.0,299.76422,5094.4527,0.0,0.0,0.0,0.0,0.0,-0.09952856050403469,-0.33600500050111165,-0.6765785329206023,-0.5360028687618644,-0.009003134667690212,0.03803143463141036,-0.7859811220552972
9987,6.0,299.55518,5004.3201,0.0,0.0,0.0,0.0,0.0,-0.09953852731361856,-0.3149349814291627,-0.6682794471815464,-0.5379739137838915,0.0049107366720019755,0.011246406351683889,-0.7834529617307873
9988,6.0,300.15909,5217.906,0.0,0.0,0.0,0.0,0.0,-0.09954849412320238,-0.3346064417855847,-0.6921999110373124,-0.5593067901967824,-0.014495068557301885,0.002033738149439328,-0.7730784560769033
9989,6.0,300.21901,5163.8738,0.0,0.0,0.0,0.0,0.0,-0.09955846093278614,-0.34868580523760967,-0.6805554179730904,-0.5404474599280115,-0.007562810087016244,-0.008786586200043543,-0.7424006475692393
9990,6.0,300.74111,5064.4742,0.0,0.0,0.0,0.0,0.0,-0.09956842774237001,-0.3082431433962297,-0.6839398759571104,-0.5472906876583855,0.010681889257220389,-0.006354871984977035,-0.7796624437691922
9991,6.0,300.65001,5180.9687,0.0,0.0,0.0,0.0,0.0,-0.09957839455195383,-0.34707499089113464,-0.6756397769679544,-0.5521703481524705,0.01060518217164999,-0.01110012444799699,-0.7623938452299143
9992,6.0,300.48551000000003,5086.4253,0.0,0.0,0.0,0.0,0.0,-0.09958836136153765,-0.34504109396540467,-0.6512331759792104,-0.5498720030831414,0.0004980291934391544,0.02407715791748048,-0.7799631662663713
9993,6.0,300.08301,5158.9633,0.0,0.0,0.0,0.0,0.0,-0.09959832817112146,-0.35624403290104867,-0.6782916247321713,-0.5336603763856785,-0.016286806815132684,0.0054502163564944745,-0.7899065542677073
9994,6.0,300.37151,5259.7288,0.0,0.0,0.0,0.0,0.0,-0.09960829498070528,-0.3587417349275526,-0.6753382641356974,-0.5647462207086125,-0.013255097667926288,0.014652981558886684,-0.7875911967291993
9995,6.0,298.84234,5082.9214,0.0,0.0,0.0,0.0,0.0,-0.09961826179028915,-0.3429790793493997,-0.6730779564751224,-0.5290241593606195,0.014973971084565885,-0.027297590975312473,-0.7932147550492012
9996,6.0,299.44647000000003,5013.0276,0.0,0.0,0.0,0.0,0.0,-0.09962822859987291,-0.3291989387844057,-0.6460109254938144,-0.5486253406901055,0.018469552207052882,-0.012927265664321789,-0.7555623408031973
9997,6.0,299.40193999999997,5332.5846,0.0,0.0,0.0,0.0,0.0,-0.09963819540945679,-0.36765545817726863,-0.6959221359421673,-0.5573949696431004,0.025503906264039578,-0.011040378155850489,-0.7884437352308382
9998,6.0,299.99937,5248.4738,0.0,0.0,0.0,0.0,0.0,-0.09964816221904055,-0.3575436173468077,-0.6867202950265164,-0.5511410684358885,-0.013937365569760886,0.0017084176888576986,-0.7533509021949453
9999,6.0,301.31063,4947.4683,0.0,0.0,0.0,0.0,0.0,-0.09965812902862436,-0.29161720886537773,-0.6823971621498564,-0.5298924437688125,0.011003185797679888,-0.01196790324439009,-0.8110892366182751
10000,6.0,301.05683999999997,4901.4024,0.0,0.0,0.0,0.0,0.0,-0.09966809583820824,-0.30397118978212073,-0.6687181946073474,-0.5172145571926025,0.0005152744872261325,0.005939228789281245,-0.7554739144669703
10001,6.0,299.74146,5181.4523,0.0,0.0,0.0,0.0,0.0,-0.09967806264779205,-0.34873086446955665,-0.6760638120023034,-0.5502374418642074,0.0077160574771905814,-0.013710997391420088,-0.7955729021394322
10002,6.0,300.58008,5246.3412,0.0,0.0,0.0,0.0,0.0,-0.09968802945737587,-0.3510888697047737,-0.6870644251579794,-0.5566034389299825,-0.010628592301960388,0.005435888290805406,-0.7706096114132474
10003,6.0,300.00838,4964.7469,0.0,0.0,0.0,0.0,0.0,-0.09969799626695969,-0.3074491707503707,-0.6750819726554034,-0.5266279545966325,-0.0037855245637771866,0.00012710066386135887,-0.8129397555409072
10004,6.0,299.97182999999995,5140.6662,0.0,0.0,0.0,0.0,0.0,-0.09970796307654345,-0.3424426850114617,-0.6794476012412574,-0.5407438761122655,-0.012716959526566188,0.02098830450438438,-0.7882165949559212
10005,6.0,299.8093,5368.1928,0.0,0.0,0.0,0.0,0.0,-0.09971792988612732,-0.3656538839297287,-0.6995920264793574,-0.5665506671491974,-0.0007242764505130203,0.015172147605374385,-0.8065237647151983
10006,6.0,299.44752,5155.7595,0.0,0.0,0.0,0.0,0.0,-0.09972789669571114,-0.3328368410159387,-0.6978469666271333,-0.5365383511747125,-0.0054811136957688055,0.014350450410279185,-0.7912780592055643
10007,6.0,299.83322000000004,5041.8083,0.0,0.0,0.0,0.0,0.0,-0.09973786350529501,-0.33300903273793264,-0.6687102405940624,-0.5308645457822515,-0.0066668394304408235,-0.0100933217597083,-0.7705840268482222
10008,6.0,300.18172999999996,4957.0867,0.0,0.0,0.0,0.0,0.0,-0.09974783031487877,-0.3103628930029327,-0.6574619181864394,-0.5390057570232265,-0.006609699116226514,0.018043052948460682,-0.7506254620759653
10009,6.0,300.09146,4999.9351,0.0,0.0,0.0,0.0,0.0,-0.09975779712446259,-0.32894885852722466,-0.6682801361916144,-0.5226264273017125,-0.007538770120443682,-0.014559010718112487,-0.7580606305147592
10010,6.0,301.26084,5443.869000000001,0.0,0.0,0.0,0.0,0.0,-0.09976776393404646,-0.3619593714151087,-0.7021550932698124,-0.5906857779061475,-0.015041948007274685,-0.005108178282512945,-0.7713227469661282
10011,6.0,300.13741,5331.7177,0.0,0.0,0.0,0.0,0.0,-0.09977773074363022,-0.37262189340991764,-0.6870907291305753,-0.5609964252685364,-0.00925084878323769,-0.009898850998490532,-0.7918149399035502
10012,6.0,300.50433,4989.6566,0.0,0.0,0.0,0.0,0.0,-0.0997876975532141,-0.31552853320524166,-0.6665025206136773,-0.5346999608557775,-0.005661999914220885,0.006705079793189853,-0.7907397903549412
10013,6.0,301.17585,5229.6644,0.0,0.0,0.0,0.0,0.0,-0.09979766436279791,-0.35308702929947666,-0.6931203676931543,-0.5434799857547985,0.01126600970136859,-0.01330468410132009,-0.7964467087606703
10014,6.0,301.09765,5409.7457,0.0,0.0,0.0,0.0,0.0,-0.09980763117238167,-0.39411671758629163,-0.6846284199300644,-0.5656824739335135,0.007353418914100942,-0.009011715072187032,-0.7732010593390033
10015,6.0,300.65077,5012.7095,0.0,0.0,0.0,0.0,0.0,-0.09981759798196554,-0.3362226567550927,-0.6427003537070864,-0.5448155000491035,0.01020630005778339,-0.006914971714304574,-0.7787016192293663
10016,6.0,300.5563,4780.9277,0.0,0.0,0.0,0.0,0.0,-0.0998275647915493,-0.30245076747706673,-0.6384840883184734,-0.5123477852397895,-0.011384862924848489,0.022456502886034277,-0.7658899431099522
10017,6.0,299.43677,4954.2239,0.0,0.0,0.0,0.0,0.0,-0.09983753160113318,-0.3061068575478947,-0.6526719911212104,-0.5471815200926115,-0.02264760489464458,-0.003350646740108087,-0.7604653972420913
10018,6.0,299.50182,5159.5003,0.0,0.0,0.0,0.0,0.0,-0.099847498410717,-0.33874454506148366,-0.6849738976841604,-0.5446408055993626,-0.020171085874731178,0.009005870544285222,-0.7854527830556542
10019,6.0,299.67956000000004,5323.6822,0.0,0.0,0.0,0.0,0.0,-0.09985746522030081,-0.3533495624003867,-0.7011243139430823,-0.5637925699794945,-0.016233981021169182,0.004732845519520485,-0.7789261047890214
10020,6.0,299.57122000000004,5349.9546,0.0,0.0,0.0,0.0,0.0,-0.09986743202988463,-0.3653168465489657,-0.7090962414898503,-0.5518395118623195,0.012538685264221886,-0.002890792706774028,-0.7833729555028913
10021,6.0,300.37326,5227.6766,0.0,0.0,0.0,0.0,0.0,-0.09987739883946845,-0.33854539075432866,-0.7060807281322423,-0.5444570324287255,0.0025795035309271776,-0.025091567175594878,-0.7837879523463482
10022,6.0,300.52435,5026.6382,0.0,0.0,0.0,0.0,0.0,-0.09988736564905232,-0.30356408615694275,-0.6949371251224543,-0.5294712863647475,0.01273499132534579,-0.01788979380458518,-0.8190577799097092
10023,6.0,300.74113,5166.7707,0.0,0.0,0.0,0.0,0.0,-0.09989733245863613,-0.33752091384322064,-0.6873662115677633,-0.5456821531246355,0.017676251346010183,-0.012136534405532688,-0.7869942708302873
10024,6.0,300.12483,5156.343,0.0,0.0,0.0,0.0,0.0,-0.0999072992682199,-0.34540408068122863,-0.6786571547057464,-0.5433382725958125,0.0036858406136391466,0.00954483134340151,-0.8019256965564043
10025,6.0,300.05791,4871.6236,0.0,0.0,0.0,0.0,0.0,-0.09991726607780377,-0.35073284401713667,-0.6308368061037454,-0.4992822697053235,0.0021839481197888978,-0.020086001237333978,-0.7612030230498893
10026,6.0,299.90524,5064.3651,0.0,0.0,0.0,0.0,0.0,-0.09992723288738753,-0.35534558403737865,-0.6533840830264884,-0.5307108762720855,-0.0030660639997969574,-0.012003636522416688,-0.7886576829894532
10027,6.0,299.39476,5507.5371,0.0,0.0,0.0,0.0,0.0,-0.0999371996969714,-0.39096196339994166,-0.6902234653922523,-0.5929683264064175,0.015661405548660384,0.00046989497705502364,-0.7423324051750043
10028,6.0,300.17305,5469.5509999999995,0.0,0.0,0.0,0.0,0.0,-0.09994716650655522,-0.3906347646776496,-0.7025930300955333,-0.5693791244058445,-0.0005889549238203253,-0.0037513991110092668,-0.7776908819896143
10029,6.0,301.04305,5227.3975,0.0,0.0,0.0,0.0,0.0,-0.09995713331613904,-0.3451064688618567,-0.6866785389898953,-0.5572133040326714,-0.018726670499428482,-0.02753554060229627,-0.7520437487709393
10030,6.0,300.34673,5226.1594,0.0,0.0,0.0,0.0,0.0,-0.09996710012572285,-0.36976805423826564,-0.6863149443240114,-0.5325389618375035,-0.014707781164044987,-0.0100332238697771,-0.7793489745857552
10031,6.0,300.27067999999997,5255.9062,0.0,0.0,0.0,0.0,0.0,-0.09997706693530667,-0.36041923126310865,-0.6913454878904873,-0.5458995358010895,0.008043081515165343,-0.008077806001392383,-0.7512076147884192
10032,6.0,300.29477,5178.5463,0.0,0.0,0.0,0.0,0.0,-0.09998703374489049,-0.35796583866347764,-0.6750858736682884,-0.5410970646996225,0.02292296574182058,0.015094150652426686,-0.7850538462262823
10033,6.0,299.73249,5204.525,0.0,0.0,0.0,0.0,0.0,-0.0999970005544743,-0.3527835710270277,-0.6527380854252334,-0.5765239865584875,0.0015804888855571084,-0.02173658666348408,-0.7564819969914602
10034,6.0,299.15929,4971.9001,0.0,0.0,0.0,0.0,0.0,-0.10000696736405812,-0.3234203734641057,-0.6731399471162404,-0.5147731716066565,0.0011474526439447588,0.0014382329284925387,-0.7925758096686423
10035,6.0,299.56196,4791.4883,0.0,0.0,0.0,0.0,0.0,-0.10001693417364194,-0.2968167422835317,-0.6337119539250005,-0.5259641237936175,-0.024843902506652273,0.02066026681100958,-0.7900035425672792
10036,6.0,299.28508999999997,5148.7442,0.0,0.0,0.0,0.0,0.0,-0.10002690098322575,-0.35104850182078967,-0.6746478456500584,-0.5393933454514784,0.01973835208827368,0.01960959029206588,-0.7750118183277113
10037,6.0,299.99865,5341.3402,0.0,0.0,0.0,0.0,0.0,-0.10003686779280957,-0.3895134514544846,-0.6751767014072524,-0.5589438845409664,-0.027245314362903176,0.01108781649903229,-0.7671509733894063
10038,6.0,300.17091,5036.6818,0.0,0.0,0.0,0.0,0.0,-0.10004683460239339,-0.3234235348044177,-0.6726362604915304,-0.5349657059595044,0.012229862845743488,0.015872484796242287,-0.7997462462538092
10039,6.0,299.98138,4982.3289,0.0,0.0,0.0,0.0,0.0,-0.1000568014119772,-0.3090313709140217,-0.6785698733421324,-0.5269023528562135,-0.0005983450671345603,0.022853333168448377,-0.7732987974436493
10040,6.0,299.75726000000003,5303.8623,0.0,0.0,0.0,0.0,0.0,-0.10006676822156108,-0.3384885575562197,-0.7066620195821113,-0.5670911144875355,0.005596789569585124,0.01101139717649029,-0.7761971182946912
10041,6.0,300.12306,5440.7828,0.0,0.0,0.0,0.0,0.0,-0.10007673503114489,-0.3975817694832656,-0.6914827934115384,-0.5647975620911795,-0.014083491432932384,-0.015750810684483984,-0.7602967417629463
10042,6.0,299.90396,5235.8773,0.0,0.0,0.0,0.0,0.0,-0.10008670184072871,-0.3570688184824487,-0.6923114293433184,-0.5421956912530485,-0.007186678680294963,-0.012777075654999187,-0.7843003225244153
10043,6.0,298.73606,4947.7134,0.0,0.0,0.0,0.0,0.0,-0.10009666865031253,-0.34460601450496564,-0.6323804217035884,-0.5269948929878465,0.016316002603514086,0.014975752378241686,-0.7333560833341103
10044,6.0,298.46659,4835.0252,0.0,0.0,0.0,0.0,0.0,-0.10010663545989629,-0.3033105101869167,-0.6500345011109103,-0.5163818986579255,0.025346299263984975,0.0009457492224531808,-0.7939728282440172
10045,6.0,299.15882999999997,5155.4097,0.0,0.0,0.0,0.0,0.0,-0.10011660226948016,-0.36566390497321766,-0.6533291142085633,-0.5481227990380085,0.023778377820743178,-0.025757365710304077,-0.7522753878763003
10046,6.0,300.45762,5450.2731,0.0,0.0,0.0,0.0,0.0,-0.10012656907906398,-0.38935957929429865,-0.6870367735627503,-0.5803505660911414,0.028088646474133575,-0.03369679326011457,-0.8031615982333783
10047,6.0,299.84075,5172.514,0.0,0.0,0.0,0.0,0.0,-0.10013653588864779,-0.35761028920338767,-0.6737112276551214,-0.5409935915994105,0.0026111589839263273,-0.005271407199422385,-0.7637483478310934
10048,6.0,300.28944,5021.5384,0.0,0.0,0.0,0.0,0.0,-0.10014650269823161,-0.32419351368790866,-0.6773416115709123,-0.5248871605273295,0.012605270994543387,0.020443938927909678,-0.7702661297618483
10049,6.0,300.25652,5483.401,0.0,0.0,0.0,0.0,0.0,-0.10015646950781543,-0.3961781749147416,-0.6902141637563344,-0.5804246346734514,-0.01109167191566279,-0.0034158738033704967,-0.7293563089618632
10050,6.0,300.34774,5657.9393,0.0,0.0,0.0,0.0,0.0,-0.1001664363173993,-0.3850942827333466,-0.7334041721838562,-0.6013738236709755,-0.0057061120612994145,0.007692582093573743,-0.7807486276113903
10051,6.0,300.76772,5214.7422,0.0,0.0,0.0,0.0,0.0,-0.10017640312698306,-0.33022476331814665,-0.6961228911844803,-0.5588037520521365,-0.014048084421437986,0.015337786638971684,-0.7634408872207492
10052,6.0,299.93044,4930.95,0.0,0.0,0.0,0.0,0.0,-0.10018636993656693,-0.2901284303609467,-0.6935166599397653,-0.5152405940102875,-0.004515003942096196,-0.0003049322878994737,-0.7831799313588413
10053,6.0,299.02297999999996,5052.4978,0.0,0.0,0.0,0.0,0.0,-0.1001963367461507,-0.34874491824844367,-0.6551171459975285,-0.5319711162164615,-0.015431472756467786,-0.022115625287392277,-0.7514312998804953
10054,6.0,298.71617000000003,5013.3868,0.0,0.0,0.0,0.0,0.0,-0.10020630355573451,-0.35801212392804566,-0.6572326095563084,-0.5086996897122504,0.024739230731571974,-0.02192716786154298,-0.7862794938122443
10055,6.0,298.86331,5122.7378,0.0,0.0,0.0,0.0,0.0,-0.10021627036531838,-0.35051060787270366,-0.6764075773637304,-0.5302662013331995,0.012310428387694687,0.0023886267678141075,-0.7617838484047122
10056,6.0,298.91927999999996,5157.7501,0.0,0.0,0.0,0.0,0.0,-0.10022623717490214,-0.34319934978863864,-0.6738247623288264,-0.5508031089975345,0.024650311955796377,0.016185543613388784,-0.8085205462897652
10057,6.0,299.37927,5171.0208,0.0,0.0,0.0,0.0,0.0,-0.10023620398448602,-0.3550719051853687,-0.6720407531427584,-0.5447485343499945,-0.006566487849811894,0.00835527248360119,-0.7742971527671794
10058,6.0,299.98248,5389.8059,0.0,0.0,0.0,0.0,0.0,-0.10024617079406983,-0.38478239422006566,-0.7043145724129364,-0.5492694435136735,-0.0005697051984205254,-0.006185310052292574,-0.8243960171340523
10059,6.0,300.40885,5548.9265,0.0,0.0,0.0,0.0,0.0,-0.10025613760365365,-0.40275259752608666,-0.6876416230774444,-0.5963408584367604,-0.010805017382872189,-0.007341988237072823,-0.7346783240521053
10060,6.0,300.07965,5059.1527,0.0,0.0,0.0,0.0,0.0,-0.10026610441323747,-0.34418308391322566,-0.6720470859558834,-0.5216259238879705,0.01151133781558059,0.006792587415551183,-0.7832680942500422
10061,6.0,299.56989,4863.267,0.0,0.0,0.0,0.0,0.0,-0.10027607122282128,-0.30483571503244267,-0.6459866277564164,-0.5274893793016485,-0.027950650929764474,-0.0035300291940867567,-0.7314602316020042
10062,6.0,300.46342999999996,5229.5421,0.0,0.0,0.0,0.0,0.0,-0.10028603803240516,-0.3476539518657737,-0.6954109512667174,-0.5465853034687694,-0.008768060745815221,0.007522322132895393,-0.7924004971363403
10063,6.0,299.93604,5339.3667,0.0,0.0,0.0,0.0,0.0,-0.10029600484198892,-0.3730307195602657,-0.6884315427229033,-0.5615718803978295,-0.03225966923253147,0.001012562397024628,-0.7523997947235783
10064,6.0,299.71265,5237.231,0.0,0.0,0.0,0.0,0.0,-0.10030597165157273,-0.3334289843743787,-0.7140622004949523,-0.5444962756050985,0.004885917820077546,0.008286402380929241,-0.7917008074122862
10065,6.0,298.95288,5332.8999,0.0,0.0,0.0,0.0,0.0,-0.10031593846115655,-0.37965006968104464,-0.6883068319005953,-0.5531114852428535,-0.013748099570331787,-0.004305757866595215,-0.7527147837821653
10066,6.0,299.74429,5432.6823,0.0,0.0,0.0,0.0,0.0,-0.10032590527074037,-0.39637564722673063,-0.6930053435418023,-0.5620187642219335,0.02073036851917808,-0.014667415306561184,-0.7863957541287183
10067,6.0,299.91485,5279.3384,0.0,0.0,0.0,0.0,0.0,-0.10033587208032424,-0.3653036641651647,-0.6822709618499013,-0.5572124225050845,0.017045542675514086,0.00015481048044110486,-0.7658956375755143
10068,6.0,301.04889,5157.962,0.0,0.0,0.0,0.0,0.0,-0.10034583888990806,-0.3204501422534667,-0.6773135344106413,-0.5701279668922495,0.01022633505201069,0.015159219547348486,-0.7747374605981343
10069,6.0,301.10412,5069.9971,0.0,0.0,0.0,0.0,0.0,-0.10035580569949187,-0.32853239247112265,-0.6706548904509844,-0.5419652477828055,-0.016760242858107184,0.014326956180210487,-0.7685588742708553
10070,6.0,300.71668,4977.0935,0.0,0.0,0.0,0.0,0.0,-0.10036577250907569,-0.3181434480033137,-0.6617256036797323,-0.5330431044247586,-0.018724488971963184,0.01138435629979849,-0.7890835824039862
10071,6.0,299.4608,5196.6444,0.0,0.0,0.0,0.0,0.0,-0.10037573931865945,-0.36599940221382865,-0.6867668336036094,-0.5268839015718925,-0.03147802480063917,0.008452538109725563,-0.7866407478703972
10072,6.0,299.71143,5411.0386,0.0,0.0,0.0,0.0,0.0,-0.10038570612824332,-0.36836583768987763,-0.7093435961042623,-0.5671111869720165,0.001232996182312249,-0.009376540532967503,-0.7651428839437233
10073,6.0,299.26981,5232.6248,0.0,0.0,0.0,0.0,0.0,-0.10039567293782714,-0.3286388850566327,-0.7138345130649814,-0.5481138824371286,-0.017348518640915484,0.002930899273557237,-0.7826575097397822
10074,6.0,299.1006,5061.7843,0.0,0.0,0.0,0.0,0.0,-0.10040563974741096,-0.3192503629425577,-0.6708705607347694,-0.5485351006361995,0.006830341012952173,-0.009676247753546302,-0.7855255242803333
10075,6.0,299.11761,5209.5026,0.0,0.0,0.0,0.0,0.0,-0.10041560655699477,-0.37103677508597865,-0.6784789138806554,-0.5340430302859435,-0.00048085493861668753,0.02126760486794918,-0.7932547682956502
10076,6.0,300.12821,5112.2665,0.0,0.0,0.0,0.0,0.0,-0.10042557336657859,-0.3542966877988607,-0.6543963806713944,-0.5453083043677395,0.007242772104505952,0.00984103910210994,-0.7642172293148682
10077,6.0,300.56265,4931.9671,0.0,0.0,0.0,0.0,0.0,-0.10043554017616241,-0.35679475459540066,-0.6534989247928223,-0.4889011779257896,0.00953076976248874,-0.02993583990993737,-0.7823487420368093
10078,6.0,300.90584,5080.0070000000005,0.0,0.0,0.0,0.0,0.0,-0.10044550698574622,-0.3389350158152817,-0.6673290185877464,-0.5379312356896796,0.0016295682886008685,-0.03657445799461796,-0.7772988656584252
10079,6.0,300.28912,5197.017,0.0,0.0,0.0,0.0,0.0,-0.10045547379533004,-0.36387806180446863,-0.6726014553505953,-0.5432838914629455,0.004075934809388447,-0.009188650223199172,-0.8011623139310642
10080,6.0,299.71494,5252.5502,0.0,0.0,0.0,0.0,0.0,-0.10046544060491391,-0.3098271674100607,-0.7252689593834732,-0.5615479778279704,0.000957328695258486,-0.01767288938217838,-0.7743878386511293
10081,6.0,300.54463,5577.4501,0.0,0.0,0.0,0.0,0.0,-0.10047540741449767,-0.39064063139572863,-0.7257892329123203,-0.5789756870304514,-0.013134636416537688,0.008671326265393272,-0.7578768776091244
10082,6.0,300.7545,5693.8635,0.0,0.0,0.0,0.0,0.0,-0.10048537422408155,-0.3996534606377256,-0.7390764273036643,-0.5920624504195144,-0.01115046068646479,-0.0009504180559989591,-0.7697918375225392
10083,6.0,300.25451,5207.7446,0.0,0.0,0.0,0.0,0.0,-0.10049534103366531,-0.3822006127002637,-0.6785240744376123,-0.5222996237469595,0.01029895873967809,0.02026423699617448,-0.7676590676520513
10084,6.0,300.75739,5032.2255,0.0,0.0,0.0,0.0,0.0,-0.10050530784324913,-0.3204640643098407,-0.6562222978815984,-0.5529845148728224,-0.01032412381916169,-0.006801267017232795,-0.7766598797478622
10085,6.0,299.80899,4995.7897,0.0,0.0,0.0,0.0,0.0,-0.100515274652833,-0.3160702471062047,-0.6705734454079464,-0.5319516212845375,0.006294013650845785,-0.030782277632724266,-0.7786805436272862
10086,6.0,299.46533999999997,5104.8874,0.0,0.0,0.0,0.0,0.0,-0.10052524146241681,-0.3457394158018237,-0.6600879078081043,-0.5459309769516925,-0.005607557783697864,-0.017637610040196584,-0.7782772903524883
10087,6.0,299.41078,5282.7307,0.0,0.0,0.0,0.0,0.0,-0.10053520827200063,-0.3456914181445867,-0.7023786973018804,-0.5577481177004535,0.02465683323343998,0.013794295668890988,-0.8042196745178023
10088,6.0,300.11364,5230.1902,0.0,0.0,0.0,0.0,0.0,-0.10054517508158445,-0.37885015938959965,-0.6822018683255823,-0.5287952053680235,0.0021981644239919378,0.008090149414110582,-0.7857049303430392
10089,6.0,299.45476,5211.8956,0.0,0.0,0.0,0.0,0.0,-0.10055514189116821,-0.3363719084948227,-0.7070364560240654,-0.5408777365829764,-0.007934264837900972,0.006321731411306313,-0.8061979034830382
10090,6.0,300.8769,5373.5515,0.0,0.0,0.0,0.0,0.0,-0.10056510870075214,-0.35688893619219564,-0.7113015195374943,-0.5652350429543554,0.015728855581317185,0.002089898549481928,-0.7734006392112003
10091,6.0,299.89034,5373.706,0.0,0.0,0.0,0.0,0.0,-0.1005750755103359,-0.3574871995812397,-0.7057541373600104,-0.5702311056199285,-0.008095022235166493,0.018434292116822983,-0.8060657959350003
10092,6.0,299.51158,4960.8388,0.0,0.0,0.0,0.0,0.0,-0.10058504231991977,-0.32598872942008267,-0.6397456454879794,-0.5422367582796015,0.004539472006836006,0.01054204655791899,-0.7359813332832024
10093,6.0,298.86102999999997,4781.9184,0.0,0.0,0.0,0.0,0.0,-0.10059500912950353,-0.2806550688159988,-0.6729034444103994,-0.5000252758711525,-0.019832432360058678,-0.019104928920759684,-0.8057827749170683
10094,6.0,298.44667999999996,5158.8884,0.0,0.0,0.0,0.0,0.0,-0.10060497593908735,-0.3885329394652156,-0.6466968147515064,-0.5329435120724295,-0.013224805542936686,-0.0016064860460228284,-0.7594078985102243
10095,6.0,297.74627999999996,5494.3641,0.0,0.0,0.0,0.0,0.0,-0.10061494274867122,-0.4362090215179785,-0.6860790090382263,-0.5478614615722165,-0.012078391075044388,-0.004572206976491695,-0.8006978299527232
10096,6.0,298.48157000000003,5342.3453,0.0,0.0,0.0,0.0,0.0,-0.10062490955825504,-0.3478386470940017,-0.7231859806228993,-0.5529149248559545,0.004527369747641606,-0.0038246633753898866,-0.7979036712119613
10097,6.0,299.91714,5218.8364,0.0,0.0,0.0,0.0,0.0,-0.10063487636783885,-0.3468487524088067,-0.6801129215219193,-0.5594342773243645,0.008223003626147272,-0.027350614353045474,-0.7985348652292552
10098,6.0,300.65472,5475.8752,0.0,0.0,0.0,0.0,0.0,-0.10064484317742267,-0.34576870886221467,-0.7275117986123243,-0.5912488105892145,0.02332580865032808,-0.019956924320345085,-0.7906948020505012
10099,6.0,300.45972,5420.6722,0.0,0.0,0.0,0.0,0.0,-0.10065480998700643,-0.38637085626933465,-0.6882573245007093,-0.5731208138451205,0.004731841793971426,0.02252280895932818,-0.7791599527796003
10100,6.0,299.89835,5198.8532,0.0,0.0,0.0,0.0,0.0,-0.1006647767965903,-0.36677830783070065,-0.6456991585705454,-0.5678440910343485,-0.01998943444980358,0.009096278291082772,-0.7793097820718873
10101,6.0,299.36925,4998.3208,0.0,0.0,0.0,0.0,0.0,-0.10067474360617412,-0.3474212792453107,-0.6497710763499124,-0.5221723696669005,-0.018475110897101483,0.016264416014422883,-0.7760663279717832
10102,6.0,299.61939,4990.234,0.0,0.0,0.0,0.0,0.0,-0.100684710415758,-0.3099256451872797,-0.6501319656380294,-0.5568489190317094,-0.015161123444286384,0.037164976099897565,-0.7844701027111712
10103,6.0,300.52602,5393.1495,0.0,0.0,0.0,0.0,0.0,-0.10069467722534176,-0.3654773149673027,-0.7007163085253154,-0.5731891575643655,0.006910913039704014,0.010583270638237491,-0.7746882571732783
10104,6.0,300.19187,5580.3695,0.0,0.0,0.0,0.0,0.0,-0.10070464403492557,-0.35621654342583564,-0.7270221657665014,-0.6130542668487454,-0.00961378726835693,-0.008587738198393773,-0.7706138467986653
10105,6.0,299.46692,5309.6993,0.0,0.0,0.0,0.0,0.0,-0.10071461084450939,-0.3440849810385437,-0.7175972173113313,-0.5523338157911034,-0.01098938127831749,-0.023921647331882775,-0.7962223853210312
10106,6.0,300.66641,5024.1588,0.0,0.0,0.0,0.0,0.0,-0.1007245776540932,-0.3053386721170807,-0.6872816659794193,-0.5345984939907635,0.013969897990721588,-0.015027335927582588,-0.7895344685659853
10107,6.0,299.9968,5218.2615,0.0,0.0,0.0,0.0,0.0,-0.10073454446367708,-0.37156180075779466,-0.6970514437086213,-0.5176079515439275,-0.0007453485974101792,0.0012494169134328488,-0.8364828445294293
10108,6.0,299.86325,5250.8087,0.0,0.0,0.0,0.0,0.0,-0.1007445112732609,-0.36596657291058865,-0.6732514958197494,-0.5568966633764215,0.002223447141812148,-0.00010007901736528,-0.7775169272124463
10109,6.0,299.21374,4933.3177,0.0,0.0,0.0,0.0,0.0,-0.10075447808284466,-0.3243238480482717,-0.6636112925133354,-0.5116702451629215,0.019062427132065084,-0.025790077476532478,-0.8244013164320751
10110,6.0,298.30933,5005.6373,0.0,0.0,0.0,0.0,0.0,-0.10076444489242853,-0.31144075806180965,-0.6665021051811364,-0.5436458750611706,-2.4293362184068177e-05,0.0032573277231232167,-0.7671212446314722
10111,6.0,298.65747999999996,5301.4045,0.0,0.0,0.0,0.0,0.0,-0.10077441170201229,-0.39000897128338863,-0.6824841294059394,-0.5390015013728066,0.01199571088013449,-0.014257887987143988,-0.7910531784783702
10112,6.0,299.97459,5441.4221,0.0,0.0,0.0,0.0,0.0,-0.10078437851159616,-0.3819945581599276,-0.7126931678873394,-0.5593687301753955,-0.004456880268659836,-0.01150833048928379,-0.7784836488678543
10113,6.0,300.54848,5391.5831,0.0,0.0,0.0,0.0,0.0,-0.10079434532117998,-0.38374752136293167,-0.7008909219150483,-0.5542682115570134,0.008135448988981303,0.007306057780576762,-0.7850172577651713
10114,6.0,300.66067999999996,5425.6230000000005,0.0,0.0,0.0,0.0,0.0,-0.1008043121307638,-0.34841758780363863,-0.7219042800414053,-0.5789320564811454,-0.006899238068076784,0.01903208029157008,-0.7748634886455723
10115,6.0,300.09398,5129.9149,0.0,0.0,0.0,0.0,0.0,-0.10081427894034761,-0.32122879455781367,-0.7042691484109533,-0.5338680825236775,-0.0014280957665420784,0.025936129372446676,-0.7843029367096733
10116,6.0,300.06644,5110.6694,0.0,0.0,0.0,0.0,0.0,-0.10082424574993143,-0.32337684423980967,-0.6710090618909383,-0.5591299780543324,-0.029825512172798874,-0.0036132494512999564,-0.7799340353259963
10117,6.0,300.66867,5379.4131,0.0,0.0,0.0,0.0,0.0,-0.1008342125595153,-0.3915748074579246,-0.6965732200589243,-0.5470592410705435,0.005913095042702044,-0.025978682836896375,-0.7899840679003572
10118,6.0,299.25275,5186.1029,0.0,0.0,0.0,0.0,0.0,-0.10084417936909906,-0.3550472122804317,-0.6810496408418664,-0.5403489213557865,-0.005570857459775824,0.004551751888772936,-0.7937596606879793
10119,6.0,298.77653,4886.5707,0.0,0.0,0.0,0.0,0.0,-0.10085414617868288,-0.33044495269737767,-0.6630078615487813,-0.49194264061845855,0.02276263005924668,0.007641609128743102,-0.8194487829907982
10120,6.0,299.10257,5156.4575,0.0,0.0,0.0,0.0,0.0,-0.10086411298826675,-0.3389061280549307,-0.6786052763006264,-0.5499229189006665,0.0038561437387717563,0.012357442179084589,-0.7814981388428612
10121,6.0,298.59876,5362.2596,0.0,0.0,0.0,0.0,0.0,-0.10087407979785051,-0.36109326549463067,-0.6961241070846004,-0.5727756299335535,0.0070104769197052025,0.009029974446939091,-0.7853552374685272
10122,6.0,298.45087,5288.6953,0.0,0.0,0.0,0.0,0.0,-0.10088404660743439,-0.33489989927954666,-0.7089994355752963,-0.5637319674910134,0.010916547847879389,0.0066293034791613135,-0.7715012005737403
10123,6.0,298.94507999999996,5229.1843,0.0,0.0,0.0,0.0,0.0,-0.10089401341701815,-0.3627444781225927,-0.6989038574089403,-0.5278931189364945,-0.003301168420499957,-0.003977406470989456,-0.7782242061797493
10124,6.0,299.85475,5070.8249,0.0,0.0,0.0,0.0,0.0,-0.10090398022660196,-0.33273002419039666,-0.6677008813744464,-0.5409732556699035,-0.01116541524469069,-0.008988882291783611,-0.7665012368952823
10125,6.0,300.44234,5082.4491,0.0,0.0,0.0,0.0,0.0,-0.10091394703618584,-0.3292033362898397,-0.6942550760826413,-0.5214792154059915,-0.026973051021282873,-0.02180211760045148,-0.7884821374096282
10126,6.0,300.89187999999996,5397.1445,0.0,0.0,0.0,0.0,0.0,-0.10092391384576965,-0.35184168413157063,-0.6909327911247574,-0.5978226860455054,-0.0018949692925939081,0.009296685380661411,-0.7588328081509673
10127,6.0,299.10807,5489.1990000000005,0.0,0.0,0.0,0.0,0.0,-0.10093388065535347,-0.3749287497800866,-0.6998189843692563,-0.5938316864191244,0.008652893624874113,0.016787973486843986,-0.7669058479252142
10128,6.0,299.63959,5101.8595,0.0,0.0,0.0,0.0,0.0,-0.10094384746493729,-0.3247039181607817,-0.6597290044901833,-0.5664049617848174,-0.006256494012892884,0.015326978300154986,-0.7818635168289213
10129,6.0,300.23657000000003,4978.4846,0.0,0.0,0.0,0.0,0.0,-0.10095381427452105,-0.35706552541962366,-0.6247617232741814,-0.5315077569457315,0.016521155351261085,-0.0047552745197590555,-0.7762382663812523
10130,6.0,300.14322999999996,5400.0928,0.0,0.0,0.0,0.0,0.0,-0.10096378108410498,-0.37846276347886665,-0.6838777941234834,-0.5791528031479315,0.00984580431600523,-0.005528573621177734,-0.7970226401175102
10131,6.0,299.41742,5404.6327,0.0,0.0,0.0,0.0,0.0,-0.10097374789368874,-0.4017319000378516,-0.6862989451049324,-0.5548425419786954,0.013888475239185787,-0.01015722227593979,-0.7703504321701682
10132,6.0,299.8037,5085.4184,0.0,0.0,0.0,0.0,0.0,-0.10098371470327255,-0.3111510698582197,-0.6874501593385484,-0.5472389815057825,-0.0009887513540471611,-0.019417471993605284,-0.7820856212508412
10133,6.0,299.76259,5276.4661,0.0,0.0,0.0,0.0,0.0,-0.10099368151285637,-0.33929598616340667,-0.6944664096559984,-0.5701515553545775,-0.008720366253008142,-0.008265851743726052,-0.7520062787822412
10134,6.0,300.07247,5333.22,0.0,0.0,0.0,0.0,0.0,-0.10100364832244019,-0.3303822933111937,-0.6910055120844344,-0.5997778939684694,0.0009836857114972212,0.007666690919068483,-0.7546074133789533
10135,6.0,299.56212999999997,5309.5958,0.0,0.0,0.0,0.0,0.0,-0.10101361513202406,-0.37243414829888866,-0.6987007108963913,-0.5428497036625944,0.03130851717816007,0.02051184796286178,-0.7736245877483022
10136,6.0,300.17327,5409.4622,0.0,0.0,0.0,0.0,0.0,-0.10102358194160788,-0.3586315439791777,-0.6912366445647453,-0.5944732257199395,0.013376994694706589,0.021792273875729976,-0.7746349602180183
10137,6.0,300.03191,5162.3204,0.0,0.0,0.0,0.0,0.0,-0.10103354875119169,-0.37019721631812064,-0.6817607904245514,-0.5172584815844375,-0.00037196124421221666,0.01016246280545699,-0.7888178170352573
10138,6.0,298.1954,4933.889,0.0,0.0,0.0,0.0,0.0,-0.10104351556077551,-0.2951641921654377,-0.6645100149545324,-0.5401048395391974,-0.012266027768312688,0.027548680429593075,-0.7833004979882402
10139,6.0,299.53477999999996,5241.7196,0.0,0.0,0.0,0.0,0.0,-0.10105348237035927,-0.36472350755540767,-0.6687840862613504,-0.5598442788448285,-0.02200154244538318,0.008413228970771052,-0.8020138898451082
10140,6.0,300.80085,5308.9467,0.0,0.0,0.0,0.0,0.0,-0.10106344917994314,-0.3380301834759817,-0.7086543935187433,-0.5671026655386754,-0.01239634591667409,-0.003377975311205207,-0.7921131292754793
10141,6.0,300.7839,4926.9942,0.0,0.0,0.0,0.0,0.0,-0.10107341598952696,-0.3326062354256797,-0.6563566345798564,-0.5087203296167875,-0.017377751919550585,-0.02408745456499668,-0.8264695524036942
10142,6.0,300.52152,5070.8763,0.0,0.0,0.0,0.0,0.0,-0.10108338279911078,-0.3313327219049937,-0.6785763378777704,-0.5315107257685245,0.0015516880620646885,-0.01183251276602809,-0.7849186077354352
10143,6.0,300.79161,5469.302,0.0,0.0,0.0,0.0,0.0,-0.1010933496086946,-0.4061425473256486,-0.7210708109066483,-0.5353178812967615,0.019766363387288183,-0.008726856018573632,-0.7932120902014382
10144,6.0,299.71525,5518.2361,0.0,0.0,0.0,0.0,0.0,-0.10110331641827841,-0.35732619414034966,-0.7176883692903273,-0.6023914003489025,0.008690413060176993,-0.010663327528638489,-0.7686855305333553
10145,6.0,300.44052,5403.9932,0.0,0.0,0.0,0.0,0.0,-0.10111328322786223,-0.36956396540312364,-0.7270123980355373,-0.5461026113861315,0.018529066464926483,0.007349434612057722,-0.7804584226502492
10146,6.0,299.9648,5289.6316,0.0,0.0,0.0,0.0,0.0,-0.10112325003744604,-0.35361685777676666,-0.6879178350547044,-0.5663812415999765,-0.0023699316955190478,0.01209933191486109,-0.7556832519376303
10147,6.0,299.49897999999996,5030.2376,0.0,0.0,0.0,0.0,0.0,-0.10113321684702992,-0.3842723139872246,-0.6443881547961594,-0.5004061464512416,-0.008482405986898292,0.006260398268178204,-0.7900656750634112
10148,6.0,298.72859,5132.0162,0.0,0.0,0.0,0.0,0.0,-0.10114318365661373,-0.3549400002873507,-0.6763909195320864,-0.5286738585360475,0.007019216100492693,-0.0076776626951263124,-0.7805608419703572
10149,6.0,299.98425,5289.1743,0.0,0.0,0.0,0.0,0.0,-0.1011531504661975,-0.42153475866724155,-0.6608657900423754,-0.5253763779406115,-0.0025612463853253373,0.0011834461245970387,-0.7869472661581483
10150,6.0,298.29457,5276.1573,0.0,0.0,0.0,0.0,0.0,-0.10116311727578131,-0.3417321129813337,-0.7018413606413494,-0.5602466100620355,0.01065094054616599,-8.194289638188421e-05,-0.7629574250680353
10151,6.0,299.74271,5364.3722,0.0,0.0,0.0,0.0,0.0,-0.10117308408536513,-0.39880024325851965,-0.6787438585168034,-0.5530911087833426,0.01057748700666669,-0.00977071650541964,-0.7704202045720543
10152,6.0,300.24097,5586.8979,0.0,0.0,0.0,0.0,0.0,-0.101183050894949,-0.35164875118002964,-0.7191437206739593,-0.6274849849054465,0.022023318203282276,0.0039343392887390555,-0.7634422855058873
10153,6.0,299.9343,5481.8154,0.0,0.0,0.0,0.0,0.0,-0.10119301770453282,-0.3966798958342576,-0.7099891580079742,-0.5596659569597295,0.001208345327254399,0.016718793836266486,-0.7802105411457853
10154,6.0,299.45732000000004,5295.6222,0.0,0.0,0.0,0.0,0.0,-0.10120298451411663,-0.34040544436040165,-0.6991650530197183,-0.5701664197335445,-0.008848591026662942,0.014058065948173087,-0.7697766894335443
10155,6.0,301.14004,5103.2589,0.0,0.0,0.0,0.0,0.0,-0.10121295132370045,-0.3709890307412666,-0.6718804873744414,-0.5083937591095575,-0.03663166812176417,-0.017340965874670083,-0.7671713701139192
10156,6.0,301.12953999999996,4985.7527,0.0,0.0,0.0,0.0,0.0,-0.10122291813328427,-0.3049673260879317,-0.6803434764496734,-0.5302335138849735,-0.008466678318846092,-0.006875262949510623,-0.7896972775920532
10157,6.0,300.89784,5028.2899,0.0,0.0,0.0,0.0,0.0,-0.10123288494286814,-0.3317024366014817,-0.6674094301156823,-0.5293627064840315,-0.005205560027098775,0.003929866701472646,-0.7691883558954803
10158,6.0,298.87442000000004,5042.1645,0.0,0.0,0.0,0.0,0.0,-0.1012428517524519,-0.2834947528837537,-0.7076384481734773,-0.5415588838302005,0.03206339964841117,-0.0018784095435595881,-0.7976950227513692
10159,6.0,299.95956,5201.7321,0.0,0.0,0.0,0.0,0.0,-0.10125281856203572,-0.36049517435810363,-0.6883816705529814,-0.5323198465033785,0.0017479870304378884,0.0007816039322858022,-0.7883607703126502
10160,6.0,300.75887,5272.5682,0.0,0.0,0.0,0.0,0.0,-0.10126278537161953,-0.3604889631349907,-0.6958961562096033,-0.5463439472949495,-0.006842301721107604,0.004782598125930686,-0.8301585224402672
10161,6.0,299.93857,5374.6279,0.0,0.0,0.0,0.0,0.0,-0.10127275218120335,-0.4003351651725046,-0.7009139125598173,-0.5325035892765125,-0.005621699614018556,0.03558211225743107,-0.7935012819124793
10162,6.0,299.54632000000004,5290.5722,0.0,0.0,0.0,0.0,0.0,-0.10128271899078722,-0.36468141714625363,-0.6582657598882724,-0.5852546459126365,-0.02201079544529638,0.007959654960231783,-0.7686958656843753
10163,6.0,300.18462999999997,5113.9397,0.0,0.0,0.0,0.0,0.0,-0.10129268580037099,-0.36496501571674267,-0.6499384247364284,-0.5396065332725185,-0.009687949474976172,-0.035825923536243365,-0.7489506609856753
10164,6.0,300.0651,4881.5326,0.0,0.0,0.0,0.0,0.0,-0.1013026526099548,-0.3012698143530157,-0.6341929336149693,-0.5484012806954924,-0.018357736005517482,-0.03345333763208736,-0.7643360936840993
10165,6.0,300.09272000000004,5144.5539,0.0,0.0,0.0,0.0,0.0,-0.10131261941953867,-0.3575588160983077,-0.6605187012206204,-0.5457384087701874,0.0009229613391616924,0.013457467017648588,-0.7571267482950923
10166,6.0,298.97687,5349.4474,0.0,0.0,0.0,0.0,0.0,-0.10132258622912249,-0.3580556835498447,-0.7112410285065244,-0.5568017319745524,0.03665446422251396,-0.00025636460655371673,-0.7847974230234752
10167,6.0,298.94599,5460.7998,0.0,0.0,0.0,0.0,0.0,-0.10133255303870631,-0.40683272263126363,-0.6928879990477214,-0.5602260512175065,0.009439228999429372,0.014576777045365884,-0.7690977409390373
10168,6.0,299.9146,5338.4577,0.0,0.0,0.0,0.0,0.0,-0.10134251984829012,-0.34742281938546266,-0.7047427313751923,-0.5705922684855725,0.025158018143653076,0.004347010723216556,-0.7999749266688783
10169,6.0,299.84677999999997,5007.937,0.0,0.0,0.0,0.0,0.0,-0.10135248665787389,-0.3213411133313987,-0.6635174554215744,-0.5374292310601355,-0.013597035126172885,0.024955133049629874,-0.7653608745702373
10170,6.0,300.42006000000003,5183.6641,0.0,0.0,0.0,0.0,0.0,-0.10136245346745776,-0.3003284847451137,-0.6916518035282183,-0.5837241519015884,-0.004820452744366646,0.021722883469131683,-0.7903664887530993
10171,6.0,301.37511,5423.7278,0.0,0.0,0.0,0.0,0.0,-0.10137242027704157,-0.3836372290895466,-0.6918091511362473,-0.5732314404910385,-0.026581048875595273,-0.004581855447918925,-0.7730161817257573
10172,6.0,300.06786,5289.491999999999,0.0,0.0,0.0,0.0,0.0,-0.10138238708662539,-0.3418744442228807,-0.6917738393702624,-0.5742252159241165,-0.002147721084988568,-0.006165482673010764,-0.7783575802904122
10173,6.0,299.47386,5209.8743,0.0,0.0,0.0,0.0,0.0,-0.10139235389620921,-0.3941605406531166,-0.6624387291001124,-0.5270724268854985,-0.009384806525958292,-0.002897937133229127,-0.7665851947985682
10174,6.0,299.87676,5370.9397,0.0,0.0,0.0,0.0,0.0,-0.10140232070579303,-0.35512903222600667,-0.7004948424509584,-0.5770077020237264,0.01863871735099818,-0.031119009011957074,-0.7798239254376294
10175,6.0,300.20793,5459.9953,0.0,0.0,0.0,0.0,0.0,-0.1014122875153769,-0.3995765853526386,-0.7036173550191264,-0.5565082846130914,2.9845093230981373e-05,-0.040644218564522064,-0.7696974634082253
10176,6.0,300.08352,5409.6411,0.0,0.0,0.0,0.0,0.0,-0.10142225432496066,-0.3325888480539637,-0.7162693530552813,-0.5955376145524864,0.04568761014226605,-0.03443331057230317,-0.7881917601959703
10177,6.0,299.47482,5123.4781,0.0,0.0,0.0,0.0,0.0,-0.10143222113454453,-0.3452793495939187,-0.6894061373315884,-0.5227239323588355,0.026210750547049678,0.025834643255680773,-0.8090693732064302
10178,6.0,300.0099,4961.7471,0.0,0.0,0.0,0.0,0.0,-0.10144218794412829,-0.29974441698997073,-0.6856357526494803,-0.5228670539354605,-0.0026814588838143874,0.012830508385772588,-0.7837168525868313
10179,6.0,300.67402000000004,5211.3401,0.0,0.0,0.0,0.0,0.0,-0.10145215475371211,-0.38348471468449463,-0.6926666849608794,-0.5079658635923275,-0.03373139676427967,-0.003908441528108146,-0.7983941349228661
10180,6.0,300.29613,5486.2055,0.0,0.0,0.0,0.0,0.0,-0.10146212156329598,-0.37592724695863067,-0.7183841377364943,-0.5733581170185404,-0.005960099714841045,-0.01209565381699809,-0.7708035880123912
10181,6.0,299.31453,5344.5835,0.0,0.0,0.0,0.0,0.0,-0.1014720883728798,-0.38133357458969364,-0.6880125232765493,-0.5552738217512595,0.01139787710913289,0.008804215535883422,-0.7899827000127222
10182,6.0,300.12137,5240.6145,0.0,0.0,0.0,0.0,0.0,-0.10148205518246362,-0.3112431134973037,-0.6926657831682903,-0.5891070430578385,0.00999455196381048,-0.012487178721888589,-0.7706212029943913
10183,6.0,300.51604,5349.8889,0.0,0.0,0.0,0.0,0.0,-0.10149202199204743,-0.3850857815650076,-0.6971142246848173,-0.5440326224918395,-0.015975592113168183,-0.011685147697984288,-0.7935971556369412
10184,6.0,301.6722,5541.1599,0.0,0.0,0.0,0.0,0.0,-0.10150198880163125,-0.37411900083017063,-0.7240097529541993,-0.5862454727879235,0.01031042670430989,-0.005003260591633375,-0.7708213604191453
10185,6.0,301.42391000000003,5307.9867,0.0,0.0,0.0,0.0,0.0,-0.10151195561121507,-0.4129380205788096,-0.6742597708617584,-0.5262976350640325,0.0005096514963261866,0.039769870867730664,-0.7922431292633093
10186,6.0,300.47162000000003,5130.2151,0.0,0.0,0.0,0.0,0.0,-0.10152192242079888,-0.3064680508110417,-0.7051394390543444,-0.5478497889310645,-0.002118724501576828,0.015208476674459785,-0.7882265146744002
10187,6.0,300.64585,5128.4144,0.0,0.0,0.0,0.0,0.0,-0.10153188923038275,-0.36495858157860767,-0.6762134183795684,-0.5177379211342545,-0.02807797593733047,-0.008622321133581842,-0.7962423260829993
10188,6.0,300.65332,5395.1555,0.0,0.0,0.0,0.0,0.0,-0.10154185603996652,-0.31269420923051566,-0.7432699452275323,-0.5840283903766145,-0.0005537884275021625,0.0009097947316647492,-0.8081735385280183
10189,6.0,299.33957000000004,5401.4413,0.0,0.0,0.0,0.0,0.0,-0.10155182284955033,-0.3828728534791086,-0.6932628914522203,-0.5657675261469075,0.007230204864840663,0.01904745940158788,-0.7755543326962533
10190,6.0,299.60422,5297.4818,0.0,0.0,0.0,0.0,0.0,-0.10156178965913415,-0.31018645576301973,-0.7109381072566283,-0.5891776159273034,0.025404026148682177,0.004047111187768776,-0.7864870378302272
10191,6.0,299.94253,5197.0251,0.0,0.0,0.0,0.0,0.0,-0.10157175646871797,-0.38357013166792464,-0.6556317757233184,-0.5405639431595074,-0.019836184425178982,0.01009294310814593,-0.7549710181773382
10192,6.0,299.70212999999995,5229.5506,0.0,0.0,0.0,0.0,0.0,-0.10158172327830184,-0.33727268783372266,-0.6564327499273683,-0.5959473526279244,-0.015214912839094987,-0.0007087924792423713,-0.7723244054849843
10193,6.0,298.96828,5317.9327,0.0,0.0,0.0,0.0,0.0,-0.10159169008788566,-0.4043602809297526,-0.6676388400708234,-0.5445196208874025,-0.02841072524367027,0.016890066540419784,-0.7739934006522012
10194,6.0,299.40882,5243.8018,0.0,0.0,0.0,0.0,0.0,-0.10160165689746942,-0.33341893293338665,-0.6942876926033604,-0.5662781940648065,-0.017584852133989783,-0.01130291632301099,-0.8102789607783072
10195,6.0,300.15875,5269.8823,0.0,0.0,0.0,0.0,0.0,-0.10161162370705329,-0.37324669381908065,-0.7080877131353163,-0.5205782232845705,0.0029393084387871566,-0.02962353191111497,-0.7950570261160192
10196,6.0,301.25442999999996,5185.6869,0.0,0.0,0.0,0.0,0.0,-0.10162159051663705,-0.34781660890432664,-0.7048664289474004,-0.5236362830138775,-0.0031468241870923667,-0.007312854560922554,-0.8175108205845362
10197,6.0,300.67531,5169.6728,0.0,0.0,0.0,0.0,0.0,-0.10163155732622098,-0.38868166431489365,-0.6645258925835993,-0.5182438977041905,0.019150885892295282,0.009237021161773011,-0.7867353955622383
10198,6.0,301.17717000000005,5252.3805,0.0,0.0,0.0,0.0,0.0,-0.10164152413580474,-0.34292765690682464,-0.6862302366156513,-0.5674346265364374,0.0011433991369197089,-0.006791734056316963,-0.7976162628210962
10199,6.0,300.39698,5351.5559,0.0,0.0,0.0,0.0,0.0,-0.10165149094538856,-0.36669680199265664,-0.6945636006055904,-0.5654789626509285,0.01896087718054288,0.01018250995868549,-0.7699829567564013
10200,6.0,300.24846,5313.6651,0.0,0.0,0.0,0.0,0.0,-0.10166145775497237,-0.3175027800975847,-0.6901782541727903,-0.6075404941770784,0.005337355291455955,0.0075409116245300336,-0.7815753485004813
10201,6.0,299.0214,5272.6171,0.0,0.0,0.0,0.0,0.0,-0.10167142456455619,-0.35600858397531165,-0.6869305748197694,-0.5598047924884315,-0.009106350807676852,0.033314473732382575,-0.7804002114320042
10202,6.0,298.74701,5250.2606,0.0,0.0,0.0,0.0,0.0,-0.10168139137414006,-0.3303088428114447,-0.7013773832880583,-0.5642618972933134,-0.03200743885863827,0.0020976416040961077,-0.8076381473076792
10203,6.0,298.97053999999997,5202.8531,0.0,0.0,0.0,0.0,0.0,-0.10169135818372388,-0.36935982590547667,-0.6662420241454684,-0.5459355568421445,-0.013032638608471288,-0.007282669131168483,-0.7761555041130843
10204,6.0,299.46035,5165.1623,0.0,0.0,0.0,0.0,0.0,-0.10170132499330764,-0.32549995783684466,-0.6885034936125044,-0.5560769136480185,-0.025006189708918776,0.01085474364477979,-0.8089802173301313
10205,6.0,299.92139,5128.0735,0.0,0.0,0.0,0.0,0.0,-0.10171129180289151,-0.36663379810143865,-0.6701274025814253,-0.5220450851893385,-0.00893996055045541,0.01940853715422348,-0.7752168900154502
10206,6.0,300.67462,5316.1236,0.0,0.0,0.0,0.0,0.0,-0.10172125861247527,-0.34521152263222465,-0.7069862089516064,-0.5637710890773745,-0.009607221205058912,-0.014148009119799788,-0.8209399426329642
10207,6.0,300.69465,5507.9236,0.0,0.0,0.0,0.0,0.0,-0.10173122542205915,-0.42366482315996257,-0.7075614715633803,-0.5430449569568645,0.0019363519465530584,-0.017810938628802783,-0.7744302735653172
10208,6.0,299.85784,5541.233,0.0,0.0,0.0,0.0,0.0,-0.10174119223164296,-0.38102539457177864,-0.7116872841155664,-0.5916837785921424,0.023546172308576276,-0.01096297091446099,-0.7741300779581902
10209,6.0,299.57275,5284.5204,0.0,0.0,0.0,0.0,0.0,-0.10175115904122672,-0.39029187071130866,-0.6599671081311824,-0.5561032885481215,-0.0017621681748624582,-0.012773932553188988,-0.7440819739901733
10210,6.0,299.407,5118.258,0.0,0.0,0.0,0.0,0.0,-0.1017611258508106,-0.3028532304167867,-0.6707329715036904,-0.5822364373097625,0.007925638735824643,0.0035203409019305965,-0.7676595033495942
10211,6.0,299.58822999999995,5363.6969,0.0,0.0,0.0,0.0,0.0,-0.10177109266039441,-0.37491847542407264,-0.6858689014974904,-0.5696425491668424,0.0009618647626436611,-0.015300606439802286,-0.7722387453215304
10212,6.0,298.89957999999996,5369.9755,0.0,0.0,0.0,0.0,0.0,-0.10178105946997823,-0.3362146824768057,-0.7151611310234083,-0.5809626603440504,0.02098586358489348,0.01032749490224439,-0.8122719730625022
10213,6.0,298.59042,5140.444,0.0,0.0,0.0,0.0,0.0,-0.10179102627956205,-0.3765656958466406,-0.6828258986646694,-0.5031750246020085,-0.01017798681023909,0.014580685151001586,-0.8037379247577573
10214,6.0,299.76597000000004,5194.2529,0.0,0.0,0.0,0.0,0.0,-0.10180099308914586,-0.3196851282954657,-0.7048244905257613,-0.5544135521513575,-0.042965412423606054,0.007926570216641572,-0.8116262490387742
10215,6.0,299.40518,5283.2336,0.0,0.0,0.0,0.0,0.0,-0.10181095989872974,-0.3845105898807406,-0.6993859010115143,-0.5220745910322505,-0.03625499341033926,-0.001970884016586108,-0.8073307272273392
10216,6.0,299.26743,5298.9388,0.0,0.0,0.0,0.0,0.0,-0.1018209267083135,-0.3211761663476197,-0.7099324767973803,-0.5796364274206615,-0.03234239806344617,0.01953659170186148,-0.7803501771420662
10217,6.0,300.18027,5339.0419999999995,0.0,0.0,0.0,0.0,0.0,-0.10183089351789737,-0.37734198727825463,-0.6967284601067454,-0.5488650047362584,0.00958376345199381,0.01911866048611488,-0.7914643148389462
10218,6.0,299.32013,5240.9604,0.0,0.0,0.0,0.0,0.0,-0.10184086032748113,-0.32381577405062867,-0.7100739974388474,-0.5592313334618355,-0.0038867150141639064,-0.004565926852371896,-0.8004975813354602
10219,6.0,299.85475,5290.2984,0.0,0.0,0.0,0.0,0.0,-0.10185082713706495,-0.4100635820326246,-0.6777341446596523,-0.5203208780241725,0.022936803698436276,-0.0028629346111746475,-0.7952473144847992
10220,6.0,300.53623,5463.1988,0.0,0.0,0.0,0.0,0.0,-0.10186079394664882,-0.3415884543821557,-0.7307130711107653,-0.5883744936330414,0.025427761532274676,-0.0037813785470180066,-0.7986430398099312
10221,6.0,300.2129,5416.736,0.0,0.0,0.0,0.0,0.0,-0.10187076075623264,-0.3821378114590656,-0.6832503187340564,-0.5811643477764554,0.029181971703036373,-0.016571616219491183,-0.7744058542379072
10222,6.0,300.6314,5232.7694,0.0,0.0,0.0,0.0,0.0,-0.10188072756581645,-0.2982168715367137,-0.6855029054288693,-0.6069114381174955,-0.016966541591717284,-0.009850293824548311,-0.7916787793551122
10223,6.0,301.13975,5203.5476,0.0,0.0,0.0,0.0,0.0,-0.10189069437540027,-0.3462696293141517,-0.6840459125800753,-0.5514329959221995,-0.021182567853306678,-0.006274870722006524,-0.7842311682050903
10224,6.0,299.58705,5220.9382,0.0,0.0,0.0,0.0,0.0,-0.10190066118498403,-0.3333372143128217,-0.6986342822198353,-0.5550633494404874,-0.023167410301945374,0.01233365613298709,-0.8078490958459983
10225,6.0,299.66123,5398.0019,0.0,0.0,0.0,0.0,0.0,-0.1019106279945679,-0.4179178205802776,-0.6826768597074604,-0.5402630990723165,-0.0013011907511425288,0.013842987402446487,-0.7776293270460393
10226,6.0,300.23028,5441.9918,0.0,0.0,0.0,0.0,0.0,-0.10192059480415172,-0.37502838266241967,-0.6911664668628192,-0.5880347711395134,0.013026630035378286,0.0024454882356008973,-0.8020769646638332
10227,6.0,299.12733,5325.2123,0.0,0.0,0.0,0.0,0.0,-0.10193056161373559,-0.36465117163076866,-0.6699146403254274,-0.5841657465601704,-0.005201799349352625,-0.018857914758381285,-0.7629739309121644
10228,6.0,300.31315,5387.3392,0.0,0.0,0.0,0.0,0.0,-0.10194052842331935,-0.3258292539868437,-0.6993842291488493,-0.6124031118044814,-0.0016189894509318185,-0.013396973960178386,-0.7606758188903583
10229,6.0,299.02867000000003,5452.6184,0.0,0.0,0.0,0.0,0.0,-0.10195049523290317,-0.35130159143076767,-0.7062578341172213,-0.5999003959055594,0.01941868890697538,-0.023818035416407077,-0.7591776576900013
10230,6.0,299.38237999999996,5552.5421,0.0,0.0,0.0,0.0,0.0,-0.10196046204248699,-0.37876555300624964,-0.7195839373124053,-0.5894846509726054,0.012508541073746887,0.0050254755934508255,-0.7905197529632253
10231,6.0,300.56642999999997,5484.6234,0.0,0.0,0.0,0.0,0.0,-0.1019704288520708,-0.4079680997658166,-0.7123915030675674,-0.5468289698528175,0.04126407228669686,-0.013753463716361186,-0.7993015611824222
10232,6.0,300.95922,5010.6239,0.0,0.0,0.0,0.0,0.0,-0.10198039566165468,-0.3306172558768827,-0.6610358742041613,-0.5314514202401716,-0.017746465524939782,-0.017725062643077483,-0.8125332497332882
10233,6.0,299.45447,4897.5438,0.0,0.0,0.0,0.0,0.0,-0.1019903624712385,-0.2865504112103237,-0.6804256003702783,-0.5217550119507105,0.004743550810802016,-0.01996438994708188,-0.7972031303578232
10234,6.0,299.85129,5164.3261,0.0,0.0,0.0,0.0,0.0,-0.10200032928082226,-0.31565170388739766,-0.6802425162097093,-0.5739319509476735,-0.02139010680503918,-0.005416378160129905,-0.7917814013252402
10235,6.0,299.27439,5291.9635,0.0,0.0,0.0,0.0,0.0,-0.10201029609040613,-0.36427790042642966,-0.6885569222902773,-0.5557899510871974,0.016723721271502786,0.02381699582180448,-0.7838309040180872
10236,6.0,299.10719,5171.3253,0.0,0.0,0.0,0.0,0.0,-0.10202026289998989,-0.33801831831731066,-0.7027937144103394,-0.5311417304796074,-0.012304163462326387,0.034681605482807965,-0.8139977912953272
10237,6.0,298.55955,5260.5339,0.0,0.0,0.0,0.0,0.0,-0.10203022970957376,-0.3864578133929166,-0.6823565206883454,-0.5302566261197544,-0.003670875314962186,0.02980160858968977,-0.7805470617689972
10238,6.0,298.45557,5505.0172,0.0,0.0,0.0,0.0,0.0,-0.10204019651915758,-0.3718718755533966,-0.7107591267589644,-0.5907567560756525,-0.03970991381956336,0.020091164759843582,-0.8031945288616282
10239,6.0,298.64726,5473.3705,0.0,0.0,0.0,0.0,0.0,-0.1020501633287414,-0.3884477352643066,-0.6929581564846453,-0.5823620904546635,0.0008215338287815762,0.004713769262537805,-0.7599472819359573
10240,6.0,299.66817000000003,5267.0728,0.0,0.0,0.0,0.0,0.0,-0.10206013013832521,-0.3325759291151887,-0.6814585379197213,-0.5870241656222744,-0.016271346645106884,-0.016260292086515884,-0.7673936670533583
10241,6.0,300.07331,5182.9501,0.0,0.0,0.0,0.0,0.0,-0.10207009694790903,-0.3694478874716676,-0.6656287747874453,-0.5404107498768885,-0.002015042874494248,-0.03076773040103857,-0.7548849020513393
10242,6.0,300.40136,5287.5955,0.0,0.0,0.0,0.0,0.0,-0.1020800637574929,-0.3378134594120927,-0.7027102226020994,-0.5667733085936705,0.006067945293209574,0.009352782756547792,-0.7951301625082372
10243,6.0,299.91257,5287.8012,0.0,0.0,0.0,0.0,0.0,-0.10209003056707672,-0.4045077392168056,-0.6862048547006463,-0.5166469243540814,0.033753064104418064,-0.0056683609970236744,-0.8195035086286993
10244,6.0,300.20653,5290.0677,0.0,0.0,0.0,0.0,0.0,-0.10209999737666048,-0.35388050545278665,-0.6937498087877754,-0.5604181533039655,0.03954131204267366,-0.005177495431129015,-0.8071608457155732
10245,6.0,299.95153999999997,5191.4088,0.0,0.0,0.0,0.0,0.0,-0.10210996418624435,-0.34871161271765666,-0.6988296064416123,-0.5305174164304924,-0.0021981151800370777,-0.002997970249351627,-0.8174669367227052
10246,6.0,299.57545,5137.9642,0.0,0.0,0.0,0.0,0.0,-0.10211993099582811,-0.3024805975600107,-0.7045177695879904,-0.5548144445534225,-0.036266736978998265,0.001867407471323768,-0.7705890930987223
10247,6.0,299.52786000000003,5427.036,0.0,0.0,0.0,0.0,0.0,-0.10212989780541198,-0.3876654960546056,-0.6944521532270914,-0.5675657816293814,-0.038041393866643264,0.02134119722271218,-0.7719362496366763
10248,6.0,298.78119,5458.1475,0.0,0.0,0.0,0.0,0.0,-0.1021398646149958,-0.3878904071793026,-0.6938394611566233,-0.5774106715884965,-0.02747896679621287,0.0005013139476133346,-0.7599726739834634
10249,6.0,298.11087000000003,5229.9068,0.0,0.0,0.0,0.0,0.0,-0.10214983142457956,-0.3579035947098346,-0.6879943658347574,-0.5438631260151114,0.007336041674885943,0.013453984477054886,-0.7971367016812673
10250,6.0,299.21695,5229.8928,0.0,0.0,0.0,0.0,0.0,-0.10215979823416343,-0.3235444864688547,-0.6865217790669244,-0.5796905451085025,-0.024605288187602874,0.006144199658635294,-0.7951641874465952
10251,6.0,299.73427000000004,5359.1318,0.0,0.0,0.0,0.0,0.0,-0.10216976504374725,-0.3373623908650757,-0.7274500308862283,-0.5642298279276485,-0.013022800963250387,0.01902035496141288,-0.8110290698273372
10252,6.0,300.18281,5184.7334,0.0,0.0,0.0,0.0,0.0,-0.10217973185333107,-0.34069481845646066,-0.6655887108784914,-0.5697459716045494,-0.007789780845191513,-0.021241718354394378,-0.7778385733241903
10253,6.0,299.59827,5083.9398,0.0,0.0,0.0,0.0,0.0,-0.10218969866291489,-0.33394200303250965,-0.6971610267069364,-0.5142877336162475,0.020544057157040583,-0.008918395953877152,-0.7891326743713313
10254,6.0,299.78361,5149.4008,0.0,0.0,0.0,0.0,0.0,-0.1021996654724987,-0.34571636436204867,-0.6937990932726393,-0.5257738151598355,0.002815866205604357,-0.01896262807671568,-0.7943793036541332
10255,6.0,300.89659,5299.8919,0.0,0.0,0.0,0.0,0.0,-0.10220963228208252,-0.3652978379770897,-0.6907497981566973,-0.5549871732979694,0.011478362604326189,0.003935600886438567,-0.8052499978819873
10256,6.0,300.37403,5440.4777,0.0,0.0,0.0,0.0,0.0,-0.10221959909166634,-0.37748284930715664,-0.7001610272055133,-0.5761255056916604,-0.00968814878127084,0.00041815486030867153,-0.8084626694440532
10257,6.0,299.55608,5464.8052,0.0,0.0,0.0,0.0,0.0,-0.10222956590125015,-0.3990707202402136,-0.6661385713102583,-0.5959550431961834,0.007195304883696304,-0.000963726447582395,-0.7689932849862283
10258,6.0,298.83432,5397.7359,0.0,0.0,0.0,0.0,0.0,-0.10223953271083397,-0.3790826496250446,-0.6989204747105804,-0.5627738077989505,-0.02221882784982758,-0.0015136423446598685,-0.7766131182557473
10259,6.0,299.14996,5239.7317,0.0,0.0,0.0,0.0,0.0,-0.10224949952041779,-0.39162137643252065,-0.6613962163372243,-0.5397299977972035,-0.009349773099775761,0.005912233172166984,-0.7573250616046643
10260,6.0,299.63416,5414.6698,0.0,0.0,0.0,0.0,0.0,-0.10225946633000166,-0.4080888386477326,-0.6641080687723634,-0.5737275277399985,-0.017840047277675585,-0.011070792884102188,-0.7592277629074463
10261,6.0,299.43237999999997,5407.44,0.0,0.0,0.0,0.0,0.0,-0.10226943313958547,-0.36044662954581264,-0.7163115447894453,-0.5669685517554395,0.0032032576580369168,-0.01087119072040299,-0.7886755972512213
10262,6.0,299.44274,5161.0991,0.0,0.0,0.0,0.0,0.0,-0.10227939994916929,-0.3158013001321617,-0.6831330147699795,-0.5699109287208295,-0.013375474819556588,-0.02177237060401568,-0.8055164623932852
10263,6.0,300.6815,5301.3355,0.0,0.0,0.0,0.0,0.0,-0.10228936675875305,-0.3168266383058547,-0.7103342912570363,-0.5843126678246704,-0.005938285554763155,0.001960399816476398,-0.8015463965139703
10264,6.0,300.86634,5293.7614,0.0,0.0,0.0,0.0,0.0,-0.10229933356833687,-0.3520081003279947,-0.7029346169692453,-0.5542285630806004,-0.02114891275123518,2.559762987178937e-06,-0.7995690288113192
10265,6.0,300.93273,5216.4829,0.0,0.0,0.0,0.0,0.0,-0.10230930037792074,-0.3744304637784096,-0.6724474616003974,-0.5388026003781764,0.011849999436253887,0.007500817318073033,-0.7832433101525962
10266,6.0,300.65429,5319.7749,0.0,0.0,0.0,0.0,0.0,-0.10231926718750456,-0.38598712832396365,-0.7080950693310423,-0.5229965270332385,0.02825668893696807,-0.01322428777213559,-0.7954608873408773
10267,6.0,299.90121,5389.5648,0.0,0.0,0.0,0.0,0.0,-0.10232923399708838,-0.3501284099349837,-0.7307347242654023,-0.5574299976990575,0.015524271266876288,0.009614748437401791,-0.8068111832385643
10268,6.0,299.72895,5358.2532,0.0,0.0,0.0,0.0,0.0,-0.10233920080667219,-0.34980963132102266,-0.7175784721844813,-0.5613870635795895,-0.008766519288438092,0.0028381853695320877,-0.7973247001048213
10269,6.0,299.8767,5452.3552,0.0,0.0,0.0,0.0,0.0,-0.10234916761625601,-0.3325789789979897,-0.7349394082053723,-0.5898614381547914,-0.04968843221511645,0.025490238533440675,-0.8085167769993933
10270,6.0,299.51943,5359.0306,0.0,0.0,0.0,0.0,0.0,-0.10235913442583983,-0.36670592124355667,-0.6952703020203364,-0.5670352540095225,-0.02655802175382268,0.018945681468793184,-0.7937522031672433
10271,6.0,300.07142000000005,5138.9401,0.0,0.0,0.0,0.0,0.0,-0.10236910123542364,-0.3708058857856916,-0.6602197113811124,-0.5310838840313985,-0.022454803665616578,0.012286548109337887,-0.7897834747780602
10272,6.0,299.60287999999997,5092.7729,0.0,0.0,0.0,0.0,0.0,-0.10237906804500752,-0.35581676559888065,-0.6718503938464714,-0.5204086254828325,0.006916452072700674,-0.026177232233741677,-0.7927430769951502
10273,6.0,299.82459,5261.5567,0.0,0.0,0.0,0.0,0.0,-0.10238903485459128,-0.35855307789143365,-0.6683191361879633,-0.5725096416498024,0.007474136720414863,-0.03139918685010847,-0.7661577349788813
10274,6.0,300.28629,5440.6006,0.0,0.0,0.0,0.0,0.0,-0.1023990016641751,-0.3444643317434827,-0.7130323026958093,-0.5963100961637244,0.015136444724850788,-0.01045848483542209,-0.7922257722890963
10275,6.0,300.43793999999997,5459.1961,0.0,0.0,0.0,0.0,0.0,-0.10240896847375897,-0.3705776005381617,-0.7118135756080304,-0.5770681119946884,0.02601156178939127,0.016934931228347584,-0.7909182743600562
10276,6.0,299.84189,5422.2899,0.0,0.0,0.0,0.0,0.0,-0.10241893528334273,-0.3844488120221436,-0.7030247556981413,-0.5607671774334114,-0.0025476917334375975,0.008138692402551403,-0.7821354832882622
10277,6.0,300.28938,5316.0227,0.0,0.0,0.0,0.0,0.0,-0.1024289020929266,-0.4069180788196876,-0.6874388919974364,-0.5215811888960555,-0.0039279759767860455,0.02145878388356708,-0.7724058910580263
10278,6.0,300.68102000000005,5327.2268,0.0,0.0,0.0,0.0,0.0,-0.10243886890251042,-0.3855131096621816,-0.6867570557401443,-0.5470737609444765,-0.005289692209401974,-0.024463665207875775,-0.7807822877797123
10279,6.0,299.91491,5471.7598,0.0,0.0,0.0,0.0,0.0,-0.10244883571209423,-0.37415291431101766,-0.7076971761492733,-0.5814282588975015,-0.01100958548531149,-0.014179552608662884,-0.7900858387404013
10280,6.0,299.49962,5308.0621,0.0,0.0,0.0,0.0,0.0,-0.10245880252167805,-0.3372526862767487,-0.7189806482028653,-0.5572849914772464,0.0003404699275967657,-0.039690401662387666,-0.7995566570275983
10281,6.0,299.43922000000003,5147.9584,0.0,0.0,0.0,0.0,0.0,-0.10246876933126187,-0.3267401962242467,-0.6811399720882814,-0.5569706508987234,0.003926678408707986,-0.002875929138407107,-0.8145182168116892
10282,6.0,299.73578,5382.6236,0.0,0.0,0.0,0.0,0.0,-0.10247873614084574,-0.37257527377281663,-0.7239107888169323,-0.5396971178314586,-0.002044775178803598,0.03262433186402087,-0.8036200027111191
10283,6.0,299.65012,5426.9641,0.0,0.0,0.0,0.0,0.0,-0.1024887029504295,-0.38882593086413164,-0.7090065587234994,-0.5518290855187905,0.0042656334666102465,0.03476140095468317,-0.7984153523799603
10284,6.0,300.08556,5216.521,0.0,0.0,0.0,0.0,0.0,-0.10249866976001332,-0.36618467499461366,-0.6793654874531534,-0.5401419650228615,0.016543709285236984,-0.015564260195322883,-0.7933563364856743
10285,6.0,299.89673,5152.0808,0.0,0.0,0.0,0.0,0.0,-0.10250863656959713,-0.32001380636290366,-0.7002069679650473,-0.5458831414144715,0.01170725174891579,-0.01887970368853168,-0.8097098485946402
10286,6.0,301.16253,5280.2134,0.0,0.0,0.0,0.0,0.0,-0.10251860337918095,-0.3383621039437397,-0.6920363420736693,-0.5746545806539914,-0.005828898822992525,-0.0067070285771071835,-0.7846351814174632
10287,6.0,301.30246,5226.2283,0.0,0.0,0.0,0.0,0.0,-0.10252857018876482,-0.32463277787126066,-0.6987057771468913,-0.5653043593936965,-0.025191371297194773,0.01984165293596868,-0.8031727946469832
10288,6.0,300.98888,5321.8683,0.0,0.0,0.0,0.0,0.0,-0.10253853699834864,-0.3944146536456956,-0.6828595284354884,-0.5404409041998645,-0.01906674053774078,0.017286667828311283,-0.7786434080111212
10289,6.0,299.75889,5424.9890000000005,0.0,0.0,0.0,0.0,0.0,-0.10254850380793246,-0.42035155612796865,-0.6683708018105624,-0.5603388462186385,-1.8363186277805383e-05,0.027615808248718073,-0.7594686225887173
10290,6.0,300.4259,5375.3759,0.0,0.0,0.0,0.0,0.0,-0.10255847061751627,-0.41148917426081966,-0.6767149062515614,-0.5457759699513945,-0.002302207882685228,0.00991069133253408,-0.7675424425655413
10291,6.0,300.13063999999997,5498.1066,0.0,0.0,0.0,0.0,0.0,-0.10256843742710003,-0.35855098046372663,-0.7118776434118533,-0.6008584948026164,0.0004979858263348745,-0.011182803629656788,-0.7849542336089512
10292,6.0,299.37297,5690.3786,0.0,0.0,0.0,0.0,0.0,-0.1025784042366839,-0.3741972440028926,-0.7371442201579703,-0.6183915313529924,-0.01181781759982779,-0.05017034510842755,-0.7770546014568183
10293,6.0,299.14918,5448.6528,0.0,0.0,0.0,0.0,0.0,-0.10258837104626772,-0.3444855188030737,-0.7216237414862183,-0.5901451279177895,0.0026255536201469673,-0.03075945214772157,-0.8008579437335253
10294,6.0,299.8871,5266.8787,0.0,0.0,0.0,0.0,0.0,-0.10259833785585154,-0.3856904790921866,-0.6934877012519074,-0.5218214203622645,-0.0062387131961630544,-0.01943273356661148,-0.7742131948638933
10295,6.0,299.12692999999996,5166.427,0.0,0.0,0.0,0.0,0.0,-0.10260830466543536,-0.3613311462206077,-0.6847941471164204,-0.5243394988482795,-0.0015391133243486585,0.01151278169697309,-0.7790889847425962
10296,6.0,299.77517,5278.8730000000005,0.0,0.0,0.0,0.0,0.0,-0.10261827147501917,-0.3834721706482566,-0.6922556093953094,-0.5289178086301235,-0.012990416476804288,0.01102569616190149,-0.7717549791937863
10297,6.0,299.80224,5224.3363,0.0,0.0,0.0,0.0,0.0,-0.10262823828460299,-0.3219285552093747,-0.6979842924131863,-0.5681549359000264,-0.01090813179254879,0.02161777093025788,-0.8128726682517863
10298,6.0,300.79242,5275.7243,0.0,0.0,0.0,0.0,0.0,-0.10263820509418681,-0.3313602113802067,-0.7048847586417093,-0.5674434722098105,0.013467258053364886,0.02045539979979078,-0.8205101827355502
10299,6.0,300.96177,5325.7692,0.0,0.0,0.0,0.0,0.0,-0.10264817190377062,-0.3368099263805517,-0.7127944928973393,-0.5692964330651834,-0.001062475107083129,0.02040727042004078,-0.8191821158294802
10300,6.0,301.14916,5254.6574,0.0,0.0,0.0,0.0,0.0,-0.1026581387133545,-0.3861418820117366,-0.6740045939565744,-0.5371381648364094,0.004151831801503896,-0.012892066369097887,-0.7952710549346422
10301,6.0,299.94419,5420.9464,0.0,0.0,0.0,0.0,0.0,-0.10266810552293826,-0.38412668968285263,-0.7124604344718704,-0.5512452305461685,-0.027847997548883376,-0.0044706633071201155,-0.8047009277852982
10302,6.0,299.89832,5431.0837,0.0,0.0,0.0,0.0,0.0,-0.10267807233252213,-0.3883205521117546,-0.6940601571609044,-0.5685331314998515,-0.011758703575743688,0.001780939646215058,-0.7675078198096242
10303,6.0,299.38128,5208.241,0.0,0.0,0.0,0.0,0.0,-0.10268803914210589,-0.3183437472830817,-0.6919656982766973,-0.5728657686624494,-0.0007999313670470793,0.0057848749299977045,-0.7823098332329692
10304,6.0,299.52112,5271.1724,0.0,0.0,0.0,0.0,0.0,-0.10269800595168971,-0.3220381787376937,-0.7137061849398163,-0.5665604247476604,0.007872226371378252,-0.017375938201871586,-0.7893625808190213
10305,6.0,299.52777000000003,5457.5908,0.0,0.0,0.0,0.0,0.0,-0.10270797276127358,-0.38667674634202365,-0.7083287855991083,-0.5639657749515885,0.018163866810884086,-0.009460444531348181,-0.7763874370609742
10306,6.0,299.30144,5363.6286,0.0,0.0,0.0,0.0,0.0,-0.1027179395708574,-0.4090929694968326,-0.6987940514956034,-0.5225221537339215,0.024135200936208877,-0.0003006461082539607,-0.7715757960461023
10307,6.0,299.68129,5138.7398,0.0,0.0,0.0,0.0,0.0,-0.10272790638044121,-0.3766977932621776,-0.6705894243620234,-0.5147613469779895,0.025093494377285076,-5.189754440113885e-05,-0.7821106586608122
10308,6.0,299.74056,5215.4531,0.0,0.0,0.0,0.0,0.0,-0.10273787319002503,-0.3708762458726357,-0.6689317573309244,-0.5455594992000304,0.0006799691514652303,-0.009480303321383091,-0.7696451290405603
10309,6.0,299.99053,5583.6612,0.0,0.0,0.0,0.0,0.0,-0.10274783999960879,-0.3563964865110947,-0.7364313480501152,-0.6044657462186245,-0.001959079348946078,0.01895728723543858,-0.8242302696826942
10310,6.0,300.00509,5591.3722,0.0,0.0,0.0,0.0,0.0,-0.10275780680919272,-0.35489745391565164,-0.7335680349900283,-0.6111720331979834,-0.01094826966876009,0.023989511783830478,-0.7989616765688782
10311,6.0,300.54656,5341.658,0.0,0.0,0.0,0.0,0.0,-0.10276777361877648,-0.34543431606421265,-0.7122392723725433,-0.5660570724954834,-0.002686444276956407,-0.0038473677770056365,-0.8133892738152713
10312,6.0,300.49005,5224.755999999999,0.0,0.0,0.0,0.0,0.0,-0.10277774042836035,-0.37434987999795666,-0.6920817052806464,-0.5217637968290775,-0.0008713301265360882,-0.03722352979667636,-0.7819812868880442
10313,6.0,301.54931,5239.2096,0.0,0.0,0.0,0.0,0.0,-0.10278770723794411,-0.34411474019398064,-0.7033379310390493,-0.5451362241032565,-0.005070570491801345,-0.011065387194818688,-0.7928805446362173
10314,6.0,301.12182,5306.1434,0.0,0.0,0.0,0.0,0.0,-0.10279767404752793,-0.3486507265191477,-0.7139504998039283,-0.5503338830087254,0.014303755792670786,0.006879221109701264,-0.7887479635733633
10315,6.0,300.20828,5167.5218,0.0,0.0,0.0,0.0,0.0,-0.1028076408571118,-0.29536673072792674,-0.6912815315441753,-0.5841493319085505,0.0023788775793269377,0.017054243454122785,-0.7978060648298282
10316,6.0,300.72814,5010.3574,0.0,0.0,0.0,0.0,0.0,-0.10281760766669557,-0.3099708462742407,-0.6814439673832834,-0.5316087374506975,-0.002881087088041157,-0.008917672493305752,-0.8164532306601602
10317,6.0,300.47202999999996,5171.8962,0.0,0.0,0.0,0.0,0.0,-0.10282757447627944,-0.34210817062344767,-0.7136109799604203,-0.5164081621005175,0.006886872667831413,0.0025385686321872177,-0.8313816369009792
10318,6.0,300.37664,5512.3317,0.0,0.0,0.0,0.0,0.0,-0.10283754128586325,-0.45087222981012454,-0.6847995781369564,-0.5399393757978674,-0.004883105747075016,0.00880615236344957,-0.7916697006342163
10319,6.0,300.50855,5488.9291,0.0,0.0,0.0,0.0,0.0,-0.10284750809544702,-0.40270776120916163,-0.6945764891468623,-0.5712131374843474,-0.005864154150946954,0.007558699736660582,-0.8063147717495722
10320,6.0,299.63176,5302.6102,0.0,0.0,0.0,0.0,0.0,-0.10285747490503089,-0.35575408594769464,-0.6853800083242404,-0.5707269800863675,-0.007746264793146812,-0.009275479474618552,-0.7881834110151462
10321,6.0,299.79331,5331.6454,0.0,0.0,0.0,0.0,0.0,-0.1028674417146147,-0.3054941249474227,-0.7057833088303894,-0.6094096366365485,0.005455853370775806,0.03195354509906937,-0.7974694023516022
10322,6.0,300.13842,5488.9738,0.0,0.0,0.0,0.0,0.0,-0.10287740852419858,-0.35847808725153263,-0.7089551768109282,-0.6010777215942524,0.014109504602749685,0.03260443163205687,-0.7643311794211143
10323,6.0,300.2693,5323.2454,0.0,0.0,0.0,0.0,0.0,-0.10288737533378234,-0.36687624858536666,-0.6724629947244304,-0.5787944368525635,-0.0001114521509069709,0.0017405654800804384,-0.7795022995908873
10324,6.0,299.25858999999997,5195.2054,0.0,0.0,0.0,0.0,0.0,-0.10289734214336616,-0.39924202030211964,-0.6476833353138685,-0.5322873515726715,-0.03189032741208027,-0.03559561786801397,-0.7502537107467763
10325,6.0,299.53325,5189.3252,0.0,0.0,0.0,0.0,0.0,-0.10290730895294997,-0.3524020317018727,-0.6761643061472213,-0.5488589353681594,-0.005859356614373474,-0.024532076814877478,-0.7923865548149642
10326,6.0,298.94515,5186.0907,0.0,0.0,0.0,0.0,0.0,-0.10291727576253379,-0.3338642360873347,-0.6779971134581053,-0.5645807265697794,-0.01923170373352138,0.003039235366299177,-0.7757279936308922
10327,6.0,299.85112000000004,5528.4868,0.0,0.0,0.0,0.0,0.0,-0.10292724257211766,-0.34607022169447166,-0.7335873678019362,-0.6008643412556934,-0.016619167033434086,-0.005361744221362955,-0.7988428932596553
10328,6.0,299.82475,5746.6378,0.0,0.0,0.0,0.0,0.0,-0.10293720938170148,-0.3985826376670436,-0.7473485909875633,-0.6009031791320264,0.003506452485459917,0.006145295691268464,-0.7988835955161723
10329,6.0,299.8803,5417.2974,0.0,0.0,0.0,0.0,0.0,-0.10294717619128524,-0.3803794071030246,-0.7188344970084413,-0.5475092254399535,0.0011818620093906988,0.03927379172477146,-0.8204320206228363
10330,6.0,299.95506,5210.6913,0.0,0.0,0.0,0.0,0.0,-0.10295714300086911,-0.38318272562469063,-0.6900882370339063,-0.5106490917121416,0.037112118895180964,0.025665526747740273,-0.8022651961349102
10331,6.0,300.15775,5356.5663,0.0,0.0,0.0,0.0,0.0,-0.10296710981045287,-0.3809610734554306,-0.6808592916780803,-0.5664420467384774,-0.008163753319924723,0.0033834018734407675,-0.7840104316708053
10332,6.0,300.51459,5229.4597,0.0,0.0,0.0,0.0,0.0,-0.10297707662003674,-0.3328457373518167,-0.6862550713756024,-0.5705243604638705,-0.017272540082166984,-0.017593866006879382,-0.7795767836057383
10333,6.0,300.23297,5008.2799,0.0,0.0,0.0,0.0,0.0,-0.10298704342962056,-0.2842645392497257,-0.6861575865834814,-0.5519698968851875,-0.012902474474125089,0.01177508175036009,-0.8013093669180772
10334,6.0,300.52691,5056.6013,0.0,0.0,0.0,0.0,0.0,-0.10299701023920438,-0.3232857733208217,-0.6714469987166594,-0.5423477598280565,-0.017937606037053883,0.02695354393035768,-0.8054501654392422
10335,6.0,299.29034,5242.0025,0.0,0.0,0.0,0.0,0.0,-0.1030069770487882,-0.37131900576883264,-0.7019282164399213,-0.5201906449888195,0.007843492523717443,-0.001046142427396219,-0.7954125046486022
10336,6.0,300.28652999999997,5354.6005,0.0,0.0,0.0,0.0,0.0,-0.10301694385837201,-0.4000388199157576,-0.6869308078672923,-0.5406952299749646,-0.017570973647370085,-0.01967451530547348,-0.7814499182706023
10337,6.0,299.55797,5587.0835,0.0,0.0,0.0,0.0,0.0,-0.10302691066795583,-0.37823014152090867,-0.7355646240470763,-0.5845391089570184,0.020754348096044678,0.006401277623656915,-0.7882071210674862
10338,6.0,299.8033,5604.6434,0.0,0.0,0.0,0.0,0.0,-0.10303687747753965,-0.3717555037794117,-0.7200092591743813,-0.6119068928330085,0.017775849777839782,0.006443599763108785,-0.7846202866409933
10339,6.0,299.88587,5475.9829,0.0,0.0,0.0,0.0,0.0,-0.10304684428712346,-0.34342400760081065,-0.7357710838874523,-0.5853669950837245,0.016949024523988485,0.01038463612838379,-0.8136677656052562
10340,6.0,299.72685,5510.361999999999,0.0,0.0,0.0,0.0,0.0,-0.10305681109670733,-0.4309380843652776,-0.6980087928006042,-0.5460655669624754,-0.007628671951466304,-0.0012785895997119688,-0.7995552283449572
10341,6.0,299.34664,5367.8661,0.0,0.0,0.0,0.0,0.0,-0.1030667779062911,-0.40265224523618265,-0.6893669042877164,-0.5396781193920835,0.014907800786785384,0.027995761837466576,-0.8146754732272091
10342,6.0,301.04265,5045.8145,0.0,0.0,0.0,0.0,0.0,-0.10307674471587497,-0.36774681280628463,-0.6632701919996714,-0.5027845990734765,-0.017184329568211285,0.015806856587265286,-0.8016356638477803
10343,6.0,300.40997999999996,4943.5874,0.0,0.0,0.0,0.0,0.0,-0.10308671152545873,-0.3106186474606737,-0.6538451016894874,-0.5382633790724595,0.007048923985474634,-0.04515725578817416,-0.7805765574794082
10344,6.0,298.79249,5483.2464,0.0,0.0,0.0,0.0,0.0,-0.10309667833504255,-0.36131421481143666,-0.7218778747437993,-0.5835778892496535,-0.025464256774376474,-0.03862142078038746,-0.7771171595179922
10345,6.0,299.41756000000004,5731.1772,0.0,0.0,0.0,0.0,0.0,-0.10310664514462642,-0.3443334806255687,-0.7601216217481632,-0.6376796690640835,0.019225236158133083,-0.003959000073647887,-0.7954018959200553
10346,6.0,299.89867999999996,5458.7325,0.0,0.0,0.0,0.0,0.0,-0.10311661195421024,-0.38329383863065664,-0.7214191966885313,-0.5546053502627865,-0.003006009476970037,0.02809567032382677,-0.8004938627075933
10347,6.0,301.12899,5362.5575,0.0,0.0,0.0,0.0,0.0,-0.10312657876379405,-0.3503383553557037,-0.7235018106790693,-0.5562434007719494,-0.008030882591911401,0.02263662126356058,-0.8090177886438392
10348,6.0,301.72837000000004,5320.8972,0.0,0.0,0.0,0.0,0.0,-0.10313654557337787,-0.37274998848755964,-0.6896262760483144,-0.5550436113285395,-0.01057462558838429,0.004401324778926936,-0.7952764656901763
10349,6.0,301.71857,5342.8898,0.0,0.0,0.0,0.0,0.0,-0.10314651238296163,-0.3504068814599667,-0.6950847860595274,-0.5786134298546994,0.001127013768227599,0.02079018067258108,-0.8032859138881473
10350,6.0,301.00611000000004,5300.8722,0.0,0.0,0.0,0.0,0.0,-0.10315647919254556,-0.34936858381749464,-0.6946616021552624,-0.5673026101809084,0.003333110521952397,0.0058717337683200045,-0.8063481279428643
10351,6.0,301.04733999999996,4906.8783,0.0,0.0,0.0,0.0,0.0,-0.10316644600212932,-0.2955877408397387,-0.6576442424094334,-0.5383364951996755,0.001993205713639088,-0.02914033624317727,-0.7980116836726212
10352,6.0,300.35449,4939.5958,0.0,0.0,0.0,0.0,0.0,-0.10317641281171314,-0.3510721510781236,-0.6525929880109134,-0.49784865253633653,-0.013856441337274287,-0.004043945287831327,-0.8122735334676562
10353,6.0,299.82479,5538.0687,0.0,0.0,0.0,0.0,0.0,-0.10318637962129695,-0.3940025952275286,-0.7092743404599273,-0.5801576736696045,0.025800458223806975,0.028596207767225972,-0.8104431883545152
10354,6.0,299.71011,5766.5969,0.0,0.0,0.0,0.0,0.0,-0.10319634643088077,-0.42550896873946564,-0.7307840796777733,-0.5966084375231684,0.015463404320119185,0.026825272547198274,-0.7849344245694962
10355,6.0,300.20452,5444.4363,0.0,0.0,0.0,0.0,0.0,-0.10320631324046464,-0.3319393648723647,-0.7290554040796663,-0.5939779085410554,-0.007302692878319673,-0.03437183770198626,-0.7713656581078633
10356,6.0,300.36723,5276.548000000001,0.0,0.0,0.0,0.0,0.0,-0.1032162800500484,-0.3298301935967057,-0.7044495575912584,-0.5696590955409755,-0.002444934190446218,-0.03924290583522326,-0.7790337220821423
10357,6.0,299.52652,5420.9376,0.0,0.0,0.0,0.0,0.0,-0.10322624685963228,-0.35092428749103066,-0.7091105485812623,-0.5877948233833324,0.011556886447325889,-0.006432757683063754,-0.7834288159809043
10358,6.0,300.7367,5540.6221,0.0,0.0,0.0,0.0,0.0,-0.10323621366921609,-0.43307898050156757,-0.7042543346944913,-0.5468774437376015,-0.0018675156864344483,0.022834784612117777,-0.8060241614883913
10359,6.0,301.42557,5343.5572,0.0,0.0,0.0,0.0,0.0,-0.10324618047879985,-0.37184381865812766,-0.6739028535140333,-0.5785612778720524,-0.015954256105812487,-0.013386743173918688,-0.7984720538555562
10360,6.0,300.70839,4898.7209,0.0,0.0,0.0,0.0,0.0,-0.10325614728838373,-0.3272391003084847,-0.6595376826063013,-0.5023120597568406,-0.030138472704685674,0.006688609007514314,-0.8033810276750342
10361,6.0,300.46968,4947.079000000001,0.0,0.0,0.0,0.0,0.0,-0.10326611409796754,-0.2883430431547427,-0.6466480672891954,-0.5687973769934305,0.022799412051126778,0.021695075833387277,-0.7899034334573992
10362,6.0,300.33025,5388.1052,0.0,0.0,0.0,0.0,0.0,-0.10327608090755136,-0.3498669711441817,-0.6988896617750393,-0.5890928170264345,0.010581974691359589,0.019478555775883782,-0.7947921828048812
10363,6.0,300.34562,5669.5096,0.0,0.0,0.0,0.0,0.0,-0.10328604771713518,-0.3855422912650616,-0.7617924407655603,-0.5760545984496624,0.018343859545397984,-0.03535210043173067,-0.7973215286320082
10364,6.0,299.56611000000004,5412.5762,0.0,0.0,0.0,0.0,0.0,-0.103296014526719,-0.3918685891919186,-0.7037810658377833,-0.5496383476100815,-0.01123278624383969,-0.04264026857251686,-0.8068855659284053
10365,6.0,299.6663,5194.6971,0.0,0.0,0.0,0.0,0.0,-0.10330598133630281,-0.3309516385423837,-0.7071886968515904,-0.5409178714194375,0.01934697613114788,-0.005178681440371065,-0.8151973679562162
10366,6.0,299.79605,5372.7816,0.0,0.0,0.0,0.0,0.0,-0.10331594814588663,-0.3540921024711697,-0.7230534880398233,-0.5560458473999524,-0.01011689441533474,0.03299386316224077,-0.7905010483663794
10367,6.0,300.35696,5510.0856,0.0,0.0,0.0,0.0,0.0,-0.1033259149554705,-0.3503224067991297,-0.7063792113467003,-0.6182268275492374,-0.02184620613880268,-0.008960317656889502,-0.7648093524083063
10368,6.0,299.22773,5222.2476,0.0,0.0,0.0,0.0,0.0,-0.10333588176505432,-0.34619392939918064,-0.6897511287256363,-0.5514878127526094,-0.03198778383319847,-0.014629475169816789,-0.7892939939197523
10369,6.0,299.95018,5106.2882,0.0,0.0,0.0,0.0,0.0,-0.10334584857463808,-0.34275241530202966,-0.6704364033319214,-0.5389952698846915,0.017288600096251983,0.02060381864793858,-0.7912091987287683
10370,6.0,300.17219,5232.0835,0.0,0.0,0.0,0.0,0.0,-0.1033558153842219,-0.4014126553288446,-0.6738637217951714,-0.5151463820159895,0.015209517282312485,0.04625883799214186,-0.8175040318088662
10371,6.0,300.31559,5618.1469,0.0,0.0,0.0,0.0,0.0,-0.10336578219380571,-0.3921806600902176,-0.7329303156420903,-0.5826653967395974,-0.001265628611057819,0.004042655420454026,-0.8071873219406862
10372,6.0,300.89259,5762.4358,0.0,0.0,0.0,0.0,0.0,-0.10337574900338958,-0.4250881558404346,-0.7289109044829053,-0.5976375247222314,-0.017726060694425984,-0.0011635303899065088,-0.8017890091179143
10373,6.0,300.63946,5440.1697,0.0,0.0,0.0,0.0,0.0,-0.1033857158129734,-0.3379277236258697,-0.7054050625680592,-0.6103429717011615,0.008648672627607532,0.01125735857201479,-0.7852785952309633
10374,6.0,300.72916000000004,5178.2082,0.0,0.0,0.0,0.0,0.0,-0.10339568262255722,-0.3640781280367137,-0.6824578153008424,-0.5275100496036885,0.01013650637764529,0.008487886352714162,-0.7900748449768162
10375,6.0,301.916,5303.4557,0.0,0.0,0.0,0.0,0.0,-0.10340564943214103,-0.37375103905635565,-0.6814125971601873,-0.5569544591621255,0.00904630641735093,-0.02150447639682658,-0.7872979013552533
10376,6.0,300.27471,5447.4383,0.0,0.0,0.0,0.0,0.0,-0.10341561624172485,-0.4206998507173426,-0.6967665279130023,-0.5384188521678035,-0.007446660822753202,-0.036465796040643865,-0.7889720944954832
10377,6.0,299.4755,5281.8385,0.0,0.0,0.0,0.0,0.0,-0.10342558305130867,-0.34148933825737365,-0.6989794965289053,-0.5650781918388754,0.011622613954812688,0.004727532947921175,-0.8034088920527843
10378,6.0,300.09956,5172.9876,0.0,0.0,0.0,0.0,0.0,-0.10343554986089248,-0.3360168352622797,-0.6850510465467743,-0.5513911689580715,-0.006460709200322354,0.023268304680652878,-0.7820464388694742
10379,6.0,299.39789,5330.1846,0.0,0.0,0.0,0.0,0.0,-0.1034455166704763,-0.3038122817689377,-0.7057890336934544,-0.6106417082281445,0.016071204419104382,0.0077432513873494134,-0.8016349849702132
10380,6.0,299.35667,5556.286,0.0,0.0,0.0,0.0,0.0,-0.10345548348006012,-0.3956481640524336,-0.7114245686296383,-0.5818994708565065,-0.019124085427150283,0.004376857220812176,-0.7912819804834512
10381,6.0,299.76968,5460.6592,0.0,0.0,0.0,0.0,0.0,-0.10346545028964393,-0.37218245697404867,-0.7229771801747923,-0.5647444171234345,0.027734974566478873,0.008284127938429774,-0.8175387660222942
10382,6.0,300.49772,5242.2526,0.0,0.0,0.0,0.0,0.0,-0.1034754170992278,-0.37157359498895864,-0.7046658560901052,-0.5172744605385144,0.0034709513430312266,0.009663958043083402,-0.8124405576141402
10383,6.0,301.16809,5202.9182,0.0,0.0,0.0,0.0,0.0,-0.10348538390881157,-0.3253624699307757,-0.7109832171510804,-0.5452115085856865,-0.007506633981597093,-0.016228375721615985,-0.8042861031943582
10384,6.0,301.39344,5375.1504,0.0,0.0,0.0,0.0,0.0,-0.10349535071839538,-0.3584931137505156,-0.7042710431886403,-0.5711473674203565,-0.017471008419004282,-0.02244617178801468,-0.7932140052441272
10385,6.0,301.57183,5689.8229,0.0,0.0,0.0,0.0,0.0,-0.10350531752797926,-0.3722847547041446,-0.7314673648827084,-0.6258119570028314,-0.005146814319426026,0.01158464139406509,-0.7868735420808722
10386,6.0,300.3033,5479.3262,0.0,0.0,0.0,0.0,0.0,-0.10351528433756302,-0.4022503193190156,-0.6903004217373474,-0.5730276151009225,-0.007671656047208503,0.02420568463966508,-0.7843230091941542
10387,6.0,299.00782000000004,5250.2745,0.0,0.0,0.0,0.0,0.0,-0.10352525114714689,-0.3574842611559496,-0.6808888177859944,-0.5575792595712884,-0.010700720510328889,-0.012990308059043588,-0.7916715447493983
10388,6.0,299.51164,5409.8737,0.0,0.0,0.0,0.0,0.0,-0.10353521795673071,-0.3720377243297647,-0.6858571883263344,-0.5865716177301115,0.009760573061318561,-0.021454923400686082,-0.7897662089963562
10389,6.0,299.31869,5544.3463,0.0,0.0,0.0,0.0,0.0,-0.10354518476631447,-0.35963996087620065,-0.7034268234703223,-0.6222760586588654,0.003438205328949447,0.0058770275947924635,-0.7858388516087562
10390,6.0,299.53116,5383.7467,0.0,0.0,0.0,0.0,0.0,-0.10355515157589834,-0.34443729823081465,-0.7062163719231294,-0.5858708944909554,0.0058368702641792445,0.0060305855461224534,-0.7853709833750813
10391,6.0,300.03847,5058.4008,0.0,0.0,0.0,0.0,0.0,-0.10356511838548216,-0.31555174676503267,-0.6701899809076013,-0.5518858173918895,-0.01076090452651859,-0.0002533594587446318,-0.7838173467317493
10392,6.0,299.66062999999997,4965.3996,0.0,0.0,0.0,0.0,0.0,-0.10357508519506597,-0.3744280826406747,-0.6461049247055913,-0.48882448502572057,-0.004001898853731666,0.001757168798869058,-0.7941611711726052
10393,6.0,299.80886,5376.0803,0.0,0.0,0.0,0.0,0.0,-0.10358505200464979,-0.37462043803965867,-0.7268625991407532,-0.5327111434269965,0.023211369144283775,0.02956494579033297,-0.8194875904696283
10394,6.0,299.74597,5625.2046,0.0,0.0,0.0,0.0,0.0,-0.10359501881423361,-0.3933707223326676,-0.7349892702427934,-0.5815617444656754,0.01054556760201649,-0.0032662504035038172,-0.8205678771962442
10395,6.0,298.99206000000004,5570.2438,0.0,0.0,0.0,0.0,0.0,-0.10360498562381748,-0.3323404295269467,-0.7457064368154953,-0.6151681497373693,-0.015487347419982185,-0.02821624911222697,-0.8284579645324351
10396,6.0,299.54436,5504.9005,0.0,0.0,0.0,0.0,0.0,-0.10361495243340124,-0.34995817378568267,-0.7142986728032903,-0.6090954480455405,-0.025116583307313773,-0.014512190457491685,-0.7873923869270782
10397,6.0,300.20985,5454.4012,0.0,0.0,0.0,0.0,0.0,-0.10362491924298511,-0.3409274809444227,-0.7179242539136074,-0.5991500335440044,-0.012504608650108788,0.017538711764186084,-0.8114647977678402
10398,6.0,300.33069,5359.4447,0.0,0.0,0.0,0.0,0.0,-0.10363488605256888,-0.41891658120384756,-0.6661822423895684,-0.5440385398724235,0.00939710778747233,0.01928270669055498,-0.7741315269058333
10399,6.0,301.11502,5335.3963,0.0,0.0,0.0,0.0,0.0,-0.10364485286215269,-0.37103467765827164,-0.6969433197904503,-0.5538492529056654,-0.017608987751371784,-0.0036326111408358066,-0.7850978719431272
10400,6.0,299.9109,5101.6172,0.0,0.0,0.0,0.0,0.0,-0.10365481967173656,-0.35231628034590967,-0.6679178080883554,-0.5305301327192474,0.023434108874016476,-0.004185052725907546,-0.7933333965034102
10401,6.0,299.55482,5195.4324,0.0,0.0,0.0,0.0,0.0,-0.10366478648132038,-0.2913268823142247,-0.7077817622676214,-0.5801730649386234,0.003459715513997337,0.0027703002472823472,-0.8002473186932613
10402,6.0,299.24727,5616.3353,0.0,0.0,0.0,0.0,0.0,-0.1036747532909042,-0.37228775392444063,-0.7428106389572023,-0.5921272882934134,0.023631788902275977,-0.0019900302891506984,-0.7963830563893882
10403,6.0,299.56619,5714.3215,0.0,0.0,0.0,0.0,0.0,-0.10368472010048801,-0.3973529978756876,-0.7329096757375533,-0.6067483757789024,-0.011855983691344489,-0.014766118025302383,-0.7977769946844593
10404,6.0,299.56211,5524.9495,0.0,0.0,0.0,0.0,0.0,-0.10369468691007178,-0.4544513432708556,-0.6944788219697233,-0.5305165450354065,-0.01004485719682522,0.018328459157128083,-0.7830791940338993
10405,6.0,299.16391,5403.8603,0.0,0.0,0.0,0.0,0.0,-0.10370465371965565,-0.39268664679265464,-0.6938087900760963,-0.5561431599395565,-0.004348804074568545,0.014872963221847186,-0.7977334046651573
10406,6.0,299.05997,5430.2036,0.0,0.0,0.0,0.0,0.0,-0.10371462052923947,-0.3930323069317686,-0.7033811461558144,-0.5542328592610245,-0.013192301492978788,-0.014118610681398384,-0.8059993875234462
10407,6.0,300.87183999999996,5394.5283,0.0,0.0,0.0,0.0,0.0,-0.10372458733882334,-0.3191500005201527,-0.7035764095825854,-0.6170754815931084,-0.025684549505117678,-0.016169044862010484,-0.7881457282439273
10408,6.0,300.6175,5358.6141,0.0,0.0,0.0,0.0,0.0,-0.1037345541484071,-0.3327157474964877,-0.7100918205081064,-0.5860773239338284,0.01214853128671669,-0.025883177935470774,-0.7683851525412103
10409,6.0,301.27925,5099.2357,0.0,0.0,0.0,0.0,0.0,-0.10374452095799092,-0.3392784366716747,-0.6739649657451634,-0.5367969224677315,0.00992261738753609,0.03153429564494267,-0.7954778694125533
10410,6.0,300.74447999999995,5156.1518,0.0,0.0,0.0,0.0,0.0,-0.10375448776757473,-0.38916819661541063,-0.6713340314630103,-0.5068391598786305,0.014178156350025088,0.0013849897768128487,-0.7945248975610022
10411,6.0,300.39839,5499.5522,0.0,0.0,0.0,0.0,0.0,-0.10376445457715855,-0.38611840500691963,-0.7211693292138713,-0.5644388006282725,0.020772527829338878,0.002549770517342758,-0.8296120563963352
10412,6.0,300.48705,5567.2401,0.0,0.0,0.0,0.0,0.0,-0.10377442138674242,-0.3987184841079506,-0.7169638853363264,-0.5766196171029254,-0.0012171512812234788,0.0014606855374584386,-0.7933331634558873
10413,6.0,301.15141,5463.8346,0.0,0.0,0.0,0.0,0.0,-0.10378438819632624,-0.29736061440720774,-0.7463864897526112,-0.6171221620252154,0.003941135157159756,-0.010998684940735689,-0.8312806563960131
10414,6.0,300.39445,5213.4883,0.0,0.0,0.0,0.0,0.0,-0.10379435500591,-0.33805111722304765,-0.6859587058538533,-0.5607604494527475,-0.015291099114113985,-0.020587159803044482,-0.7950310869134593
10415,6.0,299.9885,5293.4102,0.0,0.0,0.0,0.0,0.0,-0.10380432181549387,-0.3673062516628046,-0.6855172125202813,-0.5562410702967194,-0.02910688075137547,-0.007584008393683353,-0.8134806993717942
10416,6.0,299.7321,5544.5404,0.0,0.0,0.0,0.0,0.0,-0.10381428862507763,-0.4442676934058076,-0.7013630052691394,-0.5397711256187625,0.012052570422746088,0.008349216895703553,-0.7849319522392523
10417,6.0,299.12526,5430.5689,0.0,0.0,0.0,0.0,0.0,-0.10382425543466156,-0.4005825096544156,-0.7029363597594173,-0.5472384850132335,-0.01011172491464955,0.04420295961874246,-0.8037869255325932
10418,6.0,299.54909,5301.9535,0.0,0.0,0.0,0.0,0.0,-0.10383422224424532,-0.36546109283320166,-0.6984187740560663,-0.5477816174643364,-0.0032207012651334667,-0.0023562737934461177,-0.7820683757341393
10419,6.0,300.22154,5305.8724,0.0,0.0,0.0,0.0,0.0,-0.10384418905382914,-0.3051601273169597,-0.7055774265425703,-0.6021151681066405,-0.016075104418739286,-0.037670364984775564,-0.7909539306310752
10420,6.0,300.26121,5468.2022,0.0,0.0,0.0,0.0,0.0,-0.10385415586341296,-0.3808940976238206,-0.6931271058063193,-0.5881757243609245,-0.009561088738605991,-0.016084907613456784,-0.7576385409206023
10421,6.0,300.26027,5697.8075,0.0,0.0,0.0,0.0,0.0,-0.10386412267299677,-0.40130684162090163,-0.7252557769996724,-0.6054285871261494,0.02163328277603878,0.00034329930691100364,-0.7721688411971313
10422,6.0,300.56801,5476.9744,0.0,0.0,0.0,0.0,0.0,-0.10387408948258064,-0.4127888802965906,-0.7024366248100973,-0.5496379423100415,0.009360392872748851,0.007849042398490174,-0.7833538050760013
10423,6.0,299.86377999999996,5115.9294,0.0,0.0,0.0,0.0,0.0,-0.1038840562921644,-0.33948636572469565,-0.6785323425584283,-0.5370960845597564,-0.005985982580695485,0.009104941376787752,-0.7971819736957352
10424,6.0,300.26765,5409.871999999999,0.0,0.0,0.0,0.0,0.0,-0.10389402310174822,-0.35877459462829564,-0.7118827299273554,-0.5738086688080064,0.005035365218401855,0.0037772689059374165,-0.8036768967042343
10425,6.0,299.875,5528.7747,0.0,0.0,0.0,0.0,0.0,-0.1039039899113321,-0.33295727592282465,-0.7210681156613823,-0.6265840535790314,-0.005829657240692374,0.023714756860214275,-0.7961140587528402
10426,6.0,299.74267000000003,5241.2609,0.0,0.0,0.0,0.0,0.0,-0.10391395672091586,-0.36729602796929567,-0.6923398611411243,-0.5335765603374065,0.0023007129334876877,-0.019853454259883378,-0.7848122468724383
10427,6.0,300.64907,5296.7023,0.0,0.0,0.0,0.0,0.0,-0.10392392353049973,-0.37097155217704164,-0.6837884862596693,-0.5553051818418544,-0.03313772846443917,-0.03915220677902196,-0.7787495155615932
10428,6.0,300.05187,5492.4567,0.0,0.0,0.0,0.0,0.0,-0.10393389034008355,-0.44827578656137557,-0.6808744195020734,-0.5404194840927504,-0.012159922244340888,-0.01006087718753127,-0.7885896635102402
10429,6.0,299.17896,5528.4169999999995,0.0,0.0,0.0,0.0,0.0,-0.1039438571496673,-0.3935400870868826,-0.7042908724930973,-0.5826697537150275,-0.007414787520982553,0.0026910574020116876,-0.8022896357273221
10430,6.0,298.46717,5676.6009,0.0,0.0,0.0,0.0,0.0,-0.10395382395925118,-0.3767275422851136,-0.7450258569883274,-0.6037915194695834,-0.0004889401475246355,0.01015459593168059,-0.8046839153161192
10431,6.0,299.09645,5495.1588,0.0,0.0,0.0,0.0,0.0,-0.103963790768835,-0.3159301450148777,-0.7380045910828823,-0.6164563148545015,-0.02289025194909198,0.01081684302478929,-0.8147575870153132
10432,6.0,299.58144,5186.6547,0.0,0.0,0.0,0.0,0.0,-0.10397375757841881,-0.37073751166894364,-0.6839159936522534,-0.5219600228434434,0.01127967236571699,0.014900562128070985,-0.7950151180918832
10433,6.0,300.20387,5270.7105,0.0,0.0,0.0,0.0,0.0,-0.10398372438800263,-0.3234860928655917,-0.7111257611751484,-0.5675525384505744,0.0015482318659735886,0.018746555532640985,-0.8050658498088132
10434,6.0,300.0244,5362.8489,0.0,0.0,0.0,0.0,0.0,-0.10399369119758645,-0.39209624622438666,-0.6963825669201084,-0.5416933319859695,0.025612174063724773,-0.004702518944027486,-0.7941653862930212
10435,6.0,299.57217,5264.2409,0.0,0.0,0.0,0.0,0.0,-0.10400365800717032,-0.3129566612714177,-0.7137115450328453,-0.5735295893329635,-0.01174165462956109,-0.014806156603003884,-0.8022975390781022
10436,6.0,300.25047,5246.2001,0.0,0.0,0.0,0.0,0.0,-0.10401362481675408,-0.3313559962597907,-0.7017275827876204,-0.5616302537360904,-0.012230830499588988,0.01196378944898409,-0.8093880606278823
10437,6.0,299.33962,5462.5877,0.0,0.0,0.0,0.0,0.0,-0.10402359162633795,-0.33831753107184065,-0.7222363930266823,-0.5999363460191074,-0.015247230451034486,0.0014718993789651588,-0.8033395553484411
10438,6.0,299.28561,5514.9529,0.0,0.0,0.0,0.0,0.0,-0.10403355843592171,-0.4230490508091906,-0.6957639676015573,-0.5575949446828364,-0.013354354634472185,-0.013479884162860988,-0.7916874021134633
10439,6.0,299.4648,5396.8514,0.0,0.0,0.0,0.0,0.0,-0.10404352524550553,-0.36626175292972063,-0.7164541192110163,-0.5577921839473025,0.0017303998458021684,-0.021953238786615977,-0.7924483630710643
10440,6.0,300.1475,5400.7403,0.0,0.0,0.0,0.0,0.0,-0.1040534920550894,-0.4388853088746076,-0.6731998707271544,-0.5296050252454465,0.02205096371901068,-0.003137832403054947,-0.8006411791396323
10441,6.0,301.02472,5439.4411,0.0,0.0,0.0,0.0,0.0,-0.10406345886467322,-0.3615275546199917,-0.7063505363688704,-0.5855761906993705,0.014507988509326988,-0.0003073563874387137,-0.8172386514751753
10442,6.0,301.80262999999997,5372.897,0.0,0.0,0.0,0.0,0.0,-0.10407342567425704,-0.3466920330158397,-0.7151440982892273,-0.5713903853243405,0.016236039945372382,-0.012599908875014188,-0.8192489498060762
10443,6.0,301.0862,5493.4735,0.0,0.0,0.0,0.0,0.0,-0.10408339248384085,-0.34780791521846866,-0.7183780582358943,-0.6036927985123404,0.0038484506373875063,0.004424741090062946,-0.7969479027901343
10444,6.0,300.02287,5518.651,0.0,0.0,0.0,0.0,0.0,-0.10409335929342461,-0.40205074957931963,-0.7174601955003083,-0.5580211582049005,0.005893960321188594,0.020682974759000678,-0.7820964934244142
10445,6.0,300.17654,5224.2388,0.0,0.0,0.0,0.0,0.0,-0.10410332610300849,-0.3387043696950187,-0.6885361000007223,-0.5607976661289205,-0.014477684225336187,0.004788971165084655,-0.7837231550024533
10446,6.0,300.82341,5270.4824,0.0,0.0,0.0,0.0,0.0,-0.1041132929125923,-0.37441021904141164,-0.6970696518129184,-0.5306151646676395,-0.016831913077430486,0.00032743607612792467,-0.7950242373427833
10447,6.0,300.3687,5575.6159,0.0,0.0,0.0,0.0,0.0,-0.10412325972217612,-0.34097489091660166,-0.7334582898716973,-0.6204148094176744,-0.007559878450501913,0.0002954883410049287,-0.7936693091765622
10448,6.0,299.88256,5566.0537,0.0,0.0,0.0,0.0,0.0,-0.10413322653175994,-0.37531091732030364,-0.7199351095320633,-0.5966953237192434,-0.0014026223550530484,7.670071425377112e-06,-0.7883206962711953
10449,6.0,300.25595,5312.8487,0.0,0.0,0.0,0.0,0.0,-0.10414319334134375,-0.35466449758516067,-0.6979570461179974,-0.5623517992648015,0.002035471415060388,0.01818331108030308,-0.8181464627697692
10450,6.0,299.2204,5206.9646,0.0,0.0,0.0,0.0,0.0,-0.10415316015092757,-0.3724388599118536,-0.6792516994669233,-0.5310966611151594,-0.029695904312757572,0.008358605265830111,-0.7955303253702303
10451,6.0,299.20601,5368.933000000001,0.0,0.0,0.0,0.0,0.0,-0.10416312696051139,-0.37165691454468164,-0.7025764634563983,-0.5577881917419084,-0.016392290203543085,-0.016387104389531285,-0.7928334183740662
10452,6.0,300.27006,5530.3265,0.0,0.0,0.0,0.0,0.0,-0.10417309377009526,-0.4120028008690106,-0.7141001264461954,-0.5549782566970894,-0.018690885545646782,-0.012571586508218989,-0.8119521609334392
10453,6.0,300.03125,5457.4642,0.0,0.0,0.0,0.0,0.0,-0.10418306057967908,-0.3226753002680727,-0.7296919885874923,-0.6065655550633594,0.008854454502341621,-0.006855551182065224,-0.8198351453864292
10454,6.0,300.57876,5240.6486,0.0,0.0,0.0,0.0,0.0,-0.10419302738926284,-0.3214344235331077,-0.7007898907475774,-0.5708019909912704,-0.0015024245514777587,-0.003056852441812847,-0.8036887618629053
10455,6.0,301.43157,4995.9704,0.0,0.0,0.0,0.0,0.0,-0.10420299419884671,-0.2976547507787367,-0.6720244296836474,-0.5489710616242255,0.011935000987142888,0.014320861480858987,-0.7969053564184353
10456,6.0,301.30922000000004,5351.6723,0.0,0.0,0.0,0.0,0.0,-0.10421296100843047,-0.40114499518242863,-0.6774898804580454,-0.5481398621696925,-0.0032153550536308372,0.014781612645831586,-0.7687648072211793
10457,6.0,301.17716,5723.0244,0.0,0.0,0.0,0.0,0.0,-0.10422292781801434,-0.39761486223153164,-0.7419158985888983,-0.6001257629928014,0.014183960246597887,0.0026531487773453974,-0.7900297857448692
10458,6.0,300.10596,5517.8151,0.0,0.0,0.0,0.0,0.0,-0.10423289462759816,-0.42063863014630065,-0.6955684508622614,-0.5610709396808905,-0.0006503672524437504,0.003646073688289457,-0.7760483225175062
10459,6.0,299.57502,5337.1336,0.0,0.0,0.0,0.0,0.0,-0.10424286143718198,-0.3263377332845267,-0.7060521038169173,-0.5899655192050635,-0.00914184536397989,-0.03941065648202896,-0.8111525850145272
10460,6.0,300.42007,5548.0102,0.0,0.0,0.0,0.0,0.0,-0.1042528282467658,-0.42364125496263666,-0.7127322489436964,-0.5500830529464705,-0.01166531636702709,-0.032000390690942675,-0.7889645052522343
10461,6.0,300.26551,5557.1872,0.0,0.0,0.0,0.0,0.0,-0.10426279505634961,-0.3890891225776066,-0.6864386621612213,-0.6137183509642854,-0.0031838476364712967,-0.015247701612330987,-0.8103267355205223
10462,6.0,300.0377,5248.6956,0.0,0.0,0.0,0.0,0.0,-0.10427276186593348,-0.38763277820887665,-0.6731654607537584,-0.5346741533757304,-0.0008791204391349322,-0.002155995589280198,-0.7876437945418903
10463,6.0,300.12022,5054.695,0.0,0.0,0.0,0.0,0.0,-0.10428272867551724,-0.3245951356300457,-0.6539749395573013,-0.5579309890785015,-0.005767346716517805,0.02268140793123068,-0.7959060891698152
10464,6.0,299.08203,5204.7179,0.0,0.0,0.0,0.0,0.0,-0.10429269548510106,-0.3490481536058707,-0.6833065845121092,-0.5497495416760555,-0.013028095195022885,0.0018501356101191684,-0.7981921637804332
10465,6.0,299.6554,5497.0169,0.0,0.0,0.0,0.0,0.0,-0.10430266229468488,-0.33467465378231664,-0.7411787692736492,-0.5951024438995385,0.028565228658668573,-0.004582331878115946,-0.8158312673512772
10466,6.0,299.29562999999996,5578.9682,0.0,0.0,0.0,0.0,0.0,-0.1043126291042687,-0.3992701075948916,-0.7306779518622992,-0.5659189665068535,-0.0034611951631183667,0.011099148688150689,-0.7944828476818523
10467,6.0,299.24761,5392.524,0.0,0.0,0.0,0.0,0.0,-0.10432259591385257,-0.3526094439973427,-0.7215599269949203,-0.5650232635509544,0.013604972927456289,-0.00036434330572038465,-0.7734892175349423
10468,6.0,299.80939,5320.304,0.0,0.0,0.0,0.0,0.0,-0.10433256272343638,-0.37078480005111064,-0.7201494423257163,-0.5263053154997904,-0.01891394444916098,-0.0014890700164847685,-0.8093773708393271
10469,6.0,300.12115,5551.276999999999,0.0,0.0,0.0,0.0,0.0,-0.10434252953302015,-0.3840952181347467,-0.7237393570325134,-0.5796150073135474,-0.012423965087899887,0.016224775644010685,-0.7847047207718263
10470,6.0,300.23183,5636.1787,0.0,0.0,0.0,0.0,0.0,-0.10435249634260402,-0.40336755927677864,-0.7234307615820573,-0.5864592685590234,-0.002961504188852707,0.006058933953445224,-0.8181843583235092
10471,6.0,299.96789,5389.6618,0.0,0.0,0.0,0.0,0.0,-0.10436246315218783,-0.3410444809334697,-0.7180627449372753,-0.5792153916066084,-0.004871670814396475,-0.004015871167310626,-0.8180050839833162
10472,6.0,300.05769,5132.7289,0.0,0.0,0.0,0.0,0.0,-0.10437242996177165,-0.36769087126826366,-0.6633256877076483,-0.5292048826484554,0.001109051579729869,-0.016874706682153885,-0.8304857616925633
10473,6.0,299.91451,5360.206999999999,0.0,0.0,0.0,0.0,0.0,-0.10438239677135547,-0.34872878730685164,-0.7146393882819163,-0.5660008979099396,0.012330462368671889,-0.014628820610252185,-0.8126063050654982
10474,6.0,298.64047,5401.9776,0.0,0.0,0.0,0.0,0.0,-0.10439236358093928,-0.39801475151599763,-0.6893244187110233,-0.5547271226598044,0.02299247368543048,0.017454345521109787,-0.7977579151850762
10475,6.0,299.18183999999997,5504.4352,0.0,0.0,0.0,0.0,0.0,-0.1044023303905231,-0.3417691168749857,-0.7235236360862233,-0.6079181122243464,-0.006205371796322514,0.0061761661794151445,-0.7843531432521283
10476,6.0,300.88051,5633.5603,0.0,0.0,0.0,0.0,0.0,-0.10441229720010692,-0.36427157774580565,-0.7481278309769683,-0.6000622626090345,-0.014474689058040587,0.0018384019713111484,-0.7666684940892893
10477,6.0,300.56359,5429.3336,0.0,0.0,0.0,0.0,0.0,-0.10442226400969074,-0.3233778574899097,-0.7317088122490373,-0.5952951843335604,-0.02282972545436848,0.02200315857929268,-0.8003948681728232
10478,6.0,300.41266,5324.8404,0.0,0.0,0.0,0.0,0.0,-0.10443223081927455,-0.39479588899582063,-0.6901563071756244,-0.5336663342962664,-0.004269408633832826,0.005364683051952995,-0.7881658817884163
10479,6.0,300.10661,5618.5612,0.0,0.0,0.0,0.0,0.0,-0.10444219762885837,-0.4001515439893826,-0.7188241010624153,-0.5889266642750365,0.003217191366787067,0.012206590517446688,-0.8048978833397362
10480,6.0,299.88268999999997,5529.6928,0.0,0.0,0.0,0.0,0.0,-0.10445216443844224,-0.4367887120326896,-0.6927831073973693,-0.5513167254732245,-0.013865031671622086,0.007405841738499673,-0.7911674933546522
10481,6.0,299.51552999999996,5252.5295,0.0,0.0,0.0,0.0,0.0,-0.10446213124802606,-0.33720678604721865,-0.6976494841826434,-0.5617815522410224,0.003710881772635517,0.011226934724512189,-0.8395876961483542
10482,6.0,299.41884,5300.3036,0.0,0.0,0.0,0.0,0.0,-0.10447209805760987,-0.3469049675243547,-0.6848403715859823,-0.5794145965762685,-0.03786965405419387,0.0011707567882946988,-0.8182878516887232
10483,6.0,298.96316,5420.2969,0.0,0.0,0.0,0.0,0.0,-0.10448206486719364,-0.3400103072189047,-0.7055087788482953,-0.6021158368517064,0.008059945239229663,-0.017184613278239284,-0.8115096948797712
10484,6.0,299.94441,5402.0864,0.0,0.0,0.0,0.0,0.0,-0.10449203167677745,-0.36653620185180663,-0.7188633645037903,-0.5566998192794944,-0.00035701186369432766,-0.017368704609407683,-0.8344107278099272
10485,6.0,299.15328,5279.9841,0.0,0.0,0.0,0.0,0.0,-0.10450199848636132,-0.34694047180785864,-0.6904350320131323,-0.5676078315085314,0.03259082672296417,-0.0048171766028183155,-0.7992288402227452
10486,6.0,300.43616000000003,5391.4731,0.0,0.0,0.0,0.0,0.0,-0.10451196529594514,-0.37844716955982766,-0.7271452655211503,-0.5332807723682145,0.013696151250954887,0.0015861498125407983,-0.8017151229206222
10487,6.0,300.01532000000003,5309.8347,0.0,0.0,0.0,0.0,0.0,-0.10452193210552896,-0.33475653452289766,-0.7039261024570973,-0.5753745252475444,0.017091938384342985,0.015721703048861287,-0.7830293826589833
10488,6.0,300.07797,5466.7393,0.0,0.0,0.0,0.0,0.0,-0.10453189891511278,-0.34597026457210667,-0.7251487879216133,-0.5906331699609554,-0.009172975244152172,-0.005698582194506275,-0.8112031259295153
10489,6.0,299.39767,5630.1351,0.0,0.0,0.0,0.0,0.0,-0.10454186572469659,-0.38796713047687464,-0.7392001654058763,-0.5842532001763014,-0.003870039045343116,-0.0007845689553909273,-0.8054864093953191
10490,6.0,300.10096,5392.2199,0.0,0.0,0.0,0.0,0.0,-0.10455183253428041,-0.37901235033310665,-0.7117337618976534,-0.5483541037708365,-0.006009353599552025,0.011523339763015089,-0.8162013569503023
10491,6.0,300.9573,5229.2783,0.0,0.0,0.0,0.0,0.0,-0.10456179934386423,-0.36136330677878165,-0.6961006402122843,-0.5321060912622825,-0.010935893832038688,-0.005667853257398564,-0.8254239086979972
10492,6.0,302.16762,5644.5196,0.0,0.0,0.0,0.0,0.0,-0.1045717661534481,-0.4381214804192236,-0.7020127012332593,-0.5756588330931035,-0.022416302188316778,-0.017315871722693485,-0.7897323664430163
10493,6.0,301.14769,5686.0892,0.0,0.0,0.0,0.0,0.0,-0.10458173296303186,-0.37949145551039065,-0.7221299207061743,-0.6268077488036083,-0.012785841281614288,0.004519535905818465,-0.8218752940652762
10494,6.0,300.54164,5305.8640000000005,0.0,0.0,0.0,0.0,0.0,-0.10459169977261568,-0.35937501624005264,-0.6691512273025844,-0.5843239250332815,-0.017345608586628283,0.006358717573081563,-0.7835080825362273
10495,6.0,299.7521,5279.9019,0.0,0.0,0.0,0.0,0.0,-0.10460166658219955,-0.33892470092926363,-0.6945104252403423,-0.5715232021474485,-0.027996673762556573,0.00922803920626156,-0.7885423345980692
10496,6.0,299.30655,5384.1277,0.0,0.0,0.0,0.0,0.0,-0.10461163339178331,-0.3809933049411116,-0.6880923268544253,-0.5675547270707905,-0.0003749765447873036,0.0042906498009791655,-0.7766546615098473
10497,6.0,300.21105,5536.3547,0.0,0.0,0.0,0.0,0.0,-0.10462160020136718,-0.3948390230525776,-0.7243179431046153,-0.5637566299984474,0.017659728276629483,-0.0028754764182624274,-0.8022914190474982
10498,6.0,299.23062000000004,5589.0917,0.0,0.0,0.0,0.0,0.0,-0.104631567010951,-0.4021199038986446,-0.7422196405713753,-0.5546047828427305,0.02163503569871178,0.015181520168799385,-0.7951192903346643
10499,6.0,299.7112,5482.9788,0.0,0.0,0.0,0.0,0.0,-0.10464153382053482,-0.35236720629593565,-0.7255333973945713,-0.5887880516613564,0.0032579436778590073,-0.00993406397259078,-0.7890577039964323
10500,6.0,300.5045,5209.0132,0.0,0.0,0.0,0.0,0.0,-0.10465150063011863,-0.33403301315649164,-0.6956876800015284,-0.5536892505823745,-0.01106339919812249,-0.011051885637236188,-0.8186240784694062
10501,6.0,300.69084,5465.5558,0.0,0.0,0.0,0.0,0.0,-0.10466146743970245,-0.3898150960092546,-0.7049225934004433,-0.5666547988619745,-0.004055949971041095,-0.004133736370618016,-0.8025067752237522
10502,6.0,300.82157,5694.6766,0.0,0.0,0.0,0.0,0.0,-0.10467143424928632,-0.4106494635054466,-0.7297418911549173,-0.5906481255324314,0.002249457778504198,0.00953626492175607,-0.8327022462863132
10503,6.0,301.12532000000004,5245.1642,0.0,0.0,0.0,0.0,0.0,-0.10468140105887008,-0.37460547233568164,-0.6687489366153814,-0.5510445360988615,-0.013414323841640688,0.01122453230852509,-0.8059084179294682
10504,6.0,299.54939,5156.1433,0.0,0.0,0.0,0.0,0.0,-0.1046913678684539,-0.3137507048447837,-0.6984643196480613,-0.5551237898089525,-0.008421273163314952,0.003747723748921536,-0.8339273568497222
10505,6.0,298.45759,5425.1119,0.0,0.0,0.0,0.0,0.0,-0.10470133467803772,-0.34821826124396665,-0.6935704432550733,-0.6073098683218174,-0.003370272482619997,0.008635809822888071,-0.7938384104857512
10506,6.0,299.22352,5494.8186,0.0,0.0,0.0,0.0,0.0,-0.10471130148762153,-0.35581414128112165,-0.7303966432370363,-0.5840768642613985,-0.013207929862521187,0.018391726493372083,-0.7918659773110872
10507,6.0,299.8694,5438.3469,0.0,0.0,0.0,0.0,0.0,-0.1047212682972054,-0.3575857888159697,-0.7100344705524464,-0.5855014027094895,0.002733198169695657,-8.509818759078721e-05,-0.7819938207917813
10508,6.0,299.97207000000003,5504.7023,0.0,0.0,0.0,0.0,0.0,-0.10473123510678922,-0.4006128058324056,-0.7089558354234934,-0.5637234055276684,-0.012393440928637388,-0.011775468811898289,-0.7807279269118472
10509,6.0,299.96764,5455.1565,0.0,0.0,0.0,0.0,0.0,-0.10474120191637298,-0.3970574328215176,-0.7186902811217083,-0.5424836670639694,0.01087984792925739,0.006798025224862853,-0.7881628927006212
10510,6.0,300.63626,5451.1728,0.0,0.0,0.0,0.0,0.0,-0.10475116872595686,-0.4027506622183956,-0.6887279589071573,-0.5655417740246275,0.020922624619652278,-0.014543763330607685,-0.7752197473807323
10511,6.0,300.70423,5702.3737,0.0,0.0,0.0,0.0,0.0,-0.10476113553554062,-0.37748863496522767,-0.7341778291652103,-0.6217127422657704,0.016881579557582183,-0.019287529761030982,-0.7807180882533763
10512,6.0,300.60249,5486.1051,0.0,0.0,0.0,0.0,0.0,-0.10477110234512449,-0.4034339372908296,-0.6851367472402323,-0.5790682778245895,0.005742226118713595,-0.013208406090068188,-0.7840564534903472
10513,6.0,301.55194,5315.8928,0.0,0.0,0.0,0.0,0.0,-0.1047810691547083,-0.33637586017021265,-0.6813384576503703,-0.5981843656687005,-0.004427259928486535,-0.0014157781917014285,-0.8202913207139502
10514,6.0,300.53032,5375.2748,0.0,0.0,0.0,0.0,0.0,-0.10479103596429212,-0.4025727051033326,-0.6926564410023683,-0.5387201724825416,-0.005210435178629915,0.01392773158781009,-0.8058987312585123
10515,6.0,299.94009,5514.1061,0.0,0.0,0.0,0.0,0.0,-0.10480100277387594,-0.38119088871061163,-0.7108497417154073,-0.5841099570096645,-0.009290509722626922,0.0038114489728857262,-0.8158338308740303
10516,6.0,299.72785,5495.2792,0.0,0.0,0.0,0.0,0.0,-0.10481096958345976,-0.37040625994625165,-0.7268398314110063,-0.5731815581886155,0.002423220038153198,0.001975402402757038,-0.8242807498026763
10517,6.0,299.79936000000004,5376.6574,0.0,0.0,0.0,0.0,0.0,-0.10482093639304357,-0.33110757773277366,-0.7422628962181443,-0.5609991205138024,-0.012169954433580987,0.013695118749102987,-0.8106112966786062
10518,6.0,299.64011,5439.8073,0.0,0.0,0.0,0.0,0.0,-0.10483090320262739,-0.3690083395782876,-0.7125130728145653,-0.5720441849513654,0.015574532524836683,0.010178714323810891,-0.7877748280448222
10519,6.0,300.16655,5454.5963,0.0,0.0,0.0,0.0,0.0,-0.10484087001221121,-0.35007353230956767,-0.7409690467679513,-0.5670185049853694,0.01158661925826029,-0.004876316971405016,-0.7826013047567353
10520,6.0,299.14915,5514.2852,0.0,0.0,0.0,0.0,0.0,-0.10485083682179508,-0.37835635195336464,-0.7326290561223583,-0.5652196111553325,0.008345904986426692,-0.0029757768297613073,-0.8047471421223592
10521,6.0,300.9471,5589.1328,0.0,0.0,0.0,0.0,0.0,-0.10486080363137884,-0.39354454538732264,-0.7169161612566163,-0.5884960937775424,0.0019238211838913679,-0.012339884581351789,-0.8063502760330763
10522,6.0,300.72724,5224.8481,0.0,0.0,0.0,0.0,0.0,-0.10487077044096271,-0.3238435573683707,-0.7100047215295103,-0.5543750790450604,0.00022321868292246875,0.0016774182139732885,-0.8478403243703252
10523,6.0,300.55377000000004,5146.3646,0.0,0.0,0.0,0.0,0.0,-0.10488073725054647,-0.3364207978121477,-0.6683099460095564,-0.5596355999867334,-0.0009036674968525382,-0.012656217209571387,-0.8161562571883513
10524,6.0,300.65211,5642.2332,0.0,0.0,0.0,0.0,0.0,-0.10489070406013029,-0.37869794895957765,-0.7250486382817294,-0.6113514088631864,0.004479250703042626,-0.014008092453241087,-0.8175958525329282
10525,6.0,300.01065,5551.5804,0.0,0.0,0.0,0.0,0.0,-0.10490067086971416,-0.37479278174916764,-0.7176874168352333,-0.5950616200530093,-0.012738904497231989,-0.019976371629514378,-0.7885360119174453
10526,6.0,299.55179,5249.8507,0.0,0.0,0.0,0.0,0.0,-0.10491063767929798,-0.37378293616950364,-0.6781774922409074,-0.5438630956176085,0.006394125192526024,-0.003981782090221295,-0.7959404484807062
10527,6.0,299.50579,5477.7926,0.0,0.0,0.0,0.0,0.0,-0.1049206044888818,-0.3896328224487656,-0.7128473946850603,-0.5626319629174515,-0.008944987892151571,0.007449403589448894,-0.7766628789681582
10528,6.0,298.62769,5550.604,0.0,0.0,0.0,0.0,0.0,-0.10493057129846561,-0.3873027930488096,-0.7213911600582643,-0.5785510744435454,-0.016778404352899585,0.024942061110089776,-0.7828085650646903
10529,6.0,299.08567,5619.7447,0.0,0.0,0.0,0.0,0.0,-0.10494053810804937,-0.40261203947221463,-0.7299086315913733,-0.5757413927112515,-0.023174701649664977,0.012091963560133888,-0.7915084216157993
10530,6.0,300.49562000000003,5747.8878,0.0,0.0,0.0,0.0,0.0,-0.10495050491763325,-0.4006268089487876,-0.7269890324882313,-0.6195985452696153,-0.011079466304958189,0.0037543841458038663,-0.7598080309747143
10531,6.0,300.16252000000003,5450.1279,0.0,0.0,0.0,0.0,0.0,-0.10496047172721706,-0.37507814337483064,-0.7006878159325033,-0.5809368325990014,-0.027160906576572774,-0.014552869409256387,-0.7676569702243443
10532,6.0,299.83252999999996,5243.2786,0.0,0.0,0.0,0.0,0.0,-0.10497043853680094,-0.3575382268562756,-0.6843739522999503,-0.5519135905771305,0.008099717230829851,-0.01955514836419288,-0.8039614375973163
10533,6.0,300.58407,5550.9889,0.0,0.0,0.0,0.0,0.0,-0.1049804053463847,-0.38096741640105664,-0.7093101385859603,-0.5970844725526495,0.01080351574622399,-0.006864801446203154,-0.8205933401712572
10534,6.0,300.15833,5627.2264,0.0,0.0,0.0,0.0,0.0,-0.10499037215596851,-0.4099759865614796,-0.7051136518392993,-0.5954466854885124,0.03434332484417227,-0.005902827171488684,-0.8068606298434442
10535,6.0,300.57501,5255.2967,0.0,0.0,0.0,0.0,0.0,-0.10500033896555239,-0.3620853690650436,-0.6784055343084133,-0.5569880686679424,0.007217714328207943,0.002093742313736278,-0.8245700935012322
10536,6.0,300.15244,5185.2033,0.0,0.0,0.0,0.0,0.0,-0.10501030577513615,-0.32762965755952966,-0.7044962582883674,-0.5440464128257004,0.01870398585618968,0.002441969927278668,-0.8209067992221932
10537,6.0,300.03727000000003,5508.5646,0.0,0.0,0.0,0.0,0.0,-0.10502027258472002,-0.3833176905380106,-0.7214221756438253,-0.5697262436251025,-0.005166998666718065,-0.005983568309682214,-0.7969992036426973
10538,6.0,300.18625,5681.5369,0.0,0.0,0.0,0.0,0.0,-0.10503023939430384,-0.4035098398558206,-0.7447362093147413,-0.5787993105855445,-0.001006289517643043,0.003655318784851876,-0.8014628033807203
10539,6.0,300.42852,5424.7349,0.0,0.0,0.0,0.0,0.0,-0.1050402062038876,-0.3399362589015967,-0.7429253287360214,-0.5661223561994264,-0.03598031650698076,0.0014774441874873887,-0.7912193312297682
10540,6.0,299.68515,5342.7008,0.0,0.0,0.0,0.0,0.0,-0.10505017301347147,-0.34745624650626167,-0.7269568111350513,-0.5496345681872085,-0.02043076363685938,0.020161029367488682,-0.8016057729698303
10541,6.0,300.24537999999995,5273.5259,0.0,0.0,0.0,0.0,0.0,-0.10506013982305529,-0.3457239029427927,-0.7129765232778043,-0.5443197674376785,-0.010352072296669991,0.01758432119093738,-0.7861602849379793
10542,6.0,299.66017,5306.4482,0.0,0.0,0.0,0.0,0.0,-0.10507010663263916,-0.36105694047854564,-0.6933976334505184,-0.5585731768593805,0.03657354505627786,-0.008568772588322013,-0.8219537500205192
10543,6.0,299.66686,5584.7656,0.0,0.0,0.0,0.0,0.0,-0.10508007344222292,-0.42118263399248956,-0.7063119112750583,-0.5701347252704164,0.011397890281384188,-0.02077845736892408,-0.7999662937780263
10544,6.0,300.08591,5470.1051,0.0,0.0,0.0,0.0,0.0,-0.10509004025180674,-0.40463455759932165,-0.6828432151088784,-0.5752975891674514,0.02152572323817348,0.009313654077436092,-0.8306956868482812
10545,6.0,299.61492999999996,5127.6413,0.0,0.0,0.0,0.0,0.0,-0.10510000706139055,-0.3260634768799597,-0.6751272446698713,-0.5574842065794074,-0.023798429026972077,0.006567949767056175,-0.8275912303968952
10546,6.0,300.67728999999997,5463.0374,0.0,0.0,0.0,0.0,0.0,-0.10510997387097437,-0.3859242460227576,-0.7011937215749323,-0.5735089798259295,-0.009446822498328792,0.014791828233339787,-0.7990948378970203
10547,6.0,301.50057999999996,5949.6346,0.0,0.0,0.0,0.0,0.0,-0.10511994068055824,-0.4353160746023516,-0.7299587165438163,-0.6432655750103693,-0.017730681114881984,-0.011189687650836189,-0.7600976482507973
10548,6.0,300.65379,5645.099,0.0,0.0,0.0,0.0,0.0,-0.10512990749014206,-0.38347232263577163,-0.7406805440669783,-0.5918162813077195,0.02320022744618418,0.0001098564238544849,-0.7812634397221982
10549,6.0,300.25775,5372.6995,0.0,0.0,0.0,0.0,0.0,-0.10513987429972582,-0.37107140797439664,-0.7147959658198693,-0.5472991178992175,0.0014526641430417887,9.428397659835402e-05,-0.7735813624990362
10550,6.0,300.11553,5587.3148,0.0,0.0,0.0,0.0,0.0,-0.1051498411093097,-0.3966324351995736,-0.7304517741749773,-0.5713199847073924,0.027129116867935375,-0.012379371950998887,-0.7739409750920273
10551,6.0,298.81744,5579.4133,0.0,0.0,0.0,0.0,0.0,-0.10515980791889346,-0.37014308849777866,-0.7364111033131173,-0.5894481334390015,0.011666184722362789,-0.007707482544244304,-0.8020099381697182
10552,6.0,298.97738,5515.4705,0.0,0.0,0.0,0.0,0.0,-0.10516977472847733,-0.37734480411353266,-0.7146255270205484,-0.5845949694350314,0.003928753443587776,0.01221078131986029,-0.8095451447908852
10553,6.0,299.76925,5534.161,0.0,0.0,0.0,0.0,0.0,-0.10517974153806114,-0.3705619762216197,-0.7063449938908234,-0.6053397960198864,-0.018165246857520283,0.004771936911028505,-0.8096013092439283
10554,6.0,300.28305,5211.6212,0.0,0.0,0.0,0.0,0.0,-0.10518970834764496,-0.34902922609400266,-0.6944736949242174,-0.5406997997329155,-0.01894123026110388,0.0016216910796734484,-0.8322454123462272
10555,6.0,300.77305,5136.0936,0.0,0.0,0.0,0.0,0.0,-0.10519967515722878,-0.35466832767053863,-0.6777446419306884,-0.5288312365415795,0.0011952736916893288,0.006543495685167744,-0.8237627560865542
10556,6.0,300.72878,5678.8599,0.0,0.0,0.0,0.0,0.0,-0.1052096419668126,-0.39673709380240263,-0.7406377646477563,-0.5888567500181364,0.011048569269658888,0.0024799906174060174,-0.8401630702176393
10557,6.0,300.03862000000004,5707.0377,0.0,0.0,0.0,0.0,0.0,-0.10521960877639641,-0.38708837919514866,-0.7386147601606012,-0.6090938065803785,0.011848743006129887,-0.008827939064449753,-0.8071409252186073
10558,6.0,299.44813,5246.0987,0.0,0.0,0.0,0.0,0.0,-0.10522957558598023,-0.33693765668815767,-0.7016063575456564,-0.5561389954816455,0.003052909277723687,-0.008249260583938633,-0.7916860443583293
10559,6.0,300.23921,5312.1655,0.0,0.0,0.0,0.0,0.0,-0.10523954239556405,-0.3317328645019847,-0.7212898249157633,-0.5617429778097155,-0.004438131392784466,-0.026999229350866478,-0.7872669262996962
10560,6.0,299.04048,5531.9869,0.0,0.0,0.0,0.0,0.0,-0.10524950920514792,-0.3894129674420676,-0.7161656367750453,-0.5760072695374915,0.003883061639603346,0.00979848786681046,-0.7619100284396653
10561,6.0,298.15926,5439.3504,0.0,0.0,0.0,0.0,0.0,-0.10525947601473168,-0.37393209671672467,-0.7182071533415273,-0.5612874509622585,-0.0007384706455988783,-0.0036730659616783868,-0.8062316548438692
10562,6.0,299.00916,5509.1036,0.0,0.0,0.0,0.0,0.0,-0.10526944282431555,-0.35673146699415464,-0.7363609373006663,-0.5815375176557844,-0.0013950843822591085,0.01207414859687569,-0.7876150587690542
10563,6.0,298.97854,5520.5979,0.0,0.0,0.0,0.0,0.0,-0.10527940963389931,-0.3680950668656547,-0.7236789774590543,-0.5863498780782275,-0.01035465709767509,-0.0039043400943533663,-0.8031394485861922
10564,6.0,298.77859,5441.9819,0.0,0.0,0.0,0.0,0.0,-0.10528937644348313,-0.36316801666439263,-0.7123880276197243,-0.5786705568953374,0.016226292479410386,-0.002022244042954948,-0.7987245659129772
10565,6.0,299.72209,5681.3699,0.0,0.0,0.0,0.0,0.0,-0.105299343253067,-0.3828054115524526,-0.7236752993611913,-0.6205138647474504,0.022561531325149778,-0.004353630488769876,-0.8378966729239632
10566,6.0,299.70461,5688.2063,0.0,0.0,0.0,0.0,0.0,-0.10530931006265082,-0.4413785829981746,-0.6985318426347253,-0.5891622449232864,0.023150867980812773,0.009366420596268741,-0.7979273306017962
10567,6.0,299.85496,5295.1242,0.0,0.0,0.0,0.0,0.0,-0.10531927687223464,-0.3604032117790276,-0.7074368012710763,-0.5417455042336184,-0.014085410528621787,0.007366493285441283,-0.8503051362985831
10568,6.0,300.27643,5162.6942,0.0,0.0,0.0,0.0,0.0,-0.10532924368181845,-0.3241383726174667,-0.6942226622119424,-0.5509690996289165,-0.038384092275714966,0.019899131574391382,-0.8174212796731992
10569,6.0,300.0763,5490.3809,0.0,0.0,0.0,0.0,0.0,-0.10533921049140221,-0.37226220988941966,-0.7292038958818213,-0.5674725930176845,-0.028904677574669572,0.006820341349040284,-0.8088859749383303
10570,6.0,299.83356000000003,5742.8362,0.0,0.0,0.0,0.0,0.0,-0.10534917730098609,-0.35784866642191365,-0.7696594665294753,-0.6181706934936975,-0.008811755028552512,0.004026562881040817,-0.7700278640008333
10571,6.0,300.27767,5453.9394,0.0,0.0,0.0,0.0,0.0,-0.1053591441105699,-0.33487655399724264,-0.7431269655059213,-0.5798578732300165,0.0025889357747830672,-0.01769876576323218,-0.8057907491953552
10572,6.0,300.65553,5407.0191,0.0,0.0,0.0,0.0,0.0,-0.10536911092015372,-0.35381028722085667,-0.7239588371366743,-0.5658296789080414,0.018766973535406083,-0.015512136583678686,-0.8011647761288072
10573,6.0,301.34087999999997,5527.9621,0.0,0.0,0.0,0.0,0.0,-0.10537907772973754,-0.38293806625554466,-0.7206914500692083,-0.5767329288616084,0.02108460278063828,-0.012521627198788387,-0.8330017427508712
10574,6.0,300.50942000000003,5348.8343,0.0,0.0,0.0,0.0,0.0,-0.10538904453932135,-0.3525896045603847,-0.7046262684086982,-0.5686961837059434,0.014075332743127188,0.021880323282919778,-0.8472420407162793
10575,6.0,299.67546,5477.7508,0.0,0.0,0.0,0.0,0.0,-0.10539901134890522,-0.38391411994437363,-0.7157060974571923,-0.5654792362284554,0.0003712615848856656,-0.003281860331894397,-0.8290559036814472
10576,6.0,299.24728999999996,5503.9221,0.0,0.0,0.0,0.0,0.0,-0.10540897815848899,-0.36323863006386164,-0.6861033169081253,-0.6237129486256754,-0.0034442103556670965,-0.0003500618900659187,-0.8280101789157422
10577,6.0,299.14227,5237.3583,0.0,0.0,0.0,0.0,0.0,-0.10541894496807286,-0.36703644342617664,-0.6723278778235954,-0.5526618149809744,-0.026909319616493076,-0.02340848884523798,-0.7927422461300683
10578,6.0,299.90828999999997,5454.5526,0.0,0.0,0.0,0.0,0.0,-0.10542891177765668,-0.39434806284912366,-0.7023380254428663,-0.5613617019295865,0.004134241779767896,0.0012126548825797188,-0.7977454319438443
10579,6.0,299.27079,5869.7542,0.0,0.0,0.0,0.0,0.0,-0.10543887858724044,-0.4268072460925956,-0.7469350937542543,-0.6105163894557764,0.004016681564740606,-0.012618699598118687,-0.7757758899631193
10580,6.0,299.51541000000003,5666.8624,0.0,0.0,0.0,0.0,0.0,-0.10544884539682431,-0.39792224178186764,-0.7406958644084903,-0.5839665517230115,0.010153764053348491,0.014672283973291686,-0.7869692334203162
10581,6.0,299.99201,5482.4703,0.0,0.0,0.0,0.0,0.0,-0.10545881220640813,-0.3560104686204976,-0.7213006464268313,-0.5892229487367775,-5.132188054232526e-05,0.02404866735116868,-0.7769409147955982
10582,6.0,300.20662999999996,5573.4975,0.0,0.0,0.0,0.0,0.0,-0.10546877901599194,-0.37286563072147266,-0.7307009627720703,-0.5906374965388824,0.012992928323802187,0.01905856056968348,-0.7602227947706484
10583,6.0,299.77605,5466.741999999999,0.0,0.0,0.0,0.0,0.0,-0.10547874582557576,-0.37073348906604664,-0.7160502985161623,-0.5749692860025505,0.019948529543266584,-0.005981254755728884,-0.7950477650101052
10584,6.0,299.6956,5257.6487,0.0,0.0,0.0,0.0,0.0,-0.10548871263515958,-0.35060010825403665,-0.6860403434144103,-0.5615534797760134,0.005424337847615464,-0.016652860639009382,-0.8210352793348732
10585,6.0,299.35853,5328.4253,0.0,0.0,0.0,0.0,0.0,-0.10549867944474339,-0.3529347378094467,-0.7002657871333523,-0.5665077154774585,-0.020044396174977882,-0.04379885420061036,-0.8521463941153011
10586,6.0,299.21879,5304.473000000001,0.0,0.0,0.0,0.0,0.0,-0.10550864625432721,-0.36809455010810366,-0.7049997017330534,-0.5393330976005325,-0.006950135951075013,-0.026901898572760676,-0.8404970475831003
10587,6.0,299.44062,5386.0547,0.0,0.0,0.0,0.0,0.0,-0.10551861306391108,-0.36375628940745064,-0.7123373144522193,-0.5611325250219684,0.01030500480302479,-0.008948553519253472,-0.8382369729700482
10588,6.0,298.77827,5585.4652,0.0,0.0,0.0,0.0,0.0,-0.10552857987349484,-0.36469645377773763,-0.7337790949858584,-0.5993664029703584,0.026755647066576776,0.004881240454965925,-0.8126167314090272
10589,6.0,299.61338,5570.052,0.0,0.0,0.0,0.0,0.0,-0.10553854668307866,-0.3988838262592686,-0.7248006858497583,-0.5694722116925315,0.009447562880176862,0.0028069864870279974,-0.7835043639083603
10590,6.0,299.72251,5301.3834,0.0,0.0,0.0,0.0,0.0,-0.10554851349266248,-0.3263232336755957,-0.7202004493357503,-0.5649644849126535,-0.01926386327844528,0.004382157836060305,-0.8002995416034152
10591,6.0,299.17482,5407.3743,0.0,0.0,0.0,0.0,0.0,-0.1055584803022463,-0.36027532948390667,-0.7317368184818013,-0.5516946373630215,-0.0016943332084926683,0.003242494349609277,-0.7845872546877333
10592,6.0,300.32636,5611.8465,0.0,0.0,0.0,0.0,0.0,-0.10556844711183017,-0.3911682205902976,-0.7340177356494103,-0.5806752418206845,-0.025147782291142878,0.027433258070951774,-0.8207752388292091
10593,6.0,300.0723,5365.0414,0.0,0.0,0.0,0.0,0.0,-0.10557841392141398,-0.36290579767101366,-0.7037507899247953,-0.5641820329204315,-0.0020127551584184678,7.894362846312953e-05,-0.8028268811953442
10594,6.0,300.12405,5292.2732,0.0,0.0,0.0,0.0,0.0,-0.1055883807309978,-0.33834602366465266,-0.6995028604705573,-0.5708700206029844,-0.04065627016121146,0.001237023851459749,-0.8217711826175013
10595,6.0,300.53747000000004,5528.0806,0.0,0.0,0.0,0.0,0.0,-0.10559834754058162,-0.39716191917182964,-0.6913438362928244,-0.5918927208952635,0.012426220582622488,0.0011225029814324189,-0.7903746048864002
10596,6.0,300.09522999999996,5593.7924,0.0,0.0,0.0,0.0,0.0,-0.10560831435016543,-0.37466531488658766,-0.7184761205805723,-0.6072317670041094,0.010696572264419491,-0.007986449852501232,-0.8304798341794781
10597,6.0,298.85136,5607.9702,0.0,0.0,0.0,0.0,0.0,-0.10561828115974925,-0.4079700452060086,-0.7154652783059253,-0.5812475862721704,0.033414801704284174,-0.007865448741459353,-0.8162159376192413
10598,6.0,299.89078,5804.8876,0.0,0.0,0.0,0.0,0.0,-0.10562824796933307,-0.4322582479205676,-0.7345005999845653,-0.5977820243189924,-0.0025692937189445474,-0.016802173173745383,-0.7983829385092612
10599,6.0,299.07582,5549.5193,0.0,0.0,0.0,0.0,0.0,-0.10563821477891688,-0.40429476417828664,-0.7141724015758284,-0.5684481198164615,0.013947313659242688,-0.0015476071972869386,-0.7982719268283053
10600,6.0,298.94954,5327.0321,0.0,0.0,0.0,0.0,0.0,-0.1056481815885007,-0.3382071881359507,-0.7130049145456063,-0.5680726498594054,-0.018709947819778083,0.02282579505723058,-0.7872586581788803
10601,6.0,299.64536,5554.687,0.0,0.0,0.0,0.0,0.0,-0.10565814839808452,-0.36878491793123763,-0.7441960558189322,-0.5755051534504365,-0.005363292467515755,0.002611365585621718,-0.8061860484568683
10602,6.0,299.63313999999997,5544.6638,0.0,0.0,0.0,0.0,0.0,-0.10566811520766839,-0.3389948482336867,-0.7508876304068393,-0.5955568561718855,-0.044097656588849864,0.016210513135603084,-0.7854502499304042
10603,6.0,300.02529,5336.2162,0.0,0.0,0.0,0.0,0.0,-0.10567808201725215,-0.3312109292429737,-0.7522361852299313,-0.5386293548760784,-0.008597450403252292,0.032344842022687365,-0.8543670026369582
10604,6.0,299.60872,5353.8098,0.0,0.0,0.0,0.0,0.0,-0.10568804882683597,-0.34123633983990465,-0.7239101403368683,-0.5622779941275174,-0.009303886751772131,0.028704935582456573,-0.8210862052848992
10605,6.0,300.18057999999996,5365.0039,0.0,0.0,0.0,0.0,0.0,-0.10569801563641984,-0.3885665287060306,-0.6985682689758203,-0.5436924237707645,0.0015438034564115386,-7.309402316506843e-05,-0.8370906729994173
10606,6.0,299.90592000000004,5248.8022,0.0,0.0,0.0,0.0,0.0,-0.1057079824460036,-0.36092772069329265,-0.6883236011897503,-0.5462534640610195,-0.0013750852570853487,-0.03580728682715407,-0.8120145872721003
10607,6.0,300.06984,5508.8363,0.0,0.0,0.0,0.0,0.0,-0.10571794925558747,-0.38395823685372765,-0.6996136796339943,-0.5909767630698655,0.009486153624810471,-0.020560413040154782,-0.8211808732417422
10608,6.0,299.34715,5646.3738,0.0,0.0,0.0,0.0,0.0,-0.10572791606517129,-0.36442735481617966,-0.7398613718911323,-0.6120679286714014,0.0036811942539805866,0.007436351610935763,-0.8155540623889193
10609,6.0,298.94436,5561.4563,0.0,0.0,0.0,0.0,0.0,-0.10573788287475505,-0.37471265393125963,-0.7227190851093203,-0.5931121167281085,0.009626504671687042,0.004682031736280555,-0.8120423604573412
10610,6.0,299.22431,5671.7329,0.0,0.0,0.0,0.0,0.0,-0.10574784968433892,-0.4122172755176776,-0.7159491660236813,-0.5958987470206274,0.018662375727583082,-0.0025732907879390276,-0.8075770280616472
10611,6.0,299.48686000000004,5719.9447,0.0,0.0,0.0,0.0,0.0,-0.10575781649392274,-0.4407355947497166,-0.7182851128042214,-0.5796996542269014,0.02182652578211038,-0.017513603426708085,-0.7779392194566233
10612,6.0,298.91677999999996,5373.5784,0.0,0.0,0.0,0.0,0.0,-0.10576778330350656,-0.3584101285673256,-0.7047647695648673,-0.5702587774801594,0.004900234740015516,0.0005737283586050804,-0.7905206952858183
10613,6.0,298.81236,5346.0583,0.0,0.0,0.0,0.0,0.0,-0.10577775011309037,-0.34019743424737264,-0.7190719926993804,-0.5657988051774945,-0.01228912379109209,-0.005146818372426425,-0.7976806345999492
10614,6.0,299.59578,5636.8886,0.0,0.0,0.0,0.0,0.0,-0.10578771692267419,-0.35384907443468466,-0.7319521949230573,-0.6276721220664154,-0.010728047865525888,-0.010316708854929892,-0.7878427259340233
10615,6.0,299.97038,5498.6239,0.0,0.0,0.0,0.0,0.0,-0.10579768373225806,-0.37472665704764163,-0.7127943105123213,-0.5839233974012524,-0.027695621959095074,-0.0035532074927742767,-0.8046398186717673
10616,6.0,300.15147,5348.2498,0.0,0.0,0.0,0.0,0.0,-0.10580765054184182,-0.3501345198330867,-0.7157460195111324,-0.5598538439257724,-0.012142139705085887,0.03463870346032387,-0.8251148978150002
10617,6.0,299.26814,5486.4439,0.0,0.0,0.0,0.0,0.0,-0.1058176173514257,-0.4105889826069776,-0.6926205010213213,-0.5645324654675165,-0.027683785171426875,0.007284382131787543,-0.8112106543777582
10618,6.0,299.83715,5691.8303,0.0,0.0,0.0,0.0,0.0,-0.10582758416100946,-0.4250132259955396,-0.7204842708212613,-0.5846767995131075,0.01000232561857768,-0.01055606993930299,-0.7988434708122123
10619,6.0,300.32245,5611.2848,0.0,0.0,0.0,0.0,0.0,-0.10583755097059327,-0.38339038110018464,-0.7412365346618502,-0.5810635597890084,0.013013640169096287,-0.00961764227968739,-0.8307527429614121
10620,6.0,299.68075,5576.6617,0.0,0.0,0.0,0.0,0.0,-0.10584751778017715,-0.36961755620091263,-0.7348241915365014,-0.5907241699524365,0.03125636823526337,0.012287119582394288,-0.8005626826543852
10621,6.0,299.49532999999997,5556.3235,0.0,0.0,0.0,0.0,0.0,-0.10585748458976096,-0.3490957054330637,-0.7518529436446083,-0.5880349433920304,-0.005297874710584525,0.020800703274869582,-0.8217664507395341
10622,6.0,299.09514,5230.0539,0.0,0.0,0.0,0.0,0.0,-0.10586745139934478,-0.3545825053870687,-0.7083527894939773,-0.5268705165380715,0.003506174956257527,-0.014830737037179787,-0.8116143636151012
10623,6.0,298.81669,5365.9917,0.0,0.0,0.0,0.0,0.0,-0.1058774182089286,-0.35465301746152766,-0.7120901422228253,-0.5643843181703955,0.001956651095081428,-0.02029331727404448,-0.8147714077466772
10624,6.0,300.16117,5576.9426,0.0,0.0,0.0,0.0,0.0,-0.10588738501851236,-0.40478603848927164,-0.7331881472625363,-0.5572771083914685,0.0030541337904695367,-0.021981769882931778,-0.7875069956458892
10625,6.0,299.19959,5435.5481,0.0,0.0,0.0,0.0,0.0,-0.10589735182809623,-0.3279822077993237,-0.7206997891175313,-0.6035888998470864,0.013842467605145186,-0.01148931482465709,-0.8141106065614613
10626,6.0,300.2399,5553.0932,0.0,0.0,0.0,0.0,0.0,-0.10590731863768005,-0.3858363161790796,-0.7260298088835633,-0.5761355470001515,0.011697067572160689,-0.01049820018634169,-0.8065503929278262
10627,6.0,300.5878,5792.6575,0.0,0.0,0.0,0.0,0.0,-0.10591728544726392,-0.4230767935969286,-0.7261407293720104,-0.6116057042407834,0.01220818030685359,0.014383925153832884,-0.8093151370181851
10628,6.0,300.14465,5530.2569,0.0,0.0,0.0,0.0,0.0,-0.10592725225684768,-0.4030437144123176,-0.6998013740825183,-0.5782149287228704,0.0035505897611409266,0.03405325059229417,-0.7951980299999353
10629,6.0,299.80701,5244.6427,0.0,0.0,0.0,0.0,0.0,-0.1059372190664315,-0.37879227241138663,-0.7007924846678334,-0.5146556548600585,-0.003364077167533567,0.042302652625946756,-0.8202650370063562
10630,6.0,300.73984,5555.9494,0.0,0.0,0.0,0.0,0.0,-0.10594718587601532,-0.39786106174082964,-0.7018473084194363,-0.5891615255157154,-0.04354612226791766,0.007025541415566952,-0.7822889400159072
10631,6.0,299.82774,5602.2105,0.0,0.0,0.0,0.0,0.0,-0.10595715268559913,-0.4091100731585206,-0.7328485868890243,-0.5609734346237675,-0.024945437259422974,-0.02366440744949518,-0.8106731555972112
10632,6.0,300.26321,5540.6588,0.0,0.0,0.0,0.0,0.0,-0.105967119495183,-0.3791415093233536,-0.7239549057262863,-0.5811254896351205,-0.023550448223998276,-0.01914985541694358,-0.7973043945728172
10633,6.0,299.16276,5708.3682,0.0,0.0,0.0,0.0,0.0,-0.10597708630476682,-0.3923852656829106,-0.7454098281137223,-0.5974062909169104,0.033169733995347866,-0.01105800364133999,-0.8006158276221302
10634,6.0,299.03185,5667.547,0.0,0.0,0.0,0.0,0.0,-0.10598705311435058,-0.3790718483789786,-0.7402878285932203,-0.6034331025117103,0.012065000974972888,-0.03084235627090357,-0.7940298843571483
10635,6.0,299.75784,5551.1785,0.0,0.0,0.0,0.0,0.0,-0.10599701992393445,-0.37339655350887063,-0.7291186714159102,-0.5849044362805734,0.025280816963022375,-0.00875050466795757,-0.8084493958677432
10636,6.0,299.67165,5567.8159,0.0,0.0,0.0,0.0,0.0,-0.10600698673351822,-0.3722392901721576,-0.7161967942156203,-0.6040409309816984,-0.007789484165562232,0.003800364928716816,-0.7961957672409042
10637,6.0,299.50793999999996,5372.4991,0.0,0.0,0.0,0.0,0.0,-0.10601695354310209,-0.3385362309734247,-0.7196887681677513,-0.5748805860887964,0.029505358578452174,0.028062657622318677,-0.8126923806614933
10638,6.0,300.65269,5064.5258,0.0,0.0,0.0,0.0,0.0,-0.1060269203526859,-0.3220700758508417,-0.6764721517926033,-0.5409471442148265,-0.00991131559592069,-0.00802651588928044,-0.8091082617452682
10639,6.0,300.72503,5285.4374,0.0,0.0,0.0,0.0,0.0,-0.10603688716226972,-0.34543603858938265,-0.7046056183716604,-0.5565993453995784,-0.01832029033482188,-0.0011183415632717189,-0.8313943126597302
10640,6.0,300.27056,5624.6864,0.0,0.0,0.0,0.0,0.0,-0.10604685397185354,-0.4100564386194196,-0.7308819089749283,-0.5688258594537415,-0.0032297433063758468,0.016754709499311085,-0.7937327791628263
10641,6.0,300.96041,5652.5893,0.0,0.0,0.0,0.0,0.0,-0.10605682078143736,-0.3963768833918526,-0.7306138840584764,-0.5912552244623475,-0.002220421577013548,0.02982946283493877,-0.8210298483143372
10642,6.0,300.08177,5706.9128,0.0,0.0,0.0,0.0,0.0,-0.10606678759102123,-0.39574388578938063,-0.7586533311607543,-0.5803617726372474,0.02072630335977688,0.012249747878955988,-0.8216860594766002
10643,6.0,301.03103,5954.0689,0.0,0.0,0.0,0.0,0.0,-0.10607675440060499,-0.4450098484415526,-0.7529859193764242,-0.6118925046815884,-0.0033113179441016374,-0.006878250618755483,-0.8038820595844822
10644,6.0,300.57344,5705.4074,0.0,0.0,0.0,0.0,0.0,-0.1060867212101888,-0.4064499674059886,-0.7280286169583303,-0.5998228113454024,0.030802251831945574,0.0015363372217246784,-0.7962316565594463
10645,6.0,299.20743999999996,5271.0026,0.0,0.0,0.0,0.0,0.0,-0.10609668801977268,-0.34998453855328465,-0.7020963855590183,-0.5501722392202725,0.011645678566838989,-0.030889910124596767,-0.7990840062534512
10646,6.0,299.22577,5458.8282,0.0,0.0,0.0,0.0,0.0,-0.10610665482935644,-0.37936302606021566,-0.6840065782111933,-0.5959778514559344,0.016170048992859586,-0.03131590681113937,-0.7801040485602753
10647,6.0,299.75235,5484.1124,0.0,0.0,0.0,0.0,0.0,-0.10611662163894031,-0.37119299798639666,-0.7014918197543524,-0.5943484135726215,-0.027439638506831475,-0.02890180298413587,-0.7859663792663423
10648,6.0,298.53157000000004,5285.4736,0.0,0.0,0.0,0.0,0.0,-0.10612658844852413,-0.3458111944389077,-0.6978738076222823,-0.5629670041955175,-0.005892563961225785,0.025792334997755274,-0.8233758060058651
10649,6.0,299.26358,5590.0409,0.0,0.0,0.0,0.0,0.0,-0.10613655525810789,-0.3952340487365636,-0.7111662405166432,-0.5928325610255185,-0.044772913813242554,0.037089856777233865,-0.7983849042144553
10650,6.0,299.97746,5822.802,0.0,0.0,0.0,0.0,0.0,-0.10614652206769176,-0.4156130920353186,-0.7624871756966253,-0.5918861449021144,-0.009108418547155921,0.008004810045638243,-0.8551991646790862
10651,6.0,300.35656,5626.897,0.0,0.0,0.0,0.0,0.0,-0.10615648887727558,-0.3874042903113266,-0.7301425707744613,-0.5928893232961204,-0.016267617884738884,0.009832377840255141,-0.8228406478330492
10652,6.0,300.22458,5584.9135,0.0,0.0,0.0,0.0,0.0,-0.1061664556868594,-0.4060086767224366,-0.7323640101612003,-0.5593015516937654,0.015121239893850185,0.02246947147406418,-0.8334727520598562
10653,6.0,300.75731,5604.0219,0.0,0.0,0.0,0.0,0.0,-0.10617642249644321,-0.35702692059081365,-0.7405826134448132,-0.6058732012700295,-0.008008223685225142,-0.014572676422211188,-0.7924735929985542
10654,6.0,299.77089,5273.3876,0.0,0.0,0.0,0.0,0.0,-0.10618638930602703,-0.3289825186955467,-0.7078811621024313,-0.5661144731136484,-0.017444337649872084,-0.019032421756853782,-0.8187626809505852
10655,6.0,300.99655,5433.3256,0.0,0.0,0.0,0.0,0.0,-0.1061963561156109,-0.35592494017955667,-0.7225246525476313,-0.5731457195325784,-0.001106516833279709,0.005355340379405944,-0.8198686029047313
10656,6.0,299.6142,5642.9498,0.0,0.0,0.0,0.0,0.0,-0.10620632292519466,-0.4219010283133896,-0.7136820493224343,-0.5797327672401694,0.04681285173606875,0.02370804813130218,-0.8076785759866691
10657,6.0,299.98246,5404.4519,0.0,0.0,0.0,0.0,0.0,-0.10621628973477854,-0.35008419170061966,-0.7186791049731053,-0.5740551317623305,0.018051783111322283,-0.00024397291246825177,-0.8200936862819452
10658,6.0,298.77217,5485.6326,0.0,0.0,0.0,0.0,0.0,-0.1062262565443623,-0.36915436918269967,-0.7295418249226724,-0.5687991400486044,0.019423952741244883,-0.04096537122346736,-0.8152217264886202
10659,6.0,299.84539,6019.4644,0.0,0.0,0.0,0.0,0.0,-0.10623622335394611,-0.4038172194061566,-0.7554146089386172,-0.6705350432291564,0.004802092449904626,-0.03581232673315147,-0.8068943204092692
10660,6.0,299.20766000000003,5729.2358,0.0,0.0,0.0,0.0,0.0,-0.10624619016352999,-0.39948478489357864,-0.7386076167473963,-0.6034522225410974,0.004189966786242527,0.0022742495766509578,-0.8083963420925072
10661,6.0,300.81834,5262.7851,0.0,0.0,0.0,0.0,0.0,-0.1062561569731138,-0.37552377076881066,-0.6645334311643434,-0.5596980364578955,-0.01078358106375659,0.012477759548958987,-0.8223887180234472
10662,6.0,300.40198,5498.5208,0.0,0.0,0.0,0.0,0.0,-0.10626612378269762,-0.3984440149208626,-0.7076392182435534,-0.5653297919712065,-0.04039731585965466,0.013755301752042589,-0.8101365180792492
10663,6.0,300.77903,5707.8705,0.0,0.0,0.0,0.0,0.0,-0.10627609059228144,-0.41989852187575755,-0.7290640065730153,-0.5860875780248405,-0.014463316338918186,0.03684544970736277,-0.7906865440621863
10664,6.0,299.83887000000004,5488.9892,0.0,0.0,0.0,0.0,0.0,-0.1062860574018652,-0.3646560149662466,-0.7079306391048144,-0.5959289925361124,-0.007045254905537524,0.017728956563211783,-0.8053217258565661
10665,6.0,300.12172999999996,5460.8056,0.0,0.0,0.0,0.0,0.0,-0.10629602421144907,-0.34827392920446065,-0.7214591187424713,-0.5902154778722324,0.004339297052855276,-0.00909786250761412,-0.7767572936124763
10666,6.0,299.7939,5467.0736,0.0,0.0,0.0,0.0,0.0,-0.10630599102103289,-0.3356847324095037,-0.7234176703907653,-0.6027514587719375,-0.02000003608559988,-0.05334752353274066,-0.8161695814271662
10667,6.0,299.07476,5507.4207,0.0,0.0,0.0,0.0,0.0,-0.1063159578306167,-0.3754410490306466,-0.7259827231514163,-0.5726946003230564,0.015510465734263785,-0.0051656555023855055,-0.8139801404785851
10668,6.0,299.00504,5732.7187,0.0,0.0,0.0,0.0,0.0,-0.10632592464020052,-0.3986858270572276,-0.7548869792140442,-0.5890305224102864,0.002939148345271357,0.01996791099117938,-0.859445705980687
10669,6.0,299.25046000000003,5748.4842,0.0,0.0,0.0,0.0,0.0,-0.10633589144978434,-0.4223261171278426,-0.7294165365478074,-0.5956530136063755,0.017290084507648483,0.017978925362881783,-0.8245990825865932
10670,6.0,299.9768,5277.0492,0.0,0.0,0.0,0.0,0.0,-0.10634585825936815,-0.3373615194699897,-0.7096834300553013,-0.5570462596211855,-0.01953459762566468,-0.0053153248024817145,-0.8348492624532071
10671,6.0,300.52192,5317.8371,0.0,0.0,0.0,0.0,0.0,-0.10635582506895197,-0.3384497196798867,-0.7088295540635303,-0.5692104283966954,0.003981447920338317,-0.008458075521522062,-0.8217917414620302
10672,6.0,299.55844,5809.8126,0.0,0.0,0.0,0.0,0.0,-0.10636579187853584,-0.4152488894193746,-0.7384281194921813,-0.6123609403353193,-0.006070787865040114,-0.0030396205026621873,-0.7969097539238692
10673,6.0,299.90616,5730.6012,0.0,0.0,0.0,0.0,0.0,-0.10637575868811966,-0.4240024178282806,-0.7355054401087353,-0.5824518036185174,0.015648590974645684,-0.007035029692153374,-0.8233865869869292
10674,6.0,300.5111,5501.829000000001,0.0,0.0,0.0,0.0,0.0,-0.10638572549770342,-0.3786105358734506,-0.7283078585533893,-0.5655002307705275,-0.0008419070154947532,-0.012745798650912387,-0.8061105207944143
10675,6.0,300.20724,5668.8364,0.0,0.0,0.0,0.0,0.0,-0.10639569230728729,-0.3764096958612446,-0.7460079496477523,-0.6007670692460935,-0.004963842933593155,0.015519415772397087,-0.8028833698884192
10676,6.0,299.36332000000004,5777.5855,0.0,0.0,0.0,0.0,0.0,-0.10640565911687105,-0.39352742146063263,-0.7595256888343493,-0.6031886153950814,-0.011636358692419189,0.021674335617090378,-0.7865399902804533
10677,6.0,299.55437,5752.7424,0.0,0.0,0.0,0.0,0.0,-0.10641562592645493,-0.37051586320956864,-0.7403336578952433,-0.6378405225174584,-0.013166258938908588,0.001758004426226528,-0.7894788006054912
10678,6.0,299.66059,5789.4931,0.0,0.0,0.0,0.0,0.0,-0.10642559273603874,-0.4168425899716606,-0.7391520968211323,-0.6038666620969994,0.013386506073395288,-0.026426872740379276,-0.7911994816603093
10679,6.0,300.65949,5561.5805,0.0,0.0,0.0,0.0,0.0,-0.10643555954562256,-0.41559192524072963,-0.6837267185335734,-0.5912629454281094,0.014993885502031285,-0.024151463600313876,-0.7830603678470412
10680,6.0,299.96437000000003,5432.6279,0.0,0.0,0.0,0.0,0.0,-0.10644552635520638,-0.3954039201158286,-0.7135925185435984,-0.5423868003544094,0.04156956617859676,0.00983267320265929,-0.8291103050793163
10681,6.0,299.24679,5700.2338,0.0,0.0,0.0,0.0,0.0,-0.1064554931647902,-0.43719472134775955,-0.7233741816964733,-0.5721598271852785,-0.006882556121080404,0.016580998915417183,-0.8268346872097302
10682,6.0,298.21854,5783.9036,0.0,0.0,0.0,0.0,0.0,-0.10646545997437407,-0.4040143776106146,-0.7425453396835193,-0.6116025732979744,0.025340486248161275,0.028971679750782173,-0.8302878840805342
10683,6.0,298.75441,5241.1955,0.0,0.0,0.0,0.0,0.0,-0.10647542678395783,-0.34706321692497266,-0.6913015634986523,-0.5548277890572395,-0.04066048426837736,0.021084162016844783,-0.8189532023668882
10684,6.0,297.79601,5179.0387,0.0,0.0,0.0,0.0,0.0,-0.10648539359354164,-0.3252661301112677,-0.7012991401153363,-0.5477331638445545,0.010365325607977989,0.003307375691937567,-0.8293921304621302
10685,6.0,299.67196,5645.8062,0.0,0.0,0.0,0.0,0.0,-0.10649536040312546,-0.3971472067803776,-0.7295474889907313,-0.5894894132480755,-0.03360530589533547,-0.029465994825317268,-0.8058395169226682
10686,6.0,299.89119,5526.5712,0.0,0.0,0.0,0.0,0.0,-0.10650532721270928,-0.34608149916808467,-0.7324588301055583,-0.6013993271759924,0.02460780307435108,-0.015257434892791586,-0.8124108187237052
10687,6.0,300.88863,5329.1201,0.0,0.0,0.0,0.0,0.0,-0.10651529402229315,-0.35193379869816166,-0.6984124108454383,-0.5695732529925035,-0.00014775919193519687,-0.0006072234380882874,-0.8136789214888572
10688,6.0,300.1522,5579.3895,0.0,0.0,0.0,0.0,0.0,-0.10652526083187697,-0.35883966554971763,-0.7361446286693183,-0.6010107761601454,0.015853436707612384,0.038035823017593465,-0.8021782288788273
10689,6.0,300.39275,5557.9231,0.0,0.0,0.0,0.0,0.0,-0.10653522764146073,-0.38460950335550265,-0.7182916583998673,-0.5865686793048215,-0.011594239912262388,0.035459421855822466,-0.8223980196593652
10690,6.0,299.47366,5582.1764,0.0,0.0,0.0,0.0,0.0,-0.1065451944510446,-0.39019596658934363,-0.7194926130808923,-0.5871536589850544,0.002615747892304218,0.0006097851471236085,-0.8105096271635722
10691,6.0,301.21821,5864.3368,0.0,0.0,0.0,0.0,0.0,-0.10655516126062842,-0.4365656044931706,-0.7367644337554883,-0.6092819063289424,0.018028391219513683,-0.01872947821545558,-0.8269239849410432
10692,6.0,300.24187,5558.1247,0.0,0.0,0.0,0.0,0.0,-0.10656512807021223,-0.4043305217743156,-0.7086248876758313,-0.5765757231085935,0.022832839171925776,-0.033021909925008766,-0.8228845722248842
10693,6.0,301.02335,5209.9689,0.0,0.0,0.0,0.0,0.0,-0.10657509487979605,-0.3351373443079807,-0.7203266192382023,-0.5282364688653804,0.02710449793025568,-0.02344124316797058,-0.8525100597086922
10694,6.0,300.18183999999997,5379.8484,0.0,0.0,0.0,0.0,0.0,-0.10658506168937987,-0.3485912588707787,-0.7125616480243593,-0.5741866617578115,-0.00976357147101448,-0.01139598942419659,-0.8367050806738622
10695,6.0,299.12396,5804.7903,0.0,0.0,0.0,0.0,0.0,-0.10659502849896368,-0.4089199975722616,-0.7386738731714353,-0.6169174247100094,-0.02465719293722548,0.02118902225644368,-0.7915541698578142
10696,6.0,299.20106,5540.5089,0.0,0.0,0.0,0.0,0.0,-0.1066049953085475,-0.38189296970490166,-0.7196291991943723,-0.5826542003259925,-0.02276265032424868,0.026828430847759977,-0.7838181877293322
10697,6.0,300.28645,5397.3264,0.0,0.0,0.0,0.0,0.0,-0.10661496211813132,-0.3510035236488507,-0.7161283187738623,-0.5735206018045764,-0.010919605836681189,0.026202469253982372,-0.8032944251889872
10698,6.0,299.49365,5653.0115,0.0,0.0,0.0,0.0,0.0,-0.10662492892771513,-0.37195972433706664,-0.7341211276896144,-0.6122934781436614,-0.015401825058541785,-0.0028557249314131073,-0.8037153900755332
10699,6.0,300.42717999999996,5777.5925,0.0,0.0,0.0,0.0,0.0,-0.10663489573729895,-0.4162985962579726,-0.7290074976149383,-0.6109377596423624,0.007242722151276023,-0.016053707616377585,-0.8173856436671822
10700,6.0,300.46664,5720.0453,0.0,0.0,0.0,0.0,0.0,-0.10664486254688282,-0.36909614783195366,-0.7418439882293013,-0.6278107853426005,0.0013766011805599586,0.004054991031146456,-0.8344419967080132
10701,6.0,300.79597,5541.6151,0.0,0.0,0.0,0.0,0.0,-0.10665482935646664,-0.40851888225517463,-0.7179154183727353,-0.5580783257755424,0.007643920858846253,0.009898853328965762,-0.8210332629671742
10702,6.0,301.36415,5237.9248,0.0,0.0,0.0,0.0,0.0,-0.10666479616605046,-0.3400356688689077,-0.6984757795066923,-0.5536869099746434,-0.006349022796124764,0.023106036730138276,-0.8269541899265243
10703,6.0,301.63322999999997,5338.0762,0.0,0.0,0.0,0.0,0.0,-0.10667476297563422,-0.36266621468486865,-0.7086698962452733,-0.5513057621071424,0.0002464833510485128,0.031107833876604173,-0.8429377745564811
10704,6.0,301.72737,5752.1907,0.0,0.0,0.0,0.0,0.0,-0.10668472978521804,-0.4017398641836376,-0.7332830887969063,-0.6134993876176754,-0.013728503313397786,-0.0015673476397101687,-0.8277541812779773
10705,6.0,300.5225,5716.5415,0.0,0.0,0.0,0.0,0.0,-0.10669469659480191,-0.3925776717443996,-0.7505868167171512,-0.5945213753646914,0.013859874228613088,-0.025365413213871372,-0.8292497688230802
10706,6.0,299.78681,5342.6083,0.0,0.0,0.0,0.0,0.0,-0.10670466340438572,-0.3135993455448457,-0.7220348981117963,-0.5883852746141055,-0.008474662121684034,-0.02059108817368218,-0.8195677588175402
10707,6.0,299.5799,5505.8978,0.0,0.0,0.0,0.0,0.0,-0.10671463021396954,-0.3855426459025966,-0.7043149675804753,-0.5837978557138624,0.006194840480083155,0.0006909815689845714,-0.7899305581625763
10708,6.0,299.07313999999997,5991.3595,0.0,0.0,0.0,0.0,0.0,-0.10672459702355336,-0.42285710071024657,-0.7696242054259952,-0.6287423776170414,-0.01129672739140019,-0.0021012586029780776,-0.7740721909799773
10709,6.0,300.05677000000003,5760.763000000001,0.0,0.0,0.0,0.0,0.0,-0.10673456383313717,-0.40420447346187566,-0.7473746213826322,-0.5995490210358815,0.016985339407572485,-0.00887148034642194,-0.8091851775603592
10710,6.0,300.84116,5529.2765,0.0,0.0,0.0,0.0,0.0,-0.10674453064272099,-0.35372988582542164,-0.7292391164552974,-0.5977929775525734,0.01217766121384159,-0.033567893661893174,-0.7945466013781443
10711,6.0,300.21977999999996,5484.3483,0.0,0.0,0.0,0.0,0.0,-0.10675449745230481,-0.3764040419256866,-0.7263620839888563,-0.5643387928434025,0.037475709508064566,-0.025576600879213977,-0.8388910360420991
10712,6.0,300.40923,5554.6405,0.0,0.0,0.0,0.0,0.0,-0.10676446426188868,-0.3797455786354706,-0.7055213938120404,-0.6032050401792024,-0.005585933304038694,-0.005957005451685665,-0.8105501267700692
10713,6.0,300.81617,5858.2023,0.0,0.0,0.0,0.0,0.0,-0.10677443107147244,-0.4349481736235426,-0.7625665638419603,-0.5832324722905635,-0.02319215994888798,0.0037623052284606164,-0.8462305232739502
10714,6.0,300.58091,5822.6112,0.0,0.0,0.0,0.0,0.0,-0.10678439788105626,-0.40836487837247565,-0.7241762299456294,-0.6373873160127305,-0.025430788110323375,0.04261938346145566,-0.7893350001512992
10715,6.0,301.48104,5491.3397,0.0,0.0,0.0,0.0,0.0,-0.10679436469064013,-0.38503382209987963,-0.7265792944127933,-0.5576170436675175,-0.024686753495642876,0.051657692903717356,-0.8166681511388713
10716,6.0,301.14361,5404.6568,0.0,0.0,0.0,0.0,0.0,-0.10680433150022389,-0.3411693842732966,-0.7158344053173553,-0.5858769233290504,-0.009571966687704561,0.03284759949705567,-0.7922621277026842
10717,6.0,300.21527000000003,5799.9915,0.0,0.0,0.0,0.0,0.0,-0.10681429830980776,-0.3987231450584106,-0.7421404854735633,-0.6221889495477684,-0.018133599003896883,-0.020512039467130677,-0.8064396244268943
10718,6.0,300.92062999999996,5952.5228,0.0,0.0,0.0,0.0,0.0,-0.10682426511939158,-0.40248576824475263,-0.7729043493122203,-0.6340281690162084,0.023089557230511877,-0.037902156077651565,-0.7774210940179882
10719,6.0,300.89262,5543.2877,0.0,0.0,0.0,0.0,0.0,-0.1068342319289754,-0.41721832337374265,-0.7067140094447423,-0.5610887222201455,0.02063094740611598,-0.016743185805923783,-0.8062875355868843
10720,6.0,300.30015,5463.6423,0.0,0.0,0.0,0.0,0.0,-0.10684419873855922,-0.3711580509904477,-0.7200502350084254,-0.5696025460528944,0.034190006931790966,0.006643846252546572,-0.8206783113246432
10721,6.0,299.98559,5636.4788,0.0,0.0,0.0,0.0,0.0,-0.10685416554814298,-0.4195633590076796,-0.7418861596984633,-0.5518992936182194,-0.0021741290170448277,0.005209350697047885,-0.8423580333792653
10722,6.0,299.29589,5583.9032,0.0,0.0,0.0,0.0,0.0,-0.1068641323577269,-0.3457217751175827,-0.7403033617172533,-0.6113419957697575,0.0070780563443997736,0.018211361896071483,-0.8517599810571652
10723,6.0,299.17617,5600.4183,0.0,0.0,0.0,0.0,0.0,-0.10687409916731067,-0.38405764682103866,-0.7620406465100562,-0.5562890172914514,-0.0025943436932167876,0.020842190800214083,-0.8344071409045731
10724,6.0,300.04166000000004,5466.8475,0.0,0.0,0.0,0.0,0.0,-0.10688406597689448,-0.37831471750675566,-0.7084700022655454,-0.5750004231781234,0.02030246590919738,0.009119772521151471,-0.8261122297559292
10725,6.0,300.13276,5112.3814,0.0,0.0,0.0,0.0,0.0,-0.1068940327864783,-0.36960279314695565,-0.6791175552861843,-0.5053159308707995,-0.014075131106357287,0.003559984413418106,-0.8278568336456082
10726,6.0,300.67599,5438.955,0.0,0.0,0.0,0.0,0.0,-0.10690399959606212,-0.36109246502705167,-0.7331933857655534,-0.5590206686335445,-0.015346186482300687,-0.0012680399436457988,-0.8128915248361472
10727,6.0,301.02747999999997,5912.1302,0.0,0.0,0.0,0.0,0.0,-0.10691396640564599,-0.42926803541795655,-0.7479230227342553,-0.6199488866241915,-0.007678000715359673,-0.00037543462502501266,-0.7931352047838502
10728,6.0,301.014,5693.6058,0.0,0.0,0.0,0.0,0.0,-0.1069239332152298,-0.36320452406549564,-0.7456927680716463,-0.6218167017260304,-0.006061472550245764,-0.001051739215648579,-0.8083664714795592
10729,6.0,300.98775,5525.5952,0.0,0.0,0.0,0.0,0.0,-0.10693390002481357,-0.3552149254369837,-0.7390838442943963,-0.5853441969564744,-0.024553517186993477,-0.018895254037816382,-0.8329972844504312
10730,6.0,300.38813,5656.6045,0.0,0.0,0.0,0.0,0.0,-0.10694386683439744,-0.3965000540740086,-0.7240754115606793,-0.5988910569509455,-0.014845291361616185,-0.02197495476275918,-0.8058155535578032
10731,6.0,298.85211,5729.5488,0.0,0.0,0.0,0.0,0.0,-0.1069538336439812,-0.42402903590840757,-0.7281033846832093,-0.5895073477748454,0.013069967755405386,0.008019979007585302,-0.8281370378282622
10732,6.0,299.46665,5532.1108,0.0,0.0,0.0,0.0,0.0,-0.10696380045356507,-0.4108371072914656,-0.6928602258624803,-0.5779262031068755,0.006289753238150313,0.0006023259342599415,-0.8055681685458882
10733,6.0,298.76287,5512.5997,0.0,0.0,0.0,0.0,0.0,-0.10697376726314889,-0.39288786813001364,-0.6994388433292393,-0.5833659477262364,0.04038588234552626,0.012040678919572488,-0.8180714214673632
10734,6.0,300.55273,5547.681,0.0,0.0,0.0,0.0,0.0,-0.1069837340727327,-0.37567550497128566,-0.7112383129962563,-0.5994426601728844,-0.008745874317650592,-0.006255754137669864,-0.8046936830470833
10735,6.0,300.2144,5606.3628,0.0,0.0,0.0,0.0,0.0,-0.10699370088231652,-0.38768468701149966,-0.7289391944256973,-0.5875704290161864,0.025980959609871075,0.029023673666413577,-0.7899446524714673
10736,6.0,300.69075,5919.8009999999995,0.0,0.0,0.0,0.0,0.0,-0.10700366769190034,-0.4315551435436766,-0.7400027506775853,-0.6279138024802674,0.0002025227253899368,-0.006307981100824265,-0.7923043093043473
10737,6.0,299.79384,5909.0751,0.0,0.0,0.0,0.0,0.0,-0.10701363450148416,-0.42771830992001064,-0.7457681234815833,-0.6227248372606564,0.022116619285740376,-0.006692138765562675,-0.7809701646132543
10738,6.0,300.49782999999996,5500.6066,0.0,0.0,0.0,0.0,0.0,-0.10702360131106797,-0.34537545636590367,-0.7346018945970623,-0.5920697154227313,-0.027451658692767774,-0.03139676416911937,-0.8175497395208773
10739,6.0,299.92422,5475.4226,0.0,0.0,0.0,0.0,0.0,-0.10703356812065179,-0.34880430483680464,-0.7162344465893363,-0.5993529875390344,-0.007209891226835863,-0.005757227894394155,-0.8021909451675823
10740,6.0,300.5486,5825.4116,0.0,0.0,0.0,0.0,0.0,-0.10704353493023566,-0.35808228136496967,-0.7655217989511192,-0.6471756058212594,-0.01197244463133829,0.004613728749689575,-0.8257307512257802
10741,6.0,299.95275,5401.541,0.0,0.0,0.0,0.0,0.0,-0.10705350173981942,-0.3687011120154666,-0.7040508031469043,-0.5691816520938554,-0.0019532914617248582,-0.00915570176174741,-0.8286643737103062
10742,6.0,300.02207000000004,5120.5508,0.0,0.0,0.0,0.0,0.0,-0.1070634685494033,-0.3262021705536477,-0.6976451272072134,-0.5326722751531605,0.016229480164224985,-0.023638590850197275,-0.8453254376221253
10743,6.0,298.73082999999997,5269.5717,0.0,0.0,0.0,0.0,0.0,-0.10707343535898706,-0.3888136097429156,-0.6864819076754893,-0.5265226880437435,0.03341624457242657,-0.01301795357477199,-0.8157649703972343
10744,6.0,299.2456,5457.9546,0.0,0.0,0.0,0.0,0.0,-0.10708340216857087,-0.37269832286496063,-0.7316130094520823,-0.5547705809565934,0.03903803578425416,-0.015253591635162286,-0.8149658200433643
10745,6.0,299.21062,5787.031,0.0,0.0,0.0,0.0,0.0,-0.10709336897815475,-0.3972826276562426,-0.7563260881985733,-0.6055042059811124,0.024619327780988475,-0.02168951511683848,-0.8351687604747392
10746,6.0,300.36387,6003.1877,0.0,0.0,0.0,0.0,0.0,-0.10710333578773856,-0.3975923478143096,-0.7932084323685772,-0.6340183708877414,-0.01131712006291279,-0.016175457721893386,-0.8216517508282142
10747,6.0,299.01464,5602.3296,0.0,0.0,0.0,0.0,0.0,-0.10711330259732238,-0.39025018560219465,-0.7295987493132903,-0.5831193834469025,-0.04404021442743076,0.03428918790457937,-0.8298896261287293
10748,6.0,300.31428,5500.6893,0.0,0.0,0.0,0.0,0.0,-0.1071232694069062,-0.37057432774033866,-0.7168682953218923,-0.5846295516609444,-0.029388931075711673,0.04326148308957596,-0.7913985447749553
10749,6.0,299.59159,5788.2453,0.0,0.0,0.0,0.0,0.0,-0.10713323621648996,-0.4277224338479176,-0.7400854217532443,-0.5916741831136955,-0.03784922693217786,0.029734409843057773,-0.8084185424021982
10750,6.0,300.24984,5735.9854,0.0,0.0,0.0,0.0,0.0,-0.10714320302607383,-0.4018462655766386,-0.7236467763708763,-0.6181032819645444,-0.01009920854013928,-0.01143821155586359,-0.7754077762017892
10751,6.0,299.89955,5357.1971,0.0,0.0,0.0,0.0,0.0,-0.10715316983565765,-0.3485192269211697,-0.7095237418395414,-0.5704111804277004,-0.0059576520065744735,-0.00968861031669139,-0.8206322591075982
10752,6.0,301.46943,5379.9082,0.0,0.0,0.0,0.0,0.0,-0.10716313664524152,-0.35945035138498765,-0.6904250312346454,-0.5854823738726115,0.03955387229091326,-0.007476374888560752,-0.8025887268918402
10753,6.0,300.24047,5836.5517,0.0,0.0,0.0,0.0,0.0,-0.10717310345482528,-0.4487251629807256,-0.7392276954110933,-0.5862131197122304,0.00987303368991756,0.015706103050321687,-0.8059150243201202
10754,6.0,300.18837,6040.5661,0.0,0.0,0.0,0.0,0.0,-0.1071830702644091,-0.44677213354547657,-0.7899096649455142,-0.5994994629734904,0.04231159962432975,0.02298968218140498,-0.8242226196444392
10755,6.0,299.19296,5827.7208,0.0,0.0,0.0,0.0,0.0,-0.10719303707399297,-0.4388249495661506,-0.7577498869740913,-0.5749067887363825,0.00858687744243382,0.015060511762356786,-0.8211494219586383
10756,6.0,299.21099,5680.7897,0.0,0.0,0.0,0.0,0.0,-0.10720300388357673,-0.37717152821393163,-0.7664044005832253,-0.5832422906840324,0.013290563447926488,-0.004893467546572646,-0.8176577925115412
10757,6.0,299.82082,5452.9252,0.0,0.0,0.0,0.0,0.0,-0.1072129706931606,-0.34390475424325667,-0.7320515643603643,-0.5815967826541335,-0.036858851966435464,-0.01109302257804609,-0.8281119902857902
10758,6.0,299.54285,5576.5706,0.0,0.0,0.0,0.0,0.0,-0.10722293750274442,-0.3581615479202927,-0.7308881911255483,-0.6060884763862754,-0.013248369687262286,-0.02051257142343318,-0.8327520880587321
10759,6.0,298.6251,5607.8008,0.0,0.0,0.0,0.0,0.0,-0.10723290431232818,-0.38988864783401367,-0.7324183406315623,-0.5823244380809475,-0.028536052122039076,0.013694303082772488,-0.8018988555612553
10760,6.0,299.60641,5180.7296,0.0,0.0,0.0,0.0,0.0,-0.10724287112191205,-0.34773883182665066,-0.6895245457382744,-0.5375490580169615,0.004578161746004386,0.001934454838390828,-0.8146763040922912
10761,6.0,300.06377000000003,5108.8967,0.0,0.0,0.0,0.0,0.0,-0.10725283793149587,-0.3320002713358757,-0.6948629856126373,-0.5261137605683855,-0.0016766838103008084,-0.001301265225024879,-0.8191601586998132
10762,6.0,300.38032000000004,5726.4997,0.0,0.0,0.0,0.0,0.0,-0.10726280474107974,-0.38688966058553664,-0.7463637118903633,-0.6074595253615874,0.007180285882764043,-0.01245133702610129,-0.8225181809887243
10763,6.0,299.31236,5964.0652,0.0,0.0,0.0,0.0,0.0,-0.1072727715506635,-0.4068082019788436,-0.7600720028907663,-0.6460467033548454,0.01040896021028439,0.001097009304941389,-0.8176819686589272
10764,6.0,300.18591000000004,5701.3054,0.0,0.0,0.0,0.0,0.0,-0.10728273836024732,-0.3929777028838796,-0.7435342515161173,-0.5965425053391614,-0.005656574567885444,-0.001879411749233498,-0.8238671208468542
10765,6.0,300.51333999999997,5666.4909,0.0,0.0,0.0,0.0,0.0,-0.10729270516983114,-0.40506517875932063,-0.7215776284741673,-0.5958289239562364,-0.006297565801721354,0.010180661790503089,-0.8141455839549132
10766,6.0,300.54129,5684.1121,0.0,0.0,0.0,0.0,0.0,-0.10730267197941495,-0.42927414531605956,-0.7032027229457053,-0.5953512879915974,-0.0034654763474408867,0.022000190769749777,-0.7833238534030453
10767,6.0,300.64597000000003,5720.3806,0.0,0.0,0.0,0.0,0.0,-0.10731263878899883,-0.41992307292568065,-0.7265002203749893,-0.5924295711957465,0.005687546077067095,0.026561418168157873,-0.7986527771433922
10768,6.0,301.35271,5930.2331,0.0,0.0,0.0,0.0,0.0,-0.10732260559858264,-0.4160590335368296,-0.7323618012759823,-0.6542219395341784,0.0016300176650202185,0.0007785295997598892,-0.7791027446789542
10769,6.0,300.70215,5625.9196,0.0,0.0,0.0,0.0,0.0,-0.1073325724081664,-0.37309939765204364,-0.7231121146906093,-0.6139275567124324,-0.004841480622366935,-0.006065078200726614,-0.8091405438934542
10770,6.0,301.23443,5134.5656,0.0,0.0,0.0,0.0,0.0,-0.10734253921775028,-0.3227926346296527,-0.6978575449581773,-0.5401295729741384,-0.007102075843320312,-0.024047026899256776,-0.8156072681516702
10771,6.0,299.97337999999996,5497.2219,0.0,0.0,0.0,0.0,0.0,-0.10735250602733404,-0.38000129256320764,-0.7125368436619114,-0.5784800456115354,-0.00980321447587694,-0.012715288677151288,-0.8172542757917173
10772,6.0,299.64432999999997,6089.4733,0.0,0.0,0.0,0.0,0.0,-0.10736247283691791,-0.45418880003744455,-0.7744352587558093,-0.6224237803909444,-0.01230380983804149,-0.007908471644680382,-0.8176235750556642
10773,6.0,300.27617999999995,5934.1504,0.0,0.0,0.0,0.0,0.0,-0.10737243964650173,-0.4334557778162546,-0.7601253809060343,-0.6102523770097205,0.003846477434142767,0.022120053190329277,-0.8277744158824742
10774,6.0,299.70422,5439.1943,0.0,0.0,0.0,0.0,0.0,-0.10738240645608554,-0.3250100412809937,-0.7447388640300033,-0.5836303350748294,-0.009497967614351422,0.027756544634607673,-0.8567101029632042
10775,6.0,299.34053,5397.3698,0.0,0.0,0.0,0.0,0.0,-0.10739237326566936,-0.35852464609362766,-0.7224602402387743,-0.5596807605436904,0.007758868003190653,0.02194676006547658,-0.8202305662379542
10776,6.0,300.41578,5607.7062,0.0,0.0,0.0,0.0,0.0,-0.10740234007525318,-0.3756903490852506,-0.7266126202085823,-0.6022996809498504,0.02971862137999957,-0.020021595007977584,-0.8324879438901632
10777,6.0,299.3651,5517.6447,0.0,0.0,0.0,0.0,0.0,-0.107412306884837,-0.3941412078412086,-0.7097408306734664,-0.5733441645646635,0.023115496433071876,-0.02494676157730368,-0.8126579098930912
10778,6.0,299.3086,5325.3563,0.0,0.0,0.0,0.0,0.0,-0.10742227369442081,-0.35626182557280467,-0.7099240465565484,-0.5525894790563355,0.018432350729631383,-0.030859852060380267,-0.8245733257690512
10779,6.0,298.99914,5326.2746,0.0,0.0,0.0,0.0,0.0,-0.10743224050400463,-0.3409291832045907,-0.7083754862962173,-0.5697498219549295,-0.006616307634703723,-0.004070000507527777,-0.8051172317213843
10780,6.0,299.06075,5575.5509999999995,0.0,0.0,0.0,0.0,0.0,-0.1074422073135885,-0.33934384196562967,-0.7437556973254723,-0.6117287533329274,-0.019903870545109083,0.01044738468057659,-0.8446567128211273
10781,6.0,299.72399,6148.3372,0.0,0.0,0.0,0.0,0.0,-0.10745217412317226,-0.43917724649341966,-0.7795226355203942,-0.6502411028063004,-0.032739266849364075,0.018185410534510282,-0.8246306655922102
10782,6.0,300.67932,6118.9712,0.0,0.0,0.0,0.0,0.0,-0.10746214093275613,-0.4358313224107026,-0.7884474842562083,-0.6357356372897224,-0.011409129251493387,0.018063346321463485,-0.8133102909699762
10783,6.0,300.54147,5449.204000000001,0.0,0.0,0.0,0.0,0.0,-0.1074721077423399,-0.38692258108128563,-0.7193688952436823,-0.5501304730511505,-0.012561256423449487,-0.008423102586370503,-0.8277833223508532
10784,6.0,301.89635,5510.1146,0.0,0.0,0.0,0.0,0.0,-0.10748207455192371,-0.4021913988257006,-0.7095754378596433,-0.5631704141530924,0.02133849285819528,-0.008744148448755262,-0.8054386853156092
10785,6.0,300.72135,5869.5788,0.0,0.0,0.0,0.0,0.0,-0.10749204136150758,-0.4379370486360216,-0.7375316971287112,-0.6087366460526296,0.03286415397718947,-0.01013453459295069,-0.8166970794292262
10786,6.0,300.37346,5773.6464,0.0,0.0,0.0,0.0,0.0,-0.1075020081710914,-0.3869533940168266,-0.7596410777557373,-0.6084498456118244,0.03682982944382117,0.003248169563419377,-0.8220014437027262
10787,6.0,300.19155,5475.0982,0.0,0.0,0.0,0.0,0.0,-0.10751197498067522,-0.3578662767086517,-0.7103843559444774,-0.5960424968123145,0.013675376584154587,0.0004739184817446125,-0.8177561790962513
10788,6.0,300.91675,5490.9892,0.0,0.0,0.0,0.0,0.0,-0.10752194179025903,-0.34942165785773266,-0.7478528551648304,-0.5718491140421135,-0.004632539433821046,-0.023703024437306375,-0.8181982398498793
10789,6.0,299.7801,5658.3504,0.0,0.0,0.0,0.0,0.0,-0.1075319085998428,-0.38773164102113367,-0.7450464360978583,-0.5872191352065165,-0.012239500880694688,-0.015850309817803786,-0.8265084612075342
10790,6.0,299.84963,5909.4728,0.0,0.0,0.0,0.0,0.0,-0.10754187540942667,-0.3931940520452316,-0.7767620660204472,-0.6263760637310044,-0.015904054629607985,-0.0031286920765528667,-0.8300514421696993
10791,6.0,300.35999,5804.7481,0.0,0.0,0.0,0.0,0.0,-0.10755184221901049,-0.3898483610100376,-0.7671273849270783,-0.6075227420353264,0.00040118189775107066,0.0027794009557055178,-0.8132828318922662
10792,6.0,300.95661,5307.2714,0.0,0.0,0.0,0.0,0.0,-0.1075618090285943,-0.3300647913923587,-0.6978009245425894,-0.5854122468331904,-0.02025177199344428,0.006153576984335764,-0.8295137204741302
10793,6.0,300.37035,5287.8875,0.0,0.0,0.0,0.0,0.0,-0.10757177583817812,-0.36110043930533864,-0.7023988407138684,-0.5438864712974155,-0.0015818440062408486,0.01299716269597009,-0.8339913334610362
10794,6.0,299.81957,5856.7018,0.0,0.0,0.0,0.0,0.0,-0.10758174264776194,-0.40179743705431964,-0.7695624073023962,-0.6089312711318374,0.005427002087428405,0.005326419992401725,-0.8383706510557412
10795,6.0,299.86627999999996,5805.438,0.0,0.0,0.0,0.0,0.0,-0.10759170945734581,-0.4400809845226116,-0.7313163095578002,-0.5933109062652274,0.00017059219525363881,-0.0045002873963187855,-0.8110504494044473
10796,6.0,300.10365,5444.5967,0.0,0.0,0.0,0.0,0.0,-0.10760167626692957,-0.3440764900027057,-0.7392024756161043,-0.5717424593365875,0.026789044803122875,-0.01058450579010939,-0.8277907190765832
10797,6.0,300.53157999999996,5651.4698,0.0,0.0,0.0,0.0,0.0,-0.10761164307651344,-0.37868236517303966,-0.7290121383003964,-0.6102112187906584,0.0005952172856658723,-0.026670250348148773,-0.7843605399778583
10798,6.0,300.06685,5894.7855,0.0,0.0,0.0,0.0,0.0,-0.10762160988609726,-0.4106710153350736,-0.7379153744115773,-0.6432812195919133,-0.0003126383082224987,0.007629760486048733,-0.7910106827691763
10799,6.0,301.31682,5918.5497,0.0,0.0,0.0,0.0,0.0,-0.10763157669568102,-0.4104558010138336,-0.7621026776811783,-0.6265328439189773,-0.02892145902282577,0.005420562477742865,-0.8014118369006902
10800,6.0,302.1458,5862.8539,0.0,0.0,0.0,0.0,0.0,-0.10764154350526489,-0.41684474819437356,-0.7288831515626664,-0.6364333106460773,-0.01059680968607369,0.023076830809255877,-0.8045725996601332
10801,6.0,300.26975,5696.4705,0.0,0.0,0.0,0.0,0.0,-0.10765151031484871,-0.4105664884547576,-0.7188934377667583,-0.6021248750425984,-0.024730146944425477,0.016822336850735385,-0.8045158677870342
10802,6.0,300.06624,5510.3413,0.0,0.0,0.0,0.0,0.0,-0.10766147712443253,-0.35712360491535566,-0.7382957991616222,-0.5795867680332605,-0.021036760150666578,0.013627375887167288,-0.8361451282710992
10803,6.0,299.13417000000004,5453.2877,0.0,0.0,0.0,0.0,0.0,-0.10767144393401634,-0.35507543129571667,-0.7044739667861674,-0.5981138941242454,-0.017279617634115483,-0.004471464382649175,-0.8208966565886923
10804,6.0,299.71494,5617.1601,0.0,0.0,0.0,0.0,0.0,-0.10768141074360016,-0.3881463338895606,-0.7474268442927863,-0.5719032215974534,-0.02444443777397818,-0.02159093094835898,-0.8216502106880622
10805,6.0,299.80748,5512.0943,0.0,0.0,0.0,0.0,0.0,-0.10769137755318398,-0.3985035940267426,-0.7048747072007173,-0.5721607391103685,0.003654200663366527,-0.025345529193908974,-0.8383383283775512
10806,6.0,299.26748,5398.5764,0.0,0.0,0.0,0.0,0.0,-0.10770134436276779,-0.3694405414084427,-0.7222364943516922,-0.5493553873871555,-0.01766485329563528,-0.0006575897700840574,-0.8586371222683862
10807,6.0,300.58086000000003,5823.0739,0.0,0.0,0.0,0.0,0.0,-0.10771131117235166,-0.4329662766929446,-0.7826647848755003,-0.5544379917437694,0.018414329063352785,0.012439782935210988,-0.8355860067334181
10808,6.0,301.42975,5850.7675,0.0,0.0,0.0,0.0,0.0,-0.10772127798193543,-0.39125301949116664,-0.7473577406359663,-0.6398764662083904,-0.007196059349720763,0.008490536609675721,-0.8191682950981163
10809,6.0,300.24327999999997,5581.4777,0.0,0.0,0.0,0.0,0.0,-0.10773124479151924,-0.37722002236371766,-0.7619147603176323,-0.5574950483554775,0.021343681711957378,-0.026882761318121975,-0.8274810901110252
10810,6.0,299.80526000000003,5527.5491,0.0,0.0,0.0,0.0,0.0,-0.10774121160110306,-0.3530177533901397,-0.7293633713150602,-0.5978557889262724,0.007932448080471673,-0.017062804404217684,-0.8151350632075672
10811,6.0,298.96542,5451.7991,0.0,0.0,0.0,0.0,0.0,-0.10775117841068688,-0.3838142438820166,-0.6932317340116454,-0.5801648170828094,0.00947449486518484,-0.016993687575146386,-0.8136788505613503
10812,6.0,298.84132999999997,5241.3497,0.0,0.0,0.0,0.0,0.0,-0.10776114522027075,-0.3237413204332807,-0.7198716496783003,-0.5496264723189095,-0.012384576003512487,0.015067956110841486,-0.8567397202636272
10813,6.0,299.78333,5565.295,0.0,0.0,0.0,0.0,0.0,-0.10777111202985457,-0.4120185163780616,-0.6959629091261913,-0.5837292890795954,-0.019844838594283085,-0.0005647611762800885,-0.8133418739755932
10814,6.0,299.81791,5715.6334,0.0,0.0,0.0,0.0,0.0,-0.10778107883943838,-0.38701165589757663,-0.7483884895651933,-0.6020096989037315,-0.005451695904290494,0.03046763915867187,-0.8436694120561882
10815,6.0,299.74317,5514.2682,0.0,0.0,0.0,0.0,0.0,-0.1077910456490222,-0.40383711963812063,-0.7195266988142562,-0.5528360230706675,-0.0022013411657054575,0.0019851423706682978,-0.7984346649268662
10816,6.0,300.4531,5656.723000000001,0.0,0.0,0.0,0.0,0.0,-0.10780101245860602,-0.37758224914196664,-0.7340459749296973,-0.6078743094225234,0.013858171968445087,0.006994296734158343,-0.8015297690798292
10817,6.0,299.0554,5933.1143,0.0,0.0,0.0,0.0,0.0,-0.10781097926818983,-0.4434559382206936,-0.7539956129685733,-0.6060670562791614,0.000886373425205746,-0.023731324512599378,-0.7842266592421453
10818,6.0,300.84106,5947.8432,0.0,0.0,0.0,0.0,0.0,-0.10782094607777365,-0.4190742733169106,-0.7571936734641972,-0.6317278785066874,0.01992660889060318,0.008490143063336883,-0.8163437895168592
10819,6.0,300.92202000000003,5535.4113,0.0,0.0,0.0,0.0,0.0,-0.10783091288735747,-0.3904469081091096,-0.7143324241641213,-0.5778474938391074,0.007133282730500193,0.016330958174990085,-0.8262009398021842
10820,6.0,300.23532,5348.0168,0.0,0.0,0.0,0.0,0.0,-0.10784087969694128,-0.3209755630928217,-0.7307467718090913,-0.5739412323185895,-0.013981406485357386,0.017126400033494086,-0.8231442783580152
10821,6.0,300.07068,5327.3926,0.0,0.0,0.0,0.0,0.0,-0.1078508465065251,-0.36923363573802265,-0.6752363615731403,-0.5749243280956134,-0.0008918742080111311,-0.019719574537420483,-0.8256136296467212
10822,6.0,301.25197000000003,5538.8895,0.0,0.0,0.0,0.0,0.0,-0.10786081331610897,-0.3468845809323427,-0.7421726358992363,-0.5946268952301054,-0.017226343983607784,-0.02299371187705268,-0.8302626541530442
10823,6.0,300.70302000000004,5624.0752,0.0,0.0,0.0,0.0,0.0,-0.10787078012569273,-0.3936124230115216,-0.7277753550958354,-0.5881906394023965,0.03264968236827277,-0.015849712000244785,-0.8464697718875621
10824,6.0,300.92247000000003,5562.4927,0.0,0.0,0.0,0.0,0.0,-0.10788074693527655,-0.3761962141976757,-0.7235798309367693,-0.5910828300903335,-0.00048385464527273545,0.0037623509260401263,-0.8136490914059132
10825,6.0,299.47619,5492.4448,0.0,0.0,0.0,0.0,0.0,-0.10789071374486042,-0.37370775301208364,-0.7319462572774713,-0.5639120726962884,0.004120770822338416,0.0015681077799351885,-0.8537445934980312
10826,6.0,299.89617999999996,5812.7641,0.0,0.0,0.0,0.0,0.0,-0.10790068055444418,-0.4083038705839546,-0.7228765644398623,-0.6357546965241033,-0.007909907521397091,0.04567609860787996,-0.7981525355690222
10827,6.0,300.5404,6019.1772,0.0,0.0,0.0,0.0,0.0,-0.10791064736402806,-0.4290652334104416,-0.7778259684929463,-0.6227883680419264,-0.0014330091176019885,0.036196859199101865,-0.8217435411547732
10828,6.0,300.46018,5673.6782,0.0,0.0,0.0,0.0,0.0,-0.10792061417361187,-0.3600489998090697,-0.7333606024295564,-0.6312469089492193,0.016443395498836784,0.03271017035949247,-0.7892404233869653
10829,6.0,300.74859,5572.8609,0.0,0.0,0.0,0.0,0.0,-0.10793058098319563,-0.3821242339077256,-0.7152545932126323,-0.5966317220104664,-0.008887680087695731,-0.036822231081321266,-0.8013993232619553
10830,6.0,299.91107999999997,5773.3565,0.0,0.0,0.0,0.0,0.0,-0.1079405477927795,-0.4033341828184846,-0.7459469317267303,-0.6056750906104774,0.0020207618607086682,-0.01946897954918868,-0.8206140206057982
10831,6.0,299.6054,5651.3892,0.0,0.0,0.0,0.0,0.0,-0.10795051460236332,-0.40447162698324163,-0.7225309448307523,-0.5908786095326785,-0.006202108725700474,-0.03686910301769717,-0.8354555203855402
10832,6.0,300.43113999999997,5527.6694,0.0,0.0,0.0,0.0,0.0,-0.10796048141194714,-0.34565939944142665,-0.7380590634082583,-0.5965549987128944,0.014302148778012187,0.01119514602912489,-0.8286788125242313
10833,6.0,299.25302999999997,5546.9238,0.0,0.0,0.0,0.0,0.0,-0.10797044822153096,-0.38252297821957865,-0.7269742795667753,-0.5766290909913604,0.005449838920832225,0.00882080385857056,-0.8073841559051123
10834,6.0,299.09522000000004,5502.7583,0.0,0.0,0.0,0.0,0.0,-0.10798041503111472,-0.34048662595841367,-0.7266591081231704,-0.6055554055086655,0.0006490275027640274,0.019284202247702584,-0.8314191372871802
10835,6.0,299.10836,5643.9543,0.0,0.0,0.0,0.0,0.0,-0.10799038184069865,-0.4133353868705266,-0.7445767440140033,-0.5577090467765975,-0.006664765206161114,0.011374629098838488,-0.8027708687298163
10836,6.0,298.92005,5908.7359,0.0,0.0,0.0,0.0,0.0,-0.10800034865028241,-0.4107584182886996,-0.7506578556816623,-0.6346918984942134,-0.0006827463281343163,-0.007688862553781653,-0.8101697729475312
10837,6.0,299.2207,5869.8859,0.0,0.0,0.0,0.0,0.0,-0.10801031545986628,-0.42524054865547456,-0.7591994830971553,-0.5998587006639444,-0.001041433752856509,-0.028354716831142674,-0.8160598667063382
10838,6.0,300.50068,5736.6078,0.0,0.0,0.0,0.0,0.0,-0.10802028226945004,-0.38429754391471466,-0.7549812824008513,-0.6045067119201675,-0.03431531253190767,-0.014771648344348185,-0.8230891980825793
10839,6.0,299.76633,5792.1226,0.0,0.0,0.0,0.0,0.0,-0.10803024907903386,-0.4068093773489596,-0.7415732275375794,-0.6122780260796364,-0.011632820423069989,-0.014909683405471186,-0.8114745452338022
10840,6.0,300.26485,5683.5279,0.0,0.0,0.0,0.0,0.0,-0.10804021588861773,-0.36954101528835864,-0.7525994759207852,-0.6055100828316924,-0.002042144376243958,0.01213790837266829,-0.7957955638489073
10841,6.0,299.87577999999996,5470.953,0.0,0.0,0.0,0.0,0.0,-0.10805018269820155,-0.37287056524945966,-0.7332795525540573,-0.5568829845000715,0.01048981250201389,-0.0008974777546416581,-0.8067665090416553
10842,6.0,299.9574,5575.2972,0.0,0.0,0.0,0.0,0.0,-0.10806014950778536,-0.37371630484292767,-0.7276900293049143,-0.5933447893485715,0.010089244339980891,-0.003556661257065137,-0.8193140612575022
10843,6.0,300.63926000000004,5645.661999999999,0.0,0.0,0.0,0.0,0.0,-0.10807011631736918,-0.4130961281244136,-0.7465396222402243,-0.5565045153227195,-0.016704278015333883,-0.024503443380301578,-0.8248406211454312
10844,6.0,300.90974,5559.2703,0.0,0.0,0.0,0.0,0.0,-0.10808008312695294,-0.3750855502330616,-0.7360806419255033,-0.5787131437970404,0.013931080379390589,0.014589953349666288,-0.8208764929117022
10845,6.0,300.48999,5796.1035,0.0,0.0,0.0,0.0,0.0,-0.10809004993653681,-0.38321810831818265,-0.7762666069865493,-0.6023860199908714,0.015023033667657988,0.01707448413812038,-0.8257623038338943
10846,6.0,300.74949,5981.2475,0.0,0.0,0.0,0.0,0.0,-0.10810001674612063,-0.4442797612144985,-0.7458863191057482,-0.6279838180621774,0.005013092866628746,0.021435486224017777,-0.8056382955853092
10847,6.0,301.20212999999995,5747.1969,0.0,0.0,0.0,0.0,0.0,-0.1081099835557045,-0.44761552239871255,-0.7223831623036673,-0.5770056653910255,-0.01030875484164489,-0.00015919133817596183,-0.8185655024811253
10848,6.0,299.7458,5417.4085,0.0,0.0,0.0,0.0,0.0,-0.10811995036528826,-0.35967981200263366,-0.7182961572303114,-0.5687809420768085,-0.02643768918519677,-0.00028361130704275674,-0.8162410763542223
10849,6.0,299.58029,5684.1558,0.0,0.0,0.0,0.0,0.0,-0.10812991717487208,-0.4003397754604596,-0.7405858862426363,-0.5869157782590775,0.0039003381617584063,-0.013323174902394987,-0.7863596925576593
10850,6.0,300.06095,5924.8291,0.0,0.0,0.0,0.0,0.0,-0.1081398839844559,-0.38384089235964663,-0.7724304826379532,-0.6447287182872704,0.004207969707394277,-0.034722634005857164,-0.8264157589558853
10851,6.0,298.94811,5606.3526,0.0,0.0,0.0,0.0,0.0,-0.10814985079403971,-0.38179526199775865,-0.7224670999419514,-0.5999288277033654,0.012372246776295687,-0.0017376536019430584,-0.8153962689508463
10852,6.0,300.11685,5601.0476,0.0,0.0,0.0,0.0,0.0,-0.10815981760362359,-0.3744837607336697,-0.7333396484174882,-0.5947552132227694,0.005321331450399525,0.030144114481242473,-0.8093133739630112
10853,6.0,299.94845,5535.9921,0.0,0.0,0.0,0.0,0.0,-0.1081697844132074,-0.3702108445319657,-0.7399856875459012,-0.5726068325993945,0.006272470332519624,0.03487406929955267,-0.8276391267291222
10854,6.0,300.15949,5638.9955,0.0,0.0,0.0,0.0,0.0,-0.10817975122279117,-0.36140280326767965,-0.7467586159843372,-0.6059523867653444,-0.029529324983067474,0.0012709484780578488,-0.8369350276515561
10855,6.0,300.3455,5880.338000000001,0.0,0.0,0.0,0.0,0.0,-0.10818971803237504,-0.4469303728135936,-0.7378029644454832,-0.6027425827010614,-0.02121105335336798,-0.02308947921025418,-0.8270121883622482
10856,6.0,300.54545,5726.2552,0.0,0.0,0.0,0.0,0.0,-0.1081996848419588,-0.36372555753191765,-0.7571079423732363,-0.6198051064350014,-0.02050272060596098,-0.02160384279438328,-0.8123662154543032
10857,6.0,300.10057,5434.7896,0.0,0.0,0.0,0.0,0.0,-0.10820965165154267,-0.3697999108214096,-0.7229096267906253,-0.5593308042241524,-0.005177769413956055,-0.02068965613016008,-0.8256240863877533
10858,6.0,300.51759,5770.5136,0.0,0.0,0.0,0.0,0.0,-0.10821961846112649,-0.41719520100646057,-0.7335631105945424,-0.6033337330744035,0.009130144757125131,0.02124575412954268,-0.7956227236468493
10859,6.0,299.62037999999995,5897.6458,0.0,0.0,0.0,0.0,0.0,-0.1082295852707103,-0.44548907520884856,-0.7414059196810673,-0.6058420640944564,0.00889848842651243,0.017947985771078284,-0.8148634209882583
10860,6.0,299.89397,5682.4667,0.0,0.0,0.0,0.0,0.0,-0.10823955208029412,-0.38312126187362466,-0.7313476696483954,-0.6128590439519784,0.010883738809641389,0.029127615901421874,-0.7920154317008373
10861,6.0,299.56721,5533.9684,0.0,0.0,0.0,0.0,0.0,-0.10824951888987794,-0.36651142788686164,-0.7219954624179044,-0.5936813099717834,-0.015060130780319186,-0.005981106821214285,-0.8282478873892022
10862,6.0,299.82086,5782.1593,0.0,0.0,0.0,0.0,0.0,-0.10825948569946181,-0.3525007627916167,-0.7538973378413742,-0.6512339359167854,0.006562407998284244,-0.02282163465231998,-0.8115747151386883
10863,6.0,300.07537,5770.0843,0.0,0.0,0.0,0.0,0.0,-0.10826945250904557,-0.42703470047504355,-0.7221670157923352,-0.6047598420601494,-0.00985190256173208,-0.005727524771687684,-0.8315423282343382
10864,6.0,299.69917000000004,5687.8603,0.0,0.0,0.0,0.0,0.0,-0.10827941931862939,-0.4064592791744076,-0.7152460312492873,-0.6072621847721114,0.02396382792029568,0.02211870252794598,-0.8161925315419312
10865,6.0,300.90176,5743.5035,0.0,0.0,0.0,0.0,0.0,-0.10828938612821326,-0.4074197896067026,-0.7361616310059963,-0.6023002281049045,-0.013686442288496687,0.02617262397228688,-0.8210465770734882
10866,6.0,302.1376,5481.1773,0.0,0.0,0.0,0.0,0.0,-0.10829935293779702,-0.35531296751665964,-0.7330593631748262,-0.5777687136438325,-0.012752296623803687,0.004781512428448535,-0.8237443858622412
10867,6.0,301.16069,5588.6937,0.0,0.0,0.0,0.0,0.0,-0.1083093197473809,-0.38478704503802463,-0.7389662262227883,-0.5750700739899974,-0.04200209528853406,0.007834549679659852,-0.8322772182668662
10868,6.0,300.47916000000004,5920.0985,0.0,0.0,0.0,0.0,0.0,-0.10831928655696471,-0.39534037920205767,-0.7677472913382583,-0.6364744486001374,-0.006390463610639654,0.002235907382266878,-0.8291291920611802
10869,6.0,299.95892000000003,5604.7999,0.0,0.0,0.0,0.0,0.0,-0.10832925336654847,-0.4008741230331956,-0.7316547756212043,-0.5711903089595944,0.0024635312814566073,-0.014584869873914587,-0.8327782197788112
10870,6.0,299.87771000000004,5369.0293,0.0,0.0,0.0,0.0,0.0,-0.10833922017613234,-0.3224007804184797,-0.7426787644566873,-0.5669712875307095,0.01880495116240418,-0.02094131503099688,-0.8554146728428551
10871,6.0,299.59611,5776.2592,0.0,0.0,0.0,0.0,0.0,-0.10834918698571616,-0.4024590893696196,-0.7657684645554633,-0.5876109995501905,-0.017065676968251182,-0.005684143684556305,-0.8378837438526872
10872,6.0,299.90561,5968.5057,0.0,0.0,0.0,0.0,0.0,-0.10835915379529998,-0.4157875331725346,-0.7756435291025562,-0.6228456470700795,0.015328429274298186,0.006980845839080843,-0.8231854973720832
10873,6.0,299.39857,5659.5612,0.0,0.0,0.0,0.0,0.0,-0.1083691206048838,-0.35693375224411866,-0.7475180975967922,-0.6159134255834224,0.010811676462529387,-0.01980405831750838,-0.8325897552602112
10874,6.0,299.7944,5586.6569,0.0,0.0,0.0,0.0,0.0,-0.10837908741446756,-0.3498531706778197,-0.7473290757906372,-0.6010219320437464,0.009790103931508032,-0.043105251069907057,-0.8184570644554232
10875,6.0,299.04795,5727.3923,0.0,0.0,0.0,0.0,0.0,-0.10838905422405148,-0.41870768956323157,-0.7410715978105723,-0.5812049689729645,0.008912415042511883,-0.019014268368062182,-0.8081387232545822
10876,6.0,299.98452000000003,5776.8028,0.0,0.0,0.0,0.0,0.0,-0.10839902103363525,-0.4333263959109856,-0.7223202293399563,-0.6003571791831404,0.006606874681572765,0.003696724743563327,-0.8143069744308412
10877,6.0,299.69412,5798.6496,0.0,0.0,0.0,0.0,0.0,-0.10840898784321912,-0.42296246858814557,-0.7482232284738832,-0.5914589991899585,0.015311877833914685,0.017125883275943086,-0.8088941923966413
10878,6.0,299.97688,5870.6417,0.0,0.0,0.0,0.0,0.0,-0.10841895465280288,-0.4137964663285316,-0.7583255650184062,-0.6124064656623125,-0.02897960539306437,-0.018234313024086582,-0.8098721712606602
10879,6.0,300.05373,5677.2898,0.0,0.0,0.0,0.0,0.0,-0.1084289214623867,-0.3770105633030456,-0.7279944704299603,-0.6207493136731874,-0.005707140915450954,0.02162672907439198,-0.8088945571666772
10880,6.0,300.29199,5597.7927,0.0,0.0,0.0,0.0,0.0,-0.10843888827197057,-0.38640862010056165,-0.7300271311905683,-0.5851534526251495,0.005513836810398325,0.002108704066037888,-0.8408866219815482
10881,6.0,299.9004,5809.6605,0.0,0.0,0.0,0.0,0.0,-0.10844885508155439,-0.4263433903293166,-0.7276220199582023,-0.6120263246222953,0.02850563739378737,0.011159079391815388,-0.7937513824346623
10882,6.0,300.98541,5683.4941,0.0,0.0,0.0,0.0,0.0,-0.1084588218911382,-0.37103711959101265,-0.7704146215640033,-0.5861885585298064,0.03226705379926027,-0.057579024149857244,-0.8484785807408163
10883,6.0,300.01807,5416.0344,0.0,0.0,0.0,0.0,0.0,-0.10846878870072202,-0.33982351456296966,-0.7437639755787893,-0.5627517189467705,0.0025044932339742376,-0.005964955614620285,-0.8135685177579612
10884,6.0,299.42077,5588.9045,0.0,0.0,0.0,0.0,0.0,-0.10847875551030578,-0.36392244215884867,-0.7297572216289303,-0.6052077391343534,0.00017764795219248785,0.016331972438340184,-0.8524040636157313
10885,6.0,299.03182999999996,5703.7295,0.0,0.0,0.0,0.0,0.0,-0.10848872231988965,-0.3766235524273506,-0.7495016562575543,-0.6076661270569774,-0.017371871015970184,0.008229388419002403,-0.8127994913295642
10886,6.0,299.09546,5547.4077,0.0,0.0,0.0,0.0,0.0,-0.10849868912947347,-0.37645788603600067,-0.7289611414228633,-0.5808543844383645,0.001871592295561778,-0.005143549526278815,-0.8562712542123933
10887,6.0,299.21976,5737.3247,0.0,0.0,0.0,0.0,0.0,-0.10850865593905729,-0.4080835697472126,-0.7501984379538212,-0.5857214198362034,-0.02094301222491438,-0.002892888513280867,-0.8101823777787752
10888,6.0,300.27985,5688.3448,0.0,0.0,0.0,0.0,0.0,-0.1085186227486411,-0.3956865560987226,-0.7453759348978773,-0.5880522801012414,0.022775454765762378,-0.0007842025945522702,-0.8432063871579911
10889,6.0,300.25207,5357.5652,0.0,0.0,0.0,0.0,0.0,-0.10852858955822492,-0.37766820314794963,-0.6856281634062313,-0.5652696657102725,-0.016086609873624785,0.0013945652942328787,-0.8183030909702272
10890,6.0,300.42597,5601.5127,0.0,0.0,0.0,0.0,0.0,-0.10853855636780874,-0.3524457737086897,-0.7369874095724943,-0.6132868178791965,-0.00956278684444858,-0.029142403273381266,-0.8265594986150712
10891,6.0,300.10987,5841.2646,0.0,0.0,0.0,0.0,0.0,-0.10854852317739255,-0.3795267368788726,-0.7515898025936383,-0.6444820324179243,-0.003491843648168137,0.016663597037068982,-0.8165428627640062
10892,6.0,300.60086,5611.9806,0.0,0.0,0.0,0.0,0.0,-0.10855848998697643,-0.37341782162846965,-0.7367336005549453,-0.5957505287959994,-0.008096744962986513,0.04590486616245756,-0.8254574067463032
10893,6.0,301.34692,5625.6106,0.0,0.0,0.0,0.0,0.0,-0.10856845679656024,-0.3921529274349806,-0.7373501531082943,-0.5805420804925424,-0.004643873142814596,0.038397513786539564,-0.8357872686007812
10894,6.0,301.11987999999997,5774.3006,0.0,0.0,0.0,0.0,0.0,-0.108578423606144,-0.4101940785130036,-0.7470366518117774,-0.5980124576567344,0.0037391500318753766,-0.012451107018328588,-0.8130256588843853
10895,6.0,301.54197,5704.8667,0.0,0.0,0.0,0.0,0.0,-0.10858839041572782,-0.4268538758621976,-0.7253696257809084,-0.5819135246353934,0.00944653899095081,-0.013700065436091185,-0.8096632492225413
10896,6.0,300.6559,5748.9319,0.0,0.0,0.0,0.0,0.0,-0.10859835722531164,-0.37224552166027264,-0.7721427297420542,-0.6031435055006295,0.025410692321090077,-0.030647617707684368,-0.8277339872034842
10897,6.0,299.46357,5740.7388,0.0,0.0,0.0,0.0,0.0,-0.10860832403489551,-0.4204054914307916,-0.7152737639045244,-0.6093619936168464,-0.018846433621498182,0.022171548586911477,-0.8085567091858342
10898,6.0,300.64848,5769.2118,0.0,0.0,0.0,0.0,0.0,-0.10861829084447933,-0.4182739577254256,-0.7336725314728413,-0.6017498407830855,-0.0026470830569467574,0.009800908217324331,-0.8252343093392852
10899,6.0,300.34569,5822.7062,0.0,0.0,0.0,0.0,0.0,-0.10862825765406314,-0.42705946430748765,-0.7345530863397453,-0.6083447310464504,-0.005473072948275245,0.02175096772215338,-0.8050063821604442
10900,6.0,299.98771,5848.0002,0.0,0.0,0.0,0.0,0.0,-0.10863822446364696,-0.39331718219738365,-0.7461392769932133,-0.6381895770444074,0.015463320220360885,0.02934757932588057,-0.8333719843374112
10901,6.0,300.21764,5850.3985,0.0,0.0,0.0,0.0,0.0,-0.10864819127323078,-0.4198997681733806,-0.7456926363491333,-0.6127826550269394,-0.013526270752438986,-0.012573375907895588,-0.8054688700360882
10902,6.0,299.86762999999996,5558.8011,0.0,0.0,0.0,0.0,0.0,-0.10865815808281465,-0.3343077559211067,-0.7383663720310873,-0.6170626031843374,-0.02034369201601608,-0.039294794372844256,-0.8530447315214602
10903,6.0,300.72542000000004,5584.7964,0.0,0.0,0.0,0.0,0.0,-0.10866812489239841,-0.3887037329020716,-0.7507686444475963,-0.5581662860167235,-0.04896302721677455,-0.005220769215074804,-0.8246746811765542
10904,6.0,300.90644,5630.6584,0.0,0.0,0.0,0.0,0.0,-0.10867809170198223,-0.39386952509189566,-0.7444703527535034,-0.5732396680818505,0.0027392325806662077,0.007254176133056442,-0.8453842061279253
10905,6.0,300.63004,5449.2299,0.0,0.0,0.0,0.0,0.0,-0.10868805851156604,-0.3785391422714046,-0.7300678030495823,-0.5478228770084085,0.01214082855945649,0.019970474513932378,-0.8273249077406112
10906,6.0,300.15464,5561.6109,0.0,0.0,0.0,0.0,0.0,-0.10869802532114986,-0.3782091571113376,-0.7338818689435013,-0.5784998141209864,-1.8904239539703184e-05,-0.005893358146654165,-0.8243103671030992
10907,6.0,299.8288,5701.7996,0.0,0.0,0.0,0.0,0.0,-0.10870799213073373,-0.4112352233882566,-0.7181539881087803,-0.6038154828344484,0.0077547246208817325,-0.003921620669508827,-0.7886566190768483
10908,6.0,299.15341,5636.8864,0.0,0.0,0.0,0.0,0.0,-0.10871795894031755,-0.36752866005975465,-0.7516587238654403,-0.5942853387538964,-0.014317173250494987,-0.02224303034171618,-0.8419376663102781
10909,6.0,299.44236,5749.1074,0.0,0.0,0.0,0.0,0.0,-0.10872792574990131,-0.40898631479130665,-0.7328241979591172,-0.6057745816377964,4.212802606396246e-05,-0.02008037567277878,-0.8367710533878732
10910,6.0,298.94676,5920.0957,0.0,0.0,0.0,0.0,0.0,-0.10873789255948518,-0.4266727067443176,-0.7589120645737892,-0.6139765068247633,-0.02562922199665727,-0.016189763800055285,-0.8337589850806053
10911,6.0,300.21891,5805.5419999999995,0.0,0.0,0.0,0.0,0.0,-0.108747859369069,-0.4161306500538976,-0.7571256033224794,-0.5914835603723825,-0.0015802151053800884,0.025121874499335978,-0.8348467090629551
10912,6.0,299.86356,5607.8084,0.0,0.0,0.0,0.0,0.0,-0.10875782617865282,-0.38220663140585764,-0.7358924813819333,-0.5865346138364594,-0.0094582662462832,0.027415865632985273,-0.8294431982671702
10913,6.0,300.31203,5736.5882,0.0,0.0,0.0,0.0,0.0,-0.10876779298823663,-0.37403625882700464,-0.7670251378594872,-0.6027181532411504,0.006562357538429264,0.008622049278580011,-0.7970133486140932
10914,6.0,300.40609,5694.746,0.0,0.0,0.0,0.0,0.0,-0.10877775979782045,-0.37480815275318463,-0.7423848307351782,-0.6138676027040154,-0.01015247621247139,-0.013990791207783588,-0.8111411859509022
10915,6.0,300.24643,5645.5614,0.0,0.0,0.0,0.0,0.0,-0.10878772660740427,-0.41292099797712956,-0.7321938854694103,-0.5709948124853005,-0.001211085256849809,-0.005283319271573015,-0.7975618310257243
10916,6.0,299.91778,5791.3839,0.0,0.0,0.0,0.0,0.0,-0.10879769341698808,-0.39296234201236363,-0.7717237913557082,-0.5957499715084444,-0.03095904721867007,0.0022037564499688277,-0.8363933948106012
10917,6.0,299.64909,5828.9223,0.0,0.0,0.0,0.0,0.0,-0.1088076602265719,-0.4226558287103826,-0.7540476534937093,-0.5951433488060754,0.001189009475596099,-0.004992197015116485,-0.8099901135723002
10918,6.0,300.28506,5730.1193,0.0,0.0,0.0,0.0,0.0,-0.10881762703615572,-0.39770461592538964,-0.7496015323199113,-0.5945070378757764,-8.627878607730323e-06,0.01159518324810549,-0.8422200895106511
10919,6.0,299.61842,5833.8452,0.0,0.0,0.0,0.0,0.0,-0.10882759384573953,-0.4212453339086776,-0.7332751955786273,-0.6188227503305503,0.009058643243943482,0.026349047026698474,-0.8011133739512342
10920,6.0,299.17406,5786.1448,0.0,0.0,0.0,0.0,0.0,-0.1088375606553234,-0.3954309738934986,-0.7463773097067053,-0.6170352454316375,-0.013975444521768986,-0.012251378198366887,-0.8492964863540372
10921,6.0,299.23156,5595.7319,0.0,0.0,0.0,0.0,0.0,-0.10884752746490722,-0.39500493262395164,-0.7378773775328273,-0.5680804721501774,0.0004131497797172087,-0.030285200438416572,-0.8277781041128383
10922,6.0,299.05903,5637.1424,0.0,0.0,0.0,0.0,0.0,-0.10885749427449104,-0.36570087846936666,-0.7420131300684943,-0.6058365013514074,0.01978845223946818,-0.03481943080116027,-0.8379437991861143
10923,6.0,299.48213,5764.2206,0.0,0.0,0.0,0.0,0.0,-0.1088674610840748,-0.4321274069351546,-0.7287837517278564,-0.5912679711486054,0.048985364315229055,-0.015123475123570786,-0.7950302155183733
10924,6.0,300.16402999999997,5538.345,0.0,0.0,0.0,0.0,0.0,-0.10887742789365862,-0.37226032524423364,-0.7255255953688012,-0.5857326871773154,0.004383692200686736,0.008063300920910843,-0.8344084581297032
10925,6.0,300.28753,5587.8488,0.0,0.0,0.0,0.0,0.0,-0.10888739470324249,-0.35405060987957465,-0.7321267272527823,-0.6123891796156065,-0.005554380695924694,-0.021874882129882776,-0.8075149968905252
10926,6.0,300.88597000000004,5906.4513,0.0,0.0,0.0,0.0,0.0,-0.10889736151282631,-0.4118460308135386,-0.7686676365365893,-0.6149000437609093,-0.004634216666711576,-0.0008847272281657792,-0.8181308485857283
10927,6.0,300.36624,5858.3579,0.0,0.0,0.0,0.0,0.0,-0.10890732832241012,-0.4295047813038216,-0.7416779368029133,-0.6096118104290015,-0.007850361042170313,0.003658166929557966,-0.8059130079524212
10928,6.0,298.76122000000004,5546.1721,0.0,0.0,0.0,0.0,0.0,-0.10891729513199394,-0.37535487210964164,-0.7301760384252644,-0.5803669199477555,0.0031889174333466475,-0.005710567828614165,-0.8505007543628893
10929,6.0,299.76437999999996,5628.2797,0.0,0.0,0.0,0.0,0.0,-0.10892726194157776,-0.4120328639994776,-0.7307512301095312,-0.5680724066793814,-0.015457823338568384,-0.02143592496131108,-0.8228744498563852
10930,6.0,299.20236,5610.3963,0.0,0.0,0.0,0.0,0.0,-0.10893722875116157,-0.35456784365812166,-0.7141094179496124,-0.6367431118641523,0.012275126754210688,0.023925812803043876,-0.8242468667193322
10931,6.0,299.59368,5586.751,0.0,0.0,0.0,0.0,0.0,-0.10894719556074539,-0.36931318600337365,-0.7292070470896324,-0.5997125596020214,0.013480520483923788,0.016656839672152084,-0.8110041236098753
10932,6.0,298.60774,5691.7388,0.0,0.0,0.0,0.0,0.0,-0.10895716237032926,-0.40017429145412764,-0.7157452697060582,-0.6142269214544774,-0.017091688111568283,0.03203054298741847,-0.8214961865403612
10933,6.0,298.28917,5692.826,0.0,0.0,0.0,0.0,0.0,-0.10896712917991302,-0.39642824503942165,-0.7333417661101973,-0.6007069429851594,-0.012688630067020288,-0.023149860810213377,-0.8211732434684892
10934,6.0,298.6935,5557.3434,0.0,0.0,0.0,0.0,0.0,-0.10897709598949684,-0.35259897712380966,-0.7495665650589602,-0.5871280642875285,-0.0015284119847425186,-0.026007823909772375,-0.8292691218999902
10935,6.0,300.03775,5852.214,0.0,0.0,0.0,0.0,0.0,-0.10898706279908071,-0.4407124217199295,-0.7243704193272944,-0.6138440750366934,0.03017174378496927,-0.00982916522948808,-0.7826053476246342
10936,6.0,299.10177999999996,6061.0159,0.0,0.0,0.0,0.0,0.0,-0.10899702960866448,-0.3999371402682226,-0.8035608998327862,-0.6388994397994654,0.006761561292189144,-0.013174610146232788,-0.8297378108662462
10937,6.0,299.1346,5593.7725,0.0,0.0,0.0,0.0,0.0,-0.10900699641824835,-0.36388029095468866,-0.7516755336845993,-0.5848113185963835,0.0049946961964881355,-0.006761953723952874,-0.8086290147129702
10938,6.0,298.77873,5408.545,0.0,0.0,0.0,0.0,0.0,-0.10901696322783216,-0.3459681063493937,-0.7157153281656033,-0.5823792042488525,-0.030119534047066573,0.00982240310229571,-0.8376190322640623
10939,6.0,299.86596000000003,5775.4583,0.0,0.0,0.0,0.0,0.0,-0.10902693003741598,-0.4080000475414696,-0.7476284911951873,-0.5999665712695904,-0.005274162327769295,0.005408243889652114,-0.8175279951737312
10940,6.0,300.27844,5877.1162,0.0,0.0,0.0,0.0,0.0,-0.1090368968469998,-0.44417825381948056,-0.7505534503913583,-0.5917648588651444,-0.015779832193848185,0.025307968012701975,-0.8284449645336522
10941,6.0,301.0845,5678.603,0.0,0.0,0.0,0.0,0.0,-0.10904686365658356,-0.4086992306404736,-0.7293145427927413,-0.5881397539823745,0.003103479070339537,-0.007396084747986733,-0.8284870245453032
10942,6.0,300.25524,5509.2014,0.0,0.0,0.0,0.0,0.0,-0.10905683046616749,-0.3527080534970747,-0.7282565880983294,-0.5936950293781375,-0.011307348278948389,-0.006360050503588114,-0.8156862915269691
10943,6.0,300.66582999999997,5684.5917,0.0,0.0,0.0,0.0,0.0,-0.10906679727575125,-0.4001050155447906,-0.7246550716778873,-0.6032138453225714,-0.005306863150896615,-0.00029391701301485074,-0.8139902831120862
10944,6.0,299.58498,5963.1836,0.0,0.0,0.0,0.0,0.0,-0.10907676408533507,-0.43928394172894963,-0.7688843302029753,-0.6044906620385835,-0.013165839453367188,0.024018069224648875,-0.8498994208260423
10945,6.0,299.64707000000004,5999.3442,0.0,0.0,0.0,0.0,0.0,-0.10908673089491888,-0.4479632090380266,-0.7757294831085393,-0.5999581410287584,-0.0036985565984191163,-0.01115261181642709,-0.8579738690179283
10946,6.0,299.17794,5541.3985,0.0,0.0,0.0,0.0,0.0,-0.1090966977045027,-0.3969495216858676,-0.7357835063336783,-0.5517137573924085,0.019297774732792084,-0.022019179076623777,-0.8239056243506542
10947,6.0,300.40929,5455.5162,0.0,0.0,0.0,0.0,0.0,-0.10910666451408657,-0.3499899898388227,-0.7472518458680153,-0.5610988851186485,0.011915053132424188,-0.030504851781844474,-0.8301373151156741
10948,6.0,299.65212,5832.0636,0.0,0.0,0.0,0.0,0.0,-0.10911663132367039,-0.3871570876844296,-0.7422523381521022,-0.6433922819353745,0.007319535729431933,0.0025489507980118575,-0.8219229573499802
10949,6.0,299.68979,5928.0872,0.0,0.0,0.0,0.0,0.0,-0.10912659813325415,-0.42833474088334755,-0.7651380304757442,-0.6085177029710215,-0.004849633840621595,-0.005474899635555525,-0.8088472282545063
10950,6.0,300.56876,5568.0971,0.0,0.0,0.0,0.0,0.0,-0.10913656494283802,-0.38463958675097165,-0.7317301411636423,-0.5761927449682964,-0.03006385392757137,0.016433134315074083,-0.8461735482208272
10951,6.0,301.61318,5474.3086,0.0,0.0,0.0,0.0,0.0,-0.10914653175242178,-0.39128616290193763,-0.7107406450771403,-0.5620262926701765,-0.027953631911558675,0.026661283084763773,-0.8156098418069242
10952,6.0,300.6184,5747.9735,0.0,0.0,0.0,0.0,0.0,-0.10915649856200565,-0.4016186490741746,-0.7654215378537244,-0.5802002200413034,-0.012435897121077488,0.04132448225765886,-0.8605621252058692
10953,6.0,299.98206,5947.1295,0.0,0.0,0.0,0.0,0.0,-0.10916646537158947,-0.4117612420451706,-0.7696730542133162,-0.6263445719178964,-0.005475747928539244,-0.012534193526528589,-0.8309505901759382
10954,6.0,299.16234,5840.0852,0.0,0.0,0.0,0.0,0.0,-0.10917643218117329,-0.38172728304854964,-0.7550626970463863,-0.6384500836451175,0.011810121965318289,-0.03634906253637317,-0.8318353601632582
10955,6.0,300.10492,5828.2363,0.0,0.0,0.0,0.0,0.0,-0.1091863989907571,-0.41535127834197966,-0.7560872347525003,-0.6001997809126064,0.015886263984352184,-0.018220232900696985,-0.7988755604428793
10956,6.0,300.36936000000003,5693.8337,0.0,0.0,0.0,0.0,0.0,-0.10919636580034092,-0.38755853737404966,-0.7336758346681672,-0.6095488774652904,0.012388941084943289,0.003904558652399936,-0.8237935386245923
10957,6.0,299.95658,5706.9034,0.0,0.0,0.0,0.0,0.0,-0.10920633260992474,-0.41974615945822064,-0.7436415344367053,-0.5713684281946735,0.008043116776268821,0.012733372151685988,-0.8365352599571023
10958,6.0,298.98719,5987.1426,0.0,0.0,0.0,0.0,0.0,-0.10921629941950856,-0.4239687779249606,-0.7636553416044143,-0.6323177420524024,0.012650119470469588,0.004643577273785396,-0.7881329106301622
10959,6.0,300.42912,5889.3538,0.0,0.0,0.0,0.0,0.0,-0.10922626622909237,-0.3823624692712376,-0.7516416607337563,-0.6562123882956203,0.034615072441491666,0.007186951143246853,-0.8111176380185783
10960,6.0,301.28852,5550.8272,0.0,0.0,0.0,0.0,0.0,-0.10923623303867624,-0.3407678129936647,-0.7355326256089183,-0.6110124159097304,0.008636525886733741,-0.010873437095874688,-0.8171781705767062
10961,6.0,301.86587000000003,5640.0258,0.0,0.0,0.0,0.0,0.0,-0.10924619984826,-0.3851850699423066,-0.7079956796287333,-0.6212462723172334,-0.009303495029283472,-0.02569640959753818,-0.8327825666217402
10962,6.0,301.18268,5782.7059,0.0,0.0,0.0,0.0,0.0,-0.10925616665784388,-0.40850544655884863,-0.7332196593406463,-0.6160730935341804,-0.02363946629828368,-0.01009691231276266,-0.8197651703345232
10963,6.0,300.38244,5690.8167,0.0,0.0,0.0,0.0,0.0,-0.10926613346742764,-0.40119217210708463,-0.7331957669032884,-0.5954782482291274,-0.02226084733147458,0.051271339627337244,-0.8617141297745631
10964,6.0,299.83771,5715.8434,0.0,0.0,0.0,0.0,0.0,-0.10927610027701146,-0.39981155805082863,-0.7309229152064753,-0.6067391856004954,-0.017931960207496683,0.06409621028955344,-0.8405360779769522
10965,6.0,300.34921,5604.8358,0.0,0.0,0.0,0.0,0.0,-0.10928606708659533,-0.3385162699464547,-0.7548727734476423,-0.6103410971884764,-0.006514217722203234,0.03785774431251846,-0.8509005119248422
10966,6.0,298.92669,5395.3202,0.0,0.0,0.0,0.0,0.0,-0.10929603389617915,-0.36924131617378064,-0.6938279101054833,-0.5769734035078414,0.011292916557774091,-0.0060483625125019045,-0.8088076405730993
10967,6.0,298.89492,5686.8082,0.0,0.0,0.0,0.0,0.0,-0.10930600070576296,-0.39371494365663967,-0.7286161398963144,-0.6063166197787915,0.024661404004641077,-0.016565778885665086,-0.8136950726954512
10968,6.0,299.048,5814.3281,0.0,0.0,0.0,0.0,0.0,-0.10931596751534678,-0.40727751916016164,-0.7549543096831893,-0.6051787399164914,0.024165268119676276,-0.014468998645478987,-0.8251324169092293
10969,6.0,298.91875,5494.0003,0.0,0.0,0.0,0.0,0.0,-0.10932593432493054,-0.37862748754762365,-0.7313668302077863,-0.5600445781245965,0.01109030402802779,-0.017404367973177383,-0.8419977520412082
10970,6.0,300.64164,5756.9013,0.0,0.0,0.0,0.0,0.0,-0.10933590113451441,-0.36987170972349565,-0.7800175473992382,-0.6000649882518034,0.004008409796224246,-0.002193942920100308,-0.8351709490949553
10971,6.0,300.4204,5986.4031,0.0,0.0,0.0,0.0,0.0,-0.10934586794409823,-0.4131383502560806,-0.7668472212744283,-0.6397315005165835,-7.766733357091903e-05,0.0006117877954162545,-0.8471567453228612
10972,6.0,299.14058,5937.5196,0.0,0.0,0.0,0.0,0.0,-0.1093558347536821,-0.42624809415741166,-0.7415766624554183,-0.6370329520552575,0.013969567671188987,-0.011965251568878387,-0.8142414779443772
10973,6.0,299.83346,5753.2546,0.0,0.0,0.0,0.0,0.0,-0.10936580156326586,-0.4022483941438256,-0.7326807318774583,-0.6139166237438535,-0.01077366235852769,-0.015856657829680286,-0.8542959130099422
10974,6.0,300.6968,5679.7901,0.0,0.0,0.0,0.0,0.0,-0.10937576837284968,-0.4217324133642486,-0.7091744846625724,-0.5956074882793824,0.006675643459234714,-0.017978582884347984,-0.8055763454741952
10975,6.0,300.66845,5818.0956,0.0,0.0,0.0,0.0,0.0,-0.10938573518243355,-0.43729361455751964,-0.7547671421247173,-0.5764950076056274,-0.007378802956931153,0.023846019357668877,-0.8368985506479563
10976,6.0,300.00537,6007.0702,0.0,0.0,0.0,0.0,0.0,-0.10939570199201731,-0.4229302573674666,-0.7878359168933513,-0.6152331598637855,-0.013165522306085885,0.03088321456793597,-0.8199969512948981
10977,6.0,298.92686000000003,5922.4367,0.0,0.0,0.0,0.0,0.0,-0.10940566880160119,-0.4010864090616466,-0.7885243494087942,-0.6106621049526574,0.004753716546405295,0.026979878300456672,-0.8266550784970043
10978,6.0,299.51197,5664.2178,0.0,0.0,0.0,0.0,0.0,-0.109415635611185,-0.41242715001089064,-0.7231238075967633,-0.5862298383388804,0.0029013969770205874,-0.02131153229953448,-0.7593926997587244
10979,6.0,300.19646,5599.7941,0.0,0.0,0.0,0.0,0.0,-0.10942560242076876,-0.38380308799841567,-0.7482977327537363,-0.5700967486566685,-0.004245746102922517,-0.020161813623066082,-0.8239319688532543
10980,6.0,299.89231,5758.335,0.0,0.0,0.0,0.0,0.0,-0.10943556923035264,-0.4114672475286556,-0.7287220549292673,-0.6102007721821274,0.004677220622155735,-0.031044959681398972,-0.8029922942741692
10981,6.0,299.13796,5854.9799,0.0,0.0,0.0,0.0,0.0,-0.1094455360399364,-0.4253712781833766,-0.7734011357037492,-0.5809952768647695,0.005562143812890855,0.013328522836422788,-0.8655649057196052
10982,6.0,298.86376,5629.3128,0.0,0.0,0.0,0.0,0.0,-0.10945550284952033,-0.36865447211336366,-0.7361327939081502,-0.6063832612378685,0.015346139872796085,0.023652502774070275,-0.8384710641406511
10983,6.0,298.54042999999996,5540.9851,0.0,0.0,0.0,0.0,0.0,-0.10946546965910409,-0.38284609354396765,-0.7291390174779183,-0.5723359908476644,-0.003373281936742007,0.03563010991466807,-0.8759780364673012
10984,6.0,299.06652,5767.9881,0.0,0.0,0.0,0.0,0.0,-0.1094754364686879,-0.39003101960556463,-0.7552842644457533,-0.6080090919508254,-0.026806132252809273,0.02208545373916458,-0.8408673600971471
10985,6.0,299.56768999999997,5782.6467,0.0,0.0,0.0,0.0,0.0,-0.10948540327827172,-0.38972984114584064,-0.7538581757250093,-0.6141921669760474,-0.028193101413692474,0.0014448720471227686,-0.8522190137499682
10986,6.0,300.00555,5689.3602,0.0,0.0,0.0,0.0,0.0,-0.10949537008785554,-0.38641239952343465,-0.7437724868796294,-0.5992385409402394,-0.013331929383258986,-0.016121288358297285,-0.8155668192076782
10987,6.0,299.30101,5760.4678,0.0,0.0,0.0,0.0,0.0,-0.10950533689743941,-0.38595202934049966,-0.7783358663407692,-0.5867504867702644,-0.01268723988788309,-0.014485518675109386,-0.8163239906099052
10988,6.0,300.74879,5849.6741,0.0,0.0,0.0,0.0,0.0,-0.10951530370702323,-0.38243381221077866,-0.7758562204310473,-0.6198648273958954,0.0014042223782859584,-0.022851628881780182,-0.8264647495982202
10989,6.0,299.64562,5884.4853,0.0,0.0,0.0,0.0,0.0,-0.10952527051660699,-0.4114194423889376,-0.7707977922218192,-0.6065193711238014,0.027244452087068077,0.02965297999877127,-0.8290467337680422
10990,6.0,300.60927000000004,5946.3339,0.0,0.0,0.0,0.0,0.0,-0.10953523732619086,-0.4219186284676266,-0.7545254211808613,-0.6310929962590294,0.02168524730741728,0.004604161439595356,-0.7990125315913972
10991,6.0,299.96431,5701.7774,0.0,0.0,0.0,0.0,0.0,-0.10954520413577462,-0.3926374129702956,-0.7176049078795903,-0.6229556252359334,0.018360699762059982,0.017369532434739383,-0.8078553779966182
10992,6.0,300.26957999999996,5546.0591,0.0,0.0,0.0,0.0,0.0,-0.1095551709453585,-0.4042041188243406,-0.7191004143646853,-0.5625589379827445,-0.02012290684572628,-0.009512990060334021,-0.8204121305233733
10993,6.0,299.72059,5652.6975,0.0,0.0,0.0,0.0,0.0,-0.10956513775494231,-0.3843783810076926,-0.7090090918487493,-0.6248914091544804,-0.015426475406974588,0.015347473309927686,-0.8516470543335202
10994,6.0,300.47897,5894.7383,0.0,0.0,0.0,0.0,0.0,-0.10957510456452613,-0.43539349704249264,-0.7307949011888414,-0.6256648736183155,-0.015647979984835383,-0.012656284084077988,-0.8442587588443521
10995,6.0,299.69604,5877.4118,0.0,0.0,0.0,0.0,0.0,-0.10958507137410994,-0.42990617019843563,-0.7264317044032274,-0.6302485738906914,-0.00013786109621333087,0.012321411005528589,-0.8467960688172652
10996,6.0,298.90042,5745.4296,0.0,0.0,0.0,0.0,0.0,-0.10959503818369376,-0.41601434920741964,-0.7269001400569582,-0.6035526457585084,-0.0006177504480147224,-0.01943074658316538,-0.8163302423630222
10997,6.0,299.06937999999997,5871.3484,0.0,0.0,0.0,0.0,0.0,-0.10960500499327758,-0.3847145672583716,-0.7716130127222752,-0.6284157260498034,-0.012317253640368288,0.003832964629484156,-0.8211793938965962
10998,6.0,300.32583999999997,5989.4661,0.0,0.0,0.0,0.0,0.0,-0.1096149718028614,-0.43569037932179255,-0.7471824585011673,-0.6377752996085214,-0.007836962329472962,-0.007696375600623132,-0.7746753888970083
10999,6.0,300.04508,6022.7957,0.0,0.0,0.0,0.0,0.0,-0.10962493861244521,-0.40547175549444664,-0.7994252486221293,-0.6258824994747935,-0.009583900240757311,-0.007218649456725234,-0.8264063357299553
11000,6.0,300.60536,5834.8987,0.0,0.0,0.0,0.0,0.0,-0.10963490542202908,-0.4064855730145026,-0.7593863162830943,-0.6077916180818624,0.02339059180872168,-0.0015545838295254787,-0.8407815986086832
11001,6.0,300.79649,5384.3904,0.0,0.0,0.0,0.0,0.0,-0.10964487223161284,-0.35245891556248665,-0.7354891369146263,-0.5487721910270985,0.008701678577438811,-0.01125976301450209,-0.8770714042527081
11002,6.0,300.30422999999996,5379.776999999999,0.0,0.0,0.0,0.0,0.0,-0.10965483904119666,-0.3455278390484427,-0.7240420756323893,-0.5657479501549755,0.02735558231828577,-0.004382481164167215,-0.8577130787071902
11003,6.0,300.11226,5781.2294,0.0,0.0,0.0,0.0,0.0,-0.10966480585078048,-0.4041482684788286,-0.7358546263581973,-0.6173464854648544,0.005263000668642725,0.019049357219025183,-0.8377425170537492
11004,6.0,299.99617,5757.4616,0.0,0.0,0.0,0.0,0.0,-0.1096747726603643,-0.4077145339282916,-0.7516179304164142,-0.5907920881066395,0.026066030061766873,0.008601940114445393,-0.8457198350910492
11005,6.0,299.19319,5528.9715,0.0,0.0,0.0,0.0,0.0,-0.10968473946994817,-0.34083438352523465,-0.7410935549402393,-0.5987413391161693,-0.002254063506833748,0.01070362043211509,-0.8648317179472451
11006,6.0,299.27337,5775.0956,0.0,0.0,0.0,0.0,0.0,-0.10969470627953198,-0.3994703866096576,-0.7566851941665143,-0.5993292774866944,-0.012885612979210988,-0.03965878420626726,-0.8488890990188313
11007,6.0,299.79874,6086.733,0.0,0.0,0.0,0.0,0.0,-0.1097046730891158,-0.4414540296006206,-0.7970834452560113,-0.6116773815528573,-0.017160456382605185,-0.025840831174041474,-0.8473462940190681
11008,6.0,299.84699,6087.286,0.0,0.0,0.0,0.0,0.0,-0.10971463989869962,-0.4483859572447486,-0.7762782390976972,-0.6257187481261324,-0.018675113294590182,-0.017828876195323085,-0.8332650155243542
11009,6.0,300.02955,5889.4983,0.0,0.0,0.0,0.0,0.0,-0.10972460670828338,-0.4354034167609716,-0.7655156383905113,-0.5893413571434635,0.006168932890926275,0.009174395010192292,-0.8089502251271712
11010,6.0,300.10065,5754.3196,0.0,0.0,0.0,0.0,0.0,-0.10973457351786725,-0.4046096823093666,-0.7451783713933794,-0.5993814294693414,0.005242623499856654,0.00991800851813123,-0.7793124165221472
11011,6.0,300.24935,5795.8376,0.0,0.0,0.0,0.0,0.0,-0.10974454032745107,-0.37482807325015066,-0.7644347335813343,-0.6225271015036414,0.03974665933443986,0.034145215197870366,-0.8117301274390262
11012,6.0,300.65747999999996,5944.1527,0.0,0.0,0.0,0.0,0.0,-0.10975450713703488,-0.4381093011530216,-0.7623790213809513,-0.6063856727731064,0.02830861293834257,0.00817466967120208,-0.8234927451999062
11013,6.0,300.79855,5883.9594,0.0,0.0,0.0,0.0,0.0,-0.1097644739466187,-0.4083475923257696,-0.7637209191508862,-0.6165082236571243,0.03761621081993097,-0.015459866050769985,-0.8574732221435182
11014,6.0,300.29814,5451.2453,0.0,0.0,0.0,0.0,0.0,-0.10977444075620252,-0.3614291376377787,-0.7225451404646533,-0.5730681653699244,0.003964311125372046,-0.019407535049874584,-0.8539513370484352
11015,6.0,299.65002000000004,5533.991999999999,0.0,0.0,0.0,0.0,0.0,-0.10978440756578639,-0.3701958788279886,-0.7498885556757383,-0.5621109395835305,-0.020989805127782483,-0.0025168298579167675,-0.8504215688675741
11016,6.0,299.98432,5989.5802,0.0,0.0,0.0,0.0,0.0,-0.10979437437537015,-0.4355155227520356,-0.7498270311296663,-0.6353402569682014,-0.05467734842773415,0.03657091871201867,-0.8168618440279872
11017,6.0,299.80451,5918.1268,0.0,0.0,0.0,0.0,0.0,-0.10980434118495402,-0.39873811076238763,-0.7793585700642023,-0.6208660907472124,-0.027857100587781774,0.027803587810250475,-0.8430575001882972
11018,6.0,300.01582,5490.9394,0.0,0.0,0.0,0.0,0.0,-0.10981430799453779,-0.3899184779169576,-0.7351051657892314,-0.5440848048719895,-0.017149427155266683,0.0037709989143186163,-0.8287936238930622
11019,6.0,299.34637999999995,5679.1154,0.0,0.0,0.0,0.0,0.0,-0.1098242748041216,-0.37086644774416866,-0.7625540603357263,-0.5928887660085654,0.012543212465668687,-0.00969081646613412,-0.8362257019190511
11020,6.0,299.92291,6015.0655,0.0,0.0,0.0,0.0,0.0,-0.10983424161370547,-0.4382110517280636,-0.8075980428687212,-0.5826206212176784,0.02189341751396208,-0.02157956430873718,-0.8580552127359562
11021,6.0,300.01185,6018.8808,0.0,0.0,0.0,0.0,0.0,-0.10984420842328929,-0.44236027035755954,-0.7634746993765863,-0.6237545020122764,0.028487660310513172,0.006451037120167794,-0.8011613513434692
11022,6.0,300.56897000000004,5852.6206,0.0,0.0,0.0,0.0,0.0,-0.10985417523287311,-0.37806020934663764,-0.7762286506378032,-0.6247616624791754,0.015092954004058586,-0.00919509337926006,-0.8252588705217091
11023,6.0,300.68426,5604.0039,0.0,0.0,0.0,0.0,0.0,-0.10986414204245692,-0.36420613192184664,-0.7274139490501673,-0.6118571523855995,0.02458005522036258,-0.0045239725227063255,-0.8044153331121122
11024,6.0,301.36433999999997,5681.3767,0.0,0.0,0.0,0.0,0.0,-0.10987410885204074,-0.39298133031923765,-0.7144217624254383,-0.6195935600791235,0.007615893550480174,-0.0089989093134482,-0.8362677416657003
11025,6.0,301.25324,5976.1413,0.0,0.0,0.0,0.0,0.0,-0.10988407566162456,-0.4139119565749296,-0.7663158019944812,-0.6363699723823264,-0.0014684072124955087,-0.031057512836887867,-0.8375678327365091
11026,6.0,300.9682,6023.9365,0.0,0.0,0.0,0.0,0.0,-0.10989404247120838,-0.45789046609777057,-0.7378285186130052,-0.6354072834623165,-0.017608821578355385,-0.029045280211545975,-0.8351938890772191
11027,6.0,300.24253,5819.7451,0.0,0.0,0.0,0.0,0.0,-0.10990400928079225,-0.4312952651580286,-0.7353565632715423,-0.6024053730677814,-0.012287767049208188,0.019342238173680283,-0.8237664747144212
11028,6.0,299.31032000000005,5879.0154,0.0,0.0,0.0,0.0,0.0,-0.10991397609037601,-0.3982824015299126,-0.7663457131374333,-0.6224457679181143,-0.023133364085335277,0.03991103991141296,-0.8301208194040461
11029,6.0,300.11286,6151.4057,0.0,0.0,0.0,0.0,0.0,-0.10992394289995983,-0.46671951203662954,-0.7627622832312763,-0.6403919267992624,-0.03046705248686397,0.03485331185800407,-0.7812035161112842
11030,6.0,299.72571,6036.2043,0.0,0.0,0.0,0.0,0.0,-0.10993390970954364,-0.44576460830854153,-0.7689620059556412,-0.6201287790469454,-0.03729086127907146,-0.0009817609314747599,-0.8023255047808622
11031,6.0,299.93653,5777.9892,0.0,0.0,0.0,0.0,0.0,-0.10994387651912746,-0.36694382223453564,-0.7687585959980663,-0.6206620221770724,0.008259209889320553,-0.03689153434841096,-0.8359552046723552
11032,6.0,300.50925,5668.5224,0.0,0.0,0.0,0.0,0.0,-0.10995384332871133,-0.4058189557737126,-0.7380816183554842,-0.5791886823339724,0.030023122286801474,-0.01193415694980959,-0.8432842148981723
11033,6.0,300.19057999999995,5626.5938,0.0,0.0,0.0,0.0,0.0,-0.10996381013829515,-0.37029770033053766,-0.7487542829837943,-0.5912920257059795,0.03736390445228026,-0.011627079348003388,-0.8644323150228272
11034,6.0,299.64772999999997,5615.6397,0.0,0.0,0.0,0.0,0.0,-0.10997377694787897,-0.35334982584541264,-0.7307880414856643,-0.6228763688131114,0.02390971428545508,-0.0031684283004245273,-0.8353472343473531
11035,6.0,299.89492,5608.7204,0.0,0.0,0.0,0.0,0.0,-0.10998374375746278,-0.35760190962506067,-0.7308182768686483,-0.6164907653579015,0.0032931130822049575,0.018860856223421586,-0.8337181004390702
11036,6.0,298.37545,5584.4986,0.0,0.0,0.0,0.0,0.0,-0.10999371056704654,-0.3428059757023157,-0.7371539878889343,-0.6175881760112074,0.0049027573274644754,0.008526329973433252,-0.8522704969875491
11037,6.0,298.86122,5796.3339,0.0,0.0,0.0,0.0,0.0,-0.11000367737663042,-0.40412227861376365,-0.7261610045065113,-0.6316574778897394,-0.012897158964100488,-0.005754166460542015,-0.8347783349462072
11038,6.0,299.05523,6133.6176,0.0,0.0,0.0,0.0,0.0,-0.11001364418621423,-0.47584307938205556,-0.7824677989235592,-0.6061557257954124,-0.02456719201034308,-0.008485608769139381,-0.8228846938148963
11039,6.0,299.18862,6073.4935,0.0,0.0,0.0,0.0,0.0,-0.11002361099579805,-0.46050863342866355,-0.7662017404307243,-0.6194799950079154,-0.013110627455418187,-0.026031495458608576,-0.7976764296120342
11040,6.0,299.9908,5862.0803,0.0,0.0,0.0,0.0,0.0,-0.11003357780538187,-0.4146619845639516,-0.7651298130174333,-0.6021342577385245,-0.02006773031153078,0.015431578134478185,-0.8175248844959242
11041,6.0,300.97587000000004,5675.4944,0.0,0.0,0.0,0.0,0.0,-0.11004354461496568,-0.4319300764781796,-0.7339775501504443,-0.5593009437437055,0.0007079043959272244,0.005157911637171246,-0.7988102463414333
11042,6.0,300.01079,5688.6236,0.0,0.0,0.0,0.0,0.0,-0.11005351142454955,-0.3819571692312376,-0.7333441979104374,-0.6138981623270314,0.009524724205767091,0.003094113700990247,-0.8168259749744472
11043,6.0,300.03208,5753.8268,0.0,0.0,0.0,0.0,0.0,-0.11006347823413332,-0.3721653735773626,-0.7948608203666553,-0.5819934802007845,0.016859739964926786,0.01076715627963559,-0.8470132995062043
11044,6.0,299.71487,5760.133000000001,0.0,0.0,0.0,0.0,0.0,-0.11007344504371713,-0.41586478336015864,-0.7481682393909562,-0.5869035584628715,0.03286352981512787,0.013669638548838287,-0.8693332537690122
11045,6.0,299.70807,5776.7426,0.0,0.0,0.0,0.0,0.0,-0.110083411853301,-0.4048727321678276,-0.7558372355553272,-0.5952755272816204,0.018932290355471584,-0.007823398051709273,-0.8666933522234742
11046,6.0,299.91637000000003,5678.3757,0.0,0.0,0.0,0.0,0.0,-0.11009337866288477,-0.4268548384497926,-0.7303129994412814,-0.5689165858676954,-0.020828827044645178,-0.0049752924570731355,-0.8356223114845012
11047,6.0,300.67885,5814.340999999999,0.0,0.0,0.0,0.0,0.0,-0.11010334547246864,-0.4143773018158556,-0.7223478201401793,-0.6306893680816944,-0.019395385167925484,-0.0016097783995727586,-0.8257149445242202
11048,6.0,300.02321,5925.8646,0.0,0.0,0.0,0.0,0.0,-0.1101133122820524,-0.3940196279617096,-0.7988808293433992,-0.6084144021233264,-0.04327769002492546,0.02941687347371937,-0.8173737886410123
11049,6.0,301.23396,5787.7849,0.0,0.0,0.0,0.0,0.0,-0.11012327909163622,-0.3929539523015356,-0.7634802114571303,-0.6029079045873774,-0.0033092260892701873,0.01056767570594839,-0.8294526417581022
11050,6.0,299.74608,5654.2096,0.0,0.0,0.0,0.0,0.0,-0.11013324590122009,-0.4040980923338766,-0.7498242548243923,-0.5648161754955164,-0.010855317144336388,-0.008601114011638862,-0.8072097552979003
11051,6.0,300.26178,5778.7676,0.0,0.0,0.0,0.0,0.0,-0.1101432127108039,-0.3849218376988276,-0.7905355799297872,-0.5811436369444115,0.0005541917213069643,-0.014739791761204185,-0.8661279890651772
11052,6.0,300.14704,5775.2252,0.0,0.0,0.0,0.0,0.0,-0.11015317952038772,-0.41969031924520955,-0.7502298892369254,-0.5856040550771204,-0.008114055935644973,0.0029510690300478372,-0.8337068837604631
11053,6.0,299.03017,5628.5366,0.0,0.0,0.0,0.0,0.0,-0.11016314632997154,-0.37642098346735864,-0.7402186945388973,-0.5942949038348404,-0.004503037357090186,0.005514524097941155,-0.8409307388909022
11054,6.0,299.29772,5868.4915,0.0,0.0,0.0,0.0,0.0,-0.1101731131395553,-0.3778828905791376,-0.7663025486831733,-0.6396894405049324,0.004203425787320826,-0.005800337227848714,-0.8409681176870911
11055,6.0,300.73195,5831.1222,0.0,0.0,0.0,0.0,0.0,-0.11018307994913923,-0.4029872865142486,-0.7272979015162143,-0.6422303475157004,0.035742963684305865,-0.03060608053308497,-0.8088865727558893
11056,6.0,299.2026,5730.7598,0.0,0.0,0.0,0.0,0.0,-0.11019304675872299,-0.37252699240555165,-0.7579378144701383,-0.6115430752521024,0.03793541094593357,0.0044730525508559155,-0.859534081654409
11057,6.0,298.76541000000003,5981.1065,0.0,0.0,0.0,0.0,0.0,-0.11020301356830686,-0.44588721157064154,-0.7514183708092192,-0.6208014453908325,0.031614698053627766,-0.03740198847053887,-0.7977163516659742
11058,6.0,299.12359,6108.0108,0.0,0.0,0.0,0.0,0.0,-0.11021298037789062,-0.5014055352898735,-0.7411968861854373,-0.6140803548275124,-0.0013379986822251886,-0.02166814871197978,-0.8081788074285382
11059,6.0,300.02779,5949.2935,0.0,0.0,0.0,0.0,0.0,-0.11022294718747444,-0.4463320384970426,-0.7482209182636553,-0.6138837032481044,-0.013796760906384287,-0.002301924780607288,-0.7787345498576163
11060,6.0,300.38178999999997,5939.8451,0.0,0.0,0.0,0.0,0.0,-0.11023291399705831,-0.39580655530806563,-0.7626284024955633,-0.6471296245317214,-0.02651272035510177,0.047757188670267556,-0.8182822180181671
11061,6.0,300.50416,5933.0825,0.0,0.0,0.0,0.0,0.0,-0.11024288080664213,-0.3978915099063346,-0.7744082455081432,-0.6312091856479963,-0.036297907591824566,0.04584734091453026,-0.7941650113904842
11062,6.0,300.38775,5753.6575,0.0,0.0,0.0,0.0,0.0,-0.11025284761622595,-0.3656854568028447,-0.7555292277899294,-0.6277535367119504,-0.04406089080897136,0.005526617035234635,-0.8540849340741201
11063,6.0,300.94662999999997,5714.2126,0.0,0.0,0.0,0.0,0.0,-0.11026281442580976,-0.3897139736492746,-0.7467766011736122,-0.6004873818209905,-0.0007586123755917123,-0.013664307840062187,-0.8462457321579513
11064,6.0,300.44145,5534.2244,0.0,0.0,0.0,0.0,0.0,-0.11027278123539352,-0.38683378997502266,-0.7403147709133794,-0.5551174569958275,0.006900324272183983,0.0020322913296215383,-0.8646278824246282
11065,6.0,299.80998,5472.6196,0.0,0.0,0.0,0.0,0.0,-0.1102827480449774,-0.34419210183911564,-0.7151799166802624,-0.6041676784367074,0.02186515290242258,-0.0026127757257858875,-0.8694991633403861
11066,6.0,298.60177999999996,5743.2851,0.0,0.0,0.0,0.0,0.0,-0.11029271485456121,-0.36669957829793065,-0.7642296112310902,-0.6148860710420304,0.00997619653294894,-0.030483131752700867,-0.8273270862283262
11067,6.0,298.35949,6034.1659,0.0,0.0,0.0,0.0,0.0,-0.11030268166414509,-0.4151260125797476,-0.7814004007382153,-0.6377093370270115,0.022561315502878477,0.0005051766393795525,-0.8264634526380922
11068,6.0,299.68933,6188.1784,0.0,0.0,0.0,0.0,0.0,-0.11031264847372885,-0.4238355355368106,-0.7959981125438972,-0.6612180667046423,0.024426526551960478,0.015252147753769787,-0.8058902300901732
11069,6.0,300.59153,5989.674,0.0,0.0,0.0,0.0,0.0,-0.11032261528331266,-0.44156471704154454,-0.7821494458746403,-0.5969971607915324,-0.016792977929087884,0.009349589093557601,-0.8158342361740702
11070,6.0,299.25995,5902.068,0.0,0.0,0.0,0.0,0.0,-0.11033258209289648,-0.44966718159869556,-0.7377098670262954,-0.6067042487370474,-0.031257632771388176,-0.029366011358449674,-0.7914186679219413
11071,6.0,300.58879,6034.5178,0.0,0.0,0.0,0.0,0.0,-0.1103425489024803,-0.43158457845908155,-0.7713184203882013,-0.6314397304432494,-0.023429098352271978,-0.030228377372808573,-0.8179079132987263
11072,6.0,300.74235,5818.0615,0.0,0.0,0.0,0.0,0.0,-0.11035251571206417,-0.4087558915860656,-0.7513930800867233,-0.6083964473315544,0.013620821172270385,0.010976344802530888,-0.8373123518562953
11073,6.0,299.97603,5743.7768,0.0,0.0,0.0,0.0,0.0,-0.11036248252164799,-0.37278801576381265,-0.7572412658213943,-0.6159354536405964,0.022281939145556182,0.017977197771461284,-0.8212448903830601
11074,6.0,300.76865,5760.6167,0.0,0.0,0.0,0.0,0.0,-0.11037244933123175,-0.37312479983205066,-0.7673874355652432,-0.6105714089362064,-0.011866113152594188,0.008303906073756721,-0.8527272194701243
11075,6.0,300.51976,5748.2401,0.0,0.0,0.0,0.0,0.0,-0.11038241614081562,-0.41611786283763563,-0.7411265970260003,-0.5900770071135665,0.006692187300242463,0.02093404698802958,-0.8250829703043493
11076,6.0,298.55287999999996,5895.6775,0.0,0.0,0.0,0.0,0.0,-0.11039238295039938,-0.4220294577635646,-0.7657410764052602,-0.6043682208964994,0.009882592995335992,0.0071631637799242235,-0.8582188627596072
11077,6.0,299.12195,5949.0664,0.0,0.0,0.0,0.0,0.0,-0.11040234975998325,-0.42207649283320664,-0.7792284180888572,-0.6070627062249244,0.019993382072193183,-0.003009717263060967,-0.8282794602623181
11078,6.0,299.89113,5745.5763,0.0,0.0,0.0,0.0,0.0,-0.11041231656956707,-0.4080835697472126,-0.7484281988366123,-0.5899999494434615,0.012096921392873187,-0.05152681544130075,-0.8367736371756282
11079,6.0,300.27711,5714.4427,0.0,0.0,0.0,0.0,0.0,-0.11042228337915089,-0.37093815545374564,-0.7625980151250643,-0.6035117104544684,0.012691978858600787,-0.01769038314515488,-0.8353870652087843
11080,6.0,300.16382000000004,5864.5578,0.0,0.0,0.0,0.0,0.0,-0.1104322501887347,-0.3993363234889266,-0.7744997622571752,-0.6088430373131294,0.007056635325360683,0.010134658209462891,-0.830355113224669
11081,6.0,299.88746000000003,5676.7439,0.0,0.0,0.0,0.0,0.0,-0.11044221699831852,-0.4085448518552376,-0.7276470776331754,-0.5893964779489035,-0.008176846943016961,0.053281091816434346,-0.8279826489105252
11082,6.0,299.33997,5457.3164,0.0,0.0,0.0,0.0,0.0,-0.1104521838079024,-0.34572227161013164,-0.7531435405619803,-0.5600220941048775,-0.03363800854231296,0.003314866244626827,-0.8441229225359461
11083,6.0,300.09571,5635.6162,0.0,0.0,0.0,0.0,0.0,-0.11046215061748615,-0.38709188504049463,-0.7343265337498863,-0.5916681745406025,-0.032621826096523567,0.005803120017923354,-0.8595986358182802
11084,6.0,299.57797,5934.0062,0.0,0.0,0.0,0.0,0.0,-0.11047211742706997,-0.4090008245327386,-0.7874028943306153,-0.6073859938018304,-0.011712188303402989,-0.00047822722646985254,-0.8684612203354491
11085,6.0,298.98121000000003,5905.1688,0.0,0.0,0.0,0.0,0.0,-0.11048208423665384,-0.39365428037315264,-0.7828918643554112,-0.6184777184064985,0.0024344856567400275,0.0006133982753901965,-0.8784598912622412
11086,6.0,298.77617000000004,5894.0651,0.0,0.0,0.0,0.0,0.0,-0.1104920510462376,-0.4047415466773806,-0.7475044288529432,-0.6394026501966285,0.017012389132242085,0.0013258402889752487,-0.8199798375007092
11087,6.0,300.00403,5782.6159,0.0,0.0,0.0,0.0,0.0,-0.11050201785582148,-0.4130801491703366,-0.7455389972364703,-0.5991517054066694,-0.0006694169420088085,0.005857352709650704,-0.8180515212353993
11088,6.0,299.73031000000003,5612.765,0.0,0.0,0.0,0.0,0.0,-0.11051198466540524,-0.3817679346425616,-0.7207309769556093,-0.6036414875272764,0.013159322228723987,0.001099471705334409,-0.8098488462433582
11089,6.0,300.52043,5784.4251,0.0,0.0,0.0,0.0,0.0,-0.11052195147498906,-0.4266749764245416,-0.7175922726508432,-0.6140535340973654,8.962015053457021e-05,-0.005087549017101995,-0.8059647343700262
11090,6.0,300.50342,5880.8634,0.0,0.0,0.0,0.0,0.0,-0.11053191828457293,-0.42722754223407555,-0.7372491016758213,-0.6231589946635043,0.031028219776496873,-0.04537720097413105,-0.8153546345042372
11091,6.0,299.65851000000004,5837.9381,0.0,0.0,0.0,0.0,0.0,-0.11054188509415674,-0.40543156999548063,-0.7389411381503123,-0.6302147110723494,0.03620574236272856,-0.019417855002143086,-0.8344594246097333
11092,6.0,299.93672000000004,5837.8936,0.0,0.0,0.0,0.0,0.0,-0.11055185190374056,-0.4032858609212156,-0.7595032149471312,-0.6117848265934615,0.016316974310359986,-0.001969055302805628,-0.8319944404289582
11093,6.0,299.85109,6017.7271,0.0,0.0,0.0,0.0,0.0,-0.11056181871332438,-0.4464866908598056,-0.7639383727548473,-0.6188137222721594,-0.015370220774672686,0.025837261493939178,-0.8149459704739052
11094,6.0,299.20357,6012.9078,0.0,0.0,0.0,0.0,0.0,-0.11057178552290814,-0.41183947508539165,-0.7613155343409933,-0.6546188295983484,-0.03434114129020677,-0.008524953777147432,-0.8360547666271811
11095,6.0,299.38365,5843.9409,0.0,0.0,0.0,0.0,0.0,-0.11058175233249207,-0.4062777452864916,-0.7702492490151822,-0.5998851262265524,-0.029361411202995676,0.024826315524666576,-0.8565429774917102
11096,6.0,298.76966,5650.1269,0.0,0.0,0.0,0.0,0.0,-0.11059171914207583,-0.37258935794920667,-0.7422408782934713,-0.6026672475561264,0.016868051655497086,0.0005058621942647115,-0.8713766752456823
11097,6.0,298.91547,5549.5266,0.0,0.0,0.0,0.0,0.0,-0.11060168595165965,-0.3707523861804117,-0.7405188597485213,-0.5756462687918634,0.003130014874558417,0.001995235760214438,-0.8544494001350901
11098,6.0,300.75491,5569.8167,0.0,0.0,0.0,0.0,0.0,-0.11061165276124346,-0.38776912114233264,-0.7376769465305463,-0.5676391308041204,0.008498980732034093,-0.017296975621578583,-0.8395648777561022
11099,6.0,300.34071,5753.4815,0.0,0.0,0.0,0.0,0.0,-0.11062161957082728,-0.3942919186610826,-0.7391265730511133,-0.6154962097222464,0.013205706791801788,0.007045147805001952,-0.8158210841877722
11100,6.0,300.00494,5963.8395,0.0,0.0,0.0,0.0,0.0,-0.11063158638041115,-0.3928898844977126,-0.7816187662672662,-0.6383496502952054,0.01834200225796468,0.009759560115193591,-0.8277636045039072
11101,6.0,300.25347999999997,5997.8272,0.0,0.0,0.0,0.0,0.0,-0.11064155318999497,-0.4235075870094446,-0.7602394627347933,-0.6394426330455744,-0.018742152960956483,-0.002087184761739098,-0.8204756309071403
11102,6.0,299.33867000000004,6094.8147,0.0,0.0,0.0,0.0,0.0,-0.11065151999957878,-0.4286078016527966,-0.7822838231029022,-0.6417798565212404,-0.014968832893308788,-0.03050628958373637,-0.8377850228954442
11103,6.0,300.20574,6189.1759999999995,0.0,0.0,0.0,0.0,0.0,-0.1106614868091626,-0.4618902303375165,-0.8086945010669332,-0.6107702288708284,-0.003137927445914327,-0.012394117779704188,-0.8454169949011613
11104,6.0,300.85231,5825.4181,0.0,0.0,0.0,0.0,0.0,-0.11067145361874636,-0.4241012198455316,-0.7506094729893873,-0.5960709590076234,0.024809373982994577,-0.01161646960620629,-0.8378756581168892
11105,6.0,299.25062,5525.3488,0.0,0.0,0.0,0.0,0.0,-0.11068142042833023,-0.35982878003233565,-0.7321516633377433,-0.5875876340028844,0.01377181468892229,-0.0047499852529120454,-0.8248546343943142
11106,6.0,298.81802000000005,5663.0325,0.0,0.0,0.0,0.0,0.0,-0.11069138723791405,-0.39161493216188464,-0.7250180887912143,-0.6047874632578754,-0.010977749167169489,-0.024131788309872077,-0.8054857710477562
11107,6.0,298.78676,5909.5148,0.0,0.0,0.0,0.0,0.0,-0.11070135404749787,-0.4221925201021576,-0.7405435931834623,-0.6336088354623234,0.01906725526879158,0.03722209908753517,-0.8054065450224372
11108,6.0,298.19959,5945.1269,0.0,0.0,0.0,0.0,0.0,-0.11071132085708169,-0.40090293986603964,-0.7723282558353642,-0.6339389219474004,0.02650091700468687,0.006037610510390764,-0.8383524834814481
11109,6.0,298.90351,6051.9654,0.0,0.0,0.0,0.0,0.0,-0.1107212876666655,-0.46541916765329555,-0.7667039173127852,-0.6075232689253784,0.027761174174314576,-0.003923471168166456,-0.8280072607554543
11110,6.0,299.20052000000004,6015.3633,0.0,0.0,0.0,0.0,0.0,-0.11073125447624932,-0.44040303593439556,-0.7783990627495063,-0.6097181611594975,-0.008281600690030352,-0.01049256144953519,-0.8364089380671351
11111,6.0,299.82378,5966.5188,0.0,0.0,0.0,0.0,0.0,-0.11074122128583314,-0.4133097415104956,-0.7868884267248413,-0.6134745629902254,-0.03144781880190807,0.0005804803228989475,-0.8646691115711972
11112,6.0,300.34367000000003,5922.8389,0.0,0.0,0.0,0.0,0.0,-0.11075118809541701,-0.4087186951748946,-0.7674753350114182,-0.6242011122588534,-0.027750782281288973,0.02042231617077568,-0.8469272847052152
11113,6.0,300.76342,5509.4833,0.0,0.0,0.0,0.0,0.0,-0.11076115490500082,-0.3583689399507607,-0.7406472081386883,-0.5757292033125484,-0.03286666683743747,0.025029486355217977,-0.8369009216531903
11114,6.0,299.91436,5232.219,0.0,0.0,0.0,0.0,0.0,-0.11077112171458459,-0.3111344120265757,-0.7277096356943493,-0.5516198797706435,-0.004922180217306365,0.026442069465379078,-0.8733784420107411
11115,6.0,299.14121,5423.1849,0.0,0.0,0.0,0.0,0.0,-0.1107810885241684,-0.3807277118248996,-0.7113179544541163,-0.5564671365265306,-0.0002562727149021477,0.014126788622955485,-0.8397382043182082
11116,6.0,299.2062,5883.3993,0.0,0.0,0.0,0.0,0.0,-0.11079105533375222,-0.4071149127841136,-0.7817261099828603,-0.5995654660850045,0.006942671641563343,-0.018282450509837383,-0.8764266326840741
11117,6.0,300.06374,6004.3888,0.0,0.0,0.0,0.0,0.0,-0.11080102214333609,-0.4155707787111426,-0.7750349204299913,-0.6345785664705283,-0.008474484802916533,-0.04568829205958336,-0.8260168018615113
11118,6.0,300.45301,5941.0316,0.0,0.0,0.0,0.0,0.0,-0.11081098895291991,-0.4097320972624096,-0.7583413109249603,-0.6378518607860774,0.0027683841913432473,-0.015434312896498086,-0.8134031654741423
11119,6.0,301.04419,6035.0242,0.0,0.0,0.0,0.0,0.0,-0.11082095576250373,-0.41634645206019555,-0.7910800093410182,-0.6270702008445104,0.006006515789996954,-0.002115717073955018,-0.8144254841625372
11120,6.0,301.28261000000003,6036.8619,0.0,0.0,0.0,0.0,0.0,-0.11083092257208754,-0.4328932112282336,-0.7608314034432132,-0.6413306726194093,0.0035721948877231865,0.008889155582491351,-0.8283735405341032
11121,6.0,301.11813,5910.4544,0.0,0.0,0.0,0.0,0.0,-0.11084088938167136,-0.4714020649887615,-0.7503155696653813,-0.5749129290319885,-0.005185146583959126,0.017424045290119382,-0.8325702603282872
11122,6.0,300.59097,5987.0425,0.0,0.0,0.0,0.0,0.0,-0.11085085619125523,-0.45643680684180554,-0.7568290047532074,-0.6066456119537604,0.016980467701091684,-0.014450489605902285,-0.8361819396472322
11123,6.0,299.25279,5855.2931,0.0,0.0,0.0,0.0,0.0,-0.11086082300083899,-0.4318911575418386,-0.7389917601253083,-0.6089799679316434,-0.01991526758223388,0.004901777210642746,-0.8305582394722162
11124,6.0,298.63245,5653.0592,0.0,0.0,0.0,0.0,0.0,-0.11087078981042281,-0.37561876296568564,-0.7536373176007123,-0.5891327796103785,-0.032807721012869974,-0.007307642098433123,-0.8468386253214651
11125,6.0,299.13231,5863.4646,0.0,0.0,0.0,0.0,0.0,-0.11088075662000663,-0.3740097826018916,-0.7527449887676463,-0.6555920360543964,-0.014419179164562186,-0.006278494003039114,-0.8362279310692712
11126,6.0,300.13661,5770.2315,0.0,0.0,0.0,0.0,0.0,-0.11089072342959044,-0.37645036772025864,-0.7465747212236883,-0.6309811942429955,0.0020179703566831683,0.03568946407902586,-0.8415717209041623
11127,6.0,300.31593,5599.3772,0.0,0.0,0.0,0.0,0.0,-0.11090069023917432,-0.3760124410270386,-0.7603620862618953,-0.5656963149298795,0.020331070972770482,0.012011996848991789,-0.8493416975734992
11128,6.0,300.68016,5804.4622,0.0,0.0,0.0,0.0,0.0,-0.11091065704875813,-0.4082420319303516,-0.7405449914686003,-0.6156245581124135,0.025742213568308678,0.007555761412695592,-0.8555827102394391
11129,6.0,300.69641,5964.7381,0.0,0.0,0.0,0.0,0.0,-0.1109206238583419,-0.4324266906171915,-0.7821169408114322,-0.5985878215935184,0.0008858994572064692,-0.01045230502306219,-0.8422010404087713
11130,6.0,299.91337999999996,5825.1187,0.0,0.0,0.0,0.0,0.0,-0.11093059066792577,-0.41123234575797263,-0.7579202244484022,-0.6015380715121854,0.002741167077757127,0.00022115160205596378,-0.8494816375448103
11131,6.0,300.2311,5857.0048,0.0,0.0,0.0,0.0,0.0,-0.11094055747750958,-0.3964782084018526,-0.7524338905894433,-0.6314711006663455,-0.011799932722312688,0.014182019872656385,-0.8369499426930282
11132,6.0,299.7947,5743.8143,0.0,0.0,0.0,0.0,0.0,-0.1109505242870934,-0.3925262594343256,-0.7618000198763083,-0.5916498347137924,-0.02874161219632627,0.025831317768852575,-0.8533314914322611
11133,6.0,299.48365,5549.1476,0.0,0.0,0.0,0.0,0.0,-0.11096049109667722,-0.3929015672713656,-0.7094829078605113,-0.5844178229200484,-0.02228655449976168,0.0007726910702986713,-0.8373885583963162
11134,6.0,299.82544,5806.6005,0.0,0.0,0.0,0.0,0.0,-0.11097045790626098,-0.40647852079380664,-0.7548114819490932,-0.6037715483101125,-0.024942972021929678,0.0033252188235485466,-0.8603295843079192
11135,6.0,298.55559,5836.0352,0.0,0.0,0.0,0.0,0.0,-0.11098042471584485,-0.40764735544666164,-0.7548902114818632,-0.6114714080725295,0.00989606101434018,-0.014900750592589588,-0.8292223705403762
11136,6.0,298.55305,5650.0224,0.0,0.0,0.0,0.0,0.0,-0.11099039152542867,-0.36143875338122766,-0.7372920128175563,-0.6187349724743874,-0.0017374829706262181,-0.012968905177181288,-0.8358773465346712
11137,6.0,298.66956,5726.5764,0.0,0.0,0.0,0.0,0.0,-0.11100035833501248,-0.35567355282974666,-0.7590874277685963,-0.6259752422564464,-0.002048837703754538,0.013246140537042287,-0.8080483210806603
11138,6.0,297.93597,5980.2272,0.0,0.0,0.0,0.0,0.0,-0.1110103251445963,-0.4284557330777886,-0.7534653183962373,-0.6359186809202874,-0.0033297200857927865,0.03210003674552697,-0.8063105971591603
11139,6.0,298.99581,6181.5242,0.0,0.0,0.0,0.0,0.0,-0.11102029195418012,-0.4529784525279925,-0.7758973178551033,-0.6501532337576283,0.002891251810394337,0.030407735812759868,-0.7916853756132632
11140,6.0,300.44895,6050.5874,0.0,0.0,0.0,0.0,0.0,-0.11103025876376399,-0.4430265633583176,-0.7814636072794532,-0.6147373259273504,-0.006026745936193514,-0.00906433152867987,-0.8425904628197042
11141,6.0,299.68731,5863.6367,0.0,0.0,0.0,0.0,0.0,-0.11104022557334775,-0.4448891906196446,-0.7301561280607993,-0.6073538231111554,0.003710376160835616,-0.02958238585105417,-0.8148743032943322
11142,6.0,300.35418,5771.0744,0.0,0.0,0.0,0.0,0.0,-0.11105019238293162,-0.3959635381460586,-0.7542644180876023,-0.6040345677710705,-0.010055097304985841,-0.008928215664571281,-0.8279263628674701
11143,6.0,299.59398,5706.1815,0.0,0.0,0.0,0.0,0.0,-0.11106015919251538,-0.3830614497202216,-0.7602942390351993,-0.5911809836275204,0.013584387738424686,-0.0062373993147583845,-0.8519026669362472
11144,6.0,299.76743,5814.3951,0.0,0.0,0.0,0.0,0.0,-0.1110701260020992,-0.3981656751183926,-0.7545493744132253,-0.6147158855552345,0.004783050339450316,0.0056948413764620846,-0.8268643349076562
11145,6.0,299.91832999999997,5736.8708,0.0,0.0,0.0,0.0,0.0,-0.11108009281168307,-0.37893751168072065,-0.7758889484092772,-0.5890390033136235,0.013370911141106188,0.014133417305109688,-0.8496896983203441
11146,6.0,299.31627000000003,5633.0996,0.0,0.0,0.0,0.0,0.0,-0.11109005962126689,-0.3677042259045816,-0.7443505359291783,-0.6002668580692264,-0.006688131868042223,0.02002167809448578,-0.8458573229971182
11147,6.0,298.9155,5924.7157,0.0,0.0,0.0,0.0,0.0,-0.1111000264308507,-0.4394429308021406,-0.7705453004294003,-0.5909773912849274,-0.010526344221119291,0.01279109802313309,-0.8600576178485783
11148,6.0,299.85051,6227.3435,0.0,0.0,0.0,0.0,0.0,-0.11110999324043452,-0.4395803883107066,-0.7882309121798343,-0.6651456166097613,-0.023026182489757276,0.00026500436724139474,-0.8081790506085623
11149,6.0,299.91003,6009.0867,0.0,0.0,0.0,0.0,0.0,-0.11111996005001834,-0.4432126872691866,-0.7599916622903373,-0.6234079704780764,0.01013652562939719,-0.014766788796868586,-0.8063872799267282
11150,6.0,300.92884,5901.2804,0.0,0.0,0.0,0.0,0.0,-0.11112992685960216,-0.4055079285230166,-0.7741035814680752,-0.6142303766373184,0.01985303477434198,-0.009342067434090271,-0.8136588287393742
11151,6.0,300.44367,5995.3609,0.0,0.0,0.0,0.0,0.0,-0.11113989366918597,-0.41678635459111063,-0.7643880227517242,-0.6412656422279914,0.026897652041591575,-0.012877072294118089,-0.8166398814610812
11152,6.0,299.67174,5876.8025,0.0,0.0,0.0,0.0,0.0,-0.11114986047876985,-0.4043852372797156,-0.7768309163647422,-0.6051850727296164,0.011213067383643591,-0.0025442085848938374,-0.8522372623842691
11153,6.0,299.81144,5787.6762,0.0,0.0,0.0,0.0,0.0,-0.11115982728835361,-0.4268160208384616,-0.7553284928126183,-0.5771645328742044,0.002728529113234857,-0.006128229317184144,-0.8587920380761751
11154,6.0,299.91008,5748.5471,0.0,0.0,0.0,0.0,0.0,-0.11116979409793742,-0.40019103034577963,-0.7562216018482614,-0.5910021348523693,0.004220990477804326,-0.0012293710774294788,-0.8567395277461082
11155,6.0,298.79226,5622.6343,0.0,0.0,0.0,0.0,0.0,-0.11117976090752124,-0.3889532862692006,-0.7447868110247353,-0.5754003428600925,-0.002240733087193138,-0.006468426518383994,-0.8330172556099021
11156,6.0,298.87473,5835.0424,0.0,0.0,0.0,0.0,0.0,-0.11118972771710506,-0.36704037483656465,-0.7558975644662813,-0.6507692492884244,0.017244254192375384,0.005192000308960535,-0.8140671989271773
11157,6.0,298.171,6225.081999999999,0.0,0.0,0.0,0.0,0.0,-0.11119969452668893,-0.42597637087809465,-0.7873420385296092,-0.6789510884272554,0.000955080080504065,-0.016531247322257085,-0.7945389817373922
11158,6.0,299.3291,6156.1403,0.0,0.0,0.0,0.0,0.0,-0.11120966133627275,-0.42547905759651355,-0.7823494006493743,-0.6634844538658173,0.008600329249436411,0.00931079833335425,-0.7995647123658932
11159,6.0,300.70038999999997,5879.8707,0.0,0.0,0.0,0.0,0.0,-0.11121962814585651,-0.4154401707732526,-0.7549609667363463,-0.6169327247865193,-0.002239423968063938,0.019352551033198082,-0.8317122806736111
11160,6.0,300.4915,5879.8884,0.0,0.0,0.0,0.0,0.0,-0.11122959495544038,-0.41258322092379357,-0.7733636555825503,-0.6013923864128075,0.005314848169634676,0.005977846283717494,-0.8267040083443332
11161,6.0,300.37798,6070.3493,0.0,0.0,0.0,0.0,0.0,-0.11123956176502414,-0.46598076152122053,-0.7531796426630433,-0.6260741962612124,-0.01816268434801738,0.010199055319568391,-0.8270965313005723
11162,6.0,300.47784,5976.5986,0.0,0.0,0.0,0.0,0.0,-0.11124952857460807,-0.3998478425369096,-0.7809497982862442,-0.6359390877773013,-0.008875806215073872,-0.010953246753251291,-0.8375286098251382
11163,6.0,299.94037000000003,5758.001,0.0,0.0,0.0,0.0,0.0,-0.11125949538419183,-0.39253112303480564,-0.7503537185316463,-0.6074036750160754,0.01022742834886859,-0.005111361103727065,-0.8464851428915793
11164,6.0,300.31049,5709.5815,0.0,0.0,0.0,0.0,0.0,-0.11126946219377565,-0.37698366151289064,-0.7537180027061753,-0.6048685435308775,-0.01344839538950329,0.007921022469694053,-0.8403344209420501
11165,6.0,299.63799,5671.3144,0.0,0.0,0.0,0.0,0.0,-0.11127942900335946,-0.38722220926835665,-0.7472355325414053,-0.5894802129371675,-0.00813976330658209,-0.0031158918906895876,-0.8503028058233532
11166,6.0,299.08058,5893.4372,0.0,0.0,0.0,0.0,0.0,-0.11128939581294328,-0.4095296194949266,-0.7654820390171954,-0.6164460708959905,-0.009169435454927821,-0.004938744525966135,-0.8579657224871241
11167,6.0,299.74967999999996,6048.8797,0.0,0.0,0.0,0.0,0.0,-0.11129936262252715,-0.4486901957197746,-0.7454841094785534,-0.6445340628105594,0.011977401450827489,-0.002265652250877468,-0.8098042328414552
11168,6.0,298.889,5728.7903,0.0,0.0,0.0,0.0,0.0,-0.11130932943211097,-0.36724353148161465,-0.7535845678005063,-0.6205811040240864,0.03223608279670367,0.0033590608702634968,-0.85351295439267
11169,6.0,298.56942999999995,5723.3479,0.0,0.0,0.0,0.0,0.0,-0.11131929624169473,-0.4103472008681156,-0.7222554218635603,-0.6071522167387584,0.0017137105020800583,-0.00944302554622906,-0.8125632419362482
11170,6.0,299.95825,6231.9765,0.0,0.0,0.0,0.0,0.0,-0.1113292630512786,-0.46415342576087654,-0.7946107299769732,-0.6356011080739453,-0.03123238561864647,-0.005009702835769176,-0.8384728677258293
11171,6.0,300.39042,6197.3983,0.0,0.0,0.0,0.0,0.0,-0.11133922986086237,-0.46990685234619556,-0.8014681533412482,-0.6124793082120015,-0.012481275526805988,-0.004753097855894235,-0.8413996811696832
11172,6.0,299.63557000000003,5755.7751,0.0,0.0,0.0,0.0,0.0,-0.11134919667044624,-0.4133756128994966,-0.7427923903229013,-0.5934439054733535,-0.03357601283494446,0.024599158024497875,-0.8709446456680442
11173,6.0,299.87171,5686.751,0.0,0.0,0.0,0.0,0.0,-0.11135916348003005,-0.39968930942626363,-0.7528001602355913,-0.5761408462981744,0.004489103141714986,0.016929738321585085,-0.8558107219094421
11174,6.0,299.22611,5614.2837,0.0,0.0,0.0,0.0,0.0,-0.11136913028961382,-0.36153099967033164,-0.7363542295850043,-0.6087168471456754,-0.007502795992868312,-0.005982689720520504,-0.8519009849410812
11175,6.0,299.80484,5663.9342,0.0,0.0,0.0,0.0,0.0,-0.11137909709919769,-0.3840339367686986,-0.7400860195708033,-0.5975746221560234,0.024278595077110776,0.007858197721093732,-0.8571398729931192
11176,6.0,300.4207,5680.5886,0.0,0.0,0.0,0.0,0.0,-0.1113890639087815,-0.37753059365186864,-0.7378893845465123,-0.6113371119042754,0.014419864121629787,-0.006120147229086504,-0.8377619613231682
11177,6.0,300.02196000000004,5624.8393,0.0,0.0,0.0,0.0,0.0,-0.11139903071836532,-0.3977136034537766,-0.7213983946639783,-0.5906986968449224,0.02928505976821037,0.005201955187218005,-0.8340773482620253
11178,6.0,300.10286,5829.1717,0.0,0.0,0.0,0.0,0.0,-0.11140899752794914,-0.38866501661575065,-0.7875004095202393,-0.5957572162466594,-0.01878722232540448,-0.005434235375917275,-0.8542978179201302
11179,6.0,301.10967,6404.422,0.0,0.0,0.0,0.0,0.0,-0.11141896433753296,-0.49379788128655655,-0.7814421466423352,-0.6715443315212654,-0.008604993442296732,-0.002103161993290928,-0.8384933353778492
11180,6.0,299.66917,6594.8525,0.0,0.0,0.0,0.0,0.0,-0.11142893114711683,-0.45914680502926153,-0.8473935216062292,-0.6981301497650814,-0.02072053695345778,-0.0020480121075730578,-0.8330866227117482
11181,6.0,299.21076,5950.8399,0.0,0.0,0.0,0.0,0.0,-0.11143889795670059,-0.4490735082326046,-0.7692106777951833,-0.5906225510999074,0.00921903668177308,0.008042159761549372,-0.8155564840566583
11182,6.0,299.00146,5557.8608,0.0,0.0,0.0,0.0,0.0,-0.11144886476628446,-0.37087753270026264,-0.7344497854920503,-0.5841235852235094,-0.014740422002766386,0.0036326586622654968,-0.8242589649255262
11183,6.0,299.44761,5735.7913,0.0,0.0,0.0,0.0,0.0,-0.11145883157586822,-0.4163452868225806,-0.7424222095313673,-0.5847698260047884,-0.02521125025090668,-0.008070512627172583,-0.8167024800522592
11184,6.0,299.014,5674.5535,0.0,0.0,0.0,0.0,0.0,-0.11146879838545204,-0.35862069207060665,-0.7244336967960393,-0.6418681815324574,-0.014894013492674685,-0.0033256238196135175,-0.8464924180272971
11185,6.0,300.30531,5508.9229,0.0,0.0,0.0,0.0,0.0,-0.11147876519503591,-0.3861158718816696,-0.7051808201884283,-0.5832783015925864,0.0029501311657552775,0.0062598126096204045,-0.8506167411018362
11186,6.0,299.44327999999996,5625.2038,0.0,0.0,0.0,0.0,0.0,-0.11148873200461973,-0.3465421733260497,-0.7377602863512713,-0.6256190341837914,-0.006651009120153493,-0.006624040050191853,-0.8468225653073802
11187,6.0,299.77218,5905.4182,0.0,0.0,0.0,0.0,0.0,-0.11149869881420355,-0.45826826653005653,-0.7395657055119523,-0.5972657227305374,-0.01068739424501369,-0.026261712974079275,-0.8261518275698372
11188,6.0,300.38813999999996,6277.4205,0.0,0.0,0.0,0.0,0.0,-0.11150866562378736,-0.4142165091574866,-0.8138408591198393,-0.6801217266652884,0.005785999840258725,-0.005904148854919125,-0.8337479609195173
11189,6.0,300.48382000000004,6447.7377,0.0,0.0,0.0,0.0,0.0,-0.11151863243337112,-0.4782087954505335,-0.8206135241132492,-0.6611289412258464,0.015691949972924887,0.020205892028916282,-0.8157052494363403
11190,6.0,299.79322,6059.8163,0.0,0.0,0.0,0.0,0.0,-0.111528599242955,-0.4131712910168316,-0.7695675242154013,-0.6592940263547543,-9.387975262996021e-05,0.005063633072341675,-0.8143549315580743
11191,6.0,299.75534,5565.2321,0.0,0.0,0.0,0.0,0.0,-0.11153856605253881,-0.36313805485893563,-0.7609464174620643,-0.5676071222334614,-0.0032387555580652865,-0.008882842831718332,-0.8506938393019453
11192,6.0,299.12878,5468.0816,0.0,0.0,0.0,0.0,0.0,-0.11154853286212268,-0.34961161185397965,-0.7252344480850673,-0.5873141881983974,0.003566890726099707,0.006208749566855874,-0.8564956283145371
11193,6.0,300.14266000000003,5762.6771,0.0,0.0,0.0,0.0,0.0,-0.11155849967170645,-0.42146131829999356,-0.7448623792171933,-0.5853862468356245,-0.011892844716732388,0.007811218886832284,-0.8675190497299641
11194,6.0,299.98541,5635.6044,0.0,0.0,0.0,0.0,0.0,-0.11156846648129026,-0.38018383970122366,-0.7473933969069853,-0.5855057799499214,0.008093265867443153,-0.015324981184207885,-0.8602619903937483
11195,6.0,299.9988,5448.2537,0.0,0.0,0.0,0.0,0.0,-0.11157843329087408,-0.37271248810135865,-0.7179759499337093,-0.5654446337375405,-0.04177335103870876,-0.012742098261547187,-0.8631541202866791
11196,6.0,300.28809,5877.9734,0.0,0.0,0.0,0.0,0.0,-0.1115884001004579,-0.3617571976226557,-0.7845249803365872,-0.6404749525124565,0.0053062346318595854,0.016421517402677586,-0.8432334713331643
11197,6.0,300.98431,6274.7523,0.0,0.0,0.0,0.0,0.0,-0.11159836691004177,-0.43604746892203455,-0.8092355968853352,-0.6620849528276974,-0.014226455955791886,0.024193255100688375,-0.8536007626463362
11198,6.0,301.46547000000004,6434.5254,0.0,0.0,0.0,0.0,0.0,-0.11160833371962559,-0.4610613005632076,-0.8188102429102793,-0.6760635181597744,0.022710880336889377,-0.0031532377562503372,-0.8254334231164362
11199,6.0,300.49601,6088.7919,0.0,0.0,0.0,0.0,0.0,-0.11161830052920935,-0.47439032191867947,-0.7671323903825723,-0.6093179780325024,0.0033294448870656267,-0.03451074517144537,-0.7987970132951273
11200,6.0,299.3496,5734.6855,0.0,0.0,0.0,0.0,0.0,-0.11162826733879322,-0.38264190338381565,-0.7504535844615023,-0.6101056989252445,0.015610607268146984,-0.01006606705454347,-0.8239621637062342
11201,6.0,300.17719,5908.7779,0.0,0.0,0.0,0.0,0.0,-0.11163823414837698,-0.45243095296895863,-0.7397936665194503,-0.6038963300599274,0.007976434381887783,-0.0016999362788956483,-0.7926168361651912
11202,6.0,299.76836000000003,6133.2077,0.0,0.0,0.0,0.0,0.0,-0.11164820095796085,-0.4165979913975206,-0.7681859171740473,-0.6795580961646623,0.0009379908981599942,-0.03259722843709597,-0.8446740900603421
11203,6.0,299.51121,5954.9112,0.0,0.0,0.0,0.0,0.0,-0.11165816776754467,-0.42805628962336656,-0.7642901427920643,-0.6177978883844044,0.0034916484961988767,-0.022304398847272776,-0.8436993738616452
11204,6.0,299.20261,5444.9731,0.0,0.0,0.0,0.0,0.0,-0.11166813457712849,-0.3684179491425207,-0.7243966017098783,-0.5623213004367914,-0.01076070390299879,0.0039927780829565164,-0.8931573879377712
11205,6.0,299.2518,5772.1183,0.0,0.0,0.0,0.0,0.0,-0.1116781013867123,-0.4351979397731926,-0.7666300311154932,-0.5527518726498625,0.001366660690453909,0.03181576132397117,-0.8650394342177452
11206,6.0,299.39518,6127.9963,0.0,0.0,0.0,0.0,0.0,-0.11168806819629612,-0.4375111998839936,-0.7803963813466263,-0.6448502677692663,-0.013416968424401685,-0.004308778871768366,-0.8556027523264171
11207,6.0,299.69582,6007.2867,0.0,0.0,0.0,0.0,0.0,-0.11169803500587999,-0.4362159825461656,-0.7743546141803502,-0.6154945783895854,-0.01856550699152288,0.01044185537478089,-0.8331722626102002
11208,6.0,299.85515,5732.4307,0.0,0.0,0.0,0.0,0.0,-0.11170800181546381,-0.3026902390057007,-0.7873803191183874,-0.6524452156163294,-0.006694691345214594,0.012818608776598187,-0.8529855881131233
11209,6.0,300.94206,5665.8471,0.0,0.0,0.0,0.0,0.0,-0.11171796862504757,-0.3579505385869677,-0.7509355166065653,-0.6133899971368795,-0.012555135379595387,0.01929760653327548,-0.8410304123032393
11210,6.0,300.2129,5792.0432,0.0,0.0,0.0,0.0,0.0,-0.11172793543463144,-0.37755633020440865,-0.7711895957704872,-0.6118905795063985,-0.004466345848444016,-0.014514971829016187,-0.8636032636585063
11211,6.0,299.82171,5907.9182,0.0,0.0,0.0,0.0,0.0,-0.1117379022442152,-0.43561604729445663,-0.7557258692368363,-0.6045176955512515,-0.026420161984966974,-0.016565277326865583,-0.8782734025813362
11212,6.0,300.70398,5752.6394,0.0,0.0,0.0,0.0,0.0,-0.11174786905379908,-0.3902164545063656,-0.7417155790441283,-0.6167266905111853,0.017452717228199084,0.011672136553450188,-0.8578512657558282
11213,6.0,300.4048,5498.3594,0.0,0.0,0.0,0.0,0.0,-0.11175783586338289,-0.37559682610102063,-0.7426506163689093,-0.5531165008308484,-0.0002916093561771027,0.03436021572333926,-0.8676749483903501
11214,6.0,299.69454,5507.293000000001,0.0,0.0,0.0,0.0,0.0,-0.11176780267296671,-0.3146020882413087,-0.7339764963703402,-0.6255009702821394,0.0094854051369616,-0.021011734899696783,-0.8464899456970533
11215,6.0,299.05724,5953.014,0.0,0.0,0.0,0.0,0.0,-0.11177776948255053,-0.43009284126435865,-0.7660869290618932,-0.6133878287816654,-0.01867010277284568,-0.018984919578915682,-0.8426745119154991
11216,6.0,299.81747,6247.7574,0.0,0.0,0.0,0.0,0.0,-0.11178773629213434,-0.44749683028199855,-0.7961846822848102,-0.6554807406634123,0.005170504410739055,0.000980205237933725,-0.8237789376906512
11217,6.0,299.50156,5985.8012,0.0,0.0,0.0,0.0,0.0,-0.11179770310171816,-0.4649060375376536,-0.7507876327544704,-0.6038404189194094,0.01053507033098049,-0.0012561878559010887,-0.8377816994351162
11218,6.0,299.32561,5967.0881,0.0,0.0,0.0,0.0,0.0,-0.11180766991130198,-0.4415841613109636,-0.7588608853112382,-0.6134007477204404,-0.0038077637822720267,-0.018750210325751682,-0.7997211277838302
11219,6.0,299.15772999999996,6244.3576,0.0,0.0,0.0,0.0,0.0,-0.1118176367208858,-0.4777606653288065,-0.7706724734494512,-0.6496956500124684,-0.012368553479681188,-0.015594937355350487,-0.7838769866326353
11220,6.0,300.13633,6356.8108,0.0,0.0,0.0,0.0,0.0,-0.11182760353046961,-0.41838210190859865,-0.8105042772030443,-0.7034253846551803,0.003606754315508937,0.016743368190941785,-0.8030134205387542
11221,6.0,300.91771,6205.1697,0.0,0.0,0.0,0.0,0.0,-0.11183757034005343,-0.4550999955873725,-0.7915037201353352,-0.6396129097248794,0.006892436728105544,0.025519320837810874,-0.8284234633665303
11222,6.0,300.7008,5759.751,0.0,0.0,0.0,0.0,0.0,-0.11184753714963724,-0.3894653322072356,-0.7555732535067743,-0.6057818973035184,-0.003899612168061756,-0.027987245470376072,-0.8298570400055132
11223,6.0,298.68862,5398.2233,0.0,0.0,0.0,0.0,0.0,-0.11185750395922106,-0.37805265050089165,-0.7249276258222863,-0.5379448132410195,-0.03287936184794037,-0.023224922377621377,-0.8766455960306841
11224,6.0,300.0461,5821.3592,0.0,0.0,0.0,0.0,0.0,-0.11186747076880488,-0.40666226356694063,-0.7695475530559303,-0.5933380005729014,0.014637405878349486,0.015882123844443586,-0.8598192912925573
11225,6.0,300.15077,5934.5717,0.0,0.0,0.0,0.0,0.0,-0.11187743757838875,-0.40274691319302564,-0.7832720864554362,-0.6179426108961874,-0.01026666443249089,0.03160850709551676,-0.8753215213300081
11226,6.0,301.07546,5658.183000000001,0.0,0.0,0.0,0.0,0.0,-0.11188740438797257,-0.3342277800907137,-0.7731927810856862,-0.6125257758615874,0.00011450691757345289,0.003782192288173316,-0.8481724778856062
11227,6.0,300.46148999999997,5598.938,0.0,0.0,0.0,0.0,0.0,-0.11189737119755638,-0.36816420091997765,-0.7475571178581433,-0.5862160378725184,-0.03849039740995647,-0.03627343658865947,-0.8640869791237451
11228,6.0,299.29177000000004,5985.2245,0.0,0.0,0.0,0.0,0.0,-0.1119073380071402,-0.3888086650824276,-0.7952316395057523,-0.6353185126210554,0.017268473909515684,0.0005122569777658275,-0.8216977422502533
11229,6.0,299.43633,6272.6607,0.0,0.0,0.0,0.0,0.0,-0.11191730481672396,-0.48612971598726756,-0.7943285296916223,-0.6262739889159304,-0.0067097196680477745,0.0018757061922927882,-0.8500254792709833
11230,6.0,299.7719,6287.2715,0.0,0.0,0.0,0.0,0.0,-0.11192727162630783,-0.48114260032007755,-0.7868659325726213,-0.6431650200704454,0.012765176045824788,0.0012636609806886288,-0.8052645278884213
11231,6.0,298.52342999999996,5963.5264,0.0,0.0,0.0,0.0,0.0,-0.11193723843589165,-0.4205049520606076,-0.7812008309985192,-0.6110573332866635,0.001133057805074099,-0.01103650247421799,-0.8466846011737642
11232,6.0,299.00661,5725.1294,0.0,0.0,0.0,0.0,0.0,-0.11194720524547547,-0.3883599776731457,-0.7398934513892983,-0.6120429723214384,0.007914410506166503,0.01004342719695909,-0.8208919247107253
11233,6.0,300.13752999999997,5948.8919,0.0,0.0,0.0,0.0,0.0,-0.11195717205505928,-0.4156299322519806,-0.7697752100883982,-0.6229094716938783,0.0021388630499643477,-0.016101692101363283,-0.8479422168003813
11234,6.0,299.91328,6120.4194,0.0,0.0,0.0,0.0,0.0,-0.1119671388646431,-0.43101321686019256,-0.7662474785402383,-0.6631939854596504,-0.013196898608682487,-0.02180539141152458,-0.8182519826351832
11235,6.0,301.40331000000003,5925.4467,0.0,0.0,0.0,0.0,0.0,-0.11197710567422697,-0.4703951780993896,-0.7360610760660723,-0.5947315842304375,0.004669489219917705,-0.02097786397535398,-0.8194536161937752
11236,6.0,300.69821,5563.9558,0.0,0.0,0.0,0.0,0.0,-0.11198707248381073,-0.3891102184446886,-0.7033168554369692,-0.5988765573420144,0.001136956386158859,0.017252490902438286,-0.8141768224554962
11237,6.0,299.94499,5928.7005,0.0,0.0,0.0,0.0,0.0,-0.1119970392933946,-0.41224014457243463,-0.7576883320305163,-0.6322484357455624,0.008857037276846521,0.026522526589569575,-0.8225871225255282
11238,6.0,300.27522999999997,6421.1822,0.0,0.0,0.0,0.0,0.0,-0.11200700610297837,-0.45268756868928456,-0.8056270079791953,-0.6935644752119844,-0.012509680980109388,0.011234458106504688,-0.8039856745397083
11239,6.0,300.4958,6328.1627,0.0,0.0,0.0,0.0,0.0,-0.11201697291256218,-0.4580781504137935,-0.8093687582134772,-0.6561565480826094,-0.01981288777887978,-0.016806192736892087,-0.8339591121078562
11240,6.0,300.37273999999996,5868.9028,0.0,0.0,0.0,0.0,0.0,-0.11202693972214606,-0.38350360166635866,-0.7714901257501473,-0.6290061874130773,0.006508417473330794,-0.014553598949328384,-0.8363401687828482
11241,6.0,300.55132000000003,5596.4915,0.0,0.0,0.0,0.0,0.0,-0.11203690653172982,-0.4093824449179016,-0.7464345684698563,-0.5453766480869845,0.002783867666121347,-0.031770998974303466,-0.8547704180317721
11242,6.0,300.54007,5784.6867,0.0,0.0,0.0,0.0,0.0,-0.11204687334131369,-0.39377180725225164,-0.7687717479843642,-0.5958567680689845,0.004042351242774006,0.0016668501167552985,-0.8417025517570742
11243,6.0,299.16607999999997,5942.4153,0.0,0.0,0.0,0.0,0.0,-0.11205684015089751,-0.40953802947075657,-0.7913481659799833,-0.6054596635067164,-0.0026367006884720975,0.003935806069583816,-0.889847140391075
11244,6.0,299.22219,5677.7861,0.0,0.0,0.0,0.0,0.0,-0.11206680696048132,-0.3831982384837216,-0.7498853132754183,-0.5928216483219414,0.014556096610824886,0.05224329978576225,-0.8592298634443851
11245,6.0,298.94397000000004,5429.544,0.0,0.0,0.0,0.0,0.0,-0.11207677377006514,-0.3259603077547777,-0.7571248839149083,-0.5673606086166325,-0.0047803593498347355,0.029143021355942267,-0.8981265893431932
11246,6.0,299.62695,5624.2257,0.0,0.0,0.0,0.0,0.0,-0.11208674057964896,-0.3689059709206846,-0.7540126558352552,-0.5867055592608305,0.0027371838902890177,-0.001200942724673819,-0.8480755402485392
11247,6.0,300.37823,6146.0532,0.0,0.0,0.0,0.0,0.0,-0.11209670738923283,-0.4446065039742456,-0.7767828579124992,-0.6468573338323484,0.00888713718829215,-0.019226199758978182,-0.8416530747546912
11248,6.0,300.41925,6187.3381,0.0,0.0,0.0,0.0,0.0,-0.11210667419881659,-0.4533542568575816,-0.7850533193362302,-0.6423887083738294,-0.01112047861600579,-0.009098166583969131,-0.8049840906582442
11249,6.0,299.57217,5804.3063,0.0,0.0,0.0,0.0,0.0,-0.11211664100840041,-0.4043978319784586,-0.7599966069508253,-0.5999697326099025,0.031169261150666573,-0.024947779893654178,-0.8584051690554941
11250,6.0,300.08964,5891.8606,0.0,0.0,0.0,0.0,0.0,-0.11212660781798423,-0.4359748391548666,-0.7424340848225393,-0.6125695583984084,-0.002864612553340247,-0.005991252697115605,-0.8053526097196143
11251,6.0,300.46084,6225.5038,0.0,0.0,0.0,0.0,0.0,-0.11213657462756804,-0.44412396387912256,-0.8032308437452123,-0.6450428967457774,0.018255106942638783,-0.013751818198198788,-0.8569253983444521
11252,6.0,300.20654,6215.4391,0.0,0.0,0.0,0.0,0.0,-0.11214654143715191,-0.46307438533188355,-0.7672775080618943,-0.6589864036243944,0.0077795834961851135,0.016444196979665884,-0.8063334358164143
11253,6.0,299.01375,5862.0104,0.0,0.0,0.0,0.0,0.0,-0.11215650824673573,-0.43815202990973856,-0.7471877274016874,-0.5965650400213854,0.02940180036523177,0.002165712252439158,-0.8372802824906301
11254,6.0,298.70021,5733.4213,0.0,0.0,0.0,0.0,0.0,-0.11216647505631955,-0.40441561451771363,-0.7285024633675954,-0.6098988540498305,0.011110094828980989,-0.0039860347008909966,-0.8174705844230652
11255,6.0,299.58206,5681.438,0.0,0.0,0.0,0.0,0.0,-0.11217644186590336,-0.3946591508948256,-0.7267614362507693,-0.6055946993475434,0.008024161501348081,-0.02681933996786277,-0.8502467832253241
11256,6.0,300.58561000000003,6012.1306,0.0,0.0,0.0,0.0,0.0,-0.11218640867548713,-0.4279173223721516,-0.7607817035258083,-0.6388385637334574,-0.01118000705938079,0.022748674565619378,-0.8371515997279303
11257,6.0,300.28291,6134.3746,0.0,0.0,0.0,0.0,0.0,-0.112196375485071,-0.4322451567292756,-0.7836501705977502,-0.6488013858717113,-0.02864132070142827,0.0019918890964591477,-0.8509700107492012
11258,6.0,299.12126,5880.9981,0.0,0.0,0.0,0.0,0.0,-0.11220634229465482,-0.40139269430187463,-0.7710007259518472,-0.6152831434912184,-0.03099471564869027,0.018243587302251882,-0.8193705398180763
11259,6.0,299.47573,5829.8097,0.0,0.0,0.0,0.0,0.0,-0.11221630910423863,-0.3995109267461586,-0.7699446863001242,-0.6026609552730053,-0.004985696711749955,-0.008430644206864802,-0.8526922218116703
11260,6.0,299.82302000000004,6135.0762,0.0,0.0,0.0,0.0,0.0,-0.11222627591382245,-0.4077380717281146,-0.7947882919244973,-0.6623836184271734,0.008648698465485083,0.011857061789450889,-0.8325565409219332
11261,6.0,299.59495,6031.2277,0.0,0.0,0.0,0.0,0.0,-0.11223624272340627,-0.4156469548536606,-0.7900276072571543,-0.6276680488010133,0.01117236006087609,-0.002142886260811408,-0.8632802699241292
11262,6.0,300.4677,5713.7615,0.0,0.0,0.0,0.0,0.0,-0.11224620953299008,-0.36960289447196565,-0.7547614780566583,-0.6124764609792204,0.004143950438251066,-0.004016507083073387,-0.8647512658893052
11263,6.0,300.47863,5615.3442,0.0,0.0,0.0,0.0,0.0,-0.1122561763425739,-0.38562543856826764,-0.7391643267498393,-0.5821346563372175,-0.01080967225383159,0.00045254528811024253,-0.8774107315786972
11264,6.0,300.20491,5843.3378,0.0,0.0,0.0,0.0,0.0,-0.11226614315215772,-0.42659751345439656,-0.7511551284332393,-0.5984761411674965,-0.005705211079310495,0.030408650777600174,-0.8285420744232362
11265,6.0,300.81772,6183.8022,0.0,0.0,0.0,0.0,0.0,-0.11227610996174159,-0.4530348905585626,-0.7940438570760272,-0.6326427014919734,0.00853810373694523,0.030051800304381766,-0.8333126078815511
11266,6.0,299.77095,6213.3598,0.0,0.0,0.0,0.0,0.0,-0.11228607677132535,-0.45617178114564955,-0.7526550222912672,-0.6798794180363743,-0.0038959637584266866,-0.015390770499950785,-0.7769472780062262
11267,6.0,299.71736,6089.441,0.0,0.0,0.0,0.0,0.0,-0.11229604358090922,-0.45542474224442253,-0.7782231929296493,-0.6173900653516554,0.0017892056392058483,-0.03427283708771567,-0.8315513360277272
11268,6.0,300.4738,6089.6275,0.0,0.0,0.0,0.0,0.0,-0.11230601039049298,-0.4574938192136246,-0.7720115847816112,-0.6215892980060874,-0.0027446025022211775,0.004294567532490816,-0.8082495424180192
11269,6.0,299.10211,6243.3642,0.0,0.0,0.0,0.0,0.0,-0.1123159772000768,-0.4773509373858696,-0.7727327148777813,-0.6477431677322734,-0.026227423577445178,-9.68773983353048e-05,-0.8312484654403361
11270,6.0,299.88697,6325.8691,0.0,0.0,0.0,0.0,0.0,-0.11232594400966067,-0.48405363745987456,-0.8007551089808762,-0.6380974928753194,-0.014754096826115988,0.015808294389157183,-0.8243252112170643
11271,6.0,299.96937,5963.6834,0.0,0.0,0.0,0.0,0.0,-0.11233591081924449,-0.4061810305644466,-0.7741908932291922,-0.6324389166318614,-0.04745802961799286,0.0007543778919663013,-0.8384306557266632
11272,6.0,300.00257,5640.0439,0.0,0.0,0.0,0.0,0.0,-0.1123458776288283,-0.37053952259940365,-0.7438086092456943,-0.6000843818587174,0.01047831413987909,0.038734142827512266,-0.8426339616464971
11273,6.0,300.7067,5767.4717,0.0,0.0,0.0,0.0,0.0,-0.11235584443841212,-0.3839188112923367,-0.7808324537921633,-0.5884161179471494,-0.009471454608259792,0.024256638960693876,-0.8493312712299702
11274,6.0,300.54862,5916.5915,0.0,0.0,0.0,0.0,0.0,-0.11236581124799588,-0.4055730501069436,-0.7857164003341712,-0.6072066181366275,0.012831306826851387,0.001959905857052648,-0.8644753578870752
11275,6.0,300.62951,5896.840999999999,0.0,0.0,0.0,0.0,0.0,-0.11237577805757981,-0.3985192791382906,-0.7895707631845672,-0.6044023876898714,0.0004131931366889876,-0.015689120978645686,-0.8651791918040381
11276,6.0,300.73351,5783.7211,0.0,0.0,0.0,0.0,0.0,-0.11238574486716357,-0.4041645716729376,-0.7763997277846872,-0.5775424852940054,0.005668173444430166,0.023428853145747774,-0.8684174681961312
11277,6.0,299.58387,5774.9584,0.0,0.0,0.0,0.0,0.0,-0.11239571167674745,-0.3604948197205687,-0.7778512997454463,-0.6170970334227355,0.016474228699379787,0.010935846209283989,-0.8495836414323773
11278,6.0,300.1502,6058.2539,0.0,0.0,0.0,0.0,0.0,-0.1124056784863312,-0.4063335956320036,-0.8100814074063102,-0.6251429079618014,-0.02047246901097538,-0.028675918126092773,-0.8532826325124393
11279,6.0,299.52079,6250.4519,0.0,0.0,0.0,0.0,0.0,-0.11241564529591502,-0.43281860562337054,-0.7918885930533192,-0.6752741152718664,-0.008022080893592742,-0.033288585192327566,-0.8299246845821893
11280,6.0,298.77767,6015.5056,0.0,0.0,0.0,0.0,0.0,-0.1124256121054989,-0.44545998479847754,-0.7736225511156013,-0.6094809593110874,-0.01085176164973549,-0.006250111347862964,-0.8654088550717042
11281,6.0,299.74619,5771.2205,0.0,0.0,0.0,0.0,0.0,-0.11243557891508266,-0.4037738219043736,-0.7450787486435473,-0.6054543439436915,0.0025780337103321173,0.01032988819898059,-0.8422679554453751
11282,6.0,299.9346,5789.0633,0.0,0.0,0.0,0.0,0.0,-0.11244554572466653,-0.4249431698836256,-0.7192352678204943,-0.6155522424527764,-0.004800210439168885,-0.018523213932348882,-0.8485824490085672
11283,6.0,300.29167,5950.2908,0.0,0.0,0.0,0.0,0.0,-0.11245551253425035,-0.4111672343065466,-0.7531896535740312,-0.6443829466906453,0.014331388136147885,-0.005573900148501115,-0.8229349307548542
11284,6.0,300.81653,5932.7578,0.0,0.0,0.0,0.0,0.0,-0.11246547934383411,-0.4560853914421236,-0.7220927546925062,-0.6252320942356034,0.042150486778929165,0.015504197769145186,-0.8353046778431531
11285,6.0,299.66035,5805.0068,0.0,0.0,0.0,0.0,0.0,-0.11247544615341798,-0.4121654984375676,-0.7230306493825692,-0.6293809886250674,0.022495013482584977,0.022762514548735277,-0.8044256581306312
11286,6.0,300.39367999999996,5919.2648,0.0,0.0,0.0,0.0,0.0,-0.1124854129630018,-0.4170684028889466,-0.7831712072754803,-0.5990690748610144,-0.017017317580728483,-0.0006387341381781514,-0.8612562319218722
11287,6.0,300.30961,6230.1321,0.0,0.0,0.0,0.0,0.0,-0.11249537977258567,-0.45455393484348056,-0.7688706918566293,-0.6703799450363493,-0.025112761327936575,-0.02879380268247707,-0.8125391063188663
11288,6.0,299.32846,6421.8712,0.0,0.0,0.0,0.0,0.0,-0.11250534658216943,-0.46077898882034557,-0.8313463048699922,-0.6599632071182974,-0.02006539274355008,0.014886445527677785,-0.8657714871499932
11289,6.0,298.8254,6131.3055,0.0,0.0,0.0,0.0,0.0,-0.11251531339175325,-0.41327458173202564,-0.7930503045579712,-0.6574388971441674,0.007767054962673643,-0.004648488699670115,-0.8405531715061392
11290,6.0,299.16395,5736.0169,0.0,0.0,0.0,0.0,0.0,-0.11252528020133706,-0.3900794225628416,-0.7542112731198574,-0.5993152135753065,0.002204808406222648,-0.012460679192023288,-0.8681535976050891
11291,6.0,298.95837,5662.8578,0.0,0.0,0.0,0.0,0.0,-0.11253524701092088,-0.3588196842577457,-0.7516236856769822,-0.6109240199710064,0.01126564594458269,-0.007062961957660073,-0.8571794505420253
11292,6.0,300.34752000000003,5830.2627,0.0,0.0,0.0,0.0,0.0,-0.11254521382050475,-0.38789687171494064,-0.7706747329971743,-0.6136826642957635,-0.0008061343929667701,0.01053641998011369,-0.8911675572588902
11293,6.0,300.19119,5792.7443,0.0,0.0,0.0,0.0,0.0,-0.11255518063008857,-0.38472762805216065,-0.7598619156150324,-0.6162600989726364,-0.004712880540875096,0.013320213172352689,-0.8569919080810161
11294,6.0,300.38295,5660.2582,0.0,0.0,0.0,0.0,0.0,-0.11256514743967233,-0.37829838391514364,-0.7693837409122632,-0.5728950313253375,-0.02285148702676618,-0.026364875006510573,-0.8845247200007932
11295,6.0,299.70654,5868.0518,0.0,0.0,0.0,0.0,0.0,-0.1125751142492562,-0.3948777697364016,-0.7725699970442222,-0.6162934551659284,-0.011983599501689188,-0.01015189865991439,-0.8437487596715192
11296,6.0,299.7622,6014.2837,0.0,0.0,0.0,0.0,0.0,-0.11258508105883996,-0.4417568191280036,-0.7645416314668843,-0.6218936074086204,0.00026017197486447475,0.04032932373819436,-0.8563579884209532
11297,6.0,299.16465,6246.0822,0.0,0.0,0.0,0.0,0.0,-0.11259504786842384,-0.4350407542851796,-0.8071197989540222,-0.6564924810207634,0.014616124586499187,0.037593650806454465,-0.8344296046592902
11298,6.0,300.22393,6159.9509,0.0,0.0,0.0,0.0,0.0,-0.11260501467800765,-0.45211998651326857,-0.7810922207203003,-0.6392590523924564,-0.0004115422888310617,-0.0021845240511457376,-0.8509797278176603
11299,6.0,299.82909,5847.6525,0.0,0.0,0.0,0.0,0.0,-0.11261498148759147,-0.4192214276289336,-0.7460498779368903,-0.6122690182862474,-0.024870044359232277,-0.024067793460056275,-0.8331211137451521
11300,6.0,299.50109,5770.9747,0.0,0.0,0.0,0.0,0.0,-0.11262494829717529,-0.4094665446762016,-0.7296563829789783,-0.6151092900390605,0.013489641761323987,-0.00982760897865949,-0.8566656516813171
11301,6.0,299.33895,5905.0424,0.0,0.0,0.0,0.0,0.0,-0.1126349151067591,-0.4229142784133896,-0.7350406318903623,-0.6370305405200194,-0.014475608075881288,-0.006069497896337804,-0.8236523118256542
11302,6.0,300.10468,5921.3632,0.0,0.0,0.0,0.0,0.0,-0.11264488191634292,-0.4354457300851476,-0.7632338498278163,-0.6012669764479304,-0.01034510113598199,-0.013086938681330287,-0.8565071996306793
11303,6.0,300.69685,5828.7997,0.0,0.0,0.0,0.0,0.0,-0.11265484872592674,-0.4033160963041996,-0.7513679717492453,-0.6171254956180444,-0.008284789793395092,-0.013759644541971188,-0.8189766084441982
11304,6.0,300.06904,5789.6027,0.0,0.0,0.0,0.0,0.0,-0.11266481553551055,-0.41594615747568964,-0.7732048894243813,-0.5707435872555064,-0.010313881887150891,0.02219044772777668,-0.869260370689319
11305,6.0,299.43197000000004,6134.7511,0.0,0.0,0.0,0.0,0.0,-0.11267478234509443,-0.4256388471372836,-0.8122629956666162,-0.6269092967286304,0.008449510923726804,0.014747260427691285,-0.8548543252725532
11306,6.0,300.59368,6357.7019,0.0,0.0,0.0,0.0,0.0,-0.11268474915467819,-0.45884231324171054,-0.8181651572341142,-0.6555751654402313,0.003445249848944687,-0.015561039073254986,-0.8534832053697342
11307,6.0,299.78677000000005,5960.009,0.0,0.0,0.0,0.0,0.0,-0.11269471596426206,-0.4018816178726276,-0.7782460721169073,-0.6315662347182345,0.005939913037073774,0.01582780654633288,-0.8381956728959722
11308,6.0,299.49702,5785.5209,0.0,0.0,0.0,0.0,0.0,-0.11270468277384582,-0.3771427721760936,-0.7800758092799882,-0.6014352874220414,0.008132429402358293,0.03938496451249336,-0.8605468251293591
11309,6.0,299.02698,5719.927,0.0,0.0,0.0,0.0,0.0,-0.11271464958342964,-0.3466839371475407,-0.7524127339273553,-0.6396183002154113,-0.013782615934988288,0.028466604973435176,-0.8497272392365492
11310,6.0,298.9152,5901.6881,0.0,0.0,0.0,0.0,0.0,-0.11272461639301351,-0.3976858809310406,-0.7874105038388662,-0.6088694324782344,-0.036405727534965564,-0.029123370383502874,-0.8826841815916461
11311,6.0,300.02386,6001.2401,0.0,0.0,0.0,0.0,0.0,-0.11273458320259733,-0.39588050230036365,-0.7706506480422973,-0.6576960093570424,-0.027654894371325577,-0.04447527159636755,-0.8571257077567213
11312,6.0,300.39886,5627.9551,0.0,0.0,0.0,0.0,0.0,-0.11274455001218114,-0.3805933143316356,-0.7538366441603842,-0.5763278821341334,0.018782480314936484,-0.012920154675119987,-0.8727415737928872
11313,6.0,299.32887999999997,5551.3713,0.0,0.0,0.0,0.0,0.0,-0.11275451682176496,-0.36231155688486666,-0.7508595937765723,-0.5743071067971984,0.01254774574661609,0.0019661970255985383,-0.8554211069809902
11314,6.0,300.42982,6011.6269,0.0,0.0,0.0,0.0,0.0,-0.11276448363134872,-0.43458402167010357,-0.7593801861199893,-0.6334202696187134,0.01685154682461818,0.004546810268035236,-0.8414769820198121
11315,6.0,300.59682999999995,6364.5487,0.0,0.0,0.0,0.0,0.0,-0.11277445044093265,-0.45010309192421655,-0.8211833050419822,-0.6633774850527604,-0.008526717440271493,0.0013828792781795587,-0.8207194391462022
11316,6.0,299.51662000000005,6233.9714,0.0,0.0,0.0,0.0,0.0,-0.11278441725051641,-0.4792705397003196,-0.7741861005562192,-0.6415149929451004,0.0010157002400668091,0.027167282959452074,-0.8360263145643733
11317,6.0,300.26412,5999.1402,0.0,0.0,0.0,0.0,0.0,-0.11279438406010023,-0.4084822937940636,-0.7584880194069393,-0.6566185090682014,-0.012233032292056288,-0.0017724675581539283,-0.8267059639170262
11318,6.0,298.89266000000003,5900.8061,0.0,0.0,0.0,0.0,0.0,-0.11280435086968404,-0.44498206512381056,-0.7575411979834953,-0.5911744380318744,-0.004038284563497656,-0.047585214797045056,-0.8294738794801982
11319,6.0,300.06572,6125.7899,0.0,0.0,0.0,0.0,0.0,-0.11281431767926786,-0.44216327427311763,-0.7560734646836412,-0.6638504195369354,0.004746772236844945,-0.02042092903138878,-0.8157937264350722
11320,6.0,300.83125,6156.9007,0.0,0.0,0.0,0.0,0.0,-0.11282428448885173,-0.4493170226291376,-0.7916732571420673,-0.6305537749533123,0.0026013290394061874,-0.02046381686837148,-0.8471162254513622
11321,6.0,300.12464,5781.3613,0.0,0.0,0.0,0.0,0.0,-0.11283425129843555,-0.37540033664162864,-0.7580389874926232,-0.6239501504740854,0.02003784449983128,0.016278242825287486,-0.8574252042212792
11322,6.0,299.84476,5650.1063,0.0,0.0,0.0,0.0,0.0,-0.11284421810801937,-0.3933379740894356,-0.7462430439359543,-0.5779102241527985,-0.03564207943809936,7.288818951325424e-05,-0.8698473566047501
11323,6.0,299.66353,5864.6615,0.0,0.0,0.0,0.0,0.0,-0.11285418491760318,-0.36606926580822363,-0.7947619474218972,-0.6218794320397214,-0.017339028540478883,0.007846170543731743,-0.8591662820006103
11324,6.0,299.38692000000003,5993.5383,0.0,0.0,0.0,0.0,0.0,-0.11286415172718695,-0.42809647512233256,-0.7858052826329432,-0.6079842065283694,-0.022773760611595178,0.005611130908850505,-0.8666684364035152
11325,6.0,299.60816,5979.8742,0.0,0.0,0.0,0.0,0.0,-0.11287411853677082,-0.4013565010083026,-0.7871195085426472,-0.6292564196577733,-0.001945027191259238,0.008554732184336332,-0.8508912001564233
11326,6.0,299.54492,5827.6885,0.0,0.0,0.0,0.0,0.0,-0.11288408534635463,-0.40963543320286966,-0.7662935003597803,-0.5955428530555035,0.007299029168608093,-0.02171633584698548,-0.8617564633637412
11327,6.0,298.69543,5809.3959,0.0,0.0,0.0,0.0,0.0,-0.11289405215593845,-0.38828546326079166,-0.7638405637226943,-0.6137852558683884,-0.009888383213032441,0.005007443794671225,-0.8499581386693372
11328,6.0,299.98329,6070.1309,0.0,0.0,0.0,0.0,0.0,-0.11290401896552227,-0.4473114865737066,-0.7867918741228123,-0.6110648718674073,0.0015169334823096786,0.025232306601234773,-0.8541906869870571
11329,6.0,300.47996,6159.155,0.0,0.0,0.0,0.0,0.0,-0.11291398577510608,-0.4174902290380776,-0.7963985591159183,-0.6583405377456524,-0.016582578572323085,0.011490120358486589,-0.8765462367258782
11330,6.0,300.47721,5840.1806,0.0,0.0,0.0,0.0,0.0,-0.1129239525846899,-0.4252203039184766,-0.7351598002346234,-0.6148889689373165,0.002131582645345828,-0.013872153806574987,-0.8297360883410762
11331,6.0,300.69805,5700.8964,0.0,0.0,0.0,0.0,0.0,-0.11293391939427372,-0.3777202740705886,-0.7441577144351483,-0.6110521555786524,0.01023882335949319,-0.013183973590406888,-0.8432995656371872
11332,6.0,300.93105,6059.5095,0.0,0.0,0.0,0.0,0.0,-0.11294388620385759,-0.46076503636646854,-0.7599893216826062,-0.6211852341312094,0.020795338115590083,-0.004221102644590397,-0.8253672984149102
11333,6.0,300.08017,6199.8332,0.0,0.0,0.0,0.0,0.0,-0.11295385301344141,-0.43743148749862654,-0.7929635703494112,-0.6541994453819584,0.003494082424264087,0.010984202557056389,-0.8487666072142422
11334,6.0,300.42647999999997,6098.0664,0.0,0.0,0.0,0.0,0.0,-0.11296381982302517,-0.4700014088455276,-0.7603742756605983,-0.6232842323758644,-0.021421993785686183,-0.02869481220070747,-0.8226223127015012
11335,6.0,300.56657,5957.6131,0.0,0.0,0.0,0.0,0.0,-0.11297378663260899,-0.4067062588862826,-0.7607800519281452,-0.6434792998539625,-0.0014614248047313987,0.013562966618060588,-0.8436047869648103
11336,6.0,299.78806000000003,6048.1661,0.0,0.0,0.0,0.0,0.0,-0.1129837534421928,-0.46668741227346155,-0.7465288412591603,-0.6252752080273584,0.012505377706934688,0.018587914004234284,-0.8094427052057752
11337,6.0,300.49142,6266.5572,0.0,0.0,0.0,0.0,0.0,-0.11299372025177667,-0.4562859035044126,-0.7836557029432962,-0.6649353064190053,-0.00010618248031689491,0.030423794813594772,-0.8396398582635022
11338,6.0,299.91848,6100.5834,0.0,0.0,0.0,0.0,0.0,-0.11300368706136049,-0.4659255900532755,-0.7797854421988313,-0.6087140100453954,-0.015596459257000686,-0.02184719405765018,-0.8162827108008313
11339,6.0,299.76813,5706.5534,0.0,0.0,0.0,0.0,0.0,-0.11301365387094431,-0.3845603201956486,-0.7577167435633202,-0.5923726670701305,-0.011865163737250488,-0.013819541808382588,-0.8761194253862551
11340,6.0,299.98616,5733.3368,0.0,0.0,0.0,0.0,0.0,-0.11302362068052813,-0.40716662906921763,-0.7480421708135143,-0.5875824157648694,0.0013080037434899188,0.007292875396775763,-0.8602349264835771
11341,6.0,299.49965,5744.2496,0.0,0.0,0.0,0.0,0.0,-0.11303358749011194,-0.3488129478601577,-0.7977629915680772,-0.5995324949267504,-0.015081770762704883,0.005888983135372385,-0.9095941892049572
11342,6.0,298.88912999999997,5865.4967,0.0,0.0,0.0,0.0,0.0,-0.11304355429969581,-0.4070035565981236,-0.7573151520186863,-0.6186458368630905,0.015669879359246682,-0.021469550679129683,-0.8439397167853652
11343,6.0,299.52191,5926.4763,0.0,0.0,0.0,0.0,0.0,-0.11305352110927958,-0.3804058731956367,-0.7870765264734053,-0.6340184012852444,0.011350903847746988,-0.026875853992190276,-0.8629932161707992
11344,6.0,299.36061,5861.6835,0.0,0.0,0.0,0.0,0.0,-0.11306348791886339,-0.42613050648330664,-0.7663968012074752,-0.5892781100722214,0.05256116039513266,0.0052813327947519645,-0.8200550915856362
11345,6.0,300.19456,5994.8915,0.0,0.0,0.0,0.0,0.0,-0.11307345472844721,-0.39003416068087465,-0.7916380973635972,-0.6406250756472723,0.02118505538230218,0.012589042780941789,-0.8515790348543072
11346,6.0,299.62699,6288.3258,0.0,0.0,0.0,0.0,0.0,-0.11308342153803103,-0.4580683421528255,-0.8013128322334192,-0.6521128290535254,-0.004947619786242055,0.001283420066913699,-0.7987495121304392
11347,6.0,299.97738,6356.7572,0.0,0.0,0.0,0.0,0.0,-0.1130933883476149,-0.4578770810639496,-0.7910534317908953,-0.6833649578503703,-0.01908408839270288,0.022888565900925577,-0.8469177804192771
11348,6.0,299.92474,6005.1918,0.0,0.0,0.0,0.0,0.0,-0.11310335515719866,-0.46664873651714456,-0.7498712088340262,-0.6089084223420824,-0.005868825132582944,0.038617791318529264,-0.8088005275573973
11349,6.0,300.6785,5682.4404,0.0,0.0,0.0,0.0,0.0,-0.11311332196678248,-0.39404802936201266,-0.7436644642864683,-0.5896074974147295,-0.004688451080964095,-0.014110303043828485,-0.8552789986544651
11350,6.0,299.27347000000003,5945.0439,0.0,0.0,0.0,0.0,0.0,-0.11312328877636635,-0.47472649803685757,-0.7222603158615434,-0.6101580738229134,-0.01108394081739979,-0.06813974794686953,-0.8233528862886031
11351,6.0,300.96719,6201.7035,0.0,0.0,0.0,0.0,0.0,-0.11313325558595017,-0.4548590852435966,-0.7878023783150413,-0.6425015337724644,-0.009523762023472132,-0.033012853495614974,-0.8500146881574183
11352,6.0,300.69993,6006.3149,0.0,0.0,0.0,0.0,0.0,-0.11314322239553398,-0.44897767503814656,-0.7690726123365573,-0.6077194645422413,0.014221148551768087,0.015804109666244185,-0.8492369072481573
11353,6.0,300.63448,5919.2702,0.0,0.0,0.0,0.0,0.0,-0.1131531892051178,-0.3999597357454526,-0.7685496638274463,-0.6308009167852034,0.02043472443150028,0.03389632246980657,-0.8413829220130292
11354,6.0,300.14027000000004,5948.6609,0.0,0.0,0.0,0.0,0.0,-0.11316315601470156,-0.42915281874908556,-0.7718929838574063,-0.6071985830633344,-0.0033262516293754768,-0.0015131228513335987,-0.8269129911774582
11355,6.0,300.63728,6126.4683,0.0,0.0,0.0,0.0,0.0,-0.11317312282428543,-0.42685693587749957,-0.7756279757135213,-0.6598084635630254,0.02112818773368978,-0.005085522111601955,-0.8143573025633082
11356,6.0,299.85346,6191.1525,0.0,0.0,0.0,0.0,0.0,-0.11318308963386925,-0.47323435554209453,-0.7848974612058482,-0.6238239501741304,0.006335294067869843,0.02454917743681518,-0.8097370239623222
11357,6.0,300.26997,5936.6097,0.0,0.0,0.0,0.0,0.0,-0.11319305644345307,-0.3799380961544706,-0.8037892458753222,-0.6208537594934954,-0.01153270726018959,-0.025400410872325373,-0.8628660026207442
11358,6.0,299.8291,5624.4099,0.0,0.0,0.0,0.0,0.0,-0.11320302325303688,-0.3735838223923526,-0.7450981827804652,-0.5909981426469755,-0.049476532234953546,-0.03574793772904676,-0.8648082713399312
11359,6.0,299.83313,5852.1892,0.0,0.0,0.0,0.0,0.0,-0.1132129900626207,-0.36467082868270867,-0.7989810803082932,-0.6152674786446725,-0.048280062198871154,0.017913621393936784,-0.8741404466159453
11360,6.0,299.90241000000003,6232.3365,0.0,0.0,0.0,0.0,0.0,-0.11322295687220457,-0.4549080252234266,-0.8024614322817772,-0.6371052069198884,3.192328843783327e-05,0.05726575862969035,-0.8763214269261911
11361,6.0,299.19987000000003,6037.8995,0.0,0.0,0.0,0.0,0.0,-0.11323292368178833,-0.3937746747500346,-0.7891480251103463,-0.6524479817891023,0.008189783816318732,0.030522207742807367,-0.8673966693828861
11362,6.0,299.47087999999997,5726.0877,0.0,0.0,0.0,0.0,0.0,-0.1132428904913722,-0.3967031093940486,-0.7517376459157293,-0.5921469250803515,-0.008466748537078022,-0.019844526513252282,-0.8376129021009571
11363,6.0,300.44112,5884.656,0.0,0.0,0.0,0.0,0.0,-0.11325285730095597,-0.3842858510085606,-0.7762680761991942,-0.6282345467994224,0.032770174017164366,-0.02548399285982427,-0.8329692782176672
11364,6.0,300.0291,6240.404,0.0,0.0,0.0,0.0,0.0,-0.11326282411053978,-0.4649490804019016,-0.7810395013175973,-0.6509384012601184,0.00991617413015019,0.018399369438876382,-0.7961551561768963
11365,6.0,300.44216,6344.6027,0.0,0.0,0.0,0.0,0.0,-0.11327279092012366,-0.47767707219555655,-0.7968320376411993,-0.6540916659688214,0.025685925498753474,-0.01024926692827389,-0.8227906034106102
11366,6.0,300.07076,6114.6085,0.0,0.0,0.0,0.0,0.0,-0.11328275772970747,-0.48368127818062556,-0.7305540719050734,-0.6444529521400544,-0.02041384945294008,-0.012502901323690288,-0.7797634344066593
11367,6.0,300.81312,5863.6037,0.0,0.0,0.0,0.0,0.0,-0.11329272453929129,-0.43409969825480454,-0.7553235785496333,-0.5929658439436725,-0.01182418385020609,0.013058737904547089,-0.8306680757830562
11368,6.0,299.93754,6005.329000000001,0.0,0.0,0.0,0.0,0.0,-0.1133026913488751,-0.45466080233152756,-0.7517449413164493,-0.6190643091543904,0.019982635541632585,0.04078368433478626,-0.8127143580561622
11369,6.0,299.92634,6307.7219,0.0,0.0,0.0,0.0,0.0,-0.11331265815845892,-0.4614507027091385,-0.7900520468495662,-0.6658872143579513,-0.02068778567047548,0.006426957028891274,-0.8688021080665921
11370,6.0,300.26243,6280.3568,0.0,0.0,0.0,0.0,0.0,-0.11332262496804274,-0.4710098358750515,-0.8051865684257272,-0.6328752423899234,-0.024106753939651376,-0.005693712818500704,-0.8421807146117652
11371,6.0,301.06107000000003,5814.7205,0.0,0.0,0.0,0.0,0.0,-0.11333259177762656,-0.4036288055500616,-0.7615184275410173,-0.6023825952055334,-0.008307857951796742,-0.014849881384569184,-0.8707671850455301
11372,6.0,300.33545,5864.4135,0.0,0.0,0.0,0.0,0.0,-0.11334255858721043,-0.3951453690878116,-0.7773066879491972,-0.6101832226903954,0.0039243764058057955,0.034803325190820765,-0.8406737989305442
11373,6.0,300.66226,6122.8016,0.0,0.0,0.0,0.0,0.0,-0.11335252539679419,-0.41446038832405563,-0.8125104820035413,-0.6342079195839484,0.008059572971142922,-0.01103213941928739,-0.8659638729464803
11374,6.0,300.21875,6117.2298,0.0,0.0,0.0,0.0,0.0,-0.11336249220637801,-0.40839506309295465,-0.7811786610863313,-0.6699113979251073,0.008830022407980363,-0.017357310612033182,-0.8150133516055552
11375,6.0,299.27361,5785.6217,0.0,0.0,0.0,0.0,0.0,-0.11337245901596182,-0.36494626045739165,-0.7942336084222542,-0.5995046710790044,0.02519169452397668,-0.01047510416356229,-0.8786090822069651
11376,6.0,298.86061,5661.806,0.0,0.0,0.0,0.0,0.0,-0.11338242582554564,-0.3655917413010956,-0.7704294758104693,-0.5850264417251144,0.05203124984458455,0.007954476542945711,-0.8438392125079462
11377,6.0,299.8403,5800.376,0.0,0.0,0.0,0.0,0.0,-0.11339239263512951,-0.38868013430724263,-0.7806601506126583,-0.5938291836913775,0.01797637805213038,0.0016401552322707184,-0.8881363385247322
11378,6.0,299.77871,6140.7841,0.0,0.0,0.0,0.0,0.0,-0.11340235944471333,-0.42091701047877456,-0.8052350524430122,-0.6404929680992344,-0.0029204193290979473,-0.028927689497690676,-0.8472978201342842
11379,6.0,299.98213,6163.6364,0.0,0.0,0.0,0.0,0.0,-0.11341232625429709,-0.4546563136335846,-0.7860712506516923,-0.6328639953138134,-0.009782282147361081,-0.005368108546566064,-0.8520025024686002
11380,6.0,299.37906,5838.5722,0.0,0.0,0.0,0.0,0.0,-0.11342229306388096,-0.42181495271739455,-0.7357416489720473,-0.6172235579627223,-0.013404375752158887,0.029788189105365372,-0.8454664719035442
11381,6.0,300.33122000000003,5866.2236,0.0,0.0,0.0,0.0,0.0,-0.11343225987346472,-0.41588834142498365,-0.7490150124995263,-0.6182821510046974,-0.01052958864793949,-0.02152650445400058,-0.8461749465059653
11382,6.0,300.28319,6140.415,0.0,0.0,0.0,0.0,0.0,-0.11344222668304865,-0.4790666231176946,-0.7383517406996433,-0.6491144801526114,-0.012724724062082488,-0.02166527412144608,-0.8152746181438403
11383,6.0,300.98157000000003,6205.7065,0.0,0.0,0.0,0.0,0.0,-0.11345219349263241,-0.47194781162512256,-0.7751081986772232,-0.6393238193388484,0.0029215736236118672,-0.014276709107751487,-0.8241606290033212
11384,6.0,299.95507000000003,6133.1343,0.0,0.0,0.0,0.0,0.0,-0.11346216030221623,-0.47112073609849653,-0.7543739909534163,-0.6388249659171154,0.03531283699035567,0.017704373089285585,-0.8190126193527523
11385,6.0,300.46763,5961.4699,0.0,0.0,0.0,0.0,0.0,-0.11347212711180005,-0.4194121415627556,-0.7668885821435103,-0.6258372679903295,-0.015307293890462287,-0.002705336831695958,-0.8188519381518943
11386,6.0,301.22016,5866.1861,0.0,0.0,0.0,0.0,0.0,-0.11348209392138386,-0.4032551189131816,-0.7728566252325103,-0.6070623414548885,0.024049062518707677,-0.007424310653372413,-0.8511737956093132
11387,6.0,301.27431,6027.6047,0.0,0.0,0.0,0.0,0.0,-0.11349206073096774,-0.4040582918699486,-0.7733358519998063,-0.6548471756408843,-0.014846677487752985,-0.012738267162919089,-0.8267520465315742
11388,6.0,299.71954,6041.1156,0.0,0.0,0.0,0.0,0.0,-0.1135020275405515,-0.4146695535421986,-0.8190845398448502,-0.6025942023564175,0.010697109286972489,0.002233310118285548,-0.8918405579753101
11389,6.0,299.4077,5807.1511,0.0,0.0,0.0,0.0,0.0,-0.11351199435013531,-0.39027064312171367,-0.7631018436047883,-0.6118564329780284,-0.011928939725044687,-0.02092843256922548,-0.8864519216909931
11390,6.0,298.45079,5549.1525,0.0,0.0,0.0,0.0,0.0,-0.11352196115971919,-0.38568459210910566,-0.7296578521916233,-0.5714613432288435,-0.03084044933421537,-0.007511244168227082,-0.8846588540490312
11391,6.0,299.02191,5742.9397,0.0,0.0,0.0,0.0,0.0,-0.11353192796930295,-0.35388325136055765,-0.7843356748204042,-0.6074913515472284,-0.003318357296521367,0.03894976244879226,-0.8725635052203131
11392,6.0,300.21178,6155.9858,0.0,0.0,0.0,0.0,0.0,-0.11354189477888682,-0.4393394678344296,-0.7748745736016662,-0.6570519369309773,0.0017650864364754683,0.04911733203475325,-0.8612767401038961
11393,6.0,299.988,6126.0139,0.0,0.0,0.0,0.0,0.0,-0.11355186158847064,-0.39622001201137064,-0.8185593013905132,-0.6473759456310313,0.005166798245848285,0.030591492771395265,-0.8460219356083641
11394,6.0,299.89361,5873.6892,0.0,0.0,0.0,0.0,0.0,-0.1135618283980544,-0.3971706939176956,-0.7912557170408592,-0.5970284499546205,-0.013924724261513288,-0.02237413983840568,-0.8434198282915562
11395,6.0,300.32452,6115.299,0.0,0.0,0.0,0.0,0.0,-0.11357179520763827,-0.41648194386356757,-0.7937895211684263,-0.6486267116869724,0.0025270953986548978,-0.013408570607572888,-0.8253327972490052
11396,6.0,300.33487,6233.9306,0.0,0.0,0.0,0.0,0.0,-0.11358176201722209,-0.47059350154146257,-0.8077123881425062,-0.6166533514689474,-0.003976393423539476,-0.016304393797118382,-0.8446651126644562
11397,6.0,300.4399,6170.7255,0.0,0.0,0.0,0.0,0.0,-0.1135917288268059,-0.43793270179309257,-0.7926531713137772,-0.6451606161423954,-0.008007936023521752,-0.029562387333830476,-0.8423841144368394
11398,6.0,299.14902,5849.125,0.0,0.0,0.0,0.0,0.0,-0.11360169563638972,-0.4234054412668636,-0.7500868791178114,-0.6044956370965745,-0.002184962991089058,-0.010601326755019489,-0.8498291417991062
11399,6.0,298.60335,5704.6338,0.0,0.0,0.0,0.0,0.0,-0.11361166244597354,-0.39476839952060766,-0.7196065935846413,-0.6196912475212645,0.017250792695270682,0.022428448017265477,-0.8394834225805632
11400,6.0,298.30125,5975.3355,0.0,0.0,0.0,0.0,0.0,-0.11362162925555741,-0.4179595158218926,-0.7522045920918133,-0.6461886698263564,0.018975778036513482,0.04012428447445856,-0.8411572205532543
11401,6.0,299.24228,6266.9629,0.0,0.0,0.0,0.0,0.0,-0.11363159606514117,-0.4636591623620966,-0.7748852329927183,-0.6664558503140713,-0.012918837449989987,-0.008276361781713312,-0.8382383408576833
11402,6.0,300.03208,6185.8065,0.0,0.0,0.0,0.0,0.0,-0.11364156287472504,-0.48084390432309854,-0.7746725619292293,-0.6248142501593654,-0.01086311410385589,-0.005782422256805645,-0.8339343482754122
11403,6.0,300.64112,5861.5002,0.0,0.0,0.0,0.0,0.0,-0.1136515296843088,-0.43239931259948966,-0.7594790691972483,-0.5898713173432664,-0.016024705358765285,0.0043920902201655555,-0.8387579456414643
11404,6.0,300.60952000000003,5946.9029,0.0,0.0,0.0,0.0,0.0,-0.11366149649389262,-0.41195134802893263,-0.8105315133657323,-0.5852271361724214,-0.00946513537268613,0.014623542590481285,-0.8554211981734993
11405,6.0,300.49959,6370.7938,0.0,0.0,0.0,0.0,0.0,-0.1136714633034765,-0.4702999731199935,-0.8093618883777992,-0.6569003851135203,-0.025865910127266578,-0.01102070083890849,-0.8432427527040802
11406,6.0,299.96033,6350.0582,0.0,0.0,0.0,0.0,0.0,-0.11368143011306031,-0.4286915366410606,-0.8550434078737141,-0.6465241873319693,-0.006484992549568933,-0.01936341408752018,-0.8576959041179952
11407,6.0,299.57277,5765.7953,0.0,0.0,0.0,0.0,0.0,-0.11369139692264413,-0.3820374895666646,-0.7661419282773213,-0.6044783915798724,0.027021296924794373,0.006101466139642823,-0.8720028739399832
11408,6.0,299.60894,5531.2698,0.0,0.0,0.0,0.0,0.0,-0.11370136373222794,-0.34448634966815567,-0.7405629158628693,-0.5963186479945685,0.028706417967352873,-0.010861558764952388,-0.8839534799919161
11409,6.0,299.28878,5708.8368,0.0,0.0,0.0,0.0,0.0,-0.1137113305418117,-0.3702805257413427,-0.7651682151962232,-0.5998950864750354,0.028506154151338375,-0.026916859210487178,-0.8852237612447832
11410,6.0,299.41283,5919.7957,0.0,0.0,0.0,0.0,0.0,-0.11372129735139558,-0.39281358676518263,-0.7648627912185804,-0.6417936873851053,0.023839697690294977,-0.021612911382778276,-0.8770669256872661
11411,6.0,299.19187999999997,5815.35,0.0,0.0,0.0,0.0,0.0,-0.1137312641609794,-0.40050438807170563,-0.7597700239634633,-0.6074467786753295,0.01947922553419988,0.02376074220275268,-0.8602447651420483
11412,6.0,299.95948,5807.2129,0.0,0.0,0.0,0.0,0.0,-0.11374123097056327,-0.39263676449023166,-0.7666294130329323,-0.6059815278382205,-0.0001998183203430328,0.017054229268621383,-0.8578269477534282
11413,6.0,300.35062,6141.446,0.0,0.0,0.0,0.0,0.0,-0.11375119778014703,-0.4513665742689126,-0.7775668297798712,-0.6379128280445944,-0.02859878648873047,-0.027175191376482576,-0.8295801896806901
11414,6.0,299.86132000000003,6507.1525,0.0,0.0,0.0,0.0,0.0,-0.11376116458973085,-0.4957757454817565,-0.8174428213703252,-0.6647933298149933,-0.02380322271319518,-0.04165985790825786,-0.8292409028847052
11415,6.0,300.46911,6665.9191,0.0,0.0,0.0,0.0,0.0,-0.11377113139931466,-0.5160552876206915,-0.8005112399468083,-0.7097064207000703,-0.003035172132073167,-0.021476192533535183,-0.8083760162955012
11416,6.0,300.47146000000004,6165.1887,0.0,0.0,0.0,0.0,0.0,-0.11378109820889848,-0.4523195461204636,-0.7803066479177703,-0.6414372259999254,0.01100589421519719,0.003268261907602337,-0.8460195848681322
11417,6.0,300.88194,5705.0809,0.0,0.0,0.0,0.0,0.0,-0.11379106501848235,-0.3918027583329216,-0.7231994771142314,-0.6191999022827723,0.0037373784654005362,0.004412313273611416,-0.8234111886993573
11418,6.0,301.38997,5887.9236,0.0,0.0,0.0,0.0,0.0,-0.11380103182806617,-0.41628557599418764,-0.7474453259746103,-0.6260508408464074,-0.005276284580103745,0.02713835264259687,-0.8576564380266001
11419,6.0,301.1177,6113.666,0.0,0.0,0.0,0.0,0.0,-0.11381099863764993,-0.4177232866935786,-0.7804703182064232,-0.6602082008599763,-0.012947140565033289,0.041574435858577355,-0.8138584795390782
11420,6.0,299.96079,5994.4931,0.0,0.0,0.0,0.0,0.0,-0.1138209654472338,-0.4319972346948076,-0.7616951484909583,-0.6284838569865274,-0.0002819561427394047,-0.0016514882319891987,-0.8774201548046271
11421,6.0,300.25906000000003,5961.3403,0.0,0.0,0.0,0.0,0.0,-0.11383093225681756,-0.39050221129956764,-0.7763474947420322,-0.6452488803586064,0.005336402025761875,-0.03756201713833247,-0.8404657482875113
11422,6.0,299.72798,6006.4638,0.0,0.0,0.0,0.0,0.0,-0.11384089906640144,-0.4115176465886296,-0.7952447002995413,-0.6190526770432424,0.007644768037254862,-0.05297841273331225,-0.8991518565893791
11423,6.0,300.01526,6331.1114,0.0,0.0,0.0,0.0,0.0,-0.11385086587598525,-0.42241771493688257,-0.8132551802970373,-0.6888268723819192,0.024701491218347377,0.025200574647853077,-0.8432927565965151
11424,6.0,299.24723,6311.7111,0.0,0.0,0.0,0.0,0.0,-0.11386083268556907,-0.4564039775385656,-0.8283638943931512,-0.6338346990421144,-0.0032233128159412073,0.04277455460826986,-0.8906617833389741
11425,6.0,299.77643,5774.0803,0.0,0.0,0.0,0.0,0.0,-0.11387079949515289,-0.39013343892567265,-0.7560529868991203,-0.6089898065901144,-0.013548845964666987,0.037153840481298564,-0.8427280925807872
11426,6.0,299.26292,5313.2362,0.0,0.0,0.0,0.0,0.0,-0.1138807663047367,-0.3443938601990277,-0.7438987175770874,-0.5267985453834685,-0.017602037868935883,-0.0016276080549574086,-0.8840639647828202
11427,6.0,300.2248,5632.5316,0.0,0.0,0.0,0.0,0.0,-0.11389073311432057,-0.3595234472472017,-0.7681964955050913,-0.5844290294661544,0.0012377538981567988,0.01009592814294053,-0.8568149946135561
11428,6.0,300.27822000000003,6146.2675,0.0,0.0,0.0,0.0,0.0,-0.11390069992390439,-0.4201126621518916,-0.8107454408593452,-0.6374537345567854,0.01793555927185188,-0.01940058820718898,-0.9000381160543461
11429,6.0,300.16015,6093.6249,0.0,0.0,0.0,0.0,0.0,-0.11391066673348815,-0.40604451537847364,-0.7920171744910092,-0.6542481117842613,0.008616403145047781,-0.0009663815580119341,-0.8563260203802981
11430,6.0,299.17238,5799.8203,0.0,0.0,0.0,0.0,0.0,-0.11392063354307203,-0.4174013366068046,-0.7635803104345092,-0.5820189026457934,0.011012862336134889,-0.004623837034012186,-0.8734683578246152
11431,6.0,300.09704,6177.798000000001,0.0,0.0,0.0,0.0,0.0,-0.11393060035265579,-0.4579822057618246,-0.7554696182865462,-0.6644445184680683,0.026128427016174977,0.017461358225051883,-0.7858183332942312
11432,6.0,299.56192000000004,6428.4656,0.0,0.0,0.0,0.0,0.0,-0.11394056716223966,-0.4953340697631666,-0.7999053569170123,-0.6588535868012864,-0.004468174055599446,0.005927379335986795,-0.8286804337243912
11433,6.0,299.36688,6428.6345,0.0,0.0,0.0,0.0,0.0,-0.11395053397182348,-0.49806742336542753,-0.7859072763880092,-0.6701696753755974,0.008372699574721114,-0.03512585890965236,-0.7806214748563413
11434,6.0,299.17087000000004,6117.763000000001,0.0,0.0,0.0,0.0,0.0,-0.11396050078140724,-0.44277912768389754,-0.7579920537479913,-0.6588759998934984,-0.02252460139875508,-0.032926878211379865,-0.8409917365469223
11435,6.0,299.79604,5844.281999999999,0.0,0.0,0.0,0.0,0.0,-0.11397046759099111,-0.4095836561227596,-0.7564480835106132,-0.6104840465125844,-0.01176271908588999,0.013936505320425986,-0.8200261734277822
11436,6.0,299.23815,5927.2504,0.0,0.0,0.0,0.0,0.0,-0.11398043440057493,-0.4194693192658986,-0.7556108146879813,-0.6266559842036303,-0.03770345368004117,0.027354621757190976,-0.8506770598802892
11437,6.0,299.92602999999997,6242.9998,0.0,0.0,0.0,0.0,0.0,-0.11399040121015874,-0.46045854847622053,-0.8000873265024712,-0.6371701663837994,-0.03854831579892257,0.03448080261774026,-0.8393583571207202
11438,6.0,299.1099,5907.4058,0.0,0.0,0.0,0.0,0.0,-0.11400036801974256,-0.3999130654458466,-0.7919559235224642,-0.6038348764413625,-0.028443076292863075,0.004935296030575795,-0.8612338998896681
11439,6.0,300.57706,5517.7939,0.0,0.0,0.0,0.0,0.0,-0.11401033482932638,-0.3440201938271497,-0.7579300732393742,-0.5753212890872904,0.04124551866411576,0.0006239079283424184,-0.8743685292134552
11440,6.0,301.00075,5850.3787,0.0,0.0,0.0,0.0,0.0,-0.1140203016389102,-0.35045224466694364,-0.8176203326553442,-0.6102964736540724,0.04055860197082236,-0.02381575155068168,-0.9028763410419571
11441,6.0,300.9532,6190.7639,0.0,0.0,0.0,0.0,0.0,-0.11403026844849401,-0.43431920875646857,-0.7991050919880321,-0.6484133414809145,0.03319639260547887,-0.026537658466562974,-0.8766377230774072
11442,6.0,300.28382,6104.3065,0.0,0.0,0.0,0.0,0.0,-0.11404023525807783,-0.4421993358441766,-0.7869622318621252,-0.6263951634953895,-0.011729780351639189,-0.012006076428657489,-0.8604745094697221
11443,6.0,299.72031,5937.6205,0.0,0.0,0.0,0.0,0.0,-0.11405020206766164,-0.43005152092528065,-0.7520067854072913,-0.6228300734160424,-0.025040584483563274,0.034422973394782966,-0.8407945884749652
11444,6.0,299.29638,5961.2899,0.0,0.0,0.0,0.0,0.0,-0.11406016887724546,-0.4004283943142056,-0.7738359314541603,-0.6378189605553304,-0.022702124842775277,0.016512431267900085,-0.8305218029986202
11445,6.0,300.25441,6146.3251,0.0,0.0,0.0,0.0,0.0,-0.11407013568682933,-0.4323706477541606,-0.7885775146415412,-0.6473811942665494,-0.01162909976870279,0.003091482797105597,-0.8374341039883113
11446,6.0,299.54976,6257.314,0.0,0.0,0.0,0.0,0.0,-0.11408010249641315,-0.4348152352104226,-0.8055312761097472,-0.6617206894167473,0.0002731741318701877,-0.03383841218684126,-0.8485070935986302
11447,6.0,299.58011,6097.8801,0.0,0.0,0.0,0.0,0.0,-0.11409006930599697,-0.4483299853092245,-0.7804903197633972,-0.6247829913937804,0.02083847521209738,-0.02108725546940008,-0.8364095966797003
11448,6.0,299.84767999999997,5853.3293,0.0,0.0,0.0,0.0,0.0,-0.11410003611558073,-0.42169175163773565,-0.7552649215013443,-0.6023092865607984,0.003041958273292907,-0.016835748229058985,-0.8392839541658771
11449,6.0,299.80883,6006.3661,0.0,0.0,0.0,0.0,0.0,-0.11411000292516454,-0.4522781852513816,-0.7603568578913794,-0.6131502621632193,0.015005089008386985,0.008635473119879842,-0.8369566504086902
11450,6.0,300.24456000000004,6444.1534,0.0,0.0,0.0,0.0,0.0,-0.11411996973474842,-0.4901613570751595,-0.7906839096119262,-0.6780164665350153,-0.04977779783418615,0.018041225045280284,-0.8160667770720202
11451,6.0,299.29686,6382.5927,0.0,0.0,0.0,0.0,0.0,-0.11412993654433223,-0.47274706330400257,-0.7839028346426862,-0.6834989095135903,0.0013297897352150287,0.03140270485445567,-0.8138126299720532
11452,6.0,299.34394,6088.8929,0.0,0.0,0.0,0.0,0.0,-0.11413990335391605,-0.4223085980336136,-0.7691126661130102,-0.6594501580626634,-0.014509615788987589,0.0072803706746416424,-0.8263979561516283
11453,6.0,300.38132,6172.9345,0.0,0.0,0.0,0.0,0.0,-0.11414987016349987,-0.4388885512749276,-0.7933849608009993,-0.6441444377496064,0.014194754399913186,-0.013012389818472888,-0.8356219872444692
11454,6.0,300.81151,6220.5988,0.0,0.0,0.0,0.0,0.0,-0.11415983697308368,-0.46582504524585255,-0.7807312301071733,-0.6443504416274374,-0.00957655255633215,-0.035389274551399466,-0.8562730983275753
11455,6.0,300.06543,5980.2474,0.0,0.0,0.0,0.0,0.0,-0.1141698037826675,-0.43058329484276264,-0.7737129836870262,-0.6135496144251323,-0.01024747854184739,-0.004371524586860885,-0.8504238081502952
11456,6.0,300.2679,5770.0616,0.0,0.0,0.0,0.0,0.0,-0.11417977059225132,-0.36492276318757266,-0.7905182938830813,-0.5985136010236934,0.004983727865480646,0.002438090395295788,-0.8860363574274802
11457,6.0,299.13756,5679.5576,0.0,0.0,0.0,0.0,0.0,-0.11418973740183519,-0.33420684634364767,-0.7845044822870643,-0.6077323733485154,0.018807804474685785,0.002430609468482478,-0.8708131866000702
11458,6.0,299.17615,5775.9409,0.0,0.0,0.0,0.0,0.0,-0.11419970421141895,-0.35082863668159064,-0.7975584974328952,-0.6073546843737404,0.014553484452067085,0.012614901936743887,-0.8921517777435252
11459,6.0,299.04021,6133.0099,0.0,0.0,0.0,0.0,0.0,-0.11420967102100277,-0.4101790520140206,-0.8105359007386652,-0.6435669155901094,-0.006208483386054604,-0.01206630502785159,-0.8549717913566461
11460,6.0,299.64891,6082.838000000001,0.0,0.0,0.0,0.0,0.0,-0.11421963783058664,-0.4503939149679186,-0.7597402546755253,-0.6388966736266923,0.002940571556361817,-0.02115915265674578,-0.8591698689059641
11461,6.0,300.21355,5869.6412,0.0,0.0,0.0,0.0,0.0,-0.1142296046401704,-0.41147958891487363,-0.7700164345397053,-0.6027283161396534,-0.023681681337199976,-0.006677539351496823,-0.8419734543038102
11462,6.0,300.58915,5909.7792,0.0,0.0,0.0,0.0,0.0,-0.11423957144975427,-0.43013771811128765,-0.7500559749897613,-0.6162316165123254,0.02604206365715158,0.008822012564614852,-0.8322478036164632
11463,6.0,300.41817000000003,6374.9574,0.0,0.0,0.0,0.0,0.0,-0.11424953825933809,-0.46560938509456856,-0.7952990206374023,-0.6769194510492483,0.01328053328518659,0.035905293443076566,-0.8146778138349402
11464,6.0,299.66786,6300.0875,0.0,0.0,0.0,0.0,0.0,-0.11425950506892191,-0.47118508761234756,-0.7714097446197142,-0.6724744647155624,0.004095049164574886,-0.007085121636022063,-0.8107368383659962
11465,6.0,299.96474,6072.5927,0.0,0.0,0.0,0.0,0.0,-0.11426947187850572,-0.43001859029703055,-0.7803200836140963,-0.6355778742491524,0.016092095609666186,-0.03259022181265447,-0.8429743427525901
11466,6.0,299.32869,5920.015,0.0,0.0,0.0,0.0,0.0,-0.11427943868808954,-0.4434776217728336,-0.7477624428584073,-0.6082966624617064,0.0008515027472542784,-0.037140295353961766,-0.8358398056184662
11467,6.0,300.32105,6003.5311,0.0,0.0,0.0,0.0,0.0,-0.11428940549767341,-0.44437033564093753,-0.7565963523977463,-0.6239568683222484,0.005716129051788015,-0.015283532162367185,-0.8453291765149942
11468,6.0,299.37526,6184.9221,0.0,0.0,0.0,0.0,0.0,-0.11429937230725717,-0.4510777270629056,-0.7936037316300902,-0.6353804323346663,-0.02171772805262288,-0.012400344201568688,-0.8423871035246342
11469,6.0,299.33574,6183.857,0.0,0.0,0.0,0.0,0.0,-0.11430933911684099,-0.42932062309814656,-0.7937560433851223,-0.6566614506074394,-0.03372055904121007,0.031316497535947674,-0.8528665717563773
11470,6.0,299.6935,5927.9259,0.0,0.0,0.0,0.0,0.0,-0.11431930592642481,-0.3968976331482466,-0.7944857962396432,-0.6105580137698845,-0.012831073779328387,0.04175054581870806,-0.8371951086872242
11471,6.0,300.46103,5737.8883,0.0,0.0,0.0,0.0,0.0,-0.11432927273600862,-0.37105884367315667,-0.7735171224426962,-0.5995988020132944,0.012024134571939689,0.01127009816552209,-0.8494367100353762
11472,6.0,299.55597,6066.8335,0.0,0.0,0.0,0.0,0.0,-0.1143392395455925,-0.42841694586396056,-0.7847530831990992,-0.6309958559719424,0.016127505660910885,-0.01812240664329228,-0.8435436981162812
11473,6.0,300.92289,6273.0008,0.0,0.0,0.0,0.0,0.0,-0.11434920635517631,-0.4600931907551626,-0.8129141203133773,-0.6338282953014823,0.0038162476240343165,-0.039939621670233766,-0.8760279795647301
11474,6.0,300.20692,5924.8354,0.0,0.0,0.0,0.0,0.0,-0.11435917316476008,-0.38418228671583965,-0.7990487552824722,-0.6177709764617484,-0.003494156695496417,-0.018809853266387982,-0.8867174742772012
11475,6.0,300.04253,5659.1854,0.0,0.0,0.0,0.0,0.0,-0.11436913997434395,-0.34778474218868166,-0.7747729243516343,-0.5976933750677434,-0.0038663694587809565,0.0015209170750778284,-0.8966418638391622
11476,6.0,300.90612999999996,5987.9991,0.0,0.0,0.0,0.0,0.0,-0.11437910678392771,-0.4239310444912366,-0.7686469662345493,-0.6276242054691864,-0.0049949600468141755,0.017744469422242785,-0.8730873757870152
11477,6.0,299.89198999999996,6135.5632,0.0,0.0,0.0,0.0,0.0,-0.11438907359351158,-0.4288387416155886,-0.7943783309340372,-0.6418409251047674,-0.0027457825332876376,0.03431642609376757,-0.8768085165142632
11478,6.0,299.48,5971.1366,0.0,0.0,0.0,0.0,0.0,-0.1143990404030954,-0.42174228242022255,-0.7818681271168763,-0.6114659973169954,-0.0011610180362835588,0.013070656765473386,-0.8296227056548862
11479,6.0,299.61466,5844.7359,0.0,0.0,0.0,0.0,0.0,-0.11440900721267921,-0.4097112141778486,-0.7646216174297783,-0.6023209490694494,0.012005199967320988,0.001106220052325419,-0.8294384967867062
11480,6.0,299.37944,6019.6661,0.0,0.0,0.0,0.0,0.0,-0.11441897402226303,-0.4446381680398706,-0.7521519638816192,-0.6330380412834904,-0.0007585123576743412,-0.04341014613099786,-0.7954913659038853
11481,6.0,299.18231000000003,6378.0898,0.0,0.0,0.0,0.0,0.0,-0.11442894083184685,-0.4909611559090935,-0.8007025516981893,-0.6471163408229105,0.015315170896739684,-0.008301188233013491,-0.8296255934176713
11482,6.0,299.8579,6664.2287,0.0,0.0,0.0,0.0,0.0,-0.11443890764143066,-0.5291835638663515,-0.8085781495579503,-0.6879974157175583,-0.014140121981021384,-0.0005160139875466155,-0.7885705536133543
11483,6.0,299.34467,6295.3637,0.0,0.0,0.0,0.0,0.0,-0.11444887445101448,-0.47100010867409153,-0.7795863385541812,-0.6630469223401364,-0.00938190143659658,0.023648790225703875,-0.8300552317250732
11484,6.0,300.28852,6025.5386,0.0,0.0,0.0,0.0,0.0,-0.1144588412605983,-0.4342024924774496,-0.7748908463982722,-0.6225199378254344,-0.024086292367131976,0.01029652389968779,-0.8402782666215083
11485,6.0,299.81351,6064.6264,0.0,0.0,0.0,0.0,0.0,-0.11446880807018217,-0.43354427507998855,-0.7677063864317213,-0.6422443202345794,0.017410270155009882,-0.007617692170732683,-0.8732114685267621
11486,6.0,300.22652999999997,6169.8947,0.0,0.0,0.0,0.0,0.0,-0.11447877487976593,-0.41878240662560556,-0.7968502457454962,-0.6598612538932354,0.00036334798001465366,-0.005136904733448026,-0.8596581439966532
11487,6.0,300.43735,5746.3285,0.0,0.0,0.0,0.0,0.0,-0.1144887416893498,-0.3589983911778827,-0.7706837002605592,-0.6170582968714124,-0.008995734192934842,-0.0024850495725052975,-0.8867975615651051
11488,6.0,299.58102,5503.6169,0.0,0.0,0.0,0.0,0.0,-0.11449870849893357,-0.35467951395164266,-0.7389163135228622,-0.5793662848115004,-0.004026981961282176,0.009390426517637942,-0.8768781774586382
11489,6.0,300.08783,5713.8587,0.0,0.0,0.0,0.0,0.0,-0.11450867530851738,-0.38357556268846066,-0.7739795900533383,-0.5793152068739594,-0.024266290167896373,0.027144448355198476,-0.8749071425691122
11490,6.0,300.69791000000004,6056.0178,0.0,0.0,0.0,0.0,0.0,-0.11451864211810125,-0.42197212807290657,-0.8102966622575543,-0.6086094021050714,0.00025068330311051577,0.026154480715996273,-0.8592544550243122
11491,6.0,300.52242,6264.7377,0.0,0.0,0.0,0.0,0.0,-0.11452860892768507,-0.4251170537332866,-0.8495659095556272,-0.6296408771432165,-0.030033535458079175,-0.01870912506069688,-0.8431890707137822
11492,6.0,300.51948,6291.6841,0.0,0.0,0.0,0.0,0.0,-0.11453857573726889,-0.4505950147152656,-0.8108928383513923,-0.6510270099813634,0.0039000510066800665,-0.037012063487556264,-0.8490620304133982
11493,6.0,299.34482,6150.0225,0.0,0.0,0.0,0.0,0.0,-0.1145485425468527,-0.4385749199714746,-0.7825168908909043,-0.6483614732082954,0.019975391816667683,-0.029026395256182176,-0.8446629240442403
11494,6.0,298.87953,5985.8456,0.0,0.0,0.0,0.0,0.0,-0.11455850935643647,-0.45305003864755755,-0.7412281956135273,-0.6252693615742815,0.047989874462981856,0.017408836406118382,-0.8431696568418662
11495,6.0,299.9566,6287.4902,0.0,0.0,0.0,0.0,0.0,-0.1145684761660204,-0.47886723576301654,-0.7679343677042213,-0.6644383984374644,-0.0013324424239768286,0.029544870266101673,-0.8403816687942132
11496,6.0,299.71904,6032.0669,0.0,0.0,0.0,0.0,0.0,-0.11457844297560416,-0.4610427884838806,-0.7353386996722793,-0.6372162388658464,-0.013152776633077986,0.017061776968616285,-0.8413297871777852
11497,6.0,299.2586,5637.5789,0.0,0.0,0.0,0.0,0.0,-0.11458840978518803,-0.38094039302088967,-0.7280202475125043,-0.6047225645889704,-0.024805987701160374,-0.00013959689495964087,-0.8537022700413542
11498,6.0,298.96307,5856.6735,0.0,0.0,0.0,0.0,0.0,-0.11459837659477179,-0.41627241387538855,-0.7419610186158513,-0.6220490501064614,0.006553282667883644,-0.02416898066804268,-0.8295689628695823
11499,6.0,300.00338,6304.6416,0.0,0.0,0.0,0.0,0.0,-0.1146083434043556,-0.44134925954028065,-0.8148447873189192,-0.6602595726400464,-0.006107133855402184,-0.025755204447840775,-0.8307592986895592
11500,6.0,300.75675,6196.2027,0.0,0.0,0.0,0.0,0.0,-0.11461831021393948,-0.4527707767874966,-0.7955974329243533,-0.6351227121717314,0.00010549379448892689,-0.022123618817431183,-0.8376950057565602
11501,6.0,301.22269,5944.6171,0.0,0.0,0.0,0.0,0.0,-0.11462827702352324,-0.4035799567627406,-0.7941921664931643,-0.6092430481876074,0.012258225742542688,0.005526747440522504,-0.8603549864879262
11502,6.0,300.28922,5953.8522,0.0,0.0,0.0,0.0,0.0,-0.11463824383310711,-0.4307683345760246,-0.7926486420858302,-0.5864054143162084,0.004509296912232955,0.035600082247954565,-0.8480530460963192
11503,6.0,301.58586,6170.3313,0.0,0.0,0.0,0.0,0.0,-0.11464821064269093,-0.4139648279651476,-0.8167102314155242,-0.6449515927792664,0.007356282662858573,0.02804374632245227,-0.8684217238465511
11504,6.0,300.0493,6095.0473,0.0,0.0,0.0,0.0,0.0,-0.11465817745227469,-0.42771074094176365,-0.7886940384030412,-0.6363374065241124,-0.00963927111632199,0.016484262915120087,-0.8790021016557531
11505,6.0,300.04798,5947.7664,0.0,0.0,0.0,0.0,0.0,-0.11466814426185856,-0.4017631993334406,-0.7679437504001473,-0.6382655201394024,-0.003188606973516007,-0.024768217790432773,-0.8796929254414322
11506,6.0,300.17071,5661.7762,0.0,0.0,0.0,0.0,0.0,-0.11467811107144238,-0.3823294879804826,-0.7478159627286893,-0.5908931496716134,0.000894336203104111,-0.02650182892977687,-0.894145975530337
11507,6.0,300.61025,5592.2134,0.0,0.0,0.0,0.0,0.0,-0.11468807788102625,-0.3373966387184557,-0.7687352912457662,-0.5937613263321805,-0.000883563561088434,-0.009986236118914771,-0.8918542165866582
11508,6.0,300.04037,5938.6411,0.0,0.0,0.0,0.0,0.0,-0.11469804469061001,-0.4070929049919416,-0.7853567573436773,-0.6127489644611144,0.006849135383757033,-0.009438893410996251,-0.8881881358698442
11509,6.0,299.56834,6076.7072,0.0,0.0,0.0,0.0,0.0,-0.11470801150019383,-0.39247444182421165,-0.8251200451255082,-0.6295727766039954,0.024591733941015177,-0.0031492323786050367,-0.8780172732210582
11510,6.0,299.28198,5901.8,0.0,0.0,0.0,0.0,0.0,-0.11471797830977765,-0.42299257224861664,-0.7675030777991563,-0.6035041921387264,0.018128557071399282,0.003367056426802596,-0.8245248924142712
11511,6.0,300.29983,6088.9783,0.0,0.0,0.0,0.0,0.0,-0.11472794511936146,-0.44038614505522855,-0.7942555655519213,-0.6162556406721964,0.052721928735499246,-0.009017968547829202,-0.8263392687058362
11512,6.0,300.43669,6431.6211,0.0,0.0,0.0,0.0,0.0,-0.11473791192894534,-0.4788292591492686,-0.8033506808345393,-0.6728722667048224,-0.01064471209780129,-0.019230803967432583,-0.7852224814404253
11513,6.0,300.73525,6388.5019999999995,0.0,0.0,0.0,0.0,0.0,-0.11474787873852915,-0.4764242087119085,-0.7860600339730853,-0.6794608444200644,0.00020325322804953181,-0.017069272992856085,-0.8380630181928802
11514,6.0,300.09626000000003,6369.8875,0.0,0.0,0.0,0.0,0.0,-0.11475784554811291,-0.4812480289929826,-0.7852066950038673,-0.6698319996472714,-0.024554177826058676,-0.004677932936976035,-0.8043181826925242
11515,6.0,300.28163,6143.4598,0.0,0.0,0.0,0.0,0.0,-0.11476781235769679,-0.4414178261745476,-0.7784305950926182,-0.6476099557416264,-0.021092370355904878,0.04121385358524066,-0.8873943861390071
11516,6.0,300.70606000000004,6019.255999999999,0.0,0.0,0.0,0.0,0.0,-0.11477777916728055,-0.4371281710811916,-0.7590933958116852,-0.6334819664173024,0.002436180114882258,0.012384711779025887,-0.8587051316150981
11517,6.0,301.20386,6017.4793,0.0,0.0,0.0,0.0,0.0,-0.11478774597686442,-0.42383319492907956,-0.7693416099731053,-0.6359886661046944,0.02390545964828518,-0.014904633366972788,-0.9057507086606351
11518,6.0,300.05027,5944.6885,0.0,0.0,0.0,0.0,0.0,-0.11479771278644824,-0.40870219946326664,-0.7765752936295143,-0.6217593821678734,0.0015833535462398283,-0.018387251980930483,-0.8611055514995011
11519,6.0,300.0942,5833.4925,0.0,0.0,0.0,0.0,0.0,-0.11480767959603205,-0.38351865856284467,-0.7767244744417372,-0.6129929145551904,0.015296268716124186,-0.03276705928635697,-0.8635221833855041
11520,6.0,300.21233,6048.8885,0.0,0.0,0.0,0.0,0.0,-0.11481764640561587,-0.4127458171673406,-0.8110189981213433,-0.6149462580979704,0.017626938490143382,0.008057437546557173,-0.8448841368060722
11521,6.0,299.85981,6344.6095,0.0,0.0,0.0,0.0,0.0,-0.11482761321519969,-0.42254408748935457,-0.8524285234731451,-0.6536302622707844,-0.01043254765936229,-0.0015981213624722984,-0.8466702636848492
11522,6.0,300.32268,6298.2854,0.0,0.0,0.0,0.0,0.0,-0.1148375800247835,-0.4656871216422406,-0.8104622171913932,-0.6383721545799264,0.004486765675059295,0.002789998133201377,-0.8281025062648542
11523,6.0,299.76686,6138.7683,0.0,0.0,0.0,0.0,0.0,-0.11484754683436732,-0.4248081137777966,-0.7996880451680652,-0.6415361293421864,-0.023983292454716677,0.02095750271459448,-0.8412482813397413
11524,6.0,299.35604,6179.6413,0.0,0.0,0.0,0.0,0.0,-0.11485751364395114,-0.42287773048228255,-0.8029313979431593,-0.6526475109987944,0.012895544856691189,0.005806209721453285,-0.8692157876849191
11525,6.0,300.06057000000004,6071.6133,0.0,0.0,0.0,0.0,0.0,-0.11486748045353501,-0.4380948218090926,-0.7640601350193642,-0.6434638984524425,0.0025487393327159875,-0.02820417015778487,-0.887488314423277
11526,6.0,300.77629,5931.5851,0.0,0.0,0.0,0.0,0.0,-0.11487744726311877,-0.42293513110044756,-0.7726654249386402,-0.6074532128134644,-0.00951789834514343,0.007357256700179702,-0.9001289032633062
11527,6.0,301.57696,5899.1775,0.0,0.0,0.0,0.0,0.0,-0.11488741407270264,-0.4132119831408476,-0.7501125346103432,-0.6298781499191335,-0.026702545668586077,0.02269415056448828,-0.899734799636911
11528,6.0,301.67719,5820.8324,0.0,0.0,0.0,0.0,0.0,-0.1148973808822864,-0.41856383844653466,-0.7418669383440663,-0.6089569164918683,-0.016931661470274882,0.03530736949281607,-0.8808600578341191
11529,6.0,300.94051,5908.4724,0.0,0.0,0.0,0.0,0.0,-0.11490734769187022,-0.37984585999786763,-0.7866493300987443,-0.6295328950800594,-0.02258071113629268,0.015533846480321285,-0.8607147814659352
11530,6.0,300.26132,6214.5047,0.0,0.0,0.0,0.0,0.0,-0.1149173145014541,-0.4482954334808146,-0.7934291182403572,-0.6473297008964675,0.00923690281416133,-0.022073525758987377,-0.8166474301743263
11531,6.0,299.67361,6436.1604,0.0,0.0,0.0,0.0,0.0,-0.11492728131103791,-0.4643057476484095,-0.8280969840518092,-0.6640293189745914,-0.01094885127431749,-0.019249674737294983,-0.7984340468443052
11532,6.0,298.41252000000003,6338.4614,0.0,0.0,0.0,0.0,0.0,-0.11493724812062173,-0.46714974816159055,-0.8104458835997812,-0.6491383725899693,0.036490259951058264,-0.015129865691951487,-0.8190869209825853
11533,6.0,300.07048,6337.8031,0.0,0.0,0.0,0.0,0.0,-0.11494721493020554,-0.4572519868122576,-0.8058923477828822,-0.6633895629939524,0.01080532845065289,-0.016809806999998785,-0.8203435233591022
11534,6.0,300.13704,6147.1147,0.0,0.0,0.0,0.0,0.0,-0.1149571817397893,-0.46986711267727355,-0.7803327391078453,-0.6183695336933214,0.012563316360902788,0.02025669233592988,-0.8554056143869612
11535,6.0,301.34539,5956.3414,0.0,0.0,0.0,0.0,0.0,-0.11496714854937323,-0.3967125123549766,-0.7579593966972682,-0.6559071669679973,-0.01213707041483559,0.034157330629316064,-0.8505319523334682
11536,6.0,300.4618,5772.8943,0.0,0.0,0.0,0.0,0.0,-0.114977115358957,-0.4114587463603166,-0.7435002468427613,-0.5998567146937485,-0.022880711186150378,0.03709656347964577,-0.9094116724644441
11537,6.0,300.03706,5808.4833,0.0,0.0,0.0,0.0,0.0,-0.11498708216854081,-0.38444820407208363,-0.7470260025532263,-0.6341596888791884,-0.017106552490535283,0.004772842959267925,-0.8811724428399492
11538,6.0,299.70481,5818.0392,0.0,0.0,0.0,0.0,0.0,-0.11499704897812463,-0.3995046749930416,-0.7636589589072713,-0.6053750064608614,-0.028392391496360875,-0.014369360696895485,-0.8879070602921041
11539,6.0,300.25165,6114.1561,0.0,0.0,0.0,0.0,0.0,-0.11500701578770844,-0.43352371623545954,-0.8029012942826882,-0.6221257632715324,-0.011831264441904887,0.019795679752431482,-0.8732038387535093
11540,6.0,298.86933,6219.1059,0.0,0.0,0.0,0.0,0.0,-0.11501698259729232,-0.45088339582622655,-0.7969164515070302,-0.6426530450599174,-0.012526854556054288,0.0007142263267461503,-0.8463680922400272
11541,6.0,298.86088,6111.0849,0.0,0.0,0.0,0.0,0.0,-0.11502694940687608,-0.4042339793047876,-0.8246027809494582,-0.6287804656883004,0.013045197843460789,0.01110674198440009,-0.8375428966515481
11542,6.0,299.02648999999997,6112.3902,0.0,0.0,0.0,0.0,0.0,-0.11503691621645995,-0.4016142110387366,-0.8159896890044123,-0.6404100943735553,-0.0015403959976502484,-0.008532912451382891,-0.8240856484959213
11543,6.0,300.92337000000003,6326.2009,0.0,0.0,0.0,0.0,0.0,-0.11504688302604377,-0.44618868387289456,-0.8206024391571553,-0.6562159752009744,0.036754539895140666,-0.007382377905933973,-0.8127771694298612
11544,6.0,301.05426,6125.5711,0.0,0.0,0.0,0.0,0.0,-0.11505684983562753,-0.4437851837081876,-0.7876636643763513,-0.6305718006725914,0.0019209154865795983,-0.011517506482189388,-0.8532696223811551
11545,6.0,300.1573,5762.328,0.0,0.0,0.0,0.0,0.0,-0.1150668166452114,-0.4183982531151926,-0.7307279760197363,-0.6024775975349094,0.029237009421968174,-0.018323571238645683,-0.8628087945200981
11546,6.0,300.78649,5938.5345,0.0,0.0,0.0,0.0,0.0,-0.11507678345479522,-0.42950548044639064,-0.7667720583820103,-0.6088886639651324,-0.002326146220272758,-0.00996768036850846,-0.9086940076836161
11547,6.0,300.70252,6215.2428,0.0,0.0,0.0,0.0,0.0,-0.11508675026437903,-0.44362110811949457,-0.7937270745647632,-0.6519304339030244,0.01884773058162618,0.027420900472732174,-0.8745393327828123
11548,6.0,300.38448999999997,6115.8016,0.0,0.0,0.0,0.0,0.0,-0.11509671707396285,-0.44803366031747954,-0.7663395019143203,-0.6446778328672484,0.004788641453502116,0.007051474437301343,-0.9059610796463973
11549,6.0,298.85371000000004,6039.4531,0.0,0.0,0.0,0.0,0.0,-0.11510668388354667,-0.4183154300520186,-0.7856886271489303,-0.6318388901876434,-0.002333944800992418,-0.003280031922088947,-0.8539751686907872
11550,6.0,298.53691000000003,6023.7353,0.0,0.0,0.0,0.0,0.0,-0.11511665069313048,-0.4359731774247026,-0.7759190925997522,-0.6191728383726014,-0.023410322827918977,0.005836491916591905,-0.8347955095354023
11551,6.0,299.30341,6123.2742,0.0,0.0,0.0,0.0,0.0,-0.1151266175027143,-0.46685512543001356,-0.7805349129002983,-0.6139324203129124,-0.019731716313368782,0.008435296544698951,-0.8172212539709582
11552,6.0,300.45813,6291.7464,0.0,0.0,0.0,0.0,0.0,-0.11513658431229817,-0.4600921167100565,-0.8085324114484362,-0.6439092624013963,-0.019412098728324983,-0.006296101756651864,-0.8432379296336042
11553,6.0,300.094,6216.6017,0.0,0.0,0.0,0.0,0.0,-0.11514655112188199,-0.4373306792461776,-0.8009009359352682,-0.6514600832066044,0.007092124714088213,-0.013611696855119886,-0.8422614503797333
11554,6.0,300.06555,5994.9607,0.0,0.0,0.0,0.0,0.0,-0.11515651793146575,-0.3977636985387206,-0.8106781306552022,-0.6138765294373965,0.02249943125302098,-0.005917981643959314,-0.8549116144332072
11555,6.0,299.94462999999996,5944.4453,0.0,0.0,0.0,0.0,0.0,-0.11516648474104957,-0.3996680514391656,-0.7870167548500062,-0.6202781422441864,0.02050023611671578,0.017131735808520683,-0.8672487753982903
11556,6.0,300.49048999999997,6166.1356,0.0,0.0,0.0,0.0,0.0,-0.11517645155063339,-0.44793325736507056,-0.7777681423097392,-0.6486498543192564,0.04257152867248276,-0.01043107034071649,-0.8629776729142652
11557,6.0,300.05046,6024.062,0.0,0.0,0.0,0.0,0.0,-0.11518641836021726,-0.42764434266271056,-0.7759385875316762,-0.6275815172424735,0.016216433555937382,-0.01225370563384659,-0.8803011896089631
11558,6.0,299.77124,5877.8286,0.0,0.0,0.0,0.0,0.0,-0.11519638516980107,-0.38625445409784664,-0.7592766927547753,-0.6411819882997354,0.023750086864701078,0.018020715850006183,-0.8791918226044771
11559,6.0,300.14384,6242.5064,0.0,0.0,0.0,0.0,0.0,-0.11520635197938489,-0.42778578224416963,-0.7938381571732263,-0.6759421510627963,-0.02182454183841458,0.0069539312819745834,-0.8450040752204091
11560,6.0,299.6171,6529.0069,0.0,0.0,0.0,0.0,0.0,-0.11521631878896871,-0.48286602728266653,-0.8231600445295711,-0.6786290167504693,-0.035926519006171366,0.008387106065967922,-0.8283622731929913
11561,6.0,298.51226,6387.3206,0.0,0.0,0.0,0.0,0.0,-0.11522628559855252,-0.45976577925034956,-0.8046338100986743,-0.6771863715230914,-0.04252375393026776,0.007801759994498763,-0.8030000253724322
11562,6.0,299.95717,6253.9406,0.0,0.0,0.0,0.0,0.0,-0.11523625240813634,-0.4754995369356505,-0.8157531052385631,-0.6097891291965014,0.013648142447966789,0.00998373288454272,-0.8168567879099882
11563,6.0,300.19014,6160.8329,0.0,0.0,0.0,0.0,0.0,-0.11524621921772016,-0.4491486001975155,-0.7850827745166373,-0.6385080010208334,0.007464080111847353,-4.768082912948145e-05,-0.7963541179665322
11564,6.0,300.34344,6096.8034,0.0,0.0,0.0,0.0,0.0,-0.11525618602730398,-0.4194540191893886,-0.8069202798768312,-0.6269016973528804,0.02900578169614777,-0.02076864201520538,-0.8779301945074641
11565,6.0,300.14288999999997,6128.3771,0.0,0.0,0.0,0.0,0.0,-0.11526615283688779,-0.4303350587007636,-0.7843452500338493,-0.6481933142216993,0.02281421968808818,-0.03151731762626707,-0.8460844430070332
11566,6.0,300.86285,6030.7169,0.0,0.0,0.0,0.0,0.0,-0.11527611964647161,-0.4234859135898056,-0.7612593090929443,-0.6484421380487564,0.02987014381320367,0.0012205673526106187,-0.8733973695226092
11567,6.0,300.2735,5710.8258,0.0,0.0,0.0,0.0,0.0,-0.11528608645605548,-0.37986413902967164,-0.7385620204928963,-0.6175222742247034,-0.0025270045101209275,0.012498133981969788,-0.8521615827343001
11568,6.0,300.22058,5811.847,0.0,0.0,0.0,0.0,0.0,-0.11529605326563924,-0.4208926519463706,-0.7337518081606653,-0.6120119060733724,-0.015164888681657985,0.012064783126201389,-0.8801373166702902
11569,6.0,299.528,6381.3503,0.0,0.0,0.0,0.0,0.0,-0.11530602007522306,-0.48177180836717554,-0.7831972376705493,-0.6748020927127814,-0.03206740806580677,0.011786671305003887,-0.8301942293737912
11570,6.0,299.05485,6464.5053,0.0,0.0,0.0,0.0,0.0,-0.11531598688480693,-0.4763279803499116,-0.8235514731757022,-0.6651687491095444,-0.004850075516340185,0.0016357196286329583,-0.8568454427790612
11571,6.0,298.36189,6201.2427,0.0,0.0,0.0,0.0,0.0,-0.11532595369439069,-0.44300181979087555,-0.7955228475844922,-0.6464982683944114,-0.007757084885664674,-0.006387493267971504,-0.8324831106871862
11572,6.0,300.15857,6055.5923,0.0,0.0,0.0,0.0,0.0,-0.11533592050397456,-0.4297043814410206,-0.8218075582960912,-0.5892368910581535,-0.01122063838839079,-0.012225918263104188,-0.8471563096253182
11573,6.0,299.6839,5971.8223,0.0,0.0,0.0,0.0,0.0,-0.11534588731355838,-0.4166659399492266,-0.7928677067574502,-0.6057512363554924,-0.02201224844593978,-0.008271673878800652,-0.8411361652161763
11574,6.0,300.55162,5940.6065,0.0,0.0,0.0,0.0,0.0,-0.11535585412314214,-0.4229381303207436,-0.7811977507182153,-0.6016601681492354,0.007409614777897043,0.025201308240925476,-0.8453857057380731
11575,6.0,300.40738,6041.995,0.0,0.0,0.0,0.0,0.0,-0.11536582093272602,-0.4122625576646466,-0.8090875103832202,-0.6152655332044804,0.00847755150566919,0.02050582419101728,-0.8787870595870302
11576,6.0,299.79645,5984.8251,0.0,0.0,0.0,0.0,0.0,-0.11537578774230983,-0.4070284926830846,-0.7730581100148952,-0.6391507866192714,-0.008248303366569162,-0.028541899588366174,-0.8874765100596123
11577,6.0,300.42127999999997,5937.0739,0.0,0.0,0.0,0.0,0.0,-0.11538575455189365,-0.38964350210481963,-0.7917853226031272,-0.6232934022892693,0.0016392643827827982,-0.02110548485194918,-0.9084879328782781
11578,6.0,301.07175,6107.0372,0.0,0.0,0.0,0.0,0.0,-0.11539572136147747,-0.42266554577884163,-0.7770637409727202,-0.6566575191970514,-0.008684514424719842,0.00849247434916696,-0.8639843672861182
11579,6.0,300.41458,6289.0203,0.0,0.0,0.0,0.0,0.0,-0.11540568817106128,-0.4830215003780105,-0.7754982898332222,-0.6531853542843754,0.01256863389742759,0.027395655346490674,-0.8429943848395681
11580,6.0,299.85922,6095.3497,0.0,0.0,0.0,0.0,0.0,-0.11541565498064515,-0.4536593768601946,-0.7781860877109872,-0.6209886433468074,-0.023679699420004377,0.029332026950095673,-0.8369646956144843
11581,6.0,299.54803,6089.1809,0.0,0.0,0.0,0.0,0.0,-0.11542562179022892,-0.4520055095169706,-0.7695688718380342,-0.6293845755304214,-0.01617294486164538,0.014311023835638086,-0.8190560168545352
11582,6.0,300.04163,6266.8677,0.0,0.0,0.0,0.0,0.0,-0.11543558859981279,-0.4568156711866966,-0.8078802735515752,-0.6402753321102553,-0.02774756419897137,-0.0026533267040629574,-0.8318596072381511
11583,6.0,299.70555,6331.7219,0.0,0.0,0.0,0.0,0.0,-0.11544555540939655,-0.44990810207497256,-0.8321711005838932,-0.6426061518452895,-0.012884894584890089,-0.002215418654644798,-0.8380383962154502
11584,6.0,299.54435,6292.1938,0.0,0.0,0.0,0.0,0.0,-0.11545552221898037,-0.42862691154968263,-0.8095752687163582,-0.6744676188547714,-0.01206256816148279,-0.012814097787152987,-0.8794584492357912
11585,6.0,299.73548999999997,5992.6705,0.0,0.0,0.0,0.0,0.0,-0.11546548902856424,-0.4380200844817166,-0.7677584573543602,-0.6158436430490354,-0.0028544292885102373,0.012166923802531888,-0.8586166343513643
11586,6.0,300.00217000000004,5836.4459,0.0,0.0,0.0,0.0,0.0,-0.11547545583814806,-0.4089345478436976,-0.7529540323957773,-0.6122452271738994,0.005170092929873445,0.04559216096959596,-0.8467652457492232
11587,6.0,300.35801000000004,5873.1142,0.0,0.0,0.0,0.0,0.0,-0.11548542264773187,-0.4074421925664136,-0.7562593555469873,-0.6215785271575244,0.005840391916226805,0.02103300504579598,-0.889480151337356
11588,6.0,300.56521000000004,6054.9951,0.0,0.0,0.0,0.0,0.0,-0.11549538945731569,-0.4210712068789926,-0.7844129554055312,-0.6350831650203285,-0.015528449910288686,0.0036024265216818164,-0.879838873985836
11589,6.0,299.80797,5963.3009,0.0,0.0,0.0,0.0,0.0,-0.11550535626689945,-0.3945635304828886,-0.7691091704001652,-0.6490218589609704,-0.001808994616308868,-0.008951795108973391,-0.9013530613716212
11590,6.0,301.16911,5893.4877,0.0,0.0,0.0,0.0,0.0,-0.11551532307648332,-0.3989791528286766,-0.7794556090262793,-0.6130383486896744,0.022344250986955878,0.0005893670430334985,-0.8617916636722153
11591,6.0,300.68843,6118.4926,0.0,0.0,0.0,0.0,0.0,-0.11552528988606714,-0.45941279331301255,-0.7886389986576092,-0.6118171695366534,0.0062895347814287544,-0.01082201769304999,-0.8712015653634001
11592,6.0,300.54400000000004,6464.3686,0.0,0.0,0.0,0.0,0.0,-0.11553525669565101,-0.5034363823328025,-0.8009664729517363,-0.6606037939640184,-0.0003538920869014297,-0.014086474441226788,-0.8267635671852113
11593,6.0,299.42458,6321.2325,0.0,0.0,0.0,0.0,0.0,-0.11554522350523477,-0.44092077633799254,-0.8425983864354861,-0.6379776659184934,1.4049112870289487e-06,-0.0038298119017980067,-0.8575896648450101
11594,6.0,300.92511,6104.6601,0.0,0.0,0.0,0.0,0.0,-0.11555519031481859,-0.4236887459948236,-0.7838795298903862,-0.6480959408870893,0.01164082205910969,0.007805060352724482,-0.8193060363167102
11595,6.0,300.35407999999995,6027.2755,0.0,0.0,0.0,0.0,0.0,-0.1155651571244024,-0.3690576341956527,-0.8058125239400042,-0.6572711029276074,-0.014508008774328986,-0.03324707942848127,-0.8623059894229752
11596,6.0,300.22204,5820.3666,0.0,0.0,0.0,0.0,0.0,-0.11557512393398622,-0.3899178800993986,-0.7587379375441042,-0.6205902840699925,0.0010688463223869188,-0.02862496380506397,-0.879129963685872
11597,6.0,298.57665,5994.4023,0.0,0.0,0.0,0.0,0.0,-0.1155850907435701,-0.44491545406223654,-0.7569607475312093,-0.6202724173811214,0.006604012047390244,-0.005844059780263795,-0.8475237242440793
11598,6.0,299.4219,6188.4769,0.0,0.0,0.0,0.0,0.0,-0.11559505755315391,-0.4648867452557495,-0.7832334410966223,-0.6330222751119344,0.038684333479096465,0.04099801510193907,-0.8486682611595362
11599,6.0,298.91681,6103.669,0.0,0.0,0.0,0.0,0.0,-0.11560502436273767,-0.4517596139827026,-0.7605423738521883,-0.6430609795501774,0.016027560697547086,0.015612301422314186,-0.8377152808910612
11600,6.0,300.0766,6311.6508,0.0,0.0,0.0,0.0,0.0,-0.11561499117232155,-0.4416027848478016,-0.8225926548710742,-0.6543887914281453,0.026412098540671176,0.0032798176196927966,-0.8804766946587842
11601,6.0,300.57793,6632.8872,0.0,0.0,0.0,0.0,0.0,-0.11562495798190531,-0.4630876589081936,-0.8483372424843671,-0.7048072044790553,0.01091132251711369,-0.005975068053268305,-0.8365292007215042
11602,6.0,301.367,6618.9652,0.0,0.0,0.0,0.0,0.0,-0.11563492479148924,-0.4854311813683275,-0.8388981895878052,-0.6876707844153224,0.03848717324813826,0.0029322678704673073,-0.8249668721078912
11603,6.0,300.32058,6147.119000000001,0.0,0.0,0.0,0.0,0.0,-0.115644891601073,-0.4627384625262305,-0.7863695413486312,-0.6194626988287084,-0.008048944484218973,-0.022139356617984378,-0.8420111066775261
11604,6.0,300.52533,5963.9209,0.0,0.0,0.0,0.0,0.0,-0.11565485841065681,-0.4258044020711226,-0.7755129819596723,-0.6115656605968315,-0.026767692583765573,-0.02551977984010618,-0.8503076694238333
11605,6.0,299.76872000000003,5814.3818,0.0,0.0,0.0,0.0,0.0,-0.11566482522024063,-0.38544385401784664,-0.7640879082046053,-0.6178951198640004,-0.028039968926079475,0.004117659131281316,-0.8669841752671761
11606,6.0,299.72099,5765.9502,0.0,0.0,0.0,0.0,0.0,-0.11567479202982445,-0.35832789318920966,-0.7834546741234563,-0.6109222974458365,2.206711695210488e-05,0.03279526918239107,-0.8815546813076732
11607,6.0,299.10429,6066.1922,0.0,0.0,0.0,0.0,0.0,-0.11568475883940832,-0.3858479280252256,-0.7984087257243062,-0.6597143123637335,0.003797198218179286,0.019766825429333782,-0.9025475211195052
11608,6.0,299.61285,6174.1066,0.0,0.0,0.0,0.0,0.0,-0.11569472564899208,-0.4320080967358796,-0.7947988499905393,-0.6499672922317774,0.01134287485395459,-0.014448310104937185,-0.8634603244668992
11609,6.0,299.24816,6242.1672,0.0,0.0,0.0,0.0,0.0,-0.1157046924585759,-0.45279662479754756,-0.8084133342966842,-0.6362530129232834,0.01828940647177388,0.004666613210833865,-0.8674118985318892
11610,6.0,300.37453,6436.1138,0.0,0.0,0.0,0.0,0.0,-0.11571465926815977,-0.48661441430510355,-0.7937728430717802,-0.6760306280615284,0.03654009159097626,0.007831454403254372,-0.8305379035427093
11611,6.0,300.07459,6451.5715,0.0,0.0,0.0,0.0,0.0,-0.11572462607774353,-0.4701601344736926,-0.8356856902782561,-0.6552707952426924,0.02072248847315038,-0.029699420290604572,-0.8391449058546542
11612,6.0,300.5086,6299.3271,0.0,0.0,0.0,0.0,0.0,-0.1157345928873274,-0.42372988394888356,-0.8103386817392012,-0.6807695785142264,-0.016448555981596086,-0.024406644558498274,-0.8431474970621793
11613,6.0,300.53809,6200.8161,0.0,0.0,0.0,0.0,0.0,-0.11574455969691122,-0.4225261732275866,-0.8098151455450323,-0.6525519513818633,0.0017922634253576281,-0.02350716623272668,-0.8666834122399932
11614,6.0,300.28101000000004,6011.3216,0.0,0.0,0.0,0.0,0.0,-0.11575452650649498,-0.41658992592672456,-0.7885640890777162,-0.6221376385627043,0.0026782076682185176,-0.004371528741186296,-0.8607418656411081
11615,6.0,301.25117,5945.1212,0.0,0.0,0.0,0.0,0.0,-0.11576449331607885,-0.42465115120480557,-0.7690737674416712,-0.6134434764771574,0.01268678899158859,-0.004951590713383956,-0.8497899695502402
11616,6.0,300.63286,5946.3333,0.0,0.0,0.0,0.0,0.0,-0.11577446012566267,-0.4146339276686826,-0.7773508251235532,-0.6155520803327604,-0.01113559630749779,-0.02840813334991447,-0.8740013273772153
11617,6.0,300.17642,6088.982,0.0,0.0,0.0,0.0,0.0,-0.11578442693524649,-0.42307754340200265,-0.7845438166559462,-0.6432771260615093,0.016295159035706983,0.020048755176908083,-0.8684751119943201
11618,6.0,298.91983999999997,6289.6687,0.0,0.0,0.0,0.0,0.0,-0.1157943937448303,-0.4098746514189786,-0.8158396063996003,-0.6861879942189824,-0.015742110919125384,0.03496901488692307,-0.8519127791722452
11619,6.0,299.43102999999996,6067.9943,0.0,0.0,0.0,0.0,0.0,-0.11580436055441412,-0.4100716576359216,-0.8038659083778882,-0.6305811631035154,0.028049473212017475,0.023786862777080576,-0.8773943067945762
11620,6.0,299.98419,6235.0328,0.0,0.0,0.0,0.0,0.0,-0.115814327363998,-0.4500863429000636,-0.7943801446517162,-0.6508277847467013,-0.02917114005946737,0.006444390503486824,-0.8385462776955743
11621,6.0,299.90935,6231.3889,0.0,0.0,0.0,0.0,0.0,-0.11582429417358175,-0.47689474179334657,-0.7821702884291972,-0.6351215874641204,0.00930927876217928,0.015356967463364684,-0.8511392741784063
11622,6.0,299.12595,6093.4468,0.0,0.0,0.0,0.0,0.0,-0.11583426098316563,-0.4431707184500446,-0.8088225758795733,-0.6002623693712834,-0.01841776499444188,0.018109039847973084,-0.8488135713563772
11623,6.0,298.69353,6126.5579,0.0,0.0,0.0,0.0,0.0,-0.11584422779274939,-0.43645913217266263,-0.7870851593642573,-0.6387763299123154,-0.02493048371444718,0.005465290883532215,-0.8833483974296991
11624,6.0,299.70183,6268.4156,0.0,0.0,0.0,0.0,0.0,-0.1158541946023332,-0.42490324782968564,-0.8187496910843033,-0.6617888912809784,-0.017520840058922287,-0.018192460728706082,-0.8777232787045433
11625,6.0,300.55728999999997,6098.8701,0.0,0.0,0.0,0.0,0.0,-0.11586416141191708,-0.4116293776771566,-0.7971813961431783,-0.6450934579257673,-0.022883269642652877,-0.01827067249067498,-0.9037121507844452
11626,6.0,300.40099,5875.3730000000005,0.0,0.0,0.0,0.0,0.0,-0.1158741282215009,-0.41191551950539657,-0.7595443832986942,-0.6145067811320973,-0.003404978122395177,0.011712263283910389,-0.8706352497500092
11627,6.0,299.68093999999996,5977.6557,0.0,0.0,0.0,0.0,0.0,-0.11588409503108471,-0.4246098713957316,-0.7798273502229672,-0.6126208592509714,-0.015308838083614685,-0.027302984505594773,-0.8780049318348402
11628,6.0,300.07186,6035.7061,0.0,0.0,0.0,0.0,0.0,-0.11589406184066853,-0.4629198646916336,-0.7384688926762053,-0.6333151651858404,0.007192287526223514,0.018251705462053083,-0.8483490367155312
11629,6.0,300.18187,6125.6601,0.0,0.0,0.0,0.0,0.0,-0.11590402865025229,-0.42355875613949456,-0.7995336866478312,-0.6389552800124764,-0.005744456079533675,0.001315117265816969,-0.8438858524100491
11630,6.0,299.70601,6295.8518,0.0,0.0,0.0,0.0,0.0,-0.11591399545983616,-0.43147903832866563,-0.8199523277604942,-0.6623503534263904,0.018725439400556983,0.03269685220017807,-0.8515949226158752
11631,6.0,299.50288,6378.9145,0.0,0.0,0.0,0.0,0.0,-0.11592396226941998,-0.45428800735473557,-0.7967493260355363,-0.6879933829821603,-0.024639980857776776,0.015873816206873684,-0.8278781422952112
11632,6.0,298.9979,6257.0983,0.0,0.0,0.0,0.0,0.0,-0.1159339290790038,-0.4498168893009706,-0.8057442004857612,-0.6464405435362144,-0.010819991192849989,0.02349522406704808,-0.8603791221053082
11633,6.0,299.705,6462.3262,0.0,0.0,0.0,0.0,0.0,-0.11594389588858761,-0.5142505270725755,-0.7961817945220252,-0.6539534687876823,-0.025446015232826177,0.00967231897760856,-0.8217064764661153
11634,6.0,299.58145,6311.3447,0.0,0.0,0.0,0.0,0.0,-0.11595386269817143,-0.46163223659705455,-0.8049170033691232,-0.6519419342916594,-0.003123370993652717,0.01136242652788419,-0.8722030313647371
11635,6.0,299.59825,5770.0485,0.0,0.0,0.0,0.0,0.0,-0.11596382950775525,-0.38652582273962866,-0.7761615532161813,-0.5912632798006424,-0.0046216236904937456,-0.02202779068922368,-0.874990674907356
11636,6.0,299.6707,5846.7176,0.0,0.0,0.0,0.0,0.0,-0.11597379631733906,-0.3749998900696076,-0.7734206407681743,-0.6288356067587424,-0.0060345472526884434,-0.018118474219654183,-0.9069836009848121
11637,6.0,299.46271,6105.3987,0.0,0.0,0.0,0.0,0.0,-0.11598376312692293,-0.43072079288133264,-0.7997509072042692,-0.6254170427763563,0.016141180484260484,-0.026675052140372673,-0.8685202624187761
11638,6.0,300.85742,6117.7551,0.0,0.0,0.0,0.0,0.0,-0.11599372993650675,-0.4313155808225336,-0.8030206247469652,-0.6253085844856524,0.01968635209314168,-0.0002706443300805157,-0.8852078430857121
11639,6.0,301.43197999999995,6015.6943,0.0,0.0,0.0,0.0,0.0,-0.11600369674609051,-0.42538710514993866,-0.7778204361474003,-0.6254133038834874,-0.0016169465360801986,-0.0004535415561385666,-0.8311064888363242
11640,6.0,300.94975,6007.5481,0.0,0.0,0.0,0.0,0.0,-0.11601366355567438,-0.4317320570111366,-0.7826817162846713,-0.6117308304956324,0.004468632956569736,0.001274894377922279,-0.8483871349192913
11641,6.0,299.74011,6408.7711,0.0,0.0,0.0,0.0,0.0,-0.11602363036525815,-0.46456249509124853,-0.8024024205959532,-0.6811414615659284,-0.015019136707773386,0.0017131970882543887,-0.8298317188855142
11642,6.0,300.27704,6598.9495,0.0,0.0,0.0,0.0,0.0,-0.11603359717484202,-0.48454408090577755,-0.8255143817994262,-0.6958574095257793,0.009936807347236532,0.020012773652606983,-0.8422682594204052
11643,6.0,299.65376000000003,6391.8038,0.0,0.0,0.0,0.0,0.0,-0.11604356398442583,-0.4554953455113906,-0.8266085905824162,-0.6608448258978064,0.0050992074727525954,-0.014234012775037686,-0.8653774037886002
11644,6.0,300.16388,6015.3205,0.0,0.0,0.0,0.0,0.0,-0.11605353079400965,-0.4262920590792506,-0.7726199705391543,-0.6295951896962073,-0.004755057785562665,-0.004467489503831887,-0.8705390619180162
11645,6.0,299.18495,5860.0054,0.0,0.0,0.0,0.0,0.0,-0.11606349760359347,-0.4050410634069406,-0.7799903618990552,-0.5962639020916654,0.023989966733125378,-0.021082382749669178,-0.8980322050963782
11646,6.0,299.60534,6202.1819,0.0,0.0,0.0,0.0,0.0,-0.11607346441317729,-0.44908814969654953,-0.7984101037444422,-0.6378101655444623,0.019526196769085583,-0.0011099460769181488,-0.8573192081283181
11647,6.0,300.25605,6307.1289,0.0,0.0,0.0,0.0,0.0,-0.11608343122276116,-0.44752372193965256,-0.8162879797013511,-0.6533980050828624,0.014363462568063385,-0.015771274283503587,-0.8742063990649542
11648,6.0,301.07499,6009.2204,0.0,0.0,0.0,0.0,0.0,-0.11609339803234492,-0.4102615812346656,-0.7978036634270913,-0.6185877067048534,-0.0023322376772239375,-0.016939266925525484,-0.8565469089020982
11649,6.0,299.90174,6057.9409,0.0,0.0,0.0,0.0,0.0,-0.11610336484192874,-0.43712264886814656,-0.7726345512080933,-0.6317055667394854,0.01743772416646938,0.0009567856033373871,-0.8377313510376473
11650,6.0,299.17013,6516.6966,0.0,0.0,0.0,0.0,0.0,-0.11611333165151255,-0.4763477184618595,-0.8305811389244763,-0.6739841870995604,-0.004606167674793355,0.041325448898254256,-0.8240805619804191
11651,6.0,299.24096000000003,6612.7805,0.0,0.0,0.0,0.0,0.0,-0.11612329846109637,-0.49400837386233054,-0.8233646197247613,-0.6927471674163224,0.027620518848432973,0.023681471594429276,-0.8258390372639672
11652,6.0,299.35621000000003,6380.4212,0.0,0.0,0.0,0.0,0.0,-0.11613326527068024,-0.4346556483196726,-0.8192866629747982,-0.6855464245206644,-0.012924796373828089,0.006351543559723545,-0.8439114167100721
11653,6.0,299.27505,6076.9884,0.0,0.0,0.0,0.0,0.0,-0.11614323208026406,-0.42962448667063563,-0.7881837656526813,-0.6294444890088344,0.016104720705912182,0.005570743874439615,-0.8706993783488383
11654,6.0,299.94226000000003,6060.2873,0.0,0.0,0.0,0.0,0.0,-0.11615319888984782,-0.4106609638940816,-0.7608486084299113,-0.6706664212371224,-0.02001027903086078,0.0062944483351386835,-0.8729845916968711
11655,6.0,300.25701000000004,6124.4444,0.0,0.0,0.0,0.0,0.0,-0.11616316569943169,-0.4526909428121176,-0.7839327964481433,-0.6250544208305684,-0.015218740897972786,0.01684010419123888,-0.8791408662569482
11656,6.0,301.25015,6187.5962,0.0,0.0,0.0,0.0,0.0,-0.11617313250901551,-0.4336762914355176,-0.7905675175729392,-0.6566309315144273,-0.029623480235359875,0.0011783532256194088,-0.883163337431435
11657,6.0,300.80172000000005,5963.2374,0.0,0.0,0.0,0.0,0.0,-0.11618309931859933,-0.4317220461001486,-0.7634714671087672,-0.6174817644857055,-0.02309611397190898,0.0013969448107677188,-0.8552118708353402
11658,6.0,300.10655,5972.5241,0.0,0.0,0.0,0.0,0.0,-0.11619306612818314,-0.41557247083880955,-0.7889000828108762,-0.6110256489560364,-0.003216627797081447,0.0009967358762926722,-0.8377287064548862
11659,6.0,299.47882000000004,6444.6719,0.0,0.0,0.0,0.0,0.0,-0.11620303293776696,-0.47113396914480254,-0.8149497397642773,-0.6729356151010744,-0.0023592116107860575,-0.02242337771376508,-0.8179215415125712
11660,6.0,299.60888,6573.5427,0.0,0.0,0.0,0.0,0.0,-0.11621299974735078,-0.4698768094807305,-0.8390865527813952,-0.6892294873091543,0.004933080964532185,-0.02191171478426788,-0.8222382503835972
11661,6.0,299.87887,6340.352,0.0,0.0,0.0,0.0,0.0,-0.11622296655693459,-0.46641486826156353,-0.8188211657463572,-0.6420726554026374,0.01963517789684118,-0.011661671706417388,-0.8541921055371973
11662,6.0,300.00563,6125.8931,0.0,0.0,0.0,0.0,0.0,-0.11623293336651841,-0.43660319607188064,-0.7776031953259602,-0.6479121474514503,0.028922452007923767,0.02744590444544987,-0.8445531789259092
11663,6.0,299.53213,6022.4432,0.0,0.0,0.0,0.0,0.0,-0.11624290017610223,-0.41537602190942163,-0.7933751018775262,-0.6219212083413445,-0.003688315375683387,0.011854865063234089,-0.8732110834917243
11664,6.0,300.75676,6250.4549,0.0,0.0,0.0,0.0,0.0,-0.11625286698568604,-0.44430450478194056,-0.7903006680266033,-0.6653770530651023,0.012615943557846688,0.01138585185694609,-0.8781835779599712
11665,6.0,299.67494,6244.7094,0.0,0.0,0.0,0.0,0.0,-0.11626283379526992,-0.4395620484838966,-0.7835700529123433,-0.6751036359425414,-0.01947678360145888,-0.006455645482947603,-0.8843940715328993
11666,6.0,299.70387,5874.5079,0.0,0.0,0.0,0.0,0.0,-0.11627280060485373,-0.4287935709261306,-0.7693911883004982,-0.5875189457786054,-0.01055012317446609,-0.0008892867117607652,-0.8804022613064381
11667,6.0,300.22735,5883.8379,0.0,0.0,0.0,0.0,0.0,-0.11628276741443755,-0.4065560749564606,-0.7398433968343583,-0.6421403405093175,-0.04121639785624176,-0.02674090022462137,-0.8651104529172542
11668,6.0,300.36087000000003,6211.566,0.0,0.0,0.0,0.0,0.0,-0.11629273422402131,-0.4458518288771496,-0.7992415463789992,-0.6430675859408295,-0.006894997312433254,-0.016088426631054087,-0.8586160973288112
11669,6.0,300.08361,6523.6948,0.0,0.0,0.0,0.0,0.0,-0.11630270103360513,-0.4572460694316736,-0.8487797288030372,-0.6770145141736303,-0.008846330972314891,0.005529051064624854,-0.8399187654860282
11670,6.0,300.68039,6480.5947,0.0,0.0,0.0,0.0,0.0,-0.116312667843189,-0.45119826329480156,-0.8227878271053363,-0.6959528880827024,0.035045221426944065,0.015411735657769885,-0.8289520658111992
11671,6.0,300.21346,6281.6213,0.0,0.0,0.0,0.0,0.0,-0.11632263465277282,-0.4329107303224626,-0.8424335711742201,-0.6341117317519553,0.011752296795361388,0.005211074944743055,-0.8347555064214542
11672,6.0,299.71907999999996,6326.0896,0.0,0.0,0.0,0.0,0.0,-0.11633260146235663,-0.4683464370596946,-0.8101233255629472,-0.6445035133200444,0.004496260132471326,-0.003145291038366057,-0.8627938794786262
11673,6.0,299.04554,6412.2523,0.0,0.0,0.0,0.0,0.0,-0.11634256827194045,-0.4739418776894216,-0.8209276113792472,-0.6542950860588974,-0.0037407325258815567,-0.004314147172123176,-0.8667027653169032
11674,6.0,299.6039,6108.0589,0.0,0.0,0.0,0.0,0.0,-0.11635253508152427,-0.43337680510346055,-0.8002669757452012,-0.6230535963881024,-0.0035590033846712864,0.006349309241928034,-0.8938657510826812
11675,6.0,299.83044,5851.4945,0.0,0.0,0.0,0.0,0.0,-0.11636250189110808,-0.41826584159212454,-0.7318921598546323,-0.6285502350005784,-0.03364274042027997,-0.02980530188630427,-0.8733608317240033
11676,6.0,299.38876,5704.6356,0.0,0.0,0.0,0.0,0.0,-0.1163724687006919,-0.38162382008083867,-0.7434429272846043,-0.6090000302836234,-0.011139106205844188,-0.017352683098826486,-0.9024726723346181
11677,6.0,299.22834,5998.0192,0.0,0.0,0.0,0.0,0.0,-0.11638243551027577,-0.4246283733425576,-0.7707789559024603,-0.6278407370155564,-0.018617123978117083,0.009377097617872482,-0.8808511513657401
11678,6.0,299.78094,6389.4786,0.0,0.0,0.0,0.0,0.0,-0.11639240231985953,-0.4806330267122865,-0.7926172718627342,-0.6689916505443354,0.019269954938046483,0.01840779157370758,-0.8549868178556292
11679,6.0,300.27474,6488.6682,0.0,0.0,0.0,0.0,0.0,-0.11640236912944335,-0.4889339869640275,-0.8422634464824301,-0.6411956874410873,-0.011645999767120689,-0.01192083777724509,-0.8597522141359373
11680,6.0,300.31189,6305.1787,0.0,0.0,0.0,0.0,0.0,-0.11641233593902722,-0.46757223292328653,-0.8136098786270431,-0.6354347729375295,-0.013450864679996986,-0.023259763995559977,-0.8361520994317871
11681,6.0,299.87507,6275.6505,0.0,0.0,0.0,0.0,0.0,-0.11642230274861098,-0.43051786928380564,-0.8295407438542972,-0.6475824257364093,0.01043433807228899,0.00017539284250492584,-0.8416646866008373
11682,6.0,300.28005,6463.6314,0.0,0.0,0.0,0.0,0.0,-0.11643226955819486,-0.4320266088152066,-0.8456991445240072,-0.6870567953847264,0.03118342233406417,0.03919874130311456,-0.8427946225823532
11683,6.0,299.64654,6288.4736,0.0,0.0,0.0,0.0,0.0,-0.11644223636777867,-0.4561890367948526,-0.7850764822335162,-0.6702734423183383,0.01693687464203938,-0.0018315535152102584,-0.8537094843820663
11684,6.0,299.84435,5862.2726,0.0,0.0,0.0,0.0,0.0,-0.11645220317736249,-0.40682761585075955,-0.7704798140754373,-0.6046770595269795,-0.01948512568953218,-0.015924413863867285,-0.8876577399724982
11685,6.0,300.10278999999997,5838.4364,0.0,0.0,0.0,0.0,0.0,-0.1164621699869463,-0.4182855391740686,-0.7494343561859123,-0.6070189844831094,-0.02205117143528118,-0.003398381256294117,-0.8897990211438261
11686,6.0,299.48935,6207.2803,0.0,0.0,0.0,0.0,0.0,-0.11647213679653012,-0.44911001563370756,-0.7793868600069942,-0.6583613397702054,-0.02021276186459428,-0.007080438495384873,-0.8755041495280321
11687,6.0,299.18329,6646.0925,0.0,0.0,0.0,0.0,0.0,-0.116482103606114,-0.4820993617270026,-0.854099038515512,-0.6840477566952574,-0.02513645719477518,-0.004310668583204866,-0.8699911570589421
11688,6.0,299.38222,6592.7394,0.0,0.0,0.0,0.0,0.0,-0.11649207041569776,-0.45733218555767263,-0.8341604246377241,-0.7125355365692823,-0.03918474527948326,-0.02184427285761188,-0.8288374266948851
11689,6.0,299.20504,6068.3356,0.0,0.0,0.0,0.0,0.0,-0.11650203722528157,-0.43131660420513457,-0.7978719260863282,-0.6154339657686033,0.007203008117581554,0.025328858190013678,-0.8399428403084043
11690,6.0,301.27079,6188.5735,0.0,0.0,0.0,0.0,0.0,-0.11651200403486539,-0.4303863595533266,-0.8304683945858491,-0.6203170409155254,-0.004753772072510776,0.027848474789680475,-0.8554386666052232
11691,6.0,300.77606000000003,6511.3031,0.0,0.0,0.0,0.0,0.0,-0.11652197084444921,-0.5216797882632865,-0.8141741981377372,-0.6434195687605674,0.02421549391388318,-0.022833215087712876,-0.8348361307319111
11692,6.0,299.99842,6288.471,0.0,0.0,0.0,0.0,0.0,-0.11653193765403308,-0.4287700128613056,-0.8340249429668533,-0.6487432050509694,0.0006332027349547444,-0.04867246457834825,-0.8743255370117121
11693,6.0,300.43119,5853.1049,0.0,0.0,0.0,0.0,0.0,-0.1165419044636169,-0.38616057647608165,-0.7655874879551022,-0.6274496731394614,0.025198445809392976,0.013044483502140288,-0.8594902484550833
11694,6.0,301.28979,5672.0877,0.0,0.0,0.0,0.0,0.0,-0.11655187127320066,-0.3564207031884847,-0.7403202525964203,-0.6274320628527233,0.03330807404475097,0.03745593897211336,-0.8777355592957552
11695,6.0,301.6118,5994.7032,0.0,0.0,0.0,0.0,0.0,-0.11656183808278453,-0.4356773185280036,-0.7752964301483003,-0.6112663465172914,-0.023852676410825877,-0.005379870759026905,-0.8935919303756572
11696,6.0,301.28697999999997,6340.545,0.0,0.0,0.0,0.0,0.0,-0.11657180489236829,-0.4754443756002065,-0.7917788681999902,-0.6601441127911514,-0.010714469300935791,-0.034308067793692665,-0.8962607500790493
11697,6.0,299.87113,6264.9942,0.0,0.0,0.0,0.0,0.0,-0.11658177170195216,-0.47436691584136953,-0.8071038199999452,-0.6229310539210084,-0.008765259818563792,-0.015372556316153184,-0.9158355565084322
11698,6.0,299.37385,6110.7031,0.0,0.0,0.0,0.0,0.0,-0.11659173851153598,-0.4165029181406376,-0.8166750209745492,-0.6243232190284045,0.025409358883958476,0.016545078186122084,-0.8739344022081103
11699,6.0,299.59387000000004,6208.7266,0.0,0.0,0.0,0.0,0.0,-0.1166017053211198,-0.4158705487532276,-0.8128338303754532,-0.6585934956331174,-0.015190778234963086,-0.046846331545872956,-0.8541911226846002
11700,6.0,299.54067000000003,6602.2249,0.0,0.0,0.0,0.0,0.0,-0.11661167213070361,-0.4584786881783236,-0.8705006597392261,-0.6779321641266953,-0.0036037017982576765,-0.013922065493250884,-0.8169371487754191
11701,6.0,299.99147999999997,6605.8013,0.0,0.0,0.0,0.0,0.0,-0.11662163894028743,-0.4938062304673805,-0.8278866839935541,-0.6863057338806023,-0.019053034303638083,0.03856252561832496,-0.8114511999514983
11702,6.0,300.16593,6041.733,0.0,0.0,0.0,0.0,0.0,-0.11663160574987125,-0.4392603127366176,-0.7874105241038682,-0.6098651330865025,0.02187767566040848,0.05860233987635065,-0.8290272692336211
11703,6.0,300.3278,6026.3159,0.0,0.0,0.0,0.0,0.0,-0.11664157255945506,-0.4166919399467926,-0.7977294124597631,-0.6174282040854193,-0.04484238021359836,-0.00023281093923415078,-0.8684937861936632
11704,6.0,301.04477,6341.2952,0.0,0.0,0.0,0.0,0.0,-0.11665153936903888,-0.44818212172213157,-0.7890830656464353,-0.6903302011577863,-0.01899874841628048,-0.03854285843388396,-0.8760638688832723
11705,6.0,300.49506,6353.9706,0.0,0.0,0.0,0.0,0.0,-0.11666150617862275,-0.4298878506366276,-0.8252247746558442,-0.6763357784616444,-0.00025287914779972874,-0.0024569237762294975,-0.8833202797394241
11706,6.0,300.84805,6164.3725,0.0,0.0,0.0,0.0,0.0,-0.11667147298820651,-0.4379113830109886,-0.7834324332837612,-0.6524715094564244,0.017134478676541384,0.030944113938696272,-0.8866551999260552
11707,6.0,299.22371,6050.0002,0.0,0.0,0.0,0.0,0.0,-0.11668143979779039,-0.4362901727184876,-0.7724358123334794,-0.6303230072430374,-0.018206562130347784,-0.02657311006106177,-0.8500564036640351
11708,6.0,299.4303,6118.2469,0.0,0.0,0.0,0.0,0.0,-0.11669140660737415,-0.4358550425955436,-0.8051670126987972,-0.6187722398130654,-0.025320906203228875,-0.03732056267925276,-0.8864274010385732
11709,6.0,298.99282999999997,6399.0838,0.0,0.0,0.0,0.0,0.0,-0.11670137341695797,-0.4661792065533056,-0.8011002726274412,-0.6778822210292663,-0.015956696012053285,0.013329836008552387,-0.8353000878202002
11710,6.0,299.77423,6462.1564,0.0,0.0,0.0,0.0,0.0,-0.11671134022654184,-0.4395315192583835,-0.8562490539027022,-0.6685536022611033,0.03148313259439327,0.016391605246475482,-0.8597446046276862
11711,6.0,299.17392,6229.87,0.0,0.0,0.0,0.0,0.0,-0.11672130703612565,-0.4355145297669376,-0.8075608667225522,-0.6506495236566083,-0.003248233803475717,-0.025884085807560374,-0.8356427386065172
11712,6.0,300.87651,6050.352,0.0,0.0,0.0,0.0,0.0,-0.11673127384570947,-0.41151161775053463,-0.7826159766181833,-0.6450283363418404,0.0015606756917766985,-0.03876283807034426,-0.8716432714794932
11713,6.0,299.92786,6132.8624,0.0,0.0,0.0,0.0,0.0,-0.11674124065529329,-0.4363949833088316,-0.8147059213927142,-0.6131361273243244,0.014518456396110086,0.02206981726362138,-0.8741696890138312
11714,6.0,300.67759,6244.3191,0.0,0.0,0.0,0.0,0.0,-0.11675120746487705,-0.45146181977831257,-0.7887070890643293,-0.6579481769094294,0.02368513145379048,0.054904509980903245,-0.8879355022224112
11715,6.0,300.40554,6068.556,0.0,0.0,0.0,0.0,0.0,-0.11676117427446092,-0.41890649936535257,-0.7982683905854562,-0.6275146022058694,-0.00917659396555931,-0.00045114088294163863,-0.9060774412878813
11716,6.0,300.58757,6041.6017,0.0,0.0,0.0,0.0,0.0,-0.11677114108404474,-0.3959673277014326,-0.8156478285531732,-0.6248809118834444,-0.03943247074343186,-0.027082463793581077,-0.9123727236291771
11717,6.0,300.24588,6234.3251,0.0,0.0,0.0,0.0,0.0,-0.11678110789362861,-0.4512663435690206,-0.7790883261300313,-0.6647244794706985,-0.01138013712638209,0.01077422775208349,-0.8747127302724251
11718,6.0,300.7658,6411.6334,0.0,0.0,0.0,0.0,0.0,-0.11679107470321237,-0.4756399835320116,-0.8211801538341712,-0.6521563177478173,-0.007508943685200043,0.014670707356136086,-0.8571542408795371
11719,6.0,299.18133,6363.2706,0.0,0.0,0.0,0.0,0.0,-0.11680104151279619,-0.4865018827489975,-0.7897863929383482,-0.6579871161107723,-0.02415858978826718,-0.008819271520444332,-0.8340547325197932
11720,6.0,298.90985,6240.6252,0.0,0.0,0.0,0.0,0.0,-0.11681100832238006,-0.4439322569602026,-0.7966959277552663,-0.6563660375407844,-0.04085595541141886,-0.018560289766757984,-0.8371366644214561
11721,6.0,300.04077,6169.0016,0.0,0.0,0.0,0.0,0.0,-0.11682097513196382,-0.4105024611809386,-0.8333027590905793,-0.6314172464235305,0.004496025362423156,0.04740813819631895,-0.8769062343539071
11722,6.0,300.13826,6168.3399,0.0,0.0,0.0,0.0,0.0,-0.1168309419415477,-0.3888493166764396,-0.8102279740332752,-0.6759440255754814,0.005235494778778105,0.016727306150356586,-0.8472003454746643
11723,6.0,300.91741,6226.6567,0.0,0.0,0.0,0.0,0.0,-0.11684090875113151,-0.4156472182986866,-0.8480591965244262,-0.6290417423590864,0.045716106788078456,-0.03217755139142707,-0.8859798586019042
11724,6.0,300.58928,6196.2054,0.0,0.0,0.0,0.0,0.0,-0.11685087556071527,-0.42839555615434965,-0.8151458036586272,-0.6399503625381834,0.011966085473710688,-0.06390709830413953,-0.8777404938237421
11725,6.0,301.22716,6160.5424,0.0,0.0,0.0,0.0,0.0,-0.11686084237029915,-0.4525197846052256,-0.7868741196334293,-0.6332571464851143,0.03530755086458397,0.022570585728043376,-0.8824953219055073
11726,6.0,301.2069,6298.0223,0.0,0.0,0.0,0.0,0.0,-0.11687080917988296,-0.45280874326874354,-0.8213662574800382,-0.6402665269668864,0.003239793227492697,0.021026459450149977,-0.8637275083857682
11727,6.0,299.76758,6399.3646,0.0,0.0,0.0,0.0,0.0,-0.11688077598946683,-0.4599172094777945,-0.7926200076380042,-0.6927098392826383,-0.02798957797210627,-0.012020514229332388,-0.8543702045072743
11728,6.0,299.65484,6525.4208,0.0,0.0,0.0,0.0,0.0,-0.1168907427990506,-0.45685578575815555,-0.8392689884619002,-0.6874402294875683,-0.021214176190176178,-0.027281090197433976,-0.8648709307261152
11729,6.0,299.72548,6420.9548,0.0,0.0,0.0,0.0,0.0,-0.11690070960863441,-0.4678637449770566,-0.7975638980559282,-0.6863822950581583,0.0023278131180122677,0.02320283656519168,-0.8449442630670061
11730,6.0,299.5177,6387.8665,0.0,0.0,0.0,0.0,0.0,-0.11691067641821823,-0.4747368027903746,-0.7925240933835382,-0.6744910147995803,0.017192557159023285,0.026388521224094273,-0.8275075460711362
11731,6.0,300.48287,6219.6097,0.0,0.0,0.0,0.0,0.0,-0.11692064322780205,-0.4789500588261905,-0.7976820430175883,-0.6139739433020104,-0.00974076878413903,-0.026530706557626876,-0.8317588192507042
11732,6.0,300.41249,6228.8227,0.0,0.0,0.0,0.0,0.0,-0.11693061003738592,-0.4362214034342006,-0.8000127512951112,-0.6571724225003683,0.00013025953184311488,-0.0092547600299487,-0.8467963119972891
11733,6.0,299.12568,6273.4799,0.0,0.0,0.0,0.0,0.0,-0.11694057684696973,-0.4238797943011786,-0.8117578702267642,-0.6713435762789524,0.01061355364397619,0.029708619588262472,-0.8631523065690002
11734,6.0,300.05429,6163.825,0.0,0.0,0.0,0.0,0.0,-0.1169505436565535,-0.4020066934649716,-0.8112845811050543,-0.6603576349847243,0.01881646674979068,0.03547076215094167,-0.8637216315351881
11735,6.0,299.23753,6027.5659,0.0,0.0,0.0,0.0,0.0,-0.11696051046613737,-0.4235223095333976,-0.7646509206226703,-0.6440562951234073,-0.006711964219669295,-0.028188831577771075,-0.8676607628889501
11736,6.0,299.38542,6026.1971,0.0,0.0,0.0,0.0,0.0,-0.11697047727572113,-0.44387316421437056,-0.7791465474807773,-0.6087937325632634,0.008858325928323701,-0.028747289436636573,-0.9020694494573233
11737,6.0,299.26025,6161.9812,0.0,0.0,0.0,0.0,0.0,-0.116980444085305,-0.4861735694515955,-0.7567961957149693,-0.6301186448303684,-0.005256835345759255,0.017814624832666583,-0.8705743230214962
11738,6.0,299.94246,6320.8917,0.0,0.0,0.0,0.0,0.0,-0.11699041089488882,-0.4766821821873685,-0.7877527493251433,-0.6569583126217373,-0.008663698619965481,0.024803541715418976,-0.8571203679286943
11739,6.0,300.18762999999996,6387.6845,0.0,0.0,0.0,0.0,0.0,-0.11700037770447264,-0.4447744805758236,-0.8301167562711453,-0.6668053709360664,-0.03920749781047876,-0.022778490463061976,-0.8676115088015891
11740,6.0,300.84389,6349.4356,0.0,0.0,0.0,0.0,0.0,-0.11701034451405645,-0.42599088061952656,-0.8070433289689752,-0.6970356572720633,0.0027770883136772778,-0.015016404985503785,-0.8605944580165602
11741,6.0,300.93858,6304.1381,0.0,0.0,0.0,0.0,0.0,-0.11702031132364027,-0.4099087371523426,-0.8373799660354682,-0.6690118851488324,0.01843170326281748,0.029615803852602266,-0.8705351001101251
11742,6.0,300.31052999999997,6235.169,0.0,0.0,0.0,0.0,0.0,-0.11703027813322409,-0.4408467077556826,-0.8061456197778782,-0.6483433562965074,0.031130999813640474,0.0074200611837780235,-0.8473692846638372
11743,6.0,298.77054,6173.5589,0.0,0.0,0.0,0.0,0.0,-0.1170402449428079,-0.4552879636134236,-0.7884303197995143,-0.6328894785538284,-0.009222943267533631,-0.03145692488055677,-0.8642672869790402
11744,6.0,299.63624,6056.8411,0.0,0.0,0.0,0.0,0.0,-0.11705021175239172,-0.42160374073404955,-0.8315125285488973,-0.5880121756622835,-0.009758313918895601,-0.02345734675180988,-0.8904854575565723
11745,6.0,298.81417000000005,6068.6523,0.0,0.0,0.0,0.0,0.0,-0.11706017856197559,-0.42567956965880255,-0.7963010743237973,-0.6227381311019684,0.018244890341880482,0.010226205355997891,-0.8675855999965322
11746,6.0,299.29044,6304.9112,0.0,0.0,0.0,0.0,0.0,-0.11707014537155935,-0.43762516012274055,-0.8105598438385282,-0.6683505570735644,0.03671087388208117,0.0012733416734690387,-0.8539006745434352
11747,6.0,300.58097000000004,6372.1461,0.0,0.0,0.0,0.0,0.0,-0.11708011218114323,-0.46601682309227954,-0.7985139112171872,-0.6724425574699133,0.018590832164522283,-0.04195886092001716,-0.8561888972442653
11748,6.0,300.76193,6420.8812,0.0,0.0,0.0,0.0,0.0,-0.11709007899072699,-0.4939980285788095,-0.7887391482974933,-0.6690503886526323,0.011557964545432288,-0.032064056234475974,-0.8551028451245801
11749,6.0,300.23404,6337.0154,0.0,0.0,0.0,0.0,0.0,-0.1171000458003108,-0.4966922099322046,-0.7959364258778092,-0.6336658003829454,0.01652258910015259,-7.982669011078093e-05,-0.8619879403490862
11750,6.0,301.54703,6429.0931,0.0,0.0,0.0,0.0,0.0,-0.11711001260989468,-0.4893669791292605,-0.7977258458194113,-0.6671909328641183,-0.02240188769239418,0.014507514308280187,-0.8488857451610001
11751,6.0,299.59137999999996,6516.2778,0.0,0.0,0.0,0.0,0.0,-0.11711997941947849,-0.47735215328598957,-0.8237643570217122,-0.6796692091706283,-0.008290218686105882,-0.0065146064049415925,-0.8651557857267281
11752,6.0,299.67719,6317.755999999999,0.0,0.0,0.0,0.0,0.0,-0.11712994622906231,-0.4115839840726766,-0.8432113419509801,-0.6656447334765204,-0.025581126054160575,0.03079919890939427,-0.8914253078193282
11753,6.0,299.60112999999996,5866.4625,0.0,0.0,0.0,0.0,0.0,-0.11713991303864613,-0.37746965679085465,-0.7768967066937352,-0.6288917408142823,0.006387045411427305,0.06403506672551904,-0.8739490842020592
11754,6.0,299.68601,5576.2252,0.0,0.0,0.0,0.0,0.0,-0.11714987984822989,-0.37590069980601065,-0.7413530786883523,-0.5777794338298904,-0.008387020851634513,0.02277406661312538,-0.8531374236406082
11755,6.0,299.27545,6001.0222,0.0,0.0,0.0,0.0,0.0,-0.11715984665781376,-0.44217436936171256,-0.7819674762891813,-0.6000190474922694,0.003547171967228617,-0.019715623875280582,-0.857301253336546
11756,6.0,298.92032,6378.6611,0.0,0.0,0.0,0.0,0.0,-0.11716981346739758,-0.4828311917442285,-0.7959766721717813,-0.6601458555813234,-0.01220049581809519,-0.02240032120773958,-0.8642560601679321
11757,6.0,299.69334,6286.8784,0.0,0.0,0.0,0.0,0.0,-0.1171797802769814,-0.4420061698451126,-0.8260034472251933,-0.6430444230435434,0.016046766853192583,-0.005209624679874925,-0.8750527364759813
11758,6.0,300.22253,6323.3048,0.0,0.0,0.0,0.0,0.0,-0.11718974708656521,-0.4234927935579846,-0.8084631558041012,-0.6901708371820583,-0.014906003281107987,-0.00983599240733687,-0.8556453189631182
11759,6.0,300.56112,6471.2412,0.0,0.0,0.0,0.0,0.0,-0.11719971389614903,-0.4594676202759236,-0.8025911789570822,-0.7050369488067294,0.03501937341689307,-0.03469482738336287,-0.8692225257980841
11760,6.0,300.44388,6534.8909,0.0,0.0,0.0,0.0,0.0,-0.1172096807057329,-0.45071924931002655,-0.8445147564821172,-0.6912096414495803,0.01652256680865038,-0.0099983244965828,-0.8797207290241762
11761,6.0,300.78011000000004,6348.8438,0.0,0.0,0.0,0.0,0.0,-0.11721964751531666,-0.4683773918502495,-0.7868742716209443,-0.6746383312316193,0.01793181328623218,0.018617739020927785,-0.8738308683128923
11762,6.0,300.45537,5932.1017,0.0,0.0,0.0,0.0,0.0,-0.11722961432490053,-0.4116480721415016,-0.7864157556856922,-0.6051469441283535,-0.011769310277790488,0.01986081856161018,-0.8554088466547802
11763,6.0,300.49458,5797.9374,0.0,0.0,0.0,0.0,0.0,-0.11723958113448435,-0.38468843553829263,-0.7864355545926462,-0.5913041948396804,-0.018625959518989082,-0.002278888539583788,-0.8848886997017151
11764,6.0,298.70236,6084.4159,0.0,0.0,0.0,0.0,0.0,-0.11724954794406811,-0.40948510741803357,-0.7855672093894472,-0.6544582091924964,-0.0031047615409911067,0.025268191866776375,-0.8676319967186111
11765,6.0,299.0781,6474.8895,0.0,0.0,0.0,0.0,0.0,-0.11725951475365198,-0.4531980542221655,-0.8367105116943981,-0.6782961539601184,0.007256756475761103,0.03984070616897156,-0.8529299606826332
11766,6.0,300.03286,6517.1099,0.0,0.0,0.0,0.0,0.0,-0.1172694815632358,-0.49042167115835056,-0.8026589653887722,-0.6879580306861713,-0.01963766035958618,0.01874476917271468,-0.8161233670901051
11767,6.0,300.29487,6290.3466,0.0,0.0,0.0,0.0,0.0,-0.11727944837281962,-0.4747418791733755,-0.7819326610157452,-0.6554337461237744,-0.013440150573439589,-0.039181510985164064,-0.8302795045022071
11768,6.0,299.69753,6413.3688,0.0,0.0,0.0,0.0,0.0,-0.11728941518240343,-0.48593307454036055,-0.8125582567457562,-0.6510126319624444,0.01900331918748158,0.01013656109315069,-0.8694443769074791
11769,6.0,299.27771,6591.4386,0.0,0.0,0.0,0.0,0.0,-0.11729938199198725,-0.4921250965639655,-0.8175860442719602,-0.6939215952097294,0.039662813901914964,0.013935771727353587,-0.8486397381692213
11770,6.0,299.81684,6220.7716,0.0,0.0,0.0,0.0,0.0,-0.11730934880157107,-0.4318939541121146,-0.8007639445217483,-0.6583013249667823,0.010964262808338489,0.00016576154566689085,-0.9008807956325121
11771,6.0,300.35021,6036.8395,0.0,0.0,0.0,0.0,0.0,-0.11731931561115488,-0.4116381422905216,-0.7837066491583243,-0.6397036564038354,-0.014555070188473589,-0.03622238803537137,-0.8899527109189941
11772,6.0,300.16805,5942.5649,0.0,0.0,0.0,0.0,0.0,-0.11732928242073876,-0.4163321348362826,-0.7764800987826193,-0.6135791000030424,0.017106539318283983,-0.00968326228133858,-0.902580005917711
11773,6.0,300.32607,5963.6135,0.0,0.0,0.0,0.0,0.0,-0.11733924923032252,-0.4229617998430796,-0.7978643064455763,-0.5919634761497464,-0.0025547663469608077,0.02265064059194418,-0.8791599558888321
11774,6.0,299.889,6241.9674,0.0,0.0,0.0,0.0,0.0,-0.11734921603990633,-0.4464812395742676,-0.8026101267339523,-0.6483108613658004,-0.01908130702117838,0.004747369953078936,-0.8629416924032142
11775,6.0,300.08024,6347.925,0.0,0.0,0.0,0.0,0.0,-0.11735918284949015,-0.42370016532345056,-0.8207524812319632,-0.6851580356248334,-0.037092757712270163,-0.04221708973450236,-0.8478433438556232
11776,6.0,300.69261,6204.9648,0.0,0.0,0.0,0.0,0.0,-0.11736914965907397,-0.3901736649546426,-0.8440627354800062,-0.6519179607942934,-0.013411928518404288,0.01045345202217539,-0.8769463489253663
11777,6.0,300.6813,6287.9313,0.0,0.0,0.0,0.0,0.0,-0.11737911646865784,-0.4259277450057956,-0.8142826868259443,-0.6711636838561983,0.017680106762640684,0.02680207418615877,-0.8563932495244332
11778,6.0,299.92793,6467.9261,0.0,0.0,0.0,0.0,0.0,-0.11738908327824166,-0.47903594190466653,-0.8342917418506841,-0.6527603566624314,0.024632827312070775,0.013110290043134886,-0.8553503517265071
11779,6.0,299.57768,6362.9773,0.0,0.0,0.0,0.0,0.0,-0.11739905008782547,-0.4812660344472595,-0.7907674926126752,-0.6621526987293833,-0.00992028529110593,-0.020908846444792482,-0.8318550374802002
11780,6.0,299.38171,6091.1984,0.0,0.0,0.0,0.0,0.0,-0.11740901689740929,-0.4422504239142186,-0.7715634749248863,-0.6377583175368453,0.002165627443405788,-0.008620264742503892,-0.8809116930592151
11781,6.0,298.46712,6088.143,0.0,0.0,0.0,0.0,0.0,-0.11741898370699311,-0.4253507700013526,-0.7854651852368782,-0.6398275059635583,0.003676310793798627,0.009839704550403231,-0.8730376758696102
11782,6.0,299.48557999999997,6111.779,0.0,0.0,0.0,0.0,0.0,-0.11742895051657692,-0.4339925571892306,-0.7717678981325612,-0.6520677698215784,-0.008214950010377442,0.006021946373119834,-0.8694207377826462
11783,6.0,299.64727,6124.895,0.0,0.0,0.0,0.0,0.0,-0.11743891732616074,-0.4328298932294846,-0.8134719651559322,-0.6155132728539304,-0.01090227014072029,-0.04552475855969386,-0.8722556899724342
11784,6.0,300.37976000000003,6275.0166,0.0,0.0,0.0,0.0,0.0,-0.11744888413574456,-0.45886205135365854,-0.8136173868102843,-0.6349689109390524,-0.01037418040060189,0.02052330174199218,-0.8765432983005882
11785,6.0,300.67496,6177.8037,0.0,0.0,0.0,0.0,0.0,-0.11745885094532837,-0.46102391163451756,-0.7877258576674893,-0.6291482957396024,0.009771458812442901,0.01862503036864738,-0.8440278087490591
11786,6.0,299.83072999999996,6088.5709,0.0,0.0,0.0,0.0,0.0,-0.11746881775491219,-0.4124461991127706,-0.8182179070343202,-0.6201094259700354,0.014741133304336587,0.009325265822257081,-0.8503454636525632
11787,6.0,300.44261,6383.4911,0.0,0.0,0.0,0.0,0.0,-0.11747878456449606,-0.4462741616513306,-0.8044438459699262,-0.6897039011384754,-0.01061921163253459,-0.02071775355543308,-0.8472199518640992
11788,6.0,300.59458,6558.2919999999995,0.0,0.0,0.0,0.0,0.0,-0.11748875137407983,-0.44667347338323965,-0.8638588357312291,-0.6830247084667904,-0.009483657280539102,-0.0013189003363903288,-0.8818468013115032
11789,6.0,300.97872,6335.7973,0.0,0.0,0.0,0.0,0.0,-0.11749871818366364,-0.46095133252985454,-0.8189182553709392,-0.6460545661756214,0.02099589678738368,0.0099528731368471,-0.8926214292973761
11790,6.0,300.04354,6182.2353,0.0,0.0,0.0,0.0,0.0,-0.11750868499324751,-0.4466289917038496,-0.7893234187026562,-0.6432927503780513,-0.01090190942368469,0.004073927256965317,-0.8763527160892791
11791,6.0,299.69326,6129.4525,0.0,0.0,0.0,0.0,0.0,-0.11751865180283128,-0.4511310442831675,-0.8031615070408692,-0.6089079663795375,0.02262388977605408,-0.040564703762924564,-0.8802742776863073
11792,6.0,299.07788,6051.3469,0.0,0.0,0.0,0.0,0.0,-0.11752861861241515,-0.4205112747412316,-0.7693089427898813,-0.6496381278042913,-0.011423578197919388,-0.0013334550661267687,-0.8969016307672991
11793,6.0,301.12324,6210.9737,0.0,0.0,0.0,0.0,0.0,-0.11753858542199896,-0.42921696761291656,-0.8119162310848933,-0.6468477079563983,0.022056219447279375,0.008712523798559153,-0.8868962217273422
11794,6.0,299.3751,6262.2385,0.0,0.0,0.0,0.0,0.0,-0.11754855223158273,-0.4336271792031706,-0.8297848358033872,-0.6401521310305963,0.018090934081936183,-0.027553362658305172,-0.8757086335307133
11795,6.0,299.04965,6289.0305,0.0,0.0,0.0,0.0,0.0,-0.1175585190411666,-0.45405654050189154,-0.8062004062107853,-0.6514512881957364,-0.005201056839679344,-0.044017654413954256,-0.8572431130458082
11796,6.0,299.43255,6402.1525,0.0,0.0,0.0,0.0,0.0,-0.11756848585075041,-0.4474660173464576,-0.8490503881697492,-0.6495781028683674,0.02117998001255128,-0.02020541681461938,-0.8868937493970981
11797,6.0,300.30994,6512.3995,0.0,0.0,0.0,0.0,0.0,-0.11757845266033423,-0.49331932326432654,-0.8060499892334403,-0.6802375411517184,0.007836320030234573,0.007722446829671163,-0.8256410988569322
11798,6.0,300.86795,6310.4435,0.0,0.0,0.0,0.0,0.0,-0.11758841946991805,-0.45208123982944454,-0.8135684670954562,-0.6525675351684014,-0.0016901268020275285,0.019000874214990283,-0.8363233792286912
11799,6.0,300.81458,6043.8428,0.0,0.0,0.0,0.0,0.0,-0.11759838627950187,-0.42799905112521763,-0.7760878088739033,-0.6330904364461615,-0.01912650304188888,-0.003946133215928026,-0.8535412646004642
11800,6.0,299.85524,6184.1806,0.0,0.0,0.0,0.0,0.0,-0.11760835308908574,-0.4347150957030396,-0.7756600552116873,-0.6694613324956894,0.0052592269199702845,0.02788754976653687,-0.8835637333409512
11801,6.0,300.52558,6256.2515,0.0,0.0,0.0,0.0,0.0,-0.1176183198986695,-0.47132431830858856,-0.7950147634543483,-0.6354051455046055,-0.0015508688493588384,0.03232954295942747,-0.8793311343607262
11802,6.0,300.31714,6044.012,0.0,0.0,0.0,0.0,0.0,-0.11762828670825337,-0.41935858116246966,-0.7758939639972722,-0.6419761737281154,0.006683448828730044,-0.004176947029082576,-0.8995402150877072
11803,6.0,300.44874,6179.3541,0.0,0.0,0.0,0.0,0.0,-0.11763825351783713,-0.45041863827035855,-0.7913920498418142,-0.6365586496834473,-0.020076791807175084,-0.026733701082660877,-0.8436836786175963
11804,6.0,299.7262,6216.4044,0.0,0.0,0.0,0.0,0.0,-0.11764822032742095,-0.42035133321294665,-0.8255814082935412,-0.6436989724756423,-0.008911827965403941,0.0004804841093450895,-0.8975623407600062
11805,6.0,299.71968,6250.7635,0.0,0.0,0.0,0.0,0.0,-0.11765818713700482,-0.4269451494312056,-0.8042732754480922,-0.6688575874236043,-0.0048001932139171855,0.02142041818178068,-0.8444327136215202
11806,6.0,300.13796,6373.1202,0.0,0.0,0.0,0.0,0.0,-0.11766815394658864,-0.44210470841733757,-0.8337213023093862,-0.6614434135268823,-0.013509103255994687,-0.008810789907832262,-0.8893927078537261
11807,6.0,300.10972999999996,6356.8032,0.0,0.0,0.0,0.0,0.0,-0.11767812075617246,-0.45618741559469256,-0.8086897083939603,-0.6674323093029404,-0.015202827805152287,-0.034881204606756866,-0.8314371022114532
11808,6.0,299.87512999999996,6217.8767,0.0,0.0,0.0,0.0,0.0,-0.11768808756575627,-0.4131909480687716,-0.8045630953741952,-0.6723252028433314,-0.005676325852084744,-0.01190252024193729,-0.8906517116329802
11809,6.0,300.03288,6159.6552,0.0,0.0,0.0,0.0,0.0,-0.11769805437534003,-0.42559290637774955,-0.8011368002935462,-0.6456516574058574,0.017017019685199086,0.01144858926338779,-0.8621466153147462
11810,6.0,299.73435,6180.1892,0.0,0.0,0.0,0.0,0.0,-0.1177080211849239,-0.4403909883907066,-0.7699713955727603,-0.6682608033797064,-0.005667185626907675,-0.012530810284444686,-0.8600125282191281
11811,6.0,301.01333,6327.1658,0.0,0.0,0.0,0.0,0.0,-0.11771798799450772,-0.45534011559607057,-0.8097228992559282,-0.6582373990179734,-0.03634081062755876,0.01215694734204729,-0.8615695592502952
11812,6.0,300.33547000000004,6342.8852,0.0,0.0,0.0,0.0,0.0,-0.1177279548040916,-0.4562630749796595,-0.8228146579679843,-0.6490009758764094,0.012443050666783488,0.018443330307714983,-0.8953108889053052
11813,6.0,300.13052000000005,6406.7598,0.0,0.0,0.0,0.0,0.0,-0.11773792161367536,-0.4666407318413546,-0.8084546242382592,-0.6723996361956773,-0.01118049645917909,0.03933812702662086,-0.8866775015607561
11814,6.0,299.15415,6359.2074,0.0,0.0,0.0,0.0,0.0,-0.11774788842325917,-0.46173724983741854,-0.8337827153979471,-0.6375203050883554,0.023092894876341277,0.002582970264819318,-0.8560702861875591
11815,6.0,299.12672000000003,6296.5863,0.0,0.0,0.0,0.0,0.0,-0.11775785523284299,-0.4550934499917266,-0.7965493509958003,-0.6623622084525603,-0.013706809628756787,-0.00954354188132425,-0.8386893688746961
11816,6.0,299.6505,6437.0787,0.0,0.0,0.0,0.0,0.0,-0.1177678220424268,-0.4497720327190436,-0.8270251680960292,-0.6799139698647844,-0.0018349241929929182,0.011502379671446489,-0.8370168070671271
11817,6.0,298.96403,6340.1873,0.0,0.0,0.0,0.0,0.0,-0.11777778885201068,-0.45833268897141455,-0.8119772794034182,-0.6569486563482844,-0.0038407577386532768,0.028491259374868374,-0.8484855822990072
11818,6.0,298.92049,6122.4447,0.0,0.0,0.0,0.0,0.0,-0.1177877556615945,-0.4543162162375196,-0.7837829367583532,-0.6229711583599664,-0.02129106059451408,-0.008311053033337071,-0.8489077732181741
11819,6.0,301.0787,6303.8269,0.0,0.0,0.0,0.0,0.0,-0.11779772247117826,-0.46687740679971257,-0.8136307313141012,-0.6356978329284914,-0.031759822825700466,-0.02124863277307678,-0.8747245143710881
11820,6.0,300.24964,6412.4853,0.0,0.0,0.0,0.0,0.0,-0.11780768928076213,-0.46611167343414056,-0.8170141051205142,-0.6661096227549014,-0.005858305063419694,-0.026942852115302476,-0.8899045916717452
11821,6.0,299.56282000000004,6325.1144,0.0,0.0,0.0,0.0,0.0,-0.11781765609034589,-0.4424647161778676,-0.8373897844289372,-0.6428223287541244,0.014713891062147986,0.01104878509193019,-0.8948281258951603
11822,6.0,300.69407,6286.829000000001,0.0,0.0,0.0,0.0,0.0,-0.11782762289992976,-0.44613609619270456,-0.8306333618346303,-0.6342695758525334,0.02823782525985637,-0.01182244106003409,-0.8975675792630232
11823,6.0,299.80457,6205.1345,0.0,0.0,0.0,0.0,0.0,-0.11783758970951358,-0.4515141034834726,-0.8084122501190772,-0.6262795921889834,0.024560286710911577,-0.009805350407087741,-0.8851547690454742
11824,6.0,300.1847,6247.5718,0.0,0.0,0.0,0.0,0.0,-0.1178475565190974,-0.43329036473742955,-0.8420007816590072,-0.6238146890682165,0.007041219333039244,0.008892427164414232,-0.8883319261915351
11825,6.0,300.78731,6245.3928,0.0,0.0,0.0,0.0,0.0,-0.11785752332868121,-0.43015060665255955,-0.8294192754323092,-0.6388735917894144,0.007569788543104962,0.01724913299160688,-0.8935806022395392
11826,6.0,299.57196,6195.7823,0.0,0.0,0.0,0.0,0.0,-0.11786749013826503,-0.4257025907010746,-0.8003282165812452,-0.6573323234986493,-0.02336277302722618,-0.02924709227371327,-0.8417294636797301
11827,6.0,299.96855,6113.4879,0.0,0.0,0.0,0.0,0.0,-0.1178774569478489,-0.4261892040615996,-0.7984502993759092,-0.6337081643696264,-0.02064364545636918,-0.039639319671846265,-0.8442246528459862
11828,6.0,299.68496,6294.9726,0.0,0.0,0.0,0.0,0.0,-0.11788742375743266,-0.43582524291010255,-0.7999192181783802,-0.6777700238456934,-0.008066461551947773,-0.03274288516547117,-0.8327800537614921
11829,6.0,298.94732,6554.3219,0.0,0.0,0.0,0.0,0.0,-0.11789739056701648,-0.5065914911566876,-0.8171608946625013,-0.6685978002304653,-0.007235719782484943,0.008047132590390152,-0.8632053907417393
11830,6.0,299.05278,6562.6261,0.0,0.0,0.0,0.0,0.0,-0.11790735737660035,-0.4947136972569405,-0.8180724853799682,-0.6820882728568713,0.005913140537631535,-0.0006089333685595444,-0.8429500450151922
11831,6.0,300.14977999999996,6366.3187,0.0,0.0,0.0,0.0,0.0,-0.11791732418618411,-0.46262245552228154,-0.8096557511718012,-0.6629237111279763,0.01031155546492129,0.013444385958857588,-0.8779159279460562
11832,6.0,299.84103999999996,6187.3645,0.0,0.0,0.0,0.0,0.0,-0.11792729099576799,-0.4382011016120816,-0.7840714191943242,-0.6585318089670295,0.02644024257544877,0.02401889299698018,-0.8584032236153022
11833,6.0,300.561,6303.5617,0.0,0.0,0.0,0.0,0.0,-0.1179372578053518,-0.4440513949069606,-0.8104418103343792,-0.6616321516230094,0.013549323205464089,0.03519378415660607,-0.8734990897001482
11834,6.0,300.19986,6206.251,0.0,0.0,0.0,0.0,0.0,-0.11794722461493556,-0.4377331725834006,-0.7793196612603622,-0.6694925102012663,-0.0015182473637143487,-0.030754150823198368,-0.8342026670343932
11835,6.0,300.80309,6140.3292,0.0,0.0,0.0,0.0,0.0,-0.11795719142451944,-0.4555153369358636,-0.7843433045936572,-0.6266481112503534,-0.012256886225910488,-0.03875659138347776,-0.8602819514207183
11836,6.0,300.45583999999997,6238.561,0.0,0.0,0.0,0.0,0.0,-0.11796715823410325,-0.4463026035816376,-0.8020044463541762,-0.6480596969310124,-0.004660813063286436,-0.03886872574554456,-0.8636652036371192
11837,6.0,299.49485,6243.4421,0.0,0.0,0.0,0.0,0.0,-0.11797712504368707,-0.42644865688220557,-0.8206018920021013,-0.6507999507664544,-0.0023868590516896476,-0.01216862808920009,-0.8723155325233402
11838,6.0,299.24616000000003,6418.0443,0.0,0.0,0.0,0.0,0.0,-0.11798709185327089,-0.4463175490206126,-0.8405848862342692,-0.6640227733789453,-0.001976095972450488,0.0048898341330390555,-0.8492117279831722
11839,6.0,299.50108,6421.6663,0.0,0.0,0.0,0.0,0.0,-0.1179970586628547,-0.4430313965612946,-0.8230989151510382,-0.6858959046126554,-0.013936562062431587,0.023258466022181876,-0.8587082118954023
11840,6.0,299.25221,6021.5522,0.0,0.0,0.0,0.0,0.0,-0.11800702547243858,-0.41870284622775367,-0.8029707019145382,-0.6087279523667715,0.015804306236763585,0.011495905003307489,-0.8782432381258591
11841,6.0,299.75619,5940.5217,0.0,0.0,0.0,0.0,0.0,-0.11801699228202234,-0.4129356394410746,-0.7933926513692583,-0.5994419610303154,0.001018747589742559,0.03309151007437777,-0.9175541097380401
11842,6.0,299.30706000000004,6162.0185,0.0,0.0,0.0,0.0,0.0,-0.11802695909160621,-0.44078892210247955,-0.8069782783125553,-0.6253325681155194,-0.015960278864406884,-0.016811930772208383,-0.8875465864365281
11843,6.0,299.4603,6347.4044,0.0,0.0,0.0,0.0,0.0,-0.11803692590118997,-0.4666618581059396,-0.8249820201968862,-0.6378085646093045,-0.014443043230917387,-0.008266783832493041,-0.9203225420587631
11844,6.0,300.2359,6248.9664,0.0,0.0,0.0,0.0,0.0,-0.11804689271077379,-0.43598033097040856,-0.8043705170601892,-0.6591788907458914,0.0024291963898930174,-0.013133625192937886,-0.8688282296541703
11845,6.0,300.36739,6180.3707,0.0,0.0,0.0,0.0,0.0,-0.11805685952035766,-0.42603916198679154,-0.7993418378738972,-0.6532973690829303,0.019149225175381382,-0.001280422670467879,-0.8640891373464581
11846,6.0,300.38731,6390.2458,0.0,0.0,0.0,0.0,0.0,-0.11806682632994148,-0.4628918483263686,-0.8079578783767343,-0.6716254421917703,0.015012203037339088,-0.020171045344727183,-0.8214687781251562
11847,6.0,299.95606000000004,6574.5572,0.0,0.0,0.0,0.0,0.0,-0.1180767931395253,-0.49377628892692554,-0.8243070335102702,-0.6804178996695184,-0.01149257445022879,-0.015530352793976484,-0.8429842219410651
11848,6.0,299.71587,6507.4633,0.0,0.0,0.0,0.0,0.0,-0.11808675994910911,-0.4825103764975665,-0.8343173669457132,-0.6612785982656164,0.023800308605907577,-0.020679783021185682,-0.8604936092341071
11849,6.0,300.26319,6380.0976,0.0,0.0,0.0,0.0,0.0,-0.11809672675869287,-0.48006049987578253,-0.8142239588501482,-0.6451058905044944,-0.016247802765783286,0.026906451105459972,-0.8760764939795181
11850,6.0,299.74577,6219.554,0.0,0.0,0.0,0.0,0.0,-0.11810669356827674,-0.44307995150608653,-0.8014224354967363,-0.6460867267337954,-0.022757436139234078,0.01055692613563749,-0.8549168630687253
11851,6.0,298.75001000000003,6298.9192,0.0,0.0,0.0,0.0,0.0,-0.11811666037786056,-0.4394518271380186,-0.8070933531264123,-0.6681689623906424,-0.04190067199327436,0.015328760607080884,-0.8538378226397322
11852,6.0,299.97298,6582.12,0.0,0.0,0.0,0.0,0.0,-0.11812662718744438,-0.48531105043647155,-0.7999240412488562,-0.7155650226457693,-0.024058097669849374,0.01240233422476509,-0.8521677432949083
11853,6.0,299.35855,6296.9493,0.0,0.0,0.0,0.0,0.0,-0.1181365939970282,-0.46252667299032857,-0.8052853805754793,-0.6463032988101693,-0.002259956569415348,-0.008558351615018542,-0.8697152085267081
11854,6.0,299.30834,6073.9757,0.0,0.0,0.0,0.0,0.0,-0.11814656080661201,-0.4082692782255406,-0.7975489120869492,-0.6405187553142795,0.013225126743218386,-0.025108255404741875,-0.8803946923281911
11855,6.0,300.72802,6324.4317,0.0,0.0,0.0,0.0,0.0,-0.11815652761619583,-0.4651312222398775,-0.8091930403811352,-0.6481450632519374,0.011185097627883188,-0.03244388114046177,-0.8890619728885851
11856,6.0,300.14482000000004,6424.9353,0.0,0.0,0.0,0.0,0.0,-0.11816649442577964,-0.4487143921321626,-0.8295405108067742,-0.6747649976266203,0.021361247415690978,-0.02211437595001898,-0.8768874385645521
11857,6.0,300.20214,6256.6276,0.0,0.0,0.0,0.0,0.0,-0.11817646123536352,-0.44063821128260555,-0.8194820074615772,-0.6417383537971444,0.01086444044823679,0.006334131160730074,-0.8616296247162232
11858,6.0,300.74031,6136.9973,0.0,0.0,0.0,0.0,0.0,-0.11818642804494733,-0.4204396784891656,-0.8202711773019622,-0.6247830825862893,-0.012211923252722988,-0.008468652231365902,-0.8260656709138342
11859,6.0,300.37675,6246.6482,0.0,0.0,0.0,0.0,0.0,-0.1181963948545311,-0.43805807122796553,-0.8444278297560383,-0.6163391730104404,-0.0017507158142821984,0.004554337095078076,-0.8826588300741443
11860,6.0,300.81227,6457.8385,0.0,0.0,0.0,0.0,0.0,-0.11820636166411497,-0.45172168803145957,-0.8269221205608591,-0.6843778634453364,-0.02938271579959827,0.014425079319894486,-0.8858233418589572
11861,6.0,299.78494,6581.1685,0.0,0.0,0.0,0.0,0.0,-0.11821632847369873,-0.4913875720811775,-0.8399472276813371,-0.6691760924600383,0.00974313026482209,0.024762504073118877,-0.9045583767379612
11862,6.0,298.71742,6406.0177,0.0,0.0,0.0,0.0,0.0,-0.1182262952832826,-0.4620492599407116,-0.8074566843472702,-0.6777634883825483,-0.033947084273316365,0.01853580457809148,-0.856975959524442
11863,6.0,299.41317000000004,6047.7398,0.0,0.0,0.0,0.0,0.0,-0.11823626209286642,-0.42414462747981563,-0.7641362098368722,-0.6500810498205044,0.004101922242653207,0.026738414722126073,-0.8959769083285362
11864,6.0,300.60032,6286.7617,0.0,0.0,0.0,0.0,0.0,-0.11824622890245023,-0.4678240559706396,-0.7873380159267123,-0.6558565044629974,-0.03061009806973147,0.031012342147429872,-0.8614303386865552
11865,6.0,300.56341000000003,6496.2457,0.0,0.0,0.0,0.0,0.0,-0.11825619571203405,-0.48980803676528956,-0.8125600805959362,-0.6723283743161443,-0.002749486266378167,0.03538836161305937,-0.8497536040041511
11866,6.0,300.39737,6330.8645,0.0,0.0,0.0,0.0,0.0,-0.11826616252161787,-0.44804970006656253,-0.8194058718490632,-0.6569691543978075,-0.004390904717548556,-0.0037262328156255466,-0.8436536864146362
11867,6.0,300.20724,6232.9771,0.0,0.0,0.0,0.0,0.0,-0.11827612933120174,-0.4350507955936706,-0.8187123730831203,-0.6409062424175214,0.023064059804995478,-0.011236116796918388,-0.8673858073418143
11868,6.0,300.11371,6434.4765,0.0,0.0,0.0,0.0,0.0,-0.1182860961407855,-0.44034941473910355,-0.8306974803009582,-0.6848732920817313,0.01363647487306529,-0.02305961771655708,-0.8716493509800932
11869,6.0,299.88887,6426.0266,0.0,0.0,0.0,0.0,0.0,-0.11829606295036932,-0.4954902926635846,-0.8068828808156402,-0.6509784651690723,0.02115081766142318,-0.016767723683595484,-0.8491918176187072
11870,6.0,299.28837000000004,6350.2241,0.0,0.0,0.0,0.0,0.0,-0.11830602975995314,-0.4550429698717446,-0.8082352859891122,-0.6670313054433644,-0.029382567865083677,0.005982256758752774,-0.8517794050615821
11871,6.0,298.7223,6249.2896,0.0,0.0,0.0,0.0,0.0,-0.11831599656953695,-0.4394797725757766,-0.8067678566642882,-0.6533803745311224,-0.01099522063864379,0.0037988171891890667,-0.8698766699301431
11872,6.0,298.8404,6170.9068,0.0,0.0,0.0,0.0,0.0,-0.11832596337912082,-0.4171165727987006,-0.7843868034204503,-0.6742982034380514,-0.01051465739446589,0.011929247753075089,-0.8956116823299912
11873,6.0,299.60947000000004,6240.5662,0.0,0.0,0.0,0.0,0.0,-0.11833593018870464,-0.45134725158950556,-0.7894279455829722,-0.6562011108220074,-0.006402631832415563,0.021218251482078378,-0.8956932590955421
11874,6.0,299.96247,6326.501,0.0,0.0,0.0,0.0,0.0,-0.1183458969982884,-0.4497400342808856,-0.8187511906944512,-0.6546071062946913,-0.011119898023698489,0.0020865222988237183,-0.888010938692356
11875,6.0,300.17708,6382.1356,0.0,0.0,0.0,0.0,0.0,-0.11835586380787227,-0.46310701198510357,-0.8333385774816142,-0.6435642710073485,0.004276135094621676,-0.01150367764482459,-0.8825656009324431
11876,6.0,299.63768999999996,6277.46,0.0,0.0,0.0,0.0,0.0,-0.11836583061745609,-0.4382508825894946,-0.8258836405333692,-0.6440565687009344,0.014561405028098787,0.0072303238204024034,-0.8841839335946601
11877,6.0,299.57516,6302.1323,0.0,0.0,0.0,0.0,0.0,-0.11837579742703991,-0.42587514719310454,-0.8275062592435092,-0.6623094485198533,0.013286461811521688,0.0021210481880311583,-0.8525043348456272
11878,6.0,300.46672,6293.2806,0.0,0.0,0.0,0.0,0.0,-0.11838576423662373,-0.44559270029657555,-0.8084552119233173,-0.6589522368310223,-0.01003813255988655,0.007758728883951922,-0.8339952750039251
11879,6.0,300.3671,6284.3729,0.0,0.0,0.0,0.0,0.0,-0.11839573104620754,-0.4291177602956256,-0.8144844654508582,-0.6666902049297003,-0.0010135999752595292,-0.018711250859406683,-0.8672107886520412
11880,6.0,299.96571,6246.0889,0.0,0.0,0.0,0.0,0.0,-0.11840569785579136,-0.4356237479952166,-0.8079037505563922,-0.6551275622085564,0.01073749135645789,-0.017435725024022086,-0.8703069769826113
11881,6.0,300.25957,6368.6945,0.0,0.0,0.0,0.0,0.0,-0.11841566466537518,-0.49254911133331253,-0.7919948120613022,-0.6513801884362194,0.008658744130951511,-0.014028348335990185,-0.8630625427426412
11882,6.0,300.61652999999995,6469.6357,0.0,0.0,0.0,0.0,0.0,-0.11842563147495899,-0.48288589711712754,-0.8100398438872083,-0.6736819649922333,0.012858939170328487,-0.009755473778865301,-0.8571963211561902
11883,6.0,300.52214,6471.3811,0.0,0.0,0.0,0.0,0.0,-0.11843559828454281,-0.4712226487935545,-0.8071292829749582,-0.6887863525104203,0.0035080114720637766,-0.004338423124644026,-0.8672855867744231
11884,6.0,299.36411,6561.8374,0.0,0.0,0.0,0.0,0.0,-0.11844556509412663,-0.44820688555457555,-0.8556978458483021,-0.6907299891172424,-0.016857358827191783,0.02023135703042948,-0.8905520483531442
11885,6.0,298.8049,6428.0539,0.0,0.0,0.0,0.0,0.0,-0.1184555319037105,-0.46862688442237255,-0.8251359632845793,-0.6602050192546624,0.006170839017014394,0.010907508643737289,-0.8831127458539422
11886,6.0,298.76037,6278.4814,0.0,0.0,0.0,0.0,0.0,-0.11846549871329431,-0.45206807771064556,-0.8186529864947591,-0.6377805178465363,-0.007462004063717462,0.004200253605232756,-0.8824732127883251
11887,6.0,299.66834,6277.0107,0.0,0.0,0.0,0.0,0.0,-0.11847546552287813,-0.47339819808326455,-0.8145357257734173,-0.6201205919861374,-0.017736648144720882,-0.017472502962901783,-0.8753514628704631
11888,6.0,299.71139,6150.2355,0.0,0.0,0.0,0.0,0.0,-0.11848543233246189,-0.4039198515087856,-0.8191617798999732,-0.6464363790783033,-0.014724984124242788,-0.03751169711186626,-0.8903261037133452
11889,6.0,300.48527,6140.1123,0.0,0.0,0.0,0.0,0.0,-0.11849539914204571,-0.4101263731413216,-0.8105419701067642,-0.6457724773477813,0.004018952866164767,-0.014595401595453986,-0.8722177538886902
11890,6.0,301.27112999999997,6236.2029,0.0,0.0,0.0,0.0,0.0,-0.11850536595162958,-0.41719452212889363,-0.7993968269568242,-0.6790586043953664,0.008732219252677942,-0.025006030628653076,-0.8554013587365412
11891,6.0,300.76765,6371.7238,0.0,0.0,0.0,0.0,0.0,-0.1185153327612134,-0.4489213788625906,-0.8198017891931372,-0.6681217652009843,0.02031953816013228,0.002326095456442748,-0.8798633743732542
11892,6.0,299.74354,6372.7442,0.0,0.0,0.0,0.0,0.0,-0.11852529957079722,-0.43363479884392264,-0.8430205368246492,-0.6604997737087523,-6.855924058102024e-06,-0.004723164218790016,-0.9014588649470631
11893,6.0,299.35278,6351.8431,0.0,0.0,0.0,0.0,0.0,-0.11853526638038103,-0.4703449816894355,-0.8174767044536692,-0.6429800107346865,0.017144036664734682,0.0016159434184811986,-0.8863691594228252
11894,6.0,299.5151,6400.6496,0.0,0.0,0.0,0.0,0.0,-0.11854523318996485,-0.4612567362424956,-0.8154054793942552,-0.6689754284102344,-0.014319368963461686,-0.012996462540150987,-0.8633231506683612
11895,6.0,300.02342000000004,6250.2076,0.0,0.0,0.0,0.0,0.0,-0.11855519999954867,-0.4731259884438996,-0.8060434031077902,-0.6207376511645364,-0.006148344256844333,0.007418381113787213,-0.8892249541671702
11896,6.0,299.41577,6138.9027,0.0,0.0,0.0,0.0,0.0,-0.11856516680913248,-0.4358490644199536,-0.7956020837423122,-0.6346219943698144,-0.025692037423356677,0.012781577525193488,-0.8810846649837861
11897,6.0,299.4011,6293.6487,0.0,0.0,0.0,0.0,0.0,-0.11857513361871636,-0.46395169779846757,-0.8103256108129112,-0.6388347640455824,-0.013194907572235988,0.01961682084477948,-0.8956664484978961
11898,6.0,300.29832000000005,6398.0332,0.0,0.0,0.0,0.0,0.0,-0.11858510042830012,-0.4835001698577515,-0.7951330705360242,-0.6662090935172184,0.002791963534420347,0.00956270487251549,-0.8559374389669482
11899,6.0,299.85015,6262.8449,0.0,0.0,0.0,0.0,0.0,-0.11859506723788393,-0.45178391172010063,-0.7957163783535922,-0.6562481864216534,0.014965434452473385,0.0015703765482340986,-0.8741613094355041
11900,6.0,299.80933,6193.1139,0.0,0.0,0.0,0.0,0.0,-0.1186050340474678,-0.4110647035289276,-0.8089447130466272,-0.6625425872353623,0.01046079808540039,-0.011662398206739089,-0.8799294788097781
11901,6.0,300.88112,6236.0264,0.0,0.0,0.0,0.0,0.0,-0.11861500085705157,-0.43089046161057754,-0.8088026047201022,-0.6559032355576093,0.0017221727616152183,-0.03346557465354507,-0.8623960876218671
11902,6.0,300.1102,6219.0555,0.0,0.0,0.0,0.0,0.0,-0.11862496766663544,-0.43169282396726455,-0.7982272323663943,-0.6605175359830053,-0.01101535391813079,-0.018802943913956083,-0.8609338765350582
11903,6.0,301.1314,6449.8638,0.0,0.0,0.0,0.0,0.0,-0.11863493447621926,-0.4642931124196626,-0.8392103111486091,-0.6570941387976423,0.010309248294443591,0.0034598550385361066,-0.8815985854345061
11904,6.0,300.83418,6394.8454,0.0,0.0,0.0,0.0,0.0,-0.11864490128580307,-0.4575889127355095,-0.8181345266835912,-0.6681498828912594,0.002889963057592148,0.023761577120835077,-0.8864225273055922
11905,6.0,300.79887,6176.3061,0.0,0.0,0.0,0.0,0.0,-0.11865486809538689,-0.43141541635488656,-0.8002817894616633,-0.6457456059551294,-0.004693450862257535,0.015396810483796885,-0.8881200353306232
11906,6.0,300.2381,6300.2945,0.0,0.0,0.0,0.0,0.0,-0.11866483490497065,-0.45443124038887156,-0.8099282141236912,-0.6507727551337703,-0.017789105115647984,-0.00973903460659288,-0.8579718931802331
11907,6.0,300.0593,6473.3283,0.0,0.0,0.0,0.0,0.0,-0.11867480171455458,-0.5069962845716376,-0.7889000118833692,-0.6718338778698414,-0.01027121291218979,0.00974814960184246,-0.8521232312180153
11908,6.0,299.08589,6399.6753,0.0,0.0,0.0,0.0,0.0,-0.11868476852413834,-0.44661895039535854,-0.8245271114319902,-0.6741954396129094,0.01123381874569159,0.010130155832643541,-0.8818257155769222
11909,6.0,299.72127,6276.526999999999,0.0,0.0,0.0,0.0,0.0,-0.11869473533372216,-0.45811528602995855,-0.8033165140411672,-0.6464756729171814,-0.015307917039273786,0.008667022485593522,-0.8662092517231971
11910,6.0,299.51915,6212.9053,0.0,0.0,0.0,0.0,0.0,-0.11870470214330597,-0.43374515191231355,-0.8046296253757613,-0.6501932976665824,-0.014243311371205386,-0.005886567243158954,-0.8655662938722422
11911,6.0,300.46522000000004,6390.3413,0.0,0.0,0.0,0.0,0.0,-0.11871466895288979,-0.4628565365603836,-0.8317670671065183,-0.6478805948433364,-0.012759354924000288,0.013949707969228987,-0.8695131765892692
11912,6.0,300.2138,6484.8123,0.0,0.0,0.0,0.0,0.0,-0.11872463576247366,-0.47139812344587256,-0.8181442234870482,-0.6816786665039464,0.012232075783961887,-0.008971177063511242,-0.8801891646779072
11913,6.0,299.92606,6393.4082,0.0,0.0,0.0,0.0,0.0,-0.11873460257205748,-0.4682167917093995,-0.8224318216827012,-0.6527878258726424,0.02097453544877548,-0.014254834051342589,-0.8587887348808491
11914,6.0,300.43831,6319.814,0.0,0.0,0.0,0.0,0.0,-0.11874456938164124,-0.4598177893779826,-0.7899025519298123,-0.6713452988041223,0.023507128742472978,-0.007171850170381504,-0.8592276241616641
11915,6.0,301.39164,6342.8699,0.0,0.0,0.0,0.0,0.0,-0.11875453619122511,-0.47236734782902756,-0.8015855181003312,-0.6541211920767354,0.00943860433074272,0.02006769586102738,-0.8714985388352092
11916,6.0,300.68845,6349.0736,0.0,0.0,0.0,0.0,0.0,-0.11876450300080887,-0.4617054540492806,-0.8019744034887112,-0.6662799804942144,0.005084084005735025,0.012735534427399386,-0.8864862202068783
11917,6.0,299.6376,6374.161,0.0,0.0,0.0,0.0,0.0,-0.11877446981039275,-0.45016836549565853,-0.8060533228262692,-0.6813641030104014,-0.03636845209028677,0.008501371495645043,-0.8826631465195701
11918,6.0,299.20336000000003,6154.8973,0.0,0.0,0.0,0.0,0.0,-0.11878443661997656,-0.4413540522132536,-0.7969889495516852,-0.6325920997819794,-0.037139040950337966,0.0028308917926622673,-0.8484539182333821
11919,6.0,299.5526,6270.1534,0.0,0.0,0.0,0.0,0.0,-0.11879440342956038,-0.44387865602991255,-0.8194761306109972,-0.6426152710961894,-0.018096544447739882,0.013088158634450685,-0.9015579405418411
11920,6.0,299.71832,6527.7484,0.0,0.0,0.0,0.0,0.0,-0.1188043702391442,-0.4745565658625866,-0.8478652604552863,-0.6618506995370784,0.0004090755618601146,-0.02054031522442128,-0.8866110019566932
11921,6.0,299.42241,6412.2158,0.0,0.0,0.0,0.0,0.0,-0.11881433704872801,-0.4780855234433675,-0.8236553211784512,-0.6474126556821544,0.01094082937327579,-0.02254097450712098,-0.8857357767853152
11922,6.0,299.99438,6384.5217,0.0,0.0,0.0,0.0,0.0,-0.11882430385831183,-0.4338358377962636,-0.8512656264658762,-0.6556337110310093,0.003142827827372957,-0.011664802649226388,-0.877342701966983
11923,6.0,300.41595,6525.0175,0.0,0.0,0.0,0.0,0.0,-0.11883427066789565,-0.47300223007668557,-0.8197218944227522,-0.6907182658135853,0.016815898659599985,0.003688439802795666,-0.8715915045318842
11924,6.0,301.46682999999996,6534.854,0.0,0.0,0.0,0.0,0.0,-0.11884423747747946,-0.4605897137016655,-0.8418689071584922,-0.6839738097029593,0.0018317880826084084,-0.00910174345814714,-0.8850601010886311
11925,6.0,300.90041,6391.0887,0.0,0.0,0.0,0.0,0.0,-0.11885420428706334,-0.4677679725776046,-0.8165245938647032,-0.6584388027403504,0.013674285313796887,-0.009035264423061172,-0.8504780575606492
11926,6.0,300.22082,6289.8098,0.0,0.0,0.0,0.0,0.0,-0.1188641710966471,-0.4464723939008946,-0.8040327602718552,-0.6614399684765424,0.030640250366207267,-0.042372576002097664,-0.8880802753966992
11927,6.0,299.40715,6355.4415,0.0,0.0,0.0,0.0,0.0,-0.11887413790623097,-0.4695982974257436,-0.8212838701144073,-0.6410133530855924,0.012792297711251488,-0.003945284314994246,-0.8623959558993541
11928,6.0,300.29475,6450.2815,0.0,0.0,0.0,0.0,0.0,-0.11888410471581473,-0.43323938812489854,-0.8308453438880513,-0.6966397804579934,0.02063555566757078,-0.017271925039356286,-0.9250880700615841
11929,6.0,298.17315,6311.8841,0.0,0.0,0.0,0.0,0.0,-0.11889407152539855,-0.42828019763046465,-0.8209287259543573,-0.6694462350691994,0.004317210227175476,0.01763626647056398,-0.8643014639049132
11930,6.0,298.9002,6273.1856,0.0,0.0,0.0,0.0,0.0,-0.11890403833498242,-0.43474285875577956,-0.8028400129166402,-0.6693089092831463,-1.840270505820558e-05,0.03104507620516047,-0.8738928994840142
11931,6.0,299.43847999999997,6353.8791,0.0,0.0,0.0,0.0,0.0,-0.11891400514456624,-0.46806226093664854,-0.7955739457870352,-0.6677843934476884,-0.0001811489846005128,0.034079639677898566,-0.866271070111798
11932,6.0,299.10871000000003,6385.0975,0.0,0.0,0.0,0.0,0.0,-0.11892397195415005,-0.49710714598065553,-0.7983676485652522,-0.6454353994370144,0.004208465389343196,-0.019872856986048282,-0.8596137940397761
11933,6.0,300.11713,6589.2811,0.0,0.0,0.0,0.0,0.0,-0.11893393876373387,-0.5216486004252086,-0.8068848769183372,-0.6744434427073853,-0.02105878212833998,-0.03775502912338126,-0.8612230378485962
11934,6.0,301.42233,6609.2197,0.0,0.0,0.0,0.0,0.0,-0.11894390557331763,-0.47328480526457356,-0.8410363499488253,-0.6947166115031913,0.015681888399431885,-0.04785867681353365,-0.8446230222553023
11935,6.0,300.42316,6391.1378,0.0,0.0,0.0,0.0,0.0,-0.1189538723829015,-0.4371295085713236,-0.8279942100941662,-0.6776225858236423,0.001089291378929689,-0.004308406806331646,-0.8940647128723171
11936,6.0,300.29971,6425.003000000001,0.0,0.0,0.0,0.0,0.0,-0.11896383919248532,-0.4560917343877495,-0.8236611473665262,-0.6732875979208124,0.018459049869766382,-0.01208384337383249,-0.879281039275782
11937,6.0,300.06642999999997,6328.0444,0.0,0.0,0.0,0.0,0.0,-0.1189738060020692,-0.4587119180863416,-0.8067552417005432,-0.6581003366769463,0.014930995094824486,0.01119018211688499,-0.8903731793129911
11938,6.0,298.96018,6102.3391,0.0,0.0,0.0,0.0,0.0,-0.11898377281165295,-0.4545412590847296,-0.7912893873416823,-0.6091280645662595,0.0034337203800318167,0.03946897206503426,-0.8763014456342191
11939,6.0,300.14444,6188.9971,0.0,0.0,0.0,0.0,0.0,-0.11899373962123677,-0.43339106153236756,-0.8130058498449302,-0.6349036677651134,0.0019197442707890083,0.01827470319957278,-0.8938964525607112
11940,6.0,299.88819,6193.559,0.0,0.0,0.0,0.0,0.0,-0.11900370643082064,-0.4134537952772126,-0.8057175216106283,-0.6635159760764283,-0.02257254839348708,-0.007273851626148264,-0.8828052447135942
11941,6.0,299.78012,6161.0686,0.0,0.0,0.0,0.0,0.0,-0.1190136732404044,-0.4026632389997676,-0.8062314927238532,-0.6639162909259364,-0.029907758696665974,-0.011054023594947188,-0.8791629652416292
11942,6.0,301.41782,6478.4307,0.0,0.0,0.0,0.0,0.0,-0.11902364004998828,-0.44546318666879353,-0.8252503288233662,-0.6985676306282573,-0.005630889083150485,-0.013177911315058587,-0.8639990796775703
11943,6.0,300.55279,6578.7018,0.0,0.0,0.0,0.0,0.0,-0.1190336068595721,-0.4853059233909655,-0.8318695066916282,-0.6825856469334584,-0.0001995066142147698,0.025849864298682974,-0.8622608491310202
11944,6.0,300.55666,6441.0124,0.0,0.0,0.0,0.0,0.0,-0.11904357366915586,-0.5015275609994165,-0.8174647683674913,-0.6389146182859634,0.01037701547438169,0.003167233577231617,-0.9006207753918501
11945,6.0,300.29124,6356.6995,0.0,0.0,0.0,0.0,0.0,-0.11905354047873973,-0.46683641070066656,-0.8194361781595543,-0.6460053424857634,0.010483126064603991,0.003994428262069376,-0.8706969566810993
11946,6.0,299.65013999999996,6391.2451,0.0,0.0,0.0,0.0,0.0,-0.11906350728832354,-0.46065505820061453,-0.8138244849982232,-0.6682993778110133,0.012575491574104388,0.014775698304997883,-0.8813918216191001
11947,6.0,299.17661,6396.5331,0.0,0.0,0.0,0.0,0.0,-0.11907347409790742,-0.45237503169593957,-0.8095380520401853,-0.6824732673648674,0.0027687747992567974,0.019052043345040282,-0.8769596225016761
11948,6.0,299.97619,6243.1597,0.0,0.0,0.0,0.0,0.0,-0.11908344090749118,-0.44828397362218353,-0.7849592694619483,-0.6645214140181575,-0.00948111888638858,0.017262044837631184,-0.8702156324860962
11949,6.0,300.09797000000003,6224.4367,0.0,0.0,0.0,0.0,0.0,-0.119093407717075,-0.4659275456259685,-0.7880986425117803,-0.6380471647428524,-0.017354110768217385,0.016083343155302382,-0.8587705065115502
11950,6.0,299.83704,6316.415,0.0,0.0,0.0,0.0,0.0,-0.11910337452665881,-0.5003525353884505,-0.7938393325433423,-0.6258405813181565,0.007669154535361623,-0.0035884115502736466,-0.8563612814837781
11951,6.0,298.78504,6581.2105,0.0,0.0,0.0,0.0,0.0,-0.11911334133624263,-0.4839038081675875,-0.8276981282824452,-0.6889217227237804,-0.016450154890253886,0.0006042695303367595,-0.8788259075958641
11952,6.0,298.00304,6693.6159,0.0,0.0,0.0,0.0,0.0,-0.1191233081458265,-0.4812033446635725,-0.8703479021541501,-0.6831408471932524,-0.026022106683181973,-0.021427914206020478,-0.8636984382403993
11953,6.0,298.86752,6518.9226,0.0,0.0,0.0,0.0,0.0,-0.11913327495541032,-0.4479915597758246,-0.8295642917866212,-0.7040338413402304,-0.023847735803338276,-0.015784872099845585,-0.8591179297058381
11954,6.0,298.78064,6296.1328,0.0,0.0,0.0,0.0,0.0,-0.11914324176499408,-0.43505497018408257,-0.8155241613784682,-0.6632880353339323,-0.017719571840785587,0.028298715511365768,-0.8555042948142001
11955,6.0,299.18915,6499.6234,0.0,0.0,0.0,0.0,0.0,-0.11915320857457795,-0.4851981135803255,-0.8280820892753392,-0.6624430252805364,-0.011844604892721489,0.024205765699673077,-0.8773516590978672
11956,6.0,299.11412,6357.6367,0.0,0.0,0.0,0.0,0.0,-0.11916317538416171,-0.4601576638590256,-0.8166593763930052,-0.6557457562270673,-0.01165916593892009,0.015011315430251485,-0.8918465361509001
11957,6.0,299.81608,6105.2122,0.0,0.0,0.0,0.0,0.0,-0.11917314219374558,-0.4037995280594106,-0.8347656085249512,-0.6172669351995034,-0.005823576524192254,-0.0055099627499659845,-0.9160613187632132
11958,6.0,300.11524,6053.5509,0.0,0.0,0.0,0.0,0.0,-0.1191831090033294,-0.4039771913319446,-0.8109666130911732,-0.6251845120109074,0.021934036683970877,-0.0005724098365149525,-0.9045290634125682
11959,6.0,299.81043999999997,6269.0275,0.0,0.0,0.0,0.0,0.0,-0.11919307581291322,-0.43896467675494055,-0.8067358582261301,-0.6599272772697513,0.005610539576092145,-0.015942620954914184,-0.8861431843855232
11960,6.0,300.24309,6487.4122,0.0,0.0,0.0,0.0,0.0,-0.11920304262249704,-0.4385584445248486,-0.8583252540201072,-0.6751276195724083,0.027119381560974577,-0.024120524008510377,-0.8892253392022081
11961,6.0,300.66904,6462.4576,0.0,0.0,0.0,0.0,0.0,-0.11921300943208085,-0.4889257289757125,-0.8033471749891932,-0.6721528287363193,-0.0033401704433491564,-0.027381563064099872,-0.8414746515445822
11962,6.0,300.75432,6417.986999999999,0.0,0.0,0.0,0.0,0.0,-0.11922297624166467,-0.47758983136194655,-0.8219832457309302,-0.6513347239042324,0.004843028260569675,0.012783980954430688,-0.8498567832618341
11963,6.0,300.28001,6480.6552,0.0,0.0,0.0,0.0,0.0,-0.11923294305124849,-0.4786959559661125,-0.8205894796883763,-0.6706719029201634,-0.015765302187414183,0.013112353020338488,-0.8622249598124783
11964,6.0,300.02878,6615.7029,0.0,0.0,0.0,0.0,0.0,-0.1192429098608323,-0.4906192650603516,-0.8296216721397842,-0.6907675604309503,-0.029661263318338772,0.01015889109885449,-0.8591191962684632
11965,6.0,299.34087999999997,6553.0844,0.0,0.0,0.0,0.0,0.0,-0.11925287667041617,-0.4765298096373306,-0.8341399873832072,-0.6813042503269944,-0.016909166304804785,0.0012163035961898188,-0.8709708381831291
11966,6.0,299.42253,6335.7308,0.0,0.0,0.0,0.0,0.0,-0.11926284347999994,-0.46117530133195855,-0.7821377225709832,-0.6825909360989804,0.013663178066200687,0.009715599145029981,-0.8572045588795032
11967,6.0,299.00661,6154.0781,0.0,0.0,0.0,0.0,0.0,-0.11927281028958381,-0.46200398792624353,-0.7747299524148933,-0.6339521347287044,0.02260882781331758,0.02351893513263818,-0.8774837767784063
11968,6.0,299.86197000000004,6363.6607,0.0,0.0,0.0,0.0,0.0,-0.11928277709916757,-0.46312203848408656,-0.8095295508718462,-0.6617423628363864,0.033787114374028565,-0.023638173391156078,-0.8706539340818532
11969,6.0,300.15154,6407.4323,0.0,0.0,0.0,0.0,0.0,-0.11929274390875139,-0.4786997252564846,-0.8057946299432382,-0.6632050805482453,0.008825163265800802,-0.023987832828414775,-0.8920036304464041
11970,6.0,299.72504,6336.7642,0.0,0.0,0.0,0.0,0.0,-0.11930271071833526,-0.4335617029817086,-0.8245094099527432,-0.6681469849959734,0.006228498723229964,-0.00958558760614884,-0.8817443313288902
11971,6.0,299.62523999999996,6324.6284,0.0,0.0,0.0,0.0,0.0,-0.11931267752791908,-0.42976540949454356,-0.8414850474906083,-0.6512786405111974,-0.0034123521513229373,-0.004910594513012945,-0.9177374674761362
11972,6.0,300.19555,6375.8057,0.0,0.0,0.0,0.0,0.0,-0.11932264433750289,-0.4260801986158416,-0.8475987452814832,-0.6644067850343444,-0.028641660140211772,-0.006844589842483423,-0.8839814760921793
11973,6.0,300.86296,6276.857,0.0,0.0,0.0,0.0,0.0,-0.11933261114708671,-0.4402445230887516,-0.8323101488951161,-0.6354531228968404,-0.026257340799897774,-0.014440748219440884,-0.8771869046316071
11974,6.0,300.9225,6334.1237,0.0,0.0,0.0,0.0,0.0,-0.11934257795667047,-0.43371244419908556,-0.8274475110027112,-0.6642554966619133,0.010415106585390991,0.024068292992355578,-0.8655767607457753
11975,6.0,300.03357,6327.7022,0.0,0.0,0.0,0.0,0.0,-0.11935254476625434,-0.4468528693134446,-0.8224815722626112,-0.6541290447650104,0.01014201237868869,0.01357405664040509,-0.8992060452047271
11976,6.0,299.31281,6196.387,0.0,0.0,0.0,0.0,0.0,-0.11936251157583816,-0.43225639367288454,-0.8018351018649632,-0.6494554185462594,0.02042810993484748,0.0061729653223492435,-0.9051778981141032
11977,6.0,299.86569,6314.1215,0.0,0.0,0.0,0.0,0.0,-0.11937247838542198,-0.4472525762128926,-0.7990903694640793,-0.6729923267091713,0.005025726170200555,-0.015875178015008085,-0.892876626467562
11978,6.0,299.12165,6404.0731,0.0,0.0,0.0,0.0,0.0,-0.11938244519500579,-0.4695232155933336,-0.8028283301429872,-0.6743267568258693,0.036665641384367065,0.01160738480580969,-0.8892141326561022
11979,6.0,299.25142,6371.7159,0.0,0.0,0.0,0.0,0.0,-0.11939241200458961,-0.4774189771300845,-0.8046145279492712,-0.6548090166421184,0.01916489812792818,-0.006824171738393312,-0.8658782229155271
11980,6.0,300.21045,6473.9946,0.0,0.0,0.0,0.0,0.0,-0.11940237881417348,-0.46153150940461357,-0.8364872217698611,-0.6699139715803614,0.005999825400911664,-0.029460653984040176,-0.8758410957162861
11981,6.0,300.23068,6674.6036,0.0,0.0,0.0,0.0,0.0,-0.11941234562375724,-0.5071214412239895,-0.8408891855043013,-0.6809022129523163,-0.025181664361236776,-0.006449949700160474,-0.8444246988132292
11982,6.0,299.38655,6650.9623,0.0,0.0,0.0,0.0,0.0,-0.11942231243334112,-0.49268766315198653,-0.8477791544617883,-0.6812596470575923,0.001986441965246558,0.0058552842608965636,-0.8607602966604271
11983,6.0,300.82392000000004,6523.9415,0.0,0.0,0.0,0.0,0.0,-0.11943227924292493,-0.48891456295961055,-0.8468860555586462,-0.6473146743974844,0.01011747551426709,0.025651033218309877,-0.8642116190185462
11984,6.0,299.98519,6399.5627,0.0,0.0,0.0,0.0,0.0,-0.1194422460525087,-0.48072914361677255,-0.8011720208670222,-0.6634060992355844,-0.025511951469833576,-0.014166985267672587,-0.8668585221222752
11985,6.0,300.47839,6362.608,0.0,0.0,0.0,0.0,0.0,-0.11945221286209257,-0.46160434182180154,-0.8221250399499243,-0.6503445860390134,0.004550040002728985,-0.019449160377232683,-0.8648167725082703
11986,6.0,300.33365,6253.4208,0.0,0.0,0.0,0.0,0.0,-0.11946217967167638,-0.4333860560768736,-0.8168647115257702,-0.6506329975474774,-0.001035321726928299,-0.02181044347652318,-0.8780780276970541
11987,6.0,299.2672,6178.9457,0.0,0.0,0.0,0.0,0.0,-0.1194721464812602,-0.42402391899540254,-0.8062152300597483,-0.6480060554707183,0.009983139829259191,0.0014278750806702987,-0.9193920947569352
11988,6.0,299.3629,6218.9728,0.0,0.0,0.0,0.0,0.0,-0.11948211329084402,-0.42506227743288055,-0.8209936651532662,-0.6443564907305344,-0.0019343879638842282,0.0008043697875201172,-0.9202673604583171
11989,6.0,299.44554,6194.0829,0.0,0.0,0.0,0.0,0.0,-0.11949208010042783,-0.4258174831299136,-0.8199132163066342,-0.6371158460459384,-0.011877958046263189,0.0024555292401168675,-0.9188187775853532
11990,6.0,298.35992000000005,6200.5214,0.0,0.0,0.0,0.0,0.0,-0.11950204691001165,-0.43858204311967763,-0.8212788342614102,-0.6249428011995524,0.002731719533824727,0.01174949110583449,-0.9009605992103881
11991,6.0,299.57337,6489.2908,0.0,0.0,0.0,0.0,0.0,-0.11951201371959547,-0.44528567538377456,-0.8688405305103842,-0.6584561597145634,0.024457092254477078,-0.016747658291865183,-0.8876442434811662
11992,6.0,299.32335,6515.3319,0.0,0.0,0.0,0.0,0.0,-0.11952198052917934,-0.46843206682564553,-0.8294395100368062,-0.6826266430325043,0.008684066973475681,0.0004591415361287416,-0.8491114770182782
11993,6.0,299.00408999999996,6457.8697,0.0,0.0,0.0,0.0,0.0,-0.1195319473387631,-0.4732851497696075,-0.8212473120507993,-0.6684986739731823,0.0009718925645108281,-0.019740561986741782,-0.8476654171380631
11994,6.0,299.87552,6531.8021,0.0,0.0,0.0,0.0,0.0,-0.11954191414834692,-0.4703039247953836,-0.8248345720423342,-0.6903662221988414,-0.016527826589919484,0.02236502970675658,-0.8502542914085651
11995,6.0,299.71462,6487.9904,0.0,0.0,0.0,0.0,0.0,-0.11955188095793073,-0.4823487023116106,-0.8197695881049593,-0.6700687860631404,-0.02065819066155468,0.024508640340064478,-0.8866574290762751
11996,6.0,300.28503,6438.1371,0.0,0.0,0.0,0.0,0.0,-0.11956184776751455,-0.4778605312586625,-0.8133907328954152,-0.6657816640950344,-0.015873221429064985,0.02026197947495168,-0.8823908760851992
11997,6.0,301.34017,6388.541,0.0,0.0,0.0,0.0,0.0,-0.11957181457709842,-0.48196042487329055,-0.7960638927403894,-0.6639326143850474,-0.00979748231741122,0.009784357688865921,-0.8775137588488652
11998,6.0,299.96136,6401.4467,0.0,0.0,0.0,0.0,0.0,-0.11958178138668224,-0.43141649039999264,-0.8344743193862032,-0.6799891428897034,-0.015878489316334884,0.0012349651299065688,-0.8593060902494082
11999,6.0,300.19842,6455.5068,0.0,0.0,0.0,0.0,0.0,-0.11959174819626606,-0.46328785686295154,-0.8189565663572203,-0.6800684601075314,0.019931351914321282,-0.006831031542895322,-0.8751176351448862
12000,6.0,299.98312000000004,6794.2067,0.0,0.0,0.0,0.0,0.0,-0.11960171500584987,-0.5077632844998345,-0.8584377653112112,-0.6990681255151523,0.003217457851563367,-0.011899627412901789,-0.8800102753727521
12001,6.0,299.94725,6672.703,0.0,0.0,0.0,0.0,0.0,-0.11961168181543369,-0.5215543479009065,-0.8300285427174393,-0.6767521938552413,0.014756996747902186,-0.007697442755628452,-0.8661687318516983
12002,6.0,299.1847,6352.6646,0.0,0.0,0.0,0.0,0.0,-0.11962164862501751,-0.4652999993090346,-0.8211732333359882,-0.6445781797199134,-0.010761172024544989,-0.004459022380696246,-0.8575910935276512
12003,6.0,299.58659,6325.8669,0.0,0.0,0.0,0.0,0.0,-0.11963161543460132,-0.4172074714651716,-0.8481081466367573,-0.6575899524690754,-0.007008610006395953,-0.017032350159212086,-0.8684370745855661
12004,6.0,299.01016,6345.4314,0.0,0.0,0.0,0.0,0.0,-0.11964158224418514,-0.4310925746080246,-0.8065546181807433,-0.6912055073891723,-0.005775866326008625,-0.006736841840099524,-0.8514740520114462
12005,6.0,299.02765,6332.5679,0.0,0.0,0.0,0.0,0.0,-0.11965154905376896,-0.41953244474712864,-0.8254086086214872,-0.6800014741434204,-0.013683329584189486,0.016415810778114385,-0.8675887410718423
12006,6.0,299.3625,6250.6196,0.0,0.0,0.0,0.0,0.0,-0.11966151586335277,-0.44112043727019756,-0.8114951547408362,-0.6474166884175524,-0.013711311498951087,0.025828003427775473,-0.8952467299089731
12007,6.0,300.06131,6375.8366,0.0,0.0,0.0,0.0,0.0,-0.11967148267293665,-0.44947099611433355,-0.8462743058107711,-0.6423498299674925,-0.018273253238679683,0.019161549336347682,-0.9361922677749831
12008,6.0,300.17719,6418.4471,0.0,0.0,0.0,0.0,0.0,-0.11968144948252041,-0.46523438123255856,-0.8542595170663502,-0.6315537514770024,-0.005146007265721375,0.02278624283957708,-0.9377175131505131
12009,6.0,300.29996,6427.6681,0.0,0.0,0.0,0.0,0.0,-0.11969141629210422,-0.4518203177961935,-0.8421629320725101,-0.6598673637913384,0.01017337449578389,-0.015783560954216184,-0.909026576631438
12010,6.0,299.88892000000004,6459.0698,0.0,0.0,0.0,0.0,0.0,-0.1197013831016881,-0.4572705799515926,-0.8338058478977303,-0.6723194982452684,0.01936120013605168,-0.02139971646898758,-0.8551120251704861
12011,6.0,300.16949,6341.5286,0.0,0.0,0.0,0.0,0.0,-0.11971134991127186,-0.44590142746954453,-0.8075757007040163,-0.6741892081247944,0.0005628251897115215,-0.03326762611400907,-0.8438222304362701
12012,6.0,300.76617999999996,6448.6864,0.0,0.0,0.0,0.0,0.0,-0.11972131672085573,-0.47118365892970654,-0.8150152666482442,-0.6740407061901383,0.013140616618627886,-0.01962590665842618,-0.8414032680750373
12013,6.0,300.27907999999996,6605.2296,0.0,0.0,0.0,0.0,0.0,-0.11973128353043949,-0.5229634646824755,-0.8091527636896602,-0.6757086374447503,0.007883263096767493,0.023262052927535876,-0.8209631865902581
12014,6.0,300.18908999999996,6711.9742,0.0,0.0,0.0,0.0,0.0,-0.11974125034002331,-0.5020959841730155,-0.8341658657907611,-0.7040106987079464,0.01042935389504709,0.015786872255542986,-0.8581454527898622
12015,6.0,299.42264,6626.348000000001,0.0,0.0,0.0,0.0,0.0,-0.11975121714960718,-0.48002887634016156,-0.8388590983989472,-0.6953563573513294,-0.010440892787185891,-0.0012427296654228689,-0.8469625863386993
12016,6.0,299.49318999999997,6662.1074,0.0,0.0,0.0,0.0,0.0,-0.119761183959191,-0.47446109743816456,-0.8493775564945383,-0.7012756428455174,-0.02119487985527178,0.007978602230476731,-0.8751834153413781
12017,6.0,299.65134,6514.4942,0.0,0.0,0.0,0.0,0.0,-0.11977115076877481,-0.4586760895628056,-0.8248688705582191,-0.6966985996262983,-0.016984399111479684,-0.008528472288119681,-0.8549433798238422
12018,6.0,299.14271,6199.8723,0.0,0.0,0.0,0.0,0.0,-0.11978111757835863,-0.45713196733791256,-0.8000558245568623,-0.6274185663613914,-0.02323385215075268,0.004108455172672956,-0.8938163146103022
12019,6.0,299.08031,6141.5558,0.0,0.0,0.0,0.0,0.0,-0.11979108438794239,-0.4314514171309396,-0.8056039565394203,-0.6298242348813125,-0.02787053527085767,-0.009008699031939372,-0.9222103789825782
12020,6.0,300.52701,6200.2718,0.0,0.0,0.0,0.0,0.0,-0.11980105119752632,-0.46094324679405657,-0.8025260675056562,-0.6212585022459405,-0.006673318050255214,-0.01803890976880178,-0.9135508497854491
12021,6.0,300.20165,6324.5598,0.0,0.0,0.0,0.0,0.0,-0.11981101800711008,-0.43749070183447064,-0.8483933056124002,-0.6366242576274224,0.015169575976620586,0.009015005196586741,-0.8897448933234842
12022,6.0,300.73642,6335.1218,0.0,0.0,0.0,0.0,0.0,-0.11982098481669395,-0.44102758303103357,-0.8093759117591832,-0.6753153342859344,0.04733583368243305,-0.006445246193196274,-0.8585209328794191
12023,6.0,301.23883,6521.0011,0.0,0.0,0.0,0.0,0.0,-0.11983095162627772,-0.44271332722240353,-0.8556482776534101,-0.6838598899942163,0.059017844358107745,-0.015428683278942486,-0.8773414759343621
12024,6.0,299.97105,6479.89,0.0,0.0,0.0,0.0,0.0,-0.11984091843586153,-0.45166816816117755,-0.8336176062941523,-0.6844389928238693,0.003026840075175857,-0.0028449841763780776,-0.8752511713755652
12025,6.0,299.87462999999997,6545.0915,0.0,0.0,0.0,0.0,0.0,-0.1198508852454454,-0.4583296593536156,-0.8608931945435432,-0.6703215210355834,0.021837756646218776,-0.008693922654548361,-0.9014842873920721
12026,6.0,299.7132,6542.8511,0.0,0.0,0.0,0.0,0.0,-0.11986085205502922,-0.45438567453187456,-0.8535743269512271,-0.6809033477924283,-0.012471020422543886,-0.00040698855036414255,-0.8932386201982881
12027,6.0,299.50088999999997,6355.8054,0.0,0.0,0.0,0.0,0.0,-0.11987081886461304,-0.4610993379719616,-0.7988710210824312,-0.6720357679522664,-0.012277954735239788,0.004475337024531375,-0.8910375572710603
12028,6.0,299.51472,6206.9756,0.0,0.0,0.0,0.0,0.0,-0.11988078567419685,-0.4144481786603506,-0.8097155430602022,-0.6626018826312143,-0.015993929913477985,-0.0005543726168473175,-0.8695681960696992
12029,6.0,299.92307999999997,6117.3171,0.0,0.0,0.0,0.0,0.0,-0.11989075248378062,-0.47145893871687455,-0.7393003251782614,-0.6487523749643744,-0.02319927904409058,0.035793477241541166,-0.8241059641604263
12030,6.0,299.51469,6475.8698,0.0,0.0,0.0,0.0,0.0,-0.11990071929336449,-0.49024544670095854,-0.7975756821545913,-0.6806816081405443,-0.005784055413316824,0.03573554162732337,-0.8468073969533833
12031,6.0,299.82521,6657.3172,0.0,0.0,0.0,0.0,0.0,-0.1199106861029483,-0.5191530059589126,-0.8070802214051163,-0.6974249580929843,0.013140777725393788,0.005865970401751204,-0.8576302961740201
12032,6.0,300.83191,6812.974,0.0,0.0,0.0,0.0,0.0,-0.11992065291253218,-0.5175684854525325,-0.8547335053306292,-0.6986719953885574,0.00924027065484371,0.0005527668991488454,-0.8654095035517683
12033,6.0,301.38694,6760.7053,0.0,0.0,0.0,0.0,0.0,-0.11993061972211594,-0.5004962345176325,-0.8524247035202682,-0.7021646583507564,0.017876093649983084,-0.013499948541341187,-0.8533140939280442
12034,6.0,302.18241,6552.7666,0.0,0.0,0.0,0.0,0.0,-0.11994058653169976,-0.45660731656863357,-0.8516190379682552,-0.6836510692811074,0.017456930322114882,-0.018756990995420882,-0.8615008102310102
12035,6.0,301.02022,6460.8092,0.0,0.0,0.0,0.0,0.0,-0.11995055334128357,-0.4694459856707116,-0.8338369952058042,-0.6606416895177584,-0.004586727964999805,-0.01257698814450209,-0.8796455559992572
12036,6.0,300.51373,6343.9602,0.0,0.0,0.0,0.0,0.0,-0.11996052015086739,-0.45539034240352755,-0.8111509334168642,-0.6618642264259134,-0.0043931102590412255,-0.020143494061258083,-0.8714432356447512
12037,6.0,300.49403,6126.2382,0.0,0.0,0.0,0.0,0.0,-0.11997048696045126,-0.41329717720925563,-0.8240878573811392,-0.6248383959092484,-0.013225455036250788,0.00906054197330587,-0.9244935253004072
12038,6.0,300.33831000000004,6010.3791,0.0,0.0,0.0,0.0,0.0,-0.11998045377003508,-0.4067498894355886,-0.7881223120341162,-0.6321329758966674,-0.017464329074345083,0.00926867843862234,-0.9015106622921751
12039,6.0,300.54052,6215.1636,0.0,0.0,0.0,0.0,0.0,-0.11999042057961884,-0.4264333770706976,-0.8182891993113562,-0.6445319552503515,-0.017986375790867086,-9.9173151510878e-05,-0.950402857247459
12040,6.0,300.24568999999997,6352.6932,0.0,0.0,0.0,0.0,0.0,-0.12000038738920271,-0.4520475087336156,-0.8140990048478162,-0.6649135823368614,-0.007439735460969722,0.01055965481815679,-0.8766766420137483
12041,6.0,299.81857,6391.5874,0.0,0.0,0.0,0.0,0.0,-0.12001035419878647,-0.4539779730891376,-0.8370350253039252,-0.6518699631370565,0.0026563799305892874,-0.0067496075754594044,-0.8861413909328462
12042,6.0,299.65227000000004,6633.5498,0.0,0.0,0.0,0.0,0.0,-0.12002032100837035,-0.47408952849399355,-0.8519782857912103,-0.6903656851762883,0.021618727438352275,-0.006247932150872894,-0.8535330370096522
12043,6.0,299.58365,6714.1775,0.0,0.0,0.0,0.0,0.0,-0.12003028781795416,-0.4867051609840595,-0.8647028933295312,-0.6895342526742324,0.002197948804370658,-0.02336852220829358,-0.8914021651870442
12044,6.0,298.55985,6614.7244,0.0,0.0,0.0,0.0,0.0,-0.12004025462753798,-0.45949330616595857,-0.8716417820018462,-0.6795759597639254,0.02197030597130038,-0.01968642200739858,-0.8799628451355711
12045,6.0,301.03538,6446.8914,0.0,0.0,0.0,0.0,0.0,-0.1200502214371218,-0.4592266694021436,-0.8156868285495222,-0.6847804986375734,-0.00041149329818872667,-0.006923355548281993,-0.8618953900849522
12046,6.0,300.3958,6237.9145,0.0,0.0,0.0,0.0,0.0,-0.12006018824670561,-0.4519954884734816,-0.8037434064407982,-0.6404313523606534,0.026925626863602475,0.017133516088946383,-0.8654548363612421
12047,6.0,300.68087,6176.901999999999,0.0,0.0,0.0,0.0,0.0,-0.12007015505628948,-0.4594209601088186,-0.7702629076265303,-0.6479401030217093,-0.001029878750041119,-0.005520218664828165,-0.8517227035859862
12048,6.0,301.17482,6523.0122,0.0,0.0,0.0,0.0,0.0,-0.12008012186587325,-0.48450685409710353,-0.8284390167555652,-0.6698869684651964,-0.015731642019092183,0.003233869666083087,-0.8877730680988801
12049,6.0,300.84765,6755.6697,0.0,0.0,0.0,0.0,0.0,-0.12009008867545706,-0.5044271990755885,-0.8436498765942603,-0.7054778240577403,-0.03317744989485937,-0.021217542207008378,-0.8434817277401653
12050,6.0,300.53065,6608.3543,0.0,0.0,0.0,0.0,0.0,-0.12010005548504094,-0.4685619756209666,-0.8444868617068642,-0.6957258693977973,-0.022843265515454774,-0.01964049948636638,-0.8940438703177601
12051,6.0,300.47884,6578.1934,0.0,0.0,0.0,0.0,0.0,-0.1201100222946247,-0.46680358139742656,-0.8411087568009712,-0.6916941877799013,-0.00026119723197815973,0.003694438142062656,-0.8709265490212581
12052,6.0,300.11171,6589.1678,0.0,0.0,0.0,0.0,0.0,-0.12011998910420857,-0.4988372299964015,-0.8268348391972452,-0.6772704206188864,0.007678158377075233,0.015217431778843585,-0.8870452809495533
12053,6.0,300.62132,6668.5898,0.0,0.0,0.0,0.0,0.0,-0.12012995591379239,-0.49917246379198654,-0.8539893845896902,-0.6739229462635163,0.01868472599828888,0.02253717076624558,-0.8664215681491512
12054,6.0,300.27479,6379.9219,0.0,0.0,0.0,0.0,0.0,-0.12013992272337615,-0.45589872037620055,-0.8191772319639983,-0.6642610087424573,0.009343772227383522,0.01874923253940518,-0.8853494245221851
12055,6.0,300.04999,6232.8204,0.0,0.0,0.0,0.0,0.0,-0.12014988953296002,-0.3988308839415436,-0.8497324068120592,-0.6460584975860093,0.01211315264622509,0.001932282227526408,-0.912110656623313
12056,6.0,301.01052000000004,6253.9872,0.0,0.0,0.0,0.0,0.0,-0.12015985634254384,-0.41681150345859264,-0.8290499660358612,-0.6551944671126594,0.00957176109925927,-0.015372911966938286,-0.8866795077959541
12057,6.0,301.24792,6263.3968,0.0,0.0,0.0,0.0,0.0,-0.12016982315212765,-0.4171215275916896,-0.8127429621064852,-0.6740517404837274,-0.02132071031894028,-0.019974681528347582,-0.8893592402029232
12058,6.0,301.05962999999997,6346.4852,0.0,0.0,0.0,0.0,0.0,-0.12017978996171147,-0.4615238289688555,-0.8161418082419253,-0.6515074019862743,-0.008187918017584592,0.0035498165499896167,-0.8714576541936742
12059,6.0,300.71546,6322.1109,0.0,0.0,0.0,0.0,0.0,-0.12018975677129523,-0.4429441658601856,-0.8223421693138532,-0.6564775254492874,0.008575503912711342,0.014083747785207686,-0.9030455436761562
12060,6.0,300.41255,6265.7985,0.0,0.0,0.0,0.0,0.0,-0.12019972358087916,-0.45242739646110763,-0.8173107036897862,-0.6349081767280584,0.01827210826606668,0.021239346335910278,-0.8918091776197132
12061,6.0,300.71556,6415.6087,0.0,0.0,0.0,0.0,0.0,-0.12020969039046292,-0.4547320946085635,-0.8210633970251482,-0.6743893554170474,-0.014220164685920985,0.008021942686279102,-0.8770547464210642
12062,6.0,300.95561000000004,6739.7164,0.0,0.0,0.0,0.0,0.0,-0.12021965720004679,-0.48151307495414053,-0.8580991371277913,-0.7090932827995583,-0.004417555829628815,0.019271764602725085,-0.8609249801991803
12063,6.0,300.84987,6633.3593,0.0,0.0,0.0,0.0,0.0,-0.12022962400963055,-0.4884720969059425,-0.8325896944652051,-0.6953137907146284,-0.023613257571197078,0.01154851396174959,-0.8570536656746112
12064,6.0,300.03761000000003,6443.8843,0.0,0.0,0.0,0.0,0.0,-0.12023959081921437,-0.48075574143189753,-0.8023962600353453,-0.6756279118092834,1.6307831754707682e-05,0.0074824291592332625,-0.8599565664161052
12065,6.0,300.37605,6500.3833,0.0,0.0,0.0,0.0,0.0,-0.12024955762879824,-0.5152499767062135,-0.8026048173034283,-0.6580994247518563,0.006086158869057114,-0.01731342877670238,-0.8462492076057941
12066,6.0,299.10992000000005,6595.8669,0.0,0.0,0.0,0.0,0.0,-0.12025952443838206,-0.4767757254366006,-0.8328655214074272,-0.6953375716944754,0.0033972791441603464,-0.003204276683662487,-0.8732761138831422
12067,6.0,298.81452,6552.1186,0.0,0.0,0.0,0.0,0.0,-0.12026949124796588,-0.47867589361413254,-0.8411637458838982,-0.6718407983680244,0.009109513262563962,-0.005394749323495305,-0.8825147155124212
12068,6.0,300.0377,6440.0478,0.0,0.0,0.0,0.0,0.0,-0.12027945805754969,-0.4374265225731366,-0.8380680945758812,-0.6821191161899154,0.02189592632120968,-0.023501330925400778,-0.9006335524756112
12069,6.0,300.42031000000003,6136.6524,0.0,0.0,0.0,0.0,0.0,-0.12028942486713345,-0.43061661050605055,-0.8003620388695832,-0.6344104378814355,0.011439367674227688,-0.005909205783518204,-0.8688841509271893
12070,6.0,300.01549,6207.3479,0.0,0.0,0.0,0.0,0.0,-0.12029939167671733,-0.43591385163134755,-0.8021695554579712,-0.6487953671661173,-0.004308217733862986,0.014383052745496786,-0.9010897176706312
12071,6.0,300.72848,6566.3717,0.0,0.0,0.0,0.0,0.0,-0.12030935848630114,-0.4513675773865116,-0.8732144272170542,-0.6714310501600854,-0.013058325511756388,0.018924321143435084,-0.9019096599165531
12072,6.0,299.84522999999996,6540.0606,0.0,0.0,0.0,0.0,0.0,-0.12031932529588496,-0.45485392780058753,-0.8692734821456132,-0.6638877172731164,-0.031787517990683765,0.006616810409403344,-0.916578441084249
12073,6.0,300.65377,6410.7218,0.0,0.0,0.0,0.0,0.0,-0.12032929210546878,-0.4424805431444296,-0.8433928251763911,-0.6628259831558314,-0.014896192993639786,-0.001078965549810609,-0.9015423060927981
12074,6.0,299.92073999999997,6339.0704,0.0,0.0,0.0,0.0,0.0,-0.1203392589150526,-0.4205330494858806,-0.8468198700621141,-0.6595662157291173,0.013340891580393489,-0.0003518673801541067,-0.9060045582081881
12075,6.0,299.52909,6346.5695,0.0,0.0,0.0,0.0,0.0,-0.12034922572463641,-0.43832591375939955,-0.8286595405073293,-0.6622131998928543,-0.01057134468456049,-0.0062749100361104045,-0.8854575788378591
12076,6.0,299.56297,6361.4887,0.0,0.0,0.0,0.0,0.0,-0.12035919253422023,-0.47689386026575953,-0.8055920103207412,-0.6512478681056604,0.025447310166453976,-0.0026718831637443374,-0.8711767002059462
12077,6.0,299.79365,6325.6630000000005,0.0,0.0,0.0,0.0,0.0,-0.1203691593438041,-0.4712240470786926,-0.8034675288360713,-0.6481520242801244,0.01988655815390048,-0.005251946211376735,-0.8618861188465372
12078,6.0,298.95838,6364.2652,0.0,0.0,0.0,0.0,0.0,-0.12037912615338792,-0.47660983613022856,-0.8179489803252793,-0.6400188987749474,0.03919056741455786,0.016396141567173183,-0.8768737698207032
12079,6.0,299.24796000000003,6486.2055,0.0,0.0,0.0,0.0,0.0,-0.12038909296297168,-0.45376505884562457,-0.8298698880167812,-0.6880095544537563,-0.006373190229559904,-0.018185251454244586,-0.8865880619744293
12080,6.0,298.94516,6561.4564,0.0,0.0,0.0,0.0,0.0,-0.1203990597725555,-0.46440014202772556,-0.8534043745119542,-0.6767143793615094,-0.014571018745047588,-0.02330187162996568,-0.8994239547712332
12081,6.0,300.02581000000004,6707.4143,0.0,0.0,0.0,0.0,0.0,-0.12040902658213931,-0.5139883587417015,-0.8344147301478223,-0.6904833843079043,-0.01955139832557278,-0.03679992539361986,-0.8558520726460231
12082,6.0,300.53029,6582.9762,0.0,0.0,0.0,0.0,0.0,-0.12041899339172318,-0.49414379473819553,-0.8301703673339362,-0.6767462258121524,0.001031134268240029,0.002744031738439847,-0.8695839521087542
12083,6.0,299.05857000000003,6416.566,0.0,0.0,0.0,0.0,0.0,-0.120428960201307,-0.4573041691924075,-0.8187162538310032,-0.6744554294560683,0.0029898957606297374,-0.0026745887441613574,-0.8635750243782192
12084,6.0,299.93277,6529.8632,0.0,0.0,0.0,0.0,0.0,-0.12043892701089082,-0.4738972237575146,-0.8397520655795763,-0.6712660727788033,0.003367982030768947,-0.004140950407354986,-0.8907196095221811
12085,6.0,299.74741,6658.6452,0.0,0.0,0.0,0.0,0.0,-0.12044889382047463,-0.4747696928886206,-0.8480140866299741,-0.7012780847782583,0.01078147856979909,0.00032615895543688266,-0.8454766550670492
12086,6.0,299.3003,6356.2558,0.0,0.0,0.0,0.0,0.0,-0.12045886063005845,-0.43501108632225155,-0.8266170613532523,-0.6705148998171684,-0.004164277147182156,0.026940881343857977,-0.9053824226467883
12087,6.0,300.17332000000005,6245.7309,0.0,0.0,0.0,0.0,0.0,-0.12046882743964232,-0.4321175074816776,-0.8064812690060041,-0.6599474713442444,0.017378005232075586,0.006301289698488874,-0.8709435108279321
12088,6.0,300.57729,6253.2351,0.0,0.0,0.0,0.0,0.0,-0.12047879424922608,-0.4257892438496266,-0.8197891539643902,-0.6552489394380354,-0.004686813263502456,-0.0065713882312705245,-0.9197979318194881
12089,6.0,300.43122999999997,6529.5671,0.0,0.0,0.0,0.0,0.0,-0.1204887610588099,-0.46889401767873656,-0.8586105751157661,-0.6573207420500063,-0.00941875840898408,-0.016002379406061883,-0.8834545049801712
12090,6.0,300.04273,6643.231,0.0,0.0,0.0,0.0,0.0,-0.12049872786839372,-0.4751232361135126,-0.8668873490876202,-0.6773657471882943,-6.369397938410635e-06,0.0026286524429277973,-0.9121049621577512
12091,6.0,298.89861,6428.1431,0.0,0.0,0.0,0.0,0.0,-0.12050869467797753,-0.43673665124255157,-0.8303148264006932,-0.6869435140235464,-0.029031106869147172,0.01035921064362449,-0.8918629305375181
12092,6.0,299.30632,6253.8961,0.0,0.0,0.0,0.0,0.0,-0.12051866148756141,-0.4096013474695056,-0.8246306351947073,-0.6667962719501683,-0.013092302827359688,0.006398177990276004,-0.8777689762840531
12093,6.0,300.15117000000004,6498.0042,0.0,0.0,0.0,0.0,0.0,-0.12052862829714522,-0.4572730624143375,-0.8180876537339652,-0.6998703156193223,-0.008927211736372202,-0.00915417195674643,-0.8627817306099271
12094,6.0,299.29562999999996,6669.4734,0.0,0.0,0.0,0.0,0.0,-0.12053859510672899,-0.48247308889388657,-0.8516294845767862,-0.6932508033785273,0.004140320976392866,0.027967010865879077,-0.8462564118140052
12095,6.0,299.77166,6506.2035,0.0,0.0,0.0,0.0,0.0,-0.12054856191631286,-0.49481832546226656,-0.8045252504829602,-0.6783798382858773,0.006722094592844083,-0.0016617537727273285,-0.8960371865769852
12096,6.0,300.40635,6448.7613,0.0,0.0,0.0,0.0,0.0,-0.12055852872589667,-0.4735386852096295,-0.8209177017932692,-0.6658060327599394,-0.008375891819161162,0.008013197425991013,-0.8728715028532101
12097,6.0,300.67836,6422.1501,0.0,0.0,0.0,0.0,0.0,-0.12056849553548049,-0.4622606644415755,-0.8167375587707212,-0.6731750562322053,-0.016456900096169586,-0.018291095559690582,-0.8940286006387532
12098,6.0,300.54022000000003,6611.2839,0.0,0.0,0.0,0.0,0.0,-0.12057846234506431,-0.48634055306807555,-0.8413922743114522,-0.6819323843289863,-0.02098098478566198,0.003232273695850577,-0.8802151950729761
12099,6.0,301.37106,6475.4288,0.0,0.0,0.0,0.0,0.0,-0.12058842915464807,-0.45392777667918355,-0.8287576433820113,-0.6856832538141684,-0.015923258758753285,-0.016136296618778485,-0.8992267459042702
12100,6.0,300.14849,6326.7511,0.0,0.0,0.0,0.0,0.0,-0.12059839596423194,-0.43590817743078764,-0.8431386007263012,-0.6441275772679423,0.003727714491246777,-0.010127566978638041,-0.8912081277928943
12101,6.0,299.63505,6319.2079,0.0,0.0,0.0,0.0,0.0,-0.12060836277381576,-0.4721395793390486,-0.8095188914807943,-0.6392229300263913,0.007225061708658073,-0.02239292954826008,-0.8741714520690053
12102,6.0,299.11383,6370.9733,0.0,0.0,0.0,0.0,0.0,-0.12061832958339958,-0.4545123510593766,-0.8192374291524392,-0.6628670096523803,-0.005797843011402555,0.005747189017703395,-0.8910857575783171
12103,6.0,299.69922,6469.9784,0.0,0.0,0.0,0.0,0.0,-0.12062829639298339,-0.44950092752228754,-0.8547234944196412,-0.6624874360324193,-0.02128572177973718,-0.013891388333223287,-0.8844954269404022
12104,6.0,299.78008,6551.7403,0.0,0.0,0.0,0.0,0.0,-0.12063826320256721,-0.4706264726997166,-0.8250617427147542,-0.6958772489627373,-0.01968677056543298,0.016436847876690586,-0.8768502522858821
12105,6.0,300.28911,6562.0075,0.0,0.0,0.0,0.0,0.0,-0.12064823001215108,-0.4663427755169486,-0.8616434150500841,-0.6667002259731895,-0.0027589076684579874,4.969765279102645e-05,-0.8936967105684981
12106,6.0,299.47702999999996,6466.4288,0.0,0.0,0.0,0.0,0.0,-0.1206581968217349,-0.4640999464205986,-0.8328282439362483,-0.6687046879835143,0.010503024270067789,0.02294229247422798,-0.9035348725469491
12107,6.0,300.78277,6470.5652,0.0,0.0,0.0,0.0,0.0,-0.12066816363131871,-0.5001905065649596,-0.8356375811635082,-0.6310621731909873,-0.015816709431237686,-0.01701838554633388,-0.8981435207523643
12108,6.0,300.89655,6349.4305,0.0,0.0,0.0,0.0,0.0,-0.12067813044090248,-0.4549688404944286,-0.8466260555829861,-0.6284734306429984,-0.003783824938059447,-0.002379747859837828,-0.906713427978148
12109,6.0,300.43245,6184.1436,0.0,0.0,0.0,0.0,0.0,-0.12068809725048629,-0.4398346836883036,-0.8139469058753053,-0.6260436467706975,-0.007276979630531972,0.007230338005903804,-0.8982024615106811
12110,6.0,300.00207,6337.3675,0.0,0.0,0.0,0.0,0.0,-0.12069806406007016,-0.4513920879064306,-0.8234138028846152,-0.6515955952749785,-0.006743698807501254,0.012859980791431289,-0.8846838813265011
12111,6.0,300.82747,6575.7808,0.0,0.0,0.0,0.0,0.0,-0.12070803086965398,-0.4423494387139905,-0.8421784347990402,-0.7143453025728923,0.003525185858608757,-0.01757845244635818,-0.8751646803470293
12112,6.0,301.29342,6547.7045,0.0,0.0,0.0,0.0,0.0,-0.1207179976792378,-0.48447004272097055,-0.8260256272698822,-0.6798430018277803,-0.013753240801339186,-0.00992293382554232,-0.8488714684670912
12113,6.0,300.54841,6564.2442,0.0,0.0,0.0,0.0,0.0,-0.12072796448882162,-0.47244535795422654,-0.8243603608630332,-0.6985606088050644,0.015572879913923586,-0.013746329422407088,-0.8404473577981962
12114,6.0,300.12826,6747.8364,0.0,0.0,0.0,0.0,0.0,-0.12073793129840543,-0.5212296924363655,-0.8431469600396262,-0.6867971196490983,-0.01690939833907768,-0.01187897737586379,-0.8653685581152273
12115,6.0,299.07957000000005,6631.6752,0.0,0.0,0.0,0.0,0.0,-0.12074789810798925,-0.4919319204324005,-0.8205161305136373,-0.7034156169242163,0.004648728839943815,-0.01866726769906588,-0.8570971948989071
12116,6.0,299.6916,6562.9581,0.0,0.0,0.0,0.0,0.0,-0.12075786491757307,-0.5032555475874555,-0.8265617075002892,-0.6651581302484963,-0.015063078324860086,0.005467812153756045,-0.8914943810786452
12117,6.0,299.44411,6541.786999999999,0.0,0.0,0.0,0.0,0.0,-0.12076783172715694,-0.45408206427191056,-0.8377828748052323,-0.6966749605014654,0.006284057354038175,0.02209032848539568,-0.8835632976434081
12118,6.0,300.30332999999996,6260.8721,0.0,0.0,0.0,0.0,0.0,-0.1207777985367407,-0.46095606440782155,-0.8199210081999032,-0.6222717219484374,0.01100180879079399,0.010777022295859291,-0.9123942146637981
12119,6.0,300.05838,6242.4765,0.0,0.0,0.0,0.0,0.0,-0.12078776534632452,-0.4093894464760926,-0.8379412457958623,-0.6502262992223394,-0.005751285486532684,-0.017873071124934786,-0.9013024596616271
12120,6.0,301.34788,6357.1811,0.0,0.0,0.0,0.0,0.0,-0.12079773215590833,-0.4753628798946636,-0.7903281980318202,-0.6667332275289464,-0.005237891419239635,-0.016702585887666883,-0.896247192792711
12121,6.0,300.28809,6328.3535,0.0,0.0,0.0,0.0,0.0,-0.12080769896549215,-0.44142043022730454,-0.8148799774948923,-0.6673610372909063,-0.003130035646185467,-0.003972755450380437,-0.8648028909819001
12122,6.0,300.01183,6296.892,0.0,0.0,0.0,0.0,0.0,-0.12081766577507602,-0.43149795570803257,-0.7977141427807563,-0.6848858361179693,0.004217696097754196,0.010138380890330291,-0.9038059372137011
12123,6.0,299.92938,6622.0483,0.0,0.0,0.0,0.0,0.0,-0.12082763258465984,-0.4416364247511215,-0.8467150290742671,-0.7245858768285582,0.00920371877206132,-0.006815429720505545,-0.8608013332894772
12124,6.0,298.78552,6898.1716,0.0,0.0,0.0,0.0,0.0,-0.12083759939424366,-0.5226186962034495,-0.8760089000653472,-0.6982443227863494,0.007078303881399204,-0.0018654197786025983,-0.8816497545645562
12125,6.0,298.78106,6749.4607,0.0,0.0,0.0,0.0,0.0,-0.12084756620382747,-0.49020530173199656,-0.8397324287926382,-0.7217297983741853,0.006241783141316034,0.0038440040906486663,-0.8595633544497983
12126,6.0,299.17021,6504.1431,0.0,0.0,0.0,0.0,0.0,-0.12085753301341123,-0.5008709040071094,-0.8409028441156493,-0.6353233458240324,-0.013906777575742088,0.001178444418128409,-0.8932701424088991
12127,6.0,299.7626,6342.9043,0.0,0.0,0.0,0.0,0.0,-0.12086749982299516,-0.4528287245607156,-0.8151421052957621,-0.6601136848906484,0.006767661868391224,0.008467872738063972,-0.8725507484015542
12128,6.0,300.27258,6525.1834,0.0,0.0,0.0,0.0,0.0,-0.12087746663257892,-0.4780312436355105,-0.8269796022390322,-0.6784819738959573,-0.003381293907932727,0.017664858361885784,-0.893979447876402
12129,6.0,300.02757,6684.7901,0.0,0.0,0.0,0.0,0.0,-0.12088743344216274,-0.4836069765507926,-0.8614556496740532,-0.6869466348338544,0.015367219527876487,0.014829873748094587,-0.8919195002906012
12130,6.0,299.64606000000003,6503.695,0.0,0.0,0.0,0.0,0.0,-0.12089740025174656,-0.48503144407137655,-0.8201432544768372,-0.6717861639226324,-0.012816789992668687,-0.006781477432179713,-0.8802350649074372
12131,6.0,300.01668,6300.0602,0.0,0.0,0.0,0.0,0.0,-0.12090736706133037,-0.4184918875569336,-0.8270800051914412,-0.6694890854159283,0.0005373628327810825,-0.038611730056431065,-0.8828642462669172
12132,6.0,300.16802,6536.2798,0.0,0.0,0.0,0.0,0.0,-0.12091733387091425,-0.4815190227322275,-0.8146653407262092,-0.6906814747024543,0.010725561349780489,-0.018406636468593585,-0.8462362380045141
12133,6.0,299.98299,6835.5307,0.0,0.0,0.0,0.0,0.0,-0.12092730068049806,-0.48663647275978056,-0.8572671270731782,-0.7339270497654603,-0.012603693364137688,-0.0014463753049711286,-0.8824321964242771
12134,6.0,300.83301,6733.8899,0.0,0.0,0.0,0.0,0.0,-0.12093726749008182,-0.4895575512080685,-0.8602479670123643,-0.6971288762812633,-0.0005249315104842065,0.016191492404725883,-0.8540391047720972
12135,6.0,300.55357000000004,6434.6958,0.0,0.0,0.0,0.0,0.0,-0.1209472342996657,-0.46114765986923056,-0.8540953604176491,-0.6407438184264914,-0.008889896166989441,0.006329841870406754,-0.9058919861220781
12136,6.0,299.76122000000004,6476.9162,0.0,0.0,0.0,0.0,0.0,-0.12095720110924946,-0.4947346006065036,-0.8404660016000361,-0.6336202041284454,0.03305153634468267,0.019258343091900484,-0.8590732757739312
12137,6.0,299.15985,6658.1959,0.0,0.0,0.0,0.0,0.0,-0.12096716791883333,-0.49745634236261854,-0.8665721573790133,-0.6598968088392444,-0.01020176880333619,0.006948941227882103,-0.9174948548721922
12138,6.0,299.31331,6653.1982,0.0,0.0,0.0,0.0,0.0,-0.12097713472841715,-0.49165562739513247,-0.8388673766522643,-0.6918831183935473,6.598602507756363e-05,0.0015870707555566885,-0.8715572262810013
12139,6.0,299.29373,6425.9514,0.0,0.0,0.0,0.0,0.0,-0.12098710153800096,-0.44755954033068757,-0.8450059396005932,-0.6607632896622594,-0.024072678338788376,-0.013264043653059188,-0.908892128475669
12140,6.0,300.0068,6305.4276,0.0,0.0,0.0,0.0,0.0,-0.12099706834758478,-0.44947137101687057,-0.8079207630255713,-0.6593004199628854,0.015368192247972484,0.004159395612175386,-0.8790923417096592
12141,6.0,299.61136,6248.5292,0.0,0.0,0.0,0.0,0.0,-0.1210070351571686,-0.4510486569175366,-0.8060201084879912,-0.6423281058853484,-0.0012473810913319287,0.015108052443798686,-0.8875936924336771
12142,6.0,299.89599,6613.9406,0.0,0.0,0.0,0.0,0.0,-0.12101700196675241,-0.4831594543791255,-0.8623446955767952,-0.6649686524797963,-0.005796888833783384,-0.008497933234080712,-0.8854750979320881
12143,6.0,300.69815,6616.1441,0.0,0.0,0.0,0.0,0.0,-0.12102696877633623,-0.4604040356208406,-0.8485213905575412,-0.7022171649709383,-0.019558028020977083,0.006924333334628494,-0.8761324456500402
12144,6.0,300.01223,6365.6224,0.0,0.0,0.0,0.0,0.0,-0.12103693558592005,-0.4397927655316666,-0.8347946077428132,-0.6604028664691883,0.0035026813712377364,-0.008469088536858961,-0.8694315998237182
12145,6.0,299.91843,6424.4085,0.0,0.0,0.0,0.0,0.0,-0.12104690239550392,-0.45899695547197256,-0.8257147114766972,-0.6681480995710833,0.01909952627122648,0.005320660070883265,-0.8792046908807472
12146,6.0,300.1347,6615.95,0.0,0.0,0.0,0.0,0.0,-0.12105686920508768,-0.5093659523155055,-0.8329208549953881,-0.6687967822851034,-0.011929087659559289,-0.027689722817012874,-0.8845850995742522
12147,6.0,299.37618,6498.6473,0.0,0.0,0.0,0.0,0.0,-0.12106683601467155,-0.4729556408370876,-0.8572741387638702,-0.6451967182434584,0.016464956447714684,-0.01033573059905719,-0.9064057039227781
12148,6.0,299.48716,6348.5335,0.0,0.0,0.0,0.0,0.0,-0.12107680282425531,-0.4802493088994166,-0.7984755698334033,-0.6510707823856834,0.01035179871914299,0.0037697527180206264,-0.8877620338052913
12149,6.0,298.89012,6337.6238,0.0,0.0,0.0,0.0,0.0,-0.12108676963383913,-0.4204472575999136,-0.8397059424350243,-0.6663261745662734,0.006382141179618294,0.01864334993045538,-0.8910766180624151
12150,6.0,298.46032,6370.9047,0.0,0.0,0.0,0.0,0.0,-0.121096736443423,-0.4497069719301226,-0.8113855514775192,-0.6755034441669994,-0.02017590793195708,-0.021186431375937977,-0.8692342187042381
12151,6.0,299.64612,6700.5718,0.0,0.0,0.0,0.0,0.0,-0.12110670325300682,-0.4532005670824136,-0.8580068401761822,-0.7255991269285582,-0.025237451885242578,-0.0005182154051113785,-0.8803605154023182
12152,6.0,299.29435,6725.4424,0.0,0.0,0.0,0.0,0.0,-0.12111667006259064,-0.5197874221115245,-0.8438972210761713,-0.6806819019830733,-0.0008394015418399822,0.003405630756784587,-0.8687183629458272
12153,6.0,299.74625,6505.0318,0.0,0.0,0.0,0.0,0.0,-0.12112663687217445,-0.4720549324256945,-0.8107677931565512,-0.6945445109737064,0.006413106507974334,0.004950111874863006,-0.8734925238395002
12154,6.0,300.39839,6451.2021,0.0,0.0,0.0,0.0,0.0,-0.12113660368175821,-0.49036372338513157,-0.8132494453014713,-0.6573912034619603,-0.0025138559688732674,-0.03042653768161547,-0.8887793673031941
12155,6.0,299.1111,6584.7315,0.0,0.0,0.0,0.0,0.0,-0.12114657049134209,-0.4546823845586575,-0.8464737438279543,-0.7004378268678313,-0.01858826965501938,-0.018206812403122483,-0.8843556592216082
12156,6.0,300.58313,6627.5297,0.0,0.0,0.0,0.0,0.0,-0.1211565373009259,-0.5065459252996906,-0.8228828699647163,-0.6851747441189824,-0.006062083438731055,0.017284173206565084,-0.8691403714799761
12157,6.0,300.02932000000004,6330.358,0.0,0.0,0.0,0.0,0.0,-0.12116650411050978,-0.4366123862502876,-0.8232714513780662,-0.6643869151998834,0.002051749075266868,0.03882289441702136,-0.8958144539400033
12158,6.0,299.53561,6171.6695,0.0,0.0,0.0,0.0,0.0,-0.12117647092009354,-0.4564025285909226,-0.7987207560926012,-0.6209101367290594,-0.0032426178647964664,0.011941041984239089,-0.9001406063019611
12159,6.0,299.80131,6452.6102,0.0,0.0,0.0,0.0,0.0,-0.12118643772967735,-0.44348388365845154,-0.8367090728792562,-0.6812394225855963,-0.015703251764540283,0.012712229675099386,-0.8931149935535871
12160,6.0,299.52092999999996,6576.0986,0.0,0.0,0.0,0.0,0.0,-0.12119640453926123,-0.47282669462936155,-0.8470781981751092,-0.6790648662809844,0.003211685669718697,0.007397624381513682,-0.8825343928293632
12161,6.0,298.20805,6584.898,0.0,0.0,0.0,0.0,0.0,-0.12120637134884499,-0.47389476155977156,-0.8197942506123933,-0.7079555549247734,-0.005554892387225194,0.004048493666205215,-0.8739024746974591
12162,6.0,299.66522000000003,6512.1808,0.0,0.0,0.0,0.0,0.0,-0.12121633815842886,-0.4778639357789986,-0.8120049816611523,-0.6896714366052714,-0.016201036207417786,-0.03044894773407717,-0.8585567411379532
12163,6.0,299.48719,6405.4042,0.0,0.0,0.0,0.0,0.0,-0.12122630496801268,-0.4687150979760786,-0.8250409913527063,-0.6533268546608404,-0.02162472283919398,-0.016693621664032186,-0.8898091029823212
12164,6.0,299.80293,6717.1396,0.0,0.0,0.0,0.0,0.0,-0.12123627177759644,-0.5034634462429736,-0.8453378499358503,-0.6930414152453623,0.005137763564232785,0.003078029875527897,-0.8605416271563462
12165,6.0,300.02434,6861.0718,0.0,0.0,0.0,0.0,0.0,-0.12124623858718031,-0.5165755814145405,-0.8852947698117912,-0.6837241347458184,0.0023542644171728076,0.02376910658232818,-0.8969390399609912
12166,6.0,299.42771,6479.2759,0.0,0.0,0.0,0.0,0.0,-0.12125620539676407,-0.4607398672339846,-0.8251325992942472,-0.6836656094200423,0.025132481201382773,-0.00984635309225939,-0.8632793883965422
12167,6.0,300.40512,6359.3503,0.0,0.0,0.0,0.0,0.0,-0.121266172206348,-0.44357404265234956,-0.8475634233829973,-0.6419462119226584,-0.017891158652469884,-0.01019797114196139,-0.9127949044158431
12168,6.0,299.95772,6526.2135,0.0,0.0,0.0,0.0,0.0,-0.12127613901593176,-0.44980156895945855,-0.8455158070509131,-0.6884885583060304,0.005517950099179275,-0.003497907038091546,-0.8574816523843503
12169,6.0,300.11526000000003,6649.8806,0.0,0.0,0.0,0.0,0.0,-0.12128610582551558,-0.49453740187204154,-0.8449810845756401,-0.6818791785662354,-0.006599116326882074,0.008547104842883572,-0.8950480315643632
12170,6.0,299.63147000000004,6481.07,0.0,0.0,0.0,0.0,0.0,-0.1212960726350994,-0.46741075125484954,-0.8484466127001612,-0.6542260938595883,0.0008644958660690992,-0.013358943644175088,-0.8744968877361232
12171,6.0,299.63702,6321.9301,0.0,0.0,0.0,0.0,0.0,-0.12130603944468321,-0.4443903574629136,-0.8335534776953232,-0.6437650667796654,-0.0069958040450071035,-0.012883253119728088,-0.9197075499105681
12172,6.0,299.88022,6420.7822,0.0,0.0,0.0,0.0,0.0,-0.12131600625426708,-0.43116030024470864,-0.8456242248116133,-0.6749729266796414,0.003182850193072857,-0.025741256046964176,-0.8814484015046843
12173,6.0,299.93395,6584.3448,0.0,0.0,0.0,0.0,0.0,-0.1213259730638509,-0.46301030739555954,-0.8544819761258051,-0.6839841144564764,0.01878953861513308,0.002269149179622588,-0.9122978343142861
12174,6.0,298.6567,6747.2759,0.0,0.0,0.0,0.0,0.0,-0.12133593987343466,-0.5210229590184625,-0.8372463994072862,-0.6927340356950263,0.0012461326658837189,-0.014274002716734385,-0.8643580133929941
12175,6.0,300.12545,6595.9811,0.0,0.0,0.0,0.0,0.0,-0.12134590668301853,-0.5085331823233175,-0.8359760472269122,-0.6605043130692004,-0.009200010884645381,0.001970805287053338,-0.9038984773453341
12176,6.0,299.7868,6218.8239,0.0,0.0,0.0,0.0,0.0,-0.1213558734926023,-0.44632489508383755,-0.8126482333546362,-0.6313940632612425,0.0024040661662128576,-0.004413324193236186,-0.8779331126677521
12177,6.0,299.66665,6362.7414,0.0,0.0,0.0,0.0,0.0,-0.12136584030218617,-0.43570832398106357,-0.8491521691422942,-0.6492540249563834,0.012650735526530387,0.012144455994814488,-0.9133789924359882
12178,6.0,300.28512,6797.6939,0.0,0.0,0.0,0.0,0.0,-0.12137580711176998,-0.47838744157566454,-0.8661135299862501,-0.7218282356214003,0.012032219294487589,-0.011497259718691187,-0.8782277759293331
12179,6.0,300.8508,6568.3553,0.0,0.0,0.0,0.0,0.0,-0.1213857739213538,-0.4535232061792555,-0.8594751712935952,-0.6836176218953064,-0.0035873880663476365,-0.008471958365117192,-0.9014181322930432
12180,6.0,300.74766,6217.3872,0.0,0.0,0.0,0.0,0.0,-0.12139574073093762,-0.4286177011062736,-0.8058111763173712,-0.6555015730854684,-0.010155902011059492,-0.002255178487243788,-0.8732594661839991
12181,6.0,300.70751,6355.4763,0.0,0.0,0.0,0.0,0.0,-0.12140570754052143,-0.4671069890073706,-0.8111640043431542,-0.6536351157387634,0.013186376006393987,0.02075191122955418,-0.8834417380289111
12182,6.0,299.89436,6660.6873,0.0,0.0,0.0,0.0,0.0,-0.12141567435010525,-0.5227736728062445,-0.8304890952853923,-0.6714198638789813,0.0076745006455392435,-0.0014874921834290484,-0.8736461629521631
12183,6.0,299.86158,6835.9322,0.0,0.0,0.0,0.0,0.0,-0.12142564115968907,-0.4917181449263025,-0.8565074326782022,-0.7297271078359583,0.008973070929273151,0.003327014910675807,-0.8864841430441732
12184,6.0,300.0316,6695.1963,0.0,0.0,0.0,0.0,0.0,-0.12143560796927289,-0.4831101293642575,-0.8483894045995152,-0.7036729621846144,-0.0023292839518574276,-0.006038465490825144,-0.8807160344649051
12185,6.0,299.52569,6311.9452,0.0,0.0,0.0,0.0,0.0,-0.12144557477885676,-0.4045085700818876,-0.8123288163931123,-0.7018363551858554,0.019736144216305783,0.012423319647586188,-0.8731984279979752
12186,6.0,299.36737,6319.9915,0.0,0.0,0.0,0.0,0.0,-0.12145554158844052,-0.44575799178538855,-0.8106061291030963,-0.6647554950562594,-0.008240885159937043,-0.007240532315159904,-0.9067467233764341
12187,6.0,299.3722,6672.2016,0.0,0.0,0.0,0.0,0.0,-0.12146550839802434,-0.47610073874998454,-0.8616831547190061,-0.6903987981895564,0.008697939076619752,0.0004936444650889155,-0.8818905737158231
12188,6.0,300.37371,6536.713000000001,0.0,0.0,0.0,0.0,0.0,-0.12147547520760815,-0.49904895873729754,-0.8270532857863042,-0.6608952958852874,-0.01010237261622655,0.008173249297211901,-0.9094131822070931
12189,6.0,300.77053,6277.2786,0.0,0.0,0.0,0.0,0.0,-0.12148544201719197,-0.3954936130146806,-0.8460784445664412,-0.6665638931722344,0.011864610502695888,0.010194593979378089,-0.8944185398072372
12190,6.0,299.96644,6404.474,0.0,0.0,0.0,0.0,0.0,-0.12149540882677584,-0.4486930834825595,-0.8312315948261713,-0.6668754878429864,-0.0006729696096419293,0.015777763137143987,-0.8981067093762312
12191,6.0,300.39353,6766.9041,0.0,0.0,0.0,0.0,0.0,-0.12150537563635966,-0.4755875377068356,-0.8434321899427762,-0.7379501390225083,0.0018817001745843485,0.009266196583827402,-0.8760734846267213
12192,6.0,301.64783,6703.3532,0.0,0.0,0.0,0.0,0.0,-0.12151534244594348,-0.4870466667977635,-0.8616925678124352,-0.6889127655928964,0.0003031075764568887,0.026337563863315178,-0.899995306237621
12193,6.0,301.10406,6452.7645,0.0,0.0,0.0,0.0,0.0,-0.12152530925552729,-0.4793954025101425,-0.8323511551266632,-0.6497327349661284,-0.03953928047622317,-0.003988379260297386,-0.8794451148644751
12194,6.0,299.96299999999997,6400.4994,0.0,0.0,0.0,0.0,0.0,-0.12153527606511105,-0.48167035163466254,-0.8098869748446212,-0.6540346605181954,-0.006451514563614914,-0.01172937099859879,-0.9062548917778942
12195,6.0,299.85335,6367.1031,0.0,0.0,0.0,0.0,0.0,-0.12154524287469493,-0.4343980598792506,-0.8376753385721192,-0.6633669573842214,-0.020372363954095783,-0.025774391351734375,-0.9096230060378011
12196,6.0,299.77538,6344.3379,0.0,0.0,0.0,0.0,0.0,-0.12155520968427874,-0.4562048434964126,-0.8091459749139902,-0.6631694749397314,0.03294883331454667,0.021458352239024477,-0.9025475109870043
12197,6.0,299.22092000000004,6591.4965,0.0,0.0,0.0,0.0,0.0,-0.12156517649386256,-0.4541628101723796,-0.8537633892873862,-0.6957241367401263,0.0009619103690306621,0.01887601241841738,-0.8828391075319362
12198,6.0,299.69368,6474.3498,0.0,0.0,0.0,0.0,0.0,-0.12157514330344638,-0.4700447556848055,-0.8443799536888132,-0.6536159551793723,0.014514133871183485,0.010632670633612888,-0.8901151247775231
12199,6.0,299.8747,6366.1021,0.0,0.0,0.0,0.0,0.0,-0.12158511011303019,-0.4826434770307026,-0.8125552169954562,-0.6399373929369034,0.007811224561032842,0.008199799388257193,-0.8922516132758782
12200,6.0,299.32696,6700.0151,0.0,0.0,0.0,0.0,0.0,-0.12159507692261406,-0.5115413901477045,-0.8708079379645521,-0.6542879629106944,0.010597552398396989,0.017324552236300184,-0.8919900224975611
12201,6.0,300.34977000000003,6777.0529,0.0,0.0,0.0,0.0,0.0,-0.12160504373219783,-0.5086716834794865,-0.8266728407712572,-0.7247103444708424,-0.01101604900769939,-0.0026576899616435777,-0.8558079253391662
12202,6.0,300.91152,6579.1365,0.0,0.0,0.0,0.0,0.0,-0.1216150105417817,-0.44503415631145155,-0.8592039039768231,-0.6956551648058192,-0.03275569264673517,-0.015916110279297783,-0.8854980480468532
12203,6.0,301.18414,6506.297,0.0,0.0,0.0,0.0,0.0,-0.12162497735136546,-0.45760578334967456,-0.8293944102748552,-0.6907516422718794,-0.01829343718067168,-0.012793222808592788,-0.8760435532187671
12204,6.0,301.37323,6562.5305,0.0,0.0,0.0,0.0,0.0,-0.12163494416094928,-0.4884497344762355,-0.8227741076989822,-0.6836215634381954,0.001922165229252938,0.019725330811238583,-0.8746260568588711
12205,6.0,300.99377000000004,6561.3058,0.0,0.0,0.0,0.0,0.0,-0.12164491097053315,-0.48426576136830957,-0.8545207430746312,-0.6556866229512314,0.014693510549636588,0.004782477954468826,-0.9042796822979562
12206,6.0,299.69237000000004,6629.3276,0.0,0.0,0.0,0.0,0.0,-0.12165487778011691,-0.47951464178191056,-0.8497695424282242,-0.6858658820121923,0.0051299866670652654,-0.005993711145833234,-0.8963730080576281
12207,6.0,299.62426,6648.3665,0.0,0.0,0.0,0.0,0.0,-0.12166484458970078,-0.4737128527693185,-0.8613561586467342,-0.6858683948724403,0.005001736359507946,-0.021554766025789776,-0.9211438217948171
12208,6.0,299.02916,6313.382,0.0,0.0,0.0,0.0,0.0,-0.1216748113992846,-0.41631528448711963,-0.8212001857886482,-0.6815950227081914,-0.0018222026353373983,0.011044015723709489,-0.9121572458629111
12209,6.0,298.65618,6346.9673,0.0,0.0,0.0,0.0,0.0,-0.12168477820886842,-0.4429401432572886,-0.8134112613424412,-0.6729681708267873,-0.020181381508997284,-0.0056597876852775555,-0.9064345612856262
12210,6.0,299.94291,6683.7131,0.0,0.0,0.0,0.0,0.0,-0.12169474501845223,-0.4934364853733895,-0.8624679067889551,-0.6757774979215464,-0.028879849907469272,0.011829779017258289,-0.8764954222333632
12211,6.0,300.84774,6592.0319,0.0,0.0,0.0,0.0,0.0,-0.12170471182803605,-0.4925629624621795,-0.8313269923230862,-0.6799231499106904,-0.01027136591295489,-0.00027191838062375474,-0.8800303782547362
12212,6.0,300.88631000000004,6451.7249,0.0,0.0,0.0,0.0,0.0,-0.12171467863761992,-0.4685135422661866,-0.8188203855437802,-0.6738293523517794,0.008529075982529262,0.02059108614718198,-0.8753320591310482
12213,6.0,300.54232,6576.2118,0.0,0.0,0.0,0.0,0.0,-0.12172464544720368,-0.45904997884970555,-0.8316463991521091,-0.7083078113220383,0.015729043032585682,-0.026755227581035376,-0.8644538364549511
12214,6.0,300.60595,6802.9231,0.0,0.0,0.0,0.0,0.0,-0.1217346122567875,-0.49708152088562657,-0.8649411996205502,-0.7058960430365153,-0.0025862829846962578,-0.04285798663475396,-0.8912059999676841
12215,6.0,300.59891,6811.6451,0.0,0.0,0.0,0.0,0.0,-0.12174457906637132,-0.4975136923182785,-0.8558567031989802,-0.7171996483695943,0.032057641348092865,-0.03152838333060917,-0.8909518160475981
12216,6.0,300.11773999999997,6626.6794,0.0,0.0,0.0,0.0,0.0,-0.12175454587595513,-0.5047823229706365,-0.8404488776733462,-0.6691138789038984,-0.0015828328370134385,0.01073346976681099,-0.8915040069545952
12217,6.0,299.48802,6297.246999999999,0.0,0.0,0.0,0.0,0.0,-0.121764512685539,-0.4522179272679345,-0.8014645563033932,-0.6605233824360823,0.026790014483468575,0.014207004593622187,-0.8658537731906142
12218,6.0,300.34634,6269.1981,0.0,0.0,0.0,0.0,0.0,-0.12177447949512282,-0.4465444359830046,-0.8160188807397932,-0.6431163536681423,-0.025328818673259774,-0.012800801919340788,-0.904911626120324
12219,6.0,300.28267,6515.0293,0.0,0.0,0.0,0.0,0.0,-0.12178444630470664,-0.4634257196715576,-0.8311291653735622,-0.6858513317407564,0.023230201410642377,-0.0012229044139662687,-0.8793079511984382
12220,6.0,299.71987,6461.1223,0.0,0.0,0.0,0.0,0.0,-0.12179441311429046,-0.45251948063019554,-0.8314593835811521,-0.6800409706323183,0.016277135342928184,-0.0016117090463132983,-0.8967784499526422
12221,6.0,299.6653,6414.7496,0.0,0.0,0.0,0.0,0.0,-0.12180437992387422,-0.4341749016772266,-0.8429551821931992,-0.6727936182320604,0.01032672381891829,-0.007640880804571222,-0.8836174355962512
12222,6.0,299.75298,6691.1753,0.0,0.0,0.0,0.0,0.0,-0.12181434673345809,-0.49093526736903853,-0.8721054553801072,-0.6709094898036114,-0.022995724191751277,-0.015367175958122184,-0.8913363647255501
12223,6.0,300.04483,6973.1506,0.0,0.0,0.0,0.0,0.0,-0.1218243135430419,-0.5124305677729595,-0.8874295560499782,-0.7198035288740773,-0.011742111605356188,0.01070330531133399,-0.8675127270493402
12224,6.0,300.43153,6682.8633,0.0,0.0,0.0,0.0,0.0,-0.12183428035262572,-0.4790208546106775,-0.8554188474332672,-0.6969838801919533,-0.0030343413683161773,0.05333001659751286,-0.9080853078185422
12225,6.0,300.40547000000004,6507.4685,0.0,0.0,0.0,0.0,0.0,-0.12184424716220954,-0.4387240501211926,-0.8285682669383212,-0.7108156255845404,-0.012377683876332288,-0.007952176465218713,-0.8808225473154172
12226,6.0,301.23356,6397.6908,0.0,0.0,0.0,0.0,0.0,-0.12185421397179336,-0.44608147187981356,-0.8254639523419491,-0.6731928286389594,0.009698560432673392,-0.008720121350458972,-0.932471562745278
12227,6.0,301.28831,6443.1902,0.0,0.0,0.0,0.0,0.0,-0.12186418078137723,-0.45013256736962554,-0.8492251130169931,-0.6592112640865864,0.008477195246934032,-0.023897765027025775,-0.8978105566370032
12228,6.0,300.89537,6501.687,0.0,0.0,0.0,0.0,0.0,-0.12187414759096099,-0.4867927361902025,-0.8425187449776261,-0.6470390298402804,0.02849851019258397,0.006139990617719895,-0.913943261284177
12229,6.0,298.32914,6538.7451,0.0,0.0,0.0,0.0,0.0,-0.12188411440054481,-0.48351492277920755,-0.8469130890713141,-0.6571872159518284,0.018022680541950085,-0.027289561981520077,-0.8458192653233623
12230,6.0,299.48282,6511.8233,0.0,0.0,0.0,0.0,0.0,-0.12189408121012868,-0.47324943270358255,-0.8511546350499222,-0.6550276253511933,0.01216278366262329,-0.02124487361520578,-0.8957782201164272
12231,6.0,300.40628,6704.5013,0.0,0.0,0.0,0.0,0.0,-0.12190404801971244,-0.4709262427418015,-0.8484041169909671,-0.7186706342022693,0.006717002909766573,-0.013834785142886987,-0.8604524408825441
12232,6.0,299.70583,6970.0703,0.0,0.0,0.0,0.0,0.0,-0.12191401482929631,-0.5136950836327575,-0.8828733756503182,-0.7221588591290303,-0.0033753516013962674,-0.009279346543625201,-0.8996346398645261
12233,6.0,299.72665,6825.6482,0.0,0.0,0.0,0.0,0.0,-0.12192398163888007,-0.5360513223816465,-0.8307180898079922,-0.7080571940423043,0.009738711278485971,-0.014227589782653786,-0.8566259829399021
12234,6.0,300.46171,6399.8197,0.0,0.0,0.0,0.0,0.0,-0.12193394844846389,-0.4810536268287966,-0.8113066091622282,-0.6530251493110644,-0.019730974614295585,-0.0029981475681191273,-0.8896971388462712
12235,6.0,300.08398,6331.6962,0.0,0.0,0.0,0.0,0.0,-0.12194391525804776,-0.4731217327934795,-0.8112185779935401,-0.6403372315588644,0.003938471423971866,0.013290912005960887,-0.8851734635098192
12236,6.0,301.55579,6536.1128,0.0,0.0,0.0,0.0,0.0,-0.12195388206763158,-0.4787643908778665,-0.8159578425537691,-0.6920928510317463,-0.00935474167296612,0.03702252022858826,-0.8718994616347773
12237,6.0,301.07829,6527.0154,0.0,0.0,0.0,0.0,0.0,-0.1219638488772154,-0.44257167485842364,-0.8391130290065083,-0.7023650082930294,0.0029256119318854168,0.014390741287255588,-0.8932297947899172
12238,6.0,299.04447000000005,6511.7563,0.0,0.0,0.0,0.0,0.0,-0.12197381568679921,-0.4428701175428776,-0.8587747216319662,-0.6777664774703434,0.02037434384479118,-0.004392628255968655,-0.8777331984230221
12239,6.0,299.2177,6575.2973,0.0,0.0,0.0,0.0,0.0,-0.12198378249638298,-0.4748252291266016,-0.8411377762838351,-0.6827631784834794,-0.004788087610997456,-0.004642457328449865,-0.9071352845247822
12240,6.0,299.49086,6562.6763,0.0,0.0,0.0,0.0,0.0,-0.1219937493059669,-0.4833724902126505,-0.8534890112928072,-0.6580282135348283,-0.005025080223261805,0.013011099951095588,-0.8794296729329512
12241,6.0,299.77513,6603.1129,0.0,0.0,0.0,0.0,0.0,-0.12200371611555066,-0.47296948183345355,-0.8653197397254091,-0.6688922101795214,-0.006432069686245854,-0.014754603451165986,-0.8939947378204112
12242,6.0,300.35872,6671.1718,0.0,0.0,0.0,0.0,0.0,-0.12201368292513454,-0.48031981084137454,-0.8412616765060632,-0.7062881708252153,-0.012083454285794088,-0.006823371372139323,-0.8615782225386502
12243,6.0,299.73284,6474.3678,0.0,0.0,0.0,0.0,0.0,-0.1220236497347183,-0.43734823887041063,-0.8526502529925282,-0.6780476645055944,-0.003126082957545367,0.005596974183753344,-0.9008679476212441
12244,6.0,299.72843,6285.7022,0.0,0.0,0.0,0.0,0.0,-0.12203361654430211,-0.45128135993550256,-0.8028948702770542,-0.6565202846035074,-0.007438777838300212,0.02486349167083558,-0.8870408530466162
12245,6.0,299.66,6531.0198,0.0,0.0,0.0,0.0,0.0,-0.12204358335388599,-0.49085120814074257,-0.8339731456217412,-0.6604426061381103,0.014487507685055686,0.027486973498503074,-0.911816814094313
12246,6.0,300.45112,6666.133000000001,0.0,0.0,0.0,0.0,0.0,-0.1220535501634698,-0.5165869399481615,-0.8243915993636163,-0.6853594393472103,-0.007351108399897914,0.013425283154722287,-0.8829827357336111
12247,6.0,300.72735,6584.1038,0.0,0.0,0.0,0.0,0.0,-0.12206351697305362,-0.48787116866913555,-0.8392379424788362,-0.6742940288476393,-0.004605995320951345,0.007078232447267154,-0.9015507160686281
12248,6.0,300.07397000000003,6673.5209,0.0,0.0,0.0,0.0,0.0,-0.12207348378263744,-0.4739709073047865,-0.8467429339820212,-0.7078698846288184,-0.026842605203408875,-0.005444949279824655,-0.8684990550941832
12249,6.0,299.87836,6607.0115,0.0,0.0,0.0,0.0,0.0,-0.1220834505922212,-0.4803966962589626,-0.8275370316490462,-0.7004328011473353,0.005796480392668074,-0.004173956624062446,-0.8588386982432803
12250,6.0,300.74997,6738.2318,0.0,0.0,0.0,0.0,0.0,-0.12209341740180507,-0.49446834887772656,-0.8474400703158231,-0.7063457943584023,0.010612658944137892,-0.01037125413431309,-0.8480828153842573
12251,6.0,300.51491,6874.7304,0.0,0.0,0.0,0.0,0.0,-0.12210338421138889,-0.5409110826437675,-0.8492288519098622,-0.6996064450282803,0.025117920797445775,0.00016151656477044385,-0.8765883372675332
12252,6.0,299.57652,6643.2601,0.0,0.0,0.0,0.0,0.0,-0.12211335102097276,-0.5120737821477476,-0.8417500225242591,-0.6655613936557954,0.015113975903883286,-0.0004060830999422816,-0.8715530111605851
12253,6.0,299.72792999999996,6370.4675,0.0,0.0,0.0,0.0,0.0,-0.12212331783055652,-0.4498504988067875,-0.8259247683549282,-0.6606877923973083,0.005570008558842045,0.004084658791424436,-0.9051332036521922
12254,6.0,299.95252,6570.1971,0.0,0.0,0.0,0.0,0.0,-0.12213328464014034,-0.46838408943341053,-0.8432957456843102,-0.6854960254606903,0.01227593836754079,-0.0026881782518525374,-0.896763747693691
12255,6.0,298.63867999999997,6681.473000000001,0.0,0.0,0.0,0.0,0.0,-0.12214325144972416,-0.47355632589387053,-0.8506115532613242,-0.7068330663314923,0.0027150886546333875,0.025446813673904976,-0.9047889316657151
12256,6.0,299.61446,6472.1638,0.0,0.0,0.0,0.0,0.0,-0.12215321825930797,-0.4615635585052765,-0.8385530360737412,-0.6672596008233954,-0.010241757731782791,-0.004632363229628656,-0.9195463215546562
12257,6.0,300.7973,6339.1903,0.0,0.0,0.0,0.0,0.0,-0.12216318506889184,-0.4438144261060736,-0.8356702888767361,-0.6474708567678984,-0.009454966597332552,0.0001097530216817799,-0.8956204368108552
12258,6.0,300.5833,6415.5157,0.0,0.0,0.0,0.0,0.0,-0.12217315187847566,-0.47063034331509856,-0.8318482791020333,-0.6476779549558375,-0.010432623653119791,0.0012386025964405587,-0.8869530143954472
12259,6.0,300.38035,6660.8333,0.0,0.0,0.0,0.0,0.0,-0.12218311868805942,-0.4712719839409236,-0.8641797725679031,-0.6892752558161713,0.004318918769494096,0.02254933584694618,-0.8964300844357611
12260,6.0,300.6068,6563.8831,0.0,0.0,0.0,0.0,0.0,-0.1221930854976433,-0.4750334824196546,-0.8399293539495731,-0.6802937360022643,-0.0025426969170696473,0.0003989790413711656,-0.8848798337633401
12261,6.0,299.19588999999996,6501.0008,0.0,0.0,0.0,0.0,0.0,-0.12220305230722706,-0.43787305175970553,-0.8619196067623421,-0.6763492648204753,-0.008086606990435972,-0.013377983626804186,-0.8909585136307591
12262,6.0,299.57162999999997,6511.4293,0.0,0.0,0.0,0.0,0.0,-0.12221301911681093,-0.46212960054114055,-0.8347000411109802,-0.6824822852907573,0.027892050623481077,-0.011755072087385288,-0.8817834934452552
12263,6.0,298.84704,6561.9972,0.0,0.0,0.0,0.0,0.0,-0.12222298592639474,-0.4761649281438196,-0.8508825571330701,-0.6676358104530243,0.009371059356551551,0.02385383354244008,-0.8970280945122802
12264,6.0,298.78679,6596.6687,0.0,0.0,0.0,0.0,0.0,-0.12223295273597856,-0.49604564491089354,-0.8389676782796631,-0.6702092326595014,-0.004589779165025936,0.007795508646681803,-0.9023607183310691
12265,6.0,299.50307999999995,6593.2316,0.0,0.0,0.0,0.0,0.0,-0.12224291954556238,-0.4873576129884515,-0.8261851331006242,-0.6906350171853692,-0.030504158718776073,-0.02654987117001827,-0.8905545612133922
12266,6.0,298.81507999999997,6460.0203,0.0,0.0,0.0,0.0,0.0,-0.1222528863551462,-0.4683484736923955,-0.8201090876834652,-0.6752273031172463,0.020204652824043982,-0.01158886158073159,-0.8940057011864931
12267,6.0,299.56687,6699.5977,0.0,0.0,0.0,0.0,0.0,-0.12226285316473007,-0.4968179947996186,-0.8269703411331182,-0.7127220657801913,0.017736525541458784,0.02010338860904998,-0.8824762018761202
12268,6.0,300.14763,6992.6759999999995,0.0,0.0,0.0,0.0,0.0,-0.12227281997431383,-0.5359178266809715,-0.8782175421033231,-0.7114635280959833,0.025920119007616576,0.0008061125878246183,-0.8748789640838311
12269,6.0,299.71013999999997,6757.1621,0.0,0.0,0.0,0.0,0.0,-0.12228278678389765,-0.5084492041550295,-0.8460439535330372,-0.6995153943742943,-0.02837372236326837,-0.00867018200205534,-0.875290140974411
12270,6.0,300.95977,6639.8387,0.0,0.0,0.0,0.0,0.0,-0.12229275359348152,-0.47736425149218353,-0.8607997424868202,-0.6801811639161544,0.006229926189970844,0.02090835501849398,-0.9006593903531611
12271,6.0,300.53914,6547.735,0.0,0.0,0.0,0.0,0.0,-0.12230272040306528,-0.45763996027554754,-0.8432718836444552,-0.6894360890045443,-0.005071280374821405,0.04406757623313116,-0.905767913647333
12272,6.0,300.3983,6480.9125,0.0,0.0,0.0,0.0,0.0,-0.12231268721264915,-0.4233648099378536,-0.8494342478376332,-0.6972365138393863,0.003008464379312317,-0.027038827164774473,-0.9085003857220072
12273,6.0,300.6188,6375.3238,0.0,0.0,0.0,0.0,0.0,-0.12232265402223291,-0.39829381072603864,-0.8624156940113022,-0.6772297487598723,0.0017277482716154785,-0.046651952686439256,-0.9097495103127862
12274,6.0,299.93776,6263.8605,0.0,0.0,0.0,0.0,0.0,-0.12233262083181673,-0.4193632623779316,-0.8084115915065123,-0.6762823396513703,0.03196820581476627,-0.024490747356548576,-0.8925442601697602
12275,6.0,298.6008,6453.5739,0.0,0.0,0.0,0.0,0.0,-0.1223425876414006,-0.44300037084323257,-0.8481742409407803,-0.6705507182082033,0.04705866215732836,0.01895079635529798,-0.9280338515473102
12276,6.0,299.4263,6574.1173,0.0,0.0,0.0,0.0,0.0,-0.12235255445098442,-0.4647849136206995,-0.8464145294921103,-0.6871680603782074,0.0060305257643665545,0.0014044323237066786,-0.9082100591708541
12277,6.0,299.42773,6587.5717,0.0,0.0,0.0,0.0,0.0,-0.12236252126056824,-0.47778782043148654,-0.8362917354280681,-0.6883777594075954,-0.019445868327657784,0.004572187522089776,-0.9062021217126862
12278,6.0,299.07656000000003,6652.0586,0.0,0.0,0.0,0.0,0.0,-0.12237248807015205,-0.4689264214169346,-0.8482921325899151,-0.7048411686224073,-0.015629501342761684,0.008872976511519602,-0.8662129298210602
12279,6.0,298.98938,6595.4455,0.0,0.0,0.0,0.0,0.0,-0.12238245487973581,-0.4865911095528035,-0.8311465324802763,-0.6871131016927834,-0.016642234685210686,0.021463869385818977,-0.8853186217191452
12280,6.0,299.97277,6756.0622,0.0,0.0,0.0,0.0,0.0,-0.12239242168931974,-0.5169501901090116,-0.8438996224789083,-0.6928243770739423,-0.005864942459524755,-0.016718783703765484,-0.8633791124713841
12281,6.0,300.37397999999996,6779.6807,0.0,0.0,0.0,0.0,0.0,-0.1224023884989035,-0.5138003299206445,-0.8559762768432811,-0.6910770272764923,-0.027529358763436176,-0.020165737940703383,-0.8829258721379991
12282,6.0,300.33423999999997,6606.1351,0.0,0.0,0.0,0.0,0.0,-0.12241235530848732,-0.48226376155572753,-0.8400553515995082,-0.6857810121838164,0.030186320400907872,0.014443073628420384,-0.8881975692282752
12283,6.0,300.16882000000004,6584.1359999999995,0.0,0.0,0.0,0.0,0.0,-0.12242232211807114,-0.47913667922960856,-0.8326522322613773,-0.6896240266330923,0.03098253030298767,0.016478849119835784,-0.8772902358768051
12284,6.0,299.72988,6603.7857,0.0,0.0,0.0,0.0,0.0,-0.12243228892765495,-0.4539701001358606,-0.855737028229669,-0.6976788380380403,0.02787059707911377,-0.006651329003210063,-0.8973887811503771
12285,6.0,298.96296,6439.3566,0.0,0.0,0.0,0.0,0.0,-0.12244225573723883,-0.4488987327228556,-0.8157659228523282,-0.6927389600905124,-0.001947651509018238,-0.022057993648204478,-0.8586053771427532
12286,6.0,300.06142,6648.2921,0.0,0.0,0.0,0.0,0.0,-0.12245222254682264,-0.4922227536086035,-0.8644991084694191,-0.6641929183357373,-0.003508072064419757,0.004627577142781306,-0.9035278203262532
12287,6.0,300.72587999999996,6790.8109,0.0,0.0,0.0,0.0,0.0,-0.12246218935640646,-0.5157356781416484,-0.8485182190847282,-0.6999830396929473,-0.01053677664414889,0.03270883793561097,-0.8730538068112023
12288,6.0,300.383,6566.9788,0.0,0.0,0.0,0.0,0.0,-0.12247215616599028,-0.48126224489188557,-0.8400414802056392,-0.6748938526418373,-0.02167819204697098,0.015977150491821985,-0.9111573301342272
12289,6.0,300.86669,6535.703,0.0,0.0,0.0,0.0,0.0,-0.12248212297557404,-0.4397824405131476,-0.8695722186725963,-0.6773358360453424,-0.02928860614356037,0.019458951412948983,-0.8835091090280601
12290,6.0,300.52432999999996,6627.5661,0.0,0.0,0.0,0.0,0.0,-0.12249208978515791,-0.4659153866247685,-0.8391961560447121,-0.7095030715375014,-0.008557665442050822,0.015213275426933385,-0.8902014131560391
12291,6.0,300.16778,6704.644,0.0,0.0,0.0,0.0,0.0,-0.12250205659474173,-0.47344866807074554,-0.8835139624960391,-0.6810817203400323,0.017968206190073884,0.01174659625029879,-0.9033913051402801
12292,6.0,300.59397,6504.6122,0.0,0.0,0.0,0.0,0.0,-0.12251202340432554,-0.49876829859209854,-0.8391578349259302,-0.6393135348503334,-0.0029991114729392573,-0.018709208147205083,-0.9041000634527292
12293,6.0,300.49105,6473.4073,0.0,0.0,0.0,0.0,0.0,-0.12252199021390936,-0.4584953865399715,-0.8429424760369453,-0.6663163257753014,-0.002939133247844867,-0.000960869649720451,-0.9195746824249551
12294,6.0,299.86824,6557.1356,0.0,0.0,0.0,0.0,0.0,-0.12253195702349318,-0.5012564862001636,-0.8454992708092812,-0.6464497235821204,-0.007598909654953993,0.01085230779153939,-0.8982790834832431
12295,6.0,300.24065,6684.8611,0.0,0.0,0.0,0.0,0.0,-0.122541923833077,-0.4657283507888095,-0.8544415778443182,-0.7118609146527023,-0.00810862582703406,0.027192270720168176,-0.9047307305799711
12296,6.0,299.91074,6678.7993,0.0,0.0,0.0,0.0,0.0,-0.12255189064266081,-0.5027940729619116,-0.8429040029306482,-0.6844901315564164,-0.004834481090676136,0.007439787339374842,-0.8768442234477871
12297,6.0,300.39727,6573.9061,0.0,0.0,0.0,0.0,0.0,-0.12256185745224468,-0.46263433081345356,-0.8422458159306903,-0.6934231572205373,0.008123078623810441,-0.004634328022897566,-0.8794582668507732
12298,6.0,299.80924,6404.0304,0.0,0.0,0.0,0.0,0.0,-0.1225718242618285,-0.4681458642023995,-0.8139323657363702,-0.6645871030221404,0.02864869108265567,0.014894661972738685,-0.8689843410970772
12299,6.0,298.41936,6589.5956,0.0,0.0,0.0,0.0,0.0,-0.12258179107141226,-0.49097980984343453,-0.8429273786104552,-0.6691653216114753,0.02052325715898778,0.0033672370892954264,-0.8934717893113002
12300,6.0,298.63981,6785.4322,0.0,0.0,0.0,0.0,0.0,-0.12259175788099608,-0.5371400393490945,-0.8406878729744333,-0.6847740543669374,0.013309330866278687,-0.01149240827721239,-0.8840563046120642
12301,6.0,298.80974,6437.3917,0.0,0.0,0.0,0.0,0.0,-0.1226017246905799,-0.4594696974386286,-0.8276132077915642,-0.6697234298990564,-0.031562050591681864,-0.003807774522723087,-0.8745583920171932
12302,6.0,298.82757000000004,6320.779,0.0,0.0,0.0,0.0,0.0,-0.12261169150016377,-0.4302905263588686,-0.8423086273043893,-0.6487598223526093,-0.004094058205977086,0.005925363778887875,-0.8935667004481672
12303,6.0,299.99022,6747.1116,0.0,0.0,0.0,0.0,0.0,-0.12262165830974758,-0.5064208699723486,-0.8493380093431352,-0.6951945818403633,-0.005132300524993625,-0.005964742325474235,-0.8835831573453681
12304,6.0,298.56127999999995,6770.9635,0.0,0.0,0.0,0.0,0.0,-0.1226316251193314,-0.48443464989497753,-0.8700679208865183,-0.7037012521274063,0.006320301006140144,-0.007698742552856732,-0.9151709657678421
12305,6.0,299.70352,6605.3,0.0,0.0,0.0,0.0,0.0,-0.12264159192891522,-0.4759308977682225,-0.8460742395785261,-0.6858411384447504,0.032984884753104675,-0.019295978240364782,-0.9104108586530563
12306,6.0,300.59076,6454.08,0.0,0.0,0.0,0.0,0.0,-0.12265155873849903,-0.4227131381360386,-0.8349621385143473,-0.7042038849720123,0.033841527930898764,-0.0026050039961938777,-0.9172148533395582
12307,6.0,299.71262,6285.2085,0.0,0.0,0.0,0.0,0.0,-0.1226615255480829,-0.43103989573532553,-0.8152470678736212,-0.6642594686023053,0.02129484305713738,-0.018809874544640084,-0.9261706669984281
12308,6.0,299.59009,6543.513000000001,0.0,0.0,0.0,0.0,0.0,-0.12267149235766667,-0.47810621401040954,-0.8334742010074992,-0.6774841353299784,0.0032546546680344065,-0.0008000369781050022,-0.8977623968597501
12309,6.0,299.27012,6699.3754,0.0,0.0,0.0,0.0,0.0,-0.12268145916725048,-0.5076796711015825,-0.8400041824694583,-0.6887589744927183,-0.02050033338872538,0.03119730791343457,-0.8866350261165641
12310,6.0,300.72411,6718.1762,0.0,0.0,0.0,0.0,0.0,-0.1226914259768343,-0.4888033891586386,-0.8613867284022513,-0.6919676943793944,-0.01095190115711849,0.03987104490346576,-0.8635481529855672
12311,6.0,300.74902000000003,6651.2556,0.0,0.0,0.0,0.0,0.0,-0.12270139278641812,-0.4603834869088126,-0.8519303185314762,-0.7095018049748762,-0.024038193384884977,0.005082317708160706,-0.8926683022470022
12312,6.0,299.862,6821.9446,0.0,0.0,0.0,0.0,0.0,-0.12271135959600199,-0.48751527470401157,-0.8485538145607411,-0.7376317353110843,-0.0002006175416244098,-0.016613167579591984,-0.8719266775324632
12313,6.0,300.41172,6999.2521,0.0,0.0,0.0,0.0,0.0,-0.1227213264055858,-0.5003173452124775,-0.8859304221295252,-0.7413500896005573,0.015234554692283487,-0.05057744265410495,-0.9081883452212111
12314,6.0,301.23037,6706.6307,0.0,0.0,0.0,0.0,0.0,-0.12273129321516957,-0.4999616842948765,-0.8346537659789133,-0.7040328382226314,0.026273390681481774,-0.0068268846142110545,-0.8820483772863973
12315,6.0,300.81484,6461.8977,0.0,0.0,0.0,0.0,0.0,-0.12274126002475344,-0.45702834225018557,-0.8395085613155442,-0.6677186537812003,0.03087561012593547,-0.016906001924742484,-0.929190405608953
12316,6.0,300.45686,6472.125,0.0,0.0,0.0,0.0,0.0,-0.12275122683433726,-0.47984576178208954,-0.8164285580202253,-0.6710900712364334,0.022624161327080877,0.019482056554979282,-0.8916551636045131
12317,6.0,299.52483,6320.2892,0.0,0.0,0.0,0.0,0.0,-0.12276119364392107,-0.4570311084229586,-0.8035437353760922,-0.6606352655121244,-0.003990692104975647,0.038184602582776866,-0.9180299218524991
12318,6.0,299.49827,6433.3843,0.0,0.0,0.0,0.0,0.0,-0.12277116045350489,-0.4461643658704946,-0.8320536750298042,-0.6773701446937284,-0.008844380465872392,0.02346825742888668,-0.8962849667564392
12319,6.0,300.60846000000004,6779.6537,0.0,0.0,0.0,0.0,0.0,-0.12278112726308865,-0.5048826752605405,-0.8616419661024411,-0.6943208056166283,-0.004336755416304436,-0.006123073090075265,-0.9049778926768641
12320,6.0,299.16972000000004,6797.6712,0.0,0.0,0.0,0.0,0.0,-0.12279109407267252,-0.5153377748273785,-0.8558053314189102,-0.6951792108363463,-0.018660642056661982,0.0038140797754453665,-0.8858953231460611
12321,6.0,299.0664,6832.0584,0.0,0.0,0.0,0.0,0.0,-0.12280106088225634,-0.5118006099207876,-0.8878306916320672,-0.6771438758138973,0.02154906446747708,0.021374336580482777,-0.8926683630420081
12322,6.0,299.15811,6927.8665,0.0,0.0,0.0,0.0,0.0,-0.12281102769184016,-0.5143760890249675,-0.8649492752238471,-0.7265730527921773,-0.015035163284605087,0.03432957200056497,-0.8760833030201901
12323,6.0,300.50257,6780.0924,0.0,0.0,0.0,0.0,0.0,-0.12282099450142397,-0.47607203337465154,-0.8610452428535491,-0.7238615043320683,-0.018543809253881483,-0.00984235369278968,-0.8820711450161441
12324,6.0,300.15652,6495.3434,0.0,0.0,0.0,0.0,0.0,-0.12283096131100779,-0.4342233350320066,-0.8455612918479023,-0.6946375779953914,-0.02829335339183657,-0.008633846245519283,-0.8971158521034411
12325,6.0,300.03938999999997,6292.866,0.0,0.0,0.0,0.0,0.0,-0.12284092812059166,-0.44607932378960163,-0.8186084744178662,-0.6481863430610114,-0.001938419179407078,-0.014105103044315288,-0.9014365633123622
12326,6.0,300.05357000000004,6313.7981,0.0,0.0,0.0,0.0,0.0,-0.12285089493017542,-0.44845965092452156,-0.8276788866630462,-0.6430984394063743,0.018093255437915283,-0.006712834601505193,-0.927429488392664
12327,6.0,299.78706,6494.1832,0.0,0.0,0.0,0.0,0.0,-0.1228608617397593,-0.47316737971048456,-0.8353090956135892,-0.6655930475889194,0.007908206679779232,-0.018278079348905983,-0.9082866203484101
12328,6.0,299.51692,6530.6576,0.0,0.0,0.0,0.0,0.0,-0.12287082854934306,-0.47836316410326857,-0.8567457491017222,-0.6500479266747354,0.0035195545185279864,-0.0007729507662993013,-0.8988615908332321
12329,6.0,300.39506,6580.6547,0.0,0.0,0.0,0.0,0.0,-0.12288079535892688,-0.47435823228801255,-0.8459531561915762,-0.6800433112400494,0.017324988947093282,0.010540677657033891,-0.8794389036413621
12330,6.0,301.0608,6626.2638,0.0,0.0,0.0,0.0,0.0,-0.12289076216851075,-0.4822375589081415,-0.8332237559802822,-0.6987574326369894,-0.007738379478218592,0.02320037436744868,-0.8685508625717963
12331,6.0,299.83342999999996,6878.6205,0.0,0.0,0.0,0.0,0.0,-0.12290072897809456,-0.5235884272116546,-0.8811655426067682,-0.6861749030276904,-0.01182796327307909,-0.01046008881033039,-0.8861366489223782
12332,6.0,299.39172,7135.0139,0.0,0.0,0.0,0.0,0.0,-0.12291069578767838,-0.5646272043518665,-0.8592858860424142,-0.7449529739086344,-0.033365295317648265,-0.019007732904917182,-0.8754703272396941
12333,6.0,299.51812,6835.0936,0.0,0.0,0.0,0.0,0.0,-0.1229206625972622,-0.5151695550457764,-0.8694407596046221,-0.6930874573299064,-0.007471180563248113,-0.0019267358991290281,-0.8789458662752031
12334,6.0,298.98123,6420.4577,0.0,0.0,0.0,0.0,0.0,-0.12293062940684601,-0.44842023549563154,-0.8304873524952202,-0.6727512137153753,0.006328459898595364,0.017086874160343185,-0.8890199838044411
12335,6.0,298.94622999999996,6404.8093,0.0,0.0,0.0,0.0,0.0,-0.12294059621642983,-0.4437690122365916,-0.8279793659802012,-0.6751537107624834,-0.005420092228371455,0.007900974404540462,-0.8833806187828792
12336,6.0,299.77815,6391.8956,0.0,0.0,0.0,0.0,0.0,-0.12295056302601365,-0.45724485353155353,-0.8244511075419892,-0.6612806855608224,-0.012556515426231589,0.004565747709754215,-0.8912673725262412
12337,6.0,300.07144,6425.1225,0.0,0.0,0.0,0.0,0.0,-0.12296052983559752,-0.4674049655967785,-0.8158065643138392,-0.6698652646480544,-0.011928951884045887,0.01128390572463479,-0.8895406221033242
12338,6.0,300.34451,6587.9289,0.0,0.0,0.0,0.0,0.0,-0.12297049664518128,-0.46333813433291354,-0.8424230029756773,-0.6968047375742733,0.007234183796658354,0.008550543307097922,-0.9110917627202562
12339,6.0,301.51923999999997,6633.973000000001,0.0,0.0,0.0,0.0,0.0,-0.1229804634547651,-0.4864919934280215,-0.8495260077666892,-0.6805441506319784,0.010198304501244291,-0.05532313729946854,-0.8978034030912972
12340,6.0,300.30039,6928.2205,0.0,0.0,0.0,0.0,0.0,-0.12299043026434892,-0.5081050942885685,-0.8805459705681212,-0.7173549796099243,0.011597981844881687,-0.03362029389081467,-0.8900972307807572
12341,6.0,300.06795,7100.5285,0.0,0.0,0.0,0.0,0.0,-0.12300039707393273,-0.5557484179655985,-0.8815081933930852,-0.7211267524446693,0.010831475369483388,-0.01003600919297699,-0.8762987503889531
12342,6.0,299.53798,6852.8867,0.0,0.0,0.0,0.0,0.0,-0.1230103638835166,-0.49948825331815255,-0.8652890585123811,-0.7183291385210664,0.008558579089665992,0.01643107539087088,-0.881139471681695
12343,6.0,299.86264,6509.4646,0.0,0.0,0.0,0.0,0.0,-0.12302033069310042,-0.4870494937655425,-0.8382381382076632,-0.6534270752282314,-0.017440448795988283,-0.00014642477195099987,-0.8793755248476072
12344,6.0,300.27895,6364.3582,0.0,0.0,0.0,0.0,0.0,-0.12303029750268418,-0.4300443977770776,-0.8404840577168181,-0.6640775192818484,-0.04159111800822376,0.006270241182299624,-0.8872873767959462
12345,6.0,299.9604,6428.255,0.0,0.0,0.0,0.0,0.0,-0.12304026431226806,-0.4778942522219905,-0.8199029926131253,-0.6562317616375324,-0.0006913815494615464,0.007137696954560843,-0.8836145680984682
12346,6.0,299.80394,6422.6528,0.0,0.0,0.0,0.0,0.0,-0.12305023112185182,-0.4327319018123136,-0.8315293181030542,-0.6880648475117134,-0.008473152581685052,0.014802623399905186,-0.9011959670761172
12347,6.0,298.53631,6368.9071,0.0,0.0,0.0,0.0,0.0,-0.12306019793143574,-0.4453415662592906,-0.8207557844272892,-0.6698913659706304,0.0064509187725561145,-0.01831097856640288,-0.8739394684586101
12348,6.0,298.81234,6642.4631,0.0,0.0,0.0,0.0,0.0,-0.1230701647410195,-0.48353762971394854,-0.8334871908737811,-0.7021180893761604,0.0022093804946488782,-0.03239352970324247,-0.8787423043301131
12349,6.0,300.19597000000005,6768.3449,0.0,0.0,0.0,0.0,0.0,-0.12308013155060332,-0.5232142643472275,-0.8411239555524712,-0.6930696241281463,0.01178829554491419,0.008837316086175192,-0.8754375283339572
12350,6.0,299.44295,6808.223000000001,0.0,0.0,0.0,0.0,0.0,-0.12309009836018714,-0.5038883526724085,-0.8599127838792842,-0.7057286642524964,0.024305263819742774,-0.01166046188579799,-0.9006809624477902
12351,6.0,298.87908999999996,6788.7696,0.0,0.0,0.0,0.0,0.0,-0.12310006516977096,-0.5086651581488425,-0.8683597636029362,-0.6865915109388063,0.013962203369462188,-0.0024297749557001176,-0.8927973396472372
12352,6.0,299.92503,6520.9971,0.0,0.0,0.0,0.0,0.0,-0.12311003197935483,-0.47154711174057656,-0.8345581556994772,-0.6761150216623574,-0.015127626409230484,-0.006307489269225724,-0.8921162835925222
12353,6.0,300.49764,6428.789000000001,0.0,0.0,0.0,0.0,0.0,-0.12311999878893864,-0.4670227473940566,-0.8320063461176332,-0.6551622457594795,-0.0034996817456416965,-0.002403656306547408,-0.8856184728212382
12354,6.0,299.71495,6497.5959,0.0,0.0,0.0,0.0,0.0,-0.1231299655985224,-0.45259599114524657,-0.8493391543157481,-0.6731717530368794,-0.007073838488208503,0.006845400543888433,-0.8986801380053241
12355,6.0,299.98585,6462.8684,0.0,0.0,0.0,0.0,0.0,-0.12313993240810628,-0.45904549015176255,-0.8409293811357682,-0.6645757242235174,-0.01056408576084409,-0.006025961781941124,-0.8908572291507632
12356,6.0,299.98801000000003,6400.7421,0.0,0.0,0.0,0.0,0.0,-0.12314989921769004,-0.42118128636985663,-0.8590872180953072,-0.6653972775370983,0.001223567586156719,-0.011860160308256689,-0.8966706401420022
12357,6.0,301.43692000000004,6631.1638,0.0,0.0,0.0,0.0,0.0,-0.12315986602727391,-0.4924385353498995,-0.8501425299225351,-0.6731271497674773,0.03475568723736927,0.020797554093558778,-0.8921281082211893
12358,6.0,300.77058,6814.9744,0.0,0.0,0.0,0.0,0.0,-0.12316983283685773,-0.49490392483071455,-0.8727797530566552,-0.7038983799343613,0.014676753419482788,0.0091672050888077,-0.9031553901194972
12359,6.0,300.92715,6794.6265,0.0,0.0,0.0,0.0,0.0,-0.12317979964644149,-0.5223119752656785,-0.8684088251727781,-0.6746759937378364,0.02212317602713748,-0.007017066287755524,-0.8876489449616302
12360,6.0,299.56248999999997,6823.7646,0.0,0.0,0.0,0.0,0.0,-0.12318976645602536,-0.5328371106794285,-0.8405751995633131,-0.7008417488876953,-0.025118756728778276,-0.00986999282504245,-0.8818352299953612
12361,6.0,299.76211,6848.9717,0.0,0.0,0.0,0.0,0.0,-0.12319973326560918,-0.5361317845720875,-0.8460362933622811,-0.6997483000422804,-0.01014573809930639,0.002861599856817917,-0.8554382917026863
12362,6.0,300.94745,6595.8632,0.0,0.0,0.0,0.0,0.0,-0.123209700075193,-0.4584800459334576,-0.8474322378925502,-0.6990654201373853,-0.008600546084957812,-0.0021742331791551077,-0.898984791912891
12363,6.0,299.18484,6532.931,0.0,0.0,0.0,0.0,0.0,-0.12321966688477681,-0.45954458675351956,-0.8393185870542952,-0.6869847026401114,0.01210641959931059,-0.002859304034741338,-0.8868484976476322
12364,6.0,298.36514,6629.2242,0.0,0.0,0.0,0.0,0.0,-0.12322963369436063,-0.48303264612911057,-0.8487404248316582,-0.6833455541109553,0.03327930888766207,-0.014082849032368986,-0.8901849174444111
12365,6.0,299.6909,6450.9925,0.0,0.0,0.0,0.0,0.0,-0.1232396005039445,-0.5043388841968725,-0.8195858351993242,-0.6370159395860784,0.014577711261958087,-0.012802408933999386,-0.8835519695072902
12366,6.0,299.86716,6390.3027,0.0,0.0,0.0,0.0,0.0,-0.12324956731352826,-0.4526585897364246,-0.8322709259837451,-0.6575629493539104,0.016469793703692087,-0.006846989927995295,-0.8922751409432003
12367,6.0,299.80125,6580.8574,0.0,0.0,0.0,0.0,0.0,-0.12325953412311214,-0.4648723875018325,-0.8546033128252801,-0.6809406353961083,-0.03225018825134577,9.347633723514622e-05,-0.8840917582330631
12368,6.0,300.40747999999996,6817.5352,0.0,0.0,0.0,0.0,0.0,-0.1232695009326959,-0.47354284966754057,-0.8999214909678361,-0.6988961263106773,0.0032044498481045773,0.028298033594048474,-0.899171077943776
12369,6.0,300.57948999999996,6925.4464,0.0,0.0,0.0,0.0,0.0,-0.12327946774227971,-0.5220435754466894,-0.8752334800288192,-0.7078857217278813,-0.03148433228251167,0.023990864472713976,-0.9142331926677912
12370,6.0,300.37044,6773.745,0.0,0.0,0.0,0.0,0.0,-0.12328943455186359,-0.5123638655188766,-0.8609795538495663,-0.6857059303514064,0.015987748074617884,0.0012987766827792788,-0.9043408218089902
12371,6.0,300.12804,6582.5376,0.0,0.0,0.0,0.0,0.0,-0.1232994013614474,-0.5164154878987405,-0.8258517738177242,-0.6586597925871603,-0.02321814677420268,-0.025165549631646373,-0.9029414220958802
12372,6.0,300.61571000000004,6449.2681,0.0,0.0,0.0,0.0,0.0,-0.12330936817103122,-0.4601225648755616,-0.8138479822680422,-0.6864459068994363,0.028210252698135173,-0.03232935449490887,-0.8876161561883942
12373,6.0,300.14518,6585.7977,0.0,0.0,0.0,0.0,0.0,-0.12331933498061504,-0.47390389094317253,-0.8423571721166803,-0.6856569802390753,0.0035024981756196566,-0.0016130406595947185,-0.8845588361316602
12374,6.0,299.37124,6490.146,0.0,0.0,0.0,0.0,0.0,-0.1233293017901988,-0.42458740764101455,-0.8353776419828542,-0.7128772855630103,0.0038248286364811965,0.01037484711916769,-0.8976361762947932
12375,6.0,299.3417,6293.6283,0.0,0.0,0.0,0.0,0.0,-0.12333926859978267,-0.4373483199304186,-0.8135721147958161,-0.6621854368401143,-0.004039794812771707,0.01990626586834548,-0.8973685060158761
12376,6.0,298.56624,6574.9295,0.0,0.0,0.0,0.0,0.0,-0.12334923540936649,-0.4584791948033736,-0.8668078190872711,-0.6733273882522394,-0.01987439104669968,0.012920868003190387,-0.8922932679874891
12377,6.0,298.45759,7048.6294,0.0,0.0,0.0,0.0,0.0,-0.12335920221895036,-0.5745255533862574,-0.8621578522583552,-0.7059239276792674,-0.02213717813026938,0.0027247924495160778,-0.8743521449593382
12378,6.0,299.01115,6973.3368,0.0,0.0,0.0,0.0,0.0,-0.12336916902853412,-0.5405287935135384,-0.8760681549311952,-0.7031233145353684,-0.025318791550270177,0.0032036950781050874,-0.8784005350713832
12379,6.0,299.98408,6677.2749,0.0,0.0,0.0,0.0,0.0,-0.12337913583811794,-0.4918031566096925,-0.8428065282710282,-0.6951151531650243,-0.007809340625121912,-0.0026461847094080976,-0.8485070429361252
12380,6.0,300.30638,6634.3481,0.0,0.0,0.0,0.0,0.0,-0.12338910264770175,-0.4505239858832556,-0.8574114544174222,-0.7087407122947623,0.0034167275679047567,0.004164669781595905,-0.8734219712350372
12381,6.0,299.67865,6702.7562,0.0,0.0,0.0,0.0,0.0,-0.12339906945728557,-0.4893750040700525,-0.8502244917231242,-0.6978710211845073,0.02039793737336968,0.018286350509472284,-0.8835301643651382
12382,6.0,300.23163,6709.7885,0.0,0.0,0.0,0.0,0.0,-0.12340903626686944,-0.4937686996836765,-0.8535878943700662,-0.6922515665274104,0.03414768448836407,-0.006893384015624033,-0.9059636229041481
12383,6.0,299.95937999999995,6565.9885,0.0,0.0,0.0,0.0,0.0,-0.12341900307645326,-0.5174465813330015,-0.8304966439986371,-0.6479533360680153,0.010094393069039032,-0.013730472058342087,-0.9173962149749572
12384,6.0,299.64541,6359.5873,0.0,0.0,0.0,0.0,0.0,-0.12342896988603702,-0.43477408712386156,-0.8444878344269601,-0.6538938288867964,-0.0035379551403439866,-0.007964436690103702,-0.9057579230013472
12385,6.0,300.3887,6535.1175,0.0,0.0,0.0,0.0,0.0,-0.1234389366956209,-0.45930925941779455,-0.8484362167541352,-0.6787670619440933,-0.02050783245271548,0.0042240866661348965,-0.909598039555337
12386,6.0,300.00558,6899.4589,0.0,0.0,0.0,0.0,0.0,-0.12344890350520465,-0.4712263167589166,-0.8900281676539412,-0.7360087315659063,-0.008718633595337142,-0.0014250863124200687,-0.8935802273370022
12387,6.0,299.12694,6819.9089,0.0,0.0,0.0,0.0,0.0,-0.12345887031478853,-0.5145429105214315,-0.8487364630237672,-0.7098026389295663,0.003305501888527637,0.019525368943753882,-0.8816151216761382
12388,6.0,299.84202999999997,6690.7278,0.0,0.0,0.0,0.0,0.0,-0.12346883712437234,-0.48356533197168255,-0.8669477793235842,-0.6833010724315653,0.013600668641031486,-5.228777943865205e-05,-0.8815685020390371
12389,6.0,299.70362,6766.0299,0.0,0.0,0.0,0.0,0.0,-0.12347880393395616,-0.5290783479759675,-0.8647943188860542,-0.6628314648388725,-0.0040064207862779465,0.006803336276587014,-0.8797391701759962
12390,6.0,298.21567000000005,6802.4723,0.0,0.0,0.0,0.0,0.0,-0.12348877074353998,-0.5078813382689855,-0.8428129522766623,-0.7170874410535203,-0.024757129794588478,-0.02074441115231398,-0.8941345055392051
12391,6.0,298.99917,6750.3954,0.0,0.0,0.0,0.0,0.0,-0.1234987375531238,-0.4936685703087945,-0.8584375322636881,-0.6998455315218763,-0.009857930690552012,0.011266988500965188,-0.8838479803915041
12392,6.0,299.85298,6567.9598,0.0,0.0,0.0,0.0,0.0,-0.12350870436270767,-0.45000485732702156,-0.8357456848166771,-0.7107452452325943,-0.031163825063880074,0.035297193422061765,-0.9020017846156451
12393,6.0,300.48976,6470.8811,0.0,0.0,0.0,0.0,0.0,-0.12351867117229148,-0.45175231858198256,-0.8337349102582292,-0.6814990577912203,-0.0016882409409414083,-0.006606654907626073,-0.9007151697711662
12394,6.0,300.63525,6465.6303,0.0,0.0,0.0,0.0,0.0,-0.12352863798187524,-0.46907153909625654,-0.8328854013743893,-0.6634332138082604,0.015401265744486586,-0.03160865199028107,-0.9373375443630131
12395,6.0,301.54726,6754.0624,0.0,0.0,0.0,0.0,0.0,-0.12353860479145912,-0.5317748902020956,-0.8401118402925832,-0.6811795901671913,0.01053727617644819,-0.025853792669320676,-0.9012102741675292
12396,6.0,300.3333,6842.9203,0.0,0.0,0.0,0.0,0.0,-0.12354857160104288,-0.5058774031487125,-0.8868009458204391,-0.6873985646434563,0.03976596884159556,-0.025274384851387575,-0.9026193808165971
12397,6.0,300.8189,6705.8691,0.0,0.0,0.0,0.0,0.0,-0.12355853841062675,-0.46608705145671053,-0.8739990880944942,-0.6983306111648654,-0.005895474724788055,-0.01221835739085799,-0.8863713987055463
12398,6.0,300.98871,6711.6124,0.0,0.0,0.0,0.0,0.0,-0.12356850522021057,-0.4642345668288846,-0.8725381942328152,-0.7033898094441693,-0.012304947717903789,0.012326419500772888,-0.893663222652693
12399,6.0,299.32802000000004,6992.2796,0.0,0.0,0.0,0.0,0.0,-0.12357847202979438,-0.5376246464744215,-0.8642513890849711,-0.7236023554864923,-0.01634889675476048,-0.011769642623823288,-0.8585653436313022
12400,6.0,299.18573,6906.5628,0.0,0.0,0.0,0.0,0.0,-0.1235884388393782,-0.5203404134861005,-0.8626730595367021,-0.7164091815690813,-0.0057803975804558245,0.02928882095258157,-0.8917740178412432
12401,6.0,300.82411,6460.1314,0.0,0.0,0.0,0.0,0.0,-0.12359840564896202,-0.48621691629087355,-0.8180752414202401,-0.6594264682753254,-0.029568580318441676,-0.001091533600075979,-0.9027191859514472
12402,6.0,300.1073,6276.1052,0.0,0.0,0.0,0.0,0.0,-0.12360837245854583,-0.4186676053892756,-0.8115237689236603,-0.6775879022727194,-0.012671288291558789,-0.016242649375774684,-0.9329800724404641
12403,6.0,299.93375,6523.147,0.0,0.0,0.0,0.0,0.0,-0.12361833926812965,-0.4583511098582326,-0.8275709755273962,-0.6969517196337794,-0.012842871050242687,-0.008475167024208863,-0.8866180845748921
12404,6.0,299.97429,6643.8601,0.0,0.0,0.0,0.0,0.0,-0.12362830607771347,-0.46930529589432657,-0.8542656776269583,-0.6959965895595154,0.03761075244164226,-0.012718145029183187,-0.9224694163706431
12405,6.0,300.61321,6678.0942,0.0,0.0,0.0,0.0,0.0,-0.12363827288729728,-0.5049599051831626,-0.8530578936402592,-0.6719560859644024,0.006549072411068124,-0.018774963012444582,-0.9008201931440312
12406,6.0,300.94905,6566.0979,0.0,0.0,0.0,0.0,0.0,-0.1236482396968811,-0.4733833337042975,-0.8635207648353642,-0.6590257177282745,0.003069450281631157,-0.03869926777232036,-0.931437277573202
12407,6.0,301.37699,6679.2973,0.0,0.0,0.0,0.0,0.0,-0.12365820650646492,-0.5090776623970535,-0.8553034281143762,-0.6659585066349873,-0.013390554007544788,-0.035649175228549664,-0.9004659913065741
12408,6.0,300.32001,7000.6643,0.0,0.0,0.0,0.0,0.0,-0.12366817331604874,-0.5102703286922605,-0.8959573829991091,-0.7217994390535583,-0.017063353585771882,0.002513788587741618,-0.9059093532287922
12409,6.0,300.20407,7034.6163,0.0,0.0,0.0,0.0,0.0,-0.12367814012563255,-0.49117877163307055,-0.8967606978108901,-0.7504082516520283,-0.014604055764558086,0.013983248574039186,-0.8753018136155631
12410,6.0,300.03132,6526.2709,0.0,0.0,0.0,0.0,0.0,-0.12368810693521642,-0.42597645193810263,-0.8529031095549833,-0.7049438311225393,-0.007535785794924153,0.016128556401264586,-0.8786629668472832
12411,6.0,300.38847000000004,6471.1952,0.0,0.0,0.0,0.0,0.0,-0.12369807374480024,-0.46643427200097853,-0.8335920926566343,-0.6670553802657403,-0.011213110953397889,0.014941936169404285,-0.8803110687974381
12412,6.0,299.64218999999997,6767.4964,0.0,0.0,0.0,0.0,0.0,-0.12370804055438406,-0.5191411205352395,-0.8377402271085231,-0.7002685837036283,0.029918283325454677,0.016294160984358482,-0.8662443608391622
12413,6.0,299.20652,6797.0399,0.0,0.0,0.0,0.0,0.0,-0.12371800736396787,-0.5327380249521495,-0.8515315742196232,-0.6818608286069243,0.005203439699939515,-0.003585606063396767,-0.929974762511363
12414,6.0,299.37124,6595.5141,0.0,0.0,0.0,0.0,0.0,-0.12372797417355164,-0.43735120769320357,-0.8551792340496192,-0.7123411445375973,-0.007860782724748853,-0.014781089808779985,-0.9052367578124121
12415,6.0,300.2972,6521.3736,0.0,0.0,0.0,0.0,0.0,-0.12373794098313551,-0.45480277893553955,-0.8510255267221802,-0.6765064300434863,-0.016704163518072582,-0.03318802822590337,-0.8991370023429132
12416,6.0,300.87273,6680.7665,0.0,0.0,0.0,0.0,0.0,-0.12374790779271932,-0.4778042553481086,-0.8659554528381492,-0.6870264992067364,0.0040453327311932566,-0.004119891523901636,-0.8826682735650762
12417,6.0,300.06012000000004,6794.7434,0.0,0.0,0.0,0.0,0.0,-0.12375787460230314,-0.5385666144298865,-0.8574210397633683,-0.6694446847965464,0.01230113181802719,-0.015423550153935883,-0.9201028897020851
12418,6.0,300.06717000000003,6834.7985,0.0,0.0,0.0,0.0,0.0,-0.12376784141188696,-0.5096193459005135,-0.895580423564406,-0.6724083096165334,0.0076391693238273125,-0.002410967311318948,-0.9206560837266812
12419,6.0,300.13852,6648.3469,0.0,0.0,0.0,0.0,0.0,-0.12377780822147078,-0.47384300474466357,-0.8558200742078651,-0.6912683795578773,0.00948467985254002,0.008346824206917413,-0.9039991842727733
12420,6.0,300.58535,6596.7702,0.0,0.0,0.0,0.0,0.0,-0.12378777503105465,-0.43558950014183656,-0.8623931289315753,-0.7072707802421913,0.004498908160282666,0.028198527367977972,-0.8938791158515003
12421,6.0,300.35263,6728.0448,0.0,0.0,0.0,0.0,0.0,-0.12379774184063841,-0.47751579317713955,-0.8518025476938661,-0.7158392891828373,-0.020204403564519382,0.015263607612400787,-0.8813016727577031
12422,6.0,299.90567000000004,6782.0083,0.0,0.0,0.0,0.0,0.0,-0.12380770865022228,-0.4748759726916095,-0.8724197756936282,-0.7142654382000103,-0.00997890829419157,-0.004182025641233796,-0.889398240199272
12423,6.0,298.88501,6354.8372,0.0,0.0,0.0,0.0,0.0,-0.12381767545980604,-0.4725347468780486,-0.8157097381342832,-0.6434673536352834,-0.019826024566426282,-0.016499729164646485,-0.9074102299394172
12424,6.0,299.80088,6443.1095,0.0,0.0,0.0,0.0,0.0,-0.12382764226938986,-0.4596122617276986,-0.8473459495140342,-0.6515862024465514,-0.015675766342327684,-0.013954092302411687,-0.924791441094809
12425,6.0,300.42742999999996,6812.8117,0.0,0.0,0.0,0.0,0.0,-0.12383760907897373,-0.48761609308896153,-0.8691800098238882,-0.7141285379789993,0.006485181622037594,-0.012890885932731386,-0.9325167739647401
12426,6.0,300.54735,6706.3204,0.0,0.0,0.0,0.0,0.0,-0.12384757588855749,-0.4418156382963086,-0.8644442105790012,-0.7322940959043003,-0.006185169514503704,-0.0012498145127720888,-0.9206041445265551
12427,6.0,300.16853,6609.0947,0.0,0.0,0.0,0.0,0.0,-0.12385754269814137,-0.4599917340226496,-0.8473963283090062,-0.7016116973736833,0.024694574773164776,-0.0011733990405804688,-0.8838793303495981
12428,6.0,299.34033999999997,6810.8407,0.0,0.0,0.0,0.0,0.0,-0.12386750950772518,-0.5083169040894725,-0.8470674779890511,-0.7149411138966943,0.01035594088555179,-0.012590888922623987,-0.8606903925360282
12429,6.0,299.63291,6915.863,0.0,0.0,0.0,0.0,0.0,-0.123877476317309,-0.5580419804944555,-0.8633288755314262,-0.6808788068750063,0.004286958125564826,-0.01012895077429961,-0.8936915632579902
12430,6.0,300.44685,6862.3497,0.0,0.0,0.0,0.0,0.0,-0.12388744312689282,-0.5313023407529585,-0.8622597142909081,-0.6924208907516213,-0.024077197434234376,-0.014449362871791088,-0.8971652784433192
12431,6.0,300.10922,6772.5403,0.0,0.0,0.0,0.0,0.0,-0.12389740993647663,-0.48379744730459057,-0.8716737703075033,-0.7032119232566133,-0.017134382417781882,-0.0027189262380621273,-0.8769790465060932
12432,6.0,300.77418,6610.8704,0.0,0.0,0.0,0.0,0.0,-0.1239073767460605,-0.46620029228788656,-0.8442109537046342,-0.6991282821735894,-0.01982183680376298,0.03682440450278576,-0.8672074043967072
12433,6.0,301.00495,6581.1528,0.0,0.0,0.0,0.0,0.0,-0.12391734355564427,-0.4656063250792666,-0.8430727394698012,-0.6918270552655142,-0.018230893304999083,0.01988514973626148,-0.9024948625118081
12434,6.0,301.03567999999996,6604.6995,0.0,0.0,0.0,0.0,0.0,-0.12392731036522808,-0.4895280352326555,-0.8411920155616882,-0.6769436677266383,0.002639852402908147,0.017088281564732084,-0.9292903829963202
12435,6.0,300.66764,6626.5575,0.0,0.0,0.0,0.0,0.0,-0.1239372771748119,-0.5068092993981835,-0.8506511713402342,-0.6568475542533064,0.004915302883577626,-0.03172390006990517,-0.9136396510242131
12436,6.0,300.4087,6654.5643,0.0,0.0,0.0,0.0,0.0,-0.12394724398439572,-0.47865964108252856,-0.8694601025490313,-0.6747016390978673,0.009474602978970511,0.002162068098454508,-0.939934534766816
12437,6.0,300.34018,6904.1438,0.0,0.0,0.0,0.0,0.0,-0.12395721079397959,-0.48094553330812856,-0.8930333661255312,-0.7247084192956523,-0.0022740901924102283,-0.02213710314976198,-0.9348222725797751
12438,6.0,299.67343999999997,6889.3204,0.0,0.0,0.0,0.0,0.0,-0.1239671776035634,-0.5019089989995614,-0.8734228527626242,-0.7188495032424222,-0.012507739592917788,-0.0008632152699302142,-0.9143262394244741
12439,6.0,299.44763,6625.4943,0.0,0.0,0.0,0.0,0.0,-0.12397714441314722,-0.46743700456494053,-0.8402302588317703,-0.7063175550781153,-0.017655197022182285,-0.015994564208040584,-0.8553001755815552
12440,6.0,299.32425,6679.7538,0.0,0.0,0.0,0.0,0.0,-0.12398711122273104,-0.5010665929989225,-0.8396790203798673,-0.6897327686338243,0.012114224664830888,0.01170376515532169,-0.8666115018803962
12441,6.0,301.11881,6845.9546,0.0,0.0,0.0,0.0,0.0,-0.1239970780323148,-0.5528107019506685,-0.8579647193695252,-0.6702238234609413,-0.0005459643128799825,-0.005788373885243025,-0.8815906820837262
12442,6.0,300.12996,6725.3798,0.0,0.0,0.0,0.0,0.0,-0.12400704484189867,-0.5061683173849235,-0.8837325813376151,-0.6544466074788513,-0.011593587379197988,-0.0007795727508703403,-0.9173227239452042
12443,6.0,300.40127,6631.076,0.0,0.0,0.0,0.0,0.0,-0.12401701165148249,-0.4643788333781225,-0.8633385318048793,-0.6879641709817774,-0.014396882596111684,0.004942367604348705,-0.9158179968841992
12444,6.0,299.49037999999996,6759.4932,0.0,0.0,0.0,0.0,0.0,-0.1240269784610663,-0.47856650313333654,-0.8703069161876051,-0.7058437188013513,-0.014806201186008287,0.04804423735734705,-0.8996777131262772
12445,6.0,300.10772000000003,6857.0924,0.0,0.0,0.0,0.0,0.0,-0.12403694527065012,-0.4783115390106735,-0.8883435988326871,-0.7177297301594093,-0.016302364257168085,0.017882867226901585,-0.9048334234776062
12446,6.0,299.78774,6708.4927,0.0,0.0,0.0,0.0,0.0,-0.12404691208023394,-0.5183532780524855,-0.8405986968331322,-0.6802623151166634,-0.03269339397758677,-0.004935308797527055,-0.9136193049622052
12447,6.0,298.79893,6701.0201,0.0,0.0,0.0,0.0,0.0,-0.12405687888981776,-0.4999259773613525,-0.8588853989403893,-0.6781314096263593,0.004111510425699487,-0.03240087981946787,-0.8876241507316832
12448,6.0,298.05667,6604.7819,0.0,0.0,0.0,0.0,0.0,-0.12406684569940157,-0.48187996268284955,-0.8448172420344702,-0.6809915613461344,0.023135453407041477,0.0032426137104710566,-0.8894724101065921
12449,6.0,300.19579,6754.3081,0.0,0.0,0.0,0.0,0.0,-0.12407681250898539,-0.4637311132516975,-0.8828966297401131,-0.7065132440699283,0.050550183186664654,-0.023912534160483376,-0.9158292540928101
12450,6.0,300.27682999999996,6754.7316,0.0,0.0,0.0,0.0,0.0,-0.12408677931856926,-0.4928641510544045,-0.8562611622413973,-0.7041444173236434,0.037982797613360264,-0.01119104033971969,-0.8613467050233012
12451,6.0,299.94121,6591.9519,0.0,0.0,0.0,0.0,0.0,-0.12409674612815302,-0.46589319644757854,-0.8503658806420782,-0.6875297096038994,0.01104765329156849,-0.010196437081309991,-0.8728110827497472
12452,6.0,300.38621,6566.2961,0.0,0.0,0.0,0.0,0.0,-0.1241067129377369,-0.47033868940631457,-0.8639234709551081,-0.6617278834924574,0.007026103364072413,0.03067477888986497,-0.8759298462925452
12453,6.0,300.11735,6864.9838,0.0,0.0,0.0,0.0,0.0,-0.12411667974732066,-0.5112329669497655,-0.8886626814216781,-0.6868880183155693,-0.016584429780255785,0.0033429485724733366,-0.9488650982331941
12454,6.0,300.7886,7046.0031,0.0,0.0,0.0,0.0,0.0,-0.12412664655690447,-0.5090634768956536,-0.9134055091911051,-0.7193400074833313,-0.05422240217258445,-0.007954963814918803,-0.9323264349334551
12455,6.0,300.15426,6429.7911,0.0,0.0,0.0,0.0,0.0,-0.12413661336648835,-0.44348612294117257,-0.8505296623882422,-0.6604801673193174,-0.03140334421526877,-0.007618712412258373,-0.9256091845880141
12456,6.0,298.33149,6204.9297,0.0,0.0,0.0,0.0,0.0,-0.12414658017607216,-0.4109617370537656,-0.8086652181390432,-0.6665167466450814,-0.016745558837657985,0.028285468279558374,-0.8804053517192432
12457,6.0,299.51892000000004,6581.6979,0.0,0.0,0.0,0.0,0.0,-0.12415654698565598,-0.4736737615804605,-0.8279606917808582,-0.6990373733746174,0.006357493668285774,0.004319317280758426,-0.8928890387812872
12458,6.0,300.1485,6884.6266,0.0,0.0,0.0,0.0,0.0,-0.1241665137952398,-0.5449242420498355,-0.8314583095360462,-0.7163720358204153,0.014596675250829685,-0.03033563496214407,-0.8438494362014551
12459,6.0,299.7241,6812.7308,0.0,0.0,0.0,0.0,0.0,-0.12417648060482356,-0.5163209415319094,-0.8516947784132302,-0.7028843496317844,0.055663005701010945,-0.024943039909686375,-0.8756560863805272
12460,6.0,300.5429,6989.2467,0.0,0.0,0.0,0.0,0.0,-0.12418644741440749,-0.5292216012751054,-0.8863709427430011,-0.7089639414242933,0.02964302279003857,-0.0011521043738288489,-0.861476482096109
12461,6.0,300.33074,7041.9568,0.0,0.0,0.0,0.0,0.0,-0.12419641422399125,-0.4935269179448145,-0.9141941825389412,-0.7328579189224453,0.02981661077067037,-0.002188297698493168,-0.9243707497857903
12462,6.0,300.91162,6996.6772,0.0,0.0,0.0,0.0,0.0,-0.12420638103357512,-0.5041207314503425,-0.8929195072117941,-0.7297749129756763,-0.03690026755102286,-0.006057970859225175,-0.8912390420534452
12463,6.0,300.85156,6883.468000000001,0.0,0.0,0.0,0.0,0.0,-0.12421634784315888,-0.5028628422461985,-0.8777187900066,-0.7118207696837403,-0.01858940449513138,0.003670884231563067,-0.8933437752936662
12464,6.0,300.97911,6483.8939,0.0,0.0,0.0,0.0,0.0,-0.1242263146527427,-0.48349378638212154,-0.8211754320887052,-0.6662726242984883,-0.02300203471337408,0.03161225308113647,-0.8797205770366612
12465,6.0,299.56026,6186.6776,0.0,0.0,0.0,0.0,0.0,-0.12423628146232657,-0.4108985203800266,-0.8184476614944952,-0.6512493170533034,-0.003179001159917987,0.0033551648223039865,-0.9322777381336491
12466,6.0,299.72867,6413.4886,0.0,0.0,0.0,0.0,0.0,-0.12424624827191033,-0.4609582428955366,-0.8012126420635312,-0.6873695046305883,-0.01216355879894979,-0.0027659859296815573,-0.9074240608032821
12467,6.0,298.94954,6793.4044,0.0,0.0,0.0,0.0,0.0,-0.1242562150814942,-0.49571735187849353,-0.8504459679299822,-0.7188619966161554,0.002460498015957248,-0.001178884573971849,-0.8868693098046861
12468,6.0,299.93762000000004,6823.8192,0.0,0.0,0.0,0.0,0.0,-0.12426618189107802,-0.5002325969741135,-0.8585477434770651,-0.7154903157158964,0.005194095710167336,0.021587930714812877,-0.8851274720877801
12469,6.0,299.58965,6883.1073,0.0,0.0,0.0,0.0,0.0,-0.12427614870066178,-0.5119567416286965,-0.8770365484492681,-0.7032994579327524,-0.007268398212785054,-0.011496065096823289,-0.8699021329051562
12470,6.0,300.84962,7091.0975,0.0,0.0,0.0,0.0,0.0,-0.12428611551024565,-0.5625341437527975,-0.9004075267758042,-0.6925749148993224,-0.008409985253225923,-0.027169881945958575,-0.8839015711892932
12471,6.0,300.75892000000005,7013.7169,0.0,0.0,0.0,0.0,0.0,-0.12429608231982947,-0.5272645289719575,-0.8839362446077151,-0.7207940112443303,0.011886373088343689,-0.02682238985066377,-0.8611612498574982
12472,6.0,299.98446,6755.709,0.0,0.0,0.0,0.0,0.0,-0.12430604912941334,-0.47389740614253256,-0.8947951040744011,-0.6848743458618354,0.033036664872964965,0.023768071040725976,-0.9187710839031462
12473,6.0,300.16867,6627.908,0.0,0.0,0.0,0.0,0.0,-0.1243160159389971,-0.44763095419773563,-0.8523738890277532,-0.7147137101767513,0.02134745100232938,-0.011370074539638989,-0.909836001341322
12474,6.0,299.31169,6446.3995,0.0,0.0,0.0,0.0,0.0,-0.12432598274858092,-0.4577162884055806,-0.8332060646335362,-0.6686221283653663,-0.011856332249378888,-0.025395040646795375,-0.9366347338286511
12475,6.0,299.75496,6257.5665,0.0,0.0,0.0,0.0,0.0,-0.12433594955816474,-0.4438987386468946,-0.7955128772035083,-0.6627323487140904,-0.02734688964567787,-0.0017846958656607683,-0.8874801577599722
12476,6.0,300.58124,6606.4455,0.0,0.0,0.0,0.0,0.0,-0.12434591636774855,-0.5239802915553285,-0.8283239115442053,-0.6558902456913274,-0.04215918553103766,0.02705129622050507,-0.8952972404264581
12477,6.0,300.14203,6820.0701,0.0,0.0,0.0,0.0,0.0,-0.12435588317733243,-0.4791872201445966,-0.8829740319152521,-0.7109697713222534,-0.03441001291275387,0.019042205699819383,-0.8999789726460092
12478,6.0,300.12381,6845.858,0.0,0.0,0.0,0.0,0.0,-0.12436584998691624,-0.5297130377061066,-0.8665178573061542,-0.6847390060459784,-0.025649191129628077,0.0014924463684679885,-0.9059536119931602
12479,6.0,300.89423,7168.4504,0.0,0.0,0.0,0.0,0.0,-0.1243758167965,-0.5116952015128845,-0.905436388347114,-0.7618983557985133,0.003970902317272546,-0.0004198423776877167,-0.8688617074374742
12480,6.0,300.5488,7077.1938,0.0,0.0,0.0,0.0,0.0,-0.12438578360608388,-0.5493270771793615,-0.8905161387696002,-0.7114469715893493,0.022354294321947077,0.009207229481007802,-0.8558566221389723
12481,6.0,300.46555,6885.0023,0.0,0.0,0.0,0.0,0.0,-0.12439575041566764,-0.5120299489484215,-0.8771035546783812,-0.7037352669332633,0.024093577635350978,-0.0036269742278794864,-0.889779435019393
12482,6.0,299.72878,6693.4903,0.0,0.0,0.0,0.0,0.0,-0.12440571722525151,-0.5293762840353715,-0.8430912920791322,-0.6621863285002024,0.013568141286321287,-0.025129733267111577,-0.8759526748172982
12483,6.0,299.31068999999997,6569.3741,0.0,0.0,0.0,0.0,0.0,-0.12441568403483533,-0.4701560510757896,-0.8541993705404142,-0.6725702573800163,0.014494888198784087,-0.015838151829853882,-0.9075281925160591
12484,6.0,300.461,6438.2356,0.0,0.0,0.0,0.0,0.0,-0.12442565084441914,-0.4522067612518325,-0.8190555406269883,-0.6858005577782453,0.004711140891778405,0.017856285623778185,-0.8963006214704842
12485,6.0,299.79941,6547.0026,0.0,0.0,0.0,0.0,0.0,-0.12443561765400296,-0.42532214568602755,-0.8716739020300163,-0.6931292437640304,-0.019388850718030582,-0.012188272982138888,-0.9381732325154892
12486,6.0,299.5322,6715.2836,0.0,0.0,0.0,0.0,0.0,-0.12444558446358678,-0.4715513065959906,-0.880631802984092,-0.6890954039234214,-0.025641718410140575,-0.012206941101981289,-0.9163569952748941
12487,6.0,300.4646,6707.4764,0.0,0.0,0.0,0.0,0.0,-0.1244555512731706,-0.5004946741124785,-0.8633767921286551,-0.6750338736731564,-0.027339217315920674,-0.004922417317829765,-0.8744860459600532
12488,6.0,301.03673,6809.9312,0.0,0.0,0.0,0.0,0.0,-0.12446551808275441,-0.5079518604759455,-0.8836364036381232,-0.6784607767038653,-0.007272829256797363,0.022923519989625277,-0.8866768632131932
12489,6.0,300.30381,7018.4514,0.0,0.0,0.0,0.0,0.0,-0.12447548489233823,-0.5288577532966965,-0.8855654190460022,-0.7190108126583423,0.0033960690195659164,0.007724963742919563,-0.8689715234833122
12490,6.0,300.78361,7016.1367,0.0,0.0,0.0,0.0,0.0,-0.1244854517019221,-0.5240991457920585,-0.8856796427297752,-0.7229515652122643,-0.0018624086019554185,0.0009333228853467973,-0.8980253757907041
12491,6.0,300.30433999999997,6693.2435,0.0,0.0,0.0,0.0,0.0,-0.12449541851150586,-0.4754176460625686,-0.8473503976819731,-0.7118108499652613,0.029888546461519873,0.012186116785926088,-0.889782799009725
12492,6.0,300.17073999999997,6737.728,0.0,0.0,0.0,0.0,0.0,-0.12450538532108973,-0.5075981146010335,-0.8294424585945972,-0.7110604876037063,-0.005788549278835334,0.019850350674827082,-0.8812770913102771
12493,6.0,300.40783999999996,6595.5564,0.0,0.0,0.0,0.0,0.0,-0.1245153521306735,-0.4962316168342475,-0.8413258456348962,-0.6673269819550454,-0.008044490743404423,-0.0031524548178980673,-0.9035279520487662
12494,6.0,300.0337,6471.6768,0.0,0.0,0.0,0.0,0.0,-0.12452531894025731,-0.4681368665415116,-0.8412552119704253,-0.6578360607858644,-0.014520106980522987,-0.029209493602252574,-0.9107909490305681
12495,6.0,299.4873,6589.5427,0.0,0.0,0.0,0.0,0.0,-0.12453528574984118,-0.48264623307097454,-0.8556752605035732,-0.6647349463442314,0.00018816397848783883,0.017107711648649684,-0.9202627197728591
12496,6.0,300.0579,6709.8963,0.0,0.0,0.0,0.0,0.0,-0.124545252559425,-0.48609050320839753,-0.8615026543461922,-0.6920477715347974,0.021021697174679978,0.014580823966265286,-0.9007335906579842
12497,6.0,300.89135,6797.7712,0.0,0.0,0.0,0.0,0.0,-0.12455521936900882,-0.4514716381717816,-0.8972272792169381,-0.7176537870644143,-0.0004910055970584796,0.01221755287027859,-0.925306040423096
12498,6.0,301.27391,6857.9473,0.0,0.0,0.0,0.0,0.0,-0.12456518617859264,-0.5062795722459035,-0.8663495969945483,-0.7120155771479663,0.006178349328080604,-0.013752466678262788,-0.8690410527051742
12499,6.0,301.07677,6944.7259,0.0,0.0,0.0,0.0,0.0,-0.1245751529881764,-0.5058337928644084,-0.8903725916279333,-0.7148168894344343,-0.011488842650110489,-0.015921781440107485,-0.8761158384809012
12500,6.0,301.58328,6736.0612,0.0,0.0,0.0,0.0,0.0,-0.12458511979776032,-0.5222148653760944,-0.8222835426630672,-0.7030959871801713,0.000924183957129855,0.007387938723807783,-0.8518747620284931
12501,6.0,299.52125,6673.0426,0.0,0.0,0.0,0.0,0.0,-0.12459508660734409,-0.4861753223742686,-0.8537658514851293,-0.6884971607993794,-0.015060486431104287,-0.0017517445671087284,-0.9224192706231941
12502,6.0,299.97728,6884.0287,0.0,0.0,0.0,0.0,0.0,-0.1246050534169279,-0.5106176404290376,-0.8698306886406052,-0.7121244812687143,0.018497460154557183,-0.01017796553198699,-0.9177713910894841
12503,6.0,299.46338,6659.3429,0.0,0.0,0.0,0.0,0.0,-0.12461502022651172,-0.45151207698327256,-0.8726343010048002,-0.7001275696872113,0.01008077731817026,0.009278017666119052,-0.9231631177866062
12504,6.0,299.79132000000004,6482.1457,0.0,0.0,0.0,0.0,0.0,-0.12462498703609554,-0.46542188316356353,-0.8519744151758282,-0.6530141251499764,0.024072755345795976,0.02067460227342438,-0.9294709137666372
12505,6.0,299.34038,6606.9412,0.0,0.0,0.0,0.0,0.0,-0.12463495384567941,-0.4643713049298796,-0.8524697526197141,-0.6915041020611413,-0.025863517843780475,0.0014506641899944086,-0.9025312280578972
12506,6.0,300.0711,6674.2118,0.0,0.0,0.0,0.0,0.0,-0.12464492065526322,-0.4884895856026685,-0.8747935876304052,-0.6655105487657774,-0.007879915318437092,-0.03158585082328077,-0.9166703732658221
12507,6.0,300.43346,6706.946,0.0,0.0,0.0,0.0,0.0,-0.12465488746484704,-0.47837483674442055,-0.8603563442430602,-0.7000129407033984,-0.013893277031409686,-0.0025202743003067073,-0.8796299519477172
12508,6.0,300.8528,6908.0856,0.0,0.0,0.0,0.0,0.0,-0.12466485427443086,-0.5121994251601475,-0.8654306602138563,-0.7222554421285623,-0.008079007513360962,0.025454605567173976,-0.8871843292607762
12509,6.0,299.54501,6841.9297,0.0,0.0,0.0,0.0,0.0,-0.12467482108401462,-0.5079292346012125,-0.8620940985620631,-0.7097524627846143,-0.016642911536277484,0.01847980731131498,-0.879695357241672
12510,6.0,299.48864,6774.2828,0.0,0.0,0.0,0.0,0.0,-0.12468478789359849,-0.5036822373370665,-0.8607111540305772,-0.6948194462558404,-0.01034223971769959,-0.007910538877534403,-0.9031458858335591
12511,6.0,300.38004,6874.812,0.0,0.0,0.0,0.0,0.0,-0.12469475470318231,-0.4814612978740306,-0.8652177763678462,-0.7430921198349824,-0.005984427039141964,0.007169119056061963,-0.8793130073164371
12512,6.0,299.13475,6782.4229,0.0,0.0,0.0,0.0,0.0,-0.12470472151276613,-0.5227174374256944,-0.8534289356943783,-0.6855408313801123,0.05568342573027625,0.024210552293145476,-0.8902383967846893
12513,6.0,299.47861,6633.3417,0.0,0.0,0.0,0.0,0.0,-0.12471468832234994,-0.49296477692183555,-0.8290669785050402,-0.6943384766983723,0.001033470721645619,0.023317092672967877,-0.9118928686468191
12514,6.0,299.24272,6628.2352,0.0,0.0,0.0,0.0,0.0,-0.12472465513193376,-0.49913233908802657,-0.8479199354306822,-0.6677657293808464,0.026500191517615273,-0.02610654182726508,-0.9196389731438002
12515,6.0,299.48576,6745.4304,0.0,0.0,0.0,0.0,0.0,-0.12473462194151758,-0.46243977666175257,-0.8896579564649041,-0.6983446649437524,-0.00962923517805652,-0.008371482154725962,-0.9105537674471601
12516,6.0,299.93844,6668.8655,0.0,0.0,0.0,0.0,0.0,-0.12474458875110139,-0.4991084871806725,-0.8274670261996373,-0.7005930669156524,-0.008049984686771632,0.009467243236869162,-0.8937350316872802
12517,6.0,300.04233,6830.9983,0.0,0.0,0.0,0.0,0.0,-0.12475455556068527,-0.4731094420697666,-0.8881940329854261,-0.7151494279847533,-0.023674606825001776,-0.0038558121020140267,-0.8951944968663181
12518,6.0,299.82995,7010.6838,0.0,0.0,0.0,0.0,0.0,-0.12476452237026908,-0.5625805202098745,-0.866453444997297,-0.7020388430858393,-0.02991959751083437,-0.033129558628882866,-0.8585869562559352
12519,6.0,300.37057000000004,6938.3195,0.0,0.0,0.0,0.0,0.0,-0.12477448917985284,-0.49801217083747457,-0.8869640993515412,-0.7240996079730674,-0.0023921083964827177,0.012515162663150387,-0.892006214234159
12520,6.0,300.3945,6858.3015,0.0,0.0,0.0,0.0,0.0,-0.12478445598943666,-0.5071168106710325,-0.8809107507366222,-0.6967248529363893,0.03203789816989437,0.01015487153570779,-0.8819073227399762
12521,6.0,299.97705,6978.2406,0.0,0.0,0.0,0.0,0.0,-0.12479442279902048,-0.49473034495608353,-0.8839904838855681,-0.7424900567580633,0.019363247914503782,0.02001165907749698,-0.9180985087517681
12522,6.0,300.1776,6800.5752,0.0,0.0,0.0,0.0,0.0,-0.12480438960860435,-0.48704723421781954,-0.8868392770717222,-0.6933185290152114,-0.014944939442700686,-0.040865761645886664,-0.9295598568604152
12523,6.0,301.37743,6417.6733,0.0,0.0,0.0,0.0,0.0,-0.12481435641818817,-0.43490629599690955,-0.8568837841628453,-0.6590223436054414,0.02241685339637118,0.008548996682145281,-0.9295968708865681
12524,6.0,301.93729,6450.6624,0.0,0.0,0.0,0.0,0.0,-0.12482432322777198,-0.47221250294874556,-0.8450981149621902,-0.6435296685164333,0.00925241172151694,0.024518974477834375,-0.9024435616592452
12525,6.0,300.9835,6674.3047,0.0,0.0,0.0,0.0,0.0,-0.1248342900373558,-0.48487821025875355,-0.8640540586279961,-0.6798897227898913,0.02903665137369437,-0.0024849404454695277,-0.9136176736295442
12526,6.0,299.84549,7000.855,0.0,0.0,0.0,0.0,0.0,-0.12484425684693962,-0.5436511439616905,-0.8806659799099652,-0.7037679746464913,-0.0008904421715123,-0.046382858791131756,-0.9159808768377742
12527,6.0,299.71426,7086.2662,0.0,0.0,0.0,0.0,0.0,-0.12485422365652349,-0.5054413611006785,-0.9045854305156312,-0.7440211891166743,-0.016592751603327086,-0.012578406694642089,-0.9034470642932831
12528,6.0,299.49261,6973.9993,0.0,0.0,0.0,0.0,0.0,-0.12486419046610725,-0.49996659855786146,-0.904292003419172,-0.7156630545929443,0.010314756321987188,-0.006829606001329633,-0.8892421490213672
12529,6.0,300.57652,6770.4437,0.0,0.0,0.0,0.0,0.0,-0.12487415727569107,-0.4945015226860005,-0.8398942144361052,-0.7236500795662023,-0.02373697135540668,0.005069564334452045,-0.8855907806960052
12530,6.0,300.01071,6808.2831,0.0,0.0,0.0,0.0,0.0,-0.12488412408527488,-0.5401826470143766,-0.8581033218507041,-0.6712621008384113,-0.002960123128966407,-0.004638099441094776,-0.8670802212441552
12531,6.0,299.9908,6723.9077,0.0,0.0,0.0,0.0,0.0,-0.1248940908948587,-0.5069243843445416,-0.8451779793350721,-0.6917976912776164,0.0011361309926273988,0.012555824389663387,-0.8907341496611161
12532,6.0,300.06555,6550.0509999999995,0.0,0.0,0.0,0.0,0.0,-0.12490405770444257,-0.4814815020810245,-0.8427041697459261,-0.6668662875320784,0.02190267254037548,0.016281014064310984,-0.9021321392410101
12533,6.0,300.11216,6652.2421,0.0,0.0,0.0,0.0,0.0,-0.12491402451402633,-0.44230589935719355,-0.8876578716950112,-0.6921517107300554,-0.005586395447409306,-0.01209542583572559,-0.965672911156996
12534,6.0,299.79843999999997,6859.6115,0.0,0.0,0.0,0.0,0.0,-0.12492399132361015,-0.5083487910701194,-0.8568416430911863,-0.7199601672070364,0.002011463771166018,-0.03080059314153187,-0.9175745267275551
12535,6.0,299.13433,6708.1621,0.0,0.0,0.0,0.0,0.0,-0.12493395813319402,-0.47621391878615454,-0.8740968160666392,-0.6888030407395673,0.0032640277380844573,0.003624898382399617,-0.9536236550753272
12536,6.0,298.45043,6454.8923,0.0,0.0,0.0,0.0,0.0,-0.12494392494277784,-0.4725499354970476,-0.8271709545204172,-0.6624051803893013,-0.00038822824502764456,0.004176119406400896,-0.8745153998154501
12537,6.0,298.56619,6592.5236,0.0,0.0,0.0,0.0,0.0,-0.12495389175236166,-0.44976839515118455,-0.8532900089731672,-0.7009041650938553,-0.026123318209170774,-0.003131233409128677,-0.9037526199934393
12538,6.0,299.1437,6734.943,0.0,0.0,0.0,0.0,0.0,-0.12496385856194547,-0.4968132426566495,-0.8466358131814492,-0.7038054345026883,-0.016186004642184285,-0.017927505960057082,-0.8770368726893001
12539,6.0,299.71274,6792.8302,0.0,0.0,0.0,0.0,0.0,-0.12497382537152923,-0.4596704932109456,-0.8841323388995681,-0.7210479418518912,-0.018018015538489682,0.006905641099433713,-0.9164559898096641
12540,6.0,300.12146,6922.1068,0.0,0.0,0.0,0.0,0.0,-0.12498379218111311,-0.5018809623692946,-0.8904327077563661,-0.7118339622000422,-0.015142192892668086,0.025988472859362576,-0.9070238270137821
12541,6.0,299.33534,6755.1297,0.0,0.0,0.0,0.0,0.0,-0.12499375899069692,-0.48179893307235255,-0.8595055687965952,-0.7120862513424413,-0.03400755199953407,-0.004505025556436406,-0.9263868945697681
12542,6.0,300.55616000000003,6747.0461,0.0,0.0,0.0,0.0,0.0,-0.12500372580028074,-0.5369079240161865,-0.8516555757668612,-0.6623700408758334,0.02030790098273378,0.019946087610525583,-0.9110715990432661
12543,6.0,300.81863,6782.616999999999,0.0,0.0,0.0,0.0,0.0,-0.12501369260986456,-0.48777336976948354,-0.8531521056345571,-0.7208207306494673,0.004845844690547636,0.03182470426935377,-0.916099599351991
12544,6.0,299.30183,6644.3432,0.0,0.0,0.0,0.0,0.0,-0.12502365941944837,-0.4891414296570005,-0.8477123914126993,-0.6828605923480934,0.02215253494878498,0.01170474800791869,-0.9126899013079801
12545,6.0,299.48727,6552.3843,0.0,0.0,0.0,0.0,0.0,-0.12503362622903225,-0.3941403465786236,-0.8704445459486881,-0.7271763013717133,-0.027668532717671574,-0.03340621643618687,-0.9305308442987441
12546,6.0,300.79865,6826.2421,0.0,0.0,0.0,0.0,0.0,-0.125043593038616,-0.5058907780500326,-0.8609501797291673,-0.7081661994880624,0.0001705487065593468,-0.018334330941457585,-0.8993927871981572
12547,6.0,299.34549,6997.7437,0.0,0.0,0.0,0.0,0.0,-0.12505355984819988,-0.5234917124896095,-0.8838965758663002,-0.7197510830489013,0.002235096883511888,-0.008111777440145103,-0.8595075648992921
12548,6.0,299.7828,6951.9552,0.0,0.0,0.0,0.0,0.0,-0.12506352665778364,-0.5363686013854594,-0.8724017398418482,-0.7044504593838473,0.01035571391752939,0.0016817715417029283,-0.8490182174790741
12549,6.0,300.01757000000003,7089.9864,0.0,0.0,0.0,0.0,0.0,-0.12507349346736746,-0.4973973610742975,-0.9034374789473372,-0.7543439784854543,0.010752476312186789,-0.022884284919253078,-0.8649670172330982
12550,6.0,299.69639,6991.5303,0.0,0.0,0.0,0.0,0.0,-0.12508346027695133,-0.5256508977902045,-0.8775702779394432,-0.7220294569587593,0.006788068826730234,-0.021472783960198777,-0.9041947820720772
12551,6.0,299.89272,6787.2236,0.0,0.0,0.0,0.0,0.0,-0.12509342708653515,-0.43977827605523656,-0.8873930790463781,-0.7359751423250913,0.03323215324125817,0.015636916306993487,-0.9282906091226502
12552,6.0,299.72484,6603.2573,0.0,0.0,0.0,0.0,0.0,-0.12510339389611896,-0.4940459249110365,-0.8452253994397522,-0.6679540115144283,-0.014913626974860384,0.0061718294689871445,-0.9468698365337771
12553,6.0,298.6503,6580.9506,0.0,0.0,0.0,0.0,0.0,-0.12511336070570278,-0.46813489070381653,-0.8656417404746881,-0.6666680147525104,-0.0037404958306581967,-0.016093298337534884,-0.9401762861081752
12554,6.0,299.33123,6504.5284,0.0,0.0,0.0,0.0,0.0,-0.1251233275152866,-0.4855561860331645,-0.8374868132585132,-0.6541712162341724,-0.023791410243529376,-0.007708302263575202,-0.919989588075903
12555,6.0,299.88802999999996,6593.5854,0.0,0.0,0.0,0.0,0.0,-0.12513329432487041,-0.47355692371142954,-0.8329666741649101,-0.6977617218962203,0.010798428217471888,0.003963036254096226,-0.9021226146900703
12556,6.0,300.10672,6846.732,0.0,0.0,0.0,0.0,0.0,-0.12514326113445423,-0.4941075001196135,-0.8693390900895881,-0.7177889647602553,0.004786475631413365,-0.0033749982810863974,-0.8781070471799183
12557,6.0,300.71423,6970.0178,0.0,0.0,0.0,0.0,0.0,-0.1251532279440381,-0.46594574359776453,-0.9069102720750752,-0.7458553440501913,-0.009722482254284293,-0.024500839327544578,-0.9022284993255202
12558,6.0,301.36695,7100.8588,0.0,0.0,0.0,0.0,0.0,-0.12516319475362186,-0.5248072252269405,-0.9287804040884892,-0.7048961273078314,0.0029444192722915576,-0.01007898477741835,-0.8910957988868081
12559,6.0,301.25072,7075.044,0.0,0.0,0.0,0.0,0.0,-0.12517316156320568,-0.5307494203058895,-0.908217202584059,-0.7116700993938703,0.02209634111148908,-0.0016270660674789186,-0.8970298778324561
12560,6.0,301.24562000000003,6889.0802,0.0,0.0,0.0,0.0,0.0,-0.1251831283727895,-0.5188316435571965,-0.8801584226698732,-0.6951183043728353,0.008184798929801762,0.023004646872131877,-0.8725369175376891
12561,6.0,300.93273,6588.5139,0.0,0.0,0.0,0.0,0.0,-0.12519309518237332,-0.47104850149886757,-0.8486234755051161,-0.6830717334039313,-0.002681233334342127,-0.0036903975033138765,-0.9241124926003021
12562,6.0,299.90449,6697.8785,0.0,0.0,0.0,0.0,0.0,-0.1252030619919572,-0.45946429681559553,-0.8586694753440793,-0.7178540356816774,-0.004134672107085366,-0.002212785420284918,-0.9076950950725311
12563,6.0,300.38697,6786.4346,0.0,0.0,0.0,0.0,0.0,-0.125213028801541,-0.4682205609997716,-0.8776704377118282,-0.7170156522839354,0.00997979569862915,-0.008546321904531303,-0.9375159574406211
12564,6.0,300.12601,6511.9469,0.0,0.0,0.0,0.0,0.0,-0.12522299561112477,-0.46180830906693154,-0.8382029480316902,-0.6794580073197843,-0.0019512728648756383,-0.0013558154693335688,-0.9042845661634381
12565,6.0,299.11161,6487.8357,0.0,0.0,0.0,0.0,0.0,-0.12523296242070864,-0.46474880138713554,-0.8415275026697983,-0.6658637576181363,0.0037133125596254166,-0.031702923766334976,-0.9082873904184862
12566,6.0,300.11996,6872.8675,0.0,0.0,0.0,0.0,0.0,-0.1252429292302924,-0.5260386483384726,-0.8600363193314762,-0.7031051368285743,-0.017955129184283283,-0.004371247766933566,-0.8625830525303191
12567,6.0,300.5307,6942.4809,0.0,0.0,0.0,0.0,0.0,-0.12525289603987633,-0.5231062316215656,-0.8665905681333301,-0.7206440299645284,0.030012160947219674,0.010911253616106889,-0.8607332732802601
12568,6.0,300.58328,6991.0131,0.0,0.0,0.0,0.0,0.0,-0.1252628628494601,-0.48960747404049554,-0.8916449500435051,-0.7438410028513912,-0.005200503706449755,0.029094447159398372,-0.8628716058937972
12569,6.0,301.06162,7070.2917,0.0,0.0,0.0,0.0,0.0,-0.1252728296590439,-0.49959454325364255,-0.9117706402872562,-0.7378269582078513,-0.003985991333786716,0.007567406392119863,-0.8887115504740012
12570,6.0,301.06767,6882.1446,0.0,0.0,0.0,0.0,0.0,-0.12528279646862772,-0.5045837462160385,-0.8826272268035251,-0.7047891382297723,-0.009151852323292502,0.003957959263145166,-0.9008343685129302
12571,6.0,299.94976,6684.3831,0.0,0.0,0.0,0.0,0.0,-0.12529276327821154,-0.5032362553055515,-0.865632864403812,-0.6630164437771284,0.009300786510441162,-0.021185903472635877,-0.9209553167462131
12572,6.0,299.78597,6770.2401,0.0,0.0,0.0,0.0,0.0,-0.1253027300877954,-0.5412020272774815,-0.8474011919094863,-0.6693807183177334,0.01156883671900529,-0.013397678168997887,-0.8962783603657871
12573,6.0,298.453,6489.6722,0.0,0.0,0.0,0.0,0.0,-0.12531269689737917,-0.46052126865741055,-0.8238470888923772,-0.6883299542678774,0.017558410359380182,-0.019543645949057678,-0.9261745173488082
12574,6.0,298.4978,6352.5023,0.0,0.0,0.0,0.0,0.0,-0.125322663706963,-0.41005904267217663,-0.8490956095217121,-0.6718474351561794,0.0005570088200299904,0.004771720379482136,-0.9404177942695101
12575,6.0,298.33584,6685.6568,0.0,0.0,0.0,0.0,0.0,-0.12533263051654686,-0.4468769644008226,-0.8715424226970403,-0.7138533392518394,-0.015476350616646884,0.02161889563786888,-0.9392588590701322
12576,6.0,298.84976,6857.7399,0.0,0.0,0.0,0.0,0.0,-0.12534259732613062,-0.5065598676210665,-0.873571030457248,-0.7044508140213823,-0.03921732633644876,0.038183344126152666,-0.9018489459705612
12577,6.0,300.31064,6866.9298,0.0,0.0,0.0,0.0,0.0,-0.1253525641357145,-0.49344733728196055,-0.8809575223612383,-0.7129703323196933,-0.04087101433440506,0.007545318553189963,-0.8887303766608591
12578,6.0,301.04985,6994.406,0.0,0.0,0.0,0.0,0.0,-0.1253625309452983,-0.5512387964080334,-0.8608527557320521,-0.7140332215420924,-0.018979852315165583,0.015444779770031086,-0.8758473272044011
12579,6.0,300.58553,7168.6842,0.0,0.0,0.0,0.0,0.0,-0.12537249775488207,-0.5066127998062905,-0.9343224565704471,-0.7381657282462853,-0.0032501170301115767,-0.003913417700674257,-0.8608393808307322
12580,6.0,300.73237,7027.7975,0.0,0.0,0.0,0.0,0.0,-0.12538246456446595,-0.5213512115208585,-0.8859765250090752,-0.7289472193664893,0.006843793529229833,8.431454806944803e-05,-0.9078894769717151
12581,6.0,299.74755,6929.8663,0.0,0.0,0.0,0.0,0.0,-0.12539243137404976,-0.4902246041464015,-0.890228963426258,-0.7260527488658273,0.012567887132103887,-0.007895315909357013,-0.8975960414583322
12582,6.0,299.90443,6764.1641,0.0,0.0,0.0,0.0,0.0,-0.12540239818363358,-0.5295512824601425,-0.8698339614384282,-0.6567517514563513,0.00032639835603800966,0.007189934455516284,-0.9531876028947922
12583,6.0,299.17496,6477.8958,0.0,0.0,0.0,0.0,0.0,-0.1254123649932174,-0.4819295004802386,-0.8302472020890193,-0.6569418675726143,0.027707080804475977,-0.017340808820904587,-0.9040661905018862
12584,6.0,299.46457999999996,6377.323,0.0,0.0,0.0,0.0,0.0,-0.1254223318028012,-0.49778108901966855,-0.8230062027668882,-0.6177596483256305,-0.0090244432159682,-0.01932503926648288,-0.9515956957951832
12585,6.0,299.34328999999997,6768.9818,0.0,0.0,0.0,0.0,0.0,-0.12543229861238508,-0.4855666934367015,-0.8388242425955073,-0.7332104894272413,0.010690015523022388,-0.009475809151889551,-0.8731320398514232
12586,6.0,299.60676,6934.3596,0.0,0.0,0.0,0.0,0.0,-0.12544226542196885,-0.4993812541075925,-0.8757239234747222,-0.7327669797259703,-0.01168229438570269,0.016317248901137085,-0.9044129854811122
12587,6.0,300.43961,6925.141,0.0,0.0,0.0,0.0,0.0,-0.12545223223155272,-0.4728626954054146,-0.9005829102356132,-0.7316243375882003,-0.009514222273780631,0.025643195728786372,-0.8635981771430041
12588,6.0,300.36172,6977.539000000001,0.0,0.0,0.0,0.0,0.0,-0.12546219904113648,-0.5128910190159025,-0.8825579812916912,-0.7255486366760754,-0.019449349855001383,0.00936855865530475,-0.8918276896990401
12589,6.0,300.65263,6985.0830000000005,0.0,0.0,0.0,0.0,0.0,-0.1254721658507203,-0.5291513222481695,-0.8822236290236931,-0.7119158632056254,0.0036847021258267863,0.009301588092595271,-0.8824688254153922
12590,6.0,301.45876,6765.4674,0.0,0.0,0.0,0.0,0.0,-0.12548213266030417,-0.49132587528258853,-0.8839519297192632,-0.6812553508771684,-0.003658154162606707,0.0068527922033679335,-0.906839435760584
12591,6.0,299.73329,6538.5519,0.0,0.0,0.0,0.0,0.0,-0.12549209946988799,-0.45560399631961357,-0.8678967488372401,-0.6640557749347024,-0.003132220821351127,-0.01084892252295529,-0.9049235419415003
12592,6.0,299.04312999999996,6507.6708,0.0,0.0,0.0,0.0,0.0,-0.1255020662794718,-0.47384172804953756,-0.8465572761661981,-0.6577704224443863,-0.02125148304560808,-0.03180914682731836,-0.9234539003003042
12593,6.0,300.2205,6549.8561,0.0,0.0,0.0,0.0,0.0,-0.12551203308905562,-0.4586514979828786,-0.8407515557432182,-0.6915896507670843,-0.015371573463556184,-0.006489674980931054,-0.9141107920557111
12594,6.0,299.60427000000004,6730.4129,0.0,0.0,0.0,0.0,0.0,-0.12552199989863938,-0.5090376795481075,-0.8544410914842703,-0.6823986820250063,-0.03135964577820607,0.027365707726535075,-0.9050139745129252
12595,6.0,299.58225,7001.156,0.0,0.0,0.0,0.0,0.0,-0.12553196670822325,-0.5321031832344955,-0.8844674612376422,-0.7116059707950414,0.012681743006090589,0.011321536820098689,-0.9052798209416623
12596,6.0,300.26242,7074.6977,0.0,0.0,0.0,0.0,0.0,-0.12554193351780707,-0.5426746951053225,-0.8731517070358641,-0.7347050637222443,0.014447905818147286,-0.025589339459471176,-0.8714389394643273
12597,6.0,299.8934,6953.4475,0.0,0.0,0.0,0.0,0.0,-0.12555190032739094,-0.5070198426364626,-0.8831968760097452,-0.7234576937697152,0.03999186079238936,-0.018575221020231583,-0.8795777290375631
12598,6.0,300.79893,7041.2582,0.0,0.0,0.0,0.0,0.0,-0.1255618671369747,-0.5089078720777965,-0.8986455152494072,-0.7328132852555403,0.03750617996507176,-0.008493932112085831,-0.8666497723366732
12599,6.0,300.59855,6830.3637,0.0,0.0,0.0,0.0,0.0,-0.12557183394655852,-0.5031179887538795,-0.8760143918808891,-0.6971276198511394,-0.014476964817765186,-0.002899858964693797,-0.8873543627600572
12600,6.0,299.73604,6700.5884,0.0,0.0,0.0,0.0,0.0,-0.12558180075614234,-0.4673444745658085,-0.8749293834088072,-0.6945376918005333,-0.03930024464513216,-0.015288901374647086,-0.8900951232205492
12601,6.0,299.83181,6782.8618,0.0,0.0,0.0,0.0,0.0,-0.12559176756572615,-0.5003160482523495,-0.8706528600367472,-0.6908517108517553,-0.024032457376068874,0.015183492966744086,-0.9069521800992112
12602,6.0,299.74102999999997,6749.816,0.0,0.0,0.0,0.0,0.0,-0.12560173437531003,-0.4852674097546646,-0.8692641602446932,-0.6972439308301184,-0.020295281965988378,0.024142418316671178,-0.915879197190239
12603,6.0,299.78477000000004,6564.5509,0.0,0.0,0.0,0.0,0.0,-0.12561170118489384,-0.4688926700561035,-0.8533804010145881,-0.6731864856933334,0.004651880351729845,-0.006413299228143354,-0.9361084821242142
12604,6.0,300.14991000000003,6800.6376,0.0,0.0,0.0,0.0,0.0,-0.1256216679944776,-0.5014789553921196,-0.8732655963471041,-0.6924794768724033,0.006184798867617125,-0.031886652353967565,-0.9086345805652511
12605,6.0,300.58837,6884.4472,0.0,0.0,0.0,0.0,0.0,-0.12563163480406148,-0.5191813060342055,-0.8730957452328412,-0.7004230131513693,0.006408366220031504,-0.0013132455902322487,-0.9099965508196671
12606,6.0,300.35286,6704.3263,0.0,0.0,0.0,0.0,0.0,-0.12564160161364524,-0.49297139344498847,-0.8370850697263642,-0.7078913351334354,0.027329526591964273,0.01074490733393979,-0.9059559526008911
12607,6.0,300.27449,6822.8398,0.0,0.0,0.0,0.0,0.0,-0.1256515684232291,-0.4806564429220975,-0.8696315039359472,-0.7236849758996463,-0.008794860400360142,0.02068246002794988,-0.9024540791952831
12608,6.0,298.96659,7003.4841,0.0,0.0,0.0,0.0,0.0,-0.12566153523281293,-0.49323644953864754,-0.9074101792769121,-0.7282376707189624,-0.01159146259373829,-0.00940403122408062,-0.8853922444714112
12609,6.0,299.90526,7058.4759,0.0,0.0,0.0,0.0,0.0,-0.12567150204239674,-0.4871450736474755,-0.9120823058855152,-0.7463730337912833,-0.0036340069941735668,0.012463765551827887,-0.8908698339820073
12610,6.0,300.5024,7019.6277,0.0,0.0,0.0,0.0,0.0,-0.12568146885198056,-0.5329360444191924,-0.9073669540276461,-0.6934885219844884,0.004365799926445906,0.011539452466105288,-0.8933462172264071
12611,6.0,300.52274,6883.2692,0.0,0.0,0.0,0.0,0.0,-0.12569143566156438,-0.5180478034123375,-0.8831917084342351,-0.6911024497215014,-0.007736852915617932,-0.005217299948057415,-0.8940523816186001
12612,6.0,300.59906,6625.0552,0.0,0.0,0.0,0.0,0.0,-0.12570140247114825,-0.4749371729976496,-0.8537011959962483,-0.6852130044427583,-0.027938750307339978,-0.03028861813100387,-0.8912651332435202
12613,6.0,301.16461,6613.8141,0.0,0.0,0.0,0.0,0.0,-0.12571136928073207,-0.4530681859568486,-0.8573336064122392,-0.7000325572253343,-0.013987929789501186,-0.005925868782737714,-0.9027939131463221
12614,6.0,300.75955,6874.3471,0.0,0.0,0.0,0.0,0.0,-0.12572133609031583,-0.5014557215673264,-0.8515102858350222,-0.7366638686830633,0.002069466158565408,-0.017692537314867484,-0.9006015236399502
12615,6.0,299.99499,6756.0815,0.0,0.0,0.0,0.0,0.0,-0.1257313028998997,-0.49286363429685354,-0.8382930968930873,-0.7225233454550023,-0.008856437027487283,-0.008355608376009342,-0.8947513519350833
12616,6.0,299.9953,6624.6488,0.0,0.0,0.0,0.0,0.0,-0.12574126970948346,-0.5088896234434954,-0.8261761557047382,-0.6786620385712284,0.010648475308672689,-0.02970497999390327,-0.9351879545408651
12617,6.0,299.43289,7083.9045,0.0,0.0,0.0,0.0,0.0,-0.12575123651906733,-0.5285481648611425,-0.8921701682328402,-0.7326117498106502,0.011946029201231289,0.03283123246819037,-0.8921369133645582
12618,6.0,299.68945,7301.5677,0.0,0.0,0.0,0.0,0.0,-0.12576120332865115,-0.5555971194606665,-0.9284988725482041,-0.7353982483806563,0.02090906125381368,0.022457775528159876,-0.9194899848490962
12619,6.0,300.50315,7023.7304,0.0,0.0,0.0,0.0,0.0,-0.1257711701382349,-0.49487484455284453,-0.9027134509558812,-0.7374503736756852,0.006599974651041784,0.0007977196953913041,-0.907149480158683
12620,6.0,300.56141,6770.8996,0.0,0.0,0.0,0.0,0.0,-0.12578113694781878,-0.46920868249729153,-0.8808476252553922,-0.7081281215493044,0.005824424513200944,-0.03322921886896857,-0.9152921910098062
12621,6.0,300.34639,6537.0316,0.0,0.0,0.0,0.0,0.0,-0.1257911037574026,-0.44459113297022856,-0.8726311903269931,-0.6698720635562253,-0.013009407823428588,0.001309416011479299,-0.8926221487049472
12622,6.0,300.87686,6497.7941,0.0,0.0,0.0,0.0,0.0,-0.12580107056698642,-0.4828037934615246,-0.8462163377725502,-0.6461470252472463,0.005869550011704484,-0.0018663733482717079,-0.915536394416407
12623,6.0,300.93606,6777.8545,0.0,0.0,0.0,0.0,0.0,-0.12581103737657023,-0.5168129251179645,-0.8462001055059482,-0.6972854842167193,-0.03895027414009276,0.01863123956526018,-0.9111595086219421
12624,6.0,300.0845,6850.0687,0.0,0.0,0.0,0.0,0.0,-0.12582100418615405,-0.5156620655218835,-0.8596669592725231,-0.7069208137901524,-0.011189177986035888,-0.033043801193419264,-0.916840741137636
12625,6.0,300.57128,6867.7904,0.0,0.0,0.0,0.0,0.0,-0.12583097099573787,-0.4723588061306846,-0.8815651785787091,-0.7337128081643163,-0.02103067761031628,0.016834053061641686,-0.9032545569067841
12626,6.0,300.17297,6981.2886,0.0,0.0,0.0,0.0,0.0,-0.12584093780532168,-0.5013645898533325,-0.8765032850541392,-0.7442695468486853,0.02973651132376517,0.012789549776980288,-0.9173446608098691
12627,6.0,299.57084,7335.2698,0.0,0.0,0.0,0.0,0.0,-0.1258509046149055,-0.5703642770805715,-0.9052051241442901,-0.7541694664207312,0.039225988611553665,0.004642069760286615,-0.9047419877885822
12628,6.0,299.71972999999997,7197.0076,0.0,0.0,0.0,0.0,0.0,-0.12586087142448932,-0.5676082165435694,-0.898551941602672,-0.7215504328414833,0.01052785801676869,-0.006889875738477794,-0.8961269706683461
12629,6.0,300.02103999999997,6706.1198,0.0,0.0,0.0,0.0,0.0,-0.12587083823407313,-0.5023184533649715,-0.8848389896518092,-0.6513355243718114,0.001126622147063949,0.013328439749914588,-0.9354411454758531
12630,6.0,299.67156,6688.9526,0.0,0.0,0.0,0.0,0.0,-0.125880805043657,-0.48993394322271555,-0.8564370421937552,-0.6869035717046044,-0.017168299951629284,0.0010950383308468688,-0.8877210782362491
12631,6.0,299.03549,6838.2543,0.0,0.0,0.0,0.0,0.0,-0.12589077185324082,-0.49248774890725655,-0.8854447916215971,-0.7007260255937743,-0.01890238427877008,-0.0019062598371331983,-0.9095373357418461
12632,6.0,298.65182000000004,6862.2386,0.0,0.0,0.0,0.0,0.0,-0.12590073866282464,-0.4736662533972195,-0.892084741116909,-0.7201981897880273,-0.00949988427824058,-0.031807632018418866,-0.8795586698031822
12633,6.0,299.74217000000004,6849.6215,0.0,0.0,0.0,0.0,0.0,-0.1259107054724084,-0.5041778686234816,-0.8665072891076112,-0.7114287330875493,-0.005739195892964535,0.023148402743319477,-0.9049363696877661
12634,6.0,300.49127000000004,6829.6553,0.0,0.0,0.0,0.0,0.0,-0.12592067228199222,-0.48300250193863553,-0.8830252010453022,-0.7100169818557204,0.013549420477473685,0.018216880056116082,-0.8967040469977993
12635,6.0,301.04116,6828.174,0.0,0.0,0.0,0.0,0.0,-0.1259306390915761,-0.5082786133681936,-0.8669149804178471,-0.7004007925766763,0.013449173565580088,-0.0018274363760789282,-0.9470001708941401
12636,6.0,301.41002000000003,7161.4275,0.0,0.0,0.0,0.0,0.0,-0.1259406059011599,-0.5337969928966615,-0.9037123534344651,-0.7393857928241964,-0.006658541013446833,-0.03431043271942607,-0.9145213609962312
12637,6.0,300.30079,6914.4189,0.0,0.0,0.0,0.0,0.0,-0.12595057271074372,-0.5134961218431215,-0.8784098671048042,-0.7099047036121393,0.0030132389151085277,-0.017955303463300484,-0.9476239276557001
12638,6.0,300.7686,6576.1919,0.0,0.0,0.0,0.0,0.0,-0.12596053952032754,-0.4454567727956606,-0.8599193396074313,-0.6936220176851634,0.016155387263912583,-0.01057354647702779,-0.9084802017800151
12639,6.0,300.58817,6626.3972,0.0,0.0,0.0,0.0,0.0,-0.12597050632991136,-0.4947720705952015,-0.8519775055886332,-0.6675097114780795,-0.012405731652350387,0.009400693172951181,-0.9165242626014021
12640,6.0,299.27607,6909.3244,0.0,0.0,0.0,0.0,0.0,-0.12598047313949517,-0.5322350273375075,-0.8660190342819241,-0.7020080402827993,0.005352657090491125,-0.008141067460785804,-0.8865619910493562
12641,6.0,299.16161,6818.4501,0.0,0.0,0.0,0.0,0.0,-0.125990439949079,-0.5125681570040386,-0.8656120927767621,-0.6944583340527013,-0.03255793257171777,0.06151872191042514,-0.9095273552283611
12642,6.0,299.71204,6678.7983,0.0,0.0,0.0,0.0,0.0,-0.12600040675866286,-0.47122120997841255,-0.8541252512955991,-0.7048414421999343,7.614351282502963e-05,0.035650797441959765,-0.9150015908811261
12643,6.0,299.44111000000004,6934.1962,0.0,0.0,0.0,0.0,0.0,-0.12601037356824663,-0.4778610682812156,-0.8890261038350452,-0.7409353258046233,-0.014718840788886488,-0.006899741856026503,-0.897964661844712
12644,6.0,300.08326,6939.2756,0.0,0.0,0.0,0.0,0.0,-0.12602034037783044,-0.5074386796977985,-0.8840453412459821,-0.7178825080094873,-0.008939616552046462,-0.024071585041930476,-0.8852932803341442
12645,6.0,300.02032,6938.0884,0.0,0.0,0.0,0.0,0.0,-0.12603030718741431,-0.5037457782508376,-0.8910105338908932,-0.7142493173909192,0.007499803865323013,-0.004049083479088426,-0.9063617693984422
12646,6.0,301.1187,6951.1502,0.0,0.0,0.0,0.0,0.0,-0.12604027399699808,-0.5397394716856385,-0.8673255898883712,-0.7059110492704963,0.006025777978372985,0.0028557649547920573,-0.8973298403920601
12647,6.0,302.08558,6761.0379,0.0,0.0,0.0,0.0,0.0,-0.12605024080658195,-0.5013620871255855,-0.865191208950224,-0.6886333922753244,0.00027432875062413973,-0.0006471796081591544,-0.9064999665795811
12648,6.0,301.85795,6765.8072,0.0,0.0,0.0,0.0,0.0,-0.12606020761616576,-0.49912063604937157,-0.8771360496090882,-0.6803797406707524,0.018916123950126082,-0.01819215979342638,-0.918776474393678
12649,6.0,301.00559,7104.2617,0.0,0.0,0.0,0.0,0.0,-0.12607017442574958,-0.5048947633342334,-0.8851433801143502,-0.7694800300692662,0.012358466574935688,0.024012192374068875,-0.922299291678853
12650,6.0,300.31554,7134.4842,0.0,0.0,0.0,0.0,0.0,-0.1260801412353334,-0.5190691392481356,-0.9239605557478071,-0.7256753638660823,0.03286056099233487,0.018335246919547982,-0.918580542221841
12651,6.0,300.38107,6736.7924,0.0,0.0,0.0,0.0,0.0,-0.12609010804491722,-0.4694113122522896,-0.8727637538375762,-0.7056416159364053,0.003337018323613067,-0.01164082307235979,-0.9075046445837353
12652,6.0,300.12476000000004,6658.5676,0.0,0.0,0.0,0.0,0.0,-0.1261000748545011,-0.47961197458651655,-0.8654870982444262,-0.6789392030035823,0.0015815335464102085,-0.01067630320941909,-0.909280436311492
12653,6.0,299.69307000000003,6892.6528,0.0,0.0,0.0,0.0,0.0,-0.12611004166408485,-0.4879076355402346,-0.8996620280147292,-0.7076246781046184,-0.02751097536687187,0.01814438505121138,-0.9055006588009571
12654,6.0,299.71644,6834.5803,0.0,0.0,0.0,0.0,0.0,-0.12612000847366867,-0.4862340098200605,-0.8835380271859142,-0.7077697248564333,-0.01750106243022038,0.025427693644517975,-0.9291342816859142
12655,6.0,299.93978,6776.7387,0.0,0.0,0.0,0.0,0.0,-0.12612997528325248,-0.47319563925577357,-0.9074337576067393,-0.6793299325071444,-0.017921285617693183,-0.0018598277526257082,-0.9329018191352411
12656,6.0,299.15562,6923.298000000001,0.0,0.0,0.0,0.0,0.0,-0.1261399420928363,-0.5228015979790005,-0.8769510301408281,-0.7047570992616103,-0.0005784644820899994,-0.0013529414867499286,-0.9106048555172023
12657,6.0,299.94287,6987.3362,0.0,0.0,0.0,0.0,0.0,-0.12614990890242017,-0.5183283014375205,-0.8834056663253512,-0.7222417733847134,0.015050897032157885,0.02482525262531168,-0.8985829369232312
12658,6.0,299.96508,6920.968000000001,0.0,0.0,0.0,0.0,0.0,-0.126159875712004,-0.5220955551768195,-0.8756845587083372,-0.7060213415438814,0.03487740491888187,0.01201589786187679,-0.9193368827589861
12659,6.0,300.04257,7042.9071,0.0,0.0,0.0,0.0,0.0,-0.12616984252158775,-0.5361636107577284,-0.8707035326742482,-0.7340007738427363,0.01970381748511538,-0.02233587242187898,-0.9006688946390992
12660,6.0,300.01196,6769.9305,0.0,0.0,0.0,0.0,0.0,-0.12617980933117162,-0.49476824050982354,-0.8526126208838142,-0.7105089654417753,0.01045746449257139,-0.033766911180284666,-0.915761143421088
12661,6.0,300.72914,6502.2856,0.0,0.0,0.0,0.0,0.0,-0.12618977614075538,-0.4492548293379996,-0.8546926612190983,-0.6725849799039694,0.01051221546172489,-0.008625689886189312,-0.9306000391480731
12662,6.0,300.37912,6828.8118,0.0,0.0,0.0,0.0,0.0,-0.12619974295033926,-0.49523730437861657,-0.8528430035590511,-0.7277079739641853,-0.009514954346977881,0.02129620587852188,-0.9060748575001261
12663,6.0,300.17933,7000.4419,0.0,0.0,0.0,0.0,0.0,-0.12620970975992307,-0.5210102528622085,-0.9080930895793101,-0.6988561941242364,0.004302334601132366,-0.01022851049997539,-0.9003644129840492
12664,6.0,300.76257000000004,6802.5276,0.0,0.0,0.0,0.0,0.0,-0.1262196765695069,-0.4886064437367015,-0.8692722459804911,-0.7099198415686333,-0.019233044263403682,0.02290492381053998,-0.88033520441482
12665,6.0,299.51682,6840.3235,0.0,0.0,0.0,0.0,0.0,-0.1262296433790907,-0.4886234866033835,-0.8863496644909012,-0.7043143697629163,-0.008148367421131252,0.01972398116210538,-0.919937750200787
12666,6.0,299.57398,7166.3734,0.0,0.0,0.0,0.0,0.0,-0.12623961018867452,-0.5076234559860345,-0.924700025670787,-0.7460750774668773,-0.014932387300461885,0.0034769144211947364,-0.8888035637155822
12667,6.0,299.88757000000004,7107.7964,0.0,0.0,0.0,0.0,0.0,-0.12624957699825834,-0.5253027349233435,-0.8907679618169532,-0.7445219474485952,-0.013447038647619387,-0.03438458337499417,-0.9226474950757182
12668,6.0,299.20315,6989.094,0.0,0.0,0.0,0.0,0.0,-0.12625954380784216,-0.5088709695091546,-0.8914414590259222,-0.7241976399202423,-0.01719994273900218,-0.025912917839155874,-0.9009928408285701
12669,6.0,299.55307999999997,6968.1249,0.0,0.0,0.0,0.0,0.0,-0.12626951061742597,-0.5306280734739135,-0.8782137018854441,-0.7092942102943883,0.022052606197422775,-0.004351640566898485,-0.9198627291633832
12670,6.0,300.71384,6713.4084,0.0,0.0,0.0,0.0,0.0,-0.12627947742700985,-0.4935607604981545,-0.8426705805051112,-0.7044771686564834,-0.005738757459646264,0.005228621802024795,-0.8938812031467062
12671,6.0,300.5096,6587.4891,0.0,0.0,0.0,0.0,0.0,-0.1262894442365936,-0.45223760458487655,-0.8771578142212362,-0.6730367881235594,0.02506046343727518,-0.02853021580146307,-0.9168422407477842
12672,6.0,300.50985,6869.5376,0.0,0.0,0.0,0.0,0.0,-0.12629941104617748,-0.4747479890714785,-0.8682158719562353,-0.7452040370184123,0.004408833266142965,-0.013113003526902686,-0.884325970993678
12673,6.0,301.01405,6808.8821,0.0,0.0,0.0,0.0,0.0,-0.12630937785576124,-0.5030276879049675,-0.8793008888452412,-0.6874015638637523,0.017940566753846084,0.024679386154165775,-0.9254470645720141
12674,6.0,300.09776,6601.045999999999,0.0,0.0,0.0,0.0,0.0,-0.12631934466534506,-0.4690965157112215,-0.8799464912789572,-0.6575101590237004,0.004030052413060207,0.028986392142234172,-0.9035423098026832
12675,6.0,300.17189,6909.5579,0.0,0.0,0.0,0.0,0.0,-0.12632931147492893,-0.5520132842544694,-0.8664583491277812,-0.6818614365569844,-0.003853506856711516,-0.016862742224973085,-0.8793603159636061
12676,6.0,299.63032000000004,7122.0067,0.0,0.0,0.0,0.0,0.0,-0.12633927828451275,-0.5441848531868635,-0.8998473311930171,-0.7208800260453192,-0.029119422761113272,0.0015289904492246085,-0.9025513208073802
12677,6.0,299.22966,6895.3781,0.0,0.0,0.0,0.0,0.0,-0.12634924509409656,-0.5185097036029236,-0.8610423550907641,-0.7164706959826523,-0.03465614757404546,0.008491776726473112,-0.9012610278650381
12678,6.0,298.6355,6883.2942,0.0,0.0,0.0,0.0,0.0,-0.12635921190368038,-0.49299209414453155,-0.8675526085732762,-0.7318048784910183,-0.03245738573779457,-0.0003410844739149167,-0.9269344447913072
12679,6.0,299.35039,6935.6197,0.0,0.0,0.0,0.0,0.0,-0.12636917871326414,-0.5431105142383345,-0.8694648445594992,-0.6956798678432573,-0.025833713092088977,-0.04315938192999936,-0.8951459115240232
12680,6.0,298.88877,6678.8779,0.0,0.0,0.0,0.0,0.0,-0.126379145522848,-0.4839476211019116,-0.8635787936685912,-0.6826857155133343,0.033281130711341866,0.0015456843525721686,-0.9252877411262901
12681,6.0,300.63217000000003,6721.2493,0.0,0.0,0.0,0.0,0.0,-0.12638911233243183,-0.4886100914370615,-0.8676629413766652,-0.6868189450562523,0.045409791150347455,0.0034813431347318164,-0.9104053769700151
12682,6.0,300.13153,6862.4291,0.0,0.0,0.0,0.0,0.0,-0.1263990791420157,-0.49711281004871455,-0.8791685989121851,-0.7097256724519704,0.03152095722062627,0.02025051860307058,-0.9303351553069311
12683,6.0,299.70262,6784.4684,0.0,0.0,0.0,0.0,0.0,-0.12640904595159946,-0.4655718948408686,-0.8800342387376172,-0.7167028619780653,-0.016333717255012384,-0.046436036182879954,-0.8910502127648091
12684,6.0,300.11377999999996,6863.5937,0.0,0.0,0.0,0.0,0.0,-0.12641901276118328,-0.46084450557181156,-0.9156251753901691,-0.7098914199033284,-0.02390176128542018,-0.02040247673381768,-0.9297371350979111
12685,6.0,301.27662000000004,7282.6108,0.0,0.0,0.0,0.0,0.0,-0.12642897957076715,-0.5456724259236755,-0.9162241075242791,-0.7518353029603673,-0.030939954547035766,0.01027880418193899,-0.8918533553240732
12686,6.0,299.74815,7027.6198,0.0,0.0,0.0,0.0,0.0,-0.12643894638035091,-0.5222314522802315,-0.8996670233377222,-0.7143224841806403,-0.026988204176528377,0.02637119870038468,-0.9067005293043751
12687,6.0,299.26581,6819.6824,0.0,0.0,0.0,0.0,0.0,-0.1264489131899348,-0.5243718924539765,-0.864221062509478,-0.6844202071670153,-0.014730436423030884,-0.002198630215062908,-0.8892236572070421
12688,6.0,298.40026,6994.9764,0.0,0.0,0.0,0.0,0.0,-0.1264588799995186,-0.5280488352118625,-0.8677807620982932,-0.7304685738616353,-0.016760105056093585,0.018409391495615483,-0.8985119080912212
12689,6.0,299.10516,6927.1327,0.0,0.0,0.0,0.0,0.0,-0.12646884680910236,-0.49254238335264855,-0.8896345402550933,-0.7234984568212383,0.016558615207458088,0.013484814637847588,-0.9241997435664132
12690,6.0,299.22623,6674.4512,0.0,0.0,0.0,0.0,0.0,-0.12647881361868624,-0.45983762881494056,-0.8580687294922902,-0.7109601555788043,-0.014923841549118485,0.013207526588981387,-0.9358382179250411
12691,6.0,299.92954,6841.3122,0.0,0.0,0.0,0.0,0.0,-0.12648878042827005,-0.5049152816487585,-0.8521786357334833,-0.7224941435871203,0.006107455258333904,-0.028240474908867875,-0.9083423389714091
12692,6.0,299.08068,6886.2169,0.0,0.0,0.0,0.0,0.0,-0.12649874723785393,-0.4988172791019325,-0.9018083146415511,-0.6926123848880203,0.002112815936268698,-0.012625718381561388,-0.9156422587868552
12693,6.0,300.46809,6750.2686,0.0,0.0,0.0,0.0,0.0,-0.1265087140474377,-0.4949028507856086,-0.8707685022706602,-0.6862417370042864,0.024487473545475476,0.014216236315283287,-0.9065498083520002
12694,6.0,300.34811,6918.8641,0.0,0.0,0.0,0.0,0.0,-0.1265186808570215,-0.49404158820060856,-0.9042189379544612,-0.7049013962083513,0.009343097301491911,-0.0005070498855019275,-0.9208521577535322
12695,6.0,300.28339,7124.8151,0.0,0.0,0.0,0.0,0.0,-0.12652864766660532,-0.5309581396939885,-0.8911871737808262,-0.7436205804246373,-0.0008980109369767792,-0.027803593889751073,-0.8784156426303742
12696,6.0,299.43991,6838.8713,0.0,0.0,0.0,0.0,0.0,-0.12653861447618914,-0.4860766115495265,-0.891076699122423,-0.7016927877791863,-0.030052288690929973,-0.00925328534575316,-0.9110802116691162
12697,6.0,300.82047,6730.9304,0.0,0.0,0.0,0.0,0.0,-0.126548581285773,-0.4846838384920705,-0.8726092939923321,-0.6887416479160083,0.015211221568980684,0.017432833208236683,-0.906499936182078
12698,6.0,300.30897999999996,6880.7546,0.0,0.0,0.0,0.0,0.0,-0.12655854809535683,-0.5253998346804265,-0.8562756517178273,-0.7099021198243843,-0.03701094283294567,0.030645879983762867,-0.9074457950179271
12699,6.0,300.06487999999996,6738.2481,0.0,0.0,0.0,0.0,0.0,-0.1265685149049406,-0.5363584790169605,-0.8472194249740472,-0.6646812643539334,-0.007729357195353163,-0.01085028939734019,-0.8965624959588291
12700,6.0,299.30385,6668.8775,0.0,0.0,0.0,0.0,0.0,-0.12657848171452446,-0.44036732900087155,-0.8959227197131882,-0.6908821792822624,-0.02013966093612978,-0.017785444243036682,-0.9335614652153431
12701,6.0,298.33387,6983.9378,0.0,0.0,0.0,0.0,0.0,-0.12658844852410822,-0.5028462452095606,-0.8927036950729952,-0.7273927721230773,-0.001846528541088178,0.02044600494486358,-0.9223203368834302
12702,6.0,298.63132,6999.816,0.0,0.0,0.0,0.0,0.0,-0.1265984153336921,-0.47102863166440656,-0.9186142023901631,-0.7381264344074072,0.01981364974295498,0.001881734827737768,-0.9400237210406182
12703,6.0,300.2812,6829.0314,0.0,0.0,0.0,0.0,0.0,-0.1266083821432759,-0.4960809668093795,-0.8770252405781522,-0.7027488172984083,0.024502939795001875,-0.03170059329110497,-0.8979141715922292
12704,6.0,300.1505,6889.0004,0.0,0.0,0.0,0.0,0.0,-0.12661834895285973,-0.5132506620063965,-0.8771872390041402,-0.7036462123819743,0.03065105161227327,-0.029575966911670675,-0.8847745976079542
12705,6.0,300.18656,6924.0218,0.0,0.0,0.0,0.0,0.0,-0.12662831576244354,-0.5241151348786365,-0.8810490999052762,-0.6995654894592384,0.033958103368153865,0.006901128792763384,-0.8912581924803352
12706,6.0,301.28102,6924.3545,0.0,0.0,0.0,0.0,0.0,-0.12663828257202736,-0.48333739122918656,-0.8867738413802642,-0.7347196342586824,-0.018599400207367882,0.027798175028216274,-0.8867248608704302
12707,6.0,300.57376,7004.7084,0.0,0.0,0.0,0.0,0.0,-0.12664824938161118,-0.5143744779573085,-0.8984905082491091,-0.7163914598248323,-0.025718461972714577,-0.015274268016702884,-0.9023747315799522
12708,6.0,299.34137999999996,7117.0335,0.0,0.0,0.0,0.0,0.0,-0.126658216191195,-0.5277727954871195,-0.9003174995044191,-0.7353101665494632,-0.044979181136099555,-0.008685709451887782,-0.9069628496227641
12709,6.0,299.4355,6962.8065,0.0,0.0,0.0,0.0,0.0,-0.1266681830007788,-0.5143802534828785,-0.8788934001850252,-0.7232456509212882,-0.02272843388162178,0.036039299821801964,-0.9432552593195461
12710,6.0,299.63617,6846.8444,0.0,0.0,0.0,0.0,0.0,-0.12667814981036268,-0.48482372780087657,-0.8924945906498581,-0.7039514134445953,-0.0018148519111619384,0.019823239141901382,-0.9208528264985981
12711,6.0,301.20591,7006.8167,0.0,0.0,0.0,0.0,0.0,-0.12668811661994644,-0.5275503060301615,-0.8685422398134452,-0.7338047910083944,0.008444990207080642,0.006849159701759432,-0.8815492097571332
12712,6.0,301.37816000000004,6809.203,0.0,0.0,0.0,0.0,0.0,-0.12669808342953032,-0.4809829121043176,-0.8569585113577202,-0.7318862627390503,0.02361155632427918,-0.01111164510163399,-0.8980070156988922
12713,6.0,300.34134,6729.1716,0.0,0.0,0.0,0.0,0.0,-0.12670805023911408,-0.48438785800535955,-0.8728817974742261,-0.6882304733730593,0.022589711836930978,0.016416450138927487,-0.8937205624758522
12714,6.0,300.01261,7033.5506,0.0,0.0,0.0,0.0,0.0,-0.1267180170486979,-0.5068103329132855,-0.8880430485880253,-0.7431703832727063,-6.218781046820904e-05,0.005669084558920084,-0.907292713192819
12715,6.0,299.56026,6936.6003,0.0,0.0,0.0,0.0,0.0,-0.12672798385828177,-0.5324268862439425,-0.889118400786654,-0.6870079972599104,-0.007944684392654304,-0.04948636785367425,-0.8792696402121571
12716,6.0,298.76376,6796.646,0.0,0.0,0.0,0.0,0.0,-0.12673795066786558,-0.49148718469850855,-0.8924147870719822,-0.6821087101113883,0.004171343452054546,-0.03475605606040567,-0.9199683300888052
12717,6.0,299.37652,7035.0337,0.0,0.0,0.0,0.0,0.0,-0.1267479174774494,-0.5329712447276665,-0.8908078433408891,-0.7146955020724544,-0.015569855362375085,-0.002421614340719728,-0.9018450652226783
12718,6.0,298.84868,6853.198,0.0,0.0,0.0,0.0,0.0,-0.12675788428703322,-0.4671651394306095,-0.9106283426545202,-0.7054075754283073,0.03483673508636807,0.01003176823468344,-0.94276853450151
12719,6.0,300.09458,6597.5517,0.0,0.0,0.0,0.0,0.0,-0.12676785109661698,-0.47825788741787856,-0.8575936165204002,-0.6696394821282713,-0.04434825360358186,0.025397358963024176,-0.9069574996622362
12720,6.0,300.52037,6695.2419,0.0,0.0,0.0,0.0,0.0,-0.1267778179062009,-0.4929707550974255,-0.8469960945195061,-0.6952195280578253,0.009720816673769912,0.005124389372187855,-0.9303092971643792
12721,6.0,300.61917,6758.9867,0.0,0.0,0.0,0.0,0.0,-0.12678778471578467,-0.5118732295554546,-0.8454812045599983,-0.6972087507866463,-0.015113513861837687,0.01392478303001909,-0.9106273091394181
12722,6.0,300.10145,6677.4130000000005,0.0,0.0,0.0,0.0,0.0,-0.12679775152536849,-0.4783862864705505,-0.8547065630104702,-0.6966739573838664,0.011010086030860889,0.007848603255896832,-0.8978653025399062
12723,6.0,300.50532000000004,7017.1084,0.0,0.0,0.0,0.0,0.0,-0.1268077183349523,-0.5003083475515896,-0.9027762217995762,-0.7299411467870823,0.018014711329913582,-0.03115518001402687,-0.8855603325305001
12724,6.0,299.04814,7326.9375,0.0,0.0,0.0,0.0,0.0,-0.12681768514453612,-0.5586068370277025,-0.9203980190587122,-0.7482012004167092,0.01345918447656809,-0.014471634108989087,-0.8673251947208322
12725,6.0,298.86615,7063.8715,0.0,0.0,0.0,0.0,0.0,-0.12682765195412,-0.5272503333380565,-0.9008642492583792,-0.7191259786647083,0.0052175647103085455,0.020849338266419482,-0.9098347043811942
12726,6.0,298.45112,6838.0805,0.0,0.0,0.0,0.0,0.0,-0.12683761876370375,-0.4903446641507505,-0.9057143228495441,-0.6825467482621193,0.0026807211364165777,-0.025463225285774677,-0.8907979641524142
12727,6.0,299.61975,6908.6407,0.0,0.0,0.0,0.0,0.0,-0.12684758557328762,-0.5284579957347435,-0.8763633552153293,-0.6952329130916464,0.001098147691428739,0.0012789865911011487,-0.9033429123155041
12728,6.0,299.53952000000004,6783.2338,0.0,0.0,0.0,0.0,0.0,-0.12685755238287144,-0.4899463859339436,-0.8641918099790912,-0.7077955120714783,0.017254759569412182,-0.007660278363160612,-0.9144670305258691
12729,6.0,299.89977999999996,6762.3556,0.0,0.0,0.0,0.0,0.0,-0.1268675191924552,-0.47947795199578963,-0.8773317386009012,-0.6987775659164763,0.02892616455629017,0.027745824448549675,-0.927987302837716
12730,6.0,298.76788,6772.0461,0.0,0.0,0.0,0.0,0.0,-0.12687748600203907,-0.4826399407878535,-0.8515381603452733,-0.7243548152757543,-0.016919399117564685,0.006609627378119433,-0.9297763782742842
12731,6.0,299.2536,6743.1321,0.0,0.0,0.0,0.0,0.0,-0.1268874528116229,-0.5072355331852495,-0.8647772760193722,-0.6777309731868394,-0.02116819287413798,-0.022770998491822576,-0.9109973987384431
12732,6.0,300.63395,7028.168000000001,0.0,0.0,0.0,0.0,0.0,-0.1268974196212067,-0.5084140646415616,-0.9090292212141992,-0.7189443029217782,-0.04664068027907676,0.001000405797227365,-0.9226585496343092
12733,6.0,300.6389,7326.9052,0.0,0.0,0.0,0.0,0.0,-0.12690738643079053,-0.5849142850715454,-0.8953149925682101,-0.7469669402048973,-0.01178203163279599,0.03613079529258187,-0.8789374056368682
12734,6.0,300.0513,7129.1469,0.0,0.0,0.0,0.0,0.0,-0.12691735324037434,-0.5012684526838446,-0.9346379927840881,-0.7311761973339722,0.029054380210694074,-0.004971841124582516,-0.9212357033138852
12735,6.0,300.12287000000003,6760.9585,0.0,0.0,0.0,0.0,0.0,-0.12692732004995816,-0.4740780585028615,-0.8792384726390812,-0.7018460418568113,0.011919021019815788,-0.014719972589248186,-0.8624747867571342
12736,6.0,299.48693,6966.5424,0.0,0.0,0.0,0.0,0.0,-0.12693728685954198,-0.5035661188756065,-0.8941358632943393,-0.7199529629988253,0.04096396989857906,-0.04508623303566476,-0.9086600131427611
12737,6.0,298.99791,7105.7785,0.0,0.0,0.0,0.0,0.0,-0.12694725366912585,-0.5244003343842835,-0.8984156189342181,-0.7371632591273493,0.008282853371128983,0.005274763387728615,-0.9084975587542281
12738,6.0,299.83542,6705.7875,0.0,0.0,0.0,0.0,0.0,-0.12695722047870966,-0.4746173000735806,-0.8757212991569633,-0.6880533369905774,-0.016652669134740485,-0.017424574206671584,-0.9518798313882251
12739,6.0,298.32327999999995,6470.5264,0.0,0.0,0.0,0.0,0.0,-0.12696718728829343,-0.4651461879438546,-0.8324065393771292,-0.6693257393673074,-0.024578955844004078,-0.016967220469284283,-0.9336676740908251
12740,6.0,299.05908999999997,6765.6461,0.0,0.0,0.0,0.0,0.0,-0.12697715409787724,-0.49250602793906056,-0.8616745015631522,-0.7024069568471693,-0.02933100356749467,0.002080094949464388,-0.9339340676746161
12741,6.0,300.6351,6825.2747,0.0,0.0,0.0,0.0,0.0,-0.12698712090746106,-0.4869794579186305,-0.8863458242730221,-0.7013877893665853,0.016518629318761784,0.04210221757066536,-0.941668236085419
12742,6.0,300.81982,6795.7049,0.0,0.0,0.0,0.0,0.0,-0.12699708771704493,-0.49164963908704157,-0.8684816170599623,-0.7055933345691403,-0.015408006897401886,-0.008669536967041681,-0.9218388910984151
12743,6.0,300.91173,7039.2667,0.0,0.0,0.0,0.0,0.0,-0.12700705452662875,-0.5022899303746565,-0.90051428280634,-0.7369570829970014,-0.03335389422752307,-0.01147942449043099,-0.9006160840438872
12744,6.0,300.71533,6941.2964,0.0,0.0,0.0,0.0,0.0,-0.12701702133621257,-0.5154010725611256,-0.8865375615894452,-0.7080421371458183,-0.010089624916718451,0.0017185550534581783,-0.8923840754614513
12745,6.0,299.85492999999997,7034.97,0.0,0.0,0.0,0.0,0.0,-0.12702698814579638,-0.5145714233792456,-0.9033128289200352,-0.7205709847648193,-0.013740536671585384,0.036713379649578465,-0.91016994830928
12746,6.0,300.56954,7281.6862,0.0,0.0,0.0,0.0,0.0,-0.1270369549553802,-0.5453918164409816,-0.9113185888876422,-0.7567403858994614,0.014063496968709089,-0.0010900292276525088,-0.8842437558805643
12747,6.0,299.25301,6965.3683,0.0,0.0,0.0,0.0,0.0,-0.12704692176496402,-0.5181798805628725,-0.8803836073720972,-0.7187345601510783,-0.016527088943846684,-0.038797545939269665,-0.8591873474701892
12748,6.0,298.254,6506.1675,0.0,0.0,0.0,0.0,0.0,-0.12705688857454783,-0.4459202637889036,-0.8465972488826432,-0.6851949381934753,0.016099846972931185,-0.02369293955906108,-0.9010583677125372
12749,6.0,298.81905,6814.0936,0.0,0.0,0.0,0.0,0.0,-0.12706685538413165,-0.48693819837455854,-0.8712287711285851,-0.7131473369796624,-0.0031661908415537075,0.006247727575677703,-0.9062894537388052
12750,6.0,299.49797,6931.4715,0.0,0.0,0.0,0.0,0.0,-0.12707682219371547,-0.5252331550389765,-0.8653068207866342,-0.7164542914635333,0.01036781617672379,0.00043126181777222754,-0.9443663792467051
12751,6.0,299.45013,6652.2732,0.0,0.0,0.0,0.0,0.0,-0.12708678900329928,-0.5037531952415696,-0.8488983297272422,-0.6694734104368814,-0.029528969332282374,-0.0037941129729497963,-0.9109458040433511
12752,6.0,300.08465,6908.017,0.0,0.0,0.0,0.0,0.0,-0.12709675581288316,-0.5251277567635745,-0.8746299781367581,-0.7001069297826743,0.02757203381789787,0.016957660454590785,-0.9426508252373932
12753,6.0,299.27686,7121.7402,0.0,0.0,0.0,0.0,0.0,-0.12710672262246692,-0.5471066915727265,-0.8868143815167652,-0.7309101279902133,-0.03862434603342617,0.031219854754659767,-0.8964497212226992
12754,6.0,300.79997000000003,7019.3671,0.0,0.0,0.0,0.0,0.0,-0.12711668943205073,-0.4871428343647545,-0.9188280792212712,-0.7277414112174853,-0.011513692608812989,-0.01843807660594648,-0.915738831653886
12755,6.0,300.17197000000004,6990.775,0.0,0.0,0.0,0.0,0.0,-0.1271266562416346,-0.5070526719397025,-0.8990952159087893,-0.7188731423672553,-0.04249258230419136,-0.036283779845680264,-0.8908328604858582
12756,6.0,300.01814,7113.5891,0.0,0.0,0.0,0.0,0.0,-0.12713662305121842,-0.5154101816795246,-0.9245376624747631,-0.7224056159258833,0.003995026484928416,-0.008059247717860823,-0.8814397179513271
12757,6.0,299.92443,6736.7416,0.0,0.0,0.0,0.0,0.0,-0.12714658986080224,-0.48260447703435355,-0.8851160426266522,-0.6800807103012404,0.03449276200867057,0.03159178137611607,-0.9190247206681781
12758,6.0,300.41033999999996,6572.8184,0.0,0.0,0.0,0.0,0.0,-0.12715655667038606,-0.4752580794368205,-0.8536315046543701,-0.6690830761008584,0.03793773027541246,-0.0009937687760248422,-0.9027531399622981
12759,6.0,299.8189,6800.9661,0.0,0.0,0.0,0.0,0.0,-0.12716652347996982,-0.5212802536163554,-0.8705442700235302,-0.6754993506365954,0.016481159330063784,-0.026296475558510075,-0.9159079126980731
12760,6.0,299.34578999999997,6900.5277,0.0,0.0,0.0,0.0,0.0,-0.1271764902895537,-0.5156253048082555,-0.8703811874199352,-0.7115816122626373,-0.013634467624617189,-0.0045347404328440356,-0.8926462032623211
12761,6.0,298.72724,6833.2415,0.0,0.0,0.0,0.0,0.0,-0.1271864570991375,-0.4893190523995305,-0.8901656048975051,-0.6976501225302063,-0.028472890163805477,0.02127401874108218,-0.9687508508532651
12762,6.0,298.78277,7174.7285,0.0,0.0,0.0,0.0,0.0,-0.12719642390872132,-0.5533691952732875,-0.8968548692751842,-0.7307142363483803,-0.04686955422491486,0.01926167567147938,-0.9067809408323112
12763,6.0,299.60665,7141.9046,0.0,0.0,0.0,0.0,0.0,-0.12720639071830514,-0.5501063475662694,-0.8896803796896171,-0.7311739479187503,-0.027856849301756973,0.0012722693508882088,-0.9166574745920492
12764,6.0,299.81111,6816.4815,0.0,0.0,0.0,0.0,0.0,-0.12721635752788896,-0.5086526343776065,-0.8770123317718782,-0.6863752124399594,0.011213313603417888,0.0057637214089850146,-0.8808583049114462
12765,6.0,300.50926,6993.3869,0.0,0.0,0.0,0.0,0.0,-0.12722632433747283,-0.5274575936460115,-0.8877916815032171,-0.7105657277123774,0.04328406032830416,0.022168733778133682,-0.8945406972392932
12766,6.0,299.47478,7006.0263,0.0,0.0,0.0,0.0,0.0,-0.1272362911470566,-0.5168969235512545,-0.8838937083685172,-0.7288664329360163,0.006837352298344134,-0.0017049735504427886,-0.8816315667252612
12767,6.0,300.16256,6679.4316,0.0,0.0,0.0,0.0,0.0,-0.12724625795664046,-0.4875240190523746,-0.8725430173032912,-0.6703133745047793,0.004008027598286526,-0.018108386301658584,-0.8854207573292251
12768,6.0,300.02097000000003,6951.7271,0.0,0.0,0.0,0.0,0.0,-0.12725622476622422,-0.5068637818560605,-0.8880460275433192,-0.7182416443749313,-0.016201670501980382,0.015325615478770486,-0.8965017110853302
12769,6.0,300.05969,7189.6419,0.0,0.0,0.0,0.0,0.0,-0.12726619157580804,-0.5538482295230645,-0.9142671264136402,-0.7173562664375512,0.018979352782866284,0.017912397387815984,-0.910082879728187
12770,6.0,300.09078999999997,6929.7697,0.0,0.0,0.0,0.0,0.0,-0.1272761583853919,-0.5075748909087415,-0.8931425032938022,-0.7057595379830434,-0.01023147020351749,-0.013345289085827487,-0.9342560278938911
12771,6.0,299.1944,6879.4795,0.0,0.0,0.0,0.0,0.0,-0.12728612519497573,-0.5047092473734245,-0.8727897234376393,-0.7136910064533183,0.009472252644038552,-0.015107805210774285,-0.8993468363061222
12772,6.0,298.26885,7085.1158,0.0,0.0,0.0,0.0,0.0,-0.12729609200455955,-0.5223799542148875,-0.8944844821237451,-0.7368338515198394,-0.004275526739261636,0.0054676300727130745,-0.9275675031887851
12773,6.0,299.03037,6838.9318,0.0,0.0,0.0,0.0,0.0,-0.12730605881414336,-0.5088696218865215,-0.8570474949815021,-0.7129473720724273,0.01856682725640318,0.031368066899787175,-0.9184991985038131
12774,6.0,299.42197000000004,6777.7043,0.0,0.0,0.0,0.0,0.0,-0.12731602562372712,-0.47910745709672453,-0.8742002081068432,-0.7069452027200592,-0.018665886639179584,0.021677099763363183,-0.9394618231976631
12775,6.0,299.28422,7014.4143,0.0,0.0,0.0,0.0,0.0,-0.127325992433311,-0.5166888222457166,-0.9025248445822672,-0.7129931203144423,0.005090488252992076,-0.019970152300400584,-0.9018974097228442
12776,6.0,299.41312999999997,6910.5475,0.0,0.0,0.0,0.0,0.0,-0.12733595924289481,-0.5270736022556145,-0.8728482588959162,-0.7007120224773924,-0.008666501067092061,0.03067681045631547,-0.8873253230121911
12777,6.0,300.06132,6848.033,0.0,0.0,0.0,0.0,0.0,-0.1273459260524787,-0.47089188343091054,-0.8974631942377211,-0.7132759690798574,-0.0008887021069830693,0.0036106773159211066,-0.915718870626916
12778,6.0,300.23474,7055.3288,0.0,0.0,0.0,0.0,0.0,-0.12735589286206245,-0.5265000723015115,-0.8900196056905961,-0.7281241157802553,-0.021858155397231977,0.00097022913208666,-0.8750387840221041
12779,6.0,300.09865,7151.8618,0.0,0.0,0.0,0.0,0.0,-0.12736585967164626,-0.5259808424202674,-0.9166207037459201,-0.7313858387796623,-0.03868751812416076,-0.003015605056742047,-0.8919287309990122
12780,6.0,300.70405,6815.0383,0.0,0.0,0.0,0.0,0.0,-0.12737582648123008,-0.49090050275810754,-0.8734764536929142,-0.7072245253751264,0.023583946272304278,0.012607646052777787,-0.9040274944805672
12781,6.0,299.05072,6813.9784,0.0,0.0,0.0,0.0,0.0,-0.1273857932908139,-0.5102743006326526,-0.8568198379490343,-0.7041851601101643,0.03041287197751677,-0.01078011878816489,-0.9556122901190902
12782,6.0,298.33124,6952.6834,0.0,0.0,0.0,0.0,0.0,-0.12739576010039777,-0.5318246914445105,-0.8650019439640452,-0.7166155096869443,0.03188942561949127,-0.012218078747080488,-0.9125656667132191
12783,6.0,299.1458,6831.3415,0.0,0.0,0.0,0.0,0.0,-0.1274057269099816,-0.47513966089763354,-0.8810393321743122,-0.7203782544632983,0.013924836732274386,-0.035395792789292765,-0.926825976368102
12784,6.0,299.407,6906.2647,0.0,0.0,0.0,0.0,0.0,-0.12741569371956535,-0.4992065900553545,-0.8635137734096743,-0.7366116457729093,-0.0017622013081407283,0.03289660533814217,-0.8837357730754303
12785,6.0,299.1939,7171.8648,0.0,0.0,0.0,0.0,0.0,-0.12742566052914922,-0.5455851952225664,-0.9042973331146982,-0.7301852792661763,-0.025547605714352373,0.011960507531910188,-0.9210061616362312
12786,6.0,300.38249,6997.56,0.0,0.0,0.0,0.0,0.0,-0.12743562733873298,-0.5053430657084774,-0.8901472650706952,-0.7315931801476253,-0.008435564346700382,-0.002905496282950157,-0.9021631446940702
12787,6.0,299.75847999999996,6833.6352,0.0,0.0,0.0,0.0,0.0,-0.1274455941483169,-0.5152007732813575,-0.9040349317363011,-0.6580187599113955,-0.01041086106747199,-0.02131134991451648,-0.9136613649738562
12788,6.0,299.80062000000004,7035.4472,0.0,0.0,0.0,0.0,0.0,-0.12745556095790067,-0.49136320341627254,-0.9282586410819951,-0.7189784291851463,0.04618563168566696,0.0068732152723835335,-0.9010852188401871
12789,6.0,299.76423,6832.1738,0.0,0.0,0.0,0.0,0.0,-0.1274655277674845,-0.48447970912692456,-0.8858824346047891,-0.7064481022209994,0.01021471206011359,-0.015030075755852985,-0.9202525467418552
12790,6.0,299.68001,6663.8985,0.0,0.0,0.0,0.0,0.0,-0.1274754945770683,-0.44065453474171656,-0.8864942451476701,-0.6985099665650664,-0.004132648646635665,0.0018211958700380384,-0.9297588794450572
12791,6.0,299.25874,6918.3365,0.0,0.0,0.0,0.0,0.0,-0.12748546138665212,-0.5252931901074015,-0.8583537972754242,-0.7193545678872683,-0.014850683878648387,-0.020725105698158677,-0.9227573212540572
12792,6.0,299.04105,7125.6066,0.0,0.0,0.0,0.0,0.0,-0.127495428196236,-0.5183395282486285,-0.9035749668534062,-0.7440919747686603,0.0017028054992038186,0.039036210920824065,-0.9202837548449351
12793,6.0,298.6131,6872.6099,0.0,0.0,0.0,0.0,0.0,-0.12750539500581975,-0.5395743321843405,-0.8783852856573782,-0.6711421826890763,0.015093080660321086,-0.013169867122514688,-0.962686873244797
12794,6.0,298.58499,6988.8103,0.0,0.0,0.0,0.0,0.0,-0.12751536181540357,-0.5137938653850065,-0.8880869121848542,-0.7225430531694473,0.006840577068112394,-0.0065112854777388445,-0.9076316048212651
12795,6.0,299.67117,6880.262,0.0,0.0,0.0,0.0,0.0,-0.12752532862498744,-0.5302624624403305,-0.8698834485733121,-0.6912819469767163,0.0023301889868467475,-0.005424565119612895,-0.9218220812792561
12796,6.0,300.30922999999996,6818.0563,0.0,0.0,0.0,0.0,0.0,-0.1275352954345712,-0.4900096938001915,-0.8834048759902733,-0.6991042782787203,-0.009209817524413222,0.025861012076283177,-0.8808147858196512
12797,6.0,299.26416,7138.2116,0.0,0.0,0.0,0.0,0.0,-0.12754526224415508,-0.5361326660996745,-0.9182221252639681,-0.7154832837602023,-0.024466792097684376,0.009445973901370041,-0.9359149209576112
12798,6.0,299.08155,7075.3625,0.0,0.0,0.0,0.0,0.0,-0.1275552290537389,-0.5345084768518795,-0.9055227273881351,-0.7107023138258574,-0.03749349002081936,0.00947577794378647,-0.8783124937701942
12799,6.0,299.60663,6656.3997,0.0,0.0,0.0,0.0,0.0,-0.12756519586332266,-0.5004358144141695,-0.8679403084590392,-0.6550031857587814,0.008464401343221371,-0.004711171086631386,-0.9054342199919001
12800,6.0,299.97782,6829.3523,0.0,0.0,0.0,0.0,0.0,-0.12757516267290653,-0.4731780289690355,-0.8776819583654651,-0.7250925930710672,-0.018030894960510784,0.013983134076777887,-0.8894859673929302
12801,6.0,300.35154,7266.2939,0.0,0.0,0.0,0.0,0.0,-0.12758512948249034,-0.5545202575193885,-0.9166111487974771,-0.7376405100569503,0.029114274437355175,-0.03066554311520347,-0.9184489514313542
12802,6.0,300.09681,7006.3942,0.0,0.0,0.0,0.0,0.0,-0.12759509629207416,-0.5078266126310845,-0.8690618648622283,-0.7528804096435113,-0.014215216985682688,-0.02366286122984258,-0.9190627479444311
12803,6.0,300.22986000000003,6606.5351,0.0,0.0,0.0,0.0,0.0,-0.12760506310165798,-0.48259290571821156,-0.8431403435164732,-0.6824884661163674,0.027636680187527973,-0.005266506716638745,-0.9340428400728511
12804,6.0,300.82448999999997,6804.2162,0.0,0.0,0.0,0.0,0.0,-0.1276150299112418,-0.5025622008090275,-0.8506146335416281,-0.7151349790383273,0.01035642825884989,0.02220537188849958,-0.9317604131625932
12805,6.0,299.09637999999995,6950.2,0.0,0.0,0.0,0.0,0.0,-0.12762499672082567,-0.5338122321781655,-0.8817753266494491,-0.6970996744133814,0.034232338494468766,0.013423172554763989,-0.921930397714946
12806,6.0,298.50934,7034.9478,0.0,0.0,0.0,0.0,0.0,-0.12763496353040943,-0.49393319070491054,-0.9252623085487801,-0.7192529591672403,-0.03288219894822037,-0.003577990475645166,-0.9391066891701142
12807,6.0,299.09749,7268.8052,0.0,0.0,0.0,0.0,0.0,-0.1276449303399933,-0.5650272152263445,-0.9029139832831722,-0.7415940903571383,-0.008544780751129202,-0.015700366028255485,-0.8682851782630752
12808,6.0,299.90438,7040.6762,0.0,0.0,0.0,0.0,0.0,-0.12765489714957706,-0.49831216379458154,-0.9108414899455562,-0.7310361053751463,-0.049081548094221654,0.0013986637895623687,-0.9177169998241161
12809,6.0,301.16666000000004,6807.6107,0.0,0.0,0.0,0.0,0.0,-0.12766486395916088,-0.4670731059240265,-0.8929277652001092,-0.7093428159016854,0.008420406834479453,-0.009298426448308241,-0.9097008945729881
12810,6.0,301.15756,7215.5253,0.0,0.0,0.0,0.0,0.0,-0.12767483076874475,-0.5369989645376715,-0.8907746391351121,-0.7655659259929742,-0.003587992976657337,-0.01151751357494009,-0.916565430952965
12811,6.0,300.75087,7229.6409,0.0,0.0,0.0,0.0,0.0,-0.12768479757832857,-0.5636284741257994,-0.8859855733324682,-0.7480162620084573,0.03470136284650787,-0.007317765176207193,-0.8626404328834821
12812,6.0,301.15457999999995,6583.5559,0.0,0.0,0.0,0.0,0.0,-0.12769476438791239,-0.4655692299931055,-0.8455349270803002,-0.6901324350032684,0.04463689410656846,0.00013596172850337786,-0.9143735683366452
12813,6.0,300.06953,6692.632,0.0,0.0,0.0,0.0,0.0,-0.1277047311974962,-0.4885932309553975,-0.8611373776851422,-0.6846623942059173,0.01086981776651749,-0.01117531571141779,-0.9070117693375921
12814,6.0,299.09371,7174.0472,0.0,0.0,0.0,0.0,0.0,-0.12771469800707996,-0.5441725624631505,-0.8743622166653321,-0.7621964235804303,0.00027785598567975074,-0.0016636300079374982,-0.9264285087513752
12815,6.0,299.32898,7327.0564,0.0,0.0,0.0,0.0,0.0,-0.12772466481666384,-0.5566427631663635,-0.9154452424374112,-0.7551541833979153,-0.024685137361733375,0.009454496651936171,-0.9148479416359621
12816,6.0,299.98247000000003,7005.6454,0.0,0.0,0.0,0.0,0.0,-0.12773463162624765,-0.5280245273419635,-0.8799723392890082,-0.7215444040033883,-0.015752275844128586,0.04870839544014435,-0.921765511526173
12817,6.0,299.75439,7091.0554,0.0,0.0,0.0,0.0,0.0,-0.12774459843583152,-0.5188911314705675,-0.9075596843291672,-0.7290529520144243,-0.02081530623531078,0.005064568910134035,-0.9058122838692121
12818,6.0,300.47335,6708.294,0.0,0.0,0.0,0.0,0.0,-0.12775456524541529,-0.4957936698760255,-0.8695290339533343,-0.6738311660694584,0.01234623563297859,-0.011347528711663888,-0.9055624873220591
12819,6.0,300.7041,6711.3517,0.0,0.0,0.0,0.0,0.0,-0.1277645320549991,-0.4960442466257555,-0.8716524920554032,-0.6723865956668903,0.008149492027417243,-0.025256433099365875,-0.9086805213247852
12820,6.0,300.12852999999996,7165.0606,0.0,0.0,0.0,0.0,0.0,-0.12777449886458292,-0.5150540445343765,-0.930999138097461,-0.7319463282049783,0.04026301462515016,0.0014198940136076286,-0.9103085102604551
12821,6.0,299.11144,6831.8745,0.0,0.0,0.0,0.0,0.0,-0.12778446567416674,-0.49598566050497356,-0.8914447723537492,-0.6892888232350104,-0.014684323410979886,0.007280794213183443,-0.9445028336376721
12822,6.0,299.29817,6499.4465,0.0,0.0,0.0,0.0,0.0,-0.1277944324837506,-0.42052924979800554,-0.8889621272237311,-0.6661780677991563,-0.012255760505049387,0.013739782813510987,-0.949956814420938
12823,6.0,298.56564,6925.9234,0.0,0.0,0.0,0.0,0.0,-0.12780439929333443,-0.5148974264664195,-0.8678072180584042,-0.7226031186353753,-0.030847583628169473,0.017436782857126482,-0.9165162680581131
12824,6.0,299.3573,7336.1657,0.0,0.0,0.0,0.0,0.0,-0.1278143661029182,-0.5484125176391015,-0.9220302028497961,-0.7595684581210703,0.017904137373000784,0.021346718422507082,-0.9152153258572202
12825,6.0,299.41455,6933.764,0.0,0.0,0.0,0.0,0.0,-0.12782433291250206,-0.5311029432657794,-0.8726499557188451,-0.7039382107957923,-0.006145474023286064,-0.004431397231294856,-0.9170650949747781
12826,6.0,300.27601,6768.4782,0.0,0.0,0.0,0.0,0.0,-0.12783429972208582,-0.45763187453974963,-0.8744234980313802,-0.7253930115932163,0.016603116138599987,-0.016685145826945684,-0.9394427335657792
12827,6.0,299.63749,6948.2494,0.0,0.0,0.0,0.0,0.0,-0.1278442665316697,-0.5410815417080905,-0.8918549562592311,-0.6791578117126573,0.0026698564608943175,-0.0036006243550539565,-0.8888258248202792
12828,6.0,300.41323,7182.4967,0.0,0.0,0.0,0.0,0.0,-0.1278542333412535,-0.49742663386968655,-0.918345711378665,-0.7675272843440453,0.02012265758620168,0.021277257088401776,-0.9124384936931681
12829,6.0,299.97494,7213.8333,0.0,0.0,0.0,0.0,0.0,-0.12786420015083733,-0.5340800240470945,-0.9374532473919321,-0.7212919223434703,-0.013275037416644188,-0.0047601389308391355,-0.8996335658194201
12830,6.0,300.58527999999995,7163.8607,0.0,0.0,0.0,0.0,0.0,-0.12787416696042114,-0.5335260295549195,-0.9084874870482342,-0.7356212444626643,-0.021355625904136182,-0.01973272551046838,-0.8896753134391171
12831,6.0,300.54326000000003,6802.8867,0.0,0.0,0.0,0.0,0.0,-0.12788413377000496,-0.5158779485881896,-0.8709491444984883,-0.6810806057649224,-0.03972049924335806,-0.005635522169232734,-0.8921738564632041
12832,6.0,299.97258,6921.9502,0.0,0.0,0.0,0.0,0.0,-0.12789410057958883,-0.4865108702773846,-0.9044090743357261,-0.7131800649578923,-0.03233452409691907,-0.0008487740444699762,-0.9189269015035242
12833,6.0,299.70327000000003,7435.7816,0.0,0.0,0.0,0.0,0.0,-0.1279040673891726,-0.6003289905653584,-0.8903634419795302,-0.7695995226535592,-0.002252813865485418,0.00027437453939615873,-0.9161169867237072
12834,6.0,299.67482,6999.1669,0.0,0.0,0.0,0.0,0.0,-0.1279140341987564,-0.4915662080738075,-0.8972790765620501,-0.7387266938991482,0.003493585121115007,-0.0089345365213451,-0.922629611211453
12835,6.0,298.70378999999997,6395.3913,0.0,0.0,0.0,0.0,0.0,-0.12792400100834023,-0.44658396286940555,-0.8324290841918541,-0.6650262152179774,0.04168745681448166,-0.002240390203359298,-0.9356940527008131
12836,6.0,299.05607000000003,7029.3673,0.0,0.0,0.0,0.0,0.0,-0.12793396781792404,-0.5229172300804125,-0.8783033035917871,-0.7355315920938162,0.02344377021371998,-0.0015336047901800087,-0.8969067679453061
12837,6.0,298.99408999999997,7352.3128,0.0,0.0,0.0,0.0,0.0,-0.12794393462750792,-0.5560892854317395,-0.9209895240695892,-0.7578406944480532,0.028395215424389574,0.007134519402247244,-0.9336425961508501
12838,6.0,299.54395,7008.4384,0.0,0.0,0.0,0.0,0.0,-0.12795390143709173,-0.49795520591685255,-0.9103450784565641,-0.7220899682547314,-0.03693459443791067,-0.011209375100279188,-0.9288615856865011
12839,6.0,300.58262,6860.7722,0.0,0.0,0.0,0.0,0.0,-0.1279638682466755,-0.5100449616050186,-0.8774512413176951,-0.6980072323954504,-0.05091776093869175,0.018458245349186983,-0.9177937332541891
12840,6.0,299.89325,6804.9968,0.0,0.0,0.0,0.0,0.0,-0.12797383505625937,-0.4693102202898126,-0.9025495374872041,-0.6966893385203843,-0.05021872070795186,0.02112662834178588,-0.9143931037985732
12841,6.0,299.47372,6776.5417,0.0,0.0,0.0,0.0,0.0,-0.12798380186584318,-0.4979921186179955,-0.8687783878817511,-0.6931289499215013,-0.028986012173446676,0.018187974057263284,-0.917841122961366
12842,6.0,300.45397,7144.4132,0.0,0.0,0.0,0.0,0.0,-0.127993768675427,-0.5351645968216335,-0.9107830760772911,-0.7257755236384673,0.004725317375252515,-0.01896891630683628,-0.911360020684231
12843,6.0,299.09981,7156.5019,0.0,0.0,0.0,0.0,0.0,-0.12800373548501082,-0.5629674500255615,-0.8918302633542942,-0.7206001765002003,0.03974971833649176,-0.001105985991552319,-0.8765547986892231
12844,6.0,299.18766,6585.326,0.0,0.0,0.0,0.0,0.0,-0.12801370229459463,-0.47109045005300754,-0.8367618024144601,-0.6939224159423103,0.038544304341776664,0.016655222524992484,-0.9006330863805652
12845,6.0,299.78769,6772.5933,0.0,0.0,0.0,0.0,0.0,-0.12802366910417845,-0.5013228135517095,-0.8761894308356643,-0.6811869970254224,0.02615681220447637,0.005162573600881345,-0.9153443531249542
12846,6.0,298.42731000000003,7365.1943,0.0,0.0,0.0,0.0,0.0,-0.12803363591376227,-0.5515296397167374,-0.9003500957601361,-0.7869554228214533,0.0002697541392051608,-0.024770961671703576,-0.9357065460745462
12847,6.0,299.07384,7250.9094,0.0,0.0,0.0,0.0,0.0,-0.12804360272334608,-0.5696660869666654,-0.9026642677960272,-0.7317650577620882,-0.015211670438774985,-0.008833386702287392,-0.9007127683684292
12848,6.0,299.70731,6675.1276,0.0,0.0,0.0,0.0,0.0,-0.1280535695329299,-0.47009774866503556,-0.8823792439740511,-0.6765951299572404,-0.001206643168411409,0.012948439551661488,-0.9528941454008301
12849,6.0,299.15853,6856.7837,0.0,0.0,0.0,0.0,0.0,-0.12806353634251372,-0.5037463051408895,-0.8725711451260671,-0.7079735705115513,-0.00870133164060457,0.0041429773128550266,-0.8865723667303801
12850,6.0,300.5308,7019.9783,0.0,0.0,0.0,0.0,0.0,-0.1280735031520976,-0.5096867979596705,-0.9067509891593553,-0.7174603272228213,-0.014989339048832588,-0.019197819636927283,-0.930121167018312
12851,6.0,299.98271,6978.334,0.0,0.0,0.0,0.0,0.0,-0.1280834699616814,-0.49019045761803154,-0.9086718681689312,-0.7223769510805543,-0.011808043789363188,-0.007171672750288993,-0.8772515297229851
12852,6.0,300.19411,7103.2333,0.0,0.0,0.0,0.0,0.0,-0.12809343677126522,-0.5134975099957585,-0.9055970999454751,-0.7401109455232633,0.013050099947444589,0.016801148777894286,-0.8953131788505312
12853,6.0,301.18079,6986.9458,0.0,0.0,0.0,0.0,0.0,-0.12810340358084898,-0.5335627801360465,-0.8941733535480392,-0.6961209153467853,-0.0007058747546519143,0.016700451982956284,-0.9112996208457702
12854,6.0,301.15815,6645.8251,0.0,0.0,0.0,0.0,0.0,-0.1281133703904328,-0.4644479370349426,-0.8677169881369993,-0.6879999589753093,0.009298249636165792,-0.007429155914025602,-0.9367075459808372
12855,6.0,300.84313,7131.8009,0.0,0.0,0.0,0.0,0.0,-0.12812333720001667,-0.5288175272677266,-0.9045824819578402,-0.7344893731734573,-0.028119898146967873,-0.00020115209184716582,-0.9341847964118611
12856,6.0,300.07745,7389.2258,0.0,0.0,0.0,0.0,0.0,-0.1281333040096005,-0.5448829723732624,-0.9315096641603461,-0.7697475078306643,0.021809803102459977,0.016140705269963588,-0.924344010115651
12857,6.0,298.97071,6758.4185,0.0,0.0,0.0,0.0,0.0,-0.1281432708191843,-0.48903551462404754,-0.8590592422600462,-0.7062956891409573,-0.022459756432105377,-0.01144127055791549,-0.954074368984809
12858,6.0,300.32352000000003,6635.2843,0.0,0.0,0.0,0.0,0.0,-0.12815323762876812,-0.4727514101469315,-0.8736160795566942,-0.6705932645799024,0.02417320085470918,-0.04059346284051286,-0.9311381053486761
12859,6.0,299.50268,7037.339,0.0,0.0,0.0,0.0,0.0,-0.12816320443835194,-0.5631948841430074,-0.8723772191894281,-0.7036032404452334,-0.002948742101193187,-0.022684186263004877,-0.8931910683710951
12860,6.0,299.20047,7039.3211,0.0,0.0,0.0,0.0,0.0,-0.12817317124793576,-0.5106872000484025,-0.8897195012759782,-0.7393711513602513,0.04057031007572786,0.019714723095941678,-0.8819460795563011
12861,6.0,300.41061,6936.4661,0.0,0.0,0.0,0.0,0.0,-0.12818313805751957,-0.5045847999961426,-0.8981626914442561,-0.7057649892685813,-0.006365782763378844,0.00990131643863385,-0.9067204801988441
12862,6.0,300.86216,6994.507,0.0,0.0,0.0,0.0,0.0,-0.12819310486710345,-0.49177130002654856,-0.869807201503287,-0.7645769736303722,-0.014929814658457986,0.013143619891924288,-0.8879265248265251
12863,6.0,300.19747,7007.6468,0.0,0.0,0.0,0.0,0.0,-0.1282030716766872,-0.5182500785298004,-0.8886556798634871,-0.7232438979986153,-0.020398296063905082,0.008959748311658312,-0.9004998439924151
12864,6.0,300.72829,7121.243,0.0,0.0,0.0,0.0,0.0,-0.12821303848627102,-0.49446825768521757,-0.9160839649029482,-0.7541278117091202,0.005272073816663175,0.013939729482244187,-0.923380378873048
12865,6.0,300.79241,7264.005999999999,0.0,0.0,0.0,0.0,0.0,-0.1282230052958549,-0.5831193226518965,-0.897496398443498,-0.7274607105422822,0.016876010735032587,-0.009918190092549151,-0.926034192342459
12866,6.0,300.77698,6969.0658,0.0,0.0,0.0,0.0,0.0,-0.12823297210543866,-0.48584262170393355,-0.9185183995932081,-0.7140609744623313,0.009121308101678022,-0.036191362317309364,-0.943414136935226
12867,6.0,301.39967,6548.6198,0.0,0.0,0.0,0.0,0.0,-0.12824293891502253,-0.48524906992785455,-0.8405014045585302,-0.6648664155447064,0.029693106729231474,-0.0028385603733940973,-0.9372173019736462
12868,6.0,301.1925,6931.0893,0.0,0.0,0.0,0.0,0.0,-0.12825290572460635,-0.4544520525459256,-0.9123483650967732,-0.7400776501249773,0.01089394629114879,0.007851595687417164,-0.9326500974128981
12869,6.0,300.13104,7195.4867,0.0,0.0,0.0,0.0,0.0,-0.12826287253419016,-0.5384859090594215,-0.9127715186035351,-0.7359908578341423,0.012230895347595387,-0.015112817759018987,-0.9320010397963412
12870,6.0,299.37864,6956.3363,0.0,0.0,0.0,0.0,0.0,-0.12827283934377398,-0.4973253696546925,-0.8794918256940852,-0.7377353502663102,-0.031214042752086172,-0.03517623263837387,-0.9072727319008472
12871,6.0,299.61807999999996,6853.6242,0.0,0.0,0.0,0.0,0.0,-0.1282828061533578,-0.5273765032405086,-0.8899569767019152,-0.6659971418613004,-0.03018161284094327,0.0019564150078081283,-0.9023142709464852
12872,6.0,299.7116,7136.395,0.0,0.0,0.0,0.0,0.0,-0.12829277296294167,-0.5097335391867835,-0.9084287692049392,-0.7511235859576263,-0.013727430281541886,0.02140607663986528,-0.9044402216438002
12873,6.0,300.51736,7165.9253,0.0,0.0,0.0,0.0,0.0,-0.12830273977252543,-0.5190242218712025,-0.9205075513945222,-0.7387305847795324,-0.004592050061150056,0.026870770516438578,-0.9192629762966921
12874,6.0,300.47226,7090.5623,0.0,0.0,0.0,0.0,0.0,-0.12831270658210925,-0.49221111136495455,-0.9217137648435662,-0.7414290116508463,0.010753428767280792,0.006705322061288764,-0.9248177349349042
12875,6.0,299.37567,6954.6492,0.0,0.0,0.0,0.0,0.0,-0.12832267339169307,-0.5228763150413744,-0.8625365342182281,-0.7286268600823723,0.02041190097299778,0.004671979383363466,-0.9047049129674231
12876,6.0,300.01757000000003,6637.566,0.0,0.0,0.0,0.0,0.0,-0.12833264020127688,-0.47879605494349153,-0.8679651330864891,-0.6708931258144963,0.002553861007996458,-0.003804662932990997,-0.9272690199743272
12877,6.0,300.69624,6870.2002,0.0,0.0,0.0,0.0,0.0,-0.12834260701086075,-0.5041335693291096,-0.8771197768124821,-0.7071159758919133,0.006386935777766484,-0.037024168786500965,-0.9359437479229562
12878,6.0,299.82469,7265.9585,0.0,0.0,0.0,0.0,0.0,-0.12835257382044457,-0.5548393299758785,-0.8801524546267842,-0.7736781684135903,-0.0036627990023901163,-0.029243445586603373,-0.9397438512304972
12879,6.0,298.69032999999996,7100.8008,0.0,0.0,0.0,0.0,0.0,-0.12836254063002833,-0.5344293116215665,-0.9008829538552252,-0.7231538504622282,0.011893174023014888,0.006739136243625964,-0.8941809123937852
12880,6.0,298.8302,6837.1565,0.0,0.0,0.0,0.0,0.0,-0.1283725074396122,-0.4669522555845996,-0.876637236717359,-0.7347353599002343,0.019942870541458085,0.01986406805468088,-0.9441634049866732
12881,6.0,300.01604,7119.9776,0.0,0.0,0.0,0.0,0.0,-0.12838247424919597,-0.5409099275386534,-0.9067911746583213,-0.7165943023623513,0.003962559013299127,0.001126896737841049,-0.9005184168667482
12882,6.0,300.94026,7299.5488,0.0,0.0,0.0,0.0,0.0,-0.12839244105877984,-0.5605476567992465,-0.924950967190553,-0.7333819414766622,0.0058964870629629644,-0.013076167832767287,-0.930578385993436
12883,6.0,300.64609,7118.7486,0.0,0.0,0.0,0.0,0.0,-0.12840240786836365,-0.5482458481301525,-0.8901741668608502,-0.7255017941239523,0.015065594224858384,-0.02107739958567738,-0.8901102713095441
12884,6.0,300.32792,6804.981,0.0,0.0,0.0,0.0,0.0,-0.12841237467794747,-0.45710787225053456,-0.9056437601125801,-0.7057926813938143,-0.0034287812924193666,0.006377653900225433,-0.9375523635167141
12885,6.0,300.13716,6754.3052,0.0,0.0,0.0,0.0,0.0,-0.1284223414875313,-0.46825613621078255,-0.8733781076382082,-0.7115058718176623,-0.013665455852425486,-0.0024646317723902174,-0.8976877811223861
12886,6.0,300.21153,6865.1232,0.0,0.0,0.0,0.0,0.0,-0.1284323082971151,-0.45227949234401055,-0.9036905786898162,-0.7308559697723683,-0.01960829637168818,0.02058762995109088,-0.9464446261293121
12887,6.0,299.6911,7125.1377,0.0,0.0,0.0,0.0,0.0,-0.12844227510669892,-0.5616845335439474,-0.8832409929190992,-0.7209384196485823,-0.025816924551182077,0.016126392099050986,-0.9036285880486981
12888,6.0,300.16444,7229.6129,0.0,0.0,0.0,0.0,0.0,-0.12845224191628274,-0.5852310473178075,-0.894829970010342,-0.7175607909702363,0.006577648900988404,0.004575762977717646,-0.9362358881917882
12889,6.0,299.91123,6958.9121,0.0,0.0,0.0,0.0,0.0,-0.12846220872586656,-0.5353657472314856,-0.8830074894335541,-0.6969622776998213,-0.019318437942081382,-0.02666088183772418,-0.9047840376677322
12890,6.0,299.26023,6965.6042,0.0,0.0,0.0,0.0,0.0,-0.12847217553545043,-0.5069045246425815,-0.8891093929932652,-0.7213558178947763,0.03026807955147687,-0.016344136505790682,-0.9238073422001861
12891,6.0,300.18015,7451.5455,0.0,0.0,0.0,0.0,0.0,-0.1284821423450342,-0.5633825583265295,-0.9179973661267862,-0.7837038323230462,0.01834434995844638,0.00975550701346858,-0.8631758342363222
12892,6.0,300.46601,7219.1236,0.0,0.0,0.0,0.0,0.0,-0.12849210915461806,-0.5119067478687626,-0.9166294480942832,-0.7658970966556582,0.016183213138158785,0.03140761607769037,-0.9071993523286052
12893,6.0,300.57117,6719.635,0.0,0.0,0.0,0.0,0.0,-0.12850207596420182,-0.48478840590239053,-0.8712341413541151,-0.6865786933250414,-0.024124097741613077,0.01021028618367679,-0.9207166152876551
12894,6.0,300.23942,6764.5469,0.0,0.0,0.0,0.0,0.0,-0.12851204277378564,-0.4960593541847465,-0.8850956661671412,-0.6750983062470154,-0.030374583282737972,0.021286933626856776,-0.9129548966066331
12895,6.0,300.30055,6986.4749,0.0,0.0,0.0,0.0,0.0,-0.1285220095833695,-0.5574470101682365,-0.8843283723964153,-0.6819385246245924,-0.031040490235207868,0.019389341131078982,-0.9149281606463792
12896,6.0,300.65887999999995,7216.6947,0.0,0.0,0.0,0.0,0.0,-0.12853197639295333,-0.5375047181925855,-0.9224897219026472,-0.7337005478381063,-0.012206132528401487,0.01021471206011359,-0.9166511924414291
12897,6.0,300.89191,7298.0731,0.0,0.0,0.0,0.0,0.0,-0.12854194320253715,-0.5567569463201324,-0.9278934353484523,-0.7337816179786073,0.007594234215017562,-0.024940674983952974,-0.9228898746321391
12898,6.0,300.71407999999997,7082.2977,0.0,0.0,0.0,0.0,0.0,-0.12855191001212096,-0.49981250348265355,-0.9050715777811101,-0.7479575745626653,0.009130654320600421,-0.009340326670418472,-0.920601074378752
12899,6.0,300.74799,6889.1689,0.0,0.0,0.0,0.0,0.0,-0.12856187682170472,-0.5211015162987156,-0.891418022551109,-0.6816157943352413,0.021363480618911378,0.0005671891970972153,-0.9315371029730541
12900,6.0,300.12606,7203.3686,0.0,0.0,0.0,0.0,0.0,-0.1285718436312886,-0.5133711374432866,-0.9211833284162161,-0.7550897204265532,0.012053937297130989,0.004685090535682435,-0.9293858615532431
12901,6.0,300.3479,7391.9805,0.0,0.0,0.0,0.0,0.0,-0.1285818104408724,-0.5809061412534725,-0.9220514811018962,-0.7440198617590433,0.016186069490190684,-0.012438629856597189,-0.935463072208017
12902,6.0,300.48256000000003,6811.0284,0.0,0.0,0.0,0.0,0.0,-0.12859177725045629,-0.4419576452978236,-0.9020534907682481,-0.7263714261547783,-0.0009321855323745493,0.002270596506065428,-0.926492110460152
12903,6.0,299.65677999999997,6524.778,0.0,0.0,0.0,0.0,0.0,-0.12860174406004005,-0.45458074544112653,-0.8568159572011512,-0.6719728856510604,0.01119588975469829,0.02139122036689908,-0.9045573938853642
12904,6.0,299.80002,7105.6607,0.0,0.0,0.0,0.0,0.0,-0.12861171086962386,-0.48170862209093956,-0.9171758837407121,-0.7610589287531683,-0.025788567733883477,0.02011637340908148,-0.9198481079644402
12905,6.0,299.62394,7227.7741,0.0,0.0,0.0,0.0,0.0,-0.12862167767920774,-0.5779564283573584,-0.9072730460083782,-0.7118333643824833,-0.022179856224481376,0.001333547474535889,-0.9089157169379972
12906,6.0,300.05998999999997,7043.3293,0.0,0.0,0.0,0.0,0.0,-0.1286316444887915,-0.5147358941354775,-0.9043422200941281,-0.7219181109052704,-0.027952354203182577,0.016535319574408985,-0.932032876114483
12907,6.0,300.37171,7006.8547,0.0,0.0,0.0,0.0,0.0,-0.12864161129837537,-0.5782368655875354,-0.8590187223885472,-0.6926532796620564,-0.01029279513931979,0.021567418479788478,-0.8947268718126671
12908,6.0,300.08151000000004,7053.4781,0.0,0.0,0.0,0.0,0.0,-0.12865157810795919,-0.5244296071796726,-0.8872562193553712,-0.7323953803842963,0.005743252845039925,0.007852042429386252,-0.9109791501041422
12909,6.0,300.93137,7129.1846,0.0,0.0,0.0,0.0,0.0,-0.12866154491754295,-0.5360350799825435,-0.8779875647281262,-0.7530714579498663,0.02350119109688698,-0.05002600155218195,-0.908592996781147
12910,6.0,301.34224,7318.1537,0.0,0.0,0.0,0.0,0.0,-0.12867151172712682,-0.5415385377681925,-0.901312480705116,-0.7816849618962992,0.0035674865171585065,-0.026972988199776674,-0.9038991764879031
12911,6.0,300.9832,7191.4664,0.0,0.0,0.0,0.0,0.0,-0.12868147853671064,-0.5449097728384075,-0.8975494116887303,-0.7435670200243513,0.024423552662916976,-0.009011320005973043,-0.9070950787608142
12912,6.0,300.45875,6752.9428,0.0,0.0,0.0,0.0,0.0,-0.1286914453462945,-0.4633201086136346,-0.8836040708274322,-0.7058018209097163,0.005252621846543414,0.02273369062314058,-0.91543347860375
12913,6.0,299.9911,6839.7017,0.0,0.0,0.0,0.0,0.0,-0.12870141215587827,-0.47622804349254855,-0.8992269080242862,-0.7036435779317144,0.005972281210193265,0.004559692121856576,-0.9325304731060922
12914,6.0,300.14787,7070.8307,0.0,0.0,0.0,0.0,0.0,-0.1287113789654621,-0.5089273974072235,-0.8959035794187991,-0.7445249973313962,-0.017313472346456683,0.025439968156229373,-0.9174381736615982
12915,6.0,300.27217,6951.7727,0.0,0.0,0.0,0.0,0.0,-0.1287213457750459,-0.48875250373861656,-0.9092378696747911,-0.7151749517547723,0.005349400808644755,0.021757582218806183,-0.9106898570680911
12916,6.0,300.18715,6739.7035,0.0,0.0,0.0,0.0,0.0,-0.12873131258462972,-0.4944363504395685,-0.8790353666565363,-0.6752298666399994,-0.008086777723077821,0.017672228743113184,-0.933278038897371
12917,6.0,300.02094,7041.3879,0.0,0.0,0.0,0.0,0.0,-0.1287412793942136,-0.5296653642889014,-0.8813332962933242,-0.7294074274294082,-0.027604038335556476,-0.01039658842656339,-0.8976362472223002
12918,6.0,300.46148,7260.4271,0.0,0.0,0.0,0.0,0.0,-0.1287512462037974,-0.5477946275956205,-0.9206613627597022,-0.7385325450474873,-0.04421788783246575,-0.01098132391352229,-0.9284135872872872
12919,6.0,300.34481,7316.3148,0.0,0.0,0.0,0.0,0.0,-0.12876121301338117,-0.5699232498420455,-0.8845146381622981,-0.7695391329475992,-0.027118227469110676,0.01874810884504428,-0.8757267099124971
12920,6.0,299.56266,7197.4235,0.0,0.0,0.0,0.0,0.0,-0.12877117982296504,-0.5442610293293815,-0.9123599262804141,-0.7312160788579083,0.005407929782121115,0.01744458893589688,-0.9380159862324702
12921,6.0,299.83209,6884.6034,0.0,0.0,0.0,0.0,0.0,-0.1287811466325488,-0.5023830683238485,-0.877453460335414,-0.7129109963938373,0.021950389527334777,-0.005001884699322585,-0.8857346014151992
12922,6.0,300.60146000000003,6767.8045,0.0,0.0,0.0,0.0,0.0,-0.12879111344213268,-0.4860344704778675,-0.8778878102557811,-0.6933212850554833,0.03514549974959077,-0.013614456948392287,-0.9580162563788431
12923,6.0,300.92568,7196.5056,0.0,0.0,0.0,0.0,0.0,-0.1288010802517165,-0.5581785260779315,-0.9004635797713362,-0.7289158998058983,0.035495275710610966,-0.017593399911833382,-0.8764049389994332
12924,6.0,301.08691,7118.5822,0.0,0.0,0.0,0.0,0.0,-0.1288110470613003,-0.5288971687255865,-0.8986338932707602,-0.7363401758061172,0.018828014761180383,-0.0066824521959316825,-0.9407608300908652
12925,6.0,300.95318,6732.661,0.0,0.0,0.0,0.0,0.0,-0.12882101387088413,-0.48870119275355256,-0.8649093430374062,-0.6929502936638693,-0.00985074857119319,-0.0017098876107777684,-0.8926647862691551
12926,6.0,301.12176,6910.5001,0.0,0.0,0.0,0.0,0.0,-0.12883098068046794,-0.48437651973674056,-0.9043174461291832,-0.7119254992140763,-0.025411573848677076,0.009993716640428042,-0.9324546819986121
12927,6.0,300.81551,7292.8314,0.0,0.0,0.0,0.0,0.0,-0.12884094749005176,-0.5703340214325855,-0.9087318931048551,-0.7377727391950003,-0.02705723082634077,0.03343145852267807,-0.89651387008653
12928,6.0,298.98624,7240.0954,0.0,0.0,0.0,0.0,0.0,-0.12885091429963558,-0.5635109573792014,-0.9150269423986281,-0.7222702963750284,-0.027374676003170176,0.02502025058055648,-0.9366738756800141
12929,6.0,299.95329,7123.3731,0.0,0.0,0.0,0.0,0.0,-0.1288608811092194,-0.5240494762721565,-0.9297565185723241,-0.7115215569292103,0.01333564902437609,-0.005158414715845896,-0.9400301045162481
12930,6.0,299.49917999999997,6839.5616,0.0,0.0,0.0,0.0,0.0,-0.12887084791880327,-0.5076981730484086,-0.8675570871387182,-0.7038006924922203,0.01035742327044809,-0.04120828881569146,-0.9074566266614962
12931,6.0,299.58094,6835.2566,0.0,0.0,0.0,0.0,0.0,-0.12888081472838703,-0.49137815898774856,-0.8915270381293682,-0.6948421329255794,0.033056582330180675,-0.040635827840443964,-0.9330553974528981
12932,6.0,299.67495,7052.8565,0.0,0.0,0.0,0.0,0.0,-0.1288907815379709,-0.5072263227418405,-0.9056071817839701,-0.7310587616473823,0.04566533485206766,-0.03115281914129387,-0.8984208574372351
12933,6.0,300.28067000000004,7228.9433,0.0,0.0,0.0,0.0,0.0,-0.12890074834755466,-0.5381854702722705,-0.9179491759520302,-0.7412836001289953,0.04224573228832916,-0.008507349671235042,-0.9344799561659912
12934,6.0,299.95667000000003,6958.4932,0.0,0.0,0.0,0.0,0.0,-0.12891071515713848,-0.5091054963773005,-0.8950946309364621,-0.7110080519110312,0.02690545102761127,-0.016325866593237585,-0.9071990280885732
12935,6.0,300.97075,6786.4018,0.0,0.0,0.0,0.0,0.0,-0.12892068196672235,-0.5088478674068745,-0.8605839911430271,-0.6934648321971504,0.009222279690043142,0.01195508563062509,-0.9208151741248822
12936,6.0,299.8524,7125.1051,0.0,0.0,0.0,0.0,0.0,-0.12893064877630617,-0.5278998367846575,-0.894668599799416,-0.7432856100740783,-0.00891992251647781,0.023265923542917875,-0.90011435299187
12937,6.0,300.33985,7244.6423,0.0,0.0,0.0,0.0,0.0,-0.12894061558588998,-0.5493587311124855,-0.8835301947626412,-0.7693014447391413,-0.012695319544180487,0.017853063488460184,-0.9166378175401092
12938,6.0,299.89606000000003,7066.194,0.0,0.0,0.0,0.0,0.0,-0.1289505823954738,-0.48645819140468555,-0.9001427543921731,-0.7613455873389593,-0.015854241228191783,0.0027967649213442073,-0.8997599687693951
12939,6.0,299.05683,6930.1144,0.0,0.0,0.0,0.0,0.0,-0.12896054920505756,-0.5354077059181266,-0.8697189676845792,-0.7014550590407244,-0.016290658178762785,0.018142720281297084,-0.913986020438397
12940,6.0,299.16679,7000.1057,0.0,0.0,0.0,0.0,0.0,-0.12897051601464143,-0.4982383079947925,-0.9038039816410081,-0.7258150403923673,-0.027706859915954174,-0.005693321805287115,-0.933465419238364
12941,6.0,299.44482999999997,6940.7208,0.0,0.0,0.0,0.0,0.0,-0.12898048282422525,-0.5325209766482285,-0.8876544266446711,-0.6896304101087224,-0.020803947701689782,-0.014722978902294884,-0.9453708039383342
12942,6.0,300.02536000000003,7049.6837,0.0,0.0,0.0,0.0,0.0,-0.12899044963380907,-0.5131985201562506,-0.9016509062385161,-0.7280783878032423,-0.011286265584117688,-0.01814520477054228,-0.9108733363961992
12943,6.0,300.96772000000004,6864.7705,0.0,0.0,0.0,0.0,0.0,-0.12900041644339288,-0.5034851905901195,-0.8607663356310231,-0.7224672924594704,0.027220499867954173,0.02012789304946838,-0.8995475307534292
12944,6.0,300.74418,6761.0662,0.0,0.0,0.0,0.0,0.0,-0.1290103832529767,-0.46076516808898155,-0.8755524916903031,-0.7188776411976994,0.036442421374086965,0.02042882528941808,-0.9190525951784292
12945,6.0,300.74861,7009.9391,0.0,0.0,0.0,0.0,0.0,-0.12902035006256057,-0.49892144121221255,-0.8986625277185862,-0.7332624792898723,0.03369690471762557,0.016135964272745686,-0.938936686068336
12946,6.0,299.75327000000004,7240.1455,0.0,0.0,0.0,0.0,0.0,-0.12903031687214433,-0.5251285369661515,-0.9313018465648362,-0.7443930620358753,0.018202192995916584,-0.011269437526456889,-0.9280898032178321
12947,6.0,298.83479,7112.6286,0.0,0.0,0.0,0.0,0.0,-0.1290402836817282,-0.5199947229494836,-0.9066709018714513,-0.7353958571104202,0.023129490430202976,-0.021142262790828877,-0.9230173820247232
12948,6.0,298.51041000000004,6859.4067,0.0,0.0,0.0,0.0,0.0,-0.12905025049131202,-0.5067534287876695,-0.8779494259943621,-0.7003855026326674,6.973804156185883e-05,-0.008600596139512752,-0.9074108682869801
12949,6.0,298.40074,6862.4361,0.0,0.0,0.0,0.0,0.0,-0.12906021730089579,-0.46762849870133955,-0.8864101960518751,-0.7319705347498673,-0.026643218861980976,0.0011817694996565688,-0.9297128880230181
12950,6.0,299.76887999999997,6962.4556,0.0,0.0,0.0,0.0,0.0,-0.12907018411047966,-0.4979631700626385,-0.8818316937525121,-0.7366177962010163,-0.019007504923644683,0.01780678025039238,-0.8983625752914831
12951,6.0,300.23511,7120.7094,0.0,0.0,0.0,0.0,0.0,-0.12908015092006347,-0.5111300004746036,-0.9169364020795772,-0.7364514407995982,-0.020027069598267878,0.04769866131799136,-0.9164442057110012
12952,6.0,300.36607000000004,7117.4341,0.0,0.0,0.0,0.0,0.0,-0.1290901177296473,-0.5411575759955946,-0.8958900119999602,-0.7264746358099643,0.012188555678916788,0.012812581965003388,-0.9382965146551561
12953,6.0,300.96397,7047.6292,0.0,0.0,0.0,0.0,0.0,-0.1291000845392311,-0.5240957919342275,-0.8952710175138702,-0.7229364779182753,0.012327305081360289,-0.010613759333746491,-0.9252562391806811
12954,6.0,300.58887999999996,6986.7814,0.0,0.0,0.0,0.0,0.0,-0.12911005134881492,-0.5125774687724575,-0.9084789149523882,-0.7027507120760953,0.03136495723523027,-0.03887927165258536,-0.9270916606768231
12955,6.0,299.82327000000004,7304.4427,0.0,0.0,0.0,0.0,0.0,-0.12912001815839874,-0.5361079934597395,-0.9235131349011502,-0.7607470503723883,0.04517407270008386,-0.018252348875866582,-0.8832683101417951
12956,6.0,300.14518,7378.094,0.0,0.0,0.0,0.0,0.0,-0.12912998496798256,-0.5566478192843625,-0.9382378677393681,-0.7478706478365863,0.02931123201829337,-0.02138667188720018,-0.9405064029907552
12957,6.0,298.89153,6841.2043,0.0,0.0,0.0,0.0,0.0,-0.12913995177756643,-0.47511163439986753,-0.8925974456675092,-0.7118462123937513,0.006127452053032434,-0.009044351756583023,-0.928499662883282
12958,6.0,300.01724,6646.5211,0.0,0.0,0.0,0.0,0.0,-0.1291499185871502,-0.4710175365758115,-0.8682053848177002,-0.6811535395071203,-0.02536112412619808,-0.015937775592935986,-0.933239393538557
12959,6.0,299.54399,7004.3756,0.0,0.0,0.0,0.0,0.0,-0.129159885396734,-0.5292804812384165,-0.9021960246598151,-0.6976787873755353,-0.03406484116018806,0.03702778000985737,-0.8992382969554101
12960,6.0,299.16182000000003,7239.7739,0.0,0.0,0.0,0.0,0.0,-0.12916985220631783,-0.5377506238593545,-0.8961212356727801,-0.7668386187810793,-0.03248036726331267,0.01901499993463438,-0.9151675105850011
12961,6.0,299.7637,7169.5802,0.0,0.0,0.0,0.0,0.0,-0.12917981901590164,-0.5056113642024566,-0.9170730692530651,-0.7566889229268823,-0.013076368456287088,0.01640320594687038,-0.9180761767195641
12962,6.0,299.44354,6857.3652,0.0,0.0,0.0,0.0,0.0,-0.12918978582548551,-0.4876999800647406,-0.8755070474233181,-0.7212607649028954,0.0031035997484264474,-0.025364814383062272,-0.9139400391488591
12963,6.0,300.56939,6976.774,0.0,0.0,0.0,0.0,0.0,-0.12919975263506933,-0.5074547802418875,-0.9061705184420671,-0.7071397872692634,0.007191347027480692,0.002540054158158827,-0.9293613712983262
12964,6.0,301.8466,7362.3509,0.0,0.0,0.0,0.0,0.0,-0.12920971944465315,-0.5680785469749875,-0.9492677536904331,-0.7206245249001033,0.004192320566224826,-0.017709723049813584,-0.9386906588115551
12965,6.0,300.63367999999997,7203.6211,0.0,0.0,0.0,0.0,0.0,-0.12921968625423697,-0.5492895159981545,-0.9128981242035301,-0.7275333099119473,0.01072880678985079,-0.006163161519681684,-0.945504806264059
12966,6.0,300.2155,6743.6858,0.0,0.0,0.0,0.0,0.0,-0.12922965306382078,-0.47640571689758354,-0.8778147751885732,-0.6956916012794153,0.02120996512276058,-0.009097508275379163,-0.9032517704690092
12967,6.0,299.82684,6609.3932,0.0,0.0,0.0,0.0,0.0,-0.1292396198734046,-0.45476937207974255,-0.8741571247125912,-0.6801640095919614,-0.00016951064196439787,0.041885227022000066,-0.92404063290321
12968,6.0,298.83068,6976.4111,0.0,0.0,0.0,0.0,0.0,-0.12924958668298842,-0.5295158693691474,-0.8635122130045202,-0.7276266910411633,0.010356261072583391,0.005041167899074535,-0.8963108147664902
12969,6.0,300.17939,7290.1372,0.0,0.0,0.0,0.0,0.0,-0.12925955349257223,-0.5485104178637635,-0.9151274061460432,-0.7523818500643072,-0.021287805021942777,0.024232513475812876,-0.955974273717315
12970,6.0,299.66627,7084.4769,0.0,0.0,0.0,0.0,0.0,-0.12926952030215605,-0.5416420311334065,-0.8872200159292981,-0.7246420311491003,-0.00991295371735736,-0.017072712976945584,-0.9037573417389052
12971,6.0,299.25235,6891.3304,0.0,0.0,0.0,0.0,0.0,-0.12927948711173987,-0.5238074614857715,-0.8801577843223103,-0.6908271395368304,-0.018669200980256682,0.008812707888946553,-0.9281798000917142
12972,6.0,300.11464,7261.5644,0.0,0.0,0.0,0.0,0.0,-0.12928945392132374,-0.5286264181663655,-0.9271074268483791,-0.7516004214546863,-0.03417386383119776,-0.013191162599866385,-0.8927428369243582
12973,6.0,299.95928,7226.8214,0.0,0.0,0.0,0.0,0.0,-0.1292994207309075,-0.5505281433178975,-0.9061297959205481,-0.7401153126311942,-0.008942807884561423,-0.013964947250732985,-0.9171277948909662
12974,6.0,300.05388,7206.1763,0.0,0.0,0.0,0.0,0.0,-0.12930938754049132,-0.5259295111702015,-0.9145480500038651,-0.7500201059362213,-5.205200221988265e-06,-0.015289639020719885,-0.89139675443151
12975,6.0,301.16746,6934.1636,0.0,0.0,0.0,0.0,0.0,-0.1293193543500752,-0.5075947202131985,-0.898729787260224,-0.7014880605964813,0.01994398612981818,0.01235258364485509,-0.941145905658869
12976,6.0,299.41334,6681.1348,0.0,0.0,0.0,0.0,0.0,-0.12932932115965895,-0.4906325386366615,-0.8567191715515992,-0.6835464410757813,0.014380521646746986,0.0007877121483936362,-0.9238874092230881
12977,6.0,299.83406,6899.8839,0.0,0.0,0.0,0.0,0.0,-0.12933928796924282,-0.5099653505446615,-0.8895316649724402,-0.6978954202469153,-0.000964151212156816,0.018032508054669983,-0.959666658406725
12978,6.0,299.35329,7161.4273,0.0,0.0,0.0,0.0,0.0,-0.12934925477882664,-0.5466452980071905,-0.8678092040286002,-0.7624405864570273,0.021931023278173478,-0.009877960415878791,-0.8915505657966901
12979,6.0,299.56798,6954.8661,0.0,0.0,0.0,0.0,0.0,-0.1293592215884104,-0.5210361211372615,-0.8917748385738241,-0.7012946615498943,0.025563341488405375,-0.010006910676605191,-0.9174918049893912
12980,6.0,300.32372999999995,6917.7539,0.0,0.0,0.0,0.0,0.0,-0.12936918839799427,-0.48952993001034256,-0.8954622988677482,-0.7178322102745234,0.024549019369799578,-0.02613841158266037,-0.9049475255713672
12981,6.0,300.14027000000004,7079.2059,0.0,0.0,0.0,0.0,0.0,-0.1293791552075781,-0.5041659933323095,-0.9003701175821123,-0.7473657047817522,0.008337157395663373,-0.02186078275474128,-0.9652165635769582
12982,6.0,298.00969,7330.9304,0.0,0.0,0.0,0.0,0.0,-0.1293891220171619,-0.5596975095678435,-0.9256030037624041,-0.7431192648051613,0.005493859976726765,-0.014156589321646587,-0.9029682833560311
12983,6.0,299.36937,7285.4154,0.0,0.0,0.0,0.0,0.0,-0.12939908882674572,-0.5319618145805435,-0.9279646161679771,-0.7546579441614403,-0.027833988353000768,0.008864178460901304,-0.92709770977992
12984,6.0,299.40169,6910.8773,0.0,0.0,0.0,0.0,0.0,-0.12940905563632954,-0.5161131644664035,-0.8708552162142181,-0.7137657437806942,-0.015090928517108686,-0.014751743046133685,-0.8985509384850732
12985,6.0,299.80082999999996,6675.9857,0.0,0.0,0.0,0.0,0.0,-0.1294190224459134,-0.46183249534681853,-0.8762688493785021,-0.6912316087117484,-0.008080036063537473,0.03167587910791587,-0.932077317263869
12986,6.0,299.37677,6747.7848,0.0,0.0,0.0,0.0,0.0,-0.12942898925549717,-0.4775958703325425,-0.8561370087066442,-0.7174252079743553,0.002967268062046557,0.0010062225519439341,-0.9081292220778762
12987,6.0,299.58117999999996,7050.1084,0.0,0.0,0.0,0.0,0.0,-0.12943895606508105,-0.5016571658197075,-0.9118799395755433,-0.7295198171305003,0.019473699268154482,0.010299900049020991,-0.9269556419833991
12988,6.0,300.57677,7137.5659,0.0,0.0,0.0,0.0,0.0,-0.1294489228746648,-0.5536640713173895,-0.8880321156194462,-0.7279456216426393,0.009158275214351391,-0.0004765223926465985,-0.9298940064783932
12989,6.0,300.93005,6996.4765,0.0,0.0,0.0,0.0,0.0,-0.12945888968424862,-0.4912390802790225,-0.900357320233349,-0.7351577433369203,0.01307406027255929,0.02912250506791747,-0.9390045332950321
12990,6.0,300.45135,6978.721,0.0,0.0,0.0,0.0,0.0,-0.1294688564938325,-0.5237493617250375,-0.8703869629455052,-0.7272205905335843,0.0035135839423137364,0.005274668446194245,-0.9099605804411172
12991,6.0,299.74116000000004,7435.7352,0.0,0.0,0.0,0.0,0.0,-0.1294788233034163,-0.5630494219586515,-0.925991524380748,-0.7712368740201533,-0.006477587109888073,0.026422476248195374,-0.8953244259266411
12992,6.0,299.68889,7379.884,0.0,0.0,0.0,0.0,0.0,-0.12948879011300013,-0.5605079069978235,-0.93117877720769,-0.7516137659585033,-0.02704024166191408,-0.015785616838669084,-0.9256145446810431
12993,6.0,299.63646,6891.2103,0.0,0.0,0.0,0.0,0.0,-0.12949875692258395,-0.47374118324211456,-0.9057036431934901,-0.7153110413757032,-0.02376222154789868,-0.00988541205976421,-0.9400376430969921
12994,6.0,299.48349,6744.9701,0.0,0.0,0.0,0.0,0.0,-0.1295087237321677,-0.49716087863345854,-0.8735011871278551,-0.6796404126027863,-0.034883301021213765,-0.012259111323130088,-0.930005281604375
12995,6.0,298.34477000000004,6925.0209,0.0,0.0,0.0,0.0,0.0,-0.12951869054175158,-0.4898126065232405,-0.9034191796505312,-0.7118016496543533,-0.015597812959134287,-0.01121423971400929,-0.9226878629597022
12996,6.0,299.65856,6992.0448,0.0,0.0,0.0,0.0,0.0,-0.1295286573513354,-0.5428762913452184,-0.8819676516509302,-0.7005630747126923,-8.976863119097412e-05,0.0059280226484752846,-0.9107232537913872
12997,6.0,300.15145,6962.7084,0.0,0.0,0.0,0.0,0.0,-0.12953862416091927,-0.49171311920580657,-0.8943961672450292,-0.7303801981879133,0.03048756370863827,0.02103454113294758,-0.935977387826276
12998,6.0,300.89196,6910.0722,0.0,0.0,0.0,0.0,0.0,-0.12954859097050303,-0.5089144582034465,-0.880257700914671,-0.7113172249140443,0.03540001804220976,0.009759624253924922,-0.9147913820153801
12999,6.0,302.03702999999996,7268.6589,0.0,0.0,0.0,0.0,0.0,-0.12955855778008685,-0.5584344933181935,-0.926117400440671,-0.7249389032958993,0.018234332275838483,0.005281621368380445,-0.938423495157688
13000,6.0,300.74282999999997,7543.168000000001,0.0,0.0,0.0,0.0,0.0,-0.12956852458967066,-0.5892795894173674,-0.9319975542159971,-0.7716575653291723,-0.012720307304896589,-0.00950834501790059,-0.9134472854927281
13001,6.0,299.41722000000004,7319.9738,0.0,0.0,0.0,0.0,0.0,-0.12957849139925448,-0.5332044746356845,-0.9271332849909311,-0.7647514958275963,-0.024119177399127476,0.003287624509063277,-0.945272052583588
13002,6.0,299.77282,6797.8961,0.0,0.0,0.0,0.0,0.0,-0.12958845820883835,-0.48663269333690756,-0.8670644550725992,-0.7126935123923733,-0.01798365318784838,0.004254049484841996,-0.8796154523387861
13003,6.0,299.26273,6618.9679,0.0,0.0,0.0,0.0,0.0,-0.12959842501842217,-0.47068896996588455,-0.8567105386607472,-0.6846014472124023,-0.003222122551048737,-0.01092658105036959,-0.910365424518572
13004,6.0,299.91801,7005.2606,0.0,0.0,0.0,0.0,0.0,-0.12960839182800593,-0.5355140363836205,-0.8819473157214233,-0.7119629388052714,-0.007519500940641963,-0.015848149568590587,-0.8903873749468921
13005,6.0,299.49977,7024.0389,0.0,0.0,0.0,0.0,0.0,-0.1296183586375898,-0.5294767376502855,-0.900865404363493,-0.7047902832023853,0.005958738109356665,-0.0014799346549081785,-0.9311382168061871
13006,6.0,298.85733,6892.2684,0.0,0.0,0.0,0.0,0.0,-0.12962832544717356,-0.4809570032992605,-0.8888806923131941,-0.7252397777805933,0.027047172292598076,-0.002004597076563328,-0.893030488495247
13007,6.0,299.29396,7091.2404,0.0,0.0,0.0,0.0,0.0,-0.12963829225675744,-0.5209272474140165,-0.8936965585809832,-0.7409362073322102,0.009538693276945731,-0.003070119837297237,-0.9082195431917901
13008,6.0,301.09197,7438.4117,0.0,0.0,0.0,0.0,0.0,-0.12964825906634125,-0.5681123287333214,-0.927566986431234,-0.7654121044952933,-0.005194731929905125,0.0013106799396540387,-0.8778207229666602
13009,6.0,300.65922,7371.433000000001,0.0,0.0,0.0,0.0,0.0,-0.12965822587592507,-0.5609661493555484,-0.9239203398513381,-0.7558450679786003,-0.016106831305870484,-0.001137225302735399,-0.955416803777297
13010,6.0,301.16168,7200.0323,0.0,0.0,0.0,0.0,0.0,-0.1296681926855089,-0.5553162364004455,-0.8995271036314132,-0.7337867044941093,0.012521789318804388,9.724448466103341e-06,-0.9109635055225981
13011,6.0,299.58443,6902.7489,0.0,0.0,0.0,0.0,0.0,-0.1296781594950927,-0.5319251146619215,-0.8641360102960842,-0.7022021992669614,-0.007187541158780082,-0.030423741111339473,-0.9426829351330621
13012,6.0,300.74192999999997,6898.8262,0.0,0.0,0.0,0.0,0.0,-0.12968812630467658,-0.48415322981220354,-0.8724202316561731,-0.7404974396414074,0.002264595633673188,-0.013929765180760787,-0.8953740751815412
13013,6.0,299.93132,6847.0517,0.0,0.0,0.0,0.0,0.0,-0.12969809311426034,-0.49944730788161146,-0.878271021443601,-0.7036144165938364,-0.00949611103619319,-0.01139546456064479,-0.935188390238408
13014,6.0,300.27792999999997,6902.1914,0.0,0.0,0.0,0.0,0.0,-0.12970805992384415,-0.4930550068432405,-0.8795309168829433,-0.7255079242870572,0.0033224743343276872,0.0010285539255353688,-0.8790055061760892
13015,6.0,299.93646,6973.5903,0.0,0.0,0.0,0.0,0.0,-0.12971802673342803,-0.5179316646858755,-0.9127166815081232,-0.6891489845887093,-0.001274734689706519,-0.014744736421692184,-0.9230680546622241
13016,6.0,299.10787,7188.7964,0.0,0.0,0.0,0.0,0.0,-0.1297279935430118,-0.5606742623992415,-0.9100574471506772,-0.7144828715389693,-0.01992297841549488,0.01143976081526649,-0.9014572133494001
13017,6.0,299.22279,7466.7768,0.0,0.0,0.0,0.0,0.0,-0.12973796035259566,-0.5712255903280765,-0.9539802887130241,-0.7445078126097002,0.0039993133434514955,0.029278637789076575,-0.9301250072361911
13018,6.0,300.00729,7462.9743,0.0,0.0,0.0,0.0,0.0,-0.12974792716217948,-0.5654563975712015,-0.933061527616003,-0.7700399216770233,-0.011598741782456689,0.03496489602526657,-0.8983041918207212
13019,6.0,299.42452000000003,7041.6785,0.0,0.0,0.0,0.0,0.0,-0.12975789397176324,-0.5142678840467885,-0.8985022518177682,-0.7277243075557973,0.027927280316207972,-0.014066810296536086,-0.8963413845220072
13020,6.0,299.3028,6892.5165,0.0,0.0,0.0,0.0,0.0,-0.1297678607813471,-0.5234740110103625,-0.8602213995947422,-0.7114575195228903,0.004740315503232715,0.001963395085097008,-0.9017051556488701
13021,6.0,300.23328,6989.6162,0.0,0.0,0.0,0.0,0.0,-0.12977782759093093,-0.5040533807161955,-0.8851508477675871,-0.7354645655997013,0.050266977757214455,0.012972530586039087,-0.9292358093459342
13022,6.0,299.88223,6917.9147,0.0,0.0,0.0,0.0,0.0,-0.12978779440051474,-0.5506231152497705,-0.8752889656042951,-0.6769612476158734,-0.005117159934049365,0.02211003923959098,-0.923718692948937
13023,6.0,300.02954,7017.4942,0.0,0.0,0.0,0.0,0.0,-0.12979776121009856,-0.48469976678364257,-0.9128689020706462,-0.7355743411155353,-0.014026569068814589,-0.013875052715111089,-0.9323799041412321
13024,6.0,300.10457,7029.318,0.0,0.0,0.0,0.0,0.0,-0.12980772801968232,-0.5301131195080915,-0.9013220356535592,-0.7053020049003883,-0.036262229029303365,-0.0095742418394791,-0.9238505066544461
13025,6.0,300.02722,7164.1043,0.0,0.0,0.0,0.0,0.0,-0.12981769482926625,-0.4871457626575435,-0.9259408010807422,-0.7646222456448403,-0.004350551930991046,0.005073951504735025,-0.9247241916856722
13026,6.0,299.5273,7291.4805,0.0,0.0,0.0,0.0,0.0,-0.12982766163885,-0.5517814424990886,-0.9213076744684882,-0.7433388867643362,-0.03555083018709376,0.013572163889218287,-0.898411140368776
13027,6.0,299.22854,7271.0674,0.0,0.0,0.0,0.0,0.0,-0.12983762844843388,-0.5100743053279145,-0.9520660059615991,-0.7480826298900073,-0.0034719959025593166,-0.029217964373088573,-0.8946851664385511
13028,6.0,300.5402,7029.4751,0.0,0.0,0.0,0.0,0.0,-0.12984759525801765,-0.5684600863001424,-0.8910763951473932,-0.6772484330917163,0.010109313278086542,0.002335917700262128,-0.926978460375651
13029,6.0,300.63705,7018.335,0.0,0.0,0.0,0.0,0.0,-0.12985756206760146,-0.49214818853374454,-0.9019771018432091,-0.7392732916655933,0.03837098385917126,0.008497382330001342,-0.9409288776199501
13030,6.0,301.53675,6953.633000000001,0.0,0.0,0.0,0.0,0.0,-0.12986752887718533,-0.5351793396105885,-0.8730486493681932,-0.7055028108052064,0.017503252063686484,0.005447461329472574,-0.9423207488848171
13031,6.0,300.55848,6862.2674,0.0,0.0,0.0,0.0,0.0,-0.12987749568676915,-0.4699698967674175,-0.8599697386674051,-0.7560183033481973,-0.005496405463627984,-0.024549044701052077,-0.8960277025560491
13032,6.0,301.20358,7018.3683,0.0,0.0,0.0,0.0,0.0,-0.12988746249635297,-0.5260956132590945,-0.8895082892926331,-0.7178048221243203,-0.008927770442477341,-0.016820331628787485,-0.9467199059164801
13033,6.0,300.28296,7120.1872,0.0,0.0,0.0,0.0,0.0,-0.12989742930593678,-0.5084200022871475,-0.9097520231730342,-0.7461870821329313,0.004924633093148445,-0.015105511212547886,-0.9313420523288041
13034,6.0,300.60267000000005,6966.59,0.0,0.0,0.0,0.0,0.0,-0.12990739611552055,-0.5398472916287795,-0.8927058330307062,-0.6851162593232104,-0.008113139754904552,-0.0031590778258517075,-0.9557206977472891
13035,6.0,299.31975,7021.6293,0.0,0.0,0.0,0.0,0.0,-0.12991736292510442,-0.4946997650680655,-0.9167666725553261,-0.7229335496254864,-0.005616006870981724,-0.01014348665758419,-0.9295279394822651
13036,6.0,299.25967,7129.2995,0.0,0.0,0.0,0.0,0.0,-0.12992732973468823,-0.5646684031009325,-0.8973501864540682,-0.7051104195714804,-0.013972073438686287,0.020607051929007678,-0.9078905712818232
13037,6.0,298.59756,7051.5826,0.0,0.0,0.0,0.0,0.0,-0.12993729654427205,-0.4933137301237745,-0.9139418629990391,-0.7362494291271613,0.011073613772380591,0.02604425329061768,-0.9235481832221091
13038,6.0,299.97328,6939.8672,0.0,0.0,0.0,0.0,0.0,-0.12994726335385587,-0.5101237114027904,-0.8690929513752961,-0.7303296775379273,0.004176474043935896,0.014542768319009485,-0.8769129015395651
13039,6.0,299.84614,6997.8826,0.0,0.0,0.0,0.0,0.0,-0.12995723016343969,-0.5050419480437596,-0.8853798422901872,-0.7367597829375293,-0.02101484355100358,0.005133419153104025,-0.8971965980039103
13040,6.0,299.84689,7131.5605,0.0,0.0,0.0,0.0,0.0,-0.1299671969730235,-0.5355748516546225,-0.908198305469694,-0.7240431496774953,-0.006967713408509774,0.0015373677984013888,-0.9200121734206321
13041,6.0,299.70322000000004,7020.8167,0.0,0.0,0.0,0.0,0.0,-0.12997716378260732,-0.5110407432732945,-0.8986689415917191,-0.7244432922744863,-0.006687592413688983,-0.0031087191945566974,-0.9817816625718061
13042,6.0,300.23524,7059.0435,0.0,0.0,0.0,0.0,0.0,-0.1299871305921912,-0.5522917861769555,-0.8832164925316812,-0.7102646708426653,0.0032131065503339267,-0.003444965632291637,-0.9164321682998132
13043,6.0,300.36735,7224.4247,0.0,0.0,0.0,0.0,0.0,-0.129997097401775,-0.5293920299419256,-0.910180627965334,-0.7564720570079794,-0.0012442683870247289,-0.030769228997936472,-0.9189926310375112
13044,6.0,300.17405,7233.4883,0.0,0.0,0.0,0.0,0.0,-0.13000706421135877,-0.5373464079969615,-0.9009385610207132,-0.7605148539794723,0.005009493092998475,-0.008069775183749803,-0.9007918120087303
13045,6.0,299.34067999999996,7059.7197,0.0,0.0,0.0,0.0,0.0,-0.13001703102094264,-0.5231396790073666,-0.8910268877475072,-0.7318119509767163,0.0006270784385678234,-0.005812339681908265,-0.9256761604196241
13046,6.0,300.42593,7112.9809,0.0,0.0,0.0,0.0,0.0,-0.1300269978305264,-0.5246872564151005,-0.914847678190936,-0.7226336478608882,0.005470013540923305,0.005923059749485485,-0.9012839577148012
13047,6.0,299.3583,7096.2154,0.0,0.0,0.0,0.0,0.0,-0.13003696464011028,-0.5179098494112225,-0.9149029915138952,-0.7242594583088433,-0.02730275652432227,-0.005138265224357295,-0.9148777919839082
13048,6.0,299.80761,7315.2545,0.0,0.0,0.0,0.0,0.0,-0.1300469314496941,-0.5551479254263345,-0.9461145801742392,-0.7223922004945593,-0.023133987234146777,0.024222197576544775,-0.9358288453616161
13049,6.0,298.59632,7052.3714,0.0,0.0,0.0,0.0,0.0,-0.1300568982592779,-0.5016953248184735,-0.8957286417890342,-0.7463208412786323,-0.020091097885336983,0.029203888302699373,-0.951651009118142
13050,6.0,298.53873,6749.7656,0.0,0.0,0.0,0.0,0.0,-0.13006686506886173,-0.46933926003767856,-0.8798951802938931,-0.7025257705538954,0.0013219947008707188,0.02263413778756548,-0.9274213621268621
13051,6.0,300.48508,6739.3165,0.0,0.0,0.0,0.0,0.0,-0.13007683187844554,-0.4634664219280745,-0.8629331000423661,-0.7221844335615543,0.02675240973250727,-0.00985756916291633,-0.9181730636941262
13052,6.0,301.07608,7082.1756,0.0,0.0,0.0,0.0,0.0,-0.13008679868802941,-0.5155237062207285,-0.8943536310058311,-0.7429271931162054,0.0019417188283577282,-0.008857665694558542,-0.9275239233019842
13053,6.0,299.97205,7116.6941,0.0,0.0,0.0,0.0,0.0,-0.13009676549761318,-0.5298035006750345,-0.9050362153526201,-0.7284575865206664,0.02572299728016218,0.0014183777861579885,-0.9643349245324471
13054,6.0,299.99131,7005.2611,0.0,0.0,0.0,0.0,0.0,-0.130106732307197,-0.5409140615990615,-0.8885292262510072,-0.6999811753127633,0.005858715328385184,-0.013301385972244588,-0.914466037540771
13055,6.0,300.05929,7049.5147,0.0,0.0,0.0,0.0,0.0,-0.1301166991167808,-0.5005666351345806,-0.9267241447330521,-0.7155856726828074,0.003327317771130697,-0.0026917047675005775,-0.927152415152819
13056,6.0,300.06788,7221.4955,0.0,0.0,0.0,0.0,0.0,-0.13012666592636463,-0.5505002890726485,-0.9231709907398832,-0.7214830415773323,-0.013075851698736088,-0.003663625814471716,-0.9146583118797471
13057,6.0,300.14479,7271.6073,0.0,0.0,0.0,0.0,0.0,-0.1301366327359485,-0.5066459837470656,-0.945567009687698,-0.7581740638634543,-0.003155071029656267,0.013021150378837486,-0.9192680324146911
13058,6.0,299.38063999999997,7032.2156,0.0,0.0,0.0,0.0,0.0,-0.13014659954553232,-0.5285025990041455,-0.8999649999271302,-0.7091503389126893,-0.0070163320867330636,0.005484345862262795,-0.9179387800060042
13059,6.0,299.67245,7003.5924,0.0,0.0,0.0,0.0,0.0,-0.13015656635511608,-0.5169208565186165,-0.8865294049261402,-0.7254669484530133,0.001246963632290729,0.009408328113779691,-0.8770080862539592
13060,6.0,299.36216,7134.6115,0.0,0.0,0.0,0.0,0.0,-0.13016653316469995,-0.5484322253535464,-0.9164861745301431,-0.7038253549996544,-0.008429899366716292,0.0002072951434934378,-0.944946343338943
13061,6.0,299.22327,7255.5809,0.0,0.0,0.0,0.0,0.0,-0.13017649997428377,-0.5121184867421594,-0.8972778099994252,-0.7961191148708392,-0.0005749827419638785,0.011743998277042388,-0.9136665325493661
13062,6.0,300.02752999999996,7122.8564,0.0,0.0,0.0,0.0,0.0,-0.13018646678386758,-0.5606371267830765,-0.8685280239145421,-0.7360053473105723,-0.012049684686461289,-0.013344769288526187,-0.9323257661883891
13063,6.0,300.62178,6897.1513,0.0,0.0,0.0,0.0,0.0,-0.1301964335934514,-0.4715067235915905,-0.870363212363161,-0.7546918475097862,-0.015685054805994386,-0.005429060910306594,-0.8878058366071141
13064,6.0,300.699,6902.0939,0.0,0.0,0.0,0.0,0.0,-0.13020640040303522,-0.5230986322458155,-0.8813937062642861,-0.6935718719377143,-0.007902300343621322,-0.04718298085184766,-0.9570096126694951
13065,6.0,301.36107000000004,7210.5474,0.0,0.0,0.0,0.0,0.0,-0.13021636721261903,-0.5321031528369925,-0.9136803228832271,-0.7460428763786993,0.003341136070694457,-0.012765583372364988,-0.9105756840468231
13066,6.0,300.529,7119.4468,0.0,0.0,0.0,0.0,0.0,-0.13022633402220285,-0.5372457010695225,-0.9343721767528541,-0.6925161767910254,0.001964769457532648,-0.01089064816207329,-0.9620020580322111
13067,6.0,300.09598,7009.9452,0.0,0.0,0.0,0.0,0.0,-0.13023630083178667,-0.4805235957014865,-0.918532331782083,-0.7317923648522833,0.02052964468761818,0.012636524693877887,-0.9127965762785081
13068,6.0,299.30047,7019.7767,0.0,0.0,0.0,0.0,0.0,-0.13024626764137048,-0.5102624861364865,-0.912568909113539,-0.7110054478582744,-0.007906446259055493,-0.00100467304936101,-0.961176502380735
13069,6.0,298.91718,7057.1043,0.0,0.0,0.0,0.0,0.0,-0.1302562344509543,-0.48110605238897053,-0.9057978754527901,-0.7582795533313652,0.01052612434584759,0.01137802449992359,-0.9366967649997731
13070,6.0,298.58166,6902.3818,0.0,0.0,0.0,0.0,0.0,-0.13026620126053817,-0.5170556491794195,-0.8696715273148972,-0.7114245584971374,0.003131574063812297,-0.006840092126614534,-0.932132194889285
13071,6.0,299.83881,6936.3935,0.0,0.0,0.0,0.0,0.0,-0.130276168070122,-0.5090587247526845,-0.8774497113100441,-0.7219819861915744,3.988663679600456e-06,0.013423799756575885,-0.8978034841513052
13072,6.0,299.24482,6876.8812,0.0,0.0,0.0,0.0,0.0,-0.1302861348797058,-0.5036056356295066,-0.8716404850417181,-0.7151540484052092,-0.026668295788705873,-0.016476169073321285,-0.9452110853250711
13073,6.0,300.43309,7066.7161,0.0,0.0,0.0,0.0,0.0,-0.13029610168928957,-0.4908268496083385,-0.9131096604269071,-0.7441687183312342,-0.012433173504808687,0.014773148967746287,-0.9503849835156951
13074,6.0,300.20283,7160.0437,0.0,0.0,0.0,0.0,0.0,-0.13030606849887338,-0.5403448987528896,-0.9041400868316791,-0.7319895129242403,-0.0014842345843575485,0.017327912173631783,-0.948062472431481
13075,6.0,300.40846,7367.9143,0.0,0.0,0.0,0.0,0.0,-0.13031603530845726,-0.5249662244326324,-0.939172276849087,-0.7755234589657063,-0.003497724247773507,0.014209459698614486,-0.9128803619292771
13076,6.0,300.07244,7351.4573,0.0,0.0,0.0,0.0,0.0,-0.13032600211804107,-0.5795234500345114,-0.9280882529451792,-0.7270477401990253,0.0017922903778102882,-0.019548721318808582,-0.922565269830103
13077,6.0,300.51641,7282.2929,0.0,0.0,0.0,0.0,0.0,-0.1303359689276249,-0.5590726483636745,-0.9169555322414651,-0.7376070221411453,-0.027083440566677476,-0.006007887224007305,-0.9048178396910682
13078,6.0,299.6138,7213.6014,0.0,0.0,0.0,0.0,0.0,-0.1303459357372087,-0.5361621010150796,-0.9225304646891681,-0.7340621261362913,0.019953626191269582,-0.013143180141380887,-0.9097121213840962
13079,6.0,300.30966,7021.3646,0.0,0.0,0.0,0.0,0.0,-0.13035590254679252,-0.5234345854489716,-0.8702432131538183,-0.7406417061906453,-0.003610491587177777,0.013082482407390487,-0.8918169695129822
13080,6.0,299.75943,7028.3891,0.0,0.0,0.0,0.0,0.0,-0.13036586935637634,-0.5007554441582145,-0.9060984358299531,-0.7296009075360034,0.004757561729209785,0.0034712081006065673,-0.9313530866223931
13081,6.0,300.52706,7039.2979,0.0,0.0,0.0,0.0,0.0,-0.13037583616596016,-0.5099106451717625,-0.9029967962138451,-0.7268633388133263,-0.02099738626503068,0.016138189369965285,-0.9446238359646141
13082,6.0,300.82847999999996,7053.1764,0.0,0.0,0.0,0.0,0.0,-0.13038580297554403,-0.5203216480942485,-0.8936681875781831,-0.7299996822453593,-0.0028889495035171174,0.011895833804527389,-0.9291860891635272
13083,6.0,300.75043,7108.1373,0.0,0.0,0.0,0.0,0.0,-0.1303957697851278,-0.5071279462896315,-0.9163013577119031,-0.7372669551425832,-0.006908928184083123,0.016542786214395883,-0.9091523716313531
13084,6.0,300.51808,7324.4205,0.0,0.0,0.0,0.0,0.0,-0.1304057365947116,-0.5233283664409885,-0.9442432389620521,-0.7588693358170723,-0.004389468030231766,-0.014600774860734286,-0.9318166789406462
13085,6.0,300.35461000000004,7177.3528,0.0,0.0,0.0,0.0,0.0,-0.13041570340429548,-0.5512357971877375,-0.920470983198413,-0.7100292523144313,-0.021457796977969682,-0.005959306643987775,-0.9429348595054252
13086,6.0,299.92375,6936.9016,0.0,0.0,0.0,0.0,0.0,-0.13042567021387924,-0.5125888779685835,-0.9107610176226142,-0.6852949662433473,-0.013826219126541587,-0.0026012875974770976,-0.9441795156632631
13087,6.0,300.45814,6943.5972,0.0,0.0,0.0,0.0,0.0,-0.1304356370234631,-0.5179145103616826,-0.88944898376428,-0.7033166831844524,0.01190562889324409,0.004815979751800196,-0.9223865223799622
13088,6.0,299.83671,7104.8721,0.0,0.0,0.0,0.0,0.0,-0.13044560383304693,-0.5517322188092305,-0.9090482500510771,-0.6989232307508523,0.012905599337433488,-0.0024302876602507175,-0.9346158634019042
13089,6.0,299.75237000000004,7092.507,0.0,0.0,0.0,0.0,0.0,-0.13045557064263075,-0.5036837369472145,-0.9008197878439911,-0.7514414931765013,-0.006875870696920604,-0.005812318302331155,-0.9011815687921961
13090,6.0,299.76907,6967.1188,0.0,0.0,0.0,0.0,0.0,-0.13046553745221456,-0.5028700363219085,-0.8977682838428311,-0.7171918362113233,-0.006818268543310714,-0.013032894960746588,-0.9299175645432182
13091,6.0,299.22398,6948.1727,0.0,0.0,0.0,0.0,0.0,-0.13047550426179833,-0.5155634458896505,-0.8905886570792573,-0.7059189120912723,-0.01184392398865429,8.814896407837541e-06,-0.8973743626014542
13092,6.0,299.35695,7173.3185,0.0,0.0,0.0,0.0,0.0,-0.13048547107138225,-0.5333174621543355,-0.9206409457701871,-0.7265513185775323,0.00968989035554272,-0.01642795458056288,-0.970114351115332
13093,6.0,300.732,7375.2234,0.0,0.0,0.0,0.0,0.0,-0.13049543788096601,-0.5652500593208375,-0.9214392449939731,-0.7551944600893903,-0.005623534508624645,-0.006177819499603313,-0.9323475004030342
13094,6.0,300.91222999999997,7063.418000000001,0.0,0.0,0.0,0.0,0.0,-0.13050540469054983,-0.5372454274919954,-0.8966765271250832,-0.7131807337029583,-0.005493807591696594,-0.0054282885097553645,-0.9401403461271282
13095,6.0,300.24467999999996,6908.4281,0.0,0.0,0.0,0.0,0.0,-0.13051537150013365,-0.4763126296108966,-0.8757876771710142,-0.7478893321684303,-0.003980297982799826,0.016544078108273384,-0.8862625959098082
13096,6.0,300.02083,7055.4855,0.0,0.0,0.0,0.0,0.0,-0.13052533830971746,-0.5236158254943586,-0.8906255596478992,-0.7304500415173063,0.007908889103721582,-0.02026932148517628,-0.9201586792525912
13097,6.0,300.54985,7294.1867,0.0,0.0,0.0,0.0,0.0,-0.13053530511930134,-0.5475683789807915,-0.9171854690866581,-0.7524967931556513,0.008717454577520782,-0.003314191724035257,-0.8998448487302722
13098,6.0,299.64612,7117.0514,0.0,0.0,0.0,0.0,0.0,-0.13054527192888515,-0.5155557553213914,-0.927622998896762,-0.7202271586083864,-0.0016865761710271085,-0.017365535163094883,-0.9451659450331161
13099,6.0,299.45727999999997,6960.5183,0.0,0.0,0.0,0.0,0.0,-0.13055523873846892,-0.5089535291273025,-0.9146276711967231,-0.6922425587340214,0.014916943342437686,0.015306148917849286,-0.9046625489807422
13100,6.0,299.66708,7175.6653,0.0,0.0,0.0,0.0,0.0,-0.1305652055480528,-0.5309642698570934,-0.937701787508961,-0.7125570073389013,-0.020455428170793582,-0.005176205766401735,-0.9512131837499321
13101,6.0,299.78424,7373.4879,0.0,0.0,0.0,0.0,0.0,-0.13057517235763655,-0.5331871683239765,-0.932748321877592,-0.7754207154055662,0.011567067584330688,-0.0024263777307648375,-0.9072899470200461
13102,6.0,300.95162999999997,7236.2828,0.0,0.0,0.0,0.0,0.0,-0.13058513916722042,-0.5303749534664325,-0.919504899890568,-0.7497694177289803,-0.03473103790218657,-0.008789180525599582,-0.9310137998264082
13103,6.0,300.67491,7072.7197,0.0,0.0,0.0,0.0,0.0,-0.13059510597680424,-0.4909065619937055,-0.8967265208850171,-0.7622971001103662,-0.0005748774348809855,0.025598363464861773,-0.8895563984073811
13104,6.0,300.30065,6905.4107,0.0,0.0,0.0,0.0,0.0,-0.13060507278638805,-0.5206782209369395,-0.8640983072598631,-0.7142959066305173,-0.02843048868687077,-0.004872310985809656,-0.955511522396645
13105,6.0,300.83616,7087.5104,0.0,0.0,0.0,0.0,0.0,-0.13061503959597187,-0.5464532972457414,-0.8868395607817502,-0.7211333183053172,0.0009604657479655891,0.025790837414107474,-0.9208753409158201
13106,6.0,300.46205,7114.8486,0.0,0.0,0.0,0.0,0.0,-0.1306250064055557,-0.5614001142408774,-0.8782766956441611,-0.7230594966129162,-0.0047995912420327755,0.024440109169550975,-0.9450786839345042
13107,6.0,299.72107,6976.008000000001,0.0,0.0,0.0,0.0,0.0,-0.1306349732151395,-0.5025056310559446,-0.9048349332202552,-0.7131916869365393,0.004051852184986676,0.014026114119519685,-0.8970385411208112
13108,6.0,299.5956,6911.0474,0.0,0.0,0.0,0.0,0.0,-0.13064494002472332,-0.49753276168516053,-0.8968224351394831,-0.7064306540542774,-0.023104699240006275,-0.015205846277200185,-0.9097613349414531
13109,6.0,299.12869,7123.1643,0.0,0.0,0.0,0.0,0.0,-0.13065490683430714,-0.5050649690860315,-0.9241680693682871,-0.7360310332006074,-0.0048411132178806755,-0.025286313844814876,-0.9258441167562002
13110,6.0,299.73497000000003,7382.3673,0.0,0.0,0.0,0.0,0.0,-0.130664873643891,-0.5718721958793914,-0.9294866394081891,-0.7426964760684354,0.02618824119607818,-0.028006732296299273,-0.9210997555479681
13111,6.0,299.9671,7360.0978,0.0,0.0,0.0,0.0,0.0,-0.13067484045347477,-0.5659374177911745,-0.9216847149631991,-0.7496638168035582,0.022097177042821582,-0.025585070636799875,-0.921057695536317
13112,6.0,299.47447999999997,7074.1618,0.0,0.0,0.0,0.0,0.0,-0.13068480726305864,-0.5098079320091254,-0.8975362698349331,-0.7430243435357933,0.005010446763992595,-0.006023885429836204,-0.9284409653049891
13113,6.0,300.64416,6983.8287,0.0,0.0,0.0,0.0,0.0,-0.1306947740726424,-0.5323133414377365,-0.8562112596739723,-0.7343849273531493,-0.02002721044003178,-0.006167245424209734,-0.9399465519130021
13114,6.0,299.83049,7007.2142,0.0,0.0,0.0,0.0,0.0,-0.13070474088222622,-0.5134518225487495,-0.8643325808154843,-0.7522337331646893,0.003495333484162557,0.01254880459297059,-0.8985024848652913
13115,6.0,300.34016,7038.4501,0.0,0.0,0.0,0.0,0.0,-0.1307147076918101,-0.5149844545175085,-0.8884939144850221,-0.7360347112984703,0.0023202986526206478,0.012593137324595887,-0.9303144748723902
13116,6.0,299.45791,7079.9045,0.0,0.0,0.0,0.0,0.0,-0.1307246745013939,-0.5208552053319065,-0.9201884789380321,-0.7110704985146944,0.017050311030484683,0.011775859926436889,-0.9312216376869201
13117,6.0,299.4608,6986.5967,0.0,0.0,0.0,0.0,0.0,-0.13073464131097773,-0.5421706133130735,-0.9047888607382082,-0.6767914471641154,-0.004256563054365066,0.010660309056590591,-0.9591193311002081
13118,6.0,298.67749,7209.2726,0.0,0.0,0.0,0.0,0.0,-0.13074460812056155,-0.5441017464136615,-0.9498934964221892,-0.6974436120273254,-0.007357188711097994,0.015949513082094385,-0.9360113823671311
13119,6.0,299.82855,7287.3931,0.0,0.0,0.0,0.0,0.0,-0.1307545749301453,-0.5532483449338604,-0.9236675846138931,-0.7382696167790384,-0.016279040253116186,0.012926033552200188,-0.9275267198722601
13120,6.0,300.08889,7252.6344,0.0,0.0,0.0,0.0,0.0,-0.13076454173972918,-0.5138680150273245,-0.9362037580311172,-0.7545480065255903,-0.003257764028616277,0.005297044554777595,-0.896880838875247
13121,6.0,300.67859,7070.8875,0.0,0.0,0.0,0.0,0.0,-0.130774508549313,-0.5148531980995545,-0.9030754750841101,-0.7314445566229573,-0.015743918557303786,-0.021307374934374183,-0.9317109361602101
13122,6.0,300.37849,6846.58,0.0,0.0,0.0,0.0,0.0,-0.13078447535889687,-0.5281562093249595,-0.8222068497629982,-0.7308262916769394,0.003018966108648757,0.0007033730502875153,-0.8847156669821382
13123,6.0,300.78739,6881.2508,0.0,0.0,0.0,0.0,0.0,-0.13079444216848063,-0.49682077110489253,-0.8983904801992372,-0.6965171670633923,0.009478303368335711,-0.01017655508784779,-0.9252575057433061
13124,6.0,299.7465,7060.8494,0.0,0.0,0.0,0.0,0.0,-0.13080440897806445,-0.5205800370022495,-0.8737234030072861,-0.7520184681809443,0.01182604316413959,0.009466129168384211,-0.9189676949525502
13125,6.0,298.97652,7257.9954,0.0,0.0,0.0,0.0,0.0,-0.13081437578764832,-0.5570625425502925,-0.9238167046311101,-0.7253701324059584,-0.01931386919738048,0.002175640988844048,-0.964448489603655
13126,6.0,298.50052999999997,7223.9976,0.0,0.0,0.0,0.0,0.0,-0.13082434259723208,-0.5261000715595344,-0.9255941884865342,-0.7442206170013562,-0.018072895190405884,0.04746467552539875,-0.922922227707832
13127,6.0,299.20668,7124.3796,0.0,0.0,0.0,0.0,0.0,-0.13083430940681595,-0.5386850532340755,-0.9157819049156372,-0.7111665546241743,0.009768833278783782,-0.0019911295641841884,-0.90993923126151
13128,6.0,300.16161,7217.0661,0.0,0.0,0.0,0.0,0.0,-0.13084427621639977,-0.5346984815106315,-0.9249156148945642,-0.7341937979867863,-0.013381622207913287,-0.0029470403476502373,-0.9015553263565832
13129,6.0,300.93772,7306.0830000000005,0.0,0.0,0.0,0.0,0.0,-0.13085424302598353,-0.5486007187126755,-0.9113348110217431,-0.7609312795055703,0.01881026565917868,-0.032818941744477366,-0.8987557061977821
13130,6.0,301.52353,7160.923000000001,0.0,0.0,0.0,0.0,0.0,-0.1308642098355674,-0.5378689917360364,-0.8940592109242741,-0.7448135810923773,-0.01740937140217118,-0.013910545852863986,-0.9000565166761622
13131,6.0,301.14167000000003,7016.6617,0.0,0.0,0.0,0.0,0.0,-0.13087417664515116,-0.5210111850523005,-0.8869812942057381,-0.7248974613668092,0.022382282316209277,-0.01052453050344029,-0.8892974319468231
13132,6.0,300.60802,7127.443,0.0,0.0,0.0,0.0,0.0,-0.1308841434547351,-0.5207349528100385,-0.9038087641814802,-0.7420209827567693,-0.002930601479352847,-0.007818748449650394,-0.935565228083099
13133,6.0,300.6765,7209.8621,0.0,0.0,0.0,0.0,0.0,-0.13089411026431885,-0.5354787955451424,-0.9160661722311921,-0.7400730702345253,0.052548513007384445,-0.0011937331462372888,-0.927640720641011
13134,6.0,299.06064,7111.5943,0.0,0.0,0.0,0.0,0.0,-0.13090407707390267,-0.5225817835023066,-0.9250058346834682,-0.7141594623720513,-0.008986744942022671,0.012095852414017687,-0.9565005862167582
13135,6.0,299.92188,6999.5884,0.0,0.0,0.0,0.0,0.0,-0.1309140438834865,-0.4804645333531576,-0.9165634449827691,-0.7306721155417233,0.039151015196904365,-0.004531058180655626,-0.9347728563723982
13136,6.0,300.73651,6796.7416,0.0,0.0,0.0,0.0,0.0,-0.1309240106930703,-0.47901071197717654,-0.8880097835872421,-0.6990192260653263,-0.04107044728533756,0.0024097147315453277,-0.9478094436165091
13137,6.0,300.51932999999997,6940.3357,0.0,0.0,0.0,0.0,0.0,-0.13093397750265418,-0.4883817960570305,-0.9069437093283752,-0.7143632472321634,-0.013454803183135687,0.010814070772515689,-0.9642861365401322
13138,6.0,299.92745,7199.3223,0.0,0.0,0.0,0.0,0.0,-0.130943944312238,-0.5599314892809355,-0.8859464112161031,-0.7425363217576294,-0.03782215592925616,0.02371324103806468,-0.9109863644448541
13139,6.0,299.70322000000004,7262.7278,0.0,0.0,0.0,0.0,0.0,-0.13095391112182175,-0.5382977991783564,-0.919623926379815,-0.7497661550636583,0.014732279524962788,0.0025255050012979374,-0.9115449489599821
13140,6.0,298.88693,7127.2735,0.0,0.0,0.0,0.0,0.0,-0.13096387793140563,-0.5262587667901965,-0.894417009799586,-0.7458373993909203,-0.011327076258395389,0.008805950625354662,-0.8828418129097032
13141,6.0,300.3718,7464.9068,0.0,0.0,0.0,0.0,0.0,-0.1309738447409894,-0.5506487606098015,-0.9402468083151351,-0.7782496792872632,0.008319344357580362,-0.037401102889951465,-0.9085188674038311
13142,6.0,301.02855,7439.3431,0.0,0.0,0.0,0.0,0.0,-0.13098381155057326,-0.5789796285733404,-0.9123546979098982,-0.7700402155195523,-0.010880562270577888,-0.013373269987338988,-0.8819533445595181
13143,6.0,301.17972000000003,7116.7134,0.0,0.0,0.0,0.0,0.0,-0.13099377836015708,-0.5314159159566675,-0.9136644351216591,-0.7182228181880733,0.007141532815464413,-0.025863143954493576,-0.9290041601080722
13144,6.0,300.83592999999996,6892.5444,0.0,0.0,0.0,0.0,0.0,-0.1310037451697409,-0.5098676225725165,-0.8884107063868101,-0.6968830719395043,-0.009978434295794791,0.014944968826953587,-0.9541783892400751
13145,6.0,300.4624,6998.0094,0.0,0.0,0.0,0.0,0.0,-0.1310137119793247,-0.5244806344547085,-0.8945507182827821,-0.7081887848327914,-0.008387326751839702,0.0007972304779780223,-0.9631939441248412
13146,6.0,300.58317999999997,7211.0805,0.0,0.0,0.0,0.0,0.0,-0.13102367878890853,-0.5244262127918374,-0.922720124842886,-0.7448420736851893,0.0015587413973357984,0.02144420017487778,-0.9304683976950812
13147,6.0,299.97597,7190.2449,0.0,0.0,0.0,0.0,0.0,-0.13103364559849234,-0.5241200491416215,-0.9140870516058681,-0.7474478185698563,0.01893821888180668,0.008659885962489202,-0.9155370428964711
13148,6.0,299.47069,7079.314,0.0,0.0,0.0,0.0,0.0,-0.13104361240807616,-0.4791846870193465,-0.916777240753869,-0.7559727780212043,0.023628398567441377,0.015048325403404086,-0.901605634224048
13149,6.0,299.76615,7074.9158,0.0,0.0,0.0,0.0,0.0,-0.13105357921765998,-0.5149214911562945,-0.9121705194392212,-0.7235057420894574,-0.02286295093839758,-0.02009290653676548,-0.9231118068015421
13150,6.0,300.39056,7290.4401,0.0,0.0,0.0,0.0,0.0,-0.13106354602724385,-0.5336271012523944,-0.9394943181283701,-0.7429903185974353,-0.0020201434741726385,-0.008349453793576931,-0.9063741107846601
13151,6.0,300.72997999999995,7191.6313,0.0,0.0,0.0,0.0,0.0,-0.1310735128368276,-0.5599094105612564,-0.9168694059829651,-0.7092975337547164,-0.03014238486332177,-0.008505562500708663,-0.946364478046402
13152,6.0,300.6597,7103.8917,0.0,0.0,0.0,0.0,0.0,-0.13108347964641148,-0.4983428855376136,-0.9129594055695781,-0.7481034116495583,0.0033284287998653467,0.012798644709877887,-0.9205871928523822
13153,6.0,301.19773,6910.0765,0.0,0.0,0.0,0.0,0.0,-0.13109344645599524,-0.49916636402638453,-0.9069809260045482,-0.6943434213588603,-0.02770971322823577,-0.02332097646060118,-0.976261263244485
13154,6.0,300.66769,6909.3554,0.0,0.0,0.0,0.0,0.0,-0.13110341326557906,-0.4581135837697905,-0.9043517750425711,-0.7378061460507973,0.02583875705108677,0.015140126875714184,-0.9147047795293332
13155,6.0,301.43812,7026.0779,0.0,0.0,0.0,0.0,0.0,-0.13111338007516293,-0.5139217780776305,-0.8951422334261601,-0.7266882289310443,0.003659665425130856,0.009408091317231321,-0.96213620221295
13156,6.0,300.45804,7122.0254,0.0,0.0,0.0,0.0,0.0,-0.13112334688474675,-0.5171967746533475,-0.9027936193037931,-0.7449275008011204,0.03485521170194157,0.021502289803110777,-0.9170945400226841
13157,6.0,299.5978,7134.1448,0.0,0.0,0.0,0.0,0.0,-0.13113331369433057,-0.5399743430588185,-0.914183958845432,-0.7144435675675903,0.005491908153059135,0.0035493105328896764,-0.9671823295659641
13158,6.0,299.25312,7315.2052,0.0,0.0,0.0,0.0,0.0,-0.13114328050391438,-0.5581556164931705,-0.9001924441770771,-0.7652916695884072,-0.0017858854212781685,0.002512572079671558,-0.8652422564902621
13159,6.0,299.92227,7340.3073,0.0,0.0,0.0,0.0,0.0,-0.13115324731349814,-0.5611233753735655,-0.9255221970669293,-0.7446245491537212,0.02212747828706208,-0.015023640604467883,-0.9030375086028632
13160,6.0,298.88658,7260.6993,0.0,0.0,0.0,0.0,0.0,-0.13116321412308202,-0.5420481620384885,-0.8921011456360282,-0.7729219697314592,-0.006324064217011545,-0.015934683153630787,-0.8521987082179642
13161,6.0,300.10749,7290.9404,0.0,0.0,0.0,0.0,0.0,-0.13117318093266583,-0.5588325587524795,-0.9156796375830442,-0.7417516203501854,-0.0008202260572750092,-0.03024406451085677,-0.9065778044522631
13162,6.0,300.14985,7166.8845,0.0,0.0,0.0,0.0,0.0,-0.13118314774224965,-0.5361857806699164,-0.9150059985190611,-0.7273621517050554,-0.02176502859379108,-0.03177845953478976,-0.8999841098240162
13163,6.0,300.43772,6994.6572,0.0,0.0,0.0,0.0,0.0,-0.13119311455183347,-0.5272282343533755,-0.9027337666203861,-0.6962391312359524,0.03151270125881147,0.023223721676252876,-0.9587192492982229
13164,6.0,300.10072,7132.5413,0.0,0.0,0.0,0.0,0.0,-0.13120308136141728,-0.5156463601453335,-0.9061464841496951,-0.7463216012162073,0.027746323980848975,0.024667798626022176,-0.9693377962386921
13165,6.0,299.2142,7122.1122,0.0,0.0,0.0,0.0,0.0,-0.13121304817100116,-0.5451748086670645,-0.9044376277235441,-0.7153318231352543,0.04510559117882526,0.026093854922762973,-0.9669469009052292
13166,6.0,299.05519,6991.2796,0.0,0.0,0.0,0.0,0.0,-0.13122301498058492,-0.47713204496676653,-0.89355447051946,-0.7544879207946602,0.008816283040599391,0.008570045635747653,-0.9392295761422421
13167,6.0,299.35646,6938.9856,0.0,0.0,0.0,0.0,0.0,-0.1312329817901688,-0.49685522160829254,-0.9156684411694391,-0.6967546931518344,0.01036288468848709,-0.008454942045587811,-0.9380714718079461
13168,6.0,299.02001,7056.4186,0.0,0.0,0.0,0.0,0.0,-0.1312429485997526,-0.4903928644580075,-0.9231170250395571,-0.7314651559974903,-0.005391445520219245,-0.010105670238677,-0.9248286476384812
13169,6.0,299.12934,7207.9976,0.0,0.0,0.0,0.0,0.0,-0.13125291540933637,-0.5491134941907825,-0.9420700100150711,-0.6998677926265734,-0.02395779705570048,-0.0013312669525358189,-0.9213578810109431
13170,6.0,299.38864,7209.6511,0.0,0.0,0.0,0.0,0.0,-0.13126288221892024,-0.5523956544447065,-0.9221242628565792,-0.7170339819782443,-0.025637189182193577,0.015275602467084587,-0.9290269379703201
13171,6.0,300.58522999999997,7157.5755,0.0,0.0,0.0,0.0,0.0,-0.13127284902850406,-0.5261043576074574,-0.9109163387304432,-0.7387035411343632,-0.02129886059378388,0.03967185310605706,-0.9016521424036382
13172,6.0,301.70872,7121.2371,0.0,0.0,0.0,0.0,0.0,-0.13128281583808787,-0.49530915394320757,-0.9195826060407372,-0.7497865112581672,-0.014096556279721789,0.0024991818782750474,-0.9334352345178851
13173,6.0,299.78672,7095.2046,0.0,0.0,0.0,0.0,0.0,-0.1312927826476717,-0.5091850973051565,-0.8820491574889741,-0.7655307763470053,-0.0011534295023096289,-0.022792366923181477,-0.9263409132802302
13174,6.0,299.39025,7157.8697,0.0,0.0,0.0,0.0,0.0,-0.1313027494572555,-0.5329757435581105,-0.9066909236934272,-0.7361469895420514,-0.0019257713863588379,-0.025024850736010476,-0.9566279720193301
13175,6.0,299.57229,7088.6953,0.0,0.0,0.0,0.0,0.0,-0.13131271626683932,-0.5209602084397695,-0.8880612161623183,-0.7457649520087702,0.03292398842209467,0.004289941133859226,-0.9523934782614182
13176,6.0,300.25739,6914.3172,0.0,0.0,0.0,0.0,0.0,-0.13132268307642314,-0.5222154125311484,-0.8695577393286672,-0.7100066264396984,0.016264410948172384,0.006246322603089044,-0.9395456797759392
13177,6.0,300.61647999999997,7121.5377,0.0,0.0,0.0,0.0,0.0,-0.131332649886007,-0.5186470293889766,-0.9082115283834992,-0.7379110680986524,0.003173370833087317,0.024472926313789774,-0.9190177191099871
13178,6.0,299.94999,7319.7544,0.0,0.0,0.0,0.0,0.0,-0.13134261669559077,-0.5670118074022085,-0.8910183257841622,-0.7669924200137582,-0.00917500448012744,0.0003769117916832976,-0.88434291253535
13179,6.0,299.17373,7389.7749,0.0,0.0,0.0,0.0,0.0,-0.1313525835051746,-0.5590650591204255,-0.932642285254627,-0.7545997228106942,0.01079784154566399,0.012009869023781788,-0.8779295054973961
13180,6.0,299.62928,7343.951999999999,0.0,0.0,0.0,0.0,0.0,-0.1313625503147584,-0.5330709890675105,-0.9433716412260321,-0.7559353992250153,0.009258155127058772,-0.005205320292125115,-0.9056701856751881
13181,6.0,299.14247,7355.0261,0.0,0.0,0.0,0.0,0.0,-0.13137251712434223,-0.5580599656837304,-0.9367214579047102,-0.7409628659423413,-0.02230750344557918,-0.01933867254657838,-0.9179806880301402
13182,6.0,299.36185,7233.4174,0.0,0.0,0.0,0.0,0.0,-0.1313824839339261,-0.5256655595191515,-0.9332602563581162,-0.7398524654227533,0.02222914374909568,-0.003414133647648757,-0.9579767801549471
13183,6.0,299.53906,6931.7051,0.0,0.0,0.0,0.0,0.0,-0.13139245074350991,-0.5048838607631575,-0.8966964273570471,-0.7054849776034463,-0.013671874791808987,0.021705844655450078,-0.967029612510892
13184,6.0,299.80869,6782.2974,0.0,0.0,0.0,0.0,0.0,-0.13140241755309373,-0.46299981012452357,-0.8748899882449191,-0.7237592471319763,0.04151020289498806,0.0021742481752565876,-0.9567634840877042
13185,6.0,300.8425,6863.5835,0.0,0.0,0.0,0.0,0.0,-0.13141238436267755,-0.4815483157926186,-0.890437297779319,-0.7143723664830633,-0.03275397113481527,-0.016352839310899585,-0.9517812016234911
13186,6.0,300.28923,7115.6656,0.0,0.0,0.0,0.0,0.0,-0.13142235117226136,-0.5044644157517615,-0.9010044526747162,-0.7575157958034883,0.0046373292696937655,-0.015825318004087284,-0.9589215649456901
13187,6.0,300.63678,7232.7467,0.0,0.0,0.0,0.0,0.0,-0.13143231798184518,-0.5533275202966744,-0.9150798745838521,-0.7301670002343723,-0.0007275204011056733,-0.012299442730110488,-0.952834495367443
13188,6.0,300.3015,7314.1363,0.0,0.0,0.0,0.0,0.0,-0.131442284791429,-0.5185459475590005,-0.960065372321075,-0.7447034813365113,0.009636485185172041,-0.006604751415988213,-0.9509143661629411
13189,6.0,300.1307,7247.1192,0.0,0.0,0.0,0.0,0.0,-0.13145225160101282,-0.5417008503017114,-0.930732166961113,-0.7305102589707493,-0.03014609335868777,0.015153459220529986,-0.9218200953090602
13190,6.0,299.71234,7258.6918,0.0,0.0,0.0,0.0,0.0,-0.13146221841059663,-0.5427727979800044,-0.9481258410927351,-0.7155624287255133,-0.00935632690274757,-0.0008771550987109681,-0.909060165872253
13191,6.0,299.3183,7336.8827,0.0,0.0,0.0,0.0,0.0,-0.13147218522018045,-0.5689839467343435,-0.9194075062909561,-0.7418376959461802,0.002671607762367157,0.016333058642447384,-0.9176646958539542
13192,6.0,300.30822,7243.5872,0.0,0.0,0.0,0.0,0.0,-0.13148215202976432,-0.5274248251377774,-0.9351291860350651,-0.7393156151222703,0.016591100005664085,-0.02298850782453908,-0.9051140532253021
13193,6.0,299.69282000000004,7076.4691,0.0,0.0,0.0,0.0,0.0,-0.13149211883934808,-0.5338068011576296,-0.9122895459284682,-0.7049735497479723,0.03270682359441217,-0.012955672130875288,-0.961604114187937
13194,6.0,299.71882,7192.33,0.0,0.0,0.0,0.0,0.0,-0.1315020856489319,-0.5195915912646974,-0.9046052091575832,-0.7620919372301184,0.0042985798002367955,-0.010559962846187189,-0.9441811469959241
13195,6.0,300.38506,7163.0847,0.0,0.0,0.0,0.0,0.0,-0.13151205245851577,-0.5522012928105244,-0.8983573266559652,-0.7268402772410503,0.005401305862242385,0.015683155975306985,-0.951145751955777
13196,6.0,300.9807,7114.7368,0.0,0.0,0.0,0.0,0.0,-0.13152201926809953,-0.5356727822767875,-0.8929211892069601,-0.7341083506058533,-0.005060618653294175,0.004073118379410486,-0.9215583322782261
13197,6.0,300.21223,7157.6686,0.0,0.0,0.0,0.0,0.0,-0.1315319860776834,-0.5360061314271866,-0.9127340182173341,-0.7270123980355373,0.0002970394445230107,0.03751982236441817,-0.9214532278453532
13198,6.0,299.98926,7263.2432,0.0,0.0,0.0,0.0,0.0,-0.13154195288726717,-0.5496951301456854,-0.9560621934284921,-0.7020872460431163,0.008962147181270062,0.01931190957168708,-0.9291685498042962
13199,6.0,299.16014,7376.5364,0.0,0.0,0.0,0.0,0.0,-0.13155191969685098,-0.5662549399750114,-0.9245121083072412,-0.7515158252038372,0.0023634985706341475,0.006405426173541343,-0.9220550274772462
13200,6.0,299.58903,7358.8124,0.0,0.0,0.0,0.0,0.0,-0.13156188650643486,-0.5370374984389745,-0.948342392904107,-0.7515153185787873,0.008934584245424811,-0.007974463306468253,-0.9220844015976452
13201,6.0,299.40072000000004,7124.285,0.0,0.0,0.0,0.0,0.0,-0.13157185331601867,-0.5144708684393215,-0.9287657930220471,-0.7223680851421794,0.014120071788042587,0.002419859796846568,-0.9212270197605282
13202,6.0,300.11127999999997,6987.6712,0.0,0.0,0.0,0.0,0.0,-0.1315818201256025,-0.4926857886393015,-0.899563185467474,-0.7318285885433583,0.003091193919502087,0.014932961813268588,-0.9339459125682852
13203,6.0,300.28963,6980.4571,0.0,0.0,0.0,0.0,0.0,-0.1315917869351863,-0.4946065359263645,-0.9022578531809171,-0.7250202875439313,-0.02071890258104648,0.014111462201942884,-0.9250161900994901
13204,6.0,299.94205,6918.0154,0.0,0.0,0.0,0.0,0.0,-0.13160175374477007,-0.5150809463245315,-0.8699342731983282,-0.7178887192326003,-0.03160386235705837,-0.0005104806692805195,-0.951331227386582
13205,6.0,300.21823,7010.9803,0.0,0.0,0.0,0.0,0.0,-0.131611720554354,-0.5055062901670865,-0.8920478385482672,-0.7336088284390543,-0.013289748794846089,0.013525710425133687,-0.9470674405682792
13206,6.0,300.42897,7005.5475,0.0,0.0,0.0,0.0,0.0,-0.13162168736393776,-0.5031512030921576,-0.9096570005786562,-0.7167033179406103,-0.011523215133252789,-0.001040668141080949,-0.971829185717073
13207,6.0,300.42247000000003,7210.666,0.0,0.0,0.0,0.0,0.0,-0.13163165417352163,-0.5383468202181945,-0.907359476241908,-0.7461561273423762,0.03227651654194417,-0.019239988066338982,-0.9308690165196191
13208,6.0,300.88135,7428.9272,0.0,0.0,0.0,0.0,0.0,-0.1316416209831054,-0.5739123648232405,-0.9258376420880612,-0.7584583514440113,0.016249574940208185,-0.023782655762665375,-0.9222154249680761
13209,6.0,300.0724,7493.238,0.0,0.0,0.0,0.0,0.0,-0.1316515877926892,-0.5856223847714295,-0.9216464951694272,-0.7704883659062812,0.022411535859846378,0.017233639384327783,-0.8806317219240841
13210,6.0,300.43694,7409.5297,0.0,0.0,0.0,0.0,0.0,-0.13166155460227308,-0.5914552096345844,-0.9133297383486272,-0.7475270547276763,0.013897618808088185,0.009880075778112559,-0.9111050362965661
13211,6.0,299.96159,7243.5253,0.0,0.0,0.0,0.0,0.0,-0.1316715214118569,-0.5289104423018964,-0.9280625265251401,-0.7448778616787213,0.02138095107713558,-0.013335352142096787,-0.9083970544768092
13212,6.0,300.27515,7008.8138,0.0,0.0,0.0,0.0,0.0,-0.1316814882214407,-0.5169863935350845,-0.8803585598296252,-0.7331594317547023,0.01876225989594088,-0.02222122418631408,-0.9252033475254612
13213,6.0,299.30924,7048.706,0.0,0.0,0.0,0.0,0.0,-0.13169145503102453,-0.5062802004609656,-0.8970359168030522,-0.7393144904146592,0.020088362110066982,-0.012532846917145688,-0.9280871789000732
13214,6.0,299.42728,7048.1216,0.0,0.0,0.0,0.0,0.0,-0.1317014218406083,-0.5220763642199254,-0.898781412352819,-0.7215952083634023,0.014911303592381088,0.01802259644219178,-0.9396001926313191
13215,6.0,299.9115,7018.8398,0.0,0.0,0.0,0.0,0.0,-0.13171138865019216,-0.5140205902273826,-0.893378296724573,-0.7261531619507373,-0.01736222994126868,0.008663636305084332,-0.9310156743390932
13216,6.0,300.4366,7023.812,0.0,0.0,0.0,0.0,0.0,-0.13172135545977598,-0.5304337118397315,-0.8916963319560762,-0.7129334297510513,-0.005075515050964335,0.0007411358074694093,-0.942701599199904
13217,6.0,299.43846,7310.9039,0.0,0.0,0.0,0.0,0.0,-0.13173132226935985,-0.5425134059544044,-0.921474850602487,-0.7583439757727233,-0.018586982827392382,0.01113905351683899,-0.9401814232861821
13218,6.0,299.74446,7443.5654,0.0,0.0,0.0,0.0,0.0,-0.1317412890789436,-0.5772552694206594,-0.9375827711522152,-0.7478199650665842,-0.008922295953512053,0.027633419548706174,-0.9300057173019181
13219,6.0,300.25282999999996,7339.6151,0.0,0.0,0.0,0.0,0.0,-0.13175125588852743,-0.5603605905657845,-0.9286431593624442,-0.7420559804152232,0.008133973190210652,-0.011992779547595188,-0.9419187723051451
13220,6.0,300.66777,7190.3582,0.0,0.0,0.0,0.0,0.0,-0.13176122269811125,-0.5326389696223734,-0.9238345479653712,-0.7292158319679993,0.012645358208249689,-0.0041396046085721665,-0.9185480371586331
13221,6.0,301.16827,6970.5666,0.0,0.0,0.0,0.0,0.0,-0.13177118950769506,-0.5308677780500705,-0.8974211747560742,-0.6905892486783524,0.007478112713807264,-0.0022325385283343976,-0.9306254210630781
13222,6.0,300.43417,7109.8743,0.0,0.0,0.0,0.0,0.0,-0.13178115631727894,-0.5036543020318095,-0.9200502209618872,-0.7375197306450303,-0.0036515474679796765,0.004821760850245745,-0.9415058830218962
13223,6.0,299.66679,7199.8756,0.0,0.0,0.0,0.0,0.0,-0.13179112312686275,-0.5120102817639806,-0.9389587951855182,-0.7376133245567673,0.0027540789237814273,0.009262094238147531,-0.9571460873254641
13224,6.0,299.16782,7053.9962,0.0,0.0,0.0,0.0,0.0,-0.1318010899364465,-0.4861906427157805,-0.9260643770629382,-0.7319836766036643,-0.0018639997085874483,-0.01786051087669518,-0.9442126590740342
13225,6.0,299.38498,7107.4955,0.0,0.0,0.0,0.0,0.0,-0.1318110567460304,-0.5412035775501345,-0.8969750610020462,-0.7223225192851823,0.0024267300378246074,-0.006052727593932704,-0.9161182938163361
13226,6.0,299.35312000000005,7398.2051,0.0,0.0,0.0,0.0,0.0,-0.13182102355561415,-0.5688937877404455,-0.923614135671118,-0.7563617039395882,-0.031519783877010474,0.003906677459684046,-0.9274322646979382
13227,6.0,299.23013,7539.2641,0.0,0.0,0.0,0.0,0.0,-0.13183099036519802,-0.6171421838471913,-0.936572895175048,-0.7380329316881793,-0.008796247843722071,-0.005399733906037245,-0.9161524200797041
13228,6.0,300.11606,7522.9786,0.0,0.0,0.0,0.0,0.0,-0.13184095717478184,-0.5603239514421685,-0.941143210413603,-0.7853304939010852,-0.006188930394899874,0.017819587731656383,-0.9198666707062721
13229,6.0,300.16539,7206.3252,0.0,0.0,0.0,0.0,0.0,-0.13185092398436565,-0.5293234430426564,-0.9170572118890002,-0.7441622537955963,-0.003142558404171367,0.015823641075171785,-0.9293583011505232
13230,6.0,300.41078999999996,7123.0506,0.0,0.0,0.0,0.0,0.0,-0.13186089079394947,-0.5324826555294465,-0.8970163509436211,-0.7357304930884463,0.005267127534975016,0.038484907620914666,-0.9111275203162851
13231,6.0,301.02108,7240.3733,0.0,0.0,0.0,0.0,0.0,-0.1318708576035333,-0.5410400693814975,-0.9244839399544611,-0.7353686716102373,-0.001028323613787639,0.00011488293468556289,-0.9385384078515291
13232,6.0,300.88291,7114.5947,0.0,0.0,0.0,0.0,0.0,-0.13188082441311716,-0.5312192238472555,-0.9331384434310942,-0.6983014700919894,0.016680184954456084,-0.0016583008190365484,-0.9409173367013111
13233,6.0,300.28163,7029.2390000000005,0.0,0.0,0.0,0.0,0.0,-0.13189079122270092,-0.5095114144998616,-0.8994341176697362,-0.7277676138650713,0.0042988191299104155,-0.036535669767539865,-0.958604498724398
13234,6.0,299.98079,7009.6037,0.0,0.0,0.0,0.0,0.0,-0.13190075803228474,-0.4694250316586436,-0.9203771055766481,-0.7409423678928183,-0.0021249566989668977,0.006810739183142623,-0.945875990173192
13235,6.0,299.49132000000003,7115.7598,0.0,0.0,0.0,0.0,0.0,-0.1319107248418686,-0.4780189022492925,-0.9290274445953701,-0.7559669417006283,-0.007749627567578692,-0.02084457396444928,-0.967106264880957
13236,6.0,299.21832,7314.3489,0.0,0.0,0.0,0.0,0.0,-0.13192069165145237,-0.5180742999024525,-0.929105809358104,-0.7761992967824063,-0.0029922814579901873,0.0031799103492327167,-0.9172199195900581
13237,6.0,300.31842,7301.1359999999995,0.0,0.0,0.0,0.0,0.0,-0.13193065846103624,-0.5335770872274584,-0.918854423723871,-0.7669315439477502,-0.004680138579793715,0.006120029590749894,-0.9190424626774292
13238,6.0,300.22882000000004,7144.1859,0.0,0.0,0.0,0.0,0.0,-0.13194062527062006,-0.5717689659592035,-0.8740441675914431,-0.7258409998599293,-0.0016533157298695585,0.027051968005321374,-0.8918676826804872
13239,6.0,299.02327,7113.3988,0.0,0.0,0.0,0.0,0.0,-0.13195059208020382,-0.5543746433475175,-0.889027188012652,-0.7188937924042933,0.0015995130614846484,0.007175388541055714,-0.9089435103882401
13240,6.0,299.12085,7303.69,0.0,0.0,0.0,0.0,0.0,-0.1319605588897877,-0.5366835499140425,-0.9443732085523793,-0.7390826182617753,-0.01928285259856938,-0.0017126325052986685,-0.936990192096232
13241,6.0,300.83652,7436.4174,0.0,0.0,0.0,0.0,0.0,-0.1319705256993715,-0.5467952691544915,-0.9337647637154072,-0.7799251693876212,0.017905753506910285,-0.005376506363394865,-0.9080338245809612
13242,6.0,300.95645,7296.4242,0.0,0.0,0.0,0.0,0.0,-0.13198049250895533,-0.5392956377443355,-0.9293196963217131,-0.7493154310216753,0.015326582119365884,-0.0028720664263758872,-0.9562439198339271
13243,6.0,300.99916,7174.4103,0.0,0.0,0.0,0.0,0.0,-0.13199045931853914,-0.5471835161953085,-0.8899819431843792,-0.7436761369276202,0.02930241674242337,-0.016295280625718986,-0.9087869531152892
13244,6.0,300.64305,7010.7216,0.0,0.0,0.0,0.0,0.0,-0.1320004261281229,-0.5552782597866974,-0.8691143512174082,-0.7066917179425423,0.008145227865696401,-0.03136611436684447,-0.9322041052488822
13245,6.0,299.53208,7066.0756,0.0,0.0,0.0,0.0,0.0,-0.13201039293770683,-0.5074308270095236,-0.9062854108709062,-0.7341942944793354,0.01781407565111238,-0.007676405454402232,-0.9096443146874041
13246,6.0,300.8137,7233.8248,0.0,0.0,0.0,0.0,0.0,-0.1320203597472906,-0.5526561205154125,-0.8672453607454532,-0.7790006495988783,-0.02129967929986468,0.01876966776742198,-0.9125260283693072
13247,6.0,300.03909,7235.5830000000005,0.0,0.0,0.0,0.0,0.0,-0.13203032655687447,-0.5336044348476575,-0.9061136244489522,-0.7597185103283793,-0.01060356603774049,0.01050246900901299,-0.9141596408430321
13248,6.0,298.7388,7072.3362,0.0,0.0,0.0,0.0,0.0,-0.13204029336645823,-0.5094899538627435,-0.9132037305661911,-0.7271199342686503,-0.030170991953395076,0.007002882407555683,-0.943887223406916
13249,6.0,300.12288,7293.005,0.0,0.0,0.0,0.0,0.0,-0.13205026017604204,-0.5473368310679395,-0.9252346873510541,-0.7443198952461543,-0.017172246560768784,0.019068916998955583,-0.9163598323751742
13250,6.0,299.86644,7356.3211,0.0,0.0,0.0,0.0,0.0,-0.13206022698562592,-0.5821902128402004,-0.9364532911332442,-0.7174944332211873,-0.016195129972584883,0.025547309845323177,-0.9340976163732572
13251,6.0,300.49345,7325.4289,0.0,0.0,0.0,0.0,0.0,-0.13207019379520973,-0.5337165104412185,-0.9431222094489152,-0.7499087700152333,-0.008268200052157811,-0.007127940774647982,-0.9537959177248282
13252,6.0,299.97015,7051.7719,0.0,0.0,0.0,0.0,0.0,-0.13208016060479355,-0.5131056355195835,-0.9139606891858971,-0.7164962400176733,-0.005900101731369704,-0.005135695824753714,-0.9468971436239721
13253,6.0,299.46436,7047.9879,0.0,0.0,0.0,0.0,0.0,-0.13209012741437737,-0.4801255302672005,-0.9379689612953293,-0.7243178316471043,0.027424106396048573,-0.013069829953391787,-0.9753030427574161
13254,6.0,301.01018,7291.8505,0.0,0.0,0.0,0.0,0.0,-0.13210009422396113,-0.5252976180103386,-0.9111613223396211,-0.7800815240105523,0.030064538884638975,0.0007099484557514574,-0.9039432832647563
13255,6.0,301.4565,7280.4761,0.0,0.0,0.0,0.0,0.0,-0.132110061033545,-0.5738435043464445,-0.9223039526293131,-0.7169354839360232,0.019841823161985482,-0.018071235486742082,-0.9280125935602122
13256,6.0,300.66388,7244.8262,0.0,0.0,0.0,0.0,0.0,-0.13212002784312882,-0.5584391036061485,-0.9137546143805592,-0.7300525435030764,0.015259676202012787,-0.01853785640954398,-0.9005507395449381
13257,6.0,301.06638,7068.2503,0.0,0.0,0.0,0.0,0.0,-0.13212999465271263,-0.5219710166070285,-0.8940630714071551,-0.7325375292408253,0.008746261176538771,0.01207904158160859,-0.9052489573436161
13258,6.0,300.14625,7193.5301,0.0,0.0,0.0,0.0,0.0,-0.13213996146229645,-0.5227769354715665,-0.9387367008960992,-0.7251398814532344,-0.023857690985570775,0.01114949708561969,-0.9203199886685111
13259,6.0,299.68966,7592.7088,0.0,0.0,0.0,0.0,0.0,-0.13214992827188027,-0.5983290172529765,-0.9468645980307602,-0.7628002902425273,-0.011647476072516389,-0.012710135287142687,-0.934941694236561
13260,6.0,300.00585,7495.843000000001,0.0,0.0,0.0,0.0,0.0,-0.13215989508146408,-0.5622065802604694,-0.9558097826960812,-0.7605327378437373,-0.0024162251674128576,-0.017204488178950785,-0.9549426331280001
13261,6.0,299.37703,6975.7698,0.0,0.0,0.0,0.0,0.0,-0.1321698618910479,-0.5402985729583175,-0.9244365603797852,-0.6557247211549914,0.002340204457460198,0.01124934680347409,-0.9690707947048411
13262,6.0,299.14142999999996,6992.7055,0.0,0.0,0.0,0.0,0.0,-0.13217982870063177,-0.5025334549036905,-0.8867926979646252,-0.7362817011428463,0.003968169683077856,-0.0001029488547427609,-0.9251495439451511
13263,6.0,300.60731,7246.3507,0.0,0.0,0.0,0.0,0.0,-0.1321897955102156,-0.5460538335263175,-0.9306735808403311,-0.7259822570563703,-0.010934697183670591,-0.003050698467330497,-0.93829503531001
13264,6.0,300.32682,7265.4547,0.0,0.0,0.0,0.0,0.0,-0.13219976231979935,-0.5138915224296445,-0.9024849225283271,-0.7921403553056663,0.02238724420194898,0.008988406874836692,-0.9189699747652751
13265,6.0,300.40871,7006.3689,0.0,0.0,0.0,0.0,0.0,-0.13220972912938317,-0.5002760856684055,-0.8910513476049212,-0.7384337734277393,4.016583583455936e-05,0.014463532161189488,-0.940041483314871
13266,6.0,300.01957000000004,7087.6405,0.0,0.0,0.0,0.0,0.0,-0.13221969593896699,-0.5169800809869616,-0.9250626273515731,-0.7124230050131762,0.023672949147838178,0.012081116717813388,-0.9063132043211491
13267,6.0,299.89144,7208.608,0.0,0.0,0.0,0.0,0.0,-0.13222966274855086,-0.5735435823168444,-0.8991661738132921,-0.7185270667956003,-0.02227669962928908,-0.02278305616801258,-0.9526148936732701
13268,6.0,299.04066,7429.5064,0.0,0.0,0.0,0.0,0.0,-0.13223962955813467,-0.5634032792910745,-0.9339161027503432,-0.7610650589162733,0.017545940290399485,-0.005787692981175824,-0.9159848589106672
13269,6.0,299.77,7425.6374,0.0,0.0,0.0,0.0,0.0,-0.1322495963677185,-0.5419553989918334,-0.9617041726353122,-0.7535487798069743,-0.009619758553846251,0.0033068152633072565,-0.971136983911258
13270,6.0,299.15386,7049.7719,0.0,0.0,0.0,0.0,0.0,-0.1322595631773023,-0.49757206565653955,-0.9001937411372052,-0.7451888180019103,-0.0003000941909244907,0.023249002266247876,-0.9180333162403341
13271,6.0,299.91136,7048.4149,0.0,0.0,0.0,0.0,0.0,-0.13226952998688613,-0.4850472203754335,-0.942761877448353,-0.7147330328561583,-0.024272569278766077,-0.007822002806321574,-0.989900501250573
13272,6.0,299.95209,7283.7356,0.0,0.0,0.0,0.0,0.0,-0.13227949679647,-0.5665563818797614,-0.8909209119195483,-0.7565964638552574,0.00040386033319791167,0.019276059769898983,-0.9254058759554491
13273,6.0,299.94714,7186.1102,0.0,0.0,0.0,0.0,0.0,-0.13228946360605376,-0.5424708393177036,-0.9004735906823241,-0.7414536234957753,0.005277738290022214,0.012489658144883288,-0.9287352131340292
13274,6.0,300.68385,7029.7888,0.0,0.0,0.0,0.0,0.0,-0.13229943041563758,-0.49067118399547555,-0.9023957565195271,-0.7438133309911603,-0.014256705524277286,0.01612988679864588,-0.9130135232574191
13275,6.0,300.83954,7099.8206,0.0,0.0,0.0,0.0,0.0,-0.1323093972252214,-0.5012363427881755,-0.8855101867830513,-0.7714216503083893,-0.02472564912723158,0.0012916494815758787,-0.8959125466821842
13276,6.0,300.35404,7356.5473,0.0,0.0,0.0,0.0,0.0,-0.1323193640348052,-0.5474786354194345,-0.9324686547174912,-0.7562594062094923,-0.012827676351743087,-0.007046938521903683,-0.9410966110415041
13277,6.0,300.15943,7465.5596,0.0,0.0,0.0,0.0,0.0,-0.13232933084438908,-0.5644347172303694,-0.9456170338451351,-0.7592919421687803,0.03188961915026037,0.013547451732529385,-0.9295022941222342
13278,6.0,299.88851,7332.6898,0.0,0.0,0.0,0.0,0.0,-0.1323392976539729,-0.5740769673019854,-0.9315681084261141,-0.7233095363400933,0.016334343443574182,-0.003395682464652767,-0.9479963983924601
13279,6.0,299.38959,7232.8509,0.0,0.0,0.0,0.0,0.0,-0.13234926446355666,-0.5524136193689795,-0.9351649132335912,-0.7110275569754563,0.020696570548842483,-0.01789659372600628,-0.9368038554028421
13280,6.0,301.07568,7123.5013,0.0,0.0,0.0,0.0,0.0,-0.13235923127314053,-0.5254115985140875,-0.9036779434610691,-0.7362769895298813,-0.02161899392312858,-0.01144627601340949,-0.9562717132841702
13281,6.0,300.03702000000004,7278.7361,0.0,0.0,0.0,0.0,0.0,-0.13236919808272435,-0.5131936970857746,-0.9396511591113491,-0.7597091580299563,0.002286111796896668,0.01244314287254259,-0.9165689773283151
13282,6.0,299.31241,7381.4438,0.0,0.0,0.0,0.0,0.0,-0.13237916489230817,-0.5447969879697765,-0.9330217474170771,-0.7659558651614583,-0.025351298639978374,0.006501121869960774,-0.927852540574416
13283,6.0,299.28418,7042.6001,0.0,0.0,0.0,0.0,0.0,-0.13238913170189198,-0.5255537169731135,-0.8912742018319152,-0.7239466578704723,-0.01907283625034238,0.008099065103065493,-0.9281774189539792
13284,6.0,299.90477000000004,6910.6297,0.0,0.0,0.0,0.0,0.0,-0.13239909851147574,-0.5375701133540395,-0.8953505880442231,-0.6677381689781264,-0.01122325460014899,-0.008617630292243892,-0.9475970866605512
13285,6.0,300.82018,7341.5036,0.0,0.0,0.0,0.0,0.0,-0.13240906532105962,-0.5531521165718635,-0.910329595995036,-0.7681520746207073,0.027538726260610675,0.00016885885870507184,-0.917321204070054
13286,6.0,301.617,7478.0923,0.0,0.0,0.0,0.0,0.0,-0.13241903213064343,-0.5458677501454524,-0.9562247390095341,-0.7710608522127812,0.01162725058727029,0.0038679374633107068,-0.8893641240684051
13287,6.0,300.58168,7362.1435,0.0,0.0,0.0,0.0,0.0,-0.13242899894022725,-0.5100337043964075,-0.9519184362170352,-0.7759556709283623,0.016059836766232485,-0.014196814337366486,-0.9344791962284162
13288,6.0,300.14162999999996,7279.0159,0.0,0.0,0.0,0.0,0.0,-0.13243896574981107,-0.5533531251267014,-0.9155553827232811,-0.7437305687229923,0.008575263975087663,-0.005119542287684485,-0.9365657517618431
13289,6.0,300.08493,7158.6224,0.0,0.0,0.0,0.0,0.0,-0.13244893255939488,-0.5492905191157534,-0.9369480915545771,-0.6898038379958383,0.006409308035999453,-0.0003709330790707447,-0.978231740846456
13290,6.0,300.48483,7233.5176,0.0,0.0,0.0,0.0,0.0,-0.13245889936897876,-0.5779921454233834,-0.9064798636975971,-0.7143367203445453,0.017697193199076984,0.005536150198800485,-0.9303096416694131
13291,6.0,299.48663,7281.1272,0.0,0.0,0.0,0.0,0.0,-0.13246886617856257,-0.5423686429126175,-0.939406722657225,-0.7315055036164723,-0.011657198207225888,0.0031629161185555174,-0.9603474206189111
13292,6.0,299.40564,7077.9927,0.0,0.0,0.0,0.0,0.0,-0.1324788329881464,-0.5171817278893626,-0.8797962870841332,-0.7545550182162823,-0.012130517726438887,0.011471862604934688,-0.9065052557451031
13293,6.0,299.85957,6756.3334,0.0,0.0,0.0,0.0,0.0,-0.13248879979773015,-0.4836733849623465,-0.8461144048124903,-0.7239688683126643,-0.01057478061564959,-0.0017457931413213683,-0.918377162661769
13294,6.0,299.7077,6997.7555,0.0,0.0,0.0,0.0,0.0,-0.13249876660731397,-0.5017182749332385,-0.8940008375860131,-0.7314238153934103,-0.0015469028871424285,-0.014674881946548087,-0.9051712106634431
13295,6.0,299.91591,7627.6768,0.0,0.0,0.0,0.0,0.0,-0.13250873341689784,-0.6201179676683785,-0.9456602692269022,-0.7528450370825203,-0.013566516033160886,-0.025601911866711975,-0.9359832849418581
13296,6.0,299.61731000000003,7672.0087,0.0,0.0,0.0,0.0,0.0,-0.13251870022648166,-0.5957195942704465,-0.975029566555426,-0.7613499240493873,0.030580938758353673,-0.009048807219922742,-0.952411919413238
13297,6.0,299.65982,7210.848000000001,0.0,0.0,0.0,0.0,0.0,-0.13252866703606547,-0.5371246582125765,-0.937461272332724,-0.7173317964476363,-0.000944452546035209,0.02331535089604598,-0.9627987157908351
13298,6.0,301.67132999999995,7360.0707,0.0,0.0,0.0,0.0,0.0,-0.1325386338456493,-0.5121565545484165,-0.9269972460325051,-0.7981239011211962,0.005226689534084095,0.0065350979696639526,-0.9127519628766051
13299,6.0,301.59771,7213.677,0.0,0.0,0.0,0.0,0.0,-0.1325486006552331,-0.5255820373134085,-0.9307351763139102,-0.7364604688579893,-0.032230585914911174,0.005030252459722265,-0.9304891085271252
13300,6.0,300.32117,7109.4191,0.0,0.0,0.0,0.0,0.0,-0.13255856746481692,-0.5036880027301356,-0.909343318612698,-0.7480545729947383,-0.0028895388097752773,-0.0077930896133930625,-0.9274041571401641
13301,6.0,299.84787,7077.9694,0.0,0.0,0.0,0.0,0.0,-0.13256853427440074,-0.5637681405195835,-0.8820024263943621,-0.7057553937901343,-0.003656798231322887,-0.0014996223070011987,-0.9433097519099242
13302,6.0,299.9352,6918.6697,0.0,0.0,0.0,0.0,0.0,-0.1325785010839846,-0.5254400911068995,-0.8857709973587911,-0.6918917411518983,0.012979422713219288,-0.010034200237573461,-0.924500709243616
13303,6.0,300.09668,7148.5713,0.0,0.0,0.0,0.0,0.0,-0.13258846789356837,-0.5209456176383295,-0.9141527710073541,-0.7378887765964524,-0.003238774809817187,-0.013369997189515988,-0.9515064487263751
13304,6.0,300.34227999999996,7705.8182,0.0,0.0,0.0,0.0,0.0,-0.1325984347031522,-0.5668834691445425,-0.9855775000964261,-0.7899153391460743,0.013652917895688087,0.006037734836178035,-0.921010832719192
13305,6.0,298.92941,7404.3143,0.0,0.0,0.0,0.0,0.0,-0.132608401512736,-0.5222007811997046,-0.9380114874020261,-0.7905143928701962,0.0038391772711472965,0.01037368086830259,-0.9430177433636051
13306,6.0,299.36751,7015.0934,0.0,0.0,0.0,0.0,0.0,-0.13261836832231982,-0.4992553881801705,-0.8991500124741971,-0.7340078361959332,-0.0008142070679709813,-0.006926650637607193,-0.8939954774929842
13307,6.0,299.64114,7196.7993,0.0,0.0,0.0,0.0,0.0,-0.1326283351319037,-0.5500513078208376,-0.9210457594501392,-0.7165502158505004,0.0037771019223209364,-0.01141168162849529,-0.9511293980991631
13308,6.0,300.03732,7393.3124,0.0,0.0,0.0,0.0,0.0,-0.1326383019414875,-0.5973808887369034,-0.8982732978251721,-0.7517281618947933,0.02122377470837348,-0.0007058682394537714,-0.953734119601229
13309,6.0,300.5692,7197.9205,0.0,0.0,0.0,0.0,0.0,-0.13264826875107133,-0.5122849130710846,-0.9232495581526372,-0.7524536084363893,0.006443593176983134,0.016470587078520383,-0.976315370799825
13310,6.0,300.15715,6803.8881,0.0,0.0,0.0,0.0,0.0,-0.13265823556065515,-0.4698488741754736,-0.8729250328559931,-0.7254381924151754,-0.01262396140588799,0.005086668908065135,-0.9450308483972831
13311,6.0,299.63967,6986.2574,0.0,0.0,0.0,0.0,0.0,-0.1326682023702389,-0.48463242618199653,-0.8678972047997852,-0.7711181717709382,-0.018545998887347582,0.008001735034234764,-0.9142521708421641
13312,6.0,301.09422,7315.5315,0.0,0.0,0.0,0.0,0.0,-0.13267816917982284,-0.5500588869315854,-0.9183905476955901,-0.7552894826837683,-0.028875375395027676,-0.005616086208464556,-0.9366982544774201
13313,6.0,300.16229,7477.5265,0.0,0.0,0.0,0.0,0.0,-0.1326881359894066,-0.5876755334490594,-0.9377529262415082,-0.7475528622077233,0.002323327054519528,0.00892849967857431,-0.9199248211295111
13314,6.0,299.00832,7466.3885,0.0,0.0,0.0,0.0,0.0,-0.1326981027989904,-0.5799022637168975,-0.9304469167929612,-0.7592464776367933,-0.015691715912151787,-0.02224001389616848,-0.92773636131795
13315,6.0,299.39725,7262.9884,0.0,0.0,0.0,0.0,0.0,-0.13270806960857423,-0.5250980685356446,-0.9493015759787712,-0.7333674823977353,0.015508210239541183,0.010485667295854791,-0.9234697475318682
13316,6.0,300.38585,7297.4277,0.0,0.0,0.0,0.0,0.0,-0.13271803641815805,-0.5369897743592644,-0.9187079178919122,-0.7625381117791522,-0.0005690019521886205,-0.016313878831304484,-0.9609969443305141
13317,6.0,300.11576,7619.3661,0.0,0.0,0.0,0.0,0.0,-0.13272800322774192,-0.5503630848766075,-0.9435715048082571,-0.8221624491436162,0.010353683364328991,0.024722327693403774,-0.9053135419049902
13318,6.0,301.49505,7402.7272,0.0,0.0,0.0,0.0,0.0,-0.13273797003732574,-0.5738975004442735,-0.9159129485510701,-0.7604337737064703,-0.0018287383011324184,-0.0025036586198668677,-0.9323599431142621
13319,6.0,300.8706,6916.0234,0.0,0.0,0.0,0.0,0.0,-0.1327479368469095,-0.5159532432031205,-0.8637691630973793,-0.7225760243277013,0.012414929936758188,-0.009726681871973761,-0.9175320208858602
13320,6.0,299.73017000000004,7034.581999999999,0.0,0.0,0.0,0.0,0.0,-0.13275790365649337,-0.5325166399378005,-0.9062001762724942,-0.6996204684096644,0.005328956866677095,-0.003648442160398207,-0.9802628108044071
13321,6.0,299.60642,7431.5011,0.0,0.0,0.0,0.0,0.0,-0.13276787046607713,-0.5592700902781604,-0.9315505791993841,-0.7681701104724873,0.01066353625815909,0.014266398274733885,-0.9559008130850651
13322,6.0,299.19223999999997,7347.9772,0.0,0.0,0.0,0.0,0.0,-0.132777837275661,-0.5413555650651345,-0.9416329749819391,-0.7506130294972383,-0.009131304624514601,0.012674054464331787,-0.9311588060482191
13323,6.0,298.89148,7163.7758,0.0,0.0,0.0,0.0,0.0,-0.13278780408524482,-0.4880840221176425,-0.951226305338727,-0.7382986362619023,-0.023019090752307375,-0.006993482689028004,-0.9631798903459541
13324,6.0,299.68003999999996,7296.1835,0.0,0.0,0.0,0.0,0.0,-0.13279777089482864,-0.5552350446699325,-0.926534403519326,-0.7360881399762432,-0.003150088980239577,-0.003306137601640377,-0.9098883762389911
13325,6.0,300.56156,7231.1967,0.0,0.0,0.0,0.0,0.0,-0.13280773770441245,-0.5108555110225135,-0.9440664876146081,-0.7431812351812773,-0.02132955599231328,-0.0028749243996079475,-0.956664155180401
13326,6.0,300.54224,7306.8553,0.0,0.0,0.0,0.0,0.0,-0.13281770451399627,-0.5461066035915255,-0.9303686026927321,-0.7446263628714003,0.013570831465336788,-0.003148815730163917,-0.9243034598466492
13327,6.0,300.65892,7445.7387,0.0,0.0,0.0,0.0,0.0,-0.1328276713235801,-0.5753095759161345,-0.9247996078906152,-0.7632094710304103,-0.0041456170320155455,-0.015328854839340185,-0.9228111349668682
13328,6.0,301.06113999999997,7048.3753,0.0,0.0,0.0,0.0,0.0,-0.1328376381331639,-0.5281708001263995,-0.8903358511793071,-0.7240234318305493,0.05028790643802996,-0.01051471008347109,-0.970825368975504
13329,6.0,300.12757999999997,6855.4307,0.0,0.0,0.0,0.0,0.0,-0.13284760494274772,-0.49710533226297654,-0.8842803950041802,-0.7024940152957614,-0.006063855511830944,0.007603984416754833,-0.9681645640804031
13330,6.0,299.79685,7272.0746,0.0,0.0,0.0,0.0,0.0,-0.1328575717523316,-0.5637454133198404,-0.8889524202877732,-0.7578312712221233,0.01142788147109409,-0.004584458791400856,-0.9328476811823981
13331,6.0,299.4278,7414.4711,0.0,0.0,0.0,0.0,0.0,-0.13286753856191535,-0.5745480374059765,-0.937788562247525,-0.7414774754031292,-0.026140198955836774,0.002658509073024417,-0.9251869430063421
13332,6.0,299.65181,7205.0605,0.0,0.0,0.0,0.0,0.0,-0.13287750537149923,-0.5127432162238155,-0.9164203842011502,-0.7609948812143473,0.02098784752858928,0.004509782866980915,-0.9447251812396161
13333,6.0,299.17472999999995,7207.2213,0.0,0.0,0.0,0.0,0.0,-0.132887472181083,-0.5391668232591225,-0.9238367163205852,-0.7278117814369304,-0.002990371278901667,0.007121394773701942,-0.9308576174559942
13334,6.0,299.02086,7451.5131,0.0,0.0,0.0,0.0,0.0,-0.1328974389906668,-0.5327149836448756,-0.9636777710475911,-0.7686811532929233,-0.007588312984083182,0.013007836272523488,-0.9226138146423941
13335,6.0,299.6491,7384.7676,0.0,0.0,0.0,0.0,0.0,-0.13290740580025068,-0.5706980821935155,-0.9046414531136601,-0.7694454275783513,-0.03980652519009816,0.003118457642592807,-0.9107542592444471
13336,6.0,301.09984,7419.1288,0.0,0.0,0.0,0.0,0.0,-0.1329173726098345,-0.5685293723419804,-0.9451332677173911,-0.7415672493619894,0.011530036332925988,0.006069542783317235,-0.9182252663392781
13337,6.0,301.18347,7212.7165,0.0,0.0,0.0,0.0,0.0,-0.1329273394194183,-0.5472894210957605,-0.8878825599046861,-0.7573137436010473,0.013783926067367589,0.008572715752411173,-0.9153313024636662
13338,6.0,300.67377,6930.32,0.0,0.0,0.0,0.0,0.0,-0.13293730622900213,-0.4771866186171525,-0.8848831268261651,-0.7445744844662803,0.044098726580955455,-0.0066976362553052326,-0.9135439495522681
13339,6.0,300.06911,7201.5227,0.0,0.0,0.0,0.0,0.0,-0.1329472730385859,-0.5308025855386365,-0.9134024593083041,-0.7448780440637393,0.018275654641416682,-0.02101555586582388,-0.9703591523394921
13340,6.0,299.66036,7693.7047,0.0,0.0,0.0,0.0,0.0,-0.13295723984816976,-0.5879781912539295,-0.955657339218536,-0.7950585763886723,0.027526573338911276,-0.001221103868538569,-0.951870995847353
13341,6.0,301.1862,7351.0192,0.0,0.0,0.0,0.0,0.0,-0.13296720665775358,-0.5604616419982574,-0.9504598930955881,-0.7236047366242273,0.01913749072597328,0.01954786816222438,-0.9893067468244741
13342,6.0,300.28215,6980.7976,0.0,0.0,0.0,0.0,0.0,-0.13297717346733745,-0.5070095378829456,-0.9219041646698571,-0.6930744573311234,-0.007217104452972753,0.02115036473862848,-0.9358640152725871
13343,6.0,299.08199,7325.9582,0.0,0.0,0.0,0.0,0.0,-0.1329871402769212,-0.5307945707303455,-0.9439365180242811,-0.7521772748691172,-0.018680866528657983,0.01018747691067569,-0.9086963786888501
13344,6.0,300.50046000000003,7644.6405,0.0,0.0,0.0,0.0,0.0,-0.13299710708650503,-0.5673376281043644,-0.9684182109779361,-0.7880239963769132,-0.04187215001620946,-0.0026399392384417178,-0.8991248534742142
13345,6.0,300.45675,7415.6058,0.0,0.0,0.0,0.0,0.0,-0.1330070738960889,-0.5405643991220525,-0.9320809143017241,-0.7815136719668943,0.02231870999168518,-0.003903689993089206,-0.9061028130703851
13346,6.0,298.6827,7070.1612,0.0,0.0,0.0,0.0,0.0,-0.13301704070567266,-0.5102173965070366,-0.9010563209473351,-0.7378787454204623,-0.01715768210383138,-0.005840518876464334,-0.9142652519009552
13347,6.0,299.70209,7182.0251,0.0,0.0,0.0,0.0,0.0,-0.13302700751525653,-0.5512354121526996,-0.9061324101058061,-0.7257884628422443,0.01076316103449129,0.006553320259462354,-0.9141838068579172
13348,6.0,300.24736,7249.2672,0.0,0.0,0.0,0.0,0.0,-0.13303697432484035,-0.5808055052535404,-0.8936399482978961,-0.7291507711790783,-0.013823707279543688,0.013136901030511187,-0.9522592631531721
13349,6.0,299.77479,7437.7389,0.0,0.0,0.0,0.0,0.0,-0.1330469411344241,-0.5834207240266425,-0.9393226836939311,-0.7381434975390913,0.03222382956324436,0.02911790795221377,-0.9289463440573661
13350,6.0,300.7594,7326.1905,0.0,0.0,0.0,0.0,0.0,-0.13305690794400798,-0.5579426009246474,-0.9210549496285461,-0.7479814366025203,0.02062756720378238,0.01058133229079619,-0.9439365686867861
13351,6.0,301.18478,6950.4122,0.0,0.0,0.0,0.0,0.0,-0.13306687475359175,-0.48418594765793255,-0.9014072195894662,-0.7271585796274643,0.022367247711225478,-0.024647283351247478,-0.9297970485763241
13352,6.0,301.81575,7351.3002,0.0,0.0,0.0,0.0,0.0,-0.13307684156317567,-0.5303902839404455,-0.966813516662065,-0.7374078982314933,-0.006084907809158644,-0.025646068292819874,-0.967650937472212
13353,6.0,300.14661,7757.0858,0.0,0.0,0.0,0.0,0.0,-0.13308680837275944,-0.6019271595505855,-0.9569409447102181,-0.7990922845067683,-0.012600112538284289,-0.012195511640853288,-0.9065798005549601
13354,6.0,300.46072999999996,7414.1461,0.0,0.0,0.0,0.0,0.0,-0.13309677518234325,-0.5611571368668975,-0.9582465883915752,-0.7343115376484063,-0.015117531398484185,0.007440960075040583,-0.9220058341848911
13355,6.0,299.94895,7047.3698,0.0,0.0,0.0,0.0,0.0,-0.13310674199192707,-0.4938918095708265,-0.9015968189481781,-0.7467358077245863,-0.027679977377551075,0.004087378152042816,-0.9165924138031282
13356,6.0,299.75387,7262.1742,0.0,0.0,0.0,0.0,0.0,-0.13311670880151089,-0.5368397626819594,-0.9189252195083581,-0.7517546279874053,0.014067775923881384,0.004252882727351846,-0.9048616728903942
13357,6.0,299.86601,7268.1062,0.0,0.0,0.0,0.0,0.0,-0.13312667561109476,-0.5081852829014825,-0.9567248083313872,-0.7444126886903123,-0.005422323607741675,-0.003121988211241247,-0.9310346018509611
13358,6.0,300.06639,7326.1739,0.0,0.0,0.0,0.0,0.0,-0.13313664242067857,-0.5481390617021135,-0.9337731939562391,-0.7450616753793623,0.015409760833324987,-0.0028675442911795875,-0.9514920909724581
13359,6.0,299.53643,7392.7277,0.0,0.0,0.0,0.0,0.0,-0.13314660923026234,-0.5561566260333854,-0.955083920721944,-0.7359640675014983,-0.0032431187143208973,-0.016804206766696087,-0.9442110277413731
13360,6.0,301.13922,7235.3935,0.0,0.0,0.0,0.0,0.0,-0.1331565760398462,-0.5584112088308955,-0.9129579667544361,-0.7280097806389714,-0.003796491070934496,0.007527089069315853,-0.9646288379889542
13361,6.0,300.22469,7335.8525,0.0,0.0,0.0,0.0,0.0,-0.13316654284942997,-0.5480953703578015,-0.9071178059605571,-0.7747028175772153,-0.016634160095163785,0.0098690783668272,-0.9429799896648792
13362,6.0,300.00632,7527.8614,0.0,0.0,0.0,0.0,0.0,-0.13317650965901384,-0.5851853193407944,-0.9188591556018382,-0.7842374199582073,0.007984357288394712,0.009319288862567202,-0.9240750935391112
13363,6.0,299.87207,7482.2238,0.0,0.0,0.0,0.0,0.0,-0.13318647646859766,-0.5447367401188304,-0.91990170889473,-0.8097707347931492,-0.014013006716226089,-0.014934048017375787,-0.8963007937230011
13364,6.0,299.30762999999996,6958.1066,0.0,0.0,0.0,0.0,0.0,-0.13319644327818148,-0.4856071423806936,-0.9000854550990183,-0.7293980751309853,0.0052661934197078255,-0.015955032255389086,-0.9417726211107211
13365,6.0,298.37417999999997,7007.036999999999,0.0,0.0,0.0,0.0,0.0,-0.1332064100877653,-0.5416048448547365,-0.9004981315997462,-0.6878612956991244,-0.00988063691601794,-0.027557205915934475,-0.9243927981079662
13366,6.0,298.90355,7439.3989,0.0,0.0,0.0,0.0,0.0,-0.1332163768973491,-0.5557705878777864,-0.9358173855029851,-0.7698035304286932,-0.011757825087906989,0.01951897128262248,-0.9250950006922681
13367,6.0,299.46136,7257.9945,0.0,0.0,0.0,0.0,0.0,-0.13322634370693293,-0.5438116731750334,-0.9251829710659502,-0.7372544415038483,-0.040036928130337164,0.02060947460999678,-0.9249379975892732
13368,6.0,300.07765,7296.3042,0.0,0.0,0.0,0.0,0.0,-0.13323631051651674,-0.5200467533421186,-0.9356709809960361,-0.7621765436134682,0.003960032575499786,0.025802373266495975,-0.9418076694316802
13369,6.0,299.66022000000004,7304.6089,0.0,0.0,0.0,0.0,0.0,-0.13324627732610056,-0.5420250498037075,-0.9164609648676552,-0.7619326847119012,-0.008842258314862952,0.008090109086756602,-0.9546833525599111
13370,6.0,300.76142000000004,7147.4961,0.0,0.0,0.0,0.0,0.0,-0.13325624413568443,-0.5176581580863825,-0.9115092926889631,-0.7434928805145342,0.014006181463552488,0.0014810869229218986,-0.9689637954942811
13371,6.0,300.88974,7357.3621,0.0,0.0,0.0,0.0,0.0,-0.1332662109452682,-0.5667955899633694,-0.9088805774245293,-0.7607782078129633,-0.0018598773005555982,0.008623881538735842,-0.9559336727858082
13372,6.0,299.73781,7549.9998,0.0,0.0,0.0,0.0,0.0,-0.133276177754852,-0.5809387577741915,-0.9261493887463281,-0.7879232489194703,-0.02060046377685748,-0.00017512553699604481,-0.9162989259116632
13373,6.0,299.51119,7159.0944,0.0,0.0,0.0,0.0,0.0,-0.13328614456443583,-0.5405510546182355,-0.902778096312261,-0.7328567942148343,0.006643397484077284,-0.006894029759912763,-0.9326630264841741
13374,6.0,300.54407000000003,7112.7199,0.0,0.0,0.0,0.0,0.0,-0.13329611137401964,-0.5033453519438186,-0.9009080419277012,-0.7578358308475733,0.0018989566343874283,-0.002062275730555768,-0.8833131363262191
13375,6.0,301.41697,7455.4757,0.0,0.0,0.0,0.0,0.0,-0.13330607818360352,-0.5360368633027195,-0.978511428271559,-0.7517301579974903,0.017536238420691984,0.01108512935976709,-0.9331732789695321
13376,6.0,300.72265,7512.3901,0.0,0.0,0.0,0.0,0.0,-0.13331604499318733,-0.5813387281186655,-0.944428461080332,-0.7578118168202033,-0.017028429894575182,-0.016796829292717984,-0.9083475166794202
13377,6.0,299.32377,7174.106,0.0,0.0,0.0,0.0,0.0,-0.13332601180277115,-0.5422364644370725,-0.947153212189244,-0.6913593896818593,-0.0006284065662688995,-0.022293663462463278,-0.976834053526015
13378,6.0,299.57221,7059.9695,0.0,0.0,0.0,0.0,0.0,-0.13333597861235497,-0.5219853946259475,-0.9271630441463681,-0.6969060119217684,-0.015971962651309984,0.006578219462119714,-0.9478693266974191
13379,6.0,299.9263,7175.6194,0.0,0.0,0.0,0.0,0.0,-0.13334594542193873,-0.5345283973488455,-0.904059016691178,-0.7426216982110553,0.019557699727944678,0.006274323465627514,-0.9337746023738781
13380,6.0,300.01712000000003,7291.3808,0.0,0.0,0.0,0.0,0.0,-0.1333559122315226,-0.5311232690627855,-0.9365507860578661,-0.7487236524332712,-0.012939520924281288,0.024927577713160377,-0.944596265429393
13381,6.0,298.98855,7435.5109,0.0,0.0,0.0,0.0,0.0,-0.13336587904110642,-0.5505106444886705,-0.938917505243943,-0.7707814890277103,0.008366159045325611,-0.017370160649801382,-0.9486310374600941
13382,6.0,299.27502999999996,7439.7249,0.0,0.0,0.0,0.0,0.0,-0.13337584585069023,-0.5706499528137654,-0.9242972790210391,-0.7665433577019393,-0.00014537415318731188,-0.002257530646025928,-0.9336931877283431
13383,6.0,300.24143,7133.4093,0.0,0.0,0.0,0.0,0.0,-0.13338581266027405,-0.5115875943522645,-0.9355306762546892,-0.7212600353628233,0.009918315127611491,-0.013410480584011385,-0.945071094691255
13384,6.0,299.95358,7404.3889,0.0,0.0,0.0,0.0,0.0,-0.13339577946985787,-0.5685416225356895,-0.933832408292083,-0.7483752970488913,-0.02014354371051298,-0.013002493404746187,-0.934154834606404
13385,6.0,299.7192,7559.0663,0.0,0.0,0.0,0.0,0.0,-0.13340574627944174,-0.5809373493565525,-0.9517443497173541,-0.7650856961080794,0.006319742300035004,-0.01778673208391378,-0.9071163772779162
13386,6.0,299.80447000000004,7195.4317,0.0,0.0,0.0,0.0,0.0,-0.1334157130890255,-0.5171301939892765,-0.944113796261777,-0.7259875766193953,-0.005563527203252385,0.01045744321431929,-0.9177815843854902
13387,6.0,300.56061,7066.8466,0.0,0.0,0.0,0.0,0.0,-0.13342567989860937,-0.47225550528298954,-0.9094474908554792,-0.7664419212344282,0.026266652568316774,0.012584801316023188,-0.9242962455059371
13388,6.0,300.72468,7382.1835,0.0,0.0,0.0,0.0,0.0,-0.13343564670819313,-0.5654913040371465,-0.94019214347224,-0.7383159932361153,-0.008477964202434922,-0.0033429802872014668,-0.927965538225568
13389,6.0,300.22094,7570.3988,0.0,0.0,0.0,0.0,0.0,-0.13344561351777695,-0.5736063632930405,-0.9497581971363361,-0.7778476520450863,-0.007513620341036593,-0.005374288561575985,-0.949107568982124
13390,6.0,300.421,7463.5649,0.0,0.0,0.0,0.0,0.0,-0.13345558032736082,-0.6039594251436544,-0.8970486837543121,-0.7677292554864783,-0.022067254754118477,-0.009359797385665081,-0.931822930693763
13391,6.0,300.07138,7319.0756,0.0,0.0,0.0,0.0,0.0,-0.13346554713694458,-0.5284271220041965,-0.9360512841560691,-0.7603377986569982,0.009884494663123671,0.0001990976360769068,-0.9437699194428391
13392,6.0,298.66027,7112.0828,0.0,0.0,0.0,0.0,0.0,-0.13347551394652846,-0.5250542657338215,-0.8872185264516511,-0.7496227903070093,0.0006829806726174444,0.014252421502854487,-0.919749488332207
13393,6.0,298.44473,7156.8655,0.0,0.0,0.0,0.0,0.0,-0.13348548075611227,-0.5037549988267475,-0.9313792588724761,-0.7403741473692393,0.025500819904234976,-0.008296099184386242,-0.9691851703761292
13394,6.0,298.62612,7381.3816,0.0,0.0,0.0,0.0,0.0,-0.1334954475656961,-0.5834556507575894,-0.930264248064933,-0.7300357843464224,0.028475581356071072,-0.0025770877400387577,-0.9400693780901241
13395,6.0,298.44279,7259.7332,0.0,0.0,0.0,0.0,0.0,-0.1335054143752799,-0.5173095797869804,-0.9216285910401601,-0.7678394565673542,-0.006991117459319573,-0.0054340929129532145,-0.9406398581614261
13396,6.0,299.47517999999997,6832.068,0.0,0.0,0.0,0.0,0.0,-0.13351538118486372,-0.4774676435323876,-0.9158712634419561,-0.6834391784201953,0.0016697847930199283,0.009329229555323271,-0.944906623935023
13397,6.0,299.28087,7080.3563,0.0,0.0,0.0,0.0,0.0,-0.1335253479944476,-0.4742869400109766,-0.9144111497828541,-0.7635534187768552,-0.04039476956215336,-0.017606469824873284,-0.923651899502345
13398,6.0,299.4602,7515.6375,0.0,0.0,0.0,0.0,0.0,-0.13353531480403136,-0.5639893532814154,-0.935799592831229,-0.7847771884189783,-0.007857956770219953,0.007352975313207164,-0.9112045577213881
13399,6.0,300.16167,7410.3994,0.0,0.0,0.0,0.0,0.0,-0.13354528161361517,-0.5284282467118075,-0.955638158394143,-0.7685099748210292,-0.014847564081590487,-0.00998683687489906,-0.9553632839070151
13400,6.0,299.90647,7328.9859,0.0,0.0,0.0,0.0,0.0,-0.133555248423199,-0.5546962489292575,-0.9249438440423501,-0.7481886057179663,0.008799262870719632,0.014630909931958385,-0.9570992650383431
13401,6.0,300.08263999999997,7337.5528,0.0,0.0,0.0,0.0,0.0,-0.1335652152327828,-0.5510732921366995,-0.9329708417320531,-0.7463887087703303,-0.0004607235944373786,0.0001972572091252708,-0.9887384553733881
13402,6.0,300.97528,7342.2638,0.0,0.0,0.0,0.0,0.0,-0.13357518204236668,-0.5905795386331625,-0.9068010133167921,-0.7344843069229573,0.03613595070909067,-0.01182438042072549,-0.9403715292699442
13403,6.0,299.81067,7322.1538,0.0,0.0,0.0,0.0,0.0,-0.1335851488519505,-0.5443421501323875,-0.8940527362561352,-0.7873570447635903,-0.004212749917391046,0.0027121336120417474,-0.9487695284837621
13404,6.0,299.86047,7421.6191,0.0,0.0,0.0,0.0,0.0,-0.1335951156615343,-0.5670889461323215,-0.9388521607449941,-0.7500457918262562,0.02602355157782458,-0.0013760559506811488,-0.8949483176220222
13405,6.0,299.46988,7295.5974,0.0,0.0,0.0,0.0,0.0,-0.13360508247111813,-0.5432126599809155,-0.9033271562764492,-0.7711396324080563,-0.0028050455051364374,0.012351542023752288,-0.9391652955558982
13406,6.0,299.45603,7365.1449,0.0,0.0,0.0,0.0,0.0,-0.1336150492807019,-0.5715028358204384,-0.9182119421004631,-0.7491053538784422,-0.024991573576226275,-0.007207035989379072,-0.9027731820492761
13407,6.0,298.91821,7555.0253,0.0,0.0,0.0,0.0,0.0,-0.13362501609028576,-0.5465742894401825,-0.986292226451964,-0.7636725263261103,-0.025268900128596273,-0.001068520562479769,-0.9613276185006492
13408,6.0,299.55396,7459.9273,0.0,0.0,0.0,0.0,0.0,-0.13363498289986958,-0.5837053054497284,-0.9181296459273413,-0.7657966835707483,-0.032864905808763674,0.016592072725760083,-0.9169785532837371
13409,6.0,299.91726,7118.3348,0.0,0.0,0.0,0.0,0.0,-0.1336449497094534,-0.46677383237449055,-0.9699843916575062,-0.7270378204805463,-0.005955063456544004,0.011323990911840888,-0.9882572223708941
13410,6.0,300.8677,7125.4361,0.0,0.0,0.0,0.0,0.0,-0.13365491651903721,-0.5365716465729985,-0.9005123069686453,-0.7288706885864362,0.025796297818896377,-0.024447007376231775,-0.927499129072037
13411,6.0,300.49998999999997,7226.1922,0.0,0.0,0.0,0.0,0.0,-0.13366488332862103,-0.5254557356884435,-0.9177074448756731,-0.7534188102166473,0.028504166154642175,-0.001004950335383376,-0.957133462229218
13412,6.0,299.80576,7224.9942,0.0,0.0,0.0,0.0,0.0,-0.13367485013820485,-0.5512409242332436,-0.9265353661069211,-0.7184415282221583,0.011507134854165789,0.020839366872185378,-0.9717095715427682
13413,6.0,300.48489,7450.8543,0.0,0.0,0.0,0.0,0.0,-0.13368481694778866,-0.5563931186067255,-0.921858467090347,-0.7866220838035552,0.014954708186914788,0.006536448632047254,-0.958648301526221
13414,6.0,300.21976,7460.6267,0.0,0.0,0.0,0.0,0.0,-0.13369478375737248,-0.5996808955363964,-0.9181826693050741,-0.7499806499773273,-0.03158871021506297,-0.004012781159805666,-0.9275371360832881
13415,6.0,299.64149,7187.9245,0.0,0.0,0.0,0.0,0.0,-0.13370475056695635,-0.5088719726267535,-0.936623618475054,-0.7394539744234253,-0.03145622067173726,-0.0011430576716360088,-0.939882048411636
13416,6.0,299.60098,7363.6947,0.0,0.0,0.0,0.0,0.0,-0.13371471737654012,-0.5644701607188675,-0.9254455041668602,-0.7484636524576113,-0.015913620723802088,-0.0032867253509245363,-0.9155164840519421
13417,6.0,299.84736000000004,7469.7916,0.0,0.0,0.0,0.0,0.0,-0.133724684186124,-0.5436189530060135,-0.9780722552807161,-0.7489389174170162,-0.0012932354206323987,0.006050730883285644,-0.9390474039067631
13418,6.0,299.4626,7334.4035,0.0,0.0,0.0,0.0,0.0,-0.13373465099570775,-0.5634444375101365,-0.9498163779570781,-0.7162147186098894,-0.007781957845144441,-0.022681020869692477,-0.9322701691554022
13419,6.0,299.92682,7188.6026,0.0,0.0,0.0,0.0,0.0,-0.13374461780529157,-0.5155548129987985,-0.919867987931402,-0.7497328900628752,0.008372922793718143,0.0015759127441304786,-0.9328930342568741
13420,6.0,298.96909,7366.0931,0.0,0.0,0.0,0.0,0.0,-0.13375458461487544,-0.5804924211051414,-0.9295334819603122,-0.7290824679898373,-0.015469713828491884,0.004724942878015555,-0.9352069327152381
13421,6.0,299.89052999999996,7535.9652,0.0,0.0,0.0,0.0,0.0,-0.13376455142445925,-0.5379647033404825,-0.9286881780643871,-0.8240923663440841,0.01783291804997198,0.017664406452341182,-0.9177360590584971
13422,6.0,300.74765,7472.4662,0.0,0.0,0.0,0.0,0.0,-0.13377451823404307,-0.5934223333787245,-0.914967039052716,-0.7630537648875433,-0.013346954868991887,-0.02054519807665318,-0.9181618064855152
13423,6.0,299.93096,7550.1496,0.0,0.0,0.0,0.0,0.0,-0.1337844850436269,-0.5519722780229225,-0.9443856208661042,-0.7986990522754591,0.01245680351039079,0.004601622032194735,-0.927100080785154
13424,6.0,301.00605,7369.5988,0.0,0.0,0.0,0.0,0.0,-0.13379445185321065,-0.5818486259664885,-0.9005493513923012,-0.7577760389591723,-0.012112978367207887,0.0028583521875973975,-0.9379311062715932
13425,6.0,301.14162999999996,7212.0584,0.0,0.0,0.0,0.0,0.0,-0.13380441866279458,-0.4975522262195815,-0.9593092546989521,-0.7354241977157173,0.0064776502353693045,0.010202666542924791,-0.9689234276102971
13426,6.0,299.94585,7327.3474,0.0,0.0,0.0,0.0,0.0,-0.13381438547237834,-0.5611292927541495,-0.932996558019591,-0.7332047949616793,-0.007451493823080182,-0.024940507797686477,-0.93922864395215
13427,6.0,300.38419,7377.9059,0.0,0.0,0.0,0.0,0.0,-0.1338243522819622,-0.5216155583394475,-0.9612909287145281,-0.7597926701031983,0.018739539788948583,-0.01321437311990709,-0.9460741616277502
13428,6.0,300.23762999999997,7052.3903,0.0,0.0,0.0,0.0,0.0,-0.13383431909154597,-0.5439868843823256,-0.915077797421147,-0.6846858610782334,0.023597591711400977,-0.01849056194787638,-0.9489166118682781
13429,6.0,300.11412,7218.196999999999,0.0,0.0,0.0,0.0,0.0,-0.1338442859011298,-0.5260004994722075,-0.9092209686631232,-0.7589301713530763,0.0013601175266081487,0.004473177383268236,-0.946439732131329
13430,6.0,300.3169,7430.806,0.0,0.0,0.0,0.0,0.0,-0.13385425271071366,-0.5649294973867005,-0.9437123364396561,-0.7501376328153203,-0.007290400938706554,0.004009159094673196,-0.925508356070563
13431,6.0,299.45569,7251.5639,0.0,0.0,0.0,0.0,0.0,-0.13386421952029748,-0.5152372198874545,-0.9221274039318892,-0.7669297403625723,-0.014021772342841186,0.02380811063167758,-0.951319291300404
13432,6.0,298.43613,7383.596,0.0,0.0,0.0,0.0,0.0,-0.1338741863298813,-0.5473811506273134,-0.9092131463723511,-0.7878345186082132,-0.002349922032544248,0.015048574662928684,-0.9222268746942062
13433,6.0,299.70755,7527.3537,0.0,0.0,0.0,0.0,0.0,-0.1338841531394651,-0.5626653697732484,-0.9427256436247772,-0.7827365635125842,0.00887096875644645,-0.017906799181013483,-0.9445170698015772
13434,6.0,299.32506,7289.7738,0.0,0.0,0.0,0.0,0.0,-0.13389411994904887,-0.5786249403758355,-0.8953825966148823,-0.7419016826899953,0.03254252103769677,-0.021789858287491578,-0.916941833100113
13435,6.0,300.34888,7157.7318,0.0,0.0,0.0,0.0,0.0,-0.13390408675863275,-0.5382688202254965,-0.9051676744205941,-0.7323352439908613,-0.005345359257970885,-0.007299540758583582,-0.940068820802569
13436,6.0,299.87389,7430.8582,0.0,0.0,0.0,0.0,0.0,-0.13391405356821656,-0.5812041482403835,-0.9328807637981631,-0.7447104423646983,0.018279225334769084,-0.0013895370406116288,-0.9300832815970731
13437,6.0,300.84087,7426.4159,0.0,0.0,0.0,0.0,0.0,-0.13392402037780043,-0.5517038883364345,-0.9168036156539722,-0.7889374920045683,-0.04056351826030756,-0.004106609638940817,-0.9364471001751331
13438,6.0,300.13335,7363.5539,0.0,0.0,0.0,0.0,0.0,-0.1339339871873842,-0.5235476134976266,-0.96726952986957,-0.7475193742919183,0.0005026250729777325,0.006689384447815844,-0.9263515422737791
13439,6.0,299.79036,7437.9016,0.0,0.0,0.0,0.0,0.0,-0.133943953996968,-0.5430869764385114,-0.945820403272706,-0.7720289924183293,-0.03184806779015957,0.0012055393337524689,-0.9196737782847351
13440,6.0,300.16167,7508.4864,0.0,0.0,0.0,0.0,0.0,-0.13395392080655183,-0.5965235575622914,-0.9314800772574262,-0.7543887337423713,0.015489577583452284,0.012507644347408387,-0.9095890317619482
13441,6.0,298.83137999999997,7275.9943,0.0,0.0,0.0,0.0,0.0,-0.13396388761613565,-0.5420540490215694,-0.938997298689318,-0.7306692480439404,0.007273413294155003,0.00033263670385618675,-0.9526258975693561
13442,6.0,297.93206000000004,7429.2341,0.0,0.0,0.0,0.0,0.0,-0.13397385442571952,-0.5743497038314025,-0.9116074462261502,-0.7723445083669682,0.03959156722113347,-0.011372171967345988,-0.9281897907377001
13443,6.0,297.90783,7549.7436,0.0,0.0,0.0,0.0,0.0,-0.13398382123530334,-0.5246502525214485,-0.982728088827711,-0.7875552060856472,0.0006465908085260443,0.018382947694505682,-0.9708436986698131
13444,6.0,299.92836,7263.7312,0.0,0.0,0.0,0.0,0.0,-0.1339937880448871,-0.5249388970774355,-0.9181949701612881,-0.7648590320607093,0.0012224323407446789,-0.003903907943185716,-0.9524352342980391
13445,6.0,299.88507000000004,7209.3823,0.0,0.0,0.0,0.0,0.0,-0.13400375485447097,-0.5254352376389205,-0.9161537677023371,-0.7498831955827092,-0.009468837687226521,-0.019556885074864284,-0.9589877909722261
13446,6.0,299.79267999999996,7402.2911,0.0,0.0,0.0,0.0,0.0,-0.13401372166405473,-0.5845482484729204,-0.9484704170542422,-0.7170930037965693,0.003168182891250307,-0.015270901999870684,-0.9340411580776851
13447,6.0,299.64362,7150.1075,0.0,0.0,0.0,0.0,0.0,-0.1340236884736386,-0.5088671596887786,-0.9164221472563241,-0.7481648247381193,0.021954251023465876,0.008209113993776471,-0.9379514827311042
13448,6.0,300.75746000000004,7264.3428,0.0,0.0,0.0,0.0,0.0,-0.13403365528322242,-0.5462118296144105,-0.9475932160451691,-0.7143737749007023,-0.004113252911896456,-0.00938639124911469,-0.9462188537420302
13449,6.0,300.59996,7568.4158,0.0,0.0,0.0,0.0,0.0,-0.13404362209280624,-0.5272928594447536,-0.9616359201085761,-0.8116806301716413,-0.0097265748727632,-0.0020562104154571684,-0.9220454319987991
13450,6.0,299.49102999999997,7376.9491,0.0,0.0,0.0,0.0,0.0,-0.13405358890239005,-0.5552859199574535,-0.934916028611528,-0.7522063754119893,-0.013054584592387187,-0.0033870926369300165,-0.9641704740412171
13451,6.0,299.92113,7152.3806,0.0,0.0,0.0,0.0,0.0,-0.13406355571197387,-0.5125896379061585,-0.9251297349056962,-0.7364257447770622,-0.002018670917802308,0.02223388373306348,-0.9336638541379482
13452,6.0,300.61267000000004,7541.9617,0.0,0.0,0.0,0.0,0.0,-0.13407352252155774,-0.6043410151313144,-0.928211636409856,-0.7600153926076793,-0.015802195636805287,0.003380126137192477,-0.9497844707114291
13453,6.0,299.71637000000004,7516.9071,0.0,0.0,0.0,0.0,0.0,-0.1340834893311415,-0.5883921039197795,-0.935185725390645,-0.7613742116542843,0.007278523621034352,-0.014160882462320288,-0.8996554013590752
13454,6.0,299.17037,7162.4571,0.0,0.0,0.0,0.0,0.0,-0.13409345614072532,-0.5601348789735086,-0.8891241965772262,-0.7279490160304742,-0.011730393367949688,-0.015708278498286384,-0.9585143903930051
13455,6.0,299.33072999999996,7402.4248,0.0,0.0,0.0,0.0,0.0,-0.1341034229503092,-0.5174950957477895,-0.9347796654130701,-0.7978775192268802,-0.008081187318301092,-0.0026220710795532673,-0.9193600760537751
13456,6.0,298.3897,7527.8977,0.0,0.0,0.0,0.0,0.0,-0.13411338975989295,-0.5752928876869875,-0.9419456234327951,-0.7710544282071472,-0.032828556474676265,-0.013482614871880488,-0.95501629641027
13457,6.0,300.28339,7434.1597,0.0,0.0,0.0,0.0,0.0,-0.13412335656947683,-0.5592584176370085,-0.9265587924492331,-0.7739817077460472,0.012258901580359386,0.009192016442681392,-0.9021422920070122
13458,6.0,301.24343,7295.3085,0.0,0.0,0.0,0.0,0.0,-0.1341333233790606,-0.5687514767639004,-0.9237333648103851,-0.7251067785724673,0.0024431190542170775,0.001026662390248689,-0.9429690262987972
13459,6.0,300.11896,7170.7523,0.0,0.0,0.0,0.0,0.0,-0.1341432901886444,-0.5145920024887765,-0.9386783782203432,-0.7264592445409453,0.03966994414286867,0.005468312901955465,-0.9189997136557101
13460,6.0,301.46259,7211.5085,0.0,0.0,0.0,0.0,0.0,-0.13415325699822828,-0.5182169148540275,-0.9324325120864241,-0.7414690755598002,0.002035981282510708,-0.015211996705307184,-0.951055734816893
13461,6.0,300.81937,7493.7695,0.0,0.0,0.0,0.0,0.0,-0.1341632238078121,-0.49265363821362856,-0.983548061471136,-0.8017171088908183,-0.0027545767335555573,0.0018011830659879283,-0.9454977439108622
13462,6.0,298.82836000000003,7387.1257,0.0,0.0,0.0,0.0,0.0,-0.1341731906173959,-0.5619799466106025,-0.9235434918741461,-0.7599783177865203,-0.004037041812250006,-0.016943674563460482,-0.9515083232390601
13463,6.0,299.95623,7174.7085,0.0,0.0,0.0,0.0,0.0,-0.13418315742697973,-0.5135481319707546,-0.9143124288256111,-0.7530716707323873,-0.004787859933699986,0.03133725295099607,-0.9499249071752891
13464,6.0,299.78154,6898.7188,0.0,0.0,0.0,0.0,0.0,-0.1341931242365635,-0.5130809628796485,-0.8914863054753482,-0.6924709757040644,-0.00936641532736822,0.02276940363616518,-0.963712474863516
13465,6.0,299.75067,7242.4947,0.0,0.0,0.0,0.0,0.0,-0.13420309104614742,-0.5729093080192464,-0.8807204927653453,-0.7479077530552484,-0.005028156045265365,-0.005653663601673155,-0.9082843709331881
13466,6.0,300.98161,7567.1665,0.0,0.0,0.0,0.0,0.0,-0.13421305785573118,-0.6116479972999573,-0.9417238432509071,-0.7468578131691272,0.014088523232928987,-0.00037192259885340264,-0.929770025196157
13467,6.0,300.79667,7285.5359,0.0,0.0,0.0,0.0,0.0,-0.134223024665315,-0.5318042744549955,-0.9221618848327922,-0.7606548446132884,-0.007987915620095893,-0.01003599186640028,-0.9325172501922872
13468,6.0,300.21668,7314.357,0.0,0.0,0.0,0.0,0.0,-0.1342329914748988,-0.5353250145774655,-0.9485640818934862,-0.7394928021672573,0.02764815524491047,-0.0015283052895069885,-0.928342203817742
13469,6.0,301.63409,7509.6861,0.0,0.0,0.0,0.0,0.0,-0.13424295828448263,-0.5734452666596415,-0.950637819813148,-0.7586739609327903,-0.029627804786786675,-0.008880243541236801,-0.9245347139169721
13470,6.0,300.82858999999996,7533.6208,0.0,0.0,0.0,0.0,0.0,-0.1342529250940665,-0.5912408464434284,-0.9324919493372902,-0.7662998230404042,0.01920752859938548,-0.004850734432880215,-0.9269111805690111
13471,6.0,301.15378,7452.9226,0.0,0.0,0.0,0.0,0.0,-0.13426289190365032,-0.5807677414223135,-0.9306151973695691,-0.7541194523957953,-0.004145123883191876,-0.002487797304126478,-0.9209833027139751
13472,6.0,299.91196,7236.5185,0.0,0.0,0.0,0.0,0.0,-0.13427285871323413,-0.5010935454515826,-0.9240307233172321,-0.7745966694967392,0.015607559411846184,0.023911904932171275,-0.946921258976352
13473,6.0,299.93737999999996,6997.1077,0.0,0.0,0.0,0.0,0.0,-0.13428282552281795,-0.4806933961532445,-0.8974658286879811,-0.7487867981795032,0.0014978355417748584,-0.007354207222678743,-0.9503253030848052
13474,6.0,299.81232,7260.9197,0.0,0.0,0.0,0.0,0.0,-0.1342927923324017,-0.5337565034226655,-0.9345105259215082,-0.7388712542909153,0.005767632757021035,0.0023216702892810176,-0.961373893632716
13475,6.0,299.80818,7476.1382,0.0,0.0,0.0,0.0,0.0,-0.13430275914198558,-0.5692450308876105,-0.9401051863486581,-0.7632091163928753,-0.008651094801971583,0.01983322573488698,-0.9419085891416401
13476,6.0,299.87878,7245.2129,0.0,0.0,0.0,0.0,0.0,-0.1343127259515694,-0.5401891520800185,-0.942895373149028,-0.7192792631398363,0.025308140265218975,0.013264462125350488,-0.9587484005036001
13477,6.0,299.94817,7239.7115,0.0,0.0,0.0,0.0,0.0,-0.13432269276115322,-0.5227705114659326,-0.948851166044319,-0.7290698530260923,-0.0005453670931385415,-0.02019532281712318,-0.9649306547962411
13478,6.0,300.12224,7613.0597,0.0,0.0,0.0,0.0,0.0,-0.13433265957073703,-0.5611281072515325,-0.966705828441437,-0.7863461048738183,0.01942647066774338,-0.02247338667245058,-0.9544903790783661
13479,6.0,300.00423,7657.6122,0.0,0.0,0.0,0.0,0.0,-0.13434262638032085,-0.5690103317669475,-0.987649920790958,-0.7710626557979592,-0.008231713118706832,-0.015384623111594088,-0.9526946465886411
13480,6.0,299.10466,7359.8073,0.0,0.0,0.0,0.0,0.0,-0.13435259318990467,-0.5337370794182484,-0.9461614733888671,-0.7572990717395993,0.0019117306783981282,0.015533889036825484,-0.9406154590990182
13481,6.0,297.99969,7166.9019,0.0,0.0,0.0,0.0,0.0,-0.13436255999948848,-0.5091603030752095,-0.9410687162662511,-0.7283302007180943,-0.02001231262381148,-0.021947802699829478,-0.927393659869128
13482,6.0,298.79226,7147.4966,0.0,0.0,0.0,0.0,0.0,-0.13437252680907236,-0.5684858937801894,-0.8949804376501922,-0.7091941619795143,0.008208178763934173,0.006946146785431312,-0.9183332180049322
13483,6.0,300.45952,7331.2879,0.0,0.0,0.0,0.0,0.0,-0.13438249361865617,-0.5605083021653624,-0.89994605215026,-0.7680741151580133,0.007214856456300893,0.01009429417582927,-0.9110892295950062
13484,6.0,299.40307,7333.5133,0.0,0.0,0.0,0.0,0.0,-0.13439246042823993,-0.5451870892582764,-0.9149986625883372,-0.7690191532612812,0.013690141664611789,0.022436557057815776,-0.9347324986209151
13485,6.0,298.77795,7395.9877,0.0,0.0,0.0,0.0,0.0,-0.13440242723782375,-0.5691857152267564,-0.9258979406015121,-0.7531119372913613,0.01089030365703929,-0.010451921001274291,-0.946611326035764
13486,6.0,299.75451,7521.0591,0.0,0.0,0.0,0.0,0.0,-0.13441239404740757,-0.5797336285027545,-0.9395783469591631,-0.7669022103573553,-0.007534218094369433,-0.0028839523566739373,-0.9696141298059641
13487,6.0,300.49097,7628.1881,0.0,0.0,0.0,0.0,0.0,-0.13442236085699144,-0.5957720704931254,-0.946526993229941,-0.7764796529525753,-0.005384451358753975,0.01155735963512259,-0.9370737244344761
13488,6.0,300.51455,7547.3969,0.0,0.0,0.0,0.0,0.0,-0.13443232766657526,-0.5849753029925675,-0.948303018005221,-0.7609418679691153,-0.024901359866822875,0.020481001590067483,-0.936298689432986
13489,6.0,299.88948,7207.391,0.0,0.0,0.0,0.0,0.0,-0.13444229447615907,-0.5078331683592315,-0.9396521824939501,-0.7433815344610453,0.006206574422866204,0.012654561558907988,-0.9133225442729173
13490,6.0,299.99306,7025.3634,0.0,0.0,0.0,0.0,0.0,-0.1344522612857429,-0.47538678246452254,-0.9339213615183622,-0.7262268961605143,-0.027049191700047374,-0.01030102475663199,-0.9633179862020831
13491,6.0,300.74827,7380.0176,0.0,0.0,0.0,0.0,0.0,-0.1344622280953267,-0.5463098007665795,-0.9426224947645971,-0.7544087758293493,0.016614769528000083,0.005591631214651035,-0.9246660716599362
13492,6.0,300.44631,7329.6838,0.0,0.0,0.0,0.0,0.0,-0.13447219490491058,-0.5330627918742015,-0.9463744078973821,-0.7486036430914272,-0.005220228443496435,0.025725748254183677,-0.9721468497559241
13493,6.0,299.0867,7245.3852,0.0,0.0,0.0,0.0,0.0,-0.13448216171449434,-0.5205925303759825,-0.949135747467405,-0.7326878955556653,0.026060588908729875,-0.006604652421453444,-0.9386692893669462
13494,6.0,299.37169,7312.7807,0.0,0.0,0.0,0.0,0.0,-0.13449212852407816,-0.5350995259002115,-0.9329119111062371,-0.7548912855269692,0.009051429409856532,-0.00914646274468559,-0.9496158962922921
13495,6.0,299.29281000000003,7383.0335,0.0,0.0,0.0,0.0,0.0,-0.13450209533366198,-0.5143487110072655,-0.9555747289378831,-0.7743343998408553,0.02040508483957508,0.01030052826408299,-0.9432120847327851
13496,6.0,300.19932,7550.8099,0.0,0.0,0.0,0.0,0.0,-0.1345120621432458,-0.5700025163973684,-0.9426164456615002,-0.7826387038179262,-0.008158052166912061,0.03044491803842947,-0.9458885240769292
13497,6.0,300.50125,7597.6036,0.0,0.0,0.0,0.0,0.0,-0.13452202895282966,-0.5801718895685075,-0.9491760241588801,-0.7801338685107182,-0.02133080026343608,-0.014672115773775087,-0.936480699548449
13498,6.0,299.98466,7318.5071,0.0,0.0,0.0,0.0,0.0,-0.13453199576241343,-0.5589259094841924,-0.9425084230683392,-0.7232090928576803,-0.032119083820906766,-0.013982884817253285,-0.9560785270201041
13499,6.0,300.85345,7136.0917,0.0,0.0,0.0,0.0,0.0,-0.13454196257199724,-0.5332490373750826,-0.9016073770142201,-0.7343372742009463,0.001980307647816148,-0.017093964884542984,-0.924615095047405
13500,6.0,300.42132999999995,7198.4743,0.0,0.0,0.0,0.0,0.0,-0.13455192938158111,-0.5606464486839965,-0.8982260398405082,-0.7292839426397213,0.00996621368898871,0.015420664417651086,-0.9078509836004162
13501,6.0,299.84091,7407.4185,0.0,0.0,0.0,0.0,0.0,-0.13456189619116493,-0.5443553831786935,-0.9254917185039211,-0.7818231489449373,0.009566814412271071,0.0023885483422563677,-0.9127990688737542
13502,6.0,299.90202999999997,7320.3148,0.0,0.0,0.0,0.0,0.0,-0.13457186300074875,-0.5428578501933985,-0.9290734562824111,-0.7532616044636323,0.0023763708999045476,-0.015227768956363786,-0.937178160122283
13503,6.0,299.7571,7275.0602,0.0,0.0,0.0,0.0,0.0,-0.13458182981033256,-0.5515407753353365,-0.945070679258714,-0.7148251879527534,-0.006549559581716204,0.016177374791082586,-0.95383393486858
13504,6.0,298.4411,7504.7419,0.0,0.0,0.0,0.0,0.0,-0.13459179661991633,-0.5637807757483304,-0.954062564621144,-0.7634108038252804,0.009314138107008861,0.02233809853234868,-0.936675476615172
13505,6.0,299.20622000000003,7533.7781,0.0,0.0,0.0,0.0,0.0,-0.1346017634295002,-0.5895161225207115,-0.9433003489489961,-0.7572639524911333,-0.005768244557431415,-0.018907973366321683,-0.9383374499591961
13506,6.0,298.95164,7469.0008,0.0,0.0,0.0,0.0,0.0,-0.13461173023908402,-0.5422028549312555,-0.9622524219994201,-0.7659344653193463,-0.010813889400747791,-0.013685715788174986,-0.943794237445239
13507,6.0,300.18967999999995,7305.2018,0.0,0.0,0.0,0.0,0.0,-0.13462169704866783,-0.5419208268984215,-0.9220600835952452,-0.7566180156848843,-0.003297346238472737,-0.007712579394897323,-0.9485107038782182
13508,6.0,299.91747000000004,7052.2947,0.0,0.0,0.0,0.0,0.0,-0.13463166385825165,-0.5113804252368185,-0.9128226066735771,-0.7195184509584422,0.018206989721889985,0.02989107857351977,-0.9559156673315311
13509,6.0,300.07473,7156.7601,0.0,0.0,0.0,0.0,0.0,-0.13464163066783547,-0.5553495520637335,-0.922917293179845,-0.6972095208567224,-0.029398358354642072,0.016327775556425984,-0.9683594222071341
13510,6.0,300.11224,7451.5726,0.0,0.0,0.0,0.0,0.0,-0.13465159747741934,-0.5550419698633775,-0.9578843616133261,-0.7521656528904702,-0.025824649569944475,0.012719016424269187,-0.9547711000185711
13511,6.0,299.70666,7361.9497,0.0,0.0,0.0,0.0,0.0,-0.1346615642870031,-0.5432069553828525,-0.9631662925296122,-0.7314756228710233,-0.027995760824216474,0.025943983073971773,-0.945033411920036
13512,6.0,300.12111,7153.7051,0.0,0.0,0.0,0.0,0.0,-0.13467153109658697,-0.4660518714132386,-0.9442154049818051,-0.7642804561211083,-0.0028414669826309575,0.02343996647284458,-0.936781888140674
13513,6.0,300.50081,7399.6164,0.0,0.0,0.0,0.0,0.0,-0.13468149790617073,-0.5265781634867185,-0.9462614203787311,-0.7764590434455412,0.008838463895888472,-0.025001167028173076,-0.924021634463835
13514,6.0,299.52173,7657.4919,0.0,0.0,0.0,0.0,0.0,-0.13469146471575455,-0.5826921870722415,-0.960915012927428,-0.7840791198950843,-0.0029563877824727576,-0.04113126356958967,-0.9400598940691882
13515,6.0,299.68253,7520.1358,0.0,0.0,0.0,0.0,0.0,-0.13470143152533842,-0.6129473284331914,-0.9240091410901021,-0.7489770358857784,0.0028841100183894974,-0.006742442985327314,-0.9432231291588751
13516,6.0,299.63027999999997,7271.5956,0.0,0.0,0.0,0.0,0.0,-0.13471139833492224,-0.5386887110669365,-0.9216820501154361,-0.7500127193429923,0.00903817761842368,0.025151881901047477,-0.9518564962384222
13517,6.0,298.21584,7187.8769,0.0,0.0,0.0,0.0,0.0,-0.13472136514450606,-0.5505609928861396,-0.8775231212797892,-0.7568509821478763,0.007184859896365464,0.016204623112771783,-0.9181584424951832
13518,6.0,299.91051,7430.8202,0.0,0.0,0.0,0.0,0.0,-0.13473133195408987,-0.5335744426446974,-0.9306793664984021,-0.7945299739440033,-0.017655716819483584,-0.024918884027302374,-0.933719724748462
13519,6.0,299.89735,7614.0228,0.0,0.0,0.0,0.0,0.0,-0.1347412987636737,-0.5855416591359625,-0.9340154721876501,-0.7949156878595702,-0.006778643067674983,-0.006798067984017073,-0.9237660421261101
13520,6.0,299.09488,7392.1824,0.0,0.0,0.0,0.0,0.0,-0.1347512655732575,-0.5839691760407705,-0.9158145315688572,-0.7472551794608443,-0.0063460802165093535,0.014696284828410384,-0.9297660633882661
13521,6.0,300.76987,7348.6899,0.0,0.0,0.0,0.0,0.0,-0.13476123238284132,-0.5613878741796694,-0.9585105907051301,-0.7139197679283954,0.007531943449219942,0.006653853313184193,-0.9350290059976781
13522,6.0,301.0447,7585.8468,0.0,0.0,0.0,0.0,0.0,-0.1347711991924252,-0.5592639297175525,-0.9636504335598931,-0.7829936453279562,0.014940704057282686,-0.024118127672023877,-0.9438680527150242
13523,6.0,299.63086,7779.2908,0.0,0.0,0.0,0.0,0.0,-0.13478116600200896,-0.5655504879754875,-0.989939855884457,-0.8092198003162763,0.03166044325589247,-0.008613286691715212,-0.9475926688901151
13524,6.0,300.41087000000005,7503.8382,0.0,0.0,0.0,0.0,0.0,-0.13479113281159277,-0.4924595602894746,-0.980768787374343,-0.8077510740313242,0.023868846869171775,0.003027971774212547,-0.9442298133982271
13525,6.0,300.29727,7126.2822,0.0,0.0,0.0,0.0,0.0,-0.1348010996211766,-0.5062606852640396,-0.9153123242892932,-0.7446388562451333,0.015524344220883484,-0.017704226168021083,-0.9422352407088781
13526,6.0,300.62541,7174.2432,0.0,0.0,0.0,0.0,0.0,-0.1348110664307604,-0.5207603549900455,-0.93895800485044,-0.7210724118418063,0.01691190106682468,-0.031003376910545073,-0.968511359059629
13527,6.0,299.96542999999997,7433.9154,0.0,0.0,0.0,0.0,0.0,-0.13482103324034428,-0.5929661276537005,-0.9335506842342791,-0.7332078549769813,-0.005204460954715304,-0.0026822200372895078,-0.9591940177650791
13528,6.0,300.36761,7409.793000000001,0.0,0.0,0.0,0.0,0.0,-0.1348310000499281,-0.5592002773462704,-0.9402097436264771,-0.7529820386285413,-0.003109302117339227,-0.012053772137364688,-0.9675083427856391
13529,6.0,299.36832000000004,7343.6022,0.0,0.0,0.0,0.0,0.0,-0.13484096685951186,-0.5267813606617725,-0.9389052246527311,-0.7665851036060592,-0.013142422230306088,-0.005155103009219055,-0.9503924916989361
13530,6.0,299.14653,7573.0511,0.0,0.0,0.0,0.0,0.0,-0.13485093366909573,-0.5464036885208455,-0.938737886398716,-0.8168768705269702,-0.02596749148954187,-0.022551249876385078,-0.9304353049468151
13531,6.0,298.84679,7608.7849,0.0,0.0,0.0,0.0,0.0,-0.1348609004786795,-0.6067145433580634,-0.9544606401879311,-0.7517054144300482,0.009139486011122043,0.005035475763987766,-0.925361191626039
13532,6.0,299.44096,7629.6256,0.0,0.0,0.0,0.0,0.0,-0.13487086728826342,-0.5988424108136444,-0.967016450392093,-0.7533568094430283,-0.007087067582839113,0.014995199687410985,-0.9182741252591
13533,6.0,299.96041,7537.7033,0.0,0.0,0.0,0.0,0.0,-0.13488083409784718,-0.6103737035766944,-0.9402741762003362,-0.7406256968390653,0.011684949100964688,0.025304092331069478,-0.9236874139183502
13534,6.0,300.38884,7303.6754,0.0,0.0,0.0,0.0,0.0,-0.134890800907431,-0.5480575963940735,-0.9335567130723741,-0.7385206393588123,-0.02028856107807508,-0.011734962112650588,-0.9328706110321612
13535,6.0,300.41059,7212.8506,0.0,0.0,0.0,0.0,0.0,-0.1349007677170148,-0.5438312289019634,-0.90324377592572,-0.7454514726928323,0.008153951341107343,0.01180838728114709,-0.9496447536551401
13536,6.0,300.21921000000003,7418.9189,0.0,0.0,0.0,0.0,0.0,-0.13491073452659863,-0.5235203874674396,-0.9455367236422091,-0.7861089942179172,0.0001776462397998188,-0.008013920886562413,-0.919220419792492
13537,6.0,300.77817000000005,7497.2186,0.0,0.0,0.0,0.0,0.0,-0.1349207013361825,-0.5598531245182015,-0.9647743407033141,-0.7543397734975392,0.006624827548169574,-0.0012533349489195287,-0.9661039680145381
13538,6.0,300.06387,7394.5508,0.0,0.0,0.0,0.0,0.0,-0.13493066814576632,-0.5372859777609975,-0.9376925466680491,-0.7727802667049744,-0.01817365278034988,-0.013225157140721385,-0.935097197729408
13539,6.0,299.27769,7413.0374,0.0,0.0,0.0,0.0,0.0,-0.13494063495535008,-0.5731324864862725,-0.946844951111321,-0.7334008487235283,-0.0039925017696542464,0.013173395259362888,-0.9737744232590531
13540,6.0,298.63345,7392.0436,0.0,0.0,0.0,0.0,0.0,-0.13495060176493395,-0.5519398844172255,-0.9204826862370681,-0.7745741044170122,-0.008726402487828872,0.021498564082493083,-0.9293981218794531
13541,6.0,300.06687999999997,7380.0795,0.0,0.0,0.0,0.0,0.0,-0.13496056857451771,-0.5509539718049234,-0.9485859073006401,-0.7438200184418203,-0.03357535219587927,0.01902024857015238,-0.9570088223344171
13542,6.0,299.73389,7354.8845,0.0,0.0,0.0,0.0,0.0,-0.1349705353841016,-0.5139381724642486,-0.957864187803835,-0.7638988863984503,-0.02061386299617988,-0.028590599427922476,-0.94511907208349
13543,6.0,298.9199,7339.1239,0.0,0.0,0.0,0.0,0.0,-0.1349805021936854,-0.5705002856414945,-0.9353708867139191,-0.7250392150557993,-0.026208076580035773,0.015939533581859483,-0.955644491207268
13544,6.0,299.03036000000003,7338.2796,0.0,0.0,0.0,0.0,0.0,-0.13499046900326916,-0.5296425256316475,-0.962577077463961,-0.7384341685952783,0.0008902809836863923,0.014100761267636786,-0.9435442990430721
13545,6.0,300.49719,7338.7229,0.0,0.0,0.0,0.0,0.0,-0.13500043581285304,-0.5601947113919135,-0.9476785823660941,-0.7229152097986763,-0.006227599058466175,0.008742783296895531,-0.9514591502117071
13546,6.0,300.51607,7348.6924,0.0,0.0,0.0,0.0,0.0,-0.13501040262243685,-0.5262165953210345,-0.9399062245590221,-0.7676961728707132,0.018019932607678882,-0.0074054850744644735,-0.9299325099821931
13547,6.0,300.01316,7249.6168,0.0,0.0,0.0,0.0,0.0,-0.13502036943202067,-0.5513536483068684,-0.9172611588691281,-0.7350876872250063,0.005058736541233426,0.01240164521469709,-0.957763541671402
13548,6.0,300.56915,7373.8603,0.0,0.0,0.0,0.0,0.0,-0.1350303362416045,-0.5429096475385105,-0.903870177270041,-0.7946895912322562,0.022085150777384682,-0.013939582560979687,-0.9158376640686402
13549,6.0,300.02873,7603.0393,0.0,0.0,0.0,0.0,0.0,-0.1350403030511883,-0.6047404585857364,-0.9277735881266241,-0.7786200525963163,-0.008217714359300262,0.015987137084807587,-0.9303212636480601
13550,6.0,300.08567,7651.253000000001,0.0,0.0,0.0,0.0,0.0,-0.13505026986077218,-0.5898571926368724,-0.9495004364433971,-0.7864322513973203,-0.00980420776494997,-0.02051895287256298,-0.917453828375643
13551,6.0,299.68824,7388.7577,0.0,0.0,0.0,0.0,0.0,-0.13506023667035594,-0.5975106354122085,-0.908556671765062,-0.7399305363429584,-0.026432220674407078,0.01078537856943399,-0.9335029905520721
13552,6.0,300.08038999999997,7389.9681,0.0,0.0,0.0,0.0,0.0,-0.1350702034799398,-0.5741565884948435,-0.9206976573782841,-0.7515115290234133,-0.024513159435510478,0.015503174386544184,-0.9278703737761762
13553,6.0,299.3867,7562.0534,0.0,0.0,0.0,0.0,0.0,-0.13508017028952357,-0.5873311601375725,-0.9681744027388741,-0.7431698361176523,-0.022241083888274078,0.01171771152969809,-0.9404239244326151
13554,6.0,299.7251,7458.0553,0.0,0.0,0.0,0.0,0.0,-0.1350901370991074,-0.5589666117407095,-0.942435053628598,-0.7656609283223502,0.0006525637962755323,-0.018268819256242085,-0.945390106352739
13555,6.0,299.97733,7323.4951,0.0,0.0,0.0,0.0,0.0,-0.13510010390869126,-0.5680597511856325,-0.9448864095955282,-0.7132134920786913,0.0027835493029399272,0.015932494533414783,-0.9651767023180241
13556,6.0,300.3089,7208.9922,0.0,0.0,0.0,0.0,0.0,-0.13511007071827508,-0.5266262624689655,-0.9231610102263982,-0.7415663577019013,0.016032582365042684,-0.0033432197182000968,-0.9473797951766061
13557,6.0,301.23595,7148.3113,0.0,0.0,0.0,0.0,0.0,-0.1351200375278589,-0.5242190538088924,-0.9154552330833972,-0.7332338448420463,-3.183902554626717e-05,-0.006625787197339284,-0.946209927008649
13558,6.0,301.32902,7274.1626,0.0,0.0,0.0,0.0,0.0,-0.1351300043374427,-0.4981828426843185,-0.9302136564874401,-0.7827672852556162,0.003981656751183926,-0.053822323410349746,-0.9409486055993971
13559,6.0,300.1784,7471.2734,0.0,0.0,0.0,0.0,0.0,-0.13513997114702647,-0.5601887534813255,-0.9526984057465121,-0.7581934068078633,0.0037687769581743265,-0.03878882084265856,-0.947487361807222
13560,6.0,300.46645,7351.441,0.0,0.0,0.0,0.0,0.0,-0.13514993795661034,-0.5351664814668194,-0.9499455166823232,-0.7495425003690852,-0.01019300824297159,-0.018791126378039782,-0.9434379381800752
13561,6.0,300.64344,7291.9742,0.0,0.0,0.0,0.0,0.0,-0.13515990476619416,-0.5743275339192145,-0.9195952412694842,-0.7226553111480263,0.0009105444151487372,0.0002093474714384868,-0.9614003394603261
13562,6.0,299.43681000000004,7483.5394,0.0,0.0,0.0,0.0,0.0,-0.13516987157577803,-0.5677757574476044,-0.9510148805728611,-0.7560184857332153,-0.001326310538346659,0.004633351655101206,-0.9461149246792732
13563,6.0,299.80799,7501.7175,0.0,0.0,0.0,0.0,0.0,-0.1351798383853618,-0.6034990752257214,-0.9323139820897262,-0.7445217245335732,-0.003205711344479077,0.04781276847800286,-0.9502676795516181
13564,6.0,299.95774,7458.1311,0.0,0.0,0.0,0.0,0.0,-0.1351898051949456,-0.5264954620135565,-0.9437864050219661,-0.7968037476984072,-0.03473176237600807,0.029976747856224676,-0.937005725220265
13565,6.0,300.00262000000004,7372.7258,0.0,0.0,0.0,0.0,0.0,-0.13519977200452943,-0.5543355926886635,-0.937628580189236,-0.7491603632263713,-0.03452733207558237,0.01905397966598138,-0.9442296310132091
13566,6.0,300.52333,7488.472,0.0,0.0,0.0,0.0,0.0,-0.13520973881411325,-0.5492809236373065,-0.952213981006203,-0.7748135860781473,-0.008621719465672462,-0.03628569286186907,-0.9189305188063811
13567,6.0,300.41116,7572.2522,0.0,0.0,0.0,0.0,0.0,-0.13521970562369712,-0.6020705344397355,-0.937331373669904,-0.7623736815529242,0.017051723501124084,-0.026027531624217375,-0.9489815206696842
13568,6.0,301.35669,7553.6753,0.0,0.0,0.0,0.0,0.0,-0.13522967243328093,-0.5930584854003155,-0.9335801698121892,-0.7694900207152523,0.03317881474274407,-0.022482349882835182,-0.9055675029100541
13569,6.0,301.62307000000004,7498.8459,0.0,0.0,0.0,0.0,0.0,-0.1352396392428647,-0.5942039443733634,-0.935476153266808,-0.7497818199102042,0.025774545365749576,-0.0051090229277963055,-0.9048319339999591
13570,6.0,299.97629,7315.2491,0.0,0.0,0.0,0.0,0.0,-0.13524960605244857,-0.5073395534405155,-0.9318897646703591,-0.7844237363865952,0.008337661487588122,-0.004959511390740665,-0.9096325711187451
13571,6.0,300.28587000000005,7520.8951,0.0,0.0,0.0,0.0,0.0,-0.13525957286203233,-0.5783062225568805,-0.943148472891507,-0.7647095979359613,0.016174081728257586,0.004722929752716876,-0.9322207732130271
13572,6.0,300.36939,7668.7353,0.0,0.0,0.0,0.0,0.0,-0.1352695396716162,-0.5864952693350765,-0.948232262750738,-0.7963764905287403,0.0027460314888372076,0.014791525271559886,-0.9321430164003531
13573,6.0,300.08102,7343.0967,0.0,0.0,0.0,0.0,0.0,-0.13527950648120002,-0.5744518799714864,-0.93327954864002,-0.7243866009313913,-0.014793403837245285,-0.0002102409655091678,-0.968990393309406
13574,6.0,300.06547,7138.6225,0.0,0.0,0.0,0.0,0.0,-0.13528947329078383,-0.5138416907897265,-0.9361631267021072,-0.7199581711043394,-0.02670927060949977,-0.031714843640511366,-0.955708366493572
13575,6.0,300.05062999999996,7428.2703,0.0,0.0,0.0,0.0,0.0,-0.13529944010036765,-0.5475132480428505,-0.9690612904189031,-0.7414341488288533,-0.026563545993367875,0.0013581456405885389,-0.970581570868943
13576,6.0,300.25469,7644.2923,0.0,0.0,0.0,0.0,0.0,-0.13530940690995147,-0.5250758682259535,-0.982233551851404,-0.8163645712764102,-0.029834829007468373,0.014495523506596787,-0.955534178668881
13577,6.0,301.10636,7523.8474,0.0,0.0,0.0,0.0,0.0,-0.13531937371953534,-0.5605389023183825,-0.969340602941469,-0.7571822338705683,-1.8227669143180884e-05,0.007150712152095343,-0.9504089367480592
13578,6.0,299.81272,7223.6545,0.0,0.0,0.0,0.0,0.0,-0.13532934052911916,-0.4935221658018455,-0.9496501948081771,-0.7526382327371103,-0.01094173116586479,-0.007346965625539054,-0.9555669978396202
13579,6.0,299.6569,7211.8031,0.0,0.0,0.0,0.0,0.0,-0.13533930733870292,-0.5582664356566074,-0.9198208312717481,-0.7141207967482353,0.02961726293274627,-0.014180489865005386,-0.94147583002393
13580,6.0,299.67526000000004,7470.9809,0.0,0.0,0.0,0.0,0.0,-0.1353492741482868,-0.5690811376839355,-0.9400496298456751,-0.7618608756773143,0.03291109177482187,-0.01966498872803328,-0.9473290820091012
13581,6.0,299.62842,7644.6136,0.0,0.0,0.0,0.0,0.0,-0.13535924095787055,-0.5885551257283684,-0.9294839948254282,-0.8057325177121082,0.017972059580204182,-0.0077650560228763625,-0.9194230698124921
13582,6.0,299.44019,7406.193,0.0,0.0,0.0,0.0,0.0,-0.13536920776745442,-0.5165437754939015,-0.950283759830705,-0.7844702141686822,0.015783051289415883,-0.018175179748250586,-0.937428817932021
13583,6.0,299.20819,7154.3019,0.0,0.0,0.0,0.0,0.0,-0.13537917457703824,-0.5494792470793795,-0.8944879373065862,-0.7307619705605912,-0.024002190582331776,-0.00892505310835916,-0.9250639445767032
13584,6.0,299.08069,7547.7525,0.0,0.0,0.0,0.0,0.0,-0.135389141386622,-0.5844794893211345,-0.948192046854269,-0.7616567564446692,-0.0024740772898224177,0.03620552451395707,-0.9466034632149881
13585,6.0,300.52979,7831.3325,0.0,0.0,0.0,0.0,0.0,-0.13539910819620588,-0.6647698528101764,-0.9404451216247071,-0.7753145571925892,-0.027838401057186272,0.015296086331106186,-0.9283631274323071
13586,6.0,299.83653,7465.1982,0.0,0.0,0.0,0.0,0.0,-0.1354090750057897,-0.5647329876623065,-0.930808039128601,-0.7736928301425373,-0.01022830987645559,0.011210658888155887,-0.9451613550101632
13587,6.0,300.39867000000004,7285.3907,0.0,0.0,0.0,0.0,0.0,-0.1354190418153735,-0.5247587310771545,-0.9437048282564152,-0.7461133073931503,-0.04639201654553555,-0.012648152752025488,-0.9433155578329971
13588,6.0,300.32415,7358.4523,0.0,0.0,0.0,0.0,0.0,-0.13542900862495733,-0.5059082971442616,-0.9407443141142351,-0.7901331575200713,-0.005776745219145365,0.008406193874001742,-0.9454564843667901
13589,6.0,300.63967,7595.6627,0.0,0.0,0.0,0.0,0.0,-0.13543897543454114,-0.5715420485993085,-0.948934556527549,-0.7884151919755212,0.006093442212100925,0.0027755254767230374,-0.914426328269352
13590,6.0,300.10668,7602.2865,0.0,0.0,0.0,0.0,0.0,-0.13544894224412496,-0.5498353943570286,-0.977234804073066,-0.7838350583434972,0.018598297791259082,-0.008198253675229642,-0.954996487370815
13591,6.0,301.20136,7453.7181,0.0,0.0,0.0,0.0,0.0,-0.13545890905370878,-0.6010856452100344,-0.9271756489776122,-0.7374828787388933,0.05630105942148195,-0.008507728626772442,-0.9336854870275831
13592,6.0,300.40726,7258.5292,0.0,0.0,0.0,0.0,0.0,-0.1354688758632926,-0.5018840021195945,-0.9585924511807091,-0.7459351678930692,0.03947010285214586,0.0021011528196676382,-0.9689151088269762
13593,6.0,300.44118,7418.9128,0.0,0.0,0.0,0.0,0.0,-0.1354788426728764,-0.5439944229630694,-0.9434402686553051,-0.7677295391965063,0.02434110551553008,-0.005819622822302055,-0.9527432927259422
13594,6.0,299.94549,7609.2390000000005,0.0,0.0,0.0,0.0,0.0,-0.13548880948246023,-0.5255056990508744,-0.980080790556443,-0.8074321636948503,-0.02417855081523718,-0.013798125754268985,-0.962467545128151
13595,6.0,299.74471,7470.518,0.0,0.0,0.0,0.0,0.0,-0.1354987762920441,-0.5902165823148414,-0.94622442661758,-0.7344099141006153,-0.03094176218521417,0.0027399474286117576,-0.9379989332332871
13596,6.0,298.93729,7199.7531,0.0,0.0,0.0,0.0,0.0,-0.13550874310162792,-0.5371412552492145,-0.9346911073543301,-0.7167128120940474,-0.03408186984136867,0.024014082085505376,-0.9716140321908392
13597,6.0,299.42593999999997,7274.9619999999995,0.0,0.0,0.0,0.0,0.0,-0.13551870991121173,-0.6182904495230164,-0.9064333656505081,-0.6866829668928324,-0.015131973252159484,0.028769411726069873,-0.9190419661848802
13598,6.0,299.18028,7628.0264,0.0,0.0,0.0,0.0,0.0,-0.13552867672079555,-0.5496595448021735,-0.9731240078873621,-0.7959459808262522,-0.023755147035700478,0.014269340753024285,-0.9318640990453261
13599,6.0,299.56585,7600.3177,0.0,0.0,0.0,0.0,0.0,-0.1355386435303793,-0.5721468271864955,-0.933383042005234,-0.8047769418078002,-0.0038594450089225662,-0.027795825301234374,-0.9132601381992581
13600,6.0,299.4467,7336.5829,0.0,0.0,0.0,0.0,0.0,-0.13554861033996318,-0.4961757563562345,-0.9523303730451901,-0.7816318777235602,0.02037531757813728,0.007529200479874232,-0.9384903190017831
13601,6.0,300.73548999999997,7300.6188,0.0,0.0,0.0,0.0,0.0,-0.135558577149547,-0.5844279655535494,-0.9048555629922911,-0.7299222902027214,0.02777015258345068,-0.0072689961316690635,-0.9069766095591222
13602,6.0,300.73609,7464.0155,0.0,0.0,0.0,0.0,0.0,-0.13556854395913082,-0.5567223235642155,-0.95956599200929,-0.7525860199594573,0.03171552353132847,-0.002004444886398308,-0.9597615898085942
13603,6.0,300.41502,7718.1948,0.0,0.0,0.0,0.0,0.0,-0.13557851076871463,-0.6530066372317374,-0.955834272950998,-0.7372975755606053,0.012288154110746387,-0.011119626472671689,-0.9438367838169381
13604,6.0,299.6747,7671.3788,0.0,0.0,0.0,0.0,0.0,-0.13558847757829845,-0.5531983106439226,-0.9701391960077841,-0.8085701043521561,0.028049026368723372,0.008258309616606702,-0.9609615616370222
13605,6.0,300.20829,7300.5641,0.0,0.0,0.0,0.0,0.0,-0.13559844438788227,-0.5375069372103045,-0.9362753036206781,-0.7454069403509372,-0.005902379720244525,-0.0034094185896334167,-0.9346811572383481
13606,6.0,298.64292,7111.4627,0.0,0.0,0.0,0.0,0.0,-0.13560841119746608,-0.4806337055898535,-0.9267488781679931,-0.7543244835535303,-0.02323723133983618,0.001206788367150739,-0.965311464581324
13607,6.0,299.08943,7569.476,0.0,0.0,0.0,0.0,0.0,-0.13561837800704996,-0.5970749885317135,-0.9520922998016941,-0.7517643957183693,-0.024021857766772774,-0.003184580925568667,-0.9242999438688022
13608,6.0,298.56433,7515.4663,0.0,0.0,0.0,0.0,0.0,-0.13562834481663372,-0.5796222824492654,-0.9590308439689751,-0.7458609777207473,-0.019287439581772082,0.03586498027459796,-0.955075612071124
13609,6.0,300.05949,7129.7901,0.0,0.0,0.0,0.0,0.0,-0.13563831162621753,-0.5725272012740354,-0.8907424988419402,-0.7040084695577263,-0.007396291754982163,0.032398414581974566,-0.9389079604280011
13610,6.0,300.28416,7088.1748,0.0,0.0,0.0,0.0,0.0,-0.1356482784358014,-0.4684602655759285,-0.9419587956840952,-0.7442090659502163,-0.006674152765687593,0.007750490046063813,-0.97536539816857
13611,6.0,300.72017,7307.8959,0.0,0.0,0.0,0.0,0.0,-0.13565824524538517,-0.5118353745317186,-0.9437969124255031,-0.7657855986146543,0.008429072757284712,-0.028500154697496272,-0.9411508604518581
13612,6.0,298.80894,7541.4275,0.0,0.0,0.0,0.0,0.0,-0.13566821205496904,-0.5272770527431935,-0.974747173752556,-0.7903814341920743,-0.0012286662606599188,-0.008144358193135573,-0.9667734932831151
13613,6.0,300.0179,7652.0396,0.0,0.0,0.0,0.0,0.0,-0.13567817886455286,-0.5996871878195175,-0.957907048283065,-0.7684347410011042,0.024550821941727478,-0.015148664521056787,-0.9391221817641431
13614,6.0,300.05022,7528.5377,0.0,0.0,0.0,0.0,0.0,-0.13568814567413667,-0.5846496849404315,-0.9530431539605362,-0.7507946545776634,0.016823835447633283,-0.003485945215361007,-0.970820809350054
13615,6.0,300.81465,7431.8148,0.0,0.0,0.0,0.0,0.0,-0.1356981124837205,-0.5834872945582124,-0.9209677898549442,-0.7546310423712853,0.017017856629781683,0.0007194140861981423,-0.9457314804439301
13616,6.0,301.13039,7549.8688,0.0,0.0,0.0,0.0,0.0,-0.1357080792933043,-0.5358703153837825,-0.9638055722827041,-0.7952957174420763,0.017406787614416185,0.017408876936122385,-0.9510022858741181
13617,6.0,300.81144,7644.6414,0.0,0.0,0.0,0.0,0.0,-0.13571804610288818,-0.5899042885015204,-0.9354107783703561,-0.7984650218998622,0.001072183968216319,0.004550060875681046,-0.9087291775945872
13618,6.0,299.59947,7273.7632,0.0,0.0,0.0,0.0,0.0,-0.13572801291247194,-0.5178628244740815,-0.9443635725439282,-0.7488160000473852,-0.033529317204085966,0.0007572632634810652,-0.9506516506770131
13619,6.0,299.02941,7223.1594,0.0,0.0,0.0,0.0,0.0,-0.13573797972205576,-0.5536447486379825,-0.9244966967732201,-0.7175186498985773,-0.032406692835291566,-0.027607791413926875,-0.9248126281544001
13620,6.0,299.50521000000003,7602.5642,0.0,0.0,0.0,0.0,0.0,-0.13574794653163957,-0.5863966497028434,-0.968740617027255,-0.7558524241743263,-0.016634418473939285,-0.0021048190625044677,-0.9437587331617351
13621,6.0,300.12965,7831.2705,0.0,0.0,0.0,0.0,0.0,-0.1357579133412234,-0.6081571075254334,-0.97910449368759,-0.7932490940950903,-0.004708213814889526,0.020882166556409378,-0.9124572185550162
13622,6.0,300.14501,7512.4798,0.0,0.0,0.0,0.0,0.0,-0.13576788015080726,-0.5106583122880515,-0.969114090881614,-0.8038338592772253,0.03355936817555177,0.0071977081102834834,-0.9770824315230281
13623,6.0,299.50052,7178.3435,0.0,0.0,0.0,0.0,0.0,-0.13577784696039108,-0.5114057159593145,-0.9290792216754801,-0.7415522329955073,0.027786638162577676,-0.009070968924784931,-0.9335668962358791
13624,6.0,300.14779,7313.1582,0.0,0.0,0.0,0.0,0.0,-0.1357878137699749,-0.5174445041702965,-0.9430481104691021,-0.7625248787328462,0.024319416897139578,0.01019023599069799,-0.9856694626755022
13625,6.0,300.4606,7479.6717,0.0,0.0,0.0,0.0,0.0,-0.1357977805795587,-0.6087441238383674,-0.9397561014242062,-0.7251332041350753,0.008415729874667871,-0.01986467093849038,-0.9387383220962592
13626,6.0,300.41075,7319.9429,0.0,0.0,0.0,0.0,0.0,-0.13580774738914247,-0.5605728867267364,-0.9395779517916242,-0.7249290342399253,-0.005543245989250785,-0.007000221106168034,-0.975110444178408
13627,6.0,300.91953,7116.2981,0.0,0.0,0.0,0.0,0.0,-0.13581771419872635,-0.5331232626401695,-0.9058454678099871,-0.7242082081187853,-0.018658790848729283,-0.006306230812601524,-0.9363473558352892
13628,6.0,301.05912,7129.1838,0.0,0.0,0.0,0.0,0.0,-0.13582768100831016,-0.47778668559137455,-0.9283369754472262,-0.7609701984419113,-0.024683908289362077,0.001169917411911859,-0.966074583761638
13629,6.0,300.85727,7623.5916,0.0,0.0,0.0,0.0,0.0,-0.13583764781789398,-0.5897688980231583,-0.9656410444413511,-0.7619715631182383,-0.03929154285327336,0.019783005006930584,-0.9310694373893992
13630,6.0,300.77384,8000.4388,0.0,0.0,0.0,0.0,0.0,-0.1358476146274778,-0.6087597582874105,-0.9943455585117661,-0.8288282973114842,-0.02400011240637668,0.007208699340743233,-0.9445040090077881
13631,6.0,300.01949,7678.2777,0.0,0.0,0.0,0.0,0.0,-0.13585758143706161,-0.6200137751605954,-0.964829917471299,-0.7491610015739343,-0.012153678597224687,0.0001986598208411978,-0.9266832803565191
13632,6.0,299.9991,7326.504,0.0,0.0,0.0,0.0,0.0,-0.13586754824664543,-0.5483613181115485,-0.942979888339869,-0.7357330768762014,-0.007946195351203422,0.01169851955955399,-0.9339769889488521
13633,6.0,299.55304,7407.2639,0.0,0.0,0.0,0.0,0.0,-0.13587751505622925,-0.5617958289349314,-0.9202693058985092,-0.7695581313869743,0.015075348783571087,0.013449194843832186,-0.9308585091160821
13634,6.0,299.50853,7496.8348,0.0,0.0,0.0,0.0,0.0,-0.13588748186581306,-0.5467275435178075,-0.941072799664154,-0.7910502299205794,0.004978820695246345,-0.02250070389514658,-0.9357483223761691
13635,6.0,299.78014,7417.7775,0.0,0.0,0.0,0.0,0.0,-0.13589744867539694,-0.5753580599334194,-0.942014433247086,-0.7374466651803192,0.00962771955855694,0.005759642064082415,-0.9525226169866631
13636,6.0,300.67352999999997,7241.9261,0.0,0.0,0.0,0.0,0.0,-0.1359074154849807,-0.5509751689970155,-0.929968429698238,-0.7204210845450253,0.012843288509283887,-0.0028297646532510273,-0.954234543560617
13637,6.0,300.79927999999995,7211.0109999999995,0.0,0.0,0.0,0.0,0.0,-0.13591738229456457,-0.5757761370571804,-0.923160371878835,-0.6930307761193124,0.012218588411880789,0.01901109182899868,-0.9650043282110121
13638,6.0,301.12652,7600.4028,0.0,0.0,0.0,0.0,0.0,-0.13592734910414833,-0.5795919153437684,-0.959130436321304,-0.7716102972120072,-0.0024043730796681475,0.0014667174153037384,-0.9610887751870771
13639,6.0,300.00762000000003,7929.7779,0.0,0.0,0.0,0.0,0.0,-0.13593731591373215,-0.5930208026290964,-1.000572314748799,-0.8168613678004403,-0.005002321612765706,0.0036532395956466765,-0.9510442850907631
13640,6.0,300.45624,7648.4457,0.0,0.0,0.0,0.0,0.0,-0.13594728272331602,-0.5393713072618035,-0.982275905705584,-0.8032893082759822,-0.02440238282857768,0.01054119036158449,-0.9420736475829302
13641,6.0,300.65499,7227.2718,0.0,0.0,0.0,0.0,0.0,-0.13595724953289984,-0.5320355893203245,-0.9360570900791422,-0.7288174726911842,-0.04113459614916856,0.019838273746885182,-0.9354886466405412
13642,6.0,298.79325,7202.602,0.0,0.0,0.0,0.0,0.0,-0.13596721634248365,-0.5170859149599065,-0.940231498106124,-0.7320937459620273,-0.02131326698370568,-0.013118597680704789,-0.9636658349614131
13643,6.0,298.95923999999997,7481.3619,0.0,0.0,0.0,0.0,0.0,-0.13597718315206747,-0.6180223739440595,-0.923566715566438,-0.7325581184828572,0.0006911656461302384,-0.017017955928291483,-0.9263718275407811
13644,6.0,300.0858,7438.0023,0.0,0.0,0.0,0.0,0.0,-0.13598714996165123,-0.5571210982735715,-0.9272679560617222,-0.7765779280797742,0.027444368358298273,0.001013381417212959,-0.9460103370039512
13645,6.0,299.44155,7206.7299,0.0,0.0,0.0,0.0,0.0,-0.13599711677123516,-0.5261498221394445,-0.9201338951551452,-0.7443822101273042,0.036176973152639263,-0.01043062349742239,-0.945688609832199
13646,6.0,300.46667,7425.4262,0.0,0.0,0.0,0.0,0.0,-0.13600708358081892,-0.5466355201437254,-0.946721192744107,-0.7637874288874503,0.015588461673961385,-0.015117506067231687,-0.9531380144348981
13647,6.0,301.26133,7820.0952,0.0,0.0,0.0,0.0,0.0,-0.1360170503904028,-0.6298899948128024,-0.985675400321088,-0.7615482880214642,0.015315960218567588,0.0023955664164239977,-0.9597923419491291
13648,6.0,299.9888,7905.0651,0.0,0.0,0.0,0.0,0.0,-0.13602701719998656,-0.6453638437149524,-0.982980225982595,-0.7745983312269034,-0.0022629447452852582,0.014231492822038987,-0.9365410993869101
13649,6.0,300.31577000000004,7641.7873,0.0,0.0,0.0,0.0,0.0,-0.13603698400957037,-0.6353558812847434,-0.9484791208726011,-0.7390775114812713,-0.01863314954169868,0.016080169655989185,-0.9277264821294751
13650,6.0,301.89654,7132.1858,0.0,0.0,0.0,0.0,0.0,-0.13604695081915424,-0.49633811955225854,-0.9194198071471701,-0.7522484759536443,-0.018850822007681282,-0.03183481346560147,-0.935566666898241
13651,6.0,300.28202000000005,7134.0338,0.0,0.0,0.0,0.0,0.0,-0.136056917628738,-0.4805793447219886,-0.9196404322239442,-0.7683483512975783,-0.015456000501638485,-0.013247377715414385,-0.948827993014532
13652,6.0,300.16819,7693.0122,0.0,0.0,0.0,0.0,0.0,-0.13606688443832188,-0.5495648261828254,-0.9589285259738771,-0.8299902722611622,0.015044327118509487,-0.0017207174304965883,-0.9309427203318931
13653,6.0,299.36851,7685.3214,0.0,0.0,0.0,0.0,0.0,-0.1360768512479057,-0.5712326324162714,-0.9867367392708342,-0.7781764213050332,0.006604154611679313,0.008572378340127872,-0.957651425547837
13654,6.0,298.65058,7130.0398,0.0,0.0,0.0,0.0,0.0,-0.13608681805748946,-0.5141632355764605,-0.9310826501707031,-0.7221081662265273,0.025752434222067373,-0.01093556249925599,-0.97253194558893
13655,6.0,299.74562000000003,7275.0123,0.0,0.0,0.0,0.0,0.0,-0.13609678486707333,-0.5519869194868675,-0.9500412080217671,-0.7093939445017313,0.025542969081894774,0.013446894766105187,-0.9763925297949401
13656,6.0,300.68892999999997,7615.4577,0.0,0.0,0.0,0.0,0.0,-0.13610675167665715,-0.5351556498232505,-0.9799335754494142,-0.7998197474160632,0.05003412477823366,0.008950867478506841,-0.964843039060094
13657,6.0,300.57847000000004,7653.3069,0.0,0.0,0.0,0.0,0.0,-0.13611671848624102,-0.5736547966478205,-0.9742187739579071,-0.7785406441859793,0.008744740389463681,-0.016341754354805584,-0.9587594246646881
13658,6.0,300.6436,7435.2387,0.0,0.0,0.0,0.0,0.0,-0.13612668529582478,-0.5108124377607625,-0.9617847361507631,-0.7875297329781332,-0.014146247077875885,-0.04432537441632386,-0.9624022310267051
13659,6.0,299.2887,7164.1196,0.0,0.0,0.0,0.0,0.0,-0.1361366521054086,-0.5456854867174645,-0.9178520964599493,-0.7141758871561723,-0.009722213743007791,-0.009546538467169992,-0.9459465427776551
13660,6.0,299.58032000000003,7226.3293,0.0,0.0,0.0,0.0,0.0,-0.1361466189149924,-0.5627608483301715,-0.9176585251608451,-0.7162043023988613,9.098024526305112e-05,0.026498653403963474,-0.9304281007386042
13661,6.0,300.96689,7715.4577,0.0,0.0,0.0,0.0,0.0,-0.13615658572457623,-0.6333947661136964,-0.9371713004191061,-0.7747404294209272,-0.020261022966857282,0.026266738694575274,-0.9134204444975791
13662,6.0,300.64047999999997,7868.0830000000005,0.0,0.0,0.0,0.0,0.0,-0.1361665525341601,-0.5736079135656935,-0.97380154796423,-0.8442913145700652,-0.023829034246242577,-0.0007915465806145652,-0.916411781707801
13663,6.0,301.08077000000003,7474.9974,0.0,0.0,0.0,0.0,0.0,-0.13617651934374392,-0.5581180249144605,-0.9392129689731031,-0.7748815751598573,0.02087072088327978,0.019804046158507182,-0.9363028133608932
13664,6.0,300.92925,7487.073,0.0,0.0,0.0,0.0,0.0,-0.13618648615332768,-0.5542956605022225,-0.9485365620207702,-0.7730510071316943,0.016431748188937285,0.010265264120852689,-0.9347076030659581
13665,6.0,300.68807000000004,7828.8057,0.0,0.0,0.0,0.0,0.0,-0.13619645296291155,-0.6375619699324674,-0.960558683264761,-0.7816407943244402,0.01961528982387838,0.0038454100764874263,-0.9464356588659272
13666,6.0,300.58902,7757.0411,0.0,0.0,0.0,0.0,0.0,-0.1362064197724953,-0.6473334803193405,-0.9782476488730261,-0.7323656820238653,0.0015193670050748485,-0.03849033965470076,-0.9472580329120892
13667,6.0,299.88471,7341.2948,0.0,0.0,0.0,0.0,0.0,-0.13621638658207919,-0.5542540969831204,-0.9355764447617062,-0.7417397653240153,0.0091644075052816,-0.004668508191170886,-0.9698097073402661
13668,6.0,298.68404,7064.3045,0.0,0.0,0.0,0.0,0.0,-0.136226353391663,-0.48901579677710155,-0.9291953401369402,-0.7291610455350923,0.016553033212657182,-0.0017306059408725085,-0.9408759758322291
13669,6.0,298.2901,7089.8614,0.0,0.0,0.0,0.0,0.0,-0.13623632020124682,-0.4850716498353445,-0.9341138790373622,-0.7359553028881333,-0.002043600720612688,0.012394552463997089,-0.9723243306434401
13670,6.0,299.66028,7374.7984,0.0,0.0,0.0,0.0,0.0,-0.13624628701083064,-0.5222857827505936,-0.9480823220009401,-0.7713864601324162,-0.03207315319387377,-0.006324255518630425,-0.9641562581423141
13671,6.0,299.95907,7482.4861,0.0,0.0,0.0,0.0,0.0,-0.13625625382041445,-0.5544113736636425,-0.981799374183554,-0.7382781888748844,-0.026442067438878877,6.0580041951534646e-05,-0.9828876250559561
13672,6.0,300.32416,7326.7965,0.0,0.0,0.0,0.0,0.0,-0.13626622062999827,-0.5650110944172535,-0.9245416648126582,-0.7376104165289803,-0.008976251723987071,0.018607156636883383,-0.9309702604696111
13673,6.0,299.93537000000003,7283.1558,0.0,0.0,0.0,0.0,0.0,-0.13627618743958209,-0.5224963969163795,-0.9408081083405311,-0.7505929975427613,-0.014730042268741986,0.01068501513377889,-0.9622342138951231
13674,6.0,300.46504,7681.7761,0.0,0.0,0.0,0.0,0.0,-0.1362861542491659,-0.5597025555533415,-0.9641065379599071,-0.8112590370700332,-0.001189155586260519,-0.027965321777962373,-0.9289656667367732
13675,6.0,300.15153,7928.7742,0.0,0.0,0.0,0.0,0.0,-0.13629612105874978,-0.6004607941383664,-0.9838346389969189,-0.8258539523054392,0.0015976316586989686,-0.009780082381393981,-0.9405519080527461
13676,6.0,300.53944,7620.7941,0.0,0.0,0.0,0.0,0.0,-0.13630608786833354,-0.5817926438984635,-0.968551564823597,-0.7661869267142623,0.02114726621982268,-2.9918583247484273e-05,-0.952783133719874
13677,6.0,300.15154,7110.9862,0.0,0.0,0.0,0.0,0.0,-0.1363160546779174,-0.5741699329986605,-0.8903249891382351,-0.6970673213376883,0.034316514246526264,-0.0033842506730495368,-0.9470970680012031
13678,6.0,299.12692000000004,7253.3455,0.0,0.0,0.0,0.0,0.0,-0.13632602148750117,-0.5864191438550634,-0.9175207738097501,-0.7008959881655483,-0.0002843075213189677,-0.020993176210865182,-0.9530192007281721
13679,6.0,299.53057,7580.1639,0.0,0.0,0.0,0.0,0.0,-0.136335988297085,-0.6047410158732914,-0.9471819074320762,-0.7522576053370453,-0.01251043787793409,-0.009444111547686242,-0.9296585778176581
13680,6.0,299.63376,7625.5553,0.0,0.0,0.0,0.0,0.0,-0.13634595510666886,-0.5717428545041264,-0.9502288720727881,-0.7960066643747412,-0.010768831182050888,0.008878503284190053,-0.905994486502194
13681,6.0,300.47604,7573.21,0.0,0.0,0.0,0.0,0.0,-0.13635592191625268,-0.5516118041673465,-0.962756139021633,-0.7876987836248172,-0.02005183748371228,0.025341533948764677,-0.9103610979406451
13682,6.0,300.08484,7466.8807,0.0,0.0,0.0,0.0,0.0,-0.1363658887258365,-0.5474180937259594,-0.9401907046570981,-0.7821364965383623,-0.00962262493705414,-0.021260646879512478,-0.9307506385104362
13683,6.0,300.38431,7715.3561,0.0,0.0,0.0,0.0,0.0,-0.1363758555354203,-0.6147366470497834,-0.9564552128772801,-0.7740837318986163,-0.01019764892842959,0.017821143070559882,-0.9401400117545952
13684,6.0,300.88518999999997,7954.9292,0.0,0.0,0.0,0.0,0.0,-0.13638582234500407,-0.6314364779104285,-0.9834383163528051,-0.8032250378221393,0.00999499201832891,0.028040259728858177,-0.9390708403815761
13685,6.0,300.02681,7476.7896,0.0,0.0,0.0,0.0,0.0,-0.136395789154588,-0.5663651106583845,-0.9453578242045532,-0.7610344182332492,0.0058498423985844945,0.026062554613923872,-0.934694815849696
13686,6.0,298.89332,6910.2129,0.0,0.0,0.0,0.0,0.0,-0.13640575596417176,-0.49002803362700154,-0.9078383179741661,-0.7026658219827173,-0.007180361673871523,-0.0007624391780393884,-0.9461984063550121
13687,6.0,298.48141,7116.4039,0.0,0.0,0.0,0.0,0.0,-0.13641572277375558,-0.49095777165375953,-0.9322077022867372,-0.7400436150541183,-0.004441983769664665,-0.0014595132070927385,-0.965827502724753
13688,6.0,298.29204,7505.6447,0.0,0.0,0.0,0.0,0.0,-0.1364256895833394,-0.5730488933530224,-0.971052620707932,-0.7374270486583833,0.01992373328681938,-0.0053329233355185555,-0.9431225640864501
13689,6.0,299.12031,7626.7416,0.0,0.0,0.0,0.0,0.0,-0.1364356563929232,-0.6001524317354334,-0.9720698630133262,-0.7461167220459872,0.005918311862166905,-0.008074864131052044,-0.9717618552479281
13690,6.0,300.82511,7460.6689,0.0,0.0,0.0,0.0,0.0,-0.13644562320250708,-0.5856149069856914,-0.9479404163244352,-0.7343017395199394,0.012013203629860887,-0.024374608630086576,-0.946429883340357
13691,6.0,299.24008,7140.1435,0.0,0.0,0.0,0.0,0.0,-0.13645559001209084,-0.5164318417553545,-0.921088447676852,-0.7329050451845963,0.03288084828583707,-0.012110042981668187,-0.9521476029921521
13692,6.0,299.25364,7495.2491,0.0,0.0,0.0,0.0,0.0,-0.13646555682167472,-0.5468878802136314,-0.9438178968350741,-0.7876628031137662,0.0036914517900429266,0.015949851507627785,-0.9265693707802771
13693,6.0,300.58706,7862.1205,0.0,0.0,0.0,0.0,0.0,-0.13647552363125853,-0.5758701261364565,-0.9811898738509012,-0.8328283047312542,-0.0016617974438066386,-0.004420352197254796,-0.9261030224217522
13694,6.0,300.33305,7580.286999999999,0.0,0.0,0.0,0.0,0.0,-0.1364854904408423,-0.5882097999617875,-0.935543645855969,-0.7804645224158513,-0.03763932406796206,-0.006835672329678333,-0.946863068023109
13695,6.0,299.04652999999996,7279.0668,0.0,0.0,0.0,0.0,0.0,-0.13649545725042617,-0.5565451061217255,-0.9175884082539251,-0.7385210345263513,-0.032208289346460674,0.015914085805597986,-0.9435968968557631
13696,6.0,298.84531,7380.9426,0.0,0.0,0.0,0.0,0.0,-0.13650542406000998,-0.5751439399222874,-0.9180203871690581,-0.7504579313044313,-0.004595752578340466,0.02544795560676768,-0.94581041262672
13697,6.0,298.51305,7682.4097,0.0,0.0,0.0,0.0,0.0,-0.1365153908695938,-0.6013112757423025,-0.94970585263617,-0.7842436007838173,-0.0018209103361598582,-0.006127611031973124,-0.9250655961743661
13698,6.0,299.54631,7763.2981,0.0,0.0,0.0,0.0,0.0,-0.13652535767917762,-0.5890095886632205,-0.9649542837885732,-0.8058849003946472,0.011993126079129389,-0.021835318766478182,-0.9305554865411761
13699,6.0,300.23344,7233.3138,0.0,0.0,0.0,0.0,0.0,-0.13653532448876143,-0.5137875933668875,-0.956371781864046,-0.7285874041234783,0.013034304391635686,-0.022266368531269478,-0.9585387185279061
13700,6.0,299.88532000000004,7033.8640000000005,0.0,0.0,0.0,0.0,0.0,-0.13654529129834525,-0.5155650062948045,-0.905921360242477,-0.7166326538786363,0.03216590408152757,-0.0009289161086743821,-0.968251146301448
13701,6.0,300.28339,7569.9599,0.0,0.0,0.0,0.0,0.0,-0.13655525810792907,-0.5697035873528664,-0.96516683326205,-0.7662083670863783,0.0006034617572245385,0.0027832699498873572,-0.9717050119173182
13702,6.0,300.29688,7921.5217,0.0,0.0,0.0,0.0,0.0,-0.13656522491751294,-0.6143024389844305,-0.9862111157814591,-0.8074312315047583,-0.0082048292630786,-0.009792112091881222,-0.9489560070321662
13703,6.0,299.86057999999997,7569.2453,0.0,0.0,0.0,0.0,0.0,-0.13657519172709676,-0.5606150683283995,-0.9506444464688022,-0.7896020422151543,-0.007065268621512724,-0.012047154600961589,-0.960968512532708
13704,6.0,300.42231,7282.4672,0.0,0.0,0.0,0.0,0.0,-0.13658515853668052,-0.5054496697514985,-0.9526497089467062,-0.7555888271608112,0.0015886915504166484,0.01043610619371349,-0.9366614836312911
13705,6.0,300.42497000000003,7395.6682,0.0,0.0,0.0,0.0,0.0,-0.13659512534626433,-0.5373561048004185,-0.940598406099835,-0.7701439419322893,0.016245511807307184,-0.019019350830563782,-0.960921345740553
13706,6.0,300.72519,7861.6174,0.0,0.0,0.0,0.0,0.0,-0.13660509215584815,-0.6387225567295084,-0.979831409441831,-0.7711813985771783,-0.002207912801879028,-0.028199363299310477,-0.9350707822993012
13707,6.0,300.46322000000004,7848.1226,0.0,0.0,0.0,0.0,0.0,-0.13661505896543202,-0.6203066247044975,-0.988189628456723,-0.7771370597499563,0.015761032351492787,-0.004351403263725066,-0.9415935899505521
13708,6.0,299.3579,7177.2931,0.0,0.0,0.0,0.0,0.0,-0.13662502577501584,-0.5558883579369095,-0.9168344589870161,-0.7089950785998663,0.013936114205887386,0.025152160544824973,-0.9445469809445293
13709,6.0,299.90242,7115.8796,0.0,0.0,0.0,0.0,0.0,-0.13663499258459966,-0.5149250172666425,-0.934183843956767,-0.7139408536629763,0.022738495455114777,-0.014507684534296987,-0.9522657175563091
13710,6.0,300.95349,7790.9537,0.0,0.0,0.0,0.0,0.0,-0.13664495939418347,-0.5947599147032334,-0.9600177698313771,-0.8134777102839992,-0.008585309133929043,-0.015295759051323885,-0.9398524817737182
13711,6.0,299.60835,8023.7864,0.0,0.0,0.0,0.0,0.0,-0.1366549262037673,-0.6255936016062814,-0.989738269777062,-0.8236988504027473,0.003173936226643117,-0.03115227705249037,-0.9394984623212792
13712,6.0,299.28399,7608.5625,0.0,0.0,0.0,0.0,0.0,-0.13666489301335116,-0.6117217416422355,-0.9534768959308431,-0.7476143968862964,0.0022892331138297177,0.023414284635809978,-0.9422975049275231
13713,6.0,300.19243,7255.1457,0.0,0.0,0.0,0.0,0.0,-0.13667485982293492,-0.5515128197650775,-0.9095300302086252,-0.7443402717056653,-0.005135505739034956,-0.0021036115723602976,-0.9416724512058351
13714,6.0,299.93019,7336.7122,0.0,0.0,0.0,0.0,0.0,-0.13668482663251874,-0.5804391241498814,-0.9201818421498772,-0.7295563447966054,0.0034750331197340666,-0.003243126313696647,-0.9442091126986841
13715,6.0,300.98517999999996,7743.5674,0.0,0.0,0.0,0.0,0.0,-0.13669479344210256,-0.5916426811680864,-0.957602272785486,-0.8046061787684472,-0.01098975618085449,-0.003029717300159817,-0.935992576445275
13716,6.0,300.94199,7660.479,0.0,0.0,0.0,0.0,0.0,-0.13670476025168637,-0.5710810805988145,-0.9684246451160711,-0.7890885979919813,0.013141491053464186,0.03907686352808617,-0.9430066178775071
13717,6.0,299.35649,7242.678000000001,0.0,0.0,0.0,0.0,0.0,-0.13671472706127025,-0.5256829975533726,-0.9530168094579361,-0.7228934553190294,-0.015036237329711087,0.0013806336119829286,-0.9509276397392511
13718,6.0,299.93249,7235.8241,0.0,0.0,0.0,0.0,0.0,-0.136724693870854,-0.5499299812538635,-0.935180730067652,-0.7143991365507053,-0.005860019381263884,0.016726294926756785,-0.9645731092334541
13719,6.0,300.38421,7541.6171,0.0,0.0,0.0,0.0,0.0,-0.13673466068043783,-0.5475588240323486,-0.9913146842826421,-0.7535897657735192,0.00012439058461389488,0.004714111639746595,-0.9623877010202712
13720,6.0,301.48392,7633.2268,0.0,0.0,0.0,0.0,0.0,-0.1367446274900217,-0.5801054304944485,-0.985071047298943,-0.7551338576009092,-0.004227394421086345,0.03556759339674817,-0.9697552451473911
13721,6.0,300.93205,7429.6079,0.0,0.0,0.0,0.0,0.0,-0.13675459429960551,-0.5051520376671245,-0.957598544025118,-0.7956647127309933,0.002938620745944287,0.006205944181304004,-0.961231238151137
13722,6.0,300.55007,7162.2833,0.0,0.0,0.0,0.0,0.0,-0.13676456110918933,-0.5093742204363215,-0.9336189671585181,-0.7341620832586563,-0.0077621753528420625,-0.012894085776547187,-0.984017429314959
13723,6.0,300.76824,7400.4368,0.0,0.0,0.0,0.0,0.0,-0.13677452791877315,-0.5527563613478055,-0.9055791147562001,-0.7912125120565953,0.0021870217126422377,-0.02601096295858218,-0.9324374567469121
13724,6.0,300.03422,7773.2443,0.0,0.0,0.0,0.0,0.0,-0.1367844947283569,-0.6089037917891253,-0.9740799485617061,-0.7798884188064943,0.0034912151291311066,0.007200230089782383,-0.944365365996605
13725,6.0,299.0675,7724.3667,0.0,0.0,0.0,0.0,0.0,-0.13679446153794078,-0.6041344134359244,-0.9380674188075461,-0.8058127671200283,0.002147411435758008,-0.024662343287483773,-0.9276042537699121
13726,6.0,299.65989,7563.7057,0.0,0.0,0.0,0.0,0.0,-0.1368044283475246,-0.5968694710139305,-0.9306585644738491,-0.7716496417133902,-0.008380419831208043,-0.011992993343366289,-0.9359471929732961
13727,6.0,299.17087999999995,7484.1709,0.0,0.0,0.0,0.0,0.0,-0.13681439515710841,-0.5451524259723555,-0.9539133534114181,-0.7759353147338532,-0.011270975640108689,-0.02099042827659398,-0.9452344103423731
13728,6.0,299.17139,7647.4486,0.0,0.0,0.0,0.0,0.0,-0.13682436196669223,-0.5886224156675095,-0.953761274703909,-0.7822497171045363,0.004688543286723195,0.026848207463211773,-0.9525781532246441
13729,6.0,301.2287,7894.0175,0.0,0.0,0.0,0.0,0.0,-0.13683432877627605,-0.6174746008074984,-0.9882424086544321,-0.7938671766560902,-0.014397987038720687,0.017431468360351983,-0.9495128284921202
13730,6.0,300.06857,7623.710999999999,0.0,0.0,0.0,0.0,0.0,-0.13684429558585992,-0.5947621539859544,-0.959403375500741,-0.7632522605821332,-0.02059206292027838,0.023322882384039276,-0.957701773945306
13731,6.0,299.70768,7154.1232,0.0,0.0,0.0,0.0,0.0,-0.13685426239544368,-0.5511252921318315,-0.8889342729784822,-0.7346152593658813,-0.0074265215650906125,-0.006071545472139885,-0.9444194127569391
13732,6.0,301.33083,7242.4209,0.0,0.0,0.0,0.0,0.0,-0.13686422920502755,-0.5373333776006756,-0.9128475123610351,-0.7513342102559133,0.009197269131199792,0.03395682565977776,-0.9231043188833032
13733,6.0,300.35855,7610.0967,0.0,0.0,0.0,0.0,0.0,-0.13687419601461132,-0.5540872552216545,-0.9541347080282641,-0.8050573993029793,0.001847103864494958,0.004979559253244235,-0.9504827925478482
13734,6.0,299.74829,7741.028,0.0,0.0,0.0,0.0,0.0,-0.13688416282419513,-0.5861542600139215,-0.9747440934722521,-0.7921808549121633,-0.007006991643336233,-0.013802645862965089,-0.9585506242165811
13735,6.0,299.51932,7522.2968,0.0,0.0,0.0,0.0,0.0,-0.136894129633779,-0.5512621923528425,-0.9675419421589551,-0.7677862812021062,-0.0033168034774930166,-0.007850785289987183,-0.985122408946512
13736,6.0,299.3868,7275.5391,0.0,0.0,0.0,0.0,0.0,-0.13690409644336282,-0.5260164784262845,-0.949559863561762,-0.7360058742006242,-0.0038737180551312064,0.004677442726577655,-1.00235027483177
13737,6.0,299.35992999999996,7459.2016,0.0,0.0,0.0,0.0,0.0,-0.13691406325294664,-0.5523734946650194,-0.95704543106053,-0.7579920942779953,0.04068141902869346,-0.015638163617866588,-0.974620811332585
13738,6.0,300.02081,7717.5027,0.0,0.0,0.0,0.0,0.0,-0.13692403006253046,-0.5766091400968915,-0.9963045863876071,-0.7730143882730803,0.010740590888513792,-0.01989556088103898,-0.971447129634367
13739,6.0,299.06375,7405.8546,0.0,0.0,0.0,0.0,0.0,-0.13693399687211427,-0.5266275594290935,-0.9581294161500111,-0.7664378884990303,0.025606281001143177,-0.015386126774742487,-0.953866926291836
13740,6.0,300.45468,7072.3501,0.0,0.0,0.0,0.0,0.0,-0.1369439636816981,-0.5115354221046154,-0.9208104422469151,-0.7174719694664703,0.01183726997524759,0.012003614230914488,-0.960651608431432
13741,6.0,299.94035,7353.9307,0.0,0.0,0.0,0.0,0.0,-0.1369539304912819,-0.5420541807440825,-0.951689066791898,-0.7416680474819373,-0.0027300389572088675,0.0036492903520569165,-0.9477486587430102
13742,6.0,300.50032999999996,7799.0695,0.0,0.0,0.0,0.0,0.0,-0.13696389730086578,-0.6023865468809235,-0.97447059700526,-0.7938652312158982,-0.006787666465115524,0.004396557842506476,-0.967605300687708
13743,6.0,300.71778,7778.2933,0.0,0.0,0.0,0.0,0.0,-0.13697386411044954,-0.5959025365760015,-0.972757788903719,-0.7957466137365762,-0.01008113043583011,-0.014796113268012685,-0.9391979019441161
13744,6.0,299.96583,7484.9508,0.0,0.0,0.0,0.0,0.0,-0.13698383092003336,-0.5484322658835504,-0.9519978750248751,-0.7748080030700962,0.004352111930845006,0.015569167365557185,-0.9359546910240362
13745,6.0,299.09344,7398.108,0.0,0.0,0.0,0.0,0.0,-0.13699379772961717,-0.5491209111815145,-0.9373062653324262,-0.7624129348617983,0.003396446657878187,-0.01075001107469349,-0.9337048401044931
13746,6.0,298.89054,7743.825,0.0,0.0,0.0,0.0,0.0,-0.137003764539201,-0.6278430776232874,-0.9625739363886511,-0.7635124226778093,0.008834813155778172,0.007457473113245293,-0.941157750552538
13747,6.0,298.75465,7827.7151,0.0,0.0,0.0,0.0,0.0,-0.13701373134878486,-0.6051279963514834,-0.981506555037155,-0.7927953809653122,-0.003730826587603916,-0.0071594721045098834,-0.9716335777852682
13748,6.0,298.40524,7485.5058,0.0,0.0,0.0,0.0,0.0,-0.13702369815836868,-0.5934840808398184,-0.9423669530893771,-0.7395558060584753,0.02097082796665958,0.02336901768759248,-0.9719072971672822
13749,6.0,299.87768,7440.4388,0.0,0.0,0.0,0.0,0.0,-0.13703366496795244,-0.5297684320890735,-0.9681429615882711,-0.7637962036333162,0.0036040391092159664,0.007864543301169993,-0.959474637380274
13750,6.0,299.17719,7472.9332,0.0,0.0,0.0,0.0,0.0,-0.1370436317775363,-0.5461232006281634,-0.9566734568163191,-0.7687884260810103,0.008044038732534812,-0.0035160424923563766,-0.9512339148469781
13751,6.0,299.90604,7736.7969,0.0,0.0,0.0,0.0,0.0,-0.13705359858712007,-0.5513669624131825,-0.9976331903162301,-0.8027928967869902,-0.00033362055957078567,0.011041178623429489,-0.941428501111759
13752,6.0,300.42734,7652.8714,0.0,0.0,0.0,0.0,0.0,-0.137063565396704,-0.5784529918338654,-0.9667209056029251,-0.7811079058318483,0.007465241093811932,0.012176125126689988,-0.944318898347019
13753,6.0,300.0667,7284.169,0.0,0.0,0.0,0.0,0.0,-0.13707353220628776,-0.5070706368639756,-0.95478476876242,-0.7523500745411712,0.005085539843478705,0.006874229941033674,-0.9731564420230631
13754,6.0,299.86302,7330.9294,0.0,0.0,0.0,0.0,0.0,-0.13708349901587158,-0.5411119493435915,-0.95736764459233,-0.7299399004894593,-0.006212928818218334,-0.004374010697306246,-0.9959183253169861
13755,6.0,299.43497,7627.9368,0.0,0.0,0.0,0.0,0.0,-0.1370934658254554,-0.5549959379113345,-0.981327027384437,-0.7823793421898293,0.0010537562926226489,-0.024001042569968475,-0.9828960451642871
13756,6.0,299.2949,7613.1873,0.0,0.0,0.0,0.0,0.0,-0.1371034326350392,-0.5535399481801395,-0.973790614995651,-0.7868882848698272,0.009059233360801722,0.0014045994086481688,-0.961012143082014
13757,6.0,299.47465,7463.7343,0.0,0.0,0.0,0.0,0.0,-0.13711339944462309,-0.5578735580628335,-0.9394285176668762,-0.7714867921573182,-0.004994836025001935,-0.010412702142903688,-0.9492512275813022
13758,6.0,299.79188,7347.3805,0.0,0.0,0.0,0.0,0.0,-0.13712336625420685,-0.5652467257280085,-0.9175150590791862,-0.7506584332342192,-0.003214639192435187,-0.0045068168812881955,-0.9409090989779981
13759,6.0,299.67323,7509.8338,0.0,0.0,0.0,0.0,0.0,-0.13713333306379066,-0.5797006370794984,-0.9346824845959791,-0.7684188228420333,-0.007187589896109893,-0.0015635134000067585,-0.9432566272071811
13760,6.0,299.91115,7815.7032,0.0,0.0,0.0,0.0,0.0,-0.13714329987337454,-0.6126904695328415,-0.9552641981797362,-0.8078239368460153,0.03872756176811276,0.015647439922532085,-0.9371791632398822
13761,6.0,299.66278,7780.9415,0.0,0.0,0.0,0.0,0.0,-0.1371532666829583,-0.5925246951151344,-0.9689177635422381,-0.8037694571008692,0.005583625221635905,0.016935436840147484,-0.938382965153688
13762,6.0,299.4925,7562.2256,0.0,0.0,0.0,0.0,0.0,-0.13716323349254217,-0.5718046019652204,-0.952854142286882,-0.7740690093746633,0.013761765274430487,0.018779411180383586,-0.944118801717271
13763,6.0,299.54611,7335.1742,0.0,0.0,0.0,0.0,0.0,-0.13717320030212599,-0.5760817636848434,-0.9106013699368581,-0.7430266740110233,-0.0010974636462862289,0.002227276213940048,-0.9441538703032321
13764,6.0,299.90047999999996,7477.1556,0.0,0.0,0.0,0.0,0.0,-0.13718316711170975,-0.5828158441144454,-0.9459382847893402,-0.7441144790533814,-0.013621118054549687,0.01953967603516588,-0.929976667421551
13765,6.0,299.67071,7711.2776,0.0,0.0,0.0,0.0,0.0,-0.13719313392129362,-0.5885360158314824,-0.9555358910615501,-0.7999639329052933,-0.004396385488664465,0.008426138283670101,-0.95734879814047
13766,6.0,300.33348,7620.4425,0.0,0.0,0.0,0.0,0.0,-0.13720310073087744,-0.5868680035168625,-0.9524727346842401,-0.7770834993496702,-0.017533502645421983,-0.008416215120140761,-0.950268226706672
13767,6.0,299.94026,7411.1435,0.0,0.0,0.0,0.0,0.0,-0.13721306754046125,-0.5218734102248955,-0.9533597642192831,-0.7775693933026242,-0.013268541470253088,0.02167892665329348,-0.9809692893041312
13768,6.0,300.16119,7401.3055,0.0,0.0,0.0,0.0,0.0,-0.13722303435004507,-0.5546051273477645,-0.9273277884801272,-0.7678791455737712,0.00971874518526547,-0.0013495097099862387,-0.9277857369953231
13769,6.0,300.83513,7674.196,0.0,0.0,0.0,0.0,0.0,-0.1372330011596289,-0.5730050500211955,-0.9750193833919211,-0.7847395259127613,0.01071581895006899,0.014418204417965987,-0.9526427276535171
13770,6.0,300.62487000000004,7723.1903,0.0,0.0,0.0,0.0,0.0,-0.13724296796921276,-0.5800577064147384,-0.9743654621748841,-0.7932338446810852,-0.016250656078064883,-0.012665242228212088,-0.9356537456118351
13771,6.0,299.83145,7509.0346,0.0,0.0,0.0,0.0,0.0,-0.13725293477879652,-0.5609882686052314,-0.965952041294544,-0.7556186977737593,0.012393651684658188,-0.006122060245275305,-0.969440428341321
13772,6.0,298.93057000000005,7403.5278,0.0,0.0,0.0,0.0,0.0,-0.1372629015883804,-0.5377640798206825,-0.9596209709597161,-0.7531025343304333,0.012812980172292687,0.008653315339565731,-0.971936195060134
13773,6.0,298.97325,7595.6804,0.0,0.0,0.0,0.0,0.0,-0.13727286839796415,-0.5513867917176395,-0.978120090817937,-0.7793902847923323,0.009804180609847292,0.013450939660504388,-0.980912466238523
13774,6.0,300.63959,7763.3904,0.0,0.0,0.0,0.0,0.0,-0.13728283520754797,-0.5957856683094674,-0.988223004915017,-0.7758681565172253,-0.007885565504969723,-0.01003838344061131,-0.977718418213295
13775,6.0,299.89385,7480.4757,0.0,0.0,0.0,0.0,0.0,-0.13729280201713184,-0.5687915305403535,-0.9392157351458761,-0.7658705495030382,-0.02500204450275968,0.012430957526839988,-0.952273033222031
13776,6.0,299.53443,7274.4762,0.0,0.0,0.0,0.0,0.0,-0.13730276882671566,-0.5464561242135205,-0.9244127490024351,-0.7403902377808274,-0.0033952234623574663,-0.0042140318814175666,-0.966370088020802
13777,6.0,300.45746,7450.6353,0.0,0.0,0.0,0.0,0.0,-0.13731273563629948,-0.5616187026849505,-0.9411144746407671,-0.7620739013783382,0.0064143901945260245,-0.007918971448841633,-0.935340489210919
13778,6.0,300.42049,7691.7454,0.0,0.0,0.0,0.0,0.0,-0.1373227024458833,-0.5791383643340065,-0.9584219313213801,-0.8005382430619732,0.0010283717431673889,-0.015707056518665784,-0.9647255527109991
13779,6.0,301.2261,7727.5571,0.0,0.0,0.0,0.0,0.0,-0.13733266925546705,-0.5753109539362704,-0.9808823220480479,-0.7927911253148923,0.0037040908691403063,0.004198875281121726,-0.9529627120350971
13780,6.0,301.81737000000004,7502.3262,0.0,0.0,0.0,0.0,0.0,-0.13734263606505093,-0.5879887087899675,-0.9477404108871961,-0.7447907221701213,0.008713048966085983,0.026916545102956175,-0.954050314427435
13781,6.0,299.84702999999996,7282.2835,0.0,0.0,0.0,0.0,0.0,-0.13735260287463474,-0.5359933644759265,-0.9426736638946471,-0.7349653372754313,-0.002068000998920808,0.03666344871115067,-0.9480636984641021
13782,6.0,300.25415,7655.7381,0.0,0.0,0.0,0.0,0.0,-0.13736256968421862,-0.5985129424111284,-0.9727849237413971,-0.7558553524671152,-0.0006719152317203704,0.01802320844525218,-0.9477625200043782
13783,6.0,300.15157,7887.9975,0.0,0.0,0.0,0.0,0.0,-0.13737253649380238,-0.5971371007628434,-0.996906213766983,-0.8037109520400952,-0.003983200944336326,0.02946426622064667,-0.946879411747222
13784,6.0,299.49327,7550.4438,0.0,0.0,0.0,0.0,0.0,-0.1373825033033862,-0.5616696590324796,-0.9650213913426962,-0.7684553201106353,0.020655288713268282,-0.012978659735893988,-0.9603578874924441
13785,6.0,300.5358,7352.1868,0.0,0.0,0.0,0.0,0.0,-0.13739247011297,-0.5154921536126145,-0.9507518003168971,-0.7686372491660902,-0.008002927122977413,-0.027397575455430177,-0.978794418891988
13786,6.0,299.55272,7327.6088,0.0,0.0,0.0,0.0,0.0,-0.13740243692255383,-0.5673927590423055,-0.9130838934768641,-0.7469334624215932,0.00024947407017617375,-0.045471654121952865,-0.950244324136813
13787,6.0,298.76645,7585.2119999999995,0.0,0.0,0.0,0.0,0.0,-0.1374124037321377,-0.5578051332835805,-0.9758276023341861,-0.7720823197710923,-0.02361423130454318,-0.02327097155491608,-0.9621567711899801
13788,6.0,299.20255,7692.3803,0.0,0.0,0.0,0.0,0.0,-0.13742237054172152,-0.6077121286115174,-0.9508637543204461,-0.7797156495319433,0.002087160545061708,0.0007283314875457214,-0.9145818418947002
13789,6.0,299.93199,7583.2513,0.0,0.0,0.0,0.0,0.0,-0.13743233735130528,-0.5570840234524125,-0.9871677150683681,-0.7608672927617552,0.007027328079468284,-0.0012941808843007089,-0.947094362623436
13790,6.0,300.72008,7611.0868,0.0,0.0,0.0,0.0,0.0,-0.13744230416088915,-0.5574706290280675,-0.9708068771611791,-0.7853028220408542,0.022704612371770776,-0.0003455796059960517,-0.9332075166904111
13791,6.0,301.55706000000004,7863.4291,0.0,0.0,0.0,0.0,0.0,-0.1374522709704729,-0.5874881227105635,-0.9837113467247511,-0.8190866271400562,0.007861425631937305,0.0064260292970997135,-0.9296352730653582
13792,6.0,299.85143999999997,7821.2285,0.0,0.0,0.0,0.0,0.0,-0.13746223778005678,-0.6067185152984554,-0.988200733677819,-0.7825389088155772,0.015735567349979586,0.005569640141105684,-0.94400794202383
13793,6.0,300.58468999999997,7628.5882,0.0,0.0,0.0,0.0,0.0,-0.1374722045896406,-0.5862843714592625,-0.947814611192019,-0.7848013443013623,-0.012841539639611288,0.015494833311720985,-0.9206706542631191
13794,6.0,300.05017999999995,7445.5198,0.0,0.0,0.0,0.0,0.0,-0.13748217139922442,-0.5682053146949985,-0.9420531697984091,-0.7529936200771843,-0.0034070155656962565,-0.008384337765369712,-0.9525678687361292
13795,6.0,299.82232,7374.9759,0.0,0.0,0.0,0.0,0.0,-0.13749213820880823,-0.5563887616312955,-0.9359914720026661,-0.7494282969503143,-0.0070515697841357534,0.011574998292863388,-0.9332137279135242
13796,6.0,299.83622,7645.4209,0.0,0.0,0.0,0.0,0.0,-0.13750210501839205,-0.5805665099524534,-0.949864507336828,-0.7935860301508432,-0.011856836847928688,-0.004130804936753706,-0.9519208984147781
13797,6.0,298.87469,7721.6754,0.0,0.0,0.0,0.0,0.0,-0.13751207182797592,-0.5915753000364364,-0.9717513985068962,-0.7838698229544283,-0.006224334062668944,-0.000953803040873031,-0.9179765235722291
13798,6.0,298.34529,7487.5863,0.0,0.0,0.0,0.0,0.0,-0.13752203863755974,-0.5676974028173715,-0.946714991653495,-0.7616268756992203,-0.02484820172682658,-0.014483046344865384,-0.9386337850834422
13799,6.0,300.0263,7557.1208,0.0,0.0,0.0,0.0,0.0,-0.1375320054471435,-0.5538701562552285,-0.963872598776819,-0.7794332668615743,0.008559812721662742,0.007378302208731733,-0.919996569369092
13800,6.0,299.83477999999997,7576.9388,0.0,0.0,0.0,0.0,0.0,-0.13754197225672737,-0.5899162853827044,-0.9621079831976652,-0.7511759304577923,0.011349494416857888,-0.0014694649442748987,-0.9407152642338681
13801,6.0,300.04385,7610.9048,0.0,0.0,0.0,0.0,0.0,-0.13755193906631114,-0.5457197447033455,-0.986274018347667,-0.7815312619886302,0.004089589266411036,0.019957901093441484,-0.968290602260342
13802,6.0,300.40786,7560.6673,0.0,0.0,0.0,0.0,0.0,-0.137561905875895,-0.5623003261597215,-0.978593856167194,-0.7573598971431023,-0.0074890759785642535,-0.0007368222700711962,-0.9653060031632852
13803,6.0,300.94981,7396.5039,0.0,0.0,0.0,0.0,0.0,-0.13757187268547882,-0.5258138993337915,-0.964197700071404,-0.7583408853599183,0.01091574940680059,0.014254265618036487,-0.9741012673438101
13804,6.0,300.51219,7491.2726,0.0,0.0,0.0,0.0,0.0,-0.13758183949506259,-0.5687405944578264,-0.9467239791818821,-0.7616952396834673,-0.0006826708106043634,0.004740909369116326,-0.9392099494878051
13805,6.0,300.15307,7693.7988,0.0,0.0,0.0,0.0,0.0,-0.13759180630464646,-0.5551356549676234,-0.982388791899225,-0.8011982741771132,0.00862484645680607,-0.013636502230817986,-0.958860942192207
13806,6.0,300.18944,7776.6381,0.0,0.0,0.0,0.0,0.0,-0.13760177311423027,-0.6311027335924904,-0.9646955605080391,-0.7681055157786122,-0.008136093213394882,-0.022565181052009976,-0.9212580556110912
13807,6.0,300.18995,7645.9001,0.0,0.0,0.0,0.0,0.0,-0.1376117399238141,-0.5627820151247604,-0.968669547665241,-0.7927111393519982,-0.007518768766119703,0.003186783123336007,-0.9519028524304972
13808,6.0,300.3643,7617.8536,0.0,0.0,0.0,0.0,0.0,-0.1376217067333979,-0.6012854277322515,-0.9608980105907501,-0.7534538484051052,0.013017982959024886,-0.012391921053487388,-0.9311412261589841
13809,6.0,299.59394,7650.3783,0.0,0.0,0.0,0.0,0.0,-0.13763167354298173,-0.5463663401221595,-0.965443643056869,-0.8137139900748181,-0.006345643404391243,0.002078225199054858,-0.9455756831085541
13810,6.0,299.22835,7659.5713,0.0,0.0,0.0,0.0,0.0,-0.13764164035256554,-0.5731717195301445,-0.9681204167735461,-0.7870262895334472,-0.015028076613405687,-0.017997297613694983,-0.9354571649599341
13811,6.0,299.19518999999997,7479.0057,0.0,0.0,0.0,0.0,0.0,-0.13765160716214936,-0.5601022219227855,-0.9462367274737941,-0.7670920326310893,0.003517404807115827,-0.010074591730284792,-0.932809988278678
13812,6.0,300.85289,7346.2001,0.0,0.0,0.0,0.0,0.0,-0.13766157397173318,-0.5862366575120534,-0.9204509411114351,-0.7263737971600123,0.015074178479705587,0.004177686499005556,-0.9550254359261721
13813,6.0,300.80216,7473.5678,0.0,0.0,0.0,0.0,0.0,-0.137671540781317,-0.5642761537222205,-0.9572501987732391,-0.7502516437165723,0.015983232018922187,0.012362762755359689,-0.9483216212770571
13814,6.0,300.24048,7633.2993,0.0,0.0,0.0,0.0,0.0,-0.1376815075909008,-0.5975487336159684,-0.9610726341129842,-0.7617110058550233,-0.0005393177164640145,0.019251271619452583,-0.9787688748569671
13815,6.0,300.91615,7779.0013,0.0,0.0,0.0,0.0,0.0,-0.13769147440048468,-0.5953899232179105,-0.9687878243494141,-0.8004444161027132,-0.037218656063695364,0.04068708613650276,-0.9458702247801231
13816,6.0,301.79181,7700.8272,0.0,0.0,0.0,0.0,0.0,-0.1377014412100685,-0.5867452989297525,-0.971745116356276,-0.7823687638587853,-0.020615088015550783,0.015512042351419385,-0.968038769080488
13817,6.0,301.6099,7435.2754,0.0,0.0,0.0,0.0,0.0,-0.13771140801965231,-0.5432490052620025,-0.94359392803297,-0.7732951294782873,-0.01018574830600509,-0.003387977305592327,-0.9470585340999002
13818,6.0,300.92397,7428.1376,0.0,0.0,0.0,0.0,0.0,-0.13772137482923613,-0.5693757198855085,-0.9395338855447751,-0.7490587545063433,0.006497524325480724,-0.018888355831135583,-0.980673744514963
13819,6.0,301.14563,7637.3357,0.0,0.0,0.0,0.0,0.0,-0.1377313416388199,-0.5699117798509135,-0.9896832705616341,-0.7619642879825202,-0.005160921091293255,-0.024146330475307277,-0.949807025658655
13820,6.0,299.86343999999997,7495.7496,0.0,0.0,0.0,0.0,0.0,-0.13774130844840377,-0.5735296095979654,-0.9551810407440291,-0.7498100591904914,-0.0023391182533529977,-0.00095365438695086,-0.9630187937125552
13821,6.0,300.2278,7354.8738,0.0,0.0,0.0,0.0,0.0,-0.13775127525798758,-0.49285211364321657,-0.956086744478415,-0.7867591157470794,0.014129634842486385,0.02304744959610618,-0.9736117966180031
13822,6.0,299.78787,7488.2943,0.0,0.0,0.0,0.0,0.0,-0.1377612420675714,-0.5340856273201475,-0.9707086526964851,-0.7714602146071953,0.012585366709578988,0.021566778105725277,-0.935796755730949
13823,6.0,299.72622,7724.3678,0.0,0.0,0.0,0.0,0.0,-0.13777120887715522,-0.5605325289752535,-0.9661389960704951,-0.8213434188227843,0.015674641634716685,-0.007378264718478034,-0.949617162854917
13824,6.0,299.79827,7871.6397,0.0,0.0,0.0,0.0,0.0,-0.13778117568673903,-0.6424898915288153,-0.9725276494085061,-0.7777643831518682,0.01016837815954079,-0.017115891616706985,-0.9329569298081801
13825,6.0,299.90044,7824.7727,0.0,0.0,0.0,0.0,0.0,-0.13779114249632285,-0.6088473740235575,-0.9651850312338461,-0.8045031008357743,0.008428616389439673,-0.011609049575723989,-0.971320341649354
13826,6.0,299.33159,7554.0897,0.0,0.0,0.0,0.0,0.0,-0.13780110930590667,-0.5869911032715115,-0.9437672545950762,-0.7654962954461023,-0.012603776450645886,-0.005036553760769155,-0.9521937970642111
13827,6.0,300.19973999999996,7599.7731,0.0,0.0,0.0,0.0,0.0,-0.13781107611549054,-0.5580369547739594,-0.964810422539375,-0.7872938787523562,-0.02998617716165527,-0.0015125714406291786,-0.9546550322196161
13828,6.0,300.70262,7768.2598,0.0,0.0,0.0,0.0,0.0,-0.1378210429250743,-0.6003492251698554,-0.9662170467256981,-0.7947907237247372,-0.026789799674447376,0.0042063719133115865,-0.933564190858112
13829,6.0,300.75452,7586.9892,0.0,0.0,0.0,0.0,0.0,-0.13783100973465812,-0.5791785093029684,-0.9466998739620031,-0.7803768864147023,-0.004566168816495776,0.014911896343689586,-0.9158309664854792
13830,6.0,300.5008,7272.5385,0.0,0.0,0.0,0.0,0.0,-0.137840976544242,-0.5489512323197684,-0.9330773241850621,-0.7286415623413234,0.0007016814799080702,0.006637221319417744,-0.9485000748846689
13831,6.0,300.2389,7432.5516,0.0,0.0,0.0,0.0,0.0,-0.13785094335382575,-0.5469571358579665,-0.9714952083516121,-0.7408577412444664,0.015100011291005085,0.0014526414462395485,-0.9399912058449091
13832,6.0,300.2299,7765.4838,0.0,0.0,0.0,0.0,0.0,-0.13786091016340962,-0.5885514881605094,-0.9932027441214791,-0.7787589286550223,-0.007849063271442233,-0.01157148940776709,-0.986313008211515
13833,6.0,300.04368999999997,7732.5578,0.0,0.0,0.0,0.0,0.0,-0.13787087697299344,-0.5820436360807345,-0.975585952317837,-0.7928749008331603,-0.0006071181918004005,-0.01975535645145188,-0.95777375523241
13834,6.0,298.77769,7393.8501,0.0,0.0,0.0,0.0,0.0,-0.13788084378257726,-0.5379000782491045,-0.955789831801612,-0.7538558959122843,0.01033926076240559,0.005435990223765464,-0.981406709372301
13835,6.0,300.10859,7348.4504,0.0,0.0,0.0,0.0,0.0,-0.13789081059216107,-0.5390317874182955,-0.9431879389829022,-0.7515257145248132,0.031105747594648268,0.01131374594007979,-0.9199128850433331
13836,6.0,299.77745,7558.3434,0.0,0.0,0.0,0.0,0.0,-0.1379007774017449,-0.6050470680659964,-0.9452183300632861,-0.7472822535035163,0.014083044589638287,0.0012449026815873287,-0.9345630933366962
13837,6.0,299.52344,7724.1336,0.0,0.0,0.0,0.0,0.0,-0.13791074421132876,-0.5792252505300814,-0.970919601234804,-0.7977989011516212,0.018922845851289484,-0.026817621495693177,-0.951708460398812
13838,6.0,299.74207,7847.0619,0.0,0.0,0.0,0.0,0.0,-0.13792071102091252,-0.6213677914017264,-0.989225909731496,-0.7747171753311323,-0.026211269331100875,-0.009710348584336791,-0.9383645746643732
13839,6.0,300.68177000000003,7540.6302,0.0,0.0,0.0,0.0,0.0,-0.13793067783049634,-0.5271196139426555,-0.9597378797562541,-0.8053057874324931,-0.0033530502706702967,-0.0011726778091592888,-0.978910496823444
13840,6.0,299.43426,7402.8033,0.0,0.0,0.0,0.0,0.0,-0.13794064464008016,-0.5621173433241624,-0.940046488770365,-0.7481035129745683,-0.023418696326745377,-0.009772840784254291,-0.9353621423655561
13841,6.0,301.12663,7846.6367,0.0,0.0,0.0,0.0,0.0,-0.13795061144966397,-0.6011189507408214,-0.9696894345533961,-0.8143732308548802,0.0014837554183852587,-0.014766527378342787,-0.9437181727602322
13842,6.0,301.27322999999996,7783.6116,0.0,0.0,0.0,0.0,0.0,-0.13796057825924785,-0.6332326967602014,-0.961976078299647,-0.7708148046909983,0.013910072665067288,0.013371332653147789,-0.9251386515065761
13843,6.0,300.38931,7367.2774,0.0,0.0,0.0,0.0,0.0,-0.13797054506883166,-0.5373026558576435,-0.9563306743074891,-0.7458350283856863,0.02903574856785527,0.0037312798143736467,-0.9605986559812061
13844,6.0,300.00426,7446.6409,0.0,0.0,0.0,0.0,0.0,-0.13798051187841542,-0.5496267053664324,-0.9369036605376921,-0.7770625250726003,0.011409093787739888,-0.002136321210763488,-0.9416286382715111
13845,6.0,299.94506,7898.8475,0.0,0.0,0.0,0.0,0.0,-0.1379904786879993,-0.5873198320014544,-0.989326241756398,-0.8244063421525712,0.006927575430973463,-0.049757919893724356,-0.9460181896922262
13846,6.0,298.36711,7899.0261,0.0,0.0,0.0,0.0,0.0,-0.13800044549758306,-0.6210922583020334,-0.981179254989853,-0.7988351824263943,0.00048150790737863045,-0.007176994745114233,-0.9588968619082522
13847,6.0,299.0067,7638.6367,0.0,0.0,0.0,0.0,0.0,-0.13801041230716693,-0.5928661502663334,-0.956132482587929,-0.7729561871873363,0.004348123981101426,0.02416466726236698,-0.9260980980262662
13848,6.0,299.21925,7466.3089,0.0,0.0,0.0,0.0,0.0,-0.13802037911675075,-0.5652509104509215,-0.9478047826660491,-0.7565157888822952,-0.013912779056084386,0.02939350184691277,-0.9806239331400471
13849,6.0,299.72521,7508.3031,0.0,0.0,0.0,0.0,0.0,-0.13803034592633456,-0.5671593670142715,-0.949547633633055,-0.7656296695567653,-0.026976033016327176,-0.006470215208785524,-0.9446960502992411
13850,6.0,300.06477,7581.811,0.0,0.0,0.0,0.0,0.0,-0.13804031273591838,-0.5457908748603655,-0.9751280949951501,-0.7837622664563133,-0.04256347434743786,0.015889496252171183,-0.9992616048169419
13851,6.0,300.84899,7640.344,0.0,0.0,0.0,0.0,0.0,-0.1380502795455022,-0.5569496968866555,-0.9779152420452201,-0.7876088475459412,-0.026315213592609375,0.0039956530787902565,-0.9338923926980032
13852,6.0,299.80436000000003,7358.6348,0.0,0.0,0.0,0.0,0.0,-0.138060246355086,-0.5386491436505315,-0.955852643175311,-0.7423394472631992,-0.006333510849018854,0.0018131824802971783,-0.9676926935088331
13853,6.0,299.85442,7280.5126,0.0,0.0,0.0,0.0,0.0,-0.13807021316466983,-0.5351365500588655,-0.9464314133480081,-0.7315260827260033,0.00950262056013563,-0.01137404648003099,-0.9526419170534371
13854,6.0,299.9033,7721.1138,0.0,0.0,0.0,0.0,0.0,-0.13808017997425365,-0.6136618926687134,-0.9666802844064161,-0.7666836219132823,0.014609917416386587,-0.005096384355323975,-0.9735801325523781
13855,6.0,300.27263999999997,7882.4363,0.0,0.0,0.0,0.0,0.0,-0.13809014678383752,-0.6151271536383235,-0.980642445219374,-0.8002942321728913,0.012310277413429788,0.022806166376293378,-0.965539972743876
13856,6.0,298.47844,7543.4582,0.0,0.0,0.0,0.0,0.0,-0.13810011359342128,-0.5429604215010215,-0.98214242013741,-0.7679200808778113,-0.016897800678433085,0.0069806198843085435,-0.9759229289035941
13857,6.0,299.3212,7471.5657,0.0,0.0,0.0,0.0,0.0,-0.13811008040300515,-0.5263797285871344,-0.9330920061790111,-0.8116976730383233,0.0002046875443610878,-0.06136293572080023,-0.9842590185363022
13858,6.0,299.05447999999996,7492.6202,0.0,0.0,0.0,0.0,0.0,-0.13812004721258891,-0.5833038658926094,-0.9512946287929701,-0.7429709452555232,-0.01079261317514799,-0.009310064740281851,-0.96547546924251
13859,6.0,299.54314,7466.6637,0.0,0.0,0.0,0.0,0.0,-0.13813001402217273,-0.5686525835541405,-0.9325528659333021,-0.7684738828524672,0.00019153746297327585,-0.00023052021380557379,-0.985103623289658
13860,6.0,299.51752,7501.3859999999995,0.0,0.0,0.0,0.0,0.0,-0.1381399808317566,-0.5906583694909424,-0.92591615883831,-0.7636595060623254,0.008282259099945332,0.02741258878216187,-0.955223870825756
13861,6.0,300.12768,7508.5055,0.0,0.0,0.0,0.0,0.0,-0.13814994764134042,-0.5363323574293825,-0.969221059694671,-0.7768447674936092,-0.0077312851063184316,0.01217222512705509,-0.956401125586942
13862,6.0,299.91125,7531.9262,0.0,0.0,0.0,0.0,0.0,-0.13815991445092424,-0.5570858067725885,-0.9417885797997961,-0.7906431060303992,-0.020595654891882878,0.036377550062934666,-0.96123785467429
13863,6.0,299.46756,7826.9074,0.0,0.0,0.0,0.0,0.0,-0.13816988126050805,-0.5819416524581693,-1.0006284589368402,-0.7966143104597112,-0.005281582966201655,0.03070500718009827,-0.9336567816522501
13864,6.0,299.52472,7920.5348,0.0,0.0,0.0,0.0,0.0,-0.13817984807009182,-0.6424822110930574,-0.9842407293719971,-0.7809218629809872,-0.025853577860299477,0.0070020750498760035,-0.962255948109768
13865,6.0,301.08855,7662.340999999999,0.0,0.0,0.0,0.0,0.0,-0.1381898148796757,-0.6013571354418284,-0.9604865398576411,-0.7673166499132572,0.004614499833015676,-0.03975546853080926,-0.9377656830602671
13866,6.0,301.17053,7319.1566,0.0,0.0,0.0,0.0,0.0,-0.1381997816892595,-0.5443577339189255,-0.9509822741846432,-0.7295008490886283,-0.01044210058130509,-0.006141849222378324,-0.993656335661245
13867,6.0,301.42452000000003,7477.0479,0.0,0.0,0.0,0.0,0.0,-0.13820974849884338,-0.5689594868769294,-0.9365414134944411,-0.7673349593425643,0.014559354209896385,0.018360107010751484,-0.9342771642909771
13868,6.0,300.55949,7774.5244,0.0,0.0,0.0,0.0,0.0,-0.13821971530842714,-0.5591254488263855,-0.981600219876399,-0.8225356088904442,-0.019225086197118282,0.005189704993509005,-0.985388691072792
13869,6.0,299.09775,7637.2059,0.0,0.0,0.0,0.0,0.0,-0.13822968211801095,-0.5812413142540515,-0.9537949551372332,-0.7864836333098912,0.008302553688848252,-0.005703955257136555,-0.963747026691926
13870,6.0,298.78845,7609.7256,0.0,0.0,0.0,0.0,0.0,-0.13823964892759483,-0.5612894571974565,-0.9564849416352141,-0.7953921585865942,0.006925354488079273,0.0023723970343373577,-0.9781005958860131
13871,6.0,300.18175,7543.6397,0.0,0.0,0.0,0.0,0.0,-0.1382496157371786,-0.5916042688567955,-0.9424934168343582,-0.7589804082930343,0.024002302039842775,0.0070223327564752835,-0.9532975303981411
13872,6.0,299.20001,7640.3479,0.0,0.0,0.0,0.0,0.0,-0.13825958254676246,-0.5627429442009045,-0.990189105276556,-0.7695429225029733,0.009029781625445061,-0.005838223459687796,-0.962641236460293
13873,6.0,300.45294,7801.6924,0.0,0.0,0.0,0.0,0.0,-0.13826954935634628,-0.5896084194723205,-0.9891828263372441,-0.7927284152662032,-0.014736860428664884,-0.014882093618498286,-0.957432036636185
13874,6.0,300.6841,7737.5637,0.0,0.0,0.0,0.0,0.0,-0.13827951616593004,-0.5563056345930915,-1.0033652474569401,-0.7923552757843773,-0.019401817279560283,0.03317824225643757,-0.9592678634323671
13875,6.0,300.86936000000003,7521.956,0.0,0.0,0.0,0.0,0.0,-0.1382894829755139,-0.5520302460611435,-0.9632546783358351,-0.7712018966267012,-0.01842541503269688,0.028194835084613575,-0.9471584912222651
13876,6.0,300.41936,7539.496,0.0,0.0,0.0,0.0,0.0,-0.13829944978509773,-0.5816599284003655,-0.9549085676596382,-0.7552500165923732,-0.007398241146849554,-0.008600263185529892,-0.938953313502477
13877,6.0,300.62211,7938.3926,0.0,0.0,0.0,0.0,0.0,-0.1383094165946816,-0.6344558314859153,-0.984609035650846,-0.7940082717325152,0.005600040886506005,-0.02742739641912327,-0.9600746334269892
13878,6.0,300.47834,7908.8872,0.0,0.0,0.0,0.0,0.0,-0.13831938340426536,-0.6353781626544424,-0.9708727181526771,-0.7978533329469932,0.02352494066598088,0.0022990951783780278,-0.9298701140410351
13879,6.0,300.08441,7671.1936,0.0,0.0,0.0,0.0,0.0,-0.13832935021384918,-0.5848917098593175,-0.9570055799340971,-0.7899540149023913,0.007140134732976432,0.015024768351829185,-0.956580369529632
13880,6.0,299.4289,7654.5098,0.0,0.0,0.0,0.0,0.0,-0.138339317023433,-0.5684221704814004,-0.947665855944838,-0.8106918095315523,-0.03603171260505317,0.004341762492998596,-0.9266008524608841
13881,6.0,299.71157999999997,7731.8253,0.0,0.0,0.0,0.0,0.0,-0.1383492838330168,-0.6051438537155485,-0.962666618375298,-0.7824713452989093,-0.024721989267870375,-0.009007208743692293,-0.952243517246618
13882,6.0,300.00765,7727.5301,0.0,0.0,0.0,0.0,0.0,-0.13835925064260068,-0.5847396007543054,-0.965198993820224,-0.7990375791338692,0.0004026661368950536,0.015657691987043882,-0.9547901997829561
13883,6.0,300.10195,7652.8606,0.0,0.0,0.0,0.0,0.0,-0.1383692174521845,-0.6058963945648184,-0.9627760392535971,-0.7576060966524003,0.022127921077355776,0.014393972541824486,-0.9250711589174151
13884,6.0,299.92766,7440.4323,0.0,0.0,0.0,0.0,0.0,-0.13837918426176826,-0.5593624480247755,-0.967988785453055,-0.7343544082601373,0.02044005007402588,-0.025982358908259177,-0.941957174483935
13885,6.0,299.60399,7484.2217,0.0,0.0,0.0,0.0,0.0,-0.13838915107135213,-0.5610511610389385,-0.970219870980746,-0.7437454837644643,0.0060049737246697646,-0.014069551138056587,-0.9513478852182261
13886,6.0,298.93462999999997,7895.9579,0.0,0.0,0.0,0.0,0.0,-0.1383991178809359,-0.5700693909039685,-1.012871580160142,-0.8172330482021223,-0.00030495467059418264,0.0009747573873135641,-0.974586593876708
13887,6.0,298.2684,7840.941999999999,0.0,0.0,0.0,0.0,0.0,-0.13840908469051977,-0.5956667228802284,-0.990647712404317,-0.7971361443937122,-0.016006810348749186,0.031977561152939565,-0.9442548508081982
13888,6.0,298.45729,7397.5007,0.0,0.0,0.0,0.0,0.0,-0.13841905150010358,-0.5447349365336526,-0.9566924957856981,-0.7472280547556672,-0.008806650477198731,-0.01072878044534819,-0.973554933022391
13889,6.0,298.66651,7230.3576,0.0,0.0,0.0,0.0,0.0,-0.1384290183096874,-0.5410067131882055,-0.9161400482959832,-0.7407014170190384,-0.006337318642894654,-0.024443471133382775,-0.9571720163955232
13890,6.0,299.62313,7532.8608,0.0,0.0,0.0,0.0,0.0,-0.13843898511927122,-0.5692846692315224,-0.9469885793129961,-0.7735283188563012,0.011517099155649189,0.002809717702672547,-0.981158270580282
13891,6.0,299.99608,7668.3776,0.0,0.0,0.0,0.0,0.0,-0.13844895192885504,-0.5723550500820455,-0.9527552288121202,-0.8058850321171602,-0.00024193585420220976,0.02078112221668708,-0.956722558916165
13892,6.0,299.87134,7585.4623,0.0,0.0,0.0,0.0,0.0,-0.13845891873843885,-0.5686662320329874,-0.9544206978689891,-0.7827042205693923,-0.004409398051748706,-0.014614964415134686,-0.9413674021307291
13893,6.0,300.83961,7691.6826,0.0,0.0,0.0,0.0,0.0,-0.13846888554802267,-0.5876302918320945,-0.98567562323611,-0.7647735238847703,-0.0074520856624635924,-0.008396972791466692,-0.9533542926687432
13894,6.0,301.13153,7750.8426,0.0,0.0,0.0,0.0,0.0,-0.13847885235760649,-0.6147117920248305,-0.9515519841858691,-0.7897988153845743,0.007031965623850973,0.002305218856682388,-0.934871172029601
13895,6.0,299.80897000000004,7894.3462,0.0,0.0,0.0,0.0,0.0,-0.13848881916719036,-0.6149120609070954,-0.997134144376978,-0.7876378974263083,0.012741800366017788,0.03461351608933807,-0.9467933766812311
13896,6.0,299.86835,7841.4518,0.0,0.0,0.0,0.0,0.0,-0.13849878597677412,-0.6223970508533064,-0.9574691925173521,-0.8037393230428952,-0.01077049696521529,-0.0038096894640870767,-0.9072008620712542
13897,6.0,300.04407000000003,7562.5712,0.0,0.0,0.0,0.0,0.0,-0.138508752786358,-0.5514721681710655,-0.9556126042266212,-0.7917480349994472,0.005341612765726135,-0.029543263251443075,-0.967646033341728
13898,6.0,300.04778,7348.4916,0.0,0.0,0.0,0.0,0.0,-0.13851871959594175,-0.5336976842543605,-0.9273659170813902,-0.7726943532289953,-0.01109484642822609,-0.002114028593988378,-0.9656275479500191
13899,6.0,298.86817,7586.8653,0.0,0.0,0.0,0.0,0.0,-0.13852868640552557,-0.5716141210789215,-0.9372070985451392,-0.7973963976818973,-0.008723132223131123,0.03920155509864226,-0.9567649026378441
13900,6.0,298.73644,7731.5171,0.0,0.0,0.0,0.0,0.0,-0.13853865321510944,-0.5793383596387445,-0.9733808059927059,-0.7974689869190613,-0.007775110503618663,0.008547380244260753,-0.953168574057914
13901,6.0,299.50492,7467.2853,0.0,0.0,0.0,0.0,0.0,-0.13854862002469326,-0.5677839242434104,-0.9355063886497922,-0.7665779703253552,-0.020998584939898982,0.03349932905412637,-0.9452933004381852
13902,6.0,299.78355,7450.8789,0.0,0.0,0.0,0.0,0.0,-0.13855858683427708,-0.5441777300386605,-0.9799710657031141,-0.7407323515445913,-0.0016863661242813785,0.01039900300155169,-0.9687763847557852
13903,6.0,299.81914,7528.3812,0.0,0.0,0.0,0.0,0.0,-0.1385685536438609,-0.5590135353528405,-0.976732657588508,-0.7526937081800853,-0.01061734522585039,0.004189764440197556,-0.9764926591698221
13904,6.0,301.28475,7531.7949,0.0,0.0,0.0,0.0,0.0,-0.13857852045344465,-0.5470273034273915,-0.97125261601267,-0.7711976815062853,-0.046082579084246456,-0.03570624046093157,-0.9852128212529352
13905,6.0,301.3447,7495.1907,0.0,0.0,0.0,0.0,0.0,-0.13858848726302858,-0.5442791665061715,-0.98522776669191,-0.7488439049551393,0.004307851646601856,-0.032386919259590065,-1.0098166108436402
13906,6.0,300.7127,7554.3632,0.0,0.0,0.0,0.0,0.0,-0.13859845407261234,-0.5454518717744085,-0.9571576586416062,-0.7937282499348792,0.025783034375087374,-0.012066762003646689,-0.9612650199094711
13907,6.0,300.41778,7464.2283,0.0,0.0,0.0,0.0,0.0,-0.13860842088219616,-0.5686331392847215,-0.9519889178939911,-0.7483169439756323,0.03541414578835407,0.027019949302161374,-0.968600849308461
13908,6.0,299.89646,7623.1132,0.0,0.0,0.0,0.0,0.0,-0.13861838769177998,-0.5778430558036693,-0.9519631610764492,-0.7874298569157763,0.017089861221637984,-0.015781877945800084,-0.9014911166977462
13909,6.0,300.09762,7974.1063,0.0,0.0,0.0,0.0,0.0,-0.1386283545013638,-0.6353214510463454,-0.9868650572634979,-0.8017426833233423,-0.017183407510620283,-0.004364544002946956,-0.955707616688498
13910,6.0,300.28011000000004,7838.9298,0.0,0.0,0.0,0.0,0.0,-0.13863832131094767,-0.5999396593469345,-0.9697088281603101,-0.8131904437481483,-0.02318673095485218,-0.004852197768674635,-0.9149709096680981
13911,6.0,300.01329,7473.0501,0.0,0.0,0.0,0.0,0.0,-0.13864828812053143,-0.5666667856106575,-0.948483386655522,-0.7564704662053222,-0.017838710800793682,0.02005731106075248,-0.9697159715735151
13912,6.0,299.47388,7606.5716,0.0,0.0,0.0,0.0,0.0,-0.1386582549301153,-0.6037514048981244,-0.9194206481447531,-0.7890357772642683,-0.02084304902304878,0.0018919731120482083,-0.9006535844300882
13913,6.0,300.45533,7923.4259,0.0,0.0,0.0,0.0,0.0,-0.13866822173969912,-0.6509679982955394,-0.9846987184171971,-0.7728569089425382,-0.003542289722946777,0.00978055810231593,-0.9607233465385121
13914,6.0,300.40849,7914.5642,0.0,0.0,0.0,0.0,0.0,-0.13867818854928288,-0.6279102459724164,-0.9793310868074531,-0.7985885573520543,0.039744422078219065,0.015622284975549483,-0.9215798030478453
13915,6.0,299.76895,7681.4325,0.0,0.0,0.0,0.0,0.0,-0.13868815535886675,-0.6093059710188174,-0.9596301814031251,-0.7660275323410313,-0.008236637007567783,0.0028329512234905175,-0.9440835608787931
13916,6.0,299.03098,7587.4554,0.0,0.0,0.0,0.0,0.0,-0.13869812216845057,-0.5645642409906525,-0.9750496998349132,-0.7667830420130943,0.02530852023400648,-0.05689840176618504,-0.9396165667529351
13917,6.0,300.2112,7723.0758,0.0,0.0,0.0,0.0,0.0,-0.13870808897803438,-0.5738617935107494,-0.9831746990742881,-0.7905856952797332,-0.0053627624363884446,-0.029208756969429872,-0.972889815391749
13918,6.0,299.19308,7791.7133,0.0,0.0,0.0,0.0,0.0,-0.1387180557876182,-0.5847740309927035,-0.9975485738003791,-0.7861636894583153,0.02677312259105147,0.008762468010563261,-0.951112983447543
13919,6.0,300.16476,7495.7344,0.0,0.0,0.0,0.0,0.0,-0.13872802259720202,-0.5755343046558135,-0.9482974755271741,-0.7546842987965413,-0.0035922220799247165,0.01156679805980409,-0.9363516114857091
13920,6.0,299.9598,7285.4708,0.0,0.0,0.0,0.0,0.0,-0.13873798940678583,-0.5263544885271435,-0.9439349474866262,-0.7443117791128533,-0.0015643561201149285,0.00907066099807954,-0.9261526919416541
13921,6.0,300.72283999999996,7442.4121,0.0,0.0,0.0,0.0,0.0,-0.13874795621636965,-0.5531751072166325,-0.962432557602198,-0.7466997664185293,-0.014875322068079986,0.01121310284739709,-0.9795019005093112
13922,6.0,300.67528,8055.9718,0.0,0.0,0.0,0.0,0.0,-0.13875792302595352,-0.6114275546082014,-0.9966586159725471,-0.8407280888709022,-0.002062263166254528,-0.01032526777852459,-0.9515714689852921
13923,6.0,300.6318,8071.8118,0.0,0.0,0.0,0.0,0.0,-0.13876788983553734,-0.6064286953723524,-1.031660651666979,-0.8155399174175233,-0.0033538622893004365,-0.0006825900241738904,-0.9702046924942481
13924,6.0,299.88394,7626.161,0.0,0.0,0.0,0.0,0.0,-0.1387778566451211,-0.5947960674668014,-0.960421823573754,-0.7629446277192723,-0.01052476152446309,-0.024307896243502578,-0.9348219686047451
13925,6.0,299.71077,7597.0019,0.0,0.0,0.0,0.0,0.0,-0.13878782345470492,-0.5798435458736024,-0.9595137994966392,-0.7699415350923132,0.03043674111012247,0.024022037112040477,-0.9575850576662871
13926,6.0,299.19886,7706.89,0.0,0.0,0.0,0.0,0.0,-0.13879779026428873,-0.6154099416087324,-0.9460651335693591,-0.7812270539111072,0.008123736932400413,0.036134863491733366,-0.9290937618144152
13927,6.0,299.43359,7759.8841,0.0,0.0,0.0,0.0,0.0,-0.1388077570738726,-0.6078616843262774,-0.947225082018837,-0.8037242357489063,-0.0007515230699420523,0.03223846089468837,-0.9137326167208882
13928,6.0,300.01956,7527.2204,0.0,0.0,0.0,0.0,0.0,-0.13881772388345642,-0.5602114705485675,-0.9291474235397111,-0.7987281528183312,-0.008054754865592413,-0.020655509601790082,-0.9258333053776331
13929,6.0,299.70029,7403.98,0.0,0.0,0.0,0.0,0.0,-0.13882769069304024,-0.5342576366571236,-0.9516236412329411,-0.7647437545968322,0.004878488366369315,-0.0065532687863572745,-0.942470993609645
13930,6.0,300.19163,7641.182,0.0,0.0,0.0,0.0,0.0,-0.13883765750262406,-0.5752295798207395,-0.960407465819837,-0.7870914921773823,0.017549709580771483,4.525260566233445e-05,-0.97220284195645
13931,6.0,300.8802,7978.4072,0.0,0.0,0.0,0.0,0.0,-0.13884762431220787,-0.6207493440706904,-0.9893166665429531,-0.8151705674910713,-0.003956149395816546,0.0004642563618385355,-0.9300849939897421
13932,6.0,300.22817000000003,7845.6805,0.0,0.0,0.0,0.0,0.0,-0.1388575911217917,-0.6114962124349774,-0.982850965667338,-0.7905437973880982,-0.020395393102368584,0.009893318044994472,-0.959206166633778
13933,6.0,300.24356,7548.6203,0.0,0.0,0.0,0.0,0.0,-0.1388675579313755,-0.5743513655615664,-0.949736685836713,-0.7705040307528273,-0.013812127857400887,0.018386815270137382,-0.9390274732772961
13934,6.0,300.15206,7556.2709,0.0,0.0,0.0,0.0,0.0,-0.13887752474095932,-0.5311357523040174,-0.9785089052788101,-0.7872730260652983,-0.007805327850750883,0.01960181359754838,-1.0062667904433
13935,6.0,299.39905,7707.0298,0.0,0.0,0.0,0.0,0.0,-0.13888749155054314,-0.5624296877999885,-0.9666498159759092,-0.8136651210224952,0.005407198722173965,-0.02033008406717308,-0.960714754177664
13936,6.0,298.96603,7501.1656,0.0,0.0,0.0,0.0,0.0,-0.13889745836012696,-0.5384307071939735,-0.963952696197224,-0.7777836247712673,0.004389624577372215,-0.027481471550460077,-0.9800406354549801
13937,6.0,299.91134,7369.5689,0.0,0.0,0.0,0.0,0.0,-0.13890742516971083,-0.5445655211169325,-0.9478435901448792,-0.7477557959377513,0.026260911493250178,-0.013364026106676686,-0.9799898716249701
13938,6.0,299.39799,7358.6028,0.0,0.0,0.0,0.0,0.0,-0.1389173919792946,-0.5516570356518105,-0.9290521172353051,-0.7561223540009663,0.005627796238545245,0.016312901044957986,-0.9544082247602581
13939,6.0,300.71442,7503.6601,0.0,0.0,0.0,0.0,0.0,-0.1389273587888784,-0.5632005482110665,-0.965742673426381,-0.7519820823698532,-0.020462993096040178,0.032738149234503765,-0.949822872890219
13940,6.0,300.56287000000003,7826.98,0.0,0.0,0.0,0.0,0.0,-0.13893732559846228,-0.5606938991861795,-1.001594633437194,-0.8169179578185253,-0.04459536199821955,0.013027279528692386,-0.9523406271362022
13941,6.0,300.38172000000003,8137.1181,0.0,0.0,0.0,0.0,0.0,-0.1389472924080461,-0.6076375736691595,-1.037881804630959,-0.8279613199959202,-0.028701000119068173,0.004175505579490316,-0.9611713044077221
13942,6.0,300.24537999999995,7794.9432,0.0,0.0,0.0,0.0,0.0,-0.1389572592176299,-0.5784366481097525,-1.001690030934109,-0.7893414140244323,-0.01053541078301409,0.0006344636943066914,-0.9611148866421542
13943,6.0,300.49568999999997,7519.2362,0.0,0.0,0.0,0.0,0.0,-0.13896722602721373,-0.5819539026518784,-0.9589700185654721,-0.7447361181222323,0.008134243727987352,-0.012713850875259388,-0.9516661876046401
13944,6.0,300.18204,7628.0175,0.0,0.0,0.0,0.0,0.0,-0.1389771928367975,-0.6204681570354394,-0.9406283172427871,-0.7576303639922952,0.02130398459953958,0.0037208834630476063,-0.9308045028857521
13945,6.0,299.06447000000003,7728.8691,0.0,0.0,0.0,0.0,0.0,-0.13898715964638136,-0.6073316126689634,-0.9627379309173362,-0.7793136729522713,-0.005049193245166576,0.0037928076028459663,-0.9597203099995202
13946,6.0,298.45523,7530.1328,0.0,0.0,0.0,0.0,0.0,-0.13899712645596518,-0.5551458786611325,-0.952425963059624,-0.7814005020632253,0.004219099854442736,0.029478665517817772,-0.971742714953539
13947,6.0,299.13944,7436.5605,0.0,0.0,0.0,0.0,0.0,-0.139007093265549,-0.5471399971035135,-0.966578625023883,-0.7468100688244153,-0.042682526167937364,0.018601641516589083,-0.981745712458258
13948,6.0,298.72531000000004,7673.882,0.0,0.0,0.0,0.0,0.0,-0.13901706007513281,-0.5621536075452415,-0.978678969175594,-0.7918359344456222,-0.002958411749547507,-0.001086867178065439,-0.969144326264598
13949,6.0,299.24579,7780.9788,0.0,0.0,0.0,0.0,0.0,-0.13902702688471663,-0.6046163253159854,-0.983648130051012,-0.7769588189248653,-0.0022990892002024378,-0.02106597519079988,-0.9788684672092961
13950,6.0,299.93084,7701.5012,0.0,0.0,0.0,0.0,0.0,-0.1390369936943005,-0.5737782915700085,-0.993609006749074,-0.7736767701284523,0.0023822879765135175,0.010037068039331491,-0.9777981913936682
13951,6.0,299.892,7493.4056,0.0,0.0,0.0,0.0,0.0,-0.13904696050388426,-0.5656193889822875,-0.954504746964784,-0.7576840561150943,-0.009398698083504282,-0.013967115605946986,-0.9571257007334522
13952,6.0,300.28022000000004,7374.5657,0.0,0.0,0.0,0.0,0.0,-0.13905692731346814,-0.5103538205005006,-0.9666265720186151,-0.7647034475078542,-0.007406191816409223,0.004396675683493106,-0.984280722353444
13953,6.0,300.21295,7614.0869999999995,0.0,0.0,0.0,0.0,0.0,-0.1390668941230519,-0.5751562813085054,-0.9783277260284291,-0.7610083067781722,-0.006317606875449255,7.732289439817552e-05,-0.9723607569845352
13954,6.0,299.21135,7924.7514,0.0,0.0,0.0,0.0,0.0,-0.13907686093263572,-0.5949474875617454,-0.991427884583814,-0.8225511622794792,0.007038660268586683,0.004726384732907855,-0.9618448218816932
13955,6.0,300.28911,7858.6313,0.0,0.0,0.0,0.0,0.0,-0.1390868277422196,-0.6468769604867854,-0.973455340670062,-0.7684953840195893,-0.006587565681042113,-0.02102348961410688,-0.9312560577928172
13956,6.0,299.95184,7545.5137,0.0,0.0,0.0,0.0,0.0,-0.1390967945518034,-0.5737812097302964,-0.9420111604492631,-0.7778553932758503,0.006425573841179764,-0.04027495172457826,-0.9375035248618941
13957,6.0,299.42841,7519.6024,0.0,0.0,0.0,0.0,0.0,-0.13910676136138722,-0.5740166079935285,-0.941399603218907,-0.7703551539156342,0.011414949360067789,-0.038597254765502464,-0.9565130187954851
13958,6.0,299.07014,7930.8026,0.0,0.0,0.0,0.0,0.0,-0.13911672817097104,-0.5777018695347355,-1.001215748827301,-0.8318483398970392,0.011196990144306888,0.004226355738408836,-0.964737883964716
13959,6.0,298.67846000000003,7902.2891,0.0,0.0,0.0,0.0,0.0,-0.1391266949805548,-0.6064205285765464,-0.9793539153322061,-0.8163241121999172,0.005762567114471095,-0.01226273267898749,-0.934701016940308
13960,6.0,299.27612,7576.7519,0.0,0.0,0.0,0.0,0.0,-0.13913666179013867,-0.5528185546389435,-0.969181927975809,-0.7811429136228032,0.014364866932701986,-0.006276699739762034,-0.950683426200149
13961,6.0,299.52786000000003,7388.4718,0.0,0.0,0.0,0.0,0.0,-0.1391466285997225,-0.5847247667728415,-0.9031920799056182,-0.7579940701156902,0.016211673306967586,-0.0023878746322648775,-0.930536660354318
13962,6.0,300.18559,7476.8985,0.0,0.0,0.0,0.0,0.0,-0.13915659540930636,-0.5661713772392645,-0.9300825419245001,-0.7765365266806883,-0.012997023880706386,0.006050004180313925,-0.9475445192453632
13963,6.0,300.59106,7893.72,0.0,0.0,0.0,0.0,0.0,-0.13916656221889012,-0.6199597385327624,-0.983157544750095,-0.7963765006612412,-0.023511438095148277,-0.004003592805248845,-0.933227295332363
13964,6.0,300.42703,8006.8423,0.0,0.0,0.0,0.0,0.0,-0.13917652902847394,-0.6062461178368335,-0.9919444496172951,-0.8356895608936382,-0.05958331086791495,-0.004463296066968026,-0.946090859989398
13965,6.0,299.52823,7756.2601,0.0,0.0,0.0,0.0,0.0,-0.13918649583805776,-0.5761355267351495,-1.003396384632513,-0.7781774852176383,0.0008557076237117673,-0.010854215741477689,-0.978344029222538
13966,6.0,300.33583,7696.56,0.0,0.0,0.0,0.0,0.0,-0.13919646264764157,-0.5609751368839355,-0.9822389828719401,-0.7963479472734233,0.0012824069181387088,0.012652046672159788,-0.9770828570880701
13967,6.0,300.48337000000004,7752.6832,0.0,0.0,0.0,0.0,0.0,-0.13920642945722544,-0.6102321221402215,-0.969453408075102,-0.7769365679526692,0.023307273266248773,-0.015884932573720787,-0.9449396862857861
13968,6.0,299.94425,7614.6888,0.0,0.0,0.0,0.0,0.0,-0.13921639626680926,-0.5527976411568795,-0.9852263988042752,-0.7766512164595072,0.004734049159314276,-0.03121535288446547,-0.966950366220571
13969,6.0,299.13184,7481.0626,0.0,0.0,0.0,0.0,0.0,-0.13922636307639302,-0.5530500316242885,-0.9485301988101422,-0.7724759978324452,0.01957900229804708,-0.008080824777415311,-0.9678436475087311
13970,6.0,298.90558,7311.8448,0.0,0.0,0.0,0.0,0.0,-0.1392363298859769,-0.5084596001010555,-0.9593232476828331,-0.7548353946514533,0.008088719312919442,0.002213000229306118,-1.00389841965956
13971,6.0,298.85028,7497.4534,0.0,0.0,0.0,0.0,0.0,-0.13924629669556066,-0.5482359081466714,-0.9712442263018422,-0.7595584776075853,-0.001062654958975879,0.00042395963840905865,-0.9673886779488291
13972,6.0,299.18293,7845.9496,0.0,0.0,0.0,0.0,0.0,-0.13925626350514453,-0.6058415979994104,-0.974157492591859,-0.8049736845797173,-0.016337376101123485,-0.00025830129226485273,-0.99583933233919
13973,6.0,299.24891,7886.6789,0.0,0.0,0.0,0.0,0.0,-0.13926623031472835,-0.6270580621083124,-0.9916998206456521,-0.7785955724739002,-0.001108352133185839,-0.0070302817035097845,-0.9349425656316471
13974,6.0,300.1725,7712.5564,0.0,0.0,0.0,0.0,0.0,-0.13927619712431216,-0.5836123498855544,-0.9769843185158451,-0.7838279047977913,0.0013780029107482985,0.015919451978127587,-0.9542668763713081
13975,6.0,300.51934,7644.3797,0.0,0.0,0.0,0.0,0.0,-0.13928616393389598,-0.6107995219312193,-0.9463609012735491,-0.7665401254341202,-0.020946508951009482,0.004509247566953085,-0.9118436044269571
13976,6.0,300.26749,7744.2612,0.0,0.0,0.0,0.0,0.0,-0.1392961307434798,-0.5818577958798935,-0.9829288238050221,-0.7892754109129183,-0.013241815985615489,-0.001924475034180898,-0.980084073486767
13977,6.0,300.47864,7926.6990000000005,0.0,0.0,0.0,0.0,0.0,-0.13930609755306367,-0.6223644748625915,-0.9674368275935812,-0.8197172740022962,-0.02140644242315138,-0.004857966809443995,-0.957220662532824
13978,6.0,300.49399,7694.1241,0.0,0.0,0.0,0.0,0.0,-0.13931606436264743,-0.5717758256623804,-0.979905711071664,-0.7871400572546753,0.008830211987074071,0.01071612089859879,-1.000113717753539
13979,6.0,300.11658,7463.0229,0.0,0.0,0.0,0.0,0.0,-0.13932603117223125,-0.5692142686145745,-0.9339499554361842,-0.7654083757349253,0.02062518099979688,-0.004379812567378846,-0.9453921531179411
13980,6.0,300.4099,7487.2751,0.0,0.0,0.0,0.0,0.0,-0.13933599798181512,-0.5382108116572715,-0.9570605487520222,-0.7806733127314572,0.005001626523197106,-0.009657578620453801,-0.962573348703593
13981,6.0,299.54797,7673.9937,0.0,0.0,0.0,0.0,0.0,-0.13934596479139888,-0.5932399787582274,-0.9885075762056019,-0.7509549203459803,0.0024208406229433675,-0.011499797910191688,-0.9709588241461751
13982,6.0,299.65704,7848.8356,0.0,0.0,0.0,0.0,0.0,-0.13935593160098275,-0.5813449393417784,-1.0058198255591881,-0.7986852822066003,-0.005767196451527974,0.006377994352259034,-0.9879179761049132
13983,6.0,300.66454,7774.7595,0.0,0.0,0.0,0.0,0.0,-0.13936589841056657,-0.5986050265802164,-1.0024277276694142,-0.7623000081381534,-0.02942191641946707,-0.00944614544461197,-0.98216531958967
13984,6.0,300.22957,7512.8047,0.0,0.0,0.0,0.0,0.0,-0.13937586522015033,-0.5372599777634315,-0.988433912923332,-0.7580111433798753,-0.02240395472259818,-0.02428415478040948,-0.9873185778757572
13985,6.0,300.12561,7705.7991,0.0,0.0,0.0,0.0,0.0,-0.1393858320297342,-0.5647435355958474,-0.9692523083277551,-0.8083746788053692,-0.02525743317721458,0.0022309578581783977,-0.9680653466306111
13986,6.0,301.23312999999996,7932.8602,0.0,0.0,0.0,0.0,0.0,-0.13939579883931802,-0.5722897461131005,-1.0153763040098391,-0.8237253468928621,0.0007532251274600322,0.02217399558590298,-0.938210256674143
13987,6.0,300.61705,7786.4130000000005,0.0,0.0,0.0,0.0,0.0,-0.13940576564890184,-0.6256953623138244,-0.9349318150480861,-0.8062479479054773,-0.013895029954082684,0.02890187796464327,-0.9266424970399941
13988,6.0,300.63346,7742.5521,0.0,0.0,0.0,0.0,0.0,-0.13941573245848565,-0.5602420301715835,-0.9793527906245951,-0.8139476860778823,-0.0005717520953450385,0.035858437718702264,-0.9624163962631032
13989,6.0,300.19621,7592.9214,0.0,0.0,0.0,0.0,0.0,-0.13942569926806947,-0.5960217353177655,-0.957295916617751,-0.7547408482846223,0.0043891480458501855,0.005034113347903305,-0.986260329338816
13990,6.0,299.46997000000005,7755.3363,0.0,0.0,0.0,0.0,0.0,-0.13943566607765334,-0.5596746202480845,-0.9810456579641681,-0.8167083062403342,-0.007865067962071773,0.002025182265594928,-0.961952672222337
13991,6.0,299.6576,7821.9980000000005,0.0,0.0,0.0,0.0,0.0,-0.1394456328872371,-0.6065752721318184,-1.002846453273239,-0.7682703411723792,0.02000950794753468,-0.03490909228925917,-0.945830930941245
13992,6.0,299.24075,7673.6998,0.0,0.0,0.0,0.0,0.0,-0.13945559969682098,-0.5766089678443744,-0.9652375682515312,-0.7907665908200863,0.018349615819216084,-0.03619605974477297,-0.9224915558853282
13993,6.0,300.02267,7534.7627,0.0,0.0,0.0,0.0,0.0,-0.13946556650640474,-0.6032355086097094,-0.9305344312040982,-0.7566097678290703,0.008169969609288221,-0.024810035635309875,-0.9352852265504651
13994,6.0,300.55228,7691.3765,0.0,0.0,0.0,0.0,0.0,-0.13947553331598855,-0.5660634154411095,-0.9891759767665681,-0.7827470101211152,-0.008469939362967931,-0.010840992827672688,-0.9386907702690661
13995,6.0,299.62374,8059.2017,0.0,0.0,0.0,0.0,0.0,-0.13948550012557243,-0.6664174278702794,-0.9777958001234321,-0.8055828404073362,-0.01197351158369359,0.035389731527194566,-0.9344405812671052
13996,6.0,299.39912999999996,8029.4394,0.0,0.0,0.0,0.0,0.0,-0.13949546693515624,-0.6081821246704023,-0.9876901366874271,-0.8448768312728512,-0.008656379306543123,0.02698022888499127,-0.9550064577517992
13997,6.0,299.98462,7534.743,0.0,0.0,0.0,0.0,0.0,-0.13950543374474006,-0.5500274964434875,-0.9563638683807651,-0.7839823646430353,0.021897329672598182,0.009841047714735792,-0.9680766747667291
13998,6.0,300.90755,7237.17,0.0,0.0,0.0,0.0,0.0,-0.13951540055432388,-0.5199624914638025,-0.9101145640588141,-0.7698419123424812,-0.007439408079862413,0.00950420072366658,-0.9491867950074431
13999,6.0,300.59505,7598.4725,0.0,0.0,0.0,0.0,0.0,-0.13952536736390764,-0.5760016662644385,-0.9752419032463822,-0.7585023366308522,-0.0028095297447789974,-0.016392220289286184,-0.960420911648664
14000,6.0,299.95058,7832.057,0.0,0.0,0.0,0.0,0.0,-0.1395353341734915,-0.5963945708245614,-0.994063398756419,-0.7902918020882282,-0.011642580048033188,-0.012747488752079187,-0.962796061075573
14001,6.0,300.31217999999996,7594.884,0.0,0.0,0.0,0.0,0.0,-0.13954530098307533,-0.5823264544486465,-0.968423044180913,-0.7579056032494592,-0.008547525037700043,0.009576479602324951,-0.9802099292816882
14002,6.0,300.92739,7480.505,0.0,0.0,0.0,0.0,0.0,-0.1395552677926592,-0.5338056460525155,-1.000205396622587,-0.7398756789825442,0.009334282836221992,-0.0033414104588215367,-0.9931637643901321
14003,6.0,299.82718,7722.4266,0.0,0.0,0.0,0.0,0.0,-0.13956523460224296,-0.5768434541825165,-0.9687228142229981,-0.8018585788697803,0.015391852651057587,-0.0017128796369980585,-0.9355416193557691
14004,6.0,299.30987999999996,8007.8105,0.0,0.0,0.0,0.0,0.0,-0.13957520141182678,-0.6242400413276954,-1.013441604268899,-0.7964928015077193,0.013518058360378487,-0.0021860554773468783,-0.9456400244899041
14005,6.0,298.77937000000003,7992.8201,0.0,0.0,0.0,0.0,0.0,-0.1395851682214106,-0.6426009944022805,-0.9654912962090721,-0.8215254289382472,0.013196538904896988,-0.010397179151371689,-0.9236611200782552
14006,6.0,300.17259,7502.7771,0.0,0.0,0.0,0.0,0.0,-0.1395951350309944,-0.5835109438155464,-0.9323146407022911,-0.7648313095379733,-0.024418871447454978,0.004738325378711305,-0.9475966509630082
14007,6.0,300.51215,7337.7755,0.0,0.0,0.0,0.0,0.0,-0.13960510184057828,-0.5558503610581594,-0.941584217387127,-0.7330659594329774,-0.00851118259371332,0.016274718741439684,-0.9382911140321232
14008,6.0,299.25212,7734.1507,0.0,0.0,0.0,0.0,0.0,-0.1396150686501621,-0.5804737671708005,-0.9509182469108242,-0.8195966668428932,-0.013216527289619688,0.008690748648610112,-0.9762315142215492
14009,6.0,299.36837,8077.5217,0.0,0.0,0.0,0.0,0.0,-0.13962503545974586,-0.6172011955330154,-1.010158998184931,-0.8280046972327012,0.00963500401617586,0.03332875042629157,-0.9584104917277511
14010,6.0,300.41234,7757.6405,0.0,0.0,0.0,0.0,0.0,-0.13963500226932973,-0.6108382483500414,-0.9787827867808401,-0.7685079584533302,-0.005811415901792094,-0.0059622653342797744,-0.9727575153261921
14011,6.0,300.02047000000005,7441.1095,0.0,0.0,0.0,0.0,0.0,-0.1396449690789135,-0.5767770660359645,-0.9354600121927151,-0.7496743951346022,0.004158468589658897,0.013728894427936386,-0.935137514950887
14012,6.0,300.4104,7654.6711,0.0,0.0,0.0,0.0,0.0,-0.13965493588849737,-0.5925611417212314,-0.986174983282893,-0.7480927522585062,-0.006986473734111273,-0.006388039713750434,-0.9550700797255781
14013,6.0,300.20341,7969.055,0.0,0.0,0.0,0.0,0.0,-0.13966490269808118,-0.6192080488135764,-0.9848846903405511,-0.8183009935425202,0.019519141508639284,0.0018774507049899582,-0.957732728735861
14014,6.0,300.30265,7865.4316,0.0,0.0,0.0,0.0,0.0,-0.139674869507665,-0.5875878062554015,-0.9965723275940311,-0.8067346828560142,0.006606648625475453,-0.0023264432038770677,-0.966095932941245
14015,6.0,300.31061,7490.8201,0.0,0.0,0.0,0.0,0.0,-0.13968483631724882,-0.5527158110788035,-0.9742151161250461,-0.7500913374182513,0.0022820927403750177,-0.025917302172338577,-0.961772263042032
14016,6.0,299.28108,7373.1571,0.0,0.0,0.0,0.0,0.0,-0.13969480312683263,-0.5385310898813805,-0.9431695687585891,-0.7595549920272412,0.014486103320417087,-0.0016237454442511986,-0.9534485350605441
14017,6.0,298.63302999999996,7720.6911,0.0,0.0,0.0,0.0,0.0,-0.1397047699364165,-0.5877618420925774,-0.9865804150454061,-0.7725550617377483,-0.015108362498329286,0.016849985406214085,-0.9921147364291011
14018,6.0,299.10289,8074.6966,0.0,0.0,0.0,0.0,0.0,-0.13971473674600027,-0.6360973979729254,-0.9923732367946131,-0.8260355165908582,0.0033151268525525466,0.001055212333016349,-0.9585976795512251
14019,6.0,298.31965,7639.102,0.0,0.0,0.0,0.0,0.0,-0.13972470355558408,-0.5746437287454205,-0.9666979757531621,-0.7807545551244753,-0.03409057771272807,-0.014915267426772287,-0.9804222457076421
14020,6.0,298.97863,7208.2097,0.0,0.0,0.0,0.0,0.0,-0.1397346703651679,-0.4853670426369976,-0.951436139301936,-0.7543125575998533,0.022912122952500478,0.009110087978020681,-0.9804267040080821
14021,6.0,300.15859,7590.7945,0.0,0.0,0.0,0.0,0.0,-0.13974463717475172,-0.5501300880161124,-0.9737156243557501,-0.7835662836219712,0.01748375611851238,0.013754065586920588,-0.9964841545703291
14022,6.0,300.31498999999997,7926.8059,0.0,0.0,0.0,0.0,0.0,-0.1397546039843356,-0.5952423534733464,-1.001639145514087,-0.8126695622692413,0.02218858233434258,0.008056212932486312,-0.9458056503512501
14023,6.0,300.98584,7773.3569,0.0,0.0,0.0,0.0,0.0,-0.1397645707939194,-0.6319737537759534,-0.961693685496777,-0.7692389576054742,-0.03010784722041317,0.00039439752971900564,-0.950720693538827
14024,6.0,300.25806,7527.905,0.0,0.0,0.0,0.0,0.0,-0.13977453760350317,-0.5902946633675474,-0.9329989391573261,-0.7650015355547732,0.007974094888731893,0.00015245389375602786,-0.8981040546609691
14025,6.0,298.83785,7559.4714,0.0,0.0,0.0,0.0,0.0,-0.13978450441308704,-0.5691772241909185,-0.9792900299134011,-0.7494232712298182,0.0037158753731033464,0.0011035216659841091,-0.9758882656176732
14026,6.0,300.33333,8204.0145,0.0,0.0,0.0,0.0,0.0,-0.13979447122267086,-0.6217118506056823,-0.99769135087197,-0.8744123320152781,0.03041141897687337,-0.03030188968081367,-0.9248627840343502
14027,6.0,300.05619,8409.1005,0.0,0.0,0.0,0.0,0.0,-0.13980443803225467,-0.6810270554971374,-1.018748704317669,-0.8563808169457062,0.0004650717039290036,-0.024764839614599375,-0.9457989932980931
14028,6.0,299.33335,7816.2795,0.0,0.0,0.0,0.0,0.0,-0.1398144048418385,-0.5926680598717834,-0.97907764255994,-0.8042080829366582,0.011074114317929989,0.016191007057927986,-0.9462359371387161
14029,6.0,300.38431,7237.6402,0.0,0.0,0.0,0.0,0.0,-0.1398243716514223,-0.5626721585489184,-0.9128630049550641,-0.7245267435527223,-0.017103780238261684,0.02700046348948827,-0.9805198723547771
14030,6.0,299.455,7282.9937,0.0,0.0,0.0,0.0,0.0,-0.13983433846100612,-0.5327113764745194,-0.9386376455663231,-0.7424992064064663,-0.016150529742933184,-0.0012146769244792788,-0.980744590961955
14031,6.0,298.74278,7777.8051,0.0,0.0,0.0,0.0,0.0,-0.13984430527058994,-0.5839610497749684,-0.9996461940248981,-0.7806512948067843,-0.03544987197362997,-0.028817666748832273,-0.968395159538161
14032,6.0,300.10944,7776.8175,0.0,0.0,0.0,0.0,0.0,-0.13985427208017376,-0.5689007690336345,-0.98676456311858,-0.8082930209798103,-0.013298499222709688,-0.004215443034831836,-0.9842667597670661
14033,6.0,298.18928,7190.4795,0.0,0.0,0.0,0.0,0.0,-0.13986423888975758,-0.49802162446090753,-0.979966901245203,-0.7077377061532734,0.007960713299961232,0.012956661062972887,-1.001277688805914
14034,6.0,298.93756,7306.9277,0.0,0.0,0.0,0.0,0.0,-0.1398742056993414,-0.5173565033991114,-0.9511596436146482,-0.7526074198015692,0.028799204318760173,-0.007919752056718672,-0.964894106865134
14035,6.0,299.77356000000003,7907.5518,0.0,0.0,0.0,0.0,0.0,-0.13988417250892526,-0.6222204920233815,-0.9979581396232999,-0.7835196639848703,0.002416242088689528,-0.002848783458953037,-0.9334130240756932
14036,6.0,300.08733,8233.3518,0.0,0.0,0.0,0.0,0.0,-0.13989413931850908,-0.6482262245849474,-1.016443459015159,-0.8380636970704471,-0.011199842443338388,0.0100521665803966,-0.9420590061189852
14037,6.0,301.15182999999996,7953.2839,0.0,0.0,0.0,0.0,0.0,-0.1399041061280929,-0.5814315519603265,-0.9949660120780001,-0.8412021480626881,0.0012645928668055988,0.023548684155574182,-0.9659853974878361
14038,6.0,300.81536,7356.1623,0.0,0.0,0.0,0.0,0.0,-0.13991407293767666,-0.5292473783576496,-0.9524505546395511,-0.7543917126976653,-0.012654045814607088,-0.008307566034442932,-0.9761716311406391
14039,6.0,299.58699,7471.1502,0.0,0.0,0.0,0.0,0.0,-0.13992403974726048,-0.5577580475514334,-0.9527772467367932,-0.7605078118912773,-0.007467547251039533,-0.0006428655641358914,-0.9576227404375062
14040,6.0,299.86478,8073.6246,0.0,0.0,0.0,0.0,0.0,-0.13993400655684435,-0.6553915847871133,-0.9826507271825761,-0.8161379781565472,-0.02991359501724197,0.006313504124469344,-0.9434460239158732
14041,6.0,298.78227999999996,8012.0224,0.0,0.0,0.0,0.0,0.0,-0.13994397336642816,-0.6530056847766433,-0.9846504877124371,-0.7977985769115893,-0.01155644973653279,0.03467811787596377,-0.9517268002256221
14042,6.0,298.67051000000004,7467.486999999999,0.0,0.0,0.0,0.0,0.0,-0.13995394017601198,-0.5798212543714024,-0.9278832927149511,-0.7622250276307533,-0.026241397309574272,-0.0016701498670309584,-0.9453775116539961
14043,6.0,299.58223,7407.9259,0.0,0.0,0.0,0.0,0.0,-0.1399639069855958,-0.5430679070716296,-0.950357656160498,-0.7583989344581473,0.006269010995353213,-0.014635781638439186,-0.9525305102049422
14044,6.0,299.84837000000005,8017.0996,0.0,0.0,0.0,0.0,0.0,-0.13997387379517962,-0.6327256968076643,-1.003526192102824,-0.8007461923799962,0.0023675507604340677,-0.006823258192103153,-0.9660328074600151
14045,6.0,301.54647,8379.7482,0.0,0.0,0.0,0.0,0.0,-0.13998384060476343,-0.6649030040058174,-1.001063801842305,-0.8812674046393211,0.01915165494912118,0.008264300457822952,-0.9409905541535372
14046,6.0,301.23394,7853.9322,0.0,0.0,0.0,0.0,0.0,-0.13999380741434725,-0.5920469274279825,-1.004421591083693,-0.7909307576012882,0.01153338208475619,-0.009623279699268761,-0.9590416756125439
14047,6.0,301.02665,7372.9211,0.0,0.0,0.0,0.0,0.0,-0.14000377422393112,-0.5485283118605295,-0.9318397709104251,-0.7608158399216773,-0.015477272674237885,-0.002776445102513797,-0.9186399288102022
14048,6.0,301.36134,7503.1548,0.0,0.0,0.0,0.0,0.0,-0.14001374103351488,-0.5371752092600655,-0.9534188063026101,-0.7901776797294653,-0.005012473264192595,-0.0017679188758050084,-0.9770020301275931
14049,6.0,300.6263,7896.1177,0.0,0.0,0.0,0.0,0.0,-0.1400237078430987,-0.5801870275250015,-1.026799179012189,-0.7932364386013413,-0.014402439259660088,-0.00038217126897736756,-0.9932996716260452
14050,6.0,300.59233,7907.1413,0.0,0.0,0.0,0.0,0.0,-0.14003367465268257,-0.6078062088833024,-0.9821153460947382,-0.8136519690361973,0.0035850071312626564,-0.019530437220754083,-1.015359788033209
14051,6.0,299.65026,7485.7887,0.0,0.0,0.0,0.0,0.0,-0.14004364146226633,-0.5542855482662246,-1.01041118600232,-0.7107961103876143,0.019877368988743583,-0.03463428771638807,-1.014954893293249
14052,6.0,300.18751000000003,7259.7378,0.0,0.0,0.0,0.0,0.0,-0.1400536082718502,-0.5353259670325594,-0.9510579133046081,-0.7203951250774633,0.03711922785788256,0.011874378233659888,-0.990710290730493
14053,6.0,300.16351000000003,7680.3149,0.0,0.0,0.0,0.0,0.0,-0.14006357508143402,-0.5999614847540885,-0.945255627799467,-0.7894068497158903,-0.0006411106453601944,-0.008140025434382962,-0.9602814884349041
14054,6.0,298.95072000000005,8042.5624,0.0,0.0,0.0,0.0,0.0,-0.14007354189101784,-0.6167743031333844,-1.006422212876139,-0.8215416308073462,0.005942875273741124,-0.028237999538873574,-0.9376816035669692
14055,6.0,298.66447,7756.7989,0.0,0.0,0.0,0.0,0.0,-0.14008350870060166,-0.5921719118278174,-0.9447645460060011,-0.8209367306301472,-0.031751428048621966,-0.008396971575566571,-0.924478529198927
14056,6.0,299.76336000000003,7380.2334,0.0,0.0,0.0,0.0,0.0,-0.14009347551018547,-0.5434502772618665,-0.9557524023429181,-0.7442039895672152,0.023647377755064477,0.0027020621086977677,-0.9446425912239651
14057,6.0,300.45218,7579.0927,0.0,0.0,0.0,0.0,0.0,-0.14010344231976934,-0.5839039429993325,-0.9512871003447271,-0.7686638773787183,0.0038289487140378163,0.026135742681896976,-0.9721226736085381
14058,6.0,301.25396,8054.008000000001,0.0,0.0,0.0,0.0,0.0,-0.1401134091293531,-0.6331320404952674,-0.9695772981648291,-0.8455079746276403,0.017019596380203384,-0.006966189480359374,-0.9239189719637031
14059,6.0,300.92275,8032.0705,0.0,0.0,0.0,0.0,0.0,-0.14012337593893692,-0.6210024539456704,-1.013240018161504,-0.8073064092249392,-0.012638349557307988,-0.01979279705589698,-0.9469885083854892
14060,6.0,300.66868,7703.956999999999,0.0,0.0,0.0,0.0,0.0,-0.14013334274852074,-0.5660521480999974,-0.9524247268945021,-0.8233336851992082,0.01020952320635149,0.002110045710495298,-0.937255025274869
14061,6.0,300.82245,7434.7414,0.0,0.0,0.0,0.0,0.0,-0.14014330955810456,-0.5566074817978814,-0.9474964101306151,-0.7558718583112443,-0.002008482992021838,-0.03135734975347947,-0.9719173688732761
14062,6.0,300.39715,7740.1607,0.0,0.0,0.0,0.0,0.0,-0.14015327636768843,-0.5729570523639586,-0.991877858820723,-0.7879806799351382,0.027303075698103772,-0.036452358317817665,-0.992682592182644
14063,6.0,299.95392000000004,8015.6747,0.0,0.0,0.0,0.0,0.0,-0.14016324317727225,-0.6362899965519334,-0.987810753979331,-0.8124642068714742,0.0009866601679607771,-0.016331217567015683,-0.9751938954566441
14064,6.0,299.34975,7733.0104,0.0,0.0,0.0,0.0,0.0,-0.140173209986856,-0.5581735611524414,-1.0118934695736101,-0.7805750477367592,0.026004769973970977,0.025488518034770875,-0.9792017352996871
14065,6.0,299.13116,7287.3045,0.0,0.0,0.0,0.0,0.0,-0.14018317679643988,-0.5222517172822315,-0.943771175872963,-0.7491357311164404,-0.013467719082160386,0.019620136199106682,-0.9674074838706851
14066,6.0,299.97791,7387.9347,0.0,0.0,0.0,0.0,0.0,-0.14019314360602364,-0.5231322620166344,-0.9405595884885042,-0.7820558215654003,-0.02595595969015377,-0.0032563574348274567,-0.9504045696401281
14067,6.0,301.57043999999996,7967.8599,0.0,0.0,0.0,0.0,0.0,-0.1402031104156075,-0.6178650668660344,-1.035729560093549,-0.7684357846487072,-0.00894801254502508,-0.01956170206583968,-0.968031402752261
14068,6.0,301.11658,8111.0466,0.0,0.0,0.0,0.0,0.0,-0.14021307722519133,-0.6200369785878854,-1.0234707537586991,-0.8220479417498152,-0.0031047872775436473,0.017622674733722584,-0.9996021480430511
14069,6.0,300.29708,7736.7669,0.0,0.0,0.0,0.0,0.0,-0.14022304403477515,-0.5801025731291665,-1.00635990812749,-0.7653214692738483,0.026859712918097273,-0.00011400043437846688,-1.0255827722671391
14070,6.0,300.26977,7550.7897,0.0,0.0,0.0,0.0,0.0,-0.14023301084435896,-0.5717322356430784,-0.9627837804843611,-0.7607355195862503,-0.030012811453783872,-0.008572524957417341,-0.985180316189727
14071,6.0,300.6621,7648.6657,0.0,0.0,0.0,0.0,0.0,-0.14024297765394278,-0.5670135704573824,-0.9395838691722082,-0.8184059561203793,-0.01963998880831598,0.024759773364099374,-0.9338863233299041
14072,6.0,300.69124,7787.9817,0.0,0.0,0.0,0.0,0.0,-0.1402529444635266,-0.5844096155942384,-0.996583909042674,-0.7863584563925373,-0.017506555259012485,0.03424016078524077,-0.9490389618178532
14073,6.0,300.51636,7802.9652,0.0,0.0,0.0,0.0,0.0,-0.1402629112731104,-0.6178778439497954,-0.9540348218334062,-0.7999939352407542,0.001956346613426378,0.027442290182343173,-0.9467133400558321
14074,6.0,299.66107,7498.8395,0.0,0.0,0.0,0.0,0.0,-0.14027287808269423,-0.5918372758497914,-0.9573334068714512,-0.7302892893889413,-0.020658041713789984,-0.033779218115999265,-0.9569485643509702
14075,6.0,300.19866,7606.868,0.0,0.0,0.0,0.0,0.0,-0.1402828448922781,-0.6063280087099154,-0.958740436357814,-0.7472294733058072,0.036794908792374764,-0.012695595148207686,-0.9625330416146152
14076,6.0,300.68792,8098.4094,0.0,0.0,0.0,0.0,0.0,-0.14029281170186186,-0.6713743385519884,-0.9711979005072701,-0.8191420113905222,0.01014310770204679,0.017481742790563682,-0.9332045276026161
14077,6.0,299.58166,8180.8732,0.0,0.0,0.0,0.0,0.0,-0.14030277851144574,-0.6316742674438963,-1.0107722475429541,-0.8443346512768423,0.004524377012146245,-0.012855307681970088,-0.9313925020512831
14078,6.0,298.91549,7834.4684,0.0,0.0,0.0,0.0,0.0,-0.1403127453210295,-0.5915732127412304,-0.9609240105883161,-0.8289855435945032,-0.03141082200100677,-0.02914576625046317,-0.9317010975017392
14079,6.0,299.77537,7732.525,0.0,0.0,0.0,0.0,0.0,-0.14032271213061331,-0.5989704856262844,-0.959897699694527,-0.7916263233974352,-0.013576486414144886,-0.008488694419668912,-0.9245877170297031
14080,6.0,299.45662999999996,7783.2686,0.0,0.0,0.0,0.0,0.0,-0.1403326789401972,-0.5912684676411544,-0.996741915263268,-0.7779089131461323,0.015575098931642585,0.018213355972268284,-0.990828222909632
14081,6.0,300.49327,7674.9848,0.0,0.0,0.0,0.0,0.0,-0.140342645749781,-0.5682371206156375,-0.965884204200349,-0.7988824201460563,0.0003716969379236317,0.013827569788924887,-0.9855919693078541
14082,6.0,300.18375,7398.6861,0.0,0.0,0.0,0.0,0.0,-0.14035261255936482,-0.5384662114774775,-0.970286877209859,-0.7402627202557424,0.015393563017226386,0.002409992058097698,-1.00529559022245
14083,6.0,300.33887999999996,7402.6578,0.0,0.0,0.0,0.0,0.0,-0.14036257936894864,-0.5265007309140765,-0.9567453773084171,-0.7669770287447393,-0.013431145819800885,-0.01106035742132229,-0.9349719802820501
14084,6.0,300.02142000000003,7535.4673,0.0,0.0,0.0,0.0,0.0,-0.1403725461785324,-0.5709172279251434,-0.949531847196497,-0.7701448335923773,-0.018887795503830282,0.06052019636087835,-0.9480497257452231
14085,6.0,299.49481000000003,7930.4422,0.0,0.0,0.0,0.0,0.0,-0.14038251298811627,-0.5802224912785015,-1.039002661891579,-0.7914312727531853,-0.005667264964390504,0.013271524478547486,-0.9399038130237842
14086,6.0,300.28855,8133.4609,0.0,0.0,0.0,0.0,0.0,-0.1403924797977001,-0.6328878674861693,-1.026100340418219,-0.8133807929119342,-0.02691609521991177,0.00044632394262874366,-0.9651709977199611
14087,6.0,301.50754,7868.8494,0.0,0.0,0.0,0.0,0.0,-0.14040244660728396,-0.5973031521892315,-0.9973958567453071,-0.7972347234959412,-0.005718484858270515,-0.014230266789417986,-0.9720873618425531
14088,6.0,300.13574,7589.3478,0.0,0.0,0.0,0.0,0.0,-0.14041241341686772,-0.5700611329156535,-0.9739384380527402,-0.7629726542170383,0.02126592185953308,0.01800019956198138,-0.979847884888457
14089,6.0,299.02565,7821.7025,0.0,0.0,0.0,0.0,0.0,-0.14042238022645154,-0.5796876370807155,-0.9737095144576472,-0.8242051106827112,0.0019511393185124583,0.009633432465270762,-0.9815562954845641
14090,6.0,299.06846,7833.7631,0.0,0.0,0.0,0.0,0.0,-0.1404323470360354,-0.6140970227916573,-0.967120612502373,-0.8000507380413602,0.00029084424089409174,-0.01076894365281199,-0.9464366721160271
14091,6.0,298.76448,7559.1873,0.0,0.0,0.0,0.0,0.0,-0.14044231384561917,-0.5865397814119694,-0.9418275595311432,-0.7694368453500042,-0.016597640535059584,-0.00888185430492077,-0.9543799348174661
14092,6.0,299.30809,7621.8721,0.0,0.0,0.0,0.0,0.0,-0.14045228065520304,-0.5993770927589135,-0.9485886836059142,-0.7688930137563323,0.016660795400542484,0.05232273352735175,-0.9324027731959891
14093,6.0,299.19306,7804.4265,0.0,0.0,0.0,0.0,0.0,-0.14046224746478686,-0.6256517621620213,-0.9765822912736681,-0.7701167159021023,0.005715450984821094,0.006770115858808414,-0.9744604746367611
14094,6.0,299.80395,8112.392,0.0,0.0,0.0,0.0,0.0,-0.14047221427437062,-0.6353627815179244,-1.0080524309620291,-0.8225493992243051,-0.006279764821314535,-0.014461002075689788,-0.9450174937609652
14095,6.0,301.08215,8034.6797,0.0,0.0,0.0,0.0,0.0,-0.1404821810839545,-0.6300486292484584,-1.005682722688157,-0.8066106407787722,-0.027532779495773773,-0.01285443628688409,-0.9418569539165441
14096,6.0,300.96342000000004,7762.4793,0.0,0.0,0.0,0.0,0.0,-0.1404921478935383,-0.5923141822743585,-0.972977664175419,-0.7943080215095982,0.008759467473042131,0.01794726535025718,-0.9214799472504901
14097,6.0,299.44248999999996,7558.6433,0.0,0.0,0.0,0.0,0.0,-0.14050211470312218,-0.5591842477296884,-0.9706140759321511,-0.7678405002149572,0.005716049511655165,-0.005172351565671356,-0.9488771255118812
14098,6.0,299.99321000000003,7792.7966,0.0,0.0,0.0,0.0,0.0,-0.14051208151270594,-0.5755271916401115,-0.996250468699766,-0.7970379199290182,0.01708826433948038,-0.017217228785708184,-0.9914086936269201
14099,6.0,299.31055,7978.2451,0.0,0.0,0.0,0.0,0.0,-0.14052204832228976,-0.6195560698254234,-0.993482998966638,-0.8121482349602902,0.014029173121571589,-0.03052968451529527,-0.987925423493148
14100,6.0,299.20735,7593.066999999999,0.0,0.0,0.0,0.0,0.0,-0.14053201513187358,-0.5472328513426774,-0.9831016234770762,-0.7777683145622563,0.01139859752995399,0.015682440620736385,-1.008069919658755
14101,6.0,300.13308,7236.6955,0.0,0.0,0.0,0.0,0.0,-0.1405419819414574,-0.5135226284657375,-0.947196812341047,-0.7390552807740773,0.027602311757386075,-0.015002976381928485,-1.014176717216449
14102,6.0,300.91597,7571.8322,0.0,0.0,0.0,0.0,0.0,-0.14055194875104127,-0.5730305737912145,-0.9707699239300321,-0.7578474325612183,-0.030257213457404473,-0.02108088617927148,-0.971014360384156
14103,6.0,300.63736,7870.5927,0.0,0.0,0.0,0.0,0.0,-0.14056191556062508,-0.6025043270725474,-1.010176375424146,-0.7797829394710842,0.015634710461525786,-0.003774630504002027,-0.9699446013260791
14104,6.0,300.6222,7899.1037,0.0,0.0,0.0,0.0,0.0,-0.14057188237020884,-0.6340693475002723,-0.9940429513694009,-0.7730179751784343,-0.006504430435512304,0.04887402332799055,-0.918415666165569
14105,6.0,300.35825,7928.8339,0.0,0.0,0.0,0.0,0.0,-0.14058184917979272,-0.6022315094831224,-1.008121777798873,-0.7998142454680203,0.051895313224418656,-0.007343785540100203,-0.9618752396496951
14106,6.0,300.12099,7986.878000000001,0.0,0.0,0.0,0.0,0.0,-0.14059181598937648,-0.6152606392064974,-1.008015011635836,-0.8045358186815033,0.007779608523462582,-0.03222231880734527,-0.9388260290249151
14107,6.0,300.0743,7960.7328,0.0,0.0,0.0,0.0,0.0,-0.14060178279896035,-0.6151912011771444,-0.978000040946089,-0.8266727495787481,0.0038087654813208868,-0.030543397842148674,-0.9621496176442741
14108,6.0,298.86981000000003,7985.9398,0.0,0.0,0.0,0.0,0.0,-0.14061174960854417,-0.6539837447006704,-0.9721795372041501,-0.8013629881133691,-0.014128430088117485,0.012519667573094988,-0.925497595354501
14109,6.0,298.59401,7904.0245,0.0,0.0,0.0,0.0,0.0,-0.14062171641812798,-0.5997342735516644,-0.969596337134208,-0.8332954636898591,-0.005481353329417455,0.0029255368500530074,-0.9411191457237281
14110,6.0,299.04247999999995,7511.7175,0.0,0.0,0.0,0.0,0.0,-0.1406316832277118,-0.5908096375983715,-0.925874433199192,-0.7666904613514572,-0.006618133511383924,-0.027783355232253677,-0.9702744750286352
14111,6.0,300.50421,7498.3532,0.0,0.0,0.0,0.0,0.0,-0.14064165003729562,-0.5361842709272675,-0.9601824027076251,-0.7829454652857013,0.019339900605699584,-0.018691103394418283,-0.9615402591666351
14112,6.0,301.02561000000003,7862.3871,0.0,0.0,0.0,0.0,0.0,-0.14065161684687943,-0.6126352980648965,-0.986646813324459,-0.7906872432047553,0.015678073512805386,0.018901214988154683,-0.987939092236997
14113,6.0,300.6429,7933.9978,0.0,0.0,0.0,0.0,0.0,-0.14066158365646325,-0.6130989106481514,-0.998557588514961,-0.8000807201118192,0.014847728228106684,-0.014433887503013786,-0.9258115306329842
14114,6.0,299.7053,7763.6742,0.0,0.0,0.0,0.0,0.0,-0.14067155046604707,-0.6077227170750624,-1.0075367474561352,-0.7447036434565273,-0.006983157366533973,-0.03425597052655106,-0.9859314891513621
14115,6.0,299.4949,7922.4437,0.0,0.0,0.0,0.0,0.0,-0.14068151727563094,-0.6087684215757655,-1.001932846188073,-0.7975237834844692,0.002208714485358148,0.014462480407585685,-0.9004791939553771
14116,6.0,299.415,7823.9659,0.0,0.0,0.0,0.0,0.0,-0.1406914840852147,-0.6131217391729045,-0.994639613823287,-0.7705289263077844,-0.01072908543362829,0.042557119242810665,-0.9835290225017571
14117,6.0,300.06962999999996,7861.8221,0.0,0.0,0.0,0.0,0.0,-0.14070145089479857,-0.5523450426022115,-1.017918447185729,-0.8195340986492182,-0.009675253451223172,0.0047614468340682154,-0.9534609879042731
14118,6.0,299.54195,7714.2232,0.0,0.0,0.0,0.0,0.0,-0.14071141770438234,-0.5689388165748895,-0.9856162771777531,-0.7903761450265523,-0.03031081742744477,-0.015258076280104884,-1.007092001589742
14119,6.0,299.20516000000003,7433.8115,0.0,0.0,0.0,0.0,0.0,-0.14072138451396615,-0.5435063302573985,-0.9494534216387571,-0.7667333218306873,0.022078145166193275,-0.016938736995723184,-0.9544709854714521
14120,6.0,299.39972,7363.4281,0.0,0.0,0.0,0.0,0.0,-0.14073135132355002,-0.5547613299831805,-0.9409900171309841,-0.7425469102211744,0.004137266128666376,0.05044072988436245,-0.979545672913631
14121,6.0,300.88811,7731.3932,0.0,0.0,0.0,0.0,0.0,-0.14074131813313384,-0.5979511053631794,-0.9477264685658201,-0.8044729059827942,0.007329680794733173,-0.011232928098853689,-0.928921225587387
14122,6.0,301.25729,8139.1174,0.0,0.0,0.0,0.0,0.0,-0.14075128494271766,-0.6649555916860074,-1.000621660028669,-0.8085112142563442,-0.003405203266567397,-0.01304731350966959,-0.947407254254316
14123,6.0,300.52615,8050.7788,0.0,0.0,0.0,0.0,0.0,-0.14076125175230148,-0.6015441814102884,-1.002266164940969,-0.8434253809021042,-0.010804502651821389,-0.012747836296863489,-0.937163650380851
14124,6.0,299.46179,7909.1782,0.0,0.0,0.0,0.0,0.0,-0.14077121856188524,-0.6063140258585354,-1.004604502991745,-0.7932741416375623,0.02630853526120027,0.021314934793370276,-0.95458941414314
14125,6.0,300.26712000000003,8027.1861,0.0,0.0,0.0,0.0,0.0,-0.1407811853714691,-0.6122945521887674,-0.9978535620804792,-0.8299160212938342,-0.019714798076449082,-0.02059720617778598,-0.9398344053919341
14126,6.0,299.13898,7910.5653,0.0,0.0,0.0,0.0,0.0,-0.14079115218105293,-0.6270783777728174,-0.986909376822872,-0.7906265697887672,-0.037102494032481066,-0.026445395965457377,-0.948637643850746
14127,6.0,299.40477999999996,7848.5461,0.0,0.0,0.0,0.0,0.0,-0.14080111899063674,-0.6183666661955384,-1.001907261623048,-0.7654880982527933,-0.008587488026944081,-0.007177576148021614,-0.9579705486668322
14128,6.0,299.15078,7769.1617,0.0,0.0,0.0,0.0,0.0,-0.14081108580022056,-0.5956517673087524,-0.980971032094303,-0.7850083614292932,0.0009345121572541692,0.02408343702835018,-0.965561909608541
14129,6.0,298.9423,7674.4378,0.0,0.0,0.0,0.0,0.0,-0.14082105260980438,-0.5446651539992654,-0.9819378246772181,-0.8062344818116483,0.023980755276466276,-0.015230670904650186,-0.9992715954629281
14130,6.0,299.73305,7766.809,0.0,0.0,0.0,0.0,0.0,-0.14083101941938825,-0.5770134572842944,-0.993243152535467,-0.7906593889595063,-0.008305271326941461,-0.023371317765319477,-0.982174985995624
14131,6.0,299.68158999999997,7844.5619,0.0,0.0,0.0,0.0,0.0,-0.140840986228972,-0.5960180166898984,-0.96355100332758,-0.8249819188718762,-6.447660058909503e-05,0.02011332859253098,-0.9628057781440321
14132,6.0,300.86486,7753.9777,0.0,0.0,0.0,0.0,0.0,-0.14085095303855588,-0.5861519295386914,-0.982973204159402,-0.7878904601462342,-0.009883876479237661,0.037211509610740066,-0.9527682896059091
14133,6.0,301.03382999999997,7493.340999999999,0.0,0.0,0.0,0.0,0.0,-0.1408609198481397,-0.5868430775644025,-0.9426683848616262,-0.7482770928491993,-0.026907683217581572,0.012544211530267288,-0.9757364503551901
14134,6.0,299.91436,7653.7862,0.0,0.0,0.0,0.0,0.0,-0.14087088665772346,-0.5565776314499354,-0.976765882059287,-0.7932163863818623,-0.02484657140741568,-0.006536883215015144,-0.9755859827153401
14135,6.0,300.0144,7917.5725,0.0,0.0,0.0,0.0,0.0,-0.14088085346730733,-0.5914680779108544,-1.020704479660689,-0.7945717603781273,0.01104853988540599,0.02091072298397768,-0.9606803948667731
14136,6.0,299.87678,7781.3194,0.0,0.0,0.0,0.0,0.0,-0.14089082027689115,-0.5582939960593274,-1.0161438409605892,-0.7908889306371603,0.012852104798403988,0.03124496106563757,-0.974714030341785
14137,6.0,299.78861,7518.2026,0.0,0.0,0.0,0.0,0.0,-0.14090078708647497,-0.5523432998120396,-0.978568494517191,-0.7544340564193444,0.02024701782397508,-0.03176553755626447,-0.984227060628148
14138,6.0,301.27513,7797.0332,0.0,0.0,0.0,0.0,0.0,-0.14091075389605878,-0.6131120828994514,-0.9790169894089541,-0.7779743387050893,0.007456534944977703,-0.0037400487847140764,-0.9549708521432851
14139,6.0,299.6511,7779.9327,0.0,0.0,0.0,0.0,0.0,-0.1409207207056426,-0.6343615080341064,-0.9575228238451451,-0.7730209440012272,0.008091688439687472,-0.008069590569581583,-0.96419725424136
14140,6.0,298.70726,7890.9021,0.0,0.0,0.0,0.0,0.0,-0.14093068751522642,-0.6304217383327814,-0.977614245970514,-0.7906011980062633,0.0016354458484559384,0.009382241888630181,-0.977697302081211
14141,6.0,299.23551000000003,8084.6669999999995,0.0,0.0,0.0,0.0,0.0,-0.14094065432481023,-0.6339290832889294,-0.9956687922148589,-0.8279390183612192,-0.023624549230311476,-0.006264665266999324,-0.9587021355040342
14142,6.0,299.17695,7765.028,0.0,0.0,0.0,0.0,0.0,-0.1409506211343941,-0.6089125158724864,-0.9589026779638261,-0.7925594152820242,0.007909332197990313,-0.005333312119581925,-0.9774800207297671
14143,6.0,299.17561,7736.3323,0.0,0.0,0.0,0.0,0.0,-0.14096058794397787,-0.5766505718934805,-0.9769246178199531,-0.7980766735340352,0.021962301295510377,0.03760513498308786,-0.9405299509230792
14144,6.0,300.47564,8090.295999999999,0.0,0.0,0.0,0.0,0.0,-0.14097055475356168,-0.6570813009188754,-1.0028408702651879,-0.7993257981248142,-9.801094452692711e-05,0.03340158284347957,-0.929014758704118
14145,6.0,298.92845,7814.5725,0.0,0.0,0.0,0.0,0.0,-0.1409805215631455,-0.6052302535515753,-1.0031968452903202,-0.7670078315477793,-0.01132140408433559,-0.01953186590339508,-0.9467609729430332
14146,6.0,300.03913,7461.5905,0.0,0.0,0.0,0.0,0.0,-0.14099048837272932,-0.5797207906239874,-0.9624725303186431,-0.7259438751425823,-0.017481250351015082,-0.028801863087022577,-0.990348337529771
14147,6.0,300.67408,7643.354,0.0,0.0,0.0,0.0,0.0,-0.1410004551823132,-0.5510670099860795,-1.005152762488354,-0.7671689991086853,0.03454188943976907,-0.002152299962190468,-0.9706812341487792
14148,6.0,300.62923,7712.6818,0.0,0.0,0.0,0.0,0.0,-0.141010421991897,-0.5747571519616145,-0.985245934266203,-0.7844595851751333,0.028615314624361676,-0.02314427577566218,-1.009785585125578
14149,6.0,299.90696,7615.9579,0.0,0.0,0.0,0.0,0.0,-0.14102038880148082,-0.5198021547679784,-0.9827224956871591,-0.8125363705435962,-0.0066956837223625335,-0.012081791542379988,-1.000253444942329
14150,6.0,299.99703999999997,7598.8182,0.0,0.0,0.0,0.0,0.0,-0.14103035561106464,-0.5871927805714154,-0.9656337997031361,-0.7570244100349923,0.025226610109172577,-0.026576043420101274,-1.008102576709478
14151,6.0,299.11159,7650.8666,0.0,0.0,0.0,0.0,0.0,-0.14104032242064846,-0.5927540442752693,-0.9505315501426602,-0.7823868199755672,0.007062807234369803,0.029420421875569574,-0.9525023823821662
14152,6.0,299.60777,7789.147,0.0,0.0,0.0,0.0,0.0,-0.14105028923023227,-0.6160899641483454,-0.9943496419096689,-0.7572665970738943,0.016064615253704086,0.024585588579158678,-0.996278079764991
14153,6.0,300.19066000000004,8003.8899,0.0,0.0,0.0,0.0,0.0,-0.1410602560398161,-0.6147553921766334,-1.017239468293719,-0.8009877613363372,-0.02041705942925688,-0.00027768810027068173,-0.959978952220046
14154,6.0,298.8799,8087.6454,0.0,0.0,0.0,0.0,0.0,-0.1410702228493999,-0.6207137283296754,-1.019378337929809,-0.8183502172323782,-0.01696572693863688,0.018374321896404384,-0.970193333960627
14155,6.0,299.34128,7791.9423,0.0,0.0,0.0,0.0,0.0,-0.14108018965898372,-0.5566944693189665,-1.003635359668598,-0.8082260552807012,-0.005543735490374095,0.036108687188649964,-0.9247035517811352
14156,6.0,299.43535,7553.0349,0.0,0.0,0.0,0.0,0.0,-0.14109015646856754,-0.5882086144591704,-0.9470577842948261,-0.7606676115645482,0.0008385609799545252,0.01400393306158059,-0.95175525228843
14157,6.0,299.76223,7846.1987,0.0,0.0,0.0,0.0,0.0,-0.1411001232781514,-0.6011059912720425,-0.9675508992898391,-0.8163915946565772,-0.022357457688759276,-0.02321247662664308,-0.922503005611458
14158,6.0,299.62826,7889.0995,0.0,0.0,0.0,0.0,0.0,-0.14111009008773517,-0.6223091716721334,-0.9864068858332802,-0.7893732098125702,0.003833251581912476,-0.04073327514231126,-0.9702531562465312
14159,6.0,300.59114,7755.2971,0.0,0.0,0.0,0.0,0.0,-0.141120056897319,-0.5771654144017914,-0.9770467549870071,-0.8032044891101112,0.013766523496900088,-0.006667593288515223,-0.952059521160959
14160,6.0,300.25621,7838.0176,0.0,0.0,0.0,0.0,0.0,-0.14113002370690286,-0.5782377977776275,-0.9670191760348621,-0.8373046511555351,0.021774667641992377,-0.024002509756113274,-0.994464899108544
14161,6.0,300.81606,7891.7417,0.0,0.0,0.0,0.0,0.0,-0.14113999051648662,-0.5730567055112934,-0.988946232438894,-0.8368894820595613,0.009646947904379631,0.005786760791083824,-0.9598328922181312
14162,6.0,299.89387,7740.2903,0.0,0.0,0.0,0.0,0.0,-0.1411499573260705,-0.6033140354924594,-0.9492572260218941,-0.8002837146368532,-0.025510749755214977,0.015680267199271885,-0.9647137179498312
14163,6.0,299.85159,7907.7186,0.0,0.0,0.0,0.0,0.0,-0.1411599241356543,-0.6262698143255184,-0.985707449421751,-0.7917717349192863,-0.01903378356498818,0.027168781556349973,-0.9387798552178582
14164,6.0,300.3053,7920.608,0.0,0.0,0.0,0.0,0.0,-0.14116989094523807,-0.6535117322740863,-0.9738964894986001,-0.7802588326455512,-0.01982420780899698,-0.008604290449377352,-0.947038512277924
14165,6.0,299.42881,7683.5687,0.0,0.0,0.0,0.0,0.0,-0.14117985775482195,-0.5744234887036844,-0.98359298898057,-0.7775965484053042,-0.007250340981427943,-0.0015964836463356687,-0.9652319953759811
14166,6.0,298.36894,7785.7428,0.0,0.0,0.0,0.0,0.0,-0.14118982456440576,-0.5629913525954204,-1.023453224531969,-0.7802268038098902,0.015362288039639784,0.0005453044134873555,-0.9885828100255271
14167,6.0,298.85913999999997,8068.0136,0.0,0.0,0.0,0.0,0.0,-0.14119979137398958,-0.5999303273135134,-1.018923996584969,-0.8336203319369212,-0.005682065204626175,0.036248780160726066,-0.9486980234242051
14168,6.0,299.87072,7730.2629,0.0,0.0,0.0,0.0,0.0,-0.1412097581835734,-0.5896425558681895,-0.9913100233321821,-0.7688543278675143,0.006502404644587374,0.005394166096737745,-0.9623956043710511
14169,6.0,300.63052000000005,7409.0166,0.0,0.0,0.0,0.0,0.0,-0.14121972499315721,-0.5435537807595815,-0.9566914014755902,-0.7519108812853262,-0.016791372940929482,-0.007396213126774403,-0.9651852136188641
14170,6.0,300.83422,7709.7678,0.0,0.0,0.0,0.0,0.0,-0.1412296918027411,-0.6016728135104834,-0.9685622242146491,-0.7733418707054003,0.01834816383182278,-0.028226692681007675,-0.9585977910087361
14171,6.0,300.09562999999997,7851.1965,0.0,0.0,0.0,0.0,0.0,-0.14123965861232485,-0.5954531398916494,-0.989994611919861,-0.8011199296793812,0.004913551379454766,-0.018687125374525684,-0.9816386929826961
14172,6.0,300.83414,8015.919,0.0,0.0,0.0,0.0,0.0,-0.14124962542190872,-0.5997384582745774,-1.0223487819229689,-0.8145520188350251,0.01090484784897469,-0.020980543008618378,-1.0102010277990792
14173,6.0,300.8177,8039.5561,0.0,0.0,0.0,0.0,0.0,-0.14125959223149248,-0.6302412176949654,-0.9912937606680771,-0.8222893283211382,-0.004890262636506345,0.009733555861977172,-0.9686888095496421
14174,6.0,299.91718,7804.4707,0.0,0.0,0.0,0.0,0.0,-0.1412695590410763,-0.6080626726161134,-0.9869857657479111,-0.7773157565375922,0.016179772140819185,0.02075669174352598,-0.9644803157892962
14175,6.0,300.00747,7748.6164,0.0,0.0,0.0,0.0,0.0,-0.14127952585066017,-0.6114252038679694,-0.95946000604883,-0.7845007028641913,0.00028629849697046173,0.03223007219711047,-0.9354008079893721
14176,6.0,300.12642999999997,8123.1132,0.0,0.0,0.0,0.0,0.0,-0.141289492660244,-0.6718069456821834,-1.014827021130629,-0.7825896219830822,-0.006651370749114183,-0.017518806465971586,-0.9545246370642472
14177,6.0,299.60329,8068.7483,0.0,0.0,0.0,0.0,0.0,-0.1412994594698278,-0.6108941898880624,-1.036435694088239,-0.8053680921811422,-0.018960507344256382,-0.007704686885893392,-0.9785213885200421
14178,6.0,299.93112,7575.5112,0.0,0.0,0.0,0.0,0.0,-0.14130942627941162,-0.5519545968086774,-0.985855424466355,-0.7649562331428023,0.007220452940578223,0.006046521538395214,-0.9725087826916442
14179,6.0,299.0307,7456.814,0.0,0.0,0.0,0.0,0.0,-0.14131939308899538,-0.5267253076662405,-0.9858060487889821,-0.7541538927666943,-0.0006217447001739244,0.012326826827313089,-0.991765165144601
14180,6.0,299.3811,7831.7848,0.0,0.0,0.0,0.0,0.0,-0.14132935989857925,-0.6161562611023884,-0.9602423668485431,-0.8042683814501091,-0.011329639781148388,-0.016573055034633185,-0.958970444130514
14181,6.0,300.08988999999997,7788.8963,0.0,0.0,0.0,0.0,0.0,-0.14133932670816307,-0.5950885218431644,-0.9626468194683442,-0.8098946552803793,-0.013539506838495287,-0.006713644289660104,-0.9756923233133351
14182,6.0,301.05769,7705.2023,0.0,0.0,0.0,0.0,0.0,-0.14134929351774694,-0.5972268747217034,-0.9602396209407722,-0.7847226046360912,0.02992911395577357,-0.00893923141568345,-0.9647847670468431
14183,6.0,300.08891,7866.2982,0.0,0.0,0.0,0.0,0.0,-0.1413592603273307,-0.5896079533772745,-0.970469505407883,-0.8310807522837843,0.021982246110478776,0.007144241638281754,-0.9877679441626062
14184,6.0,300.6433,7983.9478,0.0,0.0,0.0,0.0,0.0,-0.14136922713691452,-0.6050596222347354,-1.016694947689979,-0.8051661818337152,0.022357861975549183,-0.009976775200081051,-0.994384183605578
14185,6.0,299.70321,7959.0119,0.0,0.0,0.0,0.0,0.0,-0.14137919394649834,-0.5897987686361065,-1.016296132450619,-0.8132459799861292,0.0013501079328452786,0.03267607652012767,-0.9814062534097562
14186,6.0,301.12097,7925.9189,0.0,0.0,0.0,0.0,0.0,-0.14138916075608216,-0.6237142253208015,-0.9821507186557291,-0.8034164812960333,0.001166924676416499,0.03770493707818757,-0.9394210500136391
14187,6.0,300.65007,7648.3367,0.0,0.0,0.0,0.0,0.0,-0.14139912756566603,-0.5774011166400534,-0.9779682451579511,-0.7695340160345943,-0.013370766246341885,0.010849492982761591,-0.9287310892061222
14188,6.0,299.43539,7545.0001,0.0,0.0,0.0,0.0,0.0,-0.14140909437524984,-0.5922197372325375,-0.9403028613106672,-0.7609690534692983,-0.030865738030211174,-0.04473834273308066,-0.9485045331851092
14189,6.0,299.31617,7907.9414,0.0,0.0,0.0,0.0,0.0,-0.1414190611848336,-0.5928422375639735,-1.002223567906765,-0.8087509289650022,-0.0022361317158390175,-0.03110871033794067,-0.96065513454178
14190,6.0,299.48872,8027.2089,0.0,0.0,0.0,0.0,0.0,-0.14142902799441748,-0.6336764800389993,-1.005888483385964,-0.8005061129013022,0.015787069839312485,-0.0014883018715839585,-0.953671450082544
14191,6.0,300.07496000000003,7869.9588,0.0,0.0,0.0,0.0,0.0,-0.14143899480400124,-0.5862869147170134,-0.9881079199686591,-0.8178761377755902,0.015803380126172186,-0.006934999413131154,-0.9474241350009821
14192,6.0,300.29342,7962.9999,0.0,0.0,0.0,0.0,0.0,-0.1414489616135851,-0.6210729254901254,-0.992301113652495,-0.8071790943498742,-0.0037765083604123567,-0.001095495306641969,-0.9621557579398802
14193,6.0,300.21946,8045.7473,0.0,0.0,0.0,0.0,0.0,-0.14145892842316893,-0.6327604107560904,-0.9846963778094661,-0.8282494781918592,0.006063690149414625,0.005875420782783885,-0.958604204881869
14194,6.0,299.47677000000004,7734.206,0.0,0.0,0.0,0.0,0.0,-0.14146889523275274,-0.6144006938466274,-0.961142213997351,-0.7754625727671972,0.005988041403573675,0.01221324149110309,-0.9527364634202682
14195,6.0,300.31153,7754.5267,0.0,0.0,0.0,0.0,0.0,-0.14147886204233656,-0.5666893304253825,-1.003932323007906,-0.7865608227025093,-0.004197253371686656,-0.027849083752990573,-0.979967762507788
14196,6.0,299.05105,7775.9161,0.0,0.0,0.0,0.0,0.0,-0.14148882885192038,-0.6084113117105214,-0.981461992297757,-0.7738110156342012,0.0017711696861008382,-0.03905117865130126,-0.9767471166674351
14197,6.0,299.68889,7570.3072,0.0,0.0,0.0,0.0,0.0,-0.14149879566150425,-0.5460225646282315,-1.009638694258581,-0.7455230993424014,0.0035338728570160965,-0.015145492034993685,-1.01065629120151
14198,6.0,300.16141,7541.5135,0.0,0.0,0.0,0.0,0.0,-0.141508762471088,-0.5628093830099614,-0.9773091867629071,-0.7523132327675353,0.005322274279617574,0.01979174530229318,-0.95774842397991
14199,6.0,300.453,7770.3756,0.0,0.0,0.0,0.0,0.0,-0.14151872928067183,-0.5929808704426555,-0.9903098846884761,-0.7787094111226353,-0.0002683456303736518,-0.011966790695780289,-0.9344407332546202
14200,6.0,300.29783,7786.5071,0.0,0.0,0.0,0.0,0.0,-0.1415286960902557,-0.5858860425799505,-1.0155039735224392,-0.7655136726853172,-0.0037706997015640865,0.0032261398850452166,-0.9670752796928992
14201,6.0,300.85606,7895.6624,0.0,0.0,0.0,0.0,0.0,-0.14153866289983946,-0.5759678338435994,-1.016656140211149,-0.8074602408551212,0.008307150500576923,0.005027951976695225,-0.9842233420002812
14202,6.0,300.59545,8129.1559,0.0,0.0,0.0,0.0,0.0,-0.14154862970942333,-0.6399309891962713,-1.022198618258149,-0.8089308517852593,0.04103062655640756,0.01698914314844788,-0.976575644353012
14203,6.0,300.34358,8171.0671,0.0,0.0,0.0,0.0,0.0,-0.14155859651900715,-0.6431660130555434,-1.0114174345441291,-0.8292169293873393,0.004392891194369606,-0.006789822357353295,-0.943670053512983
14204,6.0,298.5115,7920.5252,0.0,0.0,0.0,0.0,0.0,-0.1415685633285909,-0.6078701348321114,-0.990972053761327,-0.8087996865598143,-0.014664857863308787,-0.023019601430357778,-0.9615491859000161
14205,6.0,298.99315,7805.0665,0.0,0.0,0.0,0.0,0.0,-0.14157853013817479,-0.6151849494240273,-0.9776384018528981,-0.7797219924775692,0.0018200025653952682,-0.002865469458949817,-0.9297956806886892
14206,6.0,299.60424,7880.7096,0.0,0.0,0.0,0.0,0.0,-0.1415884969477586,-0.6213104313135654,-0.973271993064467,-0.8009565025707522,0.00018675788119156784,0.02940055102785847,-0.9361266395660062
14207,6.0,300.65674,7758.3427,0.0,0.0,0.0,0.0,0.0,-0.14159846375734242,-0.6004895603087055,-0.9809399962437402,-0.7769129085628342,0.025430571274801975,-0.0098863400955308,-0.9528412132156061
14208,6.0,300.37154,7903.1144,0.0,0.0,0.0,0.0,0.0,-0.14160843056692624,-0.6124485054089615,-1.015722835544039,-0.7741780756154273,-0.018643602229730282,-0.002105375032834338,-0.9803638217068761
14209,6.0,300.41012,8046.2249,0.0,0.0,0.0,0.0,0.0,-0.14161839737651,-0.6108650893451905,-1.002558811834851,-0.8324275440517022,-0.014343505594093788,-0.0018513266856117181,-0.9644557444743711
14210,6.0,300.22244,7717.9458,0.0,0.0,0.0,0.0,0.0,-0.14162836418609392,-0.5740833203801124,-1.004611180309904,-0.7673682952708543,-0.03219244616789707,0.018331521198930285,-0.9575850779312892
14211,6.0,300.90635,7754.3334,0.0,0.0,0.0,0.0,0.0,-0.14163833099567769,-0.5853599732605315,-0.9904385167886711,-0.7813252479782983,-0.012122855529182689,-0.0003827821068001526,-0.944598352724599
14212,6.0,301.02371,8134.6913,0.0,0.0,0.0,0.0,0.0,-0.14164829780526156,-0.6287721165074764,-0.978256524943902,-0.8657143803743571,-0.012092254362912589,0.007759054643859072,-0.9234609423884992
14213,6.0,300.95915,7805.5961,0.0,0.0,0.0,0.0,0.0,-0.14165826461484532,-0.5733120850664974,-1.004827965168799,-0.7945662584300842,0.02868271399451347,0.029046690655685173,-0.9824714123123792
14214,6.0,299.47052,7591.4946,0.0,0.0,0.0,0.0,0.0,-0.14166823142442914,-0.5549160127434465,-0.94192905679366,-0.8107797393752303,0.0055851267569590945,0.035562367052732365,-0.9572330545815471
14215,6.0,300.67193,7936.8958,0.0,0.0,0.0,0.0,0.0,-0.141678198234013,-0.5939879903795504,-1.0116117252508041,-0.8070184232815172,0.027218649673271575,-0.03701681765702546,-0.9635792426078671
14216,6.0,300.39401000000004,7983.476,0.0,0.0,0.0,0.0,0.0,-0.14168816504359683,-0.6171978720726874,-1.0149506376428292,-0.7946288266237592,-0.041363917951550866,-0.024610886394405375,-0.9612815662836042
14217,6.0,299.93591000000004,7772.4876,0.0,0.0,0.0,0.0,0.0,-0.14169813185318064,-0.5812158715440404,-0.992033200193554,-0.7893930695145303,-0.009397646127250461,-0.015572555673891587,-0.9721224304285141
14218,6.0,300.16485,7763.6267,0.0,0.0,0.0,0.0,0.0,-0.14170809866276446,-0.5688710504082015,-1.012409983944586,-0.7786676145560102,-0.024249455017484878,0.02547064734275718,-0.9852083730849961
14219,6.0,299.87802999999997,7754.0342,0.0,0.0,0.0,0.0,0.0,-0.14171806547234822,-0.6035692225301444,-0.971785849010296,-0.7816777070255833,-0.014273423137677186,0.009677255836070792,-0.9273958586218451
14220,6.0,300.14922,7764.7922,0.0,0.0,0.0,0.0,0.0,-0.1417280322819321,-0.6030138601503344,-0.9760194004456152,-0.7812696914753153,0.0006987858948322984,0.004856482904672546,-0.959782847795692
14221,6.0,300.27108,7849.9098,0.0,0.0,0.0,0.0,0.0,-0.1417379990915159,-0.6097348392561435,-0.9705733939406361,-0.8058683438880133,0.0033352524313387867,0.008291415334473981,-0.9326699773798601
14222,6.0,299.89662999999996,7885.8368,0.0,0.0,0.0,0.0,0.0,-0.14174796590109973,-0.6191979264450774,-0.9466368092757792,-0.8312627421342452,0.004306145637408485,0.012663690942308988,-0.9265374128721231
14223,6.0,300.54238,7867.275,0.0,0.0,0.0,0.0,0.0,-0.14175793271068354,-0.5996395751973184,-0.9735346477553891,-0.8182809210580392,0.01149747351446229,-0.032662832328070567,-0.9208662925924271
14224,6.0,301.00543,7989.5575,0.0,0.0,0.0,0.0,0.0,-0.14176789952026736,-0.6232299323030054,-0.9846729717321562,-0.8207230665815602,0.006913918339500613,-0.00906474280689546,-0.9601139677958711
14225,6.0,300.84553,8161.2597,0.0,0.0,0.0,0.0,0.0,-0.14177786632985118,-0.6465704219340324,-1.0064244926888641,-0.8278242475223923,-0.002099434955448098,-0.013595280176999687,-0.9543634999008441
14226,6.0,300.55471,7820.3359,0.0,0.0,0.0,0.0,0.0,-0.141787833139435,-0.5897415098729555,-1.0180618220748792,-0.7693835179972413,0.0032747857183711873,0.006857008742334073,-0.998949260341116
14227,6.0,300.56256,7636.3964,0.0,0.0,0.0,0.0,0.0,-0.14179779994901887,-0.5576927739799915,-0.992081055995777,-0.7714999846736202,-0.02978281584008507,-0.01941183427004888,-0.9759735407460891
14228,6.0,300.17875,7766.9411,0.0,0.0,0.0,0.0,0.0,-0.14180776675860268,-0.6163937973233314,-0.9880551904334551,-0.7565071661239443,-0.016836646981897685,-0.008227472971013361,-0.979948814730918
14229,6.0,300.35992999999996,7839.8266,0.0,0.0,0.0,0.0,0.0,-0.14181773356818644,-0.5893549650923064,-0.9994379103343421,-0.7943186505031472,0.0031392517637950272,0.007766343762428453,-0.9711408950566441
14230,6.0,299.56857,7671.3614,0.0,0.0,0.0,0.0,0.0,-0.14182770037777032,-0.5904930476046264,-0.9794410244433032,-0.7619682497904112,0.02869880744585177,0.027678416972397073,-0.9636682667616531
14231,6.0,299.82193,7928.3913,0.0,0.0,0.0,0.0,0.0,-0.14183766718735408,-0.6103499631268514,-1.015202328967669,-0.7844807114397182,0.03208750689479037,-0.01062514725162039,-0.941700781678631
14232,6.0,300.20215,8155.5757,0.0,0.0,0.0,0.0,0.0,-0.14184763399693795,-0.6429420645184414,-1.030150605042949,-0.8059987187783803,0.01795371975339418,-0.0017038537064322683,-0.986347904544959
14233,6.0,299.93928999999997,7961.6983,0.0,0.0,0.0,0.0,0.0,-0.14185760080652177,-0.5965180758792504,-1.0071391987794,-0.8165001948022952,0.009057099658741142,-0.004444591267472006,-0.9795065918572742
14234,6.0,299.85378,7897.0396,0.0,0.0,0.0,0.0,0.0,-0.14186756761610558,-0.5865898359669094,-1.0245405432142791,-0.7893724296099932,-0.017956084679127585,0.0014625734250447587,-1.005383651788641
14235,6.0,300.93551,7879.6604,0.0,0.0,0.0,0.0,0.0,-0.1418775344256894,-0.5836591519076734,-0.9826660779215911,-0.8288947867830462,-0.019872302738243582,-0.023650511737623777,-0.9667690755126791
14236,6.0,300.74307000000005,7434.765,0.0,0.0,0.0,0.0,0.0,-0.14188750123527322,-0.5598019249906485,-0.9616263651601331,-0.7385546136346652,-0.0019850292919571383,-0.027116368155177175,-1.002332340305
14237,6.0,300.89148,7574.7032,0.0,0.0,0.0,0.0,0.0,-0.1418974680448571,-0.5883980922278704,-0.9525265179995481,-0.7615960121011743,0.03152270406379867,0.0013717202535032487,-0.9731206337645292
14238,6.0,300.19289,7889.6452,0.0,0.0,0.0,0.0,0.0,-0.14190743485444085,-0.6130902169622935,-0.9715563782601491,-0.8136085208719092,0.013277969762433587,0.04110629100762506,-0.961157037846314
14239,6.0,300.00506,7784.483,0.0,0.0,0.0,0.0,0.0,-0.14191740166402467,-0.6064214506341374,-1.003383029996195,-0.7564839626966543,0.006502886546334934,-0.02013435251885588,-0.9553527562384762
14240,6.0,299.98093,7995.6215,0.0,0.0,0.0,0.0,0.0,-0.14192736847360848,-0.6036845810540294,-1.000132939107936,-0.8266517550366762,-0.01029245772703649,-0.02170064668243708,-0.9453721414284662
14241,6.0,300.40972,8159.4279,0.0,0.0,0.0,0.0,0.0,-0.1419373352831923,-0.6502497762271564,-1.0062994474940232,-0.8237131068316542,-0.00967603780812558,-0.010581535954066289,-0.952451740142168
14242,6.0,300.0342,8051.3863,0.0,0.0,0.0,0.0,0.0,-0.14194730209277617,-0.6369423674963174,-1.022663902704069,-0.7878141522812032,0.005216283050257055,0.011155396227701888,-0.942574638962374
14243,6.0,300.215,7993.8735,0.0,0.0,0.0,0.0,0.0,-0.14195726890236,-0.6416646702498724,-0.972798906592777,-0.8154743601360532,0.01912669251965758,0.0009406566781130862,-0.9519614486837801
14244,6.0,299.39074,8063.0796,0.0,0.0,0.0,0.0,0.0,-0.14196723571194375,-0.6249772922329564,-1.0302188980996891,-0.7957786831022412,0.0026580815828072275,0.007754729788457243,-0.9665843194894451
14245,6.0,299.45651000000004,7839.7589,0.0,0.0,0.0,0.0,0.0,-0.14197720252152762,-0.6025459716516574,-0.961768767329187,-0.8187762281044222,0.01855848516832988,0.01203599567761029,-0.974601286003158
14246,6.0,299.14731,7549.996,0.0,0.0,0.0,0.0,0.0,-0.14198716933111144,-0.5249879282497745,-0.9613999240277851,-0.8086224184548192,-0.006774369989353264,0.0005109551641698485,-0.9717076767650811
14247,6.0,300.52488999999997,7716.4384,0.0,0.0,0.0,0.0,0.0,-0.14199713614069526,-0.5590759312939985,-0.994388307533485,-0.7921403553056663,-0.01027139935020819,-0.026104938865606876,-0.981910244009496
14248,6.0,301.77893,7965.776999999999,0.0,0.0,0.0,0.0,0.0,-0.14200710295027907,-0.6246557474462224,-0.983518049003174,-0.8132235060989113,-0.013512036615034187,-0.008387872893643601,-0.9511291346541372
14249,6.0,300.35762,7775.5714,0.0,0.0,0.0,0.0,0.0,-0.1420170697598629,-0.5953032903343605,-1.004030020582548,-0.7642462487977323,0.00919271112694995,0.02197338422510418,-0.9987914973005461
14250,6.0,300.61159,7859.1287,0.0,0.0,0.0,0.0,0.0,-0.1420270365694467,-0.5850736287822714,-1.014746873047719,-0.7891583501288653,-0.015672644518769586,0.012199952716041589,-0.960424387096507
14251,6.0,301.07225,8188.2033,0.0,0.0,0.0,0.0,0.0,-0.14203700337903052,-0.6268000683678504,-1.020472242737769,-0.8417369819954722,0.006734390382807583,0.007125237018081144,-0.9397172736803742
14252,6.0,300.30441,8140.6814,0.0,0.0,0.0,0.0,0.0,-0.14204697018861434,-0.5993757451362804,-1.056018069495869,-0.8191700277557873,-0.012489125175330688,-0.004917023280922415,-0.9686458173478991
14253,6.0,299.82047,7982.2378,0.0,0.0,0.0,0.0,0.0,-0.14205693699819816,-0.6300917633052154,-0.969220198432086,-0.8270890129848303,0.008322895799180862,-0.005166350997254145,-0.9523130160709771
14254,6.0,299.87638,7708.9813,0.0,0.0,0.0,0.0,0.0,-0.14206690380778197,-0.5912046936798604,-0.9543003034921071,-0.7978328146324682,0.01142474546203459,0.015283464274610485,-0.9560560632653872
14255,6.0,299.17667,7517.7811,0.0,0.0,0.0,0.0,0.0,-0.14207687061736585,-0.5789657166494674,-0.9500833896234301,-0.7561686088680313,0.013355786356863488,0.008184082663306072,-0.967567486193976
14256,6.0,299.6608,7841.1682,0.0,0.0,0.0,0.0,0.0,-0.14208683742694966,-0.6025756294820844,-0.963781031365282,-0.8171626779826772,-0.01986243064251928,-0.011700149878964887,-0.975886978790046
14257,6.0,299.95544,8208.6483,0.0,0.0,0.0,0.0,0.0,-0.14209680423653348,-0.6323944045549684,-1.0306429432665392,-0.8321867249004353,-0.024163104830712774,-0.0032639170911735365,-0.968996178967477
14258,6.0,299.43697000000003,7881.1314,0.0,0.0,0.0,0.0,0.0,-0.14210677104611724,-0.5821194879832204,-1.0021963216115761,-0.8113513340216423,-0.01920843241847468,-0.011518129631000889,-0.9661421776758091
14259,6.0,300.54192,7738.6022,0.0,0.0,0.0,0.0,0.0,-0.14211673785570106,-0.5744882961800805,-0.9985259345818371,-0.7793276051411463,-0.001363717604213449,-0.0004975165598160616,-0.9446455904442611
14260,6.0,300.41767000000004,8100.1092,0.0,0.0,0.0,0.0,0.0,-0.14212670466528493,-0.6366644025963843,-1.044950743953609,-0.7806157905232802,0.007022518991843665,0.0015819211145734584,-0.970479283271348
14261,6.0,300.59702999999996,8230.6376,0.0,0.0,0.0,0.0,0.0,-0.14213667147486875,-0.6635692325016843,-1.007801428647257,-0.8305376502301842,0.012990691067581387,0.0015721044436296286,-0.9437866482019901
14262,6.0,299.84621,7792.5432,0.0,0.0,0.0,0.0,0.0,-0.14214663828445256,-0.5972989674663185,-0.9836904231101861,-0.7877491725522902,0.027802760998168873,0.013369443954961386,-0.9742051761415651
14263,6.0,300.60032,7620.6294,0.0,0.0,0.0,0.0,0.0,-0.14215660509403638,-0.5392547733678025,-0.9815431029682621,-0.7956831538828132,-0.02826683764996967,0.009092265516711742,-0.9885885754185961
14264,6.0,298.89374,7629.0386,0.0,0.0,0.0,0.0,0.0,-0.1421665719036202,-0.5554548186166225,-0.9598798766252682,-0.8037025623292673,-0.007439195196016403,-0.017712053525043583,-0.979036180365848
14265,6.0,299.18142,7807.2119,0.0,0.0,0.0,0.0,0.0,-0.14217653871320401,-0.5866188757147754,-1.012914389976867,-0.7736642058272123,-0.04352153676749126,0.006195714002994364,-1.006548423308595
14266,6.0,299.28971,7941.5882,0.0,0.0,0.0,0.0,0.0,-0.14218650552278783,-0.6239879649678174,-0.9912033584941551,-0.7988531878806713,0.016139727483617083,0.04089132898565996,-0.9823713741300061
14267,6.0,299.24671,7804.0719,0.0,0.0,0.0,0.0,0.0,-0.1421964723323717,-0.5881185871877854,-1.003725731445017,-0.7803986712918523,0.014972318473652787,0.02282414345956758,-0.994995892823449
14268,6.0,299.26832,7666.7139,0.0,0.0,0.0,0.0,0.0,-0.14220643914195547,-0.5720222480867004,-1.005440343131736,-0.7530270066679794,0.02104338984607088,-0.001042104220447679,-0.99861138196277
14269,6.0,300.01666,8033.156,0.0,0.0,0.0,0.0,0.0,-0.14221640595153928,-0.6221335348997994,-1.021785110892339,-0.7979601700375373,0.0031369211872400173,-0.010045588256772372,-0.988251132737793
14270,6.0,298.81954,8102.9226,0.0,0.0,0.0,0.0,0.0,-0.14222637276112315,-0.6475277102310093,-1.0072199446798689,-0.8083384855117972,0.0038552717357356963,-0.012983553733876987,-0.9569538028539871
14271,6.0,299.58423999999997,7924.6763,0.0,0.0,0.0,0.0,0.0,-0.14223633957070692,-0.6216132512384513,-0.9893594256971731,-0.7979310390971622,-0.0047453670616062656,-0.013699950938829886,-0.9550074507368971
14272,6.0,300.44022,7698.0602,0.0,0.0,0.0,0.0,0.0,-0.1422463063802908,-0.5842296623764784,-0.9609821812765571,-0.7948062264512672,-0.004126923682245656,-0.04616453277883466,-0.947199598778822
14273,6.0,299.10662,7825.7322,0.0,0.0,0.0,0.0,0.0,-0.1422562731898746,-0.6107579685446184,-0.974154209661535,-0.7939150121933112,-0.0027010056941435072,0.01023890644600139,-0.9572275323685021
14274,6.0,300.16362000000004,8114.5516,0.0,0.0,0.0,0.0,0.0,-0.14226623999945842,-0.6340040333988264,-1.004591340872946,-0.8280256917747731,-0.011552613571654187,-0.0036849913074053268,-0.961056259991368
14275,6.0,300.35092000000003,7914.3729,0.0,0.0,0.0,0.0,0.0,-0.14227620680904224,-0.5860527222214004,-0.994502298169735,-0.8252167193175493,0.013553018528578787,0.023809247498289776,-0.998240785738695
14276,6.0,299.70506,7717.9988,0.0,0.0,0.0,0.0,0.0,-0.142286173618626,-0.5477364467748785,-1.003332266166185,-0.7950102139613993,0.0034391102626137567,-0.009963346697830762,-0.993179338044169
14277,6.0,301.24852000000004,7735.5778,0.0,0.0,0.0,0.0,0.0,-0.14229614042820993,-0.5759878759305774,-0.980705550435602,-0.7947290573236513,0.028410700925667873,0.014928465009324786,-0.9873677813006131
14278,6.0,301.05005,7801.4041,0.0,0.0,0.0,0.0,0.0,-0.1423061072377937,-0.5904154833094714,-0.9889357149028561,-0.7920808369947923,0.011008249008429592,0.0011654215198931487,-0.9783218390453481
14279,6.0,301.06615,7955.5838,0.0,0.0,0.0,0.0,0.0,-0.1423160740473775,-0.6130380447146444,-0.989448520778466,-0.8158122486469002,-0.001342427598412289,0.0015685037580742682,-0.967716585946191
14280,6.0,300.84614,8011.829000000001,0.0,0.0,0.0,0.0,0.0,-0.14232604085696132,-0.5957346410344314,-1.000774934371296,-0.8388863953566411,0.007767679834010312,-0.038080546863757364,-0.9536409917845381
14281,6.0,300.3883,7934.2209,0.0,0.0,0.0,0.0,0.0,-0.14233600766654514,-0.5914588674674455,-1.0109508632705821,-0.8093953053660973,-0.028920637276994676,-0.0052589813081460445,-0.9808099253284029
14282,6.0,300.28629,8118.1495,0.0,0.0,0.0,0.0,0.0,-0.142345974476129,-0.6380956791576404,-0.9988482291736451,-0.8307708396081982,0.01809946260802788,-0.021253669639323878,-0.949525098950831
14283,6.0,300.04357999999996,8141.9461,0.0,0.0,0.0,0.0,0.0,-0.14235594128571283,-0.6298293720593193,-1.0168430848545988,-0.8282758632244632,-0.005447347237511314,-0.003304056183284957,-0.9536504555404721
14284,6.0,299.73913999999996,7800.6154,0.0,0.0,0.0,0.0,0.0,-0.1423659080952966,-0.5984424607341724,-0.9796454577834791,-0.7931043918483093,0.01063133213023079,-0.007054120641262504,-0.970510997999478
14285,6.0,299.1606,7757.8706,0.0,0.0,0.0,0.0,0.0,-0.14237587490488046,-0.5769384159818884,-0.984003507258585,-0.7972570251306422,0.016346202522744584,0.006686476420028844,-0.97703462638331
14286,6.0,300.2963,7892.6706,0.0,0.0,0.0,0.0,0.0,-0.14238584171446422,-0.6103123816806424,-0.9940657596291521,-0.7947966208403192,0.007988716898274972,-0.005838140373179594,-0.9814465199687301
14287,6.0,299.43359,7947.7309,0.0,0.0,0.0,0.0,0.0,-0.1423958085240481,-0.6018246389054674,-0.9973936579925899,-0.8166934317288662,-0.010469847422043491,0.012640661794036188,-0.9902778761178171
14288,6.0,301.13242,7767.0864,0.0,0.0,0.0,0.0,0.0,-0.1424057753336319,-0.6048843704974395,-0.9851515094893841,-0.7709644313332653,-0.02234886431466118,-0.030040325246999268,-0.9744070256939861
14289,6.0,300.13827000000003,7817.7693,0.0,0.0,0.0,0.0,0.0,-0.14241574214321573,-0.6082874824158004,-0.9787556823406651,-0.7893635028766123,-0.0059238087439594045,0.027453310290430775,-0.9592232804279671
14290,6.0,301.97418999999996,7992.5532,0.0,0.0,0.0,0.0,0.0,-0.14242570895279955,-0.6631433837496563,-0.9800789667062629,-0.7863142381581733,0.005575895947223085,-0.023537621490982378,-0.9194143051991271
14291,6.0,301.52799,7898.8219,0.0,0.0,0.0,0.0,0.0,-0.14243567576238336,-0.6033334088343715,-1.002468075288396,-0.7952431398943872,0.003633428833666507,-0.016728109657685883,-0.9376765778464731
14292,6.0,301.4266,8175.2414,0.0,0.0,0.0,0.0,0.0,-0.14244564257196718,-0.6158574536478983,-1.0471855683741689,-0.8220262075351702,-0.0021207589051276078,-0.03273842382528087,-0.9682102413949111
14293,6.0,299.85572,8142.6765,0.0,0.0,0.0,0.0,0.0,-0.142455609381551,-0.6265372515569124,-1.0202230845381792,-0.8284099972727013,-0.004162432626700116,-0.005139682153297135,-0.9938343941013181
14294,6.0,300.09923,7885.7188,0.0,0.0,0.0,0.0,0.0,-0.1424655761911348,-0.6075375962817924,-1.026606965468219,-0.7629170166540473,0.0002134564741715138,-0.006322385666895884,-1.0288357103881791
14295,6.0,299.59958,7750.1974,0.0,0.0,0.0,0.0,0.0,-0.14247554300071869,-0.5995713429355845,-0.9723409580775811,-0.7839541861577543,-0.01919439181183898,0.022590648080023378,-0.9758426794956739
14296,6.0,300.1436,7770.2595,0.0,0.0,0.0,0.0,0.0,-0.14248550981030245,-0.5990577669898984,-1.0030329926166492,-0.7598740847487333,0.011840170910283887,0.00968053136966906,-0.993065296745414
14297,6.0,299.79661,7728.178000000001,0.0,0.0,0.0,0.0,0.0,-0.14249547661988632,-0.5894160640733365,-0.9964284460798312,-0.7633286393746713,-0.025598191212344773,0.013006610239902489,-0.958817696677939
14298,6.0,300.16700000000003,7798.134,0.0,0.0,0.0,0.0,0.0,-0.14250544342947008,-0.5816842869327694,-0.984542758961805,-0.8042109605669422,0.01134700688786239,-0.01156839088896129,-0.9704453900555031
14299,6.0,300.36562999999995,7916.1666,0.0,0.0,0.0,0.0,0.0,-0.1425154102390539,-0.6016786498310595,-1.014717691444839,-0.7899206080465943,-0.025420767066834375,-0.014249648237330787,-0.9488689485835741
14300,6.0,300.29348999999996,7935.9962,0.0,0.0,0.0,0.0,0.0,-0.14252537704863777,-0.6038378047341515,-1.002720789995837,-0.8057861085098973,0.01027931283348919,-0.008515432367282742,-0.9616852045934401
14301,6.0,300.12709,8132.5469,0.0,0.0,0.0,0.0,0.0,-0.14253534385822159,-0.6456821258363643,-1.018622453355209,-0.8077866087123312,-0.004712896854201706,0.02058569363014978,-0.9674927893966041
14302,6.0,300.78808,8300.5217,0.0,0.0,0.0,0.0,0.0,-0.1425453106678054,-0.6550211000205494,-1.023352406147019,-0.8447778063405782,0.016538625809485286,-0.004161098885593486,-0.943910183654182
14303,6.0,300.49211,8038.5433,0.0,0.0,0.0,0.0,0.0,-0.14255527747738922,-0.6128408358476815,-1.004007354177811,-0.8266682608808053,0.009729534576305302,-0.007032366262940514,-0.940792119253953
14304,6.0,300.81346,7823.8633,0.0,0.0,0.0,0.0,0.0,-0.14256524428697298,-0.5777080300953434,-0.9923967644619351,-0.8081543070411202,-0.006111949529152454,-0.04297953409024976,-0.961715176531398
14305,6.0,300.36429,8007.418000000001,0.0,0.0,0.0,0.0,0.0,-0.14257521109655685,-0.6207758405608055,-1.003086046391885,-0.8101932195548452,-0.0053666265669698055,-0.0021363595116172676,-0.984337170516515
14306,6.0,300.42436000000004,7903.5735,0.0,0.0,0.0,0.0,0.0,-0.14258517790614067,-0.6193929568243254,-0.9807111030461502,-0.8023849217667263,-0.013310156665110187,-0.017449773736658587,-0.9714366424958321
14307,6.0,299.95083999999997,7571.2618,0.0,0.0,0.0,0.0,0.0,-0.14259514471572454,-0.5956485046434304,-0.95832192353651,-0.7475041046129113,0.020417473848547783,0.014834482009549383,-0.998818074850669
14308,6.0,299.15506,7670.8901,0.0,0.0,0.0,0.0,0.0,-0.1426051115253083,-0.5892077803827804,-0.9565561427197411,-0.7859951251716794,0.0028177101181363373,-0.0008373403074265542,-0.9433866981225181
14309,6.0,299.07549,7839.2722,0.0,0.0,0.0,0.0,0.0,-0.14261507833489212,-0.5919298362464265,-0.9872207283136001,-0.8037924477456383,0.010792281842365291,0.02193780597434288,-0.979606974544681
14310,6.0,298.82518999999996,7952.665,0.0,0.0,0.0,0.0,0.0,-0.142625045144476,-0.5858379841277075,-1.021605562974619,-0.8099680652501242,-0.024425527487361876,-0.012486232346295187,-0.9589285361063781
14311,6.0,299.3808,7961.3496,0.0,0.0,0.0,0.0,0.0,-0.14263501195405975,-0.6054959986553025,-0.9795926471882671,-0.8349628376569161,-0.004273502468211856,-0.02999322735585107,-0.961908585710486
14312,6.0,299.97512,7969.6042,0.0,0.0,0.0,0.0,0.0,-0.14264497876364363,-0.5825434014275575,-1.025780862661689,-0.8142363812963742,-0.002277045437651888,0.0004506983358279625,-0.979711552087502
14313,6.0,300.55422999999996,7828.4765,0.0,0.0,0.0,0.0,0.0,-0.14265494557322744,-0.5919494730333644,-0.97962753338921,-0.8080843623867172,0.016234594037479684,0.03060384429011427,-0.979762376712518
14314,6.0,299.99416,7813.9208,0.0,0.0,0.0,0.0,0.0,-0.1426649123828112,-0.5752526717905185,-0.994653657469673,-0.8053304904699312,-0.002219728919245188,0.03334856959824757,-0.994805128227122
14315,6.0,300.32853,8015.8635,0.0,0.0,0.0,0.0,0.0,-0.14267487919239508,-0.6118918156715204,-1.027515040207839,-0.7972154920090433,-0.004369654937776366,0.016869118607852385,-0.9596638821014511
14316,6.0,300.51087,7719.7392,0.0,0.0,0.0,0.0,0.0,-0.14268484600197884,-0.5690978563105855,-0.9677704705865091,-0.8097396280150793,-0.007736048293713523,-0.003040382162762357,-0.980006559854117
14317,6.0,300.56871,7504.9134,0.0,0.0,0.0,0.0,0.0,-0.14269481281156277,-0.5545141374887844,-0.9997567396108081,-0.7270354089453083,0.018703639324655484,-0.009949682918907252,-0.998439352360792
14318,6.0,300.36682,7816.0278,0.0,0.0,0.0,0.0,0.0,-0.14270477962114653,-0.6040878039313244,-0.9857790760713201,-0.7860104151156883,-0.0069819272809125725,-0.029979114808458267,-0.9879839184214211
14319,6.0,301.08657999999997,8041.6977,0.0,0.0,0.0,0.0,0.0,-0.14271474643073034,-0.6408257295645754,-0.9997829827883982,-0.8038665872554552,0.02059645535946188,-0.029172480589349677,-0.9487700655063152
14320,6.0,300.95166,8033.7433,0.0,0.0,0.0,0.0,0.0,-0.14272471324031416,-0.6377440611079384,-1.006695466163107,-0.7976178232262503,-0.007268113286856933,0.0011363049676695691,-0.9598559537904071
14321,6.0,300.14261,8180.77,0.0,0.0,0.0,0.0,0.0,-0.14273468004989798,-0.6642260110840034,-0.9816527062315792,-0.8408710888575152,0.03144695956582327,0.012382030719261288,-0.9418725073055791
14322,6.0,298.74187,8142.8640000000005,0.0,0.0,0.0,0.0,0.0,-0.14274464685948185,-0.6451827151270764,-1.0182759218210091,-0.8117686613403292,-0.008486418355969283,0.006823668659718664,-0.9432269997742572
14323,6.0,299.07727,7931.3674,0.0,0.0,0.0,0.0,0.0,-0.14275461366906567,-0.6210289808332885,-0.9907654318009351,-0.7991432307217962,0.00022093845476492781,-0.01840580864326188,-0.96192656076726
14324,6.0,299.61216,8007.6483,0.0,0.0,0.0,0.0,0.0,-0.14276458047864943,-0.6219713540887933,-0.989371159133331,-0.8227825987348202,0.010064974466960641,0.0014629031366272984,-0.9627910961500832
14325,6.0,299.04742000000005,7835.9115,0.0,0.0,0.0,0.0,0.0,-0.1427745472882333,-0.5886277453630354,-0.9914227372733061,-0.8018709405210002,0.02007165158941778,-0.006616910214538194,-0.9844186459570561
14326,6.0,299.34854,7544.1077,0.0,0.0,0.0,0.0,0.0,-0.14278451409781706,-0.5615157666072914,-0.9634258162777251,-0.7682787916782132,0.01004598464021149,0.004994518675070616,-0.973531537077582
14327,6.0,300.0258,7609.4017,0.0,0.0,0.0,0.0,0.0,-0.14279448090740093,-0.5752014216004604,-0.984822385591902,-0.7530442927146853,-0.01828829696291438,-0.016882946431967083,-0.9850551392723731
14328,6.0,300.00684,7739.5426,0.0,0.0,0.0,0.0,0.0,-0.14280444771698475,-0.5947910113488024,-0.9976778645131391,-0.7601587978943323,-0.002042282786207618,0.02033402459681198,-0.9844550013706441
14329,6.0,300.09259,7990.5832,0.0,0.0,0.0,0.0,0.0,-0.14281441452656857,-0.6315329190549465,-1.01134753041973,-0.7860573285953183,-0.014945432895499385,0.017709316736523484,-0.9812073828126292
14330,6.0,300.36291,8205.603000000001,0.0,0.0,0.0,0.0,0.0,-0.14282438133615238,-0.6179883186081985,-1.064766572184279,-0.8115435070356083,0.024716980772626077,0.0002842411838349207,-0.9951097720021881
14331,6.0,298.83922,8234.3211,0.0,0.0,0.0,0.0,0.0,-0.1428343481457362,-0.6395325691244503,-1.040670066256139,-0.8228253781540422,-0.005519203692202995,-0.006836253529935694,-0.9456806152889101
14332,6.0,299.13693,8040.2105,0.0,0.0,0.0,0.0,0.0,-0.14284431495532002,-0.5846744994353804,-1.018169125260469,-0.8411796032479631,0.015071705136211486,0.008103417518870042,-0.964184700072621
14333,6.0,299.3544,7757.9829,0.0,0.0,0.0,0.0,0.0,-0.14285428176490383,-0.5997700311476934,-0.982606823055743,-0.7758562406960492,0.0009405242564575172,-0.005600722297198255,-0.9649738192505011
14334,6.0,298.47496,7719.8089,0.0,0.0,0.0,0.0,0.0,-0.14286424857448765,-0.6033508570010935,-0.9513890130397852,-0.7918892820633873,-0.009389059440603021,-0.01893719245945538,-0.9648950694527292
14335,6.0,299.332,7796.0734,0.0,0.0,0.0,0.0,0.0,-0.14287421538407152,-0.6179090317878734,-0.9717919285108961,-0.7801106853484303,-0.011683446451066387,-0.03669539142055317,-0.967029045090836
14336,6.0,300.69002,7779.1108,0.0,0.0,0.0,0.0,0.0,-0.14288418219365528,-0.5810892862090474,-0.9825111621138022,-0.8010550006129733,-0.004168326702531816,0.023912691214248875,-0.980922912847054
14337,6.0,299.90619,7934.1829,0.0,0.0,0.0,0.0,0.0,-0.1428941490032391,-0.6190341446989135,-0.9764218431203331,-0.8163374871012372,0.02038886169222398,0.02089937863585808,-0.960709079977104
14338,6.0,300.56802999999996,8199.4529,0.0,0.0,0.0,0.0,0.0,-0.14290411581282292,-0.6331760256821084,-1.033544688902919,-0.8257082570735602,-0.0029019550751756672,0.02019904549799058,-0.9532804875314591
14339,6.0,300.82731,8098.275,0.0,0.0,0.0,0.0,0.0,-0.14291408262240674,-0.6579022868124004,-1.000610271097545,-0.8031608281633021,-0.006141417881810754,-0.0029843809443104666,-0.9293553728577341
14340,6.0,300.34019,8123.2447,0.0,0.0,0.0,0.0,0.0,-0.1429240494319906,-0.6481380920912494,-1.0121524765641718,-0.8089729827244172,-0.015216164202968487,0.018325987840134183,-0.9421522757906902
14341,6.0,300.49279,8234.63,0.0,0.0,0.0,0.0,0.0,-0.14293401624157442,-0.6643120056199904,-1.006888571367165,-0.8319213243017423,-0.011702668818713489,0.012716283688749488,-0.9418037886837972
14342,6.0,298.83673999999996,7763.1035,0.0,0.0,0.0,0.0,0.0,-0.14294398305115824,-0.5917399531776864,-0.9577314723057371,-0.8103181938221793,-0.024786299238467275,-0.005080942018499935,-0.9563815597275112
14343,6.0,299.46718,7553.3874,0.0,0.0,0.0,0.0,0.0,-0.14295394986074206,-0.5518319935465774,-0.9651500842378972,-0.7790590837321453,0.004446875943797486,-0.015141850414134286,-0.962937835029565
14344,6.0,300.17305,7828.6595,0.0,0.0,0.0,0.0,0.0,-0.14296391667032582,-0.5797344391028344,-0.97278880448928,-0.8271937526476673,-0.0009659811317049151,-0.0013314047545494188,-0.976638881291753
14345,6.0,299.49767,7838.8981,0.0,0.0,0.0,0.0,0.0,-0.1429738834799097,-0.6259794979068665,-0.974921371709748,-0.7819284256303273,0.024292876837270275,0.018323003818589683,-0.9738946048534142
14346,6.0,300.86113,7833.4567,0.0,0.0,0.0,0.0,0.0,-0.1429838502894935,-0.5955266714514065,-1.014474308770819,-0.7711742247664702,-0.013495805361682288,0.023443958678238577,-1.017791182973169
14347,6.0,301.28092999999996,8108.0924,0.0,0.0,0.0,0.0,0.0,-0.14299381709907732,-0.6380821320038034,-1.009125908647973,-0.8174495797484922,-0.0036770545193720266,0.02080455565174978,-0.9443723270247922
14348,6.0,300.28544,8044.9773,0.0,0.0,0.0,0.0,0.0,-0.14300378390866114,-0.5844288470811364,-1.044258187510259,-0.8167852119229242,0.009121592926281131,-0.002509961643438928,-1.008386793362528
14349,6.0,301.45041000000003,7937.8595,0.0,0.0,0.0,0.0,0.0,-0.14301375071824496,-0.5607534276295545,-1.021234916088039,-0.8309227257981883,0.013574805432228988,0.0024385073477119377,-0.9464929176290782
14350,6.0,300.72867,7906.0225,0.0,0.0,0.0,0.0,0.0,-0.14302371752782883,-0.5965100813359614,-1.01282343051539,-0.7938999147668213,-0.0032504975055241267,-0.015213706058225883,-0.973073304852358
14351,6.0,299.44315,7783.2346,0.0,0.0,0.0,0.0,0.0,-0.1430336843374126,-0.6123965662088354,-0.9839390442872231,-0.7695733605359772,-0.011438214595613888,-0.012841616646618887,-0.9364666964320671
14352,6.0,299.98221,7786.0431,0.0,0.0,0.0,0.0,0.0,-0.14304365114699646,-0.6248468768125854,-0.9776078726273851,-0.7643079354638203,-0.00940743270466632,0.013704216721750886,-0.987159649597572
14353,6.0,299.61079,8073.1,0.0,0.0,0.0,0.0,0.0,-0.14305361795658028,-0.6425267333024515,-1.003393365147215,-0.8081007061108302,0.008459851242322312,0.00919914161738459,-0.9561318746378691
14354,6.0,299.79271,8195.2576,0.0,0.0,0.0,0.0,0.0,-0.14306358476616404,-0.6345746755901445,-1.032253402975479,-0.8243256165171042,-0.007696049435415942,0.009230605464789831,-0.987670276985467
14355,6.0,300.09788,8005.0152,0.0,0.0,0.0,0.0,0.0,-0.14307355157574791,-0.5948673090813325,-0.9920877029164331,-0.8463697134401872,-0.010991853608561489,-0.01796979800598098,-0.9750470957821561
14356,6.0,299.78947999999997,7652.0516,0.0,0.0,0.0,0.0,0.0,-0.14308351838533173,-0.5806078404240325,-0.997459478719086,-0.7479652853959263,-0.007538560478997993,-0.024121148170571975,-1.002171426056619
14357,6.0,299.62729,7836.9129,0.0,0.0,0.0,0.0,0.0,-0.14309348519491555,-0.6308875598012544,-0.98599317581745,-0.7653451083986813,0.015429531369276184,-0.01205870058585109,-0.972579659536139
14358,6.0,300.29191000000003,7989.1849,0.0,0.0,0.0,0.0,0.0,-0.14310345200449937,-0.6483209128067924,-1.003027460271103,-0.7771643567076503,0.024145859314010774,0.005974844732946264,-0.9798150049227121
14359,6.0,300.98121000000003,7844.3622,0.0,0.0,0.0,0.0,0.0,-0.14311341881408318,-0.6084095385228464,-1.018810917873809,-0.7572697989442102,0.005558572308938374,0.00988590764038812,-0.9696677003387512
14360,6.0,300.33673,7902.7803,0.0,0.0,0.0,0.0,0.0,-0.143123385623667,-0.5697411890640774,-0.9976277288981911,-0.8348789506811372,-0.0019133477242327184,0.02323426150379308,-0.970782234918747
14361,6.0,300.31244,7932.8109,0.0,0.0,0.0,0.0,0.0,-0.14313335243325082,-0.5755034207927655,-1.0168874652089792,-0.8189855149125772,0.00937225559961961,0.009725721108228941,-0.954043049424218
14362,6.0,300.37667000000005,7957.7959,0.0,0.0,0.0,0.0,0.0,-0.1431433192428347,-0.5880788171213605,-1.024994681909099,-0.8058977281409132,-0.0008787298008238792,-0.0026089632709596277,-0.9706413424923421
14363,6.0,300.69347999999997,8078.5627,0.0,0.0,0.0,0.0,0.0,-0.14315328605241845,-0.6562974607740164,-0.9772887596408911,-0.8220951186744712,-0.025101065382032273,-0.002961884056315197,-0.935667231970666
14364,6.0,300.35344,7898.7512,0.0,0.0,0.0,0.0,0.0,-0.14316325286200227,-0.6436949194752424,-1.001973862552121,-0.7553543610876713,-0.030756585663188674,0.005235062019660395,-1.019238104115969
14365,6.0,299.94877,7692.8683,0.0,0.0,0.0,0.0,0.0,-0.14317321967158608,-0.5903593391214305,-0.9642775948417891,-0.7838029585803293,-0.02592023147837768,0.01724162278186568,-0.9799361389721671
14366,6.0,299.4278,7826.8355,0.0,0.0,0.0,0.0,0.0,-0.1431831864811699,-0.5735558021130505,-0.996411048575614,-0.8091957153613992,0.0020923355172974382,0.01004694479600625,-1.022724089760009
14367,6.0,299.6216,8098.3613,0.0,0.0,0.0,0.0,0.0,-0.14319315329075377,-0.6152655028069774,-1.032938664018109,-0.8134954218957473,0.024609547891023275,-0.017702293900080383,-0.974751287547962
14368,6.0,298.99151,7915.6093,0.0,0.0,0.0,0.0,0.0,-0.1432031201003376,-0.6034770876985515,-0.9841078010913781,-0.8185626856458472,0.044960823070787755,-0.033090593083037266,-0.977682032402204
14369,6.0,299.94234,7855.1308,0.0,0.0,0.0,0.0,0.0,-0.1432130869099214,-0.6312718146366774,-0.9791360868257082,-0.7773557292540373,0.023885966742861375,-0.01290706145732779,-0.9370549894401271
14370,6.0,300.481,8037.0032,0.0,0.0,0.0,0.0,0.0,-0.14322305371950522,-0.6488227857138235,-0.9918482111227971,-0.8023772717284713,0.0076426945222502225,0.01128748047098759,-0.9168328377868561
14371,6.0,299.24028,7989.1369,0.0,0.0,0.0,0.0,0.0,-0.14323302052908904,-0.6095366475365834,-0.9788162645641442,-0.8401452370158792,-0.006324271730632024,0.013856442350524384,-0.9225086798120181
14372,6.0,299.8508,8038.376,0.0,0.0,0.0,0.0,0.0,-0.14324298733867286,-0.5641329206880845,-1.021967293260319,-0.8573653616703731,-0.015388743999750785,0.02332528176027608,-0.9608914345976012
14373,6.0,300.57402,8124.6185,0.0,0.0,0.0,0.0,0.0,-0.14325295414825667,-0.6106382935753074,-1.004682442189437,-0.8543604266438092,-0.01081869828572239,0.001149826587604049,-0.9607087861345751
14374,6.0,301.51754,7877.9072,0.0,0.0,0.0,0.0,0.0,-0.1432629209578405,-0.5942298227809174,-0.99072616835956,-0.8097310863167363,0.009856762717161741,-0.031554953787981475,-0.9881232403101711
14375,6.0,300.82465,7825.0457,0.0,0.0,0.0,0.0,0.0,-0.1432728877674243,-0.6290893752462875,-0.9843296724657751,-0.7651994435643052,-0.023982986453186476,-0.027754324603638574,-0.9943433090965441
14376,6.0,301.7084,8198.0745,0.0,0.0,0.0,0.0,0.0,-0.14328285457700812,-0.6653993243023003,-0.992414212628657,-0.8341964051487751,0.006136868490186765,-0.02145584039202658,-0.9777916356655211
14377,6.0,299.44453,8112.8125,0.0,0.0,0.0,0.0,0.0,-0.143292821386592,-0.6290924757915933,-1.015775929849279,-0.8212240478285032,-0.017127400111342783,0.017671497176540985,-0.9776200721585891
14378,6.0,300.7835,7875.9126,0.0,0.0,0.0,0.0,0.0,-0.14330278819617576,-0.5693272966632295,-1.012484336236924,-0.8122691258297212,-0.013958147329311887,0.008288167462603442,-0.9735188106563261
14379,6.0,299.8824,7738.3335,0.0,0.0,0.0,0.0,0.0,-0.14331275500575957,-0.5742375978403385,-0.9856143520025631,-0.7924082079696013,0.005705733105762015,0.008953269590518911,-0.9475977250081141
14380,6.0,299.18192999999997,7904.6435,0.0,0.0,0.0,0.0,0.0,-0.14332272181534345,-0.5921707465902024,-1.0275035904817091,-0.7831399485098952,0.0027776589761335973,-0.017367392450528183,-0.9755650084382701
14381,6.0,299.12699,8022.9305,0.0,0.0,0.0,0.0,0.0,-0.1433326886249272,-0.6428860520529134,-0.988434541138394,-0.8074499462341053,0.016049971763258886,0.005166436414237576,-0.9522094619107572
14382,6.0,300.11115,7948.1314,0.0,0.0,0.0,0.0,0.0,-0.14334265543451108,-0.6172161511044915,-1.012811514694214,-0.7860058352252363,0.018222655581686086,0.0008902971146279842,-0.975293832314007
14383,6.0,300.01755,7914.7342,0.0,0.0,0.0,0.0,0.0,-0.14335262224409484,-0.5794602637582754,-1.0249844480830892,-0.8014368439131582,-0.014136580671921887,0.0066536702188911235,-0.9728418278670131
14384,6.0,299.30781,7813.4885,0.0,0.0,0.0,0.0,0.0,-0.14336258905367866,-0.5499661441499325,-0.9972338380543171,-0.8279054189879032,-0.007924182695430942,-0.016336447964031883,-0.990513325043554
14385,6.0,300.59221,7996.6651,0.0,0.0,0.0,0.0,0.0,-0.14337255586326253,-0.5961535591557754,-1.024897207249479,-0.8097357573996972,-0.01919550841344918,0.0095103726326757,-0.998373075671751
14386,6.0,299.90997000000004,8047.5434,0.0,0.0,0.0,0.0,0.0,-0.14338252267284635,-0.6249492353376874,-0.994241274811474,-0.8270617565571402,-0.008955224048636802,2.255984932998378e-05,-0.9656427669665211
14387,6.0,300.76261,7814.1376,0.0,0.0,0.0,0.0,0.0,-0.14339248948243016,-0.6538947610768884,-0.9626263112863201,-0.7587816491534183,-0.02457397673301268,-0.01261200809445829,-0.969036404996447
14388,6.0,301.07277,7798.8985,0.0,0.0,0.0,0.0,0.0,-0.14340245629201398,-0.5974149339402635,-0.9876577126842271,-0.7855977791449643,-0.015534811094416486,-0.01981810095064428,-0.984674917172348
14389,6.0,300.7929,8106.6586,0.0,0.0,0.0,0.0,0.0,-0.14341242310159774,-0.6243649548000234,-1.008765171347371,-0.8310916649873611,0.003113010916680257,0.00946046864670056,-0.971320888804408
14390,6.0,299.7767,8277.2394,0.0,0.0,0.0,0.0,0.0,-0.14342238991118167,-0.5943402467768154,-1.070968372071349,-0.8507655064815183,0.04444102678273786,0.01848733271980768,-0.9834738003713072
14391,6.0,299.33317999999997,8253.5651,0.0,0.0,0.0,0.0,0.0,-0.14343235672076543,-0.6064655472784894,-1.0557217951666291,-0.8466903868318352,0.004369138281550376,0.0090892810898672,-0.989638413979707
14392,6.0,299.00646,8186.4936,0.0,0.0,0.0,0.0,0.0,-0.1434423235303493,-0.6114931118896714,-1.049523035029859,-0.8274735413977803,0.0036188163486743662,-0.015173416194499587,-0.980013024389755
14393,6.0,300.25586,7997.8187,0.0,0.0,0.0,0.0,0.0,-0.14345229033993306,-0.6315622830428443,-1.019247122041859,-0.7803278147123592,-0.006441013847528573,0.016363132918665483,-0.975833509582269
14394,6.0,300.58197,7804.4068,0.0,0.0,0.0,0.0,0.0,-0.14346225714951688,-0.5881447594378685,-0.9848062749153121,-0.7993937466765203,0.0005788157049721625,0.013928817791917288,-0.9815921037430981
14395,6.0,299.39318,7767.5429,0.0,0.0,0.0,0.0,0.0,-0.14347222395910075,-0.5866130191291974,-0.995641029162119,-0.7788850478949692,-0.03251256024548987,0.004422050708397426,-0.9849214611866801
14396,6.0,300.54182000000003,7787.7614,0.0,0.0,0.0,0.0,0.0,-0.14348219076868457,-0.5689050145515534,-0.985228506364483,-0.8131514640168012,-0.04077589852101786,-0.026589600706439273,-1.005227955778275
14397,6.0,299.93154,7617.8098,0.0,0.0,0.0,0.0,0.0,-0.1434921575782684,-0.5649689330805925,-0.9609365951545582,-0.7897184342541412,-0.016563577093197786,0.0012731399353741288,-0.9851742569541291
14398,6.0,299.887,7806.0471,0.0,0.0,0.0,0.0,0.0,-0.1435021243878522,-0.5992951917533305,-0.986048590465419,-0.7874995989201592,0.01141448833127229,-0.0031122859362337075,-0.9786865178888391
14399,6.0,300.3915,8164.6217,0.0,0.0,0.0,0.0,0.0,-0.14351209119743596,-0.6746603390237914,-1.004919552845338,-0.8022612241945183,0.027072755844372975,-0.0073370462110350825,-0.973106012565586
14400,6.0,299.81288,8095.8399,0.0,0.0,0.0,0.0,0.0,-0.14352205800701984,-0.6130745217182444,-1.032883745862689,-0.8149749088967612,-0.004825643219328906,-0.007066958418704494,-0.9877429472826391
14401,6.0,299.64943,7937.6748,0.0,0.0,0.0,0.0,0.0,-0.14353202481660365,-0.5790299364408055,-1.025381743447299,-0.8084432251746342,0.007737712759652793,0.009076348472215851,-0.9926619522781069
14402,6.0,299.60882999999995,7973.1282,0.0,0.0,0.0,0.0,0.0,-0.14354199162618753,-0.5591374659725715,-1.0169082368360292,-0.8475861201852373,0.0033572359055083867,-0.0054841349035919746,-0.96370248421753
14403,6.0,299.39646,7910.1322,0.0,0.0,0.0,0.0,0.0,-0.1435519584357713,-0.5663993078492594,-1.020928205282769,-0.8171552204619412,-0.002056462714732068,-0.012440875218818788,-0.9855162896578851
14404,6.0,299.92914,7771.3954,0.0,0.0,0.0,0.0,0.0,-0.1435619252453551,-0.5979492105854924,-0.9654231551398471,-0.7989377739990191,-0.024138895246073478,-0.0037889682968920563,-0.9617588273457061
14405,6.0,301.07865,7754.5947,0.0,0.0,0.0,0.0,0.0,-0.14357189205493892,-0.6375618787399584,-0.9413669461681841,-0.7782743316621962,-0.016205460057354383,0.023501794993946577,-0.9695232919344992
14406,6.0,300.40397,7764.9575,0.0,0.0,0.0,0.0,0.0,-0.14358185886452274,-0.6070377701399634,-0.9616244501174441,-0.7916909687538152,-0.016242657481775485,0.014901842876197386,-0.9509519678741521
14407,6.0,300.53961,8120.0016,0.0,0.0,0.0,0.0,0.0,-0.1435918256741066,-0.6452701484782054,-1.003372421267648,-0.8196351500816913,0.0013202654882500588,0.007852613801117644,-0.9585714870361401
14408,6.0,300.68402000000003,8468.0041,0.0,0.0,0.0,0.0,0.0,-0.14360179248369043,-0.6492168285452125,-1.049446028022259,-0.8753989437701492,0.008664230373617961,-0.001958362474500328,-0.9693901711363612
14409,6.0,301.51865,8399.9586,0.0,0.0,0.0,0.0,0.0,-0.1436117592932742,-0.6636818856478024,-1.043132973274209,-0.8465628085117441,-0.0008750928307824381,0.03740346274943437,-0.9511698673081571
14410,6.0,300.06124,7945.7124,0.0,0.0,0.0,0.0,0.0,-0.14362172610285806,-0.5999554559159934,-1.009765593701105,-0.8055771155442712,0.012517463754127489,0.030839107791082968,-0.9597702125669452
14411,6.0,298.91553999999996,7798.9536,0.0,0.0,0.0,0.0,0.0,-0.14363169291244182,-0.6209939021148264,-0.98572942681642,-0.7639638255973593,-0.01920476951936318,0.013592905118765288,-0.969471555384393
14412,6.0,299.71513,7794.7723,0.0,0.0,0.0,0.0,0.0,-0.1436416597220257,-0.5891618700207494,-0.9750934215767281,-0.8051608521381892,-0.006564084116599665,0.008150797093546042,-0.969209123608493
14413,6.0,300.82809,7601.2758,0.0,0.0,0.0,0.0,0.0,-0.1436516265316095,-0.5699400191312005,-0.9880796806883719,-0.7525783496562003,-0.02115327276641548,-0.016362734711376184,-0.986915476588474
14414,6.0,299.95739,7621.2565,0.0,0.0,0.0,0.0,0.0,-0.14366159334119333,-0.5381327103395634,-0.9675145641412531,-0.8110244088768772,-0.007869836418367382,-0.017394947786997683,-0.9831449095213479
14415,6.0,299.3796,7861.1266,0.0,0.0,0.0,0.0,0.0,-0.14367156015077714,-0.5995798643689254,-0.987323623861255,-0.8026827159711163,-0.005855065500199975,-0.016288122013762483,-0.999135678094514
14416,6.0,299.52338,7952.5659,0.0,0.0,0.0,0.0,0.0,-0.14368152696036096,-0.6216898934760154,-1.0033533721657681,-0.7923381822551903,0.022509296255994578,0.003551497329255497,-0.9790849582256621
14417,6.0,300.56765,8068.3659,0.0,0.0,0.0,0.0,0.0,-0.14369149376994483,-0.6276854463052305,-1.027874237368289,-0.7970220625649532,0.017536942629511484,0.016488436492281985,-0.9996183093821461
14418,6.0,301.48726,8225.1124,0.0,0.0,0.0,0.0,0.0,-0.1437014605795286,-0.6480637701964144,-1.036000503170289,-0.8161645557066702,-0.015288352193092885,0.011620327049336989,-0.944762560035805
14419,6.0,301.40733,8088.8903,0.0,0.0,0.0,0.0,0.0,-0.1437114273891124,-0.6355869529700484,-1.021519842016159,-0.8017138158279932,-0.03308755029298697,-0.02175385751143858,-0.9887018162497722
14420,6.0,299.46123,7922.9824,0.0,0.0,0.0,0.0,0.0,-0.14372139419869628,-0.5945748749699714,-0.99895781217196,-0.8148561357200392,-0.02243770507017908,-0.016156679157790087,-0.9541315264229501
14421,6.0,299.62697000000003,8024.3523,0.0,0.0,0.0,0.0,0.0,-0.14373136100828005,-0.6295819971799054,-0.998616397550765,-0.8110043465248973,0.026673911220760075,-0.0025854860634926076,-0.9654330343283221
14422,6.0,299.85945,7940.8959,0.0,0.0,0.0,0.0,0.0,-0.14374132781786392,-0.6141722262140794,-0.9789482707871721,-0.8207135825606242,0.024668463318087776,-0.00017148794887204285,-0.927117782264401
14423,6.0,299.69762000000003,7823.2503,0.0,0.0,0.0,0.0,0.0,-0.14375129462744768,-0.6141454054839324,-0.978560915406443,-0.7853664338821323,0.03664347147217907,-0.002944157651115737,-0.9668556577337241
14424,6.0,299.56846,8001.374,0.0,0.0,0.0,0.0,0.0,-0.1437612614370315,-0.6415908752450894,-0.9948272677418071,-0.7957997688368222,0.02040479606329658,0.004871132474618345,-0.956607261187286
14425,6.0,299.81275,8133.7916,0.0,0.0,0.0,0.0,0.0,-0.14377122824661537,-0.6418081261990304,-1.0177575430698491,-0.8129038560898643,0.0061546619725428445,-0.001052543533577959,-0.9504306304327
14426,6.0,299.99266,8154.1939,0.0,0.0,0.0,0.0,0.0,-0.14378119505619918,-0.6194466692121264,-1.017539288998309,-0.8416854075653822,0.003107968781532637,-0.00858489005368768,-0.9726875909367911
14427,6.0,300.06147000000004,8288.8867,0.0,0.0,0.0,0.0,0.0,-0.143791161865783,-0.6637446058289924,-1.043170666177929,-0.8126992707621733,-0.03194899357962017,-0.02624274493220727,-0.961620772019581
14428,6.0,299.93726000000004,8163.8968,0.0,0.0,0.0,0.0,0.0,-0.14380112867536682,-0.6363295741008393,-1.002706807144457,-0.8425843934516051,-0.03301232153931247,0.004865286122866355,-0.975993957735604
14429,6.0,299.91739,7814.1647,0.0,0.0,0.0,0.0,0.0,-0.14381109548495058,-0.6007843248952964,-0.9925545477675071,-0.7819720865771362,0.0002794179715039068,0.01948965998372968,-0.9581072665028252
14430,6.0,300.7175,7890.7191,0.0,0.0,0.0,0.0,0.0,-0.1438210622945345,-0.5851461268269263,-1.003195811775218,-0.8102396264094253,0.02091819367696498,0.02938964136403177,-0.9577493764350041
14431,6.0,300.55675,8023.1773,0.0,0.0,0.0,0.0,0.0,-0.14383102910411827,-0.5982590928635755,-1.011173139945019,-0.8294133479192242,0.023004491844866578,-0.014858074524877784,-0.9633541997606571
14432,6.0,300.27655,7854.1479,0.0,0.0,0.0,0.0,0.0,-0.14384099591370214,-0.5630828186819475,-1.026715180578899,-0.7976668645310903,0.0013327564301828189,-0.018783514843288582,-0.9847756848947931
14433,6.0,299.88091000000003,7569.621,0.0,0.0,0.0,0.0,0.0,-0.1438509627232859,-0.5678794433303375,-0.95991069969331,-0.7731856174074793,0.019303179408825484,-0.03426582033077317,-0.9846483193572231
14434,6.0,299.63988,7961.6359,0.0,0.0,0.0,0.0,0.0,-0.14386092953286972,-0.6128335911094664,-1.0176834744875392,-0.7896214358220682,-0.0035236059990528365,0.0007454785872655083,-0.9562558457876041
14435,6.0,299.08795,8196.934000000001,0.0,0.0,0.0,0.0,0.0,-0.1438708963424536,-0.6448539762646324,-1.033424010816009,-0.8133852917423783,0.009067915799583612,-0.004337211885474486,-0.982431925955982
14436,6.0,298.26339,8069.44,0.0,0.0,0.0,0.0,0.0,-0.1438808631520374,-0.6532545491337044,-0.9883450914195662,-0.8113086255299272,-0.026299474778806075,0.01927937715072638,-0.9501190053644452
14437,6.0,298.04831,8075.2885,0.0,0.0,0.0,0.0,0.0,-0.14389082996162122,-0.6235727148118354,-1.010053488452018,-0.8210598709148001,0.006950660510651783,0.017603568889836982,-0.959719073834398
14438,6.0,298.93724,7967.8204,0.0,0.0,0.0,0.0,0.0,-0.14390079677120504,-0.6257886522505315,-0.97820553819887,-0.8180242648077092,0.006143832456799055,-0.00026091070511488173,-0.9310611490035812
14439,6.0,299.67601,7993.5239,0.0,0.0,0.0,0.0,0.0,-0.1439107635807888,-0.6077703702272654,-0.9952241578059771,-0.8268371291424712,0.024099175842153476,-0.00959718040319296,-0.9599313801278511
14440,6.0,300.25433,8059.0702,0.0,0.0,0.0,0.0,0.0,-0.14392073039037268,-0.6087706304609835,-1.001396644367654,-0.8395888208559653,-0.0002991742206286967,-0.018066905869064783,-0.986102738550763
14441,6.0,299.54301,7868.3718,0.0,0.0,0.0,0.0,0.0,-0.1439306971999565,-0.6247050116660844,-0.977491865623436,-0.7895916665341303,0.003060180056466257,-0.007489607326916692,-0.9607434088904921
14442,6.0,299.84439,7614.5509999999995,0.0,0.0,0.0,0.0,0.0,-0.1439406640095403,-0.5506906585014364,-0.9838515602735891,-0.7800911397540012,-0.02043209099449038,0.023602113846597276,-0.968120893001093
14443,6.0,300.20315,7925.2764,0.0,0.0,0.0,0.0,0.0,-0.14395063081912413,-0.5877523884691445,-1.024412265751619,-0.7969214772275263,-0.008347625485096492,0.005339200217238035,-0.9810537639649681
14444,6.0,301.03701,8332.4064,0.0,0.0,0.0,0.0,0.0,-0.14396059762870794,-0.6396207218831503,-1.031468742098039,-0.8617540720935052,0.010679810068015189,-0.0027438318241951175,-0.9907925058436071
14445,6.0,300.4444,8058.9941,0.0,0.0,0.0,0.0,0.0,-0.14397056443829176,-0.6208420361898385,-1.0281695997724392,-0.8007213170900412,0.01054376705658879,-0.026835352359193074,-0.980486820136515
14446,6.0,299.32767,7767.6146,0.0,0.0,0.0,0.0,0.0,-0.14398053124787558,-0.5789560603760144,-0.9905918316613022,-0.7916129890261192,0.03193406536589687,0.0048703997934710355,-0.9789988015696591
14447,6.0,299.40141,7890.2131,0.0,0.0,0.0,0.0,0.0,-0.14399049805745945,-0.6242050943317463,-0.9880981218401921,-0.7861245476069523,0.01054903089085829,-0.001057998669466339,-0.971715610513364
14448,6.0,299.61046,8102.5336,0.0,0.0,0.0,0.0,0.0,-0.14400046486704327,-0.6160745627468254,-1.041816964044329,-0.8050763369473483,-0.014829361043543985,0.04089611355263216,-0.964368787350789
14449,6.0,299.50663,8044.6516,0.0,0.0,0.0,0.0,0.0,-0.14401043167662703,-0.6126948670382754,-0.996599158456679,-0.8360791960870922,-0.03530854790268236,-0.0019450215170586783,-0.9830084652628821
14450,6.0,299.68079,7980.218000000001,0.0,0.0,0.0,0.0,0.0,-0.14402039848621084,-0.6027124486430874,-1.007838006975867,-0.8152365503375832,-0.04488193445775206,0.012981556617929886,-0.9421158697145972
14451,6.0,299.71361,7847.9893,0.0,0.0,0.0,0.0,0.0,-0.14403036529579466,-0.5608594439875174,-1.008472848693521,-0.8162605104911402,-2.5978001932829176e-05,-0.02781803878317668,-0.986278628635622
14452,6.0,298.89027000000004,7927.0662,0.0,0.0,0.0,0.0,0.0,-0.14404033210537853,-0.6165299072092644,-0.987503029923961,-0.8055972488237583,0.010958537945273489,-0.02120889310415478,-0.9669402945145771
14453,6.0,299.39925,8107.4849,0.0,0.0,0.0,0.0,0.0,-0.14405029891496235,-0.6526865616576484,-1.025303520539579,-0.7864829139023203,0.02824275472159287,-0.0005609953309584285,-0.9964502613544841
14454,6.0,300.15451,7909.7507,0.0,0.0,0.0,0.0,0.0,-0.14406026572454617,-0.6459066924560274,-0.978398268500391,-0.7800617555011012,0.011177986638681388,0.005064617039513785,-0.9491388885427151
14455,6.0,301.06505,7749.4226,0.0,0.0,0.0,0.0,0.0,-0.14407023253412998,-0.5819694357759114,-1.00634359480088,-0.7673179266083833,0.0037615233033584466,0.016279991694960083,-0.9875135373274981
14456,6.0,300.45973,7983.0325,0.0,0.0,0.0,0.0,0.0,-0.1440801993437138,-0.6245282400536384,-0.9988733273786221,-0.8032409661137112,-0.02747699805126858,-0.008733887062342544,-0.958895443358112
14457,6.0,299.99953,8228.9187,0.0,0.0,0.0,0.0,0.0,-0.14409016615329767,-0.6392063025922503,-1.023931579904179,-0.8382479262036293,-0.012282472817435688,-0.015054783859541485,-0.9506813996999491
14458,6.0,299.43332999999996,8138.1533,0.0,0.0,0.0,0.0,0.0,-0.14410013296288143,-0.6427342671879334,-1.0155346750004688,-0.8155264006611893,-0.03022388056886477,0.0020581178587704184,-0.9523047276851591
14459,6.0,299.17328,8112.2304,0.0,0.0,0.0,0.0,0.0,-0.14411009977246525,-0.6312872768332034,-1.018007207894489,-0.8166210451417223,0.007234600951724523,-0.005379125918878395,-0.9552423423750791
14460,6.0,299.91287,8156.8095,0.0,0.0,0.0,0.0,0.0,-0.14412006658204907,-0.6390448614538174,-1.024833676468209,-0.8155879049422592,0.0035674649349313765,0.014193763441315385,-0.9865548710103851
14461,6.0,298.94912999999997,7915.170999999999,0.0,0.0,0.0,0.0,0.0,-0.14413003339163288,-0.6006225696493324,-1.0002687348863382,-0.8051230376444573,-0.006152391380393755,0.017228582253078682,-0.969164135304053
14462,6.0,298.38322,7813.5143,0.0,0.0,0.0,0.0,0.0,-0.14414000020121676,-0.5819859720175434,-0.9968535551592861,-0.7962737165710972,0.00892281544683832,0.03299050930440977,-0.98023629404929
14463,6.0,298.55579,7899.5131,0.0,0.0,0.0,0.0,0.0,-0.14414996701080057,-0.5842988470933065,-1.004524071198807,-0.8124318233982782,-0.0014578509703036886,0.013331742945240588,-0.95902674030607
14464,6.0,299.26792,7818.4797,0.0,0.0,0.0,0.0,0.0,-0.14415993382038433,-0.5915348713574464,-1.001055189216455,-0.7840325205229852,-0.0062381302733805245,-0.012079326304886688,-0.9824925588419661
14465,6.0,300.06272,7640.8545,0.0,0.0,0.0,0.0,0.0,-0.1441699006299682,-0.5961535895532785,-0.9588693015055321,-0.7676060746718213,0.001961162591151678,-0.03780853075516146,-0.972841807602011
14466,6.0,300.01929,8013.5399,0.0,0.0,0.0,0.0,0.0,-0.14417986743955202,-0.6356965055708604,-1.0063369681452259,-0.7938825679251091,-0.008190553683744712,-0.012300080064423386,-0.9762026973887051
14467,6.0,299.63901,8330.8023,0.0,0.0,0.0,0.0,0.0,-0.14418983424913584,-0.6395881762899385,-1.035229622494209,-0.8575380904149201,0.007341974355546452,-0.014072685120615885,-0.9808738107472081
14468,6.0,300.26198999999997,8195.2059,0.0,0.0,0.0,0.0,0.0,-0.14419980105871966,-0.6237299712273554,-1.017274020122129,-0.8501339476941883,0.0017292664242403084,0.0026407862142003077,-0.973623874559195
14469,6.0,299.56338999999997,8176.5393,0.0,0.0,0.0,0.0,0.0,-0.14420976786830342,-0.5782543745492634,-1.0477697070568188,-0.8594397278050971,0.009539916168491421,0.018938404306574983,-0.9767487176025932
14470,6.0,299.63922,8058.6695,0.0,0.0,0.0,0.0,0.0,-0.1442197346778873,-0.6426636639209654,-0.9746592844388822,-0.8323113546627352,0.03230771957877367,0.025693133759964872,-0.9430684565311102
14471,6.0,300.43942999999996,8009.9715,0.0,0.0,0.0,0.0,0.0,-0.1442297014874711,-0.6267826303336295,-1.009885299067919,-0.7981633874775932,-0.010582764013187489,0.015418855766222588,-0.9833899640580331
14472,6.0,300.40483,7980.928000000001,0.0,0.0,0.0,0.0,0.0,-0.14423966829705492,-0.6561840983528284,-0.988277679890413,-0.7815410499845963,-0.03302623548968567,-0.02836865611276837,-0.9703766613012201
14473,6.0,300.58216,7904.7835,0.0,0.0,0.0,0.0,0.0,-0.14424963510663874,-0.6102687004688314,-1.001936605345944,-0.7906514856087262,-0.048972064394416454,-0.039568134799320864,-0.968833349676407
14474,6.0,299.808,7699.7855,0.0,0.0,0.0,0.0,0.0,-0.14425960191622256,-0.5670690864303615,-1.0056444826293829,-0.7678289694288192,-0.018404792353411584,0.007336759055956743,-0.9833508830016761
14475,6.0,298.02585,8038.6486,0.0,0.0,0.0,0.0,0.0,-0.14426956872580643,-0.5777355398355585,-1.038827876249329,-0.8269850839220733,0.013732266524269185,0.015061732728727285,-0.986277250615486
14476,6.0,299.11533,8485.3365,0.0,0.0,0.0,0.0,0.0,-0.14427953553539025,-0.6595065960932334,-1.079413102379779,-0.8404106781445763,0.017069943764422283,0.012530894384202988,-1.0043167298308442
14477,6.0,300.24907,8280.3633,0.0,0.0,0.0,0.0,0.0,-0.14428950234497406,-0.6533231360329734,-1.031159599492529,-0.8325409672678962,0.014094712164539787,-0.006380614211717594,-0.980702601877811
14478,6.0,300.91674,7874.9755,0.0,0.0,0.0,0.0,0.0,-0.14429946915455782,-0.5907697763394374,-1.017981370016939,-0.7850447979028893,0.022510113948825277,-0.01776723208573928,-1.006729389776455
14479,6.0,299.31645,7865.2688,0.0,0.0,0.0,0.0,0.0,-0.14430943596414164,-0.5975651887975924,-0.988072476480161,-0.8052076541603083,-0.0023450183073602878,0.008080515533484793,-0.979953921511422
14480,6.0,299.98061,8114.2073,0.0,0.0,0.0,0.0,0.0,-0.1443194027737255,-0.5962056199459135,-1.032414712391399,-0.8378960548414021,-0.016960210805092486,-0.024498486560812376,-1.003916414981336
14481,6.0,300.80012999999997,7984.8933,0.0,0.0,0.0,0.0,0.0,-0.14432936958330933,-0.5953197657809864,-1.0206139964267589,-0.8112744587365552,0.0025739930715833375,-0.0017611699208639384,-0.9796339573948442
14482,6.0,300.7033,7794.3308,0.0,0.0,0.0,0.0,0.0,-0.14433933639289315,-0.5765563092366774,-1.009420217272019,-0.7833054021187243,-0.00926707486901408,0.011832623210288988,-0.99389612129741
14483,6.0,300.14537,7807.1397,0.0,0.0,0.0,0.0,0.0,-0.14434930320247696,-0.6006087691829705,-1.017874472131389,-0.7546922832073293,0.01842639281904338,0.018930522234047082,-0.992208127690818
14484,6.0,300.91933,8049.1694,0.0,0.0,0.0,0.0,0.0,-0.14435927001206078,-0.6456577369064574,-1.0175332094977092,-0.7835555330384102,-0.012908054442425789,-0.018095945616930783,-0.9805530866930551
14485,6.0,300.39814,8373.0668,0.0,0.0,0.0,0.0,0.0,-0.1443692368216446,-0.6507058704946693,-1.0588067364210891,-0.8356906146737422,0.001076152058257939,-0.010114776519975721,-0.9756427956484471
14486,6.0,301.34938999999997,8335.9816,0.0,0.0,0.0,0.0,0.0,-0.14437920363122841,-0.6376808950967044,-1.026456295178349,-0.8697930666643922,0.0005165872337906906,0.009387571888131212,-0.9482632580712972
14487,6.0,300.02271,7988.1144,0.0,0.0,0.0,0.0,0.0,-0.1443891704408123,-0.5677907332840825,-1.011168539789565,-0.8492280514422832,0.0014075518167895485,0.04050671444645146,-0.995042674580566
14488,6.0,299.50735,7893.3314,0.0,0.0,0.0,0.0,0.0,-0.14439913725039605,-0.6131015349659104,-0.988329031405481,-0.7979450726110473,0.008914038978447152,-0.010233305199448591,-0.9670093171113892
14489,6.0,299.11442,8126.8454,0.0,0.0,0.0,0.0,0.0,-0.14440910405997986,-0.6186937027978144,-1.012445913793132,-0.8392184475469122,0.0005667232641712314,-0.036081853286251665,-0.9882433104470211
14490,6.0,299.81933,8301.7507,0.0,0.0,0.0,0.0,0.0,-0.14441907086956368,-0.6640635364304684,-1.020426849133289,-0.8390344919912571,0.013539046822949888,-0.01940129038950828,-0.9508456982036642
14491,6.0,299.26742,7995.3,0.0,0.0,0.0,0.0,0.0,-0.1444290376791475,-0.6003952571218985,-1.014483630671739,-0.8154926898303622,0.00924114863605536,-0.022351423784413776,-0.9946612568454231
14492,6.0,300.91811,7883.4004,0.0,0.0,0.0,0.0,0.0,-0.14443900448873137,-0.5932871252853804,-0.9931889943176221,-0.8098807534890072,-0.008441261345387632,-0.026485791207194073,-0.9711921857767062
14493,6.0,300.96108,8050.0496,0.0,0.0,0.0,0.0,0.0,-0.1444489712983152,-0.5895355363926275,-1.025688555577579,-0.8317899969562811,0.008497741425836782,0.0008775903605564251,-0.978924955902371
14494,6.0,301.32822000000004,8266.9476,0.0,0.0,0.0,0.0,0.0,-0.144458938107899,-0.6308749752350123,-1.046057618362849,-0.8360130511205642,0.0038806146406118462,0.014904955580504586,-0.974572519832819
14495,6.0,300.96868,8243.8521,0.0,0.0,0.0,0.0,0.0,-0.14446890491748282,-0.6600685851286974,-1.0277985475858191,-0.8180581073610492,-0.0034806293000363667,0.035390191542739965,-0.9708420572046511
14496,6.0,300.06293999999997,7879.0356,0.0,0.0,0.0,0.0,0.0,-0.14447887172706658,-0.6003630560337204,-0.9984062393475241,-0.7962607976323222,-0.005694799427907945,-0.02023645874468298,-0.9934511119859911
14497,6.0,299.23077,7709.9555,0.0,0.0,0.0,0.0,0.0,-0.1444888385366505,-0.5745868347523054,-0.987116860045849,-0.7819302494805073,-0.015640332986330684,-0.015294666767716087,-0.973323962662096
14498,6.0,300.00662,8079.4587,0.0,0.0,0.0,0.0,0.0,-0.14449880534623427,-0.5837125805854465,-1.009900963914465,-0.8623401663488481,0.03658482252989086,-0.013366328210903888,-0.998297466949289
14499,6.0,299.50181000000003,8062.0036,0.0,0.0,0.0,0.0,0.0,-0.1445087721558181,-0.5964511405776445,-1.015448650066979,-0.8387480056579831,0.014298855715187186,-0.0049150608181287355,-0.9868144859510071
14500,6.0,300.00771000000003,7631.5746,0.0,0.0,0.0,0.0,0.0,-0.1445187389654019,-0.5721431288236304,-0.979891981532809,-0.7677730177582973,0.007565497327606452,-0.018647844707898983,-1.004492042363146
14501,6.0,299.95543,7747.1614,0.0,0.0,0.0,0.0,0.0,-0.14452870577498572,-0.6110557931465115,-0.9846264534200652,-0.7592613825457643,-0.021697666713892977,-0.006731965573993274,-0.9754817902075572
14502,6.0,299.83676,8045.456999999999,0.0,0.0,0.0,0.0,0.0,-0.1445386725845696,-0.6657125097757094,-1.00136975271,-0.7785357603204972,0.008052030033423491,0.00939604144306709,-0.9673077699283442
14503,6.0,299.79186,8303.6286,0.0,0.0,0.0,0.0,0.0,-0.1445486393941534,-0.6518149335241253,-1.038865670478059,-0.8334151386591703,-0.03221261997738807,0.0008023580199765713,-0.9619765038646891
14504,6.0,300.69812,8287.4433,0.0,0.0,0.0,0.0,0.0,-0.14455860620373717,-0.6553977048177174,-1.026661984948649,-0.8371161258419293,0.005205070829950495,-0.01088730848974369,-0.9616447759144502
14505,6.0,299.68295,8157.6736,0.0,0.0,0.0,0.0,0.0,-0.14456857301332104,-0.6104817970973624,-1.0339227325152291,-0.8353245983401191,-0.02488005425697018,-0.003466445926461577,-0.9713896479561941
14506,6.0,298.7338,7937.1476,0.0,0.0,0.0,0.0,0.0,-0.1445785398229048,-0.6306686977796544,-0.9848332476329741,-0.7971927344117973,0.013984613421923885,0.006975651412443193,-0.9673619686761931
14507,6.0,299.51006,8031.7605,0.0,0.0,0.0,0.0,0.0,-0.14458850663248868,-0.6170155782471963,-1.0240993741207391,-0.8003396967048783,-0.004198333394968246,0.03848589351326196,-0.9932299397541631
14508,6.0,300.43053,8032.6915,0.0,0.0,0.0,0.0,0.0,-0.1445984734420725,-0.6319769860437724,-0.985559737822173,-0.8242009056947962,-0.027110098163558374,0.014922773583513085,-0.9681684853582901
14509,6.0,299.56235,7722.1201,0.0,0.0,0.0,0.0,0.0,-0.14460844025165626,-0.5716609433660425,-0.9608698929004751,-0.8148008426620823,-0.026540424639335976,0.025404216639700977,-0.9860103706716471
14510,6.0,299.45002999999997,7661.9531,0.0,0.0,0.0,0.0,0.0,-0.14461840706124013,-0.5687180293780995,-0.9820664162474091,-0.7782579879380832,-0.02362973909732368,-0.004362036107624446,-0.9919464051899881
14511,6.0,300.21535,8052.733,0.0,0.0,0.0,0.0,0.0,-0.14462837387082395,-0.6112573995189085,-1.0104045998766702,-0.8261677761264112,0.01927414472720998,0.004590089726181586,-0.964061458462958
14512,6.0,299.98967999999996,8387.7772,0.0,0.0,0.0,0.0,0.0,-0.14463834068040776,-0.6465060197576764,-1.055368373531749,-0.8478004023163852,0.011182854292161789,-0.03155818605580047,-0.9809060321003881
14513,6.0,300.60596,8161.5652,0.0,0.0,0.0,0.0,0.0,-0.14464830748999158,-0.6504251596869653,-1.024548649215079,-0.8059382378799113,0.011937958664184789,0.015203421569710884,-0.9555539978408372
14514,6.0,299.71069,7958.8766,0.0,0.0,0.0,0.0,0.0,-0.1446582742995754,-0.5941112421217145,-0.996109191238323,-0.8290793198912582,-0.0011440117479301689,0.012170163163101589,-0.9723328622092821
14515,6.0,298.49608,8043.0136,0.0,0.0,0.0,0.0,0.0,-0.14466824110915927,-0.6005642368410754,-1.0344317893654689,-0.8098792741438612,-0.008451590112932002,0.03243485916157137,-0.9597029226278042
14516,6.0,299.26847000000004,8267.6845,0.0,0.0,0.0,0.0,0.0,-0.14467820791874303,-0.6135771241653475,-1.0368556862546892,-0.8627368334979961,-0.005218506627601505,-0.012490100935176988,-0.9976077881362231
14517,6.0,299.15013999999996,8177.2818,0.0,0.0,0.0,0.0,0.0,-0.1446881747283269,-0.6421681846220655,-1.0284050790956791,-0.8151162572857112,-0.00968806579608765,0.004453883581489086,-0.981587321202626
14518,6.0,299.81191,7994.4555,0.0,0.0,0.0,0.0,0.0,-0.14469814153791066,-0.6209033580858905,-1.019120161804329,-0.7900913812184482,-0.005474360485177314,-0.015022060947561986,-0.984599804942435
14519,6.0,300.12425,7781.5304,0.0,0.0,0.0,0.0,0.0,-0.14470810834749448,-0.6114897884293434,-0.9592933568048831,-0.7946077712866813,-0.015075152213051685,-0.009918260716081121,-0.981532018012168
14520,6.0,300.33594,7916.4889,0.0,0.0,0.0,0.0,0.0,-0.14471807515707835,-0.6053396237673694,-0.989501067928652,-0.8115742591761432,-0.008790612551965912,-0.0013666893654317386,-0.967610093360681
14521,6.0,300.72229,8286.0651,0.0,0.0,0.0,0.0,0.0,-0.14472804196666217,-0.6322826025389344,-1.030049887983009,-0.8564243563025032,0.0041163308617252255,0.027128211022345975,-0.9624876480101351
14522,6.0,300.66481,8295.7565,0.0,0.0,0.0,0.0,0.0,-0.14473800877624599,-0.6433256202112954,-1.022052102293689,-0.8563251692502143,0.02076379057372658,0.006688592390212674,-0.9414327668946801
14523,6.0,299.16578,8122.3262,0.0,0.0,0.0,0.0,0.0,-0.1447479755858298,-0.6171392960844064,-1.055753509894759,-0.7960915646006202,0.007945986925657851,0.011710204359707188,-1.0024536060769682
14524,6.0,299.43764,8201.3602,0.0,0.0,0.0,0.0,0.0,-0.14475794239541356,-0.6554542745708004,-1.018683045711189,-0.8188714330838183,0.003252733039219757,-0.038493133185226465,-0.9414466484210502
14525,6.0,299.75777999999997,8184.034000000001,0.0,0.0,0.0,0.0,0.0,-0.14476790920499744,-0.6450106753925974,-1.034168546989489,-0.8085627582889313,0.0007033602934687562,-0.027108742434924574,-0.98048909994924
14526,6.0,299.61901,7990.0536,0.0,0.0,0.0,0.0,0.0,-0.14477787601458125,-0.5884745216829135,-1.0088370310444632,-0.8314652300342292,-0.01168197825167149,-0.02843173295799357,-0.938396694692543
14527,6.0,300.33575,7838.5535,0.0,0.0,0.0,0.0,0.0,-0.14478784282416512,-0.5731406228845755,-0.99665540396973,-0.8129285185972982,-0.0017485344894669185,-0.023883781162395677,-0.9780827322867501
14528,6.0,299.11756,7720.6761,0.0,0.0,0.0,0.0,0.0,-0.1447978096337489,-0.5542444204446655,-0.9967359978826841,-0.7959123206579303,0.007679956693352712,-0.024494235976642874,-0.9935225461180411
14529,6.0,298.77977000000004,7835.5416,0.0,0.0,0.0,0.0,0.0,-0.1448077764433327,-0.6059304904306835,-0.9840296085811611,-0.7918488939144013,0.018064042424282185,0.006927061713172764,-0.9997296757006371
14530,6.0,298.45716,8071.5078,0.0,0.0,0.0,0.0,0.0,-0.14481774325291652,-0.6360666356998894,-0.995306747821628,-0.8221634421287143,0.03576524302750467,0.006054694008401774,-0.9923245703923101
14531,6.0,299.4019,8214.5825,0.0,0.0,0.0,0.0,0.0,-0.14482771006250034,-0.6427829538552384,-1.0268806443202292,-0.8273643535670042,-0.012462586128711489,-0.0039652605407157464,-0.976829473635563
14532,6.0,299.58647,8206.5611,0.0,0.0,0.0,0.0,0.0,-0.1448376768720842,-0.6219117648504124,-1.0272840191850392,-0.8453938927988811,0.004667339711155565,-0.013023634868082687,-0.9690956395972931
14533,6.0,300.42849,8128.0478,0.0,0.0,0.0,0.0,0.0,-0.14484764368166803,-0.6156752206174134,-1.029643068067859,-0.8254052750286582,-0.016272110635682284,0.02149011965615968,-0.943430115889303
14534,6.0,300.4031,8236.8322,0.0,0.0,0.0,0.0,0.0,-0.1448576104912518,-0.6522768134497093,-1.035270557798249,-0.8162439033220013,0.005483215987076285,0.024866061273089178,-0.967138121464101
14535,6.0,300.31487999999996,8225.9022,0.0,0.0,0.0,0.0,0.0,-0.14486757730083566,-0.6622573471997114,-1.0293180174357792,-0.8088934932540722,-0.0096666005993442,-0.025814738970716376,-0.9733792253225501
14536,6.0,299.62868,7852.2211,0.0,0.0,0.0,0.0,0.0,-0.14487754411041942,-0.6365321126633284,-0.9867962981117121,-0.7635507336640902,0.001213511585539269,-0.007576412057683654,-0.9894004116637181
14537,6.0,300.51571,7833.3429,0.0,0.0,0.0,0.0,0.0,-0.14488751092000335,-0.5915652789929474,-0.975414125365879,-0.8141612589339602,0.0003956642544640217,0.011213171748403888,-0.971095805427194
14538,6.0,299.70954,7868.6328,0.0,0.0,0.0,0.0,0.0,-0.1448974777295871,-0.5950205834239594,-0.9608067876842472,-0.8360405101982742,-0.008867221453601621,-0.0022016997549158483,-0.9537228015976121
14539,6.0,299.2974,7984.1304,0.0,0.0,0.0,0.0,0.0,-0.14490744453917093,-0.5913863390252875,-1.001663108878952,-0.8339268198271691,-0.007938393832058473,0.0011218142753394488,-1.0018063621780902
14540,6.0,299.35433,8219.7918,0.0,0.0,0.0,0.0,0.0,-0.14491741134875474,-0.6475053174037994,-1.01040500517671,-0.8407011465507431,-0.0007315089891968162,0.014061279977490288,-0.9712018825801632
14541,6.0,299.73203,8135.706,0.0,0.0,0.0,0.0,0.0,-0.14492737815833856,-0.6529073792519414,-1.022122421850629,-0.7980216540536053,0.0052056170730794046,0.03832361846999666,-1.024788586838759
14542,6.0,299.24996,7988.9236,0.0,0.0,0.0,0.0,0.0,-0.14493734496792243,-0.6435648789574083,-1.001727541452811,-0.7831408806999873,-0.010588906335293689,-0.005198486832125706,-0.965245329747297
14543,6.0,299.97677999999996,8141.340999999999,0.0,0.0,0.0,0.0,0.0,-0.14494731177750625,-0.6139370508658694,-1.033095515133589,-0.8277317985832682,0.015494613436449284,-0.038170105000346066,-0.982271781777677
14544,6.0,298.23665,8098.8775,0.0,0.0,0.0,0.0,0.0,-0.14495727858709,-0.6123186270111435,-1.029981290951239,-0.8195565624039353,-0.011056519229943489,-0.014109938273792488,-0.9475312456690531
14545,6.0,299.54337999999996,7984.4905,0.0,0.0,0.0,0.0,0.0,-0.14496724539667388,-0.5968141272934684,-1.011417738519159,-0.8188538835920862,0.005857682623883265,0.014159473031431186,-0.9789525872325979
14546,6.0,301.31097,7894.8587,0.0,0.0,0.0,0.0,0.0,-0.14497721220625764,-0.6236123835532504,-0.9987307732220532,-0.7774967534029553,-0.008309201825404372,0.016845001228972183,-0.981660498124848
14547,6.0,300.19496000000004,7868.1818,0.0,0.0,0.0,0.0,0.0,-0.14498717901584152,-0.6199332420426474,-1.001883308390684,-0.7699142583996212,0.007610784540825952,0.0025280613299752275,-0.987433227124572
14548,6.0,300.09515,8030.5613,0.0,0.0,0.0,0.0,0.0,-0.14499714582542533,-0.6233419471015604,-0.992285033373408,-0.8254631316093681,-0.008455596807802432,0.002137166463996908,-0.99456557563848
14549,6.0,300.12629,8224.8136,0.0,0.0,0.0,0.0,0.0,-0.14500711263500915,-0.6139073626379394,-1.0350026544718092,-0.8512279132971542,0.027111372832184174,0.014880756128366285,-0.992250967905046
14550,6.0,300.5948,8208.791,0.0,0.0,0.0,0.0,0.0,-0.14501707944459297,-0.6063806977151154,-1.027141556220979,-0.8617452162876311,-0.014301415184939787,-0.017224499868425783,-0.981084840345535
14551,6.0,301.42022000000003,8024.8035,0.0,0.0,0.0,0.0,0.0,-0.14502704625417678,-0.6022147097964644,-1.016000060771399,-0.8211251039562382,0.01084925081598769,-0.027008096302491576,-0.9812222471915961
14552,6.0,300.41035,8089.4783,0.0,0.0,0.0,0.0,0.0,-0.1450370130637606,-0.6417558830238743,-1.031074891784169,-0.7861685733237972,-0.024877821053749773,0.011071648067186591,-0.9780584446818531
14553,6.0,299.09354,8274.0125,0.0,0.0,0.0,0.0,0.0,-0.14504697987334442,-0.6877459067777363,-1.020911790631149,-0.8064355612939933,0.016967527484064587,0.03291041289725487,-0.969338718296283
14554,6.0,299.76749,8144.7072,0.0,0.0,0.0,0.0,0.0,-0.14505694668292823,-0.6357164058028244,-1.0250214317117392,-0.8150497982116522,-0.014289968498560087,0.015185598500451883,-0.945699238825748
14555,6.0,299.73598,7696.8978,0.0,0.0,0.0,0.0,0.0,-0.1450669134925121,-0.5472235395742585,-0.9918967356700861,-0.8005444745500883,-0.016455909137571785,-0.01206377696885209,-0.975905774579401
14556,6.0,300.04006,7844.6478,0.0,0.0,0.0,0.0,0.0,-0.14507688030209587,-0.5713804858708634,-0.9868699309964791,-0.8263266233445882,-0.02444268991755568,-0.007497569851502533,-0.9382389924469792
14557,6.0,299.59254,8177.5865,0.0,0.0,0.0,0.0,0.0,-0.14508684711167968,-0.6373323775923083,-1.035150487661399,-0.8132992364113852,-0.012862071126387589,0.007725544233901853,-1.0170642773514291
14558,6.0,299.44794,8214.3808,0.0,0.0,0.0,0.0,0.0,-0.1450968139212635,-0.6817951294704404,-1.015093708556949,-0.8000778323490343,-0.003705730003827076,-0.0030223909953117673,-0.9912792407941441
14559,6.0,300.77395,8101.8261,0.0,0.0,0.0,0.0,0.0,-0.14510678073084732,-0.6385483081098114,-1.0222942690675891,-0.8019102444923792,-0.004281863098761986,-0.01765911728681918,-1.025639716922759
14560,6.0,301.49037000000004,8030.8881,0.0,0.0,0.0,0.0,0.0,-0.1451167475404312,-0.6113267970182574,-1.025139272698369,-0.8047234016725162,0.004227704070316906,0.019565774317991582,-0.983553796466702
14561,6.0,300.2056,7997.9681,0.0,0.0,0.0,0.0,0.0,-0.145126714350015,-0.5685246607290154,-1.0081183428810339,-0.8545395895264911,0.02236453726720798,0.021280544071726182,-0.9823078940112411
14562,6.0,300.17269,8135.1195,0.0,0.0,0.0,0.0,0.0,-0.14513668115959882,-0.6182805298045374,-1.026322748815169,-0.8282698951813742,0.008989962011090171,0.030745398368834574,-0.9674458961819762
14563,6.0,299.56189,8140.4778,0.0,0.0,0.0,0.0,0.0,-0.14514664796918264,-0.6267153201294864,-1.0171351035334188,-0.8306515800714283,-0.013668800591005588,-0.008090457138165951,-0.9575943694347061
14564,6.0,299.81383,7694.6278,0.0,0.0,0.0,0.0,0.0,-0.1451566147787664,-0.6050028802291354,-0.9779705857656822,-0.7560012503490142,-0.025235973553346676,0.0028700412434010175,-1.004508649532285
14565,6.0,300.81212,7862.293000000001,0.0,0.0,0.0,0.0,0.0,-0.14516658158835027,-0.5930259803371074,-1.030437861446299,-0.7664768682303773,-0.006474480586406484,0.0019654294886477883,-0.9928409429082722
14566,6.0,299.85819,8274.4626,0.0,0.0,0.0,0.0,0.0,-0.1451765483979341,-0.6328774715401434,-1.031250792001529,-0.8511017433947022,-0.0026157501214544372,-0.019825274761352284,-0.9985117085504331
14567,6.0,299.07777999999996,8231.9504,0.0,0.0,0.0,0.0,0.0,-0.1451865152075179,-0.6100806919127764,-1.0307209635242391,-0.8615057244939952,0.016165174246628482,-0.04507424324723146,-0.9752763030872771
14568,6.0,300.20509,8064.8274,0.0,0.0,0.0,0.0,0.0,-0.14519648201710172,-0.5956295872640635,-1.016108073232059,-0.8397685106286993,-0.0004346540676495166,-0.015134606689169385,-0.987951818658253
14569,6.0,300.08936,7934.2018,0.0,0.0,0.0,0.0,0.0,-0.14520644882668554,-0.6159994809144155,-0.9791624515933101,-0.8166372976733263,0.02402492183507518,0.0001212714563010609,-0.9627544570264671
14570,6.0,300.28362000000004,8089.2001,0.0,0.0,0.0,0.0,0.0,-0.1452164156362694,-0.6762804651386853,-1.006548129466066,-0.7760862586012502,0.016383229721148883,0.0036465221527837164,-0.9944779902998361
14571,6.0,300.9143,8361.7762,0.0,0.0,0.0,0.0,0.0,-0.14522638244585317,-0.6746462751124033,-1.013658541115309,-0.8534663651530723,0.02099396147969268,-0.013541012528143886,-0.9683732226734961
14572,6.0,300.52587,8228.3977,0.0,0.0,0.0,0.0,0.0,-0.14523634925543705,-0.6354859420675795,-1.033458056019369,-0.8322834497549813,0.007803412808061882,-4.513513755174126e-05,-0.9686117721445391
14573,6.0,299.42741,8002.8601,0.0,0.0,0.0,0.0,0.0,-0.1452463160650208,-0.5774812241929594,-1.018905555433149,-0.8362828796221942,-0.006609804291586893,0.015042623845091386,-0.955061558292237
14574,6.0,300.32911,7968.5422,0.0,0.0,0.0,0.0,0.0,-0.14525628287460463,-0.6140979347167473,-0.992992028630683,-0.8151478808213323,0.009325890997568781,0.0035718580833899462,-0.9667266709959941
14575,6.0,300.70677,8180.9896,0.0,0.0,0.0,0.0,0.0,-0.1452662496841885,-0.6217841054703134,-1.045547548262509,-0.8194848546943583,-0.006179325898526984,-0.032698819931872264,-0.983096952394115
14576,6.0,300.77034,8129.2734,0.0,0.0,0.0,0.0,0.0,-0.14527621649377226,-0.6671183334944534,-1.005904685255063,-0.7980731170261842,0.0072759115636015625,-0.03176971619967687,-0.9962356955133082
14577,6.0,300.34207999999995,7981.3704,0.0,0.0,0.0,0.0,0.0,-0.14528618330335613,-0.5771869155689134,-1.033280635926859,-0.8156697552853373,0.015327860840992087,-0.021710863283195377,-1.00582237894944
14578,6.0,300.54298,7792.229,0.0,0.0,0.0,0.0,0.0,-0.14529615011293995,-0.5943599240937574,-1.0002581565552942,-0.7740249735253172,0.01960646137575708,-0.003422839897807997,-1.0012982983129481
14579,6.0,299.28909,8026.2747,0.0,0.0,0.0,0.0,0.0,-0.14530611692252376,-0.5917476640109475,-1.003346107162551,-0.8446933316797413,0.017094599179105587,-0.013908302517142588,-0.970754583323518
14580,6.0,300.1112,8195.4372,0.0,0.0,0.0,0.0,0.0,-0.14531608373210758,-0.6238958098712224,-1.023355952522369,-0.8439565468695261,-0.015896358995098486,0.01119166956803179,-0.990677015597209
14581,6.0,299.17147,8098.7827,0.0,0.0,0.0,0.0,0.0,-0.1453260505416914,-0.6288824391783644,-1.019554947422239,-0.8133902971978723,0.010402354832882491,0.027139953577754873,-0.9660879687954591
14582,6.0,299.57788,8002.4415,0.0,0.0,0.0,0.0,0.0,-0.14533601735127527,-0.6418840895590274,-1.001944731611746,-0.7887135839974702,-0.014600477978454984,0.013101117089979589,-0.987555587206648
14583,6.0,299.50718,7980.246,0.0,0.0,0.0,0.0,0.0,-0.14534598416085903,-0.6252876507385864,-0.9975894584419142,-0.8029183979443762,0.027377120975661473,-0.01140939978927009,-0.9871048732971661
14584,6.0,299.08222,8073.9925,0.0,0.0,0.0,0.0,0.0,-0.14535595097044285,-0.6058811755483164,-1.026794923361769,-0.8216159932321853,0.00024004870628846275,-0.02182165610212978,-0.989182876999749
14585,6.0,299.51943,8120.5335,0.0,0.0,0.0,0.0,0.0,-0.14536591778002667,-0.6222908014478205,-1.0306237928396491,-0.8155247895935303,-0.0013111634626017587,0.00894601573305301,-0.970127249789105
14586,6.0,300.79315,8052.0944,0.0,0.0,0.0,0.0,0.0,-0.14537588458961048,-0.6001494831776424,-1.039540191069629,-0.8079460233505642,-0.014982202728378287,0.01869540058809238,-0.980083860704246
14587,6.0,299.74262999999996,7902.5098,0.0,0.0,0.0,0.0,0.0,-0.14538585139919435,-0.6270707277345624,-0.9864403838815861,-0.7886545317816422,-0.005382485045609915,0.01108319810507649,-0.9654568963681771
14588,6.0,300.12282000000005,8217.2171,0.0,0.0,0.0,0.0,0.0,-0.14539581820877817,-0.6427563965701174,-1.025561696665059,-0.8295106604588282,-0.018316599064707582,-0.005638131085590215,-0.970034517139953
14589,6.0,300.27222,8420.357,0.0,0.0,0.0,0.0,0.0,-0.145405785018362,-0.6606988874859033,-1.0262183840548689,-0.8726609900124342,-0.006354583208698535,-0.003906971504863067,-0.979651567681582
14590,6.0,300.42713,8207.4525,0.0,0.0,0.0,0.0,0.0,-0.1454157518279458,-0.6134603470913225,-1.033642467537569,-0.8477578356796843,-4.079107498101566e-05,0.0023578167706983975,-0.9703378842198931
14591,6.0,301.69851,8083.3256,0.0,0.0,0.0,0.0,0.0,-0.14542571863752957,-0.5939629327045775,-1.025469794880989,-0.8376964547042033,0.013489958908605288,0.0049996286979749355,-1.003065436884851
14592,6.0,301.40642,8242.7921,0.0,0.0,0.0,0.0,0.0,-0.14543568544711344,-0.6367387346237203,-1.021922608930909,-0.8469416323266313,-0.0013828843444300587,0.0037273013891810066,-0.965027480975797
14593,6.0,299.46766,8130.7985,0.0,0.0,0.0,0.0,0.0,-0.14544565225669726,-0.6482864217733884,-1.0357454681201188,-0.7875278179354442,-0.00952609533580241,0.029165954245455577,-0.993183583562088
14594,6.0,300.53637000000003,8099.2044,0.0,0.0,0.0,0.0,0.0,-0.14545561906628107,-0.6411318222872844,-1.028230394778439,-0.7925936935329072,-0.0008328091948343683,0.007758573552711592,-0.9715459721816221
14595,6.0,299.78771,8041.0272,0.0,0.0,0.0,0.0,0.0,-0.1454655858758649,-0.5991586968323594,-1.033340620332779,-0.8117721063906691,0.019215160399138682,-0.0049928595793568755,-0.992784423817694
14596,6.0,298.93192999999997,7834.9605,0.0,0.0,0.0,0.0,0.0,-0.1454755526854487,-0.5741201722862495,-1.017288610923569,-0.7902235394289913,0.011870916971318288,-0.029053124793820176,-0.984188567256849
14597,6.0,299.50394,8011.1502,0.0,0.0,0.0,0.0,0.0,-0.14548551949503252,-0.5938021704437114,-1.027446139201039,-0.8139412924697512,0.002985438676089857,-0.01155679221506659,-0.9940090581535561
14598,6.0,300.37852999999996,8262.5531,0.0,0.0,0.0,0.0,0.0,-0.14549548630461634,-0.6494965159703154,-1.036432856987959,-0.8256804028283111,-0.009569211356707632,-0.0020607355904037677,-0.9828595073656811
14599,6.0,299.59084,8085.8581,0.0,0.0,0.0,0.0,0.0,-0.14550545311420016,-0.6622209917861234,-0.9856005819337041,-0.8100773848034133,-0.016131399581045185,0.015509048197373884,-0.968172649816201
14600,6.0,301.03614,7999.544,0.0,0.0,0.0,0.0,0.0,-0.14551541992378403,-0.6131711148502774,-1.002740649697797,-0.8157498527057423,-0.0029686146714294577,0.007054137967839213,-0.9688300160835782
14601,6.0,300.83109,8139.6746,0.0,0.0,0.0,0.0,0.0,-0.1455253867333678,-0.6262379577423745,-1.005443139702012,-0.8425767332808491,-0.016386833851754583,0.0021966745410448977,-0.9517403879094631
14602,6.0,300.50316000000004,8387.1838,0.0,0.0,0.0,0.0,0.0,-0.14553535354295166,-0.6088338977972274,-1.0648046703880387,-0.8758559195652491,0.02285365234222988,0.0021186120308157278,-0.980631795960823
14603,6.0,299.5,8065.9957,0.0,0.0,0.0,0.0,0.0,-0.14554532035253542,-0.6124598132800775,-1.008479951576722,-0.8309215200305691,0.003620598047650207,0.02065417920440878,-0.9742704801105101
14604,6.0,299.42426,7823.0672,0.0,0.0,0.0,0.0,0.0,-0.14555528716211924,-0.6110151820825034,-1.010195596778543,-0.7568062978184663,0.017921096139924483,0.01074041356974629,-1.004058229465332
14605,6.0,298.73356,7893.2843,0.0,0.0,0.0,0.0,0.0,-0.1455652539717031,-0.6350625656457954,-0.9893042947592321,-0.7749944613534983,-0.022761184151353978,0.0066281488806723635,-0.9508775142568041
14606,6.0,300.55178,8029.7349,0.0,0.0,0.0,0.0,0.0,-0.14557522078128693,-0.6199608733728744,-1.0149601621937692,-0.8059178816854022,0.004110005546650966,-0.0046840107150508655,-0.9983567724776421
14607,6.0,299.93573,8092.656999999999,0.0,0.0,0.0,0.0,0.0,-0.14558518759087075,-0.5954499684188365,-1.028653933320239,-0.8358617323506301,-0.016815106298021784,0.0024009835554336277,-0.957272621997952
14608,6.0,299.86937,8121.8194,0.0,0.0,0.0,0.0,0.0,-0.14559515440045456,-0.5955575755794564,-1.019309335597999,-0.8539634352546291,0.02141793875878598,-0.020802650741561783,-0.9731170468591751
14609,6.0,299.43217999999996,8072.8069,0.0,0.0,0.0,0.0,0.0,-0.14560512121003832,-0.5806891030820525,-1.037780884920999,-0.8354616910786492,-0.00938761140488511,0.008673730910530591,-0.9649706275126861
14610,6.0,300.7356,8035.9291,0.0,0.0,0.0,0.0,0.0,-0.14561508801962225,-0.6339873654346814,-1.018418992735129,-0.7903154817430652,0.016207807757836087,-0.007289122419730374,-0.984174260165437
14611,6.0,300.23004,8345.1927,0.0,0.0,0.0,0.0,0.0,-0.145625054829206,-0.6371991149391564,-1.0468578832918292,-0.8526732132397942,0.0009039439013473172,0.01779288656502118,-0.962935646409349
14612,6.0,300.65569,8187.0084,0.0,0.0,0.0,0.0,0.0,-0.14563502163878989,-0.6386912371689174,-1.025946326403019,-0.8240085806933153,0.003450198866408117,0.005352161712517235,-0.9614212630748911
14613,6.0,300.22622,7866.823,0.0,0.0,0.0,0.0,0.0,-0.14564498844837365,-0.5516957519381315,-1.015601346857049,-0.8240206282370042,-0.0018111112957677681,-0.0016173409943441286,-0.972828665748214
14614,6.0,300.31506,7975.7759,0.0,0.0,0.0,0.0,0.0,-0.14565495525795746,-0.5839791666867564,-1.032455647695439,-0.8080019243585812,0.023316873810946274,0.009266003357033332,-0.9875464679557481
14615,6.0,300.14742,8330.3034,0.0,0.0,0.0,0.0,0.0,-0.14566492206754134,-0.6280864197673034,-1.0506800653190491,-0.8534377611027492,0.016796375356673183,-0.005296103042784675,-0.986175398715434
14616,6.0,300.05245,8268.9512,0.0,0.0,0.0,0.0,0.0,-0.1456748888771251,-0.6936343388063794,-1.020361697151859,-0.7995586733952973,0.005942929178646444,-0.016855587666016983,-0.974166226807721
14617,6.0,300.1344,8166.1743,0.0,0.0,0.0,0.0,0.0,-0.14568485568670897,-0.6757525111740803,-0.9925759780071219,-0.8139845886465242,-0.025215624451588373,-0.017866107056997482,-0.9465920945488661
14618,6.0,300.02747999999997,8084.0746,0.0,0.0,0.0,0.0,0.0,-0.1456948224962928,-0.6297677867182414,-1.000390020923308,-0.8271990114156862,0.00915255024996138,0.0014203944578320186,-0.950839922678094
14619,6.0,300.02439,8037.2145,0.0,0.0,0.0,0.0,0.0,-0.14570478930587655,-0.6047362738628235,-0.996588681450645,-0.8417875634404642,0.012390868286633487,0.012085878993283387,-0.9405375705638311
14620,6.0,299.78885,8337.6022,0.0,0.0,0.0,0.0,0.0,-0.14571475611546042,-0.6121058242251414,-1.057338233051159,-0.8649788317292642,0.029351247291242572,-0.0033684754835676474,-0.972312242569747
14621,6.0,300.80484,8338.9526,0.0,0.0,0.0,0.0,0.0,-0.14572472292504424,-0.6659535417094974,-1.0299246502706492,-0.8389552355684352,0.013504359219026487,-0.0014897746306043085,-0.9567186680357811
14622,6.0,300.51835,8038.4921,0.0,0.0,0.0,0.0,0.0,-0.1457346897346281,-0.6538791671578493,-1.023350886271869,-0.7662708846175482,0.009509915454230581,0.0025694117625811976,-1.012777337768341
14623,6.0,299.84114,7852.3972,0.0,0.0,0.0,0.0,0.0,-0.14574465654421187,-0.6236016633671924,-0.994988840602753,-0.7683421907369703,0.0042516399761041955,0.01068923430719529,-1.001868839179256
14624,6.0,300.74727,8079.7825,0.0,0.0,0.0,0.0,0.0,-0.1457546233537957,-0.6236989657742954,-1.004530089904401,-0.8278230822847772,-0.01064702028152909,-0.039710585604379664,-0.9899054155135582
14625,6.0,301.52697,8206.5611,0.0,0.0,0.0,0.0,0.0,-0.1457645901633795,-0.6000538222357015,-1.036859232630039,-0.8576765409085843,0.010544297999641189,0.014752936654751487,-0.9803208801676381
14626,6.0,300.75948999999997,7861.3896,0.0,0.0,0.0,0.0,0.0,-0.14577455697296332,-0.5624592341729044,-1.00717435855787,-0.8200325366384101,0.006667382836469454,-0.003829653936107416,-0.992061165896314
14627,6.0,299.96119,7808.6245,0.0,0.0,0.0,0.0,0.0,-0.1457845237825472,-0.5857141852304895,-1.0157993359265889,-0.7721133657541562,0.015701432980610785,0.012880016798908689,-1.00379060984892
14628,6.0,300.52282,8031.3364,0.0,0.0,0.0,0.0,0.0,-0.145794490592131,-0.6500160903565934,-1.0036352684760892,-0.7876743744299082,-0.017595429451783683,-0.02219187134416718,-0.9665654021100781
14629,6.0,299.84516,8195.5321,0.0,0.0,0.0,0.0,0.0,-0.14580445740171477,-0.6551030111586333,-1.008040616465863,-0.8280934782064632,0.004788515607839695,0.003715091320175966,-0.9817436960905591
14630,6.0,300.62772,8359.6468,0.0,0.0,0.0,0.0,0.0,-0.14581442421129864,-0.6490309883443715,-1.052671608390599,-0.8394212495544273,-0.008406232681480571,0.015812835776105386,-0.9624770899440931
14631,6.0,300.30854,8156.2667,0.0,0.0,0.0,0.0,0.0,-0.1458243910208824,-0.5765669483627274,-1.046328156139549,-0.8564062596557172,-0.0028769961920874173,0.0061624436319858335,-0.9907236554993121
14632,6.0,299.70026,7968.5778,0.0,0.0,0.0,0.0,0.0,-0.14583435783046628,-0.5758191697889274,-1.033869638209989,-0.8125598880784173,0.004894655480989885,0.00036640265548862664,-0.9756789078820111
14633,6.0,299.75593,8178.0907,0.0,0.0,0.0,0.0,0.0,-0.1458443246400501,-0.6606769404887374,-1.014274090551059,-0.8109843145704202,-0.007973392098462533,0.0016415897917622982,-0.978731627783291
14634,6.0,299.06546000000003,8397.8925,0.0,0.0,0.0,0.0,0.0,-0.1458542914496339,-0.7174168182635273,-1.016801034975449,-0.8185317612527953,0.017073195283993182,0.02203888375131848,-0.961810047138261
14635,6.0,298.28191,7882.1719,0.0,0.0,0.0,0.0,0.0,-0.14586425825921773,-0.6335889554953613,-0.979254971459941,-0.7831395128123523,-0.028048918964212775,-0.011770824073439889,-0.9915214278330461
14636,6.0,300.4658,7608.7635,0.0,0.0,0.0,0.0,0.0,-0.14587422506880154,-0.5865437026898564,-0.9453066348095011,-0.7810237858085463,-0.0050100027577987755,0.0006086089360100254,-0.9701728967061101
14637,6.0,300.63892000000004,7992.1374,0.0,0.0,0.0,0.0,0.0,-0.14588419187838542,-0.5885688046047184,-1.0039754671971641,-0.8368659138622352,-0.03071618130220107,0.008296542582630002,-0.9514215687654981
14638,6.0,300.04946,8383.0959,0.0,0.0,0.0,0.0,0.0,-0.14589415868796918,-0.6575373343913823,-1.051429262442989,-0.8392852511260052,0.013206948023174288,0.028821326608193473,-0.989752890976005
14639,6.0,299.90767,8434.2724,0.0,0.0,0.0,0.0,0.0,-0.145904125497553,-0.6731876610634494,-1.0604011867784489,-0.8302193985062752,0.006105643567155104,0.01966259340479688,-0.9875942528304641
14640,6.0,300.04817,8164.329000000001,0.0,0.0,0.0,0.0,0.0,-0.14591409230713687,-0.6420409812045115,-1.048914375694789,-0.7907968464680722,0.012585422438334487,-0.01127178218718829,-0.9969157687154261
14641,6.0,300.01012000000003,7928.5372,0.0,0.0,0.0,0.0,0.0,-0.14592405911672063,-0.6204805186866594,-0.992488169753456,-0.7971086346534972,-0.007903992167313294,0.0026135041512827775,-0.9555366611316262
14642,6.0,300.55445,8243.628,0.0,0.0,0.0,0.0,0.0,-0.1459340259263045,-0.6338367154098133,-1.0355881103795892,-0.8364322833494392,0.018617373237641684,0.0033540274490667364,-0.981516880055674
14643,6.0,299.34711,8405.2485,0.0,0.0,0.0,0.0,0.0,-0.14594399273588826,-0.6063233882894594,-1.073569385078049,-0.8750929422399493,0.010735437498505189,-0.0063823876020426135,-1.004124627744385
14644,6.0,299.96831000000003,7885.3511,0.0,0.0,0.0,0.0,0.0,-0.14595395954547208,-0.6103615952379995,-0.98745590366181,-0.7991323382832212,0.015296770274923684,-0.0028526629909359173,-0.9925105828456681
14645,6.0,300.962,7504.3019,0.0,0.0,0.0,0.0,0.0,-0.14596392635505595,-0.5427822212059344,-0.9937153676120711,-0.7446228063635493,-0.027367199230682274,-0.003084446585761177,-0.991978819060687
14646,6.0,300.8386,7824.2226,0.0,0.0,0.0,0.0,0.0,-0.14597389316463977,-0.6342016070358254,-0.9872393518504381,-0.7569273508079133,0.013898563157181387,0.02055601654797088,-0.9951454688032111
14647,6.0,301.34635,8368.875,0.0,0.0,0.0,0.0,0.0,-0.14598385997422358,-0.6553310937561434,-1.0448805257216789,-0.8437174198459261,-0.014389390624872288,-0.020825188463536082,-0.9965848716302691
14648,6.0,301.16715,8305.4089,0.0,0.0,0.0,0.0,0.0,-0.1459938267838074,-0.6368328452930084,-1.0564891294673588,-0.8313149346468963,0.02132640377125218,-0.02212025786684948,-0.9805145629242531
14649,6.0,300.21574,8054.5372,0.0,0.0,0.0,0.0,0.0,-0.14600379359339116,-0.5682027917022495,-1.029037549808099,-0.8511378758932682,-0.004876479294071035,-0.034947397196039565,-0.976549867270468
14650,6.0,299.5231,8352.8766,0.0,0.0,0.0,0.0,0.0,-0.1460137604029751,-0.6675987052343624,-1.055386105408499,-0.8160811348259371,0.03076639189765647,0.028409329998282575,-0.9521828235656282
14651,6.0,299.26522,8585.9064,0.0,0.0,0.0,0.0,0.0,-0.14602372721255885,-0.6940094946559043,-1.049925193994549,-0.8659664567342352,-0.0003259860139098147,0.01974298365448078,-0.9540841164507711
14652,6.0,299.45568,8422.2068,0.0,0.0,0.0,0.0,0.0,-0.14603369402214267,-0.6866928156838044,-1.031162841892849,-0.8422849071195483,-0.013027810471744786,0.02070160133558898,-0.9361070939715772
14653,6.0,299.62435,8097.9216,0.0,0.0,0.0,0.0,0.0,-0.14604366083172649,-0.6469593579849173,-0.992191885291715,-0.8224147180210132,-0.040229401066332764,0.009935372078469881,-0.9086413896059231
14654,6.0,300.09612000000004,7920.7977,0.0,0.0,0.0,0.0,0.0,-0.1460536276413103,-0.6001523405429244,-0.9689377043042061,-0.8386346837667993,-0.021766686270954683,0.014061854490296986,-0.956678827041849
14655,6.0,300.061,8048.7812,0.0,0.0,0.0,0.0,0.0,-0.14606359445089417,-0.5989082416726413,-1.030125881740509,-0.8175943427902792,0.016871265684814285,-0.0035037958450227264,-0.9989539719540811
14656,6.0,299.76153,8267.8108,0.0,0.0,0.0,0.0,0.0,-0.146073561260478,-0.6450047276145104,-1.032588687433569,-0.8356146513137451,0.008214328584091112,-0.02188333060921658,-0.9969247055813081
14657,6.0,300.08676,8319.8786,0.0,0.0,0.0,0.0,0.0,-0.1460835280700618,-0.6467167048509693,-1.0323638472363792,-0.8499548253415101,0.041867131388464165,0.005211967314106125,-0.979469729818636
14658,6.0,300.79735,8128.2092,0.0,0.0,0.0,0.0,0.0,-0.14609349487964562,-0.6343775579156904,-1.023148134926859,-0.8132469527062252,-0.012332365252359687,0.026040730220019976,-0.9910976055812181
14659,6.0,301.14001,8094.7842,0.0,0.0,0.0,0.0,0.0,-0.14610346168922939,-0.6414097263922114,-1.003458831236176,-0.8157437124101362,0.008883870165994722,-0.01975018178319118,-0.9727185659923481
14660,6.0,300.44772,8242.7552,0.0,0.0,0.0,0.0,0.0,-0.14611342849881326,-0.6305845169613463,-1.0444266910018891,-0.8305805613719192,-0.01216969909455579,-0.02301110330176908,-0.966915875187167
14661,6.0,299.54501,8206.415,0.0,0.0,0.0,0.0,0.0,-0.14612339530839707,-0.6233503469448894,-1.042271913339229,-0.8289229956658302,0.017009556084962484,-0.02097768868308668,-0.977323737034343
14662,6.0,298.34368,8044.1141,0.0,0.0,0.0,0.0,0.0,-0.1461333621179809,-0.6342598891815774,-1.0194966855414889,-0.7914532704128563,0.004669722267440705,-0.01189774074121559,-0.987443349493071
14663,6.0,299.24182,7995.1258,0.0,0.0,0.0,0.0,0.0,-0.1461433289275647,-0.5991331527973385,-1.034798585901669,-0.7963868864747663,0.004475690040866216,-0.014365378624002487,-1.017461674040649
14664,6.0,299.95838,7809.9872,0.0,0.0,0.0,0.0,0.0,-0.14615329573714853,-0.5971940251534614,-0.995631261431155,-0.7812158169674982,-0.0065640420667205145,-0.002369508460952278,-0.9829629905983941
14665,6.0,299.76243999999997,7837.0749,0.0,0.0,0.0,0.0,0.0,-0.14616326254673234,-0.5722750539866505,-1.016709538491419,-0.7932904752291742,0.014440599271676185,0.00038146348338501465,-0.9880434164672931
14666,6.0,300.21786000000003,8173.8109,0.0,0.0,0.0,0.0,0.0,-0.14617322935631616,-0.6042596207507814,-1.047078163863569,-0.8332965782649692,0.01045818390014239,0.014731890436924385,-0.9905635011885061
14667,6.0,300.59737,8301.6348,0.0,0.0,0.0,0.0,0.0,-0.14618319616590003,-0.6454345685719324,-1.0299554530736892,-0.8480996961309232,0.03649467772149426,-0.03067185870307677,-1.0127053159512331
14668,6.0,300.06941,8145.8331,0.0,0.0,0.0,0.0,0.0,-0.14619316297548385,-0.6407496040845624,-1.030014728204539,-0.8053655286583892,0.01049513611803929,-0.014782614750180485,-0.9964179488087951
14669,6.0,300.25906000000003,8239.4664,0.0,0.0,0.0,0.0,0.0,-0.1462031297850676,-0.6468795848045443,-1.0275909326403292,-0.8301214982816133,0.02124447642116658,-0.0032742544713437573,-0.9653524302828671
14670,6.0,300.09502000000003,8453.3638,0.0,0.0,0.0,0.0,0.0,-0.14621309659465143,-0.6980866408057873,-1.0306266299399292,-0.8408983047552013,-0.011772800924384989,0.03091039297536827,-0.9476131973371411
14671,6.0,299.65686,8354.8253,0.0,0.0,0.0,0.0,0.0,-0.14622306340423524,-0.6540643487461254,-1.0250893194684392,-0.8605046333951951,-0.02120397276166918,0.014017175227137487,-0.9514411143599271
14672,6.0,301.31462999999997,8166.3904,0.0,0.0,0.0,0.0,0.0,-0.14623303021381912,-0.6301062325166433,-1.0041994866617732,-0.8480730577857942,0.006727124265015473,-0.004666292922477256,-0.9473198513006902
14673,6.0,300.38752,7987.9634,0.0,0.0,0.0,0.0,0.0,-0.14624299702340293,-0.6185432351579645,-1.016578626578499,-0.7930195524174363,0.014498838860923987,-0.0003900997888898516,-0.9661498885090701
14674,6.0,301.2656,8097.5651,0.0,0.0,0.0,0.0,0.0,-0.14625296383298675,-0.6218083322802044,-1.0397839790436891,-0.7998653234055613,0.018666742835514085,0.016732104902830183,-1.000481568069843
14675,6.0,300.82682,8329.484,0.0,0.0,0.0,0.0,0.0,-0.14626293064257057,-0.6329596866532573,-1.0613284119449589,-0.8376669995237962,0.035078305055959165,-0.024685467681265977,-1.020606701026039
14676,6.0,299.6735,8046.0545,0.0,0.0,0.0,0.0,0.0,-0.14627289745215438,-0.6314774841419755,-1.006469298608286,-0.8078528752688713,-0.008029379840688092,0.01050957797171459,-0.9931660543353581
14677,6.0,299.0122,7733.1423,0.0,0.0,0.0,0.0,0.0,-0.14628286426173825,-0.5425620824892085,-0.9962763471073199,-0.8118437330402383,-0.018657720856623684,0.0029214330858229973,-1.014106093684479
14678,6.0,299.91152,7910.6212,0.0,0.0,0.0,0.0,0.0,-0.14629283107132202,-0.5837834675624425,-1.010871464992746,-0.8099763739009442,-0.0014462829978870184,0.016320577427715584,-1.010665825884951
14679,6.0,299.23452000000003,8125.3054,0.0,0.0,0.0,0.0,0.0,-0.14630279788090583,-0.6573060093935524,-1.004430132782036,-0.8081538105485713,-0.027370411233499276,0.01052633915486879,-1.005504654115583
14680,6.0,300.92932,8152.743,0.0,0.0,0.0,0.0,0.0,-0.14631276469048965,-0.6392268107742743,-1.031512007877309,-0.8074914996207062,0.01959197493907738,-8.483319735838473e-06,-0.9812174241211201
14681,6.0,300.6615,7873.8761,0.0,0.0,0.0,0.0,0.0,-0.14632273150007347,-0.6024175422014824,-1.006117822413598,-0.7849263692312013,-0.02123260923599538,-0.005350940442171704,-0.963780565270236
14682,6.0,300.02134,8076.8484,0.0,0.0,0.0,0.0,0.0,-0.14633269830965734,-0.6265434729125264,-1.021294697843939,-0.8073220538064833,-0.0025396289984168678,0.011870622115539188,-0.9611016130658442
14683,6.0,300.97598999999997,8421.2675,0.0,0.0,0.0,0.0,0.0,-0.1463426651192411,-0.6300993424159634,-1.061833719769829,-0.8679219483672271,0.0027041978372585474,-0.0024134368044626676,-0.992010949221358
14684,6.0,300.85022000000004,8239.1409,0.0,0.0,0.0,0.0,0.0,-0.14635263192882492,-0.6454492606983824,-1.030800604982099,-0.8282432365712432,0.005398470585812564,0.01958935467431878,-0.970173241211144
14685,6.0,299.25936,8045.0347,0.0,0.0,0.0,0.0,0.0,-0.1463625987384088,-0.6135067640784034,-1.019988618465039,-0.8119942918725972,0.015804393376272183,0.017950665817592783,-0.97719299737394
14686,6.0,299.33011,8064.0743,0.0,0.0,0.0,0.0,0.0,-0.1463725655479926,-0.6175385875513134,-1.004182747770121,-0.8295558919432923,3.534924610619897e-05,0.01162798418034269,-0.998959676552144
14687,6.0,298.9481,8129.7926,0.0,0.0,0.0,0.0,0.0,-0.14638253235757642,-0.6577887420061943,-1.009417755074276,-0.8040474523983052,0.018722830281549484,0.0031156291549386565,-0.984386080098842
14688,6.0,298.88853,8279.9788,0.0,0.0,0.0,0.0,0.0,-0.14639249916716024,-0.6855736809483544,-0.9939448586272202,-0.8373882746862882,-0.015064333741733984,-0.0014972266797897685,-0.9521558913779701
14689,6.0,300.40182999999996,8319.5936,0.0,0.0,0.0,0.0,0.0,-0.146402465976744,-0.6502510123922783,-1.0319402073695692,-0.8467575450484632,-0.0035722921597327864,0.005771239826052025,-0.9550031545564731
14690,6.0,299.37939,8256.5134,0.0,0.0,0.0,0.0,0.0,-0.14641243278632787,-0.6522444097115114,-1.045890330771339,-0.8116391679775492,-0.029451832628669575,0.02310643088442718,-0.9591466685879061
14691,6.0,300.00211,8481.737,0.0,0.0,0.0,0.0,0.0,-0.1464223995959117,-0.6632053541257723,-1.068982604525369,-0.8460482902434653,0.012835039640219788,0.00968970665329959,-0.991788013934356
14692,6.0,300.61791,8567.5975,0.0,0.0,0.0,0.0,0.0,-0.1464323664054955,-0.6856106037819983,-1.0708919730138091,-0.8478330694996091,0.006211752029552194,0.01015264137223769,-0.9799342036644761
14693,6.0,300.23094,8026.102,0.0,0.0,0.0,0.0,0.0,-0.14644233321507932,-0.6087625548576864,-1.030536045380989,-0.8004359858618812,0.032547907475228365,-0.006587641168174564,-0.98497425151689
14694,6.0,300.86679,7772.9469,0.0,0.0,0.0,0.0,0.0,-0.14645230002466314,-0.5635642948644655,-1.012678677606104,-0.7865387946453353,-0.003936096163087446,-0.012067781333247289,-1.000083421575549
14695,6.0,300.39636,7912.289000000001,0.0,0.0,0.0,0.0,0.0,-0.146462266834247,-0.5498112688721475,-1.033226325721499,-0.8221007219475241,0.010530028398482891,-0.030978261480316367,-1.017576272626959
14696,6.0,299.16301,7866.1235,0.0,0.0,0.0,0.0,0.0,-0.14647223364383077,-0.6172003646679334,-0.9943159716088461,-0.7795888007519243,0.01125257096529229,-0.007848776521663933,-1.005950200449555
14697,6.0,299.8669,7882.2084,0.0,0.0,0.0,0.0,0.0,-0.14648220045341465,-0.5687790574316225,-1.020761626966329,-0.8064538301932963,0.005837472540038684,0.009748717629848521,-1.007844937606551
14698,6.0,299.79069,8068.2328,0.0,0.0,0.0,0.0,0.0,-0.1464921672629984,-0.6273195312966174,-1.0156683226886591,-0.8095534635742062,0.0026018286730304973,0.007432345220040363,-0.994032474363367
14699,6.0,298.85643,8387.0687,0.0,0.0,0.0,0.0,0.0,-0.14650213407258222,-0.6799042933263294,-1.037426044735979,-0.8321291216322502,0.004597596693522466,0.012231570172161988,-0.9682254401464111
14700,6.0,299.13847000000004,8523.9869,0.0,0.0,0.0,0.0,0.0,-0.1465121008821661,-0.6816323001793704,-1.059206260935519,-0.8502406023997141,-0.012237673990764388,-0.0019748524106027584,-0.9620454454014931
14701,6.0,299.21391,8400.1835,0.0,0.0,0.0,0.0,0.0,-0.1465220676917499,-0.6637526712997883,-1.028908765720389,-0.8607845538678212,0.007937358391781283,0.008569397358333671,-0.932540544812086
14702,6.0,299.91299,8107.6517,0.0,0.0,0.0,0.0,0.0,-0.14653203450133373,-0.6405415737065313,-1.011903622339612,-0.8120784726909053,-0.018375158840986984,0.003202585265270557,-0.9907736289942439
14703,6.0,300.24778,7981.5945,0.0,0.0,0.0,0.0,0.0,-0.14654200131091755,-0.6018257230830745,-0.993705873458634,-0.8306738310436241,0.017338416537418484,0.01946611711765618,-0.9941964486270499
14704,6.0,299.62182,8064.4002,0.0,0.0,0.0,0.0,0.0,-0.14655196812050136,-0.6378891585222585,-1.010443255367985,-0.8030438788367602,-0.003338823124691187,0.014277372786566987,-0.986495798529555
14705,6.0,300.66575,8120.9507,0.0,0.0,0.0,0.0,0.0,-0.14656193493008518,-0.6428020333546214,-1.002724589683712,-0.8230396197551861,0.03146446447455087,0.008730431778176532,-0.951186352887284
14706,6.0,300.98111,8006.2567,0.0,0.0,0.0,0.0,0.0,-0.146571901739669,-0.5919708120804704,-1.004531569249547,-0.8371997493726822,0.010059979042642631,0.0025950305754595775,-0.9856260753062202
14707,6.0,300.47306000000003,7980.3445,0.0,0.0,0.0,0.0,0.0,-0.14658186854925287,-0.5837472033413634,-1.013029201345698,-0.8290490541107712,0.02822302674214587,-0.009024713753744902,-0.982505761490769
14708,6.0,300.41007,8541.2856,0.0,0.0,0.0,0.0,0.0,-0.14659183535883663,-0.6763416046497194,-1.056534016446789,-0.8634619659320613,0.015156663117346186,-0.02629715139632677,-0.968106484584671
14709,6.0,299.76566,8557.4109,0.0,0.0,0.0,0.0,0.0,-0.14660180216842045,-0.6591081253589074,-1.072174241015359,-0.8699569294705642,0.008544490556300561,-0.015269095374942383,-0.974151190176237
14710,6.0,299.03412000000003,8169.1964,0.0,0.0,0.0,0.0,0.0,-0.14661176897800426,-0.6506886655079713,-1.024546926689909,-0.8079961285680092,0.024059946851281874,-0.005271918688072865,-0.980658505233459
14711,6.0,299.31901,8203.6334,0.0,0.0,0.0,0.0,0.0,-0.14662173578758808,-0.6312366953882115,-1.0408326928971892,-0.8216303611186032,0.00907030818439472,-0.005245884138678455,-1.005855806070239
14712,6.0,299.1859,8083.561,0.0,0.0,0.0,0.0,0.0,-0.14663170259717195,-0.6389044249899574,-1.016821705277489,-0.8014745672143812,0.013608079552262887,-0.023130395262542278,-0.992070842434769
14713,6.0,299.47274,8061.5001,0.0,0.0,0.0,0.0,0.0,-0.14664166940675577,-0.6210881141091245,-1.0221563657289792,-0.8072502954344012,0.004355766521305686,-0.017936753893719785,-0.9919879383115869
14714,6.0,299.42651,8117.645,0.0,0.0,0.0,0.0,0.0,-0.14665163621633953,-0.6261788649965424,-1.016768306997219,-0.8246141698805822,0.035002496723227465,-0.005769788243958765,-0.996053107845288
14715,6.0,300.39049,8016.7272,0.0,0.0,0.0,0.0,0.0,-0.1466616030259234,-0.5912591254752324,-1.0296563416441689,-0.8159694037374102,0.012704104422547487,0.017628387437786382,-1.025457027929729
14716,6.0,299.92736,7885.4765,0.0,0.0,0.0,0.0,0.0,-0.14667156983550717,-0.5975890305724454,-1.0068673944400752,-0.7925315205067712,0.027293195496378677,-0.01177431573328449,-0.994198009032204
14717,6.0,300.42439,8126.6987,0.0,0.0,0.0,0.0,0.0,-0.1466815366450911,-0.6104158041183494,-1.039873145052489,-0.8200245218301192,-0.008009256085752032,0.024366029441489877,-0.9776825390272541
14718,6.0,300.78256,8473.4385,0.0,0.0,0.0,0.0,0.0,-0.14669150345467485,-0.6400403391470634,-1.0589383576090792,-0.876735015352009,0.006624614056373504,0.02397733353087858,-0.9778284673066561
14719,6.0,300.13336,8300.2915,0.0,0.0,0.0,0.0,0.0,-0.14670147026425867,-0.6349032827300753,-1.036066161776769,-0.8521119436119011,-0.017745342843828983,0.009870490938791611,-0.9737858223226782
14720,6.0,299.97278,8087.6214,0.0,0.0,0.0,0.0,0.0,-0.1467114370738425,-0.6142847577701854,-1.039821773272419,-0.8043283861210312,-0.005945210815221625,-0.02685243575587908,-0.987442174122955
14721,6.0,300.96374,8142.7647,0.0,0.0,0.0,0.0,0.0,-0.1467214038834263,-0.6634928131791424,-0.990400357789905,-0.8213039729963911,-0.004402095152977965,-0.014456221561717985,-0.953481637941311
14722,6.0,300.50725,8314.1076,0.0,0.0,0.0,0.0,0.0,-0.14673137069301018,-0.6964980571665064,-1.022422749180269,-0.8083603311839532,0.006963488459567804,0.03381565053659487,-0.9850220667891091
14723,6.0,301.10109,8390.6375,0.0,0.0,0.0,0.0,0.0,-0.146741337502594,-0.6691998025123783,-1.037871165504909,-0.8434732772343312,0.0013550834974613286,0.033043825511421675,-1.006071081186485
14724,6.0,301.45009,8203.5341,0.0,0.0,0.0,0.0,0.0,-0.14675130431217775,-0.6345330208785334,-1.013114446076611,-0.8460220571983762,0.012054770188713187,-0.004677126389896436,-0.9905915276862721
14725,6.0,301.20468,7880.8594,0.0,0.0,0.0,0.0,0.0,-0.14676127112176163,-0.5814326766679375,-1.008249741154002,-0.8059020344538382,-0.003992708573999655,-0.003995330257308397,-0.9863457767197491
14726,6.0,301.12908999999996,8096.1241,0.0,0.0,0.0,0.0,0.0,-0.1467712379313454,-0.6168218853580805,-1.0160064442470291,-0.8281912264436102,0.013651279470276384,0.023476625861462576,-0.9801279776136
14727,6.0,300.5848,8504.8575,0.0,0.0,0.0,0.0,0.0,-0.14678120474092926,-0.6639670344909444,-1.060790680116889,-0.8605065991003893,0.0022995082804437975,0.006748651877965083,-0.9840415953298441
14728,6.0,299.62387,8347.4946,0.0,0.0,0.0,0.0,0.0,-0.14679117155051308,-0.6712778974074703,-1.042343550121299,-0.8238084637985652,-0.012691636380066987,-0.013646695526823988,-0.9403822899860061
14729,6.0,299.79603,8030.3063,0.0,0.0,0.0,0.0,0.0,-0.14680113836009684,-0.5811042316480225,-1.021563817070499,-0.8383445294681632,0.015330078845460985,-0.013770693021061587,-0.9571279501486741
14730,6.0,299.99857000000003,8050.2355,0.0,0.0,0.0,0.0,0.0,-0.1468111051696807,-0.6066566057173454,-1.006106514542482,-0.8343074573597351,0.0008737257740125201,0.00820829174132032,-0.962020671436548
14731,6.0,300.02729,8396.3007,0.0,0.0,0.0,0.0,0.0,-0.14682107197926453,-0.6389881194482173,-1.049309239258759,-0.8639684491270472,-0.005824005838259624,0.02236912931666118,-0.9746966429700691
14732,6.0,299.6128,8293.2206,0.0,0.0,0.0,0.0,0.0,-0.14683103878884834,-0.6694427798863584,-1.016658470686379,-0.8348307098438761,-0.009637055239678302,-0.04414824411334246,-0.973039168456489
14733,6.0,300.23365,8075.3834,0.0,0.0,0.0,0.0,0.0,-0.14684100559843216,-0.6600424838061213,-1.0135890321584489,-0.7810833953119293,-0.010660975775156388,0.0034368745262681067,-0.9779269754813781
14734,6.0,300.30765,8003.0599,0.0,0.0,0.0,0.0,0.0,-0.14685097240801598,-0.6399863633142364,-0.9981786025800581,-0.7945654073000002,-0.0036826292187722063,0.01149063914253779,-0.99819149112133
14735,6.0,301.54106,8157.3076,0.0,0.0,0.0,0.0,0.0,-0.14686093921759985,-0.6120656893886803,-1.030695733596749,-0.8368563386487902,0.00960359924125145,0.03370179364935807,-1.0043611912452322
14736,6.0,301.17932,8418.0837,0.0,0.0,0.0,0.0,0.0,-0.1468709060271836,-0.6468934460659124,-1.068649447892489,-0.8433443918216113,-0.018460413704400984,-0.020527981944204084,-0.9856942569054491
14737,6.0,300.64157,8391.2397,0.0,0.0,0.0,0.0,0.0,-0.14688087283676748,-0.6484483087418654,-1.0377031686383291,-0.8645758216344902,0.002414614910353938,-0.0055645612249794335,-0.9533057985189571
14738,6.0,300.20747,8126.4901,0.0,0.0,0.0,0.0,0.0,-0.14689083964635125,-0.6173708338647574,-1.038290853696329,-0.8145884249111182,0.017855484142949084,0.01147649113139149,-0.9764565368037571
14739,6.0,299.46684,8084.9698,0.0,0.0,0.0,0.0,0.0,-0.14690080645593506,-0.6612589006836723,-0.9890407990707271,-0.8073292377496922,0.003267019257679697,0.018885052635809585,-0.9328622314538341
14740,6.0,298.60554,8369.987,0.0,0.0,0.0,0.0,0.0,-0.14691077326551893,-0.6711828545480903,-1.0307155932987089,-0.8423686218428103,-0.01840671347560118,-0.02866837447909827,-0.9498468058575811
14741,6.0,299.24066,8373.2704,0.0,0.0,0.0,0.0,0.0,-0.14692074007510275,-0.6336705221284114,-1.0575573990477891,-0.8540371795969072,-0.012330927450467788,0.0006500998658748614,-0.950647121449066
14742,6.0,300.30306,8099.9268,0.0,0.0,0.0,0.0,0.0,-0.14693070688468657,-0.5985848021082205,-1.014529733551289,-0.8490608955732862,0.01109572694256299,0.02927977972193927,-0.9905459516967741
14743,6.0,300.03662,8018.8281,0.0,0.0,0.0,0.0,0.0,-0.14694067369427039,-0.5888182769118394,-1.037720697865059,-0.8109844969554382,-0.0012451130323080889,0.02190195313280448,-0.9980332011907082
14744,6.0,299.9713,8063.4272,0.0,0.0,0.0,0.0,0.0,-0.14695064050385415,-0.6514559187486934,-1.016488345994589,-0.7831362096170262,0.002044197626246598,-0.016499070552081482,-0.9942177268791501
14745,6.0,299.76495,8283.5523,0.0,0.0,0.0,0.0,0.0,-0.14696060731343802,-0.6802022699157374,-1.030903145892219,-0.8068876734886132,-0.01017387402808319,-0.025726938823051177,-0.9991890257122792
14746,6.0,300.87314,8224.9482,0.0,0.0,0.0,0.0,0.0,-0.14697057412302184,-0.6414424138404374,-1.0387436751660188,-0.8199927969694882,0.03032228539207657,0.006561259884595934,-0.9971387647974341
14747,6.0,300.964,8173.4382,0.0,0.0,0.0,0.0,0.0,-0.1469805409326057,-0.5945838827633605,-1.052528537476479,-0.8374086815433022,0.015113431788579585,0.019276875436229482,-0.9985244755016931
14748,6.0,301.04802,8133.6684,0.0,0.0,0.0,0.0,0.0,-0.14699050774218947,-0.6012673817479705,-1.031170238618579,-0.8399944856660013,0.04873251180577445,-0.016660916990554483,-0.9518051345908531
14749,6.0,300.12981,8316.6219,0.0,0.0,0.0,0.0,0.0,-0.14700047455177329,-0.6155984567898374,-1.0638749120962792,-0.8485720631950422,-0.005525267082126405,-0.002780889521427427,-0.982877938385
14750,6.0,299.09772000000004,8418.7382,0.0,0.0,0.0,0.0,0.0,-0.1470104413613571,-0.6880382294315863,-1.030122841990209,-0.8409251660153522,0.039050712556255265,0.02476169651278918,-0.9555387788243351
14751,6.0,299.61978,8068.7451,0.0,0.0,0.0,0.0,0.0,-0.14702040817094092,-0.6439429630997224,-1.016680660863569,-0.7920734200040602,-0.02392584624029718,0.025602756917295376,-0.9938516497505211
14752,6.0,299.12662,7939.1166,0.0,0.0,0.0,0.0,0.0,-0.1470303749805248,-0.6078072221334024,-0.999954576692833,-0.8055314078322602,-0.002183468244541538,-0.01064662714049029,-0.9687537994110561
14753,6.0,299.88959,8082.2047,0.0,0.0,0.0,0.0,0.0,-0.1470403417901086,-0.6201062950272265,-1.0098998493393552,-0.8267822819145582,-0.04502487162285886,-0.013958009527298287,-0.9934163980375651
14754,6.0,299.22839,8228.2622,0.0,0.0,0.0,0.0,0.0,-0.14705030859969237,-0.5929808603101545,-1.055468786616659,-0.8527366122985511,0.02040072077139438,0.029235612150080272,-1.013556304180219
14755,6.0,299.27296,8085.355,0.0,0.0,0.0,0.0,0.0,-0.14706027540927624,-0.6225520983836084,-1.012695821797796,-0.8224981085042432,-0.013654081106802888,0.01131985685143289,-1.0223145340695892
14756,6.0,299.1729,8063.6879,0.0,0.0,0.0,0.0,0.0,-0.14707024221886,-0.6497884941191314,-0.997123160745894,-0.8042481265806102,0.03052819909064867,-0.013970866657817186,-0.987613737629887
14757,6.0,300.14282000000003,8072.4659,0.0,0.0,0.0,0.0,0.0,-0.14708020902844388,-0.6507168541257533,-1.004826921521196,-0.7982842986120262,0.02238216781894798,-0.035353562551624966,-0.9777599412023931
14758,6.0,300.69217000000003,8378.2497,0.0,0.0,0.0,0.0,0.0,-0.1470901758380277,-0.6425321845879894,-1.042403534527219,-0.8618430151872831,0.04102790192688866,0.004682105500887835,-0.9841023498058401
14759,6.0,300.87372999999997,8675.5919,0.0,0.0,0.0,0.0,0.0,-0.1471001426476115,-0.6786755249300593,-1.0916283389603292,-0.8668594441798662,0.026656754870066874,-0.0007047087368343373,-0.966606023306587
14760,6.0,299.45891,8373.4114,0.0,0.0,0.0,0.0,0.0,-0.14711010945719533,-0.6342736693829374,-1.0450764882910188,-0.8659578035783811,0.016838348228815588,0.0032110812660340465,-0.9661006648192121
14761,6.0,300.57513,8076.3278,0.0,0.0,0.0,0.0,0.0,-0.14712007626677914,-0.6106504019140024,-1.0375811733262892,-0.8067704607170453,-0.005104917238391105,-0.015390204093144885,-0.9743067139340861
14762,6.0,300.84545,8165.7823,0.0,0.0,0.0,0.0,0.0,-0.14713004307636302,-0.6683386108548853,-1.032740168323519,-0.7811151404375622,-0.015713365013788384,0.02222864016379598,-0.9850736513517
14763,6.0,299.22786,8230.3928,0.0,0.0,0.0,0.0,0.0,-0.14714000988594683,-0.6403392985890684,-1.032058656306259,-0.8294359535289552,0.014251267410990589,0.0012763111042120988,-1.020461299636689
14764,6.0,300.00121,8050.036,0.0,0.0,0.0,0.0,0.0,-0.1471499766955306,-0.6261574144919254,-1.025814097264969,-0.7950384431091853,-0.0024699772746177777,-0.013611753597125487,-0.9997154091392291
14765,6.0,300.9734,7967.9454,0.0,0.0,0.0,0.0,0.0,-0.14715994350511447,-0.5875236269940675,-1.015864386583009,-0.8186683980287802,0.023802676571391273,-0.023057600335607976,-1.012618328430148
14766,6.0,300.02422,8032.5736,0.0,0.0,0.0,0.0,0.0,-0.14716991031469823,-0.5806888295045254,-1.0234217124538592,-0.8375912185488171,0.016229407210217785,0.0023660504410109974,-0.9914706133405311
14767,6.0,299.71373,8369.3862,0.0,0.0,0.0,0.0,0.0,-0.1471798771242821,-0.6401614225340133,-1.0442159349810891,-0.8597071042414852,0.018246193381509086,0.012026452888168488,-0.998807121617088
14768,6.0,299.12484,8480.7757,0.0,0.0,0.0,0.0,0.0,-0.14718984393386592,-0.6984658496557123,-1.0266136529188792,-0.8528645756536801,-0.021909516031550877,0.0033565815485938066,-0.9285172934350221
14769,6.0,299.47547000000003,8311.0876,0.0,0.0,0.0,0.0,0.0,-0.14719981074344968,-0.6410889516755534,-1.043749535960059,-0.8415246047745123,-0.006121206987366094,-8.168016468395461e-05,-0.9694775639574861
14770,6.0,300.81186,8180.6065,0.0,0.0,0.0,0.0,0.0,-0.14720977755303355,-0.6237645635857694,-1.0294598724497792,-0.8334756702201441,-0.03384937453967317,0.00869397797800382,-0.966626349103593
14771,6.0,300.50772,8329.0095,0.0,0.0,0.0,0.0,0.0,-0.14721974436261737,-0.6243445580755104,-1.0581871339849391,-0.8492791699098283,-0.010519055913149989,0.001077658558506619,-0.9850758197069142
14772,6.0,300.53199,8398.0809,0.0,0.0,0.0,0.0,0.0,-0.14722971117220118,-0.6250652423416364,-1.0864728211265189,-0.8412688300517691,-0.02338754192592068,-0.0057461047387713845,-0.9875746261760271
14773,6.0,300.05156,8128.9056,0.0,0.0,0.0,0.0,0.0,-0.147239677981785,-0.6550016253536274,-1.010692788470112,-0.8052899199359272,0.013844922710137486,0.00995505213118715,-0.9794794266220931
14774,6.0,300.84257,7893.2066,0.0,0.0,0.0,0.0,0.0,-0.14724964479136882,-0.6135161467743295,-0.999514045946856,-0.7863075304425112,-0.01211938109458979,0.006880834507835494,-1.003226178880715
14775,6.0,300.50652,8104.7824,0.0,0.0,0.0,0.0,0.0,-0.14725961160095263,-0.6402639431791314,-1.016158634412049,-0.8072288449297842,0.022519912077292276,-0.014624344071310386,-0.9905655580862089
14776,6.0,299.65263999999996,8382.4687,0.0,0.0,0.0,0.0,0.0,-0.14726957841053645,-0.6592732445952034,-1.032855577509909,-0.8559323017889412,-0.003585094980046327,0.004442116708077785,-0.9691433130144981
14777,6.0,298.67267999999996,8347.0529,0.0,0.0,0.0,0.0,0.0,-0.14727954522012027,-0.6259566693821135,-1.055141506834359,-0.8561974896051131,0.005404095846392735,0.0024053900787935176,-0.990871904121443
14778,6.0,300.21168,8392.5099,0.0,0.0,0.0,0.0,0.0,-0.14728951202970408,-0.6221756658389574,-1.039843862124599,-0.8890938801342342,-0.004727115387554965,0.012876289051790788,-0.981286679765455
14779,6.0,299.88074,8243.3741,0.0,0.0,0.0,0.0,0.0,-0.1472994788392879,-0.6623090736173164,-1.016533334299029,-0.8269375219623792,0.001031528321203919,0.0013915852243637685,-0.9912387715851501
14780,6.0,300.343,8199.4758,0.0,0.0,0.0,0.0,0.0,-0.14730944564887177,-0.6554283556332424,-1.0446922638530989,-0.7923153030679323,-0.0025011547775447575,0.007092243264349914,-0.9517319779336331
14781,6.0,301.02457999999996,8507.6906,0.0,0.0,0.0,0.0,0.0,-0.1473194124584556,-0.6690360308987154,-1.064658965023659,-0.8524305195758423,-0.0007358693590146513,-0.014580413599974786,-0.9734976945242422
14782,6.0,300.98427000000004,8248.3643,0.0,0.0,0.0,0.0,0.0,-0.1473293792680394,-0.6330177357514863,-1.061717905283399,-0.8125611343760402,-0.001061316252943759,0.005584694099166395,-0.9699833176124002
14783,6.0,299.85347,7849.7329,0.0,0.0,0.0,0.0,0.0,-0.14733934607762322,-0.5299625809407346,-1.048148155969169,-0.8080120061970762,-0.02939852452765847,-0.011484372190669289,-1.032456660945539
14784,6.0,300.5716,8034.3001,0.0,0.0,0.0,0.0,0.0,-0.14734931288720698,-0.6068428816157294,-1.0231922113062089,-0.8121915311370632,-0.007367559528521513,0.01167392392662659,-0.9901934318544829
14785,6.0,300.36159,8265.525,0.0,0.0,0.0,0.0,0.0,-0.14735927969679086,-0.6511179289128364,-1.055167142061889,-0.8062281084685192,-0.03152760819428267,0.008445623792368172,-1.021987456937309
14786,6.0,299.22873,8229.2179,0.0,0.0,0.0,0.0,0.0,-0.14736924650637467,-0.6529348991246574,-1.019947987136029,-0.8285938616358471,0.022653397645466276,0.03665322704414187,-0.983730882186679
14787,6.0,299.18113,8124.6231,0.0,0.0,0.0,0.0,0.0,-0.1473792133159585,-0.6421554176708054,-1.005937980653349,-0.8215891522370362,0.0029759057151740277,0.006501369508285214,-0.9915738331282181
14788,6.0,299.68519,8256.6871,0.0,0.0,0.0,0.0,0.0,-0.1473891801255423,-0.6471524226589714,-1.017766358345719,-0.8449078975209172,0.04062576626695096,0.01177573225692429,-0.952488956818341
14789,6.0,299.87016,8483.8663,0.0,0.0,0.0,0.0,0.0,-0.14739914693512612,-0.6406224411970124,-1.057187157461249,-0.8810739549302292,0.008397684194361902,-0.028501529677881974,-0.9899359548715722
14790,6.0,299.83101,8531.176,0.0,0.0,0.0,0.0,0.0,-0.14740911374470994,-0.6634528708602003,-1.071243469473499,-0.8585681300690773,0.00865191664912769,0.004530689154969206,-1.003892330026459
14791,6.0,299.34657999999996,8284.2329,0.0,0.0,0.0,0.0,0.0,-0.14741908055429376,-0.6787373737161634,-1.033071805081249,-0.8063907249770682,-0.011542699932675789,-0.02320018995593048,-0.9828432345690751
14792,6.0,299.33425,8069.1224,0.0,0.0,0.0,0.0,0.0,-0.14742904736387763,-0.6281544595115184,-1.037608733729009,-0.7870485607706452,0.0028498122117795676,0.003273133614083137,-0.967547444106998
14793,6.0,299.59351000000004,7996.6952,0.0,0.0,0.0,0.0,0.0,-0.1474390141734614,-0.6239104614676684,-1.026206731678719,-0.7806784499094642,-0.008494652431581923,0.01066791451184119,-0.969769481311296
14794,6.0,299.76091,8150.3553,0.0,0.0,0.0,0.0,0.0,-0.1474489809830452,-0.5956203869531554,-1.029863145989579,-0.8520210044154262,-0.004739147428517435,0.010379949846671292,-1.0018009615550572
14795,6.0,300.40187000000003,8234.3793,0.0,0.0,0.0,0.0,0.0,-0.14745894779262908,-0.6085143693781925,-1.045074765765849,-0.8494565292073322,-0.006764193310648903,-0.01250153343605529,-0.9967954148685481
14796,6.0,301.16255,8091.2487,0.0,0.0,0.0,0.0,0.0,-0.14746891460221284,-0.6246145993596613,-1.021698579333799,-0.8132243876264983,-0.009469998973166131,-0.00830461393027658,-1.019660426757649
14797,6.0,301.00315,8219.8137,0.0,0.0,0.0,0.0,0.0,-0.14747888141179671,-0.6454644999798864,-1.0220134974648791,-0.8311401490046463,0.022309510694027274,-0.01169381605258979,-0.9935774136109561
14798,6.0,300.35837999999995,8308.183,0.0,0.0,0.0,0.0,0.0,-0.14748884822138053,-0.6386424998391074,-1.049874734139569,-0.8369629528243122,-0.009405352704861042,0.006111699864327813,-1.009934157987741
14799,6.0,300.13802999999996,8283.6926,0.0,0.0,0.0,0.0,0.0,-0.14749881503096435,-0.6463469192269744,-1.036026239722829,-0.8356625273809702,0.02253993896551878,-0.001808455364605648,-0.979981745359168
14800,6.0,299.88892000000004,8241.415,0.0,0.0,0.0,0.0,0.0,-0.14750878184054816,-0.6095507519779754,-1.058504686566279,-0.8371289535881953,0.004048076105839006,0.0003157288223525087,-0.9845764900576339
14801,6.0,299.58797999999996,8242.3643,0.0,0.0,0.0,0.0,0.0,-0.14751874865013198,-0.5923545602908434,-1.0709309831426592,-0.8421873817974231,0.03270055866904387,-0.005321182401309814,-0.9840701588501631
14802,6.0,299.43182,8060.0961,0.0,0.0,0.0,0.0,0.0,-0.14752871545971585,-0.6267804113159103,-1.012529527191384,-0.8107580051605853,-0.035294378613283967,-0.006840507964455573,-0.984974281914393
14803,6.0,299.73453,8120.0205,0.0,0.0,0.0,0.0,0.0,-0.14753868226929961,-0.6087671955431445,-1.031613434212319,-0.8279028453326492,0.014757884354989785,-0.0015618798381955385,-0.9879253323006391
14804,6.0,298.92242999999996,8215.7473,0.0,0.0,0.0,0.0,0.0,-0.14754864907888343,-0.6526656076455803,-1.0091246420853481,-0.8355917822589882,-0.014568546414803586,-0.005794603650832854,-0.951896357497356
14805,6.0,300.26153999999997,8225.8845,0.0,0.0,0.0,0.0,0.0,-0.14755861588846725,-0.6503761994421333,-1.013639086713389,-0.8364482319060131,0.02162416859138928,0.014383620165552788,-0.959849063689727
14806,6.0,299.59762,8137.2687,0.0,0.0,0.0,0.0,0.0,-0.14756858269805107,-0.5872081718404344,-1.045561936413929,-0.8407564092111972,-0.027770056324691175,0.005224542862422235,-0.9914925603376971
14807,6.0,299.72952999999995,8333.1875,0.0,0.0,0.0,0.0,0.0,-0.14757854950763494,-0.6554448412123693,-1.036164345711459,-0.8414717232517933,0.016213685621666182,-0.02214614235390408,-0.973740519910707
14808,6.0,301.09397,8498.7871,0.0,0.0,0.0,0.0,0.0,-0.14758851631721875,-0.6911016796514253,-1.055110704031319,-0.8372066293408612,-0.02619983480372237,-0.01064855535543059,-0.9882645380366161
14809,6.0,300.07429,8368.0711,0.0,0.0,0.0,0.0,0.0,-0.14759848312680257,-0.6908962533261513,-1.045003331633799,-0.8077850685721794,0.026112988124401274,-0.012736911434285288,-0.981215742125954
14810,6.0,300.75574,8269.5849,0.0,0.0,0.0,0.0,0.0,-0.1476084499363864,-0.6579405370036754,-1.022566428044449,-0.8332403226194173,0.002758975353564667,-0.015091040987869786,-0.9894340211695352
14811,6.0,301.00642999999997,8197.3869,0.0,0.0,0.0,0.0,0.0,-0.14761841674597015,-0.6518745328950074,-1.038056387623189,-0.8018699576684032,0.02518411439997858,0.011178311891963489,-0.9524884299282891
14812,6.0,300.24435,8254.6797,0.0,0.0,0.0,0.0,0.0,-0.14762838355555402,-0.6002358323511644,-1.055563322850989,-0.8534173441132342,0.02248727427832118,0.016319516554860882,-0.9855992241785699
14813,6.0,300.49641,8377.7821,0.0,0.0,0.0,0.0,0.0,-0.14763835036513784,-0.6648414693272444,-1.049408335118539,-0.8323867100726722,0.016661038580566483,0.014673654900676986,-0.9519972062798091
14814,6.0,301.28497000000004,8350.43,0.0,0.0,0.0,0.0,0.0,-0.14764831717472165,-0.6286962342074874,-1.076229267915559,-0.8333966873748493,-0.02850505376172977,-0.0017646948153118183,-1.0107082607991391
14815,6.0,300.17486,8086.8831,0.0,0.0,0.0,0.0,0.0,-0.14765828398430547,-0.6261957964057134,-1.020379631678629,-0.8116350541821432,-0.02458594828294418,-0.03609416224846647,-0.993764662229436
14816,6.0,300.1835,8214.0871,0.0,0.0,0.0,0.0,0.0,-0.1476682507938893,-0.6426039429600714,-1.046587041540099,-0.8076864084099422,-0.005737963476867905,-0.01017582757427599,-0.986485422848531
14817,6.0,299.45657,8314.8982,0.0,0.0,0.0,0.0,0.0,-0.1476782176034731,-0.6491548986991004,-1.052545053453109,-0.8258214472422313,-0.023822452173592978,0.0036227294192355567,-1.00089311986296
14818,6.0,299.15771,8266.6973,0.0,0.0,0.0,0.0,0.0,-0.14768818441305692,-0.6196892716835694,-1.045744220106919,-0.8474360679779283,0.027081173926203773,0.014358634431336885,-0.992366670933965
14819,6.0,300.41846,8209.8603,0.0,0.0,0.0,0.0,0.0,-0.14769815122264074,-0.6527584821497463,-1.035767455647289,-0.8070665627937682,-0.024047907413593677,0.02110569459471988,-1.006691879257753
14820,6.0,300.27845,8263.062,0.0,0.0,0.0,0.0,0.0,-0.1477081180322246,-0.6608423940975664,-1.019774012093859,-0.8311481536804363,0.02733084381709427,0.017076540022573285,-0.9547428810032861
14821,6.0,299.30566,8362.8098,0.0,0.0,0.0,0.0,0.0,-0.14771808484180837,-0.6919338720910564,-1.0351210020834891,-0.8150304653997442,-0.01111811875652289,0.0020519590206875883,-0.9834799102694101
14822,6.0,299.07784,8377.2824,0.0,0.0,0.0,0.0,0.0,-0.14772805165139224,-0.6592840255762674,-1.039099325951119,-0.8481012768010792,0.02101295687931738,0.01078387389303549,-0.9543147929685372
14823,6.0,299.73649,8236.9064,0.0,0.0,0.0,0.0,0.0,-0.147738018460976,-0.6121617353656594,-1.043053838441399,-0.8485983266376341,-0.006105822000497714,0.004058610056528626,-0.9723427211327551
14824,6.0,299.17391000000003,8007.5865,0.0,0.0,0.0,0.0,0.0,-0.14774798527055982,-0.5657813874082754,-1.028324728362749,-0.8400001902640641,0.001994839883400368,0.01928696639397538,-0.9706695919051301
14825,6.0,299.04791,8133.5445,0.0,0.0,0.0,0.0,0.0,-0.1477579520801437,-0.6425467145944234,-1.024432024128569,-0.8054156845383392,-0.03553539534832047,0.00976928224990309,-0.978174198373277
14826,6.0,299.3486,8188.8611,0.0,0.0,0.0,0.0,0.0,-0.1477679188897275,-0.6150997654881204,-1.034278788600369,-0.8398307343173401,-0.03633603517983747,-0.01975343634251238,-1.023609265047369
14827,6.0,300.46836,8091.2347,0.0,0.0,0.0,0.0,0.0,-0.14777788569931133,-0.6630994188278173,-0.997312152154546,-0.7991217599521773,-0.03188672632122487,-0.0009769429069842583,-0.9707034952534761
14828,6.0,300.46454,8129.7226,0.0,0.0,0.0,0.0,0.0,-0.14778785250889515,-0.6144514880741404,-1.010789320807139,-0.8459918623453961,-0.007260811705311322,-0.018356876769432682,-0.9982299338301241
14829,6.0,299.9864,8251.2847,0.0,0.0,0.0,0.0,0.0,-0.1477978193184789,-0.6468834351549244,-1.0248971059244691,-0.8364040136716493,0.030727368596555175,0.004435169460092146,-0.950063043561422
14830,6.0,300.27075,8306.3769,0.0,0.0,0.0,0.0,0.0,-0.14780778612806283,-0.6471700937407154,-1.046915131922479,-0.8308459113081071,0.003051833814067547,0.016266954205923383,-0.997542585492288
14831,6.0,300.73197000000005,8328.7471,0.0,0.0,0.0,0.0,0.0,-0.1478177529376466,-0.6804072909409714,-1.0414110560542689,-0.8099127620596662,0.01861642280904788,0.023213720897765876,-0.9678414994185189
14832,6.0,299.42787999999996,8360.6297,0.0,0.0,0.0,0.0,0.0,-0.14782771974723047,-0.6637660259361063,-1.063912503674989,-0.8137441849277983,-0.0015758846771027086,-0.012172248431807387,-0.9918270139307049
14833,6.0,298.7935,8380.1564,0.0,0.0,0.0,0.0,0.0,-0.14783768655681423,-0.6754399032532283,-1.0516621073159689,-0.8202563027904942,-0.0004199997556932486,0.00944569059664208,-0.9900722876725271
14834,6.0,299.19521000000003,8281.3392,0.0,0.0,0.0,0.0,0.0,-0.14784765336639805,-0.6088923116654924,-1.0841675758240092,-0.8242604848006762,-0.00973651232311895,-0.02049125568107948,-0.996785890317608
14835,6.0,300.00566000000003,8276.9439,0.0,0.0,0.0,0.0,0.0,-0.14785762017598192,-0.5854970254690575,-1.074018356197359,-0.8564688582468951,0.01045198888903099,0.0011777314953580489,-1.003505856173317
14836,6.0,301.14515,8168.939,0.0,0.0,0.0,0.0,0.0,-0.14786758698556568,-0.6287541819807064,-1.024283785638939,-0.8301155099735222,-0.00979800120278743,-0.016925039880871382,-0.959520517344802
14837,6.0,300.53987,8236.5987,0.0,0.0,0.0,0.0,0.0,-0.14787755379514955,-0.6542080681403094,-1.037133418107099,-0.8123788709480523,-0.0008694201298325861,-0.02393251342595518,-0.997072103073355
14838,6.0,300.72893999999997,8364.4884,0.0,0.0,0.0,0.0,0.0,-0.14788752060473337,-0.6807776338525213,-1.026885102620669,-0.8349328657189582,-0.02035801937243008,-0.02275995609223278,-0.974347507383112
14839,6.0,300.12304,8346.6194,0.0,0.0,0.0,0.0,0.0,-0.14789748741431713,-0.6777481680410363,-1.030128921490809,-0.8292868436442392,-0.015489738690218184,0.015579617013838485,-0.985947843007976
14840,6.0,299.98295,8343.2323,0.0,0.0,0.0,0.0,0.0,-0.147907454223901,-0.6322099930367684,-1.041882116025759,-0.8620422302894442,0.005647019011492385,0.020933274891453378,-0.975147529132068
14841,6.0,300.09378,8459.1669,0.0,0.0,0.0,0.0,0.0,-0.14791742103348482,-0.6449019232593644,-1.061423252154319,-0.8650503266563202,0.024802324802048876,0.03400015020755357,-0.965150307152919
14842,6.0,299.61458999999996,8383.0028,0.0,0.0,0.0,0.0,0.0,-0.1479273878430687,-0.6519316700681463,-1.066473797277769,-0.8298181008041702,0.018228566882769484,-0.018532881351552982,-0.998189039056088
14843,6.0,299.06337,8214.7544,0.0,0.0,0.0,0.0,0.0,-0.14793735465265245,-0.6523300293449613,-1.032014579926909,-0.8127355957782582,0.017685579326430785,-0.01144357367539279,-0.96075949930208
14844,6.0,299.77296,8343.228000000001,0.0,0.0,0.0,0.0,0.0,-0.14794732146223627,-0.6545904383305463,-1.058795793320009,-0.8227466992837772,0.009147645916827362,-0.02595867013417127,-0.996888218445207
14845,6.0,299.34735,8372.6978,0.0,0.0,0.0,0.0,0.0,-0.1479572882718201,-0.6707491024452824,-1.044762887385069,-0.8295790244430752,0.01776944705045788,-0.008478847756522122,-0.962148634791677
14846,6.0,300.81304,8319.0191,0.0,0.0,0.0,0.0,0.0,-0.1479672550814039,-0.5977894717072274,-1.0435395905393392,-0.8874449979815021,-0.0035657908431161564,-0.01788578336068938,-0.9923369725735339
14847,6.0,300.89616,8167.4282,0.0,0.0,0.0,0.0,0.0,-0.14797722189098778,-0.6138601451832795,-1.031077120934389,-0.8377569356026722,-0.02714997360799377,0.024677254275955376,-0.977882615392
14848,6.0,299.75404,8150.1583,0.0,0.0,0.0,0.0,0.0,-0.1479871887005716,-0.6345741183025894,-1.021314557545899,-0.8215559075012553,-0.016702805762938585,-0.0017159672127027785,-0.9625488584486761
14849,6.0,300.33801,8330.5892,0.0,0.0,0.0,0.0,0.0,-0.14799715551015535,-0.6747198066721604,-1.024647643749849,-0.8329235907706581,-0.01942772000511668,0.005892253400070134,-1.001215201672247
14850,6.0,300.84287,8460.0534,0.0,0.0,0.0,0.0,0.0,-0.14800712231973923,-0.6569753352234174,-1.0848392593152991,-0.8298303611303802,-0.0037961643991022563,-0.02008820505630148,-0.99616914524674
14851,6.0,299.5934,8257.3464,0.0,0.0,0.0,0.0,0.0,-0.148017089129323,-0.6390073813326185,-1.047408888696209,-0.8236108597640632,0.003160856383752237,0.00950216307771548,-1.001196243762876
14852,6.0,299.97324,8091.8528,0.0,0.0,0.0,0.0,0.0,-0.14802705593890686,-0.5692364385267624,-1.032928632842119,-0.8575561566642033,0.03532925062872557,0.03381704780848276,-0.9659052291399242
14853,6.0,300.12881,8209.4964,0.0,0.0,0.0,0.0,0.0,-0.14803702274849068,-0.6209984110777714,-1.053583026855549,-0.8209005069390722,0.02454434930008868,0.022453143961952776,-0.981562324322659
14854,6.0,299.95602,8331.1624,0.0,0.0,0.0,0.0,0.0,-0.1480469895580745,-0.6606020815713494,-1.036419076786599,-0.8354442226469252,0.03043049341000587,-0.0026598629778080375,-0.9655325253556412
14855,6.0,298.98298,8276.2181,0.0,0.0,0.0,0.0,0.0,-0.1480569563676583,-0.6795416207180364,-1.0449002840986292,-0.7913216897548703,-0.012900445947424887,-0.01971720657193678,-0.9911123787676761
14856,6.0,298.7749,8186.8383,0.0,0.0,0.0,0.0,0.0,-0.14806692317724213,-0.6733964716440574,-1.005698772569741,-0.8094991736338483,0.003961857236279866,-0.029352625311378572,-0.9536259044905491
14857,6.0,298.56686,8263.9169,0.0,0.0,0.0,0.0,0.0,-0.14807688998682594,-0.6756904597379563,-1.018819834474689,-0.8175141440448642,-0.021404971184006184,0.004965430291199815,-0.9777132101077811
14858,6.0,298.84305,8493.9455,0.0,0.0,0.0,0.0,0.0,-0.14808685679640976,-0.6395308769967833,-1.061020890539609,-0.8813955402469671,-0.002839194363981667,0.0036927720549232265,-0.985337157172706
14859,6.0,299.75135,8451.181999999999,0.0,0.0,0.0,0.0,0.0,-0.14809682360599358,-0.6896538060535313,-1.037049318348799,-0.8422451370531233,-0.007818998722425093,0.025264427642654876,-0.9698214610414261
14860,6.0,300.09961,8210.9936,0.0,0.0,0.0,0.0,0.0,-0.14810679041557745,-0.6503404013161004,-1.044516363635739,-0.8010802812029683,-0.011740956500242188,0.00883834605490184,-0.9758674230631161
14861,6.0,300.73522,8100.8253,0.0,0.0,0.0,0.0,0.0,-0.1481167572251612,-0.6745609797189854,-1.016985142518619,-0.7709025014871532,-0.03031801454290507,-5.156670709773776e-05,-0.999642191687003
14862,6.0,301.07561,8097.8726,0.0,0.0,0.0,0.0,0.0,-0.14812672403474508,-0.6292354960432084,-1.0334487341184488,-0.7988668464920192,-0.012312918956440488,-0.007519485032615392,-1.0068712245254532
14863,6.0,300.69703,8183.2066,0.0,0.0,0.0,0.0,0.0,-0.14813669084432884,-0.5881356807169724,-1.089790303278929,-0.8095645383977992,0.0006380217220328414,0.008507667527791413,-1.031418788868109
14864,6.0,300.16781000000003,8197.1597,0.0,0.0,0.0,0.0,0.0,-0.14814665765391266,-0.5794980782520074,-1.0571122782788591,-0.8551214686614182,0.018161127995863783,-0.008225671412335562,-0.987715761782456
14865,6.0,300.145,8183.8583,0.0,0.0,0.0,0.0,0.0,-0.14815662446349653,-0.6307149627792203,-1.043887945923719,-0.8130856838203092,0.008922438315151101,0.011399209533014388,-1.010124193043996
14866,6.0,300.05082999999996,8186.2329,0.0,0.0,0.0,0.0,0.0,-0.14816659127308035,-0.6313484366092394,-1.056000945569179,-0.8010609787885632,-0.008795765637999482,-0.011387059651065288,-1.0080155689233912
14867,6.0,300.2792,8159.1044,0.0,0.0,0.0,0.0,0.0,-0.14817655808266417,-0.6588790092462954,-1.021620052451049,-0.7996649228007833,-0.017375190423297784,-0.018369015505630682,-1.018400855558339
14868,6.0,300.26131000000004,8288.9008,0.0,0.0,0.0,0.0,0.0,-0.14818652489224798,-0.6663644450225504,-1.040380884677599,-0.8128735193818702,-0.012527405764108688,-0.017900585931400283,-0.9840824090438721
14869,6.0,300.05138,8296.6544,0.0,0.0,0.0,0.0,0.0,-0.14819649170183175,-0.6228021887732904,-1.0460805178151091,-0.8530931142137352,-0.0025254871680961775,-0.0006038739574977195,-1.0251913537535091
14870,6.0,299.20291000000003,8070.2597,0.0,0.0,0.0,0.0,0.0,-0.14820645851141567,-0.6168453015678914,-0.9959199262521441,-0.8403922268602553,-0.006441257230202594,0.007904371832125763,-0.989415397632697
14871,6.0,299.20217,8228.5096,0.0,0.0,0.0,0.0,0.0,-0.14821642532099943,-0.6417214527854764,-1.029102803114539,-0.8304372371452742,0.01146381334614029,0.030523305092665674,-0.9858770674884911
14872,6.0,299.38589,8557.1824,0.0,0.0,0.0,0.0,0.0,-0.14822639213058325,-0.6913042587439183,-1.044495895983719,-0.8653696017628303,0.02345571643239898,-0.00904334691645885,-0.967223660037543
14873,6.0,299.16361,8541.731,0.0,0.0,0.0,0.0,0.0,-0.14823635894016707,-0.7103331158869204,-1.043742544534369,-0.8423972664231372,0.018134010383437482,0.013767776887273788,-0.967553959305141
14874,6.0,300.06027,8335.4987,0.0,0.0,0.0,0.0,0.0,-0.14824632574975088,-0.6449327159299033,-1.0367749302217188,-0.8520758212458361,-0.00961557666803353,-0.005476671303355375,-0.990803671859709
14875,6.0,300.27294,8146.848000000001,0.0,0.0,0.0,0.0,0.0,-0.14825629255933476,-0.5801413400779925,-1.031027775654519,-0.8652692089429221,-0.005618416177069505,0.0014317434669020785,-0.970235181189757
14876,6.0,300.10082,8227.0503,0.0,0.0,0.0,0.0,0.0,-0.14826625936891852,-0.5978129689770465,-1.064690274451749,-0.8383145879277082,-0.012161847419530887,-0.002241029564172398,-0.9929598984700121
14877,6.0,299.82674,8352.2802,0.0,0.0,0.0,0.0,0.0,-0.1482762261785024,-0.6628043705311983,-1.046035326860649,-0.8300449675015602,0.017466981763106883,-0.005806798014461344,-0.9709208171349241
14878,6.0,299.65029,8222.9943,0.0,0.0,0.0,0.0,0.0,-0.14828619298808615,-0.6398841770416515,-1.035603106481069,-0.8240976453771053,-0.00836590522617556,-0.012928505882444187,-1.023177215204729
14879,6.0,299.55357999999995,8039.9565,0.0,0.0,0.0,0.0,0.0,-0.14829615979767002,-0.6503757637445904,-1.0249780646074589,-0.7685921899341432,-0.016325280934679786,-0.005272626240617696,-0.9943322646704541
14880,6.0,299.69843,8221.5912,0.0,0.0,0.0,0.0,0.0,-0.14830612660725384,-0.6021074876708825,-1.049680798070429,-0.8473701560589233,-0.0067068379847633735,-0.024355771297477475,-1.007457612623325
14881,6.0,299.09691000000004,8640.5452,0.0,0.0,0.0,0.0,0.0,-0.14831609341683766,-0.6424260567725153,-1.1025911984172792,-0.8814927514615611,0.0071534899772444935,0.01085638004369129,-1.015451791142289
14882,6.0,299.40051,8549.6333,0.0,0.0,0.0,0.0,0.0,-0.14832606022642147,-0.6571956157951574,-1.0657270319540688,-0.8759524417697752,0.013236126586303989,0.022982150693411682,-0.993311384797201
14883,6.0,299.77265,8046.9232,0.0,0.0,0.0,0.0,0.0,-0.14833602703600535,-0.5961490704578324,-1.025768501010469,-0.8241461496593923,-0.00885815023075636,0.006692311220729693,-0.9868428468213061
14884,6.0,300.1866,7896.2008,0.0,0.0,0.0,0.0,0.0,-0.1483459938455891,-0.5913752439366924,-1.0279127408720892,-0.7809598902572403,-0.005690617238120195,0.0012516144502497288,-0.974229585336474
14885,6.0,300.07207,8369.9112,0.0,0.0,0.0,0.0,0.0,-0.14835596065517292,-0.6843984628198693,-1.029802958933639,-0.8300425255688192,0.016538527524225587,-0.012942861609860986,-0.9665357544121521
14886,6.0,300.42537999999996,8562.4798,0.0,0.0,0.0,0.0,0.0,-0.14836592746475674,-0.6497927396370504,-1.078785292617819,-0.8742020319570232,0.020717573196915282,0.004857064814204975,-0.973192746774146
14887,6.0,301.0268,8338.9284,0.0,0.0,0.0,0.0,0.0,-0.14837589427434056,-0.6261742243110844,-1.0485605487598688,-0.8600912172218942,0.0024373540664481175,0.012840197083228788,-0.975070410666957
14888,6.0,301.20568,8228.6636,0.0,0.0,0.0,0.0,0.0,-0.14838586108392443,-0.6250221184173803,-1.0382027009376291,-0.8380834351823953,0.016161726156538183,-0.004253677318080266,-0.9512094043270591
14889,6.0,298.89668,8480.5328,0.0,0.0,0.0,0.0,0.0,-0.1483958278935082,-0.6928802780819593,-1.044751235008919,-0.8402386789401013,-0.007070112666265794,-0.005663136983483105,-0.97309470469447
14890,6.0,298.86346000000003,8729.3671,0.0,0.0,0.0,0.0,0.0,-0.148405794703092,-0.7445325764421443,-1.040886192502469,-0.8680908774238991,0.006528186996031894,-0.007085916328075494,-0.9829762439097022
14891,6.0,298.90062,8528.6758,0.0,0.0,0.0,0.0,0.0,-0.14841576151267588,-0.7328126266429753,-1.032368102886799,-0.8273237526354972,-0.02109191641986008,-0.0026671022444724976,-0.9779103987097421
14892,6.0,300.52372,8171.3008,0.0,0.0,0.0,0.0,0.0,-0.1484257283222597,-0.5966162294164374,-1.046879972144009,-0.8403751839935732,-0.02229979261231818,-0.00974055894004332,-1.003344384637381
14893,6.0,300.307,8074.2753,0.0,0.0,0.0,0.0,0.0,-0.14843569513184351,-0.6161632727930805,-1.051680953767829,-0.7865338803823503,-0.015262077604749786,-0.005804206526005584,-1.002868683980433
14894,6.0,300.08875,8346.3125,0.0,0.0,0.0,0.0,0.0,-0.14844566194142728,-0.6201168328282664,-1.0877103034736488,-0.8292434562749572,0.013044858404677288,0.0017945741422106783,-1.0031106278393112
14895,6.0,300.19154,8408.5304,0.0,0.0,0.0,0.0,0.0,-0.14845562875101115,-0.6688607082339124,-1.056691779487359,-0.8304307928746383,0.01686351330829918,0.022587728906485277,-0.9713263198249441
14896,6.0,300.62119,8127.6349,0.0,0.0,0.0,0.0,0.0,-0.14846559556059497,-0.6214084835257424,-1.044560946640139,-0.8046286830531683,0.02209385763549398,-0.009174977628999792,-0.9730722713372562
14897,6.0,299.77665,7923.0192,0.0,0.0,0.0,0.0,0.0,-0.14847556237017878,-0.5995559921965693,-1.026860075343199,-0.7819839213383043,0.004216790961439866,-0.016112413300671383,-1.006966581492364
14898,6.0,299.39249,8198.3887,0.0,0.0,0.0,0.0,0.0,-0.1484855291797626,-0.5919260872210564,-1.049938062270819,-0.8502413319397861,-0.004759422563018435,-0.0005453880167531064,-1.0158268963293091
14899,6.0,299.6036,8342.5342,0.0,0.0,0.0,0.0,0.0,-0.14849549598934642,-0.6494805978112443,-1.031246941651149,-0.8551945138611272,-0.0007172111284932274,0.02414451067812768,-0.99979850577993
14900,6.0,299.73400000000004,8307.5377,0.0,0.0,0.0,0.0,0.0,-0.1485054627989303,-0.6476897593195025,-1.033193901718299,-0.8444003504133263,-0.009724583127041631,0.010112264065027762,-0.9825204434847181
14901,6.0,299.62135,8112.9452,0.0,0.0,0.0,0.0,0.0,-0.14851542960851405,-0.6465022909973084,-1.018622048055169,-0.8010084417708783,0.0016301639783346585,-2.2984332220876977e-05,-0.9867624352933702
14902,6.0,299.855,8126.5297,0.0,0.0,0.0,0.0,0.0,-0.14852539641809792,-0.6800783798260104,-1.0106915827024932,-0.7794921468248852,-0.016953017742632585,0.005472986619366725,-0.983683350624488
14903,6.0,300.1307,8511.7511,0.0,0.0,0.0,0.0,0.0,-0.14853536322768168,-0.6993483702278104,-1.052021000501389,-0.8359904049808292,0.025042903813042177,0.027543314257063474,-0.9784030814383661
14904,6.0,299.89473,8711.9151,0.0,0.0,0.0,0.0,0.0,-0.1485453300372655,-0.6876252388233274,-1.098888579901859,-0.8616908148897622,-0.016339001354283882,0.002882884492393547,-0.9736760670718461
14905,6.0,299.80541,8393.9481,0.0,0.0,0.0,0.0,0.0,-0.14855529684684937,-0.6768418462240894,-1.027356567892199,-0.8473522417971552,0.018614864430394083,-0.01827439415829228,-0.9736552549147922
14906,6.0,300.74688,8080.1099,0.0,0.0,0.0,0.0,0.0,-0.14856526365643313,-0.6212906830691164,-1.026528438585469,-0.8083324769387042,-0.003821077280635966,-0.003180778400593387,-0.9911214777535741
14907,6.0,299.93477,8160.894,0.0,0.0,0.0,0.0,0.0,-0.148575230466017,-0.6679685313883613,-1.009995743328819,-0.8027437136271363,0.0038771841810732862,0.0005440690184354315,-0.960432249917283
14908,6.0,300.4028,8423.4284,0.0,0.0,0.0,0.0,0.0,-0.14858519727560082,-0.6889045481345853,-1.012519941845438,-0.8590874004803253,-0.021249624744924683,-0.016654401792411483,-0.9784727829127451
14909,6.0,299.70572999999996,8461.5428,0.0,0.0,0.0,0.0,0.0,-0.14859516408518458,-0.6497496359777963,-1.0680576085090792,-0.8542904313269011,-0.004704143183937786,-0.01268811128296909,-0.986513246696277
14910,6.0,300.00867,8122.5006,0.0,0.0,0.0,0.0,0.0,-0.14860513089476846,-0.5814443695740914,-1.0623256526933789,-0.8252673412925452,-0.0008012566373828733,0.01027841002765009,-1.028395554544739
14911,6.0,299.17866000000004,8091.8975,0.0,0.0,0.0,0.0,0.0,-0.14861509770435227,-0.6318442300156705,-1.0240505354659188,-0.8038400806328393,0.024290129916249178,0.042501307400802456,-0.9858285429412021
14912,6.0,299.78528,8338.9797,0.0,0.0,0.0,0.0,0.0,-0.14862506451393614,-0.6470713829159733,-1.061620734598809,-0.8261494362996012,0.004850085344866155,0.0030424089669373873,-1.0220701381454689
14913,6.0,299.91184,8474.2167,0.0,0.0,0.0,0.0,0.0,-0.1486350313235199,-0.6967991646987234,-1.041030074016669,-0.8381210267611052,0.008583496125525112,-0.016957202465545586,-0.990709510527916
14914,6.0,299.87671,8271.2122,0.0,0.0,0.0,0.0,0.0,-0.14864499813310372,-0.6382808607459164,-1.048919239295269,-0.8270418968551803,-0.011734385573343688,0.00015927872086458585,-1.0180259530213391
14915,6.0,299.19131,7974.3993,0.0,0.0,0.0,0.0,0.0,-0.14865496494268754,-0.5828415097394785,-1.029067744661079,-0.8121089917839173,0.008631084632371732,0.032740096701195966,-0.995452402523503
14916,6.0,300.17028999999997,8118.7595,0.0,0.0,0.0,0.0,0.0,-0.1486649317522714,-0.6053472636731234,-1.0269895687059791,-0.8355633200636793,-0.006870053222796463,0.01833251823702868,-0.992253805005326
14917,6.0,300.03881,8401.3998,0.0,0.0,0.0,0.0,0.0,-0.14867489856185523,-0.6534657104545444,-1.046906721946649,-0.8534432833157942,0.01861401532681028,0.008532279271395403,-0.9830629983832639
14918,6.0,300.6954,8479.1667,0.0,0.0,0.0,0.0,0.0,-0.148684865371439,-0.6525213613613444,-1.0661685050226388,-0.8587650754910142,0.022868607913705877,0.00023511571844161478,-0.988031389188606
14919,6.0,301.2269,8320.7144,0.0,0.0,0.0,0.0,0.0,-0.14869483218102286,-0.6762634830670093,-1.022132149051589,-0.8308938076403342,0.02215040307057458,0.009294359059756821,-0.9686707129028561
14920,6.0,299.48548999999997,8198.523000000001,0.0,0.0,0.0,0.0,0.0,-0.14870479899060668,-0.6370948109738624,-1.0258885711473191,-0.8291629332895102,-0.0016505300013696285,-0.016361553261759587,-0.9497240100779621
14921,6.0,299.84166,8585.7348,0.0,0.0,0.0,0.0,0.0,-0.1487147658001905,-0.6793916394382344,-1.068527249930429,-0.8619300939008772,-0.01998602182346678,-0.02155492105305508,-0.985727025413683
14922,6.0,300.00428999999997,8691.7308,0.0,0.0,0.0,0.0,0.0,-0.1487247326097743,-0.6781802786786824,-1.0813673578476488,-0.8825215144205922,-0.01788890417099738,0.027844672062055174,-0.9672411892642732
14923,6.0,299.11579,8320.065999999999,0.0,0.0,0.0,0.0,0.0,-0.14873469941935807,-0.6690728625398503,-1.0380677360243091,-0.8219517235203191,-0.03462532551925357,0.013129326986013688,-0.9790536386650711
14924,6.0,299.00386000000003,8142.1047,0.0,0.0,0.0,0.0,0.0,-0.14874466622894195,-0.6301281592488074,-0.997735964273873,-0.8471323969229582,-0.008748179258978072,-0.007787984454089223,-0.967471551674508
14925,6.0,299.25621,8240.7664,0.0,0.0,0.0,0.0,0.0,-0.14875463303852576,-0.6909689438883253,-1.0087389990972881,-0.8052792706773761,-0.01148365480959849,-0.023736164808327076,-0.974208550264398
14926,6.0,299.37343,8479.2346,0.0,0.0,0.0,0.0,0.0,-0.14876459984810958,-0.6328581083307324,-1.065054537862699,-0.8795629659836061,0.045483754354647056,0.004141096821994436,-0.9928099070577091
14927,6.0,298.03199,8541.8015,0.0,0.0,0.0,0.0,0.0,-0.1487745666576934,-0.6459524103005394,-1.0628720984723092,-0.8876698584436942,0.007609522740476423,0.005952777159018364,-0.960569899943368
14928,6.0,299.26238,8242.8132,0.0,0.0,0.0,0.0,0.0,-0.14878453346727727,-0.5940310129787965,-1.0591016935251991,-0.8524766933828993,0.005372890479088005,-0.0018458429760705181,-0.981677723376548
14929,6.0,299.89891,8173.4813,0.0,0.0,0.0,0.0,0.0,-0.14879450027686103,-0.6285382381193945,-1.036436302038299,-0.8195596832142432,0.001930135555864548,-0.0050623050054356055,-0.9711327383933391
14930,6.0,300.07013,8556.7604,0.0,0.0,0.0,0.0,0.0,-0.14880446708644485,-0.6640094390076294,-1.0721417156871489,-0.8648903851280351,0.01987127935564258,0.01655477600282918,-0.9897792050811021
14931,6.0,299.80097,8600.4099,0.0,0.0,0.0,0.0,0.0,-0.14881443389602866,-0.7260423731848034,-1.069626423638909,-0.8186411010710862,-0.009502489749547722,-0.0023223521052733076,-0.986336920913875
14932,6.0,300.58099999999996,8325.8508,0.0,0.0,0.0,0.0,0.0,-0.14882440070561254,-0.6193230628324274,-1.062372870148039,-0.8491548137250552,-0.00037716765759854965,-0.03853071463143547,-0.9889159565259061
14933,6.0,300.15301,8068.7852,0.0,0.0,0.0,0.0,0.0,-0.14883436751519635,-0.6456374921694594,-1.017186171338459,-0.7898855901231383,-0.019064318870001783,-0.014325224535789587,-0.9978848917735711
14934,6.0,300.25552999999996,8325.8903,0.0,0.0,0.0,0.0,0.0,-0.14884433432478011,-0.6349954682241734,-1.0627626674615092,-0.8331046484310273,0.006142091997102285,0.01994238722116038,-0.9741356367872022
14935,6.0,299.89797999999996,8489.5624,0.0,0.0,0.0,0.0,0.0,-0.148854301134364,-0.6751343576855733,-1.0461267220196688,-0.8593538548591222,0.001150182035739129,0.03138072745978668,-0.975215751261301
14936,6.0,299.50259,8527.5351,0.0,0.0,0.0,0.0,0.0,-0.1488642679439478,-0.6706685085323284,-1.066398208820309,-0.8550910306284142,-0.014024085592819487,-0.0006313937491537113,-0.9519991922500051
14937,6.0,298.74832000000004,8420.9493,0.0,0.0,0.0,0.0,0.0,-0.14887423475353168,-0.6807304265303623,-1.036441672263829,-0.8425862578317892,0.015216837001034884,-0.027773164975997976,-0.98383728357968
14938,6.0,298.68217000000004,8272.0963,0.0,0.0,0.0,0.0,0.0,-0.14888420156311544,-0.6062119105134575,-1.0551411015343188,-0.8531576683776063,-0.001025183855702769,-0.007550850493435924,-0.977294443973952
14939,6.0,299.2744,8268.8865,0.0,0.0,0.0,0.0,0.0,-0.1488941683726992,-0.6281266052662694,-1.075173866611399,-0.8102345297614223,0.013221185200329387,-0.0056054021954351245,-0.988421824849639
14940,6.0,299.2032,8352.222,0.0,0.0,0.0,0.0,0.0,-0.14890413518228313,-0.6605755242862285,-1.026751758907509,-0.8515396903529241,-0.03869323386797486,-0.01950682545367378,-0.9747975120175241
14941,6.0,300.20564,8348.5356,0.0,0.0,0.0,0.0,0.0,-0.1489141019918669,-0.6744229851878664,-1.049253611828269,-0.8140697523174293,0.014511113372635385,-0.004405756126914276,-0.9834605673250011
14942,6.0,301.32419,8080.2744,0.0,0.0,0.0,0.0,0.0,-0.14892406880145076,-0.6582201535012714,-1.015716857368449,-0.7822646118810063,-0.0015345894666271885,0.013917526132802886,-0.9941033106778582
14943,6.0,300.02112,8138.7973,0.0,0.0,0.0,0.0,0.0,-0.14893403561103452,-0.6356907199127895,-1.021746303413509,-0.8165541402376192,0.025026042318128074,0.016812949088558883,-0.9866013893224761
14944,6.0,299.38839,8468.2098,0.0,0.0,0.0,0.0,0.0,-0.14894400242061834,-0.6349554955077283,-1.0836640918493188,-0.8555047609092461,-0.02175094340415098,-0.028706604405371268,-1.001364777652009
14945,6.0,299.83316,8588.3823,0.0,0.0,0.0,0.0,0.0,-0.1489539692302022,-0.6706355576390763,-1.061423150829309,-0.8785950182955772,0.00990081001623387,-0.011071950015716389,-0.9677870980206501
14946,6.0,299.49656,8338.2221,0.0,0.0,0.0,0.0,0.0,-0.14896393603978597,-0.6330238253845875,-1.034290440976519,-0.8672970972955593,-0.010056714654795459,0.008148835644002463,-0.983246224398847
14947,6.0,299.49084,8157.8219,0.0,0.0,0.0,0.0,0.0,-0.14897390284936984,-0.6146433368480744,-1.041144165977929,-0.8239866235636482,0.022763907767622778,0.01065705753701969,-0.985547771338492
14948,6.0,299.50844,8095.869000000001,0.0,0.0,0.0,0.0,0.0,-0.14898386965895366,-0.6350086404754735,-0.999112089632186,-0.8268213021759091,-0.0019356194680557682,-0.024780685832913277,-0.953563164044357
14949,6.0,299.1909,8289.719000000001,0.0,0.0,0.0,0.0,0.0,-0.14899383646853742,-0.6580243530519474,-1.041216512035069,-0.8206266963645492,0.009740115237824531,-0.005120026823882305,-1.0112788523279521
14950,6.0,297.47251,8330.7396,0.0,0.0,0.0,0.0,0.0,-0.1490038032781213,-0.6533117673668514,-1.0377939558472888,-0.8412310662205422,0.002009861924082928,0.01110397783812729,-1.003336450889098
14951,6.0,298.91874,8118.1646,0.0,0.0,0.0,0.0,0.0,-0.14901377008770506,-0.6623441320707764,-1.011034344946321,-0.7943408305478362,-0.012570236859085789,0.04154288325046336,-1.010497302128319
14952,6.0,300.0737,8186.4891,0.0,0.0,0.0,0.0,0.0,-0.14902373689728898,-0.6304732013053604,-1.055249113994979,-0.8027659342018293,-0.022888702689689077,-0.005608195016685755,-1.007540192506475
14953,6.0,299.93345,8359.9356,0.0,0.0,0.0,0.0,0.0,-0.14903370370687274,-0.6758117761724294,-1.008905678738738,-0.8564942097643972,-0.023344269053899976,-0.0018086014752700683,-0.985114617053243
14954,6.0,300.34715,8457.1502,0.0,0.0,0.0,0.0,0.0,-0.14904367051645656,-0.6687267464381913,-1.048591959512969,-0.8534437595433412,0.017485814029465484,0.007332702407856383,-0.9722861817771751
14955,6.0,300.81043999999997,8225.7325,0.0,0.0,0.0,0.0,0.0,-0.14905363732604038,-0.5968446666514824,-1.051720369196719,-0.8518522476112713,0.012114891383396689,-0.007534003285348232,-0.9922730770222281
14956,6.0,299.6396,8058.9578,0.0,0.0,0.0,0.0,0.0,-0.14906360413562425,-0.6041807088329935,-1.014491331372499,-0.8310498886857381,0.003199405483806737,-0.015780561733920184,-0.985369885150936
14957,6.0,300.56215,8375.6263,0.0,0.0,0.0,0.0,0.0,-0.14907357094520807,-0.6500682322067394,-1.073804965726299,-0.8221080781432503,-0.02064203438871018,-0.019607157478575783,-0.999610588416384
14958,6.0,300.75424,8477.4132,0.0,0.0,0.0,0.0,0.0,-0.14908353775479183,-0.6845938579691533,-1.0464730509038491,-0.8458549925218881,0.005295136098214245,0.0018122593081310683,-0.996053107845288
14959,6.0,298.84815,8241.8254,0.0,0.0,0.0,0.0,0.0,-0.14909350456437565,-0.6505649375382604,-1.0346968555916292,-0.8200473807523753,-0.03730857390406956,0.0006086305385021573,-1.002901928716214
14960,6.0,298.74168,8175.5753,0.0,0.0,0.0,0.0,0.0,-0.14910347137395952,-0.6340696616078033,-1.0423399024209392,-0.8087611323935092,0.006607790862313184,-0.01979736985359828,-0.9822558028236
14961,6.0,299.25701000000004,8355.5331,0.0,0.0,0.0,0.0,0.0,-0.14911343818354333,-0.6470714639759815,-1.037988499866489,-0.8548134406310182,-0.020540106494900682,-0.018351978718449284,-0.9913827341593581
14962,6.0,300.23717999999997,8594.6031,0.0,0.0,0.0,0.0,0.0,-0.14912340499312715,-0.6748658362765724,-1.0857422678044188,-0.8519366209470982,0.03428675914408967,0.014016620979332787,-0.978777507747819
14963,6.0,300.88514,8577.4503,0.0,0.0,0.0,0.0,0.0,-0.1491333718027109,-0.6997392314538854,-1.077196415136009,-0.8303950859411143,-0.012294704772642887,0.027592948313211973,-1.000049558757207
14964,6.0,300.19081,8272.6675,0.0,0.0,0.0,0.0,0.0,-0.14914333861229478,-0.6245191815977444,-1.041118834725429,-0.8490463047718462,0.018947870089009184,0.010417153350592989,-0.968710027006736
14965,6.0,300.69878,8021.0009,0.0,0.0,0.0,0.0,0.0,-0.1491533054218786,-0.6187754720808843,-1.0177527807943791,-0.8016557464647622,-0.030667922226438268,-0.007070139517393443,-0.9820408519473861
14966,6.0,300.88239,8345.993,0.0,0.0,0.0,0.0,0.0,-0.14916327223146242,-0.6196260347448284,-1.048856721764099,-0.8684906957808581,0.0054108136945557345,-0.02175046920310418,-0.9548357757724542
14967,6.0,300.4664,8475.7182,0.0,0.0,0.0,0.0,0.0,-0.14917323904104623,-0.6520513956999624,-1.0696582396920489,-0.8546970789895342,-0.04321062908030705,-0.003458379138440447,-0.971918909013428
14968,6.0,299.79586,8426.216,0.0,0.0,0.0,0.0,0.0,-0.1491832058506301,-0.6494483561930624,-1.060383150926669,-0.8515277745317482,-0.005464067789336505,-0.01155385581627679,-0.984942526656259
14969,6.0,299.50775,8411.8699,0.0,0.0,0.0,0.0,0.0,-0.14919317266021387,-0.6818652869073644,-1.036472475066869,-0.8386607040293671,-0.02144580617628628,0.006235416384312684,-0.9841601151940411
14970,6.0,299.04273,8509.7967,0.0,0.0,0.0,0.0,0.0,-0.14920313946979769,-0.6871708062859784,-1.0498967216667392,-0.8496981690911801,0.02027101462609338,0.009951739208660191,-0.9824281566656101
14971,6.0,300.43733,8589.1276,0.0,0.0,0.0,0.0,0.0,-0.1492131062793815,-0.7034252022701624,-1.0536106885832792,-0.8538444290303843,0.009200884407556592,0.01072644794361799,-0.9730185386844531
14972,6.0,299.80433999999997,8396.6323,0.0,0.0,0.0,0.0,0.0,-0.14922307308896537,-0.6391943665060723,-1.056402597908819,-0.8567696010090762,0.017132810866876784,-0.015187839809673087,-0.978584787578799
14973,6.0,300.25261,8226.5415,0.0,0.0,0.0,0.0,0.0,-0.1492330398985492,-0.6190571353436825,-1.046846737540729,-0.8347593162418302,0.017626694296869284,-0.025880391497695773,-0.970652052545899
14974,6.0,300.67496,8191.1186,0.0,0.0,0.0,0.0,0.0,-0.14924300670813295,-0.6249594488986954,-1.050657469841819,-0.8142785730305382,0.003184574136792997,-0.004802752784994795,-0.980957211362939
14975,6.0,301.43327999999997,8319.0385,0.0,0.0,0.0,0.0,0.0,-0.14925297351771682,-0.6488430203183203,-1.050259566527549,-0.8296773502327792,-0.005201198998668375,0.030561001036135974,-1.001569504834714
14976,6.0,298.83966000000004,8358.7855,0.0,0.0,0.0,0.0,0.0,-0.14926294032730064,-0.6366550705629634,-1.069562690207619,-0.8346443731504861,-0.036288004085347166,0.004771224089583155,-0.9920026203055361
14977,6.0,298.74995,8197.2989,0.0,0.0,0.0,0.0,0.0,-0.14927290713688451,-0.6187252452734274,-1.038551765597079,-0.8344972289709641,-0.00986488158623801,-0.018300477242366484,-0.9942703449568431
14978,6.0,299.47241,8012.8457,0.0,0.0,0.0,0.0,0.0,-0.14928287394646828,-0.5886123743590185,-1.013211545833694,-0.8338810918501562,-0.022627670212177178,-0.024500667075027578,-0.9883910119140981
14979,6.0,299.42212,8374.8987,0.0,0.0,0.0,0.0,0.0,-0.14929284075605204,-0.6493815627464704,-1.0619374765800689,-0.8344410341204183,0.05318158863011416,0.007142406338375624,-0.9989675089754171
14980,6.0,299.58223,8605.6976,0.0,0.0,0.0,0.0,0.0,-0.14930280756563596,-0.6925038556698093,-1.0574525276624391,-0.8659608027986772,0.020247121175485282,0.0006089098104947194,-0.9858265367060041
14981,6.0,299.81421,8433.9624,0.0,0.0,0.0,0.0,0.0,-0.14931277437521973,-0.6660986593888193,-1.064401194198219,-0.8332141706343361,0.02057445871304098,0.027953032067499474,-0.9919477629451221
14982,6.0,300.53666,8208.2336,0.0,0.0,0.0,0.0,0.0,-0.1493227411848036,-0.6585052010194035,-1.015290988351419,-0.8213019160986883,-0.007246885494611913,0.013926051619144288,-0.98120992607038
14983,6.0,300.46067,8275.3277,0.0,0.0,0.0,0.0,0.0,-0.14933270799438736,-0.6645001965610633,-1.01206977509101,-0.8389230243477562,0.006013182469029905,0.025987989539064876,-0.970685570859207
14984,6.0,300.00597,8466.8608,0.0,0.0,0.0,0.0,0.0,-0.14934267480397118,-0.6485109377305464,-1.067575706761519,-0.8576275907962533,-0.025896547770540273,-0.007418100848809554,-0.9897063220014091
14985,6.0,299.67623,8527.6028,0.0,0.0,0.0,0.0,0.0,-0.14935264161355505,-0.6748595034634474,-1.061261030813309,-0.8560577826813253,-0.025746956592026776,-0.012414958307760989,-0.9736968893614011
14986,6.0,299.18006,8374.6175,0.0,0.0,0.0,0.0,0.0,-0.1493626084231388,-0.6695928523586693,-1.0464970649312189,-0.8295846783786333,-0.02193825991038768,-0.018661995758795583,-0.994329802472711
14987,6.0,299.65528,8141.7437,0.0,0.0,0.0,0.0,0.0,-0.14937257523272268,-0.6372469606088783,-1.014644332137599,-0.8229954521833273,-0.015854156115183385,0.011617942871851689,-0.98350493754688
14988,6.0,300.39095,8247.3714,0.0,0.0,0.0,0.0,0.0,-0.1493825420423065,-0.6377258023411364,-1.029708625349329,-0.8395605613106761,0.0001018375422980829,0.004292234017510516,-0.997986145856064
14989,6.0,299.99854,8428.4609,0.0,0.0,0.0,0.0,0.0,-0.14939250885189026,-0.6546777196941604,-1.064836993066229,-0.8425269827009393,-0.01007455748243141,-0.006189461540602294,-0.9793316744925111
14990,6.0,300.36125,8370.3364,0.0,0.0,0.0,0.0,0.0,-0.14940247566147413,-0.6388297889875915,-1.053819620753899,-0.8517238688236011,0.013765564962305486,-0.013580274956268788,-1.013108103130985
14991,6.0,301.64227999999997,8289.4673,0.0,0.0,0.0,0.0,0.0,-0.1494124424710579,-0.6797211889007584,-1.027312896812889,-0.8127569753553683,0.011313057943261888,-0.001983940757374708,-1.002613263895225
14992,6.0,299.7117,8279.8845,0.0,0.0,0.0,0.0,0.0,-0.14942240928064177,-0.6372945934960794,-1.045242458657399,-0.8343410769980532,0.020347324517624582,0.006950319754643154,-1.011544536636673
14993,6.0,299.65477000000004,8448.1439,0.0,0.0,0.0,0.0,0.0,-0.14943237609022558,-0.6714433814138023,-1.067889712967509,-0.8286916909330022,0.003732196907039156,-0.005072056929698045,-1.007170427147482
14994,6.0,299.16362999999996,8444.6197,0.0,0.0,0.0,0.0,0.0,-0.1494423428998094,-0.6572164988797183,-1.0521541415645292,-0.8575829267318452,0.008514427527158572,0.025514466356581774,-0.9858601462118209
14995,6.0,298.80309,8196.6964,0.0,0.0,0.0,0.0,0.0,-0.14945230970939322,-0.6353051681172384,-1.025405554824649,-0.8308803618115072,-0.027462424475080273,-0.014513514775372384,-1.0149965378723589
14996,6.0,299.44191,7978.1729,0.0,0.0,0.0,0.0,0.0,-0.1494622765189771,-0.5743324785797025,-1.023774424813669,-0.8270584533618142,0.02138702044523458,-0.03302545224735837,-1.000705496341943
14997,6.0,300.25177,8035.1131,0.0,0.0,0.0,0.0,0.0,-0.1494722433285609,-0.6060634896388094,-1.026967885153839,-0.8094423404357393,-0.03040474165871437,-0.030585376793791672,-1.0200491094960091
14998,6.0,300.89887999999996,8523.3025,0.0,0.0,0.0,0.0,0.0,-0.14948221013814467,-0.6736782970268714,-1.066455862750999,-0.8507369632262012,0.03766175641192597,0.006535479053026564,-0.9967006253216931
14999,6.0,300.19947,8589.1023,0.0,0.0,0.0,0.0,0.0,-0.14949217694772848,-0.7083689913630764,-1.049200416198019,-0.8533032318869722,-0.014461388123977887,0.008057843555872243,-1.007101678128197
15000,6.0,300.66564,8350.7353,0.0,0.0,0.0,0.0,0.0,-0.1495021437573123,-0.6468324382773913,-1.047300977560559,-0.8442816380316102,0.010850664299877189,0.015409151870014882,-0.9874489122361201
15001,6.0,300.43379,8346.6077,0.0,0.0,0.0,0.0,0.0,-0.14951211056689617,-0.6342471830253233,-1.041396667902849,-0.8615165054750591,-0.01971094063331838,0.0017302578894631585,-0.981672251826008
15002,6.0,299.87171,8516.3763,0.0,0.0,0.0,0.0,0.0,-0.14952207737648,-0.6571151536047164,-1.073010881622929,-0.8586396756586382,0.006686685858824514,0.02974928030152537,-0.9752071082379481
15003,6.0,299.91758,8418.5606,0.0,0.0,0.0,0.0,0.0,-0.14953204418606375,-0.6982478995592023,-1.031575741308599,-0.8292085700740142,-0.01053729137519969,0.012918861767992387,-0.9842340520538382
15004,6.0,299.9818,8170.209,0.0,0.0,0.0,0.0,0.0,-0.14954201099564762,-0.6306175083846024,-1.027350691041619,-0.8255713669850503,0.003542396418182307,-0.026699060088242074,-0.9932765999212679
15005,6.0,299.17826,8035.2425,0.0,0.0,0.0,0.0,0.0,-0.14955197780523144,-0.6242982322809384,-1.017262874371029,-0.8009519429453023,-0.007022831579499513,-0.0048435331630945055,-0.9810195870390952
15006,6.0,299.14795,8245.8595,0.0,0.0,0.0,0.0,0.0,-0.14956194461481526,-0.6114982288026765,-1.045182778226509,-0.8498543818590971,-0.015323137069025885,-0.006325297139733224,-0.983265243103224
15007,6.0,299.15607,8558.939,0.0,0.0,0.0,0.0,0.0,-0.14957191142439907,-0.6699409341655224,-1.063228661182499,-0.8685341743426491,0.0031392147801663772,0.01928450014323198,-0.9820584622341241
15008,6.0,299.48713,8649.2841,0.0,0.0,0.0,0.0,0.0,-0.14958187823398283,-0.6709014648628193,-1.074581723252959,-0.8836831549977372,-0.025240471370540578,-0.0013678579467720688,-0.9919116203140551
15009,6.0,299.68151,8320.7829,0.0,0.0,0.0,0.0,0.0,-0.1495918450435667,-0.6613775928003863,-1.0606183262748792,-0.8073142923107172,0.04227106252757906,0.018500126015570283,-0.979268285566255
15010,6.0,299.92669,8153.1786,0.0,0.0,0.0,0.0,0.0,-0.14960181185315052,-0.6301345731219403,-1.0363112669759589,-0.8119168694324562,0.012800409791552088,0.03972761529881036,-1.001567924164558
15011,6.0,300.03766,8559.7888,0.0,0.0,0.0,0.0,0.0,-0.14961177866273434,-0.6954038078535124,-1.066350383415589,-0.8402078356070571,0.026786981825919272,0.028355658140485573,-0.991816243082142
15012,6.0,300.24287999999996,8507.2982,0.0,0.0,0.0,0.0,0.0,-0.14962174547231816,-0.6703514017810324,-1.0523935725631588,-0.8632612410872512,-0.038399625399747964,-0.01912328090657088,-0.9799319542492541
15013,6.0,300.59607,8136.5881,0.0,0.0,0.0,0.0,0.0,-0.14963171228190203,-0.6092268260535064,-1.038538086720729,-0.8255546787559033,-0.007737879743269273,-0.007647789751703082,-0.9769294814204331
15014,6.0,300.64412999999996,8116.2018,0.0,0.0,0.0,0.0,0.0,-0.1496416790914858,-0.6202869169900523,-1.0283624212664688,-0.8184733777820332,-0.01000662980367747,-0.0038583006442596264,-0.983020725589092
15015,6.0,299.51698999999996,8522.5384,0.0,0.0,0.0,0.0,0.0,-0.14965164590106966,-0.6728289907930514,-1.0667678424567888,-0.8510420224338082,0.031906629592939176,-0.005904777981906214,-0.988203803825622
15016,6.0,299.98568,8657.5631,0.0,0.0,0.0,0.0,0.0,-0.14966161271065348,-0.6940934120291864,-1.086303304384789,-0.8512862562379123,0.005375811172501255,-0.015953574188495186,-1.002241360578521
15017,6.0,299.56507,8518.8535,0.0,0.0,0.0,0.0,0.0,-0.14967157952023735,-0.6596418143190784,-1.061694499206089,-0.8681824043054321,0.03235468676065897,-0.013710683283889089,-0.985253442449444
15018,6.0,300.41787999999997,8409.0646,0.0,0.0,0.0,0.0,0.0,-0.1496815463298211,-0.6214127898386674,-1.076834076900249,-0.8578987871855183,-0.005120408211219945,0.008917942828432432,-0.9874919044378632
15019,6.0,299.42239,8402.6426,0.0,0.0,0.0,0.0,0.0,-0.14969151313940487,-0.6410328480175164,-1.049934211920439,-0.8632264764763202,-0.014187016208899486,0.021391314599158377,-0.9728166384695269
15020,6.0,299.08533,8420.665,0.0,0.0,0.0,0.0,0.0,-0.14970147994898875,-0.6758260528663383,-1.036444306714089,-0.8474014857520152,-0.032605183463631074,-0.004094279195823896,-0.9835002360664161
15021,6.0,300.42377,8440.9919,0.0,0.0,0.0,0.0,0.0,-0.14971144675857256,-0.6898163617670744,-1.048425583846549,-0.8276087900211282,-0.013732548207796987,0.03323790748857607,-0.964315439733024
15022,6.0,300.64333999999997,8211.5001,0.0,0.0,0.0,0.0,0.0,-0.14972141356815644,-0.6384950719495573,-1.0216242067764592,-0.8359716801189812,-0.003010949071207537,0.03225318544514157,-1.000254853359968
15023,6.0,300.07285,8156.7697,0.0,0.0,0.0,0.0,0.0,-0.1497313803777402,-0.6252755018698875,-1.0437712195121989,-0.8104075827460012,0.007302662784791703,0.00991094717818433,-1.0149189229146989
15024,6.0,301.18169,8554.3894,0.0,0.0,0.0,0.0,0.0,-0.14974134718732401,-0.6615854205283973,-1.083203367028849,-0.8555319970719342,-0.003939366630435216,-0.013633726938794088,-1.00661170077734
15025,6.0,300.4175,8652.1157,0.0,0.0,0.0,0.0,0.0,-0.1497513139969079,-0.6847497363645374,-1.0567062689637892,-0.8885711444076441,0.011601303278709488,-0.02772972593096087,-0.953447005052893
15026,6.0,301.25944,8345.3029,0.0,0.0,0.0,0.0,0.0,-0.14976128080649165,-0.6394469900210044,-1.045740572406559,-0.8515761774890251,0.03671763732649867,-0.013364253074699088,-0.972513757749635
15027,6.0,301.55576,8385.594000000001,0.0,0.0,0.0,0.0,0.0,-0.14977124761607552,-0.6669328783286503,-1.041221071660519,-0.8408572478611491,0.017370620665346784,-0.0038360801708916363,-0.960328300589524
15028,6.0,299.94397999999995,8462.9881,0.0,0.0,0.0,0.0,0.0,-0.14978121442565928,-0.6752475681192464,-1.041153285228829,-0.8561361677090611,0.001131776550322649,-0.006397506712084755,-0.980254167781054
15029,6.0,299.47562999999997,8466.7846,0.0,0.0,0.0,0.0,0.0,-0.1497911812352431,-0.6801008739782303,-1.042585818220209,-0.8510044612526012,-0.02472914078707618,0.0026566657684424975,-0.9751649671662892
15030,6.0,299.54827,8480.8989,0.0,0.0,0.0,0.0,0.0,-0.14980114804482697,-0.6573735323802165,-1.049311873709019,-0.8712960712002272,-0.0050281228106620855,0.020769097977750377,-0.9785676737846101
15031,6.0,299.61025,8301.544,0.0,0.0,0.0,0.0,0.0,-0.14981111485441073,-0.6615579209206833,-1.047066308837399,-0.8148378262907322,-0.01966900930443008,-0.003353373193477167,-0.984202904745764
15032,6.0,300.42327,8160.6345,0.0,0.0,0.0,0.0,0.0,-0.1498210816639946,-0.6321233804182205,-1.0270113535831291,-0.8214943829551832,0.01087147645693119,-0.003789378663182556,-0.9884294748878941
15033,6.0,300.46333,8228.6011,0.0,0.0,0.0,0.0,0.0,-0.14983104847357842,-0.6575457038372085,-1.0351629506376292,-0.8085806320206952,0.008694092069965081,0.0016587211151780285,-0.9887902729835021
15034,6.0,300.46389,8500.2942,0.0,0.0,0.0,0.0,0.0,-0.14984101528316224,-0.6574237085251683,-1.068075948335889,-0.8583775478577682,0.030701956284047174,0.03156495963271897,-0.9828931472690011
15035,6.0,300.08549,8414.9458,0.0,0.0,0.0,0.0,0.0,-0.14985098209274605,-0.6738665386304493,-1.0593749670771688,-0.8246919570907593,-0.0013615874485282187,0.017825816180021083,-1.005651818560107
15036,6.0,300.25257,8186.5069,0.0,0.0,0.0,0.0,0.0,-0.14986094890232982,-0.5941192771950075,-1.048708077974429,-0.8456663456182703,-0.012325558238187888,-0.018791078755285084,-1.027150776796889
15037,6.0,299.45844,8293.0577,0.0,0.0,0.0,0.0,0.0,-0.14987091571191374,-0.6643694467681593,-1.031553753781429,-0.8249592625996403,-0.02928302718850977,-0.030603813892611267,-0.9813862214552791
15038,6.0,298.82132,8537.212,0.0,0.0,0.0,0.0,0.0,-0.1498808825214975,-0.6653359455085454,-1.052774453275749,-0.8769888446345601,0.008565053048529923,0.0017182410472521884,-0.9631972675851691
15039,6.0,298.87687999999997,8418.0982,0.0,0.0,0.0,0.0,0.0,-0.14989084933108132,-0.6758941635380603,-1.056180898786939,-0.8268165601654412,0.018415289624447585,0.006215753455522104,-0.975380151090026
15040,6.0,299.49365,8161.9098,0.0,0.0,0.0,0.0,0.0,-0.14990081614066514,-0.6200080097675265,-1.030788243330879,-0.8302205029488842,0.015584096592530588,0.027318341324110373,-0.9905834723479771
15041,6.0,299.4875,8083.5963,0.0,0.0,0.0,0.0,0.0,-0.149910782950249,-0.6422959959896795,-1.006536162982385,-0.8083792688283222,-0.0015430424042614285,0.004700739372876855,-0.9888267803846051
15042,6.0,300.49387,8320.6919,0.0,0.0,0.0,0.0,0.0,-0.14992074975983283,-0.6429980060564624,-1.0628031974655092,-0.8234813967987863,-0.014382675816459588,0.02822234685132877,-1.007147325045202
15043,6.0,300.0869,8637.0743,0.0,0.0,0.0,0.0,0.0,-0.1499307165694166,-0.7236324186169593,-1.041688281281629,-0.860134209423637,0.02923946047396007,0.01259617910139609,-0.9875328600069051
15044,6.0,300.3821,8571.4365,0.0,0.0,0.0,0.0,0.0,-0.1499406833790004,-0.6781933090749683,-1.074152307860579,-0.8531570806925481,-0.005303177251007845,-0.006184241580062124,-1.015987293820139
15045,6.0,299.79557,8205.7789,0.0,0.0,0.0,0.0,0.0,-0.14995065018858428,-0.6613669435418355,-1.015965306292969,-0.8170196070685573,0.02182831214203668,-0.02048511437222338,-0.9798421093628871
15046,6.0,300.3647,8354.6687,0.0,0.0,0.0,0.0,0.0,-0.1499606169981681,-0.6379258280433774,-1.053713026843379,-0.8479718543658062,-0.004360428079715746,0.006337418853329544,-0.9779201664407061
15047,6.0,301.18044,8687.4532,0.0,0.0,0.0,0.0,0.0,-0.1499705838077519,-0.6909706968109983,-1.0968210430728091,-0.8529771173422873,0.028880720289305176,0.011284472131440688,-0.9837598814045411
15048,6.0,301.95012,8504.6532,0.0,0.0,0.0,0.0,0.0,-0.14998055061733567,-0.6445472350618594,-1.053991366645849,-0.8866636504318892,-0.00968150490036514,0.005516003443087156,-0.9831050482624141
15049,6.0,301.37106,8216.1524,0.0,0.0,0.0,0.0,0.0,-0.14999051742691955,-0.6212502645226274,-1.065762901007609,-0.8104919459493272,0.011738930000042188,0.0025738644901456475,-0.98400984007171
15050,6.0,300.6552,8213.3287,0.0,0.0,0.0,0.0,0.0,-0.15000048423650336,-0.6343147161444884,-1.0058171404464231,-0.8565149915239482,-0.012031832232949386,0.0025412729967041175,-0.9780193230954921
15051,6.0,300.83269,8527.0668,0.0,0.0,0.0,0.0,0.0,-0.15001045104608718,-0.6745844769888044,-1.057897445781349,-0.8595334939693512,0.03414855081719957,0.004630796238349006,-0.9820961754028461
15052,6.0,301.54094,8595.1174,0.0,0.0,0.0,0.0,0.0,-0.150020417855671,-0.6491430234079284,-1.0939369279881688,-0.8696210775924182,-0.01032050854280489,0.02033658507981468,-1.013910131115139
15053,6.0,300.6128,8521.0723,0.0,0.0,0.0,0.0,0.0,-0.15003038466525487,-0.6866462973717133,-1.039373916728219,-0.8641729939247342,0.0014713525278861887,0.02324318722392398,-0.9914911215225551
15054,6.0,299.71224,8435.1412,0.0,0.0,0.0,0.0,0.0,-0.15004035147483863,-0.6679358540726364,-1.0685960496122189,-0.8275403551093742,-0.03655396501134547,0.01952039185926268,-0.9901867748013261
15055,6.0,300.35008999999997,8358.1343,0.0,0.0,0.0,0.0,0.0,-0.1500503182844225,-0.6819509977333233,-1.030170464744909,-0.8285426418432923,0.003233266275648537,0.005901048410938134,-0.9881070283085711
15056,6.0,299.6765,8571.121,0.0,0.0,0.0,0.0,0.0,-0.15006028509400626,-0.6867880409282023,-1.0429295126541291,-0.8756892500563002,0.012683686419782387,-0.003946411454405486,-0.9701361562574841
15057,6.0,300.1904,8537.306,0.0,0.0,0.0,0.0,0.0,-0.1500702519035902,-0.6720184920380614,-1.062710789056389,-0.8603985258447232,0.016077880724013286,-0.025417114300223875,-0.970626761823403
15058,6.0,299.44187,8178.0072,0.0,0.0,0.0,0.0,0.0,-0.15008021871317395,-0.5999368425116564,-1.022555180968339,-0.8634179908777211,-0.015915268268464684,-0.02037845561369698,-0.9811916977010812
15059,6.0,299.92941,8222.214,0.0,0.0,0.0,0.0,0.0,-0.1500901855227577,-0.6241624871650414,-1.039443425685079,-0.8357418344662972,-0.007056015621599524,0.0013226782393881786,-0.9950165935229921
15060,6.0,300.03991,8500.9296,0.0,0.0,0.0,0.0,0.0,-0.15010015233234159,-0.6524452460138325,-1.072640336061359,-0.8589847683776962,-0.012721170593981788,0.0043045624341272355,-1.002635524999922
15061,6.0,300.00032000000004,8537.9281,0.0,0.0,0.0,0.0,0.0,-0.1501101191419254,-0.6554308482284884,-1.0824682540812989,-0.8574178176280501,0.016966024834166284,0.03369250518569137,-1.002562662185231
15062,6.0,300.45844,8225.6758,0.0,0.0,0.0,0.0,0.0,-0.15012008595150927,-0.6277564852697414,-1.028313379961629,-0.8443301929764021,0.025945108794832875,-0.0008648510507591533,-0.9926533092547541
15063,6.0,301.42645,8324.7914,0.0,0.0,0.0,0.0,0.0,-0.15013005276109304,-0.6504349476829314,-1.0553717172570791,-0.8247220708837312,0.03330551862799877,-0.024047991513351977,-0.9849549896324891
15064,6.0,300.41845,8357.7727,0.0,0.0,0.0,0.0,0.0,-0.1501400195706768,-0.6281922436077474,-1.0403624435257792,-0.8719994795521483,0.03191795063630647,-0.032225971573955764,-0.993634611579101
15065,6.0,301.24921,8429.2194,0.0,0.0,0.0,0.0,0.0,-0.15014998638026072,-0.6583887177879073,-1.059733049662509,-0.8441504322761613,0.002945844003257167,-0.027078325680172675,-0.9975817678736549
15066,6.0,300.08148,8648.9021,0.0,0.0,0.0,0.0,0.0,-0.1501599531898445,-0.6640273937994013,-1.068128536016079,-0.8968943353665793,-0.005891250485121155,-0.015011585968028185,-0.9735313445600631
15067,6.0,298.81993,8501.8469,0.0,0.0,0.0,0.0,0.0,-0.15016991999942836,-0.6780376434621054,-1.056137531682659,-0.8501740318681442,-0.02525402967012868,-0.0032633074185883667,-0.987182417327319
15068,6.0,299.83393,8255.045,0.0,0.0,0.0,0.0,0.0,-0.15017988680901212,-0.6293989636818413,-1.055138163109029,-0.8247904247354773,0.015385405340671286,0.020336981260603782,-0.993972733137471
15069,6.0,299.67143,8454.5639,0.0,0.0,0.0,0.0,0.0,-0.15018985361859594,-0.6782773379057614,-1.036066972376849,-0.8556319845918022,0.015250398884097184,0.005249072127468085,-0.973475818454583
15070,6.0,299.61245,8707.3814,0.0,0.0,0.0,0.0,0.0,-0.1501998204281798,-0.6632305941857634,-1.1089675812965791,-0.8746283265390953,0.03547650829225876,0.014229447070087088,-0.966975150318017
15071,6.0,301.14153999999996,8456.6469,0.0,0.0,0.0,0.0,0.0,-0.15020978723776357,-0.6863400425289884,-1.049417049069399,-0.8348523933960161,-0.008689873301848722,-0.01315597141064329,-0.9798244180161411
15072,6.0,300.24399,8244.6895,0.0,0.0,0.0,0.0,0.0,-0.15021975404734744,-0.6298665583379894,-1.0451263401959392,-0.8311868294367533,0.020712050983870283,0.013059214132094089,-0.9893778567164919
15073,6.0,299.81322,8222.7003,0.0,0.0,0.0,0.0,0.0,-0.15022972085693126,-0.6479555753507363,-1.037911290208869,-0.8136286642838972,-0.018249745836359684,0.02424167123021668,-1.013796444453919
15074,6.0,300.12806,8358.0692,0.0,0.0,0.0,0.0,0.0,-0.15023968766651508,-0.6227178964974713,-1.053045801652529,-0.8648806477945742,0.02925098822034777,-0.009109094587622641,-1.0011756950508481
15075,6.0,301.47283,8419.2804,0.0,0.0,0.0,0.0,0.0,-0.1502496544760989,-0.6546916721480374,-1.063197351754409,-0.8413619376034582,0.0025052306773970176,-0.0003783872864789176,-1.0244931231095988
15076,6.0,301.18797,8388.0847,0.0,0.0,0.0,0.0,0.0,-0.15025962128568265,-0.6366956512294684,-1.062501147610699,-0.8505714994848711,-0.012687426325901488,-0.012626693128157588,-1.0007086779472572
15077,6.0,301.50639,8207.0441,0.0,0.0,0.0,0.0,0.0,-0.15026958809526658,-0.6415446507755275,-1.0452161141547989,-0.8079757521084983,-0.02142417733965168,-0.0034329683458075963,-1.017939421462799
15078,6.0,300.40727999999996,8311.2705,0.0,0.0,0.0,0.0,0.0,-0.15027955490485034,-0.6183196513908984,-1.060434928006779,-0.8476641100454342,-0.02037912435876298,-0.011496748027390688,-0.980808699295782
15079,6.0,301.02283,8775.2983,0.0,0.0,0.0,0.0,0.0,-0.15028952171443416,-0.7145075543114053,-1.0920697107038888,-0.8608943395161562,0.0016851592420872683,0.011981071442689688,-0.978316114182283
15080,6.0,300.40148,8590.1891,0.0,0.0,0.0,0.0,0.0,-0.15029948852401798,-0.6623672443055574,-1.072047382102839,-0.8767883528372732,0.012350804377679488,0.01055913603410559,-0.97470151670305
15081,6.0,300.30189,8320.405999999999,0.0,0.0,0.0,0.0,0.0,-0.15030945533360185,-0.6600837534826944,-1.0518147027810292,-0.8172971970659533,0.024393869501237477,0.019252028517277284,-0.983197547864043
15082,6.0,299.23453,8533.8615,0.0,0.0,0.0,0.0,0.0,-0.15031942214318567,-0.6514763965332144,-1.0670109211557792,-0.8755934573918461,0.015220581973404486,-0.018248456982232483,-0.981706773256915
15083,6.0,300.16084,8617.6029,0.0,0.0,0.0,0.0,0.0,-0.15032938895276943,-0.7056421428264573,-1.0651669072987888,-0.8487271005928433,0.010491569477687292,-0.006839134301295003,-0.990778604052235
15084,6.0,300.61931,8424.2915,0.0,0.0,0.0,0.0,0.0,-0.15033935576235324,-0.6551808591638164,-1.046044750086579,-0.8595486420583461,-0.016067315565220588,0.012437409903476788,-1.0249352041282291
15085,6.0,299.98741,8155.6789,0.0,0.0,0.0,0.0,0.0,-0.15034932257193712,-0.6486062237699504,-1.009312701303908,-0.8212038233565072,-0.002411019189724068,0.01926740864054518,-0.9909438651435452
15086,6.0,299.58162999999996,8109.9827,0.0,0.0,0.0,0.0,0.0,-0.15035928938152093,-0.5981180281846534,-1.0352530285715191,-0.8318612081733092,-0.03687148415543217,0.005489366212533265,-1.009092481527174
15087,6.0,299.46696000000003,8304.5089,0.0,0.0,0.0,0.0,0.0,-0.15036925619110475,-0.6334424699284045,-1.042000564962449,-0.8489203172544122,0.014359510892673384,-0.00018514219311211182,-0.9896290616812842
15088,6.0,298.43716,8531.9904,0.0,0.0,0.0,0.0,0.0,-0.15037922300068857,-0.6598332577929724,-1.0967990555456388,-0.8368797143285972,-0.007005163436180803,-0.004296668405248155,-1.000350463639404
15089,6.0,299.44007999999997,8564.4995,0.0,0.0,0.0,0.0,0.0,-0.15038918981027238,-0.6721623431547584,-1.091317372504639,-0.8399143071855882,0.021698772169752082,0.001977498209263878,-0.9936656575621651
15090,6.0,300.19203999999996,8286.4492,0.0,0.0,0.0,0.0,0.0,-0.1503991566198562,-0.6185463559682725,-1.060566650519779,-0.8397606275429211,-0.0022682542771342677,-0.032918472288550264,-0.9905430740664901
15091,6.0,300.58656,8454.3785,0.0,0.0,0.0,0.0,0.0,-0.15040912342944002,-0.6403830912583904,-1.092890645934909,-0.8366462311080543,0.03684839623865357,0.005232623227994705,-1.009783507962873
15092,6.0,299.97013,8700.5702,0.0,0.0,0.0,0.0,0.0,-0.15041909023902383,-0.6501174254990943,-1.0969476993353091,-0.8976909829927021,0.014958541312043086,0.014125609199839089,-0.9943060012278621
15093,6.0,300.53803999999997,8289.351999999999,0.0,0.0,0.0,0.0,0.0,-0.1504290570486077,-0.6379561748838725,-1.048972434925519,-0.8328273826736633,0.02698777658498618,0.014446829746541087,-1.022650021177699
15094,6.0,300.35397,8023.5002,0.0,0.0,0.0,0.0,0.0,-0.15043902385819147,-0.5974846759446465,-1.0321988901200991,-0.8092601378027573,-0.024274030385410275,-0.02257305096553668,-0.9976814007559881
15095,6.0,301.03974,8369.2317,0.0,0.0,0.0,0.0,0.0,-0.15044899066777534,-0.6613704189896783,-1.050974617123119,-0.8316924716341562,-0.033873638839817866,0.006040433627819385,-1.0137307858474391
15096,6.0,300.20299,8375.3947,0.0,0.0,0.0,0.0,0.0,-0.1504589574773591,-0.6449917681457313,-1.048006199630159,-0.8529129380809533,-0.019684483659957282,0.01059218014636679,-1.020831946523269
15097,6.0,299.20358,8396.3939,0.0,0.0,0.0,0.0,0.0,-0.15046892428694292,-0.6610360667216804,-1.050998631150489,-0.8402594505671512,-0.005135468856731315,0.005508516842073285,-0.991458717784357
15098,6.0,299.41865,8477.0644,0.0,0.0,0.0,0.0,0.0,-0.1504788910965268,-0.6336089570523353,-1.056312215999899,-0.8868946815871902,0.02098576327313358,-0.023613722652992976,-0.991339904077631
15099,6.0,299.00586,8551.8785,0.0,0.0,0.0,0.0,0.0,-0.15048885790611055,-0.6812319042698544,-1.0709660415961189,-0.8473595169328731,0.009702103160323031,-0.0017745452274839785,-0.9633952262572061
15100,6.0,299.72424,8524.1268,0.0,0.0,0.0,0.0,0.0,-0.15049882471569442,-0.6649960203649973,-1.063259362660529,-0.8628662964632732,0.038622914311034866,0.026035273868231474,-0.9873704866783801
15101,6.0,300.32007999999996,8586.431,0.0,0.0,0.0,0.0,0.0,-0.15050879152527824,-0.7137014023993443,-1.053317555329349,-0.8430416124267293,-0.016065799743070985,-0.001257051246311299,-0.9616402973490081
15102,6.0,299.82263,8467.8361,0.0,0.0,0.0,0.0,0.0,-0.1505187583348621,-0.6346827589783114,-1.065287889360729,-0.8740401044585423,0.009591527075585022,-0.012620659223812088,-0.979756560656944
15103,6.0,299.41515,8247.9599,0.0,0.0,0.0,0.0,0.0,-0.15052872514444587,-0.6427230707743283,-1.038416699358749,-0.8260341081732191,-0.02121645296315088,-0.012292539457179189,-0.986007888208902
15104,6.0,300.23489,8346.389000000001,0.0,0.0,0.0,0.0,0.0,-0.15053869195402964,-0.5876984430338205,-1.0876762582702888,-0.8617191656275602,0.009667767863459402,0.019823053717133082,-1.0222595145891589
15105,6.0,299.70314,8341.5575,0.0,0.0,0.0,0.0,0.0,-0.1505486587636135,-0.6641727850562504,-1.0509868774493292,-0.8204655794661482,-0.02153151700224528,0.019528331687046284,-1.0189942148168991
15106,6.0,300.4739,8233.2529,0.0,0.0,0.0,0.0,0.0,-0.15055862557319732,-0.6070990920360154,-1.0573858558058589,-0.8382183393007092,-0.00039143310443143963,0.012036773853687089,-1.018462765139449
15107,6.0,300.36866000000003,8245.8846,0.0,0.0,0.0,0.0,0.0,-0.1505685923827812,-0.6471340524346584,-1.0651674139238387,-0.7942416029655432,-0.03418780615257377,0.03008332251499277,-1.028242553779639
15108,6.0,299.95317,8413.0195,0.0,0.0,0.0,0.0,0.0,-0.15057855919236496,-0.6332003436845084,-1.057418989084129,-0.8667284816044412,-0.01845605774222108,0.038656805500379664,-0.9918522235931931
15109,6.0,298.94657,8384.634,0.0,0.0,0.0,0.0,0.0,-0.15058852600194883,-0.6537821180632714,-1.0610631430687791,-0.8338741510869713,-0.02354756451421368,-0.004326802564547165,-1.012177797684171
15110,6.0,299.40282,8457.9869,0.0,0.0,0.0,0.0,0.0,-0.15059849281153265,-0.6283056870889434,-1.081969937682119,-0.8607411664985392,0.0007912430108846052,-0.018017886855726983,-0.987757943384119
15111,6.0,298.93388,8500.0949,0.0,0.0,0.0,0.0,0.0,-0.1506084596211164,-0.6890561911445514,-1.044186550728189,-0.8505739110201093,0.01225568349804179,-0.014581066133039186,-0.989932276773709
15112,6.0,298.93782999999996,8424.9962,0.0,0.0,0.0,0.0,0.0,-0.15061842643070028,-0.6604221790160943,-1.075873414480439,-0.8246928994133522,0.01300517851751119,-0.004741448722144555,-1.003230637181155
15113,6.0,300.60497999999995,8387.5868,0.0,0.0,0.0,0.0,0.0,-0.15062839324028404,-0.6698633800028684,-1.034524805724649,-0.8452287532975833,-0.0005061745488730386,-0.01649443493287398,-0.991003201069401
15114,6.0,301.1279,8438.7027,0.0,0.0,0.0,0.0,0.0,-0.15063836004986791,-0.6522763574871644,-1.067676018521419,-0.8452025101199933,0.014207762504696986,-0.03796186893254476,-0.9898437997749769
15115,6.0,299.71286000000003,8395.1149,0.0,0.0,0.0,0.0,0.0,-0.15064832685945173,-0.6705932645799024,-1.041736815961419,-0.8395752331721241,0.037989459732767766,-0.016043037079574485,-0.984575993565085
15116,6.0,300.35331,8528.2495,0.0,0.0,0.0,0.0,0.0,-0.1506582936690355,-0.6536681172945205,-1.0643571178188689,-0.8743496726290941,0.0060042856265268545,0.009570803071289722,-1.013157448410855
15117,6.0,300.08187000000004,8639.0822,0.0,0.0,0.0,0.0,0.0,-0.15066826047861936,-0.7235928512005544,-1.064913898748819,-0.8375585007030882,0.004786413721832255,-0.01922740147359678,-0.9844761073702272
15118,6.0,300.14312,8406.5927,0.0,0.0,0.0,0.0,0.0,-0.15067822728820318,-0.6489887256827004,-1.045548257537579,-0.8608573153575021,-0.04200447946601936,-0.0007210146160561024,-1.001555815825863
15119,6.0,301.13117,8252.8565,0.0,0.0,0.0,0.0,0.0,-0.150688194097787,-0.6591115805417483,-1.044113495395979,-0.8054371755729602,-0.009225680157378742,0.01083659228248839,-0.9911988292662081
15120,6.0,300.42725,8423.4867,0.0,0.0,0.0,0.0,0.0,-0.15069816090737082,-0.6255197052764884,-1.069526010553999,-0.8654838761091083,-0.03160613609028277,0.02087596445254728,-1.011783258360233
15121,6.0,300.27013,8674.0224,0.0,0.0,0.0,0.0,0.0,-0.1507081277169547,-0.6830462298989143,-1.078432276282979,-0.8752077536087801,-0.0037162745936427464,-0.017969869946738083,-0.9700424610207371
15122,6.0,300.22778999999997,8469.1056,0.0,0.0,0.0,0.0,0.0,-0.1507180945265385,-0.6240851660499104,-1.083229002256379,-0.8670824909243792,-0.0018148362057853885,-0.03974555793158117,-1.006782301696677
15123,6.0,299.16864,8397.3834,0.0,0.0,0.0,0.0,0.0,-0.15072806133612227,-0.6559840726505873,-1.0576481862567488,-0.8389626322941652,0.04369702763181086,0.005570933149558296,-0.976109093344467
15124,6.0,299.62119,8617.745,0.0,0.0,0.0,0.0,0.0,-0.15073802814570608,-0.6542174609687363,-1.0909039664638387,-0.8744578472097702,0.022503548088177276,0.027654372547524075,-1.004687761752462
15125,6.0,299.59285,8518.7135,0.0,0.0,0.0,0.0,0.0,-0.1507479949552899,-0.6739780164064514,-1.068282347381259,-0.8472158482011942,0.016017735211327384,-0.00859320042703285,-0.9878200758802511
15126,6.0,299.72123999999997,8417.9139,0.0,0.0,0.0,0.0,0.0,-0.15075796176487377,-0.6525156770282834,-1.060335122871929,-0.8459848709197062,-0.017242852867487085,-0.016848957970612685,-0.9818484357533961
15127,6.0,301.0914,8338.7286,0.0,0.0,0.0,0.0,0.0,-0.1507679285744576,-0.6456157072923093,-1.039401173155909,-0.8497484060311382,-0.002014517200342368,-0.030100005677889268,-0.9816903282077921
15128,6.0,300.56356,8203.8365,0.0,0.0,0.0,0.0,0.0,-0.1507778953840414,-0.6424799414128334,-1.033308804279639,-0.8179727410401242,-0.007077237942294003,-0.03146650617350237,-0.998815683580433
15129,6.0,301.41401,8491.5413,0.0,0.0,0.0,0.0,0.0,-0.15078786219362522,-0.6768528399876743,-1.0599858555624588,-0.8443777853335993,-0.024663758797873477,-0.016321165112773584,-0.9780162732126911
15130,6.0,300.84317000000004,8770.7316,0.0,0.0,0.0,0.0,0.0,-0.1507978290032091,-0.7096071525877733,-1.085913608396329,-0.8705627010428492,-0.010872322520764689,0.0014333614246617586,-0.9815560016420352
15131,6.0,299.46058999999997,8565.5449,0.0,0.0,0.0,0.0,0.0,-0.15080779581279286,-0.6910107911174553,-1.050228155774449,-0.8624728615819441,-0.031203297234775672,0.03499945494642727,-0.9791437571289651
15132,6.0,299.88187999999997,8343.5864,0.0,0.0,0.0,0.0,0.0,-0.15081776262237667,-0.6436538625811904,-1.049163533894379,-0.8434244791095152,0.006040492193675164,0.04498500833742466,-0.987885471041705
15133,6.0,300.54186,8540.2393,0.0,0.0,0.0,0.0,0.0,-0.1508277294319605,-0.6575204637772174,-1.071249548974099,-0.8672494948058611,-0.0033606636292716763,-0.0037431878335238765,-0.974978073185344
15134,6.0,300.81757999999996,8677.4414,0.0,0.0,0.0,0.0,0.0,-0.1508376962415443,-0.6756703872534754,-1.075693967887729,-0.8863611952770392,0.02579850974386468,-0.009695692124290311,-0.9640588848077042
15135,6.0,300.9246,8487.1854,0.0,0.0,0.0,0.0,0.0,-0.15084766305112818,-0.6529940931954994,-1.070575129707539,-0.8563232136775213,0.017645409026216283,-0.009403341403412542,-0.98484303562894
15136,6.0,299.76993,8300.3207,0.0,0.0,0.0,0.0,0.0,-0.15085762986071194,-0.6388925800962884,-1.038769918343609,-0.8454277758822251,0.02018523692562778,0.006665123694046494,-0.988523393039663
15137,6.0,299.9606,8431.9205,0.0,0.0,0.0,0.0,0.0,-0.15086759667029576,-0.6657859704079593,-1.061837671445219,-0.8354696045619302,-0.022464264381800277,0.002188685266656418,-0.9714618217608171
15138,6.0,299.38482999999997,8560.8291,0.0,0.0,0.0,0.0,0.0,-0.15087756347987963,-0.6492664271376074,-1.0912212150701488,-0.8617906402896142,-0.008458509192564863,-0.0006885956081790953,-0.989748098303032
15139,6.0,299.30233,8704.8379,0.0,0.0,0.0,0.0,0.0,-0.1508875302894634,-0.6881502037001374,-1.0861815117227689,-0.8717216869047322,-0.033921299084771574,0.008647315581748602,-0.9781233636157601
15140,6.0,299.06551,8520.1177,0.0,0.0,0.0,0.0,0.0,-0.15089749709904726,-0.6731743672221374,-1.080944832555949,-0.8357838539479442,-0.010686918017466688,0.01127430720643749,-1.020776724392819
15141,6.0,299.25311,8148.7298,0.0,0.0,0.0,0.0,0.0,-0.15090746390863102,-0.6361975577453104,-1.0239358355545989,-0.8168769515869783,-0.03728647289288836,-0.0061833762644767235,-0.9993040397311301
15142,6.0,299.88979,8356.2161,0.0,0.0,0.0,0.0,0.0,-0.15091743071821495,-0.6414752836736813,-1.0706465638395888,-0.8279592023032113,-0.006013722227358175,-0.004503483795084246,-0.983276824551867
15143,6.0,300.06793999999996,8665.603000000001,0.0,0.0,0.0,0.0,0.0,-0.1509273975277987,-0.6888036182921243,-1.060001560939009,-0.8853217830594571,-0.011756604121536488,0.009708344578289011,-0.9657793226824981
15144,6.0,299.87246,8584.8394,0.0,0.0,0.0,0.0,0.0,-0.15093736433738247,-0.6611567650735923,-1.066602074740429,-0.8818180250086632,0.018095447097881585,0.01948201095872478,-0.9896187670602681
15145,6.0,299.96479,8294.9691,0.0,0.0,0.0,0.0,0.0,-0.15094733114696635,-0.6483697514616124,-1.054243767245759,-0.8188499623141993,0.0017204529722204883,-0.0016837094838441883,-1.001315300649626
15146,6.0,299.5334,8302.4816,0.0,0.0,0.0,0.0,0.0,-0.15095729795655016,-0.6488987288088184,-1.046555428136979,-0.8282928959586442,0.044145154713787556,-0.012310624958214089,-0.9868781484547902
15147,6.0,299.55804,8544.289,0.0,0.0,0.0,0.0,0.0,-0.15096726476613404,-0.6859844018763893,-1.076098356002639,-0.8351676864296332,0.025839041774364874,-0.025590493551335077,-1.019166973958949
15148,6.0,300.11455,8612.886999999999,0.0,0.0,0.0,0.0,0.0,-0.1509772315757178,-0.6768437207367743,-1.0790832894722289,-0.8621755841351051,0.02191626022421648,-0.029123245753740572,-0.9860162373897261
15149,6.0,298.97802,8358.3048,0.0,0.0,0.0,0.0,0.0,-0.15098719838530156,-0.6662603943697814,-1.038502521642219,-0.8359530363171412,-0.02393130563183598,-0.01206708725692879,-1.002279316927267
15150,6.0,300.12079,8150.9555,0.0,0.0,0.0,0.0,0.0,-0.15099716519488549,-0.6214178966191714,-1.038001976092819,-0.8182670293991683,-0.03427804620647977,-0.008477053290595022,-0.969275734670067
15151,6.0,300.62323,8319.3544,0.0,0.0,0.0,0.0,0.0,-0.15100713200446925,-0.6607352631644934,-1.0297855310319188,-0.8383552496542213,-0.005187735741939655,0.02051000080792948,-0.9954106059568781
15152,6.0,300.13349,8674.0499,0.0,0.0,0.0,0.0,0.0,-0.15101709881405312,-0.6847921408812223,-1.074570374851839,-0.8773321033709373,-0.002220251350996748,0.01158762946860999,-1.003873665959617
15153,6.0,300.26328,8741.1366,0.0,0.0,0.0,0.0,0.0,-0.15102706562363688,-0.7079931667684853,-1.0730890032056388,-0.8760051206424742,0.034474147591083464,0.005843618205870214,-0.9776858523550811
15154,6.0,299.86908999999997,8365.5779,0.0,0.0,0.0,0.0,0.0,-0.15103703243322075,-0.6277223995363774,-1.050035739580459,-0.8651687046655032,-0.001798142606412858,-0.009537168639520262,-0.9960415669266491
15155,6.0,299.73217,8289.3212,0.0,0.0,0.0,0.0,0.0,-0.15104699924280457,-0.6347584588932824,-1.0349979935213491,-0.8499902485650063,0.02993065105617527,0.0027974020530070875,-0.9625300727918221
15156,6.0,301.18227,8601.131,0.0,0.0,0.0,0.0,0.0,-0.15105696605238833,-0.6615348694809083,-1.0739413491897591,-0.8790528553532623,-0.005673099663766344,-0.008109973956292113,-1.009282344330912
15157,6.0,300.1368,8602.3795,0.0,0.0,0.0,0.0,0.0,-0.1510669328619722,-0.6925473038340973,-1.062071630893309,-0.8602896419889773,0.0012916424901501888,-0.012879906354647789,-0.9657456827791782
15158,6.0,298.89956,8304.9566,0.0,0.0,0.0,0.0,0.0,-0.15107689967155602,-0.6492463242556233,-1.046706301076869,-0.8285467657711992,-0.004512981089596556,-0.014018262444494787,-1.004406676042221
15159,6.0,299.28152,8315.1432,0.0,0.0,0.0,0.0,0.0,-0.15108686648113984,-0.6728041762981024,-1.043876293547569,-0.8109154540936242,0.013184749739983487,-0.012599268500950988,-0.975971078548346
15160,6.0,299.03475,8544.1839,0.0,0.0,0.0,0.0,0.0,-0.15109683329072365,-0.6577264068600424,-1.064801326662709,-0.8746908440702651,0.0015225493196639186,-0.019371664983084482,-1.005479150610566
15161,6.0,299.431,8651.7476,0.0,0.0,0.0,0.0,0.0,-0.15110680010030741,-0.6872903900627804,-1.0592529717651291,-0.8833718440370132,0.007485956890781424,-0.014400768410245185,-0.9622984539514631
15162,6.0,300.50626,8547.5377,0.0,0.0,0.0,0.0,0.0,-0.15111676690989134,-0.6692789576101904,-1.064346782667849,-0.8646122986380902,0.010308817663151091,0.013245304605709787,-0.962905573146381
15163,6.0,300.24743,8275.2601,0.0,0.0,0.0,0.0,0.0,-0.1511267337194751,-0.6492852735894673,-1.019162009033459,-0.8470251342673722,-0.011448389653118089,0.023490953217876576,-0.981163934648341
15164,6.0,300.49556,8290.6538,0.0,0.0,0.0,0.0,0.0,-0.15113670052905892,-0.6430120699678504,-1.065292854286219,-0.8118467626580372,0.014479769494041986,0.018298324085903983,-1.018622554680219
15165,6.0,300.85423,8679.0229,0.0,0.0,0.0,0.0,0.0,-0.15114666733864274,-0.6662910046553024,-1.095001651193249,-0.8769136006821342,-0.007229294966250864,0.015989502010540984,-1.005334387568779
15166,6.0,300.66315,8676.8928,0.0,0.0,0.0,0.0,0.0,-0.1511566341482266,-0.6856232390107453,-1.086422259946529,-0.8655132603620082,0.021161890458515978,0.018911320131401982,-1.003393253689704
15167,6.0,299.66427999999996,8358.4263,0.0,0.0,0.0,0.0,0.0,-0.15116660095781043,-0.6289816667606575,-1.064786431886239,-0.8469848170458932,-0.02088700786538718,0.023138416150333876,-0.983527583686615
15168,6.0,300.13399,8323.8211,0.0,0.0,0.0,0.0,0.0,-0.15117656776739424,-0.6554899409743203,-1.056735754541699,-0.8180080832036122,-0.008292193713200802,-0.015613025896135686,-0.993271533670768
15169,6.0,299.42592,8531.9881,0.0,0.0,0.0,0.0,0.0,-0.151186534576978,-0.6921385992737613,-1.066327382638319,-0.8350453972750641,-0.005247572314670065,-0.02365730253979398,-0.973212393693585
15170,6.0,299.17214,8551.0892,0.0,0.0,0.0,0.0,0.0,-0.15119650138656193,-0.6768521813751093,-1.0856211844174688,-0.8368442404425963,0.026495791985681076,-0.01124144446594419,-1.002281181307451
15171,6.0,299.35138,8418.9417,0.0,0.0,0.0,0.0,0.0,-0.1512064681961457,-0.6561253095820263,-1.049163432569369,-0.8538593035418521,0.01940894549401378,-0.0033837512420752465,-0.991697905602963
15172,6.0,300.05371,8383.3852,0.0,0.0,0.0,0.0,0.0,-0.1512164350057295,-0.6417451932353193,-1.0709492216444592,-0.8356453325267732,-0.006928547340469384,0.014026142490522486,-1.032258469225979
15173,6.0,299.78716000000003,8312.7523,0.0,0.0,0.0,0.0,0.0,-0.15122640181531333,-0.6382842348687494,-1.039256075741589,-0.8493288090322272,-0.042330157299911256,0.029131964770851074,-0.984727038757492
15174,6.0,300.58223,8513.4414,0.0,0.0,0.0,0.0,0.0,-0.15123636862489714,-0.6466917991635114,-1.0695504298814091,-0.8716313860558201,-0.00938335788229032,0.021383597686396777,-0.994116330941643
15175,6.0,300.52072999999996,8790.4398,0.0,0.0,0.0,0.0,0.0,-0.15124633543448102,-0.7093010193350603,-1.086663717445359,-0.8761095056677762,-0.017246260427573382,-0.0005755403233614073,-0.9725501536932271
15176,6.0,300.44248999999996,8673.9596,0.0,0.0,0.0,0.0,0.0,-0.15125630224406478,-0.6603989249262994,-1.096751027490899,-0.8795171974765891,-0.006670252563402674,-0.00027351738047406374,-1.007958938375302
15177,6.0,300.01209,8479.8618,0.0,0.0,0.0,0.0,0.0,-0.1512662690536486,-0.6681589818771574,-1.058631140178759,-0.8508761736574402,0.007720969105725322,0.014054787070849485,-1.00714213720469
15178,6.0,300.14473,8685.7249,0.0,0.0,0.0,0.0,0.0,-0.15127623586323247,-0.6687654728570134,-1.092159585987759,-0.8793184484694742,0.028574684308601772,0.02942823200734037,-0.992656034897523
15179,6.0,299.90965,8613.0496,0.0,0.0,0.0,0.0,0.0,-0.15128620267281623,-0.6860442140297923,-1.0606515608781588,-0.8714562255110332,0.008719613306858831,0.007433102827140133,-0.9832953872936991
15180,6.0,301.0729,8488.7462,0.0,0.0,0.0,0.0,0.0,-0.1512961694824001,-0.6808628076559274,-1.065320009388899,-0.8341840536300562,-0.011387864171644687,-0.023541564047121478,-0.983133013965174
15181,6.0,299.97794,8402.8777,0.0,0.0,0.0,0.0,0.0,-0.15130613629198386,-0.6729946774494034,-1.053821849904119,-0.8274484533253041,-0.03250724068246487,-0.0021076412680079977,-0.9817242518211401
15182,6.0,299.30098,8405.2085,0.0,0.0,0.0,0.0,0.0,-0.1513161031015678,-0.6461623253237564,-1.0673271565119888,-0.8414840038430053,0.0013562941286808087,-0.013526637548975188,-0.989741167672348
15183,6.0,298.98005,8618.2556,0.0,0.0,0.0,0.0,0.0,-0.15132606991115155,-0.6560267406122984,-1.092276616374309,-0.8714311374385572,0.025942799597854976,0.0006029826824447575,-1.016950692015219
15184,6.0,299.27738999999997,8719.972,0.0,0.0,0.0,0.0,0.0,-0.1513360367207353,-0.6692425008715924,-1.0807400547107389,-0.9006711947168261,-0.023778297773985275,0.016115522965228286,-1.009816418326121
15185,6.0,300.08942,8571.8561,0.0,0.0,0.0,0.0,0.0,-0.15134600353031918,-0.6770068236053713,-1.0790344508174092,-0.8495888799353942,-0.0012396133134153088,0.03955288639856596,-1.013883887937549
15186,6.0,300.80258,8195.5706,0.0,0.0,0.0,0.0,0.0,-0.151355970339903,-0.6537301383331413,-1.029180519397209,-0.8083382220667712,-0.05474210828137545,0.028515851968045472,-0.9909606546977021
15187,6.0,300.33315,8278.3068,0.0,0.0,0.0,0.0,0.0,-0.15136593714948687,-0.6615717112545444,-1.0501104161128292,-0.8047164811743333,0.0037599239894006062,-0.012956498942956887,-0.9892266798015721
15188,6.0,300.16577,8584.0427,0.0,0.0,0.0,0.0,0.0,-0.15137590395907063,-0.6743238791955853,-1.0674616148002591,-0.8675491533904353,-0.017353671017673985,-0.03488210437284567,-1.010956800916168
15189,6.0,300.54076000000003,8511.6975,0.0,0.0,0.0,0.0,0.0,-0.1513858707686544,-0.6671813272531704,-1.058055310146929,-0.8621068959108262,0.025860665544748973,-0.0022917883279318977,-1.007846710794226
15190,6.0,300.04093,8228.9915,0.0,0.0,0.0,0.0,0.0,-0.15139583757823832,-0.6109833660293634,-1.075181162012119,-0.8152433999082592,0.007380133252987442,-0.004632355630252906,-1.039047751521029
15191,6.0,300.09324,8358.082,0.0,0.0,0.0,0.0,0.0,-0.15140580438782208,-0.6658194380587623,-1.0557917094235292,-0.8190370994751682,-0.0015755835391729883,-0.013859138609040488,-0.9976241014628331
15192,6.0,298.99249,8629.7008,0.0,0.0,0.0,0.0,0.0,-0.15141577119740596,-0.6976142636091673,-1.102219132980559,-0.8233801224512912,-0.0017913212040896384,-0.02295783167776158,-1.030872039114149
15193,6.0,299.18527,8528.7391,0.0,0.0,0.0,0.0,0.0,-0.15142573800698972,-0.7002762844043884,-1.041659302328769,-0.8505881269190121,0.008054410056583384,-0.007434639015616742,-0.973214480988791
15194,6.0,298.59334,8525.7067,0.0,0.0,0.0,0.0,0.0,-0.1514357048165736,-0.6503037317949814,-1.071123095361619,-0.8701750923495952,-0.013875674850672487,0.01094811869449519,-0.989072463136352
15195,6.0,300.77645,8525.0801,0.0,0.0,0.0,0.0,0.0,-0.1514456716261574,-0.6294766090370044,-1.067661934345029,-0.8942729459003681,0.008248924894180502,-0.007923711331484423,-0.965705193305182
15196,6.0,299.84092999999996,8486.0323,0.0,0.0,0.0,0.0,0.0,-0.15145563843574117,-0.6411026305519034,-1.0518454042590588,-0.8865938476325,0.0034286566626570672,0.01073747919745669,-1.00636689955318
15197,6.0,299.45534,8723.6599,0.0,0.0,0.0,0.0,0.0,-0.15146560524532504,-0.6934952904951563,-1.081641745974729,-0.876637702812405,-0.016013526170411987,0.026661937644328372,-0.980248361857981
15198,6.0,300.40724,8644.9317,0.0,0.0,0.0,0.0,0.0,-0.15147557205490886,-0.7468686853427002,-1.049969878323959,-0.8310048193212902,0.004261229780350636,0.009299679028081861,-0.9828436297366141
15199,6.0,300.70847000000003,8282.8681,0.0,0.0,0.0,0.0,0.0,-0.15148553886449267,-0.6575342237135754,-1.0356649147371688,-0.8245859508652973,-0.015254817667783287,-0.013933194019099187,-0.982245021842536
15200,6.0,300.50412,8301.4812,0.0,0.0,0.0,0.0,0.0,-0.1514955056740765,-0.6366784867727744,-1.062568832717379,-0.8241956874567813,0.02159269400353298,-0.0076816926947490425,-1.0069744848431441
15201,6.0,300.70538,8667.3655,0.0,0.0,0.0,0.0,0.0,-0.15150547248366025,-0.6512851354443384,-1.092076195504529,-0.8913013062720901,0.02768896287943787,-0.005186979654715034,-0.9834714800285782
15202,6.0,299.96387999999996,8558.5763,0.0,0.0,0.0,0.0,0.0,-0.15151543929324413,-0.6622623931852093,-1.0742428924195189,-0.8650881918125573,0.016412429562530684,0.013775187798505185,-1.002599524223869
15203,6.0,299.60348,8459.6341,0.0,0.0,0.0,0.0,0.0,-0.15152540610282794,-0.6485760086519684,-1.063561919140389,-0.8593796623391692,-0.033028429176152174,-0.008386340859492403,-0.998636652420264
15204,6.0,299.58517,8430.4118,0.0,0.0,0.0,0.0,0.0,-0.15153537291241176,-0.6828039719325054,-1.049050455183219,-0.8307802830991302,-0.02345668611274468,0.006679483271813674,-1.0012242195981371
15205,6.0,299.01108,8339.6008,0.0,0.0,0.0,0.0,0.0,-0.15154533972199558,-0.6352627230705494,-1.070635519413499,-0.8291321203539692,-0.00941792308560164,0.018168172110558982,-0.983873284355733
15206,6.0,298.81215,8539.039,0.0,0.0,0.0,0.0,0.0,-0.15155530653157945,-0.6609983434204574,-1.063484709482769,-0.8711716136904442,0.018671941821777182,0.006731035511726484,-0.9828576733830001
15207,6.0,298.74802,8754.1284,0.0,0.0,0.0,0.0,0.0,-0.15156527334116326,-0.6805400773665763,-1.0830153078102889,-0.8974810679694851,0.0059354362954819545,0.006058554997907824,-0.976811832951322
15208,6.0,298.06795,8526.4443,0.0,0.0,0.0,0.0,0.0,-0.15157524015074708,-0.6549554819440734,-1.0937995312746092,-0.8430711790646471,0.009116745537802732,0.005837362906377865,-1.043373214872919
15209,6.0,299.42327,8370.8227,0.0,0.0,0.0,0.0,0.0,-0.15158520696033084,-0.6819472284429513,-1.0491248277405592,-0.8134490454386702,-0.017930637916116182,0.02119179856171768,-1.003384134438804
15210,6.0,299.21591,8690.4425,0.0,0.0,0.0,0.0,0.0,-0.15159517376991466,-0.7180588033943863,-1.102389460322369,-0.8212292964640212,-0.017196968849958683,0.0026214042596624573,-1.0179668805405089
15211,6.0,300.27567,8783.1899,0.0,0.0,0.0,0.0,0.0,-0.15160514057949853,-0.7126374593968413,-1.086536149257769,-0.8706967641635801,0.0018912825821050582,-0.016431241563887287,-0.9830269165472031
15212,6.0,299.86635,8495.0742,0.0,0.0,0.0,0.0,0.0,-0.15161510738908235,-0.6653427748142193,-1.0602707814905792,-0.8566768886249263,-0.01041903799577899,-0.03083465455689347,-1.004604168619212
15213,6.0,299.75784,8392.944,0.0,0.0,0.0,0.0,0.0,-0.15162507419866617,-0.6186485118433545,-1.078319298896829,-0.8542776238456372,0.014898687615385986,-0.003765554721531316,-0.997353877793664
15214,6.0,299.33783999999997,8475.3822,0.0,0.0,0.0,0.0,0.0,-0.15163504100824998,-0.6577700982043543,-1.0429517028313189,-0.8755827473382891,0.03456734228228107,-0.014532091702705786,-0.9734545199374811
15215,6.0,300.74582000000004,8568.6905,0.0,0.0,0.0,0.0,0.0,-0.15164500781783385,-0.6846218945994204,-1.062363041622069,-0.8576830155767231,0.01803367329228498,-0.01174569243120959,-1.0006054784245721
15216,6.0,299.73812000000004,8473.9009,0.0,0.0,0.0,0.0,0.0,-0.15165497462741762,-0.6713190252290294,-1.0661806640238387,-0.8383546315716602,0.009303012418260842,-0.007879194593640962,-0.997919413204478
15217,6.0,299.99835,8537.4126,0.0,0.0,0.0,0.0,0.0,-0.15166494143700143,-0.6700843495846763,-1.065933228349419,-0.8591426935382821,0.0067231582014740535,0.014897394708258384,-0.998549158274129
15218,6.0,298.6376,8440.4245,0.0,0.0,0.0,0.0,0.0,-0.1516749082465853,-0.6575855448311404,-1.0768538352771988,-0.8312389611543981,0.016548612402470884,0.012289961748924789,-0.993249039518548
15219,6.0,299.17498,8631.2248,0.0,0.0,0.0,0.0,0.0,-0.15168487505616907,-0.6552472878403723,-1.089818066331669,-0.8786114126821952,6.052552200340394e-05,-0.0016981773780470584,-1.000944562570537
15220,6.0,299.51585,8814.299,0.0,0.0,0.0,0.0,0.0,-0.15169484186575294,-0.7046492894509703,-1.102477207781029,-0.8722003361194712,-0.012989231987437387,-0.0017193702131636283,-1.0013203972976292
15221,6.0,299.59259,8392.2812,0.0,0.0,0.0,0.0,0.0,-0.1517048086753367,-0.6628146448872124,-1.070247140650169,-0.8179821136035492,-0.036611597663783364,0.01321781310399659,-0.984278776913252
15222,6.0,298.95945,8153.1649,0.0,0.0,0.0,0.0,0.0,-0.15171477548492052,-0.6235477381968704,-1.032179233068159,-0.8226316346024212,-0.021194788662762778,-0.004526213831927526,-1.000141977298828
15223,6.0,300.89786000000004,8514.2296,0.0,0.0,0.0,0.0,0.0,-0.1517247422945044,-0.6625784157588984,-1.055167040736879,-0.8703677314586072,0.02208729076159588,-0.005286441399106145,-0.9766770504230201
15224,6.0,300.22719,8581.3257,0.0,0.0,0.0,0.0,0.0,-0.15173470910408815,-0.6598888852234623,-1.065751552606489,-0.8828683397973212,0.012037008927710289,-0.01082458222905309,-1.003797459419596
15225,6.0,299.61649,8432.1538,0.0,0.0,0.0,0.0,0.0,-0.15174467591367202,-0.6090198899855834,-1.059506284290129,-0.8946380300438991,0.024707378201428376,0.004838030809751466,-0.993564758117207
15226,6.0,300.06175,8482.451,0.0,0.0,0.0,0.0,0.0,-0.15175464272325584,-0.6569178231477414,-1.074909813635339,-0.8466256401504452,-0.016219561458996085,-0.013627310025910788,-0.9922026156102741
15227,6.0,300.57052000000004,8493.248,0.0,0.0,0.0,0.0,0.0,-0.1517646095328397,-0.6676065275251344,-1.0729518091420989,-0.8411769890627052,0.004182537332534296,-0.00013776632693147787,-0.9853903224054531
15228,6.0,299.82502999999997,8559.6455,0.0,0.0,0.0,0.0,0.0,-0.15177457634242347,-0.6821983726127373,-1.0690283021048792,-0.8506917925367432,-0.015671961588202186,0.005581454637271684,-0.997085771817204
15229,6.0,300.85847,8627.4985,0.0,0.0,0.0,0.0,0.0,-0.15178454315200723,-0.6841334269912124,-1.080578643969809,-0.8578320444014312,0.01016471222067899,0.021341391766731378,-1.003438545969174
15230,6.0,298.60117,8422.2357,0.0,0.0,0.0,0.0,0.0,-0.1517945099615911,-0.6721579760468274,-1.030359739863589,-0.8576316235316511,-0.013262960488702288,0.013544923673529887,-0.9757687223708752
15231,6.0,298.92566,8190.7066,0.0,0.0,0.0,0.0,0.0,-0.15180447677117492,-0.6055572090938434,-1.047527337632899,-0.8366857579944551,0.008004301799388082,-0.0021264017962595175,-1.0096632757060071
15232,6.0,300.09965,8308.1098,0.0,0.0,0.0,0.0,0.0,-0.1518144435807588,-0.6725199799100544,-1.034482249220449,-0.8184556864352872,-0.004442330909148926,0.009496304668287301,-0.991596833905488
15233,6.0,299.81921,8751.1389,0.0,0.0,0.0,0.0,0.0,-0.15182441039034256,-0.6884110345408794,-1.0785664305962188,-0.893150264789568,-0.003521259311821237,-0.004819652682087686,-0.970039005837896
15234,6.0,298.93012999999996,8547.6661,0.0,0.0,0.0,0.0,0.0,-0.15183437719992643,-0.6687268882932054,-1.073982993768869,-0.8555671872479073,-0.012184319280248688,0.010818301091683188,-0.9969795122792171
15235,6.0,299.78819,8423.6464,0.0,0.0,0.0,0.0,0.0,-0.15184434400951025,-0.6456978210804134,-1.072125908985589,-0.8427544573483892,-0.00848535849636468,0.01083891870471799,-0.992389458928714
15236,6.0,299.18595,8589.7518,0.0,0.0,0.0,0.0,0.0,-0.151854310819094,-0.6700516013414444,-1.077813079146869,-0.8632053806092381,0.023512717830024576,-0.00044164795553725954,-1.0043084211800242
15237,6.0,300.05972,8646.4056,0.0,0.0,0.0,0.0,0.0,-0.15186427762867788,-0.6774655016606393,-1.0967033034111888,-0.8541225661828341,0.03483653040984786,0.0055944508870293145,-0.9947700089786561
15238,6.0,300.28494,8537.6036,0.0,0.0,0.0,0.0,0.0,-0.15187424443826164,-0.6976509533952884,-1.065672620423699,-0.8318947670166212,0.01136751709638659,0.01109884471312069,-0.9933908641350451
15239,6.0,300.82706,8483.3042,0.0,0.0,0.0,0.0,0.0,-0.1518842112478455,-0.6655006797098034,-1.066296579835279,-0.8469153688840393,0.0055041525712425645,-0.005708403729050585,-0.9768346412110731
15240,6.0,299.85317000000003,8348.7697,0.0,0.0,0.0,0.0,0.0,-0.15189417805742933,-0.6535802989083533,-1.039574945548059,-0.8446622654316752,-0.01706388858182468,-0.00938915367286232,-0.9826945806469042
15241,6.0,299.78583,8349.1609,0.0,0.0,0.0,0.0,0.0,-0.1519041448670131,-0.6452010650863873,-1.0328390615332792,-0.8598963084326582,-0.006812612074627464,-0.016561564778499183,-0.9866111266559371
15242,6.0,299.81182,8700.0432,0.0,0.0,0.0,0.0,0.0,-0.15191411167659696,-0.6745915089444983,-1.0940692584512288,-0.8759351455905682,-0.002019597231043728,-0.011324091223600789,-0.9816629299250882
15243,6.0,299.29036,8725.4283,0.0,0.0,0.0,0.0,0.0,-0.15192407848618078,-0.7107511626131783,-1.071203952719599,-0.8703571936575671,-0.022105272911120577,0.0027524557984462375,-1.010363897620153
15244,6.0,299.18339,8482.2053,0.0,0.0,0.0,0.0,0.0,-0.1519340452957646,-0.6943165195687053,-1.0741594006112791,-0.8099026599561692,-0.004012053747558877,-0.007584414099023392,-0.9901650405866811
15245,6.0,299.48941,8574.3011,0.0,0.0,0.0,0.0,0.0,-0.1519440121053484,-0.6541276566123734,-1.0982672549405388,-0.8539785630786223,-0.004740996812599956,-0.0067025750389426535,-1.006610981369769
15246,6.0,298.6552,8822.0118,0.0,0.0,0.0,0.0,0.0,-0.15195397891493223,-0.7233912144306542,-1.077715401837229,-0.8805646548999652,0.017173383427380985,0.012477607561443988,-0.9474907055325522
15247,6.0,299.19039,8624.9125,0.0,0.0,0.0,0.0,0.0,-0.1519639457245161,-0.6614201391720853,-1.093662337211069,-0.8666755798167202,0.013702725217603686,0.004105471049803446,-0.9904762603548961
15248,6.0,299.25901,8262.1942,0.0,0.0,0.0,0.0,0.0,-0.15197391253409992,-0.6539244695698204,-1.0426391151754688,-0.8149370944030293,0.02185825165599148,0.008329727941955143,-0.9940010838752691
15249,6.0,299.79901,8290.542,0.0,0.0,0.0,0.0,0.0,-0.15198387934368368,-0.6609289155236053,-1.033065725580649,-0.8261231221945042,0.003501078916204587,-0.01329647170925959,-1.008852675626007
15250,6.0,299.62453,8428.1327,0.0,0.0,0.0,0.0,0.0,-0.1519938461532675,-0.6878425404397733,-1.056458022689289,-0.8176413069324142,0.013400111995738088,-0.0023516796161677073,-1.010648073743199
15251,6.0,299.62156,8549.5175,0.0,0.0,0.0,0.0,0.0,-0.15200381296285137,-0.6531680581051683,-1.0848057207369888,-0.8608660394408632,-0.029595414220839972,-0.01040421313356589,-1.017859881329949
15252,6.0,300.12093,8610.8903,0.0,0.0,0.0,0.0,0.0,-0.1520137797724352,-0.6900185760895313,-1.063959315829609,-0.8635177149525632,-0.006421448393397614,-0.024576301128742078,-0.9729254108677621
15253,6.0,300.79387,8397.1155,0.0,0.0,0.0,0.0,0.0,-0.152023746582019,-0.6178549951600404,-1.079009828839979,-0.8556485613634381,-0.026376119042870273,-0.007201602233067803,-0.989402296308904
15254,6.0,299.91683,8341.39,0.0,0.0,0.0,0.0,0.0,-0.15203371339160276,-0.6380552808761534,-1.0500578284326392,-0.8474611560504041,0.01996723110036228,0.02463810026559118,-0.981192265121137
15255,6.0,300.1294,8813.5606,0.0,0.0,0.0,0.0,0.0,-0.1520436802011867,-0.7049538116360243,-1.088650802216469,-0.885497703541819,0.007702539707606482,0.043357402410292456,-0.998704935344503
15256,6.0,299.11915,8822.6794,0.0,0.0,0.0,0.0,0.0,-0.15205364701077045,-0.7032317221635673,-1.0991584084034889,-0.8794840844633213,-0.016298504787537183,0.02076666313776008,-0.9792461460515701
15257,6.0,299.08085,8226.9307,0.0,0.0,0.0,0.0,0.0,-0.15206361382035427,-0.6221560594495223,-1.024481977358499,-0.8541434391348941,-0.029308388838512774,-0.012798990228161987,-0.997390375062266
15258,6.0,299.72997000000004,8373.2599,0.0,0.0,0.0,0.0,0.0,-0.1520735806299381,-0.6665039492963184,-1.031702600221119,-0.8470554000478592,-0.01075981426941099,-0.012305336805942188,-0.9497210817851731
15259,6.0,299.13707999999997,8537.6613,0.0,0.0,0.0,0.0,0.0,-0.1520835474395219,-0.6734504981393894,-1.034530885225249,-0.8872544563001972,0.015357311968398684,-0.005950505249644145,-0.9805241584027
15260,6.0,299.12725,8528.5267,0.0,0.0,0.0,0.0,0.0,-0.15209351424910578,-0.6963280337997264,-1.0505281791290588,-0.8456029161620102,0.010286609247459291,-0.032936632770092567,-0.9789900268237931
15261,6.0,300.02381,8673.6643,0.0,0.0,0.0,0.0,0.0,-0.15210348105868954,-0.6916615915241843,-1.094541635647849,-0.8503740879678882,-0.0026900814395153672,-0.007693477604012123,-1.013289616753899
15262,6.0,300.43838999999997,8766.5907,0.0,0.0,0.0,0.0,0.0,-0.15211344786827335,-0.7132581966731033,-1.0907770062263091,-0.8607894681308063,-0.012267575001215386,0.002237429182592068,-0.9989172923004611
15263,6.0,300.26856000000004,8603.3921,0.0,0.0,0.0,0.0,0.0,-0.15212341467785723,-0.6579092985030923,-1.0993975354270888,-0.8579095175040773,0.01668591589702168,0.017676147994499982,-1.0326566765152791
15264,6.0,300.72179,8524.0491,0.0,0.0,0.0,0.0,0.0,-0.152133381487441,-0.6821578122112343,-1.050459075472239,-0.8584812236080003,-0.029606855840969174,-0.008726008434864981,-0.972140557472803
15265,6.0,300.12327,8529.4825,0.0,0.0,0.0,0.0,0.0,-0.15214334829702486,-0.6220293727895193,-1.070537335478809,-0.900182970288642,-0.0020907809889940177,-0.019707235177702682,-0.9827308043379791
15266,6.0,300.93371,8324.5991,0.0,0.0,0.0,0.0,0.0,-0.15215331510660862,-0.6511532913413264,-1.044264672310899,-0.8350522873757442,-0.0058116055822108135,0.0014614522638091085,-0.978165048724874
15267,6.0,299.65261,8228.7463,0.0,0.0,0.0,0.0,0.0,-0.15216328191619255,-0.6087486125363104,-1.045127150796019,-0.847457690735062,0.012252834238760588,0.022905907676387078,-1.021168548206489
15268,6.0,299.97272000000004,8614.1734,0.0,0.0,0.0,0.0,0.0,-0.1521732487257763,-0.6799290368937714,-1.0858433901643991,-0.8527211501020252,-0.009459696550124361,-0.00929939825647915,-1.0140947452833589
15269,6.0,300.03449,8739.6786,0.0,0.0,0.0,0.0,0.0,-0.15218321553536007,-0.7016293583229263,-1.1088653443614889,-0.8461493923384432,-0.01983197538426358,-0.000990731265007563,-1.0197947837209091
15270,6.0,298.95431,8359.954,0.0,0.0,0.0,0.0,0.0,-0.15219318234494394,-0.6757133693227174,-1.056569378875279,-0.8089344994856192,-0.012673276288254988,-0.01022241681387399,-0.9972201794429689
15271,6.0,298.81532000000004,8480.6273,0.0,0.0,0.0,0.0,0.0,-0.15220314915452776,-0.6512623879795933,-1.0959497493118189,-0.8306867803799022,0.009418654145548792,0.003205146254898307,-1.0154350725156391
15272,6.0,299.95231,8752.6669,0.0,0.0,0.0,0.0,0.0,-0.15221311596411163,-0.7457911546563563,-1.051542037179119,-0.8632590220695321,0.009203138382404042,-0.009407504544098411,-0.9901183297570711
15273,6.0,299.08493,8674.7942,0.0,0.0,0.0,0.0,0.0,-0.1522230827736954,-0.6963735287292163,-1.087984691600729,-0.8525625967263772,-0.0027989399640088674,-0.015849906544263985,-1.012899890367936
15274,6.0,300.12702,8689.3401,0.0,0.0,0.0,0.0,0.0,-0.15223304958327916,-0.7012278579708013,-1.079809080518859,-0.8603054588230382,-0.014862331188547885,-0.005007493241276105,-0.9928806116496871
15275,6.0,301.20707999999996,8400.4447,0.0,0.0,0.0,0.0,0.0,-0.15224301639286308,-0.6631835388511192,-1.0332023116941291,-0.8571395994155923,-0.02251334216364388,0.03856457441002717,-0.9822143811595121
15276,6.0,299.73406,8218.1672,0.0,0.0,0.0,0.0,0.0,-0.15225298320244685,-0.6129836838467795,-1.0486464723683488,-0.8364875054798891,0.0030070570762484273,0.004873538133005765,-0.9654827545107291
15277,6.0,300.35733,8720.266,0.0,0.0,0.0,0.0,0.0,-0.15226295001203072,-0.6493084060892504,-1.096791760144919,-0.9046429121938041,-0.007476887289136323,0.006362551508809943,-0.9730914926916531
15278,6.0,300.58707999999996,9000.1484,0.0,0.0,0.0,0.0,0.0,-0.15227291682161448,-0.7345096584404592,-1.091045416177799,-0.9102653154086922,0.029444491631695074,-0.01039040760095339,-0.9690575008635292
15279,6.0,300.36939,8548.4692,0.0,0.0,0.0,0.0,0.0,-0.15228288363119835,-0.6502845712355905,-1.095322040874869,-0.8529145390161111,0.00013774021547640087,-0.013867462458611986,-1.043020401188099
15280,6.0,299.94498,8437.7642,0.0,0.0,0.0,0.0,0.0,-0.15229285044078217,-0.6897050663760903,-1.049116721739759,-0.8260478174470722,0.0006702338242394285,-0.023610486332173577,-1.002538627892859
15281,6.0,300.29922,8739.0362,0.0,0.0,0.0,0.0,0.0,-0.15230281725036598,-0.7105733980156343,-1.091285860426529,-0.8545894718289142,-0.01081521574512869,-0.03969826853616406,-1.009257144800925
15282,6.0,299.59328,8763.9269,0.0,0.0,0.0,0.0,0.0,-0.1523127840599498,-0.7080256920966953,-1.065494085756079,-0.8904951543600292,0.019345328586485282,-0.012748367239915888,-0.969158015273449
15283,6.0,300.06057999999996,8401.2209,0.0,0.0,0.0,0.0,0.0,-0.15232275086953367,-0.6237890741056884,-1.067184997522959,-0.8627873642804832,0.017797959908271883,-0.0019353802397071584,-1.0137994842042188
15284,6.0,299.47696,8054.2864,0.0,0.0,0.0,0.0,0.0,-0.15233271767911744,-0.6247835689463374,-1.028494447754499,-0.7950239840302582,0.03448451415285657,0.004504864753645536,-0.995707174128647
15285,6.0,300.07256,8254.5071,0.0,0.0,0.0,0.0,0.0,-0.15234268448870125,-0.6150973640853834,-1.0687520901276188,-0.8253146195422112,-0.008021502226460633,0.004215071577345176,-1.032756785625159
15286,6.0,298.24329,8444.4398,0.0,0.0,0.0,0.0,0.0,-0.15235265129828507,-0.6810094350778984,-1.071376914511669,-0.8145124919486243,9.163797528721402e-05,0.02096404324398998,-1.016884222808659
15287,6.0,298.63847000000004,8568.0934,0.0,0.0,0.0,0.0,0.0,-0.15236261810786894,-0.6835482851909633,-1.067769541505649,-0.8531685608161813,-0.018537432871002183,0.034472081574129565,-1.016851494830429
15288,6.0,299.35395,8483.2672,0.0,0.0,0.0,0.0,0.0,-0.15237258491745276,-0.6532845818666684,-1.061142075251569,-0.8642747343672752,0.006541581655728843,-0.0019812801652621284,-0.979421549776381
15289,6.0,299.65031,8159.504,0.0,0.0,0.0,0.0,0.0,-0.15238255172703652,-0.6289823557707255,-1.025282444937499,-0.8260206724768933,-0.0004913316001456536,-0.028230009048584973,-1.0061080040201291
15290,6.0,299.58801,8701.7193,0.0,0.0,0.0,0.0,0.0,-0.15239251853662034,-0.7260265968807463,-1.0529553184185991,-0.8661234801022322,0.020441202139389582,-0.04807745878837575,-0.973247056979506
15291,6.0,300.88844,9107.2054,0.0,0.0,0.0,0.0,0.0,-0.1524024853462042,-0.7579323834496022,-1.107143731116579,-0.9032869505124811,0.025995579795563974,-0.008677513575803913,-0.990960918142728
15292,6.0,299.48474,8470.4204,0.0,0.0,0.0,0.0,0.0,-0.15241245215578803,-0.7189909326913804,-1.036760947370339,-0.8190444556708942,0.0037911450620818866,-0.008072525144521201,-0.9922429834942581
15293,6.0,301.14162999999996,8282.8542,0.0,0.0,0.0,0.0,0.0,-0.15242241896537184,-0.6341019133584863,-1.030961306447959,-0.8527176341241782,-0.012705977921982387,0.0016130876743993582,-1.005375697775356
15294,6.0,301.01622000000003,8606.857,0.0,0.0,0.0,0.0,0.0,-0.1524323857749556,-0.6661718971060474,-1.071728005671319,-0.878369661340836,-0.017016141197362382,-0.0037100668155800867,-0.97424464223296
15295,6.0,300.21345,8588.5546,0.0,0.0,0.0,0.0,0.0,-0.15244235258453953,-0.6530723465007223,-1.068494724602219,-0.8891390812211951,0.007263251611552124,0.03484546018297917,-0.9823927638396169
15296,6.0,299.7005,8656.5237,0.0,0.0,0.0,0.0,0.0,-0.1524523193941233,-0.6557809261380384,-1.0978912378284291,-0.8776948975692422,0.01947564369509638,0.005769761392831115,-0.9975037172184521
15297,6.0,299.06755,8472.205,0.0,0.0,0.0,0.0,0.0,-0.1524622862037071,-0.6407926672138123,-1.083400038873259,-0.8511460629540761,0.005421774223537454,-0.004768132764853066,-1.023298602566709
15298,6.0,298.77178,8198.2116,0.0,0.0,0.0,0.0,0.0,-0.15247225301329093,-0.6584261168490984,-1.040710900235169,-0.7929146405020823,-0.019374284234592982,0.0006371339325602234,-0.9986309376897001
15299,6.0,300.07894,8576.6114,0.0,0.0,0.0,0.0,0.0,-0.15248221982287474,-0.6436583512791334,-1.107825141808829,-0.8555922550553813,0.004531984088597006,0.036825716661665266,-1.0228059603680892
15300,6.0,299.46443999999997,8831.988000000001,0.0,0.0,0.0,0.0,0.0,-0.15249218663245862,-0.7109014174705073,-1.0906297809867789,-0.8831726188023511,-0.0041101762792928155,0.035434387485601765,-0.985283262399887
15301,6.0,299.95169,8608.9049,0.0,0.0,0.0,0.0,0.0,-0.15250215344204238,-0.6800508903507974,-1.082278067037529,-0.8545631273263141,-0.0009716866720905081,0.008045621733166043,-0.9783443838600732
15302,6.0,300.68961,8357.2825,0.0,0.0,0.0,0.0,0.0,-0.15251212025162625,-0.6217229051642734,-1.067457764449879,-0.8512244783793151,-0.00883192042806768,-0.0033807973140587166,-1.012859836591483
15303,6.0,299.81317,8655.4641,0.0,0.0,0.0,0.0,0.0,-0.15252208706121007,-0.7033652381292443,-1.0830599921396988,-0.8446197089274753,0.006231161544492764,0.008580386663618232,-0.988085962838992
15304,6.0,300.5172,8931.168,0.0,0.0,0.0,0.0,0.0,-0.15253205387079383,-0.7263556194532182,-1.1007877145642888,-0.8877087469825322,-0.006622681281807753,-0.008553725925662023,-1.026317986539699
15305,6.0,301.24767,8666.7502,0.0,0.0,0.0,0.0,0.0,-0.1525420206803777,-0.6714948849163854,-1.0783664150264791,-0.8846144027671442,-0.001285785296622129,-0.006353202452787264,-1.010769805610213
15306,6.0,299.35156,8366.4652,0.0,0.0,0.0,0.0,0.0,-0.15255198748996146,-0.6504272267171693,-1.052699472768349,-0.8400697802809323,-0.021940093893068682,0.006592895781868154,-1.003195011307639
15307,6.0,299.68532000000005,8398.684000000001,0.0,0.0,0.0,0.0,0.0,-0.15256195429954533,-0.6520187487817404,-1.0428461221708991,-0.8581253397753772,0.005580684060570634,0.02053469269961638,-0.9782957478552732
15308,6.0,299.52154,8586.5621,0.0,0.0,0.0,0.0,0.0,-0.15257192110912915,-0.6728918832267584,-1.067582191562159,-0.8696264275529462,-0.022748805274882277,0.01045038491412269,-0.995144019855568
15309,6.0,299.08405,8794.8991,0.0,0.0,0.0,0.0,0.0,-0.1525818879187129,-0.7233264981467673,-1.0888765543387489,-0.8612266247539502,-0.01080788994690569,0.0011236408612947189,-0.978553609873222
15310,6.0,299.77879,8797.7457,0.0,0.0,0.0,0.0,0.0,-0.15259185472829678,-0.7479970406540603,-1.092020162773999,-0.8342777589993042,0.004414285564931066,-0.008395534584274753,-0.987312376785145
15311,6.0,299.67195,8486.0504,0.0,0.0,0.0,0.0,0.0,-0.1526018215378806,-0.6737160000630924,-1.065121209719279,-0.8407102050066372,-0.011764901626605387,0.001081387217549609,-1.000722052848577
15312,6.0,299.29497000000003,8445.9493,0.0,0.0,0.0,0.0,0.0,-0.15261178834746447,-0.6913432283427643,-1.070806556030379,-0.8052078669428293,0.01393949035522059,-0.012713228739697989,-1.0120578592698342
15313,6.0,299.62904,8791.3774,0.0,0.0,0.0,0.0,0.0,-0.15262175515704823,-0.6634936440442243,-1.1077426632506888,-0.9011229421414102,-0.005902176360949454,-0.03270271993150717,-1.016175758338739
15314,6.0,300.15261,8619.9785,0.0,0.0,0.0,0.0,0.0,-0.152631721966632,-0.6621934212509023,-1.104188485874919,-0.8538762653485261,0.05129341834701625,-0.002093217044884438,-1.0167453062199492
15315,6.0,300.16567000000003,8189.7941,0.0,0.0,0.0,0.0,0.0,-0.15264168877621587,-0.6188115640494464,-1.0512775789030189,-0.8194037642888552,0.013010200185006787,0.0012369077329982888,-1.040199614234709
15316,6.0,299.74143,8365.5579,0.0,0.0,0.0,0.0,0.0,-0.15265165558579968,-0.6400454661925693,-1.0535321617005289,-0.8493430654611341,0.0062230440939666344,0.027172289428196175,-1.0045201093909162
15317,6.0,299.9597,8581.8556,0.0,0.0,0.0,0.0,0.0,-0.15266162239538356,-0.6467729604965214,-1.0790116526901592,-0.8828852610739911,-0.036823189615915866,0.002045556090655668,-0.9844428322369431
15318,6.0,299.50164,8570.1137,0.0,0.0,0.0,0.0,0.0,-0.15267158920496732,-0.6570366469869684,-1.075731762116459,-0.8723320991624752,-0.01889885512867178,0.006558720679845334,-0.98548351101715
15319,6.0,299.44171,8699.4112,0.0,0.0,0.0,0.0,0.0,-0.1526815560145512,-0.6585762805139184,-1.0884436938960291,-0.8973838466223902,-0.0013212007180923588,0.02499025027159568,-0.9698697221436892
15320,6.0,299.38327999999996,8600.0482,0.0,0.0,0.0,0.0,0.0,-0.152691522824135,-0.6915786468709983,-1.067738029427539,-0.8548832434304072,0.0028803829805466668,-0.007465932130380133,-1.010881496168736
15321,6.0,299.46852,8507.7341,0.0,0.0,0.0,0.0,0.0,-0.15270148963371882,-0.6921973981770644,-1.060522168840389,-0.8334191308645642,-0.0035043388457513167,-0.012055300118515489,-0.9809738286645792
15322,6.0,299.71151000000003,8772.9556,0.0,0.0,0.0,0.0,0.0,-0.15271145644330264,-0.7068515784108192,-1.0855621119366388,-0.8743457310862052,0.008939586762493523,-0.016992440264273285,-1.012051546721711
15323,6.0,300.43743,8673.6843,0.0,0.0,0.0,0.0,0.0,-0.1527214232528865,-0.7269574900126183,-1.047942770173899,-0.8616831648515071,0.021541009129182078,0.009389139082060882,-0.9550045832391141
15324,6.0,299.83874,8312.9723,0.0,0.0,0.0,0.0,0.0,-0.15273139006247027,-0.6625809488841483,-1.019815454022949,-0.8445395912420681,0.014761113583058484,-0.0036874505667230362,-0.9977722284949521
15325,6.0,300.54584,8547.7126,0.0,0.0,0.0,0.0,0.0,-0.1527413568720541,-0.6542244017319214,-1.063948170078509,-0.8801185816759411,0.0004409048581789216,-0.018393732728570082,-0.970079241999367
15326,6.0,299.89582,8852.1923,0.0,0.0,0.0,0.0,0.0,-0.1527513236816379,-0.7258294893387933,-1.083868059094449,-0.8811478411275212,-0.004202733332202485,0.003917106842963346,-0.991544610995334
15327,6.0,300.07135,8781.905999999999,0.0,0.0,0.0,0.0,0.0,-0.15276129049122172,-0.7185373006216104,-1.068220235150129,-0.8827225736379353,0.002979371131841037,0.014673426919404486,-0.9786244664527151
15328,6.0,299.93192999999997,8527.4413,0.0,0.0,0.0,0.0,0.0,-0.1527712573008056,-0.6722664546025333,-1.080419563704109,-0.8394431560215891,0.0068851007973815435,-0.0032491426888154166,-1.0054387320640772
15329,6.0,299.39257000000003,8509.4267,0.0,0.0,0.0,0.0,0.0,-0.15278122411038936,-0.6614411337141574,-1.066268512807509,-0.8589435696286303,0.01869023098608218,-0.012950799411144387,-0.9708421585296612
15330,6.0,299.26639,8397.972,0.0,0.0,0.0,0.0,0.0,-0.15279119091997317,-0.6406972190543924,-1.076817864898649,-0.8352587370836191,0.03034553238912087,0.010670269305073591,-0.993832945153675
15331,6.0,299.98147,8440.1808,0.0,0.0,0.0,0.0,0.0,-0.15280115772955705,-0.6321398862623494,-1.101817581965929,-0.8316467436571433,0.03596179125540247,0.0004014377332688196,-1.0354426076652292
15332,6.0,299.48087999999996,8490.8514,0.0,0.0,0.0,0.0,0.0,-0.15281112453914086,-0.6949847073471503,-1.076188636586549,-0.8098334347093372,0.004442672475757636,-0.016758094767895186,-1.028819194411549
15333,6.0,299.61789,8415.7555,0.0,0.0,0.0,0.0,0.0,-0.15282109134872468,-0.6436600940693054,-1.0968851818041387,-0.8176342952417223,-0.012007327792530989,-0.013606198960077288,-1.027132943595129
15334,6.0,299.42941,8328.3408,0.0,0.0,0.0,0.0,0.0,-0.15283105815830844,-0.6350056716526804,-1.074213305516599,-0.8223887078909462,-0.025512251391863177,0.011441729560210789,-1.032274883877599
15335,6.0,300.03302,8761.6785,0.0,0.0,0.0,0.0,0.0,-0.15284102496789226,-0.6803370423115384,-1.089839648558799,-0.8931547433550101,-0.018608040190970582,0.02859323185168227,-0.997044613598142
15336,6.0,300.01517,9014.3612,0.0,0.0,0.0,0.0,0.0,-0.15285099177747613,-0.7112706762044503,-1.123939263449169,-0.9049307765472141,-0.026687978171898375,0.019510961540581982,-0.9827917614639952
15337,6.0,299.18344,8630.0372,0.0,0.0,0.0,0.0,0.0,-0.15286095858705995,-0.6715900797632803,-1.067847561763349,-0.8838782157744881,0.015218454148194484,0.003281278321036957,-0.9704564851440981
15338,6.0,298.34209,8500.0221,0.0,0.0,0.0,0.0,0.0,-0.15287092539664376,-0.7083498612011884,-1.061512418163119,-0.8139322340138573,0.009243963951458212,0.018162213186720882,-0.9797188981507271
15339,6.0,299.80953,8827.959,0.0,0.0,0.0,0.0,0.0,-0.15288089220622758,-0.7330847349573303,-1.079961777308929,-0.8704325997300092,0.007925837636819272,-0.01003423995697738,-0.9595526272404712
15340,6.0,300.49135,8714.0522,0.0,0.0,0.0,0.0,0.0,-0.15289085901581145,-0.7129866659113053,-1.0742068207159592,-0.8616608226868022,-0.0038867304155654264,-0.006125851725824494,-0.986708976218094
15341,6.0,301.58952,8504.7449,0.0,0.0,0.0,0.0,0.0,-0.15290082582539521,-0.6742408230848884,-1.064422573775329,-0.8465667095246292,-0.0039011257610611365,-0.022460371474916082,-0.9609529388786712
15342,6.0,300.25728,8487.2956,0.0,0.0,0.0,0.0,0.0,-0.1529107926349791,-0.6511563918866324,-1.079994302637139,-0.8487752907675992,-0.001107538290705519,0.02983076486131727,-1.00184040738145
15343,6.0,300.20537,8431.0589,0.0,0.0,0.0,0.0,0.0,-0.15292075944456285,-0.6691404057915163,-1.0605476014178992,-0.8331433140548431,-0.013677856007149288,0.004522763917987046,-1.000472590673957
15344,6.0,300.35738,8604.1604,0.0,0.0,0.0,0.0,0.0,-0.15293072625414666,-0.7003203303862353,-1.0785556901451592,-0.8365739053159162,7.914497443025083e-05,0.012434185741658589,-1.040902505829079
15345,6.0,300.33979,8782.0215,0.0,0.0,0.0,0.0,0.0,-0.15294069306373054,-0.7095527613224053,-1.0793266721462489,-0.8806358357194901,0.003639248334290846,-0.010741165401320491,-1.00695600316132
15346,6.0,299.52574,8535.7832,0.0,0.0,0.0,0.0,0.0,-0.1529506598733143,-0.6616824392254724,-1.067985971727009,-0.8649965636060143,0.008420890053452142,-0.004544564399188586,-1.0105269802237482
15347,6.0,299.96806000000004,8396.7585,0.0,0.0,0.0,0.0,0.0,-0.15296062668289817,-0.6031836302045894,-1.074475838617509,-0.8747454886481582,0.017394760335729183,-0.007676891510475202,-1.016831533803459
15348,6.0,299.63358999999997,8679.9531,0.0,0.0,0.0,0.0,0.0,-0.152970593492482,-0.6518963481696604,-1.094367457955659,-0.8922252181107732,-0.011907684777696988,-0.011122623666467489,-0.9932346716321302
15349,6.0,300.18812,8722.5985,0.0,0.0,0.0,0.0,0.0,-0.15298056030206575,-0.6722779144611644,-1.0937800768726889,-0.8853941392490983,-0.0015338385469780783,-0.002962713908147097,-0.9831586187952012
15350,6.0,300.83734,8394.7437,0.0,0.0,0.0,0.0,0.0,-0.15299052711164962,-0.6765119623890323,-1.0637639612103291,-0.8115165140529442,-0.011667194932712488,0.0071670206151048625,-1.005988339183319
15351,6.0,301.09942,8464.0174,0.0,0.0,0.0,0.0,0.0,-0.15300049392123338,-0.6642313306470284,-1.079771995565199,-0.8288466675357973,0.007357438274597623,0.004162874505068726,-1.01153143531288
15352,6.0,300.23624,8529.1687,0.0,0.0,0.0,0.0,0.0,-0.1530104607308173,-0.6742422517675294,-1.064738302506489,-0.8536737065210352,-0.004557019370742796,-0.006925212227765234,-0.99830213803225
15353,6.0,300.07495,8426.4423,0.0,0.0,0.0,0.0,0.0,-0.15302042754040107,-0.6260042617393103,-1.070047226405439,-0.8653765222610131,-0.003863455554143376,-0.01059707211784959,-0.9985126508730261
15354,6.0,300.77797999999996,8640.713,0.0,0.0,0.0,0.0,0.0,-0.15303039434998483,-0.6595416444141923,-1.0627776635629889,-0.9042416550217033,-0.009825190350670792,0.00983563523667662,-0.9903707303569811
15355,6.0,300.05006000000003,8839.6791,0.0,0.0,0.0,0.0,0.0,-0.1530403611595687,-0.7240011707258522,-1.079756594163679,-0.8832839648558402,0.014932852382257784,-0.005421078931318835,-0.9768946154844921
15356,6.0,299.25442000000004,8647.3393,0.0,0.0,0.0,0.0,0.0,-0.15305032796915252,-0.7100751120139573,-1.057207929088299,-0.8612922023004221,0.005489887732359735,0.0017679744019104882,-1.005436979141404
15357,6.0,299.19514,8627.9462,0.0,0.0,0.0,0.0,0.0,-0.1530602947787364,-0.7201239388206992,-1.034133083235989,-0.8684231626616933,-0.0057548387519833644,-0.013860614914436187,-0.9600147706110811
15358,6.0,299.34727999999996,8966.1441,0.0,0.0,0.0,0.0,0.0,-0.15307026158832016,-0.7270630098780323,-1.0794003354285189,-0.9190205866077701,-0.002338776484094268,0.010781920346842689,-0.972972060902366
15359,6.0,300.23296,8813.1143,0.0,0.0,0.0,0.0,0.0,-0.15308022839790397,-0.6916639929269214,-1.082189914278829,-0.9051127461326732,0.0027431363293264773,-0.0005577413593222865,-0.9501349133910151
15360,6.0,301.26953,8571.6301,0.0,0.0,0.0,0.0,0.0,-0.15309019520748784,-0.6405629127536374,-1.077304427596669,-0.8876941359160901,0.0013648956087797086,0.0014049253712053386,-1.009638673993579
15361,6.0,300.78227000000004,8703.4222,0.0,0.0,0.0,0.0,0.0,-0.15310016201707166,-0.7279570105737633,-1.0808198988186188,-0.8368461250877822,0.011547048802104989,0.004748915362131456,-0.9686255523458991
15362,6.0,300.72643999999997,8712.536,0.0,0.0,0.0,0.0,0.0,-0.15311012882665548,-0.6982015129696243,-1.106784331306109,-0.8434075477003442,0.0074157783782553425,-0.004484470663582795,-1.037242646467879
15363,6.0,300.59204,8594.8526,0.0,0.0,0.0,0.0,0.0,-0.15312009563623924,-0.6849164362709894,-1.096045400121259,-0.8316587101408243,0.0045249985397575855,-0.017941219286910483,-1.022665118604189
15364,6.0,299.24228999999997,8626.6535,0.0,0.0,0.0,0.0,0.0,-0.1531300624458231,-0.6547341374597283,-1.1219434647271989,-0.8456097150701812,-0.008487515604502572,-0.022558438885844582,-1.035142179010579
15365,6.0,299.78647,8562.5157,0.0,0.0,0.0,0.0,0.0,-0.15314002925540693,-0.6132571093862644,-1.096557598046809,-0.8929762390848932,0.008260682344365873,-0.02972860189348457,-0.9938963644774341
15366,6.0,299.36137,8401.0214,0.0,0.0,0.0,0.0,0.0,-0.15314999606499075,-0.6387459324093154,-1.085897599044749,-0.8290572513040801,-0.02891639378557587,-0.006146241762886834,-0.99594541962466
15367,6.0,299.54801000000003,8542.6314,0.0,0.0,0.0,0.0,0.0,-0.15315996287457456,-0.6621984571038994,-1.074581723252959,-0.8599664658695823,-0.007111683683418533,0.008025890004693673,-1.022956833307979
15368,6.0,299.57796,8582.8216,0.0,0.0,0.0,0.0,0.0,-0.15316992968415843,-0.6992425362548653,-1.0783206161219592,-0.8314003111003223,0.003398164116797687,0.025152436148852177,-1.003846257544412
15369,6.0,300.72572,8445.9278,0.0,0.0,0.0,0.0,0.0,-0.1531798964937422,-0.6695288554823533,-1.088713927697699,-0.8091083934677812,0.006821770538306333,0.024655661916324376,-1.0250038011599991
15370,6.0,299.66553999999996,8603.1948,0.0,0.0,0.0,0.0,0.0,-0.153189863303326,-0.6839892111044794,-1.074631676482889,-0.8565355605009782,-0.007699469357153463,0.03841137707440776,-0.990893324228557
15371,6.0,299.50126,8921.015,0.0,0.0,0.0,0.0,0.0,-0.15319983011290983,-0.6792114025104464,-1.119347011345949,-0.9132073478690481,-0.02120941290145608,-0.01207327821503979,-0.996924168558755
15372,6.0,299.74562000000003,8644.127,0.0,0.0,0.0,0.0,0.0,-0.1532097969224937,-0.6858772608108153,-1.0770621594977592,-0.8646593945027382,-0.00927332398768082,-0.012526767416545688,-0.9945558788350229
15373,6.0,300.05194,8557.5983,0.0,0.0,0.0,0.0,0.0,-0.15321976373207752,-0.6828524255522873,-1.0705185903519592,-0.8479252144637032,0.009572775565259392,-0.014577571433444285,-0.9843341611637181
15374,6.0,300.12852999999996,8629.16,0.0,0.0,0.0,0.0,0.0,-0.15322973054166128,-0.7146135909343704,-1.058105466026879,-0.8503301737085541,0.02536078570066468,-0.0076060185163305824,-0.9733159782513081
15375,6.0,300.17426,8504.4159,0.0,0.0,0.0,0.0,0.0,-0.1532396973512451,-0.6881078397134563,-1.034497042671909,-0.8625251452871041,-0.010550789893031891,-0.004277259396932636,-0.9794352995802381
15376,6.0,300.19543,8574.9619,0.0,0.0,0.0,0.0,0.0,-0.15324966416082897,-0.6372066737849025,-1.0726320274105388,-0.8967356401359171,-0.0006028841236075303,-0.02044038849955928,-0.992674719229367
15377,6.0,301.26635,8751.6546,0.0,0.0,0.0,0.0,0.0,-0.15325963097041279,-0.6748350436060333,-1.0733217467536091,-0.9121276285624882,0.005184214292542115,0.0073472311983902635,-0.959632076180812
15378,6.0,300.80202,8696.0083,0.0,0.0,0.0,0.0,0.0,-0.1532695977799966,-0.6820394848645563,-1.081195409305679,-0.8801345403650163,0.008799411514509303,-0.004981370640448005,-0.979245507704007
15379,6.0,300.42307,8611.0565,0.0,0.0,0.0,0.0,0.0,-0.15327956458958036,-0.6927496904090713,-1.064310103014229,-0.8604863746283933,0.004839214184543255,-0.014891745838950886,-1.0044107087776188
15380,6.0,299.95257999999995,8928.5793,0.0,0.0,0.0,0.0,0.0,-0.1532895313991643,-0.7407310241869604,-1.115542966495519,-0.8577911800248982,-0.004431952998974706,-0.02100225594501128,-1.024712289106229
15381,6.0,300.19476000000003,8826.5131,0.0,0.0,0.0,0.0,0.0,-0.15329949820874805,-0.6992996328980003,-1.113050979199579,-0.8706889317403073,0.01104865134291699,0.01922587045269568,-1.0209358046585189
15382,6.0,299.1978,8479.771,0.0,0.0,0.0,0.0,0.0,-0.15330946501833193,-0.6322118979469564,-1.0918181207040591,-0.8536085748046073,0.0026184692794227974,0.016311341653054087,-1.012453097736341
15383,6.0,299.52847,8423.0793,0.0,0.0,0.0,0.0,0.0,-0.1533194318279157,-0.6249816694733884,-1.087465096949449,-0.8479589962220371,-0.004624040697282285,0.0029239998509763177,-1.001193882890143
15384,6.0,298.56191,8193.8999,0.0,0.0,0.0,0.0,0.0,-0.1533293986374995,-0.6443179872267344,-1.023200418632019,-0.8232225823257433,-0.013591859444662088,-0.02021934495049398,-0.9729850001061431
15385,6.0,299.43057999999996,8280.7042,0.0,0.0,0.0,0.0,0.0,-0.15333936544708338,-0.6255913521910594,-1.065422347648999,-0.8261136179085662,-0.013520620869881388,-0.01135830158672709,-1.017894027858319
15386,6.0,299.17987999999997,8576.3414,0.0,0.0,0.0,0.0,0.0,-0.15334933225666714,-0.6920790100353803,-1.040956816034439,-0.8739577981529191,0.010765556357727689,0.0008431980075796641,-0.990768562743744
15387,6.0,300.11859,8778.6681,0.0,0.0,0.0,0.0,0.0,-0.153359299066251,-0.6858899568345683,-1.094527855446489,-0.8880780969089841,-0.014647615386357086,-0.004644806042181665,-1.036921344861169
15388,6.0,300.02332,8668.2399,0.0,0.0,0.0,0.0,0.0,-0.15336926587583483,-0.6763526490758094,-1.0773325959494489,-0.8812432386244361,-0.012444400315916688,0.010538561990825089,-0.997969315771903
15389,6.0,300.53724,8768.7701,0.0,0.0,0.0,0.0,0.0,-0.1533792326854186,-0.7102572133219294,-1.082277560412479,-0.8729523500786892,-0.029145227201409968,0.026229186632619174,-1.00741166173129
15390,6.0,300.18746,9005.64,0.0,0.0,0.0,0.0,0.0,-0.15338919949500246,-0.7496588721430703,-1.0966749324083889,-0.8911558643527361,0.013934623714990288,-0.00033451831942438767,-0.9732796937652272
15391,6.0,299.86366,8624.0374,0.0,0.0,0.0,0.0,0.0,-0.15339916630458622,-0.7159323460720213,-1.055984632242569,-0.8495750592040301,0.0037332787541709263,-0.0013884170952760987,-0.99534040798995
15392,6.0,300.26908,8307.1802,0.0,0.0,0.0,0.0,0.0,-0.15340913311417015,-0.6612385951516684,-1.043903853950289,-0.8200328912759453,0.010683922850171092,-0.02159786360554318,-1.0051540493159812
15393,6.0,299.41181,8462.5879,0.0,0.0,0.0,0.0,0.0,-0.1534190999237539,-0.6618000471645794,-1.047066916787459,-0.8635484164305932,0.011440117479301688,0.014150246376020588,-1.003432233421051
15394,6.0,298.89524,8612.4509,0.0,0.0,0.0,0.0,0.0,-0.15342906673333767,-0.6516653068818584,-1.0958805443299888,-0.8704241796216782,-0.01086002673080119,0.0017914063170980383,-1.013078901263103
15395,6.0,298.44935,8508.0869,0.0,0.0,0.0,0.0,0.0,-0.15343903354292154,-0.6644068762268533,-1.073462588517509,-0.8483765059257422,-0.012895219603409088,0.013904606180777787,-1.017428034137329
15396,6.0,299.71814,8792.3074,0.0,0.0,0.0,0.0,0.0,-0.15344900035250536,-0.6914800069737633,-1.1077044637219189,-0.8734574552535391,-0.014798800407277884,-0.02477589721294068,-1.018391938957459
15397,6.0,299.48566,8651.4099,0.0,0.0,0.0,0.0,0.0,-0.15345896716208923,-0.6881628794588883,-1.078686703383089,-0.8629629706553141,-0.01123316418612699,0.0060514832214848945,-0.9886528256074371
15398,6.0,300.67973,8582.0399,0.0,0.0,0.0,0.0,0.0,-0.153468933971673,-0.6357034564665464,-1.108339163584559,-0.8646831957475871,0.017174723957263282,-0.019720418574753783,-1.027794494585419
15399,6.0,300.5116,8900.6252,0.0,0.0,0.0,0.0,0.0,-0.1534789007812568,-0.6536825662409463,-1.147705956469759,-0.9041793198755512,-0.0026653271316223076,0.008823108495923012,-1.0368530518044292
15400,6.0,300.39862999999997,8694.3611,0.0,0.0,0.0,0.0,0.0,-0.15348886759084068,-0.6697243519566474,-1.095329538925609,-0.8778147954535751,0.003215997555519247,-0.007118333643824833,-1.033184883792409
15401,6.0,300.61179,8281.4509,0.0,0.0,0.0,0.0,0.0,-0.1534988344004245,-0.6236339759128814,-1.079869774199849,-0.8138505559232962,-0.012085258884222188,0.013412023763913686,-1.026251112033099
15402,6.0,300.40873999999997,8247.4381,0.0,0.0,0.0,0.0,0.0,-0.15350880121000832,-0.6475855364142163,-1.034015242249359,-0.8254145260020712,0.01868802007436398,0.031909330917705765,-0.988143626902183
15403,6.0,299.17309,8484.2808,0.0,0.0,0.0,0.0,0.0,-0.15351876801959208,-0.6566628894225814,-1.077234209364739,-0.8451124423186043,-0.021622807796504977,0.003191866396437687,-0.9862762474978871
15404,6.0,299.32482000000005,8555.8246,0.0,0.0,0.0,0.0,0.0,-0.15352873482917595,-0.6481379299712334,-1.065856018691799,-0.8867631211942062,0.025606871725951476,0.0002934619522624397,-0.9662001355815291
15405,6.0,299.14121,8717.3401,0.0,0.0,0.0,0.0,0.0,-0.15353870163875977,-0.6587298183015713,-1.088681908994539,-0.9024420417840953,-0.0047161902210017355,0.02076166680151698,-1.0103978212335012
15406,6.0,298.9513,8871.6645,0.0,0.0,0.0,0.0,0.0,-0.15354866844834358,-0.7162226928881763,-1.093592422954169,-0.8869493565625862,0.028682754524517472,0.0017803873235855481,-0.9908405845608521
15407,6.0,299.25518999999997,8633.4875,0.0,0.0,0.0,0.0,0.0,-0.1535586352579274,-0.7043856620399523,-1.0708574211853992,-0.8491215385917712,-0.016843834978107083,-0.007568052541708633,-1.019691533535719
15408,6.0,299.95702,8636.2909,0.0,0.0,0.0,0.0,0.0,-0.15356860206751127,-0.7150412432715763,-1.073964451292039,-0.8362111009851102,-0.0035272868326911067,-0.04220086962690156,-0.993098723866213
15409,6.0,299.52244,8804.2457,0.0,0.0,0.0,0.0,0.0,-0.15357856887709503,-0.7339565454758713,-1.059328560222589,-0.8829857146889052,0.013147101419267887,-0.024172253465865677,-0.974603707670897
15410,6.0,299.50914,8709.2514,0.0,0.0,0.0,0.0,0.0,-0.15358853568667885,-0.6781927619199144,-1.081691395229629,-0.8875107680454931,0.016505011237417787,-0.030440193253213173,-0.969970621588647
15411,6.0,300.08175,8366.2085,0.0,0.0,0.0,0.0,0.0,-0.15359850249626267,-0.6050347874747845,-1.085908035520779,-0.8521756871756921,0.0026467618566650575,0.01016072102853509,-1.007300113027781
15412,6.0,300.21283,8520.7593,0.0,0.0,0.0,0.0,0.0,-0.15360846930584648,-0.6587362828372093,-1.076195324037209,-0.8551664063033532,-0.026124303088267974,-0.017658049321213783,-1.020714409511669
15413,6.0,300.34574,8606.3205,0.0,0.0,0.0,0.0,0.0,-0.15361843611543036,-0.6774580644049054,-1.092388681835369,-0.8462597555393352,-0.012929473536289687,0.03158451231989867,-1.018428213311039
15414,6.0,300.45049,8376.8437,0.0,0.0,0.0,0.0,0.0,-0.15362840292501412,-0.6381443151624404,-1.069920063517889,-0.8382868856699741,0.01097341954949219,0.001050630010764109,-1.026411002898879
15415,6.0,300.25365,8460.587,0.0,0.0,0.0,0.0,0.0,-0.15363836973459793,-0.6274687019763394,-1.091402890813079,-0.8529355943531891,0.020666796194653978,0.006750713335293534,-1.002455399529645
15416,6.0,299.75298,8644.2231,0.0,0.0,0.0,0.0,0.0,-0.1536483365441818,-0.6273060044077824,-1.098301502793919,-0.9020204284174852,-0.006655251902297223,-0.027723443780340872,-1.003910386143241
15417,6.0,299.83819,8460.7504,0.0,0.0,0.0,0.0,0.0,-0.15365830335376562,-0.6240272993366994,-1.082488012458249,-0.8653415448675612,-0.025814089477402272,-0.0012767794284083188,-1.004663919977609
15418,6.0,299.23872,8430.0784,0.0,0.0,0.0,0.0,0.0,-0.15366827016334944,-0.6801243712480494,-1.060264398014949,-0.8221445754118523,-0.015316880249658386,0.006632290135156074,-1.004728595731492
15419,6.0,299.55784,8807.0591,0.0,0.0,0.0,0.0,0.0,-0.1536782369729332,-0.7419867247708882,-1.092522836148609,-0.8426165540097793,-0.023895124497265177,0.015499488182680385,-1.020278914618689
15420,6.0,299.71684,8687.3144,0.0,0.0,0.0,0.0,0.0,-0.15368820378251707,-0.7294380478474303,-1.053530540500369,-0.8577580568791292,-0.004496958464440246,-0.002734096213259287,-0.9931186443631792
15421,6.0,300.74023,8781.2292,0.0,0.0,0.0,0.0,0.0,-0.1536981705921009,-0.6888670781458874,-1.087834730585929,-0.8925726007750572,-0.014021912171354987,0.001059176268732559,-0.983741825287759
15422,6.0,300.81956,8975.3085,0.0,0.0,0.0,0.0,0.0,-0.15370813740168476,-0.7023523426667794,-1.0985707233454889,-0.9273465944019831,0.03391335115098717,-0.015960672005445684,-0.9364908016519461
15423,6.0,299.69996000000003,8615.2755,0.0,0.0,0.0,0.0,0.0,-0.15371810421126852,-0.6468386900305084,-1.073826243978399,-0.8981637148268571,0.018883707039676782,-0.0029176833511779274,-0.9839979951780411
15424,6.0,299.99762999999996,8413.2259,0.0,0.0,0.0,0.0,0.0,-0.15372807102085234,-0.6439172366796834,-1.065105301692709,-0.8483880671093831,0.028101586691160675,-0.02203542958172758,-0.9856900316525321
15425,6.0,300.53103,8607.417,0.0,0.0,0.0,0.0,0.0,-0.1537380378304362,-0.7030098913191742,-1.047181110073729,-0.8662488596696062,-0.017309341325798984,0.004586527949430066,-1.002356131417348
15426,6.0,300.26437000000004,8653.4222,0.0,0.0,0.0,0.0,0.0,-0.15374800464001998,-0.7184006739781263,-1.081706087356079,-0.8303174709834541,-0.006423657683915654,0.009817373024824282,-0.9922784776452611
15427,6.0,300.73359,8489.4543,0.0,0.0,0.0,0.0,0.0,-0.15375797144960385,-0.6563164997433955,-1.078110670701239,-0.8461549550814921,-0.016922757028396084,0.018419113630324984,-1.029582475711879
15428,6.0,300.45351,8717.9992,0.0,0.0,0.0,0.0,0.0,-0.15376793825918766,-0.6576518215201814,-1.0981477927537489,-0.8942544540860432,-0.007410654271174634,-0.01935225111116848,-0.991791925079742
15429,6.0,298.95956,8767.5913,0.0,0.0,0.0,0.0,0.0,-0.15377790506877143,-0.6847796069774853,-1.1096814159920292,-0.8706678358732252,-0.015594543201061585,-0.004102151237175806,-1.004062515513255
15430,6.0,299.70927,8729.3205,0.0,0.0,0.0,0.0,0.0,-0.1537878718783553,-0.6836974761356873,-1.100062936767759,-0.86973498716866,0.017147103772787383,-0.012838018595513787,-1.0020498461771201
15431,6.0,299.36137,8773.4342,0.0,0.0,0.0,0.0,0.0,-0.15379783868793906,-0.7186286856481293,-1.108866762911629,-0.8394094553232632,-0.006169257738908334,-0.01076191980311879,-1.0267016030275589
15432,6.0,298.99818,8523.7684,0.0,0.0,0.0,0.0,0.0,-0.15380780549752293,-0.6886422480811983,-1.066524459782769,-0.8358460573715832,0.016721707943554084,-0.01735929860872938,-1.0019381252210942
15433,6.0,299.48507,8199.597,0.0,0.0,0.0,0.0,0.0,-0.15381777230710675,-0.5924199250547945,-1.0608158087193689,-0.8392369697587403,-0.003292020089322087,0.012823225144053789,-1.018015212570279
15434,6.0,300.01872000000003,8278.0809,0.0,0.0,0.0,0.0,0.0,-0.1538277391166905,-0.6023558454028934,-1.064268255785099,-0.8497058292619362,0.0022600357042481577,0.015286019691362684,-0.996320859184213
15435,6.0,300.08169,8665.2708,0.0,0.0,0.0,0.0,0.0,-0.15383770592627438,-0.6610750059230234,-1.074703313264959,-0.8982475916701351,-0.02242652284207548,1.2878102769469788e-05,-1.018574222650449
15436,6.0,300.96383,8556.4265,0.0,0.0,0.0,0.0,0.0,-0.1538476727358582,-0.6484361700056673,-1.086655408794539,-0.8658484232300863,-0.02128777462443978,-0.002986102253580347,-1.009559225053238
15437,6.0,299.52614,8327.911,0.0,0.0,0.0,0.0,0.0,-0.15385763954544207,-0.6671264698927564,-1.0506484519159291,-0.8137020843861432,-0.013128390742921287,0.008144030812028262,-1.025206451179999
15438,6.0,300.05415,8936.2992,0.0,0.0,0.0,0.0,0.0,-0.15386760635502583,-0.7502152680379823,-1.077329961499189,-0.8888665878718022,-0.0017428356669294883,0.01089825260407379,-0.9611413324697642
15439,6.0,299.36838,8987.723,0.0,0.0,0.0,0.0,0.0,-0.15387757316460965,-0.7258286787387133,-1.1049930064543187,-0.9012216732311541,0.0002051669433809008,-0.006923648377560894,-0.999159884639403
15440,6.0,300.03356,8607.5184,0.0,0.0,0.0,0.0,0.0,-0.15388753997419347,-0.6861192249346953,-1.062367702572529,-0.8679837768883292,0.012165768697417888,-0.00024344785639893274,-0.9760136755825501
15441,6.0,300.26993,8643.6907,0.0,0.0,0.0,0.0,0.0,-0.15389750678377734,-0.6794595373274354,-1.057134265806029,-0.8908723468422551,0.005585463662617344,0.005045813752108045,-0.988698107754406
15442,6.0,300.51932999999997,8686.8391,0.0,0.0,0.0,0.0,0.0,-0.15390747359336115,-0.6953125950795104,-1.073487210494939,-0.8717824211157262,-0.014560509315010383,0.010827420342583188,-0.968850463470596
15443,6.0,299.83526,8625.9369,0.0,0.0,0.0,0.0,0.0,-0.15391744040294492,-0.7030873340243173,-1.0550535567256791,-0.8639285169406061,-0.01179038891962079,0.0006858933816199065,-1.013292048554139
15444,6.0,300.22049,8852.6767,0.0,0.0,0.0,0.0,0.0,-0.1539274072125288,-0.7005161409680604,-1.105008711830869,-0.8854678025313681,-0.01341425696713409,-0.013388564997598487,-0.970346648833258
15445,6.0,298.9792,8603.1456,0.0,0.0,0.0,0.0,0.0,-0.1539373740221126,-0.6415644091524774,-1.0978464521740092,-0.8757306311903842,0.025522123487587475,0.009017392920447393,-0.9939387183316141
15446,6.0,298.38638,8202.3734,0.0,0.0,0.0,0.0,0.0,-0.15394734083169642,-0.5957349855394655,-1.061145418976899,-0.8364363363498393,0.03350881915456297,0.012254796904204288,-1.002197871884229
15447,6.0,299.06172000000004,8649.8476,0.0,0.0,0.0,0.0,0.0,-0.15395730764128024,-0.6558112932435354,-1.1081339804393089,-0.8653923998900801,0.025832009818670874,-0.018575971838555683,-1.032417853466709
15448,6.0,299.11276000000004,8855.2199,0.0,0.0,0.0,0.0,0.0,-0.153967274450864,-0.6977414062317153,-1.1017728976365189,-0.8922514004933573,-0.014852424642320186,-0.008558745364007402,-1.014166686040459
15449,6.0,299.26863,8441.8703,0.0,0.0,0.0,0.0,0.0,-0.15397724126044787,-0.6735868917353504,-1.061965746257859,-0.8305650890428923,-0.003706451539223286,-0.01186683661316559,-1.003746584132075
15450,6.0,299.51704,8314.3194,0.0,0.0,0.0,0.0,0.0,-0.1539872080700317,-0.6312778941372774,-1.045516948109489,-0.8505506164003102,-0.008728088839970302,0.014931847238158585,-1.0117305794875342
15451,6.0,300.12363999999997,8634.9065,0.0,0.0,0.0,0.0,0.0,-0.1539971748796155,-0.6914186445477074,-1.056385170007099,-0.8769921174323831,0.002091185883733978,-0.003933450567076347,-0.9884753852499251
15452,6.0,299.73547,8625.0047,0.0,0.0,0.0,0.0,0.0,-0.15400714168919932,-0.6777940378730634,-1.0817140920318689,-0.8622778919977022,-0.003028170573882167,0.006419394738094933,-1.012913427389272
15453,6.0,299.7554,8730.5701,0.0,0.0,0.0,0.0,0.0,-0.1540171084987832,-0.6794027547918314,-1.1060806291116592,-0.868391914028609,0.0045754143183582355,0.01842819944397168,-0.986288295041576
15454,6.0,300.00926,8964.4411,0.0,0.0,0.0,0.0,0.0,-0.15402707530836696,-0.7354060504064264,-1.117936161906709,-0.8716240095950921,-0.0006535803394383574,0.03368603963680327,-0.976478534463428
15455,6.0,299.12222,8696.2347,0.0,0.0,0.0,0.0,0.0,-0.15403704211795083,-0.7010252890108093,-1.093849180529509,-0.8485637646767231,0.006916050724336063,-0.031025077687936768,-0.9974555371761971
15456,6.0,299.85537999999997,8548.9777,0.0,0.0,0.0,0.0,0.0,-0.1540470089275346,-0.6806658521014893,-1.0803573501479689,-0.8376525100473662,-0.009426556280428672,-0.00942531545435621,-0.9911078698047311
15457,6.0,300.08995,8796.2693,0.0,0.0,0.0,0.0,0.0,-0.15405697573711846,-0.7225198497421573,-1.093844924879089,-0.8574815003968352,0.011035486184367688,0.0027491661806715775,-0.9733217436443771
15458,6.0,299.23679,8710.1326,0.0,0.0,0.0,0.0,0.0,-0.15406694254670228,-0.7110291579106143,-1.068792620131619,-0.8678410910092472,0.015659358783458383,0.030277860454692173,-0.9626964180607391
15459,6.0,298.82189,8487.485,0.0,0.0,0.0,0.0,0.0,-0.15407690935628604,-0.6610812171461363,-1.066843734889279,-0.8520585655966332,-0.005916236523312084,0.0008993422361506682,-1.0278573160916191
15460,6.0,299.09472999999997,8751.8607,0.0,0.0,0.0,0.0,0.0,-0.1540868761658699,-0.7188353582710264,-1.071309533380019,-0.8702022474522751,-0.004126718904400446,-0.003664103359243846,-0.976746721499896
15461,6.0,298.90413,8932.5303,0.0,0.0,0.0,0.0,0.0,-0.15409684297545373,-0.7368821734171083,-1.094305649699559,-0.8840783124042361,-0.001043398951425459,-0.01071555246529269,-0.973972564316108
15462,6.0,300.0172,8542.0033,0.0,0.0,0.0,0.0,0.0,-0.1541068097850376,-0.6593040676632453,-1.078003570165669,-0.8592480512836802,0.006457254321456384,0.02884565271659427,-0.9951190635056051
15463,6.0,300.20117999999997,8363.8101,0.0,0.0,0.0,0.0,0.0,-0.15411677659462136,-0.6439738266977684,-1.067745831453309,-0.8306697375132202,0.0004922943701256714,-0.020072208876972784,-1.029826972961009
15464,6.0,300.37476000000004,8469.8303,0.0,0.0,0.0,0.0,0.0,-0.15412674340420518,-0.6300310898892274,-1.077006633392279,-0.8675791557258962,-0.009713043728277781,-0.01176531401939609,-1.024736201808589
15465,6.0,300.96557,8293.4182,0.0,0.0,0.0,0.0,0.0,-0.15413671021378905,-0.6261568369393684,-1.0811787920040388,-0.8136563766741323,-0.0062878510637375835,0.013244885120168387,-1.016550356900709
15466,6.0,300.23061,8375.3883,0.0,0.0,0.0,0.0,0.0,-0.1541466770233728,-0.6347451245219664,-1.075911816659229,-0.8352519685729513,-0.0016285666908770185,0.053341479495894156,-1.013084129633619
15467,6.0,299.59216000000004,8596.4836,0.0,0.0,0.0,0.0,0.0,-0.15415664383295669,-0.6954462022376964,-1.066573095787569,-0.8510970520467392,-0.019746955594872783,0.01073078465404599,-1.0056582628307429
15468,6.0,299.85095,8369.8733,0.0,0.0,0.0,0.0,0.0,-0.15416661064254045,-0.6270474128497614,-1.077114240552899,-0.8400708644585392,-0.01078804139069679,-0.004261247005602336,-1.017240582868829
15469,6.0,299.43906,8395.458,0.0,0.0,0.0,0.0,0.0,-0.15417657745212426,-0.6784224049225783,-1.040725795011639,-0.8328613772145183,0.03219054024445897,-0.010882779261796689,-0.993148970938672
15470,6.0,300.42587000000003,9053.9952,0.0,0.0,0.0,0.0,0.0,-0.15418654426170814,-0.7048929659675193,-1.121858047743769,-0.9254374690935671,0.010914911448967888,0.03855727191655646,-1.012873900502871
15471,6.0,299.42604,8891.5498,0.0,0.0,0.0,0.0,0.0,-0.1541965110712919,-0.7437450278019192,-1.077206750287029,-0.8818572985825393,-0.0017992680232989282,-0.018224037654822483,-0.9983405706085431
15472,6.0,298.77117000000004,8325.3066,0.0,0.0,0.0,0.0,0.0,-0.15420647788087577,-0.6428543677222863,-1.051643159539099,-0.8361878266303132,-0.02758172859485468,0.0017727171216535584,-1.014942632967039
15473,6.0,299.58867999999995,8426.208,0.0,0.0,0.0,0.0,0.0,-0.1542164446904596,-0.6746248043427844,-1.043860993471059,-0.8428710520373962,0.0022029002536343278,-0.0003763194456748376,-0.987934654201559
15474,6.0,300.0512,8600.6707,0.0,0.0,0.0,0.0,0.0,-0.1542264115000434,-0.6671015236752943,-1.058508334266639,-0.8887792862431861,0.01164554887082619,0.010725849112808888,-0.9652835900710731
15475,6.0,299.65036000000003,8467.9485,0.0,0.0,0.0,0.0,0.0,-0.15423637830962722,-0.6479565278058304,-1.037587759451939,-0.8885006120681832,0.015091913396205884,-0.012651464053352287,-0.9924877745859171
15476,6.0,300.16042999999996,8578.1244,0.0,0.0,0.0,0.0,0.0,-0.15424634511921098,-0.6429546085546795,-1.088217637798719,-0.8763634160103352,-0.005819633056128064,-0.013792164803930685,-0.996439794480951
15477,6.0,299.79843999999997,8694.8445,0.0,0.0,0.0,0.0,0.0,-0.1542563119287949,-0.7073825518607223,-1.0758659164296989,-0.8597671798399142,0.011389397219045989,-0.01111932351089179,-0.9843454791673351
15478,6.0,300.76608999999996,8695.763,0.0,0.0,0.0,0.0,0.0,-0.15426627873837867,-0.6794136067004023,-1.1053124842108488,-0.8585687481516381,0.004459801873998175,0.015831649803962185,-1.013453965920119
15479,6.0,300.76056,9087.399,0.0,0.0,0.0,0.0,0.0,-0.1542762455479625,-0.7237827646667973,-1.1427654503071687,-0.8957941180104961,0.00982738930603781,-0.011306633937627887,-1.016783201773689
15480,6.0,300.79023,8930.7853,0.0,0.0,0.0,0.0,0.0,-0.1542862123575463,-0.7196981103336734,-1.101675726951929,-0.8933618516754501,-0.004183947472698466,-0.012591163513401088,-1.002010501675737
15481,6.0,300.05707,8308.6245,0.0,0.0,0.0,0.0,0.0,-0.15429617916713018,-0.6265706482802085,-1.0637494717338989,-0.8352943021621292,0.016563375456427883,-0.0015968976603265286,-0.9938246162378531
15482,6.0,299.65461,8291.5538,0.0,0.0,0.0,0.0,0.0,-0.154306145976714,-0.6158678799914273,-1.046812388362339,-0.8577450163503422,0.02225872355926498,0.019078220661373782,-1.035347159505809
15483,6.0,299.43361,8740.7392,0.0,0.0,0.0,0.0,0.0,-0.15431611278629775,-0.7303213688871073,-1.083509165909029,-0.8431359156135362,-0.0017556605760952082,-0.003088584901819597,-0.999984710750807
15484,6.0,299.5389,8722.1054,0.0,0.0,0.0,0.0,0.0,-0.15432607959588157,-0.6758794612791094,-1.105611291665339,-0.8698114976837111,-0.025390431372090475,-0.024181540916282274,-1.028727393952489
15485,6.0,299.58359,8576.2049,0.0,0.0,0.0,0.0,0.0,-0.15433604640546544,-0.6661610654624784,-1.0885511997316388,-0.8522398664370262,-0.024994718704536678,-0.004228339580779626,-0.9863797003330972
15486,6.0,300.61375,8731.6659,0.0,0.0,0.0,0.0,0.0,-0.15434601321504926,-0.6573204786049803,-1.1193114462674387,-0.8775764790300552,0.008478390375426982,0.020202391249820782,-0.995644149972427
15487,6.0,299.84686,8841.0292,0.0,0.0,0.0,0.0,0.0,-0.15435598002463308,-0.6752470310966934,-1.1072449548015688,-0.904960150667613,0.01057553447372399,-0.013413817216590688,-0.9742814536090931
15488,6.0,300.36242000000004,8762.8142,0.0,0.0,0.0,0.0,0.0,-0.15436594683421684,-0.6650315955760084,-1.109942935842839,-0.8887021981755782,-0.004399376096334616,-0.019926090106551983,-1.00746911301196
15489,6.0,300.58571,8781.8233,0.0,0.0,0.0,0.0,0.0,-0.1543759136438007,-0.7550808038256732,-1.0706475770896888,-0.8437266302893353,-0.0002926951549842627,-0.02117139575770408,-0.9790231702345641
15490,6.0,300.81515,8683.0845,0.0,0.0,0.0,0.0,0.0,-0.15438588045338453,-0.6953418273448954,-1.071617662735429,-0.8724814319622132,0.017739526788254984,0.032513430627325764,-1.012143387710775
15491,6.0,300.60392,8353.6062,0.0,0.0,0.0,0.0,0.0,-0.15439584726296834,-0.6620925826009503,-1.050434149519779,-0.8267610239274602,0.0090121362802536,0.017267317791151586,-1.003045394797873
15492,6.0,299.69413,8605.5924,0.0,0.0,0.0,0.0,0.0,-0.15440581407255216,-0.6708290073481683,-1.068000866503479,-0.8770553138411202,0.01012568010430182,-0.016571362906966182,-1.012670520942799
15493,6.0,299.32625,8924.7105,0.0,0.0,0.0,0.0,0.0,-0.15441578088213603,-0.7138347663775063,-1.091684067715829,-0.9073703382829801,-0.005858167160081084,-0.014456759597521086,-0.9726992939754461
15494,6.0,299.57482999999996,8538.9388,0.0,0.0,0.0,0.0,0.0,-0.1544257476917198,-0.6678387543155534,-1.0846691346235091,-0.8431162889590992,-0.00012108246489240887,0.013196641243157088,-1.0197261866891392
15495,6.0,299.34336,8570.9877,0.0,0.0,0.0,0.0,0.0,-0.15443571450130367,-0.7031879294942454,-1.091380092685829,-0.8107981805270502,-0.003279948936905757,-0.017250984199539583,-1.011865716653371
15496,6.0,300.29891000000003,8951.8923,0.0,0.0,0.0,0.0,0.0,-0.15444568131088743,-0.7132171600440533,-1.1162049227858488,-0.8917296070893602,-0.027770257961461077,-0.02928308595701557,-1.008491198652832
15497,6.0,299.87217999999996,8848.4219,0.0,0.0,0.0,0.0,0.0,-0.15445564812047136,-0.7206080089234733,-1.112446170214889,-0.8566451029692892,0.007597558587270653,-0.01206987369470379,-0.977356353555062
15498,6.0,298.75838,8521.8111,0.0,0.0,0.0,0.0,0.0,-0.15446561493005512,-0.6248499976228934,-1.080730327509779,-0.8848374596441582,0.027665587199630876,0.014209285419597288,-0.9720401646528951
15499,6.0,300.7114,8653.9452,0.0,0.0,0.0,0.0,0.0,-0.15447558173963888,-0.6690930160843394,-1.0805782386697689,-0.8809119767692432,0.024700996752298577,0.022755763263318976,-0.9709092660837841
15500,6.0,300.33315,8574.8398,0.0,0.0,0.0,0.0,0.0,-0.15448554854922275,-0.6758823490418944,-1.069929385418809,-0.8607254813869911,0.017649207700841184,-0.025710714662449976,-0.978986531110948
15501,6.0,300.49613999999997,8488.1516,0.0,0.0,0.0,0.0,0.0,-0.15449551535880657,-0.7156675736883903,-1.047428444423139,-0.8170901698055212,-0.01094589765027599,0.006481927974641484,-1.0056755083474451
15502,6.0,300.51773,8744.5755,0.0,0.0,0.0,0.0,0.0,-0.15450548216839044,-0.6907380849855413,-1.095228213915609,-0.8721663415786162,-0.005366981001854785,0.024332414869422374,-1.033683200191589
15503,6.0,299.94832,8550.3123,0.0,0.0,0.0,0.0,0.0,-0.1545154489779742,-0.7075437295541294,-1.0452557322337088,-0.8462819761140281,0.0056972363957234545,0.0014328181199581387,-1.0206498654802991
15504,6.0,299.94548,8302.998,0.0,0.0,0.0,0.0,0.0,-0.15452541578755796,-0.5773904471165004,-1.0918617917833688,-0.8546517867100641,0.006988261917887754,-0.01995453102360888,-1.049185724071569
15505,6.0,299.3521,8479.5248,0.0,0.0,0.0,0.0,0.0,-0.1545353825971419,-0.6592629398416864,-1.067393321743519,-0.8509075844105402,0.015426690215995785,-0.01916119976506318,-0.9871952552060861
15506,6.0,299.65497,8782.5999,0.0,0.0,0.0,0.0,0.0,-0.15454534940672565,-0.7228140469086923,-1.0852064611515388,-0.8616705802852651,0.030920163746082568,0.01140660321899409,-0.987653325311294
15507,6.0,299.66445,8685.5892,0.0,0.0,0.0,0.0,0.0,-0.15455531621630952,-0.7007947138180534,-1.099520240014199,-0.8398872838054212,-0.015509614604179786,0.01823113344527278,-0.993099514201291
15508,6.0,299.24248,8659.5636,0.0,0.0,0.0,0.0,0.0,-0.15456528302589329,-0.7002417528409803,-1.078173289557419,-0.8538760728310072,-0.02088909110759278,-0.019881717858172783,-0.994115733124084
15509,6.0,299.55428,8693.9894,0.0,0.0,0.0,0.0,0.0,-0.1545752498354771,-0.7058960531690164,-1.078316461796549,-0.8585431939841163,-0.01860446747111798,0.00027007514696934174,-0.965030480196093
15510,6.0,300.68135,8589.4476,0.0,0.0,0.0,0.0,0.0,-0.15458521664506097,-0.6423713817971194,-1.072676205114899,-0.8959300455114112,0.005366984142930095,0.025141923679064676,-0.9916602836267501
15511,6.0,300.01482999999996,8598.5941,0.0,0.0,0.0,0.0,0.0,-0.15459518345464474,-0.6866081282404464,-1.0577352244403389,-0.8694144758970282,0.017339876630812583,0.01114574907349979,-1.00196179474343
15512,6.0,301.0782,8718.948,0.0,0.0,0.0,0.0,0.0,-0.1546051502642286,-0.7208748179398053,-1.0696695880931688,-0.8597980333054592,-0.00966105579082197,-0.03234217413517407,-1.0062520679193472
15513,6.0,300.64203,8575.5964,0.0,0.0,0.0,0.0,0.0,-0.15461511707381242,-0.6996831379283494,-1.082565830065929,-0.8245182150961121,-0.015711287851083385,-0.001693823138392328,-1.043488421409289
15514,6.0,299.75903999999997,8423.64,0.0,0.0,0.0,0.0,0.0,-0.15462508388339624,-0.6623149403353954,-1.056713260389479,-0.8415480007193211,0.017486493920282585,0.007532803901204862,-1.023156848877719
15515,6.0,300.38401,8898.6646,0.0,0.0,0.0,0.0,0.0,-0.15463505069298006,-0.6880236284976454,-1.1264143294684388,-0.8905338706463501,-0.02356165882310468,0.017815216570724983,-1.029402725144139
15516,6.0,298.95741,8798.0045,0.0,0.0,0.0,0.0,0.0,-0.15464501750256382,-0.6312044436375285,-1.115192077985889,-0.9279771804692172,0.0010601936731579691,-0.015027812155129586,-1.004100552922009
15517,6.0,298.4119,8449.9334,0.0,0.0,0.0,0.0,0.0,-0.1546549843121477,-0.6747257949802513,-1.066560734136349,-0.8272822296463992,-0.015027241695323287,0.011385676564678789,-0.9700025389667971
15518,6.0,299.47013,8758.6652,0.0,0.0,0.0,0.0,0.0,-0.1546649511217315,-0.7092713615046333,-1.100019468338469,-0.8531247377493562,0.02061661093045108,0.039508377361423264,-0.9809215956219239
15519,6.0,299.46035,8857.5215,0.0,0.0,0.0,0.0,0.0,-0.15467491793131533,-0.7448778211487173,-1.0716661974152188,-0.8759213248592042,-0.01028287846059109,0.018629073236546383,-0.9669155104171311
15520,6.0,299.1703,8653.9809,0.0,0.0,0.0,0.0,0.0,-0.15468488474089914,-0.6736865854126893,-1.111620067408359,-0.8452874407433753,0.007208708358669123,-0.02184909592808788,-1.035663800162059
15521,6.0,300.16856,8757.9415,0.0,0.0,0.0,0.0,0.0,-0.15469485155048301,-0.6705461788477554,-1.086621363591179,-0.9050279573643051,-0.01141843494041179,9.131853907393811e-05,-0.9870655591932861
15522,6.0,300.71857,8787.9239,0.0,0.0,0.0,0.0,0.0,-0.15470481836006683,-0.6614501212425443,-1.120645288699079,-0.8892140414635931,0.016015694525625984,0.009845121182787811,-1.0262073396287792
15523,6.0,301.64113,8498.819,0.0,0.0,0.0,0.0,0.0,-0.1547147851696506,-0.6775046333795014,-1.072708730443109,-0.8332154371969612,0.008646752923968071,-0.011149764583646091,-1.025871751195659
15524,6.0,300.87731,8543.9292,0.0,0.0,0.0,0.0,0.0,-0.1547247519792344,-0.6903173632790193,-1.040237611113459,-0.8665861199653911,0.0060677115364115046,-0.04639927546925196,-1.035340269405129
15525,6.0,299.6684,8693.6071,0.0,0.0,0.0,0.0,0.0,-0.15473471878881828,-0.7131168786816563,-1.085037856334899,-0.8444847034841512,-0.0024506080870311878,0.004078795214420746,-0.9953651414248911
15526,6.0,299.63672,8335.7414,0.0,0.0,0.0,0.0,0.0,-0.1547446855984021,-0.6587385423849323,-1.029446092248419,-0.8456725669738842,0.01110772585024719,0.02075662588226948,-0.9890673462233471
15527,6.0,299.28367000000003,8420.347,0.0,0.0,0.0,0.0,0.0,-0.15475465240798592,-0.6082920015112464,-1.0700791437835888,-0.8812041170380752,0.00972301542648691,0.016747743404873585,-1.004281245812342
15528,6.0,299.25413,8854.8967,0.0,0.0,0.0,0.0,0.0,-0.15476461921756968,-0.6938711657522524,-1.105498415604199,-0.8922979390704501,-0.010541672668632089,-0.024243033038351076,-0.967458217303192
15529,6.0,299.55253,8940.6882,0.0,0.0,0.0,0.0,0.0,-0.15477458602715355,-0.7366380814680183,-1.101512289710799,-0.8795956230343293,0.02243257903792318,0.010652580998077888,-0.9862686886521411
15530,6.0,299.98812999999996,8763.3411,0.0,0.0,0.0,0.0,0.0,-0.15478455283673737,-0.7225124834139304,-1.0890831560341387,-0.8522411937946572,0.008186384564883253,0.01819932144513318,-0.9892952768333421
15531,6.0,300.53075,8809.4816,0.0,0.0,0.0,0.0,0.0,-0.15479451964632118,-0.7148173859269833,-1.1068682284143887,-0.8561768800980792,-0.02509803475098318,0.007559569307896402,-1.018061011474799
15532,6.0,300.56458,8778.1044,0.0,0.0,0.0,0.0,0.0,-0.154804486455905,-0.6936572990536454,-1.077747623190409,-0.8969196362215761,-0.02670038035312237,-0.046520804686245955,-1.006148321241608
15533,6.0,301.14673,8605.5706,0.0,0.0,0.0,0.0,0.0,-0.15481445326548887,-0.6048050127496074,-1.1225131139334188,-0.8885604242215861,-0.01934523435422598,0.018017248508163983,-1.0406216329013591
15534,6.0,300.79267000000004,8704.4075,0.0,0.0,0.0,0.0,0.0,-0.15482442007507263,-0.6823724489799173,-1.088341760935969,-0.8752083514263391,0.009052296751942131,0.027972957630715972,-1.011610326965666
15535,6.0,299.71655,8691.6599,0.0,0.0,0.0,0.0,0.0,-0.1548343868846565,-0.7083572376619164,-1.0703373199090689,-0.8633530618113132,-0.007506018432161342,0.011029285093755689,-1.0084319741844872
15536,6.0,298.43061,8450.9645,0.0,0.0,0.0,0.0,0.0,-0.15484435369424027,-0.6819213601678983,-1.077162268607639,-0.8097986194359011,-0.008606071743053152,-0.018845207588877182,-1.017400676384629
15537,6.0,299.35316,8645.1686,0.0,0.0,0.0,0.0,0.0,-0.15485432050382408,-0.6982104599680073,-1.065256579932639,-0.8644483547719102,0.012639043633626489,0.030586817635433868,-0.957432067033688
15538,6.0,299.07583999999997,8937.3021,0.0,0.0,0.0,0.0,0.0,-0.15486428731340796,-0.6777495359286714,-1.115203933012059,-0.9237632050258301,0.00910805813409535,0.023867838685322273,-0.971281351785506
15539,6.0,300.43863,8836.6288,0.0,0.0,0.0,0.0,0.0,-0.15487425412299172,-0.6581068620075904,-1.1112262170944889,-0.9167814356092832,0.0017382708739039786,-0.0036603097508694465,-0.9850701657713561
15540,6.0,299.65173,8803.4156,0.0,0.0,0.0,0.0,0.0,-0.1548842209325756,-0.7008730076532803,-1.0896196719620888,-0.8855258617620981,-0.027395788082253774,-0.060485587790462744,-0.9910827412022511
15541,6.0,300.49536,8920.2113,0.0,0.0,0.0,0.0,0.0,-0.1548941877421594,-0.7670669546911143,-1.102404253773829,-0.8420502586613903,-0.0024410904261918677,-0.00914006548885423,-0.996750679876633
15542,6.0,300.22042999999996,8715.7939,0.0,0.0,0.0,0.0,0.0,-0.15490415455174328,-0.7497680802388483,-1.040610892450299,-0.8590046888746622,0.0063458965142662235,0.018407898978218182,-1.023339233895719
15543,6.0,300.6427,8659.1529,0.0,0.0,0.0,0.0,0.0,-0.15491412136132704,-0.7156456672212284,-1.076547023146919,-0.8399735924489392,-0.004826276601966415,-0.00967850051249363,-1.0246830061783392
15544,6.0,300.53592000000003,8652.2452,0.0,0.0,0.0,0.0,0.0,-0.1549240881709108,-0.6434458727331633,-1.0863372482631388,-0.9002833833735521,-0.015313835433107884,-0.02104129545811418,-1.019266171143739
15545,6.0,301.36287000000004,8458.1811,0.0,0.0,0.0,0.0,0.0,-0.15493405498049467,-0.6155612806436684,-1.067841988887799,-0.8876725840864631,-0.006907328363500233,0.0047886699258299255,-1.001430476788493
15546,6.0,301.23873,8433.2409,0.0,0.0,0.0,0.0,0.0,-0.1549440217900785,-0.6618752201894983,-1.0744141316864189,-0.8272053340963101,0.029691475396570473,0.006396377647498323,-0.9896596111717991
15547,6.0,301.40314,8859.7256,0.0,0.0,0.0,0.0,0.0,-0.15495398859966236,-0.7276430246327753,-1.080870054698569,-0.8846223263829261,0.015205078233624384,-0.023641812985515275,-0.982888405258533
15548,6.0,299.44435,8872.0868,0.0,0.0,0.0,0.0,0.0,-0.15496395540924612,-0.7646500796250872,-1.0957773954698091,-0.8364653457002023,0.007817999657826494,-0.03272045180825717,-0.9798234554285461
15549,6.0,300.14995,8681.0535,0.0,0.0,0.0,0.0,0.0,-0.15497392221882994,-0.6858815772562413,-1.089478323573139,-0.8634635871322212,0.0027560695549278874,0.014587600582934087,-0.9945095327754491
15550,6.0,299.98292000000004,8832.1301,0.0,0.0,0.0,0.0,0.0,-0.1549838890284138,-0.6522233138444294,-1.113249677544189,-0.9192740207227821,0.013565772307587487,0.033479471378666574,-0.986984205342757
15551,6.0,299.12642,8860.7958,0.0,0.0,0.0,0.0,0.0,-0.15499385583799757,-0.6649622791366674,-1.122013986934159,-0.9064843827930432,-0.02264413046005168,-0.008622103588785372,-1.010083348932465
15552,6.0,299.30036,8697.3126,0.0,0.0,0.0,0.0,0.0,-0.15500382264758145,-0.7105343068267763,-1.080464855983579,-0.8527666652965171,-0.011560180523400989,-0.03011961713357477,-1.019800153946439
15553,6.0,299.22147,8533.4003,0.0,0.0,0.0,0.0,0.0,-0.1550137894571652,-0.7209041616627013,-1.058536603944429,-0.8144998465873762,-0.00013310915589435088,0.015087189624239685,-1.044831788391869
15554,6.0,300.11279,8406.7247,0.0,0.0,0.0,0.0,0.0,-0.15502375626674908,-0.7096726997367423,-1.0328105892054689,-0.8129510836770252,0.02068993274743738,0.02400840383194498,-1.017204207190239
15555,6.0,300.74735,8478.9337,0.0,0.0,0.0,0.0,0.0,-0.1550337230763329,-0.6458971172425825,-1.0704848491236292,-0.8610021391942951,0.016902043156601786,-0.005136813338289005,-1.041124610250999
15556,6.0,299.93522,8669.8614,0.0,0.0,0.0,0.0,0.0,-0.15504368988591666,-0.6197045312300754,-1.102353996568869,-0.9133628817593981,-0.008278382810362772,-0.014227328364127987,-1.016200785616209
15557,6.0,299.91862000000003,8733.5965,0.0,0.0,0.0,0.0,0.0,-0.15505365669550053,-0.6426061923752934,-1.1196529115511389,-0.8925361339039581,0.007738667950522062,0.014599520457110486,-1.003842052556497
15558,6.0,300.86573,8626.4836,0.0,0.0,0.0,0.0,0.0,-0.15506362350508435,-0.6755022789293844,-1.092496998271059,-0.8542363946990682,-0.016575607411635086,0.016347530893625683,-0.9990931013253121
15559,6.0,299.08758,8486.5099,0.0,0.0,0.0,0.0,0.0,-0.15507359031466816,-0.6845020372450914,-1.0857416598543592,-0.8094433942158432,-0.0068485107150703835,-0.04199374408120986,-1.0195350877202791
15560,6.0,299.48931,8792.6514,0.0,0.0,0.0,0.0,0.0,-0.15508355712425198,-0.7715725232482793,-1.0756526272836489,-0.8255213428276132,-0.007875380112314503,-0.03860771049328436,-1.005333678293709
15561,6.0,299.22372,8951.3151,0.0,0.0,0.0,0.0,0.0,-0.15509352393383574,-0.7063351045698474,-1.121435927752109,-0.8932052336074933,0.016212955068344085,0.01107877526838999,-1.006012809173234
15562,6.0,299.51722,8781.2494,0.0,0.0,0.0,0.0,0.0,-0.15510349074341967,-0.6673249554548454,-1.0947910978224689,-0.9071644458626602,-0.022089669872830682,0.03477805878632717,-1.0234413695057991
15563,6.0,299.73933,8707.7192,0.0,0.0,0.0,0.0,0.0,-0.15511345755300343,-0.6613574797859013,-1.091493374047009,-0.894078290423657,-0.023623533953711275,-0.022126705177235778,-1.023379358599679
15564,6.0,299.81253,8595.9858,0.0,0.0,0.0,0.0,0.0,-0.15512342436258725,-0.7069788324908783,-1.064554701588369,-0.8414314870903222,-0.02067752246021258,-0.0047679148147565555,-1.025117082521179
15565,6.0,299.87273999999996,8522.9201,0.0,0.0,0.0,0.0,0.0,-0.15513339117217106,-0.7066798527838714,-1.052336526582529,-0.8317384934536982,0.018781903775629584,0.013724583048760886,-1.029157923919979
15566,6.0,300.87311,8760.8974,0.0,0.0,0.0,0.0,0.0,-0.15514335798175494,-0.7567241029703543,-1.088429711044649,-0.8179401751819102,0.022237790825449077,0.028054171652731177,-0.9790862349207881
15567,6.0,300.21522000000004,8815.8055,0.0,0.0,0.0,0.0,0.0,-0.15515332479133875,-0.6664160802476463,-1.114050246448199,-0.8993183538458112,-0.015716595255107185,-0.00978773738457447,-1.009188061409107
15568,6.0,300.05654,8805.1384,0.0,0.0,0.0,0.0,0.0,-0.15516329160092251,-0.6596185602292833,-1.1064320242463388,-0.9104916450835292,-0.03026810994897987,0.007520708126811103,-0.963142835789797
15569,6.0,300.14486,8936.951,0.0,0.0,0.0,0.0,0.0,-0.1551732584105064,-0.6799293307363004,-1.128734266897399,-0.9079463506998282,-0.008740294248024883,0.030216238636610573,-0.991081748217153
15570,6.0,300.46076,9052.4472,0.0,0.0,0.0,0.0,0.0,-0.1551832252200902,-0.7525163792800843,-1.0961772239592689,-0.9030242856890581,-0.01082210381930849,0.002022332601013688,-0.956218355533904
15571,6.0,299.77281,8737.2812,0.0,0.0,0.0,0.0,0.0,-0.15519319202967402,-0.7348920286306962,-1.070059588056659,-0.8509637387310822,0.020335772453234483,-0.05307450531979586,-1.006751275978615
15572,6.0,300.11904,8514.586,0.0,0.0,0.0,0.0,0.0,-0.15520315883925784,-0.7036750190823173,-1.048437438872719,-0.8361090667000403,5.7120269087581646e-05,-0.005598873521065795,-0.991585981996917
15573,6.0,300.40587999999997,8736.8456,0.0,0.0,0.0,0.0,0.0,-0.15521312564884165,-0.6480079097184014,-1.0968771771283488,-0.910897857048619,0.04064223259432606,0.025955048778313873,-0.994104202337946
15574,6.0,299.96193999999997,8716.7802,0.0,0.0,0.0,0.0,0.0,-0.15522309245842547,-0.6729079331083424,-1.076924560134179,-0.8998510903508882,-0.011080484621308688,0.04330365557198805,-1.001210094891743
15575,6.0,298.97008,8658.644,0.0,0.0,0.0,0.0,0.0,-0.15523305926800934,-0.6480166236692614,-1.088544714930999,-0.8954502310590572,-0.014057436719860986,-0.013139469619514687,-1.0103038524192272
15576,6.0,299.97091,8800.4963,0.0,0.0,0.0,0.0,0.0,-0.1552430260775931,-0.7129282115130363,-1.098048494243949,-0.8641544311829022,-0.022984843912177477,-0.0006981907218560593,-1.0234770359093188
15577,6.0,299.0748,8689.0282,0.0,0.0,0.0,0.0,0.0,-0.15525299288717692,-0.7180033684814153,-1.0726970780669591,-0.8505472118799742,0.023450678552901776,-0.005898854420496604,-0.981677257281502
15578,6.0,299.98961,8714.5499,0.0,0.0,0.0,0.0,0.0,-0.1552629596967608,-0.6907544591071574,-1.1112371601955688,-0.8470139175887651,0.0024483988978381576,-0.0044699509922998155,-0.9988601753923241
15579,6.0,301.08336,8827.6369,0.0,0.0,0.0,0.0,0.0,-0.15527292650634456,-0.6720859846272224,-1.1047835676586488,-0.9065116797507371,-0.005035392272179525,-0.041928950790315264,-0.9722680344678841
15580,6.0,300.9121,8542.4383,0.0,0.0,0.0,0.0,0.0,-0.15528289331592843,-0.6379559519688505,-1.085441940474779,-0.8732900764695202,-0.00964178752294534,-0.003283333394889777,-0.997968799014352
15581,6.0,300.14961,8334.6889,0.0,0.0,0.0,0.0,0.0,-0.1552928601255122,-0.6215437625465934,-1.075941302237139,-0.8360522841644362,0.004540567634169136,0.029599665818259575,-1.015326857404959
15582,6.0,300.8091,8789.9362,0.0,0.0,0.0,0.0,0.0,-0.15530282693509612,-0.7419107614108913,-1.0791072021745889,-0.8509031261101001,0.0004873305186807775,0.027265089965104874,-1.014400645488549
15583,6.0,299.97031,9010.9581,0.0,0.0,0.0,0.0,0.0,-0.15531279374467988,-0.7762415797090793,-1.116130246253479,-0.8467344125486802,0.011300970882818989,-0.03504721145014047,-1.0183372234520591
15584,6.0,301.39328,8811.9196,0.0,0.0,0.0,0.0,0.0,-0.15532276055426364,-0.7322426633292243,-1.080538215290819,-0.8658226056175381,0.023937943433241078,0.0012233867210138688,-1.005802934680021
15585,6.0,300.47668,8583.1746,0.0,0.0,0.0,0.0,0.0,-0.1553327273638475,-0.6505581284975883,-1.0905650343053888,-0.8679475430647531,0.024095253551016375,0.036719779337210066,-1.0140204740510292
15586,6.0,298.7297,8547.5215,0.0,0.0,0.0,0.0,0.0,-0.15534269417343133,-0.6734856376528573,-1.0660077022317689,-0.8587397746360173,-0.013632845411207089,0.023705496767550377,-0.9794706721412291
15587,6.0,299.97472,8619.5241,0.0,0.0,0.0,0.0,0.0,-0.1553526609830152,-0.6473116650446874,-1.095870006528949,-0.8769384354420852,-0.030452385691666473,-0.014107802342581686,-1.020266755617489
15588,6.0,300.9896,8698.5918,0.0,0.0,0.0,0.0,0.0,-0.15536262779259896,-0.7355625468843713,-1.088055821757749,-0.8205363853831362,-0.007907076905917732,0.019463375262885583,-0.994946689398593
15589,6.0,299.94163,8624.0069,0.0,0.0,0.0,0.0,0.0,-0.15537259460218272,-0.6983963103013494,-1.089735486448519,-0.8333509492653353,0.019154305611382785,-0.005082399781418805,-0.9897584334540521
15590,6.0,299.2169,8531.7851,0.0,0.0,0.0,0.0,0.0,-0.15538256141176665,-0.6725611583941183,-1.082550631314429,-0.8383378622825052,-0.012250220053502589,-0.01168024660725059,-0.9803267671507191
15591,6.0,299.28747999999996,8713.4106,0.0,0.0,0.0,0.0,0.0,-0.1553925282213504,-0.6386445364718084,-1.112825936352369,-0.8971887250506331,-0.02061631607467198,-0.04987328247060975,-0.993304636551535
15592,6.0,300.4341,9073.5276,0.0,0.0,0.0,0.0,0.0,-0.15540249503093428,-0.7374827470163803,-1.1094011510143689,-0.9112419365175771,0.005447923776818214,-0.002230814381964238,-1.009817553166233
15593,6.0,301.28924,8944.3827,0.0,0.0,0.0,0.0,0.0,-0.15541246184051805,-0.7247987100120633,-1.1179186326799788,-0.8761516872694392,0.008150672767758773,0.018820735572461982,-1.020063497647429
15594,6.0,300.96069,8495.9363,0.0,0.0,0.0,0.0,0.0,-0.15542242865010192,-0.7259190910451363,-1.057992589965739,-0.7986408207922122,-0.00943393456500685,0.02205485966564518,-1.023140434226099
15595,6.0,300.18542,8499.2951,0.0,0.0,0.0,0.0,0.0,-0.15543239545968573,-0.7096110232031553,-1.045957205277939,-0.8280052545202562,-0.011261544308177888,-0.018373736237846584,-1.0096029163975502
15596,6.0,300.39019,8706.6849,0.0,0.0,0.0,0.0,0.0,-0.1554423622692695,-0.6875783152111964,-1.0741237342077592,-0.8849127238615861,-0.00961177191390803,0.012329447092071687,-1.0128187492999279
15597,6.0,299.86907,8595.7101,0.0,0.0,0.0,0.0,0.0,-0.15545232907885337,-0.6404921169691504,-1.0788928997784388,-0.8934961681087061,0.013147314201788886,0.025733497590948475,-0.9655831777281401
15598,6.0,299.81413,8581.0507,0.0,0.0,0.0,0.0,0.0,-0.15546229588843719,-0.6426364986857843,-1.097973817711579,-0.8678148478316572,-0.01819363204582168,-0.004785414657233655,-0.9968081919523091
15599,6.0,299.48222999999996,8700.6544,0.0,0.0,0.0,0.0,0.0,-0.155472262698021,-0.6684421447501033,-1.107172304769399,-0.8691672023426242,-0.011079041753166291,-0.02202383800058358,-1.000097434824432
15600,6.0,300.18937999999997,8880.543,0.0,0.0,0.0,0.0,0.0,-0.15548222950760482,-0.7429197355954692,-1.1102877448518689,-0.8462558241289472,-0.000995601552938223,-0.007908166048450222,-1.0181982055383392
15601,6.0,299.17627999999996,8928.3688,0.0,0.0,0.0,0.0,0.0,-0.15549219631718858,-0.7187004338877103,-1.106799226082579,-0.888501534125774,0.02262255228592208,0.026469102978047075,-1.005892161483827
15602,6.0,299.5634,8677.0367,0.0,0.0,0.0,0.0,0.0,-0.1555021631267725,-0.6883130329912073,-1.076515713718829,-0.8727737647485642,0.022449987687891276,0.009582353514479662,-0.988252166252895
15603,6.0,300.77081,8228.5276,0.0,0.0,0.0,0.0,0.0,-0.15551212993635627,-0.5718108334533355,-1.062792963639499,-0.8666631168404902,-0.007718648357696284,-0.005875582598824854,-1.010616541400087
15604,6.0,301.04329,8330.7745,0.0,0.0,0.0,0.0,0.0,-0.15552209674594009,-0.6553252169055634,-1.0316390694398492,-0.8453831422153202,-0.0062738234267031645,0.013239544278891287,-1.026812351263489
15605,6.0,300.66504,8906.5613,0.0,0.0,0.0,0.0,0.0,-0.1555320635555239,-0.7124303409439002,-1.101878579621949,-0.8930632772684832,0.00020237924917577678,0.008062153921797642,-1.024294323439979
15606,6.0,300.50592,8793.3854,0.0,0.0,0.0,0.0,0.0,-0.15554203036510778,-0.7709785155096553,-1.091005190148829,-0.8109859053730771,0.015252379788042685,-0.01161360717467379,-1.00492848971122
15607,6.0,299.44219,8512.0629,0.0,0.0,0.0,0.0,0.0,-0.1555519971746916,-0.6325511138154344,-1.091875065359679,-0.8630283759492692,0.006021724471347934,-0.02870209645567637,-1.0031495467756522
15608,6.0,300.61056,8849.7288,0.0,0.0,0.0,0.0,0.0,-0.15556196398427535,-0.6834717240134074,-1.112754603545329,-0.8938702904431292,0.015842070067990585,0.002072397491104708,-0.980531747645949
15609,6.0,300.37257999999997,9060.038,0.0,0.0,0.0,0.0,0.0,-0.15557193079385917,-0.6904346672430963,-1.1273091306317489,-0.9362815351087931,-0.002156668083371568,0.018684874946053583,-0.9422501050878452
15610,6.0,299.1827,8867.5959,0.0,0.0,0.0,0.0,0.0,-0.15558189760344304,-0.7121330128345563,-1.086801519458959,-0.8965931670393561,-0.017129331366033382,0.01054282068099539,-0.966149999966581
15611,6.0,300.01358,8709.0498,0.0,0.0,0.0,0.0,0.0,-0.15559186441302686,-0.6961201047467054,-1.0902514333994389,-0.8609621056828441,-0.036818142617167766,-0.02087276055573108,-0.9721967016608442
15612,6.0,300.32447,8547.1962,0.0,0.0,0.0,0.0,0.0,-0.15560183122261068,-0.7273702171758514,-1.060836580346419,-0.8099274643186172,-0.01047842458413999,-0.0025989099047924375,-1.0163017053261691
15613,6.0,298.86422999999996,8528.2515,0.0,0.0,0.0,0.0,0.0,-0.1556117980321945,-0.6824327373608674,-1.058583821399089,-0.8513589062700821,-0.0003761794347760196,0.033069006802906864,-1.003896808591901
15614,6.0,299.81532999999996,8861.3116,0.0,0.0,0.0,0.0,0.0,-0.1556217648417783,-0.6998966803869243,-1.113427401611729,-0.8802933977156941,0.02060407702671408,0.011039638483277488,-1.016841564979449
15615,6.0,300.41901,8829.3783,0.0,0.0,0.0,0.0,0.0,-0.15563173165136218,-0.6711477656971274,-1.0969724226377489,-0.9157903250239681,0.0031765712848531766,-0.005462950883751275,-0.9975696797999621
15616,6.0,300.32597000000004,8522.9701,0.0,0.0,0.0,0.0,0.0,-0.15564169846094594,-0.6560461544842144,-1.097121066427419,-0.8376028405274641,-0.018875799635896383,0.0031576909904398372,-1.031455164546699
15617,6.0,300.96297000000004,8467.4261,0.0,0.0,0.0,0.0,0.0,-0.15565166527052976,-0.6747517544478133,-1.069967179647539,-0.8291671180124233,-0.008369465584376942,0.02078183250500718,-1.019642390905869
15618,6.0,300.71484,8891.5807,0.0,0.0,0.0,0.0,0.0,-0.15566163208011363,-0.7646672136842783,-1.099300668717529,-0.8388505870981071,-0.01923407473875538,-0.00020203092418889982,-0.990842155098507
15619,6.0,300.67225,8913.134,0.0,0.0,0.0,0.0,0.0,-0.1556715988896974,-0.6601185180936254,-1.134356386402259,-0.9148952502831312,-0.008726233072412153,0.00961283643446309,-1.007251547950488
15620,6.0,300.43966,8543.5933,0.0,0.0,0.0,0.0,0.0,-0.15568156569928127,-0.6527333434147654,-1.090122345336699,-0.8541833915863372,0.0070843391029698334,-6.0527582954107335e-05,-0.9835881557775932
15621,6.0,299.93812,8533.4639,0.0,0.0,0.0,0.0,0.0,-0.15569153250886503,-0.6095673895446174,-1.091140053737139,-0.8932525523871631,-0.01320308450054299,0.014066010842207186,-0.973765932223215
15622,6.0,299.05868,8629.3524,0.0,0.0,0.0,0.0,0.0,-0.15570149931844884,-0.7001253101394883,-1.100198610956149,-0.8227837639724352,-0.02101981151624388,-0.020489340638390478,-0.9830057193551112
15623,6.0,299.49483,8716.0646,0.0,0.0,0.0,0.0,0.0,-0.15571146612803272,-0.7071106664613893,-1.098048696893969,-0.8443066146465752,-0.01864885694474888,-0.016367621616608485,-1.0227929907668092
15624,6.0,299.14243,8865.9705,0.0,0.0,0.0,0.0,0.0,-0.15572143293761648,-0.7716824710166302,-1.086965362000129,-0.8363858460973561,0.012240967053589388,-0.002867608531235927,-1.0143027655288892
15625,6.0,299.01729,8712.0245,0.0,0.0,0.0,0.0,0.0,-0.15573139974720035,-0.6677234768516763,-1.103733536580019,-0.8767808446540322,0.017252786771467483,0.02902734365827577,-1.043140167349919
15626,6.0,299.26066000000003,8469.6596,0.0,0.0,0.0,0.0,0.0,-0.15574136655678417,-0.6664030802488634,-1.0483598239150589,-0.8598021065708612,0.005207948966859545,0.008392184880769163,-1.005790755413819
15627,6.0,299.83706,8835.4382,0.0,0.0,0.0,0.0,0.0,-0.15575133336636804,-0.6543368319630174,-1.097487761638609,-0.9339280185715191,-0.030581149514374472,0.0008818186633562262,-1.0105269802237482
15628,6.0,300.17642,9093.9276,0.0,0.0,0.0,0.0,0.0,-0.1557613001759518,-0.7513314744806433,-1.095377769630369,-0.9176176911818151,-0.025219388675709876,0.003001766492176287,-0.9858012257185061
15629,6.0,299.98145,8676.4597,0.0,0.0,0.0,0.0,0.0,-0.15577126698553556,-0.7159591465371663,-1.0766987066868887,-0.8447692038472292,-0.03061649167786247,0.006685599654717313,-0.965400650855126
15630,6.0,300.56062000000003,8504.7861,0.0,0.0,0.0,0.0,0.0,-0.1557812337951195,-0.6949826301844453,-1.080211543458579,-0.8100483957180522,0.0004063200687431686,-0.02257334379481558,-0.976659997423837
15631,6.0,301.20486,8777.8703,0.0,0.0,0.0,0.0,0.0,-0.15579120060470325,-0.6671092345085553,-1.1125231772224888,-0.8886209861800631,0.005688609989672094,-0.02165840327251798,-0.9714354367282132
15632,6.0,300.19924,8757.6191,0.0,0.0,0.0,0.0,0.0,-0.15580116741428712,-0.6777719692858853,-1.114192912062279,-0.8701326574354072,0.04959805233269666,0.003822780148754027,-1.004750441403648
15633,6.0,299.02896,8587.0617,0.0,0.0,0.0,0.0,0.0,-0.15581113422387088,-0.6238141621781644,-1.1168044628700189,-0.8696337128211651,0.014867571718065088,0.01062660835826459,-1.0408890296027489
15634,6.0,300.48977,8534.2965,0.0,0.0,0.0,0.0,0.0,-0.15582110103345476,-0.6884487781071044,-1.0871780431961189,-0.8185862538431732,-0.0018839878906601283,-0.018709449300728882,-1.0698934150402593
15635,6.0,300.11701,8265.8043,0.0,0.0,0.0,0.0,0.0,-0.15583106784303857,-0.6643252994613024,-1.036976364341599,-0.8112963956012201,-0.023742255454678177,-0.002485767662851168,-1.059319339646679
15636,6.0,298.72483,8518.8579,0.0,0.0,0.0,0.0,0.0,-0.15584103465262233,-0.6867639255758223,-1.059653509529659,-0.8431026303477512,0.012605544572070387,0.010351446108108191,-1.038387821730899
15637,6.0,299.60188999999997,9088.9484,0.0,0.0,0.0,0.0,0.0,-0.1558510014622062,-0.7058837421803014,-1.1053476439893188,-0.9515819155938231,0.006538097595259995,0.015799106237250383,-1.017326709127329
15638,6.0,300.20599999999996,8899.7592,0.0,0.0,0.0,0.0,0.0,-0.15586096827179002,-0.7123818771916173,-1.074139338259299,-0.9187833746268591,-0.004608639903712345,-0.04462404812180066,-0.9426905041113091
15639,6.0,300.18466,8527.1283,0.0,0.0,0.0,0.0,0.0,-0.15587093508137384,-0.6228407024095914,-1.085640233519349,-0.8835531448774062,-0.01990222198719638,-0.03035076481263727,-1.0047236004084992
15640,6.0,301.10354,8794.5335,0.0,0.0,0.0,0.0,0.0,-0.15588090189095766,-0.7675099172373312,-1.074825815202049,-0.8309827912641162,0.014288574266422485,-0.021771627891692378,-0.9371404976160661
15641,6.0,299.63166,9170.8223,0.0,0.0,0.0,0.0,0.0,-0.15589086870054142,-0.7763649530412553,-1.141534554085689,-0.8698015374352281,0.00045883745977373164,0.000948259286130905,-1.0005769554342572
15642,6.0,300.6482,9023.5004,0.0,0.0,0.0,0.0,0.0,-0.1559008355101253,-0.7340694924645184,-1.1320857942531688,-0.8767635180773221,0.0048975861042541155,-0.03262272180961197,-0.9738973406286842
15643,6.0,299.88881000000003,8596.5309,0.0,0.0,0.0,0.0,0.0,-0.1559108023197091,-0.6177487153570514,-1.1085729203826291,-0.8868090822187421,0.008492920381860983,-0.015608945537982987,-1.040213799736109
15644,6.0,299.12703,8450.0801,0.0,0.0,0.0,0.0,0.0,-0.15592076912929292,-0.6499676164718093,-1.0775522685711292,-0.8410934161944571,0.023372861958471877,0.024877999385767374,-1.0139093205150589
15645,6.0,299.51867999999996,8531.4887,0.0,0.0,0.0,0.0,0.0,-0.15593073593887674,-0.6448674119609584,-1.060597149347789,-0.8878949620859101,0.013612812443479986,0.012901725682301187,-1.0501119359879791
15646,6.0,299.69152,8816.1864,0.0,0.0,0.0,0.0,0.0,-0.1559407027484606,-0.7697536278612683,-1.068883407340579,-0.8412634902237421,0.0008621664446192031,-0.01109150472939629,-1.0270362795355892
15647,6.0,298.67025,8812.0556,0.0,0.0,0.0,0.0,0.0,-0.15595066955804443,-0.7060492059216313,-1.080807334517379,-0.8917883046676531,-0.016174159748515285,-0.01221369238739759,-1.010761334839377
15648,6.0,300.16255,8405.6668,0.0,0.0,0.0,0.0,0.0,-0.15596063636762825,-0.6393272846541904,-1.0566355441068092,-0.8591499484089982,0.01875523807274788,0.02397206564360868,-1.005908525472942
15649,6.0,300.82824,8482.6944,0.0,0.0,0.0,0.0,0.0,-0.155970603177212,-0.6149394693223004,-1.098885236176529,-0.8647026197520042,0.01006308404624907,0.018917517169013583,-0.989392103012898
15650,6.0,301.3316,9113.8224,0.0,0.0,0.0,0.0,0.0,-0.15598056998679583,-0.7107675873972993,-1.1450873129113188,-0.9145195371460512,0.00915824664069857,-0.023187001492628877,-0.9848621759233291
15651,6.0,300.67485,9068.942,0.0,0.0,0.0,0.0,0.0,-0.1559905367963797,-0.6970218568057014,-1.168065900004129,-0.8916441698409281,-0.007516448423390702,-0.01860266084618968,-0.992882141657338
15652,6.0,298.53963999999996,8568.3123,0.0,0.0,0.0,0.0,0.0,-0.15600050360596351,-0.7140508318288303,-1.096149359581519,-0.7943527666340142,-0.0074232424851169935,0.0059475787807053235,-1.019211860938379
15653,6.0,299.55622,8700.3283,0.0,0.0,0.0,0.0,0.0,-0.15601047041554733,-0.6745925931221054,-1.114633675855779,-0.8554562566269591,-0.008515256973690431,0.019127867889773584,-1.013743248823669
15654,6.0,300.48122,8786.5745,0.0,0.0,0.0,0.0,0.0,-0.15602043722513115,-0.7096231112768483,-1.102766490684579,-0.8585096554058063,-0.017592810200275182,-0.017098323886473185,-0.995087490632489
15655,6.0,300.44228,8654.9018,0.0,0.0,0.0,0.0,0.0,-0.15603040403471502,-0.6494121527669894,-1.0798947001523092,-0.9015671408527491,0.008013245150070722,0.012742275580314688,-1.023521213613679
15656,6.0,299.42996,8628.4952,0.0,0.0,0.0,0.0,0.0,-0.15604037084429878,-0.6730841778307364,-1.0617907579655892,-0.8879722122735341,0.015281689060435286,0.04216377352749046,-1.023761049912349
15657,6.0,299.71666,8580.4618,0.0,0.0,0.0,0.0,0.0,-0.1560503376538826,-0.6967939261957063,-1.041291492542469,-0.8701607548606802,0.019331615259631882,0.01089208292421489,-1.024998025634429
15658,6.0,299.91896,8703.4963,0.0,0.0,0.0,0.0,0.0,-0.15606030446346641,-0.7556789658897073,-1.0572950685968991,-0.8326714840132771,-0.018589540270644783,-0.04906051910164625,-0.9744331878115681
15659,6.0,299.02005,9020.6999,0.0,0.0,0.0,0.0,0.0,-0.15607027127305023,-0.7066530219212234,-1.1418045852373389,-0.8936099560949362,-0.02289057720237408,-0.04391995278631186,-0.9943372397284451
15660,6.0,298.24978,9200.8927,0.0,0.0,0.0,0.0,0.0,-0.1560802380826341,-0.7733485581560603,-1.114948087361809,-0.9085449991239102,-0.007493002525351774,0.003953833612712996,-0.9466651093510721
15661,6.0,298.98362000000003,8924.9798,0.0,0.0,0.0,0.0,0.0,-0.15609020489221787,-0.6727146151217633,-1.137088513971899,-0.9031679240232342,-0.008909713109795221,0.023209505777349877,-0.9735273523546689
15662,6.0,298.90072999999995,8593.4786,0.0,0.0,0.0,0.0,0.0,-0.15610017170180168,-0.6777408827728173,-1.094373030831209,-0.8400890421653332,-0.021656410209571278,0.00015938073488465384,-0.9857702202654461
15663,6.0,299.32184,8782.3832,0.0,0.0,0.0,0.0,0.0,-0.15611013851138555,-0.7178062913369654,-1.0994767715849092,-0.8523421236371183,-0.001884815513341808,-0.004191937962987066,-0.9947734236314931
15664,6.0,299.75948,8787.5832,0.0,0.0,0.0,0.0,0.0,-0.15612010532096932,-0.7344182328839363,-1.0915612618037092,-0.8452264329548542,0.001056544250272799,0.03252482158494997,-1.038166021284009
15665,6.0,299.6996,8389.9098,0.0,0.0,0.0,0.0,0.0,-0.1561300721305532,-0.6191838118711843,-1.071508738349679,-0.8596305126664262,0.00924316206532907,0.007802015130873942,-1.057154328158009
15666,6.0,300.43538,8219.4209,0.0,0.0,0.0,0.0,0.0,-0.15614003894013695,-0.6525652654881774,-1.022043793642869,-0.8238896352640762,-0.00865802411543045,-0.012543078716655488,-1.0354169724376991
15667,6.0,299.90742,8492.8929,0.0,0.0,0.0,0.0,0.0,-0.15615000574972088,-0.6099492328448024,-1.097386537953619,-0.8742916235308652,-0.0052863455456466845,-0.0008691808001589661,-1.023165765478599
15668,6.0,298.79472000000004,8777.9019,0.0,0.0,0.0,0.0,0.0,-0.15615997255930464,-0.6859183177048673,-1.093928923312379,-0.8884158030348133,0.012430422530787189,0.04931239483800445,-1.027219272503649
15669,6.0,300.43085,9208.2992,0.0,0.0,0.0,0.0,0.0,-0.1561699393688884,-0.7703635233614603,-1.143085029388709,-0.8856444829513052,-0.013797122636669988,0.021275940876521876,-1.0035640167290572
15670,6.0,299.52074,9057.7375,0.0,0.0,0.0,0.0,0.0,-0.15617990617847227,-0.7487069338066212,-1.118752740162299,-0.8858663745907042,-0.050438613204903546,-0.025919366162792275,-0.9847711657993472
15671,6.0,298.58088,8572.7494,0.0,0.0,0.0,0.0,0.0,-0.1561898729880561,-0.6548241951286164,-1.091441596966899,-0.8596359842169662,-0.040471968074022265,-0.023900552478050875,-0.9892193945333531
15672,6.0,298.78779,8733.8712,0.0,0.0,0.0,0.0,0.0,-0.15619983979763996,-0.7052894507316493,-1.083215526030049,-0.8663737326119302,-0.0012484146064339289,0.04322767599998946,-0.9771605632382391
15673,6.0,299.18973,8903.0806,0.0,0.0,0.0,0.0,0.0,-0.15620980660722372,-0.6735122152029803,-1.1067558589782989,-0.9260460878986332,0.014671479452712287,0.01987513071927268,-1.000480858794773
15674,6.0,299.61183,8456.3742,0.0,0.0,0.0,0.0,0.0,-0.1562197734168076,-0.6916674481097623,-1.0372997937735189,-0.8415593592529421,0.004459255833519285,-0.017270205553936584,-1.000506149517269
15675,6.0,300.51752999999997,8295.988000000001,0.0,0.0,0.0,0.0,0.0,-0.1562297402263914,-0.6522418765862613,-1.036167081486729,-0.8333642633716493,0.0034611724663161265,-0.03443559443802857,-1.028047199160359
15676,6.0,300.43309,8731.7815,0.0,0.0,0.0,0.0,0.0,-0.15623970703597517,-0.7214743377589733,-1.067752214928939,-0.8650170109930322,-0.0036775645894723662,0.02026848960684418,-1.006482095957049
15677,6.0,299.9898,8928.1644,0.0,0.0,0.0,0.0,0.0,-0.15624967384555905,-0.7093828088831323,-1.118917697278579,-0.8856385655707212,-0.009604728407162892,0.014643484365699386,-1.036224026142349
15678,6.0,300.55483,8917.5926,0.0,0.0,0.0,0.0,0.0,-0.1562596406551428,-0.7289040346472273,-1.0751638354354092,-0.9066575675001352,-0.015050519089870585,0.0014578635346049287,-0.9789043565278381
15679,6.0,299.20608,8739.9708,0.0,0.0,0.0,0.0,0.0,-0.15626960746472668,-0.6674891121035463,-1.1012171299566689,-0.8880266238039041,-0.02205719926012608,0.006136754702200534,-1.00145223126814
15680,6.0,299.76416,8705.7536,0.0,0.0,0.0,0.0,0.0,-0.1562795742743105,-0.7111199349870734,-1.080514707888499,-0.8546970992545362,-0.002127792583346778,0.05224861022953635,-0.9580888456160072
15681,6.0,299.11652000000004,8861.851,0.0,0.0,0.0,0.0,0.0,-0.15628954108389426,-0.7249532002548104,-1.1092483528992887,-0.8595798197639233,0.012489046141822889,0.0017785193970261985,-1.027879911568849
15682,6.0,299.23616,9000.9834,0.0,0.0,0.0,0.0,0.0,-0.15629950789347813,-0.7367735124763843,-1.1293577196839288,-0.8699429466191841,-0.019151128059069183,-0.015781777634040185,-0.984630982648012
15683,6.0,300.20518,8593.2081,0.0,0.0,0.0,0.0,0.0,-0.15630947470306195,-0.6655567732353395,-1.104221720478199,-0.8423422266777052,-0.004552083221555636,-0.04104703006227646,-1.019172242859469
15684,6.0,300.66016,8343.8084,0.0,0.0,0.0,0.0,0.0,-0.15631944151264576,-0.6047503884367164,-1.0830237177861188,-0.8485352720839112,-0.002683474136938278,0.023094925429541682,-0.994717319973456
15685,6.0,301.20361,8600.9883,0.0,0.0,0.0,0.0,0.0,-0.15632940832222958,-0.6366849715734144,-1.111891719760169,-0.8659090257185671,0.0007697217611456233,0.008715592122511972,-1.017228727842659
15686,6.0,301.13017,8907.0581,0.0,0.0,0.0,0.0,0.0,-0.1563393751318134,-0.7535113706132823,-1.074123835532769,-0.8798880571456902,-0.003560616884130527,0.012560077000333089,-0.988038025976761
15687,6.0,299.69158,8644.3182,0.0,0.0,0.0,0.0,0.0,-0.15634934194139727,-0.6926741728791184,-1.091761783998499,-0.8432209374294273,0.0023915469546023074,0.0017216440477130382,-1.037035031522389
15688,6.0,298.95656,8709.37,0.0,0.0,0.0,0.0,0.0,-0.15635930875098109,-0.7167523288479473,-1.076333734000869,-0.8543448935197762,0.0037893863638833168,0.025342369880097176,-1.006063198100707
15689,6.0,299.57667999999995,9008.6922,0.0,0.0,0.0,0.0,0.0,-0.15636927556056485,-0.7271272803318753,-1.095096694052629,-0.9161935073712592,0.02196709092873308,-0.015748917933297184,-1.003425019080339
15690,6.0,299.17699,8936.8379,0.0,0.0,0.0,0.0,0.0,-0.15637924237014866,-0.7037864461958143,-1.1273767144134188,-0.8854123676183971,-0.0008700801913452292,-0.037853455224845164,-0.988612640108471
15691,6.0,300.46432000000004,8779.1821,0.0,0.0,0.0,0.0,0.0,-0.15638920917973254,-0.6763843739364404,-1.087352423538329,-0.9049153650131931,0.02312792698529868,-0.04617536036940326,-0.979430699424784
15692,6.0,300.83904,8828.1775,0.0,0.0,0.0,0.0,0.0,-0.15639917598931635,-0.7509982874502603,-1.100753264060889,-0.8317939182341683,-0.005257652633289915,-0.01040257166840389,-0.965233282203608
15693,6.0,300.11766,8739.927,0.0,0.0,0.0,0.0,0.0,-0.15640914279890017,-0.6876417142699534,-1.112837487403509,-0.8562404108793491,0.02415716110562618,-0.01072190655666979,-1.004605333856827
15694,6.0,300.37642999999997,8714.0268,0.0,0.0,0.0,0.0,0.0,-0.15641910960848393,-0.7009994004707544,-1.080990935435499,-0.8668562220445483,-0.024074222531940775,0.008361179833009201,-0.9941684930567911
15695,6.0,300.44116,8892.3462,0.0,0.0,0.0,0.0,0.0,-0.15642907641806786,-0.6622547938094594,-1.124534243907889,-0.9162621753305362,0.002217584983358598,0.007761620294437283,-1.001867380099112
15696,6.0,300.39269,8615.9402,0.0,0.0,0.0,0.0,0.0,-0.15643904322765162,-0.6529814680992534,-1.0627079519561091,-0.9033412708503421,-0.01736045168734318,0.03305382831640887,-0.9974294763836251
15697,6.0,299.844,8613.6852,0.0,0.0,0.0,0.0,0.0,-0.15644901003723544,-0.6458191780448903,-1.080788082765479,-0.8917379157401801,0.008671634698723712,0.0004686267729648616,-0.9894799821940711
15698,6.0,300.18613999999997,8931.4632,0.0,0.0,0.0,0.0,0.0,-0.15645897684681925,-0.7770702359058612,-1.0764216841095489,-0.8614498538834812,-0.022018373542794276,-0.01127868647336969,-0.9816999135537381
15699,6.0,300.08931,9046.2023,0.0,0.0,0.0,0.0,0.0,-0.15646894365640307,-0.7524595055519713,-1.099229741210529,-0.8981303991635692,0.034773248888102466,-0.02190883310098348,-0.979997156893189
15700,6.0,300.01523,8846.322,0.0,0.0,0.0,0.0,0.0,-0.15647891046598694,-0.7386618458927483,-1.0957776994448387,-0.8546214803995731,-0.00924935170621494,0.014654111332748186,-1.012254916149282
15701,6.0,299.79888,8907.2167,0.0,0.0,0.0,0.0,0.0,-0.1564888772755707,-0.6875244508358803,-1.125815093359299,-0.8942318890063161,0.006981762526446313,-0.0070886508874453726,-0.975328434804922
15702,6.0,299.35219,8851.6154,0.0,0.0,0.0,0.0,0.0,-0.15649884408515452,-0.6770412842412724,-1.119954353455889,-0.8936743684037931,-0.023095097682058682,-0.012263519974315188,-1.015937239265199
15703,6.0,299.35551,8617.9056,0.0,0.0,0.0,0.0,0.0,-0.1565088108947384,-0.6515916233345864,-1.110491002821929,-0.8575454466106462,0.0035898214877877963,-0.019182460791911483,-0.9936721119653021
15704,6.0,300.38187,8696.9849,0.0,0.0,0.0,0.0,0.0,-0.15651877770432215,-0.7055856237358794,-1.1075735518089989,-0.8305071210046712,-9.49426236138574e-06,0.01338328900432779,-1.0307562246277189
15705,6.0,299.73742999999996,8660.2145,0.0,0.0,0.0,0.0,0.0,-0.15652874451390603,-0.6900062448358144,-1.0819592985560689,-0.8605233582570432,-0.003890861030923087,-0.008743156172932332,-1.0211926635588688
15706,6.0,300.54762999999997,8439.1458,0.0,0.0,0.0,0.0,0.0,-0.1565387113234898,-0.6635864172233804,-1.058856689651019,-0.8428465212524753,-0.0012350457846145289,0.0024506757721378678,-1.0303731147649091
15707,6.0,301.66188,8559.6067,0.0,0.0,0.0,0.0,0.0,-0.15654867813307372,-0.6223948014380845,-1.0757246693657592,-0.9037872326168552,-0.0036609326970309265,-0.006582468526414063,-0.9927050356723589
15708,6.0,300.64151,8973.8673,0.0,0.0,0.0,0.0,0.0,-0.15655864494265748,-0.7130384328589143,-1.099314144943859,-0.9154789634007392,0.010570402361967489,0.012457143962424387,-0.99098566171017
15709,6.0,301.01878,9106.2296,0.0,0.0,0.0,0.0,0.0,-0.15656861175224124,-0.7632688474862702,-1.0965497960210389,-0.9082477520745742,-0.0004274494237409736,-0.029722190046851768,-0.975974857971219
15710,6.0,299.57596,8860.513,0.0,0.0,0.0,0.0,0.0,-0.1565785785618251,-0.7570606945210733,-1.091306125428529,-0.8450078850407853,0.009752532617800031,-0.018535493510310783,-0.988890645538408
15711,6.0,299.27069,8992.6387,0.0,0.0,0.0,0.0,0.0,-0.15658854537140893,-0.7442147908132812,-1.107229553400049,-0.882093304795831,0.007933743824699553,-0.006953441071576203,-1.000698626506265
15712,6.0,300.03753,9172.8809,0.0,0.0,0.0,0.0,0.0,-0.1565985121809928,-0.7506639655797653,-1.1342756303692887,-0.9033871812123732,0.02062115535714958,0.032120806346076766,-0.985080429994869
15713,6.0,300.51763,8864.4848,0.0,0.0,0.0,0.0,0.0,-0.15660847899057656,-0.6475196548927143,-1.1343823256048189,-0.9126800423845072,-0.023372056424642376,0.00892779040350431,-1.015828416204459
15714,6.0,299.41471,8635.5098,0.0,0.0,0.0,0.0,0.0,-0.15661844580016032,-0.6547377041000804,-1.086454886599749,-0.8837867699529631,0.0065567803059038325,0.0016437963465050684,-0.9895102783720611
15715,6.0,300.5173,8552.5133,0.0,0.0,0.0,0.0,0.0,-0.15662841260974425,-0.6723718427454344,-1.0872559621288092,-0.8401226618036512,0.0005369127166891595,0.004461120213703286,-0.9861542319208451
15716,6.0,299.76741,8497.2778,0.0,0.0,0.0,0.0,0.0,-0.156638379419328,-0.6860399482468714,-1.0651806875001488,-0.8317396688238141,0.02708067743365477,0.03391880648952557,-1.0072699688373061
15717,6.0,300.90058,8831.2348,0.0,0.0,0.0,0.0,0.0,-0.15664834622891188,-0.7240095908341833,-1.098580450546449,-0.8618848725489141,-0.0033141256601287366,0.01107679436444449,-1.0199931780904892
15718,6.0,299.94206,9030.8739,0.0,0.0,0.0,0.0,0.0,-0.15665831303849564,-0.7101525547191003,-1.1193593729971687,-0.9156482268299442,-0.017560680039604183,0.01183194737247229,-1.026648914022359
15719,6.0,299.49748999999997,8641.8524,0.0,0.0,0.0,0.0,0.0,-0.15666827984807952,-0.6314996439216624,-1.0926127114324788,-0.9027949567939251,-0.026743440442622075,0.014844970161334486,-1.00462988490675
15720,6.0,299.07865,8658.3366,0.0,0.0,0.0,0.0,0.0,-0.15667824665766333,-0.6511688751278644,-1.093289765149299,-0.887459436795427,-0.008156774965161012,0.012522611064635487,-1.0156462338364791
15721,6.0,299.4984,9049.4937,0.0,0.0,0.0,0.0,0.0,-0.1566882134672471,-0.7585323794963172,-1.1064010187932791,-0.8858866699902072,-0.015459094967443885,-0.02889265232248277,-0.971468083646435
15722,6.0,299.7864,8972.2135,0.0,0.0,0.0,0.0,0.0,-0.15669818027683097,-0.7363415234287504,-1.1350807588987488,-0.8559066361639082,0.015683957456136086,-0.04693582382120516,-1.040631461427329
15723,6.0,300.63287,8515.0808,0.0,0.0,0.0,0.0,0.0,-0.15670814708641478,-0.6934931626699463,-1.080393421851529,-0.8144853267134432,0.025189352902995576,-0.02018474347282908,-0.9990187490329742
15724,6.0,300.12522,8455.1002,0.0,0.0,0.0,0.0,0.0,-0.1567181138959986,-0.6407842876354854,-1.089628385912949,-0.8397266330020663,0.02228643696275008,0.019581525290796084,-1.032828726382259
15725,6.0,300.41294,8607.6242,0.0,0.0,0.0,0.0,0.0,-0.15672808070558242,-0.6355257020015035,-1.089791316529029,-0.8911857957606902,0.01059823431571429,0.016256115469603684,-0.9925519538472511
15726,6.0,299.9155,8763.4055,0.0,0.0,0.0,0.0,0.0,-0.15673804751516623,-0.6767933216768003,-1.0925125009975887,-0.8945506169577722,-0.004758335041686105,0.005198461095573165,-1.003181068986263
15727,6.0,301.04900000000004,9008.5158,0.0,0.0,0.0,0.0,0.0,-0.15674801432475005,-0.7244329672559673,-1.128567384605929,-0.8853635390960782,0.014980958457255486,0.004613459427812995,-0.999690979679318
15728,6.0,300.89294,8762.2867,0.0,0.0,0.0,0.0,0.0,-0.15675798113433392,-0.7462139028630783,-1.066926720072469,-0.8503757598305531,0.001849344363116078,0.004771936708378485,-1.0049061475465149
15729,6.0,301.31318,8754.7801,0.0,0.0,0.0,0.0,0.0,-0.15676794794391768,-0.7071049618633263,-1.101336997443499,-0.8527925741015742,0.002899729673981037,-0.005243053219224064,-1.031374003213689
15730,6.0,299.79921,9150.9716,0.0,0.0,0.0,0.0,0.0,-0.1567779147535015,-0.7264261315276773,-1.143908801720009,-0.9113319435239601,-0.01258679133921959,0.0008266759007865593,-1.020460691686629
15731,6.0,300.80962999999997,9286.9429,0.0,0.0,0.0,0.0,0.0,-0.15678788156308537,-0.7140410337003633,-1.148932698365829,-0.9600250449670951,-0.014602806427184787,0.03593936600418926,-0.9911832353471689
15732,6.0,299.94292,8705.98,0.0,0.0,0.0,0.0,0.0,-0.1567978483726692,-0.6971616346569963,-1.0801528762777888,-0.8690860004796103,-0.03728913166115076,0.030406929265680272,-0.994867179663246
15733,6.0,300.30835,8392.173,0.0,0.0,0.0,0.0,0.0,-0.156807815182253,-0.6553334647613774,-1.042372225099129,-0.8533053090496773,-0.016372763860865985,0.026754878009750876,-0.984270741839959
15734,6.0,298.98481,8476.1683,0.0,0.0,0.0,0.0,0.0,-0.15681778199183677,-0.6920306780056104,-1.065018364834129,-0.8194945312328132,-0.0030607482871223375,-0.01002473719091453,-1.014331035206679
15735,6.0,299.66186,8695.0108,0.0,0.0,0.0,0.0,0.0,-0.1568277488014207,-0.6644963056806794,-1.103385687820689,-0.8751841347489492,0.026615891506783975,-0.00937493483553403,-1.011863558430658
15736,6.0,298.81813999999997,8854.0984,0.0,0.0,0.0,0.0,0.0,-0.15683771561100446,-0.6472500290411044,-1.1255409078822387,-0.918633869574604,0.019784132754291882,-0.01140118942370979,-1.032295959479679
15737,6.0,299.81743,8927.4622,0.0,0.0,0.0,0.0,0.0,-0.15684768242058827,-0.6842993061650833,-1.116266528391929,-0.9131597859093541,0.016152619064639384,0.0006330621161058663,-1.012429407949003
15738,6.0,300.48185,8857.1622,0.0,0.0,0.0,0.0,0.0,-0.1568576492301721,-0.7069402073970663,-1.100799772240479,-0.8846161962198212,0.014694094181694185,-0.01709594984148888,-1.048238740528109
15739,6.0,300.81497,9034.818000000001,0.0,0.0,0.0,0.0,0.0,-0.1568676160397559,-0.7365613784354483,-1.1112991711016889,-0.8984985331899011,0.006371968857889364,0.012988636196378588,-1.001916472066457
15740,6.0,300.57597000000004,9292.2658,0.0,0.0,0.0,0.0,0.0,-0.15687758284933978,-0.7822772471097533,-1.1326428791581489,-0.909696679452572,0.008590719990788052,-0.006846519374648853,-1.0103260831264211
15741,6.0,299.71824,8879.133,0.0,0.0,0.0,0.0,0.0,-0.15688754965892354,-0.7132486619896623,-1.082269657061699,-0.9035163706001231,-0.021219010406403283,0.006776776255690744,-0.982396452069981
15742,6.0,299.5168,8364.9763,0.0,0.0,0.0,0.0,0.0,-0.15689751646850736,-0.6079097731760233,-1.090867185485209,-0.8439670238755602,-0.006404145324089934,0.004962199644580975,-1.0323788433378591
15743,6.0,300.01408,8440.0528,0.0,0.0,0.0,0.0,0.0,-0.15690748327809123,-0.6254089874380614,-1.0685505546827292,-0.8716057609607912,-0.02329653484168898,-0.004776178679922136,-1.014580902681339
15744,6.0,300.44356,8694.2897,0.0,0.0,0.0,0.0,0.0,-0.156917450087675,-0.7015193497595693,-1.079762167039229,-0.8615654859848932,0.023762926769968277,-0.005019019062488615,-0.997120171658099
15745,6.0,299.59517999999997,8726.8546,0.0,0.0,0.0,0.0,0.0,-0.15692741689725886,-0.7055401896013954,-1.0929467799904489,-0.8542589293812922,-0.0013080111402156488,0.002103227753222418,-1.021196513909249
15746,6.0,299.06252,8678.9121,0.0,0.0,0.0,0.0,0.0,-0.15693738370684263,-0.7026159194152923,-1.0798755497254189,-0.8556811272216522,0.06328814637455374,0.007364668624661203,-1.01144976735482
15747,6.0,299.50781,8855.7084,0.0,0.0,0.0,0.0,0.0,-0.1569473505164265,-0.6508207122610034,-1.134947617835609,-0.906145876199635,0.006126362403874894,0.004861126021930785,-1.0420266054900191
15748,6.0,299.72261000000003,9072.2842,0.0,0.0,0.0,0.0,0.0,-0.15695731732601031,-0.6747067458783713,-1.1416794488499888,-0.9413616874001652,0.027340156598763377,-0.019502745095521083,-1.0146986423429591
15749,6.0,299.53385,9070.6637,0.0,0.0,0.0,0.0,0.0,-0.15696728413559408,-0.7346471868765323,-1.117745062937849,-0.9048629799830232,-0.03897883968691196,0.0050760202574641955,-1.041191484757599
15750,6.0,299.68077,8750.4902,0.0,0.0,0.0,0.0,0.0,-0.15697725094517795,-0.7289780120370283,-1.083943647551909,-0.8470088918682691,-0.01740508738074838,0.001103323271614529,-1.012637651109555
15751,6.0,299.52216,8350.1459,0.0,0.0,0.0,0.0,0.0,-0.15698721775476177,-0.6853333076271314,-1.052652153988679,-0.8002504293710682,-0.05320816415373695,-0.005944746341375784,-1.032763878375859
15752,6.0,299.09809,8505.3073,0.0,0.0,0.0,0.0,0.0,-0.15699718456434564,-0.6606406560026563,-1.091144106737539,-0.8336162485390183,-0.004559460695533735,-0.0015887745355998384,-0.997941147419123
15753,6.0,300.26802999999995,9080.8501,0.0,0.0,0.0,0.0,0.0,-0.1570071513739294,-0.7187410348192174,-1.135677157907609,-0.9059334989786751,-0.006341626475694805,0.026723722595676076,-1.000650264078992
15754,6.0,300.81478,9026.0261,0.0,0.0,0.0,0.0,0.0,-0.15701711818351316,-0.6831963327687284,-1.142135614045009,-0.9183545570520382,0.039775528856289065,0.008807260149783901,-0.9952329224193421
15755,6.0,300.46457999999996,8684.2922,0.0,0.0,0.0,0.0,0.0,-0.15702708499309703,-0.6808576806104213,-1.124508507355349,-0.8344417839254923,-0.009071407358103202,0.006595676444117583,-1.038688149060539
15756,6.0,300.29748,9010.5045,0.0,0.0,0.0,0.0,0.0,-0.15703705180268085,-0.7175760606492433,-1.1439577416998388,-0.8774346240160552,0.019539305185629283,-0.02762242274537087,-1.0396573227811892
15757,6.0,299.93831,9230.4048,0.0,0.0,0.0,0.0,0.0,-0.15704701861226472,-0.7867711734232692,-1.145700227896809,-0.873341225334568,0.0032051034957440872,-0.005921937980299775,-1.016775602397939
15758,6.0,300.25161,8912.0621,0.0,0.0,0.0,0.0,0.0,-0.15705698542184848,-0.7049814429662513,-1.113347861478879,-0.8907150600292322,0.026898167785892473,0.00933790490135446,-1.019098275602169
15759,6.0,299.9987,8493.8978,0.0,0.0,0.0,0.0,0.0,-0.15706695223143236,-0.6244261753710654,-1.0492355759764889,-0.9082710568268741,0.0015210196159879486,-0.006469905356904943,-1.010731595948942
15760,6.0,299.13457999999997,8263.6719,0.0,0.0,0.0,0.0,0.0,-0.15707691904101617,-0.6068647171553844,-1.0635955590437092,-0.8414896273810603,-0.006313787733172334,-0.008160156586044753,-0.992204419195452
15761,6.0,298.24069,8490.3228,0.0,0.0,0.0,0.0,0.0,-0.15708688585059993,-0.6759376420998514,-1.068047172033049,-0.8368612630442762,-0.01076550670847279,0.009172617668191881,-1.031099817736629
15762,6.0,299.5363,9108.8108,0.0,0.0,0.0,0.0,0.0,-0.1570968526601838,-0.7901627444229913,-1.109232039572679,-0.8694561914036453,0.0026855100603642074,0.029626701357427766,-1.003137539761967
15763,6.0,300.21074,9194.8057,0.0,0.0,0.0,0.0,0.0,-0.15710681946976757,-0.7900583593976893,-1.149617351458399,-0.8553156175130793,-0.01108478384148299,0.013093635251241187,-1.0328667232610091
15764,6.0,300.04562000000004,8814.6941,0.0,0.0,0.0,0.0,0.0,-0.15711678627935144,-0.6903090546281994,-1.116345764549749,-0.8727920437803681,-0.008486600031712211,-0.005089208214140745,-0.995284121946895
15765,6.0,299.85346,8803.883,0.0,0.0,0.0,0.0,0.0,-0.15712675308893526,-0.6397826088516274,-1.128976129696269,-0.9074018300960881,0.010751731573363291,0.027977239625638573,-1.009095875915009
15766,6.0,300.54217,9083.0146,0.0,0.0,0.0,0.0,0.0,-0.15713671989851907,-0.6929740746437163,-1.122131422620749,-0.9459041585259721,-0.013058256610749589,0.01946527004057258,-0.9668033638960631
15767,6.0,299.90137000000004,8877.3982,0.0,0.0,0.0,0.0,0.0,-0.1571466867081029,-0.7033229248050684,-1.102773988735319,-0.8924104503615542,0.0034181498670701267,-0.0013195676629061887,-1.013222569994782
15768,6.0,299.67602999999997,8326.3036,0.0,0.0,0.0,0.0,0.0,-0.15715665351768676,-0.6595228790223403,-1.0645283570857689,-0.8069371200934933,-0.04051736877125296,-0.03817331497666286,-1.0217595769898191
15769,6.0,298.80587,8392.4686,0.0,0.0,0.0,0.0,0.0,-0.15716662032727052,-0.7050384788143803,-1.037926387635359,-0.8081360584068192,0.028620173158591177,0.0037569566864827566,-1.011974853821642
15770,6.0,298.59447,8727.9537,0.0,0.0,0.0,0.0,0.0,-0.15717658713685434,-0.6759240037535054,-1.0965872862747388,-0.8805687484303691,0.018841221462983785,0.010851892358998388,-1.023234058535339
15771,6.0,298.3657,8861.3149,0.0,0.0,0.0,0.0,0.0,-0.1571865539464382,-0.6875404703199613,-1.082148573674749,-0.9239294084397331,0.01922098152096318,0.005337156390461325,-0.9815530632167451
15772,6.0,299.30672999999996,9036.3418,0.0,0.0,0.0,0.0,0.0,-0.15719652075602203,-0.6910501862813433,-1.115414891682879,-0.9403572120460311,-0.0074419700827402634,-0.03368014657422167,-0.9792427010012301
15773,6.0,299.91489,8959.9062,0.0,0.0,0.0,0.0,0.0,-0.15720648756560585,-0.7263223443199343,-1.1068712681646888,-0.8903941738550631,-0.0038712444076620767,0.017374914819270587,-0.962315152313111
15774,6.0,301.02126,8927.9311,0.0,0.0,0.0,0.0,0.0,-0.1572164543751896,-0.7536984469792453,-1.116381734928299,-0.8437879217878842,-0.011020175975356688,0.025262649388729373,-1.019856186676969
15775,6.0,301.11303,9051.5631,0.0,0.0,0.0,0.0,0.0,-0.15722642118477342,-0.7754870123596092,-1.1129563416402388,-0.8630058615320472,-0.02108901041857328,-0.0023194493463868275,-0.999930998363006
15776,6.0,300.31581,8887.4764,0.0,0.0,0.0,0.0,0.0,-0.1572363879943573,-0.6833824364145954,-1.1189311735049092,-0.8992573359247891,-0.007983646594774572,0.02484808418981498,-1.020983326088209
15777,6.0,299.43608,8557.664,0.0,0.0,0.0,0.0,0.0,-0.1572463548039411,-0.6169485314880795,-1.0981853843324592,-0.8861822249118761,0.007254269453390653,0.039491154136223464,-0.9987981239562
15778,6.0,300.11582999999996,8585.5129,0.0,0.0,0.0,0.0,0.0,-0.15725632161352493,-0.6252006733500024,-1.082273406087069,-0.9023074720383142,0.03012663389051727,0.024583900504492075,-0.9872979683687231
15779,6.0,300.32223999999997,8839.5218,0.0,0.0,0.0,0.0,0.0,-0.15726628842310875,-0.7287184882889153,-1.107630699114639,-0.8506447777321032,-0.02778682865359647,-0.03402534771104036,-1.005959512217974
15780,6.0,300.74111,8839.8496,0.0,0.0,0.0,0.0,0.0,-0.15727625523269262,-0.7447195210855944,-1.0873026729584188,-0.8550713634439732,-0.002735264287974567,-0.03837616055393216,-0.9999066296981011
15781,6.0,300.44389,8913.745,0.0,0.0,0.0,0.0,0.0,-0.15728622204227638,-0.7388175621681163,-1.130083409405549,-0.8406549626111852,-0.02537177034499877,-0.0039675950689461465,-1.027922366748039
15782,6.0,300.62622999999996,8927.3347,0.0,0.0,0.0,0.0,0.0,-0.1572961888518602,-0.6837587068392303,-1.125403409843669,-0.9045247469671421,0.029095359084488372,0.013305713563421688,-0.9975510461306232
15783,6.0,302.52281,8954.9388,0.0,0.0,0.0,0.0,0.0,-0.157306155661444,-0.6789249263096734,-1.1266022873619888,-0.9165506172365032,-0.0022193570564584876,-0.023276632583224776,-1.018980333290529
15784,6.0,301.99549,8877.817,0.0,0.0,0.0,0.0,0.0,-0.15731612247102783,-0.6814566228770323,-1.1030269972852889,-0.9141510687471861,0.012253312492807788,-0.0004929799047458285,-0.9771515453123492
15785,6.0,300.97104,8951.0798,0.0,0.0,0.0,0.0,0.0,-0.1573260892806117,-0.7502741682662953,-1.112972857616869,-0.8576577045892252,-0.003326689860043727,0.02468332567055458,-0.984768531349087
15786,6.0,301.02842000000004,8724.2834,0.0,0.0,0.0,0.0,0.0,-0.15733605609019546,-0.7121393557801823,-1.112032257549039,-0.8277926746492762,0.01892175052793138,0.023683559902885377,-1.000173894676978
15787,6.0,299.97709,8454.0495,0.0,0.0,0.0,0.0,0.0,-0.15734602289977934,-0.6783730697752093,-1.0673947402936592,-0.8240521403151142,-0.03570565074937337,-0.024489513217926775,-1.0392433087903292
15788,6.0,299.85039,8708.5646,0.0,0.0,0.0,0.0,0.0,-0.15735598970936315,-0.6575111114787944,-1.096278852944299,-0.8933961704563371,-0.005828361395139484,-0.040010816675260165,-1.013501689999829
15789,6.0,300.3257,8776.5236,0.0,0.0,0.0,0.0,0.0,-0.15736595651894691,-0.6678308104347693,-1.1116680954630989,-0.8883450984428353,-0.00891358362385221,-0.012865934649018888,-1.0185953995775392
15790,6.0,298.56174,8816.501,0.0,0.0,0.0,0.0,0.0,-0.1573759233285308,-0.6547255754963833,-1.1193083051921289,-0.9059622955465171,0.03696554112246486,0.035900608174614164,-1.008120055273703
15791,6.0,299.64979,8963.914,0.0,0.0,0.0,0.0,0.0,-0.15738589013811455,-0.7711402099606133,-1.098814713969569,-0.8548511132697363,0.008371770019079372,-0.03318313726767067,-0.999108908026872
15792,6.0,301.03263,8942.5523,0.0,0.0,0.0,0.0,0.0,-0.15739585694769848,-0.7390070602018183,-1.109055734055279,-0.8702498296769712,0.013369120728179487,-0.0024814688479769076,-0.9783192653900941
15793,6.0,300.39581,8674.0068,0.0,0.0,0.0,0.0,0.0,-0.15740582375728224,-0.6942163091338153,-1.090256803624969,-0.8522083239614132,0.018295064460332282,0.014993280591721586,-1.009724658397065
15794,6.0,301.08529,8883.99,0.0,0.0,0.0,0.0,0.0,-0.157415790566866,-0.6505790723771554,-1.125474843975719,-0.9244572002843222,0.023443300065673578,0.04207701500092806,-0.991647496410488
15795,6.0,301.04436,8806.4015,0.0,0.0,0.0,0.0,0.0,-0.15742575737644987,-0.6688325905436374,-1.129712863843979,-0.8783807158994272,-0.00956024855162307,-0.01908730343527018,-1.0177023209393992
15796,6.0,299.80017000000004,8393.5671,0.0,0.0,0.0,0.0,0.0,-0.1574357241860337,-0.6490106625473654,-1.044925311376099,-0.8574988573710483,-0.041178856940036764,-0.02081649477767808,-0.992380846302864
15797,6.0,299.43382,8629.0945,0.0,0.0,0.0,0.0,0.0,-0.15744569099561756,-0.7365308390774342,-1.076548340372049,-0.8099500293983443,0.0026383576563606273,-0.005849058244332104,-1.018231541466629
15798,6.0,298.99079,8912.0766,0.0,0.0,0.0,0.0,0.0,-0.15745565780520132,-0.7428859234396323,-1.0859055023955289,-0.8802573361446351,-0.017207936269041085,0.03401418473468867,-0.970842908334735
15799,6.0,299.71743,8711.9055,0.0,0.0,0.0,0.0,0.0,-0.15746562461478514,-0.6849018454695494,-1.0885520103317188,-0.8747479103158972,0.013574023203151788,-0.015793916370238185,-1.027283715210009
15800,6.0,299.42636,8918.3693,0.0,0.0,0.0,0.0,0.0,-0.157475591424369,-0.6836966959331103,-1.101820317741199,-0.9254445111817621,-0.03645696353952217,-0.006665075665991754,-0.9736605238153121
15801,6.0,299.87156,9193.3021,0.0,0.0,0.0,0.0,0.0,-0.15748555823395277,-0.7455760315276253,-1.109546755053739,-0.9394114444026912,0.05222580500953566,0.016176637145009786,-0.977824475101262
15802,6.0,300.07956,8986.8861,0.0,0.0,0.0,0.0,0.0,-0.15749552504353664,-0.7256691627754703,-1.122426379724859,-0.8836934597512541,-0.002315732137069968,0.026503653793206974,-0.9627788966188792
15803,6.0,301.22938999999997,8700.3619,0.0,0.0,0.0,0.0,0.0,-0.1575054918531204,-0.7225908583091653,-1.0847575913572387,-0.8373442692344453,0.024732080225616276,-0.035386177045843764,-1.0049116292295561
15804,6.0,300.77625,8831.3246,0.0,0.0,0.0,0.0,0.0,-0.15751545866270428,-0.7149507803026484,-1.103195804751949,-0.8663556055676411,-0.034863415988001266,-0.017264893083662285,-0.976083295996921
15805,6.0,300.92803,8677.3873,0.0,0.0,0.0,0.0,0.0,-0.1575254254722881,-0.6886416603961403,-1.1020796084417888,-0.8469877757361852,0.011683356271807489,0.006656728005042904,-1.025312031840419
15806,6.0,298.87597999999997,8419.675,0.0,0.0,0.0,0.0,0.0,-0.1575353922818719,-0.6039577532809894,-1.088532555929799,-0.8668806616369601,0.009374158787282441,0.03859269716655266,-1.023831470794299
15807,6.0,299.66552,8865.4241,0.0,0.0,0.0,0.0,0.0,-0.15754535909145573,-0.6976028138830374,-1.1333216554001388,-0.8639431178745471,0.012799722807984288,-0.025577047722508076,-1.043983900708189
15808,6.0,299.56976000000003,9031.3805,0.0,0.0,0.0,0.0,0.0,-0.1575553259010396,-0.7454423331769303,-1.1132147204157388,-0.8866571251012451,-0.01044707867904639,0.004386820306395456,-1.0016788750505081
15809,6.0,300.54676,8709.0595,0.0,0.0,0.0,0.0,0.0,-0.15756529271062336,-0.7559359970425743,-1.058424842458399,-0.8329757731508083,-0.006671977013747863,0.02381650540875608,-1.0002282454123421
15810,6.0,300.54604,9027.8156,0.0,0.0,0.0,0.0,0.0,-0.15757525952020718,-0.7181726927056263,-1.117919037980019,-0.9081387871588202,-0.02367241617828558,0.04137258731940646,-0.9607749412336042
15811,6.0,300.66721,9307.8255,0.0,0.0,0.0,0.0,0.0,-0.157585226329791,-0.7499712571489002,-1.145365247413749,-0.9340100107696111,-0.003220544008717947,-0.01982431622675768,-0.9590756802859001
15812,6.0,300.43318,9018.9862,0.0,0.0,0.0,0.0,0.0,-0.15759519313937487,-0.6927858026426353,-1.134396105806179,-0.9143647023982702,-0.018681830129503082,0.014719423407693985,-0.9807346915084781
15813,6.0,301.05178,8901.313,0.0,0.0,0.0,0.0,0.0,-0.15760515994895868,-0.7307547359548773,-1.1166972610094388,-0.8583248487200671,0.005507912945013684,0.024374131389289476,-1.001931721480462
15814,6.0,300.39994,8792.8485,0.0,0.0,0.0,0.0,0.0,-0.15761512675854245,-0.7575969064739932,-1.081183148979469,-0.8340262905894863,-0.006865911056387664,0.027180268772733676,-1.021664838105469
15815,6.0,300.40585,8546.2993,0.0,0.0,0.0,0.0,0.0,-0.15762509356812626,-0.6811572682674883,-1.097918798231149,-0.8187855702703442,-0.017010862164341382,-0.029345326870908267,-1.039349801375839
15816,6.0,299.89817999999997,8639.1834,0.0,0.0,0.0,0.0,0.0,-0.15763506037771013,-0.6525836661099933,-1.095787831945839,-0.8777245148696652,-0.024988621978684976,0.00014269272865267586,-1.0179316194370291
15817,6.0,300.07277,8987.7521,0.0,0.0,0.0,0.0,0.0,-0.15764502718729395,-0.7074993491997493,-1.105121283916979,-0.919431621643336,-0.003921897185461116,0.015248671292676685,-0.9854254923164241
15818,6.0,300.50487999999996,8813.847,0.0,0.0,0.0,0.0,0.0,-0.15765499399687777,-0.6899636376691094,-1.094822407250559,-0.8944033714532401,-0.005752531074880615,0.042715000833642366,-0.990644784111528
15819,6.0,299.28971,8747.9089,0.0,0.0,0.0,0.0,0.0,-0.15766496080646153,-0.7058762137320583,-1.070598535784849,-0.8826710802678532,-0.017175827386622183,-0.01980535325113618,-1.002724498491203
15820,6.0,298.27749,9089.5457,0.0,0.0,0.0,0.0,0.0,-0.15767492761604546,-0.7670395665409112,-1.1243203468117788,-0.8716350540211821,-0.0012987543912770787,-9.757861604050961e-05,-0.9947076231699991
15821,6.0,299.80971,9117.6393,0.0,0.0,0.0,0.0,0.0,-0.15768489442562922,-0.7517584884702863,-1.123234851979649,-0.896541369694244,-0.01229615068053559,0.007464496861613482,-1.006863280644669
15822,6.0,299.83162999999996,8735.7037,0.0,0.0,0.0,0.0,0.0,-0.15769486123521304,-0.6712432949165553,-1.0956160860538888,-0.8885763930431622,0.014167092672183187,0.027519047930418573,-0.9918999071428991
15823,6.0,299.50611000000004,8623.2914,0.0,0.0,0.0,0.0,0.0,-0.15770482804479685,-0.6372349941251974,-1.117090908673289,-0.8669393085527483,-0.0027736293818109072,-0.016343920683519385,-1.0192600916431391
15824,6.0,300.13811,8759.1659,0.0,0.0,0.0,0.0,0.0,-0.15771479485438067,-0.6564134272479614,-1.111688461790109,-0.8944658180569031,0.015779969995861787,-0.01041362622699489,-0.989068511460962
15825,6.0,300.19178999999997,8764.6479,0.0,0.0,0.0,0.0,0.0,-0.15772476166396454,-0.7029935374625603,-1.108018571252919,-0.8532220300239581,0.020674752234439178,0.013541663034708088,-1.0263451416423792
15826,6.0,301.18594,8967.2213,0.0,0.0,0.0,0.0,0.0,-0.1577347284735483,-0.7457294173277632,-1.1092133957708388,-0.8708686113805401,0.0064613604161616245,0.027475280592349077,-1.017248688869629
15827,6.0,301.21581000000003,8860.3523,0.0,0.0,0.0,0.0,0.0,-0.15774469528313217,-0.7241214536452233,-1.0776232974031388,-0.8915811152872052,-0.02463073393736418,-0.022721576204944978,-1.0098348493454399
15828,6.0,299.87113,8545.7483,0.0,0.0,0.0,0.0,0.0,-0.157754662092716,-0.6415909461725964,-1.103759678432599,-0.8523434813922522,-0.023837898158117377,-0.011412577341583689,-1.022491548862059
15829,6.0,299.4272,8831.6804,0.0,0.0,0.0,0.0,0.0,-0.15776462890229975,-0.6945848281951854,-1.0891718154178889,-0.9008536607948342,0.02288869863668868,0.005613544065288666,-1.0079123592682049
15830,6.0,299.93362,9210.8237,0.0,0.0,0.0,0.0,0.0,-0.15777459571188363,-0.7545965310728794,-1.1353725749275487,-0.9098912943992791,0.006982238956643333,0.013271996653094087,-1.012966187321979
15831,6.0,300.13473999999997,8785.196,0.0,0.0,0.0,0.0,0.0,-0.1577845625214674,-0.7415566001034383,-1.0784592287356387,-0.8504643888168002,0.01265647761484709,-0.03267552227232297,-1.0180862414022889
15832,6.0,300.31586,8569.8223,0.0,0.0,0.0,0.0,0.0,-0.15779452933105131,-0.6835920879927864,-1.0653557771174291,-0.8560641560244542,-0.005861001727235834,-0.02463290229257818,-1.029673870870899
15833,6.0,299.7522,8926.0623,0.0,0.0,0.0,0.0,0.0,-0.15780449614063508,-0.7122295958340884,-1.1405278901113387,-0.860542610008943,0.006005232407420295,0.018902871652068182,-1.0125995427732941
15834,6.0,299.91064,9066.5317,0.0,0.0,0.0,0.0,0.0,-0.15781446295021884,-0.7034922591617804,-1.1216728256254889,-0.9308341303186762,-0.005553567056094395,0.026629912861667774,-0.99371252037929
15835,6.0,300.5983,8934.9346,0.0,0.0,0.0,0.0,0.0,-0.1578244297598027,-0.6927473599338414,-1.1202141507815289,-0.9030355226326671,0.005695582467585224,-0.017486707716053682,-1.009320746509702
15836,6.0,300.36978999999997,8718.538,0.0,0.0,0.0,0.0,0.0,-0.15783439656938653,-0.6741808082814653,-1.111204837517379,-0.8648322043072932,-0.01811807601236488,-0.018294187998995782,-1.00420320528964
15837,6.0,300.36197999999996,8654.6917,0.0,0.0,0.0,0.0,0.0,-0.1578443633789704,-0.6972506182807784,-1.088810085132189,-0.8447494556027801,0.029983294465120772,0.03042880229558897,-1.021082117972959
15838,6.0,300.44126,8742.8526,0.0,0.0,0.0,0.0,0.0,-0.15785433018855416,-0.6863037884404104,-1.112808812425679,-0.8584962501069832,0.01382331109875459,0.024489941822719078,-1.032362124711209
15839,6.0,300.03602,9051.5173,0.0,0.0,0.0,0.0,0.0,-0.15786429699813798,-0.7318977023326793,-1.1202170892068188,-0.8993204918035221,-0.007395645605393393,0.001025341112118289,-1.036771079871339
15840,6.0,299.63942000000003,9003.4565,0.0,0.0,0.0,0.0,0.0,-0.15787426380772185,-0.6919464769223003,-1.116953309309709,-0.9279261734591832,-0.02025216006823258,-0.012280541562745089,-1.000855609344258
15841,6.0,300.33168,8701.8338,0.0,0.0,0.0,0.0,0.0,-0.15788423061730567,-0.6686925593798173,-1.105813637710309,-0.8706339730548832,0.018530562022074086,0.027095068624825074,-1.0209861631884891
15842,6.0,300.51911,8968.3039,0.0,0.0,0.0,0.0,0.0,-0.15789419742688948,-0.7243957607122953,-1.119023784564049,-0.8827209220402721,0.0023187316613409977,-0.005487199377194415,-1.0062052152347232
15843,6.0,300.20953,9214.3177,0.0,0.0,0.0,0.0,0.0,-0.15790416423647324,-0.7948105530291942,-1.104219896628019,-0.9018920800273182,0.024758303138204277,-0.04147768567277886,-0.9916787551760732
15844,6.0,299.90497999999997,8843.4333,0.0,0.0,0.0,0.0,0.0,-0.15791413104605712,-0.6820248332681104,-1.1258926069919488,-0.8802654421454352,-0.015394357405304787,-0.009673377621313041,-1.030617713339049
15845,6.0,299.87919,8604.0378,0.0,0.0,0.0,0.0,0.0,-0.15792409785564093,-0.6491078433644564,-1.100185945329899,-0.8661188698142771,0.012389935083291387,0.05874495178817535,-1.019356857027689
15846,6.0,300.67201,8788.2113,0.0,0.0,0.0,0.0,0.0,-0.15793406466522475,-0.6537523690403354,-1.1263960909666388,-0.8912483740868662,-0.007624083549713463,0.04970085060834205,-1.019573793874099
15847,6.0,301.52304,8865.5957,0.0,0.0,0.0,0.0,0.0,-0.15794403147480857,-0.7148369416539133,-1.078902728304409,-0.901180008387042,-0.012773537385649987,-0.01036046200749799,-0.987936761761767
15848,6.0,302.53236,8771.8796,0.0,0.0,0.0,0.0,0.0,-0.15795399828439244,-0.7067844100616903,-1.0762805383706189,-0.8833674262665773,-0.002392672472813388,-0.04597995002136775,-0.995131820324364
15849,6.0,301.04977,8886.5027,0.0,0.0,0.0,0.0,0.0,-0.1579639650939762,-0.7571659914714652,-1.0930845820040491,-0.8510243918820681,-0.0007763772437649683,-0.009345057028510321,-0.9844807075256811
15850,6.0,300.79822,9062.2965,0.0,0.0,0.0,0.0,0.0,-0.15797393190356002,-0.7300363315014764,-1.122862482567899,-0.9018130769170211,0.009664507021987581,-0.016264867923967485,-1.014724885520549
15851,6.0,300.57802999999996,9144.0881,0.0,0.0,0.0,0.0,0.0,-0.15798389871314383,-0.7321984045648563,-1.143582535187809,-0.9037935248999761,-0.030260552116483968,-0.033866689970632066,-1.008340781675487
15852,6.0,300.09326,9195.2475,0.0,0.0,0.0,0.0,0.0,-0.15799386552272765,-0.7336276951559163,-1.131425357837989,-0.9300725715435161,-0.015192443004877385,-0.0032580097417655276,-1.0375189597701489
15853,6.0,299.85826000000003,8875.7481,0.0,0.0,0.0,0.0,0.0,-0.15800383233231152,-0.7058390274533883,-1.130286059425549,-0.8618806979585022,-0.024608764648695977,0.05936691915005875,-1.022379078100959
15854,6.0,300.08136,8322.5952,0.0,0.0,0.0,0.0,0.0,-0.15801379914189528,-0.6417017552035323,-1.0778328375238189,-0.8103264822079972,0.019061549657478482,0.014210947149761288,-1.044538655137939
15855,6.0,299.86838,8543.1476,0.0,0.0,0.0,0.0,0.0,-0.1580237659514791,-0.6723767975384234,-1.092605618681779,-0.8319211824467282,-0.02229833758517458,-0.027855160213840272,-1.040219676586689
15856,6.0,299.72504,8859.8227,0.0,0.0,0.0,0.0,0.0,-0.15803373276106297,-0.6848941346362883,-1.108051501881169,-0.9002192041122182,0.0076357106959359725,-0.03685015625407726,-1.0190140745188592
15857,6.0,299.29862,8787.5867,0.0,0.0,0.0,0.0,0.0,-0.1580436995706468,-0.6626241538684123,-1.1239541582256387,-0.8846286287985482,0.001113451314314089,0.029591001516654475,-1.041104649224029
15858,6.0,299.28887000000003,8891.5484,0.0,0.0,0.0,0.0,0.0,-0.1580536663802306,-0.6641550531795004,-1.1476358395628388,-0.8910177684966071,0.01122083090590979,0.00951469941325272,-1.033404657739099
15859,6.0,300.05478,8964.6688,0.0,0.0,0.0,0.0,0.0,-0.15806363318981437,-0.7332164878678333,-1.072767296298889,-0.919051652855836,-0.028170121914674575,-0.01091446359242369,-1.0061804108722752
15860,6.0,300.68795,8967.5493,0.0,0.0,0.0,0.0,0.0,-0.15807359999939824,-0.7315151801549273,-1.1176512359785888,-0.8767446412279591,0.010438936201242791,-0.02211578132790768,-0.9970014187463792
15861,6.0,301.1132,8938.1883,0.0,0.0,0.0,0.0,0.0,-0.15808356680898206,-0.7378647119065773,-1.0859273885976888,-0.8931940067963852,-0.007463037072194413,0.04966840228713966,-0.991251346018891
15862,6.0,300.75763,8958.8795,0.0,0.0,0.0,0.0,0.0,-0.15809353361856593,-0.6975283400006873,-1.1286513830392189,-0.8970959316064752,0.02922999469152587,0.001209130089456849,-1.011100712827871
15863,6.0,300.27134,8754.2172,0.0,0.0,0.0,0.0,0.0,-0.1581035004281497,-0.7167562703908363,-1.090592290733079,-0.8537148748725981,-0.024044458310253276,-0.03147652519049118,-1.025024978087089
15864,6.0,299.4507,8679.5248,0.0,0.0,0.0,0.0,0.0,-0.1581134672377335,-0.6598751860821104,-1.0837801089857688,-0.8947035569278662,0.012180047417827088,-0.03510960739129847,-1.029756045454009
15865,6.0,299.42057,8966.0143,0.0,0.0,0.0,0.0,0.0,-0.15812343404731738,-0.7579384933477052,-1.103952905226669,-0.8635530976460553,-0.003850019047217296,0.04625294391631016,-0.9984417841610321
15866,6.0,299.59648,8865.4902,0.0,0.0,0.0,0.0,0.0,-0.15813340085690114,-0.6924860427330514,-1.103231268505449,-0.8991703585362052,0.02089671986759568,0.008871013035475822,-1.003893019036527
15867,6.0,298.93335,8636.5332,0.0,0.0,0.0,0.0,0.0,-0.158143367666485,-0.6761024674936184,-1.089128346988599,-0.8600596139512752,-0.022970509463012774,0.004995514193293866,-1.002367419023462
15868,6.0,298.85447,8986.1778,0.0,0.0,0.0,0.0,0.0,-0.15815333447606877,-0.6876502053057914,-1.1332130349894187,-0.9107104564426242,-0.002570648130353218,-0.019101031960875085,-1.011070680094907
15869,6.0,298.02358,9189.994,0.0,0.0,0.0,0.0,0.0,-0.1581633012856526,-0.7463546230369663,-1.131858319605719,-0.9153157186771281,0.005770567129310635,0.047787598332268755,-0.996965752342859
15870,6.0,297.62684,8962.9918,0.0,0.0,0.0,0.0,0.0,-0.15817326809523646,-0.6695782311597264,-1.1578723000230988,-0.8970752005094292,0.0007433739756152993,0.005636461553400444,-1.0472951007099789
15871,6.0,299.49298,8935.8074,0.0,0.0,0.0,0.0,0.0,-0.15818323490482022,-0.7354534907761082,-1.116521360792079,-0.8642874405235292,-0.00899251459074209,-0.023825204160864578,-1.015298283752139
15872,6.0,299.51687999999996,8805.9247,0.0,0.0,0.0,0.0,0.0,-0.1581932017144041,-0.7134369441232443,-1.099577691294869,-0.8637665590446221,-0.0039390580957797666,-0.016126148919026986,-1.0114759396049031
15873,6.0,298.79873,8662.3379,0.0,0.0,0.0,0.0,0.0,-0.1582031685239879,-0.6873269582588893,-1.1029454306522388,-0.8428620138465042,0.027726935440185473,0.04470337040587916,-1.022284136566589
15874,6.0,300.63397000000003,8964.5152,0.0,0.0,0.0,0.0,0.0,-0.15821313533357168,-0.6837257964759823,-1.147846696908649,-0.8934162429408181,-0.0035159277924450565,-0.01115218625138509,-1.0154998191970293
15875,6.0,300.83951,9066.9741,0.0,0.0,0.0,0.0,0.0,-0.15822310214315555,-0.6948325374471324,-1.1591785820520188,-0.9021226146900703,-0.010490201590052291,-0.029345594368934674,-1.030161548144029
15876,6.0,299.89643,8579.2531,0.0,0.0,0.0,0.0,0.0,-0.15823306895273936,-0.6325725136575464,-1.1031304501204988,-0.8721757850695482,-0.002359192055059128,-0.026569378260943476,-1.027521423683469
15877,6.0,300.499,8609.6191,0.0,0.0,0.0,0.0,0.0,-0.15824303576232324,-0.7099773739093114,-1.056874671130409,-0.8502571386413462,0.02909251286495747,0.05894903353056664,-0.9879867453892
15878,6.0,299.89437999999996,9246.0033,0.0,0.0,0.0,0.0,0.0,-0.158253002571907,-0.7596047426071513,-1.1355287167679589,-0.9154206508574841,0.009122414874762251,0.006560243493420623,-0.967478077005152
15879,6.0,299.20399,9276.8893,0.0,0.0,0.0,0.0,0.0,-0.15826296938149081,-0.7733178161480263,-1.116446380284679,-0.9301785271064731,-0.004097072017074526,-0.007904652603728472,-0.9758491541638131
15880,6.0,299.63829,9078.1813,0.0,0.0,0.0,0.0,0.0,-0.15827293619107463,-0.7285291017127243,-1.1184866606860389,-0.9125246402166702,-0.007747571987100822,-0.007945212701256442,-0.9840837566665052
15881,6.0,299.40516,9088.0928,0.0,0.0,0.0,0.0,0.0,-0.1582829030006585,-0.7423348977702503,-1.126730362174629,-0.8934880722404073,-0.0007924321510694642,0.040467386157070066,-0.986083932628907
15882,6.0,299.34238999999997,9015.8719,0.0,0.0,0.0,0.0,0.0,-0.15829286981024232,-0.7264286545204263,-1.1051611046459089,-0.9090102227748241,0.019187380121146982,-0.028514366543398874,-1.012781765671278
15883,6.0,300.78074,8869.3648,0.0,0.0,0.0,0.0,0.0,-0.15830283661982608,-0.7235556953193873,-1.124465241576079,-0.8480445246629782,-0.02091850575799578,-0.039070693848227256,-1.018981245215619
15884,6.0,301.10116,8688.939,0.0,0.0,0.0,0.0,0.0,-0.15831280342940995,-0.7159370779499883,-1.075795292897729,-0.8494881730079551,0.01088962275297209,-0.027682648304814678,-1.0063523492817439
15885,6.0,300.0819,8488.72,0.0,0.0,0.0,0.0,0.0,-0.15832277023899377,-0.6837580482266653,-1.0639329713270091,-0.8326678869754222,0.0076809803799287426,0.05008730014348165,-0.9878454881927591
15886,6.0,299.91677000000004,8528.0936,0.0,0.0,0.0,0.0,0.0,-0.1583327370485776,-0.6345022687379984,-1.096416857607919,-0.8614083714243872,0.015235361239363086,0.013342427667545089,-1.015545719426559
15887,6.0,300.5843,9040.5886,0.0,0.0,0.0,0.0,0.0,-0.1583427038581614,-0.6784821765459773,-1.1300919207063889,-0.9395390429877841,-0.0096209283510867,-0.02250463429228448,-1.012558901311783
15888,6.0,299.66033999999996,9215.1031,0.0,0.0,0.0,0.0,0.0,-0.15835267066774517,-0.7029231976406183,-1.1693334758792289,-0.9289045576232421,-0.015245789609392288,-0.006374941227057713,-1.010865659069673
15889,6.0,300.0716,8784.3437,0.0,0.0,0.0,0.0,0.0,-0.15836263747732904,-0.7192893551108324,-1.076245378592149,-0.8746863756373242,-0.007116508983044753,0.030605135170741673,-1.0220078232643188
15890,6.0,299.21455,8731.5223,0.0,0.0,0.0,0.0,0.0,-0.15837260428691285,-0.7050671436597092,-1.085253779931209,-0.8638438294972481,-0.0034769055045938565,0.01060735255336419,-0.996723311991432
15891,6.0,298.66472999999996,8955.6134,0.0,0.0,0.0,0.0,0.0,-0.15838257109649667,-0.7416803787356543,-1.129085560707069,-0.8515169226231772,-0.00996252404007457,-0.018457429682856484,-1.017757137769809
15892,6.0,299.197,8864.6346,0.0,0.0,0.0,0.0,0.0,-0.1583925379060805,-0.6995209267198403,-1.109629030961859,-0.8854775905273342,-0.01033909864238959,0.015568397295481186,-1.0075509734875392
15893,6.0,299.2131,8663.4472,0.0,0.0,0.0,0.0,0.0,-0.15840250471566436,-0.6768210239345344,-1.1082240583731988,-0.8484265706131832,-0.001894902924712358,0.06018467378901484,-1.026430761275829
15894,6.0,298.747,8743.6322,0.0,0.0,0.0,0.0,0.0,-0.15841247152524812,-0.7094994035721394,-1.082924317951309,-0.8654221691780182,0.00987674958200929,0.018583808314829083,-1.004392612130833
15895,6.0,300.14957000000004,8829.1283,0.0,0.0,0.0,0.0,0.0,-0.15842243833483194,-0.7270778134619934,-1.089888081913579,-0.8668686951532794,-0.01751744465783718,-0.03777597604269856,-0.996057252038197
15896,6.0,299.99957,8910.3268,0.0,0.0,0.0,0.0,0.0,-0.15843240514441576,-0.7039927540486753,-1.1213880010223791,-0.8831361114012483,-0.012195665654868489,-0.017451412162070284,-0.991345091918143
15897,6.0,301.10176,9311.5226,0.0,0.0,0.0,0.0,0.0,-0.15844237195399963,-0.7738798963759993,-1.1201927712044188,-0.9363976535702532,0.012432952616286888,0.014283491803920885,-0.9488795877096241
15898,6.0,301.42449,9097.2765,0.0,0.0,0.0,0.0,0.0,-0.15845233876358344,-0.7512394713715632,-1.1093663965359388,-0.9047390594957931,-0.004428725797406207,0.010130627297915069,-1.001251374700817
15899,6.0,299.61397,8562.198,0.0,0.0,0.0,0.0,0.0,-0.1584623055731672,-0.6683826365717304,-1.0827457832836889,-0.8515659639280171,-0.01072871458409169,-0.016240717107833983,-1.018662780709189
15900,6.0,299.71637000000004,8835.7093,0.0,0.0,0.0,0.0,0.0,-0.15847227238275108,-0.7098814393898434,-1.110120153285329,-0.8658334575261091,-0.0038590309949317067,-6.667548908160843e-05,-1.014875859785449
15901,6.0,299.48527,9169.1713,0.0,0.0,0.0,0.0,0.0,-0.1584822391923349,-0.7798287383756042,-1.1344409927856092,-0.8729293493014192,-0.017076705182339585,0.028493345656824272,-1.003825617639875
15902,6.0,299.08394,8864.1576,0.0,0.0,0.0,0.0,0.0,-0.15849220600191877,-0.7251880209654853,-1.106320262760309,-0.8629742379964263,-0.026433716231554674,0.014793498069504587,-1.027124026994249
15903,6.0,299.8374,8677.1885,0.0,0.0,0.0,0.0,0.0,-0.15850217281150253,-0.7010404674973073,-1.111924853038439,-0.8246833343324081,-0.005703912497982334,-0.037985860668412565,-1.0181979015633091
15904,6.0,300.15736,8668.4124,0.0,0.0,0.0,0.0,0.0,-0.1585121396210863,-0.6568507662561234,-1.125924625695109,-0.8522055172586361,-0.01886070423590658,-0.005404949408276975,-1.023414417053139
15905,6.0,301.02977999999996,8958.0215,0.0,0.0,0.0,0.0,0.0,-0.15852210643067022,-0.6927655883031403,-1.140233135657249,-0.8900161505077553,0.022074679850851275,0.010602119116597688,-1.017889366907859
15906,6.0,300.7446,9203.3496,0.0,0.0,0.0,0.0,0.0,-0.15853207324025398,-0.7325546734325173,-1.156089385147139,-0.908944402048328,-0.026654916834385478,0.007660503304682812,-1.012911046251537
15907,6.0,301.04818,8973.7394,0.0,0.0,0.0,0.0,0.0,-0.15854204004983785,-0.7321998737775014,-1.102280231961589,-0.8933126279855922,0.015540459963723986,-0.018584460847893485,-1.003884548265691
15908,6.0,300.74388999999996,8502.7147,0.0,0.0,0.0,0.0,0.0,-0.1585520068594216,-0.6482449291817933,-1.074080569753499,-0.8622874976086503,-0.0052236388406830155,0.004291165646605076,-0.9860622288117651
15909,6.0,300.88671,8528.4783,0.0,0.0,0.0,0.0,0.0,-0.15856197366900543,-0.6700076161546034,-1.077739719839629,-0.8446970503076081,0.03240309073118607,0.02248147240824858,-0.9947032357970661
15910,6.0,300.07416,9332.6155,0.0,0.0,0.0,0.0,0.0,-0.1585719404785893,-0.7791960346156612,-1.124873581366379,-0.9328124302114191,-0.014507179935747187,0.015858905218402084,-0.979711683810015
15911,6.0,300.02245,9301.1595,0.0,0.0,0.0,0.0,0.0,-0.15858190728817306,-0.7873828927736413,-1.1352138999618888,-0.9047234453117522,0.006259828618971984,-0.02468506238122598,-1.0060967974740231
15912,6.0,299.06999,8642.7149,0.0,0.0,0.0,0.0,0.0,-0.15859187409775694,-0.7008000536460803,-1.086857146889449,-0.8395123407384172,-0.018806851006341684,0.013436234361803088,-0.99944001789455
15913,6.0,300.64051,8922.8615,0.0,0.0,0.0,0.0,0.0,-0.15860184090734075,-0.7153864677131473,-1.111741657420359,-0.8851989771473372,0.03749817326278157,0.01844019936490598,-0.9766775975780742
15914,6.0,299.58898,9207.5759,0.0,0.0,0.0,0.0,0.0,-0.1586118077169245,-0.7687350683307442,-1.1283413285086188,-0.9017967331929081,0.005524793894329704,0.011579826429589888,-0.9733037483226011
15915,6.0,299.83751,9040.4712,0.0,0.0,0.0,0.0,0.0,-0.15862177452650839,-0.7341320302606903,-1.116518928991839,-0.8974265044516001,0.011710249955961689,-0.03510496569259037,-0.9795808022945981
15916,6.0,300.18138999999996,8875.508,0.0,0.0,0.0,0.0,0.0,-0.15863174133609215,-0.6915984863079563,-1.107686123895109,-0.8986482104946731,-0.02159808449406498,-0.004679629522943475,-0.9873571827045671
15917,6.0,301.16673,8743.2499,0.0,0.0,0.0,0.0,0.0,-0.15864170814567607,-0.6842748969701743,-1.108288399754549,-0.8651663741902733,0.015027752373373685,-0.01074396197159649,-0.9842182554847791
15918,6.0,300.64516000000003,8978.0237,0.0,0.0,0.0,0.0,0.0,-0.15865167495525984,-0.6975928536345544,-1.121554072713769,-0.9099481073323861,-0.010895011217003888,-0.008656850163864591,-0.9986001348866601
15919,6.0,301.08926,9382.8252,0.0,0.0,0.0,0.0,0.0,-0.15866164176484365,-0.7703114321738193,-1.1460838443846688,-0.9357493153612672,-0.006908012611292764,-0.042526870687575366,-0.9912096913072801
15920,6.0,301.06512000000004,9143.2982,0.0,0.0,0.0,0.0,0.0,-0.15867160857442747,-0.7332895938625483,-1.1268405024604988,-0.9192042483208962,-0.00023785689433464773,0.009263235563060171,-0.9980512877049931
15921,6.0,300.5642,8547.9988,0.0,0.0,0.0,0.0,0.0,-0.15868157538401134,-0.6635271927550354,-1.0773281376490091,-0.8575228106034122,0.029225725868854576,0.017543723299180684,-1.0046064788294402
15922,6.0,300.87772,8709.7872,0.0,0.0,0.0,0.0,0.0,-0.15869154219359516,-0.6754204995138133,-1.1097562951744189,-0.8623810408578821,0.016086022188566786,0.014533141429809385,-1.0289183915963391
15923,6.0,300.10332999999997,9254.3039,0.0,0.0,0.0,0.0,0.0,-0.15870150900317892,-0.7681871330741673,-1.131179746013749,-0.9137104873387042,0.005190437674656315,-0.04510765415602886,-1.034220020094569
15924,6.0,300.7227,9132.2254,0.0,0.0,0.0,0.0,0.0,-0.15871147581276274,-0.7258164285450043,-1.143700984124499,-0.9064510772622563,-0.011586348720483591,0.002159349244461178,-1.0092584620260552
15925,6.0,300.47039,8595.6338,0.0,0.0,0.0,0.0,0.0,-0.1587214426223466,-0.6424558260604534,-1.113408555159869,-0.8569936407386872,0.006305473712126805,0.004105700145651056,-1.009992196953469
15926,6.0,299.96448,8690.8907,0.0,0.0,0.0,0.0,0.0,-0.15873140943193043,-0.6752612165980934,-1.105987004802419,-0.8605655398587061,-0.0024499341743896776,0.002152681552178128,-0.9884512698975451
15927,6.0,299.53148999999996,9049.5928,0.0,0.0,0.0,0.0,0.0,-0.15874137624151424,-0.7291473666587424,-1.111168360513779,-0.9105345258277612,0.008103116887565372,-0.03198036076296586,-0.988381750808184
15928,6.0,299.24676,9036.8889,0.0,0.0,0.0,0.0,0.0,-0.158751343051098,-0.7459937844113543,-1.1150801138498387,-0.8859146863554722,0.0009710395497816422,0.015651971176979283,-0.997438291659495
15929,6.0,299.17632000000003,9022.1549,0.0,0.0,0.0,0.0,0.0,-0.15876130986068188,-0.7278630012294853,-1.119036754165329,-0.8956100813948331,0.014140092596768487,0.018074748424838784,-0.998898749823631
15930,6.0,300.31775,8854.0341,0.0,0.0,0.0,0.0,0.0,-0.1587712766702657,-0.7098900520156933,-1.104138026019939,-0.8773771930003872,0.0009438738485055961,0.015990895229428485,-1.003230748638666
15931,6.0,299.50576,8853.4133,0.0,0.0,0.0,0.0,0.0,-0.1587812434798495,-0.6909937077207693,-1.104680013498429,-0.8955429130457041,0.013051240867057189,-0.026762812771283975,-1.015580169929959
15932,6.0,300.50703,9181.5005,0.0,0.0,0.0,0.0,0.0,-0.15879121028943333,-0.7684567589257773,-1.081414271327279,-0.9410758292819531,0.00994845323858589,0.02391464780019198,-0.996403520127371
15933,6.0,300.78361,9174.0246,0.0,0.0,0.0,0.0,0.0,-0.1588011770990172,-0.7339452680022583,-1.146999721150059,-0.9077294037209171,0.001268408057407129,0.018690463020355083,-1.0105131493598831
15934,6.0,300.25594,8627.4302,0.0,0.0,0.0,0.0,0.0,-0.15881114390860096,-0.6768235367947824,-1.100695914105229,-0.8450038725703892,-0.015613421063674684,-0.016994696772245986,-1.018575742525599
15935,6.0,299.46682999999996,8608.809000000001,0.0,0.0,0.0,0.0,0.0,-0.15882111071818478,-0.6828731870468363,-1.105238820928579,-0.8287509660638522,-0.002331434777844698,-0.04531095468259305,-1.059309815095739
15936,6.0,300.41029,9058.277,0.0,0.0,0.0,0.0,0.0,-0.1588310775277686,-0.7351769646913173,-1.152128691831249,-0.8661842953732343,-0.0025855950892033673,0.005831426274041964,-1.0266333099708191
15937,6.0,299.98674,8895.5217,0.0,0.0,0.0,0.0,0.0,-0.15884104433735247,-0.7032776325255984,-1.111590277855419,-0.8891485855071332,0.018539600212966082,0.02167812821221468,-1.013419718066739
15938,6.0,300.37146,8695.1425,0.0,0.0,0.0,0.0,0.0,-0.15885101114693628,-0.6686933294498933,-1.128948163993509,-0.8454646683183662,-0.0036701607709916663,0.0016328078518205885,-1.003722803152228
15939,6.0,299.6284,8789.4349,0.0,0.0,0.0,0.0,0.0,-0.15886097795652004,-0.7038045833726043,-1.092207918017529,-0.8757562056229081,0.002015716077860688,-0.031804591254868765,-1.003918370554029
15940,6.0,299.17711,8992.4789,0.0,0.0,0.0,0.0,0.0,-0.15887094476610392,-0.7484956306307673,-1.0946355639321188,-0.8903578488389782,-0.01003881690900409,0.034352859527613265,-1.0020521867848509
15941,6.0,298.76892999999995,9138.282,0.0,0.0,0.0,0.0,0.0,-0.15888091157568773,-0.7736650468247952,-1.117355468274399,-0.8867890603967662,0.006786411149566633,0.05049667648863395,-1.024465664031889
15942,6.0,299.76423,9187.5541,0.0,0.0,0.0,0.0,0.0,-0.1588908783852716,-0.7408170592529513,-1.145613493688249,-0.9063565207629241,-0.023705118825263077,0.004825183001133485,-1.023692250230559
15943,6.0,300.80805,8632.3275,0.0,0.0,0.0,0.0,0.0,-0.15890084519485537,-0.6841977683725623,-1.0775778024736489,-0.8622364804661152,-0.008633487554983882,-0.040394576031384265,-1.0361512747851689
15944,6.0,300.19569,8413.4047,0.0,0.0,0.0,0.0,0.0,-0.15891081200443913,-0.6607830987017144,-1.056721163740259,-0.8399607140401683,-0.0066469015055731035,0.014768264089014186,-1.011836757965513
15945,6.0,301.23366,8790.1061,0.0,0.0,0.0,0.0,0.0,-0.15892077881402306,-0.7212117438630573,-1.099836981995459,-0.8509240598571662,0.010989111753790888,0.024363264281966977,-0.9909599454226321
15946,6.0,301.5319,9136.7958,0.0,0.0,0.0,0.0,0.0,-0.15893074562360682,-0.7618900978101983,-1.130119987734159,-0.8853477121295161,-0.005476185753907454,0.0013963733377113188,-0.9925998805769811
15947,6.0,300.29828,9069.3857,0.0,0.0,0.0,0.0,0.0,-0.1589407124331907,-0.7271853294301044,-1.140023494211559,-0.889657966597405,-0.016628791896133987,-0.024616645707973776,-1.020262195992039
15948,6.0,300.09162000000003,9082.3308,0.0,0.0,0.0,0.0,0.0,-0.15895067924277445,-0.7262757348153343,-1.1301233314594887,-0.9044027111250981,-0.005476805660318635,0.016281445708853585,-1.0085588938920131
15949,6.0,300.34941000000003,9260.079,0.0,0.0,0.0,0.0,0.0,-0.15896064605235827,-0.7651055051475343,-1.133221444965249,-0.9165058417145842,0.015906646523363783,0.03834564754042076,-1.0028776005813131
15950,6.0,299.5011,9011.6081,0.0,0.0,0.0,0.0,0.0,-0.15897061286194214,-0.7021356591328943,-1.116231773913499,-0.9209364094993472,0.009303010594410662,0.0015469034950924884,-0.987041646490926
15951,6.0,300.06061,8893.3005,0.0,0.0,0.0,0.0,0.0,-0.1589805796715259,-0.7015430192819053,-1.115024689069369,-0.8867735982002403,0.00942378210297988,-0.017434732038924084,-1.036414821136179
15952,6.0,300.15562,8692.0057,0.0,0.0,0.0,0.0,0.0,-0.15899054648110977,-0.6969262971887703,-1.078961496810209,-0.8662648588886852,0.0037575646365427566,0.023100632054104876,-1.0209680260116991
15953,6.0,299.84395,8443.8198,0.0,0.0,0.0,0.0,0.0,-0.1590005132906936,-0.6629521125282795,-1.072807927627899,-0.8309503571284151,0.017164818424285685,0.02714748405249808,-1.050887882914559
15954,6.0,300.28936,8625.174,0.0,0.0,0.0,0.0,0.0,-0.15901048010027735,-0.6609939661800254,-1.113726614366259,-0.8471169347264321,-0.008649594381223502,-0.02816813898422887,-1.061639175750629
15955,6.0,299.66908,9034.3149,0.0,0.0,0.0,0.0,0.0,-0.15902044690986122,-0.7168475338273433,-1.1253661222399889,-0.9039924461596082,-0.01029897393842959,-0.02120927509944248,-1.017265002196239
15956,6.0,300.47559,9072.9345,0.0,0.0,0.0,0.0,0.0,-0.15903041371944499,-0.7118593238500454,-1.152827631750229,-0.8932585406952541,0.008505078775110923,0.015482667217770285,-1.022951868382489
15957,6.0,300.4163,8809.3951,0.0,0.0,0.0,0.0,0.0,-0.15904038052902886,-0.7151519205799993,-1.086545369833679,-0.8761388392581712,0.009557661318817731,0.04948983012926595,-0.9600295032675351
15958,6.0,299.18039,8986.0588,0.0,0.0,0.0,0.0,0.0,-0.15905034733861267,-0.7289556597398222,-1.127822544457419,-0.8747592485845161,0.006662568682594334,-0.024868303595560477,-1.0047086853670268
15959,6.0,299.71781,9220.0375,0.0,0.0,0.0,0.0,0.0,-0.1590603141481965,-0.7530485686301073,-1.130971827093229,-0.9186407292777812,-0.004020447410062266,-0.029902579975404867,-0.9747619874690181
15960,6.0,299.98511,9119.7179,0.0,0.0,0.0,0.0,0.0,-0.1590702809577803,-0.7386791623369573,-1.112240480444589,-0.921246838932484,0.009153281208583521,0.004140516533662166,-1.0348423583059891
15961,6.0,299.99346,8952.9895,0.0,0.0,0.0,0.0,0.0,-0.15908024776736418,-0.7137766970142753,-1.111067238153799,-0.8966413065516071,-0.007692917985981893,0.023322852999786377,-0.9886707297367041
15962,6.0,300.36785,8649.1972,0.0,0.0,0.0,0.0,0.0,-0.159090214576948,-0.6909811839495333,-1.0535727930295389,-0.8845859709693381,0.0008960019761360102,-0.02390536642927598,-1.012786477284243
15963,6.0,300.24691,8777.1833,0.0,0.0,0.0,0.0,0.0,-0.15910018138653176,-0.6943724205767223,-1.0980868964227388,-0.8755852196685332,-0.032551477155330674,-0.0051347339464337845,-1.005113661166995
15964,6.0,299.62683,9103.3498,0.0,0.0,0.0,0.0,0.0,-0.15911014819611558,-0.7333074979918153,-1.1311417491349989,-0.9027417611636751,0.01019438221010719,0.02034395140804168,-1.035059801777449
15965,6.0,300.82325,9243.3165,0.0,0.0,0.0,0.0,0.0,-0.1591201150056994,-0.7562640063649463,-1.1352677035421987,-0.918205659949843,-0.005729782900860545,0.05131910423705125,-1.008290544735529
15966,6.0,300.24036,8840.1613,0.0,0.0,0.0,0.0,0.0,-0.15913008181528326,-0.6975737741351714,-1.1244843920029688,-0.8651300998366932,0.0034341842459275963,-0.036714846835723264,-1.024322289142739
15967,6.0,300.1915,8769.4423,0.0,0.0,0.0,0.0,0.0,-0.15914004862486708,-0.6765934986245794,-1.116805577445129,-0.8722924405535611,-0.0009199629801282771,-0.03288354961060367,-1.0156064131075488
15968,6.0,299.48946,9129.3743,0.0,0.0,0.0,0.0,0.0,-0.15915001543445084,-0.7359937861269312,-1.1279679458467688,-0.9111401048825272,0.03796172302453036,-0.006777198477007414,-0.996924158426254
15969,6.0,299.61377999999996,9142.4597,0.0,0.0,0.0,0.0,0.0,-0.15915998224403471,-0.7339014044054294,-1.1386384826498688,-0.9065395947909921,0.0027421933987834173,0.05090784628646325,-0.990023864450248
15970,6.0,299.46087,8694.9558,0.0,0.0,0.0,0.0,0.0,-0.15916994905361853,-0.6787733947572183,-1.0979889151380688,-0.8662871605233862,0.003436216015028117,-0.01373149544094309,-1.0239022969762892
15971,6.0,301.13634,8597.5955,0.0,0.0,0.0,0.0,0.0,-0.15917991586320235,-0.6551355972818494,-1.103324284864629,-0.8549944273638802,-0.026045774179017777,0.0027458725098965177,-1.0491422556422791
15972,6.0,301.50886,8853.0158,0.0,0.0,0.0,0.0,0.0,-0.15918988267278616,-0.6786345085660114,-1.122203971327909,-0.8902572635015511,-0.0014336731003925184,0.01707993542365838,-1.077029127544499
15973,6.0,300.31745,9034.0363,0.0,0.0,0.0,0.0,0.0,-0.15919984948237004,-0.7168850747435483,-1.122153410147919,-0.907082970422119,-0.01133711756688639,0.023714529892191877,-1.038366644803809
15974,6.0,300.66281000000004,9155.1596,0.0,0.0,0.0,0.0,0.0,-0.1592098162919538,-0.7405974879562813,-1.1327119828149688,-0.9096304027635311,0.009843597355962422,-0.036349610704677265,-1.027728734653929
15975,6.0,300.62118,8741.9183,0.0,0.0,0.0,0.0,0.0,-0.15921978310153762,-0.7150733227697423,-1.068221451050249,-0.8740300530175502,-0.011954904258857188,-0.012943960986219487,-0.9914017325987331
15976,6.0,300.19759,8677.452,0.0,0.0,0.0,0.0,0.0,-0.15922974991112143,-0.6752830318727463,-1.084764684107939,-0.8776810160428722,0.03087927099854677,0.01730211381283568,-1.0216071841747791
15977,6.0,300.12426,9209.5339,0.0,0.0,0.0,0.0,0.0,-0.15923971672070525,-0.7583964621279032,-1.128791515528049,-0.9122803760150632,-0.00895065084563546,0.05429880730962504,-0.9969316666094951
15978,6.0,299.96553,9495.5846,0.0,0.0,0.0,0.0,0.0,-0.15924968353028912,-0.7770733769811712,-1.165501667976059,-0.9438455585628042,-0.0036056009329201067,-0.018799448201111083,-0.992267980374225
15979,6.0,299.65031,8923.2755,0.0,0.0,0.0,0.0,0.0,-0.15925965033987288,-0.7039873432931413,-1.131670564362189,-0.8767950402879332,-0.02423043124685738,0.008784768226714122,-1.001994350469143
15980,6.0,300.00511,8524.2283,0.0,0.0,0.0,0.0,0.0,-0.15926961714945675,-0.6699747260563573,-1.0670332126579791,-0.8541446651675152,0.016235260756045485,0.008483686127074631,-1.005246488122604
15981,6.0,300.21789,9068.7723,0.0,0.0,0.0,0.0,0.0,-0.15927958395904057,-0.7219677702926713,-1.1318683507817089,-0.9028442716762922,-0.003231954724719097,0.016783119005614883,-1.004673059493511
15982,6.0,300.95628999999997,9248.5003,0.0,0.0,0.0,0.0,0.0,-0.15928955076862444,-0.7344591783204774,-1.147025761677629,-0.929828195884398,-0.016687661726943984,-0.06459449122497994,-1.031238329025299
15983,6.0,300.99068,8879.7557,0.0,0.0,0.0,0.0,0.0,-0.1592995175782082,-0.6902706423169083,-1.0977537397898591,-0.9111996738559062,-0.005891135177259775,-0.03652498301873516,-1.042847236746009
15984,6.0,300.25225,8606.2267,0.0,0.0,0.0,0.0,0.0,-0.15930948438779197,-0.6730117000510834,-1.074516976571569,-0.8685493629616482,0.023667298252030476,-0.009324479540179481,-1.0514879296237791
15985,6.0,299.80778,8591.6885,0.0,0.0,0.0,0.0,0.0,-0.15931945119737584,-0.6742591021166923,-1.065733618079719,-0.8716660594742422,0.02007328190882868,0.06011207847235025,-1.0112715974572362
15986,6.0,299.67963,8947.3711,0.0,0.0,0.0,0.0,0.0,-0.15932941800695966,-0.7322834973082543,-1.1064626243993592,-0.881031297101019,0.014911902423190185,-0.00997865954129202,-1.003897862372005
15987,6.0,299.48244,9302.4199,0.0,0.0,0.0,0.0,0.0,-0.15933938481654353,-0.7582830389117092,-1.1436395811684388,-0.9257807582274472,0.002490785479996388,-0.013119301889524287,-0.9878255474307911
15988,6.0,299.02856,8963.7526,0.0,0.0,0.0,0.0,0.0,-0.1593493516261273,-0.7182532460885763,-1.1379759184094789,-0.8685278111320212,0.007280954813324294,0.005570019501943124,-0.9947142295606509
15989,6.0,298.37006,8498.9077,0.0,0.0,0.0,0.0,0.0,-0.1593593184357111,-0.6228963906350874,-1.121817821714799,-0.8387415613873472,0.016642239751461185,0.006605847144646354,-1.021083941823139
15990,6.0,299.10626,8962.6286,0.0,0.0,0.0,0.0,0.0,-0.15936928524529498,-0.7212700057438073,-1.1324795432420292,-0.8706657587105202,0.005349251759555046,-0.02149596408273648,-1.020798002644919
15991,6.0,299.80907,9428.9286,0.0,0.0,0.0,0.0,0.0,-0.15937925205487874,-0.7993845564981132,-1.150609829931349,-0.9161645081533971,-0.02020822757039678,-0.021451688093116778,-1.008670665510544
15992,6.0,300.49548,8859.879,0.0,0.0,0.0,0.0,0.0,-0.1593892188644626,-0.7591224862220564,-1.056830898726089,-0.8772285694757191,-0.011854531703951189,-0.0021761555172448276,-0.995950374417649
15993,6.0,300.75751,8521.0946,0.0,0.0,0.0,0.0,0.0,-0.15939918567404637,-0.6800065099964174,-1.045877867795109,-0.8643156088763091,-0.02333384980312168,0.030618528310563473,-1.003348012072739
15994,6.0,300.21623,8919.3243,0.0,0.0,0.0,0.0,0.0,-0.1594091524836302,-0.7209436378865973,-1.083282096561619,-0.9070262081515171,0.0038896051074241364,-0.008318012946948962,-0.9812180726011841
15995,6.0,300.18412,9300.1838,0.0,0.0,0.0,0.0,0.0,-0.15941911929321406,-0.7564955036152933,-1.121909926148889,-0.9486182198463291,-0.0032937121156640767,0.012851755227119488,-0.986457933373318
15996,6.0,300.60471,9351.0652,0.0,0.0,0.0,0.0,0.0,-0.15942908610279782,-0.7781037408753603,-1.1467324257736788,-0.9176541580529141,-0.0023964972892908678,0.01827270101737518,-1.00074336149818
15997,6.0,300.60479,9037.0892,0.0,0.0,0.0,0.0,0.0,-0.1594390529123817,-0.7385096354627263,-1.128840658157899,-0.8796991163995432,-0.015131449401857785,0.027883413679628676,-0.9996653140542849
15998,6.0,299.66398,8583.3454,0.0,0.0,0.0,0.0,0.0,-0.1594490197219655,-0.6906108106404804,-1.1051139885162589,-0.8133978155136142,-0.021198880166666583,-0.005923488354277785,-1.0117727914867
15999,6.0,299.91406,8830.6254,0.0,0.0,0.0,0.0,0.0,-0.15945898653154933,-0.6715854694753253,-1.134052411372259,-0.8786517197711731,-0.01105320590211649,-0.008214594967542403,-1.008987985044361
16000,6.0,298.53117000000003,9274.1167,0.0,0.0,0.0,0.0,0.0,-0.15946895334113315,-0.7522987230261032,-1.1542170002873489,-0.9125841483950431,0.009164035946469931,-0.0026504470472787575,-0.996302407899892
16001,6.0,299.40325,8979.5611,0.0,0.0,0.0,0.0,0.0,-0.1594789201507169,-0.6841465587125084,-1.1274410557947687,-0.9179747706495561,-0.004762157831663386,0.021085516732228478,-1.039511414766789
16002,6.0,299.32876,8496.7886,0.0,0.0,0.0,0.0,0.0,-0.15948888696030084,-0.6302992262631903,-1.094560583424719,-0.8579517902982493,-0.001106365656364789,-0.01091330747405959,-1.039407759281559
16003,6.0,300.51957999999996,8716.4101,0.0,0.0,0.0,0.0,0.0,-0.1594988537698846,-0.6887881966256023,-1.0878586432882889,-0.8729242019909113,-0.007167894644641124,-0.016746960162546284,-1.031766131002389
16004,6.0,300.66623,9326.1209,0.0,0.0,0.0,0.0,0.0,-0.1595088205794684,-0.7978705176686893,-1.1396416002488687,-0.8973957421785641,0.005916293062667665,0.02199071485481458,-1.001362011479236
16005,6.0,300.67627999999996,9262.7885,0.0,0.0,0.0,0.0,0.0,-0.15951878738905223,-0.7398040016704702,-1.125824921885269,-0.950027498747914,0.00013779730198703487,0.0043498498499967555,-1.017841845478169
16006,6.0,299.9057,9001.3392,0.0,0.0,0.0,0.0,0.0,-0.1595287541986361,-0.7223241100878394,-1.1359307744076388,-0.8779274587321941,-0.010152643398737891,0.0013010872983073188,-0.999902627360206
16007,6.0,300.59379,8878.569,0.0,0.0,0.0,0.0,0.0,-0.15953872100821992,-0.6642737655612163,-1.1457836183800387,-0.8888058637933092,0.004694485998559696,-0.01069548302056199,-1.0280592568365492
16008,6.0,300.86914,8874.958,0.0,0.0,0.0,0.0,0.0,-0.15954868781780368,-0.7225658816942003,-1.100001128511659,-0.8751986647553831,0.01932235921996838,0.006259668322806164,-0.9939162039143921
16009,6.0,300.29573999999997,9073.1456,0.0,0.0,0.0,0.0,0.0,-0.1595586546273875,-0.7261981705201793,-1.1412313896557689,-0.8905801356459162,0.017223189736046484,-0.0006234734061695345,-1.0219835052619188
16010,6.0,299.8831,8994.6926,0.0,0.0,0.0,0.0,0.0,-0.15956862143697137,-0.7542802551866652,-1.091099422408129,-0.8887822550659792,-0.005272965578076184,-0.013006418735633588,-0.9994471511752541
16011,6.0,299.97778999999997,8501.1048,0.0,0.0,0.0,0.0,0.0,-0.1595785882465552,-0.6640146167156403,-1.053762473448259,-0.8663465268467452,-0.006434330753844004,-0.005098093910892695,-1.012454414961471
16012,6.0,299.98301000000004,8530.9863,0.0,0.0,0.0,0.0,0.0,-0.159588555056139,-0.6868828203425563,-1.060436245231909,-0.8458877407651202,-0.013982946625509385,0.02402774778960408,-1.008729930508893
16013,6.0,299.69582,9274.5515,0.0,0.0,0.0,0.0,0.0,-0.15959852186572282,-0.7348619249702253,-1.1163170895719188,-0.9680530964369021,0.00978212104059518,-0.0025084661876163374,-1.0072052221559162
16014,6.0,299.0549,9356.1103,0.0,0.0,0.0,0.0,0.0,-0.15960848867530664,-0.7781536738402883,-1.128055997280459,-0.937814238005059,-0.019016952467577085,-0.004049363237441036,-1.017368759006479
16015,6.0,300.07523,8924.4821,0.0,0.0,0.0,0.0,0.0,-0.1596184554848905,-0.7065859954271083,-1.109281182202529,-0.8969525668498262,0.012574050732462188,0.006253398635162394,-1.00657036017326
16016,6.0,299.98301000000004,8852.5972,0.0,0.0,0.0,0.0,0.0,-0.15962842229447427,-0.7335438892401454,-1.0995705985441688,-0.8578540420611022,0.010489212657954688,0.022048678840035182,-0.998686332072667
16017,6.0,300.0529,8883.8103,0.0,0.0,0.0,0.0,0.0,-0.1596383891040581,-0.7095878907033724,-1.1314390367143388,-0.8594295547740932,0.024526032778030976,0.00946588021283464,-1.00965661865285
16018,6.0,300.29389,8975.431,0.0,0.0,0.0,0.0,0.0,-0.15964835591364196,-0.7096544105724374,-1.1411842735261188,-0.8774682436543733,0.017579510279462585,0.0056072510728925945,-1.025066318691169
16019,6.0,300.11624,9029.2674,0.0,0.0,0.0,0.0,0.0,-0.15965832272322572,-0.6686969062227464,-1.1677623302741689,-0.9082125416335992,-0.004504849352244016,-0.012522678952392188,-1.0257180411554891
16020,6.0,300.28756,8739.2155,0.0,0.0,0.0,0.0,0.0,-0.1596682895328096,-0.6775906177829873,-1.104359117191759,-0.8745535486817151,-0.008215128545045062,0.02320839120223988,-1.017644667008709
16021,6.0,300.41671,8574.2046,0.0,0.0,0.0,0.0,0.0,-0.15967825634239335,-0.6631313159409653,-1.074967163590999,-0.8682456108466702,0.0018967017476148882,0.00042909017962790367,-1.028532849933289
16022,6.0,300.1069,9075.061,0.0,0.0,0.0,0.0,0.0,-0.15968822315197728,-0.7395092168188774,-1.1218959432975089,-0.8971867796104411,-0.010029056270790792,0.013589552274184387,-1.0044582403398101
16023,6.0,299.85771,9191.7099,0.0,0.0,0.0,0.0,0.0,-0.15969818996156104,-0.7522944977731862,-1.1200263955379988,-0.9217294094251101,0.006951712162930573,0.014429883138618588,-1.007173689812804
16024,6.0,300.01054,8959.4968,0.0,0.0,0.0,0.0,0.0,-0.1597081567711448,-0.7352502328060483,-1.116343636724539,-0.8718694896968191,-0.023007749443938078,0.039711986929267966,-0.98688574783054
16025,6.0,299.50665,8985.5852,0.0,0.0,0.0,0.0,0.0,-0.15971812358072868,-0.7149932354818384,-1.1229159821731791,-0.8934843637450411,0.01027018243683809,0.0017363545139898484,-1.0128642644944201
16026,6.0,298.9484,9241.426,0.0,0.0,0.0,0.0,0.0,-0.1597280903903125,-0.7675508322763692,-1.1308832690344888,-0.9107285936194142,-0.017416981923672286,-0.001071811092179519,-0.9787058304357451
16027,6.0,298.58291,9299.4292,0.0,0.0,0.0,0.0,0.0,-0.15973805719989637,-0.7411719602329773,-1.1548081303956887,-0.9308141186292012,0.008043543354560923,-0.007596257371492232,-1.001058289761761
16028,6.0,299.3041,9024.7236,0.0,0.0,0.0,0.0,0.0,-0.15974802400948013,-0.7447132794649783,-1.1107543465229188,-0.8878229909313072,-0.028122004693925774,0.004672443857209305,-0.992540402796111
16029,6.0,299.65619,8849.2885,0.0,0.0,0.0,0.0,0.0,-0.1597579908190639,-0.6983454046163253,-1.1094287114170889,-0.8821885705702331,-0.006945905023957452,0.001015758805922589,-0.9987175604407491
16030,6.0,300.39234,8711.0029,0.0,0.0,0.0,0.0,0.0,-0.15976795762864782,-0.6886967102740733,-1.0872783549560188,-0.8719522620974882,-0.024267160549732273,-0.003296157594780427,-1.018580403476059
16031,6.0,301.06817,8746.3722,0.0,0.0,0.0,0.0,0.0,-0.15977792443823158,-0.6768688696042563,-1.1126001842300888,-0.8692096879193172,0.02149259401290388,-0.03395614475571057,-1.0458825287455689
16032,6.0,300.13291,8939.4709,0.0,0.0,0.0,0.0,0.0,-0.15978789124781545,-0.7294350992896393,-1.124417618821379,-0.8635231865031032,0.019056149034445483,0.016755035765843283,-1.0202101149368992
16033,6.0,300.67385,8885.9786,0.0,0.0,0.0,0.0,0.0,-0.1597978580573992,-0.6987609283498344,-1.1152774949693187,-0.8870771780627013,0.02395327492050418,-0.008231600242645692,-1.0181304191066491
16034,6.0,300.3457,8726.7877,0.0,0.0,0.0,0.0,0.0,-0.15980782486698308,-0.6961448989766523,-1.109697121368579,-0.8468835325658972,-0.0011939916263377988,0.015376041896497186,-1.0235801847694992
16035,6.0,300.22947999999997,9054.0096,0.0,0.0,0.0,0.0,0.0,-0.1598177916765669,-0.7103890270274383,-1.137969636258859,-0.903834217023992,-0.008102799233659023,-0.019146026344815683,-0.9897675729699541
16036,6.0,298.96737,9442.2205,0.0,0.0,0.0,0.0,0.0,-0.15982775848615066,-0.7845710426861333,-1.1499139297626688,-0.935714327835314,-0.0010707307649228989,0.024813983257699474,-0.9897303360287791
16037,6.0,299.47277,9141.5423,0.0,0.0,0.0,0.0,0.0,-0.15983772529573453,-0.7404966189088263,-1.1317476726947988,-0.9065563032851411,-0.01919122641852658,-0.005863266543859354,-1.010913930304437
16038,6.0,300.55571000000003,8888.7763,0.0,0.0,0.0,0.0,0.0,-0.15984769210531835,-0.7202036309410643,-1.1154197552833591,-0.8663426258338601,-0.03515068151060217,-0.006154406532192634,-1.01322710935523
16039,6.0,301.43155,8843.2351,0.0,0.0,0.0,0.0,0.0,-0.15985765891490217,-0.6832759539615864,-1.115813402947209,-0.8890333283082581,0.014754364324142386,-0.03100567901477227,-0.998464035133228
16040,6.0,300.33302000000003,8786.7397,0.0,0.0,0.0,0.0,0.0,-0.15986762572448598,-0.7050933969698003,-1.115122163728989,-0.8507338930783983,0.01859731088566168,0.016198373386154985,-1.001748313079861
16041,6.0,300.81407,8922.7478,0.0,0.0,0.0,0.0,0.0,-0.15987759253406975,-0.6877749566581034,-1.121996660357449,-0.9025208929068771,0.05220438490242165,-0.01228863844429419,-1.0071584505313
16042,6.0,300.1829,8904.9597,0.0,0.0,0.0,0.0,0.0,-0.15988755934365367,-0.7245973873496944,-1.111529786824449,-0.8707581569871392,-0.0052093950774022655,-0.005893853727278074,-1.002409691817634
16043,6.0,299.88595,8769.9141,0.0,0.0,0.0,0.0,0.0,-0.15989752615323743,-0.6858793075760173,-1.091048253278079,-0.8889073205258221,0.004480010235317586,-0.013712808069348787,-1.008864510387175
16044,6.0,299.02666,9061.8337,0.0,0.0,0.0,0.0,0.0,-0.15990749296282125,-0.7563974514031163,-1.1052728661319389,-0.892900833012451,-0.02172113865245948,0.014893047865329384,-1.003689923186483
16045,6.0,299.42312000000004,9455.5804,0.0,0.0,0.0,0.0,0.0,-0.15991745977240507,-0.7642454179326502,-1.153116104053699,-0.956898783373557,-0.024393538168454774,0.0009332093709380941,-0.9992769048934521
16046,6.0,300.72007,9325.9664,0.0,0.0,0.0,0.0,0.0,-0.15992742658198894,-0.7962616588949072,-1.104550824110679,-0.9340484129484011,-0.04300873494488166,0.01800174274188368,-0.982878870575092
16047,6.0,300.97376,8982.6888,0.0,0.0,0.0,0.0,0.0,-0.15993739339157276,-0.6758409172453054,-1.141795364661429,-0.9128767750239232,-0.02064601848810338,-0.0005217713354098215,-1.008947201727836
16048,6.0,300.56856,8731.6188,0.0,0.0,0.0,0.0,0.0,-0.15994736020115652,-0.6956134999617073,-1.092558907852169,-0.8660216383346812,0.008115204049333281,0.04599413653601786,-1.005732371943057
16049,6.0,300.19788,8955.707,0.0,0.0,0.0,0.0,0.0,-0.15995732701074034,-0.6979968567144264,-1.134078958524879,-0.8902354887569022,0.013358177627099486,-0.012458570618565187,-1.022633201226039
16050,6.0,299.84769,8974.9015,0.0,0.0,0.0,0.0,0.0,-0.1599672938203242,-0.7253130762928273,-1.138205926182179,-0.8646269907645403,0.014606114688761286,-0.0026163799577165977,-1.0657355432549092
16051,6.0,299.98852,8808.0685,0.0,0.0,0.0,0.0,0.0,-0.15997726062990802,-0.6889784545968793,-1.111385398685199,-0.8770690231149731,0.0081092149306422,-0.038787466127274864,-1.030395608917129
16052,6.0,299.53587000000005,8791.5925,0.0,0.0,0.0,0.0,0.0,-0.15998722743949184,-0.6933512569934412,-1.1085387738542591,-0.8705345124250671,0.017583178244824586,0.012111860752347589,-1.014217753845499
16053,6.0,298.92998,8886.2073,0.0,0.0,0.0,0.0,0.0,-0.15999719424907566,-0.6752270295397194,-1.114488173141419,-0.9114699481875801,0.01306664125532709,-0.0016271443917116482,-1.024427565828129
16054,6.0,300.36026,9312.2756,0.0,0.0,0.0,0.0,0.0,-0.16000716105865948,-0.7582373818622032,-1.129157906764209,-0.9433039358543501,0.013258729156284687,0.003120898460758697,-1.0046913081278122
16055,6.0,300.7537,9330.7906,0.0,0.0,0.0,0.0,0.0,-0.16001712786824335,-0.7499943389861783,-1.140493034307899,-0.945839948867135,0.025629129790898177,-0.001076032596071149,-1.009104184565829
16056,6.0,300.80863999999997,8979.7051,0.0,0.0,0.0,0.0,0.0,-0.1600270946778271,-0.7172413740087124,-1.127454329371079,-0.8849104136513581,-0.024292984241780877,0.013407754941242387,-0.9944178437739001
16057,6.0,300.53336,8850.7462,0.0,0.0,0.0,0.0,0.0,-0.16003706148741093,-0.7017352632233784,-1.110505188323329,-0.8781653597231731,0.0004634980657286975,-0.012475169681703386,-1.0286374173436088
16058,6.0,300.33555,9030.2217,0.0,0.0,0.0,0.0,0.0,-0.1600470282969948,-0.7247473280994924,-1.1377755988647091,-0.8824389548024443,-0.02885248708851877,-0.007559114155951483,-1.005873223839458
16059,6.0,299.85857999999996,8838.4293,0.0,0.0,0.0,0.0,0.0,-0.16005699510657856,-0.6687038368534304,-1.1138811350065092,-0.9040767890979321,-0.014885060414791085,-0.001191888524430239,-1.041618468349739
16060,6.0,300.31782000000004,8726.5096,0.0,0.0,0.0,0.0,0.0,-0.16006696191616243,-0.6948724189710683,-1.096101331526779,-0.8616672770899393,-0.011465152862772488,0.02132385848700098,-0.9809996564096282
16061,6.0,299.95813,8852.7159,0.0,0.0,0.0,0.0,0.0,-0.1600769287257462,-0.6905487794693583,-1.116718944561579,-0.8837368167230333,-0.01740112658610748,0.012282551850943488,-1.037914025984139
16062,6.0,300.42123,9070.2491,0.0,0.0,0.0,0.0,0.0,-0.16008689553533,-0.7459058444351753,-1.1065367943066788,-0.9046866542006212,0.00994531591230126,0.012316161356760488,-0.9886802644201451
16063,6.0,299.93023,9197.7273,0.0,0.0,0.0,0.0,0.0,-0.16009686234491388,-0.7465182831931183,-1.160230842280869,-0.8891303267403311,0.02019986116432108,-0.01983535558659718,-1.028570036211959
16064,6.0,299.21537,9220.1078,0.0,0.0,0.0,0.0,0.0,-0.16010682915449764,-0.7773413309701163,-1.111877635583779,-0.9134635886868372,0.03876021881883576,0.0002806145185469968,-0.9708333027237871
16065,6.0,299.26818,9082.3899,0.0,0.0,0.0,0.0,0.0,-0.16011679596408152,-0.7208036168552783,-1.131446332115059,-0.9085697629563542,0.005637709370898594,-0.019256824230000583,-1.0026466200885171
16066,6.0,299.19423,8877.7963,0.0,0.0,0.0,0.0,0.0,-0.16012676277366533,-0.6982024046297124,-1.117165078580609,-0.8832609235485662,-0.012324941168876988,0.0032725294130485066,-1.009494539166854
16067,6.0,299.52006,9008.7074,0.0,0.0,0.0,0.0,0.0,-0.1601367295832492,-0.6927623661678223,-1.136500322288849,-0.9091593630570431,-0.023996098922730576,-0.013544061397694786,-1.0227833648908589
16068,6.0,299.92441,9054.9837,0.0,0.0,0.0,0.0,0.0,-0.16014669639283297,-0.7094151720913263,-1.1461114047873888,-0.8969623852432951,-0.006074739641755124,0.01061560142242829,-1.026441907026929
16069,6.0,299.66042000000004,8680.03,0.0,0.0,0.0,0.0,0.0,-0.16015666320241673,-0.6713649153260584,-1.121869396144889,-0.8452780377824473,-0.00939401929984252,0.0015683025266044085,-1.037809661223839
16070,6.0,299.25665,8641.2556,0.0,0.0,0.0,0.0,0.0,-0.1601666300120006,-0.6702968078656444,-1.1131369028080589,-0.8432922094414611,-0.0008583434925219073,0.007685130449688323,-1.032266777876799
16071,6.0,300.33662999999996,8857.7793,0.0,0.0,0.0,0.0,0.0,-0.16017659682158442,-0.6891238965162334,-1.1230607756124689,-0.8803590563221743,0.0011704511920645388,0.008261824986503642,-1.0017078236058652
16072,6.0,301.09119,9177.0935,0.0,0.0,0.0,0.0,0.0,-0.1601865636311683,-0.7299793463158523,-1.155632004051999,-0.9039959013424492,-0.007859864720158252,0.004316227070603446,-0.988979193464647
16073,6.0,300.93029,9170.451,0.0,0.0,0.0,0.0,0.0,-0.16019653044075205,-0.7277823363890243,-1.1384780851590388,-0.9213277266879671,-0.0013824583740880186,0.006766750652576294,-1.002501026181648
16074,6.0,300.40123,9148.9042,0.0,0.0,0.0,0.0,0.0,-0.16020649725033592,-0.7657890943274993,-1.130167103863809,-0.8850822507358171,-0.023291162589658774,0.013806554981850886,-1.009406629588178
16075,6.0,299.41558,9035.2327,0.0,0.0,0.0,0.0,0.0,-0.16021646405991974,-0.7249598269104643,-1.1267781875793488,-0.8947471672121702,-0.014494443381990185,0.0009000339819939382,-1.0253259133667891
16076,6.0,299.40667,9008.2127,0.0,0.0,0.0,0.0,0.0,-0.1602264308695035,-0.7575133741357493,-1.085007762806929,-0.8957506191837031,0.005563319790956915,-0.00980736170853624,-1.000018249329117
16077,6.0,300.12914,9232.1381,0.0,0.0,0.0,0.0,0.0,-0.16023639767908737,-0.7275359038322033,-1.1698913713842887,-0.9089121300326432,0.00047267103914899955,-0.0014630841030951586,-1.0271538165471892
16078,6.0,299.9246,8921.8762,0.0,0.0,0.0,0.0,0.0,-0.1602463644886712,-0.7175369897253874,-1.0909559461939689,-0.9035347002944322,0.04720443236971475,-0.0050065323762062755,-1.0033207049825439
16079,6.0,299.3532,8572.8138,0.0,0.0,0.0,0.0,0.0,-0.160256331298255,-0.6314579486800473,-1.101992063633149,-0.8724712994612132,-0.0019789081467780282,-0.0002293672567817858,-1.025758368509469
16080,6.0,299.4435,8835.4953,0.0,0.0,0.0,0.0,0.0,-0.16026629810783882,-0.7142953189454593,-1.103047160962279,-0.8684274385771152,0.024903097590744376,0.014183555959807985,-0.9887769994071921
16081,6.0,300.44032999999996,9202.1024,0.0,0.0,0.0,0.0,0.0,-0.16027626491742258,-0.7325495159895082,-1.142608599191689,-0.922051268319375,-0.01093198572640299,0.016271154127587884,-1.00740071863021
16082,6.0,300.10713,9094.3626,0.0,0.0,0.0,0.0,0.0,-0.16028623172700646,-0.7502760427789803,-1.132499301618979,-0.8816837693704132,-0.006964463510139034,0.011648430554110589,-1.019485033165339
16083,6.0,299.86297,9079.4646,0.0,0.0,0.0,0.0,0.0,-0.16029619853659027,-0.7197290144617233,-1.130633908184879,-0.9095675812573312,-0.03534340674587267,0.006648837623864183,-0.9992616048169419
16084,6.0,299.99612,9022.5689,0.0,0.0,0.0,0.0,0.0,-0.1603061653461741,-0.7250026873896943,-1.122380884795369,-0.8952520697370001,-0.0019348422039040581,-0.02003416234896788,-1.0130737944825992
16085,6.0,301.3566,9105.6101,0.0,0.0,0.0,0.0,0.0,-0.1603161321557579,-0.7215619129651163,-1.133934266410599,-0.9123819340725862,-0.004730230017037355,0.0028456647764702474,-1.015698517541639
16086,6.0,299.82665,9121.7671,0.0,0.0,0.0,0.0,0.0,-0.16032609896534178,-0.7412843195365663,-1.1206719371767089,-0.9108331610297341,0.04001090077501846,-0.014875767898123985,-1.0258765134711292
16087,6.0,299.99897999999996,8872.7629,0.0,0.0,0.0,0.0,0.0,-0.1603360657749256,-0.7105306185964123,-1.099587114520799,-0.8869806862556782,0.015553236034234886,0.006431242570189224,-1.016324503453419
16088,6.0,300.00233,8678.2691,0.0,0.0,0.0,0.0,0.0,-0.16034603258450936,-0.6888478973214944,-1.0936229217821791,-0.8555062503868931,0.01793133401893488,-0.006227655699146764,-1.0159502088664791
16089,6.0,299.65019,8847.1438,0.0,0.0,0.0,0.0,0.0,-0.16035599939409317,-0.7095913256212113,-1.104399241895719,-0.8753202041048782,-0.015694294633656288,0.0012420212009529488,-1.004472638623731
16090,6.0,299.55746,9203.1738,0.0,0.0,0.0,0.0,0.0,-0.160365966203677,-0.7420971690317882,-1.155724513786129,-0.8997133896622982,0.005227308325920165,-0.009012553840619811,-1.028432740823409
16091,6.0,299.68811,9034.5972,0.0,0.0,0.0,0.0,0.0,-0.16037593301326086,-0.7130289691029803,-1.1379954741364091,-0.8952675116685243,-0.0050525625043990946,0.0006587884550848585,-1.010401590523873
16092,6.0,299.7422,8835.9256,0.0,0.0,0.0,0.0,0.0,-0.16038589982284468,-0.7042508085841432,-1.122673308774229,-0.8589766725093972,0.017792624133245286,-0.012448933596864088,-1.01156791231648
16093,6.0,300.48387,9041.8628,0.0,0.0,0.0,0.0,0.0,-0.1603958666324285,-0.7059348201178424,-1.1466600797165387,-0.8959056261840012,-0.0015448687875666786,0.02363369989196458,-1.0248912290738892
16094,6.0,301.22197,9132.1319,0.0,0.0,0.0,0.0,0.0,-0.1604058334420123,-0.7515866919158313,-1.128661008915169,-0.8956923978329572,0.014776294096056686,0.0012150937755704189,-1.017689351338119
16095,6.0,299.89598,9036.4518,0.0,0.0,0.0,0.0,0.0,-0.16041580025159619,-0.7204535389457283,-1.131754866770509,-0.8946472810173121,0.005043427446797534,0.008505327933310512,-1.0364102615107291
16096,6.0,300.77901,8923.2133,0.0,0.0,0.0,0.0,0.0,-0.16042576706117995,-0.7239482486731293,-1.099994846361039,-0.8884909760597322,0.007934711883845093,-0.023382137249887275,-1.002325288084304
16097,6.0,301.0496,8846.7379,0.0,0.0,0.0,0.0,0.0,-0.16043573387076376,-0.6973408178046804,-1.088790833380289,-0.9030557673696651,-0.011578459555204989,0.016386414366213183,-1.029425016646339
16098,6.0,301.01575,8983.6653,0.0,0.0,0.0,0.0,0.0,-0.16044570068034758,-0.7019264229872444,-1.128579036982079,-0.9003044792406342,0.008067511279051372,-0.015588368454952184,-1.012930865423493
16099,6.0,299.87155,9074.5417,0.0,0.0,0.0,0.0,0.0,-0.1604556674899314,-0.6996796422155044,-1.1275624431567488,-0.9311919899889941,0.0022419258852108574,0.015476771115438383,-1.0149151738893292
16100,6.0,300.01415,9039.9723,0.0,0.0,0.0,0.0,0.0,-0.16046563429951527,-0.7135092800478834,-1.1568791122750788,-0.8775374081061993,0.012207553105041688,-0.01079751426588169,-1.007643371764158
16101,6.0,299.88013,8916.5387,0.0,0.0,0.0,0.0,0.0,-0.16047560110909903,-0.7321215090147674,-1.119546114990599,-0.8587374948232921,-0.012230906493346488,0.028504386029913873,-1.0292029122244188
16102,6.0,299.46345,9064.5139,0.0,0.0,0.0,0.0,0.0,-0.16048556791868285,-0.7352853520545143,-1.150194701365379,-0.8699058717980253,0.007720488419877883,0.007151102456033863,-1.046184274625349
16103,6.0,300.17035,9242.6553,0.0,0.0,0.0,0.0,0.0,-0.16049553472826672,-0.7597018727617373,-1.146794335354789,-0.9030402139806301,-0.003543782848294137,0.0032423312163431767,-1.008053180767103
16104,6.0,300.08858,9084.1365,0.0,0.0,0.0,0.0,0.0,-0.16050550153785048,-0.7026565304793003,-1.1111148609084989,-0.947579273723793,0.007689163489061352,-0.02417664489179908,-0.998946109133305
16105,6.0,300.09229,8939.5995,0.0,0.0,0.0,0.0,0.0,-0.16051546834743435,-0.6946711773687073,-1.1164799188629888,-0.9062639198362852,-0.03070205862230727,-0.004089592508811356,-0.983192360023531
16106,6.0,301.37259,9050.8077,0.0,0.0,0.0,0.0,0.0,-0.16052543515701811,-0.7365590783577214,-1.094809640299299,-0.9198508133422071,-0.02047932466115198,0.03888086752149286,-1.005269813139906
16107,6.0,301.59188,8916.3321,0.0,0.0,0.0,0.0,0.0,-0.16053540196660204,-0.7402108114531193,-1.085440724574659,-0.8846907410296782,-0.017181892701720783,0.03709636184287587,-1.002473303658912
16108,6.0,300.96114,8971.7136,0.0,0.0,0.0,0.0,0.0,-0.1605453687761858,-0.7253995470563613,-1.142882582018729,-0.8588947917688162,-0.002252187372948588,-0.006873438896680603,-1.019677753334359
16109,6.0,300.47123,9169.4957,0.0,0.0,0.0,0.0,0.0,-0.16055533558576957,-0.7260249554155843,-1.1388909845747888,-0.9223818411645002,0.012104001984571988,-0.016336958642082285,-1.012290673745311
16110,6.0,300.45932999999997,9031.5533,0.0,0.0,0.0,0.0,0.0,-0.16056530239535344,-0.6761882796445874,-1.164007833353629,-0.9051705115208741,0.011625483479095889,-0.012968256697117288,-1.012268483568121
16111,6.0,299.93726000000004,8945.2245,0.0,0.0,0.0,0.0,0.0,-0.16057526920493725,-0.6691325936332454,-1.141049612587829,-0.9089426592581561,0.012577872711839388,0.0048916769309959255,-0.9943403605387532
16112,6.0,299.60211,9025.8278,0.0,0.0,0.0,0.0,0.0,-0.16058523601452113,-0.7517064276801483,-1.107228033524899,-0.8846918252072852,0.011004844488093591,-0.02040190120776088,-0.9663491745387381
16113,6.0,299.79568,8973.4635,0.0,0.0,0.0,0.0,0.0,-0.1605952028241049,-0.7526975281329623,-1.109208228195329,-0.8658030904206121,0.018176805001410983,0.012715758825197687,-1.0165578549514491
16114,6.0,299.72688,9045.613000000001,0.0,0.0,0.0,0.0,0.0,-0.16060516963368865,-0.7880179067438122,-1.080972696933699,-0.8806498793658761,-0.005861216434932024,0.025503697534518976,-0.9917061534587771
16115,6.0,299.62032999999997,9271.2874,0.0,0.0,0.0,0.0,0.0,-0.16061513644327258,-0.7469167032649393,-1.153510967617669,-0.9178122048035121,-0.004963238631233516,0.040023816674043165,-1.019122086979519
16116,6.0,300.46786000000003,9247.2988,0.0,0.0,0.0,0.0,0.0,-0.16062510325285634,-0.7136541444146803,-1.144404787643959,-0.9528889575603181,-0.012589397418476788,-0.01815942370919558,-0.9679561689323362
16117,6.0,300.57244,9088.4236,0.0,0.0,0.0,0.0,0.0,-0.1606350700624402,-0.7088214379302293,-1.1273980939905288,-0.9264343450719511,0.0003252172306614417,-0.015078290248611384,-0.993634459591586
16118,6.0,300.33018,8999.0965,0.0,0.0,0.0,0.0,0.0,-0.16064503687202397,-0.7228008037298853,-1.1379283969797889,-0.8747713771882133,0.008753611090114152,-0.007781552646429452,-1.0063567569196792
16119,6.0,301.74358,8951.5749,0.0,0.0,0.0,0.0,0.0,-0.16065500368160784,-0.7575424138836153,-1.1012446903593889,-0.8622681647967423,0.005392826174805505,0.01982631334270478,-1.0004551729047382
16120,6.0,300.47792000000004,8807.0384,0.0,0.0,0.0,0.0,0.0,-0.16066497049119166,-0.7304921116614583,-1.1135450399483389,-0.8330826305063542,0.00976424285053074,-0.0022719757421015476,-1.0296206752406492
16121,6.0,298.95853999999997,8971.921999999999,0.0,0.0,0.0,0.0,0.0,-0.16067493730077542,-0.6951947338278783,-1.158329073168179,-0.8737164217140971,0.016925980176964183,-0.024592687409359274,-1.021639101552929
16122,6.0,299.50538,9148.5938,0.0,0.0,0.0,0.0,0.0,-0.1606849041103593,-0.7051916315669953,-1.1337414449165688,-0.9420110185942491,0.02074084147221168,0.012179761681298888,-1.016351151931049
16123,6.0,300.23041,9009.0908,0.0,0.0,0.0,0.0,0.0,-0.1606948709199431,-0.7190168313639362,-1.140684234601769,-0.8788375599720141,0.02169501807813158,0.00985806069053984,-0.986666804748932
16124,6.0,300.10388,8855.3885,0.0,0.0,0.0,0.0,0.0,-0.16070483772952693,-0.7144738738780814,-1.104628844368379,-0.8727142261726881,-0.0015797736323115185,0.010306496307171991,-0.997363716452135
16125,6.0,300.00759,9029.5815,0.0,0.0,0.0,0.0,0.0,-0.16071480453911074,-0.7602540130062293,-1.116777510417359,-0.8677357839263542,-0.00094416205736404,-0.01060531592066319,-0.9932317028093371
16126,6.0,300.37521,9156.9383,0.0,0.0,0.0,0.0,0.0,-0.1607247713486945,-0.7689201384615093,-1.152024631045979,-0.8625358553406611,-0.008028512599927503,0.017915795828651382,-1.0443399567933291
16127,6.0,299.8531,9152.1409,0.0,0.0,0.0,0.0,0.0,-0.16073473815827843,-0.7049591615965524,-1.144225138401229,-0.9328379945114421,0.00959363899276845,-0.0016860505982002384,-1.037699419612959
16128,6.0,301.85416000000004,9133.4265,0.0,0.0,0.0,0.0,0.0,-0.1607447049678622,-0.6964802847597523,-1.1612268671291688,-0.9186264728488742,-0.0030727355424303875,-0.015285336760795286,-1.0319013998907391
16129,6.0,301.30454,8955.0992,0.0,0.0,0.0,0.0,0.0,-0.160754671777446,-0.7081367645726573,-1.1161667232570789,-0.8978230905407402,0.024416592647980077,-0.028495706529557272,-1.022491751512079
16130,6.0,300.53626,8869.5991,0.0,0.0,0.0,0.0,0.0,-0.16076463858702983,-0.7101070496571092,-1.1015200917365688,-0.8845094604542871,-0.00034495134027154664,-0.0002892077609225837,-1.000777680279067
16131,6.0,299.77279,8936.0774,0.0,0.0,0.0,0.0,0.0,-0.1607746053966137,-0.7348268361192624,-1.137242730637119,-0.8442748391234393,0.021484811238885775,0.003329802969650966,-1.036976566991619
16132,6.0,300.49317,9102.1474,0.0,0.0,0.0,0.0,0.0,-0.16078457220619752,-0.7471937663722833,-1.1173801915768389,-0.902251530500293,-0.016908558354744783,-0.0025935661250900475,-0.9961556183579051
16133,6.0,299.16978,8910.3059,0.0,0.0,0.0,0.0,0.0,-0.16079453901578133,-0.6741109041570663,-1.152257171943929,-0.8821424068956772,-0.01148103150508959,-0.0026683719481728073,-1.038321149874319
16134,6.0,299.75171,8948.4566,0.0,0.0,0.0,0.0,0.0,-0.1608045058253651,-0.6725074764038204,-1.137360267648719,-0.9102395687236512,-0.013897872120613186,0.02308092129990958,-1.000106047450282
16135,6.0,299.51439,9109.1716,0.0,0.0,0.0,0.0,0.0,-0.16081447263494902,-0.7401911746661812,-1.094996280967719,-0.9337732040887402,0.002243719945837918,0.0008334149258766491,-0.988924153719215
16136,6.0,299.44898,9114.7154,0.0,0.0,0.0,0.0,0.0,-0.16082443944453279,-0.7468773790285582,-1.110026427651079,-0.9137421108743251,0.001974668505709608,-0.024792630025092077,-0.9874243611861971
16137,6.0,299.4381,9093.1875,0.0,0.0,0.0,0.0,0.0,-0.1608344062541166,-0.7737705261602053,-1.0931907706145292,-0.8971406767308912,-0.0021144773624576685,-0.03280558913465957,-0.994671217093906
16138,6.0,300.00847000000005,9269.2897,0.0,0.0,0.0,0.0,0.0,-0.16084437306370042,-0.7476950009317512,-1.1252129188248687,-0.94472471514457,0.0030651343428302075,0.02431448642215298,-1.023054510617619
16139,6.0,300.58745,9143.6471,0.0,0.0,0.0,0.0,0.0,-0.16085433987328424,-0.7192021953372303,-1.147229323622719,-0.9130089028369632,-0.0013360929614371086,0.017258805477061483,-1.038094283176929
16140,6.0,300.38566000000003,8920.3561,0.0,0.0,0.0,0.0,0.0,-0.1608643066828681,-0.7037618951458914,-1.100159499502289,-0.9076441285925012,-0.011738738495773289,0.015176253294779587,-1.019919514808219
16141,6.0,300.0285,8779.6893,0.0,0.0,0.0,0.0,0.0,-0.16087427349245187,-0.7200533456862324,-1.094154168809609,-0.8545988241273372,0.008390848201237242,-0.03771665328909386,-0.993160967819856
16142,6.0,299.53378,8815.0797,0.0,0.0,0.0,0.0,0.0,-0.16088424030203569,-0.7227684911841964,-1.0905154863754989,-0.8662800981701892,-0.026713662035433176,0.017486910366073683,-1.011293453261893
16143,6.0,299.93613,9013.3555,0.0,0.0,0.0,0.0,0.0,-0.16089420711161956,-0.7533549349303432,-1.100356171346699,-0.8861238515736152,-0.0044624697615114756,-0.027938597306574872,-0.989566037525064
16144,6.0,299.40162000000004,9101.7633,0.0,0.0,0.0,0.0,0.0,-0.16090417392120332,-0.7010979897054843,-1.156028894116169,-0.909581878216242,-0.01939160979805288,-0.012758297090895886,-1.012307068131929
16145,6.0,298.76966,9156.0134,0.0,0.0,0.0,0.0,0.0,-0.1609141407307872,-0.7081224473487443,-1.137624725924819,-0.9374522848043372,-0.007798263471053683,-0.0054859722299983055,-1.020059545972039
16146,6.0,299.07837,9236.6347,0.0,0.0,0.0,0.0,0.0,-0.16092410754037095,-0.7174296460097933,-1.166852026384329,-0.9234245869749111,0.0030174604190001566,0.04003761308740476,-1.024033614189249
16147,6.0,299.7515,9139.7711,0.0,0.0,0.0,0.0,0.0,-0.16093407434995488,-0.7273931875556183,-1.152816283349109,-0.8980527740734081,0.009040043417157822,0.008588845478103053,-1.0230159057888089
16148,6.0,299.49192,9077.106,0.0,0.0,0.0,0.0,0.0,-0.16094404115953864,-0.7567269907331393,-1.1193392093201788,-0.8831473483448572,-0.03364501516675447,-0.012033945872657988,-1.004521132773517
16149,6.0,300.12179,8881.5816,0.0,0.0,0.0,0.0,0.0,-0.1609540079691224,-0.7182753754707604,-1.114247830217699,-0.8672558478839882,0.004567495262201685,-0.04174188354360316,-1.0141882682675891
16150,6.0,300.36866000000003,8891.958,0.0,0.0,0.0,0.0,0.0,-0.16096397477870628,-0.7044541172167084,-1.126930479069379,-0.8715486339201532,-0.012679576677376788,0.022929273223693078,-1.014691954892299
16151,6.0,299.98976,9186.0216,0.0,0.0,0.0,0.0,0.0,-0.1609739415882901,-0.7122372762698463,-1.1569268363547889,-0.923157088948511,0.0013487809805143188,0.0044187296798696655,-1.043067922617789
16152,6.0,299.97646000000003,9267.1867,0.0,0.0,0.0,0.0,0.0,-0.16098390839787396,-0.7519561127697902,-1.165739781749559,-0.8992974606287492,-0.00993684605339035,-0.022232416546918682,-1.021525516216719
16153,6.0,298.76487000000003,9137.8314,0.0,0.0,0.0,0.0,0.0,-0.16099387520745773,-0.7266460371968804,-1.1544160026069887,-0.8966105240135691,0.022233552400280777,-0.012464781841678188,-1.0032635171469
16154,6.0,300.36412,9009.258,0.0,0.0,0.0,0.0,0.0,-0.1610038420170415,-0.7615968024362523,-1.1084901378494592,-0.8685025609395293,0.025036733119933176,0.01121464704054949,-1.003188374519484
16155,6.0,301.36597,9147.4881,0.0,0.0,0.0,0.0,0.0,-0.16101380882662542,-0.7339580045560153,-1.142939020049299,-0.9037109044868222,0.037232896280600766,-0.01071183282417559,-0.9805195379822441
16156,6.0,301.20264,9194.1692,0.0,0.0,0.0,0.0,0.0,-0.16102377563620918,-0.7332367933998373,-1.143342192264089,-0.9182188929961491,-0.0074268423600722736,-0.009345873100140862,-0.9965789846471881
16157,6.0,300.51085,9109.3145,0.0,0.0,0.0,0.0,0.0,-0.16103374244579305,-0.7081114333201574,-1.143079355188149,-0.9178133903061293,0.001747426905782608,-0.0025188858436946777,-1.007362640691452
16158,6.0,300.30526000000003,9025.4177,0.0,0.0,0.0,0.0,0.0,-0.1610437092553768,-0.7255377037074964,-1.120109178071169,-0.8978547343413631,-0.01807971942982938,0.05849707231021154,-1.042057205643039
16159,6.0,299.49849,8934.1344,0.0,0.0,0.0,0.0,0.0,-0.16105367606496068,-0.7133681647064564,-1.119475998083679,-0.8829096094738941,-0.013240465323232186,0.025982664909789375,-1.0321059750859292
16160,6.0,300.50943,9000.1534,0.0,0.0,0.0,0.0,0.0,-0.1610636428745445,-0.7435041377231453,-1.105526583956979,-0.8867912287519801,-0.02442442101825268,-0.004267588532678196,-1.014561954904469
16161,6.0,299.07408,9152.1213,0.0,0.0,0.0,0.0,0.0,-0.16107360968412826,-0.7345146942934563,-1.124032887758409,-0.9234687950767742,0.001115765273567459,-0.022707116112767878,-1.001298085530427
16162,6.0,300.39227,8895.513,0.0,0.0,0.0,0.0,0.0,-0.16108357649371213,-0.6833480061761974,-1.117243200163319,-0.903422655098374,0.04659911169372426,0.013210204608995689,-1.0285632474362891
16163,6.0,300.34707000000003,8854.6813,0.0,0.0,0.0,0.0,0.0,-0.16109354330329595,-0.6777820511243804,-1.1143811739308591,-0.8994387684876951,0.028729137061095075,-0.027865196456080776,-1.035788024624319
16164,6.0,300.33148,8993.189,0.0,0.0,0.0,0.0,0.0,-0.16110351011287977,-0.6992491122480143,-1.1285176340260188,-0.9059381193991313,-0.0016540986682218285,-0.024223941379966876,-1.0259236296007792
16165,6.0,300.46288,9232.1177,0.0,0.0,0.0,0.0,0.0,-0.16111347692246358,-0.7474808910531203,-1.1532876472956288,-0.9055646658097742,-0.02878028896589337,-0.012587190559758987,-1.035975070592779
16166,6.0,301.09711,9260.1156,0.0,0.0,0.0,0.0,0.0,-0.16112344373204734,-0.7845891595979212,-1.122061305713829,-0.9081934216042121,-0.007964175778202952,0.06078984855699095,-0.9960280197728121
16167,6.0,300.82512,9085.1917,0.0,0.0,0.0,0.0,0.0,-0.16113341054163122,-0.7261786451907524,-1.125100144088739,-0.9103926505487592,-0.012656407700590188,0.014615981718235088,-1.031125959589209
16168,6.0,301.82845,9017.8686,0.0,0.0,0.0,0.0,0.0,-0.16114337735121503,-0.6707155233369684,-1.1502788011236789,-0.9202125436279072,0.01053448973867319,-0.014875556128853088,-0.992695146351383
16169,6.0,300.86829,8945.0122,0.0,0.0,0.0,0.0,0.0,-0.16115334416079885,-0.6904123960058983,-1.121682350176429,-0.9069656259280382,-0.005581859430686635,-0.01984793306008848,-1.0337344706466491
16170,6.0,300.80287000000004,9007.3674,0.0,0.0,0.0,0.0,0.0,-0.16116331097038267,-0.7091281690005012,-1.142657539171519,-0.8862290370664961,0.02064059050731768,0.013866994337065787,-1.035386372284679
16171,6.0,300.63555,8947.6722,0.0,0.0,0.0,0.0,0.0,-0.16117327777996654,-0.7366493792066333,-1.1316662073867592,-0.8515533286992703,-0.006213146160364785,0.01314683493449159,-1.0601972195333191
16172,6.0,301.28879,8796.6291,0.0,0.0,0.0,0.0,0.0,-0.16118324458955036,-0.7263147854741883,-1.0960162185183788,-0.8516246412413082,-0.01117847603847969,-0.0050015818388676955,-1.01230120141385
16173,6.0,300.71992,8983.4419,0.0,0.0,0.0,0.0,0.0,-0.16119321139913417,-0.7217216113133773,-1.1411681628495292,-0.8678522468928482,-0.0076950832001205826,-0.00979723832678714,-1.020818774271969
16174,6.0,299.87719,9348.7824,0.0,0.0,0.0,0.0,0.0,-0.16120317820871793,-0.7499225502165933,-1.148529424826029,-0.9433443847983422,0.007418515065450432,0.032017339325365365,-1.003448810192687
16175,6.0,299.20232999999996,9404.3815,0.0,0.0,0.0,0.0,0.0,-0.16121314501830175,-0.7658065728917243,-1.1672197348456188,-0.9256707800615932,0.00943532494679407,-0.012040518826056688,-1.020767909116949
16176,6.0,300.25747,9334.1649,0.0,0.0,0.0,0.0,0.0,-0.16122311182788562,-0.7376968974250152,-1.1788778865211889,-0.9207783019537432,0.014502470349282384,-0.04382650579583936,-1.0169307309882492
16177,6.0,300.72364,8942.9788,0.0,0.0,0.0,0.0,0.0,-0.16123307863746944,-0.7354491439331793,-1.111991524895019,-0.8710015801911632,0.007213778966144554,-0.015943546052255484,-1.049204975823469
16178,6.0,300.50825,8892.6415,0.0,0.0,0.0,0.0,0.0,-0.16124304544705326,-0.7417825954057423,-1.092492641295629,-0.8688657604378742,0.01987912191141658,0.04476394249685716,-1.016896483134869
16179,6.0,300.91871000000003,8963.7626,0.0,0.0,0.0,0.0,0.0,-0.16125301225663707,-0.7075589891006354,-1.1283750697369488,-0.8888259464102912,-0.023112212489497776,0.03991314341862056,-1.037531726721409
16180,6.0,300.72247999999996,8837.3273,0.0,0.0,0.0,0.0,0.0,-0.16126297906622095,-0.6862354751186683,-1.125295904008059,-0.8747954520105893,-0.02039249723358278,-0.004065785488436786,-1.008073040469063
16181,6.0,300.93436,8827.0249,0.0,0.0,0.0,0.0,0.0,-0.1612729458758047,-0.6580103499355654,-1.139070633817519,-0.8861142155651641,-0.010797955029675189,-0.016394002596212084,-1.030699685272139
16182,6.0,300.9865,9083.5821,0.0,0.0,0.0,0.0,0.0,-0.16128291268538852,-0.7054430695793104,-1.145227242750129,-0.9105118492905232,-0.008294435731697072,0.013823947419817385,-1.038440409411089
16183,6.0,300.08894,9259.2732,0.0,0.0,0.0,0.0,0.0,-0.1612928794949724,-0.7725687203490963,-1.160849938091969,-0.8811691599096252,-0.016016739186479084,-0.003949367814222256,-1.036212373766199
16184,6.0,299.41695,9221.4571,0.0,0.0,0.0,0.0,0.0,-0.16130284630455616,-0.7900929821536062,-1.117868071499989,-0.8951316956251202,-0.008847471283977431,-0.027969114373086676,-1.01284004781703
16185,6.0,299.62027,9087.7787,0.0,0.0,0.0,0.0,0.0,-0.16131281311414003,-0.7169775135501714,-1.127750401050299,-0.917729868100386,0.005997286601461104,-0.0019218454475213784,-0.9953076901442212
16186,6.0,300.20115,9073.7827,0.0,0.0,0.0,0.0,0.0,-0.1613227799237238,-0.7337891464268502,-1.092918003687609,-0.9314962081990182,0.02755369905733837,-0.0006817109689171343,-1.0071855752364771
16187,6.0,300.50362,9144.4285,0.0,0.0,0.0,0.0,0.0,-0.1613327467333076,-0.6895917343524054,-1.1244584528004091,-0.9656277404675381,0.00932415793459774,-0.012047915551786687,-1.006322711716319
16188,6.0,299.69569,9059.2116,0.0,0.0,0.0,0.0,0.0,-0.16134271354289148,-0.7070652221944043,-1.1365846246971687,-0.9101242507297701,-0.018172169382203483,-0.05049377555359765,-1.030030534906099
16189,6.0,300.25184,8927.1557,0.0,0.0,0.0,0.0,0.0,-0.16135268035247524,-0.7223166221696004,-1.1072499197270589,-0.8840658696930082,-9.18453632646816e-06,-0.016009801463044385,-1.026616591344169
16190,6.0,300.64526,8789.5437,0.0,0.0,0.0,0.0,0.0,-0.16136264716205911,-0.7180111299771813,-1.1126592567109188,-0.8411314232057082,-0.00033760057556608266,0.03216395661483537,-1.0461603619229891
16191,6.0,300.37064,8920.5646,0.0,0.0,0.0,0.0,0.0,-0.16137261397164293,-0.7202099637541893,-1.1058895301427991,-0.8855293676074443,-0.017571083078380883,0.03768069810929536,-1.0151142775339792
16192,6.0,301.18357000000003,9301.115,0.0,0.0,0.0,0.0,0.0,-0.1613825807812268,-0.7612906995810422,-1.149577125429429,-0.9164388658829742,-0.01147637663413019,0.005389976307574245,-1.0024545990620661
16193,6.0,299.43176,9282.4739,0.0,0.0,0.0,0.0,0.0,-0.16139254759081056,-0.6971826291990684,-1.1627104679255889,-0.961747205367059,-0.02002774442283448,0.0035987211673911266,-0.9999211191745311
16194,6.0,298.89842999999996,9064.9153,0.0,0.0,0.0,0.0,0.0,-0.16140251440039433,-0.7179626256948943,-1.134163564908229,-0.9033816995293322,0.024552800819172774,-0.003454349544117757,-1.0259044791738892
16195,6.0,300.7134,9161.4223,0.0,0.0,0.0,0.0,0.0,-0.1614124812099782,-0.7690149786708692,-1.125280097306499,-0.8905485830378022,-0.0037556459461533962,-0.029856919886148574,-1.0009696303780111
16196,6.0,299.62981,9072.1648,0.0,0.0,0.0,0.0,0.0,-0.16142244801956201,-0.7604355671591473,-1.1203519527951291,-0.8769240067606611,0.01002872453270805,-0.023162004612661876,-1.025124580571919
16197,6.0,298.89012,9026.7528,0.0,0.0,0.0,0.0,0.0,-0.1614324148291459,-0.7314373726797483,-1.117063246945559,-0.8954068031597711,-0.014050175769644384,-0.001103098532742349,-0.991511011622018
16198,6.0,301.1903,8926.0128,0.0,0.0,0.0,0.0,0.0,-0.16144238163872965,-0.7113469739369803,-1.1239826305534488,-0.8779553535074472,0.03715772224243167,0.037567887909411866,-1.0277555857815792
16199,6.0,299.70587,8904.016,0.0,0.0,0.0,0.0,0.0,-0.16145234844831352,-0.6592108486540453,-1.1378110626182092,-0.9095765687857182,0.0026535208427821175,0.02245563757044888,-1.016512360021959
16200,6.0,299.93419,8989.7374,0.0,0.0,0.0,0.0,0.0,-0.16146231525789734,-0.7298765318282053,-1.1180286716408387,-0.8847505025205761,0.03709515506200676,-0.013188157300069787,-1.021345259023929
16201,6.0,300.29827,9211.1942,0.0,0.0,0.0,0.0,0.0,-0.1614722820674811,-0.7370358226622723,-1.169586079129159,-0.8933511314893922,-0.0014618932302526287,-0.018289090337742682,-1.024413988276789
16202,6.0,299.43907,9144.8445,0.0,0.0,0.0,0.0,0.0,-0.16148224887706497,-0.7536512193920842,-1.145581171010059,-0.880571970565687,-0.002640210384168478,-0.012001763022981789,-1.022925321229869
16203,6.0,301.09373,8944.7379,0.0,0.0,0.0,0.0,0.0,-0.16149221568664873,-0.7299545216884022,-1.109807869604509,-0.8792146004667252,-0.02375109808830088,-0.015480346875041287,-1.000568393470912
16204,6.0,302.09983,9039.0912,0.0,0.0,0.0,0.0,0.0,-0.1615021824962326,-0.7253787348993073,-1.128896386913399,-0.8933829475425322,-0.015269423667974787,-0.009012857309024761,-0.97872391695003
16205,6.0,299.99593,9202.3496,0.0,0.0,0.0,0.0,0.0,-0.16151214930581642,-0.7085123561197253,-1.127423627893049,-0.961348481320208,-0.020496116241809182,0.014592793489696589,-1.000166984311296
16206,6.0,299.95005,9343.7437,0.0,0.0,0.0,0.0,0.0,-0.16152211611540024,-0.7606614408714393,-1.1562444124124387,-0.9233589182359301,-0.007826971784811973,0.013514240434001687,-1.0019730114220369
16207,6.0,299.61242000000004,9212.7045,0.0,0.0,0.0,0.0,0.0,-0.16153208292498406,-0.7452159021770833,-1.133783900095759,-0.9214323650257941,-0.009152640125245252,-0.016137669572663986,-1.0267848921857792
16208,6.0,298.82376,9000.936,0.0,0.0,0.0,0.0,0.0,-0.16154204973456793,-0.7323178971491493,-1.1160364192942187,-0.8877054741847091,0.030742407254539368,-0.04223978147049186,-1.0168757115078189
16209,6.0,299.26849,8733.5959,0.0,0.0,0.0,0.0,0.0,-0.1615520165441517,-0.6974801194284282,-1.0961417602057688,-0.8611732062086781,0.025401159664149273,-0.002058208544654368,-1.0354010644111291
16210,6.0,299.62633,8951.8082,0.0,0.0,0.0,0.0,0.0,-0.1615619833537355,-0.6951018187937084,-1.1290366207272386,-0.8969877570257991,0.01942748999734398,0.024295397803519077,-1.025730200156689
16211,6.0,300.14741000000004,9151.5056,0.0,0.0,0.0,0.0,0.0,-0.16157195016331932,-0.7345404713760003,-1.1590907332683489,-0.8881979846608162,-0.03198561041173397,0.021784054390918777,-1.026160527474159
16212,6.0,300.69822999999997,8921.1444,0.0,0.0,0.0,0.0,0.0,-0.1615819169729032,-0.7336678806548823,-1.100981245333389,-0.8771559701060542,-0.018437534517142983,-0.005223118030131615,-1.001984177438139
16213,6.0,300.63895,8901.1826,0.0,0.0,0.0,0.0,0.0,-0.161591883782487,-0.7093190653193413,-1.125168437145479,-0.8712497352731542,-0.007977049424698483,0.008173957356381783,-1.006767619702728
16214,6.0,300.63241,9276.204,0.0,0.0,0.0,0.0,0.0,-0.16160185059207077,-0.7350389194976933,-1.159938823602049,-0.9247566866163792,0.025295643851735678,-0.0014146759782426486,-1.010344422953231
16215,6.0,300.02898,9380.6374,0.0,0.0,0.0,0.0,0.0,-0.1616118174016546,-0.7741048986932053,-1.156264880064459,-0.921109786723958,-0.004808843937970946,-0.02183019982697298,-0.9979865612886051
16216,6.0,299.85702000000003,9101.482,0.0,0.0,0.0,0.0,0.0,-0.16162178421123846,-0.7097893248232524,-1.1368725903755887,-0.9199613386631152,-0.0008746310927118683,-0.026913155781371673,-1.012930439858451
16217,6.0,299.72361,8677.6343,0.0,0.0,0.0,0.0,0.0,-0.16163175102082228,-0.6849901198182614,-1.0945825709518888,-0.8582114660338772,0.01036715959065899,0.025694963689645477,-1.033757978048969
16218,6.0,300.44947,8752.6821,0.0,0.0,0.0,0.0,0.0,-0.1616417178304061,-0.6950928413978223,-1.090061347680679,-0.8754425844519562,0.007342621923685363,0.04203963620473906,-1.027084206265319
16219,6.0,300.05992000000003,9033.3087,0.0,0.0,0.0,0.0,0.0,-0.1616516846399899,-0.7163251020757834,-1.120719357281389,-0.9088558135920851,-0.018272147782820585,0.01701749996574648,-1.039673230807759
16220,6.0,299.29694,9063.7185,0.0,0.0,0.0,0.0,0.0,-0.16166165144957378,-0.7497862072831373,-1.126423144744309,-0.8789347813191092,-0.006057744093852795,-0.013423993287344987,-1.005505079680625
16221,6.0,300.13279,8829.4898,0.0,0.0,0.0,0.0,0.0,-0.16167161825915755,-0.6839822602087934,-1.1150811270999388,-0.8848810293984581,0.005497187287405145,-0.007456316386931133,-1.0094415461866242
16222,6.0,301.40346,8976.1455,0.0,0.0,0.0,0.0,0.0,-0.16168158506874136,-0.7082389305802402,-1.1473734077869389,-0.8729117086171782,0.02154835417915698,0.006710237742823904,-1.020521284042609
16223,6.0,300.82297,9335.5373,0.0,0.0,0.0,0.0,0.0,-0.16169155187832518,-0.7714876939499072,-1.1506864316389092,-0.9155961052448002,0.0017070750311501885,0.005811522394377605,-1.008472109020948
16224,6.0,300.65294,9526.014000000001,0.0,0.0,0.0,0.0,0.0,-0.161701518687909,-0.8169369359928982,-1.1573825962497688,-0.9213509098502553,-0.0005934945983758564,-0.006606717931782294,-0.981238368000687
16225,6.0,300.32466,9240.3169,0.0,0.0,0.0,0.0,0.0,-0.16171148549749287,-0.7358326489635283,-1.1301354904606888,-0.9428574471977851,-0.0014321684239940187,0.016256560286397586,-0.9828832680805261
16226,6.0,300.16504,8801.8592,0.0,0.0,0.0,0.0,0.0,-0.16172145230707663,-0.7021272795545673,-1.085022556258389,-0.8883955886953181,0.0021359316161000384,0.01840343358502748,-0.995715847549503
16227,6.0,300.7861,8985.0308,0.0,0.0,0.0,0.0,0.0,-0.1617314191166605,-0.6919403264941933,-1.119743698760099,-0.9195409817266291,-0.016176461852742484,-0.009181836420251702,-1.0058588154230361
16228,6.0,300.95538,9201.6086,0.0,0.0,0.0,0.0,0.0,-0.16174138592624432,-0.7638932121978903,-1.1142782277206988,-0.9188877900496641,-0.02039731827755858,-0.009463124172562641,-1.024369101297359
16229,6.0,300.60711000000003,9035.3003,0.0,0.0,0.0,0.0,0.0,-0.16175135273582808,-0.7337910918670424,-1.130676971314129,-0.8820376368353371,-0.01144180251421799,0.023706169565616775,-1.0158651971830892
16230,6.0,301.24494,8831.1601,0.0,0.0,0.0,0.0,0.0,-0.16176131954541195,-0.6972323291164734,-1.118072646695179,-0.8691471399906442,0.019398000366433583,0.03471405076426007,-1.049085310986659
16231,6.0,300.80099,9029.333,0.0,0.0,0.0,0.0,0.0,-0.1617712863549957,-0.7012142905519623,-1.1486435167872888,-0.8948340230107422,-0.0004865990635660886,0.021823359375547878,-0.9938604346288881
16232,6.0,300.26441,9301.4042,0.0,0.0,0.0,0.0,0.0,-0.16178125316457964,-0.7549173665845432,-1.165439859719959,-0.9070373944326211,-0.001852081151636178,-0.022496891035020276,-0.994113574901371
16233,6.0,300.81649,9433.1333,0.0,0.0,0.0,0.0,0.0,-0.1617912199741634,-0.7380765521049842,-1.164644154416429,-0.964716281472584,-0.017745206055065483,-0.014711260664888386,-0.9698832287675221
16234,6.0,299.89752000000004,9164.2343,0.0,0.0,0.0,0.0,0.0,-0.16180118678374716,-0.7564589050216813,-1.1276368157140888,-0.9016027261962613,-0.012482819719958387,-0.0024954889869605876,-0.9996287559906771
16235,6.0,299.55323,8965.2357,0.0,0.0,0.0,0.0,0.0,-0.16181115359333104,-0.7226864483235993,-1.130967166142769,-0.8715541865307012,-0.0007348184464084343,-0.03452717299531667,-0.9952192942054972
16236,6.0,300.17687,9157.7414,0.0,0.0,0.0,0.0,0.0,-0.16182112040291485,-0.7395445083198603,-1.147988146622609,-0.8961920314572672,0.0026556722767194477,-0.007590428143666932,-1.023900574451119
16237,6.0,301.12919,9238.0345,0.0,0.0,0.0,0.0,0.0,-0.16183108721249873,-0.7580862657422893,-1.124826262586709,-0.925219316347037,0.012522983940672288,0.005256743241325164,-1.0178943318333489
16238,6.0,300.24349,9213.5406,0.0,0.0,0.0,0.0,0.0,-0.1618410540220825,-0.7391687951827803,-1.1524105780090688,-0.9091069070993661,0.024873846073607476,0.040433181873444364,-1.023224635309409
16239,6.0,299.3606,8936.8507,0.0,0.0,0.0,0.0,0.0,-0.16185102083166625,-0.6752051129400564,-1.1426433536701188,-0.8987310436903482,0.01098269180115729,0.01298134484865899,-1.037756262943569
16240,6.0,298.847,8819.1855,0.0,0.0,0.0,0.0,0.0,-0.16186098764125018,-0.7158581964297034,-1.097313178646379,-0.8676408119944813,0.0071131951485927025,-0.02117489349704928,-1.027478867179269
16241,6.0,299.30186000000003,9039.395,0.0,0.0,0.0,0.0,0.0,-0.16187095445083394,-0.7416575198133983,-1.1454674843488388,-0.8606253824096123,0.01097183178658549,-0.014748767130589986,-1.044961585729679
16242,6.0,299.44456,9090.5449,0.0,0.0,0.0,0.0,0.0,-0.1618809212604178,-0.7321540850054823,-1.151294381698909,-0.8798501717244511,-0.01254973576981249,-0.0007986481263254333,-1.008169805853613
16243,6.0,300.21238,8959.0122,0.0,0.0,0.0,0.0,0.0,-0.16189088807000157,-0.7254836772121643,-1.1451450681670188,-0.8526872062236751,0.005238590359158615,-0.017274992147408984,-1.0087054807839801
16244,6.0,300.94977,9103.9378,0.0,0.0,0.0,0.0,0.0,-0.16190085487958544,-0.7272346037824673,-1.126763292802879,-0.9133718591552842,-0.01772340800566418,-0.017476854872081286,-0.971593726658835
16245,6.0,301.20916,9131.7068,0.0,0.0,0.0,0.0,0.0,-0.16191082168916926,-0.7346384425281692,-1.1310103305970292,-0.9101621361510092,0.016876879090368287,0.0016462465878968886,-1.0084027317866011
16246,6.0,300.53434,9000.1981,0.0,0.0,0.0,0.0,0.0,-0.16192078849875308,-0.7380644336337883,-1.1062977686080888,-0.8914732446815591,0.008863685413402642,0.014119490182485187,-1.005333506041192
16247,6.0,300.63047,9163.393,0.0,0.0,0.0,0.0,0.0,-0.1619307553083369,-0.7505284129813873,-1.122939084275459,-0.9119751445549392,0.015664015680917985,-0.01016977847117899,-1.0425587644425391
16248,6.0,299.5807,9178.025,0.0,0.0,0.0,0.0,0.0,-0.16194072211792077,-0.7305059830553273,-1.1339187636840689,-0.9254656678438501,-0.014230613320952186,-0.017621586503115183,-1.036446434539299
16249,6.0,299.75276,9010.3509,0.0,0.0,0.0,0.0,0.0,-0.16195068892750453,-0.7172613350356823,-1.1284058725399888,-0.8932544471648501,-0.001955958133338038,-0.011379702442089188,-1.0321256321378691
16250,6.0,299.39606000000003,8993.9078,0.0,0.0,0.0,0.0,0.0,-0.16196065573708834,-0.6848764128920394,-1.1218458887425689,-0.9272010612901201,-0.007802002870547733,0.026398918183370375,-1.0186605515589688
16251,6.0,299.54789,8897.2727,0.0,0.0,0.0,0.0,0.0,-0.16197062254667216,-0.6886623205656793,-1.127218444747799,-0.8886679908522023,-0.0016700540135714986,2.3049078902266982e-05,-1.005891148233727
16252,6.0,299.98965,8971.0172,0.0,0.0,0.0,0.0,0.0,-0.16198058935625603,-0.7232422666659544,-1.1413500412424789,-0.8623729348570822,0.004704572599330166,0.01906721575203768,-1.007678582205133
16253,6.0,301.43224,9186.2958,0.0,0.0,0.0,0.0,0.0,-0.16199055616583985,-0.7618086628996612,-1.141488653856159,-0.8891071638430451,0.02397961840985408,-0.008891740282171441,-1.0020118189008669
16254,6.0,299.75164,9270.0484,0.0,0.0,0.0,0.0,0.0,-0.1620005229754236,-0.7665330630809233,-1.1569497358070489,-0.8943803909409721,0.018921516467158284,0.011016141213458489,-1.0202565217914792
16255,6.0,299.56392,9031.9421,0.0,0.0,0.0,0.0,0.0,-0.16201048978500743,-0.7323944583267054,-1.112141789884849,-0.9009485921967032,-0.011278186941070387,-0.01788458975207158,-0.998727064726687
16256,6.0,299.58231,8937.0487,0.0,0.0,0.0,0.0,0.0,-0.1620204565945913,-0.6812415200133033,-1.120077260693019,-0.9153208254576322,-0.01075983250791279,0.010628106955162489,-0.997262766344672
16257,6.0,299.22777,9086.8455,0.0,0.0,0.0,0.0,0.0,-0.16203042340417512,-0.7072534334004794,-1.1217391935070389,-0.9331815673553501,-0.02003485642528638,0.007198948733705924,-1.0174335056878692
16258,6.0,299.17552,9195.0872,0.0,0.0,0.0,0.0,0.0,-0.16204039021375893,-0.7640655863049023,-1.121499661183399,-0.9095116802493142,-0.005475314865446505,0.023889525277212578,-1.033797494802869
16259,6.0,299.21407999999997,9060.6572,0.0,0.0,0.0,0.0,0.0,-0.1620503570233427,-0.7214493510115073,-1.134331561774809,-0.8984326719334012,0.002782942872755078,-0.0043031992074426964,-1.047580026638099
16260,6.0,298.56286,8921.1063,0.0,0.0,0.0,0.0,0.0,-0.16206032383292662,-0.7396690671546533,-1.118574712119729,-0.8535497657688031,0.015662020591471086,0.000975681410609758,-1.0268984775219892
16261,6.0,299.49005,9014.2127,0.0,0.0,0.0,0.0,0.0,-0.16207029064251038,-0.7090961198998383,-1.136770353440499,-0.8942291329660441,0.042598415263886254,-0.0015933852288548785,-1.00125434352361
16262,6.0,299.94996000000003,9115.0743,0.0,0.0,0.0,0.0,0.0,-0.1620802574520942,-0.7315521840485794,-1.140946767702679,-0.8982560624409711,0.011472563774003889,0.01876849442380618,-1.008787138609539
16263,6.0,300.004,9300.6167,0.0,0.0,0.0,0.0,0.0,-0.16209022426167802,-0.7519815960098053,-1.1398409065435389,-0.9353327277151531,0.0008412503382374442,-0.014492047045503687,-0.96583274122777
16264,6.0,299.9724,9254.7597,0.0,0.0,0.0,0.0,0.0,-0.16210019107126183,-0.7827971153385602,-1.1540222536181288,-0.8763964783610981,-0.022107176808058477,-0.0003556157570440426,-1.005562794406321
16265,6.0,300.07611,9112.6241,0.0,0.0,0.0,0.0,0.0,-0.1621101578808457,-0.7354806762762913,-1.140630127046429,-0.8938993707209992,-0.02097218572179358,-0.004694400176276226,-0.9980850593308261
16266,6.0,300.25658,9199.7671,0.0,0.0,0.0,0.0,0.0,-0.16212012469042947,-0.7799760548076432,-1.137190852231999,-0.8793325731758682,-0.014899529626219085,0.014148135776062288,-1.0315820234592188
16267,6.0,300.35525,9195.9373,0.0,0.0,0.0,0.0,0.0,-0.16213009150001334,-0.7283655023515784,-1.1550518170447388,-0.9119179769842971,-0.006232316142981713,-0.042331366107280555,-1.015492422471299
16268,6.0,299.35814,8833.9008,0.0,0.0,0.0,0.0,0.0,-0.16214005830959716,-0.6821702853199654,-1.1070243702547988,-0.8960906355197601,0.0024511700355366473,-0.008149333352451582,-1.030223052425099
16269,6.0,299.21391,8693.1524,0.0,0.0,0.0,0.0,0.0,-0.16215002511918092,-0.6753969921114934,-1.095438665961379,-0.8716655731141941,0.02443922764196398,-0.006083585213803114,-1.022472601085189
16270,6.0,298.69442000000004,9000.179,0.0,0.0,0.0,0.0,0.0,-0.1621599919287648,-0.7051515980555444,-1.139507445935629,-0.8911706578041962,0.0015486591535407586,0.04553702091240405,-1.066651217370279
16271,6.0,298.63209,9065.8823,0.0,0.0,0.0,0.0,0.0,-0.16216995873834855,-0.7524006762511654,-1.120055070515829,-0.8833460872194712,0.002588244332914827,0.002055753237012048,-1.0280031227810091
16272,6.0,298.60531000000003,9075.6459,0.0,0.0,0.0,0.0,0.0,-0.16217992554793242,-0.7421752298194924,-1.159000148709409,-0.8575943865904762,-0.0024821091207150978,0.0006365151001941495,-1.022629452200669
16273,6.0,299.14589,9069.3812,0.0,0.0,0.0,0.0,0.0,-0.16218989235751624,-0.7084653717125883,-1.146529978403699,-0.9018700418376432,0.005456234859438454,0.006883667859090124,-1.005395243369785
16274,6.0,298.86244,8963.6087,0.0,0.0,0.0,0.0,0.0,-0.1621998591671,-0.7092205976746233,-1.129386799961799,-0.8861058157218352,-0.0024669726840962475,0.002996500327431557,-1.014410879314559
16275,6.0,300.74054,9244.3589,0.0,0.0,0.0,0.0,0.0,-0.16220982597668387,-0.7747059079900203,-1.139977087356979,-0.8953712988762671,0.006404351115185243,-0.0051252811336008645,-0.99470418825216
16276,6.0,300.56957,9310.8754,0.0,0.0,0.0,0.0,0.0,-0.1622197927862677,-0.7768963925862042,-1.1345069553671188,-0.9188702506904332,0.01124375872917259,-0.0015289047282661485,-1.017815703625589
16277,6.0,300.72495,9084.171,0.0,0.0,0.0,0.0,0.0,-0.16222975959585156,-0.7424458587887013,-1.1411468845974289,-0.8777683683339932,0.026221870966897178,0.013809676805408986,-1.014459008694309
16278,6.0,298.83862999999997,8906.0859,0.0,0.0,0.0,0.0,0.0,-0.16223972640543532,-0.6931460738481914,-1.121524992435899,-0.8925566623509842,-0.013113685444219987,0.02207783409841258,-1.042731523584589
16279,6.0,299.07286,9073.5756,0.0,0.0,0.0,0.0,0.0,-0.1622496932150191,-0.6907371021329444,-1.129154461713869,-0.938248800707947,-0.017165276413330884,-0.0013543830376671988,-1.0243217825176891
16280,6.0,299.94181000000003,9237.8418,0.0,0.0,0.0,0.0,0.0,-0.16225966002460301,-0.7464501725213962,-1.1304756385192591,-0.9311474069845942,-0.02112703566832608,0.002852072671427657,-1.01057067156806
16281,6.0,299.80787999999995,9057.9014,0.0,0.0,0.0,0.0,0.0,-0.16226962683418678,-0.7338123194566373,-1.102162897600009,-0.9174006530103951,0.003192951789944807,0.004650163196785376,-0.995018630155693
16282,6.0,299.53175,8854.6275,0.0,0.0,0.0,0.0,0.0,-0.16227959364377065,-0.7005574207771343,-1.123458273626699,-0.8675699959449921,9.682123388226181e-05,0.039052854566966666,-1.025673052851049
16283,6.0,300.77435,9056.6038,0.0,0.0,0.0,0.0,0.0,-0.1622895604533544,-0.7421542656749233,-1.1103217900552291,-0.9005053560729591,0.0006768581190206953,-0.003027561711897077,-1.005697809982146
16284,6.0,300.43633,9293.9072,0.0,0.0,0.0,0.0,0.0,-0.16229952726293828,-0.7347526256819383,-1.1665558533800988,-0.92380718008017,0.016271539162625883,-0.0009298298170845581,-1.0143340749569791
16285,6.0,300.48651,9371.5904,0.0,0.0,0.0,0.0,0.0,-0.1623094940725221,-0.7314478192882794,-1.1917497091665388,-0.925531914135388,0.013909064481217787,-0.018126047250901584,-1.034946013791219
16286,6.0,300.76153,9144.7314,0.0,0.0,0.0,0.0,0.0,-0.16231946088210591,-0.7272969693261223,-1.1434068376204687,-0.9090662048428492,0.002520495796778568,-0.0018280254796870683,-1.032669139491509
16287,6.0,299.34899,8689.8225,0.0,0.0,0.0,0.0,0.0,-0.16232942769168973,-0.6864359669159553,-1.0885858528850592,-0.8664672454636592,-0.007438898719037143,-0.004567242152326706,-1.030210690773879
16288,6.0,300.38261,9010.9268,0.0,0.0,0.0,0.0,0.0,-0.1623393945012736,-0.7279175343498673,-1.126680915569749,-0.8844982640406822,-0.016639639751704585,0.0058737059583146446,-1.038947135786099
16289,6.0,300.2788,9294.947,0.0,0.0,0.0,0.0,0.0,-0.16234936131085737,-0.7531233566199882,-1.109740488472859,-0.9625679987430651,0.00036167852888489165,0.008869141157241082,-1.0153273640300091
16290,6.0,299.79389,8995.0994,0.0,0.0,0.0,0.0,0.0,-0.16235932812044118,-0.6679798899219823,-1.1531995958619388,-0.9131061241840581,0.01074376033482659,0.012945140409335885,-1.0477253267024391
16291,6.0,300.18717999999996,8837.8792,0.0,0.0,0.0,0.0,0.0,-0.162369294930025,-0.6726173735096663,-1.106602148938129,-0.9072751130385821,-0.008357235250369903,0.02199188414542998,-1.011139956004244
16292,6.0,300.3169,8998.1194,0.0,0.0,0.0,0.0,0.0,-0.16237926173960882,-0.7451485413104353,-1.132622715481159,-0.8574323881644881,0.014687860667078986,0.002580838285283908,-1.015827504279369
16293,6.0,298.77584,9147.0641,0.0,0.0,0.0,0.0,0.0,-0.1623892285491927,-0.7775538297810882,-1.1374938140118989,-0.8654314606814352,-0.016153407373217184,0.002724155216528187,-1.006869653987798
16294,6.0,299.29496,9303.579,0.0,0.0,0.0,0.0,0.0,-0.16239919535877645,-0.7785955623413993,-1.1624713409019887,-0.8869888023889793,0.008423275446837561,0.0022000102616991078,-1.029728282401269
16295,6.0,299.98567,9096.7454,0.0,0.0,0.0,0.0,0.0,-0.16240916216836027,-0.7099266202118023,-1.1645829541103887,-0.8906738714126671,-0.018562011278677883,0.0004088187738872717,-1.004863246537281
16296,6.0,299.42364,8891.3084,0.0,0.0,0.0,0.0,0.0,-0.16241912897794414,-0.6549479433633294,-1.132672466061069,-0.9151152775423462,-0.008416192828638562,0.009511359842248131,-1.026862101843399
16297,6.0,300.11762000000004,9085.61,0.0,0.0,0.0,0.0,0.0,-0.16242909578752796,-0.7269745126142984,-1.123057837187179,-0.911766181986816,-0.012069377202154789,-0.008890952277568672,-1.013331261333009
16298,6.0,299.67488,9165.8471,0.0,0.0,0.0,0.0,0.0,-0.16243906259711177,-0.7361724221195612,-1.156242183262219,-0.8937740823461341,0.014633630508476885,0.01000445354511269,-1.046411242647749
16299,6.0,299.8316,8964.9038,0.0,0.0,0.0,0.0,0.0,-0.16244902940669553,-0.7237285456539463,-1.1120272926235488,-0.8893510835396182,-0.005484372916040464,0.015173124378470787,-1.027069412813859
16300,6.0,300.41402999999997,8868.3207,0.0,0.0,0.0,0.0,0.0,-0.16245899621627935,-0.7074063024430663,-1.138541210640269,-0.8498005377487832,0.027034441818341675,0.012141646252287187,-1.045214999579689
16301,6.0,300.55287000000004,9009.7087,0.0,0.0,0.0,0.0,0.0,-0.16246896302586322,-0.7072750054951084,-1.128144859314229,-0.9033065974319202,-0.0016346436583517681,0.012199421772989187,-1.020008376841989
16302,6.0,299.75947,9163.2983,0.0,0.0,0.0,0.0,0.0,-0.16247892983544704,-0.6918821963359564,-1.1546100400011388,-0.938921700099357,-0.0024668487636090174,0.02022738205028718,-1.0253988673739889
16303,6.0,300.07301,9107.405,0.0,0.0,0.0,0.0,0.0,-0.16248889664503086,-0.7027659412250983,-1.169057263901969,-0.8966005333675832,-0.019739424106879483,0.02143733844520058,-0.9959833253109011
16304,6.0,299.21255,8924.4667,0.0,0.0,0.0,0.0,0.0,-0.16249886345461467,-0.7299931265172123,-1.1236557560711888,-0.8591661097480932,-0.016182935507631384,-0.015667402976002286,-1.003406902168551
16305,6.0,298.87196,9067.6203,0.0,0.0,0.0,0.0,0.0,-0.16250883026419854,-0.7723698396194683,-1.1147367233909489,-0.8692235795781882,0.006236140756809175,-0.017069833320161383,-0.9965869994554791
16306,6.0,298.66234,9247.7329,0.0,0.0,0.0,0.0,0.0,-0.1625187970737823,-0.7976790235322901,-1.1372692777897389,-0.8761315945199561,0.01118221898434909,-0.018708571826142283,-1.009410206361031
16307,6.0,299.53609,9477.5865,0.0,0.0,0.0,0.0,0.0,-0.16252876388336618,-0.7424293529445724,-1.165873226787729,-0.9726470609327912,0.013091882328568187,0.004511537005554035,-1.008373823761248
16308,6.0,300.08795,9324.5222,0.0,0.0,0.0,0.0,0.0,-0.16253873069294994,-0.7161128059148313,-1.1543935084547687,-0.9639156517735682,0.015674492686951987,-0.005885545684408134,-0.996148454679698
16309,6.0,300.26469,9088.4288,0.0,0.0,0.0,0.0,0.0,-0.16254869750253376,-0.7351817978942943,-1.110354214058429,-0.9171194051801381,-0.012991242275635789,0.02195901633868618,-0.9883153018666261
16310,6.0,300.20387,9064.4769,0.0,0.0,0.0,0.0,0.0,-0.16255866431211763,-0.7519163224383633,-1.1068434037869388,-0.8966148708564982,0.008176770037334372,0.01066201739625919,-1.007436820731273
16311,6.0,300.90736,9118.6919,0.0,0.0,0.0,0.0,0.0,-0.1625686311217014,-0.7650340912804863,-1.1440733535362488,-0.8627472193115212,-0.02113793925265218,0.0047266021763793156,-1.003778998002774
16312,6.0,300.77599,9131.7963,0.0,0.0,0.0,0.0,0.0,-0.16257859793128526,-0.7578322844722233,-1.143069526662179,-0.8749362329794831,0.012679171377336788,-0.02164704676539718,-1.0056211373470791
16313,6.0,299.94349,9116.6464,0.0,0.0,0.0,0.0,0.0,-0.16258856474086908,-0.6962930057437693,-1.1572591823875886,-0.9176807356030371,0.00981674957203775,-0.01053066877254609,-1.010469934243118
16314,6.0,299.65797000000003,9103.9653,0.0,0.0,0.0,0.0,0.0,-0.16259853155045284,-0.7052875559539623,-1.1510124955210888,-0.9110780230489002,0.014476748995493885,0.006653182946918034,-1.029621080540689
16315,6.0,299.52201,9303.8816,0.0,0.0,0.0,0.0,0.0,-0.1626084983600367,-0.7527493862730803,-1.139369846572049,-0.9360284252338131,-0.007793280205736872,0.002961276410230227,-0.9905931083564281
16316,6.0,299.52538,9315.9777,0.0,0.0,0.0,0.0,0.0,-0.16261846516962047,-0.7550429386694363,-1.1669507169440687,-0.9098309857533271,-0.0054777962136163955,-0.017244685836917982,-1.039820152072259
16317,6.0,300.3297,9150.333,0.0,0.0,0.0,0.0,0.0,-0.1626284319792044,-0.7683249553527692,-1.1236532229459388,-0.8894945293562752,-0.009116119450565941,0.0014640452721400184,-1.012502544341221
16318,6.0,300.48931,8959.8883,0.0,0.0,0.0,0.0,0.0,-0.16263839878878816,-0.7436134775414363,-1.100046218141109,-0.8799226799016071,0.001137827173294799,-0.015308277756309385,-1.0480186626063892
16319,6.0,300.34091,8874.7384,0.0,0.0,0.0,0.0,0.0,-0.16264836559837192,-0.6651217039074014,-1.119542771265269,-0.9130344164744812,-0.008179790029257422,-0.0014915741627819087,-1.0320608854564792
16320,6.0,299.80998,9093.9818,0.0,0.0,0.0,0.0,0.0,-0.1626583324079558,-0.6953553846312334,-1.1449076636685889,-0.9240803421746291,-0.0030125604428415673,-0.006337308713043674,-1.021852694674009
16321,6.0,299.45203,9036.1508,0.0,0.0,0.0,0.0,0.0,-0.1626682992175396,-0.7088279632608734,-1.128211024545759,-0.9097252125753881,0.017759025773179383,0.03594398743789536,-1.021052835045069
16322,6.0,299.6817,8970.5614,0.0,0.0,0.0,0.0,0.0,-0.16267826602712349,-0.7280693496123503,-1.1238679306421289,-0.8748894005598611,0.005555155426951155,0.02090738736464848,-1.029049911459319
16323,6.0,299.40473,8967.8245,0.0,0.0,0.0,0.0,0.0,-0.16268823283670725,-0.7517220925266943,-1.132732855767029,-0.8415397933935111,-0.016856281742335485,0.004629816628152326,-1.011673948939445
16324,6.0,298.1681,9114.1467,0.0,0.0,0.0,0.0,0.0,-0.16269819964629112,-0.7551950984369532,-1.127476418223259,-0.8878015302941892,-0.018517277300012982,-0.017872574632385785,-1.002699015251188
16325,6.0,298.76579,9439.3135,0.0,0.0,0.0,0.0,0.0,-0.16270816645587494,-0.7411435588326742,-1.176463615507919,-0.9517084705313131,-0.027478708417437374,-0.003877603666614686,-1.011385233455951
16326,6.0,299.5294,9236.3546,0.0,0.0,0.0,0.0,0.0,-0.16271813326545875,-0.7486417412951872,-1.118090175921909,-0.9408892088785351,-0.0021430637822289276,-0.00986076394048163,-0.997340847397378
16327,6.0,299.26128,9016.9227,0.0,0.0,0.0,0.0,0.0,-0.16272810007504257,-0.7000201347791083,-1.125580019336099,-0.9153191637274681,-0.028584379085558574,0.01092655166611669,-1.0197440198908991
16328,6.0,300.32367999999997,9068.6146,0.0,0.0,0.0,0.0,0.0,-0.16273806688462633,-0.7378361382537573,-1.113218976066159,-0.9055773010385211,0.01775261696629688,0.0037585572163407162,-1.014467722645169
16329,6.0,299.27752000000004,9091.8638,0.0,0.0,0.0,0.0,0.0,-0.1627480336942102,-0.7683863988388332,-1.120428047877639,-0.8748851449094411,0.016394853726296083,0.018659324831531984,-1.029281743082199
16330,6.0,299.69355,9090.4238,0.0,0.0,0.0,0.0,0.0,-0.16275800050379402,-0.7323133577887013,-1.1242358417534388,-0.906712627510569,0.02005590162986338,0.006199636496781484,-1.038181220035509
16331,6.0,300.70858,8977.2011,0.0,0.0,0.0,0.0,0.0,-0.16276796731337784,-0.7062333134648013,-1.104987636228789,-0.9176240341274411,-0.0014690591376098486,-0.021186600588704682,-0.996521391511504
16332,6.0,300.23778,8891.9936,0.0,0.0,0.0,0.0,0.0,-0.16277793412296165,-0.6599245009644774,-1.1380297219897888,-0.9049897983655392,-0.018097441174078382,-0.012920643061668187,-1.0134285333426092
16333,6.0,299.8989,9099.9198,0.0,0.0,0.0,0.0,0.0,-0.16278790093254553,-0.6918298822332933,-1.1559938356627089,-0.918324706704092,-0.02220004219297358,0.023927512023461578,-1.0094451837544829
16334,6.0,299.62625,9383.0355,0.0,0.0,0.0,0.0,0.0,-0.1627978677421293,-0.7797841351062023,-1.162938043898049,-0.9094863185993112,-0.023348338266301578,0.01825108028674138,-1.020081432174199
16335,6.0,298.88372000000004,9272.0754,0.0,0.0,0.0,0.0,0.0,-0.1628078345517131,-0.8013603333981073,-1.1462669386777389,-0.8708521156689121,-0.028480896866095676,0.004028212452203616,-1.010144356720986
16336,6.0,299.68164,9076.5648,0.0,0.0,0.0,0.0,0.0,-0.16281780136129692,-0.7300264827105043,-1.127065038682659,-0.9019575055862751,-0.0018662488198344185,-0.008694189747274723,-0.994177136080144
16337,6.0,299.22153,9069.8113,0.0,0.0,0.0,0.0,0.0,-0.1628277681708808,-0.7039606137555033,-1.1555889409227489,-0.8974465465385782,0.02279286442898058,0.016407256920770184,-1.027540371460339
16338,6.0,299.12256,9285.5405,0.0,0.0,0.0,0.0,0.0,-0.1628377349804646,-0.7382532021274183,-1.1435593317605188,-0.940759928298276,0.026240829889518275,-0.010243892649743491,-1.021086677598409
16339,6.0,299.81,9274.0165,0.0,0.0,0.0,0.0,0.0,-0.16284770179004837,-0.7389846369771054,-1.1477042339445889,-0.932380572886298,0.015058238029132384,-0.024533954367312774,-1.047067727387539
16340,6.0,300.17204,9028.2723,0.0,0.0,0.0,0.0,0.0,-0.1628576685996322,-0.7680439811000392,-1.116569186196799,-0.8597562164738322,0.014553316252550488,-0.0025762543418315076,-1.019960146137229
16341,6.0,300.37868,9020.0217,0.0,0.0,0.0,0.0,0.0,-0.16286763540921606,-0.7295021359162553,-1.1259324277208789,-0.8864267626910102,-0.004016483778321086,0.013653798410024986,-1.032617362411399
16342,6.0,299.7337,9109.8623,0.0,0.0,0.0,0.0,0.0,-0.16287760221879988,-0.7160414629752903,-1.1418746008192489,-0.9112545920113262,-0.0008371023456405692,-0.006633306931631423,-1.0024526232243711
16343,6.0,299.2531,9244.4544,0.0,0.0,0.0,0.0,0.0,-0.1628875690283837,-0.7249750965894712,-1.155144529428889,-0.9299636978202711,-0.019128008731537482,-0.036164210254379665,-1.009695679444205
16344,6.0,300.38292,9125.9119,0.0,0.0,0.0,0.0,0.0,-0.16289753583796746,-0.7171198346592174,-1.136246503138799,-0.9206829753843352,-0.005870146410713344,-0.02100187090997328,-0.979598534171348
16345,6.0,300.27779,9020.4763,0.0,0.0,0.0,0.0,0.0,-0.16290750264755138,-0.6962125536858293,-1.170028464122819,-0.8757585867606431,0.002148427522958288,0.008693025016284772,-1.030355180238139
16346,6.0,300.15442,9212.9666,0.0,0.0,0.0,0.0,0.0,-0.16291746945713514,-0.7824758339968523,-1.1308395979551789,-0.8871963362744612,-0.006777388968026213,0.0010102567058920741,-1.009813642020847
16347,6.0,298.91017,9401.8526,0.0,0.0,0.0,0.0,0.0,-0.16292743626671902,-0.7825256149742652,-1.1611643495979989,-0.9142384109058062,-0.0029636257319120875,-0.0006321165511125464,-1.024858501095659
16348,6.0,297.89367999999996,9243.0492,0.0,0.0,0.0,0.0,0.0,-0.16293740307630278,-0.7552739090297313,-1.130178249614909,-0.9242040296143361,0.005499264247460125,0.014325625782829185,-1.0035866831337938
16349,6.0,299.01214,8874.5154,0.0,0.0,0.0,0.0,0.0,-0.1629473698858866,-0.6729872199286674,-1.108636755138929,-0.9160071200153641,0.023049346400293377,0.016820037786258485,-1.014945875367359
16350,6.0,299.04167,8857.5635,0.0,0.0,0.0,0.0,0.0,-0.16295733669547047,-0.6711109745859963,-1.1167867309932689,-0.9045804047951351,0.002555063735865157,-0.012726992729056388,-1.042681367704639
16351,6.0,299.12458,9162.3393,0.0,0.0,0.0,0.0,0.0,-0.16296730350505423,-0.7291567392221673,-1.140360602519829,-0.9156050826406861,-0.0032452244506787162,-0.017304384506309785,-1.031713948622239
16352,6.0,299.39857,9101.2634,0.0,0.0,0.0,0.0,0.0,-0.1629772703146381,-0.7848601026746612,-1.116820776196629,-0.8648759767116133,0.0048082454111368755,-0.004855092522885325,-0.999580606345925
16353,6.0,300.43407,8924.1839,0.0,0.0,0.0,0.0,0.0,-0.16298723712422192,-0.7048544624637193,-1.129864547383949,-0.8780100892778492,0.008773117167789252,-0.006366519193551524,-1.015223201919729
16354,6.0,300.16907000000003,8974.862,0.0,0.0,0.0,0.0,0.0,-0.16299720393380568,-0.7147436415847053,-1.108627534563019,-0.9047627594156321,-0.007154328441702243,-4.278683013323136e-05,-0.9826900210214541
16355,6.0,299.92201,9126.2986,0.0,0.0,0.0,0.0,0.0,-0.16300717074338955,-0.7040499013543153,-1.1304420999409488,-0.939674889428691,0.005151360873949735,-0.014275970448428588,-1.002798364423493
16356,6.0,299.76031,9433.2041,0.0,0.0,0.0,0.0,0.0,-0.1630171375529733,-0.7679068478315053,-1.1542641164169989,-0.945287524912615,-0.009846865898135,0.027062026539064074,-0.999090770850082
16357,6.0,300.41388,9393.2115,0.0,0.0,0.0,0.0,0.0,-0.16302710436255724,-0.7667299781053573,-1.1558746774509487,-0.9326970716875341,-0.009192608079414782,0.0025632431972974073,-1.0343233716047688
16358,6.0,298.97234,8944.086,0.0,0.0,0.0,0.0,0.0,-0.163037071172141,-0.7457601694682983,-1.118187447931509,-0.8548311725077683,-0.023761278212055578,-5.963493900026024e-05,-1.0245184543620989
16359,6.0,299.10179,8836.2637,0.0,0.0,0.0,0.0,0.0,-0.16304703798172476,-0.6699213885710934,-1.119107276372289,-0.8969748178220223,-0.014958348794524085,0.0003705017587681767,-1.0453986004978089
16360,6.0,298.95304,8930.1786,0.0,0.0,0.0,0.0,0.0,-0.16305700479130864,-0.6982093149953943,-1.108582242283549,-0.9077597708264141,-0.000934868871951874,0.009829721706443001,-0.9979445924694631
16361,6.0,299.29766,9074.6828,0.0,0.0,0.0,0.0,0.0,-0.16306697160089245,-0.6866865234006834,-1.1505249195729688,-0.9212655131318271,0.009161709828215361,0.01931953022568918,-1.042430284329859
16362,6.0,300.67806,9015.26,0.0,0.0,0.0,0.0,0.0,-0.16307693841047632,-0.7077049173800374,-1.1439119427953188,-0.8887970282524372,0.0036253107751903165,0.007093610746684873,-1.031486575299799
16363,6.0,299.95197,9039.9927,0.0,0.0,0.0,0.0,0.0,-0.16308690522006009,-0.7393050063937233,-1.159367350545649,-0.8492596851104052,0.015119155638394485,0.004383193884287556,-1.0612624493634488
16364,6.0,300.13482,9238.812,0.0,0.0,0.0,0.0,0.0,-0.1630968720296439,-0.7660401777022793,-1.1670927746080888,-0.8752351822889872,-0.030767743573289867,0.014806791910816587,-1.041118125450359
16365,6.0,300.8281,9328.7675,0.0,0.0,0.0,0.0,0.0,-0.16310683883922777,-0.7399140406313303,-1.176225907034459,-0.9195724127447311,-0.007331079586496222,0.004558937250532076,-1.036467104841339
16366,6.0,300.79127,9202.9658,0.0,0.0,0.0,0.0,0.0,-0.1631168056488116,-0.7344545579000213,-1.149258458272979,-0.9137587585734682,-0.00936326523413233,0.008125795451303573,-1.0060940110362482
16367,6.0,299.57993999999997,8919.5548,0.0,0.0,0.0,0.0,0.0,-0.1631267724583954,-0.6826682977441154,-1.123294633735549,-0.9053589760394741,-0.00040489201431723063,0.009605707510734522,-1.015081144255709
16368,6.0,299.93874,9008.1479,0.0,0.0,0.0,0.0,0.0,-0.16313673926797917,-0.7406703710359743,-1.123888499619159,-0.8736931777568031,0.01815814498756938,0.035527475785538866,-1.014658416313989
16369,6.0,300.2728,9250.046,0.0,0.0,0.0,0.0,0.0,-0.16314670607756304,-0.7886165653003953,-1.1340790598498889,-0.8890874358635981,-0.004098747020814836,0.016092675188723385,-1.030019287829989
16370,6.0,299.29382999999996,9304.4667,0.0,0.0,0.0,0.0,0.0,-0.16315667288714686,-0.7747194450113563,-1.1537956908957687,-0.8998104387568762,-0.00927041727711895,0.01126558616282679,-1.028204962200929
16371,6.0,299.29053999999996,9108.7127,0.0,0.0,0.0,0.0,0.0,-0.16316663969673068,-0.7130679792318303,-1.149745020970999,-0.9060082363060511,-0.015640436337840884,-0.049087310447540354,-1.0399894661639688
16372,6.0,299.83999,9032.0317,0.0,0.0,0.0,0.0,0.0,-0.1631766065063145,-0.7028430394252073,-1.114808461498029,-0.9278606060452121,0.0018312534918556481,-0.0023634508465544377,-1.001118416022695
16373,6.0,300.19951000000003,9264.552,0.0,0.0,0.0,0.0,0.0,-0.16318657331589836,-0.7028460589105053,-1.1693265857785489,-0.94401979705,-0.015329927871196086,0.005738183960089665,-1.0224420009321689
16374,6.0,300.77707000000004,9404.1958,0.0,0.0,0.0,0.0,0.0,-0.16319654012548213,-0.7908599618168012,-1.1534842178150289,-0.914296490401538,0.02027942156217308,0.01242475744947809,-1.0003924527235482
16375,6.0,301.08612999999997,9118.2252,0.0,0.0,0.0,0.0,0.0,-0.16320650693506594,-0.7686472499445772,-1.125620346690079,-0.8774451820820972,-0.009237805822650451,0.002140106409162058,-1.0539850844952292
16376,6.0,299.92053,8853.6966,0.0,0.0,0.0,0.0,0.0,-0.16321647374464976,-0.7125506137307703,-1.122573706289399,-0.8561783594432252,0.017532230003296383,-9.234274342076922e-05,-1.025709428529639
16377,6.0,300.14031,9008.521999999999,0.0,0.0,0.0,0.0,0.0,-0.16322644055423358,-0.7211575856452124,-1.117355265624379,-0.8998529243335691,0.006711851140958134,-0.0057126904862486545,-1.045621008894759
16378,6.0,298.67389,9206.9316,0.0,0.0,0.0,0.0,0.0,-0.16323640736381745,-0.7236154365452834,-1.152284327046609,-0.9227775254610511,-0.005020963996055565,-0.0028303064380794975,-0.9843215867299769
16379,6.0,298.90106000000003,9182.4977,0.0,0.0,0.0,0.0,0.0,-0.1632463741734012,-0.6943481025743223,-1.1716304125309187,-0.9252714480646822,-0.009451051094971121,-0.026046440897583574,-1.026493481457019
16380,6.0,299.3157,9060.6896,0.0,0.0,0.0,0.0,0.0,-0.16325634098298508,-0.7394962370850963,-1.104067199837949,-0.9106599357926382,-0.010644748574804888,0.013711605341480087,-0.9969253033988671
16381,6.0,299.55773999999997,8910.8581,0.0,0.0,0.0,0.0,0.0,-0.1632663077925689,-0.7201774688234823,-1.122683643925249,-0.8658172049945052,0.012372679434088386,0.011994778690042488,-1.038906808432119
16382,6.0,299.98946,9170.8794,0.0,0.0,0.0,0.0,0.0,-0.16327627460215272,-0.7511221572749853,-1.134564305322779,-0.9020318477461122,0.0015685437814532185,0.002431392710809778,-1.014678377340959
16383,6.0,300.77981,9323.9365,0.0,0.0,0.0,0.0,0.0,-0.16328624141173653,-0.7482924638532163,-1.1340539312474092,-0.9518974923374681,0.006338792009865063,-0.02093811012093058,-1.006821332090529
16384,6.0,299.80607000000003,9155.3919,0.0,0.0,0.0,0.0,0.0,-0.1632962082213203,-0.6878062255561894,-1.1633970461933487,-0.9318072557147161,0.007423140248181904,0.0003932566405039086,-1.006272221463836
16385,6.0,300.92509,9094.018,0.0,0.0,0.0,0.0,0.0,-0.16330617503090422,-0.6972370103319353,-1.1326349758073688,-0.9344823778337302,0.04195254837189416,0.017243759726326583,-0.976473863380467
16386,6.0,299.82603,9123.8597,0.0,0.0,0.0,0.0,0.0,-0.16331614184048798,-0.7756971502978482,-1.1273934330400688,-0.8703349426853713,0.01077865160202009,0.02947396505060387,-0.9870044399472541
16387,6.0,300.23938,9256.4422,0.0,0.0,0.0,0.0,0.0,-0.16332610865007186,-0.7949129723493022,-1.151676073011579,-0.8671382804748853,-0.005858059451595453,-0.007775265530883962,-1.011191945866875
16388,6.0,300.12642999999997,9294.8177,0.0,0.0,0.0,0.0,0.0,-0.16333607545965562,-0.7796772169556503,-1.1497847403749188,-0.8959305420039602,-0.049141890177426956,-0.009392976564164612,-1.019689507035519
16389,6.0,300.41896,9204.1857,0.0,0.0,0.0,0.0,0.0,-0.16334604226923943,-0.7274033099241173,-1.1729601006371488,-0.8974791934568,-0.01168418815013959,0.002973935855654617,-1.024418142602199
16390,6.0,299.08549,9104.2534,0.0,0.0,0.0,0.0,0.0,-0.1633560090788233,-0.7021056466649324,-1.1321767841121488,-0.9331832696155181,-0.004888757048182756,-0.01924969398904688,-1.0148665378845292
16391,6.0,299.86402999999996,9167.7946,0.0,0.0,0.0,0.0,0.0,-0.16336597588840707,-0.7270950691111964,-1.1461023868614988,-0.9135831420661361,-8.382221491210852e-05,-0.008067073149708132,-1.031913558891939
16392,6.0,299.75759,9162.3281,0.0,0.0,0.0,0.0,0.0,-0.16337594269799094,-0.7792304040590532,-1.126150580467409,-0.8797380252033832,0.006697446878861544,-0.010994253998048388,-1.015061993828819
16393,6.0,299.47832999999997,9086.6699,0.0,0.0,0.0,0.0,0.0,-0.16338590950757476,-0.7397298520281523,-1.136162200730479,-0.8862286722964602,0.03432566794792967,0.030282541670154175,-1.023942320355239
16394,6.0,298.07653,8944.0016,0.0,0.0,0.0,0.0,0.0,-0.16339587631715852,-0.7147115823515413,-1.1405709532405888,-0.8634705785579111,0.01247418784235649,0.0016473637974571485,-1.017428034137329
16395,6.0,298.80151,9047.0692,0.0,0.0,0.0,0.0,0.0,-0.1634058431267424,-0.6853442709932134,-1.155192050858579,-0.9095468096302812,-0.0013803840484832987,-0.02945488149822047,-1.030636255815879
16396,6.0,299.08468999999997,9335.6117,0.0,0.0,0.0,0.0,0.0,-0.16341580993632615,-0.7184752390529853,-1.184124495538989,-0.9351931221163751,-0.026201415473878373,-0.02666726531335418,-1.0264868953313688
16397,6.0,299.19789,9242.6852,0.0,0.0,0.0,0.0,0.0,-0.16342577674591002,-0.7455368592787593,-1.1663272641575388,-0.8976813976467561,0.01025645492448329,0.008023017136685143,-1.028923761821869
16398,6.0,300.53598999999997,9079.1241,0.0,0.0,0.0,0.0,0.0,-0.16343574355549384,-0.7734036080339933,-1.1151986641115388,-0.8712247991881932,0.024145023382678276,0.02023408976594918,-1.032141540164439
16399,6.0,300.29642,9014.4326,0.0,0.0,0.0,0.0,0.0,-0.16344571036507766,-0.7379630072987783,-1.1243780007424689,-0.8778214322417301,-0.015528948429337885,0.014511133637637386,-1.0252159757309391
16400,6.0,300.3993,8992.9997,0.0,0.0,0.0,0.0,0.0,-0.16345567717466147,-0.7250026265946883,-1.128606597384799,-0.8800380992204981,-0.008897583796823153,0.010436659428268089,-1.025201283604489
16401,6.0,299.65948,9143.9596,0.0,0.0,0.0,0.0,0.0,-0.16346564398424535,-0.6848016552996613,-1.1431316388933088,-0.9516020995358151,-0.024657216241977774,0.025487171425387978,-1.019136475130939
16402,6.0,299.85041,9143.9538,0.0,0.0,0.0,0.0,0.0,-0.16347561079382916,-0.7022504907667274,-1.1430468298599388,-0.9342362999144441,0.022535167570797876,0.012834558346422288,-1.040852045974099
16403,6.0,299.61887,9035.8424,0.0,0.0,0.0,0.0,0.0,-0.16348557760341292,-0.7340956748471023,-1.130983276819359,-0.8815915433463112,0.00021233898090122584,-0.03309213018343897,-1.017093357629299
16404,6.0,299.03285,8947.5318,0.0,0.0,0.0,0.0,0.0,-0.16349554441299674,-0.7422688034662273,-1.097977769386969,-0.8795796542127532,0.02329972252650358,-0.036167804252484365,-1.033608523659219
16405,6.0,298.36786,9276.6695,0.0,0.0,0.0,0.0,0.0,-0.16350551122258056,-0.7705831858506393,-1.159368566445769,-0.8899241575311763,0.001002815265435161,-0.016143444084983884,-1.0028530191338871
16406,6.0,298.80439,9411.0145,0.0,0.0,0.0,0.0,0.0,-0.16351547803216443,-0.7670753646669443,-1.160616383943919,-0.933021656224568,0.03020123848213017,-0.02313303173930248,-1.005527867675374
16407,6.0,299.17704,9182.3643,0.0,0.0,0.0,0.0,0.0,-0.16352544484174825,-0.6922858549107943,-1.1658901480643988,-0.9330334504557322,-0.014210025092170286,-0.003738884459024166,-0.990225977447695
16408,6.0,300.79671,8966.2452,0.0,0.0,0.0,0.0,0.0,-0.163535411651332,-0.7023973512362213,-1.142864647491959,-0.8802526549291732,0.023777158880872874,-0.0011031775662501489,-1.013403810040169
16409,6.0,300.01622000000003,8815.2416,0.0,0.0,0.0,0.0,0.0,-0.16354537846091588,-0.7439824930953554,-1.0706945918943291,-0.8649362752250641,-0.016484257848869584,0.03535709879447397,-0.999057880751836
16410,6.0,300.08982000000003,9003.6091,0.0,0.0,0.0,0.0,0.0,-0.1635553452704997,-0.7688934393213742,-1.120615803121169,-0.8473630835732251,-0.013973453485322487,0.02515218587607748,-1.026750948307429
16411,6.0,300.65891,9225.7941,0.0,0.0,0.0,0.0,0.0,-0.1635653120800835,-0.7552731693571583,-1.135208023111309,-0.9139297951903482,-0.039774206564908564,-0.0061899130448468545,-1.021239881013529
16412,6.0,300.40342999999996,9167.9904,0.0,0.0,0.0,0.0,0.0,-0.16357527888966733,-0.7185416170670363,-1.153238808640809,-0.9150597007743612,-0.026171767775952374,-0.025845350269487474,-1.0067845612444
16413,6.0,300.17019,9073.7611,0.0,0.0,0.0,0.0,0.0,-0.1635852456992511,-0.6492081652568574,-1.165013180102849,-0.9439755078881291,-0.01620817556762238,-0.0033184796971334465,-1.041928421555329
16414,6.0,299.96954,9206.1165,0.0,0.0,0.0,0.0,0.0,-0.16359521250883496,-0.7304135341162032,-1.1469628388464188,-0.9210531865733721,0.012692135912366289,-0.013830213358435787,-1.009009780054012
16415,6.0,299.25948,9336.4107,0.0,0.0,0.0,0.0,0.0,-0.16360517931841878,-0.7900512767794903,-1.1636090181142689,-0.8843754277310591,0.015445773768379184,-0.0007360854447309773,-1.022239350912169
16416,6.0,300.97355,9384.7123,0.0,0.0,0.0,0.0,0.0,-0.1636151461280026,-0.8105236201474532,-1.1500695649780288,-0.8921250178083842,0.014395949392769588,-0.007325933390563333,-1.002694293505722
16417,6.0,300.39427,9070.3806,0.0,0.0,0.0,0.0,0.0,-0.16362511293758641,-0.7515002414172992,-1.120878944172139,-0.8847900091419751,0.023028438997729977,0.008135356985872222,-0.9822741527829111
16418,6.0,299.83825,8928.5795,0.0,0.0,0.0,0.0,0.0,-0.1636350797471703,-0.6984608847302223,-1.1140220780954189,-0.9015822686767422,0.00824557052972445,-0.01171562626099229,-0.9803356432215952
16419,6.0,299.5646,9140.3348,0.0,0.0,0.0,0.0,0.0,-0.16364504655675405,-0.6834017793590044,-1.146506774976409,-0.9485250008371291,0.004913804894629785,0.006643727803609884,-1.003531896700887
16420,6.0,298.93605,9246.7616,0.0,0.0,0.0,0.0,0.0,-0.16365501336633792,-0.7617913261904503,-1.1339544300875888,-0.9150388683523052,-0.020981367794199783,-0.006991185752376313,-1.0210002473648792
16421,6.0,299.35696,9265.2692,0.0,0.0,0.0,0.0,0.0,-0.16366498017592168,-0.7833601581541283,-1.145023883455059,-0.8880264819488902,0.0036374897374172863,0.02123998974972378,-1.0274332709247689
16422,6.0,300.39839,9096.4974,0.0,0.0,0.0,0.0,0.0,-0.1636749469855056,-0.7679840169591212,-1.132056713975299,-0.8650673188604973,-0.029055701488824474,-0.006273340511705504,-1.035229521169199
16423,6.0,300.24091,9162.947,0.0,0.0,0.0,0.0,0.0,-0.16368491379508937,-0.7588078112710003,-1.1403737747711291,-0.8861254727737752,-0.00976239174392305,0.023966829167091877,-0.995044620020758
16424,6.0,299.24608,9455.106,0.0,0.0,0.0,0.0,0.0,-0.16369488060467313,-0.7487426610051473,-1.1804713236284488,-0.9449021048395772,-0.02478554740689308,0.0051347658638119355,-0.9998395626739821
16425,6.0,300.26981,9350.1682,0.0,0.0,0.0,0.0,0.0,-0.163704847414257,-0.7304521896075183,-1.1502961277003887,-0.9614693113946331,-0.0059933401949716246,0.01197650067148859,-0.9728181684771781
16426,6.0,300.86302,9020.94,0.0,0.0,0.0,0.0,0.0,-0.16371481422384082,-0.7357654704818983,-1.113370355631099,-0.8930046202201942,0.005832242041697474,-0.006805429651293613,-1.001671974817327
16427,6.0,300.6363,8962.8057,0.0,0.0,0.0,0.0,0.0,-0.1637247810334247,-0.7345894012233294,-1.122766325133409,-0.8671134153174312,0.01109876770611309,0.007447163698777832,-1.009263082446511
16428,6.0,300.29274,9220.5151,0.0,0.0,0.0,0.0,0.0,-0.16373474784300845,-0.7747693678437833,-1.152981949740459,-0.8750549960237043,0.023888176641329476,-0.0015205198810386287,-1.0263420005670691
16429,6.0,300.953,9375.5593,0.0,0.0,0.0,0.0,0.0,-0.16374471465259227,-0.7620494415209242,-1.1605289404602888,-0.9273575172380613,0.011267684603783888,0.012403785198908288,-1.025214759830819
16430,6.0,300.19231,9199.2718,0.0,0.0,0.0,0.0,0.0,-0.16375468146217614,-0.7003612150277704,-1.1550042956150488,-0.9409834411378352,0.009684621860322762,-0.008201502357700261,-1.020779865468129
16431,6.0,300.35545,9061.2424,0.0,0.0,0.0,0.0,0.0,-0.1637646482717599,-0.6830885736205934,-1.1430707425622988,-0.928232093929375,-0.0008069641840036642,-0.006484692222239294,-1.026283637361309
16432,6.0,300.20327000000003,9091.0596,0.0,0.0,0.0,0.0,0.0,-0.16377461508134378,-0.7613673823486102,-1.1109936761965389,-0.8910940358316342,0.0057326834305968044,0.007494761324875352,-1.0103813559193762
16433,6.0,299.14965,9470.399,0.0,0.0,0.0,0.0,0.0,-0.16378458189092754,-0.7997358503077833,-1.164346360212039,-0.9146826298821471,-0.03270619841910047,0.017679907152370982,-1.018075703601249
16434,6.0,299.72242,9504.0073,0.0,0.0,0.0,0.0,0.0,-0.16379454870051136,-0.8309864288319752,-1.145698809346669,-0.9122957064890761,-0.0024569129344534277,-0.0011449021921180488,-1.0042744469041711
16435,6.0,299.34623999999997,9104.0755,0.0,0.0,0.0,0.0,0.0,-0.16380451551009523,-0.7419492953121943,-1.133259137868969,-0.8922032305836031,-0.02450599778380368,0.01963176425725428,-1.00714284647976
16436,6.0,299.23827,8909.2445,0.0,0.0,0.0,0.0,0.0,-0.163814482319679,-0.6819391123096504,-1.1331130272045489,-0.8931357246506331,0.014948299380032287,0.02028695608991668,-1.010471210938244
16437,6.0,299.01672,9190.3412,0.0,0.0,0.0,0.0,0.0,-0.16382444912926286,-0.7100744027388873,-1.151188193088429,-0.9323716360204161,-0.010686929163217791,0.005974463244283614,-0.999074295403456
16438,6.0,300.17863,9447.5379,0.0,0.0,0.0,0.0,0.0,-0.16383441593884668,-0.7738421933397782,-1.1612032584018388,-0.9367701547045161,0.04104681322675506,-0.04139797430066196,-1.003883474220585
16439,6.0,300.35938,9328.5931,0.0,0.0,0.0,0.0,0.0,-0.1638443827484305,-0.7830516842936842,-1.144102535139129,-0.9085051581299781,0.027381609673604475,-0.02611898555174318,-1.0276829357494088
16440,6.0,300.34702999999996,8984.8178,0.0,0.0,0.0,0.0,0.0,-0.1638543495580143,-0.7449375421096113,-1.125101258663849,-0.8611214595260712,0.045827363675558654,0.0026077947909443075,-1.038577603474629
16441,6.0,300.66767999999996,8960.6824,0.0,0.0,0.0,0.0,0.0,-0.16386431636759807,-0.7239281153936423,-1.121927759350649,-0.8779678266161781,0.005929006109022344,0.0054853201022339445,-1.0268434580415589
16442,6.0,301.71775,9319.4294,0.0,0.0,0.0,0.0,0.0,-0.163874283177182,-0.7130231023849013,-1.1612423698556988,-0.9586083490747781,-0.012702124531852089,-0.00992578227422344,-1.034687533690709
16443,6.0,299.66107,9367.1859,0.0,0.0,0.0,0.0,0.0,-0.16388424998676576,-0.7608997471624582,-1.159508901584619,-0.9269819662209972,-0.04840632532033236,0.0068246980204952545,-1.0182237394408589
16444,6.0,299.72501,9158.7305,0.0,0.0,0.0,0.0,0.0,-0.16389421679634958,-0.7230687273213273,-1.1467477258501888,-0.9142089658579001,-0.002726931319152167,0.025978995931177272,-1.022228914436139
16445,6.0,299.1463,8953.4756,0.0,0.0,0.0,0.0,0.0,-0.1639041836059334,-0.7415551511557953,-1.1147789759201188,-0.8652988971708523,-0.022954181950901376,0.017125427313398084,-0.990495187866764
16446,6.0,299.27447,9171.8684,0.0,0.0,0.0,0.0,0.0,-0.16391415041551727,-0.7569635137039823,-1.128031881928079,-0.9030236068114911,0.009245669555351542,-0.014125936479621386,-1.008824892308265
16447,6.0,299.82263,9441.6241,0.0,0.0,0.0,0.0,0.0,-0.16392411722510108,-0.7783842287680423,-1.142122847093749,-0.9495108830519281,0.012093039631740089,-0.0031603387142761473,-0.9996069913785292
16448,6.0,300.35708,9268.962,0.0,0.0,0.0,0.0,0.0,-0.16393408403468485,-0.7133975489593564,-1.1551098762754688,-0.9490255463865291,0.02115985990531558,0.022301759330762276,-1.0216365684276791
16449,6.0,299.58186,9022.715,0.0,0.0,0.0,0.0,0.0,-0.16394405084426866,-0.7095223030243993,-1.148929557290519,-0.8842282227565312,0.03213935996865787,0.01044435202302729,-1.033993660022229
16450,6.0,298.84074,9058.8268,0.0,0.0,0.0,0.0,0.0,-0.16395401765385254,-0.7201960315653143,-1.139530244062879,-0.8939308321366042,-0.009867283191625031,-0.02141312075456048,-1.026899592097099
16451,6.0,299.77704,9265.831,0.0,0.0,0.0,0.0,0.0,-0.16396398446343635,-0.7688453302066263,-1.154574474922629,-0.8931614612031732,-0.0026325959109919873,-0.025423144151568978,-1.041800448067699
16452,6.0,300.70162,9198.2393,0.0,0.0,0.0,0.0,0.0,-0.16397395127302017,-0.7563507304410052,-1.144746151602649,-0.894938154723519,-0.01893685808692238,-0.02006727637548598,-1.010118032483388
16453,6.0,300.88164,8929.3288,0.0,0.0,0.0,0.0,0.0,-0.16398391808260393,-0.6992817389012344,-1.119203332481769,-0.8958078779468541,0.008739229119519762,0.03325341426810647,-1.026222943680319
16454,6.0,300.69903,8908.1214,0.0,0.0,0.0,0.0,0.0,-0.1639938848921878,-0.6820985573453864,-1.123583713989079,-0.9021641579441702,-0.006982054038500082,0.0025818205299308478,-0.9982270460673391
16455,6.0,300.4254,9321.6431,0.0,0.0,0.0,0.0,0.0,-0.16400385170177162,-0.7595681642785412,-1.1402950452383591,-0.933683551719892,-0.0020155387590931884,0.0004450825592687287,-1.021785110892339
16456,6.0,299.78545,9706.1578,0.0,0.0,0.0,0.0,0.0,-0.16401381851135544,-0.7902357389601952,-1.2005731923623488,-0.9596206365871831,-0.006752825353801973,0.01046967719602669,-0.9972450142029201
16457,6.0,300.56023999999996,9465.9977,0.0,0.0,0.0,0.0,0.0,-0.16402378532093925,-0.8089353404832023,-1.1682756427748289,-0.9002159617118981,0.005081178409748265,0.011214104951745988,-1.022031026691609
16458,6.0,300.37507999999997,9107.1624,0.0,0.0,0.0,0.0,0.0,-0.16403375213052312,-0.7335492594656753,-1.149255013222639,-0.8855457011990561,-0.003722981296054647,-0.003943611033779107,-1.026820355939279
16459,6.0,299.94687999999996,9182.3897,0.0,0.0,0.0,0.0,0.0,-0.1640437189401069,-0.7438120036335293,-1.1483189727802592,-0.8990861979828992,-0.012337136647080589,-0.024049376626238676,-1.039169037557999
16460,6.0,299.44988,9327.796999999999,0.0,0.0,0.0,0.0,0.0,-0.16405368574969076,-0.7124511834984574,-1.1739199524568789,-0.9490462369535712,-0.003094462461674667,-0.019380853134991282,-1.051565544581439
16461,6.0,299.52558,9248.9284,0.0,0.0,0.0,0.0,0.0,-0.16406365255927452,-0.7425898821579152,-1.168520038698949,-0.9003333366034821,0.018536459137656086,0.008149882027380732,-1.0118028242196642
16462,6.0,299.94821,9115.9588,0.0,0.0,0.0,0.0,0.0,-0.16407361936885845,-0.7157474481937733,-1.1572544201121189,-0.8980219611378671,0.016873473556782183,0.018973337117022582,-1.063268380586419
16463,6.0,299.23388,8969.584,0.0,0.0,0.0,0.0,0.0,-0.1640835861784422,-0.7601341556519002,-1.0902392743982388,-0.8761561658348811,0.00039016598451888465,-0.013164505002985489,-0.9867668429313051
16464,6.0,300.55737999999997,9043.942,0.0,0.0,0.0,0.0,0.0,-0.16409355298802597,-0.7147377242041213,-1.1363161134206687,-0.8980787538059721,0.0035143507699894167,-0.0007037031367725924,-1.039531375793759
16465,6.0,300.87411000000003,9457.1503,0.0,0.0,0.0,0.0,0.0,-0.16410351979760984,-0.7639688411853542,-1.1631904444979588,-0.947578209811188,0.0034980568977813374,0.006881276284879093,-0.9914206195805971
16466,6.0,300.09199,9516.3714,0.0,0.0,0.0,0.0,0.0,-0.16411348660719366,-0.7573143110211032,-1.1804748700037988,-0.9549501109137382,0.0014609619520857186,0.006002819048332114,-1.0245257497628188
16467,6.0,300.41625,9166.2514,0.0,0.0,0.0,0.0,0.0,-0.16412345341677753,-0.7389696611406272,-1.1513522382796189,-0.8959895942197882,-0.01837425096889738,-0.005882338747841634,-1.033017494875889
16468,6.0,300.69174,9043.1515,0.0,0.0,0.0,0.0,0.0,-0.1641334202263613,-0.7479073578877092,-1.1216827554764688,-0.8793020946128601,-0.0025309110958814775,0.0047654150254348455,-1.0460552878876188
16469,6.0,300.01195,9259.1545,0.0,0.0,0.0,0.0,0.0,-0.16414338703594505,-0.7776559856561703,-1.143345434664409,-0.8935503364590521,0.02116194213427108,0.00971540875533619,-1.0308767000646089
16470,6.0,300.2456,9250.3996,0.0,0.0,0.0,0.0,0.0,-0.16415335384552898,-0.7498849687703842,-1.1523749116055488,-0.9096305851485491,0.016822659064267182,0.009048333221525961,-1.017499670919399
16471,6.0,300.19611000000003,9115.7041,0.0,0.0,0.0,0.0,0.0,-0.16416332065511274,-0.7103410496352034,-1.1332863942966591,-0.9273189934692591,0.0012063481099822888,-0.04334762353357736,-1.038130658855519
16472,6.0,299.7241,8891.2489,0.0,0.0,0.0,0.0,0.0,-0.16417328746469662,-0.6829680677862003,-1.125109162014629,-0.8946404111816342,0.0073679196376070545,-0.0010876787913955389,-1.016598080980419
16473,6.0,300.91254,9049.0193,0.0,0.0,0.0,0.0,0.0,-0.16418325427428038,-0.7124489644807384,-1.1447274064757988,-0.8934995726290421,-0.004540673113504546,0.01999998947609528,-1.036393846859109
16474,6.0,299.97276,9319.2154,0.0,0.0,0.0,0.0,0.0,-0.1641932210838642,-0.7486283765263684,-1.164351831762579,-0.9198285623700112,0.018206988708639883,0.028218148956164472,-1.021701011134039
16475,6.0,299.17884,9323.6199,0.0,0.0,0.0,0.0,0.0,-0.16420318789344807,-0.7890932082799362,-1.1568761738497888,-0.8881782972113731,-0.02478772690785818,-0.01979994958835288,-1.030071571535149
16476,6.0,298.78851000000003,9118.8218,0.0,0.0,0.0,0.0,0.0,-0.16421315470303183,-0.7224576665835203,-1.1397847724879988,-0.9096517114131342,-0.013980876555555088,-0.005801132426527194,-1.0318745487630891
16477,6.0,299.69683,9005.666,0.0,0.0,0.0,0.0,0.0,-0.1642231215126157,-0.6948732802336534,-1.131009519996949,-0.9116147517593711,-0.004092790224801947,-0.0092238954186526,-1.017102578205209
16478,6.0,300.45427,9207.8284,0.0,0.0,0.0,0.0,0.0,-0.16423308832219952,-0.6791080712652484,-1.1754099367289288,-0.944431875733169,-5.7232295031887745e-05,0.02007582010032918,-1.045882832720599
16479,6.0,300.90058999999997,9342.7421,0.0,0.0,0.0,0.0,0.0,-0.16424305513178333,-0.7677702515855243,-1.136193814133599,-0.9359962140131342,0.010703757220878591,-0.008820984419738382,-1.020746529539839
16480,6.0,300.80177000000003,8988.7421,0.0,0.0,0.0,0.0,0.0,-0.16425302194136715,-0.7193192054587784,-1.139395279149559,-0.8736386345039201,-0.0009558101981286222,0.02205076410874098,-1.051035716104149
16481,6.0,300.17756,8719.1871,0.0,0.0,0.0,0.0,0.0,-0.1642629887509509,-0.7416726780348942,-1.077216072187949,-0.8315263796777642,0.016023064906853384,0.026225118433467677,-1.00344053193937
16482,6.0,300.29507,9113.7202,0.0,0.0,0.0,0.0,0.0,-0.16427295556053478,-0.7070625877441443,-1.1375894648213387,-0.925691308508619,0.01012417208417799,0.012603857510653887,-1.012920996367519
16483,6.0,300.73404,9473.7658,0.0,0.0,0.0,0.0,0.0,-0.1642829223701186,-0.7671712991864122,-1.182742118427559,-0.9298747648589941,0.0037411538352731363,-0.03116117034861807,-1.014844043732309
16484,6.0,299.49109,9568.7818,0.0,0.0,0.0,0.0,0.0,-0.16429288917970242,-0.7578837474448022,-1.176561191492549,-0.9742257856485992,-0.02226028599091918,0.003045509917543427,-1.004757777334372
16485,6.0,300.37248,9323.8056,0.0,0.0,0.0,0.0,0.0,-0.16430285598928623,-0.7655021216341773,-1.174586873672699,-0.8941150815347881,0.008165447170116892,0.01074698854964519,-1.024359272771389
16486,6.0,300.2514,9143.4843,0.0,0.0,0.0,0.0,0.0,-0.1643128227988701,-0.7384899277482813,-1.158472144082299,-0.8824288526989471,-0.0069382927799311826,0.015290219613027184,-1.018786802521429
16487,6.0,299.21288,9273.4778,0.0,0.0,0.0,0.0,0.0,-0.16432278960845392,-0.7733881964999723,-1.1526603441587189,-0.8928572024631451,0.026145595525869376,-0.02837692828658477,-1.0325856476832689
16488,6.0,299.72336,9205.0746,0.0,0.0,0.0,0.0,0.0,-0.16433275641803768,-0.7249102283180693,-1.142448910975929,-0.9307537086582391,-0.006713230883619305,0.01028231914653589,-1.006858710886718
16489,6.0,300.46231,8923.4022,0.0,0.0,0.0,0.0,0.0,-0.1643427232276215,-0.7047880641846663,-1.116283247018579,-0.8914201503763192,0.003410904115605027,0.006306266175030014,-1.0180816817768392
16490,6.0,298.91945,8828.7086,0.0,0.0,0.0,0.0,0.0,-0.16435269003720537,-0.6666603647142553,-1.1244846959779988,-0.8925619413840052,-0.014723457156342087,0.006100103926208384,-1.007518590014343
16491,6.0,298.27952,9238.9843,0.0,0.0,0.0,0.0,0.0,-0.1643626568467892,-0.7493942618794552,-1.167150935163829,-0.8918753428512433,-0.005238205222795605,-0.015967557039875183,-1.044967665230279
16492,6.0,298.24372,9514.9044,0.0,0.0,0.0,0.0,0.0,-0.164372623656373,-0.7932670590193632,-1.1624225022471688,-0.936603839833102,0.01079135978477429,0.017771520160162483,-1.023790434165249
16493,6.0,298.80345,9386.6988,0.0,0.0,0.0,0.0,0.0,-0.16438259046595677,-0.7700671882372142,-1.190179576811579,-0.8930752437521642,0.01230399424955969,0.01128686340167669,-1.018012983420059
16494,6.0,299.91534,9219.0284,0.0,0.0,0.0,0.0,0.0,-0.16439255727554064,-0.7172417185137463,-1.1728625246525188,-0.912250130499578,0.0016072941129775785,0.014799048653552386,-1.018095056678159
16495,6.0,300.12785,9171.0429,0.0,0.0,0.0,0.0,0.0,-0.16440252408512446,-0.7308306283873672,-1.136904507753739,-0.9200328538551732,0.016392703609583885,-0.017811038940562685,-1.004198534206679
16496,6.0,300.33052999999995,9281.9097,0.0,0.0,0.0,0.0,0.0,-0.16441249089470827,-0.7162007560235113,-1.1630020813043689,-0.9422659219219061,0.018544388832938682,0.016881096237284485,-1.037403145283719
16497,6.0,300.02049,9274.4312,0.0,0.0,0.0,0.0,0.0,-0.1644224577042921,-0.7796982114977222,-1.118053597593299,-0.921443733691916,0.008118228803531803,0.014249463825812585,-1.004498851403818
16498,6.0,298.85728,8938.8419,0.0,0.0,0.0,0.0,0.0,-0.16443242451387596,-0.7244597981186154,-1.107895056065729,-0.8848298501359072,-0.014105592444113588,-0.012703018218440288,-1.026435624876309
16499,6.0,299.77815,8823.5769,0.0,0.0,0.0,0.0,0.0,-0.16444239132345972,-0.7134168412412604,-1.1052083221005689,-0.8635219098079772,-0.022001380325367182,-0.01744081863227478,-1.033707112893949
16500,6.0,299.63318,9301.9518,0.0,0.0,0.0,0.0,0.0,-0.1644523581330436,-0.7498433545887773,-1.1216387804221288,-0.956078982982649,-0.00993961921758904,0.015810130398338385,-1.016837005353999
