,case,Temp,Pressure,e11,e22,e33,e12,e23,e13,s11,s22,s33,s12,s23,s13
0,7.0,300.0,275.32817,0.0,0.0,0.0,0.0,0.0,0.0,-0.04079966835511376,-0.013861169162240885,-0.029032051218240373,-0.008101086435689983,-0.016178421478435883,-0.0076048827642934925
1,7.0,299.82329,22.35308,0.0,0.0,0.0,0.0,-9.966809583820822e-06,0.0,-0.016991266920657486,-0.013584219538908086,0.023780708295973178,0.015459727235506288,-0.01184376186863829,-0.015418745321961684
2,7.0,299.25049,-272.31279,0.0,0.0,0.0,0.0,-1.9933619167641644e-05,0.0,0.016375295972865883,0.028057428238552572,0.038343564298215164,0.012742217825058988,0.02009311121328568,0.023178030176243477
3,7.0,299.44003,11.053168,0.0,0.0,0.0,0.0,-2.9900428751462466e-05,0.0,0.028253812319934176,-0.03066368380126997,-0.00095001580584176,0.008046008186754182,-0.019177345905406682,-0.011432596123809388
4,7.0,297.63666,449.79408,0.0,0.0,0.0,0.0,-3.986723833528329e-05,0.0,-0.06121155311610994,-0.025840184720477676,-0.049674431125234654,0.0029603778600415472,-0.051986472296165355,0.01226184709840009
5,7.0,299.14419,409.99778,0.0,0.0,0.0,0.0,-4.983404791910411e-05,0.0,-0.039048937342080065,-0.043295434060676666,-0.04228471607267656,0.0007377826082509744,-0.012052687959757688,0.011516268290567188
6,7.0,299.31774,4.572482,0.0,0.0,0.0,0.0,-5.980085750292493e-05,0.0,-0.020394057638736782,-0.009711741499249261,0.02871587868353657,0.009931241260462199,0.036973277286978364,0.0001260207520372799
7,7.0,299.90969,312.2589,0.0,0.0,0.0,0.0,-6.976766708674576e-05,0.0,-0.06137051989779874,-0.022648521885985082,-0.01089986671148309,-0.00012569385729001788,0.025924840753082577,0.007141606782721712
8,7.0,299.82231,655.26847,0.0,0.0,0.0,0.0,-7.973447667056658e-05,0.0,-0.05575502400884244,-0.06542009551246074,-0.07801013330500073,-0.029451799191416272,0.00039571665975919357,-0.0024970357132382374
9,7.0,299.92097,363.37424,0.0,0.0,0.0,0.0,-8.97012862543874e-05,0.0,-0.005144699058517266,-0.048419048701838045,-0.056892948454146844,0.006236350398254864,0.006325143125718024,-0.004550716853795786
10,7.0,300.01578,-108.18032,0.0,0.0,0.0,0.0,-9.966809583820821e-05,0.0,0.04973787578024615,0.018250425727176785,-0.035104184476763264,-0.0022632209572625178,0.004687519802797186,0.00984640416006443
11,7.0,300.48967999999996,-197.29903000000002,0.0,0.0,0.0,0.0,-0.00010963490542202905,0.0,0.03442168960690627,-0.017068077357738083,0.04262036631405266,0.0073308378250223636,-0.014760717402269386,-0.012437910449026188
12,7.0,298.97311,103.50725,0.0,0.0,0.0,0.0,-0.00011960171500584987,0.0,-0.03520910551136817,-0.004864204478384605,0.008609690667110311,-0.022887822175352183,-0.051474028150841046,0.0032688059215810273
13,7.0,299.37872999999996,606.24641,0.0,0.0,0.0,0.0,-0.00012956852458967068,0.0,-0.12307043119110588,-0.040401434721311164,-0.02081190070172468,0.026315715151408875,-0.006623371913075914,-0.011325702291259789
14,7.0,299.46162999999996,686.0186,0.0,0.0,0.0,0.0,-0.00013953533417349152,0.0,-0.08310651988947491,-0.06836455875980664,-0.05706144485302615,0.02048683588414328,0.024506096069063375,0.030560713273107575
15,7.0,300.59772999999996,244.54109,0.0,0.0,0.0,0.0,-0.00014950214375731235,0.0,-0.030004952686008272,-0.017845656630229183,-0.026483774839495072,0.00040985246124178857,0.01899441575885288,0.004301420345567136
16,7.0,300.99534,316.56004,0.0,0.0,0.0,0.0,-0.00015946895334113315,0.0,-0.017007335040743286,-0.029986549024441974,-0.049232461564115655,-0.024948851912259977,-0.015133585333068586,0.01851828244411218
17,7.0,299.84215,692.77176,0.0,0.0,0.0,0.0,-0.00016943576292495396,0.0,-0.09070008059715101,-0.05332370810239024,-0.06656152681636124,-0.017551836392731383,-7.056457094668092e-05,-0.009693141469813581
18,7.0,300.59809,493.1007,0.0,0.0,0.0,0.0,-0.0001794025725087748,0.0,-0.08376906285161283,-0.01911269244302588,-0.04700854478088216,0.0018137304459512583,0.012501960014347387,0.026313694730709474
19,7.0,300.94529,-218.34686000000002,0.0,0.0,0.0,0.0,-0.00018936938209259562,0.0,-0.0035663369849200568,0.011928140270715789,0.058010188411909844,-0.015745937964753088,-0.00017130840095432284,-0.02031714182364578
20,7.0,299.04659,-323.37102000000004,0.0,0.0,0.0,0.0,-0.00019933619167641643,0.0,0.05250495237233535,0.023479994918045078,0.022311769228500183,-0.027814063803034375,-0.009924276584574841,0.014363767556343488
21,7.0,298.53016,70.18307800000001,0.0,0.0,0.0,0.0,-0.00020930300126023726,0.0,-0.0006703301843239384,-0.004650388948907655,-0.016013183691878183,-0.011230620928375989,0.01136747150013209,-0.001195202257557279
22,7.0,299.31843,596.36047,0.0,0.0,0.0,0.0,-0.0002192698108440581,0.0,-0.026944333486948673,-0.07193727759915652,-0.08239708168620882,0.037240559491107064,0.024860487384289077,0.02157519416105588
23,7.0,299.06569,623.29842,0.0,0.0,0.0,0.0,-0.00022923662042787893,0.0,-0.06747940475069873,-0.06368338281456053,-0.05830436733994304,0.028871523018147473,-0.0017865968241733783,-0.008929123131360841
24,7.0,300.67557,397.17262999999997,0.0,0.0,0.0,0.0,-0.00023920343001169973,0.0,-0.07702737595351013,-0.03088675891678577,-0.012816429275633088,0.027271220128209872,-0.042243277183336855,0.0017934139708461784
25,7.0,300.28469,279.66611,0.0,0.0,0.0,0.0,-0.00024917023959552056,0.0,-0.04398651926488146,-0.04305848451154155,0.0020334897005148084,0.014471269338953086,-0.028984487232046174,-0.0017627695387968084
26,7.0,300.61616000000004,402.23757,0.0,0.0,0.0,0.0,-0.00025913704917934137,0.0,-0.04844307387495916,-0.012698866932780589,-0.06112823761338735,0.03442390355837477,0.0026261368469045277,0.01011908496072593
27,7.0,300.39659,473.36045,0.0,0.0,0.0,0.0,-0.00026910385876316217,0.0,-0.046562852538895756,-0.03419385728217097,-0.06313304716849663,0.003946319045996366,0.0004813891544669105,0.015662413732509883
28,7.0,300.99859,-94.929847,0.0,0.0,0.0,0.0,-0.00027907066834698303,0.0,0.04120296215991576,0.008529714127442242,-0.02087637380558768,-0.01901903368328248,-0.008526333519808601,0.001018634815006429
29,7.0,300.26288999999997,-414.21001,0.0,0.0,0.0,0.0,-0.0002890374779308038,0.0,0.05417846156874785,0.024038557141670875,0.04769248353213166,-0.03238683921283217,-0.004048184726249726,-0.001961098047120308
30,7.0,300.06709,205.08283,0.0,0.0,0.0,0.0,-0.0002990042875146247,0.0,-0.04948513270180235,-0.013593036841278286,0.0007381095941907452,0.011863884002374188,0.011463437430353189,0.005504856780062064
31,7.0,298.70563,576.33699,0.0,0.0,0.0,0.0,-0.0003089710970984455,0.0,-0.07186973232099034,-0.027268130728654975,-0.07605418976246413,-0.003104815851196467,-0.024489297395655477,0.004297188709174506
32,7.0,299.7188,557.5994400000001,0.0,0.0,0.0,0.0,-0.0003189379066822663,0.0,-0.05680547355976374,-0.05017992741462325,-0.06251090654084614,0.006253759352197994,-0.0007399640546562663,0.005771162819044425
33,7.0,300.46379,343.76925,0.0,0.0,0.0,0.0,-0.00032890471626608717,0.0,-0.018433647689759382,-0.023325771160074376,-0.06273784923199364,-0.012738047287647387,0.02211691110176918,0.024525789598006976
34,7.0,300.70232999999996,288.4333,0.0,0.0,0.0,0.0,-0.0003388715258499079,0.0,-0.03024504331045337,-0.015814787295797987,-0.041616689400997456,0.006806237312948323,0.034922479349580364,0.03468108264575637
35,7.0,300.18801,547.6238900000001,0.0,0.0,0.0,0.0,-0.0003488383354337288,0.0,-0.08056415886481343,-0.04405763219664976,-0.04184219631675326,-0.007507515407859083,-0.01131653237785479,0.012363626044444888
36,7.0,298.98922000000005,606.77175,0.0,0.0,0.0,0.0,-0.0003588051450175496,0.0,-0.1046305661987329,-0.03907087623324526,-0.040742016450923964,0.00979725281626357,-0.041493671719606565,0.02282865343576268
37,7.0,299.93095,158.17112,0.0,0.0,0.0,0.0,-0.0003687719546013704,0.0,-0.007947350051017384,-0.02113325195768958,-0.018999468837101584,0.017979171582656085,-0.02342035603040918,-0.01044345225693849
38,7.0,300.88045,-312.02001,0.0,0.0,0.0,0.0,-0.00037873876418519125,0.0,0.05142335450008995,0.023683095834339578,0.019739841565920683,0.007030703620851424,-0.015190915023726586,-0.0059049949187526245
39,7.0,299.98944,-48.271279,0.0,0.0,0.0,0.0,-0.000388705573769012,0.0,0.04260644223117846,-0.007018152897162764,-0.02091502625715238,0.008281046948850701,0.004849469288805355,-0.021488716304771182
40,7.0,300.16095,485.64581,0.0,0.0,0.0,0.0,-0.00039867238335283286,0.0,-0.024716589658087477,-0.042688419230518956,-0.08021919178876784,-0.016917917745918484,0.010642944989626889,-0.01943172538276198
41,7.0,300.46249,298.22632999999996,0.0,0.0,0.0,0.0,-0.00040863919293665377,0.0,-0.03032532412912647,-0.03968050930166136,-0.020647525191002082,0.005017390465602885,0.030079844027399473,-0.01981176003151848
42,7.0,300.14801,-51.406242,0.0,0.0,0.0,0.0,-0.0004186060025204745,0.0,0.009562688457863872,-0.009272301111704871,0.015335827013278286,-0.012529447463060188,0.016796488840684385,-0.014802044834098086
43,7.0,300.02914,286.19652,0.0,0.0,0.0,0.0,-0.0004285728121042954,0.0,-0.01837343124956648,-0.04198943168878425,-0.026633732814544772,-0.004459007283269756,-0.02248198713929938,-0.00023515326949032078
44,7.0,299.34803,567.84071,0.0,0.0,0.0,0.0,-0.0004385396216881162,0.0,-0.07189412733039793,-0.043113982246018756,-0.057601288294304547,0.013449096558572486,-0.025941122668939477,0.026602123464425177
45,7.0,300.01662999999996,579.05803,0.0,0.0,0.0,0.0,-0.000448506431271937,0.0,-0.05946118484661204,-0.054569189045809645,-0.06198880814856903,0.016195027634324784,0.014424433879580787,0.023275783479640978
46,7.0,299.66571,312.53956,0.0,0.0,0.0,0.0,-0.00045847324085575785,0.0,-0.04419340669679966,-0.018430118539661082,-0.03238069587747587,0.01849855953091568,0.04281073776934086,0.03236432378236007
47,7.0,299.11556,-57.983726000000004,0.0,0.0,0.0,0.0,-0.0004684400504395786,0.0,-0.028211615519519676,0.034104021515054865,0.01173319905747659,-0.030649073748078074,-0.0019266116746667681,0.017193730502639087
48,7.0,300.21017,224.73247,0.0,0.0,0.0,0.0,-0.00047840686002339946,0.0,-0.044155402725298956,-0.007743776453551232,-0.016413880536673885,-0.015218185636917986,-0.015382249066609786,-0.004023132928127306
49,7.0,301.21889,510.07836,0.0,0.0,0.0,0.0,-0.0004883736696072203,0.0,-0.07379900002814423,-0.009626864983422601,-0.07162521987310884,-0.003078592431983417,-0.018033913432558682,-0.015250791011885884
50,7.0,300.96858,301.52525,0.0,0.0,0.0,0.0,-0.0004983404791910411,0.0,-0.030106400299270367,-0.027440680127934273,-0.03410906750055287,0.016892690858178783,-0.025929114642004376,-0.0058530665604026935
51,7.0,300.88383999999996,-181.61518999999998,0.0,0.0,0.0,0.0,-0.0005083072887748619,0.0,0.023441346519480776,0.009020836146937211,0.02274430036493768,-0.009734390577409551,-0.04138834741146186,-0.02098333147289358
52,7.0,301.11695,-61.459262,0.0,0.0,0.0,0.0,-0.0005182740983586827,0.0,0.00037751472615530263,-0.002867835904558367,0.021172401915053377,-0.016698907789803884,-0.017572352680756183,-0.008453060338827102
53,7.0,302.00985,578.2316900000001,0.0,0.0,0.0,0.0,-0.0005282409079425035,0.0,-0.0952456613875149,-0.04616223371435776,-0.034360100212827864,-0.014790561670714786,0.03882814507903956,-0.0024463968169655677
54,7.0,301.94122000000004,687.58654,0.0,0.0,0.0,0.0,-0.0005382077175263243,0.0,-0.07076190444340623,-0.07518653660908343,-0.06306069604510614,-0.010886430001906991,0.037772981888653065,0.004984022822584756
55,7.0,299.37183,193.00636,0.0,0.0,0.0,0.0,-0.0005481745271101452,0.0,-0.000916199049849306,-0.03702456800704037,-0.020728347085228582,0.007480976969189942,0.016228582424636383,-0.0009856307261241792
56,7.0,298.93439,96.392465,0.0,0.0,0.0,0.0,-0.0005581413366939661,0.0,-0.0005996446110503155,-0.013965348497772586,-0.014735908986820985,0.003587330007116906,-0.019587084994094783,0.007565366213043514
57,7.0,299.48777,248.60316,0.0,0.0,0.0,0.0,-0.0005681081462777869,0.0,-0.01041853542372939,-0.01212265389241279,-0.053027962689702446,0.00979293829601276,-0.004234010538939306,0.004320012066351996
58,7.0,300.57027,381.31477,0.0,0.0,0.0,0.0,-0.0005780749558616076,0.0,-0.051358208598160544,-0.04174415018407686,-0.022807809867955577,0.005420035790340886,-0.028359837797148076,-0.025448721623843273
59,7.0,300.4354,214.44795,0.0,0.0,0.0,0.0,-0.0005880417654454285,0.0,-0.039982495321715064,-0.02010336023804718,-0.005100965461676095,-0.027608166316463872,-0.04946948001425755,-0.029111891273119972
60,7.0,299.72972000000004,-115.07445,0.0,0.0,0.0,0.0,-0.0005980085750292494,0.0,0.004797307173657355,0.0034662563473678663,0.026716197187183374,0.0012393176470361289,-0.002988182962660697,-0.04951831562932725
61,7.0,299.32156000000003,69.379683,0.0,0.0,0.0,0.0,-0.0006079753846130702,0.0,0.00829040208437398,-0.007797146666793463,-0.02158294653757098,-0.0033581358742472067,0.014460227952613385,-0.005918451690680704
62,7.0,299.56766,535.72982,0.0,0.0,0.0,0.0,-0.000617942194196891,0.0,-0.06816744311185284,-0.025362407914074774,-0.06931863910696703,0.025877686119928776,0.019970955807729878,0.028455123836552076
63,7.0,298.24164,652.31989,0.0,0.0,0.0,0.0,-0.0006279090037807117,0.0,-0.06495968479952173,-0.04773533489211075,-0.08559393742746392,-0.0040709028067418265,-0.027631746672791075,0.037941316167516365
64,7.0,298.96058,268.45392999999996,0.0,0.0,0.0,0.0,-0.0006378758133645326,0.0,-0.06088180505656635,-0.0016384262223000784,-0.01908306095710148,0.006302477936881144,0.004169225759345546,0.03751870880255826
65,7.0,299.99492999999995,112.3335,0.0,0.0,0.0,0.0,-0.0006478426229483534,0.0,-0.020687937657990478,4.0017895240458764e-05,-0.013498658673963885,-0.016831915103930683,0.012914606117572386,0.044755284274752664
66,7.0,300.41844,506.84632999999997,0.0,0.0,0.0,0.0,-0.0006578094325321743,0.0,-0.07347192390911433,-0.03330569696001637,-0.04729100648475896,-0.00977404685584832,0.01199754587606559,0.008227532347469221
67,7.0,300.42446,617.43426,0.0,0.0,0.0,0.0,-0.000667776242115995,0.0,-0.06160042837198894,-0.02106147737360598,-0.10502269398743291,-0.012948866129953588,-0.026056826711108576,0.016704524235108185
68,7.0,300.95099999999996,143.55374,0.0,0.0,0.0,0.0,-0.0006777430516998158,0.0,-0.012757248377042386,-0.005523077246010285,-0.025356425685484376,0.007776610316416682,-0.017142449915078087,-0.001973190984413788
69,7.0,301.02288,-154.11905,0.0,0.0,0.0,0.0,-0.0006877098612836366,0.0,0.015895983079311383,0.030105567407688175,0.0008467916409143282,-0.0025975616742093775,-0.02039982404505588,-0.014657163242049385
70,7.0,300.91012,35.680923,0.0,0.0,0.0,0.0,-0.0006976766708674576,0.0,-0.003977996891822726,-0.01027512507082589,0.003407012627270966,-0.0075357629967969025,-0.027705007694771376,-0.02194523613732618
71,7.0,299.70985,373.39412000000004,0.0,0.0,0.0,0.0,-0.0007076434804512785,0.0,-0.022952782652513274,-0.06937755960028204,-0.02117214556277808,-0.023989455041824877,-0.02811934085941287,-0.033616247983165363
72,7.0,299.97574,474.84015999999997,0.0,0.0,0.0,0.0,-0.0007176102900350992,0.0,-0.029699640165876267,-0.05210068787393755,-0.06253922485464095,0.003117096138433437,0.015337729896966086,-0.030565139149544368
73,7.0,300.32347000000004,122.13278999999999,0.0,0.0,0.0,0.0,-0.00072757709961892,0.0,0.015116968031428585,-0.02984678637189847,-0.02239550219026398,0.0024379961630364875,0.03471320368717647,0.0017048934023598783
74,7.0,300.23779,-121.67412,0.0,0.0,0.0,0.0,-0.0007375439092027408,0.0,0.02439155118500868,-0.012020434182574488,0.024614776261539274,-0.0028127266501695074,0.025115374499944478,0.01061671802403849
75,7.0,300.51054,287.71274,0.0,0.0,0.0,0.0,-0.0007475107187865617,0.0,-0.020793572020665778,-0.02188589311871948,-0.044778024646746954,-0.01782268827696238,-0.03124286971743117,0.04147696930495816
76,7.0,299.31973999999997,658.22338,0.0,0.0,0.0,0.0,-0.0007574775283703825,0.0,-0.08644748613945262,-0.06863518266276514,-0.04500080085348325,0.008913431231037173,-0.04027863488869176,0.009859608126092559
77,7.0,300.15574,482.59772999999996,0.0,0.0,0.0,0.0,-0.0007674443379542033,0.0,-0.04848698509454286,-0.03307998536774037,-0.06513068797914844,0.03955969239948766,-0.026677050269569874,-0.001980770601786838
78,7.0,300.66691000000003,200.00673,0.0,0.0,0.0,0.0,-0.000777411147538024,0.0,-0.016207328490538783,-0.01202375358990209,-0.03256596865826087,-0.0060507026136078544,-0.018592826240719083,-0.030098677307008177
79,7.0,300.06143,197.65386999999998,0.0,0.0,0.0,0.0,-0.0007873779571218449,0.0,-0.005486582409208525,-0.005130544663895335,-0.04946471267253705,0.0014230240444915387,-0.018994705548381483,-0.002282167822207428
80,7.0,300.71173999999996,404.45574,0.0,0.0,0.0,0.0,-0.0007973447667056657,0.0,-0.05680068696629135,-0.007930930941096943,-0.05821282627290865,-0.018313044583356784,0.01868443215575988,0.014956362824328086
81,7.0,301.39512,433.91545,0.0,0.0,0.0,0.0,-0.0008073115762894866,0.0,-0.06891479510736073,-0.02250382977170508,-0.040480838065397665,0.016137814467428284,0.03463525942323396,0.03372943815183637
82,7.0,300.65789,216.16873999999999,0.0,0.0,0.0,0.0,-0.0008172783858733075,0.0,-0.05852499950946774,-0.01131440252614459,0.004129502910375206,-0.02081111745939738,-0.014473053672379187,0.03840455486148447
83,7.0,301.54042000000004,142.59156000000002,0.0,0.0,0.0,0.0,-0.0008272451954571281,0.0,-0.010522385452978589,-0.015209337937044785,-0.017612549325473282,-0.03040988896922237,-0.07139504187439202,0.028069613584255176
84,7.0,300.60955,372.59803,0.0,0.0,0.0,0.0,-0.000837212005040949,0.0,-0.027704766541247573,-0.06522690215564403,-0.02032882865029918,-0.02489583056102718,-0.04574003570244005,0.0029137060405603973
85,7.0,299.78794,674.22496,0.0,0.0,0.0,0.0,-0.0008471788146247698,0.0,-0.053860869470653945,-0.05718753572197035,-0.09389914623687422,0.011693931563101188,-0.01062996626909599,0.02027473426721048
86,7.0,300.1367,547.4988400000001,0.0,0.0,0.0,0.0,-0.0008571456242085908,0.0,-0.07787922139208073,-0.05754444192394425,-0.03100231198468997,0.0004196104852698306,0.012434244510164387,0.003435860364243017
87,7.0,299.48683,-33.874055,0.0,0.0,0.0,0.0,-0.0008671124337924116,0.0,0.01104184432874519,-0.006334954527761333,0.005589977286512805,-0.014085652695395686,-0.029966642712977366,-0.0053934980609468145
88,7.0,299.64791,-115.0648,0.0,0.0,0.0,0.0,-0.0008770792433762324,0.0,0.0018861430736228282,0.0037647089616728462,0.02932597379399827,-0.004718434671298245,0.003489182752080527,-0.02117190744900458
89,7.0,300.36494,333.53784,0.0,0.0,0.0,0.0,-0.0008870460529600531,0.0,0.02231364678093548,-0.07835870552490214,-0.04534211718941855,0.02116471641304488,-0.012718000134418888,-0.05276785429628175
90,7.0,300.60569,203.83126000000001,0.0,0.0,0.0,0.0,-0.000897012862543874,0.0,0.0014304135761458285,-0.025084394378136976,-0.03830563125422146,0.003308158224989797,-0.027635843242945372,-0.05138984327953265
91,7.0,300.34817000000004,18.958417,0.0,0.0,0.0,0.0,-0.0009069796721276949,0.0,0.02528496419568168,-0.006937996505601943,-0.024109853471707274,-0.008358145655584752,-0.03162557428020117,-0.024073224480592275
92,7.0,300.4981,-13.426432,0.0,0.0,0.0,0.0,-0.0009169464817115157,0.0,-0.015414946647336785,-0.012999998782999988,0.032496245905629766,-0.030459801669148374,0.014343294838072985,0.008026469685075883
93,7.0,301.27515,135.11189,0.0,0.0,0.0,0.0,-0.0009269132912953365,0.0,-0.037753385631719066,-0.0025083591884057775,-0.0008088973841344562,0.0023058284279425475,0.05733023679980384,0.037267391367005166
94,7.0,301.38628,793.69096,0.0,0.0,0.0,0.0,-0.0009368801008791572,0.0,-0.11071921644713589,-0.0987923467920455,-0.03175066507129667,-0.04311556798242525,0.014128510134875386,0.03678342765549167
95,7.0,300.58848,1033.4707,0.0,0.0,0.0,0.0,-0.0009468469104629781,0.0,-0.11545508661952988,-0.07375906784170323,-0.12493514574763888,0.003067285168817477,-0.03537343441258617,0.044387039804159756
96,7.0,300.28752000000003,457.60540999999995,0.0,0.0,0.0,0.0,-0.0009568137200467989,0.0,-0.05348608244416535,-0.01975708100312208,-0.06585745579887484,-0.0026040540742251275,-0.029104150042355968,0.023939237353618775
97,7.0,299.13357,97.23173100000001,0.0,0.0,0.0,0.0,-0.0009667805296306198,0.0,0.018336864066707585,-0.016591582312711683,-0.031301299797697774,0.03423510872024217,-0.006550282434337545,0.01052731288821489
98,7.0,299.50077000000005,338.79528999999997,0.0,0.0,0.0,0.0,-0.0009767473392144406,0.0,-0.07144983033379923,0.02180639047612318,-0.05334186959718265,0.017766820706198682,-0.01085444676250049,0.025285350243969777
99,7.0,299.79399,422.4522,0.0,0.0,0.0,0.0,-0.0009867141487982613,0.0,-0.08136211054381513,-0.012976104319141786,-0.03407670530560897,-0.012731508784752089,-0.023982513265389777,0.006557465668271473
100,7.0,299.48684,-73.579038,0.0,0.0,0.0,0.0,-0.0009966809583820823,0.0,-0.01123784540158899,-0.0024907846693963077,0.036094819847781366,-0.022715580804103276,0.009620794906048532,-0.0054566288110773345
101,7.0,299.96949,-240.14154,0.0,0.0,0.0,0.0,-0.001006647767965903,0.0,0.05566676789863225,0.0033473992735375867,0.013982865565501386,-0.02778663208307707,0.004966151725271015,-0.033021676877485764
102,7.0,300.50045,78.44116600000001,0.0,0.0,0.0,0.0,-0.0010166145775497239,0.0,0.008123914352492923,-0.041174057174313064,0.009205987236385202,-0.020994624145258083,-0.003065036260220527,-0.027163767994855176
103,7.0,299.94743,480.1172,0.0,0.0,0.0,0.0,-0.0010265813871335446,0.0,-0.028753243294224174,-0.06290695155443274,-0.05428344542485895,-0.017267035094373683,-0.05497578401943745,-0.013417380817192388
104,7.0,300.65812,678.98478,0.0,0.0,0.0,0.0,-0.0010365481967173655,0.0,-0.07981903601952553,-0.08245774496969582,-0.04411763686757176,0.02297643596284768,0.004115979263940527,0.018342676069281184
105,7.0,299.88088999999997,363.80523999999997,0.0,0.0,0.0,0.0,-0.0010465150063011862,0.0,-0.002053394897404298,-0.06543716371039524,-0.04309715013535755,0.019386935675341582,0.027355369535764774,-0.00025768981609450476
106,7.0,300.38767,160.5381,0.0,0.0,0.0,0.0,-0.001056481815885007,0.0,0.005999186141423574,-0.027644863195335576,-0.027153895899130875,-0.008591805789595211,0.006972568193713904,0.026823566234029872
107,7.0,300.52162999999996,405.40092999999996,0.0,0.0,0.0,0.0,-0.001066448625468828,0.0,0.0001875960315417868,-0.06038415436270204,-0.06303520064608994,-0.016912503950634185,-0.03227175730622447,-0.018688700978431182
108,7.0,299.80176,439.39710999999994,0.0,0.0,0.0,0.0,-0.0010764154350526487,0.0,-0.04006459695081786,-0.02014276249468588,-0.07335838923540933,0.004953512747498646,-0.019344957736948682,-0.006082719188942644
109,7.0,299.85196,-43.356527,0.0,0.0,0.0,0.0,-0.0010863822446364696,0.0,0.027087592865587276,-0.005043646308819135,-0.008864644353297282,0.03769971073417176,-0.005663739158017535,-0.019755642187980083
110,7.0,300.28038,-212.59892000000002,0.0,0.0,0.0,0.0,-0.0010963490542202903,0.0,0.012587533038292789,0.0028106863697681473,0.04922654418353165,0.015955453767430683,-0.019354966621436483,-0.017633080812249586
111,7.0,300.27772999999996,244.66987999999998,0.0,0.0,0.0,0.0,-0.0011063158638041112,0.0,-0.057139627230742146,0.01257823950837559,-0.029812145377479674,-0.0037440154562055562,-0.01942723161856848,0.014993698050762786
112,7.0,300.12361,602.6125900000001,0.0,0.0,0.0,0.0,-0.0011162826733879321,0.0,-0.1079856196648509,-0.03218801015895927,-0.043005546246816954,-0.024862999231286976,0.012405702268097488,0.028944342263084177
113,7.0,299.58439,376.59631,0.0,0.0,0.0,0.0,-0.0011262494829717528,0.0,-0.03191028337279977,-0.01968230415899218,-0.06288328709834724,0.004521739015510896,0.026113449153196775,0.015471821388699885
114,7.0,300.3275,333.56231,0.0,0.0,0.0,0.0,-0.0011362162925555737,0.0,-0.03218333806274817,-0.016273846333103584,-0.05293742778001736,-0.012256344137106988,0.001958251219639348,0.03774770231190817
115,7.0,300.31493,404.83452,0.0,0.0,0.0,0.0,-0.0011461831021393944,0.0,-0.029356096706221173,-0.03340510490082717,-0.06029838274173704,-0.02139729784099888,-0.036429402123552064,0.04505774449585316
116,7.0,300.40729,496.31255999999996,0.0,0.0,0.0,0.0,-0.0011561499117232151,0.0,-0.09032309887094582,-0.01093240419869429,-0.04961112224573655,0.014331990006707287,-0.02252317676911448,0.03328173055540107
117,7.0,299.63862,360.92921,0.0,0.0,0.0,0.0,-0.0011661167213070363,0.0,-0.03141247359866977,-0.03880565497981996,-0.03949533784588636,0.015317889446757986,-0.01081970748282199,0.012083260755024989
118,7.0,299.71646,-211.88268,0.0,0.0,0.0,0.0,-0.001176083530890857,0.0,0.00910006723850671,0.012287209761653187,0.04301976619872036,-0.004626583043108196,-0.004545878179268246,-0.012629627500447186
119,7.0,300.1066,-459.34017,0.0,0.0,0.0,0.0,-0.0011860503404746779,0.0,0.08196023917059582,0.03934334830438617,0.01832435448097298,-0.001079608456999059,-0.013520938017162688,-0.04248248830669516
120,7.0,300.00781,-119.62499,0.0,0.0,0.0,0.0,-0.0011960171500584988,0.0,0.015615523557632183,-0.0062853205729378435,0.027032805419430175,-0.016553755659978485,0.01601800878885438,-0.03963630525279876
121,7.0,298.60763,405.7762,0.0,0.0,0.0,0.0,-0.0012059839596423193,0.0,-0.027491762118475677,-0.04718636814693195,-0.048667704329378454,0.021884362097818376,-0.0016199544703270584,-0.030420282888748172
122,7.0,298.91176,387.24474,0.0,0.0,0.0,0.0,-0.0012159507692261404,0.0,-0.029464554996925175,-0.05963290844705985,-0.028615267001606975,-0.012448827205603589,-0.041525649892762556,-0.026609247625878272
123,7.0,299.62876,171.05341,0.0,0.0,0.0,0.0,-0.001225917578809961,0.0,-0.012535356737643387,-0.055634257769173745,0.016173651096965086,-0.0018508578547904483,-0.06975693360997334,-0.0037405290652614766
124,7.0,300.47445,373.51608,0.0,0.0,0.0,0.0,-0.001235884388393782,0.0,-0.05838915610831104,-0.019330594916781182,-0.035819809585139965,-0.015385137842644885,-0.015540096206938084,0.015989788760319285
125,7.0,300.44246,563.55382,0.0,0.0,0.0,0.0,-0.001245851197977603,0.0,-0.05389352145512645,-0.06276744424091445,-0.05464532263182345,0.004744491714844876,0.026974802930705772,0.017911000115928083
126,7.0,299.54432,270.11908999999997,0.0,0.0,0.0,0.0,-0.0012558180075614234,0.0,-0.015988855556977183,-0.026175188508289975,-0.03994541543430556,-0.012785661936346589,0.011219012121980291,0.014760746786522286
127,7.0,300.19462000000004,192.54263,0.0,0.0,0.0,0.0,-0.0012657848171452445,0.0,-0.01997482540986178,-0.012150488885909888,-0.026402836421507075,-0.0041351811639356055,-0.011029933573819688,0.041750708951974164
128,7.0,300.14687999999995,157.62059,0.0,0.0,0.0,0.0,-0.0012757516267290652,0.0,-0.04170047403851636,-0.004653259891740996,-0.0015589892383102587,0.013822073920382488,-0.004126940299547296,0.001056070859826079
129,7.0,300.51552999999996,281.20716,0.0,0.0,0.0,0.0,-0.0012857184363128861,0.0,-0.056984423659924746,0.0038514664749851463,-0.03234699720565007,0.021106476823797078,-0.005929805968651285,0.008335340030284012
130,7.0,301.05262,583.5167,0.0,0.0,0.0,0.0,-0.0012956852458967068,0.0,-0.08172957886483143,-0.04203164774095067,-0.05361328079546885,-0.00020528941492048783,-0.03747769243851026,0.002321684474782418
131,7.0,300.46227000000005,501.82491,0.0,0.0,0.0,0.0,-0.0013056520554805275,0.0,-0.04795072045261766,-0.02706040837865437,-0.07753111425397521,-0.025079240988128373,-0.03333621200002797,0.002810932792192467
132,7.0,300.35937,408.58938,0.0,0.0,0.0,0.0,-0.0013156188650643487,0.0,-0.034667583114674064,-0.028086833769704674,-0.06144655317205265,-0.001029531407906839,0.009063448075917682,0.007682917207494893
133,7.0,301.88797999999997,502.53212,0.0,0.0,0.0,0.0,-0.0013255856746481694,0.0,-0.026486233997487774,-0.05448178203918324,-0.07178919920304233,-0.013381905917941287,0.0006473500976209804,0.0028209897047350076
134,7.0,301.81798,499.07989000000003,0.0,0.0,0.0,0.0,-0.00133555248423199,0.0,-0.04937592865902475,-0.07133471498993824,-0.03099718088618357,-0.007962375334100262,-0.037737158431367566,0.024308321808544576
135,7.0,301.22405,198.35943,0.0,0.0,0.0,0.0,-0.001345519293815811,0.0,-0.015610655904151786,-0.04151832206803936,-0.003167336624766787,-0.01001152501756059,-0.04262957777071176,0.00045403688344995165
136,7.0,300.4717,67.086475,0.0,0.0,0.0,0.0,-0.0013554861033996317,0.0,-0.024874648567686678,-0.01939474682036248,0.023876781630704877,0.025660190972713676,-0.017347354416550585,-0.002910332221702427
137,7.0,299.77947,139.78269,0.0,0.0,0.0,0.0,-0.0013654529129834528,0.0,0.0005890494803196574,-0.01786378063476788,-0.025215715644097376,0.006575723928448424,0.009565879486403802,-0.027161097067591577
138,7.0,300.49721,172.10082,0.0,0.0,0.0,0.0,-0.0013754197225672733,0.0,0.03104242756939907,-0.045632473124824456,-0.03772430535384907,-0.014139300235190286,0.003848210598438816,-0.03604190083480867
139,7.0,300.73613,359.74473,0.0,0.0,0.0,0.0,-0.0013853865321510942,0.0,-0.0035096850572539466,-0.06405261216425064,-0.041791117365962166,-0.019579905103886183,-0.003871905958652366,-0.037872187179443864
140,7.0,299.46877,351.21377,0.0,0.0,0.0,0.0,-0.001395353341734915,0.0,-0.04808400337077166,-0.006224468014332164,-0.05245174356983405,0.015083738494399087,0.012050314928023489,0.0013099261829046486
141,7.0,299.48244,26.035219,0.0,0.0,0.0,0.0,-0.0014053201513187358,0.0,-0.04133167025386826,-0.005007943326970525,0.038425557509557264,0.008856220495940911,-0.004553600360930366,0.002318644319182378
142,7.0,300.20313,-28.227428000000003,0.0,0.0,0.0,0.0,-0.001415286960902557,0.0,-0.015849752530248784,0.02935737238809707,-0.0049271860781004055,0.009921611736811841,-0.045693687616365865,0.011619336090739188
143,7.0,299.94975,387.82454,0.0,0.0,0.0,0.0,-0.0014252537704863774,0.0,-0.04908723850678325,-0.004780510729399676,-0.06402122775565323,-0.029261077151593474,-0.030814931643696974,0.047357632745084456
144,7.0,301.29357000000005,604.75927,0.0,0.0,0.0,0.0,-0.0014352205800701983,0.0,-0.060346554677991236,-0.04745414380385936,-0.07603101875917732,0.011765961486209989,0.0038547352198077464,0.02396531739794268
145,7.0,300.74318999999997,342.62224,0.0,0.0,0.0,0.0,-0.0014451873896540192,0.0,-0.049097947547090154,0.01095883280105259,-0.06600948891012934,-0.01976974257637168,0.025209686806002378,0.04829396297699305
146,7.0,301.01712000000003,205.9595,0.0,0.0,0.0,0.0,-0.00145515419923784,0.0,-0.03859854969913026,-0.012384948879549289,-0.01162304863910559,-0.019631326533211084,0.002207553503393568,0.012930448282885887
147,7.0,301.02887000000004,377.60999,0.0,0.0,0.0,0.0,-0.001465121008821661,0.0,-0.05505694636569754,0.0037412564775082665,-0.06346831845433534,-0.02898317203341637,-0.029251413785389768,0.029554266134278973
148,7.0,300.75694,511.6049,0.0,0.0,0.0,0.0,-0.0014750878184054815,0.0,-0.06563078161900385,-0.038635591083035964,-0.05124874212360705,0.028241450668714176,-0.017400224793518486,-0.015158054309733486
149,7.0,300.61269,437.7422,0.0,0.0,0.0,0.0,-0.0014850546279893025,0.0,-0.026495613653663475,-0.04415467825147745,-0.06241240647212494,0.0020126762262356783,-0.007302001335126424,-0.027306958472486972
150,7.0,300.63465,172.34673999999998,0.0,0.0,0.0,0.0,-0.0014950214375731234,0.0,-0.009364963846599971,-0.015149358597375285,-0.027874782815276875,0.002875699941234487,-0.03362964010973707,-0.02357278836220308
151,7.0,299.21057,-20.916811,0.0,0.0,0.0,0.0,-0.0015049882471569439,0.0,0.024910800318004574,-0.02869784587150687,0.01014523350075659,-0.030743158072863472,-0.02150253804938528,-0.01868324158689238
152,7.0,299.75224,283.34961,0.0,0.0,0.0,0.0,-0.001514955056740765,0.0,-0.034862149425376264,-0.038780278131065465,-0.012488778643796487,-0.0029410137387054576,0.005322535900793395,0.008273647892645472
153,7.0,299.78916,453.27472,0.0,0.0,0.0,0.0,-0.0015249218663245857,0.0,-0.05136048739763545,-0.027858989285968173,-0.05856471891338775,0.006489611348824774,-0.0007256010115737442,0.016356012810212785
154,7.0,300.16459,139.9447,0.0,0.0,0.0,0.0,-0.0015348886759084066,0.0,0.0014317497490526987,-0.03743033920833686,-0.006541104516256754,-0.017720060227333786,-0.04383365528854496,-0.005324867186623474
155,7.0,299.3598,87.031463,0.0,0.0,0.0,0.0,-0.0015448554854922275,0.0,0.03151191295023367,-0.028811067450930972,-0.02915623717699657,-0.030780043416253768,-0.048692723500847655,-0.00990807795787616
156,7.0,299.41461,359.21404,0.0,0.0,0.0,0.0,-0.001554822295076048,0.0,-0.01745925471784428,-0.04702896582339755,-0.04470387703092916,-0.006171148868894974,-0.01125738289001719,-0.01838806156776038
157,7.0,300.50524,351.24122,0.0,0.0,0.0,0.0,-0.0015647891046598691,0.0,-0.03687862756863717,-0.04468771670508425,-0.025202214086514876,0.007006919398604104,0.023426634128028777,-0.016831225080612584
158,7.0,300.65247,14.68941,0.0,0.0,0.0,0.0,-0.0015747559142436898,0.0,-0.03739340218919147,0.022376168365105878,0.010552019978653291,0.006338964769007114,-0.0001002645667633423,-0.02111566092270348
159,7.0,300.13439,-10.542974000000001,0.0,0.0,0.0,0.0,-0.0015847227238275107,0.0,-0.01137184266106349,0.005639159433116704,0.00893748426853602,-0.013041799402625386,0.00987789951954778,0.016069135362400185
160,7.0,300.79257,290.79594,0.0,0.0,0.0,0.0,-0.0015946895334113314,0.0,-0.038534349159544165,-0.02038312365690768,-0.02947723075567617,-0.010564736267408292,-0.017850169646174585,-0.009598448688343132
161,7.0,300.27252999999996,590.31521,0.0,0.0,0.0,0.0,-0.0016046563429951521,0.0,-0.08062620523468693,-0.02295620338485088,-0.07585867403641823,-9.83539519772793e-05,-0.012275325351230288,0.016885801770748884
162,7.0,301.27021,742.26401,0.0,0.0,0.0,0.0,-0.0016146231525789733,0.0,-0.09858382194796571,-0.06109832748368545,-0.06594757527601894,0.0018251613256293983,-0.06597165617789554,0.001953438484314368
163,7.0,300.6477,292.86151,0.0,0.0,0.0,0.0,-0.001624589962162794,0.0,-0.060102547841909645,0.008927992141599221,-0.037848030283809765,-0.001070843235683999,-0.046603517305159055,0.04965911281022286
164,7.0,298.91072,63.297799,0.0,0.0,0.0,0.0,-0.001634556771746615,0.0,-0.012836573700871188,-0.019660981323887782,0.013256605384075089,0.004026694806203837,-0.015067925713338487,0.02778649529431357
165,7.0,300.53147,469.18875999999995,0.0,0.0,0.0,0.0,-0.0016445235813304356,0.0,-0.05036875366350895,-0.044567378056957756,-0.04768553466294586,0.00016815252206036184,0.004950637852989916,0.024646768620196678
166,7.0,299.86724,517.85105,0.0,0.0,0.0,0.0,-0.0016544903909142563,0.0,-0.03290903183736857,-0.05388287523632574,-0.07062188037233694,-0.026706816517757574,-0.006810910523734535,0.005000842875569765
167,7.0,299.97665,70.370253,0.0,0.0,0.0,0.0,-0.0016644572004980774,0.0,0.02000966094829978,-0.029085233676239077,-0.012315227140168288,-0.02329932229271408,-0.0016771375436955883,-0.04635146121028305
168,7.0,299.86992999999995,-17.501687,0.0,0.0,0.0,0.0,-0.001674424010081898,0.0,0.023697879153298577,-0.012624571382448187,-0.005753231737324765,0.002215810478458468,-0.014897863843054686,-0.027672609022823876
169,7.0,299.60032,163.24342,0.0,0.0,0.0,0.0,-0.0016843908196657192,0.0,-0.02274372787863118,-0.029954841389062674,0.0030766465864913773,0.00041772647843139356,0.002332513787876188,-0.03995904770115096
170,7.0,300.50687999999997,353.66764,0.0,0.0,0.0,0.0,-0.0016943576292495397,0.0,-0.054911754719118244,-0.02995133453046657,-0.022643042229444278,0.016299402527125785,-0.027811070662238976,0.005217407149917995
171,7.0,301.01589,297.78775,0.0,0.0,0.0,0.0,-0.0017043244388333606,0.0,-0.035717061971999566,-0.011408238604655488,-0.043394738649977255,0.007515019031474632,-0.016673001011247083,0.012850296146975488
172,7.0,300.35646,61.025586,0.0,0.0,0.0,0.0,-0.0017142912484171815,0.0,0.006237868044254645,-0.013189164470669187,-0.01159895861797809,0.0014437217042842384,-0.004176198743883725,0.01877777579472218
173,7.0,300.93498999999997,121.85711,0.0,0.0,0.0,0.0,-0.001724258058001002,0.0,0.006906604396303783,-0.02616437408997268,-0.017783748062369285,3.537665857440436e-05,-0.0006030135865728075,-0.008244877669306072
174,7.0,299.41846,305.73009,0.0,0.0,0.0,0.0,-0.0017342248675848231,0.0,-0.03440120979588507,-0.015956332255267384,-0.042576771228500156,-0.0014709197687684788,-0.03190058251634237,0.004037339099829345
175,7.0,298.93149,519.61879,0.0,0.0,0.0,0.0,-0.0017441916771686438,0.0,-0.07464025598991973,-0.05546429215764945,-0.02784658913124437,-0.023935437665743773,-0.03074775822831747,0.014606797619328687
176,7.0,300.25254,463.77675,0.0,0.0,0.0,0.0,-0.0017541584867524647,0.0,-0.07842381798957823,-0.016056224529625986,-0.04649650796209805,0.014166094620834686,-0.028138225814776676,0.024541378450795476
177,7.0,299.31819,160.23,0.0,0.0,0.0,0.0,-0.0017641252963362857,0.0,-0.01894365192884288,-0.006867400432709653,-0.022894865276797276,-0.012475224397208788,0.009986829072873292,0.0024886811621887073
178,7.0,299.29546,303.68951,0.0,0.0,0.0,0.0,-0.0017740921059201061,0.0,-0.003071999416232737,-0.031154686561228172,-0.05808734234077435,0.008804816798492762,0.001022271876240379,0.0018832382882361482
179,7.0,299.07693,427.07003,0.0,0.0,0.0,0.0,-0.0017840589155039273,0.0,-0.04647834545405555,0.008388271404907931,-0.09172855072690311,-0.01041070300045639,-0.012664666702155289,0.025940529917630975
180,7.0,299.8604,444.28576,0.0,0.0,0.0,0.0,-0.001794025725087748,0.0,-0.05630920493903585,-0.04633886955129036,-0.03240370273424647,-0.0034751554190211365,-0.0058766972752598646,0.013599230839139588
181,7.0,300.29965,338.8814,0.0,0.0,0.0,0.0,-0.0018039925346715689,0.0,-0.07056094959082353,-0.025416036202117475,-0.007034499053076003,0.012481680826845988,-0.007762765571025313,0.0015383859121018684
182,7.0,300.79554,119.06918999999999,0.0,0.0,0.0,0.0,-0.0018139593442553898,0.0,-0.04162704380376936,-0.001683563981129828,0.007116547689198573,-0.001335069882811139,-0.022098583433960376,0.018249497590085182
183,7.0,300.16209,199.07878,0.0,0.0,0.0,0.0,-0.0018239261538392103,0.0,-0.026418762686578875,-0.030375161848545072,-0.003721053689064406,-0.018053397218731584,-0.008581034029107122,-0.012582957200841188
184,7.0,299.92641000000003,514.5670700000001,0.0,0.0,0.0,0.0,-0.0018338929634230314,0.0,-0.04536827221424986,-0.027741440115366972,-0.08330582922389522,-0.02084507957624918,-0.007171225603019862,0.008268793715391402
185,7.0,299.93735,394.02022999999997,0.0,0.0,0.0,0.0,-0.001843859773006852,0.0,-0.011805013158314089,-0.06673185213167103,-0.04123544594487166,-0.002973980945284067,-9.79147820261866e-05,-0.03751510365870246
186,7.0,300.02383,-0.82893966,0.0,0.0,0.0,0.0,-0.001853826582590673,0.0,0.024850077252761678,-0.03843148299614207,0.013833382804748589,-0.02059531140009898,-0.04457657735461566,-0.010120764929391731
187,7.0,299.61017000000004,-55.402499,0.0,0.0,0.0,0.0,-0.0018637933921744937,0.0,0.005626435848960985,0.0006395845488545803,0.01057495590791689,0.006536640946916234,-0.05716184881868524,-0.02009841051130868
188,7.0,299.89713,365.09987,0.0,0.0,0.0,0.0,-0.0018737602017583144,0.0,-0.054404423433798546,-0.04087009531656436,-0.015706726199133183,-0.0009292674531465572,-0.04520232819237246,0.014197689785452884
189,7.0,300.33975,443.12895,0.0,0.0,0.0,0.0,-0.0018837270113421355,0.0,-0.04623928935796255,-0.028435167875832574,-0.06002567762307315,0.03965065388746486,-0.014957585817198785,0.0005069322269003155
190,7.0,300.67152999999996,127.98016000000001,0.0,0.0,0.0,0.0,-0.0018936938209259562,0.0,0.018191006714812583,-0.02577818901310918,-0.03131558966385807,0.008921527301986192,-0.011958887345000288,0.010960467173463889
191,7.0,301.02747999999997,107.22478999999998,0.0,0.0,0.0,0.0,-0.001903660630509777,0.0,0.009605403941004561,-0.021776369902160378,-0.02042269107331268,-0.005891630048608615,-0.0033305279500975174,0.0004284274735324996
192,7.0,301.38358999999997,504.46097000000003,0.0,0.0,0.0,0.0,-0.0019136274400935978,0.0,-0.04185268750828866,-0.027957713282961476,-0.08353313769832883,-0.04820556501176886,0.012521696099795188,0.03153498364176057
193,7.0,301.0651,694.329,0.0,0.0,0.0,0.0,-0.0019235942496774185,0.0,-0.12058644857095589,-0.05207751281765036,-0.038394714176513266,-0.0085475317251507,-0.0027653014792390074,0.011955904336705889
194,7.0,300.73172999999997,488.24152000000004,0.0,0.0,0.0,0.0,-0.0019335610592612397,0.0,-0.06778557346716524,-0.027644894606088672,-0.052982762615991545,-0.029052647553023073,-0.024821453950686773,0.019517865826763382
195,7.0,300.37142,172.35678000000001,0.0,0.0,0.0,0.0,-0.0019435278688450601,0.0,-0.04434686038469436,-0.007728658559409212,-0.0003166385689547937,-0.008817649813659283,-0.033005708055909765,0.03674307699675937
196,7.0,300.47097,201.93978,0.0,0.0,0.0,0.0,-0.0019534946784288813,0.0,-0.0017806468169361584,-0.019071414660452084,-0.04053258778775496,-0.012216488957673589,-0.00878801893568494,0.002105671205838568
197,7.0,299.223,406.40459,0.0,0.0,0.0,0.0,-0.0019634614880127015,0.0,-0.05593927442027654,-0.01932364908734568,-0.04827392494301545,0.015868868506635384,0.008945344150886733,-0.0027041419058530278
198,7.0,299.26523,457.51582,0.0,0.0,0.0,0.0,-0.0019734282975965227,0.0,-0.04259783365832886,-0.06167414839626453,-0.03480140204213097,-0.0036791754544813465,-0.01046265030658319,-0.004646476587621536
199,7.0,300.16437,218.92635,0.0,0.0,0.0,0.0,-0.001983395107180344,0.0,-0.03699054610843267,-0.027849811266562375,-0.0017077857247703285,0.011814396867490189,-0.03703506933107677,-0.001009791543036166
200,7.0,300.67645,14.139351999999999,0.0,0.0,0.0,0.0,-0.0019933619167641645,0.0,-0.0014827810770890986,-7.866744283037213e-05,-0.002736561552077597,-0.0013056754974101388,-0.020439717727993082,0.007402752338944773
201,7.0,300.60149,262.81833,0.0,0.0,0.0,0.0,-0.002003328726347985,0.0,-0.03200558866395568,-0.03849932515658756,-0.009385295317806531,0.005446639380991455,-0.03808886564707836,-0.02344096959044358
202,7.0,299.31927,370.4932,0.0,0.0,0.0,0.0,-0.002013295535931806,0.0,-0.017632697803711784,-0.029805787233102177,-0.06518219654798194,-0.02136200634001588,-0.03510360388445597,-0.012666330458819488
203,7.0,299.57928,218.93954,0.0,0.0,0.0,0.0,-0.002023262345515627,0.0,0.016347729490645283,-0.06739092268571624,-0.015508960044615185,-0.03655143188609546,-0.022924085383181077,-0.03296842653173037
204,7.0,300.29955,60.764565000000005,0.0,0.0,0.0,0.0,-0.0020332291550994477,0.0,0.03390880976403897,-0.043306305220999555,-0.009073414505226291,-0.02861204283978877,0.015004621900090886,-0.0033744324822305564
205,7.0,300.84402,244.07258,0.0,0.0,0.0,0.0,-0.0020431959646832684,0.0,-0.04268708680663746,-0.009265530777186691,-0.022239353257103276,-0.03028815000945767,0.013316856274771385,0.0009728092214787952
206,7.0,298.92651,457.50435,0.0,0.0,0.0,0.0,-0.002053162774267089,0.0,-0.04614384221179266,-0.05858947463983095,-0.03433658267800686,-0.02122211703120988,-0.01019741689415669,-0.0028580383840414274
207,7.0,298.37946,545.14635,0.0,0.0,0.0,0.0,-0.00206312958385091,0.0,-0.07148469525649014,-0.03915418464321716,-0.05507199718268294,0.007287903074560034,-0.04403561832497716,0.02894225699437837
208,7.0,299.51469,441.32545999999996,0.0,0.0,0.0,0.0,-0.002073096393434731,0.0,-0.021567463062792877,-0.03747625767636867,-0.07510819920410212,0.007138017040267433,-0.03688397854241526,0.008143840422334472
209,7.0,300.78401,211.85026000000002,0.0,0.0,0.0,0.0,-0.002083063203018552,0.0,-0.02053275840517548,-0.013699132232749088,-0.03016529850108317,0.02791070658432227,-0.04085791098411186,0.022552903500548276
210,7.0,299.2875,255.38332000000003,0.0,0.0,0.0,0.0,-0.0020930300126023723,0.0,-0.024780959410440274,-0.01013860583185249,-0.04271058610295666,-0.0008968234686545851,-0.034401774176190766,-0.001055934679012639
211,7.0,298.92067000000003,454.53674,0.0,0.0,0.0,0.0,-0.0021029968221861935,0.0,-0.08718290204878251,-0.030129310897281474,-0.02085560420503788,0.0028548948769311876,-0.02884684024571147,0.040542801348762966
212,7.0,299.34378,343.88673,0.0,0.0,0.0,0.0,-0.002112963631770014,0.0,-0.05825284661210835,-0.018458073096669983,-0.027822059359573475,0.007478883493158333,0.007451631726418793,0.00038502267634877966
213,7.0,300.53047999999995,86.462502,0.0,0.0,0.0,0.0,-0.0021229304413538353,0.0,-0.03640161779255996,0.009825713390372411,0.0002934622663699707,-0.0028357850813701974,-0.008050939371015852,0.01897695745962988
214,7.0,300.08154,134.15453,0.0,0.0,0.0,0.0,-0.002132897250937656,0.0,-0.0007325991753769094,-0.027360860338056677,-0.012686167869277289,-0.01900731037962548,-0.02423701433275708,-0.01758660201691248
215,7.0,300.00203999999997,417.09182999999996,0.0,0.0,0.0,0.0,-0.0021428640605214767,0.0,-0.03733435301311376,-0.03983570273997776,-0.04961544578391325,-0.026043717281314775,-0.024384933648605576,0.007807971014961742
216,7.0,299.53205,510.28784,0.0,0.0,0.0,0.0,-0.0021528308701052974,0.0,-0.033160058470142965,-0.05867202817847835,-0.06328267583726385,-0.007574781231647703,0.0036922782981494966,-0.02149331544697508
217,7.0,300.20565,426.06844,0.0,0.0,0.0,0.0,-0.002162797679689118,0.0,-0.05699251952822374,-0.047789722104478356,-0.024731925198350976,0.003990680756574527,-0.01153808660497049,-0.013072463390401686
218,7.0,300.93055,-32.015396,0.0,0.0,0.0,0.0,-0.002172764489272939,0.0,0.0036965080093669363,0.006709873276762934,-0.0006745001340504803,-0.017768980955411882,0.006049869215400604,-0.0036496844050208067
219,7.0,300.18883999999997,-144.36788,0.0,0.0,0.0,0.0,-0.0021827312988567603,0.0,0.026919797635777176,-0.02282547689669918,0.03978990890170826,0.006938351041811933,-0.04251138518629705,-0.03313757546367407
220,7.0,298.96772999999996,341.61477,0.0,0.0,0.0,0.0,-0.0021926981084405806,0.0,-0.013625762793008086,-0.029043425963862973,-0.06117317120232194,0.015778230245440086,-0.013004171346911788,0.01899544927395488
221,7.0,300.38924,646.80341,0.0,0.0,0.0,0.0,-0.0022026649180244017,0.0,-0.06146524257014715,-0.07298388895869902,-0.06216295341675584,0.01056040867623119,-0.03480729206496227,-0.004092434270041816
222,7.0,298.8448,174.50509,0.0,0.0,0.0,0.0,-0.0022126317276082224,0.0,0.003342671651221007,-0.03012315742942417,-0.026264704088374474,-0.006428216194790544,-0.05305498606986945,0.006192970121723563
223,7.0,299.12707,44.216937,0.0,0.0,0.0,0.0,-0.0022225985371920436,0.0,-0.043209672572212664,0.019335166701232382,0.01043366122122219,0.006092810754638604,-0.02181104332058238,0.019182164922882283
224,7.0,299.95856000000003,389.95496,0.0,0.0,0.0,0.0,-0.0022325653467758643,0.0,-0.04456670627214146,-0.03809495730667956,-0.03587490708582767,-0.026642174201127876,-0.0002170229929335018,0.013219221521635587
225,7.0,300.3992,586.92076,0.0,0.0,0.0,0.0,-0.002242532156359685,0.0,-0.09398936399927801,-0.04092250162498646,-0.043497388991108055,-0.01213532762466359,-0.028044949050320976,0.02031477588466228
226,7.0,300.71617000000003,465.43137,0.0,0.0,0.0,0.0,-0.0022524989659435057,0.0,-0.016179435741785982,-0.025844769677180177,-0.09945530923972482,-0.060060586115518344,-0.022896416562700375,-0.0003923584449527636
227,7.0,300.75523,113.50981000000002,0.0,0.0,0.0,0.0,-0.0022624657755273263,0.0,0.0020589025196478578,-0.025002147854269872,-0.01156090297072229,0.002081045580708208,-0.03507890793976867,0.028919025196085576
228,7.0,300.37802,45.792108,0.0,0.0,0.0,0.0,-0.0022724325851111475,0.0,0.015088221112841487,0.02022884417018148,-0.049236722280786155,-0.00032387951761441965,0.0009301574819018961,0.013414696717677487
229,7.0,300.23835,345.17942,0.0,0.0,0.0,0.0,-0.002282399394694968,0.0,-0.06820746953055314,-0.01044142980973889,-0.026277025209590472,0.01037274462521019,-0.01014744846547519,0.033855520914779766
230,7.0,299.78632000000005,486.5105,0.0,0.0,0.0,0.0,-0.002292366204278789,0.0,-0.05646600032576035,-0.03803716253422567,-0.05338387894632866,0.01845136234125768,-0.03555051405306257,-0.00021321139936982683
231,7.0,300.36001,171.34663,0.0,0.0,0.0,0.0,-0.00230233301386261,0.0,-0.04063948263355466,0.017386217624136086,-0.028831832998480373,0.016420707815847684,-0.014818719890993787,0.004019304565274476
232,7.0,300.20631000000003,60.748476000000004,0.0,0.0,0.0,0.0,-0.0023122998234464303,0.0,0.036708973024893565,-0.05259100466357804,-0.0025839885811698177,0.02665750062214047,0.009173676311896362,-0.024681498780624273
233,7.0,300.61432,366.13966,0.0,0.0,0.0,0.0,-0.0023222666330302514,0.0,-0.04076356524080066,-0.050343124515479544,-0.020190625389659583,0.008300230103718931,-0.05307490454033525,-0.017300917164467584
234,7.0,300.123,611.1345299999999,0.0,0.0,0.0,0.0,-0.0023322334426140725,0.0,-0.05662857427780515,-0.05067287358827325,-0.07846818922470733,-0.03661068168569297,-0.059305707698267644,-0.0018034411951607884
235,7.0,300.09905,188.48793999999998,0.0,0.0,0.0,0.0,-0.0023422002521978932,0.0,-0.03999545884349446,-0.048542522345773956,0.03124235397313027,-0.017384562986722783,-0.05989163578059424,-0.03259873007374417
236,7.0,299.28403,-93.60900500000001,0.0,0.0,0.0,0.0,-0.002352167061781714,0.0,0.011407631667845591,0.011387775005635889,0.0056593932270136245,-0.023755004167436377,-0.010638091521647889,0.008734897374017251
237,7.0,300.77504,218.44149,0.0,0.0,0.0,0.0,-0.0023621338713655346,0.0,-0.016558502736696984,-0.04478309292374716,-0.005059162714225485,-0.02278895936309518,-0.0009182381751455523,-0.022993277192759776
238,7.0,300.28753,401.08086000000003,0.0,0.0,0.0,0.0,-0.0023721006809493557,0.0,-0.015175497410204986,-0.04213412886931476,-0.06460894118465603,-0.03854550909614556,-0.02207997306937368,0.001332853296892379
239,7.0,300.86118,487.03765,0.0,0.0,0.0,0.0,-0.0023820674905331764,0.0,-0.05506673537491365,-0.02188619304074908,-0.07109435686746672,-0.009387965333145041,0.004548895536741035,0.005085663358665895
240,7.0,301.26202,294.99877999999995,0.0,0.0,0.0,0.0,-0.0023920343001169976,0.0,-0.03121196457613107,-0.02124228476120028,-0.037218015689632164,-0.005164031667775245,0.007914536453153933,0.015274534501479186
241,7.0,301.99521,64.585072,0.0,0.0,0.0,0.0,-0.002402001109700818,0.0,-0.029673066668753672,0.02037219575457918,-0.01033137767662759,0.0055658456208061945,-0.03056500742703137,0.03731456018566036
242,7.0,300.79231,300.25102999999996,0.0,0.0,0.0,0.0,-0.0024119679192846385,0.0,-0.038036182721378965,-0.031033705512538267,-0.02219892660461348,-0.002931581190874537,-0.04817359595786375,0.007510881323366273
243,7.0,300.67184,699.91407,0.0,0.0,0.0,0.0,-0.00242193472886846,0.0,-0.07796269293531873,-0.07312931871905183,-0.061664387758051234,0.004381834811928426,-0.034392266850502465,0.01686622577881688
244,7.0,300.45443,436.07784000000004,0.0,0.0,0.0,0.0,-0.002431901538452281,0.0,-0.06530470253807234,-0.02194177588823468,-0.04531029607002805,0.01034459451093199,0.002811257234874487,-0.012285834781267489
245,7.0,299.7866,48.070948,0.0,0.0,0.0,0.0,-0.002441868348036101,0.0,-0.01013293669754299,-0.016764320176509584,0.012284889418924187,-0.023205988786252775,-0.018084134160515086,-0.0006141771506095653
246,7.0,298.84426,137.16886,0.0,0.0,0.0,0.0,-0.002451835157619922,0.0,-0.042989084985692365,0.0006313329034852064,0.0006618432420163424,-0.015428541423928487,-0.05309726291704186,-0.007024594938648545
247,7.0,299.45982000000004,380.84432999999996,0.0,0.0,0.0,0.0,-0.002461801967203743,0.0,-0.06921349617059024,-0.004475782449275337,-0.04207788639601406,-0.027848673386700072,-0.029848167431784766,0.023956886143860576
248,7.0,299.26667000000003,403.657,0.0,0.0,0.0,0.0,-0.002471768776787564,0.0,-0.02011965937915578,-0.06782185187374563,-0.03476013743180847,0.013279663916600787,0.0010754173506104289,0.005495121473101265
249,7.0,300.23357000000004,122.29373999999999,0.0,0.0,0.0,0.0,-0.0024817355863713847,0.0,-0.0030285703010466173,0.006226077663441024,-0.04037175054638156,-0.020575250061369083,-0.01053686783665789,0.004183738033902796
250,7.0,299.8886,31.133628,0.0,0.0,0.0,0.0,-0.002491702395955206,0.0,0.03455905896271357,-0.02604324814651848,-0.017979656929453983,-0.03081713444941437,-0.021568321285627582,-0.033529705278874264
251,7.0,300.02842000000004,221.20551,0.0,0.0,0.0,0.0,-0.002501669205539026,0.0,-0.01999897723924538,-0.04463772699815066,-0.0026042464904191174,-0.01840683202586288,-0.012317342806377089,-0.03360234011229277
252,7.0,300.02176000000003,429.28209000000004,0.0,0.0,0.0,0.0,-0.002511636015122847,0.0,-0.052093743057752155,-0.03082552821324277,-0.047571763901967545,0.0004141612870270366,-0.004615883730002255,-0.004894677063217016
253,7.0,301.01668,392.14392999999995,0.0,0.0,0.0,0.0,-0.0025216028247066684,0.0,-0.039987643645473164,-0.06430865337176994,-0.014905666882074786,0.01067064116786029,-0.030303164349439467,-0.018351495398151584
254,7.0,300.35312999999996,38.581433000000004,0.0,0.0,0.0,0.0,-0.002531569634290489,0.0,0.007868367509697412,-0.004286481188742756,-0.015309678067947587,0.017172488727542682,-0.06534657813820514,0.001870034930158078
255,7.0,300.37266,220.18202000000002,0.0,0.0,0.0,0.0,-0.0025415364438743093,0.0,-0.02088912758459638,-0.02212650658021618,-0.023914200956897873,0.00904921333056282,-0.02715312582905487,0.016655306624750784
256,7.0,300.43088,578.9836799999999,0.0,0.0,0.0,0.0,-0.0025515032534581305,0.0,-0.07243192704622464,-0.03997804816702616,-0.06358660527100934,0.02069810764924418,-0.01789804976639998,0.007520295024745332
257,7.0,300.46851000000004,558.99919,0.0,0.0,0.0,0.0,-0.002561470063041951,0.0,-0.08914016382969922,-0.004868179458526905,-0.07591345033682421,-0.027854126698738272,-0.024763052241422976,0.02838823615770077
258,7.0,300.61381,255.61604,0.0,0.0,0.0,0.0,-0.0025714368726257723,0.0,-0.06052337188669174,-0.0072366020193470135,-0.00994092063601748,-0.038645715478035164,-0.05013379717732055,0.0008247098105575211
259,7.0,299.63242,161.39404,0.0,0.0,0.0,0.0,-0.002581403682209593,0.0,-0.028897187629930373,0.01009124733277857,-0.030253818056319368,-0.03101161463385807,-0.022934855218493977,0.02806014577532077
260,7.0,299.50549,338.64227999999997,0.0,0.0,0.0,0.0,-0.0025913704917934137,0.0,-0.027860584141625573,-0.014927997901028684,-0.06015021517961404,0.006989518651986783,-0.010903723141363689,0.008721285068198822
261,7.0,299.93627999999995,550.44592,0.0,0.0,0.0,0.0,-0.002601337301377235,0.0,-0.055584620673274944,-0.04432652850818775,-0.06741066485066463,0.003861839014933837,-0.015163079016979383,0.023617116027577878
262,7.0,299.84867,414.52485,0.0,0.0,0.0,0.0,-0.002611304110961055,0.0,-0.03065452807336637,-0.028087079989478975,-0.06726359463839994,0.013266927362843788,-0.047409009591404955,0.011164848837884789
263,7.0,299.61442999999997,-98.039225,0.0,0.0,0.0,0.0,-0.0026212709205448766,0.0,-0.0043030330344262955,0.01035787720649289,0.02374663269511018,0.008197420580997422,-0.011178455773477688,0.003939725422295626
264,7.0,300.98429,69.582229,0.0,0.0,0.0,0.0,-0.0026312377301286973,0.0,-0.00838856180238659,-0.02261696826462098,0.00985427032456576,0.01094022648946629,-0.007137383556304914,-0.0007718868739593033
265,7.0,300.04982,510.2737,0.0,0.0,0.0,0.0,-0.0026412045397125176,0.0,-0.06592763755380124,-0.04349653279477356,-0.04568629291713605,-0.005137869550193245,-0.03201747408762867,-0.011745343873175189
266,7.0,300.29639,662.70106,0.0,0.0,0.0,0.0,-0.0026511713492963387,0.0,-0.04362669084961916,-0.08540658343097352,-0.07241129930068883,-0.02188637441251698,-0.06650428831821223,-0.0014908572883361585
267,7.0,300.76706,143.19134,0.0,0.0,0.0,0.0,-0.0026611381588801594,0.0,0.007626363767738503,-0.004115628172780876,-0.04703732817647286,-0.02126198639614468,-0.031092103168801673,-0.02049156370910988
268,7.0,300.20665,-220.72024,0.0,0.0,0.0,0.0,-0.00267110496846398,0.0,0.03275975881938647,0.028979563849810274,0.005354119919660495,-0.01786946496782888,-0.02677159866290107,0.00946343615226843
269,7.0,299.98372,92.42621,0.0,0.0,0.0,0.0,-0.0026810717780478012,0.0,-0.02834006118169627,-0.008963041273158301,0.009207842598643311,-0.02216804679456588,-0.023413090013942078,-0.024721713663843178
270,7.0,300.70406,423.14518,0.0,0.0,0.0,0.0,-0.002691038587631622,0.0,-0.06505770661419573,-0.002316730999018548,-0.06125112965176585,-0.011325714450260989,-0.041242748438342365,-0.011164648214364989
271,7.0,299.2485,370.09649,0.0,0.0,0.0,0.0,-0.002701005397215443,0.0,-0.018584519616399283,-0.059623791222660046,-0.03429177979833517,0.013263726505777885,-0.014236440522277289,-0.03825976142219446
272,7.0,299.58971,197.08139,0.0,0.0,0.0,0.0,-0.0027109722067992633,0.0,0.004980980133859465,-0.03225639339495817,-0.032632409493818064,0.014760140862962484,-0.016816463039905683,0.010049525037385902
273,7.0,300.36471,248.37967999999998,0.0,0.0,0.0,0.0,-0.0027209390163830845,0.0,-0.013649799111880287,-0.024364157968555178,-0.03748726461220497,-0.005077421278377465,-0.02199775694300958,0.020698930408325378
274,7.0,300.45326,520.78898,0.0,0.0,0.0,0.0,-0.0027309058259669056,0.0,-0.06480447818895403,-0.060794864144985944,-0.03270750247197917,-0.00044846705778275257,-0.048480600605662755,0.022321193467680276
275,7.0,301.61172999999997,699.35021,0.0,0.0,0.0,0.0,-0.002740872635550726,0.0,-0.1227287024623799,-0.01210129762005509,-0.07775499794307084,-0.007549927321269812,0.004640245099506535,0.047659645109640755
276,7.0,301.32206,314.35312000000005,0.0,0.0,0.0,0.0,-0.0027508394451345466,0.0,-0.05019654268976305,-0.040515561133074564,-0.004843394854455855,0.001905159042224558,-0.01835774512476838,0.008807973275204281
277,7.0,300.22696,40.391552000000004,0.0,0.0,0.0,0.0,-0.0027608062547183677,0.0,-0.0100690219958101,0.0063441224146661345,-0.008553123751127592,-0.017639045815588283,-0.013705597781637187,0.0005305902285826784
278,7.0,300.41314,398.01364,0.0,0.0,0.0,0.0,-0.0027707730643021884,0.0,-0.036157343458451965,-0.02253464777349658,-0.06229421692746054,-0.01197872475545809,-0.05070327311777345,0.004974165216336885
279,7.0,299.42476,463.71102,0.0,0.0,0.0,0.0,-0.0027807398738860095,0.0,-0.05519466022653886,-0.05179887613290105,-0.033963034856390566,-0.0009477066088638599,-0.02195280207582288,0.004810071287817076
280,7.0,299.49277,273.70249,0.0,0.0,0.0,0.0,-0.00279070668346983,0.0,-0.024252650808300275,-0.016521683254563185,-0.04242438854596116,0.005840566803194064,-0.02809566120457587,-0.002062108341639248
281,7.0,299.39156,113.02443999999998,0.0,0.0,0.0,0.0,-0.002800673493053651,0.0,-0.028354035927075475,-0.024919580130121077,0.018917007504213285,-0.030877484638620473,-0.03295736589363876,-0.00998392327423651
282,7.0,299.41192,99.545988,0.0,0.0,0.0,0.0,-0.0028106403026374716,0.0,0.002442501072981088,-0.04494365152134305,0.012241656063657387,-0.014083997044732286,-0.04577057100745366,-0.026414092616867977
283,7.0,299.3935,330.62212999999997,0.0,0.0,0.0,0.0,-0.0028206071122212927,0.0,-0.02213261951806948,-0.050709812633918855,-0.027658439733425477,-0.01957218717787448,-0.002010733319168928,-0.015023931407246586
284,7.0,299.59823,401.61204,0.0,0.0,0.0,0.0,-0.002830573921805114,0.0,-0.028954500095336674,-0.08171940178082703,-0.01140612901794729,0.024773691367472976,-0.01225488607021309,-0.022431531337319774
285,7.0,299.09445,169.59953000000002,0.0,0.0,0.0,0.0,-0.002840540731388934,0.0,-0.013144363617497688,-0.02308932722273918,-0.015320330366248884,-0.01116582358448099,-0.023669899265037177,0.002359459350435508
286,7.0,300.29872,-57.870548,0.0,0.0,0.0,0.0,-0.002850507540972755,0.0,0.0003896606260315096,-0.002127118062755208,0.019328658595840084,0.014941105304322288,-0.04255813958566137,0.01108236420024419
287,7.0,301.31549,284.13154,0.0,0.0,0.0,0.0,-0.002860474350556576,0.0,-0.03983410180481976,-0.05201093012707915,0.005476138637777805,-0.022525117143055978,-0.010107646076372,-0.0071730102404209935
288,7.0,300.40854,563.9847,0.0,0.0,0.0,0.0,-0.0028704411601403967,0.0,-0.05755558767504424,-0.037191133151229065,-0.07669054730226772,-0.009046778794547551,-0.006957045100856893,0.0006124240962140524
289,7.0,299.87841000000003,541.43204,0.0,0.0,0.0,0.0,-0.002880407969724218,0.0,-0.04550641974613396,-0.05898459151632594,-0.06009081035275124,-0.039956687841668066,-0.024957388544352477,-0.013448457197759386
290,7.0,300.34234,296.11576,0.0,0.0,0.0,0.0,-0.0028903747793080385,0.0,-0.03311111342406247,-0.016239126305176984,-0.04066155932673347,-0.017260692148747685,-0.03831591472948637,0.006150898559021425
291,7.0,300.13757000000004,283.28264,0.0,0.0,0.0,0.0,-0.002900341588891859,0.0,-0.047348425341425755,0.00021003323910616682,-0.03897245722453207,-0.018156662602673086,-0.012368512949677187,0.014321551504177087
292,7.0,300.26761,422.92399000000006,0.0,0.0,0.0,0.0,-0.00291030839847568,0.0,-0.05169302696120454,-0.04000790662097296,-0.036857399979042166,0.01283641056760509,-0.025278434812037273,0.028671713138177773
293,7.0,299.99182,418.7843,0.0,0.0,0.0,0.0,-0.002920275208059501,0.0,-0.06586141051401515,-0.0030428027159262474,-0.058395756419462444,0.001197071197366729,-0.01928126686216288,0.043520704889159156
294,7.0,299.3618,461.73695,0.0,0.0,0.0,0.0,-0.002930242017643322,0.0,-0.01995168683057818,-0.06594286974255453,-0.054461947668475744,0.002052686534259388,-0.043625009867703256,0.01252541270116199
295,7.0,299.64819,358.3596,0.0,0.0,0.0,0.0,-0.0029402088272271424,0.0,-0.030412482889478367,-0.04553631265058416,-0.03298357259422517,0.005175897231746285,0.0006504662672435224,0.028860312419041075
296,7.0,300.64207999999996,296.2309,0.0,0.0,0.0,0.0,-0.002950175636810963,0.0,-0.02140374717788538,-0.026804691411167078,-0.04183835913862456,-0.019272224618270484,-0.012963889589186288,0.007884284250218273
297,7.0,300.03581,349.98954,0.0,0.0,0.0,0.0,-0.0029601424463947842,0.0,-0.04410292346286966,-0.05696843862634715,-0.0053167196425693754,-0.034891776858300264,-0.033866183345582064,0.004219987866830376
298,7.0,300.75633,447.85195,0.0,0.0,0.0,0.0,-0.002970109255978605,0.0,-0.05841260575537535,-0.041251292163185564,-0.03647191100499736,-0.03476478419676707,-0.04908830951213895,-0.0025323614620746176
299,7.0,300.24584,153.43069,0.0,0.0,0.0,0.0,-0.0029800760655624256,0.0,-0.007839956686168482,-0.03517821354231936,-0.0036209286711578366,-0.016822340903735786,-0.029737269234839974,-0.027693509332636576
300,7.0,300.41931,69.666967,0.0,0.0,0.0,0.0,-0.0029900428751462468,0.0,0.012825426936521089,-0.02926865423584127,-0.004733791489813846,-0.004227834374279767,-0.04161595884767536,-0.03156399400537367
301,7.0,300.11287999999996,283.0735,0.0,0.0,0.0,0.0,-0.0030000096847300674,0.0,-0.02210790330838018,-0.008463457298103202,-0.05547591514954654,-0.004392493088405316,-0.03176097691756437,-0.013303211848924789
302,7.0,299.57636,234.25988999999998,0.0,0.0,0.0,0.0,-0.0030099764943138877,0.0,-0.003146608972771127,-0.049662427151299954,-0.018400122283700682,-0.0012381797671738289,-0.03290500315497097,-0.0007965404141299184
303,7.0,298.97227000000004,266.8385,0.0,0.0,0.0,0.0,-0.0030199433038977093,0.0,-0.014145683710820287,-0.04166758799327076,-0.025298970351813974,0.01124923331946289,0.001123700035100559,-0.01059756151764789
304,7.0,299.27198,365.38726,0.0,0.0,0.0,0.0,-0.00302991011348153,0.0,-0.05145635504259685,-0.03239326828471667,-0.02721897897955407,-0.016092322577688584,-0.020244217200698682,0.02016792250791898
305,7.0,298.55497,389.38899,0.0,0.0,0.0,0.0,-0.0030398769230653507,0.0,-0.04092379047911366,-0.07032126629291864,-0.007119472435612223,-0.0055487146013654945,-0.03765819382457437,0.0014879319339724487
306,7.0,299.68617,428.53202000000005,0.0,0.0,0.0,0.0,-0.0030498437326491714,0.0,-0.06067781248018384,-0.011692381290448188,-0.057892838851578345,-0.029861110688562176,-0.03553946962697256,0.030490215384149973
307,7.0,299.79893,437.52466,0.0,0.0,0.0,0.0,-0.003059810542232992,0.0,-0.060367027396261735,-0.04122157657750286,-0.03140796767547507,0.006033525896587645,-0.005274489303576565,0.009480656033742901
308,7.0,300.28294,296.37186,0.0,0.0,0.0,0.0,-0.003069777351816813,0.0,-0.03470701272906546,-0.005988502128394145,-0.04939413169707125,-0.0032660421806082673,-0.031025081740937176,0.015342244939411685
309,7.0,300.19802999999996,313.27527000000003,0.0,0.0,0.0,0.0,-0.003079744161400634,0.0,-0.05097934324001945,0.017544059698213883,-0.06179257605470244,0.0022658911752510475,-0.01049521312504689,0.021891015097974982
310,7.0,299.86177999999995,405.56745,0.0,0.0,0.0,0.0,-0.003089710970984455,0.0,-0.04834938573096286,-0.04155412323382266,-0.03337886881598787,-0.005724859417299635,-0.012722022737315887,-0.009881893954092
311,7.0,299.83897,386.82132,0.0,0.0,0.0,0.0,-0.0030996777805682757,0.0,-0.053007584203691255,-0.012328593935487488,-0.05224784421246075,-0.011365610159698388,-0.027271145147702472,0.015360565514469786
312,7.0,300.63763,255.82634,0.0,0.0,0.0,0.0,-0.003109644590152096,0.0,-0.02103187324543428,-0.03337794878489707,-0.02335499633270868,-0.03957788530503316,-0.04004298837918526,-0.009051353720074061
313,7.0,299.43823,3.1671607999999996,0.0,0.0,0.0,0.0,-0.0031196113997359175,0.0,-0.002722766050641088,-0.013465961093236885,0.015225989689188186,-0.022301167592703876,-0.052865427241161445,0.013196343347627686
314,7.0,299.94333,275.89696000000004,0.0,0.0,0.0,0.0,-0.0031295782093197382,0.0,-0.016036448927424285,-0.030844129458578572,-0.03698520932015596,0.001081932447428419,-0.035644443350582665,-0.002379115794425448
315,7.0,299.57964,221.19567999999998,0.0,0.0,0.0,0.0,-0.0031395450189035585,0.0,-0.01110321992705249,-0.04868757416383945,-0.007447169778278433,0.0006917050700859753,-0.015972254467338784,-0.006479771778428683
316,7.0,298.93612,30.22832,0.0,0.0,0.0,0.0,-0.0031495118284873796,0.0,0.024043605153669077,-0.04032494751101246,0.007092687574518763,-0.00019302126641971583,-0.03064015005444737,-0.026403653101087676
317,7.0,298.98037,190.74367,0.0,0.0,0.0,0.0,-0.0031594786380712003,0.0,-0.005846234721603444,-0.03917375151589826,-0.012961325053183186,-0.007251937458285502,-0.05199606980111255,-0.02140916299966988
318,7.0,300.05192,306.80633,0.0,0.0,0.0,0.0,-0.0031694454476550215,0.0,-0.03440400028666046,-0.044503490611652555,-0.014353972467626786,0.011813194139621489,-0.037715751496504864,-0.015921608174340386
319,7.0,299.64997,150.29453,0.0,0.0,0.0,0.0,-0.003179412257238842,0.0,-0.0031659612390810467,-0.03185116326921507,-0.01066866127716489,0.014790967984004883,-0.03913831613340106,-0.015336967932890886
320,7.0,300.30821000000003,191.8541,0.0,0.0,0.0,0.0,-0.003189379066822663,0.0,-0.011596426505978188,-0.013595639880785186,-0.03312678840310947,-0.02975386525822787,-0.026973577911334874,0.005180885563313595
321,7.0,300.36997,437.02179,0.0,0.0,0.0,0.0,-0.003199345876406484,0.0,-0.029781629324217972,-0.03827343725879417,-0.06478864615614154,-0.03543376737654057,-0.04262578010933696,0.003961941336038166
322,7.0,300.49199,374.05617,0.0,0.0,0.0,0.0,-0.0032093126859903042,0.0,-0.04741719158596246,-0.005770513629705354,-0.060516030889717236,-0.042470979812059356,-0.00985918509417581,0.014716594413414786
323,7.0,300.07244,379.27269,0.0,0.0,0.0,0.0,-0.003219279495574126,0.0,-0.03828529836446476,-0.061113669103449536,-0.015890461879516486,0.015198356332460987,-0.007718275481659483,-0.015012629615631184
324,7.0,300.71567999999996,522.1548799999999,0.0,0.0,0.0,0.0,-0.0032292463051579465,0.0,-0.1041780081740689,-0.020025410907854178,-0.03451862116447267,-0.008019702187657981,-0.016207158264521983,0.02122016044526678
325,7.0,299.70709,488.29519000000005,0.0,0.0,0.0,0.0,-0.0032392131147417668,0.0,-0.05953927704506915,-0.05315114451760954,-0.03573912447967696,0.026364470719720673,-0.05244255541792725,0.025266846270643576
326,7.0,299.08659,371.57417000000004,0.0,0.0,0.0,0.0,-0.003249179924325588,0.0,-0.06105855336426004,-0.04108679911545136,-0.010803919019763792,0.018044001350554284,-0.027884384373224474,0.02149410172905268
327,7.0,299.43825,366.89747,0.0,0.0,0.0,0.0,-0.0032591467339094086,0.0,-0.042945023805093865,-0.008652748831434822,-0.059929896104370245,0.024487118907940475,-0.029327556490654473,0.04716083525766205
328,7.0,299.70042,253.33166,0.0,0.0,0.0,0.0,-0.00326911354349323,0.0,-0.015225580336147786,-0.04006964394956596,-0.021711274662735976,-0.013981351769851985,-0.04313271521386755,0.009058434818397913
329,7.0,299.89942,193.59237,0.0,0.0,0.0,0.0,-0.0032790803530770504,0.0,-0.023999642258330275,0.002101356888237778,-0.03694896232432866,-0.030099173799557174,-0.06133469745376335,-0.0024535864343751277
330,7.0,300.10199,362.92145,0.0,0.0,0.0,0.0,-0.003289047162660871,0.0,-0.04859468547417205,-0.03716498420589836,-0.024559389984573077,-0.04513562897803976,-0.03039730946923087,0.0038589242996961764
331,7.0,300.31419,287.65215,0.0,0.0,0.0,0.0,-0.0032990139722446923,0.0,-0.012730163188619288,-0.03751922556010927,-0.03718968319033596,0.017091674939316983,-0.023222145059097275,-0.016867295770922483
332,7.0,300.52004,243.74572999999998,0.0,0.0,0.0,0.0,-0.0033089807818285125,0.0,0.011217328100314089,-0.03144506681463647,-0.05386487586154935,-0.005258761635524365,-0.0039027132199928065,-0.005686800426318505
333,7.0,300.08912999999995,342.38255,0.0,0.0,0.0,0.0,-0.003318947591412334,0.0,-0.013769651399958787,-0.05224977141415096,-0.038056323093616666,-0.0012907913600661888,-0.04161997030482126,-0.018919634861722583
334,7.0,300.20599,541.39886,0.0,0.0,0.0,0.0,-0.0033289144009961548,0.0,-0.043518550719446554,-0.06369304314101394,-0.057360140850005154,-0.02992547638791457,-0.013659821168619387,-0.0006771347666954985
335,7.0,300.0353,314.8992,0.0,0.0,0.0,0.0,-0.0033388812105799755,0.0,-0.04030326497212256,-0.044993031251716456,-0.01042519855638699,-0.005066439065843605,-0.014182486980952485,-0.014930069997483185
336,7.0,300.87225,103.43115,0.0,0.0,0.0,0.0,-0.003348848020163796,0.0,-0.017248329484277587,-0.031515190814307176,0.01732303236115018,-0.027436133674735578,-0.025325639094445976,-0.016620582543823786
337,7.0,299.13839,303.47042000000005,0.0,0.0,0.0,0.0,-0.003358814829747617,0.0,-0.023864713822013876,-0.03293992785941777,-0.03544278732893076,-0.01722124328260438,-0.05476973353210186,0.001067174155746889
338,7.0,299.72042000000005,195.84747,0.0,0.0,0.0,0.0,-0.0033687816393314384,0.0,-0.02146534265146438,-0.008904186641099801,-0.029163211377434873,-0.031046159369517372,-0.03860523107028967,0.0076863428034329735
339,7.0,298.88457,110.23921000000001,0.0,0.0,0.0,0.0,-0.0033787484489152587,0.0,0.005447799349705934,-0.024449365209214476,-0.014508399888867589,0.016027376286028884,-0.02118721765801558,-0.005012585329653655
340,7.0,300.10812000000004,346.67349,0.0,0.0,0.0,0.0,-0.0033887152584990794,0.0,-0.051230339475290855,0.006385454912745334,-0.06053519854185894,-0.012685382600449787,-0.025632347873215774,0.015066745276971986
341,7.0,299.60882999999995,403.39774,0.0,0.0,0.0,0.0,-0.0033986820680829005,0.0,-0.06794324328872603,-0.020359944547620083,-0.034319652282085965,0.008720020025448971,-0.04228847928354796,0.001232873072425099
342,7.0,300.66003,488.18969000000004,0.0,0.0,0.0,0.0,-0.0034086488776667212,0.0,-0.06876849395192193,-0.017407742096010384,-0.06222124062875835,-0.023634038317497975,-0.00910281800987819,0.019900052618732282
343,7.0,299.57046,596.18389,0.0,0.0,0.0,0.0,-0.003418615687250542,0.0,-0.07147983976201093,-0.025738569920949077,-0.08400660515205642,0.007473716018973342,-0.016950943619677885,0.017674214713309183
344,7.0,300.80061,457.04555999999997,0.0,0.0,0.0,0.0,-0.003428582496834363,0.0,-0.047738470901170255,-0.04207713557768996,-0.04911483032025636,-0.019622441343084183,-0.01861499919265738,0.021936099661174477
345,7.0,300.50266,77.928147,0.0,0.0,0.0,0.0,-0.0034385493064181837,0.0,-0.00012557375675566489,0.006944169529186174,-0.03050680634128737,-0.009156514287002602,-0.03873440323278796,-0.01067881302991679
346,7.0,300.37376,85.784171,0.0,0.0,0.0,0.0,-0.003448516116002004,0.0,-0.006169619266544015,-0.03265626950717287,0.012749642921791789,-0.006985573157422393,-0.027882370032025674,0.004910907505968835
347,7.0,300.26525,195.90433000000002,0.0,0.0,0.0,0.0,-0.003458482925585825,0.0,-0.026886419150982974,-0.04337836655486146,0.010714760103714489,-0.012352875460883888,-0.03163314325844817,-0.020031722442727082
348,7.0,300.21697,26.830780999999998,0.0,0.0,0.0,0.0,-0.0034684497351696463,0.0,-0.0024681195818844377,-0.0015337079390401885,-0.004154059837148786,-0.012288290899509887,-0.03913888254020696,-0.013734286944968588
349,7.0,300.35739,77.92615,0.0,0.0,0.0,0.0,-0.003478416544753467,0.0,0.014577167146654383,-0.03068387078301227,-0.007580900755626653,-0.0002681762149569318,-0.03516122640439287,-0.028434267096493673
350,7.0,300.29497000000003,446.31723,0.0,0.0,0.0,0.0,-0.0034883833543372877,0.0,-0.03806948926541606,-0.03013301229989677,-0.06746679181345394,-0.002453728897339188,-0.024189887057355978,-0.0008798437375863162
351,7.0,299.26316,458.9476,0.0,0.0,0.0,0.0,-0.0034983501639211084,0.0,-0.024187447151115177,-0.03959701951992156,-0.07572414380739112,-0.008553461264735903,-0.03788159014037187,-0.001123553721786119
352,7.0,299.34871,507.24874000000005,0.0,0.0,0.0,0.0,-0.0035083169735049295,0.0,-0.07029421454174883,-0.04877769972048416,-0.03511903669672907,-0.026711127896933074,-0.05060879767844945,0.0014206796877351687
353,7.0,298.90007,576.9331599999999,0.0,0.0,0.0,0.0,-0.00351828378308875,0.0,-0.08486855168087391,-0.026119242917268574,-0.06438548002085215,-0.03682953357479196,-0.04394334569137055,0.026000764596325675
354,7.0,300.82207,294.30708,0.0,0.0,0.0,0.0,-0.0035282505926725713,0.0,-0.04936864339080575,-0.024077402110754577,-0.016015956957401885,-0.015190837003468885,-0.026982164192682272,0.014439583995075986
355,7.0,300.07111000000003,68.92749,0.0,0.0,0.0,0.0,-0.003538217402256392,0.0,0.009164248222365882,-0.018099457541777383,-0.012017026622488188,0.0036371722861609566,-0.013134285832003089,0.005882674234949744
356,7.0,299.79953,246.95237999999998,0.0,0.0,0.0,0.0,-0.0035481842118402123,0.0,-0.04020138571431786,-0.015781417930254685,-0.019084553474498785,0.004485920320500866,-0.02715754765249127,0.007773244502234503
357,7.0,299.5733,325.73453,0.0,0.0,0.0,0.0,-0.0035581510214240334,0.0,-0.03329171208213617,-0.06006310201551664,-0.005660350849683135,0.003318919852976887,-0.03995681145818026,-0.02212412037623068
358,7.0,300.7693,225.04983,0.0,0.0,0.0,0.0,-0.0035681178310078545,0.0,-0.05694171618145985,-0.03043945662039047,0.018971644989355583,0.00939725967366232,-0.01205939972842009,0.003982818949048626
359,7.0,300.23867,275.36055,0.0,0.0,0.0,0.0,-0.003578084640591675,0.0,-0.024939894781375975,-0.037227645618582564,-0.02153519104710788,-0.003230737203398937,-0.054537255455658046,-0.021301260983270776
360,7.0,300.70308,529.53335,0.0,0.0,0.0,0.0,-0.003588051450175496,0.0,-0.05480005808109465,-0.050560386615171655,-0.05560447125598405,-0.02059196767476898,-0.06034163433550564,0.02046017727401228
361,7.0,299.93187,593.9995299999999,0.0,0.0,0.0,0.0,-0.0035980182597593166,0.0,-0.04897096299155775,-0.020659127917897178,-0.11093093505553091,-0.03763207730324686,-0.04546038982059116,0.008819999844616212
362,7.0,300.76437999999996,633.22551,0.0,0.0,0.0,0.0,-0.0036079850693431378,0.0,-0.06003344519833974,-0.05717091031432954,-0.07528038889959593,-0.006067539587869535,-0.02369770284778118,0.02633072746489048
363,7.0,299.56257999999997,381.5866,0.0,0.0,0.0,0.0,-0.0036179518789269585,0.0,-0.046460171800261955,-0.01976960578760818,-0.049763019581477656,0.0014107688858570487,-0.02133178514253328,-0.002190687246203998
364,7.0,298.7109,54.210768,0.0,0.0,0.0,0.0,-0.0036279186885107796,0.0,-0.03664572798015176,0.008083206016475322,0.012083801830578387,0.02112162187304178,-0.030218489065082673,0.007963358895972331
365,7.0,299.89504,249.86667999999997,0.0,0.0,0.0,0.0,-0.0036378854980946003,0.0,-0.016831526015892283,-0.055257012597942544,-0.0038646935431155566,0.024970178800364774,-0.03496762977403636,-0.0040870448940849265
366,7.0,299.50077999999996,345.46882999999997,0.0,0.0,0.0,0.0,-0.0036478523076784205,0.0,-0.03459323082233607,-0.02157943967897488,-0.04884122746200385,0.02290062357711558,-0.016400836968136587,-0.004296649558796295
367,7.0,301.21554,256.98008,0.0,0.0,0.0,0.0,-0.0036578191172622417,0.0,0.0038733610871209763,-0.05102707745223045,-0.030961810351692768,-0.006862434696619573,-0.01909124396490908,0.005321349790226334
368,7.0,301.01768,44.403894,0.0,0.0,0.0,0.0,-0.003667785926846063,0.0,0.0026896198027698075,-0.02376854422852268,0.007581249111011034,-0.037043361769895165,-0.06102679506637573,-0.03998807225026546
369,7.0,300.88575,300.50142999999997,0.0,0.0,0.0,0.0,-0.003677752736429883,0.0,-0.03575919392440767,-0.023590049077656577,-0.03199568718397847,-0.05052048887923405,-0.02895982067161177,0.009365430954896071
370,7.0,301.18012000000004,580.34703,0.0,0.0,0.0,0.0,-0.003687719546013704,0.0,-0.09298984850438351,-0.06306649183567814,-0.020354665514599083,-0.03885737430467426,-0.02763169398378587,-0.025746364853968372
371,7.0,299.94392999999997,562.30862,0.0,0.0,0.0,0.0,-0.003697686355597525,0.0,-0.06443569770905824,-0.02141480072322628,-0.08507728018822383,-0.01170863280880209,-0.02992162907728487,0.03721913330449247
372,7.0,299.04704,334.5322,0.0,0.0,0.0,0.0,-0.003707653165181346,0.0,-0.014611253893268486,-0.020289452738163082,-0.06678872889953434,-0.006977204522196473,-0.056639851751418155,0.008828628175842762
373,7.0,299.28696,221.81787000000003,0.0,0.0,0.0,0.0,-0.0037176199747651667,0.0,0.014517596146775185,-0.001270877347900829,-0.08067381177738532,0.020826841074449178,-0.04616600097822955,0.038872575082674464
374,7.0,299.60555,247.62464,0.0,0.0,0.0,0.0,-0.0037275867843489874,0.0,-0.020468278208561782,-0.018237494629400584,-0.03656593352152667,0.01986724459374438,-0.026368324109850974,-0.012201966043990289
375,7.0,299.71272,367.79631,0.0,0.0,0.0,0.0,-0.0037375535939328085,0.0,-0.043748020456343455,-0.036037597561633966,-0.03201527736141187,0.0007776576777838373,-0.006844190419294004,-0.0024286435606384574
376,7.0,300.27667,289.13455,0.0,0.0,0.0,0.0,-0.003747520403516629,0.0,-0.09183487815264682,-0.024761959957815178,0.028707155613425676,-0.03403798395303746,-0.04085519344734367,-0.0051064862561709555
377,7.0,299.84644,16.200758999999998,0.0,0.0,0.0,0.0,-0.0037574872131004495,0.0,-0.006900971840322894,-0.0015479951707502286,0.003524340909350366,-0.012100092865686187,-0.02370452708720468,-0.005872688148589194
378,7.0,301.50549,222.07837,0.0,0.0,0.0,0.0,-0.003767454022684271,0.0,-0.003932779288885096,-0.06799828303415803,0.004424783038617086,0.000986715126646201,-0.02672364457541837,-0.018127465801041586
379,7.0,300.85375,524.77417,0.0,0.0,0.0,0.0,-0.0037774208322680913,0.0,0.0014606333550782888,-0.05407903133643486,-0.10689984112269289,-0.004787814337445485,-0.03066657460380527,-0.001249884427028989
380,7.0,300.82919,444.86065999999994,0.0,0.0,0.0,0.0,-0.0037873876418519125,0.0,-0.04299833595910536,-0.04936023138847555,-0.04286796512173876,-0.015643048496598685,-0.04726797936298636,-0.002362392101524948
381,7.0,299.71872,293.25469,0.0,0.0,0.0,0.0,-0.003797354451435733,0.0,-0.016315382494452885,-0.03651947499119157,-0.03630724671799626,-0.016845372078508784,-0.02139268856629398,0.005483879159266735
382,7.0,298.98282,199.14052,0.0,0.0,0.0,0.0,-0.003807321261019554,0.0,-0.07917896086510502,0.006483135059485614,0.012162079453803789,0.003340040443361327,-0.02679512531697297,0.012608632958375188
383,7.0,298.93969,409.84562,0.0,0.0,0.0,0.0,-0.003817288070603375,0.0,-0.027846205109456474,-0.046497228382919156,-0.05023940215574295,-0.009439852249565882,-0.025729560101059874,0.013462153299361087
384,7.0,299.51941,603.75345,0.0,0.0,0.0,0.0,-0.0038272548801871957,0.0,-0.05142259760226525,-0.05207532014443395,-0.08002805735615433,-0.01000378865039707,-0.08447401134368583,0.0007174530824846063
385,7.0,299.75819,438.45127,0.0,0.0,0.0,0.0,-0.003837221689771017,0.0,-0.003554553595532127,-0.05005630380967255,-0.07966737882405812,-0.03189748197103637,-0.05160055978357875,0.03213134820011717
386,7.0,300.12838,157.7441,0.0,0.0,0.0,0.0,-0.003847188499354837,0.0,-0.014219961022650886,-0.041682509114243364,0.007952202100446242,0.006411041605595544,-0.03567452167980117,-0.03194112163959327
387,7.0,300.41199,169.76483000000002,0.0,0.0,0.0,0.0,-0.0038571553089386578,0.0,-0.03227054849885517,-0.01306254671167299,-0.006271173575041644,-0.02372703137192568,-0.027054074552279272,0.005120622412291086
388,7.0,300.92872,467.72965999999997,0.0,0.0,0.0,0.0,-0.0038671221185224793,0.0,-0.07323799283202713,-0.07476313485604692,0.005822991068284474,0.005561496447401964,-0.026376274070135576,-0.028669487027708072
389,7.0,300.86886,581.08291,0.0,0.0,0.0,0.0,-0.0038770889281062996,0.0,-0.07025522163815053,-0.03574567615482356,-0.07063379720676304,-0.027929018040129473,-0.01801797804823598,0.03185564690090757
390,7.0,301.02482000000003,408.08197,0.0,0.0,0.0,0.0,-0.0038870557376901203,0.0,-0.03645804467737886,-0.03072041263461867,-0.05686827074796135,0.02133699020829698,-0.029142930163433268,-0.0035632961200449467
391,7.0,299.6488,154.57287,0.0,0.0,0.0,0.0,-0.003897022547273942,0.0,0.024020243659363477,-0.017693178702180783,-0.05331335673936865,-0.02235621443088658,-0.030199074179916574,0.021498195259456683
392,7.0,299.90058,464.39647,0.0,0.0,0.0,0.0,-0.0039069893568577626,0.0,-0.05041363557668845,-0.03552080859988087,-0.055230486723574654,-0.026778347921817176,-0.05315392487588395,0.004308366782952696
393,7.0,299.63062,721.05449,0.0,0.0,0.0,0.0,-0.003916956166441583,0.0,-0.0930946651742281,-0.06033897354074304,-0.06574892151441333,-0.04621801515886296,-0.020095342390005877,0.009543587376253741
394,7.0,299.83537,455.55107000000004,0.0,0.0,0.0,0.0,-0.003926922976025403,0.0,-0.1044469855456149,-0.03548083689668597,0.0014516714619188188,-0.022958437601321376,-0.019378284545987782,-0.009151879681045201
395,7.0,298.88944,102.48279000000001,0.0,0.0,0.0,0.0,-0.003936889785609225,0.0,-0.003104812102171097,-0.013911027146661486,-0.014136369915901089,0.008445252740181552,-0.020547739307903982,-0.013163499858886289
396,7.0,300.11407,59.467096999999995,0.0,0.0,0.0,0.0,-0.003946856595193045,0.0,-0.005428895953190314,-0.02344838151492508,0.010800764772202489,0.033297356898443264,-0.06625090587895534,-0.017310061746620087
397,7.0,299.67289,360.36816,0.0,0.0,0.0,0.0,-0.0039568234047768665,0.0,0.0012349864081586687,-0.03024831104202587,-0.08052959791715253,0.04066706127477646,-0.057806233325781047,-0.004011775711731436
398,7.0,300.55311,477.30009,0.0,0.0,0.0,0.0,-0.003966790214360688,0.0,-0.04146532604805906,-0.043525568489639156,-0.06009641565230445,0.03154027584703287,-0.04052960173971026,0.008731300842787303
399,7.0,299.43284,213.08681,0.0,0.0,0.0,0.0,-0.003976757023944508,0.0,-0.025627244132462076,-0.029023471016393576,-0.010122353705548532,-0.020146933032097483,-0.02138399589368608,-0.0036105866300371564
400,7.0,299.78882000000004,147.72416,0.0,0.0,0.0,0.0,-0.003986723833528329,0.0,-0.03030971095833557,-0.013012488103732588,-0.0015822568043315883,-0.038482922663968765,-0.044720949281864056,0.025665594635496974
401,7.0,300.69107,627.76755,0.0,0.0,0.0,0.0,-0.00399669064311215,0.0,-0.05377741413941755,-0.06491050062641764,-0.07213774609169123,-0.07517198228464703,-0.009429763926270242,0.025935698741154176
402,7.0,301.22581,872.2717,0.0,0.0,0.0,0.0,-0.00400665745269597,0.0,-0.0969006433058489,-0.061834739417863646,-0.10641343041218791,-0.038160713185169164,0.0036165256941732963,0.016859392420142484
403,7.0,300.8004,568.57143,0.0,0.0,0.0,0.0,-0.0040166242622797915,0.0,-0.027617171070102576,-0.05541573417310714,-0.08979861326143311,-0.022868754834970376,-0.014609283121823986,0.01921625065624628
404,7.0,301.24297,108.20571000000001,0.0,0.0,0.0,0.0,-0.004026591071863612,0.0,0.009827142782288481,-0.04045727696082236,-0.0022616998662123976,0.01058052777021679,-0.04587689134044666,-0.023000008213174078
405,7.0,299.61428,99.286527,0.0,0.0,0.0,0.0,-0.004036557881447433,0.0,-0.04099177044157276,0.012695167556665488,-0.0018840221385135083,0.006847656139936044,-0.031113388513652373,0.016302387561920383
406,7.0,299.77955,532.21485,0.0,0.0,0.0,0.0,-0.004046524691031254,0.0,-0.08191582031271202,-0.05184217433617425,-0.028022031359559173,0.010125199114479351,-0.022733358277107776,-0.016302946875975586
407,7.0,299.36517000000003,382.90993,0.0,0.0,0.0,0.0,-0.004056491500615074,0.0,-0.04263170154292137,-0.03343426015920457,-0.04032909575692186,-0.01185136935038909,-0.014091381611461087,-0.00041361785060090364
408,7.0,299.17155,100.23333000000001,0.0,0.0,0.0,0.0,-0.0040664583101988954,0.0,0.003333954863260727,-0.017945334095566583,-0.015857049957468988,-0.012696694524566187,-0.058278459548136145,-0.014675363240345587
409,7.0,299.42114,55.747655,0.0,0.0,0.0,0.0,-0.004076425119782716,0.0,0.06314653150082744,-0.023634360531029776,-0.05645806556422724,0.008812210991097512,-0.03500403382362917,-0.006346036545430044
410,7.0,300.47135,279.83688,0.0,0.0,0.0,0.0,-0.004086391929366537,0.0,-0.01925082173640818,-0.03445964595565226,-0.03135295630104587,0.00871816689234108,-0.044821019888240256,0.013145806485640088
411,7.0,300.8708,662.89248,0.0,0.0,0.0,0.0,-0.004096358738950358,0.0,-0.06353474713089134,-0.058883687005117445,-0.07908432634551534,0.008510412827612352,-0.056163405342396534,0.011407040943037289
412,7.0,300.95907,541.51679,0.0,0.0,0.0,0.0,-0.004106325548534178,0.0,-0.08746764964488492,-0.05256188993520466,-0.024578042905663976,-0.011564610452838188,-0.04772996061358036,0.00024417913926110473
413,7.0,299.88077000000004,-8.6163398,0.0,0.0,0.0,0.0,-0.004116292358117999,0.0,0.012162890053883789,0.0035320304643592666,-0.013075768612227886,-0.0023902314519974777,-0.017961401202402284,-0.0075741216058326025
414,7.0,300.0202,54.067299,0.0,0.0,0.0,0.0,-0.00412625916770182,0.0,-0.03469838895746437,0.0009035580557092373,0.017359722147271186,0.005933272195918374,0.012460051990211387,-0.002849292009178227
415,7.0,300.2507,470.62490999999994,0.0,0.0,0.0,0.0,-0.004136225977285642,0.0,-0.017641884942368482,-0.061985742053766446,-0.06343059413986224,-0.022207173447177375,0.011188183987687788,-0.02304142075801118
416,7.0,299.41853,330.04965,0.0,0.0,0.0,0.0,-0.004146192786869462,0.0,-0.04976236907491345,-0.018934950136984083,-0.03162953406159197,-0.02280180737436318,-0.026599578180173975,0.014767063387645685
417,7.0,299.71481,120.42995,0.0,0.0,0.0,0.0,-0.004156159596453282,0.0,-0.0025542567834855173,-0.03634963400942957,0.002296193939366698,-0.025803637802620773,-0.03728127593312546,0.004472479557924365
418,7.0,299.76227,-17.645806,0.0,0.0,0.0,0.0,-0.004166126406037104,0.0,-0.015858876847399284,0.015013339903951286,0.0062094211490221545,4.432145516493706e-05,-0.04153982323516136,0.015422046490787487
419,7.0,298.93872000000005,416.62236,0.0,0.0,0.0,0.0,-0.004176093215620924,0.0,-0.04147018154253826,-0.03673217645218357,-0.04844043537169875,0.01932737278146318,-0.07929730645028484,0.02147473041364088
420,7.0,299.23421,809.01555,0.0,0.0,0.0,0.0,-0.004186060025204745,0.0,-0.07556159417334872,-0.08662331238955533,-0.08373562053206232,0.014073960802491787,-0.060493978514540844,-0.0070669000554987324
421,7.0,300.18334,499.33498,0.0,0.0,0.0,0.0,-0.004196026834788567,0.0,-0.03568442518627857,-0.05672653327097295,-0.059374407068297747,0.011524125031842589,-0.048191100866591355,0.004540558312268216
422,7.0,300.07043,33.951826000000004,0.0,0.0,0.0,0.0,-0.004205993644372387,0.0,-0.005665820779022974,-0.009988727903560691,0.0053340414570039055,-0.003532761726956437,-0.026982045642420575,-0.0032162904861231566
423,7.0,300.15546,-40.856988,0.0,0.0,0.0,0.0,-0.004215960453956208,0.0,-0.013725150468816885,0.017382190968238682,0.008762462539012722,-0.025296600359830078,-0.03226719058802377,0.015027905374138787
424,7.0,300.29906,292.30716,0.0,0.0,0.0,0.0,-0.004225927263540028,0.0,-0.028639068246455974,-0.033340182927169865,-0.026874828583089077,-0.017187021773726986,-0.053243092911184155,-0.0002530046692221168
425,7.0,300.00692000000004,391.86325,0.0,0.0,0.0,0.0,-0.0042358940731238495,0.0,-0.03121670050709847,-0.03686425664246887,-0.051035686025080046,-0.021347571579091278,-0.03378455591752607,0.00047675919932746956
426,7.0,300.23068,314.8239,0.0,0.0,0.0,0.0,-0.004245860882707671,0.0,-0.02990765737165597,-0.036513088475811264,-0.02927785961299977,-0.03005042329749587,-0.01707490970316238,-0.008773573029009241
427,7.0,299.48314,163.24503,0.0,0.0,0.0,0.0,-0.004255827692291491,0.0,-0.02130233806812708,-0.02642271334871877,-0.0018973603601798886,-0.0035099257041526968,-0.03529752070184407,-0.026834170909576474
428,7.0,299.7868,438.30927,0.0,0.0,0.0,0.0,-0.004265794501875312,0.0,-0.06521212795593594,-0.05736923375640254,-0.01065371279843959,-0.014238501472980685,-0.016348378983959383,0.018194871250693984
429,7.0,300.17965,645.2404799999999,0.0,0.0,0.0,0.0,-0.004275761311459132,0.0,-0.07662334044963492,-0.05260828057778305,-0.06690537425104634,0.006694322927478234,-0.022024119684111377,0.005567281700172925
430,7.0,300.11852999999996,425.64643,0.0,0.0,0.0,0.0,-0.004285728121042953,0.0,-0.04825847490549065,-0.013464759378618288,-0.06766265407103404,-0.0015507713746992185,-0.028529847991676772,0.05495628706101324
431,7.0,300.15481,51.014806,0.0,0.0,0.0,0.0,-0.0042956949306267745,0.0,0.016144216181560086,-0.019162480513189584,-0.012488963055314687,-0.008982219564426052,-0.05698522615400394,-0.024226226258942374
432,7.0,299.98303,-44.745661,0.0,0.0,0.0,0.0,-0.004305661740210595,0.0,0.007575753343793642,0.025805510288805577,-0.01977970079835448,-0.004060014319842216,-0.06322367833694123,0.00962684005747014
433,7.0,300.09827,374.87699,0.0,0.0,0.0,0.0,-0.004315628549794416,0.0,-0.03158145433109687,-0.062442358145080944,-0.01992943281863188,0.003754127286903517,-0.05798539620846304,-0.05614366317744815
434,7.0,300.05975,652.0862599999999,0.0,0.0,0.0,0.0,-0.004325595359378236,0.0,-0.10917081830682089,-0.047461237567809456,-0.04158588153170696,-0.002928492196619677,-0.017067068160638483,0.007487712549229693
435,7.0,299.96101,385.48497000000003,0.0,0.0,0.0,0.0,-0.004335562168962057,0.0,-0.04808747577886436,-0.029356931624303573,-0.039733398930381164,-0.024881772729139776,-0.04474198334068996,-0.019260725242885583
436,7.0,300.48202000000003,114.08443999999999,0.0,0.0,0.0,0.0,-0.004345528978545878,0.0,-0.009575791098882002,-0.01896597686829618,-0.006137053712305045,-0.028707493025708974,-0.02404652838020758,0.014914899616985985
437,7.0,300.49615,227.30856,0.0,0.0,0.0,0.0,-0.004355495788129699,0.0,0.010393557795514291,-0.017341644752237085,-0.062148039388533936,-0.03253144621410377,-0.029384094832984375,0.017370149504050286
438,7.0,301.04814,660.0618900000001,0.0,0.0,0.0,0.0,-0.004365462597713521,0.0,-0.07286680486989372,-0.03921945010865836,-0.08855607884930451,-0.014053597515232089,-0.001090881674961639,0.02896607343797887
439,7.0,300.03767999999997,656.0488799999999,0.0,0.0,0.0,0.0,-0.004375429407297341,0.0,-0.08412574411206451,-0.05704504641340774,-0.05825168644074385,-0.016105236450213088,-0.051247961921030045,0.023470083305566877
440,7.0,299.82787,312.01792,0.0,0.0,0.0,0.0,-0.004385396216881161,0.0,-0.06167509882485834,-0.006994111816015094,-0.02617644493841398,-0.01786172171056468,-0.04905533835388495,0.03263389998471517
441,7.0,299.76558,90.628934,0.0,0.0,0.0,0.0,-0.004395363026464983,0.0,-0.004020788166070897,-0.01053282091575849,-0.012995323647038587,-0.01923394402949248,-0.04157349454923446,0.011244952337790388
442,7.0,300.02488999999997,418.74754,0.0,0.0,0.0,0.0,-0.0044053298360488035,0.0,-0.02998483460527277,-0.03454766395208897,-0.06275629646331424,-0.02128992879415238,-0.02489697958664058,0.015357884454705184
443,7.0,299.27965,570.75214,0.0,0.0,0.0,0.0,-0.004415296645632624,0.0,-0.023337919015523276,-0.05128014781045655,-0.09887633306633431,-0.03031624946123087,-0.06896792386310414,-0.01708531578168938
444,7.0,300.51842,299.66736000000003,0.0,0.0,0.0,0.0,-0.004425263455216445,0.0,-0.03251951114117587,-0.037471980747696566,-0.021099903870398378,-0.029108862668571073,-0.06299326729070144,-0.025641941325162575
445,7.0,298.97992999999997,-223.91473,0.0,0.0,0.0,0.0,-0.004435230264800266,0.0,0.02435563653521418,0.012295496120970988,0.031413355126256766,-0.004679678158948276,-0.032306816772934566,-0.04503990926759296
446,7.0,299.93093,1.462965,0.0,0.0,0.0,0.0,-0.004445197074384087,0.0,-0.04325115604455676,0.010148336072562792,0.032658114635604966,-0.020763873660234782,0.008620493331726452,0.0012405265557304387
447,7.0,300.87952,613.65404,0.0,0.0,0.0,0.0,-0.004455163883967907,0.0,-0.06574184801546523,-0.06663328417519314,-0.05416037404121274,-0.026774707314207873,-0.04141670726851076,-0.007471792161008473
448,7.0,300.01631000000003,577.4123099999999,0.0,0.0,0.0,0.0,-0.0044651306935517285,0.0,-0.06611916918045393,-0.01999169197102638,-0.08940806107663861,-0.05332917965293025,-0.046867065682669254,0.054401768718536546
449,7.0,301.50101,308.91053999999997,0.0,0.0,0.0,0.0,-0.004475097503135549,0.0,0.02075626415198378,-0.05454792700571125,-0.06010942781008864,-0.010742369142439291,-0.05624005973896174,-0.0005748804239687804
450,7.0,301.60121000000004,173.82628,0.0,0.0,0.0,0.0,-0.00448506431271937,0.0,-0.014465378302871685,0.004171659788735766,-0.04254513148087755,0.016248719757123786,-0.02551735209286658,0.04566840905287105
451,7.0,300.4764,598.55513,0.0,0.0,0.0,0.0,-0.004495031122303191,0.0,-0.07467889324273293,-0.056354277343234144,-0.050912643012436656,0.015850039280027088,-0.07854283738607452,-0.01147984093622209
452,7.0,301.15583,822.31511,0.0,0.0,0.0,0.0,-0.004504997931887011,0.0,-0.1278215811750079,-0.07016881977562334,-0.05197285725457165,0.0036526904140924766,-0.04918387926157095,0.0028842165109750073
453,7.0,300.72548,372.67439,0.0,0.0,0.0,0.0,-0.004514964741470832,0.0,-0.04396565644532246,-0.025446942356667678,-0.04387111210499166,-0.01165557396731559,-0.03494219820977647,-0.03272927519012797
454,7.0,299.83617000000004,-66.770653,0.0,0.0,0.0,0.0,-0.004524931551054653,0.0,0.04016161463464276,-0.003213141507462377,-0.016651861574410783,-0.024643330662607377,-0.0033581221953708565,0.0014900826586347086
455,7.0,300.28996,-9.247542800000002,0.0,0.0,0.0,0.0,-0.004534898360638474,0.0,0.034266514407091664,-0.003354027753041767,-0.028101464087898573,-0.03625686994952446,-0.03749325089379576,-0.017100783044465884
456,7.0,299.32819,384.05064,0.0,0.0,0.0,0.0,-0.004544865170222295,0.0,-0.04426111713473216,-0.02177066429084728,-0.05071002338993965,-0.042229125119190164,-0.04516090956803475,0.013453916589298186
457,7.0,299.68709,497.65802,0.0,0.0,0.0,0.0,-0.004554831979806115,0.0,-0.08622726332296832,-0.04471765216603866,-0.02033069708348358,0.0037524532964133064,-0.03553150649443667,-0.005098566389414325
458,7.0,300.15767999999997,252.37517000000003,0.0,0.0,0.0,0.0,-0.004564798789389936,0.0,-0.02985945807764907,-0.019938242015001283,-0.026918048766104576,-0.006428701642913454,-0.03592135345716157,0.017017342911980985
459,7.0,301.21952999999996,202.55762,0.0,0.0,0.0,0.0,-0.004574765598973757,0.0,-0.012617387439239187,-0.03066362300626397,-0.018291449183975482,-0.004400903672185375,-0.08181625734463592,-0.011830540981333487
460,7.0,301.08317,610.32011,0.0,0.0,0.0,0.0,-0.004584732408557578,0.0,-0.04863207946911255,-0.05433642624608775,-0.08255356803165283,-0.02921150186395077,-0.08379603962227522,0.015423237059654985
461,7.0,300.26841,683.1859099999999,0.0,0.0,0.0,0.0,-0.0045946992181414,0.0,-0.06331766944271744,-0.05548402013709645,-0.08886976892126332,0.00991411895497236,-0.05555803603040124,-0.017538726962937585
462,7.0,299.92224,408.71772999999996,0.0,0.0,0.0,0.0,-0.00460466602772522,0.0,-0.04903455760758405,-0.04749318027721196,-0.027712245340235676,0.00014391269190557686,-0.027098615000175078,0.007538110291978562
463,7.0,299.38974,-19.958037,0.0,0.0,0.0,0.0,-0.00461463283730904,0.0,-0.008925810918108951,-0.01076373453404789,0.025756289638697874,-0.0037233508283661164,-0.038169074524994365,-0.039275223447162756
464,7.0,298.2831,125.17602,0.0,0.0,0.0,0.0,-0.0046245996468928605,0.0,-0.030015834992082272,-0.007825246219891672,-0.0002093025641940548,-0.03679278907316556,-0.017413149811794083,-0.0015689757299708485
465,7.0,299.84933,464.08342999999996,0.0,0.0,0.0,0.0,-0.0046345664564766825,0.0,-0.03991318293537446,-0.04147607055211946,-0.05968052106925885,-0.02446847105310008,-0.03837093826291676,-0.028541425387319373
466,7.0,299.72564,373.76973,0.0,0.0,0.0,0.0,-0.004644533266060503,0.0,-0.03165023678763517,-0.014609410791336586,-0.06735701832412014,-0.009262330832045881,-0.01112036209224429,0.04359230924722596
467,7.0,300.70795,283.33679,0.0,0.0,0.0,0.0,-0.004654500075644324,0.0,0.003532091867315327,-0.05532068320772635,-0.03433871860921767,-0.019826159328689582,-0.07739579065011983,-0.015641270242673186
468,7.0,300.6007,367.85537999999997,0.0,0.0,0.0,0.0,-0.004664466885228145,0.0,-0.07810683789454473,-0.012836539250367788,-0.02087547403949888,-0.008130524086870252,-0.05140379269365935,0.036894818291985064
469,7.0,299.99973,570.64532,0.0,0.0,0.0,0.0,-0.004674433694811965,0.0,-0.10020266630148321,-0.038966624956956464,-0.03429263599466967,-0.00037507895397491067,-0.044961718783876156,-0.015317376742207385
470,7.0,300.03283999999996,713.7286,0.0,0.0,0.0,0.0,-0.0046844005043957864,0.0,-0.09301461436332771,-0.06094669257972024,-0.06299436565380985,0.01071717974495329,-0.03812612690625576,0.025946371304457472
471,7.0,300.07896,367.28222999999997,0.0,0.0,0.0,0.0,-0.004694367313979608,0.0,-0.026023615412580872,-0.035361788115936765,-0.05025922436744925,-0.025008712701667775,-0.08020506505587362,-0.025775588000102476
472,7.0,299.45604,47.130959000000004,0.0,0.0,0.0,0.0,-0.004704334123563428,0.0,0.024917508033666578,-0.028026808833780673,-0.011217334179814688,-0.016016115024417486,-0.03411339509172997,-0.012610086972268689
473,7.0,300.68799,69.503415,0.0,0.0,0.0,0.0,-0.004714300933147249,0.0,0.008673054667413851,-0.009096020013632281,-0.02070433711085898,-0.007230807748650164,-0.011823450257133689,-0.01856953770042068
474,7.0,299.88651,304.8611,0.0,0.0,0.0,0.0,-0.004724267742731069,0.0,-0.032078410948642666,-0.03913702525277367,-0.021454726830166682,0.0025977762805805575,-0.009936881415818841,-0.010223565839487391
475,7.0,300.72832999999997,383.11712,0.0,0.0,0.0,0.0,-0.00473423455231489,0.0,-0.054033184809160154,-0.03970023018835766,-0.02272462304799568,-0.012437454486481187,-0.06701106434247714,0.006459371203565304
476,7.0,300.82914,198.42356999999998,0.0,0.0,0.0,0.0,-0.0047442013618987115,0.0,-0.01641958310823668,-0.019384905122141183,-0.02451132139982908,-0.00901200172064032,-0.06310817897129234,-0.012398328847119788
477,7.0,300.48475,114.34427,0.0,0.0,0.0,0.0,-0.004754168171482532,0.0,0.0009810073469778873,-0.02252124247467358,-0.013217565870972186,-0.017962317180492682,-0.03729905644588026,-0.0019030286838893082
478,7.0,300.07894,484.07757999999995,0.0,0.0,0.0,0.0,-0.004764134981066353,0.0,-0.03271473606444307,-0.02597842749787118,-0.0884543343537631,-0.02021446919101278,-0.01909999033977228,-0.008566185558166692
479,7.0,300.13394,754.37628,0.0,0.0,0.0,0.0,-0.004774101790650173,0.0,-0.07701372646141302,-0.06077694279046724,-0.09152088309240791,-0.04262046459931237,-0.06590122009719404,0.01637714110129798
480,7.0,299.53181,279.87756,0.0,0.0,0.0,0.0,-0.004784068600233995,0.0,-0.051437956447281045,-0.033161536802038864,-0.0004762966911868235,-0.02915326227470297,-0.04516632032356875,-0.006830147279533055
481,7.0,300.54175,108.88888,0.0,0.0,0.0,0.0,-0.004794035409817816,0.0,-0.027465095402343875,0.0025954052753465575,-0.008229809627068973,-0.014178967963355186,-0.03841395376941206,0.02176038081558238
482,7.0,299.98786,191.8626,0.0,0.0,0.0,0.0,-0.004804002219401636,0.0,-0.003974555793158116,-0.018430875437485783,-0.035916008562884065,0.001027147230421539,-0.017050626151265784,0.01914955448166388
483,7.0,300.82995,466.55942999999996,0.0,0.0,0.0,0.0,-0.004813969028985457,0.0,-0.02996813219062437,-0.03850046303644986,-0.07335382049070842,0.0007908058137314573,-0.07492656804417652,0.01038711149837809
484,7.0,299.16661,480.94455,0.0,0.0,0.0,0.0,-0.004823935838569277,0.0,-0.03122680463709567,-0.04638020711562005,-0.06858812226187064,0.0006018555126360144,-0.07705530720576673,-0.006211333050635844
485,7.0,299.8801,378.89097000000004,0.0,0.0,0.0,0.0,-0.004833902648153099,0.0,-0.04980081583670786,-0.04357859693362266,-0.021793980188898377,0.017124093876266486,-0.03676447177262086,0.004446710176081126
486,7.0,300.49213,254.57533999999998,0.0,0.0,0.0,0.0,-0.00484386945773692,0.0,-0.05999379266892635,-0.0015588051307670885,-0.015831948712741684,0.005303951475409255,-0.015530728709763587,0.01202769513279109
487,7.0,300.85686,425.81198,0.0,0.0,0.0,0.0,-0.0048538362673207405,0.0,-0.05461508218258895,-0.03917933655044946,-0.03564179167507096,-0.029306422120068672,-0.03512616896418296,0.012624140751155689
488,7.0,299.34226,597.17742,0.0,0.0,0.0,0.0,-0.004863803076904562,0.0,-0.05124596683158315,-0.06875008826385542,-0.06153096703788364,-0.043527428816822755,-0.039880642408412964,-0.01061968988658179
489,7.0,299.69844,402.33431,0.0,0.0,0.0,0.0,-0.004873769886488381,0.0,-0.011907068721636188,-0.015509292390647984,-0.09488322486649522,-0.01929474612824318,-0.03847674589135917,0.016926811042046182
490,7.0,298.75717000000003,-60.03156,0.0,0.0,0.0,0.0,-0.004883736696072202,0.0,0.039634429726863665,-0.03216603073779007,0.010779695249623092,-0.02665451457409577,-0.049051756514781455,-0.03677863802226897
491,7.0,299.89269,-13.678723000000002,0.0,0.0,0.0,0.0,-0.004893703505656024,0.0,-0.013288990883771288,0.008693104961717662,0.008753875751040273,-0.016410690825359085,-0.07166259968254794,0.0018932533535495582
492,7.0,300.74251,414.5474,0.0,0.0,0.0,0.0,-0.004903670315239844,0.0,-0.07694237338937102,-0.03562021350094136,-0.013449469434609286,-0.01051698381669549,-0.06543082988402014,-0.04230222807415485
493,7.0,299.14296,414.96418,0.0,0.0,0.0,0.0,-0.0049136371248236655,0.0,-0.046556254254244554,-0.04424765205415326,-0.03533484275602747,-0.00015187367635126486,-0.017498517145969183,0.004366947837484196
494,7.0,299.62438,178.97593999999998,0.0,0.0,0.0,0.0,-0.004923603934407486,0.0,-0.008427849865739023,-0.008161811730083101,-0.037814556553506164,-0.008444611960818312,-0.02206198585359848,0.006924223295667634
495,7.0,300.66391,203.01172,0.0,0.0,0.0,0.0,-0.004933570743991308,0.0,0.03020248376650307,-0.027827459982606474,-0.06408551746124815,-0.02071311388322518,-0.04615962054234986,0.032355184266458066
496,7.0,301.19624,457.19314,0.0,0.0,0.0,0.0,-0.004943537553575128,0.0,-0.013754743451237486,-0.07289258397893794,-0.05232797000386854,-0.01969462831995848,-0.06271968064445053,-0.0015470308606300586
497,7.0,300.9682,797.72605,0.0,0.0,0.0,0.0,-0.004953504363158948,0.0,-0.1074617490981489,-0.05253753748230125,-0.08248951441333122,-0.015930206614688983,-0.048091446706006256,0.025988527574867977
498,7.0,300.76243999999997,748.51941,0.0,0.0,0.0,0.0,-0.004963471172742769,0.0,-0.1253552493715999,-0.07007163794528223,-0.03210431975369967,-0.009145810008971172,-0.047128678752488454,-0.00959496098017392
499,7.0,300.70185,261.26656,0.0,0.0,0.0,0.0,-0.00497343798232659,0.0,-0.05861158983651354,-0.007148436291045733,-0.013658484691737489,-0.03842888502288566,-0.060360228488090736,0.008671548471140201
500,7.0,300.50696,176.67397,0.0,0.0,0.0,0.0,-0.004983404791910412,0.0,-0.0087772811190752,-0.021083021097232178,-0.023844174229236775,-0.007132827173255233,-0.03301468646504587,-0.03066665870356357
501,7.0,299.75923,413.92557999999997,0.0,0.0,0.0,0.0,-0.004993371601494233,0.0,-0.00010738053710263387,-0.04802128521608186,-0.07769437417633772,-0.01073574147353519,0.0007613256161794884,-0.009268141922694392
502,7.0,300.06102999999996,388.28401,0.0,0.0,0.0,0.0,-0.005003338411078052,0.0,-0.012572807474589488,-0.03383180478293917,-0.07162403133074152,0.01035259310722139,-0.03147410656250247,-0.003659815690120686
503,7.0,299.26547,15.284488,0.0,0.0,0.0,0.0,-0.005013305220661873,0.0,-0.007814924545098002,0.00022419975219929275,0.002944621922311557,-0.046506989021132455,-0.07204833284986684,0.005257507637200605
504,7.0,298.95493999999997,23.13494,0.0,0.0,0.0,0.0,-0.005023272030245694,0.0,-0.004802286892598815,-0.019230370296389784,0.01700021290579038,0.006844141681964193,-0.06514985360478995,-0.01113627923806519
505,7.0,300.17942999999997,435.08235,0.0,0.0,0.0,0.0,-0.005033238839829515,0.0,-0.04184762531078906,-0.04356545913282606,-0.046841084936855154,-0.008217153626694923,-0.04636780392114596,0.02548678841685018
506,7.0,300.3604,618.7545299999999,0.0,0.0,0.0,0.0,-0.005043205649413337,0.0,-0.04711582567496995,-0.07174161089884573,-0.06922848923231993,0.013662070583841387,-0.04452099754688036,-0.008757740185596663
507,7.0,299.88818,589.56876,0.0,0.0,0.0,0.0,-0.005053172458997157,0.0,-0.04324313718326536,-0.04198377066047556,-0.09398727366432172,-0.04390992971632266,-0.06408187482713865,0.03463234328944617
508,7.0,300.57021000000003,317.28517,0.0,0.0,0.0,0.0,-0.005063139268580978,0.0,-0.010829418471780388,-0.04296319745888746,-0.042654153138637164,-0.004266877231107996,-0.04973098567956615,-0.013884729253566087
509,7.0,300.36571000000004,165.35165,0.0,0.0,0.0,0.0,-0.0050731060781647975,0.0,-0.049527828021266054,-0.027218578745764575,0.02648363399773118,-0.007494436375568283,-0.030964032409162068,0.005260599265905725
510,7.0,300.32125,348.6167,0.0,0.0,0.0,0.0,-0.005083072887748619,0.0,-0.07033827268259703,-0.029978612236408676,-0.005653886719345175,0.0015861156660124283,-0.055777633671573845,-0.029995507168576074
511,7.0,301.44762000000003,361.77877,0.0,0.0,0.0,0.0,-0.005093039697332441,0.0,-0.06648467280952634,-0.02784700659028557,-0.015640033064301086,-0.037211059727695665,-0.07346794183622132,0.0020694277563866183
512,7.0,300.11633,-19.517543,0.0,0.0,0.0,0.0,-0.005103006506916261,0.0,0.01123351477066159,-0.0037288650367353266,-0.0015718043189500085,-0.028332110208161575,-0.03988173469202076,-0.054889758072697345
513,7.0,300.32575,-9.1289564,0.0,0.0,0.0,0.0,-0.005112973316500082,0.0,0.03841645345740876,-0.006828098285180832,-0.02881338070090927,-0.012648338176793788,-0.002413045993899098,0.013678800356242487
514,7.0,300.68913,412.86158,0.0,0.0,0.0,0.0,-0.005122940126083902,0.0,-0.014495176975062586,-0.06343505345355234,-0.04756938276423255,-0.01246354668980629,-0.02930482827766137,0.00036410434081680064
515,7.0,300.61685,686.78658,0.0,0.0,0.0,0.0,-0.0051329069356677234,0.0,-0.08757656288488382,-0.03392317461070667,-0.08726623477675682,-0.019702874149272284,-0.05593523053912744,0.055226884619469147
516,7.0,300.18802999999997,677.82374,0.0,0.0,0.0,0.0,-0.005142873745251545,0.0,-0.08920873046396623,-0.07675691417056764,-0.04007584807992826,0.01302305630227559,-0.07978488746465533,-0.004439433520487975
517,7.0,300.08693999999997,402.57791000000003,0.0,0.0,0.0,0.0,-0.005152840554835365,0.0,-0.04434081634784786,-0.03615250721572467,-0.04188030769276456,0.034790429556798064,-0.037909478836124264,0.015612901266373384
518,7.0,299.17039,179.41326,0.0,0.0,0.0,0.0,-0.005162807364419186,0.0,-0.028504723442197174,-0.02280772374169708,-0.003224705224228627,0.015852123535482786,-0.05364905662999965,-0.016532684110898883
519,7.0,299.98193,341.51582,0.0,0.0,0.0,0.0,-0.005172774174003006,0.0,-0.014627682730389887,-0.042959746329046866,-0.04622485358378786,-0.017808149151277482,-0.05422921121325645,0.0006222030945191644
520,7.0,299.77797000000004,334.11337000000003,0.0,0.0,0.0,0.0,-0.005182740983586827,0.0,-0.06450401812355094,-0.011270744619085888,-0.025787360953014375,-0.034254245974880866,-0.03558493821195996,-0.02067007405872748
521,7.0,300.4488,101.24287,0.0,0.0,0.0,0.0,-0.005192707793170649,0.0,-0.025107446831162075,-0.004739853461187115,-0.000928003008214266,-0.03256814613272577,0.004493138612888256,-0.006025311174051915
522,7.0,299.6789,-8.8975033,0.0,0.0,0.0,0.0,-0.00520267460275447,0.0,-0.004283579949731426,-0.019643572673919682,0.026631771162351176,-0.04319217272973556,-0.05015236701190325,-0.038984272733948167
523,7.0,299.92375,352.4822,0.0,0.0,0.0,0.0,-0.00521264141233829,0.0,-0.03345560123281077,-0.028786878131293676,-0.044903306942111365,-0.03863313395154346,-0.07712151195405063,-0.007014357566263193
524,7.0,300.18671,694.90933,0.0,0.0,0.0,0.0,-0.00522260822192211,0.0,-0.06729541575779044,-0.05750902072694844,-0.08643064794929083,-0.037106046487331665,-0.05649505628562795,-0.014490732860123987
525,7.0,300.18338,580.2838,0.0,0.0,0.0,0.0,-0.005232575031505931,0.0,-0.025611944055952077,-0.05756249297447574,-0.09321734848308601,0.01058655660831179,0.007452766161230753,0.006646434802577044
526,7.0,299.50351,167.98554,0.0,0.0,0.0,0.0,-0.005242541841089753,0.0,-0.01106647745192629,-0.020800453002094876,-0.01919647809379488,0.0019138456353318578,-0.029764703994547576,0.013707008225776387
527,7.0,301.04261,217.09335,0.0,0.0,0.0,0.0,-0.0052525086506735735,0.0,-0.01992173211787188,-0.020723881692037878,-0.025345342755890576,0.004117356270826426,-0.053822772280144045,0.016362799559382583
528,7.0,300.88388,422.81912,0.0,0.0,0.0,0.0,-0.005262475460257395,0.0,-0.07067969642304293,-0.03165282462839057,-0.026193933635139974,-0.015626421062457683,-0.06918867863589094,0.008300805123150682
529,7.0,301.28726,522.20763,0.0,0.0,0.0,0.0,-0.005272442269841215,0.0,-0.07180826958317443,-0.02257316242304768,-0.06435664900250673,0.009674829203406302,-0.06508219078961214,0.006157119104035344
530,7.0,300.56838999999997,362.67177000000004,0.0,0.0,0.0,0.0,-0.005282409079425035,0.0,-0.027595040674668475,-0.046726004043497554,-0.03592211643448687,-0.03234923243537067,-0.08024120768694062,-0.007997166998808933
531,7.0,300.5103,62.562054,0.0,0.0,0.0,0.0,-0.005292375889008856,0.0,0.004110062086006546,0.006402999439551843,-0.029530363564419973,-0.027863064577870373,-0.06189161415922674,8.131698849036192e-05
532,7.0,299.78406,418.33669,0.0,0.0,0.0,0.0,-0.0053023426985926774,0.0,-0.05607844330826144,-0.03082602065279137,-0.040259443931797756,-0.027297317397785473,-0.02432504651469518,-0.002648217795733747
533,7.0,299.98682,818.90462,0.0,0.0,0.0,0.0,-0.005312309508176499,0.0,-0.1183448252422249,-0.04940742655163336,-0.08117430463778012,-0.014792712800677088,0.015411278681974788,0.016322507669156085
534,7.0,299.94151,504.22868,0.0,0.0,0.0,0.0,-0.005322276317760319,0.0,-0.05304132340552104,-0.047144850224084454,-0.053086755513504856,-0.0040521993244709365,-0.035550390436550366,0.015605088094852285
535,7.0,299.56369,103.12131,0.0,0.0,0.0,0.0,-0.00533224312734414,0.0,0.004672740942138626,-0.031767374578695766,-0.004251668752407036,-0.02457154493277268,-0.08473977468591462,0.006912634348973894
536,7.0,299.78042,229.62753999999998,0.0,0.0,0.0,0.0,-0.00534220993692796,0.0,0.0025393099259603774,-0.03165801550865287,-0.04068233298028366,0.011160536445459189,-0.06816315909043003,0.015974404584050986
537,7.0,300.14504,534.1274599999999,0.0,0.0,0.0,0.0,-0.005352176746511781,0.0,-0.06676676771686693,-0.06016818719663774,-0.035426456777069064,-0.01081966999256829,-0.048643149226455046,-0.016130671054223285
538,7.0,299.51975,490.72913,0.0,0.0,0.0,0.0,-0.0053621435560956025,0.0,-0.048169108273170856,-0.059245049481031146,-0.041755243246171664,0.003033478079230977,-0.041470272735047255,0.0024167692827165577
539,7.0,300.63335,180.10947,0.0,0.0,0.0,0.0,-0.005372110365679423,0.0,-0.014329537941465288,-0.04972200119092945,0.009302755356710471,-0.06564049362121234,-0.060806584408892646,-0.03020321229332497
540,7.0,300.02876000000003,-18.892595999999998,0.0,0.0,0.0,0.0,-0.005382077175263244,0.0,0.012138229572949988,-0.01033942896192219,0.003944076926175087,-0.02208556519667558,-0.040941876993398664,-0.010043751436991091
541,7.0,299.84416,236.0575,0.0,0.0,0.0,0.0,-0.005392043984847066,0.0,-0.01989466922095098,-0.039685260431380265,-0.01217565497864359,-0.03527699124156796,-0.02330923694494258,-0.019203377313725782
542,7.0,300.62847999999997,464.88550999999995,0.0,0.0,0.0,0.0,-0.005402010794430886,0.0,-0.035209777296184464,-0.032890802454819464,-0.07321300608456113,-0.017287760111919084,-0.047537906149876054,0.014899191200685684
543,7.0,300.63324,434.20307,0.0,0.0,0.0,0.0,-0.005411977604014706,0.0,-0.03469173291755746,-0.039825396973210664,-0.05746976133857385,-0.027550291497252074,-0.07396671825094674,-0.0027892994972574274
544,7.0,300.63518,262.64842000000004,0.0,0.0,0.0,0.0,-0.005421944413598527,0.0,-0.03400021505555997,-0.024152668354682775,-0.02168567895195988,-0.0074369089998157735,-0.03817320655890217,0.02819214693209827
545,7.0,299.74699,451.60389000000004,0.0,0.0,0.0,0.0,-0.005431911223182348,0.0,-0.04525315281738846,-0.061002719230749645,-0.03102043598922867,-0.017820312205477883,-0.008708092957196862,-0.011244806429775989
546,7.0,298.3306,720.15677,0.0,0.0,0.0,0.0,-0.005441878032766169,0.0,-0.0998192575298937,-0.04326223796090046,-0.07582818230115893,-0.024581643996519374,-0.03750764005846586,0.03068413828103867
547,7.0,299.38653999999997,528.32335,0.0,0.0,0.0,0.0,-0.00545184484234999,0.0,-0.055920459379169646,-0.052621656492353154,-0.05205498928117745,-0.04451873191965676,-0.06456503705782304,0.005439199085507156
548,7.0,299.53598,160.22666,0.0,0.0,0.0,0.0,-0.005461811651933811,0.0,-0.006916128845918773,-0.026528170392626574,-0.015260604339104384,0.007608826941632753,-0.06014558867965744,0.037933061218951666
549,7.0,299.42987999999997,27.09126,0.0,0.0,0.0,0.0,-0.0054717784615176315,0.0,-0.023729643530683478,0.015926874035110086,-0.00043229685274937755,0.025603036574322974,-0.03691708344968247,0.009645114326998671
550,7.0,300.35604,361.75664,0.0,0.0,0.0,0.0,-0.005481745271101452,0.0,-0.06060254927600594,-0.030186024531878672,-0.019176411688814482,-0.015767072335338885,-0.05497078869644445,0.025807673577769075
551,7.0,300.30187,468.33505999999994,0.0,0.0,0.0,0.0,-0.005491712080685273,0.0,-0.048480136537116955,-0.04047358623443196,-0.05340844114200275,-0.023821478440246874,-0.1012207050214558,-0.016543447866711185
552,7.0,300.73713,456.65159000000006,0.0,0.0,0.0,0.0,-0.005501678890269093,0.0,-0.03849185750335057,-0.031016146901555373,-0.06930267535164153,-0.04146682667145716,-0.03717401226428937,-0.016423074768081285
553,7.0,300.95841,313.86412,0.0,0.0,0.0,0.0,-0.005511645699852915,0.0,-0.01858521470596788,-0.04987659883818705,-0.02694504377526877,-0.008646599112602892,-0.007922369991002043,-0.01335665369894909
554,7.0,300.74483,312.85156,0.0,0.0,0.0,0.0,-0.005521612509436735,0.0,-0.01775252070753738,-0.018052587631901682,-0.05929395399710765,-0.02118722576401638,-0.04618698538780055,0.009416613561172401
555,7.0,299.98832999999996,528.82053,0.0,0.0,0.0,0.0,-0.0055315793190205565,0.0,-0.05427827987584915,-0.06824576835783294,-0.03822418722443356,-0.0035781224008081865,-0.05537339450442854,-0.005028273480951955
556,7.0,299.0152,393.40659,0.0,0.0,0.0,0.0,-0.005541546128604377,0.0,-0.035902896093339964,-0.033284103587135266,-0.05039878133022245,-0.0035486859655280366,-0.04825918620706086,0.017844853122899882
557,7.0,299.29073999999997,-9.8531534,0.0,0.0,0.0,0.0,-0.005551512938188197,0.0,0.025455481015260375,-0.048164336878449954,0.025703968443284177,0.023026969785084977,-0.024720666976489874,-0.028002333777615178
558,7.0,299.92332999999996,-120.89575,0.0,0.0,0.0,0.0,-0.005561479747772019,0.0,0.007584955377226812,-0.004518006607442535,0.03368234026068817,-0.05168947146660365,-0.04924681323853205,-0.008440997900361631
559,7.0,300.19297,266.62169,0.0,0.0,0.0,0.0,-0.005571446557355839,0.0,-0.009727524186781892,-0.029452162948202174,-0.04186665009466666,-0.020737804761661982,-0.08555253602837792,-0.01980113306446968
560,7.0,300.79741,453.81854000000004,0.0,0.0,0.0,0.0,-0.00558141336693966,0.0,-0.038920452163149565,-0.03186633466296237,-0.06716271748494414,-0.04162457552652576,-0.06262666225877034,0.020210085871080183
561,7.0,299.59083,355.21571,0.0,0.0,0.0,0.0,-0.0055913801765234816,0.0,-0.05847852578038115,-0.016914000521031883,-0.03258418081555827,0.006743445798951284,-0.07259967769303034,-0.008944658281894042
562,7.0,299.52937000000003,463.36080999999996,0.0,0.0,0.0,0.0,-0.005601346986107302,0.0,-0.08967551958628472,-0.0008405915027574222,-0.05033400526457955,-0.010071825557511791,-0.09498457723424791,0.03758679312977767
563,7.0,299.32339,505.61125,0.0,0.0,0.0,0.0,-0.005611313795691123,0.0,-0.08448218117924212,-0.03539742716170407,-0.033813586546141174,-0.0024384571918319876,-0.08571001637217,-0.014516153278632787
564,7.0,299.06837,664.92775,0.0,0.0,0.0,0.0,-0.005621280605274943,0.0,-0.07670296974849372,-0.03862804844929157,-0.08679041455629702,0.004158050725317656,-0.03444545538800177,0.026279678911602374
565,7.0,298.77319,619.02688,0.0,0.0,0.0,0.0,-0.005631247414858764,0.0,-0.06980357655182663,-0.06674356631607714,-0.051621571550902454,-0.0015698400323061485,0.006538230432348103,0.011026475351228388
566,7.0,300.35468,164.0307,0.0,0.0,0.0,0.0,-0.0056412142244425855,0.0,-0.005286312918993465,-0.01828778527161388,-0.026287139472088675,-0.02689303364763577,0.0018002339546192585,0.02176388767417848
567,7.0,300.32621,-142.31375,0.0,0.0,0.0,0.0,-0.005651181034026406,0.0,-0.0014179686357676084,0.003001449446219997,0.04167634450063496,-0.027372118559917773,-0.07100932998532522,0.0072927612034894935
568,7.0,300.56203999999997,151.18973,0.0,0.0,0.0,0.0,-0.005661147843610228,0.0,-0.00852875508622259,-0.027469304443259273,-0.00995984399356007,-0.015469866829256987,-0.060637062600912145,-0.014013013808976788
569,7.0,299.86489,312.85826000000003,0.0,0.0,0.0,0.0,-0.005671114653194048,0.0,-0.050354231763075755,-0.040052646679138465,-0.0046942191084833555,-0.012527215273089887,-0.090974600446744,-0.017646882291861683
570,7.0,300.55647999999997,87.837802,0.0,0.0,0.0,0.0,-0.005681081462777868,0.0,0.02641269534498008,-0.024124819175684275,-0.02898837507267987,-0.015049315348751787,-0.09295472824266741,-0.04158204536682836
571,7.0,299.73506000000003,47.527167999999996,0.0,0.0,0.0,0.0,-0.005691048272361689,0.0,0.0019247711058601182,-0.023529575271938274,0.007157732151438163,-0.02686001689312727,-0.08904939283274083,-0.03126091266196187
572,7.0,300.11069,366.57626,0.0,0.0,0.0,0.0,-0.00570101508194551,0.0,-0.032444287453751865,-0.02134348716793818,-0.05764225500909764,0.03050100041821437,-0.023065719508659276,-0.00992139946091589
573,7.0,299.58426000000003,556.88319,0.0,0.0,0.0,0.0,-0.005710981891529332,0.0,-0.08005563903712642,-0.04377967641596766,-0.04544327096015166,0.007390635488948932,-0.004799212995770445,0.004369198772581346
574,7.0,299.18809,442.99495,0.0,0.0,0.0,0.0,-0.005720948701113152,0.0,-0.055849410282157654,-0.04543467049330286,-0.033375322440637865,-0.004138025762266346,-0.032171550924334866,0.016844708399693282
575,7.0,299.70624,401.29687,0.0,0.0,0.0,0.0,-0.005730915510696973,0.0,-0.06310089674282364,-0.03718776105489626,-0.02169557029943608,-0.047118764100259954,-0.07045755349761913,0.004654910172178866
576,7.0,300.39493999999996,285.39481,0.0,0.0,0.0,0.0,-0.005740882320280793,0.0,0.012750062407333188,-0.06121733877418094,-0.03828562057799657,-0.019538213915271583,-0.027299278036728977,0.01347385633801609
577,7.0,298.85342,313.36259,0.0,0.0,0.0,0.0,-0.005750849129864614,0.0,-0.0002573078613368087,-0.045125399205030156,-0.04987169572095316,-0.04286183901163416,-0.02971409924480327,-0.009091891120799792
578,7.0,299.83842999999996,489.38287,0.0,0.0,0.0,0.0,-0.005760815939448436,0.0,-0.05140356268588665,-0.04348996490762536,-0.05386664702272415,-0.03848746303766686,-0.05118350198941836,0.030855208335171972
579,7.0,299.69482,98.84527800000001,0.0,0.0,0.0,0.0,-0.005770782749032256,0.0,-0.013933305476610187,-0.015467669089790085,-0.0006455220120555623,-0.04265205976393056,-0.06993166352346783,-0.005307816517915705
580,7.0,300.80863999999997,-16.250618,0.0,0.0,0.0,0.0,-0.005780749558616077,0.0,-0.018015447962736283,0.02272612671114408,0.0002291038016232848,0.00971798575431552,-0.04498531535220496,0.006604498002138203
581,7.0,300.62968,426.96762,0.0,0.0,0.0,0.0,-0.005790716368199898,0.0,-0.060777644972786544,-0.03246604395989907,-0.03654380717909296,0.014522635039522485,-0.05584415962013945,-0.013929755048259785
582,7.0,300.45101,767.30661,0.0,0.0,0.0,0.0,-0.005800683177783718,0.0,-0.087395142480979,-0.05088040950025545,-0.0949664967994635,-0.01874630424661618,-0.06436339623492264,-0.0024551945636088375
583,7.0,300.8133,684.2362400000001,0.0,0.0,0.0,0.0,-0.005810649987367539,0.0,-0.06580019703572385,-0.051054504105937246,-0.0911360304394259,-0.038268137960771165,-0.07358540893356443,0.013568990389905089
584,7.0,300.91643999999997,437.13295,0.0,0.0,0.0,0.0,-0.00582061679695136,0.0,-0.04734012277010636,-0.033998637425154264,-0.051538740381727656,-0.02799712161910077,-0.014545581101287086,0.01124125296167529
585,7.0,299.42171,390.37847,0.0,0.0,0.0,0.0,-0.005830583606535181,0.0,-0.04439620769106455,-0.02315938738765358,-0.05110971103763575,0.006532200884978034,0.005259301596502655,0.047043241504056456
586,7.0,299.03778,369.52446000000003,0.0,0.0,0.0,0.0,-0.005840550416119002,0.0,-0.03977096011158816,-0.04198002771460616,-0.030575222001289468,-0.007017637760811924,-0.035451906579830765,0.006579816445602323
587,7.0,299.31834,316.14035,0.0,0.0,0.0,0.0,-0.005850517225702822,0.0,-0.03177419476511887,-0.039468656944253167,-0.024855919652838274,-0.01070663282466239,-0.07614568624649412,-0.007493339734985054
588,7.0,299.7466,218.86603,0.0,0.0,0.0,0.0,-0.005860484035286644,0.0,0.024214741069058875,-0.04626332669008486,-0.044481223427454954,-0.024911854098108577,-0.062317074836466445,-0.028473190085835074
589,7.0,299.76117,-15.404697,0.0,0.0,0.0,0.0,-0.0058704508448704645,0.0,0.018071189890487584,-0.01907896438694718,0.005690417729175505,0.0005802999035861414,-0.048618809945802956,-0.019065176079586382
590,7.0,299.55787000000004,158.63008,0.0,0.0,0.0,0.0,-0.005880417654454285,0.0,-0.0019486680015185583,-0.037573249015690965,-0.008697667424267941,-0.038647197862931464,-0.05025049319133755,-0.010767471400416688
591,7.0,301.41897,552.82385,0.0,0.0,0.0,0.0,-0.005890384464038106,0.0,-0.08733941068572872,-0.031345203924530766,-0.04936003076495575,-0.028577164744846575,-0.055866683156612355,0.01030518110854219
592,7.0,301.37774,574.38507,0.0,0.0,0.0,0.0,-0.005900351273621926,0.0,-0.07895859214060633,-0.054797726592614546,-0.04084240116483116,-0.048622399890907254,-0.01889548404558908,0.0019008031813696684
593,7.0,301.36553,460.86532,0.0,0.0,0.0,0.0,-0.005910318083205747,0.0,-0.06837438424602633,-0.027952530508699974,-0.04376463573148325,-0.012195469084349089,-0.024602028562031177,-0.008509369787959412
594,7.0,300.50657,643.77496,0.0,0.0,0.0,0.0,-0.0059202848927895685,0.0,-0.04208809894377196,-0.06123919356558785,-0.09236422026988882,-0.01010564207032422,-0.08120185997424963,0.003314358201026687
595,7.0,299.78586,611.16653,0.0,0.0,0.0,0.0,-0.00593025170237339,0.0,-0.05875017610569095,-0.046852621802493756,-0.08017656739681112,0.011234858340294189,-0.08702766605396192,0.009440494346154252
596,7.0,299.84962,291.33543,0.0,0.0,0.0,0.0,-0.00594021851195721,0.0,-0.01979471615158638,-0.02330674029669618,-0.04545723861278016,-0.006978124553287274,-0.04125616285641626,0.03105479732661987
597,7.0,299.93178,180.48558,0.0,0.0,0.0,0.0,-0.00595018532154103,0.0,-0.05478769845637485,-0.01194102678548759,0.011865616660045188,0.007063500601413234,-0.030340148991339574,0.025157809414132478
598,7.0,298.99292,-9.624073699999999,0.0,0.0,0.0,0.0,-0.005960152131124851,0.0,-0.017266550760825883,0.012208453884380589,0.007983574248717432,-0.048227396498423454,-0.056566205694399845,0.023068095580143777
599,7.0,299.90671000000003,130.8502,0.0,0.0,0.0,0.0,-0.0059701189407086715,0.0,-0.004507372952943076,-0.04003259141990917,0.0047647705983712456,-0.05011455454467145,-0.06481699182768903,-0.0013478334903458085
600,7.0,301.06551,530.19858,0.0,0.0,0.0,0.0,-0.0059800857502924935,0.0,-0.02835388292631037,-0.07059896572132544,-0.062214281627071544,-0.04419508463896525,-0.04673039040318046,-0.03314678286733276
601,7.0,300.13521000000003,599.92789,0.0,0.0,0.0,0.0,-0.005990052559876315,0.0,-0.07557901700881824,-0.03743753125754667,-0.06934655009422164,-0.02113791797440008,-0.061888973629466146,0.017359683643767384
602,7.0,300.5107,437.0197,0.0,0.0,0.0,0.0,-0.006000019369460135,0.0,-0.04226536400901666,-0.05183161221713185,-0.03874609917869226,0.005169838604098345,-0.08165517894973873,-0.02935950730605777
603,7.0,300.47467,438.52682999999996,0.0,0.0,0.0,0.0,-0.006009986179043955,0.0,-0.09123080276102923,-0.026177454135513575,-0.015892948395261886,0.007102247690537273,-0.04973817266252545,0.0035752591586756064
604,7.0,300.10209,548.90246,0.0,0.0,0.0,0.0,-0.006019952988627775,0.0,-0.07810233298460012,-0.037444983712032164,-0.051305324035691255,0.029463446501315767,-0.00827437104924184,-0.03212389067938117
605,7.0,300.68487999999996,439.42548,0.0,0.0,0.0,0.0,-0.006029919798211597,0.0,-0.04060713259761196,-0.03732033875098067,-0.05564690313042175,-0.017748541674394682,-0.03740000857984346,0.008461262193086561
606,7.0,300.10967999999997,37.082347999999996,0.0,0.0,0.0,0.0,-0.0060398866077954185,0.0,0.03448907783130697,-0.02857110753574877,-0.017190077736028583,-0.00036125745254083464,-0.057832478529871244,-0.02304222527859058
607,7.0,300.16376,-73.323267,0.0,0.0,0.0,0.0,-0.006049853417379239,0.0,0.03576080701856687,-0.01011888970743166,-0.0033534755317372665,-0.03535478047824517,-0.07845097309225822,0.0059643482725103445
608,7.0,300.45772999999997,273.17005,0.0,0.0,0.0,0.0,-0.00605982022696306,0.0,-0.017009162943923684,-0.05448468601396985,-0.01154302417270779,-0.0024982286125809676,-0.05157124139193525,-0.017897969719642085
609,7.0,300.56095,467.43318,0.0,0.0,0.0,0.0,-0.00606978703654688,0.0,-0.08051289550250412,-0.03916439820422517,-0.02241072222001608,-0.04325835214676696,-0.07522369755650092,0.01164788846530709
610,7.0,299.0935,497.40775999999994,0.0,0.0,0.0,0.0,-0.006079753846130701,0.0,-0.07155516882744534,-0.04918279711046416,-0.030461571817073072,-0.03640023065317307,-0.07602677425450842,0.007083023803015023
611,7.0,300.93411000000003,546.09088,0.0,0.0,0.0,0.0,-0.0060897206557145225,0.0,-0.05598295056583704,-0.03644617445245737,-0.07356886661243184,-0.024747101658348775,-0.038817790676267665,-0.008466077461536792
612,7.0,300.04879,479.10770999999994,0.0,0.0,0.0,0.0,-0.006099687465298343,0.0,-0.04340047060579296,-0.030073712851044373,-0.07216259909014403,0.005693890542568245,-0.029466923975658973,-0.016023274649624088
613,7.0,300.38399,714.9292,0.0,0.0,0.0,0.0,-0.006109654274882164,0.0,-0.08048512231726312,-0.043349441304256754,-0.09348606240960601,0.005202446613516505,-0.04219148895747576,0.005537411492524964
614,7.0,299.37065,554.32299,0.0,0.0,0.0,0.0,-0.006119621084465984,0.0,-0.0931683791190031,-0.0026733597731150673,-0.07265860730559623,0.01146683587118859,-0.08146243243621612,0.03424858899957257
615,7.0,300.19142999999997,159.19568999999998,0.0,0.0,0.0,0.0,-0.006129587894049806,0.0,-0.050422352567298746,-0.016659153935380484,0.018689993885558785,-0.0016866876285381081,-0.07147881131315943,0.028652828182813974
616,7.0,300.43635,118.43371,0.0,0.0,0.0,0.0,-0.006139554703633626,0.0,-0.017634445660134283,-0.004503876024197956,-0.013862568460628989,0.002305735512908378,-0.06821265230481463,0.006747824457933424
617,7.0,301.10672999999997,404.54961000000003,0.0,0.0,0.0,0.0,-0.006149521513217447,0.0,-0.030408039787789873,-0.036769568420623865,-0.055795373654324645,-0.02147146774831888,-0.048747223183976354,0.015385836985213884
618,7.0,300.28497999999996,373.90555,0.0,0.0,0.0,0.0,-0.006159488322801268,0.0,0.0006110967081855495,-0.04643010866979495,-0.06783893729693184,-0.03244589649491067,-0.06508358502174974,-0.021412806647029478
619,7.0,300.18852999999996,273.82042,0.0,0.0,0.0,0.0,-0.006169455132385088,0.0,0.0008440426427305234,-0.041964700280343464,-0.042113912503319556,-0.016615050198277782,-0.029884230016093874,-0.008098540239513691
620,7.0,300.02835,368.33072999999996,0.0,0.0,0.0,0.0,-0.00617942194196891,0.0,-0.011926397480543789,-0.07164820342512712,-0.028388743796000874,-0.0003227792698608337,-0.05175229905230425,-0.027222425043144174
621,7.0,300.52745,389.49589,0.0,0.0,0.0,0.0,-0.006189388751552731,0.0,-0.06381504757230484,-0.03172819726357927,-0.022853778998492377,-0.010362535117202589,-0.07562095948345764,0.018434413706834983
622,7.0,299.60835,496.70902,0.0,0.0,0.0,0.0,-0.006199355561136551,0.0,-0.046786035058922155,-0.05553442223682075,-0.04866668094677745,-0.02815682503361227,-0.09973519424859731,-0.0038763018428862065
623,7.0,299.40631,507.82533,0.0,0.0,0.0,0.0,-0.006209322370720372,0.0,-0.07283196629170544,-0.03166938518802497,-0.049864868441779356,-0.023758971041577877,-0.05911120116932135,0.004082973553858116
624,7.0,298.63648,258.65892,0.0,0.0,0.0,0.0,-0.006219289180304192,0.0,-0.004073102978008966,-0.020254577682971182,-0.054298170988562246,-0.026222998714258476,-0.03709529590377067,-0.01963304500538068
625,7.0,299.17526000000004,35.839228000000006,0.0,0.0,0.0,0.0,-0.006229255989888014,0.0,-0.0022739358744199973,0.002709467649703638,-0.01132976238441049,-0.01848955883027738,-0.02068203243640768,0.007123937930127933
626,7.0,299.60642,283.3695,0.0,0.0,0.0,0.0,-0.006239222799471835,0.0,-0.035668184813675764,-0.005779991976440795,-0.044689074460218255,-0.01152202557763539,-0.07437735913222383,0.011490833686556989
627,7.0,301.19245,435.72475,0.0,0.0,0.0,0.0,-0.006249189609055655,0.0,-0.09194138087065781,-0.00947406028221695,-0.031034004421317766,0.004774887191344676,-0.05179507745827615,0.04061240251138206
628,7.0,300.3259,201.94793,0.0,0.0,0.0,0.0,-0.0062591564186394765,0.0,-0.014397040663127286,-0.03748513881349517,-0.009504947691640302,-0.007625909122418633,-0.06072540990363135,0.005971094086376104
629,7.0,300.34912,402.4993,0.0,0.0,0.0,0.0,-0.006269123228223297,0.0,-0.02206238710063808,-0.04034967790620316,-0.05993767279888774,-0.0006357146934101554,-0.06154854692711864,0.02160814302780768
630,7.0,299.63727,741.5147599999999,0.0,0.0,0.0,0.0,-0.006279090037807117,0.0,-0.059759535325306944,-0.08082056788211901,-0.08482186820901662,-0.03344011573153247,-0.07054011716876753,0.02594065860039368
631,7.0,300.30888999999996,755.45889,0.0,0.0,0.0,0.0,-0.006289056847390939,0.0,-0.06932602367369584,-0.08511339343503792,-0.07520122062953263,-0.028626887967003873,-0.04426785018164666,0.01682195992169818
632,7.0,299.02279,438.81777,0.0,0.0,0.0,0.0,-0.006299023656974759,0.0,-0.06149168333150664,-0.030670449272187674,-0.04122751320983876,-0.01825577163470438,-0.05170949430182975,-0.007025725117810084
633,7.0,299.33565,256.91052,0.0,0.0,0.0,0.0,-0.00630899046655858,0.0,-0.03470248552761867,-0.027304592533503473,-0.016087302936693183,-0.024171055804247474,-0.057670944172429045,0.01954335717277918
634,7.0,299.74922999999995,118.74583999999999,0.0,0.0,0.0,0.0,-0.006318957276142401,0.0,-0.015499203459402285,-0.004259473513952306,-0.016337093404345585,0.0026011130144848677,-0.07613288281823052,-0.007437427783866972
635,7.0,299.53021,222.79959,0.0,0.0,0.0,0.0,-0.006328924085726223,0.0,-0.016970672612374987,-0.01273974650806509,-0.03801509394704766,-0.0037339318951853866,-0.052564185959931245,-0.013954381078690186
636,7.0,298.82764,493.84202999999997,0.0,0.0,0.0,0.0,-0.006338890895310043,0.0,-0.017699181195773184,-0.07840350333832334,-0.05401296236366435,0.0005140881537440505,-0.026978254060546374,-0.06474206603579444
637,7.0,299.50151,350.31474,0.0,0.0,0.0,0.0,-0.006348857704893863,0.0,-0.03286005031428447,-0.046032725152826255,-0.027594158133831374,-0.027907659741271573,-0.015498859967618385,-0.015594927222849487
638,7.0,298.49848,46.983288,0.0,0.0,0.0,0.0,-0.006358824514477684,0.0,-0.003816453617779647,-0.043987960106523664,0.03352266724367967,-0.04683749701825105,-0.04852794269008505,-0.03855630324946086
639,7.0,300.26124,329.74911000000003,0.0,0.0,0.0,0.0,-0.006368791324061505,0.0,-0.05852875866733874,-0.03702982981480967,-0.004676908541124935,-0.04656217670107905,-0.05214302044986545,0.02751693226420977
640,7.0,300.66604,560.8836299999999,0.0,0.0,0.0,0.0,-0.006378758133645326,0.0,-0.058322255257208445,-0.03278210503709186,-0.07939025694820832,-0.02076074069092558,-0.08753234870352022,0.017138185145407183
641,7.0,300.3096,370.0439,0.0,0.0,0.0,0.0,-0.006388724943229148,0.0,-0.01903412300377168,-0.047981607355415956,-0.04546837423137916,-0.02870428102289197,-0.08554353938074002,0.03409789033869977
642,7.0,300.68728,416.75459,0.0,0.0,0.0,0.0,-0.006398691752812968,0.0,-0.018739133475658483,-0.033754232381783364,-0.07418962314044572,-0.035790376696235165,-0.07946462139954752,0.020118026019994583
643,7.0,300.63422,494.44357,0.0,0.0,0.0,0.0,-0.006408658562396788,0.0,-0.07827750872813863,-0.017549875753787882,-0.05447111352888036,-0.023641205035455276,-0.035101069745955865,0.00993651259278244
644,7.0,300.07027999999997,431.42014000000006,0.0,0.0,0.0,0.0,-0.0064186253719806085,0.0,-0.09271978492873031,-0.01999770763687008,-0.018423458446753783,0.02487464350143618,-0.01034634338060459,-0.007775801540186862
645,7.0,299.15066,521.63276,0.0,0.0,0.0,0.0,-0.00642859218156443,0.0,-0.08279473270120392,-0.016808147296334983,-0.05896045488569385,0.0035536932448722164,-0.03294608436702537,0.022916296529662376
646,7.0,299.44031,459.80737,0.0,0.0,0.0,0.0,-0.006438558991148252,0.0,-0.05952688296984594,-0.030582517402009467,-0.049660559731365655,0.004580367692797096,-0.07044562349094173,0.019182497268915084
647,7.0,299.61899,157.79785,0.0,0.0,0.0,0.0,-0.006448525800732072,0.0,0.00047294148573319054,-0.015356413215559986,-0.03308313657555137,-0.02197787089654698,-0.060944491800503035,-0.009058214740476191
648,7.0,299.22927999999996,197.84753999999998,0.0,0.0,0.0,0.0,-0.006458492610315893,0.0,-0.0016188706980200984,-0.01982486135531148,-0.038696980866844664,0.0019392245105865583,-0.06910211465334773,-0.011019941914583591
649,7.0,299.39919,500.42287999999996,0.0,0.0,0.0,0.0,-0.006468459419899713,0.0,-0.053049766818604356,-0.06404956937420034,-0.03501672174138137,-0.028987904924633472,-0.06774623605853293,-0.004941891174151686
650,7.0,299.7423,281.01187000000004,0.0,0.0,0.0,0.0,-0.006478426229483535,0.0,-0.03296239870688547,-0.038546578075001066,-0.013911614831719488,-0.024610680704635075,-0.06594148969591834,0.024412264043552876
651,7.0,299.90959,64.513697,0.0,0.0,0.0,0.0,-0.0064883930390673555,0.0,-0.007700132833318943,-0.033674702381434364,0.02176428284171748,-0.025588419428380374,-0.051286412735824856,-0.003505744324965027
652,7.0,300.53485,296.08418,0.0,0.0,0.0,0.0,-0.006498359848651176,0.0,-0.020568839227986378,-0.028133678348327872,-0.04129968093496116,-0.020887508410936582,-0.04428588400692646,0.014648939704237786
653,7.0,300.31222,506.16577,0.0,0.0,0.0,0.0,-0.006508326658234997,0.0,-0.04970119207362575,-0.03758440489929196,-0.06657615814780524,-0.0019256170683686082,-0.07035545841754313,-0.006321791902337284
654,7.0,300.17447999999996,602.10677,0.0,0.0,0.0,0.0,-0.006518293467818817,0.0,-0.01704820043052638,-0.09517185523698081,-0.07080536780644574,-0.014874432434492185,-0.09164373865378282,-0.04130064960205676
655,7.0,300.82693,569.53798,0.0,0.0,0.0,0.0,-0.006528260277402638,0.0,-0.096063730134002,-0.033279854016215867,-0.04378174040642136,-0.028797678364109573,-0.06336734402886994,-0.04110330495958036
656,7.0,300.23008,339.62523,0.0,0.0,0.0,0.0,-0.00653822708698646,0.0,-0.03795454718732216,-0.03622226543210927,-0.029060775845325272,-0.018964929167692785,-0.05430851424558304,-0.044037100709873454
657,7.0,301.03493,134.4145,0.0,0.0,0.0,0.0,-0.00654819389657028,0.0,-0.029004335788255075,-0.005882778397060025,-0.005971537383294854,-0.016445377416032383,-0.056294059889791144,-0.002562976915171128
658,7.0,300.11413999999996,296.76249,0.0,0.0,0.0,0.0,-0.006558160706154101,0.0,-0.030295183991651868,0.0017842614853428981,-0.06169746429431564,-0.014656376959971785,-0.06998345377582912,0.027723383998584972
659,7.0,300.47786,410.15181,0.0,0.0,0.0,0.0,-0.006568127515737921,0.0,-0.027708870204152573,-0.03196531501223097,-0.06500172251967054,-0.005647543672394165,-0.04586399975942436,0.027437341468854775
660,7.0,301.42772,212.20869,0.0,0.0,0.0,0.0,-0.006578094325321742,0.0,-0.01012452601243792,-0.013379051592409588,-0.04100256560813816,-0.020822485112269282,-0.054189604280097545,0.03166933756527027
661,7.0,300.07752999999997,283.95347000000004,0.0,0.0,0.0,0.0,-0.006588061134905564,0.0,-0.05296513915700225,-0.019442207455046483,-0.013907416936555186,-0.015771710994296684,-0.07246672002815843,0.020823935073162377
662,7.0,299.04202000000004,722.66923,0.0,0.0,0.0,0.0,-0.0065980279444893845,0.0,-0.08994104684124021,-0.06357785382989564,-0.06615450019819084,-0.026780233580253273,-0.08627466518914652,0.04062005761588756
663,7.0,300.55521,808.51804,0.0,0.0,0.0,0.0,-0.006607994754073206,0.0,-0.1059397055929349,-0.06881966916147253,-0.07100992374988384,-0.007712578280322213,-0.05548848147728675,-0.005185048602674455
664,7.0,299.65386,466.53599,0.0,0.0,0.0,0.0,-0.006617961563657025,0.0,-0.05711406495721935,-0.03947713582108996,-0.045224090778020254,-0.016406217326167587,-0.05717601101533295,0.01181353357840499
665,7.0,299.56262999999996,106.79619,0.0,0.0,0.0,0.0,-0.006627928373240846,0.0,0.004667858393881756,0.0018361504282639381,-0.03896738286803126,-0.014473590694932186,-0.05873817821125685,-0.023706338778383476
666,7.0,300.6733,66.848019,0.0,0.0,0.0,0.0,-0.006637895182824668,0.0,-0.008137335559342493,0.010880334289305389,-0.02306312660165338,-0.024631671193706677,-0.06312452472190554,-0.00968001481476808
667,7.0,299.9286,99.089962,0.0,0.0,0.0,0.0,-0.006647861992408488,0.0,-0.015746449656053586,-0.03934215976201886,0.024967734841123575,0.015347119685642785,-0.045548079523995456,-0.04721947812044965
668,7.0,300.14771,228.74164,0.0,0.0,0.0,0.0,-0.0066578288019923096,0.0,-0.02082129960965228,-0.045188914787548655,-0.0035215331933232666,-0.012616008405853089,-0.042654635445684756,-0.013301079970714386
669,7.0,301.15129,221.69824,0.0,0.0,0.0,0.0,-0.00666779561157613,0.0,-0.016219890765278588,-0.04546779870532236,-0.0057030395830211834,-0.023335224783507375,-0.07089626951266703,0.01121112093020149
670,7.0,300.95057,333.91407000000004,0.0,0.0,0.0,0.0,-0.006677762421159951,0.0,0.002132264663988138,-0.05727185636879215,-0.04636194834881805,-0.04453172077268866,-0.07464697181158253,0.02155086906590518
671,7.0,299.76613,685.15367,0.0,0.0,0.0,0.0,-0.006687729230743771,0.0,-0.03500243187522107,-0.07701034524582934,-0.09625682925855941,-0.02119632272341418,-0.060007627585791735,0.018166219577616282
672,7.0,299.84639,777.94521,0.0,0.0,0.0,0.0,-0.006697696040327592,0.0,-0.06886705380239903,-0.0938735910561021,-0.07373527166310473,-0.02011750622269328,-0.049331547291394655,-0.008759583591503592
673,7.0,299.87022,504.26982999999996,0.0,0.0,0.0,0.0,-0.0067076628499114135,0.0,-0.07875861608762022,-0.043794384754419255,-0.030732436873555372,-0.03313414459883547,-0.05564132012237075,-0.015259086490454586
674,7.0,298.95245,259.03148,0.0,0.0,0.0,0.0,-0.006717629659495234,0.0,-0.05891401155411024,-0.012023090924336689,-0.007801998716222322,-0.018160604145562084,-0.06523675905261685,-0.018196113495316583
675,7.0,299.43972,54.50735600000001,0.0,0.0,0.0,0.0,-0.006727596469079055,0.0,-0.05190883403375305,0.015052012620517984,0.02028794603526438,0.0025801579891667676,-0.05705423152556424,-0.005018285266766195
676,7.0,299.06167,-48.540107,0.0,0.0,0.0,0.0,-0.006737563278662877,0.0,-0.015585562765425286,0.024088687690368378,0.006251856468510193,0.0015731538667581987,-0.01928262563054698,0.011102433644974888
677,7.0,299.70812,192.98096999999999,0.0,0.0,0.0,0.0,-0.006747530088246697,0.0,-0.034764194485208864,-0.0002099799522834078,-0.02368722077549668,0.0038199042409951963,-0.039764723557222666,0.001347923872254729
678,7.0,299.36245,385.58485,0.0,0.0,0.0,0.0,-0.006757496897830517,0.0,-0.06437444572726314,-0.028036822784518977,-0.024796898847763375,-0.02772700535444237,-0.06306742503902023,0.01787241352561988
679,7.0,300.5028,489.19145,0.0,0.0,0.0,0.0,-0.006767463707414338,0.0,-0.052511258840957746,-0.07225312792032854,-0.023937598928207078,-0.013831412033304088,-0.06164468612310685,-0.003923954995089207
680,7.0,300.21379,560.75874,0.0,0.0,0.0,0.0,-0.006777430516998159,0.0,-0.04792373557595446,-0.06418325252614383,-0.05834966671216374,-0.01053943034616079,-0.08305504475789473,0.02190181634404098
681,7.0,300.78484,701.73247,0.0,0.0,0.0,0.0,-0.00678739732658198,0.0,-0.06976696377271323,-0.05625170502236105,-0.08729047881189951,-0.029437784929283173,-0.08805743922334261,0.027470159626343676
682,7.0,300.27316,438.26125999999994,0.0,0.0,0.0,0.0,-0.006797364136165801,0.0,-0.019709214055147983,-0.03088626951698747,-0.08262499608420222,-0.03599448478312907,-0.07042873261177474,0.029271226877845172
683,7.0,300.87658,239.18707,0.0,0.0,0.0,0.0,-0.006807330945749622,0.0,0.0012663404192530688,-0.03480895480837637,-0.03916428168046366,-0.026410868455049773,-0.029621744537938574,-0.02314812511279208
684,7.0,299.81811,190.15988000000002,0.0,0.0,0.0,0.0,-0.0068172977553334424,0.0,-0.027795264973929073,-0.020659610224944783,-0.00934897861037235,-0.0028865162847269772,-0.006255878868757175,-0.014253612071721987
685,7.0,300.0793,109.13256000000001,0.0,0.0,0.0,0.0,-0.006827264564917263,0.0,-0.02294570104756438,-0.024190428132909378,0.013962555980496987,-0.009574970366301002,-0.03830975416887836,-0.052589786736957855
686,7.0,299.96628,265.9048,0.0,0.0,0.0,0.0,-0.006837231374501084,0.0,-0.03528631516898817,-0.03020192850544827,-0.015340174869457384,-0.006385244764674594,-0.07631943432064173,-0.025036055255616276
687,7.0,299.54954,430.602,0.0,0.0,0.0,0.0,-0.006847198184084904,0.0,-0.050137738720209546,-0.05297153377838336,-0.027782984382717073,-0.027086036513433675,-0.09592736389579372,-0.004593100700178745
688,7.0,298.74688,449.20603,0.0,0.0,0.0,0.0,-0.006857164993668726,0.0,-0.028191767976560873,-0.05348251175081296,-0.05487313570480685,-0.0009658150600135252,-0.06643795590041573,0.023893595502864275
689,7.0,299.03407000000004,519.18033,0.0,0.0,0.0,0.0,-0.006867131803252546,0.0,-0.03921039165276436,-0.06123299044847565,-0.05737447529916984,-0.014829496819057385,-0.08734438270396941,0.01068256509503709
690,7.0,299.08529,840.3359300000001,0.0,0.0,0.0,0.0,-0.0068770986128363675,0.0,-0.10032559886986571,-0.06665901870123293,-0.08845652094747891,-0.009378803323090821,-0.059459847356480036,0.04347338813598936
691,7.0,299.349,761.9911400000001,0.0,0.0,0.0,0.0,-0.006887065422420188,0.0,-0.07684875313313143,-0.06013750294385944,-0.094640022550993,-0.030629765254172475,-0.059381871681784444,0.0033836038141856974
692,7.0,300.27968,309.77185,0.0,0.0,0.0,0.0,-0.006897032232004008,0.0,-0.020912566085909582,-0.010010781899937251,-0.06323956103225874,-0.02056491795009938,-0.04119672965855067,0.02061816728260468
693,7.0,300.65898,69.407253,0.0,0.0,0.0,0.0,-0.00690699904158783,0.0,0.0006480887265463774,0.014102879973595885,-0.035849040837274866,-0.015765329545166885,-0.06459696051547364,0.024800413812360273
694,7.0,299.72527,241.92086,0.0,0.0,0.0,0.0,-0.00691696585117165,0.0,-0.027477190568787575,0.004920956920460635,-0.05098166763574886,-0.024821672812708376,-0.07172274418198374,0.052877645010867246
695,7.0,300.59531,375.44129,0.0,0.0,0.0,0.0,-0.006926932660755471,0.0,-0.054400832475444146,-0.02998695635098217,-0.029736989577812373,-0.01199785187759579,-0.043282287140629164,0.006030069599171534
696,7.0,300.55154,495.66025999999994,0.0,0.0,0.0,0.0,-0.0069368994703392925,0.0,-0.07403238901642793,-0.05002113085895125,-0.026614822527928475,-0.03363560511307577,-0.03426811635549976,-0.008880685622255432
697,7.0,300.44799,500.91330999999997,0.0,0.0,0.0,0.0,-0.006946866279923114,0.0,-0.05566190936440275,-0.06345795493231254,-0.03314527515118397,0.0029621532768667673,-0.07494743896973634,-0.046516555115326555
698,7.0,299.90895,371.11157000000003,0.0,0.0,0.0,0.0,-0.006956833089506934,0.0,-0.04457815701152155,-0.04861340121676916,-0.01961709138255618,-0.003921036530826176,-0.08371846519461923,-0.022344080760939078
699,7.0,299.86091,344.23838,0.0,0.0,0.0,0.0,-0.006966799899090754,0.0,-0.025109913081905477,-0.04491051419007266,-0.03461944461567317,0.024630280001319376,-0.07159076734320864,-0.02225734553912898
700,7.0,300.16137000000003,562.29185,0.0,0.0,0.0,0.0,-0.006976766708674575,0.0,-0.05507509164848835,-0.044223258057995755,-0.07162433327927134,0.008002016819087571,-0.05853245399045344,0.02096701814628358
701,7.0,300.01329,236.60513999999998,0.0,0.0,0.0,0.0,-0.0069867335182583964,0.0,-0.005836807442673045,-0.02449107159658058,-0.04159417498377546,-0.027565374738240677,-0.08285640011554002,0.005395551918899515
702,7.0,298.92625,-45.413292999999996,0.0,0.0,0.0,0.0,-0.006996700327842217,0.0,0.02211937836576268,-0.011957804180643388,0.003642932916954486,-0.04287507003143996,-0.06018235243303574,0.005148648302107026
703,7.0,300.02873999999997,330.12102999999996,0.0,0.0,0.0,0.0,-0.007006667137426039,0.0,-0.011897929205734188,-0.04930819998259045,-0.03914242080955617,-0.035219187349863165,-0.05023210270202255,-0.02149576143271648
704,7.0,300.01856000000004,554.8851599999999,0.0,0.0,0.0,0.0,-0.007016633947009859,0.0,-0.06522017924123054,-0.044184869051457056,-0.05926618587811715,-0.02950437876560547,-0.02143838614580398,-0.007672468977763733
705,7.0,299.20931,340.0032,0.0,0.0,0.0,0.0,-0.007026600756593679,0.0,-0.014256642702771086,-0.05471093766854915,-0.034384902548775666,-0.01871178281570918,-0.07725639783386283,-0.008776816746554372
706,7.0,300.31602000000004,251.56298999999999,0.0,0.0,0.0,0.0,-0.0070365675661775,0.0,-0.040299418674742966,-0.010863476847391688,-0.02530597292325508,-0.016792234203514483,-0.05866755265278665,0.02393911981660718
707,7.0,300.16665,329.10017,0.0,0.0,0.0,0.0,-0.007046534375761321,0.0,-0.05436189530060136,-0.02009920591263718,-0.025577132835516474,0.017987267450955084,-0.056305091143629846,0.01111180316864959
708,7.0,300.46352,374.95538,0.0,0.0,0.0,0.0,-0.007056501185345143,0.0,-0.07016620863011563,-0.03175391253786717,-0.012056950702928388,-0.002453860721177198,-0.024801648964232176,-0.004105371447318615
709,7.0,300.42476,615.15295,0.0,0.0,0.0,0.0,-0.007066467994928963,0.0,-0.06583642072679884,-0.04180257215834266,-0.07935214151919663,-0.015150644411752184,-0.06769757877548084,-0.0043049996515453865
710,7.0,299.90319,611.72135,0.0,0.0,0.0,0.0,-0.007076434804512784,0.0,-0.08941981781754892,-0.044457366453850455,-0.052070829419990756,-0.04447543776938396,-0.06876037883187103,0.011266678446434591
711,7.0,299.73388,208.60267,0.0,0.0,0.0,0.0,-0.007086401614096604,0.0,0.014527741820026484,-0.028687328335468873,-0.04925041534263755,-0.004003345369574426,-0.07137894740980363,0.03044192692413427
712,7.0,298.75885,119.7619,0.0,0.0,0.0,0.0,-0.0070963684236804245,0.0,-0.03167440584227047,0.008427536264833071,-0.013157757770569588,0.002410732237295748,-0.07422772945020653,0.03152126423540657
713,7.0,300.03811,500.55310999999995,0.0,0.0,0.0,0.0,-0.0071063352332642465,0.0,-0.03423538837726977,-0.04829035580663705,-0.06962990143168624,-0.006397211349680604,-0.11245940256637889,0.02461735295654358
714,7.0,298.76363,381.57639,0.0,0.0,0.0,0.0,-0.007116302042848067,0.0,-0.05146240819869425,-0.03546382949375747,-0.02906345690508987,-0.014169096880880987,-0.07515160481188593,-0.016540256128896185
715,7.0,298.69819,127.50123,0.0,0.0,0.0,0.0,-0.007126268852431888,0.0,9.901809891432551e-05,-0.030328149070405267,-0.008528059794003971,-0.01117187876707859,-0.05787553557962065,-0.04718648872369386
716,7.0,299.83867999999995,193.95556000000002,0.0,0.0,0.0,0.0,-0.007136235662015709,0.0,-0.04272704635083116,-0.025932624540350772,0.00970202372151519,0.0008058711607232912,-0.016159445330563085,-0.03210801710331457
717,7.0,299.86027,344.60842,0.0,0.0,0.0,0.0,-0.007146202471599529,0.0,-0.02081937544771238,-0.04702183254269355,-0.03691114681734657,-0.017656280186539183,-0.06422777980178834,-0.024332008556132278
718,7.0,299.31363,382.80456000000004,0.0,0.0,0.0,0.0,-0.00715616928118335,0.0,-0.05279461929767325,-0.03719729067208676,-0.026371117640376675,-0.03857779833708226,-0.05347618603043865,0.005658603803860715
719,7.0,300.36203,569.6068799999999,0.0,0.0,0.0,0.0,-0.007166136090767171,0.0,-0.07364736816392933,-0.03791955256861847,-0.061579347703658444,-0.05222564390276974,-0.06032889879499874,-0.0027407284417888373
720,7.0,299.50421,529.74956,0.0,0.0,0.0,0.0,-0.007176102900350992,0.0,-0.06080994839922464,-0.03878950073347567,-0.061431190274036436,-0.025325528650185076,-0.05829831215734545,0.015209903330600585
721,7.0,300.89204,337.78337,0.0,0.0,0.0,0.0,-0.007186069709934813,0.0,-0.01825780320115488,-0.053166722224646946,-0.031253184603449176,-0.02285335545995058,-0.10387763018192389,-0.015048494616170785
722,7.0,300.92,422.05677000000003,0.0,0.0,0.0,0.0,-0.007196036519518633,0.0,-0.02895656915204087,-0.04091241775999126,-0.058425733423670946,0.0014941536948864884,-0.08322898332306113,0.009639458668915501
723,7.0,300.71837,537.34646,0.0,0.0,0.0,0.0,-0.007206003329102455,0.0,-0.030906613552495268,-0.05606069927251025,-0.07637259347388813,0.005740729852290925,-0.06500404083589933,0.0005763131292126774
724,7.0,300.3373,240.93207999999998,0.0,0.0,0.0,0.0,-0.0072159701386862755,0.0,-0.042519376689835756,-0.013606251649082487,-0.017111706893793984,0.013834097146069087,-0.04099090411273726,0.02859128742474037
725,7.0,300.05887,142.85002,0.0,0.0,0.0,0.0,-0.007225936948270096,0.0,-0.022217118496908876,0.0007944440706005253,-0.022000165438497275,-0.03645275044560636,-0.07510943739572433,0.0017802381731708281
726,7.0,299.65337999999997,459.29132000000004,0.0,0.0,0.0,0.0,-0.007235903757853917,0.0,-0.060465783817258235,-0.04169458198918486,-0.037452727982546466,-0.04079837342148596,-0.06421113514239564,0.0096329313117713
727,7.0,299.94279,673.44545,0.0,0.0,0.0,0.0,-0.007245870567437737,0.0,-0.09164539430444622,-0.06660999867464504,-0.046455206874771955,-0.02921189703148977,-0.04741244754899425,-0.01901016774490748
728,7.0,299.0716,702.8569200000001,0.0,0.0,0.0,0.0,-0.007255837377021559,0.0,-0.0865685543276511,-0.049202170452376154,-0.07788022653617993,-0.02826438862447797,-0.04030994735653206,0.017539382535752285
729,7.0,300.59911,559.01067,0.0,0.0,0.0,0.0,-0.007265804186605379,0.0,-0.05617006746180405,-0.04037860822305836,-0.07337661051195764,-0.014679513512755185,-0.09174119811465133,0.02107666700585508
730,7.0,299.85096,225.9242,0.0,0.0,0.0,0.0,-0.0072757709961892006,0.0,-0.014350892187322788,-0.015671761977932484,-0.03865266232072077,-0.013141270164942386,-0.07208164040715404,0.05442620020494775
731,7.0,300.57421,203.30467,0.0,0.0,0.0,0.0,-0.007285737805773021,0.0,0.0012816826469672286,-0.014188235148769787,-0.048892992383112656,0.019215590017181084,-0.04403786672694905,-0.00974090557290253
732,7.0,300.3194,552.4296099999999,0.0,0.0,0.0,0.0,-0.007295704615356841,0.0,-0.05229944904005376,-0.051008099277857454,-0.06461725794147684,-0.012465816370030289,-0.05647424716832425,0.009343980450279071
733,7.0,299.35246,298.5079,0.0,0.0,0.0,0.0,-0.007305671424940662,0.0,-0.030866659074552074,-0.025902641456641676,-0.03396964833979327,-0.03878917953319396,-0.08241188020391932,-0.040282149853288665
734,7.0,299.37027,-15.99646,0.0,0.0,0.0,0.0,-0.007315638234524483,0.0,0.03052684944151547,-0.03779364003169187,0.012129314998570189,-0.05216752590353395,-0.08583556616556083,-0.04147845371635466
735,7.0,300.13434,244.61932000000002,0.0,0.0,0.0,0.0,-0.0073256050441083045,0.0,-0.017029252653656384,-0.06238259564093285,0.005053681639134545,-0.0026712064140025473,-0.047536941535780856,-0.03069188559130327
736,7.0,300.40741,626.87178,0.0,0.0,0.0,0.0,-0.007335571853692126,0.0,-0.10409196297557691,-0.051075155156225356,-0.035386253039601266,-0.024997465625557772,-0.04121509177686286,0.012062599572235887
737,7.0,300.55113,664.81718,0.0,0.0,0.0,0.0,-0.007345538663275946,0.0,-0.07638762098612123,-0.05307732620807424,-0.07262287504081974,-0.03438591579887567,-0.08172483888086363,0.0021346676879252977
738,7.0,300.14044,428.5961,0.0,0.0,0.0,0.0,-0.007355505472859766,0.0,-0.05965079433782504,-0.046317848664715756,-0.02431386833959198,-0.024935268281419374,-0.08798508404695173,-0.0013324641075289688
739,7.0,300.86287999999996,479.80817,0.0,0.0,0.0,0.0,-0.007365472282443586,0.0,-0.026210374631262575,-0.03271793894800917,-0.08692138827747312,0.015181833263080287,-0.05127513627546195,-0.007981537919991462
740,7.0,301.3725,552.59499,0.0,0.0,0.0,0.0,-0.007375439092027408,0.0,-0.05210872092073036,-0.05216569090760285,-0.06370066683476634,0.010969949167899689,-0.06311293516726174,-0.004824940125084516
741,7.0,300.25937000000005,460.54815999999994,0.0,0.0,0.0,0.0,-0.0073854059016112295,0.0,-0.031030305045202673,-0.02398820165145118,-0.08497663506904092,-0.04065227694256736,-0.07873698015823492,0.03254694184788307
742,7.0,301.23397,453.99492999999995,0.0,0.0,0.0,0.0,-0.00739537271119505,0.0,-0.06483169813964045,-0.03709637298862697,-0.036075050325080266,-0.07127856472239665,-0.06964613673803853,0.015203440821462785
743,7.0,301.66816,198.3995,0.0,0.0,0.0,0.0,-0.007405339520778871,0.0,0.008393816213430163,-0.01939849179273208,-0.049303817675907954,-0.04173787917920796,-0.040004119092099166,0.00988673850547012
744,7.0,300.50077000000005,49.57405,0.0,0.0,0.0,0.0,-0.007415306330362692,0.0,-0.017444059006094585,-0.028629299502241874,0.031004085172364967,-0.01760447270892618,-0.05592293170941365,-0.013733166290357986
745,7.0,300.09439,445.6861,0.0,0.0,0.0,0.0,-0.007425273139946512,0.0,-0.03068742323786287,-0.042158041571674756,-0.06263197979529515,0.01294577065089809,-0.0976697943640082,0.005713726129175865
746,7.0,299.70536,658.2921200000001,0.0,0.0,0.0,0.0,-0.0074352399495303334,0.0,-0.0912649229448966,-0.06362484431653323,-0.045214599664333555,0.017685567167429587,-0.09946511142119221,-0.030154909647807874
747,7.0,299.2262,365.85572,0.0,0.0,0.0,0.0,-0.007445206759114154,0.0,-0.036724723997698064,-0.02960362762615057,-0.04488265183882286,0.03533018180556747,-0.04300179418169666,-0.0006070939649905094
748,7.0,299.05509,235.71336000000002,0.0,0.0,0.0,0.0,-0.007455173568697975,0.0,-0.046209004325723654,-0.017724495223021483,-0.007717475014080482,0.00991115377987972,-0.037784154997505766,-0.009157507170775592
749,7.0,299.13842999999997,391.56227,0.0,0.0,0.0,0.0,-0.007465140378281795,0.0,-0.044154522210962055,-0.007591838790456154,-0.06727879237664984,-0.03818614981567956,-0.045576838601583756,0.04388619433273016
750,7.0,300.01743,274.73779,0.0,0.0,0.0,0.0,-0.007475107187865617,0.0,-0.029352769192892772,-0.021544525107029082,-0.032616133657461764,-0.06097397737841304,-0.07597428080657773,0.005872562606901805
751,7.0,300.60861,247.58042000000003,0.0,0.0,0.0,0.0,-0.007485073997449437,0.0,0.032907779460244965,-0.05317953274566125,-0.054986511298246145,-0.05679673022465086,-0.06136309581431604,-0.007778080542311784
752,7.0,300.83882,116.77927,0.0,0.0,0.0,0.0,-0.007495040807033258,0.0,0.011824765455763489,-0.03549396152523126,-0.01182878805866049,-0.0005406944193748845,-0.08031946403191392,-0.031312901511342764
753,7.0,300.65267,125.74515,0.0,0.0,0.0,0.0,-0.007505007616617079,0.0,-0.010031483815380372,-0.02026498274824808,-0.007926919179976013,-0.010807481607115388,-0.09876850907019291,-0.01110445406567429
754,7.0,300.24743,434.03342999999995,0.0,0.0,0.0,0.0,-0.007514974426200899,0.0,-0.06856900425898384,-0.04900771255943465,-0.014358608086834286,0.02148620243127308,-0.07672397948931722,-0.03229873103713657
755,7.0,300.53117000000003,614.9087599999999,0.0,0.0,0.0,0.0,-0.007524941235784721,0.0,-0.08025229365628472,-0.058793305096197436,-0.04787130900253036,0.0005928354893183074,-0.047216138448120046,0.003217826674599767
756,7.0,301.30509,289.89727,0.0,0.0,0.0,0.0,-0.007534908045368542,0.0,-0.039288694607242255,-0.04203933932245976,-0.0067934952876407845,0.015946648624061685,-0.05316198933342985,-0.03300272606086547
757,7.0,300.55439,131.41328000000001,0.0,0.0,0.0,0.0,-0.007544874854952362,0.0,0.01023310052292839,-0.025794490180717975,-0.024384966072608778,-0.03358229903856487,-0.08726680928956351,0.005555077204043434
758,7.0,300.16292000000004,486.35717,0.0,0.0,0.0,0.0,-0.007554841664536183,0.0,-0.07169712212670504,-0.03608023107284156,-0.04006308112866826,-0.015523424189792686,-0.10252332009826391,-0.00023148888090117375
759,7.0,299.91985,606.20009,0.0,0.0,0.0,0.0,-0.007564808474120003,0.0,-0.07618124423225343,-0.019484481262468583,-0.08860396504903051,-0.03640923540681176,-0.06171455579700244,0.03472784819087176
760,7.0,299.42446,228.86773,0.0,0.0,0.0,0.0,-0.007574775283703825,0.0,-0.01964105069442078,-0.025609612567471976,-0.024319412844139177,-0.014946689325623385,-0.08096788431415801,0.01856485040545808
761,7.0,299.04899,99.342458,0.0,0.0,0.0,0.0,-0.007584742093287646,0.0,-0.021412378042237182,0.011951164352738089,-0.020736412556024583,-0.01933609483832398,-0.07502910895429653,0.03078150553614807
762,7.0,300.27924,463.43932,0.0,0.0,0.0,0.0,-0.007594708902871466,0.0,-0.06736980756688234,-0.032381359556291366,-0.041122814077005757,-0.016605350355070485,-0.07781043488254202,0.012378544125667188
763,7.0,299.5448,539.97502,0.0,0.0,0.0,0.0,-0.0076046757124552875,0.0,-0.03253356593331297,-0.07604550519585702,-0.055559849748080245,0.02210052583440208,-0.04765908883533586,-0.025993861323394377
764,7.0,299.7746,487.68032,0.0,0.0,0.0,0.0,-0.007614642522039108,0.0,-0.06557698715794474,-0.05292443487398504,-0.029741217870479675,-0.019762501891157084,-0.08643858372407402,-0.028409143560264173
765,7.0,300.04892,356.46207000000004,0.0,0.0,0.0,0.0,-0.007624609331622928,0.0,-0.042393266569139665,-0.03126764469562627,-0.03469465614409597,-0.01040159996155799,-0.07149867912112023,-0.019107841001547082
766,7.0,300.19064,181.96918,0.0,0.0,0.0,0.0,-0.00763457614120675,0.0,-0.04525721291053916,-0.018977513733934782,0.00892064060682368,-0.045710919960816554,-0.08734490756752122,-0.009147874911349961
767,7.0,299.71342999999996,217.0698,0.0,0.0,0.0,0.0,-0.00764454295079057,0.0,-0.017770943620855583,-0.025697421834388074,-0.02251543249860018,-0.016119361156607084,-0.025896059383992077,-0.01151499868819189
768,7.0,301.14841,418.11646,0.0,0.0,0.0,0.0,-0.007654509760374391,0.0,-0.030684163612291177,-0.05116680565427054,-0.045245995218682056,-0.03247732042026197,-0.04616381539776386,0.0022825341121185776
769,7.0,300.23556,248.93346,0.0,0.0,0.0,0.0,-0.007664476569958212,0.0,0.03227736463227787,-0.056530057997082356,-0.051416863619949356,-0.01907846485464788,-0.06359373956496343,-0.009764680169273902
770,7.0,301.08126,223.68375,0.0,0.0,0.0,0.0,-0.007674443379542034,0.0,-0.016366548584752585,-0.03340388494770677,-0.018223842097553185,-0.0046107576977463555,-0.09002364698939222,0.0027046623111043875
771,7.0,299.95644,669.67986,0.0,0.0,0.0,0.0,-0.007684410189125854,0.0,-0.040725576468051465,-0.08568820312401722,-0.07715217695507702,0.014837647402861786,-0.05250244457833786,0.007870609021568631
772,7.0,299.87827999999996,790.08025,0.0,0.0,0.0,0.0,-0.007694376998709674,0.0,-0.10386367772804689,-0.07590537574677733,-0.06039561624783324,-0.01950861080034998,-0.06939515164851823,9.602148875058312e-05
773,7.0,299.06647999999996,473.09857,0.0,0.0,0.0,0.0,-0.007704343808293494,0.0,-0.05874973027564694,-0.04626906979165166,-0.038791352954658465,-0.053889099631690036,-0.07494753320199563,0.006132814273886644
774,7.0,299.50252,227.27552000000003,0.0,0.0,0.0,0.0,-0.0077143106178773155,0.0,-0.014282735919346286,-0.016122388747905884,-0.038680959356263464,-0.06529981360633985,-0.06320244669434584,-0.004750312836669375
775,7.0,299.20493,210.60877999999997,0.0,0.0,0.0,0.0,-0.0077242774274611375,0.0,-0.008969780095598371,-0.006165713390058535,-0.048884315922506354,-0.033658302928565864,-0.04031563472934336,0.014263640207961685
776,7.0,299.70926000000003,327.84895,0.0,0.0,0.0,0.0,-0.007734244237044959,0.0,-0.03971226962604586,-0.02594665197473518,-0.03399897078443717,-0.011297778131753889,-0.08670850443146312,0.005000229149984195
777,7.0,299.08288999999996,479.03009000000003,0.0,0.0,0.0,0.0,-0.007744211046628779,0.0,-0.057650399513401444,-0.029403542142153676,-0.05855924533634754,0.0029206768972733672,-0.09474390804399573,0.03515788166581276
778,7.0,300.21372,496.79326,0.0,0.0,0.0,0.0,-0.007754177856212599,0.0,-0.08793286620304823,-0.02686425937129597,-0.036215620537953463,-0.005567496002569074,-0.09563827350976271,0.02056024686713838
779,7.0,300.35831,362.15648,0.0,0.0,0.0,0.0,-0.0077641446657964195,0.0,-0.033705376501711674,-0.033255980830609766,-0.04312516954037286,0.004032004743352886,-0.05284206979985625,0.017245473132245684
780,7.0,300.48073999999997,644.51843,0.0,0.0,0.0,0.0,-0.007774111475380241,0.0,-0.06750578066405183,-0.06344260216679735,-0.06496912423745334,-0.023734186944131878,-0.06706867166366254,-0.025278064975750775
781,7.0,299.98329,995.56301,0.0,0.0,0.0,0.0,-0.007784078284964063,0.0,-0.0936818486734286,-0.08177867184542652,-0.12716577531278486,-0.037492636864235165,-0.07305925044813663,0.008366252568309841
782,7.0,300.73917,546.18756,0.0,0.0,0.0,0.0,-0.007794045094547884,0.0,-0.04252855268274136,-0.07381915965213383,-0.04967966760175145,-0.047520668739174855,-0.05837492602390665,-0.02946565842628407
783,7.0,300.78463,86.8802,0.0,0.0,0.0,0.0,-0.007804011904131703,0.0,0.02960874251265537,-0.026595939599064877,-0.02942221431499647,-0.02993516103237037,-0.03578263850522147,-0.0014637670336625586
784,7.0,299.28154,90.964638,0.0,0.0,0.0,0.0,-0.007813978713715525,0.0,-0.017574765229244282,-0.01039234088214419,0.00031612737414684266,-0.021917500442338877,-0.057706015798140345,-0.011504970551952189
785,7.0,299.13236,458.84765999999996,0.0,0.0,0.0,0.0,-0.007823945523299345,0.0,-0.03532735483778846,-0.04658378425946155,-0.057567092116679645,-0.033934586846582966,-0.07773862686120513,0.00999171901785589
786,7.0,299.75392999999997,543.50495,0.0,0.0,0.0,0.0,-0.007833912332883166,0.0,-0.06997106274035622,-0.05143532908977175,-0.043805542664520455,-0.006568661777901443,-0.07404395627956953,-0.016857540198959683
787,7.0,299.781,408.89337,0.0,0.0,0.0,0.0,-0.007843879142466988,0.0,-0.029069548564691072,-0.049962170848882353,-0.045261657025477756,-0.00938816686858993,-0.03808116899931876,-0.023075133615338375
788,7.0,300.22736000000003,270.51558,0.0,0.0,0.0,0.0,-0.007853845952050806,0.0,-0.03972564250086567,-0.03738932081778867,-0.0051150185312880255,0.0073471070752530124,-0.07268112780231883,-0.01952892747810508
789,7.0,299.86087000000003,314.42974,0.0,0.0,0.0,0.0,-0.007863812761634628,0.0,-0.02313027468578038,-0.04388468560333125,-0.028563829360280475,-0.0008029551485255033,-0.09400806555637373,-0.007123350549044964
790,7.0,300.24658999999997,578.95796,0.0,0.0,0.0,0.0,-0.00787377957121845,0.0,-0.09449200900288522,-0.04876729870820765,-0.032729455548645765,-0.015782021827314283,-0.08498138011925922,0.003188321844937867
791,7.0,301.48742999999996,597.27378,0.0,0.0,0.0,0.0,-0.00788374638080227,0.0,-0.055700739134734945,-0.03969499979134146,-0.08616057728088691,-0.023498802866401276,-0.05912478480016194,-0.004851722554377735
792,7.0,301.02557,98.486106,0.0,0.0,0.0,0.0,-0.00789371319038609,0.0,-0.015976362183244185,-0.004805789495544496,-0.009155165549794491,-0.043679488272579864,-0.07523743317485652,-0.005139204608525005
793,7.0,299.38696,79.966332,0.0,0.0,0.0,0.0,-0.007903679999969911,0.0,-0.015426786474755285,0.01969680782092358,-0.028577788906908173,-0.04392621264542966,-0.07224781038380373,0.015034974820086484
794,7.0,298.45716,591.61755,0.0,0.0,0.0,0.0,-0.007913646809553733,0.0,-0.05347420715299336,-0.03634448568567147,-0.0900182706843616,-0.00950391478448836,-0.054371226320772244,0.02695626349362608
795,7.0,299.18936,565.36523,0.0,0.0,0.0,0.0,-0.007923613619137553,0.0,-0.048465065455129554,-0.04760069827182316,-0.07579114902325403,0.004264826210255576,-0.05229963041182166,0.025009812078026272
796,7.0,299.89556,261.66974,0.0,0.0,0.0,0.0,-0.007933580428721375,0.0,-0.030541587164219973,-0.017929542592758085,-0.031069937309614073,-0.009456491437408041,-0.0868903777581626,0.013176117862381587
797,7.0,300.40462,193.60183999999998,0.0,0.0,0.0,0.0,-0.007943547238305195,0.0,-0.017106382264518483,-0.020522171968130682,-0.02122156987615588,-0.02016889016176448,-0.10019311135304021,0.0008001879928999062
798,7.0,300.4453,428.19402,0.0,0.0,0.0,0.0,-0.007953514047889016,0.0,-0.06645835667792914,-0.058822082412287535,-0.004879849870528686,-0.0004254262976638066,-0.06698076411148673,-0.02134286604562688
799,7.0,300.86352,685.40555,0.0,0.0,0.0,0.0,-0.007963480857472836,0.0,-0.08441122428798922,-0.07478784802598593,-0.04914709929619105,0.013054856143413987,-0.062484182069458646,-0.04813334865064166
800,7.0,301.07882,596.59498,0.0,0.0,0.0,0.0,-0.007973447667056658,0.0,-0.051824775818707154,-0.08260031331176622,-0.046924887812875855,-0.003760006366633736,-0.06896144919496514,-0.037567688299142164
801,7.0,300.55961,-93.915295,0.0,0.0,0.0,0.0,-0.007983414476640478,0.0,0.038171919731275164,0.0026799847062438974,-0.012303999315810187,-0.023994363225309276,-0.07898420001038363,-0.024878511077067875
802,7.0,298.98301000000004,-179.33213999999998,0.0,0.0,0.0,0.0,-0.0079933812862243,0.0,0.044861657296750866,-0.005536216262707005,0.015187052514345383,-0.023994992453621376,-0.05899091014394953,-0.0048385453381522454
803,7.0,299.03045,445.17668,0.0,0.0,0.0,0.0,-0.008003348095808119,0.0,-0.0001103999008106219,-0.05433185952788705,-0.08088033443926752,-0.01861365663627488,-0.04949539793856546,-0.01933782242974448
804,7.0,299.55764,651.8134200000001,0.0,0.0,0.0,0.0,-0.00801331490539194,0.0,-0.09048226120990392,-0.027560483780007975,-0.08009225890899052,-0.03982537164195816,-0.08022740316757822,0.019171515664331285
805,7.0,300.36335,334.51223,0.0,0.0,0.0,0.0,-0.008023281714975761,0.0,-0.021614872021721777,-0.04566337218662395,-0.03440512094127107,-0.024635698862854178,-0.08597802710312062,-0.016165559281666485
806,7.0,300.96144,149.94746999999998,0.0,0.0,0.0,0.0,-0.008033248524559583,0.0,-0.015994618923545985,-0.018092351618826084,-0.011493316149301989,-0.026347922319087475,-0.07514596708832952,0.013548645341147187
807,7.0,300.29095,401.44822,0.0,0.0,0.0,0.0,-0.008043215334143403,0.0,-0.054316442927615546,-0.028892791137746475,-0.03882100166583456,0.009814584155249042,-0.06748111613011763,-0.0018450543635176882
808,7.0,300.61413999999996,701.14934,0.0,0.0,0.0,0.0,-0.008053182143727224,0.0,-0.09206207111656901,-0.05467108350236585,-0.06639873704204514,-0.018548818762375883,-0.08232778247211951,0.02064548146555038
809,7.0,299.45588,533.60547,0.0,0.0,0.0,0.0,-0.008063148953311046,0.0,-0.07420576928078923,-0.03802879714140007,-0.04996817334247475,-0.0067325126277222634,-0.1032010628251519,-0.0006763124534443423
810,7.0,299.3769,203.96628,0.0,0.0,0.0,0.0,-0.008073115762894866,0.0,-0.05885562403034785,-0.005038524430888645,0.001893491365998048,-0.011990440966364388,-0.08142809035057683,0.028410719164169675
811,7.0,298.52774,43.339328,0.0,0.0,0.0,0.0,-0.008083082572478688,0.0,-0.009099487659449512,-0.015381958263831085,0.01130737259695079,-0.014095880441905087,-0.07774494143582833,-0.03479456159070586
812,7.0,298.79875,402.12175,0.0,0.0,0.0,0.0,-0.008093049382062508,0.0,-0.03942903278584256,-0.021961587967439983,-0.06084434925336974,-0.028647395135777774,-0.07709199901838792,0.017156544223969086
813,7.0,299.68118,773.0059200000001,0.0,0.0,0.0,0.0,-0.008103016191646327,0.0,-0.07698064688539834,-0.06595422523642523,-0.09203962661360392,-0.02430862173057418,-0.08245970864838963,0.0050098180423055454
814,7.0,300.65372,440.30597,0.0,0.0,0.0,0.0,-0.008112983001230149,0.0,-0.026098902934761175,-0.02679111082007677,-0.08095200769834113,-0.026665968353226176,-0.033218593928419964,0.030259455779875766
815,7.0,299.59812,62.63756,0.0,0.0,0.0,0.0,-0.00812294981081397,0.0,0.01971474336094368,-0.02160729189772368,-0.017147705643346785,-0.034621665659892366,-0.040823595242975165,-0.004229990773142587
816,7.0,300.35400000000004,426.59425,0.0,0.0,0.0,0.0,-0.008132916620397791,0.0,-0.07244058932132953,-0.037831144470893266,-0.01940226513610448,-0.03970778700760346,-0.05250277185812015,-0.0005599127036240815
817,7.0,299.45762,658.39938,0.0,0.0,0.0,0.0,-0.008142883429981613,0.0,-0.058813506263441145,-0.07099424674433663,-0.07032921827970344,-0.028597400362593672,-0.07869639037247902,-0.019706235099853982
818,7.0,299.345,449.45766,0.0,0.0,0.0,0.0,-0.008152850239565431,0.0,-0.05303163369481475,-0.07900723827790733,-0.004585034013482626,0.01040025233892499,-0.056022483531738644,-0.032307169383969374
819,7.0,299.95832,185.92099,0.0,0.0,0.0,0.0,-0.008162817049149252,0.0,-0.014236667490299684,-0.03141059401973427,-0.01086807497634549,-0.011219564343284789,-0.050526468068074155,-0.024755087082386874
820,7.0,299.32538,141.24771,0.0,0.0,0.0,0.0,-0.008172783858733074,0.0,0.001005999657186936,-0.02206646340579038,-0.02187531377442538,-0.01049586160511089,-0.07932096786662002,0.005114300643592175
821,7.0,299.56052,439.29562999999996,0.0,0.0,0.0,0.0,-0.008182750668316896,0.0,-0.03957497322424576,-0.062394581376365735,-0.03156534770750727,-0.024014146933511775,-0.07855728734575063,-0.006303328053715044
822,7.0,301.17309,735.84985,0.0,0.0,0.0,0.0,-0.008192717477900716,0.0,-0.1021203100034899,-0.03364028835503797,-0.08791938592371783,-0.021488043506704777,-0.04801439207565155,0.025440831445314577
823,7.0,301.3747,354.70237000000003,0.0,0.0,0.0,0.0,-0.008202684287484536,0.0,-0.026832512219162774,-0.03557580376230846,-0.04541234758034975,-0.02001092751092478,-0.07965058825665103,-0.025474763164663374
824,7.0,301.39696000000004,-30.168452000000002,0.0,0.0,0.0,0.0,-0.008212651097068356,0.0,-0.00020184223675527783,0.020776953705775682,-0.01140465473905179,-0.03797805560289227,-0.09505739242618422,0.023602600206645275
825,7.0,300.32419,238.2391,0.0,0.0,0.0,0.0,-0.008222617906652178,0.0,-0.04007954644279326,0.005555216221957155,-0.03789440775413686,-0.03947236746611936,-0.07422460458689813,0.001078477669887459
826,7.0,300.21621,781.44355,0.0,0.0,0.0,0.0,-0.008232584716235999,0.0,-0.1136943416557579,-0.061581534297374244,-0.06226344756167384,-0.012198187634367388,-0.04865693145431525,0.044544085463658956
827,7.0,299.77721,559.59898,0.0,0.0,0.0,0.0,-0.00824255152581982,0.0,-0.07994258971021932,-0.04407946976280496,-0.04608205624719486,-0.05913890849330585,-0.06354891743353984,0.018486788604503982
828,7.0,299.00425,189.29543999999999,0.0,0.0,0.0,0.0,-0.00825251833540364,0.0,-0.029223509890885874,-0.028986192531964477,0.0006686140527620694,-0.05266811400943815,-0.07300098147463593,0.01789269372637138
829,7.0,299.15283999999997,285.47182999999995,0.0,0.0,0.0,0.0,-0.008262485144987461,0.0,-0.014368843939344487,-0.051430241561019656,-0.02097722360129078,-0.02810983859997507,-0.09315343570652831,-0.014127510057026687
830,7.0,300.00894,563.0760799999999,0.0,0.0,0.0,0.0,-0.008272451954571283,0.0,-0.05920291347562265,-0.04839660622537316,-0.06356154658278623,0.02236949307344708,-0.059062179116233245,-0.008989229836567912
831,7.0,299.62646,586.40753,0.0,0.0,0.0,0.0,-0.008282418764155104,0.0,-0.03164847069271087,-0.07928382617095443,-0.06732095168681064,0.006035437798201333,-0.1103091642641669,-0.025136924303071274
832,7.0,300.50042,310.8675,0.0,0.0,0.0,0.0,-0.008292385573738924,0.0,-0.016803206688847383,-0.02155153173147058,-0.05614121820495685,-0.004882237898364366,-0.10139621108452691,0.015710391124744885
833,7.0,301.08373,-58.133265,0.0,0.0,0.0,0.0,-0.008302352383322744,0.0,-0.0013565091403520287,-0.0003275939303610037,0.019355164205205982,-0.03389305473823407,-0.08086266741052392,-0.005978575823789495
834,7.0,299.62658999999996,178.7194,0.0,0.0,0.0,0.0,-0.008312319192906564,0.0,-0.004382214882040936,-0.03811784459993836,-0.01182617488665259,-0.013222599697468989,-0.04935221151393405,-0.017444190728607586
835,7.0,299.94984,806.3769900000001,0.0,0.0,0.0,0.0,-0.008322286002490386,0.0,-0.08056916938655792,-0.08410439087945713,-0.08044490844729432,-0.017821874637132085,-0.058950966811757446,-0.026588026115783876
836,7.0,300.55841000000004,690.32329,0.0,0.0,0.0,0.0,-0.008332252812074208,0.0,-0.06438452047300744,-0.08154248831336702,-0.06391403400107402,-0.029567913599875872,-0.07386322488573273,0.01043583362943659
837,7.0,300.54689,-7.410064200000001,0.0,0.0,0.0,0.0,-0.008342219621658029,0.0,0.004803419503560595,-0.012114903542397887,0.00956395846553921,-0.004468220665104046,-0.052602669198729246,-0.014847208430805387
838,7.0,299.88477,179.65905,0.0,0.0,0.0,0.0,-0.008352186431241849,0.0,-0.022623871537552277,-0.013440154626439988,-0.018547839962779283,-0.01095707177237879,-0.03714357220478517,0.02352107815659968
839,7.0,300.1744,673.77054,0.0,0.0,0.0,0.0,-0.008362153240825669,0.0,-0.11387805403138888,-0.04669732602591725,-0.04423404207881006,0.005883433159274644,-0.08587231269368742,0.007243292205782284
840,7.0,299.58009,639.68033,0.0,0.0,0.0,0.0,-0.00837212005040949,0.0,-0.07677734737208422,-0.04043969605833726,-0.07722980305848813,-0.04192064923224596,-0.11385438450905289,0.029844022225625672
841,7.0,300.19218,404.24321000000003,0.0,0.0,0.0,0.0,-0.008382086859993311,0.0,-0.029103361733778175,-0.039012252622209566,-0.05476422753105845,-0.006058406252793145,-0.08482746742906921,0.0036751284322569366
842,7.0,299.83682999999996,195.40031000000002,0.0,0.0,0.0,0.0,-0.008392053669577133,0.0,-0.01965525747407288,-0.0011724124389580989,-0.03856914619447836,-0.01812400352544988,-0.05592772640888685,0.03090163241500367
843,7.0,299.27656,247.27881000000002,0.0,0.0,0.0,0.0,-0.008402020479160952,0.0,-0.012176897223266188,-0.022459760485105777,-0.040529925979742254,-0.015082316904508787,-0.08235174381048432,-0.0026243183669500576
844,7.0,299.91053999999997,574.94578,0.0,0.0,0.0,0.0,-0.008411987288744774,0.0,-0.09072359813197202,-0.03542166005109567,-0.04862390355405566,-0.03192054962281297,-0.08461604874270383,0.015087480427018385
845,7.0,300.02367999999996,619.6388900000001,0.0,0.0,0.0,0.0,-0.008421954098328596,0.0,-0.100271575414284,-0.04349249701962526,-0.044590677743007255,-0.04219727664204696,-0.08990421013385473,0.003295866792001727
846,7.0,300.1944,170.32529,0.0,0.0,0.0,0.0,-0.008431920907912416,0.0,-0.016006077768926884,-0.04125562178086286,0.005487064918906145,-0.012117664648920388,-0.04739945565621205,-0.031851690159267074
847,7.0,300.3879,-0.43617525,0.0,0.0,0.0,0.0,-0.008441887717496236,0.0,0.014375817126532684,-0.02777885234880927,0.013535622037611886,-0.015966837632304186,-0.0884346013080656,-0.021415443123789683
848,7.0,300.92393,626.87783,0.0,0.0,0.0,0.0,-0.008451854527080057,0.0,-0.047193846945920055,-0.07735115090371422,-0.06601020831770034,-0.013126578038492388,-0.07424155524782103,0.005690881088446234
849,7.0,301.26527000000004,812.96135,0.0,0.0,0.0,0.0,-0.008461821336663877,0.0,-0.050456590288177755,-0.08440562000168612,-0.1122577455314769,-0.02493986134412268,-0.07733757031262392,0.006033312202141555
850,7.0,301.56183,296.7,0.0,0.0,0.0,0.0,-0.008471788146247697,0.0,-0.01125824820560259,-0.039004314820926166,-0.03992682837447116,-0.012389489253247388,-0.05111650690605645,0.006666733849780403
851,7.0,300.58554,89.920016,0.0,0.0,0.0,0.0,-0.008481754955831521,0.0,-0.009366021477054351,-0.02146344990027758,0.003496032120106507,-0.019419906833595582,-0.08692909911073411,-0.004261018112404746
852,7.0,300.65551,309.84314,0.0,0.0,0.0,0.0,-0.008491721765415341,0.0,-0.016679731018411283,-0.027039903236380673,-0.050464942508752046,-0.024115230789987976,-0.1003987838980885,-0.00952911826615075
853,7.0,300.73391000000004,423.95025,0.0,0.0,0.0,0.0,-0.00850168857499916,0.0,-0.054782956445906854,-0.04490113453389696,-0.02918619796920347,-0.03274374440155597,-0.08869291320905902,-0.008941171080349882
854,7.0,299.69785,432.23644,0.0,0.0,0.0,0.0,-0.008511655384582982,0.0,-0.045975908166718864,-0.044454393578057055,-0.040958782058067064,-0.014637256930584788,-0.037210588566399166,-0.003933236872630257
855,7.0,299.21909,171.48448,0.0,0.0,0.0,0.0,-0.008521622194166802,0.0,-0.04242875464064206,-0.0061553546303112034,-0.0035428913908561563,-0.022866699963767577,-0.05766811619139994,0.0024814252782226075
856,7.0,299.8964,3.4418068999999996,0.0,0.0,0.0,0.0,-0.008531589003750624,0.0,-0.04592465291041036,-0.008836354106530253,0.05371478413748645,-0.010501619905429188,-0.06760442360103713,0.008581343374362652
857,7.0,299.54785,455.80742999999995,0.0,0.0,0.0,0.0,-0.008541555813334446,0.0,-0.06959394422538753,-0.04341499250622616,-0.02554514250335927,-0.021540181303850377,-0.09449812599373891,-0.0040262292177828864
858,7.0,299.19887,978.5558900000001,0.0,0.0,0.0,0.0,-0.008551522622918264,0.0,-0.10940606458253789,-0.08110371150331312,-0.1069467849998259,-0.004778487268949976,-0.05373483534371535,0.006647151271722754
859,7.0,298.65435,482.47815,0.0,0.0,0.0,0.0,-0.008561489432502086,0.0,-0.03914828448788486,-0.027176866278897874,-0.08033615935381162,-0.03310622347907986,-0.08416567427200533,-0.0014775930339270785
860,7.0,299.27407999999997,-215.03357000000003,0.0,0.0,0.0,0.0,-0.008571456242085907,0.0,0.06031265538264565,0.025785279737308976,-0.02073309922819758,-0.03718453790632816,-0.07503442041132072,0.02242139478331938
861,7.0,300.13202,-9.9288765,0.0,0.0,0.0,0.0,-0.008581423051669729,0.0,0.016463715216342184,-0.0005890473828919503,-0.012856537767591488,-0.037673053137290864,-0.09967928310807932,0.02059276712909788
862,7.0,301.77509,432.69635999999997,0.0,0.0,0.0,0.0,-0.008591389861253549,0.0,-0.07081696242734004,-0.03458019637304967,-0.026131731224751074,-0.011234544232763188,-0.061196252026349846,0.019094938274773682
863,7.0,300.0264,392.97081000000003,0.0,0.0,0.0,0.0,-0.00860135667083737,0.0,-0.06920133108988964,-0.04901191349434925,-0.0012400709984854788,-0.029746660036766768,-0.0877113585854371,-0.026270607283457075
864,7.0,300.43435,345.88043999999996,0.0,0.0,0.0,0.0,-0.00861132348042119,0.0,-0.03687353902663496,-0.06483002121072494,-0.003435456989378207,-0.027202277578155774,-0.0924812840936921,-0.023661148837173577
865,7.0,299.39047999999997,227.99558,0.0,0.0,0.0,0.0,-0.008621290290005012,0.0,-0.009494440085453281,-0.04450683535023266,-0.015303686720106286,-0.02339441682784918,-0.07551577804357702,-0.019100051134778282
866,7.0,299.3329,439.49332999999996,0.0,0.0,0.0,0.0,-0.008631257099588832,0.0,-0.0005370865296113136,-0.07147388489117323,-0.061584027905870344,0.005794712980518645,-0.07603399366147093,-0.025108392193505375
867,7.0,299.56662,896.96775,0.0,0.0,0.0,0.0,-0.008641223909172654,0.0,-0.09928936521784741,-0.09141052901076682,-0.08195590448666802,-0.001125308468309299,-0.06814962916184474,0.012413897434906288
868,7.0,299.86945,587.8158099999999,0.0,0.0,0.0,0.0,-0.008651190718756472,0.0,-0.08506849733635702,-0.027105647969119177,-0.06650718317374794,-0.025759499615014676,-0.07453305210283952,0.024087575141758577
869,7.0,298.75156,-102.80935,0.0,0.0,0.0,0.0,-0.008661157528340294,0.0,0.021959965754029878,-0.004377512185676816,0.013669023506027587,-0.014224604747859186,-0.07837655291216353,0.0073359724699041135
870,7.0,300.62301,154.71733999999998,0.0,0.0,0.0,0.0,-0.008671124337924115,0.0,-0.015235618604888488,-0.013718933166203286,-0.01807565629692838,-0.02087552976825438,-0.07950099505163732,-0.005285373838800785
871,7.0,300.15603,833.2959099999999,0.0,0.0,0.0,0.0,-0.008681091147507937,0.0,-0.1063454615954799,-0.04478756338318836,-0.10216812527570891,-0.023822592002106773,-0.08750944114525941,0.0024880930718306675
872,7.0,300.02263999999997,681.82918,0.0,0.0,0.0,0.0,-0.008691057957091757,0.0,-0.05785001586260204,-0.06548232426735223,-0.08392670430217082,-0.02730411427945627,-0.0973054671183019,0.02218151491489508
873,7.0,300.60528999999997,153.76445,0.0,0.0,0.0,0.0,-0.008701024766675577,0.0,-0.032777856479422565,0.009211710883550082,-0.02317440882038608,-0.002060074748688548,-0.06619072692901613,0.02798304554871157
874,7.0,299.82656000000003,222.0801,0.0,0.0,0.0,0.0,-0.008710991576259397,0.0,-0.037131903616633564,-0.02187615274550818,-0.008498748393786162,-0.011843102242823188,-0.06838203225778113,0.040780302105952466
875,7.0,299.47028,553.01231,0.0,0.0,0.0,0.0,-0.00872095838584322,0.0,-0.08464014281683171,-0.05570807709195915,-0.027753713613828272,-0.00975219297636651,-0.0991063134812816,0.005928932547065084
876,7.0,300.84247999999997,794.80034,0.0,0.0,0.0,0.0,-0.008730925195427041,0.0,-0.10504794417992491,-0.06558091755508265,-0.07097059140750203,-0.036420095421383566,-0.09846604074309159,0.0007493051060031564
877,7.0,298.90461,599.91761,0.0,0.0,0.0,0.0,-0.008740892005010862,0.0,-0.05391544818729045,-0.05962876932040134,-0.06881575598958634,-0.01979720672033218,-0.08023960269878222,-0.017935185382564982
878,7.0,300.03401,46.70682,0.0,0.0,0.0,0.0,-0.008750858814594682,0.0,0.03418533584882997,-0.02407719034148368,-0.024305852518050876,-0.02992999750986077,-0.07600265586237813,-0.005487964988969974
879,7.0,299.6928,-48.636528000000006,0.0,0.0,0.0,0.0,-0.008760825624178502,0.0,0.002024695702896908,0.0014422245259364786,0.011317369322437388,-0.024529328880606275,-0.06938576388634174,0.01105648883244049
880,7.0,299.9667,508.74955,0.0,0.0,0.0,0.0,-0.008770792433762322,0.0,-0.07019212554117343,-0.03907686758108656,-0.04537816660147636,-0.04172077754402016,-0.07046236035609353,0.011361599715802589
881,7.0,299.36692,669.24414,0.0,0.0,0.0,0.0,-0.008780759243346144,0.0,-0.08936944915507791,-0.06040851897460665,-0.05365553839088935,-0.010477758878824291,-0.034377421723287366,-0.0006122951500063265
882,7.0,299.76089,158.18345,0.0,0.0,0.0,0.0,-0.008790726052929966,0.0,-0.010843941385463688,-0.030420935421812574,-0.0068189421519771936,-0.016934084151263983,-0.05110425468584725,-0.046099614858177755
883,7.0,299.02947,-36.296925,0.0,0.0,0.0,0.0,-0.008800692862513785,0.0,0.04153924365610416,-0.03526858126573797,0.004762696576741556,-0.014692346325271687,-0.09642964108961459,-0.04446672584502416
884,7.0,300.18782999999996,402.8664,0.0,0.0,0.0,0.0,-0.008810659672097607,0.0,-0.009310197678694971,-0.05688758228161725,-0.05626354687627974,-0.0009813211505338571,-0.12023697861146589,-0.014803187780210886
885,7.0,299.89718999999997,575.3935299999999,0.0,0.0,0.0,0.0,-0.008820626481681427,0.0,-0.07206562092307303,-0.06942707915916924,-0.033412565461313465,-0.0016420972274123783,-0.0980576492770365,0.002182117075533188
886,7.0,299.88139,302.79815,0.0,0.0,0.0,0.0,-0.008830593291265247,0.0,-0.02284003122113558,-0.03853001346236626,-0.03067303103344247,0.003168243280956267,-0.06513998556206603,0.011704249488869488
887,7.0,300.70482000000004,58.303066,0.0,0.0,0.0,0.0,-0.00884056010084907,0.0,-0.014004259328112788,-0.013327224863044688,0.009608807853390501,-0.05659937443642335,-0.07575455042964202,0.02131931406030248
888,7.0,301.3982,191.47425,0.0,0.0,0.0,0.0,-0.00885052691043289,0.0,-0.017395144357517083,-0.006717213057837313,-0.034091032662022965,-0.016576083639182084,-0.07927246662408333,0.014084282781260485
889,7.0,300.13006,732.68466,0.0,0.0,0.0,0.0,-0.00886049372001671,0.0,-0.07222927702622464,-0.05181511853200405,-0.0986734459458109,-0.03445212257365976,-0.07084634161398953,0.0054359297327344945
890,7.0,299.2347,950.6642099999999,0.0,0.0,0.0,0.0,-0.008870460529600532,0.0,-0.0961769962964305,-0.07546824749463613,-0.1173329430298599,-0.018032818109200585,-0.06511286085688903,0.005223492628693585
891,7.0,299.50777999999997,439.72038,0.0,0.0,0.0,0.0,-0.008880427339184354,0.0,-0.07967365590842762,-0.01099416989829009,-0.042996190908643664,-0.047834532076900756,-0.1015742492595979,0.01808915278826038
892,7.0,299.34901,20.325148000000002,0.0,0.0,0.0,0.0,-0.008890394148768174,0.0,0.009098090488886622,-0.013943251539591788,-0.0013331768276493086,-0.04161824980615146,-0.08490004146748172,0.004279435554172406
893,7.0,299.59054,225.56522999999999,0.0,0.0,0.0,0.0,-0.008900360958351995,0.0,-0.04435337051658686,-0.016280884368298186,-0.007931941962046723,-0.015931307004297585,-0.049353554070316545,0.009159491215796402
894,7.0,299.38825,472.6395,0.0,0.0,0.0,0.0,-0.008910327767935815,0.0,-0.03696629498053926,-0.05330589009938175,-0.05339841908526365,-0.02836482096113987,-0.05770909405194415,-0.014916514737645386
895,7.0,299.21224,231.77611000000002,0.0,0.0,0.0,0.0,-0.008920294577519635,0.0,-0.0017169205797218682,-0.03696126014079237,-0.03177596896604397,-0.028089461127213975,-0.08925250185503611,-0.008093334363149914
896,7.0,300.68667999999997,-3.3562112,0.0,0.0,0.0,0.0,-0.008930261387103457,0.0,0.033638388511100466,-0.01883890314675498,-0.013779281328909185,-0.04227862137332506,-0.13389996719989788,-0.029470305191242677
897,7.0,300.42317,240.41355,0.0,0.0,0.0,0.0,-0.008940228196687279,0.0,-0.03208000175129967,-0.03831399158079656,-0.002685724970710417,-0.0025430679692562672,-0.08457051125670963,0.024921452616305878
898,7.0,300.27886,514.80362,0.0,0.0,0.0,0.0,-0.008950195006271098,0.0,-0.040616294405016164,-0.07205625950539914,-0.04381489293644326,-0.009176667324866552,-0.08119206488553293,-0.008684276614921372
899,7.0,299.81698,591.46228,0.0,0.0,0.0,0.0,-0.00896016181585492,0.0,-0.08766374191023772,-0.04800962270743086,-0.04411639766269946,-0.012691212841525187,-0.07196794260018292,0.028320255181991574
900,7.0,299.86567,390.29242,0.0,0.0,0.0,0.0,-0.00897012862543874,0.0,-0.004077066609750146,-0.05727076408518435,-0.05729131988996304,-0.04463258982014366,-0.06183223669011664,-0.012006948836993589
901,7.0,300.4159,120.4715,0.0,0.0,0.0,0.0,-0.00898009543502256,0.0,0.0004899115301305035,-0.04156827124496896,0.004458031016798406,-0.018391739665623383,-0.056425859409798745,-0.030508787245232868
902,7.0,300.77326,224.99504,0.0,0.0,0.0,0.0,-0.008990062244606382,0.0,-0.024443691008654476,-0.02334286671576158,-0.020606315296184983,0.001896244974469808,-0.060887368812865446,-0.039498158734164755
903,7.0,300.84252999999995,501.07369000000006,0.0,0.0,0.0,0.0,-0.009000029054190202,0.0,-0.08942661469921973,-0.028468981044919673,-0.03441829319257107,-0.03342988393202267,-0.1047309488861399,-0.010295946347130791
904,7.0,301.10087999999996,393.3585,0.0,0.0,0.0,0.0,-0.009009995863774023,0.0,-0.051944641279036946,-0.033760115311863965,-0.03386640524735397,-0.01021591580123239,-0.12501216288773986,-0.004124483674679846
905,7.0,300.80181,173.66553000000002,0.0,0.0,0.0,0.0,-0.009019962673357845,0.0,-0.013444337322852789,-0.012066797467400189,-0.027278849901462874,-0.02067007608522768,-0.07219583977292462,0.0007788330377673363
906,7.0,300.86588,401.24151,0.0,0.0,0.0,0.0,-0.009029929482941665,0.0,-0.0025986905361457878,-0.04068510624580736,-0.07868360416946713,-0.007623436994824652,-0.06843532313354053,0.018579932633196582
907,7.0,300.82229,741.31885,0.0,0.0,0.0,0.0,-0.009039896292525487,0.0,-0.05857376115728015,-0.050911226488796854,-0.1158574279692379,0.004735534482635865,-0.09470420991832781,0.018938632287847482
908,7.0,299.51833,671.58105,0.0,0.0,0.0,0.0,-0.009049863102109305,0.0,-0.09967317320997632,-0.042573166084644364,-0.06189752951331053,-0.05447051469807125,-0.08980207959002522,0.027350000323484877
909,7.0,299.40889,409.91029,0.0,0.0,0.0,0.0,-0.009059829911693127,0.0,-0.07362553363752443,-0.02189471548734018,-0.02908224256194387,0.0008059084888569752,-0.07222098965365673,0.02009886850035388
910,7.0,300.12001000000004,132.75092,0.0,0.0,0.0,0.0,-0.009069796721276948,0.0,-0.04268792577772026,-0.0044174889551222155,0.006752449336689863,-0.03484399198358427,-0.08468830664708513,0.005327261496609776
911,7.0,300.82319,248.81569,0.0,0.0,0.0,0.0,-0.00907976353086077,0.0,-0.05164292275700965,-0.016304770726155583,-0.007686064564955513,-0.008963507266879292,-0.06877400096621543,0.0068041936888216335
912,7.0,300.24577999999997,766.21204,0.0,0.0,0.0,0.0,-0.00908973034044459,0.0,-0.05492468277714415,-0.07333264153711823,-0.1046520065708489,-0.03629480805976867,-0.09265405032849282,-0.014999394542824986
913,7.0,299.34828,762.35475,0.0,0.0,0.0,0.0,-0.00909969715002841,0.0,-0.07401117155933393,-0.07273482701786853,-0.08499080841143972,-0.02276363621659598,-0.046915119068661755,-0.015090778556093884
914,7.0,299.88993,322.13097999999997,0.0,0.0,0.0,0.0,-0.00910966395961223,0.0,-0.035681515131991366,-0.03572580530711247,-0.026512453870325477,-0.020807299533020584,-0.07377649371692303,-0.03504436523060957
915,7.0,300.9054,129.24655,0.0,0.0,0.0,0.0,-0.009119630769196052,0.0,-0.03344501074276557,-0.018239599149858284,0.012396886992227489,-0.005091681557634845,-0.1095433194410839,-0.011715773182256788
916,7.0,301.68277,300.65027000000003,0.0,0.0,0.0,0.0,-0.009129597578779873,0.0,-0.049713007583041854,-0.019500262632776082,-0.02217690462694008,-0.0019458168170621683,-0.08124372240213112,-4.842688619136155e-05
917,7.0,301.73756000000003,369.38097999999997,0.0,0.0,0.0,0.0,-0.009139564388363695,0.0,-0.04686996256470516,-0.034537316642067765,-0.030875314256906268,-0.02107111439530708,-0.06220828622622984,0.008137821210115422
918,7.0,301.34921,209.39695,0.0,0.0,0.0,0.0,-0.009149531197947513,0.0,0.03222779947713617,-0.048013375785801254,-0.04786586784949336,-0.01135097781500429,-0.04810050313540005,-0.011588460333691989
919,7.0,301.22413,206.28035,0.0,0.0,0.0,0.0,-0.009159498007531335,0.0,-0.01951477642720848,-0.023939394407384275,-0.01924990474506768,-0.06754693077711303,-0.10902430234236091,0.0028515164984477676
920,7.0,300.55872999999997,497.93029,0.0,0.0,0.0,0.0,-0.009169464817115155,0.0,-0.05772001688802215,-0.055383005181627046,-0.03825535074450916,-0.029775268140090176,-0.08297806510804742,0.004394235878577317
921,7.0,299.81583,721.20935,0.0,0.0,0.0,0.0,-0.009179431626698977,0.0,-0.1060108560149569,-0.07134438139589223,-0.041874393351930855,-0.01978349541997898,-0.07247279648900813,-0.0029385924762664974
922,7.0,299.82552000000004,793.49107,0.0,0.0,0.0,0.0,-0.0091893984362828,0.0,-0.11396145464711989,-0.058695635892558246,-0.06854437620205324,0.008551616946903883,-0.08061923812699932,0.00841747712314031
923,7.0,300.14522999999997,586.05687,0.0,0.0,0.0,0.0,-0.009199365245866618,0.0,-0.06290339909958215,-0.05121883402040535,-0.06402442253321854,-0.027486162898423074,-0.10893660554620589,-0.006214926136815454
924,7.0,300.30509,147.94634,0.0,0.0,0.0,0.0,-0.00920933205545044,0.0,0.013028765966589088,-0.0015468452332117384,-0.05645391225206735,-0.02311067032284558,-0.1016397558785629,0.009710336931960642
925,7.0,300.37332999999995,273.5067,0.0,0.0,0.0,0.0,-0.00921929886503426,0.0,-0.039398740660852964,-0.006721828006742775,-0.037018639480705266,-0.016947709325358683,-0.056768370367601954,0.022777473159961578
926,7.0,299.43207,427.6604,0.0,0.0,0.0,0.0,-0.00922926567461808,0.0,-0.046311935337132154,-0.03594592679858676,-0.04774022179734305,-0.058618232704169146,-0.06726741256477672,0.045269707297522256
927,7.0,300.10137000000003,224.90092,0.0,0.0,0.0,0.0,-0.009239232484201903,0.0,-0.06741975674381194,-0.00977947544458408,0.008834968892318542,-0.04795009426405586,-0.1110368602209849,0.016680114026949085
928,7.0,299.49512000000004,299.36089,0.0,0.0,0.0,0.0,-0.009249199293785721,0.0,-0.044011917391888054,-0.02706632778573858,-0.01991998932769988,-0.05346153848699304,-0.11641711692697489,0.006378924414525824
929,7.0,299.32685,584.94012,0.0,0.0,0.0,0.0,-0.009259166103369543,0.0,-0.05303698061559245,-0.07817301731157612,-0.04659719158478475,-0.0027128159346590875,-0.07443385390479944,-0.01893635146187238
930,7.0,299.05069,619.91026,0.0,0.0,0.0,0.0,-0.009269132912953365,0.0,-0.022878683672700274,-0.08700294883102251,-0.07855560940358502,0.0005146878052857315,-0.07496202470492583,-0.026233549687549772
931,7.0,299.3028,429.16685,0.0,0.0,0.0,0.0,-0.009279099722537185,0.0,-0.01992426220337158,-0.07568840242336372,-0.03484334046376996,-0.035498818032960566,-0.09187191041730161,-0.015881244343356787
932,7.0,300.28871000000004,130.56708999999998,0.0,0.0,0.0,0.0,-0.009289066532121006,0.0,-0.01137153361978299,-0.02013186093685998,-0.008185740137819654,-0.012262072039922288,-0.08460863783147242,-0.015390548598178885
933,7.0,300.37082999999996,-132.72905,0.0,0.0,0.0,0.0,-0.009299033341704826,0.0,0.01311241178884429,0.013492488994104988,0.013741415159422087,0.0002799907516529358,-0.054286026172863655,-0.002068618068231708
934,7.0,301.33793,4.4762603,0.0,0.0,0.0,0.0,-0.009309000151288648,0.0,-0.00011946405117018387,0.0012150489899159988,-0.0024562562470636174,-0.011876678311386887,-0.05399801793793945,-0.016846149241335484
935,7.0,300.30367,447.15544000000006,0.0,0.0,0.0,0.0,-0.009318966960872468,0.0,-0.015978655168220484,-0.04530455398171136,-0.07464088015198134,-0.03800347602140106,-0.1027972117327949,-0.0072450589086566425
936,7.0,300.74884,593.04811,0.0,0.0,0.0,0.0,-0.00932893377045629,0.0,-0.07231591092302474,-0.04166649064341246,-0.06628941647550603,-0.06123032864046294,-0.0986674019089644,-0.020550805402706582
937,7.0,299.78476,550.76006,0.0,0.0,0.0,0.0,-0.00933890058004011,0.0,-0.06292634313484653,-0.060411961998446444,-0.044079001641258754,-0.049613525674973756,-0.08378620805655491,-0.0026583236482561174
938,7.0,300.08747,664.5192,0.0,0.0,0.0,0.0,-0.00934886738962393,0.0,-0.0909267203265186,-0.04979700804283205,-0.061273516399475245,-0.01103871135943599,-0.08062779198434351,0.03288003971225727
939,7.0,299.01063,690.73601,0.0,0.0,0.0,0.0,-0.009358834199207753,0.0,-0.0948499031237066,-0.058130036646987945,-0.05698655857788545,-0.008261395875086293,-0.1153228574814799,0.034248558602069566
940,7.0,299.11947000000004,610.5287400000001,0.0,0.0,0.0,0.0,-0.009368801008791573,0.0,-0.07503611355223784,-0.05394321225328055,-0.05660616625184364,0.003831502306939837,-0.10011887153146332,0.03369645078158076
941,7.0,298.43757,288.62973,0.0,0.0,0.0,0.0,-0.009378767818375393,0.0,-0.015360666839479786,-0.015908334598030385,-0.05646723041138175,0.015665377489052383,-0.07223751069653722,-0.002202764174145898
942,7.0,299.81968,-1.8566381999999997,0.0,0.0,0.0,0.0,-0.009388734627959215,0.0,0.007129912356692562,0.00013017429724470288,-0.006695715031790624,-0.02289493215130388,-0.07318224685127543,0.0024387422190851175
943,7.0,300.31095,-26.789792,0.0,0.0,0.0,0.0,-0.009398701437543034,0.0,-0.004476003844422186,0.01067314896185779,0.0019462826081331384,-0.02926970902919537,-0.08754520786053932,-0.009728423040945601
944,7.0,300.41188999999997,290.41807,0.0,0.0,0.0,0.0,-0.009408668247126856,0.0,-0.06029154431681214,-0.010540050455221989,-0.017448245755507786,-0.043484933107628757,-0.07693560994495352,-0.003088919375677607
945,7.0,299.64501,539.95148,0.0,0.0,0.0,0.0,-0.009418635056710678,0.0,-0.08519589935093061,-0.024808647482672877,-0.05412722049794075,-0.031936546815391764,-0.061695095315581844,-0.0014420089063151987
946,7.0,299.39315,365.78036000000003,0.0,0.0,0.0,0.0,-0.009428601866294498,0.0,-0.023624725535828877,-0.04143129199045017,-0.04613207939138175,-0.030860313089175768,-0.07031291204584414,-0.01919126086902998
947,7.0,300.74615,431.21143,0.0,0.0,0.0,0.0,-0.00943856867587832,0.0,-0.008783152498104662,-0.05865193948199574,-0.06364241508651734,-0.024438912521182875,-0.10456774469253291,-0.030566767442455074
948,7.0,301.12774,796.98946,0.0,0.0,0.0,0.0,-0.009448535485462138,0.0,-0.07106764962133093,-0.09494466125980851,-0.07625258413204414,-0.030782190493215674,-0.09962110634033772,-0.026889390000276178
949,7.0,299.44209,497.98235999999997,0.0,0.0,0.0,0.0,-0.00945850229504596,0.0,-0.07179998525035684,-0.04326913920733155,-0.03630507633628207,-0.026628017070730675,-0.08633924367101992,-0.02143317702703988
950,7.0,300.00905,168.54269,0.0,0.0,0.0,0.0,-0.009468469104629782,0.0,-0.021450598849259275,-0.040340198951517664,0.01055802956499639,-0.015207656955128884,-0.08648322752348002,0.014241483468024988
951,7.0,299.49051000000003,-146.55812,0.0,0.0,0.0,0.0,-0.009478435914213601,0.0,0.01174526686616759,0.008088015610724994,0.024716728473351178,-0.022060885463989877,-0.08690974400732392,0.011577503047110591
952,7.0,298.70526,-27.560503000000004,0.0,0.0,0.0,0.0,-0.009488402723797423,0.0,0.04888915621823405,-0.015767867736667385,-0.024743583654001578,0.007393222113804213,-0.06585199539408594,0.03243626757921037
953,7.0,299.16693,499.09630999999996,0.0,0.0,0.0,0.0,-0.009498369533381242,0.0,-0.040879224699965355,-0.051000312450838955,-0.05983327764108474,-0.013898932993467885,-0.08269039327215642,-0.03321855542491617
954,7.0,299.0022,708.5359900000001,0.0,0.0,0.0,0.0,-0.009508336342965064,0.0,-0.08412121691061772,-0.05570125994528635,-0.07555477297367552,-0.03636780462347286,-0.06416276156937153,0.014482922728353186
955,7.0,298.89342999999997,435.43662,0.0,0.0,0.0,0.0,-0.009518303152548886,0.0,-0.08497160225579421,-0.04784803160798305,0.00045777443882881957,-0.03806761779248136,-0.1048474321176359,-0.04156547974094346
956,7.0,300.65808,454.24388,0.0,0.0,0.0,0.0,-0.009528269962132706,0.0,-0.1038585000200359,-0.012933083746395988,-0.021287218350134876,-0.02969757313567227,-0.07791320377393453,0.02479896891771768
957,7.0,300.52677,655.4474799999999,0.0,0.0,0.0,0.0,-0.009538236771716528,0.0,-0.12432268672469388,-0.01901442440857758,-0.05590255221015235,-0.04745859703804886,-0.07177616070075553,0.02025454120596758
958,7.0,300.47392,646.19987,0.0,0.0,0.0,0.0,-0.009548203581300346,0.0,-0.043447948465728664,-0.048865479603147355,-0.1041151968003699,-0.015768923543271585,-0.0878901364330811,0.045748309902756655
959,7.0,300.89508,376.20364,0.0,0.0,0.0,0.0,-0.009558170390884168,0.0,0.0024073279196097676,-0.042223774145412056,-0.07454006683328183,-0.043533988597970155,-0.09589198221555181,0.00995002671466618
960,7.0,300.41971,107.12278,0.0,0.0,0.0,0.0,-0.00956813720046799,0.0,0.020126354935816583,-0.027562790950485673,-0.025126214249514275,-0.011625204835318387,-0.08428590551562122,1.4694117486446485e-05
961,7.0,299.62428,291.21419,0.0,0.0,0.0,0.0,-0.00957810401005181,0.0,-0.025078869125341678,-0.05889951498492954,-0.004543459044654495,0.0003198134665531317,-0.0968453269431396,-0.012991300030891486
962,7.0,299.80881,457.16718,0.0,0.0,0.0,0.0,-0.009588070819635633,0.0,-0.08710283401263041,-0.029354916269854675,-0.022509657986280275,-0.010126998950631981,-0.089939372952075,0.004710373253502645
963,7.0,300.07304,390.18372999999997,0.0,0.0,0.0,0.0,-0.009598037629219451,0.0,-0.03427944753136807,-0.05300738763317185,-0.031319275867721874,-0.01082733117657439,-0.1000304836987401,-0.02300186752710758
964,7.0,299.86113,196.38145,0.0,0.0,0.0,0.0,-0.009608004438803271,0.0,0.021212455691506378,-0.04656991894509316,-0.034337594914856766,-0.018065227926899182,-0.08887507328553682,-0.018734127006914382
965,7.0,300.57311,182.58555,0.0,0.0,0.0,0.0,-0.009617971248387093,0.0,0.00868038168153697,-0.018245686756459083,-0.04593614215329425,-0.02345375781995568,-0.06819820133188843,-0.016104912210181087
966,7.0,300.58885,582.87266,0.0,0.0,0.0,0.0,-0.009627938057970914,0.0,-0.05725046260618074,-0.07900538909647482,-0.04092288463352426,-0.047342996347389955,-0.08246300373771483,-0.0005388372940616005
967,7.0,300.86073,702.60723,0.0,0.0,0.0,0.0,-0.009637904867554736,0.0,-0.12709379402568088,-0.026195660213310375,-0.06028560363147585,-0.05529309342075344,-0.08867828289086511,0.016497019733879088
968,7.0,301.26032999999995,590.65041,0.0,0.0,0.0,0.0,-0.009647871677138554,0.0,-0.1063750079683959,-0.03813932246230807,-0.03502864870830846,-0.03688815515932747,-0.08229591069022402,0.026853445966228774
969,7.0,300.11713,380.86237,0.0,0.0,0.0,0.0,-0.009657838486722376,0.0,-0.023592231618371977,-0.04319700491946246,-0.04898341380878655,-0.02114350199570118,-0.0899750505013461,0.03374630167325067
970,7.0,300.70832,467.11407,0.0,0.0,0.0,0.0,-0.009667805296306198,0.0,-0.013080000957895589,-0.03380465170675937,-0.0951063617902671,-0.018669462398782484,-0.0869400472780646,0.03169752922280257
971,7.0,300.00086,578.75176,0.0,0.0,0.0,0.0,-0.009677772105890018,0.0,-0.019837163224775585,-0.07536147727859872,-0.08072744411842843,-0.02509712789214368,-0.1038798086696389,0.0035367886868288663
972,7.0,299.76283,428.29391,0.0,0.0,0.0,0.0,-0.00968773891547384,0.0,-0.04538585615648525,-0.04008174012925976,-0.04472305886857226,-0.007793960907154052,-0.06444322818380144,-0.0007891737717953871
973,7.0,300.13685,247.73186,0.0,0.0,0.0,0.0,-0.009697705725057659,0.0,-0.03903629198083206,-0.04307236907766186,0.0068043602671380736,-0.013933900254418886,-0.07789936581731884,-0.01190363279054709
974,7.0,299.95492,68.10175100000001,0.0,0.0,0.0,0.0,-0.009707672534641481,0.0,-0.050501886620648154,0.008197130082193752,0.021603525647101978,-0.004748920631031975,-0.08098184487403583,-0.004498307505623386
975,7.0,299.43256,390.10292999999996,0.0,0.0,0.0,0.0,-0.009717639344225303,0.0,-0.04170255728072196,-0.02365112374068418,-0.05322786781518154,-0.029490185158204674,-0.099482770343935,-0.00097780621633446
976,7.0,300.73298,692.34213,0.0,0.0,0.0,0.0,-0.009727606153809123,0.0,-0.07637118809599944,-0.057262715839640044,-0.07682081681462433,-0.02444676622270798,-0.09481660164592,0.0002744282315189577
977,7.0,301.26621,550.82734,0.0,0.0,0.0,0.0,-0.009737572963392943,0.0,-0.03543092217025976,-0.06733726298692043,-0.06466957305738995,-0.024369757188607774,-0.08332101176339363,0.01197976333681059
978,7.0,300.48758,276.5937,0.0,0.0,0.0,0.0,-0.009747539772976762,0.0,-0.02434475929539068,-0.00961552428300336,-0.05011729335969175,-0.04620443862077305,-0.09364617416390782,0.0027593301937496877
979,7.0,300.03192,412.8718,0.0,0.0,0.0,0.0,-0.009757506582560584,0.0,-0.07103130737999423,-0.03583480264686967,-0.01863660776428998,-0.0031011956099141766,-0.07929932788423433,0.007455308203081633
980,7.0,300.34454,529.5269999999999,0.0,0.0,0.0,0.0,-0.009767473392144404,0.0,-0.05406124170442915,-0.057553893520877045,-0.04934785048550366,-0.040448704864976356,-0.07522834229495934,0.0019482792174551882
981,7.0,300.60069,382.45838,0.0,0.0,0.0,0.0,-0.009777440201728226,0.0,-0.027997546170892677,-0.05103654627441495,-0.037223704075693566,-0.003106054650768727,-0.06680606054249484,-0.013239769220413486
982,7.0,300.30402000000004,125.04167,0.0,0.0,0.0,0.0,-0.009787407011312048,0.0,0.03881080229032796,-0.05539327649789075,-0.02142707016868718,-0.039487695913632166,-0.1040635615752739,-0.026314213514760678
983,7.0,300.27207999999996,20.871852,0.0,0.0,0.0,0.0,-0.009797373820895867,0.0,-0.004522604736396337,0.0071981204017491736,-0.009020037503208391,-0.03773143154180236,-0.0920564941880186,-0.013239180522105386
984,7.0,300.34486,447.02089000000007,0.0,0.0,0.0,0.0,-0.009807340630479689,0.0,-0.027705284312048672,-0.05264696545335095,-0.05553093969622704,-0.009330594808508012,-0.0934298027110536,-0.021058378854800178
985,7.0,300.16983,673.89423,0.0,0.0,0.0,0.0,-0.00981730744006351,0.0,-0.0999931049025511,-0.048037964325977955,-0.05681594955254765,-0.03672709196318176,-0.08595043326314733,0.02086449648791548
986,7.0,300.83449,684.99514,0.0,0.0,0.0,0.0,-0.009827274249647331,0.0,-0.06410388667231104,-0.05303393883879225,-0.09108359373350082,-0.013054252246354385,-0.07887839339519133,0.028834529256996474
987,7.0,300.33817,443.72388,0.0,0.0,0.0,0.0,-0.009837241059231153,0.0,-0.049075831337157455,-0.03438165001595467,-0.05142349939485425,-0.007511147808142572,-0.0975811268742574,0.021808863819617278
988,7.0,299.44064,409.82628,0.0,0.0,0.0,0.0,-0.009847207868814972,0.0,-0.057466176459720034,-0.021760778009621583,-0.04535000128844666,0.007929198992701014,-0.07771925858554363,0.007823116469506484
989,7.0,300.24208,603.5599900000001,0.0,0.0,0.0,0.0,-0.009857174678398794,0.0,-0.07685894338938713,-0.047085056309183256,-0.059523165355229044,-0.02195242818653598,-0.10471124117169489,-0.017003327636597787
990,7.0,299.75144,440.48770999999994,0.0,0.0,0.0,0.0,-0.009867141487982616,0.0,-0.05318218847417335,-0.022514979575805477,-0.05820009883840255,-0.028729034722834973,-0.11193838936495888,0.007384002956444353
991,7.0,299.51537,48.091376000000004,0.0,0.0,0.0,0.0,-0.009877108297566434,0.0,-0.008080656172598673,-0.005605810433900415,-0.000932110876107181,-0.03907704793960436,-0.0976832928818404,-0.0049157916754258655
992,7.0,299.05185,-31.875398999999998,0.0,0.0,0.0,0.0,-0.009887075107150256,0.0,0.029112818396961473,-0.01139816689866149,-0.008025325624387972,-0.038441962028676266,-0.07679039195387162,0.012470472254239789
993,7.0,300.77832,202.22748,0.0,0.0,0.0,0.0,-0.009897041916734075,0.0,-0.004692873107050515,-0.024482741667508478,-0.03229648871466526,-0.01871658764768338,-0.07315454054054103,-0.006249788627706114
994,7.0,300.54837000000003,461.60499000000004,0.0,0.0,0.0,0.0,-0.009907008726317897,0.0,-0.035212874801740165,-0.06926942960261043,-0.035834085265798864,-0.024082586911516275,-0.07807968988461543,0.019756824650846782
995,7.0,300.61078,592.45207,0.0,0.0,0.0,0.0,-0.009916975535901717,0.0,-0.05404441466001845,-0.07746271379272462,-0.04858350729906886,-0.003750437941964406,-0.0921434057153461,-0.019907219336689583
996,7.0,299.97819,478.08822999999995,0.0,0.0,0.0,0.0,-0.009926942345485539,0.0,-0.05390789035479455,-0.054921501171830145,-0.03649749253027207,-0.0027809605502594373,-0.09727480617027591,-0.022526003736893476
997,7.0,300.76619,355.16527,0.0,0.0,0.0,0.0,-0.00993690915506936,0.0,-0.016034444718726483,-0.07095964931967214,-0.02096728057805948,-0.007634197102936593,-0.07690169241110613,-0.013072996359954289
998,7.0,301.31869,488.72666,0.0,0.0,0.0,0.0,-0.00994687596465318,0.0,-0.012485609197483687,-0.06757536460141923,-0.06849972632314663,-0.021561108971415777,-0.09925016561122872,-0.020755297511388382
999,7.0,301.2353,531.54192,0.0,0.0,0.0,0.0,-0.009956842774237001,0.0,-0.04979382846401825,-0.049358839182838156,-0.062422802418150944,-0.03577990070345126,-0.09316188519911221,0.0036069969889078865
1000,7.0,300.72952000000004,194.06298,0.0,0.0,0.0,0.0,-0.009966809583820823,0.0,-0.03928400325927926,-0.02187873450676298,0.002172438206602958,-0.03543261024492637,-0.07797297742383372,-0.04273869366073066
1001,7.0,299.51698,-1.03413,0.0,0.0,0.0,0.0,-0.009976776393404644,0.0,-0.02166013491693888,0.01184671853243009,0.01012776608228269,-0.030327474245838672,-0.1074196688214959,-0.008315084856809981
1002,7.0,300.46182000000005,324.87419,0.0,0.0,0.0,0.0,-0.009986743202988466,0.0,-0.05073817046446755,-0.038378883156950865,-0.009636588638007251,-0.028507741914245075,-0.1067120453491589,-0.01728912901280418
1003,7.0,300.03721,688.57196,0.0,0.0,0.0,0.0,-0.009996710012572284,0.0,-0.06446365429256734,-0.06590325571664493,-0.07894177320219642,-0.026799739657928374,-0.0929467458583796,0.04760382110863136
1004,7.0,299.4647,595.2197,0.0,0.0,0.0,0.0,-0.010006676822156104,0.0,-0.03176176421289208,-0.06952958359228563,-0.07964057734566303,-0.01032224221372599,-0.06871765311490434,0.023700480166305275
1005,7.0,299.05421,409.07381000000004,0.0,0.0,0.0,0.0,-0.010016643631739925,0.0,-0.02887975466195987,-0.04079847981274646,-0.05466998919225785,-0.014464694359054184,-0.058603524365717544,0.06577563686654994
1006,7.0,299.90358,507.75656,0.0,0.0,0.0,0.0,-0.010026610441323747,0.0,-0.05109726123365705,-0.04609683551315346,-0.05715121982513625,-0.025509275476319475,-0.07966087679816643,0.01228438786012469
1007,7.0,299.7262,800.68743,0.0,0.0,0.0,0.0,-0.010036577250907569,0.0,-0.1127257860176689,-0.06932231416507972,-0.06134088841187435,-0.01079392026777699,-0.1025994253132749,0.005140022909305765
1008,7.0,301.10033,729.43215,0.0,0.0,0.0,0.0,-0.010046544060491387,0.0,-0.1054084180355009,-0.06400989455328474,-0.05231085316992925,-0.03511699601102767,-0.08875226939991701,-0.01855015017300728
1009,7.0,300.66992,267.00684,0.0,0.0,0.0,0.0,-0.01005651087007521,0.0,-0.02345124394645758,-0.025626439611882677,-0.03208572762761477,-0.017372351296517582,-0.0996246669011891,-0.015741824169347086
1010,7.0,298.90313,-133.07398,0.0,0.0,0.0,0.0,-0.01006647767965903,0.0,0.04293459340856446,0.004578711130208606,-0.007062138084003764,-0.03620769692217147,-0.09094129390270692,-0.006506964979312443
1011,7.0,299.33636,207.32645,0.0,0.0,0.0,0.0,-0.010076444489242851,0.0,-0.016017819311085684,-0.019373412839506984,-0.027630830694700678,-0.026459337273583274,-0.07846366607626092,0.008653678792376602
1012,7.0,299.51398,549.3539599999999,0.0,0.0,0.0,0.0,-0.010086411298826673,0.0,-0.05175645337771425,-0.046566945056049656,-0.06866648905110484,-0.038171646153748164,-0.08023662475673833,-0.011444741952758089
1013,7.0,300.38881000000003,425.97798,0.0,0.0,0.0,0.0,-0.010096378108410492,0.0,-0.07830725268482414,-0.05403181084202454,0.0028523929597842677,-0.019577152103364484,-0.0956714351590355,-0.025125041919148577
1014,7.0,300.53537,299.26701,0.0,0.0,0.0,0.0,-0.010106344917994314,0.0,-0.052061841891603754,-0.04026022616087496,0.0013523701150185388,-0.025864471312124576,-0.11138155777250389,-0.01746414972907738
1015,7.0,300.06456000000003,526.32373,0.0,0.0,0.0,0.0,-0.010116311727578134,0.0,-0.04599334214793946,-0.055812013247466846,-0.058183915207805345,-0.008393136829238111,-0.1032079326608299,0.013113485833950287
1016,7.0,301.44096,790.72902,0.0,0.0,0.0,0.0,-0.010126278537161956,0.0,-0.06255651394109724,-0.07005779086941563,-0.1077475768188579,-0.0027371663610622874,-0.08701797229025522,0.03860013543553676
1017,7.0,301.07151,701.86438,0.0,0.0,0.0,0.0,-0.010136245346745777,0.0,-0.05067126150736415,-0.03997759017798096,-0.12270039225458587,-0.013930660893849185,-0.08100312515263601,0.04734943656502555
1018,7.0,299.61323,410.39572000000004,0.0,0.0,0.0,0.0,-0.010146212156329595,0.0,-0.04349598259996926,-0.018155663538074483,-0.06309840414757764,-0.029913582858240768,-0.08658766118478682,0.02665036531493627
1019,7.0,299.26005,230.41873999999999,0.0,0.0,0.0,0.0,-0.010156178965913417,0.0,-0.07072469384673384,-0.002765016857285917,0.003448167502607637,-0.03247695767672617,-0.07797496744703013,-0.0027147611722010676
1020,7.0,299.36621,360.20942,0.0,0.0,0.0,0.0,-0.010166145775497237,0.0,-0.06358138601974424,-0.031513422692882674,-0.014399859524905488,-0.04056868279606726,-0.07625415770944942,-0.034094680362382966
1021,7.0,299.42542000000003,399.18658,0.0,0.0,0.0,0.0,-0.01017611258508106,0.0,-0.045437955450127056,-0.034106503977799865,-0.04179829320317036,-0.026446991834364872,-0.09785749387878272,-0.04100494978562346
1022,7.0,300.2329,277.21198,0.0,0.0,0.0,0.0,-0.010186079394664881,0.0,-0.01032394852689439,-0.024238581830661774,-0.04970298957930316,-0.04660749735155186,-0.10500937988111891,0.004538606691250606
1023,7.0,299.57887999999997,50.290267,0.0,0.0,0.0,0.0,-0.0101960462042487,0.0,0.02082200584497198,-0.024353712373274272,-0.011755278790405688,-0.026282064102337774,-0.0985308765904904,-0.005872007345847005
1024,7.0,300.82306,380.99454,0.0,0.0,0.0,0.0,-0.010206013013832522,0.0,-0.033863353338052765,-0.044000074524719254,-0.037949399876814165,-0.001069182822745129,-0.08575734832409132,0.035688141787645365
1025,7.0,300.2922,729.04036,0.0,0.0,0.0,0.0,-0.010215979823416342,0.0,-0.1153147109506759,-0.05161264380427136,-0.05468270852076315,-0.0075259970896830826,-0.09155428285545422,-0.002527963551340577
1026,7.0,300.87766,646.18057,0.0,0.0,0.0,0.0,-0.010225946633000164,0.0,-0.07094836374005833,-0.06810987530742134,-0.05736451910368725,-0.0008287119154049983,-0.08426613801942033,-0.011158734886781388
1027,7.0,300.85708,281.84752000000003,0.0,0.0,0.0,0.0,-0.010235913442583986,0.0,-0.01218472559353879,-0.02960527415756307,-0.043884607583073554,-0.0005660217607294985,-0.08610384034153741,-0.025997847449287775
1028,7.0,299.63659,122.68348999999999,0.0,0.0,0.0,0.0,-0.010245880252167805,0.0,0.017620323993490585,-0.014166278019102788,-0.04074676251439236,-0.017159787637539184,-0.07587308042634003,0.014947362123689786
1029,7.0,299.69365,111.54673000000001,0.0,0.0,0.0,0.0,-0.010255847061751627,0.0,0.017276489731056784,-0.00837068391629718,-0.04281322631158646,-0.03420598081961747,-0.0997222195810668,0.0021097206598632177
1030,7.0,299.51781,351.64461,0.0,0.0,0.0,0.0,-0.010265813871335447,0.0,-0.033085597760044265,-0.026124990071835774,-0.047680593042208154,-0.04074202253042456,-0.09040404032868411,-0.0026210079775483477
1031,7.0,299.78944,450.70084,0.0,0.0,0.0,0.0,-0.010275780680919267,0.0,-0.06262266600037594,-0.046695452526482356,-0.02768368384641687,-0.039040666181513764,-0.06572540195309214,-0.02018094074520378
1032,7.0,300.80417,446.38512000000003,0.0,0.0,0.0,0.0,-0.01028574749050309,0.0,-0.07392133376571763,-0.03125024212515876,-0.03051835232617687,-0.027597411679902473,-0.055719239055060744,-0.022076672913797977
1033,7.0,299.62001000000004,555.04443,0.0,0.0,0.0,0.0,-0.010295714300086908,0.0,-0.06185941003129845,-0.058805467137147745,-0.048054768065636355,-0.024135972019534976,-0.06704562934313843,-0.026665699841949678
1034,7.0,299.89226,740.45876,0.0,0.0,0.0,0.0,-0.01030568110967073,0.0,-0.07489876344818243,-0.06847103209356474,-0.08171117621651522,-0.03238418956382067,-0.1092328393454419,0.013172261432500987
1035,7.0,300.42733,755.75914,0.0,0.0,0.0,0.0,-0.01031564791925455,0.0,-0.07529569708210673,-0.05841352173346574,-0.09602268843870151,-0.007598909654953993,-0.1060584686371559,0.038247787845762764
1036,7.0,300.24179,394.1578,0.0,0.0,0.0,0.0,-0.010325614728838372,0.0,-0.040244947362617065,-0.03504737357015646,-0.044521807133710255,-0.0092065546564412,-0.12459617305918488,0.043185298841057165
1037,7.0,299.68747,234.89688999999998,0.0,0.0,0.0,0.0,-0.010335581538422194,0.0,-0.03666612166491447,-0.019450790696643582,-0.015285876823098584,-0.02035776099365458,-0.0975054046677842,0.01938214806861908
1038,7.0,300.52482000000003,384.62318999999997,0.0,0.0,0.0,0.0,-0.010345548348006012,0.0,-0.04699663199945645,-0.03022945344441477,-0.03968976128832446,-0.029244196404927474,-0.09841107395166682,-0.014301774888725288
1039,7.0,299.53718,356.7609,0.0,0.0,0.0,0.0,-0.010355515157589834,0.0,-0.025500655757718774,-0.048278332580950455,-0.03466741694165767,-0.02033212171312418,-0.08452331001405121,-0.036784710430118266
1040,7.0,300.02547000000004,73.493884,0.0,0.0,0.0,0.0,-0.010365481967173655,0.0,0.0015817707482586184,0.007385955692037072,-0.031308031831362174,-0.02233173025547018,-0.06943809318775623,-0.02959729177327527
1041,7.0,299.70158,24.916558,0.0,0.0,0.0,0.0,-0.010375448776757477,0.0,0.008590553817771652,-0.016939025772001685,0.0007744607622608263,-0.024865657999549373,-0.10777532973909688,-0.01234197896930849
1042,7.0,299.59945,124.65723,0.0,0.0,0.0,0.0,-0.010385415586341299,0.0,-0.01893487211672638,-0.02060544795409938,0.0016476350445089186,-0.004326804692372376,-0.11628403665884089,-0.016604689716005285
1043,7.0,298.82243,407.09958,0.0,0.0,0.0,0.0,-0.010395382395925117,0.0,-0.049981124705252955,-0.060154987587585036,-0.013611994750649288,-0.037171962459337064,-0.08802052550894951,-0.010033065498786471
1044,7.0,299.99928,662.4431900000001,0.0,0.0,0.0,0.0,-0.01040534920550894,0.0,-0.06203722934434785,-0.09124931078735582,-0.04807964943509196,-0.01186560551429409,-0.07934057830905542,-0.017603310511061485
1045,7.0,299.29703,433.48188,0.0,0.0,0.0,0.0,-0.010415316015092758,0.0,-0.04024068563269646,-0.044274309651034155,-0.047252672193725656,-0.04054619573659796,-0.08100307550338112,-0.008222876767234752
1046,7.0,300.36872,257.53851000000003,0.0,0.0,0.0,0.0,-0.01042528282467658,0.0,-0.03414988324108107,-0.02065423290666408,-0.02348116015566008,-0.04874173846118505,-0.07418097707734243,0.006185344097495934
1047,7.0,300.69772,447.87185999999997,0.0,0.0,0.0,0.0,-0.010435249634260402,0.0,-0.04720408178518015,-0.03168032423610457,-0.05725745707162104,-0.004053964507470146,-0.0939210547305364,0.01093236569519049
1048,7.0,300.59126000000003,528.3846,0.0,0.0,0.0,0.0,-0.01044521644384422,0.0,-0.0872176372754606,-0.02079616898067208,-0.052601918380405156,-0.027216192541779077,-0.1026090714542269,0.022098880316239678
1049,7.0,299.82612,256.26961,0.0,0.0,0.0,0.0,-0.010455183253428042,0.0,-0.02092223553161388,-0.016595078025556684,-0.04038224781741756,0.004206516200125826,-0.11620419255096089,-0.01157913437977159
1050,7.0,300.46405,247.83279,0.0,0.0,0.0,0.0,-0.010465150063011863,0.0,-0.0048931084507372056,-0.038844468538150566,-0.03159740288767087,-0.02008152267189198,-0.12896701988305387,-0.008022428337052034
1051,7.0,298.90632999999997,425.27654,0.0,0.0,0.0,0.0,-0.010475116872595685,0.0,-0.02128374898179248,-0.05095283053790285,-0.05703686948510075,-0.024894313725627476,-0.06961984087144334,-0.02668260895961848
1052,7.0,299.46676,721.5111099999999,0.0,0.0,0.0,0.0,-0.010485083682179507,0.0,-0.08421119655924801,-0.07908983133330863,-0.056020332401776354,-0.03742268613033157,-0.07767469989914602,0.007881674928560753
1053,7.0,299.55975,733.7158,0.0,0.0,0.0,0.0,-0.010495050491763325,0.0,-0.09348420309567251,-0.07043458818410263,-0.059112492049948735,-0.05977870500394885,-0.07816468738250403,0.003870457517634416
1054,7.0,300.17562000000004,632.75309,0.0,0.0,0.0,0.0,-0.010505017301347147,0.0,-0.10825660327159489,-0.04080846539248196,-0.04327606578501516,-0.03940081782355796,-0.09704735584082831,0.031256609388787174
1055,7.0,300.41979,370.57376,0.0,0.0,0.0,0.0,-0.010514984110930967,0.0,-0.03564862098074496,-0.048626245175036754,-0.028370302644180872,-0.02261238432116858,-0.1113800074998509,0.005758141643334334
1056,7.0,300.98472000000004,356.63568,0.0,0.0,0.0,0.0,-0.01052495092051479,0.0,-0.007762913404214903,-0.04817029985528845,-0.05247512938214204,-0.0030376206509398172,-0.08535964158034073,0.0003906655168181846
1057,7.0,300.93705,572.83188,0.0,0.0,0.0,0.0,-0.010534917730098608,0.0,-0.032494688540226066,-0.05383109005021494,-0.08780080830426511,-0.01992622081581488,-0.10006617036726209,-0.001923027606413048
1058,7.0,300.25094,417.97747000000004,0.0,0.0,0.0,0.0,-0.01054488453968243,0.0,-0.02169128526476318,-0.049364440429390956,-0.05599898828841985,-0.013722685231323589,-0.08376485482394752,-0.013783816636356788
1059,7.0,299.21636,68.666752,0.0,0.0,0.0,0.0,-0.01055485134926625,0.0,0.0030132537085599868,-0.015766658929298086,-0.008119572879789452,-0.028439463043006475,-0.09022603153786601,-0.016174138470263184
1060,7.0,300.09156,253.38002000000003,0.0,0.0,0.0,0.0,-0.01056481815885007,0.0,-0.02915552182242597,-0.05817727031364954,0.01031159295517499,-0.005413200607816305,-0.0989168012620782,-0.02047628997710248
1061,7.0,300.46506,538.12581,0.0,0.0,0.0,0.0,-0.010574784968433892,0.0,-0.03523968033313567,-0.06625725794383223,-0.06207986994830614,-0.011498007497264989,-0.12503481915997589,-0.0053478497253916756
1062,7.0,301.00625,628.5024900000001,0.0,0.0,0.0,0.0,-0.010584751778017713,0.0,-0.06319214498057914,-0.06131135723770984,-0.06654556002128544,-0.02356621642205448,-0.12018706591153988,-0.0035244415250852965
1063,7.0,300.03713999999997,575.9659,0.0,0.0,0.0,0.0,-0.010594718587601533,0.0,-0.037524158061596063,-0.06045890992857984,-0.07709618475455102,-0.02653256485831027,-0.07537335864927133,0.024181582459536378
1064,7.0,300.73429,409.04458,0.0,0.0,0.0,0.0,-0.010604685397185355,0.0,-0.03765232507999517,-0.028181653714062675,-0.05850535968277945,-0.039926599379948566,-0.06087618354501154,0.027193813900070474
1065,7.0,300.99866000000003,421.53704000000005,0.0,0.0,0.0,0.0,-0.010614652206769175,0.0,-0.07667173732741132,-0.015300811116322486,-0.036164186949627364,-0.018998412017247283,-0.06349045492927004,0.04333451613028376
1066,7.0,299.9955,586.08703,0.0,0.0,0.0,0.0,-0.010624619016352997,0.0,-0.12220181241037989,-0.024519653355401377,-0.03143436081407987,-0.048754681717962454,-0.1044942840602829,0.024171006154992576
1067,7.0,298.31281,452.08890999999994,0.0,0.0,0.0,0.0,-0.01063458582593682,0.0,-0.05941417814797285,-0.013772903932779785,-0.06423665688591444,-0.025457357554445576,-0.0941598595406046,0.019671686311194283
1068,7.0,298.61933,70.07230600000001,0.0,0.0,0.0,0.0,-0.010644552635520638,0.0,0.01939170099056188,-0.009798552816141871,-0.030893379492939174,-0.03961800899574307,-0.11309378832148789,-0.023309330163951775
1069,7.0,298.71924,132.88252,0.0,0.0,0.0,0.0,-0.01065451944510446,0.0,0.038955070866066165,-0.023943093783499375,-0.05540494609929245,-0.03965569075371196,-0.09155180748545992,-0.006465899168659563
1070,7.0,300.52885,532.53095,0.0,0.0,0.0,0.0,-0.01066448625468828,0.0,-0.04349523380814536,-0.035793128683506766,-0.08258774901052622,-0.033969077879986966,-0.10771439287808289,-0.008736387054314272
1071,7.0,300.0113,560.5765700000001,0.0,0.0,0.0,0.0,-0.0106744530642721,0.0,-0.07187284299879733,-0.06628201873652594,-0.03224641693447357,-0.04068870328366236,-0.09160388144784923,0.006927852960175853
1072,7.0,300.32962000000003,281.23075,0.0,0.0,0.0,0.0,-0.01068441987385592,0.0,-0.07406963102385343,-0.02895562074994727,0.01753812610562828,-0.007644388777742432,-0.08470896681662413,-0.01999917279651468
1073,7.0,299.73888,373.07547,0.0,0.0,0.0,0.0,-0.01069438668343974,0.0,-0.030141452673229773,-0.07030551532011414,-0.012958658178919988,-0.00028494807776718574,-0.1110460503993919,0.008794616105761032
1074,7.0,300.4414,384.44424,0.0,0.0,0.0,0.0,-0.010704353493023563,0.0,-0.04583623569343426,-0.03551810828836436,-0.03550710439227837,-0.01164587108435799,-0.11549045918052091,0.002256656211189628
1075,7.0,300.19813999999997,531.30215,0.0,0.0,0.0,0.0,-0.010714320302607383,0.0,-0.01095388611406439,-0.05689567409691585,-0.09365302677433411,-0.040888795860409964,-0.09268021751232532,0.025892030701594473
1076,7.0,299.23568,330.3508,0.0,0.0,0.0,0.0,-0.010724287112191205,0.0,-0.030699286370033677,-0.03213907625862987,-0.037580032725110464,-0.05165496320794795,-0.07857701633844773,-0.008996768721286942
1077,7.0,298.34881,71.963329,0.0,0.0,0.0,0.0,-0.010734253921775025,0.0,-0.008428083926512122,0.004754627559570205,-0.01820159923135798,-0.06639617554579234,-0.07043941226782872,-0.0031665886435429664
1078,7.0,299.59955,223.41892,0.0,0.0,0.0,0.0,-0.010744220731358846,0.0,-0.06885623735758152,-0.023595527720947276,0.02453799115571118,-0.02046242263623388,-0.07988519719805513,-0.018742016172192982
1079,7.0,300.51126,546.30336,0.0,0.0,0.0,0.0,-0.010754187540942668,0.0,-0.06948311391619943,-0.03443140768861536,-0.062148057627035735,0.0016629084725412885,-0.1003313075209291,-0.022167285843740777
1080,7.0,300.91257,576.0835400000001,0.0,0.0,0.0,0.0,-0.010764154350526488,0.0,-0.07163233086231063,-0.04814296338084055,-0.05533971711085484,0.002511702913735778,-0.1028343878789639,-0.00870588103222856
1081,7.0,300.54675,260.1446,0.0,0.0,0.0,0.0,-0.01077412116011031,0.0,0.017002245485490983,-0.04627093822483605,-0.04980877086324295,-0.0025294482667121074,-0.0974242787985277,-0.005431433435415745
1082,7.0,300.91764,370.35025,0.0,0.0,0.0,0.0,-0.010784087969694132,0.0,-0.03858017440856676,-0.044222944963714865,-0.029774108981975772,-0.02308368139318198,-0.1253536990989469,0.04147131942240056
1083,7.0,299.44608,660.90116,0.0,0.0,0.0,0.0,-0.01079405477927795,0.0,-0.1075422923485979,-0.04636173657954716,-0.04699342607614005,-0.02664389773954797,-0.0942874753509493,0.02848566420781617
1084,7.0,299.785,768.04994,0.0,0.0,0.0,0.0,-0.010804021588861772,0.0,-0.13929797604763985,-0.08131536425045162,-0.012854667307906886,-0.048068939381534954,-0.08485426485446393,0.023082075391773475
1085,7.0,299.84342000000004,406.30605,0.0,0.0,0.0,0.0,-0.01081398839844559,0.0,-0.040670949115410165,-0.045959152049815155,-0.036876790546205865,-0.03814325691244636,-0.0919257494613651,-0.005438150776953695
1086,7.0,298.80445,104.68698,0.0,0.0,0.0,0.0,-0.010823955208029413,0.0,0.009323469127179762,-0.01839224933042368,-0.02275344798684048,-0.039358003953832564,-0.1044879005846529,0.004407707849256896
1087,7.0,299.48348,217.92683,0.0,0.0,0.0,0.0,-0.010833922017613233,0.0,0.013085496826437988,-0.015506056069828585,-0.06382375645691434,-0.027553219790041078,-0.1088269110903799,-0.023187527369430777
1088,7.0,300.68841000000003,550.03201,0.0,0.0,0.0,0.0,-0.010843888827197053,0.0,-0.05711737727179624,-0.04811576572165636,-0.06196285374725754,-0.0029434047049664274,-0.1056103689129319,-0.023380003345176682
1089,7.0,298.27943,448.66169,0.0,0.0,0.0,0.0,-0.010853855636780874,0.0,-0.05546646051286344,-0.058031052244718946,-0.02288443792001818,-0.03713972286765526,-0.09343903645921492,-0.03319572487366297
1090,7.0,300.09799,119.23173,0.0,0.0,0.0,0.0,-0.010863822446364696,0.0,-0.036787521185895664,-0.017414483248925684,0.017958535731119482,-0.030486334636266973,-0.08485469852550673,-0.002681191791088028
1091,7.0,301.34024,92.271264,0.0,0.0,0.0,0.0,-0.010873789255948518,0.0,0.009638078216979262,-0.03966927641105276,0.001983037748885588,-0.014094309904250086,-0.07543171577553073,-0.05025758188903716
1092,7.0,299.76937999999996,458.72238,0.0,0.0,0.0,0.0,-0.010883756065532338,0.0,-0.024565275954403977,-0.048541372306910455,-0.06633349994760673,-0.023071933771522578,-0.08152701395783983,0.005309586159215355
1093,7.0,300.22373999999996,643.67765,0.0,0.0,0.0,0.0,-0.010893722875116158,0.0,-0.021594748874735777,-0.07430561494564324,-0.0997615701619504,-0.005285891812251905,-0.12110039941917887,0.012977819751561087
1094,7.0,300.79686,218.58678999999998,0.0,0.0,0.0,0.0,-0.01090368968469998,0.0,-0.013197271484719287,-0.015099703262974686,-0.03814795231340976,-0.019152444270949084,-0.11541680603075188,0.060431975714421646
1095,7.0,301.11457,114.63526999999999,0.0,0.0,0.0,0.0,-0.0109136564942838,0.0,-0.042321214354528666,0.0033579863185324473,0.004116966777487986,-0.01894775356524768,-0.10890236782532689,0.01997533406141198
1096,7.0,301.57249,543.09791,0.0,0.0,0.0,0.0,-0.010923623303867622,0.0,-0.07438298773652932,-0.04733731505407925,-0.043367900694578555,-0.005236972198748915,-0.09737011652768231,0.03639696596135086
1097,7.0,300.45952,664.6269599999999,0.0,0.0,0.0,0.0,-0.010933590113451441,0.0,-0.07047101655169784,-0.05673555322336315,-0.07482342931649752,-0.03267494775951627,-0.08072782510046601,-0.01979823415593358
1098,7.0,299.80637,689.75242,0.0,0.0,0.0,0.0,-0.010943556923035263,0.0,-0.058370094847429846,-0.055764722838799644,-0.09553269487584291,-0.03085073280948027,-0.09735778932696572,0.02317926836786568
1099,7.0,299.85272000000003,408.94604,0.0,0.0,0.0,0.0,-0.010953523732619081,0.0,-0.02108157012308898,-0.03745636048415497,-0.06577145214363694,-0.03090189687327977,-0.08975720780934672,-0.03014511455909117
1100,7.0,300.6641,215.09713,0.0,0.0,0.0,0.0,-0.010963490542202903,0.0,-0.05020272250212295,-0.004814109697415635,-0.01036732475042529,-0.026334038766217274,-0.08906755432753323,0.005450294478077184
1101,7.0,300.74039,422.34679000000006,0.0,0.0,0.0,0.0,-0.010973457351786725,0.0,-0.06160938550287294,-0.05578570826162075,-0.010987784396159888,-0.02148859978100968,-0.11360731360466889,0.01018140754257669
1102,7.0,299.25997,610.8938,0.0,0.0,0.0,0.0,-0.010983424161370546,0.0,-0.08255684994872672,-0.05299754289520025,-0.05014206935113695,-0.036378448815773366,-0.1052370369135869,0.037412294237305965
1103,7.0,299.60936,490.98727,0.0,0.0,0.0,0.0,-0.010993390970954366,0.0,-0.017162193093276587,-0.059440132549284354,-0.07264554347205693,-0.029362660540368974,-0.07807270048542563,0.007221702176626514
1104,7.0,299.60336,146.2056,0.0,0.0,0.0,0.0,-0.011003357780538186,0.0,-0.014164389320916387,-0.018703346495376583,-0.01157511684312509,-0.02018288517214568,-0.07934229678122502,-0.00958331630472468
1105,7.0,299.22835,267.62066,0.0,0.0,0.0,0.0,-0.011013324590122008,0.0,0.007569729977249182,-0.044487581571832455,-0.04443214767211155,-0.04326140304281805,-0.11828850880166689,-0.019195415194439982
1106,7.0,300.82131,509.70215,0.0,0.0,0.0,0.0,-0.01102329139970583,0.0,-0.1028110527291609,-0.03920736406146556,-0.012918310559937987,-0.028889022860624572,-0.13482343320853685,0.012728708161475687
1107,7.0,300.77086,493.80880999999994,0.0,0.0,0.0,0.0,-0.01103325820928965,0.0,-0.045041054240205956,-0.07758499990754332,-0.027479493686264872,-0.023778119441967678,-0.10776862202343489,-0.03166749142358807
1108,7.0,300.8731,358.6236,0.0,0.0,0.0,0.0,-0.01104322501887347,0.0,-0.06288655077691935,-0.03878243736702856,-0.007343631222109973,-0.015589670481330685,-0.08321417467284963,-0.020743394862463682
1109,7.0,300.6947,286.55901,0.0,0.0,0.0,0.0,-0.011053191828457293,0.0,0.005262201822263885,-0.04039217868164766,-0.051976806903461445,-0.035185220166760865,-0.099551093798178,-0.03599657106508497
1110,7.0,300.40997999999996,377.75314,0.0,0.0,0.0,0.0,-0.011063158638041113,0.0,-0.01934627800182898,-0.026630713329246776,-0.06885053073301833,-0.03737922682029246,-0.07315690141327402,0.007920644831381784
1111,7.0,300.62755,629.83397,0.0,0.0,0.0,0.0,-0.011073125447624933,0.0,-0.047756784383477656,-0.05533049146869434,-0.08836652407359691,-0.017684530612577284,-0.06448342685501873,-0.002244535105543368
1112,7.0,299.51391,600.43052,0.0,0.0,0.0,0.0,-0.011083092257208754,0.0,-0.12148793718492588,-0.04606491712175336,-0.014963027983485885,-0.04552181000190286,-0.06904769197722664,0.057671384936222536
1113,7.0,299.03119,157.10326,0.0,0.0,0.0,0.0,-0.011093059066792574,0.0,-0.05589975260012604,0.005424385065070125,0.0027198991608081476,-0.050430665271119154,-0.11834395384713889,0.04030348282089406
1114,7.0,299.34675,236.45784,0.0,0.0,0.0,0.0,-0.011103025876376394,0.0,-0.036043504809716964,-0.01174438533858059,-0.02408938987268768,-0.04899742097816895,-0.13883317796176786,0.04509802321382836
1115,7.0,299.89415,699.79431,0.0,0.0,0.0,0.0,-0.011112992685960216,0.0,-0.04503689991479596,-0.06421365813514464,-0.10346944237913891,-0.01887814227012758,-0.08284923035783241,0.017148330818658485
1116,7.0,300.71182000000005,956.1749699999999,0.0,0.0,0.0,0.0,-0.011122959495544038,0.0,-0.07154874583506143,-0.08816127000083991,-0.13094330340809787,-0.010574042969576791,-0.08067292619679792,0.0031897913615578973
1117,7.0,300.90242,397.25342,0.0,0.0,0.0,0.0,-0.011132926305127858,0.0,-0.04312406205801355,-0.04077155167808886,-0.03685950551274996,-0.02957108000643837,-0.1105129997867839,-0.018200840307033082
1118,7.0,300.41188,63.980867,0.0,0.0,0.0,0.0,-0.011142893114711679,0.0,-0.05982808574757235,0.012442558227234887,0.027936941655911478,-0.03966180470481536,-0.11935046583397389,-0.003009817068195817
1119,7.0,300.341,256.65173,0.0,0.0,0.0,0.0,-0.011152859924295499,0.0,-0.03592203537447887,-0.026089841439116877,-0.016003840512706088,-0.008248760646339292,-0.09789295763228271,-0.027987360980887475
1120,7.0,299.40629,423.81272,0.0,0.0,0.0,0.0,-0.01116282673387932,0.0,-0.031656100465963864,-0.05800873034501595,-0.039163652452151566,-0.023644440343024577,-0.07926047784890013,-0.009156856765536401
1121,7.0,299.54933,281.22225,0.0,0.0,0.0,0.0,-0.011172793543463143,0.0,0.008536311905468393,-0.018271086909965883,-0.07574976586266984,-0.04847197176781116,-0.09755431931636172,-0.016780865537392484
1122,7.0,299.03857999999997,-33.559205,0.0,0.0,0.0,0.0,-0.011182760353046963,0.0,0.04208380377659806,0.0056782074575204445,-0.03756085088746736,-0.051759090867724546,-0.1119548445465829,0.012703118530200187
1123,7.0,298.64583999999996,60.449535,0.0,0.0,0.0,0.0,-0.011192727162630783,0.0,-0.0014127536401529286,-0.024093737728866776,0.007131342153908674,-0.04297382442593626,-0.08473309331475522,-0.022881167148695376
1124,7.0,299.71063,631.92131,0.0,0.0,0.0,0.0,-0.011202693972214604,0.0,-0.11513497051543689,-0.05591170287180545,-0.02104162881739708,-0.01811044117286138,-0.09550058801992423,0.027335856365338976
1125,7.0,300.76585,845.70739,0.0,0.0,0.0,0.0,-0.011212660781798424,0.0,-0.11182307137107789,-0.08351807269584201,-0.06173278821930185,-0.021638162588520377,-0.12974879299770886,-0.006668548479384494
1126,7.0,300.89747,579.00323,0.0,0.0,0.0,0.0,-0.011222627591382246,0.0,-0.07048584850666163,-0.038064319663405864,-0.06745235603927924,-0.014760678898765589,-0.13856570020036987,0.03178241627643027
1127,7.0,301.27607,357.56911,0.0,0.0,0.0,0.0,-0.011232594400966066,0.0,0.016189407136020087,-0.05230936673203255,-0.07257212134331073,0.01005097976055447,-0.1021512951915479,-0.011783042856395788
1128,7.0,299.83378999999996,470.46061,0.0,0.0,0.0,0.0,-0.011242561210549886,0.0,-0.028038638528698177,-0.05155856259343395,-0.06341107488993585,-0.004184606794538536,-0.0861149019928791,-0.018110266893844183
1129,7.0,299.81172000000004,476.19012999999995,0.0,0.0,0.0,0.0,-0.011252528020133707,0.0,-0.06507984511563064,-0.03292100440055017,-0.046749060549523054,-0.019373638794279283,-0.08793490688874961,-0.009974157063147662
1130,7.0,300.37343,191.3871,0.0,0.0,0.0,0.0,-0.011262494829717529,0.0,-0.09964419324386621,-0.0005842308478790954,0.042051523654912264,-0.04506651924171916,-0.09754174285612051,0.002046837142757098
1131,7.0,299.52811,83.917713,0.0,0.0,0.0,0.0,-0.01127246163930135,0.0,-0.006390211919314813,-0.008789067041588381,-0.01032961056845319,-0.03469617905899627,-0.07595732507940432,0.009077342875863991
1132,7.0,299.26668,407.64242,0.0,0.0,0.0,0.0,-0.011282428448885171,0.0,-0.04987628270415586,-0.04567677849869705,-0.028360054632669475,-0.028821042898165474,-0.09826370077762221,0.001724886245383018
1133,7.0,300.69696,710.35473,0.0,0.0,0.0,0.0,-0.011292395258468991,0.0,-0.008070375331784032,-0.07344749444920333,-0.13441222592045388,-0.03244883593345076,-0.12246686850403889,0.03035826083687707
1134,7.0,301.97934,880.15986,0.0,0.0,0.0,0.0,-0.011302362068052811,0.0,-0.0952726158666751,-0.07902415651482703,-0.09324984645354331,-0.03496611192538657,-0.11854134509911989,0.01009946286591438
1135,7.0,301.54294,661.53347,0.0,0.0,0.0,0.0,-0.011312328877636633,0.0,-0.06659163351658254,-0.060907042076807034,-0.07359098180911443,-0.02617880378464677,-0.08778500261595522,0.01035474829018409
1136,7.0,300.00343,366.18934,0.0,0.0,0.0,0.0,-0.011322295687220455,0.0,-0.09066864957904901,-0.06904011691947903,0.04839635088634795,-0.030897947224389974,-0.08315403422641422,-0.021724318231273278
1137,7.0,299.99181,447.36655,0.0,0.0,0.0,0.0,-0.011332262496804276,0.0,-0.03328155323663357,-0.03635397477285796,-0.06635273346100494,-0.038858752324810265,-0.09482073570632801,0.007760409055267743
1138,7.0,300.04955,469.69295,0.0,0.0,0.0,0.0,-0.011342229306388096,0.0,-0.05467277765653305,-0.046859541287426656,-0.04124260962307866,-0.006285917579896764,-0.0965250173082775,-0.002389390859714518
1139,7.0,299.56266,40.36343,0.0,0.0,0.0,0.0,-0.011352196115971915,0.0,0.0930149831863641,-0.019695648662809182,-0.08558880936870782,0.007837166094068072,-0.098123515599787,-0.005008863459386336
1140,7.0,299.55335,-164.51618,0.0,0.0,0.0,0.0,-0.011362162925555737,0.0,0.02718794718199147,0.007601162616551343,0.015219701459067586,-9.452744033238202e-05,-0.11581414192496588,-0.03065066049773467
1141,7.0,298.91781000000003,253.66454,0.0,0.0,0.0,0.0,-0.011372129735139559,0.0,-0.03265783193882707,-0.02861504307333487,-0.015834811144274187,-0.02251900825820308,-0.13365669598338886,-0.003495372798266437
1142,7.0,300.42097,771.09482,0.0,0.0,0.0,0.0,-0.011382096544723379,0.0,-0.16776721344483483,-0.03870486597912286,-0.027921495671387075,-0.015916894534875183,-0.1020593934074779,0.005227841903422825
1143,7.0,300.88731,907.63633,0.0,0.0,0.0,0.0,-0.011392063354307199,0.0,-0.10738297903537489,-0.09643342152573771,-0.07208238514597752,-0.036909012912635965,-0.06987302775343093,0.007500825018773793
1144,7.0,299.91339,593.84646,0.0,0.0,0.0,0.0,-0.01140203016389102,0.0,-0.053352984950779656,-0.06384778264328554,-0.06331372688657834,-0.03753503732791976,-0.08202901453438342,-0.0017989308136656483
1145,7.0,298.12049,480.18055999999996,0.0,0.0,0.0,0.0,-0.011411996973474841,0.0,0.015377868786427487,-0.05843903739748394,-0.10290172848060991,-0.05062785285983005,-0.10695686683832091,0.02270344004140508
1146,7.0,299.09868,465.82774000000006,0.0,0.0,0.0,0.0,-0.011421963783058663,0.0,-0.04651933142060055,-0.04469738108453806,-0.05038328873619345,-0.029308265222000574,-0.11051613072959289,0.015703263923541485
1147,7.0,298.86204,462.94648,0.0,0.0,0.0,0.0,-0.011431930592642484,0.0,-0.06220678661608185,-0.026093580331985878,-0.05242380218507645,-0.01138633315074359,-0.09081847279183541,0.024658979297151773
1148,7.0,299.77789,174.87493999999998,0.0,0.0,0.0,0.0,-0.011441897402226304,0.0,-0.05373565202329595,-0.011497699469234589,0.012075735346532288,-0.003034431952875117,-0.0990271756087213,0.007810549432491212
1149,7.0,299.84765,-138.66734,0.0,0.0,0.0,0.0,-0.011451864211810124,0.0,0.006790593845979433,0.011087265290977888,0.024273549091612775,-0.007115329559928353,-0.1063519261311179,0.013734115705701686
1150,7.0,300.13807,154.14628000000002,0.0,0.0,0.0,0.0,-0.011461831021393946,0.0,-0.006223758637937155,0.00012409823156254188,-0.04075695986339876,-0.014933937573114883,-0.1117734423811799,-0.0012998846717636287
1151,7.0,300.34038,707.12466,0.0,0.0,0.0,0.0,-0.011471797830977768,0.0,-0.054895121205476655,-0.06247846733889464,-0.09757465119286832,-0.019453513299662283,-0.09562754724420411,-0.009257280793547483
1152,7.0,301.28758,782.5644900000001,0.0,0.0,0.0,0.0,-0.011481764640561587,0.0,-0.08586851604556273,-0.07322542143803643,-0.07878612684108532,-0.033018747571446676,-0.1200067783212469,-0.007565185246575653
1153,7.0,300.53499,425.17748,0.0,0.0,0.0,0.0,-0.011491731450145407,0.0,-0.06862789638129603,-0.051201269329921854,-0.00941417071650631,-0.04905397046624995,-0.1219640634069159,-0.014682069942757486
1154,7.0,299.91077,339.51985,0.0,0.0,0.0,0.0,-0.011501698259729227,0.0,-0.06736483757514183,-0.051023071061335044,0.015182351033881384,-0.04836550350030355,-0.10959185412087388,-0.0021068515408800576
1155,7.0,300.4198,327.2204,0.0,0.0,0.0,0.0,-0.01151166506931305,0.0,-0.053287677942084354,-0.006530089069119614,-0.03964906308480786,-0.03122058936098227,-0.08581957403923252,-0.006320017701412183
1156,7.0,300.02558999999997,373.49354,0.0,0.0,0.0,0.0,-0.011521631878896871,0.0,-0.009647596688418662,-0.05858285811667795,-0.045302254917234455,-0.03615346575031926,-0.089000181301884,0.006372058226548183
1157,7.0,300.61922000000004,207.62691,0.0,0.0,0.0,0.0,-0.011531598688480691,0.0,0.028048340398405678,-0.05070608286030075,-0.040455651707661966,-0.03958058257679936,-0.0984586734016145,-0.025493922710804275
1158,7.0,299.14508,19.547396,0.0,0.0,0.0,0.0,-0.011541565498064512,0.0,0.003175931721390057,-0.014670568540872385,0.005552716533960455,-0.013935102982287588,-0.0971011300368854,0.016069535596189684
1159,7.0,299.14247,295.71781,0.0,0.0,0.0,0.0,-0.011551532307648332,0.0,-0.03737644544876796,-0.04121704532305566,-0.011297339394460591,-0.01823111723327118,-0.08294403003718842,-0.02256478588447098
1160,7.0,299.23291,766.5577900000001,0.0,0.0,0.0,0.0,-0.011561499117232154,0.0,-0.12287962606477489,-0.04905856859520375,-0.06107623356525494,0.002368458125898618,-0.10674090271200691,0.015898295316039587
1161,7.0,301.27067999999997,810.16525,0.0,0.0,0.0,0.0,-0.011571465926815976,0.0,-0.07532302342405363,-0.05918849188694934,-0.11175848680970389,-0.02746056110814637,-0.1086356094714999,-0.020227351652784182
1162,7.0,300.92484,529.4176,0.0,0.0,0.0,0.0,-0.011581432736399796,0.0,-0.05433611619155715,-0.05085937138842915,-0.05573424224929145,-0.035909534907995165,-0.09970200422832172,0.012214861678012988
1163,7.0,300.43432,388.24483,0.0,0.0,0.0,0.0,-0.011591399545983616,0.0,-0.01954578593326888,-0.028565029048398874,-0.06990591886492703,-0.02237949486518418,-0.07359528508228913,-0.009099919607967142
1164,7.0,300.11721,568.89848,0.0,0.0,0.0,0.0,-0.011601366355567437,0.0,-0.11963133876169389,-0.04093962555167646,-0.012359972264584289,-0.013219709908183786,-0.0933745896998545,0.01991498893845638
1165,7.0,301.65675,634.7153599999999,0.0,0.0,0.0,0.0,-0.011611333165151259,0.0,-0.08058037897241423,-0.05798357033178284,-0.05437367028001345,-0.026176904953959374,-0.1069995449325329,-0.006215662668313144
1166,7.0,300.59751,340.67669,0.0,0.0,0.0,0.0,-0.011621299974735077,0.0,-0.07340844277709922,-0.024508145874015678,-0.005640618411935694,-0.02343080973169088,-0.1113475429666469,0.016039415723717088
1167,7.0,301.01673999999997,141.80902,0.0,0.0,0.0,0.0,-0.0116312667843189,0.0,0.025227932400553075,-0.012066767069897188,-0.056267566439426445,-0.031024304578110472,-0.09846192390793532,-0.007447701025305863
1168,7.0,298.89755,301.65461,0.0,0.0,0.0,0.0,-0.01164123359390272,0.0,-0.028047734474845876,-0.019635192082342583,-0.04401254256719976,-0.03852187605081316,-0.1048919137970259,-0.001237658044697339
1169,7.0,299.32403,656.14968,0.0,0.0,0.0,0.0,-0.01165120040348654,0.0,-0.03035630323768387,-0.06793069722598784,-0.1011661192120686,-0.04708424570910325,-0.08958927680402322,-0.02290914501045658
1170,7.0,299.78943,660.4623799999999,0.0,0.0,0.0,0.0,-0.011661167213070362,0.0,-0.095258561074538,-0.07264240442324713,-0.03286310627658607,-0.012205208444310289,-0.09374955404511061,-0.02370516036851718
1171,7.0,299.77986,267.88476,0.0,0.0,0.0,0.0,-0.011671134022654182,0.0,-0.025002969600100976,-0.038577182281021465,-0.017850127089670383,-0.0015619734625047785,-0.08040153931651413,-0.006688909334843953
1172,7.0,299.75577000000004,187.62446,0.0,0.0,0.0,0.0,-0.011681100832238004,0.0,-0.04261874916689306,-0.013457984788449685,-0.000956417357853544,-0.014053388785711485,-0.1292440525928949,0.002616385226617117
1173,7.0,300.35655,565.33469,0.0,0.0,0.0,0.0,-0.011691067641821824,0.0,-0.03420069064084537,-0.04594816436573076,-0.0916987763727146,-0.025850815740526875,-0.14441990464063487,0.025739981378338377
1174,7.0,299.30576,578.86171,0.0,0.0,0.0,0.0,-0.011701034451405645,0.0,-0.06272539436176444,-0.04885826019618486,-0.06437585009190175,-0.024988596647432474,-0.11023860152720288,0.0037586035218702867
1175,7.0,300.43439,502.48979,0.0,0.0,0.0,0.0,-0.011711001260989467,0.0,-0.02293463736972248,-0.06656335978579214,-0.06324635082117884,-0.013718651482675486,-0.05724756471089474,0.0034388453990376166
1176,7.0,300.41715,324.25744,0.0,0.0,0.0,0.0,-0.011720968070573289,0.0,-0.07603954323226862,-0.03346587862857507,0.01093925680912059,-0.04818806212954146,-0.08307424483403962,-0.03184877098572897
1177,7.0,300.23891000000003,503.99139,0.0,0.0,0.0,0.0,-0.011730934880157109,0.0,-0.07554011935072934,-0.030591987237444072,-0.04706869029356805,-0.05342619024400445,-0.08249676523104682,0.010410680708954189
1178,7.0,300.4751,697.85528,0.0,0.0,0.0,0.0,-0.011740901689740929,0.0,-0.08154463437707883,-0.06796706378532694,-0.06261888151125244,-0.03644501732084317,-0.1053286853851319,-0.004825366804701626
1179,7.0,299.61127999999997,521.5663400000001,0.0,0.0,0.0,0.0,-0.01175086849932475,0.0,-0.008719782215650502,-0.05937428851803604,-0.09044907321612851,0.0013258801097041787,-0.09032197720308512,0.02833437988838557
1180,7.0,299.86942,265.74014,0.0,0.0,0.0,0.0,-0.01176083530890857,0.0,-0.02852215235716727,-0.012647511364712188,-0.03960870229357456,-0.025803171707574776,-0.12415894550853387,0.005729384693571245
1181,7.0,300.82928,477.54355,0.0,0.0,0.0,0.0,-0.01177080211849239,0.0,-0.03823547989679806,-0.06335176632183254,-0.04357406973217586,-0.022729417747468877,-0.11947676745893888,-0.004238332455915846
1182,7.0,299.48866,617.98155,0.0,0.0,0.0,0.0,-0.011780768928076212,0.0,-0.11662794387528189,-0.04377337400034566,-0.027449643338318872,-0.039062607099179164,-0.1073722183193129,-0.008719758910898202
1183,7.0,298.92227,690.82548,0.0,0.0,0.0,0.0,-0.01179073573766003,0.0,-0.08344479546186012,-0.06193163044542603,-0.06461727212697824,-0.0044146947153214456,-0.07013262242905093,-0.015319619064678686
1184,7.0,299.29422999999997,384.88825,0.0,0.0,0.0,0.0,-0.011800702547243852,0.0,-0.03539046714676717,-0.030823902960082368,-0.05078204622029775,-0.02967315988776287,-0.12353407417186389,0.010999646515080591
1185,7.0,300.67632000000003,190.6728,0.0,0.0,0.0,0.0,-0.011810669356827674,0.0,0.015561240710024883,-0.02183997769043798,-0.051681033119770854,-0.028980327840385674,-0.1208658320210289,0.0006234990312645634
1186,7.0,301.41679,480.40583,0.0,0.0,0.0,0.0,-0.011820636166411495,0.0,-0.02320241505315008,-0.06894745519783403,-0.05388150734869075,-0.03205733737306287,-0.1150579128453319,0.023142535011990376
1187,7.0,300.56711,439.30629000000005,0.0,0.0,0.0,0.0,-0.011830602975995317,0.0,-0.03371608250226826,-0.05692991789729545,-0.04289214228237486,-0.016165795368939785,-0.09474351794270722,-0.027788733563784473
1188,7.0,300.04872,384.11532,0.0,0.0,0.0,0.0,-0.011840569785579137,0.0,-0.04480222308563516,-0.08135193852606122,0.00939269407003673,-0.02260549219398838,-0.1120446185054429,-0.014606508843050188
1189,7.0,300.62942000000004,251.32636000000002,0.0,0.0,0.0,0.0,-0.011850536595162957,0.0,-0.04097697800336286,-0.037888849064088265,0.0024688890440103775,-0.05611489295410874,-0.11167866296682591,-0.04675113872547816
1190,7.0,300.0386,333.17661,0.0,0.0,0.0,0.0,-0.01186050340474678,0.0,-0.03340508362257507,-0.038114735948631566,-0.02975755247534177,-0.03292189707388826,-0.0959426254687999,0.01055607804530379
1191,7.0,300.19062,411.74219,0.0,0.0,0.0,0.0,-0.011870470214330601,0.0,-0.026135388044361975,-0.033330594541473565,-0.06569336095842994,-0.019974813250860583,-0.06986975900860833,-0.011628627594156189
1192,7.0,298.91156,582.6985400000001,0.0,0.0,0.0,0.0,-0.01188043702391442,0.0,-0.04235318644818406,-0.03371757603291567,-0.10105504268310621,-0.008582878549589163,-0.11019585250548389,0.030415187253995273
1193,7.0,298.93777,500.73539000000005,0.0,0.0,0.0,0.0,-0.011890403833498242,0.0,-0.06762576366139324,-0.031279309230777465,-0.05330598129189074,-0.018326639359948483,-0.12897338309368186,0.006891492277687333
1194,7.0,300.36402999999996,518.81525,0.0,0.0,0.0,0.0,-0.01190037064308206,0.0,-0.07408169781929433,-0.046704422829617655,-0.03692076053429536,-0.017553586275654082,-0.12406992135474788,0.02204596839601768
1195,7.0,300.3228,445.85713,0.0,0.0,0.0,0.0,-0.011910337452665882,0.0,-0.06547542808717165,-0.043377204356996754,-0.026676802023295376,-0.013796241109082986,-0.0950688107415611,-0.016333685844259285
1196,7.0,300.40509,469.8498,0.0,0.0,0.0,0.0,-0.011920304262249702,0.0,-0.036922476979964765,-0.04058676323085166,-0.06531336785292753,-0.02032681734885068,-0.1057588911125899,0.005015707153211755
1197,7.0,299.87233,394.70671,0.0,0.0,0.0,0.0,-0.011930271071833524,0.0,-0.017506806545037282,-0.05619172264294124,-0.046282453812222554,-0.04521490161286336,-0.1068672448669759,-0.026104452505558873
1198,7.0,300.02633,293.6983,0.0,0.0,0.0,0.0,-0.011940237881417343,0.0,-0.026919455157243373,-0.017468341544741084,-0.04488915487796466,-0.040046101083492464,-0.0980141869272471,0.000952560188300371
1199,7.0,300.29418,323.62928,0.0,0.0,0.0,0.0,-0.011950204691001165,0.0,-0.054483222880825445,-0.04218102512369306,-0.0017109720923597985,-0.032918791462331766,-0.06747761231127185,-0.011802898505355387
1200,7.0,299.95392000000004,289.40457999999995,0.0,0.0,0.0,0.0,-0.011960171500584987,0.0,-0.050326121165551456,-0.032606335528994765,-0.005039308990441075,-0.04448321446390146,-0.1110431119741019,0.005302880064753515
1201,7.0,299.57977999999997,379.95044,0.0,0.0,0.0,0.0,-0.011970138310168807,0.0,-0.047153986700236156,-0.033598029746367365,-0.03474343096415967,-0.04900727686189166,-0.12931128173702988,-0.017343062289126982
1202,7.0,299.74343,434.57254000000006,0.0,0.0,0.0,0.0,-0.01198010511975263,0.0,-0.02998984614026737,-0.03533549123609147,-0.06677386249406714,-0.017658221573730783,-0.1025027511212339,0.02110949630909508
1203,7.0,299.87032,306.1508,0.0,0.0,0.0,0.0,-0.01199007192933645,0.0,-0.0015397868316901287,-0.02110360628626378,-0.07041880681379513,0.004711023050791776,-0.08647579837374682,-0.0005755528167351405
1204,7.0,301.11716,322.9674,0.0,0.0,0.0,0.0,-0.01200003873892027,0.0,-0.02115875647595668,-0.02409592026958218,-0.05291934937173315,0.013692321165576886,-0.11778186348666489,0.016204252263235183
1205,7.0,300.44836000000004,646.08782,0.0,0.0,0.0,0.0,-0.012010005548504092,0.0,-0.08513877838979322,-0.05361835616521975,-0.05763742991212144,-0.008732111138892273,-0.14239895705118288,0.017211327617125783
1206,7.0,299.74215,708.12677,0.0,0.0,0.0,0.0,-0.01201997235808791,0.0,-0.11749702875105388,-0.042325189334670964,-0.05543064009532824,-0.019055263453858082,-0.11940925460477587,0.009492197864306991
1207,7.0,298.92034,436.42270999999994,0.0,0.0,0.0,0.0,-0.012029939167671732,0.0,-0.05867473456949545,-0.036642929383375565,-0.037343944438560366,-0.026530999386905774,-0.08926937854870172,-0.0014290012068314388
1208,7.0,299.60177999999996,266.62542,0.0,0.0,0.0,0.0,-0.01203990597725555,0.0,-0.025350412046140875,-0.008950182622764253,-0.04674687699555755,-0.04833219290326605,-0.08731422736774332,-0.023438376683437682
1209,7.0,298.61667,381.29761,0.0,0.0,0.0,0.0,-0.012049872786839373,0.0,-0.02241563648300108,-0.042638708167362864,-0.05085060677506415,-0.07080720280237685,-0.10038420626889981,0.0018645029899121183
1210,7.0,299.75625,402.87566,0.0,0.0,0.0,0.0,-0.012059839596423195,0.0,-0.05469852940782455,-0.02777150121933377,-0.039994110207611365,-0.07078376126131333,-0.08117887135598083,-0.013185748804582089
1211,7.0,299.95072999999996,396.07268999999997,0.0,0.0,0.0,0.0,-0.012069806406007015,0.0,-0.07167625626739574,-0.04206467564121026,-0.006655276625599664,-0.04360148220038126,-0.08039677704104413,0.011853735289372589
1212,7.0,301.00221,371.01698999999996,0.0,0.0,0.0,0.0,-0.012079773215590837,0.0,-0.04693297253542375,-0.03330494310194197,-0.03254198401514377,-0.025531334944246576,-0.11922055703865288,0.006776296481768394
1213,7.0,300.15612999999996,399.30845,0.0,0.0,0.0,0.0,-0.012089740025174656,0.0,-0.02229376681397348,-0.04535182108562626,-0.05373421016840365,-0.012989181324932387,-0.14004464004632985,-0.0063409947142574535
1214,7.0,300.65792000000005,727.90022,0.0,0.0,0.0,0.0,-0.012099706834758478,0.0,-0.05256670591292995,-0.05736586773957035,-0.1113309155325059,0.005719934717838605,-0.1090809632879529,-2.8175984579753173e-05
1215,7.0,300.17042999999995,908.70529,0.0,0.0,0.0,0.0,-0.0121096736443423,0.0,-0.06607730067307184,-0.0914925242486091,-0.11865389692022789,0.0017232443749209787,-0.09463987968272891,-0.005557401599772834
1216,7.0,300.08436,399.53311,0.0,0.0,0.0,0.0,-0.01211964045392612,0.0,-0.03482444436265507,-0.03818736875554986,-0.04843627496678815,-0.02628304695493477,-0.11827440436027488,0.009890336961875261
1217,7.0,299.64876,222.81367000000003,0.0,0.0,0.0,0.0,-0.012129607263509942,0.0,-0.043572908547561254,-0.036683212154351164,0.012526328679252387,-0.03810619627678876,-0.12411464621416186,-0.022408464698793276
1218,7.0,299.49666,471.70942,0.0,0.0,0.0,0.0,-0.01213957407309376,0.0,-0.07514398821088422,-0.02395631365755408,-0.04428758322734416,-0.04377723650972686,-0.09595742398651042,0.01830450187176368
1219,7.0,298.68677,397.61685,0.0,0.0,0.0,0.0,-0.012149540882677582,0.0,-0.05482471552227815,-0.031887204575272075,-0.03415367380970517,-0.04190060207901746,-0.1076276181395189,-0.045639369305005055
1220,7.0,299.5575,251.04486,0.0,0.0,0.0,0.0,-0.012159507692261403,0.0,0.013498978860995487,-0.02953981313485257,-0.060270534575988646,-0.04217063525716766,-0.11629459472488289,0.02093169118154708
1221,7.0,299.99403,230.2187,0.0,0.0,0.0,0.0,-0.012169474501845223,0.0,0.0025978508557879176,-0.03769571244927717,-0.03488287545617177,-0.041170799575241564,-0.12341107574222489,-0.016265813286310785
1222,7.0,299.81021,521.22752,0.0,0.0,0.0,0.0,-0.012179441311429045,0.0,-0.05583375354161245,-0.05125309301953645,-0.05135330345442645,-0.0012180623957133987,-0.08094806818195233,0.038230190731276065
1223,7.0,299.47001,759.58501,0.0,0.0,0.0,0.0,-0.012189408121012863,0.0,-0.1269996833563929,-0.06594312204182944,-0.03795206776432746,-0.020850700074553877,-0.07764429429014523,-0.0023729837061452577
1224,7.0,299.51752,816.22964,0.0,0.0,0.0,0.0,-0.012199374930596685,0.0,-0.09568197498657571,-0.061087276978094844,-0.09134417835446851,-0.03646631887769546,-0.1098749258013109,0.03180852165200667
1225,7.0,298.9086,397.03452000000004,0.0,0.0,0.0,0.0,-0.012209341740180507,0.0,-0.04593170918410676,-0.024912543108176578,-0.049844327835752156,-0.03799658693397116,-0.13798118661518285,-0.008640581318933981
1226,7.0,300.30091,177.83409,0.0,0.0,0.0,0.0,-0.012219308549764328,0.0,0.02296491936221108,-0.019557153586140782,-0.057464890645343145,-0.02618068336358227,-0.10441144073210691,0.007486859189995474
1227,7.0,300.13205,268.80531,0.0,0.0,0.0,0.0,-0.01222927535934815,0.0,-0.03366344719932357,-0.028291837569686975,-0.01975481740239868,-0.015471747421442587,-0.12451281297345788,-0.013765494034798487
1228,7.0,300.89984,441.12473,0.0,0.0,0.0,0.0,-0.012239242168931968,0.0,-0.039904796264296764,-0.05625400712658824,-0.037932098631356666,-0.032185573292468767,-0.12464418084892288,-0.010083524847141421
1229,7.0,300.03852,211.5314,0.0,0.0,0.0,0.0,-0.01224920897851579,0.0,-0.05521446318649324,-0.04028942194925636,0.03120362248805777,-0.05823033624788674,-0.11517513574940089,-0.015531570720596686
1230,7.0,299.8322,352.91323,0.0,0.0,0.0,0.0,-0.012259175788099612,0.0,-0.017427789249238882,-0.05836296561972624,-0.03148605582093177,-0.023827496132590775,-0.06760072017192165,-0.01170057240425659
1231,7.0,299.80391000000003,567.28295,0.0,0.0,0.0,0.0,-0.012269142597683433,0.0,-0.056074532162875446,-0.053317425951770255,-0.06304789464334275,-0.04635672909755295,-0.07094310801178964,-0.017154932143059982
1232,7.0,300.69039,654.25468,0.0,0.0,0.0,0.0,-0.012279109407267253,0.0,-0.00034147747309870265,-0.08372007727552833,-0.11481553328891089,-0.04049173962322356,-0.12287240159156188,-0.012936355530968887
1233,7.0,299.79502,568.37245,0.0,0.0,0.0,0.0,-0.012289076216851073,0.0,-0.04261716241723646,-0.06603625492477093,-0.06411761722441614,-0.04428455056979486,-0.15638963072195486,-0.00015233497872429186
1234,7.0,299.21222,423.49742000000003,0.0,0.0,0.0,0.0,-0.012299043026434893,0.0,-0.045791679033536856,-0.04684929631566555,-0.03609166762672027,0.0009196884602786842,-0.09955758265181841,0.015017713091382886
1235,7.0,298.59657000000004,248.29342000000003,0.0,0.0,0.0,0.0,-0.012309009836018715,0.0,-0.07040285724397102,-0.02067910211711848,0.015606957541286786,-0.011372383736616889,-0.101105115476548,0.013531953058999787
1236,7.0,299.42946,224.54615,0.0,0.0,0.0,0.0,-0.012318976645602536,0.0,-0.031981320310810565,-0.009469665715208242,-0.026805435136740476,-0.028208149190927574,-0.1104305617586479,0.00996166997156528
1237,7.0,299.70599999999996,586.47132,0.0,0.0,0.0,0.0,-0.012328943455186358,0.0,-0.05441882475746985,-0.04691624884252325,-0.07693756349114633,-0.035707204061776666,-0.13250608969983288,0.015862502256257086
1238,7.0,300.39466,616.50242,0.0,0.0,0.0,0.0,-0.012338910264770176,0.0,-0.04806480430787686,-0.049236613863025455,-0.09009992445692022,-0.012149959969357688,-0.11144551411881588,-0.0018530132404031682
1239,7.0,300.34411,454.14570999999995,0.0,0.0,0.0,0.0,-0.012348877074353998,0.0,-0.06411981597713313,-0.034553892400453666,-0.03937524845728446,-0.014004469070883485,-0.10784060331053891,0.008470464834469792
1240,7.0,300.53007,506.64533,0.0,0.0,0.0,0.0,-0.01235884388393782,0.0,-0.07736760709858832,-0.033170260885399865,-0.04346966140212155,-0.03275893606030526,-0.13049146479100487,-0.014888982705928184
1241,7.0,300.65234,746.44915,0.0,0.0,0.0,0.0,-0.01236881069352164,0.0,-0.1070961988595719,-0.05292071421961785,-0.06688498664578424,-0.055462613202233745,-0.10848889085701989,0.025600443667317077
1242,7.0,300.29382999999996,487.98501,0.0,0.0,0.0,0.0,-0.012378777503105462,0.0,-0.06662979251534853,-0.023597357650627877,-0.05810810890157385,-0.05086160661814975,-0.05804618006871195,-0.007715685614403884
1243,7.0,299.62227,264.46232000000003,0.0,0.0,0.0,0.0,-0.01238874431268928,0.0,-0.0032851104329151564,-0.027472985580872578,-0.04963184422353165,-0.03089445759104557,-0.07481383687780083,0.006427372360107264
1244,7.0,299.80225,240.64355,0.0,0.0,0.0,0.0,-0.012398711122273103,0.0,0.01168428136914879,-0.03658018589743327,-0.04825372681552205,-0.05207726153162554,-0.1085525432283019,-0.028555534894961872
1245,7.0,298.33351,314.27452,0.0,0.0,0.0,0.0,-0.012408677931856925,0.0,-0.02462271811582308,-0.04166120654414096,-0.02924768097202137,-0.01279395538841509,-0.15083809421906086,0.01936331985526088
1246,7.0,298.31759,512.10069,0.0,0.0,0.0,0.0,-0.012418644741440743,0.0,-0.06873703658931733,-0.07067019821660553,-0.016258587799847683,0.007777366808941343,-0.11894565215402189,-0.02058051085588828
1247,7.0,298.79917,492.31937999999997,0.0,0.0,0.0,0.0,-0.012428611551024565,0.0,-0.07564914202173902,-0.04442327058798545,-0.029580384682106674,-0.006276900160631814,-0.1208899676384109,0.012169740637809888
1248,7.0,298.40062,123.46265,0.0,0.0,0.0,0.0,-0.012438578360608384,0.0,-0.017963101436070085,-0.024588192631915678,0.005021730317106195,-0.033144189960326864,-0.13205976316328388,-0.040326944626959564
1249,7.0,299.07211,167.3209,0.0,0.0,0.0,0.0,-0.012448545170192206,0.0,0.03138745949345107,-0.02027040566278328,-0.061978429427794746,-0.035602096589153365,-0.11772572943112489,-0.009069919400331352
1250,7.0,299.0762,663.8869900000001,0.0,0.0,0.0,0.0,-0.012458511979776028,0.0,-0.042643703490355865,-0.06550124569971963,-0.0936601195250341,-0.021083121408992083,-0.07578918433131013,-0.012223603999875788
1251,7.0,299.56115,702.89152,0.0,0.0,0.0,0.0,-0.012468478789359848,0.0,-0.07607372725089233,-0.05329073390438594,-0.08429701073671722,-0.02092081698147388,-0.08282018453046583,-0.0026516169458442175
1252,7.0,300.3,301.09935,0.0,0.0,0.0,0.0,-0.01247844559894367,0.0,-0.06419201004675815,-0.011872932325767187,-0.015461740563454984,-0.057293380840666444,-0.1028179732273439,-0.01109883458061969
1253,7.0,299.70224,329.19079,0.0,0.0,0.0,0.0,-0.012488412408527489,0.0,-0.05539925264698055,-0.02740322027173727,-0.017263308360505884,-0.03798631156470707,-0.13484295853796385,0.024718477343023775
1254,7.0,300.46576,796.01018,0.0,0.0,0.0,0.0,-0.01249837921811131,0.0,-0.08423305337715511,-0.05244907973532115,-0.10528508523332891,-0.036417446785622164,-0.10003074917026632,0.026832977300958676
1255,7.0,300.83726,946.467,0.0,0.0,0.0,0.0,-0.012508346027695133,0.0,-0.06768220270521334,-0.08371403121218163,-0.13630610181486486,-0.03319224638606967,-0.0976146522803161,0.008346541104839471
1256,7.0,299.30613999999997,450.77597000000003,0.0,0.0,0.0,0.0,-0.012518312837278953,0.0,-0.023172485671696278,-0.053192055503647154,-0.06066009580218534,-0.04309918271505816,-0.13072283031883888,0.003641395005952707
1257,7.0,299.98245,157.4385,0.0,0.0,0.0,0.0,-0.012528279646862775,0.0,-0.03348129624209667,-0.01064092760867779,-0.0037351475926553665,-0.033374475363554264,-0.12807911895292487,0.008141883735066361
1258,7.0,299.52785,289.49973,0.0,0.0,0.0,0.0,-0.012538246456446593,0.0,-0.04219086378216406,-0.03803619285387997,-0.007773633488947893,-0.010891608723168092,-0.0893812454127421,8.146147390162152e-05
1259,7.0,299.31367,442.9047,0.0,0.0,0.0,0.0,-0.012548213266030415,0.0,-0.08281961913691002,-0.029924838040351575,-0.02188751229237928,-0.016802664600043885,-0.1170121683132019,-0.019106818632196182
1260,7.0,300.0345,475.45297999999997,0.0,0.0,0.0,0.0,-0.012558180075614234,0.0,-0.01081145658725769,-0.049899134533661155,-0.08381524273817043,-0.044275634982164955,-0.1327003196115019,-0.01203553870181519
1261,7.0,299.63748,233.19548999999998,0.0,0.0,0.0,0.0,-0.012568146885198056,0.0,-0.007024133099252963,-0.016953845567964282,-0.04690762811067246,-0.03147988614107287,-0.13042165185911486,-0.02323819696718148
1262,7.0,298.63037,391.97028,0.0,0.0,0.0,0.0,-0.012578113694781878,0.0,0.004305493813619155,-0.054589505723564746,-0.06886516510421264,0.0016075962641573984,-0.07183568407788002,-0.0036021356175781065
1263,7.0,299.97175,774.90952,0.0,0.0,0.0,0.0,-0.012588080504365697,0.0,-0.12466533751101089,-0.048041827848609255,-0.06284597618991494,-0.035684917625827164,-0.07262701011447784,0.005626236137366275
1264,7.0,298.40306,654.5935,0.0,0.0,0.0,0.0,-0.012598047313949519,0.0,-0.07975805457550712,-0.06793978911913513,-0.05128223611891265,-0.05605042187674595,-0.10970785099232189,-0.011175006670137289
1265,7.0,299.21932999999996,130.75269,0.0,0.0,0.0,0.0,-0.01260801412353334,0.0,-0.047509428755815555,-0.008690101384446232,0.016453977882881183,-0.05149629736153886,-0.14174174277132087,0.01875110603884008
1266,7.0,299.9423,120.80746,0.0,0.0,0.0,0.0,-0.01261798093311716,0.0,0.04225350290334606,-0.05554854390346445,-0.023427409264355277,-0.029210679104869575,-0.0912547955101471,-0.0037950281404401163
1267,7.0,300.08227,407.36127999999997,0.0,0.0,0.0,0.0,-0.012627947742700983,0.0,-0.024043281926887178,-0.05816732729041824,-0.04161704809153286,-0.024839502974718077,-0.1050331811259679,-0.004630217875191925
1268,7.0,300.27212000000003,591.9980400000001,0.0,0.0,0.0,0.0,-0.012637914552284801,0.0,-0.02925830895232027,-0.08396984646492862,-0.06672446452519193,-0.01958949348958248,-0.12215925590617988,-0.030525328553115367
1269,7.0,300.35679,360.24037999999996,0.0,0.0,0.0,0.0,-0.012647881361868623,0.0,-0.05011373178559025,-0.04268192125762766,-0.016708427274493384,-0.02363179599502668,-0.1005351704012988,0.0024299443711168376
1270,7.0,299.87435,232.29647999999997,0.0,0.0,0.0,0.0,-0.012657848171452445,0.0,-0.05224242332442575,0.0011496288011845289,-0.019519535662928182,0.0035558691994619666,-0.08642226026496301,0.009270451930272372
1271,7.0,300.17184,584.43438,0.0,0.0,0.0,0.0,-0.012667814981036266,0.0,-0.08608800932197501,-0.02988606906502537,-0.061679381833031045,-0.004717336612164876,-0.10825884255431588,0.01973840275077868
1272,7.0,299.51846,681.41597,0.0,0.0,0.0,0.0,-0.012677781790620086,0.0,-0.05925083412585203,-0.04612558040524036,-0.1017570294451369,-0.031708425714377965,-0.15328326936038086,-0.0029634351395682774
1273,7.0,299.24585,588.37562,0.0,0.0,0.0,0.0,-0.012687748600203906,0.0,-0.026593266645301074,-0.045200163890158865,-0.1070580702583089,-0.04203623371090326,-0.14849633138294685,0.023726349454608376
1274,7.0,299.03814,344.49948,0.0,0.0,0.0,0.0,-0.012697715409787726,0.0,-0.04932399351189915,-0.027863628958176075,-0.027531615271408873,-0.02894481646413097,-0.09844071253034191,0.0074825640228215725
1275,7.0,299.20576,454.14409000000006,0.0,0.0,0.0,0.0,-0.012707682219371547,0.0,-0.056899840581327035,-0.05048577189105775,-0.03066285192293787,-0.04593149538833566,-0.07299812106960363,0.012077722329978387
1276,7.0,300.82223999999997,705.40721,0.0,0.0,0.0,0.0,-0.012717649028955369,0.0,-0.12658029914000288,-0.07253909141655092,-0.015306792331662785,-0.06206364072145444,-0.0965791765393726,-0.001042296636641669
1277,7.0,301.121,630.18238,0.0,0.0,0.0,0.0,-0.01272761583853919,0.0,-0.06770049288276843,-0.055972911283846245,-0.06788630369935653,-0.05771720207924435,-0.09924025805175091,0.02249051667864118
1278,7.0,300.80908,391.38203,0.0,0.0,0.0,0.0,-0.01273758264812301,0.0,-0.02089476936115318,-0.06344214012475174,-0.034633454824805864,-0.037404641159300665,-0.08760091128478682,-0.02024617885289228
1279,7.0,300.34741,256.5933,0.0,0.0,0.0,0.0,-0.012747549457706831,0.0,-0.0022213879136339177,-0.023515893355837977,-0.052260674998477044,-0.007323316266880044,-0.10614947876113791,0.001128379224062359
1280,7.0,299.76678,285.15128,0.0,0.0,0.0,0.0,-0.012757516267290651,0.0,-0.023010645312723878,-0.05123747376924495,-0.012430748797319388,-0.01203585888884679,-0.15290593502314087,-0.05453381243181824
1281,7.0,300.37847,298.34991,0.0,0.0,0.0,0.0,-0.012767483076874473,0.0,-0.037473241230820964,-0.016929808235841986,-0.036287872362834164,0.0073144912638090824,-0.14576628097601188,0.0016299019518587984
1282,7.0,300.65381,209.36827,0.0,0.0,0.0,0.0,-0.012777449886458295,0.0,-0.05018501595662545,-0.009323937451375981,-0.004133772239671556,-0.009778842872546652,-0.0999462015554221,-0.024085890106842277
1283,7.0,299.415,275.82583,0.0,0.0,0.0,0.0,-0.012787416696042114,0.0,-0.03622800448067567,-0.018136378348921182,-0.029479783132678072,-0.017481974824836582,-0.11030246668100589,0.014796963384846587
1284,7.0,299.56423,445.05133,0.0,0.0,0.0,0.0,-0.012797383505625936,0.0,-0.024623866128186376,-0.04940896263878495,-0.061251661608068345,-0.03883408171137546,-0.12996442275148987,-0.03313170367934457
1285,7.0,299.63347000000005,712.56063,0.0,0.0,0.0,0.0,-0.012807350315209758,0.0,-0.06139802457176324,-0.06794380564253152,-0.08725880866677392,-0.03276991462513877,-0.12208367758122089,0.016765369903613183
1286,7.0,299.52667,853.58968,0.0,0.0,0.0,0.0,-0.012817317124793576,0.0,-0.06585776382690524,-0.08639910446042773,-0.10721307725860689,-0.0006530427697303034,-0.09146415020605882,0.000996085329198468
1287,7.0,299.55097,673.66359,0.0,0.0,0.0,0.0,-0.012827283934377398,0.0,-0.09218532083223283,-0.07635782231393033,-0.03623376784724446,-0.031020665997001366,-0.0925751921129601,0.025553063079390974
1288,7.0,299.7772,280.23397,0.0,0.0,0.0,0.0,-0.012837250743961217,0.0,-0.04422941557885346,-0.025456389900600077,-0.015498323958315484,-0.02415994247715068,-0.12777160768007587,0.01039096691500859
1289,7.0,300.22866,304.64032000000003,0.0,0.0,0.0,0.0,-0.012847217553545039,0.0,-0.03828440366462647,-0.026809833655424577,-0.027508813091158477,-0.042909467845834756,-0.12354312249525687,0.003988327584542286
1290,7.0,299.46009,277.23329,0.0,0.0,0.0,0.0,-0.01285718436312886,0.0,0.01463363253497709,-0.024026704142001077,-0.07487892705097472,-0.009842442352173431,-0.07753205049706763,-0.0005765136311424654
1291,7.0,300.59379,271.70883,0.0,0.0,0.0,0.0,-0.012867151172712681,0.0,-0.03298572676393777,-0.016458723946349587,-0.033148249040227465,-0.042105574468246657,-0.0933325104364516,-0.03160193718186837
1292,7.0,299.94728,400.23418,0.0,0.0,0.0,0.0,-0.012877117982296503,0.0,-0.023450272239611682,-0.042818507371107664,-0.05539241726180595,-0.02205842326624688,-0.13855725982703687,-0.009903050008229941
1293,7.0,300.03612000000004,465.87519000000003,0.0,0.0,0.0,0.0,-0.012887084791880322,0.0,-0.08817808893924982,-0.035525124032056765,-0.017911211885198983,-0.05013247691244025,-0.11402751855363989,-0.016510386529198284
1294,7.0,300.42506000000003,740.35002,0.0,0.0,0.0,0.0,-0.012897051601464144,0.0,-0.09238512260620173,-0.058339364998397036,-0.07432343092215152,-0.014091144510937686,-0.0999765433296666,0.02333464520445018
1295,7.0,301.07792,923.1501199999999,0.0,0.0,0.0,0.0,-0.012907018411047964,0.0,-0.09928935305884622,-0.07232282128870673,-0.1090024161402009,-0.044198703968322456,-0.0939763143512401,-0.007809493220586972
1296,7.0,299.85272000000003,678.9971099999999,0.0,0.0,0.0,0.0,-0.012916985220631786,0.0,-0.03618890822556717,-0.08681792834951241,-0.08339132929383342,-0.04831100179067466,-0.12059634802443288,0.007495159430839644
1297,7.0,300.52576,132.98242,0.0,0.0,0.0,0.0,-0.012926952030215608,0.0,0.004895392417787615,-0.03237183804510167,-0.012946890292258588,-0.03239134412277677,-0.12220557156825089,-0.00973593335201181
1298,7.0,299.70861,144.93796,0.0,0.0,0.0,0.0,-0.012936918839799427,0.0,0.00821162168644896,-0.040750553083016464,-0.01151858863329619,-0.005412653047462265,-0.1084798121361239,0.0015000120029896587
1299,7.0,298.45046,252.44696000000002,0.0,0.0,0.0,0.0,-0.012946885649383249,0.0,-0.06570186111351885,-0.020031933198747878,0.00899622146490793,-0.01894584662855948,-0.1087312704134409,-0.008951620627306171
1300,7.0,299.61467000000005,319.98454,0.0,0.0,0.0,0.0,-0.01295685245896707,0.0,-0.05116457954380085,-0.04185430465544826,-0.004248425034861906,-0.05211717953256516,-0.14095274518345285,-0.0030540526291365274
1301,7.0,299.77943,218.54268,0.0,0.0,0.0,0.0,-0.012966819268550889,0.0,-0.009661451667636042,-0.024913022375473874,-0.03185704315954537,-0.034386332244666765,-0.1074230125468259,-0.006641572215347145
1302,7.0,299.03141,432.96952999999996,0.0,0.0,0.0,0.0,-0.012976786078134711,0.0,-0.030182554150286173,-0.027299781622028677,-0.07412959111177102,-0.015614530572534185,-0.0886779485183321,-0.0003231417904816117
1303,7.0,299.73284,773.33371,0.0,0.0,0.0,0.0,-0.01298675288771853,0.0,-0.07590836078157193,-0.06478464787124694,-0.09438112904444221,-0.028812082727531177,-0.10283804571182491,-0.012587581674297589
1304,7.0,300.32122999999996,841.3177099999999,0.0,0.0,0.0,0.0,-0.012996719697302352,0.0,-0.1042854532146729,-0.06222228427636134,-0.089231840672247,-0.025248112289544676,-0.13642439876403986,-0.0011243299726877288
1305,7.0,300.55956000000003,658.63887,0.0,0.0,0.0,0.0,-0.013006686506886172,0.0,-0.1032562748231009,-0.04291528592790896,-0.05403821356940645,-0.024786027687440475,-0.1185262983351349,0.026648592127261273
1306,7.0,301.08946000000003,394.56919,0.0,0.0,0.0,0.0,-0.013016653316469994,0.0,-0.05265321416671766,-0.024396213148718773,-0.04288975202538896,0.0036995437066665365,-0.10580738526237589,0.037354409285593165
1307,7.0,300.13889,306.4245,0.0,0.0,0.0,0.0,-0.013026620126053816,0.0,-0.0047555138494326755,-0.03921764551023026,-0.04917223701792195,-0.025742728299359474,-0.10444598242801591,0.016692851593956184
1308,7.0,300.22843,611.13973,0.0,0.0,0.0,0.0,-0.013036586935637634,0.0,-0.051335523954921754,-0.06998170085315614,-0.06445399295286385,-0.055611207342648857,-0.14700150377541885,0.006317043103093614
1309,7.0,299.41909,602.2118,0.0,0.0,0.0,0.0,-0.013046553745221456,0.0,-0.025612509449507874,-0.07592278743649572,-0.08152205105885002,-0.05628203261110415,-0.12595403965069588,-0.017993921464361785
1310,7.0,299.24061,195.88173,0.0,0.0,0.0,0.0,-0.013056520554805277,0.0,-0.016016058282411882,-0.032180780619495766,-0.01134631483804409,-0.028307748636007272,-0.1034098328757559,-0.013639023197066788
1311,7.0,298.9373,219.80087000000003,0.0,0.0,0.0,0.0,-0.013066487364389099,0.0,-0.03289912934414126,-0.05062744148028945,0.016712594772154685,-0.02400326158768748,-0.1022610200448769,-0.01024563037366499
1312,7.0,299.50754,565.4866599999999,0.0,0.0,0.0,0.0,-0.01307645417397292,0.0,-0.093613590067192,-0.033288843571103066,-0.044991388773304365,-0.041498066185290255,-0.13151938675245287,-0.008459860361573212
1313,7.0,299.31837,657.9545,0.0,0.0,0.0,0.0,-0.01308642098355674,0.0,-0.07245190428519623,-0.06390905590333275,-0.06364077868760584,-0.04252543592543376,-0.1060090828272819,-0.008227641981130043
1314,7.0,300.26878,558.83234,0.0,0.0,0.0,0.0,-0.01309638779314056,0.0,-0.04492310382256516,-0.05772549147831244,-0.06722248302884254,-0.013034238530379189,-0.092842912041132,-0.005925504620651775
1315,7.0,300.29821,539.18794,0.0,0.0,0.0,0.0,-0.01310635460272438,0.0,-0.03603915695353786,-0.06727960398997994,-0.06058090929362024,-0.013776464493631187,-0.08949509014097771,-0.009092476779357591
1316,7.0,298.96862000000004,452.98415,0.0,0.0,0.0,0.0,-0.013116321412308202,0.0,-0.061964010878871746,-0.04610462740642245,-0.02962723128723007,-0.008685523723144451,-0.14145025098255287,-0.015683749739865586
1317,7.0,299.66667,600.47371,0.0,0.0,0.0,0.0,-0.013126288221892024,0.0,-0.1063972893380949,-0.048797035572142454,-0.027334691127723975,-0.048153625811642856,-0.15005570302184487,0.02287692264402648
1318,7.0,299.62217999999996,517.73023,0.0,0.0,0.0,0.0,-0.013136255031475842,0.0,-0.037955536119419764,-0.060376624901208945,-0.05904490320202824,-0.013176906170959388,-0.09656566687578931,0.012396194942409188
1319,7.0,298.71667,254.91633,0.0,0.0,0.0,0.0,-0.013146221841059664,0.0,-0.006475842394540883,-0.047756966768495654,-0.023255388781628177,-0.05226804740620465,-0.09579829001855511,0.020683670861819378
1320,7.0,298.81827999999996,56.026952,0.0,0.0,0.0,0.0,-0.013156188650643484,0.0,0.04258582056514326,-0.005744568955594814,-0.05387204561925695,-0.025520896441716373,-0.11762422203610688,-0.01111646209260939
1321,7.0,299.16525,317.64004,0.0,0.0,0.0,0.0,-0.013166155460227306,0.0,-0.013057725667697188,-0.041217953195145256,-0.04227896182535866,-0.04862846621925595,-0.11995887185651889,-0.011918121253726988
1322,7.0,298.48909,636.13719,0.0,0.0,0.0,0.0,-0.013176122269811128,0.0,-0.07454642700415953,-0.05280345686504545,-0.06601993653191043,-0.001011602474277391,-0.09227207935879521,0.01128431305117499
1323,7.0,299.57981,579.6995400000001,0.0,0.0,0.0,0.0,-0.013186089079394947,0.0,-0.11604872958811789,-0.030988059608783366,-0.029177393839084572,-0.022942672443015476,-0.1081548932265569,0.0002297993572869308
1324,7.0,300.69165,526.2558799999999,0.0,0.0,0.0,0.0,-0.013196055888978769,0.0,-0.07899180647888432,-0.04359100114134686,-0.037385838277194966,-0.03515678634245467,-0.15756381533533784,0.01225151701363059
1325,7.0,300.33497,624.0788200000001,0.0,0.0,0.0,0.0,-0.01320602269856259,0.0,-0.08784699325707322,-0.03166959999704617,-0.07018778275124485,-0.03692346287231207,-0.12914208923533188,-0.002008458674019438
1326,7.0,299.51766000000003,743.79171,0.0,0.0,0.0,0.0,-0.013215989508146411,0.0,-0.05571067709171574,-0.07016000753950363,-0.10022342272978171,-0.02692712039424987,-0.0925298430914845,0.03544256644040897
1327,7.0,299.45596,761.43938,0.0,0.0,0.0,0.0,-0.01322595631773023,0.0,-0.048578383293313154,-0.07347253388567453,-0.10940764525269389,-0.028171793777339575,-0.07938219249066242,-0.03142707453261077
1328,7.0,299.88705,511.95827,0.0,0.0,0.0,0.0,-0.01323592312731405,0.0,-0.06659889750654943,-0.03422896842463617,-0.05479466556406245,-0.06985986664788203,-0.13044379137379988,0.04018834721203106
1329,7.0,298.99851,9.514835,0.0,0.0,0.0,0.0,-0.013245889936897872,0.0,0.00016612376231263883,-0.03507508393389127,0.03201668780555107,-0.03980841490153466,-0.13279537260338287,-0.03762313841086467
1330,7.0,299.75246,116.03025,0.0,0.0,0.0,0.0,-0.013255856746481692,0.0,0.012231311793386488,-0.027749949389706773,-0.019751660115087083,-0.02106407737336258,-0.1065649619646429,0.014593376108504088
1331,7.0,300.08262,395.45871,0.0,0.0,0.0,0.0,-0.013265823556065514,0.0,-0.02527309295751008,-0.059244738413250446,-0.035691743891750866,-0.012811021559849388,-0.1097617660301429,-0.05326218862256875
1332,7.0,300.58432999999997,441.53287,0.0,0.0,0.0,0.0,-0.013275790365649336,0.0,-0.012081026538554489,-0.05730799190710845,-0.06482595098507324,-0.03315536914868017,-0.15237114162036086,-0.005315406977064825
1333,7.0,301.05037999999996,303.05555,0.0,0.0,0.0,0.0,-0.013285757175233155,0.0,-0.015773151835938887,-0.03974156065993666,-0.036606607407040866,-0.040778694078043756,-0.13997303366176286,-0.03229016096779077
1334,7.0,300.45215,475.04785,0.0,0.0,0.0,0.0,-0.013295723984816977,0.0,-0.09637789744675791,-0.013585454690779987,-0.03443933333089757,0.02292131718390788,-0.08321075596701222,0.010456378288464189
1335,7.0,299.16173,758.93939,0.0,0.0,0.0,0.0,-0.013305690794400797,0.0,-0.11981757413007388,-0.03926497036940086,-0.07161607934395672,-0.024528928646816776,-0.1061750025311569,-0.0067579126799040545
1336,7.0,299.56543,829.4506299999999,0.0,0.0,0.0,0.0,-0.013315657603984619,0.0,-0.1021751572314029,-0.05946148983489215,-0.090495637124474,-0.047865952962501755,-0.12242524418993088,0.015834473731990886
1337,7.0,299.52726,402.29139,0.0,0.0,0.0,0.0,-0.013325624413568441,0.0,-0.05044393580767885,-0.02798621499502437,-0.043856388567788555,-0.05986648589986215,-0.13095729639197887,0.0072291941478659135
1338,7.0,299.50245,194.85558,0.0,0.0,0.0,0.0,-0.01333559122315226,0.0,0.009917561573512122,-0.014914709125967186,-0.05423408291973725,-0.004896894561060865,-0.07590830201306613,0.02006487801249928
1339,7.0,299.76067,224.2779,0.0,0.0,0.0,0.0,-0.013345558032736082,0.0,-0.005656767794679515,-0.039342623830564666,-0.023175489958242777,-0.01796186223119778,-0.08952053893048932,0.009313892900484661
1340,7.0,299.94813,427.67607999999996,0.0,0.0,0.0,0.0,-0.013355524842319902,0.0,-0.07132467266819713,-0.05139752472854075,-0.007280652763469483,-0.042334012716541754,-0.14057952464161888,0.009925347589930541
1341,7.0,300.34808,462.74805,0.0,0.0,0.0,0.0,-0.013365491651903722,0.0,-0.07109345102187734,-0.03518753240348907,-0.03438286794257487,-0.046843010112045155,-0.12765150714572288,-0.004546915950020666
1342,7.0,301.03997999999996,290.9298,0.0,0.0,0.0,0.0,-0.013375458461487542,0.0,-0.037328992920084764,-0.03739554116015257,-0.013710859589406488,-0.022414718478410478,-0.08975876416150032,-0.01180377597994199
1343,7.0,300.12401,361.48039,0.0,0.0,0.0,0.0,-0.013385425271071363,0.0,-0.015688784579612487,-0.05071507241518795,-0.043477155399861155,-0.013593515095325486,-0.1135330930348439,-0.027039213213062577
1344,7.0,300.7907,722.99738,0.0,0.0,0.0,0.0,-0.013395392080655185,0.0,-0.040218112446968664,-0.08680703996393782,-0.09274799786451472,-0.05537598741143445,-0.15643151848108885,-0.04367606855349236
1345,7.0,299.04482,722.5446900000001,0.0,0.0,0.0,0.0,-0.013405358890239005,0.0,-0.07873829839661502,-0.07030425990324023,-0.07059298551923524,-0.04091771401826396,-0.13641838005844587,0.004712484461411005
1346,7.0,298.4304,118.09568,0.0,0.0,0.0,0.0,-0.013415325699822827,0.0,-0.040005768663261956,0.013916010310653286,-0.009808378302361571,-0.016611605147937785,-0.0937012220153406,-0.0006316946945659124
1347,7.0,299.08165,-12.466016,0.0,0.0,0.0,0.0,-0.013425292509406649,0.0,0.0017525001477082982,-0.008066278052354662,0.01010313549222684,-0.0005594725680456435,-0.10547710625977991,0.012862348756914988
1348,7.0,299.59452999999996,201.78239,0.0,0.0,0.0,0.0,-0.013435259318990467,0.0,-0.03121982131740647,-0.016895768098732486,-0.013221218637582688,-0.028937122856121673,-0.13589811666209986,-0.008848044074258961
1349,7.0,299.18095,592.48887,0.0,0.0,0.0,0.0,-0.01344522612857429,0.0,-0.04475924810914386,-0.06012573201744774,-0.07521684190632433,-0.02071277849744208,-0.13232305620176887,0.013615766067521486
1350,7.0,301.04042000000004,628.33895,0.0,0.0,0.0,0.0,-0.01345519293815811,0.0,-0.053073739302720246,-0.06376085490395644,-0.07416475696974163,-0.02194138983994658,-0.07485793554865303,-0.01897185371887618
1351,7.0,300.13739,353.78277,0.0,0.0,0.0,0.0,-0.013465159747741932,0.0,-0.04484503087585996,-0.03562907842606626,-0.027067020848806973,-0.04953807907252775,-0.1168936889790089,0.02021989717179848
1352,7.0,299.84426,359.06937999999997,0.0,0.0,0.0,0.0,-0.013475126557325754,0.0,-0.04733339681594255,-0.04080329579047176,-0.02101143396441708,-0.07064515067413353,-0.14157557988742187,-0.024602040721032375
1353,7.0,300.15482000000003,783.15413,0.0,0.0,0.0,0.0,-0.013485093366909572,0.0,-0.1094017886671159,-0.04901583173248596,-0.07964168077502193,-0.053397127191386146,-0.1329246025211369,0.02362856068745738
1354,7.0,299.68306,771.2622700000001,0.0,0.0,0.0,0.0,-0.013495060176493394,0.0,-0.10762480130424089,-0.041589097587524354,-0.08523057074285242,-0.02226937889731658,-0.08648505238691011,0.006855905515625193
1355,7.0,299.7259,386.32253,0.0,0.0,0.0,0.0,-0.013505026986077213,0.0,-0.011604391665014289,-0.029232901706062773,-0.07659510927534872,-0.006477886525292624,-0.11260440878818989,0.013590726631050288
1356,7.0,298.9106,177.04872,0.0,0.0,0.0,0.0,-0.013514993795661035,0.0,0.007521268352791393,-0.02952373589551587,-0.031815922430737074,-0.04247326570428496,-0.13131995886777087,-0.015034807633819987
1357,7.0,298.38903,463.09925999999996,0.0,0.0,0.0,0.0,-0.013524960605244855,0.0,-0.05346019491736045,-0.034182218078272264,-0.05312819946909504,-0.017328739998963484,-0.13461096479506787,0.005095621175348655
1358,7.0,299.88657,791.25801,0.0,0.0,0.0,0.0,-0.013534927414828675,0.0,-0.07236974591408783,-0.08545254445550951,-0.08270038594464262,-0.017681314556759885,-0.06784665522294353,-0.007002733054490943
1359,7.0,299.57812,485.67370999999997,0.0,0.0,0.0,0.0,-0.013544894224412497,0.0,-0.03986425004829516,-0.04973591919430305,-0.058032512338113046,-0.028587851493651274,-0.0983049126989395,-0.01014878595560719
1360,7.0,299.78868,154.04336,0.0,0.0,0.0,0.0,-0.013554861033996318,0.0,0.013793411101553688,-0.05537343300793235,-0.005245312158997005,-0.06275105796029723,-0.14753672274324087,-0.024153950116059274
1361,7.0,300.76962000000003,352.6287,0.0,0.0,0.0,0.0,-0.01356482784358014,0.0,0.022559813866230276,-0.06932623949596714,-0.06042389301837394,-0.04859545959724845,-0.13864380151807787,-0.02301968451686598
1362,7.0,300.57291000000004,688.44053,0.0,0.0,0.0,0.0,-0.01357479465316396,0.0,-0.07360518656226633,-0.07691996941640994,-0.058743575794539545,-0.02392866206232508,-0.08663954566940742,-0.004169666523139046
1363,7.0,299.8896,651.40205,0.0,0.0,0.0,0.0,-0.01358476146274778,0.0,-0.08409040600157691,-0.049522246026465155,-0.06439730566276923,-0.03193460340169997,-0.12164849679577187,-0.008424036701637692
1364,7.0,300.15379,385.51777999999996,0.0,0.0,0.0,0.0,-0.013594728272331602,0.0,-0.05700950159989975,-0.02650008006010427,-0.03367819606777917,-0.039845836254227864,-0.14579449999129684,0.014803305317222485
1365,7.0,299.81858,171.12967,0.0,0.0,0.0,0.0,-0.013604695081915422,0.0,-0.03776821353368246,-0.0004944698180903716,-0.013756462936657186,-0.009355529880218913,-0.13897872120613186,0.015383213680704987
1366,7.0,299.94617999999997,558.7936599999999,0.0,0.0,0.0,0.0,-0.013614661891499244,0.0,-0.06784105093664043,-0.024038887461203477,-0.07797938015121562,0.0065374088891670245,-0.06975431841146523,0.037753288359709467
1367,7.0,299.28725,870.6275400000001,0.0,0.0,0.0,0.0,-0.013624628701083063,0.0,-0.07317440226900122,-0.06940251797674524,-0.1220721163975799,-0.020977457662063877,-0.1096312796822649,0.006448318975449534
1368,7.0,299.64169,605.14975,0.0,0.0,0.0,0.0,-0.013634595510666885,0.0,-0.062227336341359935,-0.049830934695930355,-0.07189214237345203,-0.06369320120802953,-0.14664938923316787,0.0046788331083648755
1369,7.0,298.02477000000005,191.79348000000002,0.0,0.0,0.0,0.0,-0.013644562320250703,0.0,-0.03784571906033166,-0.009004652921640051,-0.011450055436282488,-0.02790108678787287,-0.1284504345845709,-0.007503295322517593
1370,7.0,298.71744,253.0947,0.0,0.0,0.0,0.0,-0.013654529129834525,0.0,-0.03445360191880577,-0.036801719859546965,-0.005679146335063104,-0.01062318863917709,-0.07724381630737114,6.186158750576334e-05
1371,7.0,299.36256000000003,487.22782,0.0,0.0,0.0,0.0,-0.013664495939418347,0.0,-0.06320776929712114,-0.04525507799257846,-0.03964224492488496,-0.017907054520038684,-0.10889277234687991,0.018782942356982083
1372,7.0,299.41656,595.1435,0.0,0.0,0.0,0.0,-0.013674462749002168,0.0,-0.024115236869488577,-0.07059553586973694,-0.08619799052757932,-0.053328706465133546,-0.15313204178295584,0.007180209686356523
1373,7.0,299.79221,473.81613,0.0,0.0,0.0,0.0,-0.013684429558585988,0.0,-0.03262750333683387,-0.05861201033530505,-0.052788759672344955,-0.03666058931936846,-0.13914109453465687,0.008130474842915392
1374,7.0,301.15166,219.22406,0.0,0.0,0.0,0.0,-0.013694396368169808,0.0,-0.012055106587746387,-0.024117842948745777,-0.030465691691979675,-0.019424831229081584,-0.07912346819687832,-0.005065685613069245
1375,7.0,298.98635,314.47542000000004,0.0,0.0,0.0,0.0,-0.01370436317775363,0.0,-0.04671574285973486,-0.04389170236027375,-0.004985231224654016,-0.014947079426911885,-0.12483881606063188,-0.013864784438597686
1376,7.0,299.94504,832.39893,0.0,0.0,0.0,0.0,-0.013714329987337452,0.0,-0.1097643700828999,-0.08813795916903933,-0.05512616148002855,-0.049115508184573255,-0.1394197788421609,-0.025487259578146678
1377,7.0,299.53888,609.52757,0.0,0.0,0.0,0.0,-0.013724296796921272,0.0,-0.07046324492343084,-0.04892027616855536,-0.06589763927134064,-0.024372510189129476,-0.13174052858677787,0.00992259732518411
1378,7.0,299.5426,-5.4135860000000005,0.0,0.0,0.0,0.0,-0.013734263606505093,0.0,0.04661161519995825,-0.04619471547281345,0.0012286951382877687,0.00975029009267871,-0.08743422353733601,-0.04634466838161266
1379,7.0,300.56285,189.44824,0.0,0.0,0.0,0.0,-0.013744230416088915,0.0,0.007590128018987312,-0.019441021952429482,-0.04573663928810486,-0.013954683027219987,-0.1257217520652709,-0.02090914839332228
1380,7.0,300.04125,476.75699999999995,0.0,0.0,0.0,0.0,-0.013754197225672735,0.0,-0.07583884777171152,-0.050655710144829356,-0.018427666474419083,-0.055440340951785655,-0.14674847496044685,-0.04056569978777286
1381,7.0,300.21193,513.70256,0.0,0.0,0.0,0.0,-0.013764164035256555,0.0,-0.05968294577674814,-0.06992155736697044,-0.026548247943358073,-0.03877388148318416,-0.14843910301729887,-0.012926649608260987
1382,7.0,300.8655,419.77655,0.0,0.0,0.0,0.0,-0.013774130844840375,0.0,-0.07798598958161793,-0.030263824914306972,-0.019351774883621484,-0.039438350633762165,-0.09438156068898482,0.007134859246330784
1383,7.0,300.26574,431.80293,0.0,0.0,0.0,0.0,-0.013784097654424196,0.0,-0.032265182326325574,-0.06012374098100125,-0.03886838428026086,-0.017126223727976685,-0.13673327792452386,0.023912107582191276
1384,7.0,301.59726,570.27765,0.0,0.0,0.0,0.0,-0.013794064464008016,0.0,-0.042719633413099554,-0.04194192241809546,-0.08868861094913441,-0.048277104521829255,-0.15589463778310286,0.03781799957734596
1385,7.0,302.02285,806.62602,0.0,0.0,0.0,0.0,-0.013804031273591838,0.0,-0.07881540672922502,-0.04704380487111205,-0.1193349529749429,-0.032995371891639674,-0.1189575375776949,0.06078563444982504
1386,7.0,300.33435,748.52205,0.0,0.0,0.0,0.0,-0.01381399808317566,0.0,-0.1101577137717199,-0.04934855165457286,-0.06802574717811853,-0.022585590948774277,-0.07899245597219842,0.031248040332691473
1387,7.0,300.32052000000004,532.74554,0.0,0.0,0.0,0.0,-0.01382396489275948,0.0,-0.06523094401029295,-0.03689451431695507,-0.05981588317661805,-0.02225812675495608,-0.1079497607438119,0.01151873352806049
1388,7.0,300.60512,383.47702000000004,0.0,0.0,0.0,0.0,-0.0138339317023433,0.0,-0.08254143740145563,-0.036075953130919367,0.002049953190789628,-0.05132910906853865,-0.13971514124631088,-0.03158813570225627
1389,7.0,299.60891000000004,530.06511,0.0,0.0,0.0,0.0,-0.01384389851192712,0.0,-0.04892081623085866,-0.06107448874858274,-0.05113125273476175,-0.006574758503753144,-0.1251823281095339,0.007625051304883973
1390,7.0,300.50324,377.50002,0.0,0.0,0.0,0.0,-0.013853865321510943,0.0,-0.02075833118218778,-0.03459377392438967,-0.05939847479792304,-0.015386019370231884,-0.08643152542387741,-0.023330077472999377
1391,7.0,299.50741,209.07906,0.0,0.0,0.0,0.0,-0.013863832131094765,0.0,0.026298975246506776,-0.06326861192587584,-0.02658517786975277,-0.02317311490000838,-0.12827315634707487,-0.015049121817982685
1392,7.0,299.55604,328.0696,0.0,0.0,0.0,0.0,-0.013873798940678585,0.0,-0.02837587349323067,-0.04143874647143586,-0.029910347550671474,-0.048891343825199954,-0.15109302794422086,-0.013327618004083488
1393,7.0,299.01291000000003,438.19775,0.0,0.0,0.0,0.0,-0.013883765750262405,0.0,-0.039618273454019165,-0.03896600079489486,-0.054616900966518445,-0.05669568385842835,-0.13615664742511488,0.02029156131162118
1394,7.0,300.53577,539.63425,0.0,0.0,0.0,0.0,-0.013893732559846227,0.0,-0.06017550894186035,-0.07058403953410235,-0.03327578885681467,-0.02864661695970097,-0.1097421089782029,0.0027234637746599475
1395,7.0,300.5535,541.21492,0.0,0.0,0.0,0.0,-0.013903699369430046,0.0,-0.035027994148743864,-0.03886753315017687,-0.09062029525777682,-0.04773238836081995,-0.13185871407844188,0.008990352416353702
1396,7.0,301.07077999999996,462.28047999999995,0.0,0.0,0.0,0.0,-0.013913666179013868,0.0,-0.02228420679927998,-0.04836660794291255,-0.06987090803422173,-0.03893291817912986,-0.13829562851871585,0.00952840706590556
1397,7.0,301.53078,406.88531,0.0,0.0,0.0,0.0,-0.013923632988597688,0.0,-0.038429123136659166,-0.033833984283904266,-0.051419868919745954,-0.025699110922304775,-0.1018582227326239,-0.005233255800032135
1398,7.0,301.22717,653.69135,0.0,0.0,0.0,0.0,-0.013933599798181508,0.0,-0.0972553558213563,-0.02924417006042487,-0.07220632184520914,-0.025327457878375474,-0.07160647170650852,-0.0025614196510924375
1399,7.0,300.36241,646.51496,0.0,0.0,0.0,0.0,-0.013943566607765329,0.0,-0.08225762503519551,-0.06733732276867634,-0.04692945757082686,-0.033744527472325564,-0.10718061272540289,-0.04904275784064336
1400,7.0,300.53015,255.77369,0.0,0.0,0.0,0.0,-0.01395353341734915,0.0,-0.03966344414347716,-0.014172254168192587,-0.023913115766040775,-0.041268740329907565,-0.14750065103968085,0.009134635988193382
1401,7.0,300.63441,128.30241999999998,0.0,0.0,0.0,0.0,-0.013963500226932973,0.0,-0.005649288691716385,-0.02367644688718338,-0.009674997200272881,-0.02011812633175448,-0.1333194559526059,-0.0014741391683112085
1402,7.0,299.89576,362.14448,0.0,0.0,0.0,0.0,-0.013973467036516793,0.0,-0.029725390903917674,-0.018146541247424184,-0.062210946007742345,-0.012292488794674188,-0.11804007000964789,0.04527283216083066
1403,7.0,300.21807,572.36626,0.0,0.0,0.0,0.0,-0.013983433846100613,0.0,-0.06948740604362302,-0.04070713835598176,-0.06379050665488284,-0.013594684385940886,-0.13767932927789187,0.01083781223560879
1404,7.0,300.3564,505.72384000000005,0.0,0.0,0.0,0.0,-0.013993400655684433,0.0,-0.05951519512994244,-0.05258450263768635,-0.04162772065483616,-0.05301248529442495,-0.14922428065228988,0.008489815986204602
1405,7.0,300.33418,683.33302,0.0,0.0,0.0,0.0,-0.014003367465268255,0.0,-0.0926628716838634,-0.06605757370687494,-0.04899573087700215,-0.05564753033223365,-0.12285117400196688,-0.013312730320364187
1406,7.0,299.22272999999996,667.40933,0.0,0.0,0.0,0.0,-0.014013334274852077,0.0,-0.05105327807331625,-0.07726621014783122,-0.07455628288788223,-0.02273796755181268,-0.09139732737521392,-0.004085233912181196
1407,7.0,299.26214,617.30355,0.0,0.0,0.0,0.0,-0.014023301084435896,0.0,-0.02417063733195618,-0.10006177995457881,-0.06341244784382134,-0.029563870731976874,-0.1046555022836939,-0.031641027357476266
1408,7.0,300.26717,571.0810299999999,0.0,0.0,0.0,0.0,-0.014033267894019718,0.0,-0.022607413316177976,-0.06994964161999213,-0.08103731829051063,-0.034017071484223574,-0.12395150281556089,-0.03119926247287747
1409,7.0,300.43847999999997,171.1086,0.0,0.0,0.0,0.0,-0.014043234703603536,0.0,-0.017690629364929183,-0.02096377371946338,-0.013358337720615288,-0.04031698741822686,-0.13412038962665188,-0.0042793908698429955
1410,7.0,301.29499,58.357493999999996,0.0,0.0,0.0,0.0,-0.014053201513187358,0.0,0.005356197082365495,-0.042421574750433455,0.01932615688134318,-0.005284989715687875,-0.12078524824057589,-0.038998444049846766
1411,7.0,301.16715,358.72064,0.0,0.0,0.0,0.0,-0.01406316832277118,0.0,-0.050142443240423856,-0.03468522987841567,-0.02421444520002968,-0.010503180310583188,-0.13757655532024884,-0.0003586161628426597
1412,7.0,300.02106000000003,648.6820799999999,0.0,0.0,0.0,0.0,-0.014073135132355,0.0,-0.05860697448230804,-0.08164169765715822,-0.05693448360224604,-0.02095052446115578,-0.18522529988531383,-0.0013865028631871786
1413,7.0,300.43912,496.67627999999996,0.0,0.0,0.0,0.0,-0.014083101941938821,0.0,-0.02041881032542968,-0.03925938330834946,-0.09129899449275923,-0.033056655284187865,-0.15093140442076988,0.03850982242762357
1414,7.0,301.24689,569.54724,0.0,0.0,0.0,0.0,-0.014093068751522641,0.0,-0.06637491147919374,-0.05068391902761336,-0.05606930784535985,-0.04225969791445746,-0.1175407707578709,0.035889944730561764
1415,7.0,300.09499,844.48824,0.0,0.0,0.0,0.0,-0.014103035561106463,0.0,-0.10051957141600931,-0.06644049105216593,-0.08974327562047173,-0.03839638502592817,-0.10976430928789388,0.027543523999834178
1416,7.0,300.37811,780.4483799999999,0.0,0.0,0.0,0.0,-0.014113002370690285,0.0,-0.12763638945423086,-0.05336857076381785,-0.05623186457215294,-0.057742388436980034,-0.12548796486969788,0.03004906351586167
1417,7.0,300.08362,522.8638,0.0,0.0,0.0,0.0,-0.014122969180274106,0.0,-0.07345224253917193,-0.050144910504417356,-0.035340386247324565,-0.03726913821017757,-0.09357073870721291,-0.003196083948653927
1418,7.0,299.26134,395.87408999999997,0.0,0.0,0.0,0.0,-0.014132935989857926,0.0,-0.06192861703962864,-0.014661094652437385,-0.04374612770515666,-0.015089726802490086,-0.1010201939724169,0.019835916927152582
1419,7.0,299.55871,306.20642999999995,0.0,0.0,0.0,0.0,-0.014142902799441746,0.0,0.0023362855100484275,-0.03506667801106167,-0.06034871695370464,-0.026886977451788075,-0.1065143501221479,-0.02081998542427258
1420,7.0,300.46873999999997,231.77732999999998,0.0,0.0,0.0,0.0,-0.014152869609025568,0.0,-0.035232665602693364,-0.018659709866569982,-0.016562144357556385,-0.029890909360753073,-0.16446344056627785,0.011180079000137889
1421,7.0,301.04226,437.3493,0.0,0.0,0.0,0.0,-0.014162836418609388,0.0,-0.029542570188374674,-0.048428672551287855,-0.05497202486156645,-0.02079555900411188,-0.12963387017136688,0.0009543267594522182
1422,7.0,300.1473,346.384,0.0,0.0,0.0,0.0,-0.014172803228193209,0.0,-0.06061306377229365,-0.04418163171738756,-0.0004973922745587954,-0.018727736438533683,-0.11995025923066889,-0.015308476353328986
1423,7.0,300.63827000000003,337.48224,0.0,0.0,0.0,0.0,-0.014182770037777029,0.0,-0.018739766756970984,-0.06875199317404344,-0.015094414097452685,-0.03712223923717976,-0.11991799734748487,-0.02767326966188908
1424,7.0,300.0946,473.44345,0.0,0.0,0.0,0.0,-0.014192736847360849,0.0,-0.02031411321909688,-0.07147521630180463,-0.052125656382901744,-0.01993495503167688,-0.14249090949775786,-0.031670835148918074
1425,7.0,300.56586,611.87446,0.0,0.0,0.0,0.0,-0.014202703656944671,0.0,-0.03040495646773557,-0.08295569761208992,-0.07263390426815823,-0.032940047422929566,-0.1169598542105389,0.01296968841950859
1426,7.0,299.85211,447.14985,0.0,0.0,0.0,0.0,-0.014212670466528493,0.0,-0.03041653082362787,-0.06451430261206594,-0.04099155563255156,-0.01072151442888109,-0.1113533286247179,-0.027337344829735873
1427,7.0,299.65233,166.43473,0.0,0.0,0.0,0.0,-0.014222637276112313,0.0,-0.03752282766421477,-0.0098579751722314,-0.003211199917620757,-0.04611085484153705,-0.1182990263377049,0.011639580827737188
1428,7.0,298.53402,333.56554,0.0,0.0,0.0,0.0,-0.014232604085696134,0.0,-0.04228081607304166,-0.036709649875960364,-0.02240512806621398,-0.04190651135360066,-0.14307032643494189,-0.017147354045562085
1429,7.0,300.84127,511.57634,0.0,0.0,0.0,0.0,-0.014242570895279954,0.0,-0.08058300734317363,-0.02166643327956048,-0.05325699166280585,-0.06328470436396404,-0.11398239852668689,0.03225946354276117
1430,7.0,301.0317,592.8288200000001,0.0,0.0,0.0,0.0,-0.014252537704863776,0.0,-0.034953088621851265,-0.06958387555914385,-0.07566819213686912,-0.032870097702276065,-0.1041826893895309,-0.008335094621109792
1431,7.0,301.21139,670.29962,0.0,0.0,0.0,0.0,-0.014262504514447598,0.0,-0.08819906118981961,-0.027178043675514074,-0.08837724121990462,-0.04917558175650205,-0.12541152528215388,0.028913477651788075
1432,7.0,300.8517,638.9320299999999,0.0,0.0,0.0,0.0,-0.014272471324031418,0.0,-0.06940248656599213,-0.04406222829910336,-0.08075466812211522,-0.03216776136896087,-0.14927709124750185,0.01901040281893068
1433,7.0,300.28567999999996,658.44054,0.0,0.0,0.0,0.0,-0.014282438133615238,0.0,-0.07924728938559851,-0.06918559328933643,-0.05171659819828085,-0.015884907242468285,-0.1132196542489099,0.014430779864957088
1434,7.0,299.75621,792.1279599999999,0.0,0.0,0.0,0.0,-0.014292404943199059,0.0,-0.1127736823498959,-0.059755135793372736,-0.06825830226156993,-0.005650336392319785,-0.1301146674763179,0.03252890194310267
1435,7.0,299.94214,707.9091099999999,0.0,0.0,0.0,0.0,-0.014302371752782879,0.0,-0.06581809001923974,-0.08686957168060923,-0.06249903327617434,-0.026252187409889178,-0.1219035926409479,-0.028592490152609076
1436,7.0,298.57722,285.03607,0.0,0.0,0.0,0.0,-0.0143123385623667,0.0,-0.02044289224055638,-0.027539969518483372,-0.03866098718354236,-0.03206202365477537,-0.15725519961987983,0.018802630819675183
1437,7.0,299.68392,253.72556,0.0,0.0,0.0,0.0,-0.014322305371950521,0.0,0.00838507216904219,-0.02811404156138987,-0.05739726532041904,-0.03256475985089157,-0.11195912046200489,-0.02477172160927858
1438,7.0,300.35161,258.85586,0.0,0.0,0.0,0.0,-0.014332272181534341,0.0,-0.016658143725030786,-0.03669520802228506,-0.025332368088360077,-0.020432676653048182,-0.1128170494541759,-0.004708020385445436
1439,7.0,300.21212,246.63141000000002,0.0,0.0,0.0,0.0,-0.014342238991118162,0.0,-0.021738427738915777,-0.03156235557996197,-0.02166900592156438,-0.04518820145947826,-0.10975675044214789,-0.05267526654189404
1440,7.0,300.17937,264.86544,0.0,0.0,0.0,0.0,-0.014352205800701984,0.0,-0.05117390853747155,-0.030690174211884372,0.0013516034899928788,-0.04192320262249796,-0.13290629309182989,-0.02994402798399547
1441,7.0,300.28623999999996,353.10669,0.0,0.0,0.0,0.0,-0.014362172610285806,0.0,-0.027027043066111475,-0.05130029628869504,-0.02900827631789397,-0.03023398469886197,-0.1140514616535029,-0.03186713310404117
1442,7.0,300.23946,508.04829000000007,0.0,0.0,0.0,0.0,-0.014372139419869626,0.0,-0.030260075888936974,-0.05776101906656874,-0.06641289822544273,0.002650806447089228,-0.12069542361921089,-0.02160334022233368
1443,7.0,301.04511,643.61851,0.0,0.0,0.0,0.0,-0.014382106229453446,0.0,-0.047193962456431454,-0.07191917385961984,-0.07653081855650373,-0.03826626142158596,-0.14390972308278385,0.014996734761312485
1444,7.0,300.51301,704.9422599999999,0.0,0.0,0.0,0.0,-0.014392073039037266,0.0,-0.07197806091568153,-0.06088543857142495,-0.08142134413141101,-0.029568734332456874,-0.14982609041668385,0.013670096537883487
1445,7.0,300.77943,506.64865999999995,0.0,0.0,0.0,0.0,-0.014402039848621088,0.0,-0.07776332787214292,-0.029967259782288272,-0.046277953968528455,-0.045298836211397055,-0.11486062291836088,0.04611647736634196
1446,7.0,300.40861,533.8775400000001,0.0,0.0,0.0,0.0,-0.01441200665820491,0.0,-0.08991730233839682,-0.05512830349073995,-0.017239835408689286,-0.02710363362792037,-0.09710055349757851,0.003220846362547787
1447,7.0,300.00977,638.19829,0.0,0.0,0.0,0.0,-0.01442197346778873,0.0,-0.07273978181085754,-0.027340115055509272,-0.09391644748233172,-0.06935324666413253,-0.1142053034161859,0.03957618912436576
1448,7.0,299.84235,595.95215,0.0,0.0,0.0,0.0,-0.014431940277372551,0.0,-0.06562084163552284,-0.06309458216820045,-0.052439148871091044,-0.043575499428066954,-0.12923941190743687,0.011247327396024789
1449,7.0,299.16684,285.59122,0.0,0.0,0.0,0.0,-0.01444190708695637,0.0,-0.0032112128872220365,-0.01157632869024469,-0.07202505748181973,-0.029779883494295674,-0.11518714276308589,0.01990372463709468
1450,7.0,298.98277,324.79135,0.0,0.0,0.0,0.0,-0.014451873896540192,0.0,-0.043294351909569866,-0.014140782620086587,-0.04129332583033396,-0.022829966607892275,-0.12420060022014488,0.008736529415953322
1451,7.0,298.99476,528.05826,0.0,0.0,0.0,0.0,-0.014461840706124012,0.0,-0.05538174875150304,-0.06901461341446204,-0.03612016528578276,-0.04057584039477367,-0.14611695670312086,-0.025517430113124275
1452,7.0,300.42327,543.48964,0.0,0.0,0.0,0.0,-0.014471807515707834,0.0,-0.1087746273852199,-0.028246818867743974,-0.02818583033097487,-0.032559047146827766,-0.15275987502122584,-0.0050830534290583155
1453,7.0,300.48806,553.38214,0.0,0.0,0.0,0.0,-0.014481774325291654,0.0,-0.04655661902428055,-0.09050776370167082,-0.031149969882012674,-0.02088175112386838,-0.12137159580844388,-0.01750716523557268
1454,7.0,300.05239,301.15398999999996,0.0,0.0,0.0,0.0,-0.014491741134875474,0.0,-0.024239508954503275,-0.04922685525131236,-0.01807692792580388,-0.029935971632450372,-0.1289745888613009,0.0014921909281177786
1455,7.0,300.18245,273.42793,0.0,0.0,0.0,0.0,-0.014501707944459296,0.0,0.007285147338263062,-0.04656364287397375,-0.043836769006102255,-0.04816472799298855,-0.13466619705801885,-0.012795203712538289
1456,7.0,300.50086,402.02965,0.0,0.0,0.0,0.0,-0.014511674754043118,0.0,-0.03288293152804267,-0.06935190309449994,-0.01997213928384668,-0.017443147081004584,-0.13829372360852785,-0.0029484308307624668
1457,7.0,299.90845,351.74801,0.0,0.0,0.0,0.0,-0.014521641563626939,0.0,-0.037978436584929866,-0.04408071200742756,-0.024863462286582677,-0.0022066831215576677,-0.12318146313706388,-0.006557160274691334
1458,7.0,300.13642999999996,182.30011000000002,0.0,0.0,0.0,0.0,-0.014531608373210759,0.0,-0.0044923148405569555,-0.054462986249828246,0.0035406205960570466,-0.021428986224626276,-0.11493212797791788,-0.03213511647723907
1459,7.0,300.11981000000003,449.48679000000004,0.0,0.0,0.0,0.0,-0.014541575182794579,0.0,-0.029266359224364772,-0.06524792506871885,-0.042118476181769955,-0.046361747725298254,-0.13687807136381386,-0.006147233126784675
1460,7.0,299.93357000000003,586.9785,0.0,0.0,0.0,0.0,-0.014551541992378401,0.0,-0.04159434520979226,-0.06418962485602273,-0.07264283708103983,-0.044950328839502056,-0.1204766933201239,-0.01220414757145559
1461,7.0,300.27538,564.4589,0.0,0.0,0.0,0.0,-0.01456150880196222,0.0,-0.04407319369168555,-0.04657742712833415,-0.08093079125449723,-0.04969521693778605,-0.12380664858126489,0.02170892392250398
1462,7.0,299.63241,704.24464,0.0,0.0,0.0,0.0,-0.014571475611546042,0.0,-0.06987377350550453,-0.06721106775321593,-0.07698794431261852,-0.027878337296627677,-0.1076416415209029,0.012681376209554387
1463,7.0,300.63427,746.3217900000001,0.0,0.0,0.0,0.0,-0.01458144242112986,0.0,-0.10309349619453591,-0.054691785215158946,-0.06907791216145914,-0.04963322528341795,-0.15533475630784685,0.043190509986321464
1464,7.0,301.29155,609.13306,0.0,0.0,0.0,0.0,-0.014591409230713682,0.0,-0.08691404120099802,-0.06993075362487802,-0.028316445361615573,-0.027345298843020876,-0.15356151797034187,0.006165609025298234
1465,7.0,300.65426,460.1083,0.0,0.0,0.0,0.0,-0.014601376040297504,0.0,-0.08074501792816283,-0.015937153457374585,-0.04317926493671166,0.003939873863435276,-0.14322065221977784,0.030739400941492672
1466,7.0,300.55481000000003,431.85387000000003,0.0,0.0,0.0,0.0,-0.014611342849881324,0.0,-0.03961691569888516,-0.018222151996386382,-0.07343372640684454,-0.012411027910623089,-0.11603827284708589,0.006916207068826493
1467,7.0,299.93332999999996,401.82506,0.0,0.0,0.0,0.0,-0.014621309659465146,0.0,0.005140323033985385,-0.05042753331506005,-0.07685757448850203,-0.013848186388709587,-0.15453832146424487,-0.01154100577850859
1468,7.0,300.21328,266.66041,0.0,0.0,0.0,0.0,-0.014631276469048967,0.0,-0.013019186700143688,-0.02248526702987308,-0.045553651386295364,-0.053524864591742854,-0.1192048111320989,0.004789281827565315
1469,7.0,299.35478,422.441,0.0,0.0,0.0,0.0,-0.014641243278632787,0.0,-0.03207942723849297,-0.053197563531190754,-0.04313452386529605,-0.02620663979139398,-0.0958939965567506,-0.033223574052661464
1470,7.0,299.47546,622.66132,0.0,0.0,0.0,0.0,-0.014651210088216609,0.0,-0.06889952137535334,-0.06914058775964473,-0.05123338327859125,-0.06340393958273165,-0.0956237678213311,0.0027904795283238875
1471,7.0,299.46115,598.31201,0.0,0.0,0.0,0.0,-0.01466117689780043,0.0,-0.04422545478421255,-0.06667653982196214,-0.07096991658293543,-0.04330409126953105,-0.12256309686603588,-0.02220931951088918
1472,7.0,300.45394,561.02138,0.0,0.0,0.0,0.0,-0.014671143707384251,0.0,-0.04536282802146255,-0.05830369048887625,-0.06686997129255233,-0.06709544781080513,-0.13957517087749688,0.019689004781903482
1473,7.0,300.49221,403.63022,0.0,0.0,0.0,0.0,-0.014681110516968071,0.0,-0.004102003100011186,-0.046008208553406656,-0.07258329850516383,-0.03983363976277417,-0.13383658840614288,-0.002166398121431848
1474,7.0,300.1466,248.65236000000002,0.0,0.0,0.0,0.0,-0.014691077326551892,0.0,-0.030439924741936672,-0.03808871568606356,-0.007055467554620432,-0.01117261438665119,-0.1266472445741099,0.003856775094909066
1475,7.0,300.21565,392.44036,0.0,0.0,0.0,0.0,-0.014701044136135712,0.0,-0.04786238226914936,-0.034752902826094466,-0.036676784095716765,-0.017883635270477382,-0.15601862919783985,-0.02382921156501008
1476,7.0,301.25448,481.22189000000003,0.0,0.0,0.0,0.0,-0.014711010945719532,0.0,-0.07857042514654722,-0.05418112135026035,-0.013527890939348886,-0.02164397256459378,-0.12951556308969087,-0.016121596386327684
1477,7.0,300.10834,199.03357,0.0,0.0,0.0,0.0,-0.014720977755303354,0.0,-0.016736337248497886,-0.01280469279972479,-0.03096020435028427,-0.029569163950499272,-0.13048614522797988,-0.012315188636664488
1478,7.0,300.88206,474.75165999999996,0.0,0.0,0.0,0.0,-0.014730944564887173,0.0,-0.013190331734784387,-0.05537532373261894,-0.07574699665014653,-0.04083992883458716,-0.10888667258127789,-0.017136770648267585
1479,7.0,299.57041,605.16007,0.0,0.0,0.0,0.0,-0.014740911374470995,0.0,-0.03394558466316837,-0.04356711579673955,-0.10644084895989389,-0.06272471548419745,-0.15111861250924585,0.013286408109266385
1480,7.0,299.81431000000003,542.8226599999999,0.0,0.0,0.0,0.0,-0.014750878184054817,0.0,-0.055168456565702746,-0.05642025613674574,-0.05341582165573115,-0.04586324286159966,-0.11634703041755788,-0.0032584426022082467
1481,7.0,300.14322000000004,434.72326,0.0,0.0,0.0,0.0,-0.014760844993638637,0.0,-0.05089682415187545,-0.03853133980674717,-0.042716852041575055,-0.031124723742521072,-0.10650198847092789,0.028844912030771174
1482,7.0,299.90476,439.37838,0.0,0.0,0.0,0.0,-0.014770811803222459,0.0,-0.05861592452044134,-0.05238312019356144,-0.02256101152784848,-0.03214395100486097,-0.1005933187980376,0.021573178806606978
1483,7.0,298.74395,413.44936,0.0,0.0,0.0,0.0,-0.014780778612806278,0.0,-0.052221031588314544,-0.036144900747223964,-0.03731234826069207,-0.05049000119697515,-0.16235578916576884,0.01092367707558299
1484,7.0,300.26668,568.80095,0.0,0.0,0.0,0.0,-0.0147907454223901,0.0,-0.060945327731835544,-0.029713450764739267,-0.08224250734370352,-0.059448896149399244,-0.15226952276783187,0.013165698611603287
1485,7.0,299.0481,647.88292,0.0,0.0,0.0,0.0,-0.014800712231973922,0.0,-0.05040462373029905,-0.07793528958636423,-0.06860031672682414,-0.03198205187738277,-0.14739477653673186,-0.0018594479864882283
1486,7.0,299.85767999999996,479.23979,0.0,0.0,0.0,0.0,-0.014810679041557742,0.0,-0.06806316549106144,-0.04750377583350766,-0.03010998821787447,-0.05707619777448215,-0.1250253858015449,-0.023734530435915776
1487,7.0,300.49553,474.20307,0.0,0.0,0.0,0.0,-0.014820645851141564,0.0,-0.03281317229840797,-0.07783872178558372,-0.03349399631885007,-0.035273122652686166,-0.14923446381579486,-0.03630204266548267
1488,7.0,300.44326,435.53867,0.0,0.0,0.0,0.0,-0.014830612660725384,0.0,-0.06494225689780174,-0.05879249854911785,-0.008658125947065502,-0.01827280639538558,-0.1313167265999519,-0.038278782153071664
1489,7.0,299.75665,354.04977,0.0,0.0,0.0,0.0,-0.014840579470309203,0.0,0.006661860015474394,-0.04696183699102246,-0.06732231146844483,-0.018760406661507984,-0.1288841866873789,-0.013973680453344885
1490,7.0,300.55548,21.532137,0.0,0.0,0.0,0.0,-0.014850546279893025,0.0,0.04030796341283626,-0.040268262247418064,-0.006584932244032213,-0.03529931820752146,-0.1086399664469299,-0.028750324120686073
1491,7.0,300.38802000000004,44.682887,0.0,0.0,0.0,0.0,-0.014860513089476845,0.0,0.03112744330578947,-0.02747978144929327,-0.01723014468473288,-0.049359894989442356,-0.14612375561129187,-0.004273195352106546
1492,7.0,300.7192,461.24933,0.0,0.0,0.0,0.0,-0.014870479899060667,0.0,-0.06622881702677534,-0.047218430419846254,-0.026761030464358074,-0.04257241830607055,-0.12624788217969588,-0.00017781077135105682
1493,7.0,299.59101,679.92975,0.0,0.0,0.0,0.0,-0.014880446708644485,0.0,-0.08431433630017712,-0.07210046862051223,-0.05026686224670305,-0.026596394548359773,-0.13770615000803887,0.015731396812567983
1494,7.0,299.56714,733.54585,0.0,0.0,0.0,0.0,-0.014890413518228307,0.0,-0.09994996375304341,-0.07456983206821943,-0.04845982391236225,-0.05514114744900754,-0.1143934234297519,0.0077371943809016325
1495,7.0,301.02351,697.0833200000001,0.0,0.0,0.0,0.0,-0.01490038032781213,0.0,-0.07912561932684063,-0.04443556536469886,-0.08833473841795993,-0.044694032292957556,-0.14539886635725088,0.014879093384952184
1496,7.0,300.08817999999997,589.7604200000001,0.0,0.0,0.0,0.0,-0.01491034713739595,0.0,-0.06207879488995004,-0.050208003561644156,-0.06698564291071823,-0.05787372591494203,-0.14031649504815988,-0.005886710415398084
1497,7.0,299.17327,390.72456,0.0,0.0,0.0,0.0,-0.014920313946979772,0.0,-0.05127324859052566,-0.017670438330186482,-0.04982682191377445,0.012930950854935487,-0.14907613335516887,0.005518708415554115
1498,7.0,298.89835,390.75826,0.0,0.0,0.0,0.0,-0.01493028075656359,0.0,-0.05365258679334805,-0.04975297523323636,-0.015375190766413185,-0.0032502342631481477,-0.14105567112861087,-0.013964586533697386
1499,7.0,299.49751000000003,321.24862,0.0,0.0,0.0,0.0,-0.014940247566147412,0.0,-0.04021131759179806,-0.016577710918842685,-0.04086253140456786,0.010042289317096791,-0.14967342402411687,0.007234599330524363
1500,7.0,301.08444,254.94733,0.0,0.0,0.0,0.0,-0.014950214375731234,0.0,-0.03631109301537587,-0.015106411991886786,-0.02608011727790718,-0.04543961616704095,-0.13852117799097588,0.013006873684928488
1501,7.0,300.33122000000003,379.30941,0.0,0.0,0.0,0.0,-0.014960181185315054,0.0,-0.0018627029511094682,-0.03282962545353177,-0.08060825956216583,-0.04588583732557955,-0.10706937812942491,0.01099388821476229
1502,7.0,300.33589,679.06247,0.0,0.0,0.0,0.0,-0.014970147994898875,0.0,-0.055371262626218144,-0.06323564380737214,-0.08781112926978372,-0.07127852925864314,-0.08918149430127822,0.002027175227216618
1503,7.0,300.45399,860.43495,0.0,0.0,0.0,0.0,-0.014980114804482693,0.0,-0.05905302440157974,-0.1156503399137999,-0.08684737846366891,-0.05858639537277704,-0.11414063779480388,-0.01123642279844859
1504,7.0,301.49227,829.4836799999999,0.0,0.0,0.0,0.0,-0.014990081614066515,0.0,-0.12142217725343588,-0.08992450755985792,-0.04079564372571656,-0.04536894399906616,-0.12165681557909289,0.002483384599940978
1505,7.0,300.11619,546.22548,0.0,0.0,0.0,0.0,-0.015000048423650337,0.0,-0.06255829016852253,-0.07303705115169573,-0.03044356433629587,-0.02815028450421677,-0.13725337920085387,-0.015833674277661986
1506,7.0,299.37875,233.50647,0.0,0.0,0.0,0.0,-0.015010015233234157,0.0,-0.028666760371688974,-0.029372622815352172,-0.012940753036402887,-0.002100132476816938,-0.1409001879007659,-0.006928005758290934
1507,7.0,299.15517,232.26807000000002,0.0,0.0,0.0,0.0,-0.01501998204281798,0.0,0.019580223264417582,-0.037225339461354964,-0.05295857633610455,-0.027821412906009677,-0.14585647036741284,-0.03457057455010007
1508,7.0,299.71091,327.52094,0.0,0.0,0.0,0.0,-0.015029948852401798,0.0,-0.023243196343174875,-0.02251436655949498,-0.05380062567270835,-0.021945807610382582,-0.15403624590719384,-0.016197698561588383
1509,7.0,299.73729,255.60346,0.0,0.0,0.0,0.0,-0.01503991566198562,0.0,-0.02050948303712838,-0.021972544240771278,-0.035215042143704064,-0.024232755642586774,-0.13985270007988687,-0.02787936169247877
1510,7.0,299.42496,304.4445,0.0,0.0,0.0,0.0,-0.015049882471569442,0.0,-0.03297120689000477,-0.037412159475042665,-0.022160158642537377,-0.02160136843763908,-0.15079938806524087,-0.003936679997795066
1511,7.0,299.31219,623.82398,0.0,0.0,0.0,0.0,-0.015059849281153262,0.0,-0.07832611636193583,-0.058584228030813146,-0.05271656864247025,-0.020316123507295284,-0.14919431884683285,0.00971803145189503
1512,7.0,299.43823,1018.8907,0.0,0.0,0.0,0.0,-0.015069816090737084,0.0,-0.09577771698852472,-0.09417456787905622,-0.1197650371123889,-0.04065576353616146,-0.15007959545920285,0.03157509112046887
1513,7.0,301.32936,885.9829,0.0,0.0,0.0,0.0,-0.015079782900320903,0.0,-0.09120931172640821,-0.07379933642717743,-0.1043080284269009,-0.02974262527486857,-0.10794007407285588,0.026789340672152075
1514,7.0,301.59672,537.72637,0.0,0.0,0.0,0.0,-0.015089749709904725,0.0,-0.05089306803375475,-0.06315338715100403,-0.04940893325453205,-0.05888668115916294,-0.1138181405529759,0.017867014929087082
1515,7.0,301.7189,343.13274,0.0,0.0,0.0,0.0,-0.015099716519488547,0.0,-0.05519217168429325,-0.036606614499791565,-0.012504997738147186,-0.05819177194908075,-0.12361903519274887,0.007253215267986613
1516,7.0,301.45514,508.70748,0.0,0.0,0.0,0.0,-0.015109683329072365,0.0,-0.08769116147119381,-0.05653887124645215,-0.01040434080307849,-0.04803128194156846,-0.14135094234025186,0.008975524413065292
1517,7.0,300.36535,580.22442,0.0,0.0,0.0,0.0,-0.015119650138656187,0.0,-0.08409351870588412,-0.02479609128743368,-0.06748412548291464,-0.04323735051194426,-0.13451657041575188,0.009874211086533762
1518,7.0,300.57607,264.23679,0.0,0.0,0.0,0.0,-0.015129616948240006,0.0,-0.009433700706883772,-0.013436019552781885,-0.05745166671828804,-0.03237920943957917,-0.15666231658886684,-0.017069443218872882
1519,7.0,300.32809,81.438055,0.0,0.0,0.0,0.0,-0.015139583757823828,0.0,0.04117216138337596,-0.024813557692657476,-0.041113738395860064,-0.03645157710199056,-0.15344078922092685,-0.02110083910024068
1520,7.0,299.45357,363.24826,0.0,0.0,0.0,0.0,-0.01514955056740765,0.0,-0.01788831445943918,-0.03411549859893757,-0.05841458868582104,0.004404189642259675,-0.13482655401884486,-0.021464537117634876
1521,7.0,299.39085,786.77321,0.0,0.0,0.0,0.0,-0.01515951737699147,0.0,-0.07949958967374862,-0.10967793984936988,-0.049981884642827955,0.014272518305337887,-0.11769379178797289,-0.02144242394745248
1522,7.0,300.52274,645.3559,0.0,0.0,0.0,0.0,-0.015169484186575292,0.0,-0.1103813482012909,-0.06448184213186234,-0.02130888569027328,-0.002909367100982177,-0.14464111740246685,-0.00973192594786631
1523,7.0,299.91983999999997,191.78876,0.0,0.0,0.0,0.0,-0.01517945099615911,0.0,-0.008461744500134162,-0.052366562673677355,0.0025293140110738575,-0.04511518969702256,-0.15557251544381184,-0.0051141328493756145
1524,7.0,299.78468,169.13615,0.0,0.0,0.0,0.0,-0.015189417805742933,0.0,-0.016646557210137285,-0.015985262572122586,-0.01878134648807458,-0.05111005554266975,-0.15696934150166786,0.02138596261213018
1525,7.0,299.73736,721.56178,0.0,0.0,0.0,0.0,-0.015199384615326755,0.0,-0.03552020166307097,-0.07256193919305583,-0.11125462793247688,-0.08028114797938243,-0.0957606629760916,0.013905509999866988
1526,7.0,299.80297,890.71055,0.0,0.0,0.0,0.0,-0.015209351424910575,0.0,-0.08704052723748122,-0.08553047554720072,-0.0981827643861344,-0.09193528009180572,-0.12426015906102288,0.007486632323298083
1527,7.0,301.50395,593.2918900000001,0.0,0.0,0.0,0.0,-0.015219318234494397,0.0,-0.048399086661617956,-0.06993778862032234,-0.06200904477956624,-0.06342721799052903,-0.10011812881913999,-0.012557092978788589
1528,7.0,301.44086,156.34652,0.0,0.0,0.0,0.0,-0.015229285044078215,0.0,-0.06473327609117693,0.01213284718841879,0.005074991909937705,-0.03863114595484726,-0.13638419300007187,0.0032879922175245665
1529,7.0,300.37535,197.25538999999998,0.0,0.0,0.0,0.0,-0.015239251853662037,0.0,-0.027438051757174873,-0.0015641638052459486,-0.03095849803711587,0.023391794536590377,-0.1326603772925599,-0.01106405578418729
1530,7.0,301.11877000000004,714.04413,0.0,0.0,0.0,0.0,-0.015249218663245856,0.0,-0.08522613878691501,-0.03577857739882067,-0.09604687066558809,0.010989829134861689,-0.17413938120371886,0.014342811517775288
1531,7.0,300.37247,590.05031,0.0,0.0,0.0,0.0,-0.015259185472829678,0.0,-0.02080360218340568,-0.05008716132821795,-0.1084698012251359,-0.02082072712334578,-0.15649910226275887,-0.00045556520910578554
1532,7.0,299.43169,187.81803,0.0,0.0,0.0,0.0,-0.0152691522824135,0.0,-0.01095911347133029,-0.04293979543457786,-0.0031930806753575273,-0.037056263483418464,-0.15102672085767688,0.01040351399099689
1533,7.0,299.72837999999996,416.25441,0.0,0.0,0.0,0.0,-0.015279119091997318,0.0,-0.06363871368390203,-0.04170933795039116,-0.021182895133088978,-0.04893406548916625,-0.10974324381831489,-0.0019343311205536182
1534,7.0,300.08348,848.31815,0.0,0.0,0.0,0.0,-0.01528908590158114,0.0,-0.13738673304651486,-0.08818881723130861,-0.03229198481797076,-0.052200714910559456,-0.12890708613963886,-0.004171151542485606
1535,7.0,299.82817,822.4823299999999,0.0,0.0,0.0,0.0,-0.015299052711164962,0.0,-0.08043023759909643,-0.08867790596182792,-0.08090594737529533,-0.07553439043466394,-0.11045666308122389,0.003381100985113687
1536,7.0,301.13045,403.3468,0.0,0.0,0.0,0.0,-0.015309019520748783,0.0,-0.025062934754269076,-0.03128037314338247,-0.06626404773275234,-0.03767122118111007,-0.12419472336956489,0.007075221878570033
1537,7.0,300.76018999999997,117.75345,0.0,0.0,0.0,0.0,-0.015318986330332605,0.0,0.01904740569933258,-0.04456897493911536,-0.01027253925657069,-0.052411760720888045,-0.1186557410354099,-0.028362122676123577
1538,7.0,300.33216,314.53652,0.0,0.0,0.0,0.0,-0.015328953139916423,0.0,-0.022158303381604277,-0.043113521217223255,-0.030339423504267972,-0.03001935198317937,-0.15385707289201087,-0.024911565321830077
1539,7.0,301.15002999999996,642.75779,0.0,0.0,0.0,0.0,-0.015338919949500245,0.0,-0.07767763427143562,-0.08347266389261052,-0.034232020333937366,-0.03047055833220997,-0.12569324933995787,-0.03844541721151726
1540,7.0,301.22503,520.22285,0.0,0.0,0.0,0.0,-0.015348886759084067,0.0,-0.06975717172374683,-0.04988565324108066,-0.038491931470607865,-0.017742728658570982,-0.13010674386053586,-0.015218392339938385
1541,7.0,300.52584,56.13060600000001,0.0,0.0,0.0,0.0,-0.015358853568667888,0.0,-0.002871580268977907,-0.008110559412199892,-0.006080162860265354,-0.018563344715809484,-0.12195432607345487,-0.026654827668376676
1542,7.0,299.99998999999997,271.81172999999995,0.0,0.0,0.0,0.0,-0.015368820378251708,0.0,0.0050833426106368556,-0.038255272724251464,-0.04945204907278725,-0.01919519126616788,-0.17200573993814483,0.0036447314358819863
1543,7.0,299.65911,879.7616199999999,0.0,0.0,0.0,0.0,-0.015378787187835528,0.0,-0.07639372581797373,-0.07212142972533093,-0.11891041131554389,-0.03846342874529486,-0.12927779382122487,0.003498237357624147
1544,7.0,298.44347,1089.205,0.0,0.0,0.0,0.0,-0.015388753997419348,0.0,-0.1013896654888809,-0.09276341649128642,-0.1369380557697339,-0.025206282285666376,-0.15205537235919686,0.03859765803904226
1545,7.0,300.07476,775.4802099999999,0.0,0.0,0.0,0.0,-0.015398720807003169,0.0,-0.10845404518608089,-0.0906852932251916,-0.03658728067463347,-0.05535518741338165,-0.12679956646164287,0.02157700382573448
1546,7.0,299.31066,289.04072,0.0,0.0,0.0,0.0,-0.015408687616586989,0.0,-0.04780088812058036,-0.015372546183652185,-0.024687728242239075,-0.061890572538123946,-0.14506196069900087,0.040596326285295456
1547,7.0,299.84762,324.29443,0.0,0.0,0.0,0.0,-0.015418654426170813,0.0,-0.027057374707854975,-0.030873529923480175,-0.04064650445674767,-0.04933135781362595,-0.1173202875361109,0.0015055392822851585
1548,7.0,299.6435,756.97721,0.0,0.0,0.0,0.0,-0.015428621235754631,0.0,-0.07068809120012143,-0.04314170375550466,-0.11627237415018989,-0.04765610886679175,-0.12622689777012489,0.03214872442608207
1549,7.0,300.36244,668.31442,0.0,0.0,0.0,0.0,-0.015438588045338455,0.0,-0.04379482045196226,-0.06744981784777873,-0.09190625756919141,-0.048151692530452046,-0.12466254094073488,-0.028865758638328572
1550,7.0,300.66277,174.46326000000002,0.0,0.0,0.0,0.0,-0.015448554854922275,0.0,-0.011189319841049889,-0.04003024777242786,-0.0018129058630198785,-0.026609588077911875,-0.16567924949376883,-0.028852004781471173
1551,7.0,301.66404,88.55554000000001,0.0,0.0,0.0,0.0,-0.015458521664506094,0.0,-0.013785174391490787,-0.015826495400703484,0.0026929971680031274,-0.01749407404428068,-0.14629903774609085,-0.04628518249474186
1552,7.0,300.33123,511.44462999999996,0.0,0.0,0.0,0.0,-0.015468488474089917,0.0,-0.07694612241474102,-0.05339450591337745,-0.025125769432720376,0.03382625318564126,-0.14685689272114688,-0.0019435975966931483
1553,7.0,299.91589,915.98811,0.0,0.0,0.0,0.0,-0.015478455283673736,0.0,-0.07499828791275473,-0.1046796379010759,-0.0987595843633121,-0.013126405785975388,-0.11653294154590589,-0.0025875190484932475
1554,7.0,300.1097,655.97229,0.0,0.0,0.0,0.0,-0.015488422093257558,0.0,-0.06586982656934573,-0.05546751935921794,-0.07806185161660492,-0.03806437336566117,-0.15441349918442587,0.021306219829260183
1555,7.0,300.03147,128.27761999999998,0.0,0.0,0.0,0.0,-0.01549838890284138,0.0,0.05267012632413675,-0.04917941386838025,-0.04248390685683516,-0.05848478057324844,-0.13439103886086287,0.0020996135914407277
1556,7.0,300.01347999999996,266.16344,0.0,0.0,0.0,0.0,-0.015508355712425198,0.0,-0.04829690849503375,-0.019293387359859082,-0.013316743804010288,-0.04435879444437216,-0.13336982461507688,0.017486799921812783
1557,7.0,300.3749,775.8262599999999,0.0,0.0,0.0,0.0,-0.01551832252200902,0.0,-0.1028812608285899,-0.057912567844275446,-0.07503798502517252,-0.04063654015526426,-0.11549668053613488,0.01747365300176528
1558,7.0,300.16047000000003,608.52771,0.0,0.0,0.0,0.0,-0.015528289331592839,0.0,-0.1006623707791025,-0.05688844759720265,-0.027426410526775972,-0.054295172781516354,-0.14751802827889585,-0.02266730855608918
1559,7.0,300.39841,23.024041,0.0,0.0,0.0,0.0,-0.015538256141176663,0.0,0.02186103505401618,0.017461192052035484,-0.04632096136902296,-0.05908576960506145,-0.13733609080651685,0.007363292732350414
1560,7.0,298.84163,2.3308408,0.0,0.0,0.0,0.0,-0.015548222950760481,0.0,0.003408672432259777,0.006059600165385974,-0.01017679016187099,-0.04219356510693066,-0.13013080855041087,-0.025201314320426077
1561,7.0,299.49427000000003,686.9246099999999,0.0,0.0,0.0,0.0,-0.015558189760344301,0.0,-0.055348742129495546,-0.05969468225265645,-0.09376450556358622,-0.03247449649223327,-0.12451935856910389,-0.0008948471952620423
1562,7.0,298.93959,960.5011599999999,0.0,0.0,0.0,0.0,-0.015568156569928125,0.0,-0.14513264502597686,-0.08672664059500301,-0.06010907925205424,-0.025139089618534977,-0.15420762702910787,-0.01963985911230318
1563,7.0,299.32397000000003,527.7086400000001,0.0,0.0,0.0,0.0,-0.015578123379511944,0.0,-0.06976371630614273,-0.060990857111828944,-0.029655678283787575,-0.03172652236116397,-0.14471299736456086,0.017704681117315983
1564,7.0,300.39943999999997,224.57598,0.0,0.0,0.0,0.0,-0.015588090189095767,0.0,-0.05817028598071024,-0.012129918895629789,0.002034713909285628,-0.004729396416180086,-0.15068144575360087,0.031993746810036965
1565,7.0,300.58161,539.05179,0.0,0.0,0.0,0.0,-0.015598056998679586,0.0,-0.017025287806015085,-0.05253425556522735,-0.09429873965231102,-0.034541506431231266,-0.13703136597144286,0.034842208663408265
1566,7.0,300.86798999999996,788.13623,0.0,0.0,0.0,0.0,-0.015608023808263406,0.0,-0.06482930889590464,-0.06931356880346663,-0.1054308615252159,-0.044533122097576955,-0.1289738897187319,-0.0052209237357150546
1567,7.0,300.58279,599.70365,0.0,0.0,0.0,0.0,-0.01561799061784723,0.0,-0.016799414093723083,-0.06043223510644724,-0.1050632847864389,-0.04953461375718576,-0.13636443462312187,-0.009061685426043721
1568,7.0,299.71438,128.55041,0.0,0.0,0.0,0.0,-0.01562795742743105,0.0,-0.027675538328862975,-0.04964989730056336,0.038249319879913965,-0.04586959796622686,-0.1134166098033479,-0.028925570791731574
1569,7.0,299.83359,169.24499,0.0,0.0,0.0,0.0,-0.01563792423701487,0.0,-0.02358807323996158,-0.017961504553912485,-0.00989667413197569,-0.05236669439619036,-0.13249895641912887,-0.050886437325100356
1570,7.0,300.61354,479.66692,0.0,0.0,0.0,0.0,-0.01564789104659869,0.0,-0.07289751850692493,-0.06984414100633003,-0.003065107897002597,-0.04876750439797795,-0.14795613735713387,-0.022739524917216376
1571,7.0,298.68647000000004,545.04917,0.0,0.0,0.0,0.0,-0.01565785785618251,0.0,-0.024731478355056877,-0.05906110709762744,-0.08188875234954063,-0.06889302644221233,-0.16464726439941985,-0.0018070514052670884
1572,7.0,299.25906000000003,574.31983,0.0,0.0,0.0,0.0,-0.01566782466576633,0.0,-0.03658952806335526,-0.03729059783404546,-0.100698761656444,-0.03292143199209237,-0.13909529563013687,0.015693359403813986
1573,7.0,299.27022999999997,580.31204,0.0,0.0,0.0,0.0,-0.01567779147535015,0.0,-0.061283912345501235,-0.04870714103652055,-0.06640931638633923,-0.008869702700446501,-0.12265193863480388,0.008882623969696732
1574,7.0,300.00586,751.05694,0.0,0.0,0.0,0.0,-0.015687758284933975,0.0,-0.11284006036394689,-0.052735487035087354,-0.06272700644267354,-0.011733000460456989,-0.12823849306115387,-0.00017212971108787985
1575,7.0,300.89242,837.54076,0.0,0.0,0.0,0.0,-0.015697725094517796,0.0,-0.11976012284940388,-0.06759182282279354,-0.06723953096177503,0.004579733094259465,-0.16074400209919784,0.02032842031050888
1576,7.0,300.63088999999997,667.34924,0.0,0.0,0.0,0.0,-0.015707691904101612,0.0,-0.08255075930237563,-0.06714140579559084,-0.053165340151510546,-0.02209895124374668,-0.17551369284435284,0.026331415461708373
1577,7.0,299.86152999999996,267.16755,0.0,0.0,0.0,0.0,-0.015717658713685436,0.0,0.0005482139003544995,-0.010179482367386689,-0.07158099657249432,-0.03097113326586287,-0.17301846314809283,0.022644982603385776
1578,7.0,301.15006,225.47027999999997,0.0,0.0,0.0,0.0,-0.015727625523269256,0.0,0.011126458818095989,-0.04360366575434676,-0.03606012717760746,-0.06574009813254254,-0.14338034043553785,-0.020271025771844482
1579,7.0,300.40449,319.97297000000003,0.0,0.0,0.0,0.0,-0.01573759233285308,0.0,-0.034522744079129565,-0.026187657564020576,-0.03655339353828907,-0.059096273968848145,-0.11577992446908889,-0.015824699921526283
1580,7.0,300.16463,589.81471,0.0,0.0,0.0,0.0,-0.0157475591424369,0.0,-0.08518537573539202,-0.05167062906774404,-0.04243294037680516,-0.07061773111317744,-0.09357217042960422,-0.027588362343259374
1581,7.0,300.11906,717.50901,0.0,0.0,0.0,0.0,-0.015757525952020717,0.0,-0.11042485716058491,-0.06595318564182265,-0.041726783077362856,-0.057389007332104044,-0.1117621041125609,-0.025813172486061773
1582,7.0,299.24303,561.06988,0.0,0.0,0.0,0.0,-0.01576749276160454,0.0,-0.08278755281099533,-0.03377503643283657,-0.05398864638776455,-0.03316473968560497,-0.13894067366487686,0.007171004106548003
1583,7.0,299.69364,518.05285,0.0,0.0,0.0,0.0,-0.01577745957118836,0.0,-0.005176914230871655,-0.061562693925014844,-0.09073552307239892,6.546634936627564e-05,-0.17821271753322582,0.007247234964571404
1584,7.0,299.92931,598.6779700000001,0.0,0.0,0.0,0.0,-0.01578742638077218,0.0,-0.03377535965961847,-0.05125207774293625,-0.0969557154752841,0.0074430629742981225,-0.15151645502850986,0.03493928511573897
1585,7.0,299.9112,562.39139,0.0,0.0,0.0,0.0,-0.015797393190356,0.0,-0.034689222083809666,-0.05724537102442824,-0.07901834755200372,0.0036817881198641968,-0.16440498616800883,-0.008325818620419322
1586,7.0,299.91378,274.57998,0.0,0.0,0.0,0.0,-0.015807359999939822,0.0,-0.04107047362984016,-0.07130960665246024,0.028914620597900873,-0.047349417313273655,-0.13682065048064687,-0.02085883140660638
1587,7.0,300.67786,43.677253,0.0,0.0,0.0,0.0,-0.015817326809523646,0.0,-0.031774582839907174,0.00024278379254839477,0.01825500460437868,-0.03165109197071957,-0.15865139746267384,-0.033242572492036465
1588,7.0,301.65259,250.16055,0.0,0.0,0.0,0.0,-0.015827293619107466,0.0,-0.02794090650355277,-0.04396923929767605,-0.004132415193812626,-0.04917466780491186,-0.14144899455242887,-0.017567306695258182
1589,7.0,301.56257,527.33064,0.0,0.0,0.0,0.0,-0.015837260428691286,0.0,-0.004258448003526096,-0.07786216130014703,-0.07817473983674612,-0.030402068704950574,-0.13364893448762288,-0.014089951915569988
1590,7.0,301.05709,723.95843,0.0,0.0,0.0,0.0,-0.015847227238275106,0.0,-0.06082417949687914,-0.05481193438551675,-0.10442917260885691,-0.052908352568397855,-0.13022356146456487,-0.01216909621074629
1591,7.0,300.28715,627.21262,0.0,0.0,0.0,0.0,-0.015857194047858927,0.0,-0.06389674795436803,-0.07056578178055044,-0.05619444423270985,-0.04774528804784305,-0.12464671397417289,0.004244364029786116
1592,7.0,300.02522,512.9072,0.0,0.0,0.0,0.0,-0.01586716085744275,0.0,-0.0942992705953634,-0.02035429162531218,-0.041257418273290165,-0.058229076778012444,-0.0976297264020538,0.014135178333783487
1593,7.0,299.50113999999996,759.02062,0.0,0.0,0.0,0.0,-0.01587712766702657,0.0,-0.11171958813836488,-0.05827209228450774,-0.06073163835199604,-0.03509656382276117,-0.13807876259981286,0.03691210332544097
1594,7.0,300.117,761.54805,0.0,0.0,0.0,0.0,-0.01588709447661039,0.0,-0.0911170796228056,-0.06375897836477123,-0.07661553437086452,-0.03257855727750327,-0.15399157171028485,0.01083388386497109
1595,7.0,299.13072,401.00867999999997,0.0,0.0,0.0,0.0,-0.01589706128619421,0.0,-0.0008936412756555272,-0.023697156705977277,-0.09730582580883732,-0.026907800754593175,-0.18385168738724883,0.03684531899809987
1596,7.0,300.20232999999996,82.234373,0.0,0.0,0.0,0.0,-0.01590702809577803,0.0,0.020830556662565877,-0.04173439663861426,-0.004093355415707726,0.002932976638912257,-0.15847167729243686,0.0024854938826741474
1597,7.0,300.31977,326.68735,0.0,0.0,0.0,0.0,-0.015916994905361852,0.0,-0.021591912787705878,-0.04997058285121255,-0.027742300364701874,-0.00996095542759476,-0.14647458332591587,0.0020104396792899482
1598,7.0,300.75113,732.26949,0.0,0.0,0.0,0.0,-0.015926961714945672,0.0,-0.10125717898530551,-0.07974801934651672,-0.04158644185901226,-0.01867947634952078,-0.12080208845723789,-0.04162356835592636
1599,7.0,300.4052,617.685,0.0,0.0,0.0,0.0,-0.015936928524529496,0.0,-0.07229263656822772,-0.06417053927713914,-0.05129764157343305,-0.05112704369384635,-0.13272257058369788,-0.02854361603403557
1600,7.0,300.11536,358.30314,0.0,0.0,0.0,0.0,-0.015946895334113316,0.0,-0.009720408840604662,-0.03657048909397626,-0.06262430949203814,-0.04504954324954376,-0.09166237130987172,-0.02060425231898138
1601,7.0,300.12678,429.98582999999996,0.0,0.0,0.0,0.0,-0.015956862143697133,0.0,-0.0029979299219976474,-0.050362098636852155,-0.07734492752160002,-0.04118161500680896,-0.13535226870072886,-0.005339639258506365
1602,7.0,301.61612,738.18486,0.0,0.0,0.0,0.0,-0.015966828953280957,0.0,-0.06874719746132014,-0.06521522242174134,-0.09042734508098411,-0.06480999026949803,-0.16544437812058885,0.017931549841206183
1603,7.0,301.28525,855.7571300000001,0.0,0.0,0.0,0.0,-0.015976795762864777,0.0,-0.1178358494519929,-0.05901105659568785,-0.08328189726978333,-0.058555088984437356,-0.16285057945460085,0.03728253438974966
1604,7.0,301.52632,540.99639,0.0,0.0,0.0,0.0,-0.0159867625724486,0.0,-0.09154039930258401,-0.05293565965859285,-0.01997333593221478,-0.05646427577409014,-0.1138840727369829,0.028379846446872768
1605,7.0,300.82306,367.42081,0.0,0.0,0.0,0.0,-0.01599672938203242,0.0,-0.07062589993548363,-0.015954713081607588,-0.025106137712032874,-0.025827821042757475,-0.12362368601070788,0.018970470632489682
1606,7.0,300.24929,510.20015,0.0,0.0,0.0,0.0,-0.016006696191616238,0.0,-0.029522182583112573,-0.06005352477557144,-0.06551239955682044,-0.02257764402823998,-0.13328970692966988,-0.015218556486454584
1607,7.0,300.08666,623.12594,0.0,0.0,0.0,0.0,-0.01601666300120006,0.0,-0.030359950938043872,-0.07129041873531652,-0.0877643566319176,-0.011593860956724988,-0.14860364470103787,-0.005826073071113645
1608,7.0,300.37245,558.05571,0.0,0.0,0.0,0.0,-0.01602662981078388,0.0,-0.03806933626465096,-0.055977252047274655,-0.07558841186374543,-0.02099139390393928,-0.15341551876343285,-0.008690429677478632
1609,7.0,299.48132000000004,345.04041,0.0,0.0,0.0,0.0,-0.016036596620367702,0.0,-0.037254702436002866,-0.04470098217539346,-0.022927983356315778,-0.03550472122804317,-0.17318721995224784,-0.014366118296575485
1610,7.0,299.17523,362.85106,0.0,0.0,0.0,0.0,-0.016046563429951522,0.0,-0.08658033639981391,-0.01815561692856988,-0.005561707507397795,-0.05818532362544435,-0.16159201137288984,0.002250235954580998
1611,7.0,299.45652,550.3624599999999,0.0,0.0,0.0,0.0,-0.016056530239535342,0.0,-0.07649448847416823,-0.026525044516068075,-0.06427691229913735,-0.06443359521510074,-0.14727796906520388,0.013340735539878088
1612,7.0,298.87838999999997,577.5155,0.0,0.0,0.0,0.0,-0.016066497049119166,0.0,-0.04453012693028136,-0.053984038126309745,-0.07703612536812363,-0.06303240508906403,-0.09075980865079572,0.02410251044823258
1613,7.0,299.27882999999997,476.25708,0.0,0.0,0.0,0.0,-0.016076463858702983,0.0,-0.021584902110263978,-0.036650806389652964,-0.08653455168079532,-0.05348038291235285,-0.10385423423711489,0.02103764471800388
1614,7.0,299.07312,471.70840999999996,0.0,0.0,0.0,0.0,-0.016086430668286807,0.0,-0.04681669094069766,-0.06177347122406694,-0.03479741794273776,-0.041286261450636755,-0.13232141473660686,0.011725987756514887
1615,7.0,299.85407000000004,437.66924000000006,0.0,0.0,0.0,0.0,-0.016096397477870627,0.0,-0.07048451912253044,-0.06459828179360404,0.0020422815703074982,-0.012605720877587788,-0.14751299242589885,-0.013743281566106286
1616,7.0,299.0794,614.5090799999999,0.0,0.0,0.0,0.0,-0.016106364287454447,0.0,-0.09163312384573523,-0.07197262280239484,-0.02318966836689208,-0.016620244118290384,-0.15472145628731884,-0.0073363519320665625
1617,7.0,300.23022000000003,543.87809,0.0,0.0,0.0,0.0,-0.01611633109703827,0.0,-0.05685140418679674,-0.07128495833052763,-0.037188995193518065,-0.015691510222381484,-0.16967385629050585,-0.04268878805355537
1618,7.0,300.06741,240.45185,0.0,0.0,0.0,0.0,-0.01612629790662209,0.0,0.01983789479134778,-0.04564355200141786,-0.04728570110723536,-0.052450300701691654,-0.16579662438535284,-0.03011771019688657
1619,7.0,300.82985,126.50607,0.0,0.0,0.0,0.0,-0.01613626471620591,0.0,0.027283664865938077,-0.02269881860769898,-0.04303953268167116,-0.01068352970913229,-0.15839835851520084,-0.003290702256242027
1620,7.0,300.73909,291.5158,0.0,0.0,0.0,0.0,-0.01614623152578973,0.0,-0.014939444587408384,-0.028384124388794972,-0.04528995507427055,-0.026737424776778373,-0.1151497842318989,0.0075681087770891825
1621,7.0,300.09779,654.60117,0.0,0.0,0.0,0.0,-0.016156198335373552,0.0,-0.10246204886471691,-0.045382451636149256,-0.05113791181441895,-0.012482081060635489,-0.12884806432131388,0.029093254564030675
1622,7.0,300.19334,684.38988,0.0,0.0,0.0,0.0,-0.016166165144957376,0.0,-0.1267655313907839,-0.040848464453429566,-0.040423438460482755,-0.05182495212422455,-0.15507373294958585,0.003542140065907007
1623,7.0,299.66061,660.48163,0.0,0.0,0.0,0.0,-0.016176131954541196,0.0,-0.08746522189764533,-0.04972089066881986,-0.06358380971398345,-0.04862029739694975,-0.13961015840344987,0.02127338140676928
1624,7.0,299.34528,580.82339,0.0,0.0,0.0,0.0,-0.016186098764125016,0.0,-0.023962593781673876,-0.06622827291147164,-0.08636494172005611,-0.04108415250619016,-0.11451666503941488,-0.002280806014073028
1625,7.0,299.55871,705.29541,0.0,0.0,0.0,0.0,-0.016196065573708836,0.0,-0.03532837011438867,-0.07381826191254523,-0.1052455583469279,-0.046747483932367453,-0.1275586123765549,0.01124059130935999
1626,7.0,299.55341,692.57664,0.0,0.0,0.0,0.0,-0.016206032383292653,0.0,-0.05976670406976444,-0.07099390122605254,-0.07976540063873212,-0.05372468865721395,-0.15365333869440384,-0.009043377111311831
1627,7.0,299.59522999999996,341.9322,0.0,0.0,0.0,0.0,-0.016215999192876477,0.0,-0.06525054330697723,-0.033845617408302366,-0.004842688923111185,-0.04687409966486346,-0.16008149865381385,-0.001690297433344368
1628,7.0,300.06946,125.97576000000001,0.0,0.0,0.0,0.0,-0.016225966002460297,0.0,-0.027468337802663872,-0.028545955628516473,0.017720806992657483,-0.015150629213000685,-0.16509532359363985,-0.027000511112242977
1629,7.0,300.27154,409.52864,0.0,0.0,0.0,0.0,-0.01623593281204412,0.0,-0.030279158428070267,-0.04043502801512656,-0.05377229317341215,-0.018977059797889984,-0.16469830180695685,-0.021755979257147978
1630,7.0,300.11417,631.1492099999999,0.0,0.0,0.0,0.0,-0.01624589962162794,0.0,-0.021945131772565876,-0.07368270526116683,-0.0962257630104934,-0.006312162176036904,-0.16679909350428884,-0.0017770040815016483
1631,7.0,300.60632999999996,487.92633,0.0,0.0,0.0,0.0,-0.016255866431211758,0.0,-0.03601340722874657,-0.03740050608564256,-0.07490350849840073,-0.019871797126443682,-0.1238667545771969,0.009566986360813042
1632,7.0,300.329,322.77961,0.0,0.0,0.0,0.0,-0.016265833240795582,0.0,-0.017151485066219784,-0.02375776122095848,-0.057207697372460155,-0.024085558774059577,-0.09388026938751122,0.03818371294918906
1633,7.0,301.25771000000003,526.75515,0.0,0.0,0.0,0.0,-0.016275800050379402,0.0,-0.09041720650048352,-0.04653296368744596,-0.023170241322724775,-0.045228139725419864,-0.1068197842322919,-0.006749239866998114
1634,7.0,300.35617,851.16139,0.0,0.0,0.0,0.0,-0.016285766859963226,0.0,-0.1014395477913039,-0.07117274696145323,-0.08611951836033473,-0.04614912529781405,-0.16440605008061385,-0.012521532966529088
1635,7.0,300.68338,756.68803,0.0,0.0,0.0,0.0,-0.016295733669547046,0.0,-0.07527973028703093,-0.08041642902673363,-0.07431810730612613,-0.053650371828629445,-0.14766860737625687,-0.02313226065597638
1636,7.0,299.69106,345.72687,0.0,0.0,0.0,0.0,-0.016305700479130863,0.0,0.006838213763579153,-0.04828653585376005,-0.06364401298192503,-0.03697046349145067,-0.15401476500507386,-0.036077516575823664
1637,7.0,299.12636000000003,218.62089,0.0,0.0,0.0,0.0,-0.016315667288714687,0.0,0.017647065690129783,-0.055364022954253654,-0.028738335345502873,-0.03924504176643406,-0.1374720284399329,-0.014311188995404385
1638,7.0,299.94126,364.5861,0.0,0.0,0.0,0.0,-0.016325634098298503,0.0,-0.03691044463502726,-0.04096689312511756,-0.03294773393818817,-0.02948204065390087,-0.14064660179823887,-0.012606146442629789
1639,7.0,300.43565,480.02757,0.0,0.0,0.0,0.0,-0.016335600907882327,0.0,-0.08672568003390822,-0.02762582118620627,-0.03156489478471257,-0.032886545791149364,-0.12963516713149487,0.03141643540656077
1640,7.0,300.11433999999997,278.19212999999996,0.0,0.0,0.0,0.0,-0.016345567717466147,0.0,-0.04633920595032355,-0.02120377011164918,-0.017020485000541086,-0.03506561713820697,-0.15577696904898983,-0.005190491376911615
1641,7.0,300.07502,301.96993,0.0,0.0,0.0,0.0,-0.016355534527049968,0.0,-0.02051815341823408,-0.030945997570632173,-0.04032716551548136,-0.04455300611753936,-0.17705355941882583,-0.0015327837536239786
1642,7.0,299.76652,776.4604400000001,0.0,0.0,0.0,0.0,-0.01636550133663379,0.0,-0.04704636535411475,-0.08856267916045592,-0.10041554102824231,-0.024586826770780876,-0.19101861812706983,-0.007129527017679533
1643,7.0,300.53766,1089.2462,0.0,0.0,0.0,0.0,-0.016375468146217608,0.0,-0.13578800677373287,-0.08846643053345692,-0.10684919888269491,-0.015682502428992485,-0.13021230425595387,0.005676936639245025
1644,7.0,301.10716,900.38739,0.0,0.0,0.0,0.0,-0.016385434955801432,0.0,-0.1062559105516419,-0.08795906479763382,-0.07948031056409592,-0.029050933133853873,-0.1086710022974929,0.015986272782472284
1645,7.0,300.71299,366.09872,0.0,0.0,0.0,0.0,-0.016395401765385252,0.0,-0.06690574712708314,-0.03199121368478697,-0.012387909596341489,-0.06467622909729684,-0.08445913176596732,-0.01064933859775789
1646,7.0,300.25986,275.3357,0.0,0.0,0.0,0.0,-0.016405368574969072,0.0,-0.016780705443876685,-0.05134087898170025,-0.015573593241993984,-0.08201359996061212,-0.1323108769355669,-0.005988132596082675
1647,7.0,299.82962000000003,372.72218,0.0,0.0,0.0,0.0,-0.016415335384552896,0.0,-0.031443899550521265,-0.025282144320653375,-0.05657219197599064,-0.04948783200006875,-0.13468385800726188,-0.013733420616133087
1648,7.0,299.30958,426.61512,0.0,0.0,0.0,0.0,-0.016425302194136713,0.0,-0.004268514845919616,-0.05041307322288295,-0.07499875603430094,-0.024836481462919877,-0.18394618309157482,-0.010682988633578888
1649,7.0,299.10287999999997,264.87586,0.0,0.0,0.0,0.0,-0.016435269003720537,0.0,-0.009739158729730132,-0.036032197951851065,-0.03474429121349457,-0.026713897109456375,-0.16110663417748686,-0.02172007980610498
1650,7.0,298.59747000000004,160.76158,0.0,0.0,0.0,0.0,-0.016445235813304357,0.0,-0.015606156060457685,-0.02826316056535677,-0.004998190490782995,-0.02068861957530778,-0.18044176642821583,-0.003152226026025487
1651,7.0,299.46502000000004,585.98046,0.0,0.0,0.0,0.0,-0.016455202622888177,0.0,-0.10233058979674291,-0.035352273697497764,-0.04044056340042286,-0.034495861540726466,-0.12942337759559286,0.01826165659128518
1652,7.0,300.48246,1005.4012,0.0,0.0,0.0,0.0,-0.016465169432471997,0.0,-0.1059550158019459,-0.07363632171133913,-0.12602554471025287,-0.02995377241020717,-0.13607406754196488,0.015572530342639087
1653,7.0,300.87703,865.88548,0.0,0.0,0.0,0.0,-0.016475136242055818,0.0,-0.07675224511410683,-0.09722434530204581,-0.08923097333016142,-0.03041843168081547,-0.12781634267199088,0.006777204151207973
1654,7.0,300.86897999999997,437.73065,0.0,0.0,0.0,0.0,-0.01648510305163964,0.0,-0.015778686207985084,-0.039845192840414365,-0.07743530841726992,-0.04411941714799746,-0.15037338732569785,-0.017575445120061383
1655,7.0,300.21015,242.40165,0.0,0.0,0.0,0.0,-0.01649506986122346,0.0,-0.04480853158075775,0.011896088130302488,-0.04077160639359426,-0.04100289694092086,-0.12584203498464186,0.01993967272414248
1656,7.0,300.33752000000004,447.06824000000006,0.0,0.0,0.0,0.0,-0.01650503667080728,0.0,-0.06775439170858784,-0.023930624727768777,-0.04421256624294055,-0.04813467499502255,-0.15194014555782487,0.008740205689966142
1657,7.0,299.93316,594.59317,0.0,0.0,0.0,0.0,-0.016515003480391102,0.0,-0.08857985273640082,-0.04983274740035925,-0.04232887655178486,-0.09029033137596192,-0.12480501403729587,0.011502401962948688
1658,7.0,299.42065,248.80215,0.0,0.0,0.0,0.0,-0.016524970289974922,0.0,-0.007934467285270953,-0.04711528865241695,-0.020579884667326482,-0.06074939555999854,-0.15553989892309283,-0.015175918922246586
1659,7.0,299.5795,195.20768,0.0,0.0,0.0,0.0,-0.016534937099558746,0.0,-0.006615010269275683,-0.04021969109062446,-0.012503559936255288,-0.03166431184477427,-0.13163260731862686,-0.017294807266364585
1660,7.0,300.05019,684.35465,0.0,0.0,0.0,0.0,-0.016544903909142566,0.0,-0.05015958439236555,-0.06503329336628634,-0.09283384953223761,0.014962084647642785,-0.16775726332885282,-0.015752407566641587
1661,7.0,299.45285,909.1292,0.0,0.0,0.0,0.0,-0.016554870718726383,0.0,-0.09425816607855672,-0.1005460861446261,-0.08154832260744282,0.01165551722530999,-0.15815970771914786,-0.024233921893451877
1662,7.0,300.91856,835.24101,0.0,0.0,0.0,0.0,-0.016564837528310207,0.0,-0.1039899084255049,-0.07332129617574853,-0.07658120444422642,-0.0022928760519142478,-0.16628904366895084,0.018409687364644683
1663,7.0,300.73846000000003,394.00027,0.0,0.0,0.0,0.0,-0.016574804337894027,0.0,-0.06843240092025214,-0.011346928867604689,-0.03998691613190136,-0.03762391760019156,-0.14395542066229386,0.01986586150735788
1664,7.0,300.71315,241.29588999999999,0.0,0.0,0.0,0.0,-0.016584771147477848,0.0,-0.035030805917771364,-0.016190021165580687,-0.02212709831827458,-0.06448886496830544,-0.14219855644640486,0.02222149573734088
1665,7.0,300.77737,591.71861,0.0,0.0,0.0,0.0,-0.016594737957061668,0.0,-0.03263229398330667,-0.04797284274205096,-0.0992625444877004,-0.06527720900985894,-0.12636414249616987,-0.0018899479290733381
1666,7.0,299.90337,515.37837,0.0,0.0,0.0,0.0,-0.016604704766645488,0.0,-0.03404452549568307,-0.04080874606275966,-0.08180888392365822,-0.03353174292482537,-0.14337022819953985,-0.007593412773161492
1667,7.0,299.31767,117.43673000000001,0.0,0.0,0.0,0.0,-0.016614671576229312,0.0,0.008347824082116092,-0.03158730787692457,-0.012458348716793287,-0.048054351619845254,-0.12154735417078988,-0.013173005158074388
1668,7.0,300.51074,104.11029,0.0,0.0,0.0,0.0,-0.01662463838581313,0.0,-0.027282288872302274,-0.014920446148033385,0.01055580548102689,-0.014107278492279985,-0.16252720068518586,0.0007159663811428802
1669,7.0,299.61517000000003,510.86654000000004,0.0,0.0,0.0,0.0,-0.016634605195396952,0.0,-0.06408072580152523,-0.07427578992894973,-0.016934157105271182,-0.05004986257878686,-0.14440512132167585,-0.015613281235160884
1670,7.0,299.41873,839.4821199999999,0.0,0.0,0.0,0.0,-0.016644572004980773,0.0,-0.07361038656177953,-0.1006864253364765,-0.08088479172645742,-0.05501282033709264,-0.15669479125457186,-0.012983210242093087
1671,7.0,299.92995,704.14108,0.0,0.0,0.0,0.0,-0.016654538814564593,0.0,-0.05672783732385165,-0.07780502210050783,-0.07950844750612283,-0.038898391681972365,-0.14161952454425886,0.001089233218373949
1672,7.0,299.66997000000003,394.47288,0.0,0.0,0.0,0.0,-0.016664505624148417,0.0,-0.02161683570041558,-0.07005500139189033,-0.028238070466380574,-0.029358801070738072,-0.15347827947462686,-0.014247438338862686
1673,7.0,299.8927,404.00191,0.0,0.0,0.0,0.0,-0.016674472433732233,0.0,-0.05253877972692386,-0.037383979976511564,-0.03288373300887177,-0.033988818018435174,-0.15455187875058285,0.013539428818237588
1674,7.0,300.28526,572.28121,0.0,0.0,0.0,0.0,-0.016684439243316057,0.0,-0.07670332134627843,-0.05797920018410154,-0.03927667543455606,-0.02691226412128368,-0.16685511610231785,0.023649891628562576
1675,7.0,300.23989,440.05116,0.0,0.0,0.0,0.0,-0.016694406052899877,0.0,-0.07077192548689523,-0.026458037273704976,-0.03653460078868437,-0.04725454265341025,-0.12698513308495687,0.03053161982298627
1676,7.0,300.32309,309.84438,0.0,0.0,0.0,0.0,-0.016704372862483698,0.0,-0.006826690171516864,-0.023139869150977276,-0.06421839406611203,-0.020608237431624682,-0.15305336291269087,-0.00979079213097595
1677,7.0,300.32319,323.48118,0.0,0.0,0.0,0.0,-0.016714339672067518,0.0,0.002236324537333048,-0.05629442769957745,-0.04427209873931596,-0.03632708412845407,-0.15245591012372683,-0.04161651714848046
1678,7.0,300.21102,657.02454,0.0,0.0,0.0,0.0,-0.016724306481651338,0.0,-0.04760038315104205,-0.07544590735643134,-0.07667276172326243,-0.03580081013251486,-0.14099250511737685,-0.02942683777520277
1679,7.0,299.495,835.09929,0.0,0.0,0.0,0.0,-0.016734273291235162,0.0,-0.1194132265451679,-0.06790467291041943,-0.06653143430164134,-0.03798611296768747,-0.15658122618336384,0.006450927486506974
1680,7.0,299.04162,567.93313,0.0,0.0,0.0,0.0,-0.01674424010081898,0.0,-0.08157457693078392,-0.07304972184419622,-0.01801319246801368,-0.03787997299321226,-0.15068106071856285,0.026807686578462678
1681,7.0,300.39912000000004,391.74365,0.0,0.0,0.0,0.0,-0.0167542069104028,0.0,-0.052923521935644945,-0.04687210761516686,-0.01928465922349768,-0.05499372259920785,-0.16570366882117885,0.018327613093294583
1682,7.0,300.44068,509.64987,0.0,0.0,0.0,0.0,-0.016764173719986623,0.0,-0.03814384763725466,-0.047353600009686456,-0.06942338788905493,-0.039921952614989965,-0.14569114848109685,0.022697372699806276
1683,7.0,299.67494,608.0309599999999,0.0,0.0,0.0,0.0,-0.016774140529570443,0.0,-0.045678631733129964,-0.056469358236591743,-0.08267824035045701,-0.026902186335789075,-0.11349973684155189,0.009983384427833331
1684,7.0,299.88831,623.95169,0.0,0.0,0.0,0.0,-0.016784107339154267,0.0,-0.06070611863497744,-0.04578159212879136,-0.08317802190928163,-0.02031377985981398,-0.12183354666153487,0.0025312154762115176
1685,7.0,298.98262,454.70536,0.0,0.0,0.0,0.0,-0.016794074148738087,0.0,-0.07040372458605663,-0.05418270809991695,-0.013632642761187088,-0.01881230127862958,-0.13728536750651088,-0.023616603323027275
1686,7.0,299.65691,268.08724,0.0,0.0,0.0,0.0,-0.016804040958321904,0.0,-0.03537271804476547,-0.02066585184556078,-0.02545325895779108,-0.027738424683069373,-0.15551667523080084,-0.013224345527391287
1687,7.0,300.2801,396.99404,0.0,0.0,0.0,0.0,-0.016814007767905727,0.0,-0.03030164650078967,-0.03225405987997787,-0.058120570864553744,-0.04703906083414386,-0.15341901447627784,0.005935317238595204
1688,7.0,300.01987,492.04855,0.0,0.0,0.0,0.0,-0.016823974577489548,0.0,-0.01182883162841479,-0.07440932109337824,-0.06333231901266324,-0.0925619286691511,-0.18517390784024182,-0.026966263258862973
1689,7.0,299.50473,426.27261,0.0,0.0,0.0,0.0,-0.016833941387073368,0.0,-0.024438486956140877,-0.022869376970531777,-0.08226836447300542,-0.057140256459054246,-0.18140156758544085,-0.00982671721724648
1690,7.0,300.25506,317.0334,0.0,0.0,0.0,0.0,-0.01684390819665719,0.0,-0.014917413490484087,-0.059933943025269644,-0.02151887974699808,-0.04231550266371496,-0.14144394856693085,-0.014632108606826686
1691,7.0,300.8561,380.85742,0.0,0.0,0.0,0.0,-0.01685387500624101,0.0,-0.07744219649144973,-0.02041128998318748,-0.01791766020883538,-0.0030358071359108374,-0.11032934820615889,0.047002164345002456
1692,7.0,301.00901,727.26499,0.0,0.0,0.0,0.0,-0.016863841815824832,0.0,-0.09570008176586271,-0.06748148090015363,-0.057888835500433236,-0.019477881964567283,-0.13809189432110885,0.025655410458741874
1693,7.0,299.6852,748.1045799999999,0.0,0.0,0.0,0.0,-0.01687380862540865,0.0,-0.08856020986996223,-0.07874880174715163,-0.06009609951827324,-0.025806696804672676,-0.15383750703257984,0.02713213331348308
1694,7.0,299.38932,508.94257999999996,0.0,0.0,0.0,0.0,-0.016883775434992473,0.0,-0.02713563307932847,-0.05236037880831705,-0.07520982312288163,-0.01834241769050568,-0.15399419602804384,-0.001875927688764648
1695,7.0,299.6711,455.14747,0.0,0.0,0.0,0.0,-0.016893742244576293,0.0,-0.014620964882226885,-0.04022882250052567,-0.08350367947817153,-0.03521963419315727,-0.15423178291149187,-0.001294711016753029
1696,7.0,300.00482,609.5844400000001,0.0,0.0,0.0,0.0,-0.016903709054160113,0.0,-0.08266943318058784,-0.06219792777045753,-0.04043108748548766,-0.054512131919428546,-0.14078663296205887,-0.04516069374576345
1697,7.0,300.4826,660.2968400000001,0.0,0.0,0.0,0.0,-0.016913675863743937,0.0,-0.1061555886592409,-0.03624392263974667,-0.05831423740916714,-0.04916016819598086,-0.15741749188839685,-0.029013876551196673
1698,7.0,299.30811,321.14085,0.0,0.0,0.0,0.0,-0.016923642673327754,0.0,-0.03414763889210957,-0.045566923949355256,-0.017904237684760682,-0.047682499978896356,-0.12388653321914889,0.0015472261139243284
1699,7.0,299.31958,-53.982932,0.0,0.0,0.0,0.0,-0.016933609482911578,0.0,0.032564565306872365,-0.0026943889683404875,-0.013460713470968987,-0.03717888498402026,-0.14484598644018587,0.013185373902045088
1700,7.0,300.51892999999995,244.56838,0.0,0.0,0.0,0.0,-0.016943576292495394,0.0,0.03817182448576576,-0.05675949024372554,-0.055755014889591545,-0.046269664569460356,-0.17250075314199884,0.01787362131973908
1701,7.0,301.59402,667.53905,0.0,0.0,0.0,0.0,-0.016953543102079218,0.0,-0.027852301835308176,-0.1019313185948379,-0.07313158130652513,-0.030944396635474172,-0.17540783860640582,-0.012133653735498387
1702,7.0,300.68572,553.46704,0.0,0.0,0.0,0.0,-0.016963509911663042,0.0,-0.07651890476182793,-0.05562827959358375,-0.036092976745849464,-0.01047718436601759,-0.14019876551904087,0.012172497691331989
1703,7.0,300.00945,517.21678,0.0,0.0,0.0,0.0,-0.01697347672124686,0.0,-0.08526629591487823,-0.058980024798125245,-0.012974665503999788,-0.013882496050345687,-0.13613933098090586,0.005894212113838444
1704,7.0,299.71087,651.0976099999999,0.0,0.0,0.0,0.0,-0.016983443530830682,0.0,-0.07876503604025382,-0.05894237141115914,-0.060210009094515245,-0.06580762618545703,-0.16141069026749483,-0.0036407088329849864
1705,7.0,299.40747999999996,850.22611,0.0,0.0,0.0,0.0,-0.0169934103404145,0.0,-0.08272039358111721,-0.08633242652434711,-0.08939468718856872,-0.06822415066694942,-0.16806188683891682,-0.0008241773982924762
1706,7.0,298.67775,493.8002,0.0,0.0,0.0,0.0,-0.01700337714999832,0.0,-0.0101252249523569,-0.04491154567867446,-0.0950661610925496,-0.04849557137589025,-0.14020247401440689,-0.021828825859837378
1707,7.0,299.29238,278.10967999999997,0.0,0.0,0.0,0.0,-0.017013343959582143,0.0,-0.03752525338495417,-0.017134564802799884,-0.029878579120286172,-0.05002537435037005,-0.14219358138841387,0.016682932888727284
1708,7.0,299.77706,273.86177000000004,0.0,0.0,0.0,0.0,-0.017023310769165963,0.0,-0.052075870339238245,-0.03160187334711207,0.00043060445150485056,-0.026019400292164877,-0.15292857103037485,-0.018464496089053883
1709,7.0,300.34958,353.38403999999997,0.0,0.0,0.0,0.0,-0.017033277578749787,0.0,-0.08085188440295972,-0.03456974267176797,0.008001704940706792,-0.040847209036555664,-0.16309268543349484,0.0015348678064296586
1710,7.0,300.92704,498.20772999999997,0.0,0.0,0.0,0.0,-0.017043244388333604,0.0,-0.053842726214363354,-0.050231635593726454,-0.047368347864891955,-0.033846477657637264,-0.12196128710164188,-0.0069454543303129725
1711,7.0,300.24291,558.39296,0.0,0.0,0.0,0.0,-0.017053211197917424,0.0,-0.05212201374879225,-0.05581948495370425,-0.06179601705204203,-0.06132589028389414,-0.13647766532179686,0.04911033047656225
1712,7.0,299.988,590.17564,0.0,0.0,0.0,0.0,-0.017063178007501248,0.0,-0.013917814909081385,-0.07258337247242114,-0.09289747251926672,-0.048303750972959046,-0.15162314013153885,0.002262371043078638
1713,7.0,299.97227999999996,778.7629900000001,0.0,0.0,0.0,0.0,-0.017073144817085068,0.0,-0.07358651540267364,-0.0926528931968786,-0.07048509363533714,-0.04188009997649406,-0.16248322563084583,0.005561319736584525
1714,7.0,300.50853,804.04362,0.0,0.0,0.0,0.0,-0.017083111626668892,0.0,-0.1054453712666479,-0.06959124695362133,-0.06937256529053913,0.0067860306741540834,-0.14066551917760586,-0.013058960819569088
1715,7.0,299.90514,382.80879,0.0,0.0,0.0,0.0,-0.01709307843625271,0.0,-0.06962495778444834,-0.012843277363532787,-0.033896077263282365,0.009185818189169671,-0.13471799440313087,-0.008852556988879351
1716,7.0,299.62987000000004,-16.352516,0.0,0.0,0.0,0.0,-0.01710304524583653,0.0,0.0030143026250635074,-0.00034238332882060364,0.0022988372049025678,-0.035057581051663865,-0.15369747586875984,-0.01087579695535759
1717,7.0,299.78103,158.85585,0.0,0.0,0.0,0.0,-0.017113012055420353,0.0,0.021396527770922876,-0.03651714856896197,-0.03316758894488617,-0.038430533580798364,-0.16452400252475485,-0.015406413054994586
1718,7.0,299.4748,407.59042,0.0,0.0,0.0,0.0,-0.017122978865004173,0.0,-0.007144140211946743,-0.046233634409154456,-0.07051953704598643,-0.06341664573898563,-0.12107634486180488,0.015777407486358884
1719,7.0,299.26222,524.11962,0.0,0.0,0.0,0.0,-0.017132945674587993,0.0,-0.05809458403923904,-0.05648148684028874,-0.04474320633356066,-0.04073576875080736,-0.1396746517723149,-0.008850188010145553
1720,7.0,299.72351000000003,644.884,0.0,0.0,0.0,0.0,-0.017142912484171813,0.0,-0.099808449191077,-0.05863925359074374,-0.037580931477949164,-0.05936403949327453,-0.18408657902543082,0.006066325004974665
1721,7.0,299.38511,638.1148,0.0,0.0,0.0,0.0,-0.017152879293755634,0.0,-0.07843970575114623,-0.08754574994934282,-0.027985509772954772,-0.055212851105584146,-0.17835584924235184,-0.030631799860373267
1722,7.0,299.98909,689.2013400000001,0.0,0.0,0.0,0.0,-0.017162846103339457,0.0,-0.07145213547777673,-0.05850213045471075,-0.07954573207005253,-0.05163119945335265,-0.14415508159449886,0.017356572965960382
1723,7.0,300.64799,717.39832,0.0,0.0,0.0,0.0,-0.017172812912923274,0.0,-0.06539200315343824,-0.048761390446874546,-0.1039177852833869,-0.022133120063618877,-0.13289463058317888,0.024567009625325077
1724,7.0,300.42951,459.50054000000006,0.0,0.0,0.0,0.0,-0.017182779722507098,0.0,-0.03255882423180577,-0.02599435173644277,-0.08112351345001742,-0.03775653177327957,-0.14380043392699787,0.024020120042851277
1725,7.0,299.97186,206.10421000000002,0.0,0.0,0.0,0.0,-0.01719274653209092,0.0,-0.02232595371665008,-0.016673966638592382,-0.023650614075883876,9.071027794615741e-05,-0.17690875584703483,0.003178257333019577
1726,7.0,300.65628,427.68800999999996,0.0,0.0,0.0,0.0,-0.01720271334167474,0.0,-0.05300265575520485,-0.04386206479484876,-0.03314175410708647,-0.026076814082581178,-0.17386159868880383,-0.014139724786982185
1727,7.0,300.29236000000003,757.23017,0.0,0.0,0.0,0.0,-0.017212680151258562,0.0,-0.1017733123742439,-0.04530644166664766,-0.08309930858851322,-0.028809574933533675,-0.18985067513430282,-0.007363565600602343
1728,7.0,301.18149,799.92053,0.0,0.0,0.0,0.0,-0.01722264696084238,0.0,-0.08087980146971492,-0.08413876336259941,-0.07813730227205133,-0.07325950413165014,-0.18571357497600283,-0.023539504109668177
1729,7.0,300.93987999999996,473.74300999999997,0.0,0.0,0.0,0.0,-0.017232613770426203,0.0,-0.02376218101789468,-0.06234723827869334,-0.05789662638045214,-0.05578429579098135,-0.15431926692512585,-0.01898038224496788
1730,7.0,301.19124,345.40067999999997,0.0,0.0,0.0,0.0,-0.017242580580010023,0.0,-0.008538684531902553,-0.04421554722473475,-0.052238949903082955,-0.05881768288035335,-0.0996834495924905,-0.006980230796270144
1731,7.0,301.19203999999996,377.54094,0.0,0.0,0.0,0.0,-0.017252547389593843,0.0,-0.048522741677321755,-0.033277363447470065,-0.03296291343793627,-0.03744985035226246,-0.10542631203226689,0.004194448391434826
1732,7.0,301.43703999999997,513.7166,0.0,0.0,0.0,0.0,-0.017262514199177664,0.0,-0.08986506625599151,-0.04529446201071536,-0.02099749062979098,-0.03480932971091336,-0.15122862107260285,-0.0024047485901552076
1733,7.0,300.07804,582.8928599999999,0.0,0.0,0.0,0.0,-0.017272481008761484,0.0,-0.07050180415598634,-0.07496875775184034,-0.03171431269745897,-0.024956218240486976,-0.17822886873981986,-0.030488611409241674
1734,7.0,300.00843,250.385,0.0,0.0,0.0,0.0,-0.017282447818345308,0.0,-0.02412066383702418,-0.023195950517512078,-0.02879417251876357,-0.015537356378667684,-0.16485632829255284,-0.005009296927779115
1735,7.0,299.60757,341.08116,0.0,0.0,0.0,0.0,-0.017292414627929124,0.0,-7.909920592323382e-05,-0.03029813052294267,-0.07330292595143552,-0.017742641519062383,-0.16786489075447483,-0.017211499869642783
1736,7.0,299.84814,845.6192599999999,0.0,0.0,0.0,0.0,-0.017302381437512945,0.0,-0.08105309054156723,-0.06668051682860464,-0.1093135345834059,-0.04747761067617536,-0.16183742054710984,0.014332189616976986
1737,7.0,300.1955,726.98014,0.0,0.0,0.0,0.0,-0.01731234824709677,0.0,-0.1009182022438511,-0.051163363643680855,-0.06890224499162215,-0.029288681124067774,-0.17273823870043684,-0.016297631365950985
1738,7.0,299.44988,155.39645,0.0,0.0,0.0,0.0,-0.01732231505668059,0.0,-0.038192390423045466,-0.00918928036343636,0.00014503063100590886,-0.03409577467249097,-0.14465991319182187,-0.016862969192995486
1739,7.0,299.01212999999996,120.28441000000001,0.0,0.0,0.0,0.0,-0.017332281866264412,0.0,-0.0032031702145532866,-0.028319124394879974,-0.005041163440774095,-0.04385472886412476,-0.14528477439599086,-0.011638109588591988
1740,7.0,298.5443,478.35514000000006,0.0,0.0,0.0,0.0,-0.01734224867584823,0.0,-0.06116174376769414,-0.026378453571100677,-0.05786782069335924,-0.06374209863135534,-0.17076716328090683,0.013767244930971288
1741,7.0,299.36057,659.35859,0.0,0.0,0.0,0.0,-0.01735221548543205,0.0,-0.036842670362338466,-0.06899940351721093,-0.09458647430970822,-0.06858739373504873,-0.14088560723182686,0.004530554392705905
1742,7.0,299.80144,295.48035,0.0,0.0,0.0,0.0,-0.017362182295015873,0.0,-0.04660682151373516,-0.024065364699566577,-0.01914646102910858,-0.057820216177161037,-0.12102769872450388,0.012848187573517387
1743,7.0,301.02861,295.37143,0.0,0.0,0.0,0.0,-0.017372149104599693,0.0,-0.07094954214992463,-0.0011340459265716189,-0.017701951421546586,-0.034384916734277064,-0.14400704575488887,0.026552251294503174
1744,7.0,301.04622,654.9564,0.0,0.0,0.0,0.0,-0.017382115914183514,0.0,-0.1008148791046539,-0.056228133785284753,-0.04204737946200326,-0.05249626577922805,-0.15898145355024784,-0.018088016934898286
1745,7.0,300.94024,875.01315,0.0,0.0,0.0,0.0,-0.017392082723767334,0.0,-0.0981533406164805,-0.08395907460311551,-0.08386973431529833,-0.036551128924315564,-0.14987981293698585,-0.015259668096011985
1746,7.0,300.32854,754.6535700000001,0.0,0.0,0.0,0.0,-0.017402049533351154,0.0,-0.04857244666097725,-0.06777166660954274,-0.1130517283098369,-0.017155245237340883,-0.14804782635868285,-0.012310909681492187
1747,7.0,300.56628,220.24766,0.0,0.0,0.0,0.0,-0.017412016342934978,0.0,0.02148234296164218,-0.02117245359080848,-0.06725967944001353,-0.03278149303403147,-0.15209747290085185,0.001245566259077819
1748,7.0,299.61567,90.559515,0.0,0.0,0.0,0.0,-0.017421983152518795,0.0,-0.017730009330065685,-0.007598084565397563,-0.002199737494772188,-0.04982496361309105,-0.17323178269164585,0.004387147890152786
1749,7.0,299.38583,515.76617,0.0,0.0,0.0,0.0,-0.01743194996210262,0.0,-0.08412019859426723,-0.052565427191303755,-0.020094412226414084,-0.05372204204795275,-0.15090741065840185,-0.012650041450211888
1750,7.0,298.83797999999996,670.06889,0.0,0.0,0.0,0.0,-0.01744191677168644,0.0,-0.09544519566345741,-0.07786038507272172,-0.03037863020363737,-0.027811057489987672,-0.13762479615750986,-0.0008277376450363451
1751,7.0,299.33027999999996,402.76128,0.0,0.0,0.0,0.0,-0.01745188358127026,0.0,-0.023292636868554276,-0.06592043537209044,-0.03321630195669376,-0.06068615963450765,-0.14890582627836085,-0.0049101283166419355
1752,7.0,300.34341,485.61195,0.0,0.0,0.0,0.0,-0.017461850390854083,0.0,-0.018766774938386483,-0.05372746293598775,-0.07511966818198403,-0.05543022871578764,-0.16410088954799684,0.017531332263707785
1753,7.0,299.75163,796.01536,0.0,0.0,0.0,0.0,-0.0174718172004379,0.0,-0.03875149372222467,-0.07309152854332222,-0.13012577269741388,-0.06120117540858574,-0.14550227866245685,-0.00999506395908601
1754,7.0,300.02823,778.58186,0.0,0.0,0.0,0.0,-0.017481784010021723,0.0,-0.10427085228073191,-0.06496141644394264,-0.06743717147328064,-0.04248920514160806,-0.13836279686784486,0.02774206833042897
1755,7.0,300.31725,614.7443400000001,0.0,0.0,0.0,0.0,-0.017491750819605544,0.0,-0.07432838672839064,-0.04768539888743245,-0.06485314256475684,-0.03662188113904826,-0.1379211718117599,-0.0040846064063942665
1756,7.0,300.17592,378.72109,0.0,0.0,0.0,0.0,-0.017501717629189364,0.0,-0.07382167352563193,-0.019060574910882283,-0.02223950828436858,-0.04790508062836336,-0.17595542935794883,-0.011271027315863791
1757,7.0,299.83313,273.29188,0.0,0.0,0.0,0.0,-0.017511684438773184,0.0,-0.03513656693670917,-0.02690604884517027,-0.02103129163987688,-0.03478443415595637,-0.16404842345781884,-0.025656049819554976
1758,7.0,300.30496,514.81471,0.0,0.0,0.0,0.0,-0.017521651248357004,0.0,-0.027460361497876676,-0.048857287476088855,-0.08017316692947551,-0.04334300007337105,-0.17094936591388882,-0.002829653905015097
1759,7.0,299.78685,649.36407,0.0,0.0,0.0,0.0,-0.017531618057940828,0.0,-0.059393122810894844,-0.04965249527381975,-0.08834484457445732,-0.04375410603644405,-0.15139706376922688,0.019562069875625983
1760,7.0,299.95002,527.48318,0.0,0.0,0.0,0.0,-0.017541584867524645,0.0,-0.08763970559136551,-0.04466142590473956,-0.028040583968890177,-0.057146949989214844,-0.17821758113370584,0.014136035543368087
1761,7.0,300.38754,485.2622,0.0,0.0,0.0,0.0,-0.017551551677108465,0.0,-0.060142014946554745,-0.07733560156767963,-0.010029975693931532,-0.026435673830747873,-0.13746507754424686,-0.0003834168269277946
1762,7.0,299.77567999999997,630.3194900000001,0.0,0.0,0.0,0.0,-0.01756151848669229,0.0,-0.07569801006081192,-0.07508186078100272,-0.04082151706702006,-0.018831180154492783,-0.1418748737019599,-0.006480282557804094
1763,7.0,300.85994,771.06192,0.0,0.0,0.0,0.0,-0.01757148529627611,0.0,-0.053147865640285945,-0.09436835196068122,-0.08686735164964011,-0.015792465396094985,-0.1304812410974959,0.0027842107526052074
1764,7.0,300.07131,676.84683,0.0,0.0,0.0,0.0,-0.017581452105859933,0.0,-0.01384191133084029,-0.08851408368565993,-0.1033885343586539,-0.03400689440021917,-0.17576120957878083,-0.015546061210276785
1765,7.0,299.76461,316.11587000000003,0.0,0.0,0.0,0.0,-0.01759141891544375,0.0,-0.024409900131069577,-0.010452119598293891,-0.06122931235061265,-0.05548259854720614,-0.16363907041741885,-0.0018364556191940583
1766,7.0,298.93212,178.6774,0.0,0.0,0.0,0.0,-0.01760138572502757,0.0,-0.05699614088408114,0.005362599201797334,-0.0026799251271380177,-0.03817945932526926,-0.15831121900660086,0.0028277192052741573
1767,7.0,298.88512000000003,418.53022000000004,0.0,0.0,0.0,0.0,-0.017611352534611394,0.0,-0.05719669043662384,-0.03485376579404887,-0.035172279949733765,-0.04701382888015366,-0.14327489149763084,-0.008072561925499832
1768,7.0,299.88425,689.10743,0.0,0.0,0.0,0.0,-0.017621319344195214,0.0,-0.08755003093101532,-0.06092560481863904,-0.06099581697106844,-0.05239365799460145,-0.15964925629365487,-0.0003843005228700086
1769,7.0,300.06448,594.7526799999999,0.0,0.0,0.0,0.0,-0.017631286153779038,0.0,-0.04033622093162506,-0.06962056939826523,-0.07083317240243983,-0.04354952780150376,-0.15610286067865284,-0.017376353634412586
1770,7.0,299.82743999999997,270.6435,0.0,0.0,0.0,0.0,-0.017641252963362854,0.0,0.00996126781260059,-0.03380803190909296,-0.05842210193531254,-0.025519357314814476,-0.15310474482526185,-0.004428483124007255
1771,7.0,301.12491,410.02356000000003,0.0,0.0,0.0,0.0,-0.017651219772946675,0.0,-0.02550091312324418,-0.054800846389672454,-0.04433516443879005,-0.03281120355346367,-0.13193645062611387,0.020146831707087483
1772,7.0,300.81549,788.51335,0.0,0.0,0.0,0.0,-0.017661186582530495,0.0,-0.1222760329802049,-0.06322689033975823,-0.05418545096793765,-0.049452532393084954,-0.17357716925323283,0.018555409954276382
1773,7.0,300.08332,969.41094,0.0,0.0,0.0,0.0,-0.017671153392114315,0.0,-0.1153764685442709,-0.09406581473257311,-0.08523444034498431,-0.05163440132366865,-0.16260605180796786,0.009589436943278741
1774,7.0,300.49967000000004,602.1449,0.0,0.0,0.0,0.0,-0.01768112020169814,0.0,-0.07640014881035763,-0.061319672981280535,-0.04531719123695855,-0.04713049753641795,-0.14406696936580288,0.0033305702026266864
1775,7.0,299.79121000000004,293.27448,0.0,0.0,0.0,0.0,-0.01769108701128196,0.0,0.008054630337155123,-0.01991561107401778,-0.07728713680214652,-0.04843451495136446,-0.14188065936003086,-0.006347238665348683
1776,7.0,300.2303,377.78073,0.0,0.0,0.0,0.0,-0.01770105382086578,0.0,-0.01943467698030328,-0.019477550631784583,-0.07592368213633402,-0.04177832103044926,-0.17030202069000083,-0.01952934696364648
1777,7.0,299.82222,555.9058,0.0,0.0,0.0,0.0,-0.0177110206304496,0.0,-0.08145090975607892,-0.013925521689341988,-0.07360505180000303,-0.04703328530857386,-0.14173300855545887,0.01894333072856118
1778,7.0,299.8208,381.11511,0.0,0.0,0.0,0.0,-0.01772098744003342,0.0,-0.09623948039034722,-0.009910584941273582,-0.00969941125878236,-0.005305697507981575,-0.15619907890814885,0.0007012966171225874
1779,7.0,300.12786,155.42446999999999,0.0,0.0,0.0,0.0,-0.017730954249617244,0.0,-0.02353049125002868,-0.03927195774209046,0.015557291061135086,-0.036040981816967965,-0.14733874380620188,-0.0026137004178271475
1780,7.0,300.17092,331.02319,0.0,0.0,0.0,0.0,-0.017740921059201064,0.0,-0.03944620028228686,-0.05250355510044745,-0.008673028930861311,-0.03461444827943007,-0.17855512513951882,-0.04843287145970225
1781,7.0,299.87251000000003,888.27526,0.0,0.0,0.0,0.0,-0.017750887868784884,0.0,-0.04775563231811395,-0.11010219779874089,-0.1121556605839019,-0.06127236230761134,-0.14541757095409685,-0.01975982083139248
1782,7.0,299.18669,887.5010599999999,0.0,0.0,0.0,0.0,-0.017760854678368708,0.0,-0.06981936096188443,-0.11916225462789888,-0.08079653966924762,-0.04175658073630366,-0.1213526277665719,-0.03314112893177477
1783,7.0,299.48135,437.00649000000004,0.0,0.0,0.0,0.0,-0.017770821487952525,0.0,-0.055352813368397355,-0.015745831573492585,-0.061740414952804544,-0.04604001954029616,-0.14460696074159585,0.03232617491609507
1784,7.0,300.61533,354.68407,0.0,0.0,0.0,0.0,-0.01778078829753635,0.0,-0.04072644786313746,-0.06251484301748464,-0.004573811154050016,-0.04228250718745856,-0.18905771573854382,-0.005075297404842855
1785,7.0,300.89391,589.8172599999999,0.0,0.0,0.0,0.0,-0.017790755107120165,0.0,-0.0923293219099446,-0.04816667545968075,-0.038793722946642364,-0.05561329970410535,-0.18443374890719383,0.015522217408923586
1786,7.0,300.84067999999996,829.27547,0.0,0.0,0.0,0.0,-0.01780072191670399,0.0,-0.09860845912414722,-0.07224144210692524,-0.08122913565369151,-0.005744758028063474,-0.17804505503917883,-0.015597372195340785
1787,7.0,301.43429,655.0251,0.0,0.0,0.0,0.0,-0.01781068872628781,0.0,-0.04582712353528496,-0.06189001930356935,-0.09139413361089872,-0.038829791610452066,-0.14247142469833485,-0.002485730881872538
1788,7.0,300.5181,270.83173999999997,0.0,0.0,0.0,0.0,-0.01782065553587163,0.0,0.005199692397094685,-0.038988072421823165,-0.048537706368048654,-0.04645978575197386,-0.15709717313428384,-0.039929949184779163
1789,7.0,300.22488,405.37572,0.0,0.0,0.0,0.0,-0.017830622345455453,0.0,-0.045078421890643865,-0.04221510477755646,-0.03593057099332127,-0.05109056871674655,-0.14044870392120787,-0.018674617815291283
1790,7.0,299.59438,683.31074,0.0,0.0,0.0,0.0,-0.01784058915503927,0.0,-0.08196237104880622,-0.07423939398535773,-0.05150763866990815,-0.06174000256001385,-0.15402092556568184,0.00027145265034779075
1791,7.0,299.00811,599.52912,0.0,0.0,0.0,0.0,-0.01785055596462309,0.0,-0.09264606591770481,-0.032234416000289166,-0.057361398293379245,-0.04748164847782386,-0.18913821845898882,0.008134683579855763
1792,7.0,300.11091,340.21862999999996,0.0,0.0,0.0,0.0,-0.017860522774206914,0.0,-0.019642363866550383,-0.05010854698482855,-0.033667058422679974,-0.037623790943929064,-0.2013807013347278,0.004091642820388706
1793,7.0,299.79773,318.66098,0.0,0.0,0.0,0.0,-0.017870489583790734,0.0,0.006199975530264944,-0.04303923985239226,-0.06002571612657694,-0.025901633272792178,-0.14199804438411587,0.01089668814591939
1794,7.0,300.18675,526.71181,0.0,0.0,0.0,0.0,-0.017880456393374558,0.0,-0.04515455547665766,-0.04986368800541286,-0.06508899577728373,-0.03610429677596667,-0.14541668942650987,0.012826446266121687
1795,7.0,300.67771,705.51991,0.0,0.0,0.0,0.0,-0.017890423202958375,0.0,-0.09537540704956982,-0.04445804533141746,-0.07462698444010994,-0.05418240716463725,-0.14357956567019986,0.03552931888747076
1796,7.0,300.0502,531.84185,0.0,0.0,0.0,0.0,-0.017900390012542195,0.0,-0.06737898862603843,-0.04709402255931816,-0.04719362909714855,-0.05686203925984635,-0.16896216968526784,-0.005096204706081246
1797,7.0,299.10202999999996,476.89578,0.0,0.0,0.0,0.0,-0.01791035682212602,0.0,-0.07252879983528523,-0.05400186930156955,-0.018433740908768582,-0.047746869731249156,-0.15656912797716985,-0.016882785325201183
1798,7.0,299.7898,541.66683,0.0,0.0,0.0,0.0,-0.01792032363170984,0.0,-0.05555294546189885,-0.054971448322259545,-0.05412879610184625,-0.04649591521078955,-0.16584242328987284,-0.038477871612220264
1799,7.0,298.62945,539.08583,0.0,0.0,0.0,0.0,-0.01793029044129366,0.0,-0.03957165381691816,-0.048914147018700456,-0.07538283152445623,-0.023861824032728678,-0.16453469231330986,-0.0017562916282574882
1800,7.0,299.1838,510.09562999999997,0.0,0.0,0.0,0.0,-0.01794025725087748,0.0,-0.03259032719066487,-0.04766746132091216,-0.07479854592054172,-0.026220070421469475,-0.15858279029840286,-0.007898862284707013
1801,7.0,299.65002000000004,289.40698,0.0,0.0,0.0,0.0,-0.0179502240604613,0.0,-0.028839051392192772,-0.03113931353071097,-0.027994131518055673,-0.024469511660952774,-0.15054939900056885,0.02108002896968688
1802,7.0,299.34013,203.5364,0.0,0.0,0.0,0.0,-0.01796019087004512,0.0,-0.012997298471483487,-0.061705965462654645,0.012833282664546386,-0.05834684785038553,-0.15959488529328886,-0.006406471746319534
1803,7.0,300.03511000000003,586.63814,0.0,0.0,0.0,0.0,-0.01797015767962894,0.0,-0.09066555004699312,-0.03238417740481947,-0.05527361774058135,-0.05929756623371414,-0.17336780138506985,0.016215710095365984
1804,7.0,300.00462999999996,905.0978,0.0,0.0,0.0,0.0,-0.017980124489212764,0.0,-0.07367391329004913,-0.11675031408985888,-0.08470290454127581,-0.044585330822229555,-0.15487900654536785,-0.01993815386224258
1805,7.0,299.61912,602.03505,0.0,0.0,0.0,0.0,-0.017990091298796584,0.0,-0.031163461307094176,-0.07594704464388974,-0.07589311643381742,-0.04052973346222326,-0.13023730113592089,-0.011259543139230388
1806,7.0,299.83907999999997,336.43804,0.0,0.0,0.0,0.0,-0.018000058108380405,0.0,-0.02274732896948658,-0.03818006119582867,-0.041341374150075966,-0.039552642205291866,-0.12406933366968989,-0.007865694657258624
1807,7.0,300.12945,575.4273099999999,0.0,0.0,0.0,0.0,-0.018010024917964225,0.0,-0.05442772210659795,-0.061111789524514036,-0.05937602218895714,-0.07000577060928163,-0.14249737403339588,0.01160189400351779
1808,7.0,299.86755,762.868,0.0,0.0,0.0,0.0,-0.018019991727548045,0.0,-0.1101156436275679,-0.06110927261126565,-0.060667902894205844,-0.042618462417114755,-0.15699954648714884,0.004479973960964005
1809,7.0,299.22256,634.8055099999999,0.0,0.0,0.0,0.0,-0.01802995853713187,0.0,-0.07861054174450642,-0.06540085186656153,-0.04895363134859725,-0.028084545850978873,-0.15620399317113384,-0.0012077013054908388
1810,7.0,299.19529,367.16742,0.0,0.0,0.0,0.0,-0.01803992534671569,0.0,-0.035414513598140365,-0.04124115054293467,-0.034954062355197366,-0.017440171165460882,-0.16662896881249883,-0.018535173323279183
1811,7.0,299.01819,361.89011,0.0,0.0,0.0,0.0,-0.01804989215629951,0.0,-0.005139651958444155,-0.03362691041396767,-0.07123899527949143,-0.04757059967760265,-0.19005333528680382,0.004630943767563566
1812,7.0,300.11537000000004,623.02035,0.0,0.0,0.0,0.0,-0.01805985896588333,0.0,-0.07086992804981733,-0.06746078324036094,-0.05105191626518186,-0.04445868063923016,-0.17648840904304983,-0.0032186722318082164
1813,7.0,299.76954,843.4585599999999,0.0,0.0,0.0,0.0,-0.01806982577546715,0.0,-0.07872772817157184,-0.08291327080390272,-0.0947493410910319,-0.05764456116632524,-0.16335451939183585,0.026434590666390975
1814,7.0,300.34586,501.58869000000004,0.0,0.0,0.0,0.0,-0.018079792585050974,0.0,-0.06232185332393804,-0.04636755060862095,-0.04378103417110166,-0.04344778431921246,-0.16158705657990086,-0.00014731895503174888
1815,7.0,299.86037000000005,228.51162999999997,0.0,0.0,0.0,0.0,-0.01808975939463479,0.0,-0.0036390360583948966,-0.04741016570976905,-0.018412627816434882,-0.051670194383451155,-0.16611987143225485,0.010701934383948689
1816,7.0,301.09576,366.94045,0.0,0.0,0.0,0.0,-0.01809972620421861,0.0,-0.036923589528574566,-0.03007727949139637,-0.04453986527699246,-0.027374605075663177,-0.15213491249204686,-0.023134048029152775
1817,7.0,299.73437,507.34837000000005,0.0,0.0,0.0,0.0,-0.018109693013802435,0.0,-0.03779821282939317,-0.05408400740767595,-0.062339015754131845,-0.023682064345737774,-0.15016440449257284,-0.019932272958662182
1818,7.0,299.98666000000003,352.99549,0.0,0.0,0.0,0.0,-0.018119659823386255,0.0,-0.03425763023021487,-0.04000820552975246,-0.03303597890264726,-0.02911096820227887,-0.13472154077848086,-0.013757946334803588
1819,7.0,299.5033,205.23629,0.0,0.0,0.0,0.0,-0.01812962663297008,0.0,-0.02870530339224287,-0.01995333741499108,-0.013728065589354589,-0.04820276134874216,-0.18085757387175283,0.004117386364354396
1820,7.0,298.88916,402.23278999999997,0.0,0.0,0.0,0.0,-0.018139593442553895,0.0,-0.06527180129407523,-0.04409117280145995,-0.012905751324948488,-0.05617265023630895,-0.15984803569827283,-0.0007843112453604933
1821,7.0,298.79411,689.8117599999999,0.0,0.0,0.0,0.0,-0.018149560252137716,0.0,-0.07647545051803933,-0.06124029902144693,-0.07196980292736653,-0.04599703848430425,-0.18212459245929782,-0.018989873358654583
1822,7.0,299.65247,880.55576,0.0,0.0,0.0,0.0,-0.01815952706172154,0.0,-0.07990101301886603,-0.09470544000394922,-0.09306050952660722,-0.02223052480898198,-0.16929934892104484,-0.0002107771267995828
1823,7.0,299.09259,691.59515,0.0,0.0,0.0,0.0,-0.01816949387130536,0.0,-0.052856055690986545,-0.07710924858809033,-0.08026235219002742,-0.04038844384177906,-0.17525603347642382,-0.023003100652479274
1824,7.0,299.9965,444.68109000000004,0.0,0.0,0.0,0.0,-0.01817946068088918,0.0,-0.057406534532333846,-0.023577253755393775,-0.05418816141195515,-0.03715510400417326,-0.13910083810818388,0.02180371448260908
1825,7.0,300.59897,366.41381,0.0,0.0,0.0,0.0,-0.018189427490473,0.0,-0.03787853215157007,-0.036418919038017465,-0.03708319871082676,-0.03565934927280376,-0.14376014710302187,-0.002546735731968248
1826,7.0,299.78072000000003,396.01726,0.0,0.0,0.0,0.0,-0.01819939430005682,0.0,-0.03593705174096087,-0.028622418520812768,-0.05581988924049414,-0.051379799944541456,-0.14751120910572285,0.03139023275897477
1827,7.0,300.17896,419.77468,0.0,0.0,0.0,0.0,-0.01820936110964064,0.0,-0.02668860233395997,-0.04307999378466436,-0.05783242584086605,-0.02886590049334257,-0.17606166863093384,-0.00992078603930535
1828,7.0,300.22681,384.88234,0.0,0.0,0.0,0.0,-0.01821932791922446,0.0,-0.026468347093472473,-0.04712160829329066,-0.04340466546120696,-0.04488313718562075,-0.15579300879807284,0.0013892767366609387
1829,7.0,299.93011,494.49116,0.0,0.0,0.0,0.0,-0.018229294728808285,0.0,-0.05532425795407915,-0.04101348135146546,-0.05397522690344015,-0.025061972166674076,-0.17156636429728184,-0.028894912883455873
1830,7.0,300.45604,737.8580099999999,0.0,0.0,0.0,0.0,-0.018239261538392105,0.0,-0.0988956060964864,-0.05850217605096524,-0.06689262857803843,-0.05219425240142165,-0.15960886814466885,0.004920334582249215
1831,7.0,300.27837,598.81975,0.0,0.0,0.0,0.0,-0.01824922834797592,0.0,-0.08028822857108121,-0.06567336446770644,-0.036064659445304764,-0.05514927472805965,-0.15911268970319983,-0.006528853511947675
1832,7.0,299.60936,558.08019,0.0,0.0,0.0,0.0,-0.018259195157559745,0.0,-0.059338809565784544,-0.045717038978170456,-0.06458659192720034,-0.06236544739624044,-0.16358087946417585,0.024469458971947577
1833,7.0,299.93517,611.71992,0.0,0.0,0.0,0.0,-0.018269161967143566,0.0,-0.061296960980289035,-0.04891200196823876,-0.07573861707181952,-0.038377460553810465,-0.16367744219870584,-0.018493704036436482
1834,7.0,300.48622,461.08137,0.0,0.0,0.0,0.0,-0.01827912877672739,0.0,-0.01983299471386418,-0.04530787541553916,-0.07501635213553752,-0.04666081355856375,-0.15592383965098486,0.013042201662915087
1835,7.0,299.90821,271.97938,0.0,0.0,0.0,0.0,-0.01828909558631121,0.0,-0.008764071073546471,-0.02679987948644218,-0.04711098943224266,-0.022005222569746376,-0.17653092501724582,-0.01267571923424609
1836,7.0,299.51666,514.80638,0.0,0.0,0.0,0.0,-0.018299062395895026,0.0,-0.049681001038883045,-0.055854012464111855,-0.05095327130169636,-0.03065092698251097,-0.13756205571131788,0.006355891517227655
1837,7.0,300.12287000000003,383.1549,0.0,0.0,0.0,0.0,-0.01830902920547885,0.0,-0.05674550941884575,-0.03859985577850916,-0.02112415702479198,-0.014955691039511786,-0.15921805758109883,-0.039454285004834756
1838,7.0,300.46972999999997,317.35787,0.0,0.0,0.0,0.0,-0.01831899601506267,0.0,-0.03223331054443007,-0.03840074402785836,-0.025834813481697576,-0.040379375253384066,-0.15867898826289686,-0.004511373568312905
1839,7.0,300.76087,565.56898,0.0,0.0,0.0,0.0,-0.01832896282464649,0.0,-0.03013975345281207,-0.08028757806451703,-0.06149151513199004,-0.033967853873866166,-0.1738554887907008,-0.047022404015749954
1840,7.0,300.89242,521.4671400000001,0.0,0.0,0.0,0.0,-0.01833892963423031,0.0,-0.056500757843940645,-0.038065398774762366,-0.06394683392006115,-0.03604358485647487,-0.16057676517019284,0.01863799996992738
1841,7.0,300.64515,471.40812,0.0,0.0,0.0,0.0,-0.01834889644381413,0.0,-0.03548330720042976,-0.07206071577933892,-0.035752275452724865,-0.036832279482562964,-0.16258589826347886,-0.04338652929766705
1842,7.0,300.7568,538.09924,0.0,0.0,0.0,0.0,-0.018358863253397955,0.0,-0.10012041572461572,-0.011918950092308788,-0.051529366805052546,-0.04525125803970145,-0.14719140710916084,0.024794537975030374
1843,7.0,300.70009,488.96390999999994,0.0,0.0,0.0,0.0,-0.018368830062981775,0.0,-0.05166443101688235,-0.05456564571020994,-0.04240274248407486,-0.05173737185183105,-0.16323623257516184,-0.0031155533638311766
1844,7.0,301.29811,424.18922000000003,0.0,0.0,0.0,0.0,-0.0183787968725656,0.0,-0.03949956715180376,-0.04556752885966495,-0.04387583587695786,-0.05880829410492674,-0.13171411315667086,0.018205582317501086
1845,7.0,300.46902,608.58705,0.0,0.0,0.0,0.0,-0.018388763682149416,0.0,-0.04553911124736036,-0.06431485547563204,-0.07514129904511883,-0.038435398194528465,-0.15608033612892983,-0.018333492983624883
1846,7.0,298.97269,581.8123400000001,0.0,0.0,0.0,0.0,-0.018398730491733236,0.0,-0.06869189021786173,-0.050109598738432355,-0.05805493353632584,-0.03794842107721757,-0.14899857919251486,0.0026397988019778574
1847,7.0,299.73104,483.69725999999997,0.0,0.0,0.0,0.0,-0.01840869730131706,0.0,-0.05610336216797075,-0.04546849582139116,-0.04546003214330586,-0.05543836714059085,-0.16710987757496085,-0.011914374254857188
1848,7.0,300.57025,602.97414,0.0,0.0,0.0,0.0,-0.01841866411090088,0.0,-0.06805974171897354,-0.059175493914666547,-0.056053845648833846,-0.03249059399657197,-0.16033923908175085,0.012957397695795589
1849,7.0,300.4667,796.1535,0.0,0.0,0.0,0.0,-0.018428630920484704,0.0,-0.0960426778366743,-0.0863242394635391,-0.05964386776014144,-0.058839866978042735,-0.17615823136546382,-0.0016466048731322484
1850,7.0,300.40622,640.7021900000001,0.0,0.0,0.0,0.0,-0.01843859773006852,0.0,-0.05616064626237425,-0.05215090454889355,-0.08644591661504772,-0.050417477821067654,-0.18655600124164382,0.01079839174046829
1851,7.0,299.72999,417.32898,0.0,0.0,0.0,0.0,-0.01844856453965234,0.0,-0.02995777677460237,-0.04998377232776425,-0.04691603808650246,-0.03228193641672907,-0.18576507847858584,0.0018801374389551182
1852,7.0,299.03123999999997,564.13033,0.0,0.0,0.0,0.0,-0.01845853134923616,0.0,-0.029656755368643872,-0.06287027392731294,-0.07895450468970291,-0.03261511736761147,-0.16177383910333484,0.01887057734488098
1853,7.0,301.09153,594.74718,0.0,0.0,0.0,0.0,-0.018468498158819985,0.0,-0.06578162618789103,-0.051650420807749654,-0.06335624488727454,-0.023937926207989377,-0.17458249573745085,0.003909781146065356
1854,7.0,300.62965,451.43363,0.0,0.0,0.0,0.0,-0.018478464968403805,0.0,-0.039216590716876165,-0.07987511231980983,-0.01813284919882288,-0.039041984419893865,-0.15241298884949087,-0.006711399738038583
1855,7.0,300.89993,509.27108,0.0,0.0,0.0,0.0,-0.018488431777987625,0.0,-0.04845073607221536,-0.061473040542916746,-0.044881915206000156,-0.04290398818929396,-0.15052132184029787,0.0015431532538223685
1856,7.0,300.14855,541.3428299999999,0.0,0.0,0.0,0.0,-0.018498398587571442,0.0,-0.029042659946787373,-0.07248889804634723,-0.06302314499640015,-0.046673158997782155,-0.14057395176606888,-0.0017958836666399185
1857,7.0,300.63594,649.094,0.0,0.0,0.0,0.0,-0.018508365397155266,0.0,-0.025818560950093574,-0.1043530876588479,-0.06713671951387834,-0.039194050968401666,-0.15996957504776785,-0.024165708883469774
1858,7.0,300.03386,640.9526099999999,0.0,0.0,0.0,0.0,-0.018518332206739086,0.0,-0.07320866734763293,-0.043631682119611756,-0.07799323938608342,-0.03887409293132426,-0.16495858549264483,-0.003862322031256506
1859,7.0,300.54504,526.91333,0.0,0.0,0.0,0.0,-0.01852829901632291,0.0,-0.058474354229719444,-0.053994869769878745,-0.047699270281301456,-0.03603943053106486,-0.18826807980311283,-0.009497953631500041
1860,7.0,299.24602000000004,212.59037,0.0,0.0,0.0,0.0,-0.01853826582590673,0.0,-0.03419717668949857,-0.0018430281672927181,-0.028581958431069674,-0.03694772311945636,-0.17740476203598682,0.01901504249113858
1861,7.0,299.58069,422.93878,0.0,0.0,0.0,0.0,-0.018548232635490547,0.0,-0.04740191785395505,-0.05086738214371975,-0.030293528340988474,-0.038318189475960863,-0.19555594194236883,-0.007602884736421303
1862,7.0,299.73927000000003,679.77348,0.0,0.0,0.0,0.0,-0.01855819944507437,0.0,-0.07274714205958394,-0.05961311460635634,-0.07427390629701383,-0.046190168006364656,-0.17012405344243683,0.015946192661516683
1863,7.0,299.60177999999996,476.47025999999994,0.0,0.0,0.0,0.0,-0.01856816625465819,0.0,-0.03879537251780517,-0.03464427025637327,-0.07139541779017913,-0.05248637645825204,-0.16085130528478786,0.006468767983667694
1864,7.0,300.22872,436.60523,0.0,0.0,0.0,0.0,-0.01857813306424201,0.0,-0.026498649350963077,-0.06097802531256254,-0.045240412210631055,-0.05529359700605315,-0.15240977684667387,-0.015900111060218786
1865,7.0,300.00937000000005,603.53946,0.0,0.0,0.0,0.0,-0.018588099873825835,0.0,-0.07849947129504463,-0.04881306012247395,-0.05614839505541515,-0.06563356096402814,-0.15337634651456686,-0.01314249822406359
1866,7.0,300.19114,653.54044,0.0,0.0,0.0,0.0,-0.01859806668340965,0.0,-0.06365224158598713,-0.07064268442339014,-0.06436504884583573,-0.058830225903341235,-0.15592402203600286,-0.01982983337355218
1867,7.0,300.74512000000004,464.416,0.0,0.0,0.0,0.0,-0.018608033492993475,0.0,-0.06114405140769804,-0.03816124412822156,-0.041865571996560255,-0.04430451868951556,-0.16972724443827486,0.006172514527379754
1868,7.0,301.5794,319.83462000000003,0.0,0.0,0.0,0.0,-0.018618000302577296,0.0,-0.018292378334317183,-0.017873732777250084,-0.06105562709797124,-0.043393649406119755,-0.17117605022626084,0.0016780809808636984
1869,7.0,300.37185,103.40479,0.0,0.0,0.0,0.0,-0.018627967112161116,0.0,0.0023655867777652374,-0.024068372025863375,-0.009729689096945552,-0.027774519691381675,-0.16310206812942085,0.006679030146368953
1870,7.0,300.00846,439.74960999999996,0.0,0.0,0.0,0.0,-0.018637933921744936,0.0,-0.02095865680645838,-0.05813417881339675,-0.05458006527238304,-0.03536421991617676,-0.16127674873677583,-0.015430789825900387
1871,7.0,299.49857000000003,914.57107,0.0,0.0,0.0,0.0,-0.018647900731328756,0.0,-0.1124169473871889,-0.07166755954178744,-0.09392226455115582,-0.032480325720058566,-0.15525150767963083,0.013411621503623988
1872,7.0,298.92381,812.12779,0.0,0.0,0.0,0.0,-0.01865786754091258,0.0,-0.08989280499072912,-0.09841143872170281,-0.05856232561665154,-0.06185235477085215,-0.1763670520785728,-0.008588902321433662
1873,7.0,299.1379,519.09715,0.0,0.0,0.0,0.0,-0.0186678343504964,0.0,-0.05443329295564775,-0.05324272003514735,-0.05011655774011915,-0.05328079696065524,-0.16579782002047083,-0.007173155743135353
1874,7.0,299.75205,533.3353599999999,0.0,0.0,0.0,0.0,-0.01867780116008022,0.0,-0.04063830017068796,-0.06021808672431244,-0.06126424617431034,-0.03431222617210307,-0.16716297188020085,-0.019726940865647483
1875,7.0,300.01631000000003,589.20488,0.0,0.0,0.0,0.0,-0.01868776796966404,0.0,-0.04372693573501255,-0.05189091875873495,-0.08348571658039872,-0.01987221559873498,-0.16447717010513285,0.0025727944980400473
1876,7.0,300.07282999999995,388.04532,0.0,0.0,0.0,0.0,-0.01869773477924786,0.0,-0.02266388681050148,-0.02166712330287858,-0.07362507666172934,-0.01960184298180128,-0.16066799820919683,-0.0011765643325678588
1877,7.0,300.36483,216.49777000000003,0.0,0.0,0.0,0.0,-0.018707701588831685,0.0,-0.022402050825660276,-0.03231106938360427,-0.01109679592141849,-0.03723362784717297,-0.15751944511345886,-0.011501371487596989
1878,7.0,300.03629,229.16173999999998,0.0,0.0,0.0,0.0,-0.018717668398415505,0.0,-0.029746029795204573,-0.01022528329840689,-0.02968813268449057,-0.05455096878251146,-0.16303414997521784,0.013777283199711988
1879,7.0,299.95927,517.28774,0.0,0.0,0.0,0.0,-0.018727635207999326,0.0,-0.07528648055919714,-0.04145380640767216,-0.04050226931826276,-0.04768282624542855,-0.16019755632026786,0.005843556904239165
1880,7.0,299.73177999999996,779.3017,0.0,0.0,0.0,0.0,-0.018737602017583146,0.0,-0.058958000793951644,-0.08778004579646602,-0.0901502110461331,-0.038518601226489965,-0.17221059884336282,-0.01039139045355039
1881,7.0,299.93716,892.4789,0.0,0.0,0.0,0.0,-0.018747568827166963,0.0,-0.0977281626360187,-0.06072649408123834,-0.1128366457111099,-0.054319209100388545,-0.15992469820083885,0.010766410527561991
1882,7.0,299.83552000000003,662.57241,0.0,0.0,0.0,0.0,-0.018757535636750786,0.0,-0.05007925189793736,-0.1016505773896309,-0.04967563891935386,-0.03572637272716847,-0.16081851651155185,-0.03717978576335917
1883,7.0,300.19268999999997,373.98609,0.0,0.0,0.0,0.0,-0.018767502446334607,0.0,-0.07065750827235313,-0.02408183102694168,-0.018943093628037783,-0.060018715581636045,-0.17056812043126282,0.0006098077729983415
1884,7.0,299.83207000000004,528.71831,0.0,0.0,0.0,0.0,-0.01877746925591843,0.0,-0.05604286201774985,-0.059462176818459944,-0.04521212632083946,-0.021870753135725278,-0.18443035451935882,-0.030485166358901673
1885,7.0,300.02205,440.8745,0.0,0.0,0.0,0.0,-0.01878743606550225,0.0,-0.05757989858469355,-0.04261121261264925,-0.03382372715314197,-0.04145838629812416,-0.17578008642814383,0.004161387256571947
1886,7.0,299.76275,153.62136,0.0,0.0,0.0,0.0,-0.018797402875086067,0.0,0.025601161048387874,-0.035454715309107966,-0.03684350325392067,-0.008327199072355561,-0.17427371790197682,-0.04981297585115795
1887,7.0,301.24264,465.71115999999995,0.0,0.0,0.0,0.0,-0.01880736968466989,0.0,-0.020220850640142583,-0.05814241349695945,-0.06320129969523264,-0.058107927529805946,-0.14343329288576387,0.02873906589882497
1888,7.0,300.48534,768.46014,0.0,0.0,0.0,0.0,-0.01881733649425371,0.0,-0.04736088325140526,-0.08576308939915792,-0.10046872145974081,-0.041004640744342964,-0.16725013165380284,-0.014048960882774485
1889,7.0,300.58981,827.76463,0.0,0.0,0.0,0.0,-0.018827303303837535,0.0,-0.09399765339834609,-0.07043979730286673,-0.08718232854922592,-0.05891509573171724,-0.15680785983323087,0.02499792462785308
1890,7.0,299.86044,661.76094,0.0,0.0,0.0,0.0,-0.018837270113421355,0.0,-0.06404344934359635,-0.09388656471038251,-0.04322878956184936,-0.057177902753269644,-0.13876701273023787,-0.012163009617395588
1891,7.0,300.1966,596.0752200000001,0.0,0.0,0.0,0.0,-0.018847236923005172,0.0,-0.08001483646884952,-0.06583692329884844,-0.035340222100808366,-0.07464666884980263,-0.15585315532400887,0.011684756583445689
1892,7.0,299.17791,462.54675999999995,0.0,0.0,0.0,0.0,-0.018857203732588996,0.0,-0.027831595056264577,-0.07236620460498833,-0.040404864572899664,-0.017794701295950285,-0.19095564463335482,-0.025128657195505374
1893,7.0,300.08277000000004,544.6313299999999,0.0,0.0,0.0,0.0,-0.018867170542172816,0.0,-0.06611294681158984,-0.06393370017226493,-0.03550767789183496,-0.03941750605270496,-0.18342221119986282,-0.017649087124079282
1894,7.0,298.67692,471.85329,0.0,0.0,0.0,0.0,-0.01887713735175664,0.0,-0.045037777389382555,-0.04977682612734025,-0.04861701345337565,0.00021278729340797083,-0.18050910702986184,-0.015116464446128883
1895,7.0,300.1323,322.27211,0.0,0.0,0.0,0.0,-0.01888710416134046,0.0,-0.04790484150133975,-0.042421709512696755,-0.007636122784751643,-0.04450035257609286,-0.16451876402173785,-0.007121559933468242
1896,7.0,299.82544,302.45046,0.0,0.0,0.0,0.0,-0.018897070970924277,0.0,-0.03455239380355577,-0.035544159961685466,-0.02184083388677248,-0.054474335664198355,-0.15814726500791987,-0.004063737709984686
1897,7.0,300.31023999999996,763.66408,0.0,0.0,0.0,0.0,-0.0189070377805081,0.0,-0.08147440803914802,-0.05492800218447175,-0.09573240343080261,-0.07525158827875353,-0.16696063596773186,0.02835284029195747
1898,7.0,300.68231000000003,936.67251,0.0,0.0,0.0,0.0,-0.01891700459009192,0.0,-0.04882795388569386,-0.1122805233937249,-0.12361658312750688,-0.052478829771507245,-0.15234298340008184,-0.014648904240484286
1899,7.0,301.01408,673.73694,0.0,0.0,0.0,0.0,-0.01892697139967574,0.0,-0.058713959507366645,-0.06987643227376694,-0.07620881375422432,-0.06781584634040294,-0.13978315059302288,0.02094161596627658
1900,7.0,301.27151000000003,655.15501,0.0,0.0,0.0,0.0,-0.018936938209259565,0.0,-0.05005382134692755,-0.0876893963895196,-0.06140754709620304,-0.047078403309026656,-0.17427773037237285,-0.026351813199471476
1901,7.0,301.69796,530.02465,0.0,0.0,0.0,0.0,-0.01894690501884338,0.0,-0.07800092387484184,-0.05672168385599435,-0.026391650140403074,-0.04403193313436346,-0.15614100954491786,0.017585179413772082
1902,7.0,300.51681,236.23005,0.0,0.0,0.0,0.0,-0.018956871828427202,0.0,-0.01977962885759738,-0.03693415772711756,-0.015094248937686384,-0.03342347917814057,-0.18713210485100085,-0.04579025744364655
1903,7.0,300.60322,444.91731,0.0,0.0,0.0,0.0,-0.018966838638011022,0.0,-0.05028099201934755,-0.041911315172324756,-0.04305144546309686,-0.026619134920354077,-0.16219368941477086,0.02304027375889798
1904,7.0,301.44024,619.05492,0.0,0.0,0.0,0.0,-0.018976805447594846,0.0,-0.027915188189514575,-0.05780093808075844,-0.1024611065421239,-0.06040053456381865,-0.18940160268998282,-0.038014316784220965
1905,7.0,300.22326,367.47652,0.0,0.0,0.0,0.0,-0.018986772257178666,0.0,-0.03731198146415587,-0.02618519536627758,-0.04820650936086205,-0.025049386587181977,-0.15776427673512183,0.00990803600932202
1906,7.0,299.57956,632.216,0.0,0.0,0.0,0.0,-0.018996739066762483,0.0,-0.043645341744209865,-0.07157229072763513,-0.07696024509463482,-0.052366531262924246,-0.14342997955793685,-0.015526129567559683
1907,7.0,299.47312,1010.1348,0.0,0.0,0.0,0.0,-0.019006705876346307,0.0,-0.12486470460068688,-0.08297633852987701,-0.09921471199022971,-0.01950576154106878,-0.13646529353807588,0.03615175234440017
1908,7.0,298.9606,651.4399400000001,0.0,0.0,0.0,0.0,-0.019016672685930127,0.0,-0.051535806009438044,-0.06116659419592285,-0.0853190750993371,-0.04630781444897546,-0.17005399733052284,0.013552634506790886
1909,7.0,299.91747000000004,474.88254000000006,0.0,0.0,0.0,0.0,-0.01902663949551395,0.0,-0.04394438123297276,-0.04145691404572886,-0.058951139064274446,-0.03279993823885187,-0.14634391459301987,0.02087365120256898
1910,7.0,301.00023,625.24057,0.0,0.0,0.0,0.0,-0.01903660630509777,0.0,-0.040071940987542666,-0.06613242857126253,-0.08385315247741182,-0.03283006216432487,-0.17196577735420085,0.002526966918542218
1911,7.0,299.69155,423.21535,0.0,0.0,0.0,0.0,-0.019046573114681588,0.0,-0.05176218938653035,-0.032116664179667964,-0.04476804514651205,-0.04217745341709056,-0.17049913836445485,-0.0029534193649797973
1912,7.0,299.76592999999997,377.89097000000004,0.0,0.0,0.0,0.0,-0.01905653992426541,0.0,-0.02916610319322027,-0.05047344367709105,-0.03522987207216767,-0.05579952493998435,-0.20442215389489582,-0.009129455848382142
1913,7.0,300.37359,596.51546,0.0,0.0,0.0,0.0,-0.019066506733849232,0.0,-0.07336936374724243,-0.04678131837970666,-0.06117512170876444,-0.05074830093896735,-0.17432181688422382,0.002413779384321478
1914,7.0,300.37465,368.97528,0.0,0.0,0.0,0.0,-0.019076473543433056,0.0,-0.025994108556418774,-0.03030057144243357,-0.05586459079515585,-0.04593418354085096,-0.15831892983986184,-0.01070116026087229
1915,7.0,301.17677000000003,195.26622,0.0,0.0,0.0,0.0,-0.019086440353016876,0.0,-0.02035053854694178,-0.006327547568205323,-0.03267797028456457,-0.03211493962799777,-0.15715427990991987,-0.000995913451584005
1916,7.0,300.62085,620.1486,0.0,0.0,0.0,0.0,-0.019096407162600693,0.0,-0.04426365836598296,-0.05679732297595935,-0.08744870794751551,-0.025892995315689678,-0.17222154194444284,-0.0005544214858996404
1917,7.0,299.77731,846.3566599999999,0.0,0.0,0.0,0.0,-0.019106373972184516,0.0,-0.10414918120872389,-0.06842043950282163,-0.08470167344240433,-0.03060357172583737,-0.1333637045844729,0.009433767480065362
1918,7.0,299.68725,516.66565,0.0,0.0,0.0,0.0,-0.019116340781768337,0.0,-0.04406109143249116,-0.07212368218030324,-0.040868680819424755,-0.029645676492050476,-0.16838869039366985,-0.014736085292338386
1919,7.0,300.35035,497.5812,0.0,0.0,0.0,0.0,-0.01912630759135216,0.0,-0.06134560509108984,-0.06689761072878014,-0.023009043364315775,-0.06780629037870985,-0.16041105824883886,0.018279829231828682
1920,7.0,299.94882,715.38847,0.0,0.0,0.0,0.0,-0.01913627440093598,0.0,-0.06982584069627393,-0.07562447444805452,-0.07200991547232534,-0.06797348069821023,-0.2012618572304988,-0.01124002186280379
1921,7.0,299.59517999999997,556.60564,0.0,0.0,0.0,0.0,-0.019146241210519797,0.0,-0.05637059877584495,-0.057264461669562346,-0.055559154658511654,-0.061936576119164144,-0.18098581080440884,0.00956002482600099
1922,7.0,299.04516,455.59160999999995,0.0,0.0,0.0,0.0,-0.01915620802010362,0.0,-0.03764795391906376,-0.042698407850004755,-0.05814211154842965,-0.038903087082935765,-0.15530916161032085,-0.027375571716258575
1923,7.0,300.57468,508.29984,0.0,0.0,0.0,0.0,-0.01916617482968744,0.0,-0.06127289629041404,-0.04242005690178366,-0.05081750592079736,-0.03436851626815847,-0.19014076863793283,-0.0028895551231018874
1924,7.0,300.66341,104.05608000000001,0.0,0.0,0.0,0.0,-0.019176141639271265,0.0,-0.015426245399201883,-0.00897415551218019,-0.007230048520350233,0.0012074523499412688,-0.18586977761141882,-0.023047011872062977
1925,7.0,300.43481,267.3288,0.0,0.0,0.0,0.0,-0.019186108448855085,0.0,-0.018371683393143982,-0.032925627860756465,-0.02996396874596347,-0.013324682618543787,-0.17504938111852883,0.0016100314081227286
1926,7.0,300.15663,772.19212,0.0,0.0,0.0,0.0,-0.019196075258438902,0.0,-0.0935143685643996,-0.042698431154757056,-0.09851432312360671,-0.0025531528475015676,-0.16427991057566482,0.006181212468888174
1927,7.0,299.55669,749.96848,0.0,0.0,0.0,0.0,-0.019206042068022722,0.0,-0.06189166887473214,-0.06743588160590333,-0.09864414072641872,-0.05916010771189804,-0.16396996750257584,0.006042624477185604
1928,7.0,299.81554,542.53633,0.0,0.0,0.0,0.0,-0.019216008877606543,0.0,-0.053754875404193145,-0.06761136132447183,-0.043551261472424864,-0.06737902408979193,-0.16045114242279485,0.004947948180599465
1929,7.0,299.72718,561.75304,0.0,0.0,0.0,0.0,-0.019225975687190366,0.0,-0.058316534447143846,-0.05081316819711925,-0.06162919352907784,-0.058561472460067356,-0.17039481413415883,-0.01021479717312199
1930,7.0,299.36953,572.40733,0.0,0.0,0.0,0.0,-0.019235942496774187,0.0,-0.07638493587335624,-0.06663412719927635,-0.030978471223087074,-0.07067428465425883,-0.16642612627497982,-0.017870513681682382
1931,7.0,299.50262999999995,377.69817,0.0,0.0,0.0,0.0,-0.019245909306358003,0.0,-0.030332664112850873,-0.04713571577443296,-0.03734243368266126,-0.042359571950314256,-0.17498827200499784,-0.008499506710161002
1932,7.0,299.60393,327.51234,0.0,0.0,0.0,0.0,-0.019255876115941827,0.0,-0.023811088573721478,-0.043559507301738666,-0.03218497851466007,-0.048583595451827555,-0.1930574090507828,-0.0022294123478008676
1933,7.0,298.78642,323.44844,0.0,0.0,0.0,0.0,-0.019265842925525647,0.0,-0.023992783568403377,-0.028665036833268872,-0.04566242783753076,-0.016427183497236784,-0.14906133990370884,0.00988090937896983
1934,7.0,300.12638,403.18568,0.0,0.0,0.0,0.0,-0.01927580973510947,0.0,-0.043336692591498555,-0.02635404842919208,-0.05286763815287965,-0.028887244606699076,-0.14677593403815686,-3.0312190381330272e-05
1935,7.0,300.40192,815.40394,0.0,0.0,0.0,0.0,-0.01928577654469329,0.0,-0.07777920955421032,-0.06719083416196903,-0.1028923964471889,-0.034098532739263165,-0.15793976151994085,-0.016466747873891484
1936,7.0,300.61387,848.12503,0.0,0.0,0.0,0.0,-0.01929574335427711,0.0,-0.07979792495369202,-0.07382958498241272,-0.1041813215018959,-0.047588947610413455,-0.18871497375971782,-0.012916437060503088
1937,7.0,300.51991,483.67384000000004,0.0,0.0,0.0,0.0,-0.019305710163860932,0.0,-0.04769833505145916,-0.04997759454190455,-0.04934883941760125,-0.028330659234018372,-0.18355428835039783,-0.004573533320872595
1938,7.0,300.4376,510.68882,0.0,0.0,0.0,0.0,-0.019315676973444752,0.0,-0.025840669054025475,-0.04858589350305435,-0.08081008479658443,-0.016987187575754882,-0.16794612301499184,0.01965110922816348
1939,7.0,300.35001,632.2143900000001,0.0,0.0,0.0,0.0,-0.019325643783028576,0.0,-0.05687160636729054,-0.06420153966394863,-0.07110424213544234,-0.033915935951992264,-0.17577082532222982,0.02398922199430188
1940,7.0,300.11606,432.66925999999995,0.0,0.0,0.0,0.0,-0.019335610592612396,0.0,-0.03485383266855547,-0.056740383386589856,-0.03992643422018226,-0.036949989759930066,-0.14551761926897086,0.03321103508267397
1941,7.0,299.62645,270.80467000000004,0.0,0.0,0.0,0.0,-0.019345577402196213,0.0,-0.02055530220665038,-0.05832350662108195,-0.003439047137132527,-0.03770628875382096,-0.13459286814828186,-0.028418698508707176
1942,7.0,299.60889,511.32512,0.0,0.0,0.0,0.0,-0.019355544211780037,0.0,-0.05600812679107174,-0.03945206294736547,-0.05996987895331624,-0.03806561358378356,-0.13749494815719487,0.004590115969359175
1943,7.0,298.99279,675.43989,0.0,0.0,0.0,0.0,-0.019365511021363857,0.0,-0.0955410156856641,-0.05999234574778354,-0.049783499392498855,-0.04853866287614305,-0.16444056137901986,-0.03004764699222187
1944,7.0,299.89052000000004,733.6648799999999,0.0,0.0,0.0,0.0,-0.01937547783094768,0.0,-0.07008034176364124,-0.06567013219988743,-0.08726532994441752,-0.06319094833221103,-0.1897526938496328,0.0035102631164359967
1945,7.0,298.56892,659.23626,0.0,0.0,0.0,0.0,-0.0193854446405315,0.0,-0.07041871359478594,-0.06607924003376324,-0.06389340828203843,-0.03811689822434496,-0.19437154376797783,-0.04857180426041385
1946,7.0,298.0497,551.8440099999999,0.0,0.0,0.0,0.0,-0.019395411450115318,0.0,-0.051178228022647855,-0.04238290710011726,-0.07418566437230502,-0.05071760250068765,-0.17341711626743683,0.022953507126334774
1947,7.0,299.74594,324.81594,0.0,0.0,0.0,0.0,-0.01940537825969914,0.0,-0.019037299542835184,-0.04959066371296745,-0.03010797083692537,-0.02127320611450198,-0.17572143951235583,-0.05010480099920885
1948,7.0,300.26936,335.82581,0.0,0.0,0.0,0.0,-0.019415345069282962,0.0,-0.023659692796779874,-0.04769297901143055,-0.03072998987456387,-0.03419684333021567,-0.17127922948394383,0.0025426404790390776
1949,7.0,300.42994,440.80735999999996,0.0,0.0,0.0,0.0,-0.019425311878866786,0.0,-0.050551954347839455,-0.05540882684717544,-0.02803364928520577,-0.015212084858065885,-0.14844286217516986,-0.016464955434464586
1950,7.0,301.07557,585.12933,0.0,0.0,0.0,0.0,-0.0194352786884506,0.0,-0.03513835633638576,-0.07300487539477023,-0.06972147289622364,-0.02658261130724947,-0.16805233189047383,0.02082425424694388
1951,7.0,299.41985,499.38943,0.0,0.0,0.0,0.0,-0.019445245498034423,0.0,-0.048793134559257455,-0.060048023840778536,-0.042960758565896755,-0.05356227277218475,-0.19182813402946283,0.014971833126854886
1952,7.0,299.99981,758.29346,0.0,0.0,0.0,0.0,-0.019455212307618246,0.0,-0.08201254010100752,-0.05927223092821374,-0.08921750622308232,-0.056577074828222544,-0.1875591289731448,0.022661574573773276
1953,7.0,300.42499,897.88739,0.0,0.0,0.0,0.0,-0.019465179117202067,0.0,-0.09498806078809172,-0.08627052707573811,-0.0916767584480416,-0.06595832079332943,-0.16724938184872884,0.01003560845256244
1954,7.0,299.92326,667.0010599999999,0.0,0.0,0.0,0.0,-0.019475145926785887,0.0,-0.08649595394473601,-0.04633161772032466,-0.06992409657172102,-0.07681484674503512,-0.14585866912012985,0.0032970426687427773
1955,7.0,299.48734,514.3172900000001,0.0,0.0,0.0,0.0,-0.019485112736369704,0.0,-0.08213976479681362,-0.033003708913462465,-0.04119613994699246,-0.05965803400978954,-0.17380575847579285,0.008628359293577761
1956,7.0,299.48187,457.3502,0.0,0.0,0.0,0.0,-0.019495079545953524,0.0,-0.04785885210580096,-0.03174124083211657,-0.05942294985408854,-0.03386969831017897,-0.17636686969355483,-0.0015613458553928384
1957,7.0,299.17054,355.62605,0.0,0.0,0.0,0.0,-0.019505046355537348,0.0,-0.03200372732352197,-0.03955257533078526,-0.036545135549974066,-0.0012173185688149888,-0.17078462158012983,-0.013696205966460286
1958,7.0,300.38272,531.3902,0.0,0.0,0.0,0.0,-0.019515013165121168,0.0,-0.04059007250567826,-0.05935353715598803,-0.06158574131178944,-0.015682486216990886,-0.1880076441299098,0.01209784446371429
1959,7.0,301.03648,560.15074,0.0,0.0,0.0,0.0,-0.01952497997470499,0.0,-0.04596834526797246,-0.06172181066771844,-0.06258168408683135,-0.03423809780803717,-0.21083532788532683,-0.01075030795697279
1960,7.0,300.44177,470.0209,0.0,0.0,0.0,0.0,-0.01953494678428881,0.0,-0.05845240115305285,-0.054794386920284946,-0.02962782910478907,-0.04133341304404026,-0.17895518667650184,-0.0037134823803421763
1961,7.0,299.58992,484.34882000000005,0.0,0.0,0.0,0.0,-0.01954491359387263,0.0,-0.03904661801260116,-0.05955420627204254,-0.04862912381857085,-0.037369719494604166,-0.15902399992194685,-0.025314915868637676
1962,7.0,299.46845,481.85093,0.0,0.0,0.0,0.0,-0.019554880403456452,0.0,-0.06175139047788774,-0.034020859013097364,-0.050698402424542745,-0.04739928036394475,-0.15769629778591285,0.010095938275441531
1963,7.0,300.88336,450.75107,0.0,0.0,0.0,0.0,-0.019564847213040273,0.0,-0.03830157825382147,-0.045012627508650455,-0.05370286628981025,-0.06622281959943344,-0.18162741090022982,-0.01022140356377399
1964,7.0,300.93854,314.19434,0.0,0.0,0.0,0.0,-0.019574814022624096,0.0,-0.03571571941561707,-0.02241678550861448,-0.037374729003098565,-0.04362828063902605,-0.16853493278060286,-0.0044394484152644464
1965,7.0,300.01505,367.80557999999996,0.0,0.0,0.0,0.0,-0.019584780832207917,0.0,-0.025491812110845974,-0.024424094751720478,-0.061887804338850744,-0.048021788801381554,-0.14453721873721284,-0.009784079349063451
1966,7.0,299.68678,481.10165,0.0,0.0,0.0,0.0,-0.019594747641791734,0.0,-0.055188345651915646,-0.039411534969865665,-0.05164300685676795,-0.037591969824538565,-0.13872211561830686,-0.015851367650908187
1967,7.0,299.50786,710.45053,0.0,0.0,0.0,0.0,-0.019604714451375557,0.0,-0.05320873056054286,-0.08313351287213892,-0.07961697773758393,-0.06702704836280464,-0.19718936189857483,0.00977933602137032
1968,7.0,299.50514,853.56976,0.0,0.0,0.0,0.0,-0.019614681260959378,0.0,-0.1098974098210299,-0.08725463407636191,-0.06231184545270035,-0.05384739831057445,-0.16724493368078983,-0.015117248701706285
1969,7.0,299.17242000000005,596.89565,0.0,0.0,0.0,0.0,-0.0196246480705432,0.0,-0.07603683380150122,-0.05650465176407495,-0.048899885523542956,-0.030719571637035675,-0.17027440962477583,0.0007115101173355812
1970,7.0,299.33582,287.06654,0.0,0.0,0.0,0.0,-0.01963461488012702,0.0,-0.031721732727941265,-0.03673564075427546,-0.01880368763952948,-0.025489323568600373,-0.19812149119556882,-0.004479163158233986
1971,7.0,299.91036,427.21033,0.0,0.0,0.0,0.0,-0.01964458168971084,0.0,-0.037526344655311863,-0.050669019184892854,-0.041665908024604965,-0.04128091452985906,-0.2076335183643328,0.03646838185489907
1972,7.0,300.27591,515.5790000000001,0.0,0.0,0.0,0.0,-0.019654548499294662,0.0,-0.06212754741851154,-0.02122960089644848,-0.07336599367740984,-0.040224545571853565,-0.17394449267948484,0.032822798174357966
1973,7.0,300.54447000000005,239.14047000000002,0.0,0.0,0.0,0.0,-0.019664515308878482,0.0,-0.006776676551880904,-0.023472665066821677,-0.04244339002508646,-0.02374379052857968,-0.13807425363686787,0.002399896946026388
1974,7.0,300.95557,345.64407,0.0,0.0,0.0,0.0,-0.019674482118462306,0.0,-0.026752821112047874,-0.035164518453967765,-0.04314982596830626,-0.06157952907542635,-0.15265950246631987,0.010388511810016291
1975,7.0,298.77997999999997,587.24477,0.0,0.0,0.0,0.0,-0.019684448928046126,0.0,-0.04375936683096326,-0.056933218052871146,-0.07781516270750863,-0.05500179009650404,-0.2040449512801688,-0.02969633393079997
1976,7.0,299.13732000000005,720.15947,0.0,0.0,0.0,0.0,-0.019694415737629943,0.0,-0.05669954028830895,-0.10117795093348632,-0.061033005276238644,-0.07609595187858573,-0.17605748390802084,-0.025380693025379375
1977,7.0,298.76637999999997,524.24829,0.0,0.0,0.0,0.0,-0.019704382547213767,0.0,-0.031694382067991966,-0.07124360658069653,-0.05642040204476014,-0.04606529202429036,-0.15469729027243387,-0.03130078304014677
1978,7.0,298.12807000000004,357.46839,0.0,0.0,0.0,0.0,-0.019714349356797587,0.0,-0.023886619275925773,-0.05429152001490585,-0.030483326296720074,-0.03855188547902486,-0.17086533708309584,0.005134374242648285
1979,7.0,299.67796,373.09328999999997,0.0,0.0,0.0,0.0,-0.019724316166381407,0.0,-0.00976579525100895,-0.07330177185957164,-0.030343478531168176,-0.025111112770023872,-0.18609586410623183,-0.017535368038856084
1980,7.0,300.84063,394.97749,0.0,0.0,0.0,0.0,-0.01973428297596523,0.0,-0.04314370188470187,-0.03199693550810167,-0.04492265799252116,-0.018828719983249982,-0.16887744171190583,0.035007843644005165
1981,7.0,300.33927,495.35664,0.0,0.0,0.0,0.0,-0.019744249785549048,0.0,-0.06434190520030164,-0.06338893638850093,-0.022845206902646378,-0.0044666280385968656,-0.17110686550943283,-0.014014565094879885
1982,7.0,300.43516,502.25542,0.0,0.0,0.0,0.0,-0.019754216595132868,0.0,-0.056061207924060455,-0.05428672328893244,-0.042325174135919456,-0.03743472354151956,-0.18444441843074683,0.018855723098414982
1983,7.0,299.61888999999996,515.22573,0.0,0.0,0.0,0.0,-0.01976418340471669,0.0,-0.05711534874509604,-0.05078922408400616,-0.04871118593091975,-0.06727633119215694,-0.2174118783218818,-0.015321459126860285
1984,7.0,299.01384,916.76452,0.0,0.0,0.0,0.0,-0.019774150214300512,0.0,-0.0880057482694911,-0.0946655068042581,-0.0960022673961861,-0.05765492570159814,-0.2002251402581828,0.0020011478718979184
1985,7.0,299.82132,977.8323,0.0,0.0,0.0,0.0,-0.01978411702388433,0.0,-0.1168862517232749,-0.06813403321630554,-0.1122163137348879,-0.04421673880685236,-0.17946740486705384,-0.0063656687727425935
1986,7.0,300.05456000000004,600.84563,0.0,0.0,0.0,0.0,-0.01979408383346815,0.0,-0.04854149997642305,-0.07790595396946902,-0.056194614458726644,-0.053164895334716654,-0.17555344264577585,0.005270055929089025
1987,7.0,299.01504,312.35562000000004,0.0,0.0,0.0,0.0,-0.019804050643051973,0.0,-0.041868293586328854,-0.014302197414016986,-0.03877781694657256,-0.05593945275229415,-0.16906537934045385,-0.01026987846180809
1988,7.0,300.20889,518.43323,0.0,0.0,0.0,0.0,-0.019814017452635793,0.0,-0.052268854966534356,-0.05046177508893945,-0.05486012557352286,-0.02863482171528687,-0.18769046645110682,0.010381583205832491
1989,7.0,301.42087999999995,469.67116,0.0,0.0,0.0,0.0,-0.019823984262219617,0.0,-0.049500499652818955,-0.055127326717643546,-0.03814047959392226,-0.03300592590468127,-0.15522481867199683,0.012737186025062387
1990,7.0,301.33581000000004,486.66767000000004,0.0,0.0,0.0,0.0,-0.019833951071803434,0.0,-0.020885980429785782,-0.04570255862099136,-0.08134628155075292,-0.04850587004990666,-0.18593240660009983,0.02087658658810868
1991,7.0,299.94604,528.9288799999999,0.0,0.0,0.0,0.0,-0.019843917881387254,0.0,-0.03348201463641757,-0.057149364564203144,-0.07014979397849563,-0.06257562890423374,-0.1981456774754558,0.029121856587853472
1992,7.0,299.87146,536.59375,0.0,0.0,0.0,0.0,-0.019853884690971078,0.0,-0.03532480246078657,-0.08636762379307082,-0.04141867601345506,-0.03585599071971077,-0.17405803748569082,-0.018642841278905184
1993,7.0,299.41191000000003,695.77989,0.0,0.0,0.0,0.0,-0.019863851500554898,0.0,-0.06907866399303335,-0.07573050499151893,-0.06669054395159424,-0.04521233403710996,-0.17585594846313085,-0.019707226058451783
1994,7.0,300.28901,856.7434699999999,0.0,0.0,0.0,0.0,-0.01987381831013872,0.0,-0.09232881629814473,-0.0984884224245505,-0.06961138124635843,-0.027565836780286273,-0.17973831754629083,-0.04327940951034516
1995,7.0,299.83584,399.72692,0.0,0.0,0.0,0.0,-0.01988378511972254,0.0,-0.031137957802077173,-0.049487982974333655,-0.04088105969589646,-0.06284213799853614,-0.19752629795432783,-0.00967336779278707
1996,7.0,299.12225,8.1608972,0.0,0.0,0.0,0.0,-0.01989375192930636,0.0,-0.0060511937359313235,0.0015094586349969686,0.0020610261905324484,-0.029849143191631074,-0.1914308791952568,-0.011049962488546389
1997,7.0,299.71483,409.5237,0.0,0.0,0.0,0.0,-0.019903718738890182,0.0,-0.010815570382663689,-0.04994485541792345,-0.06372455217937364,-0.06380972192977924,-0.1859785094796498,0.010044469324686939
1998,7.0,300.26007000000004,533.38904,0.0,0.0,0.0,0.0,-0.019913685548474003,0.0,-0.06481400577964434,-0.013628618131789885,-0.08369432653748692,-0.05409351270686404,-0.16967519378063783,0.014069820662583186
1999,7.0,299.77787,569.9611,0.0,0.0,0.0,0.0,-0.019923652358057826,0.0,-0.036563050824992165,-0.06695377923482353,-0.06973711342476722,-0.07786209239914023,-0.18258663450489784,0.009375076589223022
2000,7.0,299.61056,642.8920400000001,0.0,0.0,0.0,0.0,-0.019933619167641647,0.0,-0.0903333793064604,-0.06577344318008344,-0.03931630668571736,-0.050464789507986954,-0.15969625083329286,-0.015545253649947086
2001,7.0,300.59516,662.47355,0.0,0.0,0.0,0.0,-0.019943585977225464,0.0,-0.07888768793835862,-0.042712247833120665,-0.07977548045072692,-0.040163585406087256,-0.14432744556900987,0.015629722231283488
2002,7.0,300.9825,648.61051,0.0,0.0,0.0,0.0,-0.019953552786809287,0.0,-0.06000422407870585,-0.08430038992580072,-0.05285678624430865,-0.030000152920284573,-0.18237341628635484,-0.004496342712354475
2003,7.0,300.54592,734.84267,0.0,0.0,0.0,0.0,-0.019963519596393108,0.0,-0.05659952946368865,-0.060423002371536035,-0.10635128778355489,-0.03900683376067476,-0.17833162243246084,0.034473238705743765
2004,7.0,299.72186,619.97791,0.0,0.0,0.0,0.0,-0.01997348640597693,0.0,-0.05580534504855874,-0.06297696612309264,-0.06967549160668564,-0.03353391330653957,-0.19054896657321882,-0.012000192485326789
2005,7.0,300.89853999999997,147.85929,0.0,0.0,0.0,0.0,-0.01998345321556075,0.0,-0.008512094417478312,-0.014400066227925884,-0.02203337268402458,-0.03703888624420346,-0.15953945038031783,0.00955816804519274
2006,7.0,300.24651,213.44831000000002,0.0,0.0,0.0,0.0,-0.01999342002514457,0.0,-0.04143790344735267,-0.00992979960821992,-0.013515252670851588,-0.05511186654761775,-0.18027559341181582,-0.03886535466246186
2007,7.0,299.29128,740.9771599999999,0.0,0.0,0.0,0.0,-0.02000338683472839,0.0,-0.0980999230844586,-0.055302150863397355,-0.07183648049245864,-0.08027451220447752,-0.19334634744929882,0.014763178586762286
2008,7.0,300.13634,791.63989,0.0,0.0,0.0,0.0,-0.02001335364431221,0.0,-0.10728816922351789,-0.06213407173590544,-0.07121651429952272,-0.07278929934324453,-0.17532411375064283,-0.026037904265491074
2009,7.0,300.1521,527.04642,0.0,0.0,0.0,0.0,-0.020023320453896033,0.0,-0.036655757129641565,-0.06028763519792635,-0.06326555697682434,-0.060899907782852945,-0.16424975625268884,0.00988430488137994
2010,7.0,299.88094,400.15177,0.0,0.0,0.0,0.0,-0.02003328726347985,0.0,-0.017464514499113383,-0.06386587929007154,-0.04030575148786796,-0.04759217379873185,-0.17252615532200583,-0.02085209937294198
2011,7.0,300.2855,644.96237,0.0,0.0,0.0,0.0,-0.02004325407306367,0.0,-0.04024544689491636,-0.06576128519213353,-0.0900457246958211,-0.05894397437281735,-0.1779812304153798,0.00919819524179119
2012,7.0,300.45406,612.90124,0.0,0.0,0.0,0.0,-0.020053220882647493,0.0,-0.07075080631506092,-0.06142706533287934,-0.054128800154846654,-0.03937265757677876,-0.18417599834675583,-0.00974438142604557
2013,7.0,300.55907,406.77382,0.0,0.0,0.0,0.0,-0.020063187692231314,0.0,-0.051320558250944746,-0.037542845433190364,-0.03478568045357936,-0.037071526069674766,-0.19186134836774082,-0.009993559687987551
2014,7.0,300.79542999999995,90.355588,0.0,0.0,0.0,0.0,-0.020073154501815137,0.0,-0.01958391453453188,0.012280250759966388,-0.02016217839310208,-0.07040583315951474,-0.18433240363219183,0.0050484410082923354
2015,7.0,300.10982,162.07838999999998,0.0,0.0,0.0,0.0,-0.020083121311398954,0.0,-0.004000436024562296,-0.03120964322015197,-0.014057705231137488,-0.06728303586806864,-0.2053876697826848,0.0035188843549118463
2016,7.0,300.00227,714.69848,0.0,0.0,0.0,0.0,-0.020093088120982774,0.0,-0.05524943551369474,-0.06404846594484144,-0.0979525894271679,-0.05571703523609325,-0.18367382146469483,-0.0014240045666133088
2017,7.0,300.68168,1016.8660000000001,0.0,0.0,0.0,0.0,-0.020103054930566598,0.0,-0.11521618251095189,-0.08306151233328302,-0.11082416889249389,-0.03125188865657127,-0.14805296353668984,-0.016307622011936983
2018,7.0,300.61526000000003,611.45969,0.0,0.0,0.0,0.0,-0.02011302174015042,0.0,-0.06805556814181163,-0.07795808467386392,-0.03985482479586496,-0.034816482243369265,-0.17698845809990083,-0.025255438087767677
2019,7.0,299.55127000000005,478.72694,0.0,0.0,0.0,0.0,-0.020122988549734242,0.0,-0.07263066592083864,-0.03399233196978197,-0.03889803805768746,-0.03342228050327226,-0.18104128624738383,-0.0008630869620700511
2020,7.0,300.14271,791.48686,0.0,0.0,0.0,0.0,-0.02013295535931806,0.0,-0.08365861656421263,-0.0884849284272825,-0.06844869803486052,-0.040384567146896456,-0.18659604488559584,-0.010594285680074589
2021,7.0,300.04591,732.7856,0.0,0.0,0.0,0.0,-0.02014292216890188,0.0,-0.08489633094561551,-0.04327055471772126,-0.0945816400934811,-0.026358447961126276,-0.17920065664572782,0.006519866591510734
2022,7.0,298.99841000000004,356.14603999999997,0.0,0.0,0.0,0.0,-0.020152888978485703,0.0,0.006691878056311944,-0.04527703309574525,-0.06967434967382294,-0.04513072586080586,-0.2055585645445508,-0.01110019132250359
2023,7.0,299.03109,-12.448461,0.0,0.0,0.0,0.0,-0.020162855788069523,0.0,0.01733391264072398,-0.008585093210332732,-0.004964797820487396,-0.049145877316570455,-0.20118394843030982,0.015273734033900184
2024,7.0,300.02442,270.16256,0.0,0.0,0.0,0.0,-0.020172822597653347,0.0,-0.017702250330326085,-0.030268107922479675,-0.03415231504132107,-0.03981707616338946,-0.18067360818359682,-0.010329520389194291
2025,7.0,299.96772000000004,674.07379,0.0,0.0,0.0,0.0,-0.020182789407237164,0.0,-0.1007300214352791,-0.05094257442039065,-0.05322900468179375,-0.05695506473827724,-0.15733630015788383,-0.0034328028820662672
2026,7.0,301.00422000000003,730.95778,0.0,0.0,0.0,0.0,-0.020192756216820984,0.0,-0.050716323779061455,-0.09898962456001531,-0.07248696476515644,-0.04608353255259055,-0.17870271514908484,-0.027916754674169177
2027,7.0,300.26858,539.59545,0.0,0.0,0.0,0.0,-0.020202723026404808,0.0,-0.041501993542677855,-0.04984184638625725,-0.07267970418592834,-0.05260126382084055,-0.17703524998951883,-0.002324227023258348
2028,7.0,300.54887,518.29531,0.0,0.0,0.0,0.0,-0.020212689835988628,0.0,-8.895778894420022e-05,-0.08036298008395862,-0.07709689402962103,-0.02130569901870878,-0.17035440572017085,-0.012875002224163788
2029,7.0,300.82038,828.04327,0.0,0.0,0.0,0.0,-0.02022265664557245,0.0,-0.11420827223897888,-0.06598146443886353,-0.07151474217495553,-0.03812042129494266,-0.18446191725997382,-0.003594415158441156
2030,7.0,300.52971,790.9938,0.0,0.0,0.0,0.0,-0.02023262345515627,0.0,-0.09154828542811232,-0.05795052723277175,-0.09094355142392972,-0.04472358069237376,-0.20882194927412182,0.01048831795811639
2031,7.0,299.23593999999997,213.48661,0.0,0.0,0.0,0.0,-0.02024259026474009,0.0,-0.03636619862206436,-0.03059145730764177,0.002063057756982948,-0.07887429479853683,-0.20361562708029782,-0.001035434704314449
2032,7.0,299.12509,119.76878,0.0,0.0,0.0,0.0,-0.020252557074323913,0.0,-0.011678077238786487,-0.0023847303145545576,-0.022343910534922278,-0.06887177250811473,-0.15415174628609285,0.007011605578991592
2033,7.0,298.88567,606.04585,0.0,0.0,0.0,0.0,-0.020262523883907733,0.0,-0.05578682790298125,-0.05574053858541285,-0.07269543894673124,-0.04671274769243925,-0.14604835967135085,-0.008751841550139512
2034,7.0,299.32887,814.7081099999999,0.0,0.0,0.0,0.0,-0.020272490693491553,0.0,-0.08474528575320851,-0.08072142743933462,-0.08218421101245012,-0.022905159897813276,-0.18984577100381883,0.006042298109328394
2035,7.0,298.94378,585.54545,0.0,0.0,0.0,0.0,-0.02028245750307537,0.0,-0.05840664480503704,-0.046093459363820255,-0.07349109054800593,-0.00954187113323436,-0.2006070342208728,0.003994497163076176
2036,7.0,300.21491000000003,462.9412,0.0,0.0,0.0,0.0,-0.02029242431265919,0.0,-0.06263756685634654,-0.044065553785931556,-0.034019444515957765,-0.015249074566216485,-0.19118103198559883,0.006212219948448374
2037,7.0,299.88265,720.31325,0.0,0.0,0.0,0.0,-0.020302391122243014,0.0,-0.08181732632349142,-0.05826073577738694,-0.07887917866401883,-0.036524838123970865,-0.1863504127963538,0.016064495690192283
2038,7.0,300.95514,821.12419,0.0,0.0,0.0,0.0,-0.020312357931826834,0.0,-0.08591444464609552,-0.07128085162787233,-0.09240595300175751,-0.06264960224103434,-0.17645195230445185,-0.009191782888533341
2039,7.0,300.29438,680.20358,0.0,0.0,0.0,0.0,-0.020322324741410658,0.0,-0.05899805051740425,-0.05224252059643536,-0.09552433252276761,-0.06851305562821214,-0.16151304879259684,0.01108136412239549
2040,7.0,300.51946,366.21302000000003,0.0,0.0,0.0,0.0,-0.020332291550994475,0.0,-0.03548028872838187,-0.03375314313792587,-0.04208618288783286,-0.056952275260751944,-0.14492763413324386,-0.008317019151250882
2041,7.0,299.30976,185.90398000000002,0.0,0.0,0.0,0.0,-0.020342258360578295,0.0,-0.01109924393366009,-0.03117525047200767,-0.014235674505201686,-0.07062462526685784,-0.15061064996911386,-0.014545947897823286
2042,7.0,298.84736000000004,418.65459,0.0,0.0,0.0,0.0,-0.02035222517016212,0.0,-0.05091634644155215,-0.05862307502639704,-0.017721119073688285,-0.05691554798437724,-0.19160923147785883,-0.03452930284702687
2043,7.0,298.20144,594.4664700000001,0.0,0.0,0.0,0.0,-0.02036219197974594,0.0,-0.07196308507920353,-0.057436599689301045,-0.05130327828373936,-0.02880082247916987,-0.20301536758855682,0.007323660467939013
2044,7.0,300.11879,550.3767799999999,0.0,0.0,0.0,0.0,-0.020372158789329763,0.0,-0.018004147184370982,-0.08963051101684272,-0.059666140010589536,-0.037652231860985964,-0.1901912082279108,-0.02598502780902258
2045,7.0,299.60652000000005,431.82912000000005,0.0,0.0,0.0,0.0,-0.02038212559891358,0.0,-0.009089668658030452,-0.05075659844403625,-0.07141900118625663,-0.03480670843290467,-0.20438445085867482,-0.0027531606152157973
2046,7.0,299.95362,479.24392,0.0,0.0,0.0,0.0,-0.0203920924084974,0.0,-0.03603976591684797,-0.04282797112704166,-0.06681044690217773,-0.058778855136521355,-0.22132436119801377,-0.01967953291996868
2047,7.0,300.1896,647.57847,0.0,0.0,0.0,0.0,-0.020402059218081223,0.0,-0.08320339977128623,-0.05189858298249136,-0.06174570310507644,-0.048371893055434156,-0.1973806533849538,-0.002164674684336758
2048,7.0,300.15736,613.4536,0.0,0.0,0.0,0.0,-0.020412026027665044,0.0,-0.07472626268490794,-0.05130269059868135,-0.06044562115351835,-0.03876144282495656,-0.1718132122866438,-0.008380939020559282
2049,7.0,299.8263,550.76494,0.0,0.0,0.0,0.0,-0.020421992837248867,0.0,-0.06985972783261833,-0.05474516323042695,-0.04281389910965286,-0.05371112833112565,-0.15035044734343386,-0.000976992850081687
2050,7.0,300.59325,477.2434,0.0,0.0,0.0,0.0,-0.020431959646832684,0.0,-0.03893580188891446,-0.055719002967787444,-0.05041527096234986,-0.06899661302643553,-0.16472040079163786,0.008852071540756441
2051,7.0,299.63205,503.54229000000004,0.0,0.0,0.0,0.0,-0.020441926456416504,0.0,-0.039446692721835465,-0.02273571307034018,-0.09088187590359281,-0.053004284048115545,-0.15911310513574084,0.015261636840956286
2052,7.0,299.86712,766.71743,0.0,0.0,0.0,0.0,-0.020451893266000328,0.0,-0.07964155310550933,-0.07610198172993082,-0.07731941692383233,-0.05205465896164486,-0.14609847502129686,0.006557160173366322
2053,7.0,300.9995,682.30165,0.0,0.0,0.0,0.0,-0.02046186007558415,0.0,-0.09492565167468241,-0.05313806345881854,-0.05933895040754845,-0.05135742535583325,-0.18113512333914483,-0.018367716519002483
2054,7.0,301.57648,344.22337999999996,0.0,0.0,0.0,0.0,-0.020471826885167972,0.0,-0.05143613158385096,-0.052085058491145045,-0.001114121275280209,-0.06553354709965754,-0.2116759201682868,-0.010346448758614991
2055,7.0,300.56382,442.89950999999996,0.0,0.0,0.0,0.0,-0.02048179369475179,0.0,-0.04340924129865855,-0.04492367225587125,-0.046297479297955454,-0.05701903628334074,-0.2180307613504608,-0.026842834197931476
2056,7.0,300.81167999999997,763.06942,0.0,0.0,0.0,0.0,-0.02049176050433561,0.0,-0.05492312034548995,-0.06517277940155253,-0.11185815008953989,-0.026359700338249876,-0.19347800916729282,0.026271690447813977
2057,7.0,299.76015,714.05031,0.0,0.0,0.0,0.0,-0.020501727313919433,0.0,-0.055055996950353854,-0.09846643185763021,-0.06353103660902513,-0.024232265229538377,-0.16984344395974285,-0.01779336785881868
2058,7.0,299.62198,451.90917,0.0,0.0,0.0,0.0,-0.020511694123503253,0.0,-0.040516134632631165,-0.028311625330889875,-0.06854134253125384,-0.037198187398425266,-0.1959113799449478,0.012518891423518386
2059,7.0,299.39195,223.20049,0.0,0.0,0.0,0.0,-0.020521660933087073,0.0,-0.04414409384093286,-0.02761297520143847,0.003909693297281687,-0.05211212848081666,-0.17812594279466185,-0.03025651127508517
2060,7.0,300.33283,513.45804,0.0,0.0,0.0,0.0,-0.020531627742670894,0.0,-0.057206946554136044,-0.061764509026932445,-0.037106967531672565,-0.045134714013199455,-0.16328079531455986,-0.016907915954181382
2061,7.0,299.53362000000004,627.84138,0.0,0.0,0.0,0.0,-0.020541594552254714,0.0,-0.06727584787185924,-0.05211010704686716,-0.07146214638876473,-0.04472021771529186,-0.17857627166910583,-0.0035204286493892567
2062,7.0,300.09474,470.17465,0.0,0.0,0.0,0.0,-0.020551561361838534,0.0,0.002073046680443778,-0.06860233106802292,-0.07639207016731034,-0.09932932577529122,-0.1917981924890078,0.017405915206080085
2063,7.0,298.96058999999997,168.61548,0.0,0.0,0.0,0.0,-0.020561528171422355,0.0,0.015874810205221784,-0.00942215776174457,-0.057707546819041444,-0.07485861847922043,-0.20769368515527079,-0.0002832577435528627
2064,7.0,299.13312,403.68276000000003,0.0,0.0,0.0,0.0,-0.02057149498100618,0.0,-0.03330952805864447,-0.016042596315780984,-0.07335735470705723,-0.040088696091196266,-0.16261727861907585,0.02292164952994068
2065,7.0,300.37068,926.26535,0.0,0.0,0.0,0.0,-0.020581461790589995,0.0,-0.12163975244740889,-0.092266494324244,-0.06765529280905754,-0.029679301196618973,-0.16304404942869485,-0.02375642069107618
2066,7.0,300.29188,861.1119800000001,0.0,0.0,0.0,0.0,-0.020591428600173815,0.0,-0.09689830067161771,-0.07531058172607573,-0.08954765755616573,-0.008000878432600222,-0.18390103266711882,0.007847845952772091
2067,7.0,299.74931000000004,491.54706,0.0,0.0,0.0,0.0,-0.02060139540975764,0.0,-0.05144662784163685,-0.04882620602927136,-0.04914519843900345,-0.04530239575899836,-0.2050420197760718,-0.026182844626045577
2068,7.0,300.51937999999996,393.94049,0.0,0.0,0.0,0.0,-0.02061136221934146,0.0,-0.004938245196316855,-0.060118974652530854,-0.05469085099856674,-0.02745575728942227,-0.18029849286407582,0.032564374815853565
2069,7.0,301.34584,368.93539,0.0,0.0,0.0,0.0,-0.020621329028925283,0.0,-0.05057235816510315,-0.01206020424899949,-0.04951458382920895,-0.05234806072685136,-0.1928206631649178,0.01042714399657899
2070,7.0,301.08767,543.31116,0.0,0.0,0.0,0.0,-0.0206312958385091,0.0,-0.04312702176155566,-0.07345056358375623,-0.04857544081502275,-0.07492149470092584,-0.18026870331113581,0.008546797017503192
2071,7.0,300.06987000000004,559.41218,0.0,0.0,0.0,0.0,-0.02064126264809292,0.0,-0.08164646195912843,-0.05534744820911785,-0.03305342504286907,-0.056893371992688645,-0.21120721093702882,-0.017808360920548383
2072,7.0,299.53985,462.68937,0.0,0.0,0.0,0.0,-0.020651229457676744,0.0,-0.04944784003187186,-0.041829726247772564,-0.049368449860036655,-0.02839495907211427,-0.18240765400723383,-0.02529612919853358
2073,7.0,299.56479,507.3659,0.0,0.0,0.0,0.0,-0.020661196267260564,0.0,-0.026565837965094076,-0.09463063377556641,-0.03303009191956627,-0.04955645132334095,-0.15396642284280285,-0.03251690708841887
2074,7.0,299.50786,463.42499000000004,0.0,0.0,0.0,0.0,-0.020671163076844388,0.0,-0.020257799818289183,-0.025376219526187873,-0.0952356058935225,-0.04424874940401155,-0.17851733091078884,-0.014031173277268986
2075,7.0,299.94744,463.56875999999994,0.0,0.0,0.0,0.0,-0.020681129886428205,0.0,0.002243548301270978,-0.08627890260106473,-0.05687797363091895,-0.05015421923308604,-0.18260756825196384,0.0015356241976293085
2076,7.0,300.97242,208.42106,0.0,0.0,0.0,0.0,-0.020691096696012025,0.0,-0.0015701077329825686,-0.025996595072164175,-0.035788095870260064,-0.04706062076977166,-0.17103359739470184,-0.017640439034475784
2077,7.0,299.87466,237.18515,0.0,0.0,0.0,0.0,-0.02070106350559585,0.0,-0.03260380240374477,-0.032908667067332566,-0.006585891893201924,-0.03933984448554036,-0.18057741021910284,0.003663226593932317
2078,7.0,300.32488,653.7307400000001,0.0,0.0,0.0,0.0,-0.02071103031517967,0.0,-0.06427197675790024,-0.09235487911721692,-0.042090964415054756,-0.06093006514557925,-0.19223933118504483,-0.024696758327130273
2079,7.0,299.81894,715.52372,0.0,0.0,0.0,0.0,-0.020720997124763493,0.0,-0.06725762152906044,-0.06472850773620634,-0.08551521600069473,-0.057339353010953546,-0.2138254289304268,-0.0019777401733877585
2080,7.0,300.17967000000004,669.81403,0.0,0.0,0.0,0.0,-0.02073096393434731,0.0,-0.08192581298519822,-0.06896607873467203,-0.05271484713055035,-0.044897763450814254,-0.18010992702046583,0.006018946342223754
2081,7.0,301.2591,612.58837,0.0,0.0,0.0,0.0,-0.02074093074393113,0.0,-0.07641479838030343,-0.03845427403064136,-0.07134249675070624,-0.03690906661489126,-0.18555321801517682,0.0020508882179819084
2082,7.0,300.49545,462.376,0.0,0.0,0.0,0.0,-0.020750897553514953,0.0,-0.08743119797253741,-0.01044573308291359,-0.04267382640257876,-0.06024115234958885,-0.17209375084183084,0.023477899516838277
2083,7.0,300.14755,673.1637,0.0,0.0,0.0,0.0,-0.020760864363098774,0.0,-0.07682302266009203,-0.08546123814136751,-0.04234069510095126,-0.061242288031393234,-0.1921033428891238,-0.019240993210438182
2084,7.0,299.43142,688.57156,0.0,0.0,0.0,0.0,-0.020770831172682597,0.0,-0.06277836809024254,-0.05549486089991635,-0.0910353306047376,-0.04406399338077756,-0.16868666698307785,0.015265978617634785
2085,7.0,300.02211,420.26943,0.0,0.0,0.0,0.0,-0.020780797982266414,0.0,-0.02472830384249358,-0.04649978987917195,-0.05652331785741715,-0.04281849419885636,-0.17841973466115685,-0.016344485063825086
2086,7.0,299.47505,314.98967000000005,0.0,0.0,0.0,0.0,-0.020790764791850234,0.0,-0.012523021430925988,-0.037708324373271866,-0.04551764757049205,-0.06084867481804664,-0.17784156402159582,0.023972029166605076
2087,7.0,299.36824,499.39196,0.0,0.0,0.0,0.0,-0.020800731601434055,0.0,-0.05592317083643725,-0.04663175962519636,-0.049247756574375155,-0.04674377138400105,-0.19372768412443384,0.0009613779263681142
2088,7.0,299.17584,641.45218,0.0,0.0,0.0,0.0,-0.02081069841101788,0.0,-0.07924566413243812,-0.06290423503091463,-0.05283554750896254,-0.04092384418136896,-0.16803117522838584,0.011831730536950889
2089,7.0,300.3946,707.55768,0.0,0.0,0.0,0.0,-0.020820665220601695,0.0,-0.07881651117183402,-0.08772320651885643,-0.048540148300789655,0.003595723365645267,-0.17351947479253882,-0.014231268893766885
2090,7.0,299.41796,503.08189000000004,0.0,0.0,0.0,0.0,-0.020830632030185516,0.0,-0.02673737816727377,-0.05585969578392275,-0.07032725966726013,-0.04176639102377186,-0.18025114368690281,-0.015770805148707285
2091,7.0,299.99123,501.40528,0.0,0.0,0.0,0.0,-0.020840598839769336,0.0,-0.023777600657916478,-0.07419697730967152,-0.05444010908907045,-0.06821138979519002,-0.1879860720352808,-0.01981913041274588
2092,7.0,300.8862,644.05702,0.0,0.0,0.0,0.0,-0.02085056564935316,0.0,-0.04237213929130456,-0.05976221030557094,-0.09364290237933491,-0.06300065388393045,-0.1770117932497038,0.001131887602533609
2093,7.0,301.02914,605.2208400000001,0.0,0.0,0.0,0.0,-0.02086053245893698,0.0,-0.0871474038447791,-0.04995637404506025,-0.04686824510578566,-0.06613655553891984,-0.17698339184940085,0.0010160046203968492
2094,7.0,300.16632000000004,556.1310900000001,0.0,0.0,0.0,0.0,-0.020870499268520804,0.0,-0.08484038130159373,-0.03325956570946357,-0.050950016742375155,-0.04915224052719845,-0.19339921883951683,-0.005493670802933094
2095,7.0,299.97311,451.36185,0.0,0.0,0.0,0.0,-0.02088046607810462,0.0,-0.05453817244699855,-0.04874438405719616,-0.03392017640366077,-0.06937810776858613,-0.19330651658786782,-0.023382005527374277
2096,7.0,298.36824,503.13052999999996,0.0,0.0,0.0,0.0,-0.02089043288768844,0.0,0.0005799224780563924,-0.09968018388741821,-0.053838855598981356,-0.04309400703354736,-0.15220771451173185,-0.011067773398804189
2097,7.0,299.69185,648.91179,0.0,0.0,0.0,0.0,-0.020900399697272264,0.0,-0.04684879982311655,-0.04513028104401196,-0.10527389895222491,-0.036802813156404865,-0.16997909788313084,0.01024698204929839
2098,7.0,299.09046,617.9046400000001,0.0,0.0,0.0,0.0,-0.020910366506856085,0.0,-0.04342035766550566,-0.06478065363935274,-0.07962656916303051,-0.03847302422374186,-0.17717899978120583,0.028130251536489678
2099,7.0,299.96012,450.52652,0.0,0.0,0.0,0.0,-0.02092033331643991,0.0,-0.06353471774663844,-0.051865907693266544,-0.02154818800614058,-0.07109936536271103,-0.20108292739533978,0.005943556785758384
2100,7.0,299.66936,652.7979799999999,0.0,0.0,0.0,0.0,-0.020930300126023725,0.0,-0.0928677984768381,-0.038828956692369666,-0.06673752937198134,-0.06144415784881624,-0.17656918534102184,0.03165457552456337
2101,7.0,300.37015,777.64923,0.0,0.0,0.0,0.0,-0.020940266935607545,0.0,-0.08281139559909842,-0.08695825740886182,-0.06661629602401653,-0.05000327536568905,-0.17876068318730584,-0.03553324725810847
2102,7.0,300.41582,602.14817,0.0,0.0,0.0,0.0,-0.02095023374519137,0.0,-0.045020053618633364,-0.033670071828477366,-0.1043478795533339,-0.030507995896904765,-0.1925072649089878,0.005020878579072135
2103,7.0,300.23956,369.96391,0.0,0.0,0.0,0.0,-0.02096020055477519,0.0,-0.009226005815960881,-0.04446451999955646,-0.05876926371107474,-0.030193097017576675,-0.18994056055067382,-0.023877364249512378
2104,7.0,299.8906,265.02301,0.0,0.0,0.0,0.0,-0.020970167364359013,0.0,-0.007846677270106753,-0.011793311132909188,-0.060920388607124246,-0.05645776158919724,-0.15736452930566985,0.012258475002067289
2105,7.0,300.51617000000005,441.02221,0.0,0.0,0.0,0.0,-0.02098013417394283,0.0,-0.06786540541604404,-0.02186032273919588,-0.04433401338667645,-0.05775134759436424,-0.16316136352527283,-0.009552906136098431
2106,7.0,299.56782000000004,526.91675,0.0,0.0,0.0,0.0,-0.02099010098352665,0.0,-0.07269768937520334,-0.06210871312565274,-0.02536313137464618,-0.08222785777375771,-0.18246319024521485,-0.01790758647634118
2107,7.0,299.19299,467.27679000000006,0.0,0.0,0.0,0.0,-0.021000067793110474,0.0,-0.038097736651703865,-0.07021681641961024,-0.033725924200489574,-0.04779889607088376,-0.2003112969141858,-0.04203883979016046
2108,7.0,300.11329,472.77941,0.0,0.0,0.0,0.0,-0.021010034602694294,0.0,-0.025086233427068477,-0.06618454205040573,-0.05244235884740785,-0.03881158654590536,-0.18516523441938582,-0.025572178042527476
2109,7.0,299.91681,668.49292,0.0,0.0,0.0,0.0,-0.021020001412278118,0.0,-0.03295091351700197,-0.1105127262092569,-0.05974151061927804,-0.04749715728385445,-0.1939559187094588,-0.004786613940052016
2110,7.0,299.39432,778.1544299999999,0.0,0.0,0.0,0.0,-0.021029968221861935,0.0,-0.09262229101735842,-0.05020551704589875,-0.0937117081406255,-0.04113412904087246,-0.2066042994427568,0.01103203201477679
2111,7.0,300.59337999999997,574.19407,0.0,0.0,0.0,0.0,-0.021039935031445755,0.0,-0.08003583202417162,-0.03704894680444636,-0.05745588082545394,-0.03951696566927086,-0.18384203111379582,0.017577515190015686
2112,7.0,300.74596,290.97806,0.0,0.0,0.0,0.0,-0.02104990184102958,0.0,-0.03890922839179186,-0.037560230778406166,-0.01198060433439359,-0.021776988997971477,-0.16653564847828883,-0.013802752254225588
2113,7.0,301.72972999999996,309.83249,0.0,0.0,0.0,0.0,-0.0210598686506134,0.0,-0.012137198084348188,-0.006292699566791094,-0.07575144380483544,-0.024750840551217776,-0.16853562179067083,-0.013340028291308289
2114,7.0,301.62917000000004,524.1650599999999,0.0,0.0,0.0,0.0,-0.021069835460197216,0.0,-0.032993113357166766,-0.06424195213093703,-0.06209802333709774,-0.053459995307090745,-0.19052268286562482,-0.026042770905721373
2115,7.0,301.75921,467.01975999999996,0.0,0.0,0.0,0.0,-0.021079802269781036,0.0,-0.03592620591189047,-0.02618782576353718,-0.07984831489441513,-0.04707926659811186,-0.18913920131158582,0.016844618220434385
2116,7.0,300.34591,393.39264,0.0,0.0,0.0,0.0,-0.02108976907936486,0.0,-0.04166810779057206,-0.040179900759197466,-0.03773353200925967,-0.07066720203605983,-0.1924630669396258,0.011006477847254791
2117,7.0,300.45797000000005,611.73094,0.0,0.0,0.0,0.0,-0.02109973588894868,0.0,-0.07688876739283051,-0.08905593640188661,-0.020006228056960982,-0.059713114285225535,-0.19102795016049082,0.005120231703052525
2118,7.0,299.77018,843.5069300000001,0.0,0.0,0.0,0.0,-0.0211097026985325,0.0,-0.12066432697364188,-0.06509086117071784,-0.07064985519434784,-0.08060172207252063,-0.20727723936417078,-0.0073637783831233435
2119,7.0,299.87284,989.21248,0.0,0.0,0.0,0.0,-0.02111966950811632,0.0,-0.1032058149681209,-0.1089406281491029,-0.08854945320690061,-0.045279437538232555,-0.17372167898249483,-0.01831221777127518
2120,7.0,299.44105,583.5013,0.0,0.0,0.0,0.0,-0.02112963631770014,0.0,-0.044306494527210555,-0.06382017765756114,-0.06924315400101723,-0.036171077050307365,-0.2001126390995798,-0.002072139720279268
2121,7.0,299.81427,241.55741,0.0,0.0,0.0,0.0,-0.02113960312728396,0.0,0.004266155695711786,-0.039755654968827665,-0.03793791975318117,-0.02509883927156258,-0.18984599391884083,0.017192211640739183
2122,7.0,299.3293,174.97999,0.0,0.0,0.0,0.0,-0.021149569936867785,0.0,-0.02266301946841588,-0.023985617863696178,-0.006540908553687413,-0.04947205772251195,-0.2065986961697038,0.004321208917370116
2123,7.0,299.61803,404.02383,0.0,0.0,0.0,0.0,-0.021159536746451605,0.0,-0.06410403562007573,-0.017646403024564383,-0.04106271821357476,-0.031361899246428473,-0.18948757696096782,0.004124631811844466
2124,7.0,300.12327,456.52528,0.0,0.0,0.0,0.0,-0.021169503556035425,0.0,-0.04262894144964896,-0.04952207073419786,-0.04662127349991146,-0.04917134231808365,-0.18193807338088983,-0.04305296837799716
2125,7.0,300.55942000000005,334.19625,0.0,0.0,0.0,0.0,-0.021179470365619246,0.0,-0.0014729921691980087,-0.06220343478475103,-0.037910888267013367,-0.05533596099273415,-0.18291192831700182,-0.051570474361609546
2126,7.0,300.33261,432.45480999999995,0.0,0.0,0.0,0.0,-0.021189437175203066,0.0,-0.017092333551881982,-0.04825489914588775,-0.06610823215887454,-0.058056542577484646,-0.1991227140168818,-0.024446965832977677
2127,7.0,301.11986,704.63964,0.0,0.0,0.0,0.0,-0.02119940398478689,0.0,-0.07351645625100933,-0.06747237279500473,-0.07320402767542503,-0.08050351078007792,-0.18991509757566083,5.257040934204545e-05
2128,7.0,300.92900000000003,653.98927,0.0,0.0,0.0,0.0,-0.02120937079437071,0.0,-0.07133902130286324,-0.05204117969556455,-0.07541620696950013,-0.06536249224427573,-0.2034949084633838,0.02285864361222248
2129,7.0,300.04415,461.80449000000004,0.0,0.0,0.0,0.0,-0.021219337603954534,0.0,-0.051847921490741446,-0.04960254913664045,-0.038926563074502665,-0.06659096375826644,-0.2020843123366688,0.016389311248249085
2130,7.0,299.96216,464.5544,0.0,0.0,0.0,0.0,-0.02122930441353835,0.0,-0.05122676878193845,-0.06237662253159335,-0.027609546363100073,-0.03445311961175817,-0.19271888219237282,-0.01121930393800909
2131,7.0,299.54217,595.23893,0.0,0.0,0.0,0.0,-0.02123927122312217,0.0,-0.06630848178938764,-0.04518477160788975,-0.06944451921989044,-0.03018133622366597,-0.16172696615370882,-0.016686809583609883
2132,7.0,299.23233999999997,799.00782,0.0,0.0,0.0,0.0,-0.021249238032705994,0.0,-0.06981585916953884,-0.0908694260996141,-0.08219313977233134,-0.025463629572564577,-0.17628607313058084,-0.011429275703231689
2133,7.0,298.89189,625.29496,0.0,0.0,0.0,0.0,-0.021259204842289815,0.0,-0.05733082448486185,-0.06425236530221475,-0.06849086545102213,-0.036006891017353465,-0.1835598105634428,0.004751525190414026
2134,7.0,299.2983,377.19996000000003,0.0,0.0,0.0,0.0,-0.02126917165187364,0.0,-0.03367499723721346,-0.02885828490559097,-0.052126088027444346,-0.061308955834972846,-0.20012696645599382,0.012893468707236289
2135,7.0,299.82394,482.24874000000005,0.0,0.0,0.0,0.0,-0.021279138461457455,0.0,-0.06461903011590174,-0.04358021914703276,-0.03839232695927767,-0.060640919030792745,-0.18708340805119483,0.005257037793129234
2136,7.0,301.08673,647.88301,0.0,0.0,0.0,0.0,-0.021289105271041275,0.0,-0.08355907588763871,-0.05549010166419665,-0.05789107984940474,-0.06460996558050713,-0.19451270977190982,-0.018510299046574284
2137,7.0,300.29464,513.27671,0.0,0.0,0.0,0.0,-0.0212990720806251,0.0,-0.03824379260061846,-0.06012114706074524,-0.05765836264593735,-0.06091775010386385,-0.18440023059388583,-0.014485164037574385
2138,7.0,299.9139,420.78404000000006,0.0,0.0,0.0,0.0,-0.02130903889020892,0.0,-0.017951794578204183,-0.06468311210522613,-0.04527293348584066,-0.06529779419889054,-0.19820630022893881,-0.01950423254666788
2139,7.0,299.61978999999997,544.8815599999999,0.0,0.0,0.0,0.0,-0.021319005699792743,0.0,-0.03785567120281386,-0.04758291775906836,-0.08019179857231433,-0.04585778752306125,-0.1706544189422798,0.022424226817348878
2140,7.0,300.42589,614.40572,0.0,0.0,0.0,0.0,-0.02132897250937656,0.0,-0.05111626879228295,-0.07198012085313484,-0.06366760752375364,-0.06265361673793053,-0.17879730204591984,0.002363252553509868
2141,7.0,301.02227,610.85371,0.0,0.0,0.0,0.0,-0.02133893931896038,0.0,-0.05095990606335116,-0.06333125915305865,-0.07139310859320122,-0.04765912733883965,-0.18194823627939283,-0.002243889665229668
2142,7.0,300.75925,487.66412,0.0,0.0,0.0,0.0,-0.0213489061285442,0.0,-0.05511831385800405,-0.045688777406381255,-0.04743062525578825,-0.06044457142641474,-0.17591847612680184,-0.024255217370803578
2143,7.0,300.12855,384.00441,0.0,0.0,0.0,0.0,-0.021358872938128017,0.0,-0.03228746774902497,-0.04352184479552166,-0.040918439505335566,-0.03991627233492936,-0.15414725758814987,-0.028130501809264373
2144,7.0,300.81978,607.33352,0.0,0.0,0.0,0.0,-0.02136883974771184,0.0,-0.07469484281255703,-0.050229777293043044,-0.05968960485640535,-0.04896953633541695,-0.1886995115631918,-0.017239517248157882
2145,7.0,299.94302000000005,670.88888,0.0,0.0,0.0,0.0,-0.02137880655729566,0.0,-0.06679429468233364,-0.05316169447765075,-0.08397747826468181,-0.05862474891556224,-0.1973359082605378,0.007998591020499473
2146,7.0,298.42716,403.8582,0.0,0.0,0.0,0.0,-0.02138877336687948,0.0,-0.04601955695452666,-0.037974687559559864,-0.03876856394665936,-0.05676137184916124,-0.22200235723742676,0.004676730715732386
2147,7.0,298.59168,402.49568999999997,0.0,0.0,0.0,0.0,-0.021398740176463305,0.0,-0.04649935620812916,-0.03448169529107837,-0.04136758794341307,-0.057887644931565736,-0.1939941992982368,0.02482763781604708
2148,7.0,299.08158,618.33249,0.0,0.0,0.0,0.0,-0.021408706986047125,0.0,-0.06441775912928784,-0.07015028033854363,-0.05338959671664295,-0.04338702376371586,-0.18222720429692485,0.008301049823049831
2149,7.0,300.70102,852.34704,0.0,0.0,0.0,0.0,-0.021418673795630946,0.0,-0.08952696901562392,-0.06339423771302415,-0.1061710103257629,-0.05113372810475605,-0.17008947121652382,0.032113988186153866
2150,7.0,301.07426,688.56585,0.0,0.0,0.0,0.0,-0.021428640605214766,0.0,-0.06882559768780763,-0.04671037162095475,-0.09377085560196291,-0.06700490276861903,-0.17117950540910185,0.008150295129446502
2151,7.0,300.30429,497.44024,0.0,0.0,0.0,0.0,-0.021438607414798586,0.0,-0.031739923606986575,-0.04268313817099776,-0.07678634807272251,-0.05339443397262035,-0.16227399961769684,0.029462664272238575
2152,7.0,300.1019,482.81240999999994,0.0,0.0,0.0,0.0,-0.02144857422438241,0.0,-0.05345339094293895,-0.03198037798821757,-0.06132914686971553,-0.04445049053867186,-0.17301367047511984,-2.8526326947579274e-05
2153,7.0,300.57723,612.8405700000001,0.0,0.0,0.0,0.0,-0.02145854103396623,0.0,-0.06445467892318153,-0.05924409195968664,-0.06258945875484864,-0.04391524927934766,-0.19078265244378184,0.01771004526334538
2154,7.0,299.59056,553.89713,0.0,0.0,0.0,0.0,-0.02146850784355005,0.0,-0.05990416360483065,-0.06284711406977724,-0.04561962004730596,-0.03894365559043956,-0.24047654101068675,-0.030385747272339773
2155,7.0,299.34058999999996,427.63996,0.0,0.0,0.0,0.0,-0.02147847465313387,0.0,-0.031609012707316676,-0.04518968688412486,-0.05319317007875715,-0.037503029770510864,-0.2141553431629868,-0.016872868646472486
2156,7.0,299.76564,287.89102,0.0,0.0,0.0,0.0,-0.02148844146271769,0.0,-0.021832044955405083,-0.05488484380971235,-0.01079479166286299,-0.03873314072316336,-0.20474400265665982,-0.06328912922715074
2157,7.0,299.55681,393.47065,0.0,0.0,0.0,0.0,-0.021498408272301515,0.0,-0.05160423484169145,-0.04340435034042586,-0.024596665429251877,-0.039146331954942166,-0.19424386412287684,-0.020197540821592082
2158,7.0,299.2996,581.94662,0.0,0.0,0.0,0.0,-0.021508375081885335,0.0,-0.06853255157338622,-0.06838120240594923,-0.039983488306813066,-0.05101178041547075,-0.21336002289449482,-0.02515280091888818
2159,7.0,299.48016,531.20918,0.0,0.0,0.0,0.0,-0.021518341891469155,0.0,-0.05497702018455945,-0.07463330408098363,-0.03186400013473197,-0.057867169173544945,-0.18736036983352883,0.004591400871810985
2160,7.0,299.35516,443.53663,0.0,0.0,0.0,0.0,-0.021528308701052976,0.0,-0.03189396194018897,-0.057501322052688646,-0.04542877641747116,-0.027350231344507675,-0.17293143509700382,-0.018127861981830685
2161,7.0,300.28555,577.98953,0.0,0.0,0.0,0.0,-0.021538275510636796,0.0,-0.04109177316019226,-0.06296416370807914,-0.07163844886641443,-0.04860531750747136,-0.17022678687007584,0.004017978220893576
2162,7.0,300.26159,693.9302799999999,0.0,0.0,0.0,0.0,-0.02154824232022062,0.0,-0.08049955809143783,-0.06454709239855204,-0.06589082820416843,-0.042542567958124555,-0.18572242064937583,-0.025361636830748678
2163,7.0,300.06195,634.04031,0.0,0.0,0.0,0.0,-0.02155820912980444,0.0,-0.08289403526400432,-0.028885231278750374,-0.08095315672395452,-0.06619063168350674,-0.20628583493632682,0.0003313360048353177
2164,7.0,300.52141,527.9446,0.0,0.0,0.0,0.0,-0.021568175939388264,0.0,-0.06779805569514714,-0.06194511883075724,-0.030738801097433474,-0.04291527478215786,-0.18999249975079982,0.002750699937347947
2165,7.0,300.36841,345.1601,0.0,0.0,0.0,0.0,-0.02157814274897208,0.0,-0.045940521420226456,-0.013281324633514687,-0.045698206711811865,-0.03961731187967426,-0.2026976224896978,0.01174749905613789
2166,7.0,300.64974,490.43422999999996,0.0,0.0,0.0,0.0,-0.0215881095585559,0.0,-0.07429732250682483,-0.03164003335912818,-0.043142403911323755,-0.034041752230159365,-0.21211631919175078,-0.0007792848358544253
2167,7.0,300.75936,765.4152799999999,0.0,0.0,0.0,0.0,-0.021598076368139724,0.0,-0.07285637042036393,-0.06266458821001335,-0.09714617508333101,-0.048055980926006055,-0.19840791673383681,-0.014109120580961788
2168,7.0,300.55191,658.54657,0.0,0.0,0.0,0.0,-0.021608043177723545,0.0,-0.0962467575525654,-0.042871864108123554,-0.06106309171145794,-0.03258627419026487,-0.17481141933254385,0.006923215719768193
2169,7.0,300.99282999999997,528.25767,0.0,0.0,0.0,0.0,-0.02161800998730736,0.0,-0.03885254718119786,-0.07239447124302803,-0.04933012266175405,-0.03947876715375096,-0.16556230016722684,-0.01019065952923979
2170,7.0,300.56827000000004,620.02475,0.0,0.0,0.0,0.0,-0.02162797679689118,0.0,-0.07435725219723942,-0.06878786628058384,-0.04532692451741916,-0.04719721093625205,-0.18366862349168184,0.022223723874310777
2171,7.0,298.98926,650.52394,0.0,0.0,0.0,0.0,-0.021637943606475002,0.0,-0.07074304988554543,-0.057680401848862445,-0.06931958345606024,-0.06411466360037464,-0.19161771238119582,0.023956541638826576
2172,7.0,299.08779,543.48834,0.0,0.0,0.0,0.0,-0.021647910416058826,0.0,-0.03916723327800496,-0.07524053574666273,-0.050799114418232254,-0.059369270903540855,-0.18264106630026983,-0.012806352503388588
2173,7.0,299.47395,269.67814,0.0,0.0,0.0,0.0,-0.021657877225642642,0.0,0.002161441605917678,-0.03249000124526347,-0.051646861260148356,-0.06041309481205824,-0.16159979313365785,-0.00988806555912609
2174,7.0,299.66286,270.60464,0.0,0.0,0.0,0.0,-0.021667844035226466,0.0,0.004004782360866246,-0.04983833142166036,-0.036423505007970064,-0.05510827761576355,-0.2067083906255298,-0.038514984936883066
2175,7.0,300.08772999999997,557.05953,0.0,0.0,0.0,0.0,-0.021677810844810286,0.0,-0.054985537564900044,-0.059078439753838044,-0.055268209011547546,-0.042477375446690564,-0.1986925589519288,-0.02526876739283318
2176,7.0,301.03152,554.3503599999999,0.0,0.0,0.0,0.0,-0.021687777654394107,0.0,-0.06289520393277334,-0.05476283532542104,-0.05085062805331625,-0.03394180726679557,-0.18752744464251783,-0.029488967231584475
2177,7.0,300.79916000000003,344.33158,0.0,0.0,0.0,0.0,-0.02169774446397793,0.0,-0.015380529581190086,-0.06218918848834504,-0.02709848429091218,-0.02177810965258208,-0.18965406408489882,-0.013792664336229986
2178,7.0,300.90504,422.62133,0.0,0.0,0.0,0.0,-0.021707711273561747,0.0,-0.041080033644533664,-0.02964137321887577,-0.05774492460198035,-0.040624748963850564,-0.22105153347608777,-0.015485812346080685
2179,7.0,300.27956,655.15625,0.0,0.0,0.0,0.0,-0.02171767808314557,0.0,-0.05376729886366925,-0.056338649986941845,-0.08904518987132601,-0.03947151532278526,-0.2005354481013078,0.01025838415267369
2180,7.0,299.17593,776.48315,0.0,0.0,0.0,0.0,-0.02172764489272939,0.0,-0.0890009979814646,-0.08463833011240282,-0.06239216173512694,-0.055560987627942544,-0.17655777614489584,0.013506667402754288
2181,7.0,299.39804,705.1573599999999,0.0,0.0,0.0,0.0,-0.02173761170231321,0.0,-0.07723028333903552,-0.04503203124806546,-0.09208791608686971,-0.06960254266573614,-0.16587171635026385,0.02639799511252927
2182,7.0,299.39563,633.23649,0.0,0.0,0.0,0.0,-0.021747578511897035,0.0,-0.09345819701860592,-0.06871639161852984,-0.03031349342095887,-0.07542629894049613,-0.18324491269736481,0.017960292706792884
2183,7.0,299.81579,694.71067,0.0,0.0,0.0,0.0,-0.021757545321480855,0.0,-0.07013865532014633,-0.05286263675038605,-0.08817340468403752,-0.048730165118542855,-0.18325275525313883,0.027116851475474872
2184,7.0,300.28499,770.1722900000001,0.0,0.0,0.0,0.0,-0.021767512131064676,0.0,-0.1027113793168239,-0.04948728180526445,-0.08191448180932992,-0.050636698533203045,-0.16784823292283085,0.015752241393625185
2185,7.0,300.27929,648.57029,0.0,0.0,0.0,0.0,-0.021777478940648496,0.0,-0.03332041137796857,-0.08191440074932192,-0.08191436224581812,-0.026153164504116373,-0.18606302467049082,-0.02059617063618378
2186,7.0,301.01198999999997,399.65736,0.0,0.0,0.0,0.0,-0.021787445750232316,0.0,-0.043052129406914365,-0.030254780643914368,-0.04817894693164186,-0.05827422213621795,-0.2044077860084778,-0.01081754014085809
2187,7.0,300.90963999999997,351.28943,0.0,0.0,0.0,0.0,-0.02179741255981614,0.0,-0.023240290341888077,-0.06874601601170352,-0.014796907656091086,-0.05671955603078435,-0.2038406800600088,-0.019605077276120483
2188,7.0,300.1897,419.21443,0.0,0.0,0.0,0.0,-0.02180737936939996,0.0,-0.07859251298547713,-0.03730205262642597,-0.01153615433702979,-0.037486372952116966,-0.17500571003921883,-0.012821933250176288
2189,7.0,300.15497,544.0215599999999,0.0,0.0,0.0,0.0,-0.02181734617898378,0.0,-0.03197681236111567,-0.05376009668195844,-0.07963205996532242,-0.036064780022066666,-0.18029063004329982,0.004229487390492906
2190,7.0,300.39099999999996,394.76519,0.0,0.0,0.0,0.0,-0.0218273129885676,0.0,-0.020687142256661982,-0.06205881157147784,-0.037252806645065764,-0.06794505396665473,-0.2038131601872928,-0.0073771754746205336
2191,7.0,299.68104,391.90567999999996,0.0,0.0,0.0,0.0,-0.02183727979815142,0.0,0.009025527596225222,-0.051177751795100854,-0.07697731531906953,-0.047763041202845156,-0.1972999378819878,0.004675011838262745
2192,7.0,301.2187,670.98014,0.0,0.0,0.0,0.0,-0.021847246607735245,0.0,-0.061056781189835145,-0.08502626912518942,-0.057878157870879444,-0.027716739104429178,-0.17791697009403784,-0.014370652590772987
2193,7.0,300.36982,751.2455,0.0,0.0,0.0,0.0,-0.021857213417319065,0.0,-0.07738619821142313,-0.0941178805889616,-0.05685579257297985,-0.031024614632641074,-0.18502335914038381,-0.02010049780651468
2194,7.0,298.94734,640.47461,0.0,0.0,0.0,0.0,-0.021867180226902882,0.0,-0.10041523097371172,-0.051246740954659545,-0.04302631787386696,-0.06286340307838484,-0.2004420973695948,0.0019229493835053282
2195,7.0,299.88687999999996,470.42427999999995,0.0,0.0,0.0,0.0,-0.021877147036486706,0.0,-0.046053704496146756,-0.05833374652659254,-0.03860978258973886,-0.06278764743465834,-0.2032632186955178,-0.012175236506352289
2196,7.0,299.47783,347.96712,0.0,0.0,0.0,0.0,-0.021887113846070526,0.0,-0.06863695990344053,-0.01016431401338969,-0.026972040810933177,-0.05034171812434075,-0.1868605132941968,0.02667873733098637
2197,7.0,300.67287999999996,508.26365,0.0,0.0,0.0,0.0,-0.021897080655654346,0.0,-0.02845495969003587,-0.03281465164355397,-0.0932298469230695,-0.027577819475968875,-0.20530702520722582,-0.007359871493387763
2198,7.0,300.38063999999997,784.85046,0.0,0.0,0.0,0.0,-0.021907047465238163,0.0,-0.0862598170221811,-0.08794598880509331,-0.06436913730998924,-0.03983651536655796,-0.2235213609923408,0.018864222240253786
2199,7.0,300.60136,659.03137,0.0,0.0,0.0,0.0,-0.021917014274821987,0.0,-0.06985227233838252,-0.04002055603522136,-0.09045625107983692,-0.04910971239400125,-0.1946588812313358,0.02029322608153548
2200,7.0,300.18911,596.88461,0.0,0.0,0.0,0.0,-0.021926981084405807,0.0,-0.09229272230308251,-0.05588935361434975,-0.03325594232710597,-0.04358508680051316,-0.15606365803228384,0.04821713835441105
2201,7.0,300.87057999999996,626.89319,0.0,0.0,0.0,0.0,-0.021936947893989627,0.0,-0.06584212836461215,-0.04504178884652846,-0.07967595902590492,-0.025482820529458577,-0.15687668991252385,0.012375102115077488
2202,7.0,299.61686000000003,696.23563,0.0,0.0,0.0,0.0,-0.02194691470357345,0.0,-0.09030908663531291,-0.048537501691528456,-0.07279166021597752,-0.06564241271690174,-0.17658785954036482,0.026682249255832974
2203,7.0,299.34695,665.21509,0.0,0.0,0.0,0.0,-0.021956881513157268,0.0,-0.012770439880094287,-0.1006242827078435,-0.08881405536451482,-0.05094802266617836,-0.2055252488812628,-0.011919403015103488
2204,7.0,299.05679,388.59325,0.0,0.0,0.0,0.0,-0.02196684832274109,0.0,-0.05175335992515895,-0.03994963562097206,-0.026419650293666472,-0.05538567914864095,-0.18034725045888783,-0.011757209031846188
2205,7.0,299.71221,365.15704,0.0,0.0,0.0,0.0,-0.02197681513232491,0.0,-0.027225448581442574,-0.06055612722267445,-0.023217046384594077,-0.059965708415904644,-0.2028549700977268,-0.03246355035140297
2206,7.0,300.28164,391.23447999999996,0.0,0.0,0.0,0.0,-0.021986781941908732,0.0,-0.06175226693922423,-0.03375775443913097,-0.023415490403428975,-0.049251541063498654,-0.23131385207889976,-0.02083403109715878
2207,7.0,300.02517,415.35841,0.0,0.0,0.0,0.0,-0.021996748751492556,0.0,-0.04188678945365426,-0.039502431609836464,-0.04486936306376136,-0.05619525077978945,-0.1961525334687478,-0.03142507336366327
2208,7.0,300.23958,457.33997,0.0,0.0,0.0,0.0,-0.022006715561076372,0.0,-0.06456872832793734,-0.04824235612289986,-0.026208846650111774,-0.04202567868461156,-0.17524752217558381,-0.03642836962170017
2209,7.0,300.42739,627.15396,0.0,0.0,0.0,0.0,-0.022016682370660196,0.0,-0.03424656857887317,-0.07758537481008032,-0.07880720142991522,-0.03572470289100367,-0.18802288341141382,-0.04204133339865656
2210,7.0,300.08734,747.36051,0.0,0.0,0.0,0.0,-0.022026649180244016,0.0,-0.07846226475137262,-0.08767817565791222,-0.061038493038780235,-0.06041231460948124,-0.1901871552275108,-0.011845820792841489
2211,7.0,300.24413,689.01007,0.0,0.0,0.0,0.0,-0.022036615989827837,0.0,-0.07630667344888233,-0.06593925345294764,-0.06719593080997203,-0.04565570289661706,-0.2048802341326048,0.01664483468496728
2212,7.0,300.91585,691.33993,0.0,0.0,0.0,0.0,-0.02204658279941166,0.0,-0.08415166000987222,-0.046867151808927754,-0.07913126414314772,-0.06043924882363945,-0.18138101887341282,0.054802058236792045
2213,7.0,301.34625,525.8405,0.0,0.0,0.0,0.0,-0.022056549608995477,0.0,-0.06047765505542985,-0.03405561247827727,-0.06530911524225784,-0.06490878722049853,-0.17215258014263685,0.03791400502432096
2214,7.0,300.44797,455.4264,0.0,0.0,0.0,0.0,-0.0220665164185793,0.0,-0.05665323881173935,-0.034665228321441664,-0.047119787482860956,-0.07424263638567773,-0.2062109557539368,0.008291849512141831
2215,7.0,300.42114,585.98737,0.0,0.0,0.0,0.0,-0.02207648322816312,0.0,-0.04089854028662166,-0.044966050428053655,-0.0922609376606956,-0.03303805201235187,-0.1862674276131638,-0.02237031279277798
2216,7.0,300.75824,626.47505,0.0,0.0,0.0,0.0,-0.02208645003774694,0.0,-0.07771574868719723,-0.05299669176511625,-0.059720331665687854,-0.04831308503288025,-0.1883359371623098,-0.014010653949493884
2217,7.0,300.05231000000003,433.14811,0.0,0.0,0.0,0.0,-0.022096416847330765,0.0,-0.02832472057518227,-0.04234630850650526,-0.060995181663255744,-0.02608601540673927,-0.19605946644706282,-0.023941117945804377
2218,7.0,300.29515,396.43167,0.0,0.0,0.0,0.0,-0.022106383656914586,0.0,-0.06120801687326094,-0.014201738732852486,-0.045095572161836454,-0.06537690977994864,-0.2030187214463878,0.013127310618314687
2219,7.0,299.94383999999997,514.14221,0.0,0.0,0.0,0.0,-0.022116350466498406,0.0,-0.049063808111470854,-0.045138582602081256,-0.06208400198221394,-0.03156153991363147,-0.19164484721887382,-0.004836221347722886
2220,7.0,298.93085,736.46296,0.0,0.0,0.0,0.0,-0.022126317276082226,0.0,-0.08274329708637763,-0.060392996996324735,-0.08073005729043632,-0.04784419037685396,-0.19949954172907183,0.021008864362163482
2221,7.0,299.1596,851.70211,0.0,0.0,0.0,0.0,-0.022136284085666046,0.0,-0.051088520938294454,-0.10380581101483591,-0.1040018445116829,-0.03956567057507766,-0.18828443365972683,-0.022901512197453275
2222,7.0,299.84028,636.28535,0.0,0.0,0.0,0.0,-0.022146250895249867,0.0,-0.06821073320912524,-0.062270653796385037,-0.06293347033604994,-0.04216580408069086,-0.21193586948144183,0.014151812860675185
2223,7.0,300.11489,309.64069,0.0,0.0,0.0,0.0,-0.02215621770483369,0.0,0.015026344968984787,-0.06420578720836784,-0.04494359680583766,-0.04071780180003416,-0.21161254137453178,-0.008309873103595622
2224,7.0,300.13995,349.04713,0.0,0.0,0.0,0.0,-0.022166184514417507,0.0,-0.04407581800944455,-0.03320570640039807,-0.028820086390071074,-0.036648332032908765,-0.1954166909811258,0.03043949917689467
2225,7.0,301.01264,557.30744,0.0,0.0,0.0,0.0,-0.022176151324001327,0.0,-0.04040196566436356,-0.05741721317513774,-0.07158836796697184,-0.06913725821981614,-0.1952500214721768,-0.015300088669001184
2226,7.0,300.16643,484.35309000000007,0.0,0.0,0.0,0.0,-0.022186118133585148,0.0,-0.03958662864014607,-0.06342984028178784,-0.04421477614140866,-0.06457036270034863,-0.2067837257704648,-0.04183090060463846
2227,7.0,300.25748,446.72114000000005,0.0,0.0,0.0,0.0,-0.02219608494316897,0.0,-0.023596030292996877,-0.040903114097573065,-0.07129292652931403,-0.06218221124815644,-0.1984008442481388,-0.05627023837994015
2228,7.0,299.43559,570.89729,0.0,0.0,0.0,0.0,-0.022206051752752788,0.0,-0.07461285872046584,-0.04509337036936916,-0.05383229176483355,-0.04879540930573195,-0.19197005997096983,-0.017377280758254086
2229,7.0,300.09266,550.89075,0.0,0.0,0.0,0.0,-0.022216018562336612,0.0,-0.03619722396913787,-0.05338890871982505,-0.07787090058225953,-0.04667942898940095,-0.2136111569317798,0.0028814369633006873
2230,7.0,299.31494,712.07423,0.0,0.0,0.0,0.0,-0.022225985371920432,0.0,-0.1114876957204789,-0.03325814715932357,-0.07170693950692393,-0.05077246290085195,-0.2130509410839908,0.04929714035774895
2231,7.0,299.47696,777.1831599999999,0.0,0.0,0.0,0.0,-0.022235952181504252,0.0,-0.08339368104731552,-0.048488489770941355,-0.1043621055847379,-0.031515489723086675,-0.1991068769178188,0.054987470846090854
2232,7.0,299.08789,716.80158,0.0,0.0,0.0,0.0,-0.022245918991088076,0.0,-0.09093248875933792,-0.07811801100339742,-0.04883928202181186,-0.029760281157861074,-0.19658769398919482,0.026757932958802376
2233,7.0,299.88787,798.85191,0.0,0.0,0.0,0.0,-0.022255885800671893,0.0,-0.07553674218814603,-0.06926416678159103,-0.0980301233248199,-0.07561796634266223,-0.17608274423301384,0.012836183599582687
2234,7.0,299.90496,674.55395,0.0,0.0,0.0,0.0,-0.022265852610255717,0.0,-0.0952180604547909,-0.07158700007933683,-0.03824249665374056,-0.08755979258247873,-0.18134061045942484,-0.024179530628083878
2235,7.0,300.47564,362.957,0.0,0.0,0.0,0.0,-0.022275819419839537,0.0,-0.025412003466719478,-0.031560875221565865,-0.05335698830192475,-0.0894945622376756,-0.17098452569235884,-0.00926030666232111
2236,7.0,300.57977999999997,221.87649,0.0,0.0,0.0,0.0,-0.022285786229423357,0.0,-0.04690569584273176,-0.013518454541167587,-0.007020762522795313,-0.06084294691523135,-0.17354601181265783,-0.0008257489998600812
2237,7.0,300.76953,413.58171,0.0,0.0,0.0,0.0,-0.02229575303900718,0.0,-0.016329590287355086,-0.04930598501787186,-0.060082936386224146,-0.05197782319331175,-0.1947334564386958,-0.011340775399747387
2238,7.0,300.63907,454.94642000000005,0.0,0.0,0.0,0.0,-0.022305719848590998,0.0,-0.04192698508512126,-0.055694774131396244,-0.04067059143812486,-0.03866251111169276,-0.2015391432528648,-0.02513183069481858
2239,7.0,299.66525,391.55177000000003,0.0,0.0,0.0,0.0,-0.02231568665817482,0.0,-0.01336941051770809,-0.05523179280295354,-0.05042075872489145,-0.03391245645114887,-0.1951643613087228,-0.048011481008114254
2240,7.0,299.8901,556.80818,0.0,0.0,0.0,0.0,-0.02232565346775864,0.0,-0.06251222984547673,-0.07043253533940003,-0.03631101803486846,-0.021663230395994378,-0.19203838342521282,-0.02318153196858908
2241,7.0,300.40291,793.00068,0.0,0.0,0.0,0.0,-0.022335620277342462,0.0,-0.07057375707208753,-0.08810968949124932,-0.08236895892968332,-0.047889972056122256,-0.1993499961468128,0.004470070049186566
2242,7.0,299.8336,635.7552,0.0,0.0,0.0,0.0,-0.022345587086926286,0.0,-0.09639938645487872,-0.06368681469264924,-0.033167504845127864,-0.05626362287003724,-0.22471918473055677,0.023381611373085375
2243,7.0,300.12225,569.35432,0.0,0.0,0.0,0.0,-0.022355553896510102,0.0,-0.046765411366386754,-0.06036872965642974,-0.06593535446656285,-0.06836222321832613,-0.2088441495838128,0.035221961628636965
2244,7.0,299.81881,433.42289000000005,0.0,0.0,0.0,0.0,-0.022365520706093926,0.0,-0.04595176646983625,-0.06276228274490503,-0.02303568677569528,-0.09305945574650322,-0.2087603436680418,-0.012510655726705589
2245,7.0,299.14266000000003,439.63947,0.0,0.0,0.0,0.0,-0.022375487515677746,0.0,-0.03121737634491517,-0.04744705206640945,-0.05497499469760954,-0.06295858677952874,-0.18494913857055884,-0.023848263706640376
2246,7.0,299.32229,649.39048,0.0,0.0,0.0,0.0,-0.022385454325261567,0.0,-0.07248594036930534,-0.07081856944199864,-0.05409398082841025,-0.07050445380499783,-0.19371134040032081,-0.05110561750723175
2247,7.0,299.55279,566.7372799999999,0.0,0.0,0.0,0.0,-0.02239542113484539,0.0,-0.05114575943644345,-0.03880420907192726,-0.08232401318174752,-0.03173867832261367,-0.15339947901434986,0.007265824050906003
2248,7.0,300.89752999999996,460.03415,0.0,0.0,0.0,0.0,-0.022405387944429207,0.0,-0.07125726924504493,-0.020600969388657377,-0.04798065591357205,-0.06297304484520565,-0.18597906676720483,0.006592341027438404
2249,7.0,301.50678999999997,553.38868,0.0,0.0,0.0,0.0,-0.022415354754013028,0.0,-0.029960109276332574,-0.03504168518409507,-0.1032145491839829,-0.05197757900003765,-0.2032497323366868,0.03521733208893007
2250,7.0,300.10502,739.4048700000001,0.0,0.0,0.0,0.0,-0.022425321563596848,0.0,-0.09971711178731271,-0.06021320488533064,-0.06483030086775253,-0.06373247680840574,-0.2303750961262518,0.006757227216211404
2251,7.0,299.69437,845.0395900000001,0.0,0.0,0.0,0.0,-0.02243528837318067,0.0,-0.07547535139108723,-0.07988255768154462,-0.1015130286885559,-0.04242861177237796,-0.2019174503102008,0.014678267215132185
2252,7.0,299.55542,638.05984,0.0,0.0,0.0,0.0,-0.022445255182764492,0.0,-0.06614519450927243,-0.08104997986376022,-0.04675908665926255,-0.04545690930649766,-0.2158740382476088,0.002083638589039118
2253,7.0,300.46522000000004,484.27154,0.0,0.0,0.0,0.0,-0.02245522199234831,0.0,-0.023336361650119576,-0.06057060555335334,-0.06329948869617313,-0.07029103090993463,-0.2038998639983498,-0.013498319235180387
2254,7.0,300.67,386.78761000000003,0.0,0.0,0.0,0.0,-0.022465188801932132,0.0,-0.045951285176038754,-0.028101429637395172,-0.043521060539944256,-0.04868044189638555,-0.1982088130891868,0.014699821071259386
2255,7.0,299.79042999999996,231.0449,0.0,0.0,0.0,0.0,-0.022475155611515953,0.0,0.01815869315587348,-0.029852090736171975,-0.05853848181529835,-0.04495081621280016,-0.19599193332789783,-0.017510671080918683
2256,7.0,300.94673,410.24318999999997,0.0,0.0,0.0,0.0,-0.022485122421099773,0.0,-0.04544716893328636,-0.03939238960922616,-0.03986412845828317,-0.032710080180233574,-0.19660390599079483,-0.015773159941939684
2257,7.0,300.13257999999996,557.4470299999999,0.0,0.0,0.0,0.0,-0.022495089230683597,0.0,-0.04535489832617996,-0.06556914054917035,-0.05852593980556054,-0.04880827150250136,-0.2008226842396558,-0.050766747157037856
2258,7.0,299.0724,510.42365,0.0,0.0,0.0,0.0,-0.022505056040267413,0.0,-0.06517478057050004,-0.06805208762771814,-0.02192917612324118,-0.052791342446849854,-0.2135597851517098,-0.030817704909220676
2259,7.0,299.26197,644.47656,0.0,0.0,0.0,0.0,-0.022515022849851237,0.0,-0.06831895034630543,-0.06008321401675154,-0.06750261628398953,-0.06014547215589595,-0.18217296501907185,0.004355811306960105
2260,7.0,299.51957000000004,699.5435200000001,0.0,0.0,0.0,0.0,-0.022524989659435057,0.0,-0.09104745414218411,-0.056507628692868746,-0.06508867964325253,-0.04907341574891905,-0.2090878666303658,0.027360792450299973
2261,7.0,299.35244,620.51075,0.0,0.0,0.0,0.0,-0.022534956469018878,0.0,-0.02424640209493358,-0.07532807751555243,-0.08904529322283622,-0.06592547122508743,-0.18250743887708182,0.04188509631273716
2262,7.0,300.8676,684.65546,0.0,0.0,0.0,0.0,-0.0225449232786027,0.0,-0.07293236316461382,-0.07071643281866853,-0.06446936902313134,-0.05963257508777694,-0.22163623957879378,0.006589514768934473
2263,7.0,299.972,621.5699400000001,0.0,0.0,0.0,0.0,-0.022554890088186518,0.0,-0.061216592008857235,-0.04956945334862416,-0.07815569478786652,-0.022661798502045378,-0.17927093567266383,0.0061293117722659735
2264,7.0,300.63678,489.6373,0.0,0.0,0.0,0.0,-0.022564856897770342,0.0,-0.06115541298106935,-0.047444078177365956,-0.04023802179818356,-0.03371858421676517,-0.18313073967609683,-0.02920283046959497
2265,7.0,301.8022,349.03468,0.0,0.0,0.0,0.0,-0.022574823707354162,0.0,-0.03642763704187787,-0.03273037051348607,-0.036939820781926466,-0.039698387086425764,-0.18872587633079382,-0.014726581006400384
2266,7.0,301.16027,315.53922,0.0,0.0,0.0,0.0,-0.022584790516937982,0.0,-0.02040982887654328,-0.036488673201401665,-0.03901754077448146,-0.04300773993328346,-0.21989685392712977,-0.010365709629765891
2267,7.0,300.81267,404.29616,0.0,0.0,0.0,0.0,-0.022594757326521806,0.0,-0.018537485560007384,-0.04121741515934216,-0.06314103563228504,-0.07808709268984602,-0.19057013336780781,-0.011155044629917189
2268,7.0,300.99287999999996,502.32209000000006,0.0,0.0,0.0,0.0,-0.022604724136105623,0.0,-0.03800589768914007,-0.051402214050003545,-0.06328526266476914,-0.026693741538467177,-0.2080284933858138,-0.00949287866704918
2269,7.0,299.29432,629.86992,0.0,0.0,0.0,0.0,-0.022614690945689447,0.0,-0.051622653702009254,-0.07403717560990034,-0.06580489648968764,-0.06730739034747224,-0.18652502618608682,-0.018590938555782782
2270,7.0,299.16946,720.5448200000001,0.0,0.0,0.0,0.0,-0.022624657755273267,0.0,-0.09751429593741172,-0.06035918889348815,-0.06115414844494454,-0.045718811152595365,-0.18979871566917483,0.004286457782665446
2271,7.0,298.80257,770.7124299999999,0.0,0.0,0.0,0.0,-0.022634624564857087,0.0,-0.08178436327123823,-0.08543533440256101,-0.06705763838332364,-0.08263006942745292,-0.19181203348537382,0.008682521057798112
2272,7.0,299.55708,691.4671599999999,0.0,0.0,0.0,0.0,-0.02264459137444091,0.0,-0.07790325771095293,-0.07019280847174084,-0.06209268350907073,-0.04978105239350736,-0.19858509364632282,0.013576278697874386
2273,7.0,299.98677999999995,574.06012,0.0,0.0,0.0,0.0,-0.022654558184024728,0.0,-0.02483570430009318,-0.05956390003574924,-0.0901003388762111,-0.05299855918505054,-0.20741378494764678,0.01070211676896669
2274,7.0,300.88907,418.09016,0.0,0.0,0.0,0.0,-0.02266452499360855,0.0,-0.03345486156023776,-0.061227195671153735,-0.03240691372381337,-0.029683304547764074,-0.1998275915814478,-0.016057945028295783
2275,7.0,299.8303,430.00474,0.0,0.0,0.0,0.0,-0.02267449180319237,0.0,-0.003089927762177127,-0.06017779280758575,-0.06744298246260413,-0.047673097017968354,-0.18553713773608982,-0.013485331395398589
2276,7.0,300.04815,522.47906,0.0,0.0,0.0,0.0,-0.022684458612776192,0.0,-0.08675961276650711,-0.03909771824164436,-0.03296325895622037,-0.048646834417068754,-0.2117899715995428,-0.03055479386602337
2277,7.0,300.48793,502.24335999999994,0.0,0.0,0.0,0.0,-0.022694425422360012,0.0,-0.06513560426863364,-0.04006620193897626,-0.04746763218919055,-0.04549308436156786,-0.2031431890886718,-0.0028577353209365175
2278,7.0,300.86177000000004,524.1334400000001,0.0,0.0,0.0,0.0,-0.02270439223194383,0.0,-0.06131217189079024,-0.03729368723360037,-0.06071762003686254,-0.03765632235163967,-0.2211582591091208,-0.008037325140022233
2279,7.0,300.92401,684.4603400000001,0.0,0.0,0.0,0.0,-0.022714359041527653,0.0,-0.05904779096481324,-0.04928467636826886,-0.0997263850522279,-0.036616850352301764,-0.19103657291884182,0.04205590292184446
2280,7.0,300.85111,742.1452099999999,0.0,0.0,0.0,0.0,-0.022724325851111473,0.0,-0.07968866011590843,-0.05293962551948425,-0.09296532683871342,-0.058779212813806644,-0.20725354957683279,0.013225813726786186
2281,7.0,299.63597000000004,704.5028599999999,0.0,0.0,0.0,0.0,-0.022734292660695293,0.0,-0.06174676397793115,-0.07232058301923583,-0.08008392999316852,-0.05509711058641145,-0.1991507911771528,0.024989050583477276
2282,7.0,299.57852,757.70547,0.0,0.0,0.0,0.0,-0.022744259470279117,0.0,-0.1240582993761009,-0.06537714384072174,-0.040888102797341556,-0.06314134062056515,-0.1973346720954158,-0.008155103305146032
2283,7.0,299.48888,645.44251,0.0,0.0,0.0,0.0,-0.022754226279862934,0.0,-0.08295323338784671,-0.059952234216074846,-0.05329293873660354,-0.030490288338157173,-0.18951276635845382,-0.002239975986718418
2284,7.0,299.23932,345.54312000000004,0.0,0.0,0.0,0.0,-0.022764193089446758,0.0,-0.022755363029529477,-0.05816342222453285,-0.02411769400098108,-0.05597609795541074,-0.19598147658686582,-0.027293513656910077
2285,7.0,300.62066,347.11976,0.0,0.0,0.0,0.0,-0.022774159899030578,0.0,-0.0034875719883965565,-0.04425848876397276,-0.057769678301923345,-0.05845600528365854,-0.19171257285555782,-0.02308756315431508
2286,7.0,299.76306,470.07613,0.0,0.0,0.0,0.0,-0.022784126708614398,0.0,-0.038127476555388964,-0.051838102084022356,-0.05292582809287255,-0.028974765097336676,-0.1982426657750278,-0.004901923625282195
2287,7.0,299.92556,416.44792,0.0,0.0,0.0,0.0,-0.022794093518198222,0.0,-0.020038857749931284,-0.06078907646041474,-0.04576183375184136,-0.037305372033753566,-0.2014980255638068,-0.03245710709401707
2288,7.0,301.65632999999997,495.55562000000003,0.0,0.0,0.0,0.0,-0.02280406032778204,0.0,-0.08082463506802043,-0.026195731140817375,-0.043616169260580755,-0.05962387532241835,-0.2010102267006648,0.018349826575236882
2289,7.0,301.56776,669.79987,0.0,0.0,0.0,0.0,-0.022814027137365862,0.0,-0.051833416815559946,-0.07959693261085563,-0.07217208615083033,-0.07608187986119692,-0.23866481943438378,-0.029148441230727174
2290,7.0,301.12327999999997,708.63899,0.0,0.0,0.0,0.0,-0.022823993946949683,0.0,-0.0902084658341324,-0.04704894103586896,-0.07815114934791792,-0.07409014021912753,-0.2020215516254748,0.01060819253769709
2291,7.0,300.17113,697.2622700000001,0.0,0.0,0.0,0.0,-0.022833960756533503,0.0,-0.07560294389667963,-0.06565584030722695,-0.07069153523721133,-0.03569433274575637,-0.2006524683553568,-0.0038298045050722766
2292,7.0,299.39206,677.7382299999999,0.0,0.0,0.0,0.0,-0.022843927566117327,0.0,-0.07807541194269323,-0.06722913602899913,-0.060710949811454244,-0.028927450370667074,-0.19861993931726182,0.02064861544810968
2293,7.0,299.41738,563.97656,0.0,0.0,0.0,0.0,-0.022853894375701143,0.0,-0.05248498121286435,-0.05739319306826715,-0.06155661847741524,-0.07297165193724134,-0.19759447955355683,0.0006135569604883574
2294,7.0,299.76765,540.47278,0.0,0.0,0.0,0.0,-0.022863861185284967,0.0,-0.06867503480244823,-0.05037513409938865,-0.045240059599596254,-0.044395779086272256,-0.18297312862304183,-0.007376007197255233
2295,7.0,299.82466,565.8188700000001,0.0,0.0,0.0,0.0,-0.022873827994868787,0.0,-0.05032149770534515,-0.05150677538082295,-0.07016653590989792,-0.04353505048407496,-0.1983342027890618,-0.003076148675392237
2296,7.0,299.71209,353.31045,0.0,0.0,0.0,0.0,-0.022883794804452608,0.0,-0.03482689744114717,-0.03190362024014218,-0.040667036956774066,-0.05918345096770184,-0.17457039753125683,-0.009329060139906552
2297,7.0,299.70257000000004,215.61357,0.0,0.0,0.0,0.0,-0.02289376161403643,0.0,-0.005070182518338055,-0.018039417407101882,-0.04243154209166716,-0.07003119001454033,-0.2187113715751318,0.00024467016025956473
2298,7.0,301.14756,522.7382,0.0,0.0,0.0,0.0,-0.022903728423620248,0.0,-0.05961507828505014,-0.03450416512529597,-0.06478011661679973,-0.06329211324869524,-0.19056899852769582,-0.006124118865503474
2299,7.0,299.99247,660.98,0.0,0.0,0.0,0.0,-0.022913695233204072,0.0,-0.08589116826479833,-0.038241962670937865,-0.07678828338041353,-0.03675797481297967,-0.19795017086866082,0.029151697816548573
2300,7.0,299.74941,624.0104,0.0,0.0,0.0,0.0,-0.022923662042787892,0.0,-0.07283663230841593,-0.05784227868483844,-0.059004668053807344,-0.031516646854700875,-0.2030821306376458,0.0016439000019902983
2301,7.0,299.99971,564.17607,0.0,0.0,0.0,0.0,-0.022933628852371712,0.0,-0.02131255061588498,-0.05978144077921884,-0.09040144539517801,-0.04598312858693146,-0.22454812784867478,-0.004823419135359405
2302,7.0,300.01247,713.34578,0.0,0.0,0.0,0.0,-0.022943595661955536,0.0,-0.06639257546818704,-0.09130636082098621,-0.05914036959995004,-0.06816443477230594,-0.18974951224431882,0.0024862703362257777
2303,7.0,300.02511,782.01138,0.0,0.0,0.0,0.0,-0.022953562471539353,0.0,-0.07210633229884093,-0.07705923354990422,-0.08854636887359622,-0.06481952393968893,-0.21379203220713078,-0.012730555316407988
2304,7.0,299.91348999999997,537.3881,0.0,0.0,0.0,0.0,-0.022963529281123173,0.0,-0.06740441512404785,-0.03713490182367946,-0.05881324788466565,-0.05989569384724474,-0.19661629803951783,0.008036592965499972
2305,7.0,299.97677999999996,372.57265,0.0,0.0,0.0,0.0,-0.022973496090706993,0.0,-0.014188356738781785,-0.056319394182041446,-0.042745030526856055,-0.05701219177891524,-0.22167708369032477,-0.016380339931863684
2306,7.0,300.14988999999997,369.04384,0.0,0.0,0.0,0.0,-0.022983462900290814,0.0,-0.03719275840438946,-0.03677290302670296,-0.03821445191747276,-0.05068773290098975,-0.20380962394444382,0.014962163681150586
2307,7.0,299.9433,506.63669000000004,0.0,0.0,0.0,0.0,-0.022993429709874634,0.0,-0.011328748121060389,-0.07453843955362123,-0.06813771435391884,-0.04652566322047546,-0.22218323251277777,-0.014929987924225086
2308,7.0,301.0419,756.91875,0.0,0.0,0.0,0.0,-0.023003396519458454,0.0,-0.1081981387408249,-0.05769689654724034,-0.06418936343749694,-0.053450084707862645,-0.18507577456805682,0.01134614461202729
2309,7.0,300.57039,553.7273700000001,0.0,0.0,0.0,0.0,-0.023013363329042278,0.0,-0.04345970925963936,-0.04243410358791996,-0.08242548004676152,-0.060744456979011145,-0.19997878876136982,0.00810905169605109
2310,7.0,300.26637999999997,376.41896,0.0,0.0,0.0,0.0,-0.0230233301386261,0.0,-0.06262841315494315,-0.04224812254531506,-0.009545429870235581,-0.06748351145335403,-0.14960843416270284,-0.009849712320315921
2311,7.0,300.4994,636.92917,0.0,0.0,0.0,0.0,-0.02303329694820992,0.0,-0.07440731080517983,-0.03424481362969997,-0.08495843811049501,-0.06674810567652514,-0.18183742724845683,0.021869836144384775
2312,7.0,299.76271,747.14193,0.0,0.0,0.0,0.0,-0.023043263757793742,0.0,-0.07782451703243183,-0.07651808301599683,-0.07276989053757903,-0.06412955837684464,-0.1921309336893468,-0.016083340115552083
2313,7.0,298.88546,453.9404,0.0,0.0,0.0,0.0,-0.02305323056737756,0.0,-0.0034997020106436964,-0.07143323025741093,-0.06305361342690714,-0.05319923640710586,-0.24402489219838178,-0.01015463848818479
2314,7.0,299.98872,430.71885,0.0,0.0,0.0,0.0,-0.023063197376961383,0.0,-0.04050257835954326,-0.05687255274288395,-0.03355264424788817,-0.045463015151600256,-0.22473865939747878,-0.00996733637009951
2315,7.0,299.42183,470.79007,0.0,0.0,0.0,0.0,-0.023073164186545203,0.0,-0.045171223440802655,-0.05245283180044145,-0.04548437041070786,-0.0040995310737422155,-0.2198344377209698,0.012793581499128187
2316,7.0,299.55176,523.3152200000001,0.0,0.0,0.0,0.0,-0.023083130996129023,0.0,-0.08191068414795513,-0.023844042506723777,-0.053320034057527645,-0.04445131633750336,-0.1990003944648098,-0.012215628708338689
2317,7.0,300.89886,736.32069,0.0,0.0,0.0,0.0,-0.023093097805712847,0.0,-0.07909447708501713,-0.053313519872634746,-0.09141510586146852,-0.033245656825340864,-0.2147297039821718,0.03191143949116387
2318,7.0,299.86721,650.31953,0.0,0.0,0.0,0.0,-0.023103064615296664,0.0,-0.07049520992433553,-0.07506080341742453,-0.052124886312825754,-0.05879772084013324,-0.1904693960428658,-0.012943248671399187
2319,7.0,299.38797999999997,516.00212,0.0,0.0,0.0,0.0,-0.023113031424880488,0.0,-0.027786480095562078,-0.05845906327246035,-0.07060621653904103,-0.03975885481264346,-0.2021302429637018,-0.0018053804545271781
2320,7.0,301.10839,651.17045,0.0,0.0,0.0,0.0,-0.023122998234464308,0.0,-0.11084556873460591,-0.04623926301345996,-0.04085472937879786,-0.07889085231842093,-0.2069046875674028,0.002954245670436347
2321,7.0,300.78873,609.2812299999999,0.0,0.0,0.0,0.0,-0.023132965044048128,0.0,-0.04843037683795605,-0.07819413749666053,-0.05858176583307014,-0.07566495074979922,-0.2254428175544738,-0.012081374083338788
2322,7.0,300.45989,364.1628,0.0,0.0,0.0,0.0,-0.023142931853631952,0.0,-0.06051298404666654,-0.02344192812503818,-0.02674148689642927,-0.07877308833879852,-0.1947208921374558,-0.008854703964516243
2323,7.0,300.87067,464.38523,0.0,0.0,0.0,0.0,-0.02315289866321577,0.0,-0.03829681901810176,-0.07105054899939324,-0.03181414620331177,-0.037970382259884965,-0.1945492779680188,-0.04578419922129866
2324,7.0,300.11966,618.91846,0.0,0.0,0.0,0.0,-0.023162865472799592,0.0,-0.05204838897002605,-0.07904445090107994,-0.05704291656169754,-0.04152255441370706,-0.19038512403204882,-0.0016701236238533684
2325,7.0,300.43669,642.6889,0.0,0.0,0.0,0.0,-0.023172832282383413,0.0,-0.03263285329736187,-0.07367626403028113,-0.08905226033052381,-0.03732145839234117,-0.24492053435927474,-0.01009164422284274
2326,7.0,299.78551,562.42883,0.0,0.0,0.0,0.0,-0.023182799091967233,0.0,-0.04978431708532955,-0.08038124290376102,-0.040798759469774064,-0.048634416023843156,-0.2204864337628168,0.02339085018749718
2327,7.0,298.86146,579.92647,0.0,0.0,0.0,0.0,-0.023192765901551057,0.0,-0.054226881751276546,-0.03662513873811976,-0.08543114663989773,-0.022339772421513877,-0.2255589360159338,0.013864222084792186
2328,7.0,299.87511,653.4433799999999,0.0,0.0,0.0,0.0,-0.023202732711134873,0.0,-0.08647184872485701,-0.04319614568337766,-0.06896247561731643,-0.05840793061941395,-0.2017500512611798,0.02445204221597868
2329,7.0,300.08122000000003,438.60995,0.0,0.0,0.0,0.0,-0.023212699520718694,0.0,-0.03898387959290936,-0.023501600449927378,-0.07084099266671164,-0.08090610138931052,-0.21456704694361878,0.0017218080929042284
2330,7.0,300.37844,632.6556400000001,0.0,0.0,0.0,0.0,-0.023222666330302517,0.0,-0.03953067190337356,-0.053061670480779144,-0.0997191747645163,-0.07016285679878483,-0.18909108206433684,-0.015532989270736684
2331,7.0,299.79508,707.32194,0.0,0.0,0.0,0.0,-0.023232633139886338,0.0,-0.06682848072745753,-0.07769313598471551,-0.07048659121898493,-0.051243207751560854,-0.17167511643051483,-0.025042791342281077
2332,7.0,299.75777,513.7044,0.0,0.0,0.0,0.0,-0.023242599949470154,0.0,-0.07469082831566083,-0.04516778750971355,-0.036294694575757465,-0.038693539869505064,-0.19100522296074782,0.007305400181261863
2333,7.0,300.85575,484.1274,0.0,0.0,0.0,0.0,-0.023252566759053975,0.0,-0.04902748410863596,-0.05101473201301205,-0.047120426843674054,-0.04794908000070575,-0.2074329657720398,0.013976029167076687
2334,7.0,300.73726,534.1501400000001,0.0,0.0,0.0,0.0,-0.0232625335686378,0.0,-0.06970230727058213,-0.035753395094085365,-0.05691260246633654,-0.041748912459546865,-0.2057805676414608,0.01172248799066949
2335,7.0,300.09342999999996,488.83966,0.0,0.0,0.0,0.0,-0.02327250037822162,0.0,-0.045261724913234457,-0.027406670388327774,-0.07592665501212743,-0.042635419157538254,-0.2177626655065018,-0.008135981654558873
2336,7.0,301.54502,773.08638,0.0,0.0,0.0,0.0,-0.02328246718780544,0.0,-0.07410009641461013,-0.07835097037363872,-0.08254788977809242,-0.04650185893587616,-0.18844698937326984,-0.005941807916085785
2337,7.0,300.94953,711.42106,0.0,0.0,0.0,0.0,-0.02329243399738926,0.0,-0.06975156946394394,-0.052895302920359946,-0.09360736567182772,-0.08830720739949283,-0.20672859483252382,0.013237843031973387
2338,7.0,300.05357000000004,576.63544,0.0,0.0,0.0,0.0,-0.02330240080697308,0.0,-0.06323952556850525,-0.04341333888206296,-0.06862990869599464,-0.05624833191277815,-0.20358906979517682,0.02875946971608867
2339,7.0,299.29209,610.37491,0.0,0.0,0.0,0.0,-0.023312367616556903,0.0,-0.03449022787017047,-0.07296613276394663,-0.07808236993112994,-0.07420128159609633,-0.2027745281722878,-0.009391991279767371
2340,7.0,299.19285,766.2412,0.0,0.0,0.0,0.0,-0.023322334426140724,0.0,-0.09242740046662422,-0.06915988510779923,-0.07133090719606244,-0.02911924746884597,-0.21473679673287183,0.009409699750440061
2341,7.0,299.65758999999997,652.5333400000001,0.0,0.0,0.0,0.0,-0.023332301235724544,0.0,-0.03359190464951287,-0.089486662939896,-0.07527527401309113,-0.046420277104074655,-0.24000887542703175,-0.05092996350964605
2342,7.0,301.27017,365.58109,0.0,0.0,0.0,0.0,-0.023342268045308364,0.0,-0.026240324277718375,-0.06469735738838203,-0.020189840120832084,-0.05933060426647474,-0.19548996922835782,-0.036777035060610766
2343,7.0,301.47117000000003,411.98292000000004,0.0,0.0,0.0,0.0,-0.023352234854892184,0.0,-0.039629198316597364,-0.05693586364888224,-0.028667458501007874,-0.06298553112618793,-0.1868476450179268,-0.036954385238863866
2344,7.0,300.56009,496.30462,0.0,0.0,0.0,0.0,-0.023362201664476008,0.0,-0.07489089252140563,-0.037242098618008965,-0.03873122061422386,-0.07302144102065514,-0.16851259061589782,-0.0063697712197474735
2345,7.0,300.26127,498.76424000000003,0.0,0.0,0.0,0.0,-0.02337216847405983,0.0,-0.04410695822476786,-0.03401656080617317,-0.07348835679923614,-0.06427514316446274,-0.19282072395992383,0.014308214093110788
2346,7.0,300.29934,579.68804,0.0,0.0,0.0,0.0,-0.02338213528364365,0.0,-0.06877226729529434,-0.03038815171482707,-0.07705027033951962,-0.05407806976208995,-0.22448273268722077,0.021456242652316278
2347,7.0,299.37455,837.90588,0.0,0.0,0.0,0.0,-0.023392102093227472,0.0,-0.05776976746793215,-0.08371206145398721,-0.11322063710150689,-0.039266686815070256,-0.19621622637003383,0.01214628085824459
2348,7.0,298.87804,802.34452,0.0,0.0,0.0,0.0,-0.02340206890281129,0.0,-0.08523075819412092,-0.07380772107175494,-0.08485422027145952,-0.05117529466360836,-0.20139075277571983,-0.01678679507697768
2349,7.0,300.29355,726.62944,0.0,0.0,0.0,0.0,-0.023412035712395113,0.0,-0.096611594463072,-0.06251526250302603,-0.06175034683028475,-0.048061799008080254,-0.2036852677596708,0.011936716419562189
2350,7.0,299.79857999999996,691.00579,0.0,0.0,0.0,0.0,-0.023422002521978933,0.0,-0.1066695395074639,-0.05985423773265335,-0.04352473255830666,-0.07570514942101653,-0.2066170055990108,-0.01000703753551771
2351,7.0,301.56849,553.1903900000001,0.0,0.0,0.0,0.0,-0.023431969331562753,0.0,-0.06540747041621474,-0.03645471817730057,-0.06629387680244624,-0.046127269493157055,-0.19175831096507182,0.013757210715230986
2352,7.0,301.30136,445.8958,0.0,0.0,0.0,0.0,-0.023441936141146577,0.0,-0.044813105391709164,-0.05532177346483394,-0.03540631133858087,-0.06402363726439103,-0.23312994076313379,-0.015966605598031286
2353,7.0,300.56461,455.6436,0.0,0.0,0.0,0.0,-0.023451902950730394,0.0,-0.016777963589106083,-0.03059878411911487,-0.09112753028433701,-0.03682296974064417,-0.24997014729263278,0.014540919137576986
2354,7.0,300.51108999999997,357.80941,0.0,0.0,0.0,0.0,-0.023461869760314218,0.0,-0.045058512539428955,-0.03624622778372417,-0.027460384802628975,-0.039440592956233464,-0.25036219402132476,-0.021661300154553878
2355,7.0,300.71366,484.65294000000006,0.0,0.0,0.0,0.0,-0.023471836569898038,0.0,-0.06155939883568965,-0.04332469976331496,-0.042438292363833355,-0.015626118100677787,-0.18146162291886783,-0.017346838672249683
2356,7.0,299.91511,824.25914,0.0,0.0,0.0,0.0,-0.023481803379481858,0.0,-0.099522469482853,-0.07291430907433202,-0.07811741926533902,-0.05311700204223995,-0.16676148166057686,-0.014610127159157287
2357,7.0,300.02659,991.98559,0.0,0.0,0.0,0.0,-0.023491770189065675,0.0,-0.09857811025715199,-0.11911297014303489,-0.08384776907963051,-0.08032877681358301,-0.17906786008762182,0.008875290572097981
2358,7.0,299.12701,726.8960000000001,0.0,0.0,0.0,0.0,-0.0235017369986495,0.0,-0.04462882052977166,-0.08305495559188592,-0.09327445525872201,-0.07785123745081893,-0.2078720374378728,0.0070884416512997225
2359,7.0,300.09018,630.80863,0.0,0.0,0.0,0.0,-0.02351170380823332,0.0,-0.018805362541944783,-0.09213582964434841,-0.08080887902896543,-0.057316430253941245,-0.18915934472357382,-0.005884483494328305
2360,7.0,300.97265,476.34144000000003,0.0,0.0,0.0,0.0,-0.02352167061781714,0.0,-0.056230356856004145,-0.030469805487385673,-0.058095740157603146,-0.05466355201437255,-0.21942363573292678,0.01125843363037089
2361,7.0,301.02572999999995,141.92019,0.0,0.0,0.0,0.0,-0.023531637427400956,0.0,-0.03442872561560067,-0.005485388395290685,-0.003226080001964307,-0.07620435748028452,-0.23523397486078576,-0.012547431639085088
2362,7.0,301.28756,33.631954,0.0,0.0,0.0,0.0,-0.02354160423698478,0.0,-0.007937796825099553,0.00038311760404076357,-0.0026685949645198176,-0.06979233859496753,-0.24536227087287077,-0.027003156708254074
2363,7.0,301.57679,430.36309000000006,0.0,0.0,0.0,0.0,-0.0235515710465686,0.0,-0.05664392704332035,-0.025244751338962975,-0.048930952784859046,-0.04086005400807336,-0.18074461675060483,-0.016573374208414683
2364,7.0,299.62501000000003,661.9243700000001,0.0,0.0,0.0,0.0,-0.023561537856152424,0.0,-0.047639287901881655,-0.06883291436677974,-0.08473627694656942,-0.019790199082640583,-0.20349022724792182,-0.01126696114321249
2365,7.0,299.07931,733.80629,0.0,0.0,0.0,0.0,-0.023571504665736244,0.0,-0.048519105122712854,-0.07918585096578502,-0.09535383394169072,-0.048704974707806756,-0.19871553946419682,0.012629301233914987
2366,7.0,299.2682,992.40814,0.0,0.0,0.0,0.0,-0.02358147147532006,0.0,-0.09946759692368749,-0.08552911171256611,-0.11667058143948987,-0.036462257771294665,-0.23027015381339477,0.037807678611827364
2367,7.0,300.0553,980.6818,0.0,0.0,0.0,0.0,-0.023591438284903885,0.0,-0.12519919872369886,-0.07875933448194113,-0.09414424231681331,-0.05843917215974725,-0.18736949921692983,0.03170053249609897
2368,7.0,300.23767000000004,814.31182,0.0,0.0,0.0,0.0,-0.023601405094487705,0.0,-0.0949301727966286,-0.06877798101260824,-0.08382230509136743,-0.04577214762460926,-0.1999890225873798,0.035314091393979466
2369,7.0,300.96533999999997,474.33311,0.0,0.0,0.0,0.0,-0.02361137190407153,0.0,-0.09414167271455971,-0.022637262650873877,-0.027406486990059674,-0.08840612188750492,-0.19062816220103482,0.012706023518236886
2370,7.0,300.00515,228.67441000000002,0.0,0.0,0.0,0.0,-0.02362133871365535,0.0,0.002001482751055968,-0.026423532054799578,-0.04508926164021366,-0.06668313101386264,-0.21357452794066478,-0.013751601362677387
2371,7.0,300.31802999999996,212.04192,0.0,0.0,0.0,0.0,-0.02363130552323917,0.0,-0.025552124809798373,-0.02847786319529627,-0.010425459974912791,-0.07273873613675433,-0.17453352536011782,-0.04117170846058126
2372,7.0,300.92895,419.05669,0.0,0.0,0.0,0.0,-0.02364127233282299,0.0,-0.04620946028826866,-0.04674971510908766,-0.03442359553034437,-0.025913608875724074,-0.20024255802740182,-0.025327150863595178
2373,7.0,300.73495,606.22682,0.0,0.0,0.0,0.0,-0.02365123914240681,0.0,-0.06858995725780173,-0.06529961703582043,-0.05038824150268225,-0.06455717018404664,-0.21969518675972677,-0.03709532832777387
2374,7.0,299.93778,755.0461,0.0,0.0,0.0,0.0,-0.023661205951990633,0.0,-0.05422078705192504,-0.08461961842280612,-0.0906747554241516,-0.041495704299307164,-0.23447312536069576,-0.014881730874962485
2375,7.0,299.32164,654.72585,0.0,0.0,0.0,0.0,-0.023671172761574454,0.0,-0.052553698821396246,-0.09351787947599612,-0.05294873058488286,-0.05974014577139334,-0.1991031886874548,-0.03172321207308727
2376,7.0,299.57884,677.95821,0.0,0.0,0.0,0.0,-0.023681139571158274,0.0,-0.05151218208335655,-0.059704552321880544,-0.09486563281825901,-0.030055818854278372,-0.22224694567906578,0.017728168254633983
2377,7.0,299.67782,544.33493,0.0,0.0,0.0,0.0,-0.023691106380742094,0.0,-0.04789098327972205,-0.060671528303063646,-0.05690171509401204,-0.05064940164970675,-0.21300760437721378,0.03223686198603057
2378,7.0,300.06152000000003,330.79,0.0,0.0,0.0,0.0,-0.023701073190325914,0.0,-0.036212753040170464,-0.014229325480075087,-0.050109822666704454,-0.05444080721838935,-0.24674205406404479,0.04655766875138416
2379,7.0,299.87272,597.97566,0.0,0.0,0.0,0.0,-0.023711039999909738,0.0,-0.051190699104878654,-0.05209818311969035,-0.07848078594995052,-0.04456221960069866,-0.2001799290387208,0.01965367984366718
2380,7.0,299.39339,715.90837,0.0,0.0,0.0,0.0,-0.02372100680949356,0.0,-0.08342486280589292,-0.060449962930196846,-0.07374344352516123,-0.07122020962263743,-0.2054735224636578,-0.009870981757140051
2381,7.0,299.42809,665.37199,0.0,0.0,0.0,0.0,-0.02373097361907738,0.0,-0.07569818839282952,-0.05491902073558535,-0.07163926047974453,-0.06812779058243944,-0.20530259730428882,-0.03965661990405366
2382,7.0,300.97863,719.31858,0.0,0.0,0.0,0.0,-0.023740940428661202,0.0,-0.06365111181212564,-0.08774159194192091,-0.06726218216776053,-0.07886933088629693,-0.2059169511049208,-0.05088295275800645
2383,7.0,301.05284,706.3163400000001,0.0,0.0,0.0,0.0,-0.02375090723824502,0.0,-0.09418213381755292,-0.07544174593827063,-0.045078651898416554,-0.08505352757937962,-0.16402046788755986,-0.017350590737369984
2384,7.0,300.31745,617.88409,0.0,0.0,0.0,0.0,-0.02376087404782884,0.0,-0.07603956248402052,-0.05994100943146704,-0.05184076186553486,-0.07404365939729023,-0.2070201271512958,0.005672395657596864
2385,7.0,300.56082999999995,565.08023,0.0,0.0,0.0,0.0,-0.02377084085741266,0.0,-0.05094253287713655,-0.05719470851942824,-0.06363303847009194,-0.07261394729418863,-0.1951886185161168,0.033247312476004265
2386,7.0,300.89164,457.71603,0.0,0.0,0.0,0.0,-0.023780807666996483,0.0,-0.029144063990295174,-0.049979046529297855,-0.06001113241788764,-0.030603633534093472,-0.22975829026037778,0.02857732179861207
2387,7.0,300.28578,480.03580999999997,0.0,0.0,0.0,0.0,-0.0237907744765803,0.0,-0.024932470697893276,-0.05711150244771645,-0.06387492761346453,-0.020675793855541982,-0.2183756108894948,0.011746388534028289
2388,7.0,300.72943,706.30828,0.0,0.0,0.0,0.0,-0.02380074128616412,0.0,-0.06448740487491134,-0.08017960613386102,-0.07003306959347584,-0.008332036632307992,-0.2210188764253648,-0.01197642670423129
2389,7.0,299.62945,850.91314,0.0,0.0,0.0,0.0,-0.023810708095747944,0.0,-0.11748455564232288,-0.06157135518686964,-0.07960043744295152,-0.04955227875942916,-0.2233500609304348,0.015268433722627086
2390,7.0,299.08889,708.31685,0.0,0.0,0.0,0.0,-0.023820674905331764,0.0,-0.07819508893850442,-0.06266613240316574,-0.07444941438658513,-0.053245387922660654,-0.2330050678208098,-0.02125914321636408
2391,7.0,299.21246,634.70326,0.0,0.0,0.0,0.0,-0.02383064171491558,0.0,-0.029662831829493575,-0.07661310155737443,-0.08665800911272961,-0.08133650774028832,-0.18697555771055083,-0.0020149280732579184
2392,7.0,299.41864,550.5867400000001,0.0,0.0,0.0,0.0,-0.023840608524499405,0.0,-0.05727704826230454,-0.04260726093725926,-0.06748031160953824,-0.08019116022475133,-0.2000346087093788,-0.015107955171789087
2393,7.0,300.52575,397.45474,0.0,0.0,0.0,0.0,-0.023850575334083225,0.0,-0.011746081519247989,-0.04786075802923905,-0.06120947696665504,-0.08174492352434583,-0.2152789969938828,-0.02654958340698987
2394,7.0,300.76489,192.24725,0.0,0.0,0.0,0.0,-0.02386054214366705,0.0,-0.025140553764929477,-0.02191146349824308,-0.01138634530974479,-0.07288796558498213,-0.22720157654804976,-0.007544882855646963
2395,7.0,300.03468,400.34672,0.0,0.0,0.0,0.0,-0.02387050895325087,0.0,-0.07687819716778733,-0.02056677827728298,-0.024250428750830978,-0.04441233255315596,-0.2013950185586408,-0.0019322354153717882
2396,7.0,300.22078999999997,883.7483300000001,0.0,0.0,0.0,0.0,-0.023880475762834686,0.0,-0.1023438937705559,-0.0947947509075135,-0.07149877740637993,-0.04386019332191406,-0.1950580409757298,0.02425946288872258
2397,7.0,300.37347,909.1610400000001,0.0,0.0,0.0,0.0,-0.02389044257241851,0.0,-0.1013455283145249,-0.07805580960625863,-0.09696092054104781,-0.03934878135142236,-0.1977449167959038,0.022089866443350082
2398,7.0,299.81906000000004,792.05282,0.0,0.0,0.0,0.0,-0.02390040938200233,0.0,-0.05441590051768125,-0.08384371607923051,-0.1025046661639229,-0.05004706600851086,-0.2194706100075628,0.026304489353550974
2399,7.0,300.58011,820.9291599999999,0.0,0.0,0.0,0.0,-0.023910376191586154,0.0,-0.05296768038825305,-0.0981244113128754,-0.0984498763642463,-0.04059324296524116,-0.21465449042724882,0.001043858460345809
2400,7.0,299.56597999999997,708.6995900000001,0.0,0.0,0.0,0.0,-0.023920343001169974,0.0,-0.08157233663481282,-0.05360831992297924,-0.08024632054694522,-0.04781497432347055,-0.2382474313206908,0.003847144659333616
2401,7.0,299.5102,521.8926299999999,0.0,0.0,0.0,0.0,-0.02393030981075379,0.0,-0.10387358731402489,-0.027193052949245372,-0.02757569063750877,-0.058716816872648646,-0.24171179420759678,-0.016148394824972486
2402,7.0,300.02001,319.92022000000003,0.0,0.0,0.0,0.0,-0.023940276620337615,0.0,-0.024656567761913776,-0.03041132170486377,-0.04217986799207886,-0.07548452130449224,-0.22190538920285677,-0.024305654934281377
2403,7.0,299.76322999999996,-26.175698999999998,0.0,0.0,0.0,0.0,-0.023950243429921435,0.0,0.01058629924278639,0.004933514128949935,-0.007563054381615353,-0.06832461644086463,-0.1893287398752918,-0.03228041654157907
2404,7.0,299.1629,357.19735,0.0,0.0,0.0,0.0,-0.02396021023950526,0.0,0.01127384719089209,-0.06117730728923014,-0.05867561508383235,-0.05273218383976135,-0.17359016925201584,-0.01821882853605838
2405,7.0,299.87073,844.9306300000001,0.0,0.0,0.0,0.0,-0.02397017704908908,0.0,-0.08040869691522053,-0.07404335440901014,-0.1023857612646879,-0.06358747159984483,-0.1925919726173478,-0.008509184261866103
2406,7.0,299.60422,719.36613,0.0,0.0,0.0,0.0,-0.0239801438586729,0.0,-0.07410503094259713,-0.09194650284991332,-0.05261780614197315,-0.04474956751768846,-0.2307261467558978,0.0005564623134560545
2407,7.0,299.99182,465.47722999999996,0.0,0.0,0.0,0.0,-0.02399011066825672,0.0,-0.06035049115462974,-0.06945181360736034,-0.01169115120482679,-0.036446259565465766,-0.24456918988709977,-0.007364125725257623
2408,7.0,300.6123,659.99054,0.0,0.0,0.0,0.0,-0.02400007747784054,0.0,-0.07212238724667543,-0.06516711533349354,-0.06333114262929714,-0.03459809543606617,-0.2182734448819118,0.00023613891865759682
2409,7.0,300.85166,793.55479,0.0,0.0,0.0,0.0,-0.024010044287424363,0.0,-0.10426250309990791,-0.07292192060908323,-0.06403641637465224,-0.04463524352215555,-0.22555878402841878,-0.01184799522755609
2410,7.0,299.75865,385.21386,0.0,0.0,0.0,0.0,-0.024020011097008184,0.0,-0.0025847480121197674,-0.03802229308900817,-0.07648835223156263,-0.07487657833724293,-0.2081068074860428,-0.021399423639708683
2411,7.0,300.07704,139.9893,0.0,0.0,0.0,0.0,-0.024029977906592004,0.0,0.006340840598917244,-0.027500967495634177,-0.02139312527708708,-0.06866242693145394,-0.19042300945328783,-0.02274781938253498
2412,7.0,299.94751,333.79265,0.0,0.0,0.0,0.0,-0.02403994471617582,0.0,-0.030490627776940674,-0.014147475136997089,-0.056826527883591646,-0.05792827119432525,-0.1904817475615848,0.0003421101869911467
2413,7.0,300.43408999999997,675.9467599999999,0.0,0.0,0.0,0.0,-0.02404991152575964,0.0,-0.09781193308803622,-0.038096047563787164,-0.06956295599757922,-0.050658780292632356,-0.22325586920113877,-0.010392303391890489
2414,7.0,299.70239,880.71961,0.0,0.0,0.0,0.0,-0.024059878335343465,0.0,-0.09354333941125882,-0.08840443887908883,-0.08576899158099043,-0.06776849412347964,-0.2131331359321028,-0.013415198276476985
2415,7.0,300.28047000000004,825.3403599999999,0.0,0.0,0.0,0.0,-0.024069845144927285,0.0,-0.08697478858424333,-0.07425002703190713,-0.0896580450750601,-0.06977861716211334,-0.2215810377133458,-0.0015976392580747184
2416,7.0,300.63018,573.52828,0.0,0.0,0.0,0.0,-0.0240798119545111,0.0,-0.01990038091176468,-0.06796806588967584,-0.08646982729090752,-0.07491813071059383,-0.1984074911687948,0.0013472091256341886
2417,7.0,301.63424,638.72516,0.0,0.0,0.0,0.0,-0.024089778764094925,0.0,-0.062160542894767946,-0.06952275631311183,-0.06247319945162473,-0.06142592745301703,-0.2149287366993148,0.04221698131674166
2418,7.0,301.04953,725.51149,0.0,0.0,0.0,0.0,-0.024099745573678746,0.0,-0.09232927327393982,-0.04788389863502286,-0.08032420401588172,-0.035869621973306065,-0.2014995758364598,0.025355674867160276
2419,7.0,299.33249,501.40905,0.0,0.0,0.0,0.0,-0.02410971238326257,0.0,-0.03845943350015057,-0.050298848525859856,-0.06365754899001093,-0.024051001879399077,-0.21115527173690282,0.02734501513299287
2420,7.0,299.10011000000003,332.31549,0.0,0.0,0.0,0.0,-0.02411967919284639,0.0,-0.03679862539374157,-0.04182108221116946,-0.02239590445055368,-0.033957055667550466,-0.1953056691676688,-0.032679482053713765
2421,7.0,299.77496,512.08888,0.0,0.0,0.0,0.0,-0.024129646002430206,0.0,-0.05577062400738204,-0.03610837105461876,-0.06378323658541533,-0.05349718462551104,-0.24106696184395676,-0.02731350102838268
2422,7.0,299.74919,682.1747,0.0,0.0,0.0,0.0,-0.02413961281201403,0.0,-0.04863795125344205,-0.09242825767620882,-0.06629786698134003,-0.09227557000538973,-0.2191759467459818,-0.07870793230436812
2423,7.0,299.61742000000004,650.32121,0.0,0.0,0.0,0.0,-0.02414957962159785,0.0,-0.050417366363556655,-0.06743251153607073,-0.07983153243300882,-0.08367071173065632,-0.21079615563646079,-0.032302286531737466
2424,7.0,299.67573,572.65573,0.0,0.0,0.0,0.0,-0.024159546431181674,0.0,-0.037193075551670764,-0.061281160358229635,-0.07559880679652134,-0.06604109724699884,-0.1924858853318778,-0.016764788298055784
2425,7.0,301.14735,557.7867,0.0,0.0,0.0,0.0,-0.024169513240765494,0.0,-0.044039624715872555,-0.05300087952777954,-0.07251272462244873,-0.05207894352679155,-0.23838486856425475,0.02166251200167348
2426,7.0,301.02417,528.60633,0.0,0.0,0.0,0.0,-0.02417948005034931,0.0,-0.05440235843009475,-0.049494523503729154,-0.05678624308611585,-0.06873563526442902,-0.2196770293179348,0.004807075208596386
2427,7.0,299.20939,748.97245,0.0,0.0,0.0,0.0,-0.024189446859933135,0.0,-0.05759526350920994,-0.10461811335500389,-0.06545554609370943,-0.024257075671486977,-0.22754332554177778,-0.007760515446528243
2428,7.0,300.75345,859.9281900000001,0.0,0.0,0.0,0.0,-0.024199413669516955,0.0,-0.07549837952610994,-0.06761137956297364,-0.11828693826401189,-0.04982530507837475,-0.1972282200399098,0.003009157543705727
2429,7.0,300.91607,620.02252,0.0,0.0,0.0,0.0,-0.02420938047910078,0.0,-0.06955548226484164,-0.04906537864912586,-0.06985050320370793,-0.041631722992731164,-0.22543809580900778,0.023603098725694476
2430,7.0,299.08794,455.8838,0.0,0.0,0.0,0.0,-0.0242193472886846,0.0,-0.03371942825409847,-0.04609806661202495,-0.05875979691539044,-0.04029737190954096,-0.1829935354800558,0.004419051488101426
2431,7.0,300.97765,664.76855,0.0,0.0,0.0,0.0,-0.024229314098268416,0.0,-0.08416091300978543,-0.03276292015969847,-0.08514920473332223,-0.04135025731370266,-0.2118105000465688,0.008136143673249862
2432,7.0,300.50173,616.2466900000001,0.0,0.0,0.0,0.0,-0.02423928090785224,0.0,-0.07376104874564873,-0.04941261439214536,-0.06414994395560654,-0.08454169847686602,-0.2092353249174188,-0.01070736337798449
2433,7.0,299.21191,549.0958099999999,0.0,0.0,0.0,0.0,-0.02424924771743606,0.0,-0.06516735344726704,-0.04090373927288476,-0.06084032361072245,-0.08322448246611693,-0.2689465079479537,-0.02966010010722397
2434,7.0,300.64319,767.9150599999999,0.0,0.0,0.0,0.0,-0.024259214527019884,0.0,-0.08731935036024892,-0.05764026802565154,-0.08846738501505111,-0.08349347300991422,-0.22521279964927277,-0.015238750560947588
2435,7.0,299.58203,657.8514,0.0,0.0,0.0,0.0,-0.024269181336603704,0.0,-0.0959085366956856,-0.05489950959165974,-0.049162353776446545,-0.04227917663437986,-0.21859977220911778,-0.0017728060850123383
2436,7.0,298.3389,572.78683,0.0,0.0,0.0,0.0,-0.02427914814618752,0.0,-0.047805656475550955,-0.04589640957712296,-0.08041082879343092,-0.04831286211785825,-0.16760200301602982,0.025005044736305774
2437,7.0,298.70333999999997,765.60245,0.0,0.0,0.0,0.0,-0.024289114955771345,0.0,-0.09811917483635861,-0.07415192415722513,-0.06045292668673935,-0.04153814225324546,-0.2053258817915868,0.025974641995497576
2438,7.0,298.25435,578.00375,0.0,0.0,0.0,0.0,-0.024299081765355165,0.0,-0.03176263459472797,-0.05964216246022315,-0.08429391019141122,-0.05825854918367115,-0.1963218475604578,0.014121881452721186
2439,7.0,298.57651,342.93974,0.0,0.0,0.0,0.0,-0.024309048574938985,0.0,-0.012299236027090089,-0.07073722876372093,-0.02120865195063098,-0.04257201401928066,-0.22534911218522577,-0.041029690313315166
2440,7.0,299.46005,445.13906,0.0,0.0,0.0,0.0,-0.024319015384522805,0.0,0.0037893658962312965,-0.07760711206447564,-0.06149341294942734,-0.05129723829989325,-0.2134828389391158,-0.031208052417494973
2441,7.0,299.33841,503.20170999999993,0.0,0.0,0.0,0.0,-0.024328982194106622,0.0,-0.07063547514892864,-0.04566010344180136,-0.03666517630257116,-0.05327060062489895,-0.2354126311184178,-0.03142385949004347
2442,7.0,300.21214,491.18563,0.0,0.0,0.0,0.0,-0.024338949003690446,0.0,-0.013761235344628185,-0.08077489563386152,-0.05477203563632905,-0.05513978260112286,-0.2030072007927508,-0.030189497953221473
2443,7.0,300.08287,401.9636,0.0,0.0,0.0,0.0,-0.024348915813274266,0.0,-0.059104481294658145,-0.04790229824358875,-0.015180116817410886,-0.03685027277783876,-0.2040120105194178,-0.019317304115219484
2444,7.0,299.79336,597.2377,0.0,0.0,0.0,0.0,-0.02435888262285809,0.0,-0.046994180947464555,-0.053037582486151855,-0.08151358535426452,-0.05030617635058305,-0.18944648966941283,-0.011748810201767289
2445,7.0,300.04969,747.39742,0.0,0.0,0.0,0.0,-0.02436884943244191,0.0,-0.08096756412712643,-0.07958342396052243,-0.06663916609202364,-0.050345421553456254,-0.24182890565415477,-0.00998720873768576
2446,7.0,299.86586,848.19715,0.0,0.0,0.0,0.0,-0.024378816242025727,0.0,-0.09383062418561161,-0.07465956651032553,-0.08934056240797701,-0.07561655691177313,-0.22591857900642778,0.0028916208360807573
2447,7.0,299.57427,769.4711900000001,0.0,0.0,0.0,0.0,-0.02438878305160955,0.0,-0.09671585789836201,-0.06402322284510013,-0.07316094529442313,-0.06515469086076733,-0.23708452418092077,0.02149164966381068
2448,7.0,301.32852,662.90126,0.0,0.0,0.0,0.0,-0.02439874986119337,0.0,-0.06167115728196935,-0.07089864355765134,-0.06893562854266684,-0.05570286695994495,-0.20575186226612782,0.03204400300174687
2449,7.0,300.5468,596.4947,0.0,0.0,0.0,0.0,-0.024408716670777195,0.0,-0.07495901332562863,-0.03856140395046426,-0.06779907705124794,-0.05193289061762725,-0.2125495748020098,0.025664893466427776
2450,7.0,300.72166,783.96003,0.0,0.0,0.0,0.0,-0.024418683480361015,0.0,-0.047281864942356755,-0.09774213636814781,-0.09328027334079622,-0.04537727088838796,-0.19076018868906483,-0.006450939949483203
2451,7.0,301.14765,621.3135599999999,0.0,0.0,0.0,0.0,-0.02442865028994483,0.0,-0.03379710907301497,-0.06622644095529084,-0.08884025902535092,-0.04381296269500276,-0.2029070511528668,-0.019325109180739784
2452,7.0,300.85135,375.59471,0.0,0.0,0.0,0.0,-0.024438617099528655,0.0,-0.01924001137109128,-0.04541395256850816,-0.049517450313741856,-0.04437891556485796,-0.18955603213772382,-0.013132520750328888
2453,7.0,299.11176,486.68005999999997,0.0,0.0,0.0,0.0,-0.024448583909112476,0.0,-0.07984830172216384,-0.03239324497996437,-0.03569703913677347,-0.04217872504596606,-0.25424292163932277,-0.02577475916152068
2454,7.0,300.08505,636.3878900000001,0.0,0.0,0.0,0.0,-0.0244585507186963,0.0,-0.08210921226654833,-0.033241696030699965,-0.07809512067038832,-0.06781882022944644,-0.22027652887210078,-0.012295850758505988
2455,7.0,298.78778,637.76552,0.0,0.0,0.0,0.0,-0.02446851752828012,0.0,-0.07352096825370463,-0.06550451444454224,-0.05483931037671855,-0.07375032855959072,-0.2164629189407268,0.0024219687756047077
2456,7.0,298.94517,630.52598,0.0,0.0,0.0,0.0,-0.024478484337863936,0.0,-0.034497658033153765,-0.05266415726779765,-0.1045023393985779,-0.07983370585447332,-0.1972408147386528,-0.0027148334169331974
2457,7.0,299.35256,718.84646,0.0,0.0,0.0,0.0,-0.02448845114744776,0.0,-0.05759012126495245,-0.06317820265920314,-0.097743050319738,-0.06989134123573834,-0.2138227944801668,0.01342226670917459
2458,7.0,300.56431000000003,606.53087,0.0,0.0,0.0,0.0,-0.02449841795703158,0.0,-0.043821604705105655,-0.08209553339019833,-0.05845310029562185,-0.05895804942995644,-0.1963586893340938,-0.016263182889051184
2459,7.0,299.96263,563.37141,0.0,0.0,0.0,0.0,-0.024508384766615404,0.0,-0.06024427822614734,-0.06650746485727574,-0.044499099185719156,-0.027062624356623075,-0.1926818479012178,-0.010024145452856131
2460,7.0,300.7427,616.19926,0.0,0.0,0.0,0.0,-0.024518351576199224,0.0,-0.06224518879487184,-0.07169721635896434,-0.05336678339064145,-0.03181879499477057,-0.2147647320381288,-0.01971947118591028
2461,7.0,300.94203999999996,510.63293,0.0,0.0,0.0,0.0,-0.02452831838578304,0.0,-0.06383880423414943,-0.057573250650787444,-0.033807606344050965,-0.047225324573526656,-0.25041913867694476,-0.009577130716839211
2462,7.0,300.59067000000005,391.62425,0.0,0.0,0.0,0.0,-0.024538285195366865,0.0,0.01020377909153459,-0.054890454175516044,-0.07435731907174603,-0.06319267795013174,-0.23609467002572976,-0.04779366972686795
2463,7.0,300.22267,431.59759,0.0,0.0,0.0,0.0,-0.024548252004950685,0.0,-0.05183911837387265,-0.033340641929465176,-0.04601513107808986,-0.07432213598852373,-0.2136880524818688,-0.009482612822336022
2464,7.0,300.26516000000004,589.93653,0.0,0.0,0.0,0.0,-0.024558218814534506,0.0,-0.046652367105730154,-0.026602281531440775,-0.1060713267809249,-0.08591126709378191,-0.22070741347712577,0.018057163469353283
2465,7.0,299.00452,698.35829,0.0,0.0,0.0,0.0,-0.024568185624118326,0.0,-0.1132344173028669,-0.014350477768031885,-0.08469858201634922,-0.08650896610252022,-0.22336073045398777,0.02239791575200218
2466,7.0,298.7079,836.90799,0.0,0.0,0.0,0.0,-0.024578152433702146,0.0,-0.1136913525679629,-0.04971705045094086,-0.09099072936183582,-0.07479148964684533,-0.20201405357473481,0.02963510221400687
2467,7.0,299.24568999999997,747.23455,0.0,0.0,0.0,0.0,-0.024588119243285966,0.0,-0.11759515189073788,-0.048656734883795856,-0.060888756965502444,-0.05994788534664565,-0.19377871139946984,0.01791330829965588
2468,7.0,300.05969,680.52301,0.0,0.0,0.0,0.0,-0.024598086052869787,0.0,-0.02200877603784708,-0.08416207115464971,-0.10069115518794332,-0.058846698310216945,-0.19478130210841782,0.00042048564964620257
2469,7.0,299.89052999999996,799.4723,0.0,0.0,0.0,0.0,-0.02460805286245361,0.0,-0.08675194955600082,-0.09097845282362423,-0.06528921399704374,-0.056713385337675344,-0.1997377568275818,-0.016510324720942184
2470,7.0,299.93478,682.0455900000001,0.0,0.0,0.0,0.0,-0.02461801967203743,0.0,-0.03354570044495287,-0.09033926628954142,-0.08343986093387312,-0.05751379414816954,-0.21198331998362482,-0.008037091687199191
2471,7.0,299.79287,175.615,0.0,0.0,0.0,0.0,-0.024627986481621247,0.0,-0.009182727168414612,-0.060551349748452936,0.016351501820767587,-0.041217633008113666,-0.2316303914101398,-0.051142050941077453
2472,7.0,300.07813,202.08113,0.0,0.0,0.0,0.0,-0.02463795329120507,0.0,-0.022684772934812775,-0.002928307886426487,-0.03581453561836947,-0.062012546571911846,-0.2261182196736308,-0.022818627326023178
2473,7.0,299.3722,588.14181,0.0,0.0,0.0,0.0,-0.02464792010078889,0.0,-0.06324026017482774,-0.06035173643900264,-0.055188428738423854,-0.04494914941638566,-0.21584743029998282,-0.03722852511966936
2474,7.0,300.08915,558.8793400000001,0.0,0.0,0.0,0.0,-0.024657886910372715,0.0,-0.03720642106873786,-0.044508683518415054,-0.08817025854247701,-0.04765573497750486,-0.21856407540809478,-0.011991716648240289
2475,7.0,299.16992999999997,513.34883,0.0,0.0,0.0,0.0,-0.024667853719956535,0.0,-0.05950122646406385,-0.048875011246838046,-0.047668990315313055,-0.046696533664339054,-0.1911537147629028,0.0003418179656623067
2476,7.0,298.78131,735.27882,0.0,0.0,0.0,0.0,-0.024677820529540352,0.0,-0.038585427097085165,-0.07654193796310113,-0.1083790342811779,-0.06262517784737384,-0.21961855465466376,0.039784660266190264
2477,7.0,299.52325,962.94799,0.0,0.0,0.0,0.0,-0.024687787339124176,0.0,-0.12774571914002086,-0.07993018144949472,-0.08503624558567402,-0.07146537561683343,-0.2006944067769958,0.024341011283270774
2478,7.0,298.71424,958.7987300000001,0.0,0.0,0.0,0.0,-0.024697754148707996,0.0,-0.10970103181914889,-0.1027636528894829,-0.07898619003358003,-0.07475690438118202,-0.2224645816680448,0.0014480553749619386
2479,7.0,298.76043,780.77175,0.0,0.0,0.0,0.0,-0.02470772095829182,0.0,-0.09518695266347081,-0.08801362628901861,-0.05413453717691285,-0.06753691277337434,-0.2157403601619158,-0.021617282543709683
2480,7.0,298.81509,496.42107000000004,0.0,0.0,0.0,0.0,-0.02471768776787564,0.0,-0.018758589904078683,-0.07321698714420403,-0.05892403158434915,-0.05283474197513305,-0.24746375158027073,-0.02220151647186908
2481,7.0,299.12573,297.63975,0.0,0.0,0.0,0.0,-0.024727654577459457,0.0,-0.03449175889107157,-0.04234297491367626,-0.013640319143944687,-0.05268173715703265,-0.2091826460447198,-0.004227941272165316
2482,7.0,299.41953,518.35819,0.0,0.0,0.0,0.0,-0.02473762138704328,0.0,-0.012780265366313989,-0.049246042155205956,-0.09554164086097582,-0.022556184404372077,-0.2073281957116998,-0.007654768410441823
2483,7.0,300.07512,436.4163,0.0,0.0,0.0,0.0,-0.0247475881966271,0.0,-0.07155644856232163,-0.002027417697965548,-0.059075793144576845,-0.04447493317083416,-0.2003884863068038,0.028495588992545676
2484,7.0,301.02864,242.52187999999998,0.0,0.0,0.0,0.0,-0.024757555006210925,0.0,-0.015189510659087987,-0.01026948937376969,-0.04826159470254855,-0.04581981698881386,-0.22326961900499578,0.007248200085291653
2485,7.0,300.4763,677.1328900000001,0.0,0.0,0.0,0.0,-0.024767521815794745,0.0,-0.08002979913307623,-0.06329182649891694,-0.06250986694624354,-0.06444489700671614,-0.23860037672802378,0.02066208559493908
2486,7.0,300.40274,1129.6917,0.0,0.0,0.0,0.0,-0.02477748862537856,0.0,-0.11729174428079389,-0.11586719570020189,-0.1102391284172549,-0.07615750783541082,-0.2361303364292498,-0.020289404102158282
2487,7.0,300.46736,970.3551199999999,0.0,0.0,0.0,0.0,-0.024787455434962385,0.0,-0.11458327610098888,-0.1016935391938709,-0.07868691445754382,-0.09085290910973401,-0.22268769934006477,-0.008408300116984612
2488,7.0,299.63392999999996,625.36189,0.0,0.0,0.0,0.0,-0.024797422244546206,0.0,-0.04315821162613386,-0.07604328719138813,-0.07089290045608453,-0.05570774575917645,-0.2243345347275948,-0.021996401214375776
2489,7.0,298.61638999999997,450.11175,0.0,0.0,0.0,0.0,-0.02480738905413003,0.0,-0.05688810106566845,-0.05721029838546685,-0.02272433325846708,-0.05530508118268654,-0.17657552828664783,0.00916784586817094
2490,7.0,299.77486,314.93733,0.0,0.0,0.0,0.0,-0.02481735586371385,0.0,-0.005665523998068684,-0.04082911948252036,-0.04923844176620586,-0.032845761461374266,-0.18887773212328082,-0.017008037223062586
2491,7.0,299.12785,340.577,0.0,0.0,0.0,0.0,-0.024827322673297667,0.0,-0.016549131186522084,-0.04468200704077076,-0.04229576657826716,-0.040288373235402866,-0.19014584502093382,-0.01119752716685989
2492,7.0,299.70047,353.82858,0.0,0.0,0.0,0.0,-0.024837289482881487,0.0,-0.009302395044974912,-0.044360470360037554,-0.05389218700474474,-0.05912594091852604,-0.23213844514278079,-0.014142515277757587
2493,7.0,300.15292,525.7614,0.0,0.0,0.0,0.0,-0.024847256292465307,0.0,-0.05656514076854474,-0.04927899203520786,-0.053974203520839155,-0.05177048283859886,-0.23959963384414276,0.013800983119550985
2494,7.0,299.82849,769.22331,0.0,0.0,0.0,0.0,-0.02485722310204913,0.0,-0.05576825097564785,-0.08113927658182313,-0.0969171511764781,-0.03041945810316677,-0.2347502391305448,-0.01777773847602618
2495,7.0,299.85935,1161.9387,0.0,0.0,0.0,0.0,-0.02486718991163295,0.0,-0.1811307055687088,-0.07976406821485062,-0.09230557842035131,-0.07028545195488403,-0.2070444147561928,0.02459306433839648
2496,7.0,299.7386,1002.0036,0.0,0.0,0.0,0.0,-0.024877156721216768,0.0,-0.0882639689779755,-0.10308591708378789,-0.11323419438784489,-0.05999807770359924,-0.24649446640210979,-0.011557522768388688
2497,7.0,299.88943,643.48421,0.0,0.0,0.0,0.0,-0.02488712353080059,0.0,-0.07365683698611383,-0.07292666971230193,-0.04901962635411045,-0.08211020829139663,-0.21969646345485278,0.01112994541169009
2498,7.0,300.34956,699.27963,0.0,0.0,0.0,0.0,-0.024897090340384412,0.0,-0.050540167209426154,-0.08810085091062701,-0.07392252838758552,-0.030629772346923174,-0.20423763091918481,-0.038227008112711965
2499,7.0,300.68206000000004,534.8771,0.0,0.0,0.0,0.0,-0.024907057149968236,0.0,-0.07225617476337923,-0.027078314534421576,-0.06325479423426214,-0.04379426519090746,-0.18731348675140183,0.006997017108026823
2500,7.0,300.34153,202.25304,0.0,0.0,0.0,0.0,-0.024917023959552056,0.0,0.007014423630169714,-0.026404496125170873,-0.04208980221719007,-0.04587402992216425,-0.23362339356183376,-0.003166440810353377
2501,7.0,300.57943,346.42319,0.0,0.0,0.0,0.0,-0.024926990769135873,0.0,-0.04994073351651666,-0.023815930895949376,-0.031547334147229475,-0.06876991959481264,-0.19930024556690282,0.04245515791174786
2502,7.0,300.67404,590.20867,0.0,0.0,0.0,0.0,-0.024936957578719696,0.0,-0.02101997971576048,-0.061857678386877536,-0.09653104006687191,-0.06291076745430935,-0.2038545717188798,-0.006461724679572573
2503,7.0,300.53979,705.78197,0.0,0.0,0.0,0.0,-0.024946924388303517,0.0,-0.06548522621563864,-0.08469895995863651,-0.06435591034318384,-0.06448800066597014,-0.1911529649578288,0.002295122123410918
2504,7.0,300.45782,914.3001199999999,0.0,0.0,0.0,0.0,-0.02495689119788734,0.0,-0.08350791081058911,-0.08679304596680672,-0.10762344354910688,-0.08574481746010461,-0.25079730387926674,-0.005473372465004805
2505,7.0,299.06677,887.2408800000001,0.0,0.0,0.0,0.0,-0.02496685800747116,0.0,-0.11154966609659489,-0.08013622484407962,-0.07801318217455162,-0.06039474789249754,-0.23941885989380177,-0.025608400720352375
2506,7.0,298.77317,546.02135,0.0,0.0,0.0,0.0,-0.024976824817054977,0.0,-0.07605054611510452,-0.05711905014771135,-0.03280726099732457,-0.035535829019363266,-0.2385719246652158,-0.006699790121042803
2507,7.0,300.28877,442.23287,0.0,0.0,0.0,0.0,-0.0249867916266388,0.0,-0.07733717311858472,-0.038301625876576165,-0.018788949916824983,-0.028416367020227075,-0.19145788231042182,-0.014275186192851187
2508,7.0,299.95059,449.22573,0.0,0.0,0.0,0.0,-0.02499675843622262,0.0,-0.005472466720740415,-0.04900960429737136,-0.08207133393806001,-0.06634061701630914,-0.22562967100541476,0.02359432397982848
2509,7.0,299.44171,343.7748,0.0,0.0,0.0,0.0,-0.025006725245806445,0.0,-0.01992138254658738,-0.029539453431067075,-0.055038118152339346,-0.07869660619475033,-0.21729213242506382,0.002789208203423417
2510,7.0,299.6693,444.23804,0.0,0.0,0.0,0.0,-0.025016692055390265,0.0,0.002010358619281948,-0.059564096606268636,-0.07748353405577943,-0.07489175885024113,-0.2025831860234038,-0.017880885309705982
2511,7.0,299.92062999999996,683.55685,0.0,0.0,0.0,0.0,-0.025026658864974082,0.0,-0.06999926757013984,-0.07238226968532384,-0.06540267672999164,-0.03806354351382926,-0.2033553231296078,-0.024659891222241777
2512,7.0,299.7275,631.7323200000001,0.0,0.0,0.0,0.0,-0.025036625674557906,0.0,-0.06470400329578793,-0.06704033004511545,-0.060286518596316147,-0.04735942011826086,-0.2511513841267118,-0.009274608079532553
2513,7.0,300.69453,629.39766,0.0,0.0,0.0,0.0,-0.025046592484141726,0.0,-0.08014414035386082,-0.06477387094318335,-0.046403159256885256,-0.060279846344407646,-0.24756467129023074,0.008680903809313502
2514,7.0,299.3169,685.89279,0.0,0.0,0.0,0.0,-0.02505655929372555,0.0,-0.033707427319914066,-0.08838139047906411,-0.08640546260480522,-0.03513420809047636,-0.22055681411476277,-0.012186391376703189
2515,7.0,299.13611000000003,499.78284,0.0,0.0,0.0,0.0,-0.02506652610330937,0.0,-0.07897025363600722,-0.02846130263566187,-0.044489946497565866,-0.03504532072545387,-0.19214476455321183,0.023263845366962774
2516,7.0,300.6221,464.21918,0.0,0.0,0.0,0.0,-0.025076492912893187,0.0,-0.025019857439517675,-0.046612600079055454,-0.06947858063525203,-0.03497789095779907,-0.2200019482275018,-0.022832030598345977
2517,7.0,300.19034,721.43772,0.0,0.0,0.0,0.0,-0.02508645972247701,0.0,-0.12454518631415287,-0.030911894612016468,-0.06384197064071194,-0.057955358409248536,-0.21651049103292178,0.015507716786742485
2518,7.0,299.50277,732.75545,0.0,0.0,0.0,0.0,-0.02509642653206083,0.0,-0.1033968835394779,-0.047891252804248656,-0.07145122557918693,-0.06105329966249153,-0.20811157989401383,-0.009747801550433111
2519,7.0,299.83678,483.00883,0.0,0.0,0.0,0.0,-0.02510639334164465,0.0,-0.06309403096014604,-0.05689181564053504,-0.026836776988833678,-0.06096075142485774,-0.22549743173486375,-0.002170408160027608
2520,7.0,299.88,504.37672000000003,0.0,0.0,0.0,0.0,-0.025116360151228468,0.0,-0.012972304631266788,-0.05081348635765065,-0.08953213760438401,-0.06568607569021094,-0.2340520084866348,0.006917731604926953
2521,7.0,299.46141,853.54979,0.0,0.0,0.0,0.0,-0.02512632696081229,0.0,-0.07593236872944133,-0.0952142222634121,-0.08831123405539022,-0.08331655143645342,-0.24431500596701375,0.019669517955980282
2522,7.0,300.31632,642.58324,0.0,0.0,0.0,0.0,-0.025136293770396112,0.0,-0.018409342859610683,-0.07573805573126412,-0.101181859039122,-0.043472367793138664,-0.1985309759584818,0.0003400002253804097
2523,7.0,300.22782,473.04415,0.0,0.0,0.0,0.0,-0.025146260579979932,0.0,-0.05764465438533445,-0.07679707129853083,-0.009351882585158951,-0.05202765888623015,-0.21964867858013679,-0.040138632095874566
2524,7.0,300.24902000000003,577.48857,0.0,0.0,0.0,0.0,-0.025156227389563756,0.0,-0.07477913711487623,-0.05998539789184785,-0.04077757038368286,-0.03179326007900047,-0.23916709764145477,0.00011580777871433788
2525,7.0,300.24169,583.12332,0.0,0.0,0.0,0.0,-0.025166194199147573,0.0,-0.08202641149487652,-0.04842381097730805,-0.04680470621851486,-0.07225246728126333,-0.26372874616050074,-0.033602422185550866
2526,7.0,300.07809,607.07867,0.0,0.0,0.0,0.0,-0.025176161008731393,0.0,-0.03954708250199317,-0.07979579611523192,-0.06519387729513473,-0.05190393294301935,-0.2126362076855598,-0.009436612179721112
2527,7.0,299.67097,636.90007,0.0,0.0,0.0,0.0,-0.025186127818315217,0.0,-0.06583699118660515,-0.052569418383447655,-0.07519530730194902,-0.05844936140275285,-0.1983029034934728,-0.001079752642488289
2528,7.0,299.33017,526.54846,0.0,0.0,0.0,0.0,-0.025196094627899037,0.0,-0.031292397382319176,-0.03667025673857256,-0.09209492879081181,-0.05235967358624744,-0.20400721784644482,0.0016099765912923187
2529,7.0,299.1385,511.85508,0.0,0.0,0.0,0.0,-0.02520606143748286,0.0,-0.04868861477169215,-0.06489406064354514,-0.042008487883414956,-0.052622412376927746,-0.2173075844890888,-0.004340407169664836
2530,7.0,299.79679,744.21525,0.0,0.0,0.0,0.0,-0.02521602824706668,0.0,-0.08024669646273233,-0.05040706059678955,-0.09556909487243531,-0.048331366091184456,-0.1967437243720938,-0.0063123605704064846
2531,7.0,300.09083,918.01554,0.0,0.0,0.0,0.0,-0.025225995056650498,0.0,-0.1028418859297039,-0.09130451366605391,-0.08490739968970792,-0.05451558000951886,-0.21617917851522378,0.00942989200108288
2532,7.0,299.50662,481.25405,0.0,0.0,0.0,0.0,-0.02523596186623432,0.0,-0.020280399348519582,-0.06385209706221134,-0.062156717875640435,-0.05466705481996825,-0.23885045698520477,0.007590455298769613
2533,7.0,300.80611,407.0238,0.0,0.0,0.0,0.0,-0.025245928675818142,0.0,-0.03947831321770617,-0.030987229756951472,-0.053259528841056246,-0.07521861712049953,-0.24003179514429376,0.02717760797797107
2534,7.0,299.42275,753.7946900000001,0.0,0.0,0.0,0.0,-0.025255895485401966,0.0,-0.06340529733786564,-0.07650202806816234,-0.0892274391138126,-0.04880976807289905,-0.2152087888944538,-0.0001973104858155288
2535,7.0,299.86545,610.77679,0.0,0.0,0.0,0.0,-0.025265862294985786,0.0,-0.11067255628003088,-0.04096294144972756,-0.03402539229404476,-0.06265328641839794,-0.2173271098185158,0.0005635416284597285
2536,7.0,300.07907,420.81185,0.0,0.0,0.0,0.0,-0.025275829104569603,0.0,-0.05063276003006436,-0.04242809096182656,-0.034855443736214464,-0.08087089601458602,-0.2220554008801618,-0.010494905097016491
2537,7.0,299.87316,444.67260999999996,0.0,0.0,0.0,0.0,-0.025285795914153426,0.0,-0.05711960844851644,-0.04965453393302095,-0.02839522859664087,-0.07003838814325072,-0.25080731479025475,-0.013953283728831888
2538,7.0,299.21918999999997,604.58383,0.0,0.0,0.0,0.0,-0.025295762723737247,0.0,-0.05119639559694086,-0.047324290737293856,-0.08525770152753001,-0.06407297950451074,-0.19114224477177083,-0.0035374210562162767
2539,7.0,300.17235,705.48924,0.0,0.0,0.0,0.0,-0.02530572953332107,0.0,-0.05191849739995675,-0.06622678343382464,-0.09630583205989561,-0.025770061734057076,-0.2176338307562868,-0.0059860794474050445
2540,7.0,299.53485,718.70294,0.0,0.0,0.0,0.0,-0.02531569634290489,0.0,-0.05836127754505965,-0.05796766838471345,-0.10213880181781491,-0.07244997708350602,-0.22212006650154378,0.023688347509607875
2541,7.0,299.38599999999997,580.7937,0.0,0.0,0.0,0.0,-0.025325663152488707,0.0,-0.045315790925320364,-0.07267997371045493,-0.05855101774553555,-0.05363270783963615,-0.22583879569355378,-0.006115432171071165
2542,7.0,299.36207,457.38035999999994,0.0,0.0,0.0,0.0,-0.02533562996207253,0.0,-0.016028887041927984,-0.07783484407745102,-0.04516847651978155,-0.0883728538469716,-0.21305058644645578,-0.023890834396341775
2543,7.0,300.08186,735.73671,0.0,0.0,0.0,0.0,-0.02534559677165635,0.0,-0.07856768025202633,-0.06292924103013255,-0.08214866721219222,-0.055033917217424747,-0.2121070479533358,-0.0001047480424153269
2544,7.0,300.27652,655.6618900000001,0.0,0.0,0.0,0.0,-0.02535556358124017,0.0,-0.07094029218976174,-0.06589924324624893,-0.06246530825984594,-0.08911344543781233,-0.24004700402829476,0.00831827801317512
2545,7.0,300.35299,217.20906000000002,0.0,0.0,0.0,0.0,-0.025365530390823995,0.0,-0.033734837761619264,-0.013760810792836286,-0.018530482988566282,-0.016371527695743984,-0.25191060229414075,0.0007610277003850862
2546,7.0,300.27992,385.58285,0.0,0.0,0.0,0.0,-0.025375497200407812,0.0,-0.04574100234303546,-0.028998174214396974,-0.04246838082555286,-0.05863919482223794,-0.2253212478074758,0.005854919389535555
2547,7.0,299.60312000000005,828.9932299999999,0.0,0.0,0.0,0.0,-0.025385464009991632,0.0,-0.1034895553936239,-0.07412877848519084,-0.07437491213323233,-0.006736109158952213,-0.2319932058734468,-0.0004029287307909696
2548,7.0,300.06371,865.64464,0.0,0.0,0.0,0.0,-0.025395430819575453,0.0,-0.06708508834178273,-0.06953316036513864,-0.1265161097461679,-0.06417960786553414,-0.2230269962685508,-0.025912797262393976
2549,7.0,299.9956,870.80029,0.0,0.0,0.0,0.0,-0.025405397629159276,0.0,-0.07960526963267842,-0.09276147105109442,-0.09233480359298561,-0.05177225906602415,-0.23006975320861678,0.0035972077770417667
2550,7.0,300.22373,695.4896200000001,0.0,0.0,0.0,0.0,-0.0254153644387431,0.0,-0.05310869744442036,-0.06959012427251053,-0.08871265537400742,-0.06393394031253864,-0.1978055496818878,-0.022522718780069277
2551,7.0,301.49746,470.10382999999996,0.0,0.0,0.0,0.0,-0.025425331248326914,0.0,-0.05852233466170474,-0.04414851465111916,-0.04022897752779096,-0.07816412502869852,-0.24314329368387474,-0.01081895159824739
2552,7.0,301.72986000000003,452.25802000000004,0.0,0.0,0.0,0.0,-0.025435298057910737,0.0,-0.038860934865525665,-0.06417482532506213,-0.034439383993402566,-0.06535530424806635,-0.24012502428599475,-0.006143629097503984
2553,7.0,301.43627000000004,602.2198,0.0,0.0,0.0,0.0,-0.025445264867494558,0.0,-0.06708336986961314,-0.05106103956908225,-0.06491537233289844,-0.06982220718141534,-0.23539805044947879,-0.004841495415818396
2554,7.0,301.42078,444.1362,0.0,0.0,0.0,0.0,-0.02545523167707838,0.0,-0.0070379282967144435,-0.08124053978356702,-0.04672784815867955,-0.03914359921942246,-0.20664141479391981,-0.007044649691252795
2555,7.0,300.66436,400.1672,0.0,0.0,0.0,0.0,-0.025465198486662198,0.0,-0.028635178379322074,-0.048165774680341854,-0.04483988255210186,-0.06155023601503535,-0.24353451967998577,0.007366864844252952
2556,7.0,301.33072999999996,918.99191,0.0,0.0,0.0,0.0,-0.02547516529624602,0.0,-0.1088983958849349,-0.07528602662315234,-0.09516617597017031,-0.06027772054569785,-0.23188356208012578,0.028437479099310672
2557,7.0,300.54963,1061.4704,0.0,0.0,0.0,0.0,-0.025485132105829842,0.0,-0.1254962228580129,-0.08369803807260322,-0.11346623879324588,-0.03085307544371147,-0.2604008072670587,0.012639236151145487
2558,7.0,299.98688,756.2909900000001,0.0,0.0,0.0,0.0,-0.025495098915413662,0.0,-0.08456754750016712,-0.07453613136989343,-0.07078989851716902,-0.02854198774112487,-0.22033505419787677,-0.01936255991768588
2559,7.0,300.51331,694.70207,0.0,0.0,0.0,0.0,-0.025505065724997486,0.0,-0.05533456473409635,-0.06187608711469434,-0.0939614297072711,-0.06031366863274565,-0.23136332908128276,-0.03323750218853607
2560,7.0,299.91341,638.43807,0.0,0.0,0.0,0.0,-0.025515032534581303,0.0,-0.05145793571275285,-0.06267096357964254,-0.07994033218899653,-0.07194723886088963,-0.23448976292733778,-0.04285010354897596
2561,7.0,298.80647,441.40047999999996,0.0,0.0,0.0,0.0,-0.025524999344165123,0.0,-0.029948549105941677,-0.04829887825322816,-0.05592729577759436,-0.05936226934534985,-0.2076606734670128,-0.008856599248828293
2562,7.0,299.96297000000004,339.18154,0.0,0.0,0.0,0.0,-0.025534966153748947,0.0,-0.04440857542178516,-0.027678447369900074,-0.03101569499201077,-0.04329652127803396,-0.1852954471897368,0.0017655149399427585
2563,7.0,299.52428,227.85343999999998,0.0,0.0,0.0,0.0,-0.025544932963332767,0.0,-0.04580848479969546,-0.008569388239082772,-0.014883884031424988,-0.042943475558941055,-0.2162462050093388,0.020016571313981782
2564,7.0,300.50183,297.39245,0.0,0.0,0.0,0.0,-0.02555489977291659,0.0,-0.024647723101790874,-0.024623064647357275,-0.04112909116137526,-0.08468527398953582,-0.21706881210302378,0.0003931323957766467
2565,7.0,299.83263,818.6297099999999,0.0,0.0,0.0,0.0,-0.02556486658250041,0.0,-0.06137996541523094,-0.1096358291752139,-0.07782720113194672,-0.07098682063435373,-0.2274655180665988,-0.0027504960714278275
2566,7.0,300.12912,1257.0608,0.0,0.0,0.0,0.0,-0.025574833392084228,0.0,-0.12307542651409889,-0.12075543842263389,-0.13828423958759187,-0.06636001872922394,-0.1897641131782598,-0.013551257499904986
2567,7.0,301.45045,816.0132,0.0,0.0,0.0,0.0,-0.02558480020166805,0.0,-0.08103432210996492,-0.06260676810630694,-0.10440654673412389,-0.08109627931382962,-0.2195660885644858,0.016948022419639584
2568,7.0,301.91922,382.41888,0.0,0.0,0.0,0.0,-0.025594767011251872,0.0,-0.03836345135792787,-0.04440239256967495,-0.03347994760621357,-0.07610593847157134,-0.23311908885456276,-0.008622795942578702
2569,7.0,300.13152,623.29715,0.0,0.0,0.0,0.0,-0.025604733820835696,0.0,-0.07469040376386893,-0.03391522769017237,-0.08086113841612301,-0.044942904756019364,-0.2327856079816508,0.012759375189002288
2570,7.0,300.08179,689.78277,0.0,0.0,0.0,0.0,-0.025614700630419516,0.0,-0.07314078668368364,-0.05106532359050505,-0.08547062691679412,-0.021109893503134282,-0.2042653635744218,-0.033513969504821266
2571,7.0,298.95398,385.51052000000004,0.0,0.0,0.0,0.0,-0.025624667440003333,0.0,-0.014121709200204186,-0.05617850682188695,-0.04688535383372416,-0.03308607500084137,-0.22484978253594579,-0.02439308119265968
2572,7.0,299.97061,526.20931,0.0,0.0,0.0,0.0,-0.025634634249587153,0.0,-0.062172537749451744,-0.05473853150852245,-0.04304342153555496,-0.07581802446890644,-0.23882788177297679,-0.007792302216740353
2573,7.0,299.53168,527.51772,0.0,0.0,0.0,0.0,-0.025644601059170977,0.0,-0.05050466596567245,-0.06738582806421343,-0.042461720732645564,-0.05809633189566154,-0.22368764546625178,-0.005544024064002575
2574,7.0,299.46285,560.6654599999999,0.0,0.0,0.0,0.0,-0.025654567868754797,0.0,-0.05418790708618005,-0.08017849966475182,-0.03606189225928167,-0.09394672136881951,-0.2003496788279738,0.02030312046876198
2575,7.0,300.31222,932.57624,0.0,0.0,0.0,0.0,-0.025664534678338614,0.0,-0.1030926247994499,-0.08674059608863031,-0.0936466686299566,-0.06455684290426433,-0.20643129712068278,0.013681448992003886
2576,7.0,300.78405,882.50644,0.0,0.0,0.0,0.0,-0.025674501487922434,0.0,-0.07263522655953873,-0.08769491252306401,-0.10792977945183989,-0.08399549790446022,-0.24423609404922575,0.008515181182582952
2577,7.0,299.46815,441.1752,0.0,0.0,0.0,0.0,-0.025684468297506258,0.0,-0.022790647437761775,-0.04217216121181826,-0.06914343600567584,-0.05247957451033075,-0.2137700953424658,-0.01775936014571238
2578,7.0,299.86737999999997,500.64340999999996,0.0,0.0,0.0,0.0,-0.025694435107090078,0.0,-0.04403657888607196,-0.06136654795740674,-0.046779968730573454,-0.054767442573625744,-0.22561441145890876,-0.015879970687981085
2579,7.0,297.85236000000003,737.95639,0.0,0.0,0.0,0.0,-0.0257044019166739,0.0,-0.10144179720652591,-0.041743070059470255,-0.08113544953619542,-0.04217185217053776,-0.23801215464747077,0.016851854852648587
2580,7.0,299.20623,510.80605,0.0,0.0,0.0,0.0,-0.02571436872625772,0.0,-0.057647265530842144,-0.03004821947852837,-0.06757679936356084,-0.057819139092304746,-0.25201302161424877,0.002091903974079848
2581,7.0,299.62626,213.77017,0.0,0.0,0.0,0.0,-0.02572433553584154,0.0,0.0058989187618779535,-0.046635892672354254,-0.024243821346928877,-0.03499403304514217,-0.22130705488630578,-0.0012113271196486789
2582,7.0,300.00307000000004,433.70602,0.0,0.0,0.0,0.0,-0.025734302345425362,0.0,-0.02393293392474668,-0.06413750732387914,-0.04376535817880456,-0.04394010227780046,-0.2039589060816768,-0.05029351579058355
2583,7.0,300.44867,798.63319,0.0,0.0,0.0,0.0,-0.025744269155009183,0.0,-0.08771765289505833,-0.08607766910470452,-0.06896922588948264,-0.06228443298449494,-0.25188673012178475,-0.0025941192583196376
2584,7.0,301.07506,798.53767,0.0,0.0,0.0,0.0,-0.025754235964593006,0.0,-0.10948583776291089,-0.08619507844679192,-0.04705460105092755,-0.07015294518630663,-0.27887630826544874,-0.027583793598558472
2585,7.0,300.00332000000003,658.88829,0.0,0.0,0.0,0.0,-0.025764202774176823,0.0,-0.07258736974406563,-0.04874851305135366,-0.07894970593722933,-0.05567643937083674,-0.23067431901328278,0.032264305864989073
2586,7.0,300.18976000000004,498.26757000000003,0.0,0.0,0.0,0.0,-0.025774169583760644,0.0,-0.05139578599136915,-0.05363857861071554,-0.04642653493669226,-0.04061906665728976,-0.21912160614311882,0.011475288403522788
2587,7.0,299.81948,463.91764000000006,0.0,0.0,0.0,0.0,-0.025784136393344467,0.0,-0.0038879105479568965,-0.03940134066060957,-0.0977301263147125,-0.06621986901514224,-0.2150411871954128,0.013376525559910287
2588,7.0,299.44982999999996,792.94079,0.0,0.0,0.0,0.0,-0.025794103202928288,0.0,-0.07490830117137373,-0.06159368519257344,-0.10453221001152589,-0.07257596257443984,-0.22927942826311778,0.0007662541963884013
2589,7.0,299.66708,746.682,0.0,0.0,0.0,0.0,-0.02580407001251211,0.0,-0.07840827574629433,-0.05675886912141424,-0.09180553848275122,-0.06504061713800914,-0.20863590642326083,-0.02119814252059378
2590,7.0,298.94157,258.81572,0.0,0.0,0.0,0.0,-0.025814036822095928,0.0,-0.03772384229855336,-0.03468102691700087,-0.006268647035917295,-0.046338580775011864,-0.21230483437285583,-0.01823019720218038
2591,7.0,299.94292,397.53548,0.0,0.0,0.0,0.0,-0.02582400363167975,0.0,-0.03260988798384537,-0.04826499516988416,-0.03996597427883457,-0.04120813176192596,-0.23724231761899375,-0.006791032380622714
2592,7.0,300.41077,893.92131,0.0,0.0,0.0,0.0,-0.025833970441263572,0.0,-0.12270852865288888,-0.06344572095060515,-0.08557551046114532,-0.013878334632184988,-0.2766702297502257,0.018379216907637483
2593,7.0,300.61204,780.95907,0.0,0.0,0.0,0.0,-0.025843937250847392,0.0,-0.06134993977501764,-0.08003684730077183,-0.0960052706694825,-0.040316761463454566,-0.22008265359796678,-0.004920449484810556
2594,7.0,300.81428,516.53454,0.0,0.0,0.0,0.0,-0.025853904060431216,0.0,-0.04380999893846026,-0.09398559268240582,-0.019218009658419882,-0.027990643911211473,-0.23208953556045378,-0.018318257755121282
2595,7.0,300.67149,541.3616,0.0,0.0,0.0,0.0,-0.025863870870015033,0.0,-0.04338717676448096,-0.04605953879022255,-0.07511369304614433,-0.10099953684262822,-0.23642501995583276,0.0032643323210645174
2596,7.0,300.64403,669.6692,0.0,0.0,0.0,0.0,-0.025873837679598853,0.0,-0.06960149293863252,-0.0869868077569295,-0.04697441345126366,-0.09363200588775951,-0.24118561343066675,-0.008352075071585632
2597,7.0,299.81652,608.76518,0.0,0.0,0.0,0.0,-0.025883804489182677,0.0,-0.05264477987288525,-0.06042594788957674,-0.07197868609099323,-0.099780483488317,-0.1953295920025298,-0.013566535284912787
2598,7.0,299.48922000000005,519.40513,0.0,0.0,0.0,0.0,-0.025893771298766497,0.0,-0.04050555630158716,-0.04686807893276925,-0.07051255372629724,-0.05487580967182075,-0.19572695829424683,-0.01055098747680139
2599,7.0,299.85586,247.61501,0.0,0.0,0.0,0.0,-0.025903738108350317,0.0,0.01739834420133288,-0.04287030775596996,-0.04979681552531305,-0.08525052467707173,-0.21478748963537478,-0.014838146935161087
2600,7.0,299.29721,297.78166,0.0,0.0,0.0,0.0,-0.02591370491793414,0.0,-0.006228077312513374,-0.03752363218479417,-0.046766479331992156,-0.049901712241915544,-0.23869512574487478,-0.025699428069586076
2601,7.0,299.17794,701.31227,0.0,0.0,0.0,0.0,-0.025923671727517958,0.0,-0.08361543387145082,-0.05002891667271966,-0.07953706675519732,-0.06419087014039565,-0.18787216245903882,-0.01218402442446959
2602,7.0,297.86406,803.4993099999999,0.0,0.0,0.0,0.0,-0.025933638537101778,0.0,-0.10036323401833,-0.07863791165620762,-0.06524258118769144,-0.03355898415376387,-0.2212104313567698,0.0043167118094512855
2603,7.0,298.8836,463.20727999999997,0.0,0.0,0.0,0.0,-0.0259436053466856,0.0,-0.06436103738868984,-0.018998062445962784,-0.05744434497306545,-0.05724129877227634,-0.2540644477667088,0.008810610866539592
2604,7.0,299.70243,452.07048,0.0,0.0,0.0,0.0,-0.025953572156269422,0.0,-0.03999070163427496,-0.04424689009007805,-0.05318054396926104,-0.03824697116618217,-0.26553828924908873,0.02809208848472327
2605,7.0,300.23837000000003,851.6885199999999,0.0,0.0,0.0,0.0,-0.02596353896585324,0.0,-0.07802320220479052,-0.07568015963380023,-0.10518868461881489,-0.06495348674866003,-0.2176683623196948,0.008095334620172322
2606,7.0,299.13861,854.1560699999999,0.0,0.0,0.0,0.0,-0.02597350577543706,0.0,-0.0878309879584936,-0.06712843518106074,-0.1046826979163779,-0.06607997464008573,-0.23050257312133277,0.017878745325494782
2607,7.0,301.24195,709.94592,0.0,0.0,0.0,0.0,-0.025983472585020883,0.0,-0.06688351338013883,-0.094443837066631,-0.054478481883607544,-0.1117424875906249,-0.2341831939770818,-0.018487930537366682
2608,7.0,299.29533,526.98427,0.0,0.0,0.0,0.0,-0.025993439394604703,0.0,-0.07258482243331423,-0.023588963886799475,-0.06401627498916444,-0.06672796023803694,-0.2342882173499468,0.0025058058994787877
2609,7.0,299.71245,444.51192000000003,0.0,0.0,0.0,0.0,-0.026003406204188527,0.0,-0.01137081421221199,-0.06646968380079703,-0.057280025191098344,-0.04810250531759766,-0.16886213150289484,-0.026580409514782178
2610,7.0,300.053,575.56934,0.0,0.0,0.0,0.0,-0.026013373013772344,0.0,-0.036338313979312364,-0.06367262716474904,-0.07494776624951863,-0.013072306336636188,-0.2089072953300448,-0.013354175289204486
2611,7.0,300.77853,864.8414300000001,0.0,0.0,0.0,0.0,-0.026023339823356164,0.0,-0.05247857544573215,-0.07694758757438563,-0.13346403660937486,-0.044744447564933156,-0.24982785658108975,0.0006370463776190823
2612,7.0,300.87514,592.28125,0.0,0.0,0.0,0.0,-0.026033306632939988,0.0,-0.07375503105330483,-0.060869454551097435,-0.04541422614603516,-0.03991349906940566,-0.27125544148082775,-0.0006939251415850793
2613,7.0,301.03395,347.38953,0.0,0.0,0.0,0.0,-0.026043273442523808,0.0,-0.03319101731369837,-0.04003227629912806,-0.032374448177359266,-0.06539204773644264,-0.20920215110914478,-0.004776165406345826
2614,7.0,299.54456,751.70097,0.0,0.0,0.0,0.0,-0.02605324025210763,0.0,-0.09674930224441272,-0.07183062593338083,-0.059918397742235445,-0.06808831942479394,-0.2218921460240498,0.012695390471687489
2615,7.0,299.78687,966.5365199999999,0.0,0.0,0.0,0.0,-0.02606320706169145,0.0,-0.08425748486356632,-0.09507015937744422,-0.1144753244353349,-0.10139071926898491,-0.23956041093277178,0.002854505788892787
2616,7.0,299.25909,546.61873,0.0,0.0,0.0,0.0,-0.02607317387127527,0.0,-0.055175387196386746,-0.06152426945472264,-0.04945878819920235,-0.08109464696791852,-0.26678715039484174,-0.012057848442516988
2617,7.0,298.32287,241.40788999999998,0.0,0.0,0.0,0.0,-0.026083140680859093,0.0,0.017807198722683684,-0.05347512921058436,-0.03771404011708596,-0.04253496452937416,-0.20256847363195182,-0.021153082275396678
2618,7.0,299.8803,361.17942999999997,0.0,0.0,0.0,0.0,-0.026093107490442913,0.0,-0.058108938753405746,-0.03948714673207796,-0.012193443597399187,-0.05885726549550985,-0.22804661699894876,-0.012817843772772687
2619,7.0,300.63677,437.47065999999995,0.0,0.0,0.0,0.0,-0.026103074300026737,0.0,-0.029483239328769173,-0.058338055879267846,-0.04515886280283275,-0.08079806765039842,-0.25972706687806574,-0.025325479000930178
2620,7.0,300.40214,700.12035,0.0,0.0,0.0,0.0,-0.026113041109610553,0.0,-0.09835760575713991,-0.07109890433391552,-0.04336259430380487,-0.07023781704118284,-0.24032765404099277,0.0005131394172779174
2621,7.0,299.67958,810.6641599999999,0.0,0.0,0.0,0.0,-0.026123007919194374,0.0,-0.07546270197683884,-0.06987164264054424,-0.1010873177385415,-0.04723459682519175,-0.18727635113523683,-0.004182782032433446
2622,7.0,299.63209,606.60276,0.0,0.0,0.0,0.0,-0.026132974728778197,0.0,-0.057806770348334036,-0.06337962158033164,-0.06320570024041694,-0.03221688981330947,-0.2171736936208748,0.007802929994389232
2623,7.0,300.55118999999996,972.9491800000001,0.0,0.0,0.0,0.0,-0.026142941538362018,0.0,-0.08117553674990172,-0.1004503076656735,-0.11412641176339988,-0.07410206313305423,-0.25907398665861175,0.012590208018556788
2624,7.0,300.49155,1242.7475,0.0,0.0,0.0,0.0,-0.02615290834794584,0.0,-0.17573967801415583,-0.08343036678043612,-0.11859418609183489,-0.05075571185019875,-0.24149980202167476,0.04355492031853596
2625,7.0,299.83459,630.36154,0.0,0.0,0.0,0.0,-0.026162875157529658,0.0,-0.04961933767754735,-0.08977403789350773,-0.05222079246129095,-0.02472609495727558,-0.2188614035174388,-0.007747857723629023
2626,7.0,299.83609,122.08271,0.0,0.0,0.0,0.0,-0.02617284196711348,0.0,-0.017742973865095185,-0.02424488221978358,0.004877761359422566,-0.024503541665561273,-0.20608008437102082,0.004298387586692826
2627,7.0,299.63473999999997,376.81381,0.0,0.0,0.0,0.0,-0.0261828087766973,0.0,-0.004491017981753965,-0.047429827827959556,-0.06262114207222554,-0.07850857838694342,-0.24870160882993778,-0.021068795065828178
2628,7.0,299.79479,629.51732,0.0,0.0,0.0,0.0,-0.02619277558628112,0.0,-0.04346260107542476,-0.08119932279599922,-0.06669562033459524,-0.058487923675058645,-0.24104457914924773,-0.006187407783974604
2629,7.0,298.97512,452.24317,0.0,0.0,0.0,0.0,-0.026202742395864943,0.0,-0.036618146299179664,-0.04475662683113516,-0.056095858037730144,-0.05670734636707935,-0.20169841603608382,-0.04542533440688146
2630,7.0,298.76604,580.73426,0.0,0.0,0.0,0.0,-0.02621270920544876,0.0,-0.06625117439023184,-0.06979974646644864,-0.04047779426209726,-0.04727701350087796,-0.1996341925348608,0.004960129270651646
2631,7.0,299.84914,605.16888,0.0,0.0,0.0,0.0,-0.02622267601503258,0.0,-0.07211993214168314,-0.03863369123909846,-0.07320260405903453,-0.08529950012065522,-0.2207308195544358,-0.01106963676573809
2632,7.0,300.1455,633.0723,0.0,0.0,0.0,0.0,-0.026232642824616403,0.0,-0.04762313162903716,-0.06400490328329214,-0.08081013647233952,-0.07791633775649383,-0.23436770682029176,0.02098646241570258
2633,7.0,300.15794,888.7129699999999,0.0,0.0,0.0,0.0,-0.026242609634200224,0.0,-0.07039704017514693,-0.08789947758575302,-0.1118500339562389,-0.04546481367052775,-0.2066896454986798,-0.015323076274019885
2634,7.0,300.39746,813.29313,0.0,0.0,0.0,0.0,-0.026252576443784047,0.0,-0.08404949096253893,-0.05898621474298615,-0.10418510092476889,-0.03505400731856117,-0.2262800559796028,0.024505837690287878
2635,7.0,299.60922999999997,137.35092,0.0,0.0,0.0,0.0,-0.026262543253367864,0.0,-0.004378114157561225,-0.03391056977946267,-0.003462566394478697,-0.06015420434525775,-0.28702534179719574,-0.020011709740001982
2636,7.0,300.47315,354.06854,0.0,0.0,0.0,0.0,-0.026272510062951684,0.0,-0.05755392695813035,-0.025463118894514178,-0.024610949215911577,-0.06157182229516574,-0.2739559353823457,0.01152004771344019
2637,7.0,300.20474,818.91226,0.0,0.0,0.0,0.0,-0.026282476872535508,0.0,-0.06830434637261414,-0.07652112276629683,-0.1041034127017069,-0.06638469643540944,-0.23346111142581777,-0.01982785145635658
2638,7.0,300.12403,459.28704000000005,0.0,0.0,0.0,0.0,-0.02629244368211933,0.0,-0.03323711614024797,-0.05804534211087924,-0.04832933249823375,-0.06154787716880254,-0.21871717749820477,-0.007847017722140352
2639,7.0,299.59022999999996,352.63147000000004,0.0,0.0,0.0,0.0,-0.026302410491703152,0.0,0.022454648638351275,-0.05356115414407435,-0.07608465717972103,-0.07748323413374983,-0.23159309367395878,-0.03456960486975436
2640,7.0,299.82563999999996,695.9853099999999,0.0,0.0,0.0,0.0,-0.02631237730128697,0.0,-0.09785771780705481,-0.039346970673493666,-0.07435746599301052,-0.061390289420499844,-0.22024869489185378,0.027195344920971573
2641,7.0,299.5119,763.28471,0.0,0.0,0.0,0.0,-0.02632234411087079,0.0,-0.07540111156951033,-0.07518703208838234,-0.08143134896289843,-0.035449158645559566,-0.21958247281860277,-0.006075368262117164
2642,7.0,299.5641,690.92417,0.0,0.0,0.0,0.0,-0.026332310920454613,0.0,-0.13727346181783587,-0.02007468526021718,-0.05267554721217175,-0.06024516076698444,-0.2085595377632238,0.02973354959372287
2643,7.0,298.08378,777.70389,0.0,0.0,0.0,0.0,-0.026342277730038433,0.0,-0.07598385602002274,-0.07616936691458122,-0.08424934137251262,-0.05054176713133405,-0.2514556529992408,-0.008722154132809593
2644,7.0,298.24,520.9675900000001,0.0,0.0,0.0,0.0,-0.026352244539622257,0.0,-0.06252980162871094,-0.03545076971321857,-0.060380567457348044,-0.06597659779863324,-0.22700067945072278,0.024793619970439773
2645,7.0,299.09063,285.94117,0.0,0.0,0.0,0.0,-0.026362211349206074,0.0,0.021419739304213682,-0.04641748965304955,-0.06192122436689904,-0.046890670356998856,-0.20784565240526878,-0.039316571143993465
2646,7.0,300.0984,753.31695,0.0,0.0,0.0,0.0,-0.026372178158789894,0.0,-0.08114331742322192,-0.09212047890533341,-0.05572574716045304,-0.058613191784921644,-0.23638037615642676,-0.005956293035540354
2647,7.0,299.66688999999997,624.9712400000001,0.0,0.0,0.0,0.0,-0.026382144968373718,0.0,-0.05832976040069915,-0.05621872879785654,-0.07542716121633124,-0.06349886085209965,-0.26648226343975173,-0.010227076751083891
2648,7.0,299.39725,130.17956,0.0,0.0,0.0,0.0,-0.026392111777957538,0.0,-0.04874873393987545,-0.03392802199918507,0.04310541926942366,-0.08481214303455682,-0.24098732038609677,-0.022815527793967276
2649,7.0,300.34227000000004,281.80838,0.0,0.0,0.0,0.0,-0.026402078587541362,0.0,-0.0015840175290303584,-0.04051385279340596,-0.04356484003701496,-0.03730263220548317,-0.2222226884716718,-0.034178201554875866
2650,7.0,301.41008,741.8173099999999,0.0,0.0,0.0,0.0,-0.026412045397125175,0.0,-0.07954718304419572,-0.06436387651547003,-0.08158288051535342,-0.07099309569222302,-0.2105717308718118,0.005931992359717064
2651,7.0,300.11548999999997,623.0162,0.0,0.0,0.0,0.0,-0.026422012206709,0.0,-0.004882724765037415,-0.07939651275432573,-0.10510213279527289,-0.07590865462410093,-0.25352585467605376,0.001794732107901268
2652,7.0,299.65785,560.0138400000001,0.0,0.0,0.0,0.0,-0.026431979016292823,0.0,-0.08718185232167892,-0.027308824879171176,-0.05573954560031485,-0.09007592765480191,-0.23564327723868078,0.016115992100024585
2653,7.0,300.20043,639.37354,0.0,0.0,0.0,0.0,-0.026441945825876643,0.0,-0.08673089523217292,-0.03950996816408026,-0.06811272963295303,-0.06324044357309584,-0.23121193938384177,0.02198557159730698
2654,7.0,300.32691,570.8111,0.0,0.0,0.0,0.0,-0.02645191263546046,0.0,-0.11749163826052189,-0.04113808172951256,-0.014882604296548684,-0.04884367648749555,-0.24494062710875775,0.004476564678352535
2655,7.0,299.34611,774.85847,0.0,0.0,0.0,0.0,-0.02646187944504428,0.0,-0.06466966121014864,-0.08485692868897682,-0.08601103676487841,-0.05734573243358315,-0.26322536351082076,-0.0029061369609883875
2656,7.0,298.81573,1014.5968,0.0,0.0,0.0,0.0,-0.0264718462546281,0.0,-0.1038468577763869,-0.08611805016093982,-0.11844719389982789,-0.04979633119176525,-0.2186878743053128,0.003174688463517357
2657,7.0,299.10717,717.89544,0.0,0.0,0.0,0.0,-0.026481813064211924,0.0,-0.017250381315730087,-0.08945982903749772,-0.1115120745178849,-0.024053540070899576,-0.2257865930484018,-0.007746596733879572
2658,7.0,300.1312,256.21707999999995,0.0,0.0,0.0,0.0,-0.026491779873795744,0.0,-0.032380805308486665,-0.016021614945960286,-0.02948117331181527,-0.053135328696798656,-0.2028857627682658,0.004944326014141985
2659,7.0,300.74323,691.05839,0.0,0.0,0.0,0.0,-0.026501746683379568,0.0,-0.07012111596091535,-0.07253371308502013,-0.06740966477281594,-0.06695036964823703,-0.24358128117210073,0.002949725359090227
2660,7.0,300.36904,742.2668,0.0,0.0,0.0,0.0,-0.026511713492963385,0.0,-0.12899896765870686,-0.024598109310644375,-0.07203349886840284,-0.08749715852754722,-0.2236631653438358,0.026799319159136872
2661,7.0,300.58498,430.46258,0.0,0.0,0.0,0.0,-0.026521680302547205,0.0,-0.036751821345122365,-0.05763583708296424,-0.036462216228040564,-0.053326348632150855,-0.24300662651038676,-0.024258850885662177
2662,7.0,300.50054,579.45372,0.0,0.0,0.0,0.0,-0.02653164711213103,0.0,-0.04248987084692376,-0.06708449964347464,-0.06656509143021302,-0.06978204498720163,-0.2321018364166678,-0.0015297200906216185
2663,7.0,299.71825,747.6491900000001,0.0,0.0,0.0,0.0,-0.02654161392171485,0.0,-0.060560310932337345,-0.05155486625706915,-0.11515150675706888,-0.04989888932713695,-0.24847212794728973,0.007004435618633974
2664,7.0,299.45129,693.96649,0.0,0.0,0.0,0.0,-0.026551580731298673,0.0,-0.07024946435108234,-0.07840502523997352,-0.06229399502568864,-0.07222132605268992,-0.21522788865883877,-0.009227829767465891
2665,7.0,299.05051000000003,722.50147,0.0,0.0,0.0,0.0,-0.02656154754088249,0.0,-0.08496773569341262,-0.062046449920257846,-0.07260821939137334,-0.05089994394893335,-0.2253298705658268,-0.016659398128654582
2666,7.0,299.55811,663.15062,0.0,0.0,0.0,0.0,-0.02657151435046631,0.0,-0.07623140720495412,-0.0977897155530935,-0.027560107864220876,-0.07372551001164133,-0.23054350842537277,-0.019083434846388383
2667,7.0,300.22844,282.53022000000004,0.0,0.0,0.0,0.0,-0.026581481160050133,0.0,-0.005378988218189805,-0.04688462632015236,-0.033618517663389365,-0.040018248864743665,-0.2654296688383687,-0.028880307896514475
2668,7.0,300.40587999999997,443.22805,0.0,0.0,0.0,0.0,-0.026591447969633954,0.0,-0.003389241841717127,-0.05300402769584025,-0.07833698954875892,-0.07293830486320023,-0.23710705886314476,-0.018956577960368582
2669,7.0,300.81016,752.2429599999999,0.0,0.0,0.0,0.0,-0.026601414779217777,0.0,-0.06365478079073775,-0.07595591260876493,-0.08905238394703602,-0.03082859633454557,-0.24467433484997675,0.0008284093893226414
2670,7.0,301.48336,543.40368,0.0,0.0,0.0,0.0,-0.026611381588801594,0.0,-0.047045146414244454,-0.04624811172658325,-0.07188789077603243,-0.08859953511959331,-0.24571858027053578,0.016615948951116483
2671,7.0,300.52019,397.81354,0.0,0.0,0.0,0.0,-0.026621348398385414,0.0,-0.03478354958861907,-0.03741511816533467,-0.04872671398870225,-0.04594725953339146,-0.24728173133230677,0.01032760433325519
2672,7.0,300.25777999999997,982.92264,0.0,0.0,0.0,0.0,-0.026631315207969238,0.0,-0.12372121133283288,-0.08160794325657691,-0.09345478033926873,-0.06323354030016454,-0.2090033818370278,0.01919301277845288
2673,7.0,299.79572,1180.9512,0.0,0.0,0.0,0.0,-0.02664128201755306,0.0,-0.12512444113132087,-0.1016010193272399,-0.13225421598997486,-0.05432520146147995,-0.1994181980110438,-0.012187434011056089
2674,7.0,299.95909,763.31482,0.0,0.0,0.0,0.0,-0.026651248827136882,0.0,-0.06357775655788604,-0.09178033388651373,-0.07667055486454463,-0.08068989610947272,-0.2118240066704018,-0.02170741924610548
2675,7.0,299.82041,463.52119000000005,0.0,0.0,0.0,0.0,-0.0266612156367207,0.0,-0.023971778893830377,-0.06638172862586654,-0.050545359102938545,-0.05541453043198835,-0.2269020800834918,-0.010639936650079989
2676,7.0,300.19681,394.77235,0.0,0.0,0.0,0.0,-0.02667118244630452,0.0,-0.06947412030831183,-0.014929688002195485,-0.03559712761066297,-0.07815310593386103,-0.21760699989363877,0.035037676766699465
2677,7.0,299.19874,367.61969,0.0,0.0,0.0,0.0,-0.026681149255888343,0.0,-0.014611439318036785,-0.04873415833718695,-0.04840160762786675,-0.04404304038195966,-0.24540183828927575,-0.002151873485223378
2678,7.0,299.12464,435.04891,0.0,0.0,0.0,0.0,-0.026691116065472163,0.0,-0.05800788022818204,-0.028362541148414876,-0.04587358409212026,-0.054456253202913744,-0.24043574756166075,0.007106113442318794
2679,7.0,299.33963,603.40573,0.0,0.0,0.0,0.0,-0.02670108287505598,0.0,-0.02174895439420468,-0.048065959412990855,-0.11360535803197588,-0.048550553366066555,-0.25385099650064274,0.0016992644940793482
2680,7.0,300.30397999999997,493.65004000000005,0.0,0.0,0.0,0.0,-0.026711049684639804,0.0,-0.023637237148063678,-0.07703112801863043,-0.04938892156505705,-0.048026277499324546,-0.23399306772831777,-0.04191613925605086
2681,7.0,300.6993,632.7733099999999,0.0,0.0,0.0,0.0,-0.026721016494223624,0.0,-0.050282292019225856,-0.053825988335961444,-0.08823900553526183,-0.04987661910318905,-0.24057436017534076,0.001205319458480769
2682,7.0,300.68334,1015.0264,0.0,0.0,0.0,0.0,-0.026730983303807444,0.0,-0.13371470455161386,-0.1069481832849639,-0.06787978546146324,-0.08029872381561702,-0.24240569827357974,-0.017195781320841482
2683,7.0,299.67877000000004,613.99667,0.0,0.0,0.0,0.0,-0.026740950113391265,0.0,-0.06878161554071693,-0.06062030243100804,-0.057237737198174855,-0.07248856266056414,-0.25776632660955573,0.016958080953382287
2684,7.0,300.73422,230.99811,0.0,0.0,0.0,0.0,-0.026750916922975085,0.0,-0.026861886339561773,-0.054890196809990646,0.01153442674560929,-0.07074445931643453,-0.24006941712050675,-0.04866441633280395
2685,7.0,299.93415,563.68844,0.0,0.0,0.0,0.0,-0.026760883732558905,0.0,-0.039929507407735564,-0.062317054571464435,-0.06910064949370313,-0.04601552624562886,-0.2193071930314348,-0.01144499526528309
2686,7.0,300.02766,594.9702900000001,0.0,0.0,0.0,0.0,-0.026770850542142725,0.0,-0.06256033693372454,-0.04728047273671936,-0.07101530106816453,-0.06529322038793914,-0.25706656595799476,-0.04494729314220246
2687,7.0,299.62015,323.62232,0.0,0.0,0.0,0.0,-0.02678081735172655,0.0,-0.02475648840727518,-0.023256230792461276,-0.050360384217682956,-0.07524105655721412,-0.2519447589550118,0.011854190238667489
2688,7.0,300.56495,574.73002,0.0,0.0,0.0,0.0,-0.02679078416131037,0.0,-0.08160062556435471,-0.03155900881488167,-0.06154393967891394,-0.06673055517154303,-0.23826267060219478,-0.0039001932669941067
2689,7.0,300.04263,803.0726599999999,0.0,0.0,0.0,0.0,-0.02680075097089419,0.0,-0.08176285197161522,-0.05738216080117835,-0.10496902212963591,-0.037410357916364864,-0.22611960782626778,0.032354724250912674
2690,7.0,299.66617,794.57355,0.0,0.0,0.0,0.0,-0.02681071778047801,0.0,-0.09115226878552851,-0.08164725229420643,-0.06873099761872134,-0.03994882603414216,-0.2388026417129858,-0.01056572621275599
2691,7.0,298.97506,1149.3177,0.0,0.0,0.0,0.0,-0.02682068459006183,0.0,-0.1015255119297879,-0.10063597257424721,-0.14720240087274586,-0.07036561118354513,-0.24301399283861375,0.016309072986080184
2692,7.0,299.40049,986.37408,0.0,0.0,0.0,0.0,-0.026830651399645654,0.0,-0.13685682350921688,-0.08376421141013402,-0.07921205867962153,-0.049512423579995746,-0.23553685558067775,0.008089198681541752
2693,7.0,299.40672,431.09822,0.0,0.0,0.0,0.0,-0.026840618209229474,0.0,-0.02507601986606048,-0.06702907081000424,-0.038938004694631864,-0.06542826332151684,-0.22022933168244277,-0.006724711716527374
2694,7.0,300.05227,363.84665,0.0,0.0,0.0,0.0,-0.026850585018813298,0.0,-0.06341773599609324,-0.02336598300354298,-0.02381657633626308,-0.045113588761864554,-0.23152533763977176,-0.013025049365222289
2695,7.0,299.74061,751.80426,0.0,0.0,0.0,0.0,-0.026860551828397115,0.0,-0.0885389042601095,-0.04313313976565946,-0.0968576784618586,-0.05299935458637905,-0.2564544717050858,0.02013163092908728
2696,7.0,300.13471,581.38489,0.0,0.0,0.0,0.0,-0.026870518637980935,0.0,-0.05382559924792305,-0.061913402076127035,-0.06098748805524644,-0.05383882824122865,-0.22510687448381878,-0.02066557725478368
2697,7.0,300.74166,432.32838,0.0,0.0,0.0,0.0,-0.02688048544756476,0.0,-0.009010892009130802,-0.04447709342004736,-0.07792904695249812,-0.06020129311715504,-0.22769615405436078,-0.041057006522761064
2698,7.0,300.00649,677.71161,0.0,0.0,0.0,0.0,-0.02689045225714858,0.0,-0.05918195845030454,-0.0909641376262114,-0.055861311917832245,-0.07823467560666134,-0.2372374844160168,-0.03579166352386216
2699,7.0,300.53485,779.81807,0.0,0.0,0.0,0.0,-0.026900419066732403,0.0,-0.06295978748089724,-0.07248569718928133,-0.1015997324996129,-0.08969888817334101,-0.23437859925886678,-0.007295456955380543
2700,7.0,301.19647000000003,808.4524299999999,0.0,0.0,0.0,0.0,-0.02691038587631622,0.0,-0.09243562501768592,-0.0964346293198569,-0.056879097325279855,-0.06178488042019294,-0.2586189259062008,-0.023191468912319775
2701,7.0,299.87768,811.70546,0.0,0.0,0.0,0.0,-0.02692035268590004,0.0,-0.07979182620134012,-0.08885074616388591,-0.07809561817618742,-0.055833823455869354,-0.2123162435689818,0.0036509275615684966
2702,7.0,298.56105,515.8895200000001,0.0,0.0,0.0,0.0,-0.026930319495483863,0.0,-0.04373621609267846,-0.06662053951543534,-0.046460777723821754,-0.05494915985980985,-0.26195069488502076,-0.003072628644544837
2703,7.0,298.66652999999997,212.35292,0.0,0.0,0.0,0.0,-0.026940286305067684,0.0,0.009401756173631091,-0.023655476663113777,-0.050296264738104855,-0.04033408398716416,-0.24232945120355479,0.01119012436162929
2704,7.0,299.4935,582.20547,0.0,0.0,0.0,0.0,-0.026950253114651507,0.0,-0.08056810648720303,-0.03338482976632617,-0.06302298895588473,-0.05984501209049285,-0.2406233305526738,0.002932662936681297
2705,7.0,300.55056,780.36781,0.0,0.0,0.0,0.0,-0.026960219924235324,0.0,-0.07919254956219612,-0.05004447816775545,-0.1079753047788329,-0.07749904894131063,-0.23568235829503778,-0.002750382384766607
2706,7.0,300.08942,359.77078,0.0,0.0,0.0,0.0,-0.026970186733819144,0.0,-0.06464175630239465,-0.027992047262599972,-0.016727531091878786,-0.06306269924055384,-0.2562009362650638,-0.01121591461642459
2707,7.0,299.90572000000003,443.50660999999997,0.0,0.0,0.0,0.0,-0.026980153543402965,0.0,-0.03749243218771497,-0.03251910584113587,-0.06480339806434744,-0.07230386236608563,-0.2188147636153358,-0.0025456374701848575
2708,7.0,300.24953999999997,937.44119,0.0,0.0,0.0,0.0,-0.02699012035298679,0.0,-0.11398780928222088,-0.06905439867963853,-0.10191651501087691,-0.02641288887574918,-0.2147490975890858,0.01087278658931049
2709,7.0,299.59522999999996,803.79183,0.0,0.0,0.0,0.0,-0.027000087162570605,0.0,-0.052884971822340344,-0.09147405067278591,-0.0999736241561285,-0.07620157104250952,-0.20854842240962682,-0.015112528982740485
2710,7.0,299.41046,592.18763,0.0,0.0,0.0,0.0,-0.027010053972154426,0.0,-0.06550043712613984,-0.05922596592864774,-0.05528385055334124,-0.06029951656859894,-0.24278257664827477,0.006136507063876094
2711,7.0,298.65915,612.81722,0.0,0.0,0.0,0.0,-0.027020020781738246,0.0,-0.04771982811258036,-0.056747834827825236,-0.08181347192011101,-0.07123893245798524,-0.23834194729001879,0.017238250685532884
2712,7.0,298.60983,360.56937999999997,0.0,0.0,0.0,0.0,-0.02702998759132207,0.0,-0.05758555657325194,-0.03134798326955507,-0.020670549273024377,-0.02326837054190938,-0.2247980865158438,0.026567616219019572
2713,7.0,298.77299999999997,406.05183,0.0,0.0,0.0,0.0,-0.027039954400905886,0.0,-0.02755835696804807,-0.05732768847580235,-0.03854357074870426,-0.039267603806410756,-0.2138495848128108,0.007865675709481752
2714,7.0,299.15902,700.53291,0.0,0.0,0.0,0.0,-0.02704992121048971,0.0,-0.07093234729572763,-0.07642038544135484,-0.06559177959615464,-0.054107251364969945,-0.25042523844254677,-0.02130467462285768
2715,7.0,298.9026,430.00413,0.0,0.0,0.0,0.0,-0.02705988802007353,0.0,-0.007085909539299822,-0.03832863811099206,-0.08529597097055693,-0.06368159442813404,-0.24444473237731676,-0.004711756339889146
2716,7.0,299.2374,347.2359,0.0,0.0,0.0,0.0,-0.02706985482965735,0.0,-0.013185051688513288,-0.05635357313441465,-0.036012417283398865,-0.06137590532208024,-0.24514100744853376,-0.04896068052954295
2717,7.0,299.45177,766.29553,0.0,0.0,0.0,0.0,-0.027079821639241174,0.0,-0.05111533761544104,-0.07004472602262624,-0.11177464814879888,-0.07901858870552753,-0.22099271430778278,-0.019230444263647083
2718,7.0,299.95762,765.94013,0.0,0.0,0.0,0.0,-0.027089788448824995,0.0,-0.1082300763839769,-0.07922575376797313,-0.04537084992250425,-0.07870673970900043,-0.27308776243166377,-0.02599969663072027
2719,7.0,300.47469,360.78992999999997,0.0,0.0,0.0,0.0,-0.027099755258408815,0.0,-0.019684284049687584,-0.05061125278344175,-0.03937559296231846,-0.08723689612011132,-0.22912148283752976,0.004559001389263405
2720,7.0,300.93122,548.89102,0.0,0.0,0.0,0.0,-0.027109722067992635,0.0,-0.07237645362974984,-0.041530975535288166,-0.05294173510619245,-0.04699513846880905,-0.22445921515239978,0.01836914418839338
2721,7.0,299.86400000000003,870.5681,0.0,0.0,0.0,0.0,-0.027119688877576455,0.0,-0.08604698789167652,-0.07407828113995714,-0.1045056932564089,-0.04652169026683336,-0.23456573641983577,0.025685254727187273
2722,7.0,299.48868,680.7703700000001,0.0,0.0,0.0,0.0,-0.02712965568716028,0.0,-0.07617143597128542,-0.04314811864188776,-0.0876176380174376,-0.05601699374269685,-0.26591765008652873,0.03684522172609026
2723,7.0,299.82083,704.54109,0.0,0.0,0.0,0.0,-0.0271396224967441,0.0,-0.057232618258669654,-0.06468222348488843,-0.09224805925192461,-0.08526389045914082,-0.25137711598398976,0.030115976525965468
2724,7.0,299.72752,872.0686599999999,0.0,0.0,0.0,0.0,-0.02714958930632792,0.0,-0.14408215798480187,-0.05853204261091285,-0.06247289648984484,-0.04114466278891206,-0.23670401837086777,0.029424135437186076
2725,7.0,298.67652000000004,816.07858,0.0,0.0,0.0,0.0,-0.02715955611591174,0.0,-0.08967743158922342,-0.07938698921663583,-0.07900309205849813,-0.08221183423667633,-0.18859335335021482,-0.026078453521242977
2726,7.0,299.1211,710.0241,0.0,0.0,0.0,0.0,-0.02716952292549556,0.0,-0.1099094370997169,-0.07256485634009373,-0.03335530872466267,-0.03824088963908197,-0.2143404842212588,-0.025494962305406876
2727,7.0,299.568,644.06968,0.0,0.0,0.0,0.0,-0.027179489735079384,0.0,-0.05012290980499605,-0.07481274256769282,-0.07084544792740134,-0.08074297825571151,-0.23996130333483678,-0.026208616642339075
2728,7.0,299.89741000000004,245.8051,0.0,0.0,0.0,0.0,-0.027189456544663204,0.0,-0.012289813814410187,-0.036004951656662065,-0.026423847175580675,-0.047008299574357953,-0.2350536670054908,-0.02864650854194027
2729,7.0,300.75985,150.6755,0.0,0.0,0.0,0.0,-0.027199423354247028,0.0,0.01114174166935429,-0.05065533118929195,-0.006288001936677474,-0.04946532163584715,-0.2713008452178088,-0.05553937804305985
2730,7.0,300.15602,529.09265,0.0,0.0,0.0,0.0,-0.027209390163830845,0.0,-0.08062641193770734,-0.038081306801332364,-0.04212323541748966,-0.053031960974597045,-0.2884555949758507,-0.011897721489463688
2731,7.0,300.41415,625.38048,0.0,0.0,0.0,0.0,-0.027219356973414665,0.0,-0.04484278551363836,-0.07723383275413583,-0.06802343088838993,-0.06367758499748834,-0.25759566489521274,-0.007135594561928354
2732,7.0,300.47301,398.22266,0.0,0.0,0.0,0.0,-0.02722932378299849,0.0,-0.030589090355408174,-0.07574066383702154,-0.014719991841000087,-0.03918509181101746,-0.22492065938044078,-0.007654880577227893
2733,7.0,300.69966,732.48834,0.0,0.0,0.0,0.0,-0.02723929059258231,0.0,-0.06558829806881104,-0.06419378931393374,-0.09287607875665531,-0.059516976423618244,-0.2088290521573228,-0.003987216353157616
2734,7.0,300.07116,1077.2663,0.0,0.0,0.0,0.0,-0.027249257402166126,0.0,-0.10003163171110341,-0.09792592676403651,-0.12950450853109988,-0.06067943874659435,-0.24803174918882775,0.019026746543043684
2735,7.0,300.19942000000003,821.14571,0.0,0.0,0.0,0.0,-0.027259224211749946,0.0,-0.06570510452708893,-0.07025016653340163,-0.11365251469162989,-0.07790924399254372,-0.26114098646510875,0.017586209889123783
2736,7.0,299.31455,693.98338,0.0,0.0,0.0,0.0,-0.02726919102133377,0.0,-0.08582654418667042,-0.050956609960775855,-0.07417046359430483,-0.04566703103273505,-0.24908361425013875,0.012571918854251789
2737,7.0,299.16717,706.45312,0.0,0.0,0.0,0.0,-0.02727915783091759,0.0,-0.09731596438933791,-0.05465911397893455,-0.06276902795082075,-0.06417719633029614,-0.23952218100649877,-0.013004773217471186
2738,7.0,298.99859,448.72731,0.0,0.0,0.0,0.0,-0.027289124640501407,0.0,-0.08731238021281101,-0.003275406030082407,-0.04581411137750076,-0.047163448429669956,-0.2451426793111988,0.005436581860498855
2739,7.0,298.86495,493.33277999999996,0.0,0.0,0.0,0.0,-0.02729909145008523,0.0,-0.04308419066657856,-0.03651934428192866,-0.07035730962547584,-0.07602922429325022,-0.2120423012719458,-0.008529043862501091
2740,7.0,299.62735,898.6673699999999,0.0,0.0,0.0,0.0,-0.02730905825966905,0.0,-0.09773568297826091,-0.051431165645110855,-0.12400559010589887,-0.045065791728147356,-0.1997605042923268,0.036750193052211666
2741,7.0,299.64329,795.00856,0.0,0.0,0.0,0.0,-0.02731902506925287,0.0,-0.04671125010879145,-0.07524439825604394,-0.11970709947167088,-0.06439230324702554,-0.23962100328875177,-0.003237813032822267
2742,7.0,300.10062999999997,538.2702,0.0,0.0,0.0,0.0,-0.027328991878836695,0.0,-0.059661880307169145,-0.04787077400647755,-0.05608804486620904,-0.06824364458562333,-0.2683834752648867,0.024205470843893975
2743,7.0,300.74114,767.6166400000001,0.0,0.0,0.0,0.0,-0.02733895868842051,0.0,-0.055058066007058044,-0.06945206388013503,-0.1088261612853059,-0.06090768143762015,-0.26386768301421276,0.003090315735640417
2744,7.0,300.64527000000004,830.7796,0.0,0.0,0.0,0.0,-0.027348925498004335,0.0,-0.0927409841473225,-0.09149544342214723,-0.06829982525066793,-0.03634393346436696,-0.23564984309932877,0.0073105052392406925
2745,7.0,299.74422999999996,442.80393,0.0,0.0,0.0,0.0,-0.027358892307588156,0.0,-0.004057550906199096,-0.07545763775283902,-0.055086148233579546,-0.04595570091997455,-0.23437653222866278,-0.05853309132476635
2746,7.0,299.37601,353.28186,0.0,0.0,0.0,0.0,-0.027368859117171976,0.0,-0.043258537571535256,-0.03372074345272826,-0.030409581954442072,-0.06298713408784615,-0.25045622363060477,-0.027722441675991975
2747,7.0,298.97298,194.21093,0.0,0.0,0.0,0.0,-0.0273788259267558,0.0,0.012891421942034288,-0.037246274221671066,-0.03468042099344107,-0.04561434912028575,-0.25691242022028177,-0.04155508480816756
2748,7.0,299.8179,207.83011000000002,0.0,0.0,0.0,0.0,-0.027388792736339616,0.0,-0.012451239754091688,-0.02963403931465197,-0.021089884853409582,-0.03634060088478807,-0.2204011282368978,-0.038419976528006466
2749,7.0,300.23643,700.24393,0.0,0.0,0.0,0.0,-0.02739875954592344,0.0,-0.04857217713645065,-0.0940837340605916,-0.07020076045852564,-0.03381492707602347,-0.24159594932366377,-0.04463727812835636
2750,7.0,300.15602,863.69261,0.0,0.0,0.0,0.0,-0.02740872635550726,0.0,-0.1110464759644339,-0.06636942067690184,-0.08512509140744241,-0.07739866524065353,-0.23475831473384176,-0.00856584480215806
2751,7.0,300.27767,620.07102,0.0,0.0,0.0,0.0,-0.02741869316509108,0.0,-0.03527368095349127,-0.059711939928359645,-0.09350048501152941,-0.10565917717024889,-0.25029812621750175,-0.0049511533946407955
2752,7.0,300.73118999999997,672.1740599999999,0.0,0.0,0.0,0.0,-0.027428659974674904,0.0,-0.057304074682221845,-0.06346177589843964,-0.08355828048631021,-0.07531819022107662,-0.2046872606510598,0.01847598229218748
2753,7.0,300.35365,959.3308099999999,0.0,0.0,0.0,0.0,-0.027438626784258725,0.0,-0.08882161218376061,-0.0937415888860745,-0.10904941067983889,-0.08513379015955091,-0.2237136961263228,0.03113561516784597
2754,7.0,301.4333,733.93379,0.0,0.0,0.0,0.0,-0.027448593593842545,0.0,-0.1042673768328889,-0.03796047571365726,-0.08086969429996743,-0.06139816946652754,-0.25655997130549774,0.050992176052535955
2755,7.0,300.86611,401.90491000000003,0.0,0.0,0.0,0.0,-0.027458560403426365,0.0,-0.048507692886836554,-0.03592716849948547,-0.03773419467482506,-0.047477719093936055,-0.2862108001743067,0.026180053122020073
2756,7.0,299.88462000000004,579.99178,0.0,0.0,0.0,0.0,-0.027468527213010185,0.0,-0.09062387912338052,-0.026113254609177575,-0.05956588397944504,-0.03746244606425557,-0.24166661338563775,0.017211425902385485
2757,7.0,299.0557,758.69005,0.0,0.0,0.0,0.0,-0.02747849402259401,0.0,-0.06573688207672514,-0.08743655401256602,-0.07744939360691003,-0.052065229186688045,-0.24562708378650577,-0.026682730549630475
2758,7.0,299.13807,721.5025400000001,0.0,0.0,0.0,0.0,-0.02748846083217783,0.0,-0.08784338406021701,-0.07213554936547444,-0.05933982382913464,-0.07134148248735614,-0.2396224927663988,-0.015777307174598985
2759,7.0,299.29958999999997,704.63916,0.0,0.0,0.0,0.0,-0.02749842764176165,0.0,-0.07020542951498643,-0.05908430545866695,-0.08490297685302142,-0.08490541473276202,-0.2249802080888178,-0.02052668802382638
2760,7.0,299.81773,595.9098299999999,0.0,0.0,0.0,0.0,-0.02750839445134547,0.0,-0.061071371991275145,-0.08464475411803682,-0.03542558335548287,-0.07655530273192013,-0.2055887087350258,-0.00875337368561572
2761,7.0,299.71732000000003,464.05098,0.0,0.0,0.0,0.0,-0.02751836126092929,0.0,-0.027349483565933874,-0.07210129543259383,-0.041609131568501566,-0.06537362988937494,-0.24090343341031778,-0.045893644417600056
2762,7.0,299.93091,784.98527,0.0,0.0,0.0,0.0,-0.02752832807051311,0.0,-0.07944355086371802,-0.07994789711424312,-0.07922447200659663,-0.07604033863359713,-0.23923265492292478,0.00970988836614137
2763,7.0,300.9403,751.40311,0.0,0.0,0.0,0.0,-0.027538294880096927,0.0,-0.05371799512705335,-0.0967330912560628,-0.07795669753447702,-0.06065090359727814,-0.27160894417571574,-0.029176275210974174
2764,7.0,300.77624,341.5487,0.0,0.0,0.0,0.0,-0.02754826168968075,0.0,-0.025989828587996377,-0.037386066258467465,-0.04044638249574717,-0.06702800892389943,-0.2115906754373738,-0.002886684078943537
2765,7.0,300.43208,499.87268,0.0,0.0,0.0,0.0,-0.02755822849926457,0.0,-0.026596944743164076,-0.08829879438391251,-0.03705307377210367,-0.043254569684143665,-0.2406269478555308,-0.04755410599247486
2766,7.0,299.92901,826.08867,0.0,0.0,0.0,0.0,-0.02756819530884839,0.0,-0.0899998599300446,-0.06953062622663853,-0.09157984310247683,-0.07071147093292883,-0.24200143174868174,0.012249881627969188
2767,7.0,299.48152999999996,605.51892,0.0,0.0,0.0,0.0,-0.027578162118432215,0.0,-0.058701069952844534,-0.05733955464772344,-0.06802200828524953,-0.05977878707720694,-0.28914538524642774,-0.02023318290710968
2768,7.0,300.21889,500.5086,0.0,0.0,0.0,0.0,-0.027588128928016032,0.0,-0.06299185076706165,-0.029444249464921173,-0.059706017481525146,-0.07675526763915513,-0.2594547761786927,-0.0039667169864094865
2769,7.0,300.41406,786.1791,0.0,0.0,0.0,0.0,-0.027598095737599856,0.0,-0.08396068769727472,-0.05747154567199995,-0.09754658315184822,-0.03651988839723236,-0.2730419837921457,-0.014816040857729385
2770,7.0,300.242,684.0260900000001,0.0,0.0,0.0,0.0,-0.027608062547183676,0.0,-0.07902322128498472,-0.05439679974004615,-0.07450683121675172,-0.07552038123878134,-0.2223787391195728,0.018558428426324283
2771,7.0,299.84986000000004,637.63557,0.0,0.0,0.0,0.0,-0.027618029356767496,0.0,-0.09412293670696059,-0.039694078747000566,-0.06000827505260565,-0.07389646860826363,-0.21208900196905478,0.02057083229093308
2772,7.0,298.92413999999997,836.58961,0.0,0.0,0.0,0.0,-0.02762799616635132,0.0,-0.12339787309342189,-0.02927308720502877,-0.10163139656523791,-0.0957473660950293,-0.1800884359858448,0.06541233908294523
2773,7.0,299.02215,647.76844,0.0,0.0,0.0,0.0,-0.027637962975935137,0.0,-0.06521020886024653,-0.060047664136993036,-0.07164755697156333,-0.07499807816998402,-0.22439283713834876,0.04274612888996446
2774,7.0,299.87332999999995,648.78441,0.0,0.0,0.0,0.0,-0.02764792978551896,0.0,-0.040454568543305064,-0.06320179010828104,-0.09355790082844591,-0.08434183489464102,-0.23704808770732477,0.02965234165120827
2775,7.0,299.33615,852.75044,0.0,0.0,0.0,0.0,-0.02765789659510278,0.0,-0.047773564818383754,-0.09113804579387481,-0.12030323503550489,-0.05982537935655524,-0.2920234613604717,-0.004109291104005456
2776,7.0,301.19248999999996,840.2121,0.0,0.0,0.0,0.0,-0.0276678634046866,0.0,-0.07292304227694393,-0.08912428214763182,-0.09335617286603691,-0.04323785105749366,-0.2505395634513297,-0.016981453593438983
2777,7.0,300.85716,360.87791,0.0,0.0,0.0,0.0,-0.027677830214270425,0.0,-0.03314610702951607,-0.045203554224993454,-0.031348210237577466,-0.038879697217627365,-0.25635432206520176,-0.06427457270465643
2778,7.0,300.98303,428.98870999999997,0.0,0.0,0.0,0.0,-0.02768779702385424,0.0,-0.04886558194140746,-0.07416545712556072,-0.0073708164183179424,-0.04402869985329436,-0.24433378149136678,-0.03312603049203467
2779,7.0,300.77682000000004,669.28126,0.0,0.0,0.0,0.0,-0.027697763833438065,0.0,-0.041825323676088065,-0.08090237364219263,-0.08071709478190701,-0.033693161771756165,-0.24616776417236677,-0.03774380940502397
2780,7.0,300.61287000000004,465.91944000000007,0.0,0.0,0.0,0.0,-0.027707730643021886,0.0,-0.01152476033965529,-0.04420710685140176,-0.08589600856052601,-0.04058040812622446,-0.2045885092963138,-0.016487084816648585
2781,7.0,299.60485,473.20894000000004,0.0,0.0,0.0,0.0,-0.027717697452605706,0.0,0.008215543572286023,-0.07123042419689553,-0.08082881979093343,-0.03347836592280747,-0.24329604113644976,-0.025251126708592177
2782,7.0,299.40702000000005,554.952,0.0,0.0,0.0,0.0,-0.02772766426218953,0.0,-0.06236728543192184,-0.026401904231415075,-0.07992236219847301,-0.08008796982131722,-0.2399176930505328,0.02711854258989177
2783,7.0,298.51104,426.6064,0.0,0.0,0.0,0.0,-0.027737631071773346,0.0,-0.04494429392190646,-0.05463827345087774,-0.03009512687865777,-0.05344628704648785,-0.27149192392166677,-0.002396781505943918
2784,7.0,299.86539,610.1634,0.0,0.0,0.0,0.0,-0.02774759788135717,0.0,-0.08469882316987301,-0.051181196845440854,-0.04959441881783805,-0.08023716177929133,-0.20829636631475082,0.029277310431445575
2785,7.0,299.65495,1008.8506,0.0,0.0,0.0,0.0,-0.02775756469094099,0.0,-0.1088657996292179,-0.06890863150700244,-0.12889094506554588,-0.06719167009330153,-0.2267088431569208,0.02034727486836968
2786,7.0,299.44741,666.01908,0.0,0.0,0.0,0.0,-0.02776753150052481,0.0,-0.06037954711449735,-0.049015923938245054,-0.09305769877082981,-0.06992873523067884,-0.24728030264966577,0.002877353970697727
2787,7.0,299.73051,455.42408,0.0,0.0,0.0,0.0,-0.027777498310108634,0.0,-0.02766841720716018,-0.04141086182868386,-0.06935826934487824,-0.030009998671506267,-0.26398595969838573,0.006737782034867313
2788,7.0,299.43299,797.6705900000001,0.0,0.0,0.0,0.0,-0.027787465119692455,0.0,-0.1206443659466719,-0.04298827742536266,-0.07883929612683271,-0.048790707825267954,-0.2217310189931478,-0.004590852298206845
2789,7.0,299.07779,738.92995,0.0,0.0,0.0,0.0,-0.02779743192927627,0.0,-0.12316269774521188,-0.04871953511174375,-0.05273402390194295,-0.04306128817456826,-0.2584630373783158,0.007947992350255773
2790,7.0,300.92989,422.67481,0.0,0.0,0.0,0.0,-0.02780739873886009,0.0,-0.08292657376446562,-0.02059753751056868,-0.024958476774959874,-0.09534739575055531,-0.2553944297154678,-0.005140726003550155
2791,7.0,300.06956,468.66987,0.0,0.0,0.0,0.0,-0.027817365548443912,0.0,-0.040940847531297064,-0.04897277569598665,-0.05255031355281215,-0.06983527101495463,-0.26554977950522274,-0.004236162276851666
2792,7.0,300.35302,647.21001,0.0,0.0,0.0,0.0,-0.027827332358027736,0.0,-0.030101892349575474,-0.07639709284805603,-0.0902366970084186,-0.05980074927312445,-0.23463306688898075,-0.012678548228525289
2793,7.0,300.52792999999997,588.3113099999999,0.0,0.0,0.0,0.0,-0.027837299167611552,0.0,-0.018043697375524283,-0.08147357616081592,-0.07931467355699882,-0.04792312863914455,-0.25329982897624675,-0.030106778241557674
2794,7.0,300.70347000000004,636.86847,0.0,0.0,0.0,0.0,-0.027847265977195376,0.0,-0.053212477559412656,-0.0903173091598744,-0.05006232352851665,-0.06339258510211103,-0.27370249113483275,-0.02232595169014988
2795,7.0,300.22108,676.99902,0.0,0.0,0.0,0.0,-0.027857232786779196,0.0,-0.06901570063181933,-0.07466600064846052,-0.062109094107690346,-0.04520954759933495,-0.25335545640673673,-0.013364437486217287
2796,7.0,300.54512,455.13642000000004,0.0,0.0,0.0,0.0,-0.027867199596363017,0.0,-0.043829854587419864,-0.06921018385601334,-0.02531006746690918,-0.05907529057252724,-0.2118064571786698,-0.02082954645221618
2797,7.0,299.59105,572.05102,0.0,0.0,0.0,0.0,-0.02787716640594684,0.0,-0.04125740003478836,-0.06721446822055153,-0.06541735771069054,-0.05085813421005705,-0.2215711281273678,-0.03321493102930847
2798,7.0,299.70097999999996,824.80248,0.0,0.0,0.0,0.0,-0.027887133215530657,0.0,-0.097315235862516,-0.05236060071008895,-0.10104352101621909,-0.08049714756944992,-0.24617697461577578,0.01095665633983779
2799,7.0,300.05908999999997,585.03894,0.0,0.0,0.0,0.0,-0.02789710002511448,0.0,-0.05242858269904825,-0.06681014495364793,-0.05859850269822194,-0.05018899701626836,-0.2505236148947558,-0.019276280658420783
2800,7.0,300.64813,352.47949,0.0,0.0,0.0,0.0,-0.0279070668346983,0.0,-0.05097846981843325,-0.02808795949056577,-0.02807853322488547,-0.03970477562830626,-0.26670718469694976,-0.00929213517843734
2801,7.0,300.47886,700.88748,0.0,0.0,0.0,0.0,-0.02791703364428212,0.0,-0.0966216813678175,-0.05805195762078215,-0.05837865478427464,-0.035906329997928865,-0.2903333196636677,0.016652583008481985
2802,7.0,300.87397999999996,873.7149800000001,0.0,0.0,0.0,0.0,-0.027927000453865945,0.0,-0.1216661577450149,-0.06093467847328454,-0.08298670509165013,-0.08171291394043671,-0.3035855670590627,0.029919499225574676
2803,7.0,301.31969,768.82782,0.0,0.0,0.0,0.0,-0.027936967263449762,0.0,-0.07352181431753814,-0.05202224914394625,-0.1081603951745999,-0.08186751260094442,-0.24916647784331677,0.012134592005090988
2804,7.0,301.45575,884.1179099999999,0.0,0.0,0.0,0.0,-0.027946934073033586,0.0,-0.07239037264637353,-0.0958670593028421,-0.1004923372798215,-0.06531856177294014,-0.2023750441878618,0.006320300803490124
2805,7.0,300.46389,727.8009400000001,0.0,0.0,0.0,0.0,-0.027956900882617406,0.0,-0.06839879952043593,-0.05429072866657775,-0.0985437823570141,-0.09204911367429022,-0.2115588492517328,-0.0034544203702997467
2806,7.0,299.96851000000004,496.07607,0.0,0.0,0.0,0.0,-0.027966867692201226,0.0,-0.04952986769371736,-0.05128814235374555,-0.04997672821306905,-0.09726566564112381,-0.24699823408682778,-0.012166020996692789
2807,7.0,299.84356,617.58966,0.0,0.0,0.0,0.0,-0.02797683450178505,0.0,-0.07928557909362742,-0.04671707325711615,-0.06172918206219594,-0.08561969931125642,-0.23213828302276476,-0.0005777561493425925
2808,7.0,300.03808,649.94185,0.0,0.0,0.0,0.0,-0.027986801311368867,0.0,-0.057822294353116144,-0.05223369012181385,-0.08751010887707532,-0.06136246354625364,-0.23055264794127478,0.0009997807435056772
2809,7.0,299.35542000000004,217.33215,0.0,0.0,0.0,0.0,-0.02799676812095269,0.0,-0.0015793521202699186,-0.03797822785540926,-0.026505966029935175,-0.06674631121059803,-0.25494086857320475,-0.027991777738073372
2810,7.0,300.20068,460.05849000000006,0.0,0.0,0.0,0.0,-0.02800673493053651,0.0,-0.013084251542065089,-0.061162923190810535,-0.06559911957987904,-0.04922296639742855,-0.29144242322312774,-0.04429138595496946
2811,7.0,299.13082,867.9435800000001,0.0,0.0,0.0,0.0,-0.02801670174012033,0.0,-0.09581932711713131,-0.07967407640721912,-0.08833977224445673,-0.06256127824306744,-0.2265711526008318,-0.014491683288717788
2812,7.0,300.4131,719.6818599999999,0.0,0.0,0.0,0.0,-0.028026668549704155,0.0,-0.060735412708618534,-0.1167340919557579,-0.041295810319579164,-0.04150978746244706,-0.23838298391906876,-0.03507423787005776
2813,7.0,299.9916,505.33473,0.0,0.0,0.0,0.0,-0.02803663535928797,0.0,-0.05012579959428125,-0.06630697812623923,-0.03717636097802117,-0.05866461220099645,-0.23225903203718176,0.003431729546235337
2814,7.0,299.20871,722.6384099999999,0.0,0.0,0.0,0.0,-0.028046602168871792,0.0,-0.08342893404479472,-0.05552822925220954,-0.08070686906189783,-0.07878716744893802,-0.2672180755298707,0.01817219471345598
2815,7.0,298.42067000000003,655.41135,0.0,0.0,0.0,0.0,-0.028056568978455616,0.0,-0.05440778742413054,-0.04974181833638525,-0.0950790800313246,-0.08392175052243192,-0.2162280982300518,0.032110977820106766
2816,7.0,299.39885,484.57793,0.0,0.0,0.0,0.0,-0.028066535788039436,0.0,-0.02533169529029368,-0.048349117219686356,-0.07361877931235783,-0.07895622620162283,-0.23160584036021675,-0.02175469749577148
2817,7.0,299.53676,735.2171400000001,0.0,0.0,0.0,0.0,-0.028076502597623256,0.0,-0.06272140924912113,-0.07220961997428463,-0.08855662296460823,-0.08773132771840791,-0.23482614169553578,-0.003930530076313116
2818,7.0,300.17811,661.64825,0.0,0.0,0.0,0.0,-0.028086469407207073,0.0,-0.0921759158448046,-0.03763764207279607,-0.07131098771234652,-0.043752172755253255,-0.28778563400973073,-0.006012368018599524
2819,7.0,300.35902000000004,491.15284,0.0,0.0,0.0,0.0,-0.028096436216790897,0.0,-0.07279112623317484,-0.02897886065424087,-0.04752821137291925,-0.04876601897333136,-0.24115604679274877,0.031973001527489574
2820,7.0,300.53654,813.90138,0.0,0.0,0.0,0.0,-0.028106403026374717,0.0,-0.1030026279255679,-0.05413182267989495,-0.09027124073082782,-0.04141460781430356,-0.26004999981743676,0.012628008326787387
2821,7.0,300.01493999999997,1054.0845,0.0,0.0,0.0,0.0,-0.028116369835958537,0.0,-0.099971937094712,-0.08399237506765202,-0.1364510472416699,-0.08474400703158232,-0.26804956882693276,0.03279640604900327
2822,7.0,300.32129,772.3744,0.0,0.0,0.0,0.0,-0.02812633664554236,0.0,-0.059493942209094944,-0.09500374589963972,-0.08028484330249713,-0.07538631001204953,-0.26289131521785275,-0.02828252884101827
2823,7.0,301.04559,743.9827,0.0,0.0,0.0,0.0,-0.028136303455126178,0.0,-0.08115368702474533,-0.07178686872781234,-0.07321160577292292,-0.07725189697691863,-0.21038000368788978,-0.0032862156861242367
2824,7.0,299.75981,789.2419,0.0,0.0,0.0,0.0,-0.02814627026471,0.0,-0.08499155619001351,-0.08885064483887592,-0.06606763021411743,-0.06973422667523234,-0.2201493153220458,-0.030239548455161074
2825,7.0,299.55942999999996,508.14543,0.0,0.0,0.0,0.0,-0.02815623707429382,0.0,-0.04319775979078696,-0.06657205347165014,-0.04469370805292555,-0.0858983045852526,-0.24471479392646975,-0.007984926937600932
2826,7.0,300.33335,367.16384,0.0,0.0,0.0,0.0,-0.028166203883877642,0.0,-0.01139791561263669,-0.06208243245780904,-0.03812829019521926,-0.06279190916457894,-0.2916534629539557,-0.025105998896769177
2827,7.0,300.86615,551.45982,0.0,0.0,0.0,0.0,-0.028176170693461466,0.0,-0.03648458169749787,-0.05771832070735475,-0.07342711494994202,-0.04794267727332386,-0.26339075632464376,0.0020925259069912282
2828,7.0,301.19522,438.02345999999994,0.0,0.0,0.0,0.0,-0.028186137503045283,0.0,-0.01845129141375068,-0.08148369244981434,-0.03321320951738857,-0.03963867423153256,-0.28790677819168675,-0.06016978306554524
2829,7.0,300.29629,500.82215,0.0,0.0,0.0,0.0,-0.028196104312629106,0.0,-0.03574159174367047,-0.07639334382268602,-0.04010249149130776,-0.057178495504578146,-0.24824164394704276,-0.03441430402692737
2830,7.0,299.94808,1075.8567,0.0,0.0,0.0,0.0,-0.028206071122212927,0.0,-0.1177340380819449,-0.1135781522667909,-0.09572137217696391,-0.054724609452148444,-0.24667483505241078,-0.030031239433352574
2831,7.0,300.1391,964.82611,0.0,0.0,0.0,0.0,-0.028216037931796747,0.0,-0.12072966134008989,-0.060323798093995344,-0.11222958731119789,-0.07814711559926983,-0.2007703600044918,0.037271430181903764
2832,7.0,300.04575,469.7599,0.0,0.0,0.0,0.0,-0.02822600474138057,0.0,-0.04039696426186996,-0.029903722921517675,-0.07249459352515933,-0.047898082109922656,-0.23923722468087574,0.018232514505159083
2833,7.0,299.82797,698.1455,0.0,0.0,0.0,0.0,-0.028235971550964387,0.0,-0.07474315153757473,-0.04491085666860646,-0.09256479211393372,-0.07179654627951743,-0.26525542021867177,0.02963455911195327
2834,7.0,299.5212,779.28697,0.0,0.0,0.0,0.0,-0.02824593836054821,0.0,-0.05649998372086424,-0.06904220725443534,-0.1113415850560589,-0.06797174905378933,-0.27028915552296273,0.012174018579732089
2835,7.0,299.55404,500.5606,0.0,0.0,0.0,0.0,-0.02825590517013203,0.0,-0.07070790834557723,-0.06488222892212744,-0.016567787147363285,-0.06680407761204914,-0.24563125837691777,-0.0017972297693977682
2836,7.0,300.89482000000004,659.23149,0.0,0.0,0.0,0.0,-0.02826587197971585,0.0,-0.06815898247351783,-0.06959482980597494,-0.06263610068345185,-0.04467827017440196,-0.26257448204408373,-0.002759993568590157
2837,7.0,300.37045,742.10213,0.0,0.0,0.0,0.0,-0.028275838789299675,0.0,-0.10572177576142691,-0.056183345091114445,-0.06367539739052243,-0.08326490607885642,-0.25581401658187775,0.007728301794049003
2838,7.0,299.6571,567.55085,0.0,0.0,0.0,0.0,-0.028285805598883492,0.0,-0.039531711497976164,-0.05522337877412315,-0.07776619739642612,-0.08336657660714052,-0.26530485669105075,0.004632672169584146
2839,7.0,300.48921,769.97087,0.0,0.0,0.0,0.0,-0.028295772408467316,0.0,-0.08117518717861721,-0.06214601187508384,-0.09073071925367482,-0.08215410532547893,-0.23218647319752078,0.0088189864931912
2840,7.0,301.17075,926.3280800000001,0.0,0.0,0.0,0.0,-0.028305739218051136,0.0,-0.08973234062539251,-0.07511767917203774,-0.11673058611041187,-0.07552317983555752,-0.25445936199318375,-0.024202830314133377
2841,7.0,300.52266000000003,526.56198,0.0,0.0,0.0,0.0,-0.028315706027634956,0.0,-0.07322591995708563,-0.053721948828943544,-0.03311382285482987,-0.07845204815061432,-0.2697200332067948,-0.017130920142190184
2842,7.0,299.86591,255.86207000000002,0.0,0.0,0.0,0.0,-0.028325672837218777,0.0,-0.0038229256514683866,-0.043818958095844456,-0.03013379655547417,-0.048066985835342156,-0.2633030797934907,-0.05244191909686445
2843,7.0,300.52598,488.03212,0.0,0.0,0.0,0.0,-0.028335639646802597,0.0,-0.06856424907626453,-0.03569581513065267,-0.04408951512429636,-0.04559553002617846,-0.23272571476823978,0.017612835062001484
2844,7.0,301.0819,514.6542099999999,0.0,0.0,0.0,0.0,-0.028345606456386417,0.0,-0.026365753494347274,-0.04371552349913626,-0.08636075091764252,-0.04917010412646145,-0.26745418306817276,-0.022619136619834977
2845,7.0,299.69209,358.48214,0.0,0.0,0.0,0.0,-0.028355573265970237,0.0,-0.024159098439817377,-0.043514459215542756,-0.04129606261885406,-0.06417557209038584,-0.2542053199281118,-0.030717174287299073
2846,7.0,299.88548,700.41939,0.0,0.0,0.0,0.0,-0.028365540075554058,0.0,-0.052972377815716655,-0.08355205305119562,-0.07638557422091923,-0.04010116008067636,-0.24044423859749875,-0.021855118686682277
2847,7.0,299.34727000000004,831.3955,0.0,0.0,0.0,0.0,-0.02837550688513788,0.0,-0.09763763887208472,-0.07998793265219432,-0.07509790255658592,-0.05159506999453695,-0.22414005150340077,-0.015822848713593587
2848,7.0,299.89623,682.57713,0.0,0.0,0.0,0.0,-0.028385473694721698,0.0,-0.052196311325624856,-0.06827811738052553,-0.08701197486291332,-0.06483588488905363,-0.23544641287675178,-0.008512117114280553
2849,7.0,300.65221,738.79381,0.0,0.0,0.0,0.0,-0.028395440504305522,0.0,-0.10742947708246389,-0.04659908940222205,-0.07054630610037833,-0.10281096153665191,-0.24786583961745373,0.008178364892991773
2850,7.0,300.20955,543.95395,0.0,0.0,0.0,0.0,-0.028405407313889346,0.0,-0.04926513482684025,-0.03380050143434977,-0.08228278200867832,-0.05530052662348704,-0.25089250885866277,0.022828901682037182
2851,7.0,300.22459,294.22053999999997,0.0,0.0,0.0,0.0,-0.028415374123473162,0.0,-0.03547771709962807,-0.025351331063981575,-0.028606649309506474,-0.06546491764388433,-0.2479022862235508,0.0026402857699759173
2852,7.0,301.88917000000004,664.54384,0.0,0.0,0.0,0.0,-0.028425340933056986,0.0,-0.07536168600811932,-0.04750786835066155,-0.07913518035478423,-0.03684300068187107,-0.28088008126570574,0.009660708246037672
2853,7.0,301.15151000000003,952.2090900000001,0.0,0.0,0.0,0.0,-0.028435307742640803,0.0,-0.13324255027001589,-0.07665085322960022,-0.07955438522590652,-0.07778879084715593,-0.2926282602126607,-0.014157331020719787
2854,7.0,300.5236,584.59868,0.0,0.0,0.0,0.0,-0.028445274552224627,0.0,-0.04726838162327605,-0.05803511031136944,-0.07239991036956483,-0.03269305960505377,-0.25224473164711675,0.005240353515657625
2855,7.0,300.45349,612.94282,0.0,0.0,0.0,0.0,-0.028455241361808447,0.0,-0.056769102947424245,-0.06479343376286403,-0.06475677437424604,-0.07107251626156122,-0.2413573187926128,0.00990650569769599
2856,7.0,299.48562999999996,873.1093300000001,0.0,0.0,0.0,0.0,-0.028465208171392267,0.0,-0.058723522561810446,-0.08202588764457483,-0.12465401950739387,-0.09049594819225472,-0.24726538760819375,0.008218706736448202
2857,7.0,299.13862,687.74544,0.0,0.0,0.0,0.0,-0.02847517498097609,0.0,-0.07066576018116753,-0.06481964755620115,-0.07357203301899434,-0.12280428078733888,-0.2413236687567918,0.013954584741960287
2858,7.0,299.59601000000004,442.82717,0.0,0.0,0.0,0.0,-0.028485141790559908,0.0,-0.02125963160291228,-0.058098018957078036,-0.05525075375207485,-0.07237952175105264,-0.2251798487560208,-0.03390468076988147
2859,7.0,299.91309,626.79288,0.0,0.0,0.0,0.0,-0.02849510860014373,0.0,-0.08007571050835732,-0.05544638904163254,-0.05500728393854625,-0.05450668164714065,-0.22574508019180478,0.004243031301929586
2860,7.0,300.5742,645.16906,0.0,0.0,0.0,0.0,-0.028505075409727552,0.0,-0.045047157045558256,-0.07665279360354173,-0.07441533371947164,-0.04636515325888436,-0.25431999957442974,-0.024586818664780078
2861,7.0,300.45387,559.15007,0.0,0.0,0.0,0.0,-0.028515042219311372,0.0,-0.07379597750309594,-0.06568257288461524,-0.030489108915040766,-0.05897986774435974,-0.26542432901034174,-0.001073731707744069
2862,7.0,300.02882999999997,763.86063,0.0,0.0,0.0,0.0,-0.028525009028895196,0.0,-0.05896015192391394,-0.07750300770945133,-0.0957313982867034,-0.06612440869672102,-0.2533633394925147,0.0006730488052697454
2863,7.0,299.98882000000003,691.4255099999999,0.0,0.0,0.0,0.0,-0.028534975838479013,0.0,-0.08225820056125233,-0.06835133989900204,-0.05956654867151064,-0.04944077869192495,-0.25930907081431276,-0.0008297207072045583
2864,7.0,300.8852,529.46229,0.0,0.0,0.0,0.0,-0.028544942648062836,0.0,-0.013840330660684288,-0.08039956145231893,-0.06670342134711513,-0.06747592322335513,-0.27253906723751176,-0.028953061280194675
2865,7.0,298.62215,771.4572400000001,0.0,0.0,0.0,0.0,-0.028554909457646657,0.0,-0.08050487360146243,-0.08499200809955812,-0.06900685698494652,-0.057588572005549545,-0.28048705168441673,-0.023148375385566775
2866,7.0,299.15707000000003,897.5427599999999,0.0,0.0,0.0,0.0,-0.028564876267230477,0.0,-0.08405945830377262,-0.07178280255516103,-0.1169883265383489,-0.06084048471748835,-0.24989805454801778,0.016656078721326985
2867,7.0,299.17339,456.02126,0.0,0.0,0.0,0.0,-0.0285748430768143,0.0,-0.057055711883960344,-0.04423090404325036,-0.037332460261926964,-0.05243911948683815,-0.26155504098597276,0.0036967906048198267
2868,7.0,299.39487,416.33771,0.0,0.0,0.0,0.0,-0.028584809886398117,0.0,-0.008983089034336861,-0.047012171202990054,-0.07056100633282913,-0.052080746098719446,-0.23491061635637275,0.02633739769029877
2869,7.0,299.38629,775.58147,0.0,0.0,0.0,0.0,-0.028594776695981938,0.0,-0.12232579369261588,-0.05160150818567235,-0.06183009771915554,-0.06461279660128653,-0.23606201297500679,0.02087289329149418
2870,7.0,300.44198,672.11783,0.0,0.0,0.0,0.0,-0.028604743505565758,0.0,-0.07691838165350322,-0.05486741793449254,-0.07252123794978893,-0.06897643313744393,-0.21977714856031577,0.01822609353927538
2871,7.0,300.16276,660.58838,0.0,0.0,0.0,0.0,-0.02861471031514958,0.0,-0.11279989512998288,-0.06838712485278373,-0.01961535264538458,-0.0912869358033191,-0.2168836609122508,-0.029220486352587473
2872,7.0,301.18461,956.6489300000001,0.0,0.0,0.0,0.0,-0.0286246771247334,0.0,-0.08302526939045612,-0.09373342411676872,-0.1140386947022429,-0.11125330057484589,-0.23457876681612178,0.0012496795478587688
2873,7.0,300.74136,701.02206,0.0,0.0,0.0,0.0,-0.02863464393431722,0.0,-0.07074145300338784,-0.08221858957509302,-0.06013315812743064,-0.09297975450688731,-0.2714666635966737,-0.007743750514348673
2874,7.0,300.46437000000003,606.3563,0.0,0.0,0.0,0.0,-0.028644610743901042,0.0,-0.005464661756545124,-0.08299949230791212,-0.0958530207227066,-0.08108571719478723,-0.24486032703833274,-0.004281411189217385
2875,7.0,300.31,869.41345,0.0,0.0,0.0,0.0,-0.028654577553484863,0.0,-0.1097571760071899,-0.07102342936046674,-0.08349937519174672,-0.05110369435854195,-0.27307095261250475,0.014649935729086088
2876,7.0,299.73467999999997,682.19582,0.0,0.0,0.0,0.0,-0.028664544363068683,0.0,-0.025370897936662678,-0.07562786376963902,-0.1063717351705729,-0.04515971899916726,-0.27612170680859077,-0.01181546483309559
2877,7.0,299.20112,276.57005,0.0,0.0,0.0,0.0,-0.028674511172652507,0.0,-0.041721459461337464,-0.040158817051116666,-0.002190112125447238,-0.021037374180227178,-0.2938828867514827,-0.03152043438357467
2878,7.0,298.86171,556.08329,0.0,0.0,0.0,0.0,-0.028684477982236323,0.0,-0.04243387965964786,-0.055450213047509946,-0.07115134205309073,-0.025132355558370376,-0.24803628854927576,-0.006935752257955454
2879,7.0,298.78812999999997,690.05495,0.0,0.0,0.0,0.0,-0.028694444791820147,0.0,-0.08646915753259142,-0.06245438035751744,-0.06083593623778944,-0.056810763738535844,-0.24350253137432876,0.004197793028689916
2880,7.0,299.16407999999996,365.51425,0.0,0.0,0.0,0.0,-0.028704411601403967,0.0,-0.002209867766621968,-0.05598991260727416,-0.05290742544455636,-0.11050815645130589,-0.22893823655694479,-0.0005045123830114955
2881,7.0,298.17111,529.13123,0.0,0.0,0.0,0.0,-0.028714378410987788,0.0,-0.06640904787506274,-0.059500521241994245,-0.03493311239612976,-0.08791436020322183,-0.24541235582531376,-0.008868023542380782
2882,7.0,298.23017000000004,1022.9188,0.0,0.0,0.0,0.0,-0.02872434522057161,0.0,-0.1050631631964269,-0.08569169985011232,-0.12018691392402488,-0.07672095392451862,-0.19054204607503583,0.005030201391917225
2883,7.0,299.3642,981.8268,0.0,0.0,0.0,0.0,-0.028734312030155428,0.0,-0.13356116676396088,-0.08546475513246461,-0.07942490908837822,-0.04919348689901916,-0.23056601271009378,-0.024317738954973977
2884,7.0,300.95944,794.79385,0.0,0.0,0.0,0.0,-0.028744278839739252,0.0,-0.06662060740319203,-0.07255572391694243,-0.1024211540906809,-0.06258990053189223,-0.2296921351613488,-0.01176402921826929
2885,7.0,299.47548,655.83045,0.0,0.0,0.0,0.0,-0.028754245649323072,0.0,-0.06638036175148164,-0.03193349997234107,-0.10104221898984059,-0.05488840639706395,-0.28624033641472174,0.006667809313436544
2886,7.0,299.81606,255.89244,0.0,0.0,0.0,0.0,-0.028764212458906892,0.0,-0.012374256051243988,0.0007512110091762544,-0.06616186652641784,-0.04429980606330046,-0.25644914200955976,0.03563126907278247
2887,7.0,301.30602999999996,258.12098,0.0,0.0,0.0,0.0,-0.028774179268490716,0.0,-0.043552589843305956,-0.007544317360766152,-0.02736542604300727,-0.04873536511805605,-0.27927670417496475,0.003248373530664507
2888,7.0,300.38642999999996,707.10405,0.0,0.0,0.0,0.0,-0.028784146078074533,0.0,-0.06567183749980574,-0.05965945357317964,-0.08961068272563581,-0.06375084601946863,-0.26575527675800376,-0.0016447415061983483
2889,7.0,300.44125,665.82691,0.0,0.0,0.0,0.0,-0.028794112887658357,0.0,-0.0961213182034355,-0.07809611264223622,-0.028177323083135274,-0.07279809840711293,-0.26303700031723076,-0.030740837730134467
2890,7.0,300.19076,520.26166,0.0,0.0,0.0,0.0,-0.028804079697242177,0.0,-0.013176312406400789,-0.09048374460805031,-0.05448649567864845,-0.06366032124228455,-0.2127930486685388,-0.053915778506823046
2891,7.0,299.13177,826.87985,0.0,0.0,0.0,0.0,-0.028814046506825997,0.0,-0.09713712878643821,-0.08407120389893183,-0.07014249452477524,-0.053770080235193744,-0.26170505266327776,-0.02241444388763338
2892,7.0,299.24365,914.68746,0.0,0.0,0.0,0.0,-0.02882401331640982,0.0,-0.06879626105766234,-0.0978654955148224,-0.1113803925348889,-0.07137125481504443,-0.25215001302776874,-0.01118393137701809
2893,7.0,299.23705,442.53402,0.0,0.0,0.0,0.0,-0.028833980125993638,0.0,-0.04235935511479286,-0.04126557594984526,-0.05089435992763225,-0.05557022948210465,-0.26366611717181976,0.017597130698701585
2894,7.0,299.77821,356.29759,0.0,0.0,0.0,0.0,-0.02884394693557746,0.0,0.005049142785311595,-0.04600633302747155,-0.06734838239351783,-0.05475298957419935,-0.2232034233759628,-0.0041859043626165954
2895,7.0,300.26072999999997,543.26216,0.0,0.0,0.0,0.0,-0.028853913745161282,0.0,-0.08883258264259332,-0.04065153017724366,-0.03565401957727776,-0.08325468947809812,-0.2358939046509158,0.01205688180192159
2896,7.0,300.64777000000004,562.36555,0.0,0.0,0.0,0.0,-0.028863880554745102,0.0,-0.02416414239881518,-0.07794049566537803,-0.06884044484152294,-0.0968569995842916,-0.2619331352607877,-0.04043196496007426
2897,7.0,300.05404,726.76766,0.0,0.0,0.0,0.0,-0.02887384736432892,0.0,-0.07371728951358003,-0.07905920888878643,-0.06814272183591304,-0.08353589475185093,-0.2803444569978437,-0.0014995026421643887
2898,7.0,299.5081,890.22239,0.0,0.0,0.0,0.0,-0.02888381417391274,0.0,-0.05338834129976904,-0.08812864638737022,-0.1290883869800319,-0.07292171086631252,-0.23084942889556478,0.020931638492541878
2899,7.0,299.64242,734.53298,0.0,0.0,0.0,0.0,-0.028893780983496563,0.0,-0.07568414677294373,-0.07399476197396443,-0.07360077791108123,-0.02123815779354298,-0.26644548246112176,0.008034932957861143
2900,7.0,300.31261,750.49795,0.0,0.0,0.0,0.0,-0.028903747793080383,0.0,-0.06407470405618094,-0.07690661680659212,-0.08715131701666531,-0.03749221433894346,-0.26833830457542873,0.012306888091845289
2901,7.0,299.57115,1019.4362,0.0,0.0,0.0,0.0,-0.028913714602664203,0.0,-0.15637233454274785,-0.07600871205822583,-0.07750211604936333,-0.02058389916422268,-0.28853529722871674,-0.0046283060749032455
2902,7.0,300.24885,747.44087,0.0,0.0,0.0,0.0,-0.028923681412248024,0.0,-0.060020111840273845,-0.08108243021146283,-0.08610081680323901,-0.06856701018278703,-0.25828314495556176,-0.006585553062368484
2903,7.0,301.70621,269.38756,0.0,0.0,0.0,0.0,-0.028933648221831844,0.0,-0.044000666262777655,-0.01957254080215938,-0.018313884567689682,-0.07340321643308344,-0.25333720777243574,-0.004016070676255316
2904,7.0,300.84342999999996,523.80247,0.0,0.0,0.0,0.0,-0.028943615031415668,0.0,-0.033289290414397175,-0.04565650944369666,-0.08027707268748022,-0.1106247916703169,-0.2601441611492297,0.04384385162430126
2905,7.0,300.18889,797.97919,0.0,0.0,0.0,0.0,-0.028953581840999488,0.0,-0.0946221498324791,-0.06172425260045944,-0.08621934679993701,-0.09076141566545431,-0.2578140506892657,0.011213490922185388
2906,7.0,299.54222999999996,777.56966,0.0,0.0,0.0,0.0,-0.028963548650583308,0.0,-0.06395827554019035,-0.07511421588319593,-0.09728927031545341,-0.09558773360802482,-0.2163919002412178,0.01043910440075939
2907,7.0,300.51084,825.45583,0.0,0.0,0.0,0.0,-0.02897351546016713,0.0,-0.095976691950412,-0.0965810966483121,-0.058360172089200545,-0.05101173988546675,-0.2585296180423867,-0.04471957632797855
2908,7.0,299.35242,674.66301,0.0,0.0,0.0,0.0,-0.02898348226975095,0.0,-0.04156611200900586,-0.0901020614013811,-0.07341253428100303,-0.08426934495598683,-0.26608195872274476,-0.036514803908230566
2909,7.0,299.53354,456.34279000000004,0.0,0.0,0.0,0.0,-0.028993449079334772,0.0,-0.04394309339209566,-0.05067241965222845,-0.04410130124945955,-0.038334331563303965,-0.27285917320910374,-0.05267661517777716
2910,7.0,300.18916,655.35232,0.0,0.0,0.0,0.0,-0.029003415888918593,0.0,-0.050736424634545245,-0.09796977718861422,-0.050504538296159855,-0.036087510261559964,-0.23436510276753475,0.005346392063797814
2911,7.0,300.2534,548.68624,0.0,0.0,0.0,0.0,-0.029013382698502413,0.0,-0.06770285274225134,-0.03077866336961757,-0.06830540116596823,-0.044541426695396555,-0.25091671540355176,0.02886167220067527
2912,7.0,299.98194,199.43612,0.0,0.0,0.0,0.0,-0.029023349508086237,0.0,-0.0020256430917404084,-0.05137113361643615,-0.007226823446606943,-0.07005056335645234,-0.27514895631508773,0.0006218916315709254
2913,7.0,300.56694,422.50794,0.0,0.0,0.0,0.0,-0.029033316317670053,0.0,-0.03208159660695707,-0.05025866505339405,-0.04609160106313686,-0.09930341291723381,-0.2676090482134567,-0.012926533084499488
2914,7.0,300.36781,1064.6481,0.0,0.0,0.0,0.0,-0.029043283127253877,0.0,-0.09161399064409692,-0.1032166567441909,-0.1287958110136569,-0.07242511597905243,-0.2516148649874537,-0.015965316743904088
2915,7.0,301.56656,1053.6115,0.0,0.0,0.0,0.0,-0.029053249936837697,0.0,-0.1124789684258099,-0.11460740158586989,-0.09318520515016372,-0.07481360484352793,-0.25821498362133477,-0.02402401497623568
2916,7.0,301.98458,720.80616,0.0,0.0,0.0,0.0,-0.029063216746421518,0.0,-0.057728309326840546,-0.06034891555072425,-0.10102984821936971,-0.08302331787076352,-0.25280157337207276,-0.01130319294028829
2917,7.0,300.66539,710.03498,0.0,0.0,0.0,0.0,-0.02907318355600534,0.0,-0.0969693386228786,-0.061475829007191944,-0.05738773671647865,-0.06995924419118983,-0.22735099040779577,0.013377043330711387
2918,7.0,299.89164,624.31296,0.0,0.0,0.0,0.0,-0.029083150365589158,0.0,-0.06081382408085715,-0.05933998696240075,-0.06962173868888064,-0.06549005333911503,-0.21295419596444282,0.013218446385309088
2919,7.0,299.70923,617.60145,0.0,0.0,0.0,0.0,-0.029093117175172982,0.0,-0.06595066264907364,-0.04937271361645745,-0.07241204403951233,-0.06983727725015264,-0.22600584010503977,0.005289569808789895
2920,7.0,299.41064,751.20773,0.0,0.0,0.0,0.0,-0.029103083984756802,0.0,-0.04250948534235956,-0.0985964277924598,-0.08724248115466252,-0.07540855085174451,-0.26352660276555073,-0.028681818281425076
2921,7.0,298.83924,557.22726,0.0,0.0,0.0,0.0,-0.029113050794340622,0.0,-0.06260873989100153,-0.043838193635742866,-0.06293623853532314,-0.06419758089580793,-0.2659092097131957,0.015091758368940587
2922,7.0,299.70594,372.24298999999996,0.0,0.0,0.0,0.0,-0.02912301760392444,0.0,-0.007946324033966123,-0.060273473001278645,-0.04493277833451996,-0.04103648719498596,-0.26089739100856774,-0.014447719380128884
2923,7.0,300.5578,778.98668,0.0,0.0,0.0,0.0,-0.029132984413508263,0.0,-0.09251788572705441,-0.06832273990167943,-0.07595187379386632,-0.04610529311173816,-0.26826382056057774,0.031405888486269865
2924,7.0,299.9837,906.25025,0.0,0.0,0.0,0.0,-0.029142951223092083,0.0,-0.0936318650459956,-0.05931170512560954,-0.12253387473315189,-0.044443528497234756,-0.27353008663031775,-0.01079034856117449
2925,7.0,300.30442,551.46233,0.0,0.0,0.0,0.0,-0.029152918032675904,0.0,-0.026081118369005975,-0.07682459522424721,-0.06472506369911644,-0.06094546249409885,-0.2597099530838768,-0.01953896372034558
2926,7.0,300.76756,480.11129000000005,0.0,0.0,0.0,0.0,-0.02916288484225972,0.0,-0.013027718265985687,-0.061891250402440846,-0.07102287511266203,-0.06496997739403754,-0.25069518853418876,-0.043604439877423164
2927,7.0,299.94318,868.2503300000001,0.0,0.0,0.0,0.0,-0.029172851651843544,0.0,-0.0911054221804051,-0.06842212656423813,-0.10439887643086691,-0.06569305090389935,-0.2661625627681998,0.024589968859340977
2928,7.0,299.51206,628.08495,0.0,0.0,0.0,0.0,-0.029182818461427364,0.0,-0.05940291992611174,-0.07323390639437383,-0.05828531621156285,-0.09273664946339472,-0.2808888458790707,-0.029966369135450373
2929,7.0,298.86739,347.62698,0.0,0.0,0.0,0.0,-0.029192785271011188,0.0,-0.06485410717885204,-0.0025418386942349476,-0.03827397529459726,-0.08391184600270442,-0.26866131857480774,0.03072950148801567
2930,7.0,298.48303,634.92851,0.0,0.0,0.0,0.0,-0.02920275208059501,0.0,-0.07913067544483962,-0.057559194845400244,-0.05631254157161515,-0.043358024545853864,-0.26435673830747874,-0.0009758274706116731
2931,7.0,299.80057,706.62925,0.0,0.0,0.0,0.0,-0.029212718890178825,0.0,-0.06642804023493713,-0.05580369345089574,-0.09256591276854431,-0.04578806781018046,-0.22714411513487878,0.024005495804157975
2932,7.0,299.77865,727.61131,0.0,0.0,0.0,0.0,-0.02922268569976265,0.0,-0.055397158259023846,-0.07484208933033913,-0.09093642219622611,-0.03244147467147426,-0.2582659804988678,-0.02240870686556718
2933,7.0,300.55902000000003,980.72196,0.0,0.0,0.0,0.0,-0.02923265250934647,0.0,-0.1061001942762739,-0.09702392645876601,-0.0949908695173689,-0.04009945275425786,-0.2169320436045258,0.016121195139288086
2934,7.0,300.46777000000003,585.64982,0.0,0.0,0.0,0.0,-0.029242619318930293,0.0,-0.05749019150034014,-0.03892915192850817,-0.08160357918839622,-0.06202561851145195,-0.23051719432027576,-0.016864455630892186
2935,7.0,300.92222000000004,403.38873,0.0,0.0,0.0,0.0,-0.029252586128514113,0.0,-0.055920784632451745,-0.02947118975857997,-0.037228125899129966,-0.07458828335254043,-0.24191909504555578,0.014622674235145586
2936,7.0,299.8796,908.3221300000001,0.0,0.0,0.0,0.0,-0.029262552938097933,0.0,-0.08517380745900033,-0.1022949943207299,-0.08863844797643372,-0.09075062657838952,-0.27695406136823775,-0.030119743789837266
2937,7.0,299.6108,926.8262900000001,0.0,0.0,0.0,0.0,-0.029272519747681754,0.0,-0.08403123118248683,-0.07569318699033592,-0.12200763316121588,-0.09417920147176351,-0.26467385519127573,-0.024549554365852374
2938,7.0,299.24003999999996,402.44726,0.0,0.0,0.0,0.0,-0.029282486557265574,0.0,-0.018024205483350583,-0.06646100328719033,-0.037848708148126665,-0.07376046815334143,-0.28046149751689475,-0.04813606010790925
2939,7.0,300.30161,384.07855,0.0,0.0,0.0,0.0,-0.029292453366849398,0.0,-0.038574932865799466,-0.037112108762679966,-0.04106324611687686,-0.07256690411854584,-0.27229013195294377,0.007783649263536373
2940,7.0,299.58486,529.5414599999999,0.0,0.0,0.0,0.0,-0.029302420176433218,0.0,-0.07454444812671422,-0.031211348520070268,-0.05521158352970904,-0.05141745637125786,-0.29407282048272776,0.0076560790494461725
2941,7.0,299.57922,501.49164,0.0,0.0,0.0,0.0,-0.029312386986017038,0.0,-0.07565117054843923,-0.04981273976388465,-0.026977026001425177,-0.04262240699975406,-0.23933888406340878,0.0018025024189431383
2942,7.0,299.95447,623.31423,0.0,0.0,0.0,0.0,-0.02932235379560086,0.0,-0.04346148852681496,-0.07275493800585334,-0.07325553523100843,-0.050262828498054954,-0.2451383729982738,-0.00995543929405036
2943,7.0,300.40207000000004,774.59023,0.0,0.0,0.0,0.0,-0.02933232060518468,0.0,-0.07470076525939152,-0.07809142737377384,-0.08266389475554121,-0.07176202890161083,-0.23411441456029378,-0.0040703991201171165
2944,7.0,299.25786,754.56551,0.0,0.0,0.0,0.0,-0.029342287414768502,0.0,-0.06323858020616195,-0.08898197015783672,-0.07714852216196633,-0.099058461732059,-0.26269654828363076,-0.02060911794596158
2945,7.0,299.6118,852.33965,0.0,0.0,0.0,0.0,-0.029352254224352323,0.0,-0.08823932470904333,-0.07284184446693033,-0.09800880251621572,-0.08048860789760713,-0.24247022203994775,-0.008250772555737852
2946,7.0,300.39267,941.82069,0.0,0.0,0.0,0.0,-0.029362221033936143,0.0,-0.0998558530837554,-0.07101770044440134,-0.11541642099571389,-0.092237586298891,-0.2416433390308408,-0.002100026389531468
2947,7.0,301.29626,596.23918,0.0,0.0,0.0,0.0,-0.029372187843519967,0.0,-0.11101892569421488,-0.02054560945619378,-0.04967729254351705,-0.09431409241782622,-0.24810697287625175,0.02487163414863918
2948,7.0,301.21499,334.36437,0.0,0.0,0.0,0.0,-0.029382154653103783,0.0,-0.03150837062788407,-0.039269397259087756,-0.03086065354120937,-0.052928697617155754,-0.29032877017071873,-0.03684147371397036
2949,7.0,300.82867000000005,638.81151,0.0,0.0,0.0,0.0,-0.029392121462687604,0.0,-0.08370728803276611,-0.055180702706411344,-0.055294758190667745,-0.07572612065833623,-0.24855858857832278,0.004589389773012506
2950,7.0,300.33055,671.72988,0.0,0.0,0.0,0.0,-0.029402088272271424,0.0,-0.042860621085013956,-0.07558420282283002,-0.08574428651705224,-0.03464626230606987,-0.27069619835313474,-0.02326050873438348
2951,7.0,300.39502000000005,424.73364000000004,0.0,0.0,0.0,0.0,-0.029412055081855248,0.0,-0.014680357550088485,-0.05917696008756124,-0.05525110332335935,-0.056611742167143944,-0.26436318257811475,0.02424856538389708
2952,7.0,299.85497000000004,679.8184200000001,0.0,0.0,0.0,0.0,-0.029422021891439065,0.0,-0.047811741042401455,-0.07646977733072943,-0.08236630624092152,-0.07204865202364834,-0.26587318867214077,-0.018604995374420084
2953,7.0,299.55028,980.43106,0.0,0.0,0.0,0.0,-0.029431988701022885,0.0,-0.0964021850516549,-0.1038000354892659,-0.09782433526926021,-0.060031170451865234,-0.25421180472875177,0.014991115276257884
2954,7.0,299.5688,764.5881400000001,0.0,0.0,0.0,0.0,-0.02944195551060671,0.0,-0.046169042755029754,-0.1104010052532309,-0.07584565681238353,-0.046744538414326756,-0.24326732562861578,-0.047869068706559256
2955,7.0,300.28504,871.4332800000001,0.0,0.0,0.0,0.0,-0.02945192232019053,0.0,-0.08620302840707651,-0.090928284784673,-0.08776264423924861,-0.07700074976738233,-0.23700559199813076,-0.003953149972870526
2956,7.0,300.2586,777.11543,0.0,0.0,0.0,0.0,-0.029461889129774346,0.0,-0.08970227445517522,-0.05875378023629665,-0.08776763044299073,-0.03678619484151476,-0.2897489479334947,-0.0002690560301512627
2957,7.0,300.51148,276.21193,0.0,0.0,0.0,0.0,-0.02947185593935817,0.0,-0.024998651128174777,-0.011459249667689889,-0.04750363093874336,-0.08713365809392251,-0.24735402672694176,0.0009667129515896401
2958,7.0,301.58272,280.4833,0.0,0.0,0.0,0.0,-0.02948182274894199,0.0,-0.019201910127580983,-0.013703612824691288,-0.05235439759297675,-0.06176806553478344,-0.25903231168199875,0.016717166556605885
2959,7.0,301.51666,793.5730599999999,0.0,0.0,0.0,0.0,-0.029491789558525813,0.0,-0.07851509358508642,-0.06032187899830594,-0.10238941909754891,-0.08876961725487911,-0.27724580646953073,0.014283751195946487
2960,7.0,300.5587,1005.3851,0.0,0.0,0.0,0.0,-0.029501756368109634,0.0,-0.09179229733044442,-0.10150530772279391,-0.1123143659470649,-0.099586760201698,-0.2786852498265927,0.0041953466376484765
2961,7.0,301.00642,826.2807700000001,0.0,0.0,0.0,0.0,-0.02951172317769345,0.0,-0.0918704006746526,-0.0927930145399575,-0.06650530562131264,-0.07669361137057013,-0.2953379645575877,-0.025027859075557376
2962,7.0,300.15891,745.67962,0.0,0.0,0.0,0.0,-0.029521689987277274,0.0,-0.06728071653858973,-0.07032047089159013,-0.08906679641645841,-0.05777693823888985,-0.26168858734915273,0.012747073319538189
2963,7.0,300.41067000000004,725.16822,0.0,0.0,0.0,0.0,-0.029531656796861094,0.0,-0.04508223475077016,-0.07844581463599913,-0.09690498102952701,-0.05348646747920335,-0.24057318480522477,-0.007862316988050273
2964,7.0,299.90574,650.89274,0.0,0.0,0.0,0.0,-0.029541623606444918,0.0,-0.06638219573416264,-0.06410273460694735,-0.06737021084042215,-0.02440797090287918,-0.2695002187301007,0.009819582821967371
2965,7.0,299.1289,755.84007,0.0,0.0,0.0,0.0,-0.02955159041602874,0.0,-0.08227612900852171,-0.060121836070813235,-0.08735854186086682,-0.04732758987961946,-0.2410426843715608,0.025273446581794975
2966,7.0,299.72947999999997,634.87578,0.0,0.0,0.0,0.0,-0.029561557225612555,0.0,-0.07060979432514414,-0.06690659319091664,-0.05546999776896254,-0.05350169054870575,-0.25743249109910876,0.0030562235174757773
2967,7.0,299.83646,416.99537999999995,0.0,0.0,0.0,0.0,-0.02957152403519638,0.0,-0.06202456574459804,-0.050303638159082543,-0.014427979241680686,-0.07213234445540813,-0.23783856464033876,-0.01917739960766198
2968,7.0,299.87073,824.6437400000001,0.0,0.0,0.0,0.0,-0.0295814908447802,0.0,-0.07075626165359933,-0.08565808426479472,-0.094256760700668,-0.09900007724804691,-0.24664419436938678,-0.030495070878629172
2969,7.0,300.53197,979.3531300000001,0.0,0.0,0.0,0.0,-0.029591457654364023,0.0,-0.10710646308308491,-0.1081666570602179,-0.08242577794229092,-0.0998739618895426,-0.24798524100923777,-0.036067228034308264
2970,7.0,300.01531,495.26097000000004,0.0,0.0,0.0,0.0,-0.029601424463947843,0.0,-0.01996411738280498,-0.06239492486814965,-0.06818792697587443,-0.09761120317697572,-0.23523652825103777,-0.02330526399130048
2971,7.0,300.76669,392.88587,0.0,0.0,0.0,0.0,-0.029611391273531663,0.0,-0.00012732701380119786,-0.08057677281530833,-0.038723393257201366,-0.06720369939848873,-0.2518131985620278,-0.017222216002700384
2972,7.0,300.29046,767.16222,0.0,0.0,0.0,0.0,-0.029621358083115484,0.0,-0.061084944476364644,-0.099026736871428,-0.07308647749157372,-0.06918785790330993,-0.28200616689684177,0.0003216883034781637
2973,7.0,301.0233,811.10488,0.0,0.0,0.0,0.0,-0.029631324892699304,0.0,-0.0997410690726771,-0.08763844814799142,-0.05917611199722754,-0.05304584655396745,-0.26694443720786476,-0.017386762752689883
2974,7.0,300.48734,633.58123,0.0,0.0,0.0,0.0,-0.029641291702283128,0.0,-0.041771608248536755,-0.07636438108182764,-0.07445688305307223,-0.03176971315992657,-0.24872911857015276,-0.020316721324854282
2975,7.0,299.86851,755.0319099999999,0.0,0.0,0.0,0.0,-0.029651258511866948,0.0,-0.08070272689548902,-0.05934039428894094,-0.08946772529552702,-0.06114939934172585,-0.2541124150264428,0.005265783256067345
2976,7.0,299.48887,834.97651,0.0,0.0,0.0,0.0,-0.029661225321450768,0.0,-0.07553977788544564,-0.05888254405900465,-0.11938968874534489,-0.06809754506695444,-0.2805932808249007,0.03547607766096626
2977,7.0,300.40187000000003,964.7824300000001,0.0,0.0,0.0,0.0,-0.029671192131034585,0.0,-0.08929367729934981,-0.1104310075886919,-0.09354508828093142,-0.07303005364650514,-0.28853557080624376,0.004606790823604856
2978,7.0,299.81495,1017.9525,0.0,0.0,0.0,0.0,-0.029681158940618405,0.0,-0.11827207388504489,-0.06298994180387324,-0.1281701290769069,-0.0915439669561861,-0.2447319786481658,0.04259225774302856
2979,7.0,301.42278999999996,649.97935,0.0,0.0,0.0,0.0,-0.02969112575020223,0.0,-0.07537190767512814,-0.06829123592957023,-0.053914348810931954,-0.06769287830826694,-0.26240776187262976,-0.016315955994009482
2980,7.0,301.67751,290.42574,0.0,0.0,0.0,0.0,-0.02970109255978605,0.0,-0.013926669701705285,-0.04432794705832776,-0.03002755424273887,-0.09529214322260231,-0.25722929392405475,-0.042951803461512957
2981,7.0,302.13619,802.9001599999999,0.0,0.0,0.0,0.0,-0.029711059369369866,0.0,-0.0998095120904319,-0.06228430936798274,-0.08196777876458991,-0.07843402040483513,-0.25368323268158577,-0.013157527762796885
2982,7.0,302.48582000000005,1025.6511,0.0,0.0,0.0,0.0,-0.02972102617895369,0.0,-0.08891935738115732,-0.12389525730250987,-0.0989577132613659,-0.07058972386716333,-0.24366899823325777,-0.006892119479499234
2983,7.0,300.82724,406.02333,0.0,0.0,0.0,0.0,-0.02973099298853751,0.0,-0.007269875126130813,-0.06062464927393704,-0.05552642870678185,-0.06239924435332594,-0.24895158776210877,0.005687521860389704
2984,7.0,300.06754,461.53759,0.0,0.0,0.0,0.0,-0.029740959798121334,0.0,-0.02795768288545847,-0.06151269509883034,-0.050825525795338854,-0.07522279069766143,-0.28904553958157375,0.01027296279511249
2985,7.0,300.53952999999996,841.57405,0.0,0.0,0.0,0.0,-0.029750926607705154,0.0,-0.08737192284168742,-0.08581990435876512,-0.08262567192201892,-0.05027454977521175,-0.2967065817326597,-0.002018211611531978
2986,7.0,299.69282000000004,713.01793,0.0,0.0,0.0,0.0,-0.02976089341728897,0.0,-0.06297924390931743,-0.05371648133140395,-0.10004392142156632,-0.029079589873182075,-0.24729500490861675,-0.02127180985586418
2987,7.0,299.91974,645.70295,0.0,0.0,0.0,0.0,-0.029770860226872795,0.0,-0.06241606025198554,-0.06889048926396193,-0.06497102408139084,-0.01039559645471549,-0.26270179691914874,-0.026600183090483676
2988,7.0,299.82932,714.18213,0.0,0.0,0.0,0.0,-0.029780827036456615,0.0,-0.04822923656060505,-0.07613785686297142,-0.09272644198188731,-0.05720936619537485,-0.27425274673413874,-0.017588013474301785
2989,7.0,299.35511,318.5246,0.0,0.0,0.0,0.0,-0.02979079384604044,0.0,-0.03186832975240927,-0.022250479756451377,-0.04270471533187726,-0.07222639432969014,-0.2979732254176677,-0.0016314269945843084
2990,7.0,299.9174,506.79762,0.0,0.0,0.0,0.0,-0.02980076065562426,0.0,-0.05751110802215445,-0.056190859353856044,-0.04035185335416786,-0.07614056629373883,-0.24830625890591979,-0.01091333989806279
2991,7.0,300.72792000000004,943.0890699999999,0.0,0.0,0.0,0.0,-0.029810727465208076,0.0,-0.08265744136565432,-0.08189235850664651,-0.12212572746037088,-0.1099471604009399,-0.26177230207241475,0.003219457905935757
2992,7.0,299.34037,568.73096,0.0,0.0,0.0,0.0,-0.0298206942747919,0.0,-0.05267820395393395,-0.06292034266775434,-0.05728146400624035,-0.09728108528114561,-0.26288852878007773,-0.02095081627718458
2993,7.0,300.17476,418.79103,0.0,0.0,0.0,0.0,-0.02983066108437572,0.0,-0.035246290776788064,-0.056919734733790445,-0.035135991410652365,-0.09499632485590731,-0.2690124705294637,-0.030582522468259966
2994,7.0,299.89032000000003,780.16044,0.0,0.0,0.0,0.0,-0.029840627893959543,0.0,-0.10466247344438191,-0.044679395895263055,-0.08780742584066822,-0.04431711946775916,-0.22534615349493378,0.025623564008098874
2995,7.0,300.22387000000003,803.09798,0.0,0.0,0.0,0.0,-0.029850594703543364,0.0,-0.0900234939886271,-0.07451739738879452,-0.07958084219926763,-0.04333717591179626,-0.2653145636270087,0.015479564645964086
2996,7.0,300.85889,595.06592,0.0,0.0,0.0,0.0,-0.02986056151312718,0.0,-0.06698137814104733,-0.044197814334734666,-0.06970598840819543,-0.05544151834840185,-0.28460125239045675,0.025540754117176177
2997,7.0,301.28734,649.2891,0.0,0.0,0.0,0.0,-0.029870528322711004,0.0,-0.06540681585665015,-0.05485708480997275,-0.07710377095804972,-0.04371097704593756,-0.3014812188538797,0.017759048064681586
2998,7.0,300.62646,877.60997,0.0,0.0,0.0,0.0,-0.029880495132294824,0.0,-0.07338626779866073,-0.09082380654036182,-0.1025614385670259,-0.06712145287462164,-0.24178149568197577,7.391147484224463e-05
2999,7.0,301.4714,892.0802699999999,0.0,0.0,0.0,0.0,-0.029890461941878648,0.0,-0.08922893568421031,-0.07862717221839773,-0.1033140199462999,-0.052859003235527446,-0.2676738151598487,-0.02105766147372938
3000,7.0,300.15842000000004,947.3806099999999,0.0,0.0,0.0,0.0,-0.02990042875146247,0.0,-0.07589826171782522,-0.1253931753228429,-0.0866886143320001,-0.0909476743385866,-0.26779982294228477,-0.02192427908550788
3001,7.0,299.35139,813.75105,0.0,0.0,0.0,0.0,-0.029910395561046285,0.0,-0.1031058679782569,-0.0949282162106855,-0.049325915647338854,-0.07665038105505363,-0.26012814166514875,-0.013767218586468687
3002,7.0,299.19527,300.15659,0.0,0.0,0.0,0.0,-0.02992036237063011,0.0,-0.025110108639174775,-0.026757258134235774,-0.03937274268978717,-0.06690301641806363,-0.23558526867045576,-0.0032980385922660666
3003,7.0,299.65038,280.30696,0.0,0.0,0.0,0.0,-0.02993032918021393,0.0,-0.01021452866184549,-0.05215105147015804,-0.022840737456455276,-0.045140189616739865,-0.2425264776854998,-0.02128510775017658
3004,7.0,298.87217000000004,856.3307800000001,0.0,0.0,0.0,0.0,-0.02994029598979775,0.0,-0.059894546848131544,-0.06814913165604564,-0.1322594950229959,-0.07477305457452592,-0.2543119543686358,0.02153023118786838
3005,7.0,298.48651,646.13739,0.0,0.0,0.0,0.0,-0.02995026279938157,0.0,-0.061040105119689346,-0.06185015601813515,-0.07351937035829693,-0.042135662929966164,-0.26435809606261274,-0.01090892415412699
3006,7.0,297.49165,481.22194,0.0,0.0,0.0,0.0,-0.029960229608965386,0.0,-0.028553382751749474,-0.06591644316669644,-0.05180962975621235,-0.09661838627849231,-0.2070915815483478,0.016833769351613685
3007,7.0,298.2803,856.94655,0.0,0.0,0.0,0.0,-0.02997019641854921,0.0,-0.12448042950026188,-0.04606075165059226,-0.08994917614679251,-0.07135345201078744,-0.2752671519392527,0.016222584997294485
3008,7.0,298.43887,1008.4241,0.0,0.0,0.0,0.0,-0.02998016322813303,0.0,-0.10675380138577989,-0.09632647297768272,-0.1034554595277589,-0.1151021513446979,-0.28046665495990375,0.031487524020326674
3009,7.0,300.62793999999997,958.16409,0.0,0.0,0.0,0.0,-0.029990130037716854,0.0,-0.06673069196030654,-0.1270579452371429,-0.09746931877872281,-0.07697275062736902,-0.27835944938943874,-0.017359168912716584
3010,7.0,300.00789,719.75515,0.0,0.0,0.0,0.0,-0.030000096847300674,0.0,-0.06309185753868153,-0.04994978690616016,-0.1057459519088129,-0.07126556371036354,-0.26167232468504775,0.016057527569254583
3011,7.0,300.10895,411.8307,0.0,0.0,0.0,0.0,-0.03001006365688449,0.0,-0.03014961541603537,-0.05967562909777604,-0.03536100588685957,-0.05508345704131395,-0.28492561401246874,-0.018735222330272482
3012,7.0,300.1461,304.91528,0.0,0.0,0.0,0.0,-0.030020030466468315,0.0,-0.026181106902124072,-0.02184428501661308,-0.04466123946672116,-0.08792907664767423,-0.2867156115066277,-0.01040940097407789
3013,7.0,300.79013,761.84068,0.0,0.0,0.0,0.0,-0.030029997276052135,0.0,-0.1021334113272829,-0.07025934657930764,-0.05918778058537914,-0.046492792373981365,-0.27358498452073576,0.0018832457862868882
3014,7.0,300.1841,877.78534,0.0,0.0,0.0,0.0,-0.03003996408563596,0.0,-0.0974608551006375,-0.09057840040589211,-0.07878556955353033,-0.07474659760116484,-0.23189747400399877,0.002236368411062378
3015,7.0,300.67329,518.15592,0.0,0.0,0.0,0.0,-0.03004993089521978,0.0,-0.028683158811307372,-0.05670826437166994,-0.07211503713045003,-0.06240033359718344,-0.25523757859998775,0.013628836993811486
3016,7.0,299.78222999999997,624.41903,0.0,0.0,0.0,0.0,-0.030059897704803596,0.0,-0.025437535342739275,-0.08697497502226173,-0.07739528503831992,-0.10799221592300189,-0.26959104646906473,-0.015759382780329984
3017,7.0,300.71383,1069.1504,0.0,0.0,0.0,0.0,-0.03006986451438742,0.0,-0.08179083895262733,-0.1092797426925709,-0.13392444732231387,-0.05054103049851136,-0.26004018142396773,0.0022536542551183578
3018,7.0,300.59982,857.42576,0.0,0.0,0.0,0.0,-0.03007983132397124,0.0,-0.08478989003586061,-0.08011741081622283,-0.09572872127993921,-0.05151651778053445,-0.23755186552454377,-0.03518153801589746
3019,7.0,300.46431,413.58725,0.0,0.0,0.0,0.0,-0.030089798133555064,0.0,-0.05846908532919944,-0.04699449302849536,-0.02025661735542248,-0.052792554293969444,-0.27076936514285577,-0.011507785360729989
3020,7.0,298.95038999999997,429.01149000000004,0.0,0.0,0.0,0.0,-0.030099764943138884,0.0,-0.06931319086117933,-0.027966770725605373,-0.03312881794305977,-0.09416653584551352,-0.3034321204639187,-0.008554050672319072
3021,7.0,298.66164,456.78024000000005,0.0,0.0,0.0,0.0,-0.0301097317527227,0.0,-0.02052153564706788,-0.04450247330855216,-0.07382577921503714,-0.08130328630925962,-0.2859399989525807,-0.005402710328205995
3022,7.0,298.93788,614.95339,0.0,0.0,0.0,0.0,-0.030119698562306525,0.0,-0.04423123638928316,-0.07580509438438034,-0.06689414237368783,-0.07070548262483783,-0.25831442398614873,-0.02218887111062108
3023,7.0,299.39437000000004,773.9757599999999,0.0,0.0,0.0,0.0,-0.030129665371890345,0.0,-0.04093894768735956,-0.06757759071188893,-0.12675276443952388,-0.06711120283661004,-0.2927305478102557,0.024151776694594777
3024,7.0,299.03772999999995,580.3808,0.0,0.0,0.0,0.0,-0.03013963218147417,0.0,-0.06709801032030803,-0.057742793737020036,-0.051580468047345854,-0.09050272278242331,-0.2697694088841677,-0.0005835594480978335
3025,7.0,299.46542,549.1778400000001,0.0,0.0,0.0,0.0,-0.03014959899105799,0.0,-0.05847758649753845,-0.05929885306134115,-0.04915991184370555,-0.05888098466710073,-0.2651460398703767,-0.013311170928460288
3026,7.0,299.95777000000004,832.14152,0.0,0.0,0.0,0.0,-0.030159565800641806,0.0,-0.11273222015580389,-0.07446335569471102,-0.06575467170873085,-0.033138870397301866,-0.2401566883516198,-0.004778428297794155
3027,7.0,300.1069,926.67302,0.0,0.0,0.0,0.0,-0.03016953261022563,0.0,-0.09157452961895242,-0.08094687356008443,-0.10916405992865388,-0.07671996701892123,-0.27019102225077773,9.58962783959758e-05
3028,7.0,300.05735,461.36859000000004,0.0,0.0,0.0,0.0,-0.03017949941980945,0.0,-0.026467219346111175,-0.02662604731253627,-0.08715126331441002,-0.058952988245706946,-0.28431610354731474,-0.01057190805161609
3029,7.0,299.7723,551.04525,0.0,0.0,0.0,0.0,-0.03018946622939327,0.0,-0.03449442880508507,-0.06005703974016835,-0.07295252886810404,-0.08662247747147292,-0.2577332439937908,-0.01078701699484569
3030,7.0,299.37467000000004,757.837,0.0,0.0,0.0,0.0,-0.030199433038977094,0.0,-0.08129152956834933,-0.04668658050860675,-0.1023854167596539,-0.06274042187399753,-0.23937987002995376,0.00017936270573422084
3031,7.0,298.71988,529.28791,0.0,0.0,0.0,0.0,-0.03020939984856091,0.0,-0.10308512674870991,-0.017321847871783282,-0.040483335726894165,-0.07678702897678973,-0.2919260677608597,0.005566788247374225
3032,7.0,299.33237,560.68228,0.0,0.0,0.0,0.0,-0.03021936665814473,0.0,-0.06778946738729953,-0.04653598722574436,-0.05610795827042434,-0.07416807435056903,-0.27766235358564073,-0.004735148839647806
3033,7.0,299.36815,784.69524,0.0,0.0,0.0,0.0,-0.03022933346772855,0.0,-0.09112157440024923,-0.06822232783001954,-0.07918385688958822,-0.08044309168986502,-0.24973166874909677,0.006199120651155574
3034,7.0,298.46029,650.63494,0.0,0.0,0.0,0.0,-0.030239300277312375,0.0,-0.023418870605762577,-0.08799244429567811,-0.08636546050410733,-0.04034027899827557,-0.24618298318886878,-0.03954883542466616
3035,7.0,299.38541000000004,706.85816,0.0,0.0,0.0,0.0,-0.030249267086896195,0.0,-0.048846400103764356,-0.08065748426527392,-0.08536334703595641,-0.05187196591561445,-0.2685282180416717,0.012522818780905987
3036,7.0,299.91506,964.1601800000001,0.0,0.0,0.0,0.0,-0.03025923389648001,0.0,-0.10251679476761989,-0.07655849953598563,-0.1140053182439489,-0.046441923165960956,-0.30541910391001875,0.0026166352967417973
3037,7.0,300.04405,597.4174,0.0,0.0,0.0,0.0,-0.030269200706063835,0.0,-0.0965154360153319,-0.030947443478524867,-0.05413709158041495,-0.056945048761038744,-0.25881860710340776,-0.0015260048064799487
3038,7.0,300.10095,365.75905,0.0,0.0,0.0,0.0,-0.030279167515647656,0.0,-0.02282427416883048,-0.049007028615617156,-0.03935031642532386,-0.08077850483071772,-0.2642120765907018,-0.039465286874420566
3039,7.0,300.53314,643.77751,0.0,0.0,0.0,0.0,-0.03028913432523148,0.0,-0.07747694590362922,-0.04258539196035096,-0.07562995106484502,-0.08849304354733341,-0.27461945207782973,-0.024935716137963578
3040,7.0,300.18412,819.91401,0.0,0.0,0.0,0.0,-0.0302991011348153,0.0,-0.07621374422921093,-0.07144722830754242,-0.1015724152769169,-0.1268940216359649,-0.2885790898980387,-0.006309649923738964
3041,7.0,300.70586000000003,591.04431,0.0,0.0,0.0,0.0,-0.030309067944399117,0.0,-0.033609007297950765,-0.07882242145966732,-0.06723128209271094,-0.06558721186470384,-0.23710967304840275,-0.03375751632535747
3042,7.0,299.5907,655.68058,0.0,0.0,0.0,0.0,-0.03031903475398294,0.0,-0.07053394444915834,-0.06945652420707524,-0.05932005633293374,-0.07562811100266342,-0.23125415138300778,0.01816534514277998
3043,7.0,299.357,696.46527,0.0,0.0,0.0,0.0,-0.03032900156356676,0.0,-0.07692663660206793,-0.06397121170421703,-0.07081020404917303,-0.05745131613375345,-0.2509770443145058,0.004374153362920326
3044,7.0,298.6975,706.7988,0.0,0.0,0.0,0.0,-0.030338968373150584,0.0,-0.052520287912598856,-0.07696180955278924,-0.08536708896857573,-0.07806829386074073,-0.2957795389511677,0.01860354946652738
3045,7.0,299.58061000000004,870.9754800000001,0.0,0.0,0.0,0.0,-0.030348935182734404,0.0,-0.07232435129635773,-0.0986166380789544,-0.0938138093002021,-0.050640212484549856,-0.2512586062522938,-0.012756970746514988
3046,7.0,299.54546,887.6491300000001,0.0,0.0,0.0,0.0,-0.03035890199231822,0.0,-0.07433943318098082,-0.08352396575842362,-0.11195976894206888,-0.058241522528990744,-0.25890468269940276,-0.00948243844199381
3047,7.0,300.00147000000004,498.68054000000006,0.0,0.0,0.0,0.0,-0.030368868801902045,0.0,-0.014371002162057486,-0.06649259439880814,-0.07072283655930053,-0.07939645094606963,-0.29099647158911573,-0.004853936809821266
3048,7.0,299.69971,348.88754,0.0,0.0,0.0,0.0,-0.030378835611485865,0.0,-0.05289130058246495,-0.013459851195133888,-0.03970194967377736,-0.06852792912643003,-0.3071381232346727,0.008425397091221951
3049,7.0,299.74039,810.09312,0.0,0.0,0.0,0.0,-0.03038880242106969,0.0,-0.09773074743702381,-0.05440458150081415,-0.09411275253020551,-0.05893893446681994,-0.24343570753023377,0.02928318322902517
3050,7.0,299.39264,741.9066,0.0,0.0,0.0,0.0,-0.03039876923065351,0.0,-0.08685696178311472,-0.07400470905019614,-0.06465941015888693,-0.06726771147355623,-0.24631130118153277,-0.04463564780894545
3051,7.0,301.18855,588.27408,0.0,0.0,0.0,0.0,-0.030408736040237326,0.0,-0.04803604016403805,-0.05298062364503045,-0.07780396933365392,-0.10314021715664691,-0.2591070996718798,-0.004437843123131016
3052,7.0,301.58538,957.3085699999999,0.0,0.0,0.0,0.0,-0.03041870284982115,0.0,-0.09515849654766241,-0.12290746004502187,-0.07293194570557264,-0.10727929315264191,-0.27916022094346876,-0.04957035818096345
3053,7.0,302.13707999999997,929.19935,0.0,0.0,0.0,0.0,-0.03042866965940497,0.0,-0.1018978509440349,-0.08682951081140552,-0.09372604056329001,-0.06511786529913294,-0.2198369303162158,0.01076216298314279
3054,7.0,300.87216,639.95872,0.0,0.0,0.0,0.0,-0.030438636468988794,0.0,-0.06687916653720985,-0.07752327068495113,-0.05012903490185055,-0.055171526713505746,-0.2563535418626247,-0.003441291688754047
3055,7.0,301.33679,752.73858,0.0,0.0,0.0,0.0,-0.030448603278572614,0.0,-0.04991664349538916,-0.07155012081544714,-0.1073469681268209,-0.0937434542795086,-0.2798522707617687,0.05371541741879895
3056,7.0,300.75592,668.93152,0.0,0.0,0.0,0.0,-0.03045857008815643,0.0,-0.04217411374476096,-0.05569329275975004,-0.1054710774216849,-0.08392952620369933,-0.3183102492347757,0.017191062615125784
3057,7.0,300.06273999999996,590.8879099999999,0.0,0.0,0.0,0.0,-0.03046853689774025,0.0,-0.02020948805352118,-0.07195867237501802,-0.08744700872709782,-0.04202586917563036,-0.2563110866834348,-0.021406898385696378
3058,7.0,299.34527,872.2216400000001,0.0,0.0,0.0,0.0,-0.030478503707324075,0.0,-0.06923686577089663,-0.1022516373489509,-0.0936450980923016,-0.04384736354914786,-0.25892425869133473,-0.06767368836462304
3059,7.0,300.03596,823.89203,0.0,0.0,0.0,0.0,-0.030488470516907895,0.0,-0.11319812268428489,-0.05638695972520965,-0.08085752111326601,-0.07388603719848413,-0.27870102613064973,-0.02394243517093438
3060,7.0,299.58209,299.98882000000003,0.0,0.0,0.0,0.0,-0.030498437326491712,0.0,-0.052691317436728155,-0.028586414705009472,-0.00991137801212685,-0.08977859954545792,-0.2941088111262797,-0.01908026641332568
3061,7.0,300.75312,486.63654,0.0,0.0,0.0,0.0,-0.030508404136075532,0.0,-0.05257115610736915,-0.045321856240418956,-0.05003234348455785,-0.09619490954494841,-0.23949385053370278,0.016086668642130583
3062,7.0,299.8533,876.81326,0.0,0.0,0.0,0.0,-0.030518370945659356,0.0,-0.1023077106094849,-0.061262062620344844,-0.1029595647963179,-0.06504832797127014,-0.23977351769380378,0.013095116622887386
3063,7.0,300.74627000000004,925.6885900000001,0.0,0.0,0.0,0.0,-0.030528337755243176,0.0,-0.06726510742079923,-0.10064924615055722,-0.1134718623313009,-0.1102232102581839,-0.27602567096411273,0.018325780123863683
3064,7.0,301.54027,768.13922,0.0,0.0,0.0,0.0,-0.030538304564827,0.0,-0.06665098666769023,-0.06585900708477793,-0.1009851476779581,-0.07110154689017634,-0.2863650472370297,-0.0075845879727405524
3065,7.0,301.57626,1057.9066,0.0,0.0,0.0,0.0,-0.03054827137441082,0.0,-0.11799769589046588,-0.1063633758572479,-0.0972161258172346,-0.07472215598225264,-0.24148075291979476,0.004542171406427415
3066,7.0,301.54465,902.0203300000001,0.0,0.0,0.0,0.0,-0.030558238183994637,0.0,-0.1205908562088909,-0.07255547060441743,-0.08104533309880163,-0.027677658048072172,-0.24035829472401676,0.007592381791184743
3067,7.0,300.81966,582.64254,0.0,0.0,0.0,0.0,-0.03056820499357846,0.0,-0.048098402667942755,-0.050559798930113656,-0.07845058096446952,-0.06923287559200283,-0.2635108568589967,0.012000375883594889
3068,7.0,300.13035,592.6375,0.0,0.0,0.0,0.0,-0.03057817180316228,0.0,-0.018698501133398382,-0.06388638037934484,-0.09756211931563151,-0.05899155457101315,-0.28763794267515475,0.0013414995626456988
3069,7.0,301.11862,409.40035,0.0,0.0,0.0,0.0,-0.030588138612746105,0.0,-0.015999076210735885,-0.031536165091377175,-0.07691224338439742,-0.07862484072991763,-0.25663367511777174,-0.031042428582649176
3070,7.0,299.49784,302.79843,0.0,0.0,0.0,0.0,-0.030598105422329925,0.0,-0.009678603256053771,-0.056058982826840846,-0.026305574544408076,-0.05799454585686604,-0.28112462917734077,-0.06708702668922403
3071,7.0,299.84783,661.9731,0.0,0.0,0.0,0.0,-0.030608072231913742,0.0,-0.13183331189843486,-0.042625723367331364,-0.026764252599676075,-0.08625590081054461,-0.3065635192354637,-0.04103525609611446
3072,7.0,299.31256,893.05308,0.0,0.0,0.0,0.0,-0.030618039041497565,0.0,-0.10894434677696989,-0.06936001922780093,-0.09316146672682091,-0.07859158991463602,-0.2973770493238297,0.005269979327381465
3073,7.0,299.11643,609.33638,0.0,0.0,0.0,0.0,-0.030628005851081386,0.0,-0.05328669711598754,-0.06639532745545865,-0.06554102083239513,-0.06613006465877923,-0.24916019569269673,-0.02049589332678718
3074,7.0,301.23569,791.63871,0.0,0.0,0.0,0.0,-0.03063797266066521,0.0,-0.045250465678123256,-0.07421876016032133,-0.1211691788359669,-0.07799429721918782,-0.25620588092555174,0.02185204144612858
3075,7.0,301.28142,769.07099,0.0,0.0,0.0,0.0,-0.03064793947024903,0.0,-0.03866107330980086,-0.06813674163382284,-0.12698056332700586,-0.08556681880178751,-0.25173325312913775,0.01043194781530309
3076,7.0,299.49876,559.21421,0.0,0.0,0.0,0.0,-0.030657906279832847,0.0,-0.03313263890918687,-0.07011165524473163,-0.06674286312050774,-0.07866694633782313,-0.2685573996445517,0.009241231823888571
3077,7.0,299.89312,654.99422,0.0,0.0,0.0,0.0,-0.03066787308941667,0.0,-0.07766303536399483,-0.06412814286645493,-0.057310709443876645,-0.037391349344488865,-0.24384974178609575,-0.03315494155713797
3078,7.0,299.31793999999996,840.5715,0.0,0.0,0.0,0.0,-0.03067783989900049,0.0,-0.10705587150559188,-0.06940711407919883,-0.07904975729185364,-0.04580060070066736,-0.2788867244764767,0.0013737309470016887
3079,7.0,299.41337999999996,570.5867900000001,0.0,0.0,0.0,0.0,-0.030687806708584314,0.0,-0.07234120772502133,-0.03866736660617197,-0.06243556126341014,-0.05549141078332585,-0.30317689289622973,-0.027903138619325373
3080,7.0,298.7042,396.22209,0.0,0.0,0.0,0.0,-0.030697773518168135,0.0,-0.027034228022570578,-0.02062390329142078,-0.07278349139367132,-0.07190173278564853,-0.2945458562919127,0.004177505633862706
3081,7.0,298.31408999999996,823.9352700000001,0.0,0.0,0.0,0.0,-0.03070774032775195,0.0,-0.06802771389656263,-0.0957232770871519,-0.08670475844584341,-0.04142851973817656,-0.24356273869527076,-0.04414468152599086
3082,7.0,300.06414,1003.5454,0.0,0.0,0.0,0.0,-0.030717707137335775,0.0,-0.1315150703070269,-0.06590238229505874,-0.10763528844277588,-0.07036249138648723,-0.26084381034327975,0.0016252753505771884
3083,7.0,300.2821,720.96487,0.0,0.0,0.0,0.0,-0.030727673946919595,0.0,-0.1140220976656049,-0.06448407432183265,-0.04064914802625856,-0.08891553134877972,-0.28291661264169576,-0.02169787949641398
3084,7.0,300.14106,673.60684,0.0,0.0,0.0,0.0,-0.030737640756503416,0.0,-0.07765053388426102,-0.06131548521861724,-0.06579364029432673,-0.10432616560369089,-0.28149784971917474,0.017801528575124084
3085,7.0,300.49145,871.39636,0.0,0.0,0.0,0.0,-0.030747607566087232,0.0,-0.06876715038228934,-0.08557331170842833,-0.11054227258217289,-0.060847582534438845,-0.2720411257408687,0.0005966077687781024
3086,7.0,299.50094,797.71548,0.0,0.0,0.0,0.0,-0.030757574375671056,0.0,-0.016990399578571885,-0.1003379605210857,-0.12515722990455688,-0.05910684216739114,-0.27393389719267075,-0.004921333140222766
3087,7.0,299.87331,809.70516,0.0,0.0,0.0,0.0,-0.030767541185254876,0.0,-0.060477295351644346,-0.07219903860349033,-0.1134538163470199,-0.09939943457621041,-0.3058018388702917,0.0016768516045173683
3088,7.0,300.33616,648.92244,0.0,0.0,0.0,0.0,-0.030777507994838697,0.0,-0.059271845893175745,-0.06802855084114524,-0.06995582244560213,-0.08147390749359862,-0.28428259536650774,-0.013992437739196088
3089,7.0,299.00017,279.89858,0.0,0.0,0.0,0.0,-0.03078747480442252,0.0,-0.03919930061716976,-0.03961468046916456,-0.006268199483348124,-0.06720956206356733,-0.2259481659093478,-0.041336505483345456
3090,7.0,299.92881,553.70777,0.0,0.0,0.0,0.0,-0.030797441614006337,0.0,-0.052087249137861245,-0.07384199324313732,-0.04238409260273426,-0.04989738870373886,-0.24472803710527677,-0.03290760923422817
3091,7.0,299.87706000000003,946.47879,0.0,0.0,0.0,0.0,-0.030807408423590157,0.0,-0.10692965094063489,-0.07402512705296123,-0.10675113653801689,-0.07930882001117112,-0.2850080419081037,0.00936701567805247
3092,7.0,299.82144,809.10018,0.0,0.0,0.0,0.0,-0.030817375233173978,0.0,-0.07932471790524012,-0.07678594986543322,-0.08983558473108191,-0.09605383878652582,-0.2760772757917057,-0.006783152841220064
3093,7.0,300.39562,825.86581,0.0,0.0,0.0,0.0,-0.030827342042757805,0.0,-0.08268105718573503,-0.09615930697618472,-0.07220222223530454,-0.09779393371325981,-0.26456736260576574,-0.010474239861226989
3094,7.0,300.06411,916.20785,0.0,0.0,0.0,0.0,-0.030837308852341625,0.0,-0.13778881095119686,-0.06307131490615414,-0.07764418181938412,-0.07841522056247972,-0.2566108972555238,0.02166636235205348
3095,7.0,299.04452000000003,969.51763,0.0,0.0,0.0,0.0,-0.030847275661925442,0.0,-0.1033199981218899,-0.08787629138371472,-0.1035128601459239,-0.0966788985877144,-0.26323140248141674,0.02290838912588198
3096,7.0,299.69129,825.61361,0.0,0.0,0.0,0.0,-0.030857242471509262,0.0,-0.060283252891243845,-0.07509690957148793,-0.11558575535242589,-0.07543303300066073,-0.24438717977163676,0.027545133040992976
3097,7.0,299.72575,649.56371,0.0,0.0,0.0,0.0,-0.030867209281093082,0.0,-0.01019475711264419,-0.07179277090964484,-0.11546361818537189,-0.08402807693492552,-0.26481497053270275,0.004185350317461915
3098,7.0,299.69577999999996,337.9342,0.0,0.0,0.0,0.0,-0.03087717609067691,0.0,0.0013569838480238787,-0.051299086468075655,-0.05278145616562415,-0.05649624178824494,-0.25874489315863275,0.0013482849945903686
3099,7.0,299.63749,428.31973,0.0,0.0,0.0,0.0,-0.03088714290026073,0.0,-0.030215819151069172,-0.04969625450588845,-0.05028642810613405,-0.05195992919654575,-0.29005999544919275,-0.018906833459959183
3100,7.0,300.34988,886.7177199999999,0.0,0.0,0.0,0.0,-0.03089710970984455,0.0,-0.13801473532599387,-0.07564353469568563,-0.05588177146385144,-0.04538150222080555,-0.27040962082735176,-0.0059418474328396835
3101,7.0,300.94829,894.49722,0.0,0.0,0.0,0.0,-0.030907076519428367,0.0,-0.1097357356350739,-0.1009000691200615,-0.06126901452928094,-0.07367296083495513,-0.27724104419406076,-0.038390812150378165
3102,7.0,300.73821,548.7216099999999,0.0,0.0,0.0,0.0,-0.030917043329012187,0.0,-0.06200168554408994,-0.06903024381050464,-0.03576573749355347,-0.07436123933638293,-0.2627682965232117,-0.009389054577002542
3103,7.0,300.42906,709.3832,0.0,0.0,0.0,0.0,-0.030927010138596014,0.0,-0.06122055989624884,-0.08049691148217662,-0.07391731014957052,-0.0962087606738154,-0.2934501478987747,-0.013873951312252388
3104,7.0,298.66573999999997,1034.6315,0.0,0.0,0.0,0.0,-0.030936976948179835,0.0,-0.1067269806556329,-0.09574987591552701,-0.11202528569353488,-0.06513954175852223,-0.25645611317024775,0.025773120736108972
3105,7.0,298.95437999999996,799.94425,0.0,0.0,0.0,0.0,-0.030946943757763655,0.0,-0.08863349419669482,-0.06840733108627793,-0.08612225210910451,-0.08403529431538782,-0.2557948357574848,-0.014504487730231485
3106,7.0,300.44711,477.81210999999996,0.0,0.0,0.0,0.0,-0.030956910567347472,0.0,-0.04239302034936536,-0.04472484016224805,-0.058125090973249846,-0.07249575876277434,-0.25654888634940376,0.004402278247271035
3107,7.0,301.00708,281.52594,0.0,0.0,0.0,0.0,-0.030966877376931292,0.0,0.003126735693259787,-0.02075014209487958,-0.06795344975698334,-0.08775915663240441,-0.27790967780254977,0.0015658269539600886
3108,7.0,301.39937000000003,425.45152,0.0,0.0,0.0,0.0,-0.030976844186515116,0.0,0.005094610762348935,-0.03155092713208407,-0.10287031772750992,-0.05274977892774785,-0.27839903707084573,0.016362123721565883
3109,7.0,300.28097,795.28522,0.0,0.0,0.0,0.0,-0.03098681099609894,0.0,-0.05215901358944385,-0.08245650576482351,-0.1071313282405389,-0.051804872546992856,-0.2794415194362307,-0.00927166985689257
3110,7.0,299.49413,974.7083,0.0,0.0,0.0,0.0,-0.03099677780568276,0.0,-0.11802413158557487,-0.07486435347478643,-0.1033985047396379,-0.08031473114069683,-0.26266600892561676,0.031325957238881263
3111,7.0,300.08046,686.81995,0.0,0.0,0.0,0.0,-0.031006744615266577,0.0,-0.12379586760020088,-0.06025650207535374,-0.024723740164043176,-0.07209267672724323,-0.29298037475491173,-0.007358309264383582
3112,7.0,299.78832,530.9517,0.0,0.0,0.0,0.0,-0.031016711424850397,0.0,-0.0994275137629816,-0.050203910031240154,-0.011764636155079188,-0.07158256609689923,-0.2705299341442257,0.02219372255209988
3113,7.0,299.03764,1002.9729,0.0,0.0,0.0,0.0,-0.03102667823443422,0.0,-0.1035725203118119,-0.0900228394290625,-0.1112833637053129,-0.05361253706989545,-0.25739339991025073,-0.016848107853778785
3114,7.0,299.85196,1125.3195,0.0,0.0,0.0,0.0,-0.03103664504401804,0.0,-0.08518148992125851,-0.1006725245583546,-0.15621501733222184,-0.07447203620831773,-0.25443583432586175,0.010928321814041388
3115,7.0,299.30638,497.85224000000005,0.0,0.0,0.0,0.0,-0.031046611853601858,0.0,-0.003024997581194017,-0.04883044445443965,-0.09947920674333331,-0.08335545314754272,-0.28033370641428274,-0.030711270078966367
3116,7.0,300.36874,321.99937,0.0,0.0,0.0,0.0,-0.031056578663185678,0.0,-0.01007949981244418,-0.03438135819992587,-0.05341891004203595,-0.1065175519924639,-0.2721827983698507,-0.0037715038168434465
3117,7.0,301.04774,512.17889,0.0,0.0,0.0,0.0,-0.031066545472769498,0.0,-0.05940652405671744,-0.06723342511667244,-0.02904964326647657,-0.04687396794235046,-0.27896452181915476,-0.054724202125608246
3118,7.0,300.33454,601.4585099999999,0.0,0.0,0.0,0.0,-0.031076512282353325,0.0,-0.06507329850673453,-0.06554886946766973,-0.05220620267310105,-0.07631094024505343,-0.25365114305091874,-0.014177864533996287
3119,7.0,299.18523999999996,610.3937900000001,0.0,0.0,0.0,0.0,-0.031086479091937146,0.0,-0.03972824858012286,-0.07041794251145983,-0.07539827852223073,-0.03467669729932357,-0.3031756263336047,-0.011152711114936889
3120,7.0,300.24826,535.1401599999999,0.0,0.0,0.0,0.0,-0.031096445901520962,0.0,-0.018157341480240084,-0.06920004020926224,-0.07531186652720252,-0.06885508225246753,-0.2722026378068087,-0.008267487433362482
3121,7.0,299.65076,489.3832,0.0,0.0,0.0,0.0,-0.031106412711104783,0.0,0.002237996298673038,-0.07518984791041022,-0.07580842088445863,-0.04646440515917975,-0.26382184357968874,0.005274502678477885
3122,7.0,300.75267,920.90086,0.0,0.0,0.0,0.0,-0.031116379520688603,0.0,-0.12370021679076088,-0.09328737926374751,-0.06294326846451694,-0.051642154713433856,-0.26561618791677677,-0.010961450026060889
3123,7.0,300.16902000000005,1137.1709,0.0,0.0,0.0,0.0,-0.03112634633027243,0.0,-0.1767817044169958,-0.07445690027832393,-0.09443296793280831,-0.08464988015029272,-0.28986438751738774,0.020348064190197582
3124,7.0,301.17765,783.65636,0.0,0.0,0.0,0.0,-0.03113631313985625,0.0,-0.13908143436876885,-0.04803828856600995,-0.051092238552911354,-0.0998700021081518,-0.26413488719808376,-0.027555633351779272
3125,7.0,301.37338,551.39641,0.0,0.0,0.0,0.0,-0.031146279949440067,0.0,-0.015832042945000985,-0.06647681505500085,-0.08530188328489043,-0.08011149039588851,-0.28511823285647875,-0.024612531912567775
3126,7.0,300.91478,897.7012900000001,0.0,0.0,0.0,0.0,-0.031156246759023887,0.0,-0.07483137623703183,-0.06659241270590945,-0.13145498457609686,-0.09359110402097282,-0.28068459492391273,0.0003763922375620217
3127,7.0,300.06277,847.43619,0.0,0.0,0.0,0.0,-0.031166213568607708,0.0,-0.03708757493800866,-0.07378087298385523,-0.14673099639622186,-0.07598051128144263,-0.29888667038281774,0.022773131383283077
3128,7.0,299.72915,530.99255,0.0,0.0,0.0,0.0,-0.031176180378191535,0.0,-0.07892598068613783,-0.06299641241901185,-0.01948608422412678,-0.07937014798672372,-0.2557680656898428,0.01275923840023879
3129,7.0,299.42435,546.66008,0.0,0.0,0.0,0.0,-0.031186147187775355,0.0,-0.05510608696904735,-0.04494518051574396,-0.06611974875951114,-0.06920247200950223,-0.25641161122585576,-0.0029871215831809472
3130,7.0,300.12079,702.997,0.0,0.0,0.0,0.0,-0.031196113997359172,0.0,-0.1048385256492569,-0.07799551413255792,-0.030859491343344675,-0.06672256062825403,-0.2711511577805358,0.004613464088763455
3131,7.0,299.51315,732.51075,0.0,0.0,0.0,0.0,-0.031206080806942992,0.0,-0.027614365380575677,-0.0912448798446685,-0.1038057299548279,-0.05172620076947854,-0.28858983034909874,-0.004463008506589646
3132,7.0,299.74811,895.6653699999999,0.0,0.0,0.0,0.0,-0.031216047616526812,0.0,-0.08837768502344841,-0.07604442709775064,-0.1078377966077619,-0.05236892759941075,-0.2660416009712618,-0.000999806044360674
3133,7.0,301.03536,866.68572,0.0,0.0,0.0,0.0,-0.03122601442611064,0.0,-0.04439317098051486,-0.10776523776810089,-0.11129241202870589,-0.07527000916557151,-0.2715384321012567,-0.027193336659273374
3134,7.0,299.93127999999996,392.55041,0.0,0.0,0.0,0.0,-0.03123598123569446,0.0,-0.07483761785764782,-0.026719781052787075,-0.017768123745827282,-0.08131132239580272,-0.27642238877576575,-0.03131930018572427
3135,7.0,299.27626000000004,626.8099,0.0,0.0,0.0,0.0,-0.03124594804527828,0.0,-0.07380197391718774,-0.06013184292880085,-0.05660074029755815,-0.08086872563287183,-0.2947828858878057,-0.02152919058001568
3136,7.0,298.31692000000004,945.01227,0.0,0.0,0.0,0.0,-0.0312559148548621,0.0,-0.1212147750904669,-0.08721144530409951,-0.07883391678205183,-0.08720229261594623,-0.25669864471418374,-0.03169076273863477
3137,7.0,298.95198,479.01167999999996,0.0,0.0,0.0,0.0,-0.03126588166444592,0.0,0.01061988240410079,-0.05226290313544695,-0.10396456704050391,-0.08624650392911723,-0.2947214829317457,-0.018022712965953282
3138,7.0,299.09268,176.23127,0.0,0.0,0.0,0.0,-0.03127584847402974,0.0,0.036379904856167065,-0.04057352410504506,-0.049376287349560156,-0.07519520395043884,-0.26028804266342975,-0.02231854381866878
3139,7.0,298.94397000000004,504.33941,0.0,0.0,0.0,0.0,-0.03128581528361356,0.0,-0.04135054710323126,-0.026784010976626072,-0.08517202920507481,-0.07396747616202153,-0.27999141026550073,0.03919968362570756
3140,7.0,298.70984,779.0742,0.0,0.0,0.0,0.0,-0.03129578209319738,0.0,-0.12286395108572787,-0.059824335708952237,-0.05413081449604545,-0.027091783668000875,-0.2628750424212467,0.014621991304578185
3141,7.0,299.35027,905.4341699999999,0.0,0.0,0.0,0.0,-0.0313057489027812,0.0,-0.11586243342473188,-0.08842023848789811,-0.07094671112914523,-0.08117137634499112,-0.2655993274351128,-0.0073209907565755334
3142,7.0,299.23508,1009.421,0.0,0.0,0.0,0.0,-0.03131571571236502,0.0,-0.13160146001055287,-0.08148130219282843,-0.09375600844824761,-0.08114220183486183,-0.27595721578735677,-0.001189414674311089
3143,7.0,299.67045,785.89157,0.0,0.0,0.0,0.0,-0.031325682521948846,0.0,-0.04917658183435075,-0.08520918305974162,-0.1045056527264049,-0.07310601194025164,-0.2889949581365817,0.0034533836127974265
3144,7.0,300.13548,593.39071,0.0,0.0,0.0,0.0,-0.03133564933153266,0.0,-0.026694408257032978,-0.06267283910557764,-0.09100871151136052,-0.08316072978307501,-0.27327863848550177,-0.0038694825683881964
3145,7.0,300.00551,769.29131,0.0,0.0,0.0,0.0,-0.031345616141116486,0.0,-0.07599945500531223,-0.05109171774235995,-0.10675417628831689,-0.05364278866488104,-0.28045720133647073,-0.008842555906417322
3146,7.0,300.24287000000004,716.7753799999999,0.0,0.0,0.0,0.0,-0.0313555829507003,0.0,-0.1013749024349239,-0.06279429435531435,-0.05371262490152335,-0.0998535986022829,-0.27498449569135675,0.015793606315707587
3147,7.0,300.62592,353.48211000000003,0.0,0.0,0.0,0.0,-0.03136554976028412,0.0,-0.04511910692190916,-0.02724784850140327,-0.035082778555150664,-0.07959082068625242,-0.27000312515223374,-0.01968523143853108
3148,7.0,301.39462000000003,582.16621,0.0,0.0,0.0,0.0,-0.03137551656986795,0.0,-0.05467517601951975,-0.07433968852000603,-0.047949126610210356,-0.08143391248565142,-0.2964863720884267,-0.002053234702563488
3149,7.0,300.68067,1018.8217,0.0,0.0,0.0,0.0,-0.03138548337945177,0.0,-0.031719665697737265,-0.13326744582497288,-0.14470924833919088,-0.05800745668964024,-0.2740013188543247,-0.048115381699868454
3150,7.0,299.9396,968.6311199999999,0.0,0.0,0.0,0.0,-0.03139545018903559,0.0,-0.06820179229024284,-0.12257424261713588,-0.1036636418933049,-0.06373830096998054,-0.26567884730296076,0.0055834012933638055
3151,7.0,299.13409,822.33663,0.0,0.0,0.0,0.0,-0.03140541699861941,0.0,-0.06513676545324824,-0.09564670476384482,-0.08918633054400552,-0.06719980142535403,-0.2703534057118038,0.01032435382693439
3152,7.0,299.59302,730.04447,0.0,0.0,0.0,0.0,-0.031415383808203225,0.0,-0.12417899772801289,-0.049216787598318754,-0.04851950130350195,-0.08319308184551792,-0.26528350751144375,0.02921591152838597
3153,7.0,300.38673,566.4751200000001,0.0,0.0,0.0,0.0,-0.031425350617787055,0.0,-0.06351219421016553,-0.05233011302783004,-0.056351982331757644,-0.048566932553933045,-0.2761342407123278,0.02191920371575698
3154,7.0,299.95761,676.32818,0.0,0.0,0.0,0.0,-0.03143531742737087,0.0,-0.06914679391650723,-0.07198522256738833,-0.06445486333469973,-0.06452716480883534,-0.2764145259549898,-0.005344908463001395
3155,7.0,300.06998,904.2562300000001,0.0,0.0,0.0,0.0,-0.031445284236954696,0.0,-0.045895250419008556,-0.05836924979684645,-0.17060681645258183,-0.06275803621373593,-0.28193114585943774,-0.0008081810163137562
3156,7.0,301.02222,570.94332,0.0,0.0,0.0,0.0,-0.03145525104653851,0.0,-0.06942300082751673,-0.03547159504252386,-0.06865791695525884,-0.07562106891446843,-0.27667171922787276,-0.024905432118974773
3157,7.0,300.7229,219.6129,0.0,0.0,0.0,0.0,-0.03146521785612233,0.0,-0.018272813488136284,-0.01305984437365629,-0.03542417899084426,-0.06718656432604764,-0.2923557972607707,-0.022565402953781875
3158,7.0,300.75088999999997,760.1668400000001,0.0,0.0,0.0,0.0,-0.03147518466570616,0.0,-0.13620641827002686,-0.054328071999013246,-0.04053724468521456,-0.05579538682657595,-0.29919080753283367,0.0015990119079851886
3159,7.0,299.76651,937.18579,0.0,0.0,0.0,0.0,-0.03148515147528998,0.0,-0.1118231422985849,-0.08096878104049653,-0.09208915529174201,-0.09127914593655032,-0.28409092897759175,0.01943852834393338
3160,7.0,298.39406,769.67044,0.0,0.0,0.0,0.0,-0.0314951182848738,0.0,-0.07688297970825933,-0.088089036414461,-0.06898857896639264,-0.09069715939711272,-0.28798286314169574,-0.011862754228512688
3161,7.0,299.31352000000004,821.91381,0.0,0.0,0.0,0.0,-0.03150508509445762,0.0,-0.013369219013439187,-0.09742393631999391,-0.13904811870548087,-0.07618763784038443,-0.26237154831405574,0.0063391156419470044
3162,7.0,299.48046,724.64391,0.0,0.0,0.0,0.0,-0.031515051904041434,0.0,-0.07233983983738634,-0.05701037502148595,-0.09092344043594491,-0.07030417884323223,-0.27385100320198974,0.012957681405823589
3163,7.0,300.25327000000004,639.79127,0.0,0.0,0.0,0.0,-0.03152501871362526,0.0,-0.05699206761867915,-0.07207857025935102,-0.06540993261395774,-0.043515182676114164,-0.2730384272842948,-0.0009401439228999811
3164,7.0,301.73582000000005,808.10551,0.0,0.0,0.0,0.0,-0.03153498552320908,0.0,-0.14191493761091387,-0.05007656475867215,-0.05365239934207954,-0.07276448687479574,-0.28394283234297574,-0.003103422429658947
3165,7.0,299.9138,668.02311,0.0,0.0,0.0,0.0,-0.031544952332792905,0.0,-0.06809414459961885,-0.06715318888100373,-0.06781501142232053,-0.07060195683562064,-0.2893687055684677,-0.028278773736147678
3166,7.0,299.5593,241.31238,0.0,0.0,0.0,0.0,-0.03155491914237672,0.0,0.01132264024945759,-0.04175021245942516,-0.04292536371340356,-0.05752129929166024,-0.2965788108950497,-0.04670228487190666
3167,7.0,300.92484,643.48324,0.0,0.0,0.0,0.0,-0.03156488595196054,0.0,0.02269538875611048,-0.09479213874875572,-0.12350608820410189,-0.07789921889605433,-0.2558516081605877,-0.048567904260778956
3168,7.0,299.00793,976.50858,0.0,0.0,0.0,0.0,-0.03157485276154436,0.0,-0.08521794058035592,-0.10204848070390089,-0.10956779956349989,-0.06908159937857303,-0.27361801647399575,-0.021479892922900378
3169,7.0,298.84422,799.48225,0.0,0.0,0.0,0.0,-0.031584819571128186,0.0,-0.09089191214583332,-0.07363975358942783,-0.07849097620620622,-0.09230160749320941,-0.25596107970139176,5.589211269437205e-05
3170,7.0,298.86336,529.77074,0.0,0.0,0.0,0.0,-0.031594786380712,0.0,-0.10775672646726091,-0.034949972877793764,-0.01833037723956738,-0.08048451740695342,-0.26429453488383975,0.018825929492474584
3171,7.0,299.04601,733.22916,0.0,0.0,0.0,0.0,-0.03160475319029583,0.0,-0.07585874192417492,-0.06522668937312304,-0.08179792359732652,-0.058460079562310654,-0.27618511599984874,0.05393349315832135
3172,7.0,300.41447,914.2397,0.0,0.0,0.0,0.0,-0.031614719999879644,0.0,-0.06748486211573734,-0.08081777536484341,-0.12960340174085988,-0.04990520998126075,-0.2888649784137537,0.012275422623239888
3173,7.0,300.15862000000004,830.6808,0.0,0.0,0.0,0.0,-0.03162468680946347,0.0,-0.03656886181431567,-0.07550302933081884,-0.14043432590228888,-0.07245893522764013,-0.29068632586600673,-0.0027347970783534576
3174,7.0,299.68252,684.19515,0.0,0.0,0.0,0.0,-0.03163465361904729,0.0,-0.08602931174368202,-0.037519827430668666,-0.08442910105950352,-0.06496707240600084,-0.3023157417687407,-0.0029784710617772074
3175,7.0,301.07243,568.66233,0.0,0.0,0.0,0.0,-0.03164462042863111,0.0,-0.08356981025919812,-0.02454934968933218,-0.06473998785983934,-0.08751049796511373,-0.26291929105311374,0.0002243651044831118
3176,7.0,300.35026,637.02287,0.0,0.0,0.0,0.0,-0.03165458723821493,0.0,-0.1114740979041369,-0.0891577072419306,0.006992760444356723,-0.06922739289571174,-0.2876675701080787,-0.02919456336202907
3177,7.0,299.80233,886.80791,0.0,0.0,0.0,0.0,-0.03166455404779875,0.0,-0.1035403901511409,-0.07242831176986785,-0.09359875304597771,-0.07789916316729882,-0.2785572459414597,-0.022556258371629376
3178,7.0,299.92877999999996,880.25089,0.0,0.0,0.0,0.0,-0.03167452085738257,0.0,-0.05756416585039085,-0.10341109943838091,-0.10659902743300491,-0.096932835274776,-0.28565127333658574,-0.005379908755905655
3179,7.0,299.60618999999997,378.17685,0.0,0.0,0.0,0.0,-0.031684487666966396,0.0,0.03234912097785967,-0.055966844955497544,-0.0913385953464175,-0.06394534950866465,-0.25254078306133476,-0.025377438466058177
3180,7.0,299.85966,561.07529,0.0,0.0,0.0,0.0,-0.03169445447655021,0.0,-0.046944001762762255,-0.05984695550418464,-0.06376192185631173,-0.05182185360541875,-0.2708471016905277,-0.006550747212158413
3181,7.0,298.34862000000004,943.94287,0.0,0.0,0.0,0.0,-0.03170442128613404,0.0,-0.0998024183264818,-0.09178484994220941,-0.09534779497109472,-0.055370870498429446,-0.2561765676001587,-0.01001905488435373
3182,7.0,298.28851000000003,571.2759599999999,0.0,0.0,0.0,0.0,-0.03171438809571785,0.0,-0.12693209957472287,-0.03190600441762747,-0.014815519033927884,-0.06614688967668973,-0.2910597591903617,0.023124363384696978
3183,7.0,299.05759,397.4801,0.0,0.0,0.0,0.0,-0.03172435490530168,0.0,-0.015763439833730384,-0.06471499908587314,-0.040345585389049254,-0.07749090545025693,-0.27255099319118875,-0.02346935984499548
3184,7.0,299.28951,607.5194799999999,0.0,0.0,0.0,0.0,-0.0317343217148855,0.0,-0.03223535730963207,-0.07962336121321392,-0.07281203566223843,-0.08422929624578432,-0.30056322439578076,-0.008695704657499232
3185,7.0,299.51034,692.5185299999999,0.0,0.0,0.0,0.0,-0.03174428852446932,0.0,0.004184194199097816,-0.08267263403765372,-0.13201990190434987,-0.07162248308458873,-0.2809082293534837,-0.028181009286999074
3186,7.0,300.21006,889.41486,0.0,0.0,0.0,0.0,-0.03175425533405314,0.0,-0.1065608481692369,-0.07157227046263313,-0.0922267911323256,-0.06225096229394165,-0.3089421441102157,-0.012669862648668088
3187,7.0,300.1858,1079.5394,0.0,0.0,0.0,0.0,-0.03176422214363696,0.0,-0.13955257540026686,-0.06307920711118305,-0.12552125013548288,-0.06677040528472594,-0.26403777730849975,0.016161318829997984
3188,7.0,300.28112000000004,804.32374,0.0,0.0,0.0,0.0,-0.03177418895322078,0.0,-0.15087647613284888,-0.06369171780988314,-0.02992613702697977,-0.08306851490472411,-0.28021016082958977,0.014890917000369087
3189,7.0,299.95033,524.6976099999999,0.0,0.0,0.0,0.0,-0.031784155762804606,0.0,-0.05294353362511994,-0.04857280433826255,-0.057978632764045544,-0.061813313231249035,-0.29496107605039174,0.012444496574676188
3190,7.0,299.05498,787.8910400000001,0.0,0.0,0.0,0.0,-0.03179412257238842,0.0,-0.08168379921206333,-0.05353621501936305,-0.1042791913290549,-0.06992224637703844,-0.2896446844982047,0.02960625397040977
3191,7.0,299.58806,818.98673,0.0,0.0,0.0,0.0,-0.031804089381972246,0.0,-0.050786216757709356,-0.07972241248998951,-0.11844288758690288,-0.07416487349350313,-0.2680078330553137,0.017864888117127182
3192,7.0,298.59362999999996,409.65225,0.0,0.0,0.0,0.0,-0.03181405619155606,0.0,-0.03231247982774347,-0.06861863020913153,-0.023592945959692475,-0.06992978799753273,-0.2638581888607758,-0.0071588512861736125
3193,7.0,298.45065,461.18327999999997,0.0,0.0,0.0,0.0,-0.03182402300113989,0.0,-0.06426559226902014,-0.06180741814216724,-0.014115191975560985,-0.10564339073369089,-0.26847920713433476,-0.028306025097587173
3194,7.0,299.34074,919.2536699999999,0.0,0.0,0.0,0.0,-0.031833989810723703,0.0,-0.13936614751436785,-0.07684863660936993,-0.06321538083187234,-0.08027226988200623,-0.27840896692182576,-0.005845687059924395
3195,7.0,300.5472,803.22925,0.0,0.0,0.0,0.0,-0.03184395662030753,0.0,-0.04903335994596586,-0.09302629207073022,-0.1021019803091809,-0.08891387569811632,-0.26341395975193377,-0.04047473728654556
3196,7.0,300.80091,660.30559,0.0,0.0,0.0,0.0,-0.031853923429891344,0.0,-0.034193967726431865,-0.07828289212591992,-0.08823955167706572,-0.06276002117068184,-0.2693545640282257,-0.03450090144672387
3197,7.0,299.87942999999996,709.68598,0.0,0.0,0.0,0.0,-0.03186389023947516,0.0,-0.00976948327872293,-0.07865615522425813,-0.1273011759236479,-0.048184836954473155,-0.29722288332111474,-0.04152998761644066
3198,7.0,299.65089,574.07201,0.0,0.0,0.0,0.0,-0.03187385704905899,0.0,-0.08560298271110661,-0.050777166407816154,-0.038123407342987366,-0.04735270328334795,-0.29552947895898873,0.001040994812913189
3199,7.0,300.66377,642.90254,0.0,0.0,0.0,0.0,-0.03188382385864281,0.0,-0.09281958702383,-0.060695925338971446,-0.04191080854727476,-0.03796463611856786,-0.2729146689170807,0.0007059071887876153
3200,7.0,299.77607,761.62328,0.0,0.0,0.0,0.0,-0.03189379066822663,0.0,-0.13957941639541588,-0.04446849295319855,-0.04746654801158355,-0.06496718386351184,-0.2927476312069417,0.023306612627183577
3201,7.0,299.63094,594.76117,0.0,0.0,0.0,0.0,-0.03190375747781045,0.0,-0.012611328203641187,-0.099268974572835,-0.06891224374360894,-0.09969049269393561,-0.2714131538588927,-0.012981122946887087
3202,7.0,300.63487000000003,676.79058,0.0,0.0,0.0,0.0,-0.031913724287394266,0.0,-0.05426359281564965,-0.04510027262905036,-0.10636356837476689,-0.07814558964461923,-0.28440756963384173,0.009631608209790721
3203,7.0,299.99699,1223.1493,0.0,0.0,0.0,0.0,-0.031923691096978096,0.0,-0.06713581873453943,-0.12136848513063687,-0.18330255649555383,-0.06054868388743984,-0.26103939801008275,-0.004973348638081295
3204,7.0,299.45569,1195.5352,0.0,0.0,0.0,0.0,-0.03193365790656191,0.0,-0.16113377914766583,-0.0959692911716816,-0.1063097647944569,-0.05625748054793104,-0.25031307165647676,0.02378684757832908
3205,7.0,299.29156,629.72167,0.0,0.0,0.0,0.0,-0.03194362471614574,0.0,-0.07192561002425503,-0.053833253339178454,-0.06566080117971654,-0.06857526209160143,-0.28371568193555774,-0.014021407572805185
3206,7.0,298.5874,451.71405,0.0,0.0,0.0,0.0,-0.031953591525729554,0.0,-0.08392967312496383,-0.02180382594012008,-0.03157629384833757,-0.09663062532645023,-0.3000920529667797,0.013835549133462384
3207,7.0,300.21255,557.78372,0.0,0.0,0.0,0.0,-0.03196355833531337,0.0,-0.03895973789602676,-0.028077493630282876,-0.1025150925074519,-0.09255759905147382,-0.28370245902175273,0.014612779847919087
3208,7.0,300.63987000000003,545.61856,0.0,0.0,0.0,0.0,-0.0319735251448972,0.0,-0.03745469470099057,-0.050827927198075856,-0.07757179624549022,-0.05574052845291185,-0.26932548375035575,0.004439789171273076
3209,7.0,300.34937,685.10023,0.0,0.0,0.0,0.0,-0.03198349195448102,0.0,0.0035892229609537263,-0.10561246634063891,-0.10623012333659688,-0.07516326630728684,-0.28854286620696373,-0.027779781499150974
3210,7.0,300.43872000000005,818.96117,0.0,0.0,0.0,0.0,-0.03199345876406484,0.0,-0.1020663645681659,-0.07182785165460703,-0.07504953404981232,-0.07001314200375913,-0.28663178532585476,0.014778186847243484
3211,7.0,300.52486,702.1343400000001,0.0,0.0,0.0,0.0,-0.03200342557364866,0.0,-0.05762256451990435,-0.0994534327005396,-0.05635530883183594,-0.05076844536420545,-0.29097752381224573,-0.02930980232240227
3212,7.0,300.4734,842.02982,0.0,0.0,0.0,0.0,-0.032013392383232475,0.0,-0.1163149205218889,-0.08025146988395343,-0.05938964837630194,-0.05727813345316164,-0.27780918365763174,-0.015470292394298986
3213,7.0,299.68705,872.3475,0.0,0.0,0.0,0.0,-0.032023359192816306,0.0,-0.04522310083267255,-0.0945526054118656,-0.12539615427813688,-0.06485908021034284,-0.2974985582758217,-0.025304597942869378
3214,7.0,299.72629,391.36918,0.0,0.0,0.0,0.0,-0.03203332600240012,0.0,-0.007567388862893133,-0.04842269640219805,-0.06297637134528394,-0.09116510869079572,-0.29336066778244374,-0.025237217824469475
3215,7.0,299.61659,136.31425,0.0,0.0,0.0,0.0,-0.032043292811983946,0.0,0.03919363958886106,-0.007874632232415692,-0.07275513457637273,-0.07652440569662083,-0.2691263801057057,-0.04028344985316697
3216,7.0,299.04021,603.89273,0.0,0.0,0.0,0.0,-0.03205325962156776,0.0,-0.1058745333465029,-0.03592270209304466,-0.04177107629223426,-0.0935329414387326,-0.2629149948726897,0.005062953890799645
3217,7.0,298.97406,689.25148,0.0,0.0,0.0,0.0,-0.03206322643115158,0.0,-0.08100676474699522,-0.060035283234021145,-0.06847319234277793,-0.06819222619604873,-0.28117553486236474,-0.025808224785823473
3218,7.0,299.88172000000003,678.53083,0.0,0.0,0.0,0.0,-0.032073193240735404,0.0,-0.11966667079268088,-0.04078138729680956,-0.04580836726268386,-0.06634062309580974,-0.3085251308990597,0.02013429172384988
3219,7.0,300.19721,1063.9996,0.0,0.0,0.0,0.0,-0.03208316005031923,0.0,-0.09892626603126231,-0.10213124297206891,-0.12237181551215788,-0.07040458280889134,-0.29045609517828475,-0.012716483299019189
3220,7.0,301.01201000000003,1135.4766,0.0,0.0,0.0,0.0,-0.032093126859903044,0.0,-0.11691991189159688,-0.0972851403080458,-0.13095147020390388,-0.04841769297320425,-0.28629165753228675,0.031333562694131865
3221,7.0,300.49224,768.21523,0.0,0.0,0.0,0.0,-0.03210309366948687,0.0,-0.05508692235665595,-0.07812895207797722,-0.10030237112457331,-0.037418490261667464,-0.28957560110638675,-0.01990174474639928
3222,7.0,300.44301,630.28052,0.0,0.0,0.0,0.0,-0.032113060479070685,0.0,-0.07553256861098413,-0.06752754831595013,-0.048529424061731254,-0.06118854119308885,-0.2740886711454458,0.015218630453711886
3223,7.0,300.17058,544.28399,0.0,0.0,0.0,0.0,-0.03212302728865451,0.0,-0.053261752925025746,-0.04827750272911855,-0.06390948754787534,-0.06909142081179233,-0.29852782785990273,-0.02034205055085408
3224,7.0,299.72289,365.29767000000004,0.0,0.0,0.0,0.0,-0.03213299409823833,0.0,-0.04646244046723586,-0.03575851909984107,-0.02882040961685297,-0.09291524695252092,-0.28285918162602774,-0.007706250938747753
3225,7.0,299.93993,559.35429,0.0,0.0,0.0,0.0,-0.03214296090782215,0.0,-0.03585655712651667,-0.05363408687302225,-0.08053909308383962,-0.09297381584805121,-0.3120967260440487,-0.040195295067966756
3226,7.0,299.67761,815.52955,0.0,0.0,0.0,0.0,-0.032152927717405966,0.0,-0.07455631024563493,-0.06515039873334373,-0.1081939134879079,-0.07287573362977492,-0.2925495712098947,0.0007001277014097244
3227,7.0,298.69212999999996,760.13883,0.0,0.0,0.0,0.0,-0.03216289452698979,0.0,-0.04723869744834645,-0.1025881174421589,-0.08123640470990892,-0.08377380486208082,-0.2774298836151977,-0.013863340557205185
3228,7.0,299.44096,873.4238300000001,0.0,0.0,0.0,0.0,-0.03217286133657361,0.0,-0.1289219505186059,-0.07142772425636752,-0.06514935508574074,-0.07090882469465613,-0.26707637250338573,-0.005064230484600635
3229,7.0,299.34212,1047.3721,0.0,0.0,0.0,0.0,-0.03218282814615744,0.0,-0.11852427183493489,-0.09599426373364622,-0.1038564329898319,-0.08717174109893101,-0.29684953105676776,0.013387183937712186
3230,7.0,299.17323999999996,733.29294,0.0,0.0,0.0,0.0,-0.032192794955741254,0.0,-0.07547678311347852,-0.10218189534456791,-0.045244071056742156,-0.09131215661155823,-0.2996620701543437,-0.01034366333409009
3231,7.0,298.91567000000003,480.0636,0.0,0.0,0.0,0.0,-0.03220276176532507,0.0,0.001981426073276528,-0.06432998431287514,-0.08357878968158433,-0.08322562135922933,-0.3024472008367147,-0.023100473987089278
3232,7.0,299.72011000000003,719.9673799999999,0.0,0.0,0.0,0.0,-0.032212728574908894,0.0,-0.05884692527823935,-0.08984866578987291,-0.07015651689290914,-0.07578787825193123,-0.2674304527508307,-0.017814278301132382
3233,7.0,300.04235,536.5460099999999,0.0,0.0,0.0,0.0,-0.03222269538449272,0.0,-0.032336874837151065,-0.03758219500082386,-0.09317751964815521,-0.05582728191322374,-0.2709035599860998,-0.028981142493466075
3234,7.0,300.45845,439.61071,0.0,0.0,0.0,0.0,-0.03223266219407654,0.0,-0.04816018255303996,-0.04240745105728956,-0.04306304413699155,-0.06461767033426755,-0.26809141605606274,-0.005224968123489206
3235,7.0,300.94006,760.5182599999999,0.0,0.0,0.0,0.0,-0.03224262900366036,0.0,-0.062350497904265036,-0.08307292760890962,-0.08575513639912302,-0.07757071713413372,-0.27165119670488574,-0.006466503471019204
3236,7.0,299.6905,857.2687199999999,0.0,0.0,0.0,0.0,-0.03225259581324418,0.0,-0.1109120379411659,-0.04981773913987805,-0.09985851286526791,-0.08310180219700931,-0.28214236797528375,0.026406142656583375
3237,7.0,300.89159,780.3625900000001,0.0,0.0,0.0,0.0,-0.032262562622828,0.0,-0.07510617169065202,-0.05460807454489735,-0.1074964934440779,-0.0983505282051914,-0.3112459100675797,-0.02397274756092598
3238,7.0,300.50813,853.0351400000001,0.0,0.0,0.0,0.0,-0.03227252943241182,0.0,-0.09147950094507382,-0.06326188495846194,-0.1045599933292679,-0.07515098774257503,-0.3116082483033397,0.012356609287502388
3239,7.0,299.7133,816.5717099999999,0.0,0.0,0.0,0.0,-0.03228249624199565,0.0,-0.07746752065119902,-0.07097943201462452,-0.09977045839182759,-0.08093304877572001,-0.2885327742359677,0.006705809130611834
3240,7.0,299.01052000000004,625.30883,0.0,0.0,0.0,0.0,-0.03229246305157946,0.0,-0.08988827069653162,-0.06374622863876295,-0.036443772036470264,-0.05020310247091045,-0.2524420215740878,0.0013301838895039286
3241,7.0,300.44552999999996,605.08335,0.0,0.0,0.0,0.0,-0.03230242986116329,0.0,-0.057634400294322444,-0.052115001044850146,-0.07418082914282784,-0.1009469724671905,-0.2737172035262847,0.014530268865775886
3242,7.0,299.388,672.9354,0.0,0.0,0.0,0.0,-0.032312396670747104,0.0,-0.05549192450112654,-0.06509984565935453,-0.08396378722933062,-0.1087750833477649,-0.2673914122244777,0.021555880600899777
3243,7.0,300.80075,707.52967,0.0,0.0,0.0,0.0,-0.03232236348033093,0.0,-0.0076541312787789416,-0.07770685133806912,-0.12971037055391688,-0.07247686975441013,-0.27372617078966976,-0.005402565838741735
3244,7.0,300.34812,649.22991,0.0,0.0,0.0,0.0,-0.03233233028991475,0.0,-0.03922052820676476,-0.07208072746881393,-0.08604842670681852,-0.06443742935347914,-0.25478807045812474,-0.04828320935368175
3245,7.0,300.33285,778.9458,0.0,0.0,0.0,0.0,-0.03234229709949857,0.0,-0.06138160890689314,-0.08628920431483142,-0.08910926071489933,-0.05968684780288324,-0.3025622959155737,-0.025859211530855478
3246,7.0,300.59868,632.79422,0.0,0.0,0.0,0.0,-0.03235226390908239,0.0,-0.07686601587508513,-0.06270773949202203,-0.052779885627969154,-0.09222518006466661,-0.32306599937413166,-0.048983981228842545
3247,7.0,300.61298,514.0882799999999,0.0,0.0,0.0,0.0,-0.03236223071866621,0.0,-0.03497593437185597,-0.06975547250332913,-0.05153859447371325,-0.07824243507592712,-0.29376852121269575,-0.006214810727629064
3248,7.0,300.11823,706.73193,0.0,0.0,0.0,0.0,-0.03237219752825003,0.0,-0.05032952669913755,-0.08618621048191673,-0.07831312142940333,-0.08280340308230962,-0.28289935699249275,-0.026949237617432675
3249,7.0,299.70951,795.88985,0.0,0.0,0.0,0.0,-0.03238216433783385,0.0,-0.06356312725294223,-0.06877327142614342,-0.1095942453911099,-0.06490791683866264,-0.2912425292433997,0.0019274394999984682
3250,7.0,298.88364,615.77497,0.0,0.0,0.0,0.0,-0.03239213114741767,0.0,-0.045607367827096755,-0.07337382204768243,-0.06819902307771954,-0.07533407595614443,-0.2925465517245967,-0.037909325835359164
3251,7.0,299.84177999999997,858.18797,0.0,0.0,0.0,0.0,-0.03240209795700149,0.0,-0.1013903342339469,-0.06396053002166284,-0.09551685068402921,-0.05573377210124504,-0.2697630760710427,0.016656972407915183
3252,7.0,300.15359,980.5966199999999,0.0,0.0,0.0,0.0,-0.032412064766585306,0.0,-0.12053151015053389,-0.09206711608881692,-0.0854782566900471,-0.060497985918686346,-0.2647058130994297,0.0014694252248709787
3253,7.0,299.43018,667.15252,0.0,0.0,0.0,0.0,-0.03242203157616914,0.0,-0.06901908286065314,-0.054852341786254644,-0.07892628263466762,-0.08432174113190792,-0.2976330368290937,0.04008776896735476
3254,7.0,301.01769,642.77983,0.0,0.0,0.0,0.0,-0.032431998385752954,0.0,-0.06951113129471452,-0.02986887826382877,-0.09600900854910141,-0.08967453774693783,-0.2999246437852577,0.029026045684897677
3255,7.0,300.55178,750.17449,0.0,0.0,0.0,0.0,-0.03244196519533678,0.0,-0.04678437839500866,-0.06312833150253125,-0.1181216062451949,-0.07106006544433244,-0.28351112700536973,0.020059240288942883
3256,7.0,299.68624,661.0065,0.0,0.0,0.0,0.0,-0.032451932004920594,0.0,-0.06688442226547853,-0.06090794285614594,-0.07313710351957013,-0.07291947968959234,-0.2680250481745128,-0.02916590662270087
3257,7.0,300.03496,864.78934,0.0,0.0,0.0,0.0,-0.03246189881450441,0.0,-0.100507612025079,-0.07617911438054323,-0.08618763713805751,-0.06901847795034344,-0.3054196004025677,-0.017969314685683285
3258,7.0,298.21557,661.9119099999999,0.0,0.0,0.0,0.0,-0.03247186562408824,0.0,-0.09758608065399631,-0.058675363797807537,-0.044943249261053364,-0.07466822675893023,-0.31963745487826073,-0.024719012339076578
3259,7.0,298.89013,379.52111,0.0,0.0,0.0,0.0,-0.03248183243367206,0.0,-0.04692266372890636,-0.01794675061920638,-0.050495527463020544,-0.04704652544763055,-0.29258057666295473,0.0058043343981682045
3260,7.0,300.52497,541.65521,0.0,0.0,0.0,0.0,-0.03249179924325588,0.0,-0.03324551902332727,-0.07773408851400722,-0.053670052185321754,-0.07939639927031453,-0.28822976179356274,-0.025135561481686775
3261,7.0,300.1135,788.81223,0.0,0.0,0.0,0.0,-0.0325017660528397,0.0,-0.05057764834387525,-0.08426189959425201,-0.1049396784067399,-0.07919460443339892,-0.3054007843482107,-0.003374213316233927
3262,7.0,298.8894,774.51965,0.0,0.0,0.0,0.0,-0.032511732862423516,0.0,-0.05791781445329325,-0.08859896060678661,-0.0889178608107596,-0.08458405030454581,-0.2977776985458707,-0.03468504850664777
3263,7.0,300.62391,636.30508,0.0,0.0,0.0,0.0,-0.03252169967200735,0.0,-0.07432629943318464,-0.07406463468761033,-0.045029921661357254,-0.04352000270683986,-0.2820535667365197,-0.01857820808152638
3264,7.0,300.97218,672.31621,0.0,0.0,0.0,0.0,-0.032531666481591164,0.0,-0.06155962175071165,-0.08742486515941242,-0.05538285420736215,-0.06613334353610284,-0.27275129247095675,-0.018957783727987582
3265,7.0,301.52733,705.36648,0.0,0.0,0.0,0.0,-0.03254163329117499,0.0,-0.06958090470985064,-0.08028706535996642,-0.06454582786242724,-0.0967291020904191,-0.3050993221784587,0.003977014545850776
3266,7.0,300.33807,588.90703,0.0,0.0,0.0,0.0,-0.032551600100758804,0.0,-0.029535557484432574,-0.07394863781616233,-0.07552883782411593,-0.061255211023168644,-0.30374414069971273,-0.003286811375858027
3267,7.0,299.20068,614.3093700000001,0.0,0.0,0.0,0.0,-0.03256156691034262,0.0,-0.058367499913923745,-0.04596248766914436,-0.08240472057871272,-0.07882003322918163,-0.28406655018018573,0.0005706005366063884
3268,7.0,299.80537000000004,699.16624,0.0,0.0,0.0,0.0,-0.03257153371992645,0.0,-0.07938412070560273,-0.07156141146131144,-0.06158354458557264,-0.052270246158921646,-0.2703068164722058,-0.026005250254518376
3269,7.0,300.49447000000004,734.22898,0.0,0.0,0.0,0.0,-0.03258150052951027,0.0,-0.08138177164875553,-0.07887269588987902,-0.06293280767048454,-0.11577824247392289,-0.3150339151689267,-0.005218616565237355
3270,7.0,299.87774,958.13099,0.0,0.0,0.0,0.0,-0.03259146733909409,0.0,-0.12377665637830489,-0.08322675923909162,-0.08424448385153321,-0.08994534606141452,-0.2854983333664917,0.016151993889327684
3271,7.0,298.97927999999996,916.5550800000001,0.0,0.0,0.0,0.0,-0.03260143414867791,0.0,-0.11172734963413089,-0.06462476207171744,-0.1022577371145529,-0.09419973903804041,-0.26523036254369875,0.03929781588464246
3272,7.0,299.3648,650.39577,0.0,0.0,0.0,0.0,-0.032611400958261726,0.0,-0.036881025931623866,-0.07115627658107773,-0.08966677118492132,-0.05025842187337005,-0.24776376480237974,0.00990898410744059
3273,7.0,299.54202000000004,649.9541,0.0,0.0,0.0,0.0,-0.03262136776784555,0.0,-0.03031384197899327,-0.07331665245054023,-0.09393932160333922,-0.07796442761948992,-0.2813719331292477,-0.0035820776225735365
3274,7.0,300.58291,757.69509,0.0,0.0,0.0,0.0,-0.03263133457742937,0.0,-0.06874384866973964,-0.0832794067010375,-0.07829713335607542,-0.07143920438000052,-0.2910517747795737,-0.025531098856973272
3275,7.0,300.6059,569.29157,0.0,0.0,0.0,0.0,-0.03264130138701319,0.0,-0.08155815619966332,-0.05584044909827324,-0.03565181778481046,-0.04464850595271446,-0.28082789888555576,-0.02153238535758098
3276,7.0,299.19369,319.67477,0.0,0.0,0.0,0.0,-0.03265126819659701,0.0,-0.038056925977426166,-0.04665656702739466,-0.012459654796172188,-0.07581564333117143,-0.28508411672561174,-0.04306971638890006
3277,7.0,298.93172999999996,599.92661,0.0,0.0,0.0,0.0,-0.03266123500618083,0.0,-0.046569609903812655,-0.07030241477480813,-0.06549068560717744,-0.08254589772839584,-0.3129956308702637,-0.0060659053167832445
3278,7.0,299.58157,689.60964,0.0,0.0,0.0,0.0,-0.032671201815764654,0.0,-0.01747021605742608,-0.07541782006365934,-0.11673607792595388,-0.11282878289033389,-0.3032118398921787,-0.035157835056308165
3279,7.0,300.53735,736.17562,0.0,0.0,0.0,0.0,-0.03268116862534848,0.0,-0.05200861282410044,-0.08680142757163392,-0.08496896476578392,-0.08907061231633501,-0.27632941294658975,-0.025191927571499677
3280,7.0,301.69737000000003,908.7091800000001,0.0,0.0,0.0,0.0,-0.032691135434932295,0.0,-0.07376543105233123,-0.1028716045551369,-0.0995878605913066,-0.06938718446298194,-0.2733930445542927,-0.038594600050240464
3281,7.0,300.47069,768.59819,0.0,0.0,0.0,0.0,-0.03270110224451611,0.0,-0.09653144536691191,-0.07920008105018943,-0.057903131446094144,-0.06626195638454593,-0.2891011467470617,-0.0026369842971750877
3282,7.0,299.63597000000004,615.73679,0.0,0.0,0.0,0.0,-0.032711069054099935,0.0,-0.07573627443758833,-0.06893860851121093,-0.04249372626355426,-0.07254486795537103,-0.2745633180222898,-0.009243887755050691
3283,7.0,300.02342999999996,868.2103,0.0,0.0,0.0,0.0,-0.03272103586368376,0.0,-0.1004681611324355,-0.06373604547525794,-0.09971004436786521,-0.06539316839105323,-0.2680871502731417,0.04976686587885725
3284,7.0,299.69768999999997,840.19259,0.0,0.0,0.0,0.0,-0.03273100267326758,0.0,-0.038459323055889665,-0.09492556453517381,-0.12201267914671388,-0.09145023726893571,-0.26858235599451474,0.006188360543043635
3285,7.0,298.99503,577.424,0.0,0.0,0.0,0.0,-0.0327409694828514,0.0,-0.038986536334671563,-0.07142931911202494,-0.06510662126277324,-0.07214772761842633,-0.31407448891423867,0.011801609651228189
3286,7.0,299.49197000000004,572.5335,0.0,0.0,0.0,0.0,-0.032750936292435216,0.0,-0.05678341915808715,-0.04799071444731475,-0.06926175220660273,-0.07212828841525784,-0.3021558813004637,-0.022996003848778878
3287,7.0,299.38926000000004,859.4327900000001,0.0,0.0,0.0,0.0,-0.03276090310201904,0.0,-0.13879132060013685,-0.05445980160476395,-0.06799498287858234,-0.05677416514492385,-0.2872106348429827,0.00015414798712822184
3288,7.0,300.64587,888.11305,0.0,0.0,0.0,0.0,-0.032770869911602864,0.0,-0.11148031925975091,-0.06351170481036723,-0.09497216289402272,-0.08791532481731701,-0.2903063672110077,-0.01032460815270949
3289,7.0,300.60834,808.83865,0.0,0.0,0.0,0.0,-0.03278083672118669,0.0,-0.07555643470383952,-0.06377763128586214,-0.1065326899489579,-0.08306726962035121,-0.28574445181578173,0.004342363350307896
3290,7.0,300.47494,837.1192900000001,0.0,0.0,0.0,0.0,-0.032790803530770504,0.0,-0.03964047984321076,-0.0953554774333529,-0.1194674050280149,-0.11275309310786388,-0.27932717416244573,0.014431043309983087
3291,7.0,300.19711,782.8444099999999,0.0,0.0,0.0,0.0,-0.03280077034035432,0.0,-0.06981457436841203,-0.07199068499867743,-0.0961598936479926,-0.09060214389548542,-0.24177397736623377,0.00891293990606368
3292,7.0,300.53256,882.1755699999999,0.0,0.0,0.0,0.0,-0.032810737149938145,0.0,-0.07966590454516262,-0.10061498309842572,-0.08787845669917842,-0.08115968951833773,-0.26973028729780674,-0.011967908310640589
3293,7.0,300.89623,915.39453,0.0,0.0,0.0,0.0,-0.03282070395952197,0.0,-0.10564554895640389,-0.09626738529810121,-0.07634414546408053,-0.07878096129207553,-0.2901212869477417,-0.016205207758079484
3294,7.0,301.04323999999997,607.49895,0.0,0.0,0.0,0.0,-0.03283067076910579,0.0,-0.05119095241740365,-0.06478277538506214,-0.06869078476200265,-0.06030595577298444,-0.29510135039423574,0.0032600751507693665
3295,7.0,300.81195,405.57302999999996,0.0,0.0,0.0,0.0,-0.03284063757868961,0.0,0.000966241141813076,-0.08528553449452693,-0.038964779828524365,-0.057432657133161945,-0.3041445062117257,-0.02234714381599138
3296,7.0,299.43981,614.76906,0.0,0.0,0.0,0.0,-0.032850604388273426,0.0,-0.031392073834406474,-0.05775885172460484,-0.09772351688431022,-0.05093719507560975,-0.3044480151466797,0.01212069122696909
3297,7.0,299.2025,822.63816,0.0,0.0,0.0,0.0,-0.03286057119785725,0.0,-0.09388901272262411,-0.08230176119630142,-0.07387068747271923,-0.08732078005614001,-0.3101067332451517,-0.028620643306637578
3298,7.0,299.80957,950.60738,0.0,0.0,0.0,0.0,-0.03287053800744107,0.0,-0.0889321577696706,-0.11941401688024589,-0.08061473321705472,-0.05465583206186065,-0.2937517012610357,-0.03090480996731727
3299,7.0,301.02602,808.4508599999999,0.0,0.0,0.0,0.0,-0.03288050481702489,0.0,-0.1168513756548329,-0.054465071518534046,-0.07443242319565822,-0.0904536085235761,-0.2942551345732207,-0.009176122398962771
3300,7.0,300.17951,712.87298,0.0,0.0,0.0,0.0,-0.032890471626608714,0.0,-0.08079915588100584,-0.05738532214149035,-0.07851110644594292,-0.07125985505930013,-0.3154308558956017,-0.013253136015732688
3301,7.0,298.95735,727.704,0.0,0.0,0.0,0.0,-0.03290043843619253,0.0,-0.09711281179728831,-0.04212409465357446,-0.08196693979350712,-0.08477366283550912,-0.29701592698818974,0.0053362703032488745
3302,7.0,299.3157,760.1154,0.0,0.0,0.0,0.0,-0.032910405245776354,0.0,-0.05912023429396285,-0.04874497478200445,-0.12319089649549489,-0.06763134058994363,-0.26890758901161277,0.015563290514977183
3303,7.0,300.04547,760.97092,0.0,0.0,0.0,0.0,-0.03292037205536018,0.0,-0.09018563730937941,-0.07901887545530582,-0.06211164547144214,-0.060943909181695545,-0.2393743275519068,0.023081764323992775
3304,7.0,298.73275,443.29742000000005,0.0,0.0,0.0,0.0,-0.032930338864943995,0.0,-0.030738817309435073,-0.04374146979444696,-0.06027105842629035,-0.06672121300562103,-0.27032107290111274,-0.008833476577571261
3305,7.0,298.86745,566.89175,0.0,0.0,0.0,0.0,-0.03294030567452782,0.0,-0.10003315158625341,-0.047729596856794454,-0.024558190296454677,-0.08864033059511951,-0.27976322634298073,-0.015797624865604185
3306,7.0,299.79447999999996,902.21372,0.0,0.0,0.0,0.0,-0.032950272484111635,0.0,-0.07262387106566803,-0.0932321966500514,-0.1083943748876919,-0.08555991046260573,-0.3060996432071827,-0.018455858131951382
3307,7.0,299.76395,773.30177,0.0,0.0,0.0,0.0,-0.03296023929369545,0.0,-0.06396400850925614,-0.08023896131146892,-0.09086145891407782,-0.08254978151602912,-0.30149385408262674,-0.029691152169788574
3308,7.0,300.09359,461.88178,0.0,0.0,0.0,0.0,-0.03297020610327928,0.0,-0.0027630634124181275,-0.059529647116118745,-0.07810781669414132,-0.07013460637274672,-0.3029285351642187,-0.03575833570157297
3309,7.0,300.45762,543.45009,0.0,0.0,0.0,0.0,-0.0329801729128631,0.0,-0.07512961424496563,-0.04793857259716875,-0.04212706854261796,-0.07992316469255221,-0.3039367190137187,-0.03649579330985436
3310,7.0,300.38355,611.71495,0.0,0.0,0.0,0.0,-0.03299013972244692,0.0,-0.05839965743234744,-0.04489457576599966,-0.08265183505285102,-0.05193676224625936,-0.28301934606933477,-0.014585205259697687
3311,7.0,300.02378,532.82303,0.0,0.0,0.0,0.0,-0.03300010653203074,0.0,-0.07882185201311112,-0.05977913766174154,-0.02336390786733818,-0.07485063913468293,-0.27735809484561275,-0.01997158199629168
3312,7.0,300.96345,598.9169099999999,0.0,0.0,0.0,0.0,-0.03301007334161456,0.0,-0.024898405229531274,-0.05577694770125615,-0.1013804347804699,-0.061900180175572146,-0.3053256214557927,0.013485845113199288
3313,7.0,300.04281000000003,705.85925,0.0,0.0,0.0,0.0,-0.03302004015119839,0.0,-0.07391576494316802,-0.08440570004844401,-0.056242120689665144,-0.06694543309374984,-0.29429901843505174,0.0002874472794038377
3314,7.0,299.87268,819.52616,0.0,0.0,0.0,0.0,-0.033030006960782204,0.0,-0.05681944121239225,-0.07696251680135902,-0.1153335270050329,-0.06365303496081544,-0.27723285713325274,-0.004360349147532956
3315,7.0,300.28376000000003,1030.9867,0.0,0.0,0.0,0.0,-0.03303997377036603,0.0,-0.11800703805638789,-0.09034934812803641,-0.10503783194392691,-0.09762284542062472,-0.2608461712160127,0.0017825333872973485
3316,7.0,300.61212,1119.5451,0.0,0.0,0.0,0.0,-0.033049940579949845,0.0,-0.10341462554872889,-0.10690334696803891,-0.12999579297458588,-0.11627025645748089,-0.3099184612440707,-0.02233604568764608
3317,7.0,300.2478,777.48663,0.0,0.0,0.0,0.0,-0.03305990738953366,0.0,-0.11541247945282489,-0.05877918038980345,-0.062144864875970644,-0.09160534356774351,-0.28815352485603873,0.00044877618012326056
3318,7.0,301.39737,608.61043,0.0,0.0,0.0,0.0,-0.03306987419911749,0.0,-0.02327081247465038,-0.05165639391708915,-0.11007516428607289,-0.07676503030386864,-0.29916376388766475,0.004384683767234596
3319,7.0,300.07277,654.2276400000001,0.0,0.0,0.0,0.0,-0.03307984100870131,0.0,-0.052024004093119455,-0.03379491437329837,-0.11304994498966091,-0.044851063766955364,-0.2857312390344777,0.005091619445403715
3320,7.0,299.21022999999997,632.02704,0.0,0.0,0.0,0.0,-0.03308980781828513,0.0,-0.04652827132623286,-0.04619662139625155,-0.0993955447090765,-0.06786147299240593,-0.3212376908936917,0.006775621150576744
3321,7.0,299.26743,500.20887,0.0,0.0,0.0,0.0,-0.03309977462786895,0.0,-0.07777200129299892,-0.047317910301414155,-0.02696109365685277,-0.05272813793211205,-0.3165824754292577,-0.018863210003403883
3322,7.0,300.00813999999997,611.6714900000001,0.0,0.0,0.0,0.0,-0.03310974143745277,0.0,-0.08394425379390281,-0.042705282751933256,-0.059283323990308535,-0.049693485293365154,-0.29993579966885875,0.006524093262977874
3323,7.0,299.37397999999996,822.72382,0.0,0.0,0.0,0.0,-0.0331197082470366,0.0,-0.1015289975101319,-0.08468576034958382,-0.06387274507274913,-0.05687254970313364,-0.27891143764641574,-0.03803079729709746
3324,7.0,299.24851,958.16741,0.0,0.0,0.0,0.0,-0.033129675056620414,0.0,-0.04352416209850036,-0.1258602430889389,-0.12187456302558287,-0.09501906624115172,-0.2755160872238207,-0.006861479911050343
3325,7.0,300.7654,793.5567599999999,0.0,0.0,0.0,0.0,-0.03313964186620424,0.0,-0.042628762104381254,-0.1032433153543219,-0.0953493675352499,-0.09110947923380551,-0.2773688251641717,-0.04193465944137866
3326,7.0,301.72548,536.85063,0.0,0.0,0.0,0.0,-0.033149608675788055,0.0,-0.027445868981696375,-0.06648589681564714,-0.06925742157567534,-0.0920684758704511,-0.2631644367823077,0.011165336211182889
3327,7.0,301.01331,376.40229,0.0,0.0,0.0,0.0,-0.03315957548537187,0.0,-0.03575014357451447,-0.05594931674201765,-0.022717436065036376,-0.09517402257894471,-0.27420190184412074,-0.01996216586311238
3328,7.0,300.67725,586.52079,0.0,0.0,0.0,0.0,-0.033169542294955695,0.0,-0.044332587743785755,-0.06269581455159515,-0.07125927244049263,-0.1011114634884245,-0.3072198013252337,-0.0024200578872411176
3329,7.0,299.63346,837.83105,0.0,0.0,0.0,0.0,-0.03317950910453952,0.0,-0.08265971408562862,-0.08875942091912283,-0.08326058254067972,-0.09793553237498451,-0.29721234552007475,-0.02362114167022518
3330,7.0,299.5123,779.51615,0.0,0.0,0.0,0.0,-0.033189475914123336,0.0,-0.04593502251193375,-0.07121308444793424,-0.11980533406886588,-0.07210427945413833,-0.27386250359062475,-0.0030741017075402166
3331,7.0,300.22936,684.75216,0.0,0.0,0.0,0.0,-0.03319944272370715,0.0,-0.09076619009992551,-0.06329343351357554,-0.054087934765063544,-0.06628844780841044,-0.2830814785654667,-4.401872440605986e-05
3332,7.0,299.60974,881.1156800000001,0.0,0.0,0.0,0.0,-0.033209409533290976,0.0,-0.08307931108453963,-0.08690646614325043,-0.09785138904693022,-0.06623962131259165,-0.3193678999541577,-0.007521677199206743
3333,7.0,299.88972,1053.2556,0.0,0.0,0.0,0.0,-0.0332193763428748,0.0,-0.15691101882591185,-0.09922291121003891,-0.06402946345246603,-0.07891504467780852,-0.3106971135484177,-0.0043870112027142956
3334,7.0,301.1323,902.5486,0.0,0.0,0.0,0.0,-0.033229343152458624,0.0,-0.09930744666588191,-0.08463837773515752,-0.09040641234716822,-0.05427143233167335,-0.2903794630732217,-0.0024544118279065876
3335,7.0,299.84315,609.7484599999999,0.0,0.0,0.0,0.0,-0.03323930996204244,0.0,-0.08124350050035922,-0.04448156286623846,-0.05962324508085614,-0.07139034343367834,-0.2718630166382907,0.013607711742476589
3336,7.0,300.1437,587.6048599999999,0.0,0.0,0.0,0.0,-0.03324927677162626,0.0,0.006146001825263155,-0.08361533457294101,-0.10114787159101771,-0.0937939739162445,-0.25842892124744876,0.004099104090150076
3337,7.0,299.63444,498.65675999999996,0.0,0.0,0.0,0.0,-0.03325924358121008,0.0,-0.046668384563310954,-0.04733348395545116,-0.05757733404869045,-0.12093105492996588,-0.2773672140965127,0.007290673705633472
3338,7.0,300.00356,650.24551,0.0,0.0,0.0,0.0,-0.033269210390793905,0.0,-0.04357726146999086,-0.06494802026437053,-0.08913311870175392,-0.08357903894110892,-0.25285357336720476,0.007873608951139702
3339,7.0,299.65349,650.30858,0.0,0.0,0.0,0.0,-0.03327917720037773,0.0,-0.10281691944723989,-0.062278965486955336,-0.03258168416731187,-0.1102274456436019,-0.2843494293431037,-0.0017103974782280884
3340,7.0,300.05282,660.73414,0.0,0.0,0.0,0.0,-0.033289144009961545,0.0,-0.06403052939157124,-0.06266469662777403,-0.07415145502242883,-0.08233913796599021,-0.3176901199085737,-0.027367830485494578
3341,7.0,300.80908,874.81781,0.0,0.0,0.0,0.0,-0.03329911081954536,0.0,-0.06514087114265343,-0.11951952661315889,-0.08126237430997192,-0.07963131117349852,-0.3311284202873307,-0.05024519186681436
3342,7.0,301.72402999999997,895.5191800000001,0.0,0.0,0.0,0.0,-0.033309077629129186,0.0,-0.05485566018033215,-0.08479053851592462,-0.13256927597606888,-0.031319013435945973,-0.26695831873423476,-0.016712748786169886
3343,7.0,300.5287,685.53791,0.0,0.0,0.0,0.0,-0.03331904443871301,0.0,-0.08511384737108273,-0.04490770343429525,-0.07836485392650892,-0.03671382345312226,-0.2702389793780108,-0.01114833995400549
3344,7.0,300.48042000000004,404.76859,0.0,0.0,0.0,0.0,-0.03332901124829683,0.0,-0.029708313586732267,-0.048425560860230754,-0.04490567085459466,-0.051602735231543455,-0.29739349437295276,-0.010682210457502091
3345,7.0,300.74867,566.43608,0.0,0.0,0.0,0.0,-0.03333897805788065,0.0,-0.07883127929204152,-0.043763584991129555,-0.04958755911466105,-0.07275826653243184,-0.2904428418669767,-0.016368894258734085
3346,7.0,299.93511,696.12721,0.0,0.0,0.0,0.0,-0.03334894486746447,0.0,-0.05829895354465874,-0.07525362085845413,-0.07805271615370332,-0.07405356290376763,-0.2799531094117207,-0.0017317079516812682
3347,7.0,298.66778999999997,711.00492,0.0,0.0,0.0,0.0,-0.03335891167704829,0.0,-0.05451217042293235,-0.06658052322923604,-0.09503504722172891,-0.06316492401664264,-0.3021638859762537,-0.00941756429374123
3348,7.0,298.88282999999996,811.74222,0.0,0.0,0.0,0.0,-0.033368878486632114,0.0,-0.043574458820214254,-0.07870887462696112,-0.12446603121634088,-0.12262784354742588,-0.31332429880520074,0.004362370682807466
3349,7.0,299.21589,850.53123,0.0,0.0,0.0,0.0,-0.03337884529621594,0.0,-0.08757702999317991,-0.08376419722463262,-0.08719902792412401,-0.0929017849116923,-0.2929815602575287,0.016315097771174784
3350,7.0,300.29165,920.00505,0.0,0.0,0.0,0.0,-0.033388812105799755,0.0,-0.0975167105124,-0.07729526002819823,-0.1048465911200529,-0.07161414910251623,-0.26290765894196577,0.018607685553435584
3351,7.0,301.29073,976.0418599999999,0.0,0.0,0.0,0.0,-0.03339877891538357,0.0,-0.15426278836455187,-0.05209068810870065,-0.09033888226775351,-0.05903461668701304,-0.30263719536296574,0.025885136547914075
3352,7.0,300.69675,956.3004900000001,0.0,0.0,0.0,0.0,-0.033408745724967395,0.0,-0.09911033304442832,-0.08542408327345061,-0.1061570578718859,-0.07927576779290912,-0.30795162120995867,-0.032440056121334264
3353,7.0,300.32642000000004,739.41553,0.0,0.0,0.0,0.0,-0.03341871253455122,0.0,-0.06397616751045614,-0.053966539297082755,-0.1068211521199269,-0.04609347557582186,-0.31097019458286873,-0.02092991394087168
3354,7.0,301.00633,633.30867,0.0,0.0,0.0,0.0,-0.033428679344135036,0.0,-0.02972447796557757,-0.07432701377450512,-0.08845853123567732,-0.056679966322877154,-0.25894221348310675,-0.03437524019582207
3355,7.0,300.19442999999995,568.0093,0.0,0.0,0.0,0.0,-0.03343864615371885,0.0,-0.06688536458807152,-0.04256040723938516,-0.06321487116707204,-0.044681931047013256,-0.3093661588795627,0.007169626897012083
3356,7.0,299.89787,707.19038,0.0,0.0,0.0,0.0,-0.033448612963302676,0.0,-0.06756160061206085,-0.06769511961748814,-0.07971149573341213,-0.08851423871292521,-0.2998056375610127,-0.01995496570790178
3357,7.0,300.48908,733.69935,0.0,0.0,0.0,0.0,-0.0334585797728865,0.0,-0.08674601900316552,-0.09221829503023711,-0.04406196890707776,-0.07396640009041533,-0.3043110338656607,-0.016714526026845283
3358,7.0,299.70467,620.686,0.0,0.0,0.0,0.0,-0.033468546582470324,0.0,-0.02182108260257318,-0.06982845082853154,-0.097023511026225,-0.08158720506678023,-0.2750275486881057,-0.01142360150267169
3359,7.0,299.72157000000004,754.88584,0.0,0.0,0.0,0.0,-0.03347851339205414,0.0,-0.05828259462179425,-0.08536269450289202,-0.08582115673588873,-0.07208710385169323,-0.31169791080468867,-0.015579570404333885
3360,7.0,298.93681000000004,756.6202099999999,0.0,0.0,0.0,0.0,-0.03348848020163796,0.0,-0.03398929931223267,-0.10028958188181109,-0.09571476983931232,-0.08272554291812542,-0.3156652307762327,-0.019709183657644982
3361,7.0,300.20535,747.6102599999999,0.0,0.0,0.0,0.0,-0.03349844701122178,0.0,-0.09090378946350551,-0.06429033887621244,-0.07206072388533974,-0.07571178114292103,-0.2849446935118517,-0.024626612035957375
3362,7.0,300.07788999999997,684.4917,0.0,0.0,0.0,0.0,-0.0335084138208056,0.0,-0.08162631145438973,-0.07307744538018233,-0.053364628207678746,-0.09292190704542821,-0.24314943397948077,-0.011728196641732889
3363,7.0,299.56635,649.37811,0.0,0.0,0.0,0.0,-0.03351838063038943,0.0,-0.1041895592252089,-0.05130549122195775,-0.04189968407442686,-0.09166369056150192,-0.3103133045430387,0.001157233749810079
3364,7.0,299.75942000000003,673.21688,0.0,0.0,0.0,0.0,-0.033528347439973245,0.0,-0.07124990595656823,-0.062071301905460535,-0.07131991444572752,-0.08718057663980301,-0.31176930440673467,-0.015272171602245987
3365,7.0,301.02006,788.21678,0.0,0.0,0.0,0.0,-0.03353831424955707,0.0,-0.07912162509494643,-0.07430887761096523,-0.08616771765434161,-0.046928833408765254,-0.3116069412107107,-0.014604422561094286
3366,7.0,301.23045,665.39188,0.0,0.0,0.0,0.0,-0.033548281059140886,0.0,-0.05665687333984804,-0.045764971787401056,-0.09984067257075721,-0.015772962358170186,-0.27853026309129675,0.001970673260565308
3367,7.0,302.01231,734.78038,0.0,0.0,0.0,0.0,-0.0335582478687247,0.0,-0.08892221879943972,-0.05441957050954344,-0.08001309773167793,-0.055576365724710246,-0.3252394107061307,0.03125311772894257
3368,7.0,301.36187,908.13674,0.0,0.0,0.0,0.0,-0.03356821467830853,0.0,-0.092155847413324,-0.08159705183125202,-0.10229799354102591,-0.08364495693961452,-0.29419628500741274,-0.004812615558818175
3369,7.0,300.52696000000003,962.6674199999999,0.0,0.0,0.0,0.0,-0.03357818148789235,0.0,-0.13176860574704888,-0.07748940077385842,-0.08336885743311562,-0.12013919997681588,-0.27797390772638875,0.031297836508855974
3370,7.0,301.04838,851.2109800000001,0.0,0.0,0.0,0.0,-0.033588148297476174,0.0,-0.047424252925909356,-0.100686987690282,-0.11063564357888789,-0.1102667293499789,-0.25113011600711277,-0.010778563449261388
3371,7.0,300.5823,686.6967599999999,0.0,0.0,0.0,0.0,-0.03359811510705999,0.0,-0.051838467867308446,-0.06568850951695114,-0.09121169083764301,-0.10011722398680072,-0.2982435504118467,0.026356958483479274
3372,7.0,299.27563,643.33723,0.0,0.0,0.0,0.0,-0.03360808191664381,0.0,-0.023188090736486377,-0.07781704735269462,-0.0945533177266859,-0.07051947219798002,-0.3085915190456117,-0.05326638043823245
3373,7.0,299.2688,781.72278,0.0,0.0,0.0,0.0,-0.03361804872622764,0.0,-0.1020136451654629,-0.07462395076931053,-0.06098660754090954,-0.03195867315782547,-0.30205281350029173,0.0006897083695714164
3374,7.0,299.45173,765.24718,0.0,0.0,0.0,0.0,-0.033628015535811455,0.0,-0.09833507512791631,-0.07841001448346592,-0.05587094589978304,-0.050223193193893255,-0.2628916191928828,-0.029355050018867873
3375,7.0,300.23158,769.7787099999999,0.0,0.0,0.0,0.0,-0.03363798234539528,0.0,-0.0938679948757998,-0.09066787849572291,-0.04945763410733846,-0.06458266963606323,-0.3167401371448177,0.016008029288619486
3376,7.0,300.55008,722.3732,0.0,0.0,0.0,0.0,-0.033647949154979095,0.0,-0.049401058274754855,-0.10906217763109889,-0.061120176195591736,-0.095151957031517,-0.29946083868448375,-0.03993447638622596
3377,7.0,299.96932999999996,713.39243,0.0,0.0,0.0,0.0,-0.03365791596456291,0.0,-0.03672813054453426,-0.05956479473558754,-0.12056056003090088,-0.08036528421468601,-0.2638423618942138,0.0006893461022631634
3378,7.0,299.11332000000004,762.86615,0.0,0.0,0.0,0.0,-0.033667882774146736,0.0,-0.04856139716863675,-0.08700736356170823,-0.09632349908863921,-0.07227725745820994,-0.26826393201808874,0.00029655099717980474
3379,7.0,299.10048,718.23485,0.0,0.0,0.0,0.0,-0.03367784958373056,0.0,-0.07203971819751663,-0.045086889621729555,-0.101198851243299,-0.11544581538111488,-0.3028198438259917,0.008642770141800002
3380,7.0,298.71335,617.7319200000001,0.0,0.0,0.0,0.0,-0.03368781639331438,0.0,-0.09965371272855572,-0.03256157419257717,-0.05555979199282454,-0.1065842441140459,-0.31997161462873974,-0.0087271961666322
3381,7.0,299.09913,772.32151,0.0,0.0,0.0,0.0,-0.0336977832028982,0.0,-0.08378018935096092,-0.07629523790825372,-0.07469102691268042,-0.06188770200059065,-0.2875755467339967,-0.0036419162218041465
3382,7.0,299.09984,687.7472799999999,0.0,0.0,0.0,0.0,-0.03370775001248202,0.0,-0.06665678144501214,-0.04584508238005736,-0.09655613725859881,-0.05997404239797715,-0.26562485120513174,0.01126748094051379
3383,7.0,299.60894,625.49764,0.0,0.0,0.0,0.0,-0.03371771682206584,0.0,-0.04267382640257876,-0.06395150702952233,-0.08351032943857782,-0.07768620940703193,-0.2997997201804287,-0.007997815985497982
3384,7.0,299.96806000000004,765.03822,0.0,0.0,0.0,0.0,-0.033727683631649664,0.0,-0.05864591064390074,-0.0924236554942546,-0.08148295075074112,-0.06330905175061693,-0.3177169609037227,-0.030055249407722175
3385,7.0,299.72992,802.97133,0.0,0.0,0.0,0.0,-0.03373765044123348,0.0,-0.11302313439201488,-0.057763938240106845,-0.07329616250701802,-0.05826069119438254,-0.2849994900772597,-0.0014306865457227686
3386,7.0,299.72465,858.72288,0.0,0.0,0.0,0.0,-0.0337476172508173,0.0,-0.11766355640498889,-0.08758417441963502,-0.05578257833206185,-0.06657608418054793,-0.3015132071595367,-0.017857813604928982
3387,7.0,299.63216,797.3202200000001,0.0,0.0,0.0,0.0,-0.03375758406040112,0.0,-0.1129742552071909,-0.06258599951900723,-0.06680518509440843,-0.0945870538887654,-0.3254626904981667,0.019867854570304582
3388,7.0,299.26547999999997,748.79183,0.0,0.0,0.0,0.0,-0.033767550869984946,0.0,-0.04869750300156936,-0.08558860266568742,-0.09332791433399801,-0.08510240271120323,-0.3196564735826377,-0.043847461834407554
3389,7.0,300.11542000000003,685.99825,0.0,0.0,0.0,0.0,-0.03377751767956877,0.0,-0.04394257866104486,-0.06432712694759314,-0.10025663402830941,-0.047110352097929756,-0.25453523416067175,0.013443522669772386
3390,7.0,300.69587,603.5787,0.0,0.0,0.0,0.0,-0.033787484489152586,0.0,-0.03088513265037527,-0.07902224552513842,-0.07356547627759723,-0.055469945079957346,-0.26926312833920174,-0.04059028528819926
3391,7.0,301.17677000000003,679.0708900000001,0.0,0.0,0.0,0.0,-0.0337974512987364,0.0,-0.08391248029726701,-0.05641134561536636,-0.06609676824724314,-0.08783033542542922,-0.2954835280669537,0.005729405363873286
3392,7.0,301.17222999999996,753.59432,0.0,0.0,0.0,0.0,-0.03380741810832023,0.0,-0.092954744454669,-0.09892490017012749,-0.03719421140503286,-0.1312338528742729,-0.32532250734683166,-0.04503344067895455
3393,7.0,300.99523999999997,628.91849,0.0,0.0,0.0,0.0,-0.03381738491790405,0.0,-0.07770919093255002,-0.07044025630516203,-0.04302606962759246,-0.10044879488327421,-0.2840991667009047,-0.0036972028962855164
3394,7.0,299.91384,689.02169,0.0,0.0,0.0,0.0,-0.033827351727487874,0.0,-0.03968067040842726,-0.08581620295614982,-0.08394851451057332,-0.07177547169068753,-0.28517482287456375,-0.02201835226454218
3395,7.0,299.87063,871.7990199999999,0.0,0.0,0.0,0.0,-0.03383731853707169,0.0,-0.04652521739043146,-0.08975518029589662,-0.12872473151914188,-0.0854747863084546,-0.3129889535521047,-0.00046452436648998556
3396,7.0,299.43377000000004,829.8766099999999,0.0,0.0,0.0,0.0,-0.03384728534665551,0.0,-0.05703046574446874,-0.07445958944408934,-0.12077171121923988,-0.050604133688239156,-0.3357796536788717,-0.015517650690722884
3397,7.0,300.49102,910.6479800000001,0.0,0.0,0.0,0.0,-0.03385725215623933,0.0,-0.11087812446031889,-0.06480435254594163,-0.1011317690204285,-0.034397591479777966,-0.28818204784635376,0.005080680701299145
3398,7.0,299.49136,728.85263,0.0,0.0,0.0,0.0,-0.033867218965823155,0.0,-0.10651112798682989,-0.03179744480191347,-0.08324442626783522,-0.016314693484384885,-0.29198578872175374,0.03596514916623387
3399,7.0,299.73498,790.6238400000001,0.0,0.0,0.0,0.0,-0.03387718577540698,0.0,-0.08392954545545121,-0.06769796482376893,-0.08870239520349482,-0.06778237261009934,-0.31313913748192673,0.020447970650057583
3400,7.0,300.22561,879.9617400000001,0.0,0.0,0.0,0.0,-0.03388715258499079,0.0,-0.08655328768839442,-0.06933568906639974,-0.11159742057380788,-0.09165993039038081,-0.3113767307879907,-0.004211416986884496
3401,7.0,301.08398,878.6996800000001,0.0,0.0,0.0,0.0,-0.03389711939457461,0.0,-0.07823237755543452,-0.07271838602174593,-0.1161520000383099,-0.1074364583756529,-0.2573709057580308,0.008539341219292361
3402,7.0,300.91192,690.36012,0.0,0.0,0.0,0.0,-0.033907086204158436,0.0,-0.08967206541669383,-0.04828596640720386,-0.07189420433740552,-0.0984460726233709,-0.26362273993503876,-0.009214652449915392
3403,7.0,300.9715,621.43344,0.0,0.0,0.0,0.0,-0.03391705301374226,0.0,-0.09152221450303932,-0.04900327756374696,-0.048374756500216755,-0.1308432449607229,-0.2829254684475697,-0.0005052533626771245
3404,7.0,299.64462000000003,602.29418,0.0,0.0,0.0,0.0,-0.033927019823326084,0.0,-0.07548549706433852,-0.07613245421343823,-0.03146443914329837,-0.08971077157051381,-0.31838950565759766,-0.05088979726243195
3405,7.0,299.71176,641.9006400000001,0.0,0.0,0.0,0.0,-0.0339369866329099,0.0,-0.06802039721759053,-0.04083770475061767,-0.08626366331956072,-0.06874413136651752,-0.28785393719897173,-0.0013785622248034986
3406,7.0,299.52545,499.48739000000006,0.0,0.0,0.0,0.0,-0.03394695344249372,0.0,-0.02916019594513727,-0.06149506556034044,-0.061176433867643945,-0.025968281824619875,-0.3093051916210457,-0.04306356900054336
3407,7.0,299.63649,487.9217,0.0,0.0,0.0,0.0,-0.03395692025207754,0.0,-0.009528234306763512,-0.056495583175679945,-0.08229219510210732,-0.05043884929217686,-0.3350669436910327,0.0017921624043226584
3408,7.0,299.82125,676.0185299999999,0.0,0.0,0.0,0.0,-0.033966887061661365,0.0,-0.05177155080420425,-0.08703325007526301,-0.06668795205783844,-0.05385248178632615,-0.33906870403347567,-0.040300888900638064
3409,7.0,300.37462999999997,749.67148,0.0,0.0,0.0,0.0,-0.03397685387124518,0.0,-0.09381801530136721,-0.07477409011612812,-0.05928930621889895,-0.07071937732345913,-0.2935189779780677,0.0012507664612410388
3410,7.0,300.70345,882.9118699999999,0.0,0.0,0.0,0.0,-0.033986820680829,0.0,-0.12211105559892288,-0.06765130465666393,-0.07862080090176893,-0.06905912853110534,-0.2960321016710937,0.004032443277996166
3411,7.0,301.27781,820.19438,0.0,0.0,0.0,0.0,-0.03399678749041282,0.0,-0.08945213137648801,-0.08446718811751243,-0.07539929177233072,-0.11799996557068988,-0.2974767126036657,-0.01932826748130148
3412,7.0,299.70193,596.69425,0.0,0.0,0.0,0.0,-0.03400675429999664,0.0,-0.031497916926602365,-0.06835015540963514,-0.08153207818183963,-0.09040266534829841,-0.3082546235198627,-0.01802746105592188
3413,7.0,300.08611,704.5899,0.0,0.0,0.0,0.0,-0.03401672110958047,0.0,-0.05990867155452555,-0.06357676154628784,-0.09069230390263351,-0.07807956424160302,-0.24579244620282575,-0.03548103853345587
3414,7.0,300.07342,888.5601800000001,0.0,0.0,0.0,0.0,-0.034026687919164286,0.0,-0.12208605871895589,-0.04915098612357465,-0.0988630655695249,-0.06716169714209343,-0.27687532170296675,0.02642791132173177
3415,7.0,299.60863,676.0765,0.0,0.0,0.0,0.0,-0.0340366547287481,0.0,-0.09072588706394792,-0.04141219222606516,-0.07337229507978173,-0.09359525328013231,-0.3041104610083657,-0.01049736020200879
3416,7.0,299.82152,561.8123,0.0,0.0,0.0,0.0,-0.03404662153833193,0.0,-0.055951117287445354,-0.06040572544408094,-0.05442006801534255,-0.0949450929043511,-0.3314937070808817,0.01933507044247288
3417,7.0,299.80785,662.44061,0.0,0.0,0.0,0.0,-0.034056588347915744,0.0,-0.03731438590664316,-0.08231295963640663,-0.08173805875491832,-0.08671453124305792,-0.2757189196288387,0.0006544810174522474
3418,7.0,299.62129,886.29624,0.0,0.0,0.0,0.0,-0.034066555157499574,0.0,-0.06713891421359494,-0.07069077327313614,-0.13158223865615587,-0.06279322031020834,-0.32019229036801866,0.023013070020213182
3419,7.0,299.7981,1059.4123,0.0,0.0,0.0,0.0,-0.03407652196708339,0.0,-0.08121657844520222,-0.12247435642227787,-0.11834394371463788,-0.07389258684713053,-0.3214114531533407,-0.017012434728496586
3420,7.0,299.13318,765.1693700000001,0.0,0.0,0.0,0.0,-0.03408648877666721,0.0,-0.07603898898446393,-0.07038171882038484,-0.08617167338273202,-0.05415351940428625,-0.3416078479890697,-0.016284161219121587
3421,7.0,299.74496,457.50715,0.0,0.0,0.0,0.0,-0.03409645558625103,0.0,-0.05443229186454894,-0.05352363754587174,-0.03111481922279357,-0.02956468133205687,-0.26892893819121977,-0.019863441866119082
3422,7.0,300.37122,513.8283,0.0,0.0,0.0,0.0,-0.03410642239583485,0.0,-0.054867854645285645,-0.050208255860919045,-0.05111486240114416,-0.060982300214734435,-0.3036669310420927,-0.007101824557295513
3423,7.0,300.74757,769.5876900000001,0.0,0.0,0.0,0.0,-0.03411638920541868,0.0,-0.1032123099012619,-0.046043406835380454,-0.08467972543198822,-0.10715483564285891,-0.28983937037241875,-0.026235260053718575
3424,7.0,299.94142999999997,818.20559,0.0,0.0,0.0,0.0,-0.034126356015002496,0.0,-0.03085682852208187,-0.10290631850356291,-0.11495091363477189,-0.11636930165475588,-0.3172981947698937,-0.03848998603041586
3425,7.0,300.34054,588.26418,0.0,0.0,0.0,0.0,-0.03413632282458631,0.0,-0.043865811793718554,-0.07498545915323862,-0.05996635182971814,-0.0956133617428041,-0.24605141266338376,-0.03562341841100767
3426,7.0,300.24064,621.29508,0.0,0.0,0.0,0.0,-0.034146289634170136,0.0,-0.050840162193033354,-0.05408302354182886,-0.0839350038337399,-0.09133071428713972,-0.2997359563516357,0.01898422448934708
3427,7.0,300.2927,791.8086400000001,0.0,0.0,0.0,0.0,-0.03415625644375395,0.0,-0.08817200538564941,-0.09050568045946522,-0.062012370266394445,-0.07720639596792803,-0.30925236076083173,-0.0031751471618376268
3428,7.0,299.28054,868.38306,0.0,0.0,0.0,0.0,-0.034166223253337784,0.0,-0.09612329809413091,-0.06635313369479444,-0.10149033188631591,-0.059672806182997445,-0.3226991015129217,0.024324558128146975
3429,7.0,298.82178,688.95915,0.0,0.0,0.0,0.0,-0.0341761900629216,0.0,-0.035852750345890964,-0.07567231707802623,-0.097901309852857,-0.04878775521447655,-0.27411396186794174,0.017179657472000183
3430,7.0,299.26358,563.4100599999999,0.0,0.0,0.0,0.0,-0.03418615687250542,0.0,-0.03995621364062126,-0.041501519341631064,-0.08980485792179942,-0.037980229024356764,-0.30756665709946573,0.02015380286777548
3431,7.0,300.55366000000004,755.33556,0.0,0.0,0.0,0.0,-0.03419612368208924,0.0,-0.06799937937076624,-0.05115172038678175,-0.1104520527932689,-0.1019936942709939,-0.29858773120581467,-0.009187471712007862
3432,7.0,300.97227000000004,930.47102,0.0,0.0,0.0,0.0,-0.03420609049167306,0.0,-0.12861298016561287,-0.08475319720998932,-0.06947378086952834,-0.07953846909333571,-0.3205775787185437,-0.026809786032669876
3433,7.0,300.06269,935.11046,0.0,0.0,0.0,0.0,-0.03421605730125688,0.0,-0.090164223281766,-0.09171533186609851,-0.1023706739706989,-0.1057068404549529,-0.28557905900195873,-0.02126485288067758
3434,7.0,300.58195,791.99343,0.0,0.0,0.0,0.0,-0.034226024110840705,0.0,-0.1108381922738779,-0.04843299710271466,-0.08147503321445972,-0.10211982364344191,-0.3042358507082407,0.021944940268296978
3435,7.0,299.83352,717.6034099999999,0.0,0.0,0.0,0.0,-0.03423599092042452,0.0,-0.04601789725086286,-0.1032607128585389,-0.06885490797345034,-0.10763632195787791,-0.30175222272562574,-0.019231874972788283
3436,7.0,299.86176,777.1802799999999,0.0,0.0,0.0,0.0,-0.034245957730008346,0.0,-0.07463966729161163,-0.06581222836741124,-0.09579150428263541,-0.07275500285385973,-0.27344676707459475,0.005501936897248896
3437,7.0,300.3736,830.8430000000001,0.0,0.0,0.0,0.0,-0.03425592453959216,0.0,-0.05305102324872835,-0.09481308364157282,-0.1046914219997389,-0.05519532897160485,-0.24619519285257377,-0.018484123756740984
3438,7.0,299.63849,659.80111,0.0,0.0,0.0,0.0,-0.034265891349175986,0.0,-0.06475575808439574,-0.06254594270280393,-0.07326136243233353,-0.07168412111467194,-0.3043394555309657,0.019478716882649683
3439,7.0,298.88262000000003,559.4917,0.0,0.0,0.0,0.0,-0.03427585815875981,0.0,-0.06723625005795122,-0.03439842335811007,-0.06843683186293943,-0.08005454979326893,-0.33260663059321866,0.004569052424955366
3440,7.0,300.33181,737.07393,0.0,0.0,0.0,0.0,-0.03428582496834363,0.0,-0.07327522774670193,-0.08059888193249033,-0.07017796131802552,-0.08307584982219803,-0.33649005345648264,0.003066606595225507
3441,7.0,300.15311,739.21835,0.0,0.0,0.0,0.0,-0.034295791777927444,0.0,-0.045626840467518553,-0.08180458875648432,-0.09727248988054732,-0.05862656567299154,-0.2994666952700617,-0.012575242314579788
3442,7.0,300.30706000000004,848.02257,0.0,0.0,0.0,0.0,-0.03430575858751127,0.0,-0.08117425194877492,-0.08488849649584232,-0.09171493872505973,-0.08110573800351312,-0.3153336446810077,-0.016229153897692784
3443,7.0,300.30334,862.2302800000001,0.0,0.0,0.0,0.0,-0.03431572539709509,0.0,-0.0971993362630776,-0.09397020141338681,-0.07092693552694353,-0.05991924583256915,-0.3185584549792717,-0.05170319695245825
3444,7.0,299.50735,563.92355,0.0,0.0,0.0,0.0,-0.034325692206678915,0.0,-0.09541650042062541,-0.048652765983154156,-0.02734941162517677,-0.050680372652263356,-0.30077234908391975,-0.041807061869535755
3445,7.0,299.28545,498.41777,0.0,0.0,0.0,0.0,-0.03433565901626273,0.0,-0.05809830773335654,-0.05404961060653125,-0.03935863926164526,-0.05901311653314115,-0.2842049702763467,-0.009396137904476612
3446,7.0,300.09382999999997,669.6383400000001,0.0,0.0,0.0,0.0,-0.03434562582584655,0.0,-0.07690277557546303,-0.06453448452755774,-0.06211607540087934,-0.09096916435995751,-0.29761580144489275,0.014048851451763685
3447,7.0,299.16077,645.60236,0.0,0.0,0.0,0.0,-0.03435559263543037,0.0,-0.04926900949522266,-0.034694713899351665,-0.11228326930149589,-0.1119466574857749,-0.3209442739297337,0.019875610999820083
3448,7.0,298.95385,735.5818,0.0,0.0,0.0,0.0,-0.034365559445014196,0.0,-0.06023191758817745,-0.07880624897482122,-0.08456033315945512,-0.0960138589773301,-0.2961931172444847,0.013098597136980887
3449,7.0,299.0173,745.0531900000001,0.0,0.0,0.0,0.0,-0.03437552625459802,0.0,-0.04852687269797946,-0.07140121662050143,-0.1065494795031149,-0.07614118234979962,-0.27146651160915874,-0.015101343714886587
3450,7.0,299.68935,870.86221,0.0,0.0,0.0,0.0,-0.03438549306418184,0.0,-0.08732277919858732,-0.07837082196959792,-0.0990267652424308,-0.08182633411688042,-0.3126762949687477,0.01847045805264228
3451,7.0,300.59404,1062.5238,0.0,0.0,0.0,0.0,-0.03439545987376565,0.0,-0.11977712518608187,-0.10980046205146189,-0.09340310661066892,-0.06604823762045353,-0.33859118965884866,-0.03521709701490687
3452,7.0,300.64083,828.6097900000001,0.0,0.0,0.0,0.0,-0.03440542668334948,0.0,-0.1078453149235039,-0.06042883666561185,-0.08360253519767782,-0.04748865712876555,-0.3098993412146837,0.0067566449013789324
3453,7.0,300.48897999999997,565.66018,0.0,0.0,0.0,0.0,-0.0344153934929333,0.0,-0.04034816512380386,-0.06312034709174325,-0.06847805695650803,-0.023026512809289877,-0.2915738721586007,-0.02165732010816108
3454,7.0,300.45718999999997,601.4057799999999,0.0,0.0,0.0,0.0,-0.034425360302517125,0.0,-0.04279854431763746,-0.04879294508148875,-0.091220850618547,-0.08913525868596511,-0.3080962119992287,0.016018669427919584
3455,7.0,299.51886,735.70412,0.0,0.0,0.0,0.0,-0.03443532711210094,0.0,-0.059175452371412446,-0.09411077061300992,-0.07034945896370103,-0.09056096642467151,-0.3402044459380647,-0.04681445064472655
3456,7.0,299.83374,796.08488,0.0,0.0,0.0,0.0,-0.03444529392168476,0.0,-0.0993828922550778,-0.07204342973263293,-0.07056360329283543,-0.1076188231286509,-0.3135570930156757,-0.03408291348897167
3457,7.0,300.50875,513.09043,0.0,0.0,0.0,0.0,-0.03445526073126858,0.0,-0.06654717818169514,-0.03628548210584826,-0.05313401755116925,-0.07549872707089422,-0.2828688986944867,-0.0086509075533531
3458,7.0,299.26346,551.08726,0.0,0.0,0.0,0.0,-0.034465227540852406,0.0,-0.03762670606446676,-0.06357053613767344,-0.06631952317572734,-0.08093537317144943,-0.2854205258913127,0.017707029831047785
3459,7.0,299.76235,983.4885,0.0,0.0,0.0,0.0,-0.03447519435043623,0.0,-0.05180298182230625,-0.09887900298034781,-0.14827396351600086,-0.06434243918310434,-0.3052821935565067,0.0017200478748305083
3460,7.0,300.19748,1043.2286,0.0,0.0,0.0,0.0,-0.034485161160020046,0.0,-0.0931861251812545,-0.1002224034001811,-0.12370692450642289,-0.06572187178974373,-0.27581442858326477,-0.014499651487504185
3461,7.0,299.50484,669.91088,0.0,0.0,0.0,0.0,-0.03449512796960386,0.0,-0.03398078699814257,-0.06784938897171335,-0.10180599982246989,-0.04450789419658716,-0.2832383499459487,-0.00971001816347918
3462,7.0,299.7779,722.48904,0.0,0.0,0.0,0.0,-0.03450509477918769,0.0,-0.0971246019754519,-0.06065471949715474,-0.061839307149314446,-0.09065674693012432,-0.3072102362442897,-0.00974431070118859
3463,7.0,299.83272,867.98876,0.0,0.0,0.0,0.0,-0.03451506158877151,0.0,-0.10971804428832789,-0.06902541364727793,-0.08510344534555611,-0.0938255913723649,-0.3278548219967517,0.005672216818954214
3464,7.0,299.81001000000003,999.6502300000001,0.0,0.0,0.0,0.0,-0.03452502839835533,0.0,-0.12749173786995488,-0.09394992830538601,-0.08242704551816601,-0.08564813617531292,-0.29794177413456374,-0.010621868374296791
3465,7.0,299.78792000000004,633.75007,0.0,0.0,0.0,0.0,-0.034534995207939144,0.0,-0.07372917595050313,-0.026712361022304773,-0.09220265855469391,-0.06346998727725003,-0.2860247269259428,0.02080969992250748
3466,7.0,300.53396000000004,225.47412999999997,0.0,0.0,0.0,0.0,-0.03454496201752297,0.0,-0.007145597873540604,-0.02404605721891108,-0.037346850439847167,-0.0859730013826246,-0.29629361138940274,-0.0028225711854910876
3467,7.0,300.24541,605.86294,0.0,0.0,0.0,0.0,-0.034554928827106784,0.0,-0.02008569726230398,-0.07861660401985472,-0.08546490509347941,-0.07335425112200093,-0.33671815631899465,-0.027217304077138772
3468,7.0,300.14942,1091.3617,0.0,0.0,0.0,0.0,-0.034564895636690615,0.0,-0.13586366615869985,-0.0906402491919961,-0.1052428023066559,-0.06799101499119074,-0.2769966685349427,-0.02780029069442507
3469,7.0,300.45232999999996,1109.0957,0.0,0.0,0.0,0.0,-0.03457486244627443,0.0,-0.11220453976872588,-0.1080363936273619,-0.1168964652842829,-0.07938027136847284,-0.26589990807727776,0.004280871126914086
3470,7.0,300.31431000000003,698.6197,0.0,0.0,0.0,0.0,-0.03458482925585825,0.0,-0.08405052954389142,-0.043042251231689456,-0.08527016450376002,-0.09717236658516591,-0.27198105014243973,0.016922424682363286
3471,7.0,299.95288999999997,671.5883299999999,0.0,0.0,0.0,0.0,-0.03459479606544207,0.0,-0.021996338392869578,-0.09238068355751361,-0.08976905979576641,-0.12451026971570688,-0.3134726791498447,-0.00970613265332071
3472,7.0,300.61016,1004.6877,0.0,0.0,0.0,0.0,-0.03460476287502589,0.0,-0.08474030258921672,-0.1208646566509129,-0.0997950145080011,-0.1088563662707869,-0.30511514914502075,-0.03133117547689627
3473,7.0,300.93923,1045.2299,0.0,0.0,0.0,0.0,-0.03461472968460972,0.0,-0.0992623621026824,-0.07974277577724923,-0.13871864017046387,-0.05085010622951475,-0.3374280190740527,-0.011806228045183989
3474,7.0,300.59673,439.8277,0.0,0.0,0.0,0.0,-0.03462469649419354,0.0,-0.08538414298100881,-0.048913403293127045,0.0006009060668948115,-0.049158914805607155,-0.3220519285415507,-0.02514330676545118
3475,7.0,301.32424,204.77462,0.0,0.0,0.0,0.0,-0.034634663303777354,0.0,-0.007404745503216483,-0.027522735147532472,-0.027318889492414473,-0.04941606957498636,-0.33470707778551667,-0.008546769659750491
3476,7.0,301.21467,574.69257,0.0,0.0,0.0,0.0,-0.03464463011336118,0.0,-0.07387052737920342,-0.06750679188765164,-0.03331487193967187,-0.07016387916813573,-0.27405162672178973,-0.028693530439330976
3477,7.0,300.57946,993.2713699999999,0.0,0.0,0.0,0.0,-0.034654596922944994,0.0,-0.0927052174320426,-0.08054383914730802,-0.1286806348747899,-0.07510516452005263,-0.27001302460571075,0.02117336754239868
3478,7.0,300.17466,1049.797,0.0,0.0,0.0,0.0,-0.034664563732528825,0.0,-0.08535556932818883,-0.0988464026716304,-0.13491010662209088,-0.1035948523440159,-0.27240536888681677,-0.005513803474470036
3479,7.0,300.45596,974.6913699999999,0.0,0.0,0.0,0.0,-0.03467453054211264,0.0,-0.07285435810566533,-0.12717350641104788,-0.09625397290652751,-0.13159267513218587,-0.3153059221582717,-0.006397088138468444
3480,7.0,300.02724,950.35236,0.0,0.0,0.0,0.0,-0.03468449735169646,0.0,-0.08048525606627634,-0.11739309968829689,-0.09100502632074682,-0.1034137541536429,-0.28876485917137273,-0.018744582734696282
3481,7.0,299.7871,866.8151,0.0,0.0,0.0,0.0,-0.03469446416128028,0.0,-0.08940636996222172,-0.07448544150714072,-0.0995983325310901,-0.07331397341727583,-0.3213746316447067,0.017982921621276182
3482,7.0,299.72311,733.1467299999999,0.0,0.0,0.0,0.0,-0.0347044309708641,0.0,-0.08074194372735942,-0.06266592975314574,-0.07945042475239643,-0.05266844230247055,-0.31085408625390964,0.03145026884064987
3483,7.0,300.14886,545.96167,0.0,0.0,0.0,0.0,-0.03471439778044793,0.0,-0.05156828472814345,-0.03838198268900676,-0.07600844759994974,-0.04780401805013925,-0.31707629299799367,0.001231755254914779
3484,7.0,299.08435,438.94651,0.0,0.0,0.0,0.0,-0.034724364590031746,0.0,-0.029086550901369072,-0.058178782082798745,-0.04616344454822725,-0.05009315571580955,-0.3000278331754417,-0.02269023840585218
3485,7.0,299.94164,579.18892,0.0,0.0,0.0,0.0,-0.03473433139961556,0.0,-0.07264761759501163,-0.03615567868853767,-0.06725567203586803,-0.039694392854531566,-0.33126737740604467,-0.027985831986486576
3486,7.0,301.07372999999995,805.4483700000001,0.0,0.0,0.0,0.0,-0.03474429820919939,0.0,-0.0960424680939036,-0.06982925433586083,-0.07896447000443643,-0.0922972474780291,-0.32793820234748067,-0.009684188898555032
3487,7.0,300.52192,856.28004,0.0,0.0,0.0,0.0,-0.034754265018783204,0.0,-0.05619004166102535,-0.0937961929339635,-0.1103015142259119,-0.10006708127910201,-0.3014654526823237,-0.03212172840366777
3488,7.0,300.25714,826.3365,0.0,0.0,0.0,0.0,-0.03476423182836703,0.0,-0.07545302442513373,-0.08108886637609802,-0.094643771576363,-0.12749427099520488,-0.25686387540799077,-0.019400204185401084
3489,7.0,300.39755,743.0420799999999,0.0,0.0,0.0,0.0,-0.03477419863795085,0.0,-0.037499334447396164,-0.08613134602875201,-0.1022355570698639,-0.0929785619115196,-0.26535031109053675,-0.013435566629987185
3490,7.0,299.40123,700.3727200000001,0.0,0.0,0.0,0.0,-0.03478416544753467,0.0,-0.07135149035859384,-0.07056242386971903,-0.07098190535811863,-0.08588438556862892,-0.30455041420178575,0.005650565285517375
3491,7.0,299.92733,733.1619599999999,0.0,0.0,0.0,0.0,-0.034794132257118485,0.0,-0.05610139443627654,-0.058948983881311735,-0.1078125464152699,-0.040839382692783255,-0.3046949239310477,-0.004025542436865106
3492,7.0,299.35131,618.7819099999999,0.0,0.0,0.0,0.0,-0.03480409906670231,0.0,-0.07334003319659772,-0.08254613077591882,-0.03220808568319057,-0.06884167999339483,-0.31378051466272566,-0.004838311277379145
3493,7.0,298.44349,540.76099,0.0,0.0,0.0,0.0,-0.03481406587628613,0.0,-0.05464517571055894,-0.046170641663687555,-0.06356202078383304,-0.04819782074125455,-0.3351369896704457,0.015059268504484087
3494,7.0,298.74181,781.3972200000001,0.0,0.0,0.0,0.0,-0.034824032685869956,0.0,-0.11595997901185888,-0.03833246414336967,-0.08323279719643752,-0.08488005409600911,-0.33127758083455167,0.01994041340996558
3495,7.0,299.5038,1041.2344,0.0,0.0,0.0,0.0,-0.03483399949545377,0.0,-0.094363364743689,-0.0986424303602499,-0.12350346388634288,-0.07353216466730962,-0.3068991481985877,-0.028125903680310576
3496,7.0,299.43188,963.37144,0.0,0.0,0.0,0.0,-0.03484396630503759,0.0,-0.0922343286998195,-0.0901610274909506,-0.1104455071976229,-0.07434339498887184,-0.27815132781889873,-0.04711657244029365
3497,7.0,301.15209,873.6872599999999,0.0,0.0,0.0,0.0,-0.03485393311462141,0.0,-0.07550041818531113,-0.1022272180215409,-0.08785147182251522,-0.08260468751244793,-0.2996716149702857,-0.03464663923510707
3498,7.0,300.36893,789.9752,0.0,0.0,0.0,0.0,-0.03486389992420524,0.0,-0.07343957083342133,-0.07550122169264042,-0.09119194259319402,-0.07496449804841993,-0.31372058091931065,-0.0041501078577837565
3499,7.0,299.32063999999997,690.61488,0.0,0.0,0.0,0.0,-0.03487386673378906,0.0,-0.056619918082200855,-0.05743122034452014,-0.09587854145297532,-0.07792831639917602,-0.2965911826787707,0.01928683568471248
3500,7.0,300.45172,692.4739400000001,0.0,0.0,0.0,0.0,-0.03488383354337288,0.0,-0.060489013589050844,-0.08378091787778282,-0.06622485521888434,-0.06909270865266944,-0.2883310361410577,0.009523670830963131
3501,7.0,300.83671,658.05702,0.0,0.0,0.0,0.0,-0.034893800352956694,0.0,-0.04087133249493646,-0.05836690310961485,-0.10079466780490921,-0.0893216764393631,-0.3053277594135037,0.043521640119001455
3502,7.0,300.0515,598.49874,0.0,0.0,0.0,0.0,-0.03490376716254052,0.0,-0.06829758292819664,-0.06323382401019254,-0.05039726652132295,-0.09089289702493052,-0.32668122506842673,-0.006943509092770994
3503,7.0,300.88253,855.0902,0.0,0.0,0.0,0.0,-0.03491373397212434,0.0,-0.08132364655676902,-0.08304702589660333,-0.09555539573108332,-0.08054174273285113,-0.3064992082516167,-0.025037473805756275
3504,7.0,299.48629,958.48727,0.0,0.0,0.0,0.0,-0.034923700781708165,0.0,-0.12242284278719388,-0.08021397760375322,-0.08871937727517082,-0.07584454223727352,-0.3135132192863457,-0.028128125737779872
3505,7.0,300.51686,945.1180400000001,0.0,0.0,0.0,0.0,-0.03493366759129198,0.0,-0.07832968604203812,-0.10953077540484589,-0.0994318251421571,-0.057934175402657946,-0.3236611014228637,-0.024621933860245675
3506,7.0,300.74392,752.4335599999999,0.0,0.0,0.0,0.0,-0.0349436344008758,0.0,-0.07829869680097973,-0.05343989445160695,-0.0969824227214199,-0.06345729429324734,-0.3192617620061827,-0.0017249699398412784
3507,7.0,300.12501000000003,734.83178,0.0,0.0,0.0,0.0,-0.03495360121045962,0.0,-0.048781890522897754,-0.07703160931242793,-0.09755701152187742,-0.06073157553048985,-0.2985401287161167,-0.025510835881473473
3508,7.0,299.29087999999996,730.9640400000001,0.0,0.0,0.0,0.0,-0.034963568020043446,0.0,-0.07489959937951493,-0.07711736674789152,-0.07017784783401433,-0.06092605267518324,-0.3047291515194257,-0.02790763643651927
3509,7.0,300.39605,624.89976,0.0,0.0,0.0,0.0,-0.03497353482962727,0.0,-0.05344607629046704,-0.036586089092515865,-0.0999217568967596,-0.0989773267435516,-0.2991687592106577,-0.0028578199273198673
3510,7.0,298.82594,456.05298,0.0,0.0,0.0,0.0,-0.03498350163921109,0.0,-0.035600621297007765,-0.04683868556061836,-0.05618941141946315,-0.07638733626284312,-0.3070009291711327,0.026403522391824773
3511,7.0,299.78885,551.51409,0.0,0.0,0.0,0.0,-0.034993468448794904,0.0,-0.060758097351857346,-0.04044483830259476,-0.06644357639872044,-0.1024131899448949,-0.3030433465330497,-0.008868479808900811
3512,7.0,300.30977,865.7212800000001,0.0,0.0,0.0,0.0,-0.03500343525837873,0.0,-0.1028494549079509,-0.04839354215707076,-0.1119146590476169,-0.08775540862028451,-0.29092552381711373,0.013285375607414485
3513,7.0,300.12796000000003,1056.5776,0.0,0.0,0.0,0.0,-0.03501340206796255,0.0,-0.1013265501401519,-0.11715394226719389,-0.10269270511748091,-0.09812579642576211,-0.3331341184627777,-0.014021190737283785
3514,7.0,300.29208,1044.598,0.0,0.0,0.0,0.0,-0.03502336887754637,0.0,-0.1175386328001599,-0.09746783335407622,-0.1025252351409529,-0.07411166570425193,-0.3126604578696847,0.0014354040355383487
3515,7.0,300.72474,767.3781,0.0,0.0,0.0,0.0,-0.03503333568713019,0.0,-0.054844621833742745,-0.08756893412488093,-0.09085022602346922,-0.08169788845470383,-0.2861069015090527,-0.042026050547398254
3516,7.0,300.37106,658.6660400000001,0.0,0.0,0.0,0.0,-0.03504330249671401,0.0,-0.08112771742468233,-0.06586201035807435,-0.05322830249947445,-0.06662396835377374,-0.3100920917812067,-0.018006386467091982
3517,7.0,299.79646,557.5133900000001,0.0,0.0,0.0,0.0,-0.03505326930629783,0.0,-0.04002595159200387,-0.029265300378010273,-0.1001788984938875,-0.10578169937234089,-0.3198768453468867,0.017344424097261384
3518,7.0,299.43862,447.68039000000005,0.0,0.0,0.0,0.0,-0.035063236115881656,0.0,-0.031005103488715473,-0.04811705862878395,-0.05696149786316215,-0.08266402039855363,-0.34137031176812666,0.007182397394647433
3519,7.0,299.05627000000004,490.75492,0.0,0.0,0.0,0.0,-0.03507320292546547,0.0,-0.02120997728176178,-0.04706397158785236,-0.08090329367328342,-0.08573482174786812,-0.3148743485431787,-0.01103328236540019
3520,7.0,299.18837,775.22218,0.0,0.0,0.0,0.0,-0.03508316973504929,0.0,-0.08823996812285682,-0.07013229210951834,-0.07727592518979003,-0.08851932522842722,-0.3315332440997837,-0.008138049698012973
3521,7.0,299.72204,937.7369,0.0,0.0,0.0,0.0,-0.03509313654463311,0.0,-0.07647899689338933,-0.13362427198018886,-0.07494533444927863,-0.08286431359882102,-0.2982383321738317,-0.04936129530108055
3522,7.0,299.5855,927.74041,0.0,0.0,0.0,0.0,-0.03510310335421693,0.0,-0.1096352414901559,-0.0919570082269501,-0.08041766519185563,-0.06959623315736344,-0.29971057443663074,-0.009092167231452042
3523,7.0,299.76509,819.31419,0.0,0.0,0.0,0.0,-0.03511307016380076,0.0,-0.06889723143012734,-0.0967234582873621,-0.08343036678043612,-0.06728367826863203,-0.25475881792773775,-0.04664713569546386
3524,7.0,300.8182,628.71982,0.0,0.0,0.0,0.0,-0.03512303697338458,0.0,-0.07146128005992923,-0.06378744765283094,-0.05586639843333425,-0.0947069132695946,-0.3121869053029487,-0.01069586298934949
3525,7.0,300.59351000000004,406.46077,0.0,0.0,0.0,0.0,-0.035133003782968394,0.0,-0.028757017650846678,-0.026628194389498174,-0.06816871170097803,-0.12542515349599886,-0.3053765271408167,-0.016660745751287585
3526,7.0,300.19467000000003,618.73798,0.0,0.0,0.0,0.0,-0.03514297059255222,0.0,-0.05243103780404054,-0.05917570872368774,-0.07647414849166083,-0.09686066349665322,-0.3221559893268207,-0.00955271645567971
3527,7.0,299.38322,741.04057,0.0,0.0,0.0,0.0,-0.035152937402136035,0.0,-0.05615837354239995,-0.07095691557090233,-0.0981425403836646,-0.0918966975544979,-0.2958883924094107,-0.009033327088869971
3528,7.0,299.01061,668.72769,0.0,0.0,0.0,0.0,-0.035162904211719866,0.0,-0.08554770485190111,-0.042520420337438754,-0.07520839545349073,-0.05544243432649224,-0.3132687524347187,-0.0010119236238965862
3529,7.0,299.50323,829.57605,0.0,0.0,0.0,0.0,-0.03517287102130368,0.0,-0.07952616013112093,-0.08150772674218631,-0.09113651781272401,-0.06769811579803385,-0.30213362019576673,0.011565754412201089
3530,7.0,299.76779,844.05545,0.0,0.0,0.0,0.0,-0.0351828378308875,0.0,-0.0896814764836226,-0.06595932999042903,-0.10093097426136159,-0.05994441496505314,-0.3229203852022607,0.01691838789396488
3531,7.0,299.78458,795.63091,0.0,0.0,0.0,0.0,-0.03519280464047132,0.0,-0.06938999623200943,-0.09214566121006873,-0.08031627229409892,-0.05292528701731915,-0.2951172989508097,0.0010942182062159288
3532,7.0,300.53911,917.5692300000001,0.0,0.0,0.0,0.0,-0.03520277145005514,0.0,-0.1018665921784499,-0.0912380312872426,-0.08581350872413392,-0.07184837706188273,-0.32992193326075964,-0.029752024182796176
3533,7.0,300.57079,939.7336300000001,0.0,0.0,0.0,0.0,-0.03521273825963897,0.0,-0.09645158606028041,-0.08192930565829291,-0.1072746727321859,-0.09027803862574872,-0.33076587940155067,-0.001923820575941308
3534,7.0,300.45328,623.7981900000001,0.0,0.0,0.0,0.0,-0.03522270506922279,0.0,-0.06332827715801434,-0.07334321176216142,-0.05294758459901974,-0.10779513877855189,-0.3222567165192617,-0.030686051297227474
3535,7.0,300.07197,480.9374,0.0,0.0,0.0,0.0,-0.035232671878806604,0.0,-0.02312716198147318,-0.053536563577397445,-0.06952923503425122,-0.09880070002586991,-0.2775223021568187,-0.00918959578819249
3536,7.0,299.05368,589.84837,0.0,0.0,0.0,0.0,-0.03524263868839043,0.0,-0.05549565123499434,-0.04929618486290465,-0.07450734088155203,-0.07871679722949301,-0.30407772289763474,-0.003384430018317237
3537,7.0,299.56515,738.06357,0.0,0.0,0.0,0.0,-0.035252605497974245,0.0,-0.06335949640684543,-0.06172265166530145,-0.09927074776051001,-0.0989525618978575,-0.30603106644041467,0.0005251982789705345
3538,7.0,299.43154,781.52997,0.0,0.0,0.0,0.0,-0.035262572307558075,0.0,-0.058252713876345244,-0.07177537239217772,-0.10753750980812589,-0.04689698695812225,-0.30327209787562576,-0.008882700672729303
3539,7.0,300.00226000000004,912.0382900000001,0.0,0.0,0.0,0.0,-0.03527253911714189,0.0,-0.060843394771775534,-0.11302744070493988,-0.1033660300739329,-0.05220303424003835,-0.2889192278241077,-0.026796629993371474
3540,7.0,300.75209,837.40863,0.0,0.0,0.0,0.0,-0.03528250592672571,0.0,-0.09275183808239372,-0.062401789637577136,-0.0993976846932877,-0.05007384722190395,-0.30547965573599467,0.005277870316510245
3541,7.0,301.09058999999996,714.3312400000001,0.0,0.0,0.0,0.0,-0.03529247273630953,0.0,-0.08120342240590382,-0.06333959313513114,-0.07259584456790202,-0.0906149128732456,-0.3282102296018277,-0.0024897608814952676
3542,7.0,299.96518,811.1518900000001,0.0,0.0,0.0,0.0,-0.03530243954589335,0.0,-0.08592025563541901,-0.07720899090143413,-0.08344067254720322,-0.08781501103091682,-0.3209659980118777,0.03223125871297757
3543,7.0,300.14833,801.0079599999999,0.0,0.0,0.0,0.0,-0.03531240635547717,0.0,-0.05027377767863555,-0.08617809941486623,-0.1070345425909869,-0.11584056748757389,-0.3093939219323027,-0.004370322466942246
3544,7.0,299.77859,677.66337,0.0,0.0,0.0,0.0,-0.03532237316506099,0.0,-0.06229782308456644,-0.06478478871301084,-0.07891013244132372,-0.06329019010000543,-0.33606448841448266,0.0015938440285001585
3545,7.0,299.97542000000004,743.44017,0.0,0.0,0.0,0.0,-0.035332339974644814,0.0,-0.08463233876456151,-0.05782262872564915,-0.08353227947549412,-0.05780961150161444,-0.3294925786633857,0.0017298645457743385
3546,7.0,298.60658,724.66704,0.0,0.0,0.0,0.0,-0.03534230678422863,0.0,-0.1102708026153809,-0.029474631769169674,-0.08053525083946042,-0.04936251018795045,-0.3295939239383877,-0.006347775485251664
3547,7.0,298.75658,651.38345,0.0,0.0,0.0,0.0,-0.035352273593812454,0.0,-0.060497184437857246,-0.07111943278094153,-0.06638768653645452,-0.07863919139108393,-0.30060413943481873,-0.008586487949095382
3548,7.0,299.19128,882.76683,0.0,0.0,0.0,0.0,-0.03536224040339628,0.0,-0.08091995251817752,-0.08290549714913552,-0.1045136270046919,-0.1005361714923976,-0.2966405583561437,0.009819178332527451
3549,7.0,299.86046,1011.5954,0.0,0.0,0.0,0.0,-0.035372207212980095,0.0,-0.0921473675232371,-0.09604464962136891,-0.11930773707725688,-0.1107776201828999,-0.29625111568020873,5.3170748880544356e-05
3550,7.0,299.96477999999996,846.99094,0.0,0.0,0.0,0.0,-0.03538217402256392,0.0,-0.07861364228981244,-0.07682760761679452,-0.1020228454763709,-0.08749750201933111,-0.3066087912499317,-0.012083262781525187
3551,7.0,299.97161,647.83736,0.0,0.0,0.0,0.0,-0.035392140832147735,0.0,-0.03977920087465146,-0.09214679199718032,-0.06500039009578903,-0.07012620348966744,-0.3196915826986027,-0.04963446854129066
3552,7.0,299.17734,682.26952,0.0,0.0,0.0,0.0,-0.03540210764173156,0.0,-0.07337041550084622,-0.07416364746088212,-0.05985883383510695,-0.08755167442267751,-0.3248344957011687,-0.01731967546356888
3553,7.0,300.2557,638.0783700000001,0.0,0.0,0.0,0.0,-0.03541207445131538,0.0,-0.09017032811361851,-0.045534079447363755,-0.058255483088868534,-0.06307101194437423,-0.3111542615960347,-0.03203520799087887
3554,7.0,300.58912999999995,512.74858,0.0,0.0,0.0,0.0,-0.0354220412608992,0.0,-0.06127470088884215,-0.05438586474496695,-0.04020219834089806,-0.053349483158434054,-0.3099697823616357,-0.007080407185956783
3555,7.0,300.05341,524.1169,0.0,0.0,0.0,0.0,-0.03543200807048302,0.0,-0.01167649656863049,-0.06738498909313065,-0.08025696372599563,-0.08064212339375793,-0.3023360878307487,-0.03349023006822836
3556,7.0,299.86604,780.1507,0.0,0.0,0.0,0.0,-0.03544197488006684,0.0,-0.05381540392541685,-0.08293554812060133,-0.1003953814042527,-0.1035225873468839,-0.3344878712588827,0.003840881253840466
3557,7.0,299.47171000000003,884.75634,0.0,0.0,0.0,0.0,-0.035451941689650664,0.0,-0.07906554879466213,-0.09423051752307801,-0.09564776766319971,-0.06936175289872203,-0.3133588506336107,-0.02246578830995068
3558,7.0,299.63959,999.92076,0.0,0.0,0.0,0.0,-0.03546190849923449,0.0,-0.14138938504904588,-0.05934949023508865,-0.1032120667212379,-0.08839470559862823,-0.31266241344237766,-0.0004280780035730096
3559,7.0,299.11607000000004,963.19195,0.0,0.0,0.0,0.0,-0.03547187530881831,0.0,-0.11637674904299089,-0.08189732849838702,-0.09451222435563031,-0.04982980492206886,-0.3457307626459697,-0.007708634710933014
3560,7.0,299.33965,690.6276799999999,0.0,0.0,0.0,0.0,-0.03548184211840213,0.0,-0.08754193202296601,-0.06291409294113753,-0.05947754478272664,-0.08576733390382682,-0.33112548186204066,-0.007072406360517163
3561,7.0,299.38723,715.55705,0.0,0.0,0.0,0.0,-0.035491808927985945,0.0,-0.07049968342352703,-0.04699088484488925,-0.1000209084852951,-0.07431147457097152,-0.2924922921817417,-0.008643603033382201
3562,7.0,299.94924,747.10321,0.0,0.0,0.0,0.0,-0.03550177573756977,0.0,-0.08142354187087793,-0.06547289496192164,-0.08020428384004652,-0.07102452873682523,-0.3101607496079827,-0.015818123928377285
3563,7.0,300.35407999999995,375.14813,0.0,0.0,0.0,0.0,-0.03551174254715359,0.0,-0.02094529102438928,-0.030029445980675574,-0.06306092605287884,-0.09360719443256081,-0.2916027295214487,-0.012633663275595489
3564,7.0,300.74956000000003,420.3049,0.0,0.0,0.0,0.0,-0.035521709356737416,0.0,-0.006533253854481953,-0.06309050991604853,-0.05813843041081635,-0.09677470949067021,-0.3094553350208637,-0.005796887009933204
3565,7.0,299.40282,859.66178,0.0,0.0,0.0,0.0,-0.03553167616632123,0.0,-0.08159992236878533,-0.09188791368938101,-0.08782787829393673,-0.1022043287017819,-0.2994618418020827,0.006302428794251294
3566,7.0,300.21996,1076.5977,0.0,0.0,0.0,0.0,-0.03554164297590505,0.0,-0.1111021135274249,-0.08629715832811642,-0.12985953110113788,-0.1069846197585599,-0.3072757428632547,-0.009995099625489532
3567,7.0,301.18266,966.19026,0.0,0.0,0.0,0.0,-0.03555160978548887,0.0,-0.06348405017538794,-0.11947863183912288,-0.1107350332811969,-0.07167722493449133,-0.3458812910808257,-0.011713577469290089
3568,7.0,301.21631,798.84599,0.0,0.0,0.0,0.0,-0.0355615765950727,0.0,-0.05458770720463725,-0.08734748020952511,-0.100894045348217,-0.07013002952204503,-0.3176085330105217,-0.014781542731574684
3569,7.0,301.02058,784.54222,0.0,0.0,0.0,0.0,-0.035571543404656514,0.0,-0.07511042430132173,-0.05471490656919085,-0.1086559150035039,-0.05741305074372695,-0.3195289864550557,-0.013992536024455788
3570,7.0,300.95366,716.0885599999999,0.0,0.0,0.0,0.0,-0.03558151021424033,0.0,-0.08867192981273811,-0.06879429028621785,-0.06020682140970064,-0.05795246861996335,-0.32194237594073866,-0.02740616173677757
3571,7.0,300.02468999999996,563.32031,0.0,0.0,0.0,0.0,-0.035591477023824154,0.0,-0.06751114177033093,-0.04168266110175836,-0.06204150728627004,-0.08059081747494443,-0.31170959357834166,-0.011565955035720887
3572,7.0,300.79791,517.73244,0.0,0.0,0.0,0.0,-0.03560144383340798,0.0,-0.03894012137409076,-0.07223817944160324,-0.04619943316527905,-0.08797364749307302,-0.3007892500955877,-0.017906640100747783
3573,7.0,299.8159,455.41963,0.0,0.0,0.0,0.0,-0.0356114106429918,0.0,-0.019939446769370178,-0.06493720483280313,-0.053559545102915544,-0.09245519391686723,-0.2926178743991357,-0.011083965135402189
3574,7.0,299.28744,640.3643900000001,0.0,0.0,0.0,0.0,-0.03562137745257562,0.0,-0.06457982037678203,-0.048529099821699256,-0.08154586446270022,-0.1100859148696339,-0.2934737971561087,-0.008134548209642403
3575,7.0,300.14191,1079.4037,0.0,0.0,0.0,0.0,-0.035631344262159435,0.0,-0.08814670858365281,-0.12273835873583289,-0.11722671388937589,-0.07941057362596343,-0.3161709742986457,-0.011780231087368288
3576,7.0,300.09451,983.21144,0.0,0.0,0.0,0.0,-0.03564131107174326,0.0,-0.09399538270487201,-0.08707727072585751,-0.11779906847336288,-0.05713792497057415,-0.3047919223631207,0.010191243161297391
3577,7.0,300.90587999999997,955.39616,0.0,0.0,0.0,0.0,-0.035651277881327076,0.0,-0.08221941638717463,-0.09075379298495201,-0.11744336702575789,-0.042337237891610056,-0.3238693040534117,-0.0037784223898512563
3578,7.0,299.78985,1027.0159,0.0,0.0,0.0,0.0,-0.03566124469091091,0.0,-0.12158644535964788,-0.08630559667494922,-0.10429516015063091,-0.06565131310578014,-0.33443856650901665,0.0013157582478302285
3579,7.0,299.15702999999996,724.54737,0.0,0.0,0.0,0.0,-0.03567121150049472,0.0,-0.09318032736418232,-0.03399050710635187,-0.09307347406163673,-0.1148551108378169,-0.3271926529239007,-0.011740591730206189
3580,7.0,301.18829,600.1263799999999,0.0,0.0,0.0,0.0,-0.03568117831007854,0.0,-0.051248949839877544,-0.08301828404426673,-0.04815620048014695,-0.09246731948081391,-0.2935237301210367,-0.01205553620578879
3581,7.0,301.57881000000003,617.04498,0.0,0.0,0.0,0.0,-0.035691145119662364,0.0,-0.05177995774028395,-0.05015157363707495,-0.08563473492949032,-0.09513062102416132,-0.2896427795880167,-0.014540808693316089
3582,7.0,299.97399,731.41872,0.0,0.0,0.0,0.0,-0.03570111192924618,0.0,-0.07850581424067062,-0.07925069187943433,-0.06457652224770653,-0.06694678274288303,-0.2974778271787757,0.00016225972292378786
3583,7.0,300.85465,811.75194,0.0,0.0,0.0,0.0,-0.03571107873883001,0.0,-0.07832100147543102,-0.0915888336706141,-0.07684248618126292,-0.06965141678430964,-0.33472703881248667,-0.03595250380498586
3584,7.0,299.87847999999997,910.50959,0.0,0.0,0.0,0.0,-0.03572104554841383,0.0,-0.09106231750790102,-0.08538698717403952,-0.1003228742403468,-0.06271497612423624,-0.3165706406680897,0.006380335871915124
3585,7.0,300.58949,988.67831,0.0,0.0,0.0,0.0,-0.035731012357997645,0.0,-0.07384109550354873,-0.1093203942865829,-0.11737203421871788,-0.06386026689776764,-0.3281590604717777,-0.007838305088505483
3586,7.0,300.7776,844.07664,0.0,0.0,0.0,0.0,-0.03574097916758147,0.0,-0.05959545365711334,-0.09511684994205222,-0.1018659133008829,-0.07589695158544592,-0.31404054503588874,-0.02228063610592758
3587,7.0,300.30216,697.29901,0.0,0.0,0.0,0.0,-0.035750945977165285,0.0,-0.039275587203948664,-0.07256796195165023,-0.10011793934137131,-0.07997705034612032,-0.3198793582071347,-0.007938900862408513
3588,7.0,299.86409,706.0355900000001,0.0,0.0,0.0,0.0,-0.035760912786749116,0.0,-0.06262608470621335,-0.07479728138441692,-0.07719382254743712,-0.09868765981821372,-0.3013969367105617,-0.0008686035414444953
3589,7.0,299.5765,646.10829,0.0,0.0,0.0,0.0,-0.03577087959633293,0.0,-0.04756279258558216,-0.06948048250568974,-0.07935751275797673,-0.1052935357391629,-0.3013582710867457,0.009336758003566271
3590,7.0,299.44147000000004,573.3648,0.0,0.0,0.0,0.0,-0.03578084640591675,0.0,-0.06196925546138935,-0.05892816057850665,-0.05339116725429795,-0.0938023038453166,-0.3244671824074177,-0.016014100683218683
3591,7.0,299.90162000000004,714.37077,0.0,0.0,0.0,0.0,-0.03579081321550057,0.0,-0.08452961850917382,-0.06226260352434054,-0.07035865319510844,-0.06034836940892034,-0.34714065963011564,-0.022286778428033775
3592,7.0,298.89871,676.9952599999999,0.0,0.0,0.0,0.0,-0.03580078002508439,0.0,-0.06152289852733735,-0.049986880979071044,-0.09427987597519932,-0.06208854235591204,-0.3127182232578857,-0.03162982993062117
3593,7.0,300.09517,872.8245300000001,0.0,0.0,0.0,0.0,-0.035810746834668214,0.0,-0.08405579236491083,-0.08098922234801392,-0.1002718469653108,-0.04010768338482016,-0.3099401751937137,-0.012637941217517688
3594,7.0,300.32714,1067.3911,0.0,0.0,0.0,0.0,-0.03582071364425204,0.0,-0.1012408555261945,-0.1004242326876001,-0.12279516153643888,-0.05633411062649386,-0.31671643722497866,-0.01057209448963449
3595,7.0,300.25727,854.3317699999999,0.0,0.0,0.0,0.0,-0.035830680453835854,0.0,-0.08711229979506462,-0.07691207417163073,-0.0956711524622576,-0.07331954933257613,-0.3210461967572927,0.022918329109362978
3596,7.0,301.37254,552.89622,0.0,0.0,0.0,0.0,-0.03584064726341968,0.0,-0.04721055847981936,-0.048270904444467355,-0.07258518011059953,-0.08297937828017701,-0.32924301516375565,0.02051888903780668
3597,7.0,299.92842,662.7003,0.0,0.0,0.0,0.0,-0.035850614073003495,0.0,-0.05300967453864755,-0.06388081459654554,-0.08455385545156582,-0.1021654604279459,-0.3072564201838477,0.02999436118271297
3598,7.0,298.78341,821.23882,0.0,0.0,0.0,0.0,-0.03586058088258732,0.0,-0.07238881122796943,-0.09414019336941372,-0.08310708933603113,-0.1084284099585509,-0.3117892451687027,-0.029306600452086273
3599,7.0,299.59384,707.48447,0.0,0.0,0.0,0.0,-0.035870547692171136,0.0,-0.05365968663679875,-0.07326435354662872,-0.08813357280935642,-0.08501248892382943,-0.3104840777148927,-0.024955383322404576
3600,7.0,300.09317999999996,599.55791,0.0,0.0,0.0,0.0,-0.03588051450175496,0.0,-0.07432346638590502,-0.049080246067843156,-0.05884692021198885,-0.07057260500672383,-0.3002488230222517,-0.03216956191438857
3601,7.0,299.45617000000004,676.18873,0.0,0.0,0.0,0.0,-0.035890481311338776,0.0,-0.05674555400185015,-0.05975328154568974,-0.08904565292662173,-0.07011500099656184,-0.30485169398651973,-0.005452937642288045
3602,7.0,299.95651000000004,894.82405,0.0,0.0,0.0,0.0,-0.0359004481209226,0.0,-0.1111319537428699,-0.08471523275524252,-0.07615698297185902,-0.08617989996029392,-0.3373060642920167,-0.014852580682835586
3603,7.0,299.76325,929.3422300000001,0.0,0.0,0.0,0.0,-0.035910414930506424,0.0,-0.06943972452041723,-0.08712644071346022,-0.12593066397088887,-0.06716976261288944,-0.33855856300562864,-0.010228792183503189
3604,7.0,299.74017000000003,641.08296,0.0,0.0,0.0,0.0,-0.03592038174009024,0.0,-0.06857229428205854,-0.04497337217327625,-0.08132754452990372,-0.06722194904603984,-0.32258228390889265,-0.004297458335026116
3605,7.0,299.68101,631.21977,0.0,0.0,0.0,0.0,-0.035930348549674064,0.0,-0.026288460750219074,-0.07014133536666083,-0.09544525139221291,-0.07271680839134023,-0.2984094701157217,0.0009247373335394692
3606,7.0,299.77451,794.34026,0.0,0.0,0.0,0.0,-0.03594031535925788,0.0,-0.07381762153848202,-0.07648993087521842,-0.09115205397650732,-0.0938832827933086,-0.29865723003017375,-0.004462534710842886
3607,7.0,299.01729,912.1611,0.0,0.0,0.0,0.0,-0.035950282168841705,0.0,-0.08185784214199002,-0.09325130148068692,-0.10216505512790591,-0.1141502332732509,-0.3217191164137047,0.013783104321536488
3608,7.0,299.36391000000003,627.1636,0.0,0.0,0.0,0.0,-0.03596024897842553,0.0,-0.06685299226062665,-0.05519513645408585,-0.06859394541019534,-0.06668369742066853,-0.3030769459063657,0.004631558607724245
3609,7.0,299.89527999999996,529.9456799999999,0.0,0.0,0.0,0.0,-0.035970215788009345,0.0,-0.043654678843881356,-0.054798955664985854,-0.06263661845425295,-0.07835228050601802,-0.3096106155986887,0.00937411025260265
3610,7.0,300.09463,960.20485,0.0,0.0,0.0,0.0,-0.03598018259759317,0.0,-0.10113575311982172,-0.0968242817385626,-0.09391826221326081,-0.08521791220935311,-0.3194278336975727,-0.045277764662317456
3611,7.0,300.47085,1109.2562,0.0,0.0,0.0,0.0,-0.035990149407176986,0.0,-0.11621344352437389,-0.1048444936923459,-0.11612824945596589,-0.1003514884231708,-0.34940865785894965,-0.013082274691119987
3612,7.0,299.81029,807.4198,0.0,0.0,0.0,0.0,-0.03600011621676081,0.0,-0.09564267810794741,-0.07232980359514583,-0.07746297825100072,-0.06660547653944873,-0.2927645423511107,-0.01956088943925948
3613,7.0,299.94617999999997,644.78273,0.0,0.0,0.0,0.0,-0.03601008302634463,0.0,-0.07108639474818093,-0.037521414180325265,-0.08739003874022531,-0.08246783390094152,-0.30873215815949173,0.020614863074028583
3614,7.0,300.19595,837.27427,0.0,0.0,0.0,0.0,-0.03602004983592845,0.0,-0.08897637499078452,-0.08397883095356533,-0.08155526539712801,-0.07927534222786713,-0.30361994663495573,-0.016744939741846883
3615,7.0,299.37776,962.5261800000001,0.0,0.0,0.0,0.0,-0.036030016645512274,0.0,-0.06409232751517023,-0.1011964721320642,-0.12729512682055089,-0.0917236040399149,-0.3158092642779477,-0.013934115063440087
3616,7.0,298.9874,955.54157,0.0,0.0,0.0,0.0,-0.03603998345509609,0.0,-0.07836671628019272,-0.11841043318619987,-0.09368363300685471,-0.06423386639513903,-0.3293816480424377,-0.016335457005434085
3617,7.0,298.39934,718.0271299999999,0.0,0.0,0.0,0.0,-0.036049950264679914,0.0,-0.053574267626868545,-0.07169570256331494,-0.0929923471791301,-0.06939614666011644,-0.3301871818719377,-0.00969164976301636
3618,7.0,298.33128,424.90963,0.0,0.0,0.0,0.0,-0.03605991707426374,0.0,-0.03510055197515477,-0.06034280970562165,-0.03371855584576237,-0.08620028959205622,-0.34473645019033866,-0.017462098910874985
3619,7.0,300.49568,595.09378,0.0,0.0,0.0,0.0,-0.036069883883847555,0.0,-0.060356477436220544,-0.08983832455935233,-0.030698847632740372,-0.08725876307051943,-0.3272741587619447,-0.02133822637341898
3620,7.0,300.23053,816.0704,0.0,0.0,0.0,0.0,-0.03607985069343138,0.0,-0.08708607586922652,-0.06910479976611272,-0.09187414868677252,-0.11599869529817988,-0.2934426194505317,0.0028591810261791974
3621,7.0,299.28952999999996,719.1394,0.0,0.0,0.0,0.0,-0.036089817503015195,0.0,-0.07240020218559363,-0.07215291343243814,-0.07404730405789993,-0.0997901610400221,-0.29975854169636473,-0.016256377901379584
3622,7.0,300.23021,677.55172,0.0,0.0,0.0,0.0,-0.03609978431259902,0.0,-0.06038640377792404,-0.07053535489329753,-0.07503704472907972,-0.0993715742514608,-0.32865597858581974,-0.025271457571848677
3623,7.0,300.40558,1027.4694,0.0,0.0,0.0,0.0,-0.03610975112218284,0.0,-0.1069746797750789,-0.08648935160708442,-0.1188610052406679,-0.07940712046962263,-0.3340171456599257,-0.009063126672985962
3624,7.0,300.31836,1050.9572,0.0,0.0,0.0,0.0,-0.03611971793176666,0.0,-0.1057388996881169,-0.09240491644690522,-0.12132093330344387,-0.043852832059937556,-0.33584798726561566,-0.0016540792138199085
3625,7.0,300.10048,780.0955299999999,0.0,0.0,0.0,0.0,-0.036129684741350476,0.0,-0.09192970721625572,-0.03294835506049947,-0.11225150391086089,-0.059792027216263643,-0.32520001554224265,0.03919788713328026
3626,7.0,299.66536,772.15944,0.0,0.0,0.0,0.0,-0.0361396515509343,0.0,-0.06746179142421044,-0.08041298701614392,-0.08684241252492882,-0.06984925487958474,-0.3210370369763887,-0.018890615378858583
3627,7.0,299.44046000000003,674.4888900000001,0.0,0.0,0.0,0.0,-0.036149618360518124,0.0,-0.049830279123115655,-0.06961775458948744,-0.08557974584656332,-0.0868809292009801,-0.3233772191423467,0.012700489146190689
3628,7.0,299.87459,678.35359,0.0,0.0,0.0,0.0,-0.03615958517010195,0.0,-0.06290241016748453,-0.08648280702468852,-0.05681733669193454,-0.098654053352147,-0.3070532838037997,-0.03079837311056277
3629,7.0,299.98118,887.16391,0.0,0.0,0.0,0.0,-0.036169551979685764,0.0,-0.09335781027819852,-0.09588886140524382,-0.08042900548697483,-0.10590999710000289,-0.30277310259887874,0.00962792656555237
3630,7.0,299.77963,882.4516,0.0,0.0,0.0,0.0,-0.03617951878926958,0.0,-0.09229779361983301,-0.08844609967020041,-0.08749935829351432,-0.09485391255435231,-0.33620773158111966,-0.02970269207517747
3631,7.0,300.14516000000003,658.84858,0.0,0.0,0.0,0.0,-0.036189485598853405,0.0,-0.06459732731200984,-0.07858325390606334,-0.05709293565288404,-0.06173148619292334,-0.3048355123824227,-0.006935003162156525
3632,7.0,301.29778999999996,757.97923,0.0,0.0,0.0,0.0,-0.03619945240843722,0.0,-0.055504593167126845,-0.07356431205323233,-0.1013378580112679,-0.08068078699107373,-0.3080649937636477,-0.016120026861922786
3633,7.0,300.96231,817.92495,0.0,0.0,0.0,0.0,-0.03620941921802105,0.0,-0.08152262253190642,-0.047237585912986754,-0.1198685507426049,-0.06806034865578343,-0.3004632672734157,-0.01109916591340239
3634,7.0,300.32611,689.2166599999999,0.0,0.0,0.0,0.0,-0.03621938602760487,0.0,-0.07839570131255333,-0.051997213760475454,-0.07911174185347103,-0.10032675397497971,-0.35265529356436764,-0.015350592093735484
3635,7.0,300.10716,559.7280400000001,0.0,0.0,0.0,0.0,-0.036229352837188686,0.0,-0.03653864669633367,-0.06026691220688115,-0.07333779087412642,-0.06884933408465023,-0.3292147252209637,-0.03371184306384987
3636,7.0,300.22017,557.5428099999999,0.0,0.0,0.0,0.0,-0.03623931964677251,0.0,-0.05227500843439165,-0.036928520003561165,-0.08027556497133143,-0.07605405398695073,-0.3333271020768237,-0.00045011744967813364
3637,7.0,299.46984,804.55495,0.0,0.0,0.0,0.0,-0.036249286456356326,0.0,-0.06381387726843935,-0.08517679148054483,-0.09557394732716422,-0.08254419242847752,-0.32576270372027566,0.003891819970817726
3638,7.0,299.91489,1082.2693,0.0,0.0,0.0,0.0,-0.03625925326594016,0.0,-0.1025936092577009,-0.10317169883725391,-0.12321753484062388,-0.1042027112115069,-0.3302495980780977,0.009295308677750542
3639,7.0,299.77378999999996,1199.2908,0.0,0.0,0.0,0.0,-0.036269220075523974,0.0,-0.12211576721188787,-0.12257704931991287,-0.11986165050942388,-0.10222616424143689,-0.30593012646545276,-0.018882531669560783
3640,7.0,299.3037,863.7759,0.0,0.0,0.0,0.0,-0.03627918688510779,0.0,-0.0941474755978824,-0.08642497172223061,-0.08199385678241362,-0.07322729088447093,-0.27780803868501874,0.016672072874155484
3641,7.0,300.09781,567.68211,0.0,0.0,0.0,0.0,-0.036289153694691614,0.0,-0.04677552461563486,-0.04487482954805086,-0.08091083225402743,-0.09062728769671691,-0.3041289730876927,-0.003193998375973097
3642,7.0,300.15697,862.1124199999999,0.0,0.0,0.0,0.0,-0.03629912050427543,0.0,-0.09916277380335381,-0.07038795436150024,-0.09250992158126842,-0.07866453986883562,-0.3468222153886877,-0.0029787445379791974
3643,7.0,300.13541000000004,935.82968,0.0,0.0,0.0,0.0,-0.03630908731385926,0.0,-0.1073139159085589,-0.04927413248772825,-0.12788080564335289,-0.08081579750064823,-0.3467614102501867,-0.001013631284687619
3644,7.0,299.9721,525.82894,0.0,0.0,0.0,0.0,-0.03631905412344308,0.0,-0.032130454513528965,-0.049117739361293454,-0.07859067393654563,-0.052557716358042746,-0.3159734310591497,-0.022318995728213376
3645,7.0,300.26169,515.4052,0.0,0.0,0.0,0.0,-0.036329020933026895,0.0,-0.05476141272228065,-0.04158574271644326,-0.06032315670668204,-0.08878692964608773,-0.3230572043632637,-0.02100622991190348
3646,7.0,299.58407,1012.9852,0.0,0.0,0.0,0.0,-0.03633898774261072,0.0,-0.10028814914616971,-0.1000040632023826,-0.10762997901225191,-0.08348997121756863,-0.3267997246676217,-0.013216619495378789
3647,7.0,300.41191000000003,1185.4733,0.0,0.0,0.0,0.0,-0.036348954552194536,0.0,-0.1293545779138029,-0.13881155520463387,-0.09218815691926273,-0.08162849196860492,-0.3042230837569807,-0.023812754356885877
3648,7.0,299.64836,1028.8844,0.0,0.0,0.0,0.0,-0.03635892136177836,0.0,-0.1011410027685898,-0.1035618710532609,-0.1080523016539319,-0.05724985668262095,-0.3206736854905287,0.0029932816371638976
3649,7.0,300.35363,861.1006800000001,0.0,0.0,0.0,0.0,-0.036368888171362176,0.0,-0.05781487128288354,-0.1085769625557119,-0.0953612701841746,-0.08061245644408002,-0.3221720594734067,0.00012022248913503589
3650,7.0,300.53753,768.28678,0.0,0.0,0.0,0.0,-0.036378854980946,0.0,-0.06409612416329494,-0.08072472962141053,-0.08871914422764782,-0.1087708479623469,-0.3634836339380417,0.001203379692489329
3651,7.0,301.07763,824.9227599999999,0.0,0.0,0.0,0.0,-0.036388821790529824,0.0,-0.07851397394372593,-0.08573658075004173,-0.08650536501166482,-0.10997693982137889,-0.3245402276071267,-0.024706825980123876
3652,7.0,301.2759,623.96965,0.0,0.0,0.0,0.0,-0.03639878860011364,0.0,-0.06806052496130084,-0.05059000492884475,-0.07102066217444364,-0.10513881244889291,-0.2951686403333767,0.004919583966575136
3653,7.0,301.52689,457.05803,0.0,0.0,0.0,0.0,-0.036408755409697464,0.0,-0.01861272951243338,-0.04586091441286986,-0.07446058648218773,-0.1044509980160109,-0.3041280814276047,-0.039068103980971665
3654,7.0,300.40289,625.7458799999999,0.0,0.0,0.0,0.0,-0.03641872221928128,0.0,-0.06375571772594944,-0.04718207601950836,-0.07927332788666833,-0.1047237041479249,-0.3268060777457487,-0.017711744483763083
3655,7.0,299.57875,970.0061099999999,0.0,0.0,0.0,0.0,-0.036428689028865105,0.0,-0.08077605884497634,-0.1017878018506739,-0.1122937767050329,-0.08563426376819382,-0.3212197158369177,-0.05491787677622245
3656,7.0,299.92625,1065.1061,0.0,0.0,0.0,0.0,-0.03643865583844892,0.0,-0.14331439811902985,-0.06722147788474334,-0.11322980701491188,-0.05627216051537985,-0.3173239110574317,0.03827252432045407
3657,7.0,299.88234,847.88823,0.0,0.0,0.0,0.0,-0.03644862264803274,0.0,-0.0915153325083601,-0.09464290018127701,-0.07157861644800943,-0.06373860494501055,-0.34045104061490167,-0.022905037294551178
3658,7.0,299.45207999999997,814.48096,0.0,0.0,0.0,0.0,-0.03645858945761657,0.0,-0.08079579999667462,-0.07563072620117152,-0.09115534703933231,-0.07869640658448063,-0.3490281115188926,0.024536499651563976
3659,7.0,300.51381000000003,1161.412,0.0,0.0,0.0,0.0,-0.036468556267200386,0.0,-0.12708685326249589,-0.1104064464062679,-0.11554695800609689,-0.08387784740884902,-0.3367513706572727,-0.0056222205258949646
3660,7.0,299.82342,983.6994599999999,0.0,0.0,0.0,0.0,-0.03647852307678421,0.0,-0.09070866991824872,-0.08873930790463783,-0.1195720940283469,-0.1081470912007869,-0.3038071243259287,0.026294850305349678
3661,7.0,299.20776,444.81886,0.0,0.0,0.0,0.0,-0.03648848988636803,0.0,-0.025382392245797077,-0.041403997059256355,-0.06842743599476214,-0.09697453760914171,-0.3185142164799057,-0.013324737334049187
3662,7.0,301.21322000000004,581.61729,0.0,0.0,0.0,0.0,-0.03649845669595184,0.0,-0.04007848050368806,-0.06058436447646124,-0.07613429022261942,-0.1023298805216729,-0.34526928802042567,0.005765397223325404
3663,7.0,300.10917,687.34212,0.0,0.0,0.0,0.0,-0.036508423505535674,0.0,-0.07938076988752202,-0.06330260241373044,-0.06625147025926104,-0.06492955378129804,-0.28954399783576773,-0.04251455564585996
3664,7.0,300.86689,780.3484599999999,0.0,0.0,0.0,0.0,-0.03651839031511949,0.0,-0.05974540048641194,-0.06958674812317733,-0.10787429387636391,-0.0909230067649021,-0.3075114147040137,-0.03787420253389276
3665,7.0,301.78309,771.7448099999999,0.0,0.0,0.0,0.0,-0.036528357124703315,0.0,-0.06786744204874504,-0.07763829382305301,-0.08908541792679622,-0.07985859735642993,-0.3039188756794577,-0.036026989846337065
3666,7.0,301.03076,662.0491099999999,0.0,0.0,0.0,0.0,-0.03653832393428713,0.0,-0.04865989521085775,-0.054159562427882654,-0.09842694043498272,-0.1125213121474889,-0.3385792941026747,-0.029542655301383072
3667,7.0,301.01612,729.80593,0.0,0.0,0.0,0.0,-0.03654829074387095,0.0,-0.06771491447144173,-0.08424839398366912,-0.06987947202406693,-0.044085018320352554,-0.3153556930031837,-0.014100374206098587
3668,7.0,301.59421000000003,967.3125699999999,0.0,0.0,0.0,0.0,-0.03655825755345478,0.0,-0.11449996667776688,-0.07935638906361582,-0.10018250870399381,-0.08337898486786512,-0.3199935109634007,0.03634210556118656
3669,7.0,299.44063,839.84495,0.0,0.0,0.0,0.0,-0.036568224363038596,0.0,-0.09026887175209401,-0.07184605469265352,-0.09317696540035052,-0.07891363220716913,-0.33448163977076767,0.006740076641043774
3670,7.0,299.95713,651.89476,0.0,0.0,0.0,0.0,-0.03657819117262242,0.0,-0.051055362328771954,-0.08192781415414573,-0.06517655375817503,-0.0996879210651818,-0.34935414500356965,0.011724969440164388
3671,7.0,299.49627000000004,763.8747,0.0,0.0,0.0,0.0,-0.036588157982206236,0.0,-0.07247259079923783,-0.07818368379537882,-0.08154256025412412,-0.06889377422078613,-0.33068076639315064,-0.014261571151257488
3672,7.0,299.37388,916.3123099999999,0.0,0.0,0.0,0.0,-0.03659812479179005,0.0,-0.08950285264999382,-0.060849877545915344,-0.1281833317257099,-0.08235106493291733,-0.3125170424505307,0.007737532705110023
3673,7.0,299.9021,866.22634,0.0,0.0,0.0,0.0,-0.036608091601373884,0.0,-0.07933923980567333,-0.0909227281211246,-0.09304921077474211,-0.11055673166109989,-0.32601705989287866,-0.024096494782388875
3674,7.0,300.07068,741.02171,0.0,0.0,0.0,0.0,-0.0366180584109577,0.0,-0.07985325854165301,-0.042653275664050555,-0.10274556637519791,-0.1118082880521189,-0.29698354351499373,0.004214265435565616
3675,7.0,301.49577999999997,815.98049,0.0,0.0,0.0,0.0,-0.036628025220541524,0.0,-0.09283949434854472,-0.08381787921493063,-0.07138031935043902,-0.09545595131326891,-0.3029315749145187,-0.018002163240675183
3676,7.0,300.68872000000005,836.4325,0.0,0.0,0.0,0.0,-0.03663799203012534,0.0,-0.1026472811154979,-0.05414679446337255,-0.0974605207281045,-0.085989855784788,-0.3033072171240917,-0.0015265181189806085
3677,7.0,300.51867999999996,902.86404,0.0,0.0,0.0,0.0,-0.036647958839709165,0.0,-0.08445077853214292,-0.06871940603757734,-0.12127794110170088,-0.09798410961127872,-0.34558242283132967,-0.018094652709803184
3678,7.0,300.87004,931.2914800000001,0.0,0.0,0.0,0.0,-0.03665792564929298,0.0,-0.07391949066378574,-0.1032751922024679,-0.10589467675849089,-0.07229422939738493,-0.32183531593517267,-0.00014237061644588585
3679,7.0,299.85671,782.74919,0.0,0.0,0.0,0.0,-0.036667892458876805,0.0,-0.06992557389036684,-0.07835984340476443,-0.08965079223084432,-0.06278122545552453,-0.3197342506603137,0.00893695535198382
3680,7.0,300.35271,565.83016,0.0,0.0,0.0,0.0,-0.03667785926846062,0.0,-0.05926177114743145,-0.05904282299957295,-0.053693644700650155,-0.03105443255658387,-0.3195216910543357,0.010867595709048189
3681,7.0,300.47956,682.80413,0.0,0.0,0.0,0.0,-0.036687826078044446,0.0,-0.05941304938736144,-0.07145550149460894,-0.07668685400565323,-0.07994372556358142,-0.3418623257516847,-0.0004272120699050487
3682,7.0,298.89051,775.89184,0.0,0.0,0.0,0.0,-0.03669779288762826,0.0,-0.05974885769575315,-0.09449212653989682,-0.08161076110510501,-0.08179057854735163,-0.3513769671057067,-0.034233191651052965
3683,7.0,299.71352,716.14181,0.0,0.0,0.0,0.0,-0.036707759697212086,0.0,-0.03925149110332057,-0.1049381990615939,-0.07349954105383992,-0.09516751953980292,-0.33167976006424366,-0.03628997587004176
3684,7.0,299.95425,686.70388,0.0,0.0,0.0,0.0,-0.03671772650679591,0.0,-0.07119975919586913,-0.05365923776700445,-0.08388183657449272,-0.09150975557980971,-0.2978566408611617,-0.035009330081901865
3685,7.0,299.92727,629.8857,0.0,0.0,0.0,0.0,-0.03672769331637973,0.0,-0.08367428951675941,-0.05133146588827125,-0.056463769149040145,-0.08291955092802251,-0.3001644902164287,-0.01160540187536399
3686,7.0,300.65263999999996,672.70501,0.0,0.0,0.0,0.0,-0.03673766012596355,0.0,-0.07728346174403383,-0.07238550600614323,-0.05481655683247295,-0.12918496997956389,-0.2802634172548457,-0.02279455554339748
3687,7.0,300.36334,1002.2553,0.0,0.0,0.0,0.0,-0.03674762693554737,0.0,-0.11669327824172988,-0.06691891329888254,-0.12104840955654789,-0.08774634915114042,-0.28088305008849873,0.026038784779827975
3688,7.0,300.3365,1110.1436,0.0,0.0,0.0,0.0,-0.0367575937451312,0.0,-0.12566070374674587,-0.09249628728792282,-0.11929893193388788,-0.0937993937910294,-0.3117960238118717,0.014062409751351786
3689,7.0,301.16652999999997,890.52084,0.0,0.0,0.0,0.0,-0.036767560554715015,0.0,-0.06406543383101604,-0.08413818175704202,-0.12249248346656688,-0.05840939983205895,-0.35694256751998865,0.01002197152476658
3690,7.0,300.07082,770.41269,0.0,0.0,0.0,0.0,-0.03677752736429883,0.0,-0.04560134000225186,-0.07489364653517742,-0.11369123097795089,-0.06928020146442353,-0.3773041727845226,0.004638363190095806
3691,7.0,300.45898,868.15091,0.0,0.0,0.0,0.0,-0.036787494173882655,0.0,-0.07143337717867544,-0.1022362562124329,-0.09022656450741862,-0.07402895409858892,-0.36399262999327564,-0.004414082610936036
3692,7.0,299.74768,643.03049,0.0,0.0,0.0,0.0,-0.03679746098346647,0.0,-0.06325663125669344,-0.06962509457321184,-0.06258348564550914,-0.08368408156572582,-0.32648136148620166,-0.01014850427207939
3693,7.0,298.65586,516.34015,0.0,0.0,0.0,0.0,-0.0368074277930503,0.0,-0.04201693028324816,-0.06933059545814703,-0.04560698583180905,-0.07846871712800942,-0.3180422851133297,-0.03215795108149267
3694,7.0,299.70499,738.3890700000001,0.0,0.0,0.0,0.0,-0.03681739460263412,0.0,-0.052035764887030156,-0.08409687256371512,-0.08831920225417661,-0.09841346218215251,-0.3005575299302187,-0.037637539734535964
3695,7.0,300.01342,717.80988,0.0,0.0,0.0,0.0,-0.036827361412217936,0.0,-0.049823562288202755,-0.06405674521140853,-0.10431597230768488,-0.08475576883874313,-0.3047662466055867,-0.025002153933770477
3696,7.0,299.44965,641.0946299999999,0.0,0.0,0.0,0.0,-0.03683732822180176,0.0,-0.06635535169926333,-0.047941937600750856,-0.08057946806057434,-0.09257949538613482,-0.3048008997590067,-0.012604956887012386
3697,7.0,300.06311,980.24676,0.0,0.0,0.0,0.0,-0.03684729503138558,0.0,-0.13295924554205588,-0.06567170273754243,-0.0993395889855541,-0.08087672726891151,-0.32757262171140067,0.0005066727031522025
3698,7.0,301.0372,995.8284,0.0,0.0,0.0,0.0,-0.03685726184096941,0.0,-0.11020603566898889,-0.09065651286935122,-0.1018444121337609,-0.1090618331260649,-0.34211355098147866,-0.005973177936531764
3699,7.0,300.33903,683.77513,0.0,0.0,0.0,0.0,-0.036867228650553224,0.0,-0.07681658244245643,-0.07188050012980303,-0.05915348206949415,-0.06705832030064095,-0.3116229708272927,0.002233529081632158
3700,7.0,301.40487,910.79269,0.0,0.0,0.0,0.0,-0.03687719546013704,0.0,-0.07588243779101353,-0.07295828210217183,-0.12801751334684489,-0.0967042176812132,-0.3249229017723937,-0.007199574010342633
3701,7.0,300.10861,775.14708,0.0,0.0,0.0,0.0,-0.036887162269720865,0.0,-0.05695481547875265,-0.07540027057192733,-0.10327026780698191,-0.044133001792088164,-0.33114108591358066,-0.005793214586270764
3702,7.0,299.64258,494.5391,0.0,0.0,0.0,0.0,-0.03689712907930468,0.0,-0.01965798716984228,-0.07001256141145183,-0.06065698816412864,-0.08023553855263112,-0.36072543544332863,-0.026206662082896178
3703,7.0,300.5281,683.15982,0.0,0.0,0.0,0.0,-0.036907095888888505,0.0,-0.09011489725364791,-0.046195057951347256,-0.07135357258754935,-0.03464101772355226,-0.3355954549431927,0.0002008134231337418
3704,7.0,299.46971,844.9839999999999,0.0,0.0,0.0,0.0,-0.03691706269847232,0.0,-0.0975264123821075,-0.08433394876911272,-0.07499367661154964,-0.1011000745573005,-0.32570151354673665,-0.013535431546593089
3705,7.0,298.88911,649.52618,0.0,0.0,0.0,0.0,-0.036927029508056146,0.0,-0.09420451448576173,-0.033285316447504966,-0.06994990911801853,-0.08838442313661342,-0.3186990535631477,-0.024202962036646375
3706,7.0,300.27772000000004,778.7237299999999,0.0,0.0,0.0,0.0,-0.03693699631763997,0.0,-0.05380092356823775,-0.07877737742647183,-0.10413426616725191,-0.13767153738462287,-0.3188836373338647,-0.025652252158180178
3707,7.0,299.61881,935.1289400000001,0.0,0.0,0.0,0.0,-0.036946963127223786,0.0,-0.06810729557266673,-0.07941666933856502,-0.13673187963938588,-0.1199645561895799,-0.3149988972454707,-0.005204202474614795
3708,7.0,299.2009,888.4223699999999,0.0,0.0,0.0,0.0,-0.03695692993680761,0.0,-0.08058921755303652,-0.06326559649357824,-0.12620340050030587,-0.08323943195809233,-0.3219007921566347,0.007882386128805942
3709,7.0,300.28403,841.22721,0.0,0.0,0.0,0.0,-0.03696689674639143,0.0,-0.088051080065715,-0.08272300877962532,-0.08493797755122572,-0.1059201498660049,-0.3400091622462917,-0.008527959887544111
3710,7.0,299.54449,774.76356,0.0,0.0,0.0,0.0,-0.03697686355597525,0.0,-0.07845190832210051,-0.06792468763964474,-0.08913218144541142,-0.05474900446155605,-0.3383843954459397,0.0032141043990324067
3711,7.0,300.30213,817.71426,0.0,0.0,0.0,0.0,-0.03698683036555907,0.0,-0.062081088888176435,-0.1009875744119476,-0.08549605138830332,-0.07092674604917484,-0.3360857261365787,-0.001061305816467729
3712,7.0,300.11201,791.9793599999999,0.0,0.0,0.0,0.0,-0.036996797175142884,0.0,-0.06351787651672634,-0.08555531030715173,-0.0916687639047526,-0.04103178368802176,-0.3194091898957327,-0.016354415928055185
3713,7.0,299.77655,908.8134,0.0,0.0,0.0,0.0,-0.037006763984726715,0.0,-0.05270743824581915,-0.1119251157886489,-0.11162402852143388,-0.07316600951842293,-0.3507589352072117,-0.008451100307833663
3714,7.0,299.61581,625.3911,0.0,0.0,0.0,0.0,-0.03701673079431053,0.0,-0.05543218732823094,-0.08268040870567102,-0.05199068133708075,-0.0836702983246155,-0.3267287870281207,-0.03716109940501497
3715,7.0,299.12183,480.66585999999995,0.0,0.0,0.0,0.0,-0.037026697603894355,0.0,-0.05142689580918945,-0.035575423793520966,-0.05910810062401534,-0.09388620703309722,-0.3206255358457767,0.01064199050803269
3716,7.0,299.37595,935.3838699999999,0.0,0.0,0.0,0.0,-0.03703666441347817,0.0,-0.10904059540396889,-0.07584734083404973,-0.0994454087729977,-0.08749914551099332,-0.3193557916154627,-0.018569277295144983
3717,7.0,299.36941,1126.2436,0.0,0.0,0.0,0.0,-0.03704663122306199,0.0,-0.12523802646753088,-0.09046678989412701,-0.1266451167488999,-0.09747580864561331,-0.3148414584449327,0.004924386670724126
3718,7.0,299.6646,900.3004199999999,0.0,0.0,0.0,0.0,-0.03705659803264582,0.0,-0.06820052268786753,-0.07915274301876751,-0.1263155774188769,-0.09600629607858371,-0.32572531479158573,-0.03072676875249597
3719,7.0,300.27792999999997,815.82847,0.0,0.0,0.0,0.0,-0.037066564842229636,0.0,-0.06459738912026594,-0.07446219552334653,-0.1089319040657419,-0.11261083279382389,-0.2936213972981757,0.016302660126197285
3720,7.0,300.54792000000003,910.7702099999999,0.0,0.0,0.0,0.0,-0.03707653165181346,0.0,-0.0951603528218456,-0.0904318986269335,-0.09125914944582682,-0.1081112829422529,-0.3257735353638447,-0.0023651651643986278
3721,7.0,300.82842,891.6315300000001,0.0,0.0,0.0,0.0,-0.03708649846139728,0.0,-0.1173081082699089,-0.06759210754607163,-0.08613350729121531,-0.09084895439459373,-0.3322424786397797,0.016149258114057683
3722,7.0,302.08366,763.69095,0.0,0.0,0.0,0.0,-0.037096465270981094,0.0,-0.09030331414949323,-0.0927329896040335,-0.04910667568345155,-0.08721563002701252,-0.34443984148856566,-0.011449413035719091
3723,7.0,301.3634,663.48807,0.0,0.0,0.0,0.0,-0.037106432080564924,0.0,-0.06215773011249035,-0.060670660960978035,-0.07885541490942352,-0.07247587575606203,-0.3485292479646587,0.026703903423720074
3724,7.0,300.33931,741.0076799999999,0.0,0.0,0.0,0.0,-0.03711639889014874,0.0,-0.059677322238693147,-0.08419784090967992,-0.08137266860985713,-0.05862923660025515,-0.34339290082274065,-0.02211438202951958
3725,7.0,299.96695,1018.7583,0.0,0.0,0.0,0.0,-0.037126365699732565,0.0,-0.08952081453451652,-0.1031470059323169,-0.1170092704179159,-0.07143849003868002,-0.3309547188226877,-0.03192549529655107
3726,7.0,300.0146,998.17134,0.0,0.0,0.0,0.0,-0.03713633250931638,0.0,-0.08812718832047632,-0.08354266224926882,-0.13174931346514487,-0.06873415287953273,-0.3195419763213377,-0.017681711750799082
3727,7.0,299.6708,620.0638700000001,0.0,0.0,0.0,0.0,-0.0371462993189002,0.0,-0.05860042888666204,-0.062026547661793635,-0.06785695794996034,-0.08943218352176932,-0.2917656094750237,-0.0013407172322434885
3728,7.0,299.4537,476.65646,0.0,0.0,0.0,0.0,-0.03715626612848402,0.0,-0.062249360345533536,-0.02927459289467737,-0.05336770747473265,-0.0997023041503513,-0.3242045175839947,0.0035600539223749664
3729,7.0,299.22503,811.40351,0.0,0.0,0.0,0.0,-0.037166232938067846,0.0,-0.07191944338414644,-0.07830252587310763,-0.0964244380503511,-0.1020873996402419,-0.3464181717788116,-0.021016702864937082
3730,7.0,299.88575,851.8078800000001,0.0,0.0,0.0,0.0,-0.03717619974765167,0.0,-0.06643124919800385,-0.0965759949340586,-0.09592108275842381,-0.12260651463282088,-0.35746747160179265,-0.025080446755747374
3731,7.0,300.19656000000003,772.1603,0.0,0.0,0.0,0.0,-0.03718616655723549,0.0,-0.06366825296406735,-0.0925837844738081,-0.07846541393268343,-0.08176846841691952,-0.32306770163429965,-0.010244337466537391
3732,7.0,300.08127,812.18628,0.0,0.0,0.0,0.0,-0.0371961333668193,0.0,-0.05863432615550744,-0.1060423275630629,-0.08220769105701742,-0.08803463400334191,-0.3042835849204517,0.0008188775125844184
3733,7.0,301.48906,866.65979,0.0,0.0,0.0,0.0,-0.03720610017640313,0.0,-0.0956793182448135,-0.08189986871638771,-0.08586374971709232,-0.04100468228759706,-0.2973426596154357,-0.002253366998715008
3734,7.0,301.1431,883.5247300000001,0.0,0.0,0.0,0.0,-0.03721606698598695,0.0,-0.06618467681266904,-0.09976473454201272,-0.10262004495280991,-0.06555568458784233,-0.3194188461691857,0.00964687697687263
3735,7.0,300.46367000000004,904.85011,0.0,0.0,0.0,0.0,-0.03722603379557077,0.0,-0.0893546779951201,-0.06423058245156495,-0.12146657787281788,-0.06678185906385634,-0.31702462737539466,0.001054857796806359
3736,7.0,300.86674,858.1776699999999,0.0,0.0,0.0,0.0,-0.03723600060515459,0.0,-0.07483395394528623,-0.06525376746879544,-0.12077685852974789,-0.08266113466226883,-0.3621935740432226,-0.02087003997921258
3737,7.0,300.4203,574.34492,0.0,0.0,0.0,0.0,-0.03724596741473841,0.0,-0.05956951040155294,-0.043943867515172055,-0.07107313535737234,-0.08702549161924733,-0.34485522336706065,-0.038238956357891166
3738,7.0,299.71519,632.41121,0.0,0.0,0.0,0.0,-0.03725593422432223,0.0,-0.06766634736764852,-0.06332860747754694,-0.06124226168689065,-0.1095771315969209,-0.33453359923589565,-0.045234020629000254
3739,7.0,300.38599999999997,754.06308,0.0,0.0,0.0,0.0,-0.037265901033906056,0.0,-0.10602749358159891,-0.03268315812507657,-0.09050569667146682,-0.11420144293330489,-0.3192241298974687,0.03227688637823067
3740,7.0,299.77539,676.49378,0.0,0.0,0.0,0.0,-0.03727586784348987,0.0,-0.09087330279449672,-0.04831214372353736,-0.06645176953902904,-0.11329430038377689,-0.3118058827353447,0.010762807410206389
3741,7.0,299.66941,728.50274,0.0,0.0,0.0,0.0,-0.037285834653073696,0.0,-0.055867095549403036,-0.06927996335065004,-0.09629958435977899,-0.09252309484581851,-0.31629587763847267,-0.012566449330211987
3742,7.0,300.06532000000004,903.2927900000001,0.0,0.0,0.0,0.0,-0.03729580146265751,0.0,-0.06330366024683484,-0.11163549851256589,-0.09963929417963271,-0.07045053471417644,-0.3359446006626507,-0.025595947876623375
3743,7.0,299.62986,986.9738,0.0,0.0,0.0,0.0,-0.03730576827224134,0.0,-0.07087552929637013,-0.12781317119917787,-0.1013266919951659,-0.07407133835027192,-0.3229928629819137,-0.024280745193822974
3744,7.0,300.38386,1044.2389,0.0,0.0,0.0,0.0,-0.03731573508182516,0.0,-0.12187610316573488,-0.08494809586672432,-0.1105983559752079,-0.04873034142406025,-0.3371723152788167,-0.007048981538080312
3745,7.0,301.81651,751.09334,0.0,0.0,0.0,0.0,-0.03732570189140898,0.0,-0.07330246998889052,-0.06872767010539294,-0.08628348046501652,-0.07845506459616203,-0.33763746800222366,-0.018620522418952484
3746,7.0,300.81934,349.29991,0.0,0.0,0.0,0.0,-0.0373356687009928,0.0,-0.021858811983296776,-0.03048221172161007,-0.05383742792959045,-0.06857746996356934,-0.33707239868645567,0.007070495472153573
3747,7.0,299.85996,649.7640700000001,0.0,0.0,0.0,0.0,-0.03734563551057662,0.0,-0.04375275233431046,-0.06008883958130674,-0.09367046278205492,-0.08700705452042773,-0.33191666807012465,-0.018261165164986683
3748,7.0,299.91828,995.85231,0.0,0.0,0.0,0.0,-0.03735560232016044,0.0,-0.11666437021637689,-0.06012962492433195,-0.12592024775986088,-0.07905394302801673,-0.3354011946340207,-0.006007354862404765
3749,7.0,300.0478,895.3772,0.0,0.0,0.0,0.0,-0.037365569129744265,0.0,-0.08891627000810261,-0.07558237390639952,-0.1076736703565639,-0.10093622796313009,-0.3206870705243497,-0.03263408034323297
3750,7.0,299.98154,585.26337,0.0,0.0,0.0,0.0,-0.03737553593932808,0.0,-0.06633475131148023,-0.056660277860184044,-0.054910423308486854,-0.07863282311420543,-0.2919780373584887,-0.015906547224853986
3751,7.0,298.88802000000004,775.37193,0.0,0.0,0.0,0.0,-0.037385502748911906,0.0,-0.08965602060136031,-0.06776501462263623,-0.07827267147216123,-0.1118776754189669,-0.29331959062338975,0.013766940955941288
3752,7.0,298.84175,1228.6491,0.0,0.0,0.0,0.0,-0.03739546955849572,0.0,-0.1252651106427039,-0.0967147889195065,-0.15149874341676187,-0.09126225708388351,-0.31727808175540867,0.01816126377137718
3753,7.0,299.92902999999995,1090.9502,0.0,0.0,0.0,0.0,-0.037405436368079546,0.0,-0.098567207686076,-0.1096080458574719,-0.12344637737570888,-0.12154493250305089,-0.3323738566477457,-0.003051814055690597
3754,7.0,300.76022,788.4053200000001,0.0,0.0,0.0,0.0,-0.03741540317766337,0.0,-0.05615760853857445,-0.1065836361639859,-0.07691428710984913,-0.052715039648069346,-0.3349595493129337,-0.021530792528423777
3755,7.0,300.29354,527.8340000000001,0.0,0.0,0.0,0.0,-0.03742536998724719,0.0,-0.057338970002415744,-0.048568499038587655,-0.05454088694401645,-0.07978799206296172,-0.34292482993904566,-0.009462135341790051
3756,7.0,300.3528,607.34766,0.0,0.0,0.0,0.0,-0.03743533679683101,0.0,-0.08092484955591082,-0.026158638081156576,-0.07753503553186222,-0.057368785899858346,-0.3580542042046987,-0.011992857567852887
3757,7.0,300.09766,794.4432099999999,0.0,0.0,0.0,0.0,-0.03744530360641483,0.0,-0.08974409331330241,-0.055372532228593445,-0.09637427102465,-0.07462087150225663,-0.34131565705773265,0.003116438032493487
3758,7.0,300.53696,796.2919,0.0,0.0,0.0,0.0,-0.03745527041599865,0.0,-0.06684561073364814,-0.06485721583015884,-0.11035002864069988,-0.08332859796689233,-0.30448864647568974,-0.003653150733612906
3759,7.0,300.01048,483.94454,0.0,0.0,0.0,0.0,-0.03746523722558247,0.0,-0.03307700843894657,-0.039866424483009755,-0.07416362314287972,-0.08583285977454373,-0.3103453941737057,-0.00998639124750508
3760,7.0,299.05064,586.3505700000001,0.0,0.0,0.0,0.0,-0.03747520403516629,0.0,-0.05362169989054975,-0.05773917136791254,-0.06687506084780465,-0.1052614258434939,-0.3377290962087667,-0.01865740674909268
3761,7.0,298.61737999999997,1186.3985,0.0,0.0,0.0,0.0,-0.03748517084475011,0.0,-0.13273249030217688,-0.12218698856141687,-0.10571605089836189,-0.10778854252040089,-0.34501684689051165,-0.052215601581028656
3762,7.0,299.88827000000003,1239.3014,0.0,0.0,0.0,0.0,-0.037495137654333925,0.0,-0.13379353540939387,-0.1136730532711569,-0.12925009156349088,-0.07335015252534643,-0.3211934321293237,0.006296335817424964
3763,7.0,298.98612,489.06585,0.0,0.0,0.0,0.0,-0.037505104463917756,0.0,-0.03061661326787447,-0.07309737702289942,-0.04494981714820155,-0.08311263384057832,-0.3142966237336617,-0.027717904342044172
3764,7.0,299.09272000000004,362.4933,0.0,0.0,0.0,0.0,-0.03751507127350157,0.0,-0.008497231355736441,-0.03024003582845917,-0.07145164405147823,-0.06301626806797143,-0.34914199069763163,0.043710459275136455
3765,7.0,299.08804,807.40219,0.0,0.0,0.0,0.0,-0.037525038083085396,0.0,-0.06378588420792665,-0.08057744561337472,-0.10106677510601408,-0.07017890060086823,-0.33383321036927266,-0.01082066500416649
3766,7.0,299.28276,1016.1829,0.0,0.0,0.0,0.0,-0.03753500489266921,0.0,-0.07620005319385972,-0.11656631800419989,-0.11612786442092787,-0.06599225555242853,-0.2921175314997557,0.004843515836517796
3767,7.0,300.3528,767.35045,0.0,0.0,0.0,0.0,-0.03754497170225303,0.0,-0.08247551737644983,-0.07046613268621583,-0.08031372599659763,-0.05771504183003114,-0.3149738497029987,-0.03459397961415997
3768,7.0,300.59496,578.08488,0.0,0.0,0.0,0.0,-0.03755493851183686,0.0,-0.045987474416610365,-0.062435909821444535,-0.06729998450249135,-0.12107640565681088,-0.35469673920334266,0.0013818189119499088
3769,7.0,300.7273,840.91022,0.0,0.0,0.0,0.0,-0.03756490532142068,0.0,-0.07915722158420953,-0.1050755957751539,-0.07138289503219324,-0.09968090430823931,-0.3517317160982177,-0.03885107391555246
3770,7.0,300.04868,1301.5587,0.0,0.0,0.0,0.0,-0.0375748721310045,0.0,-0.13426490948841488,-0.1071803391478759,-0.15419609624296984,-0.09942487019347071,-0.3136448303418347,0.007532620806911794
3771,7.0,300.47885,1248.4354,0.0,0.0,0.0,0.0,-0.03758483894058832,0.0,-0.13812320374919887,-0.11496552470121389,-0.1264044799826509,-0.07901967997588522,-0.3016939101823707,0.0009098864307987991
3772,7.0,300.12419,752.87245,0.0,0.0,0.0,0.0,-0.037594805750172135,0.0,-0.06387817204028474,-0.07282681492819702,-0.09214943759319141,-0.09571455807004141,-0.3466059776848467,0.004287944524537176
3773,7.0,299.29526,386.09002999999996,0.0,0.0,0.0,0.0,-0.037604772559755965,0.0,-0.04503176273678896,-0.044123086126609555,-0.028206878575302175,-0.08189080418099312,-0.31803920483302567,-0.022857369956846778
3774,7.0,299.20349,688.64773,0.0,0.0,0.0,0.0,-0.03761473936933978,0.0,-0.06873015459463813,-0.06683375165447773,-0.07376780915031593,-0.06516740816277243,-0.30159531081513974,0.004430448221251196
3775,7.0,300.35532,925.4041300000001,0.0,0.0,0.0,0.0,-0.037624706178923606,0.0,-0.0981162617423211,-0.06910750514387973,-0.11407598230592289,-0.05825184045475904,-0.3134762457901967,0.018101530651481984
3776,7.0,299.51212000000004,598.61352,0.0,0.0,0.0,0.0,-0.03763467298850742,0.0,-0.04217169714327246,-0.05882727329254985,-0.08096459226458312,-0.08784686558756061,-0.3478239853650547,0.02027727955146168
3777,7.0,300.1391,346.20959,0.0,0.0,0.0,0.0,-0.03764463979809124,0.0,-0.016582392134304683,-0.03811953672760536,-0.05053714063137745,-0.0928799929417916,-0.37393613958462363,-0.006224557079015954
3778,7.0,301.22414,810.73063,0.0,0.0,0.0,0.0,-0.03765460660767507,0.0,-0.061539169297443144,-0.0941056192495015,-0.09079707902922401,-0.08127258584447972,-0.31673249723906366,-0.03227069542011967
3779,7.0,300.32847000000004,1315.8933,0.0,0.0,0.0,0.0,-0.03766457341725889,0.0,-0.13862691063891086,-0.12592614487544287,-0.1354456396974439,-0.0921494588714435,-0.3218868903652627,-0.03852363809273707
3780,7.0,299.87086,1250.748,0.0,0.0,0.0,0.0,-0.03767454022684271,0.0,-0.13181502273412987,-0.1014384940111999,-0.14694263394460885,-0.07714540135165833,-0.34613823104118363,-0.02269589234141018
3781,7.0,300.50621,663.5502799999999,0.0,0.0,0.0,0.0,-0.03768450703642653,0.0,-0.06407637085259543,-0.06774003091492053,-0.06988631551524234,-0.0999578914218258,-0.3349954690289787,-0.019364482053125583
3782,7.0,301.06564,180.47631,0.0,0.0,0.0,0.0,-0.037694473846010344,0.0,-0.02040224368629468,-0.01197117097596259,-0.02248687708428198,-0.07467277929162952,-0.2890941350563697,-0.005236400928342535
3783,7.0,301.07867000000005,565.38102,0.0,0.0,0.0,0.0,-0.037704440655594175,0.0,-0.03666676203897767,-0.051460972423302546,-0.08373397906690032,-0.08592142289953424,-0.3036381040767477,0.02203016372095788
3784,7.0,301.03816,1093.6727,0.0,0.0,0.0,0.0,-0.03771440746517799,0.0,-0.0993915666891839,-0.0982803646887668,-0.13477724926897885,-0.11649262432442689,-0.33487942149502564,0.004975916517809725
3785,7.0,300.28572,929.9995,0.0,0.0,0.0,0.0,-0.037724374274761815,0.0,-0.07819682868892612,-0.09166103989924032,-0.1128387532713179,-0.08602976263997651,-0.3586471480307177,-0.01146187803844929
3786,7.0,299.29667,581.66361,0.0,0.0,0.0,0.0,-0.03773434108434563,0.0,-0.024339193512591378,-0.06827127895560063,-0.084200739818216,-0.06890005637140614,-0.2997352166790627,-0.007499388736757043
3787,7.0,299.3151,854.11548,0.0,0.0,0.0,0.0,-0.03774430789392945,0.0,-0.08004415688699322,-0.07672776701819102,-0.10285785475127991,-0.06449162202182754,-0.3181566709171187,0.00017737051418260683
3788,7.0,299.12847,1198.3607,0.0,0.0,0.0,0.0,-0.03775427470351328,0.0,-0.13406825790900687,-0.08315908527816272,-0.14704439465215188,-0.07875690774795163,-0.3764755064552397,0.009693207939020142
3789,7.0,299.80933999999996,1170.427,0.0,0.0,0.0,0.0,-0.0377642415130971,0.0,-0.12008610567157589,-0.1137964367358339,-0.12189804003039988,-0.11298731600097989,-0.37498138812278164,-0.021341804159522082
3790,7.0,300.78468,839.43155,0.0,0.0,0.0,0.0,-0.03777420832268092,0.0,-0.08262434152463762,-0.06405142564838354,-0.1084904613946749,-0.06568613851171715,-0.33330519560966165,-0.004720617110688635
3791,7.0,300.20604,449.07912000000005,0.0,0.0,0.0,0.0,-0.03778417513226474,0.0,-0.05180450676370675,-0.041379859415374164,-0.04332447178204246,-0.1022366209824689,-0.33310125876203467,-0.016613183791593586
3792,7.0,300.18021,701.12126,0.0,0.0,0.0,0.0,-0.037794141941848554,0.0,-0.058790479141668545,-0.06883059706380104,-0.08550227983666801,-0.11136758505362489,-0.32077024822505873,-0.0007969959105798721
3793,7.0,300.90828,1087.1185,0.0,0.0,0.0,0.0,-0.037804108751432385,0.0,-0.12795102387528287,-0.09210266900832573,-0.11040317360844489,-0.1105262024355869,-0.3297460026458967,-0.00908181485518034
3794,7.0,300.10041,716.55242,0.0,0.0,0.0,0.0,-0.0378140755610162,0.0,-0.06468694421710434,-0.06863222194597293,-0.08449487720299513,-0.07771198851607612,-0.29020194165570173,-0.003640944818933277
3795,7.0,300.54648,323.13378,0.0,0.0,0.0,0.0,-0.037824042370600025,0.0,-0.02719024219346797,-0.04927114846618375,-0.02176320980986158,-0.05549492473467265,-0.3156103632833177,-0.02359937097857658
3796,7.0,299.91759,657.03174,0.0,0.0,0.0,0.0,-0.03783400918018384,0.0,-0.04481896603028756,-0.06603479584462695,-0.08886747998928742,-0.08334012672653011,-0.35144220014714467,-0.024806529789963873
3797,7.0,299.74879,1142.0687,0.0,0.0,0.0,0.0,-0.03784397598976766,0.0,-0.1283789295250139,-0.1168659765887739,-0.10191546123077291,-0.07328582735599803,-0.35486514136996267,-0.03487043375819387
3798,7.0,299.56175,1021.8953,0.0,0.0,0.0,0.0,-0.03785394279935148,0.0,-0.09130952621429861,-0.0905086827195115,-0.1288124485802989,-0.05757453950491465,-0.3238050538645707,-0.027230500646441176
3799,7.0,299.12199,552.25509,0.0,0.0,0.0,0.0,-0.0378639096089353,0.0,-0.06772446232713403,-0.04686211494268066,-0.05328518230708804,-0.06942664751462664,-0.3184757231086067,-5.9511909159868144e-05
3800,7.0,299.5723,491.83219,0.0,0.0,0.0,0.0,-0.03787387641851913,0.0,-0.050978869038972655,-0.04352707620578796,-0.05499875946545494,-0.1333568854112999,-0.35759671165204765,0.014717548895008986
3801,7.0,300.39867000000004,855.8692300000001,0.0,0.0,0.0,0.0,-0.03788384322810294,0.0,-0.1050167766068489,-0.07627120969538233,-0.07887488552334512,-0.09312686322265581,-0.35091793441290364,-0.02010192446265548
3802,7.0,299.48719,1170.6303,0.0,0.0,0.0,0.0,-0.03789381003768676,0.0,-0.1120907011199909,-0.09984414903185031,-0.14390751419756587,-0.09127183432382872,-0.3019343139010967,0.018422901159198785
3803,7.0,300.13719,928.04216,0.0,0.0,0.0,0.0,-0.03790377684727059,0.0,-0.09316322876874482,-0.10052957523424659,-0.08840884043752323,-0.035079009264778666,-0.2988938441935257,-0.023182959637979977
3804,7.0,299.27537,478.09535,0.0,0.0,0.0,0.0,-0.037913743656854404,0.0,-0.0004158970148458396,-0.06704494438607084,-0.07786820635024362,-0.09683333208845582,-0.34627313515949765,-0.00977072785382076
3805,7.0,299.57386,641.0767400000001,0.0,0.0,0.0,0.0,-0.03792371046643823,0.0,-0.06121892653708764,-0.0924399282908606,-0.041212465432603665,-0.08458632403777021,-0.35521359807935265,-0.04153049626799086
3806,7.0,300.36068,1174.4693,0.0,0.0,0.0,0.0,-0.037933677276022044,0.0,-0.1109865016910149,-0.10603398851473989,-0.13998884036332288,-0.08565559268279882,-0.3223654585199937,0.01127896917014759
3807,7.0,299.43811,926.0187400000001,0.0,0.0,0.0,0.0,-0.03794364408560586,0.0,-0.09750465080970981,-0.08165104691583092,-0.1023308735067709,-0.07608893106864283,-0.3332109734828627,-0.016839467870176084
3808,7.0,300.70529,590.9723700000001,0.0,0.0,0.0,0.0,-0.03795361089518969,0.0,-0.05252298315786485,-0.04527968983750746,-0.08183817191779873,-0.08703765568669783,-0.37543433118248365,0.007880046433000033
3809,7.0,301.78342000000004,670.5550599999999,0.0,0.0,0.0,0.0,-0.03796357770477351,0.0,-0.06393793657093304,-0.05909745136546434,-0.08079660755700432,-0.07089127114992373,-0.36606582075788363,-0.01061447975456759
3810,7.0,300.27386,890.8090900000001,0.0,0.0,0.0,0.0,-0.03797354451435733,0.0,-0.07783878258058972,-0.07418865751310043,-0.1187562757103319,-0.06271879202411285,-0.3199062093347847,0.0003323373897766467
3811,7.0,301.01353,1072.3123,0.0,0.0,0.0,0.0,-0.03798351132394115,0.0,-0.1376815584281119,-0.08547059246629073,-0.10280401064096589,-0.043289333281824556,-0.3165299485440737,0.01061635224075239
3812,7.0,299.95906,972.63307,0.0,0.0,0.0,0.0,-0.037993478133524966,0.0,-0.1037732350241209,-0.08447926909845471,-0.10740365946991591,-0.1023223014109249,-0.34210019634516065,-0.004882489994989245
3813,7.0,298.90895,802.45475,0.0,0.0,0.0,0.0,-0.0380034449431088,0.0,-0.07759223552650743,-0.0963438856806512,-0.06999008549773364,-0.08870743308299202,-0.34745946864157967,0.0006650317576960244
3814,7.0,299.91507,790.5582,0.0,0.0,0.0,0.0,-0.038013411752692614,0.0,-0.07411487162756833,-0.07525126201222133,-0.09094381993520623,-0.08627154133908822,-0.3183168860229307,-0.015967321965851985
3815,7.0,300.62847999999997,937.4508800000001,0.0,0.0,0.0,0.0,-0.03802337856227644,0.0,-0.07494851098834213,-0.09291711842545561,-0.11709602489147788,-0.09427906436186921,-0.29886346695552773,-0.004705907151036875
3816,7.0,299.57136,769.81614,0.0,0.0,0.0,0.0,-0.038033345371860254,0.0,-0.04235353500621846,-0.10438600815459691,-0.0872653410901686,-0.09584789165070041,-0.3551746183480057,-0.02914167373330927
3817,7.0,300.76075,516.22018,0.0,0.0,0.0,0.0,-0.03804331218144407,0.0,-0.04349511931088405,-0.04463996020137105,-0.06878296518985014,-0.10580857076499289,-0.34429025537630265,-0.0036144354605420065
3818,7.0,299.80885,547.10033,0.0,0.0,0.0,0.0,-0.0380532789910279,0.0,-0.04865967938858645,-0.053529829517232855,-0.06411533031894044,-0.08359734533066562,-0.2998746297603217,-0.00965109088138851
3819,7.0,299.55302,981.6876599999999,0.0,0.0,0.0,0.0,-0.03806324580061172,0.0,-0.11322080935402389,-0.08633234850408941,-0.0988553790542663,-0.06775389622928893,-0.3291227525093867,0.010652824178101889
3820,7.0,300.28639,1077.2196,0.0,0.0,0.0,0.0,-0.03807321261019554,0.0,-0.11311742744632089,-0.09630369004918421,-0.11802674577083289,-0.07712214118236273,-0.33284368045411367,-0.017323047559901685
3821,7.0,301.0602,1002.67,0.0,0.0,0.0,0.0,-0.03808317941977936,0.0,-0.08235829143263051,-0.13329746842543588,-0.0891308854985335,-0.07271707994236702,-0.36618613407475764,-0.024040435707356277
3822,7.0,300.07264,667.7507400000001,0.0,0.0,0.0,0.0,-0.038093146229363176,0.0,-0.06310790640701544,-0.05847089296737785,-0.08140075083637863,-0.05155568293664975,-0.3282306161938397,-0.018390720336022785
3823,7.0,301.10716,666.3756599999999,0.0,0.0,0.0,0.0,-0.038103113038947006,0.0,-0.05656873274014925,-0.06552420290723533,-0.08046862356588483,-0.10448605646947091,-0.3369344852153447,0.005759600115528275
3824,7.0,300.53812999999997,736.5346,0.0,0.0,0.0,0.0,-0.03811307984853082,0.0,-0.06420199359999344,-0.07814219829653452,-0.08154393523450983,-0.11595182234855388,-0.36088275265385467,-0.018039567368116682
3825,7.0,299.91836,798.6872599999999,0.0,0.0,0.0,0.0,-0.03812304665811465,0.0,-0.10295302933317291,-0.07062121162727093,-0.06920673880567334,-0.1288266442141999,-0.3275771712043497,0.02070421552084698
3826,7.0,300.30949,625.6657799999999,0.0,0.0,0.0,0.0,-0.038133013467698464,0.0,-0.05633505801533735,-0.06954211040327193,-0.06430960684011403,-0.0996229078990155,-0.28193059870438375,-0.03490849345845007
3827,7.0,299.09196000000003,731.29526,0.0,0.0,0.0,0.0,-0.03814298027728228,0.0,-0.054515412823252354,-0.06282631508497453,-0.1049537727156309,-0.09223645044552892,-0.2869210783619057,0.0037349046152813864
3828,7.0,299.16674,1053.3567,0.0,0.0,0.0,0.0,-0.03815294708686611,0.0,-0.08247284442268601,-0.11866870050418887,-0.11905259056957589,-0.097581639578808,-0.3297080361646497,-0.02242300078472788
3829,7.0,300.0426,1031.7631,0.0,0.0,0.0,0.0,-0.03816291389644993,0.0,-0.09848868384307631,-0.09444420082341691,-0.12069732852939889,-0.06633575240257904,-0.35494086154993565,0.007713956503108233
3830,7.0,299.66224,845.89086,0.0,0.0,0.0,0.0,-0.03817288070603375,0.0,-0.09055903516998091,-0.07192540433448473,-0.09464526004075992,-0.06081140038661794,-0.35126318925197764,0.006599228088368104
3831,7.0,300.42836,706.7008599999999,0.0,0.0,0.0,0.0,-0.03818284751561757,0.0,-0.10673604924402791,-0.04404013640717305,-0.06404323149482484,-0.08216886331318542,-0.3444142873210437,0.014212391031153786
3832,7.0,300.08026,743.96643,0.0,0.0,0.0,0.0,-0.038192814325201385,0.0,-0.06730955768943614,-0.06368061157553703,-0.0951570476000194,-0.0979041763373899,-0.34595287720039064,-0.026547533602037574
3833,7.0,300.1702,847.5852,0.0,0.0,0.0,0.0,-0.038202781134785216,0.0,-0.08257028159205233,-0.08383419456804082,-0.0912402604374626,-0.1113669872360659,-0.3202190908331637,-0.048700634957628455
3834,7.0,300.54865,881.053,0.0,0.0,0.0,0.0,-0.03821274794436903,0.0,-0.05568880710155735,-0.09947474742964321,-0.1126545545356389,-0.057443242556956646,-0.2974381685698617,-0.043547526632556254
3835,7.0,300.34843,708.76458,0.0,0.0,0.0,0.0,-0.038222714753952856,0.0,-0.06934305235487644,-0.06553813306961014,-0.08056554904395063,-0.08466104413989452,-0.33062780381042367,-0.024425661236375077
3836,7.0,299.84875,673.7752,0.0,0.0,0.0,0.0,-0.03823268156353667,0.0,-0.04617632295699826,-0.07594089421578272,-0.08269361844722473,-0.1062637632399169,-0.37549796328876367,-0.0034409443466197668
3837,7.0,300.24916,888.45562,0.0,0.0,0.0,0.0,-0.03824264837312049,0.0,-0.08929833926305993,-0.08609118586103852,-0.0946787986190699,-0.08900787896289372,-0.3694882857531547,-0.01117698656083269
3838,7.0,299.57489,967.27263,0.0,0.0,0.0,0.0,-0.03825261518270432,0.0,-0.08579451839075972,-0.06926862102903063,-0.13896359338213887,-0.08017537074844303,-0.3076848932536347,0.002823313492514347
3839,7.0,300.02672,963.8022300000001,0.0,0.0,0.0,0.0,-0.03826258199228814,0.0,-0.08871061772805633,-0.09826309586731251,-0.10599809919619789,-0.058864654115239036,-0.3259073249070487,-0.006748950888069594
3840,7.0,299.39291000000003,829.30258,0.0,0.0,0.0,0.0,-0.03827254880187196,0.0,-0.07587220700475383,-0.051254100190135855,-0.1249609734926879,-0.1104971930852239,-0.3539320900153777,0.0016825437396041385
3841,7.0,299.55528,1006.7813,0.0,0.0,0.0,0.0,-0.03828251561145578,0.0,-0.10819016446253789,-0.08214419269975062,-0.1157020258014009,-0.0884158713799671,-0.35206810499891666,0.008424212703180061
3842,7.0,300.36446,904.17005,0.0,0.0,0.0,0.0,-0.038292482421039595,0.0,-0.10576258947545489,-0.054404569341812946,-0.11467796432283389,-0.07328535720795164,-0.33583525071185866,-0.0055041406148913855
3843,7.0,300.0248,667.58799,0.0,0.0,0.0,0.0,-0.038302449230623425,0.0,-0.0909325971770986,-0.030637362603422272,-0.08136011849411852,-0.08210763970239313,-0.33840526839799967,0.008549572106877072
3844,7.0,300.38204,701.34726,0.0,0.0,0.0,0.0,-0.03831241604020724,0.0,-0.04981872908522575,-0.07386911186881373,-0.08950421445812821,-0.10034632895366159,-0.3864529903224406,-0.04840511651296305
3845,7.0,300.01655,662.61248,0.0,0.0,0.0,0.0,-0.038322382849791066,0.0,-0.05570554801970954,-0.04881984788489386,-0.0968922535950209,-0.08755394714265181,-0.35951865457422866,-0.03147669744300817
3846,7.0,299.8011,669.8955900000001,0.0,0.0,0.0,0.0,-0.03833234965937488,0.0,-0.029646543834136074,-0.09457110026594091,-0.07941388898029063,-0.07297461974678424,-0.3157306259376867,-0.061829961943642146
3847,7.0,299.05989,734.13821,0.0,0.0,0.0,0.0,-0.0383423164689587,0.0,-0.058563767471543855,-0.08162258674702212,-0.08297333019033012,-0.07218501218235603,-0.33954676556315666,-0.002050126760531758
3848,7.0,299.23267000000004,666.36707,0.0,0.0,0.0,0.0,-0.03835228327854253,0.0,-0.05865330331663035,-0.06779935974802584,-0.07610628804285582,-0.0984607536040698,-0.36371085527296665,-0.004484916392301786
3849,7.0,298.70314,526.2133200000001,0.0,0.0,0.0,0.0,-0.03836225008812635,0.0,-0.03918796234855076,-0.059050374752568247,-0.06171737060578024,-0.09916869219718791,-0.3267582118110247,0.0013481161871237086
3850,7.0,299.86142,777.2153,0.0,0.0,0.0,0.0,-0.03837221689771017,0.0,-0.057304322928496354,-0.07022791758770583,-0.1087218066575069,-0.05515624487549754,-0.2939052795786927,-0.022495032734336878
3851,7.0,299.89952,882.3303699999999,0.0,0.0,0.0,0.0,-0.03838218370729399,0.0,-0.08548018997123791,-0.07131634577887533,-0.1114098679802979,-0.08130658646483532,-0.3084200467311887,-0.013771631290654186
3852,7.0,300.46442,756.98428,0.0,0.0,0.0,0.0,-0.038392150516877804,0.0,-0.08606014393097491,-0.07622321305139543,-0.06782096426665803,-0.08046553011332952,-0.34781547406421465,-0.042758681032203254
3853,7.0,300.68492000000003,736.48857,0.0,0.0,0.0,0.0,-0.03840211732646163,0.0,-0.08334870996812721,-0.06278588843248474,-0.07773953473329473,-0.09915263522285321,-0.34551340023451765,-0.02944597097684107
3854,7.0,300.95856000000003,817.8933900000001,0.0,0.0,0.0,0.0,-0.038412084136045445,0.0,-0.11064400289221289,-0.06340391526472924,-0.07457124555210894,-0.08621682887343853,-0.3378582450665127,-0.02020230613681238
3855,7.0,300.46175,1009.5257,0.0,0.0,0.0,0.0,-0.03842205094562926,0.0,-0.08323017287867852,-0.1021946521633269,-0.12144577584826487,-0.09826039251604571,-0.3525829373747266,-0.0070080816977938125
3856,7.0,300.42894,889.1742300000001,0.0,0.0,0.0,0.0,-0.038432017755213085,0.0,-0.08280088414256102,-0.07572519961399533,-0.11176068556242089,-0.1008642243845239,-0.37198105325167163,-0.02810304982430507
3857,7.0,299.81179,841.88771,0.0,0.0,0.0,0.0,-0.0384419845647969,0.0,-0.05804970212605954,-0.0974815953169344,-0.1003815424343869,-0.08204464189067572,-0.34203124467585566,-0.001810838326190828
3858,7.0,298.22072000000003,770.55792,0.0,0.0,0.0,0.0,-0.03845195137438073,0.0,-0.07872597322239863,-0.04936239467743905,-0.1061420009753999,-0.06686997635880283,-0.3087169898054947,0.006822806079908534
3859,7.0,299.39679,734.5294700000001,0.0,0.0,0.0,0.0,-0.03846191818396455,0.0,-0.07292712770134713,-0.04315765129882855,-0.10719383563920791,-0.09335202259362732,-0.3243229361231817,0.02897057632142327
3860,7.0,299.22619,824.57416,0.0,0.0,0.0,0.0,-0.03847188499354837,0.0,-0.08096962913083022,-0.07570693578094283,-0.09397339112470161,-0.09078433538271632,-0.35329348913985265,0.016687886668466184
3861,7.0,299.71662000000003,970.9436400000001,0.0,0.0,0.0,0.0,-0.03848185180313219,0.0,-0.08856841212952173,-0.06927573809773303,-0.1372984688303039,-0.11411840708760988,-0.3266640707442337,0.014333474418103788
3862,7.0,299.56379,900.09605,0.0,0.0,0.0,0.0,-0.03849181861271601,0.0,-0.06627773370185303,-0.1117956528233719,-0.0955333332234059,-0.04992446375966095,-0.3206154844047847,-0.042220508440339755
3863,7.0,300.08312,984.5632699999999,0.0,0.0,0.0,0.0,-0.03850178542229984,0.0,-0.09425701705294331,-0.09336489188314741,-0.11166073857255689,-0.09524118484857311,-0.35626113656273667,-0.04434731533398926
3864,7.0,300.59168,1160.2361,0.0,0.0,0.0,0.0,-0.038511752231883654,0.0,-0.1013309273805839,-0.13092735485152387,-0.12042452107247488,-0.1047767477906599,-0.35071121112750164,-0.04425566686244426
3865,7.0,301.56139,881.26485,0.0,0.0,0.0,0.0,-0.03852171904146748,0.0,-0.0977795820388434,-0.1110771571774619,-0.059025774053390344,-0.12099133317841489,-0.34482370115644967,-0.02004584005637038
3866,7.0,300.77877,638.67645,0.0,0.0,0.0,0.0,-0.038531685851051295,0.0,-0.05395595691303836,-0.06480070687208184,-0.07538502825067303,-0.06797323346518584,-0.3261086171719147,-0.01204745756274149
3867,7.0,299.83502999999996,708.65947,0.0,0.0,0.0,0.0,-0.03854165266063511,0.0,-0.03653649252662106,-0.07723088824934522,-0.1016474059168179,-0.08621976628547842,-0.3172636328089827,0.014142463602002487
3868,7.0,299.26558,705.78389,0.0,0.0,0.0,0.0,-0.03855161947021894,0.0,-0.03081818417651797,-0.07995155393385402,-0.10377094507889491,-0.07260571869012653,-0.3598105921930406,-0.01999582907118468
3869,7.0,299.90912000000003,891.48761,0.0,0.0,0.0,0.0,-0.03856158627980276,0.0,-0.06740171785228163,-0.08184475905669883,-0.12174349912514787,-0.07944687939029653,-0.34400171214532566,-0.008453392178234851
3870,7.0,299.81852000000003,986.14627,0.0,0.0,0.0,0.0,-0.03857155308938658,0.0,-0.1162632954292939,-0.08355321828881063,-0.09994732322328281,-0.07880282216298302,-0.3358710488378917,-0.0028072064636247072
3871,7.0,299.38392999999996,881.17711,0.0,0.0,0.0,0.0,-0.0385815198989704,0.0,-0.10113651103089649,-0.07739105167940212,-0.08932827472401432,-0.06895548013862603,-0.3284687400998407,-0.01047119504467649
3872,7.0,299.41117,808.27615,0.0,0.0,0.0,0.0,-0.03859148670855422,0.0,-0.07591889959586202,-0.07719000158131002,-0.09258686475411211,-0.12022288430257488,-0.3457905342693687,0.003971730547904286
3873,7.0,300.03477999999996,1085.117,0.0,0.0,0.0,0.0,-0.03860145351813805,0.0,-0.1063039690038849,-0.1018842733926949,-0.12166023023192989,-0.09301181070030101,-0.3254907169959327,-0.01995233531064218
3874,7.0,301.18497,1191.3414,0.0,0.0,0.0,0.0,-0.038611420327721864,0.0,-0.1176632726949609,-0.09951320128418832,-0.14496155774659186,-0.1094571830500829,-0.3194471867744827,-0.007889764920009174
3875,7.0,301.15413,623.9909700000001,0.0,0.0,0.0,0.0,-0.03862138713730569,0.0,-0.05030474766794205,-0.06356882374500444,-0.07580410342578252,-0.0967516296798924,-0.3443238344846167,-0.04670475416240036
3876,7.0,300.26067,416.35301,0.0,0.0,0.0,0.0,-0.038631353946889505,0.0,-0.031654210754527366,-0.05030754018521765,-0.04459916675234505,-0.1018629343455889,-0.3698233574287237,-0.008168400794158393
3877,7.0,300.18598,704.34199,0.0,0.0,0.0,0.0,-0.03864132075647332,0.0,-0.08425863794218012,-0.04981570149392695,-0.08002803810440243,-0.1141673065374359,-0.35010065701474463,-0.006577860771584313
3878,7.0,299.15914,823.12602,0.0,0.0,0.0,0.0,-0.03865128756605715,0.0,-0.07434397152817873,-0.08197442568524592,-0.09389135940985573,-0.08893980172842501,-0.30584756684730474,0.014298845582686185
3879,7.0,299.88279,832.8328799999999,0.0,0.0,0.0,0.0,-0.03866125437564097,0.0,-0.04971120805086425,-0.09392366384954391,-0.1095255267693279,-0.08156392260598243,-0.32135331286260266,-0.004976849113201765
3880,7.0,300.37869,938.7041199999999,0.0,0.0,0.0,0.0,-0.03867122118522479,0.0,-0.05712258436406015,-0.11665934449588088,-0.11156068012518189,-0.07230089556979284,-0.34114454951334566,-0.023953772426303276
3881,7.0,299.45578,932.90347,0.0,0.0,0.0,0.0,-0.03868118799480861,0.0,-0.06340955096178544,-0.13454784944633888,-0.08562196392522992,-0.05786033277512024,-0.3706707891498587,-0.037171806418821667
3882,7.0,299.3808,1087.4321,0.0,0.0,0.0,0.0,-0.038691154804392426,0.0,-0.13615928187537485,-0.10270412444610791,-0.09168880396523041,-0.06286151741994873,-0.3474288380910567,-0.03262210170055077
3883,7.0,299.74031,1010.3817,0.0,0.0,0.0,0.0,-0.03870112161397626,0.0,-0.1186957846793619,-0.09084749734094992,-0.0975875174426381,-0.07363422023063172,-0.33841008133597467,-0.01078947919258869
3884,7.0,298.89047,531.4418400000001,0.0,0.0,0.0,0.0,-0.038711088423560074,0.0,-0.06578294239977094,-0.045714338666653954,-0.05004776920408025,-0.09630901062545931,-0.3470005068762837,-0.026000073559757475
3885,7.0,300.10254,267.50432,0.0,0.0,0.0,0.0,-0.0387210552331439,0.0,0.016749453771042384,-0.027360973822067872,-0.07070311364610403,-0.09416303709291822,-0.3270539389852107,-0.02139074413935208
3886,7.0,300.23445,647.45149,0.0,0.0,0.0,0.0,-0.038731022042727714,0.0,-0.05343371058624666,-0.05569486329740504,-0.08768051119939271,-0.08598256139731811,-0.3120574322051707,-0.02640376658509887
3887,7.0,300.93913,1032.9162,0.0,0.0,0.0,0.0,-0.03874098885231153,0.0,-0.09626246900861601,-0.08940059241015151,-0.12831766842396788,-0.08202974914070592,-0.3427072547450727,-0.009025285632101341
3888,7.0,299.73952,728.6856700000001,0.0,0.0,0.0,0.0,-0.03875095566189536,0.0,-0.07032880690016284,-0.08170953576460332,-0.06946390674730384,-0.09240779002418882,-0.3653469096794326,-0.027023329504494976
3889,7.0,299.94032999999996,683.4003299999999,0.0,0.0,0.0,0.0,-0.03876092247147918,0.0,-0.04305086588403966,-0.07970003384828092,-0.08498573506818902,-0.07700817283761492,-0.3383348576485507,-0.0005065551965381056
3890,7.0,299.98449,1014.6053,0.0,0.0,0.0,0.0,-0.038770889281063,0.0,-0.10366826231376089,-0.09275127572858823,-0.11199514150305989,-0.08353593426860483,-0.3055196892474457,0.02244682736082938
3891,7.0,300.01768,1049.1567,0.0,0.0,0.0,0.0,-0.03878085609064682,0.0,-0.09686615733869541,-0.1039836972023919,-0.11806758988236389,-0.0944535429893389,-0.3391776588167287,-0.016915851728964586
3892,7.0,299.2994,965.98201,0.0,0.0,0.0,0.0,-0.038790822900230636,0.0,-0.09326137419993101,-0.08867014345281182,-0.1117028897767169,-0.1066275706883219,-0.34653057161240464,-0.009277304034073623
3893,7.0,300.83457000000004,841.16305,0.0,0.0,0.0,0.0,-0.038800789709814466,0.0,-0.08294116659240583,-0.07529651578818752,-0.0974548799647978,-0.09298014562142591,-0.36846370751703666,-0.02110205196061038
3894,7.0,299.33453,467.48534000000006,0.0,0.0,0.0,0.0,-0.03881075651939828,0.0,-0.04610509552796866,-0.03997997030246586,-0.05601880442062554,-0.04908091075990875,-0.3424465961568477,-0.02046073557481738
3895,7.0,299.6898,698.6610900000001,0.0,0.0,0.0,0.0,-0.03882072332898211,0.0,-0.07538840440000623,-0.03640209705985726,-0.1005850233194689,-0.08293745607053962,-0.3652661029839576,-0.008158636710894751
3896,7.0,300.13175,956.32607,0.0,0.0,0.0,0.0,-0.038830690138565924,0.0,-0.07869115592246242,-0.09778220027710181,-0.11422589265821788,-0.09454644181150731,-0.3584151137578177,0.00946874274569215
3897,7.0,299.69106,655.3843,0.0,0.0,0.0,0.0,-0.03884065694814974,0.0,-0.03126453807081967,-0.07082757824863774,-0.0971283459345714,-0.1093903490734869,-0.3109087409643037,0.0022825385704190178
3898,7.0,300.22031,637.17634,0.0,0.0,0.0,0.0,-0.03885062375773357,0.0,-0.028003740168753975,-0.08131031218545301,-0.08437164471258302,-0.07714798919241372,-0.2827764193578597,-0.021164301993753982
3899,7.0,300.95866,1061.3978,0.0,0.0,0.0,0.0,-0.03886059056731739,0.0,-0.11279023885652989,-0.12391010141647489,-0.08593807363842751,-0.07802670095738584,-0.3307974826721697,-0.018078113428420882
3900,7.0,300.8538,1058.1601,0.0,0.0,0.0,0.0,-0.0388705573769012,0.0,-0.11974517741042888,-0.0968730474393754,-0.10503602835874891,-0.0980043016592715,-0.36462467514065366,-0.0025962568107305976
3901,7.0,302.16541,776.68108,0.0,0.0,0.0,0.0,-0.03888052418648503,0.0,-0.06867010128771134,-0.09790564960303531,-0.06951590370268552,-0.056895669030665355,-0.35624607966625066,-0.03063860890104527
3902,7.0,301.73638,787.10077,0.0,0.0,0.0,0.0,-0.038890490996068845,0.0,-0.058447602400579245,-0.07660833218915372,-0.1042030455840399,-0.06566519665865034,-0.34948022371351267,-0.0034346897564024865
3903,7.0,300.57408,743.2307099999999,0.0,0.0,0.0,0.0,-0.03890045780565267,0.0,-0.06882169363517233,-0.07103880340423403,-0.08606308032976473,-0.06066025893545145,-0.34748339147644064,-0.03610767393854997
3904,7.0,299.82763,568.23475,0.0,0.0,0.0,0.0,-0.03891042461523649,0.0,-0.04497881231306316,-0.055601224802663655,-0.07214913603606533,-0.1033784119901549,-0.3497573374833617,-0.035988121572501065
3905,7.0,300.46828,746.94978,0.0,0.0,0.0,0.0,-0.038920391424820316,0.0,-0.08974533454467491,-0.062328804219624036,-0.07497994403294433,-0.06862111165862644,-0.3188817729536807,-0.03341928736247687
3906,7.0,299.62973999999997,920.55351,0.0,0.0,0.0,0.0,-0.03893035823440413,0.0,-0.08526281236103442,-0.09196204205344691,-0.1026004284308739,-0.08640834631458982,-0.3132169246921037,0.00912306811710172
3907,7.0,300.3938,829.77664,0.0,0.0,0.0,0.0,-0.03894032504398795,0.0,-0.07449394672848013,-0.08847646981544773,-0.08926096350662122,-0.0911463777494471,-0.3809778224795836,-0.017895246103373286
3908,7.0,299.89988999999997,892.61915,0.0,0.0,0.0,0.0,-0.038950291853571774,0.0,-0.06963563338750192,-0.07600271564413402,-0.1256955798151879,-0.10785848717480388,-0.37091246956371066,0.03309146245162307
3909,7.0,301.13784,978.31641,0.0,0.0,0.0,0.0,-0.03896025866315559,0.0,-0.06856588344867584,-0.11327092470396989,-0.11554694787359589,-0.1021256802290199,-0.3440060285907517,-0.005839436117407474
3910,7.0,300.53686,1047.8581,0.0,0.0,0.0,0.0,-0.03897022547273941,0.0,-0.09616411687440941,-0.11297004008677489,-0.10938854548830888,-0.09122268156147773,-0.3074712798675527,-0.005477139728876605
3911,7.0,300.74127000000004,967.53252,0.0,0.0,0.0,0.0,-0.03898019228232323,0.0,-0.1185628260012399,-0.09202123713753901,-0.08352166770719682,-0.09415143943227361,-0.34500983519981965,-0.03774542249918317
3912,7.0,299.64608,865.19962,0.0,0.0,0.0,0.0,-0.03899015909190705,0.0,-0.10899361099683189,-0.07062918286580763,-0.08337628860934902,-0.06724209853752844,-0.3457486870402387,-0.003101352055729617
3913,7.0,300.90259,634.54407,0.0,0.0,0.0,0.0,-0.03900012590149088,0.0,-0.05734637382089645,-0.03546547095891947,-0.10007370793475599,-0.06464773042498423,-0.33551721177047067,-0.015797332036325287
3914,7.0,301.17576,497.23283,0.0,0.0,0.0,0.0,-0.039010092711074695,0.0,-0.03929790201090096,-0.04910022735981515,-0.06274823605876874,-0.07599256693113243,-0.34463010959234364,-0.009469892581905632
3915,7.0,300.33207000000004,846.80922,0.0,0.0,0.0,0.0,-0.03902005952065851,0.0,-0.055476923333396044,-0.08921484948132011,-0.1127170821993099,-0.09191886240043541,-0.36036800133805263,-0.02973792582090477
3916,7.0,299.97992,903.5907599999999,0.0,0.0,0.0,0.0,-0.039030026330242336,0.0,-0.0957445097429974,-0.06239686321559094,-0.11652765238038389,-0.11908718292798988,-0.3541578725351606,0.0038163873512231062
3917,7.0,299.56642999999997,727.57429,0.0,0.0,0.0,0.0,-0.03903999313982615,0.0,-0.04508834059587276,-0.1042857065271979,-0.07179036849365773,-0.08080071729940992,-0.3155774529200697,-0.025644686219683473
3918,7.0,299.10829,1148.6566,0.0,0.0,0.0,0.0,-0.03904995994940998,0.0,-0.10457607360835489,-0.11146781575351689,-0.13311901481782387,-0.0971530439057589,-0.3064320702999907,0.002979684023471917
3919,7.0,299.77952999999997,1347.1903,0.0,0.0,0.0,0.0,-0.0390599267589938,0.0,-0.12342433918603388,-0.1372076208263379,-0.14888024171333586,-0.0910495343446394,-0.35042944653969366,-0.01104333076664189
3920,7.0,299.70283,844.0481800000001,0.0,0.0,0.0,0.0,-0.03906989356857762,0.0,-0.07736789790136703,-0.09402360374665722,-0.08517807020217102,-0.08844474495481672,-0.37257108904990366,-0.013453543713261388
3921,7.0,299.85522000000003,510.70690999999994,0.0,0.0,0.0,0.0,-0.03907986037816144,0.0,-0.031131923897731673,-0.05284708336135105,-0.07126314001612434,-0.06736631793353794,-0.3429017177042647,-0.02093599952097228
3922,7.0,301.14201,578.26256,0.0,0.0,0.0,0.0,-0.03908982718774526,0.0,-0.07253012111341564,-0.05786366028844865,-0.04538359559551216,-0.06568683866753625,-0.3198028274270817,-0.01919148581055218
3923,7.0,301.34045,571.47696,0.0,0.0,0.0,0.0,-0.03909979399732909,0.0,-0.053619924676374546,-0.05215759706580405,-0.06793720533138013,-0.08526377292212924,-0.3317534233465137,-0.03633751553823356
3924,7.0,300.81196,625.0219,0.0,0.0,0.0,0.0,-0.039109760806912905,0.0,-0.05857995616839154,-0.04657886087722566,-0.08483223578403983,-0.09843090426937391,-0.3215507547770887,-0.033786459814463966
3925,7.0,300.55401,871.63587,0.0,0.0,0.0,0.0,-0.03911972761649672,0.0,-0.08011361720784843,-0.06876714936903924,-0.11607477011568788,-0.1004038400160875,-0.3233944342615457,-0.007069697841674854
3926,7.0,300.18804,896.1537599999999,0.0,0.0,0.0,0.0,-0.039129694426080545,0.0,-0.07398875745387183,-0.06338965376957173,-0.1350299538439189,-0.08936616419825372,-0.3306464476122637,0.005949111422806584
3927,7.0,299.84533999999996,833.98086,0.0,0.0,0.0,0.0,-0.03913966123566436,0.0,-0.06321124778471444,-0.07668676787939473,-0.11361133620756589,-0.12458255497784089,-0.3748878043435456,0.006813998707389313
3928,7.0,300.69166,1051.9189999999999,0.0,0.0,0.0,0.0,-0.03914962804524819,0.0,-0.12023791080155788,-0.08787228397956921,-0.1116469279736939,-0.11945479006426987,-0.39861494008023163,0.02178154558367118
3929,7.0,300.11715,903.83063,0.0,0.0,0.0,0.0,-0.03915959485483201,0.0,-0.10673767044418789,-0.05606442600637805,-0.11193984844510288,-0.100856524697014,-0.3546789769290897,0.015781001484463587
3930,7.0,299.36796,605.88484,0.0,0.0,0.0,0.0,-0.03916956166441583,0.0,-0.07138669573331834,-0.06721573376992644,-0.04557143291230025,-0.08336224293646283,-0.32509775834215066,-0.011614343807496489
3931,7.0,299.87935,852.1628,0.0,0.0,0.0,0.0,-0.03917952847399965,0.0,-0.07411682010751064,-0.08856676255835892,-0.0963526290157641,-0.07928703918702153,-0.3292538873373287,-0.013316251364461686
3932,7.0,299.40606,898.5106400000001,0.0,0.0,0.0,0.0,-0.03918949528358347,0.0,-0.08076540452017482,-0.08517511049862891,-0.10718428069076488,-0.09201748405916861,-0.3348416373987967,-0.015917645353199287
3933,7.0,300.04411,620.629,0.0,0.0,0.0,0.0,-0.0391994620931673,0.0,-0.04249975712814946,-0.08224797788099342,-0.06390798388472695,-0.07041766792068273,-0.3311466486566297,-0.04561491451384155
3934,7.0,301.21092999999996,656.7442,0.0,0.0,0.0,0.0,-0.039209428902751114,0.0,-0.04753674699176166,-0.057800223739437946,-0.09429686615287611,-0.07188659989540504,-0.34204128598434663,-0.014588633084785986
3935,7.0,300.19327000000004,888.20652,0.0,0.0,0.0,0.0,-0.03921939571233494,0.0,-0.07521243528163943,-0.1076381255430559,-0.08714204273850001,-0.07024185078983093,-0.34977103662471365,-0.05821984302985115
3936,7.0,300.71123,934.0617199999999,0.0,0.0,0.0,0.0,-0.039229362521918755,0.0,-0.07904343055822922,-0.0995371038540473,-0.10535090595982491,-0.0896746704827009,-0.3530462054529477,-0.013742192322248789
3937,7.0,300.71671000000003,715.29005,0.0,0.0,0.0,0.0,-0.03923932933150257,0.0,-0.037618882760444665,-0.08168223779365923,-0.0981291948665975,-0.10525269162763191,-0.31515597127597267,-0.027147919750041077
3938,7.0,299.68298,710.84773,0.0,0.0,0.0,0.0,-0.0392492961410864,0.0,-0.05433881042357304,-0.08773955834897022,-0.07400159026638833,-0.11879663346181488,-0.3245356781141777,0.016490468058732485
3939,7.0,299.91215,806.6498799999999,0.0,0.0,0.0,0.0,-0.03925926295067022,0.0,-0.09260806194620409,-0.05908876274585685,-0.0935045977936853,-0.1063284491263009,-0.35442860282937966,0.0036948525613535563
3940,7.0,299.97107,1000.2466,0.0,0.0,0.0,0.0,-0.03926922976025404,0.0,-0.11455393237809287,-0.0922050903549339,-0.0972909644696206,-0.08510146038861023,-0.37551621192306467,-0.006517535609655682
3941,7.0,298.76187999999996,1136.6928,0.0,0.0,0.0,0.0,-0.03927919656983786,0.0,-0.1290860970348059,-0.08769032452661123,-0.12874980945911688,-0.04729599674150146,-0.3417543132910247,0.0067373597122256336
3942,7.0,299.17141000000004,1002.459,0.0,0.0,0.0,0.0,-0.03928916337942168,0.0,-0.10925482687261188,-0.07050579737463043,-0.12496188541777789,-0.05925329429709485,-0.34715638527166764,0.003932711401128396
3943,7.0,299.75572,692.2769999999999,0.0,0.0,0.0,0.0,-0.03929913018900551,0.0,-0.05688041961666034,-0.07682689631522432,-0.07672760489817503,-0.06092821900389704,-0.3587211760830237,-0.04284205023718116
3944,7.0,299.96106000000003,817.83212,0.0,0.0,0.0,0.0,-0.039309096998589324,0.0,-0.07586227918027402,-0.058018950998774646,-0.11471931505941488,-0.08966392395214032,-0.36480947169389166,-0.016353395585204485
3945,7.0,300.65468,709.06193,0.0,0.0,0.0,0.0,-0.03931906380817315,0.0,-0.06918988136375964,-0.06335004987616313,-0.08299719020368493,-0.09421029507758222,-0.3392318980945817,-0.00990996878388777
3946,7.0,300.85463,461.69364,0.0,0.0,0.0,0.0,-0.039329030617756965,0.0,-0.035638636414259565,-0.06322824910814234,-0.041476452547407165,-0.095925482290358,-0.3694111368905406,-0.018238892914538583
3947,7.0,300.27747999999997,642.2442900000001,0.0,0.0,0.0,0.0,-0.03933899742734078,0.0,-0.045141217052341254,-0.04522870207922536,-0.10485630818851191,-0.13285059473383287,-0.35662766965391063,-0.008660423390342242
3948,7.0,300.10332,980.1288,0.0,0.0,0.0,0.0,-0.03934896423692461,0.0,-0.07771803052642243,-0.11600082312338988,-0.10421583280030189,-0.1039274111593369,-0.34827315913438467,-0.0097206422934277
3949,7.0,300.06973999999997,786.3647,0.0,0.0,0.0,0.0,-0.03935893104650843,0.0,-0.03737035784216717,-0.08858226427163883,-0.1130826121728849,-0.08751570708387782,-0.3112313395311417,-0.016665941697800384
3950,7.0,299.60994,781.53732,0.0,0.0,0.0,0.0,-0.03936889785609225,0.0,-0.06493593016417734,-0.08584981955471752,-0.08678208158747461,-0.08144269229776792,-0.33269492520693267,0.005394679409238406
3951,7.0,299.73601,1098.0052,0.0,0.0,0.0,0.0,-0.03937886466567607,0.0,-0.1172260350118089,-0.1284753301395279,-0.08806479035281811,-0.0979164741538536,-0.3409935144534397,-0.017511668119017085
3952,7.0,300.00996000000004,836.36378,0.0,0.0,0.0,0.0,-0.039388831475259886,0.0,-0.09766648711568181,-0.06860125904941713,-0.08796595793806411,-0.06874685498278633,-0.35748389638591366,-0.015373459121992285
3953,7.0,299.85837999999995,602.79692,0.0,0.0,0.0,0.0,-0.03939879828484372,0.0,-0.037395779273926066,-0.09033953581406802,-0.05549989675291335,-0.03362661758468877,-0.35812219328640865,-0.03714929301484976
3954,7.0,300.16863,847.0392099999999,0.0,0.0,0.0,0.0,-0.039408765094427534,0.0,-0.05690711571704504,-0.07655657436079563,-0.12401507412683489,-0.06657973796040853,-0.3859177308246146,-0.054936115278022446
3955,7.0,300.36112,888.97519,0.0,0.0,0.0,0.0,-0.03941873190401136,0.0,-0.06179984612416993,-0.06433519951113983,-0.14409121644069586,-0.10384498326370191,-0.36569461658374863,-0.015732436407170588
3956,7.0,300.89942,619.3656900000001,0.0,0.0,0.0,0.0,-0.039428698713595174,0.0,-0.05322325854047666,-0.07320946376221153,-0.06183898088278224,-0.11509962835194888,-0.3527487253560887,-0.04610749085120505
3957,7.0,300.71789,803.70762,0.0,0.0,0.0,0.0,-0.03943866552317899,0.0,-0.09838419445301401,-0.04038325802776726,-0.10553959339344691,-0.1080762346212939,-0.2907537779251637,0.03553202629173797
3958,7.0,299.84904,879.3689199999999,0.0,0.0,0.0,0.0,-0.039448632332762815,0.0,-0.1036189879613979,-0.07034513238577403,-0.09334207349089542,-0.09991786297662532,-0.33333194541230166,0.005347092219616915
3959,7.0,300.20162999999997,1060.0114,0.0,0.0,0.0,0.0,-0.03945859914234663,0.0,-0.11811452362699588,-0.08992253476191323,-0.1141799417661829,-0.09814493368040081,-0.3353383629953197,0.02303281117191148
3960,7.0,300.68043,1233.8481,0.0,0.0,0.0,0.0,-0.03946856595193046,0.0,-0.12267548656712789,-0.09003634909264582,-0.16234716640741784,-0.08664883109332383,-0.33914112101812266,0.001065580819964639
3961,7.0,299.50228,885.2411199999999,0.0,0.0,0.0,0.0,-0.03947853276151428,0.0,-0.07449889949496892,-0.09726791910934621,-0.09732437841816831,-0.08124514297877132,-0.33044526680490866,0.018311405144694985
3962,7.0,300.28525,639.14292,0.0,0.0,0.0,0.0,-0.039488499571098096,0.0,-0.06333010202144444,-0.05479852503369335,-0.07615486223939973,-0.08112961118911922,-0.36576640535333366,-0.013993684036819087
3963,7.0,299.73151,838.77727,0.0,0.0,0.0,0.0,-0.03949846638068192,0.0,-0.1127290892129949,-0.04272892491651655,-0.0995093367483069,-0.11447537509783988,-0.3816379549197336,0.006578135767661453
3964,7.0,299.97323,930.5862699999999,0.0,0.0,0.0,0.0,-0.039508433190265736,0.0,-0.10846038813170689,-0.08954150206180822,-0.08487310117382292,-0.07795591125239942,-0.36088248920882865,-0.03172615860437807
3965,7.0,300.5175,429.93634000000003,0.0,0.0,0.0,0.0,-0.03951839999984955,0.0,-0.02257417060689718,-0.013734974941786488,-0.09438076427440621,-0.10528410238073191,-0.3251865393159127,-0.01990451801192298
3966,7.0,299.83793,305.23581,0.0,0.0,0.0,0.0,-0.03952836680943338,0.0,0.014807863929422384,-0.055772428605810144,-0.05181949881218635,-0.08218968965574082,-0.3375923986377757,-0.04458794703398775
3967,7.0,299.09566,893.63363,0.0,0.0,0.0,0.0,-0.039538333619017194,0.0,-0.05157783157058565,-0.09529913870129272,-0.12476533516337988,-0.11040149161327889,-0.3528678430378447,-0.03600108104128007
3968,7.0,300.87837,1146.1643,0.0,0.0,0.0,0.0,-0.039548300428601024,0.0,-0.1478663228682699,-0.0900307741905956,-0.11050823751131389,-0.0946018676052274,-0.36481475072691266,0.0015934877697649985
3969,7.0,300.97747999999996,971.9681,0.0,0.0,0.0,0.0,-0.03955826723818484,0.0,-0.08572203757135642,-0.13557349159506188,-0.07415850217687434,-0.09799605886970801,-0.3257375345877917,-0.017541068583918684
3970,7.0,300.9403,912.2687199999999,0.0,0.0,0.0,0.0,-0.03956823404776866,0.0,-0.1054070805453689,-0.07475381599487724,-0.09714601498981522,-0.09803616128216582,-0.35283539876964265,0.009298589480249331
3971,7.0,301.50602000000003,873.35371,0.0,0.0,0.0,0.0,-0.03957820085735248,0.0,-0.07513574947432113,-0.07660959571202842,-0.11373236893201089,-0.08098870052421242,-0.3506318432471687,-0.0006902059868280272
3972,7.0,299.77751,739.57434,0.0,0.0,0.0,0.0,-0.0395881676669363,0.0,-0.055166035911213857,-0.09722918559777351,-0.07241690966649253,-0.07034712038247024,-0.35207431622202967,-0.025366913837269474
3973,7.0,300.53403,903.4160699999999,0.0,0.0,0.0,0.0,-0.03959813447652013,0.0,-0.07454180557045342,-0.05354958789418285,-0.14652453655584585,-0.0853743732235446,-0.3210791881805487,0.013740469797078787
3974,7.0,300.51263,658.99753,0.0,0.0,0.0,0.0,-0.039608101286103946,0.0,-0.04520782912716536,-0.07406278955917822,-0.08104817425208202,-0.08434414713136922,-0.35070297340418866,-0.005904406321769535
3975,7.0,299.22062,423.69903,0.0,0.0,0.0,0.0,-0.03961806809568776,0.0,-0.039841714352821064,-0.030308374481453675,-0.05864383550769594,-0.10202756722183691,-0.3585509703312257,-0.004538469699837086
3976,7.0,299.69712999999996,975.2180099999999,0.0,0.0,0.0,0.0,-0.039628034905271586,0.0,-0.10040666090436591,-0.07008605142795474,-0.12594921658021987,-0.07549812722683502,-0.35132956726602865,-0.014052299541853986
3977,7.0,299.80766,1345.118,0.0,0.0,0.0,0.0,-0.0396380017148554,0.0,-0.16713339510978184,-0.12462042013407788,-0.1171284792921809,-0.09293677547739561,-0.3228577764785817,0.01127745841424849
3978,7.0,299.52736,989.05706,0.0,0.0,0.0,0.0,-0.039647968524439234,0.0,-0.06490976703334524,-0.0930204192731506,-0.14271846520521586,-0.1107240699151149,-0.34204641302985267,-0.014876057687652587
3979,7.0,301.17017000000004,809.2529099999999,0.0,0.0,0.0,0.0,-0.03965793533402305,0.0,-0.07600268524663102,-0.10641909448024689,-0.06357089989445934,-0.11874942613965589,-0.37020817968420267,0.011667101713703288
3980,7.0,300.90898,1033.5761,0.0,0.0,0.0,0.0,-0.03966790214360687,0.0,-0.10075384193188,-0.0978094131350375,-0.11561806789811489,-0.0930093140520546,-0.35067740910416567,0.009632943572097511
3981,7.0,300.40337999999997,813.97637,0.0,0.0,0.0,0.0,-0.03967786895319069,0.0,-0.11397414053837189,-0.04414306741858155,-0.08931128454633752,-0.07230118839907174,-0.3404658948613677,0.022258386146981682
3982,7.0,300.47986000000003,607.62801,0.0,0.0,0.0,0.0,-0.03968783576277451,0.0,-0.04058939058836096,-0.0998027810700176,-0.044311570910211553,-0.09880297274584421,-0.36601985973334766,-0.03929033303265396
3983,7.0,300.76788999999997,774.07305,0.0,0.0,0.0,0.0,-0.03969780257235834,0.0,-0.07065140344050064,-0.06048406082256204,-0.1041634173726289,-0.08705566012772473,-0.3507557130718937,-0.025692608896413078
3984,7.0,300.17162,703.38077,0.0,0.0,0.0,0.0,-0.039707769381942155,0.0,-0.03696861937626867,-0.08579435525749361,-0.09104721602841061,-0.0975798440996308,-0.3262756717159017,-0.06318075706270523
3985,7.0,299.98098,596.10554,0.0,0.0,0.0,0.0,-0.03971773619152597,0.0,-0.03580353577528386,-0.1024321377217649,-0.04296552286786696,-0.07788767088466463,-0.3096799827005347,-0.05308575543565615
3986,7.0,299.04375,734.68289,0.0,0.0,0.0,0.0,-0.039727703001109796,0.0,-0.06981017483647783,-0.04679762967981645,-0.1067174459721919,-0.10918783077599989,-0.3523382780055807,-0.020956244257970283
3987,7.0,298.76726,847.21512,0.0,0.0,0.0,0.0,-0.03973766981069361,0.0,-0.07372945358103053,-0.1187176404840189,-0.06508514745340395,-0.0997612884784226,-0.37347729940933966,-0.024200149254368773
3988,7.0,299.78607,627.79407,0.0,0.0,0.0,0.0,-0.03974763662027744,0.0,-0.07234324030472193,-0.06196808211777354,-0.05652239782632636,-0.09431694573010782,-0.37167677424664164,-0.016410323015572784
3989,7.0,300.28933,858.1074800000001,0.0,0.0,0.0,0.0,-0.03975760342986126,0.0,-0.10294682824256089,-0.07883830922123533,-0.07905810343292732,-0.06668188370298953,-0.34247856419750267,-0.012233391995841789
3990,7.0,299.64171,819.67593,0.0,0.0,0.0,0.0,-0.03976757023944508,0.0,-0.07127138989843854,-0.091028778929591,-0.08686084557074801,-0.07191080745354414,-0.36472179516273867,-0.015416986319788087
3991,7.0,299.59893999999997,736.21734,0.0,0.0,0.0,0.0,-0.0397775370490289,0.0,-0.07548058584110383,-0.044000139372725657,-0.1043109668521909,-0.09176966841596111,-0.36555103904457864,0.021646109509054684
3992,7.0,300.80516,935.81938,0.0,0.0,0.0,0.0,-0.03978750385861272,0.0,-0.07553313299128983,-0.1080561418718109,-0.1008764482337303,-0.08092563381148822,-0.3502485104693367,-0.012212543361784189
3993,7.0,300.84126000000003,1026.8695,0.0,0.0,0.0,0.0,-0.03979747066819655,0.0,-0.10763590652533689,-0.07208127158411763,-0.13242551605188088,-0.08863534540462752,-0.3349260208671247,0.034998097191293265
3994,7.0,300.57742,747.3050400000001,0.0,0.0,0.0,0.0,-0.039807437477780365,0.0,-0.06057732441476644,-0.05471772847071936,-0.11186701602791489,-0.07696992872584052,-0.3453702178628867,-0.016313540405771085
3995,7.0,300.77265,695.62909,0.0,0.0,0.0,0.0,-0.03981740428736418,0.0,-0.05196651633544585,-0.08687414245181031,-0.07261321674086653,-0.09062257203075151,-0.3596006569048216,-0.014208268116496885
3996,7.0,300.36395,988.6166300000001,0.0,0.0,0.0,0.0,-0.039827371096948005,0.0,-0.0893795684838266,-0.08243167404462282,-0.12870352419454886,-0.0949349178468469,-0.3373043924293517,-0.030530686619644174
3997,7.0,300.30634,974.0650099999999,0.0,0.0,0.0,0.0,-0.03983733790653182,0.0,-0.08950998289094751,-0.0906714978250801,-0.11590996498692288,-0.1116788453518439,-0.3383513533601787,0.008173783178689591
3998,7.0,299.37635,633.82641,0.0,0.0,0.0,0.0,-0.03984730471611565,0.0,-0.03605893762199006,-0.09664404177102431,-0.05996442361477785,-0.12518072717437587,-0.35785612394264965,-0.029323707153524572
3999,7.0,299.2889,729.97445,0.0,0.0,0.0,0.0,-0.03985727152569947,0.0,-0.08185883715358822,-0.04268888532556496,-0.09734628387208022,-0.0972649330613015,-0.36248140799912965,0.026429075546096678
4000,7.0,299.18327,954.82305,0.0,0.0,0.0,0.0,-0.039867238335283293,0.0,-0.08441898477050512,-0.12719772308843788,-0.07862565538299802,-0.09095681081473832,-0.3341689305249057,-0.030653146000229968
4001,7.0,299.84237,749.93514,0.0,0.0,0.0,0.0,-0.03987720514486711,0.0,-0.06270563395831423,-0.06606623598197985,-0.09918968471275971,-0.08761784168070773,-0.35160563738827466,-0.03330377685107687
4002,7.0,300.3725,720.0120400000001,0.0,0.0,0.0,0.0,-0.03988717195445093,0.0,-0.06032309185867565,-0.07037072809655014,-0.08817186049088512,-0.1018707769013629,-0.37326872187625465,-0.030995665064033968
4003,7.0,301.10789,827.22496,0.0,0.0,0.0,0.0,-0.03989713876403476,0.0,-0.06979392027837364,-0.09313944170939721,-0.08852237105822781,-0.0922170740638666,-0.39013787696111063,-0.014999347933320386
4004,7.0,299.88423,464.74602999999996,0.0,0.0,0.0,0.0,-0.039907105573618575,0.0,-0.024070859554858878,-0.027179807743938175,-0.09002052009958361,-0.07679375999720402,-0.3382045638181917,-0.01925845454941148
4005,7.0,301.04359,615.74718,0.0,0.0,0.0,0.0,-0.0399170723832024,0.0,-0.04571032518300786,-0.07838783545202703,-0.06307360586463023,-0.07171919983313393,-0.33724756936374367,-0.023693575880123878
4006,7.0,301.46389,835.23562,0.0,0.0,0.0,0.0,-0.039927039192786215,0.0,-0.06860267557305694,-0.059508613057292846,-0.1257794870559689,-0.08498952968981352,-0.3342494433778517,0.003908842775147746
4007,7.0,301.57726,780.5374400000001,0.0,0.0,0.0,0.0,-0.03993700600237003,0.0,-0.06744721582152194,-0.06797471078383163,-0.10184196006851891,-0.10456930509768692,-0.36407105555101565,-0.009209873658468763
4008,7.0,301.49818,1005.492,0.0,0.0,0.0,0.0,-0.03994697281195386,0.0,-0.10106578414741631,-0.09996678775770382,-0.10461187173438789,-0.07065354747771224,-0.3481653087937407,-0.02129668717231938
4009,7.0,300.08693999999997,1232.9549,0.0,0.0,0.0,0.0,-0.03995693962153768,0.0,-0.1840062586900038,-0.05381730072960405,-0.13696392404478686,-0.1018762180543999,-0.3467173338708367,0.008225344233878273
4010,7.0,298.95555,963.3334199999999,0.0,0.0,0.0,0.0,-0.0399669064311215,0.0,-0.09636370079960681,-0.10775613878220289,-0.08870946160969223,-0.11930149545664089,-0.3519030870876307,-0.006222898692577285
4011,7.0,300.57442000000003,764.52175,0.0,0.0,0.0,0.0,-0.03997687324070532,0.0,-0.08629990828888782,-0.06975732371126184,-0.07633829191825284,-0.13329372953256685,-0.36977243147869765,0.000957944649994276
4012,7.0,299.80214,989.2157300000001,0.0,0.0,0.0,0.0,-0.03998684005028914,0.0,-0.07035193838669573,-0.08785198858006622,-0.14249295626295988,-0.1146117788263019,-0.3293852450802927,0.007284647907288773
4013,7.0,299.04152,719.20727,0.0,0.0,0.0,0.0,-0.03999680685987296,0.0,-0.051415926363606854,-0.09484133710736121,-0.07236378901674993,-0.06252217185545794,-0.3233528910074457,-0.030551214053420074
4014,7.0,298.53404,498.87793,0.0,0.0,0.0,0.0,-0.04000677366945678,0.0,-0.016591573193460784,-0.058597432706116344,-0.07645742783851063,-0.09069440031709042,-0.37338578266030764,-0.022439156044322277
4015,7.0,299.95652,700.7629900000001,0.0,0.0,0.0,0.0,-0.040016740479040594,0.0,-0.06253503101247704,-0.07117553846547872,-0.07930388041693362,-0.07266631509910693,-0.38687574866166363,-0.018612159052627083
4016,7.0,300.64946000000003,871.79086,0.0,0.0,0.0,0.0,-0.04002670728862442,0.0,-0.06263689304503003,-0.0966648954713324,-0.1057008622793629,-0.09708320462936632,-0.36899060770153763,-0.022519053854457582
4017,7.0,300.92561,865.7012199999999,0.0,0.0,0.0,0.0,-0.04003667409820824,0.0,-0.0976116682587716,-0.07979117670802602,-0.08574871138023892,-0.08018674042781512,-0.3416002587458207,-0.019751431120564482
4018,7.0,299.72853,940.35765,0.0,0.0,0.0,0.0,-0.040046640907792065,0.0,-0.06711120790286053,-0.1061254748662689,-0.11260855298109888,-0.11308976571859088,-0.3356607285146347,-0.006173264028478724
4019,7.0,300.6019,1088.2661,0.0,0.0,0.0,0.0,-0.04005660771737588,0.0,-0.10425413365408191,-0.1022826022720069,-0.12426897433689288,-0.13314556197044386,-0.35347322957509164,-0.003065395153405947
4020,7.0,300.61753999999996,924.3245800000001,0.0,0.0,0.0,0.0,-0.0400665745269597,0.0,-0.09089792173217642,-0.07966908817697682,-0.1104045820260839,-0.1050684118319449,-0.3180571494922967,0.0040330530519063455
4021,7.0,300.77697,942.40035,0.0,0.0,0.0,0.0,-0.04007654133654352,0.0,-0.10139530929193791,-0.1094122555406489,-0.07565860172467263,-0.09522672475639601,-0.32994368774040667,-0.023682641898294776
4022,7.0,299.45762,1007.8044,0.0,0.0,0.0,0.0,-0.04008650814612734,0.0,-0.1121560050889359,-0.06154178753570153,-0.13264956591399288,-0.06653346181509144,-0.34023110454819566,0.024696486776103477
4023,7.0,299.36638,663.2485,0.0,0.0,0.0,0.0,-0.04009647495571117,0.0,-0.049388879008552856,-0.06405720218720364,-0.08816490250244842,-0.08454793908423192,-0.38703475799985665,-0.0023134218255169577
4024,7.0,299.1684,586.77588,0.0,0.0,0.0,0.0,-0.04010644176529499,0.0,-0.024865061195240474,-0.05136845255667155,-0.10213169893461391,-0.06833846047698093,-0.3495585276812407,-0.007113183698866573
4025,7.0,300.21448,1033.3734,0.0,0.0,0.0,0.0,-0.040116408574878804,0.0,-0.10664716694525589,-0.07967279768559292,-0.12779975576785388,-0.08172106959049162,-0.35039961645674966,0.008387332527365272
4026,7.0,300.25717000000003,1047.9660000000001,0.0,0.0,0.0,0.0,-0.04012637538446263,0.0,-0.10083888502602309,-0.1064492792007259,-0.1112673340887309,-0.08709319192467882,-0.34746792927991466,-0.005816061450850574
4027,7.0,300.01937999999996,871.16341,0.0,0.0,0.0,0.0,-0.040136342194046444,0.0,-0.08308569557341972,-0.08039419831953963,-0.1013320318231929,-0.10042458428538481,-0.36917007455924966,0.01073554490301579
4028,7.0,299.2575,1017.9419,0.0,0.0,0.0,0.0,-0.040146309003630275,0.0,-0.09043922543840661,-0.1044945677703109,-0.1144951132097879,-0.09981978441994571,-0.35347519528028565,-0.002487694053941288
4029,7.0,299.8299,903.63501,0.0,0.0,0.0,0.0,-0.04015627581321409,0.0,-0.07665308744607073,-0.10138472082839291,-0.0966446679595861,-0.06514000380056784,-0.33809315696969666,-0.02055155318128038
4030,7.0,299.64524,619.94099,0.0,0.0,0.0,0.0,-0.04016624262279791,0.0,-0.019251298977205282,-0.06713391281110134,-0.1020613692451729,-0.09993015268708821,-0.35785214186975667,-0.026207641895742876
4031,7.0,300.13886,671.45913,0.0,0.0,0.0,0.0,-0.04017620943238173,0.0,-0.05364796637289205,-0.08296195544470752,-0.06749688838117424,-0.09216207586168872,-0.37124049915108465,-0.027488296803133676
4032,7.0,299.99964,643.2575,0.0,0.0,0.0,0.0,-0.04018617624196555,0.0,-0.05759217917590554,-0.060233780955111345,-0.07770825570270773,-0.1254130350248029,-0.3448181080158977,-0.03726050430607546
4033,7.0,300.11399,453.8444,0.0,0.0,0.0,0.0,-0.04019614305154938,0.0,-0.02795106940205577,-0.07140177694780672,-0.038604517742219256,-0.08859367752076522,-0.3364347300010227,-0.051770901310890155
4034,7.0,300.34479,700.5414400000001,0.0,0.0,0.0,0.0,-0.040206109861133196,0.0,-0.043401632803657664,-0.08468368723987922,-0.08486178519670612,-0.10564056376591191,-0.36787114872605564,-0.03368992139793636
4035,7.0,300.28916,985.7439400000001,0.0,0.0,0.0,0.0,-0.04021607667071701,0.0,-0.07035586270433303,-0.0985718899147881,-0.13071379212794687,-0.0917744843936864,-0.39899604370784364,-0.012856688741856387
4036,7.0,299.34078,743.27107,0.0,0.0,0.0,0.0,-0.04022604348030084,0.0,-0.029948876385723973,-0.07487189813503102,-0.12111507128062687,-0.06419150038195784,-0.37161905952094565,-0.0034814922851465367
4037,7.0,299.01857,860.63677,0.0,0.0,0.0,0.0,-0.040236010289884654,0.0,-0.07914136118039422,-0.1049004554953689,-0.07757027333058993,-0.06799568708740183,-0.35176943939944066,-0.014039782863368686
4038,7.0,299.04672,993.96381,0.0,0.0,0.0,0.0,-0.040245977099468484,0.0,-0.1015483404545409,-0.06969061943067863,-0.13090121299894386,-0.07957840431952702,-0.33396417294469766,0.03159497412718117
4039,7.0,299.48359,765.29475,0.0,0.0,0.0,0.0,-0.0402559439090523,0.0,-0.10053118123565509,-0.07060277250195113,-0.06149653983923594,-0.09779800089916121,-0.3754054636871346,-0.008297526448477102
4040,7.0,299.00858,752.12517,0.0,0.0,0.0,0.0,-0.04026591071863612,0.0,-0.08116512965812463,-0.06361577066188773,-0.08384637180774263,-0.08727865722298282,-0.3403882697712067,-0.005572834310720925
4041,7.0,298.71225,995.60608,0.0,0.0,0.0,0.0,-0.04027587752821994,0.0,-0.11451697914694589,-0.08737123788461983,-0.10075117404436672,-0.08746591597396382,-0.3484791528797147,-0.01947706123198628
4042,7.0,299.11537999999996,806.0115900000001,0.0,0.0,0.0,0.0,-0.04028584433780376,0.0,-0.054778347171201947,-0.08955101445374701,-0.10067803461239841,-0.11287398397729488,-0.3706992310801656,-0.011120170587975388
4043,7.0,300.32917000000003,622.82888,0.0,0.0,0.0,0.0,-0.04029581114738759,0.0,-0.06490131044801063,-0.05226162644032095,-0.07216149160778473,-0.1141188326526519,-0.39382222657722765,-0.022019976504452476
4044,7.0,299.60003,1089.9441,0.0,0.0,0.0,0.0,-0.040305777956971406,0.0,-0.08961894578020131,-0.1046730416429249,-0.13702379699319586,-0.09921594004935091,-0.3404589743631847,-0.007940720963563143
4045,7.0,299.7281,1077.1423,0.0,0.0,0.0,0.0,-0.04031574476655522,0.0,-0.12370798841902789,-0.1058026027219039,-0.09791376168333592,-0.07476368505085124,-0.32610626643168267,-0.026594859474458273
4046,7.0,299.87743,523.38308,0.0,0.0,0.0,0.0,-0.040325711576139046,0.0,-0.01921415626828958,-0.05466610945762495,-0.08521512171857772,-0.09322301356439511,-0.35251263808278865,-0.017000936366361782
4047,7.0,300.0746,605.08338,0.0,0.0,0.0,0.0,-0.04033567838572286,0.0,-0.03199685343484357,-0.07747132945832493,-0.07446205569483273,-0.10961717524087289,-0.37602281670806265,-0.02013880575304538
4048,7.0,299.93447000000003,1059.8955,0.0,0.0,0.0,0.0,-0.040345645195306694,0.0,-0.097464406542238,-0.0918444898430954,-0.13287285583852987,-0.0946787368108138,-0.35416780238614065,-0.0005682355703429845
4049,7.0,299.3704,800.1793299999999,0.0,0.0,0.0,0.0,-0.04035561200489051,0.0,-0.0951727732415714,-0.07027197066230353,-0.07778979295150483,-0.10550896284292391,-0.3267735422850377,-0.035757558538746265
4050,7.0,299.67102,587.55489,0.0,0.0,0.0,0.0,-0.04036557881447433,0.0,-0.051497490970156656,-0.07827493608613473,-0.04882959028460536,-0.12392877561581787,-0.34153742710711965,-0.017397291434478983
4051,7.0,299.40807,569.46555,0.0,0.0,0.0,0.0,-0.04037554562405815,0.0,-0.07195572989672763,-0.04625507478127046,-0.05489250296721824,-0.12966465270940486,-0.3601559686221267,-0.029082208111440473
4052,7.0,299.62327999999997,678.51375,0.0,0.0,0.0,0.0,-0.04038551243364197,0.0,-0.06477874872916474,-0.06211333455935884,-0.07935915422313873,-0.097352067503651,-0.3335712345559177,-0.018434943636637283
4053,7.0,298.90201,980.33925,0.0,0.0,0.0,0.0,-0.0403954792432258,0.0,-0.08016922538658652,-0.1055207165440839,-0.11230870187900589,-0.07777080261813063,-0.36209837919632765,-0.047172582879321454
4054,7.0,299.78416,1144.92,0.0,0.0,0.0,0.0,-0.040405446052809615,0.0,-0.12082779461227489,-0.07546019722259163,-0.15173910660548384,-0.07404843889801192,-0.3859957814798176,0.008769856528967451
4055,7.0,299.78227999999996,828.7944,0.0,0.0,0.0,0.0,-0.04041541286239343,0.0,-0.08317564178479672,-0.07574632385208013,-0.09301083595370482,-0.09040254173178622,-0.38515736768457265,-0.007632961849739683
4056,7.0,299.72913,671.96779,0.0,0.0,0.0,0.0,-0.040425379671977256,0.0,-0.046267735341269954,-0.054331259683827855,-0.10366243612568589,-0.06347427028542274,-0.3445251064844807,-0.0007742491855074452
4057,7.0,300.05925,988.05565,0.0,0.0,0.0,0.0,-0.04043534648156107,0.0,-0.1178190193678319,-0.07201105335218763,-0.1105141751568999,-0.055738305382192446,-0.32854188662455963,-0.007506415626200543
4058,7.0,300.56196,929.40354,0.0,0.0,0.0,0.0,-0.0404453132911449,0.0,-0.095800923455565,-0.07316042651037193,-0.11355411797441889,-0.07686343614033052,-0.34764001967689867,-0.00915919646134231
4059,7.0,300.54562000000004,487.05819,0.0,0.0,0.0,0.0,-0.04045528010072872,0.0,-0.052380496889052545,-0.037153484830513464,-0.058519546197429544,-0.096453294399949,-0.37168931828287965,-0.014395611980486287
4060,7.0,300.64426000000003,670.30553,0.0,0.0,0.0,0.0,-0.04046524691031254,0.0,-0.054056363918447745,-0.07826855463700493,-0.07143122300896283,-0.08426121362393432,-0.3423893272611957,-0.03499757232774147
4061,7.0,299.21826,1015.5115,0.0,0.0,0.0,0.0,-0.04047521371989636,0.0,-0.11998809398940288,-0.06272972904569223,-0.1259723186824999,-0.0973764625130586,-0.3240295191592237,0.008994893195351841
4062,7.0,299.11374,993.86385,0.0,0.0,0.0,0.0,-0.04048518052948018,0.0,-0.07864873722027602,-0.09917641620270022,-0.12428463918343889,-0.1031466715597839,-0.35517317953286365,-0.03985245075088067
4063,7.0,299.51288,1014.8593,0.0,0.0,0.0,0.0,-0.04049514733906401,0.0,-0.09341644199523501,-0.0989103894154454,-0.1161650506995979,-0.1041007681189459,-0.36704528909954964,0.015615650213894683
4064,7.0,299.12667000000005,1036.4644,0.0,0.0,0.0,0.0,-0.040505114148647825,0.0,-0.05816409502259925,-0.0965260852738829,-0.16036911982719984,-0.09791867391982072,-0.3295340408574777,-0.025150620404672974
4065,7.0,299.35446,875.4852699999999,0.0,0.0,0.0,0.0,-0.04051508095823164,0.0,-0.07891494943229913,-0.08694294821310092,-0.1002677635674078,-0.08511336607728523,-0.34224701628465065,-0.0009056054389937981
4066,7.0,300.56327999999996,659.7910099999999,0.0,0.0,0.0,0.0,-0.040525047767815466,0.0,-0.05579665642895124,-0.055156035132726856,-0.089607300496802,-0.095583885284145,-0.39106343026495566,-0.02152416384626958
4067,7.0,299.64423999999997,642.53748,0.0,0.0,0.0,0.0,-0.04053501457739928,0.0,-0.07715429464778602,-0.05410215167721665,-0.06405890242087144,-0.08118354243894182,-0.38857320602418965,0.021998096381793078
4068,7.0,300.78872,630.01484,0.0,0.0,0.0,0.0,-0.040544981386983106,0.0,-0.03974313119759166,-0.07452213534626213,-0.07724351435884133,-0.07382249932446343,-0.37621275043930763,-0.01054043650351009
4069,7.0,300.77352,792.4927700000001,0.0,0.0,0.0,0.0,-0.04055494819656692,0.0,-0.06091026725187535,-0.09337331705772892,-0.08661443023917872,-0.07620924539876693,-0.35901451198697365,-0.006208027828809644
4070,7.0,299.82277999999997,1136.107,0.0,0.0,0.0,0.0,-0.04056491500615074,0.0,-0.08897394927004511,-0.1222411467792619,-0.13413307551790388,-0.11283442669339089,-0.37795772923152365,-0.025881430079048272
4071,7.0,299.8807,1155.0053,0.0,0.0,0.0,0.0,-0.04057488181573456,0.0,-0.13767970418042885,-0.10481168465410791,-0.1086013818831219,-0.08912058479801692,-0.3572285674932147,-0.018104979754822382
4072,7.0,298.63343,726.6105200000001,0.0,0.0,0.0,0.0,-0.04058484862531838,0.0,-0.08584553755979492,-0.07208887095986763,-0.06293704609565284,-0.09311713399519561,-0.3338090747518907,-0.027668304736399075
4073,7.0,298.83646,805.06211,0.0,0.0,0.0,0.0,-0.04059481543490221,0.0,-0.09898556750661491,-0.07559617639926174,-0.07013703411998634,-0.08733899018693722,-0.3298639348250357,-0.025002084019513576
4074,7.0,300.62531,861.01813,0.0,0.0,0.0,0.0,-0.04060478224448603,0.0,-0.08174797948664743,-0.04618581204418475,-0.13379422441946187,-0.08723820726574072,-0.37077108064475667,0.025991982757708972
4075,7.0,300.60145,526.6557,0.0,0.0,0.0,0.0,-0.040614749054069844,0.0,-0.025998189927821574,-0.04805895684154975,-0.08603303442454942,-0.1041494953162549,-0.37623519392902266,-0.0072052885382566136
4076,7.0,299.50558,602.79894,0.0,0.0,0.0,0.0,-0.04062471586365367,0.0,-0.00018906969235472584,-0.07901914599308252,-0.10402761146172591,-0.07145955652150913,-0.3400671201520117,-0.0025831812234901374
4077,7.0,300.32027999999997,1075.2633,0.0,0.0,0.0,0.0,-0.040634682673237485,0.0,-0.11903629750796789,-0.09009683201761501,-0.1177200754955669,-0.09494213117430882,-0.3466434882035487,0.021237381643966376
4078,7.0,299.85979,1125.5854,0.0,0.0,0.0,0.0,-0.040644649482821316,0.0,-0.0879610578605805,-0.14136499611913886,-0.11282378756734088,-0.08699214150545592,-0.37564116592539665,-0.033156654963057065
4079,7.0,301.19093,1030.2968,0.0,0.0,0.0,0.0,-0.04065461629240513,0.0,-0.12425920660592889,-0.0944574136047209,-0.0944678865577545,-0.11395322705630788,-0.3818104202192546,-0.007674854168499132
4080,7.0,300.97257,1073.5353,0.0,0.0,0.0,0.0,-0.04066458310198895,0.0,-0.06809604343030623,-0.13492667326122587,-0.12330521137177688,-0.06359667697700334,-0.34656529569333167,-0.044252488296880554
4081,7.0,300.51703,804.23275,0.0,0.0,0.0,0.0,-0.04067454991157277,0.0,-0.08041377329822152,-0.10524733153460289,-0.05880556947540785,-0.08036479076188732,-0.3510858400869747,-0.00921974899659338
4082,7.0,300.32886,763.92206,0.0,0.0,0.0,0.0,-0.04068451672115659,0.0,-0.04346322118448596,-0.06933501525508323,-0.11941499973284289,-0.08680387355737532,-0.3713513385795237,-0.03622688281281496
4083,7.0,299.99167,821.16317,0.0,0.0,0.0,0.0,-0.04069448353074042,0.0,-0.11325844146273789,-0.05889427445541235,-0.07746037723799402,-0.12708779558508887,-0.35330722881120863,0.01862353278499958
4084,7.0,300.29134,684.49267,0.0,0.0,0.0,0.0,-0.04070445034032424,0.0,-0.05403379275922015,-0.07410696321053782,-0.07992792291502183,-0.11672183162954788,-0.3292639286458197,-0.01959575436195038
4085,7.0,299.85297,622.7660099999999,0.0,0.0,0.0,0.0,-0.040714417149908054,0.0,-0.07554973610742842,-0.05405921419097904,-0.05969636627432265,-0.10492565502535589,-0.3210019075954217,0.003763465197175096
4086,7.0,299.42025,1035.065,0.0,0.0,0.0,0.0,-0.04072438395949188,0.0,-0.07871004695732683,-0.0991309324189613,-0.13679292795791087,-0.1090152236214649,-0.36653463131415165,-0.005954208070809584
4087,7.0,299.4315,1213.3372,0.0,0.0,0.0,0.0,-0.040734350769075695,0.0,-0.11161041044008989,-0.1025073310116859,-0.15470646018583886,-0.1095152220158109,-0.37122846173989665,-6.655476539844394e-05
4088,7.0,298.67895,737.65214,0.0,0.0,0.0,0.0,-0.040744317578659525,0.0,-0.024619213283727178,-0.09379967547455723,-0.1058089456675299,-0.0968592824367669,-0.37192682410631966,-0.00973327265857422
4089,7.0,298.42627000000005,652.3707400000001,0.0,0.0,0.0,0.0,-0.04075428438824334,0.0,-0.07478993329469173,-0.07581443249730192,-0.04770004947062836,-0.07663924948945502,-0.35338165203105365,-0.024599825756313774
4090,7.0,300.36328,876.15128,0.0,0.0,0.0,0.0,-0.04076425119782716,0.0,-0.1143220095627039,-0.05777387315733735,-0.0942322278892468,-0.07011327543164153,-0.37218152478395666,-0.002898730102757387
4091,7.0,299.53767,726.5371,0.0,0.0,0.0,0.0,-0.04077421800741098,0.0,-0.1011293767369424,-0.08573323094521111,-0.03398653009970937,-0.07106178087675173,-0.3793109450050756,-0.047069700503917754
4092,7.0,299.79712,626.19344,0.0,0.0,0.0,0.0,-0.0407841848169948,0.0,-0.05306133408174595,-0.056816439965596044,-0.08046939566246103,-0.06396656088625803,-0.3453752537158837,-0.015406169874970586
4093,7.0,300.23373,788.57852,0.0,0.0,0.0,0.0,-0.04079415162657863,0.0,-0.07260144176145443,-0.06593562905733995,-0.1011711074423109,-0.08062515246783303,-0.33904447722358466,-0.008586886764334742
4094,7.0,300.28394,758.13547,0.0,0.0,0.0,0.0,-0.04080411843616245,0.0,-0.06330247474421784,-0.07240395323746383,-0.09474782425563222,-0.0912471454718921,-0.38103915450813663,-0.013843808135027487
4095,7.0,299.98972000000003,937.5024400000001,0.0,0.0,0.0,0.0,-0.040814085245746264,0.0,-0.11212256783563589,-0.059125042165687355,-0.11372972434924988,-0.11224270889999288,-0.36772053923119163,0.028375890718482368
4096,7.0,300.27201,1134.8856,0.0,0.0,0.0,0.0,-0.04082405205533009,0.0,-0.1045336792241709,-0.1069749533526059,-0.13346825172979088,-0.10544340556145392,-0.3243275362786357,-0.025088664214058375
4097,7.0,299.14684,752.998,0.0,0.0,0.0,0.0,-0.040834018864913904,0.0,-0.08457415895706961,-0.06610147175420734,-0.07821695994191293,-0.09637699869391922,-0.32869149300182465,-0.004663844606260625
4098,7.0,300.0899,651.4702599999999,0.0,0.0,0.0,0.0,-0.040843985674497735,0.0,-0.022912207052258778,-0.08406765448383151,-0.09105083029151732,-0.11194690066579889,-0.36313776101640666,-0.06213558249180454
4099,7.0,299.26633,782.68288,0.0,0.0,0.0,0.0,-0.04085395248408155,0.0,-0.06832033444594203,-0.08750776522959401,-0.08208795326620022,-0.08445944587349832,-0.36136036835349167,-0.008983391084191673
4100,7.0,299.24557999999996,649.76135,0.0,0.0,0.0,0.0,-0.04086391929366537,0.0,-0.03579630420932017,-0.05765222539008164,-0.10406270031268891,-0.08363707385383651,-0.3553788389056607,-0.04029036832484976
4101,7.0,298.99486,406.12557000000004,0.0,0.0,0.0,0.0,-0.04087388610324919,0.0,-0.052948420530352244,-0.026186981726203873,-0.04431663006796086,-0.0906277193412595,-0.35994372312367967,0.02242001878968358
4102,7.0,299.59676,651.8790799999999,0.0,0.0,0.0,0.0,-0.04088385291283301,0.0,-0.04540055638893605,-0.05124862357334536,-0.1015057839503409,-0.1103451954377229,-0.40004504127137164,-0.016923367004956284
4103,7.0,299.19379,1012.1433,0.0,0.0,0.0,0.0,-0.04089381972241684,0.0,-0.13549207694952686,-0.06464654289586703,-0.1075276711496549,-0.06955858281014764,-0.35926552443424664,0.012161508993997488
4104,7.0,300.30478,1055.9273,0.0,0.0,0.0,0.0,-0.040903786532000656,0.0,-0.08745910794654191,-0.09141021490323581,-0.14210619869978988,-0.07246848207008233,-0.35651518876030963,-0.02999242891477227
4105,7.0,299.15644,1191.4197,0.0,0.0,0.0,0.0,-0.04091375334158447,0.0,-0.11801750492992089,-0.1110102421408579,-0.13313411224431387,-0.08879112247500151,-0.3397220882279597,-0.016952992411380086
4106,7.0,300.01884,1113.388,0.0,0.0,0.0,0.0,-0.0409237201511683,0.0,-0.1092284317075069,-0.08878858631000122,-0.14042512559138084,-0.1119370518748269,-0.38586901375980664,0.01977049744769618
4107,7.0,300.02789,725.18268,0.0,0.0,0.0,0.0,-0.040933686960752114,0.0,-0.07509805454410093,-0.07245824520432204,-0.07288112817330733,-0.0953126564708768,-0.3643358380671477,-0.0074746962371200825
4108,7.0,300.25656000000004,604.30526,0.0,0.0,0.0,0.0,-0.040943653770335944,0.0,-0.033736043529238265,-0.06869788257895314,-0.08125978241621612,-0.07543000642261202,-0.3443135297310997,0.021365104858821683
4109,7.0,300.71013999999997,819.05264,0.0,0.0,0.0,0.0,-0.04095362057991976,0.0,-0.098823995658919,-0.08047158428267702,-0.06967596986073284,-0.09124026854346341,-0.34147041074550566,-0.023860508834098876
4110,7.0,301.03803999999997,750.5206,0.0,0.0,0.0,0.0,-0.04096358738950358,0.0,-0.05775334673681154,-0.07949940323573022,-0.09088677091482592,-0.1112599677605039,-0.3512253139632397,-0.008287187751081752
4111,7.0,299.62315,610.11595,0.0,0.0,0.0,0.0,-0.0409735541990874,0.0,-0.07143983968781323,-0.06428012328870424,-0.04974005224146095,-0.13323392751166488,-0.3429691292334177,-0.048713382657136546
4112,7.0,298.56032999999996,829.2160299999999,0.0,0.0,0.0,0.0,-0.04098352100867122,0.0,-0.06884930875339773,-0.07691659630682703,-0.1062950625355059,-0.08248311877870002,-0.3484256127444307,-0.013825512891221884
4113,7.0,299.59705,1071.5144,0.0,0.0,0.0,0.0,-0.04099348781825505,0.0,-0.12397209205759288,-0.08753806343408423,-0.1142034593010039,-0.091935647901592,-0.37894508065896765,-0.009731138753863621
4114,7.0,299.36233,1149.3213,0.0,0.0,0.0,0.0,-0.041003454627838866,0.0,-0.060400546722819845,-0.12169458954282088,-0.16726983936824785,-0.06941258258998853,-0.37888055689259964,0.006757120926275915
4115,7.0,299.1164,975.37676,0.0,0.0,0.0,0.0,-0.04101342143742268,0.0,-0.11183743925749591,-0.09504284519449852,-0.08960989745680832,-0.08284832653874322,-0.3591831978636217,-0.002731775161255217
4116,7.0,300.13505,741.47977,0.0,0.0,0.0,0.0,-0.041023388247006506,0.0,-0.031002470051705575,-0.0905643000175005,-0.10382456627418689,-0.07155806266973094,-0.3348527527523937,-0.012196566434207386
4117,7.0,300.00835,614.4209599999999,0.0,0.0,0.0,0.0,-0.04103335505659032,0.0,-0.08349460582352602,-0.07260587371739184,-0.030668150207710767,-0.09298134024329381,-0.3707073978759717,-0.004384134484355386
4118,7.0,299.1285,895.01452,0.0,0.0,0.0,0.0,-0.04104332186617415,0.0,-0.07890049845937293,-0.08028313090982812,-0.1128784422777349,-0.12033289286593189,-0.39398473162826564,-0.011018860776726888
4119,7.0,300.60679,939.37511,0.0,0.0,0.0,0.0,-0.04105328867575797,0.0,-0.0967387330326196,-0.09577691246794531,-0.09303092971643792,-0.1006534116217183,-0.3832844052722256,0.009245454037055272
4120,7.0,300.70855,545.32133,0.0,0.0,0.0,0.0,-0.04106325548534179,0.0,0.00046493765094077357,-0.07644736221201723,-0.0897816443620084,-0.0977095279534296,-0.3566846143095307,-0.002066606969433228
4121,7.0,299.68799,832.58087,0.0,0.0,0.0,0.0,-0.04107322229492561,0.0,-0.08578285081585822,-0.08535962232858882,-0.08194132077797872,-0.08504252773629402,-0.35852749332640865,-0.02032456692037858
4122,7.0,300.49768,1365.1902,0.0,0.0,0.0,0.0,-0.04108318910450943,0.0,-0.1191361431728219,-0.1219224998878139,-0.17392507880756886,-0.09258202243188422,-0.3349137098784097,-0.009772973520017391
4123,7.0,300.21873999999997,1196.0128,0.0,0.0,0.0,0.0,-0.04109315591409325,0.0,-0.14889868286515584,-0.1075540865797619,-0.10710525731546588,-0.09825862338137109,-0.3242076890568077,-0.03833402961477417
4124,7.0,300.06832,958.60496,0.0,0.0,0.0,0.0,-0.04110312272367707,0.0,-0.08430967028346663,-0.08681516825624001,-0.12026713293444187,-0.11714393135620589,-0.33132623710435366,-0.01969841990183268
4125,7.0,300.94989,917.6999400000001,0.0,0.0,0.0,0.0,-0.041113089533260885,0.0,-0.1026362670869109,-0.06643990032735764,-0.10988169431197889,-0.09097241182652802,-0.36157658579233065,0.0066603343647988235
4126,7.0,299.98501,739.02865,0.0,0.0,0.0,0.0,-0.04112305634284471,0.0,-0.04654891933677066,-0.060624508432173145,-0.1174728323386659,-0.08821492058038483,-0.3790143261708016,0.025728214504927075
4127,7.0,299.56985,741.02574,0.0,0.0,0.0,0.0,-0.041133023152428526,0.0,-0.06375450689207995,-0.06594957745821653,-0.09554923618372542,-0.07490513577806134,-0.3766159834491037,0.0049966612937320755
4128,7.0,299.3109,783.8466400000001,0.0,0.0,0.0,0.0,-0.04114298996201236,0.0,-0.03522872507305447,-0.08442611501145883,-0.11861496785138588,-0.07477481357669953,-0.36322674464018867,-0.008776730316320841
4129,7.0,299.67145,643.1551900000001,0.0,0.0,0.0,0.0,-0.04115295677159617,0.0,-0.07427916709153302,-0.07249865868456053,-0.04872529341206205,-0.0957185604079364,-0.39326255788449266,-0.01053362746283809
4130,7.0,300.4997,761.31758,0.0,0.0,0.0,0.0,-0.04116292358117999,0.0,-0.06345925797194114,-0.07621126176646593,-0.09175101549487022,-0.10380520306477589,-0.37709303172868464,-0.03167284543711647
4131,7.0,299.47766,1099.4482,0.0,0.0,0.0,0.0,-0.041172890390763814,0.0,-0.12221880461455688,-0.11443615218646888,-0.0975498448039201,-0.09228195449426982,-0.3509923778977507,-0.03425570302852467
4132,7.0,299.42239,1025.9026,0.0,0.0,0.0,0.0,-0.04118285720034763,0.0,-0.07986093897741102,-0.08909473982771622,-0.14289309885995088,-0.0985095486891355,-0.32429362279778867,-0.025231909407195576
4133,7.0,300.34424,746.51139,0.0,0.0,0.0,0.0,-0.04119282400993146,0.0,-0.06474938676776694,-0.06117811282305964,-0.100993323593015,-0.09988890935501782,-0.3554960010147237,-0.0038057558245488564
4134,7.0,300.45641,644.9794099999999,0.0,0.0,0.0,0.0,-0.04120279081951528,0.0,-0.048347378482514754,-0.03785088866234186,-0.10985937241227589,-0.11665247466020288,-0.3538942147266397,-0.015599780690828485
4135,7.0,301.3509,797.98505,0.0,0.0,0.0,0.0,-0.041212757629099095,0.0,-0.13082933303684988,-0.04099163871905976,-0.07074655978389184,-0.08900744529185092,-0.36436834313035565,0.01079017124240699
4136,7.0,300.60643,802.86842,0.0,0.0,0.0,0.0,-0.04122272443868292,0.0,-0.07387394507179072,-0.06775254961990604,-0.1024254604036059,-0.10368874009828191,-0.3605588571268887,-0.02040989575104988
4137,7.0,299.48216,889.78567,0.0,0.0,0.0,0.0,-0.041232691248266735,0.0,-0.08413594247432102,-0.0990305517580545,-0.08730613149944431,-0.08932129951032591,-0.3828615456079926,-0.027639772626833176
4138,7.0,300.27631,1004.4095,0.0,0.0,0.0,0.0,-0.041242658057850566,0.0,-0.06199007369794394,-0.1021258626140379,-0.1411994817153039,-0.08359567549450082,-0.38429738179469863,-0.004235663859127476
4139,7.0,300.75835,769.14854,0.0,0.0,0.0,0.0,-0.04125262486743438,0.0,-0.04610263434347575,-0.09372455108564301,-0.09397476509183722,-0.07349548906669003,-0.3689449101220276,-0.026875032246359176
4140,7.0,299.32919,715.22848,0.0,0.0,0.0,0.0,-0.0412625916770182,0.0,-0.04887911693624325,-0.07237146438625744,-0.09616101734235351,-0.07883674780283123,-0.36922040269171663,-0.004283476496896216
4141,7.0,299.80523999999997,1124.6939,0.0,0.0,0.0,0.0,-0.04127255848660202,0.0,-0.14785065802172384,-0.08545756308325482,-0.1085706601400899,-0.091606412546599,-0.3890670438579276,-0.011802396946555887
4142,7.0,298.45324,992.33924,0.0,0.0,0.0,0.0,-0.04128252529618584,0.0,-0.09728063134510082,-0.09222199947260272,-0.1121437244977239,-0.1139045201240009,-0.3486324880173477,-0.0011137038162390089
4143,7.0,298.84218,561.43998,0.0,0.0,0.0,0.0,-0.04129249210576967,0.0,-0.08722193852213511,-0.023090308048835977,-0.06035148819272815,-0.0912006423585526,-0.3621679084181897,-0.03981320352150726
4144,7.0,299.42559,780.47142,0.0,0.0,0.0,0.0,-0.04130245891535349,0.0,-0.06626431725727894,-0.06462326043506923,-0.10635624257654389,-0.09532478912757422,-0.3399692199273497,0.005142393407914715
4145,7.0,299.46417,810.3412099999999,0.0,0.0,0.0,0.0,-0.041312425724937304,0.0,-0.07829969383907813,-0.06656826695602644,-0.1014555368778819,-0.11259881564763789,-0.37864043688390164,-0.012667348775169989
4146,7.0,300.02554,875.9664300000001,0.0,0.0,0.0,0.0,-0.04132239253452113,0.0,-0.07798813868508002,-0.08754833272384772,-0.1007354524558151,-0.09365896543317022,-0.35974751737431565,0.019424463419295282
4147,7.0,300.94142,1102.3631,0.0,0.0,0.0,0.0,-0.041332359344104945,0.0,-0.13192133293462185,-0.1153641879530589,-0.08780534057196242,-0.11082277060735589,-0.36236822796295964,-0.030371791778712468
4148,7.0,300.09682999999995,992.84197,0.0,0.0,0.0,0.0,-0.041342326153688776,0.0,-0.08117087377294152,-0.1094439601362779,-0.11118433877303988,-0.08562528231930741,-0.36560068829947867,-0.012952046722017488
4149,7.0,300.83147,857.1732300000001,0.0,0.0,0.0,0.0,-0.04135229296327259,0.0,-0.08055217211613043,-0.09265097815418961,-0.08735611006062682,-0.08944643995067632,-0.38971549352442464,-0.031331073138636166
4150,7.0,299.89234,966.9476400000001,0.0,0.0,0.0,0.0,-0.04136225977285641,0.0,-0.061136406435693534,-0.1121454672878959,-0.12064606820683989,-0.10414748908105691,-0.34608294811572765,-0.01803963424262328
4151,7.0,299.29118,865.98631,0.0,0.0,0.0,0.0,-0.04137222658244023,0.0,-0.08416500654018942,-0.07335850271942053,-0.10571470327572889,-0.08750580459065051,-0.35952143087950267,-0.009261343825123471
4152,7.0,300.12431000000004,459.70095999999995,0.0,0.0,0.0,0.0,-0.04138219339202405,0.0,-0.030170338407080572,-0.025783680828651175,-0.08378359488454701,-0.12115013986658787,-0.3721806027263656,0.013382547305254589
4153,7.0,300.26309,305.38599,0.0,0.0,0.0,0.0,-0.04139216020160788,0.0,-0.019316889695928582,-0.037407797433362165,-0.03610502834253886,-0.1013882976012459,-0.4051509807777886,-0.011819306064224688
4154,7.0,298.3664,809.9584,0.0,0.0,0.0,0.0,-0.0414021270111917,0.0,-0.08611603987274141,-0.05859993036761285,-0.10149116275139791,-0.1033233621122219,-0.37893556624052865,0.016992837458312485
4155,7.0,299.08113,1292.5181,0.0,0.0,0.0,0.0,-0.041412093820775514,0.0,-0.15796083712202086,-0.1098207979809689,-0.12511160325255388,-0.09510028431616731,-0.35657918563662566,-0.03525093146224607
4156,7.0,299.20766000000003,1047.2936,0.0,0.0,0.0,0.0,-0.04142206063035934,0.0,-0.09763728423454972,-0.11729349720346689,-0.1034203301467919,-0.08340542562922462,-0.35115328201363066,-0.03117988913096547
4157,7.0,299.63249,862.45599,0.0,0.0,0.0,0.0,-0.041432027439943155,0.0,-0.08742815518248712,-0.07718443579851073,-0.0975524934396815,-0.09555736244952741,-0.3549776425285657,-0.019295757351842982
4158,7.0,299.94538,944.0962699999999,0.0,0.0,0.0,0.0,-0.041441994249526985,0.0,-0.08385948934353722,-0.1025127417672199,-0.100609463925131,-0.07965905396123651,-0.3373117891550817,0.0059237652755301145
4159,7.0,299.33204,774.7189400000001,0.0,0.0,0.0,0.0,-0.0414519610591108,0.0,-0.06855513387836494,-0.07852337487815372,-0.08841670528479942,-0.10073689735045771,-0.36329743909966566,-0.0015516308134340385
4160,7.0,299.70147000000003,676.76707,0.0,0.0,0.0,0.0,-0.04146192786869462,0.0,-0.05947322023129985,-0.06181235773640474,-0.08443471345180742,-0.1058804709920889,-0.37418298757398566,-0.009440946255698851
4161,7.0,300.99202,373.88684,0.0,0.0,0.0,0.0,-0.04147189467827844,0.0,-0.02043977446999868,-0.036141384769376964,-0.057071103152979356,-0.1085655026970809,-0.4029998609479897,0.008191393566752601
4162,7.0,300.8644,247.08459,0.0,0.0,0.0,0.0,-0.04148186148786226,0.0,0.001965639636718528,-0.032622397569579964,-0.04445078640770105,-0.08032612716457152,-0.35854836627846864,-0.02235212090048258
4163,7.0,299.66367,998.4517099999999,0.0,0.0,0.0,0.0,-0.04149182829744609,0.0,-0.10530043597234391,-0.1031200838771599,-0.09508385953204632,-0.08758146397561752,-0.34617352254216666,-0.0008316114014936553
4164,7.0,298.51327000000003,1426.6696,0.0,0.0,0.0,0.0,-0.04150179510702991,0.0,-0.16597524011298084,-0.11598941392726389,-0.15170729055234386,-0.0960779642714068,-0.33676109785823266,-0.017076700116089086
4165,7.0,298.33825,1052.2834,0.0,0.0,0.0,0.0,-0.041511761916613724,0.0,-0.09185573590595532,-0.10677924409579088,-0.12123289200225489,-0.12405411465318789,-0.37920254750937765,-0.005760985836365034
4166,7.0,299.50887,897.6193,0.0,0.0,0.0,0.0,-0.04152172872619755,0.0,-0.08404063718316512,-0.08710575419941861,-0.10170746125024491,-0.08760574043476342,-0.36740341221489364,-0.010548969082602189
4167,7.0,299.73452000000003,1116.5612,0.0,0.0,0.0,0.0,-0.041531695535781364,0.0,-0.0968493525857869,-0.1037073231051159,-0.13885004857593286,-0.07123643986273923,-0.3538582848780937,0.01004893188077736
4168,7.0,299.99056,890.2923199999999,0.0,0.0,0.0,0.0,-0.041541662345365195,0.0,-0.07900069470876152,-0.08977339245319402,-0.10185254853206391,-0.0928107464167075,-0.3684350224067056,0.0024967391349339676
4169,7.0,301.02556,542.4807,0.0,0.0,0.0,0.0,-0.04155162915494901,0.0,-0.04873326667709895,-0.04121135592374416,-0.07495596445607773,-0.09732590133306859,-0.3954110939265366,0.007137518115918192
4170,7.0,300.63264,474.73804,0.0,0.0,0.0,0.0,-0.04156159596453283,0.0,-0.044294405440267456,-0.035356748209939365,-0.06465735528768414,-0.12783685085401486,-0.37895242672219265,0.025717765869895874
4171,7.0,300.29782,726.73694,0.0,0.0,0.0,0.0,-0.04157156277411665,0.0,-0.04353585601790446,-0.08725509003890693,-0.09011893708179661,-0.08722063041625602,-0.36101186098159666,-0.010665869773139389
4172,7.0,300.16208,1017.7262,0.0,0.0,0.0,0.0,-0.04158152958370047,0.0,-0.08604841961406783,-0.10389340648598089,-0.11942151493098589,-0.09604702265310311,-0.35476902446547665,-0.021307806578916778
4173,7.0,299.23592,1216.5763,0.0,0.0,0.0,0.0,-0.041591496393284286,0.0,-0.0999163917374801,-0.13093457932473687,-0.13895784825407187,-0.08626885116007273,-0.35611850134615963,-0.019849317159725082
4174,7.0,299.35471,1144.4282,0.0,0.0,0.0,0.0,-0.04160146320286811,0.0,-0.1052815996529849,-0.11761542702523888,-0.12498055961712087,-0.07966890883170913,-0.3472026604037347,-0.027099141890227076
4175,7.0,300.09749,720.67899,0.0,0.0,0.0,0.0,-0.04161143001245193,0.0,-0.09726350944491101,-0.06418007497383023,-0.05762483318687824,-0.07275753699235983,-0.3441833372257507,-0.026348956847439577
4176,7.0,300.17819,675.4060900000001,0.0,0.0,0.0,0.0,-0.04162139682203576,0.0,-0.06936843224338123,-0.045635457146368956,-0.09030269708018232,-0.09342878338145301,-0.36222601831142465,-0.014548646182839587
4177,7.0,300.64956,755.22729,0.0,0.0,0.0,0.0,-0.041631363631619574,0.0,-0.07734096267395872,-0.04368547759392096,-0.1085437988799389,-0.1164314037533849,-0.3860922226243356,0.0028076703295204872
4178,7.0,301.16322,556.35996,0.0,0.0,0.0,0.0,-0.04164133044120339,0.0,-0.024446005271882874,-0.04130960166669026,-0.10336393264622591,-0.1006504985276808,-0.38912862919900565,0.012472831100472589
4179,7.0,300.48097,616.61877,0.0,0.0,0.0,0.0,-0.041651297250787214,0.0,-0.03380892154268077,-0.054900151992223145,-0.0987276345611589,-0.08689600838896833,-0.36793969509532065,-0.004479820149598826
4180,7.0,300.54696,1094.7684,0.0,0.0,0.0,0.0,-0.04166126406037103,0.0,-0.1115994977365129,-0.1135561444746189,-0.10762659475691791,-0.07822891933284322,-0.3843492500673176,-0.019441544789481083
4181,7.0,300.84272999999996,987.81976,0.0,0.0,0.0,0.0,-0.041671230869954855,0.0,-0.1172260350118089,-0.1003954209210066,-0.08265108626102712,-0.096934233559914,-0.36820504503150864,-0.011131000205044188
4182,7.0,301.66673,996.8590300000001,0.0,0.0,0.0,0.0,-0.04168119767953867,0.0,-0.08268127706100672,-0.1154830320572879,-0.1048559434184759,-0.1012188679990245,-0.35856055567717166,-0.02327214287203168
4183,7.0,301.78761000000003,1240.2649,0.0,0.0,0.0,0.0,-0.0416911644891225,0.0,-0.12048529581347288,-0.11905098963441789,-0.13747327473755586,-0.09606758251088221,-0.34818153092784165,-0.01162382073568179
4184,7.0,300.95647,779.697,0.0,0.0,0.0,0.0,-0.04170113129870632,0.0,-0.05947318882054674,-0.07092480263548302,-0.1066104264966299,-0.08667536203394223,-0.35112171927301566,-0.033370223766134674
4185,7.0,300.02561000000003,451.87515,0.0,0.0,0.0,0.0,-0.041711098108290136,0.0,-0.037686708708888565,-0.05099210309852875,-0.04867995249658725,-0.1051201179845479,-0.38248898367872364,-0.017470375137691785
4186,7.0,299.55653,749.42595,0.0,0.0,0.0,0.0,-0.04172106491787396,0.0,-0.09520761789926031,-0.03804925162116876,-0.09454990611359922,-0.07833507653257013,-0.38775441888338164,-0.005032233566317785
4187,7.0,299.37972,874.85645,0.0,0.0,0.0,0.0,-0.041731031727457776,0.0,-0.13834616943370387,-0.04093781183399746,-0.08665053740649223,-0.11498282088042087,-0.36222083047091264,0.0008476293150370001
4188,7.0,299.98986,708.64603,0.0,0.0,0.0,0.0,-0.04174099853704161,0.0,-0.05958882902795954,-0.07902102962501842,-0.07680084058890282,-0.09356570488071611,-0.35916462498928864,-0.023021039232249678
4189,7.0,299.87309,855.7067599999999,0.0,0.0,0.0,0.0,-0.041750965346625424,0.0,-0.07300311943234693,-0.06589503015233314,-0.12121534251052289,-0.1109646154888549,-0.35095189855625564,-0.008792109831638681
4190,7.0,299.22209,1130.2571,0.0,0.0,0.0,0.0,-0.04176093215620924,0.0,-0.06558114756285534,-0.1155865558200049,-0.16240221628535084,-0.08710767532160824,-0.3486365207527457,-0.003667162563945767
4191,7.0,300.18905,1118.2882,0.0,0.0,0.0,0.0,-0.041770898965793064,0.0,-0.09365502996978183,-0.1028612694041169,-0.14341538875649687,-0.07868896122274582,-0.3418739375978307,0.003225173751074867
4192,7.0,300.47562,953.86295,0.0,0.0,0.0,0.0,-0.04178086577537688,0.0,-0.1024103325796129,-0.07984997459807892,-0.1076902065981959,-0.07625484266651703,-0.3823001239925846,-0.019750055126928682
4193,7.0,300.46019,752.79171,0.0,0.0,0.0,0.0,-0.04179083258496071,0.0,-0.08683829771627272,-0.06890140804703954,-0.07309017484118864,-0.07839818985479893,-0.3764377831540166,0.0008468102137886612
4194,7.0,301.1084,514.36329,0.0,0.0,0.0,0.0,-0.04180079939454453,0.0,-0.039182443175256064,-0.04764036397348786,-0.06953078834665453,-0.09680102562226742,-0.39993908570841463,-0.02047994173046288
4195,7.0,299.7445,649.5567900000001,0.0,0.0,0.0,0.0,-0.041810766204128345,0.0,-0.06581186055762495,-0.04493625378236296,-0.08670093140021573,-0.09490944879233332,-0.3443010160923647,0.0046164453745326855
4196,7.0,299.58251,1087.3068,0.0,0.0,0.0,0.0,-0.04182073301371217,0.0,-0.1197409724225139,-0.09827594286533041,-0.1124972069276099,-0.1019900060406299,-0.36187375178165865,-0.03555009152777086
4197,7.0,300.53108,893.34996,0.0,0.0,0.0,0.0,-0.041830699823295986,0.0,-0.1021150411029699,-0.06729423329492373,-0.1021468064936049,-0.10440333473130689,-0.3502821605051577,0.0029500817191503974
4198,7.0,299.92217999999997,490.57767,0.0,0.0,0.0,0.0,-0.04184066663287982,0.0,-0.047791990771452256,-0.06021663473691914,-0.04111473543395846,-0.10448165896403691,-0.3743381060317947,-0.039611570804607664
4199,7.0,299.70947,924.32157,0.0,0.0,0.0,0.0,-0.04185063344246363,0.0,-0.10101710761261232,-0.07990861847411662,-0.10004494987041782,-0.09875530034188931,-0.36397839382937064,-0.01048317368735869
4200,7.0,299.8394,1195.3361,0.0,0.0,0.0,0.0,-0.04186060025204745,0.0,-0.1265822749776979,-0.10207864515937791,-0.13469139658800588,-0.09002044815882651,-0.38188790345440166,-0.018502424066797085
4201,7.0,299.02445,786.45328,0.0,0.0,0.0,0.0,-0.041870567061631274,0.0,-0.05867549653357065,-0.08511344916379342,-0.09527321165773392,-0.07714210423583293,-0.39331788133995266,-0.0061875227878609535
4202,7.0,299.54823999999996,683.0086,0.0,0.0,0.0,0.0,-0.04188053387121509,0.0,-0.02395233259791118,-0.07945674540652022,-0.10420848673707689,-0.08400929431782182,-0.37290463071782165,-7.912058347384362e-05
4203,7.0,300.62332999999995,866.83242,0.0,0.0,0.0,0.0,-0.04189050068079892,0.0,-0.09854689404807122,-0.06685149163722853,-0.0980970251891726,-0.07738274404183222,-0.34708215456934166,0.013706866370762388
4204,7.0,300.53645,857.02541,0.0,0.0,0.0,0.0,-0.04190046749038274,0.0,-0.091623982303333,-0.07209058740553703,-0.0967997560198921,-0.08236393118268713,-0.36678806542916365,0.009882745084176
4205,7.0,300.35076000000004,1086.0531,0.0,0.0,0.0,0.0,-0.041910434299966555,0.0,-0.11602970075123989,-0.07834865408391013,-0.13575466071294187,-0.07176808307095833,-0.36814707699328764,0.015435066754572483
4206,7.0,299.99801,1014.2997,0.0,0.0,0.0,0.0,-0.04192040110955038,0.0,-0.08580200022949812,-0.08527849139308182,-0.13724129112716088,-0.12352586684605388,-0.3694832397676566,0.0038385471309101064
4207,7.0,300.70791,844.1251300000001,0.0,0.0,0.0,0.0,-0.041930367919134195,0.0,-0.07754134909323533,-0.0882227540169079,-0.09082885860536041,-0.08295883666089972,-0.35437636978672465,-0.017767365834752483
4208,7.0,301.21331000000004,1008.0127,0.0,0.0,0.0,0.0,-0.041940334728718026,0.0,-0.08794882995837372,-0.099424802305714,-0.11903705744554288,-0.1287268188143479,-0.36307223413243966,-0.03982612448678246
4209,7.0,300.37417999999997,1040.5823,0.0,0.0,0.0,0.0,-0.04195030153830184,0.0,-0.12512035773341787,-0.09502164597590632,-0.09616904126989541,-0.08644283633474373,-0.35792667654711263,-0.01901769923290078
4210,7.0,298.97649,595.33222,0.0,0.0,0.0,0.0,-0.04196026834788566,0.0,-0.038401284090161664,-0.0911101885088755,-0.05145465683542925,-0.11392210001323588,-0.3868459388437216,-0.03494271902032786
4211,7.0,299.56022,571.43886,0.0,0.0,0.0,0.0,-0.04197023515746948,0.0,-0.041596981686552466,-0.05437117768476745,-0.07773498422709563,-0.08294308670134533,-0.35995953995774066,-0.0059377635283116344
4212,7.0,300.56726000000003,1102.5649,0.0,0.0,0.0,0.0,-0.0419802019670533,0.0,-0.08630140384603542,-0.11986910803015989,-0.12898167147949988,-0.07122617969222664,-0.4029989287578976,-0.002177758985528078
4213,7.0,300.47299,986.056,0.0,0.0,0.0,0.0,-0.04199016877663713,0.0,-0.08439578640946561,-0.08059911295351313,-0.1347415018054509,-0.07061779900093414,-0.37627958441590365,0.022119491849773878
4214,7.0,300.43146,787.99866,0.0,0.0,0.0,0.0,-0.04200013558622095,0.0,-0.029265585101288374,-0.10658661511927991,-0.1036797120398909,-0.07557014195119233,-0.3758764122011136,-0.017039238233391884
4215,7.0,300.09368,925.65582,0.0,0.0,0.0,0.0,-0.042010102395804765,0.0,-0.0966141843303276,-0.0915882297735545,-0.09317384155029222,-0.12109599178124388,-0.3490105417621587,-0.01067445605448679
4216,7.0,300.63265,993.3131699999999,0.0,0.0,0.0,0.0,-0.04202006920538859,0.0,-0.0860131797888399,-0.0950607655357671,-0.12086845633878789,-0.10769864697152891,-0.33402297184800067,-0.015230796547662585
4217,7.0,301.78044,764.08632,0.0,0.0,0.0,0.0,-0.042030036014972405,0.0,-0.07736077475316402,-0.07411984567230924,-0.08078253959261593,-0.12228227460082089,-0.36356682177125166,-0.034820581853273865
4218,7.0,300.70572000000004,661.74043,0.0,0.0,0.0,0.0,-0.042040002824556236,0.0,-0.05245921628932154,-0.07679140317747143,-0.07190194759466974,-0.09595932484369801,-0.3698220706010966,-0.028997400091320576
4219,7.0,299.60348,755.6757,0.0,0.0,0.0,0.0,-0.04204996963414005,0.0,-0.06466309028325014,-0.06911703172131993,-0.09592642258645082,-0.09639334545778251,-0.3912445689853326,-0.03719057282392376
4220,7.0,300.58033,815.18846,0.0,0.0,0.0,0.0,-0.04205993644372387,0.0,-0.07438468594369693,-0.07591567543404383,-0.09749657621966291,-0.07237061832242393,-0.39428729824062664,-0.04202535444457956
4221,7.0,299.72742999999997,1045.1676,0.0,0.0,0.0,0.0,-0.04206990325330769,0.0,-0.13445819707749088,-0.10027664673103451,-0.08297002294200372,-0.08049119168536212,-0.3700267572537977,-0.015102392428740086
4222,7.0,299.83284,1115.6701,0.0,0.0,0.0,0.0,-0.04207987006289151,0.0,-0.1040175498882329,-0.10794713642605289,-0.12717118606831887,-0.08357310940152372,-0.35392421706210064,0.01066507133206059
4223,7.0,299.56647999999996,907.3615699999999,0.0,0.0,0.0,0.0,-0.04208983687247534,0.0,-0.08232618558996192,-0.09348112484186871,-0.10000795002976622,-0.0983195349111326,-0.3449204057459937,0.00843825523499095
4224,7.0,299.98711000000003,895.72466,0.0,0.0,0.0,0.0,-0.04209980368205916,0.0,-0.07543942052929113,-0.07093607402959544,-0.1259024348231029,-0.13892663001849087,-0.38106832597851564,0.0072696035751040125
4225,7.0,300.57779,1151.6643,0.0,0.0,0.0,0.0,-0.042109770491642974,0.0,-0.09760050933542032,-0.10787878257430689,-0.14459790228570188,-0.10815588621165491,-0.37487185578697163,0.017956848669702985
4226,7.0,301.01137,806.14624,0.0,0.0,0.0,0.0,-0.0421197373012268,0.0,-0.07963497204610984,-0.07322476383872152,-0.09218859059030551,-0.0997810245638704,-0.3874910853148926,-0.016538887228011084
4227,7.0,301.08704,520.94263,0.0,0.0,0.0,0.0,-0.042129704110810615,0.0,-0.06165066125894654,-0.04995046882347746,-0.04675242150010476,-0.08564276898953323,-0.36418924104267963,-0.025391957326741075
4228,7.0,301.10819,739.50726,0.0,0.0,0.0,0.0,-0.04213967092039443,0.0,-0.08302816323274172,-0.06257329842900375,-0.07919028089522223,-0.1092179141714689,-0.3660653141328336,-0.06998194808618054
4229,7.0,300.05211,807.98156,0.0,0.0,0.0,0.0,-0.042149637729978255,0.0,-0.10439168235515689,-0.04399381365235136,-0.0972207249594385,-0.0969474503942184,-0.3581866765227727,-0.012795795450596687
4230,7.0,300.40559,794.24223,0.0,0.0,0.0,0.0,-0.04215960453956207,0.0,-0.054284268183940144,-0.09301577048169181,-0.09412976702588471,-0.0899074413884236,-0.3545877641550877,-0.05072687981860325
4231,7.0,299.77823,817.20457,0.0,0.0,0.0,0.0,-0.0421695713491459,0.0,-0.04489316633511055,-0.09452762778365051,-0.1089889905763759,-0.1072256314273459,-0.36865258746817764,-0.02015786802717668
4232,7.0,299.97865,843.5877300000001,0.0,0.0,0.0,0.0,-0.04217953815872972,0.0,-0.08682236739820051,-0.07955228374519913,-0.09005495540423211,-0.11457188716986488,-0.3937091073360636,-0.013489491800309188
4233,7.0,300.10688,848.91657,0.0,0.0,0.0,0.0,-0.042189504968313536,0.0,-0.08837183857037141,-0.08863511539685481,-0.08104248485277052,-0.1119908250576339,-0.4061455566784456,0.003507725330235536
4234,7.0,298.89611,912.1636199999999,0.0,0.0,0.0,0.0,-0.04219947177789736,0.0,-0.08256703311223171,-0.08050607531608102,-0.11420185836584588,-0.11328552563791089,-0.37401398758980664,0.002096982991531108
4235,7.0,299.5615,1079.5016,0.0,0.0,0.0,0.0,-0.04220943858748118,0.0,-0.09385826159533922,-0.09950269084090099,-0.13478057272930685,-0.06483653944861824,-0.36804246905296367,0.02401570125916518
4236,7.0,300.71405,816.7981900000001,0.0,0.0,0.0,0.0,-0.042219405397065,0.0,-0.06460801304756443,-0.061894464431758035,-0.12178377581662288,-0.09165118604201782,-0.3531186224375947,-0.015676149350865483
4237,7.0,300.78087999999997,728.4218,0.0,0.0,0.0,0.0,-0.04222937220664882,0.0,-0.06934863130992702,-0.05236656470017754,-0.09970684351079931,-0.07506306499164772,-0.3639712402836647,-0.030241492882102972
4238,7.0,300.56304,886.2806099999999,0.0,0.0,0.0,0.0,-0.04223933901623264,0.0,-0.13558143547584586,-0.06203437096581574,-0.07179137161125673,-0.09788285552878571,-0.3655193141839477,-0.032312500092745465
4239,7.0,300.01239,822.1292,0.0,0.0,0.0,0.0,-0.042249305825816465,0.0,-0.10643981544479189,-0.06809474647017823,-0.07537218327915533,-0.07787102926502223,-0.37431244040676165,-0.047622405128715455
4240,7.0,300.4383,725.53012,0.0,0.0,0.0,0.0,-0.04225927263540028,0.0,-0.06943251625920584,-0.07581648128900412,-0.07529404143144333,-0.12306601342066989,-0.40193369892776765,-0.03608275710534086
4241,7.0,301.16067999999996,804.38458,0.0,0.0,0.0,0.0,-0.042269239444984105,0.0,-0.07663052641934413,-0.06597702539017544,-0.1019052780672679,-0.1068992331726329,-0.39239629997649966,0.004794048054710706
4242,7.0,299.81077,759.32241,0.0,0.0,0.0,0.0,-0.04227920625456792,0.0,-0.02007871799561518,-0.07652259400544202,-0.13421374035836486,-0.097781533558536,-0.36523235162312667,-0.013416459772851486
4243,7.0,299.35954,831.5531599999999,0.0,0.0,0.0,0.0,-0.042289173064151746,0.0,-0.025957403571546273,-0.10804415512312789,-0.11876983299666988,-0.07526759053758283,-0.35917013706983264,-0.0013832116242123585
4244,7.0,298.91013,1214.8085,0.0,0.0,0.0,0.0,-0.04229913987373557,0.0,-0.1163875198915539,-0.1120297439939749,-0.14085418634622585,-0.06451088187972835,-0.36556215439817563,0.007662253592905554
4245,7.0,299.34837000000005,1216.3794,0.0,0.0,0.0,0.0,-0.042309106683319386,0.0,-0.13293092520176086,-0.1161396282545889,-0.12067841115003189,-0.08280949575516093,-0.38419305756440264,-0.006599521525597063
4246,7.0,300.73408,864.57287,0.0,0.0,0.0,0.0,-0.04231907349290321,0.0,-0.07151652346863134,-0.0959643921074481,-0.0953276495326065,-0.09521067994106251,-0.3680990590710486,-0.03055959464499717
4247,7.0,299.74816,811.53838,0.0,0.0,0.0,0.0,-0.04232904030248703,0.0,-0.08507339538734042,-0.07888732012857233,-0.08272668789073842,-0.1195776061088909,-0.38260239676241664,-0.023043013587168377
4248,7.0,300.2802,1010.7202,0.0,0.0,0.0,0.0,-0.04233900711207085,0.0,-0.06322028800210665,-0.11617436246801689,-0.12783906987173388,-0.08441411205077422,-0.36865730921364365,-0.03688450543246726
4249,7.0,300.3611,789.90393,0.0,0.0,0.0,0.0,-0.042348973921654674,0.0,-0.08355460745469771,-0.06597130660661103,-0.09058515675755892,-0.09571101574769181,-0.36389555050119465,-0.01778100114134818
4250,7.0,300.90976,716.6813599999999,0.0,0.0,0.0,0.0,-0.04235894073123849,0.0,-0.09210644843119872,-0.05110302763997615,-0.07464376284851583,-0.08552225302263923,-0.35038469128277666,-0.03430742134012887
4251,7.0,300.4163,911.58009,0.0,0.0,0.0,0.0,-0.042368907540822315,0.0,-0.08340306880949201,-0.07374050509987122,-0.1199540082560389,-0.09799420259552481,-0.3777719092956846,-0.014035957844241186
4252,7.0,299.87243,878.39266,0.0,0.0,0.0,0.0,-0.04237887435040613,0.0,-0.07944352553246553,-0.08083072064812101,-0.1067351879814429,-0.10127396853946251,-0.38840100416969464,-0.02078239688531288
4253,7.0,299.33283,1001.5744,0.0,0.0,0.0,0.0,-0.04238884115998996,0.0,-0.06840464293376264,-0.09431292414046091,-0.14173602804075688,-0.07531343909135772,-0.38060752009803767,0.016790534983096784
4254,7.0,300.13293,1168.3945,0.0,0.0,0.0,0.0,-0.04239880796957378,0.0,-0.07690718929289862,-0.1134188085560649,-0.16483676243312184,-0.07744446617167372,-0.35239237542841967,0.023487459531531776
4255,7.0,299.66744,809.6194,0.0,0.0,0.0,0.0,-0.042408774779157596,0.0,-0.060706600942025034,-0.08116965584632133,-0.1042278296814859,-0.08420696421358032,-0.3782584010661976,0.003530355865918997
4256,7.0,299.6004,720.91129,0.0,0.0,0.0,0.0,-0.04241874158874142,0.0,-0.08982094225388682,-0.08011394347438063,-0.04920414629007115,-0.10173036070250491,-0.38631756944657564,-0.0008070007015372683
4257,7.0,301.08636,1131.3352,0.0,0.0,0.0,0.0,-0.042428708398325236,0.0,-0.13710361070357285,-0.0974255038178986,-0.10936854393133488,-0.087417211068157,-0.3882624928810246,-0.023688223893095682
4258,7.0,300.59167,1061.3847,0.0,0.0,0.0,0.0,-0.04243867520790907,0.0,-0.13571272229130288,-0.0990137074883921,-0.08790800813834491,-0.08832556850455492,-0.37229733927038666,-0.031745472164534175
4259,7.0,301.09636,616.6324900000001,0.0,0.0,0.0,0.0,-0.042448642017492884,0.0,-0.05119363854341875,-0.05236278629055465,-0.08388445582600122,-0.0897349000951451,-0.3793003768065326,-0.05606017846195885
4260,7.0,300.71573,723.13417,0.0,0.0,0.0,0.0,-0.0424586088270767,0.0,-0.04301655318265326,-0.0861090707385536,-0.090689107098568,-0.0988107089103577,-0.3474508762807316,-0.033977105860529266
4261,7.0,300.24613999999997,862.0481,0.0,0.0,0.0,0.0,-0.042468575636660524,0.0,-0.08903100031692561,-0.06461338631284474,-0.1083967154954229,-0.09196684587217101,-0.3507696553932697,-0.011888036845007888
4262,7.0,299.58197,739.4901,0.0,0.0,0.0,0.0,-0.04247854244624434,0.0,-0.07099248672891294,-0.06715473814040664,-0.08663930046288322,-0.12858383909273688,-0.33717373382895666,-0.015441650853722287
4263,7.0,299.05251,803.22923,0.0,0.0,0.0,0.0,-0.04248850925582817,0.0,-0.054706350685346454,-0.08131946487360632,-0.1081358137271739,-0.1115818570522719,-0.38427449247493967,-0.0008046686659021143
4264,7.0,299.42543,793.59592,0.0,0.0,0.0,0.0,-0.04249847606541199,0.0,-0.059055762203349946,-0.08152561871245213,-0.10065196166082521,-0.12105928173012087,-0.3957941328618396,-0.0007690804042298264
4265,7.0,299.59219,832.57958,0.0,0.0,0.0,0.0,-0.042508442874995805,0.0,-0.04746040264972705,-0.1014127169286559,-0.10421028018975391,-0.08797223198268332,-0.39900558852378565,0.006471710968583144
4266,7.0,300.15085,965.7900300000001,0.0,0.0,0.0,0.0,-0.04251840968457963,0.0,-0.08895570367549441,-0.08768183045102292,-0.11693852529593389,-0.07828186165056822,-0.3741274412035036,-0.009729247623876981
4267,7.0,300.08602,1087.6491,0.0,0.0,0.0,0.0,-0.042528376494163446,0.0,-0.12703615022749187,-0.0976025094911177,-0.1059795060568629,-0.07998827411747801,-0.3628972357076687,-0.009224487764661062
4268,7.0,300.31776,888.4184,0.0,0.0,0.0,0.0,-0.04253834330374728,0.0,-0.1030848835686859,-0.07395810562509673,-0.0930140236385194,-0.1092315829153179,-0.36655990177164566,-0.04170703787266416
4269,7.0,300.28615,792.67651,0.0,0.0,0.0,0.0,-0.04254831011333109,0.0,-0.08555278832765281,-0.06923222407218854,-0.08616885249445361,-0.1075078317126969,-0.3715226487739306,-0.04052397516190496
4270,7.0,300.62781,1019.2547,0.0,0.0,0.0,0.0,-0.04255827692291491,0.0,-0.11776266239726987,-0.08690171501353151,-0.10516360667883991,-0.1138245037636039,-0.35864431093043764,-0.028631517506710773
4271,7.0,300.4552,849.86989,0.0,0.0,0.0,0.0,-0.042568243732498734,0.0,-0.06507299757145484,-0.06630339223413534,-0.1269628314502559,-0.100657745292396,-0.37944041810285367,-0.03436338922265247
4272,7.0,300.44689,680.01603,0.0,0.0,0.0,0.0,-0.04257821054208255,0.0,-0.04752703194980286,-0.07272389404928953,-0.08645696509413811,-0.10719560882688291,-0.3851001494514256,0.0023168124643265877
4273,7.0,300.67929,907.07653,0.0,0.0,0.0,0.0,-0.04258817735166638,0.0,-0.08672956787454192,-0.09144535846970422,-0.09755368704829931,-0.10535575942780391,-0.3755941612532577,0.0025678181228239176
4274,7.0,300.10264,999.55166,0.0,0.0,0.0,0.0,-0.0425981441612502,0.0,-0.10332877286775591,-0.0991923617195239,-0.1013176092212695,-0.07626565809808443,-0.33905960504757765,0.016994279313204786
4275,7.0,299.92819,942.70601,0.0,0.0,0.0,0.0,-0.042608110970834015,0.0,-0.08084603794988272,-0.1036908881884939,-0.1020221564663029,-0.1040883051427159,-0.36458432752167164,-0.025705427523428175
4276,7.0,299.44639,1206.4575,0.0,0.0,0.0,0.0,-0.04261807778041784,0.0,-0.12410122065033688,-0.1135749402639739,-0.12905680397441488,-0.09206014594137901,-0.38020547259085863,-0.0027963651941797572
4277,7.0,299.04975,1124.8581,0.0,0.0,0.0,0.0,-0.042628044590001656,0.0,-0.08404270218686892,-0.09484216391944282,-0.16304389744117984,-0.0898646102934465,-0.37082279692986064,-0.02171270233212688
4278,7.0,299.47688,610.97875,0.0,0.0,0.0,0.0,-0.042638011399585486,0.0,-0.05431588057381005,-0.05109539077397245,-0.08031101251282984,-0.07670304472900114,-0.3685058384561946,-0.03009567504696187
4279,7.0,299.75709,612.9109900000001,0.0,0.0,0.0,0.0,-0.0426479782091693,0.0,-0.038528186572435966,-0.050221671292243045,-0.0975597787079005,-0.1021810746119869,-0.3897461646049516,-0.029852594321471675
4280,7.0,300.52414,700.68498,0.0,0.0,0.0,0.0,-0.04265794501875312,0.0,-0.06552435286825013,-0.06410908768507434,-0.08335729726272471,-0.11821126874654388,-0.3929451775556696,-0.02669871659645818
4281,7.0,300.95127,631.91171,0.0,0.0,0.0,0.0,-0.042667911828336944,0.0,-0.060917299207569345,-0.06222964655158794,-0.06893843524544384,-0.10481055994649689,-0.3802752551252457,-0.016759075593991986
4282,7.0,300.38282999999996,738.90811,0.0,0.0,0.0,0.0,-0.04267787863792076,0.0,-0.06792338865301653,-0.05874700665937815,-0.0979392206053485,-0.08903578893689823,-0.38298634762280964,-0.017374261272956087
4283,7.0,299.92007,959.30787,0.0,0.0,0.0,0.0,-0.04268784544750458,0.0,-0.058428121654156645,-0.0941131892409986,-0.13906433070708088,-0.0991980278140831,-0.38067782952247664,-0.002266491019310248
4284,7.0,300.23226,961.2937300000001,0.0,0.0,0.0,0.0,-0.0426978122570884,0.0,-0.0946916587893391,-0.08060924748101332,-0.1169083811054589,-0.09546286471870122,-0.3925552485196866,-0.0014537976659286585
4285,7.0,299.09675,912.3797800000001,0.0,0.0,0.0,0.0,-0.04270777906667222,0.0,-0.061426925504365536,-0.0953452000375886,-0.12056854444168888,-0.09934676380951221,-0.3539588398180177,0.0025142993671170275
4286,7.0,299.68062000000003,970.05179,0.0,0.0,0.0,0.0,-0.042717745876256034,0.0,-0.0996018515486874,-0.1058935419183789,-0.08937612951298722,-0.0934642684132051,-0.3405884474609627,0.004047787228235496
4287,7.0,299.24976000000004,671.60194,0.0,0.0,0.0,0.0,-0.042727712685839865,0.0,-0.07091609577737373,-0.06262297402840634,-0.07061115106702803,-0.12303487624509689,-0.35652070084085363,-0.028909044682600575
4288,7.0,299.15382,561.60049,0.0,0.0,0.0,0.0,-0.04273767949542368,0.0,-0.04659597973766516,-0.06755626787678452,-0.05656027615481464,-0.11811498972204187,-0.38354099059504865,-0.013823348589008286
4289,7.0,299.9562,780.51067,0.0,0.0,0.0,0.0,-0.042747646305007506,0.0,-0.04611500410069655,-0.06815365987074253,-0.12298709137038089,-0.07632501023594201,-0.3824740078422456,-0.03008087855575157
4290,7.0,300.28077,871.15906,0.0,0.0,0.0,0.0,-0.04275761311459132,0.0,-0.1059951607709079,-0.051667391733674545,-0.1071480468671889,-0.05753664192467444,-0.37584776762078664,-0.003043000502345767
4291,7.0,300.13621,825.38372,0.0,0.0,0.0,0.0,-0.04276757992417514,0.0,-0.053708994426415045,-0.0886487567829511,-0.1085382867993949,-0.06282240191308835,-0.3956475561023736,-0.05841663241127275
4292,7.0,300.09506,994.34229,0.0,0.0,0.0,0.0,-0.04277754673375896,0.0,-0.1130003362647649,-0.07518982561890802,-0.11406506960234589,-0.096631991187585,-0.40012021429629063,-0.0046510079433937455
4293,7.0,300.13507000000004,1025.1747,0.0,0.0,0.0,0.0,-0.04278751354334279,0.0,-0.09622173635459601,-0.0980403034485746,-0.1173654683580699,-0.0972435038349366,-0.35708561816910667,-0.017095771509471284
4294,7.0,300.31858,867.9140800000001,0.0,0.0,0.0,0.0,-0.04279748035292661,0.0,-0.06985807724820543,-0.09064370032183672,-0.10332242992212991,-0.1041836621096269,-0.37230180770332766,0.014386467398333788
4295,7.0,299.6607,883.2297900000001,0.0,0.0,0.0,0.0,-0.04280744716251043,0.0,-0.07047147454074303,-0.1065042480186509,-0.09150407732624932,-0.10102693107233181,-0.36873257343107163,-0.0058798293326439745
4296,7.0,299.81646,924.19878,0.0,0.0,0.0,0.0,-0.04281741397209425,0.0,-0.11046952122499289,-0.08389247468729262,-0.0865713549509275,-0.1031760862101869,-0.38698732776267564,-0.01039090612000259
4297,7.0,300.36547,765.1278,0.0,0.0,0.0,0.0,-0.04282738078167807,0.0,-0.06407169976963444,-0.093592301682591,-0.07491574653310853,-0.09012307418195492,-0.35733148330587167,-0.014090377480611987
4298,7.0,300.16728,728.0082,0.0,0.0,0.0,0.0,-0.04283734759126189,0.0,-0.09348457597170931,-0.07224543329906913,-0.05556630415121724,-0.09680548797570782,-0.3828055331424647,-0.035799035931589764
4299,7.0,299.67172999999997,903.14894,0.0,0.0,0.0,0.0,-0.042847314400845715,0.0,-0.08650276298540802,-0.08419426312357683,-0.1038376979954829,-0.08016375180954634,-0.38021660820945763,-0.02343202867156118
4300,7.0,299.12106,810.26191,0.0,0.0,0.0,0.0,-0.04285728121042953,0.0,-0.06016122312870044,-0.07186223224375013,-0.11427592694815589,-0.10270931228661989,-0.38768313673884663,-0.04546673884571775
4301,7.0,298.90071,782.7047,0.0,0.0,0.0,0.0,-0.042867248020013356,0.0,-0.06383395785892114,-0.08448447213771822,-0.08960425365375131,-0.09370250782971751,-0.37021882894275365,-0.016707976378198885
4302,7.0,298.93228999999997,1028.5857,0.0,0.0,0.0,0.0,-0.04287721482959717,0.0,-0.1123141835620469,-0.09091206467707222,-0.1094381339482029,-0.07669375018583383,-0.3772366700628606,-0.02095163093026498
4303,7.0,298.87837,881.0268599999999,0.0,0.0,0.0,0.0,-0.042887181639180996,0.0,-0.08353773076103212,-0.07685537472253492,-0.10741705463623791,-0.1025575882166459,-0.38956719423978864,-0.017830152890449084
4304,7.0,299.89004,672.12133,0.0,0.0,0.0,0.0,-0.04289714844876482,0.0,-0.06046377656881015,-0.0892217436350005,-0.05462257922007885,-0.09373923510609222,-0.4189015648373656,-0.003402000383001297
4305,7.0,300.44196,867.35421,0.0,0.0,0.0,0.0,-0.04290711525834864,0.0,-0.053866768612736156,-0.07583913046848942,-0.13394812697715086,-0.11044925622299288,-0.38261540689370066,0.006927400847981233
4306,7.0,300.68314,1034.9483,0.0,0.0,0.0,0.0,-0.04291708206793246,0.0,-0.1025902959298739,-0.09211186627948341,-0.1198962732653409,-0.09545543354246781,-0.3618527065770817,0.013204819184714186
4307,7.0,300.80662,955.94529,0.0,0.0,0.0,0.0,-0.04292704887751628,0.0,-0.0913820191927031,-0.08213002442360233,-0.11707145357655288,-0.09422742001752232,-0.37198289736685364,-0.030293900203775172
4308,7.0,300.02907000000005,1010.6612,0.0,0.0,0.0,0.0,-0.0429370156871001,0.0,-0.1146018591078229,-0.07957010782770822,-0.1130438046940549,-0.1009494549299355,-0.3665151769122316,-0.022692818140606776
4309,7.0,300.61656,1073.8354,0.0,0.0,0.0,0.0,-0.042946982496683925,0.0,-0.11760292351900488,-0.09074144855898372,-0.11807477382557288,-0.1033019217401059,-0.37676902474420765,-0.04419903124810475
4310,7.0,301.9898,901.88986,0.0,0.0,0.0,0.0,-0.04295694930626774,0.0,-0.12329288011805989,-0.056025381427024644,-0.09483373975811141,-0.1069085449410519,-0.38166600168250164,-0.02060137874169778
4311,7.0,301.75031,905.6246199999999,0.0,0.0,0.0,0.0,-0.042966916115851565,0.0,-0.05799336542049954,-0.08939084190443923,-0.12790306674804988,-0.1192266365392529,-0.38240729545566166,-0.034139362665292765
4312,7.0,301.19719,844.12373,0.0,0.0,0.0,0.0,-0.04297688292543538,0.0,-0.08624024103024912,-0.06902231816822244,-0.1013299749254899,-0.10482067218249488,-0.3830641652304897,-0.0034013416691112868
4313,7.0,299.94601,778.13292,0.0,0.0,0.0,0.0,-0.042986849735019206,0.0,-0.055403411025390946,-0.06280937455655264,-0.11832019313229389,-0.07838281175803122,-0.34202872168310666,0.013310724085166186
4314,7.0,300.25054,813.38951,0.0,0.0,0.0,0.0,-0.04299681654460303,0.0,-0.07355444198400823,-0.08880148599702432,-0.08489417170965241,-0.07623464656552383,-0.35689328303512463,-0.008298830298705782
4315,7.0,300.24887,1198.3012,0.0,0.0,0.0,0.0,-0.043006783354186846,0.0,-0.12762173785778486,-0.10710433525787488,-0.1295275599708749,-0.0951815834511909,-0.37723588986028367,0.00886933580258529
4316,7.0,301.19457,1090.2369,0.0,0.0,0.0,0.0,-0.04301675016377067,0.0,-0.11805999050661388,-0.10010549257714291,-0.1132393011683489,-0.11786807080517289,-0.4138062745894996,-0.03174564137730087
4317,7.0,300.27496,641.88913,0.0,0.0,0.0,0.0,-0.04302671697335449,0.0,-0.013742206507750187,-0.06765606490563374,-0.11371999714828988,-0.09732958753693241,-0.39115707483919765,-0.008476196182335432
4318,7.0,299.3952,871.3575599999999,0.0,0.0,0.0,0.0,-0.04303668378293831,0.0,-0.07983198231605322,-0.06950546823990564,-0.11553349191226787,-0.1119993059609709,-0.3741996352731286,-0.024260675749092277
4319,7.0,299.56219,1157.3941,0.0,0.0,0.0,0.0,-0.043046650592522134,0.0,-0.1004082263757704,-0.08459834827670693,-0.16681232655059486,-0.11372027072581689,-0.35386848830660067,-0.015328903475344987
4320,7.0,300.5632,783.30442,0.0,0.0,0.0,0.0,-0.04305661740210595,0.0,-0.07301287703080993,-0.07725926127864542,-0.08783284524592692,-0.1116078671823389,-0.36456952393771064,-0.05008933373643236
4321,7.0,300.22283999999996,582.1885599999999,0.0,0.0,0.0,0.0,-0.043066584211689775,0.0,-0.06810478777866924,-0.045144456412910955,-0.06372154181332654,-0.09148697366456132,-0.3367833386979277,0.00033611833252479665
4322,7.0,300.9366,945.97425,0.0,0.0,0.0,0.0,-0.04307655102127359,0.0,-0.1005949866077022,-0.0981079905817548,-0.0888495728202701,-0.08408960046774742,-0.36191025918276165,-0.003796808420865816
4323,7.0,300.76102000000003,978.2208199999999,0.0,0.0,0.0,0.0,-0.04308651783085742,0.0,-0.07883869020327293,-0.09173948065573181,-0.12677653528686986,-0.08342208042111833,-0.37928804555281564,-0.018959689651425683
4324,7.0,300.13616,867.65704,0.0,0.0,0.0,0.0,-0.04309648464044124,0.0,-0.08089331417304851,-0.08264786919195963,-0.1002048924119529,-0.0927011137691376,-0.3960949566840286,0.018544881272487282
4325,7.0,301.32392999999996,975.6134900000001,0.0,0.0,0.0,0.0,-0.043106451450025056,0.0,-0.06629460532926815,-0.1023040933066279,-0.12796344632150888,-0.08103951400347734,-0.36932566924460564,-0.006861699786322044
4326,7.0,299.94315,727.71205,0.0,0.0,0.0,0.0,-0.04311641825960888,0.0,-0.07894687694295013,-0.06548810384592264,-0.07677131042798843,-0.0978611000358886,-0.3651881739187666,-0.0013295481763911888
4327,7.0,299.47597,839.6559300000001,0.0,0.0,0.0,0.0,-0.043126385069192696,0.0,-0.07260406911896373,-0.1030911758518069,-0.07953919660690752,-0.1149465059968369,-0.3911620701621906,-0.06716811101522643
4328,7.0,299.91546,996.2770300000001,0.0,0.0,0.0,0.0,-0.04313635187877653,0.0,-0.1091556600853249,-0.09485500585121022,-0.09883267921227601,-0.10840614885385388,-0.38892220988863363,-0.03083447014537527
4329,7.0,299.64974,779.02755,0.0,0.0,0.0,0.0,-0.043146318688360344,0.0,-0.055374562781793854,-0.07374927680598693,-0.10768108734729588,-0.08140904530169722,-0.37466031956359463,-0.031248435500230473
4330,7.0,300.46283999999997,712.38086,0.0,0.0,0.0,0.0,-0.04315628549794416,0.0,-0.05903458122325954,-0.060902803651638734,-0.09660860942827741,-0.07098294799247153,-0.3727202293321227,-0.017237180693427282
4331,7.0,301.00231,938.1945900000001,0.0,0.0,0.0,0.0,-0.043166252307527984,0.0,-0.07250539882422573,-0.07036905015438452,-0.14231327662272686,-0.08627186355262002,-0.38129386531827464,-0.005235334178637255
4332,7.0,299.46825,946.38316,0.0,0.0,0.0,0.0,-0.0431762191171118,0.0,-0.09683043925942031,-0.09494233281107872,-0.09590407636874541,-0.1080944832555949,-0.37957899018652963,-0.014087804838608086
4333,7.0,300.51596,870.59838,0.0,0.0,0.0,0.0,-0.04318618592669563,0.0,-0.09324952626651171,-0.07335691394326373,-0.0980337294819258,-0.10304683602743091,-0.3631818981907627,0.008104084642735883
4334,7.0,300.1384,1054.7575,0.0,0.0,0.0,0.0,-0.04319615273627945,0.0,-0.100869514563296,-0.10795761343208689,-0.11179282585559289,-0.11497673124731989,-0.3819067701712636,0.005814037483775824
4335,7.0,300.01364,1068.348,0.0,0.0,0.0,0.0,-0.043206119545863265,0.0,-0.08290625202046002,-0.11647734451291888,-0.12536750969780988,-0.1062707344006049,-0.3928455548058376,0.0038551358588972857
4336,7.0,301.43273999999997,948.4216,0.0,0.0,0.0,0.0,-0.04321608635544709,0.0,-0.07632891428857734,-0.0884243016207991,-0.12354326435027088,-0.1019050855497489,-0.4003134714878636,-0.007957339683753284
4337,7.0,301.67742999999996,958.0194,0.0,0.0,0.0,0.0,-0.043226053165030906,0.0,-0.07039816690925814,-0.09469461950613133,-0.1261211853871919,-0.07524134634674272,-0.38566456015462863,-0.009380124905196251
4338,7.0,299.74282999999997,1126.303,0.0,0.0,0.0,0.0,-0.04323601997461472,0.0,-0.13798931288098487,-0.10819283944280189,-0.09618582373130172,-0.07442147502832772,-0.3913127201870586,-0.017569864138510582
4339,7.0,300.70852,973.7059199999999,0.0,0.0,0.0,0.0,-0.043245986784198547,0.0,-0.10163182213027991,-0.07910583967163852,-0.11524461430875789,-0.07630718615343293,-0.4019405687634456,-0.038829528165426064
4340,7.0,300.20147000000003,751.60651,0.0,0.0,0.0,0.0,-0.04325595359378236,0.0,-0.07976839580602772,-0.08653609182094732,-0.06216512481172014,-0.09079579422809722,-0.3929325727244256,-0.035505612888131165
4341,7.0,300.24969,785.22297,0.0,0.0,0.0,0.0,-0.04326592040336618,0.0,-0.06055341576540685,-0.053553357184554846,-0.12458139987272689,-0.08079279874987842,-0.36894702781473665,-0.006784478273675874
4342,7.0,300.01282000000003,814.29259,0.0,0.0,0.0,0.0,-0.043275887212950004,0.0,-0.09386938302843682,-0.06002676078743004,-0.0936284696449105,-0.1108687924268979,-0.34916620737502163,-0.011894200445366187
4343,7.0,299.46796,907.40354,0.0,0.0,0.0,0.0,-0.04328585402253383,0.0,-0.04049400829019746,-0.1121938398476699,-0.12314016306298789,-0.1030958975972729,-0.38973719734156664,-0.03253489126444377
4344,7.0,299.49367,906.1303800000001,0.0,0.0,0.0,0.0,-0.04329582083211765,0.0,-0.09738598199774809,-0.07335780357685152,-0.1046972177903109,-0.1158008683486559,-0.37897777823969464,-0.03688346178486426
4345,7.0,300.88929,1016.8987,0.0,0.0,0.0,0.0,-0.04330578764170147,0.0,-0.07133039347826173,-0.13363201321095286,-0.10414939399124488,-0.1006871011742932,-0.37069470185221864,-0.023861771343723477
4346,7.0,301.69637,1029.0542,0.0,0.0,0.0,0.0,-0.043315754451285285,0.0,-0.1051710236695719,-0.1030599677487269,-0.1045757797658259,-0.07725492254171723,-0.3699426068329927,-0.03073433266449247
4347,7.0,300.39125,1174.1908,0.0,0.0,0.0,0.0,-0.04332572126086911,0.0,-0.09951189419155931,-0.11820711442113388,-0.13920567909603088,-0.11685967417315189,-0.40142028510209765,0.0023257401096326777
4348,7.0,300.89275,851.4645199999999,0.0,0.0,0.0,0.0,-0.04333568807045293,0.0,-0.09169680762777031,-0.08993332891522851,-0.07719381748118663,-0.0994741567048349,-0.4046083650842366,-0.02773285687376987
4349,7.0,299.8809,326.81768,0.0,0.0,0.0,0.0,-0.043345654880036756,0.0,-0.013545221569059289,-0.010101729506388081,-0.07569746391900802,-0.09485704147066111,-0.37605275824851764,0.01034227619470319
4350,7.0,299.67129,635.03923,0.0,0.0,0.0,0.0,-0.04335562168962058,0.0,-0.09471482472637541,-0.051685511685212855,-0.04663573460533865,-0.09394407070655791,-0.3460116254411887,-0.02608893964652787
4351,7.0,299.18379,980.1329400000001,0.0,0.0,0.0,0.0,-0.04336558849920439,0.0,-0.1078855510849749,-0.07252084987500064,-0.1175295338142619,-0.1243717381620349,-0.37187322317602967,-0.006532376075920323
4352,7.0,299.20001,910.93851,0.0,0.0,0.0,0.0,-0.04337555530878821,0.0,-0.1068563625609019,-0.07984313617315403,-0.09020306521109941,-0.100160796780851,-0.38080778898030265,-0.03259747972312076
4353,7.0,299.36714,999.5586900000001,0.0,0.0,0.0,0.0,-0.04338552211837204,0.0,-0.08170850326275143,-0.089437652032559,-0.13269472647094988,-0.100626435864306,-0.3716729542937646,0.004592969180315766
4354,7.0,300.42686000000003,1254.9055,0.0,0.0,0.0,0.0,-0.04339548892795586,0.0,-0.12667298112664988,-0.09111475522707622,-0.16367219356318785,-0.08540434313500242,-0.3731929814312796,0.014621808919560185
4355,7.0,300.65008,1130.7019,0.0,0.0,0.0,0.0,-0.04340545573753968,0.0,-0.07877205482369652,-0.10642963228128689,-0.15850347308057483,-0.09217817235277731,-0.40441791459544063,-0.005151308894219605
4356,7.0,300.85273,987.5811699999999,0.0,0.0,0.0,0.0,-0.043415422547123494,0.0,-0.08094400910205173,-0.1134217469813549,-0.1058342566550279,-0.1126027065280219,-0.3989829626490526,-0.011560671949699489
4357,7.0,300.29194,892.4060900000001,0.0,0.0,0.0,0.0,-0.04342538935670732,0.0,-0.05952465685937624,-0.08492097217479741,-0.12682353995900889,-0.0881561703130866,-0.3624348592895356,-0.003448237112889507
4358,7.0,300.37642999999997,500.66105999999996,0.0,0.0,0.0,0.0,-0.04343535616629114,0.0,-0.05062430344472975,-0.05327315300190085,-0.048291003273450955,-0.0981028108472436,-0.35033383626025766,-0.018910435564064684
4359,7.0,300.73598,373.09591,0.0,0.0,0.0,0.0,-0.043445322975874966,0.0,-0.02412315136601968,-0.03067279798591947,-0.05861589006993794,-0.10510294339535291,-0.37349197127078765,-0.030518279372169672
4360,7.0,299.22794,516.51139,0.0,0.0,0.0,0.0,-0.04345528978545878,0.0,-0.056352919588100146,-0.054063859942687545,-0.04658978675305396,-0.1274181252501899,-0.36973577209007963,-0.01980068520792548
4361,7.0,298.42117,668.3140400000001,0.0,0.0,0.0,0.0,-0.0434652565950426,0.0,-0.04063261077137646,-0.08267026607217001,-0.07984790351487453,-0.08919762017661972,-0.37107821701506866,-0.04635208233259436
4362,7.0,298.76735,984.18624,0.0,0.0,0.0,0.0,-0.04347522340462642,0.0,-0.1022069428870399,-0.08432671011039833,-0.1126343908586489,-0.07995229765942743,-0.3872527790238736,-0.038409206692693564
4363,7.0,299.30422999999996,1268.9656,0.0,0.0,0.0,0.0,-0.04348519021421025,0.0,-0.1298844063910929,-0.1134170049708869,-0.14243245509948887,-0.08864351118718342,-0.39556555377178065,-0.03983918832032176
4364,7.0,299.99634,1152.9273,0.0,0.0,0.0,0.0,-0.04349515702379407,0.0,-0.14429510262581785,-0.09789593152132621,-0.1082700693654239,-0.1110103637308699,-0.39330553995373463,-0.004907546251412105
4365,7.0,300.67984,850.1865300000001,0.0,0.0,0.0,0.0,-0.04350512383337789,0.0,-0.06867061500551203,-0.07988144006668434,-0.10988341683714889,-0.11270832771844588,-0.38654023115605063,0.016449684742207486
4366,7.0,299.9755,968.60873,0.0,0.0,0.0,0.0,-0.04351509064296171,0.0,-0.0997333177094121,-0.10983197412957191,-0.08486757085477711,-0.1213604399248429,-0.38630770039060164,0.028778237134440873
4367,7.0,300.22062999999997,1061.6772,0.0,0.0,0.0,0.0,-0.04352505745254553,0.0,-0.08654481083805782,-0.0858010528406546,-0.15037750112110385,-0.09041452341421873,-0.3889786580517047,0.025994786420735678
4368,7.0,300.61298,829.9019900000001,0.0,0.0,0.0,0.0,-0.04353502426212935,0.0,-0.07988515565480102,-0.08875750587643381,-0.08362682178932472,-0.10428377121950691,-0.3979350391306306,0.0027952777741724376
4369,7.0,299.46914,571.31098,0.0,0.0,0.0,0.0,-0.043544991071713175,0.0,-0.023982305549119277,-0.06505037980272264,-0.08463158693298732,-0.07389076704995093,-0.38370440757117663,-0.025047762347271678
4370,7.0,298.75257999999997,1039.0375,0.0,0.0,0.0,0.0,-0.04355495788129699,0.0,-0.1171399391508119,-0.0912016951254065,-0.10749982703690691,-0.09388078513181211,-0.3845161120937856,-0.009294269792423012
4371,7.0,298.93976000000004,1326.2743,0.0,0.0,0.0,0.0,-0.043564924690880816,0.0,-0.12419470310456289,-0.12618085568558088,-0.15277871134058488,-0.08865106597992901,-0.37279347718185163,-0.044573421080554156
4372,7.0,299.28442,1201.8798,0.0,0.0,0.0,0.0,-0.04357489150046463,0.0,-0.13869498078062886,-0.1029110706465319,-0.12373539683423287,-0.09969672012905022,-0.37822207605011265,-0.018811450148545582
4373,7.0,300.88047,982.42387,0.0,0.0,0.0,0.0,-0.043584858310048456,0.0,-0.050665690658314354,-0.1109538851702959,-0.13701275256710588,-0.12071408768605288,-0.37048633710165463,-0.023015465343449577
4374,7.0,299.97277,800.74473,0.0,0.0,0.0,0.0,-0.04359482511963228,0.0,-0.06930147465027303,-0.09519877019938709,-0.07890615847443153,-0.1079600249673249,-0.3903804085050466,-0.0006372937626309973
4375,7.0,300.52834,934.22271,0.0,0.0,0.0,0.0,-0.0436047919292161,0.0,-0.06312369588332374,-0.1000837857202506,-0.12077289672185688,-0.1002662903017624,-0.40014123923586564,-0.032958906033790765
4376,7.0,301.18483,1111.6497,0.0,0.0,0.0,0.0,-0.04361475873879992,0.0,-0.14440281111144787,-0.1039436535584399,-0.08956728421060273,-0.08248059375945083,-0.3841140139241016,-0.01083911730173759
4377,7.0,300.28368,848.2506800000001,0.0,0.0,0.0,0.0,-0.04362472554838374,0.0,-0.05540072591262595,-0.08873890969734852,-0.1137073923170459,-0.09062003789225141,-0.38393615813404863,-0.006563924529708914
4378,7.0,298.63745,451.33842000000004,0.0,0.0,0.0,0.0,-0.04363469235796756,0.0,-0.036895800131331966,-0.06352455282163524,-0.03677525579343517,-0.0882225888571416,-0.36856189145172663,-0.03447369264178857
4379,7.0,299.96324,908.68894,0.0,0.0,0.0,0.0,-0.043644659167551385,0.0,-0.06314282097896123,-0.096844307613539,-0.11623162123116788,-0.09993589274890471,-0.3772897339705976,-0.015679198220416385
4380,7.0,299.83554,1241.5589,0.0,0.0,0.0,0.0,-0.0436546259771352,0.0,-0.15005071783135285,-0.09962267789124281,-0.12772951727092188,-0.06834547723392344,-0.3593635361164197,-0.029320331004191375
4381,7.0,301.29438999999996,906.0654099999999,0.0,0.0,0.0,0.0,-0.043664592786719025,0.0,-0.07551772652351933,-0.07413738604479032,-0.12576614255215188,-0.09799086190994509,-0.4007023568762436,-0.02216495030226028
4382,7.0,300.93539,642.04177,0.0,0.0,0.0,0.0,-0.04367455959630284,0.0,-0.08295760556202822,-0.05742673873932785,-0.05478032098239675,-0.1002377308344438,-0.3936416654094076,-0.02556402340572268
4383,7.0,299.66052,850.3719699999999,0.0,0.0,0.0,0.0,-0.043684526405886666,0.0,-0.07420946764365423,-0.06781702069726885,-0.1164653577642359,-0.12684205203833587,-0.38877050608366165,0.014559919603452187
4384,7.0,299.69701000000003,1089.6619,0.0,0.0,0.0,0.0,-0.04369449321547049,0.0,-0.13746232150397486,-0.07631961873215992,-0.11744806850622189,-0.08211763642787971,-0.37228604153177164,-0.005234911653345555
4385,7.0,299.05359,1030.0701,0.0,0.0,0.0,0.0,-0.043704460025054306,0.0,-0.09332676125538422,-0.08400065332096901,-0.13578817902624987,-0.1084821831413579,-0.38347290018832864,0.015667724176283985
4386,7.0,299.02218,879.77186,0.0,0.0,0.0,0.0,-0.04371442683463813,0.0,-0.09759712204033599,-0.07877278639026872,-0.09105876910605082,-0.0986428741637937,-0.39695178123359065,0.008665690467012061
4387,7.0,298.25209,659.29085,0.0,0.0,0.0,0.0,-0.04372439364422195,0.0,-0.03218325092323957,-0.06642592254222814,-0.1017987854817579,-0.1083383725546649,-0.3941834907678816,-0.030902825010371372
4388,7.0,299.48301000000004,788.24393,0.0,0.0,0.0,0.0,-0.043734360453805764,0.0,-0.10329553826447589,-0.06239436150109404,-0.07391657047699753,-0.09131504336109311,-0.38726719757279665,-0.016488377723776183
4389,7.0,300.84441,1025.0979,0.0,0.0,0.0,0.0,-0.043744327263389594,0.0,-0.05605063871226735,-0.1158506189285659,-0.13970290118510287,-0.09384732153400951,-0.37962412034598364,-0.041737825476952664
4390,7.0,300.9178,742.20447,0.0,0.0,0.0,0.0,-0.04375429407297341,0.0,-0.06622848164099224,-0.07654435355133953,-0.08283879185530221,-0.1084952236701449,-0.4056772020847226,-0.012157282727830386
4391,7.0,300.03119,653.57275,0.0,0.0,0.0,0.0,-0.043764260882557235,0.0,-0.01904378940972568,-0.07697377502322013,-0.1026522359084869,-0.09734233827619082,-0.3867403581833016,-0.05086162283015135
4392,7.0,300.63532999999995,950.2316599999999,0.0,0.0,0.0,0.0,-0.04377422769214105,0.0,-0.10517980854793889,-0.08526840144858601,-0.0983984853324244,-0.0986034425229021,-0.38250184182249264,-0.011436142499159389
4393,7.0,299.6237,1096.8813,0.0,0.0,0.0,0.0,-0.04378419450172487,0.0,-0.09746783436732631,-0.10152989930272091,-0.13442680658939288,-0.08780040503072532,-0.3801173096996576,-0.03546171788054907
4394,7.0,299.5828,987.6536800000001,0.0,0.0,0.0,0.0,-0.04379416131130869,0.0,-0.11840800138595989,-0.07861826068376823,-0.1031957939246319,-0.10834134137745789,-0.38810026140751364,0.007998011238792253
4395,7.0,299.59434,940.2637300000001,0.0,0.0,0.0,0.0,-0.04380412812089251,0.0,-0.049114953936768554,-0.1032018835577329,-0.1334998550004099,-0.0912391661273546,-0.3852729693884816,-0.04054953844867786
4396,7.0,299.6072,968.79628,0.0,0.0,0.0,0.0,-0.043814094930476326,0.0,-0.11218544000434089,-0.05281446582738195,-0.12948997852466587,-0.12170740715658589,-0.3545871663375287,0.013832845782195588
4397,7.0,300.07342,830.25919,0.0,0.0,0.0,0.0,-0.04382406174006015,0.0,-0.07234464061636013,-0.061208449531053644,-0.11882497406711189,-0.1076202416787909,-0.38409182374691164,-0.02513076779546368
4398,7.0,300.56158,750.30273,0.0,0.0,0.0,0.0,-0.04383402854964397,0.0,-0.08248030194342201,-0.05878223736535515,-0.08681075656530461,-0.09719022207842809,-0.3993707841248276,0.00977033836048232
4399,7.0,300.71475,841.76284,0.0,0.0,0.0,0.0,-0.0438439953592278,0.0,-0.08801952036485032,-0.06868715124714403,-0.0991682119166405,-0.08081391082896201,-0.3997793974926546,-0.027930018117978177
4400,7.0,301.74596,986.5435699999999,0.0,0.0,0.0,0.0,-0.043853962168811614,0.0,-0.10463457866912891,-0.09973278271335931,-0.0955172499045686,-0.0925383300743221,-0.38213130639342363,-0.0071917012597156535
4401,7.0,300.2559,893.04619,0.0,0.0,0.0,0.0,-0.04386392897839543,0.0,-0.06695836621802624,-0.0910533107277621,-0.1134520634243469,-0.10479145004961089,-0.3968721397757306,-0.036534475145671964
4402,7.0,300.93878,964.65386,0.0,0.0,0.0,0.0,-0.043873895787979254,0.0,-0.1054871273032689,-0.07718072122364412,-0.1105628314267019,-0.11471867671185187,-0.3947480939886036,0.026475154107644273
4403,7.0,300.48044,779.46192,0.0,0.0,0.0,0.0,-0.04388386259756308,0.0,-0.06594710614122264,-0.07818384794189502,-0.0928060054194896,-0.1005322258965082,-0.38542710499369365,-0.04110368695486806
4404,7.0,300.07099999999997,828.18024,0.0,0.0,0.0,0.0,-0.0438938294071469,0.0,-0.0986223143060146,-0.05835454449814515,-0.09476925550849731,-0.0941312352252796,-0.37144654355891965,0.01223525130977529
4405,7.0,299.9399,852.05611,0.0,0.0,0.0,0.0,-0.04390379621673072,0.0,-0.08899331653245651,-0.07701724142600994,-0.09299322465371672,-0.1058323010823349,-0.38457347218194665,-0.04886239729634315
4406,7.0,299.62997,702.9048700000001,0.0,0.0,0.0,0.0,-0.043913763026314535,0.0,-0.07016750457699353,-0.043656962709606756,-0.0998410606455455,-0.1167095814358389,-0.39578430433586964,0.009590365586995392
4407,7.0,298.96274,645.86158,0.0,0.0,0.0,0.0,-0.04392372983589836,0.0,-0.015344840886167886,-0.08263088813353373,-0.0983500631233955,-0.09552463041829701,-0.38817053030194865,-0.07123701032254552
4408,7.0,299.58101,1009.6977,0.0,0.0,0.0,0.0,-0.04393369664548218,0.0,-0.08995992470385332,-0.10614476714817289,-0.11081820084940489,-0.08096916810203472,-0.3642759853837407,-0.007733289315016233
4409,7.0,300.08132,970.80614,0.0,0.0,0.0,0.0,-0.04394366345506601,0.0,-0.07921155306782163,-0.0943288595247836,-0.1215604149645789,-0.08746336461021201,-0.3727683181818687,-0.045968737395761156
4410,7.0,299.38495,763.48475,0.0,0.0,0.0,0.0,-0.04395363026464982,0.0,-0.09787890891964621,-0.06433346584021873,-0.06986792502592733,-0.1124044033509509,-0.40326401524905964,-0.002608022366916767
4411,7.0,300.00903,1087.0312,0.0,0.0,0.0,0.0,-0.04396359707423364,0.0,-0.08297407898215402,-0.1220664117995169,-0.12538984173001388,-0.1035609591281709,-0.38463454076547365,-0.03551830384563367
4412,7.0,299.81243,1272.0148,0.0,0.0,0.0,0.0,-0.043973563883817464,0.0,-0.1295603183466079,-0.10806553470023789,-0.14903488394359785,-0.08556864366521762,-0.35846881601311764,0.01023710590057369
4413,7.0,300.56039,1191.3832,0.0,0.0,0.0,0.0,-0.04398353069340129,0.0,-0.10163300763289691,-0.1317165246919089,-0.12880122176919087,-0.12210867446118788,-0.38659330519628865,-0.0033526865138843974
4414,7.0,299.46467,873.5990099999999,0.0,0.0,0.0,0.0,-0.04399349750298511,0.0,-0.10030102046219,-0.05529282592272704,-0.10995843787455291,-0.11740295861176987,-0.39063064074974263,0.01771757675133868
4415,7.0,300.37715,831.10863,0.0,0.0,0.0,0.0,-0.04400346431256893,0.0,-0.07147647881142923,-0.06876785459110885,-0.11239194037472089,-0.13994232205123186,-0.3931024643686926,0.022761070667342776
4416,7.0,299.8404,903.0000699999999,0.0,0.0,0.0,0.0,-0.044013431122152745,0.0,-0.12302718567683789,-0.058331222520593445,-0.09313107125032109,-0.07447312038592473,-0.36514576940208165,-0.006557183174143594
4417,7.0,299.51533,922.88285,0.0,0.0,0.0,0.0,-0.04402339793173657,0.0,-0.08325232556561482,-0.07902317467548012,-0.11825783772113989,-0.10911997341680289,-0.38798827700646166,-0.0019428791010472379
4418,7.0,299.25768,910.32006,0.0,0.0,0.0,0.0,-0.04403336474132039,0.0,-0.1023444206606079,-0.08223063813203212,-0.09213951078196173,-0.09632309480184931,-0.39343641133665064,-0.038000230581330764
4419,7.0,299.29365,906.4190800000001,0.0,0.0,0.0,0.0,-0.044043331550904216,0.0,-0.05222233969419365,-0.08518593099644682,-0.13812049837143187,-0.12379095333721589,-0.3972142028769896,-0.023120986222113678
4420,7.0,298.74459,822.92294,0.0,0.0,0.0,0.0,-0.04405329836048803,0.0,-0.08922055813238351,-0.09060635192315072,-0.07032111531865373,-0.07306008739271923,-0.38160997908447264,-0.03642768669113276
4421,7.0,298.52766,1009.1707,0.0,0.0,0.0,0.0,-0.04406326517007185,0.0,-0.07166948269047722,-0.11638105535591589,-0.11871214866847689,-0.07528835709838233,-0.3865994150943916,0.00044442376431871053
4422,7.0,299.87462,1021.3631,0.0,0.0,0.0,0.0,-0.04407323197965567,0.0,-0.12681420792558787,-0.07808758512939463,-0.10556709300116089,-0.09489579930023623,-0.4077708807663526,0.0031697450189294768
4423,7.0,299.83506,693.99222,0.0,0.0,0.0,0.0,-0.0440831987892395,0.0,-0.016025688211362285,-0.10188027105479991,-0.093050344601604,-0.10492936352072191,-0.39480541354676063,-0.04103889062422317
4424,7.0,300.18316,584.94012,0.0,0.0,0.0,0.0,-0.04409316559882332,0.0,-0.057532682143283644,-0.06415059243567053,-0.05612391594624924,-0.08955125459402072,-0.39874557841562464,-0.02933860091674447
4425,7.0,300.12767,821.97636,0.0,0.0,0.0,0.0,-0.04410313240840714,0.0,-0.05406618636491715,-0.08332042306508551,-0.1124736792602879,-0.08184580067780163,-0.3831751161164397,-0.03729609268933776
4426,7.0,299.30761,818.20549,0.0,0.0,0.0,0.0,-0.044113099217990955,0.0,-0.08835634901609273,-0.08517702756781811,-0.07518066178500363,-0.1110939365991179,-0.3933152570221936,-0.029828324955076473
4427,7.0,298.7664,924.7875300000001,0.0,0.0,0.0,0.0,-0.04412306602757478,0.0,-0.07892118092041413,-0.08166899968110272,-0.12052213758710889,-0.0976931224210605,-0.37438092598102063,-0.03139405372510187
4428,7.0,299.58662000000004,1015.0439,0.0,0.0,0.0,0.0,-0.0441330328371586,0.0,-0.12245249048511987,-0.08979652292647682,-0.09629900275422161,-0.12391396189935588,-0.36946340033069863,-0.00948482079562893
4429,7.0,300.07651,1011.2169,0.0,0.0,0.0,0.0,-0.044142999646742426,0.0,-0.06506243545241244,-0.1078612938775809,-0.13446096325026388,-0.09221860407151761,-0.38259424009911164,-0.04584698931674555
4430,7.0,299.19531,939.48915,0.0,0.0,0.0,0.0,-0.04415296645632624,0.0,-0.08940826170015842,-0.08789768210657582,-0.1082752977359399,-0.09721863867748261,-0.3945130402304056,-0.016536527368528186
4431,7.0,299.56937999999997,954.3467199999999,0.0,0.0,0.0,0.0,-0.04416293326591006,0.0,-0.07745955954516333,-0.09400705838577432,-0.11863095693796388,-0.08468381896239222,-0.39871676158278063,-0.004059336354200306
4432,7.0,299.91613,869.0239999999999,0.0,0.0,0.0,0.0,-0.04417290007549388,0.0,-0.0979083985505566,-0.05582620178861715,-0.1104269951182959,-0.10404789672872791,-0.4055745395845906,0.01186046327003659
4433,7.0,300.16575,738.7756099999999,0.0,0.0,0.0,0.0,-0.04418286688507771,0.0,-0.08224451763190192,-0.04717472387678275,-0.09515009771758351,-0.09486817607601,-0.4030529653857306,0.018914192695435483
4434,7.0,301.28598,908.85404,0.0,0.0,0.0,0.0,-0.04419283369466153,0.0,-0.10530701196549289,-0.07130599644235394,-0.0996559256667741,-0.09568147038802591,-0.38945905005661563,0.01149068879179269
4435,7.0,300.75982999999997,923.98165,0.0,0.0,0.0,0.0,-0.04420280050424535,0.0,-0.06675037333024894,-0.06847415290387274,-0.14564282658382788,-0.08799000844243773,-0.3860087308160956,-0.01116677299982469
4436,7.0,300.06642,1012.4125,0.0,0.0,0.0,0.0,-0.04421276731382917,0.0,-0.09147666384479382,-0.1050569823708169,-0.11121447283101389,-0.10572460272920589,-0.3802518186504326,-0.03787238374996326
4437,7.0,299.99771,1015.8174,0.0,0.0,0.0,0.0,-0.04422273412341299,0.0,-0.091250538846477,-0.07670798736298892,-0.14082458931080488,-0.1087503600453249,-0.37189118810030264,-0.04423112594502226
4438,7.0,300.39277999999996,792.1970299999999,0.0,0.0,0.0,0.0,-0.04423270093299681,0.0,-0.07253144036504583,-0.06532661204498463,-0.1029500605103799,-0.1067859518114529,-0.3893036073587746,-0.018317956819841583
4439,7.0,299.20752000000005,473.52075,0.0,0.0,0.0,0.0,-0.044242667742580635,0.0,-0.02853603996303787,-0.045934735762155454,-0.06946770744842894,-0.08011823762830443,-0.38740192943859364,-0.030515249754370675
4440,7.0,299.85415,842.1705900000001,0.0,0.0,0.0,0.0,-0.04425263455216445,0.0,-0.08686866583501981,-0.06886753205644623,-0.1002626334821515,-0.08467479799675193,-0.3948438055930496,0.008282735226167322
4441,7.0,300.22314,983.06343,0.0,0.0,0.0,0.0,-0.044262601361748276,0.0,-0.07750307863695832,-0.10153213858544191,-0.11979151333750188,-0.08416319991526112,-0.3908926672256026,-0.03616833114253637
4442,7.0,300.45097999999996,748.50888,0.0,0.0,0.0,0.0,-0.04427256817133209,0.0,-0.07231701739213393,-0.06640450446161433,-0.08880648739951792,-0.10267924915615291,-0.3871085732696416,-0.0049944430866131545
4443,7.0,300.0572,820.86248,0.0,0.0,0.0,0.0,-0.04428253498091591,0.0,-0.05120762443454904,-0.09836533786865301,-0.099948733667422,-0.09958565271933871,-0.37543373336492464,-0.04751349695496705
4444,7.0,300.08588,1206.851,0.0,0.0,0.0,0.0,-0.04429250179049973,0.0,-0.16068428113830385,-0.09304131654321302,-0.1131269621297619,-0.09212212037049541,-0.37259276246954265,0.018554084623145582
4445,7.0,300.38734,1216.0641,0.0,0.0,0.0,0.0,-0.04430246860008356,0.0,-0.12054970812232987,-0.11575462361409189,-0.13334876927799888,-0.10704604297962189,-0.39210337950509067,-0.02101393669216408
4446,7.0,300.30054,907.66887,0.0,0.0,0.0,0.0,-0.04431243540966738,0.0,-0.09134963369300692,-0.07940202990112022,-0.1051570104206889,-0.11245903779634289,-0.3864316310103326,0.014633708528734586
4447,7.0,299.34235,754.21925,0.0,0.0,0.0,0.0,-0.0443224022192512,0.0,-0.038360147149351764,-0.06554093571938674,-0.12536273728983888,-0.10543534009065791,-0.3800794344109196,-0.02967771951321287
4448,7.0,299.33088,733.30486,0.0,0.0,0.0,0.0,-0.044332369028835014,0.0,-0.08547408817913572,-0.06124785786719294,-0.07618442178456702,-0.08928977831296502,-0.3633113408910376,-0.007235627374075823
4449,7.0,300.18131,762.1458299999999,0.0,0.0,0.0,0.0,-0.04434233583841884,0.0,-0.06822072486836134,-0.07596197792386351,-0.08749059975964991,-0.10999398268806089,-0.38145111160129364,-0.03887405341457036
4450,7.0,299.64712000000003,923.1823800000001,0.0,0.0,0.0,0.0,-0.044352302648002655,0.0,-0.14123802574910788,-0.06423206787621154,-0.07515430107040202,-0.1111351049506809,-0.3893986502181546,-0.0030731720505734667
4451,7.0,300.41062999999997,908.1573,0.0,0.0,0.0,0.0,-0.04436226945758647,0.0,-0.07403708340414122,-0.1014783248726309,-0.10054173524869671,-0.10035648577266401,-0.4088729118401146,-0.0012019890067270788
4452,7.0,300.67581,780.65417,0.0,0.0,0.0,0.0,-0.044372236267170295,0.0,-0.06869926870508992,-0.08889052332306162,-0.07970958271722334,-0.09420036522660222,-0.40157588991995463,-0.022693049161629578
4453,7.0,299.94529,1031.5283,0.0,0.0,0.0,0.0,-0.04438220307675412,0.0,-0.07353710020854673,-0.1093731440867889,-0.13064861988151488,-0.08117477377257643,-0.40115166236808664,-0.0006114985733077104
4454,7.0,299.84657999999996,1234.0907,0.0,0.0,0.0,0.0,-0.04439216988633794,0.0,-0.1214650681301689,-0.13117720206118186,-0.12249049749637088,-0.1035717401092349,-0.40018644032282663,-0.03755719913410697
4455,7.0,300.05664,938.63825,0.0,0.0,0.0,0.0,-0.04440213669592176,0.0,-0.06317468262835574,-0.1027432257674669,-0.11940468484682487,-0.10074434575194281,-0.3789850229779096,-0.015046246214198885
4456,7.0,299.30516,661.90417,0.0,0.0,0.0,0.0,-0.044412103505505576,0.0,-0.08821162549105961,-0.05947755592847775,-0.05351315952658765,-0.10028501516361041,-0.3747900155763947,-0.03055201553424917
4457,7.0,299.50771000000003,807.28229,0.0,0.0,0.0,0.0,-0.0444220703150894,0.0,-0.05262358268079325,-0.08775945858093423,-0.1050106160462409,-0.08018841938323083,-0.38085043667701163,-0.001249580249348969
4458,7.0,300.03577,736.72087,0.0,0.0,0.0,0.0,-0.044432037124673224,0.0,-0.08588423459436402,-0.050127334668182755,-0.08793318132382932,-0.07354043481462583,-0.4030059505810906,-0.0013554683298493088
4459,7.0,299.66576000000003,768.4579200000001,0.0,0.0,0.0,0.0,-0.04444200393425705,0.0,-0.04243194941820736,-0.0958888289812406,-0.0952712418995395,-0.06503339570454644,-0.3921975104393806,-0.02649536642063908
4460,7.0,300.41613,987.33825,0.0,0.0,0.0,0.0,-0.044451970743840864,0.0,-0.10866749645214689,-0.08896653633231351,-0.1024921423926869,-0.1053992278570939,-0.3726604577087237,-0.0012118025365955988
4461,7.0,301.07378,1024.9079,0.0,0.0,0.0,0.0,-0.04446193755342468,0.0,-0.0978324078328069,-0.0903918255987286,-0.12332217317845089,-0.11463135481823389,-0.37350039137911867,-0.014394725386648788
4462,7.0,299.88873,981.24058,0.0,0.0,0.0,0.0,-0.044471904363008505,0.0,-0.1221340462436919,-0.08662447965367051,-0.08951410681885451,-0.1044247244409179,-0.38385637482117463,0.015887849720758684
4463,7.0,298.73855,1195.0088,0.0,0.0,0.0,0.0,-0.04448187117259233,0.0,-0.09359440721629882,-0.11937530059392489,-0.15028313713929087,-0.10577160740134489,-0.39024409596909365,-0.005301458373538206
4464,7.0,299.53123,1075.7962,0.0,0.0,0.0,0.0,-0.04449183798217615,0.0,-0.10792265630363691,-0.098870777416036,-0.12022173932996189,-0.08154421793128772,-0.40851761569254963,0.015791417695491586
4465,7.0,299.87708,712.42415,0.0,0.0,0.0,0.0,-0.04450180479175997,0.0,-0.027619176292050476,-0.08937287900666642,-0.09956709605700731,-0.08736312479106911,-0.4176920785904986,-0.015049256580245985
4466,7.0,300.08065,786.68952,0.0,0.0,0.0,0.0,-0.044511771601343786,0.0,-0.07700070011812743,-0.07595096389527652,-0.08618230541603132,-0.07699423355598922,-0.39958648480611564,-0.004492331457858595
4467,7.0,300.51167999999996,875.1804300000001,0.0,0.0,0.0,0.0,-0.04452173841092761,0.0,-0.07460657150359534,-0.08885803649835541,-0.1025683894627119,-0.06856319124316014,-0.38018693011402865,-0.02467345154833008
4468,7.0,300.84281,922.82337,0.0,0.0,0.0,0.0,-0.04453170522051143,0.0,-0.0983777765268806,-0.08327257131586292,-0.09886491272445722,-0.09377427025479991,-0.36887863343298666,-0.013959144367410286
4469,7.0,300.97525,933.21562,0.0,0.0,0.0,0.0,-0.04454167203009526,0.0,-0.09070896680052801,-0.08774906466140842,-0.1052162146240319,-0.11125789059779889,-0.3761204433551976,-0.025581347955932476
4470,7.0,300.82976,912.09284,0.0,0.0,0.0,0.0,-0.044551638839679074,0.0,-0.08824323484117923,-0.09190720495803491,-0.09710300758932071,-0.11513852702328789,-0.38845050143707965,-0.01981592144967918
4471,7.0,301.30349,772.92631,0.0,0.0,0.0,0.0,-0.04456160564926289,0.0,-0.05784125023598695,-0.06915410046297833,-0.10795494858432389,-0.1037870456229839,-0.39867551217120956,-0.03005253085770387
4472,7.0,300.43859,994.1424199999999,0.0,0.0,0.0,0.0,-0.044571572458846714,0.0,-0.07714867414948133,-0.1160873952119339,-0.1089584005558569,-0.09446198741567231,-0.4067019323083556,-0.03078806430404537
4473,7.0,300.16596,1149.5982,0.0,0.0,0.0,0.0,-0.04458153926843054,0.0,-0.11701747774372588,-0.1055355910555519,-0.12689607853366788,-0.10178143864004591,-0.3965594305298686,-0.022007692873490182
4474,7.0,301.08068,799.79093,0.0,0.0,0.0,0.0,-0.04459150607801436,0.0,-0.07370130346675234,-0.07416958915946853,-0.09524558032750692,-0.12112885148198688,-0.38334986122868564,0.0006027535561996443
4475,7.0,300.92025,609.9835099999999,0.0,0.0,0.0,0.0,-0.04460147288759818,0.0,-0.03325861021461927,-0.08311702020026121,-0.06904412635012473,-0.09474914350726242,-0.39396349390616964,-0.02218125045661898
4476,7.0,299.54315,899.00722,0.0,0.0,0.0,0.0,-0.044611439697181995,0.0,-0.07524134533349264,-0.0918116828313576,-0.10622271647836591,-0.10727395332461488,-0.3924217021565066,0.009039135342418202
4477,7.0,299.55295,1064.8987,0.0,0.0,0.0,0.0,-0.04462140650676582,0.0,-0.08445701609975852,-0.1188907339986019,-0.12035486012809989,-0.1127247930325709,-0.3905195986712836,-0.01997065791220048
4478,7.0,299.31872999999996,962.32685,0.0,0.0,0.0,0.0,-0.04463137331634964,0.0,-0.1087852462462679,-0.09521839888032431,-0.08851968594546282,-0.1100377449598799,-0.39448058582970263,-0.004837459539345086
4479,7.0,299.58791,837.60497,0.0,0.0,0.0,0.0,-0.04464134012593347,0.0,-0.08482064926914631,-0.05783976075833995,-0.11195058889616288,-0.11179985781128689,-0.3743801863084476,-0.033532900056439566
4480,7.0,300.13334,766.0291900000001,0.0,0.0,0.0,0.0,-0.04465130693551728,0.0,-0.08765815282268612,-0.07366716707088333,-0.07152842510430593,-0.08601352226737373,-0.37689481974412264,-0.01239501045304229
4481,7.0,300.63545,779.04087,0.0,0.0,0.0,0.0,-0.0446612737451011,0.0,-0.05308704125003305,-0.05679646070012424,-0.1269254729190689,-0.09094218860254522,-0.37997939622854665,-0.02367862638814848
4482,7.0,300.9333,976.31601,0.0,0.0,0.0,0.0,-0.044671240554684924,0.0,-0.10640360188621789,-0.07599017667414652,-0.1143819129086159,-0.1021063879471159,-0.3923400443309476,-0.02230627639970808
4483,7.0,301.00985,940.74055,0.0,0.0,0.0,0.0,-0.04468120736426875,0.0,-0.07984775760686012,-0.08364387884150812,-0.12246999944684789,-0.11669589242698787,-0.4075988410318736,-0.02076170226527048
4484,7.0,301.42375,670.48305,0.0,0.0,0.0,0.0,-0.04469117417385257,0.0,-0.07731390180353802,-0.05623918327762524,-0.07025702015707803,-0.1033951306168049,-0.42221896592976765,-0.05032630355056945
4485,7.0,300.14052999999996,697.38551,0.0,0.0,0.0,0.0,-0.04470114098343639,0.0,-0.05167015385344715,-0.08145719697294942,-0.07886043049741852,-0.09621965615214072,-0.41591809044791966,-0.004863060822996735
4486,7.0,299.89276,959.5435,0.0,0.0,0.0,0.0,-0.044711107793020205,0.0,-0.093751918970844,-0.07930540333183393,-0.11861994290937689,-0.11435119116558388,-0.38534455550804664,-0.027327434230507774
4487,7.0,299.68814,877.1941699999999,0.0,0.0,0.0,0.0,-0.04472107460260403,0.0,-0.06472603439271224,-0.06944618702955503,-0.13247290575905787,-0.11518252234262988,-0.38312627746161965,0.00997462001711835
4488,7.0,299.48592,597.17219,0.0,0.0,0.0,0.0,-0.04473104141218785,0.0,-0.04151507257496866,-0.07742802314905092,-0.06258233763314584,-0.1148653649288289,-0.3801561070459866,-0.04487968504253005
4489,7.0,299.72442,867.27128,0.0,0.0,0.0,0.0,-0.044741008221771676,0.0,-0.07727548442599652,-0.07312668832179223,-0.11322664567459989,-0.07988539174207433,-0.35913760160912167,0.006139141108836055
4490,7.0,300.03642,1139.8112,0.0,0.0,0.0,0.0,-0.04475097503135549,0.0,-0.14704017953173587,-0.09288732076651482,-0.1065466626678369,-0.08764854011898741,-0.3520192460790947,-0.052758769495885156
4491,7.0,300.57492,1173.3654,0.0,0.0,0.0,0.0,-0.04476094184093931,0.0,-0.13022023800423688,-0.0953308980124271,-0.13112265880829888,-0.10672645376558089,-0.4098224285088246,-0.018034329878349784
4492,7.0,300.97202999999996,920.66275,0.0,0.0,0.0,0.0,-0.044770908650523134,0.0,-0.09357301649343773,-0.07319846594562614,-0.11308699954581788,-0.1061350804772169,-0.42247716232024957,-0.04180834059116196
4493,7.0,301.23112000000003,783.12486,0.0,0.0,0.0,0.0,-0.04478087546010696,0.0,-0.03775492577187107,-0.07722588988660192,-0.12306959019352288,-0.10308790305398391,-0.41702544108470657,0.002670790981461547
4494,7.0,301.05905,820.59505,0.0,0.0,0.0,0.0,-0.04479084226969078,0.0,-0.07218233213584152,-0.08145913734689093,-0.09579893748536901,-0.08797300610575973,-0.3961003573070616,-0.028831111564409175
4495,7.0,301.6007,1228.353,0.0,0.0,0.0,0.0,-0.0448008090792746,0.0,-0.1176678627179139,-0.10824425175287591,-0.14747653568730085,-0.08998737466231242,-0.37298601496585365,0.008418242430940843
4496,7.0,300.5505,1100.8989,0.0,0.0,0.0,0.0,-0.044810775888858415,0.0,-0.14779820206404687,-0.0879884774215366,-0.09885908754963231,-0.10321644396166989,-0.39050323468216863,-0.027310785518114673
4497,7.0,299.99667,742.61962,0.0,0.0,0.0,0.0,-0.04482074269844224,0.0,-0.05128019036696075,-0.053184480445899546,-0.1212731484287279,-0.0936028141523785,-0.38250102108991163,0.026950598412316975
4498,7.0,300.5763,878.7086,0.0,0.0,0.0,0.0,-0.044830709508026055,0.0,-0.061226032460038944,-0.10230264435898491,-0.1035767962272339,-0.09193152600018521,-0.3828237615117636,-0.03114592296111327
4499,7.0,300.60235,1319.4104,0.0,0.0,0.0,0.0,-0.04484067631760988,0.0,-0.09592900738745591,-0.11109611508683288,-0.19404268331552182,-0.11059546821242289,-0.39582611103499565,0.026761075047362474
4500,7.0,300.66277,1136.9813,0.0,0.0,0.0,0.0,-0.044850643127193696,0.0,-0.10717621521996891,-0.09809763921873321,-0.14034005311298486,-0.1188240013470159,-0.4062135052301516,-0.02784228281831937
4501,7.0,299.36777,718.31045,0.0,0.0,0.0,0.0,-0.04486060993677751,0.0,-0.08809914561070872,-0.054301756880666144,-0.07594753809668843,-0.0959797205549609,-0.3927963919109856,-0.004426804573891596
4502,7.0,299.25667999999996,660.0815,0.0,0.0,0.0,0.0,-0.04487057674636134,0.0,-0.07798288903631193,-0.060825027587212845,-0.061840379167920234,-0.07522117152400164,-0.3847017192471036,-0.03836355572268817
4503,7.0,299.19439,794.49395,0.0,0.0,0.0,0.0,-0.04488054355594516,0.0,-0.09029919731433692,-0.07072144941991364,-0.08048567453856763,-0.08426648961720501,-0.40061761877038066,-0.017097824354173882
4504,7.0,300.32192000000003,883.6701199999999,0.0,0.0,0.0,0.0,-0.044890510365528984,0.0,-0.05660094193432804,-0.10005835111624041,-0.11195435818653489,-0.0942417331884349,-0.4147619416863166,-0.029590292241584472
4505,7.0,299.98101,871.73502,0.0,0.0,0.0,0.0,-0.0449004771751128,0.0,-0.07005686982507472,-0.07353902842348703,-0.12138978364773888,-0.0937834300357039,-0.41612480360082055,0.01077374645828599
4506,7.0,299.66216000000003,953.4463400000001,0.0,0.0,0.0,0.0,-0.04491044398469662,0.0,-0.04815311918659286,-0.1150973789367269,-0.1265733786418199,-0.08294561780009511,-0.36795745736957364,-0.0016841706139646986
4507,7.0,299.56557999999995,952.7398199999999,0.0,0.0,0.0,0.0,-0.04492041079428044,0.0,-0.11346898470101689,-0.09496257957457692,-0.08117754805135022,-0.1027862078367089,-0.3901345332357806,-0.036543664310828866
4508,7.0,299.35046,1240.9935,0.0,0.0,0.0,0.0,-0.044930377603864265,0.0,-0.14021064081021287,-0.10520595040051889,-0.1318144350490719,-0.11830662571345488,-0.3850774323841836,-0.008744648487679611
4509,7.0,299.48971,1158.6974,0.0,0.0,0.0,0.0,-0.04494034441344809,0.0,-0.1274778056810799,-0.1066691544724259,-0.11806812690491689,-0.1087669266844599,-0.4001747879466766,-0.03414263850286607
4510,7.0,299.42678,648.59535,0.0,0.0,0.0,0.0,-0.044950311223031905,0.0,-0.036377875316216765,-0.06886652995209734,-0.09191238671904632,-0.09741041348415931,-0.39116819019279464,-0.00939890113882432
4511,7.0,298.75296000000003,519.05751,0.0,0.0,0.0,0.0,-0.04496027803261572,0.0,-0.026722891730594077,-0.056482726045161046,-0.07457490237171983,-0.08774291018030102,-0.4029120020318186,-0.03801052520234676
4512,7.0,299.47356,892.35457,0.0,0.0,0.0,0.0,-0.044970244842199546,0.0,-0.08857449973612251,-0.06249292743107174,-0.12018608305894288,-0.09625652325702923,-0.3977009074300236,0.011565851684210688
4513,7.0,301.1495,923.52996,0.0,0.0,0.0,0.0,-0.04498021165178337,0.0,-0.12162630661858187,-0.05628020572117385,-0.1028235359703929,-0.09304082714341472,-0.40403469327511965,-0.03118844602805997
4514,7.0,300.06822,760.3382,0.0,0.0,0.0,0.0,-0.04499017846136719,0.0,-0.09468374631930822,-0.062361855424635945,-0.07407822541120164,-0.10001632555509281,-0.3773940176708897,-0.009687424611424371
4515,7.0,300.44449,912.80837,0.0,0.0,0.0,0.0,-0.04500014527095101,0.0,-0.09212716027649281,-0.1001798803332344,-0.08516391104527361,-0.11513176864512088,-0.39409537853918564,-0.03558480750269707
4516,7.0,300.22101000000004,1213.3984,0.0,0.0,0.0,0.0,-0.04501011208053483,0.0,-0.09271276209228721,-0.11017160543059089,-0.16595845055882383,-0.12797809791795486,-0.4084523421211076,0.004623133230492725
4517,7.0,299.71828999999997,1288.3231,0.0,0.0,0.0,0.0,-0.04502007889011865,0.0,-0.1092258985822569,-0.12132807671664889,-0.16106408780578785,-0.1028419669897119,-0.4129052216730726,-0.013732330359025486
4518,7.0,299.355,1201.7937,0.0,0.0,0.0,0.0,-0.045030045699702474,0.0,-0.09589733420258001,-0.11103110496041689,-0.15838682772906285,-0.09759228073135821,-0.3971121381944166,0.016465324257500986
4519,7.0,299.25716,721.04339,0.0,0.0,0.0,0.0,-0.0450400125092863,0.0,-0.07260097566640843,-0.07891629604168203,-0.06766191439846103,-0.10240148690623989,-0.37265960657863967,-0.007922474862387391
4520,7.0,298.67854,420.42122,0.0,0.0,0.0,0.0,-0.045049979318870115,0.0,-0.04263887434037926,-0.041864682362972465,-0.04329399625878476,-0.09956760673505771,-0.3810986930840126,-0.02033267089467838
4521,7.0,299.1923,868.61232,0.0,0.0,0.0,0.0,-0.04505994612845393,0.0,-0.0935992687902786,-0.06786555740355903,-0.10257163186303189,-0.0994631193714956,-0.39549181956200363,-0.016118576901029684
4522,7.0,299.64946000000003,1189.7768,0.0,0.0,0.0,0.0,-0.045069912938037755,0.0,-0.097575448620697,-0.12358602350449088,-0.14050097749386686,-0.09847341315081921,-0.3870229941661956,-0.04596903529129055
4523,7.0,299.10854,734.72285,0.0,0.0,0.0,0.0,-0.04507987974762158,0.0,-0.028813388806910076,-0.07956998015819562,-0.1149540344450799,-0.11238242595628191,-0.4039272684995176,-0.04362601197205216
4524,7.0,300.80381,686.99463,0.0,0.0,0.0,0.0,-0.0450898465572054,0.0,-0.058842293712032236,-0.05828413881494665,-0.09170278276361,-0.11346936973605488,-0.4118458889585246,-0.04064492885284216
4525,7.0,301.25999,1059.3598,0.0,0.0,0.0,0.0,-0.04509981336678922,0.0,-0.12922629031864188,-0.094102138735408,-0.0986904827329923,-0.1149413485538279,-0.4033779349578026,-0.012787625615040387
4526,7.0,300.02952,1119.7236,0.0,0.0,0.0,0.0,-0.045109780176373036,0.0,-0.15611199006205387,-0.08334492547900373,-0.1009111175991519,-0.07315391941822973,-0.3727575068033016,-0.013044823954173888
4527,7.0,299.75458,1038.4028,0.0,0.0,0.0,0.0,-0.04511974698595686,0.0,-0.10531180463846591,-0.12252521144479689,-0.0878115082253211,-0.1005019925400244,-0.3863721532294626,-0.013941452007414187
4528,7.0,299.83006,795.86225,0.0,0.0,0.0,0.0,-0.045129713795540684,0.0,-0.05694597284512995,-0.06845792367702104,-0.11651835074446588,-0.10684411236719289,-0.3826369080608226,0.0002367375772141798
4529,7.0,299.25596,691.24895,0.0,0.0,0.0,0.0,-0.04513968060512451,0.0,-0.022015466528257376,-0.06783126091417423,-0.12027569489778689,-0.12041651639668488,-0.4059730204514176,0.006304385177544374
4530,7.0,299.68442000000005,774.95415,0.0,0.0,0.0,0.0,-0.045149647414708324,0.0,-0.07539282115719212,-0.05456457774460455,-0.1056093151328279,-0.0972391549655074,-0.38566484386465666,0.0002669102197519877
4531,7.0,299.44563999999997,1072.9773,0.0,0.0,0.0,0.0,-0.04515961422429214,0.0,-0.11811740125727989,-0.10626492847753191,-0.1017759873545079,-0.09796795333843422,-0.38949112955478166,-0.016509221291583286
4532,7.0,299.71184,781.25951,0.0,0.0,0.0,0.0,-0.045169581033875965,0.0,-0.08914605689228082,-0.07167675782619523,-0.07666056827155902,-0.10506759109936391,-0.39940476853318163,-0.023788963244537876
4533,7.0,300.65306,613.36115,0.0,0.0,0.0,0.0,-0.04517954784345979,0.0,-0.06273798906050744,-0.07457885911336033,-0.04912962478496645,-0.11638500703130589,-0.4052541600354716,-0.05434945157612325
4534,7.0,300.71615,1006.795,0.0,0.0,0.0,0.0,-0.04518951465304361,0.0,-0.08941855125492391,-0.08082928791247963,-0.13579270825419687,-0.08537446846905401,-0.4023095640523626,-0.02285757665986718
4535,7.0,301.24167,1255.0243,0.0,0.0,0.0,0.0,-0.04519948146262743,0.0,-0.1111633746284709,-0.12768956481947888,-0.14264310979527886,-0.09510300489268582,-0.3929798611065926,-0.02978545535659557
4536,7.0,301.20847000000003,856.04809,0.0,0.0,0.0,0.0,-0.045209448272211246,0.0,-0.06510675399853634,-0.08432044619828012,-0.11079004262912591,-0.1027162631823059,-0.3927099920749586,0.0076639227197952825
4537,7.0,300.22962,764.23953,0.0,0.0,0.0,0.0,-0.04521941508179507,0.0,-0.07741532509879773,-0.07351519779438513,-0.08137921217900293,-0.12529408959556387,-0.3998464341192706,0.0073968975772169526
4538,7.0,300.14232000000004,1042.5368,0.0,0.0,0.0,0.0,-0.04522938189137889,0.0,-0.07915888432762364,-0.11241038152654088,-0.12533588616218888,-0.1051736175898279,-0.38102423946666464,0.014673708602932286
4539,7.0,299.89671,1058.1144,0.0,0.0,0.0,0.0,-0.04523934870096272,0.0,-0.11642486829023987,-0.0974913326503954,-0.1077241606090469,-0.1025747526733399,-0.3832422743330676,-0.006914316850764942
4540,7.0,300.48427000000004,1120.2675,0.0,0.0,0.0,0.0,-0.045249315510546534,0.0,-0.06727270780979934,-0.13082362843878687,-0.14243701472493886,-0.0976406553176324,-0.4001199609837656,-0.017460978256264383
4541,7.0,300.34717,937.37491,0.0,0.0,0.0,0.0,-0.04525928232013035,0.0,-0.10341858735661989,-0.08817688215838072,-0.09334309788674651,-0.1089259360226529,-0.4019882016506466,-0.027892420459767576
4542,7.0,300.13781,683.61772,0.0,0.0,0.0,0.0,-0.045269249129714174,0.0,-0.07965335341617392,-0.05640305520304814,-0.07174630933955943,-0.08086469087097362,-0.41365015301409164,-0.025672039919383077
4543,7.0,300.47713,740.4472900000001,0.0,0.0,0.0,0.0,-0.045279215939298,0.0,-0.11447743199554289,-0.07168331355434222,-0.03891674569428376,-0.06831195081461464,-0.4140838747193966,-0.050461015151364454
4544,7.0,300.31955,1118.4147,0.0,0.0,0.0,0.0,-0.04528918274888182,0.0,-0.093198420971218,-0.1030954011047239,-0.14367631078974785,-0.08131917711057793,-0.4024025196165366,-0.0018850959809694882
4545,7.0,300.00413,917.3371199999999,0.0,0.0,0.0,0.0,-0.04529914955846564,0.0,-0.07923795329917713,-0.0884724512655511,-0.11113717198088491,-0.1016123879933619,-0.4119270604240356,-0.040099332177495964
4546,7.0,299.78047000000004,735.29313,0.0,0.0,0.0,0.0,-0.045309116368049455,0.0,-0.014245646912685884,-0.08199241796727162,-0.12727268333083588,-0.13245861893264788,-0.38119527608354464,-0.007871619738543383
4547,7.0,299.43664,876.6715300000001,0.0,0.0,0.0,0.0,-0.04531908317763328,0.0,-0.09256420949512621,-0.07747120482856262,-0.09645083929495672,-0.1189317503626499,-0.3748173226665897,-0.03309963431367957
4548,7.0,300.2156,902.8543800000001,0.0,0.0,0.0,0.0,-0.0453290499872171,0.0,-0.09656623936209582,-0.07757053778886602,-0.1003084100951693,-0.1073029728074789,-0.3944720542638606,0.023286136869162775
4549,7.0,300.36238,827.05938,0.0,0.0,0.0,0.0,-0.04533901679680093,0.0,-0.07616103090600852,-0.10386599807077591,-0.07137837391024703,-0.0936529943503309,-0.39863905543261163,-0.03319673407076257
4550,7.0,299.60905,726.1009,0.0,0.0,0.0,0.0,-0.04534898360638474,0.0,-0.05053824912698686,-0.07086618814369823,-0.09931210558984171,-0.09118721476822741,-0.4020619662579266,0.01978724849834938
4551,7.0,300.54675,762.9441,0.0,0.0,0.0,0.0,-0.04535895041596856,0.0,-0.06547423042555343,-0.07517607074880052,-0.09126565552471891,-0.0956422434236545,-0.4126856706414046,-0.03976121973837686
4552,7.0,300.61905,771.05175,0.0,0.0,0.0,0.0,-0.045368917225552384,0.0,-0.04170562134902436,-0.08004436662976393,-0.11263048984576389,-0.1111382764234939,-0.4122218047456246,-0.0018970714825763781
4553,7.0,299.4885,969.9384699999999,0.0,0.0,0.0,0.0,-0.0453788840351362,0.0,-0.11151298644297489,-0.0964745534002971,-0.08684953972613221,-0.10023277300170451,-0.40100725396383463,-0.03275693894435817
4554,7.0,300.40952999999996,1288.6553,0.0,0.0,0.0,0.0,-0.045388850844720025,0.0,-0.13701410018973886,-0.11946402077268088,-0.13524092264723986,-0.11421361206700588,-0.3864539022475306,0.0027945970727552578
4555,7.0,300.84252999999995,1007.0075,0.0,0.0,0.0,0.0,-0.04539881765430384,0.0,-0.12567671309832587,-0.09182873380404041,-0.0885996952131091,-0.09098902811491791,-0.4189347285131386,-0.01910471309848838
4556,7.0,300.49719,955.0275,0.0,0.0,0.0,0.0,-0.04540878446388766,0.0,-0.06954258865731913,-0.1036409349585639,-0.11712099137394189,-0.09273832841881041,-0.4200202436102706,-0.005019419600253146
4557,7.0,300.27898,1217.3917,0.0,0.0,0.0,0.0,-0.04541875127347148,0.0,-0.1151779627171799,-0.08969192917165422,-0.16518678968016684,-0.09858153200273971,-0.4074349782257016,0.01906562494938068
4558,7.0,299.70201000000003,1088.7958,0.0,0.0,0.0,0.0,-0.045428718083055306,0.0,-0.05635601810690595,-0.12205972434885688,-0.15255100364561186,-0.1107677713919279,-0.3747666702940906,-0.0013394425636176887
4559,7.0,300.41868,816.36651,0.0,0.0,0.0,0.0,-0.04543868489263913,0.0,-0.10176173092560091,-0.06263521814261473,-0.08375808226027912,-0.11552539604396889,-0.37063284293361365,0.0036565781534011665
4560,7.0,301.61464,789.74049,0.0,0.0,0.0,0.0,-0.045448651702222946,0.0,-0.07636987188411952,-0.06093494394481074,-0.1027565702712839,-0.1081236749909759,-0.36757939349226165,-0.030138020795141073
4561,7.0,301.0979,665.2763,0.0,0.0,0.0,0.0,-0.04545861851180676,0.0,-0.09102708072242341,-0.07070504591404474,-0.04049525762757076,-0.09401642588294881,-0.3984999159288796,-0.016236207131638883
4562,7.0,301.0139,740.76212,0.0,0.0,0.0,0.0,-0.04546858532139059,0.0,-0.05064662433118265,-0.07999905611179213,-0.09452750923338882,-0.08623677470165701,-0.39507101679547363,-0.04765021073795966
4563,7.0,300.77382,1083.0682,0.0,0.0,0.0,0.0,-0.04547855213097441,0.0,-0.08652879844672752,-0.1112786824898509,-0.13141820359746686,-0.10814073812265991,-0.4337595501962346,-0.032673012451825266
4564,7.0,300.231,999.8258800000001,0.0,0.0,0.0,0.0,-0.045488518940558234,0.0,-0.07632291179498493,-0.08699070066381373,-0.14060848332947687,-0.10435289514132891,-0.4283558164854276,-0.027941095981321475
4565,7.0,299.99262000000004,803.46611,0.0,0.0,0.0,0.0,-0.04549848575014205,0.0,-0.07346627200005652,-0.09814043484995681,-0.07262692905446984,-0.09763342375166871,-0.4050744094677316,-0.03576011496874857
4566,7.0,299.70506,879.14529,0.0,0.0,0.0,0.0,-0.04550845255972587,0.0,-0.08027394579767162,-0.09093743949932652,-0.09602682959186021,-0.07858219911270922,-0.38609926471253064,-0.00965406862078239
4567,7.0,298.64271,1265.4454,0.0,0.0,0.0,0.0,-0.04551841936930969,0.0,-0.15494341885422483,-0.11175937846979189,-0.1179610061043449,-0.10014419163821221,-0.39615067530702763,-0.008976668676403222
4568,7.0,300.08841,972.6896199999999,0.0,0.0,0.0,0.0,-0.045528386178893515,0.0,-0.08529794478175172,-0.07564264404884773,-0.13473276758958888,-0.1075180250087029,-0.39532839245337464,0.014206961023867884
4569,7.0,299.67505,618.6737,0.0,0.0,0.0,0.0,-0.04553835298847734,0.0,-0.03692919381487767,-0.07476239720997413,-0.07636976650610913,-0.1129323066530509,-0.39016382629617163,-0.029330293279174573
4570,7.0,300.52046,846.41094,0.0,0.0,0.0,0.0,-0.045548319798061156,0.0,-0.06883446362618265,-0.08242659360862142,-0.10602673364402389,-0.10112062630907881,-0.3794159886429426,0.015799579425047085
4571,7.0,300.45491,997.44825,0.0,0.0,0.0,0.0,-0.04555828660764497,0.0,-0.13143778972189987,-0.08293999527529022,-0.08882157368025681,-0.1265691331239009,-0.37101913440173767,-0.04588723865046786
4572,7.0,300.40907999999996,931.88132,0.0,0.0,0.0,0.0,-0.045568253417228796,0.0,-0.09200843978877601,-0.0987113131285481,-0.0925488982728651,-0.12258679678587489,-0.3956740424599876,-0.03486938504434036
4573,7.0,299.70146,941.58914,0.0,0.0,0.0,0.0,-0.04557822022681262,0.0,-0.12042334570235888,-0.08046684429870922,-0.08532940113110624,-0.12397099774748488,-0.4061611708624866,-0.022536088615138776
4574,7.0,300.04327,959.5356300000001,0.0,0.0,0.0,0.0,-0.045588187036396444,0.0,-0.05985813874553835,-0.11009259218779288,-0.12172414604823788,-0.0903103501581876,-0.4149340726133046,-0.02611301852190427
4575,7.0,299.26766000000003,772.45577,0.0,0.0,0.0,0.0,-0.04559815384598026,0.0,-0.07047596222543592,-0.07317341232365353,-0.09115789232358351,-0.08256701082072951,-0.4266611658256786,-0.01914166632963538
4576,7.0,299.96648999999996,1031.2943,0.0,0.0,0.0,0.0,-0.04560812065556408,0.0,-0.089000586601924,-0.09061357842286391,-0.13387356190229188,-0.08678626428388742,-0.40129249399948563,-0.012214140243941789
4577,7.0,298.84118,931.60102,0.0,0.0,0.0,0.0,-0.0456180874651479,0.0,-0.13422484557946085,-0.07978845714475763,-0.06917014021206135,-0.08988432104764182,-0.39006420354633964,-0.004429637418521175
4578,7.0,299.43477,645.1157400000001,0.0,0.0,0.0,0.0,-0.045628054274731725,0.0,-0.04252310950320416,-0.07073807280105422,-0.08283789411571363,-0.09745991885754511,-0.37053276422123665,-0.029067669999005678
4579,7.0,299.66378,843.1201300000001,0.0,0.0,0.0,0.0,-0.04563802108431555,0.0,-0.0916624402108785,-0.08554464787634943,-0.07908037872312572,-0.0987886849061841,-0.3633941234242076,-0.012741547053492787
4580,7.0,300.23814,1074.7579,0.0,0.0,0.0,0.0,-0.045647987893899365,0.0,-0.07230799845299384,-0.09811003228070632,-0.15628152706878584,-0.11878827414848989,-0.38627419220979464,-0.00982727997635202
4581,7.0,299.75104,755.4003799999999,0.0,0.0,0.0,0.0,-0.04565795470348318,0.0,-0.05952958834761295,-0.07393494272781072,-0.0961583231103376,-0.1041982630435679,-0.4025543855415246,-0.01886591943417128
4582,7.0,300.88939,840.8974099999999,0.0,0.0,0.0,0.0,-0.045667921513067006,0.0,-0.050460260280039956,-0.1030775071079579,-0.10207404500392389,-0.12639222978894188,-0.41844155942446665,-0.01111152655137229
4583,7.0,299.71904,1172.8602,0.0,0.0,0.0,0.0,-0.04567788832265083,0.0,-0.15238902548462585,-0.1000999896158498,-0.1040312084995809,-0.09328449656721301,-0.40791481294305765,-0.029069924480478175
4584,7.0,300.13318,979.2248199999999,0.0,0.0,0.0,0.0,-0.04568785513223465,0.0,-0.08573001184964342,-0.09636963743194271,-0.11556024171490789,-0.11854784003226089,-0.4126253315979496,-0.017208939386640084
4585,7.0,299.93068999999997,787.27835,0.0,0.0,0.0,0.0,-0.04569782194181847,0.0,-0.08693933698974451,-0.07702826457384783,-0.07534535849600793,-0.09216537095101392,-0.39910417775851564,-0.030973179017814767
4586,7.0,300.51491,1021.6539,0.0,0.0,0.0,0.0,-0.04570778875140229,0.0,-0.06214151203138975,-0.08533455756086511,-0.16308121544236284,-0.10561739073612489,-0.39040382471485763,0.008922320170189442
4587,7.0,299.85393,971.97305,0.0,0.0,0.0,0.0,-0.04571775556098611,0.0,-0.08846328337864633,-0.09649338971965611,-0.1104988649478889,-0.09602800496197622,-0.3776736645659886,0.005691405242722964
4588,7.0,300.83817,726.7195,0.0,0.0,0.0,0.0,-0.045727722370569934,0.0,-0.05242529875547415,-0.06187236646032715,-0.1066069105187829,-0.08401926064580542,-0.41595822528438064,0.000940080544106226
4589,7.0,300.50832,945.8426199999999,0.0,0.0,0.0,0.0,-0.04573768918015376,0.0,-0.12415222766037089,-0.06727889978116043,-0.0960814062819965,-0.09426041954677909,-0.40292963258355863,0.0019418467005203482
4590,7.0,299.76401,1036.4507,0.0,0.0,0.0,0.0,-0.045747655989737575,0.0,-0.06964805076747743,-0.11544276549831389,-0.12996430116147786,-0.10228002861675291,-0.4069487701652166,-0.04777423761645016
4591,7.0,299.16057,710.7098900000001,0.0,0.0,0.0,0.0,-0.04575762279932139,0.0,-0.061844430141820034,-0.07602685227476613,-0.07816677771746033,-0.1021644775753489,-0.3875443316076476,-0.02684044495419568
4592,7.0,299.09475,959.23788,0.0,0.0,0.0,0.0,-0.045767589608905215,0.0,-0.05241086399454955,-0.12306721918828888,-0.11610628219379789,-0.10534293168153791,-0.3856849467466406,-0.05979492004529914
4593,7.0,299.66364,1139.7845,0.0,0.0,0.0,0.0,-0.04577755641848904,0.0,-0.12010640107107888,-0.07091474106199003,-0.15544489659371685,-0.11588578883953689,-0.3947077970321266,0.02057047562689788
4594,7.0,300.14878,750.92755,0.0,0.0,0.0,0.0,-0.04578752322807286,0.0,-0.07385873517453964,-0.06351105633030324,-0.09089343404748351,-0.10651494793970691,-0.4010584940213916,-0.024787760345111477
4595,7.0,299.62652,882.28211,0.0,0.0,0.0,0.0,-0.04579749003765668,0.0,-0.09527560698097032,-0.07814068450088513,-0.0947754393738576,-0.10830047700092489,-0.3886111421079336,0.006772852849978534
4596,7.0,299.03176,1171.4533,0.0,0.0,0.0,0.0,-0.045807456847240496,0.0,-0.1148009424874709,-0.0984509716876044,-0.14284064290227386,-0.0862621272324091,-0.4224886323113816,-0.019199380042081285
4597,7.0,301.09938999999997,1062.7347,0.0,0.0,0.0,0.0,-0.04581742365682432,0.0,-0.0963008823331571,-0.1042535358365229,-0.12249037590635889,-0.10039360821657771,-0.4146915714668716,-0.002976342932592177
4598,7.0,301.10995,832.0145200000001,0.0,0.0,0.0,0.0,-0.045827390466408144,0.0,-0.06405010639675335,-0.07078185027162473,-0.1180796779560569,-0.09073846453743922,-0.39152849179585364,-0.03873748756609236
4599,7.0,300.74751000000003,1050.0095,0.0,0.0,0.0,0.0,-0.04583735727599197,0.0,-0.0965731193302748,-0.1046457750827339,-0.11795777383652588,-0.09321093258345281,-0.37377479977120065,-0.00970146511673506
4600,7.0,299.92507,854.29336,0.0,0.0,0.0,0.0,-0.045847324085575784,0.0,-0.07143187452877713,-0.09739056898095082,-0.09086140521182251,-0.09054280695637931,-0.37989747495796167,-0.028276767500949675
4601,7.0,299.75562,920.52859,0.0,0.0,0.0,0.0,-0.0458572908951596,0.0,-0.08400742183163702,-0.0987713836607266,-0.0970389002687438,-0.11753445820974788,-0.3972246494855206,-0.01946470160726648
4602,7.0,300.4015,1181.1008,0.0,0.0,0.0,0.0,-0.045867257704743425,0.0,-0.12429370777183386,-0.1068021638130529,-0.12792927952813687,-0.11478832752372588,-0.4131756479922616,-0.03944983785014586
4603,7.0,299.91322,1008.8863,0.0,0.0,0.0,0.0,-0.04587722451432724,0.0,-0.0983173361584156,-0.09234532822177433,-0.11601357994214888,-0.11812466626049689,-0.3926829382972886,-0.01117006504939959
4604,7.0,299.24453,679.67269,0.0,0.0,0.0,0.0,-0.04588719132391107,0.0,-0.04893765036802005,-0.06805116253037684,-0.08961471242128352,-0.1071164841265739,-0.41916511118837557,-0.023509447058701775
4605,7.0,299.93509,951.56719,0.0,0.0,0.0,0.0,-0.04589715813349489,0.0,-0.1018558719923919,-0.06624062645669083,-0.12115616870468289,-0.12270727222276488,-0.4064901022424496,0.02096468969755378
4606,7.0,300.065,1065.6586,0.0,0.0,0.0,0.0,-0.045907124943078706,0.0,-0.11814283383478989,-0.06941765897298953,-0.13637311817647887,-0.10618207501685491,-0.41571911852578264,0.005074414256055695
4607,7.0,301.41868999999997,984.6155699999999,0.0,0.0,0.0,0.0,-0.04591709175266253,0.0,-0.08858847144175142,-0.0928391579495115,-0.11787091803795388,-0.08615762669659573,-0.38143721994242263,-0.008017263294667282
4608,7.0,300.97581,1105.0524,0.0,0.0,0.0,0.0,-0.045927058562246346,0.0,-0.07935870028709392,-0.13138616462930486,-0.1251634512601709,-0.07773435702528372,-0.3988790133212936,-0.04477983127167526
4609,7.0,300.3681,1121.9195,0.0,0.0,0.0,0.0,-0.04593702537183016,0.0,-0.11653175604328889,-0.1041172131680689,-0.12038655459122789,-0.09026715226667431,-0.40134827341749063,-0.0003971833291464426
4610,7.0,300.50576,845.6375699999999,0.0,0.0,0.0,0.0,-0.04594699218141399,0.0,-0.06442741134974045,-0.08988392385360261,-0.1027413715197839,-0.11431675079468488,-0.4048809192286356,-0.04080115377976036
4611,7.0,300.06768999999997,734.95436,0.0,0.0,0.0,0.0,-0.045956958990997804,0.0,-0.09813684186510221,-0.035511243518936864,-0.08975968723234141,-0.11632790025566989,-0.3844125478010646,-0.003757414574202947
4612,7.0,298.81231,691.70718,0.0,0.0,0.0,0.0,-0.04596692580058163,0.0,-0.05804914483850454,-0.05759811479499135,-0.09461445217146941,-0.11505134698468389,-0.4181011884508746,-0.02210491624708538
4613,7.0,300.22037,401.35501,0.0,0.0,0.0,0.0,-0.04597689261016545,0.0,-0.04503477715583645,-0.034848660026794966,-0.04211846402276876,-0.13998553716799686,-0.4249309906174236,-0.02154644217621828
4614,7.0,298.99242999999996,585.5081799999999,0.0,0.0,0.0,0.0,-0.04598685941974927,0.0,-0.044459051488766756,-0.03886626760080196,-0.0946545485044266,-0.0980713382858875,-0.4397156369340546,-0.02109729475139088
4615,7.0,300.43789,1337.2197,0.0,0.0,0.0,0.0,-0.04599682622933309,0.0,-0.15788365786190384,-0.10584555439364289,-0.14275218616854385,-0.0952476544504616,-0.4187000496574776,0.015838654401903483
4616,7.0,300.17672999999996,1226.1349,0.0,0.0,0.0,0.0,-0.04600679303891691,0.0,-0.1015714932193259,-0.09544553915524132,-0.17569736468997982,-0.0878576161711216,-0.42385234535596955,0.015414273849270384
4617,7.0,299.78541,808.9569700000001,0.0,0.0,0.0,0.0,-0.04601675984850073,0.0,-0.08630129137527431,-0.06338596959220814,-0.09621545623047623,-0.07807401163105501,-0.4110002000275616,-0.01131346020355159
4618,7.0,300.9794,1231.2323,0.0,0.0,0.0,0.0,-0.046026726658084556,0.0,-0.1017128720057789,-0.1300530922677409,-0.14249793132095087,-0.0982218342967403,-0.3820645534768356,-0.0038281076151298063
4619,7.0,301.29775,1226.4783,0.0,0.0,0.0,0.0,-0.04603669346766837,0.0,-0.1403217943461829,-0.0959842649816594,-0.13651271364275586,-0.1030394089041979,-0.35878229532905564,-0.019448693268936584
4620,7.0,300.65566,695.5264099999999,0.0,0.0,0.0,0.0,-0.0460466602772522,0.0,-0.05090893350382055,-0.096071957724814,-0.06444176910365744,-0.1114941197261129,-0.41965731768945264,-0.06068535714042845
4621,7.0,301.14019,505.50060999999994,0.0,0.0,0.0,0.0,-0.04605662708683601,0.0,-0.04504068541716955,-0.061963868010607645,-0.04665500966199095,-0.11681453388119689,-0.4204975755998796,-0.022732277139251078
4622,7.0,299.63237000000004,315.0011,0.0,0.0,0.0,0.0,-0.04606659389641984,0.0,-0.028593410183699874,-0.007812031513412482,-0.05934702905059574,-0.1063505481109819,-0.43948956057174254,-0.016627112940718284
4623,7.0,299.2546,537.0337900000001,0.0,0.0,0.0,0.0,-0.04607656070600366,0.0,-0.06799990220781783,-0.05271876334218686,-0.04252619788950896,-0.12108306270996787,-0.3944757931567296,-0.03189583239987357
4624,7.0,299.43541,1178.1382,0.0,0.0,0.0,0.0,-0.046086527515587485,0.0,-0.1186606552983949,-0.1045536098536379,-0.13491033966961385,-0.1101211354431099,-0.39148364534642766,-0.026727129142512275
4625,7.0,299.64763,1309.5078,0.0,0.0,0.0,0.0,-0.0460964943251713,0.0,-0.13648493032501388,-0.12173402523671288,-0.13983871722850685,-0.11329486780383288,-0.3813749658562786,-0.01951458593618968
4626,7.0,299.58507000000003,923.2026300000001,0.0,0.0,0.0,0.0,-0.04610646113475512,0.0,-0.052931378676920354,-0.1144072846911199,-0.1132918888485389,-0.09328632751014372,-0.3940892483760806,-0.03405687802765217
4627,7.0,299.51802000000004,892.32659,0.0,0.0,0.0,0.0,-0.04611642794433894,0.0,-0.07455295537455384,-0.07357385180292383,-0.12311819580081987,-0.12755440738863988,-0.4072529174477336,0.006142866120178683
4628,7.0,299.05399,1273.1742,0.0,0.0,0.0,0.0,-0.046126394753922766,0.0,-0.10950565693486689,-0.12015087261796789,-0.15735664621989184,-0.09734220554042772,-0.4311416564428686,0.006832591340099264
4629,7.0,300.39063,970.50165,0.0,0.0,0.0,0.0,-0.04613636156350659,0.0,-0.1058009308592389,-0.07361968414469713,-0.11558765013011288,-0.10843311143901489,-0.4183409031595326,0.013610106052462887
4630,7.0,299.83015,453.93237999999997,0.0,0.0,0.0,0.0,-0.046146328373090406,0.0,-0.019194245903824583,-0.062099855293278536,-0.05669000864461824,-0.06143886564354395,-0.4075687677689056,-0.03403201287019817
4631,7.0,299.91782,725.0102,0.0,0.0,0.0,0.0,-0.04615629518267422,0.0,-0.07534679629789984,-0.09325392073219542,-0.05178428127846065,-0.11513232593267587,-0.37722758120946365,-0.023801713983796276
4632,7.0,299.41607999999997,965.1196199999999,0.0,0.0,0.0,0.0,-0.04616626199225805,0.0,-0.09904848932457481,-0.08108458235467522,-0.1132391897108379,-0.1067102924264859,-0.39537331996280867,-0.03514832266436937
4633,7.0,299.5575,991.3661900000001,0.0,0.0,0.0,0.0,-0.04617622880184187,0.0,-0.07412405977947513,-0.11810793750134589,-0.1091185751316649,-0.12381678108226488,-0.41409348033034465,-0.04389953681004696
4634,7.0,300.58397,1062.9786,0.0,0.0,0.0,0.0,-0.046186195611425694,0.0,-0.1013097058704895,-0.07489577942663793,-0.14691346247422984,-0.11424276327238289,-0.41891629749381964,-0.0024868484967328374
4635,7.0,300.37987000000004,976.36366,0.0,0.0,0.0,0.0,-0.04619616242100951,0.0,-0.11068592104884989,-0.05394326494228574,-0.13216098684827388,-0.09325882790242972,-0.4047934960100076,0.027163948353372977
4636,7.0,298.95727,883.8394900000001,0.0,0.0,0.0,0.0,-0.04620612923059333,0.0,-0.06809762612696244,-0.09053422067503192,-0.11003328665943989,-0.1083506531458769,-0.4120562396792846,-0.016207841195089383
4637,7.0,298.73366,1387.8968,0.0,0.0,0.0,0.0,-0.04621609604017715,0.0,-0.14285674344636284,-0.10435810324684289,-0.17467114498869982,-0.1022241478737379,-0.38772538926801664,0.003133329114310507
4638,7.0,299.98147,1297.0084,0.0,0.0,0.0,0.0,-0.046226062849760975,0.0,-0.1029186700222819,-0.12102553036928987,-0.17031395677617883,-0.08374005451449992,-0.38682811577446263,0.0043335418936122855
4639,7.0,299.57775,495.5946,0.0,0.0,0.0,0.0,-0.0462360296593448,0.0,-0.02033255842391728,-0.06784572708585193,-0.06247009991956885,-0.0940875023377135,-0.3793799270718836,-0.01840639126206938
4640,7.0,300.244,493.67785999999995,0.0,0.0,0.0,0.0,-0.046245996468928616,0.0,-0.02938104900318377,-0.04309194202984355,-0.07759275127080832,-0.07541338608122172,-0.4193339287875366,0.007995914621685331
4641,7.0,300.53651,997.3588300000001,0.0,0.0,0.0,0.0,-0.04625596327851243,0.0,-0.12134934483624789,-0.0916460063075066,-0.09017682406000961,-0.09572247256657251,-0.4152454950315396,0.004915541301326155
4642,7.0,300.23017999999996,1023.9923,0.0,0.0,0.0,0.0,-0.046265930088096256,0.0,-0.09680712640111949,-0.1029863044664569,-0.1114746450591909,-0.09489779438968311,-0.4122801679513846,-0.035163207308338364
4643,7.0,300.26502999999997,866.85692,0.0,0.0,0.0,0.0,-0.04627589689768008,0.0,-0.08022274019061802,-0.0993158829862145,-0.08396423508587482,-0.10136208482115891,-0.40362700196488366,-0.04316433570973826
4644,7.0,301.01128,903.0279,0.0,0.0,0.0,0.0,-0.046285863707263904,0.0,-0.06621753955316234,-0.0978366148472221,-0.1104437846724529,-0.13594829280705187,-0.41722897263229364,-0.047741957494764356
4645,7.0,301.01614,876.9694400000001,0.0,0.0,0.0,0.0,-0.04629583051684772,0.0,-0.07518233668741893,-0.06428004729494674,-0.12711442379771687,-0.12393921209184788,-0.4156891769853276,-0.017075335268204383
4646,7.0,300.34463,830.86398,0.0,0.0,0.0,0.0,-0.04630579732643154,0.0,-0.05992588363397424,-0.07993455868992672,-0.1127014578827679,-0.09518818882859281,-0.40075935219436865,-0.0001285084431527959
4647,7.0,300.05447000000004,1022.2576,0.0,0.0,0.0,0.0,-0.04631576413601536,0.0,-0.09998954535494982,-0.07934829623506712,-0.13140295418346187,-0.06845400341238414,-0.39458770663027465,0.02088846998528148
4648,7.0,299.84197,793.5099299999999,0.0,0.0,0.0,0.0,-0.046325730945599185,0.0,-0.07043316760746243,-0.05923981807076485,-0.1115342140325699,-0.08510721159617783,-0.4244606804510076,-0.0014718217640074987
4649,7.0,299.78035,584.96958,0.0,0.0,0.0,0.0,-0.04633569775518301,0.0,-0.046469269772909855,-0.09187080901444292,-0.03947606785548456,-0.1073123555034049,-0.4154666166008626,-0.056752621421297646
4650,7.0,299.16836,1139.9167,0.0,0.0,0.0,0.0,-0.04634566456476682,0.0,-0.10576416001310991,-0.10116402381086181,-0.13957801811027787,-0.12136317570011287,-0.37399646849557766,-0.01926573171162968
4651,7.0,298.87483,1371.777,0.0,0.0,0.0,0.0,-0.04635563137435064,0.0,-0.12857351407421788,-0.13929480457482687,-0.14911763607926487,-0.09776800059020041,-0.3898929845444416,-0.025615236105526976
4652,7.0,299.80773999999997,753.20823,0.0,0.0,0.0,0.0,-0.046365598183934466,0.0,-0.05323306173519415,-0.08638315894360402,-0.08934027565819873,-0.12274381002137087,-0.40134597333976363,-0.01017730185317149
4653,7.0,300.57817,609.42632,0.0,0.0,0.0,0.0,-0.04637556499351829,0.0,-0.06495101239191585,-0.03759899468748187,-0.08270037682539172,-0.10253585400200091,-0.4299979706574956,-0.011237224279277688
4654,7.0,301.34367000000003,1015.9672,0.0,0.0,0.0,0.0,-0.04638553180310211,0.0,-0.1065097600991949,-0.08715500626027942,-0.11516388867329089,-0.09208326121591032,-0.4162160873023296,0.01068837101811009
4655,7.0,300.42052,960.6194,0.0,0.0,0.0,0.0,-0.04639549861268593,0.0,-0.11593619803201188,-0.08164366640210252,-0.09442444548621722,-0.08388879557617952,-0.4296988186979716,-0.042493275367259754
4656,7.0,300.90172,1043.7068,0.0,0.0,0.0,0.0,-0.04640546542226975,0.0,-0.11362344454626089,-0.07598980075835943,-0.12764754533783187,-0.08139111077492722,-0.4226226954321126,-0.027536519401892876
4657,7.0,299.14727999999997,1068.3565,0.0,0.0,0.0,0.0,-0.04641543223185357,0.0,-0.10876419090918989,-0.0889616788113341,-0.12702782131166987,-0.12053161147554388,-0.40399496373869864,-0.027957187406159573
4658,7.0,299.65969,880.73904,0.0,0.0,0.0,0.0,-0.04642539904143739,0.0,-0.06374693892708304,-0.07991592299408752,-0.12405980911874988,-0.090971064203895,-0.3726436782870676,-0.008246046453296423
4659,7.0,297.70092999999997,853.53662,0.0,0.0,0.0,0.0,-0.046435365851021204,0.0,-0.054977087059066045,-0.1109190394993569,-0.0935576941254255,-0.0993177808036518,-0.39895116686091464,-0.03783363909263947
4660,7.0,297.91031,1187.0434,0.0,0.0,0.0,0.0,-0.046445332660605035,0.0,-0.1146578817058519,-0.11192415320105388,-0.13424949795439386,-0.11709555879643188,-0.42801864738215156,-0.013307517148599688
4661,7.0,299.2437,835.5017,0.0,0.0,0.0,0.0,-0.04645529947018885,0.0,-0.07844991221940352,-0.08512647550707901,-0.09039526659606822,-0.1146720773397529,-0.44897662125804255,-0.05276228344723195
4662,7.0,299.7801,329.15237,0.0,0.0,0.0,0.0,-0.046465266279772675,0.0,0.0002899379393421467,-0.06101947332115314,-0.03932456771378266,-0.11562241474104389,-0.3956403721591646,-0.02894197429760047
4663,7.0,299.78862999999996,670.62525,0.0,0.0,0.0,0.0,-0.04647523308935649,0.0,-0.06303656549397464,-0.05329654995995995,-0.08752021503357273,-0.1083580802691099,-0.38957352705291365,-0.02124718585193398
4664,7.0,300.56416,1153.2338,0.0,0.0,0.0,0.0,-0.04648519989894031,0.0,-0.1096775345493299,-0.07882174258210033,-0.16205498560858184,-0.10697448725755991,-0.40036471154542064,0.01891801163506238
4665,7.0,300.32074,949.0746800000001,0.0,0.0,0.0,0.0,-0.04649516670852413,0.0,-0.07951702770796963,-0.09121671047863841,-0.11776126411213188,-0.1192856583575779,-0.41868516501350866,-0.01956518764618368
4666,7.0,299.76635,1010.1033,0.0,0.0,0.0,0.0,-0.04650513351810795,0.0,-0.09051297687343532,-0.05991084801574034,-0.15662237426992487,-0.09994349719090521,-0.40168155164038266,0.00923417595549221
4667,7.0,300.35092000000003,1259.8296,0.0,0.0,0.0,0.0,-0.04651510032769177,0.0,-0.11762292507597889,-0.13708831062706286,-0.12824550475184587,-0.1163133702492359,-0.40740493536023664,-0.04725966564591586
4668,7.0,300.25697,1011.2933,0.0,0.0,0.0,0.0,-0.0465250671372756,0.0,-0.08980586509239881,-0.08442171041327412,-0.13318034684637686,-0.13316763055762187,-0.4066801778287086,-0.03031481165933897
4669,7.0,300.66826000000003,1107.1583,0.0,0.0,0.0,0.0,-0.046535033946859414,0.0,-0.11884840040942388,-0.09619570798602721,-0.12150438223404889,-0.11757611292135889,-0.42057751090026857,-0.030856024001502474
4670,7.0,301.242,1026.5953,0.0,0.0,0.0,0.0,-0.04654500075644324,0.0,-0.08686798797070291,-0.08666108736653343,-0.13853027697687387,-0.0947714654069654,-0.3471854858145397,0.026088623512496675
4671,7.0,300.88012000000003,419.88515,0.0,0.0,0.0,0.0,-0.046554967566027054,0.0,-0.01922677933803538,-0.027623463353223576,-0.08078436040304562,-0.08306515294089233,-0.3841297800956576,-0.0015976603336767983
4672,7.0,300.58184,558.1807200000001,0.0,0.0,0.0,0.0,-0.04656493437561088,0.0,-0.03141255263217757,-0.06905125557782833,-0.06920919188416544,-0.09908009867469442,-0.40270052660344763,0.01736697195173668
4673,7.0,300.16693,1181.9437,0.0,0.0,0.0,0.0,-0.0465749011851947,0.0,-0.12697487899394488,-0.1031333979834739,-0.1291731048208929,-0.1022069631520419,-0.43461429758309156,-0.018342827043546086
4674,7.0,299.68622999999997,1163.9341,0.0,0.0,0.0,0.0,-0.04658486799477852,0.0,-0.10505261526288591,-0.11367639699648689,-0.13507790083865087,-0.08610870596851761,-0.3969937095227286,-0.03497287739630427
4675,7.0,299.41142,851.99554,0.0,0.0,0.0,0.0,-0.04659483480436234,0.0,-0.07497460116516702,-0.10796760407807289,-0.07604316661462622,-0.1049716768448979,-0.4172383857257226,-0.07053732059849152
4676,7.0,299.31498,1035.2695,0.0,0.0,0.0,0.0,-0.04660480161394616,0.0,-0.07044415731804703,-0.10875197111298389,-0.13549994990280387,-0.12801085629368789,-0.41129113452877464,-0.024055228145566182
4677,7.0,299.97843,841.57106,0.0,0.0,0.0,0.0,-0.04661476842352998,0.0,-0.060165483845370946,-0.08623949426492543,-0.1094116070605849,-0.1097426763982589,-0.4119055288594106,-0.024003221057683478
4678,7.0,299.84674,682.51922,0.0,0.0,0.0,0.0,-0.046624735233113807,0.0,-0.03565331942145867,-0.08267706700684122,-0.0891384149600266,-0.11023899669474191,-0.3688504346827036,-0.027676462412954173
4679,7.0,300.27036,850.81113,0.0,0.0,0.0,0.0,-0.04663470204269762,0.0,-0.08226022807470242,-0.06306041233507814,-0.11330469632980289,-0.08456361406327892,-0.3875509987933056,-0.017066997233131483
4680,7.0,300.18216,765.1134400000001,0.0,0.0,0.0,0.0,-0.04664466885228145,0.0,-0.06942027417149764,-0.08256508868528983,-0.08059001599411532,-0.10810628761925992,-0.4176160443029946,-0.029658963240611767
4681,7.0,300.62594,551.56062,0.0,0.0,0.0,0.0,-0.046654635661865264,0.0,-0.052130293015359354,-0.051542352618334154,-0.06398800936437485,-0.09374872318002861,-0.4413478713876436,-0.014604408375592886
4682,7.0,299.4682,1104.8483,0.0,0.0,0.0,0.0,-0.04666460247144909,0.0,-0.11031588211232989,-0.09472050703293622,-0.13080991916493387,-0.07564755121908202,-0.4188862546283546,0.019232724076372085
4683,7.0,299.12934,1441.767,0.0,0.0,0.0,0.0,-0.04667456928103291,0.0,-0.15790193689370785,-0.14043370781972786,-0.13992552236457387,-0.10031211555078501,-0.4146818037359076,0.013206752465904987
4684,7.0,299.03002000000004,945.3036,0.0,0.0,0.0,0.0,-0.04668453609061673,0.0,-0.08409818978884512,-0.07265276389226952,-0.1305977344614929,-0.0951902183685431,-0.4073354365358776,0.0029047584342273376
4685,7.0,298.60537,841.7803,0.0,0.0,0.0,0.0,-0.04669450290020055,0.0,-0.07074188768768074,-0.09586507029289582,-0.08927323396533222,-0.13155156757562886,-0.4144788801383806,-0.039623125908748065
4686,7.0,298.92971,1072.7481,0.0,0.0,0.0,0.0,-0.04670446970978437,0.0,-0.12209206729204888,-0.07288305740149773,-0.1311135091598959,-0.1065399954821789,-0.37905376186469364,-0.008391062503633391
4687,7.0,299.81426,924.7425900000001,0.0,0.0,0.0,0.0,-0.04671443651936819,0.0,-0.1023510067862579,-0.06918525182405273,-0.1095623989404669,-0.1220474944201499,-0.4129523682002256,-0.03987681434953516
4688,7.0,299.38797,674.79357,0.0,0.0,0.0,0.0,-0.046724403328952016,0.0,-0.05607146809457304,-0.06955696566298802,-0.07949196294024592,-0.12315728698967787,-0.41306650069148965,-0.02474138084828418
4689,7.0,300.09394,719.7554200000001,0.0,0.0,0.0,0.0,-0.04673437013853583,0.0,-0.07164958955126394,-0.05774534814052215,-0.08939273870862642,-0.089408014467134,-0.4410644146721686,-0.006293743619694135
4690,7.0,299.56997,669.67166,0.0,0.0,0.0,0.0,-0.04674433694811966,0.0,-0.03389493026416917,-0.07599089304196723,-0.09367763963251322,-0.07742071457607963,-0.3974154748768536,-0.014249449640311185
4691,7.0,299.35684,926.20585,0.0,0.0,0.0,0.0,-0.04675430375770347,0.0,-0.08412172657541803,-0.10377529192182389,-0.0936464305161831,-0.08252891059046932,-0.39710110390082765,-0.038563044402376165
4692,7.0,300.26799,1332.5839,0.0,0.0,0.0,0.0,-0.0467642705672873,0.0,-0.1124291975808979,-0.1398125044484199,-0.15283052895069885,-0.09512700980080491,-0.43635186951707655,-0.02404674116272858
4693,7.0,299.93199,754.74718,0.0,0.0,0.0,0.0,-0.04677423737687112,0.0,-0.07257418229401413,-0.07778994899202023,-0.07906016539688082,-0.08534425436432211,-0.4366870222526536,-0.02813906579910957
4694,7.0,299.40292999999997,462.58777000000003,0.0,0.0,0.0,0.0,-0.046784204186454945,0.0,-0.027887689595050676,-0.05846952913274324,-0.05425791354883915,-0.09439470254278182,-0.42349115209282256,-0.03282424914850117
4695,7.0,299.88155,1054.9406,0.0,0.0,0.0,0.0,-0.04679417099603876,0.0,-0.13569217357927488,-0.07633517718744542,-0.1086482447002469,-0.08858842685874702,-0.40030183937671565,0.004494967225343725
4696,7.0,299.90106000000003,1242.4615,0.0,0.0,0.0,0.0,-0.04680413780562258,0.0,-0.1207555296151429,-0.0946618064148929,-0.16225994583880984,-0.16394037046715484,-0.4093148104737266,-0.033805019516545666
4697,7.0,300.20497,895.1465400000001,0.0,0.0,0.0,0.0,-0.0468141046152064,0.0,-0.07801857469158383,-0.07307989643217423,-0.12100372522713788,-0.12261938290909088,-0.4054718264219536,-0.01021101369724859
4698,7.0,299.84642,832.56789,0.0,0.0,0.0,0.0,-0.046824071424790226,0.0,-0.05394629152033445,-0.07991937615042832,-0.11921418369552389,-0.1112864946481219,-0.3797607773869706,-0.03099925500913827
4699,7.0,299.75444,1122.7596,0.0,0.0,0.0,0.0,-0.04683403823437405,0.0,-0.13003527933098288,-0.08114206808584863,-0.13011353263620587,-0.10686615055686789,-0.38436100376847765,0.007295318748066903
4700,7.0,301.18295,1094.8448,0.0,0.0,0.0,0.0,-0.046844005043957866,0.0,-0.11899538246892989,-0.07948141804645523,-0.13432867331720788,-0.10390598091972189,-0.44061111697493155,-0.02091484285888428
4701,7.0,300.65189,958.3892300000001,0.0,0.0,0.0,0.0,-0.04685397185354168,0.0,-0.11897259447418089,-0.07677743856459322,-0.0955763629154026,-0.12240488799542189,-0.4227848559781166,0.009315434155211771
4702,7.0,300.45367999999996,805.75377,0.0,0.0,0.0,0.0,-0.04686393866312551,0.0,-0.06677728930590535,-0.07936520940573633,-0.09878652769672122,-0.06733570562151674,-0.39824663380138264,0.015715104764210085
4703,7.0,300.19219,636.09243,0.0,0.0,0.0,0.0,-0.04687390547270933,0.0,-0.04883397968403855,-0.05846459967100674,-0.08605763613697742,-0.10380265980702491,-0.37314276475632363,-0.007786703807287832
4704,7.0,300.04469,983.3463800000001,0.0,0.0,0.0,0.0,-0.046883872282293154,0.0,-0.07613328609177034,-0.1067877655291319,-0.1159916937399889,-0.12266394564848888,-0.38781984444233863,-0.02335441371390118
4705,7.0,300.39703,1341.7458,0.0,0.0,0.0,0.0,-0.04689383909187697,0.0,-0.12991393249900687,-0.1073193570615959,-0.17062393024677086,-0.11671073654095289,-0.4199812334814206,-0.02162518285473938
4706,7.0,299.72573,867.9734900000001,0.0,0.0,0.0,0.0,-0.04690380590146079,0.0,-0.08395342168080762,-0.07827731722386973,-0.1016115267307769,-0.08504818572485241,-0.4102463419531616,-0.02022874588492178
4707,7.0,298.80249,546.5966599999999,0.0,0.0,0.0,0.0,-0.04691377271104461,0.0,-0.06180991884341404,-0.04893522870028105,-0.055406587564454456,-0.09380382270721652,-0.41959549930085166,-0.04136561818521866
4708,7.0,300.68676,1011.1673,0.0,0.0,0.0,0.0,-0.046923739520628435,0.0,-0.10860648866362589,-0.08573483086711901,-0.11302830196752489,-0.10035396480641522,-0.44391434269843455,-0.04238984786330226
4709,7.0,300.12638,995.63189,0.0,0.0,0.0,0.0,-0.04693370633021226,0.0,-0.09128238124411961,-0.09803451475075331,-0.1133303416898339,-0.12565112853330088,-0.4069546267507946,-0.025758135780380075
4710,7.0,300.37144,758.6255,0.0,0.0,0.0,0.0,-0.046943673139796076,0.0,-0.03129322419440077,-0.09597011697051311,-0.1033398679563509,-0.09064839470955001,-0.3850756997265126,-0.048523201692867154
4711,7.0,300.16933,725.5889999999999,0.0,0.0,0.0,0.0,-0.04695363994937989,0.0,-0.06357424260653924,-0.06622782201517713,-0.09075887139445322,-0.10952694531946788,-0.37590790401422164,0.0004800322099329905
4712,7.0,300.22352,737.58145,0.0,0.0,0.0,0.0,-0.046963606758963716,0.0,-0.07277668944575003,-0.05778093145753395,-0.09364872147465922,-0.11822661948555889,-0.4150859588032946,-0.016270444852517885
4713,7.0,300.98555,941.43465,0.0,0.0,0.0,0.0,-0.04697357356854753,0.0,-0.1007187976639214,-0.0889883009444615,-0.09646552838165641,-0.11753736623753488,-0.43980292843016955,0.023319107014166677
4714,7.0,299.90016,1285.3667,0.0,0.0,0.0,0.0,-0.04698354037813135,0.0,-0.11475554888299089,-0.1111619560783309,-0.16480187623217885,-0.09138895083663721,-0.4248113460456156,-0.008233828379615593
4715,7.0,298.48857999999996,1185.6848,0.0,0.0,0.0,0.0,-0.046993507187715174,0.0,-0.11859420635683689,-0.08302567570374622,-0.15879868349720985,-0.09622486527090482,-0.4086180693074636,0.016600071322049485
4716,7.0,299.53258,823.56441,0.0,0.0,0.0,0.0,-0.047003473997299,0.0,-0.05236347530062265,-0.0869265609192336,-0.11105298103007588,-0.0931111760846076,-0.42074265040156655,-0.02218561351154958
4717,7.0,300.3357,949.88094,0.0,0.0,0.0,0.0,-0.04701344080688282,0.0,-0.10648647561189689,-0.07549191701697214,-0.10676169460405889,-0.15106735218668685,-0.4190349085505256,-0.0033841846091430166
4718,7.0,299.10291,1218.1960000000001,0.0,0.0,0.0,0.0,-0.04702340761646664,0.0,-0.12133863478269089,-0.1045198382278049,-0.14444268250288286,-0.10756651915848889,-0.4113453940716296,-0.0061746910899195635
4719,7.0,300.06304,990.4005699999999,0.0,0.0,0.0,0.0,-0.047033374426050455,0.0,-0.1204667938666469,-0.08670561464217792,-0.09388463244244181,-0.12245792150565588,-0.38593147049597065,-0.035517452715549666
4720,7.0,299.69575,708.3865900000001,0.0,0.0,0.0,0.0,-0.04704334123563428,0.0,-0.06200184158460535,-0.07377538420806352,-0.07955460814092852,-0.0988769258176428,-0.43604234187652857,-0.04461443136510155
4721,7.0,300.59621,762.83416,0.0,0.0,0.0,0.0,-0.047053308045218095,0.0,-0.08145262721499842,-0.07938275079146752,-0.07104715967780874,-0.10788378802980089,-0.42582156652781655,-0.017193373838603882
4722,7.0,300.25883999999996,728.77076,0.0,0.0,0.0,0.0,-0.04706327485480191,0.0,-0.025675816302505775,-0.09319534069091401,-0.1026569576539529,-0.1094068447851149,-0.39725309141582765,-0.03279961197231967
4723,7.0,300.71103999999997,943.71009,0.0,0.0,0.0,0.0,-0.04707324166438574,0.0,-0.06634212067945754,-0.11595603746896989,-0.1045661437573749,-0.08611893067527673,-0.3960619145982676,-0.015012198984338686
4724,7.0,299.61638,1099.6971,0.0,0.0,0.0,0.0,-0.04708320847396956,0.0,-0.0982489215116636,-0.11247596920551389,-0.12355557533898588,-0.09763045087587531,-0.41829052436456066,-0.017254245851611484
4725,7.0,299.24169,918.0227199999999,0.0,0.0,0.0,0.0,-0.04709317528355338,0.0,-0.10581567364819391,-0.08581527583230832,-0.08742503133242882,-0.11006798034286389,-0.4244578838807316,0.006888334078450644
4726,7.0,299.25461,783.35269,0.0,0.0,0.0,0.0,-0.0471031420931372,0.0,-0.04646299471504055,-0.0926037049707741,-0.0990529557310156,-0.08637464764276402,-0.4153581380451566,-0.03998754130721306
4727,7.0,299.00703,1216.943,0.0,0.0,0.0,0.0,-0.04711310890272102,0.0,-0.12201288179673388,-0.1076891224205889,-0.14021827058346586,-0.08947512607425741,-0.39959327358178565,-0.01117398328753629
4728,7.0,299.07246000000004,1230.6311,0.0,0.0,0.0,0.0,-0.04712307571230485,0.0,-0.11444434937977788,-0.10009473186108091,-0.15954204430057384,-0.1003955100870154,-0.4243476827998556,-0.048901176404170354
4729,7.0,299.19346,680.64506,0.0,0.0,0.0,0.0,-0.047133042521888664,0.0,-0.07653677140084122,-0.05243752665768095,-0.07792480346107933,-0.1124142724069249,-0.4340260957675406,0.004726857008779465
4730,7.0,299.72359,508.59932000000003,0.0,0.0,0.0,0.0,-0.04714300933147249,0.0,-0.04831003818982955,-0.043939509526491956,-0.06235194583865795,-0.12058456392576988,-0.38482782835454965,-0.029905392757682475
4731,7.0,299.00097,993.26182,0.0,0.0,0.0,0.0,-0.047152976141056305,0.0,-0.12161853499031489,-0.07152691941465733,-0.10878133510088189,-0.11756316358508088,-0.3881149028714586,0.03299667087826787
4732,7.0,301.1583,1177.2606,0.0,0.0,0.0,0.0,-0.04716294295064012,0.0,-0.1298797555731339,-0.1148748084197609,-0.11310326220992288,-0.14341772936422786,-0.4141264210910956,-0.027803256477467772
4733,7.0,300.57707,1005.2364,0.0,0.0,0.0,0.0,-0.04717290976022395,0.0,-0.0939161424940516,-0.0994232429138101,-0.11222737842597989,-0.12671270053056988,-0.4041608935750746,0.0004421698401337655
4734,7.0,300.02076,1058.1254,0.0,0.0,0.0,0.0,-0.04718287656980777,0.0,-0.0953018937283146,-0.10356896380396091,-0.1227728396367359,-0.095733572721418,-0.4213762863516016,-0.006150838067990454
4735,7.0,299.10181,1028.4605,0.0,0.0,0.0,0.0,-0.04719284337939159,0.0,-0.08173407465552512,-0.1004432392329759,-0.13044900961181485,-0.09084678198637931,-0.40821734915791563,-0.01131662863661429
4736,7.0,299.84676,1043.2371,0.0,0.0,0.0,0.0,-0.04720281018897541,0.0,-0.09703062404192701,-0.08356089061856783,-0.13652651410911787,-0.09023155679066132,-0.43333088460892855,-0.0018445579722936984
4737,7.0,299.64693,1026.3775,0.0,0.0,0.0,0.0,-0.04721277699855923,0.0,-0.1063454514629789,-0.06062172199439814,-0.14502597005544887,-0.09851470106589401,-0.4063463119207586,-0.0073992872262527935
4738,7.0,299.14723,458.26745999999997,0.0,0.0,0.0,0.0,-0.04722274380814306,0.0,-0.04998025331016696,-0.017060629969503086,-0.07226098162185364,-0.1030865655638519,-0.3816902892873986,-0.008576697014704092
4739,7.0,298.08045,148.09904,0.0,0.0,0.0,0.0,-0.047232710617726874,0.0,0.007477690695140614,-0.015328390770794384,-0.03716771086191747,-0.1189635157532849,-0.4087993701478566,-0.06929000769889133
4740,7.0,299.24568,944.04581,0.0,0.0,0.0,0.0,-0.0472426774273107,0.0,-0.08658610787238352,-0.08599687456823073,-0.11438337198875989,-0.13492139422820487,-0.4239427981923966,-0.037581306380486165
4741,7.0,299.55891,1295.144,0.0,0.0,0.0,0.0,-0.047252644236894514,0.0,-0.14577214769409086,-0.11526903363616789,-0.13265024479155987,-0.11902842455469088,-0.4248045471374446,-0.036690552138075566
4742,7.0,300.80697999999995,834.06429,0.0,0.0,0.0,0.0,-0.04726261104647834,0.0,-0.06773618664404114,-0.09114278273809233,-0.09465574717929491,-0.06790877556007434,-0.4126560837384846,-0.005702497392892675
4743,7.0,300.45309,843.0966699999999,0.0,0.0,0.0,0.0,-0.04727257785606216,0.0,-0.08320838496177821,-0.09182065414774301,-0.08125129745987872,-0.08843469554032492,-0.4135488280040916,-0.006221370508776464
4744,7.0,300.38198,1154.5332,0.0,0.0,0.0,0.0,-0.04728254466564598,0.0,-0.09326845073862941,-0.1032699536994509,-0.15441085460166487,-0.0957422208110215,-0.4046100470794026,-0.007912684130646122
4745,7.0,300.06937,1074.4303,0.0,0.0,0.0,0.0,-0.0472925114752298,0.0,-0.1144362839089819,-0.1010157539104787,-0.11114795296194889,-0.12210738763356088,-0.41672166870472666,-0.018628232238963382
4746,7.0,300.05897999999996,955.1697199999999,0.0,0.0,0.0,0.0,-0.04730247828481362,0.0,-0.08535372825275711,-0.07713198085408382,-0.12786204025150089,-0.0997018400818055,-0.40197030765388064,-0.027282152083538774
4747,7.0,298.61607000000004,739.6695,0.0,0.0,0.0,0.0,-0.04731244509439744,0.0,-0.1199203379552159,-0.026378462690351576,-0.07854226084676763,-0.11533624251530089,-0.4229804233799176,0.008589664184183853
4748,7.0,299.96632,626.1947200000001,0.0,0.0,0.0,0.0,-0.04732241190398127,0.0,-0.04716368654344346,-0.04611532327447805,-0.0970685489799199,-0.11720191965942889,-0.44569703465937255,-0.020964098972745482
4749,7.0,299.15209,804.95329,0.0,0.0,0.0,0.0,-0.04733237871356508,0.0,-0.09370908584936673,-0.043320165469117454,-0.10765645523736489,-0.11824567871993988,-0.4291031796266866,0.019907790809745984
4750,7.0,299.33103,1307.9119,0.0,0.0,0.0,0.0,-0.04734234552314891,0.0,-0.10768848407302589,-0.10952310510158889,-0.18036097999774284,-0.1032452506620129,-0.3957849426834326,-0.01912284723552808
4751,7.0,300.26712000000003,1198.722,0.0,0.0,0.0,0.0,-0.047352312332732724,0.0,-0.1185431790818009,-0.12829504254923488,-0.11754334441312489,-0.1059633852477719,-0.42127049290866064,-0.04032702973996796
4752,7.0,300.70124,765.43692,0.0,0.0,0.0,0.0,-0.04736227914231655,0.0,-0.06066000663617654,-0.08921003958309541,-0.08280366450083541,-0.1132589379552869,-0.4256259585960116,-0.05123646862514575
4753,7.0,301.60772000000003,1050.1133,0.0,0.0,0.0,0.0,-0.04737224595190037,0.0,-0.10710995879592991,-0.11646568200426788,-0.09563257397795022,-0.1054517648747789,-0.4024152561702936,-0.04134750532643106
4754,7.0,301.43675,1064.4387,0.0,0.0,0.0,0.0,-0.04738221276148419,0.0,-0.07954645857037422,-0.1038766675943289,-0.14013965250820687,-0.11392455207847789,-0.4016926061989736,0.002078046157762188
4755,7.0,299.22631,585.34555,0.0,0.0,0.0,0.0,-0.04739217957106801,0.0,-0.043346442083960754,-0.04675145181975905,-0.08783253620464641,-0.12050672605308789,-0.4154264817644016,-0.02002982057228938
4756,7.0,299.49567,676.36838,0.0,0.0,0.0,0.0,-0.04740214638065183,0.0,-0.040331837611692456,-0.06005844511805704,-0.10520881789830192,-0.14224470998845987,-0.4222342660062776,-0.01181631089692909
4757,7.0,300.37228999999996,875.1237199999999,0.0,0.0,0.0,0.0,-0.04741211319023565,0.0,-0.07531184524895043,-0.07783653620511802,-0.11286737758664288,-0.0970238605975095,-0.4043243510812066,-0.027977073452622177
4758,7.0,299.48689,816.45402,0.0,0.0,0.0,0.0,-0.047422079999819476,0.0,-0.06076691972047804,-0.09576467139348721,-0.09165004512240522,-0.0998810323487404,-0.3920681690641156,-0.037363601490500366
4759,7.0,300.2152,1268.8765,0.0,0.0,0.0,0.0,-0.04743204680940329,0.0,-0.13213295021800686,-0.12433705461111189,-0.12923677745717688,-0.0977655069817043,-0.4237087475517976,-0.016852387822201186
4760,7.0,300.28482,1427.8221,0.0,0.0,0.0,0.0,-0.04744201361898712,0.0,-0.16260892943825184,-0.12156898706042489,-0.14984434918348585,-0.1184910372316549,-0.4352143341598106,-0.01898273399844998
4761,7.0,299.93797,828.38356,0.0,0.0,0.0,0.0,-0.04745198042857093,0.0,-0.08388559674561383,-0.07163946414301463,-0.0962828566138781,-0.1066135067769339,-0.43411993285930156,0.015178045734206485
4762,7.0,300.97772000000003,838.81385,0.0,0.0,0.0,0.0,-0.04746194723815476,0.0,-0.06017917082772174,-0.07891373859842964,-0.11588555579201389,-0.1035895530459929,-0.4136479542613746,-0.025440180938750376
4763,7.0,300.59136,1202.6732,0.0,0.0,0.0,0.0,-0.04747191404773858,0.0,-0.12312678816166787,-0.10268506521172689,-0.13977076867680088,-0.11868019076032289,-0.4140349448720676,0.013109158242773188
4764,7.0,299.4106,790.73015,0.0,0.0,0.0,0.0,-0.047481880857322405,0.0,-0.07808791544892722,-0.056075213066942645,-0.10619908748603389,-0.12840110956970288,-0.4048059387212356,-0.04365130573429846
4765,7.0,298.92835,605.1655099999999,0.0,0.0,0.0,0.0,-0.04749184766690622,0.0,-0.06865752077446974,-0.05369342077237804,-0.06160426149711724,-0.1048535014857349,-0.4134269542820636,0.01080958511432299
4766,7.0,300.20116,920.80392,0.0,0.0,0.0,0.0,-0.04750181447649004,0.0,-0.09576801511881722,-0.08524741602576492,-0.09888596806153521,-0.090617298063981,-0.38368354475161764,-0.011794827968308887
4767,7.0,300.06944,976.50172,0.0,0.0,0.0,0.0,-0.04751178128607386,0.0,-0.08797208303491862,-0.08240858612784423,-0.1264514745222889,-0.08727955293607123,-0.4130945373217566,0.015392379541109587
4768,7.0,301.41927000000004,985.8131900000001,0.0,0.0,0.0,0.0,-0.04752174809565768,0.0,-0.038568530138417566,-0.1252230810285559,-0.13587098182442187,-0.0979540647193135,-0.4219742558981166,-0.02505901955588268
4769,7.0,301.44337,1135.9379,0.0,0.0,0.0,0.0,-0.047531714905241496,0.0,-0.07940151922306983,-0.12184403380006989,-0.14405121332674786,-0.11381284125495289,-0.4139885684149906,-0.026008451111584275
4770,7.0,300.38029,929.3987599999999,0.0,0.0,0.0,0.0,-0.04754168171482532,0.0,-0.06491216033008144,-0.1016781985873569,-0.11592365399577388,-0.10946608951846189,-0.4215642442451516,-0.036656068197422266
4771,7.0,300.65175,751.81794,0.0,0.0,0.0,0.0,-0.047551648524409136,0.0,-0.08296780797728512,-0.07487983390981423,-0.07068623897893864,-0.11477985675288989,-0.4447618453470766,-0.04795727111451416
4772,7.0,301.16071,975.8110199999999,0.0,0.0,0.0,0.0,-0.04756161533399297,0.0,-0.1097687371908309,-0.1018078338051509,-0.08504562220209942,-0.14741344060357386,-0.43610800048300863,-0.017355026746307782
4773,7.0,300.12233,903.7044,0.0,0.0,0.0,0.0,-0.047571582143576784,0.0,-0.09485097514231242,-0.07845484472089033,-0.10139775122467891,-0.09893692440906421,-0.4259924004946766,-0.02436997909037968
4774,7.0,300.5106,608.36013,0.0,0.0,0.0,0.0,-0.0475815489531606,0.0,-0.012900283827408888,-0.07232489743816163,-0.0997011064887331,-0.09808122051411282,-0.3976966011170986,0.00016548952854504484
4775,7.0,299.73996,761.20093,0.0,0.0,0.0,0.0,-0.047591515762744424,0.0,-0.056011060150111244,-0.08020798929566222,-0.0951670250737541,-0.08357227448344133,-0.4100038914692336,-0.015287567937515486
4776,7.0,299.77411,1270.9492,0.0,0.0,0.0,0.0,-0.04760148257232824,0.0,-0.11641069292134089,-0.1067642479943109,-0.16316186001782185,-0.1064882791970749,-0.40218854146041866,-0.006352364393629554
4777,7.0,300.19851,1198.177,0.0,0.0,0.0,0.0,-0.04761144938191206,0.0,-0.16260402530776785,-0.0993790641962,-0.10223280102959191,-0.10164843943191991,-0.4071958512021016,-0.011915624605480589
4778,7.0,300.00613,979.7965800000001,0.0,0.0,0.0,0.0,-0.04762141619149589,0.0,-0.0987353149969169,-0.0924125087299045,-0.1066858730990759,-0.1091274613350419,-0.4076220748566666,-0.017434820191682784
4779,7.0,299.53878,1085.0659,0.0,0.0,0.0,0.0,-0.047631383001079705,0.0,-0.1197109599545519,-0.08301279932147543,-0.1271091852946999,-0.10488654357149589,-0.43508473947202064,-0.002807512769129937
4780,7.0,300.20982999999995,1024.675,0.0,0.0,0.0,0.0,-0.04764134981066353,0.0,-0.07530504938052973,-0.09949328484022271,-0.13667726545899586,-0.1170143873309209,-0.4237033773262676,-0.013609637930916687
4781,7.0,300.38234,893.5110699999999,0.0,0.0,0.0,0.0,-0.047651316620247346,0.0,-0.09023415375066761,-0.08722886509981873,-0.0941420354580955,-0.1181080590913579,-0.44498726309682357,-0.007615616527902832
4782,7.0,301.16376,1056.4187,0.0,0.0,0.0,0.0,-0.04766128342983116,0.0,-0.09483726789495961,-0.08840092796749231,-0.13788670104335787,-0.11596374830223088,-0.4088554130108876,-0.005909171535664824
4783,7.0,301.88694,958.00756,0.0,0.0,0.0,0.0,-0.04767125023941499,0.0,-0.13531620712966988,-0.05909769657198854,-0.096796472076318,-0.10701633448668989,-0.42293552626798664,-0.02060189245949848
4784,7.0,300.34645,783.27425,0.0,0.0,0.0,0.0,-0.04768121704899881,0.0,-0.05056064094094675,-0.08787767041710083,-0.09965750431042991,-0.09873975911185551,-0.4088964901699416,-0.038242689171259565
4785,7.0,300.67652999999996,1023.3321,0.0,0.0,0.0,0.0,-0.047691183858582634,0.0,-0.0918324331801555,-0.10356243847331689,-0.11567251995848889,-0.1013523069576939,-0.40693028848339263,-0.04471497110627405
4786,7.0,300.29975,1068.9626,0.0,0.0,0.0,0.0,-0.04770115066816645,0.0,-0.08072639337807473,-0.09806391724215509,-0.14614763791614888,-0.11589721830066488,-0.42467783007993865,-0.015878688926604587
4787,7.0,299.19251,542.81083,0.0,0.0,0.0,0.0,-0.04771111747775027,0.0,-0.024568627785734775,-0.07346825797025253,-0.06696405257758743,-0.11843253217088089,-0.43566773318205754,-0.047943767530431454
4788,7.0,299.77755,672.3575,0.0,0.0,0.0,0.0,-0.0477210842873341,0.0,-0.049309142305183455,-0.06866968078891983,-0.08640106915237161,-0.1054122379883779,-0.42517840602684154,-0.02061805177209328
4789,7.0,300.73891000000003,989.24795,0.0,0.0,0.0,0.0,-0.047731051096917915,0.0,-0.11699277470628788,-0.07302012278227503,-0.1106937737371249,-0.0971992430440684,-0.4046380735771686,-0.02032938492460408
4790,7.0,298.92891000000003,851.15126,0.0,0.0,0.0,0.0,-0.04774101790650174,0.0,-0.07775639116195833,-0.06748671433692013,-0.1134856222676589,-0.11854628975960789,-0.4143700165476366,-0.014521008773111988
4791,7.0,299.93852000000004,835.33087,0.0,0.0,0.0,0.0,-0.047750984716085555,0.0,-0.07896560991079891,-0.06185689311805004,-0.1130972232393269,-0.09101235819847041,-0.4216828654343586,-0.01844138081452258
4792,7.0,300.31358,1019.3242,0.0,0.0,0.0,0.0,-0.04776095152566937,0.0,-0.11659627980965688,-0.05442649404747675,-0.13882632839109188,-0.1014658011013949,-0.4106926988872136,0.01948557759907678
4793,7.0,301.06886000000003,1102.4592,0.0,0.0,0.0,0.0,-0.0477709183352532,0.0,-0.11103177370548288,-0.08425418977424112,-0.13983409680805087,-0.09643038988143851,-0.4082706562456766,0.008359881251681042
4794,7.0,301.40767,1179.6192,0.0,0.0,0.0,0.0,-0.04778088514483702,0.0,-0.11976491552237688,-0.0958619140188343,-0.14294796635286586,-0.11946909715568188,-0.4337587497286556,0.013336124238672987
4795,7.0,300.19088,1161.8074,0.0,0.0,0.0,0.0,-0.04779085195442084,0.0,-0.1281623371836379,-0.09859159357623272,-0.1264064963503499,-0.13794829651693688,-0.42942339705578964,0.014320206921294385
4796,7.0,299.37442999999996,854.9539699999999,0.0,0.0,0.0,0.0,-0.04780081876400466,0.0,-0.08268745180711613,-0.054387616654389855,-0.12280959021786288,-0.092239329089063,-0.3887423275983806,-0.025571607582721177
4797,7.0,300.59058,731.27309,0.0,0.0,0.0,0.0,-0.04781078557358848,0.0,-0.06053768201785403,-0.09146144482829183,-0.07028963363804673,-0.1055942987663459,-0.3977012316700556,-0.023211857530831978
4798,7.0,300.15956,917.4065300000001,0.0,0.0,0.0,0.0,-0.04782075238317231,0.0,-0.08237673765070101,-0.0897469861423379,-0.1067449557124069,-0.09646503087585731,-0.40085185179599764,-0.02243487810240008
4799,7.0,299.34757,1114.4637,0.0,0.0,0.0,0.0,-0.047830719192756124,0.0,-0.12074875097197389,-0.1006315000883058,-0.11738887443537989,-0.10742370155689389,-0.4461579823948646,-0.008071679182012712
4800,7.0,299.27312,814.30159,0.0,0.0,0.0,0.0,-0.04784068600233995,0.0,-0.07433874923716333,-0.07876105194086062,-0.09442754805802342,-0.0983548760613705,-0.40801590490553463,-0.03102101151528547
4801,7.0,299.17575,741.41566,0.0,0.0,0.0,0.0,-0.047850652811923765,0.0,-0.06716052987797823,-0.07435372811339162,-0.08385758848634962,-0.1166833483907499,-0.41652420652523864,-0.027393472805775275
4802,7.0,299.66171,942.07979,0.0,0.0,0.0,0.0,-0.04786061962150758,0.0,-0.03994963866072236,-0.09998449328995121,-0.14643460047696988,-0.10843055804876289,-0.4245951995342836,-0.03126490385410577
4803,7.0,300.50297,929.7917,0.0,0.0,0.0,0.0,-0.04787058643109141,0.0,-0.06417321527065324,-0.11540709909479388,-0.1030531384430529,-0.12903998402275488,-0.4324823687101865,-0.03237757810691817
4804,7.0,299.84286000000003,1006.8469,0.0,0.0,0.0,0.0,-0.04788055324067523,0.0,-0.07161751309284824,-0.09642326875973571,-0.13801553579357287,-0.1027490114255379,-0.4235272947238896,-0.039805905081036964
4805,7.0,299.77086,995.94938,0.0,0.0,0.0,0.0,-0.04789052005025905,0.0,-0.11918121253726988,-0.09133412286047611,-0.09222840321323472,-0.08322587467175432,-0.3927637449927636,0.0018881294491188683
4806,7.0,299.46481,683.6439,0.0,0.0,0.0,0.0,-0.04790048685984287,0.0,-0.07439225492194393,-0.06544056620423103,-0.06797785489889194,-0.09194752521926422,-0.4323540101875186,-0.014178285032787789
4807,7.0,300.02546,927.3194599999999,0.0,0.0,0.0,0.0,-0.04791045366942669,0.0,-0.0993133488477144,-0.09305538248110122,-0.0895132293442679,-0.08376120307058713,-0.4107230457277086,-0.00878605829674144
4808,7.0,300.46932000000004,1315.0259,0.0,0.0,0.0,0.0,-0.04792042047901052,0.0,-0.1039861594001349,-0.12702961476434688,-0.16871926323879485,-0.0962251459411825,-0.40276416884222865,-0.009496765393107771
4809,7.0,299.96948,1151.7296,0.0,0.0,0.0,0.0,-0.047930387288594334,0.0,-0.12607896325552487,-0.10856043644658091,-0.11545765014228289,-0.1017629265607189,-0.39263293440485364,-0.02141802083204408
4810,7.0,298.39406,678.38481,0.0,0.0,0.0,0.0,-0.04794035409817816,0.0,-0.05535652186376335,-0.05032741812567945,-0.10052810500835149,-0.13325974512421287,-0.43320344814385153,-0.016572749033102987
4811,7.0,299.13526,1006.0952,0.0,0.0,0.0,0.0,-0.047950320907761974,0.0,-0.13571777840930188,-0.08728149938951332,-0.08282853675104013,-0.13987110070170286,-0.4533826278603816,-0.013733532073644087
4812,7.0,299.82184,1119.7943,0.0,0.0,0.0,0.0,-0.0479602877173458,0.0,-0.10797679425647991,-0.07870483175906212,-0.15370787181478585,-0.09018525024784123,-0.42548020256912655,0.005712553900135175
4813,7.0,299.55502,795.98105,0.0,0.0,0.0,0.0,-0.04797025452692962,0.0,-0.07094995352946523,-0.07993829352979533,-0.09107011548067061,-0.09080313319857151,-0.40643821370482863,-0.021300685457213978
4814,7.0,298.74588,734.7623,0.0,0.0,0.0,0.0,-0.04798022133651344,0.0,-0.012948381796405789,-0.07739321395511553,-0.13300780048684788,-0.08660577201707421,-0.4149859104884206,0.005288479956982335
4815,7.0,299.32716,930.72692,0.0,0.0,0.0,0.0,-0.04799018814609726,0.0,-0.0900464218118899,-0.08591611042925992,-0.1069552152406579,-0.11877213307439688,-0.4236015659562196,-0.004669147450658976
4816,7.0,300.10846000000004,956.90589,0.0,0.0,0.0,0.0,-0.04800015495568108,0.0,-0.06273961228716764,-0.12048380633582588,-0.10765207799693288,-0.0883702447279641,-0.4071668215867366,-0.01908467101151038
4817,7.0,300.66468,1125.3915,0.0,0.0,0.0,0.0,-0.0480101217652649,0.0,-0.14897351138504086,-0.0993675871123173,-0.0937498164768865,-0.0976520766727596,-0.4105633372469466,-0.02637861062486618
4818,7.0,300.29725,1227.229,0.0,0.0,0.0,0.0,-0.04802008857484873,0.0,-0.09698022498195301,-0.13013000808283187,-0.14593672990783385,-0.12708675193748586,-0.4322947958516745,-0.007064283945065544
4819,7.0,299.74227,551.1659599999999,0.0,0.0,0.0,0.0,-0.04803005538443254,0.0,-0.02866578258534247,-0.06915895899720784,-0.06971594663017823,-0.1284813691101239,-0.4289404516606266,-0.06099759218524364
4820,7.0,300.38589,701.95619,0.0,0.0,0.0,0.0,-0.04804002219401637,0.0,-0.005489428324764394,-0.08448711266747883,-0.12340060886869189,-0.08112428959959403,-0.4320019057777686,-0.034765973752384466
4821,7.0,300.52425,1091.3624,0.0,0.0,0.0,0.0,-0.048049989003600184,0.0,-0.1169399742435769,-0.08836720193791382,-0.1264397309536299,-0.08079383834448102,-0.3813495839412736,-0.023945043276691776
4822,7.0,300.61497,901.4051599999999,0.0,0.0,0.0,0.0,-0.04805995581318401,0.0,-0.0961896173396761,-0.07336213319452883,-0.10445291305869989,-0.0952411240535671,-0.4376562669008106,0.018467923914142183
4823,7.0,300.60787999999997,571.72587,0.0,0.0,0.0,0.0,-0.048069922622767824,0.0,-0.0996014979244025,-0.015020254322633686,-0.05916863522473965,-0.12748153444144789,-0.4272557207193566,-0.00041491712093913165
4824,7.0,299.91134,1021.6499,0.0,0.0,0.0,0.0,-0.04807988943235164,0.0,-0.1151190523563659,-0.07378469800298272,-0.12165230661614788,-0.13588202625051188,-0.4329301543268796,0.02081028659431538
4825,7.0,298.99215,1380.142,0.0,0.0,0.0,0.0,-0.048089856241935465,0.0,-0.12919257948781487,-0.12074224590633188,-0.16959388046011284,-0.1091163966439499,-0.41430788405150465,-0.009811769245146231
4826,7.0,299.63034,1217.8621,0.0,0.0,0.0,0.0,-0.04809982305151928,0.0,-0.09296983276190811,-0.10097264619822431,-0.17625720563523184,-0.11457213034988889,-0.4277604408591686,0.01148106899534329
4827,7.0,300.16095,1096.8155,0.0,0.0,0.0,0.0,-0.0481097898611031,0.0,-0.1061463883483329,-0.11715548240734588,-0.1101026334962839,-0.11571235081991989,-0.4218434858402106,-0.01237015846783959
4828,7.0,300.47522999999995,796.91867,0.0,0.0,0.0,0.0,-0.04811975667068693,0.0,-0.08970779160196972,-0.05177124986892455,-0.10076433616316571,-0.07629456713668753,-0.39843656753262763,-0.008967628155035993
4829,7.0,299.83633,684.53201,0.0,0.0,0.0,0.0,-0.048129723480270746,0.0,-0.09804998201352981,-0.06160854957154044,-0.048422105677389755,-0.1015755462197259,-0.3813080609521756,-0.036974730287621764
4830,7.0,298.77063,931.90672,0.0,0.0,0.0,0.0,-0.04813969028985457,0.0,-0.08486881512589992,-0.08314359876363432,-0.1152639572531669,-0.09178124074535321,-0.4179071206592216,-0.04153326750701436
4831,7.0,300.59718,859.4992300000001,0.0,0.0,0.0,0.0,-0.04814965709943839,0.0,-0.06534236301778913,-0.06825244162299153,-0.12767149857019588,-0.12376730407988189,-0.4422093062251606,-0.05453515296170055
4832,7.0,300.92971,430.34315999999995,0.0,0.0,0.0,0.0,-0.0481596239090222,0.0,0.007353165905550973,-0.07372585451667533,-0.06444088554957024,-0.11683306622552589,-0.42183876409474463,-0.06825574988456803
4833,7.0,299.5504,729.3795200000001,0.0,0.0,0.0,0.0,-0.048169590718606034,0.0,-0.08171320778296572,-0.061495937968676535,-0.07850401369524293,-0.1193581867997359,-0.4134614351829666,-0.005993441216006594
4834,7.0,298.12916,1306.6205,0.0,0.0,0.0,0.0,-0.04817955752818985,0.0,-0.14422555313895388,-0.10443531290446291,-0.14851912951019686,-0.13245937887022288,-0.4428141962698585,-0.017392482549504384
4835,7.0,298.8211,1300.257,0.0,0.0,0.0,0.0,-0.048189524337773675,0.0,-0.15812183243040986,-0.1141504865857759,-0.12297334156652388,-0.1331179610377199,-0.4382497680143846,0.013233795097823886
4836,7.0,299.29949,930.22226,0.0,0.0,0.0,0.0,-0.04819949114735749,0.0,-0.04865158453353755,-0.0974603170648344,-0.13665244083154587,-0.11535271796192689,-0.41193070812439564,-0.04122738250057586
4837,7.0,300.20455,985.6292900000001,0.0,0.0,0.0,0.0,-0.04820945795694131,0.0,-0.06911066749744184,-0.10739013258108089,-0.1231058949446059,-0.06693028095175443,-0.38778002371340864,-0.006836181994478634
4838,7.0,299.96209,935.47316,0.0,0.0,0.0,0.0,-0.04821942476652514,0.0,-0.06799572153790523,-0.07783686956440093,-0.13852789583913888,-0.06729378037212903,-0.44364061318391956,-0.03752429485035957
4839,7.0,299.08516000000003,967.82265,0.0,0.0,0.0,0.0,-0.048229391576108956,0.0,-0.10657834699846389,-0.06720876767548893,-0.12040679932822589,-0.09288810096909181,-0.4479023127070165,0.0074191824932913035
4840,7.0,300.99204,1025.9991,0.0,0.0,0.0,0.0,-0.04823935838569278,0.0,-0.1263709008743369,-0.07757312562962142,-0.10793408576476489,-0.1060296518043119,-0.43886358479246357,0.0004761275493476305
4841,7.0,300.95957999999996,638.24405,0.0,0.0,0.0,0.0,-0.048249325195276596,0.0,-0.09228917288798222,-0.02154606524718108,-0.08017501408440783,-0.12390001957797989,-0.41397149515080556,-0.003471661023401267
4842,7.0,299.96897,614.37853,0.0,0.0,0.0,0.0,-0.04825929200486041,0.0,-0.04084151254449346,-0.05920038339012294,-0.08671383716673942,-0.13316821824267985,-0.4471206713148746,-0.02907608098808577
4843,7.0,300.64971,1461.9081,0.0,0.0,0.0,0.0,-0.048269258814444244,0.0,-0.13321930631272189,-0.14536409161381886,-0.16580016062820185,-0.12519056583284688,-0.44900338119318356,-0.041075071758793956
4844,7.0,301.13308,1524.624,0.0,0.0,0.0,0.0,-0.04827922562402806,0.0,-0.16930640114174084,-0.13457942231945488,-0.15956181281002485,-0.1020161276282079,-0.38549996780838464,-0.005708053651141035
4845,7.0,299.62624,812.08037,0.0,0.0,0.0,0.0,-0.048289192433611884,0.0,-0.08001417177678392,-0.09121725560719222,-0.07562072846243482,-0.09645731598959591,-0.38145443506162163,-0.036099450400738364
4846,7.0,299.48222000000004,702.61903,0.0,0.0,0.0,0.0,-0.0482991592431957,0.0,-0.08054640976281172,-0.05419848035097354,-0.07883375162228552,-0.0969247161017247,-0.4241624404165736,0.01052256581149639
4847,7.0,299.22952999999995,1008.3769,0.0,0.0,0.0,0.0,-0.04830912605277952,0.0,-0.1066251794180859,-0.08821425690156931,-0.11168195602965088,-0.11879478934663289,-0.44483605578440055,0.003038509068627497
4848,7.0,299.23749,900.60985,0.0,0.0,0.0,0.0,-0.04831909286236335,0.0,-0.038304887528648066,-0.1016965384141669,-0.13376147617622985,-0.1023030800565279,-0.4175244768914576,-0.022383227678552577
4849,7.0,298.52067,811.18092,0.0,0.0,0.0,0.0,-0.048329059671947165,0.0,-0.05996614613994784,-0.06064969276340865,-0.12596290558907086,-0.0970857022908628,-0.42035347117065763,-0.031441891288823076
4850,7.0,298.1343,733.71068,0.0,0.0,0.0,0.0,-0.04833902648153099,0.0,-0.04098834768273496,-0.07810139066200714,-0.1039399855930779,-0.1114172849710299,-0.4568672253517846,-0.015430589202380586
4851,7.0,298.53123,603.2363,0.0,0.0,0.0,0.0,-0.048348993291114806,0.0,-0.07619464446482593,-0.05139574748786536,-0.05577837942364744,-0.0945403704169081,-0.4683723559972526,-0.0097212796277406
4852,7.0,298.91872,1047.65,0.0,0.0,0.0,0.0,-0.04835896010069862,0.0,-0.1076613593678489,-0.11107484696723391,-0.09972322776491631,-0.08971481038541242,-0.4133181008238206,-0.0069510631762415235
4853,7.0,299.28522000000004,1483.7639,0.0,0.0,0.0,0.0,-0.04836892691028245,0.0,-0.17005976272359186,-0.12216072511882488,-0.15880668817299984,-0.1039320214472919,-0.37749364042072164,-0.01165008417827379
4854,7.0,300.6717,1261.8699,0.0,0.0,0.0,0.0,-0.04837889371986627,0.0,-0.0904456899740446,-0.12930798867420487,-0.16382324888809585,-0.1148714950919339,-0.4199068001290746,-0.016966135278427184
4855,7.0,300.11784,696.77034,0.0,0.0,0.0,0.0,-0.048388860529450094,0.0,-0.05520874541617894,-0.08716743782575632,-0.06942459973617453,-0.13332995322364188,-0.4280783176805406,-0.027801022260997274
4856,7.0,301.46456,1078.5694,0.0,0.0,0.0,0.0,-0.04839882733903391,0.0,-0.08722130625407273,-0.11433959958443989,-0.12629726798956986,-0.12220635177082788,-0.40239410964070665,-0.014648366204681185
4857,7.0,300.61478999999997,1282.3045,0.0,0.0,0.0,0.0,-0.04840879414861773,0.0,-0.17193860198651884,-0.07609043371854113,-0.14175951517807486,-0.12865729972498688,-0.4241516797005116,0.007104383216448034
4858,7.0,300.16517000000005,909.7918400000001,0.0,0.0,0.0,0.0,-0.04841876095820156,0.0,-0.09080903234065373,-0.09150431645327292,-0.09424065509032852,-0.13070748971232488,-0.4598080520445215,0.005905974630274314
4859,7.0,300.11361,709.00281,0.0,0.0,0.0,0.0,-0.048428727767785375,0.0,-0.05261959452839965,-0.05418469103036264,-0.10871486589432189,-0.10892665543022391,-0.46975850239905453,-0.012402083951990387
4860,7.0,300.1552,755.22651,0.0,0.0,0.0,0.0,-0.0484386945773692,0.0,-0.025332547433627776,-0.07956396347910183,-0.12467349417431588,-0.051991952965956253,-0.41229880162072363,-0.023225027755631778
4861,7.0,298.92049,942.6814,0.0,0.0,0.0,0.0,-0.048448661386953015,0.0,-0.07044081865896752,-0.12218653259887187,-0.0939242515346019,-0.05872233503269324,-0.3965540501718376,-0.06092019811610544
4862,7.0,299.85048,1149.0724,0.0,0.0,0.0,0.0,-0.04845862819653683,0.0,-0.11447093706240188,-0.09080357092261472,-0.14401482751565686,-0.1202855031587549,-0.43283158535715155,-0.04593862157628895
4863,7.0,299.27774,1021.9338,0.0,0.0,0.0,0.0,-0.04846859500612066,0.0,-0.14594484604113486,-0.1024183068578999,-0.06227919650797814,-0.12578779570678889,-0.43155979436163555,-0.02869250604347987
4864,7.0,300.23843999999997,551.89997,0.0,0.0,0.0,0.0,-0.04847856181570448,0.0,-0.055077225553198945,-0.05235798652483095,-0.06032859785971904,-0.15241100287929485,-0.38613588357114464,-0.020169981432122182
4865,7.0,299.34967,813.82155,0.0,0.0,0.0,0.0,-0.0484885286252883,0.0,-0.06003702602419314,-0.07515582905155284,-0.11218858107965088,-0.12025031298278188,-0.4053916276765386,-0.013804349136383185
4866,7.0,299.24773,1411.4751,0.0,0.0,0.0,0.0,-0.04849849543487212,0.0,-0.11561535238784688,-0.14367483144460186,-0.16976299190180283,-0.15430592242130886,-0.4508670521021136,-0.018206058545048084
4867,7.0,299.6799,1235.7673,0.0,0.0,0.0,0.0,-0.04850846224445594,0.0,-0.13343081213859587,-0.06967777952541143,-0.17253379522775986,-0.11401956454035489,-0.4422342929726266,0.02216358038812508
4868,7.0,300.6159,631.07373,0.0,0.0,0.0,0.0,-0.04851842905403977,0.0,-0.04094514877797156,-0.07972190282518922,-0.07116360541905103,-0.08256850029837652,-0.41982069413557666,-0.06411843897024723
4869,7.0,299.73285,675.98059,0.0,0.0,0.0,0.0,-0.048528395863623584,0.0,-0.0851670521205836,-0.05446464595349204,-0.06584952002409164,-0.06638694990363185,-0.41263958802685663,0.004533384197585186
4870,7.0,300.66275,1079.9399,0.0,0.0,0.0,0.0,-0.04853836267320741,0.0,-0.1084282782360379,-0.08071332853128534,-0.13913317091887487,-0.10817770148630788,-0.43113776556248457,-0.03142139222604997
4871,7.0,299.98976,1102.3052,0.0,0.0,0.0,0.0,-0.048548329482791225,0.0,-0.07815049681485352,-0.1078839602823179,-0.14903881535398586,-0.10029398040049521,-0.45917427423947255,0.005155009992859875
4872,7.0,299.85856,949.8090599999999,0.0,0.0,0.0,0.0,-0.04855829629237504,0.0,-0.06081629641110115,-0.08945723005099122,-0.13844470800592887,-0.0962696488988246,-0.41559635314366655,-0.037903335500767965
4873,7.0,299.86543,826.42994,0.0,0.0,0.0,0.0,-0.048568263101958865,0.0,-0.06111982662430725,-0.07535491749745134,-0.11473932674888988,-0.1151018980321729,-0.4358886419688595,0.006605276482190034
4874,7.0,300.89144,1016.8419,0.0,0.0,0.0,0.0,-0.04857822991154269,0.0,-0.09590397707023561,-0.12645134279977588,-0.08673922617449512,-0.12361395880974788,-0.45804174433770056,-0.046746166707237455
4875,7.0,301.30337000000003,1417.9338,0.0,0.0,0.0,0.0,-0.04858819672112651,0.0,-0.1927764246655518,-0.092669960381563,-0.14557008535914887,-0.1189825344576619,-0.43465668183477457,0.02247423678928448
4876,7.0,301.3647,1266.2934,0.0,0.0,0.0,0.0,-0.04859816353071033,0.0,-0.14870432123097388,-0.1146964257396559,-0.12152081715067088,-0.08628030392595301,-0.36480335166328764,-0.018697692559818586
4877,7.0,300.41167,628.03571,0.0,0.0,0.0,0.0,-0.04860813034029415,0.0,-0.018477057350543585,-0.06679438283509234,-0.1056357305629349,-0.09755612898104031,-0.37959856617846166,-0.014587472913421487
4878,7.0,300.46999,485.7386,0.0,0.0,0.0,0.0,-0.04861809714987797,0.0,-0.005376420946411434,-0.04805160571207425,-0.09422437722747201,-0.14103468671903988,-0.42739692725329265,-0.027243285836202974
4879,7.0,299.97585,971.63671,0.0,0.0,0.0,0.0,-0.04862806395946179,0.0,-0.06576752174649902,-0.100528606567151,-0.12905716874445086,-0.12055632464548288,-0.43832546792935556,-0.030938884554930175
4880,7.0,299.91494,1101.7863,0.0,0.0,0.0,0.0,-0.04863803076904561,0.0,-0.12795973782614287,-0.06903440725516553,-0.1379213947267819,-0.0879281839743361,-0.40768512941038965,-0.027157185922205573
4881,7.0,299.82293,786.9780599999999,0.0,0.0,0.0,0.0,-0.04864799757862943,0.0,-0.08153500546137853,-0.07119123573602794,-0.08649543718718501,-0.07532832373532673,-0.44141688385195454,-0.04130705334268876
4882,7.0,300.02952999999997,681.89942,0.0,0.0,0.0,0.0,-0.048657964388213244,0.0,-0.06469411701456224,-0.05438333567271735,-0.08820294295095273,-0.1254975704806459,-0.46895575500732956,-0.007890574304189053
4883,7.0,299.4903,995.44395,0.0,0.0,0.0,0.0,-0.048667931197797075,0.0,-0.09492713405957871,-0.06894486837032873,-0.13871810314791086,-0.08892191381115962,-0.46059012913420655,-0.02003150459395558
4884,7.0,300.18674,1284.7356,0.0,0.0,0.0,0.0,-0.04867789800738089,0.0,-0.1110554837578229,-0.13226568598110686,-0.14720637281313784,-0.08465531826357942,-0.4117489310564556,-0.006853701494007674
4885,7.0,300.32477,1140.0575,0.0,0.0,0.0,0.0,-0.048687864816964715,0.0,-0.11684009818121989,-0.09210533486933882,-0.13760358883291687,-0.0923222038279921,-0.38633572688836765,-0.008657412213695061
4886,7.0,301.65715,858.2646199999999,0.0,0.0,0.0,0.0,-0.04869783162654853,0.0,-0.08548089215355723,-0.09073949399954082,-0.08467062847259042,-0.1234167702077869,-0.4204461024947996,-0.0037206514287747064
4887,7.0,300.98997,730.63912,0.0,0.0,0.0,0.0,-0.04870779843613235,0.0,-0.11292740252256689,-0.06564532682418935,-0.04352332312741755,-0.14219918466146686,-0.41831129599161065,-0.024066870389215178
4888,7.0,300.83926,1197.0199,0.0,0.0,0.0,0.0,-0.04871776524571618,0.0,-0.11817974653593288,-0.1006711313394671,-0.14501327403169587,-0.11331393717071489,-0.37936687641059563,-0.014528319372583486
4889,7.0,299.23812000000004,1285.3545,0.0,0.0,0.0,0.0,-0.048727732055299997,0.0,-0.13769548048448585,-0.11751553069787989,-0.13550465138326787,-0.11318713905320088,-0.41811580964981754,-0.023600553441443274
4890,7.0,300.70346,839.37499,0.0,0.0,0.0,0.0,-0.04873769886488382,0.0,-0.03968585926218936,-0.07579366492325233,-0.13966951459430788,-0.12877334725893988,-0.4469670929972176,-0.008189137970704991
4891,7.0,300.56296000000003,620.00613,0.0,0.0,0.0,0.0,-0.04874766567446764,0.0,-0.039965563912544064,-0.06770230558719734,-0.08079851348044242,-0.09859935912499909,-0.46522983173960947,-0.01912117537286308
4892,7.0,299.82336000000004,1027.3749,0.0,0.0,0.0,0.0,-0.048757632484051454,0.0,-0.09363641048594422,-0.1020336973849419,-0.11662620108510989,-0.06270457409870964,-0.4216259106462376,-0.015615676558397285
4893,7.0,299.42758,1134.7109,0.0,0.0,0.0,0.0,-0.048767599293635285,0.0,-0.12758718602937488,-0.09801374211045322,-0.11932286490124988,-0.07461568264849452,-0.4248948074563526,-0.02415779843993908
4894,7.0,299.37711,931.7099400000001,0.0,0.0,0.0,0.0,-0.0487775661032191,0.0,-0.06313383649032454,-0.11590399694383388,-0.1041787174491389,-0.10004745158491471,-0.44350379402291656,-0.03234077990303647
4895,7.0,298.43857,772.78436,0.0,0.0,0.0,0.0,-0.048787532912802925,0.0,-0.06618537798173824,-0.07931707901273623,-0.0894046920200561,-0.10547809924487792,-0.43713430124429653,-0.02601959584943418
4896,7.0,298.99689,711.41788,0.0,0.0,0.0,0.0,-0.04879749972238674,0.0,-0.057121423179445546,-0.07329851223399993,-0.08583333701534082,-0.12105102374180587,-0.4044023206764016,-0.025784238116206178
4897,7.0,300.18212,914.12924,0.0,0.0,0.0,0.0,-0.04880746653197056,0.0,-0.07838276413527652,-0.1063735488882519,-0.09311614810284832,-0.09528825234221831,-0.4377450478745726,-0.039434566144638666
4898,7.0,299.74151,1115.1966,0.0,0.0,0.0,0.0,-0.04881743334155439,0.0,-0.13041678825863487,-0.07336501082481282,-0.13521012997670087,-0.12170638377398489,-0.45853290719117457,-0.01011314235021444
4899,7.0,300.43788,1009.1735,0.0,0.0,0.0,0.0,-0.048827400151138206,0.0,-0.07025977923710033,-0.0981432071022304,-0.13836054745262288,-0.12443881531865489,-0.4130331343656966,-0.02019786404837398
4900,7.0,301.29905,880.44124,0.0,0.0,0.0,0.0,-0.04883736696072203,0.0,-0.07755392048722602,-0.07842598735804232,-0.1116522475367189,-0.10498426141113991,-0.40064637480821863,-0.017690987042214484
4901,7.0,299.73586,1136.0498,0.0,0.0,0.0,0.0,-0.04884733377030585,0.0,-0.1078287989468739,-0.0946261035343693,-0.14287587360825085,-0.10980139424155391,-0.40078700378959764,-0.02051582496950428
4902,7.0,300.69789,1387.3438,0.0,0.0,0.0,0.0,-0.04885730057988966,0.0,-0.14759026287852486,-0.14320184629792188,-0.13092574378386487,-0.1110874720634799,-0.43688937843012454,-0.023070849593915577
4903,7.0,300.14266000000003,1016.7563,0.0,0.0,0.0,0.0,-0.048867267389473494,0.0,-0.0904692125751161,-0.08246217489913302,-0.13613714236068986,-0.1017617815881059,-0.44939122293396055,-0.0036397867753939863
4904,7.0,299.71373,676.36813,0.0,0.0,0.0,0.0,-0.04887723419905731,0.0,-0.07735069088816883,-0.06537938413669285,-0.06286894555643184,-0.09274310994603233,-0.4181263373183566,-0.02284806730767868
4905,7.0,299.4573,859.6407800000001,0.0,0.0,0.0,0.0,-0.048887201008641135,0.0,-0.06161498978917603,-0.09079886842890061,-0.1088954777246469,-0.12570432416355087,-0.4414225175225106,-0.011662999064048388
4906,7.0,300.59334,1000.8176,0.0,0.0,0.0,0.0,-0.04889716781822495,0.0,-0.09775430651509891,-0.07189113722935284,-0.13457812535932687,-0.1264015618223629,-0.4555107975754155,-0.02182721175242808
4907,7.0,299.85183,880.44874,0.0,0.0,0.0,0.0,-0.04890713462780877,0.0,-0.07066458785080183,-0.08207861717977882,-0.11489122307138087,-0.0982734310183325,-0.42609588372738966,-0.011057167710007488
4908,7.0,300.28181,908.54073,0.0,0.0,0.0,0.0,-0.0489171014373926,0.0,-0.0955622503680098,-0.06727741131676354,-0.11333402992019789,-0.09065274763197961,-0.3846657995310586,-0.04362100550330805
4909,7.0,299.87464,885.60385,0.0,0.0,0.0,0.0,-0.048927068246976416,0.0,-0.0881118912837166,-0.07196925881206283,-0.1091203077893359,-0.10595166194411489,-0.4021441408410366,-0.017677395305373083
4910,7.0,298.79469,897.11536,0.0,0.0,0.0,0.0,-0.04893703505656024,0.0,-0.0945737752462049,-0.08715066448360091,-0.09097622975290481,-0.13957747095522388,-0.4379349410758136,-0.03783670518744207
4911,7.0,298.58116,1174.8517,0.0,0.0,0.0,0.0,-0.048947001866144056,0.0,-0.07512244246075783,-0.11400130577355289,-0.16800185177049184,-0.12154512502056988,-0.4268632382931216,-0.0015425173380596085
4912,7.0,298.86908999999997,1014.4181,0.0,0.0,0.0,0.0,-0.04895696867572787,0.0,-0.07663531605256682,-0.09501041105879751,-0.13671204020242786,-0.1140830345266189,-0.4064787943713336,-0.02688450613479418
4913,7.0,299.1951,830.3328700000001,0.0,0.0,0.0,0.0,-0.048966935485311704,0.0,-0.06442158516166545,-0.095077158909135,-0.09290171297093522,-0.11616446301453988,-0.4195992584587226,-0.02100478805701118
4914,7.0,298.63808,944.71001,0.0,0.0,0.0,0.0,-0.04897690229489552,0.0,-0.1038220432814379,-0.07947106567018353,-0.1038751477191789,-0.1229792488146069,-0.4499935899859095,0.004055022745874586
4915,7.0,299.33479,1156.3727,0.0,0.0,0.0,0.0,-0.048986869104479344,0.0,-0.14290306924093485,-0.1047751164579989,-0.1038302506072479,-0.09205870408648673,-0.4359260308975496,-0.007076746515995503
4916,7.0,299.62721,1043.3115,0.0,0.0,0.0,0.0,-0.04899683591406316,0.0,-0.09335797543796481,-0.08677149717693002,-0.13701117189694986,-0.07271260441667533,-0.4016509920173666,0.001207847922780309
4917,7.0,300.49074,941.96912,0.0,0.0,0.0,0.0,-0.04900680272364698,0.0,-0.06885871982032653,-0.0971040755549261,-0.12037229816232088,-0.1050613798762509,-0.42102882262730956,-0.015024484641801185
4918,7.0,300.40566,865.55355,0.0,0.0,0.0,0.0,-0.04901676953323081,0.0,-0.056060148064455854,-0.08124689894119462,-0.1257996203354559,-0.12724146509525489,-0.43493455554219856,-0.013765625757311488
4919,7.0,300.83787,944.0256,0.0,0.0,0.0,0.0,-0.049026736342814625,0.0,-0.09414126234826921,-0.07501247949365533,-0.1178064651990929,-0.14300246907574485,-0.4167601823410276,-0.02417967045659768
4920,7.0,299.83504,1007.7815,0.0,0.0,0.0,0.0,-0.04903670315239845,0.0,-0.09472648824827651,-0.11999476117506089,-0.09161916835210791,-0.11257247114503789,-0.40543328238814963,-0.043146024253931055
4921,7.0,299.43466,947.1695599999999,0.0,0.0,0.0,0.0,-0.049046669961982266,0.0,-0.12405668830844188,-0.08388406471146262,-0.07997514644918242,-0.15733222689248186,-0.4552538272175546,-0.04892550352582125
4922,7.0,299.94354,854.1782300000001,0.0,0.0,0.0,0.0,-0.04905663677156608,0.0,-0.07382167048588163,-0.08390014093754922,-0.10192704267941591,-0.13388516361593686,-0.4621527735709276,-0.03517743941924297
4923,7.0,299.58246,651.79859,0.0,0.0,0.0,0.0,-0.04906660358114991,0.0,-0.028997769927607074,-0.06804322979534394,-0.1010894962262565,-0.1029554813984149,-0.4406424162705206,-0.025269813066936375
4924,7.0,299.36287000000004,806.67988,0.0,0.0,0.0,0.0,-0.04907657039073373,0.0,-0.045024242394546755,-0.07260001611856373,-0.12758628423678586,-0.055499393167613646,-0.3960476885668636,0.0009144338465850941
4925,7.0,299.85962,872.64765,0.0,0.0,0.0,0.0,-0.049086537200317554,0.0,-0.08325621745924892,-0.06487328597674484,-0.1171335962051859,-0.09155346718912372,-0.4150514981673936,0.001115209201912579
4926,7.0,300.11703,870.1759099999999,0.0,0.0,0.0,0.0,-0.04909650400990137,0.0,-0.1085907731545749,-0.06821155292845613,-0.08770942125124591,-0.1021598976848969,-0.4500616601276276,0.000964976230785739
4927,7.0,299.89137,962.7396,0.0,0.0,0.0,0.0,-0.04910647081948519,0.0,-0.11221206821696889,-0.07072282338704923,-0.10971391022791989,-0.12262570558971489,-0.4191754260743936,-0.03182205056734187
4928,7.0,301.07486,1044.2269,0.0,0.0,0.0,0.0,-0.04911643762906901,0.0,-0.07905171387779672,-0.1108636856463939,-0.12750352196861786,-0.10909767178210189,-0.41102782122528764,-0.030685372419660472
4929,7.0,300.65045,1034.3118,0.0,0.0,0.0,0.0,-0.04912640443865283,0.0,-0.06870123745003423,-0.09037975880328772,-0.15532397532678285,-0.13377994772555288,-0.44184583314928855,-0.045638421916161555
4930,7.0,300.94888,1124.5049,0.0,0.0,0.0,0.0,-0.04913637124823665,0.0,-0.0991771305440207,-0.08439713504534872,-0.15824714107027685,-0.13055701193997388,-0.4645094109185095,-0.003585733428934337
4931,7.0,300.6307,934.15757,0.0,0.0,0.0,0.0,-0.049146338057820475,0.0,-0.0901339939782826,-0.08614329731368152,-0.10768328610001289,-0.11763547924471789,-0.4270162187932196,-0.013229760335925687
4932,7.0,300.22517999999997,754.89279,0.0,0.0,0.0,0.0,-0.04915630486740429,0.0,-0.10165828822289191,-0.055554648735316944,-0.07225562558182502,-0.07333380170848273,-0.41871596781654863,-0.00944787009760718
4933,7.0,299.72066,1028.9941,0.0,0.0,0.0,0.0,-0.049166271676988116,0.0,-0.1269553739295199,-0.09132619823144401,-0.09450694025635882,-0.09362270121209122,-0.42857920773497465,-0.03077369641762737
4934,7.0,299.81489,1203.4502,0.0,0.0,0.0,0.0,-0.04917623848657193,0.0,-0.12309539767356988,-0.1069812355032259,-0.13574217747170989,-0.08287380167275742,-0.44168861726377256,-0.016125226861435984
4935,7.0,299.13096,1025.2895,0.0,0.0,0.0,0.0,-0.049186205296155756,0.0,-0.06561590406778553,-0.09698672396809441,-0.14905976936605386,-0.0963601321327546,-0.42775485785111755,0.016763436622422384
4936,7.0,300.35276,1008.2088,0.0,0.0,0.0,0.0,-0.04919617210573957,0.0,-0.06057238076752854,-0.12591030777637988,-0.11998760762935488,-0.1093806320050279,-0.4015718369195546,-0.02062762901203848
4937,7.0,300.06009,1048.2199,0.0,0.0,0.0,0.0,-0.04920613891532339,0.0,-0.09706709293952621,-0.07231425932536173,-0.14925131416495785,-0.14619904009372187,-0.43614598722925757,0.023981063304496678
4938,7.0,299.23141,1045.1431,0.0,0.0,0.0,0.0,-0.04921610572490722,0.0,-0.13665484223428287,-0.1056755614243659,-0.07536701773014552,-0.13351658375956088,-0.4539681344306666,-0.036747197884916066
4939,7.0,299.51743,1060.7122,0.0,0.0,0.0,0.0,-0.04922607253449104,0.0,-0.11755692196446489,-0.08662795003526301,-0.11824516196238889,-0.1044931492201709,-0.4134541499147476,-0.024926507721054775
4940,7.0,299.80701,932.54442,0.0,0.0,0.0,0.0,-0.04923603934407486,0.0,-0.08207856246427343,-0.0992097045082355,-0.10218194600707291,-0.07469293384936863,-0.4209831757103046,-0.07194905257856862
4941,7.0,300.41809,676.1600599999999,0.0,0.0,0.0,0.0,-0.04924600615365868,0.0,-0.023878093789584377,-0.08083428627522292,-0.10082339445849431,-0.0880629310388846,-0.4559522199814806,-0.042235919974360756
4942,7.0,300.98264,672.35058,0.0,0.0,0.0,0.0,-0.049255972963242495,0.0,-0.03556701280444087,-0.07405130031629434,-0.09475947460528202,-0.12738833569724986,-0.4695519817636725,-0.03834132096249376
4943,7.0,299.88819,905.79605,0.0,0.0,0.0,0.0,-0.049265939772826325,0.0,-0.08798657656434902,-0.08423570809241712,-0.1031170947893649,-0.10818487529701591,-0.4425043139917756,0.01111996084520469
4944,7.0,299.69102000000004,1041.3774,0.0,0.0,0.0,0.0,-0.04927590658241014,0.0,-0.12356070238449189,-0.1080762548862959,-0.08491577318853433,-0.1284347596055239,-0.41723682532056855,-0.016455640626295284
4945,7.0,299.93748,1099.6785,0.0,0.0,0.0,0.0,-0.049285873391993966,0.0,-0.10941517370093688,-0.11849849475239088,-0.10636113657452691,-0.12694548460854388,-0.4112600074857026,-0.014209578248876186
4946,7.0,298.98782,1167.4496,0.0,0.0,0.0,0.0,-0.04929584020157778,0.0,-0.09385461592147941,-0.12258943123613487,-0.13843146482712188,-0.10087255634009622,-0.4286714945540826,-0.031252723574653675
4947,7.0,299.21443,1259.7839,0.0,0.0,0.0,0.0,-0.0493058070111616,0.0,-0.08751863537666682,-0.12932492008337587,-0.16609929232272386,-0.08286856823599092,-0.4083310155541336,-0.0031809022197556067
4948,7.0,299.7407,861.48685,0.0,0.0,0.0,0.0,-0.04931577382074543,0.0,-0.07255460731533223,-0.07187682000543984,-0.11743906071283289,-0.06683176365778153,-0.43038353258554757,-0.017169788416026184
4949,7.0,300.84816,819.8958299999999,0.0,0.0,0.0,0.0,-0.04932574063032925,0.0,-0.06318778293889864,-0.08340715322064512,-0.1026329233615809,-0.09527159957682482,-0.4594256514567816,0.00016488679672305983
4950,7.0,301.50946,761.9844400000001,0.0,0.0,0.0,0.0,-0.04933570743991308,0.0,-0.1023817994567969,-0.04644594171585755,-0.08279650690212902,-0.11508742882074488,-0.4489029377107706,-0.005463904453420385
4951,7.0,300.90747000000005,816.3978599999999,0.0,0.0,0.0,0.0,-0.04934567424949689,0.0,-0.06484866805231523,-0.06153688137871735,-0.12177901354115288,-0.12321271177014788,-0.4123236566456766,-0.004046648233798086
4952,7.0,301.134,1098.0577,0.0,0.0,0.0,0.0,-0.049355641059080704,0.0,-0.09468101155728831,-0.12144539081322688,-0.11765572398171588,-0.11856351501130788,-0.4191398305983806,-0.05714546253806804
4953,7.0,300.47478,1254.9844,0.0,0.0,0.0,0.0,-0.049365607868664535,0.0,-0.1097295446769629,-0.10446579146747091,-0.16728857436259684,-0.14393121411740487,-0.4404913913431156,-0.015383255223959086
4954,7.0,300.04586,1067.3066,0.0,0.0,0.0,0.0,-0.04937557467824835,0.0,-0.0953818584129565,-0.1104979226252959,-0.11855479092794688,-0.12153356383692888,-0.4339562929681516,-0.03360641540419497
4955,7.0,300.30441,945.6424199999999,0.0,0.0,0.0,0.0,-0.049385541487832176,0.0,-0.0985246856323794,-0.07716470680581362,-0.1117622966300799,-0.09604251774315851,-0.4186513123276676,-0.01021268961291399
4956,7.0,299.7058,1017.6237,0.0,0.0,0.0,0.0,-0.04939550829741599,0.0,-0.08196254634107351,-0.09238876524031121,-0.13498087200907488,-0.08491697692965312,-0.4030231657002897,-0.0054554933630152755
4957,7.0,300.02779,871.23148,0.0,0.0,0.0,0.0,-0.04940547510699981,0.0,-0.06445152771537054,-0.09812758785193891,-0.1022535017291349,-0.09780740689983951,-0.4458049153975196,-0.027994787090870374
4958,7.0,299.90028,865.7071800000001,0.0,0.0,0.0,0.0,-0.04941544191658364,0.0,-0.048527495846790954,-0.08758963685092411,-0.12703623128749988,-0.08952813729298921,-0.43300973498973355,-0.02322484435736368
4959,7.0,299.77729,779.4862,0.0,0.0,0.0,0.0,-0.04942540872616746,0.0,-0.07913446094721321,-0.06914010038634665,-0.08866977868277583,-0.13631879783861786,-0.40538302518318964,-0.025434898865979074
4960,7.0,299.52961,790.74699,0.0,0.0,0.0,0.0,-0.04943537553575128,0.0,-0.06505173755785663,-0.07579886694926573,-0.09951673651378722,-0.14350928664326384,-0.42082961765764965,-0.03168892672945357
4961,7.0,299.88469,959.6234,0.0,0.0,0.0,0.0,-0.0494453423453351,0.0,-0.1033690191617279,-0.06949609263673034,-0.11883644405824388,-0.14288826565697388,-0.44232898119447156,-0.028812501199822475
4962,7.0,299.99958,1212.8343,0.0,0.0,0.0,0.0,-0.049455309154918914,0.0,-0.1262203724394809,-0.12074381644398688,-0.12170716397656188,-0.12797250477740288,-0.4166903998066406,-0.014097976856361986
4963,7.0,300.59637000000004,1205.8532,0.0,0.0,0.0,0.0,-0.049465275964502745,0.0,-0.10397577358660991,-0.11622255264277288,-0.14635092628371185,-0.08325223538635591,-0.3992591442288096,-0.020251080956876083
4964,7.0,300.59697,829.10475,0.0,0.0,0.0,0.0,-0.04947524277408656,0.0,-0.07564539502286922,-0.07600344011795553,-0.10037830510031741,-0.08566887639160982,-0.4138578490195896,-0.026647997349452578
4965,7.0,300.94792,887.23728,0.0,0.0,0.0,0.0,-0.049485209583670385,0.0,-0.07759977005425102,-0.09348196989245211,-0.0986162378451649,-0.10093005220377059,-0.4618236395409446,-0.007873897828743212
4966,7.0,300.79479,1145.1443,0.0,0.0,0.0,0.0,-0.0494951763932542,0.0,-0.13903046788873888,-0.07111130550188943,-0.13795351475495188,-0.0971754519317204,-0.4591266413522716,0.017417284885452182
4967,7.0,299.90065,1078.3885,0.0,0.0,0.0,0.0,-0.04950514320283802,0.0,-0.11069842455508389,-0.10146257896607691,-0.11564216298549287,-0.10071311738386081,-0.42968964878456656,0.0037864510796686264
4968,7.0,300.13815,1009.3745,0.0,0.0,0.0,0.0,-0.04951511001242185,0.0,-0.0913933422625706,-0.09343753279606651,-0.12199376176734689,-0.13838815851784786,-0.4369423308803506,-0.008990511901919442
4969,7.0,299.57,1034.5738,0.0,0.0,0.0,0.0,-0.049525076822005666,0.0,-0.08416414629085452,-0.08906139174042502,-0.14125908108618587,-0.13421618229110588,-0.44749819816963354,-0.022581846989654777
4970,7.0,298.75011,1037.2444,0.0,0.0,0.0,0.0,-0.04953504363158949,0.0,-0.08896283290319801,-0.09576399048942,-0.13056956610871287,-0.12028266605847489,-0.4139570462043796,-0.02095067138242028
4971,7.0,299.84787,1049.9194,0.0,0.0,0.0,0.0,-0.04954501044117331,0.0,-0.09695398889711371,-0.08588672111010942,-0.13630856401260788,-0.08663650085285692,-0.3860000168652356,-0.026773375903576473
4972,7.0,300.06483,872.9205099999999,0.0,0.0,0.0,0.0,-0.04955497725075712,0.0,-0.07189678001915972,-0.08354798789179442,-0.1099012703039109,-0.11770476528655589,-0.4038352045954316,-0.030687043269075367
4973,7.0,299.66147,655.50785,0.0,0.0,0.0,0.0,-0.049564944060340954,0.0,-0.06990913694724464,-0.06498326211609864,-0.06436561829239194,-0.0996639445280655,-0.45610903056695656,-0.022030471748988277
4974,7.0,299.88464,803.7841,0.0,0.0,0.0,0.0,-0.04957491086992477,0.0,-0.07587806561683202,-0.07046435240579013,-0.09798787687515051,-0.11752764916907589,-0.44475553279895363,-0.021569762127269777
4975,7.0,299.58125,1013.2231,0.0,0.0,0.0,0.0,-0.049584877679508595,0.0,-0.07621285864862352,-0.1150687748864039,-0.1167128846311649,-0.08885678614773201,-0.43088894173542763,-0.035131798581738566
4976,7.0,300.06174,969.95648,0.0,0.0,0.0,0.0,-0.04959484448909241,0.0,-0.07215414047830923,-0.0996946926156001,-0.12299371802603487,-0.11966114857963589,-0.46391404542475156,-0.03310903119510697
4977,7.0,300.56573,755.11293,0.0,0.0,0.0,0.0,-0.04960481129867623,0.0,-0.028456826096720074,-0.09557389159840872,-0.1055047578550089,-0.1122690939325969,-0.4801859402381626,-0.04046632123121496
4978,7.0,300.38118,867.05444,0.0,0.0,0.0,0.0,-0.04961477810826006,0.0,-0.09148678722654292,-0.090797423534258,-0.08127868966308213,-0.10484233546963288,-0.44285875900925653,-0.016389817873299083
4979,7.0,301.63382,1372.7063,0.0,0.0,0.0,0.0,-0.049624744917843876,0.0,-0.15872733042516787,-0.1153881614504249,-0.14315294684809587,-0.07857076559858082,-0.4119418538754956,-0.012870661460735388
4980,7.0,300.51142000000004,1136.9449,0.0,0.0,0.0,0.0,-0.0496347117274277,0.0,-0.13786831055404286,-0.1002349717544215,-0.1074995838568829,-0.08585568120654602,-0.4152510780395906,-0.03180034472369968
4981,7.0,299.55454,809.4336900000001,0.0,0.0,0.0,0.0,-0.049644678537011516,0.0,-0.05320709010863095,-0.07248612883382392,-0.12035441429805588,-0.0996391543511189,-0.46477355508707857,-0.02821115449072418
4982,7.0,299.20808,786.43255,0.0,0.0,0.0,0.0,-0.04965464534659533,0.0,-0.07346441572587334,-0.04401741224718036,-0.12157403304592289,-0.09627472224207531,-0.4232135519629256,-0.001029233411052429
4983,7.0,299.56547,967.1371800000001,0.0,0.0,0.0,0.0,-0.04966461215617916,0.0,-0.06346292796380334,-0.1086083935738139,-0.1219142317669979,-0.1021838610497619,-0.4076606898179776,-0.008001800996816274
4984,7.0,299.4742,1050.2866,0.0,0.0,0.0,0.0,-0.049674578965762974,0.0,-0.11329157474100789,-0.07524164829527252,-0.1307276736543169,-0.1166890124588089,-0.4307075091725216,0.015812071785529985
4985,7.0,299.82093,1064.0179,0.0,0.0,0.0,0.0,-0.04968454577534679,0.0,-0.10658266344388989,-0.10707012793449891,-0.1097820715621469,-0.14982844115691588,-0.4563579354540216,-0.011596831806018188
4986,7.0,298.59587,992.28622,0.0,0.0,0.0,0.0,-0.049694512584930614,0.0,-0.09459497142504682,-0.09878667056498532,-0.1082485884633039,-0.12345903286945788,-0.4236433219928406,-0.01176998206260679
4987,7.0,300.42762999999997,1150.885,0.0,0.0,0.0,0.0,-0.04970447939451444,0.0,-0.10663635556668889,-0.1028105663691129,-0.14039340073074988,-0.08877341491625391,-0.41498549505587956,-0.02113382140424578
4988,7.0,300.40355,1346.1932,0.0,0.0,0.0,0.0,-0.04971444620409826,0.0,-0.1124620370166389,-0.14884297437465785,-0.14790410696449888,-0.09544368896055871,-0.42502947852714357,-0.010049851101268081
4989,7.0,300.57886,1106.2261,0.0,0.0,0.0,0.0,-0.04972441301368208,0.0,-0.08933754798892951,-0.08588821464075683,-0.16103933410584484,-0.08341396023481693,-0.47800579079299854,0.0005419837598621325
4990,7.0,302.15447,827.12264,0.0,0.0,0.0,0.0,-0.0497343798232659,0.0,-0.06337036250091783,-0.06878932333422765,-0.11926493739303289,-0.11916783763594989,-0.44982257363403155,0.012979305176207686
4991,7.0,301.32588,747.7117900000001,0.0,0.0,0.0,0.0,-0.04974434663284972,0.0,-0.07770850597548243,-0.07633430984535983,-0.07324289696251113,-0.1020386116479269,-0.4163018690557956,-0.012967099565503088
4992,7.0,301.3428,1063.0013,0.0,0.0,0.0,0.0,-0.049754313442433536,0.0,-0.11507092297661588,-0.08876537376346032,-0.11928956950296388,-0.12070186788984688,-0.4198158508000986,-0.03695439030511436
4993,7.0,301.26612,1069.7972,0.0,0.0,0.0,0.0,-0.049764280252017366,0.0,-0.09701855521998591,-0.11301254592846989,-0.1151605449479609,-0.1337215439897889,-0.4526423372048206,-0.06244582244717285
4994,7.0,299.88424,874.7376,0.0,0.0,0.0,0.0,-0.04977424706160118,0.0,-0.07153617646757093,-0.08399955901086101,-0.1103626537369459,-0.1145828809334499,-0.41341508912339264,-0.03291436153289457
4995,7.0,300.44433,920.5740599999999,0.0,0.0,0.0,0.0,-0.04978421387118501,0.0,-0.06463282348951303,-0.1027236497755349,-0.1124750471479229,-0.10608367829964391,-0.4120050401517316,-0.027542969752029474
4996,7.0,300.89269,985.5482400000001,0.0,0.0,0.0,0.0,-0.049794180680768824,0.0,-0.0923919205011226,-0.09389119627658961,-0.1132989410692349,-0.1014007909749789,-0.4168848931633356,-0.0031510379902832367
4997,7.0,299.28098,1011.4284,0.0,0.0,0.0,0.0,-0.04980414749035264,0.0,-0.0984610342743475,-0.08553618825126451,-0.12345176786624089,-0.12779836761521687,-0.46338019434456457,-0.016471041014565185
4998,7.0,299.33117000000004,1203.0369,0.0,0.0,0.0,0.0,-0.04981411429993647,0.0,-0.1255671301000109,-0.09720320383870931,-0.14292283775038586,-0.09862821851434732,-0.4373873300592686,0.012154061605762488
4999,7.0,299.90604,969.62864,0.0,0.0,0.0,0.0,-0.04982408110952029,0.0,-0.10024309194072291,-0.07571600234283762,-0.11878379558304787,-0.08203433612390862,-0.41218895517738263,-0.03921735268095136
5000,7.0,299.01636,861.1124699999999,0.0,0.0,0.0,0.0,-0.04983404791910411,0.0,-0.07959383814505022,-0.06508759141264514,-0.11707525326442789,-0.09547287664293931,-0.44446980640325456,-0.006072362759670545
5001,7.0,299.63395,1008.0222,0.0,0.0,0.0,0.0,-0.04984401472868793,0.0,-0.08132616448326752,-0.0948632780250266,-0.13022413901712188,-0.11965744008426987,-0.4925450482004115,-0.029739019117762677
5002,7.0,300.22065,1039.7795,0.0,0.0,0.0,0.0,-0.049853981538271745,0.0,-0.10000787606250891,-0.07156057856972924,-0.14449853284839487,-0.12396665090455589,-0.4377962575346266,0.02447668952466118
5003,7.0,300.88821,895.6417,0.0,0.0,0.0,0.0,-0.049863948347855576,0.0,-0.08129920696435701,-0.07741093569936452,-0.1135425669232789,-0.09283082396743901,-0.4031089879837596,-0.02186502219315968
5004,7.0,301.21676,990.98781,0.0,0.0,0.0,0.0,-0.04987391515743939,0.0,-0.09037677174199292,-0.1186164978590369,-0.09224228372635461,-0.11761953068814389,-0.4054279729576256,-0.03572302494883806
5005,7.0,301.72577,1010.3192,0.0,0.0,0.0,0.0,-0.049883881967023216,0.0,-0.09466277406873841,-0.0931802189464216,-0.11926882827341688,-0.12232638137767388,-0.4318432409446095,-0.05122145327191386
5006,7.0,300.84054,1109.4936,0.0,0.0,0.0,0.0,-0.04989384877660703,0.0,-0.1079069306620849,-0.1113935445211869,-0.11795788529403689,-0.1116111197151599,-0.43716859976018163,-0.03132464305350157
5007,7.0,300.53935,1195.0437,0.0,0.0,0.0,0.0,-0.04990381558619085,0.0,-0.1050250852576689,-0.1084462026303069,-0.14979216680333585,-0.11927407690893488,-0.4316655878045766,-0.02295521141300298
5008,7.0,300.43427,990.6443800000001,0.0,0.0,0.0,0.0,-0.04991378239577468,0.0,-0.1059701030959349,-0.06782526753983274,-0.12733578854706387,-0.13890661832901585,-0.4605724884499656,0.003858036996583606
5009,7.0,299.94894,666.30863,0.0,0.0,0.0,0.0,-0.0499237492053585,0.0,-0.04116255779892816,-0.07418833631281872,-0.08719029168176182,-0.14346993200937985,-0.48772923259512757,-0.005800528833442625
5010,7.0,299.9169,754.1573599999999,0.0,0.0,0.0,0.0,-0.04993371601494232,0.0,-0.07503285392666613,-0.051190800429888654,-0.10302135278741589,-0.11439956372535791,-0.41563526194750655,-0.0005668115689174464
5011,7.0,300.08317999999997,1118.2752,0.0,0.0,0.0,0.0,-0.04994368282452614,0.0,-0.09555234179528191,-0.1192262717692169,-0.12514913403625788,-0.09048437890261292,-0.4115574673175596,-0.04093859507632476
5012,7.0,299.28868,1024.3655,0.0,0.0,0.0,0.0,-0.049953649634109955,0.0,-0.11948407299215989,-0.08820320943572901,-0.1036942521788259,-0.07724361568385132,-0.42764209324748853,-0.036827000449541965
5013,7.0,299.03542999999996,798.75259,0.0,0.0,0.0,0.0,-0.049963616443693785,0.0,-0.06300126183399044,-0.07727713095740903,-0.1025224487031779,-0.12215764483852089,-0.4749883421276996,-0.025507425281636874
5014,7.0,299.9302,904.86139,0.0,0.0,0.0,0.0,-0.0499735832532776,0.0,-0.11415522859624389,-0.06884670774039103,-0.09205332980795632,-0.1020735282463729,-0.4463664991329436,0.00995246388513171
5015,7.0,300.25007999999997,1120.75,0.0,0.0,0.0,0.0,-0.049983550062861426,0.0,-0.1073834046004169,-0.08607298282299201,-0.14722364872734287,-0.11273374003095389,-0.4252156429680166,-0.009329138565464292
5016,7.0,301.16874,1167.1368,0.0,0.0,0.0,0.0,-0.04999351687244524,0.0,-0.12710312605910187,-0.09172610068816132,-0.13595120083483886,-0.11680974120822389,-0.4259204192075726,-0.008488919057216082
5017,7.0,301.13173,986.88306,0.0,0.0,0.0,0.0,-0.05000348368202906,0.0,-0.07860446427040663,-0.1018724487640279,-0.11951089372230689,-0.11770959848953287,-0.44603595668532153,-0.04116613153203086
5018,7.0,300.51261,814.77437,0.0,0.0,0.0,0.0,-0.05001345049161289,0.0,-0.0966743835452688,-0.05180099078585975,-0.09919568821960222,-0.12001728572478389,-0.4102243442934906,0.005651548036789365
5019,7.0,300.41343,910.8938300000001,0.0,0.0,0.0,0.0,-0.05002341730119671,0.0,-0.08315646096040372,-0.08428202476773822,-0.1094504955994229,-0.10143579876593391,-0.40164560152683465,-0.031117506362058765
5020,7.0,299.14682,1067.4272,0.0,0.0,0.0,0.0,-0.05003338411078053,0.0,-0.12277930417237388,-0.1007685654690831,-0.1009233617133603,-0.1118206801008419,-0.4297860190015776,-0.01216251312484659
5021,7.0,299.10357999999997,967.1298,0.0,0.0,0.0,0.0,-0.05004335092036435,0.0,-0.08049005076574953,-0.07933534183253863,-0.13415792041035587,-0.1155852183298729,-0.46019072620978857,-0.031505278188578865
5022,7.0,300.44485,729.55444,0.0,0.0,0.0,0.0,-0.050053317729948164,0.0,-0.059401745569245844,-0.06905166189111843,-0.09331292532526872,-0.0974547968782896,-0.44482078610539355,-0.02923141425491597
5023,7.0,299.61951,812.51957,0.0,0.0,0.0,0.0,-0.050063284539531995,0.0,-0.02945827791255567,-0.0969831178109885,-0.1205442669692929,-0.1078543125843919,-0.4212556285296936,-0.05208904056403805
5024,7.0,299.78609,1169.9263,0.0,0.0,0.0,0.0,-0.05007325134911581,0.0,-0.1147684576892649,-0.1100268930513089,-0.1308330415322159,-0.1104844869289699,-0.4358388812564486,-0.016727579727883586
5025,7.0,299.86921,1139.8946,0.0,0.0,0.0,0.0,-0.050083218158699636,0.0,-0.1096002438317019,-0.1016888883759119,-0.13521036302422387,-0.14325626796079288,-0.4617195888881756,-0.016388776252196285
5026,7.0,299.44601,745.35078,0.0,0.0,0.0,0.0,-0.05009318496828345,0.0,-0.08367064789590002,-0.04780005016274765,-0.0950973286656256,-0.08960903822072351,-0.4192342756402016,0.03110895959746527
5027,7.0,299.75678999999997,847.94989,0.0,0.0,0.0,0.0,-0.05010315177786727,0.0,-0.06370728234466924,-0.07994938355213982,-0.11409893242068789,-0.0950020963284769,-0.4275741953582876,-0.0013019085375133687
5028,7.0,299.08198,1200.348,0.0,0.0,0.0,0.0,-0.0501131185874511,0.0,-0.10920745743043689,-0.11107958897770188,-0.14458876276979987,-0.10480725675117089,-0.4317100593514656,0.006181824877248614
5029,7.0,298.9003,1202.4079,0.0,0.0,0.0,0.0,-0.05012308539703492,0.0,-0.12041165279620489,-0.11207941351387689,-0.13301092129715586,-0.1345219406412819,-0.4632960033937556,-0.03691587464231316
5030,7.0,300.28022999999996,1041.6288,0.0,0.0,0.0,0.0,-0.05013305220661874,0.0,-0.1111386310610289,-0.08361077596074112,-0.12187973060109289,-0.1054725770318329,-0.4272715780834216,-0.007272475733837473
5031,7.0,300.34229,871.0785900000001,0.0,0.0,0.0,0.0,-0.05014301901620256,0.0,-0.09601603138554451,-0.06531455943504513,-0.1034555507202679,-0.12158606032460989,-0.37941887640572763,-0.03119720962817487
5032,7.0,300.51563,995.8168300000001,0.0,0.0,0.0,0.0,-0.050152985825786374,0.0,-0.09904820460129672,-0.09973854506667801,-0.1039167011057799,-0.1302880447009289,-0.41909667627662156,-0.012843221634777288
5033,7.0,300.09726,1006.6313,0.0,0.0,0.0,0.0,-0.050162952635370205,0.0,-0.09842848158838481,-0.07990727186473372,-0.12765502312356988,-0.13201611234897587,-0.4644599237836256,-0.018628598022249483
5034,7.0,299.71089,1044.0749,0.0,0.0,0.0,0.0,-0.05017291944495402,0.0,-0.096297963159619,-0.07339802048657063,-0.14767671337705685,-0.09460084827562681,-0.43323568976203364,0.011729651668876488
5035,7.0,300.51839,835.89595,0.0,0.0,0.0,0.0,-0.050182886254537845,0.0,-0.04515693458789245,-0.08565111715710712,-0.12328344675962888,-0.04661838067087596,-0.43726678369487154,-0.01959431149380798
5036,7.0,299.0187,747.71668,0.0,0.0,0.0,0.0,-0.05019285306412166,0.0,-0.05832714216244075,-0.07104925001276503,-0.0979108080592944,-0.09633171249394981,-0.44677554819831355,-0.022791559362851776
5037,7.0,298.42812000000004,924.88945,0.0,0.0,0.0,0.0,-0.05020281987370548,0.0,-0.08125110291585952,-0.08122594188937633,-0.1186662484389469,-0.11380058092874289,-0.47324798375593957,-0.02013018603444468
5038,7.0,299.48328,1035.2815,0.0,0.0,0.0,0.0,-0.0502127866832893,0.0,-0.12807103321712687,-0.08567845160505483,-0.1009502260132616,-0.11684105063631389,-0.44433346346979863,-0.006227676673423834
5039,7.0,299.43743,974.84385,0.0,0.0,0.0,0.0,-0.05022275349287312,0.0,-0.05940787775885104,-0.10904316905922289,-0.12787713767799086,-0.13429564136394787,-0.4048556487711416,-0.046873030686007955
5040,7.0,299.1136,1085.1253,0.0,0.0,0.0,0.0,-0.050232720302456936,0.0,-0.06862981041073493,-0.13610837619035088,-0.12511279888767188,-0.12869484064119188,-0.4457293776025646,-0.04638274429387045
5041,7.0,299.88749,1176.3528,0.0,0.0,0.0,0.0,-0.05024268711204076,0.0,-0.08849466778724373,-0.12585738572365687,-0.14322981200068186,-0.14602567300161187,-0.49114560795729756,-0.05058960976130575
5042,7.0,299.35825,1043.0665,0.0,0.0,0.0,0.0,-0.05025265392162458,0.0,-0.12402258231007587,-0.09017916264124042,-0.1028644408769299,-0.10751608970101191,-0.4287420268935436,-0.028068447333390072
5043,7.0,300.1869,1080.4364,0.0,0.0,0.0,0.0,-0.05026262073120841,0.0,-0.13227848332986988,-0.06897533477433554,-0.1271718548133849,-0.07389123719799734,-0.4063473150383576,-0.0025527960821413575
5044,7.0,300.61363,979.71791,0.0,0.0,0.0,0.0,-0.050272587540792224,0.0,-0.12462521280705087,-0.07897114934909563,-0.09421342196739081,-0.09266397409997222,-0.4194118274552246,0.00023346887292158378
5045,7.0,300.22431,770.17314,0.0,0.0,0.0,0.0,-0.05028255435037604,0.0,-0.04564002082481936,-0.06974168622246853,-0.11873169426290589,-0.12689189381075486,-0.4461782271318626,0.018719046805676084
5046,7.0,299.31762000000003,949.6198800000001,0.0,0.0,0.0,0.0,-0.050292521159959865,0.0,-0.10920307005750389,-0.056733204509631346,-0.12272445694446087,-0.1108332780108929,-0.45100080111531354,-0.016127207765381485
5047,7.0,299.31975,1387.3188,0.0,0.0,0.0,0.0,-0.05030248796954368,0.0,-0.12223203766086288,-0.12349313886782388,-0.17598511758587884,-0.1005070608170246,-0.4235502043086506,0.016426393162158784
5048,7.0,299.80932,1348.5384,0.0,0.0,0.0,0.0,-0.05031245477912751,0.0,-0.14395653523740384,-0.14230753149465988,-0.12365793386408787,-0.11871812684406689,-0.4597988821311166,-0.049869866804522656
5049,7.0,299.90654,1135.778,0.0,0.0,0.0,0.0,-0.05032242158871133,0.0,-0.0995475636348296,-0.1141085278991349,-0.13159206718212588,-0.13369572637724086,-0.4659202400927476,0.017099547892593984
5050,7.0,299.68541,900.05616,0.0,0.0,0.0,0.0,-0.050332388398295146,0.0,-0.1046615209892879,-0.0901908058981395,-0.07874226831050683,-0.1254090225544069,-0.4221331943088026,-0.034521598093266465
5051,7.0,300.38077999999996,869.60917,0.0,0.0,0.0,0.0,-0.05034235520787897,0.0,-0.04751809407067075,-0.07548725809301234,-0.1413341223885919,-0.09640449830163321,-0.3891131872674816,-0.02022722195677138
5052,7.0,301.32822000000004,856.9307699999999,0.0,0.0,0.0,0.0,-0.050352322017462786,0.0,-0.08388718045552011,-0.08563880920814242,-0.09095956685501032,-0.0988628345485021,-0.43541064123418455,-0.06556968973072454
5053,7.0,301.33004,734.95109,0.0,0.0,0.0,0.0,-0.05036228882704662,0.0,-0.03804102099060647,-0.07656670483529543,-0.10879905684513089,-0.12270686692272488,-0.45663417782878457,-0.03172577964884067
5054,7.0,300.74171,693.4621,0.0,0.0,0.0,0.0,-0.050372255636630434,0.0,-0.08934371057603772,-0.047855371591707455,-0.07359608149686772,-0.1216263268835839,-0.45640597364126256,-0.038336090565477564
5055,7.0,299.97275,908.0871699999999,0.0,0.0,0.0,0.0,-0.05038222244621425,0.0,-0.0876745978718091,-0.07814946836600203,-0.1102117605320539,-0.1133422169810059,-0.4266496958345466,-0.02412924302562088
5056,7.0,299.19211,1092.1282,0.0,0.0,0.0,0.0,-0.050392189255798074,0.0,-0.12095054986188987,-0.0989565389045,-0.1120726247382069,-0.12495672797476887,-0.4346260310192496,-0.01719394632491038
5057,7.0,299.34862000000004,1207.763,0.0,0.0,0.0,0.0,-0.05040215606538189,0.0,-0.07249961924565533,-0.13274883402628987,-0.16188133480644384,-0.14296741062228485,-0.44451007296222855,-0.018353863363635283
5058,7.0,299.67165,1055.2448,0.0,0.0,0.0,0.0,-0.05041212287496572,0.0,-0.090207995686086,-0.1005070587905244,-0.13005303147273486,-0.0923311102963711,-0.4340765758875226,-0.014502963802081088
5059,7.0,299.54919,1138.6487,0.0,0.0,0.0,0.0,-0.05042208968454954,0.0,-0.0967539601551224,-0.0980222757027954,-0.15134452675154186,-0.08961676931898652,-0.40477948276112463,-0.023616218287989276
5060,7.0,300.22465,1061.2160000000001,0.0,0.0,0.0,0.0,-0.05043205649413336,0.0,-0.10371070736044989,-0.0921497993234771,-0.12672266077905286,-0.10666803989731591,-0.4702893035964406,-0.006862402475266394
5061,7.0,301.83661,755.64485,0.0,0.0,0.0,0.0,-0.05044202330371718,0.0,-0.07505851144569833,-0.05486660024166186,-0.099772053247485,-0.11315023648455888,-0.4823190850111876,0.01217989543031209
5062,7.0,301.20917000000003,871.0429300000001,0.0,0.0,0.0,0.0,-0.050451990113300996,0.0,-0.07064593492971093,-0.06375513916014235,-0.13037422162193388,-0.12573868347444186,-0.4440671914760196,0.0038842317408188266
5063,7.0,300.63311,1084.9841,0.0,0.0,0.0,0.0,-0.050461956922884826,0.0,-0.1070424662067689,-0.07546256113507493,-0.14730304700517888,-0.13903764169944688,-0.4011408104595156,0.0013975433376017888
5064,7.0,299.30622,1195.1474,0.0,0.0,0.0,0.0,-0.05047192373246864,0.0,-0.1171281043896439,-0.1016047784851109,-0.14456207376216587,-0.13001746639422487,-0.4251313608246986,-0.046130207918447054
5065,7.0,299.95673,1245.9784,0.0,0.0,0.0,0.0,-0.05048189054205247,0.0,-0.13384610282458187,-0.09556454132648591,-0.14933567736828388,-0.14671506810464985,-0.43821692857864364,-0.02288918499673668
5066,7.0,300.50171,1264.4979,0.0,0.0,0.0,0.0,-0.050491857351636284,0.0,-0.14651497147490186,-0.1218407407372449,-0.11602008500779089,-0.08411369656837552,-0.45083395935384757,-0.022961253423349277
5067,7.0,300.35035,922.8934199999999,0.0,0.0,0.0,0.0,-0.0505018241612201,0.0,-0.09607386668800241,-0.07889600672167962,-0.10556667756861991,-0.06666016164734574,-0.4301502925450286,-0.012657920482989488
5068,7.0,299.45707000000004,845.6908800000001,0.0,0.0,0.0,0.0,-0.05051179097080393,0.0,-0.059548024433182446,-0.10471815153737689,-0.09280273160841651,-0.08287439949031643,-0.4508500497654356,-0.012749375423765388
5069,7.0,298.92913,843.40765,0.0,0.0,0.0,0.0,-0.05052175778038775,0.0,-0.05590099991099915,-0.07410226274332393,-0.12637160001690587,-0.11441909918728588,-0.4593924269860026,-0.006124903526380915
5070,7.0,298.54341,858.52943,0.0,0.0,0.0,0.0,-0.05053172458997157,0.0,-0.06618717143441524,-0.09111273075337642,-0.1036716060390909,-0.11983931847721989,-0.4524055710539536,-0.02042649481418808
5071,7.0,298.98496,975.7647,0.0,0.0,0.0,0.0,-0.05054169139955539,0.0,-0.09413491129664242,-0.09943745475971272,-0.1030357409388359,-0.12367100479037789,-0.4180548829213046,-0.05524271057278104
5072,7.0,299.08051,1236.1201,0.0,0.0,0.0,0.0,-0.050551658209139205,0.0,-0.15590871182699184,-0.101231751474046,-0.1186091720608139,-0.1376650323189809,-0.4453102973612046,-0.02973700376331377
5073,7.0,299.30005,1041.8223,0.0,0.0,0.0,0.0,-0.050561625018723036,0.0,-0.09033868873698442,-0.09481699985320931,-0.13153226516122388,-0.1291666098877519,-0.45398647425747657,-0.03409503499991797
5074,7.0,299.8718,968.67814,0.0,0.0,0.0,0.0,-0.05057159182830685,0.0,-0.07485397374076203,-0.07860780292948613,-0.14099219100984586,-0.1085287723809559,-0.44675732996151557,0.004848572866441885
5075,7.0,300.3821,1258.9057,0.0,0.0,0.0,0.0,-0.050581558637890676,0.0,-0.1023135975925659,-0.10432837448890891,-0.17603391571069485,-0.10668472812646292,-0.42022540649051865,-0.0072322394710414625
5076,7.0,300.52551,1151.4701,0.0,0.0,0.0,0.0,-0.05059152544747449,0.0,-0.1201430807246989,-0.10565648192498289,-0.12421860567442188,-0.10581923015604489,-0.44081720191277063,0.002311893540391128
5077,7.0,300.66938,887.6383199999999,0.0,0.0,0.0,0.0,-0.05060149225705831,0.0,-0.08986024014576521,-0.07920509461168423,-0.10075455120695,-0.12908544855474188,-0.4566804022983466,-0.008760829382501542
5078,7.0,300.90406,1024.8155,0.0,0.0,0.0,0.0,-0.05061145906664214,0.0,-0.1284302810400819,-0.09386957554595582,-0.08921845665167612,-0.11777455795344388,-0.4615872888226186,-0.003040009793350607
5079,7.0,299.84761000000003,1183.5643,0.0,0.0,0.0,0.0,-0.05062142587622596,0.0,-0.09618044438652082,-0.11312344615191489,-0.15047012231274484,-0.09143798302222632,-0.43787334560223456,-0.0009005637091462182
5080,7.0,299.1169,1021.6723,0.0,0.0,0.0,0.0,-0.05063139268580978,0.0,-0.09270850745511731,-0.0972271955745771,-0.12062717109247488,-0.10847319561297089,-0.43667459980642753,-0.026392394879226577
5081,7.0,299.16796,931.0319800000001,0.0,0.0,0.0,0.0,-0.0506413594953936,0.0,-0.06379845458866723,-0.07608675055442762,-0.14312527498786487,-0.12150725986433288,-0.45274784693773357,0.0028809064255483274
5082,7.0,299.14951,980.7678400000001,0.0,0.0,0.0,0.0,-0.050651326304977415,0.0,-0.1067341848638439,-0.08241748955647292,-0.1089772571402179,-0.12313497522247588,-0.4352896997022486,-0.02656137054540318
5083,7.0,299.26301,905.25595,0.0,0.0,0.0,0.0,-0.050661293114561246,0.0,-0.08361361711402152,-0.07379629870337763,-0.11776528671502888,-0.10830565470893591,-0.4261133014966086,-0.02690480254754727
5084,7.0,300.30132000000003,905.9629,0.0,0.0,0.0,0.0,-0.05067125992414506,0.0,-0.09575785526006451,-0.09643540546943351,-0.08319683897688872,-0.11334387871116988,-0.45395878213224355,-0.07082188175657553
5085,7.0,299.59119,1001.4201,0.0,0.0,0.0,0.0,-0.050681226733728886,0.0,-0.07216194757032972,-0.1058549674870719,-0.1263897979887019,-0.11558323235967688,-0.44602535808927557,-0.018333167730342784
5086,7.0,299.81772,857.9884599999999,0.0,0.0,0.0,0.0,-0.0506911935433127,0.0,-0.06770326412179194,-0.1034116263284329,-0.08969217741792872,-0.12548796486969788,-0.46188294506929756,-0.03446300386648367
5087,7.0,299.57355,891.82886,0.0,0.0,0.0,0.0,-0.05070116035289652,0.0,-0.04421040396722716,-0.1027709989527079,-0.12411230560643088,-0.09174135618166691,-0.44409561314132456,-0.008318694560291232
5088,7.0,300.31561,1101.364,0.0,0.0,0.0,0.0,-0.05071112716248034,0.0,-0.11755170372644988,-0.1017407667810319,-0.11549467430093688,-0.13949247953683588,-0.43129184037269064,-0.024972126267056978
5089,7.0,300.3954,1116.4222,0.0,0.0,0.0,0.0,-0.05072109397206417,0.0,-0.0972351799853651,-0.12327940389172988,-0.1188499000195719,-0.0976940637304034,-0.44797127450882257,-0.015129231397388884
5090,7.0,299.45381000000003,805.00559,0.0,0.0,0.0,0.0,-0.05073106078164799,0.0,-0.08237139478292371,-0.08183428914341552,-0.08049591444407822,-0.11881897562651988,-0.43159596739020556,-0.030734648798523674
5091,7.0,299.01116,920.0215800000001,0.0,0.0,0.0,0.0,-0.05074102759123181,0.0,-0.056347926291607356,-0.09192719638250792,-0.13138846470703186,-0.10042150299183071,-0.41897227956184463,-0.024841378500653176
5092,7.0,300.56737000000004,1068.5073,0.0,0.0,0.0,0.0,-0.050750994400815624,0.0,-0.1151901926458869,-0.08350436544848922,-0.12610497338559187,-0.12059892167968687,-0.44433052504450854,-0.002114083410818788
5093,7.0,300.39101,928.2824699999999,0.0,0.0,0.0,0.0,-0.05076096121039945,0.0,-0.07365936099211294,-0.05780225733238865,-0.15071306928922185,-0.12676738563846687,-0.44862103126794856,0.007697379427497202
5094,7.0,300.6162,1051.2292,0.0,0.0,0.0,0.0,-0.050770928019983265,0.0,-0.1126193643596659,-0.08662254130622922,-0.1203055249807309,-0.1282071431030599,-0.4502491620586326,0.01867791999736718
5095,7.0,299.85201,1266.7024,0.0,0.0,0.0,0.0,-0.05078089482956708,0.0,-0.1166112961761389,-0.1084621410543799,-0.15997246281055286,-0.11093835204626289,-0.4570440070967316,-0.021533233447914683
5096,7.0,299.28826000000004,1161.8263,0.0,0.0,0.0,0.0,-0.050790861639150905,0.0,-0.11965095528362989,-0.09981843071781209,-0.13369680042234686,-0.12340731658435389,-0.4204760845652586,-0.01047420946372399
5097,7.0,300.09255,1019.7881,0.0,0.0,0.0,0.0,-0.05080082844873472,0.0,-0.08165607060982671,-0.11311985924656089,-0.11521418640825488,-0.0949888024871649,-0.4489229392677446,-0.04239476009978706
5098,7.0,300.18716,1020.0943,0.0,0.0,0.0,0.0,-0.05081079525831855,0.0,-0.09826345354459781,-0.1022487901161699,-0.1095709406388099,-0.09344333567938923,-0.44666555989995854,0.032319733685209365
5099,7.0,299.32712999999995,811.0602700000001,0.0,0.0,0.0,0.0,-0.05082076206790237,0.0,-0.06923267598173313,-0.08112649747156192,-0.09618289645176281,-0.10471099799167088,-0.42854130204873364,-0.026245659039494877
5100,7.0,299.09677999999997,955.64735,0.0,0.0,0.0,0.0,-0.0508307288774862,0.0,-0.07835886359191772,-0.1054853845130969,-0.1066486868204059,-0.1093786156373289,-0.4384376043179226,-0.0007039089481329044
5101,7.0,298.79665,994.76234,0.0,0.0,0.0,0.0,-0.05084069568707001,0.0,-0.08376255677272071,-0.07932281299505213,-0.13929754035009687,-0.1202463207773879,-0.43635833405271457,-0.038535963266953466
5102,7.0,299.7152,977.17337,0.0,0.0,0.0,0.0,-0.05085066249665383,0.0,-0.06595037488604523,-0.1126991780700429,-0.11838675353136288,-0.14022937580456188,-0.4579917303127646,-0.024466362479641977
5103,7.0,300.25102999999996,870.0913300000001,0.0,0.0,0.0,0.0,-0.05086062930623766,0.0,-0.045141927340661366,-0.1041660720878909,-0.11517803364468689,-0.11759129140785687,-0.4312660430251446,-0.06741070234091835
5104,7.0,301.13566000000003,923.7570800000001,0.0,0.0,0.0,0.0,-0.050870596115821475,0.0,-0.0897795489608016,-0.08185375367783652,-0.1091657824538239,-0.1312562457014829,-0.43239969763452757,-0.02382642512723508
5105,7.0,299.61062000000004,811.6252599999999,0.0,0.0,0.0,0.0,-0.05088056292540529,0.0,-0.06800998809931323,-0.08228653711354893,-0.0964172885576455,-0.11898290936019888,-0.4572296851775565,-0.038916213737981264
5106,7.0,300.12998,669.10808,0.0,0.0,0.0,0.0,-0.050890529734989115,0.0,-0.08043776503408934,-0.038415254782540466,-0.08453912887461242,-0.12055813836316188,-0.4614283706769346,0.012302687156930689
5107,7.0,300.23211000000003,923.7719599999999,0.0,0.0,0.0,0.0,-0.05090049654457293,0.0,-0.07569048059931882,-0.09364707190349641,-0.1114660526983429,-0.0999276388135901,-0.47110680390962156,-0.03540473978767576
5108,7.0,300.28562,1200.1436,0.0,0.0,0.0,0.0,-0.05091046335415676,0.0,-0.1244454318418079,-0.09013427768831062,-0.15023396411193785,-0.08863648835074031,-0.4457901422110616,-0.003337859017221037
5109,7.0,299.72446,1159.1042,0.0,0.0,0.0,0.0,-0.05092043016374058,0.0,-0.1086442018323479,-0.0905454647113916,-0.15314906438463585,-0.12129766908114789,-0.45826963441769153,-0.0008347008314460583
5110,7.0,298.80089,1113.6854,0.0,0.0,0.0,0.0,-0.050930396973324396,0.0,-0.14096643419230387,-0.07474211396947233,-0.12282400876678588,-0.11359398936585388,-0.4491562502357706,0.02254475595649418
5111,7.0,298.42017999999996,1242.6255,0.0,0.0,0.0,0.0,-0.05094036378290822,0.0,-0.13626885474118886,-0.08566284958001502,-0.15579542033331087,-0.13359617455491588,-0.45201232869014357,0.007898884880184242
5112,7.0,298.9861,993.62281,0.0,0.0,0.0,0.0,-0.05095033059249204,0.0,-0.12003269725880489,-0.07188991220998193,-0.11011391096989691,-0.12698962178289988,-0.42688894444815856,0.004461054656421816
5113,7.0,299.37942000000004,816.8362099999999,0.0,0.0,0.0,0.0,-0.05096029740207587,0.0,-0.05020978080231955,-0.0866555570474876,-0.11143247359002889,-0.1115017494993659,-0.4535841126427666,-0.021411923092942278
5114,7.0,300.13527,979.7265800000001,0.0,0.0,0.0,0.0,-0.050970264211659684,0.0,-0.08108095795906752,-0.07231991528741993,-0.14441154532730985,-0.099494868550129,-0.4317569323010916,-0.01814867211238448
5115,7.0,300.58552000000003,971.99784,0.0,0.0,0.0,0.0,-0.0509802310212435,0.0,-0.07161805518165172,-0.090943291018654,-0.13290172333387887,-0.09008581697577792,-0.4410089594941956,-0.023607247984853977
5116,7.0,300.21771,835.19895,0.0,0.0,0.0,0.0,-0.050990197830827325,0.0,-0.08155541130514242,-0.08531715701689782,-0.08700705756017801,-0.1038848039926319,-0.44947773422749854,-0.05386018350033625
5117,7.0,300.49806,1084.2837,0.0,0.0,0.0,0.0,-0.05100016464041114,0.0,-0.093678650856113,-0.09442653987417392,-0.14148998051897388,-0.12197491531548689,-0.45370448675464664,-0.013144001887211989
5118,7.0,300.1839,1237.0802,0.0,0.0,0.0,0.0,-0.05101013144999497,0.0,-0.14609477665843187,-0.1117382218077039,-0.11820848230876889,-0.1200542389559309,-0.47343574913197056,-0.02896413205078727
5119,7.0,299.59429,1128.6872,0.0,0.0,0.0,0.0,-0.05102009825957879,0.0,-0.06155754154825635,-0.12149861684097989,-0.16003656101187883,-0.10785792988724889,-0.4583145315296226,-0.03202647276176677
5120,7.0,301.06882,1125.8177,0.0,0.0,0.0,0.0,-0.051030065069162606,0.0,-0.09552877461120601,-0.12298318022499487,-0.12370850517657887,-0.1191871704478579,-0.44400390387477356,-0.05027874767037605
5121,7.0,300.94787,979.6817800000001,0.0,0.0,0.0,0.0,-0.05104003187874643,0.0,-0.06562442448787643,-0.10026948102632731,-0.13190489801799987,-0.09224739759960932,-0.43733259428886656,0.0015758896420281986
5122,7.0,299.77457999999996,692.6974,0.0,0.0,0.0,0.0,-0.051049998688330246,0.0,-0.07150953913569202,-0.04327554902746416,-0.0957776247827656,-0.11816066703654989,-0.4364373371630116,-0.006334358534052514
5123,7.0,299.97567000000004,910.78404,0.0,0.0,0.0,0.0,-0.05105996549791408,0.0,-0.08422137566975263,-0.08265848703975752,-0.1099757441862609,-0.1059948973258819,-0.4388219402133536,-0.019416608704520083
5124,7.0,299.61607999999995,1153.9533,0.0,0.0,0.0,0.0,-0.051069932307497894,0.0,-0.15009585812330786,-0.06745164676420923,-0.13322548713833188,-0.15164056803325887,-0.44250162887901057,-0.0048093023323161855
5125,7.0,298.73667,1024.8979,0.0,0.0,0.0,0.0,-0.05107989911708171,0.0,-0.07180262172711703,-0.08529160386262592,-0.15444914532294385,-0.13922717013065186,-0.45652693543820055,-0.03404500070997997
5126,7.0,299.77351,964.92566,0.0,0.0,0.0,0.0,-0.051089865926665534,0.0,-0.0930665576164541,-0.07981233944961462,-0.12043441039345089,-0.13842046093103585,-0.46752437712106354,0.006255938346538045
5127,7.0,299.20467,1178.938,0.0,0.0,0.0,0.0,-0.05109983273624935,0.0,-0.1062665294126899,-0.08113863114150942,-0.17096254829768984,-0.0992338259401161,-0.45032879338399157,-0.01030737479500869
5128,7.0,299.94627,1215.4929,0.0,0.0,0.0,0.0,-0.05110979954583318,0.0,-0.14444001765511988,-0.09311548037103241,-0.13192400791488587,-0.11739199524568789,-0.4427701502880116,0.025324576195091077
5129,7.0,299.95537,999.65951,0.0,0.0,0.0,0.0,-0.051119766355417,0.0,-0.11796026643177189,-0.08093115095828271,-0.10498010708572991,-0.09622645506031172,-0.4473169479917456,0.00011597852148868887
5130,7.0,299.96289,1002.7092,0.0,0.0,0.0,0.0,-0.05112973316500082,0.0,-0.1132483900217459,-0.07285279060776063,-0.11869739574702089,-0.10610075156382891,-0.44604561295877454,0.022897940490850775
5131,7.0,300.4309,1116.5585,0.0,0.0,0.0,0.0,-0.05113969997458464,0.0,-0.06849910722733553,-0.13293161421182886,-0.13797517804208986,-0.0881818258056186,-0.4334034941110945,-0.051162416254837355
5132,7.0,300.48584,982.53344,0.0,0.0,0.0,0.0,-0.051149666784168456,0.0,-0.08502374410594023,-0.10028287416614909,-0.11335901666766389,-0.099979181832927,-0.43478928587536153,-0.015879370843921884
5133,7.0,299.39847000000003,887.5826699999999,0.0,0.0,0.0,0.0,-0.051159633593752286,0.0,-0.05808199643324675,-0.08347944861528012,-0.12824152267895286,-0.1060187492332359,-0.43561114316397254,-0.03845929975113736
5134,7.0,300.30362,967.18061,0.0,0.0,0.0,0.0,-0.0511696004033361,0.0,-0.06959419348491214,-0.11704716597165589,-0.1073573944703499,-0.15533492856036385,-0.4221033439608566,-0.004075241543670027
5135,7.0,300.25505,697.10135,0.0,0.0,0.0,0.0,-0.05117956721291993,0.0,-0.07175090442876293,-0.05837640334255245,-0.08177409702122503,-0.13623963260830488,-0.4544546262011795,-0.039753849357149464
5136,7.0,299.29577,988.6367300000001,0.0,0.0,0.0,0.0,-0.051189534022503744,0.0,-0.06807957102343054,-0.12837870660999187,-0.10406260912017991,-0.12093451011280688,-0.44404991556181456,-0.04529744197925946
5137,7.0,298.78123,1222.2371,0.0,0.0,0.0,0.0,-0.05119950083208756,0.0,-0.10065109127898932,-0.11695788850534489,-0.15392056314327685,-0.1188557870026529,-0.44171129380101054,-0.04083245104884917
5138,7.0,298.53996,958.63092,0.0,0.0,0.0,0.0,-0.05120946764167139,0.0,-0.06025831781953295,-0.1018314830624849,-0.12931006583690988,-0.09845186030794209,-0.4606180745719646,-0.03119445865415337
5139,7.0,299.27797999999996,976.4123300000001,0.0,0.0,0.0,0.0,-0.05121943445125521,0.0,-0.07549361725063992,-0.1098256210514449,-0.11148573001528489,-0.1022155149828859,-0.44989829381400454,-0.03686046100759426
5140,7.0,300.4026,1247.3354,0.0,0.0,0.0,0.0,-0.05122940126083903,0.0,-0.14087124947790988,-0.0906581229237601,-0.14762944525989186,-0.1008835592229321,-0.44782653173203757,0.011884628271671489
5141,7.0,298.77111,868.94095,0.0,0.0,0.0,0.0,-0.05123936807042285,0.0,-0.12455925022554089,-0.07087456468227493,-0.06870253744991253,-0.11964714546325388,-0.45671645373690456,0.014728023874542787
5142,7.0,299.1323,802.91703,0.0,0.0,0.0,0.0,-0.051249334880006665,0.0,-0.07709359894029583,-0.06457712817126633,-0.1023960052231989,-0.14866513884960686,-0.44554323342669355,0.014823133608429384
5143,7.0,300.31203999999997,1209.0788,0.0,0.0,0.0,0.0,-0.05125930168959049,0.0,-0.0961130906126235,-0.1102701338703149,-0.16114653596642484,-0.14762386225184085,-0.4414746391076546,-0.01959309964668838
5144,7.0,300.13135,1118.0952,0.0,0.0,0.0,0.0,-0.051269268499174306,0.0,-0.1001618819717081,-0.10060315948300881,-0.13910797138888786,-0.0986637339436024,-0.44839646464828553,-0.01034559458878069
5145,7.0,299.49537999999995,884.5622400000001,0.0,0.0,0.0,0.0,-0.051279235308758137,0.0,-0.04788611663949175,-0.07505354652020833,-0.14594517028116685,-0.12275359801733689,-0.44688553649666857,-0.008391005052352721
5146,7.0,299.82517,919.5815699999999,0.0,0.0,0.0,0.0,-0.05128920211834195,0.0,-0.0985456041806939,-0.07779042319306702,-0.10319380795443589,-0.12494627123373689,-0.45157841446731956,0.01338319071906809
5147,7.0,298.92749,967.91479,0.0,0.0,0.0,0.0,-0.05129916892792577,0.0,-0.1027853567066249,-0.07723467679146913,-0.11420189889584989,-0.14439318523549785,-0.43686367227508754,-0.029111310680812675
5148,7.0,300.02011,961.7705199999999,0.0,0.0,0.0,0.0,-0.051309135737509594,0.0,-0.1057301654722549,-0.08527498250798551,-0.10134908482237591,-0.1083003554109129,-0.4283183059667256,-0.04555914826808786
5149,7.0,300.22126000000003,986.3824300000001,0.0,0.0,0.0,0.0,-0.05131910254709341,0.0,-0.088632655225612,-0.1024722522932239,-0.1087307232583869,-0.1069830593534059,-0.4594462103013105,-0.048532192261004456
5150,7.0,299.36761,868.947,0.0,0.0,0.0,0.0,-0.05132906935667723,0.0,-0.07941909809905472,-0.08928437870318211,-0.0954347135911729,-0.0949381997639208,-0.4481404467455186,-0.040436914686812764
5151,7.0,300.5604,677.24064,0.0,0.0,0.0,0.0,-0.05133903616626105,0.0,-0.023782763167175976,-0.08299968887843152,-0.09908178978911132,-0.09821146773496721,-0.4582309383963726,-0.04265174970939996
5152,7.0,301.10451,829.53119,0.0,0.0,0.0,0.0,-0.05134900297584487,0.0,-0.07482303212245833,-0.09035990923382872,-0.08697382700989842,-0.10279304727488389,-0.4445163449803476,-0.04217425458652486
5153,7.0,299.17976,1099.3944,0.0,0.0,0.0,0.0,-0.0513589697854287,0.0,-0.1053290096251639,-0.08584112080260901,-0.14301832643980986,-0.1079096360398519,-0.4454796519829186,0.013672505033371186
5154,7.0,298.34287,1107.3733,0.0,0.0,0.0,0.0,-0.051368936595012515,0.0,-0.1073892003909889,-0.12535557361163188,-0.1038690682185789,-0.11771481672754788,-0.4402196376662956,-0.03380120159016887
5155,7.0,299.36859,997.3846,0.0,0.0,0.0,0.0,-0.05137890340459633,0.0,-0.08728954864830772,-0.08849762141128523,-0.12739284466019488,-0.11130113611206689,-0.42367033524050657,-0.013502441136587185
5156,7.0,299.14492,1137.9718,0.0,0.0,0.0,0.0,-0.051388870214180156,0.0,-0.11834521027726289,-0.09144393282681351,-0.13612586488707687,-0.1286401656657959,-0.4258722391653176,-0.022816586640321778
5157,7.0,300.92452000000003,1158.7403,0.0,0.0,0.0,0.0,-0.05139883702376397,0.0,-0.11769588921567989,-0.08463587906041092,-0.14989634917861785,-0.1307567032696819,-0.4530394501840126,0.026409832913447576
5158,7.0,300.40328,936.0718300000001,0.0,0.0,0.0,0.0,-0.0514088038333478,0.0,-0.11591808112022389,-0.050067050340233156,-0.11855733418569789,-0.14711492699161285,-0.4855362756686995,0.00973577021874571
5159,7.0,300.53077,1158.6061,0.0,0.0,0.0,0.0,-0.05141877064293162,0.0,-0.1188531018898879,-0.09063641910661811,-0.14269780503567686,-0.11242094972508389,-0.4713405303101886,0.02052478412688848
5160,7.0,300.79705,1120.1321,0.0,0.0,0.0,0.0,-0.05142873745251544,0.0,-0.13019395429664288,-0.07644883243791234,-0.13384940601990789,-0.1175349749672989,-0.45098666627641854,-0.02408535713728968
5161,7.0,299.73181,1084.9333,0.0,0.0,0.0,0.0,-0.05143870426209926,0.0,-0.1021466545060899,-0.09480298660432632,-0.13284297509308088,-0.0887837166300206,-0.4400578013603236,-0.013894567912037088
5162,7.0,299.08617000000004,1214.3437,0.0,0.0,0.0,0.0,-0.05144867107168308,0.0,-0.11116832942145989,-0.1118957315357489,-0.14606609154810085,-0.0982132105251392,-0.45662187697257056,-0.04059852199826216
5163,7.0,299.69542,1078.9323,0.0,0.0,0.0,0.0,-0.05145863788126691,0.0,-0.09928702055711601,-0.08061119393445543,-0.14807026984839786,-0.07670853350479283,-0.42768359597158456,-0.026760619084817472
5164,7.0,299.87673,646.72257,0.0,0.0,0.0,0.0,-0.051468604690850725,0.0,-0.040886938572976664,-0.06954595366090123,-0.08615462139679911,-0.09636167531265691,-0.4319915706267486,-0.027247954892663774
5165,7.0,300.45099,843.34924,0.0,0.0,0.0,0.0,-0.05147857150043454,0.0,-0.06398263103284403,-0.09770068835955721,-0.0946737901238256,-0.13831713981833887,-0.45584846317124056,-0.014054355426306887
5166,7.0,301.95059,1153.4621,0.0,0.0,0.0,0.0,-0.051488538310018366,0.0,-0.11399479057540991,-0.08483168761573572,-0.15179720636621785,-0.13655323351425488,-0.4551137352587286,-0.0026483751534742777
5167,7.0,301.78852,1071.8689,0.0,0.0,0.0,0.0,-0.05149850511960218,0.0,-0.11229330047748588,-0.10867412310780089,-0.1048539675807809,-0.1103114136793889,-0.4431017566482386,-0.040426091149244565
5168,7.0,301.13531,1162.9751,0.0,0.0,0.0,0.0,-0.05150847192918601,0.0,-0.09223353735149141,-0.12000945330151089,-0.14127241545750185,-0.10063122043127821,-0.4252473272986436,-0.01936833949625628
5169,7.0,299.93729,1321.5604,0.0,0.0,0.0,0.0,-0.05151843873876983,0.0,-0.15347474323177784,-0.08311113220393013,-0.16513546856260183,-0.1215310611091819,-0.4548323354409565,-0.0013441940986366288
5170,7.0,300.05607000000003,1198.8648,0.0,0.0,0.0,0.0,-0.05152840554835365,0.0,-0.09719178349683222,-0.10906426492630489,-0.15816889789755484,-0.1089337684459259,-0.47229536654192356,-0.02058791670086918
5171,7.0,300.27737,908.7360800000001,0.0,0.0,0.0,0.0,-0.05153837235793747,0.0,-0.09466999651545122,-0.059936343414756545,-0.12162673218362388,-0.1058253603191499,-0.46375125666368555,-0.024059087615197077
5172,7.0,299.98188,988.59286,0.0,0.0,0.0,0.0,-0.05154833916752129,0.0,-0.08026004501954973,-0.08189231189714193,-0.13835518735959387,-0.07967481101354162,-0.47162280152304653,-0.024828556833887773
5173,7.0,299.63337,927.7342699999999,0.0,0.0,0.0,0.0,-0.05155830597710512,0.0,-0.11216975489279289,-0.05346193466778215,-0.11637636400795288,-0.11399490203292088,-0.49277030383014253,-0.014225869283983988
5174,7.0,300.23663,792.64721,0.0,0.0,0.0,0.0,-0.051568272786688935,0.0,-0.06634364156785763,-0.05345510536210815,-0.1211462185887009,-0.11046502239454889,-0.4607521782226996,-0.013637640110680287
5175,7.0,300.72446,987.3194599999999,0.0,0.0,0.0,0.0,-0.05157823959627275,0.0,-0.1098764862064649,-0.0981447999313876,-0.0920991753219809,-0.12200175631063588,-0.43943841170669456,-0.00958201437967119
5176,7.0,300.39721000000003,1129.9142,0.0,0.0,0.0,0.0,-0.051588206405856575,0.0,-0.0961809793825736,-0.08982101926089442,-0.15746369609295685,-0.10858540292904491,-0.42663912763600365,0.0100973149783524
5177,7.0,299.50208,996.34325,0.0,0.0,0.0,0.0,-0.05159817321544039,0.0,-0.08946710214671551,-0.09983480078642772,-0.1135615653626539,-0.14784920907408086,-0.4427478891833146,0.001083171854950739
5178,7.0,299.37519,1152.887,0.0,0.0,0.0,0.0,-0.05160814002502422,0.0,-0.1156823890144629,-0.10787300704873691,-0.12689345421590886,-0.12419646615973688,-0.45684498451208955,-0.012027508694772688
5179,7.0,299.70074,1388.499,0.0,0.0,0.0,0.0,-0.05161810683460804,0.0,-0.14892497670525087,-0.1038584392250299,-0.16928559911718785,-0.12420904059347788,-0.4476462542742456,-0.027141284988386274
5180,7.0,299.39815,1018.0218,0.0,0.0,0.0,0.0,-0.051628073644191856,0.0,-0.09119098405859942,-0.11185477596670688,-0.1064074319715959,-0.1089083966634219,-0.44900028064787756,-0.026798760858331775
5181,7.0,299.61205,859.6667699999999,0.0,0.0,0.0,0.0,-0.05163804045377568,0.0,-0.1022263466264549,-0.06566864677524084,-0.0934222387990571,-0.11420296280845488,-0.47709664200827256,-0.047739711119292656
5182,7.0,300.53846,1244.0117,0.0,0.0,0.0,0.0,-0.0516480072633595,0.0,-0.1060951280257739,-0.11255585384339789,-0.15949749169367686,-0.1067097351389309,-0.44701049049900055,-0.014539090221146488
5183,7.0,300.97285,1039.8789,0.0,0.0,0.0,0.0,-0.05165797407294333,0.0,-0.06791772863795793,-0.12592568891289788,-0.1222537921405099,-0.0987607870911808,-0.42443668668863965,-0.04500052828920636
5184,7.0,300.69368,785.6925200000001,0.0,0.0,0.0,0.0,-0.051667940882527144,0.0,-0.04422049289847286,-0.08032574820903413,-0.1142846712965189,-0.08507418977541882,-0.4454696917344355,-0.03379922372597367
5185,7.0,300.18343,839.1152300000001,0.0,0.0,0.0,0.0,-0.05167790769211096,0.0,-0.08513319639499232,-0.07156357880327534,-0.098373302014439,-0.09119484960773092,-0.45286329665412756,-0.017329732984061482
5186,7.0,299.82858999999996,966.7362199999999,0.0,0.0,0.0,0.0,-0.051687874501694785,0.0,-0.096429685672619,-0.09663785689241391,-0.1007961299248035,-0.1002061984913318,-0.4624549450157495,-0.026695538030894476
5187,7.0,300.14357,1087.2223,0.0,0.0,0.0,0.0,-0.0516978413112786,0.0,-0.12800493891310388,-0.09102268017723911,-0.1114608141953259,-0.11727370842901388,-0.4252103132724906,-0.003684132780595596
5188,7.0,299.13497,1256.3315,0.0,0.0,0.0,0.0,-0.05170780812086243,0.0,-0.1083639773846919,-0.13739734177506188,-0.13613208624269088,-0.16218774163668384,-0.4259939406348286,-0.03387180283063667
5189,7.0,300.18318,1240.0707,0.0,0.0,0.0,0.0,-0.05171777493044625,0.0,-0.13016255367604387,-0.08585661744963842,-0.16093134191018685,-0.15261460535438887,-0.44989783785145954,0.04347685446458146
5190,7.0,299.91503,866.0590300000001,0.0,0.0,0.0,0.0,-0.051727741740030066,0.0,-0.06922028595951034,-0.07877776550126013,-0.11526226512549989,-0.13153595339158786,-0.4615357042600276,-0.04301448007294866
5191,7.0,298.8869,976.50065,0.0,0.0,0.0,0.0,-0.05173770854961389,0.0,-0.09013198672983451,-0.07196906426804363,-0.13473076135439088,-0.07620633534447972,-0.4294686589377566,-0.004247303367001206
5192,7.0,300.55486,1235.6594,0.0,0.0,0.0,0.0,-0.051747675359197706,0.0,-0.1127937852318799,-0.0960242549233561,-0.16679156505604584,-0.1030198227797649,-0.46679944733701856,-0.03031526964838417
5193,7.0,299.36531,945.8559300000001,0.0,0.0,0.0,0.0,-0.05175764216878154,0.0,-0.08352232328001152,-0.1067429697422109,-0.0972512957282056,-0.1043572825142619,-0.4785810939347766,-0.016861744173624585
5194,7.0,299.32562,695.43628,0.0,0.0,0.0,0.0,-0.051767608978365354,0.0,-0.03021198602594087,-0.07848984845884492,-0.1026934346575529,-0.13373049098817186,-0.45947055870121356,-0.05606098703553865
5195,7.0,299.55464,900.78314,0.0,0.0,0.0,0.0,-0.05177757578794917,0.0,-0.08690920901127111,-0.09464909316588822,-0.09225728084108473,-0.09373429348535452,-0.4227401007211996,-0.018576746974882184
5196,7.0,299.36338,906.15127,0.0,0.0,0.0,0.0,-0.051787542597532994,0.0,-0.06769779966400263,-0.09562954030715082,-0.11212001444538389,-0.14555768317792486,-0.45004308725329456,-0.019670379218565282
5197,7.0,299.59968,983.19194,0.0,0.0,0.0,0.0,-0.05179750940711681,0.0,-0.0954242264526379,-0.0995896388452321,-0.10385193415938788,-0.1354170052496179,-0.4603248602580266,-0.00994963448555247
5198,7.0,301.57018,1067.9289,0.0,0.0,0.0,0.0,-0.051807476216700635,0.0,-0.11378141023685089,-0.09390856439655372,-0.11693376302046388,-0.13015658563295487,-0.46839541756952857,-0.02263385002453708
5199,7.0,300.73905,918.33895,0.0,0.0,0.0,0.0,-0.05181744302628445,0.0,-0.08412075385532201,-0.08671044277890441,-0.10832091425544191,-0.08635803439412443,-0.44416564898823657,-0.041728375906520065
5200,7.0,301.13237000000004,962.9494800000001,0.0,0.0,0.0,0.0,-0.05182740983586828,0.0,-0.06738253804113874,-0.09590206810704721,-0.1294279878835479,-0.12107025522870389,-0.4720480929875196,-0.03996339859708036
5201,7.0,300.82139,1387.005,0.0,0.0,0.0,0.0,-0.0518373766454521,0.0,-0.14980590647469186,-0.10729802814699091,-0.16451096199596785,-0.1221600158437549,-0.4759333802309676,-0.001969724149196638
5202,7.0,300.54741,1173.0002,0.0,0.0,0.0,0.0,-0.051847343455035916,0.0,-0.1043755007510599,-0.09494614465795491,-0.15724112557599085,-0.1148126759236289,-0.45574466583099654,-0.028742339709898073
5203,7.0,300.68282,588.60617,0.0,0.0,0.0,0.0,-0.05185731026461974,0.0,-0.054247157899027655,-0.04617491555260936,-0.07849950574554802,-0.11178566217738588,-0.42972826374587764,-0.015459744460757983
5204,7.0,300.38556,860.3979800000001,0.0,0.0,0.0,0.0,-0.051867277074203556,0.0,-0.07519107495628134,-0.08545181592868761,-0.10089661191072032,-0.10647529946329391,-0.4506946475975986,-0.03522870683455267
5205,7.0,300.11413,1395.2271,0.0,0.0,0.0,0.0,-0.05187724388378737,0.0,-0.14685587947104686,-0.12216656143940088,-0.15509176880136585,-0.14252382999350685,-0.46385377730880356,0.0022600857588030983
5206,7.0,299.8299,1102.8132,0.0,0.0,0.0,0.0,-0.0518872106933712,0.0,-0.08122667446919862,-0.10920706226289789,-0.14479394591504988,-0.11636791350211889,-0.4574802011322806,-0.030588413504341373
5207,7.0,300.07051,864.29251,0.0,0.0,0.0,0.0,-0.051897177502955014,0.0,-0.09370242980945981,-0.07452793924283493,-0.09449297260373031,-0.1100476545458579,-0.43523818606716463,-0.007347220660589222
5208,7.0,299.44753,951.26144,0.0,0.0,0.0,0.0,-0.051907144312538844,0.0,-0.05648436852357314,-0.09149785495738522,-0.14117750432063486,-0.09090857707022801,-0.4501969695459816,-0.01110759007473379
5209,7.0,299.99552,1045.7138,0.0,0.0,0.0,0.0,-0.05191711112212266,0.0,-0.11477105160952089,-0.06851149927605853,-0.13458831865533288,-0.1096338432050179,-0.4641801856960176,-0.0040804105377301655
5210,7.0,300.22004,1302.4582,0.0,0.0,0.0,0.0,-0.05192707793170648,0.0,-0.1214531320439909,-0.11593957215484489,-0.15852204595490785,-0.10407184996109191,-0.4698083745689766,-0.02687200060205997
5211,7.0,299.65063,1158.0412,0.0,0.0,0.0,0.0,-0.0519370447412903,0.0,-0.12866457486070487,-0.09094025228160411,-0.13241076313042488,-0.12648875199346787,-0.45629358394017056,-0.023699078841416976
5212,7.0,300.12332999999995,663.9177,0.0,0.0,0.0,0.0,-0.05194701155087412,0.0,-0.06836515455086543,-0.04674786187465475,-0.08670138533626051,-0.13570409953295187,-0.4589382274961765,-0.028120583104035472
5213,7.0,300.46535,651.01276,0.0,0.0,0.0,0.0,-0.05195697836045795,0.0,-0.06424510232549793,-0.044412570666929455,-0.0892339492457051,-0.1347714028159019,-0.4565767974756216,-0.02938809615762927
5214,7.0,300.38176,1294.3241,0.0,0.0,0.0,0.0,-0.051966945170041766,0.0,-0.0922927891775891,-0.1404791014242079,-0.16067031855192584,-0.13118524726697586,-0.4378429480992346,-0.016587905228098783
5215,7.0,300.68634,1323.0832,0.0,0.0,0.0,0.0,-0.05197691197962558,0.0,-0.13100619584180487,-0.12280091679700689,-0.14837715290618486,-0.0982793109086628,-0.4264876872760576,-0.02753202867744968
5216,7.0,301.09231,789.8338200000001,0.0,0.0,0.0,0.0,-0.051986878789209406,0.0,-0.056364304466223744,-0.09213313946533291,-0.09159231519795773,-0.08760595929678501,-0.4693199170932696,-0.01306680337534309
5217,7.0,299.35792999999995,813.86987,0.0,0.0,0.0,0.0,-0.05199684559879322,0.0,-0.08149768948669572,-0.07310178060783402,-0.09279664704156601,-0.08842446576731532,-0.47381368128676954,-0.005720936518212474
5218,7.0,300.69093,1224.4772,0.0,0.0,0.0,0.0,-0.052006812408377054,0.0,-0.13297802106640888,-0.0910742799385816,-0.14815820982457686,-0.10760619803240491,-0.46151196381018456,-0.009851319334974521
5219,7.0,300.21299999999997,1262.742,0.0,0.0,0.0,0.0,-0.05201677921796087,0.0,-0.13475923368220089,-0.11355394572190189,-0.1355288680606579,-0.10513089896561191,-0.4389188069229136,-0.02268789779812118
5220,7.0,299.66733999999997,1128.255,0.0,0.0,0.0,0.0,-0.05202674602754469,0.0,-0.08650700546357672,-0.09328695775170591,-0.16316737209836585,-0.14745759804293188,-0.4514776062148706,-0.03808044452549726
5221,7.0,299.43605,972.58686,0.0,0.0,0.0,0.0,-0.05203671283712851,0.0,-0.11922967628955289,-0.052083363323727754,-0.12432908033282489,-0.12479618862892487,-0.4804652831582315,0.00966723702173201
5222,7.0,299.56257999999997,921.4790199999999,0.0,0.0,0.0,0.0,-0.05204667964671233,0.0,-0.06556505208501684,-0.09306490804529131,-0.1214766495788119,-0.12946487018718789,-0.46321215694798057,-0.05415921893609874
5223,7.0,299.90403,1264.0682,0.0,0.0,0.0,0.0,-0.05205664645629616,0.0,-0.14145551988307287,-0.1059584507197849,-0.13683120854668887,-0.09949357462975131,-0.4482782487591186,-0.0023550979167050678
5224,7.0,300.7538,1157.316,0.0,0.0,0.0,0.0,-0.052066613265879975,0.0,-0.1311874966821979,-0.06756881089977244,-0.15303885317125884,-0.12334047247525687,-0.4710401725830456,-0.009004078611483371
5225,7.0,300.53177,687.30412,0.0,0.0,0.0,0.0,-0.05207658007546379,0.0,-0.060665496425218346,-0.048790325829980254,-0.09946746722767472,-0.11332734246953789,-0.4630763105070736,0.026067857964947275
5226,7.0,300.60314,800.09622,0.0,0.0,0.0,0.0,-0.052086546885047616,0.0,-0.04912546235355566,-0.09201979528264673,-0.10206401382793391,-0.1124620066191359,-0.43801014449823555,-0.03500939087690787
5227,7.0,301.36307,1521.374,0.0,0.0,0.0,0.0,-0.05209651369463143,0.0,-0.15186407074031685,-0.1349443240779679,-0.17565132260543584,-0.09710909418267141,-0.4111835375006556,-0.006160577934576704
5228,7.0,300.55276000000003,1511.5341,0.0,0.0,0.0,0.0,-0.05210648050421526,0.0,-0.1279553808507129,-0.15348564580285384,-0.17802759673995583,-0.14078120194152285,-0.44343262333589256,-0.011559473274831188
5229,7.0,300.15495,896.1809099999999,0.0,0.0,0.0,0.0,-0.05211644731379908,0.0,-0.09945879076706841,-0.06417258502909104,-0.1087852462462679,-0.11663805611127988,-0.4793830813889266,-0.0074724055826190135
5230,7.0,299.69883,801.34172,0.0,0.0,0.0,0.0,-0.0521264141233829,0.0,-0.07443573145723473,-0.08329377560070562,-0.08585836834581123,-0.10599643746603389,-0.4729833937573265,-0.01996737700837668
5231,7.0,299.60815,1035.2847,0.0,0.0,0.0,0.0,-0.05213638093296672,0.0,-0.07871505342607092,-0.0872542612003251,-0.14873139527364587,-0.09145149065930942,-0.45958553219006054,-0.028337197736913677
5232,7.0,299.78546,1075.6465,0.0,0.0,0.0,0.0,-0.05214634774255054,0.0,-0.11554340149824588,-0.07841091627605493,-0.13301536946509487,-0.11857650487758989,-0.4901840032148945,-0.017215534631540984
5233,7.0,299.91496,1098.4675,0.0,0.0,0.0,0.0,-0.05215631455213437,0.0,-0.12198117720110488,-0.08896138699530531,-0.12296413112311488,-0.1136412980130229,-0.47544412228768157,-0.027277793081608576
5234,7.0,299.34325,1010.5123,0.0,0.0,0.0,0.0,-0.052166281361718185,0.0,-0.08887759323853552,-0.08158282579984802,-0.13671009476223586,-0.1063282870062849,-0.4566547974683196,-0.01910704053396808
5235,7.0,299.63308,882.71786,0.0,0.0,0.0,0.0,-0.052176248171302,0.0,-0.07561759954612603,-0.11163550864506688,-0.08107107978384262,-0.1034521461999319,-0.4377238101524766,-0.02965484336570517
5236,7.0,300.22167,1181.4169,0.0,0.0,0.0,0.0,-0.052186214980885826,0.0,-0.096956140027076,-0.1082418706151409,-0.15392321785853885,-0.13892649829597786,-0.45447718114840563,0.005806094413591905
5237,7.0,301.20397,1482.845,0.0,0.0,0.0,0.0,-0.05219618179046964,0.0,-0.12864787649905687,-0.12624896635730287,-0.1958510003714888,-0.14086761191005087,-0.46801754620973557,0.014597780706688787
5238,7.0,301.11143,1080.0077,0.0,0.0,0.0,0.0,-0.05220614860005347,0.0,-0.08620772786104032,-0.12640249401245487,-0.1156851653197369,-0.11771685336024888,-0.44163829926380654,-0.029999892515008873
5239,7.0,300.10909,745.79678,0.0,0.0,0.0,0.0,-0.05221611540963729,0.0,-0.055635392609285746,-0.10003092547578372,-0.07103727947608364,-0.09171955914551572,-0.43624489057151855,-0.05566389736109895
5240,7.0,299.40369,988.3488199999999,0.0,0.0,0.0,0.0,-0.05222608221922111,0.0,-0.1064900625172509,-0.08286286465117801,-0.11108044010778591,-0.0919329941995801,-0.4682070442434375,-0.033785047343824565
5241,7.0,299.75822,1103.0462,0.0,0.0,0.0,0.0,-0.05223604902880493,0.0,-0.17012815710534185,-0.06518440036694943,-0.0999859422375942,-0.1175279734091079,-0.4909007966006365,-0.010679391595723889
5242,7.0,298.79851,918.4351300000001,0.0,0.0,0.0,0.0,-0.05224601583838875,0.0,-0.07422769398645303,-0.07032787065707043,-0.13462577851152985,-0.11435051228801689,-0.4567157140643316,-0.015176076989262184
5243,7.0,299.52194,812.19434,0.0,0.0,0.0,0.0,-0.05225598264797258,0.0,-0.07705172030041273,-0.059621248978159146,-0.1102138275622579,-0.11923727566530287,-0.4498438417536305,-0.03866180690287326
5244,7.0,299.18314,868.0585800000001,0.0,0.0,0.0,0.0,-0.052265949457556395,0.0,-0.060989858047230346,-0.06254753249221084,-0.14033074134456586,-0.1321878177109219,-0.4610547347025595,-0.012811699424166288
5245,7.0,300.71443999999997,1142.2549,0.0,0.0,0.0,0.0,-0.05227591626714021,0.0,-0.11289012505138789,-0.1025270488586319,-0.13179981385012887,-0.13642387187398786,-0.46524678341378256,-0.052659109255799454
5246,7.0,301.22918,1373.2063,0.0,0.0,0.0,0.0,-0.052285883076724035,0.0,-0.14238850031015088,-0.13776413831126186,-0.13726777748477487,-0.12024195366945688,-0.4406581925745776,-0.03310940204464357
5247,7.0,301.1349,1022.5353,0.0,0.0,0.0,0.0,-0.05229584988630785,0.0,-0.12000465049603687,-0.0932934243138441,-0.0975271125379266,-0.1191883964804789,-0.4430667387247825,-0.03738643812125417
5248,7.0,300.03741,503.81055,0.0,0.0,0.0,0.0,-0.05230581669589168,0.0,-0.0018620526471952884,-0.06589554589663403,-0.08538822941866211,-0.1017215656916369,-0.4675303856941565,0.017418020505024782
5249,7.0,299.37948,817.22175,0.0,0.0,0.0,0.0,-0.0523157835054755,0.0,-0.046156780402319554,-0.08412785876502323,-0.11813037085855989,-0.10091984066926281,-0.4877557696152465,0.005951966660263374
5250,7.0,298.76352,1375.9806,0.0,0.0,0.0,0.0,-0.052325750315059316,0.0,-0.13616215950565888,-0.0938545672854746,-0.1882470244660348,-0.1043027797913829,-0.4678227488780105,0.007234079026598013
5251,7.0,299.09102,1186.1011,0.0,0.0,0.0,0.0,-0.05233571712464314,0.0,-0.1016073217428619,-0.1122398616672119,-0.14669792391295788,-0.11623163136366889,-0.4611406076485346,-0.06287414656919514
5252,7.0,299.74242000000004,687.3759299999999,0.0,0.0,0.0,0.0,-0.05234568393422696,0.0,-0.08097002733811952,-0.04042453783684126,-0.08755055376806692,-0.1189143123284289,-0.4672372828377296,-0.03084532104069617
5253,7.0,299.81543,902.09909,0.0,0.0,0.0,0.0,-0.05235565074381078,0.0,-0.1158407093425879,-0.06978319907906554,-0.08859169256381932,-0.1201939256147169,-0.4645362012511535,-0.012467204522667289
5254,7.0,301.01635,1297.9877,0.0,0.0,0.0,0.0,-0.0523656175533946,0.0,-0.12639995075470387,-0.10286441047942689,-0.16529147868049884,-0.12062366524712888,-0.42293574918300864,-0.004648508863347105
5255,7.0,300.21729,1287.7173,0.0,0.0,0.0,0.0,-0.052375584362978414,0.0,-0.13307815044129087,-0.11130728654017388,-0.14704845778505285,-0.11852089771210189,-0.42348239761195855,-0.002572300639941308
5256,7.0,300.96513,990.3372800000001,0.0,0.0,0.0,0.0,-0.05238555117256224,0.0,-0.08190098734449813,-0.08466522784955742,-0.13447159224381286,-0.13716995832012085,-0.4642574156186396,0.004618337923069465
5257,7.0,300.58524,725.71537,0.0,0.0,0.0,0.0,-0.05239551798214606,0.0,-0.055402645008315356,-0.06659822673498324,-0.0985984806371624,-0.1090324894031689,-0.4762590692106105,-0.02199391672513058
5258,7.0,301.23917,789.86525,0.0,0.0,0.0,0.0,-0.052405484791729885,0.0,-0.07852609241492192,-0.07901062050674112,-0.08256259912979412,-0.12013696069409488,-0.44361786571917455,-0.040977487668163164
5259,7.0,300.83832,1229.9393,0.0,0.0,0.0,0.0,-0.0524154516013137,0.0,-0.14813370943715884,-0.1037519973020249,-0.12198512887649489,-0.11201315708983789,-0.44426952738848857,-0.014645286937627287
5260,7.0,299.56426,1094.5287,0.0,0.0,0.0,0.0,-0.05242541841089752,0.0,-0.1056402293933789,-0.07385361420853423,-0.15321555385619784,-0.16238075564823284,-0.4752871090521856,0.01025953216503699
5261,7.0,300.10256,712.0720200000001,0.0,0.0,0.0,0.0,-0.05243538522048134,0.0,-0.06682082359645183,-0.059474836365209345,-0.09015645367999922,-0.13212467196468988,-0.4804129183930636,0.0017872535115631884
5262,7.0,300.36287000000004,900.53655,0.0,0.0,0.0,0.0,-0.05244535203006516,0.0,-0.05550314320623374,-0.08519523364561492,-0.13304225099024786,-0.1031030714079809,-0.45536860818888253,-0.03983686696434266
5263,7.0,300.7786,1414.6172,0.0,0.0,0.0,0.0,-0.05245531883964899,0.0,-0.12542913556889188,-0.12267952943502689,-0.18189964080459683,-0.07511400006092464,-0.44159487136452064,-0.053740891539563046
5264,7.0,300.08356000000003,1301.3789,0.0,0.0,0.0,0.0,-0.05246528564923281,0.0,-0.13534573323758387,-0.1321429307314919,-0.1280980363322919,-0.10361352654335891,-0.5004452275075986,-0.04038767275845296
5265,7.0,298.75576,915.2356300000001,0.0,0.0,0.0,0.0,-0.052475252458816624,0.0,-0.09111453636505461,-0.08617111406867682,-0.10092312866583732,-0.08422546210740592,-0.47859287803343953,-0.03989289766837246
5266,7.0,298.89381000000003,760.95683,0.0,0.0,0.0,0.0,-0.05248521926840045,0.0,-0.07673125259853503,-0.06893877468422734,-0.08564184794519232,-0.1050655038041579,-0.44596196916301956,-0.023516546902152477
5267,7.0,299.62006,754.2830299999999,0.0,0.0,0.0,0.0,-0.052495186077984264,0.0,-0.06920638923438883,-0.08098135243448722,-0.07909546399061453,-0.11488834544109688,-0.44687812963843754,-0.014243092509183786
5268,7.0,299.98252,973.8115,0.0,0.0,0.0,0.0,-0.052505152887568095,0.0,-0.055901869279584945,-0.0901555539139104,-0.14995696179959986,-0.16662443958455186,-0.4666694372166876,0.008139344428990752
5269,7.0,300.87978,1187.723,0.0,0.0,0.0,0.0,-0.05251511969715191,0.0,-0.1073489642295179,-0.11078773241889789,-0.14290142777577286,-0.14908819103135887,-0.47351852153263957,-0.0048066297838524254
5270,7.0,300.87563,1134.3883,0.0,0.0,0.0,0.0,-0.05252508650673573,0.0,-0.1041825677995189,-0.10159165689631591,-0.13905150296081487,-0.09022397058716261,-0.4503462314182125,-0.013627773081206489
5271,7.0,300.55789,1039.7933,0.0,0.0,0.0,0.0,-0.05253505331631955,0.0,-0.11868335210063488,-0.07695155546177722,-0.1204362950386369,-0.08804542005065642,-0.4383349722152936,-0.02042994797052888
5272,7.0,301.48202000000003,1308.2832,0.0,0.0,0.0,0.0,-0.05254502012590337,0.0,-0.14593611182527286,-0.08962510228780891,-0.16212421085541384,-0.08282132848982872,-0.49678391919875553,0.012187015538764789
5273,7.0,299.58704,1257.0993,0.0,0.0,0.0,0.0,-0.0525549869354872,0.0,-0.13852533231638586,-0.09017286630511902,-0.15342859982222387,-0.1229987944090359,-0.47771153283145756,0.007604333380089273
5274,7.0,299.38529,1007.2323,0.0,0.0,0.0,0.0,-0.052564953745071016,0.0,-0.05560054288534635,-0.11693520183560589,-0.13363770767651487,-0.1062164241952449,-0.43792290366462555,-0.048435891958250356
5275,7.0,299.0287,914.4267,0.0,0.0,0.0,0.0,-0.05257492055465483,0.0,-0.1105337308838299,-0.07815206633925842,-0.08927708431571223,-0.1047787134958539,-0.43048689422824854,-0.028328151440020873
5276,7.0,299.68785,901.91885,0.0,0.0,0.0,0.0,-0.05258488736423866,0.0,-0.0975955859531844,-0.06773220051814774,-0.10883302098848291,-0.13447672942181987,-0.46500480915740156,-0.021480153328176082
5277,7.0,299.92638999999997,985.30384,0.0,0.0,0.0,0.0,-0.052594854173822474,0.0,-0.08302549027897792,-0.0998689270497957,-0.11661334294134089,-0.15010934448213886,-0.4403082058575366,0.010890763672584689
5278,7.0,299.99055,1103.1408,0.0,0.0,0.0,0.0,-0.052604820983406304,0.0,-0.1100539366964779,-0.0984484730128578,-0.12682483691913687,-0.12670764441257087,-0.43519676440307664,-0.0034499771672862364
5279,7.0,299.9259,1111.6816,0.0,0.0,0.0,0.0,-0.05261478779299012,0.0,-0.1103710029177699,-0.08376418202588112,-0.14378826479329687,-0.12171288883962689,-0.42692834974454763,0.0038143695649739662
5280,7.0,301.17675,780.76989,0.0,0.0,0.0,0.0,-0.05262475460257394,0.0,-0.039645639312719964,-0.09683416295353782,-0.10085474948283882,-0.10597753021916789,-0.48337502333790056,-0.02250560903888068
5281,7.0,301.3699,933.74537,0.0,0.0,0.0,0.0,-0.05263472141215776,0.0,-0.07143136993022733,-0.09256117785082701,-0.11984273313005687,-0.13035855677538788,-0.46915028889402854,-0.017029080401139384
5282,7.0,300.49818,1423.9549,0.0,0.0,0.0,0.0,-0.05264468822174158,0.0,-0.13021403691362488,-0.15329902539943585,-0.14933366100058487,-0.0953074615376141,-0.44748513737584455,-0.06530235281109044
5283,7.0,299.59195,1025.1865,0.0,0.0,0.0,0.0,-0.05265465503132541,0.0,-0.10640936727928689,-0.08660452774595141,-0.11861720713410688,-0.12020653044596089,-0.46170880790711155,-0.04385368015027125
5284,7.0,299.26106,487.40090999999995,0.0,0.0,0.0,0.0,-0.052664621840909226,0.0,-0.036863858435179565,-0.04310848435097616,-0.06818536345312143,-0.11843189382331788,-0.4839637621760045,-0.027872291233280975
5285,7.0,299.73843999999997,901.80514,0.0,0.0,0.0,0.0,-0.05267458865049304,0.0,-0.07634859667176984,-0.09030181453934523,-0.1074758332745389,-0.14358780339351288,-0.48281500000763056,-0.024366416503028076
5286,7.0,299.11582999999996,1274.511,0.0,0.0,0.0,0.0,-0.052684555460076866,0.0,-0.10516073918105691,-0.12402302814011988,-0.15823574200665183,-0.10408340101223189,-0.43853377188491355,-0.03427628213805567
5287,7.0,299.69298,1134.0603,0.0,0.0,0.0,0.0,-0.05269452226966068,0.0,-0.11820086266801688,-0.1147558832555239,-0.1117692576582669,-0.1185852086959489,-0.42505579263224064,-0.013389836626473988
5288,7.0,299.4494,1032.0403,0.0,0.0,0.0,0.0,-0.052704489079244514,0.0,-0.10046204312833171,-0.09488152767257772,-0.11837092656480089,-0.08703609629479392,-0.4524608337144076,-0.006096007356054084
5289,7.0,300.70491,1097.4974,0.0,0.0,0.0,0.0,-0.05271445588882833,0.0,-0.11750110201645589,-0.07720459947550072,-0.13890610157146488,-0.14031246231276187,-0.4526612039216826,0.03877446004899126
5290,7.0,301.00153,1062.6209,0.0,0.0,0.0,0.0,-0.05272442269841215,0.0,-0.09736754591217861,-0.11550990344993989,-0.11013275742175689,-0.1211137236579939,-0.44827027448083157,-0.025067601784229676
5291,7.0,300.64445,1319.9994,0.0,0.0,0.0,0.0,-0.05273438950799597,0.0,-0.12705698264954787,-0.09702698343431772,-0.17716288910461583,-0.15593996046007585,-0.4504585704567996,-0.006064600149329433
5292,7.0,300.33329,1180.4722,0.0,0.0,0.0,0.0,-0.05274435631757979,0.0,-0.13092175157847086,-0.08504040700383472,-0.14287192193286086,-0.15046120571186486,-0.5155490577382305,-0.038969089181199665
5293,7.0,300.69748,658.7649299999999,0.0,0.0,0.0,0.0,-0.05275432312716362,0.0,-0.05710237711731585,-0.07443384883854894,-0.06871186340383294,-0.11239834411535289,-0.4852115695416535,-0.041568869062527956
5294,7.0,299.08081,694.55314,0.0,0.0,0.0,0.0,-0.052764289936747436,0.0,-0.040176639107125565,-0.07548128701017302,-0.09546888443754531,-0.09772993987669411,-0.4528637019541676,-0.08302244546242742
5295,7.0,299.10495,1273.6702,0.0,0.0,0.0,0.0,-0.05277425674633125,0.0,-0.12189825281292087,-0.12332624644385287,-0.14193942786583086,-0.0913296990105395,-0.44255378086165753,-0.021323359967951778
5296,7.0,299.52258,1017.4011,0.0,0.0,0.0,0.0,-0.052784223555915076,0.0,-0.10101405772981131,-0.08367514976609432,-0.12457533050462788,-0.13419546132656088,-0.4759699281620746,-0.004315527117434366
5297,7.0,299.88767,639.36216,0.0,0.0,0.0,0.0,-0.05279419036549889,0.0,-0.04603351346140405,-0.05387164335896725,-0.0944449729199931,-0.13129805240060888,-0.47585818694104653,-0.0049651386778210346
5298,7.0,299.69304,975.18355,0.0,0.0,0.0,0.0,-0.052804157175082723,0.0,-0.06787850977958734,-0.12324141714548088,-0.10531152092843792,-0.12628409573826987,-0.44394554066901354,-0.014363103877527986
5299,7.0,300.18011,1312.5826,0.0,0.0,0.0,0.0,-0.05281412398466654,0.0,-0.14598800036289386,-0.08664739025168161,-0.16635694155815184,-0.12312606875409687,-0.45054848627067356,-0.01298423362469409
5300,7.0,300.42602,1409.8629999999998,0.0,0.0,0.0,0.0,-0.05282409079425035,0.0,-0.11382895193154288,-0.12993674075875788,-0.18479745503058884,-0.14112605148055685,-0.48588553284566854,-0.014863866262449387
5301,7.0,300.30499,1341.3995,0.0,0.0,0.0,0.0,-0.05283405760383418,0.0,-0.14705679683337586,-0.08806477414081652,-0.17263039849229384,-0.12450889169557088,-0.47633236772284454,-0.005883912426571944
5302,7.0,300.61315,900.0047300000001,0.0,0.0,0.0,0.0,-0.052844024413418,0.0,-0.06445858297581684,-0.07337127169718073,-0.13574910810239385,-0.09123176433537411,-0.44444443462075056,-0.028045364482861976
5303,7.0,300.01633,692.81363,0.0,0.0,0.0,0.0,-0.05285399122300183,0.0,-0.060786308261141536,-0.07429932772877273,-0.07551241000024463,-0.09315341949452671,-0.4513265306249606,-0.04130246230648566
5304,7.0,300.00942000000003,1025.8194,0.0,0.0,0.0,0.0,-0.052863958032585645,0.0,-0.12513282070964787,-0.055264397164671346,-0.13142624880326087,-0.1101233645933299,-0.49021856517580553,-0.027672231080536572
5305,7.0,300.43219,1148.3155,0.0,0.0,0.0,0.0,-0.05287392484216946,0.0,-0.13514776443304585,-0.096258203225695,-0.11765328204897489,-0.12664427575131687,-0.47616954856427557,-0.023642057178789377
5306,7.0,299.62315,803.03257,0.0,0.0,0.0,0.0,-0.052883891651753286,0.0,-0.039775460968532364,-0.08846829491364092,-0.11585809671430389,-0.097139822005204,-0.4531496512648886,-0.05981259518004354
5307,7.0,299.03117000000003,884.6943699999999,0.0,0.0,0.0,0.0,-0.0528938584613371,0.0,-0.07020021938297223,-0.0937792554452919,-0.10494552485981691,-0.10499780856497688,-0.4297125887668306,-0.0035163223520339967
5308,7.0,298.59443999999996,1409.2939,0.0,0.0,0.0,0.0,-0.05290382527092092,0.0,-0.11518562288793589,-0.12822114621944186,-0.18498339655643983,-0.1306009464643099,-0.4701111134338546,0.005090793747897225
5309,7.0,299.68023,1384.7713,0.0,0.0,0.0,0.0,-0.05291379208050474,0.0,-0.14302751661821686,-0.09450397649981632,-0.18340441852810682,-0.14064134303021988,-0.46128116570240657,0.008353164923393191
5310,7.0,300.17688,1072.8668,0.0,0.0,0.0,0.0,-0.05292375889008856,0.0,-0.1141394624246879,-0.09148652682126722,-0.12049872137729789,-0.1136981109461299,-0.45958220872973254,-0.03422587801183117
5311,7.0,300.05879,1011.5486,0.0,0.0,0.0,0.0,-0.05293372569967238,0.0,-0.08449359138861823,-0.1063833875467229,-0.1166085401358669,-0.1028881914592739,-0.4781170253889766,-0.04787001710865286
5312,7.0,299.77592000000004,978.16035,0.0,0.0,0.0,0.0,-0.0529436925092562,0.0,-0.08281500276945443,-0.06615897977688294,-0.14836233918972286,-0.0963587267548659,-0.4945817619614195,-0.013200826979320186
5313,7.0,300.14571,977.9154599999999,0.0,0.0,0.0,0.0,-0.052953659318840024,0.0,-0.09152556836087032,-0.09288647875568172,-0.11284983822741189,-0.1184395337290719,-0.48360641926323755,-0.04022635321003196
5314,7.0,299.97778,1085.0205,0.0,0.0,0.0,0.0,-0.05296362612842385,0.0,-0.09483723851070672,-0.08823433647880102,-0.14674756303535685,-0.11866434352875889,-0.4377748880900176,0.01030218087499609
5315,7.0,300.71473,805.51398,0.0,0.0,0.0,0.0,-0.052973592938007664,0.0,-0.07907238620633693,-0.07896984630946703,-0.08681390473336532,-0.13662206359354787,-0.46214071589473754,-0.032402494940127265
5316,7.0,299.86177999999995,706.5430200000001,0.0,0.0,0.0,0.0,-0.05298355974759149,0.0,-0.05887235582924915,-0.08652585698168723,-0.06937322187660393,-0.11330489897982288,-0.4781946707441396,-0.007721684662945942
5317,7.0,299.61237,1362.8148,0.0,0.0,0.0,0.0,-0.052993526557175305,0.0,-0.14071956593793986,-0.11254420146724789,-0.16099788204425386,-0.1034579926530089,-0.48304324472515653,-0.044086775296025955
5318,7.0,299.52193,1460.8564,0.0,0.0,0.0,0.0,-0.053003493366759136,0.0,-0.15034067961246986,-0.12924587644307486,-0.16447731196014684,-0.09650898363869509,-0.4578098215223116,-0.03598738189992807
5319,7.0,299.0835,772.71023,0.0,0.0,0.0,0.0,-0.05301346017634295,0.0,-0.04900026111819925,-0.0921400214600121,-0.09374433175409522,-0.1116052631295819,-0.4623781710556725,-0.028373819635277974
5320,7.0,299.76703,575.7999900000001,0.0,0.0,0.0,0.0,-0.05302342698592677,0.0,-0.01980743345359148,-0.04438375383408546,-0.11083763498632289,-0.1113066887226149,-0.4496808199450416,-0.015241901768758585
5321,7.0,298.76864,999.29567,0.0,0.0,0.0,0.0,-0.05303339379551059,0.0,-0.11411272275454888,-0.08000898393627193,-0.1096392336955499,-0.11723368505006389,-0.44918362825347263,0.01101390193073749
5322,7.0,299.5524,1231.1031,0.0,0.0,0.0,0.0,-0.05304336060509441,0.0,-0.13355923145626988,-0.10304456634720689,-0.13762080395211587,-0.1319991100122979,-0.4439603138554716,-0.04318433827996236
5323,7.0,299.8922,1147.3959,0.0,0.0,0.0,0.0,-0.05305332741467824,0.0,-0.12401232821906388,-0.10917894457262291,-0.1155884303326899,-0.14376662177116087,-0.48759756074463256,-0.02652320242738627
5324,7.0,300.39637,884.0837300000001,0.0,0.0,0.0,0.0,-0.05306329422426206,0.0,-0.08617205943102012,-0.06813324794747802,-0.1144340750237639,-0.12335701884938986,-0.5095329460644865,-0.03150540484484137
5325,7.0,300.96497,882.7239199999999,0.0,0.0,0.0,0.0,-0.053073261033845874,0.0,-0.07089935992547203,-0.07586548003733992,-0.12156119516715588,-0.09545664336308722,-0.4779581173757935,0.008571231239689663
5326,7.0,300.52737,1165.6195,0.0,0.0,0.0,0.0,-0.0530832278434297,0.0,-0.09258679990610573,-0.1298378678139999,-0.1318945628669799,-0.09295070158677,-0.45014841460118965,-0.004463979200185446
5327,7.0,299.17382000000003,1261.2857,0.0,0.0,0.0,0.0,-0.053093194653013515,0.0,-0.15274257884201886,-0.09039506698579851,-0.14026172888025487,-0.12752719149095387,-0.46371811325291457,0.022233863468061478
5328,7.0,299.87217000000004,1122.6751,0.0,0.0,0.0,0.0,-0.053103161462597345,0.0,-0.09188317877166373,-0.1120329458642909,-0.13734907054029788,-0.13602704260482387,-0.4700150775893766,0.01136725871761109
5329,7.0,299.13454,802.33046,0.0,0.0,0.0,0.0,-0.05311312827218116,0.0,-0.06476461389026973,-0.097059299019757,-0.08206451273838683,-0.10724707179946191,-0.4802663112360945,-0.04215211507183986
5330,7.0,298.7131,1224.0566,0.0,0.0,0.0,0.0,-0.05312309508176498,0.0,-0.13358045904586485,-0.0898341986049451,-0.14866797594988687,-0.10740400397494988,-0.4719035731257566,-0.0072755567234165435
5331,7.0,299.42584,1514.5601,0.0,0.0,0.0,0.0,-0.0531330618913488,0.0,-0.13073120989716588,-0.14687016629745686,-0.1827870756396798,-0.13402316827955688,-0.5097847488468374,-0.026783163899542474
5332,7.0,298.30225,905.8199599999999,0.0,0.0,0.0,0.0,-0.05314302870093262,0.0,-0.06975912121693924,-0.07376560431809834,-0.13182192296731088,-0.16241147739126485,-0.4761845953282606,0.016291159737562285
5333,7.0,299.57802000000004,737.25108,0.0,0.0,0.0,0.0,-0.05315299551051645,0.0,-0.05862857798769014,-0.06382611125014674,-0.10165122586969491,-0.14175449959007985,-0.4414209773823585,-0.02100250317803568
5334,7.0,299.89934,1087.37,0.0,0.0,0.0,0.0,-0.05316296232010027,0.0,-0.1074560951625909,-0.10822808028127989,-0.11484915292722889,-0.12573263437134488,-0.42084624509179064,-0.03457380479141887
5335,7.0,299.57018999999997,1303.6931,0.0,0.0,0.0,0.0,-0.053172929129684084,0.0,-0.14642795355631386,-0.11332196211150689,-0.13654023351547187,-0.1041502653863309,-0.45335281804243965,-0.05219458576070455
5336,7.0,300.02325,1292.2401,0.0,0.0,0.0,0.0,-0.05318289593926791,0.0,-0.12305558707714087,-0.1269418369081839,-0.14281130931187885,-0.13313931021732686,-0.4734873235620606,-0.03687640247141756
5337,7.0,299.75498,940.66835,0.0,0.0,0.0,0.0,-0.053192862748851724,0.0,-0.08040897251924772,-0.1000261419220616,-0.1055045754699909,-0.08805753852185241,-0.4734439361927786,-0.025798124708826677
5338,7.0,300.35212,707.61553,0.0,0.0,0.0,0.0,-0.053202829558435555,0.0,-0.059607472829799536,-0.05728725574381195,-0.0982027223733541,-0.13498157115164386,-0.4530142101240216,-0.015800078957346385
5339,7.0,301.48464,1163.4683,0.0,0.0,0.0,0.0,-0.05321279636801937,0.0,-0.11845875508346888,-0.11398275316422189,-0.12122381328135888,-0.1100205703706849,-0.48757045630445756,0.014859185046987387
5340,7.0,300.2425,1454.5067,0.0,0.0,0.0,0.0,-0.05322276317760319,0.0,-0.13714183049734488,-0.11640067187785189,-0.1885912153925038,-0.15654671488495783,-0.4510170536469175,-0.009223192831033261
5341,7.0,300.1959,1041.247,0.0,0.0,0.0,0.0,-0.05323272998718701,0.0,-0.11237369174041989,-0.10020175437639321,-0.10393765511784789,-0.12513977160533388,-0.44507486870046964,-0.029542853898402673
5342,7.0,300.07301,628.3279200000001,0.0,0.0,0.0,0.0,-0.05324269679677083,0.0,-0.03016792687184257,-0.07568145659392822,-0.08514661587931673,-0.11780269590872089,-0.4420183288463126,-0.08000302399918371
5343,7.0,299.21976,882.76498,0.0,0.0,0.0,0.0,-0.05325266360635466,0.0,-0.10015885336715921,-0.05415371394830545,-0.1140259480159849,-0.12169122555248889,-0.48909648188256455,-0.028128265566293675
5344,7.0,299.86012999999997,1333.0096,0.0,0.0,0.0,0.0,-0.053262630415938476,0.0,-0.14666574308978186,-0.10602393707374791,-0.15251194285425684,-0.12028102459331289,-0.46867577373969754,-0.004095626007856816
5345,7.0,299.56338999999997,1134.6859,0.0,0.0,0.0,0.0,-0.05327259722552229,0.0,-0.13206296503359988,-0.07111671828392364,-0.14173650426830386,-0.12231150686620589,-0.4809228365058885,-0.0016118406675012884
5346,7.0,298.94349,980.14485,0.0,0.0,0.0,0.0,-0.05328256403510612,0.0,-0.092836589360508,-0.08077448222782072,-0.12432849264776687,-0.13257908423703688,-0.44963878019839254,-0.0070307039248264525
5347,7.0,299.35200000000003,1019.5110000000001,0.0,0.0,0.0,0.0,-0.053292530844689934,0.0,-0.09842597886063781,-0.1015033420175999,-0.1099765750513429,-0.14069637264315088,-0.5091295002721695,-0.04192683715060666
5348,7.0,300.53959,1270.8863,0.0,0.0,0.0,0.0,-0.053302497654273764,0.0,-0.1009434119063391,-0.1117611719224689,-0.17361312949928184,-0.12434451213184788,-0.47449708808171653,-0.02149372682651568
5349,7.0,300.25608,1394.1657,0.0,0.0,0.0,0.0,-0.05331246446385758,0.0,-0.1047804866835289,-0.16196537376973785,-0.15704571016170485,-0.0914740172355326,-0.4720828373334486,-0.042078950308619065
5350,7.0,300.06498999999997,1030.4777,0.0,0.0,0.0,0.0,-0.0533224312734414,0.0,-0.09218884086308023,-0.08326501247011692,-0.13778562934588287,-0.12021377518417589,-0.45498982490399953,0.0012965976884392286
5351,7.0,299.94976,551.3102200000001,0.0,0.0,0.0,0.0,-0.05333239808302522,0.0,-0.02290953815149538,-0.05481537842260665,-0.08985962307645431,-0.1121951570727999,-0.4839665486137795,-0.020796510445955783
5352,7.0,300.67053,699.96262,0.0,0.0,0.0,0.0,-0.05334236489260904,0.0,-0.06376879371848994,-0.06435074479417403,-0.08465161990071442,-0.11502659328474088,-0.4544866043743356,-0.024944057212786776
5353,7.0,299.8604,1277.1188,0.0,0.0,0.0,0.0,-0.05335233170219287,0.0,-0.12293667204540489,-0.1038914509132879,-0.16138409245236984,-0.08454586698777741,-0.4274729615407966,-0.04785563604998355
5354,7.0,300.22935,1275.1938,0.0,0.0,0.0,0.0,-0.053362298511776686,0.0,-0.1005908343087924,-0.1318008372327299,-0.15523539700304087,-0.11626228217919389,-0.4723192893767845,-0.07831263608260543
5355,7.0,299.30357000000004,871.90431,0.0,0.0,0.0,0.0,-0.0533722653213605,0.0,-0.09077116617116661,-0.06665956686953703,-0.1076064108149259,-0.12305770476984987,-0.5039980471282346,-0.027445554874165373
5356,7.0,299.60915,968.39447,0.0,0.0,0.0,0.0,-0.053382232130944327,0.0,-0.1165529025728759,-0.051001026792159454,-0.1268138127580489,-0.12741647365252687,-0.4651839517750816,0.006915371238819004
5357,7.0,299.68726000000004,1293.8744,0.0,0.0,0.0,0.0,-0.05339219894052814,0.0,-0.13817168776648386,-0.11123086721763191,-0.14390295457211588,-0.08474894561256972,-0.45538762689325957,0.025224799431243877
5358,7.0,299.24903,1483.2419,0.0,0.0,0.0,0.0,-0.05340216575011196,0.0,-0.13973364319313686,-0.13621068405294787,-0.17492418393617282,-0.092182232445928,-0.44819932670882956,-0.005714341982586645
5359,7.0,298.34647,1141.5788,0.0,0.0,0.0,0.0,-0.05341213255969579,0.0,-0.10700017314759488,-0.10764509670374389,-0.13236618012602486,-0.1195843948845609,-0.48501671141492253,0.0028815987793416567
5360,7.0,298.71674,634.7425400000001,0.0,0.0,0.0,0.0,-0.05342209936927961,0.0,-0.017741713381970784,-0.07452409091895514,-0.1006800763113499,-0.10296184460904291,-0.48322135382773457,-0.03534974867824857
5361,7.0,299.67345,775.46979,0.0,0.0,0.0,0.0,-0.05343206617886343,0.0,-0.07549156339268723,-0.04818615721935346,-0.11204573308055289,-0.1020181034659029,-0.4726460220040306,-0.0041259129652709055
5362,7.0,298.70038,1296.4573,0.0,0.0,0.0,0.0,-0.05344203298844725,0.0,-0.12711210345498788,-0.11652655807027588,-0.15045197500345384,-0.1135666113481519,-0.49543866757098953,-0.03328843827106307
5363,7.0,299.92405,1230.1672,0.0,0.0,0.0,0.0,-0.053451999798031065,0.0,-0.13729552027251285,-0.08092250489517942,-0.15572210155607485,-0.12425239756525687,-0.5173911464200305,-0.00961594224866961
5364,7.0,300.51015,680.96592,0.0,0.0,0.0,0.0,-0.05346196660761489,0.0,-0.06897883555343103,-0.05496027420015674,-0.08305752519413952,-0.13881655052762687,-0.4759201370521605,-0.038616946267945866
5365,7.0,300.4839,746.2040099999999,0.0,0.0,0.0,0.0,-0.053471933417198705,0.0,-0.045951626641322456,-0.0914962378102256,-0.08937952086107191,-0.09602361961554341,-0.4396663119191866,-0.05149546548320675
5366,7.0,299.79573,1258.3916,0.0,0.0,0.0,0.0,-0.05348190022678253,0.0,-0.09567962728609401,-0.11943177915449889,-0.16740820880190382,-0.1157616758347879,-0.4467351904468306,-0.041605029932096756
5367,7.0,300.81023999999996,1293.7188,0.0,0.0,0.0,0.0,-0.053491867036366346,0.0,-0.1170973421166079,-0.13729804326526188,-0.13886282565969385,-0.1013629663487459,-0.4588581604732746,-0.016755611291900084
5368,7.0,300.73964,973.6745699999999,0.0,0.0,0.0,0.0,-0.05350183384595017,0.0,-0.08325228807536113,-0.08850761408377142,-0.12421285041385387,-0.12236698230918089,-0.46437852940309254,0.0026723897887943374
5369,7.0,300.8838,863.4930400000001,0.0,0.0,0.0,0.0,-0.05351180065553399,0.0,-0.07501615759151833,-0.07719397048195173,-0.11027019466532088,-0.12835720544286988,-0.44478915243727163,-0.007177522243116293
5370,7.0,299.21995,808.98028,0.0,0.0,0.0,0.0,-0.05352176746511781,0.0,-0.06341144979247285,-0.0965728183949951,-0.08592553669494023,-0.13744535969730087,-0.4794228514553516,-0.03065542175995457
5371,7.0,299.48924,1224.7198,0.0,0.0,0.0,0.0,-0.053531734274701634,0.0,-0.09098383723465561,-0.1177350715970469,-0.16356532607514085,-0.12839767465186389,-0.4936232273668195,-0.050460685845081954
5372,7.0,299.92819,1391.7611,0.0,0.0,0.0,0.0,-0.05354170108428545,0.0,-0.13222591591468189,-0.12214947804271489,-0.16868522816793582,-0.10796522294033789,-0.46468562524340057,-0.02090728401313828
5373,7.0,299.11957,895.76448,0.0,0.0,0.0,0.0,-0.053551667893869274,0.0,-0.10928987519357089,-0.06374689839707903,-0.0992532651432846,-0.1035563387077149,-0.44938889245873054,-0.02197605211261748
5374,7.0,299.57074,782.93558,0.0,0.0,0.0,0.0,-0.0535616347034531,0.0,-0.0885681426049951,-0.04576959018135686,-0.1036551305924649,-0.09956745069454231,-0.46441334467652856,-0.011201444391746489
5375,7.0,300.20532000000003,1244.7928,0.0,0.0,0.0,0.0,-0.053571601513036915,0.0,-0.16253265197072383,-0.09046997251269111,-0.12538329613436788,-0.1152230118166259,-0.47479345360346553,0.01074379579858009
5376,7.0,299.81515,1479.5681,0.0,0.0,0.0,0.0,-0.05358156832262074,0.0,-0.14606311259280685,-0.12640895854809286,-0.17727968644364284,-0.11362869318177889,-0.4670625275929826,-0.0015616044368183585
5377,7.0,300.60437,1181.3481,0.0,0.0,0.0,0.0,-0.053591535132204556,0.0,-0.1054896908260219,-0.11409355206265688,-0.13951706098426186,-0.15597083419062285,-0.44946420733866355,-0.001180323085138819
5378,7.0,299.82818,935.45562,0.0,0.0,0.0,0.0,-0.05360150194178838,0.0,-0.06659821052298164,-0.12164025907245887,-0.09611667954447771,-0.17642704661699382,-0.4752253818560936,-0.04946547463661225
5379,7.0,299.35932,1055.3321,0.0,0.0,0.0,0.0,-0.0536114687513722,0.0,-0.09344523147032632,-0.0932486943881796,-0.13410069204470787,-0.16718987367035584,-0.45083158834861353,0.001273180769353159
5380,7.0,300.24327999999997,1159.6742,0.0,0.0,0.0,0.0,-0.05362143556095602,0.0,-0.1012978244998169,-0.1027468430703239,-0.14846733216508484,-0.11233977825957289,-0.4617585686195225,-0.018036790049592584
5381,7.0,300.53545,1127.2703,0.0,0.0,0.0,0.0,-0.053631402370539843,0.0,-0.11400508519642588,-0.11112438476462289,-0.1175325634320609,-0.08039896262150982,-0.4565427522722616,-0.014955202652963587
5382,7.0,300.0877,939.14965,0.0,0.0,0.0,0.0,-0.05364136918012366,0.0,-0.05267236662010786,-0.08946642428239861,-0.14333925314398288,-0.0973577396777108,-0.5021867713819755,-0.06183860395374503
5383,7.0,300.24016,732.85528,0.0,0.0,0.0,0.0,-0.053651335989707484,0.0,-0.03956926355993226,-0.09049922099007772,-0.0927012201603981,-0.08618756823705072,-0.4969463938522905,-0.06128174500353735
5384,7.0,300.50905,1043.5025,0.0,0.0,0.0,0.0,-0.05366130279929131,0.0,-0.08071724271642162,-0.10811352222497389,-0.12836792562892788,-0.09488184684635922,-0.4666380568610905,-0.04726000103169895
5385,7.0,300.23052,1464.7357,0.0,0.0,0.0,0.0,-0.053671269608875125,0.0,-0.16398584513164283,-0.11446013581633588,-0.16679708726909084,-0.10379815084407991,-0.42297239843912554,-0.015346794432360686
5386,7.0,299.48474,1090.6122,0.0,0.0,0.0,0.0,-0.05368123641845895,0.0,-0.1204436613668639,-0.1021584993997589,-0.10891670531424189,-0.15873074507800486,-0.4591440185914865,0.001097675415557129
5387,7.0,299.19277999999997,597.25655,0.0,0.0,0.0,0.0,-0.053691203228042765,0.0,-0.03837941713975357,-0.06135975310223614,-0.08181190746195662,-0.18880269082087484,-0.4522758750411535,-0.0015021923145548384
5388,7.0,299.46752000000004,959.53679,0.0,0.0,0.0,0.0,-0.053701170037626596,0.0,-0.04322095409882606,-0.11250236437061889,-0.13595191010990887,-0.1318880578013379,-0.4619648764723836,0.0062101699408460545
5389,7.0,298.70966,1621.3735,0.0,0.0,0.0,0.0,-0.05371113684721041,0.0,-0.12872749769191486,-0.17127313985084283,-0.1928564106284458,-0.08617678928248691,-0.45956340280787655,-0.032929076964096866
5390,7.0,299.68895,1444.4958,0.0,0.0,0.0,0.0,-0.05372110365679423,0.0,-0.14525466060301886,-0.09985151941307771,-0.1939844619647758,-0.08212646791575133,-0.47927357945061955,-0.013993912018091586
5391,7.0,299.73432,947.8350300000001,0.0,0.0,0.0,0.0,-0.05373107046637805,0.0,-0.1061359214747999,-0.07756881729019623,-0.10441343683480389,-0.09290228545724172,-0.4696365678820206,-0.024321779796372775
5392,7.0,299.49312000000003,739.34471,0.0,0.0,0.0,0.0,-0.05374103727596187,0.0,-0.07560865964049374,-0.05938679101101994,-0.08974687772457722,-0.1039801406945409,-0.45824928835568357,0.008873564703202651
5393,7.0,299.89331,980.34232,0.0,0.0,0.0,0.0,-0.0537510040855457,0.0,-0.0974741489419495,-0.06728938489319523,-0.13323605533687488,-0.12065349533007289,-0.44744229716161654,-0.006217031467873234
5394,7.0,299.81926,1437.4321,0.0,0.0,0.0,0.0,-0.05376097089512952,0.0,-0.13150347872588286,-0.13605137073972487,-0.16938861625485485,-0.12132013283586487,-0.5077462821631565,-0.048562642453009654
5395,7.0,299.65722999999997,1126.7471,0.0,0.0,0.0,0.0,-0.053770937704713334,0.0,-0.12628083307294788,-0.07059886439631542,-0.14562329112189987,-0.13839300185332587,-0.4999559999618155,-0.013340049569560386
5396,7.0,300.28745,647.9779599999999,0.0,0.0,0.0,0.0,-0.05378090451429716,0.0,-0.05899207436831445,-0.06670553194707343,-0.07127151148845053,-0.09762122624696491,-0.5004195314850626,-0.061232963090722944
5397,7.0,300.0883,866.3907,0.0,0.0,0.0,0.0,-0.053790871323880975,0.0,-0.0963785824038255,-0.08028427689569122,-0.08669828073795412,-0.1053124733835319,-0.4487260242433106,-0.004287479442741276
5398,7.0,300.27303,1449.9632,0.0,0.0,0.0,0.0,-0.053800838133464805,0.0,-0.15235906367916885,-0.12472336634423789,-0.16367016706298784,-0.09957370143440922,-0.4775195523350106,-0.023225792759457277
5399,7.0,299.95887,1325.9557,0.0,0.0,0.0,0.0,-0.05381080494304862,0.0,-0.11968538552202788,-0.14375489846750386,-0.13961714982913986,-0.15347209864901684,-0.4509987239526086,-0.001072512565223749
5400,7.0,299.12016,723.6365900000001,0.0,0.0,0.0,0.0,-0.05382077175263244,0.0,-0.02984782394000087,-0.08325166188679932,-0.1068679642745469,-0.13312023071794388,-0.46165222802152756,-0.03440336193909747
5401,7.0,298.91452999999996,715.8004,0.0,0.0,0.0,0.0,-0.05383073856221626,0.0,-0.03177738447643367,-0.0987756038473931,-0.08703246075343511,-0.14188691111314788,-0.4527935951797486,-0.046054917356516456
5402,7.0,298.91996,1234.7136,0.0,0.0,0.0,0.0,-0.05384070537180008,0.0,-0.10026597923398171,-0.12394630484254787,-0.15110982763087885,-0.1106965297773969,-0.48151140309147555,-0.047097437212155153
5403,7.0,300.31065,1325.6336,0.0,0.0,0.0,0.0,-0.05385067218138391,0.0,-0.14605076107408785,-0.0990789405298301,-0.15782981375158983,-0.1167855751933389,-0.4796799738007275,-0.03516995859375467
5404,7.0,300.53007,960.1763800000001,0.0,0.0,0.0,0.0,-0.05386063899096773,0.0,-0.1016685727114069,-0.0898522800529796,-0.1003487891249044,-0.09054027788412972,-0.4698721080002666,0.0013720702300877889
5405,7.0,301.03665,692.49518,0.0,0.0,0.0,0.0,-0.053870605800551544,0.0,-0.05695546395881665,-0.04015220762071436,-0.1133935684960739,-0.1100500052860899,-0.4385796417169405,-0.02823937451925927
5406,7.0,299.90078,915.68215,0.0,0.0,0.0,0.0,-0.05388057261013537,0.0,-0.07741838207434942,-0.0985878708953653,-0.1023382600999999,-0.08804234078360251,-0.4870756761481266,-0.023068005400884876
5407,7.0,301.01515,1575.3635,0.0,0.0,0.0,0.0,-0.053890539419719184,0.0,-0.16651100623585685,-0.13129311787262185,-0.18106704306492583,-0.10864403971233189,-0.4941909513978495,-0.02749555370034987
5408,7.0,300.53266,1501.0004,0.0,0.0,0.0,0.0,-0.053900506229303015,0.0,-0.17445666020753184,-0.11331752407606889,-0.16849244720390985,-0.1002628422116721,-0.5124261094725195,0.007038498655195733
5409,7.0,299.87137,826.15081,0.0,0.0,0.0,0.0,-0.05391047303888683,0.0,-0.07477869837758293,-0.08980377982369302,-0.08654673702649791,-0.1115833363974179,-0.48685306510115656,-0.013157388947533186
5410,7.0,300.05484,653.9664700000001,0.0,0.0,0.0,0.0,-0.05392043984847065,0.0,-0.03365762810399926,-0.05691153247423094,-0.1082203187855139,-0.14144657288468987,-0.48994462287876955,-0.007816423547295942
5411,7.0,299.75449,1097.7735,0.0,0.0,0.0,0.0,-0.05393040665805447,0.0,-0.08631254047788452,-0.08430182570119242,-0.16308135729737683,-0.15107898429783487,-0.4683651619215426,0.018029169395590485
5412,7.0,298.70429,1314.6799,0.0,0.0,0.0,0.0,-0.05394037346763829,0.0,-0.09817290444941132,-0.11837020715722989,-0.18308675448925582,-0.12679702320389188,-0.4438292904850406,-0.024016596972253577
5413,7.0,300.2139,1015.1937,0.0,0.0,0.0,0.0,-0.053950340277222106,0.0,-0.09306757187980422,-0.08284671344458401,-0.13267925414192286,-0.11740835923480289,-0.4325930460186096,-0.021504183567547682
5414,7.0,299.76572999999996,587.7858200000001,0.0,0.0,0.0,0.0,-0.05396030708680593,0.0,-0.03966474009035506,-0.07607042405556633,-0.06293704812215303,-0.08039086877971101,-0.4770397682801595,-0.07190640690835984
5415,7.0,300.50526,865.57528,0.0,0.0,0.0,0.0,-0.053970273896389746,0.0,-0.10893772012131589,-0.060095210897935535,-0.09408033764625641,-0.1277072156362209,-0.4867310292591125,-0.00965486533933602
5416,7.0,300.71574,1454.7097,0.0,0.0,0.0,0.0,-0.05398024070597358,0.0,-0.15459612738244985,-0.1107758469952249,-0.17682346045361683,-0.11154179314331789,-0.48978437737545455,-0.02839930084879277
5417,7.0,300.15905,1459.4846,0.0,0.0,0.0,0.0,-0.053990207515557394,0.0,-0.13458227968473688,-0.13929914128525486,-0.16976546423204683,-0.12519277471806486,-0.47679285949579153,0.005581014278778225
5418,7.0,301.17855,994.2546199999999,0.0,0.0,0.0,0.0,-0.05400017432514121,0.0,-0.07031880308192552,-0.09139738107746923,-0.14051239682249386,-0.13841592157058788,-0.4748273265543086,-0.032183843674548074
5419,7.0,300.92401,782.60198,0.0,0.0,0.0,0.0,-0.054010141134725034,0.0,-0.05807100570941204,-0.07615519559868264,-0.1036652529609639,-0.14134625099228887,-0.47908985694248757,-0.015328976429352183
5420,7.0,299.45095,1165.8888,0.0,0.0,0.0,0.0,-0.05402010794430885,0.0,-0.09881939752996521,-0.09355877019703172,-0.16202291624291684,-0.1248270522269709,-0.47087499255174353,0.0008393579720856822
5421,7.0,299.80839,1508.2034,0.0,0.0,0.0,0.0,-0.05403007475389267,0.0,-0.15739294083847385,-0.10996731394542889,-0.19109591897719883,-0.08613752584111192,-0.4559111225574246,0.0028914137277603175
5422,7.0,299.27887000000004,1010.7849,0.0,0.0,0.0,0.0,-0.05404004156347649,0.0,-0.07639273688587613,-0.0967196322549845,-0.13414098900118487,-0.10234766306092791,-0.46206176344694555,-0.011289043915891889
5423,7.0,299.63763,551.73994,0.0,0.0,0.0,0.0,-0.054050008373060315,0.0,-0.030242589218711174,-0.042710696547217555,-0.0947618800610194,-0.10664956834799288,-0.4668798284674516,-0.016367326760829384
5424,7.0,300.78165,995.2759900000001,0.0,0.0,0.0,0.0,-0.05405997518264414,0.0,-0.08799617710904652,-0.08597279569285432,-0.12857007915637889,-0.13450273955188685,-0.4625524196753696,0.00025693838982034474
5425,7.0,301.08994,1567.0971,0.0,0.0,0.0,0.0,-0.054069941992227956,0.0,-0.18414068658077082,-0.13327202571542487,-0.15894567568921686,-0.12897334256367787,-0.44034194708586655,-0.04612444455187826
5426,7.0,300.31503,1582.8325,0.0,0.0,0.0,0.0,-0.05407990880181177,0.0,-0.1967728755774708,-0.1150781069198249,-0.16929055391017686,-0.12331789726302887,-0.46597760018090856,-0.025309452424098478
5427,7.0,300.97631,1133.0203,0.0,0.0,0.0,0.0,-0.054089875611395596,0.0,-0.13226895877892988,-0.10668250910874388,-0.1054584320604369,-0.13680942366953885,-0.49964438502606157,-0.02331055315682248
5428,7.0,299.33659,750.441,0.0,0.0,0.0,0.0,-0.05409984242097942,0.0,-0.05582314785281574,-0.05948069295078735,-0.11281148671112688,-0.12147796680394188,-0.48507147758282754,-0.014179662039673685
5429,7.0,300.02927,1125.2301,0.0,0.0,0.0,0.0,-0.054109809230563244,0.0,-0.0866185886175891,-0.1085481457228679,-0.14687511095794487,-0.13750092633278485,-0.4900748964441265,0.002922357980514278
5430,7.0,300.29791,1473.1985,0.0,0.0,0.0,0.0,-0.05411977604014706,0.0,-0.12429836872229387,-0.14339913622489286,-0.18011804315376684,-0.097634369114012,-0.45986915102555154,-0.025504821228879874
5431,7.0,299.97353,1035.7444,0.0,0.0,0.0,0.0,-0.054129742849730884,0.0,-0.08046084383161702,-0.09283582131693222,-0.14154377396678286,-0.14090780754151788,-0.48936412176397853,-0.0005707524025313765
5432,7.0,299.32569,536.54065,0.0,0.0,0.0,0.0,-0.0541397096593147,0.0,0.004233567647320595,-0.09675987348270601,-0.07056865434458393,-0.09737445222486021,-0.4700061508559955,-0.04580902080899836
5433,7.0,300.25903,874.55581,0.0,0.0,0.0,0.0,-0.054149676468898525,0.0,-0.06524262577069584,-0.095453186153746,-0.1051473136172319,-0.13257836482946586,-0.48471694137283755,-0.03610453894274057
5434,7.0,299.54573999999997,1541.031,0.0,0.0,0.0,0.0,-0.05415964327848235,0.0,-0.13046122940802088,-0.14200435693223887,-0.19596936824817082,-0.12940119755090387,-0.46902493972415754,-0.04681776802555396
5435,7.0,300.14158,1397.9977,0.0,0.0,0.0,0.0,-0.054169610088066165,0.0,-0.14014113185335286,-0.15181939654340784,-0.13299585426816887,-0.14127891039064286,-0.5025971883349805,-0.04877130003285255
5436,7.0,300.76608,856.26801,0.0,0.0,0.0,0.0,-0.05417957689764999,0.0,-0.08774509576076672,-0.06756886662852793,-0.1049701367047459,-0.14890274599805683,-0.45625708667156856,-0.013552529128780487
5437,7.0,301.40907000000004,774.23493,0.0,0.0,0.0,0.0,-0.054189543707233806,0.0,-0.09776080651449041,-0.06741034567688313,-0.07017693388242414,-0.1095344129727049,-0.4532730752595696,-0.03463243448195517
5438,7.0,301.26968,1165.1301,0.0,0.0,0.0,0.0,-0.05419951051681763,0.0,-0.12033113994325889,-0.10162857972995991,-0.13221072729568287,-0.11558520819737189,-0.45144567870421964,-0.014905112634270086
5439,7.0,300.57148,1388.3826,0.0,0.0,0.0,0.0,-0.05420947732640145,0.0,-0.15052523298568388,-0.09307818972760211,-0.17843023193219282,-0.11573372026452888,-0.48535718371352454,-0.004914877014560595
5440,7.0,300.50737999999996,1199.1935,0.0,0.0,0.0,0.0,-0.05421944413598527,0.0,-0.08834470373269342,-0.12369495802274189,-0.15248521331661885,-0.12443112475039589,-0.5123199715245444,0.021069384777386378
5441,7.0,300.52614,874.78178,0.0,0.0,0.0,0.0,-0.054229410945569094,0.0,-0.060811427744370636,-0.09006693911316482,-0.11503345298791788,-0.11520306092215689,-0.5029197767693175,-0.011989883678809387
5442,7.0,299.54398,1068.7408,0.0,0.0,0.0,0.0,-0.05423937775515291,0.0,-0.1081981995358309,-0.08139922285522783,-0.13527309333791487,-0.12967082340251387,-0.47334507338052156,0.0002444256022154288
5443,7.0,299.11855,1545.3607,0.0,0.0,0.0,0.0,-0.054249344564736734,0.0,-0.16128302075489484,-0.16494778424657883,-0.14352026014184688,-0.08998392251922173,-0.4952396956488525,-0.026726941691243775
5444,7.0,299.69146,1250.2551,0.0,0.0,0.0,0.0,-0.05425931137432056,0.0,-0.12571378791948487,-0.0999392283682339,-0.15439331524243385,-0.10306133563636191,-0.4454002942350866,-0.018330144192044383
5445,7.0,299.99484,726.455,0.0,0.0,0.0,0.0,-0.054269278183904375,0.0,-0.037242105710759664,-0.1056213018815109,-0.07796077282637923,-0.11443193706605288,-0.48574481267178055,-0.04543368764070586
5446,7.0,300.19773,641.24657,0.0,0.0,0.0,0.0,-0.0542792449934882,0.0,-0.04401036306623466,-0.05014643645906795,-0.1007661468410944,-0.1088302142857059,-0.46827190238233857,-0.038656326233082364
5447,7.0,300.02544,977.77985,0.0,0.0,0.0,0.0,-0.054289211803072016,0.0,-0.09887745777394531,-0.08682890184809541,-0.1115143036681049,-0.14286134360181688,-0.49522585465248653,-0.025140234591147975
5448,7.0,300.02912000000003,1275.9638,0.0,0.0,0.0,0.0,-0.05429917861265584,0.0,-0.1161678067398699,-0.13713072527624887,-0.13456259223529385,-0.12195486309600788,-0.4626691460868896,-0.036613439752465164
5449,7.0,301.02597000000003,1184.6215,0.0,0.0,0.0,0.0,-0.05430914542223966,0.0,-0.12972099954746588,-0.1131747875344819,-0.11719956891919688,-0.13670814932204386,-0.4658410343324305,-0.04184357737663956
5450,7.0,300.9275,912.7311,0.0,0.0,0.0,0.0,-0.05431911223182348,0.0,-0.05803548521390645,-0.1173246951740459,-0.10208727805022991,-0.14051218403997287,-0.4494183881691416,-0.046141961619607055
5451,7.0,300.25215,958.86052,0.0,0.0,0.0,0.0,-0.054329079041407304,0.0,-0.07692356746751502,-0.10017046116030481,-0.1143756206254949,-0.12478383711020588,-0.4775005133656315,-0.018511451111937985
5452,7.0,299.8184,1356.2834,0.0,0.0,0.0,0.0,-0.05433904585099112,0.0,-0.11311278676086288,-0.1024416318752019,-0.19672187869993782,-0.1078388909178699,-0.4562642199522725,0.004670687185510935
5453,7.0,299.84848,1239.6379,0.0,0.0,0.0,0.0,-0.054349012660574944,0.0,-0.09264639725048751,-0.1298765030403129,-0.15429608376283785,-0.08603702460344323,-0.4840672251437156,-0.020530732918225582
5454,7.0,299.71727999999996,754.50045,0.0,0.0,0.0,0.0,-0.05435897947015877,0.0,-0.08486335472111102,-0.05405102206392055,-0.09043491912548161,-0.10431221314981388,-0.4820897054535495,-0.018325872329622784
5455,7.0,299.41572,766.19552,0.0,0.0,0.0,0.0,-0.054368946279742585,0.0,-0.088082521216318,-0.04558581397096956,-0.0992359689640776,-0.08742267045969583,-0.5075524372865255,-0.017010601759065682
5456,7.0,300.17899,1158.9854,0.0,0.0,0.0,0.0,-0.05437891308932641,0.0,-0.13488238409935488,-0.08159477708477751,-0.13582546662992986,-0.12181341338204787,-0.4863137728679326,-0.005642358770307454
5457,7.0,299.30984,1368.6301,0.0,0.0,0.0,0.0,-0.054388879898910225,0.0,-0.13012923801275586,-0.08871696979293323,-0.1971831709404638,-0.1171874808455039,-0.4705890432410225,-0.0024622170960769078
5458,7.0,299.78842000000003,1255.6336,0.0,0.0,0.0,0.0,-0.054398846708494056,0.0,-0.1238526298708029,-0.09326381309292173,-0.16456482637128386,-0.15469552721725988,-0.45252171991291656,0.004628241024246826
5459,7.0,300.02417,1126.855,0.0,0.0,0.0,0.0,-0.05440881351807787,0.0,-0.10095071034680941,-0.08458948639133232,-0.15699558467925784,-0.13290379036408287,-0.4778386551890036,0.001039834134923639
5460,7.0,301.13088999999997,1119.5239,0.0,0.0,0.0,0.0,-0.05441878032766169,0.0,-0.12959260049479387,-0.07074818402380213,-0.13996651846361988,-0.1105516654105999,-0.4615632849277495,-0.011406263780210589
5461,7.0,300.74575,1398.9916,0.0,0.0,0.0,0.0,-0.05442874713724551,0.0,-0.12109722794636589,-0.13667011191328987,-0.16749118385259285,-0.08093043864346243,-0.49689412027963153,-0.04431074815113036
5462,7.0,300.31909,1269.4656,0.0,0.0,0.0,0.0,-0.05443871394682933,0.0,-0.0960597389418581,-0.12772834190080587,-0.16209777516030485,-0.10434314767536691,-0.4576994380564176,-0.027905158026774672
5463,7.0,300.35442,640.02479,0.0,0.0,0.0,0.0,-0.05444868075641316,0.0,-0.026594358928908875,-0.06777448040507043,-0.1001827143937641,-0.10988692268249489,-0.46605093922314655,-0.023997377644356773
5464,7.0,300.31618,503.5732,0.0,0.0,0.0,0.0,-0.05445864756599698,0.0,-0.01170630132032199,-0.06141533088347124,-0.07995204637340263,-0.13106435639754488,-0.4530994953849386,-0.03262881650896347
5465,7.0,299.96107,999.11275,0.0,0.0,0.0,0.0,-0.054468614375580794,0.0,-0.08684659420809152,-0.08299537445950572,-0.1338633584737849,-0.13673957020764488,-0.47381378261177953,-0.027805929431231575
5466,7.0,299.06957,1230.2374,0.0,0.0,0.0,0.0,-0.05447858118516462,0.0,-0.1109441478368349,-0.12388996813698787,-0.13912732446579787,-0.12001292874935389,-0.49202089392368153,-0.06136563096606624
5467,7.0,299.87926,1121.1461,0.0,0.0,0.0,0.0,-0.054488547994748435,0.0,-0.1140624655495889,-0.09084633210333491,-0.13589163186145986,-0.11147744162946689,-0.5246037950043635,-0.044482946965875056
5468,7.0,300.42245,1190.3396,0.0,0.0,0.0,0.0,-0.05449851480433225,0.0,-0.1159018285886199,-0.09760040395740992,-0.14833128307415785,-0.11554207414061489,-0.48184349581175057,-0.02647556751368508
5469,7.0,300.7614,1292.5523,0.0,0.0,0.0,0.0,-0.054508481613916075,0.0,-0.1121193457003179,-0.12115297696686787,-0.15963131163438385,-0.13068947412554688,-0.46533238278223055,-0.003197075413876777
5470,7.0,299.46278,1344.6907,0.0,0.0,0.0,0.0,-0.05451844842349989,0.0,-0.11961004024459189,-0.1074631372507859,-0.18167922851034382,-0.13250779196000087,-0.43450732877003456,-0.0017357204220772682
5471,7.0,300.60708,1361.6378,0.0,0.0,0.0,0.0,-0.05452841523308371,0.0,-0.14638016868159784,-0.10706750361673989,-0.16045621880579586,-0.14653786079466086,-0.4497806858748976,0.012650759844532788
5472,7.0,301.60064,1013.0939999999999,0.0,0.0,0.0,0.0,-0.05453838204266754,0.0,-0.12420576779565487,-0.07531222420448784,-0.10843727589692591,-0.13329416523010987,-0.4601515032984176,-0.018352240136975083
5473,7.0,301.61879,747.7705599999999,0.0,0.0,0.0,0.0,-0.054548348852251356,0.0,-0.06761082734166914,-0.059362385869111356,-0.100330364185086,-0.11773431165947189,-0.49208080740209453,-0.03905442510462167
5474,7.0,301.27969,1019.9079,0.0,0.0,0.0,0.0,-0.05455831566183518,0.0,-0.08811472635749641,-0.10686046622380689,-0.11505135711718488,-0.1029312343235219,-0.5129554009272566,-0.03343984418050567
5475,7.0,299.67052,1419.2106,0.0,0.0,0.0,0.0,-0.054568282471419,0.0,-0.12051160991856988,-0.1262734464797189,-0.18461951818052783,-0.1027187456450509,-0.5149579681598945,0.004663523203328905
5476,7.0,299.98545,1229.9241,0.0,0.0,0.0,0.0,-0.054578249281002814,0.0,-0.12950167143081986,-0.094175670295165,-0.15018886434998688,-0.1089630209763129,-0.4700103355789086,-0.0012727211591077989
5477,7.0,300.44517,1160.5313,0.0,0.0,0.0,0.0,-0.05458821609058664,0.0,-0.11040466308609191,-0.12113188109978587,-0.1212359824150599,-0.12090683825257588,-0.45747243963651457,-0.01241226103599479
5478,7.0,300.03607,1244.483,0.0,0.0,0.0,0.0,-0.05459818290017046,0.0,-0.1195640285575509,-0.12292378350413288,-0.1358039350653049,-0.12316496742543588,-0.4675460404082016,-0.03329403850436576
5479,7.0,299.10702000000003,1397.2388,0.0,0.0,0.0,0.0,-0.054608149709754285,0.0,-0.1122324446764799,-0.14914816530477784,-0.16334511643090785,-0.1113840503677499,-0.4825550912244796,-0.04125431164848356
5480,7.0,300.21521,1360.1778,0.0,0.0,0.0,0.0,-0.0546181165193381,0.0,-0.11834742929498189,-0.13843545703251586,-0.15667720123283585,-0.12530040214368687,-0.4949128920940995,-0.03232413119064337
5481,7.0,299.23857000000004,887.92391,0.0,0.0,0.0,0.0,-0.05462808332892192,0.0,-0.05828523717805504,-0.07726659112986883,-0.13435486583229286,-0.13660660139702185,-0.4861881703855366,-0.014983803663536287
5482,7.0,300.05978,629.46755,0.0,0.0,0.0,0.0,-0.05463805013850574,0.0,-0.033623823040912965,-0.08075043577644753,-0.07696815756466573,-0.1358673543890639,-0.47343281070668053,-0.03622411360029167
5483,7.0,300.18885,763.09344,0.0,0.0,0.0,0.0,-0.054648016948089566,0.0,-0.06574536095356193,-0.06225213766405764,-0.1039638476329329,-0.12188970098207688,-0.44553507676338855,0.0015455887017627285
5484,7.0,300.21216,1145.8212,0.0,0.0,0.0,0.0,-0.05465798375767339,0.0,-0.12289479441877188,-0.1086574754086579,-0.11674875368470487,-0.1075575012325989,-0.44270271849385656,-0.051931154920205946
5485,7.0,300.36976,1104.2016,0.0,0.0,0.0,0.0,-0.054667950567257206,0.0,-0.09584810139347111,-0.1133237454316829,-0.12647787981989486,-0.12511933435081687,-0.4810002285485266,-0.047393228221097455
5486,7.0,300.83114,820.70327,0.0,0.0,0.0,0.0,-0.05467791737684102,0.0,-0.07929323217163273,-0.08643459962468082,-0.08374547033628442,-0.12325147871897389,-0.5170505829289195,-0.045276924677984554
5487,7.0,299.9227,980.17225,0.0,0.0,0.0,0.0,-0.05468788418642485,0.0,-0.06476356416316613,-0.099052230243944,-0.13413209266530687,-0.1059114967101509,-0.5090464846914765,0.013423231323269787
5488,7.0,300.05005,1425.8401,0.0,0.0,0.0,0.0,-0.05469785099600867,0.0,-0.16824613623710083,-0.09206381188024082,-0.17310982790960983,-0.10838616756188191,-0.49419410260566055,0.027348514898838272
5489,7.0,299.71217,1429.2544,0.0,0.0,0.0,0.0,-0.054707817805592494,0.0,-0.16740143015873482,-0.09314032830323472,-0.17391588862916182,-0.13532238795527984,-0.47415098211255857,0.015626005629916683
5490,7.0,299.22388,1120.4365,0.0,0.0,0.0,0.0,-0.05471778461517631,0.0,-0.1148038606477589,-0.10019486427571321,-0.12558598668437188,-0.14865469224107586,-0.4790925217902505,-0.025477683351451577
5491,7.0,299.31743,938.3530800000001,0.0,0.0,0.0,0.0,-0.05472775142476013,0.0,-0.07543688639079102,-0.07379504531300393,-0.13600397090004687,-0.11872081195683189,-0.44775521918999955,-0.030524696285052968
5492,7.0,300.08527999999995,929.8848800000001,0.0,0.0,0.0,0.0,-0.05473771823434395,0.0,-0.07693343652348902,-0.09381756440507272,-0.1119107782997339,-0.11582355501839489,-0.47071299412575557,-0.017440557213748983
5493,7.0,300.582,1151.8884,0.0,0.0,0.0,0.0,-0.054747685043927775,0.0,-0.1018943349661879,-0.10301016650631191,-0.14524081960665286,-0.1059855855574629,-0.4911019166129855,-0.026204147196147977
5494,7.0,300.64751,908.3967,0.0,0.0,0.0,0.0,-0.0547576518535116,0.0,-0.08464836534139321,-0.05699630705709754,-0.13448524072265988,-0.12523930316265688,-0.5279339326505226,0.00022198579059829179
5495,7.0,301.0599,508.89772,0.0,0.0,0.0,0.0,-0.054767618663095416,0.0,-0.025790526346326774,-0.07738163149322243,-0.051520040851132154,-0.1039225171613539,-0.4796795482356855,-0.03123000752066177
5496,7.0,300.70057,840.4581199999999,0.0,0.0,0.0,0.0,-0.05477758547267923,0.0,-0.05999097684689844,-0.08588617699480573,-0.10960112535928891,-0.09327459103423541,-0.4691086139174156,-0.04460867103828305
5497,7.0,299.66405,1619.0962,0.0,0.0,0.0,0.0,-0.054787552282263056,0.0,-0.13642834030692888,-0.17771740035434183,-0.17801906517411384,-0.11676807636411189,-0.4716657633272865,-0.05416083709650845
5498,7.0,299.85553,1570.2637,0.0,0.0,0.0,0.0,-0.05479751909184688,0.0,-0.13677922881655888,-0.15757256981620185,-0.18296915668264985,-0.1221189893472059,-0.48627398253650556,-0.036910450714527865
5499,7.0,298.83248,977.63413,0.0,0.0,0.0,0.0,-0.054807485901430704,0.0,-0.08365564064866891,-0.06774210098487483,-0.14577862236222985,-0.1272104191121909,-0.47688106291699656,0.006300596432770454
5500,7.0,299.21287,878.6355199999999,0.0,0.0,0.0,0.0,-0.05481745271101452,0.0,-0.0941050883064491,-0.07480870983229483,-0.0981694614255715,-0.09632153034369491,-0.4593757184918536,0.0050066246832903855
5501,7.0,299.32221,1215.4679,0.0,0.0,0.0,0.0,-0.054827419520598344,0.0,-0.14181755414380287,-0.07518457900989022,-0.15246976125259384,-0.13566734895182486,-0.4642406361969836,0.008317342580682804
5502,7.0,300.1486,1378.8836,0.0,0.0,0.0,0.0,-0.05483738633018216,0.0,-0.13315173266355287,-0.12906704793292587,-0.15692741321252984,-0.12948908686457786,-0.4921710474560005,-0.03091707637302787
5503,7.0,300.81312,1052.0897,0.0,0.0,0.0,0.0,-0.054847353139765985,0.0,-0.0986468278656839,-0.1028316723686959,-0.1183304978858109,-0.13662989601682088,-0.4673635439326906,-0.04272033052916836
5504,7.0,300.85809,821.4427599999999,0.0,0.0,0.0,0.0,-0.05485731994934981,0.0,-0.06116711703297444,-0.06963337687952924,-0.11889759370177888,-0.08910424512690432,-0.46863855706352453,-0.04306986837641505
5505,7.0,299.88835,941.03976,0.0,0.0,0.0,0.0,-0.054867286758933626,0.0,-0.09100515095050911,-0.0986706149250315,-0.0963768234016519,-0.0966750431710839,-0.47849063096584854,-0.03304219316551057
5506,7.0,300.36289,1329.0678,0.0,0.0,0.0,0.0,-0.05487725356851745,0.0,-0.14642765971378485,-0.08211002489312852,-0.17546574584962082,-0.1103712866277979,-0.5263969741038366,0.026519051141726577
5507,7.0,300.03979,1320.7799,0.0,0.0,0.0,0.0,-0.054887220378101266,0.0,-0.11522059014888689,-0.09289539535656172,-0.1933681323264488,-0.11249929422281589,-0.47010185232794055,0.008411610101086283
5508,7.0,299.8554,862.11855,0.0,0.0,0.0,0.0,-0.05489718718768509,0.0,-0.05344295851990936,-0.08151489244689351,-0.1271046560667529,-0.11826131316898289,-0.4898543422948595,-0.015646614123700584
5509,7.0,299.61084,935.44881,0.0,0.0,0.0,0.0,-0.054907153997268913,0.0,-0.05413437809664715,-0.09794930447034371,-0.13226939447647287,-0.1318629899938639,-0.46699716282903153,-0.04020155087408416
5510,7.0,301.1349,1321.7424,0.0,0.0,0.0,0.0,-0.05491712080685273,0.0,-0.13821186313294886,-0.1203245234201059,-0.14324028900671584,-0.15156512143081285,-0.5138440820599625,-0.01865692849504548
5511,7.0,300.19365,1317.5739,0.0,0.0,0.0,0.0,-0.054927087616436554,0.0,-0.12992524037012287,-0.12783460143879288,-0.14274972397080085,-0.11875097641230889,-0.45588806098514856,-0.017841594510578283
5512,7.0,299.51602,1021.3846,0.0,0.0,0.0,0.0,-0.05493705442602037,0.0,-0.12481129618791588,-0.09469034967020992,-0.09097377768766282,-0.10735976547558389,-0.48387526491227056,-0.006623222863986203
5513,7.0,298.70396,772.73285,0.0,0.0,0.0,0.0,-0.054947021235604195,0.0,-0.05130426620258686,-0.10012333489815381,-0.08346389117324472,-0.1259121721565639,-0.4770477729559496,-0.049033170468197156
5514,7.0,299.52656,1112.287,0.0,0.0,0.0,0.0,-0.05495698804518802,0.0,-0.09268175765247731,-0.1115086902625509,-0.1339170201990809,-0.1325717179088099,-0.4963923790951136,-0.02902083453963337
5515,7.0,299.39731,1428.6177,0.0,0.0,0.0,0.0,-0.054966954854771835,0.0,-0.1024000784886009,-0.13315820733169187,-0.1987058325282388,-0.12920646101418487,-0.4480703298385986,-0.03782049318584206
5516,7.0,299.8891,1338.6429999999998,0.0,0.0,0.0,0.0,-0.05497692166435566,0.0,-0.12057301287462988,-0.12938168235397787,-0.15695934072318085,-0.11872041678929289,-0.4554358677305205,-0.032860673463095964
5517,7.0,299.6617,876.98097,0.0,0.0,0.0,0.0,-0.054986888473939476,0.0,-0.0963911710230679,-0.047157584751341255,-0.12303156291726987,-0.12134066128289088,-0.4758121245915005,0.001174683943032279
5518,7.0,300.19539,778.23044,0.0,0.0,0.0,0.0,-0.0549968552835233,0.0,-0.08931466069567073,-0.06955432614647754,-0.07769363653026493,-0.1221592964361839,-0.5287272669488186,-0.007867318897168924
5519,7.0,300.14509,1201.0233,0.0,0.0,0.0,0.0,-0.05500682209310712,0.0,-0.11407018651535089,-0.08873579091354072,-0.16227511419280685,-0.10677395493026891,-0.4894826821581796,0.015126616198880786
5520,7.0,300.17305,1448.1728,0.0,0.0,0.0,0.0,-0.05501678890269094,0.0,-0.13505768649915587,-0.12919043139760286,-0.17596024229592383,-0.1023133544125419,-0.5204737065367555,-0.01955073160700698
5521,7.0,299.37298,1083.427,0.0,0.0,0.0,0.0,-0.055026755712274764,0.0,-0.08029295538279772,-0.12540346994385887,-0.12363834773965489,-0.1061699768106609,-0.5028391321938586,-0.046388938291731754
5522,7.0,299.24487999999997,971.5092900000001,0.0,0.0,0.0,0.0,-0.05503672252185858,0.0,-0.091521796030748,-0.08678896358215382,-0.11700380899987688,-0.13920618572108087,-0.49547069640665053,-0.03708983144598137
5523,7.0,299.92798999999997,1130.5564,0.0,0.0,0.0,0.0,-0.0550466893314424,0.0,-0.13704607836289487,-0.08893599393454922,-0.11767882608399588,-0.1042724126858859,-0.4265657683287636,-0.0015258781502174485
5524,7.0,299.60822,1150.4445,0.0,0.0,0.0,0.0,-0.05505665614102622,0.0,-0.13911736421731488,-0.08967445770017991,-0.1209145693508389,-0.13307995402646888,-0.4330752213436966,-0.017268335094251984
5525,7.0,300.36253999999997,1195.4817,0.0,0.0,0.0,0.0,-0.05506662295061004,0.0,-0.10417862625662991,-0.08321198098638312,-0.17600599053793883,-0.15827873420839486,-0.44822688711154957,-0.016176489210495183
5526,7.0,301.16513,931.1623099999999,0.0,0.0,0.0,0.0,-0.055076589760193854,0.0,-0.07201480136430752,-0.07689380324582752,-0.13414148549373386,-0.14185757752275285,-0.5378110236978155,-0.018076476016259283
5527,7.0,300.37511,873.38674,0.0,0.0,0.0,0.0,-0.05508655656977768,0.0,-0.040118827109419955,-0.08211064094918932,-0.14325829446099286,-0.11853303644829988,-0.49024571014598456,-0.03739191169829436
5528,7.0,300.45269,1305.0772,0.0,0.0,0.0,0.0,-0.0550965233793615,0.0,-0.13133645457939888,-0.1174760646064849,-0.14789835170393087,-0.10064611622099831,-0.48015527929013657,-0.023568960303325275
5529,7.0,300.17434,1485.0015,0.0,0.0,0.0,0.0,-0.055106490188945326,0.0,-0.17302523165876083,-0.13417059616910687,-0.14420753755217586,-0.11151351333302689,-0.4839852633431266,-0.02912000639317087
5530,7.0,300.13447,922.34676,0.0,0.0,0.0,0.0,-0.05511645699852914,0.0,-0.09470423322308011,-0.07124345661968172,-0.1144226962251409,-0.12822693187751286,-0.47929942746067056,-0.008006540271509002
5531,7.0,300.99164,682.4390599999999,0.0,0.0,0.0,0.0,-0.05512642380811296,0.0,-0.04104415344524256,-0.08200918421667633,-0.08439109810125292,-0.10651101652931891,-0.4674777980139666,-0.026753479724612877
5532,7.0,299.84893,1000.6589,0.0,0.0,0.0,0.0,-0.05513639061769678,0.0,-0.041636556195708156,-0.11661225876373388,-0.14592649608182384,-0.09602953294312701,-0.4618654158425676,-0.03649218613949836
5533,7.0,300.04200000000003,1319.6429,0.0,0.0,0.0,0.0,-0.05514635742728061,0.0,-0.09853907783679981,-0.11209652730806588,-0.1905028940911718,-0.13193608585607788,-0.5049548186676605,-0.04352422492000655
5534,7.0,300.07925,1106.5451,0.0,0.0,0.0,0.0,-0.05515632423686443,0.0,-0.1136490291112859,-0.09073614419471021,-0.1319768995701059,-0.12182618033330787,-0.5387962067700455,-0.04161531847361216
5535,7.0,299.01167000000004,795.12205,0.0,0.0,0.0,0.0,-0.05516629104644825,0.0,-0.11221280788954188,-0.03705175857347386,-0.09243267949964522,-0.12362412170825088,-0.47637476210702856,0.009474112768572131
5536,7.0,299.06032999999996,913.98014,0.0,0.0,0.0,0.0,-0.055176257856032064,0.0,-0.07894057351407803,-0.07910011379532342,-0.11978645721950289,-0.12265637667024189,-0.4472985676349316,-0.018774764415424982
5537,7.0,299.67933999999997,1382.6424,0.0,0.0,0.0,0.0,-0.05518622466561589,0.0,-0.12789077602433688,-0.10874461491725788,-0.18365337407767685,-0.1436695524115809,-0.48010195193737354,-0.0090155164825872
5538,7.0,298.86032,1564.2326,0.0,0.0,0.0,0.0,-0.05519619147519971,0.0,-0.1257686452798989,-0.13253514971270086,-0.2171838463868768,-0.15245171526831286,-0.4987617225989496,-0.012675620948986386
5539,7.0,299.76721000000003,1175.3706,0.0,0.0,0.0,0.0,-0.055206158284783535,0.0,-0.1056470688315539,-0.1010059841530145,-0.15063026649104985,-0.10173101931506989,-0.4745153063185145,0.0017220678902298684
5540,7.0,299.68868,793.16735,0.0,0.0,0.0,0.0,-0.05521612509436735,0.0,-0.1048795116158019,-0.07502140724028643,-0.061202149141931846,-0.0953252683948715,-0.4724221342619346,-0.019514625452943583
5541,7.0,300.44365,1016.732,0.0,0.0,0.0,0.0,-0.05522609190395117,0.0,-0.1055464429641229,-0.08979590991016631,-0.11371879138067088,-0.1197921820825679,-0.4970284671103905,-0.015396624045778486
5542,7.0,301.15715,1474.2002,0.0,0.0,0.0,0.0,-0.05523605871353499,0.0,-0.14539556316192487,-0.13264632351367286,-0.17007815321290684,-0.14069363686788086,-0.5005101565740065,-0.003199356239851877
5543,7.0,300.30401,1136.8786,0.0,0.0,0.0,0.0,-0.055246025523118816,0.0,-0.06672790754903174,-0.097458023066608,-0.18139676477996683,-0.1040736636787709,-0.45713986055619155,-0.006465759137495744
5544,7.0,298.98138,731.3834400000001,0.0,0.0,0.0,0.0,-0.05525599233270264,0.0,-0.029740801424688573,-0.08322465674513413,-0.1093568408926799,-0.1248909275132749,-0.4672748034889325,-0.05491163616885655
5545,7.0,299.58849,1044.2855,0.0,0.0,0.0,0.0,-0.05526595914228646,0.0,-0.0886745034679921,-0.09195895569364232,-0.13680325297642984,-0.12889092480054387,-0.5400601552097875,-0.05362863052123375
5546,7.0,299.60953,1307.4652,0.0,0.0,0.0,0.0,-0.055275925951870274,0.0,-0.17570913865614182,-0.09146560320670222,-0.13026202443836088,-0.1283089038106029,-0.5250721293330846,-0.02184933505511148
5547,7.0,300.53542999999996,1231.7253,0.0,0.0,0.0,0.0,-0.0552858927614541,0.0,-0.13194273277673385,-0.1016942383364399,-0.14077675377358387,-0.10431838384292291,-0.4651110281653845,-0.02206340643023868
5548,7.0,299.72467,1070.2241,0.0,0.0,0.0,0.0,-0.05529585957103792,0.0,-0.0980572682949989,-0.09671110980839341,-0.13055303999958187,-0.12464986518198388,-0.4416604691759946,-0.017455300002703983
5549,7.0,298.56392,1053.7674,0.0,0.0,0.0,0.0,-0.055305826380621745,0.0,-0.057209160505604546,-0.1127909076015959,-0.15031890486782085,-0.1391310329611639,-0.49606205956251354,-0.031214365978868074
5550,7.0,299.31642999999997,1171.6012,0.0,0.0,0.0,0.0,-0.055315793190205555,0.0,-0.09195076761958422,-0.11966870742538188,-0.1445180379128199,-0.14915395096284886,-0.47660214556196956,-0.03517786397103487
5551,7.0,300.0908,1474.6491,0.0,0.0,0.0,0.0,-0.05532575999978938,0.0,-0.15780889013702487,-0.12681862569602387,-0.16362897844642285,-0.0992579078552428,-0.4626188888819296,0.0034020897516601166
5552,7.0,300.36496,1248.64,0.0,0.0,0.0,0.0,-0.0553357268093732,0.0,-0.14844194011757886,-0.11519635320649489,-0.1159170780026249,-0.1128156410365369,-0.46560985118961457,-0.016770574969376884
5553,7.0,300.34456,729.0615,0.0,0.0,0.0,0.0,-0.055345693618957026,0.0,-0.05905419875844564,-0.08594160684152621,-0.07662068573437293,-0.13844207355566887,-0.5254273444206414,-0.017433750199577182
5554,7.0,300.69591,816.45381,0.0,0.0,0.0,0.0,-0.05535566042854085,0.0,-0.07295454523580303,-0.07532157852941102,-0.09990544863640011,-0.13683857487491588,-0.4976792776496205,-0.01109137503338349
5555,7.0,300.15032,1286.7898,0.0,0.0,0.0,0.0,-0.055365627238124666,0.0,-0.12411533522422988,-0.09159341254781601,-0.17544323143239884,-0.1160769486034029,-0.4625039559230865,-0.0015723921053330183
5556,7.0,300.52477000000005,1263.2081,0.0,0.0,0.0,0.0,-0.05537559404770848,0.0,-0.11240654130866189,-0.1033713699019599,-0.16820580888312084,-0.1260881027714269,-0.45954316820337954,-0.03849857737801376
5557,7.0,300.27311000000003,1006.0822,0.0,0.0,0.0,0.0,-0.05538556085729231,0.0,-0.1158131996023729,-0.07944564221192442,-0.11056503017941889,-0.1155391965103309,-0.5372845085483524,-0.03176507044796836
5558,7.0,299.78312999999997,1126.2127,0.0,0.0,0.0,0.0,-0.05539552766687613,0.0,-0.1265765602471339,-0.094502514379922,-0.12126148592007689,-0.11209620306803389,-0.5063828021660916,-0.011233840023943687
5559,7.0,299.30686000000003,1193.6972,0.0,0.0,0.0,0.0,-0.055405494476459954,0.0,-0.12895366524673588,-0.09193647167392331,-0.14196399918075586,-0.08166167590937992,-0.4911757318827706,-8.063676127422872e-05
5560,7.0,299.17265,1337.0647,0.0,0.0,0.0,0.0,-0.05541546128604377,0.0,-0.1038913394557769,-0.12981897069963488,-0.17272396200652784,-0.09074400296248582,-0.4494579454530456,-0.013824536118125485
5561,7.0,299.38532000000004,1383.6098,0.0,0.0,0.0,0.0,-0.05542542809562759,0.0,-0.11469660812467389,-0.13529374337495287,-0.17059247896366683,-0.15306634264647187,-0.49318957658902157,-0.02332412260216168
5562,7.0,299.83319,873.49375,0.0,0.0,0.0,0.0,-0.05543539490521141,0.0,-0.08099605570668833,-0.08933404113033341,-0.0951901920240405,-0.15645045612545785,-0.44855607180403756,-0.0052697436454082055
5563,7.0,300.07173,730.21068,0.0,0.0,0.0,0.0,-0.055445361714795235,0.0,-0.07599695937031593,-0.08672434153052612,-0.05924451144522804,-0.12683745188288187,-0.4404424412307845,-0.047146849366531754
5564,7.0,299.48398,1111.7362,0.0,0.0,0.0,0.0,-0.05545532852437906,0.0,-0.1127096449435759,-0.09216001187123501,-0.13307038894552486,-0.101097759280822,-0.4283150838314076,-0.015866377937889586
5565,7.0,300.08875,1265.371,0.0,0.0,0.0,0.0,-0.055465295333962876,0.0,-0.1026376147095439,-0.13125854577920987,-0.15074502719737584,-0.11796781514501689,-0.5279050651551734,-0.05669750061585765
5566,7.0,300.63268999999997,1044.6456,0.0,0.0,0.0,0.0,-0.05547526214354669,0.0,-0.07640145286323632,-0.08609367845628452,-0.15505105641234784,-0.11713254242508189,-0.4951384415663595,-0.005516167589603355
5567,7.0,300.77035,1096.1861,0.0,0.0,0.0,0.0,-0.055485228953130517,0.0,-0.08086855540685502,-0.0940087738181936,-0.15833589164653586,-0.1002148171966824,-0.49963577240021156,-0.04493345822533705
5568,7.0,299.78051,1370.4567,0.0,0.0,0.0,0.0,-0.05549519576271434,0.0,-0.15668609756871385,-0.1071563149880049,-0.15274221407198285,-0.11894464903642288,-0.46672608802977855,-0.00954100075139846
5569,7.0,301.17175,1411.5885,0.0,0.0,0.0,0.0,-0.055505162572298164,0.0,-0.15992827497369186,-0.11095946817834691,-0.15819992361561686,-0.13376606619918288,-0.5130088802675344,-0.03803515427252746
5570,7.0,300.67093,1181.5797,0.0,0.0,0.0,0.0,-0.05551512938188198,0.0,-0.12436250745362389,-0.09921902336940522,-0.13558919697161187,-0.14667491300318686,-0.4769150169278476,0.00017737243935779683
5571,7.0,300.00178,943.9254099999999,0.0,0.0,0.0,0.0,-0.055525096191465804,0.0,-0.06664848495319334,-0.08410360561062961,-0.13617766223218888,-0.09571701824128422,-0.4624836301260806,0.004507943007449337
5572,7.0,299.57658,839.1514800000001,0.0,0.0,0.0,0.0,-0.05553506300104962,0.0,-0.04491968916972816,-0.07576277295420351,-0.13439863823661288,-0.11368614446244889,-0.4627866830984896,-0.0016652872798010585
5573,7.0,299.55987000000005,1094.7013,0.0,0.0,0.0,0.0,-0.05554502981063344,0.0,-0.07316546135011884,-0.1020216093112489,-0.15757478883392084,-0.11536692372832891,-0.5232866408018705,-0.025774426815487875
5574,7.0,299.80072,1414.8468,0.0,0.0,0.0,0.0,-0.05555499662021727,0.0,-0.16221641661451383,-0.11520444907479388,-0.15265723278609586,-0.15549668380632786,-0.48916549434687556,0.005439578851644635
5575,7.0,299.30259,1092.6764,0.0,0.0,0.0,0.0,-0.055564963429801086,0.0,-0.12152420140600488,-0.0930583887941479,-0.11756376140263988,-0.1248203647763109,-0.4675724355733066,-0.028867568303007175
5576,7.0,299.35418,957.1851,0.0,0.0,0.0,0.0,-0.05557493023938491,0.0,-0.08650407919728792,-0.100130601927871,-0.10432568937614389,-0.14402576048423588,-0.44331986886476454,-0.04594645399956196
5577,7.0,299.92212,1304.0579,0.0,0.0,0.0,0.0,-0.055584897048968726,0.0,-0.12531441539256988,-0.09603966443087691,-0.17504694931828882,-0.13182730332534187,-0.5139635645117545,-0.027959435808131473
5578,7.0,299.89722,1476.0288,0.0,0.0,0.0,0.0,-0.05559486385855254,0.0,-0.13408089313775387,-0.13724411809493986,-0.17735086726316784,-0.13852706497405687,-0.5031901828235045,-0.034544343531511264
5579,7.0,300.13511,1088.4056,0.0,0.0,0.0,0.0,-0.05560483066813637,0.0,-0.08537186238979683,-0.09705399972173401,-0.14842226280063686,-0.09054558427490342,-0.48457853140917756,-0.029890275066190474
5580,7.0,300.69262000000003,893.31159,0.0,0.0,0.0,0.0,-0.05561479747772018,0.0,-0.10351454214108989,-0.08302043010797852,-0.08500944208077872,-0.0920527654276506,-0.4933742718172496,-0.03300701717503897
5581,7.0,300.15469,1040.3764,0.0,0.0,0.0,0.0,-0.055624764287304,0.0,-0.08645880515631972,-0.12298196432487488,-0.1068076758935969,-0.12467809432976987,-0.5210203650982065,-0.02968097711228437
5582,7.0,300.95293,1052.107,0.0,0.0,0.0,0.0,-0.055634731096887824,0.0,-0.09561048816552051,-0.0915305454453615,-0.13267321517132688,-0.14239505603829786,-0.48339532886990455,-0.025243065290796576
5583,7.0,300.56625,1180.6961,0.0,0.0,0.0,0.0,-0.05564469790647165,0.0,-0.07278452186902303,-0.14106546925707786,-0.14505214230553187,-0.1200545834609649,-0.4513879842435256,-0.016244441815201585
5584,7.0,299.2237,967.7334800000001,0.0,0.0,0.0,0.0,-0.05565466471605547,0.0,-0.03903458364116347,-0.08636135684120232,-0.16877087819888884,-0.15785768826184085,-0.4331159033352116,-0.025509368695328678
5585,7.0,298.93532999999996,853.5405199999999,0.0,0.0,0.0,0.0,-0.05566463152563929,0.0,-0.06246841083165214,-0.06899656945668123,-0.12799002387163189,-0.16207680088323484,-0.5151915425729465,-0.02382974250806248
5586,7.0,300.25187999999997,1138.1002,0.0,0.0,0.0,0.0,-0.055674598335223105,0.0,-0.13633402698762087,-0.08358346481754572,-0.1260365486063389,-0.14552859276755387,-0.5214445825175735,-0.013520511438870588
5587,7.0,299.97299,1478.6985,0.0,0.0,0.0,0.0,-0.05568456514480693,0.0,-0.1958441001383078,-0.09569940086179551,-0.15794391584535086,-0.11266785850945191,-0.49025231653663653,-0.01895604397756588
5588,7.0,298.90935,1313.5025,0.0,0.0,0.0,0.0,-0.05569453195439075,0.0,-0.14754748345930285,-0.12026451874918388,-0.13145994950158688,-0.0917296349045101,-0.46671387836607353,-0.027048586789737677
5589,7.0,299.27652,1052.5218,0.0,0.0,0.0,0.0,-0.055704498763974576,0.0,-0.09538290003405932,-0.1065787117684999,-0.11797871771609289,-0.12680495695217486,-0.5111137378104985,-0.02269971128103708
5590,7.0,299.80789,1209.0781,0.0,0.0,0.0,0.0,-0.05571446557355839,0.0,-0.1054682301889039,-0.1024081642243989,-0.15965317757154185,-0.1162222588002439,-0.48401625866368553,0.007086556600813683
5591,7.0,299.4686,1312.2658,0.0,0.0,0.0,0.0,-0.05572443238314221,0.0,-0.14152612315004087,-0.11727451902909389,-0.14009539374383886,-0.1126026659980179,-0.46618934918680655,-0.009848004791247401
5592,7.0,300.71611,1254.4642,0.0,0.0,0.0,0.0,-0.055734399192726033,0.0,-0.12382149269522989,-0.12319377412577888,-0.13431051587541587,-0.10758737184554688,-0.47133012423166154,-0.016787376682535087
5593,7.0,300.53529,1091.0655,0.0,0.0,0.0,0.0,-0.05574436600230986,0.0,-0.07081553475794913,-0.1108842242259209,-0.14995689087209285,-0.13815055136939788,-0.5345401510500055,-0.037516693448109366
5594,7.0,300.4225,1031.6882,0.0,0.0,0.0,0.0,-0.05575433281189368,0.0,-0.06528897487002014,-0.12264848345196289,-0.12567000538266387,-0.13530728039628886,-0.5226460235586465,-0.009421564807786052
5595,7.0,300.70739,1000.3732,0.0,0.0,0.0,0.0,-0.0557642996214775,0.0,-0.06497822626310164,-0.08323006952716833,-0.15588017870417586,-0.11093208002814389,-0.4597117730200196,-0.036161045874317364
5596,7.0,300.81086,1248.5972,0.0,0.0,0.0,0.0,-0.055774266431061315,0.0,-0.0996781057114631,-0.11751646288797188,-0.16234779462247984,-0.08568670655361951,-0.44772272425929255,-0.01960573994168588
5597,7.0,300.24135,1107.3342,0.0,0.0,0.0,0.0,-0.05578423324064514,0.0,-0.11368438140727488,-0.08377177329563032,-0.13914579601512087,-0.12133265660710088,-0.5051388856808265,-0.043531335909208366
5598,7.0,300.71042,852.62134,0.0,0.0,0.0,0.0,-0.05579420005022896,0.0,-0.10412436671377491,-0.053051803451305356,-0.10199942926655992,-0.12129373767075989,-0.5126974679818005,-0.01176025992789729
5599,7.0,299.90742,1071.0182,0.0,0.0,0.0,0.0,-0.055804166859812786,0.0,-0.12202654040808188,-0.1097287543418849,-0.09380750992433042,-0.11452251149249189,-0.46552373506361555,-0.050292554216238655
5600,7.0,299.80707,1500.2276,0.0,0.0,0.0,0.0,-0.0558141336693966,0.0,-0.16681341072820186,-0.11498913342854389,-0.17422919569258283,-0.1033816138604709,-0.4741240093948966,-0.0017587554472006483
5601,7.0,299.0982,1311.7505,0.0,0.0,0.0,0.0,-0.05582410047898042,0.0,-0.09672518182578221,-0.13881626681759887,-0.16319794185388284,-0.12005143225315389,-0.5224954444612855,-0.04395813103682975
5602,7.0,299.95306,1045.7804,0.0,0.0,0.0,0.0,-0.05583406728856424,0.0,-0.08825854707669041,-0.10150740515050091,-0.1281251914349719,-0.12369333682258188,-0.49115959080867755,0.004503466063207495
5603,7.0,300.14727999999997,910.14184,0.0,0.0,0.0,0.0,-0.05584403409814807,0.0,-0.09065594544929523,-0.06970998871959024,-0.1162944630023699,-0.1070738060323619,-0.45265037227811356,0.007523143676076473
5604,7.0,299.71211,1114.5886,0.0,0.0,0.0,0.0,-0.05585400090773189,0.0,-0.1067634272617299,-0.1034926154089259,-0.12855107058450288,-0.1258654511944529,-0.4610434470964455,-0.0017658290474737587
5605,7.0,299.78828,1274.8507,0.0,0.0,0.0,0.0,-0.05586396771731571,0.0,-0.1140345707743359,-0.1004911477242041,-0.17299705317347983,-0.14289440595257985,-0.5259800216876864,-0.02147785629019938
5606,7.0,300.49314,1233.3214,0.0,0.0,0.0,0.0,-0.055873934526899524,0.0,-0.1055041397724479,-0.1081934271278599,-0.16120135279683487,-0.12210324344065189,-0.5083120100914895,-0.014023359092497786
5607,7.0,299.64542,904.8096199999999,0.0,0.0,0.0,0.0,-0.05588390133648335,0.0,-0.05009314457005845,-0.09188513333110661,-0.13306124942962286,-0.11110088749480389,-0.4435649537989526,-0.029098259006274572
5608,7.0,299.76305,987.5727699999999,0.0,0.0,0.0,0.0,-0.05589386814606717,0.0,-0.10601902281076289,-0.06520715492444513,-0.12897128566597488,-0.1343806935773419,-0.47133925361506257,-0.036687174975492266
5609,7.0,300.06023999999996,1308.213,0.0,0.0,0.0,0.0,-0.055903834955650995,0.0,-0.15295850243832887,-0.10467869557848292,-0.14002689803707888,-0.1300231811247889,-0.5056114756599676,-0.026936969185221874
5610,7.0,300.64198,1314.932,0.0,0.0,0.0,0.0,-0.05591380176523481,0.0,-0.14322928511062985,-0.1051340400409219,-0.15134315886390684,-0.12892006587341986,-0.4958712443036815,-0.03145750749936427
5611,7.0,300.74938,1012.7539,0.0,0.0,0.0,0.0,-0.05592376857481863,0.0,-0.09362018328559271,-0.0867599724702926,-0.12747173631298087,-0.07367773628267643,-0.4511616647011896,-0.03132343019313187
5612,7.0,301.66398,991.29901,0.0,0.0,0.0,0.0,-0.05593373538440245,0.0,-0.06244650335124004,-0.11718751124300689,-0.12169612968297287,-0.13036337984586388,-0.49262316978312154,-0.04362703332815296
5613,7.0,301.9921,1262.7738,0.0,0.0,0.0,0.0,-0.055943702193986276,0.0,-0.0965117984474729,-0.11774310667033988,-0.16959678848789983,-0.16128796541538284,-0.5043634555117975,-0.015315829509304687
5614,7.0,300.90839,1209.2089999999998,0.0,0.0,0.0,0.0,-0.0559536690035701,0.0,-0.10008102562697821,-0.12099362312364088,-0.14649470647290186,-0.13186318251138288,-0.5022307261713136,-0.014651735261263687
5615,7.0,300.85863,1028.9069,0.0,0.0,0.0,0.0,-0.05596363581315392,0.0,-0.10065806649267771,-0.0991123453591269,-0.1129915919164019,-0.12739065603997887,-0.42848855224852755,0.007606331813261503
5616,7.0,300.04998,1067.5615,0.0,0.0,0.0,0.0,-0.055973602622737734,0.0,-0.10480166361061889,-0.0997923496602381,-0.1199180176124869,-0.13795737523783289,-0.4852208002500646,-0.03529357105295426
5617,7.0,299.26756,1129.0849,0.0,0.0,0.0,0.0,-0.05598356943232156,0.0,-0.09943102771432841,-0.1080964996232939,-0.13568608394617387,-0.15414521082294785,-0.5361681602506775,-0.04312172752978316
5618,7.0,300.09972999999997,1221.5091,0.0,0.0,0.0,0.0,-0.05599353624190538,0.0,-0.10862548710300089,-0.1005916246438704,-0.16209114850465084,-0.11149950008414389,-0.5118072264439406,-0.04114637518158106
5619,7.0,300.22754,1296.1018,0.0,0.0,0.0,0.0,-0.056003503051489205,0.0,-0.11297315076458189,-0.1048163861345719,-0.17619304663889984,-0.06898675612946273,-0.46021905668258456,-0.019805927763942882
5620,7.0,299.46266,971.6966,0.0,0.0,0.0,0.0,-0.05601346986107302,0.0,-0.1072688262791089,-0.06970870695821373,-0.11839396787207489,-0.08597797238761523,-0.47906728173025953,-0.01891072231384298
5621,7.0,300.72829,1004.7844,0.0,0.0,0.0,0.0,-0.05602343667065684,0.0,-0.11160523273207891,-0.08264638174081282,-0.11117777291239189,-0.14989325876581286,-0.5031368554707415,0.0038169380526524564
5622,7.0,301.2665,1380.0021,0.0,0.0,0.0,0.0,-0.05603340348024066,0.0,-0.13016312109609987,-0.12215777656103388,-0.16716527195792782,-0.13758485383856786,-0.4933691954342485,0.003114128024915507
5623,7.0,300.73352,1465.2821,0.0,0.0,0.0,0.0,-0.056043370289824486,0.0,-0.13730582502602987,-0.14527749926027286,-0.16282582575465784,-0.1345160739232029,-0.43392366631493157,-0.004312773103662566
5624,7.0,301.09493,1267.1363,0.0,0.0,0.0,0.0,-0.05605333709940831,0.0,-0.08432650036762762,-0.14059009284016186,-0.16026120869154983,-0.11252228486758488,-0.4753863568994805,-0.025613941171899177
5625,7.0,301.33518,1092.3187,0.0,0.0,0.0,0.0,-0.056063303908992126,0.0,-0.1106073232385929,-0.08949054672752932,-0.13193974368893888,-0.15315109088483586,-0.5106821540629045,-0.02427688167119168
5626,7.0,300.33256,1017.9617,0.0,0.0,0.0,0.0,-0.05607327071857594,0.0,-0.09835001448739071,-0.06915512688532964,-0.14192980198988087,-0.13223336330291688,-0.4981897327849985,-0.0076830001926780815
5627,7.0,300.4143,1027.0825,0.0,0.0,0.0,0.0,-0.05608323752815977,0.0,-0.11341089507278389,-0.0898859554200531,-0.1089105751511369,-0.11314996290703189,-0.4508066016011476,-0.01802214655914738
5628,7.0,299.92593999999997,1102.0697,0.0,0.0,0.0,0.0,-0.056093204337743584,0.0,-0.10486280312165289,-0.1028407409570909,-0.1272981361733479,-0.1104641611319639,-0.48448772393521555,-0.050751706472553455
5629,7.0,299.54803,1162.4675,0.0,0.0,0.0,0.0,-0.05610317114732741,0.0,-0.1118158266328629,-0.1200519388782039,-0.12149333780795889,-0.14718711092873688,-0.5245539532319444,-0.06331149469660803
5630,7.0,299.5316,970.3041400000001,0.0,0.0,0.0,0.0,-0.05611313795691123,0.0,-0.07506942617577553,-0.0982374140302779,-0.1216413939125709,-0.1101295352864389,-0.5342767769515125,-0.04758747738451836
5631,7.0,299.6328,1004.2869,0.0,0.0,0.0,0.0,-0.05612310476649505,0.0,-0.08514705157685973,-0.0945313859282714,-0.1255996858257239,-0.10615376480906089,-0.4639402379398365,-0.03005086000828897
5632,7.0,299.99675,1305.3395,0.0,0.0,0.0,0.0,-0.05613307157607887,0.0,-0.1069891489865069,-0.12389784109026487,-0.16590363372841385,-0.07936734128394672,-0.5062202160550455,-0.017307867046903482
5633,7.0,300.67292000000003,1210.0477,0.0,0.0,0.0,0.0,-0.05614303838566269,0.0,-0.1046491694705689,-0.11551734070567388,-0.14765776560018687,-0.14088104760637687,-0.5268183442904225,0.003427106086029037
5634,7.0,300.39555,1099.578,0.0,0.0,0.0,0.0,-0.05615300519524651,0.0,-0.08593568135494142,-0.1044231235057599,-0.14388545574288886,-0.12858284610763887,-0.5064402838442644,-0.008991512891693232
5635,7.0,301.10278999999997,1192.1612,0.0,0.0,0.0,0.0,-0.05616297200483033,0.0,-0.11896775113870289,-0.1064887047621169,-0.13693076036901386,-0.13092690902147988,-0.42860241116226455,-0.032045076033602765
5636,7.0,301.30489,1215.5112,0.0,0.0,0.0,0.0,-0.056172938814414146,0.0,-0.11036334274701388,-0.11778643324461589,-0.14133528762620687,-0.12290886846266089,-0.4352491089032426,-0.032431456667735566
5637,7.0,300.87767,1136.6774,0.0,0.0,0.0,0.0,-0.05618290562399797,0.0,-0.11412979601873388,-0.093007352399861,-0.13838438922747587,-0.1224516900175409,-0.49681635333445656,-0.045862255956002254
5638,7.0,301.01292,1167.0092,0.0,0.0,0.0,0.0,-0.05619287243358179,0.0,-0.1142611740266999,-0.08536876184449081,-0.15511171969583484,-0.12636826642407686,-0.5013427745786795,0.006733079237178183
5639,7.0,299.38694,1156.7168,0.0,0.0,0.0,0.0,-0.05620283924316562,0.0,-0.13115162762865787,-0.07924323233219813,-0.14121815591464687,-0.10422000739071391,-0.4828301480966255,0.0005441206739255295
5640,7.0,298.69042,1061.9894,0.0,0.0,0.0,0.0,-0.056212806052749434,0.0,-0.08148615870055773,-0.08434742296894251,-0.15698468210818184,-0.10632985754393989,-0.5171605104322685,-0.03685622663542636
5641,7.0,299.67109,1189.0081,0.0,0.0,0.0,0.0,-0.05622277286233325,0.0,-0.13258387691000986,-0.0945214885012946,-0.13432340441668786,-0.13894576018037888,-0.5265966147710395,-0.016385190360092384
5642,7.0,300.43923,1168.358,0.0,0.0,0.0,0.0,-0.056232739671917074,0.0,-0.1082003982885479,-0.08566694209716892,-0.16128431771502286,-0.0995534962141651,-0.5056596151722185,-0.003491880429146767
5643,7.0,300.17228,991.50274,0.0,0.0,0.0,0.0,-0.0562427064815009,0.0,-0.1078203484410399,-0.08194644377048432,-0.1116252849515579,-0.07093185992242954,-0.4400392690159946,0.01120557845215449
5644,7.0,299.30857000000003,1147.3465,0.0,0.0,0.0,0.0,-0.05625267329108472,0.0,-0.1001031013069069,-0.09501622407462122,-0.15364535428361584,-0.11132951724736788,-0.49253823915973954,-0.013572479009999387
5645,7.0,298.99957,1391.8596,0.0,0.0,0.0,0.0,-0.05626264010066854,0.0,-0.11426259257683989,-0.13785325365755685,-0.17097470729888983,-0.13413192041278987,-0.5291305100911156,-0.016588216295879483
5646,7.0,299.95848,1181.2539,0.0,0.0,0.0,0.0,-0.056272606910252355,0.0,-0.07770533044966901,-0.13630182589944287,-0.14506452422175387,-0.15158110038488987,-0.5058710804680885,-0.04185131455440316
5647,7.0,300.39886,1038.1809,0.0,0.0,0.0,0.0,-0.05628257371983618,0.0,-0.08712187196875933,-0.10815779112184289,-0.1203013909203229,-0.10202651344173291,-0.42963202525137956,-0.03693701306589937
5648,7.0,300.33398,1145.5979,0.0,0.0,0.0,0.0,-0.05629254052942,0.0,-0.09511727449384409,-0.11772120020317789,-0.1353946833499149,-0.13352207557510287,-0.46564670309575157,-0.06305535419057894
5649,7.0,300.30069,1103.5631,0.0,0.0,0.0,0.0,-0.05630250733900383,0.0,-0.11008811362235091,-0.09061470414372501,-0.13475281980906786,-0.15049513945771387,-0.4895777148850585,-0.013642661778175885
5650,7.0,300.47076,947.50811,0.0,0.0,0.0,0.0,-0.05631247414858764,0.0,-0.09381246978356991,-0.07649954965841772,-0.11770679178675589,-0.12494404208351688,-0.5160594723436045,-0.016398604778166286
5651,7.0,301.4442,1157.4663,0.0,0.0,0.0,0.0,-0.05632244095817146,0.0,-0.1076230382490669,-0.09175574838608731,-0.15246206055183384,-0.10875677391845791,-0.47477892359703155,0.005826266297907714
5652,7.0,300.44236,1162.2619,0.0,0.0,0.0,0.0,-0.056332407767755284,0.0,-0.12040153042770589,-0.09527274150968751,-0.13762433006246386,-0.13327752766346787,-0.5056057710619045,-0.022579328049906183
5653,7.0,299.41944,1045.3381,0.0,0.0,0.0,0.0,-0.05634237457733911,0.0,-0.1148736431821459,-0.08296330813359101,-0.11991971987265489,-0.14091292445452286,-0.5378528303969414,-0.023202784889436577
5654,7.0,299.85107,1250.881,0.0,0.0,0.0,0.0,-0.05635234138692293,0.0,-0.11961317118740089,-0.1180495844280869,-0.14257381362093988,-0.14307630461053186,-0.4765458189889105,-0.02940740566478497
5655,7.0,299.77702999999997,1332.8453,0.0,0.0,0.0,0.0,-0.05636230819650675,0.0,-0.14635712737432385,-0.09935352421417941,-0.15944104353060584,-0.09291209371820972,-0.45162569271698555,0.01031286661055069
5656,7.0,300.02895,1137.1699,0.0,0.0,0.0,0.0,-0.056372275006090565,0.0,-0.10811400858502189,-0.1100806864991179,-0.1274765593834569,-0.1178066374516099,-0.47010939090868453,-0.0057900223418307145
5657,7.0,300.37053,1075.9878,0.0,0.0,0.0,0.0,-0.05638224181567439,0.0,-0.08440959295532821,-0.10170055088456291,-0.14096329311699388,-0.16960429667114085,-0.5252888331319715,-0.00992051276575338
5658,7.0,299.9801,1103.3225,0.0,0.0,0.0,0.0,-0.05639220862525821,0.0,-0.09802704405776601,-0.09153311910061551,-0.14582234410404488,-0.14093560099176086,-0.4973208302942445,-0.004753182259627566
5659,7.0,300.75467000000003,1264.6359,0.0,0.0,0.0,0.0,-0.056402175434842036,0.0,-0.12717582675377687,-0.11833798580404989,-0.13890392308374988,-0.13285587376685387,-0.4485499213759306,-0.01822593141925938
5660,7.0,300.46495,1232.6985,0.0,0.0,0.0,0.0,-0.05641214224442585,0.0,-0.12815790928070087,-0.09449159458359431,-0.15206005357465885,-0.11290828249317988,-0.4665288386328116,-0.036715135612001765
5661,7.0,300.21556,1163.0294,0.0,0.0,0.0,0.0,-0.05642210905400967,0.0,-0.13173729631895886,-0.1025619249270739,-0.11923269577485089,-0.13749454285715487,-0.5100297831185205,-0.016279635030924885
5662,7.0,299.84776,1076.0312,0.0,0.0,0.0,0.0,-0.056432075863593494,0.0,-0.07835704582123833,-0.10647538052330191,-0.14225419400939585,-0.13667182430595887,-0.46734110044297555,-0.025866134055538677
5663,7.0,299.6614,1173.8902,0.0,0.0,0.0,0.0,-0.05644204267317732,0.0,-0.1085772563982409,-0.1058486245414459,-0.14240741768951787,-0.1071778060226259,-0.4909617841241556,-0.018034460587612683
5664,7.0,298.8938,1282.0602,0.0,0.0,0.0,0.0,-0.05645200948276114,0.0,-0.1005124806918095,-0.14483908620700486,-0.14436270667248988,-0.11353617331514788,-0.5093382297927695,-0.043735279849586056
5665,7.0,299.73531,1220.1028,0.0,0.0,0.0,0.0,-0.05646197629234496,0.0,-0.11914608315630289,-0.1197519053910929,-0.13198278655318688,-0.14588478057520687,-0.5418606398424815,-0.030799675136941273
5666,7.0,299.57217,1044.1828,0.0,0.0,0.0,0.0,-0.056471943101928775,0.0,-0.06739349735422034,-0.1197477611981839,-0.13026423332357887,-0.09487540865522381,-0.49909601407194154,-0.04895064327405236
5667,7.0,299.91893,1183.9289999999999,0.0,0.0,0.0,0.0,-0.0564819099115126,0.0,-0.13647921559444987,-0.09955910860646901,-0.12384653010520087,-0.11730371076447489,-0.4478445675838176,-0.008225475044466182
5668,7.0,299.80204,1230.4423,0.0,0.0,0.0,0.0,-0.05649187672109642,0.0,-0.1039503207440979,-0.11563930562021088,-0.15443411882396085,-0.11819914014284688,-0.48661221555238654,-0.008270528500887612
5669,7.0,300.15963,969.5382699999999,0.0,0.0,0.0,0.0,-0.056501843530680246,0.0,-0.08981368333017042,-0.08480534919263633,-0.12009639016009088,-0.14539553276442185,-0.5354144946937965,-0.00985431825129549
5670,7.0,300.67337000000003,899.84729,0.0,0.0,0.0,0.0,-0.05651181034026406,0.0,-0.07314852082169693,-0.06631686643396514,-0.1340657247837569,-0.14410413537947087,-0.4762009086548706,-0.012839956942955089
5671,7.0,299.95362,1139.677,0.0,0.0,0.0,0.0,-0.05652177714984788,0.0,-0.13614065833853686,-0.06670174137844934,-0.14359093433632186,-0.1058279441069049,-0.4960615630699646,-0.015257002234998884
5672,7.0,299.20732000000004,1322.0997,0.0,0.0,0.0,0.0,-0.0565317439594317,0.0,-0.13987179984427187,-0.1156372385900069,-0.14637624740371086,-0.13571072618860586,-0.49485649459353354,-0.04741023562402596
5673,7.0,300.40783999999996,1251.7407,0.0,0.0,0.0,0.0,-0.05654171076901553,0.0,-0.14788274765239087,-0.09428942180439141,-0.13832574231168787,-0.1129383760211499,-0.5252986109954365,-0.01919563202996138
5674,7.0,300.57599,998.61951,0.0,0.0,0.0,0.0,-0.05655167757859935,0.0,-0.07575903406133452,-0.09626830735569221,-0.13152805004080786,-0.0979721350215969,-0.47220893630839356,-0.027485170926575174
5675,7.0,299.50248999999997,978.15279,0.0,0.0,0.0,0.0,-0.05656164438818317,0.0,-0.07892903056893882,-0.0961504987930654,-0.12225449128307889,-0.1168706578042359,-0.46179199574032154,-0.014250951276959386
5676,7.0,299.44455,1093.1148,0.0,0.0,0.0,0.0,-0.056571611197766984,0.0,-0.07410655081774713,-0.09676669569562932,-0.16140636368956784,-0.13291779348046487,-0.48979803598680255,-0.025794767811245373
5677,7.0,299.33527999999995,1185.9276,0.0,0.0,0.0,0.0,-0.05658157800735081,0.0,-0.11349594728617789,-0.1006085256555384,-0.14638792004486287,-0.13010803068816287,-0.5391735816372896,-0.01151613758130429
5678,7.0,299.9435,1056.4521,0.0,0.0,0.0,0.0,-0.05659154481693463,0.0,-0.07433373364916833,-0.12060996610577689,-0.1261913529566169,-0.1136735193662029,-0.4808351701072365,-0.02672958931375508
5679,7.0,299.86509,981.77415,0.0,0.0,0.0,0.0,-0.056601511626518455,0.0,-0.09648988184780992,-0.07753953436230622,-0.12440540846285789,-0.0915503271270638,-0.5072206688062826,0.0005028166988366445
5680,7.0,299.10476,1222.1685,0.0,0.0,0.0,0.0,-0.05661147843610227,0.0,-0.09838296538064271,-0.1266025298471969,-0.14652321933071585,-0.15665998611363685,-0.5023210776827306,-0.03796079083443837
5681,7.0,300.06453999999997,1315.5913,0.0,0.0,0.0,0.0,-0.05662144524568609,0.0,-0.11896785246371289,-0.10794904133624089,-0.17299000095278383,-0.13866678203034585,-0.5161740709299145,-0.0019476345877415683
5682,7.0,301.25065,980.16029,0.0,0.0,0.0,0.0,-0.05663141205526991,0.0,-0.05104549428604804,-0.1117995639687579,-0.13509918922325187,-0.12164129258756089,-0.45686771171183255,-0.04881701382436415
5683,7.0,300.25018,894.29159,0.0,0.0,0.0,0.0,-0.05664137886485373,0.0,-0.07276648399074284,-0.08438593052574292,-0.11468990040901189,-0.09625029582191459,-0.4556445567211166,-0.034518363798947266
5684,7.0,300.61371,1199.4394,0.0,0.0,0.0,0.0,-0.05665134567443755,0.0,-0.12010790068122687,-0.0998704145009425,-0.14462131849551288,-0.1186908400188739,-0.49999600307576353,-0.055428987484415146
5685,7.0,299.67708999999996,1238.1368,0.0,0.0,0.0,0.0,-0.05666131248402137,0.0,-0.14951025022801287,-0.1010086084707735,-0.12584379803981588,-0.13922554893049185,-0.5296147524464064,-0.03134566292682607
5686,7.0,300.53462,1118.8354,0.0,0.0,0.0,0.0,-0.056671279293605194,0.0,-0.10555272511474291,-0.0968211386367524,-0.13772415546231587,-0.11133030758244589,-0.4868245117133385,-0.016762520644331983
5687,7.0,299.38924,1085.1253,0.0,0.0,0.0,0.0,-0.05668124610318902,0.0,-0.1045137384622029,-0.09453964695633672,-0.1307976183087199,-0.1034488734021089,-0.47192634085550356,0.02738817452100237
5688,7.0,299.09121,1149.899,0.0,0.0,0.0,0.0,-0.056691212912772834,0.0,-0.08739447576241322,-0.10639909292327289,-0.15574700724353285,-0.16207132933269486,-0.4718537921483435,-0.00013800443057247684
5689,7.0,298.46997000000005,1448.6905,0.0,0.0,0.0,0.0,-0.05670117972235666,0.0,-0.15371789285827486,-0.10076622587460221,-0.18588161237258682,-0.15033736628464286,-0.5290135303670704,0.014166263833601386
5690,7.0,300.66489,1526.4192,0.0,0.0,0.0,0.0,-0.056711146531940475,0.0,-0.15398299961443884,-0.12325417396423988,-0.18675614853389683,-0.13125966035431988,-0.4808922059553656,-0.007630793089225644
5691,7.0,300.22047000000003,1088.6742,0.0,0.0,0.0,0.0,-0.05672111334152429,0.0,-0.12810673001814987,-0.09595575516359571,-0.1068673056619819,-0.09919797309857771,-0.5116825764166385,-0.013584556951191387
5692,7.0,301.39914,946.71478,0.0,0.0,0.0,0.0,-0.056731080151108115,0.0,-0.06541046457026023,-0.09585442711384541,-0.12651276602083789,-0.1131930564337849,-0.5221459643692945,-0.05744431660206265
5693,7.0,299.95808999999997,1240.9049,0.0,0.0,0.0,0.0,-0.05674104696069194,0.0,-0.14824271488291685,-0.1005416785066911,-0.12841970270903788,-0.16389570640274684,-0.5313800671681295,-0.029093663917071074
5694,7.0,300.12552,1126.767,0.0,0.0,0.0,0.0,-0.05675101377027576,0.0,-0.07860392116835302,-0.1055591592528779,-0.15834594308752784,-0.1107667784068299,-0.46148900356291855,-0.03784622264563136
5695,7.0,300.10942,923.13684,0.0,0.0,0.0,0.0,-0.05676098057985958,0.0,-0.07118080128649813,-0.0897084137375311,-0.1197213356355759,-0.10654654107782491,-0.4612453777088745,-0.02930025750646027
5696,7.0,299.97261000000003,1176.9201,0.0,0.0,0.0,0.0,-0.056770947389443396,0.0,-0.06661349134773974,-0.13755354441047787,-0.15358727478788384,-0.13517447370568186,-0.47487036941855654,-0.04765319475950416
5697,7.0,299.44069,1446.72,0.0,0.0,0.0,0.0,-0.05678091419902722,0.0,-0.16198715864688784,-0.1080153990852899,-0.16976419766942183,-0.12840545641263187,-0.5324806594267495,-0.017035824593804986
5698,7.0,299.86912,1424.7004,0.0,0.0,0.0,0.0,-0.056790881008611044,0.0,-0.10861880978484191,-0.15506742040146287,-0.16938712677720785,-0.13287291663353587,-0.4873988927975255,-0.027253622000473075
5699,7.0,300.10042000000004,1362.4039,0.0,0.0,0.0,0.0,-0.05680084781819487,0.0,-0.15161250100548884,-0.10641642963248389,-0.15610782560414285,-0.1045510564633859,-0.49095662668114654,-0.0031002068804665966
5700,7.0,299.32255,1197.2112,0.0,0.0,0.0,0.0,-0.05681081462777869,0.0,-0.08370288444783151,-0.12416808502443588,-0.15605134704356885,-0.10697365639247791,-0.5080242774605925,-0.013965543041791787
5701,7.0,299.58158,940.1560099999999,0.0,0.0,0.0,0.0,-0.0568207814373625,0.0,-0.08514139257505123,-0.08357621096007982,-0.1170663467960489,-0.15121622902387985,-0.5288174766052215,-0.03120095865354487
5702,7.0,298.99403,984.7215800000001,0.0,0.0,0.0,0.0,-0.056830748246946325,0.0,-0.07923067816345912,-0.07757673583972773,-0.14252335376595987,-0.11378761132746289,-0.4814055995160335,-0.026666218626000875
5703,7.0,299.07945,1074.7898,0.0,0.0,0.0,0.0,-0.05684071505653015,0.0,-0.12475082542194788,-0.07599111595698922,-0.12596730309450488,-0.12472930398982389,-0.48250369917940755,-0.03868326146049066
5704,7.0,299.99392,952.6469699999999,0.0,0.0,0.0,0.0,-0.05685068186611397,0.0,-0.08438264556891872,-0.08320748316918922,-0.12199076254705088,-0.11886301147586589,-0.5049168217889105,-0.04729873150352136
5705,7.0,300.92786,1007.8041,0.0,0.0,0.0,0.0,-0.05686064867569779,0.0,-0.13532806215583987,-0.06413039836117754,-0.1068888068291039,-0.12267589186716787,-0.5346161042775015,-0.03245364076542497
5706,7.0,300.36447000000004,1282.8316,0.0,0.0,0.0,0.0,-0.056870615485281606,0.0,-0.12294795965151889,-0.07404155892983293,-0.1929592656460968,-0.1053839581780869,-0.4697393519721646,-0.008617621578293032
5707,7.0,301.10391,1328.0631,0.0,0.0,0.0,0.0,-0.05688058229486543,0.0,-0.14577355611172985,-0.094171191729723,-0.16375326370368884,-0.11549941631140488,-0.4687059584601766,0.01019888914655199
5708,7.0,300.45227,1297.7029,0.0,0.0,0.0,0.0,-0.05689054910444925,0.0,-0.1017907909384689,-0.1149059151978309,-0.17777256168978584,-0.12066677903888388,-0.48970004456963157,0.004204335989885655
5709,7.0,299.95508,1460.9875,0.0,0.0,0.0,0.0,-0.05690051591403308,0.0,-0.14742216468693486,-0.13401709891145788,-0.16266446567623286,-0.15277354376507485,-0.5226063548172315,-0.006666095299567383
5710,7.0,299.82634,1301.8941,0.0,0.0,0.0,0.0,-0.056910482723616894,0.0,-0.1039393877755189,-0.12340193622632288,-0.16840196396997983,-0.12697549707650588,-0.48719777278517656,-0.017172807901324184
5711,7.0,298.31611000000004,1053.8215,0.0,0.0,0.0,0.0,-0.05692044953320071,0.0,-0.10624534235309889,-0.0984119149492498,-0.1156781536290449,-0.15670950364602385,-0.47968304394853056,-0.03393968957408657
5712,7.0,299.79362000000003,1279.4818,0.0,0.0,0.0,0.0,-0.056930416342784534,0.0,-0.1031822670357969,-0.11160044005910588,-0.17414780131204982,-0.14313687670150987,-0.49922573034974355,-0.03243108379169876
5713,7.0,300.95508,1078.5439999999999,0.0,0.0,0.0,0.0,-0.05694038315236836,0.0,-0.10997272470096289,-0.0994971706543562,-0.1183805321757489,-0.12795654608832788,-0.5173671830551655,-0.04054626565085486
5714,7.0,300.51996,644.29552,0.0,0.0,0.0,0.0,-0.05695034996195218,0.0,-0.033610770353124764,-0.06034295460038594,-0.1018960270938549,-0.0992216010776596,-0.4707777509396466,-0.04285865841957026
5715,7.0,301.03796,978.2922699999999,0.0,0.0,0.0,0.0,-0.056960316771536,0.0,-0.08656952502124692,-0.09229056610686971,-0.11851632795415087,-0.08835152797211691,-0.4974856759530136,-0.04261890622065855
5716,7.0,300.78054,1351.7026,0.0,0.0,0.0,0.0,-0.056970283581119815,0.0,-0.13433021345735988,-0.1073418208163129,-0.16921181424490583,-0.13513370052165788,-0.5170547473868305,-0.033038608286656765
5717,7.0,300.61647,1269.5711,0.0,0.0,0.0,0.0,-0.05698025039070364,0.0,-0.14611879068580186,-0.1119845631720159,-0.12781456948431585,-0.11794582761784687,-0.5283397798455766,-0.03885128467157326
5718,7.0,300.22539,1174.2672,0.0,0.0,0.0,0.0,-0.05699021720028746,0.0,-0.10944702015157991,-0.08913799344798501,-0.15836289476170085,-0.11238985307951488,-0.47759232395719253,-0.026720300850088377
5719,7.0,299.13158,1246.7951,0.0,0.0,0.0,0.0,-0.05700018400987129,0.0,-0.14386536299340585,-0.10119165615433891,-0.13393755877860786,-0.13512446981324686,-0.47880345166922156,-0.01117350705998929
5720,7.0,299.54273,1284.107,0.0,0.0,0.0,0.0,-0.057010150819455103,0.0,-0.0944130758068451,-0.11251667146203088,-0.18340670847333282,-0.15985854310180986,-0.5101721548900715,-0.012429378883184189
5721,7.0,300.39444,1358.8618,0.0,0.0,0.0,0.0,-0.05702011762903892,0.0,-0.14130363369308285,-0.1240896898641989,-0.14766674299607285,-0.14932372101710384,-0.5028070729606945,-0.008216701413175292
5722,7.0,300.27089,1209.7338,0.0,0.0,0.0,0.0,-0.057030084438622744,0.0,-0.1043563300591679,-0.1016348213505759,-0.16173772686977086,-0.13534250096976486,-0.46229216638718457,-0.0016000961869171986
5723,7.0,300.91424,907.7451300000001,0.0,0.0,0.0,0.0,-0.05704005124820657,0.0,-0.09713022348700671,-0.07837846795485252,-0.10042315965574422,-0.11708970221085388,-0.4792537501461625,-0.02131009044464218
5724,7.0,300.69581,994.96552,0.0,0.0,0.0,0.0,-0.05705001805779039,0.0,-0.05893147491958375,-0.09005255704124542,-0.15346063879038585,-0.13351503348690788,-0.5183024432949686,-0.031458091131421874
5725,7.0,299.4805,1478.7273,0.0,0.0,0.0,0.0,-0.05705998486737421,0.0,-0.16872595068945484,-0.12364392061520489,-0.15712631420715986,-0.13764485850948985,-0.5291198203025604,-0.029777651304325373
5726,7.0,299.3731,1387.2720000000002,0.0,0.0,0.0,0.0,-0.057069951676958025,0.0,-0.0970137088447576,-0.14041294632517887,-0.1842693896084728,-0.09073144068774601,-0.49559660286407653,-0.01426433327103009
5727,7.0,299.45756,898.08872,0.0,0.0,0.0,0.0,-0.05707991848654185,0.0,-0.08720474468118823,-0.09386058599106861,-0.0919312159456546,-0.12193669552171488,-0.5006873233539915,-0.03380926604771477
5728,7.0,300.24176,1109.4625,0.0,0.0,0.0,0.0,-0.05708988529612567,0.0,-0.07935360667884123,-0.0974403864353674,-0.16045489144816483,-0.11905997716280489,-0.5213110057568905,-0.019202270844616582
5729,7.0,299.92302,1342.495,0.0,0.0,0.0,0.0,-0.057099852105709496,0.0,-0.15082863046312686,-0.12390084031056088,-0.1333555073911639,-0.15172478938157086,-0.5285358538724275,-0.03557025520476086
5730,7.0,299.37613,1213.9773,0.0,0.0,0.0,0.0,-0.05710981891529331,0.0,-0.09833206374861911,-0.11456034625122588,-0.15612637821347386,-0.11518687931805989,-0.4828731200333665,-0.022550222440783682
5731,7.0,300.10595,1030.3933,0.0,0.0,0.0,0.0,-0.05711978572487713,0.0,-0.0983597376353503,-0.1047206947951279,-0.1101333856368189,-0.12813438161337887,-0.48621006672019756,-0.05530851103427504
5732,7.0,301.45133,900.72045,0.0,0.0,0.0,0.0,-0.057129752534460954,0.0,-0.05437253341340125,-0.08180442562321821,-0.13761956778699386,-0.14512546108276786,-0.5016634175728245,-0.009297968459263041
5733,7.0,300.82309,960.1795,0.0,0.0,0.0,0.0,-0.05713971934404478,0.0,-0.08848021985406782,-0.09326978620226122,-0.11012058828805589,-0.15475086080522085,-0.4848574690292065,-0.036028094288946065
5734,7.0,299.67467999999997,1334.3748,0.0,0.0,0.0,0.0,-0.0571496861536286,0.0,-0.10636979986288189,-0.11309661528926689,-0.18615020470909482,-0.12533939200753488,-0.4527582530162606,0.0012024093028685588
5735,7.0,299.84918999999996,1417.7625,0.0,0.0,0.0,0.0,-0.05715965296321242,0.0,-0.15817981060113184,-0.1098471120860659,-0.16293746565067585,-0.13027120448426688,-0.4716084842991336,-0.023342731953498275
5736,7.0,299.73776000000004,1223.5683,0.0,0.0,0.0,0.0,-0.057169619772796235,0.0,-0.1013812859105539,-0.0991453438751336,-0.17140756774160984,-0.11873728740345789,-0.5263686841610445,-0.011941048063739688
5737,7.0,299.77794,1097.3767,0.0,0.0,0.0,0.0,-0.05717958658238006,0.0,-0.12396359088925389,-0.0948881837124846,-0.11472332752981089,-0.12224915145505189,-0.5274489708876605,-0.04025144432225826
5738,7.0,299.2971,1336.649,0.0,0.0,0.0,0.0,-0.057189553391963875,0.0,-0.1099135002326179,-0.12014346575973689,-0.1762509538821148,-0.07610040207302493,-0.5143192456943575,0.0020220067397815284
5739,7.0,298.95076,1279.3657,0.0,0.0,0.0,0.0,-0.05719952020154769,0.0,-0.14115972178137987,-0.09061459471271423,-0.15712089331912485,-0.11241802143229489,-0.5100561174886196,-0.0030234136686376973
5740,7.0,299.46186,823.99742,0.0,0.0,0.0,0.0,-0.057209487011131516,0.0,-0.04909984131152705,-0.06887835964701484,-0.13249643342637987,-0.1137244351837279,-0.5190440207781565,0.0028742325524396674
5741,7.0,299.9763,892.0908199999999,0.0,0.0,0.0,0.0,-0.05721945382071533,0.0,-0.1029223785176479,-0.05599615422789016,-0.1122547969736859,-0.14462347671822587,-0.4956602653678595,-0.009526822241424152
5742,7.0,299.75417999999996,1239.6153,0.0,0.0,0.0,0.0,-0.05722942063029916,0.0,-0.1115995787965209,-0.09983469946141772,-0.16537781772151985,-0.12626604975398886,-0.44594247423109556,-0.03325810156306907
5743,7.0,299.85823999999997,1241.5072,0.0,0.0,0.0,0.0,-0.05723938743988298,0.0,-0.1319305332455299,-0.1317407413692989,-0.11371593401538889,-0.17327131971054782,-0.4838872212634505,-0.058643608539673535
5744,7.0,300.96397,1347.4674,0.0,0.0,0.0,0.0,-0.0572493542494668,0.0,-0.10572560584680489,-0.11063813617413389,-0.19323272158308483,-0.14957387220179186,-0.5115801570965306,-0.03189019467631717
5745,7.0,300.74983,1228.9824,0.0,0.0,0.0,0.0,-0.05725932105905062,0.0,-0.12620315732028187,-0.1124770635156219,-0.13489974107356786,-0.13301287686984886,-0.5054347749750285,-0.014549830672206486
5746,7.0,299.95941,916.55691,0.0,0.0,0.0,0.0,-0.05726928786863444,0.0,-0.04151679712663886,-0.08894973664565552,-0.14814388246816285,-0.08945166528144201,-0.4739970592898675,-0.016450893549576785
5747,7.0,300.11553,1114.9019,0.0,0.0,0.0,0.0,-0.05727925467821826,0.0,-0.1062069503068099,-0.1070374810162769,-0.12565791730897088,-0.1089516320451889,-0.4657491122833586,-0.02120325943359878
5748,7.0,300.70526,1356.8210000000001,0.0,0.0,0.0,0.0,-0.057289221487802085,0.0,-0.10585211012178988,-0.1224561888479849,-0.18413140520985483,-0.13864964797115487,-0.5171514013138695,-0.011159332704340387
5749,7.0,299.93012000000004,1086.3980000000001,0.0,0.0,0.0,0.0,-0.0572991882973859,0.0,-0.11898548301545289,-0.10922232180940389,-0.10203005981708291,-0.10778578648012889,-0.5252729656354055,-0.02830301270503987
5750,7.0,299.00215,979.88779,0.0,0.0,0.0,0.0,-0.057309155106969725,0.0,-0.07742830888557913,-0.07521097518824534,-0.14522213527480887,-0.12146041731220988,-0.5095974090358485,-0.026846492030792476
5751,7.0,298.64395,1154.1183,0.0,0.0,0.0,0.0,-0.05731912191655354,0.0,-0.14092149655036887,-0.08879169394805791,-0.12110994423512088,-0.1096993498239829,-0.5162876663986256,-0.017329907263078682
5752,7.0,298.81425,1112.989,0.0,0.0,0.0,0.0,-0.057329088726137366,0.0,-0.09151093297642592,-0.08838871729053722,-0.15842121743745685,-0.15923083466485985,-0.5353662437240345,-0.02382193744254218
5753,7.0,300.22101000000004,1210.1954,0.0,0.0,0.0,0.0,-0.05733905553572119,0.0,-0.14956246300566586,-0.09501724847047231,-0.1232894553327219,-0.13917700411820086,-0.48122509914321954,-0.03199576621748627
5754,7.0,298.6742,1236.0638,0.0,0.0,0.0,0.0,-0.05734902234530501,0.0,-0.1188756771021159,-0.1097612898025959,-0.14709556378220187,-0.11439414283732288,-0.47318849584256856,-0.03275601283376677
5755,7.0,298.74849,1054.6113,0.0,0.0,0.0,0.0,-0.05735898915488883,0.0,-0.12662114325153387,-0.0932145833235631,-0.1007397800469922,-0.11966660999767488,-0.4657346937344355,-0.02207160058379738
5756,7.0,299.93262999999996,1083.6396,0.0,0.0,0.0,0.0,-0.05736895596447265,0.0,-0.08468866331112032,-0.1016940154214179,-0.14301669510714884,-0.14160522758534785,-0.5093801682144085,-0.008703573760425852
5757,7.0,300.63833,1303.5428,0.0,0.0,0.0,0.0,-0.05737892277405647,0.0,-0.15473231832839085,-0.09686711789979022,-0.14464501841535188,-0.11522866575218389,-0.5117024563836005,0.008624142653286612
5758,7.0,300.80253999999996,1409.2145,0.0,0.0,0.0,0.0,-0.057388889583640294,0.0,-0.1012792597314847,-0.12731176438719288,-0.19977500390125782,-0.1098195111533419,-0.5108108368256045,0.0066604637568365935
5759,7.0,300.00714,1128.7932,0.0,0.0,0.0,0.0,-0.05739885639322412,0.0,-0.10256765992263989,-0.11134520235891589,-0.12921207441973886,-0.1157104560422329,-0.5047214266396265,-0.016779428748750682
5760,7.0,299.78871000000004,1223.0571,0.0,0.0,0.0,0.0,-0.057408823202807935,0.0,-0.08539998818607261,-0.12554742238556588,-0.16083140505282384,-0.14580759118258887,-0.5294623393663644,-0.035517897532343565
5761,7.0,300.59156,1477.6607,0.0,0.0,0.0,0.0,-0.05741879001239175,0.0,-0.15895487600012484,-0.13166473747929786,-0.15855232186789586,-0.14370987976556088,-0.5009411526365425,-0.03247159555719697
5762,7.0,300.00635,1136.932,0.0,0.0,0.0,0.0,-0.057428756821975575,0.0,-0.10327612439255991,-0.0994470542911601,-0.14287575201823888,-0.1202048281857929,-0.4932446163344535,-0.05783014906789135
5763,7.0,299.4473,895.70334,0.0,0.0,0.0,0.0,-0.0574387236315594,0.0,-0.08090296335375083,-0.07932777792054213,-0.11204070736005689,-0.11904974333679488,-0.5067924490490205,-0.03590600373139667
5764,7.0,299.92566,1011.7225,0.0,0.0,0.0,0.0,-0.05744869044114322,0.0,-0.07288813783749913,-0.09905762478747641,-0.13559261162444886,-0.12678138875484887,-0.5308279674536415,-0.04060186673684226
5765,7.0,298.87811,1049.7212,0.0,0.0,0.0,0.0,-0.05745865725072704,0.0,-0.1110990737771249,-0.09468552963948422,-0.11330444301727788,-0.12783601998893288,-0.5090141620132865,-0.01826951130606038
5766,7.0,298.7726,1132.2763,0.0,0.0,0.0,0.0,-0.057468624060310856,0.0,-0.1056804047598439,-0.10242035362310191,-0.13608296387784288,-0.1219562715136469,-0.47152156770555553,-0.03957678592867466
5767,7.0,299.7901,1427.8451,0.0,0.0,0.0,0.0,-0.05747859086989468,0.0,-0.15049356892005886,-0.12721034818468388,-0.15632535013561083,-0.13579537310195988,-0.49867496812538753,-0.005765716802406944
5768,7.0,300.34945,1200.5642,0.0,0.0,0.0,0.0,-0.057488557679478504,0.0,-0.09505041822574592,-0.10411702065054991,-0.16577409983562982,-0.1325627506454249,-0.5115393332500016,-0.007930322991036942
5769,7.0,300.99949,1087.4462,0.0,0.0,0.0,0.0,-0.05749852448906233,0.0,-0.09545968007363691,-0.09154368628590842,-0.14355311984258987,-0.13295264928390488,-0.5109363075854875,0.004095750130994066
5770,7.0,300.37151,1459.2919,0.0,0.0,0.0,0.0,-0.057508491298646144,0.0,-0.12982479688770987,-0.1232456018683939,-0.19051788006015083,-0.09326810319384511,-0.4918812883249035,-0.005943576037510285
5771,7.0,301.09058999999996,1234.0365,0.0,0.0,0.0,0.0,-0.05751845810822996,0.0,-0.14059608114825287,-0.08414874691583472,-0.15037146215050787,-0.14678324970387885,-0.5048526425275766,-0.016844531080925783
5772,7.0,300.95324,839.3987099999999,0.0,0.0,0.0,0.0,-0.057528424917813785,0.0,-0.060365454832106535,-0.08178117558642363,-0.11300961763568089,-0.1265265462221979,-0.5141688084520105,-0.06019823208860295
5773,7.0,300.13805,901.9942699999999,0.0,0.0,0.0,0.0,-0.05753839172739761,0.0,-0.1058533260219099,-0.06676670489536073,-0.1015637114585579,-0.14709498622964487,-0.48883477964673655,-0.039913126193368856
5774,7.0,299.02169,1073.3852,0.0,0.0,0.0,0.0,-0.05754835853698143,0.0,-0.11102889607519889,-0.0883382716210586,-0.12691512763554788,-0.12199854430781888,-0.4617080581020376,-0.05562460453547104
5775,7.0,299.07697,971.3068,0.0,0.0,0.0,0.0,-0.05755832534656525,0.0,-0.08016222484164563,-0.08386841709016833,-0.13122237275063986,-0.14045387149671787,-0.5121363098114184,-0.018258787067001982
5776,7.0,300.03504,1005.82,0.0,0.0,0.0,0.0,-0.057568292156149066,0.0,-0.06296971935837745,-0.1093389164984109,-0.13343553388406187,-0.1253880178798339,-0.5355508578922544,-0.037151261759794066
5777,7.0,300.09317999999996,1242.112,0.0,0.0,0.0,0.0,-0.05757825896573289,0.0,-0.1054794164700079,-0.12906500116772388,-0.14302660469312686,-0.11276247580378988,-0.5154519681136485,0.008126651647638072
5778,7.0,300.34803999999997,1220.9021,0.0,0.0,0.0,0.0,-0.05758822577531671,0.0,-0.08364029193615412,-0.1295394251295459,-0.15794402730286186,-0.09964465123291141,-0.4785316777273995,-0.052364956672268856
5779,7.0,300.3865,1318.8132,0.0,0.0,0.0,0.0,-0.05759819258490054,0.0,-0.1288128032178339,-0.12974862074519186,-0.14232484793886885,-0.14446579473766386,-0.4924208845331576,0.0005473485239740935
5780,7.0,301.02724,1260.9114,0.0,0.0,0.0,0.0,-0.057608159394484354,0.0,-0.0989864145836985,-0.10286548452453291,-0.18143367748110983,-0.14504670115249485,-0.5134016464037975,-0.022601255795320276
5781,7.0,300.48054,1158.4096,0.0,0.0,0.0,0.0,-0.05761812620406817,0.0,-0.09032972046034932,-0.11743025556946389,-0.14436761080297386,-0.12245987707834889,-0.49032391278870247,-0.007383551756174822
5782,7.0,301.1141,1147.519,0.0,0.0,0.0,0.0,-0.057628093013651994,0.0,-0.1046756051656779,-0.1063141724323919,-0.13782732458749788,-0.10288063261352791,-0.46847579869996153,-0.04592767948845905
5783,7.0,301.56179,1335.2458,0.0,0.0,0.0,0.0,-0.05763805982323582,0.0,-0.14697609146291085,-0.1039888647779019,-0.15491642587156085,-0.09334103794929322,-0.5381340579621965,-0.017966636665668983
5784,7.0,300.23212,970.2154099999999,0.0,0.0,0.0,0.0,-0.05764802663281964,0.0,-0.07942124010976613,-0.08987860834357801,-0.12562140990786788,-0.16946913924030182,-0.5519699779451954,-0.04031691547746976
5785,7.0,300.11593,850.42544,0.0,0.0,0.0,0.0,-0.05765799344240346,0.0,-0.10281141749919691,-0.06577041558878464,-0.08992626656203151,-0.12142997927920587,-0.5172346499420855,-0.025063516359826475
5786,7.0,299.53595,1393.5602,0.0,0.0,0.0,0.0,-0.057667960251987276,0.0,-0.12391537031699487,-0.12588122749850988,-0.17381089565379984,-0.13663055462938586,-0.46112593578708655,-0.012325679828199888
5787,7.0,299.7848,1440.6606,0.0,0.0,0.0,0.0,-0.0576779270615711,0.0,-0.14968167187993084,-0.11120725849030189,-0.17703591873458482,-0.12091074939796188,-0.4713992886834875,0.0019188722677529484
5788,7.0,300.13265,1133.4952,0.0,0.0,0.0,0.0,-0.05768789387115492,0.0,-0.09290728685973532,-0.1034389435511289,-0.14820800093449085,-0.16716390407029283,-0.5230444537629685,0.0025328323193960873
5789,7.0,300.0017,1222.2584,0.0,0.0,0.0,0.0,-0.05769786068073875,0.0,-0.0984100677943175,-0.1070905246590119,-0.16603542716892083,-0.10060875870306141,-0.49718301814814353,-0.008498513117112942
5790,7.0,300.03594,1304.3082,0.0,0.0,0.0,0.0,-0.057707827490322564,0.0,-0.13502951814637587,-0.11818978784442388,-0.14325781823344585,-0.12603861563654287,-0.4923988159459795,-0.019354693043909483
5791,7.0,300.25048,1168.6632,0.0,0.0,0.0,0.0,-0.05771779429990638,0.0,-0.12849688196915487,-0.10551948037896189,-0.12122807906427989,-0.09760332211769791,-0.5359886731279635,-0.02091641137003908
5792,7.0,299.0124,992.3344800000001,0.0,0.0,0.0,0.0,-0.057727761109490204,0.0,-0.07161696391129403,-0.097560999674271,-0.13246693771596887,-0.16588771556934284,-0.5278594689006735,-0.047729773162311855
5793,7.0,297.99258,968.83918,0.0,0.0,0.0,0.0,-0.05773772791907402,0.0,-0.07910536243084143,-0.08470878139185582,-0.13068877498297787,-0.1224261763800229,-0.48740764727838953,-0.03385719277744477
5794,7.0,299.60843,952.20545,0.0,0.0,0.0,0.0,-0.05774769472865784,0.0,-0.07360220456722202,-0.11439264322717489,-0.1014518385150169,-0.1277974759551289,-0.44431630914560555,-0.06341247418832394
5795,7.0,298.88653,834.12956,0.0,0.0,0.0,0.0,-0.05775766153824166,0.0,-0.07842424051486992,-0.08232630717997391,-0.0928040093167926,-0.1250876804176929,-0.5148078551575795,-0.05703769325743204
5796,7.0,299.37476000000004,1174.3255,0.0,0.0,0.0,0.0,-0.05776762834782548,0.0,-0.12660382680732488,-0.08701771897773022,-0.14334406608195785,-0.15058422440650585,-0.5294790478605135,-0.02348374900966558
5797,7.0,299.72022999999996,1235.5594,0.0,0.0,0.0,0.0,-0.0577775951574093,0.0,-0.13348224471367187,-0.1147526408552039,-0.12734430998040489,-0.14338950021644187,-0.5181050824404905,-0.027255656606673874
5798,7.0,299.88211,1210.2837,0.0,0.0,0.0,0.0,-0.057787561966993126,0.0,-0.08476571388847462,-0.0955147927730761,-0.18761551634120982,-0.11613909123203589,-0.46315613434995156,-0.016918887426264184
5799,7.0,300.44365,1434.6567,0.0,0.0,0.0,0.0,-0.05779752877657694,0.0,-0.12446386286112687,-0.14176564534117986,-0.16987030521989382,-0.13824340560856185,-0.5099646007395876,-0.014772907814222485
5800,7.0,300.29632000000004,1301.5171,0.0,0.0,0.0,0.0,-0.057807495586160766,0.0,-0.10045212340985271,-0.10904986664238389,-0.18612671757177682,-0.13832126374624587,-0.5038535779289766,0.007025228118636034
5801,7.0,299.30111,1014.3856,0.0,0.0,0.0,0.0,-0.05781746239574458,0.0,-0.1029836598836959,-0.09415519960339472,-0.11120905194297889,-0.1150360063781699,-0.5142567788256925,-0.018882153727273483
5802,7.0,299.55203,1127.1697,0.0,0.0,0.0,0.0,-0.05782742920532841,0.0,-0.1075807147923899,-0.1048138428768209,-0.13023688570337988,-0.11544941241896989,-0.4892290251281455,-0.016759347145018786
5803,7.0,299.95882,1137.5366,0.0,0.0,0.0,0.0,-0.05783739601491223,0.0,-0.13716557094718787,-0.08540470283878791,-0.12321246859012389,-0.12253985290874188,-0.5398904358180374,-0.0037059694348257066
5804,7.0,299.25912,894.2322800000001,0.0,0.0,0.0,0.0,-0.05784736282449605,0.0,-0.07286825280428663,-0.08018124962552323,-0.11877477765715788,-0.1191520410668909,-0.5265353030074884,-0.036457704225345264
5805,7.0,299.49005,1024.229,0.0,0.0,0.0,0.0,-0.05785732963407987,0.0,-0.1008374664758831,-0.07964671764126902,-0.13085585992446788,-0.12354281852022687,-0.5133676822604455,-0.004155388512004916
5806,7.0,299.67179,1280.9276,0.0,0.0,0.0,0.0,-0.05786729644366369,0.0,-0.1143567336436309,-0.10248477606445991,-0.17252848579723584,-0.12106011259520287,-0.4577616212150546,-0.03846118642282356
5807,7.0,300.11065,1237.77,0.0,0.0,0.0,0.0,-0.05787726325324751,0.0,-0.1155015745341179,-0.10728613259081689,-0.15346345562566385,-0.16907603873150584,-0.4949092038637355,-0.01927714090775568
5808,7.0,299.86445,1185.915,0.0,0.0,0.0,0.0,-0.057887230062831335,0.0,-0.11565845604710089,-0.09742394138624441,-0.14740616546785584,-0.13734276812467586,-0.5000566359617475,-0.03820864194139936
5809,7.0,299.82966,1356.6496,0.0,0.0,0.0,0.0,-0.05789719687241515,0.0,-0.12998722087873987,-0.1191490013165909,-0.16325137053165584,-0.12775376434581487,-0.5025137471892456,-0.01213353417198659
5810,7.0,300.80033,1265.6361,0.0,0.0,0.0,0.0,-0.057907163681998976,0.0,-0.11070009641774889,-0.12355271797370389,-0.15046894694262886,-0.1016311533852139,-0.4756974652101846,-0.03599414027809507
5811,7.0,300.02788,864.65255,0.0,0.0,0.0,0.0,-0.05791713049158279,0.0,-0.04952428468566636,-0.09404190000371292,-0.11926659912319688,-0.14723644607610586,-0.5352612203511694,-0.04171652695985066
5812,7.0,300.18817,833.66125,0.0,0.0,0.0,0.0,-0.057927097301166616,0.0,-0.04832971145377116,-0.09381992223805541,-0.1112625718132609,-0.13846510473044188,-0.5181473552346625,-0.030799535308427474
5813,7.0,300.43066,970.3444,0.0,0.0,0.0,0.0,-0.05793706411075044,0.0,-0.0937390061115696,-0.08870563456406451,-0.1125158304644479,-0.12310536805455388,-0.5116159957525676,-0.037851511811153364
5814,7.0,299.11316,970.8208,0.0,0.0,0.0,0.0,-0.05794703092033426,0.0,-0.09109655522878,-0.08501001355383511,-0.11899871606175888,-0.11578405852949687,-0.49060101642605053,-0.025956384241945678
5815,7.0,299.74055,1299.2794,0.0,0.0,0.0,0.0,-0.05795699772991808,0.0,-0.11891924685641588,-0.11531056675776688,-0.16071868097919886,-0.13674294433047787,-0.5242422065736775,-0.04478856751403746
5816,7.0,298.99311,1481.6994,0.0,0.0,0.0,0.0,-0.0579669645395019,0.0,-0.15043505372678387,-0.1087665213844199,-0.1911980343222768,-0.14304575512001685,-0.5423419741699854,-0.013946633768425587
5817,7.0,298.37476000000004,1256.3535,0.0,0.0,0.0,0.0,-0.05797693134908572,0.0,-0.10986893749321988,-0.0931766725710716,-0.17885447974906285,-0.1073880554183759,-0.5111788188644215,-0.02099364838541178
5818,7.0,299.355,1257.845,0.0,0.0,0.0,0.0,-0.057986898158669545,0.0,-0.12480098130189789,-0.10443041890647992,-0.15312208153447285,-0.1111452070541779,-0.4779367074011805,-0.00930631247251153
5819,7.0,299.751,1362.9988,0.0,0.0,0.0,0.0,-0.05799686496825336,0.0,-0.14112821983577087,-0.10445193020610291,-0.16873745107808982,-0.11115940268807889,-0.49058855344982055,0.004921579157347045
5820,7.0,299.11965,985.0587199999999,0.0,0.0,0.0,0.0,-0.058006831777837185,0.0,-0.1037801960523079,-0.07764468135168343,-0.1180083755465199,-0.15864210595925685,-0.4915412719888465,-0.004280434213470966
5821,7.0,299.24526000000003,883.98728,0.0,0.0,0.0,0.0,-0.058016798587421,0.0,-0.07352612569671363,-0.07888165403401312,-0.11630228529314189,-0.1231681287657479,-0.4951125226288015,-0.01239592035163209
5822,7.0,299.38198,1063.7347,0.0,0.0,0.0,0.0,-0.058026765397004826,0.0,-0.08626440299213373,-0.0999398687422971,-0.13714451561010987,-0.13278823932267889,-0.48791377583584056,-0.021935058040071682
5823,7.0,300.23381,1058.4782,0.0,0.0,0.0,0.0,-0.05803673220658865,0.0,-0.07435823302333622,-0.1072600414007419,-0.14013267121501788,-0.10890877156595889,-0.5215889605243226,-0.025751210215946577
5824,7.0,300.4752,1207.7126,0.0,0.0,0.0,0.0,-0.05804669901617247,0.0,-0.09484199875967651,-0.1046651585571469,-0.16760732257905483,-0.14211267336792885,-0.5440126715973705,-0.02383870166544668
5825,7.0,299.58198,1325.5316,0.0,0.0,0.0,0.0,-0.05805666582575629,0.0,-0.14901257217639585,-0.1117376847851509,-0.14217826104690187,-0.1007349184730124,-0.5036807275944175,-0.03136048474928887
5826,7.0,300.45001,1299.4319,0.0,0.0,0.0,0.0,-0.05806663263534011,0.0,-0.13032473448704987,-0.09966625879129391,-0.16500385750711283,-0.11699441617144989,-0.4797439200145386,-0.01973159877635718
5827,7.0,300.20967,1162.2323,0.0,0.0,0.0,0.0,-0.05807659944492393,0.0,-0.1019121377704449,-0.1044871001170739,-0.14689037050445086,-0.09065521894897352,-0.4960296862218185,-0.06006635758808795
5828,7.0,300.08759,1189.7301,0.0,0.0,0.0,0.0,-0.058086566254507754,0.0,-0.10160074574971291,-0.1076503858692659,-0.15239712135292485,-0.15369215630573485,-0.5246207669435385,-0.01957323791822818
5829,7.0,299.32056,1075.0199,0.0,0.0,0.0,0.0,-0.05809653306409158,0.0,-0.09443076512709091,-0.1008710962467021,-0.13147733687330287,-0.1191226568139909,-0.5091075938050075,-0.05668822228469195
5830,7.0,299.45792,930.57243,0.0,0.0,0.0,0.0,-0.058106499873675395,0.0,-0.08582016881704123,-0.1121579403966269,-0.08489267513925472,-0.13472392191621588,-0.4957300479022465,-0.02709350214017047
5831,7.0,299.43717000000004,1033.3032,0.0,0.0,0.0,0.0,-0.05811646668325921,0.0,-0.1019919717458239,-0.1036455351140179,-0.10846086435925391,-0.11538063300218189,-0.5053446869086375,-0.04694941657129666
5832,7.0,300.38403,1313.2956,0.0,0.0,0.0,0.0,-0.058126433492843035,0.0,-0.12960116245813888,-0.1185532710527969,-0.15105462576543086,-0.14441583137523287,-0.5315447304418806,0.009656596477131872
5833,7.0,300.63543,1103.4218,0.0,0.0,0.0,0.0,-0.05813640030242686,0.0,-0.06785066668008943,-0.1297817945534659,-0.1377802185903489,-0.15223125231155485,-0.5015141354355915,-0.033856535178129865
5834,7.0,299.82119,1047.5077,0.0,0.0,0.0,0.0,-0.05814636711201068,0.0,-0.08526596762184582,-0.07345344121404022,-0.15969677772334484,-0.13748290061350588,-0.49633834246728054,-0.014351518375884588
5835,7.0,298.95579,1328.158,0.0,0.0,0.0,0.0,-0.0581563339215945,0.0,-0.13700097860094387,-0.09527633246804192,-0.17144956695825483,-0.13437446208922688,-0.5157957132100736,-0.024924410293347774
5836,7.0,299.18192,1342.5564,0.0,0.0,0.0,0.0,-0.058166300731178316,0.0,-0.14636855683545186,-0.08138272106409922,-0.18035234710689083,-0.1159565643590219,-0.5409139501415505,0.0002824933679424247
5837,7.0,299.26223,1339.7089999999998,0.0,0.0,0.0,0.0,-0.05817626754076214,0.0,-0.15219549471552585,-0.09979605410260371,-0.15524655288664185,-0.13775820066567587,-0.5127220595617276,-0.020065554863566083
5838,7.0,298.75466,1282.6555,0.0,0.0,0.0,0.0,-0.058186234350345964,0.0,-0.13264778259381688,-0.10309808621748891,-0.15414939554586085,-0.1177377871073149,-0.47842312824418654,-0.013634162636337089
5839,7.0,298.8546,1141.4612,0.0,0.0,0.0,0.0,-0.05819620115992979,0.0,-0.10682514432532089,-0.1028621407992029,-0.13728841738931186,-0.15438302062141787,-0.5010224760895685,-0.039021433681365666
5840,7.0,299.72886,1089.9008,0.0,0.0,0.0,0.0,-0.058206167969513604,0.0,-0.08195507868783652,-0.1079078223221729,-0.14143971318151285,-0.1101651408949529,-0.5246694333458415,-0.02052666573232418
5841,7.0,300.03729,1220.4886,0.0,0.0,0.0,0.0,-0.05821613477909742,0.0,-0.09432065726522411,-0.14727357155976986,-0.12940384213366488,-0.14010842414012487,-0.4964536300636585,-0.03093567761836367
5842,7.0,300.46431,1279.9986,0.0,0.0,0.0,0.0,-0.058226101588681245,0.0,-0.1254546998689149,-0.13088610543995288,-0.13274679739358886,-0.1027830870264009,-0.49967930162450747,-0.007914874980012341
5843,7.0,300.54076000000003,1028.5047,0.0,0.0,0.0,0.0,-0.05823606839826506,0.0,-0.10347586638477291,-0.1008802499481055,-0.1082836266517619,-0.17595195391010585,-0.5224760305893695,-0.03226241412705237
5844,7.0,300.91857000000005,1070.5773,0.0,0.0,0.0,0.0,-0.05824603520784888,0.0,-0.10510399717545689,-0.09388836728231041,-0.1264364074933019,-0.13400400772016585,-0.5460391616648694,-0.008384030851914422
5845,7.0,300.37017000000003,1208.873,0.0,0.0,0.0,0.0,-0.05825600201743271,0.0,-0.06602664931382293,-0.1087624785165209,-0.19267808874334683,-0.15776030479472986,-0.47470579733731455,-0.038883953881297464
5846,7.0,300.68568999999997,1254.4659,0.0,0.0,0.0,0.0,-0.058265968827016526,0.0,-0.10640958006180791,-0.12468217772767289,-0.15023454166449485,-0.10399263406827389,-0.47400089950774654,-0.038447831786505564
5847,7.0,299.62358,1344.5713,0.0,0.0,0.0,0.0,-0.05827593563660035,0.0,-0.13902523951822288,-0.09441702950873532,-0.17527383628068083,-0.1262961534144599,-0.48415216589959853,-0.04123974719154617
5848,7.0,299.53406,1306.6103,0.0,0.0,0.0,0.0,-0.05828590244618417,0.0,-0.17183154198095282,-0.08299404304887432,-0.14235130389897985,-0.1185065602231869,-0.5212446378753405,-0.014437015406072486
5849,7.0,299.95235,969.8788300000001,0.0,0.0,0.0,0.0,-0.05829586925576798,0.0,-0.11082830295290189,-0.08375236145021452,-0.1002382830557483,-0.12702713230160187,-0.4997130124553345,-0.015174053528812485
5850,7.0,300.15414,1001.0842,0.0,0.0,0.0,0.0,-0.058305836065351814,0.0,-0.09024445445118422,-0.07673417582507353,-0.13732597857051887,-0.1049962988223279,-0.5168527965093994,-0.009712489277823061
5851,7.0,299.85634,1176.306,0.0,0.0,0.0,0.0,-0.058315802874935624,0.0,-0.08813055535055861,-0.1112695733714519,-0.15816753000991987,-0.15907512852199285,-0.5236041528532065,-0.0039055649110742463
5852,7.0,299.12449,989.21475,0.0,0.0,0.0,0.0,-0.05832576968451944,0.0,-0.060757103353509236,-0.08994415751904722,-0.14999532344838587,-0.13469300765566486,-0.5347548080836905,-0.014637837522892086
5853,7.0,300.17733,971.29806,0.0,0.0,0.0,0.0,-0.05833573649410327,0.0,-0.07837998985650271,-0.09110679513429061,-0.12576356889689788,-0.12727926945648588,-0.48444429603592953,-0.015491846250426185
5854,7.0,300.11485,1259.8501,0.0,0.0,0.0,0.0,-0.05834570330368709,0.0,-0.12413432353110389,-0.11839014791919787,-0.14043848022769886,-0.11238165588620588,-0.48839047961038756,-0.03952385171695046
5855,7.0,301.28386,1501.1583,0.0,0.0,0.0,0.0,-0.05835567011327091,0.0,-0.1816054639030638,-0.1075451091838759,-0.16716406619030885,-0.12907487022369787,-0.5139487406627915,-0.013009443287182088
5856,7.0,300.14571,1258.4041,0.0,0.0,0.0,0.0,-0.05836563692285473,0.0,-0.1276199646701099,-0.09441263706955182,-0.16049083142921183,-0.15444266052230385,-0.5403767046735285,-0.04115852506353016
5857,7.0,300.27693999999997,1196.3598,0.0,0.0,0.0,0.0,-0.058375603732438545,0.0,-0.09893510461188461,-0.1090734348397099,-0.15565498386945084,-0.11287983043037189,-0.47096698552832256,-0.041390884589712254
5858,7.0,299.41064,1154.1945,0.0,0.0,0.0,0.0,-0.058385570542022376,0.0,-0.08765572912844692,-0.09433335126247691,-0.16885723750491183,-0.12661142618307486,-0.4802598770979595,-0.03382236838475787
5859,7.0,300.12722,1113.9035,0.0,0.0,0.0,0.0,-0.05839553735160619,0.0,-0.10888763516887291,-0.1070573103207339,-0.1226538942074969,-0.12240183811262087,-0.48705228020331753,-0.03862651742839046
5860,7.0,299.01669,1197.9966,0.0,0.0,0.0,0.0,-0.05840550416119002,0.0,-0.15061352759939786,-0.10939534439647991,-0.1041521804290199,-0.15698868444607686,-0.5499712002679314,-0.02093950030006778
5861,7.0,298.42725,1051.3608,0.0,0.0,0.0,0.0,-0.05841547097077383,0.0,-0.10976949712840589,-0.08936870137650411,-0.12044924437491489,-0.09381744281506071,-0.49198810515044555,-0.02369297603606468
5862,7.0,298.75543,984.9468199999999,0.0,0.0,0.0,0.0,-0.05842543778035765,0.0,-0.04618262638587036,-0.1294474321529669,-0.12376917859256688,-0.13054555208134286,-0.5260859367206395,-0.038977325891262564
5863,7.0,300.57835,1427.6546,0.0,0.0,0.0,0.0,-0.05843540458994148,0.0,-0.08262966716716322,-0.13644927405399487,-0.21489241168322978,-0.08940640542597522,-0.5270048228388265,-0.03625203066704687
5864,7.0,300.26127,1660.8034,0.0,0.0,0.0,0.0,-0.0584453713995253,0.0,-0.12259607815679088,-0.16161811269546583,-0.2206285826193458,-0.14436241282996087,-0.5382469948183425,-0.0016170267854881185
5865,7.0,300.3159,1284.7356,0.0,0.0,0.0,0.0,-0.05845533820910912,0.0,-0.11497465408461488,-0.11970193189616088,-0.15585096670379286,-0.11595802343916589,-0.48141682632714156,-0.014888406166621286
5866,7.0,300.24422000000004,1069.5953,0.0,0.0,0.0,0.0,-0.05846530501869294,0.0,-0.1278697916147659,-0.06729997842299074,-0.12996050147360289,-0.13571374567390387,-0.49711422859885457,-0.016697503425165284
5867,7.0,300.00539,1271.6699,0.0,0.0,0.0,0.0,-0.05847527182827676,0.0,-0.16471715839131784,-0.09633840197111,-0.12550033665341886,-0.14768337043021387,-0.5137759105932346,-0.01062334670619269
5868,7.0,300.36099,1242.108,0.0,0.0,0.0,0.0,-0.058485238637860586,0.0,-0.1111896786010669,-0.10758606475291789,-0.15879408334175585,-0.12793738552893688,-0.5338367730955875,-0.03170573654861257
5869,7.0,300.00883,1070.3096,0.0,0.0,0.0,0.0,-0.0584952054474444,0.0,-0.08221144008238741,-0.0940332509008593,-0.14910269064028986,-0.12291932520369289,-0.4876984500570895,-0.026756279334639175
5870,7.0,299.23112000000003,1194.2758,0.0,0.0,0.0,0.0,-0.058505172257028226,0.0,-0.09250648666342941,-0.1255861285393859,-0.14493741199670887,-0.10896130858364389,-0.4928848010914425,-0.043748616247402256
5871,7.0,299.52662000000004,1139.9125,0.0,0.0,0.0,0.0,-0.05851513906661204,0.0,-0.11617824321589988,-0.10170767403276591,-0.12861900900370787,-0.14579002142585484,-0.5195695024125175,-0.0033288227515042264
5872,7.0,300.78122,1139.3567,0.0,0.0,0.0,0.0,-0.05852510587619587,0.0,-0.13049049207090888,-0.1042861016947369,-0.1115594034300559,-0.1417172119863999,-0.5261708166815166,-0.03659199026109826
5873,7.0,300.6727,1318.9889,0.0,0.0,0.0,0.0,-0.05853507268577969,0.0,-0.12328950599522688,-0.12795892722606286,-0.14969125722587687,-0.13517736146846687,-0.49706628160412253,-0.026456903446843073
5874,7.0,299.81887,1139.2783,0.0,0.0,0.0,0.0,-0.05854503949536351,0.0,-0.06577430646916864,-0.10637607188100091,-0.17416176389842783,-0.12043475489848489,-0.4951476925397725,-0.052530440678600854
5875,7.0,299.32771,919.4638199999999,0.0,0.0,0.0,0.0,-0.05855500630494733,0.0,-0.039592247111950564,-0.09698362646253872,-0.14291816666742488,-0.14040562052695588,-0.5188454845535625,-0.04505525291385726
5876,7.0,299.60671,1185.4397,0.0,0.0,0.0,0.0,-0.05856497311453115,0.0,-0.1057951553336689,-0.1058053587621759,-0.14874355427484587,-0.1023754666436719,-0.5550672301883705,-0.016769540441024782
5877,7.0,300.49264,1283.2106,0.0,0.0,0.0,0.0,-0.05857493992411497,0.0,-0.15750590809212284,-0.07898894404735182,-0.15356911734609185,-0.12172695275101489,-0.5126448296391055,-0.011939702467606887
5878,7.0,300.61189,1139.4006,0.0,0.0,0.0,0.0,-0.058584906733698795,0.0,-0.14119166955703286,-0.0950568787083835,-0.1101007893811019,-0.08844947683278372,-0.49527659821749453,-0.03084976312913457
5879,7.0,301.20668,1245.0109,0.0,0.0,0.0,0.0,-0.05859487354328261,0.0,-0.12648805285089887,-0.0977875451713793,-0.15417664184104984,-0.15102985180048586,-0.5033513301194085,-0.04101933895029356
5880,7.0,300.21175,1477.0528,0.0,0.0,0.0,0.0,-0.058604840352866436,0.0,-0.1262363716585599,-0.12347413029594789,-0.19927665710457482,-0.12090380863477687,-0.5040871219445254,-0.04842642414931595
5881,7.0,300.43971,1440.4824,0.0,0.0,0.0,0.0,-0.05861480716245025,0.0,-0.1087279570856139,-0.14397476360670286,-0.18516796006215483,-0.14548025060528286,-0.4858719451618275,-0.026735763046614375
5882,7.0,299.92488,1253.3704,0.0,0.0,0.0,0.0,-0.058624773972034076,0.0,-0.10059071170553031,-0.11726479182813389,-0.16313780546044784,-0.12029243378943888,-0.4687346131730046,-0.037572298587097167
5883,7.0,299.6972,1234.9546,0.0,0.0,0.0,0.0,-0.0586347407816179,0.0,-0.1260941721395259,-0.11206063798952388,-0.1372405615870889,-0.15256690153968086,-0.5184037277749646,0.02727193649603057
5884,7.0,299.22902,977.2978300000001,0.0,0.0,0.0,0.0,-0.05864470759120172,0.0,-0.10703172575570889,-0.06651012159903794,-0.12353228071918687,-0.13875220914627687,-0.5339173264785375,-0.0015336315399826484
5885,7.0,299.75698,1065.0163,0.0,0.0,0.0,0.0,-0.05865467440078554,0.0,-0.07654502533615583,-0.09901329914860181,-0.14818003523173084,-0.12807094202461788,-0.5195412529997295,-0.002080187661848538
5886,7.0,299.60711000000003,1448.4442,0.0,0.0,0.0,0.0,-0.05866464121036936,0.0,-0.10682790036559289,-0.12694136068063688,-0.2065215979695948,-0.10662534153810188,-0.5110643925306285,-0.049136814807676045
5887,7.0,300.53508,1331.7546,0.0,0.0,0.0,0.0,-0.05867460801995318,0.0,-0.1148551716328229,-0.09758464791835492,-0.19238033506896082,-0.12026654524938389,-0.5183979421168935,-0.01109501564099279
5888,7.0,300.18125,938.05877,0.0,0.0,0.0,0.0,-0.058684574829537005,0.0,-0.0987825831140819,-0.09501013241502002,-0.09135372621016082,-0.15131294374592485,-0.5378522123143805,-0.04691413114981425
5889,7.0,300.16537999999997,1085.2936,0.0,0.0,0.0,0.0,-0.05869454163912082,0.0,-0.15679847713730485,-0.06579318635828194,-0.1073105113882229,-0.14462580719345589,-0.5033678055660346,-0.01068378403490739
5890,7.0,300.40005,1314.655,0.0,0.0,0.0,0.0,-0.058704508448704645,0.0,-0.18136567826689884,-0.1105224635427179,-0.1077341613875339,-0.13931132055145687,-0.4846930185379765,-0.039318615882695265
5891,7.0,300.13686,1085.8883,0.0,0.0,0.0,0.0,-0.05871447525828846,0.0,-0.08102619888391323,-0.11038544173169489,-0.13867129099329087,-0.11134868793925991,-0.49803088556682157,-0.05762646147978894
5892,7.0,299.86897,907.3817300000001,0.0,0.0,0.0,0.0,-0.058724442067872286,0.0,-0.05304278957841575,-0.08636723673153261,-0.13641135823525288,-0.14249865072852186,-0.5208024859292035,-0.05322654552380105
5893,7.0,299.18678,1045.1518,0.0,0.0,0.0,0.0,-0.05873440887745611,0.0,-0.06112795694310964,-0.12629484632183088,-0.13027726371986487,-0.12511188696258188,-0.5193275382886375,-0.043154388633506555
5894,7.0,298.32635,1150.6161,0.0,0.0,0.0,0.0,-0.05874437568703993,0.0,-0.13359475600477586,-0.08945185577246081,-0.12671196085799688,-0.11482502744234789,-0.5106973629469055,-0.017220760975556783
5895,7.0,299.68791,1289.2201,0.0,0.0,0.0,0.0,-0.05875434249662375,0.0,-0.13831215462784685,-0.1065725005453869,-0.14700606340086886,-0.09200126192506759,-0.5081719789276695,-0.004241319213235616
5896,7.0,299.26319,1403.0949,0.0,0.0,0.0,0.0,-0.05876430930620757,0.0,-0.15462869324066383,-0.12002719531076188,-0.15184993590142185,-0.1449885912592599,-0.5342003981589745,0.005899924615252224
5897,7.0,299.7505,1265.2782,0.0,0.0,0.0,0.0,-0.05877427611579139,0.0,-0.06333316608974685,-0.1190357402204129,-0.2022440613474348,-0.12330680217443389,-0.5296181772317445,-0.02340998541563568
5898,7.0,299.98121000000003,1310.7961,0.0,0.0,0.0,0.0,-0.05878424292537521,0.0,-0.08234561263412922,-0.14709922161506286,-0.16900446274444184,-0.14492644863062687,-0.4903900577552306,-0.05710973533954204
5899,7.0,301.31183,1557.6097,0.0,0.0,0.0,0.0,-0.058794209734959024,0.0,-0.14822365564853585,-0.11772608406865989,-0.2075247358335968,-0.0991153820696766,-0.4946268110608655,-0.02038682303302278
5900,7.0,299.98356,1195.1009,0.0,0.0,0.0,0.0,-0.05880417654454285,0.0,-0.17095230433917882,-0.09291579309432482,-0.0994127395632735,-0.13194551921450887,-0.5080682221174294,-0.038096898693871166
5901,7.0,300.60072,721.4968200000001,0.0,0.0,0.0,0.0,-0.05881414335412667,0.0,-0.09096452874075,-0.06650627732815853,-0.06184621143549584,-0.12429205617417087,-0.5231770375385535,-0.025056043640338976
5902,7.0,300.16386,919.8114400000001,0.0,0.0,0.0,0.0,-0.058824110163710495,0.0,-0.098010882718671,-0.06828759126896053,-0.11330123101446088,-0.12466405068338389,-0.5071998059867235,-0.029386266227948675
5903,7.0,300.7656,1228.4172,0.0,0.0,0.0,0.0,-0.05883407697329431,0.0,-0.06037879325642294,-0.13737978215082888,-0.17564956968276282,-0.1196542483464549,-0.5175776654984385,-0.022434005694063976
5904,7.0,298.82849,1175.1215,0.0,0.0,0.0,0.0,-0.05884404378287813,0.0,-0.053471622351988254,-0.13521718219739687,-0.16851878157400885,-0.1297949364072629,-0.5343008619063895,-0.028124247016397073
5905,7.0,299.77828,1234.487,0.0,0.0,0.0,0.0,-0.05885401059246195,0.0,-0.0964355939339521,-0.10924783544692189,-0.16956979550523585,-0.14958747001813386,-0.5429870598461505,-0.02088911542559518
5906,7.0,298.84802,1269.0327,0.0,0.0,0.0,0.0,-0.05886397740204577,0.0,-0.16972433641048784,-0.10737423468701189,-0.1086557022209829,-0.13557189065990385,-0.48446490554296356,0.003039777252452657
5907,7.0,299.95279,1257.5087,0.0,0.0,0.0,0.0,-0.058873944211629586,0.0,-0.16261182733353785,-0.07941313917521663,-0.14022627525925588,-0.13583308627068186,-0.5012947363914385,-0.014587228720147383
5908,7.0,299.48237,1368.5183,0.0,0.0,0.0,0.0,-0.05888391102121342,0.0,-0.13565357888296586,-0.11651147077628689,-0.16383035177129684,-0.13545958201881989,-0.5051918482635536,0.004347947168958976
5909,7.0,299.70512,1309.3953,0.0,0.0,0.0,0.0,-0.058893877830797234,0.0,-0.07467064943991933,-0.13241926429876388,-0.19093355578117482,-0.14547204327947286,-0.5187285149620185,-0.04846441697506555
5910,7.0,300.37305,932.53425,0.0,0.0,0.0,0.0,-0.05890384464038106,0.0,-0.07667974402970151,-0.06888445130661602,-0.13790293330995987,-0.11141519767582389,-0.47478520574765154,-0.025359044936992873
5911,7.0,301.74781,880.50144,0.0,0.0,0.0,0.0,-0.058913811449964874,0.0,-0.07318308480910812,-0.10392428021652791,-0.09054308762665701,-0.13356612155694986,-0.5102496887877235,-0.04454022700727816
5912,7.0,300.63602000000003,1189.2603,0.0,0.0,0.0,0.0,-0.05892377825954869,0.0,-0.18124736105272185,-0.0861187118132551,-0.0941393706103325,-0.1186718314469979,-0.5043800728134374,-0.009263568111742991
5913,7.0,300.70141,1309.993,0.0,0.0,0.0,0.0,-0.05893374506913252,0.0,-0.14056415363760186,-0.1181069242512459,-0.13953408358594185,-0.13800802761033187,-0.5324173211629984,-0.03474856510241637
5914,7.0,300.84994,1159.8753,0.0,0.0,0.0,0.0,-0.05894371187871634,0.0,-0.1030883083540239,-0.13157644286558387,-0.11790836776164988,-0.12280342965725488,-0.4955262123796295,-0.026548853866917875
5915,7.0,300.96912000000003,1380.5953,0.0,0.0,0.0,0.0,-0.05895367868830016,0.0,-0.07937229506368562,-0.12400002736284989,-0.21629417226907277,-0.15270701376350884,-0.5214757298256475,-0.01057743229116129
5916,7.0,299.88637,1562.8005,0.0,0.0,0.0,0.0,-0.05896364549788398,0.0,-0.12155996913453489,-0.15282253440740987,-0.20066983546207082,-0.13463508014744788,-0.5109383746156915,-0.001063608933945029
5917,7.0,299.96468,1355.7216,0.0,0.0,0.0,0.0,-0.058973612307467796,0.0,-0.11289553580692188,-0.12321731192560187,-0.17599266629912383,-0.12366491515727687,-0.5343074581645405,-0.023958713033790876
5918,7.0,299.83426000000003,1190.2637,0.0,0.0,0.0,0.0,-0.05898357911705163,0.0,-0.15024339747036886,-0.07316492534081592,-0.13840211097172486,-0.09856268656412981,-0.48938221841076457,0.006106860784500234
5919,7.0,299.90712,887.60625,0.0,0.0,0.0,0.0,-0.05899354592663544,0.0,-0.09337673779006651,-0.07417795151254383,-0.1022554471693269,-0.12865883986513887,-0.5343837457645695,-0.028759986473639674
5920,7.0,299.37363999999997,734.45712,0.0,0.0,0.0,0.0,-0.05900351273621927,0.0,-0.060252583837217044,-0.04732471427583566,-0.11567932899916088,-0.13410918308054587,-0.5359978430413685,-0.03039181157418827
5921,7.0,300.64617999999996,1099.3607,0.0,0.0,0.0,0.0,-0.059013479545803084,0.0,-0.06094702593900314,-0.11344779764142589,-0.15978338020939184,-0.14091203279443487,-0.5341946428984065,-0.06120402973411744
5922,7.0,299.74162,1341.2199,0.0,0.0,0.0,0.0,-0.0590234463553869,0.0,-0.12208699090904788,-0.12567340990299988,-0.15993694839454783,-0.1291166870553249,-0.49146089085841355,-0.026737120801748376
5923,7.0,300.14706,1179.2842,0.0,0.0,0.0,0.0,-0.05903341316497073,0.0,-0.09261297418268892,-0.1049363954764159,-0.16092359054692185,-0.13109392303546288,-0.5218985894898804,-0.04144991552728816
5924,7.0,300.06428999999997,1367.0434,0.0,0.0,0.0,0.0,-0.05904337997455455,0.0,-0.17336184347448183,-0.11448435249372588,-0.12770085242559287,-0.15574448425078385,-0.5312296197932815,-0.0013424262811871587
5925,7.0,301.21223,1732.5329,0.0,0.0,0.0,0.0,-0.05905334678413837,0.0,-0.17493407325714883,-0.14705954274114688,-0.2046531141226898,-0.12977579611287388,-0.5433925828011724,-0.015171832484593285
5926,7.0,300.89653,1384.0055,0.0,0.0,0.0,0.0,-0.05906331359372219,0.0,-0.14665980544419585,-0.10122960946333459,-0.17281369543538383,-0.12556534677983489,-0.5106190184491736,0.006835852688196134
5927,7.0,300.9005,1033.4103,0.0,0.0,0.0,0.0,-0.059073280403306005,0.0,-0.028951834234323574,-0.1185636163363179,-0.16661548245366783,-0.10421336047005789,-0.5201216122595065,-0.046872686180973955
5928,7.0,298.58529,1081.34,0.0,0.0,0.0,0.0,-0.059083247212889836,0.0,-0.12277330573178188,-0.06015641221722565,-0.14577063795144185,-0.15359307057845586,-0.5181199873494615,-0.004232709221835876
5929,7.0,298.32384,1151.1755,0.0,0.0,0.0,0.0,-0.05909321402247365,0.0,-0.0997688503639189,-0.09713103510033681,-0.15302871053775785,-0.12075180085477488,-0.5154513095010835,-0.04860523442096316
5930,7.0,298.68804,1005.7818,0.0,0.0,0.0,0.0,-0.05910318083205748,0.0,-0.14261741377274287,-0.08281215249692313,-0.08030298757203783,-0.16369997688092983,-0.5067050156978915,-0.025559497217525977
5931,7.0,299.23601,1056.9235,0.0,0.0,0.0,0.0,-0.059113147641641293,0.0,-0.08437140051930891,-0.09556314608109821,-0.14134379892704688,-0.1162079213113289,-0.5137937539274955,-0.02300516666943318
5932,7.0,299.67131,1200.5172,0.0,0.0,0.0,0.0,-0.05912311445122511,0.0,-0.1079578363471089,-0.12813423975836485,-0.1288351757800419,-0.15454742045014286,-0.5329411714646985,-0.02777346793777787
5933,7.0,299.71133,1319.5562,0.0,0.0,0.0,0.0,-0.05913308126080894,0.0,-0.10491870412966989,-0.10929399912147789,-0.1868994220980368,-0.099971278482147,-0.5315250632574395,-0.043203051996059255
5934,7.0,300.56395,1578.9063,0.0,0.0,0.0,0.0,-0.05914304807039276,0.0,-0.15290651257569784,-0.13413898276598687,-0.19290258443550282,-0.12997849679537887,-0.5119177416323475,-0.014188901867335589
5935,7.0,301.38208,1268.3201,0.0,0.0,0.0,0.0,-0.05915301487997658,0.0,-0.11560122768145288,-0.12322323943868688,-0.14671316319446187,-0.11466341405139788,-0.5133733969910095,-0.02378033744643658
5936,7.0,300.16325,840.36868,0.0,0.0,0.0,0.0,-0.0591629816895604,0.0,-0.08088984075170572,-0.04724343743231425,-0.12731781349028987,-0.15068529610398088,-0.5184050652650964,-0.008070771715223152
5937,7.0,299.40031,1011.575,0.0,0.0,0.0,0.0,-0.05917294849914422,0.0,-0.06863333550783283,-0.1013083278503535,-0.13755188268031387,-0.14836220746720985,-0.5175967247328195,-0.027907706350776173
5938,7.0,299.36735,1162.2496,0.0,0.0,0.0,0.0,-0.059182915308728046,0.0,-0.08884358755192942,-0.08235525066908042,-0.18209601880647783,-0.15123517680074985,-0.5052376370355726,-0.02025220667773718
5939,7.0,299.24687,956.8344900000001,0.0,0.0,0.0,0.0,-0.05919288211831186,0.0,-0.05962360681114185,-0.08693942615575331,-0.14429075578288886,-0.14038151530707685,-0.5286056262743135,-0.04092054807879366
5940,7.0,299.5991,1048.4368,0.0,0.0,0.0,0.0,-0.059202848927895686,0.0,-0.0909963802576435,-0.10809962043360191,-0.1196025928563569,-0.1269027457193259,-0.5328043320386935,-0.03163639376476897
5941,7.0,300.06674,1486.0318,0.0,0.0,0.0,0.0,-0.0592128157374795,0.0,-0.17122665193625486,-0.12401560101688687,-0.15647429790031084,-0.12278747096817988,-0.5103956677296305,-0.04647998995896786
5942,7.0,300.3458,1421.691,0.0,0.0,0.0,0.0,-0.05922278254706333,0.0,-0.18282075607300383,-0.10749217699865189,-0.14184564143657485,-0.1151408980285219,-0.4879686737262585,0.007710752707617043
5943,7.0,300.88947,1294.4735,0.0,0.0,0.0,0.0,-0.05923274935664715,0.0,-0.11833008245326988,-0.12010659358859788,-0.15505094495483684,-0.13890286930364587,-0.5081716344226356,-0.014314364521217787
5944,7.0,299.74332000000004,1294.8139999999999,0.0,0.0,0.0,0.0,-0.05924271616623097,0.0,-0.1107726147274059,-0.09725275582159972,-0.18556577218391582,-0.11578983405506688,-0.5088507653021604,0.021933919146959278
5945,7.0,299.8813,1201.9645,0.0,0.0,0.0,0.0,-0.05925268297581479,0.0,-0.1071942510717489,-0.09872876433502041,-0.15944417447341486,-0.13679649459826287,-0.5105709903944335,-0.02919251051732647
5946,7.0,299.63011,1268.8394,0.0,0.0,0.0,0.0,-0.05926264978539861,0.0,-0.10222617437393791,-0.11002109726073689,-0.17344823317800784,-0.11245185385313389,-0.5159376391515804,-0.004807884694101276
5947,7.0,299.65855,1323.2561,0.0,0.0,0.0,0.0,-0.05927261659498243,0.0,-0.13313742557214087,-0.11570648410184088,-0.15339291315370185,-0.16024423675237484,-0.5489507054297165,-0.03423425455040787
5948,7.0,299.33797000000004,1167.8711,0.0,0.0,0.0,0.0,-0.059282583404566255,0.0,-0.09384185504972001,-0.12609800222490386,-0.13506379639725885,-0.10322779236278991,-0.5383724554457245,-0.02152662097776208
5949,7.0,299.06689,907.60795,0.0,0.0,0.0,0.0,-0.05929255021415007,0.0,-0.06551644850422003,-0.09307327242486681,-0.11730043796665188,-0.1277577058887039,-0.5187690854960224,-0.03530567331214867
5950,7.0,298.22835,1046.4863,0.0,0.0,0.0,0.0,-0.059302517023733896,0.0,-0.07587043584357903,-0.1116905179929959,-0.13054474148126285,-0.08080325549091043,-0.4981144280375665,-0.04451126933267025
5951,7.0,300.25424,1236.2142,0.0,0.0,0.0,0.0,-0.05931248383331771,0.0,-0.13530101851067086,-0.1071700039968559,-0.1333072361563999,-0.16020857034885486,-0.5161017755352796,-0.034991130083605666
5952,7.0,299.84375,1179.7962,0.0,0.0,0.0,0.0,-0.059322450642901536,0.0,-0.1049220579875009,-0.12917704636378188,-0.12452947080510188,-0.13985319657243586,-0.5243856523903344,-0.05528036598624735
5953,7.0,300.04916000000003,1172.2047,0.0,0.0,0.0,0.0,-0.05933241745248535,0.0,-0.13353080979096488,-0.1086485892052809,-0.11414154971989389,-0.15642512487295787,-0.5261633186307765,-0.03295175958083547
5954,7.0,300.27789,1273.8137,0.0,0.0,0.0,0.0,-0.05934238426206917,0.0,-0.13571265136379587,-0.091065590305724,-0.16042930688313983,-0.12062393882465589,-0.5158409649595396,-0.008013923419687662
5955,7.0,299.62795,1100.7572,0.0,0.0,0.0,0.0,-0.059352351071652994,0.0,-0.06817782385912734,-0.10318813375387591,-0.16323673920021184,-0.12310821528733489,-0.5034521586368594,-0.0025247520551486278
5956,7.0,300.1769,1327.6956,0.0,0.0,0.0,0.0,-0.05936231788123681,0.0,-0.1101996623258599,-0.12120442980694589,-0.17218222784056283,-0.12321387700776289,-0.5274299116532795,-0.016515389958192087
5957,7.0,300.48465,1549.3836,0.0,0.0,0.0,0.0,-0.05937228469082064,0.0,-0.13508176132153188,-0.13185810612838186,-0.2040340487090928,-0.1211176753333839,-0.49399036840805355,-0.01994780405619498
5958,7.0,300.19903999999997,1093.5171,0.0,0.0,0.0,0.0,-0.05938225150040446,0.0,-0.12465398910989088,-0.101220625987948,-0.1065272690609229,-0.12826462478123288,-0.5135823696916335,-0.038305157053174665
5959,7.0,299.88763,909.28505,0.0,0.0,0.0,0.0,-0.059392218309988275,0.0,-0.09593702523549721,-0.07633115255804823,-0.10413177357200588,-0.1296632240267639,-0.5064497172026955,-0.03212046690729327
5960,7.0,300.06434,1174.3779,0.0,0.0,0.0,0.0,-0.0594021851195721,0.0,-0.12628703416355988,-0.09618490268696081,-0.13450961952006588,-0.15849077705682185,-0.5437749631239105,-0.03024982281117507
5961,7.0,300.22219,1219.9949,0.0,0.0,0.0,0.0,-0.059412151929155915,0.0,-0.08363003075239142,-0.10878040291078989,-0.17843756786291684,-0.15297301217976086,-0.5218700462345635,-0.0009889070500575272
5962,7.0,300.5327,1076.9096,0.0,0.0,0.0,0.0,-0.05942211873873973,0.0,-0.0918194645921256,-0.09052171615554783,-0.14501243303411285,-0.14190418702735286,-0.5234517093756615,-0.019868567898374982
5963,7.0,299.34002000000004,1321.8072,0.0,0.0,0.0,0.0,-0.05943208554832356,0.0,-0.13195683721812587,-0.11035169037086388,-0.15948786581772684,-0.12449852614704789,-0.5065065200033015,0.0015371131686512586
5964,7.0,299.84359,1613.236,0.0,0.0,0.0,0.0,-0.05944205235790738,0.0,-0.1986510055653278,-0.1363988547290189,-0.15533359107023187,-0.12969854592524988,-0.5334997357148245,-0.037052062548503864
5965,7.0,300.79644,1374.1244,0.0,0.0,0.0,0.0,-0.0594520191674912,0.0,-0.14611485927541387,-0.11779482295544388,-0.15378982348287384,-0.13348219405116687,-0.5230905667750195,-0.003960123869333796
5966,7.0,301.75387,1170.8986,0.0,0.0,0.0,0.0,-0.05946198597707502,0.0,-0.0993974860962681,-0.12523540214977189,-0.13129104070991687,-0.12971913516728187,-0.5255124168990375,-0.06494767271958624
5967,7.0,301.98171,1100.4114,0.0,0.0,0.0,0.0,-0.05947195278665884,0.0,-0.05281976208565465,-0.09175303388906941,-0.18992479437911783,-0.12187623488824789,-0.4902759049989645,0.0063194352852547035
5968,7.0,300.12496,808.65044,0.0,0.0,0.0,0.0,-0.05948191959624267,0.0,-0.036181976581633066,-0.08906239891102441,-0.12056517031885589,-0.14990154715163084,-0.5419629477050785,-0.06442140581639773
5969,7.0,299.8063,971.6818199999999,0.0,0.0,0.0,0.0,-0.059491886405826484,0.0,-0.06155016711402854,-0.1046087306590779,-0.12920811261184786,-0.13404847926705488,-0.5145365473108034,-0.026251212663292976
5970,7.0,300.13254,1043.2892,0.0,0.0,0.0,0.0,-0.05950185321541031,0.0,-0.12720753134940588,-0.07448838094568083,-0.11543795256033888,-0.14637478832356687,-0.5138102293741215,-0.05407127794666965
5971,7.0,299.46925,968.31169,0.0,0.0,0.0,0.0,-0.059511820024994125,0.0,-0.1011440637971419,-0.1009946762818985,-0.09220383595131011,-0.11236771356482989,-0.5007830248259365,-0.040159651969199066
5972,7.0,299.5591,1131.2635,0.0,0.0,0.0,0.0,-0.05952178683457794,0.0,-0.09373333900376031,-0.09478318769737232,-0.15535931749027085,-0.14453579005457187,-0.5604125601634135,-0.036159795523693965
5973,7.0,299.92846000000003,1676.8236,0.0,0.0,0.0,0.0,-0.05953175364416177,0.0,-0.14134190414935988,-0.14523218671580085,-0.2231384031170458,-0.13266300161031888,-0.5369122505941135,-0.0014526624205166185
5974,7.0,300.40323,1637.1921,0.0,0.0,0.0,0.0,-0.05954172045374559,0.0,-0.14209770766395186,-0.13412956967255787,-0.2214382505092538,-0.12143420453212288,-0.5197428897696295,0.015615603604390085
5975,7.0,300.53798,1375.3535,0.0,0.0,0.0,0.0,-0.05955168726332941,0.0,-0.14627399020361886,-0.1044542404163309,-0.16734487053815283,-0.13656775338818788,-0.4968100711838366,-0.00974401685865959
5976,7.0,301.05068,1224.5254,0.0,0.0,0.0,0.0,-0.05956165407291323,0.0,-0.14450957727448485,-0.1155736267487289,-0.11214194117754789,-0.13892057078289285,-0.5242645892683865,-0.018582607613460582
5977,7.0,300.87336,1270.3545,0.0,0.0,0.0,0.0,-0.059571620882497046,0.0,-0.15029135459760185,-0.1028756980855409,-0.13298899456499186,-0.17158458253407982,-0.5224864771979005,-0.04826105160049496
5978,7.0,301.04711000000003,1125.6093,0.0,0.0,0.0,0.0,-0.05958158769208088,0.0,-0.08595230777583232,-0.10349489522165091,-0.15270993192379684,-0.1061501272412019,-0.5010379686835975,-0.03496804318007717
5979,7.0,301.3881,990.98606,0.0,0.0,0.0,0.0,-0.059591554501664694,0.0,-0.06500059071930885,-0.09622090548951401,-0.14001352313575888,-0.14356569427633087,-0.4917795580148635,-0.04106034315534036
5980,7.0,302.07027999999997,1126.3918,0.0,0.0,0.0,0.0,-0.05960152131124852,0.0,-0.07837413631067502,-0.1038938117860209,-0.16012701384830585,-0.1086216874151259,-0.5326503281559946,-0.016908764044515082
5981,7.0,301.24876,1055.9215,0.0,0.0,0.0,0.0,-0.059611488120832334,0.0,-0.1051780252277629,-0.1014747886297819,-0.1143209659151009,-0.13981441949110884,-0.5234649728194706,-0.04861478328990555
5982,7.0,301.5149,1388.2465,0.0,0.0,0.0,0.0,-0.05962145493041615,0.0,-0.1382267275119159,-0.14709564484220986,-0.13666991939577086,-0.09718178069184501,-0.5157866040916744,-0.04985372775692986
5983,7.0,300.7013,1576.9671,0.0,0.0,0.0,0.0,-0.05963142173999998,0.0,-0.16078068175281784,-0.12900033554634188,-0.18957759409985184,-0.13782637213240387,-0.5143866166935065,-0.029830341322775473
5984,7.0,299.67787000000004,1169.7354,0.0,0.0,0.0,0.0,-0.0596413885495838,0.0,-0.05649126774350404,-0.14146821590682587,-0.15761088080248284,-0.12367120744039789,-0.5449439497642805,-0.02605640418581687
5985,7.0,299.70468,912.87177,0.0,0.0,0.0,0.0,-0.05965135535916762,0.0,-0.06055899066745704,-0.08051377095059052,-0.13641745800085486,-0.14127620501287588,-0.5381478786935605,-0.01010089813468103
5986,7.0,300.06188,1268.7523,0.0,0.0,0.0,0.0,-0.05966132216875144,0.0,-0.09056604078117232,-0.1156568956419469,-0.17944609621745083,-0.09703491819585082,-0.5228125005500766,0.013438434127770186
5987,7.0,298.79322,1228.5545,0.0,0.0,0.0,0.0,-0.059671288978335256,0.0,-0.14208496097769385,-0.11868582443087888,-0.11267912585056389,-0.14656132766697685,-0.5066195379194555,-0.03914381200194346
5988,7.0,300.13038,1169.6484,0.0,0.0,0.0,0.0,-0.05968125578791909,0.0,-0.13827194886387886,-0.08695186481398091,-0.13032010393409288,-0.13064350296850988,-0.5253055416261205,-0.03265871143991387
5989,7.0,299.92194,1420.5298,0.0,0.0,0.0,0.0,-0.0596912225975029,0.0,-0.15129288139394487,-0.13639170118331287,-0.14412099586113486,-0.17625344647736085,-0.5089001308470326,-0.06495205502626873
5990,7.0,300.38827000000003,1456.5278,0.0,0.0,0.0,0.0,-0.05970118940708673,0.0,-0.11988104411633789,-0.11125353362236891,-0.2116135039621268,-0.12214821148008989,-0.47339486449043555,0.007048415840549483
5991,7.0,300.74779,1305.9064,0.0,0.0,0.0,0.0,-0.059711156216670544,0.0,-0.09047749082843311,-0.1117680214931449,-0.1947174369546148,-0.13205037033485686,-0.5045278553405226,-0.0066781911752861545
5992,7.0,300.84577,1261.6285,0.0,0.0,0.0,0.0,-0.05972112302625436,0.0,-0.1044544126688479,-0.09472001054038721,-0.18432915109937084,-0.14337490941500186,-0.5349365344891255,0.016961842137753484
5993,7.0,300.15029,1164.7684,0.0,0.0,0.0,0.0,-0.05973108983583819,0.0,-0.15448629107160985,-0.06717902371880344,-0.13239520974138985,-0.15122281514952984,-0.5382460322307475,0.0038927518569346962
5994,7.0,299.73316,990.4815199999999,0.0,0.0,0.0,0.0,-0.05974105664542201,0.0,-0.1191696412211279,-0.09577287567954691,-0.08613913690877092,-0.13276606941049088,-0.5395022191747234,-0.031086886957286872
5995,7.0,299.55304,1122.9481,0.0,0.0,0.0,0.0,-0.05975102345500583,0.0,-0.08502191012325923,-0.11642070383232889,-0.13990555120510287,-0.12647969353757388,-0.5227272456866625,-0.042701696859829365
5996,7.0,300.26186,1330.2352,0.0,0.0,0.0,0.0,-0.05976099026458965,0.0,-0.09904232268446622,-0.12591811993465088,-0.17939785538018982,-0.12233978667649688,-0.5280957486914925,-0.051831983066668454
5997,7.0,300.72668999999996,1154.355,0.0,0.0,0.0,0.0,-0.059770957074173466,0.0,-0.06702039637589814,-0.11561834147564189,-0.16825637006311084,-0.09105425406360523,-0.5055647749628585,-0.04248518152546096
5998,7.0,300.1339,983.4223400000001,0.0,0.0,0.0,0.0,-0.059780923883757296,0.0,-0.08771343878789242,-0.07815284147558492,-0.13306955808044288,-0.12926571588003288,-0.5271785952309765,-0.05240576430679625
5999,7.0,299.70895,1156.0995,0.0,0.0,0.0,0.0,-0.05979089069334111,0.0,-0.14512981805819786,-0.09000300505835501,-0.11629255809218189,-0.1008656125371609,-0.5263775703644216,-0.02930289803622087
6000,7.0,299.00417999999996,1279.7127,0.0,0.0,0.0,0.0,-0.05980085750292494,0.0,-0.1330449563680149,-0.1348691510530489,-0.12108660908531788,-0.15608062997145886,-0.5441588430567964,-0.07511690808871163
6001,7.0,299.72426,1240.9483,0.0,0.0,0.0,0.0,-0.059810824312508754,0.0,-0.1027313403437939,-0.1173050381221059,-0.15718091825504885,-0.14380254148720586,-0.5229454389631965,-0.023013229100478875
6002,7.0,299.23379,1279.6622,0.0,0.0,0.0,0.0,-0.05982079112209257,0.0,-0.091825710265742,-0.1225018965599959,-0.17465773968987683,-0.15824446609001283,-0.5067457584844126,-0.01971677594064428
6003,7.0,299.43773,1314.2625,0.0,0.0,0.0,0.0,-0.0598307579316764,0.0,-0.08907308464657901,-0.10741555502608989,-0.20301434420595582,-0.13074732057375588,-0.5230465309256735,0.037938597617498064
6004,7.0,299.15275,1192.027,0.0,0.0,0.0,0.0,-0.05984072474126022,0.0,-0.1087030108681519,-0.10789825724122891,-0.14574516484392788,-0.11550932589738289,-0.5202792334450625,-0.00933732116797185
6005,7.0,299.18144,1512.4777,0.0,0.0,0.0,0.0,-0.05985069155084404,0.0,-0.18964064865357483,-0.12693300136731187,-0.14318181434344485,-0.1036456364390279,-0.5342118580176054,-0.0015774928063364186
6006,7.0,299.82361000000003,1524.3569,0.0,0.0,0.0,0.0,-0.05986065836042786,0.0,-0.17282029169353483,-0.12311518644802288,-0.16743096639914984,-0.11412558089831788,-0.5145882838609095,-0.06728978614023484
6007,7.0,300.42901,1131.3388,0.0,0.0,0.0,0.0,-0.05987062517001168,0.0,-0.0891153229902476,-0.1276208461976969,-0.12716259370747088,-0.14621703541549785,-0.5648873664475424,-0.058276156430658844
6008,7.0,299.28187,955.23372,0.0,0.0,0.0,0.0,-0.0598805919795955,0.0,-0.042842570034482455,-0.09675739000671091,-0.15076723763956784,-0.13642419611401987,-0.5426109515415315,-0.061394884509703346
6009,7.0,299.94601,1155.5232,0.0,0.0,0.0,0.0,-0.059890558789179316,0.0,-0.07575631449806612,-0.08415864940906201,-0.19133522838581682,-0.13868853650999285,-0.5213044500287435,0.0019117941078543883
6010,7.0,299.99842,968.7012599999999,0.0,0.0,0.0,0.0,-0.05990052559876314,0.0,-0.10080305143623661,-0.07355177308324483,-0.12010616802355589,-0.14884793930014786,-0.5080052182262115,-0.007086517185384793
6011,7.0,299.59328999999997,1031.6904,0.0,0.0,0.0,0.0,-0.059910492408346956,0.0,-0.13299480048806486,-0.06787933557841884,-0.11273397307847689,-0.14450296075133187,-0.5344568720242865,0.0061779594294421245
6012,7.0,300.14182,1416.3987,0.0,0.0,0.0,0.0,-0.05992045921793077,0.0,-0.1396589970582699,-0.12724455550805988,-0.16364628475813084,-0.13779238772404986,-0.5240230203120455,-0.026879837078333375
6013,7.0,299.55311,1612.6882,0.0,0.0,0.0,0.0,-0.059930426027514604,0.0,-0.13738261925110887,-0.17494773186849683,-0.17788659285603983,-0.1037175467986249,-0.4773295375437575,-0.04030775670981586
6014,7.0,299.01944,1748.4259,0.0,0.0,0.0,0.0,-0.05994039283709842,0.0,-0.12670090629940586,-0.16971175184424583,-0.23506515726162477,-0.1138244733661009,-0.48103870165482354,-0.017652713546187183
6015,7.0,299.20523,1590.0489,0.0,0.0,0.0,0.0,-0.059950359646682244,0.0,-0.16412867286573884,-0.12083592087807689,-0.19837055820264982,-0.14811546080285787,-0.5161399953290515,-0.018823388261223782
6016,7.0,299.50141,989.13345,0.0,0.0,0.0,0.0,-0.05996032645626606,0.0,-0.09467439503413531,-0.09541079582256241,-0.1105866833340559,-0.15118095778789886,-0.5226179058683715,-0.0063242259317275035
6017,7.0,300.26768,603.7122099999999,0.0,0.0,0.0,0.0,-0.05997029326584988,0.0,-0.09312836992555451,-0.04559610048598475,-0.04478896470807666,-0.12513810987516988,-0.5641728528745255,-0.05359741329890285
6018,7.0,300.98984,1106.0226,0.0,0.0,0.0,0.0,-0.05998026007543371,0.0,-0.08807934670375472,-0.1029280628507089,-0.14519584143471384,-0.097931322320819,-0.5347854791642175,-0.05659570849756154
6019,7.0,300.30959,1215.3857,0.0,0.0,0.0,0.0,-0.059990226885017525,0.0,-0.12059809081460487,-0.09439359303392232,-0.15445521469104284,-0.13240164387952488,-0.5753069313333735,-0.03967516846038426
6020,7.0,300.17204,1026.0642,0.0,0.0,0.0,0.0,-0.06000019369460135,0.0,-0.023717589907493876,-0.10413802532512291,-0.18404228986355983,-0.11939551493341988,-0.5055032909467906,-0.025424649841217575
6021,7.0,300.42528,1218.8857,0.0,0.0,0.0,0.0,-0.060010160504185166,0.0,-0.12061277280855388,-0.0963407719630939,-0.15355728258492388,-0.13228669065567988,-0.4939589779199555,0.001251739586637079
6022,7.0,300.6399,1517.8252,0.0,0.0,0.0,0.0,-0.06002012731376898,0.0,-0.17060586399748784,-0.1230253820916599,-0.16774972474810884,-0.11597026350037389,-0.4537402038206716,0.027329185126680578
6023,7.0,299.78522999999996,1627.8912,0.0,0.0,0.0,0.0,-0.06003009412335281,0.0,-0.20378383672939882,-0.13896652167492787,-0.15208791795240886,-0.14754387628894686,-0.5294884406889405,-0.006129091289044214
6024,7.0,299.64066,1619.0398,0.0,0.0,0.0,0.0,-0.06004006093293663,0.0,-0.1293342014542919,-0.16733321816200283,-0.1954802521598988,-0.15254105352962985,-0.5166211472715375,-0.022313117864383277
6025,7.0,299.96169,1207.6848,0.0,0.0,0.0,0.0,-0.060050027742520454,0.0,-0.1004324552121616,-0.11934727409615889,-0.14732630109497385,-0.14632792550644186,-0.5266079226421555,-0.04469825349287416
6026,7.0,299.93989,693.9820900000001,0.0,0.0,0.0,0.0,-0.06005999455210427,0.0,0.012683041992718788,-0.08062208535978033,-0.14301418224690088,-0.13512012297031786,-0.5268356303371285,-0.04850827043939355
6027,7.0,298.99206000000004,755.12985,0.0,0.0,0.0,0.0,-0.06006996136168809,0.0,-0.07695937977904943,-0.06723349300442913,-0.08534774602416673,-0.13428281361768188,-0.5554168724003775,-0.04904884443399405
6028,7.0,299.06917000000004,1300.115,0.0,0.0,0.0,0.0,-0.06007992817127192,0.0,-0.14642932144394885,-0.1063057928540649,-0.14246738183043586,-0.16150350397665486,-0.5322483617088235,-0.024033288241150877
6029,7.0,299.02802,1262.7639,0.0,0.0,0.0,0.0,-0.060089894980855735,0.0,-0.13723720772925788,-0.13064788020894186,-0.1159636064472169,-0.10455187719596691,-0.5340096335626475,-0.05185991229242485
6030,7.0,300.25981,1159.2738,0.0,0.0,0.0,0.0,-0.06009986179043956,0.0,-0.06990398862348653,-0.13522521727068987,-0.14726106805353584,-0.11837231471743788,-0.5144111170809245,-0.03542616800079056
6031,7.0,300.43206000000004,1513.2525,0.0,0.0,0.0,0.0,-0.060109828600023375,0.0,-0.12562472323569487,-0.14496822493224984,-0.1893980157846288,-0.10476872284986789,-0.5384674071125956,-0.01775211338099718
6032,7.0,300.37831,1520.9143,0.0,0.0,0.0,0.0,-0.06011979540960719,0.0,-0.08808473516778652,-0.15494913358478887,-0.21928610729685377,-0.1310351241321599,-0.5155435253926846,-0.016443703526867186
6033,7.0,300.87382,1263.1342,0.0,0.0,0.0,0.0,-0.06012976221919102,0.0,-0.13365936083115187,-0.09428536272449081,-0.15601652163763186,-0.14014745453397687,-0.4979784397416455,2.028030612951038e-05
6034,7.0,300.73073999999997,1266.5414,0.0,0.0,0.0,0.0,-0.06013972902877484,0.0,-0.15210469737406487,-0.1146570508407699,-0.11823519158140489,-0.15002130318094986,-0.5051929628386636,-0.014601731368828684
6035,7.0,300.00086,1099.7812,0.0,0.0,0.0,0.0,-0.06014969583835866,0.0,-0.14786047641519284,-0.09064270429698841,-0.09580283748500391,-0.14809079829542388,-0.5336241121645995,-0.017492695010894586
6036,7.0,299.55841000000004,1019.5166,0.0,0.0,0.0,0.0,-0.06015966264794248,0.0,-0.1036331430652949,-0.08783277938467042,-0.1184416514217809,-0.15297225224218586,-0.5280890409758304,-0.06646515457285004
6037,7.0,299.44069,1313.4353,0.0,0.0,0.0,0.0,-0.0601696294575263,0.0,-0.09677507122095591,-0.1180309507587479,-0.18444551274085483,-0.09933864159671059,-0.5386530547959175,-0.04641541147709446
6038,7.0,299.01013,1375.9389999999999,0.0,0.0,0.0,0.0,-0.06017959626711013,0.0,-0.08078913382426672,-0.13243380443769887,-0.2050281585147038,-0.13250629234985287,-0.5093756187214595,-0.05432077659829325
6039,7.0,299.94401,1095.0230000000001,0.0,0.0,0.0,0.0,-0.060189563076693944,0.0,-0.1004120280901456,-0.0946685202100555,-0.13777911414773986,-0.11344459577110991,-0.5464884164942074,-0.0066861625151478634
6040,7.0,300.51001,1194.5227,0.0,0.0,0.0,0.0,-0.06019952988627777,0.0,-0.14758182250519186,-0.08732991450579151,-0.12819334263669788,-0.14360571765528085,-0.5371035218154905,-0.020561864014297982
6041,7.0,301.64229,1562.8348,0.0,0.0,0.0,0.0,-0.060209496695861585,0.0,-0.1872013604953358,-0.12578026725854588,-0.16208112746116185,-0.11190457720912189,-0.5146359978081185,0.0015109347377426485
6042,7.0,299.91276,1336.2220000000002,0.0,0.0,0.0,0.0,-0.0602194635054454,0.0,-0.11915573942975588,-0.11852080651959289,-0.16850157658731083,-0.13856125203243086,-0.5227233244087754,-0.021516424642005778
6043,7.0,300.1058,1295.2069999999999,0.0,0.0,0.0,0.0,-0.06022943031502923,0.0,-0.08490231520070612,-0.14634709619833386,-0.16246117730866985,-0.1340668697563699,-0.5457531819566455,-0.029131042713260072
6044,7.0,300.37782999999996,1423.5529,0.0,0.0,0.0,0.0,-0.06023939712461305,0.0,-0.0969473054994541,-0.12759820005796188,-0.20817904208567178,-0.15128931475359286,-0.5411896960237645,-0.02706879707623227
6045,7.0,299.90314,1143.567,0.0,0.0,0.0,0.0,-0.06024936393419687,0.0,-0.13021879918909487,-0.09311532939676752,-0.12428168049314688,-0.12599995001272687,-0.5060115979919565,-0.027206728785845076
6046,7.0,299.39148,1061.6766,0.0,0.0,0.0,0.0,-0.06025933074378069,0.0,-0.08291775342234511,-0.1138414047752719,-0.1259640201641809,-0.13036134321316287,-0.47965282883054855,-0.047174003455961656
6047,7.0,299.74745,1418.9509,0.0,0.0,0.0,0.0,-0.060269297553364506,0.0,-0.15731138433792485,-0.13078200412467889,-0.14323224380092187,-0.16054634740219084,-0.5304364374825005,-0.03925805595071846
6048,7.0,298.38189,1155.6011,0.0,0.0,0.0,0.0,-0.06027926436294834,0.0,-0.0872946138855576,-0.09827904138413622,-0.16570021363833784,-0.14921572882144588,-0.5154576828442126,-0.04658643188197286
6049,7.0,299.78893999999997,946.2610199999999,0.0,0.0,0.0,0.0,-0.060289231172532154,0.0,-0.05898523898313985,-0.09877861725319051,-0.1298758646927499,-0.1253147801626059,-0.5061916221372235,-0.036051944169799864
6050,7.0,300.63232999999997,1241.107,0.0,0.0,0.0,0.0,-0.06029919798211597,0.0,-0.07508088704765663,-0.1092028066124779,-0.19298185099082582,-0.0990897569746476,-0.5179633895465066,-0.008546934920841801
6051,7.0,300.17274,1447.2505,0.0,0.0,0.0,0.0,-0.060309164791699794,0.0,-0.17995572048774683,-0.1138108451522559,-0.14616145864751284,-0.14617468156131788,-0.5588034176796035,0.014059511856065788
6052,7.0,300.65132,1366.1771,0.0,0.0,0.0,0.0,-0.06031913160128361,0.0,-0.1196905834950409,-0.12495606936220387,-0.17063708223306884,-0.1252582610720279,-0.5672271129159575,0.002772305367905237
6053,7.0,300.91499,1198.8127,0.0,0.0,0.0,0.0,-0.06032909841086744,0.0,-0.17307619813879085,-0.0886235775179661,-0.1027093325516219,-0.11916011667018789,-0.5094561315744055,-0.028149999780938673
6054,7.0,300.58949,1230.0336,0.0,0.0,0.0,0.0,-0.06033906522045126,0.0,-0.08175241549558522,-0.10621143900475291,-0.18593565913292082,-0.11633372644374487,-0.4900280437595026,-0.03725067375360526
6055,7.0,300.8316,1219.9923,0.0,0.0,0.0,0.0,-0.06034903203003508,0.0,-0.1033286715427459,-0.10879699994742789,-0.15872154476709685,-0.16246028564858184,-0.5255331378635825,-0.06601963660988083
6056,7.0,299.56676,1190.3822,0.0,0.0,0.0,0.0,-0.0603589988396189,0.0,-0.08007792445982582,-0.11695758453031489,-0.16481094482057385,-0.16246845244438785,-0.5324484380735695,-0.03068568450069127
6057,7.0,299.81506,1044.0558,0.0,0.0,0.0,0.0,-0.060368965649202716,0.0,-0.14482339096295585,-0.06369495311745245,-0.1088485642450169,-0.15924108875587184,-0.5081401223445254,-0.03101090029253757
6058,7.0,299.79565,814.73181,0.0,0.0,0.0,0.0,-0.06037893245878654,0.0,-0.05093351697774675,-0.06474783041561334,-0.13197677798009386,-0.1263384768711369,-0.5196921259396196,0.002970711795161427
6059,7.0,299.50299,980.41041,0.0,0.0,0.0,0.0,-0.060388899268370363,0.0,-0.12959102995713886,-0.08495794465769632,-0.08347130512422642,-0.15695070783232884,-0.5541489520202435,-0.024221444731720478
6060,7.0,300.69136000000003,1648.9526,0.0,0.0,0.0,0.0,-0.06039886607795419,0.0,-0.11548621366260188,-0.14375237547475486,-0.24200182691622077,-0.1285060417500589,-0.5491785549797035,-0.0004925164542825895
6061,7.0,300.57204,1582.0933,0.0,0.0,0.0,0.0,-0.060408832887538004,0.0,-0.13867845467149786,-0.13892085449292085,-0.2033175592983808,-0.11191230830738488,-0.5027816099856814,-0.030419480394668973
6062,7.0,300.01417000000004,1251.4771,0.0,0.0,0.0,0.0,-0.06041879969712182,0.0,-0.07680701736151242,-0.1356591922885199,-0.16795157430052982,-0.08537261726112132,-0.5076794481865605,-0.03279163060128197
6063,7.0,300.4767,1287.9923,0.0,0.0,0.0,0.0,-0.060428766506705645,0.0,-0.1368006185261699,-0.1045279340961039,-0.15018893527749386,-0.13261601720318186,-0.5584081386830925,-0.03330628464507437
6064,7.0,300.9458,1208.272,0.0,0.0,0.0,0.0,-0.06043873331628946,0.0,-0.1051464118246429,-0.1339513491124689,-0.1281867666435489,-0.14202398358667587,-0.5843371884770905,-0.03811857920626086
6065,7.0,301.17161,901.4704300000001,0.0,0.0,0.0,0.0,-0.060448700125873285,0.0,-0.0915296841827765,-0.09354074346450261,-0.08895407538258372,-0.13843813201277985,-0.5171993179110985,-0.037457126501230564
6066,7.0,301.23884,902.9232800000001,0.0,0.0,0.0,0.0,-0.0604586669354571,0.0,-0.045149477067156454,-0.0938950354812185,-0.13542161553757287,-0.12877810953440988,-0.5255728268699995,-0.06451525000090944
6067,7.0,298.81272,934.2172300000001,0.0,0.0,0.0,0.0,-0.06046863374504092,0.0,-0.06296627532128754,-0.0884248487758531,-0.13258758540537588,-0.13645767389732388,-0.5103241424050715,-0.049439971131595255
6068,7.0,299.61311,1041.4235,0.0,0.0,0.0,0.0,-0.06047860055462475,0.0,-0.08167394535484084,-0.08415300357950482,-0.15073979882685987,-0.15164952516414285,-0.5411302283753955,-0.053041031589492256
6069,7.0,299.20018,1403.9496,0.0,0.0,0.0,0.0,-0.060488567364208566,0.0,-0.15290473938802285,-0.11858636380106288,-0.15527453885440384,-0.12212576799037488,-0.5106106996658525,-0.009280692646383053
6070,7.0,298.83685,1583.2341,0.0,0.0,0.0,0.0,-0.06049853417379239,0.0,-0.17065823889515683,-0.11310684911527691,-0.1974985551665898,-0.12979456150472587,-0.5468796627553205,0.015743479820010484
6071,7.0,299.72622,1458.2539,0.0,0.0,0.0,0.0,-0.06050850098337621,0.0,-0.17522124860049082,-0.100899567561262,-0.16715193758661184,-0.13354736629759886,-0.5453495233818075,0.026425284977472575
6072,7.0,300.81825,1360.4525,0.0,0.0,0.0,0.0,-0.06051846779296002,0.0,-0.08680360504609881,-0.12386787928480789,-0.20287211428941881,-0.14284196012740386,-0.5629876846300584,-0.01764559141123428
6073,7.0,300.42502,1434.0273,0.0,0.0,0.0,0.0,-0.060528434602543854,0.0,-0.13808034326996887,-0.1175092688122619,-0.18031888958858883,-0.11645628917584089,-0.49065238820612056,-0.007998507933991272
6074,7.0,301.23384,1327.0899,0.0,0.0,0.0,0.0,-0.06053840141212767,0.0,-0.12159589898308087,-0.11464678661725689,-0.16715951669735984,-0.1414447186370069,-0.5150218333136976,-0.030339697081794972
6075,7.0,299.93748,981.2584400000001,0.0,0.0,0.0,0.0,-0.060548368221711495,0.0,-0.0979012976938558,-0.08707427049231141,-0.11330249757708588,-0.14786677883081487,-0.5446662888393774,-0.025164043941997775
6076,7.0,300.46969,1007.7449,0.0,0.0,0.0,0.0,-0.06055833503129531,0.0,-0.10296391163924691,-0.07892074319637093,-0.12444464150672988,-0.13681822881290787,-0.5646623742628375,-0.029666351860340973
6077,7.0,299.97753,1207.2142,0.0,0.0,0.0,0.0,-0.06056830184087913,0.0,-0.12581060396653987,-0.1077191450210519,-0.13343321354133286,-0.12600128750285888,-0.5199388726039715,-0.016614534453976884
6078,7.0,298.69986,1040.6354,0.0,0.0,0.0,0.0,-0.06057826865046296,0.0,-0.048911395031428856,-0.0993438952984791,-0.16807188761740383,-0.12054793493465489,-0.5340084784575334,-0.04864618593700475
6079,7.0,299.62935,1374.0776,0.0,0.0,0.0,0.0,-0.060588235460046776,0.0,-0.12176058252183387,-0.13116150681713287,-0.16476317007835883,-0.14261802172280286,-0.5445324081036645,-0.012966445005938488
6080,7.0,300.94547,1489.2999,0.0,0.0,0.0,0.0,-0.0605982022696306,0.0,-0.12686179015028387,-0.13516250722200088,-0.1906856945417128,-0.15130949869558485,-0.5320213024939144,-0.03308286705102477
6081,7.0,300.11348,1304.432,0.0,0.0,0.0,0.0,-0.060608169079214416,0.0,-0.13534023128954087,-0.14227870452931485,-0.11889583064660489,-0.13607486800954388,-0.49116782853199054,-0.012081315314832988
6082,7.0,299.99066,1347.0855,0.0,0.0,0.0,0.0,-0.06061813588879823,0.0,-0.1302937796964949,-0.11930999662497989,-0.15987657895358984,-0.1268811128296909,-0.5158658503819955,-0.007471147328644833
6083,7.0,299.76201000000003,1377.8969,0.0,0.0,0.0,0.0,-0.060628102698382064,0.0,-0.16979781730773982,-0.09468569885225091,-0.15436274548691686,-0.13667504644127687,-0.5403490632108005,-0.0022230680849497377
6084,7.0,299.92613,1149.7816,0.0,0.0,0.0,0.0,-0.06063806950796588,0.0,-0.04881587999750225,-0.12235778199827288,-0.17833124752992383,-0.11500619656022788,-0.5424965150752374,-0.04249003094043956
6085,7.0,300.62326,1068.6491,0.0,0.0,0.0,0.0,-0.060648036317549704,0.0,-0.11560047787637888,-0.09659120787106,-0.11265095749778388,-0.10567852011465789,-0.5059540048562725,-0.053337421429243644
6086,7.0,300.67339,1222.3705,0.0,0.0,0.0,0.0,-0.06065800312713352,0.0,-0.0917966644383754,-0.11303331755551989,-0.16674013248096986,-0.11237429969047989,-0.5188917698181306,-0.04213735607088326
6087,7.0,300.58765,1121.2981,0.0,0.0,0.0,0.0,-0.06066796993671734,0.0,-0.13790379457254487,-0.10015371416265201,-0.1027891057319949,-0.15418686553455885,-0.5320405542458145,-0.04205490892349636
6088,7.0,301.13677,1121.3596,0.0,0.0,0.0,0.0,-0.06067793674630117,0.0,-0.12679518922121089,-0.08205954781289682,-0.13201058000342988,-0.13570452509799388,-0.5257008104901305,0.01065964335127489
6089,7.0,300.7141,1381.2959,0.0,0.0,0.0,0.0,-0.060687903555884985,0.0,-0.15790238272375184,-0.100415477193486,-0.16156159360488787,-0.14790432987952085,-0.5024697417374026,-0.0015381398949775886
6090,7.0,299.9623,1535.9714,0.0,0.0,0.0,0.0,-0.06069787036546881,0.0,-0.08846528150784351,-0.14958698365808587,-0.22884468317521178,-0.12905603390433887,-0.5462359652317924,0.019267194844774082
6091,7.0,299.85184,1380.1795,0.0,0.0,0.0,0.0,-0.060707837175052626,0.0,-0.13880750220423385,-0.11582018089556188,-0.16491243195058983,-0.17911214924949284,-0.5739993928743296,-0.03161020732918457
6092,7.0,300.09772000000004,1554.7622,0.0,0.0,0.0,0.0,-0.06071780398463644,0.0,-0.12635195309746688,-0.14703986542420486,-0.1992170678661938,-0.14294735840280587,-0.5377028592496405,-0.017899531138046182
6093,7.0,300.22467,1317.4653,0.0,0.0,0.0,0.0,-0.06072777079422027,0.0,-0.17045918591301185,-0.11558072963192989,-0.11443661828151488,-0.14188772171322786,-0.4895971388894756,-0.04044863697721966
6094,7.0,299.4199,778.22015,0.0,0.0,0.0,0.0,-0.06073773760380409,0.0,-0.07243783429430764,-0.07124735763256673,-0.09287430354248011,-0.09997848471685822,-0.49140957987334954,-0.015813373811908487
6095,7.0,299.3022,893.14121,0.0,0.0,0.0,0.0,-0.060747704413387914,0.0,-0.07248212041642833,-0.08133463221435322,-0.11767587752620488,-0.13763886006889786,-0.5387536603983465,-0.02554189301028858
6096,7.0,300.40533,1195.9264,0.0,0.0,0.0,0.0,-0.06075767122297173,0.0,-0.06756918580230943,-0.10732452463710591,-0.18863804781212581,-0.12137365270614689,-0.5465574188260175,-0.013641102386271985
6097,7.0,298.82357,1134.0245,0.0,0.0,0.0,0.0,-0.06076763803255555,0.0,-0.097949044065068,-0.11481273671863489,-0.13195337190278386,-0.14974976228665085,-0.5388303938284195,-0.04198543745689006
6098,7.0,298.48609,1270.3547,0.0,0.0,0.0,0.0,-0.06077760484213938,0.0,-0.08604433317641452,-0.12654791566680687,-0.17356385514691883,-0.13137302277550789,-0.5386746572880495,-0.03668130116466256
6099,7.0,299.29321,1591.1928,0.0,0.0,0.0,0.0,-0.060787571651723195,0.0,-0.1982785348285678,-0.14616877431323486,-0.13923558010648188,-0.15473076805573785,-0.5435369202779174,0.007707997376620113
6100,7.0,300.52628,1454.5592,0.0,0.0,0.0,0.0,-0.06079753846130702,0.0,-0.15523703846820286,-0.13019204938645487,-0.15672058860211785,-0.14724313352676585,-0.5159829415635515,-0.0033213430405910366
6101,7.0,300.57399,1224.4859,0.0,0.0,0.0,0.0,-0.060807505270890835,0.0,-0.13665107294391088,-0.0874394265765995,-0.14812264474606687,-0.1274965204104269,-0.5075392650352255,-0.008121095186739691
6102,7.0,300.64252999999997,1346.9520000000002,0.0,0.0,0.0,0.0,-0.06081747208047465,0.0,-0.08925052905709142,-0.1262048089179449,-0.19398443156727282,-0.12114087876067388,-0.5344578650093845,-0.03323716781600307
6103,7.0,300.44753,968.59281,0.0,0.0,0.0,0.0,-0.06082743889005848,0.0,-0.07812912230399402,-0.06841836335336673,-0.14788053876717286,-0.11672661417001988,-0.5610094657973235,-0.04136958404611006
6104,7.0,300.85165,851.3680199999999,0.0,0.0,0.0,0.0,-0.0608374056996423,0.0,-0.05119370947092575,-0.09795694944234822,-0.10964395544101589,-0.13071442034300887,-0.5561227936125465,-0.08033179325913073
6105,7.0,300.34966000000003,1072.9615,0.0,0.0,0.0,0.0,-0.06084737250922612,0.0,-0.16369172902511586,-0.06631053463409024,-0.09615123441263801,-0.13370802723345487,-0.5195800604785595,-0.012514709740355689
6106,7.0,300.16854,1035.7341,0.0,0.0,0.0,0.0,-0.06085733931880994,0.0,-0.11133153361506688,-0.09315686555811682,-0.11034892419809089,-0.16052530219761385,-0.5090987278666326,-0.033126791442859765
6107,7.0,299.39986,1185.281,0.0,0.0,0.0,0.0,-0.06086730612839376,0.0,-0.0983179471482259,-0.10982948153432591,-0.15214840898337886,-0.12134586938840489,-0.5415430163336346,0.01066776049782599
6108,7.0,299.87455,1596.0089,0.0,0.0,0.0,0.0,-0.06087727293797759,0.0,-0.14931549342629186,-0.12373586292927888,-0.2120955171671978,-0.14343913933884087,-0.5351425282344555,-0.025662433295184976
6109,7.0,300.16465,1791.4013,0.0,0.0,0.0,0.0,-0.060887239747561404,0.0,-0.16995041277279985,-0.16383297608905584,-0.2107578649151818,-0.12027219918494189,-0.5149989541264395,0.010936390324587689
6110,7.0,299.72265,1207.9725,0.0,0.0,0.0,0.0,-0.06089720655714523,0.0,-0.0975283841668021,-0.11360728320716589,-0.15605780144670583,-0.15625488872365687,-0.5159101800738705,-0.04711606682849375
6111,7.0,299.88595,1151.8874,0.0,0.0,0.0,0.0,-0.060907173366729045,0.0,-0.13679844003845487,-0.1033889092611909,-0.10995765767197589,-0.15002904441171386,-0.5493055253497345,0.01761687489015018
6112,7.0,300.0999,1153.0376,0.0,0.0,0.0,0.0,-0.06091714017631286,0.0,-0.1057514538568559,-0.1123193106075529,-0.1324238745867189,-0.15478012346810885,-0.5419593405347225,-0.039388653756107464
6113,7.0,299.85524,917.25666,0.0,0.0,0.0,0.0,-0.060927106985896685,0.0,-0.07222698404124833,-0.08008152960368162,-0.12651461013601986,-0.1037373153080759,-0.5227819510595615,-0.013923238836866685
6114,7.0,299.7231,855.90574,0.0,0.0,0.0,0.0,-0.0609370737954805,0.0,-0.05445882685816775,-0.09207438919803472,-0.1136407609904699,-0.14312551816788888,-0.5340106974752525,-0.07196988804037494
6115,7.0,300.33502000000004,1282.2324,0.0,0.0,0.0,0.0,-0.06094704060506433,0.0,-0.1030469981474469,-0.11756842235309989,-0.16915121175642484,-0.10880954398366591,-0.5762640372453325,-0.044314583302758864
6116,7.0,301.04852,1299.9613,0.0,0.0,0.0,0.0,-0.06095700741464815,0.0,-0.12038375802095189,-0.1147135597988469,-0.16005843708153786,-0.12941997307525688,-0.5395357374880315,-0.05487299891604335
6117,7.0,301.0165,1411.2336,0.0,0.0,0.0,0.0,-0.060966974224231966,0.0,-0.17234240241637083,-0.11546728615073389,-0.14117008732990285,-0.0979422867001511,-0.5155801037212945,0.0027532382301734574
6118,7.0,299.88469,1568.9988,0.0,0.0,0.0,0.0,-0.06097694103381579,0.0,-0.13985402743751787,-0.13486296009493787,-0.20221946976750782,-0.12827459516221687,-0.5049430143039955,-0.00013551957655724088
6119,7.0,299.8871,1380.5658,0.0,0.0,0.0,0.0,-0.06098690784339961,0.0,-0.12820975728831788,-0.11521241322057989,-0.17623538022807783,-0.15179247448825087,-0.5349789998008164,0.016473847717342182
6120,7.0,299.23523,1297.6356,0.0,0.0,0.0,0.0,-0.060996874652983424,0.0,-0.09629108521794022,-0.1257081441164279,-0.17244959414444982,-0.14357315179706687,-0.5339040934322316,-0.013582112991950187
6121,7.0,299.44329,1392.1058,0.0,0.0,0.0,0.0,-0.06100684146256725,0.0,-0.13829826296897588,-0.08993342314748781,-0.1949337050559588,-0.11431800722480889,-0.5408671278544295,-0.017155637365129584
6122,7.0,300.21904,1113.4454,0.0,0.0,0.0,0.0,-0.061016808272151064,0.0,-0.1009396730134701,-0.10249812056827691,-0.13502181744561587,-0.13386167647861888,-0.5371964064521575,-0.02901478543653637
6123,7.0,300.6972,769.36869,0.0,0.0,0.0,0.0,-0.061026775081734895,0.0,-0.08362317307571462,-0.05707998834310625,-0.09316571021823972,-0.14827525034362787,-0.5802014460739244,-0.04479724498789386
6124,7.0,301.16475,1186.0385,0.0,0.0,0.0,0.0,-0.06103674189131871,0.0,-0.07041807626047303,-0.11303164569285488,-0.17707636767857685,-0.1314821295462759,-0.5288545514263805,-0.038229955657252866
6125,7.0,301.85255,1462.4301,0.0,0.0,0.0,0.0,-0.061046708700902536,0.0,-0.17072478916172482,-0.1302132567110479,-0.14360416738262785,-0.11487010693929688,-0.49628680856719454,-0.03335012595040117
6126,7.0,301.33235,1195.8957,0.0,0.0,0.0,0.0,-0.06105667551048635,0.0,-0.08646964490588951,-0.11882983766759188,-0.15822295479038984,-0.10972280656379789,-0.49544258884887654,-0.05245768830817075
6127,7.0,302.17208999999997,1415.2001,0.0,0.0,0.0,0.0,-0.06106664232007017,0.0,-0.13169131502942089,-0.15189257346562984,-0.14660161449095285,-0.15508869865356284,-0.5549755006568176,-0.06168005868409785
6128,7.0,300.96808,1552.4044,0.0,0.0,0.0,0.0,-0.061076609129654,0.0,-0.14377043159153688,-0.14359243394646987,-0.18452929839162382,-0.13910687707877986,-0.5497414964702615,-0.004510812633057545
6129,7.0,300.16492999999997,1252.9574,0.0,0.0,0.0,0.0,-0.06108657593923782,0.0,-0.15365419995698887,-0.0965497102132145,-0.13066384903051786,-0.13230644903262986,-0.5601488212948845,-0.00021632241154935982
6130,7.0,299.33435,1133.3533,0.0,0.0,0.0,0.0,-0.06109654274882164,0.0,-0.07192448531664403,-0.1004165269205896,-0.17217009923686583,-0.11651439906907589,-0.5343563778793684,-0.002105253746797368
6131,7.0,300.01943,1089.8261,0.0,0.0,0.0,0.0,-0.06110650955840546,0.0,-0.13466617679301687,-0.05755332002132045,-0.13906042969419585,-0.15143709728067786,-0.5641184818741595,0.013673162632686088
6132,7.0,300.51405,1127.5510000000002,0.0,0.0,0.0,0.0,-0.061116476367989274,0.0,-0.06255040606949444,-0.094810360025304,-0.1853865687712298,-0.15495498003786584,-0.4964905022347975,-0.026813839033069872
6133,7.0,299.94829,1344.7902,0.0,0.0,0.0,0.0,-0.061126443177573105,0.0,-0.14773792381559786,-0.1125133176041999,-0.14853141010140886,-0.12298741561041289,-0.5007090474361355,-0.06486309572048914
6134,7.0,298.66281000000004,1542.7375,0.0,0.0,0.0,0.0,-0.06113640998715692,0.0,-0.15682249116467484,-0.12031263799643288,-0.1918185486835168,-0.1396691396917709,-0.49296045034390856,-0.039557246413746264
6135,7.0,300.43889,1271.6362,0.0,0.0,0.0,0.0,-0.061146376796740745,0.0,-0.1070830874032779,-0.12835530053268188,-0.15110726410812586,-0.14645131910361986,-0.5455064960872994,-0.04738857132363786
6136,7.0,301.47926,1127.935,0.0,0.0,0.0,0.0,-0.06115634360632456,0.0,-0.06397574397191434,-0.1262147590339269,-0.15267357651020885,-0.15667560029767785,-0.5474614810952415,-0.01207503620396329
6137,7.0,301.37613,1455.7393,0.0,0.0,0.0,0.0,-0.06116631041590838,0.0,-0.17119793642842085,-0.11449041172932388,-0.15682003909943285,-0.13395764139558988,-0.5131080875848255,0.003133716581148747
6138,7.0,301.54866,1455.6881,0.0,0.0,0.0,0.0,-0.06117627722549221,0.0,-0.13682020465060288,-0.13200127836751185,-0.17367137111502984,-0.14750860505296584,-0.5293479738275775,-0.017848996302558783
6139,7.0,299.91787,1018.2309,0.0,0.0,0.0,0.0,-0.061186244035076026,0.0,-0.1120416091526459,-0.08399288675895251,-0.11348228867482989,-0.12372902349110389,-0.5486446431045106,-0.02632870805744118
6140,7.0,299.16426,1107.3572,0.0,0.0,0.0,0.0,-0.06119621084465985,0.0,-0.1020880278553039,-0.1086843670663119,-0.12583655330160087,-0.16240999804611886,-0.5535536067914875,-0.04592206810940526
6141,7.0,299.34913,1496.4579,0.0,0.0,0.0,0.0,-0.06120617765424367,0.0,-0.12259439616162487,-0.13536493432697885,-0.1969265146901338,-0.1119415304402689,-0.5358556232573325,-0.016679370301375684
6142,7.0,299.80577999999997,1238.2302,0.0,0.0,0.0,0.0,-0.061216144463827483,0.0,-0.09884028162777632,-0.10394914537398191,-0.17360164937564884,-0.14602449763149586,-0.5284665678305895,-0.04675535688564446
6143,7.0,299.87942999999996,1072.8037,0.0,0.0,0.0,0.0,-0.061226111273411314,0.0,-0.0978195355035365,-0.0921723785887055,-0.13611361469336788,-0.12691647525818087,-0.5340789702669905,-0.029806894715461472
6144,7.0,300.38908,1078.7133,0.0,0.0,0.0,0.0,-0.06123607808299513,0.0,-0.09458898716995622,-0.08487993757224763,-0.14843297285419385,-0.16118068249479484,-0.5044559348484245,-0.07302548388855414
6145,7.0,299.87811,1184.6399,0.0,0.0,0.0,0.0,-0.061246044892578955,0.0,-0.13554949783269385,-0.11864551734190089,-0.1059059440996029,-0.11609697042537889,-0.4971607975734505,-0.017850593184716382
6146,7.0,299.77727000000004,1297.2483,0.0,0.0,0.0,0.0,-0.06125601170216277,0.0,-0.13572592494010588,-0.10865599606351191,-0.14994914964132885,-0.13712934725611287,-0.5098341751867155,-0.04785012092968925
6147,7.0,300.2671,1380.994,0.0,0.0,0.0,0.0,-0.06126597851174659,0.0,-0.10918487208570789,-0.1096963303386849,-0.2009064901554268,-0.12774362171231388,-0.5467167118742384,0.016639408730681787
6148,7.0,299.95977,1028.8763,0.0,0.0,0.0,0.0,-0.06127594532133042,0.0,-0.0928234130562076,-0.09145591248274582,-0.12847337456683489,-0.14000341089976087,-0.5580272985005065,0.0029334939030883074
6149,7.0,298.65677999999997,1170.7085,0.0,0.0,0.0,0.0,-0.061285912130914236,0.0,-0.09908669797259571,-0.0990404349995299,-0.15773901641012886,-0.1073122643108959,-0.5446593480761925,0.02618993129724497
6150,7.0,298.24644,1620.6271,0.0,0.0,0.0,0.0,-0.06129587894049806,0.0,-0.17900806819922083,-0.14052714974394986,-0.17309494326564084,-0.14285576059376587,-0.5403092120843676,-0.02000866796320178
6151,7.0,298.93113,1422.6299,0.0,0.0,0.0,0.0,-0.061305845750081876,0.0,-0.16177435586088584,-0.11524593153388789,-0.15542368926912384,-0.13337261105285186,-0.5466664445367775,-0.03286852209837057
6152,7.0,299.81706,927.2679199999999,0.0,0.0,0.0,0.0,-0.06131581255966569,0.0,-0.05853114284482404,-0.11542058545362488,-0.10791457056783889,-0.15507562772727285,-0.5279404782461685,-0.0895771674520781
6153,7.0,299.74,1083.2261,0.0,0.0,0.0,0.0,-0.061325779369249524,0.0,-0.07094175126990573,-0.11920605742972187,-0.13912589578315687,-0.1327885939602139,-0.5234322651062425,-0.05824504661283854
6154,7.0,300.00577999999996,1128.6069,0.0,0.0,0.0,0.0,-0.06133574617883334,0.0,-0.096026331072811,-0.08463674437599633,-0.16240523577064886,-0.13874884515594485,-0.5363338671720315,-0.013941700253688684
6155,7.0,300.71178,930.47006,0.0,0.0,0.0,0.0,-0.061345712988417164,0.0,-0.06573566617660515,-0.08247966156935882,-0.13462433969638787,-0.14801481467042485,-0.5391145800839665,-0.029469863414199073
6156,7.0,299.93287000000004,1011.2558,0.0,0.0,0.0,0.0,-0.06135567979800098,0.0,-0.09174830099785232,-0.09676554768326599,-0.1188826685278059,-0.12134919284873288,-0.5472989760442035,-0.029544698013584676
6157,7.0,299.62989,1157.2713,0.0,0.0,0.0,0.0,-0.0613656466075848,0.0,-0.16509877877648085,-0.08360039926646702,-0.1030824112384419,-0.13613275498775687,-0.5064893859441105,-0.024245771853371376
6158,7.0,298.76276,1319.5734,0.0,0.0,0.0,0.0,-0.06137561341716863,0.0,-0.0879990912163341,-0.13376038186612188,-0.17935787253124383,-0.1119270308313379,-0.5064057522808565,-0.03957635124438176
6159,7.0,298.99927,1373.2326,0.0,0.0,0.0,0.0,-0.061385580226752445,0.0,-0.13961744367166887,-0.1072305963528359,-0.17058038075747284,-0.15215202628623584,-0.5397264615543544,-0.01987135332289988
6160,7.0,299.47221,1525.5694,0.0,0.0,0.0,0.0,-0.06139554703633627,0.0,-0.13127978350130587,-0.12285005942685688,-0.2096051612039188,-0.13965927063579686,-0.5286183425630685,0.014910507177802484
6161,7.0,300.23311,1243.4607,0.0,0.0,0.0,0.0,-0.061405513845920086,0.0,-0.11988116570634988,-0.12438187066303488,-0.13371796721693588,-0.15486413203389987,-0.5316201770443265,-0.01888193385200178
6162,7.0,299.80965,1068.8559,0.0,0.0,0.0,0.0,-0.0614154806555039,0.0,-0.10547672122474192,-0.07615150838156873,-0.14327727263536585,-0.1112839513903709,-0.5655223196227075,-0.011886777375133589
6163,7.0,300.17213,1445.3813,0.0,0.0,0.0,0.0,-0.06142544746508773,0.0,-0.18498645657174181,-0.1013586803008229,-0.15301468715637387,-0.14588798244552287,-0.5510961307939535,-0.04508810957484996
6164,7.0,300.14054,1434.2971,0.0,0.0,0.0,0.0,-0.06143541427467155,0.0,-0.1063863867670189,-0.13818404941770387,-0.1914200678166898,-0.0943137266345401,-0.5350682266046225,-0.056896228344720544
6165,7.0,299.56002,951.39574,0.0,0.0,0.0,0.0,-0.061445381084255374,0.0,-0.0880365966687856,-0.09019416684872122,-0.11096978306436489,-0.13528324610391687,-0.5061444756100705,-0.052904515390269156
6166,7.0,300.23262,1139.5994,0.0,0.0,0.0,0.0,-0.06145534789383919,0.0,-0.07999024691542272,-0.0991632074743966,-0.16725631247941283,-0.1188499709470789,-0.5200736855297765,-0.017651086266526585
6167,7.0,300.05165,1364.8362,0.0,0.0,0.0,0.0,-0.06146531470342301,0.0,-0.12410421987063289,-0.11357087713107288,-0.17720101770587884,-0.13422685181465888,-0.5538987704380525,-0.014505906280371485
6168,7.0,299.9512,1357.3559,0.0,0.0,0.0,0.0,-0.06147528151300683,0.0,-0.12220954350864288,-0.14105627907867085,-0.14933647783586285,-0.14165398518015987,-0.5699720580993625,-0.01858266435546618
6169,7.0,299.51333,1535.1965,0.0,0.0,0.0,0.0,-0.06148524832259065,0.0,-0.15667358392997885,-0.13792640018227587,-0.17206140789863883,-0.13770545086546987,-0.5186922406084384,-0.03138919113787197
6170,7.0,300.21797000000004,1487.0279999999998,0.0,0.0,0.0,0.0,-0.061495215132174465,0.0,-0.10453102450890892,-0.13638898567304486,-0.21109937072888582,-0.14048794709758086,-0.5321962198586775,-0.028694383595915175
6171,7.0,301.64279,1022.841,0.0,0.0,0.0,0.0,-0.061505181941758295,0.0,-0.08939167378277132,-0.09077072338087291,-0.13075573054958586,-0.13037588335209788,-0.5217745372801375,-0.01921324636969978
6172,7.0,301.33162999999996,1123.569,0.0,0.0,0.0,0.0,-0.06151514875134211,0.0,-0.08663415315237523,-0.08051646822235672,-0.17438631025308884,-0.13541947757986186,-0.5267988696235004,-0.02311924849819218
6173,7.0,299.53472999999997,1256.9731,0.0,0.0,0.0,0.0,-0.061525115560925936,0.0,-0.14968002028226784,-0.09356940020383082,-0.13883903454734586,-0.13091561128286486,-0.5003577840239685,-0.005985210281469265
6174,7.0,300.38234,963.0115900000001,0.0,0.0,0.0,0.0,-0.06153508237050975,0.0,-0.11598908968723189,-0.07230586252178303,-0.1044365288045829,-0.14249559071321988,-0.5584619523959035,-0.05403321216691285
6175,7.0,300.17065,955.3932900000001,0.0,0.0,0.0,0.0,-0.06154504918009357,0.0,-0.08760195695889,-0.09479127748617072,-0.10802247157098789,-0.1261063210082249,-0.5585132127184624,-0.05151303118694035
6176,7.0,299.63042,1301.8022,0.0,0.0,0.0,0.0,-0.06155501598967739,0.0,-0.1150498473745359,-0.12486621434333588,-0.15579931121369486,-0.12840984378556486,-0.5550831280824395,-0.07757637816244242
6177,7.0,299.35449,1335.4084,0.0,0.0,0.0,0.0,-0.06156498279926121,0.0,-0.12639693126940588,-0.12411127209132888,-0.15542260509151684,-0.13295006549614988,-0.5056936502430774,-0.018632326782617482
6178,7.0,299.5581,1135.2911,0.0,0.0,0.0,0.0,-0.06157494960884504,0.0,-0.1033074540856519,-0.08172645298827293,-0.16006624923980886,-0.14907013491457685,-0.5387744320253965,-0.020869173650377083
6179,7.0,299.82589,1282.0813,0.0,0.0,0.0,0.0,-0.06158491641842886,0.0,-0.12300847094749089,-0.09490869898725932,-0.17180354588068983,-0.1257196951675679,-0.5330704216474544,0.025092702015706875
6180,7.0,300.98882000000003,1280.3798,0.0,0.0,0.0,0.0,-0.061594883228012674,0.0,-0.15089005368418884,-0.06829625962356603,-0.17001716568938782,-0.11597549187088989,-0.5506636047237664,0.011486807030659591
6181,7.0,300.55807000000004,1193.6398,0.0,0.0,0.0,0.0,-0.0616048500375965,0.0,-0.0940162465376811,-0.10935311213231189,-0.15946734750320185,-0.1156653360152799,-0.5259721892644135,-0.037814639640014365
6182,7.0,300.2701,1342.3815,0.0,0.0,0.0,0.0,-0.061614816847180315,0.0,-0.11895447756239289,-0.1021804767944279,-0.18691550237712382,-0.15134327032141787,-0.5691930308924785,-0.02196088375862048
6183,7.0,299.65665,1234.4139,0.0,0.0,0.0,0.0,-0.061624783656764145,0.0,-0.11059854849272689,-0.11571184419486989,-0.14892062986232185,-0.17267037120873885,-0.5366993363506004,-0.04900833672149625
6184,7.0,299.95197,867.54965,0.0,0.0,0.0,0.0,-0.061634750466347955,0.0,-0.05057804857766475,-0.10079230287917582,-0.1123430814548989,-0.16353722864986783,-0.5210030182564945,-0.04418369165484086
6185,7.0,300.20962000000003,1132.6073,0.0,0.0,0.0,0.0,-0.06164471727593178,0.0,-0.13513678080196187,-0.09494888347297521,-0.11419868689303289,-0.14506584144688386,-0.4913195323369625,-0.04355574713061755
6186,7.0,300.06487000000004,1436.9157,0.0,0.0,0.0,0.0,-0.06165468408551561,0.0,-0.15316129431334286,-0.11470600095310088,-0.16891920788102782,-0.14040284422168187,-0.5446179264121045,-0.013855627697443989
6187,7.0,300.28914,1239.0035,0.0,0.0,0.0,0.0,-0.06166465089509942,0.0,-0.08501748222032222,-0.13277198679107488,-0.15883664997845687,-0.1301049605403599,-0.5587958081713524,-0.06294464648465294
6188,7.0,300.05882,1289.6642,0.0,0.0,0.0,0.0,-0.06167461770468325,0.0,-0.09674830014006382,-0.12287352629917289,-0.17240387629993784,-0.10180350722722391,-0.5699731220119675,-0.03161357739901717
6189,7.0,299.89768,1646.766,0.0,0.0,0.0,0.0,-0.06168458451426706,0.0,-0.16197303394049387,-0.16164472064309185,-0.17695797953689282,-0.12907912587411788,-0.5319706906514194,-0.017147395588816183
6190,7.0,300.70488,1519.2993,0.0,0.0,0.0,0.0,-0.061694551323850884,0.0,-0.13932924494572588,-0.13533194290372286,-0.18716787257953083,-0.1300976246096359,-0.5630263401213734,-0.006543218561265394
6191,7.0,300.9261,1031.8593,0.0,0.0,0.0,0.0,-0.061704518133434715,0.0,-0.12583026101847988,-0.08124664968167002,-0.1065825418538779,-0.16157764348647186,-0.5456997127488685,-0.006487187046635513
6192,7.0,299.42183,1091.5311,0.0,0.0,0.0,0.0,-0.061714484943018524,0.0,-0.07611593013080742,-0.11445993316631588,-0.14122234063755987,-0.12836590926122887,-0.5299070447027535,-0.027114263634719474
6193,7.0,299.95448999999996,1170.8159,0.0,0.0,0.0,0.0,-0.061724451752602355,0.0,-0.0996264887248689,-0.09848270566748632,-0.15778959785512084,-0.13328048635375986,-0.5137618365493455,-0.04495281738174766
6194,7.0,299.64397,1132.5624,0.0,0.0,0.0,0.0,-0.061734418562186165,0.0,-0.1021463809285629,-0.1034784096425239,-0.13864590907828586,-0.11803399050904789,-0.5530229677141174,-0.05175525267634575
6195,7.0,299.25525,1224.4665,0.0,0.0,0.0,0.0,-0.061744385371769996,0.0,-0.11985679704144489,-0.11121662092122589,-0.14113382310882386,-0.15436106349175086,-0.5422816351265305,-0.057167719589764646
6196,7.0,299.92476,1232.5752,0.0,0.0,0.0,0.0,-0.06175435218135382,0.0,-0.1129062154629759,-0.1003531916965889,-0.16141268637019185,-0.1138690766355029,-0.5263991525915516,-0.014119120346198685
6197,7.0,299.90436,1191.1616,0.0,0.0,0.0,0.0,-0.06176431899093763,0.0,-0.14298039035606588,-0.1014701580768249,-0.11763284479445789,-0.14360271843498484,-0.5174686701851815,-0.03117812506254137
6198,7.0,300.14243,1526.6808,0.0,0.0,0.0,0.0,-0.06177428580052146,0.0,-0.1251038113592849,-0.13231703749617488,-0.2066520032574648,-0.12633604507089688,-0.5349911182720125,0.0015024213090774387
6199,7.0,300.83187000000004,1557.6828,0.0,0.0,0.0,0.0,-0.06178425261010527,0.0,-0.12931870886026287,-0.12604731945490188,-0.2181306576778198,-0.15788311070684985,-0.5649477156234984,-0.027939192084383575
6200,7.0,298.83181,1108.3365,0.0,0.0,0.0,0.0,-0.0617942194196891,0.0,-0.06859992662553564,-0.1102286514112209,-0.15807802962858686,-0.1217313097264449,-0.5442014806210045,-0.00975390577433555
6201,7.0,298.73602,1192.9045,0.0,0.0,0.0,0.0,-0.061804186229272924,0.0,-0.1030739607326079,-0.11323310007773689,-0.14630610009928785,-0.15292632161515285,-0.5500305767237915,-0.03542242606817127
6202,7.0,299.22906,1467.1928,0.0,0.0,0.0,0.0,-0.061814153038856734,0.0,-0.17660525704458183,-0.11648693999136589,-0.15289778849233684,-0.12471814810622288,-0.5554439869730535,-0.007963986300434253
6203,7.0,299.2366,1088.0454,0.0,0.0,0.0,0.0,-0.061824119848440565,0.0,-0.1380687820863279,-0.08142461490273382,-0.11124524523655088,-0.14582659975446485,-0.5447985889049345,-0.03171191230797207
6204,7.0,299.76122000000004,1054.4673,0.0,0.0,0.0,0.0,-0.061834086658024374,0.0,-0.06984109416327934,-0.1096077621474439,-0.14108287689379587,-0.1143098302965019,-0.5203378296983455,-0.04956077992776815
6205,7.0,300.07538999999997,1408.5864,0.0,0.0,0.0,0.0,-0.061844053467608205,0.0,-0.11769881750846889,-0.13366034368374888,-0.17681593200537382,-0.11300620298284389,-0.5056800017642306,-0.04852711993100386
6206,7.0,299.84017,1361.0947,0.0,0.0,0.0,0.0,-0.06185402027719203,0.0,-0.11697614727214689,-0.12084010560098987,-0.17592253925970283,-0.13888708286708787,-0.5332050319232395,-0.038095006955934464
6207,7.0,300.09362000000004,1328.1214,0.0,0.0,0.0,0.0,-0.06186398708677584,0.0,-0.1014280676676709,-0.1174741394312949,-0.1848135251771748,-0.14531316566379288,-0.5466025185879685,-0.01188106264456959
6208,7.0,300.01461,1403.4449,0.0,0.0,0.0,0.0,-0.06187395389635967,0.0,-0.14689099871951286,-0.11452032287227588,-0.16520089412155883,-0.14835580372657786,-0.5463560151036404,-0.018641127872986083
6209,7.0,299.18299,1213.9205,0.0,0.0,0.0,0.0,-0.06188392070594348,0.0,-0.13155835635129887,-0.08675533381133481,-0.15068782922923085,-0.13624025069086587,-0.5108738407168225,0.018709716798755282
6210,7.0,299.5349,1162.6213,0.0,0.0,0.0,0.0,-0.06189388751552731,0.0,-0.08210164430155142,-0.12253217247298387,-0.14877402270535287,-0.14328323054595385,-0.5462748740356325,-0.03039399107515337
6211,7.0,300.04328,1280.0914,0.0,0.0,0.0,0.0,-0.061903854325111134,0.0,-0.12176751315251788,-0.09400847693591431,-0.17333983568230985,-0.1264254238622179,-0.5278843948531335,-0.0075085275433839724
6212,7.0,299.98442,1167.4073,0.0,0.0,0.0,0.0,-0.061913821134694944,0.0,-0.08962569706561761,-0.11360994805492888,-0.15162702087942184,-0.13914049671709788,-0.5167091885727265,-0.045726285898583054
6213,7.0,299.36721,974.3182400000001,0.0,0.0,0.0,0.0,-0.061923787944278774,0.0,-0.06730815737779794,-0.09224584124745572,-0.13661441355529286,-0.12550340680122188,-0.5450848928531905,-0.03908440514858046
6214,7.0,299.5103,1159.7925,0.0,0.0,0.0,0.0,-0.061933754753862584,0.0,-0.14260047223107086,-0.08121241297404112,-0.12873508693516386,-0.13334282149991186,-0.5633538529511964,-0.047197822939312455
6215,7.0,300.23384,1328.3014,0.0,0.0,0.0,0.0,-0.061943721563446415,0.0,-0.13181577253920387,-0.1051963853195749,-0.16675830005526285,-0.13511059841937786,-0.5618247369602845,-0.028424912771570474
6216,7.0,299.29146000000003,1137.6611,0.0,0.0,0.0,0.0,-0.06195368837303023,0.0,-0.09245509968460791,-0.097328185198794,-0.15603728313218085,-0.11872445965719189,-0.5272887557818485,-0.04758017590429775
6217,7.0,298.94453,1298.6549,0.0,0.0,0.0,0.0,-0.06196365518261405,0.0,-0.08628106487677811,-0.12577667022069086,-0.18270092911617783,-0.12229629798220487,-0.5288275381787145,-0.028185486839190976
6218,7.0,298.50132,1551.0918,0.0,0.0,0.0,0.0,-0.06197362199219788,0.0,-0.12899756937356888,-0.13052819510712987,-0.2119674119570548,-0.13150559641859189,-0.5229731310884295,-0.005196755187704806
6219,7.0,298.93639,1340.5255,0.0,0.0,0.0,0.0,-0.06198358880178169,0.0,-0.0915621395967296,-0.13483211676189388,-0.18109201967989083,-0.13949697836727984,-0.5466627157764095,-0.012909757715843887
6220,7.0,299.35624,1137.9951,0.0,0.0,0.0,0.0,-0.06199355561136552,0.0,-0.12461713720375388,-0.0991712405211894,-0.12213370173865788,-0.14864315132243686,-0.5455171757433535,-0.007606256123479033
6221,7.0,300.39237,1373.2393,0.0,0.0,0.0,0.0,-0.062003522420949336,0.0,-0.13058832136806386,-0.12090387956228388,-0.16593826661683184,-0.12124077508803288,-0.5484667062544495,-0.011377347648856789
6222,7.0,299.87214,1242.474,0.0,0.0,0.0,0.0,-0.06201348923053315,0.0,-0.14267651665107586,-0.08028396582791052,-0.15472058489223287,-0.1155139665828409,-0.5525884556737345,-0.024637130585245477
6223,7.0,299.95673,1125.9041,0.0,0.0,0.0,0.0,-0.06202345604011698,0.0,-0.09679512242718481,-0.100875158366353,-0.14457646191358586,-0.09504386351084901,-0.5426044059458854,-0.06522692140739594
6224,7.0,300.34726,1219.1136,0.0,0.0,0.0,0.0,-0.062033422849700794,0.0,-0.10455637602641091,-0.0977486748710431,-0.16827503412995284,-0.14636541576014186,-0.5190011906964295,-0.05603229989870745
6225,7.0,299.78749,1209.9388,0.0,0.0,0.0,0.0,-0.06204338965928461,0.0,-0.11570444746913988,-0.08969577445578372,-0.16239095907673984,-0.13797267531434285,-0.5379523822192664,-0.04725218482042755
6226,7.0,299.2111,1182.552,0.0,0.0,0.0,0.0,-0.06205335646886844,0.0,-0.1202285990331389,-0.09839887442046281,-0.14083882547470986,-0.16796720874957285,-0.5548541538248415,-0.03140340501027477
6227,7.0,299.28944,1371.4351,0.0,0.0,0.0,0.0,-0.06206332327845225,0.0,-0.12373669379436088,-0.11832934278069689,-0.17481597895799383,-0.13158521761144987,-0.5720333735727985,-0.03241126360649267
6228,7.0,299.89598,1394.3462,0.0,0.0,0.0,0.0,-0.06207329008803608,0.0,-0.12159958721344488,-0.13892937592626187,-0.16331747496817983,-0.1174728120736639,-0.5292560821760085,-0.011988936289965887
6229,7.0,300.56595,1081.6872,0.0,0.0,0.0,0.0,-0.0620832568976199,0.0,-0.08137674390175932,-0.10737093149168589,-0.14005821759766987,-0.13560235909041085,-0.5471419628087074,-0.01909802260807808
6230,7.0,301.15602,1198.7022,0.0,0.0,0.0,0.0,-0.062093223707203715,0.0,-0.0969087959161535,-0.11408354115166888,-0.15338320621774384,-0.13926405243429188,-0.5305964094082886,-0.014505678299098986
6231,7.0,301.26995,1409.4118,0.0,0.0,0.0,0.0,-0.062103190516787546,0.0,-0.15265464899834086,-0.1153652923956679,-0.16040604266084385,-0.14852175382795585,-0.5542310658083475,-2.3039749908596277e-05
6232,7.0,301.17609,1254.4139,0.0,0.0,0.0,0.0,-0.062113157326371356,0.0,-0.1305281647096269,-0.12381309285190088,-0.12696926558839086,-0.12991020373863887,-0.5205674220385045,-0.028391247536997972
6233,7.0,299.61877000000004,1085.0026,0.0,0.0,0.0,0.0,-0.062123124135955186,0.0,-0.0902177674700504,-0.1082466734206149,-0.13134926206066286,-0.14028112248716887,-0.5843310684464864,-0.048522044561252954
6234,7.0,300.07873,1301.3533,0.0,0.0,0.0,0.0,-0.062133090945538996,0.0,-0.1351317956114699,-0.0939870244047971,-0.16646008028583084,-0.13722666992821786,-0.5664876125954744,-0.04057369838406226
6235,7.0,299.95065,1405.2575,0.0,0.0,0.0,0.0,-0.06214305775512282,0.0,-0.12202553729048288,-0.12744858354819588,-0.17768905974904484,-0.14852128773290987,-0.5613616411345804,-0.06981509517896343
6236,7.0,300.24996,1311.3185,0.0,0.0,0.0,0.0,-0.06215302456470665,0.0,-0.11186182818740288,-0.12184913044807288,-0.16489711160907783,-0.13834902679898586,-0.5119972007051895,-0.04852790216008105
6237,7.0,299.6457,1251.612,0.0,0.0,0.0,0.0,-0.06216299137429046,0.0,-0.11331953031126689,-0.1061150181252369,-0.16102423667935487,-0.14651249914465786,-0.5090739133716835,-0.02363886848072468
6238,7.0,299.73213,1170.8606,0.0,0.0,0.0,0.0,-0.06217295818387429,0.0,-0.1005209656481469,-0.11997535743564589,-0.13541606292702488,-0.15222230531317185,-0.5253543498834374,0.0033999775305016567
6239,7.0,300.20788999999996,1162.5493,0.0,0.0,0.0,0.0,-0.0621829249934581,0.0,-0.07778183691171962,-0.1103562297313119,-0.16524789879369783,-0.1116082015548719,-0.5674453365899944,-0.021368423252899182
6240,7.0,301.68957,1348.4078,0.0,0.0,0.0,0.0,-0.062192891803041925,0.0,-0.13083407504731787,-0.11591190029461389,-0.16313630585029984,-0.11679519093678788,-0.5475439089908765,-0.01103643255996109
6241,7.0,300.92917,1232.3268,0.0,0.0,0.0,0.0,-0.062202858612625755,0.0,-0.1065734631329819,-0.1059862441700279,-0.16203685856429284,-0.1026567651364339,-0.5604169374038455,-0.03290344984256767
6242,7.0,300.86978,1183.5378,0.0,0.0,0.0,0.0,-0.062212825422209565,0.0,-0.12497128837870587,-0.1018476545340809,-0.13294697508334485,-0.15407963327647586,-0.5594732063932065,-0.033671347510353264
6243,7.0,301.30315,1408.2218,0.0,0.0,0.0,0.0,-0.062222792231793396,0.0,-0.13591524058878987,-0.12555814257162387,-0.16659089087374085,-0.17006099888871384,-0.5404389587596725,-0.03771411712409357
6244,7.0,301.20707000000004,1564.9018,0.0,0.0,0.0,0.0,-0.062232759041377206,0.0,-0.16574434068019284,-0.11850454385548789,-0.19144218706637284,-0.14491488744698586,-0.5005706780024795,-0.034599840252738365
6245,7.0,300.71057,1256.1359,0.0,0.0,0.0,0.0,-0.06224272585096103,0.0,-0.08892601240781411,-0.1121847408617719,-0.18072319664349082,-0.13223892604596588,-0.5358341930177175,-0.03492886282521037
6246,7.0,300.07805,1074.1188,0.0,0.0,0.0,0.0,-0.06225269266054486,0.0,-0.09718070968648931,-0.08571512619242432,-0.14360945654814986,-0.14277517681331287,-0.5583104715059535,-0.042848444858562255
6247,7.0,299.56392999999997,1252.6483,0.0,0.0,0.0,0.0,-0.06226265947012867,0.0,-0.0968655291236334,-0.08845713497703951,-0.19545113135202483,-0.11173509086489489,-0.5854484502592635,-0.02854675001659487
6248,7.0,299.85692,1192.7745,0.0,0.0,0.0,0.0,-0.0622726262797125,0.0,-0.11632057445744688,-0.12560463048621187,-0.12064846960957688,-0.13231550748852386,-0.5449983410296485,-0.04416669033141296
6249,7.0,299.39477,1170.8539,0.0,0.0,0.0,0.0,-0.06228259308929631,0.0,-0.08915625322803711,-0.1115641657055259,-0.15518992233855283,-0.14700024734529488,-0.5295398935290185,0.0034885248487905966
6250,7.0,299.80442999999997,1356.2479999999998,0.0,0.0,0.0,0.0,-0.062292559898880134,0.0,-0.13599522655168386,-0.13039832684181288,-0.14587198322644385,-0.17263183730743584,-0.5237039377230546,-0.008354537066678611
6251,7.0,300.14592999999996,1382.1417,0.0,0.0,0.0,0.0,-0.062302526708463965,0.0,-0.10166023366308391,-0.15014985422113686,-0.16832648697003083,-0.13637907608706687,-0.5360153114730924,-0.018868826448708183
6252,7.0,300.80469,1304.0005,0.0,0.0,0.0,0.0,-0.062312493518047775,0.0,-0.12146328480999288,-0.0976489041866965,-0.17727139805782482,-0.13925652398604887,-0.5170588307847335,-0.027777634422189074
6253,7.0,300.87927,1628.3082,0.0,0.0,0.0,0.0,-0.062322460327631606,0.0,-0.13062542658672588,-0.15890310905251587,-0.2054364983050038,-0.08928774674651452,-0.5548294507874034,-0.034591420144407366
6254,7.0,301.49471,1661.0929,0.0,0.0,0.0,0.0,-0.062332427137215415,0.0,-0.17364805623022883,-0.13417313942685788,-0.1971095785857008,-0.13493205361925686,-0.5591874901300085,-0.023549328582637776
6255,7.0,301.10207,1297.907,0.0,0.0,0.0,0.0,-0.06234239394679924,0.0,-0.1016529787923679,-0.11288661920604189,-0.17999171113129883,-0.12879350080342888,-0.5501316686862685,-0.05184612601156425
6256,7.0,300.05849,1050.1517,0.0,0.0,0.0,0.0,-0.06235236075638307,0.0,-0.08913760132019632,-0.0957066253350085,-0.13437567798934688,-0.14795781935229987,-0.5130847321700205,-0.025156846826537477
6257,7.0,299.40808,1070.6147,0.0,0.0,0.0,0.0,-0.06236232756596688,0.0,-0.052106484677759655,-0.09191777619632822,-0.18141587467685283,-0.14418930918287687,-0.5263617737953624,-0.018303930398707285
6258,7.0,299.99194,1213.2598,0.0,0.0,0.0,0.0,-0.06237229437555071,0.0,-0.11925232242928788,-0.11398572198701488,-0.13556262955398987,-0.16616169839638284,-0.5402804763115314,-0.007455708234221112
6259,7.0,299.69333,1353.2575,0.0,0.0,0.0,0.0,-0.06238226118513452,0.0,-0.11364529021841689,-0.1220530065006939,-0.17565820257361484,-0.15081629920940987,-0.5646077499499464,-0.03776817908317907
6260,7.0,299.70097000000004,1308.1607,0.0,0.0,0.0,0.0,-0.062392227994718344,0.0,-0.16050811747591784,-0.1083458807379059,-0.12879419994599786,-0.12217160742489888,-0.5458424087604514,-0.00940435161376224
6261,7.0,300.10857000000004,1124.7211,0.0,0.0,0.0,0.0,-0.062402194804302175,0.0,-0.07384288794297562,-0.13641494514060687,-0.13162928385829886,-0.1377852645758469,-0.5609421859906835,-0.04538515397416596
6262,7.0,300.22713999999996,1616.979,0.0,0.0,0.0,0.0,-0.062412161613885984,0.0,-0.15985774263423083,-0.15014965157111684,-0.18151384582902183,-0.12931590215748587,-0.5541569566960335,-0.006100718259744014
6263,7.0,301.2155,1931.0615,0.0,0.0,0.0,0.0,-0.062422128423469815,0.0,-0.17057007600395585,-0.17356155506919185,-0.24286285645369776,-0.13590945493071885,-0.5450234088371225,-0.03455442537000626
6264,7.0,301.24703999999997,1316.8777,0.0,0.0,0.0,0.0,-0.062432095233053625,0.0,-0.12057055067688688,-0.1137728989360109,-0.16595448875093285,-0.1030240784301849,-0.5398569985647375,-0.026324465579272475
6265,7.0,301.16766,755.23208,0.0,0.0,0.0,0.0,-0.062442062042637456,0.0,-0.03654891193309676,-0.05925123435964154,-0.1337715478822239,-0.1106090052337589,-0.5557069963015104,-0.04736892339094875
6266,7.0,301.25408,1219.1473,0.0,0.0,0.0,0.0,-0.06245202885222128,0.0,-0.12740163967106288,-0.08291657703897902,-0.16027212139512684,-0.13960438287787985,-0.5642844826380424,-0.014406847910845186
6267,7.0,300.49563,1528.3587,0.0,0.0,0.0,0.0,-0.06246199566180509,0.0,-0.13368688070386786,-0.12854095834850487,-0.20235503249838682,-0.14251640287027387,-0.5461393011722525,-0.04736539930710096
6268,7.0,299.39501,1184.0148,0.0,0.0,0.0,0.0,-0.06247196247138892,0.0,-0.1050362816712739,-0.09388411973789122,-0.16099052584852783,-0.15356974556115385,-0.5370574898634475,0.003143010111065947
6269,7.0,300.03312999999997,1044.6602,0.0,0.0,0.0,0.0,-0.06248192928097273,0.0,-0.0877884263880431,-0.10588748268278089,-0.12387468832547988,-0.13826468386066187,-0.5317567428928045,-0.027099156075728475
6270,7.0,300.0438,1323.031,0.0,0.0,0.0,0.0,-0.06249189609055656,0.0,-0.11993145330881289,-0.12128135575453788,-0.16095556872007785,-0.14149763055722886,-0.5434595181027785,-0.012277880767982488
6271,7.0,301.18773,1584.145,0.0,0.0,0.0,0.0,-0.06250186290014037,0.0,-0.14724696361214387,-0.16177802382624784,-0.17251555672595983,-0.13001432531891488,-0.5618664018043965,-0.06552477438029174
6272,7.0,300.87892999999997,1686.6955,0.0,0.0,0.0,0.0,-0.0625118297097242,0.0,-0.19723575862065382,-0.14002036257393385,-0.17545718388627585,-0.12584401082233687,-0.5499749188957984,-0.022216212651319477
6273,7.0,299.49169,1106.882,0.0,0.0,0.0,0.0,-0.06252179651930802,0.0,-0.08507490006373893,-0.08931995492744323,-0.16206963720502784,-0.12986002759368687,-0.5660570015679764,-0.036744801548429566
6274,7.0,299.29200000000003,652.2911799999999,0.0,0.0,0.0,0.0,-0.06253176332889183,0.0,-0.05860039038315824,-0.054351114319537354,-0.08532872731978973,-0.14489939485295686,-0.5624022692522824,-0.005078632416221995
6275,7.0,299.31906000000004,1022.6053,0.0,0.0,0.0,0.0,-0.06254173013847567,0.0,-0.07657359392272532,-0.07312729120560174,-0.16114559364383185,-0.16185075491842585,-0.5420001846462534,-0.04466961397879766
6276,7.0,298.89096,1451.6763,0.0,0.0,0.0,0.0,-0.06255169694805948,0.0,-0.15230157186849486,-0.1047147875470449,-0.18425700769225084,-0.12622356417729585,-0.5059374686146405,-0.007961419129980893
6277,7.0,299.17400000000004,926.3250800000001,0.0,0.0,0.0,0.0,-0.0625616637576433,0.0,-0.07230958722915064,-0.07427469359234153,-0.1349954121480099,-0.14641705098523786,-0.5319096929953995,-0.05180900458090065
6278,7.0,300.1261,865.0020199999999,0.0,0.0,0.0,0.0,-0.06257163056722712,0.0,-0.09784325872812781,-0.07031650199094842,-0.094779253247234,-0.12822737770755688,-0.5604361283607395,-0.03458039902306967
6279,7.0,300.48425,1505.4166,0.0,0.0,0.0,0.0,-0.06258159737681093,0.0,-0.13260325025192188,-0.14838451923441184,-0.17662127652866283,-0.13258645056526386,-0.5692640495919875,-0.04973750391745945
6280,7.0,301.09961,1690.8262,0.0,0.0,0.0,0.0,-0.06259156418639476,0.0,-0.18677741665349581,-0.13596787893148488,-0.1912236391523038,-0.14166485735373285,-0.5665674769683564,-0.02273878828439368
6281,7.0,300.69785,1448.9227,0.0,0.0,0.0,0.0,-0.06260153099597858,0.0,-0.08927145064515622,-0.14797705083919785,-0.2031878126230758,-0.13716506432213788,-0.5455221204038415,-0.024918663138780578
6282,7.0,300.6649,1248.8687,0.0,0.0,0.0,0.0,-0.0626114978055624,0.0,-0.1149092285256579,-0.11942806052663188,-0.14528762162877185,-0.14845088711596185,-0.5518255999384465,-0.039817481463429456
6283,7.0,299.77364,1161.0783,0.0,0.0,0.0,0.0,-0.06262146461514623,0.0,-0.07678089476068434,-0.11003326639443789,-0.16612464384022585,-0.10761996810126391,-0.5172821713717755,-0.04210985544991916
6284,7.0,299.89672,1176.9546,0.0,0.0,0.0,0.0,-0.06263143142473004,0.0,-0.13946896200201486,-0.0971053340115503,-0.12119052801557388,-0.1318909252991209,-0.5225235418865585,-0.047182928162842454
6285,7.0,299.2985,1367.7251,0.0,0.0,0.0,0.0,-0.06264139823431386,0.0,-0.0953131691754274,-0.1055345271429469,-0.21490657691962778,-0.1247967763139829,-0.5373629239735914,-0.006347256295900425
6286,7.0,298.312,1094.3761,0.0,0.0,0.0,0.0,-0.06265136504389769,0.0,-0.11698829614084588,-0.06767041961980044,-0.14800429713438684,-0.13889457078532685,-0.5563689525918405,-0.01042599091796519
6287,7.0,299.98078,874.2567,0.0,0.0,0.0,0.0,-0.06266133185348151,0.0,-0.01172783592469729,-0.1017316070001279,-0.15229276672512584,-0.14574695829660486,-0.5372301476804875,-0.050094617835703854
6288,7.0,301.67452000000003,1284.5099,0.0,0.0,0.0,0.0,-0.06267129866306533,0.0,-0.15613666270198887,-0.10935239272474089,-0.1249698698285659,-0.12289357851865187,-0.5354257316374055,-0.04579467825383286
6289,7.0,300.80672999999996,1655.8828,0.0,0.0,0.0,0.0,-0.06268126547264914,0.0,-0.15196298421507887,-0.13509609881044687,-0.21628793064845678,-0.14085756046905887,-0.5445060028060584,-0.03996503499599186
6290,7.0,300.85332,1550.2014,0.0,0.0,0.0,0.0,-0.06269123228223297,0.0,-0.17242039227656783,-0.14918456124836987,-0.14961754328110186,-0.14544658030445987,-0.5363831820543985,-0.01914650865186328
6291,7.0,300.46121,1213.861,0.0,0.0,0.0,0.0,-0.06270119909181679,0.0,-0.091696682998008,-0.12481957444123287,-0.15246716733233784,-0.14189890799433186,-0.5649315644169044,-0.03565238317836626
6292,7.0,300.10362000000003,1134.8443,0.0,0.0,0.0,0.0,-0.0627111659014006,0.0,-0.12203428163884589,-0.08221537858552613,-0.14071467193995685,-0.14645155215114286,-0.5314975332522225,-0.008208752668790812
6293,7.0,299.64035,1138.195,0.0,0.0,0.0,0.0,-0.06272113271098444,0.0,-0.07118551492596333,-0.0907877814463064,-0.18400955175282882,-0.14510214619796688,-0.5451068601153585,-0.010526516473636291
6294,7.0,299.2211,1206.5631,0.0,0.0,0.0,0.0,-0.06273109952056824,0.0,-0.10624216074778489,-0.1035752763520839,-0.15694761741952384,-0.15134654311924084,-0.5729093688142525,-0.03200750877289517
6295,7.0,299.52412999999996,1381.8326,0.0,0.0,0.0,0.0,-0.06274106633015207,0.0,-0.1022353949498479,-0.15737565479176785,-0.16043155629836184,-0.14527053823208586,-0.5223996213993285,-0.04669485876192375
6296,7.0,300.66478,1192.3459,0.0,0.0,0.0,0.0,-0.0627510331397359,0.0,-0.12293952941068689,-0.08862185296629592,-0.15088201861089587,-0.14122437727026088,-0.5361600846473804,-0.02405924568221268
6297,7.0,299.80341,1174.43,0.0,0.0,0.0,0.0,-0.06276099994931972,0.0,-0.08658616360113902,-0.1234026252363909,-0.14700861679112087,-0.13790934718309286,-0.5335702376567825,-0.038641159905585566
6298,7.0,300.94186,1621.9029999999998,0.0,0.0,0.0,0.0,-0.06277096675890353,0.0,-0.15160093982184786,-0.13717539947315788,-0.2042416636545828,-0.16511670317074983,-0.5572746765912285,-0.017210949674838483
6299,7.0,300.30242999999996,1690.1629999999998,0.0,0.0,0.0,0.0,-0.06278093356848735,0.0,-0.12899731606104387,-0.16866964438139784,-0.21610038818744778,-0.1252035253016259,-0.5454929489334625,-0.05876941367208954
6300,7.0,300.96628,1287.6674,0.0,0.0,0.0,0.0,-0.06279090037807118,0.0,-0.11183217035697589,-0.13387371388980687,-0.14571283203323684,-0.13105297759892187,-0.5453951702988125,-0.05882548085312295
6301,7.0,300.74142,1145.3646,0.0,0.0,0.0,0.0,-0.062800867187655,0.0,-0.0955873141224834,-0.08363906793003333,-0.16893586571267183,-0.13401101941085788,-0.5326730654882386,-0.05546306409852825
6302,7.0,299.23832000000004,1390.8354,0.0,0.0,0.0,0.0,-0.06281083399723882,0.0,-0.12865363175962488,-0.13298323930442385,-0.16114237150851385,-0.15074559461743184,-0.5532245842190154,0.015604834782327286
6303,7.0,298.51797,1220.9063,0.0,0.0,0.0,0.0,-0.06282080080682265,0.0,-0.0965108307936274,-0.11801398895207389,-0.15660022462273884,-0.15966614717282185,-0.5299582543628075,-0.029736288408743174
6304,7.0,300.64547999999996,1231.65,0.0,0.0,0.0,0.0,-0.06283076761640645,0.0,-0.10998410349958589,-0.11018163660658091,-0.15422509546083185,-0.14310079486544888,-0.5241423609088235,0.0018589285944869683
6305,7.0,300.65247,1123.8295,0.0,0.0,0.0,0.0,-0.06284073442599028,0.0,-0.09620042567849281,-0.07788115062027112,-0.16753454082437186,-0.15867844110784285,-0.5385682254975455,-0.03312858084253637
6306,7.0,300.74983,1353.1498,0.0,0.0,0.0,0.0,-0.06285070123557411,0.0,-0.14208331951253186,-0.1124622903291639,-0.15677814120779784,-0.12346848649289088,-0.5360938484883435,-0.012175493871877687
6307,7.0,299.3926,1596.8065,0.0,0.0,0.0,0.0,-0.06286066804515793,0.0,-0.13913049593861088,-0.16720419089426883,-0.17905459664381282,-0.12432498680242088,-0.5632294562364194,-0.05648297733118585
6308,7.0,299.27445,1719.1718,0.0,0.0,0.0,0.0,-0.06287063485474174,0.0,-0.18663080949652683,-0.13472411443373486,-0.2012303552848898,-0.11771932569049288,-0.5358947651086955,-0.00962576945741448
6309,7.0,299.43012999999996,1275.6351,0.0,0.0,0.0,0.0,-0.06288060166432556,0.0,-0.1120152646500459,-0.1073790982874919,-0.16836685485401484,-0.16553596579712784,-0.5451511999397345,-0.01100393864250419
6310,7.0,300.48811,769.9810000000001,0.0,0.0,0.0,0.0,-0.06289056847390939,0.0,-0.06346412359892135,-0.06429244846292063,-0.10629842652583792,-0.15084166085941286,-0.5417233343214305,-0.016121107999779484
6311,7.0,300.49818999999997,1196.4912,0.0,0.0,0.0,0.0,-0.06290053528349322,0.0,-0.1009639991218709,-0.1089635579988659,-0.15377589129399885,-0.16778996090957982,-0.5470722714668296,-0.04629052941551955
6312,7.0,299.97815,1361.2192,0.0,0.0,0.0,0.0,-0.06291050209307703,0.0,-0.14640485145403384,-0.10501009928868989,-0.16236170654635285,-0.1203684680769429,-0.5546845661556045,-0.041326737752381465
6313,7.0,299.72574,984.7596,0.0,0.0,0.0,0.0,-0.06292046890266086,0.0,-0.050087657820766955,-0.10122397781927882,-0.14803069229949187,-0.13599556092421689,-0.5746309516616595,-0.05769815196411424
6314,7.0,300.60976,972.148,0.0,0.0,0.0,0.0,-0.06293043571224466,0.0,-0.1015116000059149,-0.08172392188952313,-0.11227319759550189,-0.09654488714273851,-0.5809535816231545,-0.03567334326993486
6315,7.0,300.85713,1430.0485,0.0,0.0,0.0,0.0,-0.06294040252182849,0.0,-0.10973878551787489,-0.1261403662115849,-0.1988198839594948,-0.1120291664414179,-0.5609088601948944,-0.02205184929959808
6316,7.0,299.52964,1613.6992,0.0,0.0,0.0,0.0,-0.06295036933141232,0.0,-0.15139230149375685,-0.17106301204510485,-0.16806895932461483,-0.12112457556656489,-0.5435292905046645,-0.03974729768200286
6317,7.0,299.07235,1543.1826,0.0,0.0,0.0,0.0,-0.06296033614099614,0.0,-0.12445251446000688,-0.12759418758756588,-0.21704226495040377,-0.1314544779510469,-0.5538721118279215,-0.017065086243442884
6318,7.0,299.10671,1544.7474,0.0,0.0,0.0,0.0,-0.06297030295057995,0.0,-0.17765239022792584,-0.15200578389930286,-0.13990646313019287,-0.15066215347169684,-0.5463654788595745,-0.041919218523104755
6319,7.0,299.76799,1284.839,0.0,0.0,0.0,0.0,-0.06298026976016377,0.0,-0.09166172992255842,-0.11844791330739889,-0.18044931514146081,-0.14068600709462786,-0.5441140371373745,-0.04833888542017655
6320,7.0,299.67314,1118.9171,0.0,0.0,0.0,0.0,-0.0629902365697476,0.0,-0.13902665806836287,-0.08074983694563842,-0.12034636909226189,-0.15023215039425886,-0.5444001485681115,-0.03989991138556467
6321,7.0,299.98941,1188.7835,0.0,0.0,0.0,0.0,-0.06300020337933143,0.0,-0.08862215491482572,-0.09540717244020482,-0.17733115954872283,-0.15836361416927186,-0.5434761556694205,0.0006976035940856143
6322,7.0,299.52119,927.79044,0.0,0.0,0.0,0.0,-0.06301017018891523,0.0,-0.09903443453243771,-0.04291458070583936,-0.14007611159443586,-0.12747418837822289,-0.5555912324775855,-0.025980752906850677
6323,7.0,299.3807,957.9319800000001,0.0,0.0,0.0,0.0,-0.06302013699849907,0.0,-0.07406888121877943,-0.09651563765210182,-0.12060288348757789,-0.13353878406925188,-0.5542644017366375,-0.04348868719924926
6324,7.0,299.85672999999997,1546.8416,0.0,0.0,0.0,0.0,-0.06303010380808287,0.0,-0.17852418048146484,-0.12839633716173188,-0.16328071425455185,-0.12898869330269286,-0.5388468084800395,-0.06119510502723664
6325,7.0,300.61416,1799.6123,0.0,0.0,0.0,0.0,-0.0630400706176667,0.0,-0.15983523834950986,-0.16223757327660185,-0.22496437098975477,-0.1160211387878949,-0.5532841633248955,-0.02397147289230018
6326,7.0,300.48507,1435.7301,0.0,0.0,0.0,0.0,-0.06305003742725052,0.0,-0.16253995750394484,-0.1135302559345639,-0.16035589691339486,-0.12882451638898987,-0.5495797209592955,-0.02211417431324908
6327,7.0,301.00347999999997,1367.3741,0.0,0.0,0.0,0.0,-0.06306000423683435,0.0,-0.09467804374774541,-0.1051876713687149,-0.2157818628860118,-0.13907010623265087,-0.5484568979934815,0.02233109089465708
6328,7.0,299.22283,1206.0549,0.0,0.0,0.0,0.0,-0.06306997104641816,0.0,-0.11785925552930289,-0.08572609057175642,-0.16302522324183685,-0.15635902043643385,-0.5492806399272785,-0.01119439318430059
6329,7.0,298.6812,1278.5841,0.0,0.0,0.0,0.0,-0.06307993785600198,0.0,-0.08479311419767882,-0.1312876361895809,-0.17257687862201182,-0.15632199627777982,-0.5387198077125055,-0.022973860281093477
6330,7.0,298.88366,1290.3606,0.0,0.0,0.0,0.0,-0.06308990466558581,0.0,-0.13366640291934687,-0.1180097333016539,-0.14056127600731788,-0.15422461923328487,-0.5360294564444885,-0.059759734935576646
6331,7.0,299.49172000000004,1146.6572,0.0,0.0,0.0,0.0,-0.06309987147516963,0.0,-0.0980164393822194,-0.11921535906563988,-0.13132335325560587,-0.13159698144511087,-0.5355867066807926,-0.07110680059194484
6332,7.0,298.8925,839.03487,0.0,0.0,0.0,0.0,-0.06310983828475344,0.0,-0.08375555825428001,-0.07916845143506783,-0.09212164110319811,-0.15185744408466287,-0.5431598088556995,-0.06168846055392703
6333,7.0,299.81946,1089.8238,0.0,0.0,0.0,0.0,-0.06311980509433726,0.0,-0.07033100666612994,-0.09288360619164822,-0.16806461248168583,-0.13994783413177586,-0.5360602491150275,-0.020204405591019582
6334,7.0,300.18799,1672.3878,0.0,0.0,0.0,0.0,-0.06312977190392108,0.0,-0.14509973466272885,-0.15049606151530487,-0.2127683253660988,-0.17549917297041984,-0.5517867316646106,-0.0023364896799435778
6335,7.0,300.59268,1513.3329,0.0,0.0,0.0,0.0,-0.06313973871350491,0.0,-0.12489076539325888,-0.11807769198586089,-0.2170469461658658,-0.14132610758030087,-0.5550858841227115,-0.019762800799936583
6336,7.0,300.29855,1265.8243,0.0,0.0,0.0,0.0,-0.06314970552308873,0.0,-0.10962991179462989,-0.12199051936702689,-0.15315853827307085,-0.1291528398188929,-0.5594048930714645,-0.03866246247568796
6337,7.0,300.48696,1480.6328,0.0,0.0,0.0,0.0,-0.06315967233267254,0.0,-0.14846776786262786,-0.13451587127318287,-0.16709175053067182,-0.11487073515435889,-0.5536991399033505,-0.02778428539584547
6338,7.0,299.79258,1472.704,0.0,0.0,0.0,0.0,-0.06316963914225637,0.0,-0.14337661167516988,-0.12883068708209888,-0.17545794382385083,-0.12222218886989089,-0.5360077120973425,-0.012662200451411887
6339,7.0,298.28974,1275.3803,0.0,0.0,0.0,0.0,-0.06317960595184018,0.0,-0.09619315459577522,-0.11182483442625189,-0.17966576883913082,-0.15430354128357388,-0.5454535639020754,-0.02101003365277888
6340,7.0,299.67105,1192.6637,0.0,0.0,0.0,0.0,-0.063189572761424,0.0,-0.1104390831919889,-0.08154467794683312,-0.17055622487508884,-0.11771831244039288,-0.5480908107323514,-0.008608639420131561
6341,7.0,298.60005,797.25837,0.0,0.0,0.0,0.0,-0.06319953957100784,0.0,-0.045408747502744456,-0.07175095711776813,-0.1251869282649879,-0.16344076724034784,-0.5452559294700705,-0.03849915999682126
6342,7.0,298.72414,960.93084,0.0,0.0,0.0,0.0,-0.06320950638059165,0.0,-0.06915840576265322,-0.1067802168158869,-0.1161603593516349,-0.13644001294808086,-0.5422212960830755,-0.061269220219051235
6343,7.0,299.28045,1665.2946,0.0,0.0,0.0,0.0,-0.06321947319017547,0.0,-0.17764547986224383,-0.12410869843607489,-0.2044537875630178,-0.17769942529756785,-0.5531337564800515,-0.04102835991593386
6344,7.0,300.52996,1756.6938,0.0,0.0,0.0,0.0,-0.06322943999975929,0.0,-0.1929140037641298,-0.16086634191627183,-0.18021072514041384,-0.15108646208357285,-0.5143220219996315,-0.014950409979990585
6345,7.0,300.55706000000004,1252.5765,0.0,0.0,0.0,0.0,-0.06323940680934312,0.0,-0.09867719294468072,-0.1022879724975369,-0.17978681169607683,-0.13626275497558687,-0.5638072925034474,-0.0027177883581998275
6346,7.0,300.87217000000004,1271.0603,0.0,0.0,0.0,0.0,-0.06324937361892694,0.0,-0.07822774700247752,-0.13245465712475687,-0.17568820490907583,-0.12027874478058789,-0.5712573658512125,0.004628887072510586
6347,7.0,300.03784,1568.861,0.0,0.0,0.0,0.0,-0.06325934042851075,0.0,-0.1143363571841199,-0.16633154951064583,-0.1962266628460638,-0.15341602538848287,-0.5757932508513695,-0.02352474105571118
6348,7.0,300.73127999999997,1511.4262,0.0,0.0,0.0,0.0,-0.06326930723809458,0.0,-0.15093550808367487,-0.15149539969143186,-0.15700492684517983,-0.11443121765848188,-0.5667125439851735,-0.05616861446116065
6349,7.0,300.07027999999997,1030.9555,0.0,0.0,0.0,0.0,-0.06327927404767839,0.0,-0.08391258668852751,-0.12480407171470288,-0.1046680767174349,-0.12894725137360288,-0.5319432011762065,-0.06997261098650902
6350,7.0,298.77531,734.44547,0.0,0.0,0.0,0.0,-0.06328924085726222,0.0,-0.049361471606597956,-0.10209167555566391,-0.07179993762760213,-0.12717279713597787,-0.5486905230690385,-0.07166296647908413
6351,7.0,299.18903,834.27702,0.0,0.0,0.0,0.0,-0.06329920766684605,0.0,-0.04471251802778196,-0.08188583824225303,-0.12700103097902588,-0.15461481171429386,-0.5592872749998565,-0.032546410904830674
6352,7.0,299.45468,1297.2132,0.0,0.0,0.0,0.0,-0.06330917447642986,0.0,-0.12123145318711288,-0.12300595808724289,-0.15008298984703786,-0.18117086067017182,-0.5527671929913744,-0.05090467177389995
6353,7.0,299.63909,1551.0391,0.0,0.0,0.0,0.0,-0.06331914128601368,0.0,-0.13324035151729888,-0.1171159048584399,-0.2211209107104348,-0.14566152104817284,-0.5482094825840634,-0.008279531025376092
6354,7.0,300.12663,1266.5027,0.0,0.0,0.0,0.0,-0.0633291080955975,0.0,-0.1126624680189199,-0.1246249493620249,-0.14769778897913688,-0.13252491588669088,-0.5501002984631724,-0.04796840673311316
6355,7.0,299.95755,1200.9181,0.0,0.0,0.0,0.0,-0.06333907490518133,0.0,-0.1014738665721909,-0.1078378878002709,-0.15573736110258085,-0.12162205096816188,-0.5650830757043575,-0.018094348734773183
6356,7.0,300.81113,1782.4887,0.0,0.0,0.0,0.0,-0.06334904171476514,0.0,-0.2062645364192248,-0.13660748292460886,-0.19896002658082582,-0.14156618705899487,-0.5502434707023025,-0.018585991868794585
6357,7.0,301.17696,1863.7771,0.0,0.0,0.0,0.0,-0.06335900852434896,0.0,-0.20211346354204582,-0.14690701820359386,-0.21752120800767177,-0.15525741492771386,-0.5516945056405085,0.01823818971896918
6358,7.0,300.24869,1091.4391,0.0,0.0,0.0,0.0,-0.06336897533393279,0.0,-0.11628092598103389,-0.100736606547679,-0.1147526915177089,-0.14222554942906887,-0.5478618364747535,-0.017645965300521184
6359,7.0,300.04794,1027.8471,0.0,0.0,0.0,0.0,-0.0633789421435166,0.0,-0.07327828978850413,-0.09707838662514082,-0.14208317765751788,-0.13140407889107286,-0.5724952940283865,-0.00947107048514688
6360,7.0,299.97382999999996,1179.6083,0.0,0.0,0.0,0.0,-0.06338890895310043,0.0,-0.12456226971083889,-0.1009487294428639,-0.13306047935954687,-0.13937223714746888,-0.5658166282467535,-0.05544767181625915
6361,7.0,298.71533,1194.8483,0.0,0.0,0.0,0.0,-0.06339887576268426,0.0,-0.09620612115730491,-0.09388536806201442,-0.17311256368487982,-0.1172675985309109,-0.5686320348421124,-0.043745696060614056
6362,7.0,299.66938999999996,1234.5502,0.0,0.0,0.0,0.0,-0.06340884257226807,0.0,-0.10276470666958691,-0.12829713997694187,-0.14421060769997887,-0.14488970818200086,-0.5543162598767555,-0.07132919784314373
6363,7.0,299.50298,1152.4716,0.0,0.0,0.0,0.0,-0.06341880938185189,0.0,-0.08952923869584792,-0.09542239449645709,-0.16537095801834284,-0.1069234295850209,-0.5670079975818324,-0.03149462487702747
6364,7.0,300.12246,1290.443,0.0,0.0,0.0,0.0,-0.0634287761914357,0.0,-0.12329774371853988,-0.1229438154586099,-0.14602089046113986,-0.15654541792482984,-0.5619497720226244,-0.04476759121046726
6365,7.0,300.45445,1763.8569,0.0,0.0,0.0,0.0,-0.06343874300101954,0.0,-0.15580207738646784,-0.16828571378600685,-0.21208066292073177,-0.14435801532452686,-0.5449411430615035,-0.02948333761402887
6366,7.0,299.34244,1659.0972,0.0,0.0,0.0,0.0,-0.06344870981060335,0.0,-0.15118059301786285,-0.14815442026920286,-0.2049890875908478,-0.17225726914296885,-0.5570569291447385,-0.025390881255134872
6367,7.0,300.30841000000004,1213.6062,0.0,0.0,0.0,0.0,-0.06345867662018717,0.0,-0.07426646904127983,-0.12182821696600887,-0.17281128390014583,-0.12795660688333388,-0.5407470070550745,-0.013081692072312487
6368,7.0,300.52128999999996,1114.6566,0.0,0.0,0.0,0.0,-0.063468643429771,0.0,-0.07891941887849022,-0.1064542137287129,-0.15345412359224286,-0.13795169090477188,-0.5333588939509245,-0.03077090896660227
6369,7.0,299.06379,1242.6779,0.0,0.0,0.0,0.0,-0.0634786102393548,0.0,-0.13276141859253188,-0.09283702404480092,-0.15214459916300285,-0.1270317020595529,-0.5429511806601094,-0.013934542654982288
6370,7.0,299.10765,1190.2667,0.0,0.0,0.0,0.0,-0.06348857704893864,0.0,-0.13335643958125587,-0.09059262339754581,-0.13786229184844886,-0.17612057899174782,-0.5387889620318305,-0.036155976584067065
6371,7.0,298.96665,956.86244,0.0,0.0,0.0,0.0,-0.06349854385852247,0.0,-0.08188105164878062,-0.08544983907774252,-0.12353139919159989,-0.12917099726068487,-0.5653259010908225,-0.05262978275815515
6372,7.0,298.74075,1254.725,0.0,0.0,0.0,0.0,-0.06350851066810628,0.0,-0.13065285526693288,-0.09876780384812331,-0.15198440432219285,-0.12380294008589887,-0.5584738276870754,-0.038137855276163264
6373,7.0,299.43064,1537.8729,0.0,0.0,0.0,0.0,-0.0635184774776901,0.0,-0.14211928989108186,-0.12648944100353587,-0.1988662097540668,-0.12733952743993288,-0.5763649670877935,-0.04375822084510016
6374,7.0,299.3884,1447.4107,0.0,0.0,0.0,0.0,-0.06352844428727392,0.0,-0.1314617530867649,-0.1073337553455169,-0.20118119239003782,-0.14353049396785686,-0.5760195805262065,-0.004391150532022816
6375,7.0,300.40246,1375.2842,0.0,0.0,0.0,0.0,-0.06353841109685775,0.0,-0.12654599049161688,-0.10275534423866291,-0.18875072122324582,-0.16044400914209084,-0.5593258899611675,-0.017238592150816585
6376,7.0,300.70761,1354.136,0.0,0.0,0.0,0.0,-0.06354837790644156,0.0,-0.15176523832556285,-0.090344257559534,-0.16951404648473384,-0.13782990837525286,-0.5273279482957165,0.025188701383181272
6377,7.0,299.91322,1228.3014,0.0,0.0,0.0,0.0,-0.06355834471602538,0.0,-0.12955293175337887,-0.08693806232111873,-0.15688195881304384,-0.12934402998026187,-0.5283832077448625,-0.035558903763890565
6378,7.0,299.68054,1321.8370000000002,0.0,0.0,0.0,0.0,-0.06356831152560921,0.0,-0.11218285621658589,-0.12150141341125589,-0.16812117210226782,-0.12671172781047388,-0.5306311942842215,-0.014213876455800386
6379,7.0,299.58995,1212.9315,0.0,0.0,0.0,0.0,-0.06357827833519301,0.0,-0.07385212675738743,-0.11393955831245887,-0.18090918883184684,-0.12913260521439587,-0.5692930589423505,-0.05450289209176665
6380,7.0,299.7104,1000.3767,0.0,0.0,0.0,0.0,-0.06358824514477684,0.0,-0.055678727289562545,-0.12105107440431088,-0.1273597215144259,-0.11798003494122289,-0.5549321335525376,-0.04018609779680906
6381,7.0,299.37358,1076.603,0.0,0.0,0.0,0.0,-0.06359821195436066,0.0,-0.09081974746046122,-0.12416117465875387,-0.11227948987862289,-0.14246802017799887,-0.5595611868993895,-0.07667626351560802
6382,7.0,299.54994,1398.8462,0.0,0.0,0.0,0.0,-0.06360817876394449,0.0,-0.15185467791188983,-0.11816389930436888,-0.15519572826162586,-0.14447418444849186,-0.5538027041960715,-0.03805413447340066
6383,7.0,299.78361,1283.2671,0.0,0.0,0.0,0.0,-0.06361814557352831,0.0,-0.13630235278949487,-0.1222846658710569,-0.1314941365599609,-0.16313293172746685,-0.5707435365930015,-0.06565048122744803
6384,7.0,299.85301,1212.6675,0.0,0.0,0.0,0.0,-0.06362811238311213,0.0,-0.1050244975726109,-0.10610799630204391,-0.15748814581786985,-0.12951733627736586,-0.5518878844220935,-0.03242549065114677
6385,7.0,298.40231,1338.9211,0.0,0.0,0.0,0.0,-0.06363807919269594,0.0,-0.10819173500019288,-0.10428864495248791,-0.1945182015874518,-0.12435077401746587,-0.5791699372071225,-0.02236054708831418
6386,7.0,298.99205,1373.5384,0.0,0.0,0.0,0.0,-0.06364804600227977,0.0,-0.11626981062743688,-0.10536457470367391,-0.19588700114754182,-0.12809377054937088,-0.5578138168369374,0.004749761324639945
6387,7.0,299.08565,1277.7278,0.0,0.0,0.0,0.0,-0.06365801281186359,0.0,-0.09486748605269191,-0.11079690233230288,-0.18273295795183883,-0.15184910503633986,-0.5777333309503404,-0.012821066921340787
6388,7.0,299.35866,1263.0648,0.0,0.0,0.0,0.0,-0.06366797962144741,0.0,-0.13615700206264988,-0.09623301889445951,-0.15155014559433486,-0.15541424577819185,-0.5412266391224105,0.004598605383997016
6389,7.0,299.66796,1305.1311,0.0,0.0,0.0,0.0,-0.06367794643103122,0.0,-0.1228283657422159,-0.1185788556178219,-0.15532003378389386,-0.14730424264029687,-0.5483584911437694,-0.040733722998855464
6390,7.0,299.90945,1240.7945,0.0,0.0,0.0,0.0,-0.06368791324061505,0.0,-0.11938418679730188,-0.10713194632309989,-0.15065440210843187,-0.13504829367072885,-0.5457705287983574,-0.03719282426564596
6391,7.0,299.87766,1345.0676,0.0,0.0,0.0,0.0,-0.06369788005019887,0.0,-0.09511782367539831,-0.13151304380682688,-0.18223609050030182,-0.1244703071317629,-0.5688877791673524,-0.03718547212292036
6392,7.0,300.66516,1492.6787,0.0,0.0,0.0,0.0,-0.06370784685978269,0.0,-0.11954351024302588,-0.12275898850786889,-0.2114345437294648,-0.13830303537694688,-0.5592354472572414,0.019515676193297284
6393,7.0,299.96087,1245.2283,0.0,0.0,0.0,0.0,-0.06371781366936652,0.0,-0.08809393041244401,-0.12840027870462087,-0.16202411187803484,-0.12600621189834488,-0.5566627343258345,-0.03364369490187417
6394,7.0,300.9339,1280.8372,0.0,0.0,0.0,0.0,-0.06372778047895032,0.0,-0.14653545939192386,-0.1163423694670979,-0.1264646873035929,-0.14951604601858487,-0.5501491168529905,-0.0005621619364610636
6395,7.0,300.18647000000004,1564.4749,0.0,0.0,0.0,0.0,-0.06373774728853415,0.0,-0.16519341633582085,-0.14663317723156785,-0.16373472122685884,-0.12979890834765487,-0.5590915860080434,-0.06465782340923035
6396,7.0,300.38613,1495.3173,0.0,0.0,0.0,0.0,-0.06374771409811798,0.0,-0.15118679410847485,-0.15505980076071085,-0.14829253639033385,-0.15795298443374586,-0.5498608471995404,-0.04195743933012686
6397,7.0,299.52997,1303.2912,0.0,0.0,0.0,0.0,-0.0637576809077018,0.0,-0.09648636485671282,-0.15095266240786787,-0.14872896347340586,-0.12530566091170586,-0.5626039161546834,-0.07647012082251334
6398,7.0,299.66847,1244.0152,0.0,0.0,0.0,0.0,-0.06376764771728562,0.0,-0.08724049923746692,-0.10978605363503989,-0.18112299473544782,-0.14132708030039687,-0.5635562699236735,-0.028294741544473576
6399,7.0,299.13858,1153.9315,0.0,0.0,0.0,0.0,-0.06377761452686943,0.0,-0.08325941122356412,-0.1287863371252219,-0.13872062614065986,-0.13264085196313288,-0.5617541336933164,-0.04471396292242455
6400,7.0,299.5552,1090.6226,0.0,0.0,0.0,0.0,-0.06378758133645326,0.0,-0.1036073558502499,-0.08232167054751632,-0.14559299494390987,-0.13654646500358686,-0.5626832029750085,-0.014255480504906387
6401,7.0,298.69402,1182.4756,0.0,0.0,0.0,0.0,-0.06379754814603708,0.0,-0.12539316519034188,-0.09594195469723373,-0.13810793407019187,-0.14388049081739887,-0.5331482696526375,-0.04047777906334576
6402,7.0,300.07071,1340.3402,0.0,0.0,0.0,0.0,-0.0638075149556209,0.0,-0.12840993497807388,-0.12516974354329188,-0.15385027398383985,-0.16089185555378985,-0.5255872150214195,-0.027084566287538574
6403,7.0,299.80454,1168.1026,0.0,0.0,0.0,0.0,-0.06381748176520473,0.0,-0.09562352058830673,-0.10760499226478588,-0.15184551813098585,-0.12864460370123387,-0.5537297603213726,-0.045330950160066455
6404,7.0,300.17663999999996,1432.4288,0.0,0.0,0.0,0.0,-0.06382744857478853,0.0,-0.1185137846963999,-0.12025586559332989,-0.1966529371631338,-0.17953362076108884,-0.5529594977278535,-0.012144439782812887
6405,7.0,300.93336,1718.7002,0.0,0.0,0.0,0.0,-0.06383741538437236,0.0,-0.1891888303014838,-0.13475179642646687,-0.1985013079955538,-0.15556502752557286,-0.5648503726863914,-0.015781708733033382
6406,7.0,300.48866,1430.7155,0.0,0.0,0.0,0.0,-0.06384738219395619,0.0,-0.14682023333252886,-0.1098322477070989,-0.17824931612683784,-0.15523213433771885,-0.5818105480277305,-0.0018280135233358886
6407,7.0,300.10614,1367.9515,0.0,0.0,0.0,0.0,-0.06385734900354001,0.0,-0.14459179238759887,-0.13300877320694388,-0.13822254278900287,-0.1357237059223869,-0.5542644523991425,-0.06294498187043604
6408,7.0,300.2732,1451.0757,0.0,0.0,0.0,0.0,-0.06386731581312383,0.0,-0.15570822002970483,-0.08556557757041501,-0.1998169727203998,-0.12024024127678788,-0.5547048818201095,-0.005887539760604934
6409,7.0,300.55548,1153.4036,0.0,0.0,0.0,0.0,-0.06387728262270764,0.0,-0.06947736372188194,-0.11218307913160791,-0.16894544092611682,-0.12590909187625987,-0.5361598819973605,-0.07853529576558023
6410,7.0,300.43277,1216.7925,0.0,0.0,0.0,0.0,-0.06388724943229147,0.0,-0.07068726945429034,-0.10867937174331889,-0.1905079096791668,-0.14532984376043884,-0.5464555669259654,0.010048973221381438
6411,7.0,300.21328,1354.2266,0.0,0.0,0.0,0.0,-0.06389721624187529,0.0,-0.12009175960713389,-0.11411090903686988,-0.17744838245279182,-0.16516175227019586,-0.5604042515125934,-0.03317815005067847
6412,7.0,298.39105,1255.3387,0.0,0.0,0.0,0.0,-0.06390718305145911,0.0,-0.11073568176126089,-0.11658168900821689,-0.15427425835568387,-0.15089304277198384,-0.5780322498623415,0.008637550789209893
6413,7.0,299.28484,1353.1488,0.0,0.0,0.0,0.0,-0.06391714986104294,0.0,-0.14464733875808086,-0.1168123756584839,-0.14986374279039985,-0.15025610362662284,-0.5555936338803225,-0.05748070747940415
6414,7.0,299.59699,1646.3144,0.0,0.0,0.0,0.0,-0.06392711667062674,0.0,-0.15468094654832087,-0.16482311395427485,-0.18093441875933683,-0.11680161494242187,-0.5521616139366085,-0.03739407296075766
6415,7.0,300.01797999999997,1396.7796,0.0,0.0,0.0,0.0,-0.06393708348021057,0.0,-0.09819988628632421,-0.13880874850185687,-0.18757746879995482,-0.13568453367352087,-0.5389190126821655,-0.07672513256793102
6416,7.0,300.45062,1004.6512,0.0,0.0,0.0,0.0,-0.0639470502897944,0.0,-0.050166284002026745,-0.0870659223247375,-0.16815668651827284,-0.1041143659352879,-0.5417107396226875,-0.030446145084300574
6417,7.0,300.67748,1071.2641,0.0,0.0,0.0,0.0,-0.06395701709937822,0.0,-0.1098676607980939,-0.07245402299115533,-0.14331585719917386,-0.13469543945590487,-0.5581889524214605,-0.026599455576911873
6418,7.0,299.85900000000004,1254.9966,0.0,0.0,0.0,0.0,-0.06396698390896204,0.0,-0.1051452769845309,-0.08328623701996163,-0.19305611209065482,-0.11184380246812389,-0.5735573219882004,-0.03292233581118157
6419,7.0,300.13877,1054.3932,0.0,0.0,0.0,0.0,-0.06397695071854585,0.0,-0.11491587544631389,-0.09216787165226073,-0.11342546560922188,-0.19293558599125982,-0.5780257245316974,-0.01984918847696238
6420,7.0,298.66355,1280.2009,0.0,0.0,0.0,0.0,-0.06398691752812968,0.0,-0.1055633845057949,-0.12259785134446588,-0.16098788126576685,-0.15105465616293387,-0.5825977015004165,-0.060438248745790735
6421,7.0,299.52719,1654.9392,0.0,0.0,0.0,0.0,-0.0639968843377135,0.0,-0.16273653815584582,-0.12607541688017487,-0.21424821766715277,-0.1692086123745898,-0.5448348328610115,-0.006566485012711613
6422,7.0,300.58813,1493.7588,0.0,0.0,0.0,0.0,-0.06400685114729732,0.0,-0.11775950105695789,-0.14575691854508788,-0.19054895644071781,-0.13779605568941186,-0.5442229108606195,-0.03755926717756106
6423,7.0,299.77626000000004,1359.6918,0.0,0.0,0.0,0.0,-0.06401681795688115,0.0,-0.13248836795558386,-0.12723688520480286,-0.15358708227036486,-0.14775555436733787,-0.5443019342359185,0.02208088904746408
6424,7.0,300.64707000000004,1529.1037,0.0,0.0,0.0,0.0,-0.06402678476646495,0.0,-0.15226594599497886,-0.1064523493485289,-0.2060910578696038,-0.1250766258591019,-0.5649795722066425,0.01019569740873699
6425,7.0,301.51462999999995,1450.3843,0.0,0.0,0.0,0.0,-0.06403675157604878,0.0,-0.16478773126078283,-0.11970232706369988,-0.15639056291204684,-0.10997338331352788,-0.5605741330243594,0.010527840791516991
6426,7.0,300.36062000000004,1314.9987,0.0,0.0,0.0,0.0,-0.06404671838563261,0.0,-0.11933360535230988,-0.09354155811758301,-0.1868516068258178,-0.0930837453779004,-0.5861607144170584,-0.04254612953222606
6427,7.0,300.56129,1572.7289,0.0,0.0,0.0,0.0,-0.06405668519521643,0.0,-0.12577635611315988,-0.15206278934992884,-0.2002311690962778,-0.14352803177011386,-0.5468100930034545,-0.059541687567057036
6428,7.0,299.76666,1296.6374,0.0,0.0,0.0,0.0,-0.06406665200480025,0.0,-0.10536338920105691,-0.1224944390392599,-0.16628755419130384,-0.15624991366566587,-0.5750439422699184,-0.04395085184811136
6429,7.0,299.18639,1081.2049,0.0,0.0,0.0,0.0,-0.06407661881438406,0.0,-0.09570390374523989,-0.08610538858769022,-0.14684999248796585,-0.15838609818899085,-0.5371277587578825,-0.04206152949964976
6430,7.0,300.18911,1224.2627,0.0,0.0,0.0,0.0,-0.06408658562396789,0.0,-0.10743602267810991,-0.13672440185364787,-0.12798487656112387,-0.14838980839993388,-0.5674327418912515,-0.04660412018896855
6431,7.0,300.22337000000005,1209.8667,0.0,0.0,0.0,0.0,-0.06409655243355171,0.0,-0.10842909896861891,-0.1137514281663919,-0.14558873929348987,-0.1042680962404599,-0.5545697243892704,-0.017273885678299784
6432,7.0,299.48351,1030.3463,0.0,0.0,0.0,0.0,-0.06410651924313553,0.0,-0.06051941311855103,-0.12164233623516388,-0.1310378092449249,-0.10915148549491288,-0.5861609373320804,-0.07267733926019493
6433,7.0,300.53949,1385.0424,0.0,0.0,0.0,0.0,-0.06411648605271936,0.0,-0.11762750496643089,-0.13954171335919485,-0.16384907663314485,-0.1271614689998599,-0.5414126718407706,-0.024796454030969476
6434,7.0,300.9249,1525.4176,0.0,0.0,0.0,0.0,-0.06412645286230316,0.0,-0.12649237942882588,-0.13435091415690287,-0.2028455570042978,-0.13117268296573587,-0.5584134481136165,-0.043453957038821656
6435,7.0,301.17900000000003,1250.3558,0.0,0.0,0.0,0.0,-0.06413641967188699,0.0,-0.12926218976968487,-0.1030136824841589,-0.14780107969433084,-0.14685280932324385,-0.5294704048371605,0.005340474581888806
6436,7.0,299.96052000000003,1341.0725,0.0,0.0,0.0,0.0,-0.06414638648147081,0.0,-0.11770720721929688,-0.11582396031843488,-0.17412138588194284,-0.15514929100954286,-0.5743016048491555,-0.036861203719917565
6437,7.0,299.83736,1578.1441,0.0,0.0,0.0,0.0,-0.06415635329105464,0.0,-0.18913856296402282,-0.0977100274857289,-0.19286781982457182,-0.13078986694545486,-0.5774542109452935,0.011432602203309989
6438,7.0,299.30312999999995,1438.7611,0.0,0.0,0.0,0.0,-0.06416632010063845,0.0,-0.11119457259904988,-0.13949977493755586,-0.18665311113122784,-0.1402943048709699,-0.6063733617843914,-0.06464240579570874
6439,7.0,299.84344,1214.6168,0.0,0.0,0.0,0.0,-0.06417628691022227,0.0,-0.12326509680031789,-0.08086161565692013,-0.16508646778776584,-0.1389307944764019,-0.5629412068479714,-0.024492013919173578
6440,7.0,299.69347,1357.4112,0.0,0.0,0.0,0.0,-0.06418625371980609,0.0,-0.11631664304705888,-0.13728565121653888,-0.15901682611123885,-0.15843055960337885,-0.5597542819709465,-0.03615637175160607
6441,7.0,299.76316,1362.1576,0.0,0.0,0.0,0.0,-0.06419622052938992,0.0,-0.14802024569096087,-0.1156833718670599,-0.15035828989920785,-0.16323538144507785,-0.5146701848664925,-0.01096656288606549
6442,7.0,300.25199,1381.2402,0.0,0.0,0.0,0.0,-0.06420618733897374,0.0,-0.14679705017024086,-0.12400661348849987,-0.14905886757346487,-0.17867622879147083,-0.5395319681976595,-0.0002322548270492668
6443,7.0,300.10663,1469.8037,0.0,0.0,0.0,0.0,-0.06421615414855755,0.0,-0.12984564957476788,-0.15629703992781685,-0.16064092416652484,-0.14309301310468087,-0.5431979273244615,-0.03391882270152717
6444,7.0,299.99237,1401.7951,0.0,0.0,0.0,0.0,-0.06422612095814137,0.0,-0.0979059819490681,-0.11886783454634188,-0.20933689310744277,-0.12529817299346688,-0.6013442874305605,-0.02145560227825308
6445,7.0,301.33696000000003,1523.7644,0.0,0.0,0.0,0.0,-0.0642360877677252,0.0,-0.1051336854033869,-0.16677798750470585,-0.1912746664273398,-0.12102075796131889,-0.5753707052946675,-0.06963513588170284
6446,7.0,301.04008999999996,1628.3844,0.0,0.0,0.0,0.0,-0.06424605457730902,0.0,-0.14303316042127387,-0.14151964848190188,-0.21043539807085682,-0.1175399196277869,-0.5681556553075975,-0.026937452505519575
6447,7.0,299.94939,1225.5444,0.0,0.0,0.0,0.0,-0.06425602138689283,0.0,-0.12970154514554588,-0.08708637275150583,-0.15574699711103185,-0.14343443785837687,-0.5199810643381355,-0.046310752874265455
6448,7.0,300.17947000000004,964.1456699999999,0.0,0.0,0.0,0.0,-0.06426598819647666,0.0,-0.06067197615960784,-0.1099037122366519,-0.1225005185398599,-0.12466516525849389,-0.5326736734382984,-0.035007056348677464
6449,7.0,299.30998999999997,1157.8578,0.0,0.0,0.0,0.0,-0.06427595500606047,0.0,-0.1003119828150219,-0.10429604167821789,-0.14735184512999486,-0.15204944484611185,-0.5615274696459465,-0.04750146663652975
6450,7.0,298.89182999999997,1436.0272,0.0,0.0,0.0,0.0,-0.06428592181564431,0.0,-0.11177676584150788,-0.13851719591808287,-0.18622243930872381,-0.14218836315039887,-0.5715282481329464,-0.046530895643991856
6451,7.0,300.67197000000004,1349.9371,0.0,0.0,0.0,0.0,-0.06429588862522813,0.0,-0.13645133095169787,-0.1314680656348879,-0.1424277738840269,-0.18473906142732582,-0.5945372833912614,-0.02621510549597948
6452,7.0,298.96761000000004,1224.6473,0.0,0.0,0.0,0.0,-0.06430585543481193,0.0,-0.10234011434768289,-0.11694658063422889,-0.15297550477500685,-0.13758349608343387,-0.5855184354436704,-0.03696299482496356
6453,7.0,298.70917000000003,1375.3584,0.0,0.0,0.0,0.0,-0.06431582224439576,0.0,-0.16529000946785385,-0.11419946709560991,-0.13858514446978887,-0.16451735560409886,-0.5288536698987935,0.008045832083886803
6454,7.0,299.52321,1568.102,0.0,0.0,0.0,0.0,-0.06432578905397958,0.0,-0.15898686430578185,-0.12550990173436288,-0.19216708645291483,-0.11988945409216788,-0.5103008173877696,-0.03064530141795577
6455,7.0,300.66324,1526.8945,0.0,0.0,0.0,0.0,-0.06433575586356341,0.0,-0.15387901988917685,-0.11857743706768188,-0.1916813444874758,-0.14540236207009588,-0.5332463015998126,6.0960017831785343e-05
6456,7.0,300.16053,1333.0234,0.0,0.0,0.0,0.0,-0.06434572267314723,0.0,-0.07670397590584302,-0.12433761189866689,-0.2041642412144418,-0.13646109868266187,-0.5628097579124984,-0.04718133026743475
6457,7.0,300.18137,1246.3381,0.0,0.0,0.0,0.0,-0.06435568948273104,0.0,-0.1052236518797659,-0.09214471179472501,-0.18148729867640184,-0.15046787289752286,-0.5833664644837875,-0.008206695669762804
6458,7.0,299.9911,1257.7981,0.0,0.0,0.0,0.0,-0.06436565629231487,0.0,-0.1065930999199199,-0.1045098273168169,-0.17123627781220482,-0.14985061106910386,-0.5886373408414824,-0.038994018173409965
6459,7.0,300.09167,1437.7451,0.0,0.0,0.0,0.0,-0.06437562310189868,0.0,-0.16208082348613184,-0.11736661333068288,-0.15759116295553685,-0.16935933332696484,-0.5873344430678965,-0.016722153773598085
6460,7.0,301.25793999999996,1355.531,0.0,0.0,0.0,0.0,-0.06438558991148251,0.0,-0.13005314293024586,-0.10502553108771291,-0.17696890237297083,-0.15587890200904986,-0.5846254986605445,-0.00890575869862995
6461,7.0,300.43127999999996,1228.6096,0.0,0.0,0.0,0.0,-0.06439555672106634,0.0,-0.07291503658790384,-0.16641939829431582,-0.13413221425531888,-0.14554188660886586,-0.5534504781963094,-0.05410799610379345
6462,7.0,299.04226,1385.3638,0.0,0.0,0.0,0.0,-0.06440552353065014,0.0,-0.1068033290506679,-0.1337905463215989,-0.18052212729364683,-0.1153218138338769,-0.5637021880705745,-0.028719794895173074
6463,7.0,298.54024,1628.2932,0.0,0.0,0.0,0.0,-0.06441549034023397,0.0,-0.15189918998878285,-0.15153900997573586,-0.1915222844867778,-0.11852952047045288,-0.5736689314867154,-0.04048069925013396
6464,7.0,299.43519,1383.6935,0.0,0.0,0.0,0.0,-0.06442545714981779,0.0,-0.11999989835306789,-0.12262659724980288,-0.17798176743793284,-0.12981003383375286,-0.5752268035154654,-0.03410655058730447
6465,7.0,299.62451,1095.3362,0.0,0.0,0.0,0.0,-0.06443542395940162,0.0,-0.09738709961260841,-0.09782479224505532,-0.13774296138417189,-0.13929282873713186,-0.5522051836909085,-0.02147069869149298
6466,7.0,300.16758,1165.1361,0.0,0.0,0.0,0.0,-0.06444539076898544,0.0,-0.1024501938385469,-0.1032175585367799,-0.14850454884125786,-0.15863723222627585,-0.5400228676061075,-0.03557372862610367
6467,7.0,300.15529,1276.9992,0.0,0.0,0.0,0.0,-0.06445535757856925,0.0,-0.1003221740845277,-0.0970119133655804,-0.19084179585211883,-0.12175520216380288,-0.5504301822982295,-0.02279839677452658
6468,7.0,299.81602000000004,1405.358,0.0,0.0,0.0,0.0,-0.06446532438815308,0.0,-0.10809080515773191,-0.12632979331777988,-0.1927731417352278,-0.15282011273967086,-0.5620760229850844,-0.03945823870672496
6469,7.0,300.59712,1509.7854,0.0,0.0,0.0,0.0,-0.06447529119773689,0.0,-0.15983679875466386,-0.1208022201797509,-0.17829804332414684,-0.1304435279287739,-0.5684629234004225,-0.007247511683173713
6470,7.0,300.77955,1445.1348,0.0,0.0,0.0,0.0,-0.06448525800732072,0.0,-0.14179223302380387,-0.13147599938317087,-0.16601664151206683,-0.15915646210751988,-0.5681824659052435,-0.028110344211774975
6471,7.0,301.33337,1340.1009,0.0,0.0,0.0,0.0,-0.06449522481690455,0.0,-0.16577786912600184,-0.12365416457371588,-0.11792516744830789,-0.12770607066360787,-0.5901925682874715,-0.0013651958347843387
6472,7.0,299.72997999999995,1419.5023,0.0,0.0,0.0,0.0,-0.06450519162648836,0.0,-0.13742133553742986,-0.1120769310511319,-0.1819949775065058,-0.15493137131053586,-0.5948066457978455,-0.005982221497649295
6473,7.0,299.53263,1379.9836,0.0,0.0,0.0,0.0,-0.06451515843607218,0.0,-0.14482002697262386,-0.1093435267863659,-0.16531701258301884,-0.13120781234670287,-0.5518979966580915,-0.013413071464517088
6474,7.0,299.42955,1166.9992,0.0,0.0,0.0,0.0,-0.064525125245656,0.0,-0.06772490511742774,-0.1164611223788179,-0.17055258730722983,-0.16382897375116084,-0.5585244091320675,-0.03412370693799767
6475,7.0,299.5527,1123.9607,0.0,0.0,0.0,0.0,-0.06453509205523983,0.0,-0.13128227609655188,-0.06912829906243194,-0.14124541234233687,-0.11932462795642389,-0.5553402909578194,-0.029419806832758872
6476,7.0,299.34666,1314.9699,0.0,0.0,0.0,0.0,-0.06454505886482365,0.0,-0.1214739644660469,-0.0884856539143541,-0.18975840858019682,-0.15359281726593085,-0.5696264891527575,-0.02076003445560588
6477,7.0,300.04708,1241.107,0.0,0.0,0.0,0.0,-0.06455502567440746,0.0,-0.1280991914374059,-0.1042429980354829,-0.14492333795281986,-0.11096494986138788,-0.5853316630527374,-0.042602783385067365
6478,7.0,299.89763,1299.7921,0.0,0.0,0.0,0.0,-0.0645649924839913,0.0,-0.08171008190640722,-0.1142833236738859,-0.1991109501832208,-0.14924331962166884,-0.5561561700708405,-0.02240428605538088
6479,7.0,300.26611,1538.0027,0.0,0.0,0.0,0.0,-0.0645749592935751,0.0,-0.13077739383672388,-0.15815980904415786,-0.17857722412419982,-0.14448963651251687,-0.5372851063659114,-0.048747160362470156
6480,7.0,300.55527,1350.3591,0.0,0.0,0.0,0.0,-0.06458492610315893,0.0,-0.1179397886472509,-0.13115542731653287,-0.16138022183698783,-0.14546640960891685,-0.5404045082562725,-0.022660450879412375
6481,7.0,299.98697999999996,1130.02,0.0,0.0,0.0,0.0,-0.06459489291274276,0.0,-0.1220054546735009,-0.1121814275339449,-0.10931097106065289,-0.1444329755669249,-0.5512136171430485,-0.04980228099635245
6482,7.0,300.25192999999996,1421.2205,0.0,0.0,0.0,0.0,-0.06460485972232657,0.0,-0.12936038383687587,-0.14339532640451688,-0.15925984401522286,-0.14807227608359586,-0.5700588024404235,-0.022682063504045377
6483,7.0,300.75378,1370.135,0.0,0.0,0.0,0.0,-0.06461482653191039,0.0,-0.13318217069655688,-0.11564396657067089,-0.16766069046182183,-0.15936381360798385,-0.6053041904113725,-0.03787694540191346
6484,7.0,300.29708,1080.1033,0.0,0.0,0.0,0.0,-0.06462479334149421,0.0,-0.05567802308074304,-0.1016310520602039,-0.17101536902540282,-0.13525497642612686,-0.5814265363723314,-0.03062362293206627
6485,7.0,300.42329,1293.0216,0.0,0.0,0.0,0.0,-0.06463476015107804,0.0,-0.12472002261890787,-0.08440373940950052,-0.18392253383424081,-0.1127719598247259,-0.5875427166259514,-0.01856359600183428
6486,7.0,300.20381000000003,1473.2589,0.0,0.0,0.0,0.0,-0.06464472696066186,0.0,-0.12444461110922689,-0.12224177499432387,-0.2011475322217158,-0.09856593808370072,-0.5320068738124905,-0.02130203307984698
6487,7.0,300.97652,1409.6517,0.0,0.0,0.0,0.0,-0.06465469377024567,0.0,-0.15163167169738087,-0.1019101619327499,-0.17495707403441885,-0.15177752904927586,-0.5429032539303795,-0.026390827381321872
6488,7.0,299.82792,1570.6770000000001,0.0,0.0,0.0,0.0,-0.0646646605798295,0.0,-0.15351286170053985,-0.13223352542293287,-0.19170020107183683,-0.13616798569373387,-0.5563578169732415,-0.019402153678593482
6489,7.0,299.93071000000003,1538.1498,0.0,0.0,0.0,0.0,-0.0646746273894133,0.0,-0.16293751631318085,-0.12883969487548788,-0.17578191027832382,-0.18065314053157683,-0.5928870232183934,-0.0035994138251594864
6490,7.0,299.4175,1294.1188,0.0,0.0,0.0,0.0,-0.06468459419899714,0.0,-0.08505690778171322,-0.14219316595587286,-0.16612973035572784,-0.13109259567783188,-0.5694600222938284,-0.028344071625592077
6491,7.0,300.32157,1432.2965,0.0,0.0,0.0,0.0,-0.06469456100858095,0.0,-0.11887885870742988,-0.14936505148868287,-0.16713846136028185,-0.15855305140796785,-0.5854875313156205,-0.02212206347852768
6492,7.0,298.48867,1477.7075,0.0,0.0,0.0,0.0,-0.06470452781816478,0.0,-0.14785647407729788,-0.1289307353969729,-0.17239899243445583,-0.15048412542912687,-0.5440341828969936,-0.041323837830595254
6493,7.0,299.40932000000004,1173.9298,0.0,0.0,0.0,0.0,-0.0647144946277486,0.0,-0.11778243090672089,-0.09162300147723622,-0.14743991682868685,-0.15683730488113687,-0.5666467131261764,-0.019436906130523283
6494,7.0,299.59049,1026.712,0.0,0.0,0.0,0.0,-0.06472446143733242,0.0,-0.08442846169869042,-0.10301946814222991,-0.12464688622668987,-0.13166727060454786,-0.5444884026518215,-0.05238763624925715
6495,7.0,300.23201,1449.8210000000001,0.0,0.0,0.0,0.0,-0.06473442824691623,0.0,-0.1079937357981519,-0.14137790492541288,-0.19133774124606484,-0.12222259416993088,-0.5573011426838405,-0.04142991802331456
6496,7.0,301.23661,1403.2986,0.0,0.0,0.0,0.0,-0.06474439505650006,0.0,-0.10071053764910622,-0.12533797345739486,-0.2005192057022048,-0.13661252891010686,-0.5934093637774445,-0.05612335764544414
6497,7.0,301.00207,1178.1319,0.0,0.0,0.0,0.0,-0.06475436186608387,0.0,-0.08326854668646572,-0.1151018980321729,-0.15975223290131785,-0.13155538752850587,-0.6085173888634905,-0.03365318804206107
6498,7.0,300.37335,1371.3612,0.0,0.0,0.0,0.0,-0.0647643286756677,0.0,-0.13607362171192086,-0.12346684502772888,-0.15731908503868486,-0.15881214959103884,-0.5784777657988104,-0.04326520475719326
6499,7.0,300.59119,1610.0164,0.0,0.0,0.0,0.0,-0.06477429548525152,0.0,-0.1476636728482699,-0.16358034244162284,-0.17816074793559683,-0.1217711608528779,-0.5362127736525805,-0.006629540579684714
6500,7.0,300.34365,1446.6882,0.0,0.0,0.0,0.0,-0.06478426229483535,0.0,-0.12527364220854587,-0.13794274390638886,-0.17654069274820985,-0.17079896920154586,-0.5433010761846415,-0.016257031447694085
6501,7.0,298.92472999999995,1558.1598,0.0,0.0,0.0,0.0,-0.06479422910441916,0.0,-0.13260436482703186,-0.1333962603101859,-0.2076410670775778,-0.15496122165848183,-0.5494980530012354,-0.0024318857583084377
6502,7.0,298.71814,1481.6236,0.0,0.0,0.0,0.0,-0.06480419591400298,0.0,-0.12536739824029888,-0.15102685258018986,-0.17398233757071985,-0.17841900512108483,-0.5436991517514285,-0.01903679089128498
6503,7.0,299.60041,1107.774,0.0,0.0,0.0,0.0,-0.06481416272358681,0.0,-0.1038305039197729,-0.08903424575699592,-0.14387088520645086,-0.12979933391269688,-0.5619459622022485,-0.029017800868833973
6504,7.0,299.56703,1229.779,0.0,0.0,0.0,0.0,-0.06482412953317061,0.0,-0.13601543075867786,-0.1042092770721549,-0.13359740058753686,-0.14116788857718585,-0.5599935609820614,-0.03380869660115857
6505,7.0,299.85002000000003,1324.635,0.0,0.0,0.0,0.0,-0.06483409634275444,0.0,-0.17261724650599583,-0.07766714510640042,-0.15237156718540285,-0.15404288269534885,-0.5692302171711484,-0.006491845261320244
6506,7.0,299.49683999999996,1277.2426,0.0,0.0,0.0,0.0,-0.06484406315233827,0.0,-0.13867061211572387,-0.08766042351616023,-0.16191881492764285,-0.15948049948949986,-0.5545983892345995,-0.028324228135633678
6507,7.0,299.25808,1385.6348,0.0,0.0,0.0,0.0,-0.06485402996192208,0.0,-0.1262872773435839,-0.1133537376346429,-0.18155737505331782,-0.12115813440987687,-0.5457641858527315,-0.04512856561159266
6508,7.0,299.9506,1590.0969,0.0,0.0,0.0,0.0,-0.06486399677150591,0.0,-0.13467133423602587,-0.1362002273119159,-0.21247818119996378,-0.12237363936233787,-0.5582317318406824,-0.026262238850881178
6509,7.0,301.43714,1611.3379,0.0,0.0,0.0,0.0,-0.06487396358108972,0.0,-0.14314106142442284,-0.14537208615710787,-0.20129333891110582,-0.1009270580497251,-0.5867906925342324,-0.004947094720040236
6510,7.0,300.78369,1396.3739,0.0,0.0,0.0,0.0,-0.06488393039067356,0.0,-0.13503508088942487,-0.12779106208199587,-0.16163664503979483,-0.16147789914662786,-0.5640115333261044,-0.02105732406144608
6511,7.0,300.78136,1288.3077,0.0,0.0,0.0,0.0,-0.06489389720025737,0.0,-0.12283554968542489,-0.1315709713150439,-0.13720684062376087,-0.11664412547937889,-0.5478748364735364,-0.03334505969990117
6512,7.0,300.50861000000003,1178.3394,0.0,0.0,0.0,0.0,-0.06490386400984119,0.0,-0.06911545713066453,-0.1265003942371169,-0.16256990917690084,-0.16717081443597484,-0.5568983251065854,-0.024192600541123776
6513,7.0,300.43158,1138.3093,0.0,0.0,0.0,0.0,-0.06491383081942502,0.0,-0.06411950896235284,-0.13230320663230988,-0.14959489714136687,-0.14413655938267086,-0.5687142600877274,-0.04797454398896886
6514,7.0,300.88984,1340.5109,0.0,0.0,0.0,0.0,-0.06492379762900882,0.0,-0.08608904790332751,-0.12438863917370288,-0.19700414991279583,-0.17123992551256484,-0.5949328562303015,-0.03932376420645336
6515,7.0,300.23454,1337.5077,0.0,0.0,0.0,0.0,-0.06493376443859265,0.0,-0.14491211114171187,-0.1084342969416319,-0.15322254528188783,-0.15655701963847485,-0.5725510835788924,-0.058563806988297745
6516,7.0,299.39871,1206.8602,0.0,0.0,0.0,0.0,-0.06494373124817648,0.0,-0.1144684849971599,-0.091430978424285,-0.16095590309261085,-0.14364214399637587,-0.5681432227288704,-0.04227399791311876
6517,7.0,299.52335,1551.2654,0.0,0.0,0.0,0.0,-0.06495369805776029,0.0,-0.16618418241610186,-0.13221904607900387,-0.17314272814035683,-0.11957427251606188,-0.5741844427400924,-0.03655262245496297
6518,7.0,299.42503999999997,1875.8781,0.0,0.0,0.0,0.0,-0.06496366486734412,0.0,-0.18007832374984684,-0.16348985920769285,-0.22665191876630275,-0.1206429879265359,-0.5405202416826945,-0.017786633798654083
6519,7.0,298.92691,1486.4705,0.0,0.0,0.0,0.0,-0.06497363167692793,0.0,-0.13668954605020786,-0.12865786714504288,-0.1865024915038628,-0.14997475447135586,-0.5615974041678484,-0.03422813755955417
6520,7.0,300.19381,1278.484,0.0,0.0,0.0,0.0,-0.06498359848651176,0.0,-0.10440095359357189,-0.11723352293004788,-0.16699272559839884,-0.11830002945530389,-0.5623646574085704,0.0029717223094861567
6521,7.0,300.16265,1225.906,0.0,0.0,0.0,0.0,-0.06499356529609558,0.0,-0.12488971161315487,-0.0965672080291914,-0.15118789855108386,-0.17954329729954382,-0.5919648541698824,-0.0019441297556456684
6522,7.0,300.90727999999996,1343.4739,0.0,0.0,0.0,0.0,-0.0650035321056794,0.0,-0.15439220066732387,-0.09553401311422301,-0.15845630628841986,-0.11667043958447589,-0.5942950963523594,0.014392273321406787
6523,7.0,300.06766,1279.812,0.0,0.0,0.0,0.0,-0.06501349891526323,0.0,-0.13867455365861286,-0.1109404089439659,-0.13941590822677885,-0.18426235765277882,-0.6040041500030684,-0.05376091133503885
6524,7.0,300.21958,1257.6714,0.0,0.0,0.0,0.0,-0.06502346572484703,0.0,-0.10573716703044589,-0.10560654896005489,-0.17095698555464084,-0.16078680178342186,-0.5764920489153355,-0.026990786951033276
6525,7.0,300.55362,1200.1587,0.0,0.0,0.0,0.0,-0.06503343253443086,0.0,-0.06890513275440713,-0.10954595389134389,-0.18636718208550881,-0.16962357882054382,-0.5813079557131284,-0.07780106231911701
6526,7.0,301.07894,1389.4664,0.0,0.0,0.0,0.0,-0.0650433993440147,0.0,-0.11849035835408787,-0.11993467544413089,-0.18393804669327182,-0.11411401971467688,-0.5535755031261484,-0.057703147287107244
6527,7.0,299.77945,1492.7589,0.0,0.0,0.0,0.0,-0.0650533661535985,0.0,-0.13307305379328788,-0.14323982291166987,-0.17744854457280784,-0.11695232576229588,-0.5385193969752265,-0.08357347721131002
6528,7.0,299.57482000000005,1148.3617,0.0,0.0,0.0,0.0,-0.06506333296318233,0.0,-0.12203699714911388,-0.08205280159373102,-0.14498348447875586,-0.1262897496738279,-0.5612248017085755,-0.04110306887230706
6529,7.0,299.18205,951.7113699999999,0.0,0.0,0.0,0.0,-0.06507329977276614,0.0,-0.06861357206463234,-0.1148025839526329,-0.1058803392695759,-0.15053767569691184,-0.5814358278757484,-0.055142628820653745
6530,7.0,299.63117,1325.4126,0.0,0.0,0.0,0.0,-0.06508326658234997,0.0,-0.100524472506743,-0.1236104124343979,-0.1787574610519878,-0.16215491233344384,-0.5836966117638704,-0.03061390890335757
6531,7.0,299.18025,1508.5009,0.0,0.0,0.0,0.0,-0.06509323339193379,0.0,-0.11847102554217989,-0.15904527817404684,-0.18103029248379882,-0.16559056984501686,-0.5572976165734924,-0.013890995192184485
6532,7.0,299.82065,1217.241,0.0,0.0,0.0,0.0,-0.06510320020151761,0.0,-0.09944177627138921,-0.1012128857704341,-0.16935622264915784,-0.14522835663042286,-0.5690372335571025,-0.0006010239281464435
6533,7.0,299.7733,1209.3975,0.0,0.0,0.0,0.0,-0.06511316701110144,0.0,-0.09185167783930481,-0.10293687812657891,-0.17283809449779183,-0.14702549753778688,-0.5864481126754224,-0.005257311674631265
6534,7.0,300.39047999999997,1538.8421,0.0,0.0,0.0,0.0,-0.06512313382068524,0.0,-0.17778327174334282,-0.1049769052154139,-0.1850093965540058,-0.1144720212400089,-0.5738058519727285,-0.001138030937889909
6535,7.0,300.38282999999996,1704.7521,0.0,0.0,0.0,0.0,-0.06513310063026907,0.0,-0.16140273625420984,-0.14917342562977087,-0.2076259189885828,-0.12186787557492287,-0.5709045319013905,-0.03397979907929507
6536,7.0,299.79357999999996,1524.8629999999998,0.0,0.0,0.0,0.0,-0.0651430674398529,0.0,-0.15396233944489984,-0.11004089616769089,-0.1995170405582988,-0.1412436188896599,-0.5549773954345044,-0.025980014247527775
6537,7.0,298.82357,1355.977,0.0,0.0,0.0,0.0,-0.0651530342494367,0.0,-0.12279857618927588,-0.1023551509791669,-0.18702942208586684,-0.16806108637133785,-0.5675608774988975,-0.03005729211992377
6538,7.0,298.48365,1229.5207,0.0,0.0,0.0,0.0,-0.06516300105902054,0.0,-0.12360355273122088,-0.07429346911669452,-0.17584657589970584,-0.16286284991331185,-0.5646484218089605,-0.013657257645866385
6539,7.0,299.01024,1206.325,0.0,0.0,0.0,0.0,-0.06517296786860435,0.0,-0.11330388572972289,-0.10858557518156188,-0.14480320702096386,-0.13939880456509088,-0.5378052684372475,-0.05275772990128254
6540,7.0,298.79106,1280.1589999999999,0.0,0.0,0.0,0.0,-0.06518293467818818,0.0,-0.13478927654766587,-0.08725316283721672,-0.16709392901838685,-0.1177941542103779,-0.5737900452711685,-0.007234312580746062
6541,7.0,299.14606000000003,1177.7369,0.0,0.0,0.0,0.0,-0.065192901487772,0.0,-0.08245640443981352,-0.12664618066150488,-0.14890001022278687,-0.12451859863152889,-0.5516407020601986,-0.05986492448145804
6542,7.0,300.50821,1067.4564,0.0,0.0,0.0,0.0,-0.06520286829735582,0.0,-0.05270085414666935,-0.13657706515660686,-0.13520219622841786,-0.15664234542939584,-0.5838278884468264,-0.039826292686299065
6543,7.0,300.45822999999996,1405.8862,0.0,0.0,0.0,0.0,-0.06521283510693963,0.0,-0.11381948817560888,-0.14296507001455386,-0.17056973149892185,-0.12733873710485488,-0.5455688717634555,-0.050085981905101544
6544,7.0,300.62099,1588.9123,0.0,0.0,0.0,0.0,-0.06522280191652345,0.0,-0.12258285524298589,-0.15283968873160286,-0.2075671302177808,-0.15171986498608486,-0.5651822222266425,-0.03309502909197507
6545,7.0,300.6558,1115.2952,0.0,0.0,0.0,0.0,-0.06523276872610728,0.0,-0.062424817772599846,-0.13429737402161887,-0.14229968893888587,-0.12429459943192188,-0.5730161856397945,-0.03178265742995407
6546,7.0,300.45389,1096.2544,0.0,0.0,0.0,0.0,-0.0652427355356911,0.0,-0.08643075535380142,-0.1033583091081709,-0.14344491486441086,-0.15860238655533684,-0.5891897242659985,-0.04938223208789686
6547,7.0,299.2735,1607.4162,0.0,0.0,0.0,0.0,-0.06525270234527493,0.0,-0.14497721246063686,-0.14405714083983287,-0.19958004444951682,-0.16308091146733286,-0.5617155085995045,-0.05568315215274925
6548,7.0,299.79814,1591.7858,0.0,0.0,0.0,0.0,-0.06526266915485875,0.0,-0.16912590076892686,-0.12577676141319988,-0.18896049439144882,-0.13447706379435287,-0.5675825205210334,-0.04072557748130156
6549,7.0,298.98967000000005,1192.7964,0.0,0.0,0.0,0.0,-0.06527263596444256,0.0,-0.13096925274315888,-0.08577136967897511,-0.14583970107825786,-0.13849280698817587,-0.5566547195175434,-0.023367461335438877
6550,7.0,300.6112,1346.351,0.0,0.0,0.0,0.0,-0.06528260277402638,0.0,-0.12854658188655987,-0.1067163415295829,-0.17399415206688584,-0.13640265441689386,-0.5539580962314075,-0.0005453741656242394
6551,7.0,300.34335,1434.2514,0.0,0.0,0.0,0.0,-0.06529256958361021,0.0,-0.15436996996012983,-0.1161789322259679,-0.16542771015644384,-0.13199754960714388,-0.5547211343517134,-0.015204751967092183
6552,7.0,300.97927999999996,1548.6269,0.0,0.0,0.0,0.0,-0.06530253639319401,0.0,-0.13670871674209986,-0.13176809912199888,-0.20226710265470882,-0.13664817504862486,-0.5681784736998494,0.020270546504547182
6553,7.0,300.95159,1704.9017,0.0,0.0,0.0,0.0,-0.06531250320277784,0.0,-0.15427976030372684,-0.15524969396195187,-0.20871810127137277,-0.15628319893145085,-0.5717856744533524,-0.014244498900322589
6554,7.0,300.57453,1515.8536,0.0,0.0,0.0,0.0,-0.06532247001236166,0.0,-0.12513412780227687,-0.13632967001219087,-0.1993178558536408,-0.16790880501380887,-0.5894799089621375,0.002750973210899917
6555,7.0,299.65415,1181.8085,0.0,0.0,0.0,0.0,-0.06533243682194549,0.0,-0.11334316943609989,-0.1056081802927159,-0.14028892451293887,-0.17541289472440483,-0.5702958826988215,-0.052572024462704856
6556,7.0,299.32435,1347.9008,0.0,0.0,0.0,0.0,-0.06534240363152931,0.0,-0.12413422220609388,-0.1138950057055619,-0.17169894807286684,-0.14549075800881986,-0.5669085977470224,-0.023352010284663976
6557,7.0,298.96763,1487.0825,0.0,0.0,0.0,0.0,-0.06535237044111313,0.0,-0.15339728026163285,-0.11871576597133388,-0.17992290131700783,-0.13645952814500686,-0.5569789392845415,-0.03516181206295067
6558,7.0,300.4734,1270.1086,0.0,0.0,0.0,0.0,-0.06536233725069696,0.0,-0.09635504055100211,-0.13587665602498186,-0.15384959510627286,-0.1010097291253841,-0.5894950469186314,-0.05842583677518114
6559,7.0,299.94579,1065.2185,0.0,0.0,0.0,0.0,-0.06537230406028076,0.0,-0.07758571931511433,-0.1098849265797979,-0.1363291836521429,-0.14001778891867986,-0.5527121836434455,-0.05684863598752354
6560,7.0,298.98778,1275.1737,0.0,0.0,0.0,0.0,-0.06538227086986459,0.0,-0.12105308063950888,-0.11892854849233389,-0.14763932444836686,-0.12030368086554889,-0.5724504678439625,-0.046289448277662855
6561,7.0,299.6349,1372.0736,0.0,0.0,0.0,0.0,-0.06539223767944842,0.0,-0.11117448998206789,-0.13354267494963587,-0.17235893865800284,-0.18052865262429083,-0.5795213323418025,-0.030720840226160867
6562,7.0,300.0481,1370.8742,0.0,0.0,0.0,0.0,-0.06540220448903222,0.0,-0.1057470158214179,-0.14646849369281487,-0.16449602668949384,-0.14565430670746088,-0.5744499649287974,-0.05178632601716245
6563,7.0,300.81091000000004,1640.5376,0.0,0.0,0.0,0.0,-0.06541217129861605,0.0,-0.16149131457795185,-0.16616593378180083,-0.17102521781637484,-0.14810475074930085,-0.5663852844678754,-0.017241477887101384
6564,7.0,300.53657000000004,1464.2998,0.0,0.0,0.0,0.0,-0.06542213810819987,0.0,-0.11974735589814388,-0.1281825312581309,-0.1971806884777188,-0.12301487468812289,-0.5476591965872545,-0.03135954040019567
6565,7.0,299.30024,1188.1296,0.0,0.0,0.0,0.0,-0.0654321049177837,0.0,-0.07836570809634322,-0.0969701522627089,-0.18582587348458582,-0.16667946919748283,-0.5916933335405855,0.0017967629650766986
6566,7.0,299.59258,1527.171,0.0,0.0,0.0,0.0,-0.06544207172736752,0.0,-0.13744396141216286,-0.11588482625194188,-0.21089305274352382,-0.11866896394921488,-0.6098603404135294,-0.03867005070568686
6567,7.0,298.56462,1475.9759,0.0,0.0,0.0,0.0,-0.06545203853695133,0.0,-0.13962726206513787,-0.09488677630809572,-0.21414577808204277,-0.14138119798823787,-0.5708567571591754,-0.0031703731326664666
6568,7.0,298.51436,1101.9596,0.0,0.0,0.0,0.0,-0.06546200534653517,0.0,-0.1190069233875689,-0.07794700478402043,-0.13801428949594988,-0.11862809957268189,-0.5799790782069785,-0.037887823654987066
6569,7.0,300.92525,1385.7421,0.0,0.0,0.0,0.0,-0.06547197215611897,0.0,-0.16721673493050684,-0.08792954578247052,-0.16608471165378486,-0.12867262006649888,-0.5774206115719774,-0.005563758933550255
6570,7.0,300.90993,1557.3635,0.0,0.0,0.0,0.0,-0.0654819389657028,0.0,-0.15830176538316784,-0.12703047602693188,-0.18806737522330483,-0.16725665698444683,-0.5782986434461325,-0.04301175341692956
6571,7.0,300.03212,1456.4897,0.0,0.0,0.0,0.0,-0.06549190577528663,0.0,-0.12654809805182488,-0.13828897146555888,-0.17789944086730783,-0.11814555947755889,-0.5637427788695805,-0.019963751599518877
6572,7.0,300.59177999999997,1457.8096,0.0,0.0,0.0,0.0,-0.06550187258487043,0.0,-0.1430497371929099,-0.11440202592310088,-0.18568595377827682,-0.16122241826641384,-0.5599882920815414,-0.028044272199254174
6573,7.0,300.2557,1448.221,0.0,0.0,0.0,0.0,-0.06551183939445426,0.0,-0.10551781864879789,-0.14503389367123087,-0.18967129946909983,-0.14704981554018687,-0.5658493460924825,-0.019936314813311082
6574,7.0,300.22302,1047.1746,0.0,0.0,0.0,0.0,-0.06552180620403808,0.0,-0.09202637735529631,-0.09516807784060802,-0.13112048032058388,-0.16547010454062783,-0.5945787759828565,-0.05710806145037685
6575,7.0,300.79,1234.8461,0.0,0.0,0.0,0.0,-0.06553177301362191,0.0,-0.1087182501496559,-0.12790653206339186,-0.13873759807983488,-0.13784855217709285,-0.5536293877664665,-0.05504445096546435
6576,7.0,299.02767,1271.4862,0.0,0.0,0.0,0.0,-0.06554173982320573,0.0,-0.12092548205441589,-0.13469519627588086,-0.13087936732678787,-0.12027738702545389,-0.5537833207216585,-0.06194342974284053
6577,7.0,299.24168,1018.9752,0.0,0.0,0.0,0.0,-0.06555170663278954,0.0,-0.08762274277144141,-0.07945079458868293,-0.14266947456288087,-0.13849302990319787,-0.5647207881311025,-0.04848987184407775
6578,7.0,300.99137,1092.7152,0.0,0.0,0.0,0.0,-0.06556167344237337,0.0,-0.04337328611886005,-0.12829686639941487,-0.16048796393142886,-0.16613256745600782,-0.5762028166742905,-0.07605979810176763
6579,7.0,299.89814,1436.6389,0.0,0.0,0.0,0.0,-0.06557164025195718,0.0,-0.1005949977534533,-0.12564908176809889,-0.2104582569931128,-0.14425648766450688,-0.5752455587748165,-0.05709919551200185
6580,7.0,299.73785,1600.3118,0.0,0.0,0.0,0.0,-0.06558160706154101,0.0,-0.16850321805247284,-0.12055216018757188,-0.19739945930680983,-0.15188618998999986,-0.5643039370399624,-0.027765148141206772
6581,7.0,299.85323999999997,1507.765,0.0,0.0,0.0,0.0,-0.06559157387112484,0.0,-0.16612928452568385,-0.12524038734026388,-0.16695322910950083,-0.12352207729067988,-0.5772793239780334,-0.012867059356629887
6582,7.0,300.23251,1514.2711,0.0,0.0,0.0,0.0,-0.06560154068070864,0.0,-0.15550770796741586,-0.12372940852614188,-0.18106348655707483,-0.15290332083788286,-0.5725106346349005,-0.0014549891467212485
6583,7.0,301.46065,1442.2019,0.0,0.0,0.0,0.0,-0.06561150749029247,0.0,-0.16855651500773283,-0.1032929646092219,-0.16654389633410285,-0.14951439442092188,-0.5603798828476885,0.03133349480637517
6584,7.0,301.7077,1368.2824,0.0,0.0,0.0,0.0,-0.06562147429987629,0.0,-0.09552957001253451,-0.12667883771222788,-0.1937152718107088,-0.14948927595094286,-0.5682650356558924,0.011451376714412887
6585,7.0,301.00314,1453.2487,0.0,0.0,0.0,0.0,-0.06563144110946012,0.0,-0.12862683129447988,-0.11222889830112989,-0.2008955875843508,-0.14264434596040085,-0.5735965145020685,-0.0016318178051478783
6586,7.0,301.23011,1579.5774,0.0,0.0,0.0,0.0,-0.06564140791904394,0.0,-0.14290755793887785,-0.13733216952862984,-0.1999123499523128,-0.14727360195727285,-0.5759218322890595,-0.03847504363119117
6587,7.0,300.14166,1323.1066,0.0,0.0,0.0,0.0,-0.06565137472862775,0.0,-0.12679516895620888,-0.1104840917614309,-0.16491211784305884,-0.14244317528554687,-0.5797467196940465,-0.07030418390948273
6588,7.0,300.15078,1275.4657,0.0,0.0,0.0,0.0,-0.06566134153821158,0.0,-0.1347441463882119,-0.10943360472025589,-0.14353197331300288,-0.14510708072595385,-0.5450680121065244,-0.04480432253984236
6589,7.0,300.96796,1455.9874,0.0,0.0,0.0,0.0,-0.06567130834779539,0.0,-0.13988701886077384,-0.11866740354406088,-0.1840293911897868,-0.14088713723947785,-0.5913406313132764,-0.05303286175393595
6590,7.0,300.1478,1261.4274,0.0,0.0,0.0,0.0,-0.06568127515737922,0.0,-0.07136215278939613,-0.11431589966460089,-0.1977643813303248,-0.14044867352370485,-0.5586614714730945,-0.02821685604903687
6591,7.0,300.13074,1174.6141,0.0,0.0,0.0,0.0,-0.06569124196696305,0.0,-0.05510603833304254,-0.15090059148522886,-0.15104672241465084,-0.14497984691089685,-0.5698730027695865,-0.03379132442819407
6592,7.0,301.15776,1446.381,0.0,0.0,0.0,0.0,-0.06570120877654685,0.0,-0.12644859689200488,-0.12641831084651586,-0.18679681026040984,-0.14307769276316887,-0.5510068330626405,-0.005833115665933694
6593,7.0,300.17849,1420.8086,0.0,0.0,0.0,0.0,-0.06571117558613068,0.0,-0.14414294285830084,-0.14823972579512185,-0.13950765802333387,-0.16933113457668184,-0.5841765275412344,-0.028535582987242774
6594,7.0,300.27497999999997,1384.7627,0.0,0.0,0.0,0.0,-0.0657211423957145,0.0,-0.13505110037350587,-0.15621264632698784,-0.1296695365748869,-0.11706222286814189,-0.5627692887035044,-0.04841116561606005
6595,7.0,299.98918,1528.5905,0.0,0.0,0.0,0.0,-0.06573110920529833,0.0,-0.13663964348278287,-0.14515062008275087,-0.1828630693971798,-0.14704806261751388,-0.5530874408179804,-0.048496359684468054
6596,7.0,299.01453,1433.5461,0.0,0.0,0.0,0.0,-0.06574107601488215,0.0,-0.09005148299613942,-0.15704137345127686,-0.1886693775052178,-0.14025818250490488,-0.5592478494384655,-0.04688150247009405
6597,7.0,299.08685,1283.9678,0.0,0.0,0.0,0.0,-0.06575104282446596,0.0,-0.0982960264955625,-0.11344284284843688,-0.17855528725953485,-0.15647248418263185,-0.6279942748032094,-0.034430786566304064
6598,7.0,300.13981,1382.5237,0.0,0.0,0.0,0.0,-0.06576100963404978,0.0,-0.1082198222929649,-0.1257067660962919,-0.18632609479395384,-0.13289463058317888,-0.5948608850756985,-0.04974638201483565
6599,7.0,300.07883,1322.6601,0.0,0.0,0.0,0.0,-0.0657709764436336,0.0,-0.13903219041390888,-0.1029247393903809,-0.16009872390551386,-0.13033601196066288,-0.5852907784112024,-0.011408608440941988
6600,7.0,300.54696,1424.9767,0.0,0.0,0.0,0.0,-0.06578094325321743,0.0,-0.16273583901327685,-0.1151170055911639,-0.15530448039485883,-0.11959225770533688,-0.5555159986576604,-0.02390553564204268
6601,7.0,300.98028999999997,1499.2920000000001,0.0,0.0,0.0,0.0,-0.06579091006280124,0.0,-0.15261327799675786,-0.10956236854296389,-0.19357167400653683,-0.18211831030867784,-0.5775587378256094,0.002022931938447838
6602,7.0,300.21647,1611.2108,0.0,0.0,0.0,0.0,-0.06580087687238506,0.0,-0.15054619713025286,-0.14469135434242486,-0.1945303099261468,-0.14307391334029587,-0.5418097442899584,-0.01772759982132788
6603,7.0,299.61002,1581.5547,0.0,0.0,0.0,0.0,-0.06581084368196889,0.0,-0.12983754357396787,-0.13974134389389686,-0.2111742600437768,-0.13870862925947586,-0.5437527729467204,-0.020216084311672183
6604,7.0,298.87011,1422.8327,0.0,0.0,0.0,0.0,-0.06582081049155271,0.0,-0.13557207304492186,-0.14465525224136186,-0.15227829751369784,-0.14182475835201386,-0.5449338881907875,-0.04545028670384405
6605,7.0,299.39536,1412.0629,0.0,0.0,0.0,0.0,-0.06583077730113653,0.0,-0.15079961098026284,-0.11050578544607188,-0.16792645583055085,-0.17169348665482784,-0.6084171480310975,-0.03143291389293707
6606,7.0,300.46631,1225.2001,0.0,0.0,0.0,0.0,-0.06584074411072036,0.0,-0.1192696794035009,-0.1162477521727599,-0.13691281570974287,-0.16569087147241585,-0.5949014252121995,-0.06273372327758645
6607,7.0,300.22052,1060.1594,0.0,0.0,0.0,0.0,-0.06585071092030416,0.0,-0.03844872040684326,-0.11971880251032589,-0.16409446554236284,-0.1326183679434139,-0.5963866776062825,-0.05944457362447265
6608,7.0,300.27432999999996,1148.8378,0.0,0.0,0.0,0.0,-0.06586067772988799,0.0,-0.07236940039580372,-0.09002922695769291,-0.1868193652076358,-0.12574924154048386,-0.5715818287982345,-0.044962957988748456
6609,7.0,301.73251,1523.9601,0.0,0.0,0.0,0.0,-0.0658706445394718,0.0,-0.11810433033098988,-0.14495999734143786,-0.20018148944387482,-0.11866001695083189,-0.5963340392635874,-0.03186566895764668
6610,7.0,300.98689,1352.5534,0.0,0.0,0.0,0.0,-0.06588061134905564,0.0,-0.12518659389245487,-0.1231527982917349,-0.16280306815741183,-0.13004869476230688,-0.5660918371064144,-0.051321906886827855
6611,7.0,300.2702,1427.7639,0.0,0.0,0.0,0.0,-0.06589057815863945,0.0,-0.16750505524646184,-0.1125412225119539,-0.15395830670950186,-0.1157712206507299,-0.5442101439093594,-0.021633824864842277
6612,7.0,300.4473,1626.2585,0.0,0.0,0.0,0.0,-0.06590054496822327,0.0,-0.16198861772703183,-0.15431887175758685,-0.17803448684063583,-0.15478312268840486,-0.5582459376070844,-0.04237919961800136
6613,7.0,298.95654,1500.1202,0.0,0.0,0.0,0.0,-0.0659105117778071,0.0,-0.12920319834886287,-0.11473839455879789,-0.2120574797584438,-0.1442257355239719,-0.5854106965605375,-0.006582895915306244
6614,7.0,298.73413,1550.5774,0.0,0.0,0.0,0.0,-0.0659204785873909,0.0,-0.12237649672761988,-0.14240306071408787,-0.2065572643731148,-0.19308326719333482,-0.5783450806982154,-0.054594329807290856
6615,7.0,299.96484,1385.2778,0.0,0.0,0.0,0.0,-0.06593044539697474,0.0,-0.12545609815405287,-0.1027142772121099,-0.19291949557967183,-0.14573409002033486,-0.5504744309300964,-0.007100045290119914
6616,7.0,299.91787,1054.9732,0.0,0.0,0.0,0.0,-0.06594041220655857,0.0,-0.091740688449851,-0.08216106838016612,-0.14678373606392686,-0.17008769802884885,-0.5816899206033255,-0.04144308926136446
6617,7.0,300.22497000000004,1133.0139,0.0,0.0,0.0,0.0,-0.06595037901614237,0.0,-0.1171060763324699,-0.07716558732015052,-0.15013626653729584,-0.12414166959432889,-0.6094457691351144,-0.02108772257769618
6618,7.0,301.46497,1557.5893,0.0,0.0,0.0,0.0,-0.0659603458257262,0.0,-0.15325472610506385,-0.1135929153207479,-0.2066206026368658,-0.12836291004093286,-0.5784461422631895,-0.01014449686793389
6619,7.0,301.07993,1540.1334,0.0,0.0,0.0,0.0,-0.06597031263531002,0.0,-0.11791903728520288,-0.1302192247541369,-0.2200238242971608,-0.1161755175731309,-0.5739116758131724,-0.04412142135669526
6620,7.0,300.17312999999996,1395.2514,0.0,0.0,0.0,0.0,-0.06598027944489385,0.0,-0.12071445245608887,-0.11651333515647087,-0.1868937985599818,-0.13803955995344386,-0.5800405216930424,-0.009287445856974542
6621,7.0,299.59445,1464.4703,0.0,0.0,0.0,0.0,-0.06599024625447766,0.0,-0.14576058651044987,-0.1157214092758139,-0.18368038732534284,-0.15043908646218185,-0.5872120120583134,-0.04645706618870545
6622,7.0,299.17047,1557.2989,0.0,0.0,0.0,0.0,-0.06600021306406148,0.0,-0.17051398247841984,-0.13026980619912887,-0.17259620130141884,-0.14081552072240985,-0.5550461241887875,-0.014392007849880586
6623,7.0,299.44566000000003,1322.536,0.0,0.0,0.0,0.0,-0.06601017987364531,0.0,-0.13938633145635987,-0.10775828687241491,-0.15487329181480383,-0.14776074220784988,-0.5493111691527914,-0.06498241402576493
6624,7.0,299.52966000000004,1253.2097,0.0,0.0,0.0,0.0,-0.06602014668322911,0.0,-0.09113438998751401,-0.1034122038809899,-0.18639787343103784,-0.17160515151110986,-0.5560566486460184,0.002064102417836048
6625,7.0,300.88246000000004,1276.6069,0.0,0.0,0.0,0.0,-0.06603011349281294,0.0,-0.08175052173114833,-0.14334676132722388,-0.16295933158783385,-0.17662640357416884,-0.5921474215729005,-0.05657370475838995
6626,7.0,300.46799,1139.6612,0.0,0.0,0.0,0.0,-0.06604008030239678,0.0,-0.07449536527862013,-0.10308345488604491,-0.16884972932167083,-0.13790459504012387,-0.5523028610005485,-0.023211809908077276
6627,7.0,301.32739,1422.08,0.0,0.0,0.0,0.0,-0.06605004711198058,0.0,-0.1303430337838559,-0.15247327723044085,-0.14946050978060388,-0.13640741669236386,-0.5640658840614684,-0.07578298222744803
6628,7.0,300.81455,1759.6638,0.0,0.0,0.0,0.0,-0.06606001392156441,0.0,-0.19234791106576082,-0.15904035377856085,-0.1835055814180908,-0.13992012174154086,-0.5880154788576094,-0.03563253056915697
6629,7.0,299.76977,1406.1625,0.0,0.0,0.0,0.0,-0.06606998073114823,0.0,-0.15916166008053284,-0.12149422946804687,-0.14678240870629586,-0.15400773304937984,-0.6158624489708915,-0.056672034601094344
6630,7.0,298.96571,1434.6786,0.0,0.0,0.0,0.0,-0.06607994754073206,0.0,-0.1220287898233039,-0.12847902850239287,-0.18559864201715984,-0.1060015645115399,-0.5926778073377454,-0.038961668137467265
6631,7.0,299.36512999999997,1510.9705,0.0,0.0,0.0,0.0,-0.06608991435031587,0.0,-0.12705549317190087,-0.1092507232097069,-0.2229910664200048,-0.10546172512326189,-0.5769052624386165,-0.02041515350581878
6632,7.0,299.44837,1168.7916,0.0,0.0,0.0,0.0,-0.06609988115989969,0.0,-0.08547648654212242,-0.0872033909790546,-0.18260357604656985,-0.12213003377329588,-0.5812045535404234,-0.006965677890383884
6633,7.0,300.51474,1037.7212,0.0,0.0,0.0,0.0,-0.06610984796948352,0.0,-0.08085787879055133,-0.10125798857213542,-0.13332547465819986,-0.17224716703947185,-0.5966093494482584,-0.030814796881433675
6634,7.0,300.47589,1266.609,0.0,0.0,0.0,0.0,-0.06611981477906732,0.0,-0.13649181029319288,-0.0990504834007716,-0.14947520190705385,-0.15297930446288185,-0.5442542405537114,-0.015966362418007283
6635,7.0,299.90563,1243.3213,0.0,0.0,0.0,0.0,-0.06612978158865115,0.0,-0.13054834865161888,-0.12483983944323289,-0.12255044137228688,-0.15902980584501986,-0.5405601130741295,-0.05698926598215265
6636,7.0,300.35147,1469.1529999999998,0.0,0.0,0.0,0.0,-0.06613974839823498,0.0,-0.1077328846924079,-0.14147565316255986,-0.1973772995271228,-0.16142272767868285,-0.5715237391700015,-0.02409629415886908
6637,7.0,298.91114,1708.0659,0.0,0.0,0.0,0.0,-0.06614971520781879,0.0,-0.12959297539733086,-0.16996843849207885,-0.2196479591725658,-0.18064750686102082,-0.6019532608731615,-0.04407660125177186
6638,7.0,298.67222999999996,1438.6255,0.0,0.0,0.0,0.0,-0.06615968201740262,0.0,-0.12177955056370587,-0.13115831507931788,-0.18436836387824082,-0.13462626487157786,-0.5729830624940255,-0.026414500956658274
6639,7.0,299.63593,1222.4804,0.0,0.0,0.0,0.0,-0.06616964882698644,0.0,-0.1323797272798619,-0.11007478938353589,-0.1291489996010139,-0.1040279964967639,-0.5683478587190665,-0.03749545775251356
6640,7.0,299.81134,1245.0401,0.0,0.0,0.0,0.0,-0.06617961563657027,0.0,-0.15998751970703884,-0.07474241490475203,-0.14373115801766087,-0.10150435526769991,-0.5785586839517964,-0.012621556963400686
6641,7.0,300.76869,1398.0199,0.0,0.0,0.0,0.0,-0.06618958244615408,0.0,-0.12464218474622588,-0.1291971593782669,-0.17112378678610285,-0.13155322930579288,-0.5799504741566555,-0.03128455887954557
6642,7.0,300.75037000000003,1181.7382,0.0,0.0,0.0,0.0,-0.0661995492557379,0.0,-0.08093585041224652,-0.08154388761175513,-0.1967391647466438,-0.14050953945721187,-0.5393064795204056,-0.03255536296946417
6643,7.0,300.46715,1344.5078,0.0,0.0,0.0,0.0,-0.06620951606532173,0.0,-0.06967643088952834,-0.14815382245164385,-0.19086652928705983,-0.1350252624959559,-0.5540388826618805,-0.04998153811129375
6644,7.0,300.34199,1557.6479,0.0,0.0,0.0,0.0,-0.06621948287490553,0.0,-0.12544762738321688,-0.14404694754382688,-0.2039914922048928,-0.16498156600491284,-0.5830199836120925,-0.02198044556505108
6645,7.0,300.58347000000003,1540.5171,0.0,0.0,0.0,0.0,-0.06622944968448936,0.0,-0.13760908064845886,-0.15232344793815386,-0.1783461929688988,-0.15063970998198187,-0.6142819105374044,-0.03832676258505696
6646,7.0,299.64232000000004,1492.89,0.0,0.0,0.0,0.0,-0.0662394164940732,0.0,-0.16839711050200085,-0.13300169058874486,-0.15240247131345286,-0.15511497222865586,-0.5991572478847165,-0.040172426013209764
6647,7.0,300.47879,1491.6529,0.0,0.0,0.0,0.0,-0.066249383303657,0.0,-0.14900341239549186,-0.12218484047120488,-0.18223697202788883,-0.14166668120391288,-0.5505535961604094,-0.025532509301112477
6648,7.0,299.84053,1197.6862,0.0,0.0,0.0,0.0,-0.06625935011324083,0.0,-0.1026212405879279,-0.0921216765669516,-0.16932377838095586,-0.14834193233270887,-0.5828524224430555,-0.02326414731549258
6649,7.0,299.9826,1193.489,0.0,0.0,0.0,0.0,-0.06626931692282464,0.0,-0.08803747616987241,-0.09436429896028123,-0.18038908755551683,-0.12731681037269088,-0.5757318681603115,-0.030012368663490174
6650,7.0,300.21637000000004,1585.7573,0.0,0.0,0.0,0.0,-0.06627928373240846,0.0,-0.15257870590334585,-0.12485652767237988,-0.2045953993969938,-0.16657822524749083,-0.5660106555084025,-0.0056972184611966846
6651,7.0,299.84542999999996,1412.8837,0.0,0.0,0.0,0.0,-0.06628925054199229,0.0,-0.16415576717341285,-0.12069752104691789,-0.14462807687367984,-0.14389557811138787,-0.5432235422869895,-0.03564008130890217
6652,7.0,299.35522000000003,1253.0233,0.0,0.0,0.0,0.0,-0.06629921735157611,0.0,-0.13774786551465587,-0.09783662700622331,-0.14530330674031988,-0.17259092226839784,-0.5835872010180725,-0.003992086843738296
6653,7.0,300.07074,1439.2718,0.0,0.0,0.0,0.0,-0.06630918416115993,0.0,-0.11981386563470789,-0.14159371706421187,-0.17609510588423383,-0.1340932142589699,-0.5755417216465455,-0.057610116742425846
6654,7.0,299.80962999999997,1375.2072,0.0,0.0,0.0,0.0,-0.06631915097074374,0.0,-0.0969794457926261,-0.13309732113318287,-0.1879518647119048,-0.16514713107125284,-0.5898963142232334,-0.012627013315189187
6655,7.0,300.83536000000004,1223.8665,0.0,0.0,0.0,0.0,-0.06632911778032757,0.0,-0.08117934961002801,-0.1269999771989219,-0.16384553025779486,-0.14334521105457088,-0.5773649537439844,-0.06787410315490243
6656,7.0,300.75557000000003,1374.2089999999998,0.0,0.0,0.0,0.0,-0.06633908458991139,0.0,-0.1217003042733849,-0.12556827507262389,-0.17045665278776184,-0.16268775016353085,-0.5930578065227484,-0.005306742270159685
6657,7.0,300.12045,1262.1618,0.0,0.0,0.0,0.0,-0.0663490513994952,0.0,-0.14917313178724187,-0.11936212834262488,-0.11513040075748587,-0.15108104119553784,-0.5896050149519845,-0.04813223103578136
6658,7.0,300.22837999999996,1200.2696,0.0,0.0,0.0,0.0,-0.06635901820907904,0.0,-0.14216414647300887,-0.0992839595285639,-0.12340387153401387,-0.13481922822062187,-0.5658809594956025,-0.015586580068525686
6659,7.0,300.45485,1496.1438,0.0,0.0,0.0,0.0,-0.06636898501866285,0.0,-0.13751996530216387,-0.15006856116561387,-0.16720184015403686,-0.14787181468381186,-0.5409209111697375,-0.07001653639159414
6660,7.0,298.99031,1582.1271,0.0,0.0,0.0,0.0,-0.06637895182824667,0.0,-0.12898893648271686,-0.12542759542873988,-0.22651059064235476,-0.15760510527691285,-0.5495756071638895,-0.015193246512206686
6661,7.0,299.37765,1365.7799,0.0,0.0,0.0,0.0,-0.0663889186378305,0.0,-0.10047101039171671,-0.13023819279600887,-0.1844537808616708,-0.17048199417276283,-0.5721815310024205,-0.05919279313362385
6662,7.0,298.81859,1343.2334,0.0,0.0,0.0,0.0,-0.0663988854474143,0.0,-0.1059320859521829,-0.12338139764679587,-0.17899593959552385,-0.1328385269251419,-0.5642682301064385,-0.020004604830300782
6663,7.0,299.55317,1443.1506,0.0,0.0,0.0,0.0,-0.06640885225699814,0.0,-0.17944927782276482,-0.10585335641941289,-0.15337913295234187,-0.13117479052594386,-0.5715565988707444,-0.02195948243373218
6664,7.0,299.60687,1493.5472,0.0,0.0,0.0,0.0,-0.06641881906658195,0.0,-0.12618941764892588,-0.13366216753392887,-0.19414947987606182,-0.1194017565540359,-0.6024252631672444,-0.0018363148787551684
6665,7.0,299.88293999999996,1363.6534,0.0,0.0,0.0,0.0,-0.06642878587616578,0.0,-0.11391849284287989,-0.1222570345408299,-0.17834106592339283,-0.16291975403892786,-0.6153408784819164,-0.035677893776133965
6666,7.0,300.29199,1492.6136,0.0,0.0,0.0,0.0,-0.0664387526857496,0.0,-0.09706535724210491,-0.13185946388351588,-0.2247924528452878,-0.13075487941950187,-0.5910823538627864,-0.018677211735547282
6667,7.0,300.27224,1416.9559,0.0,0.0,0.0,0.0,-0.06644871949533342,0.0,-0.12881680555572886,-0.12236741800672388,-0.17953499878122484,-0.14805392612428486,-0.5498926733851816,-0.04240111216466396
6668,7.0,299.35478,1326.0005,0.0,0.0,0.0,0.0,-0.06645868630491725,0.0,-0.13244368362617387,-0.11684896411959488,-0.15377839402174587,-0.15573082563943585,-0.5769488524579185,-0.03253762501321357
6669,7.0,299.70403,1539.2185,0.0,0.0,0.0,0.0,-0.06646865311450105,0.0,-0.1975015645193868,-0.11212212200559188,-0.15826030318907586,-0.2013007559018378,-0.5906114458788114,-0.02871933791937797
6670,7.0,300.24086,1607.8565,0.0,0.0,0.0,0.0,-0.06647861992408488,0.0,-0.15878988848634185,-0.13165109913295187,-0.19830723007139983,-0.15105143402761587,-0.5881536456412455,-0.030411522328383574
6671,7.0,300.08533,1352.1557,0.0,0.0,0.0,0.0,-0.06648858673366871,0.0,-0.09317568059922372,-0.1171490280042089,-0.20069686897473882,-0.12609125397923787,-0.5677517434202345,-0.03925695657435996
6672,7.0,299.87776,1216.2414,0.0,0.0,0.0,0.0,-0.06649855354325251,0.0,-0.07762481354372262,-0.09334195190088342,-0.19874024250163483,-0.1018570169650049,-0.5643420149787204,-0.05096952079355005
6673,7.0,298.80259,1441.9553,0.0,0.0,0.0,0.0,-0.06650852035283635,0.0,-0.12600750885847287,-0.1241484279724959,-0.18816247887769083,-0.14321278939900187,-0.5835196577664065,-0.03546933448155076
6674,7.0,299.31451,1476.7709,0.0,0.0,0.0,0.0,-0.06651848716242016,0.0,-0.17780024368251784,-0.10861756348721889,-0.16248368159339083,-0.13146204692929386,-0.5847604838388665,-0.04933437223267346
6675,7.0,299.60857999999996,1412.4419,0.0,0.0,0.0,0.0,-0.06652845397200399,0.0,-0.14226992978344888,-0.14589911806412187,-0.14117802107818586,-0.14468505192680287,-0.5400567506894515,-0.03407189338088407
6676,7.0,299.52272999999997,1236.5551,0.0,0.0,0.0,0.0,-0.06653842078158781,0.0,-0.10334079001394189,-0.11802252051791588,-0.15451856308729484,-0.15023280900682384,-0.5740375721380975,-0.026763575748609273
6677,7.0,299.88289,1325.5742,0.0,0.0,0.0,0.0,-0.06654838759117163,0.0,-0.07634687313334972,-0.14709269628441887,-0.17950187563545583,-0.17922953427357782,-0.6152112736616254,-0.025711652932042577
6678,7.0,300.32837,1432.4556,0.0,0.0,0.0,0.0,-0.06655835440075546,0.0,-0.1010402816556494,-0.14641141731468185,-0.18797902994708582,-0.14817247638598485,-0.6144935075557875,-0.042337229785609255
6679,7.0,300.58825,1529.7955,0.0,0.0,0.0,0.0,-0.06656832121033926,0.0,-0.14001705937860787,-0.13938617946884485,-0.18561641442391383,-0.08905811995585211,-0.5581551706631265,-0.02302127734602318
6680,7.0,301.60064,1399.8061,0.0,0.0,0.0,0.0,-0.06657828801992309,0.0,-0.17565434209073383,-0.11558727522757588,-0.13426447379087186,-0.08729935285627531,-0.5737900959336735,-0.03818342214641036
6681,7.0,300.97825,1169.6085,0.0,0.0,0.0,0.0,-0.06658825482950692,0.0,-0.0998059717945825,-0.1048058685985339,-0.15091992429713685,-0.1118785265490509,-0.5863282451885925,-0.03253708089790987
6682,7.0,299.84392,1398.5718,0.0,0.0,0.0,0.0,-0.06659822163909072,0.0,-0.11385472901408689,-0.1298889964140459,-0.18138717943402083,-0.16137492253896485,-0.5831518479801064,-0.049189154241591544
6683,7.0,299.6743,1594.8265,0.0,0.0,0.0,0.0,-0.06660818844867455,0.0,-0.1019028665320299,-0.13047023720140988,-0.2524143395813558,-0.11746580038297189,-0.5378753954766685,-0.030244761626925572
6684,7.0,299.15092999999996,1354.4895,0.0,0.0,0.0,0.0,-0.06661815525825837,0.0,-0.07545834500140883,-0.15768087611939086,-0.17859176426313483,-0.16015185874075785,-0.5782739606736965,-0.05990239548340614
6685,7.0,298.62961,1238.1294,0.0,0.0,0.0,0.0,-0.0666281220678422,0.0,-0.1225237422321519,-0.1087641199816829,-0.14507255929504687,-0.15823807248188185,-0.6108094011196944,-0.017173442195886787
6686,7.0,300.46993,1486.7112,0.0,0.0,0.0,0.0,-0.06663808887742602,0.0,-0.16700180431929484,-0.13551524997931386,-0.14940601719022586,-0.1772076646265348,-0.6059080672059705,-0.016506348727549785
6687,7.0,300.29581,1510.6354,0.0,0.0,0.0,0.0,-0.06664805568700984,0.0,-0.14520396770051586,-0.13518080651880687,-0.17881066681473884,-0.14458025146895986,-0.5584132758610995,-0.003362777978255347
6688,7.0,300.03866,1501.6576,0.0,0.0,0.0,0.0,-0.06665802249659367,0.0,-0.1167295120653059,-0.12795790384346187,-0.21177900823346082,-0.14311155558151087,-0.5870503581373594,-0.01182626303941129
6689,7.0,300.04132000000004,1568.0135,0.0,0.0,0.0,0.0,-0.06666798930617747,0.0,-0.12407258620251088,-0.12597876295313587,-0.2265856015472578,-0.13273850900777087,-0.6168680287676345,-0.006323236087704813
6690,7.0,300.88036,1371.1662,0.0,0.0,0.0,0.0,-0.0666779561157613,0.0,-0.08910482774571182,-0.12494099220071588,-0.2027544556878068,-0.1355391424166719,-0.5891163852237605,-0.049050198136127654
6691,7.0,300.12791,1312.6331,0.0,0.0,0.0,0.0,-0.06668792292534513,0.0,-0.15556778356584486,-0.0987511460164793,-0.14468874015716685,-0.12350019108851987,-0.5581936437694235,-0.04160725502931636
6692,7.0,299.84815,1548.9484,0.0,0.0,0.0,0.0,-0.06669788973492893,0.0,-0.17263657931790385,-0.12593973255928387,-0.17226533461376484,-0.16831958673684982,-0.5636299433384445,-0.04939900137705186
6693,7.0,299.27975,1471.2389,0.0,0.0,0.0,0.0,-0.06670785654451276,0.0,-0.16357122319072284,-0.12818657412602988,-0.15546210158041485,-0.17596074892097385,-0.5917555673617275,-0.051066394595860744
6694,7.0,299.46897,1225.3685,0.0,0.0,0.0,0.0,-0.06671782335409658,0.0,-0.07584844527665872,-0.1317863680213019,-0.16484662135659484,-0.14552334413203585,-0.5649706049432575,-0.04227726665794136
6695,7.0,299.64829,1260.8576,0.0,0.0,0.0,0.0,-0.06672779016368041,0.0,-0.08433945274365591,-0.13957981156295488,-0.15934997261161785,-0.11990699345139888,-0.5336232914320185,-0.047476924705857654
6696,7.0,299.99066,1379.6397,0.0,0.0,0.0,0.0,-0.06673775697326423,0.0,-0.09123616589380851,-0.13787523105222588,-0.1902646283301568,-0.13083095423700988,-0.5721085060677135,-0.03597477402893376
6697,7.0,300.10669,1394.8132,0.0,0.0,0.0,0.0,-0.06674772378284805,0.0,-0.15458579223142982,-0.12749258900003888,-0.14191000308292687,-0.16534712637599083,-0.6269752289126374,-0.027842555382596272
6698,7.0,299.38468,1356.6083,0.0,0.0,0.0,0.0,-0.06675769059243188,0.0,-0.14029735475377086,-0.12305354031193888,-0.14902415362503885,-0.15405751402679285,-0.5908071348706244,-0.029586367923947175
6699,7.0,299.76838,1294.7186,0.0,0.0,0.0,0.0,-0.06676765740201568,0.0,-0.13320079423339487,-0.09388343072782322,-0.16647790335508983,-0.16284004165356084,-0.5520135882294994,-0.013624280408111788
6700,7.0,299.89625,1208.1091,0.0,0.0,0.0,0.0,-0.06677762421159951,0.0,-0.08160897373192862,-0.1180556335311839,-0.16757037948040884,-0.17088031291957384,-0.5558591358040255,-0.03891335839919946
6701,7.0,300.19729,1460.7642,0.0,0.0,0.0,0.0,-0.06678759102118333,0.0,-0.11835689305091589,-0.11491792221151588,-0.2107610161229928,-0.19565464263460983,-0.6034027658037164,-0.02893966814037287
6702,7.0,300.30071,1612.9308,0.0,0.0,0.0,0.0,-0.06679755783076714,0.0,-0.13569134271419286,-0.14753694565826286,-0.20706239994546782,-0.12155585533912888,-0.5821226898535364,-0.07067590281466853
6703,7.0,301.01376,1298.8006,0.0,0.0,0.0,0.0,-0.06680752464035097,0.0,-0.15003540762234185,-0.1129906090638049,-0.1317769447953719,-0.1117821867295429,-0.5743929898756744,-0.029848014431019674
6704,7.0,301.00127000000003,1274.0152,0.0,0.0,0.0,0.0,-0.06681749144993479,0.0,-0.1324404614908559,-0.1189813286900429,-0.13584703872455886,-0.11716470298325588,-0.5737150141012635,-0.06376204445957384
6705,7.0,300.64311000000004,1683.8175,0.0,0.0,0.0,0.0,-0.06682745825951862,0.0,-0.18188677252832683,-0.13898502362175388,-0.19096668905944483,-0.17807136914427582,-0.6156018410451715,0.0007222361498466583
6706,7.0,300.88698,1604.1476,0.0,0.0,0.0,0.0,-0.06683742506910244,0.0,-0.12935187253603586,-0.16073593662840185,-0.19753298540498782,-0.16868555240796784,-0.5726905169251535,-0.04008362882744616
6707,7.0,300.6348,1337.1566,0.0,0.0,0.0,0.0,-0.06684739187868625,0.0,-0.07560491973437462,-0.13028230970536286,-0.2005749952527108,-0.16256293801621285,-0.5408038402531835,0.006620355062228174
6708,7.0,299.30275,1364.8699,0.0,0.0,0.0,0.0,-0.06685735868827007,0.0,-0.0982637990628819,-0.13653390070234686,-0.18008866903336784,-0.15523042194504985,-0.5692857939391335,-0.05459767555912104
6709,7.0,299.34503,1602.7715,0.0,0.0,0.0,0.0,-0.06686732549785389,0.0,-0.17485382384922885,-0.1263942157591379,-0.1859544751872778,-0.16986199656907383,-0.6206199115029164,-0.014028147712470386
6710,7.0,300.11356,1563.8782,0.0,0.0,0.0,0.0,-0.0668772923074377,0.0,-0.15815345596603086,-0.13600714237285988,-0.18121932442245484,-0.13341035461907688,-0.5848954892821905,-0.06262679600778354
6711,7.0,299.26355,1503.6704,0.0,0.0,0.0,0.0,-0.06688725911702154,0.0,-0.14784368686103586,-0.12413503280617388,-0.1850995150178998,-0.08539006542784333,-0.5545515973449815,-0.027551455721616974
6712,7.0,300.05064,1275.808,0.0,0.0,0.0,0.0,-0.06689722592660535,0.0,-0.09104160566260691,-0.1027538040985109,-0.1940183754456228,-0.09942415078589971,-0.5707265747863275,-0.060058194845282346
6713,7.0,300.08745,1159.9423,0.0,0.0,0.0,0.0,-0.06690719273618918,0.0,-0.06304271997508203,-0.10505423646304589,-0.18449652988338983,-0.13311230710216188,-0.6160997318793093,-0.030934459691743472
6714,7.0,301.28662,1451.7448,0.0,0.0,0.0,0.0,-0.066917159545773,0.0,-0.14923140380049285,-0.12015461151083688,-0.17190813355601184,-0.14462084226796584,-0.5940545507786194,-0.07294077516694403
6715,7.0,301.24268,1620.122,0.0,0.0,0.0,0.0,-0.06692712635535682,0.0,-0.19630997226928582,-0.11559389175072887,-0.1805727594011438,-0.13983054030019987,-0.5703225413089524,0.002537473815454168
6716,7.0,301.70147000000003,1189.0325,0.0,0.0,0.0,0.0,-0.06693709316494065,0.0,-0.11815819470630588,-0.1122201843502699,-0.13105781080189888,-0.16290913517787983,-0.5934791361793305,-0.058196285978276245
6717,7.0,300.33974,1276.7508,0.0,0.0,0.0,0.0,-0.06694705997452445,0.0,-0.1046094196691459,-0.11407277030310589,-0.16941818289277283,-0.15305891552323886,-0.6327552026505764,-0.0019228275908433083
6718,7.0,300.1124,1701.1459,0.0,0.0,0.0,0.0,-0.06695702678410828,0.0,-0.11596401174725689,-0.15477664802026583,-0.24636521621935376,-0.16604211461958085,-0.5777991719418385,-0.027744697714438472
6719,7.0,299.9582,1698.0342,0.0,0.0,0.0,0.0,-0.0669669935936921,0.0,-0.13511798501260688,-0.16085596623524784,-0.2201860557706718,-0.12897694973403387,-0.5442070838940575,-0.0009300691163606751
6720,7.0,300.73741,1383.5601,0.0,0.0,0.0,0.0,-0.06697696040327591,0.0,-0.10702548413509289,-0.12114979536155389,-0.1923924535401568,-0.15300865831827887,-0.5670663303900895,-0.03458674804819627
6721,7.0,299.53596,1281.2527,0.0,0.0,0.0,0.0,-0.06698692721285975,0.0,-0.15482603383013985,-0.10920160084485889,-0.12544119324508188,-0.13801769401628586,-0.6023850979332804,-0.03705459162075347
6722,7.0,300.21592000000004,1420.0499,0.0,0.0,0.0,0.0,-0.06699689402244356,0.0,-0.14513562398127086,-0.11573355814451289,-0.17079052882821286,-0.14684798625276788,-0.5783933215354765,-0.052325076161582953
6723,7.0,300.45563,1427.3846,0.0,0.0,0.0,0.0,-0.06700686083202739,0.0,-0.16111301765311684,-0.09449930744335551,-0.17827694745706482,-0.11689997112962888,-0.5766444518628764,-0.04437459303993136
6724,7.0,299.19954,1420.5369,0.0,0.0,0.0,0.0,-0.0670168276416112,0.0,-0.08905323710362023,-0.14752472586205687,-0.19522976660267782,-0.14892530094528286,-0.5857333153923774,-0.04548936472045075
6725,7.0,299.5929,1289.6162,0.0,0.0,0.0,0.0,-0.06702679445119503,0.0,-0.10880370766308989,-0.1070748395474639,-0.17613257587293185,-0.14389420009125187,-0.6181220270913944,-0.027515276613546375
6726,7.0,298.91253,1099.74,0.0,0.0,0.0,0.0,-0.06703676126077886,0.0,-0.09219014390270881,-0.1070393859264649,-0.13506398891477786,-0.1280892109239209,-0.5685159062481514,-0.033385982844939974
6727,7.0,298.79132999999996,1371.0894,0.0,0.0,0.0,0.0,-0.06704672807036266,0.0,-0.13510023287085487,-0.14262422281341486,-0.13905248581341187,-0.1147220204371819,-0.5412207014768244,-0.029885778262246674
6728,7.0,299.13167000000004,1610.6195,0.0,0.0,0.0,0.0,-0.06705669487994649,0.0,-0.15657788245803386,-0.12633248856304588,-0.20667772967750378,-0.15260221330566587,-0.5738099252381305,0.002863691610324357
6729,7.0,299.10413,1251.8072,0.0,0.0,0.0,0.0,-0.06706666168953031,0.0,-0.08355043489078592,-0.13427295469420888,-0.16269474158922084,-0.17311048652217484,-0.6417857333718204,-0.05468576650956495
6730,7.0,299.56768,1083.1392,0.0,0.0,0.0,0.0,-0.06707662849911414,0.0,-0.05833797785901015,-0.09713962340818441,-0.17376966650723083,-0.1373614321915179,-0.5886149682792744,-0.03260634566149577
6731,7.0,300.89454,1395.4193,0.0,0.0,0.0,0.0,-0.06708659530869795,0.0,-0.13988100015517985,-0.11625416604589289,-0.16803744724650482,-0.13042662691710588,-0.5737480764520264,-0.06250011846703145
6732,7.0,300.51047,1602.3765,0.0,0.0,0.0,0.0,-0.06709656211828177,0.0,-0.17646545892828483,-0.13025056457972986,-0.18036642115077983,-0.13835258330683686,-0.5880152863400905,-0.01979341513845798
6733,7.0,300.71516,1467.7406,0.0,0.0,0.0,0.0,-0.0671065289278656,0.0,-0.15421751635008385,-0.13640385005201186,-0.15553511638262085,-0.17066560522338384,-0.5987188044339454,-0.06751487559694944
6734,7.0,300.33277999999996,1407.4260000000002,0.0,0.0,0.0,0.0,-0.0671164957374494,0.0,-0.14024030877314086,-0.12146179533234588,-0.16612024633479183,-0.13730047506550186,-0.5550557297997355,-0.01994578160899538
6735,7.0,299.68724,1280.3851,0.0,0.0,0.0,0.0,-0.06712646254703324,0.0,-0.0889927045293961,-0.1304781202871879,-0.16973427639396885,-0.12210159184298888,-0.5489122221909185,-0.044550956312587056
6736,7.0,300.45923,1361.1738,0.0,0.0,0.0,0.0,-0.06713642935661707,0.0,-0.08156423367376311,-0.13084885836627688,-0.20134974654417281,-0.15149682837407286,-0.5802608225297845,-0.0026186422412148675
6737,7.0,300.18075,1604.3169,0.0,0.0,0.0,0.0,-0.06714639616620087,0.0,-0.13832223646634187,-0.15128383307055185,-0.1980662082701128,-0.18006635726616582,-0.6327804325780664,-0.027104653970771077
6738,7.0,299.65989,1368.9075,0.0,0.0,0.0,0.0,-0.0671563629757847,0.0,-0.13087482796633987,-0.1078976290261669,-0.17734123125471685,-0.17170096444056582,-0.5958620572345065,0.0011368390517972789
6739,7.0,299.36205,1107.298,0.0,0.0,0.0,0.0,-0.06716632978536852,0.0,-0.09799485310208901,-0.096613681758278,-0.14198239980257188,-0.1406668870652409,-0.5911851987479364,-0.049462012361020546
6740,7.0,299.31817,1467.7169,0.0,0.0,0.0,0.0,-0.06717629659495235,0.0,-0.12102608765684489,-0.13157353483779688,-0.19354967634686582,-0.15205120790128585,-0.5994761784861925,-0.024781343432228178
6741,7.0,299.28474,1603.0549,0.0,0.0,0.0,0.0,-0.06718626340453616,0.0,-0.12403942252673789,-0.12168193404907189,-0.24156729461083576,-0.16667916522245285,-0.6151436594824524,-0.048750915467340755
6742,7.0,299.87632,1422.094,0.0,0.0,0.0,0.0,-0.06719623021411998,0.0,-0.09707897836319922,-0.13185639373571287,-0.2033456972536578,-0.13632484694171487,-0.5768401307221884,-0.05768533536359934
6743,7.0,301.20457000000005,1305.0923,0.0,0.0,0.0,0.0,-0.06720619702370381,0.0,-0.13477207156096788,-0.10606081937738791,-0.15588259023941384,-0.11116164197079989,-0.5459451725855935,-0.054121047778331544
6744,7.0,299.86972000000003,1297.9219,0.0,0.0,0.0,0.0,-0.06721616383328761,0.0,-0.15158733187300485,-0.0979078260642501,-0.14504070271190286,-0.13969579830190187,-0.5620413293016605,-0.026085136918902577
6745,7.0,300.51939,1554.6045,0.0,0.0,0.0,0.0,-0.06722613064287145,0.0,-0.17492604831635683,-0.14616095202246288,-0.15147395931931584,-0.15634432830998385,-0.5999953070424264,-0.042379722455052955
6746,7.0,300.73684,1571.3270000000002,0.0,0.0,0.0,0.0,-0.06723609745245528,0.0,-0.12905965120719587,-0.13328353623656086,-0.21530097438855178,-0.16426446864414085,-0.5765653068975655,-0.011887573789712188
6747,7.0,300.64232999999996,1450.3667,0.0,0.0,0.0,0.0,-0.06724606426203908,0.0,-0.07763083731556714,-0.16750305914376484,-0.19574135657816782,-0.1267580029425409,-0.5732811404084435,-0.03943706988563576
6748,7.0,299.72614,1204.7928,0.0,0.0,0.0,0.0,-0.06725603107162291,0.0,-0.06985521785642324,-0.1066600554865279,-0.1897116470880818,-0.14770526676487486,-0.6236761980445483,-0.008766860145771731
6749,7.0,299.44342,1363.4439,0.0,0.0,0.0,0.0,-0.06726599788120673,0.0,-0.13937229794247485,-0.11365986075485489,-0.16142074170848686,-0.15847567963033185,-0.6468568474723003,-0.04844532936968175
6750,7.0,299.21232000000003,1751.3105,0.0,0.0,0.0,0.0,-0.06727596469079056,0.0,-0.2086662127337518,-0.13978366735057385,-0.18390476142748682,-0.14988118082462085,-0.5800187672133955,-0.0058630729117652445
6751,7.0,299.1579,1632.9005,0.0,0.0,0.0,0.0,-0.06728593150037437,0.0,-0.17779727485972485,-0.13395664841049187,-0.18460704507179682,-0.1286910814833209,-0.5378488381915475,-0.04467742816356886
6752,7.0,299.62098,1154.8493,0.0,0.0,0.0,0.0,-0.06729589830995819,0.0,-0.08306233813211451,-0.09608999053684372,-0.17189303612952184,-0.13209157921642387,-0.5523288913956175,-0.024055468285839876
6753,7.0,299.62729,1323.6437,0.0,0.0,0.0,0.0,-0.06730586511954202,0.0,-0.07318993640628434,-0.13417343326938685,-0.19499125766163883,-0.15797479970839884,-0.5521865804190724,-0.04277026450734646
6754,7.0,301.02522999999997,1599.5365,0.0,0.0,0.0,0.0,-0.06731583192912582,0.0,-0.15258806833426986,-0.11312608060217488,-0.22050501676965079,-0.13933141330093987,-0.5465765388554045,-0.0008651014957863702
6755,7.0,301.00459,1441.7461,0.0,0.0,0.0,0.0,-0.06732579873870966,0.0,-0.14728591294598786,-0.13982286999694288,-0.15114603105695187,-0.14178362039795386,-0.5597989865653584,-0.039994907635440065
6756,7.0,300.77088,1296.685,0.0,0.0,0.0,0.0,-0.06733576554829347,0.0,-0.15052451357811286,-0.11678994230126988,-0.12684542616116887,-0.16431940706456286,-0.6191918165469744,-0.01746373429653638
6757,7.0,299.8228,1342.352,0.0,0.0,0.0,0.0,-0.06734573235787729,0.0,-0.13240435938979286,-0.13264803590634186,-0.14298908404192384,-0.16484340935377784,-0.6209759878530584,-0.046200262003860855
6758,7.0,300.15195,1460.6816,0.0,0.0,0.0,0.0,-0.06735569916746112,0.0,-0.08606114704857391,-0.16574822142807585,-0.1922013647037978,-0.13929058945441086,-0.5829490865025955,-0.03294879075804247
6759,7.0,300.81729,1662.8906,0.0,0.0,0.0,0.0,-0.06736566597704494,0.0,-0.1088317442933569,-0.15200680728190386,-0.24463865831395576,-0.11855139654011188,-0.5465664468844085,-0.03483677662962217
6760,7.0,299.60731,1747.2772,0.0,0.0,0.0,0.0,-0.06737563278662877,0.0,-0.14712323564243288,-0.14229287989821388,-0.24171252374766877,-0.14827632438873387,-0.6101634845784474,-0.006127949964131574
6761,7.0,298.58385,1225.7981,0.0,0.0,0.0,0.0,-0.06738559959621258,0.0,-0.13025637050280287,-0.09710307851682771,-0.14525255304281084,-0.16212022878252083,-0.6136367640662335,-0.047287320280895155
6762,7.0,298.89193,1214.5555,0.0,0.0,0.0,0.0,-0.0673955664057964,0.0,-0.14854101571235687,-0.0984209034908869,-0.12223262534592089,-0.1293410814224709,-0.6002997279024704,-0.03905740608641586
6763,7.0,299.85037,1591.6597,0.0,0.0,0.0,0.0,-0.06740553321538022,0.0,-0.15693261118554286,-0.12889961848640188,-0.1979925855178468,-0.12392643500808688,-0.5669549539390975,-0.05908704630018744
6764,7.0,298.98141,1436.5506,0.0,0.0,0.0,0.0,-0.06741550002496403,0.0,-0.1072018301824969,-0.11875165528987588,-0.2107220262591448,-0.12962197461519287,-0.5997146164997245,-0.02860821680741118
6765,7.0,298.42798999999997,948.0306800000001,0.0,0.0,0.0,0.0,-0.06742546683454785,0.0,-0.025104325007603977,-0.1182865532289739,-0.14478678223684285,-0.14261969358546786,-0.6087371222801764,-0.06198438125888215
6766,7.0,298.74798,1167.1917,0.0,0.0,0.0,0.0,-0.06743543364413168,0.0,-0.09913065782818421,-0.1104396303470429,-0.14522684688777385,-0.1075635503356959,-0.5744089080347454,-0.003785415335416406
6767,7.0,300.26312,1550.5305,0.0,0.0,0.0,0.0,-0.0674454004537155,0.0,-0.16621745754938583,-0.13310473812391488,-0.17200035958011384,-0.13796212738080188,-0.5707583705744654,-0.030288478302490072
6768,7.0,300.66555,1631.3725,0.0,0.0,0.0,0.0,-0.06745536726329933,0.0,-0.17329697520307982,-0.16049756954237684,-0.16210195988321785,-0.14273086738643986,-0.6288211274148133,-0.03173863981910987
6769,7.0,300.93635,1666.7327,0.0,0.0,0.0,0.0,-0.06746533407288315,0.0,-0.14313641060646387,-0.15321607061374887,-0.21029264126426783,-0.17302822074655583,-0.6180308041848914,-0.04411450795126296
6770,7.0,300.81672000000003,1585.0618,0.0,0.0,0.0,0.0,-0.06747530088246696,0.0,-0.1137425318305139,-0.14356478235124087,-0.22451191429010078,-0.13413486897058086,-0.5702984360890735,-0.020492379375440378
6771,7.0,300.83046,1317.0327,0.0,0.0,0.0,0.0,-0.0674852676920508,0.0,-0.08837000965394091,-0.10867716285810089,-0.2032978921139398,-0.14987851597685786,-0.5400383905976395,-0.034665408679959465
6772,7.0,299.9306,1358.8344,0.0,0.0,0.0,0.0,-0.0674952345016346,0.0,-0.13740545790836287,-0.08380479005013881,-0.19184146840077881,-0.15630673673127385,-0.5980214654501234,-0.0047026470188401255
6773,7.0,299.94409,1580.0929999999998,0.0,0.0,0.0,0.0,-0.06750520131121843,0.0,-0.16780930385398884,-0.15181156412013486,-0.16068795923616686,-0.17225576953282082,-0.5919575587691625,-0.037132556149697966
6774,7.0,298.76874,1173.7422,0.0,0.0,0.0,0.0,-0.06751516812080224,0.0,-0.11828868105418389,-0.10409269251564891,-0.13440693675493187,-0.12085103856956887,-0.5777628165282505,-0.05756878525759674
6775,7.0,298.96483,1028.336,0.0,0.0,0.0,0.0,-0.06752513493038606,0.0,-0.09017827604740292,-0.1049446838622339,-0.1174655065404429,-0.09152685113549691,-0.5607156334008245,-0.06947257206215902
6776,7.0,298.82759,1397.369,0.0,0.0,0.0,0.0,-0.06753510173996989,0.0,-0.09490684980582681,-0.13088534550237788,-0.1989730772421138,-0.12377417391555989,-0.6236658628935284,-0.06050583759371124
6777,7.0,298.80986,1450.9242,0.0,0.0,0.0,0.0,-0.06754506854955371,0.0,-0.10070570241962899,-0.12024149770691188,-0.2200975382419358,-0.15113149091801686,-0.6096713996673824,-0.017742407458289283
6778,7.0,298.28283999999996,1324.4199,0.0,0.0,0.0,0.0,-0.06755503535913754,0.0,-0.1092495478395909,-0.14009837269913286,-0.15324264816387184,-0.16382625824089286,-0.5733705799947705,-0.026317667684351575
6779,7.0,299.37967000000003,1542.1001,0.0,0.0,0.0,0.0,-0.06756500216872134,0.0,-0.16421340083910085,-0.11877560852223988,-0.18577092493166283,-0.17884925137854685,-0.5438897440952385,0.001035606450206399
6780,7.0,299.71804,1541.9206,0.0,0.0,0.0,0.0,-0.06757496897830517,0.0,-0.1804477547363068,-0.11174837457370589,-0.17650923133260485,-0.17880796143697184,-0.5945771142526924,-0.033939191055037364
6781,7.0,299.59979,1377.4206,0.0,0.0,0.0,0.0,-0.067584935787889,0.0,-0.12037586480267289,-0.12854223504363088,-0.16978335822881285,-0.15005738501701085,-0.6009879375028915,-0.05129641148781165
6782,7.0,300.1423,1470.8357,0.0,0.0,0.0,0.0,-0.0675949025974728,0.0,-0.13319175604250286,-0.11090999117596388,-0.2029955788141038,-0.1089069679807809,-0.5622170775315054,-0.05507355860108704
6783,7.0,300.54713,1427.2846,0.0,0.0,0.0,0.0,-0.06760486940705664,0.0,-0.13124627532049887,-0.1071963687644579,-0.19541622488607982,-0.11481848184670189,-0.5589445228885295,-0.024125143415716276
6784,7.0,300.98017999999996,1063.2051,0.0,0.0,0.0,0.0,-0.06761483621664045,0.0,-0.11018510192192289,-0.08674598455266211,-0.12625672785306888,-0.14100183715079787,-0.6080502299048854,-0.02932356023226007
6785,7.0,299.80172000000005,1270.7352,0.0,0.0,0.0,0.0,-0.06762480302622427,0.0,-0.12480190335948889,-0.10808400624956091,-0.15338586093300585,-0.16171749226527385,-0.5950215358790534,-0.030127545815607268
6786,7.0,299.44933,1750.0876,0.0,0.0,0.0,0.0,-0.0676347698358081,0.0,-0.17712994834386483,-0.17232290748444684,-0.18253006475181482,-0.14746988876664488,-0.5627602910426165,-0.05396331108226415
6787,7.0,299.41845,1621.4547,0.0,0.0,0.0,0.0,-0.06764473664539192,0.0,-0.13901107428182485,-0.14117066488245988,-0.21270000191185578,-0.13894517249532085,-0.5603321486354775,-0.052302016615807155
6788,7.0,299.72962,1215.4099,0.0,0.0,0.0,0.0,-0.06765470345497575,0.0,-0.08580527809357161,-0.10986726563055489,-0.17378173431592184,-0.16766588843483485,-0.6218654187908383,-0.045344545949908256
6789,7.0,299.28913,1318.6717,0.0,0.0,0.0,0.0,-0.06766467026455955,0.0,-0.1003711434486106,-0.11972548996098589,-0.18074662298580282,-0.15411936281289687,-0.6168365470870274,-0.004587070646183625
6790,7.0,298.58637999999996,1414.8363,0.0,0.0,0.0,0.0,-0.06767463707414338,0.0,-0.12031326621149488,-0.11132300204922488,-0.1984386182118668,-0.15512323021697086,-0.5638945029395545,-0.001116731204887789
6791,7.0,299.74149,1449.1686,0.0,0.0,0.0,0.0,-0.06768460388372721,0.0,-0.13895575082636488,-0.13506910582778286,-0.16648620187340885,-0.12306060266513588,-0.5451990962719615,-0.018131728544212283
6792,7.0,300.88457999999997,1637.7943,0.0,0.0,0.0,0.0,-0.06769457069331102,0.0,-0.16061991949195187,-0.14727666197257486,-0.18995197987930082,-0.17466183322028084,-0.6002324075658264,-0.04388873657723105
6793,7.0,300.69273,1334.9499,0.0,0.0,0.0,0.0,-0.06770453750289485,0.0,-0.12148696446482989,-0.0953218425962834,-0.18898263390613382,-0.16081518291872285,-0.6010513365616484,-0.053803558018497746
6794,7.0,299.83176000000003,1249.3983,0.0,0.0,0.0,0.0,-0.06771450431247866,0.0,-0.08612356730773432,-0.15065642860863185,-0.14300588372858186,-0.13368379029106287,-0.5850526342401995,-0.07912787684806342
6795,7.0,299.93491,1606.6018,0.0,0.0,0.0,0.0,-0.0677244711220625,0.0,-0.17534149098985782,-0.11754127738292088,-0.1954840619802748,-0.13526400448451786,-0.5882077430640844,-0.029644567996441076
6796,7.0,300.46752000000004,1678.8892,0.0,0.0,0.0,0.0,-0.06773443793164631,0.0,-0.16375675941653384,-0.16345846871959482,-0.1831251769330478,-0.15582469312869984,-0.6173342758011494,-0.04030897666293626
6797,7.0,302.06115,1211.3154,0.0,0.0,0.0,0.0,-0.06774440474123013,0.0,-0.13165238596057888,-0.1136596986348389,-0.1228975605915449,-0.15797904522631787,-0.6267325251161844,-0.02734234319247918
6798,7.0,300.47976,1243.2616,0.0,0.0,0.0,0.0,-0.06775437155081396,0.0,-0.09575426227520992,-0.1312376018996429,-0.15092861798299487,-0.1090360965735249,-0.5665876203803444,-0.03078476516171977
6799,7.0,299.04585,1534.9431,0.0,0.0,0.0,0.0,-0.06776433836039776,0.0,-0.1176191861831099,-0.16438396122843385,-0.18458122745924882,-0.1153339728350769,-0.5716721600446495,-0.02353735601945618
6800,7.0,299.22115,1671.2821,0.0,0.0,0.0,0.0,-0.06777430516998158,0.0,-0.12796102465376988,-0.12634423213170487,-0.25372277983298874,-0.15048229144644587,-0.6133051982360104,-0.013420891728788888
6801,7.0,299.50989,1630.4243,0.0,0.0,0.0,0.0,-0.06778427197956542,0.0,-0.16414413506226483,-0.12750970279422788,-0.2039544477812368,-0.17232726445987684,-0.6096577106585314,-0.01082864738845429
6802,7.0,300.29017000000005,1465.3319,0.0,0.0,0.0,0.0,-0.06779423878914922,0.0,-0.14330273561037887,-0.12458381140796487,-0.17753776124411283,-0.15698856285606486,-0.5742121146003235,-0.017156053810920682
6803,7.0,300.29425,1353.7509,0.0,0.0,0.0,0.0,-0.06780420559873306,0.0,-0.14839317239026584,-0.10168568650559591,-0.16142760141166385,-0.15583785524749885,-0.5793446924518695,-0.04330790108990706
6804,7.0,299.70217,1461.6904,0.0,0.0,0.0,0.0,-0.06781417240831687,0.0,-0.1136768934890359,-0.15746039289763084,-0.17318010693654584,-0.16974645566017085,-0.5963450634246754,-0.06253080474630994
6805,7.0,300.03751,1670.3568,0.0,0.0,0.0,0.0,-0.0678241392179007,0.0,-0.15343476038283185,-0.15929099132329685,-0.1950210066845748,-0.14245378401409386,-0.5976678715627265,-0.05175970591053525
6806,7.0,300.49917999999997,1387.2486,0.0,0.0,0.0,0.0,-0.06783410602748452,0.0,-0.1118144080827229,-0.1327451964584309,-0.17712934039380482,-0.1075632564931669,-0.5661150506662055,-0.04843996927665275
6807,7.0,300.60585,1001.3155,0.0,0.0,0.0,0.0,-0.06784407283706834,0.0,-0.08535895966302343,-0.11671963287683089,-0.1022963115458599,-0.0981389413193094,-0.5943357276813694,-0.02817050694971257
6808,7.0,300.67441,1287.7445,0.0,0.0,0.0,0.0,-0.06785403964665217,0.0,-0.10833750115957891,-0.11716843174362389,-0.16593624011663183,-0.14572306585924685,-0.6277835998424174,-0.02962222177873567
6809,7.0,300.18998,1596.9946,0.0,0.0,0.0,0.0,-0.06786400645623597,0.0,-0.14457407064334987,-0.12633907468869587,-0.2145333361127918,-0.1909801247557708,-0.6368188016466224,0.0036732243326690166
6810,7.0,299.70709,1433.2749,0.0,0.0,0.0,0.0,-0.0678739732658198,0.0,-0.1056288303297539,-0.13676389834254588,-0.19328706218594782,-0.15334110567608886,-0.5967995972870344,-0.056403921531883644
6811,7.0,299.99362,1368.8484,0.0,0.0,0.0,0.0,-0.06788394007540362,0.0,-0.09179866358082271,-0.11412832680608889,-0.21016874104203978,-0.13647208231374588,-0.5702785155921074,-0.02237600827159008
6812,7.0,299.15501,1418.5289,0.0,0.0,0.0,0.0,-0.06789390688498743,0.0,-0.1244066040979759,-0.14355294759007287,-0.16323780311281685,-0.12711682520045386,-0.5783137814026265,-0.05755521074600704
6813,7.0,299.36668,1618.9965,0.0,0.0,0.0,0.0,-0.06790387369457127,0.0,-0.16896087272513982,-0.13465462574187687,-0.18851900105787683,-0.13808566283299387,-0.6028061033498304,-0.014197572248441287
6814,7.0,299.96644,1638.8788,0.0,0.0,0.0,0.0,-0.06791384050415508,0.0,-0.18203467664542383,-0.12737431231586588,-0.18876926370007582,-0.14307424771282887,-0.5627574032798315,-0.04845157909629855
6815,7.0,300.31914,1387.8029999999999,0.0,0.0,0.0,0.0,-0.06792380731373891,0.0,-0.12446996262672888,-0.11748051277442388,-0.17990698315793682,-0.13912880381094386,-0.5731743235829015,-0.008263218813341203
6816,7.0,300.36707,1143.9757,0.0,0.0,0.0,0.0,-0.06793377412332273,0.0,-0.07525757760009463,-0.10526993714433389,-0.16721252994259184,-0.15513237986537384,-0.5752257092053574,-0.026507079591795074
6817,7.0,300.68394,1378.0013,0.0,0.0,0.0,0.0,-0.06794374093290655,0.0,-0.0993301596801235,-0.13324568121282487,-0.1863021314290888,-0.14773092225740686,-0.5774584564632124,-0.028914342967373472
6818,7.0,300.96497,1649.8507,0.0,0.0,0.0,0.0,-0.06795370774249036,0.0,-0.2050483221916938,-0.11133226315513889,-0.18513282054868682,-0.16045953213362285,-0.5687186879906645,-0.027769364274872876
6819,7.0,300.08083999999997,1379.0878,0.0,0.0,0.0,0.0,-0.06796367455207418,0.0,-0.15025413792142886,-0.09739898604953151,-0.17155511722117184,-0.13228909205841688,-0.5755608822059365,-0.0064527065510325545
6820,7.0,300.08601,1092.2668,0.0,0.0,0.0,0.0,-0.067973641361658,0.0,-0.11401277576468488,-0.1010122845421363,-0.11699677704418289,-0.16346074853231987,-0.6247399687945344,-0.028030294414124673
6821,7.0,299.41747999999995,1544.1157,0.0,0.0,0.0,0.0,-0.06798360817124183,0.0,-0.1111934276264369,-0.14262819475380686,-0.2155510039832278,-0.13401832494407886,-0.6321698480678064,-0.02200942857091148
6822,7.0,299.93913,1803.1215,0.0,0.0,0.0,0.0,-0.06799357498082564,0.0,-0.14150621278557587,-0.16547623470373285,-0.24112146456683575,-0.14839760029320287,-0.5938260122185645,-0.04149726774421146
6823,7.0,299.59896000000003,1544.2441,0.0,0.0,0.0,0.0,-0.06800354179040947,0.0,-0.1078809407970199,-0.15867772170027186,-0.2028529739950298,-0.1106232110001609,-0.5826099516941254,-0.06350214682217394
6824,7.0,299.31728,1235.6408,0.0,0.0,0.0,0.0,-0.06801350859999328,0.0,-0.1208942840838369,-0.1099515579063739,-0.14475810725901286,-0.15286051102115786,-0.5804174608627435,-0.044261576137027456
6825,7.0,297.85114,1094.9442,0.0,0.0,0.0,0.0,-0.06802347540957711,0.0,-0.1169173686338459,-0.10616837587550292,-0.10974995153397689,-0.15855487525814785,-0.5856915289582534,-0.04870459879201966
6826,7.0,298.58384,1248.5814,0.0,0.0,0.0,0.0,-0.06803344221916094,0.0,-0.12880256939182386,-0.11543489254503689,-0.13530010658558086,-0.16201706978983985,-0.5601706264370365,-0.046098378693055754
6827,7.0,299.39558,1318.6885,0.0,0.0,0.0,0.0,-0.06804340902874474,0.0,-0.12984085690179487,-0.10018549880503891,-0.17082203077382183,-0.16183514073438485,-0.5728497289133664,-0.016034527805234684
6828,7.0,299.63856,1264.6103,0.0,0.0,0.0,0.0,-0.06805337583832857,0.0,-0.04758088923236816,-0.1294452435327509,-0.2073838231421898,-0.15943523760753286,-0.6085065166899174,-0.02988747140316377
6829,7.0,299.53447,1328.942,0.0,0.0,0.0,0.0,-0.06806334264791239,0.0,-0.0917732684935664,-0.11805873407648988,-0.19413319694695483,-0.13751972212213986,-0.6178989195518755,-0.03646032145035357
6830,7.0,299.95768,1781.4337,0.0,0.0,0.0,0.0,-0.0680733094574962,0.0,-0.16958435590917284,-0.15986207934465885,-0.21206493727917977,-0.16327969087195082,-0.5876920696906914,-0.019637043290275283
6831,7.0,300.23915,2064.2447,0.0,0.0,0.0,0.0,-0.06808327626708004,0.0,-0.25840799763288375,-0.15926397807563086,-0.2098068790338268,-0.16430814985595185,-0.6045407773885294,-0.014679944144047687
6832,7.0,300.24532,1669.4117,0.0,0.0,0.0,0.0,-0.06809324307666385,0.0,-0.17277283105885083,-0.1257923350672369,-0.20889430546376278,-0.16972749775079984,-0.6072722666106064,-0.0061445013031900635
6833,7.0,300.3834,1241.7126,0.0,0.0,0.0,0.0,-0.06810320988624768,0.0,-0.1028770254431719,-0.12302813813193188,-0.15154445112877288,-0.1328334708071429,-0.5923653818019115,-0.04654007467664775
6834,7.0,299.74633,1301.2674,0.0,0.0,0.0,0.0,-0.06811317669583149,0.0,-0.07061603695901023,-0.1074076922053139,-0.2175290505634458,-0.13268563761755287,-0.5725435753956515,-0.013733029501594485
6835,7.0,299.33394,1407.211,0.0,0.0,0.0,0.0,-0.06812314350541532,0.0,-0.12191325904690188,-0.12738716032713387,-0.17845658656729382,-0.11215544780138088,-0.5789329380087325,-0.05063037787907925
6836,7.0,299.742,1315.1095,0.0,0.0,0.0,0.0,-0.06813311031499915,0.0,-0.12346168758471988,-0.12378425575405488,-0.15251450637700986,-0.13867060198322287,-0.5896190788633725,-0.02980021131780187
6837,7.0,299.06585,1163.3553,0.0,0.0,0.0,0.0,-0.06814307712458295,0.0,-0.14185091033709485,-0.09137770578702742,-0.12040233089528488,-0.14602705102174787,-0.6022420675491644,-0.05050209535016875
6838,7.0,300.50225,1199.5629,0.0,0.0,0.0,0.0,-0.06815304393416678,0.0,-0.10500736351341988,-0.1288925662657059,-0.1307372488677619,-0.16441738834923283,-0.5697218866496725,-0.035782258536433964
6839,7.0,301.11175,1605.455,0.0,0.0,0.0,0.0,-0.0681630107437506,0.0,-0.1391550875185379,-0.15065269984826385,-0.19821044442184782,-0.17688599824978885,-0.5985990889346304,-0.04118299606669526
6840,7.0,301.3815,1842.8163,0.0,0.0,0.0,0.0,-0.06817297755333442,0.0,-0.12337953326661188,-0.16923515952720983,-0.26755543715066576,-0.15519784595433486,-0.6044740042069394,-0.025359489753786775
6841,7.0,301.74695,1623.1329999999998,0.0,0.0,0.0,0.0,-0.06818294436291825,0.0,-0.1071284607427559,-0.16941596387505384,-0.21684745748617779,-0.18154980607507082,-0.6115835748585994,-0.05172727582783466
6842,7.0,300.7395,1186.4657,0.0,0.0,0.0,0.0,-0.06819291117250206,0.0,-0.0915019829382926,-0.11195574633917191,-0.15719821443425586,-0.13955503759800988,-0.5768679343049324,-0.04305027515923136
6843,7.0,299.81557000000004,1283.4361,0.0,0.0,0.0,0.0,-0.0682028779820859,0.0,-0.14622820143159987,-0.1182664402144889,-0.12563790561949587,-0.16415034628537786,-0.5861953270404744,-0.020152430927140082
6844,7.0,299.62731,1730.0435,0.0,0.0,0.0,0.0,-0.0682128447916697,0.0,-0.18474142230005883,-0.15417308533319884,-0.18697549691554483,-0.1312332246592109,-0.5873248475894494,-0.014069627131814087
6845,7.0,299.71114,1494.8412,0.0,0.0,0.0,0.0,-0.06822281160125353,0.0,-0.13917413662041786,-0.1157436906455129,-0.1994765713493048,-0.13981907030906787,-0.5893151038333725,-0.012033258889090188
6846,7.0,299.92351,1303.3041,0.0,0.0,0.0,0.0,-0.06823277841083736,0.0,-0.08285451749685421,-0.14527186558971686,-0.16804552284980184,-0.1054523525598369,-0.5825524801484535,-0.03687711883923826
6847,7.0,300.20541000000003,1290.7730000000001,0.0,0.0,0.0,0.0,-0.06824274522042116,0.0,-0.09759839569571171,-0.08847053318311182,-0.2062938294796158,-0.12955760283633988,-0.6058046143707605,0.004531024844727336
6848,7.0,299.81117,1400.0045,0.0,0.0,0.0,0.0,-0.06825271203000499,0.0,-0.15730834458762485,-0.11988034497376888,-0.14837772032624086,-0.15460235887056484,-0.6233168792940864,-0.035513963082205266
6849,7.0,300.17959,1649.4017,0.0,0.0,0.0,0.0,-0.06826267883958881,0.0,-0.18086957075293683,-0.13415079726215287,-0.18635657335696182,-0.15867320260482584,-0.5994682751354125,-0.027919433707433574
6850,7.0,300.33775,1494.8101,0.0,0.0,0.0,0.0,-0.06827264564917263,0.0,-0.17033744391349684,-0.1110377620135739,-0.17300972893223082,-0.17918372523655685,-0.5861390511299205,-0.024439115171202876
6851,7.0,299.87726000000004,1188.611,0.0,0.0,0.0,0.0,-0.06828261245875646,0.0,-0.06718924234606193,-0.13369160244933387,-0.16042721958793385,-0.16380420991871683,-0.5641357172583605,-0.033963432050429766
6852,7.0,299.8462,1265.0506,0.0,0.0,0.0,0.0,-0.06829257926834027,0.0,-0.08755541534204672,-0.11909689999644889,-0.17789146658902083,-0.16443513035848384,-0.5974598614496974,-0.04297740626503976
6853,7.0,299.96236,1661.4176,0.0,0.0,0.0,0.0,-0.0683025460779241,0.0,-0.12456517773862587,-0.15750491510702486,-0.2229593719568768,-0.12065772058298989,-0.5843605236268935,-0.035697636954332465
6854,7.0,300.32146,1476.3827,0.0,0.0,0.0,0.0,-0.0683125128875079,0.0,-0.14377984468496585,-0.15029603581306386,-0.15470759502595086,-0.12697611515906687,-0.5873036909273615,-0.05104302904855475
6855,7.0,300.1794,1136.1149,0.0,0.0,0.0,0.0,-0.06832247969709174,0.0,-0.1003117700325009,-0.1036350682404849,-0.14140371240545987,-0.11981630756744888,-0.5803447500355675,-0.029485372220229674
6856,7.0,300.64801,1104.7928,0.0,0.0,0.0,0.0,-0.06833244650667557,0.0,-0.1129946114016999,-0.11621174126420589,-0.10662307185787791,-0.15251102079666587,-0.6120812731752184,-0.05332901550641405
6857,7.0,300.56437,1459.4885,0.0,0.0,0.0,0.0,-0.06834241331625937,0.0,-0.1140012551110479,-0.15284625459225087,-0.17680054073635484,-0.15787882465892686,-0.5947396193037304,-0.05115672280252545
6858,7.0,300.14187999999996,1673.9928,0.0,0.0,0.0,0.0,-0.0683523801258432,0.0,-0.12951668779730188,-0.15228140819150485,-0.22705391561097676,-0.14476094435929288,-0.5994297311016085,-0.057060598789192646
6859,7.0,299.40227999999996,1689.6609,0.0,0.0,0.0,0.0,-0.06836234693542702,0.0,-0.14506675337197386,-0.16752658681108684,-0.2010213825842658,-0.15580592773684784,-0.6011908611004184,-0.032447707172839374
6860,7.0,299.63222,1401.514,0.0,0.0,0.0,0.0,-0.06837231374501083,0.0,-0.13759524978459386,-0.1072732947120499,-0.18115672583127682,-0.15310305269759483,-0.6333401620658073,-0.025994190629676873
6861,7.0,300.81098,1365.3352,0.0,0.0,0.0,0.0,-0.06838228055459467,0.0,-0.14024082553069186,-0.11368801897513389,-0.16109895374172886,-0.15880752917058283,-0.6046345840827875,-0.013227042799157488
6862,7.0,300.49868,1755.475,0.0,0.0,0.0,0.0,-0.06839224736417848,0.0,-0.17778996932650382,-0.14629908840859587,-0.20953149792164882,-0.13602560378968187,-0.5902840445064994,-0.015362358967146784
6863,7.0,300.28655,1783.2135,0.0,0.0,0.0,0.0,-0.06840221417376231,0.0,-0.16064657810208285,-0.1191786490145169,-0.26222716017480574,-0.14068204528673686,-0.5782556208468864,0.008719577336480282
6864,7.0,300.83715,1445.5455,0.0,0.0,0.0,0.0,-0.06841218098334612,0.0,-0.10627376401840391,-0.13669156241790686,-0.1964444102925538,-0.14400992338517285,-0.6005368689558744,-0.043749352880224954
6865,7.0,300.56664,1379.3493,0.0,0.0,0.0,0.0,-0.06842214779292995,0.0,-0.14038403829982588,-0.11529015990075289,-0.16361353651489885,-0.16954140423743386,-0.5595504261833275,-0.03329925066288017
6866,7.0,300.45919,1544.1827,0.0,0.0,0.0,0.0,-0.06843211460251376,0.0,-0.16347175242840584,-0.13900338371356588,-0.16691785654850985,-0.15599251774276285,-0.5744357692948965,-0.03094490022077387
6867,7.0,299.59609,1462.5338,0.0,0.0,0.0,0.0,-0.06844208141209758,0.0,-0.15009403427312784,-0.15160235837198785,-0.14287737321839886,-0.17459082465327283,-0.5726087983045884,-0.03829916773183356
6868,7.0,299.79225,1430.9706,0.0,0.0,0.0,0.0,-0.06845204822168141,0.0,-0.14599401906848786,-0.1126454859472439,-0.17633982604838583,-0.16099677760164485,-0.6198584236552633,-0.030874436782319672
6869,7.0,300.76566,1458.5975,0.0,0.0,0.0,0.0,-0.06846201503126523,0.0,-0.13448453144758987,-0.13694964735087786,-0.17194302988945584,-0.14360639653284785,-0.6117283581653884,-0.056888568173964545
6870,7.0,300.64255,1235.5258,0.0,0.0,0.0,0.0,-0.06847198184084904,0.0,-0.08717310088056522,-0.11898375035778189,-0.16941213378967585,-0.11171635587054589,-0.6233249954273874,-0.04415582829034096
6871,7.0,300.47767999999996,1370.0184,0.0,0.0,0.0,0.0,-0.06848194865043288,0.0,-0.12990199641282887,-0.09261750847688642,-0.1939318844170868,-0.1188592827154979,-0.6091199079029544,-0.05036997361662936
6872,7.0,300.37989,1797.5641,0.0,0.0,0.0,0.0,-0.06849191546001669,0.0,-0.16760194222102384,-0.16994465751223184,-0.2088680014911668,-0.13436241454553785,-0.6346371525913104,-0.026800833968036376
6873,7.0,299.9524,1408.7921,0.0,0.0,0.0,0.0,-0.06850188226960051,0.0,-0.12184799560796089,-0.1078898573978999,-0.1984997678554018,-0.16866963424889683,-0.5864869606842564,-0.04707931523411666
6874,7.0,300.2083,1164.3343,0.0,0.0,0.0,0.0,-0.06851184907918433,0.0,-0.08636941319274742,-0.0995375020613366,-0.16802163041244383,-0.14849903676071385,-0.5786788655461574,-0.014549008926375385
6875,7.0,298.69316000000003,1367.8507,0.0,0.0,0.0,0.0,-0.06852181588876814,0.0,-0.10029865756295682,-0.1135915575656139,-0.2019022414261998,-0.15705818327043586,-0.5756899601361755,-0.03412071278395217
6876,7.0,298.21664,1710.1476,0.0,0.0,0.0,0.0,-0.06853178269835197,0.0,-0.15794238583769984,-0.13493720092976488,-0.22696257111446178,-0.14971861497857686,-0.5921564597637924,-0.02319371630104158
6877,7.0,299.29671,1593.5905,0.0,0.0,0.0,0.0,-0.06854174950793579,0.0,-0.16020372701337685,-0.15591267363488284,-0.16829529913195285,-0.14113536324897585,-0.5779987214165324,-0.07045405069202343
6878,7.0,299.93393,1302.4005,0.0,0.0,0.0,0.0,-0.06855171631751962,0.0,-0.1302273915499429,-0.11949709325594488,-0.14617274625362686,-0.13555098731034088,-0.5681635079958725,-0.025538259495429975
6879,7.0,299.96842000000004,1218.5225,0.0,0.0,0.0,0.0,-0.06856168312710342,0.0,-0.1096352820201599,-0.10268235983395992,-0.15808276150655387,-0.16764619085289084,-0.5840150256077954,-0.01892730921797998
6880,7.0,300.0337,1556.7933,0.0,0.0,0.0,0.0,-0.06857164993668725,0.0,-0.14071349656984086,-0.14980087062169486,-0.18271193301226382,-0.16655187061238985,-0.6154119782414335,-0.02045376542737948
6881,7.0,299.78754,1663.5181,0.0,0.0,0.0,0.0,-0.06858161674627108,0.0,-0.13786328483354687,-0.12941748048001087,-0.2383872091719858,-0.16253282422324086,-0.5942877401566334,-0.043860465886190955
6882,7.0,299.80298,1602.4795,0.0,0.0,0.0,0.0,-0.06859158355585489,0.0,-0.14570980241543785,-0.14282038803277486,-0.1985835737711728,-0.13847018111344286,-0.5834660669686174,-0.03245500561330967
6883,7.0,300.22291,1239.2247,0.0,0.0,0.0,0.0,-0.06860155036543872,0.0,-0.11480639377300889,-0.09879500353380771,-0.16309197615842483,-0.14612824430923488,-0.5836326554175585,-0.032236245929969765
6884,7.0,299.66366,1273.5386,0.0,0.0,0.0,0.0,-0.06861151717502253,0.0,-0.12011023115645689,-0.1099203498032939,-0.15709335318140685,-0.12517286435359987,-0.6153818847134634,-0.040244936216865965
6885,7.0,300.58081,1819.0205,0.0,0.0,0.0,0.0,-0.06862148398460635,0.0,-0.14561814381139188,-0.1897635862882078,-0.21755510122351682,-0.13652967544942987,-0.5995763281260764,-0.025060080428737374
6886,7.0,300.52033,1537.156,0.0,0.0,0.0,0.0,-0.06863145079419018,0.0,-0.13570592338313187,-0.12528299450696886,-0.2062681233245788,-0.11963028498158987,-0.5912650732533193,-0.030147297099806573
6887,7.0,300.45836,1159.5991,0.0,0.0,0.0,0.0,-0.068641417603774,0.0,-0.07403788184522003,-0.1156883773225539,-0.16276292318844984,-0.13107203683330287,-0.5962250946128355,-0.024849035631658873
6888,7.0,300.11279,1344.6635,0.0,0.0,0.0,0.0,-0.06865138441335783,0.0,-0.11645881216858989,-0.14114413799484188,-0.15114117758897286,-0.15957810587163285,-0.6155157350516735,-0.07399176174041833
6889,7.0,299.79837000000003,1755.031,0.0,0.0,0.0,0.0,-0.06866135122294163,0.0,-0.18456219862237083,-0.16732827350151483,-0.18159513888454484,-0.15881421662124284,-0.5786322053790525,-0.05833461488192824
6890,7.0,298.18678,1624.1904,0.0,0.0,0.0,0.0,-0.06867131803252546,0.0,-0.17206642348663384,-0.16499007730575285,-0.15665680450832287,-0.16276411882356784,-0.5814806337951705,-0.052445855573502946
6891,7.0,299.07724,1343.5497,0.0,0.0,0.0,0.0,-0.0686812848421093,0.0,-0.12216665263190989,-0.11129122652608889,-0.17494768120599186,-0.17648059688477885,-0.5738360164282055,0.00899571990610843
6892,7.0,298.74446,1153.087,0.0,0.0,0.0,0.0,-0.0686912516516931,0.0,-0.08592861596199411,-0.1002917634092764,-0.16428928313908983,-0.16322383039393784,-0.6181260091642874,-0.013907432135306689
6893,7.0,299.12377000000004,1330.7019,0.0,0.0,0.0,0.0,-0.06870121846127693,0.0,-0.07800587258833022,-0.13823676882040686,-0.18825752173707083,-0.12610152833525187,-0.5980086174388554,-0.024565646803940577
6894,7.0,299.51392999999996,1687.6409,0.0,0.0,0.0,0.0,-0.06871118527086074,0.0,-0.17461087687275184,-0.13773514922590085,-0.2006546671080738,-0.1263172999440469,-0.5893801747547944,-0.04699064166486525
6895,7.0,300.70604,1587.7962,0.0,0.0,0.0,0.0,-0.06872115208044456,0.0,-0.15220300289876687,-0.13402893367262586,-0.19641845082499182,-0.14143261029831186,-0.5973750118863235,-0.032654860076283765
6896,7.0,300.98897999999997,1223.8191,0.0,0.0,0.0,0.0,-0.06873111889002839,0.0,-0.12269070558362989,-0.11046007773406089,-0.13885966431938188,-0.17411413101122683,-0.6396674428452614,-0.050683396190561746
6897,7.0,301.12028,1425.382,0.0,0.0,0.0,0.0,-0.06874108569961221,0.0,-0.1092509461247289,-0.13656225144014486,-0.18746732851408482,-0.14628091070180185,-0.5937463403632014,-0.017564408799972182
6898,7.0,299.06865,1765.902,0.0,0.0,0.0,0.0,-0.06875105250919604,0.0,-0.15706809285641385,-0.15916415267577885,-0.2205578577623658,-0.13347876926582888,-0.5841948167055394,-0.011772338882339388
6899,7.0,299.40972999999997,1687.6953,0.0,0.0,0.0,0.0,-0.06876101931877984,0.0,-0.13970737975054487,-0.12505096023406886,-0.24825889959624578,-0.14138872643648087,-0.6004044169028024,-0.015442918429597385
6900,7.0,299.34497000000005,1446.6316,0.0,0.0,0.0,0.0,-0.06877098612836367,0.0,-0.14256689312275686,-0.13827783584695988,-0.15889515503923085,-0.14908672181871385,-0.6337524535314975,-0.03976035138304117
6901,7.0,299.13882,1411.4077,0.0,0.0,0.0,0.0,-0.0687809529379475,0.0,-0.12342850364394489,-0.16007252125792784,-0.14553168318035886,-0.14437201844090886,-0.5899674849102575,-0.06286217501926364
6902,7.0,299.54261,1431.963,0.0,0.0,0.0,0.0,-0.0687909197475313,0.0,-0.14515591938077385,-0.1154000570065989,-0.17472500936401583,-0.15047370921809886,-0.5616798320634835,-0.03238762549490976
6903,7.0,298.57313,1391.4109,0.0,0.0,0.0,0.0,-0.06880088655711514,0.0,-0.12278057073499889,-0.12005273934578288,-0.18012083972404283,-0.15963470602221885,-0.5788810190736084,-0.007411180857251604
6904,7.0,299.24944,1361.5287,0.0,0.0,0.0,0.0,-0.06881085336669895,0.0,-0.10033866472990521,-0.1056198428013669,-0.20791223306933979,-0.17084963170654585,-0.6052432738153605,-0.02051430408110418
6905,7.0,300.00411,1317.5647,0.0,0.0,0.0,0.0,-0.06882082017628277,0.0,-0.08291837454465642,-0.1158037054489359,-0.20178468414959783,-0.14622199020848686,-0.6000506507628884,-0.04700781625406025
6906,7.0,300.23578,1269.7879,0.0,0.0,0.0,0.0,-0.0688307869858666,0.0,-0.11482393313223989,-0.13236018168543287,-0.13879971031096489,-0.12642304272448288,-0.5987547849449965,-0.05928515290673904
6907,7.0,300.10342,1608.6187,0.0,0.0,0.0,0.0,-0.06884075379545042,0.0,-0.16023961633191885,-0.14307169432257688,-0.18566859680406383,-0.1329256360362389,-0.6273516817222904,-0.05124672068965755
6908,7.0,300.51836000000003,1801.4846,0.0,0.0,0.0,0.0,-0.06885072060503425,0.0,-0.1917600030927388,-0.16141140967506584,-0.19443493269423381,-0.12450917540559887,-0.6368820791153674,-0.02959169660622307
6909,7.0,299.73875,1338.9015,0.0,0.0,0.0,0.0,-0.06886068741461805,0.0,-0.11600383247618688,-0.12939530043532188,-0.16159347045303385,-0.13464964055138487,-0.6021026038054005,-0.03657197654512307
6910,7.0,299.92366,1260.7636,0.0,0.0,0.0,0.0,-0.06887065422420188,0.0,-0.08469975232021472,-0.11527566029182189,-0.18326523849437085,-0.14162615119991287,-0.5686172819206564,-0.012008416023138388
6911,7.0,299.80085,1439.2766,0.0,0.0,0.0,0.0,-0.06888062103378571,0.0,-0.13555567865830387,-0.11913886881559088,-0.18280962045440483,-0.1746663725807288,-0.5993689462281094,-0.04037969949341606
6912,7.0,300.01312,1587.4743,0.0,0.0,0.0,0.0,-0.06889058784336952,0.0,-0.16658024161518983,-0.13901721457743085,-0.17695510190660885,-0.18433274813722583,-0.5961544913458674,-0.024718320289258272
6913,7.0,300.96903,1489.0381,0.0,0.0,0.0,0.0,-0.06890055465295335,0.0,-0.15435922950906986,-0.1286357478953599,-0.16963542371421284,-0.17368384422376082,-0.5748048456438215,-0.07376662364769893
6914,7.0,300.7507,1487.3878,0.0,0.0,0.0,0.0,-0.06891052146253716,0.0,-0.15431067456427786,-0.12542173884316188,-0.17239633771919383,-0.15090588065075086,-0.5413219555593175,-0.014774592849138787
6915,7.0,300.70599,1422.9709,0.0,0.0,0.0,0.0,-0.06892048827212098,0.0,-0.13186997128705288,-0.1180866592492459,-0.18259098134782684,-0.15252642219818585,-0.5798208389388615,-0.01927170988721968
6916,7.0,300.14535,1622.4871,0.0,0.0,0.0,0.0,-0.06893045508170481,0.0,-0.11128050634003088,-0.14980356586696084,-0.2321114724251188,-0.14476201840439887,-0.5977586993016905,-0.019797936260404183
6917,7.0,300.1494,1780.2287,0.0,0.0,0.0,0.0,-0.06894042189128863,0.0,-0.16469263773889783,-0.15686564548643384,-0.21958679939652978,-0.12122209075618888,-0.5931541058122525,-0.02380510735838118
6918,7.0,299.51077999999995,1552.131,0.0,0.0,0.0,0.0,-0.06895038870087246,0.0,-0.1437337823354199,-0.14893136018088085,-0.17914391464012783,-0.12741035362192288,-0.5956337517219744,-0.03636576393777147
6919,7.0,299.92079,1337.5788,0.0,0.0,0.0,0.0,-0.06896035551045626,0.0,-0.12379460103757588,-0.14211335224549587,-0.14068258230928984,-0.15080665306845786,-0.6391073384549835,-0.045689162441419254
6920,7.0,299.05965,1388.7838,0.0,0.0,0.0,0.0,-0.06897032232004009,0.0,-0.15476644459175884,-0.10443995358992089,-0.16294918895433283,-0.15733499306525484,-0.6346005641301994,-0.03523427869685256
6921,7.0,299.12752,1487.1678,0.0,0.0,0.0,0.0,-0.06898028912962391,0.0,-0.14652326999322088,-0.13334868821799087,-0.17218990827632083,-0.13929464245481085,-0.6002499063950534,-0.03479800258804547
6922,7.0,299.69543999999996,1234.9215,0.0,0.0,0.0,0.0,-0.06899025593920773,0.0,-0.09957850829288359,-0.1057621132479079,-0.17004468556210384,-0.14010817082759985,-0.5877581741272154,-0.045393493022488955
6923,7.0,299.14881,1156.1757,0.0,0.0,0.0,0.0,-0.06900022274879156,0.0,-0.09227750126008032,-0.10543468147809289,-0.15373635427509685,-0.14388689455803086,-0.5985581434980894,-0.033125506641732964
6924,7.0,298.87978,1331.2878,0.0,0.0,0.0,0.0,-0.06901018955837537,0.0,-0.09265090013393192,-0.13991185362072486,-0.17211548505647584,-0.17972510476498685,-0.5962299886108184,-0.06799646019722813
6925,7.0,300.30872,1553.8220000000001,0.0,0.0,0.0,0.0,-0.06902015636795919,0.0,-0.12712975427172987,-0.15299903244232885,-0.19219431248310181,-0.14066007802456887,-0.5724285208467964,-0.06327840397484225
6926,7.0,300.01468,1682.4216,0.0,0.0,0.0,0.0,-0.06903012317754302,0.0,-0.16695874119004483,-0.15257724682320187,-0.19187816831940083,-0.15003531642983287,-0.5697555468179945,-0.025054089080896076
6927,7.0,300.59359,1684.9818,0.0,0.0,0.0,0.0,-0.06904008998712684,0.0,-0.13441646130587187,-0.14737644684242285,-0.2303995053211608,-0.14489478456500185,-0.5975762332236825,-0.0015880482379281586
6928,7.0,301.18976000000004,1507.2666,0.0,0.0,0.0,0.0,-0.06905005679671065,0.0,-0.14028937034298286,-0.13069711403130088,-0.18718491544621282,-0.16531566496038586,-0.6220268092667665,-0.00923931374144927
6929,7.0,300.33079,1399.5339,0.0,0.0,0.0,0.0,-0.06906002360629447,0.0,-0.1228664436809739,-0.1276358119016739,-0.17492110365586883,-0.12462772566729889,-0.5990062432223134,-0.01297513159904579
6930,7.0,300.20434,1665.7353,0.0,0.0,0.0,0.0,-0.06906999041587829,0.0,-0.16884418684362384,-0.14342085017453587,-0.1940769007713988,-0.1241214552548339,-0.5882523159359834,-0.03408562190648897
6931,7.0,299.62966,1678.1345,0.0,0.0,0.0,0.0,-0.06907995722546212,0.0,-0.16592741470826083,-0.14295341763840386,-0.20123014250236881,-0.12695924454490187,-0.6156451574869464,-0.008079970303605983
6932,7.0,298.74955,1305.1506,0.0,0.0,0.0,0.0,-0.06908992403504594,0.0,-0.14718850921387486,-0.10875269052055489,-0.14079198292258688,-0.14245981285218887,-0.6148776914637034,-0.05016188345684246
6933,7.0,299.75039,1408.9943,0.0,0.0,0.0,0.0,-0.06909989084462977,0.0,-0.10852262195284891,-0.1129829488930489,-0.2067935036339298,-0.14789900018399485,-0.5935482803661544,-0.01145321778984459
6934,7.0,300.29039,1487.9593,0.0,0.0,0.0,0.0,-0.06910985765421357,0.0,-0.14875760805373286,-0.1077226407338969,-0.1958222342011498,-0.15443616558916287,-0.5870062108305024,-0.04807149581153725
6935,7.0,300.31277,1665.6488,0.0,0.0,0.0,0.0,-0.0691198244637974,0.0,-0.12251188720598187,-0.15651499002432687,-0.22728877685165577,-0.15907345665932784,-0.6174873981562614,-0.042218165806108564
6936,7.0,300.43947000000003,1685.5794,0.0,0.0,0.0,0.0,-0.06912979127338123,0.0,-0.13900353570108087,-0.13990651379269786,-0.23346397892360077,-0.16062341520479687,-0.6155925292767525,-0.05571208348285455
6937,7.0,300.65615,1487.8366,0.0,0.0,0.0,0.0,-0.06913975808296503,0.0,-0.1368922568652139,-0.14350804034564088,-0.17186487790924282,-0.13159478269239386,-0.5947433075340944,-0.024918037963468875
6938,7.0,300.17632000000003,1297.6422,0.0,0.0,0.0,0.0,-0.06914972489254886,0.0,-0.1156916602528779,-0.12702177220857286,-0.15173739421281487,-0.14070792369429086,-0.5780085702075045,-0.021733680662197278
6939,7.0,300.67784,1411.1193,0.0,0.0,0.0,0.0,-0.06915969170213268,0.0,-0.1304866822505329,-0.1091649313237399,-0.18929341797680582,-0.14723143048811085,-0.5946937494717034,-0.0002005992017975998
6940,7.0,299.66348,1559.7053,0.0,0.0,0.0,0.0,-0.0691696585117165,0.0,-0.13342799530331786,-0.16013904112699284,-0.18054442892834785,-0.16374633307300485,-0.5962571133159954,-0.024872455894470274
6941,7.0,300.30335,1445.6199,0.0,0.0,0.0,0.0,-0.06917962532130033,0.0,-0.12997805096533488,-0.12796108544877588,-0.18149321605698582,-0.15557156298871785,-0.5874302559973524,-0.04733782674537975
6942,7.0,300.18018,1467.233,0.0,0.0,0.0,0.0,-0.06918959213088414,0.0,-0.11101644323146989,-0.16538104998933884,-0.16960469183867982,-0.15861684563426384,-0.6091079312867724,-0.06948484252087002
6943,7.0,300.26071,1584.3154,0.0,0.0,0.0,0.0,-0.06919955894046798,0.0,-0.17104879614620183,-0.13107927143901688,-0.17946426379174385,-0.16858032638508283,-0.6082903296485814,-0.04781629661485105
6944,7.0,299.95405,1644.1914,0.0,0.0,0.0,0.0,-0.06920952575005178,0.0,-0.13729154833212087,-0.13923589421401286,-0.22326568759460777,-0.15842593918292286,-0.6086068284498174,-0.06424738416472314
6945,7.0,300.10839,1447.9697,0.0,0.0,0.0,0.0,-0.06921949255963561,0.0,-0.13885119354854586,-0.11347965422456988,-0.18781577509097383,-0.13598374642805086,-0.5925595509185745,-0.04483679517904716
6946,7.0,299.22621000000004,1319.007,0.0,0.0,0.0,0.0,-0.06922945936921944,0.0,-0.1181584480188309,-0.09682423816880832,-0.18596250012806984,-0.15174326093089385,-0.5804832005292314,-0.021329849834842277
6947,7.0,299.44577000000004,1211.478,0.0,0.0,0.0,0.0,-0.06923942617880324,0.0,-0.10023271625969891,-0.0945850385343165,-0.17344131267982485,-0.15709340384391185,-0.6057673470320825,-0.021332385999842583
6948,7.0,299.50858,1299.3151,0.0,0.0,0.0,0.0,-0.06924939298838707,0.0,-0.09770849646482781,-0.11211659979254689,-0.18513424923132785,-0.15016360402499385,-0.6047314507923475,-0.022079370185564183
6949,7.0,298.33192,1701.5371,0.0,0.0,0.0,0.0,-0.06925935979797089,0.0,-0.18035265108192083,-0.12755496467619487,-0.2093171752604968,-0.12997884130041287,-0.5955787727715485,-0.004176182329232106
6950,7.0,298.74332000000004,1706.6655,0.0,0.0,0.0,0.0,-0.06926932660755472,0.0,-0.13843199171717388,-0.15313112985786584,-0.22722059525242677,-0.13979700172188986,-0.5951111882479014,0.00035980520170250863
6951,7.0,299.66468,1332.5684,0.0,0.0,0.0,0.0,-0.06927929341713854,0.0,-0.12868164812488989,-0.1148745449747349,-0.16151132626742684,-0.16149155775797586,-0.5985144622862785,-0.03466248950642136
6952,7.0,299.72447,1416.7702,0.0,0.0,0.0,0.0,-0.06928926022672235,0.0,-0.1238000320581119,-0.11336823724357391,-0.19349448461391883,-0.17359905545539284,-0.6113748352054984,-0.03730711077092516
6953,7.0,300.23535,1696.0809,0.0,0.0,0.0,0.0,-0.06929922703630619,0.0,-0.14571717887616586,-0.16233524045374084,-0.2075138129975188,-0.13668949538770286,-0.6038227681026674,-0.08177766872782752
6954,7.0,300.61657,1454.4441,0.0,0.0,0.0,0.0,-0.06930919384588999,0.0,-0.11377857313657089,-0.1271843279221159,-0.2011517878721358,-0.13954400330442088,-0.6029176216558364,-0.06661273546316514
6955,7.0,300.56286,1096.1709,0.0,0.0,0.0,0.0,-0.06931916065547382,0.0,-0.10596056841249389,-0.09393139393455681,-0.13331662898482688,-0.15128753143341686,-0.6220701155760404,-0.05810797008631015
6956,7.0,299.75546,1158.354,0.0,0.0,0.0,0.0,-0.06932912746505765,0.0,-0.07721567328584364,-0.11397863936881589,-0.16091638633871086,-0.15779680206333185,-0.6106172787682335,-0.04999281761140695
6957,7.0,300.04759,1398.7620000000002,0.0,0.0,0.0,0.0,-0.06933909427464145,0.0,-0.13898643203939287,-0.1051062263256769,-0.18109607268029082,-0.15865888538091286,-0.5920245649982754,-0.02960299029183767
6958,7.0,300.34212,1802.2921,0.0,0.0,0.0,0.0,-0.06934906108422528,0.0,-0.15648804770416785,-0.18651577521267382,-0.2048479621169198,-0.14533620697106686,-0.5964818217906724,-0.04147685379444676
6959,7.0,299.66845,1842.921,0.0,0.0,0.0,0.0,-0.0693590278938091,0.0,-0.16568775066210784,-0.16634539050701183,-0.22816883522601078,-0.18243031027946985,-0.5989984918590485,-0.03333198168086047
6960,7.0,299.21176,1510.8266,0.0,0.0,0.0,0.0,-0.06936899470339292,0.0,-0.1322008481072079,-0.14772968609228485,-0.17932303699280583,-0.15983775120975785,-0.5986044490276594,-0.041255956153395855
6961,7.0,299.86664,1343.1318,0.0,0.0,0.0,0.0,-0.06937896151297675,0.0,-0.12982398628762987,-0.12023883285914888,-0.15821572018467583,-0.14123699223400585,-0.6047132426880504,-0.008615691640827561
6962,7.0,299.27824,1559.1284,0.0,0.0,0.0,0.0,-0.06938892832256056,0.0,-0.14485602774867687,-0.11155271597939588,-0.2175273584357788,-0.11828602633892189,-0.5993171995455024,-0.02110017136842478
6963,7.0,299.99227,1562.7179,0.0,0.0,0.0,0.0,-0.0693988951321444,0.0,-0.16622290883492385,-0.12078225915278089,-0.1880220525463318,-0.14391702861600486,-0.6233124817886524,0.0024870640150291075
6964,7.0,299.94437,1154.1161,0.0,0.0,0.0,0.0,-0.0694088619417282,0.0,-0.09910324637322891,-0.08804359518722632,-0.16367564874602886,-0.13181617783924388,-0.6025387674434464,-0.06218012597945064
6965,7.0,299.42356,1273.1707,0.0,0.0,0.0,0.0,-0.06941882875131203,0.0,-0.12592756342558287,-0.10789876386627889,-0.15318577443575887,-0.15932177386133484,-0.5737835402055265,-0.04138009043639696
6966,7.0,300.18252,1703.2319,0.0,0.0,0.0,0.0,-0.06942879556089586,0.0,-0.17718380258667982,-0.14285926643911187,-0.19769690900616582,-0.16252779850274485,-0.5838698268684654,-0.05098496677807445
6967,7.0,300.56073,1941.4437,0.0,0.0,0.0,0.0,-0.06943876237047966,0.0,-0.19183900620303582,-0.16661541152616083,-0.2316959993541148,-0.17012651564017983,-0.5810503166102015,-0.022197290205701978
6968,7.0,300.51977,1710.0142,0.0,0.0,0.0,0.0,-0.06944872918006349,0.0,-0.15889911684712185,-0.15557251544381184,-0.20532997532199082,-0.15687391360724984,-0.5950824524750654,-0.03300667570975527
6969,7.0,300.48212,1420.4468,0.0,0.0,0.0,0.0,-0.06945869598964731,0.0,-0.12256237745846489,-0.15903887443341486,-0.15017911688402485,-0.14281915186765287,-0.6165112735399254,-0.017724557031277583
6970,7.0,300.03286,1140.9066,0.0,0.0,0.0,0.0,-0.06946866279923113,0.0,-0.06614607705010953,-0.10606490277529089,-0.17459614421629782,-0.12859749770408488,-0.6391296299571834,-0.039611166517817764
6971,7.0,300.29534,1476.2457,0.0,0.0,0.0,0.0,-0.06947862960881496,0.0,-0.13308899221736087,-0.16423103139084086,-0.15142182760167083,-0.1109849210208589,-0.6476771240907554,-0.03638521327344097
6972,7.0,299.76794,1665.2136,0.0,0.0,0.0,0.0,-0.06948859641839877,0.0,-0.13873083970166786,-0.15287492957008086,-0.2145775644796568,-0.12466334140831388,-0.6162103179952234,-0.037457276462245365
6973,7.0,298.66597,1173.1241,0.0,0.0,0.0,0.0,-0.0694985632279826,0.0,-0.0934670751159821,-0.1043934859403349,-0.15873988459390684,-0.13314051598494586,-0.5827868347640824,-0.050722353630406544
6974,7.0,299.13342,1026.5872,0.0,0.0,0.0,0.0,-0.06950853003756641,0.0,-0.07142788536313344,-0.09108864579849942,-0.14954034375598288,-0.15857726808535785,-0.5974861451572914,-0.04518417379033075
6975,7.0,299.32881000000003,1664.1499,0.0,0.0,0.0,0.0,-0.06951849684715024,0.0,-0.16381630812491085,-0.12946300580700387,-0.21258070184508182,-0.16518665795765383,-0.6033263059511704,-0.028096506255159272
6976,7.0,299.21538,1979.5618,0.0,0.0,0.0,0.0,-0.06952846365673405,0.0,-0.16763698040948186,-0.1837635548935508,-0.25033682223882076,-0.16480093390958583,-0.6002814387381654,-0.037420422529608165
6977,7.0,300.48900000000003,1604.379,0.0,0.0,0.0,0.0,-0.06953843046631787,0.0,-0.1849138875995798,-0.13053657468545687,-0.17224067210633084,-0.15028103971158385,-0.5932585415000594,-0.031123811817431072
6978,7.0,300.25812,1440.0839999999998,0.0,0.0,0.0,0.0,-0.0695483972759017,0.0,-0.13197536956245487,-0.1212221211536919,-0.18455207625387182,-0.14967706159197586,-0.6034611492744785,-0.01882379052151348
6979,7.0,299.13801,1496.8545,0.0,0.0,0.0,0.0,-0.06955836408548552,0.0,-0.14026072576265586,-0.1335604574888909,-0.18118520829158782,-0.15963012613176686,-0.5901178613575985,-0.019031268678239982
6980,7.0,299.86839,1648.253,0.0,0.0,0.0,0.0,-0.06956833089506934,0.0,-0.1354543637808049,-0.14861070705423488,-0.2169627045525518,-0.14200754867005386,-0.5926363958061585,-0.02031436450512168
6981,7.0,300.08747,1644.1918,0.0,0.0,0.0,0.0,-0.06957829770465317,0.0,-0.15534000494336483,-0.16013046903114686,-0.18432278788874282,-0.14197655334949486,-0.5668842088171154,-0.030851235381529868
6982,7.0,299.96862999999996,1310.795,0.0,0.0,0.0,0.0,-0.06958826451423697,0.0,-0.08617535958659582,-0.12652019314407087,-0.18575339570493282,-0.14844700636807887,-0.6004458790968945,-0.02434400949031668
6983,7.0,299.27792999999997,1132.4142,0.0,0.0,0.0,0.0,-0.0695982313238208,0.0,-0.11386164951226987,-0.1003916242728819,-0.12997234636727187,-0.15339824284922787,-0.6333540233271754,-0.05430953661493394
6984,7.0,300.9325,1594.5367,0.0,0.0,0.0,0.0,-0.06960819813340462,0.0,-0.13438679334294387,-0.12950237057338887,-0.22081019756726983,-0.1236742877207019,-0.6125944944833693,-0.04176160240379926
6985,7.0,299.94749,1742.4939,0.0,0.0,0.0,0.0,-0.06961816494298843,0.0,-0.17043647897827083,-0.14045276705410886,-0.21878538949493678,-0.12696165608013987,-0.5901096641642894,-0.06710371998462153
6986,7.0,299.90803999999997,1268.5761,0.0,0.0,0.0,0.0,-0.06962813175257226,0.0,-0.085723046768456,-0.0983570586020859,-0.20153535369749082,-0.12733721722970487,-0.5932490169491194,-0.020211150796935282
6987,7.0,299.26427,1295.9189,0.0,0.0,0.0,0.0,-0.06963809856215608,0.0,-0.1074963515890639,-0.1273843840218599,-0.15904623062914083,-0.1880837594774218,-0.6031509022263594,-0.060703389952458144
6988,7.0,298.68367,1739.2758,0.0,0.0,0.0,0.0,-0.06964806537173991,0.0,-0.15687478500233584,-0.15519730893178185,-0.21662431954915579,-0.16099686879415387,-0.6055906767446465,-0.005646259276567405
6989,7.0,299.04342,1808.2364,0.0,0.0,0.0,0.0,-0.06965803218132371,0.0,-0.21019583534971378,-0.17008486092856884,-0.16937801765880886,-0.17600342701518584,-0.5894566751373443,-0.04436544136502816
6990,7.0,300.37799,1573.1519,0.0,0.0,0.0,0.0,-0.06966799899090755,0.0,-0.12915179617128986,-0.14769623870648385,-0.2013508712517838,-0.16035261398307085,-0.6009119640103934,-0.016594566334256183
6991,7.0,299.82391,1141.8358,0.0,0.0,0.0,0.0,-0.06967796580049138,0.0,-0.1061391537426189,-0.09872293916019549,-0.14222746447175785,-0.16178358656929684,-0.6167882657197624,-0.04712163869079366
6992,7.0,300.82678,1155.3694,0.0,0.0,0.0,0.0,-0.06968793261007518,0.0,-0.07666719492721302,-0.1229417990909109,-0.15159444488870685,-0.16125593657972184,-0.5988700016138675,-0.04279409310994816
6993,7.0,300.99726,1362.273,0.0,0.0,0.0,0.0,-0.06969789941965901,0.0,-0.13422451120692788,-0.09828313086153981,-0.18158933296147184,-0.14195481913484986,-0.6019894541667334,-0.054051084885426745
6994,7.0,300.36235,1631.0273,0.0,0.0,0.0,0.0,-0.06970786622924283,0.0,-0.1426794956063699,-0.14749423716654786,-0.2056178396754008,-0.13730179229063189,-0.6257169546734553,-0.038266663681875666
6995,7.0,300.56028,1434.9653,0.0,0.0,0.0,0.0,-0.06971783303882664,0.0,-0.17488871005017184,-0.10408700818258791,-0.15721791201619983,-0.13374950969254887,-0.6246287645960594,-0.03781123410642826
6996,7.0,300.43914,1338.3454,0.0,0.0,0.0,0.0,-0.06972779984841047,0.0,-0.0895900103970956,-0.11641264849403388,-0.2008209313169828,-0.1274880293745889,-0.6310349370282994,-0.04550004235000456
6997,7.0,299.94105,1705.3685,0.0,0.0,0.0,0.0,-0.06973776665799429,0.0,-0.15092942858307484,-0.16624474437457884,-0.2012152679909008,-0.13340245126829686,-0.5908512416474775,-0.03194401649512897
6998,7.0,300.59871,1994.7331,0.0,0.0,0.0,0.0,-0.06974773346757812,0.0,-0.18075928861205284,-0.14912138510463485,-0.27646838019780473,-0.15906366866336186,-0.6119463183943994,0.0003141366518078737
6999,7.0,299.82265,1730.9516,0.0,0.0,0.0,0.0,-0.06975770027716192,0.0,-0.17050109393714782,-0.16186760526758884,-0.1937973653338108,-0.16356739310534485,-0.6053964063029734,-0.015594815765338485
7000,7.0,299.66031,1393.8272,0.0,0.0,0.0,0.0,-0.06976766708674575,0.0,-0.14441965132810988,-0.12138707826997189,-0.15788193533673384,-0.17013842132885484,-0.5927014261975765,-0.008491120849683382
7001,7.0,299.88301,1419.1089,0.0,0.0,0.0,0.0,-0.06977763389632959,0.0,-0.16386231981195185,-0.11391248426978688,-0.15359886636902786,-0.14789541327864086,-0.6059676361793495,-0.03764717472973686
7002,7.0,300.08774,1488.8379,0.0,0.0,0.0,0.0,-0.06978760070591339,0.0,-0.1033432218141819,-0.16201369566700685,-0.18721262783644782,-0.15483953032147185,-0.6111400550248274,-0.04472900563340916
7003,7.0,300.39431,1618.9747,0.0,0.0,0.0,0.0,-0.06979756751549722,0.0,-0.13724559744008585,-0.15285350946296686,-0.2020287862311888,-0.14481180951431286,-0.6242177396929944,-0.059140334136196536
7004,7.0,300.58206,1488.1309,0.0,0.0,0.0,0.0,-0.06980753432508104,0.0,-0.0915510222166324,-0.13348444346638885,-0.2273191844871568,-0.15277989684320187,-0.6150258387608245,-0.04360972701644496
7005,7.0,300.5666,1249.8747,0.0,0.0,0.0,0.0,-0.06981750113466485,0.0,-0.09608044673415181,-0.1339695977467699,-0.14988065393456884,-0.16277756465239485,-0.5845946451949995,-0.055551729561778854
7006,7.0,300.70994,1514.0795,0.0,0.0,0.0,0.0,-0.06982746794424868,0.0,-0.13708954679218485,-0.13406908877408885,-0.18908373600111184,-0.15798213563912283,-0.6125523838092134,-0.022901086632411277
7007,7.0,301.42495,1977.3037,0.0,0.0,0.0,0.0,-0.0698374347538325,0.0,-0.21160699889648477,-0.18356812934676384,-0.2058758232833618,-0.13543013697091388,-0.6050931810780474,-0.04074021691874636
7008,7.0,300.96508,1675.8823,0.0,0.0,0.0,0.0,-0.06984740156341633,0.0,-0.13852529178638187,-0.15728677249299586,-0.21361429800708978,-0.15029280354524485,-0.6116417658118424,-0.04386296152118726
7009,7.0,300.41038,1216.8159,0.0,0.0,0.0,0.0,-0.06985736837300013,0.0,-0.10551891295890589,-0.12202643908307188,-0.14233628753249786,-0.12980404552566188,-0.6175597239483994,-0.03541766075295096
7010,7.0,300.25768,1335.2721,0.0,0.0,0.0,0.0,-0.06986733518258396,0.0,-0.08998563693839091,-0.14593824978298386,-0.16996550006678884,-0.16762822592861784,-0.6192477884824984,-0.044342311904995456
7011,7.0,300.68134,1648.5588,0.0,0.0,0.0,0.0,-0.0698773019921678,0.0,-0.17873319371209284,-0.1179786163910829,-0.2044089107160888,-0.16891917748352483,-0.6131566152413463,-0.0033649367075933973
7012,7.0,300.56456000000003,1629.3591,0.0,0.0,0.0,0.0,-0.0698872688017516,0.0,-0.16751053692950285,-0.14885078653292885,-0.17892316797334182,-0.15163168182988185,-0.5960824999262624,-0.04700233355776916
7013,7.0,299.69209,1366.3039999999999,0.0,0.0,0.0,0.0,-0.06989723561133543,0.0,-0.16247594036262686,-0.1061058786093349,-0.14674049054965885,-0.16943671523710183,-0.5702630533955815,-0.05372157595290674
7014,7.0,300.21549,1352.736,0.0,0.0,0.0,0.0,-0.06990720242091925,0.0,-0.1020538711944329,-0.10935258524225991,-0.1997915097453868,-0.13471138801247887,-0.5989046648997884,-0.03717118529651037
7015,7.0,300.36031,1603.2018,0.0,0.0,0.0,0.0,-0.06991716923050306,0.0,-0.15193305280712485,-0.15188143784703084,-0.18351882459689783,-0.15658748806898187,-0.6081117544509574,-0.034865402971447364
7016,7.0,300.09542999999996,1812.8288,0.0,0.0,0.0,0.0,-0.06992713604008689,0.0,-0.16364193791520185,-0.14695863316368785,-0.24045410765347275,-0.1273298711664799,-0.5858034829618024,-0.0017869293728561982
7017,7.0,299.75746000000004,1702.6932,0.0,0.0,0.0,0.0,-0.06993710284967071,0.0,-0.18522234119502182,-0.13625149776697587,-0.19610238772129882,-0.1242543430054489,-0.6121160681836525,-0.005747330264767334
7018,7.0,299.88039,1326.3804,0.0,0.0,0.0,0.0,-0.06994706965925454,0.0,-0.1255312813114729,-0.11024090160492989,-0.16741434909750985,-0.14780373440959285,-0.5991296368194914,-0.003043380167158237
7019,7.0,299.61662,1398.1511,0.0,0.0,0.0,0.0,-0.06995703646883834,0.0,-0.13994528074152385,-0.1129445467142589,-0.17211317484624783,-0.15510707901037687,-0.6200613776502935,-0.04012929195645276
7020,7.0,301.04066,1819.7284,0.0,0.0,0.0,0.0,-0.06996700327842217,0.0,-0.14106063605410088,-0.18360742318564183,-0.2284839458746098,-0.15343258189511685,-0.6309964031269965,-0.037419523776769464
7021,7.0,300.51957000000004,1664.8639,0.0,0.0,0.0,0.0,-0.069976970088006,0.0,-0.16280410167251386,-0.15330899578041987,-0.18996396662798382,-0.16607920970574183,-0.6182512874066515,-0.06837497902383503
7022,7.0,300.63788,1223.3811,0.0,0.0,0.0,0.0,-0.06998693689758981,0.0,-0.06297930673082364,-0.12833452890563188,-0.18056346789772681,-0.15743818245543884,-0.6274571002626944,-0.04600921268425576
7023,7.0,300.5284,994.83828,0.0,0.0,0.0,0.0,-0.06999690370717364,0.0,-0.10020702125041299,-0.08221902932563643,-0.11997994745859888,-0.16207357874791684,-0.6312987468243354,-0.02830929485565987
7024,7.0,300.95246000000003,1282.8478,0.0,0.0,0.0,0.0,-0.07000687051675746,0.0,-0.09690607331313482,-0.11749845743369489,-0.17554915659785283,-0.15700928382060986,-0.6043016402324285,-0.023183124797746275
7025,7.0,300.20169,1606.8221,0.0,0.0,0.0,0.0,-0.07001683732634127,0.0,-0.16373285684667485,-0.13512204814550788,-0.18957890119248083,-0.13974453563171188,-0.5953158242380975,-0.046088173238048556
7026,7.0,299.78544,1776.5483,0.0,0.0,0.0,0.0,-0.0700268041359251,0.0,-0.13330394309357488,-0.17349687931530883,-0.2332255003800648,-0.15451286862173286,-0.5908631169386495,-0.047980996365605655
7027,7.0,299.03202999999996,1667.0338,0.0,0.0,0.0,0.0,-0.07003677094550892,0.0,-0.16414797528014385,-0.1272696739780389,-0.21531898997532978,-0.15144505129396288,-0.6034140027473255,-0.016298961763332283
7028,7.0,299.72612000000004,1604.1279,0.0,0.0,0.0,0.0,-0.07004673775509274,0.0,-0.12156861215788789,-0.16199706823286583,-0.2040491461355828,-0.14429035048284888,-0.6019878734965775,-0.04851282803834336
7029,7.0,299.86688,1766.531,0.0,0.0,0.0,0.0,-0.07005670456467655,0.0,-0.21336501821748777,-0.12608212459583687,-0.1975341810401058,-0.14707528864770086,-0.6044087306354974,0.0049634004472744854
7030,7.0,299.62568,1761.3294,0.0,0.0,0.0,0.0,-0.07006667137426038,0.0,-0.16791368887929084,-0.12392371949781887,-0.24356274882777176,-0.16331714059564684,-0.6240656001904795,-0.01105733692277419
7031,7.0,299.27519,1285.6679,0.0,0.0,0.0,0.0,-0.0700766381838442,0.0,-0.12854455538635987,-0.1027756801681699,-0.15949069278550584,-0.14652542821593387,-0.6313897873458204,-0.02321631177827158
7032,7.0,299.90135,1188.4293,0.0,0.0,0.0,0.0,-0.07008660499342802,0.0,-0.08749572376540561,-0.10012349600491971,-0.17363361741630384,-0.13791119129827487,-0.6077385440416244,-0.03920047700053586
7033,7.0,300.82225,1567.5381,0.0,0.0,0.0,0.0,-0.07009657180301183,0.0,-0.13213615208832288,-0.13816040016036987,-0.2061958887249498,-0.11938062015694988,-0.5970422909509864,-0.06234843898006184
7034,7.0,301.16188,1703.0628,0.0,0.0,0.0,0.0,-0.07010653861259566,0.0,-0.15117547610485785,-0.16260969950832785,-0.2039034002411988,-0.14264043481501487,-0.6108059256718514,-0.03922014823797726
7035,7.0,301.10647,1596.5301,0.0,0.0,0.0,0.0,-0.07011650542217948,0.0,-0.16742655876121484,-0.13302643415618687,-0.18485229212600082,-0.12988213671086887,-0.6244292151213654,-0.03680883186199886
7036,7.0,300.65643,1514.6953,0.0,0.0,0.0,0.0,-0.07012647223176331,0.0,-0.13909843670544686,-0.12400480990332188,-0.19732629251708883,-0.14497176117509886,-0.6235009057772484,-0.03264116397468207
7037,7.0,300.39682999999997,1513.4284,0.0,0.0,0.0,0.0,-0.07013643904134712,0.0,-0.11057130219753789,-0.14833858860737886,-0.2011345524879348,-0.13478446360969087,-0.5837221760638934,-0.06487216329563403
7038,7.0,299.97137000000004,1509.5074,0.0,0.0,0.0,0.0,-0.07014640585093095,0.0,-0.09182449335237192,-0.17065076110941885,-0.19637730273843082,-0.16176058579202685,-0.5889171194590944,-0.049184565231888654
7039,7.0,299.40112,1682.3523,0.0,0.0,0.0,0.0,-0.07015637266051476,0.0,-0.12762780722588388,-0.16203836830694185,-0.22172690519774177,-0.16585263685088084,-0.5742717038387044,-0.037099670104452365
7040,7.0,299.20896,1462.1584,0.0,0.0,0.0,0.0,-0.07016633947009858,0.0,-0.15351699576094785,-0.1269473996512329,-0.16399523796006985,-0.17347384814053582,-0.5875651094531614,-0.043435673954017255
7041,7.0,299.87425,1086.7839,0.0,0.0,0.0,0.0,-0.07017630627968241,0.0,-0.13437021657130785,-0.08881177757829002,-0.10717317546966888,-0.15805720733903184,-0.6119729466070274,-0.015318263336044883
7042,7.0,299.6088,1254.3292,0.0,0.0,0.0,0.0,-0.07018627308926623,0.0,-0.12015784377865589,-0.09961200228818921,-0.16151492330528183,-0.18040034476412783,-0.6133521725106464,-0.04685776100700096
7043,7.0,300.00603,1814.6565,0.0,0.0,0.0,0.0,-0.07019623989885004,0.0,-0.17404284886669183,-0.15294046658654886,-0.22462694857395377,-0.15640170866314684,-0.6151494046105194,-0.005149887101679285
7044,7.0,300.97237,1748.668,0.0,0.0,0.0,0.0,-0.07020620670843386,0.0,-0.14147804443279588,-0.15872142317708485,-0.2313519300176578,-0.15846074432385784,-0.5946462989695205,-0.08084005572129233
7045,7.0,301.96427,1538.4953,0.0,0.0,0.0,0.0,-0.07021617351801769,0.0,-0.14616671741553186,-0.12158048744905987,-0.1999169501077668,-0.12835978923062488,-0.5974937951955464,-0.024747461362134276
7046,7.0,302.19903999999997,1577.9759,0.0,0.0,0.0,0.0,-0.07022614032760152,0.0,-0.17332064472541583,-0.12913647582977786,-0.17720816111908383,-0.13742492244278387,-0.6107232444636914,-0.036152367387210865
7047,7.0,300.90164,1534.7031,0.0,0.0,0.0,0.0,-0.07023610713718532,0.0,-0.19801428933498882,-0.08989867272205822,-0.17859845171379482,-0.14765148344956686,-0.6427160793486384,0.002124675927364188
7048,7.0,300.03398,1602.866,0.0,0.0,0.0,0.0,-0.07024607394676916,0.0,-0.16110526628985186,-0.1165645752140279,-0.2095613887995988,-0.16110838710015984,-0.6130615419844634,-0.005963945505595594
7049,7.0,299.66606,1492.6101,0.0,0.0,0.0,0.0,-0.07025604075635297,0.0,-0.1180660801397149,-0.14668508603419086,-0.1889650337518968,-0.15117236542705084,-0.6201683160658473,-0.02176826187486018
7050,7.0,299.71969,1124.9387,0.0,0.0,0.0,0.0,-0.07026600756593679,0.0,-0.05951651944782315,-0.10549657079420091,-0.17694018686513682,-0.14825008121114386,-0.5889684709741624,-0.034300520093697766
7051,7.0,300.8109,1353.0357,0.0,0.0,0.0,0.0,-0.07027597437552062,0.0,-0.08699901235438401,-0.14088752227451587,-0.18340253388292083,-0.15478867529895285,-0.5916962111708693,-0.06545797992044965
7052,7.0,300.14372000000003,1791.3592,0.0,0.0,0.0,0.0,-0.07028594118510444,0.0,-0.1877323440777398,-0.15788285739432484,-0.19891326508871082,-0.17368262832364084,-0.6022539833703404,-0.03560209456265317
7053,7.0,299.32871,1600.7506,0.0,0.0,0.0,0.0,-0.07029590799468827,0.0,-0.16287813985732083,-0.14047817936661688,-0.1832318823010788,-0.16891592495070384,-0.6122058320100114,-0.07767747519116992
7054,7.0,299.30242999999996,1138.0332,0.0,0.0,0.0,0.0,-0.07030587480427207,0.0,-0.06568506750636144,-0.12004508930752789,-0.16020350409835485,-0.14861430409208984,-0.6180496405042505,-0.06043172544164695
7055,7.0,299.60168,1456.7019,0.0,0.0,0.0,0.0,-0.0703158416138559,0.0,-0.1029155086819699,-0.14259667254319586,-0.1972888225283908,-0.12652289852183787,-0.6441758890327104,-0.06924294628474674
7056,7.0,298.84792000000004,1728.529,0.0,0.0,0.0,0.0,-0.07032580842343973,0.0,-0.13496738565024388,-0.15789942403345986,-0.23256285507966679,-0.14049485746326287,-0.6076989462277165,-0.050478358953326155
7057,7.0,299.59907000000004,1489.7353,0.0,0.0,0.0,0.0,-0.07033577523302353,0.0,-0.14454335903281887,-0.14323157505585588,-0.16506739842088386,-0.15233406679920186,-0.6144485496488504,-0.03060310056454087
7058,7.0,299.70781,1211.0439999999999,0.0,0.0,0.0,0.0,-0.07034574204260736,0.0,-0.13040113354458985,-0.08402429751205251,-0.15370172138667884,-0.15001645984547185,-0.6190546528809374,-0.008367668686649602
7059,7.0,300.65454,1343.3304,0.0,0.0,0.0,0.0,-0.07035570885219118,0.0,-0.16644739439457884,-0.0881006999363621,-0.15379079620296984,-0.14828680139476785,-0.6195304953928994,0.0056599339985919945
7060,7.0,300.89575,1753.7597,0.0,0.0,0.0,0.0,-0.070365675661775,0.0,-0.13360005530279886,-0.17154349524252485,-0.2279556068749668,-0.14702362302510186,-0.6175872438211154,-0.029734787785345072
7061,7.0,300.22053999999997,1929.2879,0.0,0.0,0.0,0.0,-0.07037564247135883,0.0,-0.1971258919123108,-0.15355201368440385,-0.2357774315519208,-0.14570324668729087,-0.6275169529461014,-0.007072625323863773
7062,7.0,298.80986,1798.1882,0.0,0.0,0.0,0.0,-0.07038560928094265,0.0,-0.13683236365180287,-0.18482371847318083,-0.2249482299156618,-0.15541338451560685,-0.6123047657497754,-0.05228137569802004
7063,7.0,299.59209,1391.3039999999999,0.0,0.0,0.0,0.0,-0.07039557609052648,0.0,-0.14884360258971988,-0.10875809114358789,-0.16531999153831284,-0.14823873281002387,-0.6296836869599414,-0.02408910008315908
7064,7.0,300.42026,1307.5294,0.0,0.0,0.0,0.0,-0.07040554290011028,0.0,-0.13987504224459188,-0.11092015407446688,-0.14666110240432384,-0.14282613316084186,-0.5982397499191664,-0.04660318901212666
7065,7.0,300.12817,1604.2884,0.0,0.0,0.0,0.0,-0.07041550970969411,0.0,-0.16714742862366685,-0.1268668867982869,-0.19364930922919882,-0.15636417787944287,-0.5970090056852014,-0.028219416532039573
7066,7.0,299.64775,1476.3251,0.0,0.0,0.0,0.0,-0.07042547651927794,0.0,-0.11029697486546389,-0.13221681692878387,-0.20625215450300283,-0.15318060686024884,-0.6123953705737174,-0.03344686701694877
7067,7.0,298.77207999999996,1123.0244,0.0,0.0,0.0,0.0,-0.07043544332886174,0.0,-0.04870570323462866,-0.12371468600218889,-0.16895097327166284,-0.14350966154580086,-0.6015476467256304,-0.05227761654014904
7068,7.0,298.97016,1423.5068,0.0,0.0,0.0,0.0,-0.07044541013844557,0.0,-0.10198532482516791,-0.14131348248405487,-0.1894117149259808,-0.14164662898443386,-0.6152024381207534,-0.04821605822980446
7069,7.0,299.92194,1743.0020000000002,0.0,0.0,0.0,0.0,-0.07045537694802939,0.0,-0.16873107773496085,-0.15727809907213985,-0.20381989830045782,-0.12108737915539387,-0.6180280278796174,-0.04528794681257236
7070,7.0,299.37105,1636.29,0.0,0.0,0.0,0.0,-0.07046534375761321,0.0,-0.16829632251455384,-0.16039891951264085,-0.16869606994400582,-0.16080676281039183,-0.6058043813232374,-0.019610048281111084
7071,7.0,300.38419,1655.2114,0.0,0.0,0.0,0.0,-0.07047531056719704,0.0,-0.13431994923384688,-0.15295332473031786,-0.2158696508746758,-0.14919992211988584,-0.6315132822680084,-0.030161711595729175
7072,7.0,300.76243,1491.5306,0.0,0.0,0.0,0.0,-0.07048527737678086,0.0,-0.1167375775361019,-0.14091817309004087,-0.1957323183872758,-0.15005159935893986,-0.6130217820505395,-0.023205553088709776
7073,7.0,300.88372999999996,1351.5120000000002,0.0,0.0,0.0,0.0,-0.07049524418636469,0.0,-0.08180959421197834,-0.12495422524702188,-0.2040620752068588,-0.14853011314128084,-0.5918963685956234,-0.03403432206717607
7074,7.0,300.21564,1522.23,0.0,0.0,0.0,0.0,-0.07050521099594849,0.0,-0.13986633842623286,-0.11771288141985688,-0.20514069007080982,-0.14502093420245188,-0.6003175003092244,-0.027928579302836175
7075,7.0,299.68697000000003,1573.7609,0.0,0.0,0.0,0.0,-0.07051517780553232,0.0,-0.17992942664765182,-0.10012390535796009,-0.19833067667871382,-0.15652051223737184,-0.6144637180028475,-0.004244768113925996
7076,7.0,299.8076,1348.899,0.0,0.0,0.0,0.0,-0.07052514461511615,0.0,-0.14892169377492687,-0.0961843423596555,-0.16492557380438683,-0.16623127828074985,-0.5982069712784315,-0.04145452885499346
7077,7.0,300.56975,1510.8078,0.0,0.0,0.0,0.0,-0.07053511142469995,0.0,-0.14640947187448985,-0.11838919546410388,-0.19444918912314083,-0.15528975787090585,-0.6039385217940915,-0.005626909644707745
7078,7.0,299.75491,1807.5527,0.0,0.0,0.0,0.0,-0.07054507823428378,0.0,-0.14781539691824386,-0.17874214071047584,-0.22289334858036078,-0.17094641735609784,-0.6003760053699984,-0.057296983958022046
7079,7.0,298.77086,1610.5407,0.0,0.0,0.0,0.0,-0.0705550450438676,0.0,-0.14400161473435288,-0.12833348525802887,-0.21722907787134083,-0.16672469054944586,-0.6239051621696454,0.009629761966783511
7080,7.0,299.7694,1245.6603,0.0,0.0,0.0,0.0,-0.07056501185345142,0.0,-0.09146902292578972,-0.14101327674442687,-0.14616731523309084,-0.15288078615565887,-0.6089472095559104,-0.07759938907221343
7081,7.0,299.52698,1255.6532,0.0,0.0,0.0,0.0,-0.07057497866303525,0.0,-0.14263895546986888,-0.10455138070341789,-0.13449688296630888,-0.12768290776632188,-0.6311953547841314,-0.0009464641007962341
7082,7.0,300.85449,1320.2693,0.0,0.0,0.0,0.0,-0.07058494547261907,0.0,-0.14799681934864886,-0.0990962741992908,-0.15423580551438887,-0.13632272924900588,-0.6348639787586964,-0.06405913344189423
7083,7.0,299.35211,1434.6627,0.0,0.0,0.0,0.0,-0.07059491228220288,0.0,-0.14300509339350387,-0.12473546455043188,-0.16836106919594385,-0.17125573221412482,-0.6373132879604243,-0.02361851127296558
7084,7.0,299.11399,1483.7476,0.0,0.0,0.0,0.0,-0.0706048790917867,0.0,-0.1099399359277269,-0.13070489579206887,-0.21037740976763378,-0.16596483403445386,-0.6135471826248924,-0.06682605298021793
7085,7.0,299.8081,1582.4422,0.0,0.0,0.0,0.0,-0.07061484590137053,0.0,-0.12022501212778487,-0.14083362750169687,-0.2199642755887838,-0.16743795782483983,-0.5827432143472774,-0.04115141812732876
7086,7.0,301.75521000000003,1570.7474,0.0,0.0,0.0,0.0,-0.07062481271095435,0.0,-0.13482456804864887,-0.16971067779913984,-0.17293276245463485,-0.14650848667426186,-0.5868457626771675,-0.04905471520507345
7087,7.0,300.72932000000003,1753.2894,0.0,0.0,0.0,0.0,-0.07063477952053816,0.0,-0.19422859444386983,-0.14082805462614686,-0.19789955902616582,-0.16404046944453385,-0.6261683271955024,-0.026988060295014177
7088,7.0,300.56569,1776.7055,0.0,0.0,0.0,0.0,-0.07064474633012198,0.0,-0.1894043688627558,-0.16582548174820083,-0.18484424692020682,-0.16596057838403383,-0.5909025627650424,-0.03830499594640876
7089,7.0,300.92042999999995,1670.9017,0.0,0.0,0.0,0.0,-0.07065471313970581,0.0,-0.14495548837849287,-0.17215650142052383,-0.19080039445303282,-0.16768452210417384,-0.6051157157602715,-0.03143336174948127
7090,7.0,300.72624,1477.741,0.0,0.0,0.0,0.0,-0.07066467994928963,0.0,-0.11888001381254389,-0.14495712984365489,-0.18535923128353182,-0.15899853694693386,-0.6216149433661184,-0.03588455626652997
7091,7.0,300.37562,1554.6092,0.0,0.0,0.0,0.0,-0.07067464675887346,0.0,-0.12704184469305388,-0.15160499282224785,-0.1939155305604728,-0.18696147353416082,-0.6276492935416624,-0.02134666370700168
7092,7.0,299.97117000000003,1441.9818,0.0,0.0,0.0,0.0,-0.07068461356845726,0.0,-0.15476405332152285,-0.1028511673006199,-0.18071123015980983,-0.1263701206717599,-0.6219434289160374,-0.03791756457192226
7093,7.0,298.67978,1440.2234,0.0,0.0,0.0,0.0,-0.07069458037804109,0.0,-0.15992755556612084,-0.1138908716451539,-0.16397351387792583,-0.15097868267043585,-0.6246490093330574,-0.02904394677441437
7094,7.0,299.57736,1565.9399,0.0,0.0,0.0,0.0,-0.07070454718762491,0.0,-0.14751890980648286,-0.13966209760357587,-0.18882561053813682,-0.12972261061512488,-0.6352725110665154,-0.04767552983145845
7095,7.0,301.2359,1467.7333,0.0,0.0,0.0,0.0,-0.07071451399720872,0.0,-0.12841253903083089,-0.1012403499143946,-0.21650139204702382,-0.18287711304356583,-0.6565200920859884,-0.024408748065705876
7096,7.0,300.54,1491.007,0.0,0.0,0.0,0.0,-0.07072448080679256,0.0,-0.0956459529322706,-0.15225295612869685,-0.20532997532199082,-0.16114620159389184,-0.6132496214680254,-0.07565006711908033
7097,7.0,299.83465,1530.7184,0.0,0.0,0.0,0.0,-0.07073444761637637,0.0,-0.13375527508561788,-0.1166998441023779,-0.2148450625060568,-0.16998508619122185,-0.5756836374555514,-0.015255782281878485
7098,7.0,299.71776,1505.0028,0.0,0.0,0.0,0.0,-0.07074441442596019,0.0,-0.13077447567643588,-0.14946086441813886,-0.17724793118550883,-0.15430121080834386,-0.5856040550771204,-0.03447021212769507
7099,7.0,298.45017,1322.2487,0.0,0.0,0.0,0.0,-0.070754381235544,0.0,-0.12543213478918788,-0.11748090794196289,-0.15901755565131084,-0.16778855249194083,-0.6103341361602894,-0.01973955177639208
7100,7.0,298.95452,1440.3706,0.0,0.0,0.0,0.0,-0.07076434804512784,0.0,-0.15067320803028786,-0.11214892247073688,-0.17501456584509284,-0.13483452829713186,-0.6222208973234215,-0.025503284128478177
7101,7.0,299.74067,1500.1556,0.0,0.0,0.0,0.0,-0.07077431485471167,0.0,-0.14607596060407485,-0.13329946452813288,-0.17663441838245983,-0.13959142340910088,-0.6221864164225184,-0.041342070252894665
7102,7.0,300.41566,1397.6398,0.0,0.0,0.0,0.0,-0.07078428166429547,0.0,-0.1164128612765549,-0.1296906628394719,-0.17874408615066784,-0.14247510279619785,-0.6267588290887804,-0.04265144573436996
7103,7.0,300.40353,1468.6211,0.0,0.0,0.0,0.0,-0.0707942484738793,0.0,-0.12899490452580586,-0.11606240846446789,-0.2013668299408588,-0.14001895415629487,-0.6410094318077054,-0.050283092486804855
7104,7.0,300.45206,1725.4623,0.0,0.0,0.0,0.0,-0.07080421528346312,0.0,-0.19158950349841183,-0.13558071606827488,-0.19732724497218282,-0.13940741719094088,-0.6272295040252324,-0.013632327640405988
7105,7.0,300.87799,1752.6453,0.0,0.0,0.0,0.0,-0.07081418209304693,0.0,-0.16593537885404686,-0.13869040089017687,-0.22813462790263478,-0.12449824243701989,-0.5877464508235584,-0.03312538910472137
7106,7.0,300.99642,1591.0695,0.0,0.0,0.0,0.0,-0.07082414890263077,0.0,-0.14673548509416487,-0.14118602575397587,-0.19572389827894482,-0.14662640872089985,-0.6131509714382894,-0.017796862558413586
7107,7.0,300.40994,1636.3621,0.0,0.0,0.0,0.0,-0.07083411571221458,0.0,-0.12190657159624188,-0.15103135141063387,-0.22447528529898578,-0.17778051570307082,-0.6160816554975254,-0.021631807483893182
7108,7.0,299.49281,1625.5391,0.0,0.0,0.0,0.0,-0.0708440825217984,0.0,-0.13298833595242687,-0.12376108272426788,-0.2373738881444788,-0.15364397626347984,-0.5932843489801064,-0.026862258202348475
7109,7.0,299.58982000000003,1610.3853,0.0,0.0,0.0,0.0,-0.07085404933138222,0.0,-0.15969514639068386,-0.16090548376763486,-0.16891626945573782,-0.14734679914449686,-0.5728659510474674,-0.02450173098763258
7110,7.0,299.14327000000003,1453.9898,0.0,0.0,0.0,0.0,-0.07086401614096605,0.0,-0.14356669739392985,-0.11547078186357888,-0.1829391239496858,-0.15808744272201586,-0.6083316803851625,-0.016563271091667588
7111,7.0,299.92236,1272.4853,0.0,0.0,0.0,0.0,-0.07087398295054988,0.0,-0.12369736955797989,-0.12278863620579489,-0.14031776161078488,-0.16173714931721384,-0.6293228888643334,-0.011470563618306489
7112,7.0,300.56379,1354.481,0.0,0.0,0.0,0.0,-0.07088394976013368,0.0,-0.1078451021409829,-0.14984094466314987,-0.15404234567279587,-0.13062428161411288,-0.6425794425726534,-0.06336530840941904
7113,7.0,299.77696000000003,1742.2981,0.0,0.0,0.0,0.0,-0.07089391656971751,0.0,-0.15863000775306285,-0.13458435684744188,-0.2364007526159378,-0.13864930346612087,-0.6101575165353584,-0.013926389031427589
7114,7.0,299.91457,1772.7779999999998,0.0,0.0,0.0,0.0,-0.07090388337930133,0.0,-0.14394418371868486,-0.18082438993097782,-0.21411167208367676,-0.14860446543361888,-0.6225324008016644,-0.08245282868021063
7115,7.0,300.20035,1399.2373,0.0,0.0,0.0,0.0,-0.07091385018888514,0.0,-0.13865587945926988,-0.12051834803173489,-0.16615896262111285,-0.16996560139179884,-0.6312887359133473,-0.028788843836487676
7116,7.0,300.35642,1471.2821,0.0,0.0,0.0,0.0,-0.07092381699846897,0.0,-0.15315965284818084,-0.1277529436132339,-0.16632041389204685,-0.16337826997417984,-0.6092277177135944,-0.045086815654472256
7117,7.0,300.28211,1772.7859,0.0,0.0,0.0,0.0,-0.07093378380805279,0.0,-0.16754976997337484,-0.15543239308748286,-0.21590049420771978,-0.16549025808511683,-0.5984962339169795,-0.016519652701362783
7118,7.0,299.90782,1595.5743,0.0,0.0,0.0,0.0,-0.07094375061763662,0.0,-0.17146482650476086,-0.12428420348589589,-0.1892657055865708,-0.14176086280070785,-0.6289272045677824,-0.018550843236075684
7119,7.0,298.70164,1292.5162,0.0,0.0,0.0,0.0,-0.07095371742722043,0.0,-0.08091819351600393,-0.13754075719421585,-0.17443369996026584,-0.16752586740351583,-0.6289349052685423,-0.04089537286680906
7120,7.0,299.57908,1306.5096,0.0,0.0,0.0,0.0,-0.07096368423680426,0.0,-0.13658993343287687,-0.1013110950363766,-0.15924525321378286,-0.14415102859409887,-0.6306882433740835,-0.02409669540590868
7121,7.0,299.96566,1432.6925,0.0,0.0,0.0,0.0,-0.07097365104638809,0.0,-0.13279739910358287,-0.12298413268008888,-0.17972121388460283,-0.13225760024530886,-0.6101774674298274,-0.06314763999643684
7122,7.0,299.29733,1427.2129,0.0,0.0,0.0,0.0,-0.07098361785597189,0.0,-0.14805072425396887,-0.1301172411315719,-0.15566911870834585,-0.14618192629953286,-0.6143300196521524,-0.026522915677607978
7123,7.0,299.5457,1494.9287,0.0,0.0,0.0,0.0,-0.07099358466555572,0.0,-0.11758833271756489,-0.13751201128887885,-0.1993206524239168,-0.16937841282634783,-0.6167821862191624,-0.06779335117493283
7124,7.0,299.2992,1334.4762,0.0,0.0,0.0,0.0,-0.07100355147513954,0.0,-0.12608084790071086,-0.11147195994642588,-0.16809462494964783,-0.14871610532963686,-0.6031577720620375,-0.019963359471730183
7125,7.0,301.44714,1485.5895,0.0,0.0,0.0,0.0,-0.07101351828472335,0.0,-0.09698580697675391,-0.14404050327319085,-0.21055581271274082,-0.15028845670231586,-0.5972848630249264,-0.04360953855192636
7126,7.0,301.40672,1867.993,0.0,0.0,0.0,0.0,-0.07102348509430718,0.0,-0.19230434131146082,-0.12395928457632889,-0.25155960232699975,-0.13473471302978088,-0.6339850450919524,-0.007865442459308732
7127,7.0,300.06954,1847.3929999999998,0.0,0.0,0.0,0.0,-0.071033451903891,0.0,-0.17009126466920085,-0.16349511797571184,-0.22797495995187678,-0.17343748259444683,-0.6299975411784164,-0.027867398248548073
7128,7.0,300.05002,1538.1566,0.0,0.0,0.0,0.0,-0.07104341871347483,0.0,-0.14494216413967786,-0.1337765938677219,-0.18884243048979682,-0.15327699734226186,-0.6306318154760143,-0.02792537945902037
7129,7.0,299.64779,1458.0506,0.0,0.0,0.0,0.0,-0.07105338552305863,0.0,-0.14385601069498286,-0.11534039684071087,-0.18401455720832283,-0.16202299730292485,-0.5975319947243164,-0.01770462032230998
7130,7.0,299.26179,1569.819,0.0,0.0,0.0,0.0,-0.07106335233264247,0.0,-0.14312494061533187,-0.15064378324738384,-0.18341704362435285,-0.14637702760628785,-0.6070508714637564,-0.05518560481039515
7131,7.0,299.76487000000003,1452.7237,0.0,0.0,0.0,0.0,-0.0710733191422263,0.0,-0.1081862229196489,-0.14076009594193986,-0.19264541142762182,-0.16009718376536186,-0.6063603820506104,-0.030136627576253572
7132,7.0,299.98904,1362.5676,0.0,0.0,0.0,0.0,-0.0710832859518101,0.0,-0.11779436699289889,-0.14368793276839487,-0.15270421719323285,-0.16596158150163284,-0.6226567772514394,-0.043274900547400165
7133,7.0,298.79916000000003,1462.8261,0.0,0.0,0.0,0.0,-0.07109325276139393,0.0,-0.13774884836725287,-0.1108671408292349,-0.1960466387007968,-0.14881312402671185,-0.6135695551871004,-0.040026471389305165
7134,7.0,299.58539,1639.9135,0.0,0.0,0.0,0.0,-0.07110321957097775,0.0,-0.17255671494502184,-0.13984767435939088,-0.1860883559229908,-0.14828708510479585,-0.6437820184538384,-0.021871692418567977
7135,7.0,298.85078,1576.9547,0.0,0.0,0.0,0.0,-0.07111318638056156,0.0,-0.16085000832465987,-0.14873943034693884,-0.16976543383454384,-0.14578773148062885,-0.6443240768598354,-0.05471415372436654
7136,7.0,300.08682000000005,1749.979,0.0,0.0,0.0,0.0,-0.0711231531901454,0.0,-0.17909740646053782,-0.14343304970573983,-0.2094194527255908,-0.15636040858907085,-0.6122015966245934,-0.005977139339122724
7137,7.0,300.51487000000003,1566.2903,0.0,0.0,0.0,0.0,-0.07113311999972921,0.0,-0.14213254320238985,-0.14338997644398885,-0.19059063141733082,-0.14415421019941285,-0.5612901360750235,-0.05852152912787525
7138,7.0,300.7974,1311.0786,0.0,0.0,0.0,0.0,-0.07114308680931303,0.0,-0.13517820246604986,-0.08575466321132633,-0.1776022748779798,-0.17181525905184583,-0.5907268854627044,0.008934564487047861
7139,7.0,299.8328,1482.8429999999998,0.0,0.0,0.0,0.0,-0.07115305361889684,0.0,-0.1079360919999629,-0.15260472616591386,-0.1902064272444128,-0.17627378240686783,-0.6230850274062044,-0.06932418867776473
7140,7.0,300.65782,1605.7331,0.0,0.0,0.0,0.0,-0.07116302042848066,0.0,-0.13692746730618888,-0.14303628123158188,-0.20813900857422077,-0.18753079850034884,-0.6245388487821855,-0.005861180565878484
7141,7.0,300.16797,1461.4894,0.0,0.0,0.0,0.0,-0.07117298723806449,0.0,-0.11499212251633889,-0.15519163473122186,-0.17407252696212083,-0.14713399635849486,-0.6106703629409724,-0.06884000914397993
7142,7.0,300.04934,1507.1134,0.0,0.0,0.0,0.0,-0.07118295404764831,0.0,-0.14919928377232286,-0.1102850894417909,-0.1986404880292898,-0.14870480759102186,-0.6100234736796295,-0.028399144808277373
7143,7.0,299.06511,1593.8245,0.0,0.0,0.0,0.0,-0.07119292085723213,0.0,-0.13474043789284587,-0.15706944047904686,-0.1926729515653398,-0.14645933391191085,-0.6148093274794565,-0.04754756444982925
7144,7.0,298.87089,1424.3255,0.0,0.0,0.0,0.0,-0.07120288766681596,0.0,-0.1265452710840459,-0.1078383234978139,-0.1985757818779038,-0.14444787034339487,-0.6196439895366004,-0.017270535873469182
7145,7.0,299.02889,1530.7829,0.0,0.0,0.0,0.0,-0.07121285447639977,0.0,-0.12430322219027287,-0.14923177870302984,-0.19178477705768382,-0.12343041868663387,-0.6089999796211184,-0.026621086440046675
7146,7.0,299.94113,1657.9921,0.0,0.0,0.0,0.0,-0.0712228212859836,0.0,-0.18881102986919782,-0.12706520010785888,-0.18811196836020583,-0.14284645895784787,-0.6513867036343625,-0.027754384385394473
7147,7.0,300.23811,1507.4722,0.0,0.0,0.0,0.0,-0.0712327880955674,0.0,-0.15675670083568186,-0.1103069452464479,-0.19117025100453483,-0.15383648364997887,-0.6519163193291314,-0.017131386237236184
7148,7.0,300.53504,1443.4279,0.0,0.0,0.0,0.0,-0.07124275490515124,0.0,-0.13209799308955686,-0.13629337539360886,-0.17037468085467183,-0.17179954354279484,-0.6259936631432644,-0.05083716094623715
7149,7.0,299.69672,1628.9109,0.0,0.0,0.0,0.0,-0.07125272171473505,0.0,-0.14938455655310787,-0.13202101647945988,-0.2137426666622588,-0.16123726238037886,-0.5823124108022605,-0.014071440849493088
7150,7.0,299.73838,1715.6058,0.0,0.0,0.0,0.0,-0.07126268852431887,0.0,-0.14265351587380587,-0.15740851449251084,-0.22143930428935782,-0.16319989742657584,-0.5952941508184585,-0.025397086398747274
7151,7.0,300.7677,1549.8148,0.0,0.0,0.0,0.0,-0.0712726553339027,0.0,-0.09934236326432791,-0.14992680747662385,-0.22183583971599277,-0.16066791714918885,-0.6199999949592354,-0.06033562069616214
7152,7.0,301.49433999999997,1554.7328,0.0,0.0,0.0,0.0,-0.07128262214348652,0.0,-0.11789501312533189,-0.14309834280020686,-0.2116065935964448,-0.11742569594401389,-0.6439458002000024,-0.03169168884922617
7153,7.0,300.83824,1512.9599,0.0,0.0,0.0,0.0,-0.07129258895307033,0.0,-0.11558921053526688,-0.14827418643102286,-0.19603863402500682,-0.11335170100194188,-0.6303680360774814,-0.07826732455138352
7154,7.0,300.4607,1485.1292,0.0,0.0,0.0,0.0,-0.07130255576265415,0.0,-0.15980864053438484,-0.12072599337472789,-0.17090754908226186,-0.13495013000104086,-0.6468444250260744,-0.023697630907024078
7155,7.0,300.36432,1481.4715,0.0,0.0,0.0,0.0,-0.07131252257223798,0.0,-0.15942212615123885,-0.1269476326987559,-0.16396057467414885,-0.16289273065876084,-0.6430594090125223,-0.06324896905943724
7156,7.0,300.33061000000004,1401.5138,0.0,0.0,0.0,0.0,-0.07132248938182181,0.0,-0.16524104922302185,-0.09880389379018509,-0.16198025841370683,-0.16395925744901885,-0.6022226334122464,-0.007942423629031182
7157,7.0,300.52771,1608.8509,0.0,0.0,0.0,0.0,-0.07133245619140562,0.0,-0.12403688940148788,-0.16302095745891584,-0.20199266386512382,-0.16239368471950885,-0.5848171650494605,-0.04251078432898776
7158,7.0,299.78262,1773.5544,0.0,0.0,0.0,0.0,-0.07134242300098945,0.0,-0.17935707206366483,-0.13836290832535586,-0.2213962614251098,-0.15291263260630186,-0.6161047575998054,-0.02098524448908238
7159,7.0,299.34213,2004.1432,0.0,0.0,0.0,0.0,-0.07135238981057326,0.0,-0.16990147279296985,-0.17461427126058685,-0.26469374529073875,-0.17601958835428083,-0.6362526380207464,-0.03761208790527406
7160,7.0,300.48641000000003,1682.0910000000001,0.0,0.0,0.0,0.0,-0.07136235662015708,0.0,-0.18086835485281683,-0.12505396958686588,-0.2053913276155458,-0.14405615798723587,-0.6318643227651535,-0.02958474672378717
7161,7.0,300.47255,1549.2482,0.0,0.0,0.0,0.0,-0.07137232342974091,0.0,-0.13378674663372386,-0.13850287869416988,-0.1986431528770528,-0.1208203066940359,-0.6023786030001395,-0.025325806280712473
7162,7.0,299.8414,1566.6689999999999,0.0,0.0,0.0,0.0,-0.07138229023932473,0.0,-0.12071973148910989,-0.1349279803538549,-0.2205805545646058,-0.12117966597450189,-0.6048313471197064,-0.04116160230408386
7163,7.0,300.34675,1403.1721,0.0,0.0,0.0,0.0,-0.07139225704890854,0.0,-0.1175254098863549,-0.12156606890013688,-0.1874378125386718,-0.16192317190307284,-0.6326124458439873,-0.027955055527949173
7164,7.0,300.30502,1341.6441,0.0,0.0,0.0,0.0,-0.07140222385849236,0.0,-0.09000215595477122,-0.14631963712062387,-0.17150452564367882,-0.17085828486239985,-0.6289466792347045,-0.05960385147394215
7165,7.0,300.58688,1373.859,0.0,0.0,0.0,0.0,-0.07141219066807619,0.0,-0.13401595393884486,-0.0990777894777165,-0.1845250832712078,-0.17032760525502585,-0.6124948717335374,-0.02069071193676428
7166,7.0,301.49913,1588.3126,0.0,0.0,0.0,0.0,-0.07142215747766002,0.0,-0.17209208911166685,-0.14630190524387388,-0.16441337587883686,-0.16295123571953485,-0.6281067556968104,-0.04794384251093886
7167,7.0,301.16978,1778.6205,0.0,0.0,0.0,0.0,-0.07143212428724383,0.0,-0.19608023807411282,-0.14931966801670385,-0.1952563137552978,-0.16111027174534584,-0.6524448001837884,-0.03512294176261447
7168,7.0,300.90816,1962.2454,0.0,0.0,0.0,0.0,-0.07144209109682766,0.0,-0.18202893151735683,-0.15009741852846184,-0.26434725428654277,-0.14678332063138586,-0.6104003013918194,-0.04067985355728896
7169,7.0,299.64296,1652.0854,0.0,0.0,0.0,0.0,-0.07145205790641147,0.0,-0.12368199855396289,-0.14822740467390585,-0.23028331593219378,-0.12715760851697888,-0.6006450638015525,-0.03800808529610596
7170,7.0,299.17794,1446.0198,0.0,0.0,0.0,0.0,-0.07146202471599529,0.0,-0.0986912578693188,-0.1177112804846989,-0.2231513929833278,-0.1408885355246159,-0.6119149177738005,-0.04273811002867306
7171,7.0,299.63011,1474.2689,0.0,0.0,0.0,0.0,-0.07147199152557912,0.0,-0.1018477051965859,-0.11596493380484789,-0.23032830423663378,-0.15196040042732387,-0.6562273236020943,-0.05023563590512125
7172,7.0,300.30842,1405.2242,0.0,0.0,0.0,0.0,-0.07148195833516294,0.0,-0.16860830222034384,-0.1012442904440335,-0.15730047163434785,-0.16078318448056483,-0.6303093486316894,-0.008510000434821653
7173,7.0,300.1792,1242.2303,0.0,0.0,0.0,0.0,-0.07149192514474675,0.0,-0.11945065600386187,-0.1020332515548979,-0.15612309528314985,-0.14094200473239285,-0.6123200860912874,-0.03191884229639447
7174,7.0,300.10073,1343.2147,0.0,0.0,0.0,0.0,-0.07150189195433057,0.0,-0.11493343507054689,-0.13678971595509387,-0.15658058783580084,-0.18073368378202584,-0.6144119713202404,-0.018988935089061982
7175,7.0,300.01461,1832.2004,0.0,0.0,0.0,0.0,-0.0715118587639144,0.0,-0.13660978300233587,-0.16554163999768784,-0.2547917485559878,-0.16594077947707983,-0.6235928987538274,-0.03970550719487846
7176,7.0,300.03914,2058.6575,0.0,0.0,0.0,0.0,-0.07152182557349823,0.0,-0.17981057241092183,-0.17982697693004085,-0.26614292598126177,-0.16792017367993084,-0.5938217970981484,-0.03079854131007937
7177,7.0,301.11017999999996,1911.7974,0.0,0.0,0.0,0.0,-0.07153179238308204,0.0,-0.17132428871589084,-0.18294511225777685,-0.22686927104525378,-0.14325647061081287,-0.5839180677057264,-0.04289596223525186
7178,7.0,300.58915,1665.5013,0.0,0.0,0.0,0.0,-0.07154175919266587,0.0,-0.18379583704173683,-0.11644118161684988,-0.2060338092389538,-0.16745152524367884,-0.6190643091543904,-0.02161418503815398
7179,7.0,301.10888,1484.6301,0.0,0.0,0.0,0.0,-0.07155172600224968,0.0,-0.15127850337502585,-0.12602773333046888,-0.17398424248090782,-0.16215188271564485,-0.6619407977359704,-0.027284560579026472
7180,7.0,300.74508,1298.2724,0.0,0.0,0.0,0.0,-0.0715616928118335,0.0,-0.1162340631639089,-0.12084018666099788,-0.15756814191326485,-0.15854487447966087,-0.6230148801017814,-0.06346947254619924
7181,7.0,300.46496,1276.7791,0.0,0.0,0.0,0.0,-0.07157165962141733,0.0,-0.09182627464604773,-0.1023240644660989,-0.19395862408722583,-0.16862851655983885,-0.6168987403781654,-0.02933426521956657
7182,7.0,299.41074,1303.4983,0.0,0.0,0.0,0.0,-0.07158162643100115,0.0,-0.08403637038699402,-0.14663178907893087,-0.16556276626227284,-0.16597058929502184,-0.6077249360927814,-0.09508746670240231
7183,7.0,299.0643,1245.7387,0.0,0.0,0.0,0.0,-0.07159159324058496,0.0,-0.09439605016541482,-0.12218156767338187,-0.16209582972011283,-0.16639644817955082,-0.6353073263399515,-0.03486143609730587
7184,7.0,299.26023,1553.8086,0.0,0.0,0.0,0.0,-0.07160156005016878,0.0,-0.15020348554892984,-0.14866418639451284,-0.17345135398831582,-0.14709817796745986,-0.5952070011773575,-0.05678654706114585
7185,7.0,300.55672000000004,1911.0941,0.0,0.0,0.0,0.0,-0.07161152685975261,0.0,-0.17461280204794183,-0.17417072102931183,-0.23214135317056775,-0.11722826416202889,-0.6213178584367984,3.258405415929577e-05
7186,7.0,300.10636,1789.7382,0.0,0.0,0.0,0.0,-0.07162149366933643,0.0,-0.16734791028845283,-0.16320377817445883,-0.2134840548392358,-0.15056815425991987,-0.6253921573539004,-0.04314730702855766
7187,7.0,300.05477,1654.7172,0.0,0.0,0.0,0.0,-0.07163146047892024,0.0,-0.11859128819654889,-0.16116799660354283,-0.2232334155789228,-0.16868957501086482,-0.6613788492305104,-0.01149296759126759
7188,7.0,300.14149,1669.2441,0.0,0.0,0.0,0.0,-0.07164142728850408,0.0,-0.15267344478769587,-0.13997323631178288,-0.21476183414284278,-0.19351864049630282,-0.5903698870549714,-0.028837383582528173
7189,7.0,300.67508,1542.2611,0.0,0.0,0.0,0.0,-0.07165139409808789,0.0,-0.15523956146095186,-0.12389879354535889,-0.1896705091340218,-0.16968303633641185,-0.5848335189060745,-0.02228639237974568
7190,7.0,300.54692,1357.2051,0.0,0.0,0.0,0.0,-0.07166136090767171,0.0,-0.15041992590279085,-0.1207628554133659,-0.14137368980499687,-0.18258673582990784,-0.5979497780055485,-0.053098217398636044
7191,7.0,300.75971,1397.3047,0.0,0.0,0.0,0.0,-0.07167132771725554,0.0,-0.1278525157005609,-0.1067588169737749,-0.19013438516230283,-0.16077218058447884,-0.6489331995772204,-0.05144689432641315
7192,7.0,299.66435,1314.6294,0.0,0.0,0.0,0.0,-0.07168129452683936,0.0,-0.13278706395256287,-0.1151228824417439,-0.15170454464457286,-0.12108106660727089,-0.6258485758614454,-0.04513366428609586
7193,7.0,299.40627,1447.9871,0.0,0.0,0.0,0.0,-0.07169126133642317,0.0,-0.1092553233651609,-0.1255472805305519,-0.2053493283989008,-0.12379603985271788,-0.6433816934718295,-0.04608645172612866
7194,7.0,299.56248999999997,1746.3299,0.0,0.0,0.0,0.0,-0.07170122814600699,0.0,-0.16277637914977783,-0.14428148454447387,-0.2237828200481448,-0.13342209818773587,-0.6308574561407835,-0.03151959743899207
7195,7.0,299.40283999999997,1774.4443,0.0,0.0,0.0,0.0,-0.0717111949555908,0.0,-0.15288851725392186,-0.17532603892583284,-0.2111722031460738,-0.17702112528312483,-0.6761489148782024,-0.028268806394913974
7196,7.0,300.0561,1631.9415,0.0,0.0,0.0,0.0,-0.07172116176517464,0.0,-0.13848231984964085,-0.14905625338820686,-0.2085309033153978,-0.15539788178907685,-0.5965656885014495,-0.023492408245020177
7197,7.0,300.73927000000003,1734.8732,0.0,0.0,0.0,0.0,-0.07173112857475845,0.0,-0.15273223355849785,-0.14233831403269787,-0.23228758542499978,-0.16242614925271287,-0.6237314911025055,-0.015724502658887585
7198,7.0,299.95738,1764.3188,0.0,0.0,0.0,0.0,-0.07174109538434227,0.0,-0.15709677796674487,-0.16734456656312285,-0.21186753589469778,-0.14221927741094986,-0.6256930825010993,-0.04774237292730536
7199,7.0,300.51599,1463.2829,0.0,0.0,0.0,0.0,-0.0717510621939261,0.0,-0.12796012286118086,-0.10567532837684289,-0.2111660121879628,-0.17040942520060082,-0.6639937741610834,-0.02931171331209087
7200,7.0,301.17992000000004,1309.4751,0.0,0.0,0.0,0.0,-0.07176102900350992,0.0,-0.1068563828259039,-0.13042168225661788,-0.16076966772423085,-0.15337067231400683,-0.6300147968276194,-0.06950230791284373
7201,7.0,300.85837999999995,1352.3912,0.0,0.0,0.0,0.0,-0.07177099581309375,0.0,-0.13482614871880488,-0.0981321322786374,-0.17813485939554183,-0.15113446987331086,-0.6164295245218574,-0.02140886003788998
7202,7.0,300.38507000000004,1364.9775,0.0,0.0,0.0,0.0,-0.07178096262267755,0.0,-0.12287035482635988,-0.12637678785741788,-0.16567191356304484,-0.14981736633332285,-0.6055452122126593,-0.07259668049923453
7203,7.0,299.86683999999997,1502.1272,0.0,0.0,0.0,0.0,-0.07179092943226138,0.0,-0.13796481249356687,-0.14557952885008085,-0.17306482947266885,-0.16365938608192385,-0.6493289953312824,-0.04913304247755375
7204,7.0,299.6388,1659.1792,0.0,0.0,0.0,0.0,-0.0718008962418452,0.0,-0.14982402338647985,-0.13190838359834386,-0.22261664011055177,-0.15672217940477484,-0.6413564193044504,-0.03140917445634417
7205,7.0,300.88357,1523.9643,0.0,0.0,0.0,0.0,-0.07181086305142902,0.0,-0.11786772630013888,-0.14083298915413386,-0.2045463783571558,-0.14964907562421384,-0.6501936320391154,-0.025964152830462377
7206,7.0,300.32847000000004,1465.8389,0.0,0.0,0.0,0.0,-0.07182082986101285,0.0,-0.14119465864482786,-0.11205281569875189,-0.19233092899408483,-0.16596833987979984,-0.6453074867443903,-0.00939819074917921
7207,7.0,299.87805,1741.2211,0.0,0.0,0.0,0.0,-0.07183079667059666,0.0,-0.19378799277038583,-0.1122965530103069,-0.2232031903284398,-0.15168026717217684,-0.6283137728247413,-0.016738721425983184
7208,7.0,299.51131000000004,1682.2997,0.0,0.0,0.0,0.0,-0.07184076348018048,0.0,-0.19099260799700282,-0.13738243686609086,-0.18300206704589783,-0.14174363754900784,-0.5913284317820724,-0.02207595350622698
7209,7.0,300.12949,1316.0279,0.0,0.0,0.0,0.0,-0.0718507302897643,0.0,-0.13846249054518386,-0.08959678194751391,-0.17198034789063885,-0.12705228116908387,-0.5981926540545184,-0.04868998671232755
7210,7.0,299.30444,1474.7817,0.0,0.0,0.0,0.0,-0.07186069709934813,0.0,-0.14678893403693985,-0.1330366882471989,-0.16847119934931284,-0.14899617778977783,-0.6212850392660594,-0.04241583671511716
7211,7.0,300.82175,1672.694,0.0,0.0,0.0,0.0,-0.07187066390893196,0.0,-0.12467600703456388,-0.15056489159459788,-0.2332163102016578,-0.14943436792802386,-0.6627590579867264,-0.08071016820422343
7212,7.0,300.62831,1470.0739999999998,0.0,0.0,0.0,0.0,-0.07188063071851576,0.0,-0.14085931339173186,-0.1068778130655189,-0.1991286820599708,-0.14900961348610386,-0.6341316117189174,-0.04373859520391325
7213,7.0,300.35247000000004,1509.9767,0.0,0.0,0.0,0.0,-0.07189059752809959,0.0,-0.12175533388631588,-0.14815949665220385,-0.1890804024082828,-0.13881330812730688,-0.6237814848624395,-0.05861549084939854
7214,7.0,300.29021,1612.5443,0.0,0.0,0.0,0.0,-0.07190056433768341,0.0,-0.14391084779039487,-0.13552745964301888,-0.2107348844029138,-0.15311729899400087,-0.6008328798400884,-0.03388656588459367
7215,7.0,300.83506,1552.0887,0.0,0.0,0.0,0.0,-0.07191053114726723,0.0,-0.11657086749714889,-0.15175147838920486,-0.2034738531263058,-0.16129344709842386,-0.6120538444950114,-0.04876773643225085
7216,7.0,299.84514,1648.2236,0.0,0.0,0.0,0.0,-0.07192049795685106,0.0,-0.15313601372334787,-0.15388139089441086,-0.19400140350644782,-0.15603725273467783,-0.6037688834623494,-0.026201139869851175
7217,7.0,300.23617,1813.4684,0.0,0.0,0.0,0.0,-0.07193046476643487,0.0,-0.16897121800866083,-0.13458808560780985,-0.24768981781008179,-0.16248993334650783,-0.6148764552985814,-0.01662043764905948
7218,7.0,299.37217000000004,1480.7933,0.0,0.0,0.0,0.0,-0.07194043157601869,0.0,-0.16691372248810182,-0.1119041009815749,-0.17130635418912082,-0.17502834604645282,-0.6414145697276894,-0.02052968116462178
7219,7.0,299.22454,1388.1012,0.0,0.0,0.0,0.0,-0.07195039838560251,0.0,-0.12499856507139788,-0.12311294716530187,-0.17383658154383483,-0.16352530269619084,-0.6503579913378363,-0.030026855100169874
7220,7.0,300.02811,1749.7746,0.0,0.0,0.0,0.0,-0.07196036519518634,0.0,-0.1921540661891298,-0.12371485825470589,-0.2160188620844018,-0.14201163206795686,-0.6258939188034204,-0.04495882494159056
7221,7.0,300.33513999999997,1843.7485,0.0,0.0,0.0,0.0,-0.07197033200477017,0.0,-0.18504805204532082,-0.15171517363812187,-0.2236902697840108,-0.14333204893577187,-0.5928981385719904,-0.030763669294637766
7222,7.0,300.07884,1502.42,0.0,0.0,0.0,0.0,-0.07198029881435397,0.0,-0.13833775945787385,-0.11009743552327089,-0.2082629594589538,-0.16596391197686286,-0.6221547726218953,-0.04241750857778216
7223,7.0,300.48086,1452.1041,0.0,0.0,0.0,0.0,-0.0719902656239378,0.0,-0.10420529499926191,-0.13362527509778788,-0.2035728375285748,-0.17428809592089584,-0.6231287086180154,-0.03825347825832436
7224,7.0,299.62355,1525.5878,0.0,0.0,0.0,0.0,-0.07200023243352162,0.0,-0.15117071382938785,-0.12453758693840289,-0.18803228637234184,-0.15282616184276787,-0.6183750660388674,-0.026659597036597375
7225,7.0,299.79051,1604.055,0.0,0.0,0.0,0.0,-0.07201019924310544,0.0,-0.13702331063314788,-0.1267665547733849,-0.22380279120761576,-0.15754451292093286,-0.6248517606780675,-0.01115008781042799
7226,7.0,300.16643,1703.7563,0.0,0.0,0.0,0.0,-0.07202016605268927,0.0,-0.15809573110783384,-0.18088618805457682,-0.17891746337527883,-0.14457346269328986,-0.6373356199926283,-0.02446164580042648
7227,7.0,300.23976,1481.3596,0.0,0.0,0.0,0.0,-0.07203013286227308,0.0,-0.12646397802852288,-0.13883939931738187,-0.18499294137238181,-0.17476750507320984,-0.6247120638867805,-0.04328378573752706
7228,7.0,301.16008999999997,1373.9214,0.0,0.0,0.0,0.0,-0.0720400996718569,0.0,-0.10679328774217689,-0.16531873510818884,-0.14552578606477684,-0.14690544766593885,-0.6189906256071185,-0.03953805647010236
7229,7.0,301.02937000000003,1700.9534,0.0,0.0,0.0,0.0,-0.07205006648144072,0.0,-0.14636228481733288,-0.16564602502298983,-0.20503905095327882,-0.1803621249703558,-0.6098565812556583,-0.049540561535272754
7230,7.0,300.07932999999997,1942.9406,0.0,0.0,0.0,0.0,-0.07206003329102455,0.0,-0.19777876948174483,-0.14961284180063786,-0.24321382602333577,-0.15244499742014986,-0.6134537710981735,-0.01771204136604238
7231,7.0,300.03341,1637.3802,0.0,0.0,0.0,0.0,-0.07207000010060838,0.0,-0.13293232348689887,-0.16465760968294085,-0.20013276224656582,-0.15524755600424084,-0.6376966714007615,-0.08681459070368303
7232,7.0,300.23872,1426.5619,0.0,0.0,0.0,0.0,-0.07207996691019218,0.0,-0.13793694811581686,-0.11927433022145988,-0.17642791801207983,-0.12791844788456788,-0.6333720591789553,-0.04481327967072636
7233,7.0,299.69059,1446.2283,0.0,0.0,0.0,0.0,-0.07208993371977601,0.0,-0.12661107154553985,-0.12507447776888986,-0.18793175169741985,-0.15934165382829685,-0.6286136847218404,-0.04690259428417566
7234,7.0,299.74191,1499.7252,0.0,0.0,0.0,0.0,-0.07209990052935983,0.0,-0.12475673267003087,-0.13310362354880487,-0.19801865644291983,-0.18481523756984383,-0.6334512041442664,-0.025508453730488375
7235,7.0,299.97334,1487.1977,0.0,0.0,0.0,0.0,-0.07210986733894365,0.0,-0.1283324314779249,-0.12667753061959888,-0.1970610135084078,-0.18811694341819682,-0.6305416463496154,-0.025674521368877976
7236,7.0,299.39276,1515.2734,0.0,0.0,0.0,0.0,-0.07211983414852748,0.0,-0.1113805546549049,-0.16915125228642885,-0.18007348041436883,-0.17448122138995584,-0.6202144898729044,-0.015689281072161484
7237,7.0,299.93469,1689.9342,0.0,0.0,0.0,0.0,-0.07212980095811129,0.0,-0.16741032649461282,-0.14763549436298887,-0.1986519884179248,-0.17042725840236084,-0.6097672328618404,-0.010532486543225491
7238,7.0,299.97929,1948.994,0.0,0.0,0.0,0.0,-0.07213976776769511,0.0,-0.1971205115542798,-0.1935721603665848,-0.20175282756645382,-0.14226911918336888,-0.6489820787620444,-0.02108180013086168
7239,7.0,300.46877,1927.1698,0.0,0.0,0.0,0.0,-0.07214973457727893,0.0,-0.1961525030712448,-0.18568853756603182,-0.2039704571328168,-0.15142618457710086,-0.6237635098056654,-0.044018350516772956
7240,7.0,299.93298,1561.369,0.0,0.0,0.0,0.0,-0.07215970138686276,0.0,-0.15519441103649584,-0.11431655827716589,-0.2051062294349088,-0.13565106602271787,-0.6135552176981853,-0.047358377483907955
7241,7.0,299.73344,1233.2942,0.0,0.0,0.0,0.0,-0.07216966819644657,0.0,-0.12180615851133188,-0.0889184586283186,-0.16416602126442487,-0.14674979218557688,-0.6180052094873655,-0.023702042597959477
7242,7.0,299.90368,1374.1939,0.0,0.0,0.0,0.0,-0.07217963500603039,0.0,-0.12469768045420287,-0.1076506797117949,-0.18537227181231883,-0.17063212744007983,-0.6600918594834944,-0.03923776865721626
7243,7.0,300.767,1651.8689,0.0,0.0,0.0,0.0,-0.07218960181561421,0.0,-0.15374389285584086,-0.1270895181102589,-0.22129349759996778,-0.15967894452158485,-0.6443988749822174,-0.050402375328327156
7244,7.0,300.52162999999996,1529.0553,0.0,0.0,0.0,0.0,-0.07219956862519804,0.0,-0.14198325093265585,-0.16747551900604685,-0.15533587088295683,-0.1291507221261839,-0.6379910813498173,-0.05849996108624665
7245,7.0,300.50509,1426.2114,0.0,0.0,0.0,0.0,-0.07220953543478185,0.0,-0.1091271066975069,-0.13580860614826587,-0.18859694025556883,-0.15423403232671384,-0.6174645189690035,-0.05094106771749195
7246,7.0,300.17487,1615.735,0.0,0.0,0.0,0.0,-0.07221950224436569,0.0,-0.13176116849131486,-0.15472696836786284,-0.2046549582378718,-0.14785443744459686,-0.6351116474806394,-0.034793661824617066
7247,7.0,300.25574,1741.5592,0.0,0.0,0.0,0.0,-0.0722294690539495,0.0,-0.13993996117849886,-0.16714384171831284,-0.2223066869049618,-0.15627446471558884,-0.6032529770414334,-0.042853559745067056
7248,7.0,300.22965,1614.7084,0.0,0.0,0.0,0.0,-0.07223943586353332,0.0,-0.12357073356048187,-0.15169144332077986,-0.2155688473174888,-0.13258154643477987,-0.5999772509256445,-0.029882456828418866
7249,7.0,299.98316,1335.9341,0.0,0.0,0.0,0.0,-0.07224940267311714,0.0,-0.10608439770721491,-0.12547462036588086,-0.17453160018492783,-0.1287582802299529,-0.6195771352950024,-0.03373160954680067
7250,7.0,299.14422,1268.1505,0.0,0.0,0.0,0.0,-0.07225936948270095,0.0,-0.13862917018663387,-0.093193567503239,-0.15366335973789286,-0.16630806237332782,-0.6612886497066084,-0.02995855292417897
7251,7.0,299.24631,1492.6164,0.0,0.0,0.0,0.0,-0.07226933629228478,0.0,-0.13475229291901586,-0.11354926450643989,-0.2054165575430358,-0.15783972333756785,-0.6655136087810793,-0.04265092391056846
7252,7.0,299.83193,1718.4909,0.0,0.0,0.0,0.0,-0.0722793031018686,0.0,-0.15972221030085484,-0.1258291261783679,-0.23682696613800178,-0.17835643692740982,-0.6391408365032895,-0.04772428641302036
7253,7.0,299.50424,1761.0206,0.0,0.0,0.0,0.0,-0.07228926991145242,0.0,-0.16945494360640084,-0.11444425818726887,-0.2514070980544488,-0.14040820431471088,-0.6016368836619375,0.004144866922966516
7254,7.0,299.24811,1573.1217,0.0,0.0,0.0,0.0,-0.07229923672103625,0.0,-0.12090939164282788,-0.13020996364822288,-0.2270703606600998,-0.16803103337337183,-0.6397945652028074,-0.05475207562260914
7255,7.0,300.62834,1662.0013,0.0,0.0,0.0,0.0,-0.07230920353062006,0.0,-0.15955284554663984,-0.16214869097782983,-0.18350536863556982,-0.13180669381830787,-0.6243486718709164,-0.023958876167056976
7256,7.0,300.87381,1739.4942,0.0,0.0,0.0,0.0,-0.0723191703402039,0.0,-0.16303347109765084,-0.15478207904080185,-0.2109472616238738,-0.12909357482054387,-0.6520166006915283,-0.050517734865462245
7257,7.0,300.83457999999996,1417.0155,0.0,0.0,0.0,0.0,-0.0723291371497877,0.0,-0.1104559132761499,-0.14442342061848185,-0.17585798509583184,-0.14025835475742185,-0.6379414219624163,-0.01994182486735488
7258,7.0,301.28087999999997,1153.1528,0.0,0.0,0.0,0.0,-0.07233910395937153,0.0,-0.0955691465481904,-0.09469701482936772,-0.16026350876927684,-0.18064409220818384,-0.6678132609430373,-0.039359442768974566
7259,7.0,299.94248999999996,1298.1152,0.0,0.0,0.0,0.0,-0.07234907076895533,0.0,-0.1001605850115801,-0.10607795343657889,-0.18835605017679483,-0.1776678321594498,-0.6326007833353364,-0.02314236478597358
7260,7.0,300.30888999999996,1622.1633,0.0,0.0,0.0,0.0,-0.07235903757853916,0.0,-0.14150896882584788,-0.14818018721924586,-0.20340799186980582,-0.16204397157999484,-0.5990408862432325,-0.05147051723924455
7261,7.0,299.58254,1647.402,0.0,0.0,0.0,0.0,-0.07236900438812299,0.0,-0.16796634748698783,-0.10502996912315091,-0.2277727557619208,-0.14554543298421585,-0.5856235702740464,-0.04335456733651266
7262,7.0,299.46224,1535.305,0.0,0.0,0.0,0.0,-0.07237897119770681,0.0,-0.17037375879708083,-0.1200910503320639,-0.17622956417250382,-0.14853179513644688,-0.6238486633440693,-0.05208910135904404
7263,7.0,299.51184,1570.5537,0.0,0.0,0.0,0.0,-0.07238893800729063,0.0,-0.13904158324233587,-0.13819475947126086,-0.2001727552280128,-0.17719603251538685,-0.6384450072621164,-0.07623072123463644
7264,7.0,300.06124,1504.8429,0.0,0.0,0.0,0.0,-0.07239890481687444,0.0,-0.14852714431848785,-0.1119502342586279,-0.1969573073606728,-0.14649585144551486,-0.6394355200298724,-0.03004128479484397
7265,7.0,299.49264,1634.1716,0.0,0.0,0.0,0.0,-0.07240887162645827,0.0,-0.1189567371101159,-0.14688598313151788,-0.23090464089351379,-0.15919732648405283,-0.6251002906625954,-0.017836702539095483
7266,7.0,300.64034,1737.4189999999999,0.0,0.0,0.0,0.0,-0.0724188384360421,0.0,-0.14012343037410585,-0.15920348704466086,-0.22880508536130378,-0.14050820196707986,-0.6482634919236254,0.006029138017029594
7267,7.0,300.19986,1452.8092,0.0,0.0,0.0,0.0,-0.07242880524562591,0.0,-0.11729345667346289,-0.14207030938124787,-0.18225394396706382,-0.17236556531365685,-0.6286023160557184,-0.028837738220063178
7268,7.0,300.52369,1560.4672,0.0,0.0,0.0,0.0,-0.07243877205520974,0.0,-0.12782011196236287,-0.16838729210853184,-0.17813565986312085,-0.15360113604925185,-0.6226761607258524,-0.06199407704908903
7269,7.0,300.28103,1889.354,0.0,0.0,0.0,0.0,-0.07244873886479354,0.0,-0.19512870503770383,-0.13156339220429586,-0.24762436185362177,-0.16003252827648085,-0.6147297772141054,-0.02388626666489098
7270,7.0,300.22501,1860.9638,0.0,0.0,0.0,0.0,-0.07245870567437737,0.0,-0.1809971693380298,-0.15988832252224885,-0.22480103507363478,-0.17145252564854685,-0.6264793139161944,-0.030089012927554372
7271,7.0,299.80969,1512.3597,0.0,0.0,0.0,0.0,-0.0724686724839612,0.0,-0.14135480282313287,-0.11495725658039789,-0.20340753590726082,-0.17770136060525885,-0.6388793267849804,-0.03857347682540576
7272,7.0,300.03763,1377.7992,0.0,0.0,0.0,0.0,-0.07247863929354502,0.0,-0.13921514285196487,-0.10073772618903949,-0.17886370032497284,-0.15665735166337685,-0.6156497779074025,-0.045496832373687755
7273,7.0,299.30142,1484.3,0.0,0.0,0.0,0.0,-0.07248860610312884,0.0,-0.15299785707221283,-0.12682986263963286,-0.17136243758215583,-0.15732871091463485,-0.6210576355461165,-0.032059753974551373
7274,7.0,299.18349,1747.0235,0.0,0.0,0.0,0.0,-0.07249857291271265,0.0,-0.15734627053886785,-0.15058844965942286,-0.22311682088991577,-0.14504328649965786,-0.6460686604845124,-0.05232821318389255
7275,7.0,299.58291,1790.0721,0.0,0.0,0.0,0.0,-0.07250853972229648,0.0,-0.16987838082319084,-0.17183925281421383,-0.2024195967947588,-0.15976768496534285,-0.6499724395422855,-0.04969558069457195
7276,7.0,300.73477,1608.9829,0.0,0.0,0.0,0.0,-0.07251850653188031,0.0,-0.12645464599510187,-0.15459844772517886,-0.2080375315767058,-0.14968730555048687,-0.6348458719794093,-0.034464517662133064
7277,7.0,300.93841000000003,1350.4726,0.0,0.0,0.0,0.0,-0.07252847334146412,0.0,-0.09864696262794721,-0.1108046739605699,-0.2010583256829118,-0.13997446234440386,-0.6131052535937774,-0.018609149699830085
7278,7.0,301.25334,1592.4272,0.0,0.0,0.0,0.0,-0.07253844015104795,0.0,-0.13268563761755287,-0.15189119544549387,-0.19948125256476681,-0.16689772326902283,-0.6297777874967283,-0.02129846846599518
7279,7.0,301.23306,1735.1494,0.0,0.0,0.0,0.0,-0.07254840696063176,0.0,-0.16251927706940383,-0.14911642017914487,-0.21580640380343383,-0.14967157990893484,-0.6311329487104724,-0.04060539284719026
7280,7.0,299.73254,1382.0735,0.0,0.0,0.0,0.0,-0.07255837377021558,0.0,-0.11862681274505489,-0.13578627411606187,-0.16570273663108684,-0.17886594974019485,-0.6305802309134234,-0.07042518218342433
7281,7.0,299.63107,1408.1846,0.0,0.0,0.0,0.0,-0.07256834057979941,0.0,-0.14911774753677587,-0.11803098115625088,-0.16090423747001184,-0.15206744016788787,-0.6272602257682645,-0.06080318900780753
7282,7.0,299.71925,1804.4892,0.0,0.0,0.0,0.0,-0.07257830738938323,0.0,-0.16330309694926085,-0.15002311689862888,-0.23519343472428478,-0.18895884279378583,-0.6381377087717883,-0.04488802915710355
7283,7.0,299.60251,1909.443,0.0,0.0,0.0,0.0,-0.07258827419896705,0.0,-0.17373409129621983,-0.18402412228926682,-0.2226647694903018,-0.16120533486972785,-0.6458453198974703,-0.05911018082647065
7284,7.0,300.0844,1814.2782,0.0,0.0,0.0,0.0,-0.07259824100855086,0.0,-0.17986943210923081,-0.14891888707214984,-0.2227069713569668,-0.16139589681603483,-0.6481865254460294,-0.032777980095934765
7285,7.0,300.18689,1748.8418,0.0,0.0,0.0,0.0,-0.07260820781813469,0.0,-0.17989887715713684,-0.1306130548030049,-0.2210923167926128,-0.13940474221067686,-0.6191013333130444,-0.023118415606609974
7286,7.0,300.31004,1623.0221,0.0,0.0,0.0,0.0,-0.07261817462771852,0.0,-0.14448644477470185,-0.14289728358286385,-0.2059744631805968,-0.19079816530281282,-0.6293732271293013,-0.03444841002529336
7287,7.0,300.30357000000004,1673.6058,0.0,0.0,0.0,0.0,-0.07262814143730233,0.0,-0.15074023452440286,-0.13970570788787984,-0.21828844098339178,-0.16422964323820385,-0.6386079885407014,-0.006027838523776344
7288,7.0,299.99915,1781.5684,0.0,0.0,0.0,0.0,-0.07263810824688616,0.0,-0.15777680050635784,-0.17182656692296183,-0.2119489302752308,-0.17954187874940383,-0.6117231703248763,-0.05142161677616845
7289,7.0,299.60251,1445.056,0.0,0.0,0.0,0.0,-0.07264807505646997,0.0,-0.13015356614765686,-0.11628181764112189,-0.1928255571629008,-0.13961804148922788,-0.6129690322503334,0.00024126552846605377
7290,7.0,300.05228999999997,1054.3781,0.0,0.0,0.0,0.0,-0.07265804186605379,0.0,-0.1027518991883229,-0.09930651346253981,-0.11844619078222889,-0.14617669792901686,-0.6330628760434414,-0.04699787931032955
7291,7.0,300.94035,1492.4218,0.0,0.0,0.0,0.0,-0.07266800867563762,0.0,-0.1160085035591479,-0.16359802365586784,-0.17405243421263783,-0.14845510223637787,-0.6439499139954084,-0.044290915806923056
7292,7.0,301.9841,1797.9036,0.0,0.0,0.0,0.0,-0.07267797548522144,0.0,-0.18320083631801484,-0.14283906223211787,-0.2204778920644738,-0.13553290079605587,-0.6525716388313063,-0.06844427215842373
7293,7.0,300.68843,1572.4433,0.0,0.0,0.0,0.0,-0.07268794229480526,0.0,-0.14121763915709587,-0.12099845632661789,-0.2157674139395858,-0.15739725728389986,-0.6336054816044924,-0.035794711380162963
7294,7.0,300.41617,1462.8688,0.0,0.0,0.0,0.0,-0.07269790910438907,0.0,-0.12882460758149886,-0.12631230462105386,-0.18953866503100983,-0.17458513018771082,-0.6430370972453204,-0.06690900371290454
7295,7.0,300.85662,1616.3971,0.0,0.0,0.0,0.0,-0.0727078759139729,0.0,-0.13324798129055188,-0.12399700787755188,-0.2340993677963088,-0.16783163588619285,-0.6383307126508364,-0.03226855948890887
7296,7.0,299.48298,1675.3785,0.0,0.0,0.0,0.0,-0.07271784272355672,0.0,-0.17410153631248382,-0.16195974009918185,-0.17321196351968984,-0.15557583890413984,-0.6062461887643404,-0.058981589256279644
7297,7.0,299.03651,1729.9095,0.0,0.0,0.0,0.0,-0.07272780953314054,0.0,-0.14899487069714884,-0.14165365080762687,-0.2352007807875098,-0.14905442953802686,-0.6122325716801503,-0.013270803044476288
7298,7.0,299.78511000000003,1635.0517,0.0,0.0,0.0,0.0,-0.07273777634272435,0.0,-0.15511960278161285,-0.15423536981684585,-0.1876599169605918,-0.15302186096708187,-0.6485999720168334,0.0031514253557964667
7299,7.0,300.00995,1377.7638,0.0,0.0,0.0,0.0,-0.07274774315230818,0.0,-0.09525940207212101,-0.14807514358137885,-0.17547125793016483,-0.17681358126514185,-0.6646159705174893,-0.015827820731834284
7300,7.0,300.18422000000004,1457.5064,0.0,0.0,0.0,0.0,-0.072757709961892,0.0,-0.1068479525850719,-0.1297918662594599,-0.2064057429531608,-0.13244981378927886,-0.6259876951001754,-0.014717696829523588
7301,7.0,300.84148999999996,1788.2779999999998,0.0,0.0,0.0,0.0,-0.07276767677147583,0.0,-0.16541196424988985,-0.18339709272988383,-0.19478279158606482,-0.16432961049306985,-0.6219988739615094,-0.03987200647781067
7302,7.0,300.71583,1590.8807,0.0,0.0,0.0,0.0,-0.07277764358105965,0.0,-0.17265314595703884,-0.12159989118847489,-0.18933497136340682,-0.14580453116728684,-0.6311578847954333,-0.04195773114615566
7303,7.0,300.57502,1263.4042,0.0,0.0,0.0,0.0,-0.07278761039064346,0.0,-0.10424117418530289,-0.11512386529434089,-0.16467829011748183,-0.18388237873277782,-0.6652416828517423,-0.07979747507064762
7304,7.0,300.27916,1385.8953,0.0,0.0,0.0,0.0,-0.07279757720022728,0.0,-0.12796873548703086,-0.1283849380981069,-0.16492389180922085,-0.16475289572234483,-0.6081102244433064,-0.06378173190901684
7305,7.0,299.49312000000003,1635.9534,0.0,0.0,0.0,0.0,-0.0728075440098111,0.0,-0.15350683286244485,-0.1134562785447629,-0.2303258825688948,-0.15755775609973985,-0.6341901573096954,-0.04097237886115896
7306,7.0,299.51743,1724.7058,0.0,0.0,0.0,0.0,-0.07281751081939493,0.0,-0.14755047254709786,-0.15479370101944884,-0.22192332372962678,-0.16726312152008482,-0.6525184432010563,-0.029945378646378768
7307,7.0,299.33666,1653.1403,0.0,0.0,0.0,0.0,-0.07282747762897875,0.0,-0.14982724552179785,-0.15234036921482386,-0.20034575755008682,-0.15931185414285584,-0.6468892714755005,-0.037135479376236465
7308,7.0,299.38846,1489.0546,0.0,0.0,0.0,0.0,-0.07283744443856256,0.0,-0.12069440023660989,-0.14051370391512288,-0.19142732268740584,-0.15538994804079387,-0.6095365056815694,-0.016484963070939183
7309,7.0,299.52781,1538.4148,0.0,0.0,0.0,0.0,-0.07284741124814638,0.0,-0.14954883479182085,-0.15570765260964883,-0.16238318744847283,-0.13664530755084187,-0.5994445144205675,-0.04884193471057365
7310,7.0,300.65441,1837.9436,0.0,0.0,0.0,0.0,-0.07285737805773021,0.0,-0.1890641498766788,-0.14548588427583886,-0.2241389369282908,-0.16422294565504286,-0.6305974561651234,0.009845177012868321
7311,7.0,300.49748999999997,1740.7984,0.0,0.0,0.0,0.0,-0.07286734486731404,0.0,-0.15293330290834187,-0.16104792646669286,-0.2151780367539188,-0.15161457816819388,-0.6342758681356544,-0.03906969275712846
7312,7.0,299.86512,1339.5562,0.0,0.0,0.0,0.0,-0.07287731167689784,0.0,-0.08747951480355591,-0.12845048524707586,-0.19126164616355482,-0.17861642677056883,-0.6275331953452044,-0.023791937133581374
7313,7.0,299.5145,1282.927,0.0,0.0,0.0,0.0,-0.07288727848648167,0.0,-0.1006507791979585,-0.1076772977919219,-0.1816497024024298,-0.15644684895510186,-0.6374925116381124,-0.07256440341729903
7314,7.0,299.98548,1722.185,0.0,0.0,0.0,0.0,-0.07289724529606548,0.0,-0.16934985943852982,-0.15380736284210483,-0.2003440046274138,-0.1902061536668858,-0.6617142451461114,-0.04250258814892886
7315,7.0,301.15199,1903.3009,0.0,0.0,0.0,0.0,-0.07290721210564931,0.0,-0.22154506733479581,-0.13808740562316588,-0.2189234853510658,-0.14825816694694186,-0.6531181555377434,-0.06473589736918564
7316,7.0,300.78769,1603.8317,0.0,0.0,0.0,0.0,-0.07291717891523314,0.0,-0.16203372762148385,-0.1380965654040699,-0.1873944859643958,-0.14983560483512287,-0.6427841494903564,-0.04048443611650276
7317,7.0,300.42965,1322.6419,0.0,0.0,0.0,0.0,-0.07292714572481696,0.0,-0.10326512049647389,-0.12114070650815689,-0.17764427409462483,-0.13208031187531186,-0.6209155272195914,-0.038733026225902065
7318,7.0,299.87252,1514.2206,0.0,0.0,0.0,0.0,-0.07293711253440077,0.0,-0.12965807671625587,-0.13333689398682688,-0.19729028160853482,-0.14068539914456785,-0.6454983830632304,-0.018792452722420683
7319,7.0,300.26266,1741.0216,0.0,0.0,0.0,0.0,-0.07294707934398459,0.0,-0.13646274014782386,-0.17762957183567382,-0.21513477097464878,-0.13922661284309687,-0.6265218704203944,-0.03859315008934736
7320,7.0,299.27731,1726.7698,0.0,0.0,0.0,0.0,-0.07295704615356842,0.0,-0.16367338919830585,-0.16222825137568184,-0.1989932713166068,-0.15446704945221085,-0.6090968361981774,-0.04020910870658006
7321,7.0,299.36406,1395.7045,0.0,0.0,0.0,0.0,-0.07296701296315225,0.0,-0.14098299069893788,-0.1167900740237829,-0.16648626266841485,-0.15981389930240383,-0.6128110361622404,-0.035411027004546264
7322,7.0,299.33682999999996,1272.799,0.0,0.0,0.0,0.0,-0.07297697977273605,0.0,-0.1005682641628149,-0.1085081223439179,-0.17782272770223684,-0.2060978466452738,-0.6426301152101545,-0.03808766291920967
7323,7.0,300.34551,1698.0621,0.0,0.0,0.0,0.0,-0.07298694658231988,0.0,-0.13106054657716887,-0.13579067162149586,-0.24931724945819678,-0.17409266024160786,-0.6375221694685395,-0.053594195216585254
7324,7.0,300.54514,1879.881,0.0,0.0,0.0,0.0,-0.07299691339190369,0.0,-0.17874251561301283,-0.15110764914316385,-0.24158671861525274,-0.15221791794023884,-0.6329864263233964,-0.04769387067151855
7325,7.0,300.50796,1608.1501,0.0,0.0,0.0,0.0,-0.07300688020148752,0.0,-0.1182393763043179,-0.14671956693509386,-0.2238785215200898,-0.13814004396586085,-0.6217625435081854,-0.03886490883241786
7326,7.0,299.99285,1567.4657,0.0,0.0,0.0,0.0,-0.07301684701107135,0.0,-0.17694371297548483,-0.11721811139602688,-0.18230859867745783,-0.13655616180704389,-0.6357613333122585,-0.026066565057819676
7327,7.0,301.2964,1873.95,0.0,0.0,0.0,0.0,-0.07302681382065516,0.0,-0.21246336748350178,-0.14798237040222284,-0.2091882695827748,-0.14716353259890988,-0.6283282825661735,-0.017709151576757183
7328,7.0,300.03729,1868.2978,0.0,0.0,0.0,0.0,-0.07303678063023898,0.0,-0.20718765792282978,-0.14204951748919586,-0.21867870439190779,-0.12973184132353588,-0.6293672185562084,-0.028306361496620372
7329,7.0,300.58775,1903.0508,0.0,0.0,0.0,0.0,-0.0730467474398228,0.0,-0.13671448213516887,-0.17368403674127983,-0.26808141527757573,-0.16138074872703984,-0.6436338508917153,-0.033679571048164866
7330,7.0,299.7466,1806.2058,0.0,0.0,0.0,0.0,-0.07305671424940663,0.0,-0.16447025973945084,-0.15032295786822086,-0.2342482345010008,-0.16707012777353786,-0.6583528892643714,-0.03137302169277617
7331,7.0,299.80747,1640.5382,0.0,0.0,0.0,0.0,-0.07306668105899046,0.0,-0.11248198791110789,-0.15802428684328285,-0.22817637380675476,-0.18051965496340283,-0.6512816599964953,-0.03487736438887787
7332,7.0,300.23618999999997,1587.9837,0.0,0.0,0.0,0.0,-0.07307664786857426,0.0,-0.17588344807084483,-0.13540151265558886,-0.17142244225307784,-0.16149891395370186,-0.6354898126829613,-0.051999333479684655
7333,7.0,300.61044,1565.7796,0.0,0.0,0.0,0.0,-0.0730866146781581,0.0,-0.15194635678093787,-0.13813896992075486,-0.18587258431419582,-0.17996978439913483,-0.6152263710881154,-0.024351982755353576
7334,7.0,299.07497,1440.8617,0.0,0.0,0.0,0.0,-0.0730965814877419,0.0,-0.12107558492422989,-0.1129009364299549,-0.2040094571291658,-0.16483200015765184,-0.6339416577226704,-0.04144462433526596
7335,7.0,299.97194,1457.9711,0.0,0.0,0.0,0.0,-0.07310654829732573,0.0,-0.09777599817323972,-0.13671007449723388,-0.2087007341646588,-0.16593242016375484,-0.6252062664905544,-0.04358286271654366
7336,7.0,299.82407,1688.0976,0.0,0.0,0.0,0.0,-0.07311651510690956,0.0,-0.16160215400639086,-0.14407475112657087,-0.2074626033374648,-0.15443864805190785,-0.6380937742474524,-0.05093262227790845
7337,7.0,299.81972,1877.4299,0.0,0.0,0.0,0.0,-0.07312648191649337,0.0,-0.16881916969865485,-0.17168905875189083,-0.2301835918573518,-0.14730905557827184,-0.6297070626397484,-0.05090427863286115
7338,7.0,300.27779,1684.4772,0.0,0.0,0.0,0.0,-0.07313644872607719,0.0,-0.17144347732515383,-0.15513760823588985,-0.18545790157826986,-0.14931294003603987,-0.6792514360218974,-0.03748817552404486
7339,7.0,301.11849,1660.6072,0.0,0.0,0.0,0.0,-0.07314641553566101,0.0,-0.16793214016361185,-0.15429604323283386,-0.18255495017427084,-0.15294814702230686,-0.6425803139677394,-0.03630035357756597
7340,7.0,300.67848,1802.6518,0.0,0.0,0.0,0.0,-0.07315638234524484,0.0,-0.16553720196224983,-0.16239305650444685,-0.2200308866503578,-0.16412342423022083,-0.6413349890648353,-0.03445129170857776
7341,7.0,300.74577999999997,1558.7114,0.0,0.0,0.0,0.0,-0.07316634915482867,0.0,-0.12035740338585088,-0.13913537980409288,-0.21431658165139977,-0.14175243255987585,-0.6187787550112084,-0.038335420807161465
7342,7.0,300.17305,1375.3034,0.0,0.0,0.0,0.0,-0.07317631596441247,0.0,-0.08720805294276472,-0.12690581586712887,-0.2039440113052068,-0.16976860530735682,-0.6281061781442534,-0.025461793563383375
7343,7.0,299.4733,1547.6808,0.0,0.0,0.0,0.0,-0.0731862827739963,0.0,-0.12300144912429788,-0.14114356044228485,-0.2063113181763418,-0.16191538000980385,-0.6418215314978534,-0.05164313756603086
7344,7.0,298.29729,1649.3229,0.0,0.0,0.0,0.0,-0.0731962495835801,0.0,-0.17570031324777083,-0.1143538864108499,-0.21129878848106678,-0.17019213371665584,-0.6444059778654184,-0.005472929168086055
7345,7.0,299.70056,1658.7696,0.0,0.0,0.0,0.0,-0.07320621639316394,0.0,-0.18046654039316082,-0.14075125026856686,-0.18300673812885881,-0.18220988785271583,-0.6343719039801323,-0.027185443440994373
7346,7.0,299.88842999999997,1769.1399,0.0,0.0,0.0,0.0,-0.07321618320274777,0.0,-0.16980033016798785,-0.14379055473852287,-0.2241834591376848,-0.15888567101829484,-0.6550445466278634,-0.006887552862623544
7347,7.0,300.50751,1799.2988,0.0,0.0,0.0,0.0,-0.07322615001233158,0.0,-0.15585710699939886,-0.16132860687689385,-0.22975620296517177,-0.16335590754447285,-0.6321591481467504,-0.06504179554787544
7348,7.0,300.80791,1610.2968,0.0,0.0,0.0,0.0,-0.0732361168219154,0.0,-0.14132816447800386,-0.14018900792057787,-0.20797284569032182,-0.14432497323876586,-0.6213990299023093,-0.07605994400978203
7349,7.0,300.67203,1596.5304,0.0,0.0,0.0,0.0,-0.07324608363149922,0.0,-0.14573843686326385,-0.1405495831011639,-0.19901736640398482,-0.14311740203458787,-0.6244761589984984,-0.07381968755543593
7350,7.0,300.15457000000004,1548.7062,0.0,0.0,0.0,0.0,-0.07325605044108305,0.0,-0.15466245473399584,-0.12412051293224087,-0.1919850358074478,-0.14665910630162687,-0.6479463750398283,-0.027993989663041674
7351,7.0,300.20981,1235.029,0.0,0.0,0.0,0.0,-0.07326601725066686,0.0,-0.0921586601956016,-0.11943923667523489,-0.16382008754778385,-0.15286957960955286,-0.6368275459949854,-0.07474183937869523
7352,7.0,298.73805,1256.0555,0.0,0.0,0.0,0.0,-0.07327598406025068,0.0,-0.06557614008086114,-0.11629801951022088,-0.1999353608620838,-0.14860635007880485,-0.6319709166756734,-0.029438788046882176
7353,7.0,298.71513,1429.6244,0.0,0.0,0.0,0.0,-0.0732859508698345,0.0,-0.10542943284257489,-0.12409018635674789,-0.20505049054690783,-0.17105665896697783,-0.6134866611964194,-0.05048290439327475
7354,7.0,299.17002,1636.3491,0.0,0.0,0.0,0.0,-0.07329591767941833,0.0,-0.12018738001907088,-0.15932213863137085,-0.2178997582450318,-0.17951699332694782,-0.6547324149345584,-0.024443978771682875
7355,7.0,299.83686,1721.2284,0.0,0.0,0.0,0.0,-0.07330588448900215,0.0,-0.18134529167488683,-0.14023372264749087,-0.20163144020447382,-0.15872764453269886,-0.6400647078119683,-0.04991656142213105
7356,7.0,300.18209,1821.2856,0.0,0.0,0.0,0.0,-0.07331585129858596,0.0,-0.20561066586469282,-0.15295912052088984,-0.19505556864548582,-0.15247278073789186,-0.6370474415316875,-0.022607322123668977
7357,7.0,299.56077,1611.3669,0.0,0.0,0.0,0.0,-0.0733258181081698,0.0,-0.15552034319616284,-0.12306825270339088,-0.2112267058689528,-0.15318808464598685,-0.6369663004636794,-0.024694948662451678
7358,7.0,299.73902000000004,1661.0595,0.0,0.0,0.0,0.0,-0.07333578491775361,0.0,-0.15594564479313686,-0.13446121656278887,-0.2145137499883588,-0.14612158725607785,-0.6487046914146685,-0.03059796034678357
7359,7.0,299.82277999999997,1706.4719,0.0,0.0,0.0,0.0,-0.07334575172733743,0.0,-0.16284402372645385,-0.13726501131200186,-0.2186158220907018,-0.17010260293781984,-0.6260828494170664,-0.04845832936846475
7360,7.0,299.37453999999997,1395.8111,0.0,0.0,0.0,0.0,-0.07335571853692124,0.0,-0.15385586712439187,-0.0999413845644467,-0.17049446728149384,-0.14890000009028587,-0.6113881290468104,-0.05117552568463116
7361,7.0,299.92111,1185.8139,0.0,0.0,0.0,0.0,-0.07336568534650507,0.0,-0.11116136839327288,-0.1075729330316219,-0.14172352453452286,-0.1937367020503238,-0.6227093547991285,-0.03376779169462157
7362,7.0,300.85726,1398.3446,0.0,0.0,0.0,0.0,-0.07337565215608889,0.0,-0.13460077149906186,-0.09775451220486922,-0.19270657120365783,-0.16217210718764086,-0.6523031579523093,-0.028216535862005274
7363,7.0,300.23895,1843.8911,0.0,0.0,0.0,0.0,-0.07338561896567271,0.0,-0.11773635842467389,-0.17316796820034783,-0.2695925359467118,-0.16805426719816483,-0.6567727358659224,-0.016206149067422383
7364,7.0,300.40387999999996,1783.2886,0.0,0.0,0.0,0.0,-0.07339558577525652,0.0,-0.13795787173038188,-0.16485357225228084,-0.2392637718334958,-0.13540378233581288,-0.6456639785270734,-0.03317106439272917
7365,7.0,300.06895,1661.5801,0.0,0.0,0.0,0.0,-0.07340555258484036,0.0,-0.13685314541135385,-0.14748569546820486,-0.2207400299978448,-0.14475964739916486,-0.6245631971820884,-0.008470222059745831
7366,7.0,299.57099999999997,1729.4769,0.0,0.0,0.0,0.0,-0.07341551939442417,0.0,-0.18057895035925484,-0.15415625524903787,-0.1909825970860148,-0.14334269819432285,-0.6486660865858583,-0.061531942797729944
7367,7.0,299.53445,1825.8178,0.0,0.0,0.0,0.0,-0.07342548620400799,0.0,-0.1957056091146398,-0.16382188100046086,-0.19547554054693383,-0.16051105590120784,-0.6227342098240813,-0.04089319640559426
7368,7.0,298.72275,1521.9313,0.0,0.0,0.0,0.0,-0.07343545301359182,0.0,-0.14545145403744086,-0.14734512728183186,-0.16983255152116783,-0.15450359738331784,-0.6198322311401784,-0.06129751725459394
7369,7.0,299.18515,1231.3464,0.0,0.0,0.0,0.0,-0.07344541982317562,0.0,-0.08622900611314031,-0.10866441617184289,-0.17940512038340684,-0.15920706381751387,-0.6263468821281244,-0.038518042925684864
7370,7.0,300.10051,1111.2368,0.0,0.0,0.0,0.0,-0.07345538663275945,0.0,-0.07570379470563282,-0.08758666397513072,-0.17449778802909086,-0.16845577768279082,-0.6671690973244634,-0.06345437511970924
7371,7.0,300.5697,1381.4395,0.0,0.0,0.0,0.0,-0.07346535344234328,0.0,-0.1052019784601269,-0.12678818766301986,-0.18793295746503882,-0.17814708932424883,-0.6427387862833794,-0.046040991247142046
7372,7.0,301.61355,1835.8825,0.0,0.0,0.0,0.0,-0.0734753202519271,0.0,-0.2055217227709148,-0.16402466274297384,-0.1885160525000858,-0.18094923247579883,-0.6185592445095444,-0.06376906222976643
7373,7.0,299.76591,1739.3301,0.0,0.0,0.0,0.0,-0.07348528706151092,0.0,-0.17422003591167884,-0.13389006774642087,-0.2206028156693028,-0.16026964906488284,-0.6168870880020154,-0.0007161450171355103
7374,7.0,300.04016,1716.6144,0.0,0.0,0.0,0.0,-0.07349525387109473,0.0,-0.14751888954148087,-0.15403254754432885,-0.2202564766526218,-0.17515217534117383,-0.6520624603910543,-0.02226709807134148
7375,7.0,300.08383,2046.2891,0.0,0.0,0.0,0.0,-0.07350522068067857,0.0,-0.16168774324233784,-0.16598065086851485,-0.29435238631781874,-0.15213818528986986,-0.6483017015848964,0.004231900242956036
7376,7.0,299.02808,1938.826,0.0,0.0,0.0,0.0,-0.0735151874902624,0.0,-0.1911172276268018,-0.15061727662476784,-0.24762018726320975,-0.13444115421080888,-0.6438848633389884,-0.024839303364448374
7377,7.0,299.80736,1655.6871,0.0,0.0,0.0,0.0,-0.0735251542998462,0.0,-0.16506783411842685,-0.13213433837064387,-0.2060853634040418,-0.15343745562809785,-0.6478163142569924,-0.01313985566780279
7378,7.0,301.76959,1473.1531,0.0,0.0,0.0,0.0,-0.07353512110943003,0.0,-0.18266026738966482,-0.09351152335811881,-0.17162997613855985,-0.16546025574965584,-0.6978140663963863,-0.03281013761435847
7379,7.0,299.79812999999996,1393.3848,0.0,0.0,0.0,0.0,-0.07354508791901383,0.0,-0.14194500074138086,-0.11791715264001688,-0.16369203300014584,-0.16766299053954883,-0.6340884877946614,-0.04653861458325366
7380,7.0,301.14602,1603.3446,0.0,0.0,0.0,0.0,-0.07355505472859766,0.0,-0.12394475456989487,-0.14935676310286486,-0.2140752254775798,-0.14576651402353485,-0.6144389237729004,-0.04766462726038245
7381,7.0,301.50135,1707.7923,0.0,0.0,0.0,0.0,-0.0735650215381815,0.0,-0.12618063277055888,-0.16220613212599883,-0.2307394507297108,-0.13031479450356886,-0.6202776660166395,-0.059528756469280845
7382,7.0,301.03677999999996,1443.3507,0.0,0.0,0.0,0.0,-0.07357498834776531,0.0,-0.10494346796211389,-0.15210592340668586,-0.18169319109672183,-0.16223631684647785,-0.6385231896398323,-0.04636369721849066
7383,7.0,300.68413,1294.2769,0.0,0.0,0.0,0.0,-0.07358495515734913,0.0,-0.11446158476397889,-0.14150482463293884,-0.13746145010888886,-0.15130869822800586,-0.6518586755309423,-0.07510061604035373
7384,7.0,300.4503,1662.3691,0.0,0.0,0.0,0.0,-0.07359492196693294,0.0,-0.16805640515587586,-0.16320271426185384,-0.17405957762584284,-0.14931555422129786,-0.6269842367060264,-0.043970799702830056
7385,7.0,299.77006,1902.1835,0.0,0.0,0.0,0.0,-0.07360488877651677,0.0,-0.17360189255567282,-0.1818127039460168,-0.22280168997631478,-0.17032546729731485,-0.6252399773213815,-0.03154568862906707
7386,7.0,300.19822999999997,1729.135,0.0,0.0,0.0,0.0,-0.0736148555861006,0.0,-0.11288675092855488,-0.15572494878885587,-0.25700216378163876,-0.17370780758862583,-0.6618520775572143,-0.005995186134003805
7387,7.0,299.7347,1423.9779999999998,0.0,0.0,0.0,0.0,-0.07362482239568441,0.0,-0.09314987514567691,-0.12836422726606286,-0.2113396629901008,-0.17938678055659682,-0.6313382027832294,-0.04193302608221746
7388,7.0,300.46124,1539.3952,0.0,0.0,0.0,0.0,-0.07363478920526824,0.0,-0.13726724046222186,-0.12098463559525388,-0.20968583617688077,-0.14154539516694287,-0.6307114873313775,-0.01852671977769488
7389,7.0,300.35365,1593.7764,0.0,0.0,0.0,0.0,-0.07364475601485204,0.0,-0.1922360583872218,-0.11105527097530189,-0.18117689964076783,-0.12606868889951087,-0.6420352867389494,-0.03462539340701026
7390,7.0,300.64596,1663.5536,0.0,0.0,0.0,0.0,-0.07365472282443587,0.0,-0.19164399608878982,-0.12350516614651089,-0.19052958309880583,-0.16393440242406584,-0.6713281039499254,-0.03071046454513687
7391,7.0,300.99557000000004,1669.5629,0.0,0.0,0.0,0.0,-0.0736646896340197,0.0,-0.16799915652522585,-0.12822068012439586,-0.21128561622976683,-0.15260031852797887,-0.6557855465584944,-0.05607921236508735
7392,7.0,301.02822000000003,1569.2121,0.0,0.0,0.0,0.0,-0.07367465644360352,0.0,-0.1023947082630709,-0.14034053947303288,-0.23426605757025976,-0.16438221843826184,-0.6332610171004963,-0.026777108716944876
7393,7.0,299.56838999999997,1513.3821,0.0,0.0,0.0,0.0,-0.07368462325318734,0.0,-0.11083270045833589,-0.14800601965955687,-0.2011916288660678,-0.16328123101210285,-0.6130182255426884,-0.045822212312050255
7394,7.0,300.50096,2001.2886,0.0,0.0,0.0,0.0,-0.07369459006277115,0.0,-0.19121853237179984,-0.18071204075988984,-0.2364111890919678,-0.18031678202838083,-0.6377638802798944,-0.006038147330293744
7395,7.0,298.95762,2137.9120000000003,0.0,0.0,0.0,0.0,-0.07370455687235498,0.0,-0.24990386047109078,-0.18672927714124482,-0.2132387165925228,-0.17735564980363983,-0.6471968232783534,-0.03220485848162207
7396,7.0,299.27471,1766.2397,0.0,0.0,0.0,0.0,-0.07371452368193881,0.0,-0.1987682588668998,-0.13534341289485488,-0.2027810737679338,-0.15782138351075786,-0.6417880841120523,-0.02009688455665808
7397,7.0,299.17458999999997,1458.3926,0.0,0.0,0.0,0.0,-0.07372449049152262,0.0,-0.09511278376940091,-0.14988794933528887,-0.19831420123208782,-0.15549063470323085,-0.6393252074914855,-0.03331284645272197
7398,7.0,300.13343,1547.7433,0.0,0.0,0.0,0.0,-0.07373445730110645,0.0,-0.09247228643280411,-0.13796508607109387,-0.24003794557240077,-0.14614253113564485,-0.6449107284027333,-0.027623196868447275
7399,7.0,299.60452999999995,1599.3557,0.0,0.0,0.0,0.0,-0.07374442411069025,0.0,-0.10012327308989771,-0.14971464303818485,-0.23632627873358777,-0.15436972678010585,-0.6481672027666224,-0.05151562814694665
7400,7.0,299.8775,1387.3862,0.0,0.0,0.0,0.0,-0.07375439092027408,0.0,-0.11942605429143388,-0.14714713821229186,-0.15515757939536085,-0.14772364712168884,-0.5952987813714155,-0.07203492552454364
7401,7.0,300.57102000000003,1273.2428,0.0,0.0,0.0,0.0,-0.0737643577298579,0.0,-0.13099742109593887,-0.11625155186063489,-0.13978502510570787,-0.15542323330657884,-0.6234689377365934,-0.07826746944614783
7402,7.0,300.84978,1425.2274,0.0,0.0,0.0,0.0,-0.07377432453944173,0.0,-0.15372135817361685,-0.13221596579869987,-0.14729621769950485,-0.15824383787495086,-0.6467375980680314,-0.07205452482122793
7403,7.0,300.531,1846.7619,0.0,0.0,0.0,0.0,-0.07378429134902555,0.0,-0.13327422446814188,-0.17633249011766183,-0.25176277923705176,-0.14364579169673586,-0.6543303471623774,-0.06643082869921234
7404,7.0,300.40505,2055.0229999999997,0.0,0.0,0.0,0.0,-0.07379425815860936,0.0,-0.16994539718480484,-0.16955093892087486,-0.2851793419700097,-0.13109653722072087,-0.6440639958241674,-0.025402345166766274
7405,7.0,300.24411000000003,1782.1367,0.0,0.0,0.0,0.0,-0.0738042249681932,0.0,-0.13807385846932888,-0.13624940033926886,-0.26740180817050374,-0.1342353124529939,-0.6350065126502634,0.011382316627347188
7406,7.0,299.89994,1471.6183,0.0,0.0,0.0,0.0,-0.07381419177777701,0.0,-0.14459905739081585,-0.10782921437941488,-0.1949069552533188,-0.16971478146204486,-0.6571224490054364,0.015036548397491786
7407,7.0,300.79156,1913.5006,0.0,0.0,0.0,0.0,-0.07382415858736083,0.0,-0.23351199684583976,-0.14068641239466786,-0.2074579930495098,-0.16407710856814986,-0.6404586999808524,0.01791779294459848
7408,7.0,299.63996000000003,2180.3615,0.0,0.0,0.0,0.0,-0.07383412539694464,0.0,-0.2588245042189897,-0.17250521144243883,-0.2314457164469138,-0.18349194307174482,-0.6247902969270014,-0.017685763737948983
7409,7.0,299.18548,1758.2001,0.0,0.0,0.0,0.0,-0.07384409220652846,0.0,-0.16485500093492184,-0.14035049972151586,-0.22924342748706475,-0.16216337297177882,-0.6387759246122754,-0.021248408844804677
7410,7.0,300.33622,1301.8513,0.0,0.0,0.0,0.0,-0.07385405901611229,0.0,-0.08241878246360052,-0.11931069576754888,-0.1940008056888888,-0.1902234802435958,-0.6616613433583903,-0.04223126307690116
7411,7.0,300.3063,1299.9132,0.0,0.0,0.0,0.0,-0.07386402582569611,0.0,-0.07705394134463193,-0.1318941980969439,-0.18619300439331882,-0.18359247774666682,-0.6409207926889574,-0.04997442813534205
7412,7.0,300.03116,1583.1713,0.0,0.0,0.0,0.0,-0.07387399263527994,0.0,-0.15851386902660086,-0.1332330865140819,-0.1894975878719558,-0.14960997430285486,-0.6044551273575764,-0.06191836092211644
7413,7.0,299.12609,1633.0875,0.0,0.0,0.0,0.0,-0.07388395944486376,0.0,-0.17682645967391283,-0.15100685102321584,-0.16858451110799585,-0.15290862013590586,-0.6250549679856223,-0.06169431409975473
7414,7.0,299.86265,1295.8684,0.0,0.0,0.0,0.0,-0.07389392625444757,0.0,-0.1163606383664009,-0.10109614416016259,-0.17645487046473982,-0.13715002769065388,-0.6301274601062383,-0.05149304077571745
7415,7.0,300.05699,1154.7506,0.0,0.0,0.0,0.0,-0.07390389306403139,0.0,-0.05933380411029054,-0.1130339153730789,-0.17864763487364882,-0.14231559696545584,-0.6705249512581604,-0.07714300906817223
7416,7.0,300.79445,1531.3827,0.0,0.0,0.0,0.0,-0.07391385987361522,0.0,-0.11027034665283589,-0.13752141424980688,-0.21771035140383876,-0.14629972675615885,-0.6510038572165784,-0.035607578272194365
7417,7.0,301.24445,1877.4316,0.0,0.0,0.0,0.0,-0.07392382668319904,0.0,-0.15350069256683885,-0.16611051913383185,-0.25108113549727873,-0.15258566693153286,-0.6605126115875193,-0.04585105346289666
7418,7.0,300.93206000000004,1581.3627,0.0,0.0,0.0,0.0,-0.07393379349278285,0.0,-0.15363662006775386,-0.14366459761859188,-0.18339355648703484,-0.17337176319296083,-0.6546000743389974,-0.012397401723278289
7419,7.0,300.30472000000003,1312.8028,0.0,0.0,0.0,0.0,-0.07394376030236667,0.0,-0.13217751295740487,-0.13615974797042085,-0.13072200958625788,-0.17097407908382783,-0.6225021046236744,-0.08129507594369934
7420,7.0,300.21027000000004,1741.8949,0.0,0.0,0.0,0.0,-0.0739537271119505,0.0,-0.16619423385709384,-0.16748860006483784,-0.19580972056241483,-0.16949881733573086,-0.5984681466242074,-0.02678528665850197
7421,7.0,299.47605,2023.6258,0.0,0.0,0.0,0.0,-0.07396369392153432,0.0,-0.19789432052314881,-0.16843973793370784,-0.24879764467441579,-0.13591858431411988,-0.6306054709734145,-0.059073415046592144
7422,7.0,299.43675,1789.6944,0.0,0.0,0.0,0.0,-0.07397366073111813,0.0,-0.15297257648221785,-0.12922584448859786,-0.26182398796001577,-0.15987699438613084,-0.6455505553108795,0.006083450350214805
7423,7.0,300.43667999999997,1399.5857,0.0,0.0,0.0,0.0,-0.07398362754070197,0.0,-0.1134258709092619,-0.11557021209589188,-0.19644301200741582,-0.14463583836944588,-0.6364436255320954,-0.04060085551324246
7424,7.0,299.74477,1452.8961,0.0,0.0,0.0,0.0,-0.07399359435028577,0.0,-0.15720172027960186,-0.08672775517011301,-0.1977146510154168,-0.16689385265364085,-0.6382596736863254,0.016139333329328185
7425,7.0,298.77657,1825.0758,0.0,0.0,0.0,0.0,-0.0740035611598696,0.0,-0.2208705467432258,-0.1175100996773439,-0.2163968043717018,-0.16776418382703584,-0.6329538705976834,0.0009587398588052572
7426,7.0,299.75282000000004,2239.2735,0.0,0.0,0.0,0.0,-0.07401352796945343,0.0,-0.23524488756436276,-0.17566878090465882,-0.26976956087168275,-0.1862499085189348,-0.6466955684538833,-0.009459674055972141
7427,7.0,300.57121,1830.2143,0.0,0.0,0.0,0.0,-0.07402349477903725,0.0,-0.16134494046850584,-0.15128772395093584,-0.24370678232948675,-0.14560560990765486,-0.6658685300261074,-0.04017544549850776
7428,7.0,300.58776,1312.5267,0.0,0.0,0.0,0.0,-0.07403346158862106,0.0,-0.06188973458029124,-0.14977465784160787,-0.18731094349365082,-0.15368809317283386,-0.6449554735271494,-0.06500385845088134
7429,7.0,299.66521,1473.1176,0.0,0.0,0.0,0.0,-0.07404342839820488,0.0,-0.08692912545523673,-0.15828422602393685,-0.2025776131478538,-0.14952283479425485,-0.6830241917092393,-0.07638939518704634
7430,7.0,300.54447999999996,1835.3734,0.0,0.0,0.0,0.0,-0.07405339520778871,0.0,-0.18849844221334783,-0.16063464201590485,-0.2087746203619508,-0.15063794692680788,-0.6726802659433734,-0.031422420674901475
7431,7.0,300.53081000000003,1480.0447,0.0,0.0,0.0,0.0,-0.07406336201737253,0.0,-0.1255378877021249,-0.16884587897129086,-0.15551285527792386,-0.16252925758288886,-0.6421707380123174,-0.09372132793707491
7432,7.0,300.45565,1053.5082,0.0,0.0,0.0,0.0,-0.07407332882695634,0.0,-0.07684293099805684,-0.1086183639547979,-0.13477890086664188,-0.15203220946191084,-0.6050056362694075,-0.07006347216272633
7433,7.0,300.83857,1234.4361,0.0,0.0,0.0,0.0,-0.07408329563654018,0.0,-0.08115786465490762,-0.12546129612706589,-0.16861858670885885,-0.17454095248335083,-0.6165621184299434,-0.07370844687995733
7434,7.0,299.81437,1695.5797,0.0,0.0,0.0,0.0,-0.07409326244612398,0.0,-0.12879163642324487,-0.15476409385152687,-0.23185815990011877,-0.15250100988567786,-0.6390404842133854,-0.04547944196222146
7435,7.0,298.97834,1934.1767,0.0,0.0,0.0,0.0,-0.07410322925570781,0.0,-0.17292079597095383,-0.15437691072331486,-0.26064371371353173,-0.14643336431184786,-0.6686877667068444,-0.04784170690085886
7436,7.0,299.43236,1665.1459,0.0,0.0,0.0,0.0,-0.07411319606529164,0.0,-0.1921112057098998,-0.1175305571968629,-0.19652100186761282,-0.15124785255950085,-0.6348435313716785,-0.007951387953990892
7437,7.0,298.86455,1368.219,0.0,0.0,0.0,0.0,-0.07412316287487546,0.0,-0.14277252209805086,-0.1121262054034949,-0.16100568407002386,-0.16087216810434685,-0.6706502598980274,-0.012780586566595687
7438,7.0,299.77664,1555.4251,0.0,0.0,0.0,0.0,-0.07413312968445927,0.0,-0.16183219217659384,-0.1063687562152789,-0.2046094531758808,-0.16287663011467185,-0.6592144152943974,-0.02097364885493798
7439,7.0,300.59056,1975.7323,0.0,0.0,0.0,0.0,-0.07414309649404309,0.0,-0.17275513971210482,-0.17263182717493483,-0.2551863284099298,-0.18028494571023881,-0.6468391054630495,-0.025163468415940977
7440,7.0,299.87221,1724.839,0.0,0.0,0.0,0.0,-0.07415306330362692,0.0,-0.14517654915280986,-0.13904112727979087,-0.24009033060257076,-0.13933051150835088,-0.6268960535498234,-0.03855855165143276
7441,7.0,300.04249,1252.7679,0.0,0.0,0.0,0.0,-0.07416303011321074,0.0,-0.11147288200401688,-0.0998145317314273,-0.16952273003809085,-0.18316231254921284,-0.6448052895973274,-0.012597780036554089
7442,7.0,300.40653,1380.1904,0.0,0.0,0.0,0.0,-0.07417299692279455,0.0,-0.14684737830270786,-0.1092409149487389,-0.16345513512676585,-0.17348983722711384,-0.6462247921924213,-0.028329967184200073
7443,7.0,300.42928,1923.0565,0.0,0.0,0.0,0.0,-0.07418296373237838,0.0,-0.18483386110668182,-0.15576428315773785,-0.24396302314727578,-0.15860100853520084,-0.6408981566817235,-0.005229919471427865
7444,7.0,300.11596000000003,1977.203,0.0,0.0,0.0,0.0,-0.07419293054196219,0.0,-0.17009711112227782,-0.18859519746539682,-0.24232802252091376,-0.14620745006955188,-0.6057116993365904,-0.06311009097423104
7445,7.0,298.91042000000004,1658.9154,0.0,0.0,0.0,0.0,-0.07420289735154602,0.0,-0.12678524923772988,-0.15637392534540487,-0.22110968389932678,-0.14207588225679785,-0.6287490954652044,-0.04483998691686216
7446,7.0,298.73244,1320.4342,0.0,0.0,0.0,0.0,-0.07421286416112985,0.0,-0.08982121177841342,-0.12325482244430389,-0.18830300653405982,-0.18295401872615583,-0.6491610491272074,-0.06419931051372864
7447,7.0,299.86162,1273.396,0.0,0.0,0.0,0.0,-0.07422283097071367,0.0,-0.11588828143478289,-0.12770937385893388,-0.14348294214066384,-0.1787538336166298,-0.6622465966161504,-0.053514152511685655
7448,7.0,299.64271,1514.8485,0.0,0.0,0.0,0.0,-0.07423279778029748,0.0,-0.15204685092585588,-0.12738282361670586,-0.1810464538228938,-0.16746276218728784,-0.6592789694582684,-0.055753970228738445
7449,7.0,301.23084,1677.0995,0.0,0.0,0.0,0.0,-0.0742427645898813,0.0,-0.16363312263933183,-0.15300428107784686,-0.19315895697580482,-0.16830803568570984,-0.6494305939188093,-0.054310271221256444
7450,7.0,300.72987,1390.3614,0.0,0.0,0.0,0.0,-0.07425273139946513,0.0,-0.11332011799632488,-0.13518487978420887,-0.17413017076030982,-0.15802271630562784,-0.6593470395999864,-0.050571952865063156
7451,7.0,299.6787,1311.2444,0.0,0.0,0.0,0.0,-0.07426269820904896,0.0,-0.07852305570437222,-0.13010131283999987,-0.1899612004552108,-0.15204501694317488,-0.6301664601025874,-0.07634173392884253
7452,7.0,299.34603,1863.9713,0.0,0.0,0.0,0.0,-0.07427266501863276,0.0,-0.15807889089117183,-0.16183110799898684,-0.24669072281397875,-0.14571794894624185,-0.6002012197277484,-0.03192976817222277
7453,7.0,300.37272,2047.4461,0.0,0.0,0.0,0.0,-0.0742826318282166,0.0,-0.2189454931432378,-0.14388162565751086,-0.25954537087013374,-0.14765437121235186,-0.6432949288657663,0.0016558796579225984
7454,7.0,299.6279,1571.8728,0.0,0.0,0.0,0.0,-0.0742925986378004,0.0,-0.17336336334963182,-0.09470686868659023,-0.2097398525397118,-0.16098845881832385,-0.6569607241569754,0.014740302439254586
7455,7.0,299.05635,1504.9425,0.0,0.0,0.0,0.0,-0.07430256544738423,0.0,-0.14026023940260787,-0.1019350372227049,-0.2152696750929628,-0.16987667856302285,-0.6804849970911403,0.01038785725045169
7456,7.0,298.40062,1775.9372,0.0,0.0,0.0,0.0,-0.07431253225696804,0.0,-0.15287087656968085,-0.13073407739494886,-0.25623560968348574,-0.16922753988645783,-0.6737665004480764,-0.014273822358216589
7457,7.0,298.47129,1875.5518,0.0,0.0,0.0,0.0,-0.07432249906655188,0.0,-0.16026692342211385,-0.15333771128825385,-0.25651629009368676,-0.19328174262292283,-0.6437356723942643,-0.03278598679822497
7458,7.0,299.66308,1928.9954,0.0,0.0,0.0,0.0,-0.07433246587613569,0.0,-0.19476364115917483,-0.16429791602994184,-0.22730486726324378,-0.16284035576109185,-0.6490931816355093,-0.058808377191434946
7459,7.0,300.20133,1586.3374,0.0,0.0,0.0,0.0,-0.07434243268571951,0.0,-0.1895972714167938,-0.13938325117605588,-0.15322643616227186,-0.16955404959868184,-0.6346771455727575,-0.03425979554567857
7460,7.0,299.35809,1259.4803,0.0,0.0,0.0,0.0,-0.07435239949530334,0.0,-0.0999009629782074,-0.13878721693723187,-0.14416238712771987,-0.17467684958676286,-0.6242232517735384,-0.07471445730799284
7461,7.0,299.3549,1575.305,0.0,0.0,0.0,0.0,-0.07436236630488716,0.0,-0.1231150952555139,-0.13654696149613585,-0.21919133801500082,-0.14306523991943987,-0.6525016840444025,-0.05604078384179475
7462,7.0,300.40934,1747.6015,0.0,0.0,0.0,0.0,-0.07437233311447097,0.0,-0.09995664917720322,-0.16463218723793185,-0.26663839514766075,-0.14908289173333586,-0.6605926887429224,-0.05388279518956785
7463,7.0,300.29062999999996,1320.6616,0.0,0.0,0.0,0.0,-0.07438229992405479,0.0,-0.04763882788633625,-0.12611879411695587,-0.2276905102513038,-0.13913151932121187,-0.6740181309779104,-0.05733865792138495
7464,7.0,300.17962,1150.8573,0.0,0.0,0.0,0.0,-0.0743922667336386,0.0,-0.05580681426120374,-0.11813908480941988,-0.17588599132859584,-0.14723729720618986,-0.6520526318650843,-0.05579755923479034
7465,7.0,299.64765,1613.171,0.0,0.0,0.0,0.0,-0.07440223354322244,0.0,-0.16924012445269984,-0.13717172137529487,-0.18395186742463582,-0.17611129762083183,-0.6293383611933604,-0.01782337019427968
7466,7.0,298.94527999999997,2074.4841,0.0,0.0,0.0,0.0,-0.07441220035280625,0.0,-0.2122551141904488,-0.18035141491679885,-0.23798484755727578,-0.14784932053159186,-0.6509369219149724,-0.05180408119866475
7467,7.0,299.8082,1768.0842,0.0,0.0,0.0,0.0,-0.07442216716239007,0.0,-0.17230823562299882,-0.15568069002448784,-0.2094645119575378,-0.15996265454958483,-0.6516135298017484,-0.04867367034596725
7468,7.0,298.87892,1384.2781,0.0,0.0,0.0,0.0,-0.0744321339719739,0.0,-0.09389134927735471,-0.14292193595779687,-0.18397269984669182,-0.14361360074105886,-0.6445918383312613,-0.07420041020101034
7469,7.0,298.45221000000004,1532.8634,0.0,0.0,0.0,0.0,-0.07444210078155772,0.0,-0.12567989470363988,-0.14449745880328885,-0.1957748242289708,-0.16980450475839984,-0.6637922488486944,-0.04426103506147406
7470,7.0,298.85442,1688.515,0.0,0.0,0.0,0.0,-0.07445206759114154,0.0,-0.2024049857283168,-0.1274708649178949,-0.18339055726673884,-0.17872439870122483,-0.6431236693338643,-0.04023997433112626
7471,7.0,299.94491,1942.8129999999999,0.0,0.0,0.0,0.0,-0.07446203440072537,0.0,-0.25537017250807376,-0.13054209689850188,-0.20465436042031282,-0.17880824514699983,-0.6356262569414274,-0.005041431242775525
7472,7.0,300.14678,1666.9562,0.0,0.0,0.0,0.0,-0.07447200121030918,0.0,-0.17741549235454585,-0.1097755664965049,-0.21952199192013377,-0.16217036439746885,-0.6275645453032984,-0.00824018895579333
7473,7.0,301.35958999999997,1374.5052,0.0,0.0,0.0,0.0,-0.074481968019893,0.0,-0.1068873781464629,-0.0996944068790719,-0.2112334845121218,-0.18613097322219682,-0.6387225364645064,-0.006376199582356905
7474,7.0,299.88154,1750.6533,0.0,0.0,0.0,0.0,-0.07449193482947682,0.0,-0.09514117098420251,-0.14897154567984686,-0.2880421686700487,-0.16802602791787785,-0.6740384973049204,-0.021201109316886582
7475,7.0,300.02894,2167.1324,0.0,0.0,0.0,0.0,-0.07450190163906065,0.0,-0.16992231534752683,-0.18974767826163783,-0.2990841426948067,-0.15991467715734983,-0.6679103100376154,-0.01208174391962529
7476,7.0,300.52012,1728.1836,0.0,0.0,0.0,0.0,-0.07451186844864446,0.0,-0.16270283745751987,-0.14870921522895686,-0.21391259883652977,-0.14212616985926085,-0.6589326405740884,-0.052786606515882455
7477,7.0,299.61901,1177.1648,0.0,0.0,0.0,0.0,-0.07452183525822828,0.0,-0.12043097547561189,-0.1294760767332939,-0.1079216633185389,-0.14260945975945785,-0.6569485752882763,-0.06033972739881745
7478,7.0,298.58561000000003,1332.6704,0.0,0.0,0.0,0.0,-0.07453180206781211,0.0,-0.13612859052984588,-0.1340348510532099,-0.13493509336955686,-0.15790171397868585,-0.6406797303576665,-0.08858885242378901
7479,7.0,299.06467999999995,1602.674,0.0,0.0,0.0,0.0,-0.07454176887739591,0.0,-0.14389565917139585,-0.13994495650149189,-0.2033322514248308,-0.15552616938423786,-0.6416191753203824,-0.07633931935385423
7480,7.0,298.5971,1502.3332,0.0,0.0,0.0,0.0,-0.07455173568697974,0.0,-0.07782052989328833,-0.16996680715941784,-0.20888445667279082,-0.17085313755189185,-0.6415013545987543,-0.08892384810560051
7481,7.0,299.52792999999997,1297.8187,0.0,0.0,0.0,0.0,-0.07456170249656358,0.0,-0.0855705080454016,-0.11256171042897589,-0.19637224662043182,-0.15690513184283086,-0.6509922251054304,-0.020916617059809378
7482,7.0,300.8926,1324.8776,0.0,0.0,0.0,0.0,-0.07457166930614739,0.0,-0.1307163049881949,-0.1089787871478689,-0.16303463633526583,-0.16183456318182785,-0.6441642163915584,-0.022608364758021877
7483,7.0,300.33877,1616.3814,0.0,0.0,0.0,0.0,-0.07458163611573121,0.0,-0.18577068175163883,-0.13102634938629387,-0.17454256355100983,-0.17431331571588485,-0.6229968341175004,-0.017603521267082284
7484,7.0,300.29888,2086.2165,0.0,0.0,0.0,0.0,-0.07459160292531503,0.0,-0.2299782567245868,-0.14123261499357387,-0.26294686158833475,-0.13744899726515988,-0.6302343681242895,-0.02051425037884888
7485,7.0,299.87192000000005,1929.0631,0.0,0.0,0.0,0.0,-0.07460156973489886,0.0,-0.16321932143099285,-0.15065154474314987,-0.2725161373877487,-0.16705389550693583,-0.6475998435056284,-0.02130968311810198
7486,7.0,299.86622,1376.9632,0.0,0.0,0.0,0.0,-0.07461153654448267,0.0,-0.07749216694663143,-0.12470959627537888,-0.2163606617406348,-0.13704184297747685,-0.6603056957845983,-0.03682487566408226
7487,7.0,298.80839,1476.5061,0.0,0.0,0.0,0.0,-0.07462150335406649,0.0,-0.13354021275189287,-0.10923150185530989,-0.20604926130297882,-0.15101347767886988,-0.6599198197490154,-0.04098504550065906
7488,7.0,298.96513,1824.7186,0.0,0.0,0.0,0.0,-0.07463147016365032,0.0,-0.21528139839661983,-0.1317307507233129,-0.20765675218912583,-0.17589625555210883,-0.6476994358579574,-0.011882971607757989
7489,7.0,300.08983,1606.9361,0.0,0.0,0.0,0.0,-0.07464143697323412,0.0,-0.2019878711921508,-0.11948627174487687,-0.16699431640105586,-0.18240591121706184,-0.6547662473553973,-0.031160996069600867
7490,7.0,299.91765,1243.7746,0.0,0.0,0.0,0.0,-0.07465140378281795,0.0,-0.12810650710312788,-0.10195075273175591,-0.14801916151335384,-0.17073731293296085,-0.6610764244731634,-0.03396687000801907
7491,7.0,300.16635,1457.7917,0.0,0.0,0.0,0.0,-0.07466137059240179,0.0,-0.09187961719756221,-0.15046977780771084,-0.2007828939082288,-0.18825105720143281,-0.6314767951319075,-0.05900595994768485
7492,7.0,300.79331,1945.0326,0.0,0.0,0.0,0.0,-0.0746713374019856,0.0,-0.11794052831982389,-0.18146803679200083,-0.29183277782415273,-0.16643538738089386,-0.6360067424864784,-0.04698718445552405
7493,7.0,300.50757999999996,2097.6191,0.0,0.0,0.0,0.0,-0.07468130421156942,0.0,-0.17041810875395783,-0.2035887860851488,-0.2636169238794647,-0.17819886640435884,-0.6394215777084964,-0.038248308656314164
7494,7.0,300.63147999999995,1873.1892,0.0,0.0,0.0,0.0,-0.07469127102115324,0.0,-0.18260847004455283,-0.16912735984907082,-0.21766691337205177,-0.16101699194113986,-0.6548322504669114,-0.02879256854385527
7495,7.0,300.44841,1300.9878,0.0,0.0,0.0,0.0,-0.07470123783073707,0.0,-0.15845407713819984,-0.10315127171523791,-0.13386244654869486,-0.13347683395813786,-0.6396230016958754,-0.04054603969608256
7496,7.0,299.74751000000003,1189.2686,0.0,0.0,0.0,0.0,-0.07471120464032088,0.0,-0.10707745373272191,-0.12581928751989688,-0.12861120697793788,-0.17305146470384983,-0.6545753814340604,-0.07317326641563912
7497,7.0,300.15796,1746.0284,0.0,0.0,0.0,0.0,-0.0747211714499047,0.0,-0.13898156843891288,-0.15769711851849386,-0.23407034831344478,-0.16754146132255485,-0.6720853665446613,-0.059242858834314946
7498,7.0,298.82602,1842.3777,0.0,0.0,0.0,0.0,-0.07473113825948853,0.0,-0.13848173216458287,-0.16442596044507884,-0.25712913415166977,-0.15441715701728684,-0.6631472847625414,-0.06959938740492473
7499,7.0,299.07689,1297.7071,0.0,0.0,0.0,0.0,-0.07474110506907233,0.0,-0.0951870215644776,-0.1256425159074509,-0.17364102427453484,-0.13354825795768688,-0.6484275472473164,-0.04859837471778616
7500,7.0,299.92609,1369.2141,0.0,0.0,0.0,0.0,-0.07475107187865616,0.0,-0.12113433316502788,-0.1157171738903959,-0.17935537993599782,-0.14054411155062388,-0.6593378595540803,-0.019436779474260785
7501,7.0,298.82838,1837.5794,0.0,0.0,0.0,0.0,-0.07476103868824,0.0,-0.21216232074629082,-0.13480008792623288,-0.2116158547023588,-0.18557866072518783,-0.6593382141916154,-0.01949887245363888
7502,7.0,299.51357,1995.4023,0.0,0.0,0.0,0.0,-0.07477100549782381,0.0,-0.2109256692642428,-0.14891881614464286,-0.24670799872818377,-0.15129510041166386,-0.6511109070896434,-0.025236995922697576
7503,7.0,300.16331,1827.0326,0.0,0.0,0.0,0.0,-0.07478097230740763,0.0,-0.12909840802352088,-0.17461782776843784,-0.25165604347151777,-0.17071583203084084,-0.6283692077377124,-0.06034986699256814
7504,7.0,299.71857,1493.2011,0.0,0.0,0.0,0.0,-0.07479093911699145,0.0,-0.11020824455420689,-0.14246332883003587,-0.20122426565178883,-0.15684914977480585,-0.6384081857534823,-0.040081726957008464
7505,7.0,300.38195,1363.5569,0.0,0.0,0.0,0.0,-0.07480090592657528,0.0,-0.11265765508094489,-0.1087505424303429,-0.1930790419404178,-0.1935458665264898,-0.6609651392146804,-0.03240490444886507
7506,7.0,299.96312,1606.743,0.0,0.0,0.0,0.0,-0.07481087273615909,0.0,-0.18717397234513283,-0.12159583818807487,-0.17963994109408182,-0.18574643467674584,-0.6311676525263974,-0.02703846036823827
7507,7.0,299.9064,1924.7999,0.0,0.0,0.0,0.0,-0.07482083954574291,0.0,-0.1953572132002558,-0.17442210837912184,-0.21531177563461779,-0.14635697538680886,-0.6482644342462184,-0.023696781803440276
7508,7.0,301.07887,1536.4288,0.0,0.0,0.0,0.0,-0.07483080635532674,0.0,-0.14059663843580786,-0.12088143607256889,-0.2055578957994848,-0.14051766572301388,-0.6512878408221054,-0.03882804476727966
7509,7.0,300.58946000000003,1336.5035,0.0,0.0,0.0,0.0,-0.07484077316491054,0.0,-0.04532569949804825,-0.17002407605506983,-0.19091391899423682,-0.14405897482251387,-0.6839306756462024,-0.0892230365421281
7510,7.0,299.93572,1826.7317,0.0,0.0,0.0,0.0,-0.07485073997449437,0.0,-0.15503840091859886,-0.18094956684833183,-0.21929286567502082,-0.15504970878971486,-0.6595423334242604,-0.051407419115767246
7511,7.0,299.20422,1932.7102,0.0,0.0,0.0,0.0,-0.07486070678407819,0.0,-0.15978560935961184,-0.17580670450827082,-0.25190332715842273,-0.1646063290953798,-0.6120877883733614,-0.03958292521103056
7512,7.0,299.37883,1570.8842,0.0,0.0,0.0,0.0,-0.07487067359366202,0.0,-0.13169642180992489,-0.18449678319591484,-0.16131638708068785,-0.16624657835725987,-0.6253711121493234,-0.025548136657404772
7513,7.0,299.21156,1305.2553,0.0,0.0,0.0,0.0,-0.07488064040324584,0.0,-0.12168136662901588,-0.08381151701755271,-0.19127212316958883,-0.17056261848321985,-0.6518843918184803,-0.0006376299590141773
7514,7.0,299.06431000000003,1610.9259,0.0,0.0,0.0,0.0,-0.07489060721282965,0.0,-0.12022246887003389,-0.15401933476302485,-0.2154394350147168,-0.1938214604211888,-0.6548998646460844,-0.04472050851807056
7515,7.0,299.79142,1839.3538,0.0,0.0,0.0,0.0,-0.07490057402241349,0.0,-0.15327326858189386,-0.16182714619109584,-0.24401721176262378,-0.14584927629170286,-0.6426030512999834,-0.07182595079741944
7516,7.0,300.27139,1839.3686,0.0,0.0,0.0,0.0,-0.0749105408319973,0.0,-0.19026082864228183,-0.12978572596385388,-0.2390755910249238,-0.15868276768576986,-0.6198343488328875,-0.06641058801521474
7517,7.0,300.26547,1725.8412,0.0,0.0,0.0,0.0,-0.07492050764158112,0.0,-0.17069765432404685,-0.15209970205107184,-0.2018152741701168,-0.16085511510516384,-0.6495776469058224,-0.02618824828882887
7518,7.0,299.87034,1284.6647,0.0,0.0,0.0,0.0,-0.07493047445116494,0.0,-0.14495095915054584,-0.08523300760934292,-0.16032201383005085,-0.13767295593476286,-0.6602323770073624,-0.011554391825579689
7519,7.0,299.90932999999995,1477.1812,0.0,0.0,0.0,0.0,-0.07494044126074875,0.0,-0.14234287365814788,-0.12587846132573688,-0.1808048544690498,-0.16357548897364385,-0.6453270526038214,-0.006821733352027665
7520,7.0,300.63248,1943.9395,0.0,0.0,0.0,0.0,-0.07495040807033258,0.0,-0.15860597346069083,-0.15489126687157784,-0.27741181736591475,-0.13451316589541587,-0.6623693012032604,-0.029823584971108673
7521,7.0,299.48585,1696.6066,0.0,0.0,0.0,0.0,-0.0749603748799164,0.0,-0.12731118683463588,-0.14866166340176387,-0.23975317163179577,-0.16035466074827284,-0.7134705029665563,-0.05576762073408564
7522,7.0,299.32521,1440.8509,0.0,0.0,0.0,0.0,-0.07497034168950022,0.0,-0.12965085224304287,-0.14510456786570586,-0.16322726531177684,-0.16476592611863083,-0.6597466654394263,-0.06049613673725384
7523,7.0,299.25345,1721.7086,0.0,0.0,0.0,0.0,-0.07498030849908405,0.0,-0.19919678259919182,-0.13027708133484686,-0.19388255940221882,-0.16737772010639484,-0.6352210379614355,-0.055124155244830546
7524,7.0,299.11433,1766.5465,0.0,0.0,0.0,0.0,-0.07499027530866785,0.0,-0.20228931309690082,-0.1207845085680029,-0.2139122036689908,-0.18729732541230684,-0.5856825414298665,0.003017552320784227
7525,7.0,299.55537000000004,1543.7575,0.0,0.0,0.0,0.0,-0.07500024211825168,0.0,-0.11198195911925889,-0.16536398685765483,-0.19191778639831084,-0.18881696751478383,-0.6421976195374703,-0.051517376003369156
7526,7.0,299.90857,1704.4292,0.0,0.0,0.0,0.0,-0.07501020892783551,0.0,-0.10662665876323191,-0.15584494799819884,-0.25563232057394575,-0.15314811192954184,-0.6477864335115434,-0.024517636987702377
7527,7.0,298.80048999999997,1640.743,0.0,0.0,0.0,0.0,-0.07502017573741931,0.0,-0.1159189930453139,-0.16151010023480586,-0.22131581949967077,-0.14867304220038685,-0.6568940826978984,-0.08927937426093822
7528,7.0,300.89448,1617.983,0.0,0.0,0.0,0.0,-0.07503014254700315,0.0,-0.1313556455362929,-0.15658861277659286,-0.2038821625191028,-0.14951728218370686,-0.6508077730572264,-0.06626835303242724
7529,7.0,300.71701,1603.0536,0.0,0.0,0.0,0.0,-0.07504010935658696,0.0,-0.16931016029961182,-0.12253633693089488,-0.19544177905360183,-0.15905257357476685,-0.6961821865803324,-0.048787966983747454
7530,7.0,299.64912000000004,1704.4417,0.0,0.0,0.0,0.0,-0.07505007616617079,0.0,-0.17321840779032582,-0.14159936086726885,-0.2032899381006548,-0.17632682604960284,-0.6688746708202903,-0.016076889765415485
7531,7.0,300.50378,1526.9836,0.0,0.0,0.0,0.0,-0.07506004297575461,0.0,-0.12948660440183288,-0.12777749466315688,-0.2069007865545178,-0.12451607563877988,-0.6536335046711044,-0.01971096393807068
7532,7.0,299.4031,1537.5003,0.0,0.0,0.0,0.0,-0.07507000978533843,0.0,-0.1159584895342119,-0.1279392397766199,-0.2234639806391778,-0.15450787329873986,-0.6409362548854833,-0.019295390555306782
7533,7.0,299.62818,1924.8789,0.0,0.0,0.0,0.0,-0.07507997659492226,0.0,-0.15719799151923383,-0.16759563980540182,-0.2603214799167297,-0.15647191676257585,-0.7019628797258424,-0.019031574679770184
7534,7.0,299.82139,2008.9520000000002,0.0,0.0,0.0,0.0,-0.07508994340450606,0.0,-0.18651923039551482,-0.16169151253270983,-0.26246050154033473,-0.17076276577547284,-0.6722399277149154,-0.050049923373792854
7535,7.0,299.77417,1716.9091,0.0,0.0,0.0,0.0,-0.07509991021408989,0.0,-0.1958060323320508,-0.14834137504515385,-0.17775008780256785,-0.16036422582921686,-0.6268567495784444,-0.047830558110008546
7536,7.0,300.3044,1541.9796,0.0,0.0,0.0,0.0,-0.07510987702367372,0.0,-0.18637344397112682,-0.1023488282985429,-0.18000103303221882,-0.15667676553529283,-0.6190085601338884,-0.03651709284020646
7537,7.0,300.60232,1521.08,0.0,0.0,0.0,0.0,-0.07511984383325754,0.0,-0.12762544635315087,-0.12168509538938388,-0.2130597968898648,-0.2004304145959418,-0.6586308946943084,-0.02185293513271678
7538,7.0,299.75104,1533.5447,0.0,0.0,0.0,0.0,-0.07512981064284135,0.0,-0.1025196622654029,-0.14319193671194388,-0.22044769721149376,-0.16673118548258686,-0.6543281990721653,-0.051295022321924545
7539,7.0,301.21765,1781.8338,0.0,0.0,0.0,0.0,-0.07513977745242517,0.0,-0.14221302565783286,-0.14134349495201687,-0.2580764520676627,-0.14519215320434986,-0.6581321628625874,-0.05052435645486575
7540,7.0,301.09505,1613.2316,0.0,0.0,0.0,0.0,-0.075149744262009,0.0,-0.16638498832091986,-0.13296958069307588,-0.19102756512545283,-0.16352680230633884,-0.6366164252041494,-0.053290374200600454
7541,7.0,299.7627,1280.2129,0.0,0.0,0.0,0.0,-0.07515971107159282,0.0,-0.13487693281381685,-0.1013058747718614,-0.15296994203195785,-0.16706142395517884,-0.7180596241269673,-0.04542061063491525
7542,7.0,300.10668,1650.8541,0.0,0.0,0.0,0.0,-0.07516967788117664,0.0,-0.16056545729907684,-0.14356088133835587,-0.1976920960681908,-0.16138940188289383,-0.6634218350096374,-0.033316564067338864
7543,7.0,300.04542999999995,1909.4396,0.0,0.0,0.0,0.0,-0.07517964469076047,0.0,-0.15660454106816485,-0.17178835726169084,-0.25202907149583276,-0.18138031973084381,-0.6128049971916444,-0.010674432749734489
7544,7.0,299.61764,1590.5120000000002,0.0,0.0,0.0,0.0,-0.07518961150034427,0.0,-0.11944719068851987,-0.14444493191810487,-0.21958380017623377,-0.16369304625024583,-0.6113021142458214,-0.03755057247845296
7545,7.0,299.02802,1638.388,0.0,0.0,0.0,0.0,-0.0751995783099281,0.0,-0.12454248093638588,-0.14623771585003886,-0.2272488345327138,-0.2075828862568358,-0.6613265655253504,-0.021435001890469978
7546,7.0,299.12845,1725.7505,0.0,0.0,0.0,0.0,-0.07520954511951193,0.0,-0.16320406188448683,-0.15991477848235985,-0.20146621964316783,-0.17098743372014583,-0.6575426336894054,-0.08320642432283472
7547,7.0,299.53161,1668.9208,0.0,0.0,0.0,0.0,-0.07521951192909575,0.0,-0.17308222697688583,-0.12344484736805789,-0.2107831759026798,-0.14534872060980186,-0.6602276552618963,-0.04641501428305525
7548,7.0,301.02497,1635.3709,0.0,0.0,0.0,0.0,-0.07522947873867956,0.0,-0.17606278320604382,-0.13368357750854187,-0.18736554754153983,-0.14265274580372986,-0.6482484856896444,-0.07522662483603983
7549,7.0,300.15757,1487.0512,0.0,0.0,0.0,0.0,-0.07523944554826338,0.0,-0.14206958997367686,-0.10051620539917709,-0.2094406397851818,-0.14232318620870488,-0.6753429352186583,0.014110059863804486
7550,7.0,300.49279,1245.1665,0.0,0.0,0.0,0.0,-0.07524941235784721,0.0,-0.11172379312627989,-0.10931622982867188,-0.15745950123754285,-0.14607374158635586,-0.6518404674266454,-0.042832802303518464
7551,7.0,301.38837,1668.9419,0.0,0.0,0.0,0.0,-0.07525937916743103,0.0,-0.14215750968485386,-0.17034139558888683,-0.1948177487145148,-0.13969533220685587,-0.6239985027688574,-0.019941983947620583
7552,7.0,301.60225,2185.7769,0.0,0.0,0.0,0.0,-0.07526934597701485,0.0,-0.23115193471291978,-0.18569836609200183,-0.24757128781338378,-0.15481949836699485,-0.6363120955366144,-0.03965872543776146
7553,7.0,301.00246,1953.5494,0.0,0.0,0.0,0.0,-0.07527931278659868,0.0,-0.17932209467021284,-0.1943744315307628,-0.22013370113800476,-0.1856291813751738,-0.6642326073421544,-0.01127001913201429
7554,7.0,299.58248,1342.6022,0.0,0.0,0.0,0.0,-0.07528927959618248,0.0,-0.09598897456812422,-0.13680842055193987,-0.17532015194275183,-0.16500824488004584,-0.6575325113209064,-0.05633602060293235
7555,7.0,299.15045,1603.4476,0.0,0.0,0.0,0.0,-0.07529924640576631,0.0,-0.11490920826065588,-0.1206317104529229,-0.25186711359984876,-0.16856505670607586,-0.6426008120172624,-0.02070443134311828
7556,7.0,300.88703,1989.1101,0.0,0.0,0.0,0.0,-0.07530921321535014,0.0,-0.17635443711482784,-0.1952791524125518,-0.23300621279342276,-0.17686421337263883,-0.6522378235858614,-0.042967298082042166
7557,7.0,300.38219,1501.2797,0.0,0.0,0.0,0.0,-0.07531918002493396,0.0,-0.12712830532408687,-0.12564107709230887,-0.2035821695619958,-0.1833159921918798,-0.6751065845003323,-0.06663571901518345
7558,7.0,299.54748,1337.3372,0.0,0.0,0.0,0.0,-0.07532914683451777,0.0,-0.13667452968372587,-0.12822841122265888,-0.14161418471623186,-0.17662346514887883,-0.6590954192026534,-0.08495986071363543
7559,7.0,298.93135,1453.0699,0.0,0.0,0.0,0.0,-0.07533911364410159,0.0,-0.13410539352517187,-0.13418660552068687,-0.17340495726623684,-0.14707346479752084,-0.6533428336149174,-0.07692863067826473
7560,7.0,298.90387000000004,1531.0532,0.0,0.0,0.0,0.0,-0.07534908045368542,0.0,-0.14104925725547787,-0.13475554545183688,-0.18959712956177982,-0.15085197574543086,-0.6502163592388585,-0.025464663087666577
7561,7.0,299.88083,1872.3011,0.0,0.0,0.0,0.0,-0.07535904726326924,0.0,-0.15984610039058184,-0.16554348411286984,-0.24374320867058177,-0.14752425976701086,-0.6764963988674964,-0.02056517126262438
7562,7.0,300.25617,1965.9351,0.0,0.0,0.0,0.0,-0.07536901407285305,0.0,-0.17326976943789485,-0.15732812322957684,-0.2669972782005797,-0.15966934904313784,-0.6474877881770693,-0.01017822391076249
7563,7.0,299.88684,1520.9828,0.0,0.0,0.0,0.0,-0.07537898088243689,0.0,-0.12220063704026388,-0.14555205963986986,-0.1945880854468488,-0.14935215281490985,-0.6235426212838654,-0.04616603441548286
7564,7.0,300.99535,1620.9977,0.0,0.0,0.0,0.0,-0.07538894769202069,0.0,-0.14996003194740284,-0.15115011445485485,-0.19163267808517281,-0.17231898620655983,-0.6570795277312004,-0.05894190024986264
7565,7.0,300.84765,2036.531,0.0,0.0,0.0,0.0,-0.07539891450160452,0.0,-0.2047501024222618,-0.14047736876653688,-0.27382711076463173,-0.17653044878969884,-0.6749546679128394,-0.020724965869644882
7566,7.0,300.78095,1804.9305,0.0,0.0,0.0,0.0,-0.07540888131118835,0.0,-0.17144861450316085,-0.14609726925367786,-0.2311079292610768,-0.17737087895264284,-0.6794442980459314,-0.013680561384916285
7567,7.0,301.22029,1378.0083,0.0,0.0,0.0,0.0,-0.07541884812077217,0.0,-0.12709722894351985,-0.1012406731411765,-0.19054219806255082,-0.14641845940287687,-0.6519484393573014,-0.01813116821690698
7568,7.0,299.68927,1664.8286,0.0,0.0,0.0,0.0,-0.07542881493035598,0.0,-0.17287721608415282,-0.1138620649448109,-0.21932705273339478,-0.18356673106162583,-0.6525864120177644,-0.003073086126964987
7569,7.0,299.13011,1961.5274,0.0,0.0,0.0,0.0,-0.0754387817399398,0.0,-0.19505322803775482,-0.16970537850111683,-0.23149674372194978,-0.1840928003810448,-0.6560070227653523,-0.052149608602015646
7570,7.0,299.64268,1944.7627,0.0,0.0,0.0,0.0,-0.07544874854952363,0.0,-0.18291145208945483,-0.16672476147695284,-0.24152308650897278,-0.18070462376915783,-0.6515292881884344,-0.05633944032201985
7571,7.0,300.26364,1743.7405,0.0,0.0,0.0,0.0,-0.07545871535910745,0.0,-0.15073288846117786,-0.16893310967239983,-0.21038757266613678,-0.16068147443552686,-0.6267258477980254,-0.07976697421613742
7572,7.0,299.41934,1442.2424,0.0,0.0,0.0,0.0,-0.07546868216869126,0.0,-0.11715061880686589,-0.13835077972165885,-0.18290428841124784,-0.15127807780998384,-0.6636535957050104,-0.02429852469332768
7573,7.0,298.96702999999997,1216.1119,0.0,0.0,0.0,0.0,-0.0754786489782751,0.0,-0.08165186258216142,-0.100005688455543,-0.18801008606265082,-0.16903508316246385,-0.6850980917489173,-0.04339231900873846
7574,7.0,297.69722,1593.7259,0.0,0.0,0.0,0.0,-0.0754886157878589,0.0,-0.13612641204213086,-0.15107514407995584,-0.1972513424071918,-0.17117019364068284,-0.6639682199935614,-0.03318062947367317
7575,7.0,297.99438,1824.2594,0.0,0.0,0.0,0.0,-0.07549858259744273,0.0,-0.16614859707258983,-0.16809788761496985,-0.2202828312877228,-0.16679858687923885,-0.6488575807222574,-0.07823380421157533
7576,7.0,298.96706,1447.1586,0.0,0.0,0.0,0.0,-0.07550854940702656,0.0,-0.13551611124189888,-0.12732110655311488,-0.17706286105474384,-0.15996585641990085,-0.6277180121634445,-0.06735963250937814
7577,7.0,299.17453,1275.6915,0.0,0.0,0.0,0.0,-0.07551851621661038,0.0,-0.08536780634964651,-0.14236226726506188,-0.16004828431553583,-0.17992437052965285,-0.6488556555470674,-0.0912786322187496
7578,7.0,299.66814,1709.7554,0.0,0.0,0.0,0.0,-0.0755284830261942,0.0,-0.18763643995577484,-0.13074166663819786,-0.2013448322811878,-0.15412955610890286,-0.6401275394506692,-0.018634902464371682
7579,7.0,300.18327999999997,1754.0465,0.0,0.0,0.0,0.0,-0.07553844983577801,0.0,-0.15744521441113285,-0.17338452001171983,-0.2023565929035408,-0.17780186488267785,-0.6652664264191843,-0.03543639676055006
7580,7.0,299.93385,1491.8472,0.0,0.0,0.0,0.0,-0.07554841664536184,0.0,-0.16958229901146984,-0.1094454192164219,-0.17445657914752385,-0.14891333446160185,-0.6687980285827264,-0.011237041894259689
7581,7.0,300.44441,1574.0885,0.0,0.0,0.0,0.0,-0.07555838345494566,0.0,-0.13747454130018086,-0.12862227166902987,-0.21238680630594578,-0.18851165499465183,-0.6868258047594293,-0.04464020135489486
7582,7.0,299.75011,1668.5208,0.0,0.0,0.0,0.0,-0.07556835026452947,0.0,-0.15594394253296887,-0.14190482537491586,-0.2093398923277388,-0.16895977841503185,-0.6602405539356693,-0.04399401123612086
7583,7.0,299.16211,1754.5074,0.0,0.0,0.0,0.0,-0.0755783170741133,0.0,-0.12395133056304387,-0.15762291821367083,-0.2517521806410058,-0.15468126065585186,-0.6418069508289144,-0.045631607809239055
7584,7.0,298.91737,1913.9866,0.0,0.0,0.0,0.0,-0.07558828388369711,0.0,-0.19953967656553281,-0.13139228465990888,-0.25087217292915576,-0.14026003675258789,-0.6592691814623024,0.00902072752652649
7585,7.0,299.0833,1630.4744,0.0,0.0,0.0,0.0,-0.07559825069328094,0.0,-0.1301481857896259,-0.12912444855109087,-0.23635088044601577,-0.14547517422228187,-0.6777792342891024,-0.001023556170742129
7586,7.0,298.79907000000003,1275.6158,0.0,0.0,0.0,0.0,-0.07560821750286477,0.0,-0.13980447950762787,-0.07923911448379173,-0.16871176518805484,-0.16050202784281684,-0.6675502921445844,-0.0032540186509466373
7587,7.0,300.46379,1604.6944,0.0,0.0,0.0,0.0,-0.07561818431244859,0.0,-0.13627723431951588,-0.16309574544879685,-0.1884140384800178,-0.14975573032973985,-0.6318476548010085,-0.07005016717566323
7588,7.0,298.96515,1913.6548,0.0,0.0,0.0,0.0,-0.0756281511220324,0.0,-0.19394597872597782,-0.14890759946603585,-0.23884968691512878,-0.1742837389454658,-0.6531156832074994,-0.04743477248844755
7589,7.0,300.36487999999997,1725.7395,0.0,0.0,0.0,0.0,-0.07563811793161622,0.0,-0.1182683653896789,-0.17810860608545084,-0.22820475494205575,-0.16888656096280585,-0.6485565542500483,-0.08370612076865092
7590,7.0,300.74077,1575.2184,0.0,0.0,0.0,0.0,-0.07564808474120005,0.0,-0.13039292621877988,-0.15979721107325687,-0.1886369231045148,-0.17377807648306084,-0.6566503656513454,-0.04758507091553086
7591,7.0,300.00832,1713.7149,0.0,0.0,0.0,0.0,-0.07565805155078385,0.0,-0.14654634169799785,-0.1379240393095429,-0.2364561571314058,-0.15313129197788186,-0.6433371408649324,-0.04403312775623136
7592,7.0,300.64575,1745.8787,0.0,0.0,0.0,0.0,-0.07566801836036768,0.0,-0.17069919446419884,-0.15038626573446884,-0.2096180801426938,-0.17425192289232583,-0.6729762059000803,-0.02845881611991647
7593,7.0,300.41962,1820.4997,0.0,0.0,0.0,0.0,-0.07567798516995151,0.0,-0.14925383715770685,-0.16746274192228583,-0.23666988197499875,-0.14510945173118786,-0.6930172390979763,-0.07434045352383152
7594,7.0,299.52595,1902.6129999999998,0.0,0.0,0.0,0.0,-0.07568795197953532,0.0,-0.15863925872647586,-0.17618403884551082,-0.24352354618140276,-0.13517052203029187,-0.6599760449970644,-0.05450150292587954
7595,7.0,299.95485,1455.118,0.0,0.0,0.0,0.0,-0.07569791878911915,0.0,-0.08548006939447601,-0.14871648023217385,-0.2081229789576388,-0.13823672829040284,-0.6481407974690164,-0.07318733134027723
7596,7.0,298.69593,1469.0432,0.0,0.0,0.0,0.0,-0.07570788559870296,0.0,-0.12826976195923986,-0.1060087180572459,-0.2122739606423088,-0.14893637576887586,-0.6533909731271684,-0.003099230613995247
7597,7.0,298.85881,1931.4449,0.0,0.0,0.0,0.0,-0.0757178524082868,0.0,-0.2006771713927948,-0.14529565670206487,-0.2411382034584878,-0.17708295380422684,-0.6585872236149983,-0.015935467409208183
7598,7.0,299.77713,1825.7694,0.0,0.0,0.0,0.0,-0.0757278192178706,0.0,-0.18437384556128183,-0.14225271466424985,-0.2283617479125498,-0.1866502233684428,-0.6561988208767814,0.01015298081102119
7599,7.0,300.35706,1430.7188,0.0,0.0,0.0,0.0,-0.07573778602745443,0.0,-0.12841921634898987,-0.11487481855226189,-0.19160876538281282,-0.16646389010620682,-0.6461508350676224,-0.07449433581651853
7600,7.0,300.75976,1757.621,0.0,0.0,0.0,0.0,-0.07574775283703826,0.0,-0.1832648635918338,-0.13864137985033886,-0.21236664262895577,-0.1973856284429448,-0.6678594854125994,-0.030795759938554868
7601,7.0,300.23349,2049.0352,0.0,0.0,0.0,0.0,-0.07575771964662206,0.0,-0.17741277684427784,-0.17129737679323484,-0.2741453928860438,-0.18017511953189982,-0.6712053892303144,-0.07689641743108552
7602,7.0,300.23349,1870.7661,0.0,0.0,0.0,0.0,-0.07576768645620588,0.0,-0.18490782836398184,-0.14901665557429886,-0.23474168729970077,-0.18394635534409184,-0.6511202897855694,-0.024211284872967778
7603,7.0,300.80048999999997,1569.8756,0.0,0.0,0.0,0.0,-0.07577765326578971,0.0,-0.13911330108441386,-0.15044179183994885,-0.18764790994690683,-0.13765265040275887,-0.6196374236759524,-0.06501725767020373
7604,7.0,300.50484,1370.5371,0.0,0.0,0.0,0.0,-0.07578762007537353,0.0,-0.14622749215652983,-0.08505416187394223,-0.18532738483288883,-0.15047994070621384,-0.6688519233555454,-0.005944777549478864
7605,7.0,301.12323,1437.0617,0.0,0.0,0.0,0.0,-0.07579758688495734,0.0,-0.1122483527030499,-0.15169480731111187,-0.17288771335518885,-0.15297739955269385,-0.6770150005336784,-0.07189280706551764
7606,7.0,301.05082000000004,1863.6363,0.0,0.0,0.0,0.0,-0.07580755369454117,0.0,-0.14319602010984686,-0.18966714514368982,-0.23363573494805176,-0.14632708450885887,-0.6674250037697194,-0.04587959874471386
7607,7.0,300.70977999999997,1868.5707,0.0,0.0,0.0,0.0,-0.07581752050412498,0.0,-0.13476808948807487,-0.17609839894705884,-0.25713233602198576,-0.15074844185021286,-0.6391607266027525,-0.05481424459574474
7608,7.0,300.83752000000004,1513.455,0.0,0.0,0.0,0.0,-0.07582748731370881,0.0,-0.14058701255985787,-0.13190204065271788,-0.18756345555107182,-0.15375213057915385,-0.6488598807999844,-0.009435029483064912
7609,7.0,301.02952999999997,1687.8598,0.0,0.0,0.0,0.0,-0.07583745412329262,0.0,-0.15628263151139485,-0.13532701850823686,-0.2214575934536628,-0.2069056906850018,-0.6630278732382564,-0.03110300877962797
7610,7.0,300.6314,2167.7691,0.0,0.0,0.0,0.0,-0.07584742093287646,0.0,-0.2219637625411178,-0.19033921367001783,-0.24664471112693775,-0.16726538106780783,-0.6409428106136303,-0.026022938561514077
7611,7.0,299.7083,1952.349,0.0,0.0,0.0,0.0,-0.07585738774246027,0.0,-0.16107513223187783,-0.17507648555870384,-0.2573137280548878,-0.18321915587982282,-0.6396494069934814,-0.07237245027860473
7612,7.0,298.93157,1506.3626,0.0,0.0,0.0,0.0,-0.07586735455204409,0.0,-0.12097585071688688,-0.13082263545368886,-0.20609814048780278,-0.14192899138980086,-0.6554088910988214,-0.06465244710419973
7613,7.0,300.02769,1329.9296,0.0,0.0,0.0,0.0,-0.07587732136162792,0.0,-0.09481996057000151,-0.12126652177307387,-0.1881789036618118,-0.16010218922085587,-0.6699522015066344,-0.05987647046634754
7614,7.0,300.14667000000003,1471.2002,0.0,0.0,0.0,0.0,-0.07588728817121172,0.0,-0.13990760810280586,-0.1118273067564959,-0.1954732303367058,-0.14023748180536186,-0.6573213905300703,-0.01845269679163938
7615,7.0,299.84995,1480.4137,0.0,0.0,0.0,0.0,-0.07589725498079555,0.0,-0.13486462182510187,-0.11374480151073788,-0.2013993552690688,-0.14400577919226387,-0.6624472201359504,-0.026484055509772772
7616,7.0,299.80497,1778.8623,0.0,0.0,0.0,0.0,-0.07590722179037938,0.0,-0.19634087639733583,-0.12051252184365989,-0.2238763126348718,-0.15160880264262386,-0.6750731776445353,0.005248382205474995
7617,7.0,300.71682999999996,1904.6278,0.0,0.0,0.0,0.0,-0.07591718859996319,0.0,-0.15756894238084385,-0.16221336673171285,-0.2591769936637778,-0.16649148090642982,-0.6693346964981913,-0.02274949327170018
7618,7.0,301.39583999999996,1862.8016,0.0,0.0,0.0,0.0,-0.07592715540954702,0.0,-0.17417643575987582,-0.1845521573138798,-0.2075165791702918,-0.14962305536164586,-0.6688308680184674,-0.056957536055271145
7619,7.0,301.25777999999997,2165.9258,0.0,0.0,0.0,0.0,-0.07593712221913083,0.0,-0.16957777991602382,-0.21640692674020082,-0.2724026432440477,-0.15811835698256685,-0.6427733482442904,-0.05089263740246225
7620,7.0,301.23951,1935.32,0.0,0.0,0.0,0.0,-0.07594708902871466,0.0,-0.21765383231326083,-0.14905887770596588,-0.2215762450403728,-0.19394120631800682,-0.6602399459856093,-0.037359781537623364
7621,7.0,300.68498999999997,1130.0141,0.0,0.0,0.0,0.0,-0.07595705583829848,0.0,-0.09437087191367992,-0.10668949040193289,-0.14243571776481087,-0.18798888887055884,-0.6650659143568953,-0.06048266557717435
7622,7.0,300.41148,955.5449199999999,0.0,0.0,0.0,0.0,-0.0759670226478823,0.0,-0.07637545185242023,-0.08178816397236333,-0.13229818091181386,-0.17332603521594783,-0.6661752914938823,-0.059685079681458746
7623,7.0,300.16157999999996,1513.3358,0.0,0.0,0.0,0.0,-0.07597698945746613,0.0,-0.09725207187778222,-0.15244385244753686,-0.2103203637870038,-0.17869897625621584,-0.6240968285585614,-0.059154827665626936
7624,7.0,300.16634,1606.42,0.0,0.0,0.0,0.0,-0.07598695626704993,0.0,-0.12558197421397588,-0.15305942214828885,-0.2096701814628358,-0.13872544921113586,-0.6660103647751053,-0.06732372900533475
7625,7.0,300.31667000000004,1484.5521,0.0,0.0,0.0,0.0,-0.07599692307663376,0.0,-0.11663292906577388,-0.13660773623713388,-0.19802609369865382,-0.14937032038920287,-0.6680536849267653,-0.052560020488770155
7626,7.0,299.91871000000003,1670.2948,0.0,0.0,0.0,0.0,-0.0760068898862176,0.0,-0.17714821724316784,-0.13917348814035388,-0.19140621668782282,-0.15546376331057885,-0.6462097859584404,-0.036092692022571364
7627,7.0,299.21736,2037.1046,0.0,0.0,0.0,0.0,-0.0760168566958014,0.0,-0.21075626398002378,-0.17481290881019082,-0.23365975910792278,-0.13432896715973688,-0.6538555786955214,-0.022785086721212978
7628,7.0,299.66053999999997,2122.5906,0.0,0.0,0.0,0.0,-0.07602682350538523,0.0,-0.22284746861583277,-0.18936378819625083,-0.2330032845006338,-0.16885795691248284,-0.6599365586406674,-0.028843599871891674
7629,7.0,300.69287,2085.5324,0.0,0.0,0.0,0.0,-0.07603679031496904,0.0,-0.2038722022706198,-0.16843963660869785,-0.2616379451091548,-0.15659589804481183,-0.6808838933905084,-0.023436666317268876
7630,7.0,299.74653,1648.2369,0.0,0.0,0.0,0.0,-0.07604675712455287,0.0,-0.14194268039865185,-0.14557530359716386,-0.2135048669962898,-0.17022027167193282,-0.6735897288356304,-0.04421908144108355
7631,7.0,299.44145,1167.7135,0.0,0.0,0.0,0.0,-0.07605672393413669,0.0,-0.07563449143854313,-0.1020754939515669,-0.17724575269779383,-0.16300519128735985,-0.6569889938347654,-0.059026782237239846
7632,7.0,300.31383,1539.9909,0.0,0.0,0.0,0.0,-0.07606669074372051,0.0,-0.14006005158035087,-0.13021413823863487,-0.1978445800757398,-0.17334136568996084,-0.6752116889332054,-0.016507758158438884
7633,7.0,301.15387000000004,1819.0426,0.0,0.0,0.0,0.0,-0.07607665755330434,0.0,-0.17894778995077182,-0.1267510621793559,-0.24724466664364877,-0.18091649436506785,-0.6718702738134333,-0.018102737432351083
7634,7.0,300.84373,1568.3512,0.0,0.0,0.0,0.0,-0.07608662436288814,0.0,-0.14101103746170585,-0.15375120852156288,-0.1819773570872668,-0.17788738319111783,-0.6494673951624413,-0.04845361066274905
7635,7.0,300.78845,1717.2159,0.0,0.0,0.0,0.0,-0.07609659117247197,0.0,-0.13204079512141187,-0.16552758621880084,-0.22442238351126478,-0.14832456522599485,-0.6336921651505474,-0.057054458493586646
7636,7.0,299.60406,2198.749,0.0,0.0,0.0,0.0,-0.0761065579820558,0.0,-0.19508749615613682,-0.19854515132738082,-0.2747321558864528,-0.14578722485557885,-0.6204036231365705,-0.04941004681639195
7637,7.0,299.67784,2168.6229,0.0,0.0,0.0,0.0,-0.0761165247916396,0.0,-0.1932806685778168,-0.2081382283716438,-0.25778832426922677,-0.15453369091128785,-0.6556242168775724,-0.041687164998452854
7638,7.0,300.3641,1658.7186,0.0,0.0,0.0,0.0,-0.07612649160122344,0.0,-0.16732361255105482,-0.12712259059352288,-0.20976282291947881,-0.15082702952796886,-0.6596875625610934,-0.03909101457898276
7639,7.0,300.04389,1332.3633,0.0,0.0,0.0,0.0,-0.07613645841080725,0.0,-0.11830101230790088,-0.11423768688938189,-0.17246646475861482,-0.16673435695539984,-0.6566434755506654,-0.04617253542812446
7640,7.0,299.8336,1209.5736,0.0,0.0,0.0,0.0,-0.07614642522039108,0.0,-0.1079633281626509,-0.097038243682679,-0.16267862078012985,-0.16115090307435584,-0.6693283332875634,-0.039978010676772466
7641,7.0,299.4407,1499.7879,0.0,0.0,0.0,0.0,-0.0761563920299749,0.0,-0.1143313719936279,-0.14404318838595587,-0.1975235115165528,-0.16996831690206685,-0.6685150886248024,-0.07111005312476583
7642,7.0,298.92986,1757.646,0.0,0.0,0.0,0.0,-0.07616635883955872,0.0,-0.15017721197383688,-0.16004366389507982,-0.2240596298429638,-0.16799437398475384,-0.6533659762472014,-0.07309173423309252
7643,7.0,299.10894,1525.5987,0.0,0.0,0.0,0.0,-0.07617632564914255,0.0,-0.14426583996292985,-0.11171039795995788,-0.2077676828100738,-0.14373949706598388,-0.6523491899043524,-0.04622738569578776
7644,7.0,299.03076,1320.6042,0.0,0.0,0.0,0.0,-0.07618629245872635,0.0,-0.08717739402123892,-0.1273668750601319,-0.18688643223175483,-0.14481755464237983,-0.6489244957588614,-0.04570966657044286
7645,7.0,299.36495,1821.0097,0.0,0.0,0.0,0.0,-0.07619625926831018,0.0,-0.15256998181998485,-0.14754751385680584,-0.25342398251099973,-0.15389270889802784,-0.6451216972060544,-0.011022009958037688
7646,7.0,300.03297000000003,2408.0389,0.0,0.0,0.0,0.0,-0.07620622607789401,0.0,-0.2549508085566858,-0.20055265308800582,-0.2764802453564757,-0.17744111744957483,-0.6544177399835024,-0.031687655100578076
7647,7.0,299.87875,1916.59,0.0,0.0,0.0,0.0,-0.07621619288747782,0.0,-0.18685014774567382,-0.16713557359749684,-0.22860976113952677,-0.14608189824966086,-0.6529536442515074,-0.03562129565204817
7648,7.0,300.58652,1412.6163,0.0,0.0,0.0,0.0,-0.07622615969706165,0.0,-0.13781299723108387,-0.12598995936674087,-0.16559712557316383,-0.16020626013862685,-0.6600428688411594,-0.056853954537298454
7649,7.0,300.9105,1680.0008,0.0,0.0,0.0,0.0,-0.07623612650664546,0.0,-0.16636622292906783,-0.12265451229005787,-0.2216575786258998,-0.15873639901356285,-0.6967293922968373,-0.023262589950088876
7650,7.0,300.3951,1884.557,0.0,0.0,0.0,0.0,-0.0762460933162293,0.0,-0.17100384837176583,-0.17312101419071385,-0.2287334181817308,-0.16925923434958584,-0.6816487350959923,-0.05476403602678954
7651,7.0,299.84426,1759.9915,0.0,0.0,0.0,0.0,-0.07625606012581311,0.0,-0.16449970478735684,-0.12438763605610388,-0.24610612816878377,-0.18371911374416483,-0.6585958666383515,-0.01161660538171969
7652,7.0,299.87248,1577.6219,0.0,0.0,0.0,0.0,-0.07626602693539693,0.0,-0.13162638596301288,-0.14727636813004585,-0.20065491028809782,-0.16084451650911785,-0.6435796217463634,-0.04903078831721205
7653,7.0,299.60302,1311.2916,0.0,0.0,0.0,0.0,-0.07627599374498076,0.0,-0.07954094952958052,-0.12530477938411888,-0.19375417048204782,-0.18497700294830882,-0.6615014727576124,-0.04148251178300516
7654,7.0,299.58516000000003,1581.1432,0.0,0.0,0.0,0.0,-0.07628596055456456,0.0,-0.13825282883449186,-0.13844520449847786,-0.2039300081888248,-0.17403417544583583,-0.6226928185574965,-0.08283268195719921
7655,7.0,300.80539,2269.0502,0.0,0.0,0.0,0.0,-0.07629592736414839,0.0,-0.2105912967312428,-0.2070945706361428,-0.2720487453816207,-0.17994466592915584,-0.6450242833414405,-0.047480864222246455
7656,7.0,300.04851,1835.3841,0.0,0.0,0.0,0.0,-0.07630589417373222,0.0,-0.17244664558665884,-0.13735984138886087,-0.24810446001600375,-0.16668504207303284,-0.6456135490695964,-0.03319425262126767
7657,7.0,298.61365,1250.7915,0.0,0.0,0.0,0.0,-0.07631586098331603,0.0,-0.09103824065902481,-0.12035210408782789,-0.16881901771113983,-0.17672795149919085,-0.6859134743693894,-0.009216483494171101
7658,7.0,297.95116,1421.1709,0.0,0.0,0.0,0.0,-0.07632582779289986,0.0,-0.13611791087379188,-0.12124517259346689,-0.17463738349536784,-0.14555490687265088,-0.6670817450333424,-0.05081167365322175
7659,7.0,298.52262,1911.8335,0.0,0.0,0.0,0.0,-0.07633579460248367,0.0,-0.18130982792138683,-0.14521460682656587,-0.2546252006370508,-0.13930351852568687,-0.6517940504395644,-0.02481185239273918
7660,7.0,298.92141000000004,1693.3666,0.0,0.0,0.0,0.0,-0.0763457614120675,0.0,-0.18088079756404485,-0.15214526790806887,-0.18171510769638483,-0.15107830542026787,-0.6671196912495874,-0.08159212743576601
7661,7.0,300.07894,1335.5106,0.0,0.0,0.0,0.0,-0.07635572822165132,0.0,-0.1068876922539939,-0.1018782445545999,-0.1971959480242248,-0.16514807339384585,-0.6881144967666133,-0.053365172322982456
7662,7.0,299.62127999999996,1334.1347,0.0,0.0,0.0,0.0,-0.07636569503123514,0.0,-0.11896492417092389,-0.12074788970938889,-0.16583082157622786,-0.18282716994613685,-0.6828632774608584,-0.05799913182681865
7663,7.0,300.10157999999996,1653.6946,0.0,0.0,0.0,0.0,-0.07637566184081897,0.0,-0.13906200023185086,-0.13422581829955688,-0.22939404711442976,-0.14823231893689087,-0.6465225053368034,-0.02328182346348708
7664,7.0,300.43816,2035.2646,0.0,0.0,0.0,0.0,-0.07638562865040277,0.0,-0.21328141495173678,-0.13430415266478787,-0.27108404009391174,-0.18472471380590982,-0.6503499157345395,-0.01242218886047459
7665,7.0,300.62239,2040.2804,0.0,0.0,0.0,0.0,-0.0763955954599866,0.0,-0.17635575433995782,-0.17834366997614984,-0.2654948714823037,-0.16240462782058884,-0.6697427728434654,-0.018240911308737784
7666,7.0,300.79015,1552.1939,0.0,0.0,0.0,0.0,-0.07640556226957043,0.0,-0.15316441512365087,-0.13355234135558988,-0.18511144097157683,-0.17850788741985682,-0.6550932738251725,-0.039214708098190366
7667,7.0,299.88872000000003,1683.8492,0.0,0.0,0.0,0.0,-0.07641552907915423,0.0,-0.15556872588843787,-0.15509472749165784,-0.2011846577053798,-0.14563166056772586,-0.6492203141255564,-0.04701289365031136
7668,7.0,299.12606,2158.1512,0.0,0.0,0.0,0.0,-0.07642549588873807,0.0,-0.21909716655070682,-0.1999119041222688,-0.23701502535656177,-0.15934313317344284,-0.6653778434001804,-0.027636630538273074
7669,7.0,298.81607,1783.0243,0.0,0.0,0.0,0.0,-0.07643546269832188,0.0,-0.15161870209610087,-0.15031965467289488,-0.24005652857923476,-0.17711328037971985,-0.6778062272717663,-0.028052963858611973
7670,7.0,298.73553,1093.2013,0.0,0.0,0.0,0.0,-0.07644542950790571,0.0,-0.05104220527622345,-0.13207340150962987,-0.14919029624393587,-0.16814368651948983,-0.6796088295971693,-0.06270538773853994
7671,7.0,299.72354,1214.7021,0.0,0.0,0.0,0.0,-0.07645539631748953,0.0,-0.07345274308472133,-0.13133856213960687,-0.16444780611723486,-0.14628628092733184,-0.6632238966026024,-0.07855308235783562
7672,7.0,299.72906,1799.7672,0.0,0.0,0.0,0.0,-0.07646536312707335,0.0,-0.17180473138330685,-0.13998304457275088,-0.23529652278945878,-0.18382511996962683,-0.6645004600060894,-0.04865700440832245
7673,7.0,300.57355,2137.6021,0.0,0.0,0.0,0.0,-0.07647532993665718,0.0,-0.2093865119648398,-0.1998141558851218,-0.24057698449309978,-0.15168803880044385,-0.6758029001015533,-0.06314493056566944
7674,7.0,300.89446,2019.2908,0.0,0.0,0.0,0.0,-0.07648529674624098,0.0,-0.2013870949428588,-0.18080924184198283,-0.23161765485638278,-0.17972063633204582,-0.6473399043249745,-0.05753685369394535
7675,7.0,301.82135,1669.0362,0.0,0.0,0.0,0.0,-0.07649526355582481,0.0,-0.15311415791869085,-0.14205736004496988,-0.21217381100242477,-0.1360174977888819,-0.6206151086974424,-0.03337708853556217
7676,7.0,300.12613999999996,1578.6097,0.0,0.0,0.0,0.0,-0.07650523036540864,0.0,-0.11900907147778089,-0.13916771261478386,-0.22168112655822378,-0.16528766886012286,-0.6475308411738184,-0.01923844285993648
7677,7.0,299.78392,1893.5876,0.0,0.0,0.0,0.0,-0.07651519717499246,0.0,-0.1881666230705998,-0.13865529177421188,-0.24878143267281574,-0.16939870822585085,-0.6597288626351694,-0.01102891829721949
7678,7.0,298.7329,1830.6622,0.0,0.0,0.0,0.0,-0.07652516398457627,0.0,-0.17262228235899285,-0.15775594781929986,-0.22609735685407178,-0.16498056288731383,-0.6762556709087383,-0.015399086243521485
7679,7.0,299.42562000000004,1219.6913,0.0,0.0,0.0,0.0,-0.07653513079416009,0.0,-0.09823881535516621,-0.097903559268079,-0.17461331880549283,-0.17126933003046685,-0.6498359446213144,-0.05610407448279105
7680,7.0,299.58961,1295.0029,0.0,0.0,0.0,0.0,-0.07654509760374392,0.0,-0.1140180547977059,-0.0961051558510904,-0.18352534992754183,-0.15728371247769385,-0.6570085799591984,-0.019956155263519182
7681,7.0,300.27425,1824.2212,0.0,0.0,0.0,0.0,-0.07655506441332774,0.0,-0.17711894444777884,-0.13426173801560187,-0.24313701153325476,-0.16281649372123685,-0.6841559008784304,-0.03304416697670537
7682,7.0,300.29514,2059.9714,0.0,0.0,0.0,0.0,-0.07656503122291156,0.0,-0.18569716032438283,-0.16811969275712182,-0.2723630251651378,-0.16356480931758985,-0.6554568786235574,-0.027760773940525073
7683,7.0,300.86866000000003,1858.4341,0.0,0.0,0.0,0.0,-0.07657499803249539,0.0,-0.17291006565239483,-0.1811981474953648,-0.21080933802026178,-0.13559484077466885,-0.6532954135102373,-0.06854569849343374
7684,7.0,300.67602,1668.0586,0.0,0.0,0.0,0.0,-0.07658496484207919,0.0,-0.15650935635377083,-0.15187602709149686,-0.19866279979649182,-0.15138065925010785,-0.6667972750677673,-0.027938706737585677
7685,7.0,300.82828,1693.7069,0.0,0.0,0.0,0.0,-0.07659493165166302,0.0,-0.15033798436720386,-0.14935355110004786,-0.21515308040395578,-0.18312447779047883,-0.6831346866326443,-0.054430059674578646
7686,7.0,300.24096000000003,1810.5336,0.0,0.0,0.0,0.0,-0.07660489846124685,0.0,-0.16130906128246483,-0.1728339199073798,-0.2162140343186638,-0.17092973925945185,-0.6625497103835654,-0.049183030157987154
7687,7.0,298.91131,1842.2262,0.0,0.0,0.0,0.0,-0.07661486527083067,0.0,-0.14481064427669785,-0.1803223042414258,-0.2348578057611608,-0.17522474431333582,-0.6159141044609894,-0.023086411088951375
7688,7.0,298.66579,1416.2662,0.0,0.0,0.0,0.0,-0.07662483208041448,0.0,-0.10404910249634691,-0.12286317088315088,-0.2035972872534878,-0.16519777331125085,-0.6376972793508213,-0.026275160829406476
7689,7.0,298.93517,1203.0184,0.0,0.0,0.0,0.0,-0.0766347988899983,0.0,-0.09076416967922611,-0.10972205675872389,-0.16520133995160285,-0.16828637239857183,-0.6697827556924114,-0.029120674124986767
7690,7.0,300.34722,1753.0329,0.0,0.0,0.0,0.0,-0.07664476569958213,0.0,-0.16244816717738583,-0.16390783500644385,-0.20652221605215582,-0.15759834689874586,-0.6779703332579623,-0.07617265491115573
7691,7.0,300.69746000000004,2160.4131,0.0,0.0,0.0,0.0,-0.07665473250916595,0.0,-0.2029880908958648,-0.2017082546945548,-0.25201528116197175,-0.14480422027106385,-0.6509253911288344,-0.04872555381733775
7692,7.0,300.14654,1713.5377,0.0,0.0,0.0,0.0,-0.07666469931874977,0.0,-0.17089944308146182,-0.15880776221810586,-0.19116547859656383,-0.14758668610567185,-0.6797393260775484,-0.05819253289990585
7693,7.0,300.75176,1391.9176,0.0,0.0,0.0,0.0,-0.0766746661283336,0.0,-0.10917291573452789,-0.13924732367514087,-0.17468795480785884,-0.16938313457181384,-0.6820855168165993,-0.027567283701429073
7694,7.0,299.99322,1497.6873,0.0,0.0,0.0,0.0,-0.0766846329379174,0.0,-0.14890226977050988,-0.12823632470593987,-0.17812094747166882,-0.15961518069279185,-0.6774061252047794,-0.03335308464069317
7695,7.0,299.8389,1781.1673,0.0,0.0,0.0,0.0,-0.07669459974750123,0.0,-0.17932164884016882,-0.14820414045160987,-0.2139045941607398,-0.16129311272589084,-0.6421058190784104,-0.018861288881214282
7696,7.0,299.0896,1865.1042,0.0,0.0,0.0,0.0,-0.07670456655708506,0.0,-0.17655064286419184,-0.15838902648177983,-0.23200543580215377,-0.16829373872679884,-0.6767010449901933,-0.03307444288969336
7697,7.0,298.60065,1623.5775,0.0,0.0,0.0,0.0,-0.07671453336666888,0.0,-0.14465760298159386,-0.11566609595285489,-0.2332033203353758,-0.18975682791004084,-0.6704610557068543,-0.02040493082555988
7698,7.0,299.63455,1469.9594,0.0,0.0,0.0,0.0,-0.0767245001762527,0.0,-0.13387531482496487,-0.12314835012379588,-0.18980728776502082,-0.17997841728998684,-0.6683768711786614,-0.04887103018719516
7699,7.0,300.15666,1691.6672,0.0,0.0,0.0,0.0,-0.07673446698583651,0.0,-0.13931009451883586,-0.15509867916704784,-0.21981579391912978,-0.14587808299204585,-0.6267172250396744,-0.05285360058599425
7700,7.0,300.01572999999996,1968.1334,0.0,0.0,0.0,0.0,-0.07674443379542034,0.0,-0.2055952036681668,-0.16745078557110585,-0.22521743020222978,-0.18549599978202982,-0.6682337901320403,-0.03961993721068336
7701,7.0,300.14842999999996,1742.4774,0.0,0.0,0.0,0.0,-0.07675440060500414,0.0,-0.16972862245841086,-0.16485652081007185,-0.19508446653833783,-0.15360568554220086,-0.6891131864626764,-0.06016370761794565
7702,7.0,301.13332,1314.0247,0.0,0.0,0.0,0.0,-0.07676436741458798,0.0,-0.10634570477550391,-0.13163836257919487,-0.16144660998353985,-0.18796033548274083,-0.6783914501320234,-0.060596183025627644
7703,7.0,300.83317,1518.4632,0.0,0.0,0.0,0.0,-0.07677433422417179,0.0,-0.1363183114785699,-0.15500422399272584,-0.17025236130259983,-0.15747487224155984,-0.6448640783681294,-0.040171028741321856
7704,7.0,300.44116,1901.3119,0.0,0.0,0.0,0.0,-0.07678430103375561,0.0,-0.16538213416694586,-0.15712987071501083,-0.25543933695989973,-0.18362218623959883,-0.6876269005534913,-0.027674712530031474
7705,7.0,299.07918,1911.7211,0.0,0.0,0.0,0.0,-0.07679426784333943,0.0,-0.16604904525026484,-0.16305223648950284,-0.2520141868518638,-0.15498404005073385,-0.6523076770477554,-0.02853655064108827
7706,7.0,299.93716,1697.0039,0.0,0.0,0.0,0.0,-0.07680423465292326,0.0,-0.15299576977700685,-0.14557086556172588,-0.2172801659413828,-0.14973207093990487,-0.6487540772245424,-0.03875940112600506
7707,7.0,299.82105,1507.9326,0.0,0.0,0.0,0.0,-0.07681420146250709,0.0,-0.15769252849554086,-0.11115839957047989,-0.18952293938945783,-0.1271367355649189,-0.6418429414724663,-0.03096634565914037
7708,7.0,299.57613,1554.6609,0.0,0.0,0.0,0.0,-0.07682416827209089,0.0,-0.11672183162954788,-0.15575317793664184,-0.2001030740186358,-0.18059622627345984,-0.7060451833187343,-0.06454423098026964
7709,7.0,300.71407999999997,1847.543,0.0,0.0,0.0,0.0,-0.07683413508167472,0.0,-0.18192814352990982,-0.15636177647670585,-0.22331700871217278,-0.15854056816673587,-0.6952570284440263,-0.04144556057835836
7710,7.0,301.70421,1817.9631,0.0,0.0,0.0,0.0,-0.07684410189125852,0.0,-0.15411764028772684,-0.15183833418777687,-0.24665940325338775,-0.17580662344826284,-0.6583812197371673,-0.038736329421228066
7711,7.0,300.95132,1309.0191,0.0,0.0,0.0,0.0,-0.07685406870084235,0.0,-0.10726886680911289,-0.1213640065651949,-0.16927624681876485,-0.16100870355532185,-0.6254169515838474,-0.04407645331725726
7712,7.0,300.34735,1366.0046,0.0,0.0,0.0,0.0,-0.07686403551042617,0.0,-0.12825009477479887,-0.11020573169395889,-0.17677548306138186,-0.17575473491064184,-0.6713859503981344,-0.02620874025885127
7713,7.0,299.6236,2022.7399,0.0,0.0,0.0,0.0,-0.07687400232001,0.0,-0.22268399084469878,-0.16043713930641285,-0.23174128150108378,-0.18110222310839783,-0.6603942538433384,-0.024857364547480873
7714,7.0,300.10663,2255.7697,0.0,0.0,0.0,0.0,-0.0768839691295938,0.0,-0.21079090700094283,-0.21256830979635882,-0.2623384555657897,-0.14980509587461185,-0.6462961047344594,-0.03928775431114946
7715,7.0,299.57559,1611.8355,0.0,0.0,0.0,0.0,-0.07689393593917764,0.0,-0.15379489986587486,-0.12807870352038386,-0.2080841208163038,-0.15945390167437484,-0.6537152030266674,-0.026506463535734274
7716,7.0,299.8115,1430.0361,0.0,0.0,0.0,0.0,-0.07690390274876147,0.0,-0.09350730722445272,-0.12383605309916688,-0.2173519243134648,-0.16307433547418385,-0.7008689546528803,-0.020458977585893882
7717,7.0,299.77755,1605.5179999999998,0.0,0.0,0.0,0.0,-0.07691386955834527,0.0,-0.1162854450764799,-0.13781413207119586,-0.23393780506786377,-0.16978246656872484,-0.6859667409271464,-0.03433688158678637
7718,7.0,300.74078,1834.5697,0.0,0.0,0.0,0.0,-0.0769238363679291,0.0,-0.17305818255201283,-0.13786164336838488,-0.2467435638066938,-0.14935058227725487,-0.6501409835639194,-0.04246240264996286
7719,7.0,301.21173,1984.1382,0.0,0.0,0.0,0.0,-0.07693380317751292,0.0,-0.17559306072468583,-0.2002249173431608,-0.2273105009337998,-0.17517169053809983,-0.6466988513842074,-0.052432725878707155
7720,7.0,301.36023,1529.6364,0.0,0.0,0.0,0.0,-0.07694376998709675,0.0,-0.13398540444832985,-0.13773602062098686,-0.1932498455097748,-0.18323879266676082,-0.6787979762046443,-0.07645657772167673
7721,7.0,300.65904,1363.4704,0.0,0.0,0.0,0.0,-0.07695373679668056,0.0,-0.1113142171708579,-0.13445882529255287,-0.16868791328070082,-0.2029742093694948,-0.6778084057594813,-0.06438509295931394
7722,7.0,301.80421,2064.7270000000003,0.0,0.0,0.0,0.0,-0.07696370360626438,0.0,-0.16154336523558885,-0.2074696251606578,-0.25861246137056276,-0.1242129618713649,-0.6466654749259134,-0.06704728195405153
7723,7.0,300.82181,2239.3971,0.0,0.0,0.0,0.0,-0.07697367041584821,0.0,-0.22314654964784977,-0.16192474244072783,-0.2956495085658347,-0.15517293013437586,-0.6537562497882183,-0.022626974109358478
7724,7.0,299.7253,1674.1479,0.0,0.0,0.0,0.0,-0.07698363722543201,0.0,-0.14636680391277887,-0.14536784063918884,-0.21716452370746983,-0.13966519814888187,-0.6909439267433563,-0.02919192080576827
7725,7.0,300.06262000000004,1472.4533,0.0,0.0,0.0,0.0,-0.07699360403501584,0.0,-0.13012845781017887,-0.13059908208412588,-0.1868614860142928,-0.17700320088885585,-0.6851044650920464,-0.024813230412875177
7726,7.0,299.53463,1801.3087,0.0,0.0,0.0,0.0,-0.07700357084459968,0.0,-0.16126398178551585,-0.14846866965521685,-0.23782020454852676,-0.15472759658292484,-0.6584837707797884,-0.05084388487390075
7727,7.0,300.09307,1976.3695,0.0,0.0,0.0,0.0,-0.07701353765418348,0.0,-0.2075355573446648,-0.15550901506004486,-0.23772240564887476,-0.17021551952896385,-0.6624168631629543,-0.03280274696812907
7728,7.0,299.98131,1834.2478,0.0,0.0,0.0,0.0,-0.07702350446376731,0.0,-0.1393572714434919,-0.14400312447700186,-0.27420512397943875,-0.16980706828115283,-0.6646573617840744,-0.034824674370427765
7729,7.0,299.9861,1538.9681,0.0,0.0,0.0,0.0,-0.07703347127335113,0.0,-0.1279565663533299,-0.12781326239168686,-0.21203804562152578,-0.17477425331887583,-0.6646170344300943,-0.017299194639297584
7730,7.0,300.01485,1455.3584,0.0,0.0,0.0,0.0,-0.07704343808293496,0.0,-0.11640876774615089,-0.14396141910288587,-0.18202243658421582,-0.18097651930099184,-0.6436717261804534,-0.05270286646136795
7731,7.0,300.39767,1840.6825,0.0,0.0,0.0,0.0,-0.07705340489251877,0.0,-0.18043118809717185,-0.15810344194109485,-0.2209868779872068,-0.17800244787247382,-0.6487869369252853,-0.03342757878804517
7732,7.0,300.42595,2042.1063,0.0,0.0,0.0,0.0,-0.07706337170210259,0.0,-0.2027541922427808,-0.17799612519184982,-0.23999898610605575,-0.18089209530265984,-0.6833530926916993,-0.054871286523374356
7733,7.0,300.17637,1664.8442,0.0,0.0,0.0,0.0,-0.07707333851168642,0.0,-0.13779625833943185,-0.14973595168778786,-0.2185388758781078,-0.16425014128772683,-0.6687552896935084,-0.04689499997467616
7734,7.0,301.52656,1255.2052,0.0,0.0,0.0,0.0,-0.07708330532127022,0.0,-0.058948276632741936,-0.1149651396661759,-0.2076376118947368,-0.14420525773945087,-0.6423646335514535,-0.05992968534834945
7735,7.0,300.95707000000004,1707.6407,0.0,0.0,0.0,0.0,-0.07709327213085405,0.0,-0.14315721263101686,-0.15338554682547484,-0.22253738368772977,-0.14151019485846886,-0.6645284054438474,-0.033888749438559164
7736,7.0,300.92826,2117.6777,0.0,0.0,0.0,0.0,-0.07710323894043788,0.0,-0.2156661395920908,-0.15666925735205187,-0.27138573531118676,-0.18889477498996282,-0.6780335803292044,-0.02332491597698998
7737,7.0,300.28569,1873.1218,0.0,0.0,0.0,0.0,-0.07711320575002169,0.0,-0.18449393596313382,-0.17574322438950582,-0.20914510512851484,-0.17188726060395182,-0.6863949100219033,-0.03302766518557677
7738,7.0,299.72875,1518.4494,0.0,0.0,0.0,0.0,-0.07712317255960552,0.0,-0.15491688183410585,-0.13430260239213487,-0.17235119742723884,-0.18089273365022285,-0.6607078142192844,-0.06135690080320464
7739,7.0,298.96393,1587.1898,0.0,0.0,0.0,0.0,-0.07713313936918934,0.0,-0.14317787280055586,-0.13007577893747987,-0.20921239506765582,-0.15992127341550083,-0.6580830404977394,-0.058482288991252546
7740,7.0,299.73879,1718.235,0.0,0.0,0.0,0.0,-0.07714310617877317,0.0,-0.1245535557599789,-0.16259136981401887,-0.23515559996555077,-0.16645650351297786,-0.6775523067967063,-0.05192318266841915
7741,7.0,298.53337,1651.1059,0.0,0.0,0.0,0.0,-0.07715307298835698,0.0,-0.14342557192000185,-0.14857869848357586,-0.2098906950820988,-0.13758045633313387,-0.6582259188943405,-0.043287538815897454
7742,7.0,299.68375,1446.3066,0.0,0.0,0.0,0.0,-0.0771630397979408,0.0,-0.1176636273324959,-0.1278810488233769,-0.19409640583582383,-0.14654810475317184,-0.6495298518986053,-0.04145724639176166
7743,7.0,300.08471000000003,1302.4984,0.0,0.0,0.0,0.0,-0.07717300660752463,0.0,-0.1150832440978319,-0.13941177416637085,-0.14143196181824788,-0.16090719616030386,-0.6885341545605304,-0.05061586813764725
7744,7.0,299.93604,1672.7526,0.0,0.0,0.0,0.0,-0.07718297341710843,0.0,-0.16881640352588184,-0.12528203191937387,-0.2143765761898208,-0.1861258968391958,-0.7155957342563003,-0.046227414066790554
7745,7.0,300.27792,2141.5989,0.0,0.0,0.0,0.0,-0.07719294022669226,0.0,-0.1924441292952568,-0.18738487022094683,-0.27116360049176375,-0.16443453254092483,-0.6878386394268884,-0.052099315933302144
7746,7.0,299.8166,1949.3523,0.0,0.0,0.0,0.0,-0.0772029070362761,0.0,-0.14733363702569785,-0.17617274110689582,-0.26904803560797375,-0.15056417218702686,-0.6502360973508065,-0.03616456083891426
7747,7.0,299.70652,1501.1729,0.0,0.0,0.0,0.0,-0.0772128738458599,0.0,-0.13424590091653887,-0.11942153519598789,-0.20265163106765882,-0.16429590979474384,-0.6572511419006374,-0.04907582019140636
7748,7.0,300.05598,1617.8374,0.0,0.0,0.0,0.0,-0.07722284065544373,0.0,-0.14434966614370287,-0.14626864024309086,-0.20116387594582882,-0.18381813867643784,-0.6912464933557173,-0.025983121885584475
7749,7.0,299.94154,1682.0946,0.0,0.0,0.0,0.0,-0.07723280746502754,0.0,-0.17911775252254583,-0.14492607372808985,-0.18727093024720182,-0.19148426734302582,-0.6977690983569483,-0.04869837439665536
7750,7.0,299.06036,1629.2476,0.0,0.0,0.0,0.0,-0.07724277427461138,0.0,-0.16122878147704184,-0.15624986300316085,-0.17777193347472384,-0.16078088440283783,-0.6546170462781723,-0.05227940897957595
7751,7.0,299.62759,1444.9339,0.0,0.0,0.0,0.0,-0.07725274108419519,0.0,-0.11720496954222988,-0.13644983134154987,-0.1855690348492378,-0.16387583656828586,-0.6731240086921674,-0.06960632310185923
7752,7.0,299.53222999999997,1400.5618,0.0,0.0,0.0,0.0,-0.07726270789377901,0.0,-0.10996757739045489,-0.12085181877214589,-0.19491642914175383,-0.17314135012022083,-0.6677057855049303,-0.029917500083127373
7753,7.0,299.56469,1627.8225,0.0,0.0,0.0,0.0,-0.07727267470336284,0.0,-0.14598485928758387,-0.13597211431690287,-0.2128604298001888,-0.17338939374470083,-0.6583875930802964,-0.046435074608535055
7754,7.0,299.11536,2100.4424,0.0,0.0,0.0,0.0,-0.07728264151294664,0.0,-0.18360075599998382,-0.17773345023592582,-0.27714784544986276,-0.15741308425046185,-0.6346534456529184,-0.02627251320689518
7755,7.0,299.36598,2036.507,0.0,0.0,0.0,0.0,-0.07729260832253047,0.0,-0.20741476780024382,-0.17373226744603984,-0.23790024117392577,-0.17353035709861284,-0.6592000372754784,-0.037407044588537865
7756,7.0,300.21475,1540.0766,0.0,0.0,0.0,0.0,-0.0773025751321143,0.0,-0.14497685782310185,-0.09921570092232732,-0.2239522658623678,-0.16927882047401885,-0.6860609630539453,-0.04001909290207696
7757,7.0,300.89943999999997,1497.861,0.0,0.0,0.0,0.0,-0.0773125419416981,0.0,-0.11243086944356288,-0.14224080897557487,-0.2006406639916918,-0.17543595629668085,-0.6798928638652013,-0.06495568448812693
7758,7.0,300.89751,1718.711,0.0,0.0,0.0,0.0,-0.07732250875128194,0.0,-0.14566670888868485,-0.13800114764215288,-0.2387773813879928,-0.13815524271736088,-0.6581195580313434,-0.030897398042835773
7759,7.0,300.67335,1755.5009,0.0,0.0,0.0,0.0,-0.07733247556086575,0.0,-0.14615006971638886,-0.14517566762522288,-0.24230270140091476,-0.15922499834428386,-0.6703272762961514,-0.03453958024279117
7760,7.0,299.8729,1482.3357,0.0,0.0,0.0,0.0,-0.07734244237044959,0.0,-0.12784938475775187,-0.14330986889108288,-0.17943378522873582,-0.15781614500774085,-0.6643687982880954,-0.03509922563077386
7761,7.0,299.89442,1405.0244,0.0,0.0,0.0,0.0,-0.0773524091800334,0.0,-0.13237975767736487,-0.1165110654762469,-0.17820150085461883,-0.17326285907221284,-0.6887305325624113,-0.03567369790746986
7762,7.0,299.79446,1724.531,0.0,0.0,0.0,0.0,-0.07736237598961722,0.0,-0.13771459038137185,-0.16406081550654183,-0.2224389464405148,-0.16773221578638084,-0.6596278719977023,-0.06278381430953005
7763,7.0,299.12781,2028.8503,0.0,0.0,0.0,0.0,-0.07737234279920105,0.0,-0.16608650510646183,-0.1865025522988688,-0.2641307835351787,-0.17021023036344185,-0.6744573850287613,-0.05144651739737595
7764,7.0,299.74408,1947.7665,0.0,0.0,0.0,0.0,-0.07738230960878485,0.0,-0.18668453201682883,-0.15154104660843684,-0.25384678138022676,-0.17948579535636883,-0.6719094156647963,-0.04582484270930986
7765,7.0,299.86578,1489.7520000000002,0.0,0.0,0.0,0.0,-0.07739227641836868,0.0,-0.11676040606085487,-0.12211048817886688,-0.2139765247853388,-0.16626054094363785,-0.6636178178439793,-0.03351963255963017
7766,7.0,300.7943,1302.5506,0.0,0.0,0.0,0.0,-0.07740224322795251,0.0,-0.13090622858693887,-0.1020861229451159,-0.16295050617946286,-0.15545826136253585,-0.6660771075591924,-0.04727368902729986
7767,7.0,300.78198,1796.2258,0.0,0.0,0.0,0.0,-0.07741221003753632,0.0,-0.17625714484022584,-0.13461205910517587,-0.2351385874963718,-0.16493502742781985,-0.6812374872779053,-0.015791995248048585
7768,7.0,301.45781,2067.82,0.0,0.0,0.0,0.0,-0.07742217684712015,0.0,-0.17320691753419185,-0.17111170884491084,-0.2842470302879977,-0.18128981623191182,-0.6865347486682043,-0.03019022445354317
7769,7.0,299.9687,1623.5535,0.0,0.0,0.0,0.0,-0.07743214365670396,0.0,-0.11312589821715689,-0.14238710202501284,-0.23800671349443378,-0.15012824159650387,-0.6757950980757834,-0.03425616101756987
7770,7.0,300.59095,1555.8638,0.0,0.0,0.0,0.0,-0.0774421104662878,0.0,-0.13173515836124788,-0.15130814094045086,-0.18990044597921482,-0.17838549694027783,-0.6538542513378903,-0.04875531297277475
7771,7.0,300.12052,1775.7105,0.0,0.0,0.0,0.0,-0.07745207727587161,0.0,-0.14652958254134385,-0.16677492748940384,-0.22646713234556579,-0.16952990384879882,-0.6652918083341893,-0.039852408194376465
7772,7.0,300.62426,1935.6199,0.0,0.0,0.0,0.0,-0.07746204408545543,0.0,-0.23322279500229778,-0.14838033451149885,-0.2067769876572998,-0.17128105333412383,-0.6871547969343984,-0.028001045936738075
7773,7.0,299.96782,1909.974,0.0,0.0,0.0,0.0,-0.07747201089503926,0.0,-0.17657691643928483,-0.1767302211794148,-0.22727727646302076,-0.17071743296599884,-0.6795908849378983,-0.06381124991093004
7774,7.0,300.33747999999997,1499.9402,0.0,0.0,0.0,0.0,-0.07748197770462306,0.0,-0.13779654204945987,-0.11507777254729189,-0.20307007296145582,-0.17368216222859484,-0.6707296379108614,-0.05079020085710255
7775,7.0,299.69097,1561.7342,0.0,0.0,0.0,0.0,-0.07749194451420689,0.0,-0.1026404923398279,-0.14179693450426786,-0.23029076332042878,-0.15877130547950785,-0.6906804614523543,-0.06688093668513453
7776,7.0,299.72647,1913.7143,0.0,0.0,0.0,0.0,-0.07750191132379072,0.0,-0.18119667828271985,-0.17505893606697184,-0.22546574740423678,-0.16372380852328183,-0.6755052781496803,-0.04008287800912207
7777,7.0,299.84424,2061.044,0.0,0.0,0.0,0.0,-0.07751187813337453,0.0,-0.19939086052334581,-0.17482232190361985,-0.25229273943685476,-0.15399068005019687,-0.6580827263902084,-0.049642683973101454
7778,7.0,300.45771,1691.7126,0.0,0.0,0.0,0.0,-0.07752184494295836,0.0,-0.18764142514626683,-0.15503927231368486,-0.17155770100892684,-0.15292819612783784,-0.6720164148753563,-0.035342164501250065
7779,7.0,300.80907,1236.2158,0.0,0.0,0.0,0.0,-0.07753181175254217,0.0,-0.1026984198480449,-0.13247636094189888,-0.14060394396902887,-0.18203859792331084,-0.6830483171941203,-0.058549503949886145
7780,7.0,301.68183999999997,1457.3593,0.0,0.0,0.0,0.0,-0.077541778562126,0.0,-0.10823643959460488,-0.13559622892730588,-0.1991681684163678,-0.18090776014920582,-0.6811617569654314,-0.03626259278608926
7781,7.0,301.08533,1905.0654,0.0,0.0,0.0,0.0,-0.07755174537170982,0.0,-0.15305302854015784,-0.17993451316315381,-0.24610477041364975,-0.15659938362515585,-0.6703761250834724,-0.055638897441381646
7782,7.0,300.69147999999996,1890.5331,0.0,0.0,0.0,0.0,-0.07756171218129364,0.0,-0.14294337632991286,-0.17961187406631182,-0.25211961552476875,-0.16613553627880084,-0.6586939087180275,-0.05060881490370115
7783,7.0,300.59764,1557.3233,0.0,0.0,0.0,0.0,-0.07757167899087747,0.0,-0.13786477431119387,-0.13184337347192787,-0.2036792490540768,-0.18151612564174682,-0.6984053687572433,-0.05056214359084505
7784,7.0,299.97487,1593.7623,0.0,0.0,0.0,0.0,-0.07758164580046127,0.0,-0.15163241136995387,-0.12148042900168489,-0.2113511228487318,-0.16030519387839084,-0.6855586747143734,-0.02172377918222008
7785,7.0,299.62786,1777.1048,0.0,0.0,0.0,0.0,-0.0775916126100451,0.0,-0.17066532151335584,-0.1301539815801979,-0.23937618179958975,-0.15803355808169783,-0.6840855103939834,-0.055879867566913544
7786,7.0,300.22585,1979.8581,0.0,0.0,0.0,0.0,-0.07760157941962893,0.0,-0.18544332090933083,-0.15339036989595087,-0.26299373453796077,-0.13692188429813787,-0.6791750977593634,-0.02208227720010108
7787,7.0,299.68861,1710.1113,0.0,0.0,0.0,0.0,-0.07761154622921274,0.0,-0.16767860472358984,-0.13588982827628188,-0.21626269058846578,-0.16934566458311584,-0.6885460095867004,-0.05228635176926115
7788,7.0,299.80498,1370.2183,0.0,0.0,0.0,0.0,-0.07762151303879657,0.0,-0.1223390774014269,-0.11684479966168389,-0.17732826165343682,-0.15878687913354483,-0.6676114113906164,-0.024614508763512875
7789,7.0,299.44664,1459.3402,0.0,0.0,0.0,0.0,-0.07763147984838038,0.0,-0.14262696872118585,-0.12883424358994985,-0.17214176876406986,-0.16908481347737184,-0.6624390229426413,-0.06525092226251464
7790,7.0,298.73242999999997,1953.5755,0.0,0.0,0.0,0.0,-0.07764144665796421,0.0,-0.20829462352457878,-0.15905454941246186,-0.22648899828272376,-0.17219106338143483,-0.6655120585084264,-0.008398777693869822
7791,7.0,298.19641,2049.3252,0.0,0.0,0.0,0.0,-0.07765141346754803,0.0,-0.18215944826273783,-0.17143891769970382,-0.26934532318731375,-0.17590224386019984,-0.6737518184541273,-0.05520678275073525
7792,7.0,297.92641000000003,1610.4917,0.0,0.0,0.0,0.0,-0.07766138027713185,0.0,-0.12412373506755889,-0.13831635961576186,-0.22710916813892978,-0.16175335118631284,-0.6736204809761653,-0.008352264448029322
7793,7.0,299.16369,1587.9398,0.0,0.0,0.0,0.0,-0.07767134708671568,0.0,-0.07962499355912502,-0.16328175790215485,-0.23978729789516376,-0.16425693006339684,-0.6560948918140244,-0.04216096986446376
7794,7.0,300.50854,1894.4855,0.0,0.0,0.0,0.0,-0.07768131389629948,0.0,-0.15388960835272186,-0.15715810999529786,-0.2648285683490448,-0.14719609845712384,-0.6825362712560853,-0.034461111115296865
7795,7.0,300.42791,1879.9995,0.0,0.0,0.0,0.0,-0.07769128070588331,0.0,-0.17119105646024185,-0.17110105958635982,-0.2291807782333818,-0.1787404789803118,-0.6869687135535334,-0.043350662270627255
7796,7.0,299.96324,1588.7858,0.0,0.0,0.0,0.0,-0.07770124751546714,0.0,-0.16194510876773785,-0.11386075785218189,-0.2071453243336518,-0.16242451792005186,-0.6788004282698863,-0.035312477286570165
7797,7.0,300.19357,1334.2021,0.0,0.0,0.0,0.0,-0.07771121432505095,0.0,-0.10158188916535191,-0.11349376879846289,-0.19048846540974781,-0.15350668087492986,-0.6616169427390083,-0.04881887820454815
7798,7.0,299.54309,1509.3071,0.0,0.0,0.0,0.0,-0.07772118113463478,0.0,-0.14419293661823485,-0.14895605308581786,-0.16564269143016086,-0.16859619388164884,-0.6771960683265484,-0.07300966806774323
7799,7.0,299.03603,1984.4319,0.0,0.0,0.0,0.0,-0.07773114794421859,0.0,-0.17808750008586782,-0.17276017556510184,-0.25237005041948474,-0.1822132315780458,-0.6997692945843523,-0.043997701492985056
7800,7.0,300.27216,2097.8665,0.0,0.0,0.0,0.0,-0.0777411147538024,0.0,-0.2241935511086808,-0.1830217139653368,-0.2304837671994768,-0.1860466910788788,-0.6685037706211854,-0.05122373511113905
7801,7.0,300.32712000000004,1634.9806,0.0,0.0,0.0,0.0,-0.07775108156338624,0.0,-0.13798183509524686,-0.14690986543637485,-0.2121015662702948,-0.17214896283977982,-0.6440988820251103,-0.021605970619593278
7802,7.0,300.40731,1554.3919,0.0,0.0,0.0,0.0,-0.07776104837297006,0.0,-0.13882695660615385,-0.13300528762659988,-0.20066409033400381,-0.17601080347591383,-0.6411543974995123,-0.029668900184342473
7803,7.0,300.68363,2043.5796,0.0,0.0,0.0,0.0,-0.07777101518255389,0.0,-0.16197016644271084,-0.17297516697131984,-0.2862518266708557,-0.16592037262006584,-0.6636816120702754,-0.017249372118630483
7804,7.0,300.84949,2052.5298,0.0,0.0,0.0,0.0,-0.07778098199213769,0.0,-0.1973455847989928,-0.16244539087211185,-0.26412682172728774,-0.14099753083787286,-0.6585276647741203,-0.02891096276503987
7805,7.0,300.40099,1650.305,0.0,0.0,0.0,0.0,-0.07779094880172152,0.0,-0.1118847073746609,-0.15293549152855787,-0.23683130284842976,-0.16498410926266385,-0.6576169150542364,-0.04727337086676846
7806,7.0,300.97105,1360.4644,0.0,0.0,0.0,0.0,-0.07780091561130534,0.0,-0.13858637050240988,-0.11704091421853889,-0.15791991195048186,-0.17772796855288484,-0.6924107785156233,-0.05251793210611635
7807,7.0,299.48803,1436.7739,0.0,0.0,0.0,0.0,-0.07781088242088915,0.0,-0.13217933680758487,-0.14090766568650387,-0.16365638686162784,-0.19189907166896383,-0.7183651494296203,-0.06392925403082614
7808,7.0,299.35581,1796.4424,0.0,0.0,0.0,0.0,-0.07782084923047299,0.0,-0.18618659052018582,-0.14996346686524187,-0.20992356491534278,-0.17305654108685084,-0.6729603485360154,-0.049567748048705854
7809,7.0,300.38749,1902.9544,0.0,0.0,0.0,0.0,-0.0778308160400568,0.0,-0.17491778019554083,-0.17757984152076584,-0.22595298897982377,-0.14854443036519385,-0.6461817290631714,-0.04214865076974796
7810,7.0,300.18615,1558.5770000000002,0.0,0.0,0.0,0.0,-0.07784078284964063,0.0,-0.13316799532765786,-0.14507603474288985,-0.19552446026176182,-0.14331973794705685,-0.6668529126307583,-0.04743324856029716
7811,7.0,300.0726,1472.888,0.0,0.0,0.0,0.0,-0.07785074965922444,0.0,-0.09711131218714031,-0.14696841102715286,-0.2036414345603448,-0.16331380700281783,-0.6869402006957193,-0.06101282944024745
7812,7.0,299.93048999999996,1892.9465,0.0,0.0,0.0,0.0,-0.07786071646880827,0.0,-0.18303015433866984,-0.14861848881500286,-0.2437598259722218,-0.14932597043232587,-0.6884612410833343,-0.04444744268237106
7813,7.0,300.26885,2120.8987,0.0,0.0,0.0,0.0,-0.07787068327839208,0.0,-0.20112405521689883,-0.1777682553768608,-0.26580793536570074,-0.15960364990665385,-0.6687298672484994,-0.025898812384513772
7814,7.0,300.87807999999995,1699.8467,0.0,0.0,0.0,0.0,-0.0778806500879759,0.0,-0.13574884465736786,-0.14910707801322287,-0.2318550289573098,-0.17093293099726684,-0.6721552098740543,-0.025102681515941774
7815,7.0,300.8491,1385.1252,0.0,0.0,0.0,0.0,-0.07789061689755972,0.0,-0.1056679012536099,-0.1141168264174539,-0.2012587465526918,-0.18440133503649483,-0.6848959787514703,-0.008100389927571243
7816,7.0,300.74272,1608.6857,0.0,0.0,0.0,0.0,-0.07790058370714355,0.0,-0.12861406434321987,-0.13934456528723788,-0.2210416441551118,-0.16653092673282285,-0.6731589962181204,-0.028180188554418072
7817,7.0,301.1592,1862.5359,0.0,0.0,0.0,0.0,-0.07791055051672735,0.0,-0.17901791699019282,-0.16226857872966186,-0.22487791035872176,-0.16083980489615285,-0.6558616315085034,-0.05344760731136815
7818,7.0,300.22614,1866.4379999999999,0.0,0.0,0.0,0.0,-0.07792051732631118,0.0,-0.1910819259933178,-0.16197054134524783,-0.21429807970457376,-0.14761308127077685,-0.6909272790442134,-0.05825283242660695
7819,7.0,300.50563,1676.3243,0.0,0.0,0.0,0.0,-0.07793048413589501,0.0,-0.18821813670568383,-0.14344270597919287,-0.17789987656485085,-0.16544347632799983,-0.7152200717817253,-0.05007659211642486
7820,7.0,302.06465,1633.9497,0.0,0.0,0.0,0.0,-0.07794045094547881,0.0,-0.14182778796981285,-0.15223661240458386,-0.20261551883409482,-0.15186449630535886,-0.6859642584644013,-0.02876638717452137
7821,7.0,299.54367,1928.6686,0.0,0.0,0.0,0.0,-0.07795041775506265,0.0,-0.17273666816278183,-0.17016516099899384,-0.24336528664828375,-0.13159387076730386,-0.6500295260529193,-0.03579649571358907
7822,7.0,299.68416,2269.7331,0.0,0.0,0.0,0.0,-0.07796038456464646,0.0,-0.18559997950729182,-0.2064015480977468,-0.2979406494269527,-0.14902571403019285,-0.6347008353600955,-0.025588619038650076
7823,7.0,300.3491,1894.6336,0.0,0.0,0.0,0.0,-0.07797035137423029,0.0,-0.14643435729694587,-0.16975727717123884,-0.2597296709308228,-0.17825265985216782,-0.6670007052903444,-0.07131977056421333
7824,7.0,299.92024,1277.1063,0.0,0.0,0.0,0.0,-0.0779803181838141,0.0,-0.1182229413876959,-0.1161688301224709,-0.15381665434552186,-0.17792827796515384,-0.6826984419345904,-0.051666935771129546
7825,7.0,299.32732000000004,1535.0126,0.0,0.0,0.0,0.0,-0.07799028499339793,0.0,-0.14257683310623787,-0.14888328146363586,-0.17514538656550385,-0.17112459738618285,-0.6697907705007023,-0.07724019393826363
7826,7.0,300.50718,2015.9022,0.0,0.0,0.0,0.0,-0.07800025180298176,0.0,-0.23015273839180678,-0.16435072662515385,-0.2182804565726038,-0.15772524634126986,-0.6756535774343164,-0.029461882043161372
7827,7.0,299.64658,1763.1136,0.0,0.0,0.0,0.0,-0.07801021861256556,0.0,-0.15860915506600484,-0.16602683480807284,-0.21130650944682877,-0.1787730651035278,-0.6783632108517363,-0.04415436819694686
7828,7.0,301.27123,1468.2793,0.0,0.0,0.0,0.0,-0.07802018542214939,0.0,-0.13570192104523687,-0.13558046275574986,-0.17503786046489184,-0.16545404452654283,-0.6782342545115093,-0.04191679786861586
7829,7.0,301.32099999999997,1615.5502,0.0,0.0,0.0,0.0,-0.07803015223173321,0.0,-0.13480346204906588,-0.14364195147885686,-0.2126415171160838,-0.16477199548672983,-0.6439243598278864,-0.061628777083286734
7830,7.0,300.93032,2007.5807,0.0,0.0,0.0,0.0,-0.07804011904131702,0.0,-0.2077783928636308,-0.17162194106526682,-0.2308540797135238,-0.15201464983767787,-0.6695516333446014,-0.04834302353358495
7831,7.0,301.00916,2315.7807,0.0,0.0,0.0,0.0,-0.07805008585090085,0.0,-0.22923842203157077,-0.18474465456787784,-0.28995643115647174,-0.17326593935251683,-0.6805668879642224,-0.023859490517748376
7832,7.0,300.56579,1942.9566,0.0,0.0,0.0,0.0,-0.07806005266048467,0.0,-0.17163112111117282,-0.15240220786842684,-0.2665769516615968,-0.16371028163444684,-0.7013372281865953,-0.03622289060742096
7833,7.0,299.50102000000004,1315.5282,0.0,0.0,0.0,0.0,-0.0780700194700685,0.0,-0.0944984015977661,-0.1007926453577096,-0.2045966862246208,-0.16684796255661183,-0.6728539471430143,-0.01003446945812503
7834,7.0,299.92461000000003,1542.1702,0.0,0.0,0.0,0.0,-0.0780799862796523,0.0,-0.1171210420364469,-0.11821087357900488,-0.23344930706215275,-0.14810556134938085,-0.6689134073716133,-0.04643005800728996
7835,7.0,300.57309,2111.4698,0.0,0.0,0.0,0.0,-0.07808995308923614,0.0,-0.1968789425979388,-0.17136441341985084,-0.2735907296488027,-0.1870793955807988,-0.6811472877540033,-0.011284099255403888
7836,7.0,300.53902,1972.9742,0.0,0.0,0.0,0.0,-0.07809991989881997,0.0,-0.1876630479034008,-0.18580310575483883,-0.22626872784348478,-0.17503832655993784,-0.6752482368643123,-0.05983245690850374
7837,7.0,299.54482,1595.6214,0.0,0.0,0.0,0.0,-0.07810988670840377,0.0,-0.14470036213581386,-0.15274729045498384,-0.18758140021034284,-0.18501369273442983,-0.6680939413532384,-0.04938008805068525
7838,7.0,298.23213,1541.8582,0.0,0.0,0.0,0.0,-0.0781198535179876,0.0,-0.14283599208431486,-0.14082867270870786,-0.18502174807272484,-0.14898167818084687,-0.6799405879449114,-0.06719986120710994
7839,7.0,299.38108,2000.5728,0.0,0.0,0.0,0.0,-0.07812982032757142,0.0,-0.17286767126821082,-0.17562399525023883,-0.25963253064373576,-0.17613216044039082,-0.6904170366913563,-0.031086464431995173
7840,7.0,300.53459,2095.4045,0.0,0.0,0.0,0.0,-0.07813978713715523,0.0,-0.17125060516861884,-0.18615638553470482,-0.27954364491380973,-0.13677175103082087,-0.6921137543813093,-0.05069248605720886
7841,7.0,300.46502999999996,1622.8911,0.0,0.0,0.0,0.0,-0.07814975394673906,0.0,-0.12791843775206688,-0.14318446905870685,-0.22221545386595778,-0.14384634428902887,-0.6611574338186583,-0.07166076671311704
7842,7.0,299.99888,1301.8288,0.0,0.0,0.0,0.0,-0.07815972075632288,0.0,-0.0924993402104741,-0.11020828508421089,-0.1930158050016768,-0.16141760063317684,-0.6643465878459034,-0.04213831359222776
7843,7.0,300.73717,1661.15,0.0,0.0,0.0,0.0,-0.07816968756590671,0.0,-0.13979456992164987,-0.13696740962513085,-0.2281861314052178,-0.16598210994865883,-0.6831106320752703,-0.05614327408940974
7844,7.0,300.4739,2114.7099,0.0,0.0,0.0,0.0,-0.07817965437549051,0.0,-0.20031638342968783,-0.16320279532186185,-0.2792998265422468,-0.17170904004386284,-0.6825270709451773,-0.012178439389918387
7845,7.0,300.49514,2021.8868,0.0,0.0,0.0,0.0,-0.07818962118507435,0.0,-0.18301675917234783,-0.17560252448061986,-0.25598381703363576,-0.17220308052762082,-0.6553782402832964,-0.04921934504157116
7846,7.0,300.61764,1579.3905,0.0,0.0,0.0,0.0,-0.07819958799465818,0.0,-0.13667315166358987,-0.14210471935464386,-0.2013174036009808,-0.1879416004883918,-0.6734075464676503,-0.04355194237649205
7847,7.0,299.92598,1582.3514,0.0,0.0,0.0,0.0,-0.07820955480424198,0.0,-0.15118923604121584,-0.13684097627765288,-0.19296510196667283,-0.2149338029498148,-0.6687842382488653,-0.045651823161984156
7848,7.0,299.78334,2035.6789,0.0,0.0,0.0,0.0,-0.07821952161382581,0.0,-0.1913253289323398,-0.19202489706638182,-0.23544533883164578,-0.17471528216305582,-0.6925445477938253,-0.048177771561525855
7849,7.0,300.76307,2081.4429999999998,0.0,0.0,0.0,0.0,-0.07822948842340963,0.0,-0.22340188867304978,-0.16505454027711483,-0.24425027955062578,-0.15051308411698486,-0.6850267285443743,-0.03782847354362967
7850,7.0,300.68756,1632.4244,0.0,0.0,0.0,0.0,-0.07823945523299344,0.0,-0.15864475054201785,-0.1282135671086939,-0.20935795857702183,-0.1312974545830499,-0.6944710300764543,-0.04376746472576246
7851,7.0,299.31788,1320.6137,0.0,0.0,0.0,0.0,-0.07824942204257727,0.0,-0.11116867392649389,-0.09639105652580661,-0.1938738555838598,-0.13424388454883987,-0.6978702612469323,-0.009666362890870741
7852,7.0,299.7159,1710.3504,0.0,0.0,0.0,0.0,-0.07825938885216109,0.0,-0.15275238710298686,-0.13183736489883485,-0.23531407228119078,-0.13555149393539087,-0.6715398732208253,-0.05629812707569254
7853,7.0,299.78671,2238.4828,0.0,0.0,0.0,0.0,-0.07826935566174492,0.0,-0.20223489143402978,-0.2014692289959648,-0.27673876598698977,-0.15645118566552985,-0.6575187817820514,-0.048056048813762756
7854,7.0,299.42972000000003,2170.1649,0.0,0.0,0.0,0.0,-0.07827932247132872,0.0,-0.1953218811692688,-0.2128810089097198,-0.25147306063595876,-0.1799707773842328,-0.6565666509280834,-0.08609198328886722
7855,7.0,300.70374,1446.6205,0.0,0.0,0.0,0.0,-0.07828928928091256,0.0,-0.11801584319975689,-0.12181839857253987,-0.1999022681138178,-0.2012308619099398,-0.6722308084640154,-0.034094766488641466
7856,7.0,301.12267,1229.9489999999998,0.0,0.0,0.0,0.0,-0.07829925609049639,0.0,-0.06663366718373094,-0.14381554148598885,-0.16342457550374984,-0.1857158243912248,-0.6670514691203544,-0.054795054652100855
7857,7.0,300.47718,1811.7723,0.0,0.0,0.0,0.0,-0.07830922290008019,0.0,-0.11992424910060187,-0.17434419957893282,-0.25646510069863476,-0.14376983377397787,-0.6576977014847093,-0.03421674964168026
7858,7.0,299.81567,2114.0086,0.0,0.0,0.0,0.0,-0.07831918970966402,0.0,-0.2085715954394138,-0.17514882148334282,-0.25888540054999976,-0.14869256752981386,-0.6871940907732763,-0.025705908817225676
7859,7.0,299.50694,1649.1711,0.0,0.0,0.0,0.0,-0.07832915651924784,0.0,-0.14847302663064685,-0.15920501705231185,-0.19362878078217283,-0.15676281073378484,-0.6984407413182344,-0.047865326773939953
7860,7.0,298.86555,1331.4598,0.0,0.0,0.0,0.0,-0.07833912332883167,0.0,-0.13458249246725787,-0.11173913373279389,-0.15840890644874184,-0.16680484876485685,-0.6873479325359593,-0.04982453298179855
7861,7.0,300.07255,1820.2118,0.0,0.0,0.0,0.0,-0.07834909013841548,0.0,-0.17776564119160282,-0.15724158153853585,-0.2182917137812148,-0.14755794020033486,-0.6832165673732254,-0.06464627945084103
7862,7.0,299.90904,2153.6655,0.0,0.0,0.0,0.0,-0.0783590569479993,0.0,-0.2159335362934808,-0.17132318427328183,-0.26740380427320076,-0.16960181420839585,-0.6784448078822893,-0.021346896754524683
7863,7.0,300.31257999999997,1973.6804,0.0,0.0,0.0,0.0,-0.07836902375758313,0.0,-0.17576206070886485,-0.14594753115389988,-0.27823994667264473,-0.16844372000660085,-0.7090808502208313,-0.03138123611133687
7864,7.0,300.51626,1476.0427,0.0,0.0,0.0,0.0,-0.07837899056716693,0.0,-0.14615940174980985,-0.10370686714257091,-0.19881386525390082,-0.16811551816670983,-0.6904149291311483,-0.02170666944103148
7865,7.0,301.11573,1425.7037,0.0,0.0,0.0,0.0,-0.07838895737675076,0.0,-0.11967752270125188,-0.11385361443897689,-0.1998471979708828,-0.18010659342763682,-0.6591675018147675,-0.05426001502954654
7866,7.0,301.11813,1973.6105,0.0,0.0,0.0,0.0,-0.0783989241863346,0.0,-0.1934058049651668,-0.17829657411150182,-0.22822593186914578,-0.17274053877816384,-0.6570520585209894,-0.05604319841678304
7867,7.0,299.82145,2137.9432,0.0,0.0,0.0,0.0,-0.0784088909959184,0.0,-0.2209941328579228,-0.16471349042595584,-0.2641737250744167,-0.18017937518231986,-0.6679319733247534,-0.008206803479573442
7868,7.0,299.37776,1503.8901,0.0,0.0,0.0,0.0,-0.07841885780550223,0.0,-0.11497719734236589,-0.1159322970191269,-0.22623555403521078,-0.18469216821269782,-0.6422928954443734,-0.047293015759707256
7869,7.0,299.94902,1125.0521,0.0,0.0,0.0,0.0,-0.07842882461508605,0.0,-0.057310384190594546,-0.1103622687019079,-0.17431510916856183,-0.14440364197652983,-0.6729340242984174,-0.02931956802686607
7870,7.0,300.64689,1605.5379999999998,0.0,0.0,0.0,0.0,-0.07843879142466988,0.0,-0.12049758653718588,-0.13551110578640488,-0.23203477952504978,-0.17085681564975483,-0.6848472819516643,-0.05713619839240374
7871,7.0,300.28615,2181.8013,0.0,0.0,0.0,0.0,-0.0784487582342537,0.0,-0.2293406893641638,-0.18360007712241683,-0.25027234913495777,-0.14372042769910187,-0.7151756306323394,-0.025879065153314874
7872,7.0,300.51204,1985.8458,0.0,0.0,0.0,0.0,-0.07845872504383751,0.0,-0.19496666608171181,-0.1843775844541508,-0.2243032860945108,-0.14768401891027785,-0.6939429950518413,-0.07525857869119343
7873,7.0,300.61544,1470.9281,0.0,0.0,0.0,0.0,-0.07846869185342134,0.0,-0.14223031170453887,-0.12924303934279488,-0.17565206227800884,-0.15184787900371888,-0.6663202571856894,-0.05942008235630555
7874,7.0,300.95455,1571.4939,0.0,0.0,0.0,0.0,-0.07847865866300514,0.0,-0.0875469486242111,-0.16204999028558884,-0.2280979786465178,-0.1803204702587448,-0.6601616217528794,-0.04889281303784495
7875,7.0,301.93981,1982.7791,0.0,0.0,0.0,0.0,-0.07848862547258897,0.0,-0.16422491136023684,-0.16910117746648684,-0.2693892475791488,-0.17677534120636784,-0.6941064525579734,-0.011797606300083089
7876,7.0,301.78156,1944.7274,0.0,0.0,0.0,0.0,-0.0784985922821728,0.0,-0.17321118331711283,-0.15537469862678888,-0.26256269794542075,-0.19431351493475083,-0.6596863567934743,-0.014227804591674985
7877,7.0,300.10395,1667.9543,0.0,0.0,0.0,0.0,-0.07850855909175661,0.0,-0.16363427774444586,-0.13056654662341488,-0.21281563401326778,-0.18069922314612483,-0.6896811840712334,-0.05639993236623995
7878,7.0,300.00343,1404.7612,0.0,0.0,0.0,0.0,-0.07851852590134044,0.0,-0.14614889434627287,-0.0957297487155406,-0.18513369194377283,-0.1896134530208908,-0.6741705744554554,-0.04077486196616556
7879,7.0,299.66267999999997,1709.4422,0.0,0.0,0.0,0.0,-0.07852849271092426,0.0,-0.17267418102911483,-0.13397675129247585,-0.21297680157417379,-0.18057626524648981,-0.6909897965753834,-0.046275441108280455
7880,7.0,299.99078,2253.7159,0.0,0.0,0.0,0.0,-0.07853845952050809,0.0,-0.2091508097265778,-0.17620326019990784,-0.29971927825498973,-0.14401483764815787,-0.6531849084543314,-0.02312261755477468
7881,7.0,300.44092,2004.5439999999999,0.0,0.0,0.0,0.0,-0.0785484263300919,0.0,-0.1933085633530698,-0.15620968763669585,-0.25981307154655375,-0.15133293517039786,-0.6642762885539654,-0.03633178966191846
7882,7.0,299.31116000000003,1319.0839999999998,0.0,0.0,0.0,0.0,-0.07855839313967572,0.0,-0.11954620548829188,-0.12081278837829389,-0.16060960460593385,-0.14665683662140286,-0.6887606058253793,-0.046603888154695655
7883,7.0,300.06664,1500.2199,0.0,0.0,0.0,0.0,-0.07856835994925955,0.0,-0.15018961415506085,-0.10670775930123588,-0.19913202578530081,-0.15445306660083086,-0.7128433214196583,-0.05524477962948524
7884,7.0,301.034,2026.1809,0.0,0.0,0.0,0.0,-0.07857832675884335,0.0,-0.2120052973782938,-0.18005947729798683,-0.22384361505414477,-0.16029681430006384,-0.6988846157895413,-0.05844834511290254
7885,7.0,300.48662,1857.8143,0.0,0.0,0.0,0.0,-0.07858829356842718,0.0,-0.13966814670667288,-0.16734286430295484,-0.25771815669980175,-0.15244919227556386,-0.6583536897319504,-0.06684402601049173
7886,7.0,301.31036,1545.2771,0.0,0.0,0.0,0.0,-0.07859826037801101,0.0,-0.09816726469935472,-0.13378115349317188,-0.23777724274428677,-0.19474216025705482,-0.6626538826263463,-0.04882893775154096
7887,7.0,300.78795,1352.4408,0.0,0.0,0.0,0.0,-0.07860822718759482,0.0,-0.1044837665242449,-0.1140776035060829,-0.1925468627228958,-0.19279372084475882,-0.6490416173379203,-0.027608947532290977
7888,7.0,299.85534,1595.6458,0.0,0.0,0.0,0.0,-0.07861819399717865,0.0,-0.14177337643944288,-0.13916044761156687,-0.2041026457408628,-0.18050292620425182,-0.6497850389362904,-0.036703869284139864
7889,7.0,299.62279,2099.2926,0.0,0.0,0.0,0.0,-0.07862816080676246,0.0,-0.2164878043631828,-0.18217619728689083,-0.23946851928120277,-0.16190527790630685,-0.6863712404995673,-0.05657674856169035
7890,7.0,299.42432,2088.7836,0.0,0.0,0.0,0.0,-0.0786381276163463,0.0,-0.1941437246154938,-0.18747651869249182,-0.25331782429802274,-0.16363978982498983,-0.7041797797521333,-0.05148631279505345
7891,7.0,299.52063,1487.0098,0.0,0.0,0.0,0.0,-0.07864809442593011,0.0,-0.10524545702191791,-0.14079660334304286,-0.2059717983328338,-0.16342783816907186,-0.7011394721645784,-0.04700110144564756
7892,7.0,299.70029,1478.6062,0.0,0.0,0.0,0.0,-0.07865806123551393,0.0,-0.11377958638667088,-0.13845348275179487,-0.19722629486471982,-0.15035801632168086,-0.6788716090894114,-0.03465485264041767
7893,7.0,299.17499,1929.9255,0.0,0.0,0.0,0.0,-0.07866802804509776,0.0,-0.1921812212918098,-0.14111108577657985,-0.25335687495687675,-0.16450199473258284,-0.6587362119097023,-0.01234050469041299
7894,7.0,299.81281,2024.3773,0.0,0.0,0.0,0.0,-0.07867799485468156,0.0,-0.19453238708885182,-0.15614901422070784,-0.26467874918925877,-0.18534769036489282,-0.6758688728155643,-0.016919978696621884
7895,7.0,300.50096,1633.2235,0.0,0.0,0.0,0.0,-0.0786879616642654,0.0,-0.15321080171322884,-0.13267193847620087,-0.21057641208727382,-0.17528534680181684,-0.7142717203506304,-0.03650615784512726
7896,7.0,301.46792999999997,1584.5846,0.0,0.0,0.0,0.0,-0.07869792847384922,0.0,-0.13076195190519987,-0.13129728233053287,-0.2196149069543038,-0.17789239877911284,-0.6684472312656053,-0.029962136789782674
7897,7.0,300.79677999999996,1990.6767,0.0,0.0,0.0,0.0,-0.07870789528343303,0.0,-0.14516041821121786,-0.1932261759874388,-0.26672940527164274,-0.14953639208059286,-0.6670752703652034,-0.055704798214635545
7898,7.0,300.84062,2005.4008,0.0,0.0,0.0,0.0,-0.07871786209301686,0.0,-0.18914117714928083,-0.15723731575561486,-0.26321328556962875,-0.17062649376952382,-0.6900210484197754,-0.040232516810390265
7899,7.0,300.68509,1851.0384,0.0,0.0,0.0,0.0,-0.07872782890260067,0.0,-0.18213404608273084,-0.16950945646178084,-0.21102597089164182,-0.17512529381602085,-0.6652766095826894,-0.02108453894588198
7900,7.0,301.1059,1541.9225,0.0,0.0,0.0,0.0,-0.0787377957121845,0.0,-0.14978689790281585,-0.15344730441906987,-0.16547174600578984,-0.16898154302717983,-0.6647495776756754,-0.06279656808853874
7901,7.0,300.41308,1449.6836,0.0,0.0,0.0,0.0,-0.07874776252176832,0.0,-0.13799128871867986,-0.13469339269070288,-0.16798293439112483,-0.14360432950264387,-0.6498336445435874,-0.07207297914529923
7902,7.0,300.16733999999997,1873.5475,0.0,0.0,0.0,0.0,-0.07875772933135214,0.0,-0.14794734234626586,-0.19007156365610284,-0.2314927515165558,-0.17507925173147684,-0.6929962141584013,-0.08180491907601693
7903,7.0,299.33171,2108.2786,0.0,0.0,0.0,0.0,-0.07876769614093597,0.0,-0.17992445158966083,-0.17350939295404383,-0.2874302061396527,-0.16173099888910683,-0.7128987462001283,-0.050877749718742954
7904,7.0,300.57387,1670.5822,0.0,0.0,0.0,0.0,-0.07877766295051977,0.0,-0.13776021703337488,-0.14571299415325287,-0.22434206317583777,-0.15180849397233184,-0.6722770126685754,-0.04145187008673106
7905,7.0,299.81445,1353.1654,0.0,0.0,0.0,0.0,-0.0787876297601036,0.0,-0.1284316185302139,-0.11621428452195688,-0.16668260014029185,-0.15818149259629785,-0.6620243402067153,-0.04303614234683656
7906,7.0,299.93355,1853.0055,0.0,0.0,0.0,0.0,-0.07879759656968743,0.0,-0.17639439969877183,-0.14621586004538187,-0.24065714270851077,-0.17387905698802683,-0.6863484626373193,-0.025190570829615774
7907,7.0,299.90967,2127.0765,0.0,0.0,0.0,0.0,-0.07880756337927124,0.0,-0.2037117237197818,-0.18615918210498084,-0.2567072370750318,-0.1979020820189148,-0.7010871681944164,-0.03696910573631666
7908,7.0,300.21637000000004,2045.7409,0.0,0.0,0.0,0.0,-0.07881753018885507,0.0,-0.16153096305436485,-0.1919293171844488,-0.26839389147591475,-0.14494867933782085,-0.6709787961104513,-0.05999526694782185
7909,7.0,300.5925,1794.7637,0.0,0.0,0.0,0.0,-0.07882749699843888,0.0,-0.13846917799584385,-0.15718961194090686,-0.24990454948115873,-0.18426531634307083,-0.6761494113707514,-0.04430447005351076
7910,7.0,301.90081000000004,1538.1471,0.0,0.0,0.0,0.0,-0.07883746380802271,0.0,-0.14383019308243486,-0.12294650057137489,-0.2007816070806018,-0.18642138083335782,-0.7114916964487633,-0.017671703879561382
7911,7.0,300.91121,1730.2894,0.0,0.0,0.0,0.0,-0.07884743061760653,0.0,-0.17245351542233683,-0.13089419117575088,-0.2226170656755938,-0.2055824063194038,-0.7020066825276653,-0.021686413558282377
7912,7.0,300.24606,2070.1426,0.0,0.0,0.0,0.0,-0.07885739742719035,0.0,-0.23047846790145377,-0.16132547593408483,-0.2374677151037388,-0.15442053114011986,-0.6620399341257543,-0.03488794879942247
7913,7.0,299.93767,1888.1633,0.0,0.0,0.0,0.0,-0.07886736423677418,0.0,-0.18661998798545884,-0.17149226531746883,-0.2158422525919718,-0.16054221334178284,-0.6571199564101904,-0.04982393719073975
7914,7.0,300.45619,1551.9086,0.0,0.0,0.0,0.0,-0.07887733104635798,0.0,-0.09690245195727741,-0.13685524283906086,-0.23798378364467077,-0.15412543218099586,-0.7150251325949863,-0.059792033295764234
7915,7.0,299.54217,1735.6208,0.0,0.0,0.0,0.0,-0.07888729785594181,0.0,-0.12479704989150989,-0.15164972781416286,-0.25113859691044976,-0.15242668799084286,-0.7172837785253973,-0.05279374283633675
7916,7.0,299.92862,2080.9026,0.0,0.0,0.0,0.0,-0.07889726466552563,0.0,-0.18799678208883783,-0.15411072992204486,-0.2904349081186937,-0.13109732755579886,-0.6758069531019533,-0.03494300880985647
7917,7.0,299.73487,1911.0073,0.0,0.0,0.0,0.0,-0.07890723147510945,0.0,-0.1933299733276828,-0.15520681321771987,-0.2323617148023158,-0.15437926146354686,-0.6420384886092654,-0.03609220870227367
7918,7.0,300.82032999999996,1619.1919,0.0,0.0,0.0,0.0,-0.07891719828469326,0.0,-0.14493187965116286,-0.14480576041121584,-0.2024562764483788,-0.17693702552482485,-0.6876104453718674,-0.025973983382932574
7919,7.0,301.04835,1589.5588,0.0,0.0,0.0,0.0,-0.0789271650942771,0.0,-0.16275530354769785,-0.1087133764166749,-0.2117174938198898,-0.1898332674975848,-0.6558309502954753,-0.049230046989127356
7920,7.0,300.84319,1786.5713,0.0,0.0,0.0,0.0,-0.07893713190386092,0.0,-0.11032723051344989,-0.17808151177777684,-0.25466433235591274,-0.16747065540556685,-0.6490481325360633,-0.07122836831244264
7921,7.0,299.26691,1875.3271,0.0,0.0,0.0,0.0,-0.07894709871344473,0.0,-0.16328455447243084,-0.17702903876640583,-0.22973902837597676,-0.17225693477043583,-0.6607320612941774,-0.07205140401091993
7922,7.0,299.75437999999997,1824.5064,0.0,0.0,0.0,0.0,-0.07895706552302856,0.0,-0.15891464997115487,-0.13240694317754786,-0.26328280465898973,-0.18812874778186184,-0.7295782917937713,-0.027439131881781476
7923,7.0,300.28541,1517.945,0.0,0.0,0.0,0.0,-0.07896703233261237,0.0,-0.15925516279976085,-0.11983381652917688,-0.18232840771691283,-0.1740705308594238,-0.7169563568880833,-0.02910521294171087
7924,7.0,300.78217,1606.4777,0.0,0.0,0.0,0.0,-0.07897699914219619,0.0,-0.16588520270909485,-0.12006567854955989,-0.20237821566067482,-0.12685818297992787,-0.6807262722049523,-0.035548850296398364
7925,7.0,299.41038,1947.4042,0.0,0.0,0.0,0.0,-0.07898696595178001,0.0,-0.1964734196429168,-0.15727959868228786,-0.23820921152691876,-0.14816274918502487,-0.6513748891381964,-0.05059703587128866
7926,7.0,299.5993,1974.1616,0.0,0.0,0.0,0.0,-0.07899693276136384,0.0,-0.1390063221388559,-0.1816976899271658,-0.27939180938632474,-0.13898078823633586,-0.7025674657955103,-0.04733618224046745
7927,7.0,299.95315,1727.9619,0.0,0.0,0.0,0.0,-0.07900689957094764,0.0,-0.13147635402070587,-0.15587833458899386,-0.2379025919141578,-0.17873181569195684,-0.6829440638913313,-0.02959827158612197
7928,7.0,299.60617,1780.1978,0.0,0.0,0.0,0.0,-0.07901686638053147,0.0,-0.14942512708711186,-0.15802443883079784,-0.23368612387552476,-0.16598606162404883,-0.6660641075604093,-0.04040221897688856
7929,7.0,298.91342000000003,1859.505,0.0,0.0,0.0,0.0,-0.07902683319011529,0.0,-0.18841198158231484,-0.17028841274115783,-0.2065426837041758,-0.17125770805181983,-0.6520867277309494,-0.024465414077548375
7930,7.0,300.06301,1798.231,0.0,0.0,0.0,0.0,-0.0790367999996991,0.0,-0.17786808077671282,-0.15592551151364986,-0.2128237400140678,-0.1967767765903558,-0.6854648173576103,-0.027500934058380874
7931,7.0,300.82395,1760.6598,0.0,0.0,0.0,0.0,-0.07904676680928294,0.0,-0.16737427505605482,-0.16215456782840987,-0.2056677726403288,-0.1935873692505858,-0.6572379189868324,-0.03708871991062167
7932,7.0,300.64387,1688.8908,0.0,0.0,0.0,0.0,-0.07905673361886675,0.0,-0.1260939289595019,-0.14577647427201787,-0.24151022836520375,-0.16719382534574584,-0.6551062130289494,-0.057312715679074644
7933,7.0,300.82455,1599.1983,0.0,0.0,0.0,0.0,-0.07906670042845058,0.0,-0.14248135454931485,-0.13719333399992786,-0.2064416424042038,-0.16159601371078486,-0.6400152510745875,-0.06814500570163844
7934,7.0,300.26424,1820.4919,0.0,0.0,0.0,0.0,-0.07907666723803439,0.0,-0.16140964661989185,-0.16232010249724685,-0.22965434093261877,-0.15783886207498285,-0.7283255499001353,-0.06337051246193263
7935,7.0,299.54866,1963.9261,0.0,0.0,0.0,0.0,-0.07908663404761822,0.0,-0.2117506878931658,-0.15447426379292287,-0.23075953334669277,-0.16731008566221986,-0.7125357088217994,-0.030731042641417766
7936,7.0,300.4664,1644.7616,0.0,0.0,0.0,0.0,-0.07909660085720205,0.0,-0.1864193948631618,-0.13520674572136687,-0.17834031611831883,-0.14054990734119588,-0.6946411750332464,-0.038945286923100564
7937,7.0,300.6757,1497.4453,0.0,0.0,0.0,0.0,-0.07910656766678585,0.0,-0.1208489208768599,-0.14305475278090488,-0.19128231646559482,-0.15358790300294584,-0.6850355235552423,-0.04474391054238016
7938,7.0,299.43265,1790.9681,0.0,0.0,0.0,0.0,-0.07911653447636968,0.0,-0.13932459412776685,-0.15839228914710185,-0.24669268851917278,-0.16457999472528084,-0.7206931421968753,-0.03605404463725717
7939,7.0,298.61704,2063.0306,0.0,0.0,0.0,0.0,-0.0791265012859535,0.0,-0.15921540286583685,-0.1937167207583518,-0.27417766490172873,-0.21192819917818478,-0.7003545174446093,-0.025438167610801678
7940,7.0,298.15268,1825.8441,0.0,0.0,0.0,0.0,-0.07913646809553732,0.0,-0.17210081319502785,-0.16837703801751985,-0.21453316386027482,-0.18041949519101783,-0.6743479236204584,-0.06209768288506415
7941,7.0,298.43852000000004,1566.0043,0.0,0.0,0.0,0.0,-0.07914643490512115,0.0,-0.15915188221706783,-0.14736315300111086,-0.16951115872194883,-0.2105770200373338,-0.6732559946501934,-0.035452242978863964
7942,7.0,299.93842,1605.3207,0.0,0.0,0.0,0.0,-0.07915640171470496,0.0,-0.16389309221748885,-0.13722390375544485,-0.18686041196918682,-0.16291222559068486,-0.7080199165711254,-0.041443342573889465
7943,7.0,300.18602000000004,1812.2488,0.0,0.0,0.0,0.0,-0.0791663685242888,0.0,-0.14754509218906686,-0.16284074079612984,-0.24049254022976577,-0.18893826368425481,-0.6854103652972363,-0.042406524946698165
7944,7.0,299.94728,2080.8070000000002,0.0,0.0,0.0,0.0,-0.0791763353338726,0.0,-0.17644104973337585,-0.17976697225911883,-0.27630535838921577,-0.1280480628373599,-0.6715812746199114,-0.06369904664785644
7945,7.0,300.56411,1898.8226,0.0,0.0,0.0,0.0,-0.07918630214345643,0.0,-0.15842127823246285,-0.15570322470671186,-0.26307016399300376,-0.16129970898404183,-0.6712688997465823,-0.05058212893581745
7946,7.0,300.9362,1444.5208,0.0,0.0,0.0,0.0,-0.07919626895304026,0.0,-0.11065180491798289,-0.13167905470321087,-0.19676739389442982,-0.15406200272473586,-0.7193574455175523,-0.03721982130131036
7947,7.0,300.90222,1564.9377,0.0,0.0,0.0,0.0,-0.07920623576262406,0.0,-0.15386036595483585,-0.15604862140079984,-0.16579299694999483,-0.16713677936511584,-0.7271548103370924,-0.04087156959545986
7948,7.0,299.04259,2192.6248,0.0,0.0,0.0,0.0,-0.07921620257220789,0.0,-0.21743125166379376,-0.1934430317738408,-0.25562891605360977,-0.15692591360238184,-0.6920453194695554,-0.025900706148950677
7949,7.0,298.75279,1985.4271,0.0,0.0,0.0,0.0,-0.07922616938179171,0.0,-0.1875473752719848,-0.16872580883444083,-0.24724708831138778,-0.15943346441985784,-0.6801890368694313,-0.056693914723753736
7950,7.0,299.89205,1318.0362,0.0,0.0,0.0,0.0,-0.07923613619137553,0.0,-0.08092588408426292,-0.12233016080054687,-0.19739405868377682,-0.17465000859161384,-0.6971180446376943,-0.04075974427467356
7951,7.0,299.51755,1524.7846,0.0,0.0,0.0,0.0,-0.07924610300095936,0.0,-0.11819021340946588,-0.13786161297088187,-0.2074446181481898,-0.19512180480452282,-0.6788628546085473,-0.05055693953833145
7952,7.0,299.43239,2070.822,0.0,0.0,0.0,0.0,-0.07925606981054317,0.0,-0.2014147870680918,-0.17065824902765783,-0.25740515361141075,-0.17212974148538282,-0.6591642492819464,-0.037465566874563566
7953,7.0,300.36951,2061.0128,0.0,0.0,0.0,0.0,-0.079266036620127,0.0,-0.2299444749662528,-0.15360875569000385,-0.24294320718662776,-0.1793829200737158,-0.6659115424928523,-0.06240127895952674
7954,7.0,300.25951000000003,1770.3321,0.0,0.0,0.0,0.0,-0.0792760034297108,0.0,-0.17569640210238482,-0.12010220621566488,-0.24233815502191378,-0.17968297382582885,-0.6884406518413023,-0.039146828447491164
7955,7.0,300.7201,1638.5607,0.0,0.0,0.0,0.0,-0.07928597023929464,0.0,-0.1261213677722099,-0.14531764422923488,-0.22664253607037677,-0.16493973904078485,-0.7031154618470933,-0.05966462722819024
7956,7.0,301.58195,1831.6508,0.0,0.0,0.0,0.0,-0.07929593704887847,0.0,-0.13274947237385287,-0.17088888501541985,-0.25313775962275176,-0.15788694079222784,-0.6534776262757204,-0.04795904936843966
7957,7.0,300.53499,2190.3232,0.0,0.0,0.0,0.0,-0.07930590385846227,0.0,-0.18177242725454182,-0.1978090352622318,-0.28622207764791974,-0.16435697837827085,-0.6764134238168074,-0.04989593063684496
7958,7.0,299.89538,1984.1281,0.0,0.0,0.0,0.0,-0.0793158706680461,0.0,-0.19366656487840184,-0.15577665494145884,-0.25368217890148176,-0.18045357079188085,-0.7140171716605084,-0.02193773606008598
7959,7.0,299.51591,1245.038,0.0,0.0,0.0,0.0,-0.07932583747762992,0.0,-0.1079661956604339,-0.1013979741397009,-0.16909629360100484,-0.15766157370498585,-0.6969751966385963,-0.03523119537679826
7960,7.0,299.64383,1383.6854,0.0,0.0,0.0,0.0,-0.07933580428721373,0.0,-0.1081433928379219,-0.13254145212832288,-0.17992097614181785,-0.16581980754764086,-0.6790956690840244,-0.04646490671797925
7961,7.0,299.72792000000004,2074.9927,0.0,0.0,0.0,0.0,-0.07934577109679757,0.0,-0.1957373643727738,-0.14931926271666388,-0.2856893310103417,-0.14990859937232687,-0.6920721098021994,-0.05430964503269465
7962,7.0,299.35477000000003,2080.1364,0.0,0.0,0.0,0.0,-0.07935573790638138,0.0,-0.2062042277732728,-0.14522485078507688,-0.28088045616824275,-0.2041881133867978,-0.6794345201824663,-0.04431833942087955
7963,7.0,299.16277,1555.8615,0.0,0.0,0.0,0.0,-0.07936570471596521,0.0,-0.11229944077309188,-0.12064542985927688,-0.2399981552409738,-0.16823172782067883,-0.6762630473694664,-0.045046445743988056
7964,7.0,299.76288999999997,1537.7217,0.0,0.0,0.0,0.0,-0.07937567152554902,0.0,-0.13550924140622087,-0.12852219295665288,-0.2033975553937758,-0.18582455625945582,-0.6656795183524533,-0.05391022893602535
7965,7.0,299.35485,1776.9455,0.0,0.0,0.0,0.0,-0.07938563833513285,0.0,-0.16034635209745285,-0.14724922315986685,-0.23255146614854277,-0.15829255493975883,-0.6742789212886483,-0.05093213895761075
7966,7.0,299.88567,1959.1487,0.0,0.0,0.0,0.0,-0.07939560514471668,0.0,-0.2078140390021488,-0.14722140944462186,-0.24049683641018973,-0.17051121630564683,-0.7076528565898993,-0.046013352824164355
7967,7.0,299.52152,1860.7528,0.0,0.0,0.0,0.0,-0.07940557195430048,0.0,-0.16102811742723785,-0.14967510601928286,-0.25491917488856375,-0.15946170370014484,-0.7104265882086453,-0.03907276189168136
7968,7.0,299.56471,1423.4463,0.0,0.0,0.0,0.0,-0.07941553876388431,0.0,-0.12493035307466588,-0.12935466910631188,-0.17840708929990884,-0.17346163847683083,-0.6575514185677723,-0.04325722845240605
7969,7.0,300.33996,1397.0522,0.0,0.0,0.0,0.0,-0.07942550557346813,0.0,-0.08470304740953992,-0.13981653718381787,-0.2001494099457088,-0.16751155017960284,-0.6973690469524663,-0.052901399646211655
7970,7.0,300.83475,1902.5008,0.0,0.0,0.0,0.0,-0.07943547238305194,0.0,-0.2051385926431028,-0.14431581345786187,-0.22885834178655978,-0.18407169438146181,-0.6797865840622124,-0.026276724274310773
7971,7.0,300.47861,2119.0908,0.0,0.0,0.0,0.0,-0.07944543919263578,0.0,-0.1913703172367798,-0.16675287916722784,-0.2860274930987157,-0.18309246921981984,-0.6813965979411083,-0.02384381756520158
7972,7.0,301.6646,1730.4768,0.0,0.0,0.0,0.0,-0.07945540600221959,0.0,-0.15738327443251987,-0.14399488675368885,-0.2246435861405958,-0.14834467824047984,-0.6863799139204234,-0.04480820430097546
7973,7.0,301.82725,1640.1095,0.0,0.0,0.0,0.0,-0.07946537281180342,0.0,-0.11927436061896289,-0.15744174909579084,-0.2218362146185298,-0.14596378368550386,-0.7249025681473132,-0.07810685714629663
7974,7.0,300.93277,1994.3802,0.0,0.0,0.0,0.0,-0.07947533962138723,0.0,-0.1972849721780108,-0.14782933923961988,-0.2611274798412757,-0.17053624358311684,-0.7136322176825163,-0.04962771320287395
7975,7.0,301.22663,2150.1908,0.0,0.0,0.0,0.0,-0.07948530643097106,0.0,-0.2056162184752408,-0.19121132816358882,-0.2567767460318917,-0.14286411990709086,-0.7041514290143354,-0.050550777964473353
7976,7.0,299.95194,1841.0999,0.0,0.0,0.0,0.0,-0.07949527324055489,0.0,-0.19040498373400883,-0.17526443331975283,-0.19397898028173483,-0.16677343801175684,-0.6628241593056514,-0.04879593822228415
7977,7.0,299.28857999999997,1596.2592,0.0,0.0,0.0,0.0,-0.07950524005013869,0.0,-0.14852790425606285,-0.14320297100553286,-0.1934920730786808,-0.17497225252091683,-0.6869659068507564,-0.02381324578318438
7978,7.0,299.43145,1575.6866,0.0,0.0,0.0,0.0,-0.07951520685972252,0.0,-0.13244387614369288,-0.15120576215034684,-0.19531975334405882,-0.18869766744800984,-0.6789267704248554,-0.02669107770395427
7979,7.0,300.17028999999997,1825.1165,0.0,0.0,0.0,0.0,-0.07952517366930634,0.0,-0.15364794820387184,-0.15547323719901385,-0.24566865743810876,-0.16018664361669085,-0.6668284426408433,-0.027161661447897275
7980,7.0,299.79954,2047.6636,0.0,0.0,0.0,0.0,-0.07953514047889015,0.0,-0.17542837718593282,-0.17506854167791985,-0.2719416651110528,-0.17329305392519284,-0.6489169065156124,-0.049047430950104554
7981,7.0,299.4502,1755.5143,0.0,0.0,0.0,0.0,-0.07954510728847398,0.0,-0.15595305165136786,-0.16151517661780684,-0.2161642938712548,-0.16941411975987183,-0.7131724757146433,-0.04834996024376955
7982,7.0,299.33382,1348.1258,0.0,0.0,0.0,0.0,-0.0795550740980578,0.0,-0.12390872339633889,-0.11245042517049288,-0.17343742179944083,-0.17672900527929483,-0.7119657556405493,-0.04081844793246716
7983,7.0,299.61233,1738.5898,0.0,0.0,0.0,0.0,-0.07956504090764163,0.0,-0.16390523095368684,-0.14568610249559885,-0.2188965430309068,-0.16045640119081386,-0.7162949477528073,-0.03145088793646097
7984,7.0,300.83977000000004,2122.061,0.0,0.0,0.0,0.0,-0.07957500771722543,0.0,-0.20269150245909381,-0.16200103004075686,-0.28036103376947974,-0.16092599194965884,-0.6929615204749774,-0.03464281522922967
7985,7.0,300.96418,1964.0239,0.0,0.0,0.0,0.0,-0.07958497452680927,0.0,-0.17951194734144982,-0.17699341289288983,-0.24050887382137776,-0.1866253784759908,-0.7262553583558233,-0.05995547357664453
7986,7.0,300.84486,1610.9976,0.0,0.0,0.0,0.0,-0.0795949413363931,0.0,-0.12363831734215189,-0.15366054290261486,-0.21240420381016278,-0.1935831845276728,-0.6932126443797614,-0.057913253814593155
7987,7.0,300.5519,1545.7569,0.0,0.0,0.0,0.0,-0.0796049081459769,0.0,-0.16089646584174486,-0.12351916926289287,-0.18545586494556882,-0.17393803827634785,-0.6776499131788394,-0.05268162468627154
7988,7.0,301.11792,1771.0246,0.0,0.0,0.0,0.0,-0.07961487495556073,0.0,-0.17108301360207884,-0.14997122836100785,-0.2172930038201498,-0.17449664305647783,-0.6440083987911803,-0.026661813014566077
7989,7.0,301.13484,1958.345,0.0,0.0,0.0,0.0,-0.07962484176514455,0.0,-0.17969420063693683,-0.18703446807136484,-0.22855930128454677,-0.16318121309473183,-0.6986690873607704,-0.040009866246666366
7990,7.0,299.84249,1803.3985,0.0,0.0,0.0,0.0,-0.07963480857472836,0.0,-0.15228750795710685,-0.14875613884108785,-0.24714446634125978,-0.18540143315019683,-0.7090817722784224,-0.003051040945864297
7991,7.0,299.33738999999997,1523.8633,0.0,0.0,0.0,0.0,-0.0796447753843122,0.0,-0.1196336084419179,-0.13746901908713588,-0.2061137749368458,-0.14409101379067588,-0.6787193175993813,-0.048699508223517256
7992,7.0,299.07411,1850.4742,0.0,0.0,0.0,0.0,-0.07965474219389601,0.0,-0.15556555441562486,-0.15927909576712285,-0.24765330027647778,-0.15270855390366084,-0.6731143220212114,-0.06570682401250863
7993,7.0,299.46587999999997,2240.3043,0.0,0.0,0.0,0.0,-0.07966470900347984,0.0,-0.23412015968836078,-0.17925770262635782,-0.2676187044869097,-0.16178659592209385,-0.6956782669080994,-0.06724681724324415
7994,7.0,300.66962,2072.1982,0.0,0.0,0.0,0.0,-0.07967467581306364,0.0,-0.1987657156091488,-0.19218509190719182,-0.2389457227596068,-0.17977087327200383,-0.6869303215072444,-0.05445535546332515
7995,7.0,301.22771,1447.3126,0.0,0.0,0.0,0.0,-0.07968464262264748,0.0,-0.13749600193729888,-0.0950416455063801,-0.2074092253221968,-0.15547962067464385,-0.6693108141933344,-0.036447662916854265
7996,7.0,300.20377,1394.1258,0.0,0.0,0.0,0.0,-0.0796946094322313,0.0,-0.10991622587538691,-0.11087420318243188,-0.2029889926884538,-0.1837893725060988,-0.6766708298722114,-0.03696566068597667
7997,7.0,300.44827999999995,1902.6188,0.0,0.0,0.0,0.0,-0.07970457624181511,0.0,-0.17016493808397185,-0.14982949493701989,-0.25835417378757175,-0.16224473695480884,-0.6962122497107993,-0.03153048278481637
7998,7.0,299.63206,2103.1423,0.0,0.0,0.0,0.0,-0.07971454305139894,0.0,-0.16108131305748785,-0.20342451797893682,-0.2747968924353417,-0.16531967743078183,-0.6851860114600944,-0.044041532665810866
7999,7.0,299.32103,1849.4688,0.0,0.0,0.0,0.0,-0.07972450986098276,0.0,-0.16994830521259183,-0.18488805985453083,-0.2073559891619428,-0.13911142657172887,-0.6883885910511643,-0.02967292785348997
8000,7.0,299.994,1714.5155,0.0,0.0,0.0,0.0,-0.07973447667056659,0.0,-0.13600477136762587,-0.15470335964053286,-0.23046176953980577,-0.17421739132891784,-0.6762912461197494,-0.019710792698803783
8001,7.0,299.12002,1836.2487,0.0,0.0,0.0,0.0,-0.0797444434801504,0.0,-0.17658868027294583,-0.15587677418383986,-0.2257083194781768,-0.19001022149504881,-0.7159537560466342,-0.016792831007823382
8002,7.0,298.75827000000004,2068.2471,0.0,0.0,0.0,0.0,-0.07975441028973422,0.0,-0.17496440996514284,-0.16359322085039382,-0.29013784345437577,-0.1994032525720688,-0.6995112299163834,-0.013743268393854988
8003,7.0,300.48862,2098.4623,0.0,0.0,0.0,0.0,-0.07976437709931805,0.0,-0.1981594475443148,-0.15566123562256787,-0.28405946756198674,-0.17980312502268683,-0.6735007452118483,-0.015918161097500185
8004,7.0,300.55958,1545.6917,0.0,0.0,0.0,0.0,-0.07977434390890185,0.0,-0.13715175021582388,-0.13551728661201487,-0.1971826339179108,-0.16566882315023984,-0.6734008691494914,-0.06321227623356594
8005,7.0,300.99082000000004,1479.0724,0.0,0.0,0.0,0.0,-0.07978431071848568,0.0,-0.17046015863310784,-0.12120603074210388,-0.15793489791946083,-0.17148106890386386,-0.6887470080090373,-0.07373904703297733
8006,7.0,300.30681,1922.1870000000001,0.0,0.0,0.0,0.0,-0.07979427752806952,0.0,-0.2150960242908248,-0.14923327831317787,-0.2199675382541058,-0.17054118824360484,-0.6978844771458353,-0.055581498849716846
8007,7.0,299.73483999999996,1945.3479,0.0,0.0,0.0,0.0,-0.07980424433765332,0.0,-0.1968916690191948,-0.16838117207792783,-0.22606433503331277,-0.14739314520407085,-0.6898054186659943,-0.037312125345670064
8008,7.0,299.88731,1616.3949,0.0,0.0,0.0,0.0,-0.07981421114723715,0.0,-0.12315781387972988,-0.15059038496711386,-0.2175954893725028,-0.16251755454423383,-0.6683752297134994,-0.06698749817165134
8009,7.0,299.81406,1687.0191,0.0,0.0,0.0,0.0,-0.07982417795682097,0.0,-0.11674994931982288,-0.15794178802014086,-0.23811995432560978,-0.16275239551991083,-0.7003671729383584,-0.041415530885144665
8010,7.0,298.79684,1849.4832,0.0,0.0,0.0,0.0,-0.0798341447664048,0.0,-0.14405969423008486,-0.18747581954992282,-0.23066118729198679,-0.15760981688987785,-0.7138145925680153,-0.08382236588637342
8011,7.0,299.46246,1908.6671,0.0,0.0,0.0,0.0,-0.07984411157598861,0.0,-0.17791205583105282,-0.16509104767821783,-0.2371840456057428,-0.15052072402273886,-0.6638531350472033,-0.041660697892590755
8012,7.0,298.46372,1872.8349,0.0,0.0,0.0,0.0,-0.07985407838557243,0.0,-0.17105461220177584,-0.16939906286338585,-0.2288413799798858,-0.15830921277140286,-0.6912971051982123,-0.06976648247891573
8013,7.0,299.41029,1823.4592,0.0,0.0,0.0,0.0,-0.07986404519515626,0.0,-0.18563685167843083,-0.12610332178792888,-0.2425458814249148,-0.17995511253768684,-0.7067288940887113,-0.01214900143476309
8014,7.0,299.98412,1469.9379,0.0,0.0,0.0,0.0,-0.07987401200474006,0.0,-0.1062251280136039,-0.09743124083996481,-0.24316803725131675,-0.1908670663096128,-0.7094398751287644,-0.052472215274854454
8015,7.0,300.15237,1658.1497,0.0,0.0,0.0,0.0,-0.0798839788143239,0.0,-0.14853827993708685,-0.14362576987475986,-0.21187204485764277,-0.16136312830780083,-0.6877017493383784,-0.031987781806698264
8016,7.0,299.43992000000003,2100.8842,0.0,0.0,0.0,0.0,-0.07989394562390773,0.0,-0.19898901566618682,-0.17612669902235184,-0.2635006331654878,-0.16541049503724484,-0.6963134126007834,-0.06888085426876103
8017,7.0,300.02239,1978.5262,0.0,0.0,0.0,0.0,-0.07990391243349153,0.0,-0.22491296881218176,-0.17262250527401482,-0.2038870970470898,-0.1827051442365938,-0.7154583780727444,-0.04324618605281626
8018,7.0,300.02087,1677.2981,0.0,0.0,0.0,0.0,-0.07991387924307536,0.0,-0.16664999375207384,-0.15005653388692686,-0.19315023289244382,-0.17721888130514185,-0.7260297075585533,-0.055083627267330744
8019,7.0,299.9463,1856.0479999999998,0.0,0.0,0.0,0.0,-0.07992384605265918,0.0,-0.16906086024500785,-0.14656948433028186,-0.24856189177364876,-0.1884721686382548,-0.6748279913853373,-0.01117479388761629
8020,7.0,300.39586,1993.3285,0.0,0.0,0.0,0.0,-0.079933812862243,0.0,-0.1357691603218729,-0.1896308505251078,-0.28052207974037374,-0.15353338001506486,-0.6824899454615133,-0.02197350581511618
8021,7.0,300.25592,1991.9775,0.0,0.0,0.0,0.0,-0.07994377967182681,0.0,-0.15862910596047383,-0.17696342068992982,-0.26991889367142075,-0.17789634032200183,-0.6945830955375144,-0.03624526519612917
8022,7.0,300.85107999999997,1903.3310000000001,0.0,0.0,0.0,0.0,-0.07995374648141064,0.0,-0.18346212312130183,-0.15658691051642484,-0.23851607431970379,-0.16620757836091085,-0.7144524943009714,-0.04311297507541936
8023,7.0,301.47456,1673.4781,0.0,0.0,0.0,0.0,-0.07996371329099447,0.0,-0.16431845460946884,-0.15678424097339985,-0.18759284993647282,-0.16004169818988584,-0.6726500001628863,-0.07126502060830993
8024,7.0,301.25226000000004,1639.7174,0.0,0.0,0.0,0.0,-0.07997368010057827,0.0,-0.14303155948611587,-0.14837345454331988,-0.2070281419595868,-0.15900445432751784,-0.7033101375888063,-0.04572556547776196
8025,7.0,300.33702999999997,1875.8554,0.0,0.0,0.0,0.0,-0.0799836469101621,0.0,-0.17837038938128683,-0.15311829197909888,-0.23872450999777478,-0.17796242449352384,-0.7028443161203334,-0.058769398473338036
8026,7.0,300.94897000000003,1777.0853,0.0,0.0,0.0,0.0,-0.07999361371974592,0.0,-0.14219450344600487,-0.14096883559504086,-0.2570262284715138,-0.17835835197009883,-0.7228657023987903,-0.026979358503155373
8027,7.0,301.04148,1342.1893,0.0,0.0,0.0,0.0,-0.08000358052932974,0.0,-0.12790937929617285,-0.1037940573136759,-0.17628860625583084,-0.15923412772768483,-0.6626168179376883,-0.06493521278310653
8028,7.0,300.03756,1677.6407,0.0,0.0,0.0,0.0,-0.08001354733891355,0.0,-0.13575754847572685,-0.17132194810815984,-0.2028813855278338,-0.15135051505963285,-0.6956457517123903,-0.07055137235087834
8029,7.0,299.69886,2199.4007,0.0,0.0,0.0,0.0,-0.08002351414849738,0.0,-0.26172435507768277,-0.1752237513282378,-0.23161479749110075,-0.16349710394590783,-0.6636590773880513,-0.036035799042706464
8030,7.0,299.24857000000003,2126.1553,0.0,0.0,0.0,0.0,-0.08003348095808119,0.0,-0.21939364352996682,-0.15678179904065886,-0.27012266839903176,-0.17003072297572583,-0.7040670658110093,-0.025885580351457875
8031,7.0,300.05162,1835.9304,0.0,0.0,0.0,0.0,-0.08004344776766502,0.0,-0.17295688793951586,-0.14716709923926188,-0.23795300110663278,-0.17850876894744383,-0.6547280072966234,-0.006375937758531063
8032,7.0,299.59918,1744.9538,0.0,0.0,0.0,0.0,-0.08005341457724884,0.0,-0.1098242734288119,-0.14163178487046887,-0.27896631527183174,-0.1899782838518968,-0.6896369962343724,-0.011381323642249188
8033,7.0,300.79179,1796.6154,0.0,0.0,0.0,0.0,-0.08006338138683265,0.0,-0.15465481482824187,-0.15127256572943984,-0.24019885982078176,-0.18788234562254383,-0.7016256194300573,-0.03476421475021087
8034,7.0,300.64321,1944.6434,0.0,0.0,0.0,0.0,-0.08007334819641648,0.0,-0.18349491189453782,-0.14819556835576386,-0.25943254547149874,-0.17504137644273882,-0.7228509292123323,-0.05270944346776704
8035,7.0,300.60006,1845.2996,0.0,0.0,0.0,0.0,-0.0800833150060003,0.0,-0.2145579276927188,-0.12515203193154387,-0.2212150315122238,-0.16844679015440384,-0.6837532960836964,-0.06147352791621485
8036,7.0,301.13599,1504.7431,0.0,0.0,0.0,0.0,-0.08009328181558413,0.0,-0.13576007146847588,-0.13881619589009186,-0.1828280717387258,-0.14611852724077587,-0.7079836320850443,-0.07023308212346552
8037,7.0,300.70101,1560.5561,0.0,0.0,0.0,0.0,-0.08010324862516793,0.0,-0.11477902588780789,-0.13820062618933987,-0.22139044536953578,-0.17818177287517184,-0.6831277661344614,-0.05859313247269194
8038,7.0,299.43329,2105.5652,0.0,0.0,0.0,0.0,-0.08011321543475176,0.0,-0.17345567043374183,-0.17963126767322582,-0.2869522965974867,-0.13724538465756486,-0.7113393948262323,-0.03681938587504047
8039,7.0,299.04455,2156.9622,0.0,0.0,0.0,0.0,-0.08012318224433558,0.0,-0.1914398768561448,-0.19909424168907183,-0.26512852077614774,-0.15501797379658286,-0.6629792068359533,-0.05027583052333816
8040,7.0,299.48771,1604.3859,0.0,0.0,0.0,0.0,-0.0801331490539194,0.0,-0.13118196433665186,-0.14414337855584386,-0.21236788892657882,-0.15842571626790083,-0.6788031437801544,-0.05916699477282774
8041,7.0,299.95247,1569.1462,0.0,0.0,0.0,0.0,-0.08014311586350323,0.0,-0.1265395867509849,-0.17123966206753882,-0.17920200426836083,-0.19826312329454682,-0.6910373585350774,-0.06459407173943853
8042,7.0,301.06063,1871.3536,0.0,0.0,0.0,0.0,-0.08015308267308704,0.0,-0.17922143840527882,-0.14312964209579587,-0.24649367606703176,-0.2024539257081468,-0.6993926188596774,-0.034085775920504165
8043,7.0,300.14993,1850.6003,0.0,0.0,0.0,0.0,-0.08016304948267088,0.0,-0.15600966193445487,-0.15496896288924586,-0.25155766701930876,-0.18546846977681283,-0.6488638831378795,-0.013759752959731884
8044,7.0,300.46332,1788.0618,0.0,0.0,0.0,0.0,-0.08017301629225468,0.0,-0.14131527593673185,-0.16121160688784683,-0.24099925647227477,-0.17074608767882685,-0.7003663724707794,-0.04707642645808155
8045,7.0,300.36497,1724.4342,0.0,0.0,0.0,0.0,-0.08018298310183851,0.0,-0.12846327246333789,-0.15288736214880785,-0.24283430306587975,-0.18183082085780483,-0.6976159557368343,-0.03081424364687907
8046,7.0,300.28652999999997,1675.4596,0.0,0.0,0.0,0.0,-0.08019294991142234,0.0,-0.17496010365221784,-0.14323367248356286,-0.19110410603800682,-0.14184475990898787,-0.7515231510020604,-0.07554244678620903
8047,7.0,300.55933,2083.7554,0.0,0.0,0.0,0.0,-0.08020291672100614,0.0,-0.22398647318574377,-0.17101042436491484,-0.23841271267700276,-0.15264639101002586,-0.7009917402999983,-0.03220546541843197
8048,7.0,299.38605,2147.4643,0.0,0.0,0.0,0.0,-0.08021288353058997,0.0,-0.2326985394005578,-0.16470254732487583,-0.2553744585559968,-0.15738160256985484,-0.7058576915202304,-0.05489031738675254
8049,7.0,298.88922,1634.6177,0.0,0.0,0.0,0.0,-0.08022285034017379,0.0,-0.12367942489870887,-0.14933694393090885,-0.22386659556641275,-0.1820652058709368,-0.7040318351050323,-0.027220953803998974
8050,7.0,299.12402000000003,1425.7467,0.0,0.0,0.0,0.0,-0.08023281714975761,0.0,-0.1164663608818349,-0.1094073412776639,-0.2075176937454018,-0.18639094280035381,-0.7047018973961623,-0.03575271925626867
8051,7.0,299.67334,1796.9818,0.0,0.0,0.0,0.0,-0.08024278395934144,0.0,-0.14306069042649086,-0.15521712810373786,-0.24795976790172375,-0.18836363942004383,-0.6459467057024764,-0.03460035194403886
8052,7.0,299.89089,1903.2042,0.0,0.0,0.0,0.0,-0.08025275076892525,0.0,-0.19970240453159283,-0.16201892403752285,-0.2168052454870118,-0.17357270082029183,-0.6756348728374704,-0.04951736925373385
8053,7.0,300.27565,1707.6982,0.0,0.0,0.0,0.0,-0.08026271757850909,0.0,-0.16180645562405385,-0.14949998600449987,-0.20779115981489077,-0.19056495565979684,-0.6819831380264954,-0.06662895658401603
8054,7.0,299.86933999999997,1625.6908,0.0,0.0,0.0,0.0,-0.08027268438809289,0.0,-0.12738762642217988,-0.16236289204896986,-0.2044189114945758,-0.17443150120754883,-0.7063376376950973,-0.047826818203889454
8055,7.0,300.12405,1643.6921,0.0,0.0,0.0,0.0,-0.08028265119767672,0.0,-0.12640161248486786,-0.15222663189109883,-0.22101312116479677,-0.16615054251278183,-0.6826543756877413,-0.07691718095213472
8056,7.0,300.54644,1795.7863,0.0,0.0,0.0,0.0,-0.08029261800726055,0.0,-0.14617767064911286,-0.15841138891148684,-0.24128513485548875,-0.16034714243253084,-0.7173172461762003,-0.05010821261229555
8057,7.0,300.21792,1997.7438,0.0,0.0,0.0,0.0,-0.08030258481684435,0.0,-0.1891133533015348,-0.19631216088950182,-0.2218386970812748,-0.16649935385970685,-0.7128658966318863,-0.08758863879957561
8058,7.0,300.07112,1765.1313,0.0,0.0,0.0,0.0,-0.08031255162642818,0.0,-0.18818732377014283,-0.13319656898047788,-0.21517194712081777,-0.15839861182772585,-0.6992338425690073,-0.029785970087646368
8059,7.0,300.18299,1515.0654,0.0,0.0,0.0,0.0,-0.080322518436012,0.0,-0.15811735386496784,-0.13245549812233987,-0.16996920856215483,-0.16478071957009086,-0.6790505287920693,-0.05607929038534504
8060,7.0,299.77551,1736.2686,0.0,0.0,0.0,0.0,-0.08033248524559582,0.0,-0.15619656604790086,-0.12843128415768088,-0.24315445969997676,-0.18886356688688283,-0.6778625133148214,-0.02009791604525988
8061,7.0,299.65756,1937.9489,0.0,0.0,0.0,0.0,-0.08034245205517965,0.0,-0.17919716093288282,-0.1304948287813369,-0.2793960954342477,-0.18919052242915083,-0.6917411417895353,-0.029721465573030268
8062,7.0,298.86503999999996,1804.3175,0.0,0.0,0.0,0.0,-0.08035241886476346,0.0,-0.14340019000499687,-0.16176769880772884,-0.24329957737929878,-0.16401860350737585,-0.6957969995548173,-0.027902144620977273
8063,7.0,299.39027999999996,1641.9651,0.0,0.0,0.0,0.0,-0.0803623856743473,0.0,-0.15802283789563984,-0.12549892823577988,-0.2155946345325338,-0.15827562353058786,-0.6813355800200864,-0.056710630310653445
8064,7.0,299.58477999999997,1880.4705,0.0,0.0,0.0,0.0,-0.0803723524839311,0.0,-0.1912849205183518,-0.15802742791859287,-0.22230371808216878,-0.1802824733799948,-0.7054522698902183,-0.055722414580874145
8065,7.0,300.03055,1976.8722,0.0,0.0,0.0,0.0,-0.08038231929351493,0.0,-0.20722886680439678,-0.16223948831929086,-0.2314514311774778,-0.19525007213468182,-0.7102476381084843,-0.05342692890332735
8066,7.0,299.7857,1959.6706,0.0,0.0,0.0,0.0,-0.08039228610309876,0.0,-0.16206267617684084,-0.16093316576036687,-0.2726950874879097,-0.1883748459661498,-0.7144687772300783,-0.025284792956414774
8067,7.0,300.24397999999997,1696.0547,0.0,0.0,0.0,0.0,-0.08040225291268256,0.0,-0.13745593802834485,-0.13334004519463788,-0.24476228495865676,-0.15945564446454685,-0.6964444359712143,-0.03131339192439117
8068,7.0,300.26749,1547.7585,0.0,0.0,0.0,0.0,-0.08041221972226639,0.0,-0.1115807323446609,-0.1178365688595639,-0.24106262513352875,-0.17478762822019583,-0.7116433698562323,-0.027190660665759276
8069,7.0,300.33644,1634.4522,0.0,0.0,0.0,0.0,-0.08042218653185021,0.0,-0.16198178842135785,-0.13056024420779286,-0.2042906238994148,-0.15919240208856686,-0.7211292146424123,-0.05844660029623034
8070,7.0,299.99239,1920.4465,0.0,0.0,0.0,0.0,-0.08043215334143403,0.0,-0.19850594868101182,-0.15987778472120884,-0.2253840490486738,-0.16387317172052285,-0.7073277147653103,-0.03648954662298786
8071,7.0,300.30728,1812.0734,0.0,0.0,0.0,0.0,-0.08044212015101786,0.0,-0.15357591625426287,-0.16232387178761884,-0.2349252780853198,-0.15113015342788486,-0.6802515341355994,-0.062216473287037846
8072,7.0,299.03895,1394.7652,0.0,0.0,0.0,0.0,-0.08045208696060167,0.0,-0.094995957046121,-0.13468239892711786,-0.19429543855296683,-0.16596643496961183,-0.6970138115999073,-0.06973944187349702
8073,7.0,298.64526,1658.7676,0.0,0.0,0.0,0.0,-0.0804620537701855,0.0,-0.1066663275046469,-0.16071429360626585,-0.23684331999461578,-0.17621574344113983,-0.7212261320144773,-0.05767873707894815
8074,7.0,299.73764,1980.7906,0.0,0.0,0.0,0.0,-0.08047202057976931,0.0,-0.2045761172475908,-0.15815914029909187,-0.23937561437953375,-0.17214178902907185,-0.6995041979606894,-0.059388648298453244
8075,7.0,300.09035,1758.0367,0.0,0.0,0.0,0.0,-0.08048198738935314,0.0,-0.17810908231299782,-0.14102995484107286,-0.2152602214695298,-0.14324874964505088,-0.6883707882469073,-0.055372928409382544
8076,7.0,300.16006,1555.5776,0.0,0.0,0.0,0.0,-0.08049195419893697,0.0,-0.17386606712174485,-0.1231122277577309,-0.17587845274785183,-0.16018129365616285,-0.6849087659677323,-0.062247161592816534
8077,7.0,299.46629,1643.2997,0.0,0.0,0.0,0.0,-0.08050192100852077,0.0,-0.13681897861798187,-0.1148904327363029,-0.24781265411970477,-0.16319328090342286,-0.7149058223957113,-0.013602035515416387
8078,7.0,300.05481000000003,1873.0335,0.0,0.0,0.0,0.0,-0.0805118878181046,0.0,-0.17103728562506584,-0.15241099274679384,-0.24590713598164476,-0.18922771884032183,-0.6997203444720214,-0.030504311719541172
8079,7.0,300.86255,2290.7847,0.0,0.0,0.0,0.0,-0.08052185462768842,0.0,-0.19076644044218183,-0.18307590258068485,-0.3224990150156747,-0.16983322026623382,-0.6871539458043143,-6.594264378778224e-05
8080,7.0,300.46329,2159.4445,0.0,0.0,0.0,0.0,-0.08053182143727224,0.0,-0.2031586614176988,-0.1924568962465168,-0.2608016490066188,-0.17473663134266285,-0.7020639818208203,-0.04632029769020746
8081,7.0,299.35202000000004,1805.0475,0.0,0.0,0.0,0.0,-0.08054178824685607,0.0,-0.16832151191203984,-0.16647244193705082,-0.21389542424733476,-0.16558291980676185,-0.7282948281571033,-0.016793528123892183
8082,7.0,300.35325,1902.0505,0.0,0.0,0.0,0.0,-0.08055175505643988,0.0,-0.18179721135198781,-0.18136268917910384,-0.2150159572679228,-0.16861372310837883,-0.7070990343502414,-0.07086829469065613
8083,7.0,299.61068,2060.2134,0.0,0.0,0.0,0.0,-0.08056172186602371,0.0,-0.17436817307629882,-0.17933817494929982,-0.27254710231080476,-0.16190303862358585,-0.6876997431031804,-0.02489536345273108
8084,7.0,299.55068,1766.1616,0.0,0.0,0.0,0.0,-0.08057168867560752,0.0,-0.1395120757937699,-0.14580090373192886,-0.25155604581914875,-0.15204224063790084,-0.6755125330203964,-0.06833088947223373
8085,7.0,299.57326,1447.6111,0.0,0.0,0.0,0.0,-0.08058165548519135,0.0,-0.07884195489509513,-0.12611515654909689,-0.2350805181331408,-0.17885072059119184,-0.6893032215189314,-0.03268191385395377
8086,7.0,298.8013,1532.8921,0.0,0.0,0.0,0.0,-0.08059162229477518,0.0,-0.14694204625955085,-0.11752599757141288,-0.2014928883857998,-0.1775881704365878,-0.6797812847641893,-0.05051589581653075
8087,7.0,300.07275,2051.1635,0.0,0.0,0.0,0.0,-0.08060158910435898,0.0,-0.22419633754645577,-0.15478678052126585,-0.24451936837968277,-0.1720691795269058,-0.6886745910243903,-0.017295230804906383
8088,7.0,301.37225,2018.6245,0.0,0.0,0.0,0.0,-0.08061155591394281,0.0,-0.19561095129029782,-0.18779648280906983,-0.23020401897936776,-0.17379248489948285,-0.6751941698389764,-0.06451929590855873
8089,7.0,300.40651,1795.6823,0.0,0.0,0.0,0.0,-0.08062152272352663,0.0,-0.11853050332304989,-0.16707956113196884,-0.26023251655794977,-0.18273587611212683,-0.7192280838772853,-0.05132840181996886
8090,7.0,300.43678,1797.7409,0.0,0.0,0.0,0.0,-0.08063148953311045,0.0,-0.13904794645296387,-0.16022957502342783,-0.24719082253333477,-0.17262038758130582,-0.7030239957605663,-0.04707990190592455
8091,7.0,301.29031000000003,1871.3031,0.0,0.0,0.0,0.0,-0.08064145634269428,0.0,-0.17189949053265885,-0.16284342590889483,-0.23408650965253977,-0.16996803319203885,-0.6896990882005004,-0.056569449107969946
8092,7.0,300.43008,1793.5064,0.0,0.0,0.0,0.0,-0.08065142315227809,0.0,-0.19010154572656182,-0.1410526212458099,-0.2140269947728198,-0.14132240921743586,-0.6748759789100734,-0.04388320321843496
8093,7.0,300.23248,1837.9907,0.0,0.0,0.0,0.0,-0.08066138996186192,0.0,-0.2021106973692728,-0.15271651804944686,-0.2038760526209998,-0.15726652775599784,-0.7058645410909064,-0.04270461704661756
8094,7.0,299.49349,1690.7135,0.0,0.0,0.0,0.0,-0.08067135677144573,0.0,-0.15647810772068685,-0.1203592981635379,-0.23709729113218078,-0.15683260340067284,-0.7004817411271653,-0.02786835678314268
8095,7.0,299.25675,1741.1484,0.0,0.0,0.0,0.0,-0.08068132358102956,0.0,-0.16652481683471987,-0.13320246609605987,-0.22953834406117077,-0.15390776579451385,-0.7252493631265393,-0.05015439249885315
8096,7.0,299.86855,2081.5149,0.0,0.0,0.0,0.0,-0.08069129039061339,0.0,-0.16709425325841884,-0.17071896297364983,-0.2949153278083767,-0.19166737176859683,-0.6976045668057104,-0.036413433301976064
8097,7.0,300.24982,2088.6919,0.0,0.0,0.0,0.0,-0.08070125720019719,0.0,-0.2029096450731228,-0.15843996256430684,-0.2735605651933258,-0.1858563317825918,-0.7159147053877803,-0.04176052430569286
8098,7.0,299.80007,1865.7736,0.0,0.0,0.0,0.0,-0.08071122400978102,0.0,-0.16295119518953083,-0.17919159818983385,-0.2250057825213418,-0.19117854952285382,-0.6966420906682212,-0.032847417112037675
8099,7.0,299.93061,1829.9053,0.0,0.0,0.0,0.0,-0.08072119081936484,0.0,-0.20052486977026382,-0.15129629604678185,-0.2044243526476128,-0.17916209234692182,-0.6869713480037933,-0.039297812844892165
8100,7.0,300.88173,2031.017,0.0,0.0,0.0,0.0,-0.08073115762894865,0.0,-0.15307933251275385,-0.2030621797431768,-0.26123693111707774,-0.16813821496894985,-0.6805794826629653,-0.04876135903612145
8101,7.0,300.90058999999997,1786.1834,0.0,0.0,0.0,0.0,-0.08074112443853249,0.0,-0.12832146811184286,-0.16454038677887184,-0.2500932977097868,-0.16895103406666884,-0.7080675190608233,-0.05957038787613954
8102,7.0,300.55017000000004,1836.3114,0.0,0.0,0.0,0.0,-0.0807510912481163,0.0,-0.12035367462548288,-0.17629644881160483,-0.26154268946725373,-0.1845601518571688,-0.6909639485653324,-0.03364839435583797
8103,7.0,300.42633,1887.6921,0.0,0.0,0.0,0.0,-0.08076105805770013,0.0,-0.17267115141131584,-0.17403029469795284,-0.22710982675149477,-0.17190066590277484,-0.6991581730515394,-0.054718736654568854
8104,7.0,300.93251000000004,1759.2567,0.0,0.0,0.0,0.0,-0.08077102486728394,0.0,-0.1901839432246938,-0.14762431821438585,-0.19696183658861982,-0.2019446662078868,-0.6835206741257384,-0.040269090072749765
8105,7.0,300.8843,1776.0685,0.0,0.0,0.0,0.0,-0.08078099167686777,0.0,-0.16826389851135382,-0.14273196169654787,-0.22888462549415378,-0.18105279676851985,-0.7178958626458053,-0.06550222348606614
8106,7.0,301.71142000000003,2014.0458,0.0,0.0,0.0,0.0,-0.0807909584864516,0.0,-0.16764854159312284,-0.17860158265660384,-0.2659695082266467,-0.16745787832180584,-0.7025279794391134,-0.03916338292762496
8107,7.0,300.89872,1889.3329999999999,0.0,0.0,0.0,0.0,-0.0808009252960354,0.0,-0.15036425794229685,-0.16441741874673585,-0.25952837866595674,-0.13381025403604388,-0.7045397469826593,-0.07459239309494602
8108,7.0,300.1758,1671.7332,0.0,0.0,0.0,0.0,-0.08081089210561923,0.0,-0.12174717722301087,-0.15058668660424884,-0.23583127566223477,-0.16780550416611384,-0.6952257696784413,-0.04554677141811636
8109,7.0,300.14159,1941.3358,0.0,0.0,0.0,0.0,-0.08082085891520305,0.0,-0.18276592911009282,-0.18445333503162684,-0.2228983337708528,-0.17078763093292684,-0.7136926175209772,-0.05005778518131875
8110,7.0,300.10399,1975.4018,0.0,0.0,0.0,0.0,-0.08083082572478686,0.0,-0.2225105933550858,-0.15449489356495885,-0.2234673446295098,-0.18377397110457883,-0.6880801678532253,-0.01033193293768239
8111,7.0,300.16092000000003,1844.1153,0.0,0.0,0.0,0.0,-0.0808407925343707,0.0,-0.18000646405275483,-0.17603107861041484,-0.2045274711102898,-0.15931121579529284,-0.6868587759176833,-0.05803504039711255
8112,7.0,299.51346,1829.2011,0.0,0.0,0.0,0.0,-0.08085075934395451,0.0,-0.16182368087575383,-0.15805385348120085,-0.2361539147590768,-0.16272445008215286,-0.6730922534340333,-0.04198608087070356
8113,7.0,299.12805,1729.6151,0.0,0.0,0.0,0.0,-0.08086072615353834,0.0,-0.14075895096932686,-0.14292576604317486,-0.24207508489845078,-0.16822300373731786,-0.7255177426805264,-0.03979459619667086
8114,7.0,299.84664,1817.8413,0.0,0.0,0.0,0.0,-0.08087069296312215,0.0,-0.14497183210260586,-0.16732628753131884,-0.2402802440688138,-0.16564545760293384,-0.7046018997437933,-0.04440705858638546
8115,7.0,299.46634,1956.9679,0.0,0.0,0.0,0.0,-0.08088065977270598,0.0,-0.20087744027505983,-0.15175135679919285,-0.24224057903728377,-0.15373536128999885,-0.7044880813600602,-0.01986578754010058
8116,7.0,300.7343,1835.7271,0.0,0.0,0.0,0.0,-0.0808906265822898,0.0,-0.21904502470056078,-0.14057180367585687,-0.1983983820503958,-0.15626768607241986,-0.6795824040345613,-0.05523342717536485
8117,7.0,300.1444,1597.5388,0.0,0.0,0.0,0.0,-0.08090059339187361,0.0,-0.13680822803442086,-0.15082972477323486,-0.1979739619810088,-0.1979321856793858,-0.7166221870051034,-0.04051645380641267
8118,7.0,299.9563,1797.7914,0.0,0.0,0.0,0.0,-0.08091056020145744,0.0,-0.14271301391967786,-0.16872419776678185,-0.23504647292978076,-0.18136717787704681,-0.6947859887375383,-0.06263884456472264
8119,7.0,299.8915,2171.0342,0.0,0.0,0.0,0.0,-0.08092052701104126,0.0,-0.14929179350645286,-0.2140596315585408,-0.2965887610110317,-0.16716664997806382,-0.6871602380874353,-0.04798779223402636
8120,7.0,301.14099,1842.3015,0.0,0.0,0.0,0.0,-0.08093049382062507,0.0,-0.15659668837988985,-0.16547235395584983,-0.23794461139580478,-0.17863053121196082,-0.6783808008734724,-0.04970929908767586
8121,7.0,299.36512999999997,1400.6008,0.0,0.0,0.0,0.0,-0.0809404606302089,0.0,-0.13029988959459787,-0.13381243252375888,-0.16163535821216785,-0.17279932754896585,-0.7339497668327023,-0.03399501201629647
8122,7.0,300.44599,1516.0546,0.0,0.0,0.0,0.0,-0.08095042743979272,0.0,-0.15919120645344886,-0.11846014323610589,-0.18319139282708283,-0.17530538888879482,-0.7007232188909973,-0.025369993104323377
8123,7.0,300.47537,1971.2642,0.0,0.0,0.0,0.0,-0.08096039424937655,0.0,-0.17376020275129683,-0.17591798976675385,-0.24953690181487478,-0.14456257025471486,-0.6682429093829404,-0.05795360852632584
8124,7.0,299.6914,2023.5357,0.0,0.0,0.0,0.0,-0.08097036105896036,0.0,-0.17490766795954285,-0.1861410449281908,-0.2540556122258368,-0.13687687572869586,-0.6739707108732303,-0.03778584611192267
8125,7.0,299.38482999999997,1905.3074,0.0,0.0,0.0,0.0,-0.08098032786854419,0.0,-0.14917469219239587,-0.16701139979774185,-0.26297980234908575,-0.17204668537468581,-0.7153571239902513,-0.06266751852930254
8126,7.0,300.09801,1817.8163,0.0,0.0,0.0,0.0,-0.08099029467812802,0.0,-0.17215864951073584,-0.13544738248761587,-0.24496472219613577,-0.15818455261159986,-0.6996131831414453,-0.008072059556100252
8127,7.0,299.20862999999997,1922.5356,0.0,0.0,0.0,0.0,-0.08100026148771182,0.0,-0.20025755412888183,-0.16355546715166783,-0.2205898055380188,-0.17618157664776785,-0.6964629581830423,-0.06138799846202373
8128,7.0,300.08345,2303.264,0.0,0.0,0.0,0.0,-0.08101022829729565,0.0,-0.24525997314277478,-0.18359162661658282,-0.27128314373856177,-0.16386006026422884,-0.7016975095246523,-0.02965456573517777
8129,7.0,299.88392000000005,1875.4806,0.0,0.0,0.0,0.0,-0.08102019510687947,0.0,-0.16594331260232983,-0.15938926645049586,-0.24476668246409075,-0.18690811578389482,-0.7307803407849043,-0.05391025021427744
8130,7.0,300.11899,1328.7296,0.0,0.0,0.0,0.0,-0.08103016191646328,0.0,-0.06210607867539274,-0.13625446658976886,-0.2055400828627268,-0.15772432428367886,-0.6946252568741753,-0.047814244783398546
8131,7.0,300.39963,1572.5567,0.0,0.0,0.0,0.0,-0.0810401287260471,0.0,-0.09708519971881321,-0.14528555459856787,-0.23564720864906877,-0.15062246446527983,-0.6730606096334103,-0.06933361393019494
8132,7.0,300.45937000000004,2095.8388,0.0,0.0,0.0,0.0,-0.08105009553563093,0.0,-0.19048120040653083,-0.2055014881664178,-0.24109997353221477,-0.16174315789030685,-0.6910223320360943,-0.04493820631530566
8133,7.0,300.31253,1830.4993,0.0,0.0,0.0,0.0,-0.08106006234521473,0.0,-0.2055657079577558,-0.14098648641178288,-0.2098738852629398,-0.18919493006708582,-0.7099348376701133,-0.04169033140501536
8134,7.0,300.76544,1606.266,0.0,0.0,0.0,0.0,-0.08107002915479856,0.0,-0.15589108127525186,-0.13328134761634486,-0.19909233677888383,-0.17432025647906985,-0.7100103248025633,-0.04216240057360496
8135,7.0,298.99205,1759.3208,0.0,0.0,0.0,0.0,-0.0810799959643824,0.0,-0.16063994131392786,-0.15454325599223184,-0.2196063956534638,-0.16534247555803186,-0.6866479996318813,-0.05782214236560115
8136,7.0,299.64644,2167.4562,0.0,0.0,0.0,0.0,-0.08108996277396621,0.0,-0.1817166275715348,-0.17695090705119484,-0.3001850287959557,-0.18273027283907384,-0.7081968908335913,-0.03732098723104467
8137,7.0,299.81976000000003,2196.0833,0.0,0.0,0.0,0.0,-0.08109992958355003,0.0,-0.18799807904896582,-0.19210532885931983,-0.28745108922421375,-0.17132950695390584,-0.7215521351016514,-0.06223077328569915
8138,7.0,300.17645,1958.9659,0.0,0.0,0.0,0.0,-0.08110989639313385,0.0,-0.2009407988038128,-0.13592335672209088,-0.25861256269557276,-0.17603578009087884,-0.7020699599964103,-0.0018683445250162482
8139,7.0,300.68701,1583.2458,0.0,0.0,0.0,0.0,-0.08111986320271768,0.0,-0.17660147762170883,-0.1192594253124889,-0.18540628661817582,-0.13549450874976687,-0.6677772095044794,-0.05427824846509604
8140,7.0,300.58771,1758.4713,0.0,0.0,0.0,0.0,-0.08112983001230148,0.0,-0.15980700920172383,-0.15733807334555885,-0.2173862734918548,-0.16583010216865685,-0.6807369113310023,-0.024757034549079075
8141,7.0,300.44116,2174.1973,0.0,0.0,0.0,0.0,-0.08113979682188531,0.0,-0.18116301811439783,-0.19102304603000683,-0.28871563548151474,-0.18231280366537284,-0.7052869074738983,-0.06213430478342844
8142,7.0,300.16316,2018.1456,0.0,0.0,0.0,0.0,-0.08114976363146913,0.0,-0.15476094264371584,-0.16064902003482387,-0.2980559167583287,-0.18405358760217483,-0.6881021148503914,-0.019198615038255783
8143,7.0,299.33572999999996,1546.5124,0.0,0.0,0.0,0.0,-0.08115973044105294,0.0,-0.11269552023718189,-0.13772892787028687,-0.2196767050779028,-0.17240985447552784,-0.6824569743032594,-0.046152230909370554
8144,7.0,298.44228,1543.5843,0.0,0.0,0.0,0.0,-0.08116969725063676,0.0,-0.16915464667426383,-0.11630784803619088,-0.18374857905707284,-0.15707323003442084,-0.7229907678586334,-0.05061564015637475
8145,7.0,298.93464,2093.2727,0.0,0.0,0.0,0.0,-0.08117966406022059,0.0,-0.23213211232965578,-0.17678931392524683,-0.22738119539327675,-0.1907890561844138,-0.7326040997723953,-0.023812631753623775
8146,7.0,301.11636,2201.7223,0.0,0.0,0.0,0.0,-0.08118963086980442,0.0,-0.21290855917993878,-0.18089847877828982,-0.2754615541034387,-0.15937686426927186,-0.7281382607516513,-0.057205322314225746
8147,7.0,301.35722000000004,1896.7745,0.0,0.0,0.0,0.0,-0.08119959767938822,0.0,-0.14888114350592485,-0.15220931544688984,-0.27548162658791975,-0.14250181206883386,-0.6930038641966563,-0.04087247442779916
8148,7.0,300.52231,1688.35,0.0,0.0,0.0,0.0,-0.08120956448897206,0.0,-0.11730676064727588,-0.16734197264286685,-0.2285674984778558,-0.15273838398660486,-0.6883178864591863,-0.09023775484152302
8149,7.0,300.73816,1780.6285,0.0,0.0,0.0,0.0,-0.08121953129855587,0.0,-0.16366058171704184,-0.13811190601058385,-0.23949411397872875,-0.16119106830831986,-0.6756924355756514,-0.039296049789718165
8150,7.0,300.82546,1990.7843,0.0,0.0,0.0,0.0,-0.08122949810813969,0.0,-0.2102811104781298,-0.17577028829967684,-0.21909731853822179,-0.1752173273226038,-0.6735767187043463,-0.06582490311291213
8151,7.0,300.28032,1991.3288,0.0,0.0,0.0,0.0,-0.08123946491772352,0.0,-0.20289174094385581,-0.16819689228224083,-0.23422558836126578,-0.2062219697825238,-0.6699144072779044,-0.012536273728983888
8152,7.0,299.58255,1731.2055,0.0,0.0,0.0,0.0,-0.08124943172730734,0.0,-0.12884856081386287,-0.15695336254759085,-0.24044133056971176,-0.16883570594028685,-0.7364218640291793,-0.048555622656316855
8153,7.0,299.58702999999997,1600.4562,0.0,0.0,0.0,0.0,-0.08125939853689115,0.0,-0.0914057900400491,-0.15449647423511487,-0.24059644902752078,-0.2035318110320258,-0.7262966381648973,-0.04329683133256455
8154,7.0,299.23787000000004,1995.3678,0.0,0.0,0.0,0.0,-0.08126936534647497,0.0,-0.15903652369318283,-0.15400869563697486,-0.2934967675358757,-0.16792462184786985,-0.7104419693451633,-0.03406330203328617
8155,7.0,299.9957,2369.1953,0.0,0.0,0.0,0.0,-0.0812793321560588,0.0,-0.22405790731779376,-0.1965279628957998,-0.2995903320472637,-0.17672560075895882,-0.6962530026298214,-0.05220811366278965
8156,7.0,300.60148,2044.8406,0.0,0.0,0.0,0.0,-0.08128929896564263,0.0,-0.2532128819851657,-0.15474462931710586,-0.2136229714279458,-0.16521254649770883,-0.7087926920248924,-0.048865628550912046
8157,7.0,301.10192,1752.2296,0.0,0.0,0.0,0.0,-0.08129926577522643,0.0,-0.19085362048078583,-0.16237664185282685,-0.17940377276077382,-0.16835647917299085,-0.7227712877544723,-0.05675437637047085
8158,7.0,300.33232999999996,1833.5407,0.0,0.0,0.0,0.0,-0.08130923258481026,0.0,-0.16951341826967184,-0.14839563458800886,-0.2394415566960418,-0.14492642836562486,-0.7032966714949773,-0.05004610038116555
8159,7.0,300.12464,2090.8424,0.0,0.0,0.0,0.0,-0.08131919939439408,0.0,-0.16239092867923685,-0.18552068255446583,-0.28765227003156874,-0.16486589337349683,-0.6902829127756194,-0.06348293357377774
8160,7.0,300.36516,1914.5366,0.0,0.0,0.0,0.0,-0.0813291662039779,0.0,-0.13295977243210788,-0.17165999873902282,-0.27735156951496875,-0.14510404097565385,-0.7208675529365883,-0.06647536914710814
8161,7.0,300.41927000000004,1539.2114,0.0,0.0,0.0,0.0,-0.08133913301356173,0.0,-0.13013570254839388,-0.13134787390802588,-0.2063982550349218,-0.16759566007040386,-0.6971586557017023,-0.05505053654556495
8162,7.0,300.41242,1300.1257,0.0,0.0,0.0,0.0,-0.08134909982314555,0.0,-0.12450753394043687,-0.11927425929395288,-0.15142394529437983,-0.14873243892124885,-0.6945416029459193,-0.05618566543384345
8163,7.0,299.64623,1705.0221,0.0,0.0,0.0,0.0,-0.08135906663272936,0.0,-0.15980743476676584,-0.16186041119187883,-0.19661628790701682,-0.19063328924654083,-0.6809091233179984,-0.03411637202052377
8164,7.0,298.58969,2276.1627,0.0,0.0,0.0,0.0,-0.08136903344231318,0.0,-0.1840309414624398,-0.1927959601274798,-0.3150697335599617,-0.2098651510470778,-0.7275744782635103,-0.04445472592408986
8165,7.0,300.38457999999997,2087.4039,0.0,0.0,0.0,0.0,-0.08137900025189701,0.0,-0.16370874149429485,-0.18260878415208381,-0.2882011374782377,-0.18087203295067983,-0.7000533795148893,-0.047375473039595155
8166,7.0,300.90128,1632.9079,0.0,0.0,0.0,0.0,-0.08138896706148084,0.0,-0.09341797808238661,-0.16151257256504986,-0.24143268433505075,-0.16578342173654984,-0.6824672182617704,-0.06018251050005134
8167,7.0,299.90242,1801.9076,0.0,0.0,0.0,0.0,-0.08139893387106464,0.0,-0.19866337734904882,-0.1270018111816029,-0.22206971810407478,-0.16267929965769684,-0.6854036778465763,-0.044711833070714364
8168,7.0,299.07256,2432.9792,0.0,0.0,0.0,0.0,-0.08140890068064847,0.0,-0.26723153149119877,-0.20518879918555782,-0.26714458450011774,-0.19058671013944384,-0.7150346774109283,-0.028179278655828272
8169,7.0,299.54575,2106.6986,0.0,0.0,0.0,0.0,-0.08141886749023229,0.0,-0.22972130663172777,-0.15147966391737885,-0.25918280971935176,-0.17969004631152685,-0.6955760299730093,-0.03608738157879726
8170,7.0,300.4613,1508.4165,0.0,0.0,0.0,0.0,-0.08142883429981611,0.0,-0.11599182546250189,-0.1228283657422159,-0.2197007596352768,-0.12409772493749188,-0.7088768829757013,-0.021936963963509776
8171,7.0,300.11021,1371.7838,0.0,0.0,0.0,0.0,-0.08143880110939994,0.0,-0.08907315962708642,-0.10453215934902091,-0.22338270784865677,-0.14045073042140785,-0.6896687312275044,-0.045714295096899664
8172,7.0,299.70541000000003,1852.1827,0.0,0.0,0.0,0.0,-0.08144876791898376,0.0,-0.15147720171963586,-0.15916505446836784,-0.25237503560997676,-0.17995852719052383,-0.7202236324980383,-0.030722287147303674
8173,7.0,300.12676,2240.9585,0.0,0.0,0.0,0.0,-0.08145873472856757,0.0,-0.24779618880557977,-0.1949744478424798,-0.23842480075069575,-0.1917168690359818,-0.7028732140131853,-0.04325570452425566
8174,7.0,300.40673,1993.3848,0.0,0.0,0.0,0.0,-0.08146870153815139,0.0,-0.2083905175140428,-0.17312054809566785,-0.2244281387718328,-0.20376479776001982,-0.6564716789962104,-0.028749015001556872
8175,7.0,300.03096,1528.0746,0.0,0.0,0.0,0.0,-0.08147866834773522,0.0,-0.13926855126473586,-0.15457715934057786,-0.17065081177192382,-0.19578411573238783,-0.6871151079279814,-0.051852397016433155
8176,7.0,299.26236,1596.9411,0.0,0.0,0.0,0.0,-0.08148863515731905,0.0,-0.12394751061016687,-0.1325956914061759,-0.22888702689689078,-0.2197610176187238,-0.7196561820445353,-0.05939494463457464
8177,7.0,298.56906000000004,2113.5827,0.0,0.0,0.0,0.0,-0.08149860196690285,0.0,-0.17358375537888285,-0.16559437966539284,-0.30329821946320373,-0.1890212792649478,-0.7055063673130574,-0.04993930078087525
8178,7.0,299.27997,1957.1083,0.0,0.0,0.0,0.0,-0.08150856877648668,0.0,-0.15371714305320083,-0.1887168989349078,-0.2524780324826418,-0.13787976028017287,-0.6996738565574334,-0.07568246477777772
8179,7.0,299.80625,1397.5931,0.0,0.0,0.0,0.0,-0.0815185355860705,0.0,-0.15096087986617884,-0.11053059994102091,-0.16334191456059183,-0.14165690334044787,-0.6942837003979663,-0.048838368070221655
8180,7.0,299.47785,1277.2776,0.0,0.0,0.0,0.0,-0.08152850239565432,0.0,-0.1256626390544369,-0.1077150514906479,-0.15488279610074185,-0.15029467805792984,-0.7199724781957514,-0.08085392204891083
8181,7.0,300.07896,1808.5269,0.0,0.0,0.0,0.0,-0.08153846920523815,0.0,-0.17538479729913184,-0.16535699543196483,-0.20900523608471083,-0.16737262345839182,-0.7023414704932064,-0.033996017160395665
8182,7.0,299.90809,2008.0747,0.0,0.0,0.0,0.0,-0.08154843601482197,0.0,-0.15875737329063286,-0.17385305699046083,-0.27779414702614774,-0.16832905049278382,-0.6679389140879384,-0.05704632614828404
8183,7.0,300.69457,1877.6903,0.0,0.0,0.0,0.0,-0.0815584028244058,0.0,-0.13833639157023886,-0.17787934811782483,-0.25455522558514476,-0.16654469680168185,-0.6849827332250323,-0.03368239092319317
8184,7.0,301.16853,1694.2085,0.0,0.0,0.0,0.0,-0.0815683696339896,0.0,-0.14807567047143086,-0.15954350338071785,-0.2073779057616058,-0.19213468271471681,-0.7166238386027663,-0.06953934321724883
8185,7.0,300.4516,1812.2020000000002,0.0,0.0,0.0,0.0,-0.08157833644357343,0.0,-0.2067364272557968,-0.13747212976494289,-0.20665560029531982,-0.18628032628693683,-0.7087861058992423,-0.03502614091431097
8186,7.0,300.8067,2334.1709,0.0,0.0,0.0,0.0,-0.08158830325315726,0.0,-0.24665221931017875,-0.2074727561034668,-0.25540468380647974,-0.17706867711031782,-0.6973941451574432,-0.05219387344588425
8187,7.0,300.6989,2271.3274,0.0,0.0,0.0,0.0,-0.08159827006274106,0.0,-0.2152541622339318,-0.17042762317239685,-0.3047450190159917,-0.1936803146822588,-0.7016574456156984,-0.02410796173377058
8188,7.0,299.9127,1569.4498,0.0,0.0,0.0,0.0,-0.0816082368723249,0.0,-0.11599804681811589,-0.1190818228349609,-0.24199367025291577,-0.17579554862466984,-0.7174812812348894,-0.037364822456870866
8189,7.0,299.72893,1364.9955,0.0,0.0,0.0,0.0,-0.08161820368190871,0.0,-0.08761989553866041,-0.10441948593790089,-0.22288517165205377,-0.16317134403875785,-0.7219047866664553,-0.047083562778535856
8190,7.0,299.60922,1892.6748,0.0,0.0,0.0,0.0,-0.08162817049149253,0.0,-0.2029304673626778,-0.13210341397759187,-0.24029200790247476,-0.15118901312619387,-0.6856725538931123,-0.04357178789295066
8191,7.0,299.02772000000004,2296.4686,0.0,0.0,0.0,0.0,-0.08163813730107636,0.0,-0.2359407573355398,-0.1991073835428688,-0.26302099096565074,-0.17550960944644983,-0.7055245855498553,-0.057934347655174946
8192,7.0,300.00982,2009.9128,0.0,0.0,0.0,0.0,-0.08164810411066017,0.0,-0.2004767403905138,-0.17229408051910183,-0.2381924625027658,-0.18284977555586782,-0.7109746247902323,-0.05808373517041835
8193,7.0,300.17575,1706.165,0.0,0.0,0.0,0.0,-0.081658070920244,0.0,-0.14524034337910585,-0.15312157490942285,-0.22026962863891983,-0.17787893268528382,-0.7102886240750294,-0.045489747728988554
8194,7.0,300.91573,1702.4972,0.0,0.0,0.0,0.0,-0.08166803772982781,0.0,-0.11738804357029789,-0.16892210577631384,-0.23120649823080477,-0.15620905942163385,-0.6734645316532744,-0.05577156025047445
8195,7.0,300.22919,2116.0073,0.0,0.0,0.0,0.0,-0.08167800453941164,0.0,-0.18747821082015884,-0.18737842595031082,-0.26835673559474776,-0.18479412143775983,-0.6980937943514933,-0.04566007709729875
8196,7.0,300.87012999999996,2287.109,0.0,0.0,0.0,0.0,-0.08168797134899547,0.0,-0.2300581413624708,-0.19614810556581083,-0.2690178002249898,-0.18598118445991382,-0.7335664239223693,-0.05732533165606975
8197,7.0,299.92208,1666.6921,0.0,0.0,0.0,0.0,-0.08169793815857927,0.0,-0.17845332390197183,-0.13891003298185287,-0.18926941408193682,-0.17703005201650582,-0.7398421100067313,-0.04914346578133245
8198,7.0,300.11954,1259.462,0.0,0.0,0.0,0.0,-0.0817079049681631,0.0,-0.09653032977855182,-0.09749389009364781,-0.18882078746766082,-0.16862354150184783,-0.7256346210795612,-0.07860416840137742
8199,7.0,299.18737000000004,1671.9484,0.0,0.0,0.0,0.0,-0.08171787177774692,0.0,-0.12252285057206388,-0.15184845655627585,-0.2338592477876108,-0.17717935441874083,-0.7061355449626523,-0.06006133592059235
8200,7.0,299.77833,2227.8793,0.0,0.0,0.0,0.0,-0.08172783858733074,0.0,-0.16319454746604786,-0.18486084395684482,-0.32916428563098565,-0.2092566943620278,-0.7029237853256763,-0.04899320687100305
8201,7.0,298.89034,1893.2774,0.0,0.0,0.0,0.0,-0.08173780539691457,0.0,-0.1935570021450888,-0.14978815433293985,-0.2321638979852928,-0.17272950448457483,-0.6834150225378114,-0.05559870687616515
8202,7.0,299.556,1482.7098,0.0,0.0,0.0,0.0,-0.08174777220649838,0.0,-0.12631054156587987,-0.14996680045807084,-0.17442941391234285,-0.16592661424068184,-0.6646114108920395,-0.04850727542779536
8203,7.0,300.05253999999996,1681.8743,0.0,0.0,0.0,0.0,-0.08175773901608221,0.0,-0.18382967959507684,-0.12874102458074987,-0.1986770866229018,-0.15173536771261487,-0.6925259141244864,-0.06447351929554093
8204,7.0,300.64177,2257.2683,0.0,0.0,0.0,0.0,-0.08176770582566602,0.0,-0.1986708753997888,-0.21872141288362276,-0.2687608906621347,-0.17157788495091883,-0.7571024302926923,-0.016668838579836285
8205,7.0,300.10753,2326.1691,0.0,0.0,0.0,0.0,-0.08177767263524985,0.0,-0.21724668815807877,-0.2027741127397468,-0.28707653119224774,-0.17395411855543483,-0.7751944465257352,-0.04747012883743695
8206,7.0,300.12004,1854.8255,0.0,0.0,0.0,0.0,-0.08178763944483368,0.0,-0.14821273281245784,-0.14007340621666886,-0.2755344979781377,-0.16863542692552086,-0.7125973650903843,-0.012030226231540887
8207,7.0,299.4195,1392.7276,0.0,0.0,0.0,0.0,-0.08179760625441748,0.0,-0.12465689713767789,-0.12480288621208588,-0.17389462050956284,-0.16492275696910885,-0.7057859128831463,-0.06174631409488674
8208,7.0,300.77231,1789.9352,0.0,0.0,0.0,0.0,-0.08180757306400131,0.0,-0.16323281792232486,-0.15582211947344585,-0.22504065858978378,-0.21100553363712482,-0.6852330363972354,-0.03596768533123417
8209,7.0,300.32507000000004,2357.6893,0.0,0.0,0.0,0.0,-0.08181753987358513,0.0,-0.23666955773496678,-0.21275228561701579,-0.26725684247869674,-0.19823167201144282,-0.6940065562306144,-0.06718919472330724
8210,7.0,299.79211000000004,2076.6182,0.0,0.0,0.0,0.0,-0.08182750668316895,0.0,-0.16064537233446385,-0.17687852046405084,-0.2937161665800287,-0.16698911842804284,-0.6564940515584184,-0.05597442913249604
8211,7.0,298.9457,1514.7825,0.0,0.0,0.0,0.0,-0.08183747349275278,0.0,-0.07836100053637864,-0.16322797458684685,-0.2188670878504998,-0.14334482601953286,-0.6881928311318444,-0.06894886564197322
8212,7.0,299.29598,1591.8479,0.0,0.0,0.0,0.0,-0.0818474403023366,0.0,-0.1222104959637369,-0.13733075097848987,-0.22434078648071176,-0.15684613028950786,-0.7278931758174633,-0.03616550721450767
8213,7.0,299.69282000000004,2179.1894,0.0,0.0,0.0,0.0,-0.08185740711192042,0.0,-0.24226502876219677,-0.17831909866122483,-0.24183504594976077,-0.15994473015531585,-0.7377489683476544,-0.04252906032104146
8214,7.0,299.20492,2202.3025,0.0,0.0,0.0,0.0,-0.08186737392150423,0.0,-0.24698104936513174,-0.17959562153470784,-0.24286829760673476,-0.15889822518703386,-0.6847125804833704,-0.04679600746640636
8215,7.0,299.59468,1671.8797,0.0,0.0,0.0,0.0,-0.08187734073108806,0.0,-0.16087716342733985,-0.14295802792635887,-0.2043744804776908,-0.15791444039994185,-0.7004868783051724,-0.051592938116326544
8216,7.0,300.65492,1482.378,0.0,0.0,0.0,0.0,-0.08188730754067189,0.0,-0.09011203482211541,-0.1320873843610099,-0.22840648290446477,-0.2060524935707978,-0.7281163846819924,-0.028282390025754577
8217,7.0,300.14898999999997,1801.7396,0.0,0.0,0.0,0.0,-0.08189727435025569,0.0,-0.13053935099073088,-0.14899641083730086,-0.2681480871341557,-0.2156355799690748,-0.7462961281086933,-0.026474032439783576
8218,7.0,300.45114,2186.3763,0.0,0.0,0.0,0.0,-0.08190724115983952,0.0,-0.21074878619428583,-0.16769324618753484,-0.2861617588694667,-0.18848054821658183,-0.6975573290860484,-0.04876646986962586
8219,7.0,300.75719,1983.6357,0.0,0.0,0.0,0.0,-0.08191720796942334,0.0,-0.1906662401397928,-0.16431598227922484,-0.24799349899755274,-0.17998192313533284,-0.7018114393658964,-0.05340028650519795
8220,7.0,300.42345,1461.2457,0.0,0.0,0.0,0.0,-0.08192717477900716,0.0,-0.15547493945918187,-0.1069200655946889,-0.18178721057350083,-0.17321156835215082,-0.6931040847640474,-0.05836016499644985
8221,7.0,299.79344,1690.2779999999998,0.0,0.0,0.0,0.0,-0.08193714158859099,0.0,-0.14223487132998888,-0.14901138667377886,-0.22255604775457177,-0.18077599710620185,-0.7172296608375562,-0.054502747197002356
8222,7.0,298.64808,2173.4562,0.0,0.0,0.0,0.0,-0.0819471083981748,0.0,-0.19700231593011483,-0.18261953473564482,-0.28105456293292574,-0.15375381257431986,-0.6620962303013104,-0.04299372364465016
8223,7.0,299.42436000000004,2203.5473,0.0,0.0,0.0,0.0,-0.08195707520775863,0.0,-0.18684639872030384,-0.18723648987630281,-0.29574046802731174,-0.16246484527403185,-0.6952409684299413,-0.03355557558042747
8224,7.0,300.28567000000004,1809.2220000000002,0.0,0.0,0.0,0.0,-0.08196704201734244,0.0,-0.16733408955708884,-0.15803574670191384,-0.2245884653351558,-0.15054598434773186,-0.7292670314955523,-0.031540930406597466
8225,7.0,299.46999,1593.4921,0.0,0.0,0.0,0.0,-0.08197700882692627,0.0,-0.16118870743558686,-0.13647056243859587,-0.18672254916058081,-0.1769943248179798,-0.7560051716269013,-0.03818351435216946
8226,7.0,299.95476,1875.5213,0.0,0.0,0.0,0.0,-0.0819869756365101,0.0,-0.2012426865386068,-0.16282200580178086,-0.2060469713577528,-0.17808912128602783,-0.6959954749844053,-0.04580996718459175
8227,7.0,300.83099,2284.926,0.0,0.0,0.0,0.0,-0.0819969424460939,0.0,-0.2056701335130618,-0.2112838937045968,-0.2776064221801207,-0.17054737920171584,-0.7364219856191914,-0.07696586153993913
8228,7.0,299.93064,1949.7861,0.0,0.0,0.0,0.0,-0.08200690925567773,0.0,-0.15260637776357686,-0.14728285293068585,-0.29279705754681973,-0.18887858325336482,-0.7090694714222083,-0.05348226249128835
8229,7.0,300.72494,1580.0582,0.0,0.0,0.0,0.0,-0.08201687606526155,0.0,-0.1110571556204879,-0.14879224094215085,-0.2204488523166078,-0.17654560701119484,-0.7360872483161554,-0.049552866444487156
8230,7.0,300.38187999999997,1601.7346,0.0,0.0,0.0,0.0,-0.08202684287484537,0.0,-0.12606660160430488,-0.12004585937760387,-0.24077485197262777,-0.15695020120727887,-0.6896844163390524,-0.047456283788070555
8231,7.0,300.51802000000004,2059.4212,0.0,0.0,0.0,0.0,-0.0820368096844292,0.0,-0.2125975927242488,-0.15718386681283983,-0.25623115138304575,-0.17849819061639985,-0.6907486329190824,-0.044077662124626556
8232,7.0,299.57613,2288.5154,0.0,0.0,0.0,0.0,-0.08204677649401301,0.0,-0.2228239105510078,-0.20450320377039483,-0.2683244230490588,-0.18698005654099484,-0.7047571499241153,-0.026012981352781375
8233,7.0,299.12959,1811.9843,0.0,0.0,0.0,0.0,-0.08205674330359684,0.0,-0.16776817603242983,-0.13716489206962088,-0.24586490371747677,-0.16925613380427984,-0.7258665337624493,-0.05632903221699265
8234,7.0,299.8556,1667.9477,0.0,0.0,0.0,0.0,-0.08206671011318065,0.0,-0.13049958092430586,-0.16426053723375283,-0.2122543441203728,-0.16799018926184084,-0.6634278537152314,-0.035932104040722564
8235,7.0,300.54679,2003.2386,0.0,0.0,0.0,0.0,-0.08207667692276448,0.0,-0.1801078194602578,-0.19004690114866882,-0.23877978279072976,-0.15349183676096487,-0.7095762687247253,-0.04463431335856376
8236,7.0,299.63366,2127.7986,0.0,0.0,0.0,0.0,-0.0820866437323483,0.0,-0.2398789058367048,-0.15126016354821586,-0.2556585637515358,-0.18836733778290882,-0.7155197911613054,-0.008678856030861402
8237,7.0,300.29329,1938.1993,0.0,0.0,0.0,0.0,-0.08209661054193211,0.0,-0.2141644826788888,-0.14655589664644086,-0.22844381103814876,-0.18440005834136883,-0.7480020359770533,-0.04592727013541866
8238,7.0,300.19394,1573.3084,0.0,0.0,0.0,0.0,-0.08210657735151594,0.0,-0.15176046591759185,-0.12173329569664088,-0.2047526963425178,-0.17098704868510783,-0.7163355081543102,-0.04892153867817996
8239,7.0,300.63515,1418.6135,0.0,0.0,0.0,0.0,-0.08211654416109976,0.0,-0.1017119904781919,-0.12058384451819888,-0.2089272563570148,-0.16650462276022684,-0.7098165103234353,-0.09504895306610131
8240,7.0,300.66251,1773.1041,0.0,0.0,0.0,0.0,-0.08212651097068357,0.0,-0.12433020504043588,-0.15717873976733385,-0.2574704069178508,-0.19038684655721883,-0.7212256659194313,-0.06464504024596875
8241,7.0,299.44726,1877.2568,0.0,0.0,0.0,0.0,-0.08213647778026739,0.0,-0.16643576228343085,-0.14653329103670987,-0.2576701489100638,-0.17593334050576884,-0.7084659897951494,-0.05884272029032434
8242,7.0,299.14569,1682.2593,0.0,0.0,0.0,0.0,-0.08214644458985122,0.0,-0.14665726218644487,-0.15502267527704686,-0.2096848634567848,-0.16781538335458884,-0.6733098995555133,-0.05631953806355564
8243,7.0,298.95603,1391.9167,0.0,0.0,0.0,0.0,-0.08215641139943503,0.0,-0.12250577730787889,-0.14356959528921584,-0.15703254804290587,-0.15054965231309386,-0.7031766013581273,-0.06340472079855873
8244,7.0,298.96252000000004,1912.2749,0.0,0.0,0.0,0.0,-0.08216637820901886,0.0,-0.17432874751490784,-0.17792005037434183,-0.2290350323389978,-0.19258389701405082,-0.7204801671583563,-0.024425308625340276
8245,7.0,299.57952,2576.6088,0.0,0.0,0.0,0.0,-0.08217634501860267,0.0,-0.22467059938826178,-0.23157466265463977,-0.3269794651028607,-0.18288854250469383,-0.7449911734374043,-0.030405630279052073
8246,7.0,299.78494,2096.2213,0.0,0.0,0.0,0.0,-0.0821863118281865,0.0,-0.17245285680977185,-0.20343645406511482,-0.26130960141424975,-0.17924248360985584,-0.6986011692065673,-0.047672472855906756
8247,7.0,301.08783,1544.0651,0.0,0.0,0.0,0.0,-0.08219627863777032,0.0,-0.11464103135668888,-0.13960979363341386,-0.2151063898393478,-0.16721141536748185,-0.7058722215266644,-0.04289420931257886
8248,7.0,301.15362999999996,1668.3495,0.0,0.0,0.0,0.0,-0.08220624544735414,0.0,-0.17119915232854083,-0.13040723331019188,-0.2055302036742518,-0.17375646385842783,-0.7118886473079393,-0.048447707467666454
8249,7.0,300.74658,2056.5547,0.0,0.0,0.0,0.0,-0.08221621225693797,0.0,-0.23687541975778378,-0.15457828404818885,-0.2336875728231678,-0.18170361744025085,-0.7447399583401113,-0.03585951075055817
8250,7.0,300.70172,2161.901,0.0,0.0,0.0,0.0,-0.08222617906652177,0.0,-0.2251667069022238,-0.17728645495431083,-0.25471074934299376,-0.17053786478327684,-0.6972497266206903,-0.07594376272681584
8251,7.0,300.82133999999996,1874.8648,0.0,0.0,0.0,0.0,-0.0822361458761056,0.0,-0.13383362971585086,-0.17328491752688982,-0.26279351631820075,-0.16806438956666384,-0.7171934776764853,-0.04775863559141036
8252,7.0,299.66775,1536.7459,0.0,0.0,0.0,0.0,-0.08224611268568942,0.0,-0.09834900225054082,-0.13451364212296288,-0.23426974580062376,-0.17208378046084685,-0.7200891134147623,-0.058443666937190844
8253,7.0,299.99646,1876.7997,0.0,0.0,0.0,0.0,-0.08225607949527323,0.0,-0.15629590508770486,-0.15909481597143585,-0.25510952405234977,-0.19212816751657383,-0.7201713285278764,-0.03317933960629587
8254,7.0,299.82872000000003,2293.2768,0.0,0.0,0.0,0.0,-0.08226604630485705,0.0,-0.22913559741142278,-0.2077804497613338,-0.26018282677304577,-0.18515869895624082,-0.6624718927758854,-0.04491635659014925
8255,7.0,299.26989,1976.751,0.0,0.0,0.0,0.0,-0.08227601311444088,0.0,-0.19039616845813884,-0.17231344372851284,-0.23817334247337876,-0.20462502682991782,-0.6931855196745843,-0.02104648532512638
8256,7.0,299.81041,1435.8717,0.0,0.0,0.0,0.0,-0.08228597992402471,0.0,-0.13181222616385385,-0.12205635022602389,-0.18260057682627384,-0.18088108127407285,-0.7374399675971584,-0.05409073640159004
8257,7.0,300.38597000000004,1659.0259,0.0,0.0,0.0,0.0,-0.08229594673360852,0.0,-0.1167936507966359,-0.15551522628315786,-0.23199357064348278,-0.18694454212498982,-0.7449440674402553,-0.03540880494707697
8258,7.0,300.40009,2130.355,0.0,0.0,0.0,0.0,-0.08230591354319235,0.0,-0.19486779313695382,-0.18157434699249284,-0.27113257477370173,-0.14549889440712285,-0.7161438316328933,-0.07950287868357322
8259,7.0,300.5527,2208.9578,0.0,0.0,0.0,0.0,-0.08231588035277615,0.0,-0.18712521475032082,-0.1928243817927848,-0.2915184271131287,-0.16832735836511684,-0.7131387344863134,-0.06278830503397324
8260,7.0,300.61131,1913.9759,0.0,0.0,0.0,0.0,-0.08232584716235998,0.0,-0.1973327773177288,-0.16533221133451884,-0.21913588283702778,-0.18499338720242584,-0.7199060191216923,-0.07504375041824153
8261,7.0,300.46868,1675.4626,0.0,0.0,0.0,0.0,-0.08233581397194381,0.0,-0.16056321801635584,-0.1281772927551139,-0.22055827319490678,-0.1957359154251308,-0.7246601885908923,-0.043226022375826255
8262,7.0,300.90334,1791.5059,0.0,0.0,0.0,0.0,-0.08234578078152763,0.0,-0.16992143381993982,-0.16377472434080684,-0.2108768914044288,-0.17141951396028884,-0.6678713303062683,-0.057328438280876345
8263,7.0,300.69567,1990.0046,0.0,0.0,0.0,0.0,-0.08235574759111144,0.0,-0.13898163936641988,-0.17256578353341684,-0.29336427495279976,-0.19064045292474782,-0.6872322700370443,-0.02976367757219627
8264,7.0,299.77662000000004,1845.6689999999999,0.0,0.0,0.0,0.0,-0.08236571440069526,0.0,-0.14874958311294087,-0.14753158556523385,-0.2647561310993958,-0.18665288821620582,-0.7410344520619063,-0.03064444420837117
8265,7.0,300.49949,1760.0379999999998,0.0,0.0,0.0,0.0,-0.08237568121027909,0.0,-0.12791267235899786,-0.16017045188009285,-0.24692447961204878,-0.1837025369725288,-0.7343097441957294,-0.016077637543989286
8266,7.0,299.92548999999997,1788.0314,0.0,0.0,0.0,0.0,-0.08238564801986292,0.0,-0.2097274604909888,-0.14781565023076887,-0.18597378773418383,-0.16983843850424885,-0.7009743022657773,-0.05424974979278345
8267,7.0,300.63099,2250.4318,0.0,0.0,0.0,0.0,-0.08239561482944673,0.0,-0.23992570785882378,-0.2015696218158728,-0.24257973411075578,-0.16582466101561985,-0.6863139310739114,-0.05327076578466525
8268,7.0,299.81834,2315.1155,0.0,0.0,0.0,0.0,-0.08240558163903056,0.0,-0.23606285397258978,-0.19531631842621983,-0.27235814129965574,-0.18376562192375484,-0.6986313741920483,-0.05828561208059204
8269,7.0,300.00521000000003,1878.2112,0.0,0.0,0.0,0.0,-0.08241554844861437,0.0,-0.16861686418368885,-0.14104957136300886,-0.26126286018713674,-0.15959869511366487,-0.7178806233643013,-0.05211548639164804
8270,7.0,299.96218999999996,1579.0143,0.0,0.0,0.0,0.0,-0.08242551525819819,0.0,-0.11244434566989289,-0.1286212381539279,-0.23891534552160876,-0.14479151411480987,-0.7127116293041613,-0.06556889939564653
8271,7.0,300.72385,1545.736,0.0,0.0,0.0,0.0,-0.08243548206778202,0.0,-0.11347595586170489,-0.11919435439106689,-0.23719482658680677,-0.14933391431310988,-0.6858844650190263,-0.04950274400179046
8272,7.0,300.71849,1832.8024,0.0,0.0,0.0,0.0,-0.08244544887736584,0.0,-0.18250617231445682,-0.1269365477426619,-0.24768343433445178,-0.19203731951260783,-0.7344462188516983,-0.04188290161302056
8273,7.0,300.7981,1958.2235,0.0,0.0,0.0,0.0,-0.08245541568694965,0.0,-0.19101898289710584,-0.14532399730736187,-0.2589080770872378,-0.1936865259053718,-0.7047256581110073,-0.017669783770621884
8274,7.0,300.00082000000003,1711.3761,0.0,0.0,0.0,0.0,-0.08246538249653347,0.0,-0.16569498526782186,-0.15108696870862284,-0.20343363722983682,-0.18504948072796182,-0.7009826514466013,-0.04576964591011236
8275,7.0,299.55986,1706.2796,0.0,0.0,0.0,0.0,-0.0824753493061173,0.0,-0.14358658749339287,-0.1384794118218539,-0.23660039328314078,-0.1804575022022688,-0.6953459107427984,-0.03968512060286646
8276,7.0,299.78527,2185.7551,0.0,0.0,0.0,0.0,-0.08248531611570113,0.0,-0.1781998999194608,-0.2022523193357498,-0.2839627629724427,-0.18090321065625684,-0.7432342180290064,-0.04358334401034116
8277,7.0,299.74494,2339.8726,0.0,0.0,0.0,0.0,-0.08249528292528494,0.0,-0.2157596929738238,-0.19454113143721483,-0.3009620193701387,-0.16050653680576185,-0.7204591219537794,-0.023454092192488677
8278,7.0,299.52642000000003,1908.0278,0.0,0.0,0.0,0.0,-0.08250524973486877,0.0,-0.20616369776927282,-0.16984138706203983,-0.20398770264951882,-0.14207248786896287,-0.7340935470218923,-0.05973860867099164
8279,7.0,299.30562000000003,1466.5626,0.0,0.0,0.0,0.0,-0.08251521654445258,0.0,-0.1282515639874439,-0.13046017562791687,-0.18708666058401582,-0.12468016135997388,-0.7028482171332183,-0.05132274687116075
8280,7.0,299.40161,1692.8433,0.0,0.0,0.0,0.0,-0.0825251833540364,0.0,-0.14248876140754585,-0.14081385899224586,-0.23127947250300676,-0.17697603565367484,-0.7211305014700393,-0.056712719632359646
8281,7.0,299.97385,2134.1695,0.0,0.0,0.0,0.0,-0.08253515016362023,0.0,-0.17438047393251283,-0.18248981845784282,-0.29186394539722876,-0.19708056923533782,-0.6981863446156273,-0.03490065698217667
8282,7.0,300.46822000000003,2060.7444,0.0,0.0,0.0,0.0,-0.08254511697320405,0.0,-0.17174227464714284,-0.17229854895204286,-0.28237401721314576,-0.1804632574628368,-0.6941981111620192,-0.06035534563585884
8283,7.0,300.50366,1777.5849,0.0,0.0,0.0,0.0,-0.08255508378278786,0.0,-0.14086051915935086,-0.16291773767122886,-0.2365631766069678,-0.18707835193319583,-0.6970956619429853,-0.05191713356532216
8284,7.0,299.84491,1681.7334,0.0,0.0,0.0,0.0,-0.08256505059237168,0.0,-0.16951606285243284,-0.14126108732138387,-0.2004278004106838,-0.17471213095524482,-0.7375731795878053,-0.047481380979797455
8285,7.0,300.65963,2169.5474,0.0,0.0,0.0,0.0,-0.08257501740195551,0.0,-0.2080801995384168,-0.1992349314654568,-0.25217311513004875,-0.19197591655654783,-0.7306851358055083,-0.04811133072596866
8286,7.0,300.45257999999995,2335.7159,0.0,0.0,0.0,0.0,-0.08258498421153934,0.0,-0.24413814316205876,-0.19557778761452482,-0.2702833901298937,-0.16545893852452584,-0.6973652776620943,-0.05523072078434775
8287,7.0,300.07661,1882.6792,0.0,0.0,0.0,0.0,-0.08259495102112314,0.0,-0.14890911934118586,-0.17258825742063483,-0.25079009967105576,-0.17697678545874884,-0.7049856175566633,-0.05025682499121245
8288,7.0,300.47651,1469.2179999999998,0.0,0.0,0.0,0.0,-0.08260491783070698,0.0,-0.0959412748064166,-0.14360458281516886,-0.2070597350977048,-0.14338462648346087,-0.7347550473496773,-0.07251580996900324
8289,7.0,300.33516000000003,1722.7721,0.0,0.0,0.0,0.0,-0.08261488464029079,0.0,-0.13173640465887088,-0.15154999360681987,-0.24039331264747277,-0.18390482222249283,-0.7466412309602524,-0.03160867833478367
8290,7.0,300.45637999999997,2148.907,0.0,0.0,0.0,0.0,-0.08262485144987461,0.0,-0.2293892341764548,-0.17473680359517982,-0.24908804215307578,-0.14373366074540786,-0.7250257084319663,-0.06848546584123923
8291,7.0,299.98253,2007.2118,0.0,0.0,0.0,0.0,-0.08263481825945844,0.0,-0.18927035640452983,-0.15655747560101985,-0.2643144351158037,-0.1873691547118958,-0.7361936395766553,-0.034283655559033364
8292,7.0,299.48978,1623.3498,0.0,0.0,0.0,0.0,-0.08264478506904226,0.0,-0.14743995735869084,-0.13358639669145086,-0.21243145010535178,-0.18814603382856782,-0.7507139796047012,-0.07117462552713864
8293,7.0,299.61342,1715.769,0.0,0.0,0.0,0.0,-0.08265475187862607,0.0,-0.13532948070597986,-0.15737120662382886,-0.2288502459182608,-0.20198237937660882,-0.7058790812298413,-0.034317854776408564
8294,7.0,299.8146,2022.5764,0.0,0.0,0.0,0.0,-0.08266471868820989,0.0,-0.1874911297589338,-0.18239020584051183,-0.24493140653284776,-0.17859764111371482,-0.6646882253821204,-0.08513999935616372
8295,7.0,299.54616,2065.3592,0.0,0.0,0.0,0.0,-0.08267468549779372,0.0,-0.20912772788929979,-0.19056119650192582,-0.22812870038954977,-0.18246680754807182,-0.6552205380377324,-0.06482461856119173
8296,7.0,299.82635,1724.1816,0.0,0.0,0.0,0.0,-0.08268465230737755,0.0,-0.16783085568361583,-0.14867032669011884,-0.20760698134421382,-0.1940718547859008,-0.7285851243107533,-0.04720410812968275
8297,7.0,300.73616,1405.7972,0.0,0.0,0.0,0.0,-0.08269461911696135,0.0,-0.12506275446523288,-0.12427642172512787,-0.17798805972105383,-0.17374331187212982,-0.7230561630200872,-0.06373392372954854
8298,7.0,301.00808,1828.4145,0.0,0.0,0.0,0.0,-0.08270458592654518,0.0,-0.17856382895787784,-0.14218240523981085,-0.23504611829224578,-0.17405126897502285,-0.7331479617635703,-0.03657770748768867
8299,7.0,301.05916,2280.174,0.0,0.0,0.0,0.0,-0.082714552736129,0.0,-0.2097764308683218,-0.18191139450575683,-0.3014281245486397,-0.15957846050916785,-0.7091078026734913,-0.04982950905303966
8300,7.0,300.12705,2097.7039999999997,0.0,0.0,0.0,0.0,-0.08272451954571282,0.0,-0.1669884800804798,-0.17492034371829385,-0.2957408226648467,-0.18246485197537882,-0.7476972503469733,-0.02322865721748998
8301,7.0,300.17502,1814.6438,0.0,0.0,0.0,0.0,-0.08273448635529665,0.0,-0.16945570354397585,-0.15373019371448887,-0.22842049615334778,-0.16467533142718985,-0.7360665374841112,-0.050150275663696856
8302,7.0,299.38847000000004,1821.4199,0.0,0.0,0.0,0.0,-0.08274445316488047,0.0,-0.17944294500963984,-0.14615328171920586,-0.2280699420162508,-0.14977249961889486,-0.7175897597905952,-0.03450715623959117
8303,7.0,299.42407000000003,1940.5279999999998,0.0,0.0,0.0,0.0,-0.08275441997446428,0.0,-0.21633552300565378,-0.16628272098832683,-0.2072538130218588,-0.16124331148347584,-0.7001743413118273,-0.06204701936681404
8304,7.0,299.21573,1974.879,0.0,0.0,0.0,0.0,-0.0827643867840481,0.0,-0.18129380843730583,-0.16286178600070683,-0.2561583088333568,-0.18649949228356683,-0.7195368921102624,-0.027207342815405676
8305,7.0,299.52957000000004,1762.9005,0.0,0.0,0.0,0.0,-0.08277435359363193,0.0,-0.13200537189791586,-0.16816037474863685,-0.2357119857279618,-0.19571787957335082,-0.6975229799076583,-0.059603751162182236
8306,7.0,299.85276,1674.8759,0.0,0.0,0.0,0.0,-0.08278432040321576,0.0,-0.12744059913740788,-0.15012349958603585,-0.23155635322533277,-0.1882322208820738,-0.6379937563300814,-0.04271888259477546
8307,7.0,300.48575,1757.5810000000001,0.0,0.0,0.0,0.0,-0.08279428721279956,0.0,-0.17593637012356783,-0.14881880835977285,-0.2095055384540868,-0.16499932827916586,-0.6774636372804554,-0.06121718678666594
8308,7.0,300.24121,2062.5323,0.0,0.0,0.0,0.0,-0.0828042540223834,0.0,-0.16017158672020484,-0.1972983774768338,-0.2694883637039307,-0.19563728566039681,-0.7179477511834264,-0.04527397713344366
8309,7.0,300.30101,2138.0039,0.0,0.0,0.0,0.0,-0.08281422083196721,0.0,-0.2174324270339098,-0.17228950062864984,-0.26017788211255777,-0.19211217842999584,-0.7307566611300673,-0.024835148025788276
8310,7.0,300.12358,1907.0071,0.0,0.0,0.0,0.0,-0.08282418764155103,0.0,-0.13127021842036188,-0.17081813989343786,-0.27759419225141374,-0.17183408523870383,-0.7272642514803933,-0.027100540175365076
8311,7.0,300.0452,1751.2554,0.0,0.0,0.0,0.0,-0.08283415445113486,0.0,-0.14971221123794484,-0.17953869714408982,-0.20308699423812582,-0.13398223297551687,-0.7167964660223034,-0.058441691099495846
8312,7.0,300.05199,2076.5822,0.0,0.0,0.0,0.0,-0.08284412126071868,0.0,-0.18065723406198084,-0.16470415839253486,-0.28586772382294773,-0.17595400067530784,-0.7414453553749593,-0.02359824019146498
8313,7.0,300.13338999999996,2162.845,0.0,0.0,0.0,0.0,-0.08285408807030249,0.0,-0.23598458040236478,-0.20541788490066681,-0.2160484084573178,-0.16054888052744085,-0.7340502711101213,-0.06740107443846814
8314,7.0,298.8746,1787.9986,0.0,0.0,0.0,0.0,-0.08286405487988631,0.0,-0.16235256703045084,-0.14574262158617687,-0.23541173945832977,-0.17138656306703684,-0.6789095046431514,-0.04208410471187776
8315,7.0,299.03511000000003,1447.7499,0.0,0.0,0.0,0.0,-0.08287402168947014,0.0,-0.14828812875239886,-0.12798754140888688,-0.16380414912371086,-0.15786022138709085,-0.6884773517599244,-0.07267776279873674
8316,7.0,299.27359,1684.1477,0.0,0.0,0.0,0.0,-0.08288398849905397,0.0,-0.13274065709798286,-0.13888681942206188,-0.24031137111188577,-0.1871341009536978,-0.7303809885229914,-0.024777848732633275
8317,7.0,300.10576000000003,2068.3579,0.0,0.0,0.0,0.0,-0.08289395530863777,0.0,-0.17369296347466084,-0.16931231852232484,-0.28572387270625077,-0.21669054557569178,-0.7262454082398413,-0.050369297778812654
8318,7.0,300.66777,2206.6363,0.0,0.0,0.0,0.0,-0.0829039221182216,0.0,-0.20946345817743378,-0.19248491261178183,-0.26881396470237273,-0.16649807716458084,-0.6899313149909193,-0.027819196928040975
8319,7.0,300.77474,2044.9074,0.0,0.0,0.0,0.0,-0.08291388892780542,0.0,-0.1964861460641728,-0.19162487605940282,-0.23348977627114678,-0.19728769782077982,-0.6910681613381174,-0.05669073413168985
8320,7.0,300.76187999999996,1831.01,0.0,0.0,0.0,0.0,-0.08292385573738924,0.0,-0.17794656712945883,-0.14640497304404587,-0.23222976937429377,-0.18107117712533383,-0.7072635659014793,-0.015779302264045884
8321,7.0,301.63712000000004,2103.237,0.0,0.0,0.0,0.0,-0.08293382254697307,0.0,-0.20793521358160783,-0.18864805872311383,-0.24274823760238579,-0.18905134239541482,-0.7462796121320633,-0.046351692231305856
8322,7.0,300.36815,2234.0017,0.0,0.0,0.0,0.0,-0.08294378935655689,0.0,-0.20502781400966982,-0.17330363225623685,-0.3007492976441447,-0.14970694233742488,-0.6975578357110984,-0.036305429960566966
8323,7.0,300.10876,1747.0388,0.0,0.0,0.0,0.0,-0.08295375616614072,0.0,-0.15302524522241587,-0.15714803828930385,-0.2208828881294438,-0.16209031763956883,-0.7455153581116373,-0.07745582470529473
8324,7.0,299.7897,1276.4998,0.0,0.0,0.0,0.0,-0.08296372297572452,0.0,-0.08789600619091041,-0.12023397939116988,-0.17989408448416383,-0.15567169236359985,-0.7432285843584503,-0.06571649041846264
8325,7.0,299.25372999999996,1454.8993,0.0,0.0,0.0,0.0,-0.08297368978530835,0.0,-0.14421466070037886,-0.11562690343898689,-0.18241148409261182,-0.16254438540688185,-0.7328642922655743,-0.07092851721034964
8326,7.0,299.79242,2003.7521,0.0,0.0,0.0,0.0,-0.08298365659489218,0.0,-0.17930025913055783,-0.18619244710576383,-0.24359787820873877,-0.15457940875579984,-0.6808556642427224,-0.06496364255441234
8327,7.0,300.29245,2122.6941,0.0,0.0,0.0,0.0,-0.08299362340447598,0.0,-0.2032836964800388,-0.1933997355970678,-0.2485625807837168,-0.19179224471092082,-0.6902338309407753,-0.055984164439456856
8328,7.0,301.06285,1840.149,0.0,0.0,0.0,0.0,-0.08300359021405981,0.0,-0.13520405047610087,-0.15440253581834384,-0.2697527510525237,-0.21393565027630482,-0.7328233062990294,-0.04266990512469176
8329,7.0,300.3382,1838.2812,0.0,0.0,0.0,0.0,-0.08301355702364363,0.0,-0.16210263876078485,-0.15974047920015783,-0.2369484548249918,-0.1979708715682038,-0.7355551602911423,-0.03556693275768297
8330,7.0,300.17269,2277.7142,0.0,0.0,0.0,0.0,-0.08302352383322745,0.0,-0.21729379415522782,-0.17954101748681883,-0.2955334407668797,-0.19128978411883182,-0.6992427085073823,-0.03385809153028347
8331,7.0,300.21825,2404.857,0.0,0.0,0.0,0.0,-0.08303349064281128,0.0,-0.2614818640637508,-0.1989199525393708,-0.2706146519850867,-0.17096107908504485,-0.7144331716215643,-0.04994117934656066
8332,7.0,300.18189,1992.9499,0.0,0.0,0.0,0.0,-0.0830434574523951,0.0,-0.18528472700367882,-0.15609186691506785,-0.26443042185475074,-0.20116443323338382,-0.7076351753756543,-0.026755261018288675
8333,7.0,299.43301,1484.2336,0.0,0.0,0.0,0.0,-0.08305342426197893,0.0,-0.12279304384372988,-0.12115583433214988,-0.20722106477862678,-0.14854715600796287,-0.7105885359721283,-0.03525702818809776
8334,7.0,298.98704,1714.9791,0.0,0.0,0.0,0.0,-0.08306339107156273,0.0,-0.1116881267227599,-0.15325228417232284,-0.2563704327417918,-0.14844538516791886,-0.6986442829983224,-0.046186192012972256
8335,7.0,299.60611,2214.8462,0.0,0.0,0.0,0.0,-0.08307335788114656,0.0,-0.22501256116451082,-0.17069688425397084,-0.27754848453940273,-0.15495016709989085,-0.7285182194066503,-0.06367448343893224
8336,7.0,300.873,2159.8369,0.0,0.0,0.0,0.0,-0.08308332469073039,0.0,-0.19486623273179982,-0.17412504371480383,-0.2875451998935017,-0.16923298103949483,-0.7647526711977123,-0.04172047964849076
8337,7.0,301.2722,1782.7395,0.0,0.0,0.0,0.0,-0.08309329150031419,0.0,-0.17637482370683982,-0.15515481322258787,-0.21037863580025482,-0.14799647484361486,-0.7553417359914253,-0.07699779107709033
8338,7.0,300.55523,1832.9131,0.0,0.0,0.0,0.0,-0.08310325830989802,0.0,-0.15412926226637386,-0.15576033148234786,-0.2472702309436718,-0.16287754203976185,-0.6891943984581913,-0.03142541685544717
8339,7.0,300.87311,2317.3008,0.0,0.0,0.0,0.0,-0.08311322511948184,0.0,-0.22923094424583276,-0.19795115372125782,-0.2772194822319327,-0.16194346730257583,-0.7122999660535333,-0.058943369462507646
8340,7.0,299.88543,2387.0869,0.0,0.0,0.0,0.0,-0.08312319192906566,0.0,-0.18321337022175183,-0.2046519894150788,-0.3377494726682777,-0.23657516335565076,-0.7184103505165813,-0.02255249009450748
8341,7.0,300.42696,1850.3022,0.0,0.0,0.0,0.0,-0.08313315873864949,0.0,-0.16704600228865685,-0.14149913016737686,-0.2539005444305328,-0.17938005257593284,-0.7306618513182103,-0.05385964039828265
8342,7.0,298.95266000000004,1461.193,0.0,0.0,0.0,0.0,-0.0831431255482333,0.0,-0.10681852780216788,-0.13981626360629087,-0.1975313946023308,-0.16423043357328185,-0.7013720130625284,-0.07037831835304924
8343,7.0,298.67593,1570.7055,0.0,0.0,0.0,0.0,-0.08315309235781713,0.0,-0.16191844002510586,-0.12244409064179089,-0.1930927106842668,-0.16066926477182183,-0.7085666764575863,-0.07009994916632634
8344,7.0,299.83654,2165.5427,0.0,0.0,0.0,0.0,-0.08316305916740094,0.0,-0.2104447301042778,-0.17820557412002083,-0.26962061310698276,-0.18754653427440182,-0.7325869657132043,-0.05208713666710015
8345,7.0,299.5433,2122.7626,0.0,0.0,0.0,0.0,-0.08317302597698477,0.0,-0.19187143020623582,-0.1920202766459258,-0.26137510803321473,-0.17399789095975485,-0.7236904677151883,-0.06564796127444934
8346,7.0,299.54927999999995,1540.4464,0.0,0.0,0.0,0.0,-0.08318299278656857,0.0,-0.10283124680365391,-0.1260757107227039,-0.2393502729945328,-0.16435907580597783,-0.6964371101729914,-0.05810327772509705
8347,7.0,300.78661,1562.0355,0.0,0.0,0.0,0.0,-0.0831929595961524,0.0,-0.13503985329739587,-0.15775266488897585,-0.18202727991969384,-0.14662331830809486,-0.7315022510836513,-0.06318630562025285
8348,7.0,299.9436,2106.3926,0.0,0.0,0.0,0.0,-0.08320292640573622,0.0,-0.2064318645407388,-0.17070093725437085,-0.26315793171666574,-0.16131775496832285,-0.7305245660621613,-0.034371288520432065
8349,7.0,301.1126,2372.029,0.0,0.0,0.0,0.0,-0.08321289321532005,0.0,-0.26383905869888774,-0.18417407317156584,-0.27302446469791675,-0.16906333257525186,-0.7485400515151512,-0.042896898478344256
8350,7.0,300.0717,1997.3324,0.0,0.0,0.0,0.0,-0.08322286002490387,0.0,-0.1933231034920048,-0.16035990938379086,-0.25345616333417575,-0.16588907332447683,-0.7226317733482033,-0.043271870929601164
8351,7.0,299.75131,1559.1887,0.0,0.0,0.0,0.0,-0.08323282683448768,0.0,-0.1151083828328129,-0.11642163602242088,-0.24242439273792477,-0.19871400945654583,-0.7194271267269293,-0.04308816362022066
8352,7.0,301.24542,1785.0922,0.0,0.0,0.0,0.0,-0.08324279364407151,0.0,-0.15084299834954487,-0.15007070925582586,-0.24170973730989376,-0.2071560749172128,-0.7102719459783833,-0.03447917432482957
8353,7.0,300.87194,2269.7137,0.0,0.0,0.0,0.0,-0.08325276045365532,0.0,-0.1996123671277068,-0.19224615035821782,-0.2980777624304847,-0.1988917233915848,-0.7159242096737183,-0.03650266314553237
8354,7.0,299.84375,2292.8917,0.0,0.0,0.0,0.0,-0.08326272726323915,0.0,-0.22870945481686578,-0.1922299991516238,-0.27604236932576076,-0.16126718365583184,-0.6884604608807573,-0.06698249068965714
8355,7.0,300.23048,1791.1395,0.0,0.0,0.0,0.0,-0.08327269407282296,0.0,-0.16576010685174883,-0.17192323098250184,-0.2067783352799328,-0.14552858263505286,-0.7167703545672264,-0.07386318030272833
8356,7.0,299.4344,1481.19,0.0,0.0,0.0,0.0,-0.08328266088240678,0.0,-0.12439318866665187,-0.12912619134126288,-0.1967253946777848,-0.14888723313902585,-0.7231112736930263,-0.059793413342400445
8357,7.0,299.7629,1893.0548,0.0,0.0,0.0,0.0,-0.0832926276919906,0.0,-0.12758327488398888,-0.19050828458170382,-0.25734982002344975,-0.16638447156336883,-0.7459652006260333,-0.04474531389376866
8358,7.0,299.24132000000003,2287.6748,0.0,0.0,0.0,0.0,-0.08330259450157443,0.0,-0.1898239759941678,-0.21668111221726077,-0.28889091761631375,-0.2008892446387248,-0.7055356299759453,-0.03774951602958716
8359,7.0,299.0685,1943.6076,0.0,0.0,0.0,0.0,-0.08331256131115826,0.0,-0.14960191896455988,-0.16908739726512684,-0.27211887242104177,-0.19209896564869183,-0.7238717482905794,-0.03430439374883007
8360,7.0,299.89671,1532.7736,0.0,0.0,0.0,0.0,-0.08332252812074206,0.0,-0.12788375420114387,-0.15810005768576085,-0.17994107902380183,-0.17503535773714485,-0.7177245828489013,-0.05378579777074494
8361,7.0,300.75397999999996,1790.4653,0.0,0.0,0.0,0.0,-0.08333249493032589,0.0,-0.16009131704728286,-0.14748594878072985,-0.2366794673209448,-0.19436741984007083,-0.7427861993647903,-0.03300476775981697
8362,7.0,300.24901,2259.5339,0.0,0.0,0.0,0.0,-0.08334246173990971,0.0,-0.2266662866527208,-0.17912143062040883,-0.2810541778978877,-0.17665231237922585,-0.7457390330712123,-0.052086271351514744
8363,7.0,300.38876,2217.9667,0.0,0.0,0.0,0.0,-0.08335242854949353,0.0,-0.18202135240660883,-0.19794483104063382,-0.2942403005917567,-0.1982617655394128,-0.7447096722946223,-0.053682059199006746
8364,7.0,299.79276,1541.3184,0.0,0.0,0.0,0.0,-0.08336239535907734,0.0,-0.15068747459169585,-0.11192900666903288,-0.2059058154863218,-0.16635595870555483,-0.7134504304820753,-0.032759123511573764
8365,7.0,300.569,1520.8209,0.0,0.0,0.0,0.0,-0.08337236216866117,0.0,-0.13571003717853788,-0.13753135423328786,-0.18905017715779981,-0.15659690116241085,-0.6937488158026773,-0.05193608539519255
8366,7.0,299.98565,1877.009,0.0,0.0,0.0,0.0,-0.083382328978245,0.0,-0.18905881004865183,-0.15085353615058486,-0.2306515208860328,-0.18945800019054884,-0.6697456808712523,-0.06051444920631115
8367,7.0,299.59647,2202.5085,0.0,0.0,0.0,0.0,-0.08339229578782881,0.0,-0.23107983183580377,-0.18510833029376983,-0.25331941510067973,-0.15882083314439585,-0.6967691218332583,-0.046019575193028454
8368,7.0,299.9617,1986.7632,0.0,0.0,0.0,0.0,-0.08340226259741264,0.0,-0.16813342229597683,-0.18824883818371382,-0.2475441631082068,-0.16963962870212784,-0.7186811314733054,-0.05047633245312615
8369,7.0,299.54548,1546.7932,0.0,0.0,0.0,0.0,-0.08341222940699644,0.0,-0.1188946755414909,-0.12705708397455787,-0.2242347599902478,-0.14857702662091088,-0.7225235278400203,-0.04133983299667386
8370,7.0,299.32514,1815.27,0.0,0.0,0.0,0.0,-0.08342219621658027,0.0,-0.15902635066217885,-0.16010236147337284,-0.2326680405725478,-0.17691132950228883,-0.7535780931323672,-0.05156199953777315
8371,7.0,299.28485,2323.8881,0.0,0.0,0.0,0.0,-0.0834321630261641,0.0,-0.2137206183400828,-0.1923289328913878,-0.3003544138151727,-0.18501558751211683,-0.7063754724538314,-0.05146175059937935
8372,7.0,299.35582999999997,2178.6724,0.0,0.0,0.0,0.0,-0.08344212983574792,0.0,-0.2148453867460888,-0.18056240398512183,-0.26685421741896076,-0.19229670140570682,-0.7138735130613303,-0.05122350510336635
8373,7.0,299.36633,1576.8664,0.0,0.0,0.0,0.0,-0.08345209664533174,0.0,-0.14202618233939288,-0.13133960578720988,-0.20596224338439081,-0.16816376913647185,-0.7090504932478353,-0.04943416622177236
8374,7.0,300.35433,1512.1674,0.0,0.0,0.0,0.0,-0.08346206345491555,0.0,-0.12021944938473589,-0.13439281204853787,-0.2050488794792488,-0.20291413377106582,-0.7249341410204294,-0.06378212707655584
8375,7.0,300.99832000000004,1934.1222,0.0,0.0,0.0,0.0,-0.08347203026449938,0.0,-0.16703662972523184,-0.17253933770580684,-0.24834889647012776,-0.1982334350666168,-0.7297806885012463,-0.06255773389421765
8376,7.0,301.32629,2238.7211,0.0,0.0,0.0,0.0,-0.08348199707408321,0.0,-0.21524909598343178,-0.2036516379888518,-0.26161457956184875,-0.17451105147289983,-0.7153950094114903,-0.04058571451699816
8377,7.0,299.86404,1865.1362,0.0,0.0,0.0,0.0,-0.08349196388366702,0.0,-0.16978434108140986,-0.14418460770241284,-0.25298589369776375,-0.19356196707057882,-0.7072548823481223,-0.04969053268257375
8378,7.0,300.10269,1749.0185,0.0,0.0,0.0,0.0,-0.08350193069325085,0.0,-0.17175063396046786,-0.15785730322680286,-0.2020500036882828,-0.16656574200625884,-0.7207239247349133,-0.023509317362688978
8379,7.0,300.43271,1882.2125,0.0,0.0,0.0,0.0,-0.08351189750283465,0.0,-0.17926135032671783,-0.14111579738954488,-0.25176847370261374,-0.16668357286038785,-0.7239601138318003,-0.05259688354065825
8380,7.0,300.52973,2215.7074,0.0,0.0,0.0,0.0,-0.08352186431241848,0.0,-0.1874146800388888,-0.17866890299324784,-0.30743614035408473,-0.16058159837316985,-0.7373767711884213,-0.045861680429945456
8381,7.0,300.35672,2133.9847,0.0,0.0,0.0,0.0,-0.08353183112200231,0.0,-0.17410034067736582,-0.17968711801873782,-0.29489059437343573,-0.18241430092788982,-0.7254270162665722,-0.05852171353939344
8382,7.0,299.85581,1665.1449,0.0,0.0,0.0,0.0,-0.08354179793158613,0.0,-0.16660853155798183,-0.11894490234894789,-0.22060902689241577,-0.1945416583272668,-0.7616471812312243,-0.05215798210084204
8383,7.0,299.86541,1637.9429,0.0,0.0,0.0,0.0,-0.08355176474116995,0.0,-0.14492657022063887,-0.15096737479931985,-0.2019997870133268,-0.17751766849462983,-0.7238393546848824,-0.08211825755019102
8384,7.0,300.03188,1770.2394,0.0,0.0,0.0,0.0,-0.08356173155075376,0.0,-0.21251863014395578,-0.1162929937897249,-0.2092969507885008,-0.19195444578692883,-0.7344191853390304,-0.061928821716148844
8385,7.0,300.54329,1941.4485,0.0,0.0,0.0,0.0,-0.08357169836033759,0.0,-0.15344260293860584,-0.16516386996290486,-0.2715453931294437,-0.15694583409934784,-0.7183161283897823,-0.06303788575885494
8386,7.0,300.03099,1851.7595,0.0,0.0,0.0,0.0,-0.08358166516992142,0.0,-0.12495276616687788,-0.18151280218141883,-0.25642307108448675,-0.16215995831894184,-0.7281808780508573,-0.09162332166426781
8387,7.0,300.57796,1967.9143,0.0,0.0,0.0,0.0,-0.08359163197950523,0.0,-0.14581487645080785,-0.16671602726109083,-0.2856659046680297,-0.15826535930707486,-0.7192836201152664,-0.035306427170223066
8388,7.0,300.39133,2026.33,0.0,0.0,0.0,0.0,-0.08360159878908906,0.0,-0.18392548239203182,-0.1842363475227118,-0.24779188249265477,-0.13574579477456686,-0.7517979646941824,-0.06329486928896724
8389,7.0,300.75462999999996,2053.4888,0.0,0.0,0.0,0.0,-0.08361156559867286,0.0,-0.1979986954159498,-0.15581714441545486,-0.2703934696207578,-0.1839011745221328,-0.7085925852626433,-0.01013856327534829
8390,7.0,300.72242,2182.3818,0.0,0.0,0.0,0.0,-0.08362153240825669,0.0,-0.23984046312791077,-0.17220217873503185,-0.25134694139601177,-0.17332979437381885,-0.7232688644810793,-0.03553449456898157
8391,7.0,300.68647999999996,2010.869,0.0,0.0,0.0,0.0,-0.08363149921784052,0.0,-0.17094143216560584,-0.15984490475546384,-0.2804676175474987,-0.20975681434638582,-0.7202512840932673,-0.04163401091145696
8392,7.0,300.64318,1813.9081,0.0,0.0,0.0,0.0,-0.08364146602742434,0.0,-0.14908410763345586,-0.15003612702991284,-0.25226252431887275,-0.17722099899785085,-0.7196355117424953,-0.07374651164646404
8393,7.0,299.79076000000003,1907.5261,0.0,0.0,0.0,0.0,-0.08365143283700816,0.0,-0.16776959458256985,-0.15884470531675185,-0.25322602383896275,-0.18015494572240884,-0.7409602821545863,-0.05928632827685504
8394,7.0,299.35327,1959.5416,0.0,0.0,0.0,0.0,-0.08366139964659197,0.0,-0.2059987710504958,-0.15276854844208185,-0.2368843971536698,-0.17327956756636181,-0.7199906660350464,-0.07334502649309053
8395,7.0,300.2262,1883.8029999999999,0.0,0.0,0.0,0.0,-0.0836713664561758,0.0,-0.19886013025346683,-0.15570692306957684,-0.2180620201160458,-0.1971451943267158,-0.7218142122400163,-0.05511526701495335
8396,7.0,301.00262999999995,1859.306,0.0,0.0,0.0,0.0,-0.08368133326575963,0.0,-0.2174415868148138,-0.15599678352568386,-0.1917442267886818,-0.16725012152130184,-0.7582705455379762,-0.04397718925796066
8397,7.0,300.56127000000004,1891.5288,0.0,0.0,0.0,0.0,-0.08369130007534344,0.0,-0.13565293040290186,-0.15375280945672085,-0.2855717838662407,-0.1886813135913958,-0.7103586700544423,-0.03211570665832347
8398,7.0,300.68962,2121.8835,0.0,0.0,0.0,0.0,-0.08370126688492727,0.0,-0.15588358322451185,-0.1885110774420948,-0.3006049297698967,-0.17207817718779383,-0.7323605043158543,-0.028484490864200376
8399,7.0,301.02665,2240.9831,0.0,0.0,0.0,0.0,-0.08371123369451107,0.0,-0.16819025549408584,-0.2010668977787578,-0.3119457416466477,-0.18060745308456783,-0.7004389921054464,-0.029809094481428572
8400,7.0,300.82552999999996,2067.6006,0.0,0.0,0.0,0.0,-0.0837212005040949,0.0,-0.21871068256506382,-0.15220271918873887,-0.2575855425267138,-0.18160033685755783,-0.7377244780927373,-0.024525060057934978
8401,7.0,300.74681,1890.2085,0.0,0.0,0.0,0.0,-0.08373116731367873,0.0,-0.2078659174072688,-0.17022864111775884,-0.19648163710122782,-0.14781008748771987,-0.7211114726331613,-0.03836206827154136
8402,7.0,300.10112000000004,1860.5168,0.0,0.0,0.0,0.0,-0.08374113412326255,0.0,-0.2276637300511608,-0.1347606724973429,-0.2031262272819978,-0.16783612458413585,-0.7322115464186533,-0.06015398852298644
8403,7.0,299.76471000000004,2146.6137,0.0,0.0,0.0,0.0,-0.08375110093284636,0.0,-0.16244534020960685,-0.2046594975983198,-0.2854121463129857,-0.17730350795349384,-0.7042928787282954,-0.08600891603241911
8404,7.0,299.51709,2103.0366,0.0,0.0,0.0,0.0,-0.08376106774243018,0.0,-0.17456548326827181,-0.19114348093689282,-0.27356165950343375,-0.1945021922358718,-0.7233106205177002,-0.07854418906170792
8405,7.0,299.90197,1644.6592,0.0,0.0,0.0,0.0,-0.08377103455201401,0.0,-0.12313588714756588,-0.14185550036004785,-0.2349439320196608,-0.20685916224040982,-0.6964696557662033,-0.06365192747845613
8406,7.0,299.61983,1657.6789999999999,0.0,0.0,0.0,0.0,-0.08378100136159784,0.0,-0.16171171673970383,-0.14174209740885588,-0.20043919947430883,-0.16219808692020485,-0.7017091213707983,-0.04964475201655555
8407,7.0,299.76653999999996,2024.4796,0.0,0.0,0.0,0.0,-0.08379096817118165,0.0,-0.23957342106405577,-0.14328230848836285,-0.23253552772446978,-0.18890757233872582,-0.7121070837644974,-0.02749699656849227
8408,7.0,299.82263,2216.7788,0.0,0.0,0.0,0.0,-0.08380093498076548,0.0,-0.2034723636486588,-0.1982260586058888,-0.27214697997881576,-0.17056540492099484,-0.7529169373096163,-0.03987124248723526
8409,7.0,299.2918,2068.3685,0.0,0.0,0.0,0.0,-0.0838109017903493,0.0,-0.13737411808276986,-0.18626380017780583,-0.3050944788429807,-0.15877864141023185,-0.7490620779666712,-0.04582066811889786
8410,7.0,299.74575,1925.2044,0.0,0.0,0.0,0.0,-0.08382086859993311,0.0,-0.14463574717693686,-0.16519991126896183,-0.27537840680023273,-0.15972165301329985,-0.7353272600786503,-0.03086552423444007
8411,7.0,300.47686,1928.4479999999999,0.0,0.0,0.0,0.0,-0.08383083540951694,0.0,-0.15964481825821683,-0.16788027189099286,-0.2586749282392277,-0.14936337962601784,-0.7312189260906894,-0.05172165938253036
8412,7.0,300.89567999999997,2033.2253,0.0,0.0,0.0,0.0,-0.08384080221910076,0.0,-0.2211976846705118,-0.14635921466952986,-0.25049282222421676,-0.20947827189389578,-0.7442374572180184,-0.03258580910846897
8413,7.0,299.76923,1913.4459,0.0,0.0,0.0,0.0,-0.08385076902868457,0.0,-0.2033657089431328,-0.16849474728163685,-0.2097793287636078,-0.2072069907347378,-0.7339860614512843,-0.04316802394010225
8414,7.0,300.89812,1690.2564,0.0,0.0,0.0,0.0,-0.08386073583826839,0.0,-0.16795178708305084,-0.13197177252459988,-0.21387218029004082,-0.1840948775437498,-0.7356114058041933,-0.06663836157144425
8415,7.0,299.71116,1759.8496,0.0,0.0,0.0,0.0,-0.08387070264785222,0.0,-0.11774633893815889,-0.15272105740989483,-0.26448292847493277,-0.18618054141708884,-0.7154680140811953,-0.07935952811242562
8416,7.0,299.01808,2206.3043,0.0,0.0,0.0,0.0,-0.08388066945743605,0.0,-0.2044871538888108,-0.18503092811863084,-0.2811433236416857,-0.18564320475655782,-0.7394390897794563,-0.04390512995059896
8417,7.0,298.89685,2342.3284,0.0,0.0,0.0,0.0,-0.08389063626701986,0.0,-0.20001843723778281,-0.18716070890132383,-0.3248301995207447,-0.18143154965589983,-0.7133617913633273,-0.027452623306862975
8418,7.0,299.67111,1981.7178,0.0,0.0,0.0,0.0,-0.08390060307660369,0.0,-0.2122326808332348,-0.14223868115036487,-0.24792137585543478,-0.1853076061909368,-0.7062777242166843,-0.01087867458564159
8419,7.0,299.85785,1846.4177,0.0,0.0,0.0,0.0,-0.0839105698861875,0.0,-0.19626194421454582,-0.15737325338903085,-0.20762966801395283,-0.15590520598164587,-0.7081589040873423,-0.029251087518857573
8420,7.0,300.06077,1958.4051,0.0,0.0,0.0,0.0,-0.08392053669577132,0.0,-0.17930668313619183,-0.15267480254282983,-0.2633247633456307,-0.16705645902968885,-0.7466827235518473,-0.05013417207985755
8421,7.0,300.35114,2110.3333,0.0,0.0,0.0,0.0,-0.08393050350535515,0.0,-0.16418945773923785,-0.2157036602432938,-0.26159551019496674,-0.18597865133466382,-0.7541723845810193,-0.07780145647340593
8422,7.0,300.09333,2029.7551,0.0,0.0,0.0,0.0,-0.08394047031493897,0.0,-0.16186535585236683,-0.18616891943844183,-0.26896059212434376,-0.15540018186680385,-0.7444555289045403,-0.08400738940763382
8423,7.0,299.22362000000004,1770.6986,0.0,0.0,0.0,0.0,-0.08395043712452278,0.0,-0.15812118395034586,-0.15349281961356184,-0.22663414635954882,-0.16448088873299985,-0.7165957817074973,-0.07168885907213954
8424,7.0,298.48109,1696.0619,0.0,0.0,0.0,0.0,-0.0839604039341066,0.0,-0.1845729998684368,-0.14582247582655786,-0.18516499123936184,-0.16747339118083684,-0.7334321378866163,-0.05681148821235735
8425,7.0,298.18672000000004,1826.2736,0.0,0.0,0.0,0.0,-0.08397037074369043,0.0,-0.17100312896419484,-0.14572161691160385,-0.23841681633990777,-0.16730832260704584,-0.7144067359264553,-0.042227181705498364
8426,7.0,299.02336,2143.7121,0.0,0.0,0.0,0.0,-0.08398033755327426,0.0,-0.17472425955894183,-0.21096761781838277,-0.26594307253153776,-0.19016875460569482,-0.7116871827905563,-0.07327946617187023
8427,7.0,299.73467,2011.9278,0.0,0.0,0.0,0.0,-0.08399030436285806,0.0,-0.17200636815320683,-0.14669234090490688,-0.29287709417221874,-0.1823093079525278,-0.7213861546027703,-0.057115427778603844
8428,7.0,299.77448,1724.8163,0.0,0.0,0.0,0.0,-0.0840002711724419,0.0,-0.15485548901054685,-0.12500617457964888,-0.24443943307929378,-0.18355714571567983,-0.7334497988358593,-0.034155990099433764
8429,7.0,299.81655,1819.1449,0.0,0.0,0.0,0.0,-0.08401023798202571,0.0,-0.17014446029945082,-0.15077068268990787,-0.23205947242998679,-0.16650202883997084,-0.7050962442025813,-0.03869823831021876
8430,7.0,300.85365,1996.4815,0.0,0.0,0.0,0.0,-0.08402020479160953,0.0,-0.24761570869776778,-0.14044922067875887,-0.21881561474541977,-0.18658936756743683,-0.6865094072832033,-0.005879203549382214
8431,7.0,299.6445,2060.903,0.0,0.0,0.0,0.0,-0.08403017160119336,0.0,-0.18714717187998783,-0.1907766742681918,-0.24853920510390978,-0.20654155899656482,-0.7119095810550053,-0.04478975099015425
8432,7.0,299.63899,1919.0377,0.0,0.0,0.0,0.0,-0.08404013841077718,0.0,-0.17186787712953883,-0.15835994620390986,-0.25311171909518176,-0.17456041701777184,-0.7627859223561093,-0.060385620535596735
8433,7.0,299.56867,1762.8927,0.0,0.0,0.0,0.0,-0.084050105220361,0.0,-0.12575586819613788,-0.15621230182195386,-0.25390718121868777,-0.17429772179684583,-0.7787631133779352,-0.06406202627092973
8434,7.0,300.20772999999997,1691.9887,0.0,0.0,0.0,0.0,-0.08406007202994481,0.0,-0.12453774905841887,-0.16448021998793386,-0.2253043467958078,-0.14724944607488888,-0.7465518623014322,-0.06855201813430743
8435,7.0,299.89794,1901.2666,0.0,0.0,0.0,0.0,-0.08407003883952864,0.0,-0.19232569049106782,-0.14115852614626187,-0.24445334500316676,-0.16780372084593784,-0.7594392889983222,-0.04942101322222425
8436,7.0,300.08749,1945.5876,0.0,0.0,0.0,0.0,-0.08408000564911247,0.0,-0.2320186789809608,-0.13463826175276186,-0.22475310834390477,-0.18914061986172584,-0.7378340104285473,-0.002540280214256138
8437,7.0,299.1771,1767.839,0.0,0.0,0.0,0.0,-0.08408997245869627,0.0,-0.13370166402282688,-0.17739573397759584,-0.2262815150597468,-0.16433742265134085,-0.6966416347056763,-0.047579687517749554
8438,7.0,298.98771,2057.4365,0.0,0.0,0.0,0.0,-0.0840999392682801,0.0,-0.14765543512495685,-0.19325974496325182,-0.28449412145738373,-0.16886745106591985,-0.6533437354075063,-0.03298002824537537
8439,7.0,299.13357,2419.3313,0.0,0.0,0.0,0.0,-0.08410990607786392,0.0,-0.2095403841250258,-0.2234406049593708,-0.30243529514803974,-0.16588623622419682,-0.6875048444464453,-0.06478707359198634
8440,7.0,297.99528,2277.8912,0.0,0.0,0.0,0.0,-0.08411987288744774,0.0,-0.2057590056793328,-0.21663188852740278,-0.27003116178250075,-0.2002250997281788,-0.7287150939010804,-0.04632602052677225
8441,7.0,299.48091,1796.5029,0.0,0.0,0.0,0.0,-0.08412983969703157,0.0,-0.2089291815322048,-0.14227747849669387,-0.1948853831586898,-0.17370714897606082,-0.7335449227552473,-0.049141948945932754
8442,7.0,300.29192,1597.5873,0.0,0.0,0.0,0.0,-0.08413980650661539,0.0,-0.17199337828692485,-0.16434161750675486,-0.14929163138643686,-0.15046567414480586,-0.7306958053290613,-0.04493139930113386
8443,7.0,299.84457000000003,1690.6476,0.0,0.0,0.0,0.0,-0.0841497733161992,0.0,-0.12347970317149787,-0.13899031278727586,-0.2514446491031548,-0.15579219819799284,-0.7452165405246464,-0.08058158068703283
8444,7.0,299.66159,1915.0486,0.0,0.0,0.0,0.0,-0.08415974012578302,0.0,-0.13772366910226785,-0.17114223807042384,-0.2732610585962667,-0.18081990123303482,-0.7581204629331643,-0.056306888649307246
8445,7.0,299.37026000000003,1887.3795,0.0,0.0,0.0,0.0,-0.08416970693536685,0.0,-0.13298903509499588,-0.17681770519304885,-0.2639094897133388,-0.14407717279430987,-0.7620134306123703,-0.08594889008324502
8446,7.0,299.54511,1762.8055,0.0,0.0,0.0,0.0,-0.08417967374495068,0.0,-0.15256018369151786,-0.13336776771737388,-0.24992091347027376,-0.16643388777074583,-0.7095513022422614,-0.04321113773185725
8447,7.0,300.73566,1946.2325,0.0,0.0,0.0,0.0,-0.08418964055453448,0.0,-0.2197247027351398,-0.18952173362183883,-0.18235964621749584,-0.14805035948393286,-0.7386189651485163,-0.05789706917074584
8448,7.0,300.0535,2316.2633,0.0,0.0,0.0,0.0,-0.08419960736411831,0.0,-0.2790642661589987,-0.15644675776259284,-0.2685751923163077,-0.19172637332191983,-0.7311886299126994,0.017912648673840785
8449,7.0,299.95436,2376.4459,0.0,0.0,0.0,0.0,-0.08420957417370213,0.0,-0.2092695423732958,-0.2094168790703368,-0.3036937821697427,-0.1920468035335438,-0.7165150054095253,-0.02191168236026468
8450,7.0,299.96747999999997,1932.7139,0.0,0.0,0.0,0.0,-0.08421954098328595,0.0,-0.14238552135485685,-0.19052536797838981,-0.25458587640066976,-0.17675368805173083,-0.7020550652199403,-0.01859650332533198
8451,7.0,300.49474,1770.6929,0.0,0.0,0.0,0.0,-0.08422950779286978,0.0,-0.1015345805181829,-0.17657311675140985,-0.26013873012869376,-0.18670894121173784,-0.7228710523593183,-0.07466175918354193
8452,7.0,299.5869,1943.8241,0.0,0.0,0.0,0.0,-0.0842394746024536,0.0,-0.2039844095866938,-0.15331396070590986,-0.23357561881961875,-0.19939723386647482,-0.7272015515642053,-0.04664206944496386
8453,7.0,299.755,2004.3799,0.0,0.0,0.0,0.0,-0.08424944141203741,0.0,-0.22789748684923078,-0.16653058222778885,-0.2148533914218788,-0.1838536024299378,-0.7229722861768093,-0.06989326539767823
8454,7.0,298.72207000000003,1790.2949,0.0,0.0,0.0,0.0,-0.08425940822162123,0.0,-0.18651549150264582,-0.15098321189838285,-0.2067062526678188,-0.18565624528534483,-0.7031077712788343,-0.060401108063375245
8455,7.0,299.23278,1785.4113,0.0,0.0,0.0,0.0,-0.08426937503120506,0.0,-0.1018687706661649,-0.1872665023442648,-0.25358519060190976,-0.14577269484914487,-0.7539943160084454,-0.07451296847260744
8456,7.0,299.11858,1906.5734,0.0,0.0,0.0,0.0,-0.08427934184078886,0.0,-0.15225201380610387,-0.16086617979625586,-0.26643252299234277,-0.15932104432126284,-0.7635583229073393,-0.03373190845558017
8457,7.0,300.0831,2096.0771,0.0,0.0,0.0,0.0,-0.0842893086503727,0.0,-0.14344073014149786,-0.1904883944822408,-0.3032259848635747,-0.13793484055560887,-0.7296292988038053,-0.05038270003788536
8458,7.0,300.0841,2241.5797,0.0,0.0,0.0,0.0,-0.08429927545995651,0.0,-0.22616088763534178,-0.20388377358676182,-0.2513396054652878,-0.16559357919781384,-0.6865921290213673,-0.03213957680417927
8459,7.0,300.33904,1957.6818,0.0,0.0,0.0,0.0,-0.08430924226954034,0.0,-0.2015529234542248,-0.16967114078023784,-0.22386231965099077,-0.1903324451593498,-0.7106673364324053,-0.03341139718394817
8460,7.0,300.13209,1832.1667,0.0,0.0,0.0,0.0,-0.08431920907912414,0.0,-0.18075622859675083,-0.17028781492359882,-0.20588888407715078,-0.2043565864809248,-0.7267087979080743,-0.042954885768317165
8461,7.0,300.08616,2068.4746,0.0,0.0,0.0,0.0,-0.08432917588870797,0.0,-0.17153190366138082,-0.17246305010577784,-0.2847696748220787,-0.18068326445704982,-0.7043017547991713,-0.04642017983206505
8462,7.0,300.66595,2218.1272,0.0,0.0,0.0,0.0,-0.0843391426982918,0.0,-0.17041088428074483,-0.18445887750967382,-0.3193855203733967,-0.18896509454690283,-0.6826009267449663,-0.04976443509186736
8463,7.0,299.56105,1950.7808,0.0,0.0,0.0,0.0,-0.08434910950787561,0.0,-0.11489397911165287,-0.17575182688285482,-0.3023428259439137,-0.17583753770881383,-0.7499984933115883,-0.06454118616371915
8464,7.0,299.55144,1825.5259,0.0,0.0,0.0,0.0,-0.08435907631745944,0.0,-0.19408203794940582,-0.1093929125962399,-0.25143932954012976,-0.18682330675052483,-0.7386998225064962,-0.017814660296420082
8465,7.0,299.62077,2064.8019,0.0,0.0,0.0,0.0,-0.08436904312704326,0.0,-0.22252269156127977,-0.16078755158849584,-0.24433797634678078,-0.16010346591598185,-0.7331583273120933,-0.040462436430331566
8466,7.0,299.54222000000004,2083.5659,0.0,0.0,0.0,0.0,-0.08437900993662707,0.0,-0.21909655860064678,-0.16165904799950584,-0.25259641049182474,-0.17114910790610185,-0.6894306073215034,-0.03610475881801227
8467,7.0,300.0966,1995.7664,0.0,0.0,0.0,0.0,-0.08438897674621089,0.0,-0.15688797751863787,-0.17817714232221485,-0.27159803147213873,-0.19907506086467883,-0.7556653984708683,-0.06413908292778464
8468,7.0,300.21947,1926.2375,0.0,0.0,0.0,0.0,-0.08439894355579472,0.0,-0.15522969240497786,-0.16693447385014984,-0.26336395585949873,-0.17664763116376384,-0.7589074340208323,-0.026055101146188274
8469,7.0,300.20968,1885.8828,0.0,0.0,0.0,0.0,-0.08440891036537852,0.0,-0.15430262935848385,-0.15418745321961685,-0.2647711879958818,-0.15081000692628885,-0.7275069552768463,-0.04118392825678726
8470,7.0,299.81577999999996,1834.356,0.0,0.0,0.0,0.0,-0.08441887717496235,0.0,-0.2074014030314248,-0.14479849540799886,-0.2053985216912558,-0.14048690344997788,-0.7009212687555433,-0.03832257988864417
8471,7.0,298.94274,1918.7253,0.0,0.0,0.0,0.0,-0.08442884398454618,0.0,-0.15748760879531684,-0.18318616445656682,-0.24257081750987577,-0.19030688085932682,-0.7243987194025873,-0.07670916475960513
8472,7.0,298.63243,1961.4344,0.0,0.0,0.0,0.0,-0.08443881079413,0.0,-0.17981178831104183,-0.16759504198784284,-0.24882026041664776,-0.22495249569858278,-0.7326266344546193,-0.07910079875239102
8473,7.0,299.70556,1783.2854,0.0,0.0,0.0,0.0,-0.08444877760371382,0.0,-0.13910652244124486,-0.16739153070525783,-0.23557618994955978,-0.17486998518832383,-0.7210021125498683,-0.0928206975459396
8474,7.0,299.16938999999996,1812.9263,0.0,0.0,0.0,0.0,-0.08445874441329763,0.0,-0.14625510322175486,-0.14549209549895187,-0.25933713784208273,-0.17006639951174685,-0.7133276752324603,-0.07345275423047243
8475,7.0,300.46756,1924.1249,0.0,0.0,0.0,0.0,-0.08446871122288147,0.0,-0.14661131129440985,-0.16472917553750382,-0.27354542723683173,-0.1853547831155928,-0.7749590786600062,-0.05342867777299994
8476,7.0,300.71439,1866.0182,0.0,0.0,0.0,0.0,-0.08447867803246528,0.0,-0.17613055950523285,-0.16967576120069386,-0.22141663788462082,-0.18446220097000182,-0.7802251116822232,-0.04092548868628126
8477,7.0,300.5583,2036.9946,0.0,0.0,0.0,0.0,-0.0844886448420491,0.0,-0.17727234038041784,-0.17175197145059984,-0.27017118281381974,-0.14877345528529687,-0.7203484345128554,-0.02013782897994898
8478,7.0,299.21289,2187.0815,0.0,0.0,0.0,0.0,-0.08449861165163293,0.0,-0.23730870576554577,-0.1895099900531798,-0.23799946875621877,-0.14141056197613586,-0.6924167972212173,-0.04588949414519045
8479,7.0,298.45018999999996,2106.4795,0.0,0.0,0.0,0.0,-0.08450857846121673,0.0,-0.18506070753906984,-0.18198450050047182,-0.2732719712998437,-0.16537743268648186,-0.7303966635020384,-0.05374189769691235
8480,7.0,299.28356,1995.7425,0.0,0.0,0.0,0.0,-0.08451854527080056,0.0,-0.16317438378905785,-0.17517305842573483,-0.2683084440949817,-0.2033184408259678,-0.7306354460206043,-0.051521800866555854
8481,7.0,299.97983,2005.4661,0.0,0.0,0.0,0.0,-0.0845285120803844,0.0,-0.18624615949356482,-0.15342854915971885,-0.26993690925819874,-0.17847972919957783,-0.7285365389684584,-0.037311863927144265
8482,7.0,301.02546,1882.4625,0.0,0.0,0.0,0.0,-0.08453847888996821,0.0,-0.21214441661702382,-0.1156115425674709,-0.24446563572687977,-0.17613854391602085,-0.7205547322332153,-0.03671167130990986
8483,7.0,301.01873,1772.969,0.0,0.0,0.0,0.0,-0.08454844569955203,0.0,-0.14395722424747187,-0.13049552792390587,-0.26448555279269176,-0.19994011300505282,-0.7624048288609983,-0.04238477654655176
8484,7.0,301.41188,1921.0882,0.0,0.0,0.0,0.0,-0.08455841250913584,0.0,-0.16214010874948284,-0.17248890824832983,-0.24933382622983274,-0.2016148533003368,-0.7607892421065523,-0.05580741207876274
8485,7.0,300.98308,2066.2564,0.0,0.0,0.0,0.0,-0.08456837931871967,0.0,-0.16322851160939986,-0.15928506381021185,-0.30557677575807973,-0.17446939676128884,-0.7091615758562984,-0.03751952244238856
8486,7.0,301.02675,2079.0727,0.0,0.0,0.0,0.0,-0.08457834612830349,0.0,-0.19047962986887582,-0.1888256004056358,-0.2526809560801688,-0.14723395348085985,-0.7091933716444363,-0.07229551115876144
8487,7.0,299.81395,2088.2983,0.0,0.0,0.0,0.0,-0.08458831293788731,0.0,-0.1864431657105078,-0.17897768082872184,-0.2693696817197177,-0.15413319367676187,-0.7537385108881992,-0.04755789048159836
8488,7.0,300.41478,1940.9441,0.0,0.0,0.0,0.0,-0.08459827974747114,0.0,-0.18504075664460082,-0.1834088666960458,-0.22154890755267478,-0.15572976172683084,-0.7697334641842782,-0.07439968508492724
8489,7.0,299.71026,1805.457,0.0,0.0,0.0,0.0,-0.08460824655705494,0.0,-0.13671721791043887,-0.16049187507681484,-0.2516047628839568,-0.14566767147627985,-0.7211969808091003,-0.04421132602481816
8490,7.0,299.82445,1814.134,0.0,0.0,0.0,0.0,-0.08461821336663877,0.0,-0.17096385539031883,-0.14449199738524987,-0.23599560456345278,-0.18173663926100983,-0.7046731008283202,-0.07260165657047563
8491,7.0,300.39662999999996,1791.5056,0.0,0.0,0.0,0.0,-0.0846281801762226,0.0,-0.13750747192843088,-0.17545710282626784,-0.23160840388296977,-0.20332512827662783,-0.7459117415507572,-0.07332182813205103
8492,7.0,300.20072000000005,1612.2958,0.0,0.0,0.0,0.0,-0.08463814698580642,0.0,-0.12769172304219187,-0.15430666209388186,-0.20809927903779982,-0.2077934092301128,-0.7398952448419753,-0.0920925760240796
8493,7.0,300.27808999999996,1852.059,0.0,0.0,0.0,0.0,-0.08464811379539024,0.0,-0.15941531711056686,-0.14656180389452386,-0.25700256908167873,-0.16342192078848783,-0.7007571323718443,-0.05530146691957985
8494,7.0,299.5105,2197.7205,0.0,0.0,0.0,0.0,-0.08465808060497405,0.0,-0.22727798573809077,-0.17814053359610182,-0.26263362545242075,-0.15332513685451285,-0.7133023034499564,-0.07361074930531533
8495,7.0,298.84145,2065.7832,0.0,0.0,0.0,0.0,-0.08466804741455788,0.0,-0.17637525940438284,-0.16247202921724083,-0.28909921143937073,-0.2011029593498168,-0.7472722020625242,-0.028202948178164274
8496,7.0,299.23206,1842.2743,0.0,0.0,0.0,0.0,-0.0846780142241417,0.0,-0.15737897825209585,-0.14723350765081586,-0.25539287944281475,-0.17612896870257583,-0.7638012090888102,-0.048667559434614156
8497,7.0,299.65779,2025.1384,0.0,0.0,0.0,0.0,-0.08468798103372552,0.0,-0.17073980552820683,-0.17245630186011182,-0.2723954086383337,-0.17544053618713282,-0.7062455028635043,-0.025848480199046373
8498,7.0,299.80971,2061.8309,0.0,0.0,0.0,0.0,-0.08469794784330935,0.0,-0.20825482306065077,-0.15906595860858785,-0.25942431788068676,-0.17486790802561883,-0.6886327741927634,-0.03775551244367897
8499,7.0,300.42705,1985.1629,0.0,0.0,0.0,0.0,-0.08470791465289315,0.0,-0.18929805866226382,-0.17318666266469282,-0.24095522062292876,-0.19250116514338583,-0.7311188068483083,-0.03959773588774226
8500,7.0,300.84103,1938.5849,0.0,0.0,0.0,0.0,-0.08471788146247698,0.0,-0.17119539317066984,-0.17134495901793084,-0.24674104081394474,-0.17252327769172182,-0.7386280236044103,-0.04543156082874596
8501,7.0,300.0877,1876.3204,0.0,0.0,0.0,0.0,-0.08472784827206081,0.0,-0.15773696964492684,-0.17216699869155982,-0.24045058154312476,-0.15501686935397385,-0.7065257982386673,-0.041016116814975564
8502,7.0,299.78814,2007.5614,0.0,0.0,0.0,0.0,-0.08473781508164463,0.0,-0.17421690496886985,-0.16597494627045184,-0.2700566855525197,-0.14895067272778686,-0.7237056259366843,-0.053290647778127455
8503,7.0,300.2251,2177.0928,0.0,0.0,0.0,0.0,-0.08474778189122845,0.0,-0.19539754055423583,-0.15782479816359485,-0.30855950034245166,-0.2227901186601728,-0.7351724253308692,-0.06536859910262843
8504,7.0,299.61547,1967.9736,0.0,0.0,0.0,0.0,-0.08475774870081226,0.0,-0.17965256619032782,-0.16043059371076684,-0.2581316539331107,-0.2074542237591378,-0.7565305924662562,-0.048531925776228155
8505,7.0,299.11437,1793.7785,0.0,0.0,0.0,0.0,-0.0847677155103961,0.0,-0.16492593857442284,-0.15504495664674586,-0.2252929983946878,-0.2039982911130638,-0.6959415194165803,-0.05788834508738484
8506,7.0,299.38165,2067.9716,0.0,0.0,0.0,0.0,-0.08477768231997992,0.0,-0.18901406492423584,-0.18241929625088282,-0.25717834770902676,-0.17465355496696383,-0.7117861671928253,-0.04725643236484676
8507,7.0,299.95239,2087.6644,0.0,0.0,0.0,0.0,-0.08478764912956373,0.0,-0.1981835527641938,-0.18993536257766083,-0.24647892314557576,-0.2015486880688068,-0.7466318685293283,-0.04943912304126155
8508,7.0,299.83538,1886.3073,0.0,0.0,0.0,0.0,-0.08479761593914756,0.0,-0.15231763188257982,-0.15860645982073887,-0.26246623653590073,-0.16974702308022685,-0.7453986924951232,-0.04271540613368237
8509,7.0,299.39133,1814.3245,0.0,0.0,0.0,0.0,-0.08480758274873136,0.0,-0.13867951858410288,-0.17873948599521383,-0.23409031947291578,-0.13162177567505787,-0.7205404251418034,-0.06506566974673164
8510,7.0,298.76835,1819.7043,0.0,0.0,0.0,0.0,-0.08481754955831519,0.0,-0.17801885239159285,-0.14945758148781485,-0.22566823530422075,-0.12373798062198788,-0.7351567503518224,-0.058019442425073155
8511,7.0,300.70002,1916.7993,0.0,0.0,0.0,0.0,-0.08482751636789902,0.0,-0.18005034791458582,-0.14414213225822087,-0.25846666481367375,-0.1957461897811448,-0.7567114981391103,-0.06499948222369945
8512,7.0,300.73581,1972.3503,0.0,0.0,0.0,0.0,-0.08483748317748284,0.0,-0.18430030386902382,-0.16539163845288382,-0.24985328915859978,-0.1965852723214558,-0.7650938730363863,-0.05772195320896325
8513,7.0,300.28145,1862.0537,0.0,0.0,0.0,0.0,-0.08484744998706666,0.0,-0.16708914647791484,-0.13647383523641887,-0.2624548476047767,-0.2134337267067688,-0.7209818678128702,-0.04121099723320876
8514,7.0,300.4535,1995.5659,0.0,0.0,0.0,0.0,-0.08485741679665047,0.0,-0.16906181270010184,-0.16812046282719784,-0.26941992879217674,-0.1918923436882998,-0.7334219344581093,-0.04413732330376466
8515,7.0,300.72046,2198.4410000000003,0.0,0.0,0.0,0.0,-0.0848673836062343,0.0,-0.18603865600558583,-0.18473694373461683,-0.2974955489230247,-0.19881175769369283,-0.7569954108171303,-0.06195264829225035
8516,7.0,300.24134,2286.6268,0.0,0.0,0.0,0.0,-0.08487735041581813,0.0,-0.20816140140143077,-0.17070185931196186,-0.3162141792829097,-0.18264232273039382,-0.7528861345065763,-0.024423870823448376
8517,7.0,299.59844,2198.7884,0.0,0.0,0.0,0.0,-0.08488731722540194,0.0,-0.2000817755015338,-0.2095199063405048,-0.25877507787911175,-0.15727217155905485,-0.7238960662929794,-0.05593774846562594
8518,7.0,298.55557000000005,1936.0105,0.0,0.0,0.0,0.0,-0.08489728403498577,0.0,-0.1876175023114058,-0.16847625546731185,-0.23240508190659578,-0.14549010952875588,-0.7264002733851254,-0.03915366484591586
8519,7.0,299.57012000000003,2011.5417,0.0,0.0,0.0,0.0,-0.08490725084456957,0.0,-0.1962969216079978,-0.17959237913438783,-0.23556913772886376,-0.15649168527202686,-0.7368643098178453,-0.038087129949657066
8520,7.0,300.36805,2008.5566,0.0,0.0,0.0,0.0,-0.0849172176541534,0.0,-0.17363124641106986,-0.15621668919488685,-0.28070312726824176,-0.1980164272926998,-0.7550198061696533,-0.039747182171491466
8521,7.0,299.35252,1898.8632,0.0,0.0,0.0,0.0,-0.08492718446373723,0.0,-0.14667346405554385,-0.17079956701910484,-0.25973395697874574,-0.18917633692775082,-0.7432279358783863,-0.05410226212147755
8522,7.0,299.80947000000003,1974.1973,0.0,0.0,0.0,0.0,-0.08493715127332105,0.0,-0.17541561023467284,-0.17031116020590284,-0.25437992318534375,-0.1798059519904658,-0.7608309880106723,-0.07470598957690712
8523,7.0,300.03667,2121.8093,0.0,0.0,0.0,0.0,-0.08494711808290487,0.0,-0.17596528828142183,-0.1955961274413348,-0.27341562989902174,-0.17085101985918283,-0.7465015443014663,-0.09116370229965691
8524,7.0,300.43212,1931.3637,0.0,0.0,0.0,0.0,-0.08495708489248868,0.0,-0.18940286925260783,-0.15275989528622785,-0.24492355384457276,-0.16500920746764086,-0.7479432776037543,-0.07843485734941773
8525,7.0,300.79485,2009.7892,0.0,0.0,0.0,0.0,-0.08496705170207251,0.0,-0.18416909811357482,-0.17976902915682183,-0.24698759496077777,-0.15739238355091884,-0.6862348570361074,-0.05611895608700974
8526,7.0,300.28559,2007.4034,0.0,0.0,0.0,0.0,-0.08497701851165634,0.0,-0.1837611940208178,-0.15686238282111187,-0.26957692176267073,-0.1971895442835928,-0.7130459613071574,-0.037419613956028365
8527,7.0,299.89069,1838.3229,0.0,0.0,0.0,0.0,-0.08498698532124015,0.0,-0.15574841566117184,-0.15309995215228886,-0.24995589086372577,-0.18507918922089384,-0.7359927526118294,-0.04256698323253416
8528,7.0,300.58327,1971.094,0.0,0.0,0.0,0.0,-0.08499695213082398,0.0,-0.16405790747875484,-0.18691911967998082,-0.24818633062408374,-0.19336245812588881,-0.7436564900081812,-0.055214124760959854
8529,7.0,300.07015,2176.1543,0.0,0.0,0.0,0.0,-0.08500691894040778,0.0,-0.2034929022281858,-0.18159600014712982,-0.27640766625181273,-0.17869360603068585,-0.7252197559586173,-0.06093125368794654
8530,7.0,300.63402,2155.6669,0.0,0.0,0.0,0.0,-0.08501688574999161,0.0,-0.2078575783589458,-0.19175945593768481,-0.2556518864333768,-0.1838145213735808,-0.7375204601851023,-0.06593017777180193
8531,7.0,300.54222000000004,1835.1735,0.0,0.0,0.0,0.0,-0.08502685255957544,0.0,-0.17154793327796283,-0.16186976349030183,-0.2244292229494398,-0.17577400692754383,-0.7316755675132564,-0.06390740025266935
8532,7.0,299.64772999999997,1660.9921,0.0,0.0,0.0,0.0,-0.08503681936915926,0.0,-0.14542677126500486,-0.11320265191223189,-0.24627071038252676,-0.14927667581496087,-0.7323505643323733,-0.03797706059129406
8533,7.0,299.70142999999996,1813.3355,0.0,0.0,0.0,0.0,-0.08504678617874308,0.0,-0.15750427675946185,-0.15236284310204185,-0.2413416032835618,-0.14906186679376085,-0.7245872548486942,-0.05169417396031775
8534,7.0,299.88013,2013.4575,0.0,0.0,0.0,0.0,-0.08505675298832689,0.0,-0.15052306463046985,-0.16393290281391784,-0.2975848466543377,-0.17464684725130183,-0.7463911203055682,-0.04550863471085255
8535,7.0,298.84217,2042.8381,0.0,0.0,0.0,0.0,-0.08506671979791072,0.0,-0.17376410376418183,-0.19122498677493682,-0.25598267206102276,-0.19907825260249382,-0.7739429914597263,-0.08143720453522633
8536,7.0,300.91231,1916.2667,0.0,0.0,0.0,0.0,-0.08507668660749455,0.0,-0.19541243533070582,-0.13517322740805887,-0.2519115750142367,-0.18511941524986383,-0.7336380607044394,-0.022384664467194375
8537,7.0,300.52147,1888.5967,0.0,0.0,0.0,0.0,-0.08508665341707836,0.0,-0.19276512692693681,-0.15554058793316086,-0.22578052368030277,-0.1953356715031298,-0.7102155383453163,-0.044489925219313754
8538,7.0,301.0492,2216.8662,0.0,0.0,0.0,0.0,-0.08509662022666219,0.0,-0.2129628896503008,-0.17157437910557283,-0.2893347110276127,-0.1785186481359188,-0.7311009533815463,-0.007413984317628284
8539,7.0,301.99845,2347.4693,0.0,0.0,0.0,0.0,-0.08510658703624599,0.0,-0.21217177436972381,-0.18452900454909482,-0.31687127197275966,-0.20465511022538682,-0.7474792597204593,-0.034128022370173566
8540,7.0,300.95565,1942.5412,0.0,0.0,0.0,0.0,-0.08511655384582982,0.0,-0.13028228944036088,-0.18224332510601582,-0.27795841513235975,-0.14825960576208386,-0.7403170000635992,-0.05227652526979136
8541,7.0,300.47182000000004,1722.5512,0.0,0.0,0.0,0.0,-0.08512652065541365,0.0,-0.13782701047996687,-0.15911372321830186,-0.22667180886576577,-0.14361044953324786,-0.7360784026427823,-0.07836814293633353
8542,7.0,300.38813,1985.0288,0.0,0.0,0.0,0.0,-0.08513648746499747,0.0,-0.1997184949431808,-0.15226470982985685,-0.25141598425782574,-0.14756529639606086,-0.7498992251992912,-0.035366307211382765
8543,7.0,299.82242,1981.9157,0.0,0.0,0.0,0.0,-0.08514645427458128,0.0,-0.1938495375814598,-0.16006998813267787,-0.24853335865083273,-0.2057165201026398,-0.7679806428362882,-0.057737865288533655
8544,7.0,299.67192,1853.0654,0.0,0.0,0.0,0.0,-0.0851564210841651,0.0,-0.17238852556092285,-0.14170351284504787,-0.24919356201848977,-0.19290276682052082,-0.7300695255747524,-0.03185478766482277
8545,7.0,300.16111,1896.4636,0.0,0.0,0.0,0.0,-0.08516638789374893,0.0,-0.16349147027535185,-0.16961138942184084,-0.24337472000671476,-0.19654323257480683,-0.7160959555656683,-0.048860732526428856
8546,7.0,299.74228,2061.9393,0.0,0.0,0.0,0.0,-0.08517635470333276,0.0,-0.15453890914930285,-0.19242727894609382,-0.2798118623477807,-0.15247009562512687,-0.7281032934907002,-0.07376461639925083
8547,7.0,300.88267,2228.9865,0.0,0.0,0.0,0.0,-0.08518632151291657,0.0,-0.22423875219564177,-0.18268107954671883,-0.27063640646473375,-0.18285357524374282,-0.7427855407522252,-0.05991350577075265
8548,7.0,300.52331000000004,2244.0570000000002,0.0,0.0,0.0,0.0,-0.0851962883225004,0.0,-0.2015631674127358,-0.2106988329643558,-0.2698753036521187,-0.16050786416339285,-0.7132599799932794,-0.053804624970853046
8549,7.0,300.59101,1866.5288,0.0,0.0,0.0,0.0,-0.08520625513208421,0.0,-0.17874505887076383,-0.15535635879997886,-0.23327673030512078,-0.17117106503576884,-0.7095843037980184,-0.031048905277288368
8550,7.0,300.19937000000004,1658.0638,0.0,0.0,0.0,0.0,-0.08521622194166802,0.0,-0.13634848606654787,-0.14443043230917388,-0.22323108510369277,-0.18044969004399783,-0.7172065688677773,-0.05034568803823255
8551,7.0,299.3081,2006.5228,0.0,0.0,0.0,0.0,-0.08522618875125186,0.0,-0.14860216535589185,-0.2041403994395888,-0.25719027366270375,-0.18625879472231183,-0.7470274717658713,-0.05234047249685245
8552,7.0,299.57254,2152.5713,0.0,0.0,0.0,0.0,-0.08523615556083568,0.0,-0.15117607392241686,-0.2048735061519408,-0.2982783656852827,-0.2075605947546358,-0.7334745221382993,-0.07117831882375314
8553,7.0,300.15811,1879.8241,0.0,0.0,0.0,0.0,-0.0852461223704195,0.0,-0.17675292811415583,-0.18649813452843284,-0.20816853468213478,-0.16163404098703785,-0.7524987487283443,-0.06203319660894985
8554,7.0,300.38397000000003,1768.033,0.0,0.0,0.0,0.0,-0.08525608918000331,0.0,-0.17643167716995084,-0.15442119988518585,-0.2065850071608528,-0.19370589924728382,-0.7521062257721053,-0.06592871666515773
8555,7.0,300.81408999999996,2103.8255,0.0,0.0,0.0,0.0,-0.08526605598958714,0.0,-0.2259886553833438,-0.15320559360771485,-0.26031617048620576,-0.15508501042319886,-0.7391607499769863,-0.02893573267698447
8556,7.0,301.28425,2152.9643,0.0,0.0,0.0,0.0,-0.08527602279917097,0.0,-0.2095583186517958,-0.17968243680327584,-0.26520664235885777,-0.18778816402574883,-0.7211640907108543,-0.04739516555528866
8557,7.0,301.12944,2235.1214,0.0,0.0,0.0,0.0,-0.08528598960875478,0.0,-0.18053032448695583,-0.18210778264013883,-0.3167829773590457,-0.18115855981395781,-0.6942703356291473,-0.05963522372353835
8558,7.0,300.0922,2127.4949,0.0,0.0,0.0,0.0,-0.0852959564183386,0.0,-0.19303237164081183,-0.19223623063973883,-0.2614367339042968,-0.2210861866295078,-0.7291717961186532,-0.06956645475017453
8559,7.0,300.57726,1823.8843,0.0,0.0,0.0,0.0,-0.08530592322792242,0.0,-0.1794538577132168,-0.16002516194825384,-0.2149362550150568,-0.18877407663805082,-0.7676102188647302,-0.05687200254807964
8560,7.0,299.41938,1668.5759,0.0,0.0,0.0,0.0,-0.08531589003750624,0.0,-0.15604777027071584,-0.1387503548985939,-0.2124072942229678,-0.2003977575452188,-0.7207224149922643,-0.008662708066667722
8561,7.0,300.58842000000004,2040.5078,0.0,0.0,0.0,0.0,-0.08532585684709006,0.0,-0.19509843925721682,-0.18106830962755083,-0.24409667083546577,-0.16510419966451587,-0.7522667347204464,-0.01069326197634279
8562,7.0,299.534,2208.6543,0.0,0.0,0.0,0.0,-0.08533582365667389,0.0,-0.1968511592801968,-0.19083525025647283,-0.2836893374329577,-0.18661405033987283,-0.7410372384996813,-0.005256259211752395
8563,7.0,299.14896,2022.7898,0.0,0.0,0.0,0.0,-0.08534579046625769,0.0,-0.16951885942270883,-0.17327630490103985,-0.27208241568244373,-0.16582610996326283,-0.7578338448773773,-0.057778944474087844
8564,7.0,299.49273,2037.1552,0.0,0.0,0.0,0.0,-0.08535575727584152,0.0,-0.17559793445766683,-0.1993784786071238,-0.24426789996986475,-0.12992359890496089,-0.7306042683150273,-0.06655179556240085
8565,7.0,300.33864,2171.8922,0.0,0.0,0.0,0.0,-0.08536572408542535,0.0,-0.2045316963632068,-0.17883505574464584,-0.27683423441141175,-0.15654095962438982,-0.7201789785661313,-0.05416721753238815
8566,7.0,300.10348,2079.5486,0.0,0.0,0.0,0.0,-0.08537569089500915,0.0,-0.17906101051694584,-0.18173162367301482,-0.27133821388149676,-0.16240453662807985,-0.7368935116857273,-0.08620331920985523
8567,7.0,300.36812000000003,1954.6649,0.0,0.0,0.0,0.0,-0.08538565770459298,0.0,-0.18524675038993083,-0.14663239702899086,-0.2622901640660238,-0.21782456495511082,-0.7590581144432033,-0.041349360587364166
8568,7.0,300.91553999999996,1680.8387,0.0,0.0,0.0,0.0,-0.0853956245141768,0.0,-0.1181097005565199,-0.14370459060003885,-0.24911871323360274,-0.2084308955305278,-0.7176736670313764,-0.06529020799539184
8569,7.0,300.1191,1503.1129999999998,0.0,0.0,0.0,0.0,-0.08540559132376063,0.0,-0.09320699813331451,-0.14690152638805187,-0.21680028056152179,-0.17644961169672083,-0.7410689937578153,-0.061722678009804036
8570,7.0,301.50107,2117.5832,0.0,0.0,0.0,0.0,-0.08541555813334444,0.0,-0.17592424151987085,-0.2082780264879408,-0.25949015887218474,-0.16888255862491083,-0.7411162213449762,-0.09274522662549121
8571,7.0,300.65879,2299.1852,0.0,0.0,0.0,0.0,-0.08542552494292827,0.0,-0.2330847295436718,-0.2117692506349978,-0.2540409200993868,-0.17045492013009084,-0.7673310380646773,-0.049634944768837654
8572,7.0,299.59944,1897.236,0.0,0.0,0.0,0.0,-0.08543549175251207,0.0,-0.16535889020965186,-0.1939941587682328,-0.2173593311716958,-0.1325970694263119,-0.7337951144699394,-0.042857102067416664
8573,7.0,299.43674,1750.7292,0.0,0.0,0.0,0.0,-0.0854454585620959,0.0,-0.16568202579904284,-0.13571204341373586,-0.23078390201159776,-0.14945192755225686,-0.7280335413538163,-0.02907435339666527
8574,7.0,298.92753,2199.0295,0.0,0.0,0.0,0.0,-0.08545542537167973,0.0,-0.16943847829227585,-0.19659522243743782,-0.30241636763617175,-0.16641762510664085,-0.7353820667765593,-0.037784067857997164
8575,7.0,299.76634,2351.0909,0.0,0.0,0.0,0.0,-0.08546539218126355,0.0,-0.21896923359308082,-0.18081152165470785,-0.3148921614799367,-0.22170205017278877,-0.7683400223817562,-0.05939036677062284
8576,7.0,299.95331,1946.085,0.0,0.0,0.0,0.0,-0.08547535899084736,0.0,-0.1861492015914958,-0.15015283317643086,-0.2552592317546248,-0.1960958927881578,-0.7152193017116493,-0.06388044780000934
8577,7.0,299.22299,1740.4459,0.0,0.0,0.0,0.0,-0.08548532580043118,0.0,-0.17883346494198885,-0.14241819867058186,-0.2078004411858068,-0.1918807217096528,-0.7385242363966673,-0.08771313987911292
8578,7.0,299.37257999999997,1814.6299,0.0,0.0,0.0,0.0,-0.08549529261001501,0.0,-0.17130079144607183,-0.12267180846926488,-0.25762956824355876,-0.17444996262437085,-0.7367094649375633,-0.039706174926694364
8579,7.0,300.89491,2241.2313,0.0,0.0,0.0,0.0,-0.08550525941959881,0.0,-0.2128519590293528,-0.17059602533901683,-0.29783036728606876,-0.17698764749982082,-0.7705037166452963,-0.05117342521717385
8580,7.0,300.30156,2323.4599,0.0,0.0,0.0,0.0,-0.08551522622918264,0.0,-0.1909461910099218,-0.19993799531234382,-0.3153896166165317,-0.16932846972891885,-0.7463193619334862,-0.024259437557470075
8581,7.0,300.86885,2051.4921,0.0,0.0,0.0,0.0,-0.08552519303876648,0.0,-0.16477194482422483,-0.18618028810456383,-0.27265013971347374,-0.17603710744850984,-0.7546557454087233,-0.02600219834521718
8582,7.0,300.81375,1891.526,0.0,0.0,0.0,0.0,-0.08553515984835028,0.0,-0.16041330766406084,-0.1987773071902928,-0.21578604760892478,-0.1806772052214518,-0.7519367394278783,-0.06598428836689223
8583,7.0,300.34412000000003,2182.0466,0.0,0.0,0.0,0.0,-0.08554512665793411,0.0,-0.21737548237828977,-0.17058430203535985,-0.2753278861502467,-0.1964924079497908,-0.7534064992279323,-0.03570401232396166
8584,7.0,300.8145,2314.2119,0.0,0.0,0.0,0.0,-0.08555509346751793,0.0,-0.2223307009323318,-0.1999471145632438,-0.28118482636578174,-0.19925302811224282,-0.7159895440401663,-0.058571755935332245
8585,7.0,300.1671,1723.2295,0.0,0.0,0.0,0.0,-0.08556506027710176,0.0,-0.13092443669123585,-0.15182995460944984,-0.24106433752619777,-0.16602551758294284,-0.7159374832500284,-0.03519800738302287
8586,7.0,299.68928,1463.2269,0.0,0.0,0.0,0.0,-0.08557502708668557,0.0,-0.07877908373964022,-0.12462784725731088,-0.2413775027346048,-0.1932662500288938,-0.7432162936347373,-0.09114307860712151
8587,7.0,299.42461000000003,1806.4460000000001,0.0,0.0,0.0,0.0,-0.08558499389626939,0.0,-0.14316032330882386,-0.14393006914479187,-0.26202408458976373,-0.15950615498203183,-0.7625689956422003,-0.07190238126571254
8588,7.0,299.94669,2163.533,0.0,0.0,0.0,0.0,-0.08559496070585322,0.0,-0.22377682160755277,-0.16097653286464686,-0.27290666424129073,-0.18230212400931883,-0.7321991341049283,-0.08818083484702081
8589,7.0,299.52162999999996,2212.5696,0.0,0.0,0.0,0.0,-0.08560492751543702,0.0,-0.2148711232986288,-0.19727179992671082,-0.26042298731174773,-0.16118128031235385,-0.7380694593542843,-0.07354127378570863
8590,7.0,299.53555,2030.6781,0.0,0.0,0.0,0.0,-0.08561489432502085,0.0,-0.2088771004770648,-0.17170219047318683,-0.2366961352850898,-0.20290770976543182,-0.7494162392741244,-0.047176724032480154
8591,7.0,299.95133,1918.7212,0.0,0.0,0.0,0.0,-0.08562486113460469,0.0,-0.16685251204956086,-0.14525152966020985,-0.2711392926218647,-0.21577075766491577,-0.7601262523011203,-0.03340611105817647
8592,7.0,301.28272000000004,2119.6145,0.0,0.0,0.0,0.0,-0.0856348279441885,0.0,-0.17389987927758183,-0.1880858771701308,-0.2823241247782217,-0.19888043578547082,-0.7541812505193943,-0.014578908923576286
8593,7.0,300.31012000000004,2289.8371,0.0,0.0,0.0,0.0,-0.08564479475377232,0.0,-0.1916297700573858,-0.18926953567194882,-0.3151539853057767,-0.1795720837348848,-0.7283959201195803,-0.028188645139752676
8594,7.0,299.69813,1940.4613,0.0,0.0,0.0,0.0,-0.08565476156335614,0.0,-0.19849905858033182,-0.13771006115342488,-0.25364267228008275,-0.17984322946164483,-0.7340444145245433,-0.04069715378949636
8595,7.0,300.38771,1720.0434,0.0,0.0,0.0,0.0,-0.08566472837293997,0.0,-0.16009543084268885,-0.14076914426533288,-0.2219856791407808,-0.13757924043301387,-0.7596939694109572,-0.07378398264841213
8596,7.0,299.71977000000004,1900.1984,0.0,0.0,0.0,0.0,-0.08567469518252378,0.0,-0.2045843752359058,-0.12925170263114988,-0.24377679791139678,-0.16702945591452384,-0.7230852230329553,-0.05357674704986324
8597,7.0,299.39045,2205.9926,0.0,0.0,0.0,0.0,-0.0856846619921076,0.0,-0.17428708267079585,-0.1926117715243018,-0.30366782270218073,-0.16829863272478185,-0.7400768091273943,-0.059274432720681045
8598,7.0,299.19007999999997,1954.8210000000001,0.0,0.0,0.0,0.0,-0.08569462880169143,0.0,-0.15352626699936286,-0.17317098768564582,-0.26751951743462077,-0.21922307300813276,-0.7601066965741903,-0.08005207847627502
8599,7.0,298.59348,1800.1252,0.0,0.0,0.0,0.0,-0.08570459561127523,0.0,-0.16856120635569585,-0.13600092101724587,-0.24263098430081378,-0.22051454132059078,-0.7674570458471133,-0.03379842832464517
8600,7.0,299.45921,2011.4056,0.0,0.0,0.0,0.0,-0.08571456242085906,0.0,-0.1931609226809988,-0.17867135505848983,-0.23958478973017777,-0.1894322636380088,-0.7482865870026363,-0.06968191459906953
8601,7.0,299.55174,2136.5988,0.0,0.0,0.0,0.0,-0.0857245292304429,0.0,-0.2167445923360258,-0.18406457123325884,-0.24866353089117976,-0.18083595111461884,-0.7116756317394164,-0.04596924402081116
8602,7.0,299.23032,2243.237,0.0,0.0,0.0,0.0,-0.08573449604002671,0.0,-0.2049972341216518,-0.2103707020519718,-0.2665200981984857,-0.18810279844680083,-0.7122619286447793,-0.057303591361924144
8603,7.0,299.14291000000003,1988.5132,0.0,0.0,0.0,0.0,-0.08574446284961053,0.0,-0.16724004981530785,-0.16528992840784584,-0.27192837126974073,-0.18242014738096682,-0.7298157266897043,-0.02079455386001268
8604,7.0,299.83689,1721.9245,0.0,0.0,0.0,0.0,-0.08575442965919435,0.0,-0.13239896889926087,-0.13058937514816787,-0.26043370749780576,-0.17979991301986983,-0.7292704968108943,-0.03196594525379317
8605,7.0,300.02358,1896.69,0.0,0.0,0.0,0.0,-0.08576439646877818,0.0,-0.15357400121157386,-0.18438806146018483,-0.23858432684643974,-0.15989431083033984,-0.7356971064976513,-0.062057711181869236
8606,7.0,299.69847000000004,2301.144,0.0,0.0,0.0,0.0,-0.08577436327836199,0.0,-0.20843248633318479,-0.2009812072178008,-0.29007663301583475,-0.17180136739297483,-0.7445413613205113,-0.07718035037410752
8607,7.0,300.50197000000003,2193.5718,0.0,0.0,0.0,0.0,-0.08578433008794581,0.0,-0.22963346798055875,-0.16726088223736385,-0.2698967034942307,-0.18036428319306883,-0.7512410013792143,-0.07726074062379143
8608,7.0,300.69237999999996,1617.9268,0.0,0.0,0.0,0.0,-0.08579429689752964,0.0,-0.14147640296763386,-0.15055907553902384,-0.1997738589286448,-0.17078631370779684,-0.7306514351071823,-0.06463263705149463
8609,7.0,300.24478,1731.2631,0.0,0.0,0.0,0.0,-0.08580426370711344,0.0,-0.14787512801163885,-0.12363484189430889,-0.25475078285444475,-0.19479574092234284,-0.7199190089879742,-0.04886754156710085
8610,7.0,299.56729,2169.8496,0.0,0.0,0.0,0.0,-0.08581423051669727,0.0,-0.2001246562457658,-0.1888047679835798,-0.27065067302614176,-0.1892635980263628,-0.7475451412419614,-0.02815780484645897
8611,7.0,298.83617000000004,2225.1309,0.0,0.0,0.0,0.0,-0.0858241973262811,0.0,-0.2153791365012658,-0.17966445161400083,-0.2813406338336587,-0.2000726562506338,-0.7425519967366763,-0.021791751038678378
8612,7.0,298.77714,2029.6802,0.0,0.0,0.0,0.0,-0.08583416413586492,0.0,-0.1918382462654608,-0.15681534775146988,-0.26831849553597376,-0.16875450407727285,-0.7487325994316543,-0.03178465657240137
8613,7.0,298.95594,2098.4279,0.0,0.0,0.0,0.0,-0.08584413094544874,0.0,-0.20704906557415179,-0.18545128505511682,-0.24536931296106576,-0.17311256368487982,-0.7534554392077624,-0.04984448590276775
8614,7.0,299.32738,2122.1253,0.0,0.0,0.0,0.0,-0.08585409775503255,0.0,-0.17418151214287683,-0.1975151218057248,-0.27337646778265673,-0.17102216793357386,-0.7478480523593563,-0.06497189142347644
8615,7.0,300.14353,2229.9495,0.0,0.0,0.0,0.0,-0.08586406456461639,0.0,-0.19780687703951882,-0.1904912417150218,-0.2895508474064437,-0.1934146709035418,-0.7506495368983414,-0.03345719608846817
8616,7.0,300.2795,2143.8338,0.0,0.0,0.0,0.0,-0.0858740313742002,0.0,-0.18196013183556684,-0.2083718534472008,-0.26133993812224376,-0.16178480246941684,-0.7155065074524943,-0.06349910909837414
8617,7.0,299.71289,1587.5868,0.0,0.0,0.0,0.0,-0.08588399818378402,0.0,-0.14181138345069388,-0.11673213638306489,-0.22404321519134376,-0.20024926574306381,-0.7084050124041313,-0.06621274080068874
8618,7.0,300.38897000000003,1736.1839,0.0,0.0,0.0,0.0,-0.08589396499336785,0.0,-0.13268632662762087,-0.1837982789744778,-0.21127194748591782,-0.14625455606670087,-0.7510419382645683,-0.12363326122415287
8619,7.0,299.47606,2066.9946,0.0,0.0,0.0,0.0,-0.08590393180295165,0.0,-0.2098953357675568,-0.15422159974798685,-0.26419781002929377,-0.18002280777686783,-0.7454634493090143,-0.046472595259738056
8620,7.0,300.37556,2187.6023,0.0,0.0,0.0,0.0,-0.08591389861253548,0.0,-0.1918432213234518,-0.2059732270154748,-0.2671600264316418,-0.17523231329158284,-0.7628935599142324,-0.06404487194673673
8621,7.0,300.82308,1891.3427,0.0,0.0,0.0,0.0,-0.08592386542211931,0.0,-0.15272935592821385,-0.15997697177349784,-0.2622146161385678,-0.18650939173704384,-0.7542224391359592,-0.02407365409863468
8622,7.0,299.49402000000003,1867.0520000000001,0.0,0.0,0.0,0.0,-0.08593383223170313,0.0,-0.17523285031413585,-0.14516301213147387,-0.24714132526594976,-0.21742644885831983,-0.7586355587540002,-0.02324339088719408
8623,7.0,300.06728,2242.9234,0.0,0.0,0.0,0.0,-0.08594379904128695,0.0,-0.19458811584435182,-0.19150873733294083,-0.2956958647579097,-0.16459863852712084,-0.7351101712447253,-0.03087023686065517
8624,7.0,299.87403,2229.4162,0.0,0.0,0.0,0.0,-0.08595376585087076,0.0,-0.20987102789765782,-0.18560620086290583,-0.28220962751692175,-0.16529291749564085,-0.7543077243968763,-0.05439646536751315
8625,7.0,299.10235,2015.7917,0.0,0.0,0.0,0.0,-0.0859637326604546,0.0,-0.18379307086896382,-0.16470779596039384,-0.2642494655193917,-0.14202277781905687,-0.7078756196243844,-0.07923063054070444
8626,7.0,299.9571,1866.0297,0.0,0.0,0.0,0.0,-0.08597369947003841,0.0,-0.15894059930621585,-0.17707781662621982,-0.23120803837095677,-0.18033581086525885,-0.7511300403607633,-0.06865312529553592
8627,7.0,299.83296,1734.4466,0.0,0.0,0.0,0.0,-0.08598366627962223,0.0,-0.16100948375789884,-0.12823253515056587,-0.23798644849243375,-0.19032641632125483,-0.7206273721328843,-0.04746221535415595
8628,7.0,299.4662,1910.0268,0.0,0.0,0.0,0.0,-0.08599363308920606,0.0,-0.19426731073019082,-0.14424841206120986,-0.24208473103940278,-0.2107486139417688,-0.7379352847760423,-0.02214618389715818
8629,7.0,300.96631,2187.9345,0.0,0.0,0.0,0.0,-0.08600359989878986,0.0,-0.2108057511149078,-0.18067104466084383,-0.27360064936728173,-0.1960695989480628,-0.7261380645242473,-0.023411982531582776
8630,7.0,298.84934,1866.4706,0.0,0.0,0.0,0.0,-0.08601356670837369,0.0,-0.16997348447757685,-0.15787649418369684,-0.23951046783534274,-0.19905759243295482,-0.7584854254866832,-0.07444064166721934
8631,7.0,299.18933,1923.1152,0.0,0.0,0.0,0.0,-0.08602353351795752,0.0,-0.19359146278098982,-0.15599033925504785,-0.2349971884449168,-0.17564903266020984,-0.7769237908689083,-0.036288180390864566
8632,7.0,299.87793,2320.0868,0.0,0.0,0.0,0.0,-0.08603350032754134,0.0,-0.2043550463407728,-0.1981108520695188,-0.3027825460898107,-0.15738182548487684,-0.7884953096609282,-0.07364045678499723
8633,7.0,298.8212,2136.5675,0.0,0.0,0.0,0.0,-0.08604346713712516,0.0,-0.2033275499443668,-0.17089728485874883,-0.27523832497390777,-0.16245075096514086,-0.7631823868552373,-0.034376811746727166
8634,7.0,300.22342000000003,1864.2047,0.0,0.0,0.0,0.0,-0.08605343394670897,0.0,-0.14191526185094586,-0.18522449941773483,-0.2395319183399598,-0.15730730094002185,-0.7695103262472562,-0.07527368827668462
8635,7.0,300.68644,1913.0439,0.0,0.0,0.0,0.0,-0.0860634007562928,0.0,-0.16766250417950085,-0.16233967848917882,-0.25151537396013474,-0.18072340942601184,-0.7313808535891703,-0.03243169782125937
8636,7.0,299.75524,1754.8602,0.0,0.0,0.0,0.0,-0.08607336756587662,0.0,-0.14947773503230385,-0.15524356379884685,-0.22871239324215578,-0.16267379770965384,-0.7230986384642794,-0.10938395546535588
8637,7.0,300.61832999999996,1892.5807,0.0,0.0,0.0,0.0,-0.08608333437546044,0.0,-0.17454457991870884,-0.16930404026900783,-0.23144864473970278,-0.17608767876100084,-0.6887637469006894,-0.07473552075107164
8638,7.0,299.73551000000003,2157.7391,0.0,0.0,0.0,0.0,-0.08609330118504427,0.0,-0.17936712350465683,-0.2062437242621708,-0.27028794975534376,-0.17694920479102683,-0.7450472872279422,-0.09332585135679441
8639,7.0,298.82761,2097.4146,0.0,0.0,0.0,0.0,-0.08610326799462807,0.0,-0.2072199299385148,-0.16782179722772186,-0.2625199387912008,-0.2069352978529238,-0.7371022006763234,-0.03396618606420157
8640,7.0,300.01923,2120.6974,0.0,0.0,0.0,0.0,-0.0861132348042119,0.0,-0.20765760331920982,-0.16212753431574184,-0.27485391815096977,-0.1927528666007268,-0.7471234468153433,-0.03235093368228857
8641,7.0,298.43203,2397.9544,0.0,0.0,0.0,0.0,-0.08612320161379573,0.0,-0.2208190027106388,-0.2175480186053178,-0.29055122923017374,-0.17488123226443383,-0.7305069456429223,-0.04087190396799286
8642,7.0,298.62394,2318.4569,0.0,0.0,0.0,0.0,-0.08613316842337955,0.0,-0.2099440528323648,-0.19622084679048982,-0.2985880959758507,-0.15933320332246284,-0.7541815342294222,-0.041330054119958756
8643,7.0,299.67199,2185.9294,0.0,0.0,0.0,0.0,-0.08614313523296337,0.0,-0.17123844616741885,-0.20447425521503781,-0.28875523329542274,-0.18463358209191583,-0.7514410068164533,-0.05841077278594445
8644,7.0,300.29958,2072.6559,0.0,0.0,0.0,0.0,-0.08615310204254718,0.0,-0.16789719316766283,-0.17005020777514882,-0.2920882283068637,-0.14269488687538887,-0.7664824005759233,-0.040695922690624865
8645,7.0,299.8208,1872.1135,0.0,0.0,0.0,0.0,-0.08616306885213101,0.0,-0.18463976291752582,-0.14736886773167487,-0.23706712667670377,-0.19520231765746882,-0.7341140349389143,-0.051388361907886454
8646,7.0,299.96867000000003,1835.692,0.0,0.0,0.0,0.0,-0.08617303566171484,0.0,-0.17011098251614684,-0.15134038255863286,-0.2365531758284808,-0.15975616431170583,-0.7508385688369973,-0.04335618144392196
8647,7.0,299.30425,1792.2991,0.0,0.0,0.0,0.0,-0.08618300247129865,0.0,-0.17110245787149783,-0.13761323497386888,-0.2360984595811038,-0.1925790030160678,-0.7487625409721093,-0.05749568432913224
8648,7.0,299.71861,2101.9392,0.0,0.0,0.0,0.0,-0.08619296928088248,0.0,-0.2032627019379668,-0.18079002048758583,-0.25488431908512377,-0.17644056337332784,-0.7303064639781363,-0.05140258185978986
8649,7.0,299.8672,2012.835,0.0,0.0,0.0,0.0,-0.08620293609046628,0.0,-0.15389124981788385,-0.18194527758910084,-0.27601504197056376,-0.1887511873182918,-0.7342464059319783,-0.08282160510710601
8650,7.0,298.76108,2012.029,0.0,0.0,0.0,0.0,-0.08621290290005011,0.0,-0.16826203413116986,-0.18629446112583184,-0.2570500803788678,-0.18276077166708382,-0.7541344484972753,-0.055995109567037044
8651,7.0,298.57816,2310.9825,0.0,0.0,0.0,0.0,-0.08622286970963394,0.0,-0.2389546089629838,-0.19342334432439784,-0.27010300121459074,-0.21297855449684677,-0.7509201557350493,-0.02981503010051437
8652,7.0,299.28547000000003,2269.7334,0.0,0.0,0.0,0.0,-0.08623283651921776,0.0,-0.2261585267626088,-0.17250430964984984,-0.29127943181204174,-0.2009106140833338,-0.7570014295227243,-0.013583395766576788
8653,7.0,299.09172,1987.1354,0.0,0.0,0.0,0.0,-0.08624280332880158,0.0,-0.19191581056061582,-0.18230256983936283,-0.2298211624290828,-0.19362142458644682,-0.7189902335488113,-0.06710581639907844
8654,7.0,300.85519,2003.6588,0.0,0.0,0.0,0.0,-0.08625277013838539,0.0,-0.15583554503727085,-0.18317906157336583,-0.2700476372291267,-0.17953747111146884,-0.7371860977846033,-0.06306122192190804
8655,7.0,300.46269,1750.7862,0.0,0.0,0.0,0.0,-0.08626273694796922,0.0,-0.12865602302986087,-0.15171094838520485,-0.25182832638602076,-0.14962364304670386,-0.7450778265859562,-0.08279208710519283
8656,7.0,299.80455,1789.6784,0.0,0.0,0.0,0.0,-0.08627270375755305,0.0,-0.12690571454211888,-0.16270007128474684,-0.2544117595034857,-0.16255693957562087,-0.7653803492371593,-0.051058524682334044
8657,7.0,301.05055,2118.1296,0.0,0.0,0.0,0.0,-0.08628267056713686,0.0,-0.2095951604254318,-0.17465683789728784,-0.2596065103811677,-0.14349146357400486,-0.7376519496505793,-0.06251017193452364
8658,7.0,300.24595,2124.7461,0.0,0.0,0.0,0.0,-0.08629263737672069,0.0,-0.1926835602938868,-0.17594581361449985,-0.2772403754489947,-0.17559963671783482,-0.7511820403558953,-0.02488860102156368
8659,7.0,298.97225,2008.8731,0.0,0.0,0.0,0.0,-0.08630260418630449,0.0,-0.1884741850059538,-0.17963997149158484,-0.24253309420865277,-0.17297759877155983,-0.7497322213178093,-0.04321053586129787
8660,7.0,299.66625,2389.8521,0.0,0.0,0.0,0.0,-0.08631257099588832,0.0,-0.21336936506041682,-0.18863255599658382,-0.3244534528685627,-0.19905547474024582,-0.7282423924644283,-0.025869079573579375
8661,7.0,298.81789,2559.4784,0.0,0.0,0.0,0.0,-0.08632253780547215,0.0,-0.2217752980225178,-0.2099781993607348,-0.34626404630610064,-0.19245883155420782,-0.7379540704328963,-0.06106570184371554
8662,7.0,299.14182999999997,2073.8444,0.0,0.0,0.0,0.0,-0.08633250461505597,0.0,-0.17384916611007684,-0.17400056594001884,-0.28254717152273473,-0.1964325248688808,-0.7587020786230653,-0.027165055835732276
8663,7.0,300.01151,1694.6964,0.0,0.0,0.0,0.0,-0.08634247142463979,0.0,-0.16358608756968984,-0.11123919613345389,-0.24032009519524677,-0.18315224084321882,-0.7758662617395383,-0.037228302204647366
8664,7.0,299.01126,1780.3329999999999,0.0,0.0,0.0,0.0,-0.0863524382342236,0.0,-0.16614479738471485,-0.14186689942367287,-0.23316509040910277,-0.19187908024449082,-0.7479933524236964,-0.004222094819088316
8665,7.0,300.44223999999997,1918.4028,0.0,0.0,0.0,0.0,-0.08636240504380743,0.0,-0.1897331887852078,-0.18238123857712682,-0.21103212131974883,-0.16434987549506985,-0.7352486825333954,-0.06856794845237964
8666,7.0,300.9215,2180.5898,0.0,0.0,0.0,0.0,-0.08637237185339126,0.0,-0.17822307294924783,-0.20851333355866378,-0.27610843323228074,-0.18967809837727082,-0.7310271887742663,-0.07650548933050393
8667,7.0,300.48037,2252.2261,0.0,0.0,0.0,0.0,-0.08638233866297507,0.0,-0.16453913034874784,-0.23226404762517677,-0.28781732847285874,-0.16081666226386884,-0.7694544657692433,-0.0930181698579286
8668,7.0,300.87512999999996,1985.2973,0.0,0.0,0.0,0.0,-0.0863923054725589,0.0,-0.14310613469347586,-0.17772000440709884,-0.2826546773583447,-0.17541714024232385,-0.7370615592148123,-0.04991376079885466
8669,7.0,300.79996,2084.6128,0.0,0.0,0.0,0.0,-0.0864022722821427,0.0,-0.17984629960944784,-0.2040675568898998,-0.24975639205153674,-0.16460462683521182,-0.7623647345545412,-0.06974431459322794
8670,7.0,299.2399,2280.8283,0.0,0.0,0.0,0.0,-0.08641223909172653,0.0,-0.24586670730265475,-0.16479633375413183,-0.2826517997280607,-0.1949183239194408,-0.7583093327518043,-0.022273970946769778
8671,7.0,299.54522000000003,1937.3415,0.0,0.0,0.0,0.0,-0.08642220590131035,0.0,-0.19635376493860782,-0.15836707948461384,-0.2341825860270218,-0.20732105229849482,-0.7543767672586903,-0.026756407004151776
8672,7.0,298.65398,1468.4653,0.0,0.0,0.0,0.0,-0.08643217271089418,0.0,-0.1073204513717039,-0.12896452728780788,-0.2100918049619468,-0.16428918181407984,-0.7628007867350762,-0.05641541888076834
8673,7.0,299.68746,1882.2642,0.0,0.0,0.0,0.0,-0.08644213952047798,0.0,-0.14313820405914085,-0.17099487097587984,-0.25802826189290673,-0.16582260411791683,-0.7373608124993463,-0.08706480572312732
8674,7.0,300.52057,2310.8033,0.0,0.0,0.0,0.0,-0.08645210633006181,0.0,-0.23056856610034576,-0.17595954315335482,-0.29589840332039874,-0.19484704177490583,-0.7243961356148323,-0.06383039831131984
8675,7.0,300.00847999999996,2140.2418,0.0,0.0,0.0,0.0,-0.08646207313964563,0.0,-0.22709802238782978,-0.17245849048032783,-0.25102355249409575,-0.1907382822219028,-0.7593999647619413,-0.06252863943084623
8676,7.0,300.2217,1996.8902,0.0,0.0,0.0,0.0,-0.08647203994922945,0.0,-0.2060681989473478,-0.17963034561563482,-0.22130623415372477,-0.1897552168423818,-0.7247464871019093,-0.057753256557552646
8677,7.0,301.06592,2075.8269,0.0,0.0,0.0,0.0,-0.08648200675881328,0.0,-0.2062237835002028,-0.17240547723509583,-0.2523702834670078,-0.18157415447497383,-0.7278358157293023,-0.04953451547192605
8678,7.0,300.26161,2146.7641,0.0,0.0,0.0,0.0,-0.08649197356839709,0.0,-0.17905286398614184,-0.1954954306463968,-0.2780143769353828,-0.1836356725984298,-0.7492514949403654,-0.053046041097986656
8679,7.0,299.20187000000004,2004.0801,0.0,0.0,0.0,0.0,-0.08650194037798091,0.0,-0.15966991646319387,-0.16498724020547284,-0.28453315185123573,-0.2065690687367798,-0.7681135913819093,-0.06238364739453664
8680,7.0,298.68216,1856.5949,0.0,0.0,0.0,0.0,-0.08651190718756473,0.0,-0.15557030655859386,-0.15317747591743985,-0.2556107079493128,-0.16229403157217384,-0.7599295196617043,-0.013301766954282188
8681,7.0,299.07765,1518.0635,0.0,0.0,0.0,0.0,-0.08652187399714856,0.0,-0.14724493711194386,-0.09770376458686081,-0.2165046851098488,-0.17350883566648884,-0.7785205007739913,-0.03978734537895526
8682,7.0,299.88885,1686.3681,0.0,0.0,0.0,0.0,-0.08653184080673236,0.0,-0.16671095087808985,-0.14024528383113186,-0.2056575489468198,-0.18806438613550983,-0.7599211096858742,-0.03105040590068647
8683,7.0,299.58847000000003,2127.0766,0.0,0.0,0.0,0.0,-0.08654180761631619,0.0,-0.21948663962414477,-0.15689695491452385,-0.27019456862612773,-0.20798674748169382,-0.7807985605763182,-0.05925730372774053
8684,7.0,300.55107999999996,2303.9172,0.0,0.0,0.0,0.0,-0.08655177442590001,0.0,-0.19598750542496082,-0.20990479952349078,-0.29444100517156474,-0.2124464664718338,-0.7385096759927303,-0.08699130354762323
8685,7.0,300.6807,1974.1443,0.0,0.0,0.0,0.0,-0.08656174123548384,0.0,-0.16196368164207087,-0.2024639062216318,-0.23566299508562677,-0.17479373811829882,-0.7582349804594664,-0.1127336691034469
8686,7.0,299.55384,1886.4647,0.0,0.0,0.0,0.0,-0.08657170804506766,0.0,-0.17594176061409983,-0.16190079934086485,-0.23559559368897479,-0.17942674314054083,-0.7367619512927434,-0.07885623260225422
8687,7.0,300.14767,1992.8629,0.0,0.0,0.0,0.0,-0.08658167485465147,0.0,-0.2061303213109788,-0.16362223020075686,-0.23602802856665278,-0.17298234078202784,-0.7311234779312693,-0.03202596714996687
8688,7.0,300.60874,1752.7332,0.0,0.0,0.0,0.0,-0.0865916416642353,0.0,-0.17867030127838585,-0.11983636991942889,-0.23428045585418075,-0.17220572511038182,-0.7282774813153913,-0.023840270176601477
8689,7.0,299.87632,1862.1182,0.0,0.0,0.0,0.0,-0.0866016084738191,0.0,-0.15161369664060687,-0.16430836263847284,-0.25011536629696474,-0.16317836586195084,-0.7345179974887823,-0.02940477324102517
8690,7.0,299.57916,2061.7614,0.0,0.0,0.0,0.0,-0.08661157528340294,0.0,-0.14899361426702487,-0.18125143431812382,-0.2964789348326927,-0.17103401282724284,-0.7572642564661632,-0.04459231211541855
8691,7.0,298.64926,2074.6884,0.0,0.0,0.0,0.0,-0.08662154209298677,0.0,-0.1860248352742218,-0.16126995996110585,-0.2833586733953237,-0.16441237276123785,-0.7663063990335534,-0.03186324526340747
8692,7.0,298.79602,2207.7719,0.0,0.0,0.0,0.0,-0.08663150890257057,0.0,-0.19025248959395882,-0.2043717143049178,-0.2764833459017817,-0.19078518556903182,-0.7527500347531443,-0.05721845403552175
8693,7.0,299.35073,2319.5451,0.0,0.0,0.0,0.0,-0.0866414757121544,0.0,-0.24299553142179178,-0.16579995797818184,-0.29628831209137974,-0.17185297222056783,-0.7761852936660243,-0.04242154739268076
8694,7.0,300.29739,2047.5606,0.0,0.0,0.0,0.0,-0.08665144252173822,0.0,-0.19631986159026182,-0.18898538994640582,-0.23710204327514975,-0.20627842807809582,-0.7465649230952214,-0.057522671232295645
8695,7.0,300.22538,1822.4601,0.0,0.0,0.0,0.0,-0.08666140933132205,0.0,-0.16002994448872584,-0.14525064813262287,-0.24870177094995374,-0.17451236869802983,-0.7591905057012692,-0.06781317338663913
8696,7.0,300.20486,2118.8703,0.0,0.0,0.0,0.0,-0.08667137614090586,0.0,-0.1913614918284088,-0.16498856756310384,-0.2877336036170957,-0.18752808299008084,-0.7446848375346713,-0.061783968495102946
8697,7.0,299.93714,1933.3939,0.0,0.0,0.0,0.0,-0.08668134295048968,0.0,-0.17183999248678683,-0.17490515509929483,-0.24095831103573379,-0.1737243438302578,-0.7463660221005912,-0.07059447904988263
8698,7.0,300.06154,1707.7339,0.0,0.0,0.0,0.0,-0.08669130976007351,0.0,-0.13199766106465488,-0.15562626836161686,-0.23148454419074577,-0.19038518482705483,-0.7469593914916522,-0.06076633912817074
8699,7.0,299.35616,1871.0349,0.0,0.0,0.0,0.0,-0.08670127656965732,0.0,-0.16453772193110883,-0.14442251882589288,-0.2597876389690437,-0.17247658712711383,-0.7272932608307563,-0.022069605494350476
8700,7.0,300.60661,2240.1401,0.0,0.0,0.0,0.0,-0.08671124337924116,0.0,-0.21877602706401278,-0.19340413310250182,-0.2687664939351877,-0.19277502638041383,-0.7038422256138193,-0.024371719854051475
8701,7.0,299.18686,2257.3768,0.0,0.0,0.0,0.0,-0.08672121018882498,0.0,-0.16156356944258285,-0.2092448494683588,-0.3153777615903617,-0.17968192004572484,-0.7392761692958774,-0.047203043203827656
8702,7.0,299.22763,2131.0585,0.0,0.0,0.0,0.0,-0.08673117699840878,0.0,-0.16245278759784185,-0.20942572474370982,-0.2759100489952017,-0.21015704813588582,-0.7515825882529262,-0.06028533613344945
8703,7.0,299.269,2108.9194,0.0,0.0,0.0,0.0,-0.08674114380799261,0.0,-0.17612465225714982,-0.18036218576536184,-0.28457199986006976,-0.18321625798453683,-0.7619688273429683,-0.06697683371434884
8704,7.0,299.53029,1826.5694,0.0,0.0,0.0,0.0,-0.08675111061757643,0.0,-0.18496317208444382,-0.13513344720913287,-0.23513486886850476,-0.17241748424878084,-0.7624173830297373,-0.07274291072716633
8705,7.0,299.4056,1820.4177,0.0,0.0,0.0,0.0,-0.08676107742716026,0.0,-0.17733733024183182,-0.15479575791715186,-0.2212284469435478,-0.18374519480173881,-0.7544113089545993,-0.05836497793442485
8706,7.0,300.02071,2035.1842,0.0,0.0,0.0,0.0,-0.08677104423674407,0.0,-0.22404618401413678,-0.14076137263706587,-0.25383761146682177,-0.18920536654311582,-0.7617549505118603,-0.04487151216722346
8707,7.0,299.09828,2024.6945,0.0,0.0,0.0,0.0,-0.08678101104632789,0.0,-0.17037955458765283,-0.15581382095512686,-0.28926318570305376,-0.18115807345390983,-0.7549344195837263,-0.041494076006396464
8708,7.0,300.84949,2006.8370000000002,0.0,0.0,0.0,0.0,-0.08679097785591172,0.0,-0.16862855708984284,-0.17224795737454981,-0.26915182281571676,-0.18922374689992982,-0.7334976647705833,-0.06032176551429474
8709,7.0,299.84825,2326.5555,0.0,0.0,0.0,0.0,-0.08680094466549552,0.0,-0.19711876876410783,-0.1823020024193068,-0.3277939965932487,-0.15616194329198385,-0.7334869243195233,-0.041283493251363566
8710,7.0,299.65557,2416.8475,0.0,0.0,0.0,0.0,-0.08681091147507936,0.0,-0.2017872172748478,-0.24245245976569477,-0.29042162440988273,-0.17652788526694582,-0.7562108411321993,-0.057467481525848844
8711,7.0,300.72234,1940.7076,0.0,0.0,0.0,0.0,-0.08682087828466319,0.0,-0.20276657415900282,-0.13880449285143687,-0.24835557378828677,-0.16434479911206884,-0.7485724755183514,-0.02943953278570567
8712,7.0,299.62721,1949.2397,0.0,0.0,0.0,0.0,-0.08683084509424699,0.0,-0.16688355803262483,-0.17140683820153785,-0.25422981018302876,-0.18715840882359683,-0.7505206616181223,-0.03140786432396487
8713,7.0,300.00041,2000.5589,0.0,0.0,0.0,0.0,-0.08684081190383082,0.0,-0.17819248292872883,-0.16977717740320283,-0.26015029131233475,-0.17740338401585085,-0.7651507366319983,-0.04942573395444016
8714,7.0,300.38534,1965.2537,0.0,0.0,0.0,0.0,-0.08685077871341464,0.0,-0.15942676683669685,-0.16773038180369984,-0.27023091390721476,-0.2068213376141768,-0.7652650616407812,-0.06701533721814884
8715,7.0,300.00855,2168.853,0.0,0.0,0.0,0.0,-0.08686074552299847,0.0,-0.17984170958649484,-0.1873321609507448,-0.2921032852033497,-0.2058727430030578,-0.7680873684693212,-0.07351205874557534
8716,7.0,301.1732,2301.0601,0.0,0.0,0.0,0.0,-0.08687071233258228,0.0,-0.21818456258313979,-0.19043902893736883,-0.2908412214087937,-0.1945569888012798,-0.7453883776091053,-0.07873809777309522
8717,7.0,299.51891,2093.4006,0.0,0.0,0.0,0.0,-0.0868806791421661,0.0,-0.20416365352938382,-0.17323740622970082,-0.2589404402954318,-0.2020617776544448,-0.7525139677448462,-0.05305991249185565
8718,7.0,299.09989,2081.0755,0.0,0.0,0.0,0.0,-0.08689064595174993,0.0,-0.18695958888897482,-0.18224347709353084,-0.2633919316947598,-0.16116197789794887,-0.7606751501452923,-0.06547242177412493
8719,7.0,300.11818,2280.667,0.0,0.0,0.0,0.0,-0.08690061276133373,0.0,-0.21423668688101483,-0.17953234406596283,-0.2994967989305327,-0.16812363430001084,-0.7649719385193523,-0.03519976131894597
8720,7.0,299.68542,2014.9418,0.0,0.0,0.0,0.0,-0.08691057957091756,0.0,-0.15797901482881485,-0.17536189784687184,-0.2791510814275667,-0.16069314707667884,-0.7502043148044013,-0.06066097125027174
8721,7.0,299.76664,1812.0902,0.0,0.0,0.0,0.0,-0.0869205463805014,0.0,-0.1305166845859939,-0.15845185812048085,-0.26186164033373177,-0.14559009704862386,-0.7617740705412472,-0.07608183223844223
8722,7.0,299.9593,1958.2793,0.0,0.0,0.0,0.0,-0.0869305131900852,0.0,-0.18976160031801184,-0.15469337912704786,-0.2508130295208188,-0.15786690883775087,-0.7519003941467912,-0.04734613640944986
8723,7.0,299.32854,2024.9762,0.0,0.0,0.0,0.0,-0.08694047999966903,0.0,-0.2046485544972398,-0.17069796843157783,-0.24019568834796876,-0.1992412338810788,-0.7372111655920773,-0.031039614787121472
8724,7.0,299.94944,1960.6369,0.0,0.0,0.0,0.0,-0.08695044680925285,0.0,-0.18988939142062383,-0.17050750781028085,-0.23558777139820275,-0.21403626601123482,-0.7539308561546824,-0.03367201422891907
8725,7.0,300.1879,2119.5565,0.0,0.0,0.0,0.0,-0.08696041361883668,0.0,-0.2006035790380318,-0.17154575479024783,-0.27214291684591474,-0.23128444756099778,-0.7427104183898113,-0.03675806093923816
8726,7.0,299.58881,2184.2532,0.0,0.0,0.0,0.0,-0.0869703804284205,0.0,-0.2026311228856348,-0.17690644563680682,-0.2844208533426527,-0.18992127840127082,-0.7498210732190783,-0.05686035827793044
8727,7.0,299.65636,2048.3416,0.0,0.0,0.0,0.0,-0.08698034723800431,0.0,-0.17114083978528585,-0.15700572731275886,-0.2944981322122027,-0.15606255358967486,-0.7225018341553794,-0.07299057640935903
8728,7.0,299.46054,2137.0834,0.0,0.0,0.0,0.0,-0.08699031404758814,0.0,-0.2010029616974478,-0.18493362571152783,-0.26368339308602473,-0.14563856080090687,-0.7449301048538773,-0.06715084523352244
8729,7.0,299.2601,2158.7919,0.0,0.0,0.0,0.0,-0.08700028085717194,0.0,-0.2048708615691798,-0.16619615903228382,-0.2851518119647927,-0.16761573255488482,-0.7413552977060713,-0.04339643179089436
8730,7.0,299.81255,1821.8077,0.0,0.0,0.0,0.0,-0.08701024766675577,0.0,-0.1880531593244018,-0.14099161345728886,-0.22473927748003977,-0.16888994521813983,-0.7592238821595633,-0.031175280869510675
8731,7.0,300.49138999999997,1703.3129,0.0,0.0,0.0,0.0,-0.0870202144763396,0.0,-0.14300583306607687,-0.14669795431046087,-0.22806079236784776,-0.18315831021131784,-0.7406284528793373,-0.01877900385384338
8732,7.0,300.74334,2036.5905,0.0,0.0,0.0,0.0,-0.08703018128592342,0.0,-0.17501086748222783,-0.17824481729639383,-0.26581697355659273,-0.16471553719115783,-0.7581403530326273,-0.06808804179426653
8733,7.0,299.49742000000003,2020.1942,0.0,0.0,0.0,0.0,-0.08704014809550724,0.0,-0.14415735127472284,-0.19208043330436284,-0.2778507978392387,-0.18308063445865183,-0.7637141607727193,-0.06245963709903624
8734,7.0,300.15467,1912.489,0.0,0.0,0.0,0.0,-0.08705011490509106,0.0,-0.17095258804920682,-0.18153100015321483,-0.22886531294724777,-0.17286007189246083,-0.7560896564202393,-0.08318410951588243
8735,7.0,299.99745,2158.3019,0.0,0.0,0.0,0.0,-0.08706008171467489,0.0,-0.18806478130304882,-0.19247256109306282,-0.27553255253794573,-0.17620693829777084,-0.7133014219223692,-0.03390556939021917
8736,7.0,299.65277000000003,2117.19,0.0,0.0,0.0,0.0,-0.0870700485242587,0.0,-0.2153746883333268,-0.18921296591886583,-0.23898524964600779,-0.18383834288343182,-0.7387398560179472,-0.050657772108782854
8737,7.0,299.79572,2070.0097,0.0,0.0,0.0,0.0,-0.08708001533384252,0.0,-0.16632973579296687,-0.18142741559549183,-0.28147411940183276,-0.1899117234528278,-0.7309267959543584,-0.04822959119814005
8738,7.0,299.6766,2162.0526,0.0,0.0,0.0,0.0,-0.08708998214342635,0.0,-0.18341571626672182,-0.17384409985957683,-0.2999502080852807,-0.2087842158403978,-0.7625190424122703,-0.047542261098805855
8739,7.0,299.43145,1961.7016,0.0,0.0,0.0,0.0,-0.08709994895301015,0.0,-0.14486671753723185,-0.15893266555793284,-0.2925089196158827,-0.18344756271736481,-0.7443309700697472,-0.057686347600449245
8740,7.0,299.91344,1895.2648,0.0,0.0,0.0,0.0,-0.08710991576259398,0.0,-0.15728491824531285,-0.1901308995819588,-0.22869735661067178,-0.17908840879964982,-0.7595494394166933,-0.06406162097088973
8741,7.0,299.79441,2045.7212,0.0,0.0,0.0,0.0,-0.08711988257217781,0.0,-0.2012005454669478,-0.16326707590820586,-0.2573805417664818,-0.15102543403004987,-0.7507007364258943,-0.06368654212837234
8742,7.0,299.85029,2133.135,0.0,0.0,0.0,0.0,-0.08712984938176163,0.0,-0.21995528806039677,-0.18419182531331782,-0.24427265211283375,-0.16211974242247285,-0.7737518012983573,-0.02280881197230448
8743,7.0,300.05541,2030.8936,0.0,0.0,0.0,0.0,-0.08713981619134545,0.0,-0.16351102600228185,-0.19667888649819482,-0.25715103048633076,-0.17394729938226183,-0.7482328847473363,-0.04420798331273826
8744,7.0,300.44593,2130.3315,0.0,0.0,0.0,0.0,-0.08714978300092927,0.0,-0.16372122473552683,-0.1978174047080578,-0.28602896231136077,-0.15548580150025385,-0.7801950688167583,-0.05033050043248365
8745,7.0,300.91596,2430.2577,0.0,0.0,0.0,0.0,-0.0871597498105131,0.0,-0.1956508125492318,-0.23600674018205176,-0.3070801146664477,-0.16270698165042885,-0.7567981411551613,-0.06281044556190835
8746,7.0,300.51797999999997,2374.8275,0.0,0.0,0.0,0.0,-0.08716971662009691,0.0,-0.23200734071234178,-0.19279796636267782,-0.2970829636148057,-0.18074311714045682,-0.7574945175513883,-0.05092038322995055
8747,7.0,300.03918,2295.8159,0.0,0.0,0.0,0.0,-0.08717968342968073,0.0,-0.2270397199770758,-0.2103159865465718,-0.2605150005533287,-0.2144058388527088,-0.7255964114182903,-0.03781546239909556
8748,7.0,300.03765,1988.9912,0.0,0.0,0.0,0.0,-0.08718965023926456,0.0,-0.1970687952691758,-0.16990828183364184,-0.23762659271941874,-0.2162373086734608,-0.7281651422768044,-0.04294635116272486
8749,7.0,299.04145,1699.908,0.0,0.0,0.0,0.0,-0.08719961704884836,0.0,-0.13030646558774686,-0.14385822971270185,-0.24256488999679074,-0.1948688570495588,-0.7293427922055293,-0.05451537533299865
8750,7.0,298.67097,1993.8554,0.0,0.0,0.0,0.0,-0.0872095838584322,0.0,-0.15571084434746385,-0.18537813853039783,-0.2649932822853007,-0.14947417852445286,-0.7636500929688963,-0.07927406857249142
8751,7.0,299.35571,2213.5404,0.0,0.0,0.0,0.0,-0.08721955066801602,0.0,-0.2052066729173218,-0.19045007336345882,-0.27720427334793174,-0.17208289893325984,-0.7338933389346333,-0.08803906291952901
8752,7.0,299.78325,1995.9478,0.0,0.0,0.0,0.0,-0.08722951747759984,0.0,-0.17938659817157881,-0.18476344022473182,-0.24256825398712278,-0.14366636067376587,-0.7692667409232163,-0.08838721768038922
8753,7.0,300.79312000000004,1722.7158,0.0,0.0,0.0,0.0,-0.08723948428718366,0.0,-0.14972010445622386,-0.16758989467733484,-0.20635257772041382,-0.18160213031023484,-0.7551948552569293,-0.08104029116630401
8754,7.0,300.81081,2124.1475,0.0,0.0,0.0,0.0,-0.08724945109676747,0.0,-0.1976238030114508,-0.1854476373547568,-0.2626163596707167,-0.17417806709253683,-0.7540789426567973,-0.01894367320709498
8755,7.0,301.08275,2437.2543,0.0,0.0,0.0,0.0,-0.0872594179063513,0.0,-0.2114234283758678,-0.22234233304347978,-0.30709868754078073,-0.2063965223772508,-0.7480373781405413,-0.02295255365799068
8756,7.0,301.24017000000003,2190.0763,0.0,0.0,0.0,0.0,-0.08726938471593512,0.0,-0.18158929243146782,-0.19333417831559782,-0.2908050483802237,-0.19630440952623682,-0.7532076894258113,-0.03408471504764947
8757,7.0,299.80253,1939.9522,0.0,0.0,0.0,0.0,-0.08727935152551894,0.0,-0.14447224914080084,-0.18151246780888583,-0.2637123112438788,-0.2188043474043078,-0.7514165773565423,-0.07011722001428083
8758,7.0,299.19313999999997,2037.0079999999998,0.0,0.0,0.0,0.0,-0.08728931833510277,0.0,-0.21067960147745782,-0.16554894553090885,-0.24297102090187278,-0.16851141524578184,-0.7572909556062982,-0.045017308724112456
8759,7.0,299.33743,2044.3722,0.0,0.0,0.0,0.0,-0.08729928514468657,0.0,-0.2154166774174708,-0.15206892964553487,-0.25395249376315976,-0.17629769510922783,-0.7159828261920033,-0.07501367006252284
8760,7.0,299.66947999999996,2039.2733,0.0,0.0,0.0,0.0,-0.0873092519542704,0.0,-0.2236917085991528,-0.14241239274750886,-0.25378406119903674,-0.16275835343049885,-0.7198588219320343,-0.04655488636660955
8761,7.0,300.15735,1891.9233,0.0,0.0,0.0,0.0,-0.08731921876385423,0.0,-0.13994995182448486,-0.15561050219006087,-0.2795369777281517,-0.2056040898715438,-0.7491097311188742,-0.07704784259228002
8762,7.0,299.38057000000003,1672.5927,0.0,0.0,0.0,0.0,-0.08732918557343805,0.0,-0.13623470821281886,-0.13401251902100586,-0.23817917879395478,-0.18012933075988083,-0.7813373360519913,-0.038282388310177565
8763,7.0,299.95372000000003,2096.368,0.0,0.0,0.0,0.0,-0.08733915238302187,0.0,-0.18763060363519882,-0.19098582935383382,-0.25862710283450774,-0.16498671331542084,-0.7702224080200333,-0.08268267230639442
8764,7.0,300.32591,2270.0707,0.0,0.0,0.0,0.0,-0.08734911919260568,0.0,-0.23911407426372175,-0.18274439754546784,-0.26818632719292973,-0.16658443647060384,-0.7847838657371373,-0.05538559606213275
8765,7.0,300.47946,1889.7356,0.0,0.0,0.0,0.0,-0.08735908600218951,0.0,-0.16403529173652284,-0.17930363325339083,-0.23109351071215378,-0.18381132963576582,-0.7661485954629793,-0.06495290007685213
8766,7.0,300.6803,1756.1624,0.0,0.0,0.0,0.0,-0.08736905281177333,0.0,-0.14621673144046787,-0.13472334436365888,-0.2528894424207448,-0.1905445893327868,-0.7784096917430552,-0.022984639235657276
8767,7.0,301.14293,2083.1619,0.0,0.0,0.0,0.0,-0.08737901962135715,0.0,-0.17410923701324382,-0.17573041690824184,-0.2833895572583717,-0.17158494730411583,-0.7145159440222333,-0.02506618830034018
8768,7.0,299.98955,2229.6813,0.0,0.0,0.0,0.0,-0.08738898643094098,0.0,-0.18632879003921982,-0.19081131728911083,-0.3006273327296077,-0.16194935428565685,-0.7214224593538533,-0.050067420176519654
8769,7.0,300.57343,1995.8098,0.0,0.0,0.0,0.0,-0.08739895324052478,0.0,-0.16518263535475683,-0.16762423372322385,-0.27386948488381374,-0.18272507486606082,-0.7267151915162053,-0.07889418185824952
8770,7.0,299.43363,1929.753,0.0,0.0,0.0,0.0,-0.08740892005010861,0.0,-0.1909230889076418,-0.17062685853955986,-0.22504678875288878,-0.20789628451276582,-0.7738191216350013,-0.09918232851703372
8771,7.0,298.82165,1922.1132,0.0,0.0,0.0,0.0,-0.08741888685969244,0.0,-0.2064385418588978,-0.1304804304974159,-0.24735543514458075,-0.1846986732783398,-0.7364860027605092,-0.06304336440214564
8772,7.0,299.12266,1973.9364,0.0,0.0,0.0,0.0,-0.08742885366927626,0.0,-0.1882815864269458,-0.16952608389592183,-0.24221971621772478,-0.16994965283522484,-0.7606442764147452,-0.08160359337389762
8773,7.0,299.08196,2063.9037,0.0,0.0,0.0,0.0,-0.08743882047886008,0.0,-0.14930041626480384,-0.1945726637803268,-0.28350209894697875,-0.17191147728134185,-0.7687031002900893,-0.06367722833345314
8774,7.0,299.18183999999997,2083.1782,0.0,0.0,0.0,0.0,-0.0874487872884439,0.0,-0.14754218416127984,-0.17440508577744185,-0.31128688590162373,-0.19014312951066584,-0.7991531200427722,-0.04432832601386516
8775,7.0,300.36987999999997,2064.7244,0.0,0.0,0.0,0.0,-0.08745875409802772,0.0,-0.16784662185517185,-0.19365493276725382,-0.26612312707430774,-0.14702477813021586,-0.7618113682774283,-0.049176082302051456
8776,7.0,300.00595,2143.1554,0.0,0.0,0.0,0.0,-0.08746872090761153,0.0,-0.22474763679336476,-0.16637120811955985,-0.26034688209673673,-0.16393261910388984,-0.7536653339659772,-0.031122698255571173
8777,7.0,300.14912000000004,2418.2029,0.0,0.0,0.0,0.0,-0.08747868771719536,0.0,-0.2373116036608318,-0.18939557385188782,-0.3083661215608667,-0.15411609001507384,-0.7627489792574633,-0.03361758446004726
8778,7.0,300.66215,2238.6781,0.0,0.0,0.0,0.0,-0.08748865452677919,0.0,-0.18713152729844382,-0.17173425983885182,-0.3216364453380457,-0.2033146310055918,-0.7707847618255332,-0.01303537438374129
8779,7.0,300.44147000000004,2053.3782,0.0,0.0,0.0,0.0,-0.08749862133636299,0.0,-0.16838647137595084,-0.15746173038776284,-0.2983274880501307,-0.18000072905718884,-0.7286387353735443,-0.05096971331106905
8780,7.0,299.7076,2084.0428,0.0,0.0,0.0,0.0,-0.08750858814594682,0.0,-0.18952770166492783,-0.18056118808500182,-0.26340807276885275,-0.21046062799834678,-0.7398145394715103,-0.05425548174859915
8781,7.0,299.825,2051.5012,0.0,0.0,0.0,0.0,-0.08751855495553064,0.0,-0.21929795219052278,-0.16601255811416385,-0.23829463864284975,-0.17046750469633284,-0.7525692608028033,-0.10740528067007589
8782,7.0,299.59189,1872.6801,0.0,0.0,0.0,0.0,-0.08752852176511447,0.0,-0.18939362841169582,-0.15874816284722387,-0.2211062084514838,-0.1905987576831328,-0.7660042478537333,-0.07913784621579734
8783,7.0,299.51425,1919.9842,0.0,0.0,0.0,0.0,-0.08753848857469827,0.0,-0.18922094019715283,-0.15467906190313485,-0.23972724256173675,-0.16924950714862583,-0.7267266615073373,-0.08336111620235162
8784,7.0,298.96463,1908.6763,0.0,0.0,0.0,0.0,-0.0875484553842821,0.0,-0.15153419703776086,-0.14656783273261886,-0.2820878956499077,-0.17437688702715884,-0.7458749200421233,-0.03313006829368317
8785,7.0,299.2607,1901.8627,0.0,0.0,0.0,0.0,-0.08755842219386592,0.0,-0.13345200933068788,-0.18686197237434082,-0.25780478958335173,-0.16888283220243783,-0.7728463610089973,-0.04522064674093036
8786,7.0,298.86534,2274.7214,0.0,0.0,0.0,0.0,-0.08756838900344974,0.0,-0.17730641598128083,-0.20283705583595882,-0.31131504412190275,-0.16465469152265286,-0.7448064072816692,-0.03650197413546437
8787,7.0,299.38361000000003,2425.7985,0.0,0.0,0.0,0.0,-0.08757835581303355,0.0,-0.25717692915888674,-0.1946681322047488,-0.28553712058031977,-0.1786053722119778,-0.7520850792425183,-0.040357261069951564
8788,7.0,299.63561,2096.0175,0.0,0.0,0.0,0.0,-0.08758832262261738,0.0,-0.18698287337627284,-0.1917987396440618,-0.2583553795551908,-0.19016133761496282,-0.7522426598980703,-0.06373003791541504
8789,7.0,299.77644,1914.9824,0.0,0.0,0.0,0.0,-0.0875982894322012,0.0,-0.17359052388955082,-0.16667692593973182,-0.24183938266018878,-0.18680063021328683,-0.7761075064558473,-0.06826174933841013
8790,7.0,300.44912,2104.9454,0.0,0.0,0.0,0.0,-0.08760825624178502,0.0,-0.15607499630090285,-0.18052387008381884,-0.3032519645961387,-0.15862986589804887,-0.7743936851042063,-0.05217268132004275
8791,7.0,300.18858,1985.4395,0.0,0.0,0.0,0.0,-0.08761822305136885,0.0,-0.16656768744645084,-0.16284174391372885,-0.2741146002155047,-0.17010667620322184,-0.7409928581453014,-0.07878811483778152
8792,7.0,299.63559,1921.013,0.0,0.0,0.0,0.0,-0.08762818986095265,0.0,-0.16948651647951685,-0.16097204416670385,-0.25348143379166976,-0.19323666312597382,-0.7307712519315074,-0.07525346988418923
8793,7.0,299.91573999999997,2040.3051,0.0,0.0,0.0,0.0,-0.08763815667053648,0.0,-0.2281958383411758,-0.17053218045021584,-0.22147379532276176,-0.1958420128431018,-0.7596426482933922,-0.08205126449332932
8794,7.0,299.2899,2029.5377,0.0,0.0,0.0,0.0,-0.0876481234801203,0.0,-0.19267340752788484,-0.16486958160386084,-0.2593857941118848,-0.20909809032387477,-0.7415997341601952,-0.051745223526855955
8795,7.0,298.64293,2203.7465,0.0,0.0,0.0,0.0,-0.08765809028970413,0.0,-0.18713790064157282,-0.18023574228538283,-0.30251026552293875,-0.17949630275990583,-0.7465057492893813,-0.04897295504125435
8796,7.0,299.23082,2443.6267,0.0,0.0,0.0,0.0,-0.08766805709928795,0.0,-0.17906259118710183,-0.2192402374648268,-0.3444986809218727,-0.19355360775725383,-0.7583193436627923,-0.004867826847492106
8797,7.0,298.76446,2121.6099,0.0,0.0,0.0,0.0,-0.08767802390887176,0.0,-0.15812915822863285,-0.1904457974480368,-0.29634148745662775,-0.2025189864970678,-0.7693482366287593,-0.03346157839515067
8798,7.0,301.37429,1965.5872,0.0,0.0,0.0,0.0,-0.0876879907184556,0.0,-0.17622656495220784,-0.17757389374267885,-0.24368897952522975,-0.1898352028052758,-0.7538907111857203,-0.025376697780235075
8799,7.0,300.80034,2207.0214,0.0,0.0,0.0,0.0,-0.0876979575280394,0.0,-0.24336145656290575,-0.20082238026462582,-0.2266955797131118,-0.15227929049879585,-0.7430971759529813,-0.06834563530093904
8800,7.0,300.7485,2262.8285,0.0,0.0,0.0,0.0,-0.08770792433762323,0.0,-0.2450930908513048,-0.17363290814123383,-0.26911735204731474,-0.16570479352878983,-0.7263897051865823,-0.07656898971427092
8801,7.0,300.63763,1795.3336,0.0,0.0,0.0,0.0,-0.08771789114720706,0.0,-0.14713472589856685,-0.16643584334343886,-0.23216600554550076,-0.16912950793928283,-0.7933228789673722,-0.09867112965608231
8802,7.0,300.34207999999995,1512.6836,0.0,0.0,0.0,0.0,-0.08772785795679086,0.0,-0.09345409234245082,-0.12141514529774189,-0.24494880403706473,-0.2023750340553608,-0.7540527704067144,-0.06907062284023974
8803,7.0,299.86884,1903.9141,0.0,0.0,0.0,0.0,-0.08773782476637469,0.0,-0.17192572357774782,-0.13851517955038387,-0.2683014324042898,-0.1845191050956178,-0.7409090319645283,-0.06913282727712884
8804,7.0,299.73944,2099.96,0.0,0.0,0.0,0.0,-0.08774779157595851,0.0,-0.2122659559665188,-0.1870371531841298,-0.23903229484815075,-0.2047452996167878,-0.7499397653357923,-0.07914629773488142
8805,7.0,299.29892,1951.6148,0.0,0.0,0.0,0.0,-0.08775775838554234,0.0,-0.2062423259770328,-0.16339784596611184,-0.22360198530279776,-0.18115672583127682,-0.7799606635386243,-0.06474785979986623
8806,7.0,299.70054,2073.9588,0.0,0.0,0.0,0.0,-0.08776772519512616,0.0,-0.17632152675157983,-0.1942368119021808,-0.25987335992750377,-0.20741374441764282,-0.7698638289421442,-0.05569009494243445
8807,7.0,299.8866,2191.6908,0.0,0.0,0.0,0.0,-0.08777769200470997,0.0,-0.16767045819278584,-0.1962593198967868,-0.30228949859115073,-0.15086162188638286,-0.7727236462893863,-0.017147556695582086
8808,7.0,299.4619,2192.3678,0.0,0.0,0.0,0.0,-0.0877876588142938,0.0,-0.14974487842116885,-0.2064085901859418,-0.3102715991689227,-0.17602568811988284,-0.7489402245096453,-0.05513703162710135
8809,7.0,301.21262,2201.5393,0.0,0.0,0.0,0.0,-0.0877976256238776,0.0,-0.1901593719097688,-0.1905111622119878,-0.28854245077442275,-0.15601461672744385,-0.7643007515206113,-0.027656238954208275
8810,7.0,300.71988,1887.6105,0.0,0.0,0.0,0.0,-0.08780759243346144,0.0,-0.19584746412863982,-0.15737467193917085,-0.22056433243050477,-0.2061925247346178,-0.7475474007896843,-0.06113086902389704
8811,7.0,301.30611,1878.7546,0.0,0.0,0.0,0.0,-0.08781755924304527,0.0,-0.19261620955973982,-0.13904129953230787,-0.23943698693809076,-0.18746841269169182,-0.7396431583495964,-0.07393275005459433
8812,7.0,301.22821,2181.4348,0.0,0.0,0.0,0.0,-0.08782752605262907,0.0,-0.2153298925464058,-0.17807211894934982,-0.26969970740978877,-0.18849614213562083,-0.7573074918479302,-0.09470682005058541
8813,7.0,298.5703,2142.9774,0.0,0.0,0.0,0.0,-0.0878374928622129,0.0,-0.16401498620451885,-0.17514515351798082,-0.3122514898643227,-0.17654586032371983,-0.8043866581342822,-0.08944485826727022
8814,7.0,299.07496000000003,1940.7835,0.0,0.0,0.0,0.0,-0.08784745967179672,0.0,-0.13484192502286188,-0.15940245896679783,-0.29570531838134273,-0.17449301562111985,-0.7806865457777632,-0.05508569125778445
8815,7.0,299.8976,2039.6596,0.0,0.0,0.0,0.0,-0.08785742648138055,0.0,-0.19540623424009382,-0.15919963669428086,-0.26539970703291177,-0.17563016594334785,-0.7647963524095233,-0.039574787799477464
8816,7.0,300.08981,2264.217,0.0,0.0,0.0,0.0,-0.08786739329096437,0.0,-0.24280343946783375,-0.18066902829314482,-0.26479296274053077,-0.1983182542324878,-0.7400842261181263,-0.027400817855750177
8817,7.0,300.55651,2241.2670000000003,0.0,0.0,0.0,0.0,-0.08787736010054818,0.0,-0.22532353775270178,-0.2003605206040438,-0.25560516547126577,-0.18277725724621083,-0.7716260532510623,-0.06809887445108563
8818,7.0,300.29674,2151.6984,0.0,0.0,0.0,0.0,-0.08788732691013201,0.0,-0.18935687783056881,-0.18640834030457082,-0.27829735742331074,-0.19540491701496382,-0.7417670217517053,-0.023951726674351376
8819,7.0,299.11773,2223.9632,0.0,0.0,0.0,0.0,-0.08789729371971582,0.0,-0.17276882872095584,-0.1940325710795238,-0.3092278806384157,-0.16010221961835885,-0.7607905491991813,-0.04551641343187025
8820,7.0,299.36967999999996,1966.3253,0.0,0.0,0.0,0.0,-0.08790726052929965,0.0,-0.13444624072631087,-0.18447148234091781,-0.2787960689900297,-0.1923507582985418,-0.7524302428890833,-0.05800302169395254
8821,7.0,298.16452999999996,1675.8013,0.0,0.0,0.0,0.0,-0.08791722733888348,0.0,-0.16468025582267584,-0.1337911644041599,-0.21093034034720382,-0.1821255246493898,-0.7751218978185753,-0.09578233234273022
8822,7.0,298.32046,1915.3426,0.0,0.0,0.0,0.0,-0.08792719414846728,0.0,-0.18936285600615882,-0.16173557877955883,-0.23111790977456179,-0.17207225980720983,-0.7420253498647003,-0.08250129749874412
8823,7.0,299.37962000000005,1933.4938,0.0,0.0,0.0,0.0,-0.08793716095805111,0.0,-0.21092163652884482,-0.13363009816826388,-0.24318210116270478,-0.15670659561823685,-0.7445090994373272,-0.0852772684002111
8824,7.0,300.82271000000003,1937.953,0.0,0.0,0.0,0.0,-0.08794712776763493,0.0,-0.15607719505361986,-0.16388506727669683,-0.2691270589832727,-0.16262266910960785,-0.7477571334278833,-0.08424734020356513
8825,7.0,300.99822,1997.3731,0.0,0.0,0.0,0.0,-0.08795709457721876,0.0,-0.14914281534424986,-0.15151806609616886,-0.3064906665532737,-0.18785381249972782,-0.7973238388422362,-0.04783858406405066
8826,7.0,300.01541000000003,2204.2847,0.0,0.0,0.0,0.0,-0.08796706138680258,0.0,-0.15615767750906287,-0.2059488482180688,-0.3079409820839087,-0.17586311214133785,-0.7500307754597743,-0.03257485891463827
8827,7.0,300.16763,2287.2152,0.0,0.0,0.0,0.0,-0.08797702819638639,0.0,-0.24001123629976479,-0.1893471708946108,-0.2658978917095787,-0.1841029024845418,-0.7660676266474882,-0.02063681412419498
8828,7.0,299.67683999999997,2462.4616,0.0,0.0,0.0,0.0,-0.08798699500597022,0.0,-0.2540607798013468,-0.20753502032211182,-0.28693104874288977,-0.17921595672223783,-0.7373742076656683,-0.027322149117986173
8829,7.0,300.44972,2299.3901,0.0,0.0,0.0,0.0,-0.08799696181555403,0.0,-0.21402863623798182,-0.2126410611535388,-0.27228748737018277,-0.2091994254663758,-0.7617483137237053,-0.05175810801512755
8830,7.0,300.19885,1905.4214,0.0,0.0,0.0,0.0,-0.08800692862513786,0.0,-0.1355117036039639,-0.1804637134253818,-0.26322510006579475,-0.16172838470384884,-0.7615776013468573,-0.04762273544824805
8831,7.0,300.08423999999997,2042.4197,0.0,0.0,0.0,0.0,-0.08801689543472169,0.0,-0.15720894475281486,-0.17133297226924785,-0.2923026826905287,-0.15289181031674687,-0.7590101877134733,-0.07009136288497893
8832,7.0,301.40532,2172.7993,0.0,0.0,0.0,0.0,-0.08802686224430549,0.0,-0.21296658801316581,-0.16295714296761785,-0.28455300142069473,-0.17070784762005284,-0.7473370602014253,-0.04904763967962515
8833,7.0,301.64193,1889.0858,0.0,0.0,0.0,0.0,-0.08803682905388932,0.0,-0.21264257089618782,-0.14093631026683087,-0.22065602143205376,-0.20964763664811079,-0.7876278763828192,-0.07783224002469402
8834,7.0,301.49003,1827.0355,0.0,0.0,0.0,0.0,-0.08804679586347314,0.0,-0.1810085278716508,-0.14653749602462487,-0.2278271470272888,-0.23679847354518976,-0.7540032224768243,-0.05301672979909386
8835,7.0,300.04437,2186.6286,0.0,0.0,0.0,0.0,-0.08805676267305697,0.0,-0.20550112339638182,-0.19050019884590583,-0.2686791923065718,-0.20167751268652082,-0.7354457191478413,-0.04364664073083806
8836,7.0,300.06826,2378.781,0.0,0.0,0.0,0.0,-0.08806672948264078,0.0,-0.20266114548609782,-0.2051098974002708,-0.3153189728195597,-0.17546621194466683,-0.7323446469517894,-0.04901239276164655
8837,7.0,299.47017999999997,2343.2003,0.0,0.0,0.0,0.0,-0.0880766962922246,0.0,-0.16485721995264085,-0.2269238345631388,-0.32049333710522965,-0.18665804565921482,-0.7692560612671623,-0.05319440219087875
8838,7.0,300.42033,2138.4542,0.0,0.0,0.0,0.0,-0.08808666310180843,0.0,-0.1863865554274208,-0.1962458335379558,-0.2674042805007477,-0.1774764900105658,-0.7719507492456072,-0.049271806065498656
8839,7.0,300.0483,1956.0058,0.0,0.0,0.0,0.0,-0.08809662991139224,0.0,-0.19283809106663782,-0.16164286639540884,-0.2400959541406258,-0.16864888288684884,-0.7743158472315242,-0.03873506893810366
8840,7.0,300.2681,2109.9589,0.0,0.0,0.0,0.0,-0.08810659672097607,0.0,-0.20524984750408282,-0.18604877837408482,-0.25007618391559777,-0.15670569382564786,-0.7560429151931263,-0.08265873528603201
8841,7.0,300.56116000000003,2269.158,0.0,0.0,0.0,0.0,-0.0881165635305599,0.0,-0.20917387129885381,-0.19403997793775482,-0.2865535218881307,-0.1932112204159628,-0.7844387932830813,-0.04784033597347355
8842,7.0,300.27734,2013.2105,0.0,0.0,0.0,0.0,-0.0881265303401437,0.0,-0.12026972685469789,-0.18839247651788982,-0.30330350862872574,-0.1868851960666328,-0.7672023350369753,-0.0943965223399614
8843,7.0,299.61231000000004,1694.6774,0.0,0.0,0.0,0.0,-0.08813649714972753,0.0,-0.11546152075766489,-0.13619561702396085,-0.26348247572369576,-0.19176754167348284,-0.7341701689944543,-0.07336119999118673
8844,7.0,298.55165,2048.677,0.0,0.0,0.0,0.0,-0.08814646395931135,0.0,-0.2028786294875618,-0.15559931590895684,-0.26426869700628974,-0.17894032229753484,-0.7365882092980963,-0.08087646990338612
8845,7.0,299.47516,2311.3549,0.0,0.0,0.0,0.0,-0.08815643076889518,0.0,-0.27403593147774075,-0.1963328007940388,-0.23222545292886781,-0.19179849646403782,-0.7745642657585412,-0.05282827743949505
8846,7.0,299.34801,2072.6546,0.0,0.0,0.0,0.0,-0.088166397578479,0.0,-0.2031396021833178,-0.17107589045387583,-0.25581974144494274,-0.18517413075526382,-0.7611268063773673,-0.05976987148957704
8847,7.0,300.25934,2123.8222,0.0,0.0,0.0,0.0,-0.08817636438806281,0.0,-0.18170117550750983,-0.2075473110458248,-0.25634043040633075,-0.18700114227557582,-0.7615876527878492,-0.051674873572412953
8848,7.0,300.42084,2234.0576,0.0,0.0,0.0,0.0,-0.08818633119764664,0.0,-0.15758479974490885,-0.2025873504813148,-0.3189255858880047,-0.18038830735293981,-0.7523094634771633,-0.054560368703689154
8849,7.0,301.39355,2242.2338,0.0,0.0,0.0,0.0,-0.08819629800723044,0.0,-0.16631758692426785,-0.2162302665852658,-0.2990352229799787,-0.2008447325618318,-0.7711712356786752,-0.054528157483010146
8850,7.0,300.0424,2066.2777,0.0,0.0,0.0,0.0,-0.08820626481681428,0.0,-0.1885174001227188,-0.18101509373229882,-0.25856433199081275,-0.18696536441454484,-0.7729046836847533,-0.035924365849708866
8851,7.0,300.66924,2132.904,0.0,0.0,0.0,0.0,-0.0882162316263981,0.0,-0.22486759547270377,-0.15824034216210586,-0.26524162988481076,-0.19060506009875483,-0.7395795870383223,-0.04504377481672446
8852,7.0,300.53901,2052.5685,0.0,0.0,0.0,0.0,-0.08822619843598191,0.0,-0.21681886356835578,-0.15473417257607386,-0.25237653522012476,-0.1802493907642298,-0.7440834533353192,-0.04232626135327676
8853,7.0,300.31971,2164.8926,0.0,0.0,0.0,0.0,-0.08823616524556574,0.0,-0.20156417053033482,-0.17380456284067486,-0.28270455966076774,-0.16277741266487983,-0.7936777596823963,-0.08109383839433873
8854,7.0,299.86526000000003,2382.0873,0.0,0.0,0.0,0.0,-0.08824613205514956,0.0,-0.1950905561714388,-0.1882973120684978,-0.3407071902401817,-0.15207117906075687,-0.7717192722602623,-0.06516406241094223
8855,7.0,300.78827,2070.1157,0.0,0.0,0.0,0.0,-0.08825609886473339,0.0,-0.19106629154427482,-0.17309354498050283,-0.26510365561869376,-0.16498194090744983,-0.7735204459030243,-0.07110187822295903
8856,7.0,299.92494,1965.9418,0.0,0.0,0.0,0.0,-0.0882660656743172,0.0,-0.18996082555267382,-0.16140116571655486,-0.24623521623152375,-0.16493254496507484,-0.7597671767306823,-0.06220483712288944
8857,7.0,300.21677,2288.2751,0.0,0.0,0.0,0.0,-0.08827603248390102,0.0,-0.27113621234156077,-0.19027790190646682,-0.23416436779022376,-0.22927288266747176,-0.7537078398076723,-0.06329415190789645
8858,7.0,299.67589,2272.2862,0.0,0.0,0.0,0.0,-0.08828599929348485,0.0,-0.1977501755639228,-0.2025631540689268,-0.2904049463132367,-0.19055752853656382,-0.7511431416845563,-0.03738935526829206
8859,7.0,299.14648,1931.8903,0.0,0.0,0.0,0.0,-0.08829596610306865,0.0,-0.13843481868495286,-0.1836481254421588,-0.26516347790459777,-0.2077115487545338,-0.7295859418320263,-0.04209599216205096
8860,7.0,299.28836,2171.2248,0.0,0.0,0.0,0.0,-0.08830593291265249,0.0,-0.12041787415181888,-0.2141767227400968,-0.3254035166923267,-0.17068425915772484,-0.7584344286091503,-0.04917214886516325
8861,7.0,299.98963,2212.7092,0.0,0.0,0.0,0.0,-0.08831589972223632,0.0,-0.20950806144683579,-0.17519659622555783,-0.2879037080438837,-0.1875885233585458,-0.7812228489231923,-0.03329928511338357
8862,7.0,300.0434,2050.4453,0.0,0.0,0.0,0.0,-0.08832586653182012,0.0,-0.17580237793034384,-0.18018878827574883,-0.26729302563976776,-0.15735622065484983,-0.7770714518059813,-0.047092578677925656
8863,7.0,300.88121,2234.1999,0.0,0.0,0.0,0.0,-0.08833583334140395,0.0,-0.2561606291760858,-0.17171656849210584,-0.25126378396030474,-0.15998542227933185,-0.7647684069717653,-0.04708792279371616
8864,7.0,301.15178,2348.317,0.0,0.0,0.0,0.0,-0.08834580015098777,0.0,-0.24893802034326978,-0.18439132412550682,-0.28050037592323174,-0.15800461965884186,-0.7599240785086673,-0.06193349178585973
8865,7.0,301.1739,1971.2457,0.0,0.0,0.0,0.0,-0.0883557669605716,0.0,-0.16124737461637684,-0.17432202966674484,-0.26364006651174876,-0.1973997734143408,-0.7788290556944433,-0.09316986555689981
8866,7.0,301.09952000000004,1860.6862,0.0,0.0,0.0,0.0,-0.08836573377015541,0.0,-0.10715517001539189,-0.1782187869013248,-0.28022817641636777,-0.18819814528121082,-0.7848699210681302,-0.08022117978546402
8867,7.0,300.14511,2097.6946,0.0,0.0,0.0,0.0,-0.08837570057973923,0.0,-0.1954206122590128,-0.18211443969329583,-0.26011172701352875,-0.1953238975369678,-0.7487335924167523,-0.05627801811420795
8868,7.0,300.26406000000003,2140.1221,0.0,0.0,0.0,0.0,-0.08838566738932306,0.0,-0.2084798963053638,-0.18779629029155082,-0.2542674929542477,-0.18412876062709382,-0.7472432231096643,-0.04263072679632516
8869,7.0,299.66184,2071.9587,0.0,0.0,0.0,0.0,-0.08839563419890686,0.0,-0.2287047229388988,-0.17107998398427982,-0.23003902133308377,-0.19652229882774083,-0.7366452248812233,-0.044395089062954154
8870,7.0,299.71896,2070.9771,0.0,0.0,0.0,0.0,-0.0884056010084907,0.0,-0.17650281745947183,-0.17058119135755284,-0.2824413375497898,-0.19244907395574481,-0.7547986136728233,-0.03139049721725087
8871,7.0,299.93455,2158.9187,0.0,0.0,0.0,0.0,-0.08841556781807453,0.0,-0.15795947936688684,-0.18896311870920782,-0.3093347987889677,-0.15567162143609287,-0.7580063304419002,-0.048512975972857954
8872,7.0,299.6421,2215.1897,0.0,0.0,0.0,0.0,-0.08842553462765834,0.0,-0.14058129782929388,-0.22093612428969778,-0.3118449232616977,-0.16679384486877083,-0.7707894126434922,-0.07805864062703802
8873,7.0,300.9009,2306.8955,0.0,0.0,0.0,0.0,-0.08843550143724216,0.0,-0.23834482492030276,-0.1838042368850658,-0.2790895467489937,-0.17386956283458982,-0.8003615119795312,-0.04629662208837086
8874,7.0,301.26544,1991.531,0.0,0.0,0.0,0.0,-0.08844546824682598,0.0,-0.20046276767163482,-0.17364720510014484,-0.23126572269914977,-0.18284031179993382,-0.7996647302832642,-0.06622489676213844
8875,7.0,301.12028,1633.2271,0.0,0.0,0.0,0.0,-0.0884554350564098,0.0,-0.1836544481227828,-0.14892231185748786,-0.16388351700404383,-0.19449355934501983,-0.7600791159064683,-0.05143592184108025
8876,7.0,300.327,2034.2033,0.0,0.0,0.0,0.0,-0.08846540186599362,0.0,-0.18216617624340184,-0.17556789159220182,-0.2606129210429928,-0.16133760453778184,-0.7738421426772732,-0.0941544275068185
8877,7.0,300.40202999999997,2431.3303,0.0,0.0,0.0,0.0,-0.08847536867557744,0.0,-0.19298202324334282,-0.21579638275994478,-0.33028530501162173,-0.18036226682536982,-0.7632624741431413,-0.05334477863821975
8878,7.0,300.17325,1992.0552,0.0,0.0,0.0,0.0,-0.08848533548516127,0.0,-0.11088886491137889,-0.1981085418592908,-0.2965376324109857,-0.18992052859619682,-0.7586550030234193,-0.1013450318219759
8879,7.0,299.98974,1974.0463,0.0,0.0,0.0,0.0,-0.08849530229474507,0.0,-0.18485890864915383,-0.16400854193388284,-0.25119332254835075,-0.2004588463937478,-0.7503591596846833,-0.020265671758316083
8880,7.0,299.21435,2233.842,0.0,0.0,0.0,0.0,-0.0885052691043289,0.0,-0.21463223945505278,-0.2000610140069848,-0.26433894563572274,-0.2096355485744178,-0.7515300512352413,-0.05480434615551785
8881,7.0,299.87438,2075.8937,0.0,0.0,0.0,0.0,-0.08851523591391273,0.0,-0.23265791820404877,-0.14868576862164284,-0.24967617304111978,-0.2116936216475338,-0.7744222080945212,-0.016766463200471086
8882,7.0,299.48311,1988.7598,0.0,0.0,0.0,0.0,-0.08852520272349655,0.0,-0.16651338737359186,-0.16641775682915386,-0.27160218579754875,-0.1917316523549408,-0.7807199627660613,-0.05285166527830325
8883,7.0,300.18917999999996,2014.5003,0.0,0.0,0.0,0.0,-0.08853516953308037,0.0,-0.12742781192114588,-0.17582102173218384,-0.3091089453416777,-0.2074781972565038,-0.7305860906082333,-0.06266178454698665
8884,7.0,299.06954,1974.4325,0.0,0.0,0.0,0.0,-0.08854513634266419,0.0,-0.14982113562369487,-0.15997368884317384,-0.29038333368860375,-0.1813232534852118,-0.7669767450347112,-0.08797226541993661
8885,7.0,299.69852000000003,2158.2786,0.0,0.0,0.0,0.0,-0.08855510315224802,0.0,-0.23211673119313778,-0.1945066910663158,-0.22943936979140278,-0.18640936368717181,-0.7594330575102073,-0.07632636495132572
8886,7.0,300.50408999999996,2383.07,0.0,0.0,0.0,0.0,-0.08856506996183182,0.0,-0.2796351211328377,-0.18474153375756983,-0.2600171097191908,-0.16649526032930284,-0.7750869508226262,-0.04889887835294355
8887,7.0,299.85954,2097.3516,0.0,0.0,0.0,0.0,-0.08857503677141565,0.0,-0.23392182611378678,-0.15439637525773586,-0.24922431415902477,-0.18254086599788083,-0.7662782712107773,-0.04930221370099965
8888,7.0,300.32562,1850.9694,0.0,0.0,0.0,0.0,-0.08858500358099947,0.0,-0.12629580890942588,-0.15282739800788986,-0.28352528210926675,-0.18122193860771285,-0.7885385957052002,-0.055266124756091856
8889,7.0,300.41842,2041.6217,0.0,0.0,0.0,0.0,-0.08859497039058328,0.0,-0.14676449444452785,-0.16508066186469283,-0.3087568713294307,-0.2143004203123048,-0.7629523284200324,-0.04816754584151666
8890,7.0,299.98492000000005,2059.2576,0.0,0.0,0.0,0.0,-0.08860493720016711,0.0,-0.16370492154141786,-0.16969042292964082,-0.29256754626666875,-0.18247541004142082,-0.7838838260708103,-0.04659304232562525
8891,7.0,300.30056,1860.8742,0.0,0.0,0.0,0.0,-0.08861490400975093,0.0,-0.17466955418604282,-0.17796587967636485,-0.2130238670413188,-0.19705596752290983,-0.7333089368069573,-0.05161782556528275
8892,7.0,300.26205,1995.1148,0.0,0.0,0.0,0.0,-0.08862487081933476,0.0,-0.19681668851179482,-0.18296440453968082,-0.2266839881319678,-0.19319626484448682,-0.7473343649561592,-0.07223524101631323
8893,7.0,299.46656,2299.071,0.0,0.0,0.0,0.0,-0.08863483762891856,0.0,-0.26463806719774374,-0.17228939930363985,-0.2619327096957457,-0.16818697256376183,-0.7482383562978763,-0.03868891843579896
8894,7.0,299.73661,2199.0586,0.0,0.0,0.0,0.0,-0.0886448044385024,0.0,-0.14585270107704085,-0.2136353229466648,-0.30897087988305166,-0.16237615549277884,-0.7599197114007362,-0.06912412953827043
8895,7.0,300.24408999999997,2163.8404,0.0,0.0,0.0,0.0,-0.0886547712480862,0.0,-0.15904096172862087,-0.18942460346725282,-0.3092878954418387,-0.17463473891260684,-0.7624941367248124,-0.05382240953660825
8896,7.0,299.90879,2371.5091,0.0,0.0,0.0,0.0,-0.08866473805767003,0.0,-0.19036766573282582,-0.2152150102500678,-0.3152968738348787,-0.20978057506123077,-0.7541947064807223,-0.05827395565144165
8897,7.0,299.84907000000004,2167.6777,0.0,0.0,0.0,0.0,-0.08867470486725385,0.0,-0.24878677250084277,-0.15780876854701284,-0.2523243427074738,-0.2095911986175408,-0.7355882226419053,-0.03748844200882116
8898,7.0,300.42801000000003,1999.7002,0.0,0.0,0.0,0.0,-0.08868467167683768,0.0,-0.1949746707575018,-0.16707140446866386,-0.24581287332484175,-0.19100793847101583,-0.7575591325102653,-0.03555355481661267
8899,7.0,300.43948,1966.4528,0.0,0.0,0.0,0.0,-0.08869463848642148,0.0,-0.2086255814047418,-0.14731437514129686,-0.24181259232754476,-0.17772591165518184,-0.7685849451959282,-0.021361249442191182
8900,7.0,300.64291000000003,2067.1101,0.0,0.0,0.0,0.0,-0.08870460529600531,0.0,-0.11526831422859689,-0.19566736905586582,-0.3174141815088407,-0.16750943248689384,-0.7764313107903043,-0.06259763872290594
8901,7.0,301.00931,2107.4942,0.0,0.0,0.0,0.0,-0.08871457210558914,0.0,-0.17807181497431984,-0.19179263987845982,-0.27076115781704574,-0.17146513047979084,-0.7750374636877423,-0.08104609404962672
8902,7.0,300.12019,2208.8059,0.0,0.0,0.0,0.0,-0.08872453891517294,0.0,-0.2069415800035438,-0.1854369070361978,-0.27904336280943576,-0.16558591902705783,-0.7613602186704033,-0.06518648563565524
8903,7.0,300.16528999999997,2136.5092,0.0,0.0,0.0,0.0,-0.08873450572475677,0.0,-0.2174212103553028,-0.19219897343356182,-0.23982527450891178,-0.1916069010026288,-0.7520582179823673,-0.07292801125543434
8904,7.0,301.27752000000004,2037.8873,0.0,0.0,0.0,0.0,-0.08874447253434059,0.0,-0.20303751723574281,-0.15976992424806385,-0.25665941167031175,-0.1934801065949998,-0.7516074939403843,-0.05520055835537095
8905,7.0,300.06162,2240.8837,0.0,0.0,0.0,0.0,-0.08875443934392441,0.0,-0.19138239517797181,-0.19261218695684282,-0.29717810779919573,-0.19112294235736582,-0.7636207593785013,-0.05112256918140475
8906,7.0,300.78647,2287.8019,0.0,0.0,0.0,0.0,-0.08876440615350824,0.0,-0.1718976768149798,-0.17786824289672884,-0.34566873147484767,-0.18432020410098782,-0.7861153574285452,-0.05299134889733895
8907,7.0,299.86226,2049.4763,0.0,0.0,0.0,0.0,-0.08877437296309205,0.0,-0.15475093173272786,-0.17712927959879882,-0.2911094084452617,-0.16686631251592285,-0.7858167627565762,-0.048389160863638356
8908,7.0,298.98126,2057.9292,0.0,0.0,0.0,0.0,-0.08878433977267589,0.0,-0.16406457466441285,-0.2008458471369418,-0.26064866850652074,-0.16170845407438186,-0.7746445050339602,-0.07360966006145783
8909,7.0,299.60748,2274.7347,0.0,0.0,0.0,0.0,-0.08879430658225969,0.0,-0.2244212993336578,-0.17479185347311285,-0.2922494060002707,-0.15372977828194787,-0.7533005943274803,-0.05305362628823525
8910,7.0,299.95353,1963.714,0.0,0.0,0.0,0.0,-0.08880427339184352,0.0,-0.19691472045896982,-0.16606138663648284,-0.23394390483346575,-0.17934765897023583,-0.7399437795217653,-0.07560641225177192
8911,7.0,300.23073999999997,1792.1814,0.0,0.0,0.0,0.0,-0.08881424020142735,0.0,-0.14185957362544988,-0.15516082179568086,-0.24775798927680978,-0.17006852733695685,-0.7602808236038753,-0.06351282749147805
8912,7.0,300.89223,2048.1837,0.0,0.0,0.0,0.0,-0.08882420701101115,0.0,-0.13526719622233288,-0.18758302141050284,-0.29974648402017473,-0.2107355430154788,-0.7617598546423442,-0.08124026721929013
8913,7.0,300.05036,2176.1686,0.0,0.0,0.0,0.0,-0.08883417382059498,0.0,-0.19413486880961983,-0.18636099112739782,-0.2810050555330397,-0.18735964029345684,-0.7911040436333903,-0.06007873342480935
8914,7.0,300.13434,2202.9726,0.0,0.0,0.0,0.0,-0.0888441406301788,0.0,-0.1995056617596758,-0.18149002431917083,-0.2886529862278317,-0.2055900360926568,-0.7759353046013523,-0.051865067708933656
8915,7.0,300.28107,2162.8873,0.0,0.0,0.0,0.0,-0.08885410743976263,0.0,-0.23873690204649778,-0.15911092664802584,-0.25961589307709376,-0.19716579370124881,-0.7856916466342282,-0.033787619985828465
8916,7.0,299.30485,2038.7054,0.0,0.0,0.0,0.0,-0.08886407424934645,0.0,-0.19329887668211382,-0.16408367442879784,-0.26233299414775074,-0.17581161877125584,-0.7430885734596323,-0.03441355118210307
8917,7.0,299.84217,2114.1729,0.0,0.0,0.0,0.0,-0.08887404105893026,0.0,-0.16581138743930984,-0.17132950695390584,-0.3055148864419717,-0.16863461632544086,-0.7715176456228633,-0.03956473433198526
8918,7.0,299.98062000000004,2476.4781,0.0,0.0,0.0,0.0,-0.0888840078685141,0.0,-0.19355486418737783,-0.22331691751966376,-0.33591574329980267,-0.16188674556197782,-0.7490314474161482,-0.04405319112146146
8919,7.0,299.74613,2336.8587,0.0,0.0,0.0,0.0,-0.0888939746780979,0.0,-0.2162802907427028,-0.19331709491891183,-0.3007493077766457,-0.18678494510173882,-0.7801392691337513,-0.050967197411070746
8920,7.0,300.20466,1790.2601,0.0,0.0,0.0,0.0,-0.08890394148768173,0.0,-0.16494831113663083,-0.15603635094208887,-0.22320970552658279,-0.19145828761046182,-0.7647034981703593,-0.07643089385814193
8921,7.0,300.94547,1858.6243,0.0,0.0,0.0,0.0,-0.08891390829726556,0.0,-0.20305748839521381,-0.15287296386488686,-0.20904490482612578,-0.18860035490840582,-0.7737933242874553,-0.08055124701878913
8922,7.0,301.96465,2209.561,0.0,0.0,0.0,0.0,-0.08892387510684936,0.0,-0.2265232664011058,-0.17576017606367883,-0.26936792879704474,-0.19935215436952583,-0.7502164839381023,-0.05118531165409695
8923,7.0,301.11931,2117.6242,0.0,0.0,0.0,0.0,-0.08893384191643319,0.0,-0.15762624167399883,-0.2042400728519258,-0.28183855506529976,-0.17256014986286083,-0.7587154028618803,-0.06862759139301594
8924,7.0,299.38133999999997,1930.8395,0.0,0.0,0.0,0.0,-0.08894380872601701,0.0,-0.14315484162578285,-0.15988260779168484,-0.2838895353877157,-0.1897045442048808,-0.7552894522862652,-0.05376288311973345
8925,7.0,299.43925,2173.1291,0.0,0.0,0.0,0.0,-0.08895377553560084,0.0,-0.2054144094528238,-0.17672042305094784,-0.27844213059759876,-0.15097871306793884,-0.7788360673851353,-0.055078753534349746
8926,7.0,299.93431,2276.3133,0.0,0.0,0.0,0.0,-0.08896374234518466,0.0,-0.2050094133878538,-0.2118353550715218,-0.27509764533002373,-0.17318417006944684,-0.7795412185272282,-0.061625026031416535
8927,7.0,300.36677000000003,2142.9283,0.0,0.0,0.0,0.0,-0.08897370915476847,0.0,-0.2297573986002898,-0.15917711214455785,-0.26246218353550077,-0.16168110645418285,-0.7989249665177552,-0.05341794745444096
8928,7.0,299.76218,2076.8139,0.0,0.0,0.0,0.0,-0.0889836759643523,0.0,-0.16870346666973585,-0.19061692525742582,-0.27197917562975477,-0.1975095995926798,-0.7709164032785253,-0.05469135863686685
8929,7.0,299.6592,1922.2328,0.0,0.0,0.0,0.0,-0.08899364277393611,0.0,-0.13993882633838686,-0.15136776057633486,-0.2930041861322617,-0.20084944417479683,-0.7584518970408742,-0.05247565424569386
8930,7.0,300.83338,2028.8449,0.0,0.0,0.0,0.0,-0.08900360958351994,0.0,-0.16902896313185986,-0.16665271939484286,-0.2810364966836428,-0.1947009919054918,-0.7494920405141053,-0.06998333015931693
8931,7.0,301.91245,2266.7162,0.0,0.0,0.0,0.0,-0.08901357639310377,0.0,-0.2180987909621748,-0.1950851150184018,-0.27584120878340773,-0.1922423202728398,-0.7582529757812423,-0.07105503060458553
8932,7.0,301.23233,2180.6856,0.0,0.0,0.0,0.0,-0.08902354320268757,0.0,-0.2184527192221048,-0.17580891339348884,-0.26861233806497375,-0.18364603814695282,-0.7505987730683313,-0.06962851935854984
8933,7.0,299.64153,2015.0303,0.0,0.0,0.0,0.0,-0.0890335100122714,0.0,-0.22380065324990478,-0.14376940820893588,-0.24494884456706878,-0.17767902857305481,-0.7851827316390023,-0.033191091280955674
8934,7.0,300.00472,2323.9526,0.0,0.0,0.0,0.0,-0.08904347682185522,0.0,-0.18029100494583683,-0.2016377223550938,-0.3244948441351477,-0.17645722120497184,-0.7545972403479493,-0.040383515393292664
8935,7.0,300.9056,2396.4772,0.0,0.0,0.0,0.0,-0.08905344363143905,0.0,-0.18332091658736582,-0.18200885903287584,-0.36313944301157264,-0.2030157120935908,-0.7856525351803683,-0.018830339156909782
8936,7.0,299.26116,2148.6465,0.0,0.0,0.0,0.0,-0.08906341044102287,0.0,-0.17371682551451584,-0.18152744364536383,-0.2978906252695157,-0.18798741965791382,-0.7733726836409412,-0.038049009454394864
8937,7.0,299.44966,2223.8787,0.0,0.0,0.0,0.0,-0.08907337725060668,0.0,-0.2223869667103848,-0.17402516765244683,-0.2795914601860287,-0.2099589780063378,-0.7615052958197213,-0.039526200430682265
8938,7.0,299.72696,2160.0058,0.0,0.0,0.0,0.0,-0.08908334406019051,0.0,-0.24572109313078375,-0.16288126066762884,-0.24798546392425977,-0.1947485741301878,-0.7743518581400782,-0.06390997086817303
8939,7.0,298.5053,1944.2688,0.0,0.0,0.0,0.0,-0.08909331086977432,0.0,-0.1884602933470828,-0.17947776028307583,-0.2230711131779048,-0.16384992776322882,-0.7927735251606552,-0.06812705090986644
8940,7.0,298.94557000000003,1996.471,0.0,0.0,0.0,0.0,-0.08910327767935815,0.0,-0.13873648350472487,-0.17955680392337683,-0.2885840446910277,-0.17124284367285283,-0.7530761695628313,-0.07578898978729093
8941,7.0,299.87066,2207.4656,0.0,0.0,0.0,0.0,-0.08911324448894198,0.0,-0.17180067838290683,-0.18662100123555883,-0.3125927423655017,-0.15159189149845484,-0.7650500094395573,-0.06720120477674253
8942,7.0,299.2383,1928.4209,0.0,0.0,0.0,0.0,-0.08912321129852578,0.0,-0.15295624289060586,-0.17004253747189185,-0.2631930205676288,-0.2074142611751938,-0.7660571597739553,-0.06350807028225854
8943,7.0,299.00243,1981.9607,0.0,0.0,0.0,0.0,-0.08913317810810961,0.0,-0.17787462637235882,-0.18214333758614784,-0.24244861954781574,-0.22272489575123577,-0.7672277270844813,-0.07770391595252943
8944,7.0,299.49343,2268.4685,0.0,0.0,0.0,0.0,-0.08914314491769343,0.0,-0.24364216737060979,-0.18146790506948782,-0.2644477079014568,-0.21007560309284778,-0.7740901153742462,-0.03225973509378797
8945,7.0,300.17361,2291.7687,0.0,0.0,0.0,0.0,-0.08915311172727726,0.0,-0.23090429638847978,-0.19008423941485383,-0.27565193366472773,-0.21437309060947682,-0.7641960422552773,-0.027014315631605376
8946,7.0,300.76026,2323.9272,0.0,0.0,0.0,0.0,-0.08916307853686108,0.0,-0.1797859200359888,-0.2150235667761738,-0.3116063433931517,-0.18387845745489081,-0.7743953873643743,-0.04587612633662116
8947,7.0,299.85807,2207.0685,0.0,0.0,0.0,0.0,-0.08917304534644489,0.0,-0.18605552661975083,-0.18738051324551683,-0.2974576736342867,-0.18932814205773282,-0.7894386860340322,-0.03797757633559497
8948,7.0,299.0474,2032.0120000000002,0.0,0.0,0.0,0.0,-0.08918301215602872,0.0,-0.16268745632100184,-0.1782831789451798,-0.27671026326167675,-0.16556088161708682,-0.7473926977644163,-0.05873652762684394
8949,7.0,298.80036,2077.3497,0.0,0.0,0.0,0.0,-0.08919297896561253,0.0,-0.1993262151669658,-0.17582072788965483,-0.25631551458637175,-0.16545427757406583,-0.7483659244854662,-0.05860528640764144
8950,7.0,300.33267,2308.3187,0.0,0.0,0.0,0.0,-0.08920294577519636,0.0,-0.2530045678971068,-0.20272726005512282,-0.24593940799732975,-0.16159357177804384,-0.7474701607345613,-0.08396384295808612
8951,7.0,298.54537999999997,1986.3698,0.0,0.0,0.0,0.0,-0.08921291258478019,0.0,-0.1839568830126308,-0.17097302530372382,-0.24887691122973876,-0.19319470443933282,-0.7776509903331772,-0.061587921826004643
8952,7.0,299.10017,1742.5109,0.0,0.0,0.0,0.0,-0.08922287939436399,0.0,-0.10098606365604851,-0.16213984530445685,-0.2665538799568198,-0.18365094227743683,-0.7955090572506311,-0.07836233903976073
8953,7.0,298.78661,2201.0003,0.0,0.0,0.0,0.0,-0.08923284620394782,0.0,-0.18749053194137483,-0.18593377448773482,-0.2956248156608977,-0.21225704949813978,-0.7958733409265832,-0.024526732933850076
8954,7.0,301.07042,2524.2458,0.0,0.0,0.0,0.0,-0.08924281301353164,0.0,-0.23597530916394976,-0.19975182073896983,-0.33158057301195465,-0.20900928908511082,-0.8126946098117133,-0.05556031280337594
8955,7.0,301.11377000000005,2220.2688,0.0,0.0,0.0,0.0,-0.08925277982311547,0.0,-0.2242342027026928,-0.2092063256995568,-0.24146572642081177,-0.2018067730017778,-0.7708160611211222,-0.06865527034599764
8956,7.0,300.48773,1986.1852,0.0,0.0,0.0,0.0,-0.08926274663269929,0.0,-0.19105947237110182,-0.1915288908774298,-0.22116235263952477,-0.1900343165824268,-0.7330756461039333,-0.07226080227658593
8957,7.0,299.24216,2203.0146,0.0,0.0,0.0,0.0,-0.0892727134422831,0.0,-0.18872193478790483,-0.2029266474098008,-0.2780128266627297,-0.14353950176124589,-0.7495438885217223,-0.06750803514552435
8958,7.0,300.67683,2190.9694,0.0,0.0,0.0,0.0,-0.08928268025186693,0.0,-0.16356534634014286,-0.2033521719217968,-0.29908248096464274,-0.18038569316768183,-0.7828538066816553,-0.06968984125460184
8959,7.0,299.63036,1987.5338,0.0,0.0,0.0,0.0,-0.08929264706145074,0.0,-0.15571254660763187,-0.18262723543640483,-0.2658208543044757,-0.16628191038824683,-0.8005912157772012,-0.07300198053923453
8960,7.0,299.48714,1809.3928,0.0,0.0,0.0,0.0,-0.08930261387103457,0.0,-0.13207988631026987,-0.16547301256841485,-0.25245735204810077,-0.1983300281986498,-0.7881120275456013,-0.08103440519647313
8961,7.0,299.42298,1839.1669,0.0,0.0,0.0,0.0,-0.0893125806806184,0.0,-0.17402203670963784,-0.15342342211421284,-0.23161535477865577,-0.21326273061989282,-0.7763001962273642,-0.06099519280900684
8962,7.0,298.97207000000003,2280.4756,0.0,0.0,0.0,0.0,-0.0893225474902022,0.0,-0.2341892734776818,-0.2052352769676448,-0.25378308847894077,-0.18158236180078383,-0.7825538035920473,-0.07763444955217362
8963,7.0,299.71144,2640.155,0.0,0.0,0.0,0.0,-0.08933251429978603,0.0,-0.21798715106615676,-0.21622520033476578,-0.3683288439287266,-0.1943773091610468,-0.7383712356315673,-0.037905281954210064
8964,7.0,301.02758,2368.7036,0.0,0.0,0.0,0.0,-0.08934248110936985,0.0,-0.18469282682526283,-0.20810659470352177,-0.3272273263423227,-0.15637854576586085,-0.7432191611325203,-0.038550119384100565
8965,7.0,300.98431,1976.1496,0.0,0.0,0.0,0.0,-0.08935244791895368,0.0,-0.16208184686873284,-0.14621335731763485,-0.2924049297581197,-0.16801931006971485,-0.7911822057461042,-0.009434056155018852
8966,7.0,301.04753999999997,2367.0882,0.0,0.0,0.0,0.0,-0.0893624147285375,0.0,-0.24426757572983276,-0.18183609989082583,-0.29343204111948773,-0.18934118258651983,-0.8105390316814742,-0.05655530312332385
8967,7.0,299.63485,2556.8136,0.0,0.0,0.0,0.0,-0.08937238153812131,0.0,-0.28566802236073874,-0.19481032159128184,-0.2967291366798857,-0.1968635006664148,-0.7770468703585552,-0.04511262617426955
8968,7.0,300.13582,2102.5647,0.0,0.0,0.0,0.0,-0.08938234834770514,0.0,-0.1985332963012108,-0.18365771078810483,-0.25693616067012476,-0.17164391845993585,-0.7520470114362613,-0.08765828353194902
8969,7.0,300.40949,1813.9171,0.0,0.0,0.0,0.0,-0.08939231515728895,0.0,-0.12414811386496488,-0.17469388232094382,-0.2525435087041038,-0.2008000482324218,-0.7386718770687383,-0.07320687997445652
8970,7.0,300.42561,1923.945,0.0,0.0,0.0,0.0,-0.08940228196687278,0.0,-0.16161921713807484,-0.14135243181789886,-0.2818596002698767,-0.19156761729625182,-0.7850076014917183,-0.07070394451118603
8971,7.0,299.24165,2074.6928,0.0,0.0,0.0,0.0,-0.08941224877645661,0.0,-0.17111536667777183,-0.1872865646962448,-0.27225287474676674,-0.21360955599662182,-0.7614438725986593,-0.08388956868600582
8972,7.0,299.37922000000003,2158.4714,0.0,0.0,0.0,0.0,-0.08942221558604041,0.0,-0.19029158078281683,-0.17960662543079384,-0.28622321248803173,-0.16467408512956683,-0.7599297223117243,-0.07531842529509983
8973,7.0,299.34978,2178.0716,0.0,0.0,0.0,0.0,-0.08943218239562424,0.0,-0.2212430884074928,-0.16052621412270385,-0.28031008755445175,-0.18299873345306883,-0.7698661087548692,-0.05130334110524555
8974,7.0,300.3544,1969.8148,0.0,0.0,0.0,0.0,-0.08944214920520806,0.0,-0.19156823537881282,-0.15802075060043386,-0.24918552694519674,-0.17111492084772784,-0.8001676468378982,-0.06757021627766113
8975,7.0,299.13822999999996,1986.8673,0.0,0.0,0.0,0.0,-0.08945211601479189,0.0,-0.15767425959623785,-0.18032990361717582,-0.26595386364510276,-0.19847824642327783,-0.7655731808636903,-0.05868421555068115
8976,7.0,298.9551,2305.1212,0.0,0.0,0.0,0.0,-0.0894620828243757,0.0,-0.20822281448999183,-0.22788434499543378,-0.26459213657071073,-0.1827979782107558,-0.7491871231615124,-0.04665057061330286
8977,7.0,299.74629,2318.6309,0.0,0.0,0.0,0.0,-0.08947204963395952,0.0,-0.2053717617561148,-0.18321663288707382,-0.3162174926107367,-0.2037349676770758,-0.7501485455188973,-0.023345303582252078
8978,7.0,300.9278,2054.8625,0.0,0.0,0.0,0.0,-0.08948201644354335,0.0,-0.2011369944206758,-0.18273780128731684,-0.24075210450788279,-0.18803323882743583,-0.7928889546120473,-0.08039318202968933
8979,7.0,299.67176,2088.3484,0.0,0.0,0.0,0.0,-0.08949198325312716,0.0,-0.2297693448189688,-0.15725646618250486,-0.24777994640647677,-0.18210583719994683,-0.7639446650379683,-0.05284845124898604
8980,7.0,299.44446,2294.5855,0.0,0.0,0.0,0.0,-0.08950195006271099,0.0,-0.2154391209071858,-0.1835250358200108,-0.2985325293403667,-0.14459605817051988,-0.7464363821875353,-0.08017651876080634
8981,7.0,300.43883999999997,2187.0376,0.0,0.0,0.0,0.0,-0.08951191687229482,0.0,-0.18151245767638483,-0.17831750785856784,-0.3049748545361747,-0.17883555223719483,-0.7634340984450794,-0.04351592437518736
8982,7.0,300.91988,2306.5614,0.0,0.0,0.0,0.0,-0.08952188368187862,0.0,-0.20359525062078682,-0.17300185597895384,-0.3245399844271027,-0.2100130045016698,-0.7957883697731972,-0.043235164931478554
8983,7.0,300.88425,2270.12,0.0,0.0,0.0,0.0,-0.08953185049146245,0.0,-0.2099292188509008,-0.17376128692890383,-0.3063692791912937,-0.22776509559116478,-0.7514410270814552,-0.024962375761344677
8984,7.0,300.03931,2038.1659,0.0,0.0,0.0,0.0,-0.08954181730104627,0.0,-0.18330505922330081,-0.17460415902458884,-0.2616423223495868,-0.2103376498337098,-0.7499290248847322,-0.045091195934654556
8985,7.0,300.20735,2289.835,0.0,0.0,0.0,0.0,-0.0895517841106301,0.0,-0.2211146589573178,-0.18616964897851382,-0.2887683650167187,-0.19917283949932882,-0.7655791083767752,-0.04212096573726566
8986,7.0,301.35533,2536.8213,0.0,0.0,0.0,0.0,-0.08956175092021391,0.0,-0.24050025106302678,-0.2067518691873208,-0.32387821052179067,-0.17868353432469183,-0.8136523844687382,-0.045800649336672154
8987,7.0,301.25233,2081.0365,0.0,0.0,0.0,0.0,-0.08957171772979773,0.0,-0.16270571508780385,-0.18667348759073882,-0.2832039298400517,-0.15439162311476684,-0.8023301859963242,-0.051924307376030154
8988,7.0,300.37112,1727.8655,0.0,0.0,0.0,0.0,-0.08958168453938156,0.0,-0.13361785810705587,-0.15201680806039086,-0.23959329089851678,-0.13775065195243086,-0.7668496226771653,-0.06336372773926303
8989,7.0,300.11942999999997,2197.7849,0.0,0.0,0.0,0.0,-0.08959165134896536,0.0,-0.15724588785146085,-0.2037612311196678,-0.3070646119399177,-0.2031882787181218,-0.7395389253118092,-0.06258047426621194
8990,7.0,300.07973,2433.4914,0.0,0.0,0.0,0.0,-0.0896016181585492,0.0,-0.23475497100851178,-0.2057616198645908,-0.29920403044663874,-0.2077187934927488,-0.7816205799849453,-0.06828275907923363
8991,7.0,300.48516,2180.9021,0.0,0.0,0.0,0.0,-0.08961158496813301,0.0,-0.1934047511850628,-0.2090668214257888,-0.2604681985312098,-0.1994622541253918,-0.7389809487467414,-0.09685622748771541
8992,7.0,299.7551,1923.9551,0.0,0.0,0.0,0.0,-0.08962155177771683,0.0,-0.16451526830889285,-0.17652750023190783,-0.24379154070035175,-0.17638004194485482,-0.7588307208557613,-0.07658068363367503
8993,7.0,299.26635,1910.6358,0.0,0.0,0.0,0.0,-0.08963151858730066,0.0,-0.15079304511961483,-0.16062738714518884,-0.2693651322267687,-0.15872130158707284,-0.7929342975540222,-0.06218878825455554
8994,7.0,298.77229,2153.5998,0.0,0.0,0.0,0.0,-0.08964148539688448,0.0,-0.18927334549232483,-0.18883342269640782,-0.2765337956242607,-0.1854328844333008,-0.8044221725502873,-0.05078694021828075
8995,7.0,299.79066,2422.6962,0.0,0.0,0.0,0.0,-0.08965145220646831,0.0,-0.23976426672039078,-0.19004576630855682,-0.30662912717943874,-0.16885576829226684,-0.7694957253133153,-0.044903377869618365
8996,7.0,300.47182999999995,2185.0655,0.0,0.0,0.0,0.0,-0.08966141901605211,0.0,-0.23534642535688377,-0.17348723317435683,-0.25537169238322377,-0.16783137244116683,-0.7341353841185213,-0.05943749809902434
8997,7.0,300.76738,1821.9043,0.0,0.0,0.0,0.0,-0.08967138582563594,0.0,-0.16093104806765784,-0.17125530664908284,-0.22162705953288778,-0.20636927608206182,-0.7602916147174402,-0.06689791977006064
8998,7.0,300.07239,2296.6945,0.0,0.0,0.0,0.0,-0.08968135263521976,0.0,-0.2049737064543298,-0.19158504519797181,-0.30157902788603275,-0.20104431243402882,-0.8017412445082003,-0.06402403952468073
8999,7.0,300.48909,2645.16,0.0,0.0,0.0,0.0,-0.08969131944480357,0.0,-0.24283718069616375,-0.22356752466689678,-0.3376578748592377,-0.18211234226558884,-0.7786014493244802,-0.03937499007850896
9000,7.0,300.42987,2115.6788,0.0,0.0,0.0,0.0,-0.08970128625438739,0.0,-0.16638220188314484,-0.17666797722577182,-0.3000633374589457,-0.15401352883995187,-0.7565488613655592,-0.04277220082828755
9001,7.0,299.42922999999996,1817.0509,0.0,0.0,0.0,0.0,-0.08971125306397122,0.0,-0.14268029607394886,-0.16135586330458385,-0.24830194246049375,-0.2012824160750278,-0.7844951401211423,-0.04618763893411505
9002,7.0,299.75497,2296.3369,0.0,0.0,0.0,0.0,-0.08972121987355502,0.0,-0.2228881708723498,-0.1949047159705978,-0.2802362013571597,-0.21343972514736081,-0.7730779595843542,-0.03668030615306436
9003,7.0,299.17873,2487.2588,0.0,0.0,0.0,0.0,-0.08973118668313886,0.0,-0.2346446787351268,-0.2164163904961348,-0.3050034991165017,-0.1924554169013708,-0.7549394047742183,-0.06628552052887153
9004,7.0,299.92219,2300.7463,0.0,0.0,0.0,0.0,-0.08974115349272269,0.0,-0.23208355738486375,-0.18915950684358981,-0.2781263714689357,-0.15252769889331186,-0.7429533653662883,-0.04863650635879945
9005,7.0,301.21881,2117.8186,0.0,0.0,0.0,0.0,-0.08975112030230649,0.0,-0.16570998136930185,-0.1870056309735188,-0.29104833986173473,-0.1952805000351848,-0.7982432315854733,-0.05075764006513905
9006,7.0,301.27812,1938.1595,0.0,0.0,0.0,0.0,-0.08976108711189032,0.0,-0.14725290125772986,-0.17174952951785885,-0.2701496715141967,-0.1960881414248928,-0.8277743246899653,-0.060156623986496544
9007,7.0,300.35872,2124.5898,0.0,0.0,0.0,0.0,-0.08977105392147414,0.0,-0.17293607578246184,-0.21480903133250082,-0.2580771309452297,-0.19771170245762582,-0.7972773002651432,-0.1117382623377079
9008,7.0,301.38412,2301.4952,0.0,0.0,0.0,0.0,-0.08978102073105797,0.0,-0.23613287968700078,-0.18910776016098282,-0.27435644274937276,-0.17670629834455384,-0.7429120754247134,-0.07189114837510394
9009,7.0,300.39988999999997,1964.1116,0.0,0.0,0.0,0.0,-0.08979098754064177,0.0,-0.15037759231361286,-0.18902445073776084,-0.25763885974697576,-0.16928135359926882,-0.7770969249134952,-0.1020588462524239
9010,7.0,298.6363,1500.4353,0.0,0.0,0.0,0.0,-0.0898009543502256,0.0,-0.10360172217969389,-0.13341601868713587,-0.21907712446372876,-0.17597074969946083,-0.7890151576247333,-0.07176874674977383
9011,7.0,299.74618,1910.259,0.0,0.0,0.0,0.0,-0.08981092115980943,0.0,-0.15843994229930483,-0.16343604549488183,-0.25879504903858275,-0.16403541332653485,-0.7622924087624032,-0.07372990245082484
9012,7.0,300.01112,2518.2302,0.0,0.0,0.0,0.0,-0.08982088796939323,0.0,-0.24579582032565878,-0.1891826900058778,-0.33050061052537066,-0.16993012750579783,-0.7420552204776483,-0.016341962071076084
9013,7.0,299.77722,2201.0884,0.0,0.0,0.0,0.0,-0.08983085477897707,0.0,-0.2167701870335518,-0.16358656379723685,-0.28871917172436373,-0.21616127438595678,-0.7965172816301352,-0.039039602268908756
9014,7.0,300.06535,2162.6727,0.0,0.0,0.0,0.0,-0.08984082158856088,0.0,-0.2063401755391898,-0.18695952809396882,-0.2640987850970207,-0.23379339666361176,-0.8011994090172252,-0.03431395882977407
9015,7.0,300.76134,2449.2694,0.0,0.0,0.0,0.0,-0.0898507883981447,0.0,-0.22090398399652578,-0.21946574640708277,-0.3041469886744707,-0.2138562925284728,-0.7560574553320613,-0.058352710515464146
9016,7.0,300.67064,2340.2044,0.0,0.0,0.0,0.0,-0.08986075520772853,0.0,-0.2336054995650678,-0.18183071953279484,-0.2959275038632707,-0.18686391781453282,-0.7350932904980593,-0.05677364433437244
9017,7.0,301.64127,2259.4168,0.0,0.0,0.0,0.0,-0.08987072201731235,0.0,-0.1820686711862788,-0.1892856260835368,-0.3154519821601867,-0.1862700114009188,-0.7891888793543782,-0.06596579756581734
9018,7.0,301.34046,2129.031,0.0,0.0,0.0,0.0,-0.08988068882689618,0.0,-0.2004992750727378,-0.16124989760912586,-0.28542309954656675,-0.19077188159521882,-0.8162240436200413,-0.04618780916013186
9019,7.0,300.48272000000003,1665.1326,0.0,0.0,0.0,0.0,-0.08989065563647998,0.0,-0.13425938727536987,-0.13073302361484487,-0.24116632114876277,-0.14083254332408984,-0.7938690309037733,-0.06910421816055533
9020,7.0,300.71738999999997,1687.5215,0.0,0.0,0.0,0.0,-0.08990062244606381,0.0,-0.15352772607950688,-0.12602629451532688,-0.2334103678608098,-0.16780988140654585,-0.7329318152522383,-0.04918089929302685
9021,7.0,300.51524,2319.324,0.0,0.0,0.0,0.0,-0.08991058925564764,0.0,-0.19247905602620383,-0.19224012152012282,-0.3202973846683907,-0.18178120200040782,-0.7838150669190243,-0.07313349026971352
9022,7.0,299.99036,2442.4483,0.0,0.0,0.0,0.0,-0.08992055606523144,0.0,-0.23218538901991376,-0.2120781804579868,-0.29817971565554674,-0.22216762846123778,-0.7803770282697162,-0.04613125460580036
9023,7.0,300.04797,2105.2888,0.0,0.0,0.0,0.0,-0.08993052287481527,0.0,-0.15785746534681885,-0.2059985481354738,-0.2760992126563707,-0.18836475399515382,-0.7423606951177963,-0.07942008399140202
9024,7.0,300.47185,2151.8498,0.0,0.0,0.0,0.0,-0.08994048968439909,0.0,-0.2168396250629048,-0.17543152839374382,-0.26183746418634574,-0.20179047994016983,-0.7408526040664593,-0.04375370276290426
9025,7.0,300.59531,2372.0767,0.0,0.0,0.0,0.0,-0.08995045649398291,0.0,-0.23228491044473576,-0.19787551460129282,-0.29089167113127273,-0.1926033919459748,-0.8123950829496522,-0.048075540705936455
9026,7.0,300.15304,2237.494,0.0,0.0,0.0,0.0,-0.08996042330356674,0.0,-0.21268003075238479,-0.1910679330094368,-0.27639435214549873,-0.1969530111802488,-0.7978913298257433,-0.06480883415113393
9027,7.0,299.50888,2073.8206,0.0,0.0,0.0,0.0,-0.08997039011315056,0.0,-0.15555186540677385,-0.2043031578031518,-0.2705346660221928,-0.13810328325223287,-0.7533336769432453,-0.08364511500663012
9028,7.0,300.83745,1835.1799,0.0,0.0,0.0,0.0,-0.08998035692273439,0.0,-0.16482076321404285,-0.13630409557966686,-0.25672399623168574,-0.16930781969188086,-0.6979700562492813,-0.07572356220183372
9029,7.0,300.3724,1767.4345,0.0,0.0,0.0,0.0,-0.08999032373231819,0.0,-0.1220503416529309,-0.14223458761996088,-0.2729710056226407,-0.1932707893893418,-0.7790734313535613,-0.05385811950988254
9030,7.0,300.23985,2204.8897,0.0,0.0,0.0,0.0,-0.09000029054190202,0.0,-0.2098144277470718,-0.18600088204185783,-0.27441610291526075,-0.22188925826126477,-0.7959306098222353,-0.059043338743873845
9031,7.0,299.75457,2566.4312,0.0,0.0,0.0,0.0,-0.09001025735148585,0.0,-0.2695911477940747,-0.1874528491701558,-0.32308699391620366,-0.16558058933153183,-0.7582429040752483,-0.03388854070903857
9032,7.0,300.20182,2467.9855,0.0,0.0,0.0,0.0,-0.09002022416106965,0.0,-0.24195346448894778,-0.20096062810826984,-0.3072918940698487,-0.15799906704829386,-0.7600813653216902,-0.046808420793381454
9033,7.0,299.96935,2201.8978,0.0,0.0,0.0,0.0,-0.09003019097065348,0.0,-0.19076266101930883,-0.18882647180072182,-0.28973281699190273,-0.16448478974588485,-0.8284349130926602,-0.05120827190136295
9034,7.0,300.98915,2521.9011,0.0,0.0,0.0,0.0,-0.0900401577802373,0.0,-0.23915470559273178,-0.20047810827814883,-0.3269621385261507,-0.2044425911494128,-0.7966510205108343,-0.024544617811365178
9035,7.0,300.94586,2522.847,0.0,0.0,0.0,0.0,-0.09005012458982112,0.0,-0.23330910364581578,-0.20322911269715183,-0.3303442761674417,-0.17547804670583483,-0.7689880667482133,-0.05967244850571215
9036,7.0,300.54463,2078.929,0.0,0.0,0.0,0.0,-0.09006009139940495,0.0,-0.2072662861305898,-0.17142202682053684,-0.2532541921917428,-0.18763492008062482,-0.7354661969323623,-0.03533325195337046
9037,7.0,300.60539,1979.3291,0.0,0.0,0.0,0.0,-0.09007005820898877,0.0,-0.18346219404880884,-0.17821479469593082,-0.23998962367513177,-0.20735753943459578,-0.7993824388054043,-0.07034537759229822
9038,7.0,300.29537,2075.2777,0.0,0.0,0.0,0.0,-0.0900800250185726,0.0,-0.17760643933589082,-0.1847782235436908,-0.26844793823624874,-0.1921710482608058,-0.7805200383888302,-0.04991180725266186
9039,7.0,299.08741000000003,2063.4185,0.0,0.0,0.0,0.0,-0.0900899918281564,0.0,-0.17224857545711084,-0.18647583289373182,-0.26850329208921175,-0.16206366916193884,-0.7652364778554602,-0.10334001994386591
9040,7.0,299.45087,2302.9088,0.0,0.0,0.0,0.0,-0.09009995863774023,0.0,-0.20352310721366682,-0.2016028462866518,-0.2949008281994457,-0.15707028147662982,-0.7403349953853753,-0.06312561295251294
9041,7.0,299.33242,2320.1727,0.0,0.0,0.0,0.0,-0.09010992544732406,0.0,-0.2003100303515608,-0.2009069461179718,-0.3040575896181477,-0.17702121647563382,-0.8115818990818973,-0.07265687262142503
9042,7.0,300.6027,2036.2456,0.0,0.0,0.0,0.0,-0.09011989225690786,0.0,-0.1901930422105918,-0.17732465448308082,-0.25145011052119376,-0.1996569805296098,-0.7868660744276352,-0.03763480902551646
9043,7.0,300.49715,2137.6429,0.0,0.0,0.0,0.0,-0.0901298590664917,0.0,-0.19365431468469282,-0.1949061041232348,-0.26122963571635777,-0.16387156065286385,-0.7729627125179802,-0.06679209998261704
9044,7.0,301.02724,2586.6045,0.0,0.0,0.0,0.0,-0.09013982587607551,0.0,-0.24920748407486373,-0.2268934674576418,-0.31016222895312867,-0.1828712868554908,-0.7603970535228463,-0.02478367897370868
9045,7.0,300.29109,2230.2447,0.0,0.0,0.0,0.0,-0.09014979268565933,0.0,-0.18821420529529584,-0.19155973421047381,-0.2981647398190687,-0.20000197192365782,-0.8017830106773222,-0.06430535929569484
9046,7.0,299.35868999999997,1938.0934,0.0,0.0,0.0,0.0,-0.09015975949524316,0.0,-0.14591334409552587,-0.17929305492234682,-0.26392559025742773,-0.23124897367499678,-0.8205045186674912,-0.06600326350151495
9047,7.0,299.66271,2134.9924,0.0,0.0,0.0,0.0,-0.09016972630482697,0.0,-0.19156591503608383,-0.16330906499234984,-0.2941093886788367,-0.16357759653385184,-0.7531780315953842,-0.06276295351647124
9048,7.0,299.03567000000004,2221.0718,0.0,0.0,0.0,0.0,-0.0901796931144108,0.0,-0.2275267994326468,-0.17781706363417782,-0.26980649383782773,-0.16723122440693686,-0.7278228157305193,-0.06111091610292784
9049,7.0,298.69697,2082.7894,0.0,0.0,0.0,0.0,-0.09018965992399461,0.0,-0.18431392195036783,-0.17364773199019684,-0.2751543265406177,-0.16280453737005685,-0.7652822463624773,-0.06279036598467665
9050,7.0,299.81975,2293.3114,0.0,0.0,0.0,0.0,-0.09019962673357844,0.0,-0.2103679460116998,-0.1893833641881828,-0.2973581015469597,-0.1936970130439068,-0.7917086601005613,-0.051485260028199545
9051,7.0,299.86125,2203.2874,0.0,0.0,0.0,0.0,-0.09020959354316227,0.0,-0.18856395896481382,-0.18140756602603283,-0.2997728183902737,-0.15904552135407085,-0.7733546680541633,-0.05500318534189174
9052,7.0,299.71297999999996,2206.2176,0.0,0.0,0.0,0.0,-0.09021956035274607,0.0,-0.1958975490810828,-0.17427297822940382,-0.3004645338360407,-0.18012357549931282,-0.7646240694950203,-0.04196361306298616
9053,7.0,299.97514,2575.5483,0.0,0.0,0.0,0.0,-0.0902295271623299,0.0,-0.25183831703200676,-0.2126002373070098,-0.3184638275524327,-0.18854590284803183,-0.8254122968518512,-0.04351229390007905
9054,7.0,299.58654,2325.5272,0.0,0.0,0.0,0.0,-0.09023949397191372,0.0,-0.24643966983670176,-0.17283873284535484,-0.28762379770375873,-0.23413140676447075,-0.8038228857786422,-0.052494160245520255
9055,7.0,300.1329,1926.6097,0.0,0.0,0.0,0.0,-0.09024946078149754,0.0,-0.15059261411733385,-0.17175941883883483,-0.26328919826712077,-0.19572261145131783,-0.7570139330289584,-0.08425683030400172
9056,7.0,300.15653,1793.4622,0.0,0.0,0.0,0.0,-0.09025942759108137,0.0,-0.16375367913622982,-0.14487731613327787,-0.2365367307793578,-0.16939849544332983,-0.7499861113953663,-0.08873357797532232
9057,7.0,299.50372999999996,2071.8052,0.0,0.0,0.0,0.0,-0.09026939440066518,0.0,-0.15614812256061986,-0.18641424755265382,-0.2872146675783807,-0.18629414701830083,-0.7901562292248483,-0.08165951363366653
9058,7.0,300.46446000000003,2066.5592,0.0,0.0,0.0,0.0,-0.09027936121024902,0.0,-0.18070202984890182,-0.17798091630784885,-0.26949946892502674,-0.18597761781956182,-0.7938927916186183,-0.08450739590798062
9059,7.0,300.36071,1959.1919,0.0,0.0,0.0,0.0,-0.09028932801983282,0.0,-0.17363968678440284,-0.16397274380784985,-0.2579329859860037,-0.15734793226903185,-0.7583806250288403,-0.07877798740303202
9060,7.0,300.06147999999996,2245.3602,0.0,0.0,0.0,0.0,-0.09029929482941665,0.0,-0.20908996405807279,-0.19426896232785382,-0.27917450776987873,-0.16507095492873483,-0.7326750982069024,-0.05819991949313485
9061,7.0,300.98149,2477.5005,0.0,0.0,0.0,0.0,-0.09030926163900048,0.0,-0.2152530679238238,-0.2194842382214078,-0.3183609927997837,-0.16765591805385083,-0.7691590527025882,-0.035725837731115664
9062,7.0,299.86861,2419.2488,0.0,0.0,0.0,0.0,-0.09031922844858428,0.0,-0.22786002699303376,-0.2046484126422258,-0.3028827767897027,-0.2059220781504268,-0.8069002175248512,-0.048142771876571656
9063,7.0,300.01597000000004,2430.4022,0.0,0.0,0.0,0.0,-0.09032919525816811,0.0,-0.21937003480263678,-0.19752502125920182,-0.3218865154627257,-0.19498514776353582,-0.7665797131155273,-0.01961797493664338
9064,7.0,298.94617,2180.8291,0.0,0.0,0.0,0.0,-0.09033916206775193,0.0,-0.20794015824209583,-0.16184351018021084,-0.2931339125425647,-0.20674190893883782,-0.7838639359713472,-0.041793280654925664
9065,7.0,298.76459,1937.1171,0.0,0.0,0.0,0.0,-0.09034912887733576,0.0,-0.17676748851809282,-0.15297290072224984,-0.25909483934566974,-0.2084691659868048,-0.7943595351446823,-0.04255948923479456
9066,7.0,299.37613,2195.7713,0.0,0.0,0.0,0.0,-0.09035909568691958,0.0,-0.2009104620958188,-0.1929349679086988,-0.27361421678612075,-0.19374184936083183,-0.7934068976656642,-0.06702901102824833
9067,7.0,299.94709,2329.6384,0.0,0.0,0.0,0.0,-0.0903690624965034,0.0,-0.20839673886965682,-0.21108800206276382,-0.2886671514642297,-0.18159365953939882,-0.7548669067295632,-0.059182127663071245
9068,7.0,299.75097999999997,1933.5727,0.0,0.0,0.0,0.0,-0.09037902930608722,0.0,-0.17410699773052285,-0.16218051716347084,-0.25147031472818776,-0.16360004002356685,-0.7563912503125043,-0.07837623576488223
9069,7.0,301.15278,2111.1557,0.0,0.0,0.0,0.0,-0.09038899611567103,0.0,-0.16940668250413785,-0.19840757222880281,-0.27392435237672874,-0.19524563409924384,-0.7994646741835203,-0.07175581869174794
9070,7.0,299.93672999999995,2361.9655,0.0,0.0,0.0,0.0,-0.09039896292525486,0.0,-0.2057806284364668,-0.2116751500982108,-0.3005227450542857,-0.17860528101946882,-0.8082717123302072,-0.04607417113491666
9071,7.0,300.36856,2289.5147,0.0,0.0,0.0,0.0,-0.09040892973483869,0.0,-0.2066156985063818,-0.2073632946951638,-0.28197630641639476,-0.16862557813454884,-0.7805502129768083,-0.05693385944018445
9072,7.0,300.57929,2116.6376,0.0,0.0,0.0,0.0,-0.09041889654442249,0.0,-0.18783497618036882,-0.18479214560006482,-0.27077785617869377,-0.15974136072774484,-0.7588076390184832,-0.043460438799711364
9073,7.0,300.34054,2115.3738,0.0,0.0,0.0,0.0,-0.09042886335400632,0.0,-0.18985255977948884,-0.19068288783893583,-0.2624853666977887,-0.1905641045297128,-0.7716792691463144,-0.05310110718792125
9074,7.0,300.45231,2058.0061,0.0,0.0,0.0,0.0,-0.09043883016359014,0.0,-0.16778615108920383,-0.1962963339229398,-0.2614999911080398,-0.2030467783416568,-0.7905216781384152,-0.06746637435441273
9075,7.0,299.14918,2104.1359,0.0,0.0,0.0,0.0,-0.09044879697317397,0.0,-0.17015166450766184,-0.1989704934543588,-0.27048262549705676,-0.1914986554944458,-0.7447170082253463,-0.09829183569314891
9076,7.0,299.05847,2369.7937,0.0,0.0,0.0,0.0,-0.09045876378275779,0.0,-0.2210238109533518,-0.2107561423900118,-0.28857814757544575,-0.18928716622368882,-0.7955004142272782,-0.05449688959817425
9077,7.0,299.65495,2079.8289999999997,0.0,0.0,0.0,0.0,-0.0904687305923416,0.0,-0.18766127471572583,-0.16459452473171485,-0.2799602933549297,-0.2192403590548388,-0.7947287330836191,-0.08659529399779012
9078,7.0,299.53751,1933.0165,0.0,0.0,0.0,0.0,-0.09047869740192543,0.0,-0.16354207198534584,-0.1805512987640258,-0.24349539809362478,-0.1978017297290108,-0.8151093165225263,-0.05951319598749514
9079,7.0,299.76533,2173.5133,0.0,0.0,0.0,0.0,-0.09048866421150924,0.0,-0.2151825254518618,-0.16915256951155883,-0.27635868574197875,-0.13581671214906588,-0.7507857278442822,-0.05863354493968034
9080,7.0,299.84657999999996,2453.2903,0.0,0.0,0.0,0.0,-0.09049863102109307,0.0,-0.24423408781402775,-0.18189812092944682,-0.3196067837977337,-0.16288062232006584,-0.7332487497510174,-0.03244697560626717
9081,7.0,300.3497,2242.9639,0.0,0.0,0.0,0.0,-0.0905085978306769,0.0,-0.2063368723438638,-0.18898908830927083,-0.2864790480057807,-0.18586799429124282,-0.7770486739437333,-0.038067083809678666
9082,7.0,301.10367,2116.6157,0.0,0.0,0.0,0.0,-0.0905185646402607,0.0,-0.16881685948842684,-0.17822812906724683,-0.2963533222177957,-0.2007041238454548,-0.7890651007221623,-0.033772404009076766
9083,7.0,299.74922999999995,2238.3994,0.0,0.0,0.0,0.0,-0.09052853144984453,0.0,-0.17714430609778184,-0.2104128228586288,-0.29286038567806977,-0.1886151382273648,-0.7387478809587392,-0.04176758260588946
9084,7.0,300.13515,2315.0753,0.0,0.0,0.0,0.0,-0.09053849825942835,0.0,-0.1971214032143678,-0.2039544781787398,-0.3026492023766507,-0.14349163582652186,-0.7994909680236153,-0.03777588282368936
9085,7.0,300.19648,2273.0537,0.0,0.0,0.0,0.0,-0.09054846506901218,0.0,-0.2158682221920348,-0.20098916123108582,-0.2740941933584907,-0.2038884953322278,-0.8189796684595002,-0.061433541014268435
9086,7.0,299.56865,2165.077,0.0,0.0,0.0,0.0,-0.090558431878596,0.0,-0.18608929824558382,-0.1939554627469138,-0.27808457490231075,-0.2040401282096928,-0.8174368431947352,-0.07051100649339453
9087,7.0,300.71757,2066.6159,0.0,0.0,0.0,0.0,-0.09056839868817981,0.0,-0.17437700861717084,-0.2007254122300558,-0.25309722961875175,-0.18567788830748083,-0.7534342825456742,-0.08729024981737692
9088,7.0,300.9783,2288.1313,0.0,0.0,0.0,0.0,-0.09057836549776364,0.0,-0.1974600617952908,-0.2021417230873348,-0.29593300581131377,-0.16668132344516584,-0.7415641792141863,-0.08185608010006612
9089,7.0,300.41638,2541.3523,0.0,0.0,0.0,0.0,-0.09058833230734745,0.0,-0.2352969584870018,-0.22342999623082377,-0.3137807071802447,-0.18561716422898783,-0.7575303055449203,-0.08181855539586272
9090,7.0,300.39347000000004,2176.3581,0.0,0.0,0.0,0.0,-0.09059829911693128,0.0,-0.18570701924785582,-0.20573057388152682,-0.27012092560885975,-0.16939106832009684,-0.7884591568973602,-0.059985627899620544
9091,7.0,300.16315,1876.1043,0.0,0.0,0.0,0.0,-0.09060826592651511,0.0,-0.14767398773428786,-0.17624307079633683,-0.24637181247750478,-0.16855809567788885,-0.7306966564591453,-0.05787242794156394
9092,7.0,300.35464,2295.2262,0.0,0.0,0.0,0.0,-0.09061823273609891,0.0,-0.2046274181001538,-0.19973406859721782,-0.2933299764369147,-0.15888735301346085,-0.7734499642260683,-0.05529945156513095
9093,7.0,300.6691,2641.9014,0.0,0.0,0.0,0.0,-0.09062819954568274,0.0,-0.25663043271745173,-0.2254786562105108,-0.32096296839407873,-0.21301346096279178,-0.8007634176316962,-0.04291592731522226
9094,7.0,299.91379,2364.6479,0.0,0.0,0.0,0.0,-0.09063816635526656,0.0,-0.21603498289349277,-0.19540636596260683,-0.3073525776183377,-0.19432715328109681,-0.8260923599214682,-0.06550420135026133
9095,7.0,299.99795,2118.3688,0.0,0.0,0.0,0.0,-0.09064813316485039,0.0,-0.1981749502708448,-0.15957813626913586,-0.28617814312358375,-0.19551889751871282,-0.7701904906418833,-0.03901515051749556
9096,7.0,299.01198,2148.7347,0.0,0.0,0.0,0.0,-0.0906580999744342,0.0,-0.2091743677914028,-0.16925476591664484,-0.27473256118649275,-0.15600531509152585,-0.7637318217219622,-0.03302832481139187
9097,7.0,299.44827000000004,2381.0194,0.0,0.0,0.0,0.0,-0.09066806678401802,0.0,-0.24192122287076576,-0.17033223580798282,-0.3115169747343317,-0.18298366642408184,-0.7856742288650093,-0.04512180520692546
9098,7.0,299.55035,2644.9214,0.0,0.0,0.0,0.0,-0.09067803359360185,0.0,-0.26483988635266176,-0.2000086593743178,-0.3391415263181627,-0.19265169357824183,-0.8004822204639442,-0.06164348947473874
9099,7.0,299.44387,2345.0391,0.0,0.0,0.0,0.0,-0.09068800040318566,0.0,-0.2234822900684848,-0.1908989836877628,-0.2984520367524227,-0.21045506525529778,-0.7527141656996043,-0.048479930847346656
9100,7.0,299.73203,1922.2118,0.0,0.0,0.0,0.0,-0.09069796721276949,0.0,-0.16062285791724185,-0.13947692614780086,-0.2842046055063107,-0.19502773466523882,-0.7582430054002582,-0.06995647193891623
9101,7.0,300.45499,2185.6221,0.0,0.0,0.0,0.0,-0.0907079340223533,0.0,-0.2007595283609228,-0.17178770878162686,-0.29182730627361275,-0.2148333290698988,-0.7682284331482433,-0.06902867732585002
9102,7.0,299.11384,2182.3297,0.0,0.0,0.0,0.0,-0.09071790083193712,0.0,-0.19045530173397482,-0.17557581520798382,-0.2973426089529307,-0.16545220041136083,-0.7906354458596432,-0.057566589544630044
9103,7.0,299.05671,1843.0891,0.0,0.0,0.0,0.0,-0.09072786764152094,0.0,-0.15012595165127784,-0.16710388926686986,-0.2430232134145238,-0.17222553414983682,-0.7825463460713112,-0.06337044457417594
9104,7.0,299.66492999999997,1752.8397,0.0,0.0,0.0,0.0,-0.09073783445110477,0.0,-0.12062569174732889,-0.17001453123912785,-0.24217928753873477,-0.16401386149690786,-0.8172115875650042,-0.08739729057119101
9105,7.0,299.23719,2100.4987,0.0,0.0,0.0,0.0,-0.0907478012606886,0.0,-0.17373056518587182,-0.19234515502548882,-0.2724234148710978,-0.19299819471493881,-0.8254534652034142,-0.08372335412635172
9106,7.0,299.83842999999996,2311.9651,0.0,0.0,0.0,0.0,-0.0907577680702724,0.0,-0.18756977823169582,-0.21225086867252976,-0.30295901372722667,-0.19692304937479183,-0.8020504276437143,-0.10018729428421609
9107,7.0,299.56306,2128.1089,0.0,0.0,0.0,0.0,-0.09076773487985623,0.0,-0.2091573755872258,-0.17273815764042882,-0.26499644362561275,-0.18970885051780584,-0.7522910628553473,-0.08070489423745293
9108,7.0,299.11432,2169.7963,0.0,0.0,0.0,0.0,-0.09077770168944005,0.0,-0.2034822124396308,-0.17020523504044885,-0.28587645803880973,-0.16159710802089286,-0.7695970908533192,-0.04392235520229896
9109,7.0,299.33436,2279.7567,0.0,0.0,0.0,0.0,-0.09078766849902387,0.0,-0.20672796661746182,-0.17789722184958884,-0.30836391267564867,-0.22338995258687178,-0.7726371856583533,-0.04745233819218116
9110,7.0,298.70569,2173.3729,0.0,0.0,0.0,0.0,-0.09079763530860768,0.0,-0.1867668889849568,-0.16732638885632883,-0.30655782476990173,-0.17739596702511884,-0.7998036063419702,-0.04417779352600876
9111,7.0,299.00968,2289.2484,0.0,0.0,0.0,0.0,-0.09080760211819151,0.0,-0.21207473540764682,-0.1848703178452798,-0.2989292876820237,-0.1990730748944828,-0.7586838198562633,-0.039145197114830166
9112,7.0,299.60191000000003,2349.2952,0.0,0.0,0.0,0.0,-0.09081756892777532,0.0,-0.20847227666461182,-0.18730973772603182,-0.31834508477321366,-0.17897106430556883,-0.7517586100602983,-0.04321961863519426
9113,7.0,299.20571,2051.0731,0.0,0.0,0.0,0.0,-0.09082753573735915,0.0,-0.2322799759167488,-0.15715058154705486,-0.23404443950838777,-0.18561499587377384,-0.7798559542732902,-0.05963691078495485
9114,7.0,300.84719,2284.6909,0.0,0.0,0.0,0.0,-0.09083750254694296,0.0,-0.21174440574254583,-0.1996550046919148,-0.2830895643012647,-0.19478337927112283,-0.7848780270689303,-0.04536662365633716
9115,7.0,300.52915,2473.3467,0.0,0.0,0.0,0.0,-0.09084746935652678,0.0,-0.2601256693349047,-0.1872786512129638,-0.3044313066525307,-0.16681606544346383,-0.7713815863994352,-0.025896822361317375
9116,7.0,299.74983,2232.5549,0.0,0.0,0.0,0.0,-0.09085743616611061,0.0,-0.1918327848474218,-0.18685699731634983,-0.2999511605403747,-0.17262599085435884,-0.8125837703832742,-0.04127009504529126
9117,7.0,300.32831,2292.228,0.0,0.0,0.0,0.0,-0.09086740297569443,0.0,-0.20613166893361182,-0.1996970444385638,-0.2909513616946637,-0.2048449527641228,-0.7957275038396903,-0.060537681004603945
9118,7.0,299.51223,2330.2584,0.0,0.0,0.0,0.0,-0.09087736978527826,0.0,-0.18375877235307883,-0.1986531941855438,-0.3259283903766277,-0.21593044588067578,-0.7995381145507683,-0.06671373927288345
9119,7.0,299.21407,2015.6676,0.0,0.0,0.0,0.0,-0.09088733659486206,0.0,-0.19705503533281782,-0.17812024832909984,-0.2375373355181098,-0.17775771757582084,-0.7634330446649752,-0.07365677619110783
9120,7.0,300.15484,2065.9566,0.0,0.0,0.0,0.0,-0.09089730340444589,0.0,-0.16645084957741987,-0.17010979701352982,-0.2914385728727477,-0.17418615282833483,-0.7526599872167573,-0.06464193260791203
9121,7.0,299.47963,2121.8943,0.0,0.0,0.0,0.0,-0.09090727021402972,0.0,-0.19740540708489682,-0.17272831898195784,-0.27486915743247375,-0.15185488056190985,-0.7707236831095052,-0.06813010281916765
9122,7.0,299.49916,1960.4184,0.0,0.0,0.0,0.0,-0.09091723702361353,0.0,-0.13360906309618786,-0.17283995887797585,-0.2894692199783877,-0.16949209948756785,-0.7922290349544182,-0.06332502969144385
9123,7.0,300.66807,1896.7435,0.0,0.0,0.0,0.0,-0.09092720383319736,0.0,-0.14419573318851087,-0.16288977196846885,-0.2694771672903257,-0.18478931863228582,-0.7716464398430742,-0.06853628843975502
9124,7.0,299.27761,2130.528,0.0,0.0,0.0,0.0,-0.09093717064278117,0.0,-0.17349003987713385,-0.1951450284968148,-0.27899226460689275,-0.18853114992657583,-0.7826103530801283,-0.052755803712842456
9125,7.0,298.86287999999996,2394.6378,0.0,0.0,0.0,0.0,-0.09094713745236499,0.0,-0.24022561975592274,-0.1970755637798438,-0.2906089034258657,-0.19465089682054781,-0.7737499875806783,-0.06115780323805524
9126,7.0,298.95898,2380.7729,0.0,0.0,0.0,0.0,-0.09095710426194882,0.0,-0.23219691980605178,-0.22422736326451778,-0.2672712204976157,-0.2138114460790468,-0.7788030658293782,-0.06562415091034944
9127,7.0,298.71745,2250.2898,0.0,0.0,0.0,0.0,-0.09096707107153264,0.0,-0.2284781804815408,-0.1806140696077208,-0.27493965937443177,-0.2182828073128358,-0.7719410929721543,-0.02301854461050348
9128,7.0,300.4436,2288.9898,0.0,0.0,0.0,0.0,-0.09097703788111647,0.0,-0.2080573507486618,-0.17680054073635484,-0.3109378617721777,-0.1958831406646608,-0.7732205846684302,-0.034706692542033866
9129,7.0,300.36824,2335.0968,0.0,0.0,0.0,0.0,-0.09098700469070027,0.0,-0.1887332933215258,-0.18978422619274482,-0.3312936003186327,-0.17632935917485285,-0.7913476593549332,-0.019572000739856082
9130,7.0,299.41515,2311.1604,0.0,0.0,0.0,0.0,-0.0909969715002841,0.0,-0.2108017183795098,-0.1816591661583638,-0.3100741471219357,-0.16357002755560485,-0.8064752097704062,-0.051251703853649355
9131,7.0,300.26021000000003,2324.8116,0.0,0.0,0.0,0.0,-0.09100693830986793,0.0,-0.2203481453891688,-0.17867461772381182,-0.3076619330063687,-0.17368413806628982,-0.7945722670031772,-0.02249930358350838
9132,7.0,299.80321000000004,1867.3366,0.0,0.0,0.0,0.0,-0.09101690511945174,0.0,-0.17748852742175383,-0.14496125377156185,-0.24517393807678375,-0.18626974795589282,-0.7798070446909633,-0.08291773518384332
9133,7.0,299.18561,2106.5795,0.0,0.0,0.0,0.0,-0.09102687192903557,0.0,-0.19210878404216084,-0.18830826530207884,-0.25993051736564476,-0.17951678054442682,-0.7889692573952033,-0.050549176016065255
9134,7.0,299.71251,2444.2912,0.0,0.0,0.0,0.0,-0.09103683873861938,0.0,-0.1952063199953638,-0.2432637488557628,-0.30453342199760874,-0.2042796200033288,-0.7730285940394823,-0.08604778025325473
9135,7.0,300.09271,2114.7031,0.0,0.0,0.0,0.0,-0.0910468055482032,0.0,-0.16984860140275185,-0.1992772650546348,-0.2736910515412037,-0.21202476191271477,-0.7943450456682523,-0.044484486092776956
9136,7.0,300.29211000000004,1958.1593,0.0,0.0,0.0,0.0,-0.09105677235778703,0.0,-0.15317950241763983,-0.1951468624794958,-0.24690517719764377,-0.21078924527077883,-0.7855146926367642,-0.08647783703294801
9137,7.0,301.00317,2233.1873,0.0,0.0,0.0,0.0,-0.09106673916737085,0.0,-0.1957643978854418,-0.20222634973568682,-0.28084242889198974,-0.18941486613379183,-0.7993443608666463,-0.053940006329964145
9138,7.0,299.77061000000003,2297.7895,0.0,0.0,0.0,0.0,-0.09107670597695468,0.0,-0.21242352648956983,-0.22051738855337177,-0.26552972728574376,-0.16373281631667083,-0.7958871819229493,-0.09191801025710132
9139,7.0,299.522,2291.8263,0.0,0.0,0.0,0.0,-0.09108667278653848,0.0,-0.2137405084395458,-0.19095916061120183,-0.29195829924654076,-0.16767804743603484,-0.7914718635521912,-0.06962273471372893
9140,7.0,299.42506000000003,2137.4083,0.0,0.0,0.0,0.0,-0.09109663959612231,0.0,-0.18294757445551985,-0.17254922702678283,-0.2942219404999447,-0.17564540522485184,-0.7637730610010323,-0.07714850291021443
9141,7.0,298.22362000000004,1869.8382,0.0,0.0,0.0,0.0,-0.09110660640570614,0.0,-0.17157875634600483,-0.13945484742812186,-0.2573505292985198,-0.18745010326238482,-0.7862008656044843,-0.06288382716065054
9142,7.0,299.32923,1942.2563,0.0,0.0,0.0,0.0,-0.09111657321528994,0.0,-0.15393472837967484,-0.16566644201250486,-0.2707962466680088,-0.20474329338158978,-0.7983371700022442,-0.08503824472812133
9143,7.0,300.05948,2291.2105,0.0,0.0,0.0,0.0,-0.09112654002487378,0.0,-0.20311935744631981,-0.19284239737956282,-0.3005090155154307,-0.18056335644021584,-0.7970340290486343,-0.061913558116642446
9144,7.0,300.31793999999996,2297.5066,0.0,0.0,0.0,0.0,-0.09113650683445759,0.0,-0.21514180293034277,-0.18051570328801284,-0.30272711117683976,-0.19286680657447183,-0.7706936098465372,-0.05040173698076415
9145,7.0,301.3099,2222.7534,0.0,0.0,0.0,0.0,-0.09114647364404141,0.0,-0.2200695218766708,-0.17783918288386083,-0.27775282668706974,-0.17698610735966883,-0.7942360807524982,-0.06224678669027954
9146,7.0,300.07638,2300.2792,0.0,0.0,0.0,0.0,-0.09115644045362524,0.0,-0.1906854614941898,-0.2004551480308828,-0.3080868293033027,-0.2104152749238708,-0.7872213199126952,-0.04051177664395106
9147,7.0,300.24765,2608.4154,0.0,0.0,0.0,0.0,-0.09116640726320906,0.0,-0.2598619102013738,-0.2108329771450948,-0.3221982722534937,-0.17945271274060384,-0.7691160199708413,-0.037936901436830664
9148,7.0,300.47325,2473.1403,0.0,0.0,0.0,0.0,-0.09117637407279289,0.0,-0.2105487199620408,-0.21285522169467483,-0.3283689653624937,-0.18969764397169983,-0.7753153272626653,-0.040629515292320964
9149,7.0,298.35114,1917.3414,0.0,0.0,0.0,0.0,-0.09118634088237669,0.0,-0.17985896523569783,-0.15250873085143984,-0.25045622363060477,-0.18825721776204082,-0.8022517604385843,-0.08095538688742462
9150,7.0,299.02851,1958.0386,0.0,0.0,0.0,0.0,-0.09119630769196052,0.0,-0.16776214719433485,-0.17272580612170985,-0.25470689899261373,-0.20741960100322082,-0.7706731624595192,-0.059656919434679545
9151,7.0,300.20642999999995,2082.7558,0.0,0.0,0.0,0.0,-0.09120627450154435,0.0,-0.18509575586002883,-0.17241386694592384,-0.2755961238492197,-0.1902683570905248,-0.7791655864501562,-0.0944455241280475
9152,7.0,299.47058,2048.1569,0.0,0.0,0.0,0.0,-0.09121624131112815,0.0,-0.16475433453748686,-0.17535107633580385,-0.28248314424891574,-0.18475721886911783,-0.7516531307248883,-0.07486157514301223
9153,7.0,299.80072,2191.881,0.0,0.0,0.0,0.0,-0.09122620812071199,0.0,-0.21181062163658082,-0.18226479587563482,-0.27220167521921373,-0.18293318630409983,-0.8007963178624432,-0.07406465900561272
9154,7.0,300.19014,2180.5511,0.0,0.0,0.0,0.0,-0.0912361749302958,0.0,-0.17230099088478384,-0.2044119605988898,-0.28612013455535873,-0.18605016652672182,-0.7971087258460062,-0.06472170477503494
9155,7.0,299.94943,2150.4982,0.0,0.0,0.0,0.0,-0.09124614173987962,0.0,-0.15932955562210285,-0.21014555787975178,-0.2842226210930887,-0.17005397706552086,-0.8018400465254512,-0.07224451630772863
9156,7.0,300.22287,2534.9462,0.0,0.0,0.0,0.0,-0.09125610854946345,0.0,-0.2204431578510458,-0.2231598637541638,-0.3269573357206767,-0.17169993092546385,-0.7857318726631983,-0.03178825867650687
9157,7.0,300.26,2516.7993,0.0,0.0,0.0,0.0,-0.09126607535904727,0.0,-0.2370235569224038,-0.21097758819936682,-0.31704300773220867,-0.17495871549958084,-0.7951150752142483,-0.05256608073761825
9158,7.0,299.8161,2058.8815,0.0,0.0,0.0,0.0,-0.0912760421686311,0.0,-0.19541897079385082,-0.17444464306134586,-0.25598497213874977,-0.20687157455413482,-0.7637572542994723,-0.044117460562054366
9159,7.0,300.80206,2075.4619,0.0,0.0,0.0,0.0,-0.0912860089782149,0.0,-0.2028590636281308,-0.15589515454065384,-0.2721343852800728,-0.17680584003437783,-0.7605903715094253,-0.03480887881461887
9160,7.0,300.6931,2407.6546,0.0,0.0,0.0,0.0,-0.09129597578779873,0.0,-0.22769761313450476,-0.1967805762782308,-0.3073886898519017,-0.18930572896552084,-0.7521217183661343,-0.03784903340140876
9161,7.0,299.84582,2428.5944,0.0,0.0,0.0,0.0,-0.09130594259738256,0.0,-0.22770551648528478,-0.18419779335640682,-0.3263287457561397,-0.16452766035761585,-0.7825053195747623,-0.05123933510967865
9162,7.0,299.89793,2359.5145,0.0,0.0,0.0,0.0,-0.09131590940696636,0.0,-0.23547270671684675,-0.16362015303805186,-0.3181406413005367,-0.17846665827328784,-0.8074216968213173,-0.048575328344261655
9163,7.0,298.79266,2379.1335,0.0,0.0,0.0,0.0,-0.0913258762165502,0.0,-0.2002764411107458,-0.2033578055923528,-0.31956292020090465,-0.18373735224596482,-0.7948930011898312,-0.039061402344810266
9164,7.0,299.80769,2276.4608,0.0,0.0,0.0,0.0,-0.09133584302613401,0.0,-0.20295763259785882,-0.20098267643044582,-0.28804692081301775,-0.2051836316100478,-0.7837338346585073,-0.055738315514693444
9165,7.0,299.46191,2402.1458,0.0,0.0,0.0,0.0,-0.09134580983571783,0.0,-0.2255411838741818,-0.22828470037494578,-0.27636646750274674,-0.19401098885239382,-0.8083808697634802,-0.039074458072348765
9166,7.0,300.22186,2469.1749,0.0,0.0,0.0,0.0,-0.09135577664530166,0.0,-0.2399730570359968,-0.2262737332989788,-0.28432073410027175,-0.2047109605708988,-0.7631284515524143,-0.06494637677270834
9167,7.0,299.98121000000003,1905.0011,0.0,0.0,0.0,0.0,-0.09136574345488548,0.0,-0.14151247467119388,-0.17771527252913183,-0.25984500918970577,-0.18587270590420785,-0.7988754591178692,-0.06172686273271703
9168,7.0,300.40537,1663.0279999999998,0.0,0.0,0.0,0.0,-0.0913757102644693,0.0,-0.10730680289285689,-0.16998134729835285,-0.22823082586712878,-0.18193845841592782,-0.7789641219327732,-0.07993310062303283
9169,7.0,300.12847999999997,2188.7783,0.0,0.0,0.0,0.0,-0.09138567707405311,0.0,-0.18034229566589882,-0.17820152111962081,-0.3067901427528297,-0.1781722483242318,-0.7962894726101523,-0.07435671213493612
9170,7.0,300.02853999999996,2310.1291,0.0,0.0,0.0,0.0,-0.09139564388363694,0.0,-0.24676967526177077,-0.17313168371426682,-0.2823201933678337,-0.16830186499260083,-0.7918517411471823,-0.07201216691404753
9171,7.0,300.12427,2116.3666,0.0,0.0,0.0,0.0,-0.09140561069322077,0.0,-0.1929098291737178,-0.18194548023912083,-0.2684672913131588,-0.17259510699131084,-0.7781654275414482,-0.08070702003616272
9172,7.0,299.93804,2203.9143,0.0,0.0,0.0,0.0,-0.09141557750280457,0.0,-0.1939317729595758,-0.20380667538665279,-0.27219645698119876,-0.2058305107388898,-0.7834415829321643,-0.07730990554514362
9173,7.0,299.02425,2445.2085,0.0,0.0,0.0,0.0,-0.0914255443123884,0.0,-0.19826611238234182,-0.2162317459304118,-0.3287844586984997,-0.20092006770676682,-0.8197087930989592,-0.07435642031890732
9174,7.0,299.50861000000003,2544.2853,0.0,0.0,0.0,0.0,-0.09143551112197222,0.0,-0.23985189258903875,-0.2182053646076928,-0.31534192293432467,-0.1998873024098408,-0.7847985375985852,-0.046129290927106555
9175,7.0,300.32415,2400.8255,0.0,0.0,0.0,0.0,-0.09144547793155604,0.0,-0.22509710675285477,-0.18810599018461582,-0.3165879165822947,-0.18210237188460482,-0.7716344226968883,-0.03014802562662847
9176,7.0,299.63201000000004,2091.7448,0.0,0.0,0.0,0.0,-0.09145544474113987,0.0,-0.22540937016867277,-0.16564861894324584,-0.24478018908792376,-0.1833329438660528,-0.7726058154352573,-0.009227302674763871
9177,7.0,300.39294,2038.0799,0.0,0.0,0.0,0.0,-0.09146541155072369,0.0,-0.16653792829101385,-0.18411566943580185,-0.2688717908855797,-0.2051825575649418,-0.7724117577761053,-0.038012291297271066
9178,7.0,300.96081000000004,2304.6437,0.0,0.0,0.0,0.0,-0.09147537836030752,0.0,-0.2231275410759738,-0.1748218456760728,-0.3026047510947637,-0.18186266730844783,-0.7843416023334893,-0.047374779976526754
9179,7.0,299.72456,2554.2145,0.0,0.0,0.0,0.0,-0.09148534516989132,0.0,-0.24293379409319876,-0.20775020424584878,-0.3257334207923857,-0.18507983770095782,-0.7762858688709502,-0.059963226966409745
9180,7.0,300.28151,2227.3948,0.0,0.0,0.0,0.0,-0.09149531197947515,0.0,-0.1969170509341998,-0.17965223181779483,-0.3005031082673477,-0.18244367504828882,-0.8043147781721882,-0.05672782921785085
9181,7.0,300.57345,1944.7013,0.0,0.0,0.0,0.0,-0.09150527878905898,0.0,-0.16979469649743184,-0.15772285507103384,-0.26362308444007276,-0.17084744308632982,-0.8214239316757301,-0.06992594372665334
9182,7.0,301.06802999999996,2422.7935,0.0,0.0,0.0,0.0,-0.09151524559864278,0.0,-0.23323914885891178,-0.1978546416492328,-0.3053749464706607,-0.18836436896011582,-0.7718686455900042,-0.03927175205232016
9183,7.0,301.17671,2498.9446,0.0,0.0,0.0,0.0,-0.09152521240822661,0.0,-0.23598745803264878,-0.1916110249305358,-0.33201826665765166,-0.18261757916295182,-0.7693458048285192,-0.07289179972336052
9184,7.0,301.06307999999996,2145.4131,0.0,0.0,0.0,0.0,-0.09153517921781043,0.0,-0.16427868454304384,-0.20396714380498981,-0.2839061830868587,-0.2073245277463378,-0.7871195592051523,-0.08052733026342873
9185,7.0,299.88748,1875.774,0.0,0.0,0.0,0.0,-0.09154514602739425,0.0,-0.1297945412397239,-0.18011085921055783,-0.2602830676054388,-0.2041732794053338,-0.7751201246309003,-0.097496891340444
9186,7.0,300.13608999999997,1964.6672,0.0,0.0,0.0,0.0,-0.09155511283697808,0.0,-0.14499655540504586,-0.1876750143870818,-0.26453822153288975,-0.19590957635976983,-0.7855172257620142,-0.05731117249917235
9187,7.0,300.30194,2076.7757,0.0,0.0,0.0,0.0,-0.0915650796465619,0.0,-0.19367014165125482,-0.18929363075932681,-0.24832418330018877,-0.18375314881502383,-0.7966049480287872,-0.08217359113815202
9188,7.0,300.02152,2270.9925,0.0,0.0,0.0,0.0,-0.09157504645614573,0.0,-0.21388925355422578,-0.21275679457996077,-0.26367897531558876,-0.2001514567109108,-0.8167957294589623,-0.03659149680829956
9189,7.0,298.86341,2159.1508,0.0,0.0,0.0,0.0,-0.09158501326572953,0.0,-0.18371859698661383,-0.2048431187814418,-0.2677662134364677,-0.17438088936505383,-0.7994999048894973,-0.08879680376831223
9190,7.0,298.97491,2108.1286,0.0,0.0,0.0,0.0,-0.09159498007531336,0.0,-0.18247543030642283,-0.18046877967588182,-0.27787425457905374,-0.17805556244271584,-0.7494324512757243,-0.07453325981911003
9191,7.0,300.35598,2495.347,0.0,0.0,0.0,0.0,-0.09160494688489719,0.0,-0.24147312314654176,-0.1983728278828738,-0.3186772382884947,-0.17257582484190784,-0.7575166266685703,-0.08498551519291732
9192,7.0,300.40806000000003,2643.59,0.0,0.0,0.0,0.0,-0.09161491369448099,0.0,-0.25396828019971773,-0.1991583905529028,-0.35045866867257763,-0.19575782189229282,-0.7802180999915312,-0.04821907974160265
9193,7.0,300.61447000000004,2248.3005,0.0,0.0,0.0,0.0,-0.09162488050406482,0.0,-0.22432083558624277,-0.16953552738685385,-0.2895708489634177,-0.19216389471509981,-0.7858107440509822,-0.030084846443143173
9194,7.0,300.41859,2072.1256,0.0,0.0,0.0,0.0,-0.09163484731364864,0.0,-0.1908227467502388,-0.15867542162254486,-0.2803762629184827,-0.17614338725149883,-0.7825280366420042,-0.023061539851996774
9195,7.0,299.78353,2408.2752,0.0,0.0,0.0,0.0,-0.09164481412323246,0.0,-0.22510646918377877,-0.19454134421973582,-0.3124077228972417,-0.2095284480388478,-0.7818801442630623,-0.014324193047187787
9196,7.0,300.14033,2551.0295,0.0,0.0,0.0,0.0,-0.09165478093281629,0.0,-0.22621890633606778,-0.2220209605092628,-0.3272094019480537,-0.2179762484950808,-0.8214003229484003,-0.05434988727366624
9197,7.0,300.20869,2289.6836,0.0,0.0,0.0,0.0,-0.0916647477424001,0.0,-0.1912913850539898,-0.2167629929578418,-0.2879522731211767,-0.19764128157567581,-0.7960512980416463,-0.040705480678818164
9198,7.0,300.31391,2088.5739,0.0,0.0,0.0,0.0,-0.09167471455198394,0.0,-0.18727988737808582,-0.1912814653355108,-0.25631296119611974,-0.1870441547423208,-0.7757144971395603,-0.0866703099689436
9199,7.0,300.05512000000004,2102.2206,0.0,0.0,0.0,0.0,-0.09168468136156774,0.0,-0.22001402616869378,-0.16040025700277286,-0.25860828678015074,-0.16575768518400985,-0.7652914466733852,-0.028079396513970675
9200,7.0,300.29528999999997,2166.8163,0.0,0.0,0.0,0.0,-0.09169464817115157,0.0,-0.2004700732048558,-0.18653634418970383,-0.27165162226992773,-0.1892764055076268,-0.8112237455690502,-0.08173312726668162
9201,7.0,300.53418,2290.8271,0.0,0.0,0.0,0.0,-0.0917046149807354,0.0,-0.17494741776096584,-0.1994942525635498,-0.3219125661227967,-0.2000646921048478,-0.7872949325324603,-0.07420549165026184
9202,7.0,299.93462999999997,2110.192,0.0,0.0,0.0,0.0,-0.0917145817903192,0.0,-0.18350371703790683,-0.1927835984762598,-0.26515837112409374,-0.17699654383569882,-0.8086812984181303,-0.10093805282656021
9203,7.0,298.9717,1887.9148,0.0,0.0,0.0,0.0,-0.09172454859990303,0.0,-0.16486449508835885,-0.15017471937859084,-0.25883974350049377,-0.2092279180591878,-0.7729136205506353,-0.08265850527825933
9204,7.0,299.10885,2156.542,0.0,0.0,0.0,0.0,-0.09173451540948685,0.0,-0.21486099079762883,-0.17427307955441382,-0.26640083866171577,-0.18093386147178184,-0.8083600069439213,-0.07870192677102542
9205,7.0,298.53222,2344.4211,0.0,0.0,0.0,0.0,-0.09174448221907068,0.0,-0.2188102242548878,-0.17975217880765884,-0.31408308127508666,-0.22720187039057876,-0.7885295676468093,-0.016972114467267284
9206,7.0,298.9309,2146.8026,0.0,0.0,0.0,0.0,-0.09175444902865448,0.0,-0.2048922715437928,-0.16993509243128782,-0.27774701063149576,-0.16022273558525285,-0.7773360418045943,-0.02877064383819147
9207,7.0,300.13018,2118.6849,0.0,0.0,0.0,0.0,-0.09176441583823831,0.0,-0.17044579074668983,-0.16959862247058083,-0.30398289282077573,-0.1999583211093498,-0.7836268354479472,-0.04681916529744186
9208,7.0,299.77603999999997,2294.2285,0.0,0.0,0.0,0.0,-0.09177438264782214,0.0,-0.2057484881432948,-0.18078789266237583,-0.3108517963086837,-0.17948756854404382,-0.8066905254166562,-0.047485342787688456
9209,7.0,300.63885,2516.2063,0.0,0.0,0.0,0.0,-0.09178434945740595,0.0,-0.20889691964902077,-0.24429400129244075,-0.3116729747197277,-0.19311172938864382,-0.7737133788545653,-0.07160931184653885
9210,7.0,299.86121,2246.5767,0.0,0.0,0.0,0.0,-0.09179431626698978,0.0,-0.2085028160226258,-0.19536530906855482,-0.2790350845561187,-0.15498584363591186,-0.7715324390743232,-0.08997272407911651
9211,7.0,300.06616,2099.7298,0.0,0.0,0.0,0.0,-0.0918042830765736,0.0,-0.2085412891289228,-0.15506794729151485,-0.27465619252645573,-0.16855310035489585,-0.7725178754590782,-0.049573979536820856
9212,7.0,300.02561000000003,2001.5467,0.0,0.0,0.0,0.0,-0.09181424988615741,0.0,-0.16227245947754484,-0.16791292894171583,-0.27823483989214076,-0.18146539220923982,-0.8148719322890982,-0.07642374132568602
9213,7.0,299.71856,1930.7238,0.0,0.0,0.0,0.0,-0.09182421669574123,0.0,-0.16750682843413683,-0.15093937869905685,-0.2684456178935198,-0.19833873201700883,-0.7937720426042012,-0.040661509677478565
9214,7.0,299.70948,2325.8484,0.0,0.0,0.0,0.0,-0.09183418350532506,0.0,-0.1991043032625648,-0.1977205582634998,-0.3101749655068857,-0.19102344119754583,-0.8167126328182612,-0.06495101239191585
9215,7.0,300.91314,2475.6135,0.0,0.0,0.0,0.0,-0.09184415031490886,0.0,-0.24158808650288774,-0.2075954708230778,-0.30334114073743973,-0.18995086530419084,-0.7843809265698702,-0.05060506385183095
9216,7.0,300.19477,2065.978,0.0,0.0,0.0,0.0,-0.09185411712449269,0.0,-0.1868238437730778,-0.18922975547302281,-0.2519521050182367,-0.21448218724774376,-0.8273346856040762,-0.08265365788978092
9217,7.0,300.83891,2093.8358,0.0,0.0,0.0,0.0,-0.09186408393407652,0.0,-0.17777965444048585,-0.1973121070156888,-0.26138203866389875,-0.19303758987882683,-0.7748530521695423,-0.05531362592077985
9218,7.0,301.13863,2428.2017,0.0,0.0,0.0,0.0,-0.09187405074366033,0.0,-0.1999090264919848,-0.2162355253532848,-0.32196813275828073,-0.18329950661275282,-0.7625808101383662,-0.04464597181421436
9219,7.0,300.34979,2209.455,0.0,0.0,0.0,0.0,-0.09188401755324416,0.0,-0.18361817376920284,-0.2016777761315468,-0.28632321014040074,-0.2014738798139238,-0.7844199772287243,-0.06497971675399875
9220,7.0,300.46636,1973.1893,0.0,0.0,0.0,0.0,-0.09189398436282797,0.0,-0.15926889233861585,-0.17489298596559386,-0.26563839835896874,-0.17894056547755885,-0.8114186644907873,-0.06799219036130673
9221,7.0,299.25282000000004,1943.5176,0.0,0.0,0.0,0.0,-0.0919039511724118,0.0,-0.16132601295663784,-0.16331439468787587,-0.2661404131210138,-0.2040612038117728,-0.7923307247344542,-0.09370040533576
9222,7.0,298.92954,2170.7529999999997,0.0,0.0,0.0,0.0,-0.09191391798199561,0.0,-0.19749370169861083,-0.18146218020642282,-0.28089881626005475,-0.15337839327976885,-0.7883998007065023,-0.05334136702513305
9223,7.0,300.67768,2392.81,0.0,0.0,0.0,0.0,-0.09192388479157944,0.0,-0.2213079262813918,-0.2016203248508768,-0.3044262302695297,-0.1978475792960358,-0.7677573833092542,-0.08335898533739133
9224,7.0,300.25253,2387.527,0.0,0.0,0.0,0.0,-0.09193385160116326,0.0,-0.2194145975420348,-0.1961762637860898,-0.31015774025518567,-0.18216349113063682,-0.7974757148997252,-0.03903951816915047
9225,7.0,300.42796,2173.8727,0.0,0.0,0.0,0.0,-0.09194381841074707,0.0,-0.20114181749115181,-0.17608950261118084,-0.2835717092288487,-0.2137615536441228,-0.7683190785021893,-0.05855548921822685
9226,7.0,300.47598,2175.6965,0.0,0.0,0.0,0.0,-0.0919537852203309,0.0,-0.18186684189885982,-0.18411971230370083,-0.2953708445233327,-0.20623583104389182,-0.7915211885670592,-0.04872134680292255
9227,7.0,300.63802000000004,2711.8721,0.0,0.0,0.0,0.0,-0.09196375202991472,0.0,-0.26312458565587477,-0.2266145095726108,-0.3346023077251767,-0.1894081482856288,-0.8048254764875903,-0.03045858880877867
9228,7.0,301.91229,2793.1236,0.0,0.0,0.0,0.0,-0.09197371883949854,0.0,-0.27625816119955776,-0.22860867696191978,-0.3441729818097287,-0.19296306533397184,-0.8170147130705742,-0.04801171912188775
9229,7.0,301.16891,2040.8377,0.0,0.0,0.0,0.0,-0.09198368564908235,0.0,-0.15760063684397185,-0.18251734846305984,-0.28024571577559876,-0.16714698279362283,-0.7851198493377962,-0.041047860927358466
9230,7.0,300.79497000000003,2010.7902,0.0,0.0,0.0,0.0,-0.09199365245866618,0.0,-0.16099136684611084,-0.16195225218094284,-0.2882863923416517,-0.17406940615181282,-0.7857082031408622,-0.061484178188015944
9231,7.0,300.58127,2462.729,0.0,0.0,0.0,0.0,-0.09200361926825001,0.0,-0.2244174793807808,-0.20148658597017782,-0.32270406643841165,-0.21931303948451178,-0.7520099670126053,-0.029252121033959574
9232,7.0,300.19109,2314.0466,0.0,0.0,0.0,0.0,-0.09201358607783382,0.0,-0.19841740075477282,-0.2142126931186468,-0.2907822705179757,-0.19595736123448582,-0.7890296673661653,-0.10091188158972732
9233,7.0,299.31611000000004,1979.2982,0.0,0.0,0.0,0.0,-0.09202355288741765,0.0,-0.17559326337470585,-0.14261492117749688,-0.28344904517174274,-0.2083575767532918,-0.7983398551150093,-0.06348661775114135
9234,7.0,299.87993,2128.7034,0.0,0.0,0.0,0.0,-0.09203351969700146,0.0,-0.18268563917216882,-0.18890321536329582,-0.27548382534063676,-0.18724059353920783,-0.8053256471344532,-0.06441972078148143
9235,7.0,299.74586,2324.4586,0.0,0.0,0.0,0.0,-0.09204348650658528,0.0,-0.2066990991221128,-0.19775917322481082,-0.3021191003218337,-0.1872573628283628,-0.8176513381084043,-0.06723987242705873
9236,7.0,300.60927999999996,2528.0015,0.0,0.0,0.0,0.0,-0.09205345331616911,0.0,-0.23952489651676678,-0.22555577467562177,-0.3033686707426567,-0.2036505234137418,-0.7714130275500383,-0.06437804985786884
9237,7.0,300.04926,2483.2395,0.0,0.0,0.0,0.0,-0.09206342012575293,0.0,-0.2248368737296718,-0.23055196906370778,-0.29945395871630476,-0.20974918457313277,-0.7748193008087112,-0.06729471458872123
9238,7.0,300.10301,2113.827,0.0,0.0,0.0,0.0,-0.09207338693533675,0.0,-0.19099502966474183,-0.18437242701114182,-0.26718316906392575,-0.18714486166975983,-0.7795144991220913,-0.04928408463021045
9239,7.0,300.1906,2087.0269,0.0,0.0,0.0,0.0,-0.09208335374492056,0.0,-0.1905724233130338,-0.1868073581939508,-0.25702428303132174,-0.2092666039480058,-0.7887653712100813,-0.07055382340287022
9240,7.0,299.49982,2510.1938,0.0,0.0,0.0,0.0,-0.0920933205545044,0.0,-0.2335441979340178,-0.2090184488660148,-0.3204735787282797,-0.15594288875286486,-0.8045197181374143,-0.08458956542484013
9241,7.0,299.45648,2359.6951,0.0,0.0,0.0,0.0,-0.09210328736408822,0.0,-0.2070201170187948,-0.18728537919362784,-0.32298291286593167,-0.17239638838169885,-0.7934304658629903,-0.07249239983869284
9242,7.0,299.88743,1778.5522,0.0,0.0,0.0,0.0,-0.09211325417367203,0.0,-0.14272899287375487,-0.15384649456096686,-0.24405997091684378,-0.16864301616876987,-0.8019001727863853,-0.07916789718726312
9243,7.0,300.14574,2076.1818,0.0,0.0,0.0,0.0,-0.09212322098325586,0.0,-0.19934618632643683,-0.16734632961829685,-0.26441490899571973,-0.17488555884236084,-0.7915356983084912,-0.033950656993168966
9244,7.0,301.13424,2549.5496,0.0,0.0,0.0,0.0,-0.09213318779283967,0.0,-0.2620857003283447,-0.2167012150992448,-0.2962125108513987,-0.2122513347675758,-0.7786541889921853,-0.08824592502019472
9245,7.0,300.88614,2444.1641,0.0,0.0,0.0,0.0,-0.09214315460242349,0.0,-0.24364958436134176,-0.2053856635474868,-0.2939296077135937,-0.18200137111463682,-0.7973287227077183,-0.042698198107234055
9246,7.0,299.77662999999995,2361.6064,0.0,0.0,0.0,0.0,-0.09215312141200732,0.0,-0.19535734492276882,-0.2029534782724488,-0.31955857335797566,-0.2009313046503758,-0.8032259700122313,-0.06615618016685663
9247,7.0,300.71768,2424.8633,0.0,0.0,0.0,0.0,-0.09216308822159114,0.0,-0.2165516897819878,-0.20357521866630982,-0.3169709960476017,-0.2063017632278988,-0.8110881929706723,-0.025418574393617974
9248,7.0,299.81721,2203.1,0.0,0.0,0.0,0.0,-0.09217305503117497,0.0,-0.18835851237453782,-0.2053996970613718,-0.27592916902458875,-0.19650467840850183,-0.8031084836631363,-0.06800043821712073
9249,7.0,299.34027000000003,2217.177,0.0,0.0,0.0,0.0,-0.09218302184075877,0.0,-0.2076265573361458,-0.17375224873801184,-0.2925876592811537,-0.2158041949182158,-0.7804973517190913,-0.034174606543521065
9250,7.0,299.5975,2351.342,0.0,0.0,0.0,0.0,-0.0921929886503426,0.0,-0.2238826758454998,-0.1986133633241128,-0.29225322595314773,-0.1943221579581038,-0.7781354758684923,-0.04772434315502595
9251,7.0,300.71012,1819.9419,0.0,0.0,0.0,0.0,-0.09220295545992643,0.0,-0.16146799969315084,-0.12362215600305687,-0.2681267278220477,-0.17554321895226682,-0.8005007325432713,-0.05967304429677094
9252,7.0,299.91225,1783.3120000000001,0.0,0.0,0.0,0.0,-0.09221292226951024,0.0,-0.12430249265020088,-0.15366189052524784,-0.26411792539140977,-0.15902127427917784,-0.7924536522365863,-0.08294274219631133
9253,7.0,299.90618,2358.3033,0.0,0.0,0.0,0.0,-0.09222288907909407,0.0,-0.1972729347668228,-0.1892568801781998,-0.3303354811565737,-0.13935986536374786,-0.8281726940992813,-0.07426875088050502
9254,7.0,299.20131000000003,2330.3426,0.0,0.0,0.0,0.0,-0.09223285588867788,0.0,-0.2232924677947508,-0.18119044679460483,-0.30388304715592174,-0.1841715501788168,-0.8132146502930372,-0.01925474301429518
9255,7.0,300.4532,2186.1239,0.0,0.0,0.0,0.0,-0.0922428226982617,0.0,-0.1936521361969778,-0.2042287041858038,-0.26664624783593577,-0.18583801222078383,-0.8250409913527063,-0.06883377562936473
9256,7.0,300.20918,2243.8711,0.0,0.0,0.0,0.0,-0.09225278950784553,0.0,-0.22859516020558576,-0.18680549381376682,-0.26668014105178073,-0.1940797784016828,-0.7945472701232102,-0.04825197490609916
9257,7.0,300.159,2091.334,0.0,0.0,0.0,0.0,-0.09226275631742935,0.0,-0.16523898219281785,-0.18185036645223385,-0.2886239667449677,-0.19317663819004982,-0.7723261381426553,-0.08204469863268132
9258,7.0,299.99301,2126.1637,0.0,0.0,0.0,0.0,-0.09227272312701318,0.0,-0.16212011732500983,-0.20090031946231782,-0.2832802377050827,-0.1893310298205178,-0.7790580502170432,-0.07732984732036173
9259,7.0,300.3954,2451.9437,0.0,0.0,0.0,0.0,-0.09228268993659698,0.0,-0.20935551664428081,-0.1983614490842508,-0.3376127041697797,-0.2021172328324178,-0.7774171930051033,-0.05436109280652215
9260,7.0,300.53309,2296.1966,0.0,0.0,0.0,0.0,-0.09229265674618081,0.0,-0.22380793851812378,-0.19767428313143282,-0.27650420872134074,-0.20010473574879983,-0.7691712826312953,-0.07125405926872815
9261,7.0,300.60874,1894.8027,0.0,0.0,0.0,0.0,-0.09230262355576464,0.0,-0.17581792118687783,-0.15910719788765784,-0.24104759863454578,-0.17424863996200182,-0.7825488893290622,-0.046741187596246056
9262,7.0,299.95775,2142.4,0.0,0.0,0.0,0.0,-0.09231259036534845,0.0,-0.2155908753746628,-0.15483798004881885,-0.28080723871601676,-0.2046567415580478,-0.7898152199036932,-0.06370109746605884
9263,7.0,299.57722,2733.1639,0.0,0.0,0.0,0.0,-0.09232255717493228,0.0,-0.25068357668804275,-0.22944225755418776,-0.35068773412268467,-0.18563643624588982,-0.8063707538175973,-0.05068875729684085
9264,7.0,299.62729,2478.861,0.0,0.0,0.0,0.0,-0.0923325239845161,0.0,-0.2060356432216348,-0.22456938583577277,-0.3229068177834217,-0.17987263397954684,-0.7933579880833372,-0.09163417458608891
9265,7.0,298.81084,1974.7553,0.0,0.0,0.0,0.0,-0.09234249079409991,0.0,-0.17149849680558382,-0.17659582368615084,-0.25218199120092477,-0.17125789043683784,-0.7962989566310883,-0.058199063296800344
9266,7.0,299.67491,2082.4636,0.0,0.0,0.0,0.0,-0.09235245760368374,0.0,-0.18045929565494584,-0.18653760061982783,-0.26602005927413575,-0.18450753377947582,-0.8080045993388453,-0.05653318792664124
9267,7.0,300.12622000000005,2176.8989,0.0,0.0,0.0,0.0,-0.09236242441326756,0.0,-0.21830190707722077,-0.16602862826074985,-0.2773923730964958,-0.2078236952756018,-0.8262830130602843,-0.03094758432028877
9268,7.0,299.64421,2300.4503,0.0,0.0,0.0,0.0,-0.09237239122285139,0.0,-0.2087186788239298,-0.22005632936036879,-0.2705044407717097,-0.2266957215681258,-0.7857990410123272,-0.056310051002869344
9269,7.0,299.47958,2413.1096,0.0,0.0,0.0,0.0,-0.09238235803243519,0.0,-0.2033270534518178,-0.2030274455297488,-0.3271705640717207,-0.20570222314372882,-0.7809488255661482,-0.07196750690263992
9270,7.0,300.17477,2092.109,0.0,0.0,0.0,0.0,-0.09239232484201902,0.0,-0.16564064466495884,-0.17376925107468985,-0.29653899016611973,-0.19833589491672882,-0.7698053948088773,-0.057456499921265045
9271,7.0,301.15587,2217.1187,0.0,0.0,0.0,0.0,-0.09240229165160285,0.0,-0.1886021179635798,-0.21117410805626183,-0.27417249732621873,-0.17040171436733983,-0.7938336887402853,-0.0904675082884479
9272,7.0,301.3151,2710.4970000000003,0.0,0.0,0.0,0.0,-0.09241225846118666,0.0,-0.27264635015809974,-0.2162060904378798,-0.3350709561614287,-0.18913294955846882,-0.7858583769381833,-0.06126115880125565
9273,7.0,299.82835,2541.518,0.0,0.0,0.0,0.0,-0.09242222527077049,0.0,-0.24875688162289275,-0.2240474404442608,-0.2997536882283857,-0.16515158937169286,-0.7990054287081962,-0.058797324659344154
9274,7.0,299.87952,1895.6541,0.0,0.0,0.0,0.0,-0.0924321920803543,0.0,-0.16134459596347184,-0.16969366532996086,-0.24519326075619075,-0.18333852687410382,-0.7988419509370622,-0.041219088035257256
9275,7.0,300.28305,2027.3741,0.0,0.0,0.0,0.0,-0.09244215888993812,0.0,-0.13203712715604987,-0.19814065175495982,-0.2860933239577127,-0.16399596750014186,-0.8037488171963323,-0.05815427561588015
9276,7.0,299.01977999999997,2429.6403,0.0,0.0,0.0,0.0,-0.09245212569952195,0.0,-0.21229853195723378,-0.22782647828222277,-0.2984249728422517,-0.19763921454547181,-0.7758437371898153,-0.059152812311178034
9277,7.0,299.21306,2432.1974,0.0,0.0,0.0,0.0,-0.09246209250910577,0.0,-0.2302926884956188,-0.22531526963188578,-0.2837193296359177,-0.17545192511825683,-0.7838358385460743,-0.09969087367597321
9278,7.0,299.83203,2202.904,0.0,0.0,0.0,0.0,-0.0924720593186896,0.0,-0.2139344546411868,-0.18110990354415582,-0.27458346143427775,-0.20134930071412882,-0.8058654257277252,-0.05202355724982535
9279,7.0,299.48566,2185.8934,0.0,0.0,0.0,0.0,-0.0924820261282734,0.0,-0.21522636878368878,-0.18294817227307883,-0.26628249105003576,-0.18310892440144383,-0.8243705338940372,-0.06026806021924444
9280,7.0,300.90585,2367.3317,0.0,0.0,0.0,0.0,-0.09249199293785723,0.0,-0.1910461278672848,-0.1983297951511268,-0.3302337913765377,-0.2012428486586228,-0.7956922427362103,-0.03446619357779847
9281,7.0,301.30916,2510.0961,0.0,0.0,0.0,0.0,-0.09250195974744106,0.0,-0.1904342261318948,-0.23034940010371577,-0.34222291106477165,-0.1908725682576558,-0.7919949032538113,-0.08340078494376663
9282,7.0,300.49166,2513.8968,0.0,0.0,0.0,0.0,-0.09251192655702487,0.0,-0.2067430843089538,-0.21032872310032882,-0.3470900376551197,-0.2032624688904438,-0.7444757331115344,-0.03013494760758777
9283,7.0,301.56389,2133.0,0.0,0.0,0.0,0.0,-0.0925218933666087,0.0,-0.1964264555007818,-0.17888719759479182,-0.27306509602692675,-0.19318908090127782,-0.7836785416005502,-0.06400824194237165
9284,7.0,300.8277,1976.3737,0.0,0.0,0.0,0.0,-0.09253186017619251,0.0,-0.18870554040128681,-0.18202701647466782,-0.2300356877402548,-0.17667096631356682,-0.7797342426712783,-0.07003005213467803
9285,7.0,299.57296,2315.6028,0.0,0.0,0.0,0.0,-0.09254182698577633,0.0,-0.24520989832283277,-0.1849571736438518,-0.2737183687638997,-0.21350609302891077,-0.8091126288531992,-0.05138536471409065
9286,7.0,300.08603999999997,2571.0079,0.0,0.0,0.0,0.0,-0.09255179379536016,0.0,-0.2287701282328538,-0.21725210904611378,-0.3354999662537687,-0.19280131008800783,-0.8322035448520952,-0.03235157709610207
9287,7.0,299.8524,2240.3479,0.0,0.0,0.0,0.0,-0.09256176060494398,0.0,-0.16356665343277185,-0.20067379726996182,-0.3167693795427037,-0.16605040300539883,-0.8364372989374342,-0.06174001573226515
9288,7.0,300.1619,2188.507,0.0,0.0,0.0,0.0,-0.09257172741452781,0.0,-0.16479179439368385,-0.18929634626959482,-0.3111633403169307,-0.18355147151511983,-0.7953072988907192,-0.06582641184231104
9289,7.0,300.56025,2387.8028,0.0,0.0,0.0,0.0,-0.09258169422411161,0.0,-0.1951793979402068,-0.22888644934433378,-0.30176657034704174,-0.16821238487626985,-0.7894258988177703,-0.07975083111554422
9290,7.0,299.76658,2166.9874,0.0,0.0,0.0,0.0,-0.09259166103369544,0.0,-0.2083557934331158,-0.16422231743998084,-0.2861319490515247,-0.20875862114287183,-0.7649005651823082,-0.05669343849620674
9291,7.0,299.3842,2212.4491,0.0,0.0,0.0,0.0,-0.09260162784327927,0.0,-0.1984946104123928,-0.1913330904281058,-0.28270159083797475,-0.2018197628680598,-0.7905758667537632,-0.06792985116215433
9292,7.0,299.07392999999996,2239.6243,0.0,0.0,0.0,0.0,-0.09261159465286307,0.0,-0.19037865949641083,-0.17816486173100285,-0.3122463324213137,-0.18185136956983283,-0.7903805830619902,-0.04792006457084216
9293,7.0,299.00536,1991.2127,0.0,0.0,0.0,0.0,-0.0926215614624469,0.0,-0.14237660475397687,-0.18148112798329283,-0.2814212074816107,-0.16586042874414983,-0.7836595938236802,-0.10454995202077691
9294,7.0,300.78,2086.8096,0.0,0.0,0.0,0.0,-0.09263152827203072,0.0,-0.17262663933442282,-0.19399736063854883,-0.2677139905263138,-0.17717199822301483,-0.7941183309583772,-0.057985691064242145
9295,7.0,300.84477999999996,2565.615,0.0,0.0,0.0,0.0,-0.09264149508161454,0.0,-0.26272099800854376,-0.2068150149335528,-0.3103468836513527,-0.1992586212527948,-0.7832099640918052,-0.08225180897962152
9296,7.0,299.96707999999995,2550.7443,0.0,0.0,0.0,0.0,-0.09265146189119837,0.0,-0.27227079914103575,-0.21336440013492677,-0.2897273657063647,-0.20180859685195782,-0.7637798396442013,-0.05716883315162454
9297,7.0,300.25338999999997,2226.1777,0.0,0.0,0.0,0.0,-0.09266142870078219,0.0,-0.2027166614590768,-0.2088924005535748,-0.2650933711301787,-0.2094876140598178,-0.7936942047315192,-0.06212589176784814
9298,7.0,300.22659,2128.9907,0.0,0.0,0.0,0.0,-0.09267139551036602,0.0,-0.14829300248537983,-0.16700868428747384,-0.3318583352618677,-0.21854781274398977,-0.8025448430300093,-0.03629708989899386
9299,7.0,300.08406,2252.4642,0.0,0.0,0.0,0.0,-0.09268136231994982,0.0,-0.17701399200242082,-0.18135857538369782,-0.32632030538280665,-0.2002422844498748,-0.8115787985365912,-0.05655160374720874
9300,7.0,300.2993,2271.7396,0.0,0.0,0.0,0.0,-0.09269132912953364,0.0,-0.20412481565305082,-0.17289791678369584,-0.3135293907579417,-0.19032375147349184,-0.8040566020467083,-0.07178388977251834
9301,7.0,298.15629,2047.5023,0.0,0.0,0.0,0.0,-0.09270129593911748,0.0,-0.19301979720707083,-0.16611783479955386,-0.26325194106094374,-0.17539142395478582,-0.7850793092012953,-0.04313543883013637
9302,7.0,298.67405,1936.8156,0.0,0.0,0.0,0.0,-0.09271126274870128,0.0,-0.19066637186230584,-0.15335656787261487,-0.24472065051204778,-0.1983309907862448,-0.8008891619691063,-0.04510334379010346
9303,7.0,299.76174,2238.0054,0.0,0.0,0.0,0.0,-0.09272122955828511,0.0,-0.2185878259904388,-0.17459850508903083,-0.28711142752569174,-0.18009168851866583,-0.8003412672425332,-0.027797462713395976
9304,7.0,300.21768,2653.6562,0.0,0.0,0.0,0.0,-0.09273119636786893,0.0,-0.24782693081361373,-0.23148340935063377,-0.32733488284043766,-0.19386045028503682,-0.8102345804239272,-0.07815167218496953
9305,7.0,300.68662,2648.637,0.0,0.0,0.0,0.0,-0.09274116317745275,0.0,-0.24107642559989076,-0.23377550266684577,-0.33026758326737266,-0.14462009246289187,-0.8102650589869352,-0.06521241875871464
9306,7.0,301.30926,2053.8612,0.0,0.0,0.0,0.0,-0.09275112998703658,0.0,-0.17466286673538284,-0.17682956021921883,-0.27283010306373473,-0.17464740453885683,-0.8088873630909672,-0.08567700164416173
9307,7.0,300.57665,2076.1204,0.0,0.0,0.0,0.0,-0.0927610967966204,0.0,-0.16775192350082582,-0.2010063459527818,-0.26233049142000375,-0.17379727757245583,-0.8009785002304233,-0.08449883293138552
9308,7.0,300.72508,2554.7986,0.0,0.0,0.0,0.0,-0.09277106360620423,0.0,-0.2517709561653588,-0.20403704792938882,-0.3207869668517087,-0.21481762369334878,-0.7797885427441373,-0.07315751848258494
9309,7.0,300.18836,2325.9933,0.0,0.0,0.0,0.0,-0.09278103041578803,0.0,-0.16758826334467383,-0.22568000927038281,-0.3137756206647427,-0.21980460763802578,-0.7925578852743732,-0.08511447761264491
9310,7.0,299.26601,1717.6846,0.0,0.0,0.0,0.0,-0.09279099722537186,0.0,-0.1120546395489319,-0.14528056940807588,-0.26479801885852977,-0.19949378646850383,-0.8031458624593253,-0.059079865396728735
9311,7.0,299.88139,1925.1162,0.0,0.0,0.0,0.0,-0.09280096403495569,0.0,-0.15579478198574787,-0.14772257307658287,-0.28166990971865574,-0.1946536224633168,-0.8250052337566772,-0.06587427980353523
9312,7.0,299.51923,2443.5168,0.0,0.0,0.0,0.0,-0.0928109308445395,0.0,-0.2580366212062318,-0.2042279138507258,-0.2805035473960447,-0.15692034072683184,-0.8185297752825993,-0.08263477090791692
9313,7.0,300.07318,2554.2557,0.0,0.0,0.0,0.0,-0.09282089765412332,0.0,-0.26326301588453677,-0.20127617445441182,-0.3118907728287227,-0.17388358621597386,-0.8054167889809483,-0.09190840059315292
9314,7.0,299.79986,2359.8501,0.0,0.0,0.0,0.0,-0.09283086446370714,0.0,-0.24376466930769977,-0.18336806311451884,-0.29020278265328475,-0.16975281887079882,-0.7779685530470183,-0.03542078966925976
9315,7.0,299.92931,1994.3855,0.0,0.0,0.0,0.0,-0.09284083127329096,0.0,-0.15495013670238786,-0.17515508336896082,-0.27613817212271574,-0.19451561779969684,-0.7865663955780592,-0.053892185991494646
9316,7.0,298.40732,2031.9454,0.0,0.0,0.0,0.0,-0.09285079808287477,0.0,-0.18241606398306381,-0.14247198198588987,-0.2927726078219067,-0.21341563005998282,-0.7910862205641312,-0.04442340028399826
9317,7.0,298.5447,2610.4736,0.0,0.0,0.0,0.0,-0.0928607648924586,0.0,-0.24237287910284075,-0.2073681177656398,-0.34377778387322566,-0.2181698805891908,-0.7912106679414133,-0.05985880546410415
9318,7.0,298.83606000000003,2502.6163,0.0,0.0,0.0,0.0,-0.09287073170204241,0.0,-0.23889947802504277,-0.18466266236978582,-0.3371707244761597,-0.1920560443744558,-0.8296239823500122,-0.05878842528371585
9319,7.0,299.48482,1936.1462,0.0,0.0,0.0,0.0,-0.09288069851162624,0.0,-0.16428805710646885,-0.15618874375712885,-0.26806329836578774,-0.1969526768077158,-0.7954423144665442,-0.05477264459963915
9320,7.0,300.07427,2121.8079,0.0,0.0,0.0,0.0,-0.09289066532121007,0.0,-0.18280134220108782,-0.1869130199143788,-0.27526224780876873,-0.18676171127694582,-0.8212827251417942,-0.07024831431221884
9321,7.0,300.35515,2522.0456,0.0,0.0,0.0,0.0,-0.09290063213079389,0.0,-0.2153904038423778,-0.1933717293643038,-0.35787676384718664,-0.17280653175717683,-0.7744806422277883,-0.030612445770213173
9322,7.0,300.00315,2369.8466,0.0,0.0,0.0,0.0,-0.0929105989403777,0.0,-0.19150079345215681,-0.22240117247678678,-0.3064722456664557,-0.18361905529678982,-0.7625470891750382,-0.05383040711964754
9323,7.0,299.95723,2176.0474,0.0,0.0,0.0,0.0,-0.09292056574996152,0.0,-0.1976501171165478,-0.19667447886025982,-0.26713947771961377,-0.17260084198687684,-0.7878458670093332,-0.07026344821571243
9324,7.0,300.562,2322.5664,0.0,0.0,0.0,0.0,-0.09293053255954535,0.0,-0.22303648028948678,-0.21425746864056577,-0.2687082320544377,-0.18581877060138483,-0.8034983215066103,-0.12340063926619488
9325,7.0,299.89842999999996,2233.6578,0.0,0.0,0.0,0.0,-0.09294049936912915,0.0,-0.2095758174810228,-0.2297352894831078,-0.23966507966810177,-0.1988969720271028,-0.8086448416795322,-0.1057851140251779
9326,7.0,299.48444,2167.9816,0.0,0.0,0.0,0.0,-0.09295046617871298,0.0,-0.18938162139801082,-0.17154057708223683,-0.29809007341919974,-0.18670507059635583,-0.8129006947495522,-0.08124818779532182
9327,7.0,299.43538,2172.0585,0.0,0.0,0.0,0.0,-0.0929604329882968,0.0,-0.14043419417977587,-0.18857857003125583,-0.3312387733557217,-0.2242173827510328,-0.8035468967164042,-0.05372493082398785
9328,7.0,299.50167000000005,1922.5797,0.0,0.0,0.0,0.0,-0.09297039979788062,0.0,-0.14973379346507484,-0.17562285027762584,-0.2590595681096887,-0.19303184475075982,-0.7974877928409173,-0.04677832321241105
9329,7.0,299.53357,2023.8719,0.0,0.0,0.0,0.0,-0.09298036660746443,0.0,-0.17315893000945584,-0.14464217118257086,-0.2974054405916317,-0.1831807840985358,-0.7838326873382633,-0.04508848853038736
9330,7.0,299.27125,2584.9324,0.0,0.0,0.0,0.0,-0.09299033341704827,0.0,-0.2679868486457428,-0.2281395928281248,-0.2896284724966047,-0.16221845324721484,-0.7642434623599572,-0.054100151521519244
9331,7.0,300.22696,2723.4304,0.0,0.0,0.0,0.0,-0.0930003002266321,0.0,-0.2738610647754827,-0.2164793437248478,-0.33751441891007966,-0.1926434558549288,-0.7820425581215913,-0.03902275901249646
9332,7.0,300.57878,2400.7164,0.0,0.0,0.0,0.0,-0.0930102670362159,0.0,-0.23416424620021178,-0.21477214902886083,-0.2808214343499177,-0.19975157755894582,-0.8020413083928143,-0.04843692446010225
9333,7.0,300.50377000000003,2248.44,0.0,0.0,0.0,0.0,-0.09302023384579973,0.0,-0.18563882751612582,-0.20438049918328483,-0.29345029988628973,-0.22228148737497477,-0.7834123810642822,-0.03693635141358406
9334,7.0,300.57914,2285.146,0.0,0.0,0.0,0.0,-0.09303020065538355,0.0,-0.2249732571931318,-0.1828777108611248,-0.28677636598262374,-0.2232671162772488,-0.7949443121748953,-0.03509696101680037
9335,7.0,300.35388,2317.0395,0.0,0.0,0.0,0.0,-0.09304016746496736,0.0,-0.1939474479386228,-0.2039663939999158,-0.3064083095851457,-0.23253768594718277,-0.7755045719838423,-0.057916655295178844
9336,7.0,299.10416000000004,2337.4748,0.0,0.0,0.0,0.0,-0.0930501342745512,0.0,-0.23119681155984878,-0.2052195918560968,-0.27411757917079876,-0.19256135219932582,-0.8276586419260482,-0.12384384499243588
9337,7.0,298.99789,2273.6418,0.0,0.0,0.0,0.0,-0.09306010108413501,0.0,-0.2223519082569248,-0.17018931688137784,-0.2985891193584517,-0.17686563192277885,-0.8118451009278732,-0.060413405879838934
9338,7.0,299.10535,1926.2207,0.0,0.0,0.0,0.0,-0.09307006789371883,0.0,-0.13200715521809187,-0.16493754028806784,-0.2885783096954617,-0.13082422625634588,-0.8247720443786632,-0.0907284272819486
9339,7.0,299.71008,2140.5105,0.0,0.0,0.0,0.0,-0.09308003470330264,0.0,-0.13889054818242985,-0.17972928948789982,-0.33204192604748667,-0.16985648448852983,-0.8241632938510842,-0.015015934837457386
9340,7.0,299.81777999999997,2563.7996,0.0,0.0,0.0,0.0,-0.09309000151288647,0.0,-0.21208504016116378,-0.22041433088570078,-0.34683169940962366,-0.19461475418948082,-0.8198845210638022,-0.04870538507409725
9341,7.0,299.86953,2471.8874,0.0,0.0,0.0,0.0,-0.0930999683224703,0.0,-0.2088153530159708,-0.2260695228738248,-0.3165071706818257,-0.2206040113044208,-0.7886087632746253,-0.037619339736239765
9342,7.0,299.61315,2287.1517,0.0,0.0,0.0,0.0,-0.09310993513205411,0.0,-0.23247829935882178,-0.2148222137163018,-0.24793649354692676,-0.19772433768637282,-0.7673873950352393,-0.08603575398781782
9343,7.0,300.00591000000003,2343.2723,0.0,0.0,0.0,0.0,-0.09311990194163794,0.0,-0.23761636902590977,-0.2101050076107498,-0.2645748809215077,-0.21684122599806283,-0.7675903490302692,-0.07071942393296372
9344,7.0,299.73277,2281.3155,0.0,0.0,0.0,0.0,-0.09312986875122176,0.0,-0.2002353639516918,-0.20345607058705079,-0.28977149274821973,-0.2007469843246848,-0.7926183155103372,-0.09536233612327981
9345,7.0,300.01977999999997,2072.6491,0.0,0.0,0.0,0.0,-0.09313983556080557,0.0,-0.17556184248910484,-0.16944285553270783,-0.2850288844626607,-0.2035101072148838,-0.8023927440574982,-0.06390754109443324
9346,7.0,299.87965,2002.7905,0.0,0.0,0.0,0.0,-0.0931498023703894,0.0,-0.19062361270808584,-0.14515224128291085,-0.2730224483302177,-0.15074959695532686,-0.7854216965425863,-0.07519639857230673
9347,7.0,299.04291,1991.6284,0.0,0.0,0.0,0.0,-0.09315976917997322,0.0,-0.14332447995752487,-0.15576975470827786,-0.3063110578405477,-0.18384375363896582,-0.7818965183846782,-0.07003846920325874
9348,7.0,299.31915,2178.5206,0.0,0.0,0.0,0.0,-0.09316973598955704,0.0,-0.21774041453430582,-0.18587137854657682,-0.2586040817922357,-0.18120759098629682,-0.8139802418035952,-0.07936475040344101
9349,7.0,299.31642,2561.2656,0.0,0.0,0.0,0.0,-0.09317970279914085,0.0,-0.23207702192171875,-0.1974407188508818,-0.34904305695786764,-0.2125490276469558,-0.8127417259413633,-0.060533541877945435
9350,7.0,299.3473,2478.4485,0.0,0.0,0.0,0.0,-0.09318966960872468,0.0,-0.2274646770690158,-0.17695358203145883,-0.3489681980404796,-0.18237844200685083,-0.8315907717216192,-0.028139098223112773
9351,7.0,300.53413,2110.7015,0.0,0.0,0.0,0.0,-0.09319963641830852,0.0,-0.17083596296269685,-0.16447168842209184,-0.30629291053125673,-0.18900588799592882,-0.8321594786052462,-0.01850802531334988
9352,7.0,300.01754,2273.3758,0.0,0.0,0.0,0.0,-0.09320960322789232,0.0,-0.19699839465222782,-0.1974135333506988,-0.2966375591358477,-0.19301038411364183,-0.8269929366103482,-0.04146477585325476
9353,7.0,300.15021,2574.1577,0.0,0.0,0.0,0.0,-0.09321957003747615,0.0,-0.24729691995130576,-0.2116992147880858,-0.3234835496078407,-0.20138366002501984,-0.7802763416072792,-0.054695304232756245
9354,7.0,301.26158,2311.4706,0.0,0.0,0.0,0.0,-0.09322953684705997,0.0,-0.23471767327233076,-0.19186477315307882,-0.27604690868620874,-0.16992926624321283,-0.7502668526005732,-0.08434551197925391
9355,7.0,300.56235,1764.3108,0.0,0.0,0.0,0.0,-0.09323950365664378,0.0,-0.13123354889924285,-0.16248429967595185,-0.24258857978412876,-0.18994151300576784,-0.7661472377078453,-0.1063640142048109
9356,7.0,300.06647999999996,1785.4854,0.0,0.0,0.0,0.0,-0.09324947046622761,0.0,-0.09652153882068422,-0.18335562040329081,-0.26286583197783775,-0.18730599883316282,-0.8075884676552761,-0.11866838639665789
9357,7.0,299.95354,2073.2785,0.0,0.0,0.0,0.0,-0.09325943727581143,0.0,-0.17580545821064783,-0.17240184979973783,-0.28201759635796975,-0.2140813455081838,-0.8300412286086912,-0.06302243673458024
9358,7.0,298.81919,2301.7576,0.0,0.0,0.0,0.0,-0.09326940408539525,0.0,-0.1978407499903618,-0.2008481472146688,-0.3009879281751957,-0.18818580389499281,-0.8283566496549362,-0.08782113410127111
9359,7.0,299.02125,2302.005,0.0,0.0,0.0,0.0,-0.09327937089497906,0.0,-0.2208045233667098,-0.18495178315331984,-0.2939957324151197,-0.16754723684812484,-0.8275652709293332,-0.03147990133982437
9360,7.0,298.98971,2301.2982,0.0,0.0,0.0,0.0,-0.0932893377045629,0.0,-0.2181017597849678,-0.19463454296393382,-0.2868008765025427,-0.15783869995496685,-0.8190417300281252,-0.06349369428983974
9361,7.0,298.9049,2621.8755,0.0,0.0,0.0,0.0,-0.09329930451414672,0.0,-0.23016797767331076,-0.2311157718168508,-0.3357009444111037,-0.17581956265203982,-0.8096036194541562,-0.033942720205135675
9362,7.0,299.6279,2788.292,0.0,0.0,0.0,0.0,-0.09330927132373053,0.0,-0.27373840071837674,-0.21018723285636481,-0.3636455107740177,-0.17900007365593182,-0.7903499930414712,-0.02139533010930468
9363,7.0,300.44499,2416.7132,0.0,0.0,0.0,0.0,-0.09331923813331436,0.0,-0.24185506777173676,-0.17707446276838884,-0.3156909267987687,-0.1939461813759978,-0.7939775297244812,-0.014223464841496688
9364,7.0,300.10201,1872.9039,0.0,0.0,0.0,0.0,-0.09332920494289818,0.0,-0.16496371253815084,-0.15874125248154183,-0.24561103390492178,-0.1985772004280438,-0.8067826095857442,-0.06636804670976623
9365,7.0,300.83499,2064.5269,0.0,0.0,0.0,0.0,-0.09333917175248199,0.0,-0.20245149390790682,-0.15664133217929585,-0.26847181040860474,-0.2030147799034988,-0.8241292385152232,-0.05968223447517794
9366,7.0,299.92066,2313.4499,0.0,0.0,0.0,0.0,-0.09334913856206582,0.0,-0.24534118513828973,-0.1771396552798228,-0.28075016233788375,-0.2144376549058488,-0.7949174509147443,-0.07147140648142863
9367,7.0,301.10303,2213.4773,0.0,0.0,0.0,0.0,-0.09335910537164964,0.0,-0.17677759062158982,-0.18839767449090283,-0.3076665534268247,-0.1996472735936518,-0.7966613556618543,-0.09673484823173621
9368,7.0,299.86773999999997,2026.9454,0.0,0.0,0.0,0.0,-0.09336907218123346,0.0,-0.15818235385888285,-0.1736689089172868,-0.2842895158646907,-0.2046717173945258,-0.7930586334737932,-0.06253525088774875
9369,7.0,299.8243,2219.6304,0.0,0.0,0.0,0.0,-0.09337903899081727,0.0,-0.1824412331155478,-0.20673129007778981,-0.28553970436807474,-0.19065897513657581,-0.8088298307502892,-0.052094939706120245
9370,7.0,299.32396,2580.4421,0.0,0.0,0.0,0.0,-0.0933890058004011,0.0,-0.24936451757536177,-0.2149016525241418,-0.32012378452875767,-0.18517471844032182,-0.7831723319830912,-0.029371799043020872
9371,7.0,298.88617,2685.8939,0.0,0.0,0.0,0.0,-0.09339897260998493,0.0,-0.27630543944922376,-0.23011770020334876,-0.3100215391767437,-0.18806278520035183,-0.7968315208836482,-0.03935546373583186
9372,7.0,298.88627,2386.5584,0.0,0.0,0.0,0.0,-0.09340893941956874,0.0,-0.23199613416623577,-0.22892209548285175,-0.26453593158766375,-0.2002390015195508,-0.8129434336387702,-0.05795877204883545
9373,7.0,299.89965,2047.5951,0.0,0.0,0.0,0.0,-0.09341890622915257,0.0,-0.15091087597374384,-0.19664292625214583,-0.27486397972446275,-0.20512059732132681,-0.8288393822675781,-0.06776377035151343
9374,7.0,300.05082000000004,2002.6056,0.0,0.0,0.0,0.0,-0.09342887303873638,0.0,-0.16433174845078083,-0.1971121522409548,-0.24729818651393073,-0.17973034326800383,-0.7936684073839733,-0.09251143537691782
9375,7.0,300.14566,2303.7836,0.0,0.0,0.0,0.0,-0.0934388398483202,0.0,-0.20473082027285883,-0.19767938991193681,-0.2978824888712127,-0.19728470873298481,-0.8001630669474462,-0.059110676305769536
9376,7.0,299.48062999999996,2172.0349,0.0,0.0,0.0,0.0,-0.09344880665790403,0.0,-0.1959168920254918,-0.17653254621740583,-0.2877949255131477,-0.19101550744926282,-0.7982933165379162,-0.1043988460333639
9377,7.0,299.95807,1994.7174,0.0,0.0,0.0,0.0,-0.09345877346748785,0.0,-0.18503303567883883,-0.19273362498132782,-0.2285776107138538,-0.19548996922835782,-0.8374745022697982,-0.06772660433784543
9378,7.0,299.89239,2321.6191,0.0,0.0,0.0,0.0,-0.09346874027707167,0.0,-0.1940516100489028,-0.18530187119537084,-0.3263607644592997,-0.15559927537895285,-0.8001615572047972,-0.06825076874707643
9379,7.0,300.30331,2836.1415,0.0,0.0,0.0,0.0,-0.09347870708665548,0.0,-0.25802180748976977,-0.24826350988420073,-0.35583089030527465,-0.18287158069801984,-0.7875689660220052,-0.03120751032869147
9380,7.0,299.96704,2767.2083,0.0,0.0,0.0,0.0,-0.09348867389623931,0.0,-0.24017054961298778,-0.24652586702270876,-0.35446581950555267,-0.2169089212372438,-0.7965762021234501,-0.04366976512462026
9381,7.0,300.41515,2397.3834,0.0,0.0,0.0,0.0,-0.09349864070582314,0.0,-0.2377232162489548,-0.17951171429392684,-0.3115097502611187,-0.22862317657085077,-0.8040356581671413,-0.007509199024225242
9382,7.0,300.67101,2307.1020000000003,0.0,0.0,0.0,0.0,-0.09350860751540695,0.0,-0.2268199156328828,-0.1997342813797388,-0.2747472229154398,-0.2097201245602648,-0.7775005936208342,-0.024836259561147978
9383,7.0,302.20861,2310.2572,0.0,0.0,0.0,0.0,-0.09351857432499078,0.0,-0.24962135621070974,-0.17236154271075985,-0.28027759262374474,-0.15765104603644686,-0.7838394963789352,-0.05292720813950875
9384,7.0,300.58044,2408.8211,0.0,0.0,0.0,0.0,-0.0935285411345746,0.0,-0.2030092171604498,-0.2047331203505858,-0.3244791184935957,-0.19407555314876582,-0.8172017083765293,-0.06499671098467594
9385,7.0,300.86782,2283.3133,0.0,0.0,0.0,0.0,-0.09353850794415841,0.0,-0.18746400505375682,-0.19569301441589682,-0.3109132195297457,-0.16681177939554084,-0.8389607780464823,-0.1112932226287859
9386,7.0,300.06505,1977.9383,0.0,0.0,0.0,0.0,-0.09354847475374224,0.0,-0.14873102037110886,-0.15385690063949384,-0.29865593307004573,-0.16753271697419184,-0.7858152327489253,-0.06348359117309264
9387,7.0,298.93032,2126.6071,0.0,0.0,0.0,0.0,-0.09355844156332606,0.0,-0.16565147630852783,-0.2064221677372818,-0.27436181297490275,-0.17462241779139084,-0.7850215235480923,-0.1022430855181069
9388,7.0,299.56883999999997,2562.8012,0.0,0.0,0.0,0.0,-0.09356840837290989,0.0,-0.2511296701770688,-0.1977929347181428,-0.33010496675882367,-0.22448452613989778,-0.7971915691741822,-0.02813659650861587
9389,7.0,299.52657,2415.6817,0.0,0.0,0.0,0.0,-0.09357837518249369,0.0,-0.22547930469057478,-0.1932590356881818,-0.3155685667166927,-0.23513582132359878,-0.8076920420804983,-0.05909881317359874
9390,7.0,300.06529,2071.5555,0.0,0.0,0.0,0.0,-0.09358834199207752,0.0,-0.14160268432759687,-0.1915448090365008,-0.2965536620275677,-0.2048587734954868,-0.7975939510538943,-0.027041586244796776
9391,7.0,300.46929,2292.6204,0.0,0.0,0.0,0.0,-0.09359830880166135,0.0,-0.18667778377116281,-0.18594166770601384,-0.3242798932589337,-0.16997319063504784,-0.7759598151212712,-0.05226177437483555
9392,7.0,300.44437,2605.9358,0.0,0.0,0.0,0.0,-0.09360827561124516,0.0,-0.2123649505012888,-0.22821739017080278,-0.3515570621784807,-0.17585261487030182,-0.7867648102126412,-0.04442151057256176
9393,7.0,300.9226,2544.5642,0.0,0.0,0.0,0.0,-0.09361824242082899,0.0,-0.2546208031316168,-0.22370143580011279,-0.29516174010019575,-0.18766941111402882,-0.8036130416829322,-0.06583276492043803
9394,7.0,300.33761,2264.9754,0.0,0.0,0.0,0.0,-0.0936282092304128,0.0,-0.23508970831154777,-0.18260012086372884,-0.27080613598898473,-0.1923680240802458,-0.7851780402910393,-0.06756798206119063
9395,7.0,299.13537,2029.6674,0.0,0.0,0.0,0.0,-0.09363817603999662,0.0,-0.2119180666771848,-0.17344921603060484,-0.23160091596473079,-0.16858836145837586,-0.7873358678365002,-0.10016925437943572
9396,7.0,299.15131,2105.7014,0.0,0.0,0.0,0.0,-0.09364814284958045,0.0,-0.15770992599975783,-0.17063975721333283,-0.31173096302295067,-0.18518142615598382,-0.8185362094207342,-0.09194101711387191
9397,7.0,298.93867,2230.2082,0.0,0.0,0.0,0.0,-0.09365810965916427,0.0,-0.1962413448400128,-0.16520508897697284,-0.3164811706842597,-0.2131427618080528,-0.8440163184929252,-0.037694302005137965
9398,7.0,299.65724,2384.6615,0.0,0.0,0.0,0.0,-0.0936680764687481,0.0,-0.2125880073783028,-0.19644030662964881,-0.3158492471268937,-0.2207504158113698,-0.8021758578735932,-0.045920826878032756
9399,7.0,300.50714,2103.55,0.0,0.0,0.0,0.0,-0.0936780432783319,0.0,-0.21237518432729877,-0.16056940897446684,-0.26648208105473375,-0.2077108698769668,-0.7990468909022882,-0.029053159244323574
9400,7.0,300.65382999999997,2065.1714,0.0,0.0,0.0,0.0,-0.09368801008791573,0.0,-0.2198381056863318,-0.17768164275831283,-0.23024079995799776,-0.2000688362977568,-0.8047020727579112,-0.04570423251015655
9401,7.0,300.91287,2614.2104,0.0,0.0,0.0,0.0,-0.09369797689749956,0.0,-0.2559709791548687,-0.2122841944683188,-0.32639951114312366,-0.18172734775759283,-0.8354431384693182,-0.05546685061415195
9402,7.0,301.20318,2663.9656,0.0,0.0,0.0,0.0,-0.09370794370708337,0.0,-0.24165503193699478,-0.22015773543037678,-0.3479662659440967,-0.15470527468322187,-0.8057925730455352,-0.06585314543294943
9403,7.0,300.10887,2134.0961,0.0,0.0,0.0,0.0,-0.0937179105166672,0.0,-0.16418425976622483,-0.2231985395104808,-0.26132913687617776,-0.15616085911437685,-0.7993845666306142,-0.1041481375611209
9404,7.0,300.31485,1978.9568,0.0,0.0,0.0,0.0,-0.09372787732625101,0.0,-0.16866783066371885,-0.15861340058392384,-0.2742722315335618,-0.1977625473476438,-0.8196812326962392,-0.07970698474396692
9405,7.0,299.91331,2051.6628,0.0,0.0,0.0,0.0,-0.09373784413583483,0.0,-0.18080892773445184,-0.1951419786140138,-0.24770335483141775,-0.2088159001710248,-0.8393443844018411,-0.0988295837332205
9406,7.0,299.58827,2046.7894,0.0,0.0,0.0,0.0,-0.09374781094541866,0.0,-0.2257870084809428,-0.15192489614381985,-0.24446096464391878,-0.2182814394252008,-0.7989294146856942,-0.04090639297489666
9407,7.0,300.01988,2277.0699,0.0,0.0,0.0,0.0,-0.09375777775500248,0.0,-0.17940102685300283,-0.2052517220167678,-0.3075196321623247,-0.18263180519435582,-0.7875173915919153,-0.1026326903140579
9408,7.0,299.35318,2086.1054,0.0,0.0,0.0,0.0,-0.09376774456458631,0.0,-0.16219752963264986,-0.18107463230817483,-0.2908517997398377,-0.19989585424068482,-0.8210357048999153,-0.06912958285030864
9409,7.0,299.80519,2330.081,0.0,0.0,0.0,0.0,-0.09377771137417011,0.0,-0.1930411666516798,-0.19516427011621382,-0.3200810051095357,-0.1877563885026128,-0.8339530123422543,-0.07542892933775573
9410,7.0,299.95292,2852.6505,0.0,0.0,0.0,0.0,-0.09378767818375394,0.0,-0.28027544453353276,-0.22407239679422378,-0.3627866698567566,-0.17778632162614383,-0.8250605774771392,-0.028708233711532073
9411,7.0,299.11557999999997,2712.0693,0.0,0.0,0.0,0.0,-0.09379764499333777,0.0,-0.2708330681766427,-0.24021004610188576,-0.3133582325510497,-0.15617311944058684,-0.8064849876338712,-0.055070633348048355
9412,7.0,298.91382000000004,2085.8554,0.0,0.0,0.0,0.0,-0.09380761180292158,0.0,-0.1939115687525818,-0.16298098474247086,-0.27715538403060674,-0.1993215136865018,-0.8209579683522432,-0.05783390113301164
9413,7.0,299.95867999999996,1957.3658,0.0,0.0,0.0,0.0,-0.0938175786125054,0.0,-0.15599988407098986,-0.17227717950743385,-0.26671328446255177,-0.18222537031424385,-0.8286223542286593,-0.07107045936385824
9414,7.0,299.3513,2207.4224,0.0,0.0,0.0,0.0,-0.09382754542208922,0.0,-0.1974155801159008,-0.16308388029012585,-0.3105018399891457,-0.18423288220736983,-0.7996000139993772,-0.08258105142736522
9415,7.0,299.58616,2207.6659,0.0,0.0,0.0,0.0,-0.09383751223167304,0.0,-0.20054841770258783,-0.15770150589142687,-0.3128253845884617,-0.15871105762856183,-0.7950948203447493,-0.07062011123766235
9416,7.0,300.13306,2120.594,0.0,0.0,0.0,0.0,-0.09384747904125687,0.0,-0.15665623708826687,-0.1926814426011778,-0.2952699349458737,-0.1940700309357208,-0.8200660346867162,-0.07918958073940313
9417,7.0,300.36599,2099.8458,0.0,0.0,0.0,0.0,-0.09385744585084069,0.0,-0.20914760785626182,-0.14763643668558185,-0.2815166353760287,-0.1944746318331518,-0.8134224273585432,-0.038764024586211365
9418,7.0,300.59857999999997,2433.3245,0.0,0.0,0.0,0.0,-0.09386741266042452,0.0,-0.23640056009841875,-0.18772843293235383,-0.3155408948564617,-0.2073174349956378,-0.8011100504909062,-0.02947429739663667
9419,7.0,300.81596,2701.368,0.0,0.0,0.0,0.0,-0.09387737947000832,0.0,-0.23455233112101276,-0.23302585971286177,-0.35357021787466364,-0.18143648418388683,-0.7920653849307673,-0.06051560025842474
9420,7.0,299.92447999999996,2605.2955,0.0,0.0,0.0,0.0,-0.09388734627959215,0.0,-0.2205370557378128,-0.22287693392874078,-0.34853078810481064,-0.2299299145623158,-0.8233358738194242,-0.034862411857152165
9421,7.0,300.32115,2211.5412,0.0,0.0,0.0,0.0,-0.09389731308917598,0.0,-0.1769316046367898,-0.21983448838347477,-0.27548720959597073,-0.2193063722988538,-0.8234591559590912,-0.08552098848651442
9422,7.0,299.66168,2092.0217,0.0,0.0,0.0,0.0,-0.09390727989875979,0.0,-0.2057883291372268,-0.13558019931072388,-0.2945538204376987,-0.2124384313985408,-0.8054255637268142,-0.03916333631812036
9423,7.0,299.89366,2189.2337,0.0,0.0,0.0,0.0,-0.09391724670834362,0.0,-0.2137456962800578,-0.17749846740523484,-0.2742282260817187,-0.16794632566501183,-0.7781946699393343,-0.10355913527799089
9424,7.0,298.6591,2043.4341,0.0,0.0,0.0,0.0,-0.09392721351792743,0.0,-0.16556149969964784,-0.16057024997204983,-0.2950212023113257,-0.16306771895103084,-0.7835640342067492,-0.05604894151834985
9425,7.0,299.52206,1969.3512,0.0,0.0,0.0,0.0,-0.09393718032751125,0.0,-0.1271117285524509,-0.15902616827716085,-0.3124956932709237,-0.17330882009674883,-0.8054601054227232,-0.08856809092924
9426,7.0,299.54437,2053.0369,0.0,0.0,0.0,0.0,-0.09394714713709507,0.0,-0.16717035847342981,-0.17374366650966483,-0.28315793841801273,-0.1929036584806088,-0.8062606337967293,-0.06802402870594894
9427,7.0,299.94735,2392.8248,0.0,0.0,0.0,0.0,-0.0939571139466789,0.0,-0.20799274592228578,-0.18623961389791882,-0.33312663054453867,-0.2146094818578068,-0.8001699266506233,-0.08618827852537082
9428,7.0,300.91252000000003,2649.6806,0.0,0.0,0.0,0.0,-0.0939670807562627,0.0,-0.2523507581375808,-0.24246293677172878,-0.3106230449661077,-0.19648526453658582,-0.8122490432127393,-0.06678921525958234
9429,7.0,301.51664,2581.2378,0.0,0.0,0.0,0.0,-0.09397704756584653,0.0,-0.26329832765052175,-0.2198561415381118,-0.3014773685034997,-0.22461322916759982,-0.8131672403208582,-0.015662739999042087
9430,7.0,300.14243999999997,2456.9011,0.0,0.0,0.0,0.0,-0.09398701437543035,0.0,-0.20787383089054978,-0.1895358076657278,-0.34942692675825265,-0.20126374187568483,-0.7941229716438353,-0.02830744263447707
9431,7.0,299.71684,2313.0848,0.0,0.0,0.0,0.0,-0.09399698118501418,0.0,-0.2032883472979978,-0.1930963077221218,-0.30673537658492467,-0.20950754468928479,-0.7983935776353113,-0.014080620895399087
9432,7.0,299.65153,2415.9955,0.0,0.0,0.0,0.0,-0.094006947994598,0.0,-0.2239532892449688,-0.19960013719899983,-0.31084886801589473,-0.1936277067370668,-0.8075005682091012,-0.08614804337714992
9433,7.0,299.53321,2310.1746,0.0,0.0,0.0,0.0,-0.09401691480418181,0.0,-0.2322391824677228,-0.17625752987526383,-0.2937386708647497,-0.18176304455861583,-0.8101870589942372,-0.060316219996497444
9434,7.0,298.41731,2052.4571,0.0,0.0,0.0,0.0,-0.09402688161376564,0.0,-0.2256080482482808,-0.1828234817157728,-0.21546418871465978,-0.15762624167399883,-0.7965650462398493,-0.1110725468895069
9435,7.0,298.71812,2126.241,0.0,0.0,0.0,0.0,-0.09403684842334945,0.0,-0.23121627609426978,-0.14590283669198886,-0.26920507924097276,-0.19131002885582982,-0.7839475696346013,-0.042997205171993756
9436,7.0,299.25011,2295.6639,0.0,0.0,0.0,0.0,-0.09404681523293328,0.0,-0.17117522949367983,-0.2150294841567578,-0.31161976895697674,-0.2055362527773488,-0.8368260627358022,-0.08733432113047641
9437,7.0,300.72157999999996,2314.1276,0.0,0.0,0.0,0.0,-0.09405678204251709,0.0,-0.15625677336884283,-0.2041524368507768,-0.34302779641420766,-0.2263146787355198,-0.8416356569854723,-0.014085119725843087
9438,7.0,300.70369,2474.2068,0.0,0.0,0.0,0.0,-0.09406674885210091,0.0,-0.1930281869178988,-0.2232552207210748,-0.3358136684847287,-0.2066641014636588,-0.8390536322856463,-0.04131421904739596
9439,7.0,300.00301,2571.6668,0.0,0.0,0.0,0.0,-0.09407671566168473,0.0,-0.19702777890512782,-0.2569163617631708,-0.3277783520117047,-0.2032732397390068,-0.8023471376704973,-0.07641311334538713
9440,7.0,299.53697999999997,2399.0161,0.0,0.0,0.0,0.0,-0.09408668247126856,0.0,-0.2868715000345127,-0.19169319951364583,-0.2506763015523248,-0.19424287113777883,-0.7994550077775663,-0.06710213424821503
9441,7.0,300.41135,2305.7431,0.0,0.0,0.0,0.0,-0.09409664928085239,0.0,-0.22276849590303877,-0.19456224756929882,-0.2835575845224547,-0.19592775406656382,-0.7876916402116122,-0.08148368029081313
9442,7.0,300.51797999999997,2106.1704,0.0,0.0,0.0,0.0,-0.09410661609043619,0.0,-0.18099496045281183,-0.19555412822468982,-0.26367412184760974,-0.1966083237612308,-0.7948810245736492,-0.06394555722493514
9443,7.0,300.61997,2149.1755,0.0,0.0,0.0,0.0,-0.09411658290002002,0.0,-0.16133484849750984,-0.16192432700818685,-0.3300365014495667,-0.1859823598300298,-0.8030391266937913,-0.042601648544955364
9444,7.0,299.18994,2066.6108,0.0,0.0,0.0,0.0,-0.09412654970960382,0.0,-0.15541133775040486,-0.2055424032054558,-0.26724433897246275,-0.2024058165933988,-0.8284891726355151,-0.09005255096174482
9445,7.0,299.04635,2224.5117,0.0,0.0,0.0,0.0,-0.09413651651918765,0.0,-0.1954062747700978,-0.18722458418762783,-0.2935651619176257,-0.20326106047280482,-0.8185738212644462,-0.05567230936342915
9446,7.0,299.93405,2516.3563,0.0,0.0,0.0,0.0,-0.09414648332877149,0.0,-0.2949648352082627,-0.19347923519991383,-0.27646541137501174,-0.17513174821915783,-0.8058260508288392,-0.07032612888014853
9447,7.0,299.40446000000003,2559.6244,0.0,0.0,0.0,0.0,-0.0941564501383553,0.0,-0.27424862280623175,-0.2202477728342628,-0.28356549800573577,-0.17233410389805184,-0.7978476587464333,-0.035154449787724064
9448,7.0,298.88499,2550.9568,0.0,0.0,0.0,0.0,-0.09416641694793912,0.0,-0.2103815134305388,-0.21642768823474978,-0.34861795801091366,-0.19199381055331383,-0.8414387723585411,-0.06578723756694484
9449,7.0,299.91769,2419.2859,0.0,0.0,0.0,0.0,-0.09417638375752294,0.0,-0.2089775743569808,-0.17678888836020484,-0.34963604131389064,-0.2108226521265758,-0.8443164127750422,0.014146976617947886
9450,7.0,299.56397000000004,2319.8388,0.0,0.0,0.0,0.0,-0.09418635056710678,0.0,-0.13942350760252886,-0.22441900938843176,-0.3413305619667037,-0.18912859258303882,-0.8232251661134983,-0.08572404988605502
9451,7.0,300.37326,2366.8533,0.0,0.0,0.0,0.0,-0.0941963173766906,0.0,-0.23153281542550977,-0.17840100979930884,-0.30953046751577873,-0.17826619687350384,-0.8008303225357992,-0.02160871754061438
9452,7.0,300.46047000000004,2126.1037,0.0,0.0,0.0,0.0,-0.0942062841862744,0.0,-0.2339412805157068,-0.2036581126569908,-0.20868304281791278,-0.18483153063145183,-0.8161133663116182,-0.11912111667383889
9453,7.0,300.6057,1855.2858,0.0,0.0,0.0,0.0,-0.09421625099585823,0.0,-0.17415650513040884,-0.15907669905964786,-0.23072736265601776,-0.2118449404174678,-0.8068401520589232,-0.06794651102029853
9454,7.0,300.11441,1899.4242,0.0,0.0,0.0,0.0,-0.09422621780544203,0.0,-0.16159542602572685,-0.16616414032912383,-0.2496179516903738,-0.18707369098273582,-0.7936702312341533,-0.1025356513519809
9455,7.0,300.53582,2225.1775,0.0,0.0,0.0,0.0,-0.09423618461502586,0.0,-0.17460055185423282,-0.2071870803702728,-0.29461075496081773,-0.18229891200650183,-0.7996194076062912,-0.06840286771958744
9456,7.0,300.11762999999996,2469.1678,0.0,0.0,0.0,0.0,-0.0942461514246097,0.0,-0.18736642906912684,-0.21693944033025578,-0.34625948668065065,-0.16585828065393785,-0.8181555414906653,-0.07270922320109163
9457,7.0,299.70015,2474.4907,0.0,0.0,0.0,0.0,-0.09425611823419351,0.0,-0.2139600189412098,-0.2253654559093388,-0.3128579301816737,-0.1946667237871098,-0.8126022318000962,-0.059266722900670143
9458,7.0,298.52294,2358.2484,0.0,0.0,0.0,0.0,-0.09426608504377733,0.0,-0.24297113235938378,-0.20086348782118282,-0.27301399782438374,-0.18727431450253582,-0.8080776850685581,-0.04968596596437305
9459,7.0,300.66901,2452.687,0.0,0.0,0.0,0.0,-0.09427605185336115,0.0,-0.23728020304023276,-0.17464700937131786,-0.3336283919940587,-0.18438784867766383,-0.8005464402552822,-0.07302971015472123
9460,7.0,298.79315,2164.2318,0.0,0.0,0.0,0.0,-0.09428601866294498,0.0,-0.1984862308340658,-0.16752062890049885,-0.2918655665973887,-0.1847009328260628,-0.8317171240090891,-0.04505713451929296
9461,7.0,299.62861000000004,2021.1115,0.0,0.0,0.0,0.0,-0.0942959854725288,0.0,-0.16202481102060384,-0.13732512744043487,-0.3150174903848057,-0.19178535461024082,-0.8285012708417091,-0.05187636038129815
9462,7.0,300.84996,2047.5138,0.0,0.0,0.0,0.0,-0.09430595228211261,0.0,-0.13321625642992085,-0.16469538364666883,-0.3244814388363247,-0.17117628327378384,-0.7962299239017753,-0.05775506115598074
9463,7.0,299.76992,2179.0558,0.0,0.0,0.0,0.0,-0.09431591909169644,0.0,-0.21611651912903979,-0.2021869039092938,-0.24407511900583878,-0.18966305161328584,-0.7873307711884973,-0.08374282474027332
9464,7.0,299.81472,2543.5718,0.0,0.0,0.0,0.0,-0.09432588590128024,0.0,-0.26200204640008873,-0.20758506474455082,-0.3035951929350127,-0.16544425653057684,-0.8123437618320872,-0.08739556500627073
9465,7.0,301.00674,2603.1146,0.0,0.0,0.0,0.0,-0.09433585271086407,0.0,-0.2632997765981647,-0.22824595369112177,-0.2997361083391507,-0.20403381566156983,-0.8054255941243172,-0.05374185311390795
9466,7.0,300.22923,2286.8374,0.0,0.0,0.0,0.0,-0.0943458195204479,0.0,-0.19581944776337482,-0.2101380902265148,-0.28918391914773073,-0.17853215475975184,-0.7799516456127343,-0.07339327847610264
9467,7.0,300.28233,2422.7578,0.0,0.0,0.0,0.0,-0.09435578633003172,0.0,-0.20042235925764681,-0.19053026197637282,-0.3455052638362147,-0.23178121368752477,-0.8019437324081843,-0.016302763477707483
9468,7.0,299.57825,2638.4584,0.0,0.0,0.0,0.0,-0.09436575313961554,0.0,-0.21137408309599778,-0.2364309373364168,-0.3542204609938377,-0.21494062212298778,-0.8139008029957553,-0.07758451557399552
9469,7.0,298.41675,2302.123,0.0,0.0,0.0,0.0,-0.09437571994919935,0.0,-0.24648381714355877,-0.14412845338187089,-0.30917563746325966,-0.2130212325910588,-0.8357695569890331,-0.014164647699691885
9470,7.0,299.29357999999996,2136.3134,0.0,0.0,0.0,0.0,-0.09438568675878319,0.0,-0.18719938465764083,-0.17838891159311485,-0.28379762347114473,-0.18203589254554384,-0.8048226799173143,-0.07556192347963123
9471,7.0,299.48152999999996,2234.4568,0.0,0.0,0.0,0.0,-0.09439565356836702,0.0,-0.18964619113162182,-0.1999518565737118,-0.28962101497586873,-0.19031750985287582,-0.8155155588851192,-0.07823620358781212
9472,7.0,300.0671,2266.2896,0.0,0.0,0.0,0.0,-0.09440562037795082,0.0,-0.1836919890389878,-0.1925746865706418,-0.3126287634065567,-0.1923926257926738,-0.8412488690247991,-0.08144597320159172
9473,7.0,300.5475,2357.646,0.0,0.0,0.0,0.0,-0.09441558718753465,0.0,-0.18198191671271682,-0.2219019340200158,-0.3127816527141457,-0.19035721912429482,-0.8180653318342622,-0.09400976376354132
9474,7.0,300.12811,2267.0838,0.0,0.0,0.0,0.0,-0.09442555399711847,0.0,-0.19504318672926382,-0.1968025536728998,-0.2972911358478507,-0.1922951308680518,-0.8016807636097313,-0.06662964964708443
9475,7.0,300.49717999999996,2171.1779,0.0,0.0,0.0,0.0,-0.09443552080670228,0.0,-0.2239856625856638,-0.19350956177540682,-0.2424886631917678,-0.19317593904748082,-0.7854664619320042,-0.08002897434749483
9476,7.0,300.40556000000004,2319.0346,0.0,0.0,0.0,0.0,-0.09444548761628611,0.0,-0.2086215385368428,-0.22783580018314278,-0.26847127338605176,-0.21600523387055678,-0.8131442192785862,-0.07103013707612874
9477,7.0,299.05525,2483.846,0.0,0.0,0.0,0.0,-0.09445545442586993,0.0,-0.24888256516529678,-0.18235522844705984,-0.32378936875302267,-0.18970916462533682,-0.8055773992542993,-0.05875408725107695
9478,7.0,299.77494,2405.518,0.0,0.0,0.0,0.0,-0.09446542123545375,0.0,-0.2045919847441568,-0.18386030001309883,-0.3427651113257827,-0.1969015887376738,-0.7852257441057473,-0.02886083626934277
9479,7.0,299.52724,2296.5181,0.0,0.0,0.0,0.0,-0.09447538804503756,0.0,-0.17464466876358684,-0.1985960975424088,-0.3248433717720447,-0.17632723134964284,-0.7917065424078522,-0.06360648827772164
9480,7.0,299.79775,2330.0847,0.0,0.0,0.0,0.0,-0.0944853548546214,0.0,-0.20859449489167378,-0.18454799285596882,-0.3151450991023997,-0.20324969180668281,-0.8323325822523302,-0.04180025485536396
9481,7.0,299.7794,2626.0418,0.0,0.0,0.0,0.0,-0.09449532166420523,0.0,-0.2647552090418047,-0.23311341465400276,-0.3003825213729467,-0.1975485489265238,-0.8296228779074032,-0.06248432696422294
9482,7.0,301.01973,2585.5082,0.0,0.0,0.0,0.0,-0.09450528847378903,0.0,-0.24867190033700579,-0.22077865509165678,-0.31647938736408365,-0.16477892611741385,-0.8098814931615802,-0.07462449589786434
9483,7.0,299.33842000000004,2268.6869,0.0,0.0,0.0,0.0,-0.09451525528337286,0.0,-0.1984555800185408,-0.2156171388172548,-0.2755514395198097,-0.18470016275598683,-0.8297630002637322,-0.06843379413913964
9484,7.0,298.66592,2286.4213,0.0,0.0,0.0,0.0,-0.09452522209295668,0.0,-0.16913479710480483,-0.22512776770088078,-0.3007524083219517,-0.20931230152751581,-0.8374839964232351,-0.07936513949147943
9485,7.0,298.87581,2349.6269,0.0,0.0,0.0,0.0,-0.09453518890254049,0.0,-0.18480551036888382,-0.20509864019165983,-0.3243237568557627,-0.2078070273114568,-0.8287242973212202,-0.054426632862740444
9486,7.0,299.48854,2260.006,0.0,0.0,0.0,0.0,-0.09454515571212432,0.0,-0.21059798418190281,-0.2013451362562178,-0.2750422813445597,-0.16952537462085185,-0.7739068184311563,-0.05162484130897515
9487,7.0,300.44181000000003,2382.4133,0.0,0.0,0.0,0.0,-0.09455512252170814,0.0,-0.24079086132420777,-0.2069520570095778,-0.2764512461386137,-0.16223600273894684,-0.7794680416050063,-0.05697423036391874
9488,7.0,300.78871000000004,2414.0206,0.0,0.0,0.0,0.0,-0.09456508933129196,0.0,-0.19592781486156982,-0.22438485272756079,-0.3134893065839857,-0.18187447167211282,-0.8280429879539802,-0.05926865820836115
9489,7.0,300.50786,2249.1236,0.0,0.0,0.0,0.0,-0.09457505614087577,0.0,-0.1948696068546328,-0.19422660847367382,-0.2945811883228997,-0.19815444208882083,-0.8248941410157132,-0.053818095117682443
9490,7.0,299.86154,2405.4805,0.0,0.0,0.0,0.0,-0.0945850229504596,0.0,-0.17325749897918383,-0.2007193428619568,-0.35722915517827264,-0.2070856135052588,-0.7968010017906362,-0.03258655283404237
9491,7.0,300.50526,2447.1158,0.0,0.0,0.0,0.0,-0.09459498976004344,0.0,-0.20701613494590182,-0.21855871531506582,-0.31828724845750567,-0.18453317913950684,-0.8068987989747112,-0.07263176124419672
9492,7.0,298.95502,2179.5607,0.0,0.0,0.0,0.0,-0.09460495656962724,0.0,-0.20998588992899378,-0.1851532882007068,-0.26739285103961974,-0.22793577757050978,-0.8162612298987112,-0.05919328962617285
9493,7.0,299.61793,2191.089,0.0,0.0,0.0,0.0,-0.09461492337921107,0.0,-0.21004391876222078,-0.2003914753945988,-0.2556009402183487,-0.17596832803172183,-0.8207408389883143,-0.08337638486810853
9494,7.0,299.4595,2239.7985,0.0,0.0,0.0,0.0,-0.09462489018879489,0.0,-0.21800029291995376,-0.18186168445585082,-0.28098083885564973,-0.17331661199001783,-0.7836261667028812,-0.058742828015965746
9495,7.0,299.95763,2202.2535,0.0,0.0,0.0,0.0,-0.0946348569983787,0.0,-0.2013588556625718,-0.18864631593294182,-0.27942490213459076,-0.16233527085124383,-0.8018359631275482,-0.07654360982576613
9496,7.0,300.01545,2310.8896,0.0,0.0,0.0,0.0,-0.09464482380796253,0.0,-0.18180827604307984,-0.2046579270606648,-0.3159865425154437,-0.17564159540447583,-0.8359529248596302,-0.053658852731966446
9497,7.0,299.75917000000004,2493.3089,0.0,0.0,0.0,0.0,-0.09465479061754635,0.0,-0.24276296012633874,-0.19474537225987182,-0.3203953254230567,-0.18592219303909183,-0.8130667360434393,-0.04674432968480616
9498,7.0,299.99413,2366.8464,0.0,0.0,0.0,0.0,-0.09466475742713017,0.0,-0.24079401253201876,-0.1854425913692588,-0.2932256015441137,-0.18686444470458483,-0.7660017451259862,-0.05189768220315245
9499,7.0,300.51917000000003,2441.4817,0.0,0.0,0.0,0.0,-0.09467472423671398,0.0,-0.2120539333830938,-0.2245729727411268,-0.3055225567452287,-0.19819805237312482,-0.8065042900482762,-0.06370570167451324
9500,7.0,300.52644,2536.8652,0.0,0.0,0.0,0.0,-0.09468469104629781,0.0,-0.21469777647152077,-0.2030879568257208,-0.3533579521112147,-0.2052500602866038,-0.8234185246300812,-0.06465686994088624
9501,7.0,300.16488,2221.0966,0.0,0.0,0.0,0.0,-0.09469465785588164,0.0,-0.18426694767573182,-0.18413430310514084,-0.30675664470452374,-0.20074950731743382,-0.8295570571809072,-0.061561275374874845
9502,7.0,301.40997000000004,2088.0512,0.0,0.0,0.0,0.0,-0.09470462466546545,0.0,-0.14350539576287985,-0.17518345437176083,-0.3160265658943937,-0.1995823546597448,-0.8124912403841422,-0.04804664787933495
9503,7.0,299.79941,2028.8981,0.0,0.0,0.0,0.0,-0.09471459147504928,0.0,-0.2074804264067238,-0.14108821672182287,-0.26816569742089374,-0.1903698036905368,-0.8254841869464462,-0.07775251953332622
9504,7.0,300.00158,2150.2357,0.0,0.0,0.0,0.0,-0.0947245582846331,0.0,-0.2012820209074888,-0.17995413981759084,-0.27238179055698974,-0.2084324255381788,-0.8271174042526321,-0.061970233247735845
9505,7.0,300.69802999999996,2229.0429,0.0,0.0,0.0,0.0,-0.09473452509421691,0.0,-0.21574615595248778,-0.18687477985560483,-0.27495244659069373,-0.16185993496433185,-0.8036149668581222,-0.09491431847231391
9506,7.0,299.08582,2368.7476,0.0,0.0,0.0,0.0,-0.09474449190380074,0.0,-0.2103527269951978,-0.21135893500700279,-0.29832847090272774,-0.18820187404157881,-0.7802328833104902,-0.04655078169045446
9507,7.0,298.8059,2433.9721,0.0,0.0,0.0,0.0,-0.09475445871338456,0.0,-0.21807454388728179,-0.2217225482223118,-0.3000696398745677,-0.2026579436157818,-0.8047948459370672,-0.09491913951628972
9508,7.0,300.045,2502.6491,0.0,0.0,0.0,0.0,-0.09476442552296838,0.0,-0.2010914184311778,-0.19723829174590382,-0.36241312507489065,-0.2259050014550878,-0.8330492641805612,-0.025576100333664576
9509,7.0,299.94271000000003,2366.373,0.0,0.0,0.0,0.0,-0.0947743923325522,0.0,-0.2290267642181818,-0.1898383844105898,-0.3004531550374177,-0.18418610045025283,-0.8333618923664153,-0.062434772954832345
9510,7.0,300.0632,2274.2066,0.0,0.0,0.0,0.0,-0.09478435914213602,0.0,-0.2197381384314658,-0.1751461059730748,-0.29641777505665673,-0.18698436285391984,-0.8114975257460703,-0.030818783007327072
9511,7.0,300.41069,2221.7659,0.0,0.0,0.0,0.0,-0.09479432595171985,0.0,-0.2028734213820478,-0.18065680849693883,-0.29183111609398876,-0.20431090916641678,-0.8248731667386433,-0.07601608547920352
9512,7.0,299.66359,2192.8979999999997,0.0,0.0,0.0,0.0,-0.09480429276130366,0.0,-0.20056466010169083,-0.19153867887339582,-0.2744829064943537,-0.2155161076497838,-0.8337263178973812,-0.08133470415511032
9513,7.0,300.34867,2226.4506,0.0,0.0,0.0,0.0,-0.09481425957088749,0.0,-0.18020124111947783,-0.17937113597505283,-0.3172130209664877,-0.2139110282988748,-0.8090802555125043,-0.07699692069525442
9514,7.0,300.01828,2222.4062,0.0,0.0,0.0,0.0,-0.0948242263804713,0.0,-0.18998821370287683,-0.19004010224049783,-0.29552767537381075,-0.18281577088251183,-0.7959115100578502,-0.07516718555867363
9515,7.0,300.40381,2359.4534,0.0,0.0,0.0,0.0,-0.09483419319005512,0.0,-0.2555558505888988,-0.20064085650921082,-0.26101820081799076,-0.1969724149196638,-0.8255317387736393,-0.07732036836567623
9516,7.0,299.47975,2420.2848,0.0,0.0,0.0,0.0,-0.09484415999963895,0.0,-0.23225561738434478,-0.17752730450308082,-0.3259232430661197,-0.2010860178081448,-0.8208083214449743,-0.07802516081723383
9517,7.0,299.83736,2405.0188,0.0,0.0,0.0,0.0,-0.09485412680922277,0.0,-0.2383328989666258,-0.21513024174670178,-0.2776025312997367,-0.15112559380243487,-0.8193738531459033,-0.06183111299575574
9518,7.0,299.06715,2285.6736,0.0,0.0,0.0,0.0,-0.09486409361880659,0.0,-0.17859525997597983,-0.18557753601757684,-0.3306149051366507,-0.17110141422389483,-0.8014913162385342,-0.06222285372291753
9519,7.0,298.73994,2235.0269,0.0,0.0,0.0,0.0,-0.0948740604283904,0.0,-0.15986789540023286,-0.20001938969287683,-0.31950508388519666,-0.17361028226650085,-0.8269114409048052,-0.07792646620449342
9520,7.0,298.68655,2203.8801,0.0,0.0,0.0,0.0,-0.09488402723797423,0.0,-0.17389358699446084,-0.19460502698852084,-0.3014259156634217,-0.21068107069010278,-0.8169410396558032,-0.06606237347259863
9521,7.0,300.04592,2250.1585,0.0,0.0,0.0,0.0,-0.09489399404755806,0.0,-0.23196715521337577,-0.15465884756363985,-0.29736601503024074,-0.2015699359234038,-0.7819053336605483,-0.05971156299932244
9522,7.0,299.7923,2443.0655,0.0,0.0,0.0,0.0,-0.09490396085714187,0.0,-0.22387038512178678,-0.23028703456006078,-0.2884734788401157,-0.2030653512159898,-0.7908644505147443,-0.08903995035505892
9523,7.0,300.22667,2376.4116,0.0,0.0,0.0,0.0,-0.0949139276667257,0.0,-0.2206084696048608,-0.21249801050442083,-0.2892633275580677,-0.17750192258807584,-0.8484876898592152,-0.06333297458547794
9524,7.0,299.61365,2284.7539,0.0,0.0,0.0,0.0,-0.09492389447630951,0.0,-0.17610579567278883,-0.1922003615861988,-0.3262019577711267,-0.21523805155734177,-0.8346985516333332,-0.07039647782134142
9525,7.0,300.94203999999996,2539.3366,0.0,0.0,0.0,0.0,-0.09493386128589333,0.0,-0.1883357547772918,-0.2358276279618748,-0.3477315364259307,-0.1923704964104898,-0.8204154539837013,-0.06255278416747914
9526,7.0,300.78402,2421.0445,0.0,0.0,0.0,0.0,-0.09494382809547716,0.0,-0.22951394499876276,-0.16027527260293783,-0.3461478467846327,-0.20146097100764981,-0.8026408788744872,-0.054021460492253044
9527,7.0,299.85713,2260.2307,0.0,0.0,0.0,0.0,-0.09495379490506098,0.0,-0.21561781769482177,-0.1857104237681918,-0.28572544324390575,-0.17822704488963984,-0.8290560050064573,-0.06379934016925465
9528,7.0,300.37397000000004,2357.8076,0.0,0.0,0.0,0.0,-0.09496376171464481,0.0,-0.2031522678095678,-0.21904398105295778,-0.2945183769492007,-0.17822844317477782,-0.8133625341451322,-0.06558076759406785
9529,7.0,299.67611,2369.2792,0.0,0.0,0.0,0.0,-0.09497372852422861,0.0,-0.22539108100436778,-0.17611404352860283,-0.3186965913654047,-0.17284368763834382,-0.7988474731501073,-0.03354474495010857
9530,7.0,298.66492999999997,2364.409,0.0,0.0,0.0,0.0,-0.09498369533381244,0.0,-0.16782644804568084,-0.22680085639850178,-0.32409398213058566,-0.1912418168590978,-0.7911241566478752,-0.07259178548800144
9531,7.0,299.65812,2542.6376,0.0,0.0,0.0,0.0,-0.09499366214339625,0.0,-0.20929593753840078,-0.2145575325251798,-0.3490448605430457,-0.1982380757520748,-0.8373340759384393,-0.04607180722243336
9532,7.0,299.35919,2412.3471,0.0,0.0,0.0,0.0,-0.09500362895298008,0.0,-0.2190571127742538,-0.19753763622294682,-0.31669853309571167,-0.20429963169280382,-0.8212942964579363,-0.05209846682971836
9533,7.0,299.3362,2188.6306,0.0,0.0,0.0,0.0,-0.0950135957625639,0.0,-0.22948970805637078,-0.17793535045085182,-0.2578640039191958,-0.1910333001210188,-0.7902158083307282,-0.061207769640236546
9534,7.0,301.16315,2321.2298,0.0,0.0,0.0,0.0,-0.09502356257214772,0.0,-0.21388478512128478,-0.21325785688691182,-0.2784532662161977,-0.1930716350821868,-0.8057605644748762,-0.09283578787967892
9535,7.0,299.81937,2278.1375,0.0,0.0,0.0,0.0,-0.09503352938173154,0.0,-0.2251208776002008,-0.18034057314072882,-0.28703546416569475,-0.19635407904613883,-0.8404264544486332,-0.07633454187963273
9536,7.0,300.98607000000004,2246.051,0.0,0.0,0.0,0.0,-0.09504349619131536,0.0,-0.16846405593610783,-0.2017640341125598,-0.3125153199253607,-0.1969088942708948,-0.8310472542354782,-0.1033600620308439
9537,7.0,300.96246,2233.1594,0.0,0.0,0.0,0.0,-0.09505346300089919,0.0,-0.20085939429077881,-0.16673893684585184,-0.3112263746056517,-0.17406566725894382,-0.8121216878076702,-0.03325870039387817
9538,7.0,301.99667999999997,2434.9631,0.0,0.0,0.0,0.0,-0.09506342981048299,0.0,-0.2130630088926818,-0.2242866789253718,-0.30281830368583973,-0.2019968283230348,-0.7962577578820222,-0.07822993460944343
9539,7.0,301.52308999999997,2538.5947,0.0,0.0,0.0,0.0,-0.09507339662006682,0.0,-0.24838129007582477,-0.1988480827097778,-0.3244400374372387,-0.2117074423788978,-0.8259369374886293,-0.04721395185440425
9540,7.0,302.01772,2515.1601,0.0,0.0,0.0,0.0,-0.09508336342965064,0.0,-0.2174419414523488,-0.21967689759542178,-0.3274270176720307,-0.17495090334130983,-0.8167245587719383,-0.06821002798705564
9541,7.0,301.04843999999997,2433.8478,0.0,0.0,0.0,0.0,-0.09509333023923446,0.0,-0.22144459345487977,-0.20125501779232383,-0.3171293569057307,-0.17042809939994386,-0.7979568060472052,-0.03166016055911457
9542,7.0,301.51634,2321.6169,0.0,0.0,0.0,0.0,-0.09510329704881827,0.0,-0.17457082309629882,-0.17847783442189083,-0.3526648890428147,-0.19127077554695582,-0.8287573394069812,-0.04018062016676846
9543,7.0,300.8914,2229.8920000000003,0.0,0.0,0.0,0.0,-0.0951132638584021,0.0,-0.19629839082064282,-0.19218836470501482,-0.28934473207110173,-0.23195647555732177,-0.8418746016240543,-0.04890039620159336
9544,7.0,301.27872,2382.8041,0.0,0.0,0.0,0.0,-0.09512323066798593,0.0,-0.21163615010186182,-0.2022242624404808,-0.3104525352392797,-0.2511389819454878,-0.8098180637053203,-0.05509410326011465
9545,7.0,300.55324,2574.4884,0.0,0.0,0.0,0.0,-0.09513319747756974,0.0,-0.26753048080070274,-0.20817514107278678,-0.30687455661866075,-0.1915667053711618,-0.7947150744722713,-0.06817147686050094
9546,7.0,300.37104,2563.1846,0.0,0.0,0.0,0.0,-0.09514316428715357,0.0,-0.23552799977480376,-0.2469533167098948,-0.2966627890633377,-0.2053265404041518,-0.8124720291622463,-0.09386674047217601
9547,7.0,299.17819,2422.415,0.0,0.0,0.0,0.0,-0.09515313109673738,0.0,-0.2331765806652368,-0.1946848508313988,-0.30849225093331467,-0.1987456025946638,-0.8388082636414301,-0.09205539278515992
9548,7.0,299.43672999999995,2372.0559,0.0,0.0,0.0,0.0,-0.0951630979063212,0.0,-0.19263245195884282,-0.18756530979875483,-0.3408480218715807,-0.17532621117834984,-0.8323524622192922,-0.05969529121596654
9549,7.0,299.60404,2325.6235,0.0,0.0,0.0,0.0,-0.09517306471590502,0.0,-0.2169232283286558,-0.18802540640416282,-0.3019828283158847,-0.16105665055005386,-0.8125341717908793,-0.04455019029551146
9550,7.0,300.40262,2289.841,0.0,0.0,0.0,0.0,-0.09518303152548885,0.0,-0.2011643116433718,-0.17870797391710383,-0.3161822011097537,-0.16374939308830685,-0.8162207302922142,-0.053807961603432354
9551,7.0,300.29542000000004,2252.3702,0.0,0.0,0.0,0.0,-0.09519299833507266,0.0,-0.2076747880409058,-0.2052004008992028,-0.2717890899109947,-0.17413860100114184,-0.8196013379258542,-0.07171083241380813
9552,7.0,301.12737000000004,2294.2275,0.0,0.0,0.0,0.0,-0.09520296514465648,0.0,-0.18254343965313483,-0.22740297013792582,-0.28744144308326175,-0.2024341673311968,-0.7888229035507592,-0.0968897174300206
9553,7.0,300.44382,2332.7548,0.0,0.0,0.0,0.0,-0.09521293195424031,0.0,-0.19726944918647882,-0.2072143975929688,-0.3046153635331957,-0.2181673069339368,-0.7857546707904483,-0.08970990017542782
9554,7.0,300.47952999999995,2486.2166,0.0,0.0,0.0,0.0,-0.09522289876382412,0.0,-0.2040560159712608,-0.24100752459309077,-0.3106842351396467,-0.23483512922392277,-0.8205757602820222,-0.10513299639331888
9555,7.0,299.24952,2391.4807,0.0,0.0,0.0,0.0,-0.09523286557340795,0.0,-0.23087907659349077,-0.1976535013718818,-0.2984178395615477,-0.23574577761879678,-0.8615928640025952,-0.06565884358052333
9556,7.0,299.95067,2148.2862,0.0,0.0,0.0,0.0,-0.09524283238299178,0.0,-0.2062209869299268,-0.17867412123126283,-0.26813023366739375,-0.2077415713549968,-0.8279891843736703,-0.07399271115576203
9557,7.0,298.80847,2073.2546,0.0,0.0,0.0,0.0,-0.0952527991925756,0.0,-0.2034992857038158,-0.16173589288708984,-0.26498246077423276,-0.17478819564025183,-0.7972099799284993,-0.04371956738028536
9558,7.0,299.91863,2229.3295,0.0,0.0,0.0,0.0,-0.09526276600215941,0.0,-0.21783810197644676,-0.15185098968152586,-0.3079714201169127,-0.16242157949476185,-0.8299760056997542,-0.049213025400697455
9559,7.0,298.98597,2348.0755,0.0,0.0,0.0,0.0,-0.09527273281174323,0.0,-0.19232263047576584,-0.18626402309282783,-0.3351696669861707,-0.18539546510710783,-0.8197281056458652,-0.05754539843203865
9560,7.0,300.12057999999996,2435.041,0.0,0.0,0.0,0.0,-0.09528269962132706,0.0,-0.21819149321382378,-0.19272411056288882,-0.3292760572495167,-0.17931109077412682,-0.8210569527545122,-0.05584901308811845
9561,7.0,300.60624,2564.6648,0.0,0.0,0.0,0.0,-0.09529266643091087,0.0,-0.23675639326853679,-0.2036955117181818,-0.3391421545332247,-0.1865100098196048,-0.8040242793685182,-0.040251051181219466
9562,7.0,300.47992,2464.5182,0.0,0.0,0.0,0.0,-0.09530263324049469,0.0,-0.21100016341159483,-0.24221913866516775,-0.2959326917037827,-0.2255813288431438,-0.8265201541136883,-0.07156813741547524
9563,7.0,299.87273999999996,2422.7546,0.0,0.0,0.0,0.0,-0.09531260005007852,0.0,-0.21946319301683082,-0.20608121921113282,-0.3109124899896737,-0.2116627985794918,-0.8529713722142201,-0.061898985553704246
9564,7.0,300.81818,2456.4068,0.0,0.0,0.0,0.0,-0.09532256685966232,0.0,-0.2048049091201708,-0.22271601968035978,-0.3191654120541737,-0.1953447907540298,-0.8297471226346652,-0.06978858855634744
9565,7.0,300.24397999999997,2174.5753,0.0,0.0,0.0,0.0,-0.09533253366924616,0.0,-0.17509661883819083,-0.18082952710898484,-0.3050904663725847,-0.17805294825745782,-0.8142957982822382,-0.06824991761699244
9566,7.0,300.47823,2065.127,0.0,0.0,0.0,0.0,-0.09534250047882999,0.0,-0.17864745248863084,-0.16412876405824786,-0.28497083536443174,-0.17076179305537684,-0.8394603002132812,-0.07391451965879513
9567,7.0,299.53731,2212.6262,0.0,0.0,0.0,0.0,-0.0953524672884138,0.0,-0.2165390444207398,-0.15668578346118286,-0.2993582775093617,-0.1965413479296208,-0.8297185591143462,-0.07311592659248013
9568,7.0,299.09472999999997,2311.3586,0.0,0.0,0.0,0.0,-0.09536243409799762,0.0,-0.2192622047269948,-0.18341487526913883,-0.2999182197796237,-0.15337023661646387,-0.7969818162709813,-0.07651953196363982
9569,7.0,299.59057,2304.243,0.0,0.0,0.0,0.0,-0.09537240090758144,0.0,-0.2082538503405548,-0.19933746224307583,-0.2928410123361577,-0.16464895652708683,-0.7941805039845132,-0.07602819685764883
9570,7.0,300.3063,2532.6338,0.0,0.0,0.0,0.0,-0.09538236771716527,0.0,-0.2014687527684178,-0.2388049924532178,-0.32958369011237765,-0.19178034915474682,-0.8200913659392162,-0.07735097257169662
9571,7.0,299.99166,2592.9915,0.0,0.0,0.0,0.0,-0.0953923345267491,0.0,-0.21908138011414882,-0.23204414195597378,-0.3370791367996207,-0.21254319132637978,-0.8423591074243713,-0.07786611601528733
9572,7.0,300.46061000000003,2323.762,0.0,0.0,0.0,0.0,-0.0954023013363329,0.0,-0.1993441192962328,-0.2260023849221988,-0.2810191194444277,-0.19893758309111081,-0.8318690709940852,-0.061859988597105536
9573,7.0,300.74098,2347.7695,0.0,0.0,0.0,0.0,-0.09541226814591673,0.0,-0.2249295253188158,-0.1987251045451408,-0.2900086641991267,-0.18528736145393881,-0.7957788958847622,-0.04940834962247445
9574,7.0,300.36246,2347.9668,0.0,0.0,0.0,0.0,-0.09542223495550053,0.0,-0.22220231201216079,-0.19121366877131982,-0.3003072976855227,-0.19630877663416782,-0.8335345400509542,-0.04045582902642946
9575,7.0,298.99278,2082.9384,0.0,0.0,0.0,0.0,-0.09543220176508437,0.0,-0.18113761593439084,-0.17381100711131084,-0.27821262944994873,-0.2268904581048448,-0.8325107014874092,-0.07864287050219702
9576,7.0,300.16362999999996,2355.2431,0.0,0.0,0.0,0.0,-0.0954421685746682,0.0,-0.1938462039886308,-0.18975787155764381,-0.3323310164335177,-0.2070200460912878,-0.8309981318706301,-0.04239772284307946
9577,7.0,300.27158,2495.4165,0.0,0.0,0.0,0.0,-0.09545213538425201,0.0,-0.23951331506812376,-0.19627228949806683,-0.32275869075130265,-0.21000822196119778,-0.8145050546928903,-0.07115723714217252
9578,7.0,298.97161,2307.9766,0.0,0.0,0.0,0.0,-0.09546210219383583,0.0,-0.1987246485825958,-0.2035575577170668,-0.2992850397921337,-0.21500891517972778,-0.8509716927443671,-0.058900794719805846
9579,7.0,299.63924,2361.0261,0.0,0.0,0.0,0.0,-0.09547206900341965,0.0,-0.23442159146060979,-0.18283667423207484,-0.30043472401809873,-0.2125567688777198,-0.8416211269790381,-0.07445752950663603
9580,7.0,300.00329,2449.1686,0.0,0.0,0.0,0.0,-0.09548203581300348,0.0,-0.21672115586121277,-0.2027624806285988,-0.3250024621702457,-0.16863970284094285,-0.8042398989897983,-0.06192468968224104
9581,7.0,300.16868,2245.7773,0.0,0.0,0.0,0.0,-0.09549200262258731,0.0,-0.1996804170044228,-0.19059733913299282,-0.29238247613590373,-0.15898660086075583,-0.7861916044985703,-0.06351811767025015
9582,7.0,301.51668,2330.3295,0.0,0.0,0.0,0.0,-0.09550196943217111,0.0,-0.19577493568648183,-0.1895569237978118,-0.32303011005558974,-0.16238196141585184,-0.8279850097832582,-0.06467198459262793
9583,7.0,299.62597999999997,2510.5203,0.0,0.0,0.0,0.0,-0.09551193624175494,0.0,-0.2292296878157088,-0.21927528578578578,-0.3146304997741127,-0.20397064965033582,-0.8403248254636032,-0.058610239174130246
9584,7.0,298.46336,2387.7425,0.0,0.0,0.0,0.0,-0.09552190305133874,0.0,-0.2207224602411108,-0.18801340952297882,-0.3170782384381857,-0.18917003451212883,-0.8226648489406991,-0.06835693202630394
9585,7.0,298.4567,2305.5003,0.0,0.0,0.0,0.0,-0.09553186986092257,0.0,-0.2280571750649908,-0.21414716623467978,-0.25861018155783777,-0.2126345763528988,-0.8104011384753652,-0.05144960781018095
9586,7.0,299.51266,2370.6157,0.0,0.0,0.0,0.0,-0.0955418366705064,0.0,-0.19056026431183382,-0.20997320403774178,-0.3200745101763947,-0.22345494244828576,-0.8295120283464632,-0.05745838659295124
9587,7.0,299.77617000000004,2377.376,0.0,0.0,0.0,0.0,-0.09555180348009022,0.0,-0.21212066603467977,-0.21405345073293078,-0.29648883428616973,-0.23613159285937377,-0.8095719148585272,-0.07018347035881924
9588,7.0,300.21951,2294.1192,0.0,0.0,0.0,0.0,-0.09556177028967404,0.0,-0.1884433112754068,-0.20560299556143583,-0.3033086356742317,-0.18350636162066783,-0.8045736230427343,-0.06814821061170473
9589,7.0,300.10927000000004,2390.2458,0.0,0.0,0.0,0.0,-0.09557173709925786,0.0,-0.2339962898636358,-0.18430863278484583,-0.30827012624639266,-0.1967895840716198,-0.8116589668845032,-0.07263963926372423
9590,7.0,300.91017999999997,2433.5114,0.0,0.0,0.0,0.0,-0.09558170390884169,0.0,-0.24723665183535778,-0.19662774776564781,-0.2958622910868347,-0.1912715050870278,-0.8510795025550072,-0.07497274793073412
9591,7.0,299.96855,2195.8684,0.0,0.0,0.0,0.0,-0.09559167071842552,0.0,-0.20813738737406082,-0.18115044368065683,-0.2782013519763357,-0.1845514176413068,-0.8268758859587962,-0.06517952967371873
9592,7.0,300.59665,2312.6876,0.0,0.0,0.0,0.0,-0.09560163752800932,0.0,-0.1943176692601608,-0.18855844688426984,-0.3201231563136957,-0.17252308517420284,-0.7840060037678682,-0.05884318131911984
9593,7.0,299.88424,2449.9137,0.0,0.0,0.0,0.0,-0.09561160433759315,0.0,-0.22175977503098576,-0.1944202203027818,-0.3285325748561407,-0.20688298375026082,-0.8068120850311532,-0.038053247879563164
9594,7.0,298.48971,2258.9366,0.0,0.0,0.0,0.0,-0.09562157114717695,0.0,-0.17029857563966086,-0.18359805062221682,-0.33276369449121973,-0.2116404057522818,-0.8454736963767573,-0.05574337669894295
9595,7.0,298.54152,2232.7803,0.0,0.0,0.0,0.0,-0.09563153795676078,0.0,-0.1832048994509158,-0.1941586295244648,-0.3013459499655297,-0.22684476052533478,-0.8397073609851642,-0.04036370331408736
9596,7.0,298.92732,2505.965,0.0,0.0,0.0,0.0,-0.09564150476634461,0.0,-0.2300850938151308,-0.20918989078293482,-0.32247579132338267,-0.20093687752592582,-0.8239048036180732,-0.05298638397184895
9597,7.0,299.61078,2447.481,0.0,0.0,0.0,0.0,-0.09565147157592843,0.0,-0.2340918089505628,-0.2028779202124918,-0.3070033913688757,-0.2205100627551488,-0.8035748421541622,-0.04537444898685945
9598,7.0,300.17582000000004,2351.1561,0.0,0.0,0.0,0.0,-0.09566143838551225,0.0,-0.22638439034239977,-0.19046383329981684,-0.29784453252246673,-0.1939376194126528,-0.8347178945777421,-0.07480982947365533
9599,7.0,300.31164,2562.299,0.0,0.0,0.0,0.0,-0.09567140519509607,0.0,-0.25130886345725373,-0.21047966696772577,-0.3170863849689897,-0.17605228593500782,-0.7934227347647272,-0.05392440227842415
9600,7.0,300.82408,2434.2995,0.0,0.0,0.0,0.0,-0.0956813720046799,0.0,-0.22103045787400777,-0.18349927900246885,-0.3354365266650077,-0.15946938413590286,-0.7798056160083222,-0.07729470375389333
9601,7.0,299.9739,2364.6729,0.0,0.0,0.0,0.0,-0.09569133881426373,0.0,-0.23063958479985475,-0.1993939813336538,-0.28876794958417773,-0.18037892465701383,-0.8195210783854332,-0.07491387202042353
9602,7.0,299.96351,2418.7705,0.0,0.0,0.0,0.0,-0.09570130562384753,0.0,-0.23209928302641578,-0.1971800096001518,-0.3059665426740467,-0.2096139258172838,-0.8612023675465561,-0.07447860004246552
9603,7.0,299.5162,2105.6719,0.0,0.0,0.0,0.0,-0.09571127243343136,0.0,-0.18950283650747382,-0.19145620031525581,-0.25911262188492473,-0.1943622117345568,-0.8423086070393871,-0.07894088154210843
9604,7.0,300.09197,2035.3745,0.0,0.0,0.0,0.0,-0.09572123924301516,0.0,-0.15973114716673686,-0.2081883133240868,-0.25078356420791076,-0.19069239212487382,-0.8101296887735753,-0.07094097816007944
9605,7.0,300.19865,2322.9733,0.0,0.0,0.0,0.0,-0.095731206052599,0.0,-0.20374801833836378,-0.19931849420120382,-0.3030593660171307,-0.19140520343772283,-0.8006294355709732,-0.06002439079544614
9606,7.0,300.78991,2543.4694,0.0,0.0,0.0,0.0,-0.09574117286218282,0.0,-0.19849264470719882,-0.22838606591494978,-0.34627248667943367,-0.2151541443165608,-0.8307463290882794,-0.06528412748154173
9607,7.0,300.45896,2419.6529,0.0,0.0,0.0,0.0,-0.09575113967176664,0.0,-0.2181870957083898,-0.21233687334101778,-0.3049901039501797,-0.2059848591266228,-0.8366673067101341,-0.05164847131455725
9608,7.0,300.42514,2377.1291,0.0,0.0,0.0,0.0,-0.09576110648135046,0.0,-0.20105660315774182,-0.2033766317792108,-0.3181546646819207,-0.19445255311347281,-0.8123750003326702,-0.08242990592319832
9609,7.0,301.2891,2639.4794,0.0,0.0,0.0,0.0,-0.09577107329093427,0.0,-0.2641651225810677,-0.22314793780048678,-0.3150227795503277,-0.19832247948540482,-0.8352834401210572,-0.07918080396703693
9610,7.0,300.94607,2570.3561,0.0,0.0,0.0,0.0,-0.0957810401005181,0.0,-0.24064155892197275,-0.21396426445912878,-0.3267182390945797,-0.2006743545575168,-0.8323998417939682,-0.07004549406620203
9611,7.0,301.03317999999996,2416.5786,0.0,0.0,0.0,0.0,-0.09579100691010194,0.0,-0.23090784276382975,-0.21424990979481978,-0.28942179987370775,-0.1974634156531218,-0.8259405243939832,-0.06797682645004044
9612,7.0,300.57965,2271.3894,0.0,0.0,0.0,0.0,-0.09580097371968574,0.0,-0.16594157994465883,-0.18465589385911782,-0.33984820746790667,-0.18818881324778983,-0.8178462367651392,-0.05504011222853615
9613,7.0,300.39673,2175.0876,0.0,0.0,0.0,0.0,-0.09581094052926957,0.0,-0.2002037910785758,-0.17261194720797282,-0.28835658017607874,-0.16644443570428682,-0.8393323469906532,-0.05257680295017645
9614,7.0,299.664,2406.8253,0.0,0.0,0.0,0.0,-0.09582090733885339,0.0,-0.19518676426843382,-0.2216342941386018,-0.3147937444977237,-0.1871406262843418,-0.8404028558538041,-0.06321365931995244
9615,7.0,300.3878,2697.7459,0.0,0.0,0.0,0.0,-0.0958308741484372,0.0,-0.2845210739100437,-0.20793953002703378,-0.3275867869477987,-0.1837047255927448,-0.8233994248656962,-0.045823938890220656
9616,7.0,299.80051000000003,2457.1168,0.0,0.0,0.0,0.0,-0.09584084095802103,0.0,-0.21390927537620177,-0.21853711282293378,-0.3144557546618667,-0.1978815637043898,-0.8111793550821692,-0.058403108562188034
9617,7.0,299.56619,2325.2416,0.0,0.0,0.0,0.0,-0.09585080776760485,0.0,-0.2164952213539148,-0.19344576754911083,-0.29687439621422174,-0.21702677235637477,-0.8196620012093412,-0.05970870968704084
9618,7.0,299.12824,2543.812,0.0,0.0,0.0,0.0,-0.09586077457718867,0.0,-0.20348374244728182,-0.2282026068518438,-0.3415689797152337,-0.21298237444972382,-0.8278427292042162,-0.06915147715846943
9619,7.0,300.24861,2468.4772,0.0,0.0,0.0,0.0,-0.09587074138677248,0.0,-0.2273744471476108,-0.2091986553962998,-0.3137823182479037,-0.2060199783750888,-0.8188172242034681,-0.07272283621618514
9620,7.0,301.05697999999995,2226.5009,0.0,0.0,0.0,0.0,-0.09588070819635632,0.0,-0.17121790758789182,-0.2048543962550548,-0.30072835376457774,-0.17616560782619184,-0.8201907252440221,-0.09811994085343421
9621,7.0,300.27054,2105.7951,0.0,0.0,0.0,0.0,-0.09589067500594015,0.0,-0.19343736770578182,-0.18162580996507183,-0.2650459611579998,-0.17447461499930383,-0.8464332948839622,-0.07058519362596623
9622,7.0,300.08409,2118.0441,0.0,0.0,0.0,0.0,-0.09590064181552395,0.0,-0.17717197795801284,-0.17934490292996383,-0.28731562781834474,-0.17605644026041783,-0.8304743119664333,-0.07404326828275164
9623,7.0,300.66801,2136.5334,0.0,0.0,0.0,0.0,-0.09591060862510778,0.0,-0.18389168036869583,-0.17624136853616884,-0.2893197554561367,-0.17921362624700785,-0.8362830721397132,-0.07576655946982723
9624,7.0,300.3258,2352.7096,0.0,0.0,0.0,0.0,-0.0959205754346916,0.0,-0.1926713708951838,-0.2204209474088538,-0.3020726529372497,-0.2040521757533818,-0.8104287191430872,-0.08653664910850233
9625,7.0,300.90555,2485.4242,0.0,0.0,0.0,0.0,-0.09593054224427541,0.0,-0.2235351817237048,-0.19691838842433182,-0.33505332560968865,-0.23004042975072275,-0.8440157409403681,-0.06376639231575294
9626,7.0,299.80195,2319.6568,0.0,0.0,0.0,0.0,-0.09594050905385924,0.0,-0.1916922369260508,-0.22066806897574281,-0.2927574496004107,-0.2260481128992118,-0.8466551358608562,-0.08437665726082771
9627,7.0,299.23908,2437.8903,0.0,0.0,0.0,0.0,-0.09595047586344306,0.0,-0.23613531148724076,-0.1917807240572838,-0.3131417415346837,-0.1930455945546168,-0.8196537026910222,-0.048581093737330654
9628,7.0,299.67947999999996,2633.6413,0.0,0.0,0.0,0.0,-0.09596044267302688,0.0,-0.23953257695252478,-0.2047941788016118,-0.35623442729010063,-0.19537296923931083,-0.8069336547781513,-0.04930755960852725
9629,7.0,299.8305,2369.9172,0.0,0.0,0.0,0.0,-0.0959704094826107,0.0,-0.20395888581667482,-0.18484791488556881,-0.3315888613977727,-0.18682217191041284,-0.8472073672978572,-0.03820031809182786
9630,7.0,299.82009,2166.578,0.0,0.0,0.0,0.0,-0.09598037629219452,0.0,-0.17664447995595284,-0.16358571266715285,-0.31835543005673467,-0.21124753829100879,-0.8231950219230232,-0.08936697581158382
9631,7.0,301.32321,2568.8093,0.0,0.0,0.0,0.0,-0.09599034310177836,0.0,-0.24695510003007073,-0.20558788800244482,-0.32831088586676166,-0.17335513575881983,-0.7944970129182503,-0.04667819789052945
9632,7.0,300.18878,2443.6323,0.0,0.0,0.0,0.0,-0.09600030991136216,0.0,-0.22394430171658178,-0.19487907061056683,-0.3239798192418187,-0.20049691420000482,-0.7800694562018613,-0.08832494636899352
9633,7.0,300.22869,2295.5802,0.0,0.0,0.0,0.0,-0.09601027672094599,0.0,-0.2355968095890948,-0.18285296729368283,-0.2793492630146257,-0.2056291070165128,-0.8270897627899042,-0.04172125275831706
9634,7.0,299.81834,2302.8285,0.0,0.0,0.0,0.0,-0.0960202435305298,0.0,-0.19044739838319483,-0.19337613700223882,-0.3161788371194217,-0.21141533250756878,-0.8339195041614472,-0.07595700489237273
9635,7.0,301.82027,2334.328,0.0,0.0,0.0,0.0,-0.09603021034011362,0.0,-0.21430780690553378,-0.18526676207940582,-0.3100028447123987,-0.2002364886593028,-0.8439281353367222,-0.04047998490881346
9636,7.0,301.76915,2283.8916,0.0,0.0,0.0,0.0,-0.09604017714969745,0.0,-0.16759778789561386,-0.23456580734734278,-0.29208243251629173,-0.19691081944608482,-0.8356725585569601,-0.09624273900266882
9637,7.0,302.18442999999996,2468.7336,0.0,0.0,0.0,0.0,-0.09605014395928127,0.0,-0.22925183746289476,-0.20462983976789278,-0.31655171315622166,-0.18943353020063383,-0.8484919049796312,-0.06689140051891725
9638,7.0,299.68351,2406.5215,0.0,0.0,0.0,0.0,-0.09606011076886509,0.0,-0.2166541496320998,-0.2183972944416348,-0.2964710112169107,-0.19399572930588782,-0.8024350168516702,-0.08230093742397013
9639,7.0,300.12924,2073.7417,0.0,0.0,0.0,0.0,-0.0960700775784489,0.0,-0.20011658064246882,-0.17190365499056984,-0.25834544970421075,-0.15919179413850684,-0.8022361867845473,-0.061042687894194245
9640,7.0,300.15052000000003,2261.4517,0.0,0.0,0.0,0.0,-0.09608004438803273,0.0,-0.18187653870231682,-0.1944013941159238,-0.3111469054003087,-0.20339553902607682,-0.8004041394112382,-0.06773498188967222
9641,7.0,300.24577,2513.2182,0.0,0.0,0.0,0.0,-0.09609001119761654,0.0,-0.2222330337551928,-0.18701768864970883,-0.35470486546914465,-0.2147625738154158,-0.8419812867270832,-0.051249984368229654
9642,7.0,299.00514,2318.0206,0.0,0.0,0.0,0.0,-0.09609997800720037,0.0,-0.18928177573315683,-0.1910042705056538,-0.32433433518680665,-0.23313000155813976,-0.8373129192763513,-0.09043174055991791
9643,7.0,298.84657000000004,2202.6908,0.0,0.0,0.0,0.0,-0.09610994481678418,0.0,-0.18828376491466084,-0.1972294460725308,-0.2840497808910307,-0.2060962659751178,-0.8310104428593452,-0.08980615082892701
9644,7.0,298.90054,2287.5736,0.0,0.0,0.0,0.0,-0.09611991162636802,0.0,-0.22535821117112378,-0.17981821231667583,-0.2901888403319087,-0.2099164113696368,-0.8330728425103882,-0.05985915199563835
9645,7.0,300.7856,2455.1977,0.0,0.0,0.0,0.0,-0.09612987843595182,0.0,-0.2266410263277278,-0.2062645972142308,-0.3134131709714717,-0.18195765950532283,-0.8326372564248992,-0.059072648016266445
9646,7.0,301.09927000000005,2353.995,0.0,0.0,0.0,0.0,-0.09613984524553565,0.0,-0.1964330618914338,-0.19887354568479082,-0.3202490830361237,-0.16704642785369883,-0.8276015756804161,-0.05012723840942325
9647,7.0,299.82357,2495.775,0.0,0.0,0.0,0.0,-0.09614981205511948,0.0,-0.2240671684237078,-0.1902900507751658,-0.3442960612993757,-0.16568524793436082,-0.8354099038660382,-0.05343623459224575
9648,7.0,299.66626,2527.5169,0.0,0.0,0.0,0.0,-0.09615977886470328,0.0,-0.23112795108305279,-0.2081197669548218,-0.3290543175976327,-0.1857044557251028,-0.8197386738444081,-0.061134945329049346
9649,7.0,299.31408999999996,2459.96,0.0,0.0,0.0,0.0,-0.09616974567428711,0.0,-0.23269047392976178,-0.2164856664054718,-0.2985902643310647,-0.22633074888210578,-0.8261327176729512,-0.07088562734686674
9650,7.0,299.15654,2603.6339,0.0,0.0,0.0,0.0,-0.09617971248387093,0.0,-0.26964781887216777,-0.2067326174354208,-0.3150592666864287,-0.20834696802474478,-0.7894395675616191,-0.05931899647332914
9651,7.0,299.22231,2495.5136,0.0,0.0,0.0,0.0,-0.09618967929345475,0.0,-0.23769777353894378,-0.21773058600833578,-0.3031454720106287,-0.2122762708525368,-0.8080786273911512,-0.060254391475395436
9652,7.0,299.81813,2159.2762,0.0,0.0,0.0,0.0,-0.09619964610303856,0.0,-0.17994119048131282,-0.1945544354110278,-0.28187043191344574,-0.1899410975732268,-0.8288502747061531,-0.08590419866108431
9653,7.0,300.71477000000004,2263.8152,0.0,0.0,0.0,0.0,-0.0962096129126224,0.0,-0.2018477792333248,-0.18181598687634082,-0.3044795272247897,-0.18914568611222582,-0.8723703493537501,-0.06903303531453014
9654,7.0,301.56063,2484.3549,0.0,0.0,0.0,0.0,-0.0962195797222062,0.0,-0.2172382477847458,-0.2134140595223278,-0.3245295479510727,-0.17217955286029885,-0.8459313105194202,-0.09154246025328741
9655,7.0,301.04147,2295.8428,0.0,0.0,0.0,0.0,-0.09622954653179003,0.0,-0.20980549088118983,-0.1875434134640938,-0.3005299796599997,-0.15492202914461384,-0.8421243069786981,-0.07817639954040993
9656,7.0,300.24368,2376.8775,0.0,0.0,0.0,0.0,-0.09623951334137386,0.0,-0.2024455157323168,-0.2124609356832618,-0.3076049478207447,-0.1829418698574568,-0.8232079003317943,-0.06809987148918403
9657,7.0,299.61657,2491.3306,0.0,0.0,0.0,0.0,-0.09624948015095768,0.0,-0.22386796345404777,-0.1996831831771958,-0.33375115737617467,-0.2146469214490018,-0.8232231700108013,-0.04993850943254716
9658,7.0,299.13679,2416.873,0.0,0.0,0.0,0.0,-0.09625944696054149,0.0,-0.18907164792741882,-0.2150087530597118,-0.3305886416940587,-0.22969279377391377,-0.8075141660254432,-0.054210231012383245
9659,7.0,299.28366,2384.6473,0.0,0.0,0.0,0.0,-0.09626941377012531,0.0,-0.20096730542642882,-0.2056480345283808,-0.3182578946021087,-0.2077913725974118,-0.7996592992627283,-0.06094589920489194
9660,7.0,299.66449,2320.3089,0.0,0.0,0.0,0.0,-0.09627938057970914,0.0,-0.1984750546854628,-0.19478216337100282,-0.3120587392977997,-0.19277309107272284,-0.8295363564813641,-0.050241427642692855
9661,7.0,300.59642,2178.8709,0.0,0.0,0.0,0.0,-0.09628934738929296,0.0,-0.2003877263692288,-0.1904559096840348,-0.27147871114036276,-0.18323219640860983,-0.8556066128092981,-0.07986254903181993
9662,7.0,300.56329,2275.1849,0.0,0.0,0.0,0.0,-0.09629931419887677,0.0,-0.2225102285850498,-0.16817291878487484,-0.3009162305981197,-0.17833533092782683,-0.8458915708504982,-0.058139788165950355
9663,7.0,300.24911000000003,2594.0596,0.0,0.0,0.0,0.0,-0.0963092810084606,0.0,-0.26183589364869075,-0.19701820369168282,-0.3296752473914137,-0.17162846639591084,-0.8405230171831631,-0.06864661313714324
9664,7.0,301.35131,2519.8856,0.0,0.0,0.0,0.0,-0.0963192478180444,0.0,-0.22253124339212377,-0.20601068687167182,-0.33744037059277165,-0.18912176327736482,-0.8355735336246872,-0.04779260277451266
9665,7.0,300.02932999999996,2273.0207,0.0,0.0,0.0,0.0,-0.09632921462762824,0.0,-0.18645140343382083,-0.1964351289216378,-0.3080549929851607,-0.2096176849751548,-0.8489051083704111,-0.06624317680719252
9666,7.0,299.80091,2451.6375,0.0,0.0,0.0,0.0,-0.09633918143721207,0.0,-0.2019714261430278,-0.2074039057591718,-0.3358612608419257,-0.2144091420480348,-0.8300529924423522,-0.051689061100313155
9667,7.0,299.80338,2498.9329,0.0,0.0,0.0,0.0,-0.09634914824679588,0.0,-0.24364573401096176,-0.18734862626486984,-0.32861885310215566,-0.19620226378365582,-0.7998538331494273,-0.07084532735063943
9668,7.0,299.49053,2265.6014,0.0,0.0,0.0,0.0,-0.0963591150563797,0.0,-0.2107837534552368,-0.18923057620560382,-0.28867192387220075,-0.18559089065389484,-0.8142966291473203,-0.07013717293525003
9669,7.0,299.44201,2230.0319,0.0,0.0,0.0,0.0,-0.09636908186596352,0.0,-0.1961289551389208,-0.1908293430083898,-0.29091570542364475,-0.15939380581094384,-0.8184500628972322,-0.05800881647127444
9670,7.0,300.96285,2211.7094,0.0,0.0,0.0,0.0,-0.09637904867554735,0.0,-0.1955511594018968,-0.1990398706887058,-0.2777133909931777,-0.2008809663854078,-0.8264853084427491,-0.07281094540513083
9671,7.0,300.09927999999996,2229.4085,0.0,0.0,0.0,0.0,-0.09638901548513117,0.0,-0.1954472404716408,-0.2114603816070148,-0.27077687332609673,-0.16765892740664784,-0.8256914067243972,-0.08835190591440423
9672,7.0,300.88232,2581.7225,0.0,0.0,0.0,0.0,-0.09639898229471498,0.0,-0.23906192228107478,-0.23346748476894677,-0.3122497673391527,-0.20603944290950982,-0.8367448000777822,-0.09625512294539101
9673,7.0,301.19073,2578.1135,0.0,0.0,0.0,0.0,-0.09640894910429881,0.0,-0.24453751568897375,-0.21998503708333278,-0.3191595656010967,-0.19441198257946882,-0.8582263810753492,-0.0964255911289649
9674,7.0,299.96087,2203.8298,0.0,0.0,0.0,0.0,-0.09641891591388262,0.0,-0.18103760814952083,-0.1984107437016158,-0.2904608675862557,-0.22552303656489076,-0.8454516987170861,-0.08764399467903883
9675,7.0,300.94313999999997,2333.4761,0.0,0.0,0.0,0.0,-0.09642888272346645,0.0,-0.18923578431111782,-0.18783115622749183,-0.33225151683067167,-0.2306438404502748,-0.8213301756439771,-0.06775795226943923
9676,7.0,300.4274,2677.6293,0.0,0.0,0.0,0.0,-0.09643884953305028,0.0,-0.2393791607548838,-0.22239847723152076,-0.3521547986774727,-0.2155654731946558,-0.8293957781624902,-0.052679607305322444
9677,7.0,298.98765,2396.5311,0.0,0.0,0.0,0.0,-0.0964488163426341,0.0,-0.19393999041788682,-0.2125086800279738,-0.3220369425725717,-0.2189988204960008,-0.8240916266715113,-0.055431595590172536
9678,7.0,299.0347,2312.4363,0.0,0.0,0.0,0.0,-0.09645878315221791,0.0,-0.2164676710836958,-0.20375963018450982,-0.28269560252988374,-0.16787243946771985,-0.8309796603213073,-0.05029818383379425
9679,7.0,298.69532000000004,2490.8704,0.0,0.0,0.0,0.0,-0.09646874996180173,0.0,-0.23353263675037678,-0.2073183367882268,-0.3163114310275077,-0.18354905997988183,-0.8274321602636963,-0.05539193292825815
9680,7.0,298.67247000000003,2381.7395,0.0,0.0,0.0,0.0,-0.09647871677138556,0.0,-0.2304818420242868,-0.19192933744945082,-0.3015781666234477,-0.18071367209255085,-0.8480147655075412,-0.04760547675929475
9681,7.0,300.0836,2335.3527,0.0,0.0,0.0,0.0,-0.09648868358096938,0.0,-0.18704237142214483,-0.2116331103515618,-0.3112134354018747,-0.20172164986087682,-0.8418633545479441,-0.07298244102430614
9682,7.0,300.04287999999997,2428.6536,0.0,0.0,0.0,0.0,-0.09649865039055319,0.0,-0.23648717271696676,-0.1944445079076788,-0.30731836016246067,-0.2063679081944268,-0.8134610828498582,-0.06005753927246764
9683,7.0,299.84788,2468.0804,0.0,0.0,0.0,0.0,-0.09650861720013702,0.0,-0.2143579121229788,-0.2269892297245928,-0.3088876717848397,-0.2305503681285498,-0.7820088675557663,-0.07507579546590414
9684,7.0,301.12327999999997,2352.578,0.0,0.0,0.0,0.0,-0.09651858400972083,0.0,-0.23274131881977977,-0.20879775286173383,-0.27358589644582576,-0.22409806241925675,-0.8204004477497202,-0.08044560657661322
9685,7.0,299.66007,2417.5437,0.0,0.0,0.0,0.0,-0.09652855081930466,0.0,-0.23209153166315075,-0.2013320957274308,-0.3014493014757297,-0.21538602660194578,-0.8209170431807042,-0.07357719552825383
9686,7.0,300.15292,2512.0645,0.0,0.0,0.0,0.0,-0.09653851762888849,0.0,-0.21492094480604582,-0.2152105620821288,-0.33347338499376067,-0.16646763913157683,-0.8518886739523661,-0.06472894546024953
9687,7.0,299.60942,2161.6669,0.0,0.0,0.0,0.0,-0.0965484844384723,0.0,-0.15689565795439583,-0.2007974847096688,-0.29939961811344173,-0.16056730141425885,-0.8618119185417142,-0.07182776755484872
9688,7.0,300.15741,2262.2118,0.0,0.0,0.0,0.0,-0.09655845124805612,0.0,-0.16941508234746683,-0.1923655517500018,-0.3258752859388867,-0.16169968946101684,-0.8653086446368142,-0.07526937993725943
9689,7.0,300.0239,2437.4463,0.0,0.0,0.0,0.0,-0.09656841805763994,0.0,-0.2099588766813278,-0.2258271433174038,-0.30513680229965773,-0.19117455731745983,-0.8560268785532752,-0.06965845177975394
9690,7.0,299.89952,2085.795,0.0,0.0,0.0,0.0,-0.09657838486722377,0.0,-0.16608100315841884,-0.1998492751335878,-0.26809931940684273,-0.1923745494108898,-0.8285229037313442,-0.08946356691711661
9691,7.0,299.65563,2316.5955,0.0,0.0,0.0,0.0,-0.09658835167680759,0.0,-0.21164548213528278,-0.2336375993282358,-0.25890411527934676,-0.19631388341467182,-0.7979616595151843,-0.06539388881187434
9692,7.0,299.35527,2715.9535,0.0,0.0,0.0,0.0,-0.0965983184863914,0.0,-0.2440866700569788,-0.23849289115741576,-0.3430024752942087,-0.20952434437594283,-0.8143399759865982,-0.06402898114541844
9693,7.0,299.07576,2440.7962,0.0,0.0,0.0,0.0,-0.09660828529597523,0.0,-0.23859107509210575,-0.1948689583745688,-0.3084810849172127,-0.2290297837034798,-0.8162912221016712,-0.06099048828879254
9694,7.0,299.8276,2350.0494,0.0,0.0,0.0,0.0,-0.09661825210555904,0.0,-0.2127590135976798,-0.19172044580883482,-0.3098768875924677,-0.20496358408583082,-0.8430783427428542,-0.06576663312616134
9695,7.0,300.79261,2654.8140000000003,0.0,0.0,0.0,0.0,-0.09662821891514287,0.0,-0.27064573849815476,-0.19346674182618082,-0.3428846951025847,-0.18602743932697882,-0.8088429523390842,-0.05003989422430305
9696,7.0,301.4687,2551.1637,0.0,0.0,0.0,0.0,-0.0966381857247267,0.0,-0.2307153151123288,-0.21522832435638178,-0.3295464430387017,-0.18908135486337682,-0.8357477011843762,-0.037877310171949466
9697,7.0,299.95957000000004,2238.1743,0.0,0.0,0.0,0.0,-0.09664815253431051,0.0,-0.2075124552423848,-0.17615170603481986,-0.2966849488430247,-0.1914767996897888,-0.8246430475084323,-0.06591312679911913
9698,7.0,299.43709,2374.7342,0.0,0.0,0.0,0.0,-0.09665811934389433,0.0,-0.2162625386009508,-0.19110067112016782,-0.3144967000984077,-0.1866306575090118,-0.8541709590076102,-0.03007229024790397
9699,7.0,299.88547,2238.5116,0.0,0.0,0.0,0.0,-0.09666808615347815,0.0,-0.17668002476946082,-0.2011743529518628,-0.3025972530440237,-0.16087790309991284,-0.8136833189942911,-0.055278854217098154
9700,7.0,300.78019,2217.966,0.0,0.0,0.0,0.0,-0.09667805296306198,0.0,-0.18889929408540881,-0.2057945910228448,-0.2795124064132268,-0.17942537525290583,-0.8487874599013002,-0.07094050801203303
9701,7.0,299.99779,2690.7197,0.0,0.0,0.0,0.0,-0.0966880197726458,0.0,-0.27425872490972875,-0.23422148469836077,-0.3094313817884997,-0.19595661142941181,-0.8312232760428501,-0.07293036908841703
9702,7.0,299.68725,2665.8212,0.0,0.0,0.0,0.0,-0.09669798658222961,0.0,-0.27309642572001874,-0.21560383484344178,-0.3216428288136757,-0.1865932989778248,-0.8180154495318392,-0.06515032071308603
9703,7.0,298.82007999999996,2101.0227,0.0,0.0,0.0,0.0,-0.09670795339181344,0.0,-0.18661034184450684,-0.18681296146700382,-0.2652351450841708,-0.1986406298843038,-0.7790185638606463,-0.07484793375691592
9704,7.0,300.03252000000003,2209.8217,0.0,0.0,0.0,0.0,-0.09671792020139724,0.0,-0.18068807739502482,-0.19629627312793382,-0.2947462568966907,-0.18468014093401083,-0.8383288342241142,-0.07160420607928493
9705,7.0,299.71926,2564.8041,0.0,0.0,0.0,0.0,-0.09672788701098108,0.0,-0.21563357373387682,-0.20511842896611282,-0.3588844106741336,-0.22787323977433777,-0.8719901373862261,-0.05000934574703816
9706,7.0,299.68225,2371.6349,0.0,0.0,0.0,0.0,-0.0967378538205649,0.0,-0.2033611391851818,-0.19453207298132083,-0.32302459797504574,-0.19557209314896282,-0.8922805415662332,-0.08372637766465012
9707,7.0,300.05904,2189.4101,0.0,0.0,0.0,0.0,-0.09674782063014872,0.0,-0.19267730854076984,-0.17754471213979883,-0.29530398014923376,-0.19867177719237783,-0.8381139745404091,-0.07652237413017032
9708,7.0,300.47628,2284.0706,0.0,0.0,0.0,0.0,-0.09675778743973254,0.0,-0.17018792872874083,-0.2028626910634888,-0.32124979923238667,-0.19295208170288783,-0.8180596171036982,-0.08869887314614723
9709,7.0,300.97369,2285.8632,0.0,0.0,0.0,0.0,-0.09676775424931636,0.0,-0.2071539065619988,-0.18191756519886584,-0.30577387316753174,-0.18614304103088783,-0.8154231606085002,-0.05060738824756036
9710,7.0,300.77533,2453.0233,0.0,0.0,0.0,0.0,-0.09677772105890019,0.0,-0.2194709139825928,-0.2115487876782398,-0.3146381194148647,-0.16407443358788584,-0.8098091167069372,-0.06585242805187863
9711,7.0,300.38625,2689.4288,0.0,0.0,0.0,0.0,-0.09678768786848402,0.0,-0.26220251793237376,-0.21251393879599279,-0.3428027333019957,-0.18433214018716582,-0.7985965518953432,-0.02204078764825638
9712,7.0,299.28042999999997,2380.0142,0.0,0.0,0.0,0.0,-0.09679765467806782,0.0,-0.2287459115554638,-0.2027086567832868,-0.2920103195066747,-0.2004179313547098,-0.8612059443194091,-0.05370265958678985
9713,7.0,298.87764,2194.8635,0.0,0.0,0.0,0.0,-0.09680762148765165,0.0,-0.2160978145321938,-0.16928009716914486,-0.2818057764245647,-0.2191139662373648,-0.8732385729669371,-0.07058400407034884
9714,7.0,300.04072,2762.5406,0.0,0.0,0.0,0.0,-0.09681758829723545,0.0,-0.2839084527670827,-0.2127354757978568,-0.34309942306377667,-0.1940847737246758,-0.8381001031465402,-0.07288257306794993
9715,7.0,300.24672000000004,2752.4214,0.0,0.0,0.0,0.0,-0.09682755510681929,0.0,-0.24967146142815477,-0.21120810259711678,-0.3757878034798686,-0.20213317125649083,-0.7728717631890042,-0.07229351100306403
9716,7.0,300.26414,2113.6735,0.0,0.0,0.0,0.0,-0.09683752191640312,0.0,-0.14914064698903587,-0.18555589299544084,-0.3078074154557267,-0.20702708817948282,-0.8114709279309452,-0.07077255572845743
9717,7.0,299.54107,2224.3478,0.0,0.0,0.0,0.0,-0.09684748872598693,0.0,-0.14810334233166184,-0.1964548771660868,-0.3315879798701857,-0.21016450565662181,-0.8333081901111152,-0.07454054812707933
9718,7.0,299.60056000000003,2475.1761,0.0,0.0,0.0,0.0,-0.09685745553557075,0.0,-0.21368532683909977,-0.19518407915566882,-0.34352232325801363,-0.17888570811714483,-0.8520026544561152,-0.06175351526334744
9719,7.0,300.16835,2274.2738,0.0,0.0,0.0,0.0,-0.09686742234515457,0.0,-0.2116521797184438,-0.1930400622090708,-0.2866302046556987,-0.17629649947410983,-0.8364887720425143,-0.09178161868764051
9720,7.0,300.97851,2204.3482,0.0,0.0,0.0,0.0,-0.0968773891547384,0.0,-0.17202872045041284,-0.2250065424589168,-0.27303155744861674,-0.18648241901938184,-0.8555970274633522,-0.1026283434711289
9721,7.0,299.97091,2316.1647,0.0,0.0,0.0,0.0,-0.09688735596432223,0.0,-0.1990923773088878,-0.2200070347430038,-0.28495684238055075,-0.22212202207423676,-0.8507365680586622,-0.06237011949245154
9722,7.0,300.45547,2300.118,0.0,0.0,0.0,0.0,-0.09689732277390603,0.0,-0.20872085731164478,-0.1860192725311728,-0.3044382980782207,-0.18446708483548382,-0.8228624225776983,-0.07177559226744944
9723,7.0,300.50217999999995,2372.4502,0.0,0.0,0.0,0.0,-0.09690728958348986,0.0,-0.2323516228313198,-0.17211692387161784,-0.31669706388306673,-0.1968639059664548,-0.7845378182153543,-0.04525519046333955
9724,7.0,300.51897,2551.4518,0.0,0.0,0.0,0.0,-0.09691725639307366,0.0,-0.24602672989094776,-0.2002706554526748,-0.3292802521049307,-0.2262764994717518,-0.8228490679413802,-0.08091461978290122
9725,7.0,300.61523,2503.055,0.0,0.0,0.0,0.0,-0.0969272232026575,0.0,-0.23131039689605878,-0.2052476487513658,-0.3243081629367237,-0.23322295712231378,-0.8456174563009452,-0.06240968690885654
9726,7.0,300.01594,2286.096,0.0,0.0,0.0,0.0,-0.09693719001224133,0.0,-0.19992421511098382,-0.18539531311959281,-0.3095965820848037,-0.2027674556865898,-0.8226937265685492,-0.11084435283448589
9727,7.0,298.95514,2499.4235,0.0,0.0,0.0,0.0,-0.09694715682182514,0.0,-0.24013553168953175,-0.17642485799677782,-0.34320193357639367,-0.17187488882023086,-0.7971498030050602,-0.03305844265736427
9728,7.0,299.23994,2458.5271,0.0,0.0,0.0,0.0,-0.09695712363140896,0.0,-0.2066918645163988,-0.2052101179676618,-0.3354288766267527,-0.21173613762172977,-0.8349554611961881,-0.04696920838549996
9729,7.0,299.75546,2076.4956,0.0,0.0,0.0,0.0,-0.09696709044099278,0.0,-0.15153867560320286,-0.18604504961371682,-0.29361906682294575,-0.2161475853771058,-0.8555556260642662,-0.041989707292811464
9730,7.0,300.70859,2325.1751,0.0,0.0,0.0,0.0,-0.0969770572505766,0.0,-0.21962042916734878,-0.19703732372106983,-0.2901374178893337,-0.18111852630250683,-0.8274076598762783,-0.03181493755163987
9731,7.0,300.97452999999996,2600.3845,0.0,0.0,0.0,0.0,-0.09698702406016044,0.0,-0.26379337125187874,-0.17740267474078084,-0.34925592053887566,-0.14831988401053287,-0.8126380299261292,-0.05284031586393315
9732,7.0,300.88532000000004,2512.5416,0.0,0.0,0.0,0.0,-0.09699699086974424,0.0,-0.23235364933151978,-0.22272726675646978,-0.3086689921482577,-0.16211622644462587,-0.8553769596741331,-0.07829777271688852
9733,7.0,301.22505,2512.3344,0.0,0.0,0.0,0.0,-0.09700695767932807,0.0,-0.2036158905253238,-0.2217808405005648,-0.3382901935841427,-0.2042309333360238,-0.8773825024309112,-0.0968230749576935
9734,7.0,301.31609,2539.1753,0.0,0.0,0.0,0.0,-0.09701692448891187,0.0,-0.22889521395769877,-0.21148610802705378,-0.3314645761405067,-0.1802453884263348,-0.8184174058465092,-0.04879363510480686
9735,7.0,299.8901,2233.1129,0.0,0.0,0.0,0.0,-0.0970268912984957,0.0,-0.1842576359073128,-0.19167219483907283,-0.3028807401570017,-0.19212907944166382,-0.7882069893449732,-0.08159092572114741
9736,7.0,299.67289,2021.7346,0.0,0.0,0.0,0.0,-0.09703685810807954,0.0,-0.18322683631558082,-0.16732060319825784,-0.26400939617319874,-0.23516043316852778,-0.8201002825400961,-0.06896874256918493
9737,7.0,299.60287999999997,2289.6935,0.0,0.0,0.0,0.0,-0.09704682491766335,0.0,-0.16858393355543883,-0.2243807591971568,-0.3030449576007087,-0.24921703902330675,-0.8389290227883481,-0.1033176777791609
9738,7.0,299.88018999999997,2279.5036,0.0,0.0,0.0,0.0,-0.09705679172724717,0.0,-0.2051800953671988,-0.2063758216777078,-0.2813562480176997,-0.2070140375181948,-0.8288746332385573,-0.1089638518413949
9739,7.0,300.89281,2233.696,0.0,0.0,0.0,0.0,-0.09706675853683099,0.0,-0.20619462216232481,-0.18931220363365983,-0.2834809929473957,-0.17011749771428983,-0.8266882421727771,-0.08389681038447051
9740,7.0,300.61059,2492.3838,0.0,0.0,0.0,0.0,-0.09707672534641482,0.0,-0.24764369466552974,-0.1889443837148588,-0.32103436199612473,-0.1975826042623848,-0.8741163008660621,-0.04930089140961916
9741,7.0,299.29545,2531.1383,0.0,0.0,0.0,0.0,-0.09708669215599865,0.0,-0.24010637035165375,-0.1949695234469938,-0.3343269570105017,-0.1949152841691408,-0.8772758578578861,-0.02533829053519458
9742,7.0,299.81464,2490.1279999999997,0.0,0.0,0.0,0.0,-0.09709665896558245,0.0,-0.2298817547850628,-0.2045422848267518,-0.3225126837595237,-0.18377511607719182,-0.8275561516784332,-0.05442478266805785
9743,7.0,300.24786,2731.6867,0.0,0.0,0.0,0.0,-0.09710662577516628,0.0,-0.24975238971364175,-0.22195425825517978,-0.35865789861427866,-0.16434070558166486,-0.8052631498682852,-0.04610617463932516
9744,7.0,301.17484,2581.999,0.0,0.0,0.0,0.0,-0.09711659258475008,0.0,-0.25623679518610276,-0.1954303597249748,-0.33319605844139066,-0.22076482422779178,-0.8480582440693323,-0.045834698593032554
9745,7.0,300.90387000000004,2204.5057,0.0,0.0,0.0,0.0,-0.09712655939433391,0.0,-0.17504434526553184,-0.19836786295738382,-0.2967024679372537,-0.2109900714405988,-0.8669723709035111,-0.07535846083305102
9746,7.0,300.17874,2296.8288,0.0,0.0,0.0,0.0,-0.09713652620391773,0.0,-0.2201286348875048,-0.1920975470985518,-0.2859524315313077,-0.1910449220996658,-0.8147145948135702,-0.05660840249481435
9747,7.0,300.66086,2574.2287,0.0,0.0,0.0,0.0,-0.09714649301350156,0.0,-0.27753621408069173,-0.1913261496649208,-0.31363887243124666,-0.17898865432730482,-0.8089503771146863,-0.03812538622043267
9748,7.0,301.10461000000004,2300.737,0.0,0.0,0.0,0.0,-0.09715645982308538,0.0,-0.2105427924489558,-0.2065228240022158,-0.2823009922784387,-0.22339597129246577,-0.8135187570455502,-0.06384373369588595
9749,7.0,299.9576,2044.6856,0.0,0.0,0.0,0.0,-0.0971664266326692,0.0,-0.13994671955666588,-0.17828438471279884,-0.3033022623311027,-0.22858480478956378,-0.8314195324547192,-0.08363802022942991
9750,7.0,299.83992,2510.2545,0.0,0.0,0.0,0.0,-0.09717639344225303,0.0,-0.21588689639137779,-0.23670514307847879,-0.3104626474752777,-0.20736149110998578,-0.7878339410556563,-0.08925250286828622
9751,7.0,299.79117,2595.8106,0.0,0.0,0.0,0.0,-0.09718636025183683,0.0,-0.2217548506354998,-0.22920221860549775,-0.3381045459008207,-0.17845756941989083,-0.8012984542145002,-0.09918799157184259
9752,7.0,300.21602,2319.2138,0.0,0.0,0.0,0.0,-0.09719632706142066,0.0,-0.24101235779606778,-0.17894568239056383,-0.28502505437728276,-0.1901822713620288,-0.8589696000236993,-0.07368076995347583
9753,7.0,300.39479,2235.6063,0.0,0.0,0.0,0.0,-0.09720629387100448,0.0,-0.18141103134137485,-0.2081747155077448,-0.2899827452615687,-0.1871110697789248,-0.8853827097879702,-0.07591945890991722
9754,7.0,299.72274,2271.1316,0.0,0.0,0.0,0.0,-0.0972162606805883,0.0,-0.1942454245280308,-0.2172483701532448,-0.27887349143017076,-0.16994849773011084,-0.8335142142539481,-0.06992548573760814
9755,7.0,299.65047000000004,2536.2551,0.0,0.0,0.0,0.0,-0.09722622749017211,0.0,-0.17874868630612184,-0.23751354440576178,-0.3546959792657676,-0.1329231333084919,-0.8162753039426003,-0.09047976658815772
9756,7.0,300.55949,2648.4449,0.0,0.0,0.0,0.0,-0.09723619429975594,0.0,-0.22946468077890078,-0.23464347296750776,-0.3409529439194357,-0.2069002697969668,-0.8389662597295232,-0.05707143144601174
9757,7.0,300.96379,2297.8104,0.0,0.0,0.0,0.0,-0.09724616110933974,0.0,-0.17083286241739085,-0.17324554262800385,-0.3543985802289167,-0.20569607271562182,-0.868610877375219,-0.07145411131547173
9758,7.0,300.80737999999997,2012.4954,0.0,0.0,0.0,0.0,-0.09725612791892357,0.0,-0.1952121664484408,-0.16624100548170984,-0.25029517765971077,-0.21300238613919878,-0.8248269524015822,-0.05667914356379594
9759,7.0,300.02586,2471.7073,0.0,0.0,0.0,0.0,-0.0972660947285074,0.0,-0.2586190373637118,-0.18811885846088583,-0.30459941497662174,-0.2103591104708278,-0.8154228971634742,-0.049744226831872955
9760,7.0,300.5466,3029.9706,0.0,0.0,0.0,0.0,-0.09727606153809122,0.0,-0.3304190337598197,-0.20978302712647282,-0.38083335328032564,-0.22601111913806077,-0.8241073320480612,-0.020944586815569783
9761,7.0,300.2222,2646.26,0.0,0.0,0.0,0.0,-0.09728602834767504,0.0,-0.23310566329073779,-0.2269273910709898,-0.34436392879107364,-0.23891764559933576,-0.8414953826416282,-0.06875154633074934
9762,7.0,299.40455,2336.8357,0.0,0.0,0.0,0.0,-0.09729599515725885,0.0,-0.2080266695356338,-0.18580649001017283,-0.3165065525992647,-0.18883658403671982,-0.7876543222104293,-0.06182021751743044
9763,7.0,300.63802999999996,2656.3379,0.0,0.0,0.0,0.0,-0.09730596196684269,0.0,-0.2316316883702678,-0.2290507478480488,-0.3467779464918187,-0.17271202592034984,-0.8152352533774553,-0.07283091048510122
9764,7.0,300.29611,2657.4482,0.0,0.0,0.0,0.0,-0.09731592877642649,0.0,-0.27271522076739674,-0.2074744988936388,-0.32760816652490865,-0.15855453075311385,-0.8446789536608222,-0.05363722085558155
9765,7.0,300.52466,2495.6481,0.0,0.0,0.0,0.0,-0.09732589558601032,0.0,-0.25339507448564674,-0.18977359719919581,-0.3154460445146007,-0.19080856124883883,-0.8765459327508481,-0.05769836069363485
9766,7.0,300.39451,2327.723,0.0,0.0,0.0,0.0,-0.09733586239559415,0.0,-0.2091136639779118,-0.2171276515363308,-0.28132835324244676,-0.1989126064761458,-0.8343679483907052,-0.053889130029193044
9767,7.0,299.68552,1849.9875,0.0,0.0,0.0,0.0,-0.09734582920517795,0.0,-0.1265563864376429,-0.16381745309752385,-0.27197615614445675,-0.19531470735856082,-0.8374301725779232,-0.08941976310204351
9768,7.0,300.33987,2168.1843,0.0,0.0,0.0,0.0,-0.09735579601476178,0.0,-0.15091755329190285,-0.20216760149488883,-0.3059887227187357,-0.23290493844592777,-0.8287979606034902,-0.08221859970759401
9769,7.0,300.50683,2707.5029999999997,0.0,0.0,0.0,0.0,-0.0973657628243456,0.0,-0.19951517617811482,-0.2545040564550948,-0.36899406288437864,-0.2083973468197168,-0.8335597699784442,-0.1077120826678549
9770,7.0,299.68265,2497.9689,0.0,0.0,0.0,0.0,-0.09737572963392943,0.0,-0.2261061012024348,-0.21287445318157278,-0.3203396068000577,-0.2041630962418288,-0.8136200617905482,-0.08327638417598922
9771,7.0,298.38083,2134.6937,0.0,0.0,0.0,0.0,-0.09738569644351325,0.0,-0.18042873603192983,-0.2174565930487948,-0.2510082524175858,-0.17243501347551082,-0.8197942911423972,-0.1062967040006679
9772,7.0,298.88867,2366.3511,0.0,0.0,0.0,0.0,-0.09739566325309706,0.0,-0.23353548398315777,-0.18817487092641383,-0.29760131196846273,-0.2031595328127848,-0.8482109915219073,-0.057281508589244745
9773,7.0,299.86616000000004,2618.0053,0.0,0.0,0.0,0.0,-0.0974056300626809,0.0,-0.2440552390388768,-0.21522792918884281,-0.3365250713799387,-0.16898669033768784,-0.8394298520477762,-0.07580087622421403
9774,7.0,300.31925,2537.359,0.0,0.0,0.0,0.0,-0.0974155968722647,0.0,-0.2210786683137658,-0.22313634621934278,-0.3270787636126607,-0.21989852578979477,-0.8134105520673712,-0.04741635768113016
9775,7.0,299.38199,2527.0288,0.0,0.0,0.0,0.0,-0.09742556368184853,0.0,-0.2106513014021648,-0.2056989503459058,-0.35180339341029165,-0.19772608047654483,-0.8360054213473113,-0.060966604970685435
9776,7.0,299.82586000000003,2467.917,0.0,0.0,0.0,0.0,-0.09743553049143236,0.0,-0.24573806506995877,-0.18408458292273383,-0.3203625062523177,-0.23105951617129877,-0.8747532906739283,-0.01984109362191348
9777,7.0,299.45723,2337.9945,0.0,0.0,0.0,0.0,-0.09744549730101616,0.0,-0.21262368391432382,-0.18953678038582383,-0.3085314839771867,-0.18527109878983383,-0.8818452510388501,-0.06412349914124664
9778,7.0,299.64718999999997,2634.6573,0.0,0.0,0.0,0.0,-0.09745546411059999,0.0,-0.26464438987836775,-0.1904361715720868,-0.34578947035676366,-0.18404507630133482,-0.8401034201842523,-0.050785706079658946
9779,7.0,299.99784,2765.2634,0.0,0.0,0.0,0.0,-0.09746543092018381,0.0,-0.25103780892300276,-0.23783803775028675,-0.35169517829961167,-0.18401611761347683,-0.8359938702961712,-0.07827941769132701
9780,7.0,300.05191,2294.2629,0.0,0.0,0.0,0.0,-0.09747539772976764,0.0,-0.17526942864274583,-0.18571793195143282,-0.3364112732612077,-0.2108958189162968,-0.8347872819445902,-0.061284569944816146
9781,7.0,300.47257,2222.3242,0.0,0.0,0.0,0.0,-0.09748536453935146,0.0,-0.17948273534106685,-0.1903774638612928,-0.3056708762948667,-0.18962450757948182,-0.8396848870979462,-0.07114917471112685
9782,7.0,300.32327999999995,2636.491,0.0,0.0,0.0,0.0,-0.09749533134893527,0.0,-0.23946905630375576,-0.2397067343797128,-0.32225163000375967,-0.2106102343756118,-0.8070665830587702,-0.06440936637870953
9783,7.0,300.08755,2556.3943,0.0,0.0,0.0,0.0,-0.0975052981585191,0.0,-0.2355388922133788,-0.2247669392077698,-0.3167742127456807,-0.20513036505229082,-0.8242380615759632,-0.06801573322738023
9784,7.0,300.20358999999996,2403.4609,0.0,0.0,0.0,0.0,-0.09751526496810291,0.0,-0.23234929235608978,-0.2176885867916908,-0.28055420990104474,-0.2259693124389348,-0.8473884249582263,-0.09416512945437472
9785,7.0,299.15057,2405.6401,0.0,0.0,0.0,0.0,-0.09752523177768674,0.0,-0.1974804483873028,-0.22965859658303878,-0.3041154867288617,-0.18750709858050985,-0.8477903204778902,-0.08317360920509613
9786,7.0,298.48027,2239.3964,0.0,0.0,0.0,0.0,-0.09753519858727057,0.0,-0.15258285009625486,-0.2039922014799628,-0.3241455464281747,-0.16713909970784485,-0.8093051970347043,-0.08399182183309742
9787,7.0,299.3127,2217.3936,0.0,0.0,0.0,0.0,-0.09754516539685437,0.0,-0.15090244573291184,-0.21623615356834677,-0.3068936766480477,-0.17337879514865484,-0.8319924949887663,-0.07210719052167563
9788,7.0,299.46452,2432.2936,0.0,0.0,0.0,0.0,-0.0975551322064382,0.0,-0.22238287317998076,-0.2004045767183918,-0.3165690802629357,-0.1939669327380458,-0.8516540356267093,-0.06248324278661594
9789,7.0,299.77277999999995,2245.708,0.0,0.0,0.0,0.0,-0.09756509901602202,0.0,-0.1862755133489618,-0.19967641466652783,-0.2966872185232487,-0.2009214659919048,-0.8595395633374502,-0.08011084596882492
9790,7.0,300.17681,2145.3536,0.0,0.0,0.0,0.0,-0.09757506582560585,0.0,-0.2091629079327718,-0.18564271839650984,-0.2573283087238268,-0.18248612009497783,-0.8296988108698973,-0.07418311300855322
9791,7.0,299.58919,2621.2072,0.0,0.0,0.0,0.0,-0.09758503263518967,0.0,-0.2308366011492988,-0.20943156106428581,-0.35651336491012964,-0.2066348388007708,-0.8478818372269222,-0.05687585087195945
9792,7.0,300.01212000000004,2921.8079,0.0,0.0,0.0,0.0,-0.09759499944477348,0.0,-0.27843559513445376,-0.2188581205871148,-0.3908629486001697,-0.20526602910817981,-0.8590764877767482,-0.017014725686972685
9793,7.0,300.0456,2588.3727,0.0,0.0,0.0,0.0,-0.09760496625435731,0.0,-0.2289146886246208,-0.2004175868496758,-0.35746839365938365,-0.2102005368301778,-0.8570139260056892,-0.02810879799212237
9794,7.0,299.63331,2234.725,0.0,0.0,0.0,0.0,-0.09761493306394112,0.0,-0.2100759070678778,-0.16156272844499986,-0.3076619634038717,-0.15667240855986286,-0.7840630598809993,-0.01064947943952179
9795,7.0,300.07457,2461.6691,0.0,0.0,0.0,0.0,-0.09762489987352495,0.0,-0.2176853038613668,-0.2121414579267318,-0.31845916660197265,-0.19112769450033482,-0.8066180577695042,-0.05015121393328945
9796,7.0,299.94546,2649.4144,0.0,0.0,0.0,0.0,-0.09763486668310878,0.0,-0.2696624198061088,-0.19373283143494183,-0.34196056034887967,-0.19044264624022583,-0.8254456935751472,-0.041142059749405165
9797,7.0,300.02895,2518.1786,0.0,0.0,0.0,0.0,-0.0976448334926926,0.0,-0.2255757357025918,-0.22594777074180877,-0.3139398989034557,-0.2282777393467588,-0.8336874090935412,-0.09535200806501051
9798,7.0,299.7834,2205.1385,0.0,0.0,0.0,0.0,-0.09765480030227641,0.0,-0.18317649805061284,-0.19612408140593982,-0.29100646223510174,-0.1900083773798668,-0.8183947799717762,-0.07902049564221572
9799,7.0,300.68092,2068.3558,0.0,0.0,0.0,0.0,-0.09766476711186023,0.0,-0.15581997138323386,-0.17833915088070385,-0.2945693839592347,-0.2081202735798718,-0.8674071058589162,-0.08062952666851472
9800,7.0,301.72291,2384.2795,0.0,0.0,0.0,0.0,-0.09767473392144406,0.0,-0.1923304122365338,-0.23695942832357478,-0.2954715919807757,-0.2063960461497038,-0.8874415934611662,-0.08471084538230951
9801,7.0,301.38177,2636.0426,0.0,0.0,0.0,0.0,-0.09768470073102788,0.0,-0.23830564253893577,-0.24245163903311379,-0.3205338265792257,-0.18324866172273482,-0.8390803820882862,-0.07659023554236773
9802,7.0,299.53774,2352.471,0.0,0.0,0.0,0.0,-0.0976946675406117,0.0,-0.2334019376199778,-0.17764266302696582,-0.3040478522846867,-0.17314830101590684,-0.7987244341904642,-0.09178887051860622
9803,7.0,300.21713,2266.9188,0.0,0.0,0.0,0.0,-0.09770463435019552,0.0,-0.2059395263171488,-0.2027668072065258,-0.2803803564488867,-0.15777805693648186,-0.8138724826554602,-0.07787642988805522
9804,7.0,299.22384,2524.9688,0.0,0.0,0.0,0.0,-0.09771460115977933,0.0,-0.24328070052993575,-0.1933898260110898,-0.33085691992303573,-0.18516909490226682,-0.8670686499280132,-0.06528114447324734
9805,7.0,299.62299,2726.2015,0.0,0.0,0.0,0.0,-0.09772456796936316,0.0,-0.2429782656400878,-0.22590319786990978,-0.3598157395035486,-0.19057269689056083,-0.8347133146872903,-0.04048258896157046
9806,7.0,300.50838,2535.7596,0.0,0.0,0.0,0.0,-0.09773453477894699,0.0,-0.21922724759854478,-0.21384525823488382,-0.33773510478185964,-0.2047658381963148,-0.8443906536098691,-0.04827912696902886
9807,7.0,300.02684,2258.3674,0.0,0.0,0.0,0.0,-0.0977445015885308,0.0,-0.18616413689796982,-0.18609977525161783,-0.3142233860164337,-0.21081973396628778,-0.8254081019964372,-0.05796536729373635
9808,7.0,301.28909,2373.8285,0.0,0.0,0.0,0.0,-0.09775446839811462,0.0,-0.2323996508860598,-0.2075052510341738,-0.28167968758212075,-0.24657037909960178,-0.8601865133937991,-0.05813795924951985
9809,7.0,301.21099,2499.8296,0.0,0.0,0.0,0.0,-0.09776443520769844,0.0,-0.2287423145176088,-0.2047034422551568,-0.3264400107496207,-0.1908910296744778,-0.8202973799495482,-0.07696559404191272
9810,7.0,300.83589,2576.2589,0.0,0.0,0.0,0.0,-0.09777440201728227,0.0,-0.2612826894915938,-0.2254797910506228,-0.2963558958730497,-0.18022781866960083,-0.8168519547070112,-0.07085921293000984
9811,7.0,300.8451,2628.7847,0.0,0.0,0.0,0.0,-0.09778436882686609,0.0,-0.24395056017104577,-0.22301346937971578,-0.3321208784952787,-0.18445562497685283,-0.8354186684794032,-0.062168169628270646
9812,7.0,301.00378,2449.5771,0.0,0.0,0.0,0.0,-0.0977943356364499,0.0,-0.2367048593684508,-0.18410588143983583,-0.3237995215190247,-0.18636628029291985,-0.8806709144379521,-0.04177273903564836
9813,7.0,300.22061,2431.659,0.0,0.0,0.0,0.0,-0.09780430244603373,0.0,-0.19318728744860084,-0.2198486434873718,-0.3261276764062957,-0.2036702615256898,-0.8313705114148812,-0.07167812064757972
9814,7.0,300.61145,2642.9032,0.0,0.0,0.0,0.0,-0.09781426925561754,0.0,-0.26183925763902277,-0.19015079981392283,-0.35138653218665067,-0.1888029542659008,-0.8163125814137793,-0.04383494008967175
9815,7.0,299.89702,2572.3012,0.0,0.0,0.0,0.0,-0.09782423606520137,0.0,-0.21749700146278278,-0.2157814981159758,-0.3486368348602767,-0.22564951044237277,-0.8283646948607302,-0.06996462657572103
9816,7.0,299.93383,2294.2589,0.0,0.0,0.0,0.0,-0.0978342028747852,0.0,-0.21140291006134282,-0.2111541166317888,-0.2748404013946357,-0.2131803027242578,-0.8725777819142222,-0.09654515058776451
9817,7.0,300.28988,2207.9592,0.0,0.0,0.0,0.0,-0.09784416968436901,0.0,-0.18004126919368982,-0.18679125764986182,-0.30433193721522367,-0.1994563063473048,-0.8381660555955492,-0.07349734838062352
9818,7.0,299.81048,2333.9623,0.0,0.0,0.0,0.0,-0.09785413649395283,0.0,-0.2005073709410368,-0.22705560773864378,-0.28190328148168775,-0.15600596357158983,-0.8344198267958252,-0.09613146083693651
9819,7.0,300.47331,2328.6036,0.0,0.0,0.0,0.0,-0.09786410330353665,0.0,-0.1910856648861868,-0.2000696468978368,-0.3166820373840837,-0.17838404799263483,-0.8326976765283622,-0.07191723449892842
9820,7.0,299.92744,2326.6739,0.0,0.0,0.0,0.0,-0.09787407011312048,0.0,-0.2180758509799108,-0.18977007108884783,-0.29940486674895966,-0.1936466241164338,-0.8422342547470492,-0.08586735486094811
9821,7.0,299.53484,2293.0248,0.0,0.0,0.0,0.0,-0.0978840369227043,0.0,-0.19686665187422583,-0.20640342261043182,-0.29375218762108374,-0.21172766685089378,-0.8091523279921172,-0.08507123209837693
9822,7.0,300.8231,2356.2174,0.0,0.0,0.0,0.0,-0.09789400373228811,0.0,-0.24463698645129078,-0.17290124024402384,-0.29869301802370574,-0.18301065940674582,-0.8238530569354662,-0.07091789328305113
9823,7.0,301.64876,2594.2342,0.0,0.0,0.0,0.0,-0.09790397054187194,0.0,-0.24092296887224576,-0.2223660025658158,-0.3252934372014627,-0.24486575805886876,-0.8433831385054353,-0.07764433988639972
9824,7.0,301.34227999999996,2659.0445,0.0,0.0,0.0,0.0,-0.09791393735145575,0.0,-0.25760128843326774,-0.1976283930344038,-0.3530534704561647,-0.20836243022127082,-0.8870230705073611,-0.04512229055372336
9825,7.0,301.12631,2413.1794,0.0,0.0,0.0,0.0,-0.09792390416103958,0.0,-0.18349453699200083,-0.19289547141980082,-0.35715628223108065,-0.2208791897665788,-0.8317879805885822,-0.06875043479538963
9826,7.0,300.6941,2222.274,0.0,0.0,0.0,0.0,-0.09793387097062341,0.0,-0.16718282144965985,-0.21400174458032778,-0.29433126005323373,-0.14963351210267786,-0.8166742103744692,-0.04612164392860186
9827,7.0,300.67347,2635.637,0.0,0.0,0.0,0.0,-0.09794383778020722,0.0,-0.22637361949383678,-0.23133499860848677,-0.34345922817428665,-0.18309062510463783,-0.8385902426174133,-0.06172852446288103
9828,7.0,300.28067999999996,2729.7838,0.0,0.0,0.0,0.0,-0.09795380458979104,0.0,-0.28696473930871474,-0.2305731561232988,-0.3122482069339987,-0.19269502015251783,-0.8652335830694061,-0.062434430476298534
9829,7.0,299.82057000000003,2338.2946,0.0,0.0,0.0,0.0,-0.09796377139937486,0.0,-0.20554099478781682,-0.22789586564907077,-0.27734631074694976,-0.22030452497236377,-0.8441153738227013,-0.09704706098504921
9830,7.0,300.28817999999995,2236.8866,0.0,0.0,0.0,0.0,-0.09797373820895869,0.0,-0.20567723639626279,-0.1907322533838078,-0.28354819169402773,-0.2023562686635088,-0.8453485903869102,-0.04482789175041846
9831,7.0,299.71217,2509.2295,0.0,0.0,0.0,0.0,-0.0979837050185425,0.0,-0.2123911430163738,-0.2163758503596338,-0.33397610903087566,-0.21673277783985978,-0.8357043847426012,-0.05125574469504815
9832,7.0,300.07437000000004,2629.1497,0.0,0.0,0.0,0.0,-0.09799367182812632,0.0,-0.22998841962308975,-0.20768165787658377,-0.36152576116731466,-0.1983383267169688,-0.8682184354789881,-0.04730481201737145
9833,7.0,301.03898,2603.5011,0.0,0.0,0.0,0.0,-0.09800363863771015,0.0,-0.2058399947598258,-0.2102420395542738,-0.37531729066343267,-0.20261265133631182,-0.8327248417635432,-0.06223512823462894
9834,7.0,300.19855,2261.8804,0.0,0.0,0.0,0.0,-0.09801360544729396,0.0,-0.21171582195722477,-0.2146862760828858,-0.26115307453880177,-0.2019017550661518,-0.8317290499627662,-0.09327243686452281
9835,7.0,300.26487000000003,2128.7161,0.0,0.0,0.0,0.0,-0.09802357225687779,0.0,-0.19638723258941082,-0.16328504083247886,-0.28740427706959376,-0.17891839556537084,-0.8292541257985102,-0.07534579520680103
9836,7.0,299.80275,2497.7466,0.0,0.0,0.0,0.0,-0.09803353906646162,0.0,-0.24827082554992275,-0.22188381710822777,-0.2890979448767457,-0.17541763673487284,-0.8546415832815573,-0.09400548176861871
9837,7.0,300.02702,2641.7764,0.0,0.0,0.0,0.0,-0.09804350587604543,0.0,-0.2286402295700338,-0.2274613941386918,-0.34693243673456564,-0.16703205996728085,-0.8155245565460072,-0.07480650702657743
9838,7.0,300.12897999999996,2375.2632,0.0,0.0,0.0,0.0,-0.09805347268562925,0.0,-0.18815943912739083,-0.1942616365296308,-0.3395996369533747,-0.1969063510131438,-0.8430904206840462,-0.07323468153070033
9839,7.0,299.57117999999997,2173.8362,0.0,0.0,0.0,0.0,-0.09806343949521307,0.0,-0.15937631711421785,-0.1916596913328388,-0.3097559257955297,-0.2003439843624118,-0.8649000110039852,-0.042520825637478755
9840,7.0,299.10032,2520.1071,0.0,0.0,0.0,0.0,-0.0980734063047969,0.0,-0.26678717065984375,-0.17299174374295584,-0.3262707067904117,-0.2260992718967608,-0.8879945037757342,-0.05645020679645165
9841,7.0,299.97316,2841.3237,0.0,0.0,0.0,0.0,-0.09808337311438071,0.0,-0.27252663465878474,-0.2286634633948268,-0.36250136902609964,-0.1906606368667398,-0.8326985580559492,-0.060443221777281536
9842,7.0,299.52547000000004,2478.237,0.0,0.0,0.0,0.0,-0.09809333992396453,0.0,-0.2532787736391688,-0.21396877342207377,-0.28607460922836575,-0.18131182402408383,-0.8145242557822853,-0.08237466352774632
9843,7.0,300.12757,2327.9819,0.0,0.0,0.0,0.0,-0.09810330673354836,0.0,-0.1829186360326638,-0.16167065984565185,-0.3630590720136406,-0.1936692094611628,-0.8027472093399812,-0.04231409323282586
9844,7.0,299.01865,2309.0037,0.0,0.0,0.0,0.0,-0.09811327354313217,0.0,-0.20116173798811782,-0.18785778444011983,-0.3128599668143747,-0.19990062664865582,-0.8610588305373903,-0.06665283078287224
9845,7.0,298.55444,2339.7653,0.0,0.0,0.0,0.0,-0.098123240352716,0.0,-0.17866821398317984,-0.2064489074074208,-0.32611312613485965,-0.1950961898419948,-0.8327906118275343,-0.06431471868686854
9846,7.0,299.42048,2517.5187,0.0,0.0,0.0,0.0,-0.09813320716229983,0.0,-0.25561641254737577,-0.2005933452120218,-0.3090530544661617,-0.2249237801907488,-0.8495073234348451,-0.07842867855030793
9847,7.0,300.31382,2464.5177,0.0,0.0,0.0,0.0,-0.09814317397188364,0.0,-0.20505398625975282,-0.2249528908661218,-0.3191449747996567,-0.23193959481065576,-0.8543651686542771,-0.07991234216823412
9848,7.0,299.86676,2106.5936,0.0,0.0,0.0,0.0,-0.09815314078146746,0.0,-0.2193219662178928,-0.16395375550097585,-0.2570761209064377,-0.2215241943827358,-0.8729086283368742,-0.07951067462984263
9849,7.0,300.53688,2334.0672,0.0,0.0,0.0,0.0,-0.09816310759105128,0.0,-0.1870133316742788,-0.18861167291202283,-0.33387312229071164,-0.16189591547538285,-0.8338875563857941,-0.06585057785719603
9850,7.0,300.39645,2710.8067,0.0,0.0,0.0,0.0,-0.0981730744006351,0.0,-0.2501508097854628,-0.22461539752281376,-0.34925134064842367,-0.16325836195734583,-0.8255807294159742,-0.05629660821379265
9851,7.0,300.60642,2566.9989,0.0,0.0,0.0,0.0,-0.09818304121021894,0.0,-0.20820457598819178,-0.18958192067777882,-0.3825170507064936,-0.18889556532504084,-0.8434364658581982,-0.025185144875330273
9852,7.0,300.10211,2289.2634,0.0,0.0,0.0,0.0,-0.09819300801980274,0.0,-0.1975928988834008,-0.2053761389965468,-0.29290986268045277,-0.20487134792922782,-0.8769346053567072,-0.09405731761723451
9853,7.0,299.27544,2355.3836,0.0,0.0,0.0,0.0,-0.09820297482938657,0.0,-0.2098738852629398,-0.18937291757965183,-0.3167310077614167,-0.19794921841356683,-0.8586752204721462,-0.08103033801057172
9854,7.0,298.99306,2464.4598,0.0,0.0,0.0,0.0,-0.09821294163897037,0.0,-0.2436589873222698,-0.2067695807990688,-0.2987056735174547,-0.16869481351388185,-0.8236801458059012,-0.11562013492831888
9855,7.0,299.74241,2462.265,0.0,0.0,0.0,0.0,-0.0982229084485542,0.0,-0.2264841650797468,-0.1913018417950218,-0.3306810805006817,-0.20383791388723582,-0.8509779039674803,-0.06852870020975614
9856,7.0,301.25022,2352.603,0.0,0.0,0.0,0.0,-0.09823287525813802,0.0,-0.22643380654977677,-0.17678177534450282,-0.3119169754763087,-0.2153922783550628,-0.8569474770641313,-0.07610253395123534
9857,7.0,300.79298,2198.9131,0.0,0.0,0.0,0.0,-0.09824284206772185,0.0,-0.19746601970587882,-0.17302741014647582,-0.29792125582003876,-0.2128935428134568,-0.8300953766940352,-0.03644233727432866
9858,7.0,300.65681,2322.7717,0.0,0.0,0.0,0.0,-0.09825280887730566,0.0,-0.2166678183759488,-0.18882517484059383,-0.3005715938416067,-0.1818908052637248,-0.8113879326152542,-0.08210897212627463
9859,7.0,300.64956,2840.0496,0.0,0.0,0.0,0.0,-0.09826277568688949,0.0,-0.26219553663918477,-0.2256341799683598,-0.3754744558864437,-0.2065182441117638,-0.8333032961131321,-0.042931272987986754
9860,7.0,299.7336,2819.9102,0.0,0.0,0.0,0.0,-0.0982727424964733,0.0,-0.26925810261870575,-0.23728201675791177,-0.35064216826568767,-0.2261460435213768,-0.8489029602801992,-0.09029703199887322
9861,7.0,299.7901,2271.1285,0.0,0.0,0.0,0.0,-0.09828270930605712,0.0,-0.19818701807953581,-0.16757505056336985,-0.3246042751459477,-0.2074184458981068,-0.8394578988105442,-0.07114109302832923
9862,7.0,299.34492,2054.4548,0.0,0.0,0.0,0.0,-0.09829267611564095,0.0,-0.17569503421474983,-0.18230801099239982,-0.26649990412399277,-0.21130998489467182,-0.8486694061321493,-0.06754317972524283
9863,7.0,298.83827,2498.1753,0.0,0.0,0.0,0.0,-0.09830264292522477,0.0,-0.2216958288171748,-0.19526941507909082,-0.34241767799899364,-0.20353465826480682,-0.8643405449612701,-0.05125823222404365
9864,7.0,299.43897000000004,2681.9472,0.0,0.0,0.0,0.0,-0.09831260973480858,0.0,-0.26821920715867476,-0.2105672928363738,-0.3364584907158677,-0.20309794747170679,-0.8814396875538242,-0.05648117171950765
9865,7.0,299.51038,2283.6149,0.0,0.0,0.0,0.0,-0.0983225765443924,0.0,-0.1992636773707938,-0.18874662769284184,-0.30615159253980967,-0.15952969278185486,-0.8589742812391612,-0.07870980175080264
9866,7.0,299.65184,2084.3884,0.0,0.0,0.0,0.0,-0.09833254335397623,0.0,-0.17451938038872183,-0.16465327297251284,-0.2944293730604167,-0.16488916772829385,-0.8409452283673322,-0.08148355160805043
9867,7.0,300.13673,2417.2108,0.0,0.0,0.0,0.0,-0.09834251016356003,0.0,-0.1959550003617528,-0.1983199564926558,-0.3404967584594137,-0.16425949358614986,-0.8503493241354442,-0.07705272341801173
9868,7.0,299.89714,2898.0656,0.0,0.0,0.0,0.0,-0.09835247697314387,0.0,-0.27252184198581175,-0.26420730418273075,-0.34421042140092367,-0.2178847621435518,-0.8231828527893222,-0.07423618299579082
9869,7.0,300.4241,2952.4242,0.0,0.0,0.0,0.0,-0.09836244378272768,0.0,-0.26581725726662075,-0.24527083518384676,-0.3863751524497586,-0.24595672444153874,-0.8064776213056443,-0.04520785243191766
9870,7.0,301.63014,2452.4902,0.0,0.0,0.0,0.0,-0.09837241059231151,0.0,-0.23760171742946376,-0.21082090933640382,-0.2970731452213367,-0.24434555545752876,-0.8095486607687322,-0.04777287175531536
9871,7.0,300.51452,2167.9865,0.0,0.0,0.0,0.0,-0.09838237740189533,0.0,-0.1763894347732818,-0.17104326380065582,-0.3115810830681587,-0.2241266462045778,-0.8565110905110632,-0.03592866912288357
9872,7.0,300.10233999999997,2555.0085,0.0,0.0,0.0,0.0,-0.09839234421147915,0.0,-0.2207347104348198,-0.2104077160781248,-0.34551636905731065,-0.18803247888986083,-0.8667878479278002,-0.061535949188625344
9873,7.0,300.5583,2741.4727,0.0,0.0,0.0,0.0,-0.09840231102106298,0.0,-0.25625686767058375,-0.21638795869832878,-0.3606944097252666,-0.1356187332120269,-0.8662206305218202,-0.06460996760700734
9874,7.0,300.278,2384.8413,0.0,0.0,0.0,0.0,-0.09841227783064678,0.0,-0.23361964453646378,-0.1949170168268118,-0.29639554434946275,-0.15964430150066586,-0.8437636443154882,-0.08264775469469832
9875,7.0,299.77395,2012.1618,0.0,0.0,0.0,0.0,-0.09842224464023061,0.0,-0.17423120192778083,-0.19404451729820282,-0.2433712242938698,-0.16438383963842185,-0.8591104417875992,-0.07697813098540003
9876,7.0,298.82122999999996,2293.2915,0.0,0.0,0.0,0.0,-0.09843221144981444,0.0,-0.2034106060550638,-0.2180113778760478,-0.2756813584476317,-0.22478721434227078,-0.8467527017129852,-0.0909810295186285
9877,7.0,298.92902999999995,2772.6954,0.0,0.0,0.0,0.0,-0.09844217825939824,0.0,-0.2385001966906368,-0.23678742911909975,-0.36754255171862565,-0.17736169890673684,-0.7991971660246192,-0.06615475452396594
9878,7.0,299.53499,2715.0406,0.0,0.0,0.0,0.0,-0.09845214506898207,0.0,-0.2194404658170878,-0.24492767777247978,-0.3609364143791507,-0.2196737463876108,-0.8332629383616493,-0.07384876378030553
9879,7.0,300.08536000000004,2263.9839,0.0,0.0,0.0,0.0,-0.09846211187856589,0.0,-0.16695863986503484,-0.17233888643852383,-0.34889703748595663,-0.21422686848754582,-0.8518862624171283,-0.057493073183624545
9880,7.0,299.827,2086.9941,0.0,0.0,0.0,0.0,-0.09847207868814972,0.0,-0.1964634492619328,-0.17440640300257185,-0.26352425202531876,-0.2347308252586288,-0.8592024246316771,-0.05115868850771945
9881,7.0,300.28586,2490.9262,0.0,0.0,0.0,0.0,-0.09848204549773354,0.0,-0.23622400126849377,-0.2159134131464948,-0.3050419620902977,-0.1963774344609438,-0.8331921223121602,-0.07838465485996313
9882,7.0,300.22688999999997,2818.0252,0.0,0.0,0.0,0.0,-0.09849201230731736,0.0,-0.29629727935476474,-0.2198258149626188,-0.3404862105258727,-0.2028782951150288,-0.8133474164536402,-0.04849125493046425
9883,7.0,299.93168,2482.9068,0.0,0.0,0.0,0.0,-0.09850197911690119,0.0,-0.2205704524611088,-0.23458692347942678,-0.2995842829441667,-0.19449745022540382,-0.8499791028139062,-0.08494744637341022
9884,7.0,300.2561,2174.6985,0.0,0.0,0.0,0.0,-0.09851194592648499,0.0,-0.16238367380852084,-0.2010223046418568,-0.2976480633280767,-0.1881886511277738,-0.8583247068650531,-0.07028058227490344
9885,7.0,299.99031,2422.0501,0.0,0.0,0.0,0.0,-0.09852191273606882,0.0,-0.2057369674896578,-0.21537259090561978,-0.3151331832812237,-0.16823276133578083,-0.8805311163216551,-0.07799775949477952
9886,7.0,300.21488999999997,2811.4224,0.0,0.0,0.0,0.0,-0.09853187954565265,0.0,-0.2813537452899527,-0.2255578822358298,-0.3476905808568887,-0.17681024767231282,-0.8616926387399422,-0.05821921076178875
9887,7.0,299.93908999999996,2772.1614,0.0,0.0,0.0,0.0,-0.09854184635523645,0.0,-0.28643856866428574,-0.2055241039086498,-0.35070517215690566,-0.2071734926864318,-0.8844665999750573,-0.04125051702685906
9888,7.0,300.37358,2143.9646,0.0,0.0,0.0,0.0,-0.09855181316482028,0.0,-0.2056349028070848,-0.16728559540730284,-0.27879119525704876,-0.2106958844065648,-0.8491949080315121,-0.056715830310166644
9889,7.0,299.18282999999997,2093.6685,0.0,0.0,0.0,0.0,-0.0985617799744041,0.0,-0.17053795597578583,-0.16485384582980786,-0.3010311230269587,-0.1851368735490868,-0.8061499564883062,-0.04642651365844016
9890,7.0,299.34095,2537.4407,0.0,0.0,0.0,0.0,-0.09857174678398793,0.0,-0.2044919060317798,-0.1933293856426248,-0.3734973212313157,-0.18119324336488082,-0.8135955614031303,-0.06915751410256524
9891,7.0,298.00064,2638.1556,0.0,0.0,0.0,0.0,-0.09858171359357175,0.0,-0.2421466912830178,-0.22328680372669177,-0.33649994277745865,-0.19355537081242782,-0.8528843846931351,-0.07396835768960852
9892,7.0,299.74842,2441.6525,0.0,0.0,0.0,0.0,-0.09859168040315557,0.0,-0.23589692413621377,-0.19116759628927282,-0.3151368715115877,-0.21373397297640082,-0.8531572833425682,-0.091606453076603
9893,7.0,300.47343,2389.8548,0.0,0.0,0.0,0.0,-0.0986016472127394,0.0,-0.2243756929466568,-0.2220383884109828,-0.2800421133005047,-0.22686828819265678,-0.8348600839642752,-0.10144555636439691
9894,7.0,300.36662,2573.4487,0.0,0.0,0.0,0.0,-0.0986116140223232,0.0,-0.2360792382267068,-0.24412894285115078,-0.3020559647081027,-0.22195524110777679,-0.8292380049894191,-0.07157890421103784
9895,7.0,298.85081,2645.0014,0.0,0.0,0.0,0.0,-0.09862158083190703,0.0,-0.2254554223857178,-0.2182382851034418,-0.36032067242588167,-0.2239853890081368,-0.8517322382694272,-0.07287547221124913
9896,7.0,299.89956,2485.3974,0.0,0.0,0.0,0.0,-0.09863154764149086,0.0,-0.18591225305561082,-0.2344445314428738,-0.33514197486093766,-0.16772918616858182,-0.8478953945132602,-0.05008016990252795
9897,7.0,300.6762,1957.2583,0.0,0.0,0.0,0.0,-0.09864151445107466,0.0,-0.14789836183643185,-0.15777440923612185,-0.2892848895201957,-0.16860681274269684,-0.8400960234585223,-0.09528880355027272
9898,7.0,300.73146,2063.4581,0.0,0.0,0.0,0.0,-0.0986514812606585,0.0,-0.16748777933225684,-0.17106872677566884,-0.28868324187581773,-0.15020599840917784,-0.8716316089708422,-0.053111023866649947
9899,7.0,299.33455,2522.2889999999998,0.0,0.0,0.0,0.0,-0.09866144807024231,0.0,-0.24567296375103376,-0.20379015941002282,-0.3172497614151137,-0.1907118059967898,-0.8901328667867742,-0.10793595014494889
9900,7.0,299.02603,2801.3022,0.0,0.0,0.0,0.0,-0.09867141487982616,0.0,-0.2817266821217588,-0.19394070982545783,-0.3758585182043476,-0.21065824216534978,-0.8565517117075722,-0.030941199831408674
9901,7.0,299.24072,2430.7309,0.0,0.0,0.0,0.0,-0.09868138168940996,0.0,-0.20032055802009982,-0.21383426447129877,-0.3247266656255267,-0.21857624454179578,-0.8255663412645542,-0.10760674518745889
9902,7.0,299.4676,2315.9301,0.0,0.0,0.0,0.0,-0.09869134849899378,0.0,-0.19966468123036982,-0.19202730860161982,-0.3122929520584147,-0.24506008929554776,-0.8213890252097853,-0.055246975342451946
9903,7.0,298.31484,2651.617,0.0,0.0,0.0,0.0,-0.0987013153085776,0.0,-0.24742806491174876,-0.2206836020997758,-0.3379136799794837,-0.21010459217820882,-0.8441040659515853,-0.07873306293334832
9904,7.0,298.76724,2880.0074,0.0,0.0,0.0,0.0,-0.09871128211816141,0.0,-0.29172814961882676,-0.2262167278483528,-0.35750546848054265,-0.20504432998629982,-0.8603384806437973,-0.04782968367517225
9905,7.0,299.9335,2568.6952,0.0,0.0,0.0,0.0,-0.09872124892774524,0.0,-0.25513200807206876,-0.2023299241609088,-0.3233572783803787,-0.17003117893827083,-0.8281384158483982,-0.05575470584831104
9906,7.0,300.48492000000005,2138.7088,0.0,0.0,0.0,0.0,-0.09873121573732907,0.0,-0.18362372637975083,-0.18086219429220884,-0.2856281408368027,-0.17202651156519486,-0.8339341253603902,-0.04382808241299496
9907,7.0,299.82414,2128.6102,0.0,0.0,0.0,0.0,-0.09874118254691287,0.0,-0.16180229116614284,-0.18625175263411684,-0.29899030560304574,-0.1810442246726738,-0.8348495056332312,-0.07037290861076534
9908,7.0,300.23446,2631.8662,0.0,0.0,0.0,0.0,-0.0987511493564967,0.0,-0.22937617338266578,-0.2055371343049358,-0.3651082994133837,-0.18413415111762582,-0.8272895453121212,-0.03697973979611617
9909,7.0,299.57329,2754.1227,0.0,0.0,0.0,0.0,-0.09876111616608052,0.0,-0.22432211228136878,-0.2646171131856757,-0.34824530488913563,-0.1750843483794798,-0.8416477450591653,-0.09215676440466451
9910,7.0,300.07417999999996,2480.425,0.0,0.0,0.0,0.0,-0.09877108297566435,0.0,-0.1956201718662078,-0.2282037518244568,-0.3301633299645837,-0.2203397860758438,-0.8697666411017841,-0.07392762300908833
9911,7.0,300.06414,2362.7042,0.0,0.0,0.0,0.0,-0.09878104978524817,0.0,-0.20387138153803883,-0.1987060554432608,-0.31562564309482566,-0.21888111123188378,-0.8901955971004651,-0.09544516121295402
9912,7.0,299.54085,2614.5255,0.0,0.0,0.0,0.0,-0.09879101659483198,0.0,-0.2399988442510418,-0.22840973543728577,-0.3263418876099367,-0.22254861049883778,-0.8576766523660951,-0.07096355337230743
9913,7.0,300.63891,2775.7586,0.0,0.0,0.0,0.0,-0.09880098340441582,0.0,-0.23641026703437676,-0.22928341033601077,-0.3780676162048686,-0.18848505717952682,-0.8026150511294382,-0.07587565002859363
9914,7.0,300.64489,2556.2039,0.0,0.0,0.0,0.0,-0.09881095021399962,0.0,-0.24085406786544578,-0.2098316124687678,-0.3263364565894007,-0.1968532769729058,-0.8296971187422302,-0.05411440491067594
9915,7.0,299.58498,2201.6345,0.0,0.0,0.0,0.0,-0.09882091702358345,0.0,-0.17812084614665882,-0.1885429441577398,-0.3025781330146367,-0.19182559077171182,-0.8248026040016793,-0.07224471895774863
9916,7.0,299.28675,2319.3694,0.0,0.0,0.0,0.0,-0.09883088383316728,0.0,-0.22891091933424879,-0.16905043390147884,-0.3070690398428547,-0.20987609414815778,-0.8692024431811022,-0.05130076542349135
9917,7.0,299.40015,2677.9843,0.0,0.0,0.0,0.0,-0.09884085064275108,0.0,-0.25176334665710776,-0.23221181458252177,-0.3300651865598977,-0.17573838105402784,-0.8524434081171142,-0.06124986308914084
9918,7.0,298.24284,2636.7541,0.0,0.0,0.0,0.0,-0.09885081745233491,0.0,-0.2239472502743728,-0.2296702084291848,-0.3478899479465647,-0.2087329960478428,-0.8723589097601211,-0.053107944599596044
9919,7.0,298.98507,2341.5081,0.0,0.0,0.0,0.0,-0.09886078426191873,0.0,-0.17460363213453683,-0.21888321879209177,-0.3182731440161137,-0.1843398712854288,-0.8631757531763141,-0.07473230773500453
9920,7.0,299.85549,2323.3320000000003,0.0,0.0,0.0,0.0,-0.09887075107150256,0.0,-0.1982195738052488,-0.20947411756848577,-0.2985412331587257,-0.19436770355009883,-0.8429738766575441,-0.06904529361423993
9921,7.0,300.89312,2652.8184,0.0,0.0,0.0,0.0,-0.09888071788108638,0.0,-0.22085124432882078,-0.24252400535525576,-0.34301529290797367,-0.19317641527502782,-0.8039800813991562,-0.07280391648918713
9922,7.0,300.82717,2677.349,0.0,0.0,0.0,0.0,-0.0988906846906702,0.0,-0.2741188356009227,-0.21020105358772878,-0.3295273432743167,-0.18003544300561483,-0.8307707585481903,-0.06613360900762903
9923,7.0,301.14029,2424.0295,0.0,0.0,0.0,0.0,-0.09890065150025402,0.0,-0.2212736682955108,-0.19232651122364883,-0.32324425033172366,-0.22310493546624277,-0.8494518885218741,-0.06236196688214694
9924,7.0,300.15584,2095.4051,0.0,0.0,0.0,0.0,-0.09891061830983783,0.0,-0.2004233725077468,-0.14323920482910887,-0.2932882609302977,-0.1953817338526758,-0.8667295049870422,-0.05606588002027154
9925,7.0,300.83614,2227.4703,0.0,0.0,0.0,0.0,-0.09892058511942166,0.0,-0.17725448691365583,-0.20194231546765481,-0.2978985387527967,-0.2160872767311538,-0.8640288185680052,-0.07398724163172223
9926,7.0,300.51653,2557.9555,0.0,0.0,0.0,0.0,-0.09893055192900549,0.0,-0.25185735600138576,-0.21813417365566679,-0.30756306006161066,-0.19832734308588482,-0.8527228320971911,-0.07838505205400233
9927,7.0,299.49055,2667.6418,0.0,0.0,0.0,0.0,-0.09894051873858929,0.0,-0.2072221590887348,-0.2739479205740547,-0.32972640638896267,-0.21939859832295577,-0.8420402680154041,-0.09585234691139011
9928,7.0,299.79807,2534.5951,0.0,0.0,0.0,0.0,-0.09895048554817312,0.0,-0.22256060738002179,-0.24016244361218778,-0.3077305908331447,-0.18598049544984582,-0.8262448743265203,-0.05989766765843954
9929,7.0,300.25015,2243.0532,0.0,0.0,0.0,0.0,-0.09896045235775694,0.0,-0.17232755830240584,-0.2093013685589368,-0.3002032470327537,-0.17939705491261082,-0.8198744696228102,-0.07813155613073422
9930,7.0,299.76242,2363.1606,0.0,0.0,0.0,0.0,-0.09897041916734077,0.0,-0.19584555921845181,-0.2077826485140508,-0.3147136065473147,-0.16735953226709985,-0.8665604340753562,-0.05923751495328754
9931,7.0,299.92962,2564.6825,0.0,0.0,0.0,0.0,-0.09898038597692459,0.0,-0.2053821678346418,-0.2177566366684068,-0.35646062524242467,-0.18162000404199882,-0.8497368043174932,-0.07909229859730213
9932,7.0,300.43084,2320.9205,0.0,0.0,0.0,0.0,-0.0989903527865084,0.0,-0.22747273240731078,-0.17461179893034284,-0.30341735740996173,-0.21289364413846681,-0.8698413682966591,-0.058517504498478035
9933,7.0,300.49692999999996,2156.9336,0.0,0.0,0.0,0.0,-0.09900031959609223,0.0,-0.18119286846234384,-0.19709069160383683,-0.27737040583432776,-0.23281614733966477,-0.8258838533158902,-0.08725048887020283
9934,7.0,299.66736000000003,2354.1717,0.0,0.0,0.0,0.0,-0.09901028640567604,0.0,-0.24324057582597577,-0.18559280569658382,-0.28677604174259175,-0.26043285636772173,-0.8316636446688112,-0.06555428528945423
9935,7.0,299.85621000000003,2589.3182,0.0,0.0,0.0,0.0,-0.09902025321525987,0.0,-0.24719221068597177,-0.2208167836929198,-0.3190790730131527,-0.23862185763014376,-0.8074616594052613,-0.07390772176387422
9936,7.0,300.51635,2721.4601,0.0,0.0,0.0,0.0,-0.0990302200248437,0.0,-0.24009765640079378,-0.24413499195424773,-0.34302325705375963,-0.1953927174837598,-0.8331314184986692,-0.06312735371618473
9937,7.0,300.84941000000003,2629.1795,0.0,0.0,0.0,0.0,-0.09904018683442752,0.0,-0.23458193828893478,-0.2207923238355058,-0.3438306451309427,-0.16030189068306483,-0.8302381942956302,-0.06892429027404784
9938,7.0,300.87562,2446.219,0.0,0.0,0.0,0.0,-0.09905015364401133,0.0,-0.2090956585236348,-0.21471753484847078,-0.3197762904069627,-0.17704992185096682,-0.8668642267203382,-0.08695811048759731
9939,7.0,300.5209,2407.3679,0.0,0.0,0.0,0.0,-0.09906012045359515,0.0,-0.1985284225682298,-0.21676265858530883,-0.3164886484699977,-0.1881819434121118,-0.8653003359859942,-0.08092367722554512
9940,7.0,300.24707,2549.1263,0.0,0.0,0.0,0.0,-0.09907008726317898,0.0,-0.2376256098668218,-0.21559498917006878,-0.32165015461189866,-0.1950590238283268,-0.8362551874969613,-0.058589232473057036
9941,7.0,300.71502999999996,2449.5372,0.0,0.0,0.0,0.0,-0.0990800540727628,0.0,-0.24230442392608476,-0.18341060948621782,-0.3188831104438127,-0.2088539477122798,-0.8166281682899251,-0.03115708999046537
9942,7.0,300.63199,2097.3909,0.0,0.0,0.0,0.0,-0.09909002088234661,0.0,-0.17090341502185386,-0.16509346934595684,-0.30155756724891475,-0.2208816722293238,-0.8419779835317572,-0.04742127093086505
9943,7.0,299.44513,2314.1504,0.0,0.0,0.0,0.0,-0.09909998769193044,0.0,-0.2053323057972208,-0.18699011811448782,-0.3111215234853037,-0.21925592257637477,-0.8576086835493871,-0.06427418260336794
9944,7.0,299.20769,2895.1928,0.0,0.0,0.0,0.0,-0.09910995450151425,0.0,-0.27013445249769474,-0.2340387450428258,-0.37589312069526265,-0.18179248960652183,-0.8742283055321162,-0.06538453955320164
9945,7.0,299.14867999999996,2972.3081,0.0,0.0,0.0,0.0,-0.09911992131109808,0.0,-0.2915097334272707,-0.2538892061619138,-0.35810851441005864,-0.17298240157703385,-0.8601842133160722,-0.08273405320571534
9946,7.0,299.63882,2644.1835,0.0,0.0,0.0,0.0,-0.09912988812068191,0.0,-0.2623218483966508,-0.24723215300491375,-0.2942117472039387,-0.2258783732424598,-0.8477599939023971,-0.08568021567347892
9947,7.0,300.10844,2329.7128,0.0,0.0,0.0,0.0,-0.09913985493026573,0.0,-0.18682672140336182,-0.20590734549397283,-0.3154404412415477,-0.2112021852165328,-0.8211104624922932,-0.07968903299194523
9948,7.0,300.14396,2241.9276,0.0,0.0,0.0,0.0,-0.09914982173984954,0.0,-0.15963620563236683,-0.21711841069541882,-0.3047353931400417,-0.2011024425922658,-0.8069647210262172,-0.062042637060131536
9949,7.0,300.41329,2224.4423,0.0,0.0,0.0,0.0,-0.09915978854943336,0.0,-0.15444200190973884,-0.18435027736395582,-0.3373826254695727,-0.18878424966905483,-0.8396405675385722,-0.06277473862838434
9950,7.0,300.91741,2265.4213,0.0,0.0,0.0,0.0,-0.09916975535901719,0.0,-0.2037028476489058,-0.17570442704317685,-0.30922422280555467,-0.18845164019122881,-0.8966543369478931,-0.06190580067387685
9951,7.0,301.34247999999997,2271.0688,0.0,0.0,0.0,0.0,-0.099179722168601,0.0,-0.19882884109037882,-0.19404766850601382,-0.2974716868831697,-0.19915408423997782,-0.8832471838772102,-0.062153505872823436
9952,7.0,300.85323999999997,2339.5356,0.0,0.0,0.0,0.0,-0.09918968897818482,0.0,-0.24708641724303076,-0.17887245480583683,-0.28520153214719973,-0.18224515908869682,-0.8640461856747191,-0.06735055074873185
9953,7.0,300.69501,2764.6634,0.0,0.0,0.0,0.0,-0.09919965578776865,0.0,-0.24855315755778676,-0.2327871481218028,-0.3590483444078127,-0.17889264888032982,-0.8198522186506142,-0.07210857158156193
9954,7.0,300.30266,3013.3379,0.0,0.0,0.0,0.0,-0.09920962259735246,0.0,-0.2851696856965567,-0.2598474409899458,-0.37096234173363263,-0.19012741400161481,-0.8080549072063102,-0.07049089550540973
9955,7.0,300.60992000000005,2626.462,0.0,0.0,0.0,0.0,-0.09921958940693629,0.0,-0.2295866254284358,-0.22369390735186978,-0.34509833246355365,-0.2026722507071938,-0.8325715775534173,-0.06514740356604815
9956,7.0,299.84635,2187.7275,0.0,0.0,0.0,0.0,-0.09922955621652012,0.0,-0.19097366022013282,-0.19299997803511482,-0.28104088405657573,-0.2146125722706118,-0.8357902576885763,-0.08005249694856632
9957,7.0,299.93021,2397.2839,0.0,0.0,0.0,0.0,-0.09923952302610393,0.0,-0.23537824141002375,-0.17280650135967385,-0.3205297026513187,-0.2083154458141338,-0.8728594451770202,-0.061909021795944735
9958,7.0,299.43425,2617.5389999999998,0.0,0.0,0.0,0.0,-0.09924948983568775,0.0,-0.2658780218751178,-0.2038518258111088,-0.3259366483649427,-0.1979846416370628,-0.8649881536301842,-0.06471269090214533
9959,7.0,299.89977000000005,2344.8031,0.0,0.0,0.0,0.0,-0.09925945664527157,0.0,-0.2017375173574428,-0.17812169727674282,-0.3329023780324067,-0.20364076581527882,-0.8430007987127013,-0.06540328366680154
9960,7.0,300.29157000000004,2129.7785,0.0,0.0,0.0,0.0,-0.0992694234548554,0.0,-0.16940251804622683,-0.16189480090027283,-0.3161021644843547,-0.17257923949474485,-0.8185741860344822,-0.05215236261578745
9961,7.0,300.4382,2362.3709,0.0,0.0,0.0,0.0,-0.0992793902644392,0.0,-0.18589356872376683,-0.2145555870849878,-0.31765259925737066,-0.2041650518145218,-0.8451665296089422,-0.04822216508815716
9962,7.0,300.54675,2808.7097,0.0,0.0,0.0,0.0,-0.09928935707402303,0.0,-0.24871186292094974,-0.25710019572881376,-0.3479655668015276,-0.1851325672361618,-0.8787761468834532,-0.05955111788573775
9963,7.0,300.49525,2854.7163,0.0,0.0,0.0,0.0,-0.09929932388360686,0.0,-0.29214812152027475,-0.2422980201854528,-0.33331632109575965,-0.17812733094729882,-0.9124365887829802,-0.06126920806005003
9964,7.0,300.37167,2438.3525,0.0,0.0,0.0,0.0,-0.09930929069319067,0.0,-0.23160799858292974,-0.2177887668290778,-0.2918014886610647,-0.16715267725918484,-0.8782288499744391,-0.07865616434350901
9965,7.0,299.72072000000003,2098.9548,0.0,0.0,0.0,0.0,-0.0993192575027745,0.0,-0.15781653004277885,-0.17139006891238284,-0.3088232392109807,-0.2039592100567068,-0.8760127504157271,-0.08839507644816483
9966,7.0,298.58715,2253.3288,0.0,0.0,0.0,0.0,-0.09932922431235831,0.0,-0.18145067981778784,-0.1968976978572898,-0.3066073119047857,-0.2255626445112998,-0.8249341238646591,-0.08934065765348642
9967,7.0,298.41504,2505.7386,0.0,0.0,0.0,0.0,-0.09933919112194214,0.0,-0.2190853115245368,-0.19204596253596082,-0.3505506920466596,-0.2224847858750388,-0.8147313033077193,-0.08200519707753283
9968,7.0,299.31257,2377.5553,0.0,0.0,0.0,0.0,-0.09934915793152595,0.0,-0.21514572420822978,-0.18668280949165883,-0.3208889099442697,-0.19139428060164482,-0.8375760805923232,-0.07317359470867153
9969,7.0,300.51696,2119.2633,0.0,0.0,0.0,0.0,-0.09935912474110978,0.0,-0.2072277218317838,-0.16737094146322584,-0.26960444163538677,-0.18132089261247883,-0.8399066774123352,-0.07425323599497384
9970,7.0,300.40232000000003,2437.4184,0.0,0.0,0.0,0.0,-0.09936909155069358,0.0,-0.21953725146663977,-0.19661496054938582,-0.3247621293790267,-0.17517910752883184,-0.8557247273734553,-0.07368174368682193
9971,7.0,300.47401,2855.2923,0.0,0.0,0.0,0.0,-0.09937905836027741,0.0,-0.24114076698124076,-0.2526233426794828,-0.37417347315554667,-0.17330559796143083,-0.8576130810548213,-0.06867431032862673
9972,7.0,300.06511,2822.0589,0.0,0.0,0.0,0.0,-0.09938902516986123,0.0,-0.25212086182239174,-0.24620268077081275,-0.35951188606356066,-0.2062988754651138,-0.8417237084191623,-0.05122772731653305
9973,7.0,300.58147,2594.7247,0.0,0.0,0.0,0.0,-0.09939899197944506,0.0,-0.20752719803133982,-0.2435549468020018,-0.33764939395590066,-0.1980608380445828,-0.8596857550618783,-0.04918586523176695
9974,7.0,300.78406,2376.5976,0.0,0.0,0.0,0.0,-0.09940895878902888,0.0,-0.2277742655045698,-0.2059088045741168,-0.28874326681174173,-0.2122952591594108,-0.8526282857303601,-0.07587468541449842
9975,7.0,301.83812,2490.9984,0.0,0.0,0.0,0.0,-0.09941892559861269,0.0,-0.26083092180200773,-0.19680187479533282,-0.2995685066401097,-0.20008255570411082,-0.8645960359739853,-0.06953889738720484
9976,7.0,300.73557,2529.4968,0.0,0.0,0.0,0.0,-0.09942889240819652,0.0,-0.24542136361870276,-0.17656280186539183,-0.34691972044581065,-0.1871062669734508,-0.8601067908759311,-0.07627219558772963
9977,7.0,300.26191,2368.1146,0.0,0.0,0.0,0.0,-0.09943885921778033,0.0,-0.18572418370454982,-0.19115822372584781,-0.34296530928054064,-0.18535976830608483,-0.8575083819219881,-0.05524179054169025
9978,7.0,300.25526,2254.2713,0.0,0.0,0.0,0.0,-0.09944882602736416,0.0,-0.16745836468185385,-0.17737023047257883,-0.34041358075870465,-0.19278052832845682,-0.8221662083014872,-0.07517335929153292
9979,7.0,300.1615,2548.1715,0.0,0.0,0.0,0.0,-0.09945879283694797,0.0,-0.2033266684167798,-0.20294457180406983,-0.3683092679367947,-0.23067074224042974,-0.8374194118618612,-0.06626268288486764
9980,7.0,300.34129,2875.468,0.0,0.0,0.0,0.0,-0.0994687596465318,0.0,-0.2683107441727087,-0.24924542015860776,-0.35651432749772466,-0.2361869669773388,-0.8182319709457082,-0.07767935477010542
9981,7.0,299.75586,2738.8663,0.0,0.0,0.0,0.0,-0.09947872645611562,0.0,-0.2592164293576698,-0.24002581696870376,-0.3333047092496137,-0.2172881807496738,-0.8615997135732711,-0.06994355401339135
9982,7.0,299.55695,2545.5538,0.0,0.0,0.0,0.0,-0.09948869326569944,0.0,-0.2025639038740008,-0.25210093119292476,-0.3191199475221867,-0.2057599682669278,-0.8551663860383512,-0.09619071266303421
9983,7.0,299.61322,2408.6129,0.0,0.0,0.0,0.0,-0.09949866007528327,0.0,-0.2138978560475748,-0.2023316669510808,-0.3159286656697317,-0.1946026255857838,-0.8694092677915142,-0.054848754880900644
9984,7.0,300.26853,2331.8602,0.0,0.0,0.0,0.0,-0.09950862688486707,0.0,-0.1866696777703628,-0.2028614042358618,-0.31929617197957866,-0.2081474793450568,-0.8686661400356732,-0.06651881427164584
9985,7.0,300.57473999999996,2483.9511,0.0,0.0,0.0,0.0,-0.0995185936944509,0.0,-0.22608984867083076,-0.19462165442266183,-0.3343475969150387,-0.1913562735903938,-0.8484801208809682,-0.05642349651056554
9986,7.0,300.93456000000003,2488.522,0.0,0.0,0.0,0.0,-0.09952856050403473,0.0,-0.24998452531155177,-0.18706211966659383,-0.31940189449501266,-0.19652899641090182,-0.8251426406027382,-0.06564826018322885
9987,7.0,300.3517,2328.6845,0.0,0.0,0.0,0.0,-0.09953852731361854,0.0,-0.22861589130263177,-0.18891750218970582,-0.2903285269906947,-0.16686213792551083,-0.8289598678369692,-0.07783832357829443
9988,7.0,300.6945,2451.2651,0.0,0.0,0.0,0.0,-0.09954849412320237,0.0,-0.2156826353037188,-0.1998651324976528,-0.3295756145090807,-0.2005011090554188,-0.8504584613037153,-0.08259408891640192
9989,7.0,299.5753,2779.0202,0.0,0.0,0.0,0.0,-0.09955846093278618,0.0,-0.26321135026193776,-0.23209218014321478,-0.34944921826045267,-0.1930473069472858,-0.8752841830638232,-0.07249568479551702
9990,7.0,299.62743,2924.2993,0.0,0.0,0.0,0.0,-0.09956842774237001,0.0,-0.24111750275894475,-0.26319580700540374,-0.38460066781463065,-0.2011500653469658,-0.8719950212517081,-0.054666294882393246
9991,7.0,300.19807000000003,2655.5551,0.0,0.0,0.0,0.0,-0.09957839455195383,0.0,-0.24666717488165477,-0.23754975796433575,-0.3230055083431617,-0.18914441954960082,-0.8439017807016213,-0.057534802875742946
9992,7.0,299.7453,2255.4812,0.0,0.0,0.0,0.0,-0.09958836136153765,0.0,-0.18398855721075683,-0.19132152924446483,-0.31029987897921374,-0.1997114832524888,-0.8330332446964802,-0.042324130488316465
9993,7.0,299.61352999999997,2386.6474,0.0,0.0,0.0,0.0,-0.09959832817112148,0.0,-0.23379713555648077,-0.2022687947823758,-0.2894152948080657,-0.2132132232200068,-0.8490011239498871,-0.06590428213899624
9994,7.0,299.62003,2676.8489,0.0,0.0,0.0,0.0,-0.09960829498070528,0.0,-0.2143461381568168,-0.2398116158975638,-0.35953746049608465,-0.17620222668480584,-0.8406013008858892,-0.06204963456532215
9995,7.0,299.62273999999996,2555.402,0.0,0.0,0.0,0.0,-0.09961826179028911,0.0,-0.2520915687620008,-0.22186587244895678,-0.3028209482686007,-0.18153566110367483,-0.8679556591980542,-0.07438771150849552
9996,7.0,300.56767,2447.7822,0.0,0.0,0.0,0.0,-0.09962822859987294,0.0,-0.1769500356561088,-0.22793256556769279,-0.33918207658716465,-0.1992660078460238,-0.8686804065970811,-0.07077528339772662
9997,7.0,301.19587,2303.1732,0.0,0.0,0.0,0.0,-0.09963819540945675,0.0,-0.2105605141932048,-0.2152071271642898,-0.2743394809426987,-0.24189115974029876,-0.8991975136388851,-0.08733751286829142
9998,7.0,300.59859,2491.0673,0.0,0.0,0.0,0.0,-0.09964816221904058,0.0,-0.2059009417533408,-0.2187918438980738,-0.3325294614656027,-0.2092168533680958,-0.8496689773557992,-0.08060504553284863
9999,7.0,301.36011,2791.7621,0.0,0.0,0.0,0.0,-0.09965812902862439,0.0,-0.27056763718044674,-0.24576215002483576,-0.3322961910275807,-0.17581377699396883,-0.8163804083754732,-0.0986792690941356
10000,7.0,300.73049,2483.3352,0.0,0.0,0.0,0.0,-0.09966809583820822,0.0,-0.2064736104448588,-0.21128999347019878,-0.3371082880049977,-0.16876233650054584,-0.8204394578785702,-0.07565042682286584
10001,7.0,299.8979,2109.1631,0.0,0.0,0.0,0.0,-0.09967806264779204,0.0,-0.2034967829760688,-0.16631483088399585,-0.27132131286982875,-0.1919422969182298,-0.8670442002031002,-0.07938884447756892
10002,7.0,300.25916,2472.7457,0.0,0.0,0.0,0.0,-0.09968802945737586,0.0,-0.2030538812248578,-0.2117741952954858,-0.3368248616870257,-0.1971202075792498,-0.8695986442352043,-0.030562958635329172
10003,7.0,299.74986,2710.7623,0.0,0.0,0.0,0.0,-0.09969799626695969,0.0,-0.27522574040766573,-0.2272039576857848,-0.32157436350441865,-0.1815055979732078,-0.8642056915054612,-0.047447207093674754
10004,7.0,299.39729,2657.2094,0.0,0.0,0.0,0.0,-0.09970796307654349,0.0,-0.24322426249936577,-0.2227047726042498,-0.34179628211016666,-0.19033187773929383,-0.8636674125223371,-0.028103983027647175
10005,7.0,300.06913,2452.324,0.0,0.0,0.0,0.0,-0.09971792988612732,0.0,-0.22066650857058878,-0.2220853829506208,-0.30269336994850965,-0.21426347721365877,-0.8653368737846002,-0.07498309524075533
10006,7.0,299.7152,2227.959,0.0,0.0,0.0,0.0,-0.09972789669571115,0.0,-0.19629093329990682,-0.2001332080766098,-0.28081976248725277,-0.2207832451146098,-0.8242779127023963,-0.06918463475474185
10007,7.0,300.26813,2505.7028,0.0,0.0,0.0,0.0,-0.09973786350529495,0.0,-0.24959273189538478,-0.21645346531729381,-0.2956248663234027,-0.18644529353571782,-0.8084350786438302,-0.1128909761814719
10008,7.0,300.18878,2764.1893,0.0,0.0,0.0,0.0,-0.09974783031487879,0.0,-0.2572723671858057,-0.23608847906761876,-0.34688368927225466,-0.17764545959724184,-0.8590618361803022,-0.07888339277118472
10009,7.0,300.24529,2453.5908,0.0,0.0,0.0,0.0,-0.0997577971244626,0.0,-0.24283212457816475,-0.18897815534069182,-0.3140200469863657,-0.18866628709241282,-0.9177371027061001,-0.08333279586205662
10010,7.0,300.82563999999996,2228.1667,0.0,0.0,0.0,0.0,-0.09976776393404643,0.0,-0.17159954823805681,-0.17836322570307983,-0.3273442655363637,-0.18555645028299583,-0.8921977792980651,-0.06745345946863814
10011,7.0,301.51063,2489.9734,0.0,0.0,0.0,0.0,-0.09977773074363025,0.0,-0.1843284620893028,-0.22877339089817578,-0.34378789610922367,-0.16600700550361583,-0.8509018899449782,-0.08457799917494863
10012,7.0,300.69297,2733.3173,0.0,0.0,0.0,0.0,-0.09978769755321407,0.0,-0.22223968067584876,-0.22182782490770178,-0.3867927128159686,-0.1888119316617868,-0.8198515093755442,-0.05702553324298194
10013,7.0,300.37602000000004,2739.4443,0.0,0.0,0.0,0.0,-0.0997976643627979,0.0,-0.2423917356872018,-0.25324633950346775,-0.3370845880851587,-0.20962225473310578,-0.8712296425236712,-0.06641411513881285
10014,7.0,299.44484,2469.1727,0.0,0.0,0.0,0.0,-0.0998076311723817,0.0,-0.2073403851104028,-0.21017932950558482,-0.3330471309416927,-0.2278478578593328,-0.8729441224878772,-0.05690878859296015
10015,7.0,299.77464,2452.5161,0.0,0.0,0.0,0.0,-0.09981759798196553,0.0,-0.2353916771063498,-0.2018022640388328,-0.3083097037952987,-0.2035321048745548,-0.8666848713201373,-0.05259760497472945
10016,7.0,299.60067000000004,2638.9553,0.0,0.0,0.0,0.0,-0.09982756479154936,0.0,-0.20824336320201983,-0.22872749066864578,-0.36520567274799365,-0.20209951108816882,-0.8791577774011172,-0.07345277145572413
10017,7.0,299.12681000000003,2647.808,0.0,0.0,0.0,0.0,-0.09983753160113316,0.0,-0.23129772113730776,-0.2145859136604808,-0.35898389156895166,-0.19243760396461282,-0.8721653891235223,-0.08222397803912483
10018,7.0,299.70569,2535.2386,0.0,0.0,0.0,0.0,-0.099847498410717,0.0,-0.23705102613261478,-0.20416767613228082,-0.3294305373597627,-0.2036740814785668,-0.8289904477249872,-0.08769129015395652
10019,7.0,300.09486,2262.8156,0.0,0.0,0.0,0.0,-0.09985746522030081,0.0,-0.2239888948534828,-0.17857911890188682,-0.28527142613909773,-0.20402421005062182,-0.7996203499288842,-0.07603140683396563
10020,7.0,300.25835,2198.7123,0.0,0.0,0.0,0.0,-0.09986743202988464,0.0,-0.2109758048791908,-0.16133978302549684,-0.29603803931667966,-0.23213274054471775,-0.8531199856063872,-0.07301402099017283
10021,7.0,300.94025,2654.6040000000003,0.0,0.0,0.0,0.0,-0.09987739883946846,0.0,-0.2561133407939188,-0.21785520563813482,-0.33296477397356466,-0.2147481046039878,-0.9016389093573322,-0.05626318007974355
10022,7.0,301.14777000000004,2805.7148,0.0,0.0,0.0,0.0,-0.09988736564905228,0.0,-0.24960069604117074,-0.2016027753591448,-0.4016637792336286,-0.21598260799582378,-0.9016147838724511,-0.043194766649991556
10023,7.0,300.01358999999997,2585.9575,0.0,0.0,0.0,0.0,-0.0998973324586361,0.0,-0.2329533515357058,-0.22856076036469075,-0.3245524068733287,-0.15372770111924283,-0.8483871146542892,-0.06614765062751483
10024,7.0,300.83272999999997,2598.5417,0.0,0.0,0.0,0.0,-0.09990729926821991,0.0,-0.22522642786311778,-0.2179689834918638,-0.3466964001237707,-0.19149488620407382,-0.8295654063617313,-0.056079249855341046
10025,7.0,300.71794,2731.7307,0.0,0.0,0.0,0.0,-0.09991726607780374,0.0,-0.2507347052880888,-0.2339757208866058,-0.3456674851772247,-0.2070749845117098,-0.8354202491495593,-0.06195351766083614
10026,7.0,299.62492000000003,2591.7208,0.0,0.0,0.0,0.0,-0.09992723288738757,0.0,-0.2379115186475388,-0.24664625126708975,-0.3032606481494957,-0.2073626766126028,-0.8297255302750342,-0.049021129004008755
10027,7.0,299.09776,2348.0525,0.0,0.0,0.0,0.0,-0.09993719969697137,0.0,-0.2241601341203828,-0.18544228739422883,-0.3041469177469637,-0.1990028870600558,-0.8286817610820222,-0.07643610601665632
10028,7.0,299.61336,2199.1103,0.0,0.0,0.0,0.0,-0.0999471665065552,0.0,-0.16058098029060885,-0.2042192100323668,-0.3036744392253337,-0.2056183361679498,-0.8663771776622702,-0.090910978472965
10029,7.0,299.1226,2211.2349,0.0,0.0,0.0,0.0,-0.09995713331613902,0.0,-0.17849920386649984,-0.18251972960079482,-0.3111412717297527,-0.2072694981334068,-0.8888486330800301,-0.11794977929323688
10030,7.0,299.68061,2545.1497,0.0,0.0,0.0,0.0,-0.09996710012572285,0.0,-0.21850094992686478,-0.19160113560955983,-0.3635598810080667,-0.19235036313100282,-0.8481661146749783,-0.07817336485636042
10031,7.0,300.08758,2659.2228,0.0,0.0,0.0,0.0,-0.09997706693530667,0.0,-0.2598212687398628,-0.2173794441861808,-0.3311366174806397,-0.2018217488382558,-0.8215971873103293,-0.07957199449939442
10032,7.0,299.89862,2461.1038,0.0,0.0,0.0,0.0,-0.09998703374489049,0.0,-0.2515418501852478,-0.18205433369736382,-0.3145179276880027,-0.21886936766322482,-0.8434733481618382,-0.05276128539588345
10033,7.0,300.61858,2462.6201,0.0,0.0,0.0,0.0,-0.09999700055447432,0.0,-0.22894873382798078,-0.2098976561102858,-0.3097286187053347,-0.24861280759117377,-0.8819269595269142,-0.053815726138948645
10034,7.0,301.75192999999996,2765.6317,0.0,0.0,0.0,0.0,-0.10000696736405812,0.0,-0.23792192472606577,-0.24122008419906876,-0.36154098018381664,-0.18886135800166481,-0.8612562217893712,-0.05302910664906535
10035,7.0,300.71317999999997,2872.2917,0.0,0.0,0.0,0.0,-0.10001693417364195,0.0,-0.27551713087142377,-0.22864470813547577,-0.36894310653684964,-0.17351332436443181,-0.8526133098938823,-0.03033788741711637
10036,7.0,300.34891,2639.5897,0.0,0.0,0.0,0.0,-0.10002690098322578,0.0,-0.24444073003942177,-0.2190454097355988,-0.33888320833766866,-0.16096237776074984,-0.8781711656462462,-0.06611135803543304
10037,7.0,300.14223,2208.7927,0.0,0.0,0.0,0.0,-0.10003686779280958,0.0,-0.22264379521323177,-0.16165509632411584,-0.2871189255764317,-0.21769081594191078,-0.8881620548122702,-0.04073990382446546
10038,7.0,300.15225,2193.8615,0.0,0.0,0.0,0.0,-0.10004683460239341,0.0,-0.21245608221528278,-0.14693963472431285,-0.30748339833874866,-0.1981543103663078,-0.8470795052677382,-0.06187232998332354
10039,7.0,300.46628,2689.5099,0.0,0.0,0.0,0.0,-0.10005680141197723,0.0,-0.25097395390170074,-0.23247229078572879,-0.3340976078503667,-0.1997516180889498,-0.8183231938522112,-0.08641678871442302
10040,7.0,299.09304,2737.1908,0.0,0.0,0.0,0.0,-0.10006676822156106,0.0,-0.2316073197053628,-0.22632967483699976,-0.37410067113586165,-0.1993707373763598,-0.8392191770869842,-0.1000815849410334
10041,7.0,298.99914,2463.2114,0.0,0.0,0.0,0.0,-0.10007673503114488,0.0,-0.21251764729135883,-0.2169708510833558,-0.31926625070412573,-0.22349938359767177,-0.8854278298149231,-0.08760376155731811
10042,7.0,299.40758999999997,2360.7942,0.0,0.0,0.0,0.0,-0.1000867018407287,0.0,-0.1928138237267428,-0.20774011227485278,-0.3170685416347287,-0.2088031028222618,-0.8754631534289862,-0.08220555512580661
10043,7.0,299.95387,2472.4516,0.0,0.0,0.0,0.0,-0.10009666865031253,0.0,-0.24527736051449076,-0.1925523748034398,-0.3137338240981177,-0.2084324255381788,-0.8519675149426472,-0.05031373722282925
10044,7.0,300.59927999999996,2652.1853,0.0,0.0,0.0,0.0,-0.10010663545989633,0.0,-0.24604663012291178,-0.24815956055644178,-0.3119919154537047,-0.19327058673932182,-0.8413401020638032,-0.07385422925134492
10045,7.0,300.82563,2428.2512,0.0,0.0,0.0,0.0,-0.10011660226948016,0.0,-0.20126293127560482,-0.2157700078598418,-0.3210948023645897,-0.21344569319044981,-0.8574407170803102,-0.07033760596403123
10046,7.0,300.2887,2198.7031,0.0,0.0,0.0,0.0,-0.10012656907906399,0.0,-0.14704653260986286,-0.2317169128361788,-0.28958740547005174,-0.16089487503908784,-0.8501905275797722,-0.10113517151426431
10047,7.0,300.57543,2443.5746,0.0,0.0,0.0,0.0,-0.10013653588864779,0.0,-0.2076054817340658,-0.19659356070727382,-0.3385866199008977,-0.16415003217784685,-0.8536997166511022,-0.07940702117111283
10048,7.0,300.47045,2673.3691,0.0,0.0,0.0,0.0,-0.10014650269823162,0.0,-0.24646085689629277,-0.21990036990497677,-0.3462762255723027,-0.1855637456837158,-0.8808172682823961,-0.08952180853286461
10049,7.0,298.74879,2546.0716,0.0,0.0,0.0,0.0,-0.10015646950781544,0.0,-0.2538052685236297,-0.1853488049400028,-0.33478809726351266,-0.21304723258862482,-0.9139132690812172,-0.047265300329721954
10050,7.0,298.75038,2346.3342,0.0,0.0,0.0,0.0,-0.10016643631739924,0.0,-0.21796537632150778,-0.15571867677073684,-0.3395429658752817,-0.21678872951038178,-0.8629556347245901,-0.07084819586167253
10051,7.0,299.10267999999996,2559.0643,0.0,0.0,0.0,0.0,-0.10017640312698309,0.0,-0.2431000076396028,-0.18520500448581084,-0.34958662510651367,-0.2047833066280388,-0.8059449253305713,-0.02958230073804577
10052,7.0,299.26645,2848.5228,0.0,0.0,0.0,0.0,-0.1001863699365669,0.0,-0.2754710077268717,-0.23219315051567976,-0.35821564534313166,-0.2202205468040758,-0.8253452703577362,-0.09737066570923651
10053,7.0,298.83584,2866.6976,0.0,0.0,0.0,0.0,-0.10019633674615074,0.0,-0.2973624281248867,-0.2096589242542248,-0.36438314671431665,-0.2065009276675548,-0.8465497983804602,-0.008249235860636191
10054,7.0,299.90324,2564.6378,0.0,0.0,0.0,0.0,-0.10020630355573454,0.0,-0.23287623307059477,-0.21782086659224578,-0.3288887626637937,-0.18185971875065685,-0.8839654059455931,-0.07378902458090973
10055,7.0,300.23649,2418.2548,0.0,0.0,0.0,0.0,-0.10021627036531837,0.0,-0.24175588071944779,-0.17997199328435284,-0.3133611912413417,-0.17869990844630781,-0.8545904749465133,8.364986613634901e-05
10056,7.0,300.40474,2569.2381,0.0,0.0,0.0,0.0,-0.1002262371749022,0.0,-0.2282562077821338,-0.22388885667110978,-0.3288391539388977,-0.22006969412918778,-0.8647626852179321,-0.08139186868600203
10057,7.0,300.01575,2688.4602,0.0,0.0,0.0,0.0,-0.100236203984486,0.0,-0.2213839200388918,-0.24092105382955678,-0.3549198062128577,-0.2215031289131568,-0.8653593172743151,-0.058259667811781546
10058,7.0,298.88849,2472.6281,0.0,0.0,0.0,0.0,-0.10024617079406983,0.0,-0.2109828570998868,-0.2111741283212638,-0.3294602154551917,-0.21450200641969977,-0.8391071217584252,-0.11291850618668889
10059,7.0,299.06501000000003,2173.5947,0.0,0.0,0.0,0.0,-0.10025613760365365,0.0,-0.19572228721128582,-0.16799626876244084,-0.29699995816661373,-0.1791693674826398,-0.8279514306749441,-0.1034522880549459
10060,7.0,299.70117999999997,2163.8474,0.0,0.0,0.0,0.0,-0.10026610441323748,0.0,-0.17906523576986283,-0.18354838110231483,-0.29514196145824373,-0.18395607241255083,-0.8834999999096612,-0.1113586380552419
10061,7.0,298.95714,2314.6639,0.0,0.0,0.0,0.0,-0.1002760712228213,0.0,-0.1987016275403238,-0.17362555194550783,-0.3312728286915827,-0.21298338769982378,-0.9260212531386821,-0.100168102314072
10062,7.0,298.5172,2572.8103,0.0,0.0,0.0,0.0,-0.10028603803240511,0.0,-0.20439592084980682,-0.2336600124204478,-0.3440141548565537,-0.19371780493595883,-0.9023100254285662,-0.08465262808456392
10063,7.0,299.07496000000003,2532.9587,0.0,0.0,0.0,0.0,-0.10029600484198894,0.0,-0.2232978481527818,-0.21335673996417082,-0.3333016087043077,-0.18054106493801583,-0.8333319710909621,-0.08008990310250802
10064,7.0,300.05826,2422.2091,0.0,0.0,0.0,0.0,-0.10030597165157275,0.0,-0.22343658235647376,-0.22887894116109278,-0.28397556032120574,-0.2099232609403128,-0.8169556811197483,-0.07638695021455502
10065,7.0,300.21358,2516.7232,0.0,0.0,0.0,0.0,-0.10031593846115658,0.0,-0.2502801207632248,-0.21691893214823177,-0.29782195731023875,-0.2289907229121248,-0.8363620853825112,-0.061118807294706645
10066,7.0,300.32527999999996,2656.7622,0.0,0.0,0.0,0.0,-0.10032590527074041,0.0,-0.25843875990591975,-0.2005016562104728,-0.34864896346397367,-0.22881435659971877,-0.8417855572052663,-0.046625881761366256
10067,7.0,299.60537999999997,2579.1253,0.0,0.0,0.0,0.0,-0.10033587208032421,0.0,-0.23776471897305076,-0.21396859103705576,-0.3322563804311517,-0.2006468650823038,-0.8599388142743533,-0.03705370907991636
10068,7.0,300.00116,2450.1419,0.0,0.0,0.0,0.0,-0.10034583888990804,0.0,-0.21417577028500281,-0.17151038222925682,-0.35909581517499767,-0.2067445737866008,-0.8746940459405811,-0.048809552250627754
10069,7.0,299.58754,2405.4228,0.0,0.0,0.0,0.0,-0.10035580569949186,0.0,-0.21542206790800278,-0.17749397870729183,-0.3382724110448877,-0.2110700168734888,-0.8992083452824542,-0.06208683908249395
10070,7.0,300.28339,2353.445,0.0,0.0,0.0,0.0,-0.10036577250907569,0.0,-0.2144665122686968,-0.1932505142548408,-0.30767148795481175,-0.18447246519351482,-0.8523522460056171,-0.08355784985501773
10071,7.0,299.70685,2478.9767,0.0,0.0,0.0,0.0,-0.1003757393186595,0.0,-0.25941569512233575,-0.17365080213799983,-0.32048052962396567,-0.18563603094584982,-0.8176921923524362,-0.059187573882358735
10072,7.0,298.92318,2682.4433,0.0,0.0,0.0,0.0,-0.10038570612824332,0.0,-0.24602469325824677,-0.23985221682907076,-0.32951888263598167,-0.15518663940822885,-0.8514619943352562,-0.08373019153802652
10073,7.0,298.83464,2492.419,0.0,0.0,0.0,0.0,-0.10039567293782714,0.0,-0.24996811065993174,-0.1970527149900888,-0.3106123349125507,-0.2289649863595848,-0.8939889420298391,-0.05002224847381155
10074,7.0,299.70953,2478.2887,0.0,0.0,0.0,0.0,-0.10040563974741096,0.0,-0.17995264020744284,-0.23443824929225376,-0.33894698229896264,-0.2039041297812708,-0.8775327572882401,-0.07743576336656482
10075,7.0,299.40215,2571.9056,0.0,0.0,0.0,0.0,-0.10041560655699479,0.0,-0.23304244661699877,-0.22761968406931377,-0.32113294109835366,-0.2047348327432548,-0.8704627135229811,-0.06675856343080723
10076,7.0,299.77668,2568.7477,0.0,0.0,0.0,0.0,-0.1004255733665786,0.0,-0.22980005642949977,-0.2129964484936128,-0.33803864411431667,-0.18513647838154781,-0.8436290745697071,-0.08235667631197113
10077,7.0,299.07962000000003,2301.24,0.0,0.0,0.0,0.0,-0.10043554017616244,0.0,-0.1978184990181658,-0.2130917041355138,-0.2886092948835198,-0.2033475616338418,-0.8427663225070602,-0.0905923781910216
10078,7.0,301.23102,2187.8663,0.0,0.0,0.0,0.0,-0.10044550698574624,0.0,-0.15708924951850187,-0.18481927030524184,-0.3231481942222437,-0.1999677848652838,-0.8353002195427132,-0.07836413350568783
10079,7.0,300.55748,2423.0549,0.0,0.0,0.0,0.0,-0.10045547379533007,0.0,-0.2068494958344558,-0.19615547189403781,-0.3335432080581517,-0.1959437938156468,-0.8438827214672402,-0.06026024502122314
10080,7.0,300.18746,2531.4554,0.0,0.0,0.0,0.0,-0.10046544060491387,0.0,-0.19472086173995282,-0.22817421558404177,-0.3466041639671677,-0.19498764035878183,-0.8992105136376682,-0.07872651227145183
10081,7.0,299.63761,2480.6375,0.0,0.0,0.0,0.0,-0.1004754074144977,0.0,-0.2388623322763768,-0.18514241602713383,-0.33004711017811367,-0.18759141112133082,-0.9164629812353541,-0.07036156324939563
10082,7.0,300.71034,2314.6377,0.0,0.0,0.0,0.0,-0.10048537422408152,0.0,-0.2177102500788288,-0.17875325606407283,-0.3071285581537287,-0.2017732850859728,-0.8888254397852411,-0.07116424376661404
10083,7.0,299.99785,2502.1146,0.0,0.0,0.0,0.0,-0.10049534103366535,0.0,-0.25220913617110374,-0.18811917256841681,-0.3202520417264157,-0.19654510708749182,-0.8531592389152612,-0.05883416845948035
10084,7.0,298.91162,2865.3609,0.0,0.0,0.0,0.0,-0.10050530784324915,0.0,-0.2963241000849117,-0.21773742544651079,-0.35693662987440267,-0.23196938436359577,-0.8314753017402232,-0.04883626253651386
10085,7.0,297.46654,2745.8693,0.0,0.0,0.0,0.0,-0.10051527465283298,0.0,-0.27414669997867275,-0.2174884394994378,-0.3430405836304697,-0.21977348059495377,-0.8437321525023802,-0.04003916133355756
10086,7.0,299.88087,2459.5866,0.0,0.0,0.0,0.0,-0.10052524146241681,0.0,-0.21202951405568382,-0.1951974337919868,-0.3404259424099247,-0.20832711845528581,-0.8460251780086843,-0.03875301663712496
10087,7.0,300.34533,2454.4974,0.0,0.0,0.0,0.0,-0.10053520827200062,0.0,-0.23828105095900878,-0.17499470614313284,-0.3328301738302807,-0.19320262805511482,-0.8739216149918482,-0.03447950869736257
10088,7.0,299.49489,2701.9133,0.0,0.0,0.0,0.0,-0.10054517508158445,0.0,-0.2548563229848608,-0.23050684903675475,-0.3359510044032827,-0.17653948698059083,-0.8654152790773381,-0.05154889720073005
10089,7.0,299.60402,2685.1935,0.0,0.0,0.0,0.0,-0.10055514189116826,0.0,-0.24634415074977475,-0.2180042243303418,-0.35188339963818765,-0.18633477834731083,-0.859478332633907,-0.06057851397038384
10090,7.0,299.30059,2510.3778,0.0,0.0,0.0,0.0,-0.10056510870075208,0.0,-0.2042024306107108,-0.2261367418854588,-0.33275298443766266,-0.18350789162831882,-0.8288975326908172,-0.08726280188541802
10091,7.0,300.36989,2434.5172,0.0,0.0,0.0,0.0,-0.10057507551033591,0.0,-0.2040387603220578,-0.23064275627266778,-0.3053509121782887,-0.2079998792029898,-0.8402922292078862,-0.09628402286474322
10092,7.0,299.95741,2428.8454,0.0,0.0,0.0,0.0,-0.10058504231991973,0.0,-0.20412096530267082,-0.2146424124860568,-0.3195449654091327,-0.2114684977403158,-0.8598558493561651,-0.1015000996172799
10093,7.0,298.14574,2345.9046,0.0,0.0,0.0,0.0,-0.10059500912950356,0.0,-0.21367297532038082,-0.21899446352057078,-0.28042898232118574,-0.1932507574348648,-0.8920264387061551,-0.11191278453493188
10094,7.0,298.46353999999997,2355.0301,0.0,0.0,0.0,0.0,-0.10060497593908736,0.0,-0.2039582272041098,-0.1910827467258988,-0.32082936123589273,-0.18410716826746282,-0.8957231195759892,-0.09100572141031542
10095,7.0,299.52981,2376.6443,0.0,0.0,0.0,0.0,-0.1006149427486712,0.0,-0.1984942861723608,-0.20866886744901383,-0.3152773687704537,-0.16699446838857085,-0.8851799483104592,-0.08409547225207692
10096,7.0,299.62339,2330.1814,0.0,0.0,0.0,0.0,-0.10062490955825502,0.0,-0.1975139160381058,-0.1951335483731818,-0.3156695066916547,-0.23348977627114678,-0.8774031524679492,-0.07140620181099343
10097,7.0,299.77429,2536.0222,0.0,0.0,0.0,0.0,-0.10063487636783883,0.0,-0.22303624724196378,-0.2184580489176308,-0.3293931382985717,-0.2114175008627828,-0.8376986129269162,-0.06900219400798634
10098,7.0,299.88312,2694.4106,0.0,0.0,0.0,0.0,-0.10064484317742266,0.0,-0.23368520181793379,-0.21681694852566677,-0.3685313723587147,-0.21578298759362277,-0.8302346377877793,-0.04393443213024086
10099,7.0,300.33627,2726.7031,0.0,0.0,0.0,0.0,-0.10065480998700647,0.0,-0.2541187275745658,-0.2263056912071328,-0.34842524797439467,-0.18156127606620284,-0.8455843534201782,-0.06548533665989953
10100,7.0,300.24597,2615.4835,0.0,0.0,0.0,0.0,-0.10066477679659029,0.0,-0.24259483153724576,-0.19140153547236083,-0.3610453083673976,-0.1943263325485158,-0.8799324577650721,-0.04573963344215036
10101,7.0,300.6779,2654.7977,0.0,0.0,0.0,0.0,-0.10067474360617412,0.0,-0.2670669087474517,-0.1910365830513428,-0.34888870857013465,-0.1879563432773468,-0.8993428744982312,-0.06298505185889064
10102,7.0,300.16524,2537.9528,0.0,0.0,0.0,0.0,-0.10068471041575794,0.0,-0.2397426135657538,-0.17857988897196284,-0.35315176584836566,-0.20577475158588682,-0.8634809339739332,-0.03182810676318957
10103,7.0,299.15196000000003,2401.3532,0.0,0.0,0.0,0.0,-0.10069467722534177,0.0,-0.2556665785598268,-0.18053265496218582,-0.29375218762108374,-0.2240557085650768,-0.8545024539103262,-0.04517278283270655
10104,7.0,299.43095,2582.5098,0.0,0.0,0.0,0.0,-0.10070464403492557,0.0,-0.23630385550887475,-0.2070664529458678,-0.34164819560805165,-0.2121831531683468,-0.8362425522682142,-0.051230926147098746
10105,7.0,300.66437,2415.0373,0.0,0.0,0.0,0.0,-0.1007146108445094,0.0,-0.2343187871054638,-0.1898908910307718,-0.30990136771488375,-0.2319862144477568,-0.8499774714812451,-0.07682652647893783
10106,7.0,299.6809,2279.1913,0.0,0.0,0.0,0.0,-0.10072457765409323,0.0,-0.18039355598845783,-0.20643856212389983,-0.3059851054158787,-0.16236052104373583,-0.8663005658222092,-0.07218947453579644
10107,7.0,299.16497000000004,2504.5914,0.0,0.0,0.0,0.0,-0.10073454446367704,0.0,-0.21088715562794177,-0.2206934204932448,-0.3297526799640557,-0.1782624681131358,-0.8910809750378452,-0.09429621058006142
10108,7.0,298.44088,2555.4111,0.0,0.0,0.0,0.0,-0.10074451127326087,0.0,-0.2204782770995118,-0.2114598141869588,-0.3448430744983617,-0.15953586347496385,-0.8936458048834741,-0.08967129635986791
10109,7.0,299.01205,2325.8823,0.0,0.0,0.0,0.0,-0.10075447808284468,0.0,-0.1895747772645738,-0.2118299443159878,-0.3056054203384067,-0.1940179600130818,-0.8813290811729082,-0.11580755579931588
10110,7.0,300.27881,2161.3219,0.0,0.0,0.0,0.0,-0.1007644448924285,0.0,-0.16274565740674585,-0.18584110263358883,-0.3084011394843227,-0.2037809489666138,-0.8406347077416862,-0.08832709344595542
10111,7.0,299.71379,2342.9056,0.0,0.0,0.0,0.0,-0.10077441170201233,0.0,-0.2027177659016858,-0.2193417752573478,-0.2901252487556327,-0.2163060272952428,-0.8147597857680302,-0.09670369180441131
10112,7.0,298.89117000000005,2665.9163,0.0,0.0,0.0,0.0,-0.10078437851159615,0.0,-0.24535285777944177,-0.2334526710524848,-0.3315664584380617,-0.2275460410520458,-0.8350626529242672,-0.06654148878238364
10113,7.0,298.67728999999997,2691.4717,0.0,0.0,0.0,0.0,-0.10079434532117998,0.0,-0.24821519811943277,-0.23039379059059675,-0.3395312020416207,-0.2051054188348288,-0.8704617408028852,-0.06866583753129053
10114,7.0,299.59918,2493.6119,0.0,0.0,0.0,0.0,-0.10080431213076378,0.0,-0.2297577431053238,-0.2004060155335338,-0.3278319934719987,-0.2171389796724488,-0.8922995906681132,-0.028871778357172674
10115,7.0,300.09839,2531.4636,0.0,0.0,0.0,0.0,-0.10081427894034761,0.0,-0.2082232603200358,-0.21122628030391077,-0.3500522033949626,-0.1935450153964058,-0.8870801671504961,-0.05368035693883874
10116,7.0,299.79624,2774.1359,0.0,0.0,0.0,0.0,-0.10082424574993144,0.0,-0.26461408356787675,-0.2102995313649478,-0.36835443862625267,-0.1975858770602078,-0.8697004150752482,-0.04887619978920536
10117,7.0,300.13382,2930.3435,0.0,0.0,0.0,0.0,-0.10083421255951525,0.0,-0.2907548114402657,-0.23530936066822578,-0.36468707108181164,-0.1996890600277758,-0.8337012500899071,-0.08499274878538123
10118,7.0,300.17638,2620.7005,0.0,0.0,0.0,0.0,-0.10084417936909908,0.0,-0.24477532548744377,-0.2157469766850688,-0.33610521093600165,-0.18860226995109483,-0.8325908799678223,-0.06679821899997095
10119,7.0,300.03812999999997,2349.4621,0.0,0.0,0.0,0.0,-0.1008541461786829,0.0,-0.2030010098346398,-0.18918891136149182,-0.3219878911352307,-0.2033133847079688,-0.8687931509357082,-0.08594272344313643
10120,7.0,300.01037,2542.8177,0.0,0.0,0.0,0.0,-0.10086411298826672,0.0,-0.2156901941494648,-0.21499675617852781,-0.3422661261815367,-0.19744772040907282,-0.8844065243766281,-0.06675951892565153
10121,7.0,300.45937000000004,2548.1758,0.0,0.0,0.0,0.0,-0.10087407979785054,0.0,-0.23088247098132578,-0.20739665088845582,-0.3363026731154897,-0.2050699956113328,-0.8915693210560411,-0.06936779997531883
10122,7.0,298.89495,2302.8432,0.0,0.0,0.0,0.0,-0.10088404660743436,0.0,-0.2020933201300578,-0.1915791683473918,-0.3063343423278457,-0.20702295411907481,-0.8546056635655122,-0.05308429027601155
10123,7.0,299.04764,2274.3589,0.0,0.0,0.0,0.0,-0.10089401341701819,0.0,-0.19917174518922082,-0.19288536931630382,-0.2992911902202407,-0.2247271286113408,-0.8516019241740661,-0.08712073712864732
10124,7.0,299.68056,2577.5376,0.0,0.0,0.0,0.0,-0.10090398022660199,0.0,-0.23266962124270377,-0.24069876702261878,-0.31013869115330567,-0.1973908872109638,-0.8446711719000541,-0.09589649016524672
10125,7.0,299.7336,2691.8672,0.0,0.0,0.0,0.0,-0.10091394703618582,0.0,-0.24858164001809777,-0.23907649281751275,-0.3306022800404047,-0.18369931483721083,-0.8566030024276341,-0.08395611692607362
10126,7.0,299.51601,2648.1057,0.0,0.0,0.0,0.0,-0.10092391384576965,0.0,-0.2217489433874168,-0.23638948527482576,-0.3468195708059267,-0.17531700073494083,-0.8771982935627312,-0.08576024216637691
10127,7.0,300.41868999999997,2445.0807,0.0,0.0,0.0,0.0,-0.10093388065535346,0.0,-0.19453899347950382,-0.23302883866815577,-0.3156756571197617,-0.16948737774210185,-0.8744497006789661,-0.07336691370850063
10128,7.0,299.84346,2277.5525,0.0,0.0,0.0,0.0,-0.10094384746493729,0.0,-0.18232999851956982,-0.17869313993563982,-0.33129595105886467,-0.2186119514753198,-0.8636608669266912,-0.07797789573981913
10129,7.0,300.14817,2616.7333,0.0,0.0,0.0,0.0,-0.1009538142745211,0.0,-0.20536641179558682,-0.24103499380330176,-0.3490201777706096,-0.18953699316834483,-0.8453570307602433,-0.0972567196559909
10130,7.0,300.37482,2582.9975,0.0,0.0,0.0,0.0,-0.10096378108410493,0.0,-0.2402253157808928,-0.1910620156288528,-0.35387943140768063,-0.22951012504588578,-0.8441320519193473,-0.05827862268140224
10131,7.0,300.34172,2403.6677,0.0,0.0,0.0,0.0,-0.10097374789368875,0.0,-0.22158712734644678,-0.1968754874150978,-0.3121923464559857,-0.2042529309956948,-0.8529075374579203,-0.062234264945543745
10132,7.0,300.56644,2431.7499,0.0,0.0,0.0,0.0,-0.10098371470327257,0.0,-0.2229623407796698,-0.19698535412344081,-0.3192435539018857,-0.24030251530601177,-0.89601524971232,-0.03621335491072986
10133,7.0,299.34847,2648.8512,0.0,0.0,0.0,0.0,-0.1009936815128564,0.0,-0.26801813780883077,-0.19414752430336882,-0.3430189507408347,-0.21542393228818676,-0.8946474634023301,-0.03930750052909826
10134,7.0,300.48854,2872.6651,0.0,0.0,0.0,0.0,-0.1010036483224402,0.0,-0.2848568041981777,-0.23197173510382776,-0.35638992065044667,-0.21376559651202182,-0.8766066770943431,-0.03957273799452517
10135,7.0,300.18534,2830.4629,0.0,0.0,0.0,0.0,-0.10101361513202403,0.0,-0.26860980493972375,-0.23815861994942575,-0.3536216200522367,-0.18418571541521483,-0.8627717602289431,-0.07638888957524642
10136,7.0,299.9651,2760.9268,0.0,0.0,0.0,0.0,-0.10102358194160786,0.0,-0.2623063152726178,-0.23476888293238476,-0.34217760865280067,-0.2113897074125398,-0.8296083681659713,-0.06702268733437423
10137,7.0,300.05016,2628.6315,0.0,0.0,0.0,0.0,-0.10103354875119167,0.0,-0.24501503006360076,-0.21680562038954881,-0.33721766835329264,-0.2149280679542488,-0.8369049746535902,-0.08020708345007282
10138,7.0,300.83108,2526.04,0.0,0.0,0.0,0.0,-0.1010435155607755,0.0,-0.1993368846905188,-0.2019917620725348,-0.36652445828314767,-0.2071783562869118,-0.8273433286274292,-0.05468569152905754
10139,7.0,300.09938,2363.282,0.0,0.0,0.0,0.0,-0.10105348237035931,0.0,-0.18421684245828682,-0.20218226322383578,-0.33197960103383567,-0.20624152550945382,-0.8533716566662253,-0.07772677588803553
10140,7.0,300.10042000000004,2514.0116,0.0,0.0,0.0,0.0,-0.10106344917994314,0.0,-0.1977311771245478,-0.2236010227152028,-0.34286455169059665,-0.18861063939692083,-0.8762232024614971,-0.06875840603392634
10141,7.0,300.30893,2468.9429999999998,0.0,0.0,0.0,0.0,-0.10107341598952696,0.0,-0.21653715977555382,-0.2131182208906308,-0.32084164182710473,-0.2083803039530348,-0.8863662615275393,-0.099916441386735
10142,7.0,300.51275,2434.5757,0.0,0.0,0.0,0.0,-0.10108338279911078,0.0,-0.22425647393989076,-0.23254861891576178,-0.2832451285891177,-0.2146821622874798,-0.8760952897688731,-0.1000696204838526
10143,7.0,300.48663,2528.5998,0.0,0.0,0.0,0.0,-0.10109334960869461,0.0,-0.2280651088132738,-0.2123187564292298,-0.3282473449529907,-0.19792548809622482,-0.8589797527897012,-0.08758626070159091
10144,7.0,300.07851,2631.3567,0.0,0.0,0.0,0.0,-0.10110331641827841,0.0,-0.23246811619531677,-0.2255926265817588,-0.3418060093111267,-0.20207737157348382,-0.8655020335509002,-0.07096463653666434
10145,7.0,299.56362,2546.0507,0.0,0.0,0.0,0.0,-0.10111328322786224,0.0,-0.22076438853024877,-0.2213709200401088,-0.3318005293436627,-0.1960824570918318,-0.8931026116373652,-0.06580056889851053
10146,7.0,299.70754,2475.883,0.0,0.0,0.0,0.0,-0.10112325003744607,0.0,-0.21856031625022376,-0.17771550557665483,-0.35633077724210965,-0.20046552371190682,-0.8918211441033942,-0.04184652796093075
10147,7.0,300.53423,2583.1065,0.0,0.0,0.0,0.0,-0.10113321684702987,0.0,-0.23540556876522079,-0.21190743768363582,-0.3378868592493367,-0.1900572768296928,-0.8968669269513743,-0.07037532926525424
10148,7.0,299.84346,2618.4688,0.0,0.0,0.0,0.0,-0.1011431836566137,0.0,-0.24892511153699576,-0.18414852913654484,-0.36287548122802166,-0.17073622875535382,-0.8962177376123042,-0.05891998770320004
10149,7.0,298.59488,2730.9894,0.0,0.0,0.0,0.0,-0.10115315046619752,0.0,-0.25297830445451475,-0.22553934989150076,-0.35163492031616467,-0.2034841781448248,-0.8437752460291331,-0.06919560318707434
10150,7.0,299.00448,2691.0098,0.0,0.0,0.0,0.0,-0.10116311727578135,0.0,-0.24897542953696175,-0.2195962834174658,-0.34942807173086565,-0.2057963135480148,-0.7937630854733172,-0.058476048383886654
10151,7.0,299.3404,2577.7315,0.0,0.0,0.0,0.0,-0.10117308408536517,0.0,-0.2145427289412188,-0.2024318469884678,-0.36659143411475764,-0.2366494447204818,-0.8183743629822612,-0.054284897412252245
10152,7.0,299.37925,2545.2904,0.0,0.0,0.0,0.0,-0.10118305089494899,0.0,-0.22246143046023378,-0.21586332819405182,-0.3353799771769267,-0.2130072396071778,-0.8391416431893323,-0.08033853035904563
10153,7.0,300.56958,2541.8528,0.0,0.0,0.0,0.0,-0.10119301770453282,0.0,-0.22328375384389076,-0.2226802620843308,-0.3266957449423597,-0.2145981942516928,-0.9229360180416932,-0.07313862238147002
10154,7.0,300.59,2405.6029,0.0,0.0,0.0,0.0,-0.10120298451411662,0.0,-0.23084248813237976,-0.21324787637342682,-0.28715283905727873,-0.2077290374512598,-0.909027974916576,-0.09130100478095761
10155,7.0,300.85742,2345.2424,0.0,0.0,0.0,0.0,-0.10121295132370045,0.0,-0.2019153630149948,-0.2072936540157908,-0.3036861118664857,-0.20513998079573978,-0.91035922342796,-0.07983231770183633
10156,7.0,300.04391,2512.4359,0.0,0.0,0.0,0.0,-0.10122291813328428,0.0,-0.2210136379223478,-0.21414119819159078,-0.32856294196163766,-0.19291619238434582,-0.8747179079804361,-0.09962542278576371
10157,7.0,300.34886,2536.6731,0.0,0.0,0.0,0.0,-0.10123288494286808,0.0,-0.1981491630557998,-0.22025678062765178,-0.3526793278567397,-0.17882637219128883,-0.8529333956004722,-0.07922187403334022
10158,7.0,299.703,2467.3307,0.0,0.0,0.0,0.0,-0.10124285175245192,0.0,-0.1992597560929068,-0.2176646842218318,-0.3330824832376817,-0.1981154724899748,-0.8608770939994541,-0.1086325291911959
10159,7.0,299.72936,2442.9406,0.0,0.0,0.0,0.0,-0.10125281856203573,0.0,-0.1966207968699618,-0.1959634913975908,-0.35000865390566466,-0.17676202710005384,-0.8658136586191552,-0.07590479110146964
10160,7.0,298.38974,2338.6233,0.0,0.0,0.0,0.0,-0.10126278537161956,0.0,-0.2158776555504658,-0.19267643714568383,-0.30232900521254974,-0.2141442886043958,-0.8922274979234981,-0.09658672018636709
10161,7.0,299.44867999999997,2414.8301,0.0,0.0,0.0,0.0,-0.10127275218120338,0.0,-0.2174754597656568,-0.1985285441582418,-0.31804402790350167,-0.1980923399901918,-0.8737049213254622,-0.06627506581433974
10162,7.0,299.00282999999996,2449.9033,0.0,0.0,0.0,0.0,-0.1012827189907872,0.0,-0.23422733115143776,-0.18487836305107383,-0.32560372477958566,-0.2394964545864598,-0.8520235476731772,-0.05386207625152305
10163,7.0,299.98533,2661.0858,0.0,0.0,0.0,0.0,-0.10129268580037103,0.0,-0.22690388366866981,-0.23765901672261877,-0.3443407253637837,-0.22012024517667678,-0.8041443799028712,-0.05124056114229965
10164,7.0,300.08644,2743.6996,0.0,0.0,0.0,0.0,-0.10130265260995483,0.0,-0.25256512132873676,-0.21115675108204882,-0.3702942856777007,-0.24513643769058277,-0.8458645880003353,-0.04958774352617925
10165,7.0,300.08147,2879.6156,0.0,0.0,0.0,0.0,-0.10131261941953866,0.0,-0.27990442274441574,-0.22923176497841377,-0.3661950506756376,-0.2175724278002268,-0.8944693948297562,-0.07299705209074814
10166,7.0,299.92211000000003,2843.3848,0.0,0.0,0.0,0.0,-0.10132258622912249,0.0,-0.2860643956673577,-0.21677021743105482,-0.36148337691563165,-0.19324200295400082,-0.8970703065114463,-0.05951186559011385
10167,7.0,299.9306,2665.2028,0.0,0.0,0.0,0.0,-0.1013325530387063,0.0,-0.2434374705854078,-0.1956659910357298,-0.3710516394649456,-0.16031205358156783,-0.9014200878657362,-0.059024793227293544
10168,7.0,299.81003,2527.9899,0.0,0.0,0.0,0.0,-0.10134251984829012,0.0,-0.2271562336060748,-0.1947840581486898,-0.34650553420243363,-0.19418965524252682,-0.8640118668938321,-0.06335806367120403
10169,7.0,299.61264,2442.889,0.0,0.0,0.0,0.0,-0.10135248665787394,0.0,-0.2217788342653668,-0.18579653989419084,-0.3350018727696107,-0.22472261964839577,-0.8565594630708372,-0.051367862845113355
10170,7.0,300.58196,2249.6662,0.0,0.0,0.0,0.0,-0.10136245346745777,0.0,-0.18718411497863383,-0.21607520892246276,-0.28058302673388874,-0.2056699713930458,-0.8264066397049852,-0.08630246471889011
10171,7.0,301.69413,2255.2494,0.0,0.0,0.0,0.0,-0.10137242027704159,0.0,-0.2003568425061808,-0.20678649194323778,-0.27839615944056173,-0.2054398318978328,-0.8430601650360603,-0.08097028470364492
10172,7.0,300.71072000000004,2660.7808,0.0,0.0,0.0,0.0,-0.1013823870866254,0.0,-0.22759567004194378,-0.25978072860336177,-0.32143451472561674,-0.18986597521081283,-0.884604564108673,-0.11730916205001288
10173,7.0,300.39982000000003,2854.869,0.0,0.0,0.0,0.0,-0.10139235389620924,0.0,-0.2522190052270778,-0.24743660661009176,-0.36815328821640064,-0.22473580203219679,-0.9162599867103202,-0.087715451102591
10174,7.0,300.50793999999996,2771.202,0.0,0.0,0.0,0.0,-0.10140232070579304,0.0,-0.22604752521415378,-0.23848646715178176,-0.37784221872012363,-0.2202397276284688,-0.8795310486054562,-0.08980249400931611
10175,7.0,300.60958999999997,2504.3091,0.0,0.0,0.0,0.0,-0.10141228751537687,0.0,-0.2004043943333738,-0.21992393810230282,-0.34091911149859666,-0.21371674772470078,-0.8402339673271362,-0.07768241073240703
10176,7.0,299.83397,2366.6651,0.0,0.0,0.0,0.0,-0.10142225432496069,0.0,-0.18872137750034984,-0.2072475714012428,-0.3234381458708597,-0.2309912535120618,-0.8294642232067453,-0.08228334233598363
10177,7.0,299.48005,2533.135,0.0,0.0,0.0,0.0,-0.1014322211345445,0.0,-0.24363331156473575,-0.1943213980205288,-0.3320550679012837,-0.23762311727157578,-0.8665890482581802,-0.06749733218471803
10178,7.0,299.98613,2821.0355,0.0,0.0,0.0,0.0,-0.10144218794412833,0.0,-0.27107384679790575,-0.23329346919677277,-0.35315705501388767,-0.18459497726310584,-0.8996402634025812,-0.05824859400143865
10179,7.0,299.20694,2606.6034,0.0,0.0,0.0,0.0,-0.10145215475371215,0.0,-0.24728336266496775,-0.1970037750102588,-0.3480551989053737,-0.16961364896956385,-0.8934809288272022,-0.05884687664223454
10180,7.0,299.18586,2429.9837,0.0,0.0,0.0,0.0,-0.10146212156329598,0.0,-0.21840570441746482,-0.19417420317850181,-0.32607447064354467,-0.14452797789630087,-0.9046982052517611,-0.04106143746544836
10181,7.0,300.29197,2705.5040000000004,0.0,0.0,0.0,0.0,-0.10147208837287978,0.0,-0.2345545805362348,-0.2165852587578008,-0.3712658101385826,-0.2166304801097638,-0.8754764675353002,-0.06824156539641814
10182,7.0,300.69847999999996,2917.5979,0.0,0.0,0.0,0.0,-0.10148205518246362,0.0,-0.28526708942866974,-0.23976002120247175,-0.36184979854929467,-0.2045214017421908,-0.8356211563793872,-0.04351485539633186
10183,7.0,300.08139,2735.9788,0.0,0.0,0.0,0.0,-0.10149202199204743,0.0,-0.25955969822654773,-0.23986460887779376,-0.33224493070502165,-0.24397458433091676,-0.8268544557191813,-0.09054170758002081
10184,7.0,300.28477000000004,2532.4764,0.0,0.0,0.0,0.0,-0.10150198880163125,0.0,-0.2280800542522488,-0.21084118447090477,-0.3308883712061397,-0.21051449237366282,-0.8550139830908101,-0.05866673597320604
10185,7.0,298.75386000000003,2457.5579,0.0,0.0,0.0,0.0,-0.10151195561121507,0.0,-0.2092899998928148,-0.2046311468605218,-0.3331150794933987,-0.2314782417751238,-0.8986590725357452,-0.07300457952574103
10186,7.0,299.27956,2480.6378,0.0,0.0,0.0,0.0,-0.1015219224207989,0.0,-0.21420666428055177,-0.1988937904217888,-0.34095147470679066,-0.1955163441284608,-0.886636596654219,-0.07214077368299002
10187,7.0,299.10555,2478.0395,0.0,0.0,0.0,0.0,-0.10153188923038271,0.0,-0.1986280858480658,-0.21870992262748878,-0.33592411274562867,-0.2057218396656648,-0.8525861851887052,-0.09275559926676491
10188,7.0,299.38066000000003,2381.297,0.0,0.0,0.0,0.0,-0.10154185603996653,0.0,-0.1962036215387898,-0.2173494114532168,-0.3103018041544037,-0.19396644637799781,-0.8502737356779843,-0.0967600345894719
10189,7.0,299.25936,2399.8245,0.0,0.0,0.0,0.0,-0.10155182284955036,0.0,-0.2074292471441728,-0.2097263053858748,-0.3123311617196857,-0.2012224215366068,-0.8443749178358163,-0.09905806251151959
10190,7.0,300.57819,2743.0091,0.0,0.0,0.0,0.0,-0.10156178965913416,0.0,-0.24784714515310877,-0.2412651332985148,-0.34469399501114867,-0.1901684404981638,-0.8611848281873251,-0.11047154772519288
10191,7.0,300.24719,2710.0496,0.0,0.0,0.0,0.0,-0.101571756468718,0.0,-0.2392362418282788,-0.23762615702187578,-0.3469249994788317,-0.17558100304849583,-0.8605972039243311,-0.08366055288515373
10192,7.0,300.10157000000004,2337.3659,0.0,0.0,0.0,0.0,-0.10158172327830181,0.0,-0.1956918289132798,-0.1919583164023108,-0.3228507242578857,-0.1976930181257818,-0.9115935241697761,-0.07243325947010613
10193,7.0,300.07632,2349.2333,0.0,0.0,0.0,0.0,-0.10159169008788564,0.0,-0.18128450680138783,-0.21406316780138981,-0.3187605983742217,-0.19613546020456282,-0.9197618398509261,-0.04164856928889376
10194,7.0,300.96876000000003,2739.5207,0.0,0.0,0.0,0.0,-0.10160165689746944,0.0,-0.25976269275158176,-0.21625396650510478,-0.35672922771143367,-0.2254316414058708,-0.8888810773482322,-0.06317564926895114
10195,7.0,299.63207,2750.4643,0.0,0.0,0.0,0.0,-0.10161162370705328,0.0,-0.23820379063888375,-0.23040240321644676,-0.3674662641185967,-0.21835229600469377,-0.8321709992588832,-0.05372498857924354
10196,7.0,300.39648,2515.1371,0.0,0.0,0.0,0.0,-0.1016215905166371,0.0,-0.23789385769829577,-0.19541749144870482,-0.3312275262796117,-0.2205518491892728,-0.8607455032089673,-0.07213102216402764
10197,7.0,300.06664,2563.8886,0.0,0.0,0.0,0.0,-0.10163155732622091,0.0,-0.24146756040349276,-0.19032486604860183,-0.3475656977820637,-0.21796240749871482,-0.8508383085012031,-0.05670909017050145
10198,7.0,299.88403999999997,2617.3205,0.0,0.0,0.0,0.0,-0.10164152413580474,0.0,-0.2802213673756957,-0.18824964878379383,-0.3271290512151237,-0.1920096476523768,-0.8613214041683042,-0.06626509036710523
10199,7.0,299.09443999999996,2702.1366,0.0,0.0,0.0,0.0,-0.10165149094538856,0.0,-0.2565402129285478,-0.22845724673447482,-0.33638460451857566,-0.19041277562727782,-0.8688915071229152,-0.08329224863280492
10200,7.0,299.26272,2735.4267,0.0,0.0,0.0,0.0,-0.1016614577549724,0.0,-0.26159109242453077,-0.2312202986971668,-0.3386900119411017,-0.21559364154743577,-0.892567696644573,-0.07290173869359143
10201,7.0,298.84711,2675.9867,0.0,0.0,0.0,0.0,-0.1016714245645562,0.0,-0.22892720226335578,-0.22881068863435677,-0.35569525664688867,-0.19835105313822482,-0.8762230808714853,-0.08700474025719931
10202,7.0,299.53102,2552.2171,0.0,0.0,0.0,0.0,-0.10168139137414002,0.0,-0.22198024812024478,-0.22007423348963578,-0.3337557777966307,-0.20077659149260682,-0.8454381616957501,-0.08440696762431912
10203,7.0,299.223,2336.2509,0.0,0.0,0.0,0.0,-0.10169135818372385,0.0,-0.1970977032945288,-0.19107043573718382,-0.3219937983833137,-0.19678517643368482,-0.8372341897435812,-0.0981455548027121
10204,7.0,299.81509,2344.1587,0.0,0.0,0.0,0.0,-0.10170132499330765,0.0,-0.17811412829849582,-0.2054458202059238,-0.32900576265284065,-0.2159018722278558,-0.8904613827341962,-0.07865516527891042
10205,7.0,299.80155,2431.0964,0.0,0.0,0.0,0.0,-0.10171129180289148,0.0,-0.1954529855997078,-0.1982940983501038,-0.34524552730558067,-0.2067570874253358,-0.9086632960730852,-0.07201778437260194
10206,7.0,300.93391,2539.0352,0.0,0.0,0.0,0.0,-0.10172125861247532,0.0,-0.2104215469419898,-0.2186155383806738,-0.3427662259008927,-0.19021747167050282,-0.9007711113091871,-0.09555559230160271
10207,7.0,300.52988999999997,2426.9976,0.0,0.0,0.0,0.0,-0.10173122542205912,0.0,-0.2026521579577108,-0.20949289309283878,-0.3256016172193777,-0.19819461745528583,-0.8661079976407041,-0.09325079890863731
10208,7.0,300.59536,2581.2155,0.0,0.0,0.0,0.0,-0.10174119223164295,0.0,-0.21105958039745878,-0.2185312663698568,-0.35503422241414967,-0.1903565706442308,-0.8625296745150511,-0.1026208960828939
10209,7.0,299.33099999999996,2864.2832,0.0,0.0,0.0,0.0,-0.10175115904122677,0.0,-0.27492628447311174,-0.24738560973255877,-0.34835865717782266,-0.2325645978698388,-0.8578347801767012,-0.09032968094359542
10210,7.0,298.89202,2883.4828,0.0,0.0,0.0,0.0,-0.10176112585081058,0.0,-0.2970927617432727,-0.2279418266736068,-0.35147219235010463,-0.19260881283400982,-0.8505310606733802,-0.07850569265065863
10211,7.0,299.52199,2536.4651,0.0,0.0,0.0,0.0,-0.10177109266039441,0.0,-0.2469172146088318,-0.21701638654284977,-0.30708847397977274,-0.23096409840938179,-0.8646220055740481,-0.08580616975365961
10212,7.0,299.64959,2295.5446,0.0,0.0,0.0,0.0,-0.10178105946997823,0.0,-0.22338958781683577,-0.17423308657296685,-0.30016555412903373,-0.1987665768717338,-0.9081083693908181,-0.04309642667478616
10213,7.0,299.96164,2597.2746,0.0,0.0,0.0,0.0,-0.10179102627956206,0.0,-0.23745576888505976,-0.19553542362784382,-0.35651543194033364,-0.2075050686491558,-0.8945796263081351,-0.06952628141020974
10214,7.0,300.13867,2664.1092,0.0,0.0,0.0,0.0,-0.10180099308914586,0.0,-0.24360744328968276,-0.2017745921786018,-0.3644406283924897,-0.17299878583115083,-0.8338699663640582,-0.053648128492908044
10215,7.0,299.61336,2396.6885,0.0,0.0,0.0,0.0,-0.1018109598987297,0.0,-0.2115248445783768,-0.2000815120565078,-0.31692710205326974,-0.18683364190154483,-0.8228057514996052,-0.08074739501289743
10216,7.0,299.75518999999997,2432.1663,0.0,0.0,0.0,0.0,-0.10182092670831352,0.0,-0.1975442730111018,-0.21513136645431283,-0.3266421744095727,-0.1960396168776038,-0.8774315538682522,-0.060741810369749946
10217,7.0,300.15522000000004,2862.7875,0.0,0.0,0.0,0.0,-0.10183089351789733,0.0,-0.26034337625139076,-0.2593459632504537,-0.35052656656177866,-0.2137782216082678,-0.8794566355181122,-0.08802142020878782
10218,7.0,300.72913,3029.627,0.0,0.0,0.0,0.0,-0.10184086032748116,0.0,-0.26854404500823376,-0.26301633001519076,-0.38937058319038464,-0.2107260691270438,-0.8915713576887421,-0.08132573283872492
10219,7.0,300.30655,2700.3986,0.0,0.0,0.0,0.0,-0.10185082713706498,0.0,-0.23268907564462377,-0.22725577529589877,-0.36090889450643465,-0.2171695291629638,-0.8831603382111392,-0.10379285154605691
10220,7.0,300.53493,2277.0598,0.0,0.0,0.0,0.0,-0.10186079394664879,0.0,-0.17123898318997183,-0.18620329901433483,-0.33472704894498767,-0.2123094750583138,-0.8997940038402541,-0.06367362724259773
10221,7.0,300.70468,2173.2017,0.0,0.0,0.0,0.0,-0.10187076075623262,0.0,-0.19895144435247883,-0.17850345951691984,-0.2831441379516507,-0.18644816103350084,-0.8621854227935762,-0.06569858831569583
10222,7.0,301.0811,2688.2809,0.0,0.0,0.0,0.0,-0.10188072756581644,0.0,-0.25569377419251077,-0.22392243577942378,-0.3375540673864927,-0.18368202879050483,-0.8206698506863083,-0.07978305246872422
10223,7.0,299.69751,2665.6152,0.0,0.0,0.0,0.0,-0.10189069437540027,0.0,-0.26011840433168776,-0.2122645070188758,-0.3378975490378917,-0.1989353944708948,-0.8444759692682892,-0.08026395312518543
10224,7.0,300.10982,2400.2164,0.0,0.0,0.0,0.0,-0.10190066118498407,0.0,-0.2021032803785408,-0.22156038767630779,-0.3059421942741437,-0.2003955993225058,-0.8964929160744621,-0.08524269529354901
10225,7.0,299.11366,2382.1831,0.0,0.0,0.0,0.0,-0.1019106279945679,0.0,-0.19259310745745983,-0.2010000941996648,-0.3305309776308677,-0.21333256381678478,-0.8932057604975452,-0.08436943380086483
10226,7.0,299.96938,2869.8936,0.0,0.0,0.0,0.0,-0.10192059480415173,0.0,-0.25731793304280276,-0.24261600846433576,-0.37244204151716764,-0.19459901841542782,-0.8606172156138061,-0.08238348083011651
10227,7.0,300.53316,3055.3198,0.0,0.0,0.0,0.0,-0.10193056161373554,0.0,-0.3014767301559367,-0.2580097700785818,-0.36925443776257566,-0.21396707116190578,-0.8401884318676422,-0.07180734043283273
10228,7.0,300.21373,2609.3693,0.0,0.0,0.0,0.0,-0.10194052842331937,0.0,-0.2354768711747578,-0.2066718426944228,-0.3510343872468967,-0.23039600960831577,-0.8623010447624871,-0.05366220051029685
10229,7.0,299.3682,2332.4173,0.0,0.0,0.0,0.0,-0.10195049523290318,0.0,-0.2292477743299938,-0.18463513236456883,-0.2951137120454557,-0.20794070539714982,-0.8890818528555472,-0.04554678661686786
10230,7.0,300.03826000000004,2465.1289,0.0,0.0,0.0,0.0,-0.101960462042487,0.0,-0.23505202554032878,-0.17850277050685182,-0.3357828454166867,-0.2091163490906768,-0.8765329834145701,-0.03724708076875067
10231,7.0,298.85541,2637.9597,0.0,0.0,0.0,0.0,-0.10197042885207083,0.0,-0.24694124890120375,-0.22426388079812176,-0.3306687593794657,-0.17860873620230983,-0.8890781240951792,-0.08206641055582412
10232,7.0,299.40847,2631.4144,0.0,0.0,0.0,0.0,-0.10198039566165465,0.0,-0.2282789349818768,-0.2102543302779868,-0.36135099579006663,-0.2260808611424438,-0.9015325180968322,-0.05533821446095654
10233,7.0,299.95086000000003,2556.156,0.0,0.0,0.0,0.0,-0.10199036247123848,0.0,-0.2124617260183398,-0.23503582367122977,-0.32951005722761073,-0.18445469278676083,-0.8482251567583051,-0.08839136491304851
10234,7.0,300.21502000000004,2581.4368,0.0,0.0,0.0,0.0,-0.10200032928082228,0.0,-0.2378613830325908,-0.23635654451407476,-0.3104744113089387,-0.20695930174779278,-0.8245299181347673,-0.07823614887230672
10235,7.0,300.911,2892.3790000000004,0.0,0.0,0.0,0.0,-0.10201029609040611,0.0,-0.27937170650434073,-0.25775215124065676,-0.34208712541887065,-0.2083672330267448,-0.8433815477027781,-0.09754982048591772
10236,7.0,301.00147000000004,2994.8135,0.0,0.0,0.0,0.0,-0.10202026289998994,0.0,-0.2800721359009677,-0.2509990622391787,-0.3792773152342566,-0.2454104103851218,-0.8886986416677273,-0.062255428700382434
10237,7.0,300.03676,2544.3931,0.0,0.0,0.0,0.0,-0.10203022970957375,0.0,-0.2031184961837348,-0.2281411025707738,-0.3421723600172827,-0.2089225346115488,-0.9095753326205961,-0.08809690328823742
10238,7.0,299.84454,2271.3556,0.0,0.0,0.0,0.0,-0.10204019651915758,0.0,-0.18467644257114585,-0.18041994102106182,-0.3253390233234617,-0.1917490498591578,-0.8870493846124582,-0.07611060752803213
10239,7.0,299.03549,2500.884,0.0,0.0,0.0,0.0,-0.1020501633287414,0.0,-0.1911275526453208,-0.2189414401428378,-0.35013729613836064,-0.18926357776136082,-0.9017933489375741,-0.07562307920266684
10240,7.0,299.05813,2622.7117,0.0,0.0,0.0,0.0,-0.10206013013832521,0.0,-0.23582012991113477,-0.21481252704534579,-0.34660620059986863,-0.20630015216023978,-0.8741401933034202,-0.05605581236727795
10241,7.0,299.96254,2432.7888,0.0,0.0,0.0,0.0,-0.10207009694790904,0.0,-0.23345804127801478,-0.19825221059096984,-0.30779679659467873,-0.23486622586949177,-0.8591232290038613,-0.06294442964913154
10242,7.0,299.51995,2376.8088,0.0,0.0,0.0,0.0,-0.10208006375749286,0.0,-0.22045294584701178,-0.1957665155781508,-0.3062710547265997,-0.19808477101194483,-0.8584744145673283,-0.08159559376435813
10243,7.0,299.72927999999996,2528.78,0.0,0.0,0.0,0.0,-0.10209003056707669,0.0,-0.24077700006283978,-0.2097128190270438,-0.3181961370085137,-0.2044770112553098,-0.8863012817986261,-0.10765465165218689
10244,7.0,300.14309,2777.6195,0.0,0.0,0.0,0.0,-0.10209999737666049,0.0,-0.25758722452187977,-0.2238245862172668,-0.3629151702344387,-0.17605773722054582,-0.8930356864682601,-0.07778340035662393
10245,7.0,300.49752,2893.9984,0.0,0.0,0.0,0.0,-0.10210996418624432,0.0,-0.26424728703167677,-0.2392882012934068,-0.37616775200236663,-0.18463113002667383,-0.9004034839079051,-0.07284399458364253
10246,7.0,301.01941,2731.9734,0.0,0.0,0.0,0.0,-0.10211993099582815,0.0,-0.26579417542934275,-0.1986255425903148,-0.36603196807204263,-0.1902074506270138,-0.8631232566886332,-0.055888551120270545
10247,7.0,300.57319,2449.8248,0.0,0.0,0.0,0.0,-0.10212989780541196,0.0,-0.24088652226614876,-0.18242870934431182,-0.32137032533178167,-0.2320378496728528,-0.8676506607854533,-0.06697101968527504
10248,7.0,300.1792,2467.5681,0.0,0.0,0.0,0.0,-0.10213986461499579,0.0,-0.22761230760858578,-0.2018858977020868,-0.3205809021788717,-0.24171728602313877,-0.8616562225313481,-0.05131827843821975
10249,7.0,299.20889,2684.2140000000004,0.0,0.0,0.0,0.0,-0.1021498314245796,0.0,-0.23221338512017678,-0.21441175623329278,-0.36930891008795164,-0.2365227580604788,-0.8432293676702591,-0.07178506210288403
10250,7.0,300.21362,2682.1689,0.0,0.0,0.0,0.0,-0.10215979823416342,0.0,-0.23064562377045075,-0.23717204872455877,-0.3474947094800577,-0.19194914648890582,-0.8675977286002293,-0.06487583734049664
10251,7.0,299.91022000000004,2471.8979999999997,0.0,0.0,0.0,0.0,-0.10216976504374725,0.0,-0.21403850529395577,-0.2128997540365698,-0.3244569992439127,-0.1949580433233608,-0.8851129623463481,-0.08697698733696033
10252,7.0,299.62618,2374.859,0.0,0.0,0.0,0.0,-0.10217973185333107,0.0,-0.2055958217507278,-0.20474897771465078,-0.3115530464378917,-0.2022628976667938,-0.888503023603421,-0.04100084510946836
10253,7.0,298.9244,2505.8059,0.0,0.0,0.0,0.0,-0.1021896986629149,0.0,-0.2334387996586158,-0.20918451042490382,-0.3190791034106557,-0.19721596984620082,-0.8989275432822412,-0.07210943385739703
10254,7.0,299.96993,2796.6834,0.0,0.0,0.0,0.0,-0.1021996654724987,0.0,-0.2340912820605108,-0.2348425867446588,-0.38118805161033165,-0.2051522005919458,-0.8631201561433272,-0.07892531295432192
10255,7.0,300.15341,2651.6838,0.0,0.0,0.0,0.0,-0.10220963228208253,0.0,-0.22609984944931777,-0.21481098690519382,-0.36513482630100164,-0.2035100970823828,-0.8787441788427981,-0.1153439837460649
10256,7.0,300.68041,2226.7805,0.0,0.0,0.0,0.0,-0.10221959909166636,0.0,-0.15242172306535284,-0.2052032785294868,-0.3192606676960747,-0.2042701359823928,-0.8791736145001801,-0.09771291626176401
10257,7.0,300.83955,2303.4249,0.0,0.0,0.0,0.0,-0.10222956590125017,0.0,-0.20955925084188778,-0.17738600677663585,-0.31323837519672065,-0.1991987888343898,-0.8920174106477642,-0.07747028783722212
10258,7.0,301.37917000000004,2801.1059999999998,0.0,0.0,0.0,0.0,-0.102239532710834,0.0,-0.27965010710181676,-0.2353065033029438,-0.3365096598459177,-0.2016855781573168,-0.8640286868454923,-0.04436606755358996
10259,7.0,300.51894,2808.4957,0.0,0.0,0.0,0.0,-0.10224949952041781,0.0,-0.2858094112796927,-0.23160326670496276,-0.33629986641271264,-0.20814919173772578,-0.8580240147653772,-0.05567789541123045
10260,7.0,301.37383,2515.9302,0.0,0.0,0.0,0.0,-0.10225946633000164,0.0,-0.2046644726563108,-0.2306366666395668,-0.32947880859452666,-0.22943208452318378,-0.8424315548065212,-0.06966059379046532
10261,7.0,300.26111000000003,2459.0452,0.0,0.0,0.0,0.0,-0.10226943313958546,0.0,-0.2041536730158988,-0.22286246471731277,-0.3204722108406447,-0.2033946574984898,-0.8476006197941682,-0.07747262540520283
10262,7.0,299.05757,2801.2654,0.0,0.0,0.0,0.0,-0.10227939994916928,0.0,-0.24710605402996877,-0.24251403497427176,-0.36189464499872065,-0.20588026131879983,-0.8488377069737593,-0.1096339951925329
10263,7.0,299.73557999999997,2856.2681,0.0,0.0,0.0,0.0,-0.10228936675875311,0.0,-0.27635855401946574,-0.24385322736643975,-0.3480223898671357,-0.17707667165360683,-0.8974253189489831,-0.08000626842600393
10264,7.0,299.81568,2428.8243,0.0,0.0,0.0,0.0,-0.10229933356833691,0.0,-0.25629141949899376,-0.17868865123769684,-0.30332185858803673,-0.1945754096880978,-0.9236448878116531,-0.060410168545769444
10265,7.0,299.47067999999996,2051.3657,0.0,0.0,0.0,0.0,-0.10230930037792074,0.0,-0.18930421922287183,-0.1379779239498609,-0.2962818171582387,-0.1815585098934298,-0.8943784353682793,-0.05047535568002975
10266,7.0,300.03229,2270.7903,0.0,0.0,0.0,0.0,-0.10231926718750457,0.0,-0.2095355610545498,-0.18279628608308882,-0.29793169229606875,-0.1997387802101828,-0.8736987202348502,-0.08494538744920702
10267,7.0,300.84629,2885.6945,0.0,0.0,0.0,0.0,-0.10232923399708838,0.0,-0.24714527694133975,-0.23244513568304878,-0.39758866971644663,-0.2056952823805438,-0.8651667085628061,-0.07881804928548583
10268,7.0,300.38974,2953.6963,0.0,0.0,0.0,0.0,-0.1023392008066722,0.0,-0.25186488444962873,-0.2598787808155387,-0.38610624600571963,-0.2196364689164318,-0.8608362802854261,-0.08847780021282901
10269,7.0,300.4511,2399.9791,0.0,0.0,0.0,0.0,-0.10234916761625602,0.0,-0.2059606424492328,-0.21044809409460982,-0.3131249621130277,-0.1948075452860078,-0.8763103419700972,-0.07822959517065993
10270,7.0,300.61005,2330.1163,0.0,0.0,0.0,0.0,-0.10235913442583985,0.0,-0.23840150613089678,-0.2055536806790688,-0.2643420056510247,-0.22338911158928879,-0.8833978440345792,-0.06856376068971634
10271,7.0,300.47137000000004,2895.1543,0.0,0.0,0.0,0.0,-0.10236910123542367,0.0,-0.2651232113456237,-0.2597263576029957,-0.3552050462485086,-0.2124686161190198,-0.9146129689377721,-0.06665167162475784
10272,7.0,299.07146,2810.667,0.0,0.0,0.0,0.0,-0.10237906804500749,0.0,-0.25595627689591777,-0.2350912484516998,-0.36332505016489064,-0.23719582970440575,-0.8896721318338031,-0.07890595582441151
10273,7.0,298.60424,2446.7747,0.0,0.0,0.0,0.0,-0.10238903485459132,0.0,-0.17213179838308584,-0.22391521130621078,-0.34771141327894467,-0.2110211782186688,-0.8673549741412713,-0.07218679448928192
10274,7.0,299.52707999999996,2301.8406,0.0,0.0,0.0,0.0,-0.10239900166417512,0.0,-0.1707218000739298,-0.20187632248864182,-0.3271039530101467,-0.2090732251664208,-0.8476699463660102,-0.10439648516063091
10275,7.0,298.93985,2436.214,0.0,0.0,0.0,0.0,-0.10240896847375895,0.0,-0.23923453956811075,-0.18640552346929282,-0.3149081505665147,-0.19096584806186181,-0.8726210578259931,-0.05785307790440424
10276,7.0,299.67997,2797.1037,0.0,0.0,0.0,0.0,-0.10241893528334278,0.0,-0.2972296720967847,-0.2201523652048468,-0.33286766408398066,-0.18510157191560284,-0.8778715577241771,-0.06840400255969944
10277,7.0,300.42925,2924.9974,0.0,0.0,0.0,0.0,-0.10242890209292659,0.0,-0.2904561458407897,-0.2169322766520488,-0.38173773978958164,-0.16804667795491585,-0.9003403584266753,-0.019288299831106984
10278,7.0,300.40234,2544.8406,0.0,0.0,0.0,0.0,-0.10243886890251042,0.0,-0.2200742841521408,-0.21615708966304378,-0.3373366137825317,-0.19615715388920382,-0.8753575018410591,-0.09284066262591001
10279,7.0,300.65578999999997,2549.6484,0.0,0.0,0.0,0.0,-0.10244883571209423,0.0,-0.1933787511874968,-0.2254076071134988,-0.35624310071095666,-0.2105851868331398,-0.8818117935205481,-0.06803254811278973
10280,7.0,300.56288,2952.5462,0.0,0.0,0.0,0.0,-0.10245880252167806,0.0,-0.25968455090386977,-0.2565489167469068,-0.3812668520706086,-0.2117303418311578,-0.8631192644832393,-0.10466651631228091
10281,7.0,300.03947999999997,2825.1477,0.0,0.0,0.0,0.0,-0.10246876933126188,0.0,-0.29700283579689774,-0.22379220274407077,-0.3379793284534627,-0.22392304372948382,-0.8459300135592922,-0.05820565854170124
10282,7.0,300.23832000000004,2294.4346,0.0,0.0,0.0,0.0,-0.1024787361408457,0.0,-0.2280852724902638,-0.1990440756766208,-0.2703214782011527,-0.2058692371577118,-0.8595652897574891,-0.08030690175717412
10283,7.0,300.50224,2171.0035,0.0,0.0,0.0,0.0,-0.10248870295042953,0.0,-0.2056018505888228,-0.17870542052685182,-0.27562359305943074,-0.23421706692792477,-0.8809482815203261,-0.060647006637393544
10284,7.0,299.38141,2484.5256,0.0,0.0,0.0,0.0,-0.10249866976001333,0.0,-0.2095087099268998,-0.2006127286864348,-0.3451122950499317,-0.21850372623213882,-0.8824058316566752,-0.06972512566283413
10285,7.0,300.19025,2890.4894,0.0,0.0,0.0,0.0,-0.10250863656959716,0.0,-0.21365049130066183,-0.25629643508698874,-0.4086896858245316,-0.22113180314900976,-0.8800506837867402,-0.07979843867149272
10286,7.0,299.49404,2806.1014,0.0,0.0,0.0,0.0,-0.10251860337918098,0.0,-0.22672970597647976,-0.25563855206206076,-0.3706164890769996,-0.1898537047521018,-0.8633405988350833,-0.095795046604985
10287,7.0,298.72172,2547.5744,0.0,0.0,0.0,0.0,-0.1025285701887648,0.0,-0.25923723138222277,-0.2018762920911388,-0.3132854710613687,-0.18713987647926783,-0.8681488758596232,-0.07012975087826753
10288,7.0,298.84977000000003,2394.4142,0.0,0.0,0.0,0.0,-0.10253853699834861,0.0,-0.26407704074987476,-0.18510775274121283,-0.27865732465383675,-0.1792103939791888,-0.9010332695075602,-0.05239172977966116
10289,7.0,298.58421,2546.4465,0.0,0.0,0.0,0.0,-0.10254850380793244,0.0,-0.24763477806464979,-0.18654711503826682,-0.33987425812797767,-0.18826059188487382,-0.8904462447777022,-0.05069851489530386
10290,7.0,299.98789,2869.9909,0.0,0.0,0.0,0.0,-0.10255847061751627,0.0,-0.23273271632643075,-0.2529060901198878,-0.38676677361340867,-0.2060858193665868,-0.8908764302401582,-0.07810316688943243
10291,7.0,299.86097,2653.054,0.0,0.0,0.0,0.0,-0.10256843742710008,0.0,-0.18670092640344682,-0.23948494406532378,-0.38027630890534964,-0.2110129810253598,-0.8658725588474682,-0.08584998066148343
10292,7.0,299.2128,2188.8806,0.0,0.0,0.0,0.0,-0.1025784042366839,0.0,-0.17945926846875082,-0.18055704389209282,-0.3053487235580727,-0.22266712023053375,-0.8788079224065891,-0.10357438469199591
10293,7.0,300.00279,2508.9622,0.0,0.0,0.0,0.0,-0.10258837104626771,0.0,-0.24788753330209476,-0.20855449177772578,-0.3062198349340447,-0.22863670345968579,-0.8656850467839622,-0.05840855072847515
10294,7.0,301.42189,2879.5638,0.0,0.0,0.0,0.0,-0.10259833785585154,0.0,-0.2862038492786207,-0.23315573811067974,-0.35595589497011165,-0.2246397357902158,-0.8551293618796972,-0.06688239981827894
10295,7.0,300.20147000000003,2691.808,0.0,0.0,0.0,0.0,-0.10260830466543536,0.0,-0.25455662387028277,-0.2070805269897568,-0.3566052666941997,-0.21056126399827882,-0.8634990204882182,-0.04659771239533616
10296,7.0,301.26122999999995,2639.1566,0.0,0.0,0.0,0.0,-0.10261827147501919,0.0,-0.20912113163114882,-0.21427794642508677,-0.3788386184709607,-0.19322870911268883,-0.8934476638264192,-0.07559255403015423
10297,7.0,299.49735,2652.0842,0.0,0.0,0.0,0.0,-0.10262823828460299,0.0,-0.2012087426602568,-0.2032295382621938,-0.4017290832025736,-0.18829958174872183,-0.8804640492975361,-0.06394225909585964
10298,7.0,300.0433,2870.9056,0.0,0.0,0.0,0.0,-0.10263820509418682,0.0,-0.2758525571845277,-0.25667625188697374,-0.3401548068156657,-0.17155844068149984,-0.8942040043635642,-0.1074906064609969
10299,7.0,301.29276,2913.7417,0.0,0.0,0.0,0.0,-0.10264817190377064,0.0,-0.30049968348200967,-0.22282793315390478,-0.36237710403383566,-0.1961595958219448,-0.8871455015169442,-0.08191282818516671
10300,7.0,301.11607000000004,2569.754,0.0,0.0,0.0,0.0,-0.10265813871335445,0.0,-0.27950556697505174,-0.21972785394295077,-0.28190761819211574,-0.20781264071701083,-0.8946589435259632,-0.06494479508930225
10301,7.0,301.40922,2386.3813,0.0,0.0,0.0,0.0,-0.10266810552293829,0.0,-0.20062449252009582,-0.20094961407968281,-0.32382621052665866,-0.22330054339804778,-0.8746464738483862,-0.051176363642463855
10302,7.0,301.08099999999996,2683.5611,0.0,0.0,0.0,0.0,-0.1026780723325221,0.0,-0.20842899062033982,-0.2418024395615428,-0.36550412556494866,-0.2335655471136248,-0.8778943457189262,-0.07384033556597373
10303,7.0,300.36075,2911.893,0.0,0.0,0.0,0.0,-0.10268803914210593,0.0,-0.2107522413771268,-0.27740835205057274,-0.3969821787365906,-0.23685994742875677,-0.8741163819260701,-0.1041530112941019
10304,7.0,300.43514,2620.9974,0.0,0.0,0.0,0.0,-0.10269800595168974,0.0,-0.24767738523135474,-0.20763757136473282,-0.3414028066988337,-0.23248653708213476,-0.9074903273598222,-0.08322252081392333
10305,7.0,299.68431,2334.322,0.0,0.0,0.0,0.0,-0.10270797276127357,0.0,-0.2127120899855488,-0.2116466777704008,-0.2852168322237097,-0.19371966931614282,-0.8895218769764741,-0.11595598680646489
10306,7.0,299.49776,2534.4266,0.0,0.0,0.0,0.0,-0.1027179395708574,0.0,-0.2618614275512107,-0.2042774921781188,-0.3042634921709687,-0.2000771854785808,-0.898062258094344,-0.07594084760627813
10307,7.0,300.46771,2809.7417,0.0,0.0,0.0,0.0,-0.1027279063804412,0.0,-0.24672112031697876,-0.2257952766017588,-0.3815749307635136,-0.1850329951488348,-0.8591944807508932,-0.06309736151322475
10308,7.0,299.38985,2642.6021,0.0,0.0,0.0,0.0,-0.10273787319002503,0.0,-0.22686213776454978,-0.2217561678606298,-0.3546667470003827,-0.21533492839940283,-0.8625190252565003,-0.06456205506277873
10309,7.0,300.05282,2608.9743,0.0,0.0,0.0,0.0,-0.10274783999960885,0.0,-0.22487353311828975,-0.21398727536889978,-0.35420221235953664,-0.18300679892386484,-0.8587629577983051,-0.05883639862295044
10310,7.0,300.41364,2626.9749,0.0,0.0,0.0,0.0,-0.10275780680919266,0.0,-0.2773754822173287,-0.2152244233434968,-0.3059348583434197,-0.1973245801244198,-0.8859745086413761,-0.09307512667254982
10311,7.0,300.12622999999996,2785.8443,0.0,0.0,0.0,0.0,-0.1027677736187765,0.0,-0.26372494647262573,-0.24702077890155275,-0.33608135902864766,-0.2143340196856208,-0.9005002391599543,-0.07868633690498683
10312,7.0,300.4709,2908.7376,0.0,0.0,0.0,0.0,-0.10277774042836031,0.0,-0.31327835804566667,-0.21966749463449378,-0.35123774654196666,-0.2252996047853398,-0.914455459209727,-0.06373023651243465
10313,7.0,300.01493,2699.3165,0.0,0.0,0.0,0.0,-0.10278770723794414,0.0,-0.22720983453636479,-0.2306337687442808,-0.36268121078634863,-0.22823999578053375,-0.8818440148737282,-0.041542367506162456
10314,7.0,300.58441,2344.0253,0.0,0.0,0.0,0.0,-0.10279767404752795,0.0,-0.17933784057676683,-0.18672320777314583,-0.34646412267084664,-0.21428240472552681,-0.8711364133819701,-0.07329593047274514
10315,7.0,301.18892,2335.2592,0.0,0.0,0.0,0.0,-0.10280764085711178,0.0,-0.18281552770248782,-0.1913451987668008,-0.3356997487759857,-0.2158289080881548,-0.8821962712709931,-0.07947367377594093
10316,7.0,300.24327,2692.5981,0.0,0.0,0.0,0.0,-0.1028176076666956,0.0,-0.25440290369761176,-0.2244963406360638,-0.3395833540242677,-0.20565411402898082,-0.8830078744685922,-0.07823551559099422
10317,7.0,300.82181,2715.9672,0.0,0.0,0.0,0.0,-0.10282757447627941,0.0,-0.2624786184521228,-0.2090663654632438,-0.35404121705114766,-0.20634936571759682,-0.8836129671633101,-0.1050618155737939
10318,7.0,299.00752,2503.4273,0.0,0.0,0.0,0.0,-0.10283754128586324,0.0,-0.24160651752220674,-0.2204314649448918,-0.29894139602071873,-0.17820231145469884,-0.8922837535690501,-0.07329363039501813
10319,7.0,299.32948999999996,2486.179,0.0,0.0,0.0,0.0,-0.10284750809544706,0.0,-0.2009110903108808,-0.2085125837535898,-0.34631267217839967,-0.20687048024402682,-0.8693924478398543,-0.09165625735876833
10320,7.0,299.28157000000004,2701.6417,0.0,0.0,0.0,0.0,-0.10285747490503087,0.0,-0.22456681218051877,-0.2226131443977068,-0.37405166022852465,-0.18139962214524882,-0.8705504001866352,-0.043953101263333356
10321,7.0,299.83108,2736.3194,0.0,0.0,0.0,0.0,-0.1028674417146147,0.0,-0.2318183290386878,-0.25220539727823477,-0.3477490555201596,-0.2109085858675568,-0.8574119711749733,-0.09193598632712541
10322,7.0,298.78502000000003,2680.335,0.0,0.0,0.0,0.0,-0.10287740852419852,0.0,-0.26555057997280174,-0.2218090392508478,-0.3273952928113997,-0.19112509044757783,-0.8917465587635331,-0.05657195487546725
10323,7.0,300.32839,2564.7745,0.0,0.0,0.0,0.0,-0.10288737533378235,0.0,-0.2340684130057538,-0.2263636085828488,-0.31919539412463266,-0.2084839898357678,-0.8990344209027892,-0.08693693964000793
10324,7.0,300.19131,2476.7751,0.0,0.0,0.0,0.0,-0.10289734214336616,0.0,-0.24496329351349475,-0.19325914714569284,-0.3146553345340637,-0.18121792613731683,-0.8797355934031431,-0.04218499807733516
10325,7.0,300.44228,2825.4233,0.0,0.0,0.0,0.0,-0.10290730895294999,0.0,-0.22117909153117676,-0.23699861070494177,-0.4006804402765806,-0.2158224030225128,-0.8620784438480182,-0.050612380530803046
10326,7.0,299.70571,2964.9006,0.0,0.0,0.0,0.0,-0.10291727576253382,0.0,-0.2679932726513768,-0.24123503977054478,-0.3920274566750976,-0.2064189456019638,-0.8550995621942562,-0.058897841095764354
10327,7.0,299.86306,2614.403,0.0,0.0,0.0,0.0,-0.10292724257211762,0.0,-0.22686667712499778,-0.2222395388208348,-0.3456070042787557,-0.23720218278253277,-0.8572744123413972,-0.08355752460173563
10328,7.0,300.0703,2506.1306,0.0,0.0,0.0,0.0,-0.10293720938170145,0.0,-0.25929469279539374,-0.19792135403581682,-0.3045850876202077,-0.1939280239342058,-0.8905427872472301,-0.08519633200872333
10329,7.0,300.34687,2680.9776,0.0,0.0,0.0,0.0,-0.10294717619128527,0.0,-0.2455789138767518,-0.24366465139032878,-0.3257066811222467,-0.18867191063046782,-0.8894079471352302,-0.0929342170208931
10330,7.0,300.44153,2712.5638,0.0,0.0,0.0,0.0,-0.10295714300086908,0.0,-0.28263004524841373,-0.21194024672187378,-0.3299813806441267,-0.18794977741669883,-0.9068668745732921,-0.07866435140431702
10331,7.0,300.47112999999996,2537.1195,0.0,0.0,0.0,0.0,-0.10296710981045291,0.0,-0.1933644542285858,-0.2221304117850648,-0.3557261303774356,-0.21067377528938278,-0.916003087279966,-0.06962683635013373
10332,7.0,299.77347000000003,2356.5569,0.0,0.0,0.0,0.0,-0.10297707662003673,0.0,-0.21917480177336876,-0.1895366182658078,-0.3076230343350297,-0.2217741834474078,-0.8688054517919223,-0.04458881842907375
10333,7.0,300.0485,2517.6057,0.0,0.0,0.0,0.0,-0.10298704342962056,0.0,-0.2096581947141528,-0.2314790827727068,-0.32415198056630967,-0.21476064864022576,-0.8435108282830371,-0.07241104598816384
10334,7.0,299.49224,2826.5248,0.0,0.0,0.0,0.0,-0.10299701023920436,0.0,-0.26261010791759976,-0.25340381883400975,-0.3431790442566347,-0.2316407468261618,-0.8812540905330073,-0.06853435110556384
10335,7.0,299.3346,2912.8436,0.0,0.0,0.0,0.0,-0.1030069770487882,0.0,-0.2684272375367057,-0.24305231395739577,-0.37395215906870466,-0.22052383282400778,-0.8945862934937931,-0.09725776431684399
10336,7.0,299.67745,2649.469,0.0,0.0,0.0,0.0,-0.10301694385837203,0.0,-0.25557576095336376,-0.2068029369923608,-0.34299372081334467,-0.21921783450511578,-0.902295079989591,-0.05662719524441904
10337,7.0,300.81478,2268.2641,0.0,0.0,0.0,0.0,-0.10302691066795583,0.0,-0.14632474390112787,-0.1946950035974008,-0.3484759104793947,-0.2017232710610368,-0.8861938266255212,-0.1027274089334059
10338,7.0,300.2391,2477.1312,0.0,0.0,0.0,0.0,-0.10303687747753966,0.0,-0.2142037157227608,-0.1893101568684578,-0.34947216837521766,-0.2164900436459038,-0.8927104230536591,-0.06433463513083415
10339,7.0,299.8567,2736.8611,0.0,0.0,0.0,0.0,-0.10304684428712348,0.0,-0.23636160063207376,-0.22565311761272877,-0.36992271673352967,-0.2028151088387928,-0.9021396778217541,-0.09177499811148711
10340,7.0,299.56694,2598.4921,0.0,0.0,0.0,0.0,-0.1030568110967073,0.0,-0.25070358837751777,-0.2210431235002578,-0.31813000217448667,-0.2072547958744558,-0.8672490793733202,-0.08244406913309613
10341,7.0,298.99137,2459.0068,0.0,0.0,0.0,0.0,-0.10306677790629112,0.0,-0.2261642313606718,-0.20005346529373982,-0.32125897927829267,-0.18288330400167682,-0.8679494581074422,-0.1012156043204524
10342,7.0,299.33008,2608.9684,0.0,0.0,0.0,0.0,-0.10307674471587494,0.0,-0.25484601823134373,-0.21296650695315777,-0.3252487123420487,-0.2036989972985258,-0.8941589046016133,-0.08056588645623391
10343,7.0,299.32448,2633.0116,0.0,0.0,0.0,0.0,-0.10308671152545877,0.0,-0.21108845802530882,-0.2249656071548768,-0.3643157047876606,-0.2188007503664528,-0.9030161391582542,-0.06916993249579083
10344,7.0,300.79902999999996,2680.5415,0.0,0.0,0.0,0.0,-0.10309667833504257,0.0,-0.25879033742561774,-0.19792194172087482,-0.3581053935997507,-0.23471197880676878,-0.8895410578008671,-0.04357473442424146
10345,7.0,300.66314,2623.6831,0.0,0.0,0.0,0.0,-0.1031066451446264,0.0,-0.23003427932261578,-0.2266695594505438,-0.34083028999483067,-0.23503920792656377,-0.8661280802576863,-0.06900605145111703
10346,7.0,301.49986,2623.0844,0.0,0.0,0.0,0.0,-0.10311661195421024,0.0,-0.2321324770996918,-0.21198249925104382,-0.3532371929642967,-0.24164807090880777,-0.8697981126498903,-0.07701009395980452
10347,7.0,300.84578,2717.978,0.0,0.0,0.0,0.0,-0.10312657876379404,0.0,-0.24505134494718475,-0.2470053268375278,-0.3341407723046267,-0.2308253743381908,-0.9005169983166083,-0.09454969029132791
10348,7.0,299.60729,2995.013,0.0,0.0,0.0,0.0,-0.10313654557337787,0.0,-0.27294203680228174,-0.2527328446177898,-0.38473430537031966,-0.2037376527898408,-0.8813266088426641,-0.07342778673475833
10349,7.0,299.63953,2816.8494,0.0,0.0,0.0,0.0,-0.10314651238296169,0.0,-0.23358532575557675,-0.25294498879122673,-0.36972157645617865,-0.1870135140592968,-0.8827272852509,-0.1026758952983219
10350,7.0,299.51972,2242.6527,0.0,0.0,0.0,0.0,-0.10315647919254549,0.0,-0.1912234668997868,-0.18821514761788882,-0.3022718072444047,-0.18230593382969482,-0.8983255916628332,-0.07615872474878092
10351,7.0,299.88543,2201.2597,0.0,0.0,0.0,0.0,-0.10316644600212933,0.0,-0.18106232131945985,-0.18867410938318482,-0.2993915526426457,-0.21203883595660383,-0.9116751110678282,-0.10503552173369889
10352,7.0,300.16167,2672.3222,0.0,0.0,0.0,0.0,-0.10317641281171315,0.0,-0.27212035176618776,-0.21683171157962378,-0.32336716770135465,-0.18650326157393882,-0.8808831194063952,-0.06884059176278742
10353,7.0,299.70998,2748.9402,0.0,0.0,0.0,0.0,-0.10318637962129698,0.0,-0.25591973909731175,-0.21844459295630278,-0.36124485784209165,-0.22526731250465276,-0.8700205413118423,-0.08500784925162151
10354,7.0,299.64329,2746.7925,0.0,0.0,0.0,0.0,-0.10319634643088078,0.0,-0.24762991446416976,-0.24633611567648178,-0.34099029231812167,-0.2064229682048608,-0.8692044899463041,-0.06330316071453554
10355,7.0,301.40709,2733.3108,0.0,0.0,0.0,0.0,-0.10320631324046461,0.0,-0.21349720682553378,-0.2292412388668488,-0.38811979686944165,-0.22933777120387577,-0.8812741123549832,-0.05230754288185254
10356,7.0,300.11012999999997,2724.9127,0.0,0.0,0.0,0.0,-0.10321628005004845,0.0,-0.2467166316190358,-0.23335442632278874,-0.34823435165555466,-0.2070412534158808,-0.8689365156923572,-0.03441729919422297
10357,7.0,300.12452,3002.4159999999997,0.0,0.0,0.0,0.0,-0.10322624685963225,0.0,-0.25904690248343876,-0.25792606548782077,-0.39568650543621764,-0.19151634684119181,-0.8811851793937061,-0.06771864728481013
10358,7.0,300.56985,2855.59,0.0,0.0,0.0,0.0,-0.10323621366921608,0.0,-0.2824865589017527,-0.22697001850269677,-0.35857148864575067,-0.18425950028749682,-0.8786411617051311,-0.07837606047261492
10359,7.0,299.87905,2195.5024,0.0,0.0,0.0,0.0,-0.1032461804787999,0.0,-0.2042423729296528,-0.18479880265322182,-0.27833675258719875,-0.18287773112612682,-0.8783040939268653,-0.09005399990938782
10360,7.0,300.95821,2249.5097,0.0,0.0,0.0,0.0,-0.10325614728838371,0.0,-0.1925407832222958,-0.18747926460026282,-0.3037747408527327,-0.18651129664723182,-0.8742310615723882,-0.07387270688016852
10361,7.0,300.77216,2748.7757,0.0,0.0,0.0,0.0,-0.10326611409796754,0.0,-0.24882026041664776,-0.2128418771908578,-0.37389703826326465,-0.1887842192715518,-0.8741410545660051,-0.06537755116726193
10362,7.0,299.62505,2804.2575,0.0,0.0,0.0,0.0,-0.10327608090755136,0.0,-0.25739196109510876,-0.23862372201032778,-0.35640857458478764,-0.21204763096747178,-0.8938626404048741,-0.06538971624796253
10363,7.0,299.78066,2652.6456,0.0,0.0,0.0,0.0,-0.10328604771713519,0.0,-0.2154481185680738,-0.2343366203072238,-0.3565532768315687,-0.2034044758919588,-0.9118604041136151,-0.05728078310217315
10364,7.0,300.09123999999997,2698.9012,0.0,0.0,0.0,0.0,-0.103296014526719,0.0,-0.26478094559434473,-0.22764938242974475,-0.32796825534544666,-0.22147992548586679,-0.8837009881994972,-0.06759437013354494
10365,7.0,299.27648999999997,2776.9159,0.0,0.0,0.0,0.0,-0.10330598133630282,0.0,-0.23327833124027877,-0.24757172351092677,-0.36326304939127163,-0.18964883571438282,-0.8679889140663362,-0.06243304840316215
10366,7.0,300.94737000000003,2864.9688,0.0,0.0,0.0,0.0,-0.10331594814588665,0.0,-0.23588120862716278,-0.24854422069190477,-0.3864535476099956,-0.2076689821178328,-0.8786308873491171,-0.07857572647107042
10367,7.0,299.94112,2671.0993,0.0,0.0,0.0,0.0,-0.10332591495547046,0.0,-0.2027990488247078,-0.2514331689795218,-0.35771526191374764,-0.1955156449858918,-0.8899462767808591,-0.05337152236135915
10368,7.0,300.51367,2385.9649,0.0,0.0,0.0,0.0,-0.10333588176505429,0.0,-0.2096143513823258,-0.1998960670232058,-0.3157633235184137,-0.2152404022975738,-0.8801275286743242,-0.07963974242758062
10369,7.0,300.93556,2493.015,0.0,0.0,0.0,0.0,-0.1033458485746381,0.0,-0.2127937883411118,-0.21549817312301378,-0.32952233781882273,-0.19050954101182782,-0.9059007912654471,-0.07660237529181584
10370,7.0,300.51007999999996,2708.4990000000003,0.0,0.0,0.0,0.0,-0.10335581538422192,0.0,-0.29015705467627173,-0.23366347773578974,-0.2994955323679077,-0.23281572177462279,-0.8860857635023561,-0.11074112291429788
10371,7.0,300.59479,2873.8374,0.0,0.0,0.0,0.0,-0.10336578219380575,0.0,-0.2803780969011637,-0.2286661079775878,-0.36453061513387064,-0.18850322475381984,-0.8764620761725721,-0.07394612799566463
10372,7.0,300.26301,2390.9203,0.0,0.0,0.0,0.0,-0.10337574900338957,0.0,-0.2264101674249438,-0.2076661754150558,-0.2927037270801087,-0.2171718292406908,-0.8544954928821392,-0.08689036863891172
10373,7.0,299.58646,2260.0789,0.0,0.0,0.0,0.0,-0.1033857158129734,0.0,-0.18616868639091882,-0.18453852910003482,-0.31630033593891266,-0.17509230239276483,-0.8459546152717202,-0.05638506292102245
10374,7.0,299.72272999999996,2796.5001,0.0,0.0,0.0,0.0,-0.1033956826225572,0.0,-0.23056660039515176,-0.23822810864128377,-0.38127150288856765,-0.2231500250956928,-0.8929351517933382,-0.06280640776025984
10375,7.0,299.57489,2850.5244,0.0,0.0,0.0,0.0,-0.10340564943214103,0.0,-0.26159298720221774,-0.23601696387556076,-0.36887829906045366,-0.20007439904080582,-0.9126378202528402,-0.055518646946013855
10376,7.0,298.95085,2612.0858,0.0,0.0,0.0,0.0,-0.10341561624172486,0.0,-0.2559723774400068,-0.2185293209296648,-0.3195071711804027,-0.23926174533329578,-0.9114068835013562,-0.07668816008503213
10377,7.0,300.13917000000004,2586.7627,0.0,0.0,0.0,0.0,-0.10342558305130867,0.0,-0.2331896313265248,-0.2101710005897628,-0.34295063741909265,-0.2048170782538718,-0.8888157531142851,-0.09304242098582201
10378,7.0,300.6364,2431.2356,0.0,0.0,0.0,0.0,-0.1034355498608925,0.0,-0.2192491236682038,-0.19999371393534282,-0.3197920768435207,-0.2257922672489618,-0.8606568944877222,-0.07012942055873493
10379,7.0,299.94723,2572.218,0.0,0.0,0.0,0.0,-0.10344551667047631,0.0,-0.21216499572655478,-0.2136717594202608,-0.35605329870222463,-0.2159613398762248,-0.8684234362392201,-0.06026378937007294
10380,7.0,300.17019,2762.0903,0.0,0.0,0.0,0.0,-0.10345548348006013,0.0,-0.2353487153021098,-0.23301502806929275,-0.3712427485663067,-0.20314260140361382,-0.8614756714960293,-0.07896353781434443
10381,7.0,299.83043,2591.5604,0.0,0.0,0.0,0.0,-0.10346545028964396,0.0,-0.2359211205486018,-0.2082640436365608,-0.34358447601914766,-0.2216168054418758,-0.8746949072031661,-0.09390337250304132
10382,7.0,299.80764,2358.8035,0.0,0.0,0.0,0.0,-0.10347541709922778,0.0,-0.22252023949603777,-0.2000325518116758,-0.2944645835013917,-0.19718876408101582,-0.8861339131471082,-0.09529946902082531
10383,7.0,299.11542000000003,2619.6009,0.0,0.0,0.0,0.0,-0.10348538390881161,0.0,-0.2293072318458618,-0.2159566485282618,-0.3510293919239037,-0.2101692780645928,-0.9005032789102542,-0.09794839355850381
10384,7.0,300.4124,3031.0806,0.0,0.0,0.0,0.0,-0.10349535071839541,0.0,-0.28486811206929374,-0.24429602779264076,-0.3922086663229816,-0.2025461821297518,-0.8632396487276202,-0.06457231016704083
10385,7.0,300.42208999999997,2697.6184,0.0,0.0,0.0,0.0,-0.10350531752797924,0.0,-0.21340398781633382,-0.2311096923162508,-0.37549494380346565,-0.2130409707030068,-0.9034232022534281,-0.07556909931683943
10386,7.0,300.78688999999997,2472.5156,0.0,0.0,0.0,0.0,-0.10351528433756307,0.0,-0.18967168450413782,-0.2013452071837248,-0.3605661018651037,-0.21816659765886678,-0.8854865476582182,-0.06792728865265144
10387,7.0,299.85769,2629.4388,0.0,0.0,0.0,0.0,-0.10352525114714688,0.0,-0.24720989190021675,-0.21347042662539079,-0.3386034195875557,-0.2133847867269388,-0.8980614880242682,-0.060216997480454934
10388,7.0,299.74891,2826.4406,0.0,0.0,0.0,0.0,-0.10353521795673071,0.0,-0.26909052118466675,-0.2509849476652858,-0.33909189732826467,-0.2040408678822658,-0.8841882804375891,-0.07361291867377943
10389,7.0,299.78743,2720.3520000000003,0.0,0.0,0.0,0.0,-0.10354518476631452,0.0,-0.26189837064985677,-0.2183947410513828,-0.34662594884431763,-0.19763968064051782,-0.8765206825583561,-0.09820402541298272
10390,7.0,300.57968,2501.3361,0.0,0.0,0.0,0.0,-0.10355515157589834,0.0,-0.24871057609332275,-0.19310617677809583,-0.3185269732986647,-0.2054808786593838,-0.8661667661465041,-0.08312904646569813
10391,7.0,299.01302000000004,2248.0115,0.0,0.0,0.0,0.0,-0.10356511838548216,0.0,-0.1888071693863168,-0.16393867833948783,-0.3305935154270397,-0.19229369205290983,-0.8615922560525352,-0.07176706374135773
10392,7.0,298.91597,2641.7139,0.0,0.0,0.0,0.0,-0.10357508519506599,0.0,-0.2338111994678688,-0.22594192428873178,-0.34326194837981666,-0.22557072011459678,-0.8538262918535943,-0.07828915705128822
10393,7.0,298.75071,3110.0466,0.0,0.0,0.0,0.0,-0.10358505200464982,0.0,-0.3106856030272817,-0.24616457243455175,-0.3885263432070646,-0.2054904842703318,-0.8889944195044182,-0.06405114700460603
10394,7.0,299.97778999999997,2921.8441,0.0,0.0,0.0,0.0,-0.10359501881423362,0.0,-0.2768509327730597,-0.23709566993202078,-0.37422105538024264,-0.20818069368333483,-0.9068663071532362,-0.07768487090364984
10395,7.0,299.88302999999996,2503.7283,0.0,0.0,0.0,0.0,-0.10360498562381745,0.0,-0.19487811815547282,-0.21346050690691182,-0.3527322701744647,-0.18627745878915383,-0.9091520980538261,-0.07991898908889013
10396,7.0,299.70065,2517.9313,0.0,0.0,0.0,0.0,-0.10361495243340127,0.0,-0.20253610029125682,-0.2147062573748578,-0.3481458847893237,-0.19474153204199282,-0.909741110469457,-0.07403492822117853
10397,7.0,300.12032999999997,2942.2645,0.0,0.0,0.0,0.0,-0.10362491924298509,0.0,-0.22194443986171078,-0.2586486546641348,-0.4137818451295886,-0.19613729418724382,-0.879295397029699,-0.07478468263267353
10398,7.0,300.75779,2748.6709,0.0,0.0,0.0,0.0,-0.1036348860525689,0.0,-0.24690872357299376,-0.25546392853982675,-0.3331546773073067,-0.2035324189820858,-0.8864166605875131,-0.07286651508036514
10399,7.0,299.63872000000003,2316.5396,0.0,0.0,0.0,0.0,-0.10364485286215273,0.0,-0.22397944123004979,-0.19716298699847182,-0.2830277560451647,-0.20906790560339578,-0.8772765266029522,-0.08030564634030023
10400,7.0,299.96096,2370.9162,0.0,0.0,0.0,0.0,-0.10365481967173656,0.0,-0.2280583909651108,-0.21723785261720677,-0.2754030693076667,-0.22401509750106882,-0.8712585100190201,-0.10899059151153388
10401,7.0,300.2385,2631.2365,0.0,0.0,0.0,0.0,-0.10366478648132037,0.0,-0.23404873568881177,-0.22643624848251778,-0.33934521998576567,-0.2082771854903578,-0.8858984236913672,-0.0946438637821221
10402,7.0,299.55791,2868.7852,0.0,0.0,0.0,0.0,-0.1036747532909042,0.0,-0.25660851611778873,-0.2296446947916668,-0.3857858563240996,-0.2053241896639198,-0.8887508747103822,-0.09510563326344522
10403,7.0,300.39236,2860.7524,0.0,0.0,0.0,0.0,-0.103684720100488,0.0,-0.23331274121367476,-0.2184247940493488,-0.41785977148204856,-0.18372427118717383,-0.8855157089960962,-0.05651199276104945
10404,7.0,300.32076,2502.9593,0.0,0.0,0.0,0.0,-0.10369468691007183,0.0,-0.2287799162288198,-0.21254900738195381,-0.31950820469550467,-0.1922562929917188,-0.8985649719989581,-0.07056796229476564
10405,7.0,300.23405,2496.1696,0.0,0.0,0.0,0.0,-0.10370465371965565,0.0,-0.2218097181284148,-0.2113061041467888,-0.3256574067698837,-0.1966869114389868,-0.8889799604254911,-0.04917391293358736
10406,7.0,299.80351,2911.136,0.0,0.0,0.0,0.0,-0.10371462052923948,0.0,-0.2811006658124757,-0.24045337811340076,-0.36335861914070366,-0.21117368249121982,-0.915301269730702,-0.07447748242760523
10407,7.0,299.93919,2880.7712,0.0,0.0,0.0,0.0,-0.10372458733882328,0.0,-0.2625353908552257,-0.2322448060057778,-0.3809022948171296,-0.1943868843744918,-0.9099556661781321,-0.027565110279964576
10408,7.0,299.56616,2539.0657,0.0,0.0,0.0,0.0,-0.10373455414840711,0.0,-0.2109894330930358,-0.2139631600165198,-0.3468599792199147,-0.22195748039049776,-0.907717842537276,-0.08354806185905171
10409,7.0,299.08747999999997,2423.4393,0.0,0.0,0.0,0.0,-0.10374452095799093,0.0,-0.19103762669894583,-0.20831562819915178,-0.3373117891550817,-0.22308657537443077,-0.888035540404784,-0.06665919703325053
10410,7.0,299.56003,2599.1722,0.0,0.0,0.0,0.0,-0.10375448776757475,0.0,-0.2753355767185058,-0.1959971009034078,-0.3187507799807527,-0.22970465893258477,-0.8880859799947621,-0.07623070603588493
10411,7.0,300.65892,2681.7664,0.0,0.0,0.0,0.0,-0.10376445457715858,0.0,-0.25614977726751476,-0.22350660807088477,-0.3355336466870927,-0.1981620921270758,-0.8566045425677863,-0.0981430338364633
10412,7.0,299.9205,2588.2958,0.0,0.0,0.0,0.0,-0.1037744213867424,0.0,-0.2543851616883608,-0.20596874845003282,-0.3264233934479807,-0.21428181704046878,-0.8910989703596212,-0.0991332628941913
10413,7.0,300.61041,2534.4434,0.0,0.0,0.0,0.0,-0.10378438819632621,0.0,-0.2008909367663918,-0.21550275301346578,-0.3540138086359427,-0.19836453949705582,-0.9007032944799941,-0.1066021583758139
10414,7.0,300.85107999999997,2489.0303,0.0,0.0,0.0,0.0,-0.10379435500591003,0.0,-0.18235829859486283,-0.2161644053287658,-0.3580803460572786,-0.1962136628472808,-0.9319041528217791,-0.07998877162327712
10415,7.0,300.91709,2828.4779,0.0,0.0,0.0,0.0,-0.10380432181549386,0.0,-0.2325027186862318,-0.2326868566269048,-0.3945970690611986,-0.2042634181342298,-0.9130489160834121,-0.058560609170982145
10416,7.0,300.2122,2973.0829,0.0,0.0,0.0,0.0,-0.10381428862507769,0.0,-0.3142137500079827,-0.23772304399643776,-0.35180616971556566,-0.2066503313947998,-0.8955731382961871,-0.045006981679093255
10417,7.0,300.5554,2595.8851,0.0,0.0,0.0,0.0,-0.10382425543466149,0.0,-0.23600336605921876,-0.22662567558871277,-0.3264551993686197,-0.24168840839528874,-0.8816881871408491,-0.07671113755754984
10418,7.0,300.00411,2409.2925,0.0,0.0,0.0,0.0,-0.10383422224424532,0.0,-0.21339382491783082,-0.2185100793102658,-0.3004608557381777,-0.23146584972640077,-0.8683125765457793,-0.06623724220135684
10419,7.0,299.84746,2783.3969,0.0,0.0,0.0,0.0,-0.10384418905382914,0.0,-0.24006976162554075,-0.2334253842272918,-0.3725880103265736,-0.22052939556705678,-0.8423519437461642,-0.07142527725737603
10420,7.0,298.85998,2916.0885,0.0,0.0,0.0,0.0,-0.10385415586341296,0.0,-0.24923974595804776,-0.26236225681063874,-0.37481608650146764,-0.17452031257881384,-0.8539405256698682,-0.08006396997944863
10421,7.0,299.48991,2666.2995,0.0,0.0,0.0,0.0,-0.10386412267299679,0.0,-0.26002990706795376,-0.20784245053495282,-0.3426161230310787,-0.2144477772743478,-0.8815040897301801,-0.07785660666309883
10422,7.0,300.33611,2594.3725,0.0,0.0,0.0,0.0,-0.1038740894825806,0.0,-0.2630215381207047,-0.20123663743550982,-0.3243662930949607,-0.2111568422745578,-0.8976336026395391,-0.0876436278825026
10423,7.0,300.74321000000003,2557.0197,0.0,0.0,0.0,0.0,-0.10388405629216442,0.0,-0.24244662344511878,-0.19975328995161482,-0.33507023675385766,-0.23175287308222778,-0.8737494941973611,-0.05980143119044174
10424,7.0,300.89308,2922.8821,0.0,0.0,0.0,0.0,-0.10389402310174824,0.0,-0.26730849796879474,-0.23718867615869976,-0.3839859897739666,-0.22214490126149478,-0.8844364051220772,-0.1013624698561969
10425,7.0,300.15054,3105.5981,0.0,0.0,0.0,0.0,-0.10390398991133207,0.0,-0.28421248859208875,-0.25492786857442173,-0.40488392858143263,-0.22363858389640978,-0.8886922885896001,-0.060214725773730736
10426,7.0,300.02044,2537.0311,0.0,0.0,0.0,0.0,-0.1039139567209159,0.0,-0.2045746682999478,-0.2047215389019428,-0.3618979076640427,-0.2119263854605058,-0.923559126323189,-0.07292027610417093
10427,7.0,300.35205,2257.8467,0.0,0.0,0.0,0.0,-0.1039239235304997,0.0,-0.21549377561757976,-0.18436183854759683,-0.2864734143352247,-0.1967451631872358,-0.8913641379107912,-0.049611776805301155
10428,7.0,300.13247,2661.0187,0.0,0.0,0.0,0.0,-0.10393389034008353,0.0,-0.27421542873295573,-0.2055274172364768,-0.3291403830611267,-0.2066005706823888,-0.8950799084125092,-0.06501019937000714
10429,7.0,298.96483,2917.8675,0.0,0.0,0.0,0.0,-0.10394385714966735,0.0,-0.2772118119286757,-0.25608768530138676,-0.35365935348596067,-0.1998177022604718,-0.8553784998142852,-0.09987509470315441
10430,7.0,299.43286,2589.6482,0.0,0.0,0.0,0.0,-0.10395382395925117,0.0,-0.22376039682343177,-0.23216652230305176,-0.3312614600254607,-0.2252250194454788,-0.8776233418471802,-0.09080988853698821
10431,7.0,299.48415,2432.4249,0.0,0.0,0.0,0.0,-0.103963790768835,0.0,-0.17611968733165984,-0.1987383679889498,-0.3645383766296366,-0.2050480486141668,-0.8548499378996203,-0.08126613245459283
10432,7.0,300.39454,2694.7909999999997,0.0,0.0,0.0,0.0,-0.10397375757841881,0.0,-0.2348461837825138,-0.2204182116335838,-0.36388478978513267,-0.21473762759795378,-0.8849621502014642,-0.07742080678183873
10433,7.0,301.52605,2841.7443,0.0,0.0,0.0,0.0,-0.10398372438800263,0.0,-0.27136995900712974,-0.23858076020608776,-0.3538685794991096,-0.22099554127556179,-0.8977097990470592,-0.07857209295621183
10434,7.0,301.3142,2767.7807,0.0,0.0,0.0,0.0,-0.10399369119758645,0.0,-0.2790811570381658,-0.2012931463935868,-0.3609619077516667,-0.22397275377938977,-0.9520354260735812,-0.06501061581579824
10435,7.0,300.72507,2749.7482,0.0,0.0,0.0,0.0,-0.10400365800717028,0.0,-0.25187421648304975,-0.22842015164831378,-0.35556043358858264,-0.18917789733290483,-0.9103862468081271,-0.07973839853681722
10436,7.0,301.24644,2567.0907,0.0,0.0,0.0,0.0,-0.10401362481675411,0.0,-0.23116399238910978,-0.2120792747680948,-0.33708821552051665,-0.18050309845676882,-0.8785252357611901,-0.06360597557317103
10437,7.0,299.64446,2667.2778,0.0,0.0,0.0,0.0,-0.10402359162633791,0.0,-0.2083958370770678,-0.2442612631817098,-0.35812873888205465,-0.17460694546236383,-0.8779800464123841,-0.0949875278185391
10438,7.0,299.73137,3000.5947,0.0,0.0,0.0,0.0,-0.10403355843592174,0.0,-0.25027026183975176,-0.25231615564666576,-0.40951943633142157,-0.20228804653427582,-0.9069213671636701,-0.06321884817371454
10439,7.0,299.86996,2706.3644,0.0,0.0,0.0,0.0,-0.10404352524550556,0.0,-0.2697906060762597,-0.22859635584070379,-0.3242802377639677,-0.19203334757221582,-0.8932403224584561,-0.05905111442514124
10440,7.0,299.60659,2396.6402,0.0,0.0,0.0,0.0,-0.10405349205508937,0.0,-0.21160460762624878,-0.21714413711545777,-0.2997700319524987,-0.2053103790650568,-0.9030863776551862,-0.08227969159587332
10441,7.0,299.78084,2669.1192,0.0,0.0,0.0,0.0,-0.1040634588646732,0.0,-0.24659591300212175,-0.2406147179268238,-0.3241349478321287,-0.23453687905698778,-0.8876180610985821,-0.07174845236352093
10442,7.0,299.94146,2852.4927,0.0,0.0,0.0,0.0,-0.10407342567425702,0.0,-0.24938625179000676,-0.23605296465161377,-0.3816473477481606,-0.2279620511456028,-0.8978769853135591,-0.07201454703853243
10443,7.0,300.3277,2759.6371,0.0,0.0,0.0,0.0,-0.10408339248384085,0.0,-0.2132132637500108,-0.2359322156371968,-0.3897153010069056,-0.2056239495735038,-0.8444541235961333,-0.07513615680086133
10444,7.0,300.4076,2648.4512,0.0,0.0,0.0,0.0,-0.10409335929342466,0.0,-0.2422238705431348,-0.19476840343464483,-0.36807075899575564,-0.19690896519840181,-0.8749445314978022,-0.07505707567030663
10445,7.0,302.21732000000003,2594.9404,0.0,0.0,0.0,0.0,-0.10410332610300849,0.0,-0.26017165062444275,-0.20153719781267282,-0.3270882476335967,-0.2200947619366618,-0.9020441182048232,-0.07400335737456272
10446,7.0,301.16224,2735.7254,0.0,0.0,0.0,0.0,-0.10411329291259232,0.0,-0.2512618182551108,-0.23464490165014878,-0.3456855007640027,-0.23114763853249579,-0.951215402767651,-0.08916729157462651
10447,7.0,300.92826,2960.9124,0.0,0.0,0.0,0.0,-0.10412325972217612,0.0,-0.3048956690408597,-0.2559241568677478,-0.3392236097087637,-0.18818287560220381,-0.9275534595423991,-0.08868909528268222
10448,7.0,300.16298,2848.1426,0.0,0.0,0.0,0.0,-0.10413322653175995,0.0,-0.2568308333222297,-0.2434493357440788,-0.36548405308046766,-0.17665479484197083,-0.8872799496727131,-0.08596397433748373
10449,7.0,300.26276,2377.8086,0.0,0.0,0.0,0.0,-0.10414319334134377,0.0,-0.17871394196019283,-0.22888192011638678,-0.3151985885751787,-0.18969157460360084,-0.8903379080770102,-0.1143603813439909
10450,7.0,300.46055,2424.6362,0.0,0.0,0.0,0.0,-0.10415316015092758,0.0,-0.1904934303352378,-0.21300393641185178,-0.3335315050194967,-0.20968799439959382,-0.9126650057530232,-0.06322243609231863
10451,7.0,300.45695,2943.6127,0.0,0.0,0.0,0.0,-0.10416312696051142,0.0,-0.28612041826538676,-0.24148398518761377,-0.3671803553378796,-0.21080477839481182,-0.8687420527331652,-0.07653679571884363
10452,7.0,299.07382,2747.0537,0.0,0.0,0.0,0.0,-0.10417309377009523,0.0,-0.25396234255413175,-0.22332820512577778,-0.3577451730566997,-0.1838126772583988,-0.8722322636301222,-0.06408639594908484
10453,7.0,299.82191,2526.6797,0.0,0.0,0.0,0.0,-0.10418306057967906,0.0,-0.23884210780438075,-0.19923797121575682,-0.32996745858775267,-0.18993197832232683,-0.8829726640276172,-0.07462134165030303
10454,7.0,300.34774,2792.8424,0.0,0.0,0.0,0.0,-0.10419302738926287,0.0,-0.22227866040719577,-0.22860311421887078,-0.3980725675667036,-0.22815438627958481,-0.8951135179183263,-0.06620739185341085
10455,7.0,299.63572999999997,2979.1675,0.0,0.0,0.0,0.0,-0.1042029941988467,0.0,-0.25711752230552376,-0.23782310244381277,-0.4106518953056866,-0.21870817983731677,-0.8774791056954451,-0.07651124053807151
10456,7.0,299.83932999999996,2954.3934,0.0,0.0,0.0,0.0,-0.10421296100843053,0.0,-0.27585808953007374,-0.24485218050752877,-0.37735155235919865,-0.21211637998675678,-0.8524684961895902,-0.07752131916525852
10457,7.0,299.74232,2785.4839,0.0,0.0,0.0,0.0,-0.10422292781801433,0.0,-0.27472323928557274,-0.23633010881896577,-0.3356642039624777,-0.2232228676453818,-0.8766626490298672,-0.0911826460235265
10458,7.0,300.31799,2397.5653,0.0,0.0,0.0,0.0,-0.10423289462759816,0.0,-0.2104573349355218,-0.2164236352343498,-0.3019190036920857,-0.1935452991064338,-0.9210985193828461,-0.07921653116556292
10459,7.0,300.19313999999997,2319.6832,0.0,0.0,0.0,0.0,-0.10424286143718198,0.0,-0.21374438918742883,-0.18756113520834283,-0.3038202357822227,-0.2051820610723928,-0.8912981246667762,-0.06317006626090015
10460,7.0,299.58092,2735.6617,0.0,0.0,0.0,0.0,-0.1042528282467658,0.0,-0.2229210609705958,-0.2243646687855688,-0.38428710743868466,-0.17621830696389285,-0.8989177451537742,-0.09174793116156581
10461,7.0,300.51959,2788.4320000000002,0.0,0.0,0.0,0.0,-0.10426279505634962,0.0,-0.2528280191996828,-0.2155294825511038,-0.3792562092346736,-0.20264676746717883,-0.9015873551922442,-0.059807360730026946
10462,7.0,300.58014,2531.2075,0.0,0.0,0.0,0.0,-0.10427276186593344,0.0,-0.21126239253747478,-0.21395556064076982,-0.34420592257047966,-0.2270047932461288,-0.9049908420131422,-0.09706233066405622
10463,7.0,299.78495,2734.9486,0.0,0.0,0.0,0.0,-0.10428272867551727,0.0,-0.25175261633854873,-0.2254999547276128,-0.35410352179979665,-0.23037894647663176,-0.8601689841670692,-0.05806996814130965
10464,7.0,299.34162000000003,3183.1163,0.0,0.0,0.0,0.0,-0.10429269548510108,0.0,-0.3129700159077357,-0.2531672148031588,-0.4014506522075946,-0.23312148012479875,-0.8255464106350872,-0.07780249910775883
10465,7.0,300.28382999999997,2991.782,0.0,0.0,0.0,0.0,-0.1043026622946849,0.0,-0.28496106763346774,-0.24974810366571876,-0.37471783163927064,-0.23303774513653477,-0.8632344000921023,-0.07663678729171201
10466,7.0,300.66459,2515.8725,0.0,0.0,0.0,0.0,-0.10431262910426874,0.0,-0.18135820048116083,-0.21295030508405882,-0.37045390296595365,-0.2213549410860318,-0.937845091470604,-0.09694465686369272
10467,7.0,301.10742999999997,2417.2821,0.0,0.0,0.0,0.0,-0.10432259591385254,0.0,-0.2078274645659738,-0.18603487658271284,-0.34093106784977667,-0.1980315247191898,-0.8984201988246702,-0.08520483216381222
10468,7.0,300.42888,2420.0142,0.0,0.0,0.0,0.0,-0.10433256272343637,0.0,-0.21944724446025682,-0.19601438695011383,-0.3201622475025537,-0.1998254130937328,-0.8849095726537751,-0.10056986712447309
10469,7.0,299.68086,2607.4991,0.0,0.0,0.0,0.0,-0.10434252953302019,0.0,-0.25276012131048176,-0.20750109670876382,-0.33235340926072765,-0.2047878966509918,-0.8710914048125281,-0.1083514941434599
10470,7.0,299.16141,2780.4646,0.0,0.0,0.0,0.0,-0.104352496342604,0.0,-0.24984528448280977,-0.25377889362352674,-0.34156761182759865,-0.23389902798653675,-0.8998403600323291,-0.07973352480383622
10471,7.0,299.09918999999996,2701.1283,0.0,0.0,0.0,0.0,-0.10436246315218783,0.0,-0.23104093316446478,-0.22094701672827277,-0.36908760613361064,-0.18719157249936982,-0.8780620892729811,-0.06617016605798694
10472,7.0,299.77373,2746.1983,0.0,0.0,0.0,0.0,-0.10437242996177165,0.0,-0.21398921067659077,-0.23687376816012076,-0.38391274192423763,-0.2093217754159508,-0.8681787768700742,-0.08485414225120182
10473,7.0,299.63521000000003,3151.0953,0.0,0.0,0.0,0.0,-0.10438239677135548,0.0,-0.3100056818126787,-0.2397336361698678,-0.4081149703678116,-0.21119342060316781,-0.8997466141330772,-0.06337411051303773
10474,7.0,300.00723999999997,3031.4154,0.0,0.0,0.0,0.0,-0.10439236358093928,0.0,-0.29367172543064274,-0.23118958708663576,-0.39661326450768164,-0.22999138844588277,-0.9191169669572822,-0.07770410644354822
10475,7.0,300.71434,2509.4246,0.0,0.0,0.0,0.0,-0.10440233039052312,0.0,-0.2344043256789058,-0.19808533843200082,-0.3303127539568307,-0.19841784658481681,-0.8751014231432862,-0.06560908185486224
10476,7.0,301.56576,2464.0829,0.0,0.0,0.0,0.0,-0.10441229720010695,0.0,-0.22742929437552378,-0.20313576196543878,-0.31845462724152473,-0.20696366885572381,-0.8530035327723942,-0.08215323697014322
10477,7.0,300.32897,2638.866,0.0,0.0,0.0,0.0,-0.10442226400969075,0.0,-0.24164870925637078,-0.19695087322253782,-0.3635497789045697,-0.2305662761551198,-0.8657575144311143,-0.05920420840925045
10478,7.0,299.7563,2637.5261,0.0,0.0,0.0,0.0,-0.10443223081927458,0.0,-0.2079733624478728,-0.23511531314157474,-0.35865340991633565,-0.23742266600429277,-0.9074388643872431,-0.09909053312422421
10479,7.0,298.59558,2509.1129,0.0,0.0,0.0,0.0,-0.1044421976288584,0.0,-0.2388967017197688,-0.1989483539396738,-0.3248626235239447,-0.18593458508781482,-0.9253195977094341,-0.06437723824453874
10480,7.0,298.93135,2798.0704,0.0,0.0,0.0,0.0,-0.10445216443844221,0.0,-0.2588869204251497,-0.24722694489939978,-0.3444296583250607,-0.17951650696689983,-0.9036196613153172,-0.0944941803978495
10481,7.0,299.95412000000005,2907.1053,0.0,0.0,0.0,0.0,-0.10446213124802604,0.0,-0.30893431168694274,-0.23041208988740278,-0.34434101920631266,-0.1971373720359438,-0.8945534945880562,-0.062126664877674445
10482,7.0,300.69052999999997,2792.7373,0.0,0.0,0.0,0.0,-0.10447209805760986,0.0,-0.2546650011009788,-0.23931374532842775,-0.35494364798771066,-0.22332835711329277,-0.9050577063872411,-0.06564973547537443
10483,7.0,299.78002999999995,2862.4454,0.0,0.0,0.0,0.0,-0.10448206486719369,0.0,-0.24255734128354578,-0.22118328638659077,-0.40637128853572363,-0.20000483942144082,-0.8714015404031362,-0.04519684549608136
10484,7.0,300.95992,2884.2870000000003,0.0,0.0,0.0,0.0,-0.1044920316767775,0.0,-0.24039621054275878,-0.2515597745795168,-0.38479523209883265,-0.1826840787670148,-0.8566737171521132,-0.07358199124097713
10485,7.0,300.35827,2676.5704,0.0,0.0,0.0,0.0,-0.10450199848636132,0.0,-0.23517735444519777,-0.2200077034880698,-0.3584255097038436,-0.1994104162502758,-0.9112998842907961,-0.09709192060672651
10486,7.0,299.82911,2715.0186,0.0,0.0,0.0,0.0,-0.10451196529594516,0.0,-0.24954705458087675,-0.23113182169843477,-0.34461900437124765,-0.23325993061846279,-0.943715740959992,-0.1131343791204939
10487,7.0,300.74895,2666.6063,0.0,0.0,0.0,0.0,-0.10452193210552896,0.0,-0.24611065739673077,-0.2392004538347468,-0.3252706188092107,-0.2332774699776938,-0.9277769115869521,-0.09505120754757382
10488,7.0,302.0653,2518.5717,0.0,0.0,0.0,0.0,-0.10453189891511279,0.0,-0.2214899667943578,-0.23297455886029877,-0.3111183925424947,-0.18722981255814383,-0.8605310488253022,-0.08900695183905222
10489,7.0,301.9847,2702.3387,0.0,0.0,0.0,0.0,-0.1045418657246966,0.0,-0.21806856571169178,-0.22993047184987075,-0.37344445997359865,-0.19405562251929884,-0.8628235778390573,-0.07536027455073002
10490,7.0,300.78463,2701.6159,0.0,0.0,0.0,0.0,-0.10455183253428042,0.0,-0.23850830269143677,-0.2174479804229448,-0.3652674810040937,-0.1912755074249228,-0.8802408505655082,-0.06334408284632424
10491,7.0,299.95444,2655.7863,0.0,0.0,0.0,0.0,-0.10456179934386425,0.0,-0.2296075591755018,-0.22418526272286282,-0.35349988818522265,-0.1978328466395818,-0.9149554880015761,-0.05177056795160725
10492,7.0,299.82191,2821.9929,0.0,0.0,0.0,0.0,-0.10457176615344807,0.0,-0.24865220275506175,-0.2372120417060058,-0.37195112184371765,-0.17128466050447982,-0.8880758170962592,-0.0968729177433626
10493,7.0,300.40976,3052.8583,0.0,0.0,0.0,0.0,-0.1045817329630319,0.0,-0.30710146384605475,-0.23797342822864878,-0.38291780125354463,-0.2040340183115898,-0.9151751808882581,-0.05618712451398744
10494,7.0,299.66578,2720.4486,0.0,0.0,0.0,0.0,-0.1045916997726157,0.0,-0.25179501072273275,-0.21287120064875178,-0.36228223342697263,-0.2089216632164628,-0.8932707807564622,-0.0866898454308716
10495,7.0,299.31977,2462.8073,0.0,0.0,0.0,0.0,-0.10460166658219953,0.0,-0.19049264000015984,-0.1845836187294848,-0.37355565403957264,-0.24185233199646675,-0.8830233164001161,-0.05002143787373155
10496,7.0,298.92696,2604.4287,0.0,0.0,0.0,0.0,-0.10461163339178337,0.0,-0.2220564445277648,-0.2161940935566958,-0.3534307541308997,-0.20854004283129982,-0.8615753449083662,-0.08980658956622031
10497,7.0,300.01302000000004,2798.408,0.0,0.0,0.0,0.0,-0.10462160020136717,0.0,-0.25882283235632475,-0.2269423061124618,-0.3648810172834526,-0.21021808632190983,-0.8854257019897132,-0.06538527618602434
10498,7.0,299.67601,2648.9287,0.0,0.0,0.0,0.0,-0.104631567010951,0.0,-0.23786219363267078,-0.23485712688359375,-0.33248886053409565,-0.2106199109140668,-0.9166065486420232,-0.1119756567036369
10499,7.0,299.41713,2471.6382,0.0,0.0,0.0,0.0,-0.10464153382053482,0.0,-0.24089680675466374,-0.18437347065874482,-0.3260460185807367,-0.2032538461320928,-0.914404958824743,-0.05080818807287775
10500,7.0,300.23928,2704.6794,0.0,0.0,0.0,0.0,-0.10465150063011863,0.0,-0.2226302581918958,-0.25122699284917377,-0.3482977608468127,-0.2058002652234048,-0.8785704773781552,-0.08587502516420512
10501,7.0,300.9283,2852.6457,0.0,0.0,0.0,0.0,-0.10466146743970245,0.0,-0.23754712351407578,-0.24520811500265677,-0.3843778237201377,-0.17787227563212685,-0.8780942903611592,-0.06615684384567214
10502,7.0,300.42791,2856.6175,0.0,0.0,0.0,0.0,-0.10467143424928628,0.0,-0.25488212033240676,-0.23275714578634177,-0.38070111400977463,-0.23409977309634877,-0.8753583327061412,-0.06218052519999004
10503,7.0,300.69639,2835.6403,0.0,0.0,0.0,0.0,-0.10468140105887008,0.0,-0.24072904293560676,-0.25255842374557574,-0.36867637858052565,-0.2113809731966778,-0.8831218144423372,-0.06806966549045293
10504,7.0,300.46188,2648.2352,0.0,0.0,0.0,0.0,-0.10469136786845391,0.0,-0.24080817776841676,-0.22515943176650577,-0.3390297546996317,-0.2141964405870428,-0.8912229617743582,-0.08540046238711942
10505,7.0,300.04784,2812.009,0.0,0.0,0.0,0.0,-0.10470133467803774,0.0,-0.26663210286453976,-0.2304799168490968,-0.3576685105541336,-0.19364197329847482,-0.9067955316337512,-0.09888623859931191
10506,7.0,298.7439,2797.0998,0.0,0.0,0.0,0.0,-0.10471130148762156,0.0,-0.24882761661237376,-0.23189797049654776,-0.36952289837657065,-0.21628449573061778,-0.910873407323706,-0.09158927240790742
10507,7.0,298.38585,2455.5697,0.0,0.0,0.0,0.0,-0.10472126829720538,0.0,-0.21471483960320478,-0.17668059218951684,-0.35503645156436964,-0.18533454851109582,-0.8911213327893281,-0.08044639691169123
10508,7.0,298.91648,2283.7986,0.0,0.0,0.0,0.0,-0.1047312351067892,0.0,-0.19456059597163583,-0.18966129869061282,-0.3099958431542077,-0.2204962521562858,-0.8542086113813262,-0.09778513262289122
10509,7.0,299.07164,2489.1253,0.0,0.0,0.0,0.0,-0.10474120191637303,0.0,-0.22537644967292378,-0.2076211972431168,-0.32363429082521766,-0.2227012667589038,-0.8896610063477052,-0.07033923020394153
10510,7.0,299.25154,2786.1044,0.0,0.0,0.0,0.0,-0.10475116872595683,0.0,-0.2711098273089567,-0.2257715361519158,-0.35002481524475965,-0.2466527563327318,-0.8974381669602511,-0.06542885911257564
10511,7.0,299.86954,2851.9876,0.0,0.0,0.0,0.0,-0.10476113553554066,0.0,-0.27129002370674077,-0.23158132984029775,-0.3640616627225886,-0.20517767369945983,-0.9123275630722202,-0.06207853549792444
10512,7.0,300.17388,2852.0303,0.0,0.0,0.0,0.0,-0.10477110234512448,0.0,-0.24494593653928176,-0.23907477029234278,-0.38292529930428465,-0.1887421896574038,-0.9123542520798542,-0.07331440708831863
10513,7.0,300.24178,2830.6039,0.0,0.0,0.0,0.0,-0.10478106915470829,0.0,-0.2576286765834708,-0.22898244465880777,-0.3738217943108387,-0.2016590614021998,-0.8987581582630241,-0.06461962894671083
10514,7.0,300.06861000000004,2744.1228,0.0,0.0,0.0,0.0,-0.10479103596429212,0.0,-0.24063638121396178,-0.24874109518633475,-0.34476732392088566,-0.21861873011848879,-0.9072217654208171,-0.0932343943895183
10515,7.0,300.09479,2727.2804,0.0,0.0,0.0,0.0,-0.10480100277387594,0.0,-0.2583225401194498,-0.2060784935683638,-0.36462410772059767,-0.20407138697527782,-0.8811779346554911,-0.059509584764138736
10516,7.0,300.68003999999996,2611.9829999999997,0.0,0.0,0.0,0.0,-0.10481096958345977,0.0,-0.24711485917333775,-0.2284569224944428,-0.31840581898420767,-0.2040212310953278,-0.8761501673942892,-0.08419621160351912
10517,7.0,300.08959,2249.9996,0.0,0.0,0.0,0.0,-0.10482093639304357,0.0,-0.18962927998745283,-0.17511284097229182,-0.31920158508274366,-0.2112974509909348,-0.9117969645248541,-0.08517176576004883
10518,7.0,299.6473,2546.7878,0.0,0.0,0.0,0.0,-0.1048309032026274,0.0,-0.2077955167903208,-0.20354235896556683,-0.3628220018877436,-0.21389998387278478,-0.939182206700067,-0.07826168784107723
10519,7.0,299.62416,3059.7058,0.0,0.0,0.0,0.0,-0.10484087001221121,0.0,-0.26834060465315573,-0.27628340125954876,-0.38545016656596964,-0.22435188156930677,-0.9271168804718122,-0.08174770793562063
10520,7.0,299.74034,3051.7757,0.0,0.0,0.0,0.0,-0.10485083682179504,0.0,-0.2746726882380837,-0.25564953569314475,-0.3973413758970406,-0.19919804916181683,-0.8908171855068112,-0.08276429466819993
10521,7.0,299.64988,2839.3021,0.0,0.0,0.0,0.0,-0.10486080363137887,0.0,-0.2293492614600098,-0.29415394128573374,-0.3395737484133197,-0.22894585619769675,-0.8572906851380032,-0.0966740400534849
10522,7.0,299.70018999999996,2683.1123,0.0,0.0,0.0,0.0,-0.10487077044096269,0.0,-0.23386229767041178,-0.24945062356885975,-0.3322862206465967,-0.2040336839390568,-0.8625271920523062,-0.07163765143858572
10523,7.0,300.00961,2620.885,0.0,0.0,0.0,0.0,-0.1048807372505465,0.0,-0.2255100872286128,-0.2094970271532468,-0.3616764922521906,-0.2059029074585348,-0.8637968754876142,-0.07927940232101782
10524,7.0,300.97702000000004,2577.5314,0.0,0.0,0.0,0.0,-0.10489070406013032,0.0,-0.22950105645749078,-0.22604065537847579,-0.3279634829374757,-0.17415869375062484,-0.8801568318672162,-0.08439529903616752
10525,7.0,300.60327,2420.9299,0.0,0.0,0.0,0.0,-0.10490067086971415,0.0,-0.2319521388468938,-0.17662305984883883,-0.3273270301521627,-0.19247153771046183,-0.9334596234477921,-0.08123954477196882
10526,7.0,300.51932999999997,2306.9741,0.0,0.0,0.0,0.0,-0.10491063767929798,0.0,-0.21364657002277482,-0.17955416947311684,-0.3080617918933317,-0.21780209106789278,-0.9313436026014571,-0.07864866831926921
10527,7.0,299.62911,2683.4272,0.0,0.0,0.0,0.0,-0.10492060448888178,0.0,-0.24049536719754477,-0.2408363663861988,-0.3343631199065707,-0.22933923028401978,-0.9193117642890071,-0.08456353908277152
10528,7.0,298.71808,3089.1763,0.0,0.0,0.0,0.0,-0.10493057129846561,0.0,-0.3072727436429587,-0.23058353180432278,-0.4011761728880056,-0.2105086763180888,-0.8755141807040221,-0.05728934709201834
10529,7.0,297.72227999999996,3029.8672,0.0,0.0,0.0,0.0,-0.10494053810804943,0.0,-0.24745152165156376,-0.25376481957963776,-0.41978762165231265,-0.2086261893548018,-0.8529699232665773,-0.08715060267534482
10530,7.0,299.29292000000004,2731.8723,0.0,0.0,0.0,0.0,-0.10495050491763325,0.0,-0.22544620180980776,-0.2261315236474438,-0.37884324902391764,-0.19512317269215781,-0.8822615144449322,-0.06459973378099734
10531,7.0,298.98400000000004,2528.5838,0.0,0.0,0.0,0.0,-0.10496047172721708,0.0,-0.2102555056481028,-0.1963094251142318,-0.36206141583267965,-0.1996386508353008,-0.9065347210580111,-0.060060415889501534
10532,7.0,299.30337000000003,2670.7857,0.0,0.0,0.0,0.0,-0.1049704385368009,0.0,-0.24966754015026776,-0.23431168422226276,-0.3278729490410407,-0.18140869073364382,-0.8900700452805742,-0.07609890246287693
10533,7.0,299.74099,2656.5416,0.0,0.0,0.0,0.0,-0.10498040534638471,0.0,-0.27077136124555273,-0.1952431111064948,-0.34150783007169866,-0.18899911948526082,-0.9077585549262941,-0.07946152389399183
10534,7.0,299.36757,2581.3029,0.0,0.0,0.0,0.0,-0.10499037215596853,0.0,-0.24042656751575475,-0.2050402972509018,-0.3391847515674287,-0.2107469319466028,-0.906178371130342,-0.06714649028459263
10535,7.0,300.23741,2476.9558,0.0,0.0,0.0,0.0,-0.10500033896555236,0.0,-0.18820359656674882,-0.2175309960036378,-0.3471981210432867,-0.2052499488290928,-0.8850068547958762,-0.08734262572829601
10536,7.0,300.72226,2640.8339,0.0,0.0,0.0,0.0,-0.10501030577513619,0.0,-0.2180527488776308,-0.20577997995640282,-0.3789148351434827,-0.19036453479001683,-0.8755621074337522,-0.06978069128506803
10537,7.0,300.12142,3021.9835,0.0,0.0,0.0,0.0,-0.10502027258471999,0.0,-0.27859553666273873,-0.26864833884102673,-0.37136363943573764,-0.2097463272078508,-0.8980009868607971,-0.10905882377326791
10538,7.0,300.26875,2930.7678,0.0,0.0,0.0,0.0,-0.10503023939430382,0.0,-0.28264519333740873,-0.23510592031314778,-0.37312911627747664,-0.1990847171381318,-0.9226213836206412,-0.093382893284424
10539,7.0,301.13549,2483.1963,0.0,0.0,0.0,0.0,-0.10504020620388764,0.0,-0.23612549309377176,-0.20599434314755882,-0.3127098436795587,-0.1936330566975948,-0.906056173168282,-0.09340120777998151
10540,7.0,300.1921,2431.7624,0.0,0.0,0.0,0.0,-0.10505017301347146,0.0,-0.2072114085051738,-0.19738716858309682,-0.33459647140460064,-0.2118364291166278,-0.8805908879450541,-0.07180424495377723
10541,7.0,300.02985,2756.2122,0.0,0.0,0.0,0.0,-0.10506013982305529,0.0,-0.22820066141165177,-0.2063526486479208,-0.4032663761217926,-0.22120912426414077,-0.8773150199742511,-0.06222656728453403
10542,7.0,299.56532000000004,2705.9631,0.0,0.0,0.0,0.0,-0.1050701066326391,0.0,-0.24491682586390875,-0.2108826061349928,-0.3667457926349917,-0.24746904074579276,-0.9073776640812031,-0.047265195964961655
10543,7.0,299.94325,2610.2843,0.0,0.0,0.0,0.0,-0.10508007344222292,0.0,-0.2206432747457958,-0.2257958642868168,-0.3470221093684157,-0.20003195399411683,-0.8947388788263522,-0.06579915946762144
10544,7.0,299.59674,2664.4235,0.0,0.0,0.0,0.0,-0.10509004025180674,0.0,-0.24324407153882074,-0.18313550195156683,-0.3835386297223156,-0.2109605352001838,-0.8951984080117041,-0.05829794434755914
10545,7.0,299.4574,2984.8968,0.0,0.0,0.0,0.0,-0.10510000706139057,0.0,-0.3007462984238487,-0.24485422727273076,-0.3617335584978226,-0.17881620929278583,-0.9139155590264431,-0.0938570142844661
10546,7.0,299.87331,3068.6713,0.0,0.0,0.0,0.0,-0.1051099738709744,0.0,-0.2901724256802887,-0.22665760309936378,-0.4159694318304866,-0.2123967665544288,-0.9024260729625192,-0.07055099339534093
10547,7.0,300.15148999999997,2794.1232,0.0,0.0,0.0,0.0,-0.1051199406805582,0.0,-0.24626537055449974,-0.23625855309690377,-0.36681974975979065,-0.19871170937881882,-0.8824460880831481,-0.1011678498432394
10548,7.0,300.89435,2605.8018,0.0,0.0,0.0,0.0,-0.10512990749014203,0.0,-0.2190400091125658,-0.21369450688500577,-0.35936417446398267,-0.2060179924048928,-0.8668169788681752,-0.07083465276083593
10549,7.0,300.49262999999996,2558.6022,0.0,0.0,0.0,0.0,-0.10513987429972585,0.0,-0.2212239886431078,-0.22300957849933178,-0.3335176234931267,-0.23285063837306877,-0.889026276087562,-0.1037866099254409
10550,7.0,299.9325,2768.7958,0.0,0.0,0.0,0.0,-0.10514984110930967,0.0,-0.25385272915831375,-0.24348272233487375,-0.34430934500818666,-0.2381302084166218,-0.925039211141762,-0.06891991809986633
10551,7.0,300.42831,2820.8004,0.0,0.0,0.0,0.0,-0.1051598079188935,0.0,-0.26715327818597573,-0.23013069006963077,-0.36016890782590366,-0.2114757526110318,-0.9237649680810042,-0.09229625651943131
10552,7.0,299.70999,2589.7683,0.0,0.0,0.0,0.0,-0.10516977472847731,0.0,-0.2170179469480038,-0.22688991094979077,-0.34331702865525265,-0.19726453492349383,-0.8921629437596271,-0.06012796116766774
10553,7.0,299.29125,2567.8465,0.0,0.0,0.0,0.0,-0.10517974153806113,0.0,-0.22633111365214179,-0.21678705764771677,-0.33744302530803366,-0.2026837612283298,-0.8939394650274561,-0.0992403816682631
10554,7.0,300.17659,2890.494,0.0,0.0,0.0,0.0,-0.10518970834764495,0.0,-0.27006614930845374,-0.2177439001146498,-0.3908279408092146,-0.2030276785772718,-0.8720361085432632,-0.06464071468129184
10555,7.0,299.81675,2737.6713,0.0,0.0,0.0,0.0,-0.10519967515722878,0.0,-0.24702451779442175,-0.23676797471717975,-0.34839123316853765,-0.20226761941225982,-0.8789585319014531,-0.11480435714030789
10556,7.0,299.65647,2677.3402,0.0,0.0,0.0,0.0,-0.10520964196681261,0.0,-0.25411692398938773,-0.21016557970172778,-0.34956204365908766,-0.18782725521460683,-0.8923937013374011,-0.08144129401262992
10557,7.0,299.74384,2730.0437,0.0,0.0,0.0,0.0,-0.10521960877639641,0.0,-0.25970252596064375,-0.2228934904353748,-0.34726909921279164,-0.2147736385065078,-0.9027185172063811,-0.08708132980575811
10558,7.0,298.77955,2627.9825,0.0,0.0,0.0,0.0,-0.10522957558598024,0.0,-0.24241404745440376,-0.21781520252418682,-0.3386118092983837,-0.21791117757365877,-0.9184403590705061,-0.06734316618200303
10559,7.0,300.31746,2761.9,0.0,0.0,0.0,0.0,-0.10523954239556406,0.0,-0.24683754275346875,-0.23996766654546475,-0.3527434159255647,-0.2319986774239868,-0.899897547867973,-0.07450625366419474
10560,7.0,300.84227000000004,2738.0371,0.0,0.0,0.0,0.0,-0.10524950920514788,0.0,-0.23174385515633777,-0.2317312097950898,-0.36881986492718666,-0.2248010654711378,-0.8752883373892332,-0.04094675883238046
10561,7.0,300.39449,2661.8975,0.0,0.0,0.0,0.0,-0.1052594760147317,0.0,-0.24389651341071175,-0.2224885855629138,-0.3427652734457987,-0.1988718535571238,-0.8974475800536801,-0.07823254575495113
10562,7.0,301.22621000000004,2743.3718,0.0,0.0,0.0,0.0,-0.10526944282431552,0.0,-0.2666365105024747,-0.20924422125329678,-0.35803579345038167,-0.2009516608448848,-0.9020354447839671,-0.053221580598311044
10563,7.0,299.9459,2654.5355,0.0,0.0,0.0,0.0,-0.10527940963389934,0.0,-0.2523471914972288,-0.22751067862355576,-0.3270546381277797,-0.2005546086606988,-0.9237710171841012,-0.1069822386208249
10564,7.0,299.51092,2676.2043,0.0,0.0,0.0,0.0,-0.10528937644348316,0.0,-0.22783689449325079,-0.21125869417460982,-0.37440369371076765,-0.2040719037328288,-0.9030464758662482,-0.06548678459429244
10565,7.0,299.86312000000004,2653.0893,0.0,0.0,0.0,0.0,-0.10529934325306699,0.0,-0.24850715600324677,-0.2219528295725388,-0.3360129241168937,-0.21803058909794382,-0.9125105357752781,-0.1044847189793389
10566,7.0,299.26122000000004,2642.8491,0.0,0.0,0.0,0.0,-0.10530931006265082,0.0,-0.2282258001466328,-0.21998361853319282,-0.35515072591064767,-0.2185409023783078,-0.8773069443709541,-0.06614498071350135
10567,7.0,299.87581,2808.9596,0.0,0.0,0.0,0.0,-0.10531927687223462,0.0,-0.24891727911372277,-0.23838065344383874,-0.36655563598872465,-0.23525906293326176,-0.8731333266790502,-0.09420984620778791
10568,7.0,300.51631000000003,2751.4192,0.0,0.0,0.0,0.0,-0.10532924368181845,0.0,-0.23363376924285778,-0.25258459599565874,-0.3501443584915577,-0.1988202588620318,-0.8894512331795021,-0.06388507835296635
10569,7.0,299.6611,2612.8658,0.0,0.0,0.0,0.0,-0.10533921049140227,0.0,-0.20835673575570882,-0.23392378168647973,-0.3519654323662837,-0.16988855385419482,-0.9097221424275851,-0.08431756451499572
10570,7.0,300.24076,2791.3914,0.0,0.0,0.0,0.0,-0.10534917730098609,0.0,-0.2520192733673658,-0.2339099508226148,-0.36258405023425966,-0.1918915634857228,-0.9104622203006251,-0.07042635755354033
10571,7.0,300.10446,2603.6943,0.0,0.0,0.0,0.0,-0.10535914411056992,0.0,-0.24332055165636876,-0.21721465932241776,-0.3309228419745417,-0.18087209374568583,-0.909185079344581,-0.09220394234257061
10572,7.0,298.6658,2594.4258,0.0,0.0,0.0,0.0,-0.10536911092015373,0.0,-0.23077456997817677,-0.22084207441541578,-0.33702400586167963,-0.2329658145119358,-0.8931337488129382,-0.06809341505954684
10573,7.0,299.29365,2818.36,0.0,0.0,0.0,0.0,-0.10537907772973755,0.0,-0.26232556702451776,-0.2443744938803848,-0.3500110046458967,-0.2164510132520518,-0.8983665573643762,-0.08025743995354263
10574,7.0,298.31195,2870.5962,0.0,0.0,0.0,0.0,-0.10538904453932137,0.0,-0.27802014232845174,-0.22077635501392978,-0.37379305853800265,-0.23983695728256477,-0.9117214165973981,-0.07533645709387943
10575,7.0,299.59922,2784.3635,0.0,0.0,0.0,0.0,-0.1053990113489052,0.0,-0.25189108709721475,-0.2171650303325198,-0.3773208508811686,-0.2042026535257328,-0.9018309810462881,-0.08470294304477963
10576,7.0,300.08148,2583.7285,0.0,0.0,0.0,0.0,-0.10540897815848903,0.0,-0.23126483103906176,-0.2070971341588958,-0.3470269932338977,-0.1915528238447918,-0.9257864121630052,-0.08310328964815612
10577,7.0,300.21723,2624.6266,0.0,0.0,0.0,0.0,-0.10541894496807283,0.0,-0.22945683822312676,-0.2034398585854508,-0.3649242729302216,-0.18185519965521083,-0.920092372166047,-0.053475712842641944
10578,7.0,299.57164,2797.3522,0.0,0.0,0.0,0.0,-0.10542891177765666,0.0,-0.25931354937975476,-0.23570557185482877,-0.35530611794598366,-0.20928586583240677,-0.9070457942759502,-0.07353872647495723
10579,7.0,300.03117000000003,2799.2923,0.0,0.0,0.0,0.0,-0.10543887858724048,0.0,-0.2739796049046817,-0.22761725226907378,-0.3493180935650117,-0.20886658294102678,-0.9090644620526771,-0.05319189338363115
10580,7.0,300.35899,2543.4099,0.0,0.0,0.0,0.0,-0.1054488453968243,0.0,-0.2369944259820288,-0.20231526243196182,-0.33382341224080564,-0.21413035641552078,-0.8806781490436663,-0.06833668424955563
10581,7.0,300.87066,2583.1545,0.0,0.0,0.0,0.0,-0.10545881220640813,0.0,-0.2083126289788558,-0.24120151132473575,-0.3357003465935447,-0.22364190735673778,-0.8994142073052712,-0.07681851572364723
10582,7.0,299.88612,2890.4338,0.0,0.0,0.0,0.0,-0.10546877901599194,0.0,-0.2701931804734907,-0.24146100467534576,-0.36696551591917664,-0.2521278228505787,-0.9131806385964121,-0.08335156429365892
10583,7.0,299.27411,2948.2058,0.0,0.0,0.0,0.0,-0.10547874582557577,0.0,-0.2715039917303578,-0.24572516639618575,-0.3789517782421286,-0.25285557960240274,-0.9142009915796131,-0.07788008265466573
10584,7.0,300.02377,2595.5922,0.0,0.0,0.0,0.0,-0.10548871263515958,0.0,-0.23754547191641276,-0.2390779417651558,-0.3123718133136977,-0.20845999607339982,-0.9010009164318671,-0.11528654259789589
10585,7.0,300.62854,2484.1607,0.0,0.0,0.0,0.0,-0.1054986794447434,0.0,-0.24446525069184177,-0.17870748755705582,-0.33195006479342065,-0.1900454420685248,-0.8902833546916262,-0.08143600383385784
10586,7.0,300.7634,2628.8223,0.0,0.0,0.0,0.0,-0.10550864625432724,0.0,-0.24169483240092274,-0.22993512266782978,-0.3274663723059147,-0.19194973417396383,-0.8914954145937471,-0.12542834523381388
10587,7.0,299.28151,2632.1659999999997,0.0,0.0,0.0,0.0,-0.10551861306391104,0.0,-0.21718370453186278,-0.20937624774132682,-0.37355277640928863,-0.1938127464703288,-0.9028864228804521,-0.07621640806372383
10588,7.0,298.90831000000003,2580.3468,0.0,0.0,0.0,0.0,-0.10552857987349487,0.0,-0.23229302657803677,-0.2042678156396638,-0.3478001537227027,-0.2064610968061238,-0.8981204997100921,-0.09511591775196021
10589,7.0,299.738,2861.0031,0.0,0.0,0.0,0.0,-0.10553854668307869,0.0,-0.2383397384048008,-0.25263245179788174,-0.3787013332149116,-0.20864335381149582,-0.9236628122059222,-0.06947750355039573
10590,7.0,299.88989,2911.4097,0.0,0.0,0.0,0.0,-0.1055485134926625,0.0,-0.25905770372950476,-0.23474468651999675,-0.39119345051778764,-0.2167829742498138,-0.9320258238937872,-0.07021585484526534
10591,7.0,299.71926,2947.0908,0.0,0.0,0.0,0.0,-0.10555848030224634,0.0,-0.2933763630264927,-0.24229249797240776,-0.36017317360882467,-0.24489888120463776,-0.9394754007490032,-0.05053554780222025
10592,7.0,300.07985,2948.2469,0.0,0.0,0.0,0.0,-0.10556844711183015,0.0,-0.2541772731653438,-0.23941280065820378,-0.4026033761838596,-0.1966178584446718,-0.8704775272394432,-0.06796146051227393
10593,7.0,300.09342000000004,2744.8317,0.0,0.0,0.0,0.0,-0.10557841392141398,0.0,-0.26361860587463076,-0.19904410607412382,-0.37169758640369566,-0.2117638702769668,-0.8842286179240701,-0.04700851944962966
10594,7.0,300.40524,2521.1812,0.0,0.0,0.0,0.0,-0.10558838073099779,0.0,-0.21954097009450677,-0.21371849051487277,-0.3331166804285567,-0.2006318993783268,-0.8691740924433041,-0.0917696988134641
10595,7.0,301.08064,2516.6281,0.0,0.0,0.0,0.0,-0.10559834754058162,0.0,-0.2450133379359338,-0.17019554836949283,-0.3497832158909157,-0.25373058185875874,-0.9216113657884601,-0.06883996152122523
10596,7.0,300.95063,2649.8446,0.0,0.0,0.0,0.0,-0.10560831435016545,0.0,-0.26492115914318276,-0.2117214150977768,-0.3288440074068767,-0.2088023428846868,-0.9060034841630822,-0.08663573078278092
10597,7.0,300.1884,2659.24,0.0,0.0,0.0,0.0,-0.10561828115974925,0.0,-0.27839586559803275,-0.20154724925366482,-0.3283994337930007,-0.23563642766800477,-0.9195635974688612,-0.07239063305164924
10598,7.0,299.18683,2666.2193,0.0,0.0,0.0,0.0,-0.10562824796933308,0.0,-0.24012915834640278,-0.22093883979996579,-0.3493961036902107,-0.19276840985726082,-0.901384897689763,-0.08427723412126542
10599,7.0,299.33441,2723.225,0.0,0.0,0.0,0.0,-0.1056382147789169,0.0,-0.2381249192510998,-0.2236058457856788,-0.36606163603497066,-0.20973323601655883,-0.9312155075238152,-0.07309659986007273
10600,7.0,298.95418,2736.9708,0.0,0.0,0.0,0.0,-0.1056481815885007,0.0,-0.2266585656869588,-0.23543150796778078,-0.36988070738438367,-0.19598244930696182,-0.8983911692093051,-0.08336167045015633
10601,7.0,299.35971,2795.8536,0.0,0.0,0.0,0.0,-0.10565814839808454,0.0,-0.2366047705235728,-0.22173411953845382,-0.39153079187358064,-0.19928813722820782,-0.8986088457282881,-0.07187611680987042
10602,7.0,300.44821,2793.5728,0.0,0.0,0.0,0.0,-0.10566811520766836,0.0,-0.28343308648266774,-0.23728043608775576,-0.3284628632492607,-0.18089275391522483,-0.9037113807143692,-0.07962675256129863
10603,7.0,300.63074,2379.077,0.0,0.0,0.0,0.0,-0.10567808201725219,0.0,-0.2247389633725088,-0.1819107257606908,-0.3165303031816087,-0.2062078856061338,-0.9165634449827691,-0.04667230280144766
10604,7.0,300.75751,2358.0074,0.0,0.0,0.0,0.0,-0.105688048826836,0.0,-0.2018566147741968,-0.2174291238385838,-0.2974896112774387,-0.2274442702120018,-0.8969580181353641,-0.10573185759992189
10605,7.0,301.13501,3042.6637,0.0,0.0,0.0,0.0,-0.10569801563641983,0.0,-0.2792280985676677,-0.2562708201244608,-0.3893948809277826,-0.22974261528133078,-0.8856100932429111,-0.06511428953953004
10606,7.0,299.3269,3089.6852,0.0,0.0,0.0,0.0,-0.10570798244600366,0.0,-0.28598425771694874,-0.26765563745305476,-0.38554725619055163,-0.24579214222779575,-0.8626510213470271,-0.1186525695625969
10607,7.0,299.98255,2966.2394,0.0,0.0,0.0,0.0,-0.10571794925558746,0.0,-0.27638406765698376,-0.2670382439021228,-0.35824040917557565,-0.2091633436303148,-0.895784715049568,-0.06255129975608263
10608,7.0,300.60373,2769.5819,0.0,0.0,0.0,0.0,-0.10572791606517129,0.0,-0.26338502132907776,-0.2225565138496178,-0.3559422160937617,-0.1911432884193738,-0.8980999509980642,-0.09723424880852322
10609,7.0,301.60573999999997,2689.828,0.0,0.0,0.0,0.0,-0.10573788287475511,0.0,-0.25230055159512577,-0.2111546029918368,-0.35418539240787666,-0.1901082230447208,-0.9144853399551761,-0.03840390942117076
10610,7.0,302.68634,2835.025,0.0,0.0,0.0,0.0,-0.10574784968433892,0.0,-0.2333845603807628,-0.2553099550546308,-0.37308230412285665,-0.20407463950809882,-0.9353185422137532,-0.1104560652636649
10611,7.0,301.19337,2731.4949,0.0,0.0,0.0,0.0,-0.10575781649392274,0.0,-0.23507229054232878,-0.19284504196232383,-0.4023889218001946,-0.18968451225040384,-0.9270552444682292,-0.026127660999099373
10612,7.0,299.89092999999997,2463.3629,0.0,0.0,0.0,0.0,-0.10576778330350657,0.0,-0.18603895998061581,-0.23469407467750178,-0.32806777677026866,-0.24820633218105775,-0.9045678506263961,-0.1104143294920459
10613,7.0,300.9031,2679.8449,0.0,0.0,0.0,0.0,-0.10577775011309037,0.0,-0.23985948183228775,-0.22477244115581277,-0.3499740210172467,-0.22603476839539477,-0.8876501709942511,-0.03389068677275037
10614,7.0,300.33668,2925.5588,0.0,0.0,0.0,0.0,-0.1057877169226742,0.0,-0.3157045347476117,-0.23707537453251779,-0.3365169248491347,-0.26645164302172974,-0.9025682420840502,-0.0967903257012114
10615,7.0,299.84443,3026.7237,0.0,0.0,0.0,0.0,-0.10579768373225802,0.0,-0.29099028063100474,-0.24142201481149778,-0.38763612193420666,-0.20604833924538782,-0.9057392386695031,-0.05431665672338665
10616,7.0,300.62086,2629.9532,0.0,0.0,0.0,0.0,-0.10580765054184184,0.0,-0.2540899006092207,-0.21525590502410383,-0.33009428710276967,-0.1909396555467768,-0.8989508581670421,-0.1068603851637989
10617,7.0,299.47452999999996,2587.1221,0.0,0.0,0.0,0.0,-0.10581761735142567,0.0,-0.22075762001958077,-0.21980866063842577,-0.3458542373031557,-0.16936151181467982,-0.8825260841785432,-0.08702072123777652
10618,7.0,300.68182,2992.3586,0.0,0.0,0.0,0.0,-0.10582758416100949,0.0,-0.27576684635856874,-0.26247592320685675,-0.37135951550783064,-0.2071629042228868,-0.8871644290288121,-0.1022953185607619
10619,7.0,300.69065,2862.9886,0.0,0.0,0.0,0.0,-0.10583755097059332,0.0,-0.25537361755841376,-0.2303618732124468,-0.38454155480379665,-0.22295576478652077,-0.8981767857531472,-0.06697405538257464
10620,7.0,299.59463,2458.0443,0.0,0.0,0.0,0.0,-0.10584751778017712,0.0,-0.18949264321146783,-0.23993137192688274,-0.3177600848279787,-0.1961967213056088,-0.9011332164974242,-0.08649514334465601
10621,7.0,298.55486,2575.2378,0.0,0.0,0.0,0.0,-0.10585748458976095,0.0,-0.1983128536094548,-0.21298233391971982,-0.37151279998295866,-0.2213366924517308,-0.9146778980041802,-0.07201850783317333
10622,7.0,298.86143,2720.9285,0.0,0.0,0.0,0.0,-0.10586745139934477,0.0,-0.22849642911584175,-0.2479280025110888,-0.3506699009209247,-0.2203184571612388,-0.9296862192803861,-0.1048858038989229
10623,7.0,299.13651,2807.7904,0.0,0.0,0.0,0.0,-0.10587741820892858,0.0,-0.24772030650559076,-0.23818589664211778,-0.3675919577935016,-0.2116708843152898,-0.9341944729503161,-0.07353268142486064
10624,7.0,299.40916,2816.4275,0.0,0.0,0.0,0.0,-0.1058873850185124,0.0,-0.2525000808048178,-0.2194248921630508,-0.3841986507049546,-0.18804089899819182,-0.8970283984873102,-0.11599175453499488
10625,7.0,299.57315,2733.5785,0.0,0.0,0.0,0.0,-0.10589735182809623,0.0,-0.27156578985395674,-0.2149608465949838,-0.3444129599634127,-0.19671443131170283,-0.9100551673379521,-0.04646914311664736
10626,7.0,300.42884,2671.8566,0.0,0.0,0.0,0.0,-0.10590731863768005,0.0,-0.24895305697475376,-0.19903268674549682,-0.36419194642044667,-0.17695525389412384,-0.9011483544539182,-0.09033390113026192
10627,7.0,299.70272,2811.9959999999996,0.0,0.0,0.0,0.0,-0.10591728544726386,0.0,-0.2884083167261847,-0.18985374528210583,-0.37651451658408963,-0.2315435558765698,-0.9064021372824262,-0.043400131167009456
10628,7.0,299.83882,2906.8409,0.0,0.0,0.0,0.0,-0.1059272522568477,0.0,-0.2551251686338938,-0.23072741331852278,-0.39775445769780865,-0.21461917866126382,-0.910605210154737,-0.08839618595702432
10629,7.0,300.10292000000004,2811.0222,0.0,0.0,0.0,0.0,-0.1059372190664315,0.0,-0.24923025180461075,-0.2313657608815228,-0.37388453475703065,-0.25312834652932276,-0.8874331530878332,-0.05504013046703795
10630,7.0,299.98314,2860.3794,0.0,0.0,0.0,0.0,-0.10594718587601533,0.0,-0.25358886869977276,-0.2560085606010778,-0.35988649475803164,-0.2337955751513268,-0.903352842166484,-0.07646476680898492
10631,7.0,299.61036,2746.7366,0.0,0.0,0.0,0.0,-0.10595715268559916,0.0,-0.3001787973078407,-0.1791065763739428,-0.3556539565728127,-0.23548551419811076,-0.8941815811388513,-0.045563313739248955
10632,7.0,300.03691000000003,2497.6912,0.0,0.0,0.0,0.0,-0.10596711949518298,0.0,-0.22404539367905882,-0.19309773640476283,-0.34209261723441264,-0.22545843173851482,-0.8840337395323371,-0.052152327152033946
10633,7.0,299.61182,2506.6910000000003,0.0,0.0,0.0,0.0,-0.1059770863047668,0.0,-0.21488037427204182,-0.2026352873435458,-0.34445580017764066,-0.2196732600275628,-0.9103019038698031,-0.0902460290418396
10634,7.0,300.44761,2741.7292,0.0,0.0,0.0,0.0,-0.10598705311435061,0.0,-0.24788709760455174,-0.21437127689179777,-0.3711588514580267,-0.19394328348071183,-0.9119385155638241,-0.07809815738093802
10635,7.0,299.8887,2662.3811,0.0,0.0,0.0,0.0,-0.10599701992393444,0.0,-0.23792429573129978,-0.2416268737167158,-0.3297461951634157,-0.2159827397183368,-0.9126274749693191,-0.13773290994317985
10636,7.0,299.50948999999997,2649.6237,0.0,0.0,0.0,0.0,-0.10600698673351827,0.0,-0.2594091191291868,-0.1987783103078918,-0.3472320041266307,-0.1896075559053088,-0.9121721001093771,-0.09257692274413092
10637,7.0,299.06717000000003,2707.2708,0.0,0.0,0.0,0.0,-0.10601695354310207,0.0,-0.25773884726684376,-0.2314608645359088,-0.3337430007128697,-0.26178389365355875,-0.910561093245383,-0.10878253073599989
10638,7.0,299.48396,2725.4298,0.0,0.0,0.0,0.0,-0.1060269203526859,0.0,-0.22880694974148777,-0.2280333028926348,-0.37162236271627164,-0.2119601165563348,-0.9083162781788371,-0.06683597979144763
10639,7.0,300.01768,2722.5749,0.0,0.0,0.0,0.0,-0.10603688716226971,0.0,-0.2582853639732808,-0.1952253184347388,-0.37408411462922764,-0.19082343576030683,-0.914013499781109,-0.06756668712756285
10640,7.0,300.65727999999996,2768.117,0.0,0.0,0.0,0.0,-0.10604685397185354,0.0,-0.2236533672153688,-0.2255179500493888,-0.39226713085375164,-0.18583657340564183,-0.8969963189891442,-0.062170206260971646
10641,7.0,300.98339,2701.2972,0.0,0.0,0.0,0.0,-0.10605682078143737,0.0,-0.24628577741151378,-0.22709090937212775,-0.34775021062527367,-0.2053780135092318,-0.9081721636171141,-0.08610430744983352
10642,7.0,301.328,2736.4947,0.0,0.0,0.0,0.0,-0.10606678759102119,0.0,-0.25506320839027874,-0.2286953098454698,-0.34806754029159165,-0.2206192708509268,-0.9235659657613642,-0.08607769443595702
10643,7.0,299.74217000000004,2768.6182,0.0,0.0,0.0,0.0,-0.106076754400605,0.0,-0.28811065424430776,-0.23422472709868078,-0.3192554190605567,-0.21304832689873282,-0.8923462407027172,-0.07766851806028592
10644,7.0,298.73704,2685.3422,0.0,0.0,0.0,0.0,-0.10608672121018882,0.0,-0.23454493439528276,-0.19609257946033082,-0.38563945181715065,-0.23846587790974977,-0.9321889672923881,-0.05489016033298705
10645,7.0,299.72848999999997,2699.0471,0.0,0.0,0.0,0.0,-0.10609668801977265,0.0,-0.23640387342624578,-0.2234730897575768,-0.3605659701425907,-0.2010757535846318,-0.9077072743387332,-0.07022180161010223
10646,7.0,299.90907999999996,2878.9484,0.0,0.0,0.0,0.0,-0.10610665482935648,0.0,-0.24439240814215274,-0.25028987836168776,-0.3804461296221096,-0.2352044892828758,-0.9244163865702941,-0.09609039583688371
10647,7.0,298.28725,2819.4889,0.0,0.0,0.0,0.0,-0.10611662163894028,0.0,-0.2793868241958327,-0.2164436671888268,-0.36122373157750665,-0.17062296765917584,-0.8945748336351621,-0.08176041105212432
10648,7.0,298.90191,2471.9665,0.0,0.0,0.0,0.0,-0.10612658844852411,0.0,-0.25161964752792576,-0.2002950545150828,-0.2995013990859867,-0.2170583958919958,-0.9052690095630952,-0.09829084068155071
10649,7.0,299.82628,2376.4581,0.0,0.0,0.0,0.0,-0.10613655525810792,0.0,-0.20867038732416382,-0.1994846165550988,-0.3142289284944807,-0.19939795327404583,-0.8924773046031522,-0.08444468180629122
10650,7.0,300.44052999999997,2527.9716,0.0,0.0,0.0,0.0,-0.10614652206769176,0.0,-0.19967072020096582,-0.2071164669708038,-0.36165306590987867,-0.2431670543987198,-0.918243555503583,-0.06325231075826704
10651,7.0,299.92169,2593.7253,0.0,0.0,0.0,0.0,-0.10615648887727558,0.0,-0.1777379591988708,-0.26494947948347775,-0.3457402973294107,-0.2025475905473908,-0.9191339490289581,-0.1031487487224889
10652,7.0,299.77964,2519.0308,0.0,0.0,0.0,0.0,-0.1061664556868594,0.0,-0.1871666972094148,-0.2073646929803018,-0.37119107281120667,-0.2139676487144628,-0.9243676897704881,-0.06144809027245435
10653,7.0,299.85676,2725.2421,0.0,0.0,0.0,0.0,-0.10617642249644321,0.0,-0.24825590037594975,-0.25015274509315377,-0.32999691376815965,-0.1973769651545898,-0.9296560953549132,-0.12560327273107788
10654,7.0,300.79566,2887.0215,0.0,0.0,0.0,0.0,-0.10618638930602703,0.0,-0.27544286977159477,-0.24648832610650376,-0.35565124106254464,-0.2106393146534818,-0.9226672939826721,-0.07015174853793853
10655,7.0,300.72182000000004,2884.4395,0.0,0.0,0.0,0.0,-0.10619635611561086,0.0,-0.2769406560694147,-0.22621992971866878,-0.3736370078901017,-0.2040862817517478,-0.8791453448223903,-0.08723609565253232
10656,7.0,300.61455,2900.9243,0.0,0.0,0.0,0.0,-0.10620632292519469,0.0,-0.24893640927561075,-0.2389600399835198,-0.39391209172859665,-0.1973967539290428,-0.8711498288132942,-0.056402674221010536
10657,7.0,299.98337000000004,2869.4622,0.0,0.0,0.0,0.0,-0.1062162897347785,0.0,-0.24554276111318377,-0.21834527418150076,-0.4083568230341806,-0.1990216524519078,-0.8769979740179612,-0.04673211596810076
10658,7.0,299.64985,2813.4039,0.0,0.0,0.0,0.0,-0.10622625654436232,0.0,-0.23252823232374978,-0.24100098912994578,-0.38167530331841965,-0.2026368173511968,-0.9044596861782211,-0.06662465229759124
10659,7.0,298.9489,2890.7615,0.0,0.0,0.0,0.0,-0.10623622335394613,0.0,-0.28940774609482073,-0.24622174000519378,-0.3430898275853297,-0.2206091282174258,-0.907467063137526,-0.05918988510583685
10660,7.0,298.59583,2831.4764,0.0,0.0,0.0,0.0,-0.10624619016352996,0.0,-0.2757030723972747,-0.2061463205300578,-0.37884874083945963,-0.2198543886154388,-0.9222400469455061,-0.08815033703226091
10661,7.0,299.22377,2723.0586,0.0,0.0,0.0,0.0,-0.10625615697311379,0.0,-0.23736508300110976,-0.24609319909750774,-0.3442835375281397,-0.23986393000022677,-0.9183974377962701,-0.07672337356575742
10662,7.0,300.01479,2665.2935,0.0,0.0,0.0,0.0,-0.1062661237826976,0.0,-0.2030816341450968,-0.22065804793225377,-0.38644297941145267,-0.2052266643417948,-0.9206450494330922,-0.09114858866116532
10663,7.0,299.73982,2686.6697,0.0,0.0,0.0,0.0,-0.10627609059228142,0.0,-0.2047247610372608,-0.23758014533483476,-0.37437557602049265,-0.2415808620296748,-0.8849322390585121,-0.08659562837032311
10664,7.0,299.78688999999997,2667.889,0.0,0.0,0.0,0.0,-0.10628605740186524,0.0,-0.22375853244324778,-0.24111012629821676,-0.3461029699377037,-0.18585343388730582,-0.889835650134941,-0.0910831813407101
10665,7.0,300.38586000000004,2479.5101,0.0,0.0,0.0,0.0,-0.10629602421144907,0.0,-0.25421062935863575,-0.18574312134891882,-0.3137554164577487,-0.22288872815990476,-0.9082534972026411,-0.1090227520697079
10666,7.0,301.00532000000004,2572.2715,0.0,0.0,0.0,0.0,-0.1063059910210329,0.0,-0.23641407685475277,-0.22721406992178278,-0.3182781494716077,-0.17994974231215682,-0.8974667000830672,-0.07891786860583723
10667,7.0,300.08409,2701.5385,0.0,0.0,0.0,0.0,-0.1063159578306167,0.0,-0.25199483377495374,-0.22548351981099077,-0.34372190313021067,-0.2190920800352048,-0.9076154840121742,-0.12470116603454688
10668,7.0,299.53891,2896.3621,0.0,0.0,0.0,0.0,-0.10632592464020053,0.0,-0.23678257565112076,-0.23470918223649279,-0.4089300084832496,-0.2090532236094468,-0.9161705369914921,-0.055160147914882746
10669,7.0,298.72053,2960.0959999999995,0.0,0.0,0.0,0.0,-0.10633589144978434,0.0,-0.24370825154213177,-0.2799439597633177,-0.3761430489649287,-0.25890422673685776,-0.9175800489406002,-0.10993756492249289
10670,7.0,299.26689,2872.0139,0.0,0.0,0.0,0.0,-0.10634585825936817,0.0,-0.25487707434690876,-0.22868466058691878,-0.3894587866115896,-0.22344125343943477,-0.9055119666720731,-0.04220619020317667
10671,7.0,299.46954,2728.0413,0.0,0.0,0.0,0.0,-0.106355825068952,0.0,-0.26360236347552773,-0.23866018888142676,-0.32699388365178367,-0.2061790586407888,-0.885197295152171,-0.1008350184636415
10672,7.0,299.70097000000004,2807.6036,0.0,0.0,0.0,0.0,-0.10636579187853581,0.0,-0.24609470884015675,-0.24354685093370276,-0.36379983889674866,-0.1944238882681438,-0.8736189977169821,-0.06063862503256634
10673,7.0,298.93608,2766.7705,0.0,0.0,0.0,0.0,-0.10637575868811963,0.0,-0.25387086633510375,-0.20257149311724978,-0.3845867761557596,-0.2086278510849658,-0.9099357254161642,-0.07054950290444384
10674,7.0,299.58738999999997,2735.2039,0.0,0.0,0.0,0.0,-0.10638572549770345,0.0,-0.2094084994920098,-0.23832589740843477,-0.38369927039316964,-0.1933077527529898,-0.9418862976394402,-0.07711642645179873
10675,7.0,300.32377,2778.8969,0.0,0.0,0.0,0.0,-0.10639569230728728,0.0,-0.25508253106968576,-0.2031982592316068,-0.38643445797811166,-0.18626818755073885,-0.918026020839614,-0.06056078310688394
10676,7.0,300.89762,2837.2098,0.0,0.0,0.0,0.0,-0.10640565911687111,0.0,-0.2506131558060928,-0.23136849665679277,-0.38045928160840764,-0.1836532423551638,-0.9421422446147002,-0.061404408047393236
10677,7.0,300.281,2832.0152,0.0,0.0,0.0,0.0,-0.10641562592645491,0.0,-0.2796244009467797,-0.2351341494609338,-0.3461033347077397,-0.2003222298827648,-0.9192999903228453,-0.05359751766366315
10678,7.0,299.71334,2883.8565,0.0,0.0,0.0,0.0,-0.10642559273603874,0.0,-0.27019036363821275,-0.22526428288685377,-0.38116569931312566,-0.2274590433984598,-0.894426858590558,-0.08262454924090812
10679,7.0,300.31448,2834.542,0.0,0.0,0.0,0.0,-0.10643555954562256,0.0,-0.25565942501412076,-0.2422218643079368,-0.3637487102967027,-0.2144460446166768,-0.8964648794441951,-0.09765617121641372
10680,7.0,299.57974,2580.5808,0.0,0.0,0.0,0.0,-0.10644552635520638,0.0,-0.1995804801470598,-0.2288309232388538,-0.3560207125790087,-0.2219353814058168,-0.8824009173936902,-0.11055578933850689
10681,7.0,299.96591,2553.9046,0.0,0.0,0.0,0.0,-0.10645549316479021,0.0,-0.2208404836127588,-0.21018370674601683,-0.3452990269108607,-0.20064435222205582,-0.8797684733688882,-0.0917806571132956
10682,7.0,299.1069,2589.474,0.0,0.0,0.0,0.0,-0.10646545997437402,0.0,-0.2466992543798208,-0.21542381069817482,-0.32501238188872467,-0.22994126296343578,-0.903206721369563,-0.07281639061116824
10683,7.0,299.08682000000005,2570.1259,0.0,0.0,0.0,0.0,-0.10647542678395784,0.0,-0.24086619646914276,-0.1998278955564778,-0.3405599852656537,-0.1988750756924418,-0.9066247077993921,-0.09066801629773652
10684,7.0,299.37961,2667.7908,0.0,0.0,0.0,0.0,-0.10648539359354166,0.0,-0.23893344216839477,-0.2272814713184348,-0.3447268749768937,-0.23349347463401177,-0.9341287028863252,-0.06613698515696223
10685,7.0,300.51732999999996,2773.1105,0.0,0.0,0.0,0.0,-0.10649536040312549,0.0,-0.22557405370742578,-0.23104714438757776,-0.38633514933581065,-0.18532670595532183,-0.9347882071114132,-0.0925424843997321
10686,7.0,299.56104,2861.4857,0.0,0.0,0.0,0.0,-0.10650532721270932,0.0,-0.24834109444435779,-0.22089498633563778,-0.4005841308545756,-0.24881167818830077,-0.9162934746261252,-0.07771510426013363
10687,7.0,300.85192,3072.336,0.0,0.0,0.0,0.0,-0.10651529402229312,0.0,-0.28449990711545475,-0.2514003903387868,-0.3980131100508356,-0.17464157835078184,-0.9177960029344131,-0.08721477383067801
10688,7.0,300.58046,2843.8946,0.0,0.0,0.0,0.0,-0.10652526083187695,0.0,-0.29610412348820175,-0.2025347628011248,-0.3658340499300096,-0.2000866593670158,-0.8890490032873052,-0.06692416902715125
10689,7.0,300.49721,2722.1598,0.0,0.0,0.0,0.0,-0.10653522764146077,0.0,-0.24835431735816277,-0.23174387542133978,-0.34737040395778973,-0.15492516008742285,-0.8684966232939431,-0.054172719480431154
10690,7.0,300.6652,2689.8761,0.0,0.0,0.0,0.0,-0.10654519445104459,0.0,-0.2555868053794538,-0.20552520835125881,-0.35654315446306967,-0.19982813873650182,-0.9021868648789112,-0.08193380854173732
10691,7.0,299.52098,2938.5434,0.0,0.0,0.0,0.0,-0.10655516126062842,0.0,-0.24084651915220076,-0.23322561183757576,-0.4191716770490236,-0.24970677319413973,-0.9222570999446892,-0.05390963213171645
10692,7.0,299.12002,2843.3182,0.0,0.0,0.0,0.0,-0.10656512807021223,0.0,-0.24580314612388177,-0.24429971602300474,-0.37419487299765863,-0.2223966635138418,-0.9169758479059702,-0.1074499244694819
10693,7.0,299.72381,2642.1613,0.0,0.0,0.0,0.0,-0.10657509487979605,0.0,-0.23025921071231475,-0.2162003554423138,-0.3566914841452087,-0.23971605628063275,-0.9133377734219201,-0.06052494242434674
10694,7.0,300.14476,2697.2427,0.0,0.0,0.0,0.0,-0.10658506168937987,0.0,-0.2390478279721838,-0.24586604869008977,-0.3349805539875067,-0.19166358221322283,-0.8953753721416691,-0.10941716980363389
10695,7.0,300.27189,2851.1285,0.0,0.0,0.0,0.0,-0.1065950284989637,0.0,-0.2765872445670357,-0.2193986895154648,-0.3706859372388537,-0.2205715467712168,-0.9250420887720462,-0.046400151930588454
10696,7.0,300.2395,2891.3455,0.0,0.0,0.0,0.0,-0.10660499530854753,0.0,-0.25842293293935775,-0.24450321717308876,-0.37597068499041764,-0.18255024869380682,-0.8982269011030931,-0.08736244996650251
10697,7.0,299.29249,2616.0370000000003,0.0,0.0,0.0,0.0,-0.10661496211813133,0.0,-0.22347009053728076,-0.21518410612201777,-0.35655571876430964,-0.20435546177331382,-0.9103807752575871,-0.06758040957366714
10698,7.0,300.69633,2644.9951,0.0,0.0,0.0,0.0,-0.10662492892771516,0.0,-0.2145670266786168,-0.23090747799379377,-0.35853795006744066,-0.2026111213286608,-0.9141414631362382,-0.07859769778623883
10699,7.0,301.62969,2770.6969,0.0,0.0,0.0,0.0,-0.10663489573729898,0.0,-0.27218934396549677,-0.20864289784895082,-0.36139041121895665,-0.2129392505254678,-0.9209555903237402,-0.0943548747211011
10700,7.0,300.67191,2647.9584,0.0,0.0,0.0,0.0,-0.1066448625468828,0.0,-0.25425690449070276,-0.2169172602855668,-0.33373905916998065,-0.21453275856023477,-0.9116722435700452,-0.08181563318257433
10701,7.0,300.17671,2610.3177,0.0,0.0,0.0,0.0,-0.10665482935646663,0.0,-0.26024270985395576,-0.2053359534975808,-0.3278927479479947,-0.2220200080541688,-0.9173574480261311,-0.09031816535620892
10702,7.0,300.83247,2463.5025,0.0,0.0,0.0,0.0,-0.10666479616605044,0.0,-0.18084072352258984,-0.20822958300065983,-0.3597729499518257,-0.22944052489651678,-0.9190904400696641,-0.06994201083348903
10703,7.0,299.43631,2478.6059,0.0,0.0,0.0,0.0,-0.10667476297563426,0.0,-0.1897024670421758,-0.23455242231352175,-0.3291794134549787,-0.2221758459195488,-0.9225062581442791,-0.0956704634521896
10704,7.0,299.71479,2946.7398,0.0,0.0,0.0,0.0,-0.10668472978521808,0.0,-0.2554641210573457,-0.23648372766662676,-0.40378746025071965,-0.20756363450493578,-0.8870479153998132,-0.08456423011933972
10705,7.0,299.4761,3066.0742,0.0,0.0,0.0,0.0,-0.10669469659480191,0.0,-0.2982507242225547,-0.25908687519988377,-0.37467239750478665,-0.19301780110437383,-0.8908459111471462,-0.08128095833005602
10706,7.0,299.25982999999997,2707.6113,0.0,0.0,0.0,0.0,-0.10670466340438574,0.0,-0.24801319657949678,-0.24028619184690075,-0.33474682758693974,-0.1960345911571078,-0.901004148699686,-0.07416511464702694
10707,7.0,299.54116,2911.5014,0.0,0.0,0.0,0.0,-0.10671463021396954,0.0,-0.3112732982177827,-0.2141691132318458,-0.35958130382791165,-0.2005381636115758,-0.9327923881244411,-0.040034583469605756
10708,7.0,300.37501000000003,3041.3348,0.0,0.0,0.0,0.0,-0.10672459702355337,0.0,-0.26128327717665173,-0.2700523285770898,-0.3931542211838006,-0.19186620183571984,-0.8967771732575163,-0.07210396332010713
10709,7.0,299.77401000000003,2837.6215,0.0,0.0,0.0,0.0,-0.10673456383313719,0.0,-0.26196063486850174,-0.22017168788425379,-0.3804337679708897,-0.22984650381408375,-0.9178379717535552,-0.05115656169575955
10710,7.0,300.93057000000005,2745.7642,0.0,0.0,0.0,0.0,-0.106744530642721,0.0,-0.2051506199217898,-0.2593018868711038,-0.37019124827503164,-0.21451140938062782,-0.8968035076276152,-0.10457111881536589
10711,7.0,300.82786,2540.1495,0.0,0.0,0.0,0.0,-0.10675449745230484,0.0,-0.24629916244533476,-0.19303907935647382,-0.3328037989301777,-0.2182878836958368,-0.9035180221977862,-0.07018288267376123
10712,7.0,300.12054,2606.5587,0.0,0.0,0.0,0.0,-0.10676446426188865,0.0,-0.21785399987051576,-0.22887170655537875,-0.34560304247086465,-0.19776269933515883,-0.8822813640143913,-0.1102537293511959
10713,7.0,300.19057000000004,2751.7627,0.0,0.0,0.0,0.0,-0.10677443107147247,0.0,-0.27305106251304173,-0.2201579076828938,-0.3432581892219457,-0.1922632945499098,-0.898291597121978,-0.07529988180501973
10714,7.0,299.90303,2880.2323,0.0,0.0,0.0,0.0,-0.10678439788105629,0.0,-0.20973006454374582,-0.2819336485871847,-0.3838549866685376,-0.2520314627660688,-0.9534937766775091,-0.09613898117917871
10715,7.0,299.60352,2747.3716,0.0,0.0,0.0,0.0,-0.10679436469064012,0.0,-0.23393319477990876,-0.23045330890147078,-0.3707458507172667,-0.21348105561893976,-0.9483988613321801,-0.06878251125380534
10716,7.0,299.64585,2722.241,0.0,0.0,0.0,0.0,-0.10680433150022392,0.0,-0.22565299602271677,-0.24987965392620173,-0.35196061942830864,-0.24360926713986278,-0.9221772862343122,-0.08481651216898801
10717,7.0,299.32608,2841.3907,0.0,0.0,0.0,0.0,-0.10681429830980775,0.0,-0.26611226503323576,-0.2331379049089198,-0.36446166346456565,-0.18691386091196183,-0.9029693270036341,-0.06271685266342143
10718,7.0,298.70341,2750.8739,0.0,0.0,0.0,0.0,-0.10682426511939158,0.0,-0.26237912742480374,-0.23413277465210577,-0.33968508433430766,-0.24585658493415574,-0.9044759488423262,-0.07384721654740282
10719,7.0,298.68529,2624.2441,0.0,0.0,0.0,0.0,-0.1068342319289754,0.0,-0.22896045713163776,-0.2294789372078078,-0.3392652745528757,-0.1927357832040408,-0.9143224498691,-0.07370055872792883
10720,7.0,298.26895,2612.5136,0.0,0.0,0.0,0.0,-0.10684419873855922,0.0,-0.23297069837741777,-0.2099833264062408,-0.35118489541675063,-0.19310023913250982,-0.8860347058298171,-0.08218353618788352
10721,7.0,300.01748,2915.7607,0.0,0.0,0.0,0.0,-0.10685416554814303,0.0,-0.25590185523304676,-0.24798355901407176,-0.38243303200820167,-0.1974900134682468,-0.8966460586945763,-0.06755004550792043
10722,7.0,300.35132000000004,2758.3037,0.0,0.0,0.0,0.0,-0.10686413235772686,0.0,-0.2480473735053698,-0.2198845226734128,-0.37052355377782764,-0.2062341186512228,-0.9102158890688141,-0.09642908684180991
10723,7.0,300.5995,2784.6694,0.0,0.0,0.0,0.0,-0.10687409916731067,0.0,-0.23409430154580876,-0.2288474594804858,-0.3835281932462856,-0.23283987765700676,-0.925513959343616,-0.058230882389690646
10724,7.0,300.71474,2903.1976,0.0,0.0,0.0,0.0,-0.1068840659768945,0.0,-0.27380943968288773,-0.24913350668506276,-0.35955663118797665,-0.21807383461221178,-0.8945237151676172,-0.11068752198400789
10725,7.0,300.62663,2914.1357,0.0,0.0,0.0,0.0,-0.10689403278647831,0.0,-0.25032258607491575,-0.23022661445659778,-0.4052752964325576,-0.2143687336340468,-0.9315206376589291,-0.047599265536181753
10726,7.0,300.44706,2711.578,0.0,0.0,0.0,0.0,-0.10690399959606213,0.0,-0.21540944281175678,-0.25764516216259775,-0.3511974090554857,-0.2252960077474848,-0.9276813519700212,-0.12195349520837287
10727,7.0,300.82003,2664.7283,0.0,0.0,0.0,0.0,-0.10691396640564595,0.0,-0.22673679872717978,-0.2166724793264088,-0.3666015868807596,-0.21048978933622478,-0.9197014298799641,-0.043850516783459054
10728,7.0,299.2952,2576.4217,0.0,0.0,0.0,0.0,-0.10692393321522978,0.0,-0.2198787167503398,-0.22023949458094577,-0.3430496522188647,-0.17652165377883083,-0.8950005709296792,-0.1159575269466169
10729,7.0,298.86214,2620.121,0.0,0.0,0.0,0.0,-0.10693390002481361,0.0,-0.23983286375216079,-0.2189365765423578,-0.3376819091516096,-0.18612317119642682,-0.8629980797712793,-0.055282433016451346
10730,7.0,299.10196,2784.2066,0.0,0.0,0.0,0.0,-0.10694386683439741,0.0,-0.24530153666187676,-0.25320190848658275,-0.3478258294802367,-0.22122374546308377,-0.893812656777441,-0.1205533355576879
10731,7.0,298.94227,2717.0541,0.0,0.0,0.0,0.0,-0.10695383364398124,0.0,-0.22679942771586079,-0.22957611802489877,-0.36954105581836266,-0.23790371662176876,-0.9037388093945762,-0.06942790191825043
10732,7.0,299.649,2666.7415,0.0,0.0,0.0,0.0,-0.10696380045356506,0.0,-0.21863915724050478,-0.24042859401595476,-0.3515550762082847,-0.24948814422006277,-0.8881396923825632,-0.10657476009310991
10733,7.0,299.84629,2796.1913,0.0,0.0,0.0,0.0,-0.10697376726314888,0.0,-0.26398932368871775,-0.2097828548739558,-0.37620016587306565,-0.23100535795345378,-0.9420043412760901,-0.061725575905090035
10734,7.0,300.31528,2877.7618,0.0,0.0,0.0,0.0,-0.10698373407273269,0.0,-0.2818058574845727,-0.2196125156840678,-0.37334933605421067,-0.2262606421076868,-0.9324588464565232,-0.07491748729678033
10735,7.0,300.11078,2858.1205,0.0,0.0,0.0,0.0,-0.10699370088231652,0.0,-0.26941263339145677,-0.22648988994281177,-0.37289473126434464,-0.2021714315802668,-0.9320557958317451,-0.04732095207821436
10736,7.0,299.80471,2802.1536,0.0,0.0,0.0,0.0,-0.10700366769190034,0.0,-0.26483811316498673,-0.21028116114063483,-0.37666546045148663,-0.18091920987533583,-0.9058373010141811,-0.05823514411961125
10737,7.0,300.14917,2960.7371,0.0,0.0,0.0,0.0,-0.10701363450148416,0.0,-0.27222636812415074,-0.24914489561618677,-0.37861887492177365,-0.2064670445842108,-0.9164966312711751,-0.08621230471174202
10738,7.0,300.56485,2926.0681,0.0,0.0,0.0,0.0,-0.10702360131106799,0.0,-0.2609099046473028,-0.2267715025431048,-0.40177022115663363,-0.2030726668817118,-0.9068889228954681,-0.05792184516219104
10739,7.0,300.37986,2748.9265,0.0,0.0,0.0,0.0,-0.10703356812065179,0.0,-0.2618776091553078,-0.2252018362831908,-0.34852556986679567,-0.2024668649119238,-0.9237186422864321,-0.08068593632808192
10740,7.0,300.10186,2574.3244,0.0,0.0,0.0,0.0,-0.10704353493023562,0.0,-0.2184535298221848,-0.20405800194145682,-0.3600187948235887,-0.18968225270268083,-0.8890092838833851,-0.08631935661130723
10741,7.0,300.59604,2659.3821,0.0,0.0,0.0,0.0,-0.10705350173981945,0.0,-0.2704774680540477,-0.18975238987460283,-0.3481558855678107,-0.18011713122867684,-0.934812251536286,-0.08717355582986011
10742,7.0,299.97893,2707.6965,0.0,0.0,0.0,0.0,-0.10706346854940327,0.0,-0.21334768150827677,-0.2394456502264458,-0.3702787829511706,-0.20993078938855578,-0.9243837903145772,-0.08965026635404241
10743,7.0,299.68178,2758.4203,0.0,0.0,0.0,0.0,-0.10707343535898708,0.0,-0.23621692878279577,-0.2324181832303888,-0.36985576116692165,-0.20360570736181882,-0.9071794419641401,-0.08439111330000441
10744,7.0,299.59712,2917.2295,0.0,0.0,0.0,0.0,-0.1070834021685709,0.0,-0.23259823777315877,-0.2718960688565527,-0.3822706282821736,-0.2063724070248708,-0.8981847397664321,-0.09715826011727371
10745,7.0,299.2036,2935.1339,0.0,0.0,0.0,0.0,-0.10709336897815473,0.0,-0.26871803018290474,-0.25027586511280475,-0.37321350987830565,-0.24030847321659976,-0.8929337433756991,-0.07247227061220624
10746,7.0,299.94473999999997,2912.7352,0.0,0.0,0.0,0.0,-0.10710333578773855,0.0,-0.23612709402892978,-0.2531876115276717,-0.3960840743779546,-0.2254246195826778,-0.9112093199968582,-0.09082960841043441
10747,7.0,299.65529,2716.69,0.0,0.0,0.0,0.0,-0.10711330259732237,0.0,-0.26263886395543773,-0.21447255123929276,-0.34869449892346766,-0.2252560046335368,-0.9106757424941982,-0.06168480576081634
10748,7.0,300.24711,2674.5944,0.0,0.0,0.0,0.0,-0.1071232694069062,0.0,-0.2214822660935978,-0.2315809549377608,-0.3599467020789736,-0.19117274359978081,-0.9306173049297771,-0.09402378106542472
10749,7.0,300.51716,2682.3068,0.0,0.0,0.0,0.0,-0.10713323621649,0.0,-0.24023143581149675,-0.2162022502200008,-0.35892061410020665,-0.18126873049733083,-0.9580332080530161,-0.09452476737861822
10750,7.0,301.5853,2753.8179,0.0,0.0,0.0,0.0,-0.10714320302607383,0.0,-0.2544894960511578,-0.21664689476138377,-0.3659554980869956,-0.2096178673601728,-0.9376044749693571,-0.07401114622808143
10751,7.0,300.43599,2512.3585,0.0,0.0,0.0,0.0,-0.10715316983565766,0.0,-0.2166954091761718,-0.19128083712044883,-0.3557179939791327,-0.18229990499159984,-0.8992645198679982,-0.0949119190960771
10752,7.0,299.2717,2565.3085,0.0,0.0,0.0,0.0,-0.10716313664524148,0.0,-0.22845782428703176,-0.21590087924275778,-0.3354310449819667,-0.2018037636489808,-0.8909754146424271,-0.07437976965421174
10753,7.0,299.5059,2961.6775,0.0,0.0,0.0,0.0,-0.1071731034548253,0.0,-0.2829337365683857,-0.24291894997923377,-0.37442331023270364,-0.18242308580625682,-0.9034840783194361,-0.09010269670919382
10754,7.0,299.52311000000003,3079.3412,0.0,0.0,0.0,0.0,-0.10718307026440911,0.0,-0.26636143336532675,-0.27248381470955874,-0.3971975754428486,-0.2290857657715048,-0.9268179514273102,-0.06426102149781904
10755,7.0,299.10192,2932.7574,0.0,0.0,0.0,0.0,-0.10719303707399294,0.0,-0.2770979428824378,-0.25227425775503076,-0.3621128078777517,-0.2246349836472468,-0.9125657072432231,-0.08350951478549742
10756,7.0,299.48601,2832.7606,0.0,0.0,0.0,0.0,-0.10720300388357676,0.0,-0.26120966455688677,-0.22469923383608778,-0.37517958997484263,-0.2490900078582698,-0.9216542769301951,-0.06849097488203294
10757,7.0,299.75739,2785.5994,0.0,0.0,0.0,0.0,-0.10721297069316058,0.0,-0.24121060017813276,-0.24860646464554775,-0.3569356064918016,-0.1950578281932088,-0.8945210097898502,-0.08600736879951641
10758,7.0,299.62191,2774.1168,0.0,0.0,0.0,0.0,-0.1072229375027444,0.0,-0.24709751233162577,-0.2220687251189768,-0.3740960101854016,-0.20171006841223382,-0.8968662379413062,-0.08141621708590502
10759,7.0,299.82315,2764.5615,0.0,0.0,0.0,0.0,-0.10723290431232821,0.0,-0.25161145033461674,-0.23973357537486176,-0.3490126391898657,-0.16076371994614383,-0.8765001135813262,-0.09043142645238691
10760,7.0,299.99787000000003,2483.6292,0.0,0.0,0.0,0.0,-0.10724287112191204,0.0,-0.19270060316056883,-0.21129408700060281,-0.3509665704177036,-0.19242856577372083,-0.8926713723948052,-0.12793479160868088
10761,7.0,300.0967,2470.8307,0.0,0.0,0.0,0.0,-0.10725283793149587,0.0,-0.2269710317527968,-0.2063643111565718,-0.31773549324805167,-0.2060881903718208,-0.931696274431263,-0.0958597375576195
10762,7.0,300.86746,2631.0736,0.0,0.0,0.0,0.0,-0.10726280474107969,0.0,-0.2322364770899558,-0.2269712141378148,-0.34057298526443663,-0.2135760579483158,-0.940738903358701,-0.11499867824448588
10763,7.0,301.75987000000003,2891.607,0.0,0.0,0.0,0.0,-0.1072727715506635,0.0,-0.2597905064668267,-0.24064726352003576,-0.3785385444538456,-0.23172857534482974,-0.9093720239880312,-0.056277957319201946
10764,7.0,302.47552,3043.6275,0.0,0.0,0.0,0.0,-0.10728273836024732,0.0,-0.2717589051905157,-0.25879552526612976,-0.3946323402971796,-0.2190423801177998,-0.9069665479856291,-0.052708959134219247
10765,7.0,301.16216000000003,3048.0892,0.0,0.0,0.0,0.0,-0.10729270516983115,0.0,-0.25368598872185777,-0.24699037126605175,-0.42586662575976353,-0.24373674413494378,-0.9326394785518501,-0.054443733484678146
10766,7.0,300.29815,3041.6588,0.0,0.0,0.0,0.0,-0.10730267197941497,0.0,-0.24298735449348477,-0.2533303176717558,-0.4282706629470236,-0.21001350099421878,-0.9245736024558101,-0.04123644906247066
10767,7.0,299.99269,2995.5326,0.0,0.0,0.0,0.0,-0.10731263878899878,0.0,-0.2934458821158537,-0.24335246903451876,-0.3737687810656066,-0.20576699009012078,-0.9098077012660293,-0.05736421512865724
10768,7.0,299.61874,2858.9985,0.0,0.0,0.0,0.0,-0.10732260559858262,0.0,-0.2881136331996017,-0.20215805667894682,-0.37879246492890567,-0.19632735964100181,-0.9030860635476552,-0.06315100803976924
10769,7.0,300.21103,2741.3152,0.0,0.0,0.0,0.0,-0.10733257240816642,0.0,-0.2848426389617797,-0.2193899552996028,-0.3290587657655717,-0.2154361824818958,-0.9035948670853701,-0.09042585256358682
10770,7.0,300.41839,2482.8758,0.0,0.0,0.0,0.0,-0.10734253921775025,0.0,-0.24062250982009278,-0.2007535501853328,-0.31335617565334667,-0.21943621016666778,-0.9061882908488211,-0.08538346815644222
10771,7.0,299.33766,2472.6444,0.0,0.0,0.0,0.0,-0.10735250602733408,0.0,-0.19608909387998683,-0.2084480397222198,-0.34708503219962566,-0.20512817643207482,-0.8946145530390821,-0.11411200334697788
10772,7.0,300.5609,2795.0567,0.0,0.0,0.0,0.0,-0.1073624728369179,0.0,-0.23881873212457375,-0.24398929672236874,-0.36681941538725765,-0.2036051906042678,-0.9332356039831832,-0.08562067507110273
10773,7.0,299.2748,2947.6028,0.0,0.0,0.0,0.0,-0.10737243964650171,0.0,-0.26763491648850973,-0.25594599240740273,-0.3724167507946716,-0.22774417197659977,-0.9580901425761351,-0.1037225218566159
10774,7.0,298.5387,2813.7573,0.0,0.0,0.0,0.0,-0.10738240645608553,0.0,-0.25146065845473475,-0.24572444698861476,-0.3581268441043677,-0.1907481006153718,-0.9356134283903561,-0.08346238548359612
10775,7.0,298.10632000000004,2732.1126,0.0,0.0,0.0,0.0,-0.10739237326566936,0.0,-0.2246780265114948,-0.25224156017430377,-0.35357441273007767,-0.2012862461604058,-0.8882487079608221,-0.08332976117800713
10776,7.0,299.24151,2780.8361,0.0,0.0,0.0,0.0,-0.10740234007525319,0.0,-0.2303603634697978,-0.2360748001912688,-0.37886956312901465,-0.17663278704979885,-0.8919099149446551,-0.06281678344128384
10777,7.0,299.66356,2782.0023,0.0,0.0,0.0,0.0,-0.107412306884837,0.0,-0.19952206627879482,-0.23380684249243877,-0.4123303136988336,-0.22971746641384877,-0.9193860253888362,-0.08730294989413033
10778,7.0,300.40043,2791.8658,0.0,0.0,0.0,0.0,-0.10742227369442083,0.0,-0.2131031943916478,-0.25380643376124473,-0.38174787229058166,-0.22308493390926878,-0.9133829947738831,-0.07459252785720934
10779,7.0,298.89513999999997,2570.7648,0.0,0.0,0.0,0.0,-0.10743224050400463,0.0,-0.2371637603387408,-0.2218937672242098,-0.3223907593749907,-0.24771748967031276,-0.906388579996088,-0.09829010303547792
10780,7.0,300.73113,2761.857,0.0,0.0,0.0,0.0,-0.10744220731358846,0.0,-0.26802372081688175,-0.22847572841629876,-0.3430360949325267,-0.21577187224002578,-0.9080635533388952,-0.0931586316530411
10781,7.0,300.27669,3011.1824,0.0,0.0,0.0,0.0,-0.10745217412317229,0.0,-0.31711540445185366,-0.25748832117961873,-0.34072053474399866,-0.23948761904558774,-0.9364097720414492,-0.10480206891065891
10782,7.0,299.87691,3018.1177,0.0,0.0,0.0,0.0,-0.1074621409327561,0.0,-0.27995252172666274,-0.24406128814197378,-0.39341860853239363,-0.2101183419820658,-0.9195475171897742,-0.06735441224486294
10783,7.0,300.08592999999996,2816.7837,0.0,0.0,0.0,0.0,-0.10747210774233992,0.0,-0.24089295640428374,-0.24822684036308176,-0.36711211294364465,-0.1965590899388718,-0.9055145504598282,-0.0888900866122685
10784,7.0,299.91941,2834.8119,0.0,0.0,0.0,0.0,-0.10748207455192374,0.0,-0.25884123297814077,-0.21904254223781577,-0.38382826726340064,-0.21748140754374382,-0.9502733740171802,-0.03331715884514757
10785,7.0,300.41182000000003,2913.0741,0.0,0.0,0.0,0.0,-0.10749204136150757,0.0,-0.28490952360088073,-0.21562331964286482,-0.3849689538284776,-0.21374110625710482,-0.951185309239681,-0.05928984932095254
10786,7.0,299.7372,2770.1015,0.0,0.0,0.0,0.0,-0.1075020081710914,0.0,-0.26082818602673774,-0.2274978002147848,-0.35371569019152066,-0.24984852688312978,-0.9528211609961271,-0.053517967398312154
10787,7.0,298.56475,2546.0863,0.0,0.0,0.0,0.0,-0.1075119749806752,0.0,-0.23658771752438976,-0.20128475668275883,-0.3360741750854387,-0.2125036239099748,-0.904311366628583,-0.07687080652155792
10788,7.0,299.13309,2671.9063,0.0,0.0,0.0,0.0,-0.10752194179025903,0.0,-0.21088758119298381,-0.22083051323177477,-0.38047471340743066,-0.24287718381011175,-0.933964617165131,-0.08887239830527283
10789,7.0,300.02152,2752.8445,0.0,0.0,0.0,0.0,-0.10753190859984284,0.0,-0.21004655321248078,-0.2389527141852968,-0.3877967119425556,-0.2025223808849028,-0.9029875553729332,-0.11283888499383089
10790,7.0,300.31675,2607.442,0.0,0.0,0.0,0.0,-0.10754187540942667,0.0,-0.22138101201110477,-0.2306055497289958,-0.34061069843315867,-0.1998108222922928,-0.9114072280063902,-0.10410321005168689
10791,7.0,299.19217000000003,2544.2631,0.0,0.0,0.0,0.0,-0.1075518422190105,0.0,-0.24545154833918179,-0.2110402678505528,-0.3169006156956557,-0.16988673000401483,-0.8717734335873392,-0.11954375342304989
10792,7.0,300.52234,2665.1258,0.0,0.0,0.0,0.0,-0.10756180902859432,0.0,-0.27634282837791374,-0.2221635754608378,-0.3116252911700217,-0.1937689031385018,-0.9012562250595642,-0.11404195736756488
10793,7.0,301.52635,2817.6322,0.0,0.0,0.0,0.0,-0.10757177583817813,0.0,-0.2955237743609257,-0.22239093865077678,-0.33857511951226266,-0.2195793621407958,-0.9253676054991721,-0.08389072379111982
10794,7.0,301.16081,2822.9968,0.0,0.0,0.0,0.0,-0.10758174264776195,0.0,-0.21689590097345876,-0.2523318610232158,-0.38889275470822665,-0.2208791391040738,-0.9333465143391292,-0.09930677082806522
10795,7.0,299.88632,2838.9868,0.0,0.0,0.0,0.0,-0.10759170945734578,0.0,-0.21481511083310081,-0.22946674780910478,-0.4186992289248966,-0.2223904117607248,-0.9393133820580132,-0.05306049815041344
10796,7.0,300.30351,2925.9503,0.0,0.0,0.0,0.0,-0.10760167626692961,0.0,-0.24855934851589778,-0.23378939432571677,-0.4070670975118946,-0.2228050944966508,-0.9507871424803851,-0.07086483444156463
10797,7.0,298.9348,2880.7015,0.0,0.0,0.0,0.0,-0.10761164307651341,0.0,-0.2576904645745688,-0.23588917277294877,-0.38208167740352567,-0.22840920854723376,-0.9313298021350951,-0.05337075533103345
10798,7.0,299.99565,2782.2642,0.0,0.0,0.0,0.0,-0.10762160988609724,0.0,-0.2812976112344127,-0.2043567891309448,-0.36008443316506666,-0.20236151729902682,-0.8970818069000812,-0.08250630700723852
10799,7.0,300.10902000000004,2815.5785,0.0,0.0,0.0,0.0,-0.10763157669568105,0.0,-0.2490029392771768,-0.2359940644233008,-0.3708685451718757,-0.18937319115717882,-0.8674041775661272,-0.05829543655356165
10800,7.0,298.81051,2732.7969,0.0,0.0,0.0,0.0,-0.10764154350526488,0.0,-0.22447621748907778,-0.24229534520518878,-0.36393043670213765,-0.2079824513012698,-0.9186581977095052,-0.09247671737549142
10801,7.0,299.87138999999996,2927.9487,0.0,0.0,0.0,0.0,-0.10765151031484871,0.0,-0.2509688572536978,-0.23302423851270176,-0.4060302184195626,-0.2072164443581708,-0.928721625450188,-0.06326816508258175
10802,7.0,301.11037999999996,2980.5765,0.0,0.0,0.0,0.0,-0.10766147712443253,0.0,-0.31868131155389673,-0.23499595227979478,-0.35234355703860165,-0.19605725756184483,-0.9249129297817992,-0.08104966575622922
10803,7.0,300.52226,2696.3781,0.0,0.0,0.0,0.0,-0.10767144393401634,0.0,-0.26361681242195373,-0.2010942251339548,-0.35492058641543467,-0.22514906621798278,-0.9109142514352372,-0.06160751706968854
10804,7.0,300.31442999999996,2778.067,0.0,0.0,0.0,0.0,-0.10768141074360016,0.0,-0.2957174875150437,-0.2114835343717998,-0.3372619879126667,-0.2220162894263018,-0.930170198190651,-0.08163196640319782
10805,7.0,300.9811,3047.1101,0.0,0.0,0.0,0.0,-0.10769137755318399,0.0,-0.25461870570390976,-0.25279155232858375,-0.4188351260283086,-0.24717204700898177,-0.9320521683963872,-0.07421259352021273
10806,7.0,299.83339,2920.1814,0.0,0.0,0.0,0.0,-0.10770134436276782,0.0,-0.23473468574150977,-0.24548586712006876,-0.40744167580886265,-0.18111371336453183,-0.9097244019753081,-0.09483048621204031
10807,7.0,300.4154,2730.2796,0.0,0.0,0.0,0.0,-0.10771131117235162,0.0,-0.20514071033581183,-0.2340813522095308,-0.3907147607730446,-0.2093988938810618,-0.8928383154812811,-0.09315002611994182
10808,7.0,300.04544,2676.4238,0.0,0.0,0.0,0.0,-0.10772127798193545,0.0,-0.2346641534020488,-0.24332926560722878,-0.3355725757559347,-0.18681164424187383,-0.9339787621365271,-0.1006559265084665
10809,7.0,299.68132,2768.4457,0.0,0.0,0.0,0.0,-0.10773124479151926,0.0,-0.2740559634322177,-0.2349794464356658,-0.3325029649754877,-0.23279131257971378,-0.9401002214231681,-0.09084175221288292
10810,7.0,299.5634,2803.3212,0.0,0.0,0.0,0.0,-0.10774121160110309,0.0,-0.2814224943092377,-0.2601829382305567,-0.3105342234623417,-0.1927703958274568,-0.8941425304799971,-0.08624914141912751
10811,7.0,299.51794,2698.5384,0.0,0.0,0.0,0.0,-0.10775117841068692,0.0,-0.2367632327067118,-0.22597820877481278,-0.35754685974712763,-0.21652118082147678,-0.8920108650521181,-0.08715765084304042
10812,7.0,298.98803,2754.5983,0.0,0.0,0.0,0.0,-0.10776114522027073,0.0,-0.20844717845963479,-0.2247326508243858,-0.40414925133142565,-0.2030251049220178,-0.9360486801033121,-0.09074230070231783
10813,7.0,300.27126,2946.4011,0.0,0.0,0.0,0.0,-0.10777111202985455,0.0,-0.2594875953494318,-0.23972109213362974,-0.3964236955464726,-0.2317874553081408,-0.9392025223645721,-0.08361610160326671
10814,7.0,299.46952999999996,2956.3754,0.0,0.0,0.0,0.0,-0.10778107883943837,0.0,-0.27511936941216775,-0.2198535881478598,-0.40369133321373263,-0.18971024880294382,-0.9179299951276372,-0.08635924016174341
10815,7.0,300.32824,2953.5296,0.0,0.0,0.0,0.0,-0.1077910456490222,0.0,-0.3057179113645087,-0.23786893174583576,-0.3542123955230417,-0.2059766923308168,-0.9025042046777302,-0.06794984562637764
10816,7.0,299.94086,2866.6907,0.0,0.0,0.0,0.0,-0.10780101245860603,0.0,-0.2813725309468067,-0.23678242366360577,-0.3532474369228077,-0.23953470477773475,-0.935584439304995,-0.08147579112553452
10817,7.0,299.54971,2887.1009999999997,0.0,0.0,0.0,0.0,-0.10781097926818983,0.0,-0.24544840726387177,-0.22433533519517382,-0.4078228706289836,-0.22641792892070978,-0.926250804948837,-0.05878157064678935
10818,7.0,299.29257,3013.8048,0.0,0.0,0.0,0.0,-0.10782094607777366,0.0,-0.23436029996206076,-0.28229030248988374,-0.3994707919096976,-0.24754738524352476,-0.889661746020278,-0.08047837812459752
10819,7.0,299.76434,2857.5363,0.0,0.0,0.0,0.0,-0.10783091288735748,0.0,-0.2591068970218598,-0.22955166829998577,-0.37996111719674264,-0.2243356087727008,-0.895194983226366,-0.06952163667175133
10820,7.0,297.85331,2552.7865,0.0,0.0,0.0,0.0,-0.1078408796969413,0.0,-0.22183304314571678,-0.2208198133107188,-0.3333304964646587,-0.2304416261278178,-0.9372307376699722,-0.07638024351214313
10821,7.0,299.46673,2735.5678,0.0,0.0,0.0,0.0,-0.10785084650652513,0.0,-0.28648296928366773,-0.22025742910771579,-0.3248039056806497,-0.20769078725998483,-0.9247809438237731,-0.08367262272034492
10822,7.0,299.11555,2812.4371,0.0,0.0,0.0,0.0,-0.10786081331610894,0.0,-0.2933017067591247,-0.22221236345315282,-0.3393965715008337,-0.18405857279266682,-0.9094439039501251,-0.07858218391395773
10823,7.0,299.39814,2665.3035,0.0,0.0,0.0,0.0,-0.10787078012569276,0.0,-0.2091072906347828,-0.2506529866675237,-0.35042543406929766,-0.18275117618863684,-0.9100174440367292,-0.1153976758688639
10824,7.0,300.0018,2690.8271,0.0,0.0,0.0,0.0,-0.10788074693527658,0.0,-0.2166599758201748,-0.22710061630808576,-0.37418365631905165,-0.24081829000441476,-0.9403908620818521,-0.1024496973459979
10825,7.0,300.07246000000004,2799.6033,0.0,0.0,0.0,0.0,-0.10789071374486041,0.0,-0.23902181784211676,-0.2233735379352518,-0.3886141615932316,-0.21361612185726983,-0.9395686197582032,-0.1074649205709619
10826,7.0,299.97577,2754.0777,0.0,0.0,0.0,0.0,-0.10790068055444421,0.0,-0.2743780553740057,-0.23237650825377576,-0.3304162979845497,-0.21937479707810678,-0.8973232238689071,-0.08983585425560851
10827,7.0,301.10127,2815.0544,0.0,0.0,0.0,0.0,-0.10791064736402804,0.0,-0.27389048955838674,-0.2292736932675518,-0.3525420628656927,-0.2104915827889018,-0.9255986366544731,-0.08830095260662552
10828,7.0,299.87832000000003,2789.8911,0.0,0.0,0.0,0.0,-0.10792061417361186,0.0,-0.26773610977599677,-0.22862257875329178,-0.3516985321574426,-0.24593291306418877,-0.9287826940337152,-0.05424183529625235
10829,7.0,299.74046,2814.3784,0.0,0.0,0.0,0.0,-0.10793058098319569,0.0,-0.2207810564943938,-0.23693731920639274,-0.3977823727380636,-0.2067850733930978,-0.9246032906837403,-0.07109823457559943
10830,7.0,300.05152000000004,2809.7204,0.0,0.0,0.0,0.0,-0.10794054779277949,0.0,-0.2631314757565547,-0.21511815367300882,-0.3758352033195466,-0.18212252542909382,-0.8892363329657932,-0.06113764969356624
10831,7.0,299.95063999999996,2924.2990000000004,0.0,0.0,0.0,0.0,-0.10795051460236332,0.0,-0.22788573314807078,-0.26194858732481274,-0.3990795659135866,-0.1990043258751978,-0.90329271590555,-0.06910905642978284
10832,7.0,299.93883999999997,2926.054,0.0,0.0,0.0,0.0,-0.10796048141194715,0.0,-0.28614047048486574,-0.24587300971827675,-0.3574338722284766,-0.20253628267627483,-0.9418003233684552,-0.09341983739632011
10833,7.0,299.63298,2805.1545,0.0,0.0,0.0,0.0,-0.10797044822153096,0.0,-0.2821905986800437,-0.22091524120513678,-0.34959109353945467,-0.2098178322674078,-0.9476294701337471,-0.06691314993231375
10834,7.0,297.77952,2794.9719,0.0,0.0,0.0,0.0,-0.10798041503111479,0.0,-0.26744117293688874,-0.23693731920639274,-0.3452231750083747,-0.1927453482849848,-0.907967770806942,-0.1091820045879249
10835,7.0,298.55332000000004,2861.098,0.0,0.0,0.0,0.0,-0.1079903818406986,0.0,-0.2147560586172728,-0.23677687105305778,-0.4181694105801076,-0.21630957367059278,-0.9446283347950581,-0.07887263813462334
10836,7.0,299.30897999999996,2666.8837,0.0,0.0,0.0,0.0,-0.10800034865028242,0.0,-0.2111017923966248,-0.22038959745075978,-0.37917468313162767,-0.23171407573589878,-0.9601078882952712,-0.0971702043094525
10837,7.0,298.99678,2605.8655,0.0,0.0,0.0,0.0,-0.10801031545986624,0.0,-0.2009299772927448,-0.1960159980177728,-0.3951720682279466,-0.21626013719821377,-0.943940206254645,-0.06533865249592294
10838,7.0,299.48769,2838.6465,0.0,0.0,0.0,0.0,-0.10802028226945007,0.0,-0.2907125386460937,-0.2225802745644628,-0.3495848417863377,-0.18736425058141182,-0.8855420231011931,-0.07862463807989763
10839,7.0,300.05896,2845.0626,0.0,0.0,0.0,0.0,-0.10803024907903387,0.0,-0.2757830887576717,-0.23272568437073676,-0.35631921605846867,-0.21593544120366878,-0.8881402395376172,-0.08819805401922022
10840,7.0,299.50296000000003,2752.1612,0.0,0.0,0.0,0.0,-0.1080402158886177,0.0,-0.24270694766081075,-0.24405458042631176,-0.3498267653802137,-0.2088436024287588,-0.9102855702781911,-0.08884431303900102
10841,7.0,300.15096,2788.6972,0.0,0.0,0.0,0.0,-0.10805018269820153,0.0,-0.2067671895288328,-0.24184183472543075,-0.3990853009091526,-0.22899864652790677,-0.9118312022457331,-0.08108419934613742
10842,7.0,300.81859,2817.3712,0.0,0.0,0.0,0.0,-0.10806014950778534,0.0,-0.2374989941343258,-0.2455970510535418,-0.37331443972076667,-0.21376954818741178,-0.9068722751963252,-0.09191801228360151
10843,7.0,299.77179,2777.0772,0.0,0.0,0.0,0.0,-0.10807011631736917,0.0,-0.23531560228884177,-0.24368771296260475,-0.3651587997983677,-0.20789458225259777,-0.952526669987063,-0.0963827002522319
10844,7.0,300.095,2711.6666,0.0,0.0,0.0,0.0,-0.10808008312695298,0.0,-0.29756736809011275,-0.2020729436705468,-0.3246386344568387,-0.21062297092936882,-0.9481501590951351,-0.0952409366022986
10845,7.0,299.68807000000004,2748.8561,0.0,0.0,0.0,0.0,-0.10809004993653681,0.0,-0.28133534466813676,-0.2045873339261978,-0.3496609267363467,-0.2055535388240548,-0.9146659011229961,-0.07484140133352123
10846,7.0,299.66184,2809.1648,0.0,0.0,0.0,0.0,-0.10810001674612063,0.0,-0.24792577336086874,-0.2057041077889148,-0.4002860833376606,-0.2018937503903618,-0.8896246610666181,-0.07046060844667063
10847,7.0,299.37279,2951.7511,0.0,0.0,0.0,0.0,-0.10810998355570445,0.0,-0.24384529361815677,-0.2338599773276828,-0.41955334809669165,-0.2200195686467408,-0.919461279473763,-0.07896333719082461
10848,7.0,298.47308,3003.2235,0.0,0.0,0.0,0.0,-0.10811995036528828,0.0,-0.24384878933100176,-0.23629242604774678,-0.4327637381304556,-0.2244754474190018,-0.9424317504332722,-0.050486467993876454
10849,7.0,298.85017,2945.245,0.0,0.0,0.0,0.0,-0.10812991717487208,0.0,-0.27309484504986276,-0.23528144562797076,-0.38690463642201467,-0.2122473729596848,-0.9500880201763872,-0.06436907144873275
10850,7.0,299.45814,2955.1222,0.0,0.0,0.0,0.0,-0.10813988398445591,0.0,-0.2906300296904507,-0.24189538499321578,-0.36575793458249767,-0.21754750184776678,-0.9191482257228671,-0.06747884341014333
10851,7.0,299.62854,2714.0953,0.0,0.0,0.0,0.0,-0.10814985079403974,0.0,-0.26362981242073674,-0.2250373857919608,-0.3363500020276607,-0.21723928129984782,-0.9048411545758691,-0.10532614212738091
10852,7.0,300.37542,2575.3766,0.0,0.0,0.0,0.0,-0.10815981760362355,0.0,-0.1937399647156458,-0.24750157620650376,-0.3416086383241477,-0.20875504437001882,-0.9164079212249201,-0.1030475757000039
10853,7.0,300.67059,2647.3152,0.0,0.0,0.0,0.0,-0.10816978441320738,0.0,-0.22334960496788978,-0.2113404938551828,-0.37002760838388166,-0.19637649213835082,-0.8918822430844241,-0.1004651406338874
10854,7.0,300.34592000000004,2755.3998,0.0,0.0,0.0,0.0,-0.10817975122279119,0.0,-0.23465707078384979,-0.22159213280194082,-0.3813235434137036,-0.2062406642468688,-0.8890797655603412,-0.07090122126590573
10855,7.0,300.95928,2730.3602,0.0,0.0,0.0,0.0,-0.10818971803237502,0.0,-0.24691160120327776,-0.22784882044692775,-0.35520089192309867,-0.20889555176138583,-0.9294465147042292,-0.099733083648639
10856,7.0,299.96647,2836.366,0.0,0.0,0.0,0.0,-0.10819968484195884,0.0,-0.29334263193066373,-0.2171837653268688,-0.3516580426834467,-0.2220839846654828,-0.9372005934794971,-0.06496386952243473
10857,7.0,299.10472999999996,3045.2209999999995,0.0,0.0,0.0,0.0,-0.10820965165154266,0.0,-0.2897410344502137,-0.25933393597176674,-0.37659617440964865,-0.2126339076078328,-0.9177402741789131,-0.08952639754256751
10858,7.0,300.14592999999996,3244.8147,0.0,0.0,0.0,0.0,-0.10821961846112649,0.0,-0.28566967395840176,-0.28840075788043873,-0.4122722240706006,-0.21025148304520577,-0.9033856208072191,-0.05922326561713124
10859,7.0,299.27344,2850.8386,0.0,0.0,0.0,0.0,-0.10822958527071029,0.0,-0.23274902965304076,-0.23610680876192774,-0.39772791054518863,-0.23970824412236175,-0.9186907534352181,-0.08053179059036891
10860,7.0,299.74996,2550.4808,0.0,0.0,0.0,0.0,-0.10823955208029412,0.0,-0.19626449760479783,-0.23125077726017476,-0.34776719269694967,-0.23687111344485878,-0.9460727025476062,-0.05468922169240595
10861,7.0,299.8118,2557.0717,0.0,0.0,0.0,0.0,-0.10824951888987795,0.0,-0.2322409556553978,-0.1931112835585998,-0.3519337176381537,-0.19379216736079782,-0.9332852228405801,-0.06951484282983084
10862,7.0,300.52017,2734.0445,0.0,0.0,0.0,0.0,-0.10825948569946177,0.0,-0.3028738905863257,-0.22425559241230378,-0.3039517759102047,-0.19571977435103782,-0.9179036506250372,-0.08169551238321933
10863,7.0,300.27565,2920.7661,0.0,0.0,0.0,0.0,-0.10826945250904559,0.0,-0.27236984433831074,-0.24563775331005877,-0.36983236522211266,-0.18123434078893683,-0.9172511479581401,-0.1063773283111249
10864,7.0,300.69662,2802.0564,0.0,0.0,0.0,0.0,-0.1082794193186294,0.0,-0.23943008670490978,-0.24151183943286278,-0.3708132622464197,-0.2304743135760438,-0.9086461113513893,-0.09166763007789072
10865,7.0,300.56774,2696.9261,0.0,0.0,0.0,0.0,-0.10828938612821323,0.0,-0.22065875720732378,-0.2262880910528958,-0.3728513236300606,-0.2053401280879928,-0.9024409170764841,-0.09211829940436832
10866,7.0,300.01396,2968.3743,0.0,0.0,0.0,0.0,-0.10829935293779705,0.0,-0.25192563892562475,-0.24374523517078175,-0.4066407826648206,-0.2336119944982088,-0.9123643744483532,-0.08656181824098633
10867,7.0,300.21109,3180.8212,0.0,0.0,0.0,0.0,-0.10830931974738087,0.0,-0.3078935113167237,-0.2574094700568368,-0.4015872484535756,-0.2016373474525568,-0.9295735661342681,-0.07818917257117053
10868,7.0,299.22507,2890.0683,0.0,0.0,0.0,0.0,-0.1083192865569647,0.0,-0.2935845453920387,-0.22701152122679277,-0.3579125315757167,-0.2262951331410908,-0.957996001509344,-0.07396730796250493
10869,7.0,299.32763,2629.1276,0.0,0.0,0.0,0.0,-0.1083292533665485,0.0,-0.2099154183845388,-0.2221579519227828,-0.3671157606440047,-0.2062723181799928,-0.9338290544342522,-0.06754327801050253
10870,7.0,298.69414,2645.915,0.0,0.0,0.0,0.0,-0.10833922017613233,0.0,-0.22608625163297577,-0.22553288535586277,-0.35267296464611164,-0.19821675696997082,-0.9251166437144042,-0.0987711151494501
10871,7.0,299.99252,2903.0347,0.0,0.0,0.0,0.0,-0.10834918698571616,0.0,-0.24483484379831777,-0.25386107833913774,-0.3837541378860846,-0.19656159266661882,-0.9219802698848681,-0.07591117153734933
10872,7.0,300.10506000000004,2820.8597,0.0,0.0,0.0,0.0,-0.10835915379529998,0.0,-0.24663239000572176,-0.24846027292111977,-0.3623782490064486,-0.2123763596974148,-0.9092421658552151,-0.11487451457723188
10873,7.0,300.40695,2769.3975,0.0,0.0,0.0,0.0,-0.1083691206048838,0.0,-0.27536704826661174,-0.25735190731865576,-0.3091087325591567,-0.2249051059914058,-0.9187791189764392,-0.06778939848629273
10874,7.0,299.82805,2768.4758,0.0,0.0,0.0,0.0,-0.10837908741446761,0.0,-0.28581888516812776,-0.2232525964033158,-0.33247604292033067,-0.2014801923620468,-0.9109693925056792,-0.0981543011775753
10875,7.0,300.84297999999995,3022.0758,0.0,0.0,0.0,0.0,-0.10838905422405144,0.0,-0.26115513143650476,-0.2704321555095758,-0.38704830515369365,-0.2157739798002338,-0.9269690574147231,-0.08081630412569822
10876,7.0,300.22014,3166.4385,0.0,0.0,0.0,0.0,-0.10839902103363526,0.0,-0.2788011757705337,-0.26854759138358375,-0.4151694708765366,-0.19319628510948883,-0.9317047249370972,-0.07075991644671004
10877,7.0,299.5875,3092.9737,0.0,0.0,0.0,0.0,-0.10840898784321908,0.0,-0.26281199800002475,-0.23682680401798578,-0.44054797122869954,-0.2097705641502428,-0.9174420544094812,-0.048107279752068854
10878,7.0,300.03263,2829.6554,0.0,0.0,0.0,0.0,-0.1084189546528029,0.0,-0.23680878843120778,-0.2504870264336448,-0.3728487803723096,-0.21444858787442778,-0.9323962073353411,-0.06936805126134364
10879,7.0,299.98165,2753.5728,0.0,0.0,0.0,0.0,-0.10842892146238671,0.0,-0.2700507073769297,-0.21881727647558377,-0.34814938050216865,-0.2224124803479028,-0.935698399543742,-0.07842110551906052
10880,7.0,298.68239,2812.3655,0.0,0.0,0.0,0.0,-0.10843888827197054,0.0,-0.27009268632857275,-0.2328581161588068,-0.3519380948785857,-0.23205932044247177,-0.922989821622003,-0.07804131101057772
10881,7.0,298.78917,2848.7868,0.0,0.0,0.0,0.0,-0.10844885508155437,0.0,-0.23528963268877878,-0.24766774922290374,-0.38300268121442166,-0.2064145379640288,-0.9035197244579541,-0.10196088523275591
10882,7.0,299.1892,2639.9169,0.0,0.0,0.0,0.0,-0.10845882189113819,0.0,-0.22673700137719976,-0.20580155205103182,-0.36993026544677465,-0.23831479218733878,-0.9138968240320943,-0.07889958349453262
10883,7.0,299.43192,2514.5491,0.0,0.0,0.0,0.0,-0.108468788700722,0.0,-0.2020120676045388,-0.2347734729553378,-0.3275746076815967,-0.22075309079163377,-0.927706703487523,-0.1096471471788309
10884,7.0,298.65339,2778.522,0.0,0.0,0.0,0.0,-0.10847875551030582,0.0,-0.2533806863342268,-0.2289000775581788,-0.3623205444132537,-0.21816205829841878,-0.935178166544899,-0.07495064084005233
10885,7.0,299.42185,3177.7562,0.0,0.0,0.0,0.0,-0.10848872231988965,0.0,-0.3157420756638167,-0.26233737138818275,-0.38787907904318464,-0.21253673692324282,-0.9084681542363261,-0.07455261694902043
10886,7.0,298.59933,3214.8001,0.0,0.0,0.0,0.0,-0.10849868912947347,0.0,-0.3008140240605327,-0.2847359234612477,-0.39166900931972165,-0.2055509651688008,-0.9155166157744551,-0.08878709784560432
10887,7.0,299.50169,2930.7746,0.0,0.0,0.0,0.0,-0.10850865593905729,0.0,-0.27292947250104177,-0.22157106733236176,-0.3963817469923326,-0.2269851767241928,-0.9114794828710211,-0.05749084707315485
10888,7.0,300.82899,2672.292,0.0,0.0,0.0,0.0,-0.10851862274864112,0.0,-0.2159092689535858,-0.22478227981428375,-0.37161851236589166,-0.19724093632866482,-0.905205387589316,-0.07934955773144163
10889,7.0,300.21181,2803.6652,0.0,0.0,0.0,0.0,-0.10852858955822492,0.0,-0.23877131201989377,-0.2191265406711058,-0.3943463808539576,-0.21670480200459877,-0.9282600900296382,-0.06260615812974674
10890,7.0,299.93215,3081.9062,0.0,0.0,0.0,0.0,-0.10853855636780875,0.0,-0.2866597003661097,-0.23672074713001878,-0.4134420719735556,-0.2028756100022638,-0.9273142717237931,-0.08656460163901102
10891,7.0,301.08867000000004,2880.8878,0.0,0.0,0.0,0.0,-0.10854852317739258,0.0,-0.28759054283547675,-0.27038847429776475,-0.31773893829839167,-0.2224172122258698,-0.9250690412247061,-0.08765768470113991
10892,7.0,300.19012999999995,2479.6405,0.0,0.0,0.0,0.0,-0.1085584899869764,0.0,-0.2123333877606738,-0.20772761890111982,-0.3336877988474217,-0.22297060890048578,-0.9253654472764592,-0.11487954029772789
10893,7.0,299.55405,2671.7721,0.0,0.0,0.0,0.0,-0.10856845679656021,0.0,-0.22557689080770577,-0.24345266933690776,-0.3431224643710507,-0.2151717444707978,-0.9033538250190811,-0.08483106750667452
10894,7.0,299.46804,3276.3783,0.0,0.0,0.0,0.0,-0.10857842360614403,0.0,-0.28006054431982375,-0.3041262170474207,-0.4117504205341026,-0.2300346846226558,-0.9216256526148702,-0.09418612602294692
10895,7.0,299.18388999999996,3276.6708,0.0,0.0,0.0,0.0,-0.10858839041572786,0.0,-0.2896724070209407,-0.2569882315927638,-0.44936547624891954,-0.2030376489582558,-0.9328988097824442,-0.05957426457102214
10896,7.0,298.88535,2795.6016,0.0,0.0,0.0,0.0,-0.10859835722531168,0.0,-0.24866556752388078,-0.26212705106492573,-0.33900045150673974,-0.21949691398015878,-0.96812349705385,-0.07511565165858763
10897,7.0,299.11852000000005,2623.817,0.0,0.0,0.0,0.0,-0.1086083240348955,0.0,-0.24037577328824178,-0.19469983680037783,-0.36249925133339067,-0.18773778523077683,-0.9236684357439772,-0.06576779025777553
10898,7.0,300.03386,3016.8891,0.0,0.0,0.0,0.0,-0.10861829084447933,0.0,-0.2800686503206237,-0.2563736346121077,-0.38061665961393965,-0.20903270529492182,-0.9210670174372371,-0.08538963986280132
10899,7.0,299.95746,3186.2647,0.0,0.0,0.0,0.0,-0.10862825765406313,0.0,-0.2866199708296887,-0.27116614374951475,-0.4107587830587356,-0.19444993892821483,-0.9063327195180751,-0.09491562151194251
10900,7.0,300.60233,2849.0707,0.0,0.0,0.0,0.0,-0.10863822446364696,0.0,-0.2620969474044547,-0.22152976725828577,-0.3824196267093786,-0.22504737643794678,-0.9050591958648881,-0.08211291062941332
10901,7.0,300.97963,2501.4682,0.0,0.0,0.0,0.0,-0.10864819127323079,0.0,-0.2004289453832968,-0.2118479599027658,-0.3481069658529827,-0.22117727781349777,-0.930180644799182,-0.08623443510717611
10902,7.0,300.49226,2779.2283,0.0,0.0,0.0,0.0,-0.10865815808281461,0.0,-0.26300004708608377,-0.25485123646935876,-0.32696473244640667,-0.2147946938435858,-0.9289593541886502,-0.0894413615411751
10903,7.0,299.8866,3237.5892,0.0,0.0,0.0,0.0,-0.10866812489239842,0.0,-0.3123626839302967,-0.25347624595115775,-0.4183073443162206,-0.22970360515248076,-0.9333582883052912,-0.07532915764015902
10904,7.0,299.93689,3047.7779,0.0,0.0,0.0,0.0,-0.10867809170198224,0.0,-0.2863280737408807,-0.26986542446364375,-0.3702548803813116,-0.20130310664206982,-0.9259473162788852,-0.10486548823441791
10905,7.0,298.97997000000004,2549.3693,0.0,0.0,0.0,0.0,-0.10868805851156607,0.0,-0.22364089410663776,-0.18352644423764983,-0.36777728123679165,-0.2145905239484358,-0.9055882644046032,-0.045316573154397556
10906,7.0,298.95596,2606.6501,0.0,0.0,0.0,0.0,-0.10869802532114989,0.0,-0.22474938971603778,-0.22256473130792878,-0.3450424213230357,-0.1935688065087538,-0.9136019885179961,-0.096049818210129
10907,7.0,299.42144,3125.2849,0.0,0.0,0.0,0.0,-0.1087079921307337,0.0,-0.28948904928284475,-0.2632816191563727,-0.3972379027968286,-0.20040102021054082,-0.923628635280049,-0.06002534021078985
10908,7.0,299.64236,3227.1861,0.0,0.0,0.0,0.0,-0.10871795894031754,0.0,-0.3380441156648567,-0.24766684743031478,-0.3952730183354096,-0.2098475508928408,-0.9370050868727021,-0.10050863338117981
10909,7.0,299.91232,2865.512,0.0,0.0,0.0,0.0,-0.10872792574990134,0.0,-0.2593872734570308,-0.2587421269858598,-0.3529146957224687,-0.21253325134289883,-0.9259211440288022,-0.07395794451833083
10910,7.0,299.39581,2429.3776,0.0,0.0,0.0,0.0,-0.10873789255948517,0.0,-0.2115496793383278,-0.2124684337340018,-0.31445201576899773,-0.24572641269380877,-0.9150362035045421,-0.12019021711935088
10911,7.0,300.23272000000003,2602.9851,0.0,0.0,0.0,0.0,-0.108747859369069,0.0,-0.20224651341267683,-0.21912336919829278,-0.3698725811185817,-0.23077579601079778,-0.9232869673463291,-0.08054789417420823
10912,7.0,300.27077,3023.8691,0.0,0.0,0.0,0.0,-0.10875782617865282,0.0,-0.2790958491646157,-0.26194868864982274,-0.37813617270663463,-0.22410959320539478,-0.9462132504689772,-0.1191063333548799
10913,7.0,300.16357999999997,2894.0588,0.0,0.0,0.0,0.0,-0.10876779298823663,0.0,-0.27657873326619575,-0.2053104803900668,-0.39783240702800166,-0.2090349445776428,-0.9498328331387021,-0.06742802587787804
10914,7.0,300.51262,2393.6389,0.0,0.0,0.0,0.0,-0.10877775979782045,0.0,-0.22924882811009775,-0.20047493680533582,-0.2978827016537337,-0.17904453507031984,-0.959472246110038,-0.0920710414197043
10915,7.0,299.90811,2621.5387,0.0,0.0,0.0,0.0,-0.10878772660740428,0.0,-0.1999092696720088,-0.22598362966284777,-0.3709894157763047,-0.2050346737128468,-0.9506667075734991,-0.08570151520383101
10916,7.0,298.6208,3285.5561,0.0,0.0,0.0,0.0,-0.10879769341698811,0.0,-0.3009029468893087,-0.24839830254500375,-0.44942575449736855,-0.18316066095154981,-0.944020030097523,-0.050151724611339855
10917,7.0,299.4402,3463.7063,0.0,0.0,0.0,0.0,-0.10880766022657191,0.0,-0.2764000567435618,-0.3006373335080947,-0.4758428159370295,-0.2020409047023848,-0.9344057558611683,-0.05854558267199915
10918,7.0,299.57247,2962.0371,0.0,0.0,0.0,0.0,-0.10881762703615575,0.0,-0.27501985811984675,-0.22335301962072682,-0.4020124385930386,-0.2294003292650498,-0.8854553800851422,-0.05797463853215135
10919,7.0,298.98307,2608.0206,0.0,0.0,0.0,0.0,-0.10882759384573955,0.0,-0.23691625373681377,-0.2216035419980668,-0.3342533443907367,-0.2366905117470348,-0.927731619307482,-0.07887418942052642
10920,7.0,299.09403,2832.7111,0.0,0.0,0.0,0.0,-0.10883756065532338,0.0,-0.29619250929442476,-0.23927903138000176,-0.3256019110619067,-0.24281174811865378,-0.9185489490837232,-0.08471299448577162
10921,7.0,300.85228,3011.1225,0.0,0.0,0.0,0.0,-0.10884752746490721,0.0,-0.28189995802135975,-0.23958973439066578,-0.39381635985914865,-0.23996659250035876,-0.9141558715526602,-0.08828083047288961
10922,7.0,300.16089,2766.2342,0.0,0.0,0.0,0.0,-0.10885749427449103,0.0,-0.2520600972138948,-0.23998426358210279,-0.3488217631360277,-0.18876089425424983,-0.94390408388858,-0.1046735887979789
10923,7.0,299.79607999999996,2411.5674,0.0,0.0,0.0,0.0,-0.10886746108407484,0.0,-0.16433018804562685,-0.1916833709876758,-0.37704271372871867,-0.2168032189868118,-0.9314422728961951,-0.09927800161797591
10924,7.0,300.82867999999996,2687.4318,0.0,0.0,0.0,0.0,-0.10887742789365866,0.0,-0.24427869108342976,-0.2226311194544808,-0.35000236162254367,-0.2069594841328108,-0.958780662386784,-0.09049822597847952
10925,7.0,300.13852,3229.8492,0.0,0.0,0.0,0.0,-0.10888739470324249,0.0,-0.3163662681229197,-0.2728483314330337,-0.3925788977770206,-0.1980093953370058,-0.9302262410536821,-0.09114693301050192
10926,7.0,301.49664,3548.8503,0.0,0.0,0.0,0.0,-0.10889736151282632,0.0,-0.3645064997814907,-0.2826234793877657,-0.4316318972387516,-0.21683964532790678,-0.8980992923854991,-0.08019233052861682
10927,7.0,300.07635,3029.6088,0.0,0.0,0.0,0.0,-0.10890732832241012,0.0,-0.2535973800006127,-0.2835056959848337,-0.38382234988281666,-0.1943748064332998,-0.9228151069072601,-0.0902670590476651
10928,7.0,298.94869,2537.3086,0.0,0.0,0.0,0.0,-0.10891729513199395,0.0,-0.17876188895492484,-0.20991447606194577,-0.38260210291988767,-0.2074233500285908,-0.929115354174046,-0.06250833389884224
10929,7.0,299.49407,2764.2329,0.0,0.0,0.0,0.0,-0.10892726194157776,0.0,-0.19299317912694383,-0.24409709640050778,-0.4031675234420366,-0.21978696695378477,-0.9161177162637791,-0.08498372072699022
10930,7.0,299.80697999999995,3054.6163,0.0,0.0,0.0,0.0,-0.10893722875116159,0.0,-0.29131526033557775,-0.24623490212399277,-0.3909769189714176,-0.2015577161271978,-0.9260719561736862,-0.06393582495772464
10931,7.0,299.113,2679.0333,0.0,0.0,0.0,0.0,-0.1089471955607454,0.0,-0.27691786807466573,-0.2184897231157568,-0.3189516365480757,-0.22900695517872677,-0.9080344629285242,-0.11903491948783189
10932,7.0,299.94967,2429.5713,0.0,0.0,0.0,0.0,-0.10895716237032924,0.0,-0.24224071075979675,-0.20982469197058481,-0.2864636162067577,-0.2146375387530758,-0.9134569924286863,-0.08948823651730133
10933,7.0,298.83513999999997,2692.7174,0.0,0.0,0.0,0.0,-0.10896712917991305,0.0,-0.2357258571218308,-0.23182991048733076,-0.35096308483735966,-0.22259238290315778,-0.9123878514531701,-0.11750022048886888
10934,7.0,299.08333,3330.1644,0.0,0.0,0.0,0.0,-0.10897709598949687,0.0,-0.28822916397600373,-0.26388610390103073,-0.4601715656503975,-0.22858820930989976,-0.9180268314396941,-0.07642922503522723
10935,7.0,300.04575,3403.902,0.0,0.0,0.0,0.0,-0.1089870627990807,0.0,-0.27563692743074675,-0.2873409185408407,-0.47172335646297053,-0.2064134943164258,-0.944981107949874,-0.09449412061609361
10936,7.0,299.38838,2733.8971,0.0,0.0,0.0,0.0,-0.1089970296086645,0.0,-0.28056882096748675,-0.1896905410884988,-0.3607770909334267,-0.2294223573222238,-0.9456733502856931,-0.058095976244876446
10937,7.0,300.66998,2432.2382,0.0,0.0,0.0,0.0,-0.10900699641824833,0.0,-0.22728677061645777,-0.2095824340041758,-0.3024704650590107,-0.19179259934845583,-0.9179156779037241,-0.0978881284823061
10938,7.0,301.10602,2831.9599,0.0,0.0,0.0,0.0,-0.10901696322783215,0.0,-0.28756387409284473,-0.2248137108323858,-0.3484675005035647,-0.2069735784417018,-0.9251501822927142,-0.06542747805268935
10939,7.0,299.05036,3091.292,0.0,0.0,0.0,0.0,-0.10902693003741597,0.0,-0.26353411094879176,-0.23242763685382178,-0.44371383063614556,-0.2022920894021748,-0.9200169356961021,-0.06037656410620295
10940,7.0,299.28359,2894.3294,0.0,0.0,0.0,0.0,-0.10903689684699978,0.0,-0.23253363294678278,-0.24169008025795377,-0.4055801428576436,-0.2023193660948668,-0.934726226602796,-0.061911655232954645
10941,7.0,299.99993,2521.5063,0.0,0.0,0.0,0.0,-0.10904686365658361,0.0,-0.17873978997024384,-0.2002740599730108,-0.38746110324443367,-0.22447609589906575,-0.9254397894362961,-0.08428481829826392
10942,7.0,299.46255,2847.8681,0.0,0.0,0.0,0.0,-0.10905683046616742,0.0,-0.27580154004199275,-0.2353726077394678,-0.35450664335208165,-0.22936499723406278,-0.9295304422100121,-0.07196167058206393
10943,7.0,299.81504,3403.7387,0.0,0.0,0.0,0.0,-0.10906679727575125,0.0,-0.3416093982617227,-0.30972789929776373,-0.38331428601767464,-0.24836491595420876,-0.9446106941108171,-0.1211058304397149
10944,7.0,300.97066,3300.5659,0.0,0.0,0.0,0.0,-0.10907676408533508,0.0,-0.3509915065026647,-0.2546837056978247,-0.39761440626898664,-0.2117991111154448,-0.9092221237682372,-0.08256491744602293
10945,7.0,300.34607,2633.4264,0.0,0.0,0.0,0.0,-0.1090867308949189,0.0,-0.2106644027259578,-0.24773723791476177,-0.34209423843457265,-0.1960557072891918,-0.9218246245370072,-0.1122900276796629
10946,7.0,302.42231,2403.354,0.0,0.0,0.0,0.0,-0.10909669770450271,0.0,-0.1947395460717968,-0.17030075412737583,-0.36551929391894566,-0.1974380540031188,-0.9095172328598622,-0.08975366953999751
10947,7.0,300.9053,2669.1946,0.0,0.0,0.0,0.0,-0.10910666451408653,0.0,-0.2058211989704708,-0.21997490458233276,-0.38557241519053465,-0.2004568401585498,-0.9509442773058931,-0.08878537937343473
10948,7.0,301.00608,2984.3398,0.0,0.0,0.0,0.0,-0.10911663132367036,0.0,-0.3129319481014787,-0.23899653725212178,-0.3552362847490917,-0.19089681533254882,-0.9455937898878412,-0.06750939290065834
10949,7.0,300.95717,2970.498,0.0,0.0,0.0,0.0,-0.10912659813325416,0.0,-0.28294928995742075,-0.2304578685269208,-0.3895500601805976,-0.2142693439317378,-0.9328800950530972,-0.08372234898225252
10950,7.0,299.02686,2555.8743,0.0,0.0,0.0,0.0,-0.10913656494283801,0.0,-0.26310052096599973,-0.22767487580226076,-0.28614657025046775,-0.20765202031115879,-0.9423488767075932,-0.09694645842237051
10951,7.0,298.7265,2929.8731,0.0,0.0,0.0,0.0,-0.10914653175242182,0.0,-0.23577707691438576,-0.27161340247615573,-0.3832177638131486,-0.23895762844828178,-0.9155377319065392,-0.08385293260214012
10952,7.0,299.8016,3502.8424,0.0,0.0,0.0,0.0,-0.10915649856200563,0.0,-0.3218725528763477,-0.28123751537098174,-0.4616665553779416,-0.23756198789304275,-0.902496453314465,-0.06582211870163734
10953,7.0,299.43377999999996,3139.8659,0.0,0.0,0.0,0.0,-0.10916646537158946,0.0,-0.2652687545899877,-0.2792863705809187,-0.4098857161100706,-0.20498751705319282,-0.9222564109346211,-0.09789926815390551
10954,7.0,300.11262999999997,2670.809,0.0,0.0,0.0,0.0,-0.10917643218117327,0.0,-0.2693344915437447,-0.2013495438941528,-0.34117521046137167,-0.2173773568909748,-0.9244195783081091,-0.05538330206390635
10955,7.0,300.58261,2580.6868,0.0,0.0,0.0,0.0,-0.1091863989907571,0.0,-0.25401654130198076,-0.20062411761755883,-0.3298236885310637,-0.2071562978322348,-0.9493889485348941,-0.10404995362643091
10956,7.0,299.50973,2909.6104,0.0,0.0,0.0,0.0,-0.10919636580034092,0.0,-0.3020435827918807,-0.22460651131943676,-0.3577988043844927,-0.1952264431423498,-0.9335156967083262,-0.06355546100268564
10957,7.0,300.9947,3063.3159,0.0,0.0,0.0,0.0,-0.10920633260992474,0.0,-0.26311976258539876,-0.22201613743878681,-0.44603564257779055,-0.2078320849864298,-0.9321891294124041,-0.08643687943740583
10958,7.0,300.10188,2719.3722,0.0,0.0,0.0,0.0,-0.10921629941950857,0.0,-0.20168825313758082,-0.23523564672345076,-0.38969734621513363,-0.2168433639557738,-0.925158126173498,-0.06652504474651073
10959,7.0,298.95287,2407.2566,0.0,0.0,0.0,0.0,-0.10922626622909237,0.0,-0.2056901654675388,-0.20384091310753183,-0.3222148287601277,-0.21826615961369278,-0.9486129610783101,-0.1076624840754599
10960,7.0,299.54669,2861.9851,0.0,0.0,0.0,0.0,-0.1092362330386762,0.0,-0.2926185634092037,-0.24204703813568276,-0.3353064152196667,-0.2130933354681748,-0.928117687860584,-0.05853507425521204
10961,7.0,300.15604,3252.9176,0.0,0.0,0.0,0.0,-0.10924619984826003,0.0,-0.3401386454765707,-0.2939480184679107,-0.35471906110304563,-0.20432308843261882,-0.9370598834381102,-0.11721211295543489
10962,7.0,300.20429,3084.9758,0.0,0.0,0.0,0.0,-0.10925616665784384,0.0,-0.29543801287246174,-0.2511586085999247,-0.39115900001438764,-0.2103766396975578,-0.9376665872004871,-0.07004576359072863
10963,7.0,299.88895,2566.4412,0.0,0.0,0.0,0.0,-0.10926613346742767,0.0,-0.16680416988728985,-0.24106745833650575,-0.3722624125394397,-0.19219262035543483,-0.9426607753533752,-0.11850823208585189
10964,7.0,300.29684,2501.1693,0.0,0.0,0.0,0.0,-0.10927610027701148,0.0,-0.19399103795792483,-0.18027348585160785,-0.3860285094580476,-0.23266418008966677,-0.9069663656006112,-0.06869770019393513
10965,7.0,301.19926,3025.3641,0.0,0.0,0.0,0.0,-0.10928606708659531,0.0,-0.27297227218526576,-0.2330987630575568,-0.4135641280806016,-0.21446933923647576,-0.9244709196906761,-0.08888634670614942
10966,7.0,300.45513,3103.8466,0.0,0.0,0.0,0.0,-0.10929603389617913,0.0,-0.3120683347762467,-0.25194045264208675,-0.3794830860645646,-0.2404607951041328,-0.9356469061736601,-0.05781950791534115
10967,7.0,299.61605,2765.5977,0.0,0.0,0.0,0.0,-0.10930600070576295,0.0,-0.27579957433679875,-0.20241099430140982,-0.3624620751872217,-0.2109266014543348,-0.9302280649038621,-0.0975538187708123
10968,7.0,299.61578,2696.8569,0.0,0.0,0.0,0.0,-0.10931596751534678,0.0,-0.23982884114926376,-0.20550845932710582,-0.37443987687183866,-0.20323370272010483,-0.9419371323969571,-0.04917514707220915
10969,7.0,299.82149,2837.8038,0.0,0.0,0.0,0.0,-0.10932593432493058,0.0,-0.2097150887072678,-0.23579663264131578,-0.4171097840230306,-0.18417685960934083,-0.9129379651974622,-0.1147563392180689
10970,7.0,299.77042,3269.6735,0.0,0.0,0.0,0.0,-0.10933590113451441,0.0,-0.28339916286931977,-0.24727719197185877,-0.4632227454115256,-0.2191717214930648,-0.924996755962572,-0.030228134192784573
10971,7.0,298.53033999999997,3144.6702,0.0,0.0,0.0,0.0,-0.10934586794409824,0.0,-0.2925713358220427,-0.26985069180718974,-0.39347917049087067,-0.18850789583678082,-0.9412760373692121,-0.10295130680800291
10972,7.0,299.47369,2722.7233,0.0,0.0,0.0,0.0,-0.10935583475368205,0.0,-0.2879163635376327,-0.2143813080677878,-0.3253422150612767,-0.23154654496436475,-0.9047562138199862,-0.045697994942540954
10973,7.0,300.23716,2589.0606,0.0,0.0,0.0,0.0,-0.10936580156326588,0.0,-0.26493167667922074,-0.1993948729937418,-0.3226832238838547,-0.1968635614614208,-0.9516022109933262,-0.09540280026602331
10974,7.0,300.55721,2972.2073,0.0,0.0,0.0,0.0,-0.1093757683728497,0.0,-0.25274908701689275,-0.25288120469743175,-0.39784650133689264,-0.23756926302876077,-0.9443096879036101,-0.07392220820055392
10975,7.0,299.65977000000004,3031.1035,0.0,0.0,0.0,0.0,-0.10938573518243352,0.0,-0.23308199376840177,-0.24334272156855677,-0.44495505187614454,-0.23214739214116376,-0.9342038556462421,-0.1006584251832131
10976,7.0,299.4042,2724.4531,0.0,0.0,0.0,0.0,-0.10939570199201734,0.0,-0.2093872921674168,-0.22124417258509982,-0.3975342379210746,-0.21188088039851483,-0.9250642384192321,-0.07980252308264583
10977,7.0,300.53132999999997,2685.1441,0.0,0.0,0.0,0.0,-0.10940566880160116,0.0,-0.22197457391968478,-0.24942854484918076,-0.3448136193179547,-0.2243134388605128,-0.9099798727230212,-0.12017532234288088
10978,7.0,301.35008,2915.9428,0.0,0.0,0.0,0.0,-0.10941563561118499,0.0,-0.30452627858440373,-0.21680950113743178,-0.3650380305189486,-0.23574058977828477,-0.9055987920731421,-0.09709176051321071
10979,7.0,300.54172,3159.5315,0.0,0.0,0.0,0.0,-0.10942560242076879,0.0,-0.3075939439246587,-0.2824602853266597,-0.37036445324712564,-0.1996890498952748,-0.9318933921057171,-0.09996213896624499
10980,7.0,300.83502000000004,3085.7321,0.0,0.0,0.0,0.0,-0.10943556923035262,0.0,-0.2812001771047967,-0.25006948633243675,-0.4067158543647296,-0.2167436804109358,-0.926169055930769,-0.07855960566197942
10981,7.0,301.07491,2769.4387,0.0,0.0,0.0,0.0,-0.10944553603993645,0.0,-0.19446334422703782,-0.2510718135963588,-0.39630506422476464,-0.17831136756296184,-0.9569943125929851,-0.08918638728601111
10982,7.0,300.2833,2612.7636,0.0,0.0,0.0,0.0,-0.10945550284952026,0.0,-0.21748833817442778,-0.2208631297524938,-0.35586341563348467,-0.2207078795721718,-0.9610827868789861,-0.06899457234073413
10983,7.0,298.97343,3051.2089,0.0,0.0,0.0,0.0,-0.10946546965910409,0.0,-0.27856090377432075,-0.25447810712003377,-0.39445230601941167,-0.22129477429509378,-0.9451209364636741,-0.08161431862620613
10984,7.0,298.9681,3300.2245,0.0,0.0,0.0,0.0,-0.1094754364686879,0.0,-0.3698106006099647,-0.26776295077114576,-0.3656122900131236,-0.2113436551954948,-0.9341911292249861,-0.05766855290219305
10985,7.0,300.04953,2885.4545,0.0,0.0,0.0,0.0,-0.10948540327827173,0.0,-0.27676869739494375,-0.23356054165813075,-0.3667768791480596,-0.22521648787963677,-0.9241173359357802,-0.08536402186052301
10986,7.0,300.29026,2668.6887,0.0,0.0,0.0,0.0,-0.10949537008785555,0.0,-0.2132016316388628,-0.22279243900290177,-0.3752206671338967,-0.2191819857165778,-0.9140300056252382,-0.06606089007445223
10987,7.0,300.24726,2974.5713,0.0,0.0,0.0,0.0,-0.10950533689743937,0.0,-0.2163449968940888,-0.27058955378010974,-0.4172608596129406,-0.2227765715063358,-0.9383833704537281,-0.10161895385400992
10988,7.0,300.8942,3306.2117,0.0,0.0,0.0,0.0,-0.1095153037070232,0.0,-0.3044439925437827,-0.2676655166415297,-0.43289628137603653,-0.2030033200448678,-0.9159247731797371,-0.06545675287457853
10989,7.0,300.34058999999996,3071.9149,0.0,0.0,0.0,0.0,-0.109525270516607,0.0,-0.2938964440378207,-0.27328798065142373,-0.36660098906320066,-0.2075118574248258,-0.960640513342837,-0.11593944043233188
10990,7.0,299.47645,2591.5811,0.0,0.0,0.0,0.0,-0.10953523732619083,0.0,-0.2778385881755337,-0.23271682856486278,-0.2772205258795357,-0.18238447084494583,-0.9443446348995591,-0.08250138869125312
10991,7.0,299.45353,2628.3966,0.0,0.0,0.0,0.0,-0.10954520413577466,0.0,-0.23465107234325777,-0.23605111040393076,-0.32826476272220967,-0.20336139249770682,-0.9489923320482511,-0.09222748926164451
10992,7.0,300.28925,3136.7432,0.0,0.0,0.0,0.0,-0.10955517094535847,0.0,-0.23218213648709277,-0.2870447050066067,-0.4342647769610966,-0.2026084260833948,-0.93473062410823,-0.09728870188214732
10993,7.0,299.7887,3224.1853,0.0,0.0,0.0,0.0,-0.1095651377549423,0.0,-0.24850537268307077,-0.2917378058922797,-0.4398286548502086,-0.2201500955246228,-0.9363946036874522,-0.08202665771465083
10994,7.0,299.12822,2720.1308,0.0,0.0,0.0,0.0,-0.10957510456452611,0.0,-0.2167243779965308,-0.23492258284005377,-0.37520489082983965,-0.20054375675212782,-0.9310737639673261,-0.095373646020896
10995,7.0,298.64615,2476.9433,0.0,0.0,0.0,0.0,-0.10958507137410994,0.0,-0.23551455394597676,-0.22623995154064477,-0.29117441857167775,-0.2216445076996098,-0.9244956835231201,-0.06469006097441193
10996,7.0,298.95167000000004,2990.0763,0.0,0.0,0.0,0.0,-0.10959503818369376,0.0,-0.32717479945713873,-0.23950448965975277,-0.34222923374539566,-0.23981895182828775,-0.9447813862226632,-0.07417242321999823
10997,7.0,298.91877,3244.8764,0.0,0.0,0.0,0.0,-0.10960500499327758,0.0,-0.3258421931906207,-0.2589786398242018,-0.4015405781539696,-0.2222516978220348,-0.9542702910241451,-0.07806089409526043
10998,7.0,299.73291,2978.0809999999997,0.0,0.0,0.0,0.0,-0.10961497180286141,0.0,-0.22009958500713778,-0.26132758660352473,-0.4238350897067666,-0.23515541758053277,-0.9300313829269511,-0.08651260772337961
10999,7.0,299.52852,2535.4784,0.0,0.0,0.0,0.0,-0.10962493861244521,0.0,-0.1806046058517868,-0.2123193238492858,-0.37779819300327866,-0.2080168714071668,-0.9418241246133041,-0.08424363373469931
11000,7.0,300.1799,2706.4314,0.0,0.0,0.0,0.0,-0.10963490542202904,0.0,-0.23908428471078177,-0.21717122129063077,-0.3664320498740276,-0.2217927563217408,-0.941299291459007,-0.06791596659603404
11001,7.0,301.36929,3256.5691,0.0,0.0,0.0,0.0,-0.10964487223161287,0.0,-0.35528806182920164,-0.24434795686026578,-0.3902796711801046,-0.2025717970922798,-0.9444601150134561,-0.07398267997977202
11002,7.0,300.19811,3368.8904,0.0,0.0,0.0,0.0,-0.10965483904119669,0.0,-0.38571926552752767,-0.26271951866339777,-0.3756197660832846,-0.18255527441430283,-0.9253307231955321,-0.03279738484859986
11003,7.0,299.95628,2780.6807,0.0,0.0,0.0,0.0,-0.1096648058507805,0.0,-0.2430917395187868,-0.23202374523146077,-0.37014201445267264,-0.17762226630245284,-0.9228956602902101,-0.08639492075076483
11004,7.0,300.54193,2555.291,0.0,0.0,0.0,0.0,-0.10967477266036432,0.0,-0.17994175790136882,-0.21613986441134378,-0.38066304620351765,-0.2056965185456658,-0.932659328121309,-0.06882607594185483
11005,7.0,300.47013,2937.2392,0.0,0.0,0.0,0.0,-0.10968473946994815,0.0,-0.2030094198104698,-0.2713816316482817,-0.4184563224784236,-0.22715729751867977,-0.9476102285143481,-0.1018503599118479
11006,7.0,299.3699,3214.6868,0.0,0.0,0.0,0.0,-0.10969470627953197,0.0,-0.2850126724610607,-0.28404984168603675,-0.4081220124560066,-0.24208879417230375,-0.932100034331111,-0.09199854337504933
11007,7.0,299.56355,2895.8322,0.0,0.0,0.0,0.0,-0.10970467308911579,0.0,-0.3107757417561777,-0.2318709268513788,-0.3376140011299077,-0.2070037530296798,-0.9484033500301231,-0.07596123723804042
11008,7.0,299.13678,2496.0138,0.0,0.0,0.0,0.0,-0.10971463989869962,0.0,-0.24748288174215877,-0.2222348576053728,-0.28900814052038276,-0.2267911089325398,-0.9518653824417991,-0.08711464648229622
11009,7.0,299.19547,2695.6364,0.0,0.0,0.0,0.0,-0.10972460670828342,0.0,-0.2041301048185728,-0.2216612263262598,-0.3936148345467596,-0.21075703405009982,-0.9170665033924171,-0.09684002460536631
11010,7.0,299.98277,3249.6412,0.0,0.0,0.0,0.0,-0.10973457351786725,0.0,-0.25622954031538675,-0.27998615149748174,-0.4515941097113686,-0.19254405602011881,-0.9101557729403812,-0.1118081968596099
11011,7.0,300.47402,3184.1866,0.0,0.0,0.0,0.0,-0.10974454032745108,0.0,-0.23772086550872276,-0.2622868000756917,-0.4679055516761826,-0.1892662527416248,-0.8949458554242792,-0.08165568760128893
11012,7.0,300.11003,2687.3436,0.0,0.0,0.0,0.0,-0.1097545071370349,0.0,-0.2651253797008377,-0.21751381128194178,-0.3342461705800287,-0.1909326033260808,-0.9307078793562161,-0.1153553017496819
11013,7.0,301.39656,2485.4658,0.0,0.0,0.0,0.0,-0.10976447394661872,0.0,-0.27670406217106475,-0.17111303620254184,-0.3077024326128657,-0.20946659925274377,-0.9476309697438952,-0.04132408101061926
11014,7.0,300.70288999999997,2815.0499,0.0,0.0,0.0,0.0,-0.10977444075620253,0.0,-0.2953342965922257,-0.24052027288500277,-0.3198502981942667,-0.20349452342834579,-0.9360189817428812,-0.0885050221900156
11015,7.0,299.71844,3258.6801,0.0,0.0,0.0,0.0,-0.10978440756578636,0.0,-0.2624144290582877,-0.2697310573678828,-0.45841188459923055,-0.2159512479052288,-0.9515904066296612,-0.04725812145276345
11016,7.0,300.24546000000004,3222.0949,0.0,0.0,0.0,0.0,-0.10979437437537018,0.0,-0.2551719706560127,-0.2753667746890847,-0.44889765867774956,-0.2083755923400698,-0.9379548467214361,-0.08171062703496103
11017,7.0,299.31,2966.3167,0.0,0.0,0.0,0.0,-0.109804341184954,0.0,-0.21550156751084878,-0.25050275207519673,-0.43568189841845556,-0.22782319535189877,-0.9403377373791091,-0.06705596044115804
11018,7.0,299.6523,2879.5012,0.0,0.0,0.0,0.0,-0.10981430799453783,0.0,-0.2942224167274917,-0.2298149208084668,-0.3512591362515777,-0.21484471800102278,-0.9062865254460161,-0.1085444777575059
11019,7.0,300.88,3157.0570000000002,0.0,0.0,0.0,0.0,-0.10982427480412163,0.0,-0.3461591343907467,-0.24361351265778178,-0.36989383910567963,-0.2563723781819838,-0.9214459831071382,-0.061674935691592235
11020,7.0,299.95887999999997,3007.8259999999996,0.0,0.0,0.0,0.0,-0.10983424161370546,0.0,-0.3165064310092527,-0.2246667389053808,-0.3731308185376447,-0.21802127732952478,-0.9207838646967921,-0.08795513034749551
11021,7.0,299.6642,2667.0553,0.0,0.0,0.0,0.0,-0.10984420842328929,0.0,-0.19615715388920382,-0.24180330082412776,-0.37275774998332567,-0.23507459062005578,-0.9271771283227582,-0.08088974145319593
11022,7.0,299.2205,2514.4995,0.0,0.0,0.0,0.0,-0.10985417523287311,0.0,-0.18130763930117083,-0.22484901246586977,-0.35818841931294465,-0.2056972987482428,-0.9472225184960841,-0.11643924630915889
11023,7.0,299.56629,2919.366,0.0,0.0,0.0,0.0,-0.10986414204245692,0.0,-0.21531826043525779,-0.26630704209995876,-0.4057890648957626,-0.2256539687428128,-0.9887647492134831,-0.08931496973695122
11024,7.0,299.6139,3247.1366,0.0,0.0,0.0,0.0,-0.10987410885204074,0.0,-0.34516756784288666,-0.28558862408290275,-0.35629223320830566,-0.2058471179080288,-0.9687383777445341,-0.1136684835132059
11025,7.0,300.22221,3232.4647,0.0,0.0,0.0,0.0,-0.10988407566162457,0.0,-0.34780972893614764,-0.25178814088705476,-0.38299068433323763,-0.18863755131957682,-0.965115208169455,-0.06962299106600423
11026,7.0,299.9901,2863.2338,0.0,0.0,0.0,0.0,-0.10989404247120839,0.0,-0.2508035657648848,-0.25760272724840977,-0.36194528723871866,-0.18607334968900982,-0.9367599512760092,-0.11681096724084489
11027,7.0,301.1299,2760.1004,0.0,0.0,0.0,0.0,-0.1099040092807922,0.0,-0.1966005723979658,-0.22442591975411377,-0.4179751097409316,-0.22869254367269676,-0.9348456786570851,-0.06747647544465964
11028,7.0,301.16196,2938.9718,0.0,0.0,0.0,0.0,-0.10991397609037604,0.0,-0.2061055676110358,-0.24604731913297975,-0.44122114419763664,-0.22262090589347278,-0.9246658386124132,-0.10109853847014891
11029,7.0,301.36315,3063.6968,0.0,0.0,0.0,0.0,-0.10992394289995984,0.0,-0.26279583666092976,-0.24346644953826774,-0.42502505062420654,-0.23950387157719177,-0.9108057728795311,-0.07435630278189573
11030,7.0,300.88084,2790.7412,0.0,0.0,0.0,0.0,-0.10993390970954367,0.0,-0.2935927121878447,-0.23488145501849475,-0.3198414829183967,-0.22335630255105082,-0.9233335059234221,-0.1004861301097089
11031,7.0,300.14761,2528.1606,0.0,0.0,0.0,0.0,-0.1099438765191275,0.0,-0.2861728134280577,-0.2005402711717838,-0.2817846197624767,-0.24396249625722377,-0.9377327828295201,-0.06604297479943413
11032,7.0,299.52175,2965.8333,0.0,0.0,0.0,0.0,-0.10995384332871132,0.0,-0.2742099065199108,-0.26408703139586076,-0.36324230816172465,-0.2254967832547998,-0.9264295017364731,-0.09305495792930932
11033,7.0,299.45412000000005,3422.0086,0.0,0.0,0.0,0.0,-0.10996381013829513,0.0,-0.3125898140727127,-0.27146200264621373,-0.45615333999382957,-0.1982539229836388,-0.9468055154174292,-0.06875925817726043
11034,7.0,300.04966,3212.6644,0.0,0.0,0.0,0.0,-0.10997377694787895,0.0,-0.25387381489289473,-0.28205417468657973,-0.4406417576579556,-0.20254189608182882,-0.9315846953302511,-0.100587040700418
11035,7.0,300.06372000000005,2634.2258,0.0,0.0,0.0,0.0,-0.10998374375746278,0.0,-0.23544126556624378,-0.21246623498128478,-0.35283137616674565,-0.20983786422188483,-0.9496371644118912,-0.06733006688471024
11036,7.0,301.12036,2575.0923,0.0,0.0,0.0,0.0,-0.1099937105670466,0.0,-0.26561350280401175,-0.20231194910413483,-0.31483829710462075,-0.21631245130087678,-0.948971874528732,-0.06737551013844514
11037,7.0,300.29661,2979.7748,0.0,0.0,0.0,0.0,-0.11000367737663042,0.0,-0.3074225526702437,-0.23883238060342077,-0.35952219081707765,-0.21823110116023278,-0.933805780079455,-0.06854695087055734
11038,7.0,300.00276,3132.0888,0.0,0.0,0.0,0.0,-0.11001364418621425,0.0,-0.29200980274912375,-0.2341480949936178,-0.42591887906742065,-0.23002015461622177,-0.9384984655325871,-0.06287775880580164
11039,7.0,299.3179,2820.4975,0.0,0.0,0.0,0.0,-0.11002361099579805,0.0,-0.20809234840711582,-0.24365129675401076,-0.40561716701629763,-0.2123580198706048,-0.932534830081522,-0.093609638391802
11040,7.0,300.15148999999997,2640.8638,0.0,0.0,0.0,0.0,-0.11003357780538188,0.0,-0.17452513564928981,-0.23656886094002877,-0.39166265624159463,-0.23390254396438379,-0.935834073732132,-0.08382676744480783
11041,7.0,300.36442,2993.8611,0.0,0.0,0.0,0.0,-0.1100435446149657,0.0,-0.26257083434372375,-0.24927851290687375,-0.39820966030523364,-0.1917999656766828,-0.9332662446662072,-0.091557634686785
11042,7.0,300.61607000000004,3339.469,0.0,0.0,0.0,0.0,-0.11005351142454953,0.0,-0.35103670758962563,-0.2995134060996717,-0.36456507576977165,-0.21904942220599477,-0.9390065496627311,-0.0954866092215446
11043,7.0,301.10367,3057.1169,0.0,0.0,0.0,0.0,-0.11006347823413333,0.0,-0.30475700576467474,-0.24311531784861373,-0.38141488791021866,-0.17338338517160784,-0.9309421427793361,-0.08188721119613852
11044,7.0,301.35281000000003,2606.9977,0.0,0.0,0.0,0.0,-0.11007344504371716,0.0,-0.21593800472642177,-0.21509651065087282,-0.36142769882263664,-0.1872663706217518,-0.9413599750074961,-0.09241515635241582
11045,7.0,300.35584,2646.0636,0.0,0.0,0.0,0.0,-0.11008341185330099,0.0,-0.18980337661963484,-0.21817076211677777,-0.3963631234554946,-0.2045597431259748,-0.922516583162798,-0.07557631669730172
11046,7.0,299.69646,3024.1113,0.0,0.0,0.0,0.0,-0.1100933786628848,0.0,-0.24874439838166076,-0.24871934070668775,-0.4217905840524896,-0.2218624476636188,-0.9281416714904511,-0.0923327669602846
11047,7.0,299.9045,3058.5169,0.0,0.0,0.0,0.0,-0.11010334547246863,0.0,-0.2955959582980497,-0.2489385269683198,-0.3851782710341356,-0.24312064754413976,-0.9242409119179761,-0.06206968273180074
11048,7.0,300.0876,2918.0834,0.0,0.0,0.0,0.0,-0.11011331228205244,0.0,-0.29164743411586075,-0.24219632027291577,-0.3531807245362237,-0.2068573383902298,-0.9417144301574781,-0.07789030837467492
11049,7.0,299.70987,2810.2992,0.0,0.0,0.0,0.0,-0.11012327909163626,0.0,-0.27379366337883076,-0.22488137567406377,-0.35558573444357966,-0.2027936583341758,-0.944247545274977,-0.062223083730690236
11050,7.0,300.37664,3047.5459,0.0,0.0,0.0,0.0,-0.11013324590122008,0.0,-0.28369354242087275,-0.25456106190572075,-0.38812324191978165,-0.18649806360092583,-0.932309098224244,-0.0951071571915956
11051,7.0,300.39464,3288.7409,0.0,0.0,0.0,0.0,-0.1101432127108039,0.0,-0.2803052948814787,-0.25062294380205874,-0.4687668750561886,-0.22062481332897377,-0.928776796918133,-0.05963555910932144
11052,7.0,300.66905,3041.4795,0.0,0.0,0.0,0.0,-0.11015317952038771,0.0,-0.26289592550580776,-0.26212236984946374,-0.3995155269016126,-0.21883823048765177,-0.9193403480743281,-0.09316019813769572
11053,7.0,300.66128,2720.9235,0.0,0.0,0.0,0.0,-0.11016314632997154,0.0,-0.25672870784465074,-0.2310403860094108,-0.3393236985536417,-0.2495351488922018,-0.9176818501781472,-0.05346274932086255
11054,7.0,300.95538999999997,2763.0167,0.0,0.0,0.0,0.0,-0.11017311313955536,0.0,-0.2766302165037767,-0.23128633220618378,-0.33197154569554066,-0.23718137062547878,-0.9317073999173611,-0.1027320293538619
11055,7.0,300.80065,2997.8751,0.0,0.0,0.0,0.0,-0.11018307994913919,0.0,-0.26718083858869573,-0.26613642091561973,-0.37796192408693763,-0.24392007147553676,-0.9457848685916991,-0.08719553018477882
11056,7.0,300.34366,2785.0945,0.0,0.0,0.0,0.0,-0.110193046758723,0.0,-0.23945564087243176,-0.2196292545757198,-0.38751428874218263,-0.2040080993740318,-0.9616231531573161,-0.09537187688622141
11057,7.0,299.50538,2772.9225,0.0,0.0,0.0,0.0,-0.11020301356830682,0.0,-0.1868195779901568,-0.26331395196706375,-0.3927656701679536,-0.18141264240903382,-0.944907353475095,-0.10508895041147191
11058,7.0,299.00551,2802.5903,0.0,0.0,0.0,0.0,-0.11021298037789065,0.0,-0.23322572329508676,-0.2460981842879998,-0.37259356293712165,-0.18112622700326683,-0.9517264455880872,-0.10587421923897192
11059,7.0,299.62446,2960.5589,0.0,0.0,0.0,0.0,-0.11022294718747445,0.0,-0.28850595350582076,-0.25099532334630975,-0.36043471372463665,-0.1994524965269288,-0.9464221319770921,-0.09703790525714559
11060,7.0,300.37483,3142.7995,0.0,0.0,0.0,0.0,-0.11023291399705828,0.0,-0.3206700073926657,-0.2705517494188788,-0.3641108154849397,-0.23007877113450675,-0.950883441769889,-0.07637731217960383
11061,7.0,300.20563,3020.1879,0.0,0.0,0.0,0.0,-0.11024288080664212,0.0,-0.27629119315281775,-0.26129102853991676,-0.38047948581540164,-0.25171559217989475,-0.9447025654973841,-0.08195700386302653
11062,7.0,299.98352,2782.8036,0.0,0.0,0.0,0.0,-0.11025284761622592,0.0,-0.2313224748372508,-0.23048379759697976,-0.38409652522737564,-0.24785134000852277,-0.9434559740318552,-0.07383912574535434
11063,7.0,300.06529,2965.2641,0.0,0.0,0.0,0.0,-0.11026281442580975,0.0,-0.2309375613892628,-0.26134746657048674,-0.40908123606067465,-0.25983797723401175,-0.9354040301246901,-0.11985441590370989
11064,7.0,300.14272,3265.8851,0.0,0.0,0.0,0.0,-0.11027278123539357,0.0,-0.3211265576227237,-0.25414000582666574,-0.4174809577996626,-0.22643375588727177,-0.9196281313677301,-0.06983907475583004
11065,7.0,300.47907999999995,3063.4457,0.0,0.0,0.0,0.0,-0.1102827480449774,0.0,-0.3181006685840917,-0.25550422549630375,-0.35760612474547665,-0.2196836762385908,-0.9302345598370031,-0.1122923074923879
11066,7.0,300.67481000000004,2761.3319,0.0,0.0,0.0,0.0,-0.11029271485456121,0.0,-0.28356222520791274,-0.2161845386082528,-0.33962920359129267,-0.17265609451482983,-0.9294626557783221,-0.08610004166691251
11067,7.0,300.52182999999997,2674.1956,0.0,0.0,0.0,0.0,-0.11030268166414503,0.0,-0.23832480309832677,-0.20080724230813182,-0.37375665246190964,-0.19146320187344681,-0.953277498443664,-0.10864825483274788
11068,7.0,300.88805,2929.855,0.0,0.0,0.0,0.0,-0.11031264847372886,0.0,-0.2302161475830648,-0.23276820034493279,-0.42761841359265157,-0.2169379913826128,-0.9599961876042472,-0.04693896793626546
11069,7.0,300.05669,3043.6955,0.0,0.0,0.0,0.0,-0.11032261528331266,0.0,-0.24296038177582277,-0.2568778886568737,-0.42536916049066753,-0.24184144969039276,-0.970941365846952,-0.09857627931422132
11070,7.0,300.00091000000003,3054.3435,0.0,0.0,0.0,0.0,-0.1103325820928965,0.0,-0.2945888586261567,-0.24501393575349276,-0.3888413525306536,-0.25999313622182474,-0.9560996634171901,-0.06612934018495774
11071,7.0,300.26355,2974.3177,0.0,0.0,0.0,0.0,-0.11034254890248033,0.0,-0.3297469652334917,-0.25543132215160874,-0.3189400145694287,-0.2277214447768568,-0.9191561088086452,-0.11874859527457389
11072,7.0,299.96316,3082.4075,0.0,0.0,0.0,0.0,-0.11035251571206413,0.0,-0.2984443056541597,-0.2527409911485937,-0.38578960534946966,-0.2192042062912708,-0.9259670949208372,-0.05436371915078135
11073,7.0,299.81665,3154.5995,0.0,0.0,0.0,0.0,-0.11036248252164796,0.0,-0.29361630065017275,-0.26372555442268575,-0.4015776124451246,-0.2017666280328158,-0.9218680727012951,-0.1133932341235409
11074,7.0,299.96775,3127.9162,0.0,0.0,0.0,0.0,-0.11037244933123178,0.0,-0.24168493294744578,-0.2512260099965768,-0.45789746765596157,-0.2151301708191948,-0.9381847835666292,-0.06349764292547944
11075,7.0,299.97872,2717.2922,0.0,0.0,0.0,0.0,-0.1103824161408156,0.0,-0.2086919999487968,-0.23255312787870677,-0.3847438299212596,-0.17269450682612084,-0.9397444794455592,-0.11791339348214588
11076,7.0,298.80236,2659.7678,0.0,0.0,0.0,0.0,-0.11039238295039942,0.0,-0.24341973870865777,-0.20815641621093878,-0.35692685201093766,-0.2213759660256068,-0.945066454005797,-0.06647526883534824
11077,7.0,298.74895,3005.6129,0.0,0.0,0.0,0.0,-0.11040234975998324,0.0,-0.3072330951665457,-0.23892074614464176,-0.36747742000219763,-0.2192509880483878,-0.9533331866691601,-0.1084312166613279
11078,7.0,299.06417999999996,3132.1917,0.0,0.0,0.0,0.0,-0.11041231656956707,0.0,-0.2828186110920237,-0.26545191981056476,-0.4038375249381606,-0.2396901981380808,-0.951801365300481,-0.05210081554345015
11079,7.0,300.14318,2770.2358,0.0,0.0,0.0,0.0,-0.11042228337915087,0.0,-0.21930300830852179,-0.23635671676659178,-0.3864227954694606,-0.2057602519769558,-0.9455186573929261,-0.1009613727776117
11080,7.0,300.16607,2699.9996,0.0,0.0,0.0,0.0,-0.1104322501887347,0.0,-0.1855684471641798,-0.2062409175593938,-0.4289230845539126,-0.19281162497402582,-0.9167774231388872,-0.03680152024927726
11081,7.0,299.00099,2921.5454,0.0,0.0,0.0,0.0,-0.11044221699831853,0.0,-0.24844609755222075,-0.24367518919136877,-0.3959555537352706,-0.2066605550883088,-0.9192694610973321,-0.10637754109364592
11082,7.0,299.76371,3217.8277,0.0,0.0,0.0,0.0,-0.11045218380790234,0.0,-0.3524583886724347,-0.22553037249561478,-0.4001504902092786,-0.2126344750278888,-0.9198403869986781,-0.05338267621845995
11083,7.0,298.85186,3151.6601,0.0,0.0,0.0,0.0,-0.11046215061748617,0.0,-0.3375065560893037,-0.25975475900329875,-0.3607646684872007,-0.2148796447319698,-0.9144674763559131,-0.11784138179753888
11084,7.0,299.05931,2775.0317,0.0,0.0,0.0,0.0,-0.11047211742706999,0.0,-0.2588164590131957,-0.2170187170180798,-0.3677051682271747,-0.2365518788683528,-0.9221212737687842,-0.07095280582849674
11085,7.0,298.80607000000003,2790.7548,0.0,0.0,0.0,0.0,-0.11048208423665382,0.0,-0.22659758829594076,-0.23140898613078878,-0.39031318949341265,-0.21673641540771882,-0.9439584548889461,-0.0866729190879511
11086,7.0,299.43402000000003,3142.0888,0.0,0.0,0.0,0.0,-0.11049205104623763,0.0,-0.2367539310707938,-0.2527035110273948,-0.4656591154094765,-0.21703907321258878,-0.9532419029676511,-0.08709683455878832
11087,7.0,300.09376000000003,3209.7142,0.0,0.0,0.0,0.0,-0.11050201785582145,0.0,-0.2915853725472357,-0.2517509951383888,-0.4323365924182996,-0.20545853649467882,-0.957003968866438,-0.05440072608418365
11088,7.0,301.00292,2813.3137,0.0,0.0,0.0,0.0,-0.11051198466540528,0.0,-0.28205469144413076,-0.2280019124045368,-0.34512052264074367,-0.18604854532656181,-0.938117351772474,-0.07960674188507372
11089,7.0,299.82664,2629.2457,0.0,0.0,0.0,0.0,-0.11052195147498908,0.0,-0.2601741330871878,-0.2361220683084338,-0.30292883913924873,-0.1929210559848258,-0.9451254555591201,-0.09788969598021081
11090,7.0,299.73745,3069.3496,0.0,0.0,0.0,0.0,-0.11053191828457291,0.0,-0.2862931774074367,-0.2538356862916318,-0.39287677304141866,-0.1795017135154398,-0.9470384312179161,-0.0979077895872465
11091,7.0,299.99917,3298.5743,0.0,0.0,0.0,0.0,-0.11054188509415674,0.0,-0.2915996289761427,-0.28606256168467675,-0.42502203113890863,-0.2214690938422978,-0.9254223210045721,-0.0965943337476185
11092,7.0,298.74122,2969.7055,0.0,0.0,0.0,0.0,-0.11055185190374055,0.0,-0.2065659276614698,-0.25593171571349377,-0.44021869534370256,-0.2114810113790508,-0.9322662478775151,-0.08826973437104452
11093,7.0,299.21196000000003,2603.0584,0.0,0.0,0.0,0.0,-0.11056181871332438,0.0,-0.2263384901128698,-0.21911095688456778,-0.3458153183668147,-0.24522803549962277,-0.9704684718927812,-0.09143888886781572
11094,7.0,298.72478,2721.1088,0.0,0.0,0.0,0.0,-0.1105717855229082,0.0,-0.26452467437905275,-0.23508134899822275,-0.3275431057359877,-0.23557574411951576,-0.9749795525304901,-0.09066150109959352
11095,7.0,300.28471,3215.1434,0.0,0.0,0.0,0.0,-0.11058175233249203,0.0,-0.3253173093738187,-0.25394603936002275,-0.3980599526029586,-0.2271348438964638,-0.9618770533673741,-0.11628507017394288
11096,7.0,300.38059,3258.8457,0.0,0.0,0.0,0.0,-0.11059171914207584,0.0,-0.29455887655569774,-0.2787471492752017,-0.4173016935919706,-0.1879823331424118,-0.9081524356376671,-0.08303148770631982
11097,7.0,301.09192,2933.2223,0.0,0.0,0.0,0.0,-0.11060168595165966,0.0,-0.2274731275748498,-0.26725695393620774,-0.3968962551281106,-0.1936541626971778,-0.9111900986424611,-0.1028198882700329
11098,7.0,300.32342,2729.171,0.0,0.0,0.0,0.0,-0.11061165276124349,0.0,-0.2012036054822498,-0.22490298829869682,-0.40349325295168365,-0.20078245821068583,-0.939175113949367,-0.05284432833432915
11099,7.0,301.36928,3080.3348,0.0,0.0,0.0,0.0,-0.11062161957082729,0.0,-0.3189927745021357,-0.25313409165738976,-0.36421800721301867,-0.2353574799154748,-0.9313606049381351,-0.055933545504211146
11100,7.0,300.1172,3256.0212,0.0,0.0,0.0,0.0,-0.11063158638041111,0.0,-0.33184954025099966,-0.25484630194137176,-0.4030532997582636,-0.2104704767893188,-0.9465822254928922,-0.04131659106588006
11101,7.0,300.94091000000003,3151.3482,0.0,0.0,0.0,0.0,-0.11064155318999495,0.0,-0.3229525660254367,-0.26922195998763876,-0.36575663762236965,-0.24703428552538576,-0.9793316542275091,-0.07455579146158373
11102,7.0,300.77112999999997,2870.485,0.0,0.0,0.0,0.0,-0.11065151999957876,0.0,-0.22607378865674577,-0.26852875506422474,-0.37795320000357663,-0.24593559817695376,-0.965124844177906,-0.0978669657407175
11103,7.0,299.87936,2939.5218,0.0,0.0,0.0,0.0,-0.11066148680916259,0.0,-0.2430071331354368,-0.24085293302533375,-0.40968117131238363,-0.2128600447651508,-0.9472843875471901,-0.0892890578921439
11104,7.0,298.81261,3207.6034,0.0,0.0,0.0,0.0,-0.1106714536187464,0.0,-0.2464868568938588,-0.28961783337055474,-0.4389266393461866,-0.19505143458507782,-0.9179593895130382,-0.1053024726050449
11105,7.0,299.50862,2951.4404,0.0,0.0,0.0,0.0,-0.11068142042833023,0.0,-0.3050635544499287,-0.2146341241002388,-0.3774664954505426,-0.2075804037940908,-0.942607468265614,-0.07072354482112043
11106,7.0,299.77943999999997,2689.9387,0.0,0.0,0.0,0.0,-0.11069138723791405,0.0,-0.24330801775263175,-0.22506680044236377,-0.34929937883566464,-0.2015215025686238,-0.958744124588178,-0.11695488928504888
11107,7.0,299.52377,2533.9911,0.0,0.0,0.0,0.0,-0.11070135404749787,0.0,-0.2487232113220698,-0.1987888278439298,-0.3227579713437317,-0.23507235133733476,-0.9470328482098651,-0.10219173400303891
11108,7.0,299.76286,2679.6934,0.0,0.0,0.0,0.0,-0.1107113208570817,0.0,-0.2124015693599028,-0.2337012922295218,-0.36845699980137464,-0.22755234346766778,-0.9229553103235971,-0.11617281219536388
11109,7.0,299.9276,2991.4631,0.0,0.0,0.0,0.0,-0.1107212876666655,0.0,-0.22182725748764578,-0.27130345940306677,-0.41619936867567964,-0.23583459912256277,-0.9463534133553101,-0.0959389797949401
11110,7.0,300.62852000000004,3095.5701,0.0,0.0,0.0,0.0,-0.11073125447624933,0.0,-0.24951355653257073,-0.27900258962541175,-0.4124598475916176,-0.23606235748004079,-0.9602616996604512,-0.09183183536259651
11111,7.0,301.16802,2959.4728,0.0,0.0,0.0,0.0,-0.11074122128583316,0.0,-0.3220541475592697,-0.23602998413934578,-0.3415216913330667,-0.19452389605301382,-0.9485162260912631,-0.05994199532381435
11112,7.0,300.67671,3015.4034,0.0,0.0,0.0,0.0,-0.11075118809541697,0.0,-0.2981210079447527,-0.25317438861386676,-0.3653119322859807,-0.18936586535895583,-0.9510616724624791,-0.08138198139152622
11113,7.0,300.4663,3379.0093,0.0,0.0,0.0,0.0,-0.1107611549050008,0.0,-0.3345580996233137,-0.26777325552466275,-0.42480308805730055,-0.16308227935496783,-0.9438395905197152,-0.08347765921560352
11114,7.0,299.82645,3201.9258,0.0,0.0,0.0,0.0,-0.11077112171458461,0.0,-0.2536884103895967,-0.25807648246516574,-0.4615405982580105,-0.2179718509896468,-0.9643427366907181,-0.11519773122663089
11115,7.0,300.21452,2879.1282,0.0,0.0,0.0,0.0,-0.11078108852416844,0.0,-0.1973894382633208,-0.24502487885457278,-0.4327687638509516,-0.2049126581358048,-0.9126082536149221,-0.090710081375638
11116,7.0,300.85552,2659.5132,0.0,0.0,0.0,0.0,-0.11079105533375226,0.0,-0.22602107938654378,-0.19781007890983482,-0.38459444645901664,-0.25897171932601876,-0.9224537211265941,-0.06841068798385924
11117,7.0,299.15474,2790.3791,0.0,0.0,0.0,0.0,-0.11080102214333608,0.0,-0.2772377511312357,-0.2054574624495728,-0.36551034692056267,-0.24403898650727276,-0.921568353321715,-0.03373971453435057
11118,7.0,299.45228,3262.0995,0.0,0.0,0.0,0.0,-0.11081098895291991,0.0,-0.3227283337783067,-0.2741898644329327,-0.39467857489924263,-0.25007902101587776,-0.939831041401602,-0.07863585374525452
11119,7.0,299.64917,3301.6893,0.0,0.0,0.0,0.0,-0.11082095576250371,0.0,-0.3305480711600547,-0.25802796805037775,-0.41505506480774557,-0.18411706772093983,-0.9409026648398631,-0.059355594053691035
11120,7.0,299.26333999999997,2911.3964,0.0,0.0,0.0,0.0,-0.11083092257208754,0.0,-0.2244841005748558,-0.26906343700949376,-0.39144425018253964,-0.20353099029944483,-0.9321787233338772,-0.12958633860917587
11121,7.0,299.6871,2922.0291,0.0,0.0,0.0,0.0,-0.11084088938167137,0.0,-0.2233396447194068,-0.25415474861562076,-0.4107294798658436,-0.1833946406646418,-0.9560823064429771,-0.10091422827695891
11122,7.0,300.31687999999997,3084.8434,0.0,0.0,0.0,0.0,-0.11085085619125518,0.0,-0.28191415365526074,-0.26690632887160376,-0.38889489266593763,-0.18695097626312482,-0.9494798066713612,-0.12171238221457688
11123,7.0,298.71053,2923.9315,0.0,0.0,0.0,0.0,-0.110860823000839,0.0,-0.30025049488491673,-0.2242939641935908,-0.36425772661693867,-0.20990907543891277,-0.914025719577315,-0.08509813591503211
11124,7.0,299.76277999999996,2720.3562,0.0,0.0,0.0,0.0,-0.11087078981042282,0.0,-0.24494530832421976,-0.24841487931663975,-0.3335601698648257,-0.20942814641144877,-0.9168466787832221,-0.1059302114394979
11125,7.0,299.96833,2626.2888,0.0,0.0,0.0,0.0,-0.11088075662000665,0.0,-0.2203665764084878,-0.21120999737480378,-0.36674965311787266,-0.25164155399508775,-0.9594973949775201,-0.07954348468133071
11126,7.0,299.92843999999997,2951.0679,0.0,0.0,0.0,0.0,-0.11089072342959047,0.0,-0.1866010402085888,-0.2642688895238088,-0.4461810237021385,-0.24120591896267077,-0.9655035768002841,-0.1087168923945219
11127,7.0,300.37348,3280.1832,0.0,0.0,0.0,0.0,-0.11090069023917429,0.0,-0.26960014545496275,-0.27472977474871774,-0.4527638461568126,-0.2264533420117048,-0.9541670003089512,-0.07818253071676502
11128,7.0,300.85864,3229.9924,0.0,0.0,0.0,0.0,-0.11091065704875812,0.0,-0.3068260523363737,-0.2652935386874337,-0.40971745579846464,-0.2014535641494188,-0.9229335558439501,-0.06815844038471434
11129,7.0,300.49209,3238.4481,0.0,0.0,0.0,0.0,-0.11092062385834192,0.0,-0.3382375755064497,-0.27739629437438273,-0.36877347833760865,-0.22410937029037278,-0.942577871230193,-0.05976468060931474
11130,7.0,300.12512000000004,3031.7613,0.0,0.0,0.0,0.0,-0.11093059066792575,0.0,-0.3035789910659137,-0.25414775718993077,-0.36385297373199266,-0.21480521137962377,-0.9537421648070231,-0.08559631957844901
11131,7.0,300.20191,3130.3168,0.0,0.0,0.0,0.0,-0.11094055747750958,0.0,-0.30109348857061374,-0.26813757973061875,-0.38230706475576964,-0.2199607494784358,-0.9255645002586042,-0.08323014349442563
11132,7.0,300.86177999999995,3066.6896,0.0,0.0,0.0,0.0,-0.11095052428709339,0.0,-0.2199421968691048,-0.2566522175946018,-0.45560264869698053,-0.1937766747667688,-0.9376675801855852,-0.1127966324646609
11133,7.0,300.09078,2604.1522,0.0,0.0,0.0,0.0,-0.11096049109667722,0.0,-0.2044746402500758,-0.2065855036534018,-0.38053710934858864,-0.2335506219396518,-0.9836370349624171,-0.0974418141047583
11134,7.0,299.48126,2517.3156,0.0,0.0,0.0,0.0,-0.11097045790626103,0.0,-0.23180897674026477,-0.1879386114005968,-0.34545350702110666,-0.19562978760965682,-0.9824125222165672,-0.09968140181403841
11135,7.0,299.25979,2904.5898,0.0,0.0,0.0,0.0,-0.11098042471584486,0.0,-0.3148231287506237,-0.20521743363338382,-0.3628821889436836,-0.2002992493704968,-0.939773316543405,-0.06108493029086324
11136,7.0,298.93118,3245.085,0.0,0.0,0.0,0.0,-0.11099039152542868,0.0,-0.3110718843629047,-0.2946427533989757,-0.38071018259816963,-0.17572157123486884,-0.9201534306170731,-0.07953076737932561
11137,7.0,299.66955,3204.7008,0.0,0.0,0.0,0.0,-0.1110003583350125,0.0,-0.2768903988644547,-0.27309899937527277,-0.4241596337137966,-0.2273713263373028,-0.958530592262104,-0.08134082925196483
11138,7.0,300.39687999999995,3068.933,0.0,0.0,0.0,0.0,-0.11101032514459633,0.0,-0.20453332769586782,-0.3131194804299867,-0.4152261926171346,-0.23276233362685375,-0.9680368540377992,-0.12072123109925788
11139,7.0,300.52659,2830.0176,0.0,0.0,0.0,0.0,-0.11102029195418013,0.0,-0.22705909331898777,-0.26729874037033174,-0.3658968309062057,-0.2212656737522218,-0.953001306731406,-0.1016716327267089
11140,7.0,301.0016,2971.2853,0.0,0.0,0.0,0.0,-0.11103025876376396,0.0,-0.2770467433548847,-0.27092771586848374,-0.35522206885018864,-0.21049689221942577,-0.9205312310493591,-0.1098134721827459
11141,7.0,301.35542000000004,3013.7072,0.0,0.0,0.0,0.0,-0.11104022557334779,0.0,-0.32658604035403266,-0.24955349885151276,-0.3399522074581707,-0.21804931395979182,-0.9427237893770942,-0.07301773556503943
11142,7.0,300.92938,2634.2933,0.0,0.0,0.0,0.0,-0.11105019238293161,0.0,-0.25542195972068477,-0.2068767826596488,-0.3384606323834637,-0.24171435773034974,-0.9587083568596482,-0.08875956277413682
11143,7.0,300.08891,2525.8579999999997,0.0,0.0,0.0,0.0,-0.11106015919251543,0.0,-0.2062019986230528,-0.19151407716096783,-0.3700816855417186,-0.1992678823587088,-0.9101562390354271,-0.08498095455421723
11144,7.0,299.24826,2982.4663,0.0,0.0,0.0,0.0,-0.11107012600209924,0.0,-0.2007223927447578,-0.24597369638071376,-0.4598991938910166,-0.19088271089115683,-0.9177029764427322,-0.11896602861353289
11145,7.0,299.50712999999996,3390.9756,0.0,0.0,0.0,0.0,-0.11108009281168307,0.0,-0.29776888327000073,-0.27104650931020774,-0.4619565070265576,-0.18539805902736384,-0.9517525165131601,-0.07302086650784843
11146,7.0,298.93426,3220.5737,0.0,0.0,0.0,0.0,-0.11109005962126688,0.0,-0.3200979466512077,-0.24873547164827975,-0.41014054851022064,-0.22910654753105578,-0.9874171367129841,-0.1008709179146845
11147,7.0,299.19407,2990.9906,0.0,0.0,0.0,0.0,-0.1111000264308507,0.0,-0.31553317389069974,-0.23934254189626977,-0.35431074157774767,-0.2011934831137508,-0.9474170827802861,-0.05426967231624965
11148,7.0,299.81832,2773.4475,0.0,0.0,0.0,0.0,-0.11110999324043454,0.0,-0.28202237889844173,-0.23895001894003076,-0.3220863891774517,-0.24704440789388477,-0.9260029133118721,-0.07945943051928522
11149,7.0,300.3954,3001.7259999999997,0.0,0.0,0.0,0.0,-0.11111996005001834,0.0,-0.23035315926158678,-0.25808502416350876,-0.4240115573441826,-0.2332091769209538,-0.931914639960314,-0.05665147069031485
11150,7.0,299.98467999999997,3084.7606,0.0,0.0,0.0,0.0,-0.11112992685960217,0.0,-0.23215215441663378,-0.25874520726616373,-0.4467928241125186,-0.24632565893544978,-0.9534966644402941,-0.09635072815857651
11151,7.0,300.05161,2912.0749,0.0,0.0,0.0,0.0,-0.11113989366918599,0.0,-0.23583210652731676,-0.24617267843535173,-0.4031932701270776,-0.19845665406364682,-0.9041365911188342,-0.06427678462962474
11152,7.0,299.57549,2802.1045,0.0,0.0,0.0,0.0,-0.11114986047876982,0.0,-0.26492597208115776,-0.23805267451896978,-0.34879116298300766,-0.2023659452019638,-0.9231546064857661,-0.1112549521725089
11153,7.0,300.98865,3133.7155,0.0,0.0,0.0,0.0,-0.11115982728835362,0.0,-0.33703774553303567,-0.23601951726581274,-0.37951399019261467,-0.17708989456741184,-0.95570652237839,-0.08032552022776163
11154,7.0,300.8708,3307.8720000000003,0.0,0.0,0.0,0.0,-0.11116979409793745,0.0,-0.32723722579579967,-0.2709475147754377,-0.4073257599974226,-0.22789867235184777,-0.9531100791296411,-0.08188436700310783
11155,7.0,301.59539,3168.3288,0.0,0.0,0.0,0.0,-0.11117976090752126,0.0,-0.2560059160183168,-0.24246390949182475,-0.4646230266522226,-0.20210664436887282,-0.9208769519834791,-0.09002713358298632
11156,7.0,300.34424,2878.6316,0.0,0.0,0.0,0.0,-0.11118972771710509,0.0,-0.18367686121499482,-0.2742933476656458,-0.41706191808830667,-0.2159205261621968,-0.9098882850464822,-0.11505977722551589
11157,7.0,299.37096,2814.6725,0.0,0.0,0.0,0.0,-0.1111996945266889,0.0,-0.2310790718982288,-0.2434040738621118,-0.3811070219998346,-0.22212446400697777,-0.9445643480512431,-0.0982974187011999
11158,7.0,299.78276,3024.4142,0.0,0.0,0.0,0.0,-0.11120966133627273,0.0,-0.27638276056435473,-0.26093487112976677,-0.3820287857483056,-0.22469642713331078,-0.9854171228705981,-0.1052586292732179
11159,7.0,300.13896,3092.2931,0.0,0.0,0.0,0.0,-0.11121962814585655,0.0,-0.34868905777043063,-0.24583611728213578,-0.3454546925237237,-0.1990186734966138,-0.9546431974584481,-0.07216122714950864
11160,7.0,298.79792000000003,2792.5711,0.0,0.0,0.0,0.0,-0.11122959495544037,0.0,-0.26105648140676874,-0.23854305716986676,-0.34927233519049566,-0.2072706735035228,-0.9388610976108761,-0.0854343474969636
11161,7.0,299.22586,2735.3115,0.0,0.0,0.0,0.0,-0.1112395617650242,0.0,-0.2062278466331038,-0.24550758106971177,-0.37973098783403064,-0.2205880323503438,-0.941220278216209,-0.08343095446549412
11162,7.0,299.65835,2934.4023,0.0,0.0,0.0,0.0,-0.111249528574608,0.0,-0.2181443466866708,-0.24845863145595776,-0.42538204903193966,-0.23041680150036778,-0.9216228357795921,-0.0933657805034851
11163,7.0,300.13608,3377.11,0.0,0.0,0.0,0.0,-0.11125949538419183,0.0,-0.30925432646602574,-0.2914242049863297,-0.4258785922434446,-0.22453154094453776,-0.9071848121896702,-0.07371241780709922
11164,7.0,300.95226,3183.9423,0.0,0.0,0.0,0.0,-0.11126946219377565,0.0,-0.3180609795776747,-0.26371618185926077,-0.3860618048563336,-0.2066941240641218,-0.9219633283431962,-0.08293106144915852
11165,7.0,300.46274,2675.5002,0.0,0.0,0.0,0.0,-0.11127942900335946,0.0,-0.28460664288098875,-0.1942740285783538,-0.3344045719681617,-0.23826595353251878,-0.9703408226451832,-0.07259355360942593
11166,7.0,299.9317,2817.0115,0.0,0.0,0.0,0.0,-0.1112893958129433,0.0,-0.24788857694969774,-0.2220648747685968,-0.38634771363705067,-0.2018558143066178,-0.98021197604689,-0.07626603502712163
11167,7.0,299.96402,3179.0061,0.0,0.0,0.0,0.0,-0.11129936262252711,0.0,-0.27314740233254975,-0.24582847737638175,-0.4473625949087506,-0.2251237856279878,-0.9344613731591572,-0.08936095609273972
11168,7.0,299.18504,3192.9828,0.0,0.0,0.0,0.0,-0.11130932943211094,0.0,-0.24399483920041576,-0.26650001558150377,-0.4600921977700646,-0.2005469484899428,-0.9266731579880202,-0.094718478506236
11169,7.0,298.53833,2906.1721,0.0,0.0,0.0,0.0,-0.11131929624169475,0.0,-0.25102950027218274,-0.2748650639020698,-0.3575091871084097,-0.25893850498774074,-0.9449656862833522,-0.11946939099821087
11170,7.0,298.92936000000003,2725.3857,0.0,0.0,0.0,0.0,-0.11132926305127858,0.0,-0.23101142732155278,-0.25646267903089576,-0.3409750935666217,-0.2359199857084898,-0.9756361081977871,-0.07095373092583802
11171,7.0,299.69426,2854.4926,0.0,0.0,0.0,0.0,-0.11133922986086241,0.0,-0.30903687286206466,-0.24585473068647276,-0.3128028803037407,-0.21308420608477383,-0.975183560305624,-0.0918367303738296
11172,7.0,299.49742000000003,3122.1769,0.0,0.0,0.0,0.0,-0.11134919667044621,0.0,-0.25311019922003175,-0.2799096815124347,-0.4160439462428406,-0.1938740278363768,-0.9635946338768862,-0.07905697264581572
11173,7.0,299.43006,3014.8403,0.0,0.0,0.0,0.0,-0.11135916348003004,0.0,-0.2645706455360897,-0.25798306080594574,-0.39388245416317164,-0.2176556966934448,-0.982861381878366,-0.09012432149282801
11174,7.0,299.77509,2802.1182,0.0,0.0,0.0,0.0,-0.11136913028961386,0.0,-0.19862499543526083,-0.23373930937327378,-0.4194096489675096,-0.20853085265289278,-0.9768696591345292,-0.0897258011092471
11175,7.0,300.17237,2943.5705,0.0,0.0,0.0,0.0,-0.11137909709919767,0.0,-0.28056467677457775,-0.22741569655918178,-0.38679155771085466,-0.2158440460446488,-0.9197974049294361,-0.11432574845557289
11176,7.0,299.98232,3318.1606,0.0,0.0,0.0,0.0,-0.1113890639087815,0.0,-0.35022599605211463,-0.25107247220892376,-0.40733948953627763,-0.1902281817240598,-0.9118331476859252,-0.1020793645669489
11177,7.0,299.97386,3151.7687,0.0,0.0,0.0,0.0,-0.11139903071836532,0.0,-0.3383666129066847,-0.23724036204630075,-0.38245201018257463,-0.2249583421516598,-0.9439738562904662,-0.08130852481227663
11178,7.0,299.94908,2738.7188,0.0,0.0,0.0,0.0,-0.11140899752794915,0.0,-0.2020906451497938,-0.24306954934159677,-0.38734194503267366,-0.22959906813966377,-0.9876732356757589,-0.09198847166905531
11179,7.0,300.57174,2870.6026,0.0,0.0,0.0,0.0,-0.11141896433753296,0.0,-0.21545686291643681,-0.25179470674770277,-0.4053399519214386,-0.20794708887277977,-0.9560550702802891,-0.07128460369299264
11180,7.0,300.48395,3235.9502,0.0,0.0,0.0,0.0,-0.11142893114711679,0.0,-0.2687914401526497,-0.2816648029381517,-0.4331918059002026,-0.23141057693344577,-0.9299096206624342,-0.0940909382688026
11181,7.0,300.16542000000004,3219.3526,0.0,0.0,0.0,0.0,-0.11143889795670062,0.0,-0.30116005910218374,-0.2913985089637937,-0.3860442452321006,-0.21459176011355777,-0.947124435886404,-0.08466299768608733
11182,7.0,300.53334,2845.0219,0.0,0.0,0.0,0.0,-0.11144886476628442,0.0,-0.27874122176211674,-0.2217256892976218,-0.36434871647591865,-0.23103810619668577,-0.9575497155027991,-0.07132242730597553
11183,7.0,300.51251,2720.8639,0.0,0.0,0.0,0.0,-0.11145883157586825,0.0,-0.25436916246928176,-0.2133219246907348,-0.3593836187334017,-0.1972264772497378,-0.9009268883795611,-0.07361554299153843
11184,7.0,299.77022999999997,2908.9078,0.0,0.0,0.0,0.0,-0.11146879838545207,0.0,-0.24496266529843277,-0.22002362164714082,-0.4192490285616576,-0.2000108277295318,-0.9266860667942941,-0.06951584392092965
11185,7.0,299.5897,3115.6216,0.0,0.0,0.0,0.0,-0.1114787651950359,0.0,-0.26080602624705074,-0.23389584638122277,-0.45236930683287463,-0.19214394382063082,-0.9487310756424672,-0.08454522256071383
11186,7.0,299.52087,2912.2254,0.0,0.0,0.0,0.0,-0.11148873200461971,0.0,-0.23935242108474475,-0.23313732735636278,-0.4127540548906536,-0.2374418873586898,-0.979289391565838,-0.09045021616224132
11187,7.0,300.35884,2710.8918,0.0,0.0,0.0,0.0,-0.11149869881420353,0.0,-0.24478725144112076,-0.22590491026257878,-0.35335124439555265,-0.20028361492145383,-0.968074445616509,-0.12794190462438287
11188,7.0,300.57512,2885.0639,0.0,0.0,0.0,0.0,-0.11150866562378736,0.0,-0.2843904558396527,-0.2531034915043697,-0.3394934280778927,-0.2245206687709648,-0.931931966537024,-0.1217120478420439
11189,7.0,299.50695,3257.9977,0.0,0.0,0.0,0.0,-0.11151863243337116,0.0,-0.2964561265729417,-0.30473448121495167,-0.38915935094203763,-0.2024111868189288,-0.9407650857412851,-0.10705235552774489
11190,7.0,299.64315,3114.3891,0.0,0.0,0.0,0.0,-0.111528599242955,0.0,-0.25590466193582373,-0.2726020002012227,-0.4181898579671256,-0.2123443004642508,-0.9633299324207621,-0.08844245804934102
11191,7.0,301.64211,2857.9247,0.0,0.0,0.0,0.0,-0.11153856605253883,0.0,-0.21238511417827882,-0.26803820016081076,-0.38831443208115063,-0.20054181131193582,-0.942182784751201,-0.06972282963810753
11192,7.0,300.77387999999996,2870.7025,0.0,0.0,0.0,0.0,-0.11154853286212263,0.0,-0.24210989003938577,-0.23581509405813778,-0.39469689446105066,-0.21284367064353482,-0.9306844834114071,-0.08141753633753522
11193,7.0,300.88998,3058.3359,0.0,0.0,0.0,0.0,-0.11155849967170646,0.0,-0.3216454328664327,-0.2315531716200188,-0.3764591525986256,-0.2281740838615288,-0.9243099851772931,-0.061435420593203935
11194,7.0,300.70246000000003,3064.8807,0.0,0.0,0.0,0.0,-0.11156846648129028,0.0,-0.2888773096674707,-0.25756481142966775,-0.38520509176428264,-0.2361923676003718,-0.9355103403251821,-0.09037360533543042
11195,7.0,300.95468,3014.0966,0.0,0.0,0.0,0.0,-0.11157843329087411,0.0,-0.27333805547136575,-0.25343007214410074,-0.38944199705743265,-0.2048903767661058,-0.928125084586314,-0.08714519394631101
11196,7.0,300.56104,3140.0342,0.0,0.0,0.0,0.0,-0.11158840010045792,0.0,-0.25205464592835675,-0.2629909177026828,-0.43944641638248455,-0.19833859016199482,-0.9175655594641702,-0.10954710899645789
11197,7.0,300.0818,3115.2002,0.0,0.0,0.0,0.0,-0.11159836691004174,0.0,-0.3061724046968637,-0.24497199733185376,-0.3957986722222876,-0.2004157731319968,-0.9544692426812801,-0.1032863784835719
11198,7.0,300.06756,3011.9852,0.0,0.0,0.0,0.0,-0.11160833371962557,0.0,-0.2525229093295708,-0.24865375302771475,-0.4143916190397686,-0.23177479981439175,-0.9892940102707171,-0.08879825879545582
11199,7.0,299.92499,3092.7845,0.0,0.0,0.0,0.0,-0.11161830052920937,0.0,-0.3155600452833517,-0.2614888149594367,-0.3630804110607467,-0.2206518468416418,-0.970937039269025,-0.1036105475880649
11200,7.0,299.8992,3167.0041,0.0,0.0,0.0,0.0,-0.1116282673387932,0.0,-0.2946502210522127,-0.26237000817390377,-0.4056699472140066,-0.2072758410790328,-0.9427639242135551,-0.056480826201223536
11201,7.0,299.52392000000003,2894.3387,0.0,0.0,0.0,0.0,-0.11163823414837704,0.0,-0.2655157748318668,-0.23051880538793482,-0.3837720926778566,-0.23549170515622175,-0.9373697961136961,-0.07926022453637513
11202,7.0,300.19515,2796.6428,0.0,0.0,0.0,0.0,-0.11164820095796084,0.0,-0.2142582488431428,-0.22484952922342077,-0.41100179083021865,-0.2328237163179118,-0.946173399342544,-0.025027256191747876
11203,7.0,300.62346,2948.8301,0.0,0.0,0.0,0.0,-0.11165816776754467,0.0,-0.25116763665831576,-0.2337310615174598,-0.4114720199366266,-0.24266692428186076,-0.948587812210828,-0.07752157855728413
11204,7.0,300.16138,3156.2813,0.0,0.0,0.0,0.0,-0.11166813457712849,0.0,-0.2823317646839757,-0.2651828917765138,-0.4119160362629476,-0.20090515266529482,-0.9254234051821792,-0.07451440424799914
11205,7.0,299.80683,3320.2722,0.0,0.0,0.0,0.0,-0.11167810138671232,0.0,-0.3253498043045257,-0.27981077817017375,-0.4041192591284656,-0.21433470869568882,-0.9346767394679122,-0.12315221060667687
11206,7.0,300.50382,3133.7335,0.0,0.0,0.0,0.0,-0.11168806819629613,0.0,-0.2912298940146527,-0.26170111112038874,-0.3996457194069616,-0.2092545564043168,-0.9366924282893452,-0.09109617525999252
11207,7.0,300.09736000000004,2868.7365,0.0,0.0,0.0,0.0,-0.11169803500587995,0.0,-0.22781035747313177,-0.25276954453641176,-0.3914443616400506,-0.2286913784350818,-0.9686595164892511,-0.12300854187499789
11208,7.0,299.38472,3013.2999,0.0,0.0,0.0,0.0,-0.11170800181546378,0.0,-0.25255167549990976,-0.24768244134935374,-0.4157338207847336,-0.17957894343806183,-0.9575778129280721,-0.08472693579389752
11209,7.0,299.72727000000003,3017.0889,0.0,0.0,0.0,0.0,-0.11171796862504758,0.0,-0.3014414994499597,-0.22011044704820978,-0.39556774239199666,-0.21451726596620582,-0.9632383751417259,-0.08184133427136082
11210,7.0,299.04497000000003,2717.9555,0.0,0.0,0.0,0.0,-0.11172793543463141,0.0,-0.2279907362559338,-0.2284598811847348,-0.36973997707799466,-0.2231541490235998,-0.9705646698572751,-0.08217258396755263
11211,7.0,299.79526,2638.2641,0.0,0.0,0.0,0.0,-0.11173790224421525,0.0,-0.25236814550929676,-0.2297550377275568,-0.3198432358410697,-0.25583475781142473,-0.9580316577803631,-0.08557759269010082
11212,7.0,299.47794,3135.4244,0.0,0.0,0.0,0.0,-0.11174786905379905,0.0,-0.2507475431668557,-0.3085987941813297,-0.3937443988370466,-0.2075528028613668,-0.9364508593330041,-0.11317024817403389
11213,7.0,300.94268999999997,3357.4351,0.0,0.0,0.0,0.0,-0.11175783586338288,0.0,-0.29874399463623674,-0.3000090272535857,-0.42182342348823054,-0.20884024857092778,-0.9214844663459361,-0.08315843274509832
11214,7.0,301.01479,3195.2026,0.0,0.0,0.0,0.0,-0.1117678026729667,0.0,-0.26391303608868877,-0.28380622596449373,-0.4235425441378946,-0.21661926343115678,-0.8909672579791221,-0.0913370967495196
11215,7.0,300.86578,2995.6021,0.0,0.0,0.0,0.0,-0.11177776948255053,0.0,-0.27617574343642376,-0.24140459704227876,-0.39300789773685957,-0.2356296287598338,-0.9085144597658962,-0.06007810723624754
11216,7.0,299.53296,2864.9026,0.0,0.0,0.0,0.0,-0.11178773629213434,0.0,-0.26213477203068775,-0.2276886661361218,-0.3810354257477686,-0.23596098180753577,-0.9530202747732781,-0.09828890537385972
11217,7.0,300.28292999999996,2973.8633,0.0,0.0,0.0,0.0,-0.11179770310171816,0.0,-0.2868880160111427,-0.2213810322761068,-0.3957111375461486,-0.2213638982169158,-0.96794627961136,-0.07265377308936913
11218,7.0,300.2688,3025.9887,0.0,0.0,0.0,0.0,-0.11180766991130199,0.0,-0.2935523139063577,-0.2265315446544228,-0.3997411574338806,-0.2210838156242738,-0.9698270339169761,-0.08986341364507841
11219,7.0,299.82362,2836.0203,0.0,0.0,0.0,0.0,-0.1118176367208858,0.0,-0.2263761120890828,-0.2279372974456598,-0.4077659361058646,-0.2106165874537388,-0.9735259743345331,-0.06401828831711315
11220,7.0,299.31459,2584.8763,0.0,0.0,0.0,0.0,-0.11182760353046962,0.0,-0.21386788410961677,-0.2090449757536328,-0.36282498084303766,-0.2200821064429128,-0.9721051241168062,-0.0884947478340016
11221,7.0,298.95934,3085.1877,0.0,0.0,0.0,0.0,-0.11183757034005345,0.0,-0.27587558835930076,-0.2748477271928587,-0.38709669797846963,-0.17204402052692283,-0.961549702657567,-0.08292888904094413
11222,7.0,300.2695,3396.8156,0.0,0.0,0.0,0.0,-0.11184753714963726,0.0,-0.35108327656422167,-0.28357084796626375,-0.39789299938398165,-0.20990520482353078,-0.968279497039246,-0.10060197904664231
11223,7.0,301.31491,3206.3384,0.0,0.0,0.0,0.0,-0.11185750395922109,0.0,-0.27692143471501773,-0.2812736276045457,-0.4164517287455856,-0.1959140042627068,-0.9396660336228172,-0.09495244099407632
11224,7.0,301.18188,2782.1955,0.0,0.0,0.0,0.0,-0.1118674707688049,0.0,-0.2121305654881568,-0.24834513731225677,-0.3852422476454496,-0.24258966396173579,-0.9404203172622592,-0.11512829319727788
11225,7.0,300.7297,2815.5295,0.0,0.0,0.0,0.0,-0.11187743757838874,0.0,-0.2103845937108428,-0.22982963319991878,-0.41563644745012357,-0.2104305648678798,-0.9413354948850801,-0.07258074511491183
11226,7.0,300.39785,2990.5806,0.0,0.0,0.0,0.0,-0.11188740438797255,0.0,-0.24684528398423275,-0.2342709009057378,-0.4279456427124466,-0.23091110542915178,-0.9210019363833142,-0.08144698645169172
11227,7.0,299.79438999999996,3102.2554,0.0,0.0,0.0,0.0,-0.11189737119755637,0.0,-0.29787920594088874,-0.24546418356792876,-0.39966479890634465,-0.20945926332201983,-0.925002703740659,-0.06884700664917053
11228,7.0,300.30113,3044.862,0.0,0.0,0.0,0.0,-0.1119073380071402,0.0,-0.28525314710729377,-0.2656802557205997,-0.3746286149679657,-0.2276362304434468,-0.9498580022711862,-0.11899216033361189
11229,7.0,300.18097,2820.3491,0.0,0.0,0.0,0.0,-0.111917304816724,0.0,-0.26938290463352277,-0.2201828944303598,-0.36774991335159063,-0.2141060992081268,-0.978331647306316,-0.09904174209215891
11230,7.0,299.81421,3009.7392,0.0,0.0,0.0,0.0,-0.11192727162630783,0.0,-0.24788102823645278,-0.26963227561563374,-0.3973722597600886,-0.18863738919956083,-0.9862646255192401,-0.13989288557885285
11231,7.0,299.39741000000004,3303.638,0.0,0.0,0.0,0.0,-0.11193723843589166,0.0,-0.27138970725157874,-0.2669175860802147,-0.46591616682734555,-0.18834295898550282,-0.9732300039803231,-0.07484727109135052
11232,7.0,299.85677999999996,3008.0668,0.0,0.0,0.0,0.0,-0.11194720524547547,0.0,-0.26174381961210375,-0.24152781838693976,-0.4111055577729596,-0.21438547252569878,-0.9614282342355792,-0.0919909521053001
11233,7.0,299.5474,2602.8789,0.0,0.0,0.0,0.0,-0.1119571720550593,0.0,-0.24832904690066873,-0.19407783296149084,-0.34880330171920565,-0.22584845196700676,-0.960037771388351,-0.05531513870317915
11234,7.0,299.4104,2713.4559,0.0,0.0,0.0,0.0,-0.11196713886464311,0.0,-0.2949384197781557,-0.21321738767791779,-0.3166670311501027,-0.22833578844498778,-0.9450532310919921,-0.08139765231757283
11235,7.0,299.28369,3060.2169,0.0,0.0,0.0,0.0,-0.11197710567422695,0.0,-0.3014091159767637,-0.23757698399452276,-0.3912434240127196,-0.23424232725291777,-0.9268473660777131,-0.07626755490227163
11236,7.0,299.71121,3213.468,0.0,0.0,0.0,0.0,-0.11198707248381076,0.0,-0.26787757975495874,-0.25869222441843476,-0.4502442275306455,-0.22949503775189678,-0.9442527331154892,-0.07624886753067733
11237,7.0,300.20662000000004,3103.7515,0.0,0.0,0.0,0.0,-0.11199703929339458,0.0,-0.2543910486714418,-0.2553133899724698,-0.4337585166811326,-0.2332071909507578,-0.9408318183928712,-0.08759662017061332
11238,7.0,300.6504,3050.2609,0.0,0.0,0.0,0.0,-0.11200700610297841,0.0,-0.26284543525332477,-0.24291993283183078,-0.4214377703676696,-0.22854381882301877,-0.9486126875007831,-0.059717559413414244
11239,7.0,299.86032,3168.4957,0.0,0.0,0.0,0.0,-0.11201697291256221,0.0,-0.2939159187047427,-0.28118734935853074,-0.3880403175315976,-0.2067707865666878,-0.947208120212163,-0.10727461193717991
11240,7.0,299.94496000000004,3351.9745,0.0,0.0,0.0,0.0,-0.11202693972214604,0.0,-0.3438526833206177,-0.28921336419563676,-0.3858504814154776,-0.21111273549770482,-0.939493375805777,-0.07461111593029383
11241,7.0,300.2003,2994.9615,0.0,0.0,0.0,0.0,-0.11203690653172987,0.0,-0.2953392007227097,-0.24788450368429576,-0.3671698175368397,-0.20720455893449782,-0.9811608442355361,-0.1169146328585759
11242,7.0,300.56147999999996,2533.2992,0.0,0.0,0.0,0.0,-0.11204687334131368,0.0,-0.18205205388463883,-0.22727431777272877,-0.3607333286616077,-0.18950857150303982,-0.9646974046232212,-0.09423546826306661
11243,7.0,299.86085,2442.3905,0.0,0.0,0.0,0.0,-0.11205684015089751,0.0,-0.16371971499287785,-0.2231473197179258,-0.3555586806659097,-0.1988494505974128,-0.944880279432423,-0.11128130680760989
11244,7.0,298.37934,2874.0108,0.0,0.0,0.0,0.0,-0.11206680696048132,0.0,-0.22630671458973378,-0.2483616431563858,-0.3989591512717026,-0.1970846121032368,-0.9422441775747601,-0.08593596607821952
11245,7.0,299.79377,3291.6137,0.0,0.0,0.0,0.0,-0.11207677377006516,0.0,-0.3106334713096367,-0.2613965382728297,-0.42853835349094255,-0.24631804942719876,-0.9569026235914362,-0.06564651739305684
11246,7.0,300.56358,3154.1486,0.0,0.0,0.0,0.0,-0.11208674057964897,0.0,-0.30051245043326974,-0.2830897264212807,-0.3751802384549066,-0.2347808696810678,-0.9377093058247031,-0.09767443606271632
11247,7.0,299.59458,2935.3981,0.0,0.0,0.0,0.0,-0.11209670738923279,0.0,-0.26239648439901675,-0.24223243250647974,-0.38765880860394564,-0.24359475739843078,-0.9356887838002931,-0.07925818689042402
11248,7.0,299.68762000000004,3238.8119,0.0,0.0,0.0,0.0,-0.11210667419881662,0.0,-0.25730745603676874,-0.28672991859803976,-0.44048056983204764,-0.24507424439944478,-0.9542038116850841,-0.10522506029740492
11249,7.0,299.27675,3336.777,0.0,0.0,0.0,0.0,-0.11211664100840042,0.0,-0.29456495605629773,-0.2670834855190878,-0.4526484673679255,-0.22948777274867976,-0.977652374571777,-0.05991043663619974
11250,7.0,299.08108,3067.9578,0.0,0.0,0.0,0.0,-0.11212660781798425,0.0,-0.2950016871143997,-0.2299867072304208,-0.4075941800814136,-0.2087974286217018,-0.9504473186618472,-0.0917635889153611
11251,7.0,299.7443,2549.4727,0.0,0.0,0.0,0.0,-0.11213657462756808,0.0,-0.24826578969692575,-0.2100714791649408,-0.3166387918698157,-0.18220683796991483,-0.9413560233321061,-0.05989749033967204
11252,7.0,299.07196,2358.8932,0.0,0.0,0.0,0.0,-0.11214654143715189,0.0,-0.24058564778145478,-0.1877124134482728,-0.2887465700070677,-0.20676292374591182,-0.9541048272828151,-0.10435710012924392
11253,7.0,297.806,3058.5713,0.0,0.0,0.0,0.0,-0.11215650824673572,0.0,-0.2795042598824227,-0.2481133867493848,-0.4021116459103296,-0.2100311619434618,-0.953453986346082,-0.08801544203319782
11254,7.0,298.63453,3468.472,0.0,0.0,0.0,0.0,-0.11216647505631953,0.0,-0.3166222454956827,-0.27860506121367873,-0.4591015634122966,-0.22147503148788378,-0.9454266846813492,-0.1044696519503519
11255,7.0,299.71668999999997,2977.7831,0.0,0.0,0.0,0.0,-0.11217644186590336,0.0,-0.2148835660098568,-0.26317881480122673,-0.42710932634490856,-0.1991562221976888,-0.9193364065314391,-0.10672518720295589
11256,7.0,300.56604,2670.8962,0.0,0.0,0.0,0.0,-0.11218640867548717,0.0,-0.2095621487371738,-0.24535751872990177,-0.35696608505480965,-0.24085147394518974,-0.96038013846464,-0.09140071467029821
11257,7.0,300.05835,3182.9195,0.0,0.0,0.0,0.0,-0.112196375485071,0.0,-0.2848480395848127,-0.2859535562389187,-0.39672644454385164,-0.23277326659543277,-0.9866008016374181,-0.07674649897278973
11258,7.0,300.51738,3388.7316,0.0,0.0,0.0,0.0,-0.11220634229465482,0.0,-0.35708181848123166,-0.26328322009153077,-0.4097247410666836,-0.2308249893031528,-0.9451474329537892,-0.08402469470609172
11259,7.0,299.76952,2981.3339,0.0,0.0,0.0,0.0,-0.11221630910423863,0.0,-0.23501398813157476,-0.28213465714202274,-0.38910243668392064,-0.18511518999694682,-0.9313766041572141,-0.09962719192043831
11260,7.0,299.84726,2470.5794,0.0,0.0,0.0,0.0,-0.11222627591382246,0.0,-0.1937745672065608,-0.19441290463705982,-0.3628069652562596,-0.2193684642649818,-0.9467164203361361,-0.10862026886498588
11261,7.0,299.8214,2676.5605,0.0,0.0,0.0,0.0,-0.11223624272340628,0.0,-0.18997247792882382,-0.2138355209014228,-0.40979955945406765,-0.22588455406806981,-0.9562593617654511,-0.07839607824159052
11262,7.0,299.1339,3160.1596,0.0,0.0,0.0,0.0,-0.1122462095329901,0.0,-0.32404944978869066,-0.2525830659880078,-0.3839770934380886,-0.2195204112499778,-0.962165393948331,-0.1038921703208589
11263,7.0,298.39014,3236.8521,0.0,0.0,0.0,0.0,-0.11225617634257391,0.0,-0.3407204638164917,-0.22677313387576578,-0.4164286266433056,-0.2050183401212348,-0.935232405822752,-0.04875894344788305
11264,7.0,299.0178,2899.6490000000003,0.0,0.0,0.0,0.0,-0.11226614315215774,0.0,-0.27764071056350476,-0.23926570714118678,-0.36451447405977766,-0.22331203365418179,-0.959295170522562,-0.09727653376169641
11265,7.0,298.71522999999996,2741.3089,0.0,0.0,0.0,0.0,-0.11227610996174155,0.0,-0.21642289556177682,-0.22698388989656576,-0.3898826696584236,-0.2141003135500558,-0.9706085030566011,-0.08035804656922173
11266,7.0,299.30798,3184.2729,0.0,0.0,0.0,0.0,-0.11228607677132538,0.0,-0.26592662748241475,-0.25300230834938375,-0.4490105246063886,-0.23583421408752478,-0.943077018494455,-0.09108541555718061
11267,7.0,298.74332000000004,3381.7246,0.0,0.0,0.0,0.0,-0.1122960435809092,0.0,-0.28757678289911875,-0.29236240365142274,-0.4480206400536946,-0.2016843217271928,-0.9536938429097541,-0.07426620356975364
11268,7.0,300.07603,2994.2783,0.0,0.0,0.0,0.0,-0.11230601039049302,0.0,-0.2904567132608457,-0.21903853989992078,-0.40069058291008164,-0.2126907914684468,-0.969548349609472,-0.06592210318175504
11269,7.0,299.98618,2674.5208,0.0,0.0,0.0,0.0,-0.11231597720007683,0.0,-0.2630080010993688,-0.22544499604218876,-0.3245345534065667,-0.2264460466109848,-0.958215907178547,-0.07498743499093363
11270,7.0,299.388,2946.31,0.0,0.0,0.0,0.0,-0.11232594400966066,0.0,-0.2804757640783027,-0.2465562847907108,-0.3685726319027866,-0.2126106940480418,-0.9505925174011771,-0.06967536596367324
11271,7.0,299.08033,3222.4894,0.0,0.0,0.0,0.0,-0.11233591081924449,0.0,-0.27178152093274777,-0.2634805302835037,-0.44429426082342954,-0.2142955161818208,-0.9292795513527511,-0.13396812853412488
11272,7.0,300.2319,3083.6208,0.0,0.0,0.0,0.0,-0.11234587762882829,0.0,-0.2259076865678528,-0.2869840822531237,-0.42445194623514565,-0.17908299804411582,-0.9346311128159092,-0.10409322953820191
11273,7.0,299.52436,2660.2069,0.0,0.0,0.0,0.0,-0.11235584443841212,0.0,-0.1933880426909138,-0.23511711672675276,-0.38013132294854063,-0.2145118856081748,-0.971554189639933,-0.14271136232201484
11274,7.0,300.54793,2593.0578,0.0,0.0,0.0,0.0,-0.11236581124799594,0.0,-0.23625379082143377,-0.20628795262903582,-0.34568307909626367,-0.18961393938093882,-0.9748485392925601,-0.08129631312207142
11275,7.0,300.78935,2971.6094,0.0,0.0,0.0,0.0,-0.11237577805757976,0.0,-0.28821566748467176,-0.2687645991575008,-0.34631480000360965,-0.2207538304642068,-0.9835174613181161,-0.11568362517958489
11276,7.0,300.00375,3420.9213,0.0,0.0,0.0,0.0,-0.11238574486716359,0.0,-0.3306363353762657,-0.2803034912963007,-0.4289348281225716,-0.17969423103443982,-0.9849158579136271,-0.06422655478241744
11277,7.0,299.31126,3163.3568,0.0,0.0,0.0,0.0,-0.1123957116767474,0.0,-0.24985145517591875,-0.2802635996398637,-0.43146641323241963,-0.2433517698919498,-0.975152423130051,-0.1026132257796369
11278,7.0,299.99889,2884.6071,0.0,0.0,0.0,0.0,-0.11240567848633123,0.0,-0.2129747142789678,-0.2724795387941367,-0.3913942766876076,-0.2209875568647738,-0.925895022441224,-0.1028913933295899
11279,7.0,298.65102,3108.6929,0.0,0.0,0.0,0.0,-0.11241564529591504,0.0,-0.28922748890203076,-0.24089659397214278,-0.41484093466411265,-0.27125995044377277,-0.9268075149512801,-0.07692455842611283
11280,7.0,299.70597000000004,3406.2381,0.0,0.0,0.0,0.0,-0.11242561210549887,0.0,-0.3353558719570477,-0.28448863977434274,-0.41556681690325165,-0.2150499112787738,-0.9450943791785531,-0.08238368145363632
11281,7.0,299.84508,3049.1853,0.0,0.0,0.0,0.0,-0.1124355789150827,0.0,-0.3055337936888377,-0.22810578067228776,-0.39323660854943165,-0.24303641606332677,-0.965306935353377,-0.06902910086439183
11282,7.0,300.76835,2720.6071,0.0,0.0,0.0,0.0,-0.1124455457246665,0.0,-0.23267186052542477,-0.21024603175966783,-0.38407872242311863,-0.2003093109439898,-0.9594118462715772,-0.09606298742167871
11283,7.0,299.83176000000003,2751.4865,0.0,0.0,0.0,0.0,-0.11245551253425033,0.0,-0.2108804681772818,-0.23941390510081276,-0.3860888282365006,-0.2127367626254838,-0.9634405894641831,-0.10564156688351091
11284,7.0,301.09845,2880.2179,0.0,0.0,0.0,0.0,-0.11246547934383415,0.0,-0.2388027126404928,-0.22198595271830782,-0.41472566733273664,-0.20274002700638283,-0.995080489074298,-0.1028678453972659
11285,7.0,300.01931,3169.0672,0.0,0.0,0.0,0.0,-0.11247544615341797,0.0,-0.2873740822166137,-0.27116134094404076,-0.4047818638988596,-0.1963367929994328,-0.9761618836746772,-0.0880379939406735
11286,7.0,299.92127999999997,3331.7997,0.0,0.0,0.0,0.0,-0.1124854129630018,0.0,-0.35818725407532964,-0.2875776340292027,-0.36701904592195966,-0.1969672676091558,-0.9456312092140341,-0.09028987136041651
11287,7.0,299.45245,2972.7165,0.0,0.0,0.0,0.0,-0.11249537977258561,0.0,-0.2748723086402847,-0.24968152300164775,-0.37907775562706164,-0.21907247364576982,-0.9248954512175741,-0.09110996559385351
11288,7.0,300.1365,2964.9274,0.0,0.0,0.0,0.0,-0.11250534658216944,0.0,-0.2604173536411918,-0.27225070639155274,-0.3685958454625776,-0.21178603005665378,-0.9660816359823341,-0.10015291572157321
11289,7.0,298.83581000000004,3432.6443,0.0,0.0,0.0,0.0,-0.11251531339175325,0.0,-0.25438394578824075,-0.27620085177390175,-0.5128533463771845,-0.2100049896933788,-0.9315731037491071,-0.06577268628225873
11290,7.0,299.27181,3293.2371,0.0,0.0,0.0,0.0,-0.11252528020133708,0.0,-0.2815752113643097,-0.2785835397815547,-0.4409030849912466,-0.2027574447756018,-0.9121092076756702,-0.1033914829164449
11291,7.0,300.39463,2763.2379,0.0,0.0,0.0,0.0,-0.11253524701092091,0.0,-0.2166587801850568,-0.2473293034245018,-0.37596722980757663,-0.22509378329252677,-0.9164889812329202,-0.10028982100883471
11292,7.0,301.50175,2570.9457,0.0,0.0,0.0,0.0,-0.11254521382050471,0.0,-0.2752755517825818,-0.1928587107061728,-0.3133690337971157,-0.25076356265093674,-0.9565114279928281,-0.08235955698200542
11293,7.0,300.99408999999997,2948.8806,0.0,0.0,0.0,0.0,-0.11255518063008854,0.0,-0.26920655858611875,-0.2576225160228628,-0.36955698410993465,-0.2363948960303598,-0.948996496506162,-0.08921134768897451
11294,7.0,301.23604,3266.4215,0.0,0.0,0.0,0.0,-0.11256514743967236,0.0,-0.3226553595061047,-0.25052447615734075,-0.41973071752669666,-0.1996904380479118,-0.9282757650086851,-0.1105888010267649
11295,7.0,300.4411,3226.623,0.0,0.0,0.0,0.0,-0.11257511424925618,0.0,-0.26546613570946775,-0.26075983217499177,-0.45458685533922955,-0.1920436827232358,-0.9514436373526761,-0.0997080371194171
11296,7.0,300.5425,2985.0196,0.0,0.0,0.0,0.0,-0.11258508105884,0.0,-0.26304170179769476,-0.23572985945972577,-0.4085998612031666,-0.21821140357828878,-0.993095339610879,-0.0952487994230746
11297,7.0,300.66029,2768.7497,0.0,0.0,0.0,0.0,-0.11259504786842382,0.0,-0.24880053243720077,-0.18042016393608384,-0.4124100564817036,-0.2077466781355008,-0.9784372887617421,-0.03956659769891916
11298,7.0,300.45885,3239.9418,0.0,0.0,0.0,0.0,-0.11260501467800765,0.0,-0.34951934529987366,-0.25147269586592275,-0.38386935455495563,-0.19206411997775283,-0.9491362540924552,-0.052062389046657755
11299,7.0,299.86887,3509.2771,0.0,0.0,0.0,0.0,-0.11261498148759146,0.0,-0.3466622231978977,-0.27312309446265076,-0.44694729409026357,-0.21969286641699778,-0.9268706100350071,-0.05081393117444455
11300,7.0,300.08857,2931.2663,0.0,0.0,0.0,0.0,-0.11262494829717529,0.0,-0.26356531905187175,-0.2199822101155538,-0.40748422218056163,-0.22720615643850178,-0.960486955290182,-0.07909875401368922
11301,7.0,299.86611,2636.8499,0.0,0.0,0.0,0.0,-0.11263491510675912,0.0,-0.16828380887581884,-0.25826927356169277,-0.37498345515298565,-0.22823785782282277,-0.9438580012740321,-0.10006645509054021
11302,7.0,299.55884,3176.1954,0.0,0.0,0.0,0.0,-0.11264488191634292,0.0,-0.26440219270696474,-0.2522655843341748,-0.4488163149597216,-0.22128910009453379,-0.9189147425023241,-0.08960857313892762
11303,7.0,299.01411,3238.6151,0.0,0.0,0.0,0.0,-0.11265484872592675,0.0,-0.29357395692849375,-0.2884138186742277,-0.4024703465782306,-0.2043177891345958,-0.9683894752051,-0.11619235778979288
11304,7.0,300.89714,2916.4758,0.0,0.0,0.0,0.0,-0.11266481553551057,0.0,-0.2943058274757237,-0.24719719587646377,-0.3450327853145847,-0.22245446943204678,-0.9882670204993611,-0.07969893751167272
11305,7.0,301.54722999999996,2727.0566,0.0,0.0,0.0,0.0,-0.11267478234509438,0.0,-0.23780138849416976,-0.22439604914116576,-0.3667596741613616,-0.2259789889773898,-0.9577491636524831,-0.11363043597195088
11306,7.0,301.16624,2961.7986,0.0,0.0,0.0,0.0,-0.11268474915467822,0.0,-0.2655143866792297,-0.25779710914759374,-0.3770013021971317,-0.17404487536689184,-0.947615325162351,-0.08303499861791633
11307,7.0,300.92379,3337.3895,0.0,0.0,0.0,0.0,-0.11269471596426203,0.0,-0.24891445214594377,-0.3171053631433627,-0.4484632682273786,-0.1973892660108038,-0.9610647104972022,-0.1294610299693089
11308,7.0,299.75288,3351.3848,0.0,0.0,0.0,0.0,-0.11270468277384586,0.0,-0.27790828964991277,-0.2896697421731777,-0.4511592430334505,-0.19339829678192583,-1.006079926859858,-0.06287173199420684
11309,7.0,300.20187999999996,2907.6196,0.0,0.0,0.0,0.0,-0.11271464958342967,0.0,-0.24021844594521474,-0.25574035329960776,-0.38788494576126364,-0.23611332396007076,-0.996081691630609,-0.08866907346070622
11310,7.0,300.35918,2657.3722,0.0,0.0,0.0,0.0,-0.1127246163930135,0.0,-0.25556967132026276,-0.19789232442045182,-0.35431278834294966,-0.2049154040435758,-0.9227781232786101,-0.04705484321770145
11311,7.0,299.58849,3035.6793,0.0,0.0,0.0,0.0,-0.11273458320259733,0.0,-0.3044847859928087,-0.25503208134720673,-0.3632538389478627,-0.23343363208310575,-0.9536394820418891,-0.11760319709653189
11312,7.0,299.35548,3396.3842,0.0,0.0,0.0,0.0,-0.11274455001218113,0.0,-0.32969140873050873,-0.25903920178267875,-0.4436853785733376,-0.22399130638872078,-0.9481921076492752,-0.08456524742244012
11313,7.0,298.63473999999997,2897.7907,0.0,0.0,0.0,0.0,-0.11275451682176496,0.0,-0.22559278870177477,-0.24134429852882774,-0.4139189378681186,-0.24903460334280178,-0.9496729828029261,-0.11641580983434589
11314,7.0,299.90635,2721.7554,0.0,0.0,0.0,0.0,-0.11276448363134878,0.0,-0.23174088633354478,-0.24659081635411878,-0.34901396654749667,-0.1980983384307838,-0.9356912966605412,-0.1029186092272759
11315,7.0,300.89493,3147.8109999999997,0.0,0.0,0.0,0.0,-0.1127744504409326,0.0,-0.29832973746535274,-0.24625744693871776,-0.4122687587552586,-0.25166531470993275,-0.960093510276352,-0.07446629614650123
11316,7.0,299.49802999999997,3303.1018,0.0,0.0,0.0,0.0,-0.11278441725051642,0.0,-0.3248330062235217,-0.27660738797902373,-0.4026200644130066,-0.2239317880778468,-1.017997885993569,-0.05936291275916335
11317,7.0,300.39087,3131.7553,0.0,0.0,0.0,0.0,-0.11279438406010024,0.0,-0.3085693288684217,-0.24435920393637578,-0.39904688859786164,-0.2074934872005128,-0.983479646824384,-0.06208905404721254
11318,7.0,301.93375,3120.2188,0.0,0.0,0.0,0.0,-0.11280435086968407,0.0,-0.29278973174859674,-0.2333001363824308,-0.42237875547053755,-0.19541765356872082,-0.9437802748588612,-0.07270891719956143
11319,7.0,301.7075,2944.6952,0.0,0.0,0.0,0.0,-0.11281431767926788,0.0,-0.22937644696019277,-0.27851321009211377,-0.3872241547085486,-0.2141611997485648,-0.9799890610248901,-0.1137728077435019
11320,7.0,301.66038,2859.382,0.0,0.0,0.0,0.0,-0.1128242844888517,0.0,-0.24272314952990975,-0.23601254610512476,-0.39044503359642463,-0.24505467854001378,-0.9786733659025411,-0.11115917977305688
11321,7.0,299.97814,3061.8732,0.0,0.0,0.0,0.0,-0.11283425129843554,0.0,-0.2515587511969158,-0.2823974232904557,-0.3967768030738216,-0.20005603894899382,-0.960474998939002,-0.11986815557506587
11322,7.0,298.91211,3009.0213,0.0,0.0,0.0,0.0,-0.11284421810801934,0.0,-0.2896793883141297,-0.2705245537861947,-0.35446339783781367,-0.21079302469365183,-0.9104375375281891,-0.09761501299735172
11323,7.0,300.45738,2795.954,0.0,0.0,0.0,0.0,-0.11285418491760317,0.0,-0.25509329178574774,-0.24359939808388875,-0.3512075212914837,-0.2251704457950928,-0.944810507030537,-0.11824476679484988
11324,7.0,300.36573,2939.9316,0.0,0.0,0.0,0.0,-0.11286415172718699,0.0,-0.25853336706775676,-0.27804279860068776,-0.35708964077200367,-0.25480111098691177,-0.9550456806631701,-0.1253344980095519
11325,7.0,299.59058,3317.2197,0.0,0.0,0.0,0.0,-0.11287411853677082,0.0,-0.26946894983201475,-0.27505851361116174,-0.46382448424841255,-0.24015923160937078,-0.9537277969206052,-0.09657582977429231
11326,7.0,298.8406,3471.1966,0.0,0.0,0.0,0.0,-0.11288408534635463,0.0,-0.3389980906340067,-0.2764218416207117,-0.4397371583661786,-0.22198209223542678,-0.923304719488081,-0.08373312591031612
11327,7.0,299.57928,3365.2304,0.0,0.0,0.0,0.0,-0.11289405215593845,0.0,-0.3058463813446877,-0.2800964640358687,-0.4370031562838536,-0.2086658986262208,-0.9642537226694331,-0.08182548703979682
11328,7.0,300.65055,3096.8697,0.0,0.0,0.0,0.0,-0.11290401896552228,0.0,-0.3228232550476747,-0.2063291209805988,-0.41221868393531663,-0.2282229934438558,-0.9823830873011621,-0.02568766524917518
11329,7.0,300.7956,2878.6565,0.0,0.0,0.0,0.0,-0.11291398577510608,0.0,-0.25508468929239875,-0.2290159629721158,-0.3909390538151806,-0.18051472043541583,-0.9893499011462331,-0.05084043171755995
11330,7.0,301.00397999999996,3061.4107,0.0,0.0,0.0,0.0,-0.11292395258468992,0.0,-0.27033679854266474,-0.2480053236262198,-0.4122502973384366,-0.2129643689954468,-0.959150235228258,-0.08773932023519672
11331,7.0,300.62074,3246.6922,0.0,0.0,0.0,0.0,-0.11293391939427375,0.0,-0.27890545947082573,-0.2652104521792338,-0.4427974371132046,-0.2230008138859668,-0.9683620262598911,-0.0919894261506495
11332,7.0,299.93955,2887.9826,0.0,0.0,0.0,0.0,-0.11294388620385755,0.0,-0.25474106578598577,-0.26344550222754676,-0.3596880294609447,-0.26083439724985075,-0.974943653079447,-0.12417151994227488
11333,7.0,301.04413999999997,2711.0138,0.0,0.0,0.0,0.0,-0.11295385301344138,0.0,-0.22629764600133875,-0.2215757181503208,-0.37620712690125263,-0.23825408837384776,-0.9415138066376781,-0.1027945975475369
11334,7.0,299.15935,3208.2485,0.0,0.0,0.0,0.0,-0.1129638198230252,0.0,-0.30237697247228373,-0.2748992610929447,-0.39795118020472364,-0.23683942911423178,-0.9328825369858381,-0.07811038123014442
11335,7.0,300.10902999999996,3467.8565,0.0,0.0,0.0,0.0,-0.11297378663260903,0.0,-0.33972582712082866,-0.28017144454326876,-0.4342445119590966,-0.21755255796576578,-0.9629867648768942,-0.07866768702364622
11336,7.0,300.32829,3176.9928,0.0,0.0,0.0,0.0,-0.11298375344219284,0.0,-0.27643061636657773,-0.24022557922591875,-0.44907030636228856,-0.2287006496734968,-0.963865840398652,-0.07530227104875553
11337,7.0,299.9099,2738.1928,0.0,0.0,0.0,0.0,-0.11299372025177666,0.0,-0.22125948279411076,-0.24394430841792875,-0.36713843718124267,-0.2065412651540358,-0.960086974813207,-0.1074115628206959
11338,7.0,299.15664,2905.9271,0.0,0.0,0.0,0.0,-0.11300368706136049,0.0,-0.25370939479916776,-0.24975501403140077,-0.3798648787022446,-0.2006036499655388,-0.9374651125506032,-0.08968990571120451
11339,7.0,299.01322000000005,3153.3846,0.0,0.0,0.0,0.0,-0.1130136538709443,0.0,-0.2779629443603067,-0.2754442173942277,-0.4051430166320026,-0.1961978156157168,-0.9874326698370172,-0.11447157540996489
11340,7.0,297.98554,2867.1559,0.0,0.0,0.0,0.0,-0.11302362068052813,0.0,-0.26211905652163675,-0.2599793256229618,-0.34944539830757565,-0.2012924371185168,-0.9711316744807341,-0.08132338513824322
11341,7.0,300.48071,2640.8782,0.0,0.0,0.0,0.0,-0.11303358749011196,0.0,-0.2099994269503298,-0.2047622208934578,-0.38799938222755764,-0.20878800539577183,-0.9754691245813072,-0.09629298202212741
11342,7.0,300.32399,2660.8204,0.0,0.0,0.0,0.0,-0.11304355429969576,0.0,-0.19696312341624683,-0.25225505666563575,-0.35960477070022767,-0.1961580455492918,-0.9354061883474032,-0.1033923847090339
11343,7.0,300.0156,3162.4514,0.0,0.0,0.0,0.0,-0.11305352110927959,0.0,-0.28421524463236075,-0.2790427041968707,-0.3980483204918106,-0.22675988056445778,-0.961961021403161,-0.14741373444610287
11344,7.0,300.37557000000004,3661.2765,0.0,0.0,0.0,0.0,-0.1130634879188634,0.0,-0.38191696346726967,-0.2704704563633557,-0.4605492039626676,-0.24932784805424277,-0.9390463197291561,-0.057888076576108345
11345,7.0,301.03226,3314.8682,0.0,0.0,0.0,0.0,-0.11307345472844724,0.0,-0.32433724321459373,-0.28318770770595075,-0.40011219948799964,-0.23069428004025275,-0.9551662067625651,-0.08825043094338941
11346,7.0,300.75647000000004,2819.5882,0.0,0.0,0.0,0.0,-0.11308342153803105,0.0,-0.2784489497707717,-0.20431477978179882,-0.3743206578650727,-0.23755599958495177,-0.9171063443863492,-0.02235588613785418
11347,7.0,299.69513,3113.1243,0.0,0.0,0.0,0.0,-0.11309338834761487,0.0,-0.2730519643056307,-0.24235170217575078,-0.4309083860048466,-0.20971578784983683,-0.964390106132893,-0.05200628842837105
11348,7.0,299.09328,3431.6527,0.0,0.0,0.0,0.0,-0.1131033551571987,0.0,-0.3170724730451167,-0.27165707355546576,-0.4544071959639986,-0.2159693749495178,-0.9786937828920561,-0.05420936265704754
11349,7.0,299.1893,3178.8791,0.0,0.0,0.0,0.0,-0.1131133219667825,0.0,-0.2924446998245447,-0.23407144262355278,-0.43978373747327554,-0.2046414313490368,-0.960933231164226,-0.07156745549815793
11350,7.0,299.56958,2893.1914,0.0,0.0,0.0,0.0,-0.11312328877636632,0.0,-0.2525561236678488,-0.2671454052326987,-0.35975642384269463,-0.20906711526831778,-0.9458728794953851,-0.1100453747331329
11351,7.0,299.5978,2829.0388,0.0,0.0,0.0,0.0,-0.11313325558595017,0.0,-0.25318861464527076,-0.2289630713168958,-0.3778054681389966,-0.22195791608804077,-0.975650141711672,-0.10399484295349191
11352,7.0,299.63542,3020.4543,0.0,0.0,0.0,0.0,-0.11314322239553397,0.0,-0.28124094015631973,-0.24213561645942477,-0.3947661399728846,-0.22885726774145376,-0.968914733924439,-0.10241579399765191
11353,7.0,300.19223999999997,3154.0791,0.0,0.0,0.0,0.0,-0.1131531892051178,0.0,-0.2507564091052307,-0.2772112141111167,-0.4307936759610256,-0.21209738154738178,-0.9632509394429661,-0.07475562768605602
11354,7.0,301.12766,3042.0756,0.0,0.0,0.0,0.0,-0.11316315601470162,0.0,-0.25214994210026176,-0.2521790223781318,-0.42038605729387357,-0.2161764326074528,-0.931893736610751,-0.11487302509958489
11355,7.0,300.41156,2695.5364,0.0,0.0,0.0,0.0,-0.11317312282428545,0.0,-0.21493030723696982,-0.24487666062994476,-0.35956879018917665,-0.2165284559571948,-0.989717285367491,-0.1053074983255409
11356,7.0,300.94501,2775.7319,0.0,0.0,0.0,0.0,-0.11318308963386926,0.0,-0.25014343332473477,-0.24105508655278476,-0.35255466769693666,-0.2250479033279988,-0.964581296294262,-0.11547476393647191
11357,7.0,300.12251000000003,3229.2682,0.0,0.0,0.0,0.0,-0.11319305644345308,0.0,-0.2931987808139667,-0.26893376126169577,-0.4194843356323806,-0.2225481140062888,-0.9615013402302941,-0.07593292804349652
11358,7.0,300.50525,3256.1219,0.0,0.0,0.0,0.0,-0.11320302325303691,0.0,-0.2918305588064337,-0.2846339195736807,-0.41331525359103966,-0.21644857131931078,-0.9270665523393452,-0.09553052145437842
11359,7.0,299.55792,2970.5738,0.0,0.0,0.0,0.0,-0.11321299006262071,0.0,-0.2278090098504988,-0.26176726621941776,-0.4134039737697956,-0.2176748471203348,-0.9715217555042321,-0.0850168469125095
11360,7.0,299.61672000000004,2910.0447,0.0,0.0,0.0,0.0,-0.11322295687220454,0.0,-0.2575558036362787,-0.22068716874012778,-0.4063379627399346,-0.2150465472884418,-0.986814131313472,-0.08023008220084261
11361,7.0,299.96664,3164.9767,0.0,0.0,0.0,0.0,-0.11323292368178836,0.0,-0.2920280615159257,-0.25040019090007476,-0.4196456247832986,-0.18456323213747283,-0.9839006927709381,-0.08764212320610411
11362,7.0,300.56092,3391.8606,0.0,0.0,0.0,0.0,-0.11324289049137218,0.0,-0.33276205302605766,-0.26806662182611574,-0.4302122527886436,-0.20541162301504878,-0.957119307125321,-0.08838050185872642
11363,7.0,299.57146,3268.5964,0.0,0.0,0.0,0.0,-0.11325285730095601,0.0,-0.3056428599296017,-0.2650449175103967,-0.4228838910428906,-0.2007832485457638,-0.9712373969961682,-0.100756922212184
11364,7.0,300.13197,2872.6843,0.0,0.0,0.0,0.0,-0.11326282411053983,0.0,-0.26504362055026875,-0.2147809744372318,-0.39339971141802865,-0.25094310043615575,-0.9409949921889751,-0.07101502343763713
11365,7.0,300.24703,2785.1985,0.0,0.0,0.0,0.0,-0.11327279092012366,0.0,-0.22359909754001278,-0.22615470680973176,-0.3968769831112086,-0.22755068173750378,-0.9296040345647751,-0.07241495612029973
11366,7.0,300.1933,3349.9759,0.0,0.0,0.0,0.0,-0.11328275772970746,0.0,-0.3126156418177617,-0.2734782487552017,-0.43221514426131363,-0.2450619232782288,-0.9299428755307162,-0.06118693823143064
11367,7.0,300.48147,3654.4844,0.0,0.0,0.0,0.0,-0.11329272453929129,0.0,-0.3428320060973847,-0.3201783784441457,-0.44786163071550156,-0.23915848501560477,-0.9682548243993112,-0.0972980359420685
11368,7.0,301.39082,3037.8452,0.0,0.0,0.0,0.0,-0.1133026913488751,0.0,-0.26584166646152974,-0.2706913043551517,-0.3868961352536756,-0.2282532490918418,-0.99159837404564,-0.09187480020658681
11369,7.0,301.02038,2674.1113,0.0,0.0,0.0,0.0,-0.11331265815845892,0.0,-0.2508233241418348,-0.22841964502326378,-0.3336200934757397,-0.2114040955639598,-0.967891401985944,-0.12032036909469587
11370,7.0,300.32093,3041.8179999999998,0.0,0.0,0.0,0.0,-0.11332262496804274,0.0,-0.24630488730839978,-0.26032859293243177,-0.41800322743120666,-0.2114469560431898,-0.9392104257153521,-0.1017250006094759
11371,7.0,300.87094,3105.5896,0.0,0.0,0.0,0.0,-0.11333259177762657,0.0,-0.24991490489718077,-0.2738268473196057,-0.42027994974340155,-0.1948137565091208,-0.961845358904246,-0.11686399061857788
11372,7.0,300.03904,2952.1993,0.0,0.0,0.0,0.0,-0.11334255858721039,0.0,-0.23475692658120478,-0.23950318256712377,-0.4231347515026486,-0.20321153280791682,-0.964718480225301,-0.08430886576288722
11373,7.0,300.07338,2715.546,0.0,0.0,0.0,0.0,-0.1133525253967942,0.0,-0.24429813535284878,-0.2146094818578068,-0.36655055960572364,-0.19135877631814083,-0.965231620473444,-0.09922590131108401
11374,7.0,299.8856,2938.5919,0.0,0.0,0.0,0.0,-0.11336249220637803,0.0,-0.2522064611908397,-0.2551126549951587,-0.3859394346417566,-0.1990750102021738,-0.9514549350912911,-0.0986412752551359
11375,7.0,299.57172,3384.1787,0.0,0.0,0.0,0.0,-0.11337245901596184,0.0,-0.3440751018500687,-0.2778885515379647,-0.40674217860232764,-0.2290403417695218,-0.9532137852773761,-0.09913584972169659
11376,7.0,298.84319,3603.965,0.0,0.0,0.0,0.0,-0.11338242582554567,0.0,-0.3159220592790797,-0.3029172171606017,-0.4766760722892655,-0.23707588115756778,-0.949542324202531,-0.07623109613717342
11377,7.0,299.71097000000003,3057.5008,0.0,0.0,0.0,0.0,-0.11339239263512949,0.0,-0.2718493276294398,-0.24869459713924574,-0.4088599726363376,-0.24111595248629175,-0.9355310410247251,-0.05399199619259515
11378,7.0,298.93442000000005,2633.4529,0.0,0.0,0.0,0.0,-0.11340235944471332,0.0,-0.2292627602989728,-0.2060321171112868,-0.36520902660582466,-0.2092055961594848,-0.9290022349328821,-0.052676878622803146
11379,7.0,299.48114,3050.4082,0.0,0.0,0.0,0.0,-0.11341232625429712,0.0,-0.28248715671931174,-0.25989624924726273,-0.38486452827317164,-0.21393993632422778,-0.9671815898933911,-0.09562674981637541
11380,7.0,300.14405,3354.3766,0.0,0.0,0.0,0.0,-0.11342229306388095,0.0,-0.31174929271725965,-0.2594499632407178,-0.4484474716583196,-0.1992151730885068,-0.977057870340604,-0.08736638340339073
11381,7.0,300.81908,3017.8344,0.0,0.0,0.0,0.0,-0.11343225987346478,0.0,-0.2768374565467297,-0.24502326778691377,-0.3954855880738886,-0.20266155078613782,-0.9659720732490211,-0.10457406737315691
11382,7.0,299.58279,2865.1820000000002,0.0,0.0,0.0,0.0,-0.11344222668304858,0.0,-0.2239592978180618,-0.2452010425169588,-0.40178345420293965,-0.1914711761517338,-0.9507000637667912,-0.1042138772276089
11383,7.0,299.88927,2932.949,0.0,0.0,0.0,0.0,-0.11345219349263241,0.0,-0.23420104744384376,-0.24671990441685876,-0.4106223084027666,-0.22439495483105776,-0.9677395360609561,-0.10579490202114389
11384,7.0,300.36921,3078.3462,0.0,0.0,0.0,0.0,-0.11346216030221623,0.0,-0.25737202033314077,-0.2564346120031258,-0.4219337360266176,-0.2073448231458408,-0.9813065597324171,-0.08451297587628133
11385,7.0,300.18453999999997,3320.2458,0.0,0.0,0.0,0.0,-0.11347212711180005,0.0,-0.2883712925675307,-0.3091191893001887,-0.41178134492715457,-0.21968821559903878,-0.9680453349411361,-0.07814381848344443
11386,7.0,299.309,3091.744,0.0,0.0,0.0,0.0,-0.11348209392138388,0.0,-0.28956870087320574,-0.2750632961516337,-0.3751809578624776,-0.20268681111113082,-0.949022324251211,-0.09083783093499591
11387,7.0,299.6624,2833.8559,0.0,0.0,0.0,0.0,-0.1134920607309677,0.0,-0.24709170640855277,-0.2550449293584747,-0.35928480658364964,-0.2532885717676358,-0.941945866612819,-0.09412068830498872
11388,7.0,299.3035,3134.0141,0.0,0.0,0.0,0.0,-0.11350202754055153,0.0,-0.27079091697248275,-0.2716421990439978,-0.41022891405144163,-0.23142672814003978,-0.9433610831599902,-0.10838520497428689
11389,7.0,299.08116,3405.3667,0.0,0.0,0.0,0.0,-0.11351199435013533,0.0,-0.2954512763162707,-0.3106498251662507,-0.42904533317847754,-0.24184062895781175,-0.9315713710914362,-0.07067204537153783
11390,7.0,299.2092,3283.1674,0.0,0.0,0.0,0.0,-0.11352196115971916,0.0,-0.2812616813858667,-0.26978428339563576,-0.44695494412851855,-0.20492265891429182,-0.9312773664424201,-0.09912703951207709
11391,7.0,299.95772999999997,2912.1421,0.0,0.0,0.0,0.0,-0.11353192796930299,0.0,-0.25117568186410977,-0.25201449082689376,-0.3820283297857607,-0.2104712873893988,-0.965049914333011,-0.09352259919496192
11392,7.0,299.58229,2858.3628,0.0,0.0,0.0,0.0,-0.11354189477888679,0.0,-0.2837018612041938,-0.21975082432271778,-0.36541823235397164,-0.1917434871161088,-0.9888563368900221,-0.1037522810120529
11393,7.0,300.53422,3146.2179,0.0,0.0,0.0,0.0,-0.11355186158847062,0.0,-0.2826355471964567,-0.25632827140513076,-0.41740786193744855,-0.1998698238456158,-0.997769989212231,-0.0909422382518001
11394,7.0,300.21212,3247.5315,0.0,0.0,0.0,0.0,-0.11356182839805444,0.0,-0.3029767152064737,-0.27912491930998473,-0.4050668607544866,-0.17256238914558183,-0.9897754256582291,-0.09494818939665671
11395,7.0,299.69565,3305.2634,0.0,0.0,0.0,0.0,-0.11357179520763826,0.0,-0.2992048106492157,-0.28571324371270174,-0.4197994969434846,-0.22373506557093176,-0.9938812467859421,-0.06715158794584573
11396,7.0,300.35576000000003,3145.0846,0.0,0.0,0.0,0.0,-0.11358176201722209,0.0,-0.2903675573845467,-0.25015406231828374,-0.4155055659347066,-0.22299620359801178,-0.9765414978246421,-0.059832312013739446
11397,7.0,300.60417,3055.8761,0.0,0.0,0.0,0.0,-0.1135917288268059,0.0,-0.2716299589827898,-0.2907907311563107,-0.3664893390346816,-0.23374524701885976,-0.9414672477955831,-0.09044939441641023
11398,7.0,299.85897,3267.1461,0.0,0.0,0.0,0.0,-0.11360169563638974,0.0,-0.3189837160462417,-0.24495271518245076,-0.42919438226818757,-0.2089299819997838,-0.91391542730393,-0.08767252070910411
11399,7.0,299.96393,3343.7196,0.0,0.0,0.0,0.0,-0.11361166244597354,0.0,-0.28297554326751173,-0.2836449165485737,-0.4497868059055015,-0.2168945938808298,-0.9411350638827992,-0.12436072413344788
11400,7.0,300.17278999999996,2860.6823,0.0,0.0,0.0,0.0,-0.11362162925555738,0.0,-0.2523692094219018,-0.2214090689063738,-0.39579771976719363,-0.23653206982889777,-0.9620812029975221,-0.1022103980698809
11401,7.0,299.80348,2759.6939,0.0,0.0,0.0,0.0,-0.1136315960651412,0.0,-0.2162548379001908,-0.24934814345374579,-0.3732750648218806,-0.23892642034520176,-0.9628575349591401,-0.12552572870092488
11402,7.0,300.60431,3007.1517,0.0,0.0,0.0,0.0,-0.113641562874725,0.0,-0.24934045288548676,-0.26365121226284877,-0.40110736307371464,-0.2178957863046398,-0.9705531694686401,-0.0958063230653479
11403,7.0,299.73417,3136.3241,0.0,0.0,0.0,0.0,-0.11365152968430883,0.0,-0.2993837100868717,-0.2517016397260178,-0.40227884230933064,-0.19979619096084883,-0.9589333794418561,-0.1140876144170709
11404,7.0,298.85005,3249.3709,0.0,0.0,0.0,0.0,-0.11366149649389265,0.0,-0.28933844992048174,-0.27660261557105276,-0.4217865411845906,-0.2013458252662858,-0.9788309668230951,-0.06628060727913664
11405,7.0,299.62962000000005,3079.7239,0.0,0.0,0.0,0.0,-0.11367146330347647,0.0,-0.28002207121352674,-0.27772893424971173,-0.37840815943097766,-0.21332979764401178,-0.9720332340222111,-0.11425277418337089
11406,7.0,299.78147,3079.738,0.0,0.0,0.0,0.0,-0.1136814301130603,0.0,-0.2937474152131127,-0.22738331308598578,-0.41503271251053964,-0.21095464821710283,-0.9661173834458622,-0.06282347697144444
11407,7.0,300.41737,3183.9136,0.0,0.0,0.0,0.0,-0.11369139692264411,0.0,-0.3032171594552037,-0.2573440546303808,-0.4072690179918226,-0.1972549597100488,-0.9809681038015141,-0.08902615900794782
11408,7.0,299.89693,3295.4278,0.0,0.0,0.0,0.0,-0.11370136373222794,0.0,-0.3029384244851947,-0.26820474807974776,-0.4305846019353916,-0.2203554002598848,-0.9653176656719361,-0.04538560183071016
11409,7.0,299.63343,3026.2575,0.0,0.0,0.0,0.0,-0.11371133054181175,0.0,-0.3001642571689057,-0.2136204788326998,-0.40612197834861863,-0.2167280560943938,-0.9505454721990342,-0.08553061334921432
11410,7.0,299.95505,2934.0428,0.0,0.0,0.0,0.0,-0.11372129735139558,0.0,-0.2308574031738518,-0.2540353978863418,-0.4069829369585886,-0.19520268242750483,-0.9313914178736762,-0.09698353324352951
11411,7.0,300.66402,3023.6809999999996,0.0,0.0,0.0,0.0,-0.11373126416097941,0.0,-0.2675591557785328,-0.25100391570715774,-0.40056046133223966,-0.2127921975384548,-0.93889396744412,-0.12314420593088689
11412,7.0,300.77055,3366.8803,0.0,0.0,0.0,0.0,-0.11374123097056321,0.0,-0.32209181006548665,-0.25127347063126076,-0.4500822595021605,-0.22525626807856278,-0.961897196779362,-0.06485661091984914
11413,7.0,300.56052999999997,3369.0890000000004,0.0,0.0,0.0,0.0,-0.11375119778014704,0.0,-0.2989915519006687,-0.3086899461603257,-0.41643742165417363,-0.23009631049373777,-0.9750048229879842,-0.12095575796740388
11414,7.0,300.63031,3011.9184,0.0,0.0,0.0,0.0,-0.11376116458973086,0.0,-0.28059632057520073,-0.22934234096182676,-0.4056093244605236,-0.2079085043089718,-0.9568949532881792,-0.05339830661450254
11415,7.0,300.82177,2890.9513,0.0,0.0,0.0,0.0,-0.11377113139931468,0.0,-0.25437189824455175,-0.24688064641272278,-0.3775244736212646,-0.21864649317122878,-0.973261982153479,-0.1190537355421889
11416,7.0,300.04483999999997,3177.6598,0.0,0.0,0.0,0.0,-0.1137810982088985,0.0,-0.25696152232012776,-0.2749130919568097,-0.43405459849285355,-0.2257043374052838,-0.9659031925072231,-0.06501879983685593
11417,7.0,299.88993999999997,3136.7823,0.0,0.0,0.0,0.0,-0.11379106501848232,0.0,-0.26898254925401077,-0.27131118036882873,-0.4132097641231286,-0.22603932802084478,-0.9653065604508401,-0.12974613828244688
11418,7.0,299.98003,2924.1596,0.0,0.0,0.0,0.0,-0.11380103182806615,0.0,-0.2490401863508528,-0.26991557021109275,-0.36991575570534263,-0.2207352677223748,-0.9442286177631091,-0.09191917650796641
11419,7.0,299.19735,2671.8816,0.0,0.0,0.0,0.0,-0.11381099863764996,0.0,-0.2288627899544988,-0.2300945271735618,-0.35322797238838666,-0.23663223973378378,-0.9819635308322551,-0.1288051025170739
11420,7.0,299.28819,2875.23,0.0,0.0,0.0,0.0,-0.11382096544723379,0.0,-0.2686794152215937,-0.24131009120545177,-0.36400861907985366,-0.2115976871280658,-0.9848998384295461,-0.08189058734547172
11421,7.0,299.24326,3270.3952,0.0,0.0,0.0,0.0,-0.11383093225681762,0.0,-0.3053631218419937,-0.26594441002166974,-0.42281093703569056,-0.2239166399888518,-0.974440645332304,-0.10430155375876189
11422,7.0,299.60369,3281.4039,0.0,0.0,0.0,0.0,-0.11384089906640142,0.0,-0.2852567238801467,-0.25823082072039777,-0.4539772942115706,-0.19172981837225983,-0.9387356977785001,-0.07337493864929263
11423,7.0,300.17216,3117.1385,0.0,0.0,0.0,0.0,-0.11385086587598525,0.0,-0.26142057256520174,-0.2664091371800347,-0.41970256943891854,-0.23538457422314876,-0.9606338461571792,-0.08279372147760412
11424,7.0,300.96906,3261.0577,0.0,0.0,0.0,0.0,-0.11386083268556907,0.0,-0.29639263632167573,-0.2552319955919367,-0.4396554701431166,-0.24616788576237877,-0.9553989300455331,-0.054876230170612245
11425,7.0,300.55325,3403.8717,0.0,0.0,0.0,0.0,-0.11387079949515289,0.0,-0.3288428421692617,-0.2631431078677028,-0.44270604195418456,-0.24579936670100877,-0.9851651681007321,-0.041056920396502564
11426,7.0,300.97493,3351.9786,0.0,0.0,0.0,0.0,-0.11388076630473672,0.0,-0.33451928201198267,-0.2829394715639517,-0.4014590419184226,-0.1976219386312668,-0.9552780594411041,-0.09022176778144522
11427,7.0,300.21092999999996,3100.2715,0.0,0.0,0.0,0.0,-0.11389073311432053,0.0,-0.29533589752738376,-0.25072378245201077,-0.39634545237375063,-0.2027502101698878,-0.970322178843343,-0.06377190338304684
11428,7.0,300.25453999999996,2913.1631,0.0,0.0,0.0,0.0,-0.11390069992390436,0.0,-0.2507490630420058,-0.2452269918520198,-0.3895527959558676,-0.19567752182186782,-0.9771538149925731,-0.1059521787016659
11429,7.0,299.95042,3019.0144,0.0,0.0,0.0,0.0,-0.11391066673348817,0.0,-0.24020255818364677,-0.2827530335455517,-0.3947493909487316,-0.2147969027288038,-0.965910092740404,-0.11416753958495889
11430,7.0,299.96321,3156.5851,0.0,0.0,0.0,0.0,-0.113920633543072,0.0,-0.27545004358230274,-0.2634530002782868,-0.42061999647696163,-0.2359072998172378,-0.9404514139078282,-0.12064046493378688
11431,7.0,299.73632000000003,3119.5814,0.0,0.0,0.0,0.0,-0.11393060035265583,0.0,-0.2686556241092457,-0.2863857682015747,-0.39323345734162063,-0.2216233409050208,-0.9684815897716911,-0.10451321157215089
11432,7.0,299.59817000000004,2745.5954,0.0,0.0,0.0,0.0,-0.11394056716223963,0.0,-0.2511379585628868,-0.2316563610102028,-0.35179812450977166,-0.2510142103281737,-0.970430778989061,-0.09104610955930141
11433,7.0,299.68331,2848.4148,0.0,0.0,0.0,0.0,-0.11395053397182346,0.0,-0.23688068865830375,-0.22992542586437278,-0.3990408698922676,-0.2032390425481318,-0.9742655557150242,-0.0924892867429819
11434,7.0,299.86053,3304.5549,0.0,0.0,0.0,0.0,-0.11396050078140728,0.0,-0.28057638994573375,-0.27756367315840175,-0.44636212189251157,-0.21523456597699778,-0.9621861149128762,-0.08637009814981501
11435,7.0,299.12235,3284.7925,0.0,0.0,0.0,0.0,-0.1139704675909911,0.0,-0.2778027799169997,-0.27404249733838876,-0.4466496214758856,-0.2162627007209668,-0.9684813465916672,-0.08364042872491761
11436,7.0,298.30903,2960.7238,0.0,0.0,0.0,0.0,-0.11398043440057493,0.0,-0.2725456432306607,-0.2512605314274838,-0.3761799312685687,-0.23895418339794175,-0.9775240667116141,-0.08256976280800113
11437,7.0,299.3061,3061.8579,0.0,0.0,0.0,0.0,-0.11399040121015874,0.0,-0.28778735653490073,-0.25704837811869974,-0.3858926224871366,-0.2218992894372548,-0.970199068956193,-0.10225265059905089
11438,7.0,299.39122000000003,3176.2358,0.0,0.0,0.0,0.0,-0.11400036801974257,0.0,-0.3096432827819127,-0.2554723891781618,-0.4003806904994976,-0.21427844291763581,-0.9489982899588391,-0.09355677510758481
11439,7.0,299.79204,3034.4032,0.0,0.0,0.0,0.0,-0.11401033482932638,0.0,-0.26846635912306677,-0.25075836467792373,-0.40315806981860364,-0.1892614296711488,-0.9758212695210611,-0.09550717414557422
11440,7.0,299.21824,3119.6476,0.0,0.0,0.0,0.0,-0.11402030163891021,0.0,-0.27512335148506073,-0.24111739130143375,-0.43205423001293264,-0.22856242209485475,-0.961659103270864,-0.07661573398113422
11441,7.0,301.1342,3023.5572,0.0,0.0,0.0,0.0,-0.11403026844849404,0.0,-0.2797206090437747,-0.23343141306538678,-0.40593386846755364,-0.2423622298442898,-0.963781355605314,-0.08761035578896892
11442,7.0,300.39054,3021.4703,0.0,0.0,0.0,0.0,-0.11404023525807784,0.0,-0.25420893723096877,-0.2783860472045637,-0.3858565507835766,-0.24862336565721574,-0.9562147990260531,-0.08436982491540342
11443,7.0,300.13695,3317.2838,0.0,0.0,0.0,0.0,-0.11405020206766167,0.0,-0.3235705067314227,-0.25625720204311675,-0.42854372371647254,-0.24270080736520477,-0.9795862738451381,-0.05200020082177025
11444,7.0,300.06831,3532.5047,0.0,0.0,0.0,0.0,-0.11406016887724549,0.0,-0.3114371812889567,-0.3001300295805277,-0.46222600115565454,-0.2174794621035518,-0.980390125679472,-0.06102416061611574
11445,7.0,300.22757,3149.5928,0.0,0.0,0.0,0.0,-0.1140701356868293,0.0,-0.2774368750408877,-0.25699693541112273,-0.4229637452832716,-0.18454954312862182,-0.9747493015777661,-0.09548022473266451
11446,7.0,299.377,2887.5414,0.0,0.0,0.0,0.0,-0.11408010249641314,0.0,-0.22642568028397478,-0.25134117600294276,-0.39997362740432363,-0.16628475762102782,-0.9697465919915371,-0.10796558771037389
11447,7.0,299.28542999999996,3058.2634,0.0,0.0,0.0,0.0,-0.11409006930599695,0.0,-0.28038123797647374,-0.25340590612921576,-0.39584856465721163,-0.1947141844217938,-1.002884825054526,-0.1152495589692459
11448,7.0,298.34226,3043.03,0.0,0.0,0.0,0.0,-0.11410003611558078,0.0,-0.2557611857216638,-0.27084474081779475,-0.39839919886893965,-0.2142107983409598,-0.988745325209066,-0.1090139773238419
11449,7.0,299.84354,2759.2549,0.0,0.0,0.0,0.0,-0.11411000292516459,0.0,-0.25464589120409276,-0.23329536397445977,-0.3508033358265937,-0.21461309916066382,-0.9664459196582861,-0.1092008915697889
11450,7.0,301.05369,2681.2556,0.0,0.0,0.0,0.0,-0.11411996973474842,0.0,-0.2159178815794358,-0.24155906702002375,-0.35755781298070866,-0.2181032492626148,-0.920633082949411,-0.10486601512446989
11451,7.0,300.37141,2900.4294,0.0,0.0,0.0,0.0,-0.11412993654433225,0.0,-0.24209253306517275,-0.26009264751414574,-0.3794729231660617,-0.23175724019015875,-0.945102991804403,-0.10009927223477899
11452,7.0,300.56244,3239.8461,0.0,0.0,0.0,0.0,-0.11413990335391605,0.0,-0.29847496660218575,-0.26591885585414776,-0.4204384929865487,-0.2332287427803848,-0.9575972065349861,-0.08007343677513291
11453,7.0,300.31186,3453.815,0.0,0.0,0.0,0.0,-0.11414987016349988,0.0,-0.32309478580947265,-0.28122717008746073,-0.44555157247501653,-0.2028910721987898,-0.9596190457845261,-0.08910713998244
11454,7.0,299.7816,3180.4179999999997,0.0,0.0,0.0,0.0,-0.1141598369730837,0.0,-0.26992567231458975,-0.2891374109681407,-0.40770458381230956,-0.2179543622929208,-0.9588530489739282,-0.09044705887492972
11455,7.0,300.05577999999997,2939.6881,0.0,0.0,0.0,0.0,-0.11416980378266751,0.0,-0.27779026627826475,-0.2213635030493768,-0.39443801919300164,-0.2274807370831008,-0.9968543150968611,-0.07846995025338113
11456,7.0,299.54981000000004,3184.1626,0.0,0.0,0.0,0.0,-0.11417977059225135,0.0,-0.2916055970192317,-0.24499934495205278,-0.43130095962359055,-0.22344756598755777,-0.9953645233423299,-0.09477345441691172
11457,7.0,299.34822,3256.4378,0.0,0.0,0.0,0.0,-0.11418973740183516,0.0,-0.3054064686812717,-0.23275504835863478,-0.4517142811732286,-0.19133086127788582,-0.9844142889816262,-0.06527943208057833
11458,7.0,299.3307,2849.1364,0.0,0.0,0.0,0.0,-0.11419970421141899,0.0,-0.2557306666286518,-0.2315003103623018,-0.37883533554063664,-0.21179789521532477,-0.9506697371912981,-0.0999936581371057
11459,7.0,298.98677999999995,2791.16,0.0,0.0,0.0,0.0,-0.1142096710210028,0.0,-0.2362708438206168,-0.21500811471214878,-0.39716397606953263,-0.2119390308217538,-0.9980790304927311,-0.057289944909577346
11460,7.0,300.37752,3193.96,0.0,0.0,0.0,0.0,-0.11421963783058663,0.0,-0.29065202735012174,-0.26695873416677574,-0.41327333543440264,-0.2325688129902548,-0.9776275296793251,-0.1046559075837339
11461,7.0,301.73609,3412.2663,0.0,0.0,0.0,0.0,-0.11422960464017046,0.0,-0.3175571004354457,-0.26919619303759573,-0.4504904574374466,-0.21799323056675676,-0.9414316016570651,-0.04439690379388325
11462,7.0,300.58088,3333.9924,0.0,0.0,0.0,0.0,-0.11423957144975426,0.0,-0.2887923587790867,-0.30114447531564575,-0.4235136158475396,-0.19696431905136483,-0.9070422276355982,-0.12208206651356188
11463,7.0,300.17906,3240.7835,0.0,0.0,0.0,0.0,-0.11424953825933809,0.0,-0.27681840744484976,-0.27986068073759873,-0.42843816332105455,-0.23487280186264076,-0.9617746441797671,-0.07219814998315263
11464,7.0,300.04244,3039.1279,0.0,0.0,0.0,0.0,-0.11425950506892191,0.0,-0.2780909482454398,-0.25819920731727775,-0.38752882888111767,-0.24541957016602578,-0.9688363286317011,-0.12975868231868487
11465,7.0,300.64496,3126.3633,0.0,0.0,0.0,0.0,-0.11426947187850574,0.0,-0.2718145832835107,-0.2735510001123817,-0.4049707945125056,-0.2291193144823158,-0.9646405207626071,-0.07620213643606533
11466,7.0,298.95714,3040.342,0.0,0.0,0.0,0.0,-0.11427943868808955,0.0,-0.2839022415439697,-0.26586995640432176,-0.37441584257946664,-0.2371806917479118,-0.964681962691697,-0.13293935544259286
11467,7.0,299.23251,2802.917,0.0,0.0,0.0,0.0,-0.11428940549767337,0.0,-0.2301811397921098,-0.23740045556210077,-0.3844351635432966,-0.2277037027676058,-0.9924034113825911,-0.06589963740053784
11468,7.0,299.50898,2668.8052,0.0,0.0,0.0,0.0,-0.1142993723072572,0.0,-0.24155535852465776,-0.21731739275005682,-0.3523773894594407,-0.2144949238015008,-0.9990517404562301,-0.1297893635317129
11469,7.0,300.76292,3239.2942,0.0,0.0,0.0,0.0,-0.114309339116841,0.0,-0.2823054201813757,-0.2735075418155927,-0.42885156936185453,-0.19011632904552084,-0.962410904447561,-0.07487118278046043
11470,7.0,300.99183,3401.4536,0.0,0.0,0.0,0.0,-0.11431930592642484,0.0,-0.3310868972982327,-0.2722711841760737,-0.4305988887618016,-0.17750146662553085,-0.9566682081808011,-0.1031070636133749
11471,7.0,301.49132000000003,3322.4326,0.0,0.0,0.0,0.0,-0.11432927273600865,0.0,-0.3079427248740807,-0.2701297814147337,-0.4318640632341646,-0.2000103920319888,-0.9989187817781081,-0.058504502473194844
11472,7.0,300.31566000000004,3279.6331,0.0,0.0,0.0,0.0,-0.11433923954559247,0.0,-0.3139971981966107,-0.2657788550878308,-0.4171505268095516,-0.22549124077675278,-0.9846192492118541,-0.07016525516177152
11473,7.0,300.87528,3197.5815,0.0,0.0,0.0,0.0,-0.11434920635517629,0.0,-0.2943887721289097,-0.2397595348424238,-0.4378366456836125,-0.22147131286001676,-0.9461438732346302,-0.06069671364754924
11474,7.0,299.28853,3168.538,0.0,0.0,0.0,0.0,-0.11435917316476012,0.0,-0.26935221328799375,-0.26077887114437076,-0.43302535930627556,-0.2081762657803978,-0.942131210321111,-0.1098799819193099
11475,7.0,299.39101,3206.0236,0.0,0.0,0.0,0.0,-0.11436913997434395,0.0,-0.2946447089716687,-0.24692614134221277,-0.43298027980932663,-0.2506726639844658,-0.971249535732366,-0.09799075653193472
11476,7.0,299.16212,2913.8208,0.0,0.0,0.0,0.0,-0.11437910678392775,0.0,-0.25580769390125374,-0.25536478201754176,-0.3745562993083286,-0.25102473799671277,-0.9709211819049601,-0.12579398666489988
11477,7.0,300.00227,2745.2079,0.0,0.0,0.0,0.0,-0.11438907359351158,0.0,-0.26214373929407275,-0.2170938495129948,-0.35523707508416963,-0.2489320016376758,-0.9570702050254751,-0.08688602382248291
11478,7.0,299.8782,3131.5057,0.0,0.0,0.0,0.0,-0.11439904040309538,0.0,-0.2782653488526517,-0.27756659131868977,-0.39606759893132865,-0.22205639386525977,-0.9555966860675501,-0.10922111604178489
11479,7.0,300.25676,3344.4471,0.0,0.0,0.0,0.0,-0.11440900721267921,0.0,-0.2825150109645607,-0.28484470599198375,-0.44926869059936764,-0.21954028108443882,-1.015655049112349,-0.08496105736200352
11480,7.0,300.31391,3318.9611,0.0,0.0,0.0,0.0,-0.11441897402226303,0.0,-0.26625723072504276,-0.2896500344587327,-0.45297404489005755,-0.1918075954499358,-1.016987270343829,-0.09977805574107741
11481,7.0,300.64597000000003,3135.0696,0.0,0.0,0.0,0.0,-0.11442894083184686,0.0,-0.2854937332110377,-0.26884433180786976,-0.3986448106931796,-0.17755253443057084,-0.973648759981651,-0.10476540952204089
11482,7.0,299.43692999999996,3134.6584,0.0,0.0,0.0,0.0,-0.11443890764143066,0.0,-0.2722144827004777,-0.2589715369410008,-0.42167187167077363,-0.18468442698193382,-0.984485895366193,-0.08942957845576223
11483,7.0,299.74418,3175.7434,0.0,0.0,0.0,0.0,-0.1144488744510145,0.0,-0.3144772558289887,-0.26418974455849775,-0.38667970503231563,-0.22408873038583577,-0.9949878577501561,-0.08055882815603733
11484,7.0,299.9386,3083.522,0.0,0.0,0.0,0.0,-0.11445884126059833,0.0,-0.2750022478331087,-0.2567938902235838,-0.4055175645314676,-0.26016674649395877,-0.9711490010574442,-0.07740694045422022
11485,7.0,299.3953,2997.0577,0.0,0.0,0.0,0.0,-0.11446880807018213,0.0,-0.25168261088913974,-0.25106134672282576,-0.4082867365247636,-0.2197316029683208,-0.9112874314470671,-0.08951388897008301
11486,7.0,300.01751,2895.765,0.0,0.0,0.0,0.0,-0.11447877487976596,0.0,-0.2318611895179178,-0.2451416559285978,-0.40323741743393465,-0.25248952273877573,-0.9023813785006082,-0.07968834499512734
11487,7.0,300.05166,3092.5937,0.0,0.0,0.0,0.0,-0.11448874168934978,0.0,-0.27540395083525376,-0.2263504869940538,-0.4383168249060026,-0.24438492022391375,-0.9632193057748442,-0.09984800546173091
11488,7.0,299.73612,3411.5413,0.0,0.0,0.0,0.0,-0.1144987084989336,0.0,-0.3274104003703907,-0.2815513087944507,-0.42806164971639565,-0.2387355848213678,-0.9803706206150471,-0.08918978268709622
11489,7.0,300.38942000000003,3325.6711,0.0,0.0,0.0,0.0,-0.11450867530851741,0.0,-0.3526641291052397,-0.2353623029859508,-0.4228945605664436,-0.2050122403556328,-0.9588333209944812,-0.09194774306803573
11490,7.0,299.92132000000004,3092.9349,0.0,0.0,0.0,0.0,-0.11451864211810124,0.0,-0.2938702616552367,-0.24235681908875575,-0.40394789827155364,-0.2086714715017708,-0.98682870184991,-0.0872771991560889
11491,7.0,300.76972,3027.0475,0.0,0.0,0.0,0.0,-0.11452860892768507,0.0,-0.25424841345486476,-0.23895954349097076,-0.42693889767808857,-0.2116051446488018,-0.991543800395254,-0.07586703436299333
11492,7.0,301.31593,3101.9431,0.0,0.0,0.0,0.0,-0.11453857573726887,0.0,-0.25735404527636674,-0.24929774439377175,-0.4362614572106536,-0.2028718508443928,-0.9768308009931941,-0.06907066235699365
11493,7.0,300.84106,3096.9429,0.0,0.0,0.0,0.0,-0.1145485425468527,0.0,-0.24836034619625774,-0.26683068975163876,-0.42620226485538854,-0.1864008321213298,-0.9593052219635541,-0.08418554207996612
11494,7.0,300.04758,3002.5159999999996,0.0,0.0,0.0,0.0,-0.11455850935643652,0.0,-0.26172774946551774,-0.27140465269055375,-0.3795574890194076,-0.2059804920186918,-0.9794229379290181,-0.1065381209694939
11495,7.0,300.19641,2950.6648,0.0,0.0,0.0,0.0,-0.11456847616602034,0.0,-0.2720958311137677,-0.22685073870092481,-0.39798184115274965,-0.23819905876091677,-1.004425492096578,-0.06853772218864652
11496,7.0,299.5647,3055.3541,0.0,0.0,0.0,0.0,-0.11457844297560417,0.0,-0.2705393472376547,-0.26776616277396276,-0.39044584419650463,-0.23207428614644876,-0.9748894239340952,-0.1123613300891999
11497,7.0,299.81554,3344.1338,0.0,0.0,0.0,0.0,-0.11458840978518799,0.0,-0.2801072652819347,-0.29488688587806977,-0.44153903115150955,-0.21410183342520578,-0.9080648502990232,-0.09616835124657731
11498,7.0,300.09783,3321.2142,0.0,0.0,0.0,0.0,-0.1145983765947718,0.0,-0.28150566187744575,-0.27304414201485877,-0.45501639232162155,-0.22504821743552977,-0.9532112825496291,-0.12340966732458587
11499,7.0,300.6248,3250.2842,0.0,0.0,0.0,0.0,-0.11460834340435562,0.0,-0.2531480238462647,-0.29071986444431674,-0.44413735904544455,-0.24458386174854777,-0.971145201369569,-0.1018868977104539
11500,7.0,300.57277999999997,3144.3092,0.0,0.0,0.0,0.0,-0.11461831021393945,0.0,-0.3000655058141597,-0.24236391183945577,-0.4133620556131586,-0.2180479359396558,-0.9805589128811301,-0.10892121427718689
11501,7.0,300.91465,3187.1164,0.0,0.0,0.0,0.0,-0.11462827702352328,0.0,-0.3110798991711957,-0.2706901897800417,-0.38703370421975264,-0.19929423699380983,-0.961622676929769,-0.08912584863228641
11502,7.0,301.01878999999997,3092.8274,0.0,0.0,0.0,0.0,-0.11463824383310708,0.0,-0.2975823135290877,-0.2608409935080018,-0.3817189946627316,-0.20367536830619382,-0.976141730130188,-0.07595899491556912
11503,7.0,301.44881000000004,3067.3958,0.0,0.0,0.0,0.0,-0.11464821064269091,0.0,-0.25731169142218674,-0.2517162305274578,-0.4233838286422306,-0.2186778937918278,-1.022869491149359,-0.08015630746106163
11504,7.0,300.32471,2994.9749,0.0,0.0,0.0,0.0,-0.11465817745227473,0.0,-0.24287179331957978,-0.24918283169993077,-0.41834296005723565,-0.20795901482645682,-0.9890826462998571,-0.07552879729411192
11505,7.0,298.97006,3159.1456,0.0,0.0,0.0,0.0,-0.11466814426185855,0.0,-0.26377511248507673,-0.2596244347754368,-0.43690183127385357,-0.2016275695890918,-0.9601553691949571,-0.08346829982442983
11506,7.0,299.67224,3299.4633,0.0,0.0,0.0,0.0,-0.11467811107144238,0.0,-0.2969851748476547,-0.27907838073289176,-0.4268909000208516,-0.2042443791648508,-0.98188505461201,-0.08200898460640663
11507,7.0,299.99325,3226.6012,0.0,0.0,0.0,0.0,-0.1146880778810262,0.0,-0.3240766352888737,-0.24437137307007678,-0.4123581983415856,-0.2565670539236968,-0.9853680815657581,-0.08576943943753461
11508,7.0,300.17635,3186.3961,0.0,0.0,0.0,0.0,-0.11469804469061003,0.0,-0.3184236521859677,-0.2269670192824008,-0.42319417862101355,-0.25375608536377575,-0.9844640496940371,-0.07636176892306984
11509,7.0,299.62445,3068.7717,0.0,0.0,0.0,0.0,-0.11470801150019383,0.0,-0.2800657422928367,-0.25190185794577774,-0.4008623794645366,-0.24212839198621178,-0.9313947717315071,-0.1083015409135299
11510,7.0,301.15051,3110.5182,0.0,0.0,0.0,0.0,-0.11471797830977766,0.0,-0.25859157828600177,-0.26469396820576074,-0.42223432680128353,-0.2682887059830337,-0.9504746662820461,-0.10055422355617921
11511,7.0,301.33139,3190.3825,0.0,0.0,0.0,0.0,-0.11472794511936149,0.0,-0.26759591649216075,-0.27435147782388275,-0.42784922183293056,-0.2186006942667088,-0.9875085622695071,-0.0893803334876521
11512,7.0,300.63532999999995,2974.4907,0.0,0.0,0.0,0.0,-0.1147379119289453,0.0,-0.2699684314688097,-0.24229469672512474,-0.39190776144078465,-0.21594411462452479,-0.9818331458093871,-0.08631260329939072
11513,7.0,299.22017999999997,2781.7516,0.0,0.0,0.0,0.0,-0.11474787873852912,0.0,-0.2619983986997288,-0.2342343631071318,-0.34935025412318566,-0.16791368887929084,-0.9436711275580892,-0.1061961287957419
11514,7.0,299.75864,2993.3652,0.0,0.0,0.0,0.0,-0.11475784554811294,0.0,-0.24432549310554877,-0.26726367178437077,-0.3983191318460376,-0.19594335811810382,-0.9947138445256131,-0.07715613268346744
11515,7.0,300.3297,3211.7803,0.0,0.0,0.0,0.0,-0.11476781235769676,0.0,-0.26157287418773273,-0.2930078642301247,-0.4217202644955496,-0.22082768626399582,-1.0000761160423282,-0.12345590192664888
11516,7.0,300.46439,3370.1507,0.0,0.0,0.0,0.0,-0.11477777916728059,0.0,-0.2773527651500867,-0.3151540866307867,-0.4319348184886476,-0.2180250060898928,-0.984671006026962,-0.07551659269665743
11517,7.0,301.00055,3277.6971,0.0,0.0,0.0,0.0,-0.1147877459768644,0.0,-0.2943961485896377,-0.2907505760548477,-0.4111913395264256,-0.2145664187285568,-0.9532524205036892,-0.1193413769805769
11518,7.0,300.4493,3128.5539,0.0,0.0,0.0,0.0,-0.11479771278644824,0.0,-0.29994715820247975,-0.27422166022107075,-0.3768334471855656,-0.24152370459153377,-0.9490891075653022,-0.06407121644933673
11519,7.0,300.94635,3006.367,0.0,0.0,0.0,0.0,-0.11480767959603204,0.0,-0.3029363371899887,-0.24545347351437174,-0.36547069844414964,-0.24565964964471979,-1.003075437663338,-0.1202331890560919
11520,7.0,300.87802999999997,3181.9320000000002,0.0,0.0,0.0,0.0,-0.11481764640561587,0.0,-0.2947995437194497,-0.25527906105908177,-0.4171492906444296,-0.22333164004361677,-0.9654254045550691,-0.05196655078594924
11521,7.0,299.022,2948.8462,0.0,0.0,0.0,0.0,-0.1148276132151997,0.0,-0.26290405177160975,-0.23423235687193378,-0.39923918320183965,-0.19639337288501682,-0.9367134430964191,-0.13461192738266287
11522,7.0,298.52462,2955.1784,0.0,0.0,0.0,0.0,-0.1148375800247835,0.0,-0.24292075356441178,-0.2403370063394158,-0.4150426828915236,-0.21754603263512182,-0.967436533751052,-0.08138653899047602
11523,7.0,299.10946,3114.0491,0.0,0.0,0.0,0.0,-0.11484754683436733,0.0,-0.2640730586769817,-0.27485490100356674,-0.4076652190459246,-0.2332111527586488,-0.9787636059564471,-0.1105071938637109
11524,7.0,299.19999,3437.6252,0.0,0.0,0.0,0.0,-0.11485751364395115,0.0,-0.34721761597521067,-0.27684833885280374,-0.42088626847074057,-0.23185027681434078,-0.9540453495019452,-0.05089333350528095
11525,7.0,299.7801,3441.4091,0.0,0.0,0.0,0.0,-0.11486748045353497,0.0,-0.3154497023474617,-0.3072283632885787,-0.42342434851372956,-0.1871097018912898,-0.9282842763095251,-0.09013740052511882
11526,7.0,301.27265,3209.7307,0.0,0.0,0.0,0.0,-0.1148774472631188,0.0,-0.27218358870492876,-0.28147166733659074,-0.4220227399154016,-0.23221143967998478,-0.9732993406846662,-0.06256829297350974
11527,7.0,300.29991,3185.2707,0.0,0.0,0.0,0.0,-0.11488741407270261,0.0,-0.23227096812335982,-0.2971268981391417,-0.4388449004606196,-0.2187225173262318,-1.0189045421830492,-0.07559336057723383
11528,7.0,300.92766,3299.5063,0.0,0.0,0.0,0.0,-0.11489738088228645,0.0,-0.29034107102693274,-0.2922203561199037,-0.42040609938085166,-0.2186057301197058,-0.9906477934643251,-0.08384962434056363
11529,7.0,300.43104,3164.6486,0.0,0.0,0.0,0.0,-0.11490734769187025,0.0,-0.29145963834232674,-0.28696799184153576,-0.38354650267559265,-0.18531708007937184,-0.9356812350870481,-0.10744823234181489
11530,7.0,300.62462999999997,2943.2265,0.0,0.0,0.0,0.0,-0.11491731450145408,0.0,-0.3199308921072207,-0.21096378773300478,-0.3637726736615677,-0.2247835970394138,-0.9565625667253751,-0.08726093750523402
11531,7.0,300.46098,2924.4359999999997,0.0,0.0,0.0,0.0,-0.11492728131103791,0.0,-0.25480327934212577,-0.26046125776802476,-0.3736909735904277,-0.24470831925833075,-0.9949030892467899,-0.11969663259813787
11532,7.0,300.77021,2995.155,0.0,0.0,0.0,0.0,-0.11493724812062171,0.0,-0.2573301325740068,-0.2448001602473948,-0.40832202802574663,-0.24151036008771676,-0.9436230589733451,-0.1034209786268559
11533,7.0,299.46124,3280.9692,0.0,0.0,0.0,0.0,-0.11494721493020554,0.0,-0.25198957500693475,-0.29107031725640375,-0.45427280860323555,-0.2136086136740288,-0.9443111976462591,-0.10546725746880789
11534,7.0,299.52983,3368.4608,0.0,0.0,0.0,0.0,-0.11495718173978936,0.0,-0.28433700689687774,-0.3064928045109847,-0.4330981714584616,-0.2037648180250218,-0.9619571001252741,-0.1032726590772179
11535,7.0,299.28765,3081.3554,0.0,0.0,0.0,0.0,-0.11496714854937318,0.0,-0.27411568439311174,-0.2567844568651528,-0.4057549487648956,-0.2238391668862058,-1.025598680293709,-0.08190591984598491
11536,7.0,299.13367999999997,3264.1357,0.0,0.0,0.0,0.0,-0.11497711535895701,0.0,-0.3361604634639547,-0.27599629684371374,-0.38005897689140067,-0.2030863862880658,-0.973787038222798,-0.047264451226138156
11537,7.0,299.80931,3419.0234,0.0,0.0,0.0,0.0,-0.11498708216854082,0.0,-0.3247493928252697,-0.2666199641283417,-0.44792837349958853,-0.17965440017300882,-0.9428363108006991,-0.07970316580434003
11538,7.0,299.50896,3141.8439,0.0,0.0,0.0,0.0,-0.11499704897812466,0.0,-0.2913217451362177,-0.23986992844081878,-0.42385043031328057,-0.22010317191249182,-0.9868602747230261,-0.05635760586981265
11539,7.0,300.2883,2997.0642,0.0,0.0,0.0,0.0,-0.11500701578770846,0.0,-0.2130333409297538,-0.24935890416980774,-0.44864044513986456,-0.23011310004789476,-1.017462889940769,-0.08792011749029001
11540,7.0,299.83745,3100.5081,0.0,0.0,0.0,0.0,-0.11501698259729229,0.0,-0.29440406207291875,-0.23028629488748775,-0.4177866857523356,-0.23478234902621378,-0.978052122001229,-0.09427189359091151
11541,7.0,299.73044,3138.5957,0.0,0.0,0.0,0.0,-0.11502694940687612,0.0,-0.3095783030529997,-0.2521451595597897,-0.3923312594525806,-0.2183890263208188,-0.9489711044586562,-0.11510102663708688
11542,7.0,299.84508,3039.1168,0.0,0.0,0.0,0.0,-0.11503691621645992,0.0,-0.33972384115063264,-0.22012360916700877,-0.36396816000336063,-0.25333751174746577,-0.9647050749264781,-0.097565843009749
11543,7.0,300.64984,3132.4363,0.0,0.0,0.0,0.0,-0.11504688302604375,0.0,-0.2737514209821617,-0.26317214761556873,-0.4152588496678576,-0.24294379487168577,-0.9961636635636991,-0.1101432952227969
11544,7.0,299.73385,3170.2369,0.0,0.0,0.0,0.0,-0.11505684983562757,0.0,-0.2677550474203657,-0.2651420476649828,-0.43077577183175864,-0.2287703714128778,-0.9625705217358141,-0.08934510480817533
11545,7.0,299.51612,3320.367,0.0,0.0,0.0,0.0,-0.11506681664521139,0.0,-0.25852654789458374,-0.2873565732548857,-0.4634255372865396,-0.19936659318345082,-0.967761199348094,-0.09802708458777
11546,7.0,298.88872000000003,3374.2886,0.0,0.0,0.0,0.0,-0.11507678345479522,0.0,-0.29079998212972374,-0.2843982477329217,-0.45050123841851053,-0.22302697600354876,-1.003249929463059,-0.07365161874809883
11547,7.0,299.16289,3067.6754,0.0,0.0,0.0,0.0,-0.11508675026437903,0.0,-0.27362463299714873,-0.26265012116404873,-0.39622195745156263,-0.2451677167211698,-1.038541633096079,-0.09413372174102501
11548,7.0,299.3635,2810.2037,0.0,0.0,0.0,0.0,-0.11509671707396286,0.0,-0.24792032207533077,-0.23956620672334378,-0.3667452049499336,-0.2020037082912138,-0.964484682897227,-0.07970424086269613
11549,7.0,299.72407999999996,3016.1331,0.0,0.0,0.0,0.0,-0.11510668388354667,0.0,-0.26177962787063774,-0.2633457882852057,-0.39170374353314963,-0.19228091496914881,-0.9573725284578122,-0.1257717559577059
11550,7.0,300.04603,3132.8883,0.0,0.0,0.0,0.0,-0.1151166506931305,0.0,-0.25582163622262977,-0.26124020391490077,-0.43525796470911654,-0.21547156517538776,-0.946704433587453,-0.1019881720579489
11551,7.0,300.05025,2926.6749,0.0,0.0,0.0,0.0,-0.11512661750271433,0.0,-0.2051512987993568,-0.24953505769969278,-0.43494974416119764,-0.23760363247215277,-0.9955633635419541,-0.13953246238578185
11552,7.0,300.64592000000005,3152.347,0.0,0.0,0.0,0.0,-0.11513658431229813,0.0,-0.2663628519154667,-0.24907047239634175,-0.4428014597161016,-0.2220818771052748,-0.9848831907304031,-0.09140710929167932
11553,7.0,300.49995,3331.2046,0.0,0.0,0.0,0.0,-0.11514655112188196,0.0,-0.3403646205138727,-0.23850942739904776,-0.4337289601757156,-0.1970643167037338,-0.9683025079490171,-0.10302723977049691
11554,7.0,300.50293999999997,3449.2956,0.0,0.0,0.0,0.0,-0.11515651793146578,0.0,-0.3778885445146956,-0.24997394698050776,-0.4206372318611626,-0.20835362507790178,-1.008301214259082,-0.04647476462820216
11555,7.0,300.36716,3436.9811,0.0,0.0,0.0,0.0,-0.1151664847410496,0.0,-0.3344746686100797,-0.26505953870933974,-0.4452222357950136,-0.21569947552038082,-0.995590153874598,-0.07036181757517072
11556,7.0,299.68921,3231.0368,0.0,0.0,0.0,0.0,-0.11517645155063343,0.0,-0.27296951614499376,-0.26329937129812475,-0.44588561063548354,-0.2405508426405198,-0.9422155937894391,-0.049009158467327354
11557,7.0,298.90351,3056.0008,0.0,0.0,0.0,0.0,-0.11518641836021724,0.0,-0.21743736156189677,-0.27941042279066175,-0.4321001302424626,-0.19255245586344782,-0.9326935557096871,-0.09690652015642891
11558,7.0,299.39565,3121.6186,0.0,0.0,0.0,0.0,-0.11519638516980107,0.0,-0.2888976455969777,-0.24619099799715977,-0.4138054639894196,-0.23113514515876277,-0.9558555714681002,-0.06256742461817404
11559,7.0,299.3897,3037.995,0.0,0.0,0.0,0.0,-0.11520635197938488,0.0,-0.28944430415842876,-0.24672315694967975,-0.38730715002423965,-0.22596282763829476,-0.9964247477169661,-0.09277193387162701
11560,7.0,300.07495,2800.6465,0.0,0.0,0.0,0.0,-0.11521631878896871,0.0,-0.2799506573464787,-0.2245018324516058,-0.34687411405880963,-0.19846123395409881,-0.9946101181128761,-0.08597106202193322
11561,7.0,300.65289,2971.5524,0.0,0.0,0.0,0.0,-0.11522628559855254,0.0,-0.23437134438815074,-0.26632907015713275,-0.4025773153912876,-0.19692254274974183,-0.9535748164205072,-0.1138872746072989
11562,7.0,301.44467000000003,3291.2622,0.0,0.0,0.0,0.0,-0.11523625240813634,0.0,-0.2863971368676967,-0.2677495556048237,-0.4463148132453426,-0.2219551499152678,-0.9783163168323031,-0.10452507673082191
11563,7.0,301.11958,3187.0295,0.0,0.0,0.0,0.0,-0.11524621921772017,0.0,-0.24547889595938074,-0.26043629128556073,-0.4628621904959415,-0.25915225009633575,-0.9991697942253811,-0.08254287115034713
11564,7.0,302.28816,2991.2793,0.0,0.0,0.0,0.0,-0.11525618602730399,0.0,-0.26155172765814577,-0.26535728225122474,-0.3823652050465076,-0.25393512665644574,-0.9576346967886862,-0.0964985420964146
11565,7.0,300.57795,3139.1244,0.0,0.0,0.0,0.0,-0.1152661528368878,0.0,-0.30057445120688875,-0.26424174455362975,-0.3893992379032126,-0.21442535404963478,-0.967242921921944,-0.08492184356988342
11566,7.0,300.49682,3345.3315,0.0,0.0,0.0,0.0,-0.11527611964647164,0.0,-0.3662227022708666,-0.26963746345614575,-0.38103708747793263,-0.2041271562607818,-0.9993358152542661,-0.1027112171968079
11567,7.0,299.95204,3163.7805,0.0,0.0,0.0,0.0,-0.11528608645605545,0.0,-0.28571915096078476,-0.24007016692558078,-0.43592094438204765,-0.2117872662217758,-1.002396853938867,-0.07188883107212524
11568,7.0,300.05268,2991.6502,0.0,0.0,0.0,0.0,-0.11529605326563928,0.0,-0.25196581429208975,-0.2512972516111078,-0.4061238933913076,-0.1954275631546988,-0.9696625732932451,-0.1048170143496339
11569,7.0,299.75051,3101.9867,0.0,0.0,0.0,0.0,-0.11530602007522309,0.0,-0.21687166403106678,-0.26092022966582173,-0.46513460649521154,-0.2090670950033158,-0.9371524033047411,-0.06506525735394093
11570,7.0,300.56466,3293.7359,0.0,0.0,0.0,0.0,-0.11531598688480692,0.0,-0.3206224758304747,-0.26842167479365675,-0.4121693082579436,-0.2300261530568138,-0.9849224237742752,-0.09198738647819822
11571,7.0,299.87317,3370.5075,0.0,0.0,0.0,0.0,-0.11532595369439075,0.0,-0.3382456916397507,-0.26060278854199276,-0.4257016382459806,-0.24838012483820976,-1.009856958462622,-0.04474762815699705
11572,7.0,300.43144,3223.2092,0.0,0.0,0.0,0.0,-0.11533592050397455,0.0,-0.34872455192143365,-0.26695187446359875,-0.36409868688124264,-0.2107594557178388,-0.9664001308862671,-0.08471229432995252
11573,7.0,299.96664,3066.9846,0.0,0.0,0.0,0.0,-0.11534588731355838,0.0,-0.25670160340447573,-0.27027144391121477,-0.40531368847884663,-0.23924674923181577,-0.970213244325092,-0.08038704578708372
11574,7.0,300.62458,3130.8094,0.0,0.0,0.0,0.0,-0.1153558541231422,0.0,-0.2718639184308797,-0.26421503528099377,-0.4156089275774076,-0.2181467075594038,-0.9871028467969661,-0.1216801912588999
11575,7.0,300.24482,3316.6641,0.0,0.0,0.0,0.0,-0.11536582093272602,0.0,-0.26328004861871773,-0.2753966149045297,-0.4695064057741745,-0.26256543372069074,-0.9810891567909611,-0.07455499200725484
11576,7.0,299.92588,2830.8159,0.0,0.0,0.0,0.0,-0.11537578774230985,0.0,-0.28431184789689473,-0.2137601958889888,-0.36242531447359366,-0.1964469940803088,-0.9382180586999131,-0.10487264178012391
11577,7.0,299.49503,2633.4317,0.0,0.0,0.0,0.0,-0.11538575455189366,0.0,-0.24447144164995277,-0.2295020595750898,-0.32652397878540773,-0.22071625915049878,-0.958273733361754,-0.08861265265538792
11578,7.0,299.49948,2914.9999,0.0,0.0,0.0,0.0,-0.1153957213614775,0.0,-0.28527536768198675,-0.23354347852644677,-0.36726834597656366,-0.2253645946467538,-1.000202559522307,-0.11654405689950288
11579,7.0,299.16116,3307.9815,0.0,0.0,0.0,0.0,-0.1154056881710613,0.0,-0.2768360987915957,-0.27151115540856474,-0.4571965417667856,-0.23872644530546577,-1.025811564139719,-0.06918846585336993
11580,7.0,299.50015,3257.28,0.0,0.0,0.0,0.0,-0.11541565498064513,0.0,-0.22469774435844075,-0.3096713700746847,-0.45576266115277253,-0.20771122451450183,-0.9780135171724191,-0.10921112539579889
11581,7.0,299.78564,3120.1505,0.0,0.0,0.0,0.0,-0.11542562179022894,0.0,-0.21356221695194982,-0.2716252169723217,-0.4632604180502436,-0.1968030704304508,-0.9597477994747332,-0.0989257594062123
11582,7.0,299.50802999999996,3209.3014,0.0,0.0,0.0,0.0,-0.11543558859981276,0.0,-0.27609246441070473,-0.2956797034188147,-0.4037753215145216,-0.2174722680278418,-0.9899039361684121,-0.09778108468874172
11583,7.0,299.91808,3235.0031,0.0,0.0,0.0,0.0,-0.11544555540939658,0.0,-0.3169041722035067,-0.26520460572615673,-0.4012513864429286,-0.20754404838050278,-0.9511409998128081,-0.08803839113471272
11584,7.0,300.24541,3228.3645,0.0,0.0,0.0,0.0,-0.11545552221898041,0.0,-0.3110848539641847,-0.2881748436381427,-0.3820824981361067,-0.22284854266093876,-0.9351408384112152,-0.09338551456243273
11585,7.0,299.86514,3063.4215,0.0,0.0,0.0,0.0,-0.11546548902856421,0.0,-0.2724449464357227,-0.24069037731179074,-0.4180683084851296,-0.23670869958632976,-0.9387359510910251,-0.09476131568071372
11586,7.0,299.37356,3073.0129,0.0,0.0,0.0,0.0,-0.11547545583814804,0.0,-0.2269737472630648,-0.2663592042151067,-0.44078623698971453,-0.25918173567424574,-0.9945122685507191,-0.1126535615505409
11587,7.0,300.62392,3219.5655,0.0,0.0,0.0,0.0,-0.11548542264773187,0.0,-0.2659203757292977,-0.23976438831040278,-0.4729827554097635,-0.2273336435660838,-0.993263832970008,-0.09849675944637332
11588,7.0,301.4065,3452.704,0.0,0.0,0.0,0.0,-0.11549538945731568,0.0,-0.34472300436151165,-0.25721389252253474,-0.44759889496457156,-0.19588031369688183,-0.9751127746536381,-0.07479390827483402
11589,7.0,301.30924,3332.1444,0.0,0.0,0.0,0.0,-0.1155053562668995,0.0,-0.3363092896386427,-0.2661571824101688,-0.41042224217052165,-0.20997130926005483,-0.96682714487591,-0.08546630236536733
11590,7.0,301.18122,3111.0364,0.0,0.0,0.0,0.0,-0.11551532307648332,0.0,-0.3203299505266047,-0.25277011195646776,-0.3725773205380186,-0.19103167892085882,-0.9950715015459112,-0.08430138088439851
11591,7.0,301.07232999999997,3168.2548,0.0,0.0,0.0,0.0,-0.11552528988606715,0.0,-0.2727663696324447,-0.25979060779183677,-0.4305133704533616,-0.19324624847191982,-0.9812380133631521,-0.07895683415168282
11592,7.0,300.68326,3267.8121,0.0,0.0,0.0,0.0,-0.11553525669565096,0.0,-0.25929214953764274,-0.28098631040618977,-0.45305482118802953,-0.18334594386483583,-0.9723382425673132,-0.08946047650431162
11593,7.0,300.59699,3225.0033,0.0,0.0,0.0,0.0,-0.11554522350523479,0.0,-0.23712414225983078,-0.28821676179477973,-0.4549795606804866,-0.21831614324112578,-0.9863631640914651,-0.11101888516421089
11594,7.0,299.97146000000004,2976.5490000000004,0.0,0.0,0.0,0.0,-0.1155551903148186,0.0,-0.27196621616097577,-0.26618559394297275,-0.3666447614675207,-0.2665324902472087,-0.996940492017866,-0.1018545041047569
11595,7.0,300.04311,2884.0322,0.0,0.0,0.0,0.0,-0.11556515712440242,0.0,-0.2899939720726767,-0.22273191757442878,-0.3639478747363587,-0.23594910651636375,-0.9722104109346972,-0.08339247629294662
11596,7.0,300.4623,3032.7177,0.0,0.0,0.0,0.0,-0.11557512393398625,0.0,-0.3090439453477627,-0.24448676199146474,-0.3683397566323036,-0.24871384889114576,-0.9566640943853951,-0.1001222162700434
11597,7.0,300.87471,3248.8813,0.0,0.0,0.0,0.0,-0.11558509074357007,0.0,-0.2846459975148727,-0.25725663141175276,-0.4456761617073126,-0.20873859932089578,-0.955909466240919,-0.0998008173913238
11598,7.0,299.83351,3321.9586,0.0,0.0,0.0,0.0,-0.11559505755315388,0.0,-0.27074523965797476,-0.28960718411200376,-0.4494400413237786,-0.2281633130129658,-0.992492212621355,-0.12556528598482888
11599,7.0,299.46328,3080.925,0.0,0.0,0.0,0.0,-0.1156050243627377,0.0,-0.25116710976826373,-0.23684557954233879,-0.44851159012464753,-0.19639601746777782,-0.9746573592636921,-0.0963751890292406
11600,7.0,299.01442000000003,3130.1114,0.0,0.0,0.0,0.0,-0.11561499117232153,0.0,-0.3002321550581067,-0.26683681991474373,-0.3844067520104926,-0.19400973242226982,-0.9636108053484821,-0.10658429477655089
11601,7.0,298.62597,3246.4829,0.0,0.0,0.0,0.0,-0.11562495798190536,0.0,-0.32790410648161566,-0.26565312088292176,-0.39329250955744866,-0.1960200206206698,-0.9689922576895901,-0.07781908601189583
11602,7.0,298.97039,3204.7009999999996,0.0,0.0,0.0,0.0,-0.11563492479148917,0.0,-0.33061976873713067,-0.2758807458023097,-0.3676485579440877,-0.24263489544619976,-1.003896646471885,-0.088633374633183
11603,7.0,300.66577,3064.0956,0.0,0.0,0.0,0.0,-0.115644891601073,0.0,-0.22651157349495177,-0.27894390217961973,-0.4259530661257946,-0.23770578834723477,-0.9937614299616171,-0.05204749832318815
11604,7.0,300.95074,2968.4647,0.0,0.0,0.0,0.0,-0.11565485841065681,0.0,-0.24711047180040477,-0.2229378302597508,-0.43229084417628455,-0.19670007355778582,-0.9660770966218861,-0.07740987786626014
11605,7.0,300.54925,3218.3,0.0,0.0,0.0,0.0,-0.11566482522024063,0.0,-0.2311895566891328,-0.27932102373433876,-0.46777225862552757,-0.2181298572102408,-0.979114788308606,-0.07427392453551562
11606,7.0,299.48755,3271.1014,0.0,0.0,0.0,0.0,-0.11567479202982446,0.0,-0.3272324128578247,-0.2650396080798727,-0.40206113539284466,-0.2024090488612178,-1.0085705867981671,-0.11457058007723589
11607,7.0,299.74302,3388.8711,0.0,0.0,0.0,0.0,-0.11568475883940828,0.0,-0.36460646703635663,-0.2520819124885478,-0.4134438046312266,-0.23127161981473177,-0.972395612787975,-0.07324782743749772
11608,7.0,300.09977000000003,3096.7827,0.0,0.0,0.0,0.0,-0.1156947256489921,0.0,-0.3253476460818127,-0.2533850433096568,-0.36261192474451065,-0.2071873539477998,-0.9511107745623251,-0.11206732544018388
11609,7.0,300.43709,3011.3593,0.0,0.0,0.0,0.0,-0.11570469245857591,0.0,-0.23593826474029375,-0.25930235296614973,-0.4201374158518346,-0.2336035642573768,-0.9609776723136121,-0.11066463266424889
11610,7.0,299.15808,3350.9632,0.0,0.0,0.0,0.0,-0.11571465926815974,0.0,-0.27779116807085374,-0.29275782450294774,-0.4480601669400956,-0.25987951035561074,-1.000408360750118,-0.11948586644483689
11611,7.0,299.67633,3455.4287,0.0,0.0,0.0,0.0,-0.11572462607774357,0.0,-0.29740298852638974,-0.2991828839170517,-0.4537781703019185,-0.2332615416861218,-1.004021843654241,-0.08303830687949283
11612,7.0,301.17652000000004,2950.5687,0.0,0.0,0.0,0.0,-0.11573459288732738,0.0,-0.27922640644000074,-0.23634120390756078,-0.38133160888449963,-0.2114137721024148,-0.987818981570143,-0.08755642859214671
11613,7.0,301.2625,2771.2766,0.0,0.0,0.0,0.0,-0.1157445596969112,0.0,-0.25691156909019774,-0.2317213508716168,-0.35376597779398367,-0.19803357148439182,-0.996951242601427,-0.07276303083440203
11614,7.0,300.8174,3286.3555,0.0,0.0,0.0,0.0,-0.11575452650649502,0.0,-0.30498896911006773,-0.27756253831828975,-0.4164185042748066,-0.20928917916023382,-1.0188094993236692,-0.07184491985254152
11615,7.0,299.46926,3548.3294,0.0,0.0,0.0,0.0,-0.11576449331607884,0.0,-0.28059433460500477,-0.29239282141942474,-0.5056163899229525,-0.2057779433237018,-0.966221282111116,-0.06998322782105684
11616,7.0,299.5995,3343.7883,0.0,0.0,0.0,0.0,-0.11577446012566267,0.0,-0.25508446637737675,-0.29453675730601475,-0.46680693525525757,-0.2049388709158918,-0.9626620790148501,-0.1000156405980252
11617,7.0,300.03907000000004,3167.0171,0.0,0.0,0.0,0.0,-0.11578442693524649,0.0,-0.24799062136726877,-0.26813570521793373,-0.44656779139780955,-0.22093309467189878,-0.960372417498878,-0.11432106724011089
11618,7.0,300.25641,3158.4822,0.0,0.0,0.0,0.0,-0.1157943937448303,0.0,-0.3067920476630177,-0.27525664453571574,-0.37805103943323265,-0.24268942856658177,-0.9965608474703981,-0.11902294287164988
11619,7.0,299.61306,3262.8661,0.0,0.0,0.0,0.0,-0.11580436055441412,0.0,-0.34873452230241764,-0.2723034561917588,-0.37079184213930566,-0.2268901946598188,-0.9855030667440802,-0.1175857083998059
11620,7.0,300.0194,3457.8301,0.0,0.0,0.0,0.0,-0.11581432736399795,0.0,-0.3564376143326537,-0.2654121294791377,-0.42924425443810954,-0.2155080320464868,-0.957081756076615,-0.051419920595501045
11621,7.0,299.83389,3134.7975,0.0,0.0,0.0,0.0,-0.11582429417358178,0.0,-0.25492836506697075,-0.26787046673925674,-0.4301013424326976,-0.2135318903764568,-0.966567418477777,-0.10821707638519389
11622,7.0,299.21135,2963.0972,0.0,0.0,0.0,0.0,-0.11583426098316559,0.0,-0.2059913033972588,-0.2562716104595388,-0.4384446464061175,-0.20930745819203778,-1.005061985411895,-0.06041237844423754
11623,7.0,299.158,3314.5953,0.0,0.0,0.0,0.0,-0.11584422779274942,0.0,-0.27706553914423976,-0.29103997041590873,-0.43944868606270865,-0.2097795618111308,-0.968736523496851,-0.1068991723776269
11624,7.0,299.07707,3577.1742,0.0,0.0,0.0,0.0,-0.11585419460233323,0.0,-0.3353492756988967,-0.3103907472481817,-0.4416316118131466,-0.2039040081912588,-0.959098296028132,-0.057722104183228144
11625,7.0,300.66852,3083.4240000000004,0.0,0.0,0.0,0.0,-0.11586416141191705,0.0,-0.2979823750660707,-0.25413633786130374,-0.3851652001078456,-0.2268007348084898,-0.9744030740185962,-0.11207922099635789
11626,7.0,301.42695,2861.8817,0.0,0.0,0.0,0.0,-0.11587412822150088,0.0,-0.24972349182078973,-0.24422839334846574,-0.3759886904446947,-0.26133038317380075,-1.006669496563044,-0.06489630803226694
11627,7.0,301.41967,3027.8432,0.0,0.0,0.0,0.0,-0.1158840950310847,0.0,-0.23639311271018376,-0.24637871271068576,-0.4376168920019246,-0.24254683388000878,-0.975551157309403,-0.1032371750587159
11628,7.0,300.49015,3187.657,0.0,0.0,0.0,0.0,-0.11589406184066851,0.0,-0.2640871833833757,-0.2577084801613468,-0.4471724889249885,-0.22363477407603377,-0.961145051097631,-0.08689928118679131
11629,7.0,299.71813,3347.6807,0.0,0.0,0.0,0.0,-0.11590402865025233,0.0,-0.2924289336529887,-0.3061696486565917,-0.4190127690358406,-0.1990557280527708,-0.9602805157148081,-0.14208222520242386
11630,7.0,300.05838,3348.6449,0.0,0.0,0.0,0.0,-0.11591399545983616,0.0,-0.3546500891687387,-0.26202482426233675,-0.4012295205057706,-0.2264533622767068,-1.004324602784121,-0.1089048908180759
11631,7.0,299.77436,3111.0633,0.0,0.0,0.0,0.0,-0.11592396226941999,0.0,-0.3144525426590497,-0.24546262316277478,-0.38577040426007464,-0.1879212138963798,-0.9708334547113021,-0.09413161215431681
11632,7.0,299.46808,3159.5479,0.0,0.0,0.0,0.0,-0.1159339290790038,0.0,-0.3017212578025697,-0.2590086117621597,-0.3996938082567076,-0.2084816593605378,-0.9727063360636411,-0.06561749385719244
11633,7.0,299.33196,3445.5204,0.0,0.0,0.0,0.0,-0.11594389588858763,0.0,-0.2673968027150097,-0.27737188517947375,-0.5025834891936285,-0.21670564300218179,-0.980118929290207,-0.059671742270392444
11634,7.0,300.26187000000004,3286.0256,0.0,0.0,0.0,0.0,-0.11595386269817144,0.0,-0.2601972149244658,-0.27131904318960476,-0.4673534722266966,-0.24979336554768575,-1.018732492316069,-0.07255089476696584
11635,7.0,300.22357999999997,2906.7648,0.0,0.0,0.0,0.0,-0.11596382950775526,0.0,-0.2088061628375638,-0.26958259596323075,-0.4051951686146496,-0.2264741845662618,-0.979349274646748,-0.1033262397425059
11636,7.0,300.66441000000003,3054.7870000000003,0.0,0.0,0.0,0.0,-0.11597379631733909,0.0,-0.2978870180991597,-0.26230427863991673,-0.36838766309703164,-0.1900854553149738,-0.9565778668018851,-0.11361959419588089
11637,7.0,299.74724,3392.2227,0.0,0.0,0.0,0.0,-0.1159837631269229,0.0,-0.3046259114667367,-0.3085861082900777,-0.41793899750736757,-0.2077541457887378,-0.9699737829289592,-0.09654958051720172
11638,7.0,299.82399,3429.7187,0.0,0.0,0.0,0.0,-0.11599372993650672,0.0,-0.33950576946411065,-0.2475984023860598,-0.4554446931388915,-0.1943831049516188,-1.0100275492494581,-0.08285424493257733
11639,7.0,300.50782000000004,3290.1362,0.0,0.0,0.0,0.0,-0.11600369674609054,0.0,-0.2526735086919338,-0.2814391217433787,-0.4660066297962736,-0.22708143548369278,-0.9938896364967701,-0.06770515991272903
11640,7.0,300.46962,3001.6061,0.0,0.0,0.0,0.0,-0.11601366355567437,0.0,-0.24514089599102276,-0.2377244220165738,-0.42954799642058655,-0.2260474948166508,-0.9775983886064491,-0.09333813093475632
11641,7.0,300.11765,3196.2275,0.0,0.0,0.0,0.0,-0.1160236303652582,0.0,-0.27656227808457173,-0.2751078386260297,-0.41990321322372054,-0.25608711788133076,-0.9954397976922591,-0.10328748292618091
11642,7.0,299.43632,3436.7819,0.0,0.0,0.0,0.0,-0.116033597174842,0.0,-0.36725548783279466,-0.27912338930233377,-0.39831698375582564,-0.24062214505005677,-0.9995482532702321,-0.0992806228959846
11643,7.0,298.8943,3291.3575,0.0,0.0,0.0,0.0,-0.11604356398442583,0.0,-0.3209042404182827,-0.26575942095091276,-0.4138268233015276,-0.2291971320899958,-0.9724624974270761,-0.07704258889051152
11644,7.0,298.93806,2925.3484,0.0,0.0,0.0,0.0,-0.11605353079400965,0.0,-0.26124361856773776,-0.24449562792983975,-0.3834936110203726,-0.2021305874687358,-0.9576660366142791,-0.07365468686940163
11645,7.0,299.20964,2960.5606,0.0,0.0,0.0,0.0,-0.11606349760359347,0.0,-0.2052264211617708,-0.27410412320947075,-0.4206059629630766,-0.2108478212590598,-0.9824628807465371,-0.1056997983667579
11646,7.0,298.92346000000003,3309.9674,0.0,0.0,0.0,0.0,-0.1160734644131773,0.0,-0.28124255122397873,-0.27701080337383777,-0.4478941053812066,-0.21147521558847882,-1.019761346467609,-0.10832279890062789
11647,7.0,299.92546,3412.4354,0.0,0.0,0.0,0.0,-0.11608343122276112,0.0,-0.32082670652063067,-0.2989168044407917,-0.41755164212663853,-0.21728778558213477,-1.0058131279760272,-0.13006489663140586
11648,7.0,300.3904,3079.1129,0.0,0.0,0.0,0.0,-0.11609339803234495,0.0,-0.32017547041635874,-0.2509234028542118,-0.3648745831453177,-0.22087898711655882,-0.972579922981165,-0.11661391036139689
11649,7.0,300.15269,2886.5677,0.0,0.0,0.0,0.0,-0.11610336484192875,0.0,-0.2712799317357448,-0.23417842156911076,-0.37198613976717365,-0.22609558366639682,-0.9910721730037081,-0.1170499017469259
11650,7.0,300.85354,3074.4979,0.0,0.0,0.0,0.0,-0.11611333165151258,0.0,-0.27045676735450475,-0.2255978448197738,-0.4385159690806566,-0.2362247308085658,-0.997962202756201,-0.05707435771230054
11651,7.0,299.88905,3293.1044,0.0,0.0,0.0,0.0,-0.11612329846109641,0.0,-0.27209989424666875,-0.26468650055252374,-0.4642351038514375,-0.24955452223411376,-0.9922735735147771,-0.07972457273920272
11652,7.0,299.21615,3354.0884,0.0,0.0,0.0,0.0,-0.11613326527068021,0.0,-0.29294118224104376,-0.27935982108066776,-0.4472581288234406,-0.21543517936429682,-0.9493735066033702,-0.07283725545722743
11653,7.0,299.78258999999997,3164.5559999999996,0.0,0.0,0.0,0.0,-0.11614323208026404,0.0,-0.29718753102512574,-0.3009751713564367,-0.36378329252261565,-0.2114357798945868,-0.9716565177675321,-0.13347388540034685
11654,7.0,299.97876,3116.7384,0.0,0.0,0.0,0.0,-0.11615319888984786,0.0,-0.3042264680123147,-0.26243679148799476,-0.38074738914184164,-0.19814716695310283,-0.993543216420081,-0.09187370994947922
11655,7.0,300.82631000000003,3403.9573,0.0,0.0,0.0,0.0,-0.11616316569943168,0.0,-0.3239601824548807,-0.29023879356183874,-0.42051905650199956,-0.20602279521036682,-0.994883047159812,-0.1003897558396975
11656,7.0,300.10839,3473.973,0.0,0.0,0.0,0.0,-0.11617313250901551,0.0,-0.3065251879841807,-0.2901161700347367,-0.45935966861026956,-0.21122000828579182,-0.963545400054527,-0.048075279287410656
11657,7.0,300.25807000000003,2981.8526,0.0,0.0,0.0,0.0,-0.11618309931859933,0.0,-0.2242124380905448,-0.2576491239704887,-0.4245471613470426,-0.22339060106693578,-1.0007514371014772,-0.1060127305276419
11658,7.0,301.24445,2903.5348,0.0,0.0,0.0,0.0,-0.11619306612818316,0.0,-0.23329717769213879,-0.26111273705232074,-0.3881921530590826,-0.25326472999278277,-1.0106805585414051,-0.09210768459632072
11659,7.0,301.50394,3245.3404,0.0,0.0,0.0,0.0,-0.11620303293776696,0.0,-0.3133319285784537,-0.2548469402889348,-0.4183235664503216,-0.22872244468314779,-0.9829622813233241,-0.10082607957125932
11660,7.0,299.53121,3691.0407,0.0,0.0,0.0,0.0,-0.11621299974735079,0.0,-0.3796075334418466,-0.3067433913932157,-0.43563328267865753,-0.21418215376063277,-0.9480742666626452,-0.08252287972587412
11661,7.0,300.11147,3519.2729999999997,0.0,0.0,0.0,0.0,-0.11622296655693462,0.0,-0.3302273876359057,-0.28068013662347274,-0.45886360162631157,-0.20920321502174982,-0.9521268718951061,-0.08069069353730142
11662,7.0,299.52477000000005,3008.6363,0.0,0.0,0.0,0.0,-0.11623293336651842,0.0,-0.2597675462195607,-0.2397562113820958,-0.4150265519499316,-0.2269857036142448,-0.970651100090805,-0.07413478604503372
11663,7.0,299.54177999999996,2903.321,0.0,0.0,0.0,0.0,-0.11624290017610225,0.0,-0.24564171511794977,-0.22718377374379278,-0.40971159921288663,-0.2170797552041038,-0.97775676972958,-0.08597996443731182
11664,7.0,299.89862999999997,3365.4751,0.0,0.0,0.0,0.0,-0.11625286698568607,0.0,-0.3233624054258847,-0.2789397275892077,-0.42071826147165964,-0.22730933569618478,-0.951547059790383,-0.11481443897880289
11665,7.0,299.11847,3455.6126,0.0,0.0,0.0,0.0,-0.11626283379526989,0.0,-0.31297296446552675,-0.3168731059554407,-0.4205738631999086,-0.2218930984791438,-0.9954318740764772,-0.13543721958911287
11666,7.0,299.07697,3099.0779,0.0,0.0,0.0,0.0,-0.11627280060485372,0.0,-0.25551935332029674,-0.2815609346704008,-0.4049619995016376,-0.23269894470059777,-0.9946699606637821,-0.10767114736381489
11667,7.0,298.87455,2927.8458,0.0,0.0,0.0,0.0,-0.11628276741443754,0.0,-0.2207245374038158,-0.2375130783107158,-0.43175439917584163,-0.2079893717994528,-1.0021172678387742,-0.07006979990960084
11668,7.0,299.77377,3117.5258,0.0,0.0,0.0,0.0,-0.11629273422402137,0.0,-0.26273580159250476,-0.2363113839571178,-0.44860281303115057,-0.1994893281680638,-0.962737454689789,-0.06946899427605593
11669,7.0,299.46218999999996,3614.5255,0.0,0.0,0.0,0.0,-0.11630270103360517,0.0,-0.3019622086763497,-0.2991040023967667,-0.49765929635764855,-0.22238686538537478,-0.9974284631335251,-0.07136835185350794
11670,7.0,300.43172000000004,3611.0133,0.0,0.0,0.0,0.0,-0.116312667843189,0.0,-0.3442987058821366,-0.2967142216384137,-0.45664493854484656,-0.22943061531053877,-0.974195236158084,-0.10493559500883691
11671,7.0,299.89782,3276.37,0.0,0.0,0.0,0.0,-0.11632263465277283,0.0,-0.3160120460204607,-0.27687441991037776,-0.4030481929777596,-0.23520216894014678,-0.98248560794628,-0.0993246475995795
11672,7.0,300.56566000000004,3251.5408,0.0,0.0,0.0,0.0,-0.11633260146235663,0.0,-0.33384711216064467,-0.24540506042459378,-0.4091350497734856,-0.22756407690382577,-0.940673285282225,-0.12229827381989988
11673,7.0,300.14979,3484.8068,0.0,0.0,0.0,0.0,-0.11634256827194046,0.0,-0.2938164074124217,-0.2853310863049857,-0.48014675785679556,-0.2298081320327968,-0.9754628221656851,-0.08902104108169272
11674,7.0,300.62719,3173.0034,0.0,0.0,0.0,0.0,-0.11635253508152428,0.0,-0.26676636863529074,-0.24692973838006776,-0.4508176865572415,-0.24300253297998278,-1.00927198891489,-0.07551180508993494
11675,7.0,300.10893,2929.3938,0.0,0.0,0.0,0.0,-0.1163625018911081,0.0,-0.23073583342685378,-0.23240932742451478,-0.42731739725294354,-0.21144658114065282,-1.0121442996358652,-0.07247785969975783
11676,7.0,299.72821,2981.9312,0.0,0.0,0.0,0.0,-0.11637246870069193,0.0,-0.2884556659033577,-0.25596332911661374,-0.36201364109046463,-0.21579747707005278,-0.971575964384582,-0.11086390856141588
11677,7.0,299.32022,3337.2641,0.0,0.0,0.0,0.0,-0.11638243551027574,0.0,-0.3172999071625627,-0.2689851837042707,-0.42815987418108964,-0.20020434836613082,-0.973813960277955,-0.13765482889047387
11678,7.0,299.46173999999996,3447.1763,0.0,0.0,0.0,0.0,-0.11639240231985958,0.0,-0.3052151569298907,-0.3018915040843717,-0.4407488683260266,-0.21916318992722278,-0.9821178488224851,-0.11595156903602889
11679,7.0,299.79537,3308.6095,0.0,0.0,0.0,0.0,-0.11640236912944338,0.0,-0.26618423618783876,-0.26314012891240873,-0.4764103170530375,-0.20850663597550279,-1.014061915980119,-0.06619651664008754
11680,7.0,299.80256,3081.1166,0.0,0.0,0.0,0.0,-0.11641233593902721,0.0,-0.2503837458509518,-0.23506373871148475,-0.45113502635606056,-0.22288489807452677,-0.991989417656733,-0.07845862414376334
11681,7.0,300.7979,3082.2487,0.0,0.0,0.0,0.0,-0.11642230274861104,0.0,-0.28126096197829575,-0.25820175057502875,-0.39746391836413464,-0.2603516646372087,-1.019994090015579,-0.08750263514433772
11682,7.0,300.95432999999997,3351.2194,0.0,0.0,0.0,0.0,-0.11643226955819484,0.0,-0.3376748164009097,-0.2863899833219907,-0.39462223819368264,-0.24460544397567774,-0.98238438426129,-0.1060439284982209
11683,7.0,301.31405,3431.7827,0.0,0.0,0.0,0.0,-0.11644223636777867,0.0,-0.36106613065695264,-0.28872595036753274,-0.3933841580289936,-0.23544176205879278,-0.9913183218505011,-0.11401706181260789
11684,7.0,301.54648,3126.8209,0.0,0.0,0.0,0.0,-0.11645220317736249,0.0,-0.27129873765760076,-0.26438086379235975,-0.4147958855646666,-0.1769649405650798,-0.9328268386278411,-0.1220323463311549
11685,7.0,300.98543,2811.5707,0.0,0.0,0.0,0.0,-0.1164621699869463,0.0,-0.2185004939643198,-0.23500652047833775,-0.4011402633044616,-0.20359055927282382,-0.978674308225134,-0.1081663530851879
11686,7.0,300.35314,3095.2102,0.0,0.0,0.0,0.0,-0.11647213679653012,0.0,-0.2148336938399348,-0.2651784132110717,-0.46085448608529656,-0.2093840092370928,-0.9757748424014792,-0.06663493577285613
11687,7.0,299.96576,3395.7511,0.0,0.0,0.0,0.0,-0.11648210360611395,0.0,-0.3276551711970477,-0.2610853590346187,-0.44348301226336556,-0.22525956114138782,-1.020984238013299,-0.07125147649422323
11688,7.0,299.77217,3446.5417,0.0,0.0,0.0,0.0,-0.11649207041569776,0.0,-0.31646842399800174,-0.3035322397062997,-0.42766194281694764,-0.24056943577985473,-0.992603751192363,-0.09517423333496551
11689,7.0,300.99611,3120.7865,0.0,0.0,0.0,0.0,-0.11650203722528159,0.0,-0.3093973872476447,-0.26863024219424075,-0.37061355065170964,-0.2231062324263708,-1.012620729832885,-0.13942345694002387
11690,7.0,300.50897000000003,2952.2263,0.0,0.0,0.0,0.0,-0.11651200403486542,0.0,-0.21997012204186078,-0.26329526763521977,-0.4141376985647086,-0.24194576378818777,-1.000427105876968,-0.09222255777340782
11691,7.0,300.08909,3169.9573,0.0,0.0,0.0,0.0,-0.11652197084444924,0.0,-0.2643030968471847,-0.25402555922787073,-0.44525919915866163,-0.2065102191709718,-1.011871613768953,-0.09425826943006692
11692,7.0,299.55921,3457.4062,0.0,0.0,0.0,0.0,-0.11653193765403305,0.0,-0.2957034236036557,-0.27946184523323675,-0.47579987439779153,-0.2208058101943368,-0.965516465341556,-0.07210419738088023
11693,7.0,299.11638999999997,3185.6118,0.0,0.0,0.0,0.0,-0.11654190446361687,0.0,-0.32724353834392267,-0.24852518172252575,-0.39257773253940564,-0.1989749416222978,-0.968324171236155,-0.1015097356257309
11694,7.0,299.04837000000003,2920.9915,0.0,0.0,0.0,0.0,-0.1165518712732007,0.0,-0.2975245278758847,-0.24928209981222776,-0.3411018410216307,-0.22536920493470877,-0.9617261905599852,-0.1060541521917299
11695,7.0,300.10642,3144.9289,0.0,0.0,0.0,0.0,-0.1165618380827845,0.0,-0.3081165580612367,-0.2593778502311007,-0.38848542816802667,-0.22035852107019277,-0.9570915136750782,-0.1099370785624449
11696,7.0,300.40533,3496.4808,0.0,0.0,0.0,0.0,-0.11657180489236833,0.0,-0.2973780524414287,-0.28814355447505474,-0.47732125929044056,-0.2236551910655488,-0.9517354432489751,-0.0984625409772462
11697,7.0,301.28315,3472.5514,0.0,0.0,0.0,0.0,-0.11658177170195215,0.0,-0.27210451466712476,-0.2880066542540437,-0.49545774707037255,-0.23105721609357177,-1.005855937792752,-0.07953101258584983
11698,7.0,301.05905,3073.6874,0.0,0.0,0.0,0.0,-0.11659173851153597,0.0,-0.23974537973852678,-0.24911262360050176,-0.4454662061540916,-0.2246977848884448,-1.012748865440531,-0.05584157988538485
11699,7.0,300.15983,3066.3481,0.0,0.0,0.0,0.0,-0.1166017053211198,0.0,-0.28239260021997975,-0.26282482574629074,-0.3868758297216716,-0.22809973156919078,-1.0284980954548588,-0.06275031018172345
11700,7.0,300.1439,3528.5885,0.0,0.0,0.0,0.0,-0.11661167213070363,0.0,-0.37188636502982664,-0.28216603749761976,-0.41855040275020866,-0.1977849604398558,-0.9781694766278111,-0.09760057114367642
11701,7.0,299.05722000000003,3588.2185,0.0,0.0,0.0,0.0,-0.11662163894028744,0.0,-0.3488185308682087,-0.3193172475816587,-0.4225930477341866,-0.1839209734290868,-0.976364959259719,-0.1071927717266029
11702,7.0,299.04758,3131.5716,0.0,0.0,0.0,0.0,-0.11663160574987125,0.0,-0.26223345245792673,-0.2546032637723858,-0.4350828750918365,-0.17890499026654783,-0.9696246169444992,-0.1282530534650909
11703,7.0,299.74757999999997,2907.426,0.0,0.0,0.0,0.0,-0.11664157255945508,0.0,-0.19473168325102083,-0.2438544027365558,-0.4451988195852026,-0.1980699370304808,-0.9766313629760109,-0.06487746968640773
11704,7.0,299.46509,2980.6668,0.0,0.0,0.0,0.0,-0.11665153936903888,0.0,-0.24910035314179074,-0.24882562050967677,-0.40812231643103664,-0.22881084062187176,-0.9622833058624681,-0.10814916836349191
11705,7.0,300.50049,3457.4128,0.0,0.0,0.0,0.0,-0.11666150617862271,0.0,-0.3429124885528277,-0.2725140906225467,-0.4355405905595096,-0.24828541635136278,-0.9803349136815231,-0.07284141383563784
11706,7.0,300.99437,3567.7635,0.0,0.0,0.0,0.0,-0.11667147298820654,0.0,-0.36977018206347567,-0.3098674441015357,-0.40487338064789163,-0.27731748378160476,-0.973654991469766,-0.1015916062338109
11707,7.0,300.73385,3281.1899,0.0,0.0,0.0,0.0,-0.11668143979779036,0.0,-0.28763877354023676,-0.28904286460130973,-0.4207181500141486,-0.2416519516566908,-0.988197916842541,-0.07499605470953433
11708,7.0,300.66867,3252.9368,0.0,0.0,0.0,0.0,-0.11669140660737418,0.0,-0.23775158725175474,-0.28728019446234776,-0.4637797796540005,-0.2151241825111038,-0.9730922424967271,-0.1049207407623709
11709,7.0,301.13542,3401.2725,0.0,0.0,0.0,0.0,-0.11670137341695799,0.0,-0.23515710970819978,-0.2948656380234727,-0.5038791624940016,-0.18829342118811382,-0.9856781968913642,-0.08394670991214521
11710,7.0,299.43874,3274.1362,0.0,0.0,0.0,0.0,-0.11671134022654182,0.0,-0.28871206884116274,-0.26854244407307576,-0.43800115696984865,-0.2028121805460038,-0.9913693389930361,-0.08432490348547002
11711,7.0,299.84153,3120.6257,0.0,0.0,0.0,0.0,-0.11672130703612565,0.0,-0.3260607715021927,-0.2407759260177338,-0.38175558312384267,-0.2178444955845778,-0.9918655376995071,-0.07992019181675883
11712,7.0,299.50203999999997,2981.7378,0.0,0.0,0.0,0.0,-0.11673127384570946,0.0,-0.3286464945648837,-0.25918314409188475,-0.3185442086828657,-0.22838090847194079,-0.973451946282227,-0.10574455362367491
11713,7.0,299.78062,3190.4097,0.0,0.0,0.0,0.0,-0.11674124065529329,0.0,-0.3012327901943617,-0.28402971853905074,-0.38454236540387665,-0.23937556371702878,-0.9724677359300932,-0.11888428972796587
11714,7.0,300.19606,3374.0978,0.0,0.0,0.0,0.0,-0.11675120746487709,0.0,-0.28260851368378875,-0.26123144943403676,-0.4818015269926086,-0.2309453938125358,-0.9810283719174622,-0.08764520753940852
11715,7.0,300.24913,3414.9189,0.0,0.0,0.0,0.0,-0.11676117427446092,0.0,-0.27747783060992975,-0.2783465507156657,-0.4822257038819715,-0.2384288740160978,-0.988883502125203,-0.06442011189602004
11716,7.0,299.92857000000004,3224.7253,0.0,0.0,0.0,0.0,-0.11677114108404475,0.0,-0.2929141689933777,-0.24926316216785874,-0.4380586386480216,-0.19773812802023383,-0.967781555542603,-0.06398312651214294
11717,7.0,300.62035,3273.0813,0.0,0.0,0.0,0.0,-0.11678110789362857,0.0,-0.34708928785004567,-0.2793717976968497,-0.36847389068054165,-0.21855290939199282,-0.9752949772866201,-0.08451441469142332
11718,7.0,299.08014,3451.5215,0.0,0.0,0.0,0.0,-0.11679107470321239,0.0,-0.3364808835430777,-0.28284493532962174,-0.4298505326354446,-0.22119939706318079,-0.9849399428685041,-0.08239360319861552
11719,7.0,299.77299,3427.2642,0.0,0.0,0.0,0.0,-0.1168010415127962,0.0,-0.30468148823472174,-0.2980292784131997,-0.43909197136500355,-0.2418215089284248,-0.995385112584362,-0.09771891267585582
11720,7.0,299.51043,3147.0679999999998,0.0,0.0,0.0,0.0,-0.11681100832238003,0.0,-0.22476627046270378,-0.28447185022018573,-0.44739196902914957,-0.22113127625895776,-0.988277740685419,-0.12259451775163689
11721,7.0,299.02477999999996,2798.9413,0.0,0.0,0.0,0.0,-0.11682097513196386,0.0,-0.2217369363737318,-0.24407089375292176,-0.38500044564158564,-0.24471336524382878,-0.9800093868218962,-0.1123001297831599
11722,7.0,299.30422999999996,2941.0712,0.0,0.0,0.0,0.0,-0.11683094194154767,0.0,-0.2587574979898768,-0.25962010819750975,-0.37563461019724964,-0.2237611364960048,-1.005755291660319,-0.0987680885714014
11723,7.0,300.83072999999996,3295.8875,0.0,0.0,0.0,0.0,-0.1168409087511315,0.0,-0.37134689041158464,-0.2608652203178927,-0.3696554010921477,-0.24392432712595674,-1.0073411091268272,-0.08752804847009582
11724,7.0,299.54128,3379.6253,0.0,0.0,0.0,0.0,-0.1168508755607153,0.0,-0.33243655656393367,-0.2845820209035587,-0.4103031244887656,-0.2083545572679938,-0.984248105832725,-0.1142574351338309
11725,7.0,300.91729,3281.4419,0.0,0.0,0.0,0.0,-0.11686084237029913,0.0,-0.28917040239139674,-0.27816827949307177,-0.43013772824378854,-0.19632864646862883,-0.9749472095872981,-0.14104344119990386
11726,7.0,299.1155,3133.9356,0.0,0.0,0.0,0.0,-0.11687080917988296,0.0,-0.21882421723876883,-0.25492203225384574,-0.4788919084029515,-0.18403802408063882,-0.998067621296605,-0.0917549357595071
11727,7.0,299.62507,3305.4724,0.0,0.0,0.0,0.0,-0.11688077598946678,0.0,-0.27106158647169576,-0.25540586930909676,-0.4783136161733786,-0.2373552342101378,-0.988243411772031,-0.07029242108907184
11728,7.0,299.87922000000003,3679.6839,0.0,0.0,0.0,0.0,-0.1168907427990506,0.0,-0.36110061155785567,-0.2866722342698467,-0.47075918819781454,-0.2321418496631168,-0.999223030385635,-0.03459663128967167
11729,7.0,299.79408,3282.4896,0.0,0.0,0.0,0.0,-0.11690070960863441,0.0,-0.35398402921550365,-0.26020069037230875,-0.3836101550468746,-0.2863341937714847,-0.9805162550519201,-0.07118341648500623
11730,7.0,298.20595,2936.2938,0.0,0.0,0.0,0.0,-0.11691067641821824,0.0,-0.2732986907049807,-0.25964647296511173,-0.35961484240622166,-0.24439265132217677,-1.007588727186265,-0.08879707937233942
11731,7.0,300.28118,3319.7638,0.0,0.0,0.0,0.0,-0.11692064322780207,0.0,-0.27978393717502476,-0.26722582689313573,-0.46211552649725157,-0.23043530344719376,-0.984218225087276,-0.1101808260065009
11732,7.0,300.96812,3682.3656,0.0,0.0,0.0,0.0,-0.11693061003738588,0.0,-0.3165643382524677,-0.3219915894980957,-0.48079127611290456,-0.19949431335855583,-0.9947802428046661,-0.1292919691901239
11733,7.0,301.2246,3451.6073,0.0,0.0,0.0,0.0,-0.11694057684696971,0.0,-0.30879401707809667,-0.3042601484456387,-0.43614825690948156,-0.19128224553808781,-0.982214999242073,-0.12927659818610687
11734,7.0,300.55296,2906.433,0.0,0.0,0.0,0.0,-0.11695054365655352,0.0,-0.30309015868766975,-0.2166000319442588,-0.3637928677360607,-0.19611360439990583,-1.020442149209799,-0.1088198993996879
11735,7.0,299.88693,2876.6023,0.0,0.0,0.0,0.0,-0.11696051046613734,0.0,-0.28910105555455273,-0.2353446825667118,-0.34996954245180467,-0.22354252778692976,-1.004103714262321,-0.07700856293890343
11736,7.0,300.0164,3327.9837,0.0,0.0,0.0,0.0,-0.11697047727572117,0.0,-0.30493587480482776,-0.25836952452658674,-0.44831855584809654,-0.22671010971954578,-1.015785657050239,-0.1143805146234779
11737,7.0,299.81077,3599.9446,0.0,0.0,0.0,0.0,-0.11698044408530499,0.0,-0.26379474927201474,-0.31804999594659067,-0.5124485326972325,-0.24616448124204277,-0.9813443944911511,-0.10773496185511289
11738,7.0,299.90142000000003,3230.6548,0.0,0.0,0.0,0.0,-0.1169904108948888,0.0,-0.22475921824200779,-0.28535171607702176,-0.47192746556311455,-0.23034710002598877,-1.019895399455839,-0.12800693501580088
11739,7.0,299.30208999999996,3038.6401,0.0,0.0,0.0,0.0,-0.11700037770447262,0.0,-0.25104972474417875,-0.2653803134259977,-0.4072406773865256,-0.21683564299001182,-0.995177406446363,-0.056581243339133946
11740,7.0,299.43343,3298.9970000000003,0.0,0.0,0.0,0.0,-0.11701034451405645,0.0,-0.3461122715736217,-0.27086960597524873,-0.3858308547610406,-0.2072088449824208,-0.994208121268202,-0.09032531383566442
11741,7.0,299.34427,3665.0159,0.0,0.0,0.0,0.0,-0.11702031132364028,0.0,-0.39537939946340867,-0.3059099425234607,-0.4127839660336056,-0.22460234686152578,-0.954910047004784,-0.046525481848707556
11742,7.0,299.89495,3307.382,0.0,0.0,0.0,0.0,-0.11703027813322409,0.0,-0.2942264393303887,-0.2611190090704397,-0.4500160942706306,-0.2232041022535298,-0.9785260393380011,-0.09638934109338732
11743,7.0,300.37178,2873.9697,0.0,0.0,0.0,0.0,-0.11704024494280792,0.0,-0.2138413774870008,-0.23520219933764977,-0.42457145908444055,-0.23339749958453976,-0.9698342685226901,-0.09948632482528581
11744,7.0,300.78069,3130.5457,0.0,0.0,0.0,0.0,-0.11705021175239173,0.0,-0.24834295882454177,-0.24454699970990976,-0.45871776453941854,-0.24025060650338878,-0.9871819613647741,-0.11452079909982288
11745,7.0,301.63527999999997,3517.5077,0.0,0.0,0.0,0.0,-0.11706017856197555,0.0,-0.33511167868294767,-0.2913050873045737,-0.4428177527777096,-0.2618634743164127,-0.983275416134228,-0.1033471836220729
11746,7.0,300.21013,3324.6467,0.0,0.0,0.0,0.0,-0.11707014537155938,0.0,-0.35116229993952064,-0.24175088539645478,-0.41769638490342365,-0.24100869996320679,-0.992048996762613,-0.07193510924394253
11747,7.0,299.58625,3073.7853,0.0,0.0,0.0,0.0,-0.1170801121811432,0.0,-0.3019368774238497,-0.2242551263172578,-0.4081619953049526,-0.22936778367183777,-0.9780787704788592,-0.05145974639068155
11748,7.0,300.73752,3246.2035,0.0,0.0,0.0,0.0,-0.11709007899072701,0.0,-0.26769337088677875,-0.2608054182969907,-0.4582660171148346,-0.2057534125387808,-1.001179748051248,-0.07905644474251362
11749,7.0,299.58192,3412.9055,0.0,0.0,0.0,0.0,-0.11710004580031083,0.0,-0.26852784313913475,-0.28157716693700274,-0.4873330416735266,-0.2019020590411818,-0.9625858724748291,-0.12386073587160289
11750,7.0,298.66474,3380.5364,0.0,0.0,0.0,0.0,-0.11711001260989466,0.0,-0.2670720053954548,-0.29100188234464974,-0.4695247658659865,-0.20940272396643977,-1.010546130650638,-0.11453805474902588
11751,7.0,300.55741,3181.6856,0.0,0.0,0.0,0.0,-0.11711997941947849,0.0,-0.3031111430972407,-0.2806729830777667,-0.3833688596680606,-0.23098730183667177,-1.002341733133427,-0.1086390139918359
11752,7.0,299.35511,2774.2021,0.0,0.0,0.0,0.0,-0.1171299462290623,0.0,-0.29892136406624176,-0.2112237269136588,-0.3331430654611607,-0.24425172849826876,-1.0004386265306051,-0.08891200929143211
11753,7.0,300.20911,2991.0097,0.0,0.0,0.0,0.0,-0.11713991303864613,0.0,-0.29062507489746175,-0.27002412982680674,-0.34854305856352163,-0.24511892872885474,-0.968164756597922,-0.11602559708833489
11754,7.0,300.12205,3384.8911,0.0,0.0,0.0,0.0,-0.11714987984822994,0.0,-0.25140631785187173,-0.29582227784038573,-0.4816937881094756,-0.2166858542277288,-0.975188646821126,-0.08782599162225051
11755,7.0,299.61003999999997,3265.5981,0.0,0.0,0.0,0.0,-0.11715984665781376,0.0,-0.24349185171827475,-0.2676357068235877,-0.4815327320060806,-0.24233011994862075,-0.9553249729207342,-0.11690859388797989
11756,7.0,300.18273999999997,3320.3009,0.0,0.0,0.0,0.0,-0.11716981346739759,0.0,-0.24990268510097474,-0.2957427073100327,-0.4636431834080195,-0.1900570336496688,-0.9826855120585091,-0.12691141914018186
11757,7.0,300.67488,3331.4555,0.0,0.0,0.0,0.0,-0.11717978027698141,0.0,-0.35116947375022867,-0.25636088792584977,-0.4051489137475846,-0.2188708470083708,-0.976733721501113,-0.1036683129762659
11758,7.0,300.5271,3290.075,0.0,0.0,0.0,0.0,-0.11718974708656522,0.0,-0.33950716774924866,-0.25094241142608775,-0.4096510575194116,-0.21005660465347278,-0.9766760371729202,-0.06362052888435735
11759,7.0,300.83057,3322.2087,0.0,0.0,0.0,0.0,-0.11719971389614904,0.0,-0.3236101552078357,-0.26656159079008074,-0.41969674325084355,-0.26077619616410674,-0.999890964851555,-0.07387180914057993
11760,7.0,299.95797000000005,3376.6201,0.0,0.0,0.0,0.0,-0.11720968070573287,0.0,-0.26062316500150373,-0.2727615566944698,-0.4930234846326295,-0.24599733550554678,-0.9911708838284501,-0.05168833966624195
11761,7.0,301.55208999999996,3242.1085,0.0,0.0,0.0,0.0,-0.1172196475153167,0.0,-0.25235288596279076,-0.2900096673167257,-0.44315749553623957,-0.25070109578227173,-0.9904541512377142,-0.1156330234695909
11762,7.0,301.78112999999996,3190.7298,0.0,0.0,0.0,0.0,-0.1172296143249005,0.0,-0.25292562558181575,-0.28450240984320174,-0.4324741512518756,-0.2140248466826078,-0.996920095293353,-0.0908846603148676
11763,7.0,301.21768,3397.2494,0.0,0.0,0.0,0.0,-0.11723958113448434,0.0,-0.33248393613860966,-0.28887774536501376,-0.4113173270438596,-0.2048569192478038,-1.001453497830765,-0.09554450227925822
11764,7.0,300.58346,3649.0863,0.0,0.0,0.0,0.0,-0.11724954794406815,0.0,-0.3975062114233086,-0.2915090545497037,-0.4202158515420756,-0.1919829890422458,-0.9936088040990542,-0.06579406991236914
11765,7.0,299.24417,3377.2214,0.0,0.0,0.0,0.0,-0.11725951475365197,0.0,-0.3267537940405887,-0.2632229722405848,-0.4366142101004676,-0.18927700332518582,-0.961986768088202,-0.1120238468783929
11766,7.0,299.70444,2965.3419,0.0,0.0,0.0,0.0,-0.1172694815632358,0.0,-0.22740158198528876,-0.25626060656345273,-0.4177276943315136,-0.22165083038023378,-0.979148792981962,-0.09595660730692981
11767,7.0,300.14825,3124.2017,0.0,0.0,0.0,0.0,-0.11727944837281962,0.0,-0.2136230322229518,-0.2854106061728337,-0.45064566708776455,-0.23358813245835378,-0.9917230342054432,-0.1137979464784829
11768,7.0,299.54197,3475.0759999999996,0.0,0.0,0.0,0.0,-0.11728941518240343,0.0,-0.3099737239045247,-0.3025201345789127,-0.4438424526038396,-0.2690582086389778,-0.999317860462494,-0.11841566155671587
11769,7.0,299.37883,3440.1342,0.0,0.0,0.0,0.0,-0.11729938199198725,0.0,-0.3651385854588726,-0.3044817361100077,-0.37609458521264566,-0.22574070295137277,-0.9793687898436741,-0.1168663312263089
11770,7.0,299.78127,3020.2406,0.0,0.0,0.0,0.0,-0.11730934880157108,0.0,-0.31602248249649073,-0.24037879277353974,-0.36167646185468766,-0.2127132552231638,-0.990113425626587,-0.1031624478638409
11771,7.0,300.11509,2932.4161,0.0,0.0,0.0,0.0,-0.11731931561115491,0.0,-0.24206784016023578,-0.2601407059663887,-0.3891727258433576,-0.18083521144204584,-1.009902585114625,-0.08917417762230612
11772,7.0,300.12422999999995,3411.6821,0.0,0.0,0.0,0.0,-0.11732928242073871,0.0,-0.27195825201518975,-0.2893639838230017,-0.47574393285977057,-0.2105466022693318,-1.008387198662568,-0.11686854011152689
11773,7.0,299.88802000000004,3716.8236,0.0,0.0,0.0,0.0,-0.11733924923032255,0.0,-0.2900952565526727,-0.3195913519987107,-0.5201349567633236,-0.2090390786380508,-1.005332665043609,-0.10594775079872891
11774,7.0,301.11516,3221.4832,0.0,0.0,0.0,0.0,-0.11734921603990636,0.0,-0.2781104330448627,-0.27927567065986275,-0.4218643486597696,-0.2236720008847078,-1.009723442496945,-0.1070213703396869
11775,7.0,301.41965,2783.0964,0.0,0.0,0.0,0.0,-0.11735918284949018,0.0,-0.27279614905288374,-0.2233318325611358,-0.3498638300688717,-0.2258518159573388,-1.000064534593685,-0.06696065717650233
11776,7.0,301.56383,3238.0764,0.0,0.0,0.0,0.0,-0.11736914965907401,0.0,-0.3325370000463467,-0.22865713058170178,-0.42310023007174163,-0.23505320091044477,-0.981314371890688,-0.06832893389954073
11777,7.0,300.5437,3708.6622,0.0,0.0,0.0,0.0,-0.11737911646865783,0.0,-0.3523168781634687,-0.29927003355815274,-0.4757538019157445,-0.21407917715296979,-0.99010210762297,-0.08708116363274172
11778,7.0,299.89862999999997,3548.8393,0.0,0.0,0.0,0.0,-0.11738908327824164,0.0,-0.3238614108351327,-0.25896218464257775,-0.4959349270724665,-0.24108322450806177,-0.953804591145684,-0.08680912320614341
11779,7.0,299.85195,3141.8323,0.0,0.0,0.0,0.0,-0.11739905008782546,0.0,-0.2386731179527028,-0.2603930255062908,-0.45597242418847456,-0.22331638049711078,-0.9989628986874621,-0.1154616828776809
11780,7.0,299.66887,3050.6659999999997,0.0,0.0,0.0,0.0,-0.11740901689740929,0.0,-0.28449619862008874,-0.23716535114139778,-0.4056647492409936,-0.2351425087742588,-0.9829830022878691,-0.10401694193817289
11781,7.0,300.00416,3588.3112,0.0,0.0,0.0,0.0,-0.11741898370699312,0.0,-0.3638229308665276,-0.30131974731794375,-0.4256143264848636,-0.21356286543201378,-0.982485952451314,-0.12102468937170688
11782,7.0,299.84377,3608.6117,0.0,0.0,0.0,0.0,-0.11742895051657692,0.0,-0.3557153088663677,-0.28440040595563476,-0.45681213494384754,-0.23668897160688276,-0.992315289021394,-0.07003201480012174
11783,7.0,299.05402000000004,2973.6040000000003,0.0,0.0,0.0,0.0,-0.11743891732616075,0.0,-0.23637452970334977,-0.2297774102897648,-0.4377494251150046,-0.2346311417137908,-1.030177962795649,-0.08568087529929401
11784,7.0,299.82921,2726.9071,0.0,0.0,0.0,0.0,-0.11744888413574457,0.0,-0.16833745033611283,-0.24048756517177475,-0.4200866621543256,-0.22980985455796676,-1.012859319833932,-0.08166022493523672
11785,7.0,299.54498,3074.4152,0.0,0.0,0.0,0.0,-0.11745885094532839,0.0,-0.2292129691890588,-0.27346817704920773,-0.43186429628168765,-0.18614740813881883,-1.0161083772070891,-0.14851006092180186
11786,7.0,299.34387999999996,3635.052,0.0,0.0,0.0,0.0,-0.11746881775491222,0.0,-0.33070666506570673,-0.3104673692207437,-0.4637910165976095,-0.21393886227912182,-0.9735302806474581,-0.07906842541169602
11787,7.0,299.75439,3447.2685,0.0,0.0,0.0,0.0,-0.11747878456449604,0.0,-0.3428648556656267,-0.27465332502867273,-0.4303653751437556,-0.20895650888740183,-0.990299752187476,-0.12386972339998989
11788,7.0,297.46993,2925.5611,0.0,0.0,0.0,0.0,-0.11748875137407987,0.0,-0.26815572703990975,-0.23387903656206377,-0.3872627696698596,-0.21680897424737977,-0.9701405537629181,-0.08375087906531822
11789,7.0,298.79783,3057.7582,0.0,0.0,0.0,0.0,-0.11749871818366367,0.0,-0.27281490431223476,-0.25598606644885774,-0.4006811799491536,-0.2063590726535548,-0.9886662511712621,-0.13898184201643987
11790,7.0,299.37293999999997,3487.6229,0.0,0.0,0.0,0.0,-0.1175086849932475,0.0,-0.2944256746975517,-0.27837816411878574,-0.4873464368398486,-0.25302495448911877,-0.987168191295915,-0.08202065623430853
11791,7.0,298.74175,3315.3767,0.0,0.0,0.0,0.0,-0.11751865180283133,0.0,-0.28890984512818174,-0.26796130461072176,-0.4509206023698985,-0.2634824655911947,-1.026186770651749,-0.1194544455592359
11792,7.0,299.63794,3114.9272,0.0,0.0,0.0,0.0,-0.11752861861241513,0.0,-0.2884674094720167,-0.24932912474936877,-0.4090635649789306,-0.26999922413934874,-0.990159032013588,-0.07167362789663634
11793,7.0,299.49601,2883.8886,0.0,0.0,0.0,0.0,-0.11753858542199896,0.0,-0.27180882802294276,-0.23806726532040978,-0.3667540202258036,-0.21584720738496077,-0.9859780277284551,-0.11005683459176391
11794,7.0,299.85904,3123.9563,0.0,0.0,0.0,0.0,-0.11754855223158278,0.0,-0.29029773432015576,-0.2544800525602257,-0.4048269231308066,-0.20820691659592278,-0.9624139036678571,-0.050563973520525655
11795,7.0,299.91486000000003,3626.1958,0.0,0.0,0.0,0.0,-0.1175585190411666,0.0,-0.3293608358853837,-0.27533386432583673,-0.4975782870121535,-0.19671653887191082,-0.993824140010306,-0.07503667185304293
11796,7.0,299.12686,3675.493,0.0,0.0,0.0,0.0,-0.11756848585075041,0.0,-0.3140988879766467,-0.3112785164557977,-0.4918806905073445,-0.2125786449473788,-0.973022956454889,-0.06337348128472564
11797,7.0,299.41752,3345.3988,0.0,0.0,0.0,0.0,-0.11757845266033425,0.0,-0.2825586313813657,-0.30317013451806274,-0.43118892456003355,-0.2073192892433208,-1.0099469654690052,-0.13789889044206088
11798,7.0,300.86933999999997,3355.4787,0.0,0.0,0.0,0.0,-0.11758841946991805,0.0,-0.3238437093558857,-0.2664151964156327,-0.42972282259284056,-0.23660516569111176,-1.013067856837013,-0.07214940860034223
11799,7.0,300.91496,3552.7149,0.0,0.0,0.0,0.0,-0.11759838627950188,0.0,-0.34600351944038865,-0.28760546800944975,-0.44632763085910754,-0.23761251867552977,-1.0248612368709291,-0.09034014680387832
11800,7.0,301.28014,3586.7741,0.0,0.0,0.0,0.0,-0.1176083530890857,0.0,-0.3258190708233387,-0.2952740588737807,-0.46919664508610354,-0.24952855263405077,-0.9651024209531931,-0.053619190070052045
11801,7.0,301.20435,3271.9125,0.0,0.0,0.0,0.0,-0.11761831989866951,0.0,-0.26250045399177774,-0.2868703449293987,-0.4452089014236976,-0.22706456486952778,-0.982906137135283,-0.11425131510322689
11802,7.0,300.37433,3222.1046,0.0,0.0,0.0,0.0,-0.11762828670825334,0.0,-0.26427455359186774,-0.27834306513532175,-0.4368217338534486,-0.2038316925316218,-0.997156476409182,-0.1019045890571999
11803,7.0,300.27294,3333.5283,0.0,0.0,0.0,0.0,-0.11763825351783716,0.0,-0.2766705742552597,-0.28732756390452274,-0.44931122683856556,-0.19017648570395781,-1.000443024036039,-0.13441737323096187
11804,7.0,298.72167,3411.4517,0.0,0.0,0.0,0.0,-0.11764822032742099,0.0,-0.33747127472082167,-0.29698125356976773,-0.4025436045604606,-0.21321448978263177,-0.968863605324393,-0.1094432204637049
11805,7.0,299.97302,3462.1715,0.0,0.0,0.0,0.0,-0.1176581871370048,0.0,-0.3120711516115247,-0.3170447099923767,-0.4232978442387446,-0.2071701894911058,-0.993253903119028,-0.1086605151589579
11806,7.0,300.9851,3043.1049,0.0,0.0,0.0,0.0,-0.11766815394658862,0.0,-0.2776064424451227,-0.24458481420364175,-0.4028366364893806,-0.23803731364745376,-0.9925081307804261,-0.07148345807811803
11807,7.0,299.83611,2870.8469,0.0,0.0,0.0,0.0,-0.11767812075617244,0.0,-0.21055914630556982,-0.2504813117030808,-0.4116253145442556,-0.22867459901342577,-1.0137856026778491,-0.08067629727988063
11808,7.0,299.41292000000004,3411.4701,0.0,0.0,0.0,0.0,-0.11768808756575626,0.0,-0.2996633569819707,-0.2831110452033847,-0.4542273238062466,-0.23510171532523275,-0.9925216475367601,-0.09943383340385531
11809,7.0,299.90946,3733.4372,0.0,0.0,0.0,0.0,-0.11769805437534007,0.0,-0.3560416868560787,-0.30469051629311267,-0.4741394817239235,-0.20785011070570883,-1.013130941788239,-0.10011417714375
11810,7.0,301.24021,3431.3227,0.0,0.0,0.0,0.0,-0.1177080211849239,0.0,-0.36733784480092263,-0.28609160143254275,-0.3896069845712156,-0.22899226305227677,-1.023480278309639,-0.10377540337933491
11811,7.0,301.4493,3227.9405,0.0,0.0,0.0,0.0,-0.11771798799450772,0.0,-0.3168927022123747,-0.24358855630781875,-0.4207320619380216,-0.1946363566816128,-1.0102509607640069,-0.049403986567543856
11812,7.0,301.31846,3282.9446,0.0,0.0,0.0,0.0,-0.11772795480409154,0.0,-0.30458198707490175,-0.25568664091180676,-0.4376645552866286,-0.2144978216967868,-0.968456947529259,-0.06093978829353885
11813,7.0,300.3208,3435.1477,0.0,0.0,0.0,0.0,-0.11773792161367537,0.0,-0.2898649752024457,-0.2941218009925617,-0.46021234896692254,-0.22853781024992578,-0.98024389342504,-0.06425229842770813
11814,7.0,300.87269,3385.1571,0.0,0.0,0.0,0.0,-0.11774788842325917,0.0,-0.2951963628561127,-0.26201986946934774,-0.4717869885692506,-0.26708444810668275,-0.989736790431916,-0.1123657275946339
11815,7.0,300.78484,3291.9653,0.0,0.0,0.0,0.0,-0.117757855232843,0.0,-0.2927436288690467,-0.29017291204033674,-0.41775869978457364,-0.27117464491785376,-1.00063362651235,-0.09566512666391291
11816,7.0,299.66309,3135.2671,0.0,0.0,0.0,0.0,-0.11776782204242683,0.0,-0.3051836752492837,-0.2598913248517768,-0.38796792081195264,-0.22641744256066182,-0.9588101074346901,-0.1152573407300139
11817,7.0,299.60401,3404.546,0.0,0.0,0.0,0.0,-0.11777778885201065,0.0,-0.3119774867722807,-0.29699283501841073,-0.42592666082818864,-0.2089463865189028,-0.978973612172173,-0.0922397202036016
11818,7.0,300.14266000000003,3555.4949,0.0,0.0,0.0,0.0,-0.11778775566159447,0.0,-0.32160082959703074,-0.2893182051834837,-0.4698626442443325,-0.2071506641616788,-0.992590619471067,-0.08324707693009682
11819,7.0,299.67792000000003,3147.8225,0.0,0.0,0.0,0.0,-0.11779772247117828,0.0,-0.23445631554153676,-0.2537738273730268,-0.46862929595761055,-0.20619972894282879,-1.014607956459009,-0.0982884838618181
11820,7.0,299.77601,2992.9678,0.0,0.0,0.0,0.0,-0.11780768928076212,0.0,-0.23288791584424776,-0.2886508077401167,-0.3882487633421696,-0.18493372703653782,-1.003543062716989,-0.13032281944436086
11821,7.0,300.35806,3420.0433,0.0,0.0,0.0,0.0,-0.11781765609034593,0.0,-0.33186698841772166,-0.2929311206675507,-0.4148096455010246,-0.1844928315205248,-0.999098745128369,-0.14005034464439287
11822,7.0,300.96272,3472.6651,0.0,0.0,0.0,0.0,-0.11782762289992975,0.0,-0.3562710968112197,-0.29274968810464475,-0.4065826829040866,-0.21602991664299281,-1.028026934158359,-0.11641234451900388
11823,7.0,300.97321,3048.8443,0.0,0.0,0.0,0.0,-0.11783758970951358,0.0,-0.26635262822195777,-0.25894817139369475,-0.4014717379421756,-0.23469952596303978,-1.0075766999075781,-0.0998037406178623
11824,7.0,301.02792,3064.5813,0.0,0.0,0.0,0.0,-0.11784755651909738,0.0,-0.2378081671373388,-0.25162527106598076,-0.44212277466662053,-0.25050476844289576,-0.97137126759938,-0.06327175502768603
11825,7.0,299.66551,3366.0258,0.0,0.0,0.0,0.0,-0.11785752332868121,0.0,-0.2531064907246658,-0.2947580916578587,-0.4753232010207476,-0.2396429705509198,-0.9643171521256931,-0.0872581419482081
11826,7.0,299.74264,3651.7682,0.0,0.0,0.0,0.0,-0.11786749013826504,0.0,-0.3171701402222557,-0.2971195419434157,-0.49575667611487456,-0.22960112503736677,-0.9819075690292322,-0.07593198268115323
11827,7.0,300.33297000000005,3652.8476,0.0,0.0,0.0,0.0,-0.11787745694784886,0.0,-0.3751024411122287,-0.27874854756033973,-0.45652347012285854,-0.24050827600381874,-0.9627830205467861,-0.10690968991366491
11828,7.0,299.90771,3403.9181,0.0,0.0,0.0,0.0,-0.11788742375743268,0.0,-0.3343237146101817,-0.2709425701149497,-0.4294398117074096,-0.20054937015768182,-0.9649360959492781,-0.07510315220535402
11829,7.0,299.47623,3071.8777,0.0,0.0,0.0,0.0,-0.1178973905670165,0.0,-0.30678705234002474,-0.21961816961962577,-0.4073688839216786,-0.20468678442351282,-0.990927876056967,-0.0932759295376175
11830,7.0,300.51146,3288.1421,0.0,0.0,0.0,0.0,-0.11790735737660032,0.0,-0.29349304890800876,-0.24988816522704177,-0.45613187935671157,-0.18965795496528282,-1.032570651581789,-0.05951373908954874
11831,7.0,299.53816,3297.0912,0.0,0.0,0.0,0.0,-0.11791732418618416,0.0,-0.26993798330330476,-0.26122298879570177,-0.4710724344662295,-0.23469494607258778,-1.058766915692159,-0.06101230356344554
11832,7.0,299.64722,3178.0377,0.0,0.0,0.0,0.0,-0.11792729099576796,0.0,-0.26168770582156575,-0.27823363412452173,-0.42612277538504356,-0.24029972886823675,-1.0278232708882589,-0.09432171205857823
11833,7.0,298.79729,3135.1566,0.0,0.0,0.0,0.0,-0.11793725780535179,0.0,-0.2953478741435657,-0.28311333514861076,-0.37454810211501965,-0.24395674099665574,-1.0129113806240702,-0.12553503033684288
11834,7.0,297.59724,3340.3565,0.0,0.0,0.0,0.0,-0.11794722461493559,0.0,-0.3261890388323517,-0.2883381187592567,-0.40085779957408463,-0.21363904157453179,-0.998995130173143,-0.12689307931337188
11835,7.0,299.13681,3423.3752,0.0,0.0,0.0,0.0,-0.11795719142451942,0.0,-0.31387220366427465,-0.29524193884561073,-0.43150643661136956,-0.21787097180969078,-0.95616349817349,-0.10519393325433289
11836,7.0,299.73286,3223.2102,0.0,0.0,0.0,0.0,-0.11796715823410325,0.0,-0.24760940628214576,-0.28771012661227874,-0.4444558742143796,-0.2181988291445478,-0.9668066468263872,-0.11418967909964389
11837,7.0,299.2335,3136.3499,0.0,0.0,0.0,0.0,-0.11797712504368707,0.0,-0.2227405808627838,-0.2792542505527487,-0.45137721339496256,-0.2407190725546228,-0.9703304874941631,-0.08385986323282413
11838,7.0,301.49505,3246.7497,0.0,0.0,0.0,0.0,-0.11798709185327089,0.0,-0.26905971838162673,-0.29673526684299073,-0.4211358623678736,-0.2312970118622378,-0.9942719256269992,-0.11735044185908688
11839,7.0,300.81355,3131.6122,0.0,0.0,0.0,0.0,-0.1179970586628547,0.0,-0.27594837011398377,-0.27010163332695575,-0.4058819090024256,-0.21323608214226278,-0.9824128464565991,-0.0952609026955191
11840,7.0,299.63082,3250.9013,0.0,0.0,0.0,0.0,-0.11800702547243853,0.0,-0.31443584429740173,-0.2807668100370267,-0.39299015572760865,-0.20982211831533082,-1.010471221070745,-0.13170484191825588
11841,7.0,300.32065,3442.2351,0.0,0.0,0.0,0.0,-0.11801699228202236,0.0,-0.30498199794937975,-0.29228675439895674,-0.44908477557371657,-0.22193567524834582,-1.0187503255178292,-0.09324181644650081
11842,7.0,298.7234,3230.8394,0.0,0.0,0.0,0.0,-0.11802695909160617,0.0,-0.2841675408176527,-0.2626992435288968,-0.43522770906113056,-0.2091649546979738,-1.046672965148579,-0.095425625751026
11843,7.0,299.41936,3375.0294,0.0,0.0,0.0,0.0,-0.11803692590119,0.0,-0.2882495505680157,-0.2933139164228297,-0.4443612062575366,-0.22302484817833879,-1.0049674998400702,-0.049418164976193155
11844,7.0,300.08647,3601.7087,0.0,0.0,0.0,0.0,-0.1180468927107738,0.0,-0.3582210864961687,-0.27754163496872675,-0.4590667785363636,-0.2218657609914458,-0.992234441795915,-0.07289714867063843
11845,7.0,299.27175,3437.4927,0.0,0.0,0.0,0.0,-0.11805685952035763,0.0,-0.33169399622814866,-0.27415504915949673,-0.43906289108713353,-0.26080238867919175,-0.990161301693812,-0.07734628325023382
11846,7.0,299.99377999999996,3237.7256,0.0,0.0,0.0,0.0,-0.11806682632994146,0.0,-0.3222414873702587,-0.26908625540174574,-0.39286000375226365,-0.24058625573151476,-1.000005289860338,-0.11581661425520988
11847,7.0,301.14392000000004,3250.8682,0.0,0.0,0.0,0.0,-0.11807679313952528,0.0,-0.27168585999080674,-0.25777777633568577,-0.45871912229455253,-0.2235574022983978,-0.981918603322821,-0.04128462910472566
11848,7.0,300.67704,3128.1425,0.0,0.0,0.0,0.0,-0.1180867599491091,0.0,-0.2652299572436587,-0.2650761560109797,-0.42057110715963664,-0.19821124488942682,-1.0075980896171892,-0.10028073316868781
11849,7.0,300.40982,3368.1234,0.0,0.0,0.0,0.0,-0.11809672675869291,0.0,-0.28889448425666575,-0.27751870511896376,-0.4574122120505706,-0.21934692256785582,-1.020618657377219,-0.06317867382049965
11850,7.0,300.01856000000004,3373.493,0.0,0.0,0.0,0.0,-0.11810669356827674,0.0,-0.3274897783832247,-0.26442092770131376,-0.4335469399277516,-0.22178561290853577,-1.017509296795349,-0.10250362251631989
11851,7.0,300.46483,3227.1147,0.0,0.0,0.0,0.0,-0.11811666037786057,0.0,-0.31542178730720666,-0.2770586895735637,-0.38848179060016763,-0.2087016156922458,-0.969746257619004,-0.08474616525429532
11852,7.0,299.30449,3104.3647,0.0,0.0,0.0,0.0,-0.11812662718744438,0.0,-0.2667116835273937,-0.2539626363966607,-0.4229750531543876,-0.1994720623863598,-0.9827899680113181,-0.12385656128119087
11853,7.0,299.034,3340.2121,0.0,0.0,0.0,0.0,-0.11813659399702821,0.0,-0.2693619810189577,-0.2965251289047517,-0.4494539532476515,-0.23501682523185477,-1.004288835055591,-0.1067448847848999
11854,7.0,299.07184,3340.1824,0.0,0.0,0.0,0.0,-0.11814656080661201,0.0,-0.2644966478812868,-0.2926807364353397,-0.45815466092884455,-0.23753843996071877,-1.034553582027489,-0.1096004363492209
11855,7.0,300.36992000000004,3036.0484,0.0,0.0,0.0,0.0,-0.11815652761619584,0.0,-0.25052918777030575,-0.2630646924424637,-0.4092890029936796,-0.24355992185999276,-1.001018621020346,-0.08687467643461301
11856,7.0,300.57386,3105.5546,0.0,0.0,0.0,0.0,-0.11816649442577967,0.0,-0.2656614194012408,-0.3019570005708357,-0.37639263272956064,-0.2019435617652778,-1.0131444382795711,-0.1071961863794399
11857,7.0,300.95769,3370.6463,0.0,0.0,0.0,0.0,-0.11817646123536349,0.0,-0.31769415264397166,-0.28213486992454373,-0.4247632875933726,-0.2275117628011628,-1.007297914275064,-0.10831719562757489
11858,7.0,300.70821,3516.6816,0.0,0.0,0.0,0.0,-0.1181864280449473,0.0,-0.3133284835281137,-0.31469178114016066,-0.4409631200596716,-0.1974233010816628,-1.004966516987473,-0.1057829254049619
11859,7.0,301.42303,3517.7618,0.0,0.0,0.0,0.0,-0.11819639485453112,0.0,-0.30552676173314375,-0.2998162766870627,-0.46396870013514563,-0.19954360797592083,-0.9643356034100141,-0.0921830167015054
11860,7.0,300.91241,3480.3055,0.0,0.0,0.0,0.0,-0.11820636166411495,0.0,-0.3190869054364257,-0.27554141847632074,-0.4632976549914185,-0.21195842442866777,-0.986932337070138,-0.05916281207641494
11861,7.0,300.84881,3446.2752,0.0,0.0,0.0,0.0,-0.11821632847369878,0.0,-0.3325067241333587,-0.2798576511197997,-0.4352172219225956,-0.24766096044723376,-1.01171432695593,-0.0904254908333011
11862,7.0,300.39007000000004,3490.058,0.0,0.0,0.0,0.0,-0.11822629528328259,0.0,-0.37163631517014867,-0.25979400217967175,-0.42946016790191854,-0.24749665181101776,-1.023080348495169,-0.06496751620954465
11863,7.0,299.42848,3447.3239,0.0,0.0,0.0,0.0,-0.11823626209286642,0.0,-0.3493706204501957,-0.2688318586991387,-0.42969789664038055,-0.26038228505523076,-0.979719313583268,-0.08524253520003323
11864,7.0,299.77442,3258.6893,0.0,0.0,0.0,0.0,-0.11824622890245022,0.0,-0.27914792008725475,-0.28215704996923274,-0.42925519753918956,-0.24558259197461477,-0.9993436578100401,-0.0870623465651346
11865,7.0,299.80516,3213.9543,0.0,0.0,0.0,0.0,-0.11825619571203405,0.0,-0.25868518233023974,-0.2761903545028657,-0.44208632806052356,-0.23387286586895478,-0.989494279152982,-0.12116355529791187
11866,7.0,300.48346000000004,3476.4790000000003,0.0,0.0,0.0,0.0,-0.11826616252161788,0.0,-0.2965172559514747,-0.2947256372571557,-0.4655199151107386,-0.2179113092961718,-1.0127120337993962,-0.07645224202449882
11867,7.0,301.11312999999996,3473.7721,0.0,0.0,0.0,0.0,-0.1182761293312017,0.0,-0.3305874156614377,-0.2970724460787677,-0.4282801064379556,-0.17771993347959184,-0.9821744591055721,-0.09658670600086572
11868,7.0,302.27951,3322.7868,0.0,0.0,0.0,0.0,-0.11828609614078552,0.0,-0.3117271430700737,-0.2861215936355027,-0.4121954906405276,-0.2097319289239298,-1.0039380377384701,-0.09174890286841172
11869,7.0,300.44198,3234.809,0.0,0.0,0.0,0.0,-0.11829606295036933,0.0,-0.2997194606400077,-0.27864056549718275,-0.4049411468145796,-0.22600109809457178,-1.033744400497629,-0.13411652914377087
11870,7.0,299.80357000000004,3290.4993,0.0,0.0,0.0,0.0,-0.11830602975995316,0.0,-0.24637700031801676,-0.28736025135274873,-0.46649236162921154,-0.22813243928241878,-1.020643785979699,-0.11303698552088189
11871,7.0,300.00707,3077.1388,0.0,0.0,0.0,0.0,-0.118315996569537,0.0,-0.23309689867737277,-0.26582700473258275,-0.4364494758992095,-0.2215073237685708,-0.989703059336087,-0.1136127547577059
11872,7.0,299.77984,3159.2998,0.0,0.0,0.0,0.0,-0.1183259633791208,0.0,-0.2468043385476918,-0.27502617066796975,-0.43851774226833157,-0.22672146825316677,-1.005734824008299,-0.10584411557850092
11873,7.0,298.94017,3142.9547,0.0,0.0,0.0,0.0,-0.11833593018870463,0.0,-0.3209740837476757,-0.23470761169883778,-0.3996980639071276,-0.23583119460222676,-1.0054526541204512,-0.09695632241209401
11874,7.0,300.34702999999996,3155.5341,0.0,0.0,0.0,0.0,-0.11834589699828844,0.0,-0.3300691990302937,-0.2598925610168987,-0.36924180253382866,-0.2254521901178988,-1.00302925372378,-0.11202830517883289
11875,7.0,300.80489,3466.4345,0.0,0.0,0.0,0.0,-0.11835586380787226,0.0,-0.32218101660429066,-0.2801728022984027,-0.45135571222784054,-0.1898612635978478,-0.9643722020036261,-0.09869921492235409
11876,7.0,300.55197000000004,3865.7753,0.0,0.0,0.0,0.0,-0.11836583061745609,0.0,-0.3243145261473517,-0.32403502110726673,-0.5267496155361395,-0.22120745240147577,-0.9923716662569582,-0.10575203140941289
11877,7.0,300.44717,3777.8989,0.0,0.0,0.0,0.0,-0.11837579742703991,0.0,-0.2967513977845827,-0.3136506463974087,-0.5379848872824745,-0.2129963370361018,-1.013079519345664,-0.057103090445386244
11878,7.0,299.89072999999996,3246.6881,0.0,0.0,0.0,0.0,-0.11838576423662373,0.0,-0.2849431432391987,-0.23388475129262778,-0.4680842180663155,-0.24704452948389677,-1.0073068106109422,-0.05914281457244135
11879,7.0,299.60503,3310.0572,0.0,0.0,0.0,0.0,-0.11839573104620754,0.0,-0.3446023364071027,-0.24774256761028776,-0.4138298326543246,-0.2186430379883878,-0.9768408017716811,-0.02046134555137758
11880,7.0,298.96299,3374.2268,0.0,0.0,0.0,0.0,-0.11840569785579137,0.0,-0.3639856183025837,-0.23389764996640078,-0.4277974346203196,-0.22028293261273277,-1.012458184251843,-0.08643731412169874
11881,7.0,298.29298,3404.4508,0.0,0.0,0.0,0.0,-0.1184156646653752,0.0,-0.3193055344105027,-0.27771486020582276,-0.4378476191821956,-0.2144444132840158,-1.002426663756809,-0.11708085653748089
11882,7.0,298.82975,3374.9001,0.0,0.0,0.0,0.0,-0.118425631474959,0.0,-0.2786101071991767,-0.2918440654302667,-0.4554311865150586,-0.21351484750977479,-1.0232725620391392,-0.1284018796397789
11883,7.0,300.53274,3267.2771,0.0,0.0,0.0,0.0,-0.11843559828454284,0.0,-0.26147711192078177,-0.25924910667339474,-0.47244442576413453,-0.1952599310581548,-0.9955903970546219,-0.1067060469085669
11884,7.0,300.63872000000003,3139.0965,0.0,0.0,0.0,0.0,-0.11844556509412665,0.0,-0.2597198018748487,-0.2763228268209397,-0.41816432406460563,-0.2319474677639328,-0.9976678029396461,-0.11861811905919688
11885,7.0,300.33932000000004,3465.1242,0.0,0.0,0.0,0.0,-0.11845553190371047,0.0,-0.33347970767438473,-0.28922309139659674,-0.43060844371024465,-0.25090066552196777,-1.012472572403263,-0.09553490173456071
11886,7.0,300.33345,3536.048,0.0,0.0,0.0,0.0,-0.1184654987132943,0.0,-0.35100721187921463,-0.2849039405928297,-0.4389591342768936,-0.2650970492280417,-0.9765564736611201,-0.1054365255932749
11887,7.0,300.11851,3193.0728,0.0,0.0,0.0,0.0,-0.11847546552287812,0.0,-0.26949614546469874,-0.2940665484646087,-0.40705172650787763,-0.22799197242105576,-0.965111550336594,-0.13009076490645888
11888,7.0,299.39351,3231.2012,0.0,0.0,0.0,0.0,-0.11848543233246193,0.0,-0.2548143339007167,-0.2731536540856667,-0.4542364937196515,-0.22720360304824977,-0.9873846215172751,-0.1188565266752259
11889,7.0,298.56361,3457.1518,0.0,0.0,0.0,0.0,-0.11849539914204575,0.0,-0.27073313131927973,-0.28955008746886873,-0.4906046134639055,-0.21629190258884878,-1.012199724416335,-0.08916343311824572
11890,7.0,299.82687999999996,3318.185,0.0,0.0,0.0,0.0,-0.11850536595162958,0.0,-0.3131010494106677,-0.27773538865284875,-0.4178089468570326,-0.18995565797716382,-0.9927151783058601,-0.06016843645616234
11891,7.0,300.64157,3065.743,0.0,0.0,0.0,0.0,-0.11851533276121341,0.0,-0.3114472935249547,-0.23161045064817176,-0.3888515863566636,-0.20505070332942882,-0.9775226278964722,-0.05812974381770904
11892,7.0,300.50005,3195.3017,0.0,0.0,0.0,0.0,-0.11852529957079722,0.0,-0.30881882144054473,-0.27532123922959073,-0.3871518491814126,-0.22316443351211476,-1.0207173479369591,-0.1120377385372639
11893,7.0,300.53495,3625.1511,0.0,0.0,0.0,0.0,-0.11853526638038105,0.0,-0.33576763653268565,-0.30588300020330167,-0.4603047675085436,-0.21801330305123778,-1.0607377884616689,-0.13113312568183186
11894,7.0,301.06327000000005,3758.5672,0.0,0.0,0.0,0.0,-0.11854523318996486,0.0,-0.3350647854683197,-0.3145346057846487,-0.49291118612404655,-0.2343507247486158,-1.0390239401436792,-0.1327462907685389
11895,7.0,300.04598,3481.1117,0.0,0.0,0.0,0.0,-0.11855519999954868,0.0,-0.33114249433121973,-0.2788550502783507,-0.4481734786987786,-0.2142527975576048,-1.015632048335079,-0.0963149513107956
11896,7.0,300.0008,3178.1677,0.0,0.0,0.0,0.0,-0.11856516680913251,0.0,-0.29620635029079073,-0.2295981156845698,-0.44027916610967055,-0.23638263570414977,-1.020432320683829,-0.07261113248541083
11897,7.0,298.89021,3095.3974,0.0,0.0,0.0,0.0,-0.11857513361871633,0.0,-0.3112021477957607,-0.24694555521412875,-0.38277581451703163,-0.22573722750352979,-1.0039807563626861,-0.07216992995461753
11898,7.0,299.27756,3519.4119,0.0,0.0,0.0,0.0,-0.11858510042830014,0.0,-0.3071522986035717,-0.3010602337023317,-0.46160079544645155,-0.2237049923079638,-0.9542565817502922,-0.07426794332017533
11899,7.0,300.04472000000004,3593.2025,0.0,0.0,0.0,0.0,-0.11859506723788396,0.0,-0.2988707826212497,-0.3026706528812677,-0.49070241236355755,-0.2231946891601008,-0.9561352588932032,-0.08852380379386923
11900,7.0,299.81865,3180.0653,0.0,0.0,0.0,0.0,-0.11860503404746779,0.0,-0.2111733075886828,-0.3243449337828527,-0.4311422137304236,-0.23531266386355176,-0.988025360350511,-0.13546337157419386
11901,7.0,299.31462,3122.7598,0.0,0.0,0.0,0.0,-0.1186150008570516,0.0,-0.25194115178465576,-0.2754160287764457,-0.4218838131941906,-0.23574501768122175,-1.023351798196959,-0.1139232449858489
11902,7.0,300.0765,3452.825,0.0,0.0,0.0,0.0,-0.11862496766663543,0.0,-0.3160811598097817,-0.2896891053825887,-0.4438023177673786,-0.22567390950478078,-1.013368548936689,-0.08830907177967681
11903,7.0,299.99021,3466.2531,0.0,0.0,0.0,0.0,-0.11863493447621926,0.0,-0.35550040865265864,-0.2892610477453427,-0.4088929336620906,-0.2119572794560548,-1.029173223996489,-0.1004132642552676
11904,7.0,300.21969,3394.884,0.0,0.0,0.0,0.0,-0.11864490128580307,0.0,-0.2874129910204537,-0.2983950414342977,-0.4461519434242686,-0.23036099168485977,-1.0348779233844991,-0.09857242389759081
11905,7.0,299.84436,3166.545,0.0,0.0,0.0,0.0,-0.11865486809538689,0.0,-0.24958244740686975,-0.2914499415388697,-0.4215182325581106,-0.21784462730709078,-1.045299707288049,-0.13652103242607688
11906,7.0,300.56846,3253.3914,0.0,0.0,0.0,0.0,-0.1186648349049707,0.0,-0.25133055714189473,-0.29143855260774576,-0.4461806487996016,-0.2153046524864148,-0.9917511012332131,-0.09911805806319071
11907,7.0,300.85301,3464.6928,0.0,0.0,0.0,0.0,-0.11867480171455454,0.0,-0.3251574185080387,-0.27180238375230675,-0.45622030569293853,-0.2021065531763638,-0.989615271347423,-0.08365109622197042
11908,7.0,300.18744,3504.6144,0.0,0.0,0.0,0.0,-0.11868476852413834,0.0,-0.34942994624355067,-0.28238463607419373,-0.43350069519318757,-0.23840570098631078,-0.98986885744995,-0.05342932625306396
11909,7.0,299.65611,3230.1482,0.0,0.0,0.0,0.0,-0.11869473533372217,0.0,-0.3145916922952827,-0.24712398855673876,-0.4201687050149226,-0.23459979175569678,-0.9795180618484062,-0.07543983190883173
11910,7.0,300.33394,3205.4662,0.0,0.0,0.0,0.0,-0.11870470214330599,0.0,-0.2550364180576348,-0.30013984797399673,-0.4192054284098546,-0.2308661981847198,-0.9668302352887151,-0.09075608090367782
11911,7.0,299.31826,3635.8695,0.0,0.0,0.0,0.0,-0.1187146689528898,0.0,-0.28897153179426976,-0.32040691700420065,-0.49583510167261446,-0.21506637659289882,-0.985648133760897,-0.1006512432665043
11912,7.0,299.56921,3795.3564,0.0,0.0,0.0,0.0,-0.11872463576247362,0.0,-0.3130394336720867,-0.3317150414327257,-0.5089391004458785,-0.23811977194059178,-0.9961148249088791,-0.12576188690173187
11913,7.0,299.70779,3292.2942,0.0,0.0,0.0,0.0,-0.11873460257205745,0.0,-0.3134819199907567,-0.27664078470231973,-0.4106525336532496,-0.2155743188680288,-1.020393310554979,-0.1120181017503259
11914,7.0,300.1304,2942.7744,0.0,0.0,0.0,0.0,-0.11874456938164128,0.0,-0.3101521977771387,-0.2214531554182248,-0.36292457319536664,-0.21827825781988677,-0.9941918991341011,-0.09451463487761823
11915,7.0,301.08395,3262.8309,0.0,0.0,0.0,0.0,-0.11875453619122509,0.0,-0.3197560355374637,-0.25911906615556074,-0.4129440088869006,-0.2177144854642468,-1.018242281917689,-0.07393682635974663
11916,7.0,300.30401,3449.7128,0.0,0.0,0.0,0.0,-0.11876450300080892,0.0,-0.3040324610156677,-0.2932249429315487,-0.45136914792416655,-0.2342273919464438,-1.015735602495299,-0.12208659574150889
11917,7.0,299.29669,3361.3387,0.0,0.0,0.0,0.0,-0.11877446981039273,0.0,-0.2520077527137287,-0.2978034654959137,-0.4719518240955186,-0.2199857362259018,-1.010648742488265,-0.10792908030927091
11918,7.0,300.49632,3148.344,0.0,0.0,0.0,0.0,-0.11878443661997655,0.0,-0.2340390895478598,-0.28634361699741473,-0.4366352654375456,-0.2207857377098558,-0.969726114207016,-0.11881490236111787
11919,7.0,300.35897,2960.0427,0.0,0.0,0.0,0.0,-0.11879440342956037,0.0,-0.25861911842371976,-0.24722646867185277,-0.3939334814382076,-0.21762804509821582,-1.010076458831785,-0.09676281494774631
11920,7.0,299.99206000000004,3339.3078,0.0,0.0,0.0,0.0,-0.1188043702391442,0.0,-0.34292815339937366,-0.28273164383594074,-0.38940641171392065,-0.24677307978210677,-1.020918376756799,-0.1005292368087132
11921,7.0,299.60472999999996,3818.3642,0.0,0.0,0.0,0.0,-0.11881433704872801,0.0,-0.3670838027358506,-0.3215742925769117,-0.4720292769331626,-0.2202267377621868,-1.0155022509972689,-0.0906115681346655
11922,7.0,299.76842,3345.2165,0.0,0.0,0.0,0.0,-0.11882430385831183,0.0,-0.2832886476809127,-0.2841550069139157,-0.44941863134916554,-0.2200274416000178,-0.9864463823221781,-0.1014472282270619
11923,7.0,299.54863,2957.8562,0.0,0.0,0.0,0.0,-0.11883427066789566,0.0,-0.2117772958407918,-0.24351470050802976,-0.44382244091436457,-0.21442702591229978,-1.012950755522956,-0.11573493616464889
11924,7.0,299.78382,3365.6293,0.0,0.0,0.0,0.0,-0.11884423747747946,0.0,-0.27446255029984473,-0.26139959828813175,-0.4872051391134035,-0.23922445772961579,-1.0183936614826292,-0.1040653955579549
11925,7.0,298.29975,3612.762,0.0,0.0,0.0,0.0,-0.1188542042870633,0.0,-0.36112213298997964,-0.27463990959734874,-0.4624273744805285,-0.23932981547501378,-1.008071662448927,-0.08554994818762252
11926,7.0,298.84217,3438.5189,0.0,0.0,0.0,0.0,-0.11886417109664713,0.0,-0.36721461332376065,-0.25284915559676874,-0.42516010673003557,-0.2252378269267428,-0.9896221310506002,-0.06983838675901213
11927,7.0,298.78914,3275.2715,0.0,0.0,0.0,0.0,-0.11887413790623094,0.0,-0.33657562242742767,-0.24971360249981378,-0.4093115376759036,-0.21431906411414478,-1.013750240249359,-0.09060487156475461
11928,7.0,298.7938,3247.2991,0.0,0.0,0.0,0.0,-0.11888410471581476,0.0,-0.2681700138663198,-0.29185079341093073,-0.4270770340642216,-0.22656355322508182,-1.011632679262872,-0.09264469803006982
11929,7.0,300.11422000000005,3521.0081,0.0,0.0,0.0,0.0,-0.11889407152539858,0.0,-0.2832447840840837,-0.31756032257076366,-0.4694934260403935,-0.2158610078513228,-1.004816839682701,-0.12347225578326287
11930,7.0,300.00869,3699.5937,0.0,0.0,0.0,0.0,-0.1189040383349824,0.0,-0.3002133592687517,-0.3278411228553997,-0.4965296136886575,-0.22033796222566382,-0.971188213836314,-0.08471640407235811
11931,7.0,300.2156,3331.502,0.0,0.0,0.0,0.0,-0.11891400514456622,0.0,-0.3190026638231117,-0.2803097835794217,-0.4133809729925256,-0.22435437416455278,-1.027401150896599,-0.1098499694513479
11932,7.0,300.48958,2998.1255,0.0,0.0,0.0,0.0,-0.11892397195415004,0.0,-0.28675947510345673,-0.23620084850370876,-0.38839496519909866,-0.23291803976972078,-1.018919538284529,-0.09759744830686821
11933,7.0,300.95305,3132.0511,0.0,0.0,0.0,0.0,-0.11893393876373387,0.0,-0.2954250838011857,-0.2560678762619318,-0.40057236702091464,-0.22323144987372878,-1.0201987665357792,-0.12867762552199288
11934,7.0,299.88025,3512.2076,0.0,0.0,0.0,0.0,-0.11894390557331767,0.0,-0.31601435623068874,-0.2958692521150217,-0.4557398022305166,-0.2103242850648908,-0.9952103877371181,-0.1041579863520929
11935,7.0,300.28468,3434.4533,0.0,0.0,0.0,0.0,-0.1189538723829015,0.0,-0.2865808999058327,-0.2920719149802537,-0.4653352198825106,-0.23395839430989576,-1.021402102354539,-0.13536444796693087
11936,7.0,298.83499,3133.5879,0.0,0.0,0.0,0.0,-0.11896383919248534,0.0,-0.24253343871368677,-0.27665643941636475,-0.4333426079125856,-0.23951678038346574,-1.0200091874420691,-0.10253264199918391
11937,7.0,299.39547999999996,3311.2141,0.0,0.0,0.0,0.0,-0.11897380600206915,0.0,-0.3076314544433607,-0.2925382126762737,-0.4063567281317866,-0.23762282342904678,-1.00647541863889,-0.11500962134556587
11938,7.0,298.85523,3409.9456,0.0,0.0,0.0,0.0,-0.11898377281165297,0.0,-0.3425995969219477,-0.26374876798247676,-0.4301899612864436,-0.20301262168078582,-0.957259307891638,-0.05823448550704624
11939,7.0,300.11579,3502.8107,0.0,0.0,0.0,0.0,-0.11899373962123679,0.0,-0.3186695173227327,-0.3219670587131747,-0.4241304115809126,-0.22115011257831682,-1.009939761260794,-0.11775497182901089
11940,7.0,300.2278,3474.7889,0.0,0.0,0.0,0.0,-0.11900370643082062,0.0,-0.2967751888969307,-0.28908194565766676,-0.47039192556656856,-0.2206185615758568,-1.012725895060764,-0.08206365451555211
11941,7.0,300.1035,3227.2994,0.0,0.0,0.0,0.0,-0.11901367324040443,0.0,-0.24792840781112876,-0.2881241102056357,-0.44496590378471557,-0.2393714397891218,-1.019753747091859,-0.13233895409583787
11942,7.0,300.38727,3264.952,0.0,0.0,0.0,0.0,-0.11902364004998825,0.0,-0.2836838050874117,-0.27157966124782573,-0.4372004056808205,-0.1996767490390608,-1.001532956903607,-0.05704035303894454
11943,7.0,300.33673,3583.0129,0.0,0.0,0.0,0.0,-0.11903360685957208,0.0,-0.35884969672570766,-0.24993810832447075,-0.48035864871770756,-0.23695912434854477,-1.0302568949784392,-0.07546014858658683
11944,7.0,299.58812,3514.2949,0.0,0.0,0.0,0.0,-0.11904357366915588,0.0,-0.36119325301449867,-0.26919193738717573,-0.43787272751967365,-0.2056832956318608,-1.011723881904373,-0.04923708097132155
11945,7.0,299.6284,3158.5741,0.0,0.0,0.0,0.0,-0.11905354047873971,0.0,-0.2790005935227147,-0.2634435871848577,-0.4176834659646486,-0.21475670709733682,-1.004967054010026,-0.1206867805958579
11946,7.0,299.58538,3246.2088,0.0,0.0,0.0,0.0,-0.11906350728832354,0.0,-0.2960446355748307,-0.26932338632264874,-0.42139838533628265,-0.2289199879226438,-0.987565172552594,-0.1094061963050509
11947,7.0,299.25092,3565.3889,0.0,0.0,0.0,0.0,-0.11907347409790736,0.0,-0.2961035864656487,-0.3169959017350597,-0.4706896995059565,-0.23329563755198676,-1.006144075723689,-0.13518611594933086
11948,7.0,300.25516,3460.0434,0.0,0.0,0.0,0.0,-0.11908344090749118,0.0,-0.2999304091783267,-0.29264144259646174,-0.4591949344090116,-0.22869238155268076,-1.009164756656807,-0.1046575591813969
11949,7.0,300.13096,3163.074,0.0,0.0,0.0,0.0,-0.119093407717075,0.0,-0.27484308650740075,-0.2856919147980967,-0.4009605026042206,-0.20744730326095479,-0.9896859151443951,-0.10242273476083691
11950,7.0,299.68698,3100.0178,0.0,0.0,0.0,0.0,-0.11910337452665883,0.0,-0.29477741433726573,-0.24204140446512679,-0.40550918495314064,-0.2113044930791298,-0.980804190332837,-0.08412622236611171
11951,7.0,300.33432,3319.7099,0.0,0.0,0.0,0.0,-0.11911334133624264,0.0,-0.2943016022228067,-0.28611992177283774,-0.42868738231565057,-0.2177083958311458,-0.9769213551546311,-0.09191977229902522
11952,7.0,300.79753999999997,3528.8416,0.0,0.0,0.0,0.0,-0.11912330814582646,0.0,-0.3049349932772407,-0.2920797676685287,-0.47566495001447556,-0.24279748155724576,-1.014422126390669,-0.1239121785791799
11953,7.0,300.55744,3619.2044,0.0,0.0,0.0,0.0,-0.11913327495541029,0.0,-0.28839696832506473,-0.3020762803726077,-0.5096745173684586,-0.23878641957888477,-0.994147893682258,-0.1070041349554859
11954,7.0,300.08044,3306.8079,0.0,0.0,0.0,0.0,-0.11914324176499409,0.0,-0.2932692726234237,-0.25438463479830875,-0.45753313331750456,-0.23213810063774679,-1.0004535314395762,-0.0910007574980755
11955,7.0,299.71727999999996,3210.8991,0.0,0.0,0.0,0.0,-0.11915320857457792,0.0,-0.29153333202209974,-0.24880236641988174,-0.43569747207249265,-0.22185374384525977,-1.033604065358779,-0.07827472431686383
11956,7.0,299.1156,3526.9556,0.0,0.0,0.0,0.0,-0.11916317538416175,0.0,-0.34839248959866165,-0.25789170617692975,-0.4658222486755766,-0.21925181891346981,-1.051272613977529,-0.07936947518865732
11957,7.0,298.42355,3605.9125,0.0,0.0,0.0,0.0,-0.11917314219374557,0.0,-0.35614080298086065,-0.2967578623202207,-0.4432086849312916,-0.2112389155326578,-1.021513661190549,-0.1216647797248789
11958,7.0,298.93374,3282.8885,0.0,0.0,0.0,0.0,-0.11918310900332939,0.0,-0.3007691674786057,-0.26723008254355574,-0.4299168802519926,-0.1857165741962988,-1.008012995268137,-0.12644825238697088
11959,7.0,299.78926,3187.1245,0.0,0.0,0.0,0.0,-0.1191930758129132,0.0,-0.25871823454850174,-0.28032755598617576,-0.4297604749665566,-0.2379535482616868,-0.9914954683654842,-0.13355593839344487
11960,7.0,299.44969,3268.3245,0.0,0.0,0.0,0.0,-0.11920304262249704,0.0,-0.28928932755563375,-0.26286893252314375,-0.44133076772595553,-0.23467908870852278,-1.005982968957789,-0.09350127433335731
11961,7.0,299.58344,3345.6713,0.0,0.0,0.0,0.0,-0.11921300943208085,0.0,-0.29629479689201976,-0.27609971928142074,-0.4446060074816966,-0.24415053521078176,-0.993549062873158,-0.06653504856474804
11962,7.0,300.04704,3428.97,0.0,0.0,0.0,0.0,-0.11922297624166467,0.0,-0.3097917847165687,-0.28637301138281573,-0.44615645238721363,-0.24719371029611978,-0.9861019988781902,-0.060448243444777144
11963,7.0,300.59292999999997,3420.4873,0.0,0.0,0.0,0.0,-0.1192329430512485,0.0,-0.3122862038127487,-0.27109504398999773,-0.45636149196187253,-0.25960808091882276,-0.9983176812887842,-0.08247038121169292
11964,7.0,300.75627000000003,3382.0218,0.0,0.0,0.0,0.0,-0.1192429098608323,0.0,-0.27165211876247675,-0.3016238439379557,-0.45477420528271956,-0.24885197514477778,-1.010798257673021,-0.12846032390554687
11965,7.0,300.51664,3550.1507,0.0,0.0,0.0,0.0,-0.11925287667041613,0.0,-0.32199521693345373,-0.3054065396087787,-0.45175540899478756,-0.2266870886772738,-0.996890467860429,-0.14554210952388785
11966,7.0,299.75354,3694.5835,0.0,0.0,0.0,0.0,-0.11926284347999996,0.0,-0.34383823437419164,-0.3041549224227537,-0.47506796332055756,-0.1985158683994908,-1.006692568267821,-0.11308256151037989
11967,7.0,300.20995,3282.7813,0.0,0.0,0.0,0.0,-0.11927281028958378,0.0,-0.2975981303631487,-0.2846117496614927,-0.4156736843912986,-0.23432470448604778,-1.020202718211169,-0.10127384897595071
11968,7.0,299.22501,2909.7434,0.0,0.0,0.0,0.0,-0.1192827770991676,0.0,-0.2607343691999787,-0.23498620481383278,-0.38876875316098863,-0.2091392080129328,-1.047737891003679,-0.08940513886335022
11969,7.0,298.82046,3047.9775,0.0,0.0,0.0,0.0,-0.11929274390875141,0.0,-0.26696415505481075,-0.25031215973138676,-0.4092327372156266,-0.24395737934421874,-1.024704081780419,-0.08442023410787843
11970,7.0,298.64519,3318.1279999999997,0.0,0.0,0.0,0.0,-0.11930271071833524,0.0,-0.28638660919915776,-0.2926075797781197,-0.4296338693665616,-0.2073244466863298,-1.012696277760341,-0.1102289047237459
11971,7.0,299.43568999999997,3459.8236,0.0,0.0,0.0,0.0,-0.11931267752791908,0.0,-0.31372094568934666,-0.28271951523224376,-0.45525952168311656,-0.2207716231359628,-1.0170725860022491,-0.1020119023752909
11972,7.0,300.27917,3551.5356,0.0,0.0,0.0,0.0,-0.11932264433750288,0.0,-0.3326625214687347,-0.3115920059042367,-0.43532362331559654,-0.2122421952516738,-1.011358939615856,-0.10958943245313489
11973,7.0,300.73812000000004,3504.0024,0.0,0.0,0.0,0.0,-0.11933261114708671,0.0,-0.3249146336515777,-0.29375118450348475,-0.44646340637250753,-0.23708170734564277,-0.998139825498731,-0.07986372338868583
11974,7.0,299.47137999999995,3313.5158,0.0,0.0,0.0,0.0,-0.11934257795667051,0.0,-0.3037240884802337,-0.27405141393926874,-0.42945056229097056,-0.2151117904623808,-1.000066702948899,-0.07634090711676093
11975,7.0,300.26583999999997,3564.8181,0.0,0.0,0.0,0.0,-0.11935254476625434,0.0,-0.29196160244186675,-0.31209839790671373,-0.4795556682784595,-0.2343849827344968,-1.016346997605639,-0.09521803411028831
11976,7.0,300.92778,3535.5427,0.0,0.0,0.0,0.0,-0.11936251157583817,0.0,-0.31552440927733466,-0.26682025327560877,-0.49237203574583654,-0.2173872056819468,-1.028944634773929,-0.11437912647084089
11977,7.0,300.05686000000003,3132.5409,0.0,0.0,0.0,0.0,-0.11937247838542199,0.0,-0.2731065886185217,-0.27910380317790073,-0.4000038425223056,-0.24608191149139377,-1.026508984183549,-0.13923966350438485
11978,7.0,299.90355,2907.8812,0.0,0.0,0.0,0.0,-0.1193824451950058,0.0,-0.26225623032017475,-0.24343779482543976,-0.3782292498608206,-0.2277054860877818,-1.019003739367839,-0.12598991883673688
11979,7.0,299.68917000000005,3272.0713,0.0,0.0,0.0,0.0,-0.11939241200458962,0.0,-0.2945842078081977,-0.2654826010235928,-0.4345611526153466,-0.22565273257769078,-1.007397253314868,-0.0873105269783781
11980,7.0,299.79889,3467.9543,0.0,0.0,0.0,0.0,-0.11940237881417345,0.0,-0.3207010736407317,-0.3094370863865627,-0.4240333624863346,-0.18911376873407582,-1.013082488168457,-0.11057513228291589
11981,7.0,299.82408,3442.9814,0.0,0.0,0.0,0.0,-0.11941234562375729,0.0,-0.3006812072374247,-0.27979789976140274,-0.4661012572231126,-0.19272728203570183,-0.9864299575380571,-0.059873433755797845
11982,7.0,299.1791,3411.9134,0.0,0.0,0.0,0.0,-0.11942231243334109,0.0,-0.2815408621859197,-0.29923364774706174,-0.45636196818941954,-0.19713274148298682,-1.009507853273168,-0.1185068439332149
11983,7.0,299.62521,3503.3831,0.0,0.0,0.0,0.0,-0.11943227924292492,0.0,-0.3130380049894457,-0.30101497182036474,-0.45088800611418156,-0.22918616872391379,-1.012196461751013,-0.08929539171851901
11984,7.0,299.61742999999996,3567.2645,0.0,0.0,0.0,0.0,-0.11944224605250872,0.0,-0.33430382451071866,-0.2984188021491427,-0.4516367067455726,-0.25611473907905674,-1.025416903225769,-0.15114043791639986
11985,7.0,300.5082,3560.5561,0.0,0.0,0.0,0.0,-0.11945221286209255,0.0,-0.34978357052845066,-0.2889994265695227,-0.44353715021620854,-0.26981556242622273,-0.9884742808073161,-0.06509837847320973
11986,7.0,300.2263,3132.4787,0.0,0.0,0.0,0.0,-0.11946217967167638,0.0,-0.2951049778295937,-0.23854280385734175,-0.41854752511992466,-0.24577449141105376,-0.989340640040319,-0.08776445187742701
11987,7.0,300.25527999999997,2972.6723,0.0,0.0,0.0,0.0,-0.1194721464812602,0.0,-0.25224970670510777,-0.23153825657854676,-0.4198301984215146,-0.23071508206480576,-0.9958522310129629,-0.07038316675477774
11988,7.0,300.56905,3484.3076,0.0,0.0,0.0,0.0,-0.11948211329084402,0.0,-0.2931947784760717,-0.2968116962980337,-0.4691360324651216,-0.21029733261223083,-1.029927183395899,-0.1223488957948959
11989,7.0,300.59021,3700.8104,0.0,0.0,0.0,0.0,-0.11949208010042783,0.0,-0.3367929949713807,-0.2922342376462737,-0.4959266994816545,-0.19623859893224183,-0.9993266048108571,-0.09390490859019292
11990,7.0,299.8079,3386.4623,0.0,0.0,0.0,0.0,-0.11950204691001166,0.0,-0.29184138031750173,-0.31794385799861574,-0.4196147510527516,-0.2022596046039688,-1.023531852739729,-0.1286486668341349
11991,7.0,300.5569,3277.4664,0.0,0.0,0.0,0.0,-0.1195120137195955,0.0,-0.3102083014351757,-0.28201665403537673,-0.4040429816609376,-0.2132283003814948,-1.0134723057469293,-0.08502435813550081
11992,7.0,299.99084,3335.8804,0.0,0.0,0.0,0.0,-0.1195219805291793,0.0,-0.3135242637124357,-0.2616247221953497,-0.4388753486261246,-0.24150148401684077,-1.028615024516399,-0.08580609477315222
11993,7.0,300.07225,3410.8165,0.0,0.0,0.0,0.0,-0.11953194733876313,0.0,-0.2934201556958147,-0.2866585553934968,-0.45672433682268254,-0.21164218907245783,-0.999719796512162,-0.07522696427482334
11994,7.0,299.4226,3328.5868,0.0,0.0,0.0,0.0,-0.11954191414834693,0.0,-0.27148281480326775,-0.2697378968060577,-0.47058656077827754,-0.2328618753166778,-1.0019323091655201,-0.09123779519996932
11995,7.0,299.55663,3329.849,0.0,0.0,0.0,0.0,-0.11955188095793076,0.0,-0.28174634930619974,-0.2939664190897267,-0.43647818127454263,-0.22168501743860777,-1.003852205322499,-0.13086891058575587
11996,7.0,299.34097,3144.3086,0.0,0.0,0.0,0.0,-0.11956184776751459,0.0,-0.29740056685865074,-0.25796267421393376,-0.40042805994167263,-0.24025868210668577,-1.007450600932633,-0.14433256248201484
11997,7.0,300.19858,3322.9238,0.0,0.0,0.0,0.0,-0.11957181457709841,0.0,-0.33975366110107563,-0.2679700388265837,-0.40236217199755464,-0.2223893579806208,-0.9666358331245292,-0.10933211759023989
11998,7.0,300.10976,3632.9795,0.0,0.0,0.0,0.0,-0.11958178138668223,0.0,-0.35181672778160766,-0.2946956146566927,-0.4578227201960846,-0.22503871314959176,-0.97493476687607,-0.08637942714348572
11999,7.0,300.8289,3504.6947,0.0,0.0,0.0,0.0,-0.11959174819626604,0.0,-0.30838091501232673,-0.28238258930899174,-0.4745761621195206,-0.23727970654768377,-0.991563710759719,-0.06631173026920824
12000,7.0,299.74922999999995,3243.778,0.0,0.0,0.0,0.0,-0.11960171500584987,0.0,-0.22820881807495677,-0.2956455771554467,-0.46217312976543656,-0.23433560705712378,-1.028424432172589,-0.09094530941285321
12001,7.0,300.54719,3423.8774,0.0,0.0,0.0,0.0,-0.1196116818154337,0.0,-0.2943424260693357,-0.28381841536319674,-0.4626123939487885,-0.2344942617577818,-1.0229280570051391,-0.09593249600755022
12002,7.0,299.63187999999997,3763.83,0.0,0.0,0.0,0.0,-0.11962164862501751,0.0,-0.34086835780108765,-0.32592364836615967,-0.47731833099765153,-0.2068859627055548,-1.0326281028624589,-0.0966876034193235
12003,7.0,299.61668,3565.6274,0.0,0.0,0.0,0.0,-0.11963161543460134,0.0,-0.3641232176661636,-0.29629463477200374,-0.4234438333131526,-0.22925899100860078,-1.0293192333358991,-0.09032049583143892
12004,7.0,299.24719,3268.5059,0.0,0.0,0.0,0.0,-0.11964158224418514,0.0,-0.30653944441308767,-0.24386523438012475,-0.4431395002144636,-0.21145907451438578,-1.0244977840600589,-0.08123947384446183
12005,7.0,299.92224,3110.9379,0.0,0.0,0.0,0.0,-0.11965154905376897,0.0,-0.28403234285680967,-0.20956568498002281,-0.4520494136438036,-0.2145710594140148,-0.9895391762649132,-0.07245628963162903
12006,7.0,300.13192000000004,3305.3893,0.0,0.0,0.0,0.0,-0.1196615158633528,0.0,-0.2761294075093508,-0.2603952647890117,-0.4682311393308156,-0.21180601134862578,-1.009340140116616,-0.09846055298055001
12007,7.0,299.62878,3606.3026,0.0,0.0,0.0,0.0,-0.11967148267293662,0.0,-0.3086906047728907,-0.28367126105117374,-0.5038640853325135,-0.24171727589063777,-1.0187384704916589,-0.1038464930063509
12008,7.0,300.12382,3672.478,0.0,0.0,0.0,0.0,-0.11968144948252044,0.0,-0.3284035881184107,-0.3123240183064807,-0.47561400379944757,-0.25811602961656877,-1.017813271825349,-0.12358097751899288
12009,7.0,299.53556000000003,3233.2557,0.0,0.0,0.0,0.0,-0.11969141629210425,0.0,-0.3140343946077817,-0.2643524522595557,-0.40444215153783264,-0.24247127582005176,-0.9912750459387302,-0.10328641901357591
12010,7.0,298.70235,3108.4497,0.0,0.0,0.0,0.0,-0.11970138310168808,0.0,-0.28353754243547674,-0.25961150570416075,-0.40174203253885166,-0.2285087502370578,-1.005896305676736,-0.1110397074537659
12011,7.0,299.93836,3603.5619,0.0,0.0,0.0,0.0,-0.11971134991127189,0.0,-0.31056560381793874,-0.30073594300782674,-0.48409127970108956,-0.2175741807228998,-1.023861766972289,-0.07854025967782012
12012,7.0,300.64459,3548.0493,0.0,0.0,0.0,0.0,-0.11972131672085572,0.0,-0.2902119120366857,-0.2861641805372057,-0.5021422998350865,-0.19134985971726082,-1.008469971063237,-0.1008934252391558
12013,7.0,299.64954,3108.7881,0.0,0.0,0.0,0.0,-0.11973128353043953,0.0,-0.2679093350130927,-0.25978758830653875,-0.41729704277401164,-0.16290423104739585,-1.002140167291034,-0.09230018995631951
12014,7.0,300.53679,3102.7736,0.0,0.0,0.0,0.0,-0.11974125034002336,0.0,-0.2866122903939307,-0.24551910172334876,-0.4110343060259276,-0.2117942779124678,-1.013565930056169,-0.11305890212054488
12015,7.0,300.35476,3422.6165,0.0,0.0,0.0,0.0,-0.11975121714960718,0.0,-0.3272009514422197,-0.26598200160037977,-0.44720699009089354,-0.2322016010215138,-1.057060399873739,-0.1031095460761199
12016,7.0,299.71656,3507.8766,0.0,0.0,0.0,0.0,-0.119761183959191,0.0,-0.3290471235219227,-0.27784830524399273,-0.4594114862203836,-0.24783934312733877,-1.0292671522807588,-0.1180750879331039
12017,7.0,300.39685,3534.3267,0.0,0.0,0.0,0.0,-0.11977115076877483,0.0,-0.3154703017219947,-0.27306660576957575,-0.48581014703822856,-0.2215506908728508,-1.018411393359379,-0.08821060008195841
12018,7.0,299.63603,3233.0404,0.0,0.0,0.0,0.0,-0.11978111757835863,0.0,-0.26150912049144076,-0.26404778821948777,-0.45720664387028254,-0.24165406934939979,-1.006909667234247,-0.10006563435795922
12019,7.0,298.61851,3248.8434,0.0,0.0,0.0,0.0,-0.11979108438794246,0.0,-0.26272739161667474,-0.2870227681419417,-0.43781711022168457,-0.2310947874072798,-1.032911204940399,-0.09440234447503601
12020,7.0,299.40522000000004,3756.8488,0.0,0.0,0.0,0.0,-0.11980105119752628,0.0,-0.3307977055871917,-0.3087097653322817,-0.5024807456334885,-0.23058129252160176,-1.007414316446552,-0.0972521357125385
12021,7.0,299.561,3867.4111,0.0,0.0,0.0,0.0,-0.1198110180071101,0.0,-0.3872410658527176,-0.3108591829019127,-0.47749615639020154,-0.18202016690399184,-0.9869494002018221,-0.06958073043083343
12022,7.0,299.63657,3338.7319,0.0,0.0,0.0,0.0,-0.11982098481669391,0.0,-0.3111930488098627,-0.25806228683126475,-0.44563578369082757,-0.2100394097992758,-1.00920440513322,-0.08144887211012783
12023,7.0,298.88674,3050.3134,0.0,0.0,0.0,0.0,-0.11983095162627774,0.0,-0.2567495706642098,-0.24998115118871878,-0.4204883955539736,-0.2159149431541458,-1.0461358412705688,-0.08398794919121522
12024,7.0,299.66378,3344.0438,0.0,0.0,0.0,0.0,-0.11984091843586155,0.0,-0.28762015000339874,-0.28044802129056473,-0.4484376329998486,-0.23812641886124777,-1.017806787024709,-0.1131233245619029
12025,7.0,299.96803,3477.8741,0.0,0.0,0.0,0.0,-0.11985088524544538,0.0,-0.3190820418359457,-0.2835464489038557,-0.45455839314392055,-0.1978101802348448,-1.0062975729813382,-0.10850858843896391
12026,7.0,299.89941,3391.4812,0.0,0.0,0.0,0.0,-0.11986085205502921,0.0,-0.2919884940995207,-0.3006521066945527,-0.43828500885286253,-0.2161876188885568,-0.9952077735518602,-0.13426386584081187
12027,7.0,299.89848,3156.3340000000003,0.0,0.0,0.0,0.0,-0.11987081886461301,0.0,-0.28291828450436074,-0.25005261571827175,-0.4264758322498876,-0.2285921913827928,-1.044419192951149,-0.13049744296659488
12028,7.0,301.10844,3211.2671,0.0,0.0,0.0,0.0,-0.11988078567419684,0.0,-0.27092500035821576,-0.2676482204623228,-0.4375718023724746,-0.2153278052511998,-0.995025672243888,-0.1090738502722509
12029,7.0,300.96218999999996,3367.4596,0.0,0.0,0.0,0.0,-0.11989075248378066,0.0,-0.28593740503232473,-0.2827813133558427,-0.45490491454561954,-0.18622664429663882,-0.974115331255198,-0.12294984429670487
12030,7.0,299.53544,3637.9071,0.0,0.0,0.0,0.0,-0.11990071929336449,0.0,-0.33274210213158867,-0.29893560023014676,-0.47415520736547556,-0.21826118455570181,-0.9684703021655772,-0.10019618251409332
12031,7.0,298.95749,3529.5911,0.0,0.0,0.0,0.0,-0.1199106861029483,0.0,-0.3183737293535407,-0.3113576208911047,-0.4431762001330856,-0.25613606799366173,-1.034400378612369,-0.10845164378334389
12032,7.0,298.14371,2981.0315,0.0,0.0,0.0,0.0,-0.11992065291253212,0.0,-0.25815637723555074,-0.25039134522670176,-0.39761140704869063,-0.28106521219147673,-1.011149348832671,-0.07379317789306963
12033,7.0,299.39247,3222.6609999999996,0.0,0.0,0.0,0.0,-0.11993061972211595,0.0,-0.3070956680554827,-0.25457927001001773,-0.4179335462218296,-0.22591967331653579,-1.027096365266519,-0.08118673012375642
12034,7.0,300.35209,3578.6679,0.0,0.0,0.0,0.0,-0.11994058653169976,0.0,-0.3335791581716997,-0.27186072669306477,-0.4823857973977716,-0.2366250456580738,-1.010692342640068,-0.05694590799712354
12035,7.0,299.96488999999997,3248.8855,0.0,0.0,0.0,0.0,-0.11995055334128359,0.0,-0.3014728291430517,-0.24744800567371678,-0.43865923251229555,-0.2204100549702788,-1.062533774263919,-0.11463569152866189
12036,7.0,299.94421,3204.1282,0.0,0.0,0.0,0.0,-0.11996052015086742,0.0,-0.29828885282381773,-0.24246644261707476,-0.43321966014545155,-0.2165730288290938,-1.0178510660540792,-0.0978838728318861
12037,7.0,301.0292,3479.7936,0.0,0.0,0.0,0.0,-0.11997048696045122,0.0,-0.34418772459868363,-0.27843659825205275,-0.4351460208380685,-0.19117464850996882,-0.971286955058559,-0.12642597101727188
12038,7.0,299.62047,3508.7294,0.0,0.0,0.0,0.0,-0.11998045377003505,0.0,-0.3183603341872187,-0.3019042001081247,-0.4463015903315376,-0.20922251743615478,-0.983498574336252,-0.1184879974813549
12039,7.0,300.62573,3554.0019,0.0,0.0,0.0,0.0,-0.11999042057961887,0.0,-0.3139677024861997,-0.29722828394414774,-0.46913183760970756,-0.23099599552252975,-1.038560175572909,-0.1035483846944299
12040,7.0,301.05713,3341.5405,0.0,0.0,0.0,0.0,-0.1200003873892027,0.0,-0.2390303595404598,-0.29986185267656074,-0.47685268178169554,-0.25743638197949276,-1.0065240445111892,-0.08711567594439783
12041,7.0,301.82198,2916.0388,0.0,0.0,0.0,0.0,-0.12001035419878651,0.0,-0.22490659546905278,-0.24389540896810277,-0.41760095700900557,-0.23439437556292375,-1.006947988353029,-0.06584427746807422
12042,7.0,302.15764,3202.3694,0.0,0.0,0.0,0.0,-0.12002032100837033,0.0,-0.25714101957534274,-0.30068276764257873,-0.41561653708565854,-0.24238871620190378,-0.995001212386474,-0.09799010501212041
12043,7.0,300.53559,3595.9212,0.0,0.0,0.0,0.0,-0.12003028781795416,0.0,-0.3361794213733257,-0.3147214491030887,-0.44216938417122054,-0.23905492072288376,-1.052491959147869,-0.08993260038840661
12044,7.0,299.25203999999997,3557.5423,0.0,0.0,0.0,0.0,-0.12004025462753797,0.0,-0.33182209130579066,-0.29907377714628375,-0.45050816904919455,-0.19746545228582282,-1.014753155198339,-0.1079704107808499
12045,7.0,300.96858,3323.3764,0.0,0.0,0.0,0.0,-0.1200502214371218,0.0,-0.29744408595044575,-0.27872173696269376,-0.43405761797815157,-0.19745051697934882,-0.990400793487448,-0.11288930431880688
12046,7.0,300.17843999999997,3322.9524,0.0,0.0,0.0,0.0,-0.12006018824670563,0.0,-0.2662840109251857,-0.2763540045265167,-0.4674565298943676,-0.2039028530861448,-1.000468223566026,-0.13372131094226586
12047,7.0,299.93066,3452.5863,0.0,0.0,0.0,0.0,-0.12007015505628943,0.0,-0.3119863121806517,-0.28114383026673573,-0.45636988167270054,-0.23267434298816977,-1.0648614123936389,-0.11225369253107689
12048,7.0,300.13682,3502.4628,0.0,0.0,0.0,0.0,-0.12008012186587326,0.0,-0.3202065670619277,-0.3035927510022717,-0.44086192677218455,-0.22107271040317777,-1.005104075821049,-0.1111114556933469
12049,7.0,299.30631,3476.1678,0.0,0.0,0.0,0.0,-0.12009008867545708,0.0,-0.3351345680027067,-0.30044542393915474,-0.42108821934817164,-0.2175540677084148,-0.9797341982272371,-0.1019663973132999
12050,7.0,299.88189,3271.362,0.0,0.0,0.0,0.0,-0.12010005548504091,0.0,-0.3287696145845347,-0.27366597360122874,-0.39197676377259466,-0.24901941472380273,-0.9689149568394612,-0.07696056325516622
12051,7.0,300.05993,3310.4039,0.0,0.0,0.0,0.0,-0.12011002229462472,0.0,-0.2696132873087597,-0.28373864218282374,-0.4529281953230325,-0.2492598995025368,-1.024268080262389,-0.06956879738440573
12052,7.0,300.11619,3496.5696,0.0,0.0,0.0,0.0,-0.12011998910420854,0.0,-0.29070780676812674,-0.26752888999804575,-0.5046331624234155,-0.2267026015363048,-1.010425290443712,-0.04220598856640676
12053,7.0,299.93404,3663.8588,0.0,0.0,0.0,0.0,-0.12012995591379237,0.0,-0.3083857887453077,-0.3000659111141997,-0.5052698786537545,-0.2102232437649188,-1.004415957413137,-0.06879947407372942
12054,7.0,300.7154,3447.2747,0.0,0.0,0.0,0.0,-0.12013992272337617,0.0,-0.3345406919865957,-0.2731377156615937,-0.44020702270255063,-0.2177070786060158,-1.038339489701129,-0.1061917312903079
12055,7.0,300.83491000000004,3297.6362,0.0,0.0,0.0,0.0,-0.12014988953296,0.0,-0.31368767055606267,-0.28222878807631274,-0.4064826143242106,-0.2600920496965867,-1.075434170562089,-0.14486390070195387
12056,7.0,300.71595,3268.4644,0.0,0.0,0.0,0.0,-0.12015985634254384,0.0,-0.3208852926414127,-0.2895613244124777,-0.3830849368575397,-0.21704383548805878,-1.010731261576409,-0.13984555666668189
12057,7.0,300.41634,3299.127,0.0,0.0,0.0,0.0,-0.12016982315212765,0.0,-0.2929357106905037,-0.2785694657376657,-0.43134706250314053,-0.19033862598495982,-0.960556231199519,-0.11854668492714689
12058,7.0,300.21497999999997,3355.9521,0.0,0.0,0.0,0.0,-0.12017978996171147,0.0,-0.2775886295083647,-0.2960911944169257,-0.4464458163507716,-0.20654895572229479,-0.9751127442561351,-0.12061651170142289
12059,7.0,299.16821,3249.5664,0.0,0.0,0.0,0.0,-0.12018975677129529,0.0,-0.26689357205284475,-0.27849925763823674,-0.4423942041034086,-0.24114590415924775,-1.049166168344639,-0.1021924838081129
12060,7.0,299.69031,3364.9277,0.0,0.0,0.0,0.0,-0.12019972358087912,0.0,-0.28701211888339073,-0.2936513793686347,-0.4421905104358056,-0.23105762139361177,-0.9921486600424492,-0.08361160581257301
12061,7.0,300.13777000000005,3671.0394,0.0,0.0,0.0,0.0,-0.12020969039046293,0.0,-0.3549486129132007,-0.3139888996782917,-0.44696680928718957,-0.21386549283938078,-0.9800276557211991,-0.08867898000693392
12062,7.0,299.5205,3951.6319,0.0,0.0,0.0,0.0,-0.12021965720004675,0.0,-0.38022881787316265,-0.3209407072893817,-0.5000279001889115,-0.23601944633830577,-0.9926908603034601,-0.06395939619480094
12063,7.0,300.26052000000004,3610.7305,0.0,0.0,0.0,0.0,-0.12022962400963058,0.0,-0.3174192477593407,-0.29383565916432175,-0.48631699500325054,-0.28114993003233774,-1.050368997538349,-0.07593246600145093
12064,7.0,300.17868,3066.9648,0.0,0.0,0.0,0.0,-0.12023959081921438,0.0,-0.24557084840595578,-0.23111318802909578,-0.45559669078639253,-0.25462586938211673,-1.018926935010259,-0.04941486279411725
12065,7.0,300.40516,3316.8119,0.0,0.0,0.0,0.0,-0.12024955762879821,0.0,-0.2910648659708657,-0.24803643040428977,-0.4691267206967025,-0.18713263174105282,-0.9952519715212221,-0.0986023421332935
12066,7.0,300.41712,3749.5524,0.0,0.0,0.0,0.0,-0.12025952443838205,0.0,-0.3763399133268577,-0.2965188568866327,-0.4669115431955816,-0.19219515348068483,-1.022555586268379,-0.10010528283437221
12067,7.0,299.88027,3529.4415,0.0,0.0,0.0,0.0,-0.12026949124796586,0.0,-0.3717974725985536,-0.28475525627315573,-0.41630934684153365,-0.18453244959943482,-1.0539416160659392,-0.15542841101458985
12068,7.0,299.52173999999997,3062.0014,0.0,0.0,0.0,0.0,-0.12027945805754968,0.0,-0.2969589012725617,-0.24099818242716875,-0.39281487359280964,-0.1936104713528658,-1.0075578129257141,-0.11057802004570089
12069,7.0,299.01111000000003,3065.1457,0.0,0.0,0.0,0.0,-0.1202894248671335,0.0,-0.26885026945345575,-0.2421031113962168,-0.42077436512969657,-0.2015213100511048,-0.973788233857916,-0.1359358196983209
12070,7.0,299.05392,3481.906,0.0,0.0,0.0,0.0,-0.12029939167671733,0.0,-0.2974824577317327,-0.25381568473465776,-0.5071143383407886,-0.25221675581185576,-1.0206484469301589,-0.06927751939140885
12071,7.0,300.30831,3720.5107,0.0,0.0,0.0,0.0,-0.12030935848630114,0.0,-0.3077606033011067,-0.3298570751218587,-0.4933246732248545,-0.2832440545440117,-1.0421220536494389,-0.08592796646868002
12072,7.0,300.26201000000003,3505.3869,0.0,0.0,0.0,0.0,-0.12031932529588496,0.0,-0.3017954378423907,-0.2863870752942037,-0.47736757495251153,-0.26087563652892076,-1.030115647914499,-0.07446132615476073
12073,7.0,300.36838,3286.6638,0.0,0.0,0.0,0.0,-0.12032929210546879,0.0,-0.3106298742717817,-0.2785775008109587,-0.40985634198967164,-0.24348522506262077,-1.006071192643996,-0.10619954344857889
12074,7.0,300.81897000000004,3489.3772,0.0,0.0,0.0,0.0,-0.1203392589150526,0.0,-0.2951950962934877,-0.30979194683658473,-0.4556964959212426,-0.21893409407961278,-1.042790494740409,-0.14652521543341288
12075,7.0,301.21766,3632.5676,0.0,0.0,0.0,0.0,-0.12034922572463642,0.0,-0.33050154271546267,-0.29135462510196275,-0.48235366723710055,-0.22613452286773977,-1.0471670258973391,-0.13013429413075486
12076,7.0,300.41071,3431.0029999999997,0.0,0.0,0.0,0.0,-0.12035919253422026,0.0,-0.27021115553026476,-0.2963601008609647,-0.4763679834638595,-0.17730368020601084,-0.996875644011466,-0.11347336194144889
12077,7.0,300.02207999999996,3085.0921,0.0,0.0,0.0,0.0,-0.12036915934380407,0.0,-0.25468545862049774,-0.25930929372933476,-0.42379621130042955,-0.1942753154059808,-0.9749935252493691,-0.1259198829898249
12078,7.0,299.24871,3268.4447,0.0,0.0,0.0,0.0,-0.12037912615338789,0.0,-0.30975790163322475,-0.25805116134516676,-0.42571649249244664,-0.2115045187813708,-1.0244835985586591,-0.1115537798920009
12079,7.0,299.5757,3625.2398,0.0,0.0,0.0,0.0,-0.1203890929629717,0.0,-0.3683764768159276,-0.2960624485115887,-0.4375434617671776,-0.2679345953380857,-1.0600517168189592,-0.1147012589426329
12080,7.0,299.62621,3563.4194,0.0,0.0,0.0,0.0,-0.12039905977255554,0.0,-0.32584594221599067,-0.26709558372528175,-0.49024898294380753,-0.22000370115017479,-1.020227036213569,-0.07845871634952244
12081,7.0,299.76396,3517.385,0.0,0.0,0.0,0.0,-0.12040902658213935,0.0,-0.32458781996432373,-0.27681974493498174,-0.46778963586474254,-0.25862434679423574,-1.001000412916049,-0.07288269972421244
12082,7.0,299.79353,3635.5417,0.0,0.0,0.0,0.0,-0.12041899339172317,0.0,-0.32467136243506867,-0.28989869616577374,-0.4905438488554085,-0.22187201274456278,-1.035018055873329,-0.07412352782317264
12083,7.0,300.02423,3673.4122,0.0,0.0,0.0,0.0,-0.120428960201307,0.0,-0.35911297963169164,-0.28652165517248573,-0.47099095902568855,-0.2667848199196118,-1.024064720967319,-0.08300914858136513
12084,7.0,301.24635,3654.9578,0.0,0.0,0.0,0.0,-0.1204389270108908,0.0,-0.37164721774122467,-0.29660430426756573,-0.4427643950274435,-0.1931552079504348,-0.9809822183754071,-0.08415712548091163
12085,7.0,300.59514,3523.9844,0.0,0.0,0.0,0.0,-0.12044889382047463,0.0,-0.3292742941943427,-0.28135441403501876,-0.46057455548016957,-0.22868852106979978,-0.9681150364155151,-0.11939830137119489
12086,7.0,299.90255,3108.8147,0.0,0.0,0.0,0.0,-0.12045886063005846,0.0,-0.24667764175518775,-0.2617367876564098,-0.43658762241784355,-0.24939934298129876,-1.030650745292309,-0.13106980768308288
12087,7.0,299.73457,3001.0193,0.0,0.0,0.0,0.0,-0.12046882743964228,0.0,-0.2124518670948668,-0.26653379733983773,-0.4332492673133736,-0.27699492574477075,-1.0648214903396989,-0.13327596725831387
12088,7.0,299.9495,3295.0518,0.0,0.0,0.0,0.0,-0.1204787942492261,0.0,-0.24719196750594774,-0.28322708260483676,-0.4711944095132675,-0.20598406879154482,-1.004400211506583,-0.1064594117017259
12089,7.0,299.38757999999996,3458.8696,0.0,0.0,0.0,0.0,-0.12048876105880992,0.0,-0.3182133622602137,-0.3043307111826027,-0.42886592711577154,-0.21053695612837978,-0.9765483169978151,-0.09146368512426291
12090,7.0,299.63422,3503.6546,0.0,0.0,0.0,0.0,-0.12049872786839375,0.0,-0.34055900241305664,-0.28177743581926773,-0.44268708404481355,-0.18532795225294482,-1.0388367928502091,-0.11226253820444988
12091,7.0,299.32712999999995,3536.3616,0.0,0.0,0.0,0.0,-0.12050869467797756,0.0,-0.33024945622308366,-0.29758592069944373,-0.4471302465283196,-0.24062739368557476,-1.052451226493849,-0.08915252852066952
12092,7.0,298.9696,3685.6899,0.0,0.0,0.0,0.0,-0.12051866148756138,0.0,-0.3186872289344807,-0.3188727955577947,-0.4827976632984196,-0.1942971914756398,-1.029763239529719,-0.1017604339654729
12093,7.0,298.97486000000004,3790.3939,0.0,0.0,0.0,0.0,-0.12052862829714521,0.0,-0.32731333101081067,-0.3216393128358287,-0.5032324657501774,-0.2009385291235888,-0.989617581557651,-0.09070162884330381
12094,7.0,297.96157,3626.5584,0.0,0.0,0.0,0.0,-0.12053859510672901,0.0,-0.3195648453760947,-0.3137279877775417,-0.46909035515061354,-0.24432482436048275,-1.014441986092629,-0.1170007185870719
12095,7.0,298.9799,3332.5014,0.0,0.0,0.0,0.0,-0.12054856191631284,0.0,-0.35048914723558566,-0.26764228281673674,-0.3948657829877186,-0.2586056016673858,-1.017273412172069,-0.08693201828427223
12096,7.0,298.9316,2996.4012,0.0,0.0,0.0,0.0,-0.12055852872589667,0.0,-0.3129252910483217,-0.21267396138428582,-0.38523188209692666,-0.24773791679232876,-0.9770775273925439,-0.09456622045345932
12097,7.0,299.25226000000004,3169.8872,0.0,0.0,0.0,0.0,-0.12056849553548049,0.0,-0.2889737710769907,-0.2550233673963468,-0.4195694081107766,-0.2257746569622238,-0.9659692868112462,-0.0962723532633415
12098,7.0,300.46004,3569.9621,0.0,0.0,0.0,0.0,-0.12057846234506431,0.0,-0.3009692843733557,-0.2775282803324087,-0.5066817717405975,-0.2205018047668338,-1.044974859305989,-0.0900133868188796
12099,7.0,299.66372,3457.9346,0.0,0.0,0.0,0.0,-0.12058842915464812,0.0,-0.26473591675990077,-0.28310731644301673,-0.5032825405701195,-0.21002752437560282,-1.031597627510759,-0.1104841829539399
12100,7.0,299.58049,3341.9324,0.0,0.0,0.0,0.0,-0.12059839596423194,0.0,-0.2778408173257538,-0.28744662079127276,-0.4505765735634456,-0.19366722349096682,-1.024849888469809,-0.07858798882378062
12101,7.0,300.56227,3754.9275,0.0,0.0,0.0,0.0,-0.12060836277381577,0.0,-0.3970092933092666,-0.29897195564373474,-0.4454229403748216,-0.19355067946446483,-1.011245283352139,-0.07594617628855402
12102,7.0,300.82338,3845.4265,0.0,0.0,0.0,0.0,-0.12061832958339959,0.0,-0.3997443086416916,-0.31671495787983267,-0.45245436917876963,-0.23559331387624977,-1.050104843237279,-0.09578993678473072
12103,7.0,300.33676,3462.1561,0.0,0.0,0.0,0.0,-0.12062829639298342,0.0,-0.3357556295190007,-0.2839957138656947,-0.4326576711099876,-0.2371157930790068,-1.056871023430049,-0.12139920687366888
12104,7.0,299.7652,3148.5644,0.0,0.0,0.0,0.0,-0.12063826320256722,0.0,-0.22381828380164479,-0.28818452017659774,-0.4450821539686886,-0.22951444149131175,-1.017503723919799,-0.10698043503564689
12105,7.0,298.25255,3090.1656,0.0,0.0,0.0,0.0,-0.12064823001215105,0.0,-0.20576206569463482,-0.29596611882458174,-0.43760500657825163,-0.22606540907841877,-1.0119621071353841,-0.14706233931142285
12106,7.0,298.99109,3236.6443,0.0,0.0,0.0,0.0,-0.12065819682173488,0.0,-0.2604610753830067,-0.28764518741336975,-0.43575278539545154,-0.2239417584588308,-1.021171993256829,-0.13075301503931788
12107,7.0,299.14026,3326.458,0.0,0.0,0.0,0.0,-0.1206681636313187,0.0,-0.3310637344009467,-0.2942008041028587,-0.38589562170743263,-0.24394123827012576,-0.997346116297898,-0.11947701063896289
12108,7.0,298.66747999999995,3238.0345,0.0,0.0,0.0,0.0,-0.12067813044090252,0.0,-0.2934230130610967,-0.27964925597173274,-0.4112093652457046,-0.2013341019626288,-0.9706541905036101,-0.12076343296592289
12109,7.0,299.23871,3308.3509,0.0,0.0,0.0,0.0,-0.12068809725048633,0.0,-0.28728832072814975,-0.2829285689928757,-0.4354391844895016,-0.2318191193737658,-0.9921607278511402,-0.0934218385652676
12110,7.0,299.53014,3687.4784,0.0,0.0,0.0,0.0,-0.12069806406007016,0.0,-0.26247272133654076,-0.34358817438201267,-0.5148404514132965,-0.23472833266338278,-1.0570789423505689,-0.1152982962990559
12111,7.0,300.89923999999996,4049.1442,0.0,0.0,0.0,0.0,-0.120708030869654,0.0,-0.35773157524035765,-0.32008613215504167,-0.5530210324064265,-0.2271400621344788,-1.061269947414189,-0.06338999422160534
12112,7.0,300.74227,3665.6395,0.0,0.0,0.0,0.0,-0.1207179976792378,0.0,-0.3453557993139637,-0.2911892829506447,-0.47771779471707554,-0.1972647882360188,-1.0236858667549291,-0.07108928859046652
12113,7.0,300.48062000000004,3201.114,0.0,0.0,0.0,0.0,-0.12072796448882163,0.0,-0.3628523892582427,-0.23505948306106475,-0.3751468417316106,-0.2091200373210408,-1.019234557740619,-0.06478017031905504
12114,7.0,299.95398,3333.8506,0.0,0.0,0.0,0.0,-0.12073793129840543,0.0,-0.34795035791752665,-0.23384062425077276,-0.43161637424721955,-0.23769599021876778,-1.036155023810539,-0.1074034061573909
12115,7.0,299.96372,3526.3156,0.0,0.0,0.0,0.0,-0.12074789810798926,0.0,-0.35311797395753064,-0.25821032267087474,-0.46058358353856055,-0.2513278112341238,-1.019015594394009,-0.1010724310680723
12116,7.0,299.94273,3421.0386,0.0,0.0,0.0,0.0,-0.12075786491757308,0.0,-0.24378186416189676,-0.2863588562789187,-0.5097696007578425,-0.20667748649747977,-0.9717206564988621,-0.1152633189056039
12117,7.0,300.44322999999997,3373.735,0.0,0.0,0.0,0.0,-0.12076783172715691,0.0,-0.25644632517428173,-0.27691708787208874,-0.4921677645256765,-0.23280253939082177,-0.9885020539925572,-0.1098833560421429
12118,7.0,299.62384,3318.5984,0.0,0.0,0.0,0.0,-0.12077779853674073,0.0,-0.30191222504891674,-0.27952908450987274,-0.42732973863916157,-0.24284055481899677,-1.020489164014439,-0.11433022702101489
12119,7.0,299.7765,3517.3506,0.0,0.0,0.0,0.0,-0.12078776534632454,0.0,-0.37607311444302666,-0.2852009849921457,-0.40791265472034466,-0.2612850706293287,-1.032413800466309,-0.08524039217607172
12120,7.0,299.69409,3499.5097,0.0,0.0,0.0,0.0,-0.12079773215590837,0.0,-0.3441655749514977,-0.30155514558117574,-0.4180428353776156,-0.2142863057384118,-0.9986072681673641,-0.1030746193451729
12121,7.0,299.37237999999996,3400.8190000000004,0.0,0.0,0.0,0.0,-0.12080769896549218,0.0,-0.29143357754975474,-0.29401228892175374,-0.44831819107806054,-0.19217336860353482,-1.0276062327168392,-0.0974350648458422
12122,7.0,300.43786,3340.1498,0.0,0.0,0.0,0.0,-0.12081766577507601,0.0,-0.2094443280155458,-0.3096687558894267,-0.49620904162201956,-0.21721850967279777,-1.051740026248659,-0.12324539921837387
12123,7.0,299.62813,3320.1724,0.0,0.0,0.0,0.0,-0.12082763258465982,0.0,-0.25263052662269175,-0.27606686971317873,-0.4805520984267996,-0.2173384075571308,-1.052266612325629,-0.11129832940928988
12124,7.0,299.6262,3379.2442,0.0,0.0,0.0,0.0,-0.12083759939424364,0.0,-0.3260672157728287,-0.25701525497293076,-0.4441233863265656,-0.20667625033235779,-1.008459757502229,-0.10568150920245291
12125,7.0,300.15601000000004,3409.7527,0.0,0.0,0.0,0.0,-0.12084756620382746,0.0,-0.35892716982835365,-0.25693513728752376,-0.4206173721592026,-0.22147525440290577,-1.0046813580118301,-0.1042247392686809
12126,7.0,300.66479,3380.5527,0.0,0.0,0.0,0.0,-0.12085753301341129,0.0,-0.3082141644433697,-0.2911044435197717,-0.4282850004359386,-0.26698094460896776,-1.030459544998439,-0.13681744861033088
12127,7.0,300.52191,3486.3568,0.0,0.0,0.0,0.0,-0.12086749982299509,0.0,-0.3091346008342097,-0.2756382547883777,-0.4749925471156145,-0.23605993581230178,-0.998971764625837,-0.09331632984560471
12128,7.0,300.23863,3513.8446,0.0,0.0,0.0,0.0,-0.12087746663257892,0.0,-0.2338250303317338,-0.3121018429570537,-0.5221941545440505,-0.24969794778576876,-0.9770197518718422,-0.09747736398451681
12129,7.0,299.56813999999997,3462.5848,0.0,0.0,0.0,0.0,-0.12088743344216275,0.0,-0.29045000554518374,-0.26192447197243274,-0.5001648206749245,-0.21607006161195477,-1.0026080760547131,-0.07156533476569864
12130,7.0,299.78432000000004,3540.0484,0.0,0.0,0.0,0.0,-0.12089740025174657,0.0,-0.3480399798888717,-0.27386337498571073,-0.45418297384936956,-0.2495318659618778,-1.037935608211269,-0.07513734838297893
12131,7.0,299.49964,3421.8364,0.0,0.0,0.0,0.0,-0.12090736706133039,0.0,-0.3751066764976467,-0.25558939929970975,-0.4094567364152336,-0.2255690887819358,-1.032183590043589,-0.06138053080878674
12132,7.0,299.03148999999996,3333.9499,0.0,0.0,0.0,0.0,-0.1209173338709142,0.0,-0.34004918562524167,-0.25257143387685976,-0.4208169013688946,-0.2468899683136428,-1.0017915383291272,-0.0965887162890641
12133,7.0,300.54218,3716.6036,0.0,0.0,0.0,0.0,-0.12092730068049803,0.0,-0.3257732820513197,-0.3186002110158927,-0.48538119774089455,-0.2194105242766328,-1.030503520052779,-0.11573226118438489
12134,7.0,300.5902,3848.5601,0.0,0.0,0.0,0.0,-0.12093726749008184,0.0,-0.28537211280153474,-0.3366813753403647,-0.5478126735799015,-0.26145201371580473,-1.051264913276769,-0.14481310647444084
12135,7.0,299.62804,3357.3187,0.0,0.0,0.0,0.0,-0.12094723429966567,0.0,-0.2928178595713727,-0.2707473168206797,-0.45697588629250857,-0.21745767722640177,-1.042474766009249,-0.11921145805275488
12136,7.0,300.53173,2935.007,0.0,0.0,0.0,0.0,-0.1209572011092495,0.0,-0.27107525521554476,-0.23116901810960577,-0.38992456755005866,-0.21946668872967579,-1.0111842856961188,-0.10851661337975589
12137,7.0,300.36036,3080.7442,0.0,0.0,0.0,0.0,-0.1209671679188333,0.0,-0.3113194010973327,-0.23553007693750877,-0.3896198427149846,-0.19379315021339483,-1.027019256933909,-0.12167435493832389
12138,7.0,301.08492,3557.9055,0.0,0.0,0.0,0.0,-0.12097713472841713,0.0,-0.3143013961416327,-0.3084392174230807,-0.4587738276674516,-0.24184110518535876,-1.0508167527575392,-0.11932611743407087
12139,7.0,299.89628,3604.0081,0.0,0.0,0.0,0.0,-0.12098710153800095,0.0,-0.28873139152056976,-0.3231908621839547,-0.48360620648071656,-0.2044270985553838,-1.036031305973329,-0.14025430175702186
12140,7.0,300.2382,3436.6179,0.0,0.0,0.0,0.0,-0.12099706834758478,0.0,-0.24571793179047177,-0.2991740281111777,-0.4997540794818875,-0.2360557308243868,-0.967369112089398,-0.09836360723748222
12141,7.0,300.23528,3338.4901,0.0,0.0,0.0,0.0,-0.1210070351571686,0.0,-0.27227342345879474,-0.2907624817435227,-0.4517817332323855,-0.23970004692905275,-1.0086774340212121,-0.08958270486387461
12142,7.0,300.87576,3595.0955,0.0,0.0,0.0,0.0,-0.12101700196675241,0.0,-0.3259760029988267,-0.30057591028703273,-0.4662673491795046,-0.26270029730900074,-1.029652592618799,-0.07530466738524202
12143,7.0,299.20659,3739.8336,0.0,0.0,0.0,0.0,-0.12102696877633624,0.0,-0.39965408885278764,-0.2683402398831197,-0.46882170201909956,-0.2241713406664888,-1.029012117230589,-0.062149719357199734
12144,7.0,300.01912999999996,3637.4334,0.0,0.0,0.0,0.0,-0.12103693558592005,0.0,-0.37077014845466466,-0.28623782355447375,-0.4486809650113636,-0.18539366152192982,-1.001877360612597,-0.08457811468546002
12145,7.0,299.65242,3233.5903,0.0,0.0,0.0,0.0,-0.12104690239550388,0.0,-0.27654452594281975,-0.23546793430887578,-0.4709182481985126,-0.2109493489190798,-1.049391819141909,-0.1199338952415539
12146,7.0,299.36001,3284.7879,0.0,0.0,0.0,0.0,-0.12105686920508771,0.0,-0.27167437986717374,-0.25317380092880876,-0.4736453297826546,-0.23358790954333178,-1.053136588861489,-0.12404459010224787
12147,7.0,298.28876,3733.3005,0.0,0.0,0.0,0.0,-0.12106683601467151,0.0,-0.36423062217676366,-0.2819973212234687,-0.48860218808628153,-0.2118494291154108,-1.015961861242629,-0.08060987670932543
12148,7.0,298.31012999999996,3559.7870000000003,0.0,0.0,0.0,0.0,-0.12107680282425534,0.0,-0.33946296977988666,-0.2807039581333237,-0.46191944233789956,-0.20187453916846582,-0.963734310403171,-0.07088187933474684
12149,7.0,299.5058,3212.3949,0.0,0.0,0.0,0.0,-0.12108676963383916,0.0,-0.3171788643056167,-0.2622726753692977,-0.3970362964244316,-0.22273223168195977,-1.037507510044019,-0.07115821999476953
12150,7.0,299.39395,3317.0624,0.0,0.0,0.0,0.0,-0.121096736443423,0.0,-0.26843415803488874,-0.28240462749866674,-0.45746536715081654,-0.2590606016247908,-1.047329348563359,-0.09165667380455941
12151,7.0,299.6939,3468.8454,0.0,0.0,0.0,0.0,-0.1211067032530068,0.0,-0.2728989331430277,-0.30234002937363774,-0.4792034017486935,-0.2220861327556948,-1.047191850524789,-0.12073103936022589
12152,7.0,299.98242,3450.5902,0.0,0.0,0.0,0.0,-0.12111667006259062,0.0,-0.26768960159640676,-0.31394983888693667,-0.4672538292118626,-0.2147373438879258,-1.007995668691427,-0.12530344189398687
12153,7.0,301.26647,3160.6673,0.0,0.0,0.0,0.0,-0.12112663687217445,0.0,-0.28106469543392576,-0.25527776409895375,-0.4244214879371396,-0.2169587630096628,-1.0394053274813189,-0.13081250295268887
12154,7.0,300.55503,3039.1091,0.0,0.0,0.0,0.0,-0.12113660368175826,0.0,-0.27043242908710274,-0.27336413652893976,-0.38001671422972966,-0.24507608851462678,-1.062785972213809,-0.13153218410121587
12155,7.0,299.71286000000003,3339.9431,0.0,0.0,0.0,0.0,-0.12114657049134209,0.0,-0.3224344507193027,-0.27949598162910577,-0.41332886153988263,-0.2020888010346118,-1.033887167436719,-0.12451030011320989
12156,7.0,299.15159,3669.7765,0.0,0.0,0.0,0.0,-0.12115653730092592,0.0,-0.3248223772299727,-0.3133010143179027,-0.47739703013291857,-0.21003140512348578,-0.99151974583788,-0.11422108985274389
12157,7.0,299.53,3664.2568,0.0,0.0,0.0,0.0,-0.12116650411050972,0.0,-0.2829466656396617,-0.3266874768215437,-0.5042084383789985,-0.2135784694835538,-1.047054757786259,-0.1317149642867549
12158,7.0,299.24902000000003,3361.5033,0.0,0.0,0.0,0.0,-0.12117647092009355,0.0,-0.27986257551528576,-0.2746657069448947,-0.4672847738699165,-0.26707914880865974,-1.039182817759359,-0.11347744533935188
12159,7.0,298.99549,3342.2733,0.0,0.0,0.0,0.0,-0.12118643772967737,0.0,-0.29265520253281974,-0.2779424969732887,-0.4453699473945916,-0.2205869481727368,-1.004716203682769,-0.09262485352686133
12160,7.0,299.09696,3522.0112,0.0,0.0,0.0,0.0,-0.1211964045392612,0.0,-0.3609981314427416,-0.27166829023407274,-0.4379370385035206,-0.22203111327526479,-0.9554001560781542,-0.06210140049968104
12161,7.0,299.79222000000004,3649.7342,0.0,0.0,0.0,0.0,-0.12120637134884502,0.0,-0.35734028844924065,-0.28432852599354075,-0.46775923836174255,-0.2167193218785318,-1.018350395703359,-0.04889872839192875
12162,7.0,300.36636,3578.9787,0.0,0.0,0.0,0.0,-0.12121633815842883,0.0,-0.3175724714394627,-0.2790273331928538,-0.49132037333454553,-0.23672678610061476,-1.056054343849449,-0.06963075154852014
12163,7.0,299.84085,3510.8329,0.0,0.0,0.0,0.0,-0.12122630496801266,0.0,-0.3172705330421637,-0.2767981424428497,-0.47313687074997357,-0.2084443616243568,-1.034219817444549,-0.07883959503561222
12164,7.0,299.70982999999995,3520.3448,0.0,0.0,0.0,0.0,-0.12123627177759647,0.0,-0.3389665988208987,-0.26591158071842974,-0.46521873665101454,-0.21950750244370376,-1.0005547551245662,-0.11636352612918589
12165,7.0,301.03833,3675.9598,0.0,0.0,0.0,0.0,-0.1212462385871803,0.0,-0.34553668472181565,-0.3113339007062637,-0.46052940505571355,-0.2423189539325188,-1.052648506288319,-0.14398421723013585
12166,7.0,301.3484,3659.5114,0.0,0.0,0.0,0.0,-0.12125620539676413,0.0,-0.35295893422183466,-0.3046693393660227,-0.45477179374748156,-0.2783303488465667,-1.034173410589969,-0.12459385271645589
12167,7.0,300.23672999999997,3071.0359,0.0,0.0,0.0,0.0,-0.12126617220634793,0.0,-0.2932893147104017,-0.2528936575411608,-0.38733526771451465,-0.24069387302463577,-0.9935050675538161,-0.11504945220699687
12168,7.0,299.41062999999997,2932.9081,0.0,0.0,0.0,0.0,-0.12127613901593176,0.0,-0.23246072960208777,-0.24884085979118079,-0.4102292382914736,-0.21256777277380579,-0.974394542452754,-0.08629956682360411
12169,7.0,299.93394,3195.1756,0.0,0.0,0.0,0.0,-0.12128610582551558,0.0,-0.25088387596781075,-0.2682084667076148,-0.4521612663223426,-0.21920735749908177,-1.009768603053902,-0.10108750215005971
12170,7.0,299.83996,3511.2654,0.0,0.0,0.0,0.0,-0.12129607263509941,0.0,-0.29786441248942874,-0.2995366500569657,-0.4699359427565665,-0.2312500274551008,-1.051915014540929,-0.1081195510630689
12171,7.0,300.08533,3509.1227,0.0,0.0,0.0,0.0,-0.12130603944468323,0.0,-0.3063235106842767,-0.2997295120809997,-0.4606326653734046,-0.2111923668230638,-1.025383465972469,-0.12468274514772887
12172,7.0,300.28558,3427.3233,0.0,0.0,0.0,0.0,-0.12131600625426704,0.0,-0.3411013546615827,-0.2902517732956197,-0.4104675851124966,-0.2161593289457648,-1.024990223608659,-0.08417914239233452
12173,7.0,299.34067999999996,3480.8645,0.0,0.0,0.0,0.0,-0.12132597306385087,0.0,-0.3177586156153337,-0.3063200352364337,-0.4340172298291655,-0.25977703024049675,-1.068916337968829,-0.11550781615473389
12174,7.0,299.00102000000004,3566.2825,0.0,0.0,0.0,0.0,-0.12133593987343468,0.0,-0.32530874741047366,-0.28545957655016674,-0.4732925160978345,-0.2547676129386058,-1.059169175981859,-0.08817635121532831
12175,7.0,299.91255,3520.5784,0.0,0.0,0.0,0.0,-0.1213459066830185,0.0,-0.30034635847687774,-0.3093872952766487,-0.46043428113632556,-0.23314799687991575,-1.004581613671986,-0.12629270836411988
12176,7.0,300.52272999999997,3265.7709,0.0,0.0,0.0,0.0,-0.12135587349260234,0.0,-0.29397852742842173,-0.23219074911294277,-0.4665435408917626,-0.19758544136266482,-0.9701894937427481,-0.08834291433301682
12177,7.0,299.64105,3241.6666,0.0,0.0,0.0,0.0,-0.12136584030218614,0.0,-0.2853855788953637,-0.27552510514971074,-0.4244750078074216,-0.2321096587074398,-1.032161805166439,-0.13244961113925888
12178,7.0,300.62342,3547.3932,0.0,0.0,0.0,0.0,-0.12137580711176997,0.0,-0.34931856979255865,-0.2710704726750728,-0.45792991192416355,-0.2314274880776148,-1.024438306279189,-0.07275657339151473
12179,7.0,300.2259,3713.4995,0.0,0.0,0.0,0.0,-0.12138577392135379,0.0,-0.36725007707726065,-0.2924033186904607,-0.4691577160172616,-0.2113213636932948,-0.9918003553205741,-0.09236490117395602
12180,7.0,299.61258,3599.2681,0.0,0.0,0.0,0.0,-0.12139574073093762,0.0,-0.3162335323598197,-0.2924708112796217,-0.4853832850361005,-0.21317951238917976,-1.004913301092221,-0.04244808947905026
12181,7.0,300.1979,3489.7953,0.0,0.0,0.0,0.0,-0.12140570754052143,0.0,-0.29322532796658674,-0.2958804991911317,-0.4717048038536396,-0.26481974294067373,-1.060146455703309,-0.09964530781897621
12182,7.0,299.80511,3589.9568,0.0,0.0,0.0,0.0,-0.12141567435010525,0.0,-0.27234690435604675,-0.32535751513778666,-0.49355281661737055,-0.24712518419185678,-1.074467225991659,-0.08545487391748942
12183,7.0,298.90348,3735.2049,0.0,0.0,0.0,0.0,-0.12142564115968908,0.0,-0.3336918315828197,-0.3357173489302227,-0.4659998410206036,-0.23350853153049775,-1.013683365742759,-0.12577448160047486
12184,7.0,299.71105,3557.7274,0.0,0.0,0.0,0.0,-0.12143560796927289,0.0,-0.3620486184839167,-0.27917854050527674,-0.4402331240251266,-0.19853834228670883,-1.024827191667569,-0.1050104843237279
12185,7.0,299.81326,3116.9157,0.0,0.0,0.0,0.0,-0.12144557477885672,0.0,-0.29222743873810275,-0.26130641980893576,-0.39393068486793165,-0.2345912804548568,-1.060173610805989,-0.1292202817455489
12186,7.0,299.69569,3013.6086,0.0,0.0,0.0,0.0,-0.12145554158844055,0.0,-0.25090994689288376,-0.2622558351526358,-0.4028959724152366,-0.2027213832045428,-1.057053104473019,-0.10782875841686988
12187,7.0,300.76867999999996,3203.2175,0.0,0.0,0.0,0.0,-0.12146550839802435,0.0,-0.26913434425149174,-0.26400065182483573,-0.4405631497151976,-0.2269025157810348,-0.9962111039333811,-0.11929462562096288
12188,7.0,299.71654,3512.6042,0.0,0.0,0.0,0.0,-0.12147547520760818,0.0,-0.2947918126211867,-0.31558217466553573,-0.4573699797864026,-0.2157357296089588,-0.9880126845917602,-0.11325778285017289
12189,7.0,299.72232,3611.3008,0.0,0.0,0.0,0.0,-0.121485442017192,0.0,-0.3267047020732437,-0.29980025720298176,-0.47124030974279757,-0.27530241304273273,-1.050940166619719,-0.10755526194987791
12190,7.0,300.01409,3433.0782,0.0,0.0,0.0,0.0,-0.12149540882677583,0.0,-0.3154217569097037,-0.2895765028989757,-0.43857179916116656,-0.24460494748312875,-1.040353020299849,-0.07387078575797894
12191,7.0,299.45908,3323.3621,0.0,0.0,0.0,0.0,-0.12150537563635964,0.0,-0.3031365756747507,-0.28528708085314275,-0.42179544765296967,-0.21510278266899177,-0.9847016872399902,-0.1067599619463879
12192,7.0,299.80099,3660.6481,0.0,0.0,0.0,0.0,-0.12151534244594346,0.0,-0.34792738753775965,-0.26038252823525476,-0.5044357002439275,-0.19360604344992882,-1.008381858834541,-0.053671372450202044
12193,7.0,299.31665,3796.4729,0.0,0.0,0.0,0.0,-0.12152530925552729,0.0,-0.3277183372082817,-0.3270751767073067,-0.4992394294910955,-0.21770502170831277,-1.060926252980269,-0.10909549329438689
12194,7.0,299.48537000000005,3485.3982,0.0,0.0,0.0,0.0,-0.1215352760651111,0.0,-0.3165127435573757,-0.26842410659389676,-0.47453718238817355,-0.22072641191650078,-1.0681905469221988,-0.09678801346448321
12195,7.0,299.29361,3283.1947,0.0,0.0,0.0,0.0,-0.12154524287469493,0.0,-0.3115565624157387,-0.2653362269141467,-0.4211164079659536,-0.2066375948410428,-0.9971223501458141,-0.09654340678434241
12196,7.0,299.33678,3398.6615,0.0,0.0,0.0,0.0,-0.12155520968427876,0.0,-0.3352312523272487,-0.2765503622633957,-0.42132662696420065,-0.24381242378491277,-1.015894378785969,-0.09710502497026981
12197,7.0,299.38971000000004,3764.4651,0.0,0.0,0.0,0.0,-0.12156517649386257,0.0,-0.34681368382284566,-0.29975418472093474,-0.49773552316267156,-0.25796481217164474,-1.040529021842219,-0.07479166088611222
12198,7.0,300.19326,3581.6631,0.0,0.0,0.0,0.0,-0.12157514330344639,0.0,-0.30985174885748673,-0.2912709914387087,-0.4876133877111945,-0.2545467041518038,-1.0756137184798091,-0.11162842602686789
12199,7.0,300.81753,3263.7465,0.0,0.0,0.0,0.0,-0.1215851101130302,0.0,-0.24327438798181278,-0.2857134463627217,-0.46310960590535954,-0.1971829378929408,-0.9880257656505511,-0.09830633834183022
12200,7.0,300.77718,3383.1057,0.0,0.0,0.0,0.0,-0.12159507692261404,0.0,-0.29416093271142374,-0.25953986892209074,-0.47467884488465456,-0.19674196131691982,-1.029770636255449,-0.13307401638088287
12201,7.0,300.27452,3557.3227,0.0,0.0,0.0,0.0,-0.12160504373219785,0.0,-0.33621619221945465,-0.2973727126134017,-0.4477483797518246,-0.23627659908118478,-1.043213020032109,-0.1107051525357479
12202,7.0,300.59176,3440.3543,0.0,0.0,0.0,0.0,-0.12161501054178167,0.0,-0.32348917314589565,-0.2891001132319597,-0.4331924949102706,-0.23053816859734574,-1.0645052549834888,-0.12664627185401386
12203,7.0,299.83599,3253.268,0.0,0.0,0.0,0.0,-0.1216249773513655,0.0,-0.2881142411496617,-0.27425435780179774,-0.4265436288140786,-0.2154937857500808,-1.014226771771389,-0.11672364534722689
12204,7.0,298.32068,3331.6823,0.0,0.0,0.0,0.0,-0.1216349441609493,0.0,-0.28202010921821774,-0.2958878351218557,-0.43484026248789265,-0.21306108371749183,-1.0284395295990791,-0.12440819490063289
12205,7.0,299.25883,3610.656,0.0,0.0,0.0,0.0,-0.12164491097053313,0.0,-0.3156707631217787,-0.2810143166389537,-0.5008641962914475,-0.2732417359168597,-1.059532831442749,-0.1035153426086689
12206,7.0,298.22949,3558.3236,0.0,0.0,0.0,0.0,-0.12165487778011697,0.0,-0.31840235366886566,-0.2949519770644937,-0.46828717206134557,-0.23680051017789078,-1.048545653983399,-0.11854910659488588
12207,7.0,299.64262,3353.2451,0.0,0.0,0.0,0.0,-0.12166484458970078,0.0,-0.3115372600013337,-0.26486377879001977,-0.4429017410784986,-0.2160218511721968,-0.9864241617474852,-0.08357507206696742
12208,7.0,299.9159,3371.2576,0.0,0.0,0.0,0.0,-0.1216748113992846,0.0,-0.29936738662776075,-0.2604932866036857,-0.46491746699878156,-0.2000554816614388,-1.008141232200793,-0.07364578040102263
12209,7.0,299.9691,3553.9527,0.0,0.0,0.0,0.0,-0.12168477820886842,0.0,-0.3338816538565537,-0.27394433366870075,-0.47248689107582553,-0.2338178362560238,-1.024751501885099,-0.08614450206805042
12210,7.0,299.37417,3665.1976,0.0,0.0,0.0,0.0,-0.12169474501845225,0.0,-0.3253895338409467,-0.27364992371964475,-0.5150891029878365,-0.22991308447815478,-1.029660901269619,-0.08553579916322611
12211,7.0,300.74967999999996,3700.2896,0.0,0.0,0.0,0.0,-0.12170471182803606,0.0,-0.32848834648927566,-0.3157690787789817,-0.4805382169004295,-0.2053142395479378,-0.9732596111482451,-0.09327958534397832
12212,7.0,300.54876,3586.2603,0.0,0.0,0.0,0.0,-0.12171467863761988,0.0,-0.3366964018393477,-0.2988447116961767,-0.45459246874478354,-0.24222706228094976,-1.039344025850269,-0.11423001658612489
12213,7.0,300.59202,3616.9796,0.0,0.0,0.0,0.0,-0.12172464544720371,0.0,-0.3590460139325827,-0.27284874686557475,-0.46757673175373055,-0.2509260879669768,-1.057854889277149,-0.08824334224568982
12214,7.0,300.20237000000003,3619.9444,0.0,0.0,0.0,0.0,-0.12173461225678751,0.0,-0.32280370945324566,-0.3036432108572517,-0.47392577714533257,-0.24997237644285275,-1.061779510889479,-0.1088772797528509
12215,7.0,300.86714,3503.5109,0.0,0.0,0.0,0.0,-0.12174457906637134,0.0,-0.3148887265620977,-0.2754518471674807,-0.47463923693824556,-0.2147711256462598,-0.990735814500512,-0.06899577506860284
12216,7.0,299.76993,3232.5999,0.0,0.0,0.0,0.0,-0.12175454587595518,0.0,-0.23774043136815376,-0.27783204257988775,-0.4670571776324546,-0.20877001007399582,-1.021799093743719,-0.0988779958097484
12217,7.0,299.66863,3269.3815,0.0,0.0,0.0,0.0,-0.12176451268553899,0.0,-0.27906445867651775,-0.2724734491610357,-0.44227244183889153,-0.23888296204841278,-1.046494835780999,-0.1011541983246421
12218,7.0,299.55017999999995,3428.6203,0.0,0.0,0.0,0.0,-0.12177447949512281,0.0,-0.3020355477185877,-0.28369500150101673,-0.45648440933150364,-0.22919261299454977,-1.037368796105329,-0.11972915792634789
12219,7.0,299.05511,3422.0081,0.0,0.0,0.0,0.0,-0.12178444630470663,0.0,-0.3343695439122047,-0.30169105281708875,-0.4041444079959476,-0.2681923762960267,-1.0076179594516501,-0.12318523242743588
12220,7.0,300.00178,3566.2008,0.0,0.0,0.0,0.0,-0.12179441311429046,0.0,-0.3167648097847527,-0.3085503506940487,-0.4587208245547206,-0.21346499560485477,-1.024968641381529,-0.11562204997100789
12221,7.0,301.21395,3429.3024,0.0,0.0,0.0,0.0,-0.12180437992387427,0.0,-0.3155714646119787,-0.2808098022387697,-0.44604102293582154,-0.24747814986419175,-1.0663215057877389,-0.1193966193760289
12222,7.0,300.00327000000004,3284.3263,0.0,0.0,0.0,0.0,-0.12181434673345809,0.0,-0.2584717614616768,-0.2926631362811027,-0.4472183080945106,-0.21311703538801377,-1.0371289598066589,-0.11167632235909489
12223,7.0,300.1951,3383.0537,0.0,0.0,0.0,0.0,-0.12182431354304192,0.0,-0.3248336141735817,-0.25439440252927276,-0.44913585351125757,-0.21383735488410383,-0.9853406832830541,-0.10638752160713089
12224,7.0,299.87104,3504.4712,0.0,0.0,0.0,0.0,-0.12183428035262572,0.0,-0.3418269227931907,-0.2800562380068987,-0.4433885672215445,-0.2234737990326468,-1.020011619242309,-0.1063310227815549
12225,7.0,299.48271,3454.0229,0.0,0.0,0.0,0.0,-0.12184424716220955,0.0,-0.35364164187421265,-0.2660814318326927,-0.43021363080877956,-0.23229573195580377,-1.0484458488485489,-0.10172101853658291
12226,7.0,299.38662,3487.935,0.0,0.0,0.0,0.0,-0.12185421397179337,0.0,-0.34978219250831466,-0.25946643868734376,-0.4509965150673905,-0.24832216693248974,-1.051189122169289,-0.09215235575347941
12227,7.0,298.63244,3510.7601,0.0,0.0,0.0,0.0,-0.1218641807813772,0.0,-0.29888998371064474,-0.29174052140254775,-0.47655289147460855,-0.22431550589071678,-1.001470611624954,-0.07114223192144163
12228,7.0,298.7501,3570.9042,0.0,0.0,0.0,0.0,-0.121874147590961,0.0,-0.3045836386725647,-0.27468651910194875,-0.5061955738126136,-0.2551766822689778,-1.040021180892099,-0.08030098336334002
12229,7.0,299.74138999999997,3777.46,0.0,0.0,0.0,0.0,-0.12188411440054484,0.0,-0.3224888014546667,-0.31133507607637967,-0.5144296494252536,-0.2290958070799958,-1.0309270585945791,-0.09396749603561982
12230,7.0,299.76312,3639.6676,0.0,0.0,0.0,0.0,-0.12189408121012867,0.0,-0.3683979577180476,-0.2935549686216197,-0.4444151415603596,-0.22723711122905677,-1.024728906407869,-0.1095466834314159
12231,7.0,300.82427,3425.4416,0.0,0.0,0.0,0.0,-0.12190404801971247,0.0,-0.31484041479732966,-0.2932528377068017,-0.43315547075161653,-0.17993823179102084,-0.9645637468025301,-0.09427919811088241
12232,7.0,300.3728,3332.5107,0.0,0.0,0.0,0.0,-0.1219140148292963,0.0,-0.3051770992561347,-0.28906012025051275,-0.4187628103686716,-0.22081903310814177,-1.0247021566052292,-0.1161040226460749
12233,7.0,299.80335,3511.8035,0.0,0.0,0.0,0.0,-0.12192398163888012,0.0,-0.28600930525942075,-0.2927514410273177,-0.48873981784736453,-0.23711919759934277,-1.068437273321549,-0.0933525829209326
12234,7.0,299.15811,3370.2558,0.0,0.0,0.0,0.0,-0.12193394844846393,0.0,-0.26637283242895177,-0.29185763284910576,-0.46624316289961754,-0.23842291610550975,-1.048466316500569,-0.11403569548194689
12235,7.0,299.00815,3198.0153,0.0,0.0,0.0,0.0,-0.12194391525804775,0.0,-0.26452420828400675,-0.28172975226956176,-0.4258628260718886,-0.2234876704265158,-1.008216344430706,-0.1050434048194769
12236,7.0,300.72033999999996,3517.5597,0.0,0.0,0.0,0.0,-0.12195388206763158,0.0,-0.3328680592515197,-0.3047031616543607,-0.4316790842959086,-0.25684332669596277,-1.028933792997859,-0.1295152692471619
12237,7.0,301.19856,3743.3742,0.0,0.0,0.0,0.0,-0.12196384887721538,0.0,-0.34377252510520667,-0.3370114415604397,-0.45710833834558057,-0.2546475428017558,-1.061619113398649,-0.1144894491417289
12238,7.0,300.8734,3604.6568,0.0,0.0,0.0,0.0,-0.12197381568679921,0.0,-0.3243230982431977,-0.2945542561352417,-0.47684829440876253,-0.2270988025904068,-1.036949107913909,-0.12437551758490789
12239,7.0,301.66339,3384.3017,0.0,0.0,0.0,0.0,-0.12198378249638303,0.0,-0.2853086124177677,-0.27334640465218973,-0.4700882038490935,-0.1818226236644958,-0.98970471093375,-0.07191536403924384
12240,7.0,300.22668,3296.7841,0.0,0.0,0.0,0.0,-0.12199374930596685,0.0,-0.27095633005130776,-0.2699263005296518,-0.4612574049875615,-0.2029723652543128,-1.0338585937838989,-0.09698211266688932
12241,7.0,300.53424,3520.567,0.0,0.0,0.0,0.0,-0.12200371611555068,0.0,-0.3236398130382627,-0.2628567937869457,-0.4836678627493015,-0.22780162325726983,-1.058933595333609,-0.08306998614386932
12242,7.0,300.43028,3587.745,0.0,0.0,0.0,0.0,-0.1220136829251345,0.0,-0.36040374880158066,-0.3011163069628657,-0.4290648483754036,-0.25992288759239174,-1.021802437469049,-0.10965153455176391
12243,7.0,299.55216,3400.3724,0.0,0.0,0.0,0.0,-0.12202364973471833,0.0,-0.33275220423508567,-0.2746575401490887,-0.42621856804949765,-0.20763070152905477,-0.984940945986103,-0.08874452918240311
12244,7.0,299.91992,3376.4078,0.0,0.0,0.0,0.0,-0.12203361654430213,0.0,-0.31373130110536873,-0.26559796967997873,-0.4470143813793846,-0.2639792519827237,-1.0209757267124588,-0.1141475481604859
12245,7.0,300.05745,3607.0157,0.0,0.0,0.0,0.0,-0.12204358335388596,0.0,-0.30564152243946974,-0.3023350340506447,-0.4884661389953545,-0.24124680360420575,-1.0614622622831689,-0.11694879965194789
12246,7.0,300.05652000000003,3638.5782,0.0,0.0,0.0,0.0,-0.12205355016346979,0.0,-0.3148778949185287,-0.28534397484625773,-0.5058150477375585,-0.2227981436009648,-1.033750479998229,-0.10717188864204188
12247,7.0,300.63094,3583.9409,0.0,0.0,0.0,0.0,-0.12206351697305359,0.0,-0.3244857755467527,-0.2908942650515287,-0.47404851212994553,-0.1948840558010588,-0.9975248029530331,-0.09325574458237541
12248,7.0,300.36826,3520.073,0.0,0.0,0.0,0.0,-0.12207348378263742,0.0,-0.3246802790359487,-0.3013023700787287,-0.44403165679501255,-0.2232864592216578,-1.028295952059909,-0.09776667627231972
12249,7.0,300.06242000000003,3573.8320000000003,0.0,0.0,0.0,0.0,-0.12208345059222124,0.0,-0.33083649280101973,-0.2971032792793107,-0.4584159072021276,-0.24586718353020176,-1.0663023553608488,-0.10374018280585891
12250,7.0,299.73807999999997,3402.2856,0.0,0.0,0.0,0.0,-0.12209341740180507,0.0,-0.26823859063308775,-0.2918558191314267,-0.4741154575640526,-0.2504961659495467,-1.0247687271367991,-0.11767304042592489
12251,7.0,298.58682999999996,3078.0678,0.0,0.0,0.0,0.0,-0.12210338421138889,0.0,-0.22708032090858277,-0.25214461240473574,-0.4564308286662156,-0.2343879920872938,-1.00939084315162,-0.11846819857440088
12252,7.0,299.51771,3169.9404,0.0,0.0,0.0,0.0,-0.1221133510209727,0.0,-0.25458790290086974,-0.25759779272042277,-0.45139703256691854,-0.24457554296522677,-1.053651319912289,-0.1174677964856689
12253,7.0,299.34925,3421.6284,0.0,0.0,0.0,0.0,-0.12212331783055654,0.0,-0.3188414658647027,-0.3118850783631607,-0.4093630614434886,-0.24500514074262475,-1.0740855346789888,-0.13340044503309886
12254,7.0,299.85877,3525.5264,0.0,0.0,0.0,0.0,-0.12213328464014034,0.0,-0.35827671392665866,-0.3051589012843387,-0.4082363881272946,-0.22172097768465682,-1.0409067614794991,-0.12120408530191189
12255,7.0,300.18755,3536.9988,0.0,0.0,0.0,0.0,-0.12214325144972417,0.0,-0.3570875230792947,-0.28043427148670774,-0.4376375217739606,-0.2123735327296358,-1.006528148174094,-0.10733330951547289
12256,7.0,300.83887999999996,3567.1894,0.0,0.0,0.0,0.0,-0.122153218259308,0.0,-0.3176481916194357,-0.3126833674544457,-0.45400492554179755,-0.2353135757886418,-1.019084090100769,-0.1003280418158568
12257,7.0,301.41622,3608.1144,0.0,0.0,0.0,0.0,-0.1221631850688918,0.0,-0.3096853731910667,-0.28048321146653776,-0.5066081084583275,-0.23107216153254678,-1.043214337257239,-0.08542605505814523
12258,7.0,300.972,3709.8294,0.0,0.0,0.0,0.0,-0.12217315187847563,0.0,-0.34918015982889866,-0.29878658153793974,-0.47972877192554353,-0.23047090905570777,-1.026483247631009,-0.08077744902411352
12259,7.0,299.60442,3548.3109,0.0,0.0,0.0,0.0,-0.12218311868805945,0.0,-0.33546691403550666,-0.28125746626545073,-0.4618735421083696,-0.21234875876469078,-0.999997923532111,-0.07031067478962334
12260,7.0,298.67636,3319.3458,0.0,0.0,0.0,0.0,-0.12219308549764328,0.0,-0.3332617069153697,-0.25347248679328677,-0.4222640352942156,-0.25723450202956877,-1.040725997661659,-0.08275925476220253
12261,7.0,299.67202000000003,3395.3007,0.0,0.0,0.0,0.0,-0.1222030523072271,0.0,-0.3031372950823217,-0.2943375726013567,-0.4346117644578416,-0.23719134100646277,-1.061240765811309,-0.1163852502113299
12262,7.0,299.22427000000005,3413.9554,0.0,0.0,0.0,0.0,-0.12221301911681091,0.0,-0.2837956273684477,-0.2743930920054898,-0.4795684757597235,-0.23719271902659878,-1.0099178041311272,-0.09977356096363381
12263,7.0,300.44912,3628.8019,0.0,0.0,0.0,0.0,-0.12222298592639474,0.0,-0.30995496864517375,-0.3067301583469097,-0.4863800292919715,-0.2137155926195868,-1.002197608439203,-0.1045166667549919
12264,7.0,300.69007,3739.5445,0.0,0.0,0.0,0.0,-0.12223295273597855,0.0,-0.3263218759204617,-0.3303457960425917,-0.4800604796107805,-0.26341440558197776,-1.031017643153519,-0.1042323183794289
12265,7.0,300.6973,3630.1914,0.0,0.0,0.0,0.0,-0.12224291954556238,0.0,-0.3559373828907847,-0.29588760207433273,-0.4516625344906216,-0.23061307817723878,-1.069807187456749,-0.09327330319335832
12266,7.0,300.82689,3532.6020000000003,0.0,0.0,0.0,0.0,-0.12225288635514621,0.0,-0.35542494178521067,-0.3098752866573097,-0.40852256035303763,-0.2102510574801638,-1.043187992754639,-0.09922791970528322
12267,7.0,301.28182999999996,3429.8653,0.0,0.0,0.0,0.0,-0.12226285316473001,0.0,-0.30811646686872773,-0.28587179708834976,-0.4486051536388816,-0.21348603067693078,-1.0128130548343661,-0.09249045400709711
12268,7.0,300.17155,3412.1603,0.0,0.0,0.0,0.0,-0.12227281997431384,0.0,-0.25963181123616474,-0.30525952715176974,-0.4723201911693735,-0.24858034305796978,-1.028640761068939,-0.1138435022029789
12269,7.0,300.12354,3494.9446,0.0,0.0,0.0,0.0,-0.12228278678389766,0.0,-0.24943823152013675,-0.3163198308708367,-0.49661783737486453,-0.23097505164296278,-1.039766348491949,-0.10487959267580992
12270,7.0,299.03924,3252.237,0.0,0.0,0.0,0.0,-0.12229275359348149,0.0,-0.27469839439312077,-0.27216243204284074,-0.4417380030736466,-0.2115087541667888,-1.0116338141029841,-0.13866126994980185
12271,7.0,299.43664,3358.1432,0.0,0.0,0.0,0.0,-0.12230272040306531,0.0,-0.3035612287916607,-0.2975040602238647,-0.4197263909487696,-0.19375991561011482,-1.001731493128201,-0.1051556627980559
12272,7.0,300.79284,3625.7704,0.0,0.0,0.0,0.0,-0.12231268721264912,0.0,-0.3661226235584897,-0.3119789762499277,-0.4240420561721926,-0.23971170943770376,-1.051782886727889,-0.14264568345053286
12273,7.0,299.83047,3574.0923,0.0,0.0,0.0,0.0,-0.12232265402223295,0.0,-0.3007388206381107,-0.2833259656820957,-0.5023700176625605,-0.24704322239126777,-1.082817825365799,-0.08190858672024812
12274,7.0,300.81387,3500.9687,0.0,0.0,0.0,0.0,-0.12233262083181676,0.0,-0.30480363553427675,-0.3076383445440407,-0.45176508553324257,-0.22943982575394778,-1.0574972119918489,-0.11146561700079989
12275,7.0,300.75959,3618.7748,0.0,0.0,0.0,0.0,-0.12234258764140059,0.0,-0.3043158164061327,-0.28050853258653674,-0.5151928395330745,-0.20714774600139083,-1.004203093832129,-0.04843746249590536
12276,7.0,300.02403,3736.0779,0.0,0.0,0.0,0.0,-0.12235255445098442,0.0,-0.3620543636119837,-0.30284309791578673,-0.47077693020706557,-0.23522598031749675,-1.031741914324999,-0.09106850137326132
12277,7.0,300.10967999999997,3852.5539,0.0,0.0,0.0,0.0,-0.12236252126056822,0.0,-0.37621850569987564,-0.30904676218304067,-0.48581491944619953,-0.23694481725713276,-1.039972342237279,-0.08693800659236323
12278,7.0,299.30992000000003,3689.1851,0.0,0.0,0.0,0.0,-0.12237248807015205,0.0,-0.3775843870996776,-0.27731758510661475,-0.4665181691092586,-0.2140381303914188,-0.991338313274974,-0.09168751409785311
12279,7.0,298.89383,3528.051,0.0,0.0,0.0,0.0,-0.12238245487973587,0.0,-0.2910847864678317,-0.3103467721938417,-0.47100786003735656,-0.1968617781412448,-0.9866448476192651,-0.10461508373720489
12280,7.0,299.5232,3520.5490000000004,0.0,0.0,0.0,0.0,-0.1223924216893197,0.0,-0.28489988759242973,-0.2920210396927327,-0.4932380504738056,-0.23619321873045576,-1.015432438065379,-0.09230115558366482
12281,7.0,299.46397,3643.7645,0.0,0.0,0.0,0.0,-0.12240238849890352,0.0,-0.3003251410197837,-0.31235735423477073,-0.4949309279458795,-0.2559113088564797,-1.055535965098289,-0.09855735180235331
12282,7.0,299.89755,3465.5595,0.0,0.0,0.0,0.0,-0.12241235530848733,0.0,-0.3273413473760757,-0.29090090183968376,-0.4352013138960256,-0.2660780881073628,-1.011324245932432,-0.098815524888083
12283,7.0,300.51283,3164.5578,0.0,0.0,0.0,0.0,-0.12242232211807116,0.0,-0.2881169769249317,-0.26080353365180475,-0.41302604161499656,-0.24981015510184276,-1.035247860996009,-0.12448837338104587
12284,7.0,301.498,3238.485,0.0,0.0,0.0,0.0,-0.12243228892765497,0.0,-0.2834241293517837,-0.2990288293718477,-0.4019656061734166,-0.23842295663551374,-1.066939588348739,-0.13434742857655887
12285,7.0,300.98759,3732.8479,0.0,0.0,0.0,0.0,-0.1224422557372388,0.0,-0.3134514312952477,-0.31904989141027273,-0.5021912296824156,-0.24658798938633977,-1.0736093071319888,-0.12419355813194988
12286,7.0,300.50883,3691.4671,0.0,0.0,0.0,0.0,-0.12245222254682263,0.0,-0.3328324941730097,-0.2815712698214207,-0.5077100584720815,-0.18170991985587281,-1.053298404902459,-0.1088978588623819
12287,7.0,301.1774,3388.4371,0.0,0.0,0.0,0.0,-0.12246218935640643,0.0,-0.28446054234906976,-0.27880495519340676,-0.4667347715831356,-0.18737606507757784,-1.024870356121829,-0.09981662814588421
12288,7.0,300.38436,3425.6872,0.0,0.0,0.0,0.0,-0.12247215616599026,0.0,-0.3066518543791817,-0.27831467386751974,-0.4563568310114126,-0.2080361332915678,-1.041511671789199,-0.0954434944165395
12289,7.0,299.44338999999997,3569.4115,0.0,0.0,0.0,0.0,-0.12248212297557408,0.0,-0.34214703889728365,-0.2814619401356307,-0.4614029786294286,-0.23579237699089575,-1.047534329058589,-0.1107275149654549
12290,7.0,300.5019,3668.8291,0.0,0.0,0.0,0.0,-0.12249208978515791,0.0,-0.33789854202298975,-0.3119523277722977,-0.4653815558095836,-0.25487287949149473,-0.9945045475849571,-0.09367302731805802
12291,7.0,299.70788999999996,3340.4465,0.0,0.0,0.0,0.0,-0.12250205659474173,0.0,-0.2886968396921597,-0.26147463959053774,-0.4652408457681966,-0.2551016207015698,-0.995736781296569,-0.09915772173835521
12292,7.0,299.90342999999996,3255.2945,0.0,0.0,0.0,0.0,-0.12251202340432554,0.0,-0.25715415129663877,-0.28593011976410576,-0.44644396210308857,-0.2657183539243597,-1.037804189673299,-0.098514478150872
12293,7.0,299.72792999999996,3478.0976,0.0,0.0,0.0,0.0,-0.12252199021390937,0.0,-0.3142319074497747,-0.26176090300878974,-0.4812619915793605,-0.24957630711126377,-1.045055210038919,-0.1067619377840829
12294,7.0,299.52324,3842.7381,0.0,0.0,0.0,0.0,-0.12253195702349318,0.0,-0.4123114064519676,-0.28808435027171175,-0.4677006725059626,-0.18962553096208282,-1.035809302876419,-0.08088864207683742
12295,7.0,300.36241,3659.5019,0.0,0.0,0.0,0.0,-0.12254192383307701,0.0,-0.36011896472847466,-0.2997094497290197,-0.45256878538006157,-0.19619158412760182,-1.039354968951349,-0.11316400655341788
12296,7.0,299.87302999999997,3312.9077,0.0,0.0,0.0,0.0,-0.12255189064266084,0.0,-0.3113593130187717,-0.24210984950938177,-0.45357206509907755,-0.2186186186609778,-1.073733024969199,-0.1045807142938129
12297,7.0,300.56939,3511.4876,0.0,0.0,0.0,0.0,-0.12256185745224464,0.0,-0.2705267322739097,-0.3353382718028107,-0.46153952421290456,-0.23888871730898076,-1.0705227446773689,-0.13453472785754386
12298,7.0,301.35913,3764.5147,0.0,0.0,0.0,0.0,-0.12257182426182847,0.0,-0.34243328205053364,-0.28004007666780373,-0.5218451101496024,-0.22615647999740676,-1.027518586583189,-0.08899588410820992
12299,7.0,300.60026,3550.1172,0.0,0.0,0.0,0.0,-0.12258179107141229,0.0,-0.29348876286008574,-0.3035417439922377,-0.4821164653886905,-0.2479480952605718,-1.021143622254029,-0.12150791847689789
12300,7.0,299.45722,3034.0144,0.0,0.0,0.0,0.0,-0.12259175788099612,0.0,-0.2776639342557967,-0.2587008674417878,-0.3858998064303456,-0.23178131501253477,-1.067554023209379,-0.10158427030308691
12301,7.0,298.9256,3292.9021,0.0,0.0,0.0,0.0,-0.12260172469057994,0.0,-0.27503522912386374,-0.2815515215769717,-0.44437326393372656,-0.23596545024047677,-1.044280884312499,-0.12785082357289387
12302,7.0,298.51431,3599.7697,0.0,0.0,0.0,0.0,-0.12261169150016375,0.0,-0.3261780552012677,-0.32168895195822766,-0.4463730751260926,-0.1975323774549278,-1.018770590519829,-0.12520212701648786
12303,7.0,299.01552000000004,3625.7878,0.0,0.0,0.0,0.0,-0.12262165830974758,0.0,-0.29315301230694973,-0.3068626509299857,-0.5021333021741985,-0.23452252130307077,-0.993167584343009,-0.10849936786305389
12304,7.0,299.10737,3696.9947,0.0,0.0,0.0,0.0,-0.12263162511933139,0.0,-0.32475311145313673,-0.2978276821733037,-0.5012132913484005,-0.2499333156514978,-1.042574875119129,-0.1191655274257219
12305,7.0,299.71549,3484.7087,0.0,0.0,0.0,0.0,-0.12264159192891522,0.0,-0.30664998999899773,-0.29240315657044474,-0.46021127492181657,-0.2724920524328718,-1.044146628674249,-0.07701394532343463
12306,7.0,300.11742999999996,3435.9024,0.0,0.0,0.0,0.0,-0.12265155873849905,0.0,-0.3500582727630617,-0.24963837881238976,-0.44473187340911857,-0.2307591787091578,-1.0607834860411791,-0.0921992763258601
12307,7.0,300.71731,3731.4197,0.0,0.0,0.0,0.0,-0.12266152554808285,0.0,-0.3643058458641876,-0.2878062637817667,-0.4821463157366365,-0.21197674399047578,-1.031103060136949,-0.08763097340200372
12308,7.0,300.6704,3600.7593,0.0,0.0,0.0,0.0,-0.12267149235766668,0.0,-0.3328743920646447,-0.2859694642654887,-0.4756970700426456,-0.2253623654965338,-1.0740097435715092,-0.11678956739873289
12309,7.0,299.65036000000003,3336.0353,0.0,0.0,0.0,0.0,-0.1226814591672505,0.0,-0.26269901048137373,-0.2740969392662618,-0.47727548065092257,-0.2220319846703508,-1.036087034728829,-0.12208297843865187
12310,7.0,299.97852,3418.3566,0.0,0.0,0.0,0.0,-0.12269142597683433,0.0,-0.31111817975997375,-0.2897961349906517,-0.43818072515257056,-0.2060911186646098,-1.002769851565679,-0.1229622566104299
12311,7.0,299.38482999999997,3542.0715,0.0,0.0,0.0,0.0,-0.12270139278641815,0.0,-0.30933490011397774,-0.28929680534137175,-0.4780695850192946,-0.2031639809807238,-0.99167375985308,-0.08306578318245451
12312,7.0,298.14712000000003,3517.4473,0.0,0.0,0.0,0.0,-0.12271135959600196,0.0,-0.34412479163497267,-0.2885059940358247,-0.43658535273761956,-0.22616965224870678,-1.061663899053069,-0.10220005278635991
12313,7.0,298.91865,3507.3265,0.0,0.0,0.0,0.0,-0.12272132640558579,0.0,-0.29274817836199574,-0.3233482097919837,-0.4500432797708136,-0.26533002582353477,-1.043498351260269,-0.10931352445090489
12314,7.0,298.59007,3503.4523,0.0,0.0,0.0,0.0,-0.1227312932151696,0.0,-0.3377100572393877,-0.2737884046108117,-0.4534635662783696,-0.23784854515382378,-1.0172204191918393,-0.08783764906465101
12315,7.0,299.35899,3514.0341,0.0,0.0,0.0,0.0,-0.12274126002475343,0.0,-0.2775512203146727,-0.31200644546013867,-0.4786209653262115,-0.27022785389191273,-1.012539061874825,-0.12166426296732788
12316,7.0,299.40407999999996,3529.922,0.0,0.0,0.0,0.0,-0.12275122683433726,0.0,-0.3452636036873647,-0.2643072309075928,-0.46343730112020054,-0.26164985079782976,-1.041065537770169,-0.10241714162028491
12317,7.0,298.88662,3637.6716,0.0,0.0,0.0,0.0,-0.12276119364392106,0.0,-0.3194896723511757,-0.31291783352758573,-0.4733538278613856,-0.2388487952550408,-1.029428157721649,-0.1121108749294819
12318,7.0,299.81489,3431.1693,0.0,0.0,0.0,0.0,-0.12277116045350489,0.0,-0.34618697850349467,-0.26312021854794376,-0.43368259385113966,-0.19516314540860283,-1.038880159954489,-0.10912248627705089
12319,7.0,299.73712,3220.2311,0.0,0.0,0.0,0.0,-0.12278112726308871,0.0,-0.25390256079823176,-0.2694107791437737,-0.4555564951549255,-0.19264514798259583,-1.041782412215919,-0.12165966281187389
12320,7.0,299.57967,3374.7978,0.0,0.0,0.0,0.0,-0.12279109407267254,0.0,-0.27728244559314674,-0.29040707413844674,-0.4581647326348386,-0.21316633000537877,-1.084028355260269,-0.11732646836172089
12321,7.0,300.68172999999996,3479.0474,0.0,0.0,0.0,0.0,-0.12280106088225635,0.0,-0.26499002975247976,-0.3050608693371637,-0.48749262856427655,-0.24521935194626576,-1.0500168931285991,-0.1260234067525419
12322,7.0,299.74408999999997,3303.3144,0.0,0.0,0.0,0.0,-0.12281102769184017,0.0,-0.2835044091572067,-0.2687488431184457,-0.45187184156377863,-0.25347154447069375,-1.040837556497669,-0.09624548795019011
12323,7.0,299.55776000000003,3296.0195,0.0,0.0,0.0,0.0,-0.122820994501424,0.0,-0.3115267019352917,-0.26981775104643874,-0.42056316327885257,-0.2569525347917408,-1.016137964110009,-0.08137379534396832
12324,7.0,300.35495,3636.4478,0.0,0.0,0.0,0.0,-0.1228309613110078,0.0,-0.36252546411347764,-0.2805088973565727,-0.4623549777608835,-0.22463250118450181,-1.0520890909081089,-0.06317920172380173
12325,7.0,298.65954,3824.8371,0.0,0.0,0.0,0.0,-0.12284092812059164,0.0,-0.35317792796594766,-0.3158484162618117,-0.49362863812235347,-0.22595909887792678,-1.030150098417899,-0.07623925280047843
12326,7.0,298.71235,4042.1936,0.0,0.0,0.0,0.0,-0.12285089493017547,0.0,-0.3895795153610046,-0.3221460594758407,-0.5170003358564605,-0.2058388092572088,-1.020193396310249,-0.08101751431730612
12327,7.0,298.81305,3871.9313,0.0,0.0,0.0,0.0,-0.12286086173975927,0.0,-0.36292034794244965,-0.2911034302696717,-0.5229466548633165,-0.2419868916097468,-1.018531463496229,-0.09249104777165572
12328,7.0,299.76746,3562.9790000000003,0.0,0.0,0.0,0.0,-0.1228708285493431,0.0,-0.3280948204154377,-0.2928725953417747,-0.4620892225246556,-0.23865750376866177,-1.035781641148689,-0.1029582881011919
12329,7.0,299.87676,3581.9742,0.0,0.0,0.0,0.0,-0.12288079535892692,0.0,-0.3324399306867667,-0.29496095446037973,-0.46142983988957953,-0.27138528948114277,-1.022994931511739,-0.13256713801835787
12330,7.0,300.45291000000003,3613.4963,0.0,0.0,0.0,0.0,-0.12289076216851075,0.0,-0.35121126018435267,-0.2915364730974097,-0.4556649129156256,-0.21117842450168778,-1.021155983905249,-0.1044986613007149
12331,7.0,299.72372,3119.0535,0.0,0.0,0.0,0.0,-0.12290072897809455,0.0,-0.2684650115004337,-0.25185999045164575,-0.4277893691495236,-0.25665370707224877,-1.028786973058369,-0.13527606216070787
12332,7.0,300.2749,2964.6307,0.0,0.0,0.0,0.0,-0.12291069578767838,0.0,-0.2225480430787818,-0.25867820103705075,-0.41994745172308656,-0.22612915264220979,-1.068433726946199,-0.10148662339094991
12333,7.0,299.75041,3227.6173,0.0,0.0,0.0,0.0,-0.12292066259726221,0.0,-0.25052955254034176,-0.28332315897931876,-0.44726234394385656,-0.21186388819433777,-1.050387033390129,-0.1299966643696719
12334,7.0,300.39167000000003,3555.0349,0.0,0.0,0.0,0.0,-0.12293062940684601,0.0,-0.3152345285562257,-0.2872806706898947,-0.47812666139742754,-0.21900817279442378,-1.039958866010949,-0.07619819691967653
12335,7.0,300.16825,3767.2753,0.0,0.0,0.0,0.0,-0.12294059621642985,0.0,-0.34253249950032566,-0.3243842782842357,-0.4782408445511966,-0.2089200420163028,-1.054328170979089,-0.12095572756990089
12336,7.0,299.29947999999996,3662.5784,0.0,0.0,0.0,0.0,-0.12295056302601366,0.0,-0.3366516567149317,-0.2929972251040747,-0.4836834971983445,-0.2343329320768598,-1.057778794194639,-0.08507291004054252
12337,7.0,298.36555,3685.816,0.0,0.0,0.0,0.0,-0.12296052983559748,0.0,-0.3399229751927857,-0.3219961693885477,-0.45847689472564657,-0.2335732680793868,-1.0237198106332792,-0.12469780204421488
12338,7.0,299.93295,3727.6568,0.0,0.0,0.0,0.0,-0.1229704966451813,0.0,-0.34753780300681064,-0.28457185800505574,-0.5010049265978365,-0.23659335119494576,-1.044991881907669,-0.09799151342975941
12339,7.0,299.54437,3595.2674,0.0,0.0,0.0,0.0,-0.12298046345476513,0.0,-0.3039191897869887,-0.2948299209574477,-0.49412240502858457,-0.25855472637986476,-1.032343278259349,-0.11773527424706688
12340,7.0,300.2223,3345.7335,0.0,0.0,0.0,0.0,-0.12299043026434893,0.0,-0.28856539075668675,-0.27327690582783076,-0.4551771444499866,-0.2400214599932738,-1.059149417604909,-0.11496749040640789
12341,7.0,299.62726000000004,3020.5556,0.0,0.0,0.0,0.0,-0.12300039707393276,0.0,-0.25388427163392674,-0.2429180177891418,-0.42137119983609955,-0.21002755477310578,-1.033020129326149,-0.12175090598337888
12342,7.0,300.45853999999997,3402.1662,0.0,0.0,0.0,0.0,-0.12301036388351659,0.0,-0.3001771254451757,-0.29071073506091577,-0.44328570207139256,-0.17438687767314484,-1.012400783633678,-0.1106572562035209
12343,7.0,300.26718,3826.7397,0.0,0.0,0.0,0.0,-0.12302033069310041,0.0,-0.35348173074343064,-0.29786637819462275,-0.5118852163041375,-0.19409623358330683,-1.045250969958239,-0.07305346985631614
12344,7.0,300.73157000000003,3762.7149,0.0,0.0,0.0,0.0,-0.12303029750268422,0.0,-0.3247480350701357,-0.3178332820152027,-0.5011900575236076,-0.23116566425177476,-1.067669128420739,-0.09279099310600801
12345,7.0,299.82146,3628.8706,0.0,0.0,0.0,0.0,-0.12304026431226804,0.0,-0.29568157793149974,-0.3165589274969337,-0.49084554407268355,-0.25073843404845675,-1.045304469563519,-0.09061599907735282
12346,7.0,299.83021,3773.0399,0.0,0.0,0.0,0.0,-0.12305023112185187,0.0,-0.3501235868645077,-0.3003291636226807,-0.49645716630650755,-0.2253340755537418,-1.032612296160899,-0.09434927752754871
12347,7.0,300.20931,3732.8123,0.0,0.0,0.0,0.0,-0.12306019793143567,0.0,-0.3498853616334967,-0.3085345642574907,-0.47626180498588055,-0.24012536879102875,-1.027135882020419,-0.1129934258990829
12348,7.0,300.48598,3511.89,0.0,0.0,0.0,0.0,-0.1230701647410195,0.0,-0.3283163472848007,-0.2650704210154138,-0.4741400896739836,-0.23656983366012477,-1.065845886190799,-0.11984782977805988
12349,7.0,299.68868,3322.6471,0.0,0.0,0.0,0.0,-0.12308013155060332,0.0,-0.30182726402803167,-0.2616956699673518,-0.4464788179065286,-0.21138942370251182,-1.036457174990359,-0.12426922764941789
12350,7.0,298.90701,3173.8205,0.0,0.0,0.0,0.0,-0.12309009836018714,0.0,-0.28425469045875373,-0.24153726187787178,-0.4389702394979896,-0.21402064169469281,-1.031410581542299,-0.1182528829281509
12351,7.0,300.7072,3350.1547,0.0,0.0,0.0,0.0,-0.12310006516977097,0.0,-0.2866636216439967,-0.2713136526990727,-0.4603861010940706,-0.1934852133755038,-1.035041461950639,-0.12857716177457787
12352,7.0,299.79566,3774.3737,0.0,0.0,0.0,0.0,-0.12311003197935479,0.0,-0.35184140042154266,-0.3144181225531527,-0.48105584584651556,-0.24360221491916678,-1.040469442736339,-0.1066595893914819
12353,7.0,300.80095,3937.6432,0.0,0.0,0.0,0.0,-0.12311999878893862,0.0,-0.3416666570248737,-0.34306224691760767,-0.5122163059068136,-0.24984080591736776,-1.021195298009129,-0.09148740328260371
12354,7.0,301.47042000000005,3502.8652,0.0,0.0,0.0,0.0,-0.12312996559852242,0.0,-0.3174267052800767,-0.27908970886900974,-0.4682671198418666,-0.2402985534981208,-1.032796505029079,-0.07414673935646343
12355,7.0,300.63277999999997,3520.7031,0.0,0.0,0.0,0.0,-0.12313993240810625,0.0,-0.3171404519943257,-0.2865051898583607,-0.4665601784584046,-0.2581362642210658,-1.049895607091629,-0.08400318948596933
12356,7.0,300.42041,3846.6076,0.0,0.0,0.0,0.0,-0.12314989921769008,0.0,-0.36405303996423766,-0.30318885937991075,-0.5020307713965795,-0.24864174601402975,-1.053109231108789,-0.0921782057900306
12357,7.0,300.6576,3689.2079,0.0,0.0,0.0,0.0,-0.12315986602727388,0.0,-0.34309435681327666,-0.29394939648804674,-0.4843833287774125,-0.24043529159911575,-1.0464432613509091,-0.11677241307453988
12358,7.0,299.0668,3216.4788,0.0,0.0,0.0,0.0,-0.12316983283685771,0.0,-0.27992840637428273,-0.27040455457685175,-0.4273962787732286,-0.2058587398866758,-1.034978539119429,-0.1255942852026909
12359,7.0,299.12953999999996,3243.7863,0.0,0.0,0.0,0.0,-0.12317979964644153,0.0,-0.28876178902356975,-0.24175579965943977,-0.45551243904057753,-0.2040527533059388,-1.0445769559917188,-0.11772176762323389
12360,7.0,299.25675,3603.461,0.0,0.0,0.0,0.0,-0.12318976645602535,0.0,-0.3083962454863397,-0.3060261116474257,-0.48093979831256256,-0.2219615333908978,-1.0455839239410991,-0.1104815789011829
12361,7.0,298.92494,3671.6373,0.0,0.0,0.0,0.0,-0.12319973326560918,0.0,-0.34960996025631663,-0.28918326053516574,-0.4772928376251356,-0.2125169886787938,-1.036614938030929,-0.11866253994358088
12362,7.0,300.22915,3783.1172,0.0,0.0,0.0,0.0,-0.123209700075193,0.0,-0.33467778472512566,-0.3080711847217587,-0.5072241847841295,-0.24977723460609375,-1.032642997638929,-0.09665197146630691
12363,7.0,300.7455,3547.9733,0.0,0.0,0.0,0.0,-0.12321966688477683,0.0,-0.32557191885894665,-0.3135999737599077,-0.4393233875553426,-0.24386304575990875,-1.034957970142399,-0.0934938988858794
12364,7.0,300.13903999999997,3382.9106,0.0,0.0,0.0,0.0,-0.12322963369436063,0.0,-0.2699090651454507,-0.2950326723024577,-0.4633786136744085,-0.24905231495454974,-1.024795679589459,-0.09400377646870041
12365,7.0,299.98467999999997,3728.4691,0.0,0.0,0.0,0.0,-0.12323960050394446,0.0,-0.3304383057767217,-0.3277217619936197,-0.47520143875623055,-0.2501380630992048,-1.002411566330319,-0.08491309719502022
12366,7.0,300.08016000000003,3868.1809999999996,0.0,0.0,0.0,0.0,-0.12324956731352829,0.0,-0.3511416093724786,-0.3303211436676587,-0.4943676824802915,-0.23595904649984478,-1.009973016129076,-0.07881462450014783
12367,7.0,299.19839,3330.8848,0.0,0.0,0.0,0.0,-0.12325953412311212,0.0,-0.3042782552249257,-0.26624079580842075,-0.4419867458406956,-0.22179248274421381,-1.042922115928399,-0.1093138588234379
12368,7.0,299.00323,3256.8076,0.0,0.0,0.0,0.0,-0.12326950093269591,0.0,-0.27579000925585473,-0.2860993223983047,-0.4280988663925686,-0.2222709191764318,-1.0511107979365588,-0.13218487928563188
12369,7.0,298.20448,3658.739,0.0,0.0,0.0,0.0,-0.12327946774227974,0.0,-0.3352132063429677,-0.3031249232986007,-0.4738271777781015,-0.21015218453540577,-1.0758602422291388,-0.14396441832318185
12370,7.0,298.49606,3598.6391,0.0,0.0,0.0,0.0,-0.12328943455186356,0.0,-0.3197226388141677,-0.29448575029598073,-0.47968803927152354,-0.22137436509044878,-1.066188668699629,-0.11552834460175991
12371,7.0,300.27401000000003,3389.0809999999997,0.0,0.0,0.0,0.0,-0.12329940136144739,0.0,-0.29602682263807273,-0.28331603583111575,-0.4508531401782406,-0.2195733434352018,-1.065921373323249,-0.10362568554455891
12372,7.0,300.5826,3343.7866,0.0,0.0,0.0,0.0,-0.12330936817103122,0.0,-0.29644798004213774,-0.27190255365719274,-0.44807710848176757,-0.2288655054647668,-1.0331427325882492,-0.08630541631643142
12373,7.0,299.15333,3497.9931,0.0,0.0,0.0,0.0,-0.12331933498061501,0.0,-0.29841707962397274,-0.3053974203578787,-0.4594880676629416,-0.2232712604701578,-1.025054463664999,-0.09933934276577981
12374,7.0,300.83584,3803.3542,0.0,0.0,0.0,0.0,-0.12332930179019884,0.0,-0.3194736731320967,-0.33404750263292166,-0.5026035312806065,-0.24159503739857377,-1.012709460144142,-0.09196882576286641
12375,7.0,300.17989,3905.2617,0.0,0.0,0.0,0.0,-0.12333926859978267,0.0,-0.3675793225647547,-0.3188902943870217,-0.5006324254635736,-0.22057034100359782,-1.016846023279889,-0.09013683209181272
12376,7.0,300.09246,3497.2841,0.0,0.0,0.0,0.0,-0.1233492354093665,0.0,-0.2895637156827137,-0.33309960716437165,-0.4404237265014376,-0.25651722228377877,-1.034213332643909,-0.1201779669256419
12377,7.0,300.3885,3197.43,0.0,0.0,0.0,0.0,-0.12335920221895033,0.0,-0.2991209034084347,-0.26519797907050274,-0.4076199976939616,-0.2197145398366368,-1.0397096064863491,-0.10738887615095691
12378,7.0,299.42765,3479.2952,0.0,0.0,0.0,0.0,-0.12336916902853412,0.0,-0.3230637702239117,-0.2820898005600957,-0.4524652818823466,-0.24782385053330977,-1.036891453983219,-0.10632879363133489
12379,7.0,299.05832000000004,3619.8197,0.0,0.0,0.0,0.0,-0.12337913583811795,0.0,-0.3486962619786417,-0.27166118735087175,-0.47997736270507757,-0.1988014326751738,-1.033393613313009,-0.09669889305193771
12380,7.0,299.61962,3249.5429999999997,0.0,0.0,0.0,0.0,-0.12338910264770177,0.0,-0.2807217102750757,-0.24971247779220276,-0.4573457529765116,-0.23010998937008778,-1.0562612495198689,-0.13506909569528186
12381,7.0,298.52788,3128.6777,0.0,0.0,0.0,0.0,-0.1233990694572856,0.0,-0.2674162368519277,-0.26142050163769476,-0.42220316936070856,-0.19627985847631382,-1.069871022213049,-0.1162463640201229
12382,7.0,299.0934,3621.5265,0.0,0.0,0.0,0.0,-0.12340903626686943,0.0,-0.3237736937739757,-0.3002551761003787,-0.4768247464764385,-0.2194153473471088,-1.062119050997989,-0.10978466548240289
12383,7.0,299.84322000000003,3829.9832,0.0,0.0,0.0,0.0,-0.12341900307645322,0.0,-0.3636369893406767,-0.3107311486192767,-0.4898511201595415,-0.2249143063023138,-1.060269970890499,-0.05940801758736485
12384,7.0,299.97452999999996,3702.1885,0.0,0.0,0.0,0.0,-0.12342896988603705,0.0,-0.3253581332203477,-0.3196818656301437,-0.4803328513701615,-0.2313310165355938,-1.0515803380328992,-0.1028207495326179
12385,7.0,300.49131,3684.5702,0.0,0.0,0.0,0.0,-0.12343893669562088,0.0,-0.3207526987333267,-0.3149600188391337,-0.48430462964214555,-0.24105982856325275,-1.0309253360694088,-0.06817613983746114
12386,7.0,300.51252999999997,3365.5553,0.0,0.0,0.0,0.0,-0.12344890350520471,0.0,-0.27518729769887174,-0.2999494785452087,-0.4479079869075766,-0.24977157053803475,-1.026291338062069,-0.13063683578285187
12387,7.0,299.22062999999997,3456.4509,0.0,0.0,0.0,0.0,-0.12345887031478854,0.0,-0.3157769821297617,-0.2748569072387647,-0.4600408867850006,-0.22356818327946176,-1.050496971025979,-0.1066387772344279
12388,7.0,299.97116,3580.2095,0.0,0.0,0.0,0.0,-0.12346883712437233,0.0,-0.33821920528213667,-0.27886152494648975,-0.47121355994015757,-0.2525393239811907,-1.040026348467609,-0.13901219898943587
12389,7.0,300.44324,3310.7884,0.0,0.0,0.0,0.0,-0.12347880393395616,0.0,-0.3358099295918596,-0.2574972580455007,-0.41308980544378965,-0.2126942669162898,-1.061228809460129,-0.09790859005482551
12390,7.0,301.14377,3132.4545,0.0,0.0,0.0,0.0,-0.12348877074353999,0.0,-0.26887365526576373,-0.25618661904115075,-0.4271276661717186,-0.2271787378907958,-1.032813021005709,-0.14611073534750688
12391,7.0,301.6029,3613.2592,0.0,0.0,0.0,0.0,-0.12349873755312381,0.0,-0.34623381092311667,-0.2700845904602737,-0.48202217233438455,-0.2021591712540568,-1.020233217039179,-0.08997062867790973
12392,7.0,301.48385,4012.363,0.0,0.0,0.0,0.0,-0.12350870436270764,0.0,-0.35244893504900165,-0.3354348142723387,-0.5317744241070494,-0.2214831476211848,-1.060851880422929,-0.12637169120941488
12393,7.0,301.18897999999996,3780.8647,0.0,0.0,0.0,0.0,-0.12351867117229143,0.0,-0.3321863040542357,-0.3144311732144407,-0.5026710036047655,-0.2291770190755108,-1.0483506033391492,-0.08738562806254001
12394,7.0,300.26446,3593.7651,0.0,0.0,0.0,0.0,-0.12352863798187526,0.0,-0.3064499237667527,-0.33661288976610565,-0.4493520405525936,-0.2240960764490608,-1.039367938552629,-0.1057464484013619
12395,7.0,299.40621,3650.5989,0.0,0.0,0.0,0.0,-0.12353860479145909,0.0,-0.3585093054871137,-0.2969735326040057,-0.45420806192184554,-0.2166572299124038,-1.0570516859228791,-0.05159707318998465
12396,7.0,299.23752,3619.495,0.0,0.0,0.0,0.0,-0.12354857160104292,0.0,-0.30487707590152474,-0.3090127068471797,-0.48634630832864356,-0.2036798164741328,-1.039767564392069,-0.12885358653435888
12397,7.0,299.53607999999997,3580.0626,0.0,0.0,0.0,0.0,-0.12355853841062675,0.0,-0.3006461183864617,-0.3010667894304787,-0.48653672841993656,-0.24451005661126377,-1.0460310712102292,-0.1027829857013909
12398,7.0,300.45628999999997,3429.8718,0.0,0.0,0.0,0.0,-0.12356850522021054,0.0,-0.27318897598415276,-0.27804876664377676,-0.4913576406732235,-0.2197792459880228,-1.019750606016549,-0.14087115828540087
12399,7.0,299.90745,3147.2717,0.0,0.0,0.0,0.0,-0.12357847202979437,0.0,-0.2633164141648068,-0.26519266963997873,-0.4281829357533656,-0.24625067842804974,-1.029797588708109,-0.10767777401946889
12400,7.0,300.11476,3546.4308,0.0,0.0,0.0,0.0,-0.1235884388393782,0.0,-0.3542773853844557,-0.26661214183756976,-0.4571368714683966,-0.2163691933064768,-1.031596918235689,-0.13042932216237188
12401,7.0,301.48427000000004,4203.2426,0.0,0.0,0.0,0.0,-0.12359840564896202,0.0,-0.4293390946474696,-0.31965262323225774,-0.5286890775525495,-0.23950511787481477,-1.044620323095999,-0.07932616685288313
12402,7.0,301.14019,3836.9311,0.0,0.0,0.0,0.0,-0.12360837245854585,0.0,-0.32068208533385767,-0.32982602913879466,-0.5158231216252785,-0.2345415298749468,-1.0391627554073792,-0.1028064424412059
12403,7.0,301.38801,3402.8868,0.0,0.0,0.0,0.0,-0.12361833926812964,0.0,-0.2725801443965657,-0.2829658565965557,-0.47884661612348156,-0.2274844962409718,-1.053708771192959,-0.09519340200035732
12404,7.0,301.2469,3626.1409,0.0,0.0,0.0,0.0,-0.12362830607771347,0.0,-0.2669256414185097,-0.3233660024637397,-0.5119646551119775,-0.24344709646135776,-1.041987696686179,-0.1177229227283479
12405,7.0,300.30958,3674.0128,0.0,0.0,0.0,0.0,-0.1236382728872973,0.0,-0.3261676491227407,-0.3126427563904377,-0.4779977455872046,-0.2072977779436978,-1.032581999982909,-0.1031670885492989
12406,7.0,300.67617,3368.4193,0.0,0.0,0.0,0.0,-0.12364823969688113,0.0,-0.31585544821750566,-0.27473600623683275,-0.43332391344824056,-0.23804804396601276,-1.013538470978459,-0.0998378993052335
12407,7.0,300.90524,3151.0935,0.0,0.0,0.0,0.0,-0.12365820650646496,0.0,-0.30081236233036873,-0.24407453132078077,-0.4129668576766556,-0.2281754314841618,-1.030902639267169,-0.08971864047079042
12408,7.0,299.7116,3300.8072,0.0,0.0,0.0,0.0,-0.12366817331604875,0.0,-0.2790852708335717,-0.2665364115250957,-0.45774128528554753,-0.24401299664220777,-1.038386808480799,-0.13857095896838886
12409,7.0,300.23724,3629.6653,0.0,0.0,0.0,0.0,-0.12367814012563258,0.0,-0.3283347884366207,-0.2705394688276668,-0.5044533611931705,-0.23580394830703774,-1.027755889756609,-0.10809416914806388
12410,7.0,300.14007000000004,3839.6166,0.0,0.0,0.0,0.0,-0.12368810693521641,0.0,-0.31890378074585274,-0.3395938512953037,-0.5086499391323405,-0.21289588342118781,-1.038306660397889,-0.14362473635965786
12411,7.0,299.40005,3724.055,0.0,0.0,0.0,0.0,-0.12369807374480023,0.0,-0.35960008948476563,-0.28835106809553473,-0.4840685828988496,-0.22817883600449776,-1.0474950149547089,-0.06859093909714864
12412,7.0,299.30456000000004,3435.4127,0.0,0.0,0.0,0.0,-0.12370804055438406,0.0,-0.3305782862780367,-0.2865641508816797,-0.4271372413851636,-0.23951135949543076,-1.029084969912779,-0.1125259021704419
12413,7.0,300.02115,3513.6785,0.0,0.0,0.0,0.0,-0.12371800736396785,0.0,-0.32737747987464166,-0.2959685911548257,-0.4447244665508876,-0.23249947628591175,-1.0344164892889591,-0.08906746110852401
12414,7.0,300.87437,3667.66,0.0,0.0,0.0,0.0,-0.12372797417355168,0.0,-0.3295833861373477,-0.29472579937717175,-0.4905678831477806,-0.23922663621733076,-1.041805514318199,-0.0934102115203701
12415,7.0,300.92862,3596.3028,0.0,0.0,0.0,0.0,-0.12373794098313551,0.0,-0.2995301753888267,-0.3110876201369577,-0.48256847625830057,-0.24563321394961077,-1.055277181022749,-0.10931164993821989
12416,7.0,300.01787,3339.6533,0.0,0.0,0.0,0.0,-0.12374790779271934,0.0,-0.25300220702437376,-0.2778605351726997,-0.48430845972752357,-0.2270952359500548,-1.0660642415873491,-0.14536193339110587
12417,7.0,299.85406,3386.5336,0.0,0.0,0.0,0.0,-0.12375787460230317,0.0,-0.3155278543276747,-0.2637192925370677,-0.4501745057912646,-0.2174574644438808,-1.031322226133579,-0.13228310375032587
12418,7.0,300.90688,3541.4908,0.0,0.0,0.0,0.0,-0.12376784141188696,0.0,-0.3463373954808397,-0.28604142528759074,-0.44414595140629254,-0.2293104438486788,-1.054750797595799,-0.09784207018576051
12419,7.0,299.89537,3548.9048,0.0,0.0,0.0,0.0,-0.12377780822147079,0.0,-0.32484649258235265,-0.28037617172597373,-0.47355577873881655,-0.22571675985150977,-1.055666471711169,-0.1006736492659656
12420,7.0,299.46632999999997,3644.5105,0.0,0.0,0.0,0.0,-0.12378777503105462,0.0,-0.3305772426304337,-0.29296625004851773,-0.48429668576136153,-0.23082662063581377,-1.070292635579659,-0.10481663944709692
12421,7.0,300.16787,3763.7583,0.0,0.0,0.0,0.0,-0.12379774184063844,0.0,-0.3142986401013607,-0.3208648756518977,-0.5089250162694885,-0.21956568326444578,-1.053626292634819,-0.11643127203087188
12422,7.0,300.32939,3632.1859,0.0,0.0,0.0,0.0,-0.12380770865022227,0.0,-0.29403180411867974,-0.3146554459915747,-0.49540654754281954,-0.25029686978737775,-1.042290557141069,-0.10367102848653391
12423,7.0,299.69555,3774.5311,0.0,0.0,0.0,0.0,-0.12381767545980606,0.0,-0.35611127687294664,-0.3461642715687537,-0.4450876559167316,-0.25776565786448974,-1.042546706766349,-0.1024260987511689
12424,7.0,301.19511,3840.9539,0.0,0.0,0.0,0.0,-0.12382764226938989,0.0,-0.38235013801752066,-0.31025220556200866,-0.4749517232690855,-0.24195663596176079,-1.046109192792939,-0.08681107675233622
12425,7.0,299.85801000000004,3385.7278,0.0,0.0,0.0,0.0,-0.12383760907897372,0.0,-0.31738693521365174,-0.2872382256432057,-0.4245515487199756,-0.2449760705972558,-1.032674611042049,-0.10890503267308989
12426,7.0,299.64885,3301.0705,0.0,0.0,0.0,0.0,-0.12384757588855755,0.0,-0.2928121651058107,-0.2743864146873307,-0.43624443460897355,-0.19998385501186983,-1.053192418941999,-0.11489099002385789
12427,7.0,300.18565,3607.2011,0.0,0.0,0.0,0.0,-0.12385754269814138,0.0,-0.30427007829661873,-0.27250285367893773,-0.5197261407454765,-0.2181446607942018,-1.044380182822299,-0.1137748342437019
12428,7.0,299.34766,3622.7942,0.0,0.0,0.0,0.0,-0.12386750950772517,0.0,-0.2932673069182297,-0.3078677241016787,-0.5001039446089165,-0.17454256355100983,-1.059415598406179,-0.13608299427534587
12429,7.0,299.27526,3533.4654,0.0,0.0,0.0,0.0,-0.123877476317309,0.0,-0.33313108884497866,-0.2884771569379787,-0.4524770051860036,-0.21143539485954882,-1.055384990833389,-0.12161983195044289
12430,7.0,300.0533,3637.3693,0.0,0.0,0.0,0.0,-0.12388744312689283,0.0,-0.3518214697920757,-0.28018186075429674,-0.4736661115422055,-0.2449197136266938,-1.042871352098389,-0.08679984487497773
12431,7.0,300.01337,3658.4511,0.0,0.0,0.0,0.0,-0.12389740993647665,0.0,-0.3497222283673967,-0.31870908473913767,-0.4436464697694976,-0.2707957805729627,-1.0479730663518891,-0.11855649318811488
12432,7.0,300.26222,3651.1708,0.0,0.0,0.0,0.0,-0.12390737674606046,0.0,-0.3268138088440117,-0.27519134056677075,-0.5078596141868414,-0.23287864460583277,-1.045725880280109,-0.08306192979232423
12433,7.0,300.11321,3649.934,0.0,0.0,0.0,0.0,-0.12391734355564428,0.0,-0.29615403618812774,-0.3328284006426057,-0.4805063704497865,-0.2279841197327808,-1.0391651872076189,-0.13816779688609987
12434,7.0,299.52997999999997,3509.9669,0.0,0.0,0.0,0.0,-0.1239273103652281,0.0,-0.2899295698963207,-0.28624356868254075,-0.4907691652801456,-0.20037410828788482,-1.066573501087609,-0.08062986712054833
12435,7.0,300.15184,3340.2412,0.0,0.0,0.0,0.0,-0.12393727717481193,0.0,-0.3054912777146417,-0.27049842206611574,-0.4393602090639766,-0.23986025190236374,-1.050547532205969,-0.1200341462064479
12436,7.0,299.58937000000003,3479.4802,0.0,0.0,0.0,0.0,-0.12394724398439576,0.0,-0.3281769544685437,-0.2809957032346167,-0.4485024506087456,-0.19979036477277382,-1.0331627949402291,-0.08852364268710332
12437,7.0,300.46075,3591.5898,0.0,0.0,0.0,0.0,-0.12395721079397956,0.0,-0.3543640284005066,-0.26676629770778376,-0.4706233113594045,-0.21813870288361378,-1.014051479504089,-0.08880556736842711
12438,7.0,300.45513,3431.3188,0.0,0.0,0.0,0.0,-0.12396717760356338,0.0,-0.28807243445053576,-0.28227877170374577,-0.47268403914778256,-0.23060170951111678,-1.0257125696049492,-0.08149849704702541
12439,7.0,300.81448,3604.4959,0.0,0.0,0.0,0.0,-0.12397714441314721,0.0,-0.28862989425805274,-0.30841028913272567,-0.49863655581409655,-0.26513823784460677,-1.0451580549240689,-0.12987217646238586
12440,7.0,300.53244,3857.4131,0.0,0.0,0.0,0.0,-0.12398711122273104,0.0,-0.3507347286623227,-0.2932352882150697,-0.5285872661825015,-0.2262817379747688,-1.059305762095339,-0.09163658105507641
12441,7.0,300.39813,3743.7965,0.0,0.0,0.0,0.0,-0.12399707803231484,0.0,-0.3540546020849687,-0.32142379453955866,-0.46254225677686656,-0.2311097733762588,-1.0493832065160589,-0.11325044691944888
12442,7.0,298.86574,3504.8548,0.0,0.0,0.0,0.0,-0.12400704484189867,0.0,-0.33141830100843966,-0.27369425341151976,-0.4602757986881846,-0.2154858520017978,-1.051999620924279,-0.08034799107522932
12443,7.0,299.60125,3563.8245,0.0,0.0,0.0,0.0,-0.12401701165148249,0.0,-0.35337376894527567,-0.28155539219235376,-0.4483844981646046,-0.25602854189304974,-1.046648849796199,-0.07891696478674802
12444,7.0,300.2342,3471.8374,0.0,0.0,0.0,0.0,-0.1240269784610663,0.0,-0.27056647194283173,-0.30712679509855473,-0.4776586107787345,-0.2223491218191498,-1.036197175014699,-0.10219580726844091
12445,7.0,300.65427,3283.2868,0.0,0.0,0.0,0.0,-0.12403694527065014,0.0,-0.24065285666058775,-0.27214364638598676,-0.48524068021702654,-0.2305962987555828,-1.0316293422388891,-0.1275666474498479
12446,7.0,300.59418,3421.6748,0.0,0.0,0.0,0.0,-0.12404691208023395,0.0,-0.27567582610208574,-0.2896069915944847,-0.47482088228367253,-0.22012830051497176,-1.047229644753519,-0.1048837166037169
12447,7.0,300.95937999999995,3521.725,0.0,0.0,0.0,0.0,-0.12405687888981777,0.0,-0.32721631231373566,-0.3015371603919007,-0.44176298982111256,-0.24750712881705175,-1.0351594042622791,-0.1252797115766449
12448,7.0,300.90491000000003,3518.2911,0.0,0.0,0.0,0.0,-0.12406684569940159,0.0,-0.3434959078279067,-0.27276607578991574,-0.4532106590534095,-0.23683597393139078,-1.050250751251679,-0.0993917713657041
12449,7.0,300.79081,3763.0131,0.0,0.0,0.0,0.0,-0.12407681250898542,0.0,-0.3531598110541596,-0.32015818436965265,-0.4705440448040815,-0.22693013697876077,-1.026862000518389,-0.12686051345515786
12450,7.0,301.35345,3766.5712,0.0,0.0,0.0,0.0,-0.12408677931856925,0.0,-0.33315999687033165,-0.3015964051252477,-0.5101872016540565,-0.22731318604656478,-1.0268225850894992,-0.09005967005694741
12451,7.0,300.80348,3574.4922,0.0,0.0,0.0,0.0,-0.12409674612815305,0.0,-0.27361375069107474,-0.3227797866183847,-0.4901628161553035,-0.2164189236213848,-1.054508022871839,-0.13685851563688387
12452,7.0,299.96043,3752.4056,0.0,0.0,0.0,0.0,-0.12410671293773688,0.0,-0.36165189053976265,-0.3090086031842747,-0.46997710097562856,-0.23878445387369077,-1.062487063434309,-0.09010551151797161
12453,7.0,299.58912000000004,3815.1541,0.0,0.0,0.0,0.0,-0.1241166797473207,0.0,-0.37531507164571365,-0.3131353175290497,-0.4712611928273585,-0.23560514863741774,-1.0454493643278189,-0.1072655534812859
12454,7.0,299.91913999999997,3443.6155,0.0,0.0,0.0,0.0,-0.1241266465569045,0.0,-0.34177227821529765,-0.29091328375590575,-0.41408756294976057,-0.2308831397263918,-1.063987585507399,-0.08079766741660892
12455,7.0,300.1554,3387.8461,0.0,0.0,0.0,0.0,-0.12413661336648833,0.0,-0.29252667175763475,-0.28552349236647473,-0.45177045575877256,-0.23253647004706277,-1.056000945569179,-0.1085970046426899
12456,7.0,300.47574,3782.7106,0.0,0.0,0.0,0.0,-0.12414658017607216,0.0,-0.31596831414614474,-0.3162376258902237,-0.5176436078149466,-0.2442368843843038,-1.0520236349516492,-0.1023782733464489
12457,7.0,300.58333999999996,3696.3217,0.0,0.0,0.0,0.0,-0.12415654698565598,0.0,-0.3069343485070617,-0.3107551221166427,-0.5059000391559465,-0.23424769747844776,-1.0660165175076388,-0.14640315932636686
12458,7.0,300.23329,3477.4314,0.0,0.0,0.0,0.0,-0.1241665137952398,0.0,-0.31909079631680964,-0.26476798612556574,-0.47319354182806656,-0.24188698514988677,-1.049773814429609,-0.1073480624369289
12459,7.0,300.06184,3500.4299,0.0,0.0,0.0,0.0,-0.12417648060482361,0.0,-0.3302088856890797,-0.3045394305707017,-0.42929494734061263,-0.22483934605991576,-1.051752286574869,-0.12287985911229789
12460,7.0,300.23377999999997,3609.1103,0.0,0.0,0.0,0.0,-0.12418644741440743,0.0,-0.35852654087131464,-0.2874755896116317,-0.45107729136536256,-0.2395708778063048,-1.0331536756893291,-0.08071861263055682
12461,7.0,300.69166,3753.5091,0.0,0.0,0.0,0.0,-0.12419641422399126,0.0,-0.35282373626099167,-0.3016787012983697,-0.4864705935859095,-0.25193525466907374,-1.051326518882849,-0.08958387719424032
12462,7.0,301.0211,3902.9477,0.0,0.0,0.0,0.0,-0.12420638103357509,0.0,-0.3185046716639637,-0.34462056477640163,-0.5232734077555645,-0.23827722087363076,-1.071852939408649,-0.09119107525110842
12463,7.0,301.22700000000003,3627.0623,0.0,0.0,0.0,0.0,-0.12421634784315888,0.0,-0.29523568709249376,-0.3010499289488147,-0.5062507452805586,-0.2316353056731248,-1.054566791377639,-0.11373502364727289
12464,7.0,300.8259,3574.4575,0.0,0.0,0.0,0.0,-0.12422631465274271,0.0,-0.31871815332753267,-0.3156400515112477,-0.4521876209574435,-0.21245955766312583,-1.045701055652659,-0.1184011720802859
12465,7.0,300.08457000000004,3694.5366,0.0,0.0,0.0,0.0,-0.12423628146232654,0.0,-0.35870376844630564,-0.3142929861658027,-0.4500501293414896,-0.22598577775305978,-1.067392409818429,-0.1392664234395259
12466,7.0,299.56843,3656.2402,0.0,0.0,0.0,0.0,-0.12424624827191037,0.0,-0.36441070711703666,-0.28046719198245673,-0.4665278253827116,-0.23297892596822978,-1.049278031155679,-0.09851185889936351
12467,7.0,299.67996,3311.5988,0.0,0.0,0.0,0.0,-0.12425621508149419,0.0,-0.25576329328187175,-0.3035899645644967,-0.44729007659909353,-0.2257938884491218,-1.054320267628309,-0.12295440392215488
12468,7.0,299.51063999999997,3291.989,0.0,0.0,0.0,0.0,-0.12426618189107799,0.0,-0.24525070190435977,-0.26986176663078276,-0.4855699763670255,-0.2112143340852318,-1.038880666579539,-0.0973449889384524
12469,7.0,299.39689,3673.3496,0.0,0.0,0.0,0.0,-0.12427614870066182,0.0,-0.3289092809783187,-0.3024943676288697,-0.4852028961207976,-0.2278502491295688,-1.046034617585579,-0.1108409179166469
12470,7.0,299.79162,3820.8695,0.0,0.0,0.0,0.0,-0.12428611551024564,0.0,-0.37014617891058366,-0.3073423539248287,-0.4839603880531716,-0.21811326017360277,-1.044548990288959,-0.10234791637345289
12471,7.0,300.68196,3703.062,0.0,0.0,0.0,0.0,-0.12429608231982947,0.0,-0.3800961429050686,-0.28032491140341476,-0.4652173383658766,-0.2214392333618508,-1.043196200080449,-0.1035342093255309
12472,7.0,300.7667,3677.7967,0.0,0.0,0.0,0.0,-0.1243060491294133,0.0,-0.3610292483533126,-0.2963159535541077,-0.4606131603089796,-0.23755865430021378,-1.018539062871979,-0.0980943248776561
12473,7.0,300.89317,3582.4065,0.0,0.0,0.0,0.0,-0.12431601593899709,0.0,-0.3051467321506377,-0.29141468043538976,-0.4924007005911656,-0.23397793990432478,-1.0731883017154389,-0.09177428984966722
12474,7.0,300.05573,3408.4331,0.0,0.0,0.0,0.0,-0.12432598274858092,0.0,-0.2756188611814637,-0.26830266856941176,-0.49215703420711754,-0.2220393408660768,-1.053909293387749,-0.10145119003495291
12475,7.0,299.93287000000004,3493.2486,0.0,0.0,0.0,0.0,-0.12433594955816475,0.0,-0.2951699575585067,-0.31605736869743367,-0.45063303185901754,-0.1998323943869218,-1.0533602131585589,-0.1109484744147619
12476,7.0,299.19109,3470.6494,0.0,0.0,0.0,0.0,-0.12434591636774858,0.0,-0.3163250288438497,-0.2732883758189627,-0.46537734068916753,-0.2253042252057958,-1.035919747137319,-0.12753685789690788
12477,7.0,299.19083,3395.0773,0.0,0.0,0.0,0.0,-0.1243558831773324,0.0,-0.3126329582619707,-0.2953432131931057,-0.4240425425322406,-0.22035960524779982,-1.043198023930629,-0.1270936420381659
12478,7.0,298.62107000000003,3486.8608,0.0,0.0,0.0,0.0,-0.1243658499869162,0.0,-0.30779071709407874,-0.28668500122110674,-0.46544289797063754,-0.24531965357366478,-1.0265520473127991,-0.10102221540636641
12479,7.0,300.3183,3719.717,0.0,0.0,0.0,0.0,-0.12437581679650003,0.0,-0.2961954882497187,-0.2988030671170667,-0.5357025414322245,-0.23150646079040876,-1.0240491169157793,-0.08741084887077911
12480,7.0,300.4315,3829.3295,0.0,0.0,0.0,0.0,-0.12438578360608385,0.0,-0.3062974498917047,-0.34135184021880366,-0.5163712696643765,-0.23418708485746578,-1.038264610518739,-0.09340741900309452
12481,7.0,300.57658,3794.5155,0.0,0.0,0.0,0.0,-0.12439575041566768,0.0,-0.37240109608062666,-0.2791723799446687,-0.5018644970551696,-0.2269352437592648,-1.057535411520619,-0.1040210456010779
12482,7.0,300.83408,3639.9068,0.0,0.0,0.0,0.0,-0.12440571722525151,0.0,-0.35233900754565267,-0.2929146553534257,-0.46118712596062555,-0.20379561069556082,-1.033940363066969,-0.1078949439134019
12483,7.0,300.75274,3287.4788,0.0,0.0,0.0,0.0,-0.1244156840348353,0.0,-0.3155915776264637,-0.2740974053613077,-0.4096224838665916,-0.20602033301262382,-1.062436806229349,-0.14384825933171788
12484,7.0,300.50272,3600.5089,0.0,0.0,0.0,0.0,-0.12442565084441913,0.0,-0.3099956810341917,-0.30115075746626574,-0.4833183725248095,-0.22471317615746378,-1.045015693285019,-0.1050146791791419
12485,7.0,300.11651,3840.7293,0.0,0.0,0.0,0.0,-0.12443561765400296,0.0,-0.3133188880496667,-0.34359402083508966,-0.5105728953046215,-0.23632692721365178,-1.0739239212880387,-0.11387630110871588
12486,7.0,299.00282999999996,3466.5133,0.0,0.0,0.0,0.0,-0.12444558446358679,0.0,-0.3007417185333967,-0.25966109416405475,-0.4933306817979475,-0.22371522613397377,-1.040434890907929,-0.07270622600729584
12487,7.0,299.43559,3439.5648,0.0,0.0,0.0,0.0,-0.12445555127317062,0.0,-0.3047405201855477,-0.27617459846381076,-0.46462668448508354,-0.2177745407976738,-1.0524314681168991,-0.09668364059818241
12488,7.0,300.95333999999997,3931.9261,0.0,0.0,0.0,0.0,-0.12446551808275441,0.0,-0.3708284812629216,-0.3448758734040987,-0.4795029995382616,-0.23800339003410578,-1.031414735867709,-0.0990458548743148
12489,7.0,299.95721000000003,3977.4744,0.0,0.0,0.0,0.0,-0.12447548489233824,0.0,-0.4097844012325716,-0.3130172232298947,-0.4862512857342655,-0.23572887660712877,-1.052896448587789,-0.09162876687030522
12490,7.0,300.40948,3658.1608,0.0,0.0,0.0,0.0,-0.12448545170192206,0.0,-0.3196914712410917,-0.3124627829076757,-0.4798352847760555,-0.2563185442041708,-1.019877464929069,-0.10751014192292489
12491,7.0,300.58993,3392.6544,0.0,0.0,0.0,0.0,-0.12449541851150589,0.0,-0.2768806615309937,-0.29033071561091073,-0.4640708458777266,-0.2198029661728638,-1.055399885609859,-0.11962972769403488
12492,7.0,299.6479,3312.3129,0.0,0.0,0.0,0.0,-0.12450538532108972,0.0,-0.2792911125913867,-0.26107640190373477,-0.4664928986517645,-0.2443885476592718,-1.0678484736884388,-0.10799888310865989
12493,7.0,300.08641,3519.0027,0.0,0.0,0.0,0.0,-0.12451535213067351,0.0,-0.3234180632538777,-0.31548038356048974,-0.4307904842232106,-0.22317641012829675,-1.105618283091029,-0.14857962054116686
12494,7.0,300.16128,3705.9002,0.0,0.0,0.0,0.0,-0.12452531894025734,0.0,-0.36166684611123867,-0.2791064173631587,-0.48572786099760756,-0.24043574756166075,-1.074319494127079,-0.12615635529816288
12495,7.0,299.38948999999997,3497.5336,0.0,0.0,0.0,0.0,-0.12453528574984117,0.0,-0.3167441192177107,-0.3039219762247637,-0.44249677541103155,-0.22276550681524376,-1.0718869846120092,-0.14136756977439285
12496,7.0,299.96016000000003,3332.2391,0.0,0.0,0.0,0.0,-0.124545252559425,0.0,-0.24387393819848374,-0.29973941153447675,-0.4693041205242105,-0.23056179758967776,-1.0258573630442391,-0.13437635686691388
12497,7.0,301.21367000000004,3720.0933,0.0,0.0,0.0,0.0,-0.12455521936900883,0.0,-0.3084066515648667,-0.2990825316271477,-0.5233262892782835,-0.21265330121474682,-1.052524889776119,-0.11334004862579188
12498,7.0,301.60459,4001.1419,0.0,0.0,0.0,0.0,-0.12456518617859262,0.0,-0.36407276794368465,-0.33503856255573167,-0.5171359087198405,-0.2305822247116938,-1.0030230728981702,-0.07553123821360283
12499,7.0,301.79925,3714.9282,0.0,0.0,0.0,0.0,-0.12457515298817645,0.0,-0.36359548661658064,-0.3025402982559027,-0.46310963630286256,-0.2354920901912598,-1.053835326130449,-0.10091638548642182
12500,7.0,300.55397,3544.3945,0.0,0.0,0.0,0.0,-0.12458511979776027,0.0,-0.3375140034775387,-0.29918544743980474,-0.4407079836844916,-0.24170413403684077,-1.057690641435939,-0.10862073496003191
12501,7.0,299.67425,3801.884,0.0,0.0,0.0,0.0,-0.1245950866073441,0.0,-0.34756541407203567,-0.3513875960992557,-0.45672480291772855,-0.24449692488996774,-1.0827127513304289,-0.11900413694979388
12502,7.0,299.23028,3976.1286,0.0,0.0,0.0,0.0,-0.12460505341692793,0.0,-0.34348071920890766,-0.3160253094642697,-0.5491377919281806,-0.2320442736784868,-1.034335631930979,-0.11436260036170989
12503,7.0,300.06161000000003,3858.9057,0.0,0.0,0.0,0.0,-0.12461502022651172,0.0,-0.3527787682215537,-0.3117370019935467,-0.5084952057095695,-0.2179768665776418,-1.0561248660564089,-0.11294144616895288
12504,7.0,299.53722999999997,3544.1046,0.0,0.0,0.0,0.0,-0.12462498703609555,0.0,-0.33139155120579966,-0.27080223497609973,-0.4751255260587385,-0.23117125739232677,-1.050042629681139,-0.10875948942872589
12505,7.0,299.59361,3258.5382,0.0,0.0,0.0,0.0,-0.12463495384567938,0.0,-0.3202417065753957,-0.2263466366436738,-0.4439259140145766,-0.2040182217425308,-1.073663718662359,-0.1085995681654429
12506,7.0,300.46747,3389.3639,0.0,0.0,0.0,0.0,-0.12464492065526321,0.0,-0.3143267375266337,-0.2807092270338437,-0.43524602862293854,-0.2228417234877658,-1.036765810970819,-0.12122233393621289
12507,7.0,300.5167,3734.4616,0.0,0.0,0.0,0.0,-0.12465488746484704,0.0,-0.30601539146136775,-0.2936074752418017,-0.5355602203231785,-0.2188470862935258,-1.045215506204739,-0.08702196145589891
12508,7.0,301.43462999999997,3759.7034,0.0,0.0,0.0,0.0,-0.12466485427443083,0.0,-0.29572542126332674,-0.32021651717790967,-0.5269140052323634,-0.2448051049078828,-1.0733398839303991,-0.10219773244363091
12509,7.0,300.73025,3535.8111,0.0,0.0,0.0,0.0,-0.12467482108401466,0.0,-0.28668009709062275,-0.31176888897419375,-0.47634928899951456,-0.24788502044184674,-1.056298233148519,-0.08716549643856474
12510,7.0,300.64592000000005,3665.4319,0.0,0.0,0.0,0.0,-0.12468478789359848,0.0,-0.34362638404328366,-0.30297948137924674,-0.4675939063429255,-0.24770456059903675,-1.0124978124632542,-0.09067582035000672
12511,7.0,301.60205,3892.1191,0.0,0.0,0.0,0.0,-0.12469475470318231,0.0,-0.39017288475206563,-0.3399816018435717,-0.4529525437229356,-0.24234634208272177,-1.031643730390309,-0.11589427987537489
12512,7.0,300.7936,3622.3659,0.0,0.0,0.0,0.0,-0.12470472151276614,0.0,-0.34722444528088464,-0.2990490335788417,-0.4548353042637496,-0.23526758436660278,-1.034023449575169,-0.12794933174761589
12513,7.0,298.95648,3331.645,0.0,0.0,0.0,0.0,-0.12471468832234993,0.0,-0.25687129239872275,-0.2895444234008097,-0.4663211932898185,-0.21852154930139778,-1.038966184887979,-0.1405379915200199
12514,7.0,300.23507,3325.4757,0.0,0.0,0.0,0.0,-0.12472465513193376,0.0,-0.26241132851298177,-0.2656020733428837,-0.48284818394840556,-0.20029844890291781,-1.018915586609139,-0.12519643255092588
12515,7.0,300.02751,3334.6067,0.0,0.0,0.0,0.0,-0.12473462194151759,0.0,-0.2838834660196167,-0.25118651350767873,-0.4785672022759056,-0.23425449638661877,-1.048668763870549,-0.11471406642389688
12516,7.0,299.30397999999997,3452.6924,0.0,0.0,0.0,0.0,-0.12474458875110142,0.0,-0.3209251235028437,-0.27325423942309374,-0.45535290281233254,-0.24588927238238176,-1.058818388797239,-0.11485283102509189
12517,7.0,300.31678,3844.2925,0.0,0.0,0.0,0.0,-0.12475455556068525,0.0,-0.39405283216748666,-0.2909826204602487,-0.4835334551235365,-0.2324944606979168,-1.052768373775149,-0.09316128434180292
12518,7.0,300.12725,3714.6058,0.0,0.0,0.0,0.0,-0.12476452237026904,0.0,-0.35099303651031566,-0.3087226640060547,-0.4694317191093036,-0.2067798551550828,-1.027451813401599,-0.10498129258834692
12519,7.0,300.00891,3581.9519,0.0,0.0,0.0,0.0,-0.12477448917985287,0.0,-0.2775705632590817,-0.3135855754759867,-0.4976678076584885,-0.21286071351021676,-1.048500767003969,-0.10819611224062489
12520,7.0,300.34776,3923.1334,0.0,0.0,0.0,0.0,-0.12478445598943669,0.0,-0.3326871434461647,-0.3211190190419797,-0.5387284406033575,-0.23086809296240676,-1.0631243977472091,-0.08661886928786683
12521,7.0,300.73824,3864.4093,0.0,0.0,0.0,0.0,-0.12479442279902052,0.0,-0.3625758226434476,-0.30471249368778175,-0.5073956064360475,-0.23327855415530077,-1.045516948109489,-0.07605950223273843
12522,7.0,300.07346,3453.0561,0.0,0.0,0.0,0.0,-0.12480438960860435,0.0,-0.35440541966709166,-0.26430961204532777,-0.4309277897442616,-0.2351486592023658,-1.050758288226769,-0.10641478816732189
12523,7.0,300.86123,3421.6186,0.0,0.0,0.0,0.0,-0.12481435641818814,0.0,-0.3397621420044127,-0.2754061698529728,-0.42491830472617154,-0.24378571451227676,-1.0333967543883191,-0.09731741738998131
12524,7.0,300.40842999999995,3461.336,0.0,0.0,0.0,0.0,-0.12482432322777197,0.0,-0.31452871880156774,-0.2942324884334857,-0.4433985274700276,-0.25297809167199375,-1.0598928392032791,-0.13332444114309788
12525,7.0,300.40146,3612.6137,0.0,0.0,0.0,0.0,-0.1248342900373558,0.0,-0.27758522498802873,-0.2976094382342647,-0.5229497047461175,-0.2579924840318758,-1.060090422972779,-0.1064506673533629
12526,7.0,299.95142999999996,3881.0958,0.0,0.0,0.0,0.0,-0.12484425684693963,0.0,-0.29205296720338375,-0.3554528466929647,-0.5322503882090235,-0.23785517180947777,-1.069596431435949,-0.11767689077630489
12527,7.0,300.11911000000003,3684.942,0.0,0.0,0.0,0.0,-0.12485422365652346,0.0,-0.3206841219665587,-0.2956752552508757,-0.5037709879133255,-0.23732781566243177,-1.061920453978389,-0.09558874685812481
12528,7.0,299.24446,3407.2579,0.0,0.0,0.0,0.0,-0.12486419046610725,0.0,-0.2981924927393077,-0.3071093165343297,-0.43041950296409764,-0.2098156031171878,-1.071668021265399,-0.1165626601713389
12529,7.0,300.36607999999995,3554.4343,0.0,0.0,0.0,0.0,-0.12487415727569108,0.0,-0.34807183647201567,-0.3062685317338507,-0.4261188946371606,-0.2049900501784428,-1.065380601744879,-0.11444012412686089
12530,7.0,299.42225,3719.2894,0.0,0.0,0.0,0.0,-0.12488412408527491,0.0,-0.3515275056730637,-0.29301469353579873,-0.4860289077348185,-0.19557441349169183,-1.050803985806279,-0.1216705552504489
12531,7.0,300.05337000000003,3345.2999,0.0,0.0,0.0,0.0,-0.12489409089485873,0.0,-0.25471246173566275,-0.2988719275938627,-0.4633032582644715,-0.22573492742580278,-1.064470095205019,-0.11448313659360589
12532,7.0,299.54764,2949.4102,0.0,0.0,0.0,0.0,-0.12490405770444256,0.0,-0.2033974236712628,-0.26136539096475575,-0.4317842596562886,-0.23592224525621275,-1.0823687529214792,-0.11786211289458488
12533,7.0,299.27904,3463.2464,0.0,0.0,0.0,0.0,-0.12491402451402635,0.0,-0.3192803855430207,-0.2511944067259578,-0.48226564620091356,-0.26650538580703376,-1.052507157899369,-0.08316742128673542
12534,7.0,300.77137,3886.3814,0.0,0.0,0.0,0.0,-0.12492399132361018,0.0,-0.4102397355625096,-0.3098983076995817,-0.4612248391293476,-0.23530016035731777,-1.0682588399789388,-0.1007656554147959
12535,7.0,301.5736,3715.5727,0.0,0.0,0.0,0.0,-0.12493395813319401,0.0,-0.36815883069444766,-0.29030861662622975,-0.47097385536400055,-0.23495016350777576,-1.0286814937229591,-0.0996841902783136
12536,7.0,300.20336000000003,3695.199,0.0,0.0,0.0,0.0,-0.12494392494277784,0.0,-0.3277747955038537,-0.30663575383509273,-0.4888376775420225,-0.21649210054360682,-1.044376433796929,-0.12658609493057488
12537,7.0,300.53387999999995,3876.4636,0.0,0.0,0.0,0.0,-0.12495389175236167,0.0,-0.32181959029362067,-0.3220762972064557,-0.5344522617363315,-0.2092382430777068,-1.036000705820309,-0.0987580746206631
12538,7.0,300.57339,3735.2557,0.0,0.0,0.0,0.0,-0.12496385856194546,0.0,-0.3246471052276747,-0.28917189186904374,-0.5216054765009525,-0.2098609561916638,-1.064074117065939,-0.1073850258005769
12539,7.0,298.9923,3543.1694,0.0,0.0,0.0,0.0,-0.12497382537152929,0.0,-0.3174214161145547,-0.2943926427442917,-0.4652209556687336,-0.22687537081085576,-1.045332536591289,-0.1089956982920379
12540,7.0,298.77262,3343.3885,0.0,0.0,0.0,0.0,-0.12498379218111312,0.0,-0.30838986201070967,-0.3026383707330817,-0.4052783969778636,-0.23494132796690378,-1.0697981695308592,-0.1087707466373369
12541,7.0,298.69274,2997.5064,0.0,0.0,0.0,0.0,-0.12499375899069694,0.0,-0.2806962473000627,-0.2511777691593157,-0.3792931016708146,-0.23770574781723078,-1.0402094427606792,-0.11662198596469388
12542,7.0,299.03752000000003,3478.998,0.0,0.0,0.0,0.0,-0.12500372580028074,0.0,-0.3164385027225487,-0.3025068103400977,-0.4385832083572926,-0.24880616610775677,-1.0785121203908592,-0.1320731583296059
12543,7.0,300.12352999999996,3872.7695,0.0,0.0,0.0,0.0,-0.12501369260986456,0.0,-0.3177741082093627,-0.3318328216243497,-0.5276182951118715,-0.24727874224451177,-1.028479755628049,-0.12209985918531788
12544,7.0,300.58047,3492.094,0.0,0.0,0.0,0.0,-0.1250236594194484,0.0,-0.2723048443443958,-0.29026661740958476,-0.49893790652633746,-0.23611654609538876,-1.053096666807549,-0.12101371587312389
12545,7.0,300.38242,3400.1953,0.0,0.0,0.0,0.0,-0.12503362622903222,0.0,-0.29899432820594274,-0.2834691683187287,-0.4511109819311876,-0.24120239285232278,-1.0436326068985189,-0.1037640651107159
12546,7.0,299.76451000000003,3901.7867,0.0,0.0,0.0,0.0,-0.12504359303861604,0.0,-0.4199733503956426,-0.2590629321000208,-0.5070094264254345,-0.22332728306818678,-1.071886883286999,-0.09083965985142642
12547,7.0,299.97005,3967.7079,0.0,0.0,0.0,0.0,-0.12505355984819985,0.0,-0.4022486069263466,-0.30273990852560273,-0.5010955922167846,-0.23496163349890778,-1.033059544755039,-0.1017434316287949
12548,7.0,300.26947,3597.0522,0.0,0.0,0.0,0.0,-0.12506352665778367,0.0,-0.3058307468956447,-0.3110200363552877,-0.4765632772881335,-0.2036141781326548,-1.057895115306119,-0.13484563351822787
12549,7.0,300.83906,3545.563,0.0,0.0,0.0,0.0,-0.12507349346736749,0.0,-0.2893019019893747,-0.2785043948162437,-0.5099563123537696,-0.24330674105750574,-1.025130964047549,-0.09487871894330051
12550,7.0,300.83263999999997,3618.8829,0.0,0.0,0.0,0.0,-0.1250834602769513,0.0,-0.32700548536542867,-0.3041448405842587,-0.46889971214429854,-0.24121448092601577,-1.060168139255449,-0.11028945654972189
12551,7.0,299.81002,3649.2363,0.0,0.0,0.0,0.0,-0.12509342708653515,0.0,-0.33864890438454465,-0.2945129560611657,-0.4761148533238776,-0.24913619179782776,-1.022544035217239,-0.07725604927582842
12552,7.0,298.50349,3692.4723,0.0,0.0,0.0,0.0,-0.12510339389611896,0.0,-0.35587671960729766,-0.29134575916358774,-0.4751969095282836,-0.22103362934682078,-1.028103941165959,-0.0952358855505501
12553,7.0,299.55177000000003,3588.4232,0.0,0.0,0.0,0.0,-0.12511336070570278,0.0,-0.32860438389072766,-0.3083341636527127,-0.4538525124617555,-0.23919344214405475,-1.030585491985869,-0.08316160117816102
12554,7.0,299.89059,3407.2392,0.0,0.0,0.0,0.0,-0.1251233275152866,0.0,-0.29312056803874775,-0.25781456744681674,-0.48478050255161054,-0.20534924733889282,-1.0986369899020292,-0.12330601183935588
12555,7.0,299.76977999999997,3796.6944,0.0,0.0,0.0,0.0,-0.12513329432487041,0.0,-0.3192706380770587,-0.3211961071095877,-0.5136335388216835,-0.23199821132894077,-1.036919217035959,-0.12950498475864688
12556,7.0,298.94532000000004,3821.1859,0.0,0.0,0.0,0.0,-0.12514326113445423,0.0,-0.32463541232152066,-0.31848767945978673,-0.5184220068067685,-0.2084874754161118,-1.052133268612469,-0.13623991631833288
12557,7.0,299.61482,3413.4394,0.0,0.0,0.0,0.0,-0.12515322794403808,0.0,-0.27760178149466275,-0.2851597355805747,-0.47483882694294355,-0.23855683737122677,-1.060188505582459,-0.11827775821810589
12558,7.0,301.0293,3527.5773,0.0,0.0,0.0,0.0,-0.12516319475362186,0.0,-0.30560937201379673,-0.3206764415308007,-0.4460096121827216,-0.23799269011304974,-1.1051931233490688,-0.14338884160387685
12559,7.0,299.55115,3799.8283,0.0,0.0,0.0,0.0,-0.1251731615632057,0.0,-0.3491224755007057,-0.2947690246264377,-0.5111614314927055,-0.24642221153747876,-1.0415456156675489,-0.09580688845890371
12560,7.0,299.41298,3542.611,0.0,0.0,0.0,0.0,-0.12518312837278953,0.0,-0.2877114033074047,-0.30782995013795067,-0.4813239416904745,-0.19312876212282482,-1.0385846962253291,-0.13254222219839887
12561,7.0,299.50192999999996,3454.6481,0.0,0.0,0.0,0.0,-0.12519309518237334,0.0,-0.2562312020455508,-0.3319314919190877,-0.46196407600480455,-0.23801239782749475,-1.026388002121609,-0.1093801456449799
12562,7.0,299.10197,3779.4695,0.0,0.0,0.0,0.0,-0.12520306199195716,0.0,-0.34479027403565066,-0.2948989435542597,-0.5091751370566735,-0.23476123289412978,-1.085287622484549,-0.06555348076887484
12563,7.0,299.85548,3748.825,0.0,0.0,0.0,0.0,-0.12521302880154098,0.0,-0.35645281308415366,-0.3322907498745437,-0.4508056086160495,-0.2582680171315688,-1.045723043179829,-0.0925996489306238
12564,7.0,300.89957999999996,3605.9247,0.0,0.0,0.0,0.0,-0.1252229956111248,0.0,-0.33456622588911566,-0.3073618184592497,-0.4541830346443756,-0.2297471749067808,-1.053731265345179,-0.08036287065294784
12565,7.0,299.91909,3880.7672,0.0,0.0,0.0,0.0,-0.1252329624207086,0.0,-0.3592807738482517,-0.3226927180372917,-0.4976828341574715,-0.24647294496998576,-1.054189355715389,-0.08875191780213232
12566,7.0,300.11413,4023.8399,0.0,0.0,0.0,0.0,-0.12524292923029245,0.0,-0.3553843813837077,-0.33253248095090066,-0.5352300021155885,-0.23655770505642779,-1.0795968046229092,-0.09032582147396452
12567,7.0,300.20286,3661.8207,0.0,0.0,0.0,0.0,-0.12525289603987627,0.0,-0.3278663730478917,-0.28588291244194675,-0.4993527716472815,-0.2267025002112948,-1.056409386684489,-0.13937557074029788
12568,7.0,298.98367,3665.9501,0.0,0.0,0.0,0.0,-0.1252628628494601,0.0,-0.33223793927933165,-0.2963471616571877,-0.4857722008219836,-0.21069288518626883,-1.041875935200149,-0.12077778058733887
12569,7.0,299.55521,3674.813,0.0,0.0,0.0,0.0,-0.1252728296590439,0.0,-0.3363919100517967,-0.3198962896163057,-0.4607631821187856,-0.23382477701920878,-1.0409844777621688,-0.12377207648785288
12570,7.0,298.55863999999997,3317.5472,0.0,0.0,0.0,0.0,-0.12528279646862772,0.0,-0.3002518526400507,-0.25555292229610976,-0.4526467448427556,-0.2113715601032488,-1.0695772810090591,-0.08818639860331992
12571,7.0,298.79352,3399.2742,0.0,0.0,0.0,0.0,-0.12529276327821157,0.0,-0.29124887218902573,-0.3107266193913297,-0.4313189752103686,-0.1915699984339868,-1.037500315968309,-0.1296706815474999
12572,7.0,300.40202,3512.0464,0.0,0.0,0.0,0.0,-0.12530273008779538,0.0,-0.2999719625649277,-0.27475123538583573,-0.4928512017181266,-0.1956905319531518,-1.0195590004226391,-0.07411734294456222
12573,7.0,300.20732000000004,3259.3122,0.0,0.0,0.0,0.0,-0.12531269689737917,0.0,-0.2678767488898768,-0.2964734936796557,-0.4263992913373336,-0.22399006009109781,-1.060823712070149,-0.13009354121173286
12574,7.0,299.5915,3629.4062,0.0,0.0,0.0,0.0,-0.12532266370696302,0.0,-0.3230394116915077,-0.32849337220977165,-0.45171606449340457,-0.2552755450812348,-1.0899332728680389,-0.1272564713292359
12575,7.0,300.60939,4174.0764,0.0,0.0,0.0,0.0,-0.12533263051654683,0.0,-0.4329654964903676,-0.3294487049340557,-0.5064008076203685,-0.23235746928439677,-1.065862098192399,-0.1166037575953949
12576,7.0,299.91287,3784.1217,0.0,0.0,0.0,0.0,-0.12534259732613065,0.0,-0.34829439685648067,-0.34665964954264367,-0.45532446088202555,-0.24030756129150976,-1.030520846629489,-0.1306861101352149
12577,7.0,299.40533999999997,3291.1162,0.0,0.0,0.0,0.0,-0.1253525641357145,0.0,-0.2692101556239737,-0.27292324101292675,-0.4582837388590836,-0.2281329459074688,-1.035233067544549,-0.12023133480840888
12578,7.0,298.75588,3650.7228,0.0,0.0,0.0,0.0,-0.12536253094529828,0.0,-0.3189906568094267,-0.2814401451259797,-0.5092977605837755,-0.24258012927829475,-1.048837470012199,-0.07977023586820932
12579,7.0,297.5903,3602.0266,0.0,0.0,0.0,0.0,-0.1253724977548821,0.0,-0.3333507412016567,-0.2853491018917637,-0.47622630070237654,-0.23647044395781575,-1.0445805023670691,-0.09351182328014841
12580,7.0,299.81102999999996,3185.3398,0.0,0.0,0.0,0.0,-0.12538246456446595,0.0,-0.2964490743522457,-0.2353808555952818,-0.43643382118516455,-0.2217731397998048,-1.069535636429949,-0.1016493412245089
12581,7.0,298.96811,3393.962,0.0,0.0,0.0,0.0,-0.12539243137404976,0.0,-0.33818854433411066,-0.29255137479507276,-0.40093979177217665,-0.24443321172367977,-1.083984886830979,-0.1027079241339829
12582,7.0,298.8851,3783.2125,0.0,0.0,0.0,0.0,-0.12540239818363358,0.0,-0.3762756428730146,-0.30128686735219873,-0.4724396330911616,-0.25515975085980674,-1.071918395365109,-0.08593138821426773
12583,7.0,299.87487999999996,3803.1259999999997,0.0,0.0,0.0,0.0,-0.1254123649932174,0.0,-0.3404064170804977,-0.33442745115541966,-0.48122146157536055,-0.2071195269861058,-1.0752431729182388,-0.1095600178027319
12584,7.0,300.5526,3740.8061,0.0,0.0,0.0,0.0,-0.1254223318028012,0.0,-0.3252771137423517,-0.3177213989391607,-0.4941131236576685,-0.18801078520521983,-1.027052694187209,-0.1072408099138439
12585,7.0,299.84193999999997,3761.6171,0.0,0.0,0.0,0.0,-0.12543229861238503,0.0,-0.31529932590012066,-0.2855492491840167,-0.5425890957368745,-0.2145910508384878,-1.056956035113439,-0.11686106232578888
12586,7.0,300.54046,3466.8244,0.0,0.0,0.0,0.0,-0.12544226542196887,0.0,-0.30151876990258575,-0.2862134042270637,-0.4660958566000795,-0.2125935599888508,-1.068065207884829,-0.11819011208445589
12587,7.0,299.71671000000003,3503.3023,0.0,0.0,0.0,0.0,-0.1254522322315527,0.0,-0.33436600766935565,-0.28062778199080574,-0.44992262194890553,-0.2486208325319658,-1.057676861234579,-0.13128705863702386
12588,7.0,300.1376,3750.2877,0.0,0.0,0.0,0.0,-0.12546219904113648,0.0,-0.3503170365735997,-0.28411223762719473,-0.5055645419153355,-0.2266366997498008,-1.020366966052379,-0.10430567768666889
12589,7.0,299.63072999999997,3367.4195,0.0,0.0,0.0,0.0,-0.12547216585072032,0.0,-0.2689977074755067,-0.30593410853834574,-0.4486796275212316,-0.24587204713068178,-1.051656433115409,-0.12972235730259987
12590,7.0,298.86613,3198.7159,0.0,0.0,0.0,0.0,-0.12548213266030414,0.0,-0.24096973036436076,-0.26969962634978073,-0.46166040494983457,-0.24627240251019378,-1.038596753901519,-0.1051284469003699
12591,7.0,299.20849,3769.6785,0.0,0.0,0.0,0.0,-0.12549209946988799,0.0,-0.33116946704888167,-0.3307297773004877,-0.4839888806459835,-0.2244269330042138,-1.0813459782705388,-0.11859335522675289
12592,7.0,299.01547,3916.3496,0.0,0.0,0.0,0.0,-0.1255020662794718,0.0,-0.36325908758338066,-0.34426115483343067,-0.48295225486617654,-0.22404014504354078,-1.047186682949279,-0.11088914862140689
12593,7.0,298.65612000000004,3558.5683,0.0,0.0,0.0,0.0,-0.1255120330890556,0.0,-0.3459661913067047,-0.28995457690878873,-0.4457951375340546,-0.2014175431083638,-1.0860099684808389,-0.13543400758629587
12594,7.0,298.78992999999997,3671.895,0.0,0.0,0.0,0.0,-0.12552199989863944,0.0,-0.32821071596187573,-0.3246780802832317,-0.4632755864042406,-0.2213313019611988,-1.060382846951639,-0.11190550939921388
12595,7.0,299.60336,3673.5241,0.0,0.0,0.0,0.0,-0.12553196670822325,0.0,-0.3290911188412647,-0.2710362552191958,-0.5165322447077635,-0.22725909875622677,-1.062950524030049,-0.08465549254259662
12596,7.0,300.01048,3473.3004,0.0,0.0,0.0,0.0,-0.12554193351780707,0.0,-0.28470062182776373,-0.25972788761064675,-0.5113680838506005,-0.2308295185310998,-1.034161251588769,-0.08991427373384792
12597,7.0,299.28657000000004,3743.66,0.0,0.0,0.0,0.0,-0.12555190032739091,0.0,-0.3163256570589117,-0.2976749549857307,-0.5239785487651565,-0.23780063868909576,-1.0762314970657791,-0.08691121423321901
12598,7.0,300.30517000000003,3950.3295,0.0,0.0,0.0,0.0,-0.1255618671369747,0.0,-0.3791131889830586,-0.27422153863105875,-0.5474668107907674,-0.26908646818426674,-1.051689870368709,-0.06623729995661252
12599,7.0,299.54677000000004,3623.0293,0.0,0.0,0.0,0.0,-0.12557183394655852,0.0,-0.36254547580295265,-0.2958994571005027,-0.4428655072549226,-0.22598450105793377,-1.076368995104349,-0.13278875608022989
12600,7.0,299.95264,3732.5312,0.0,0.0,0.0,0.0,-0.12558180075614236,0.0,-0.35286434732499966,-0.2978475925377687,-0.48388433350066556,-0.2351713256071028,-1.012692093037428,-0.0990242432629319
12601,7.0,300.6722,3963.344,0.0,0.0,0.0,0.0,-0.12559176756572618,0.0,-0.36149625532440266,-0.32677223519240867,-0.5164891207835075,-0.2096522266710638,-1.041529302340939,-0.13161385205927587
12602,7.0,300.12009,3608.3966,0.0,0.0,0.0,0.0,-0.12560173437531,0.0,-0.2719894195882657,-0.34924166410996865,-0.4756313709061616,-0.24894205307866774,-1.031612927587269,-0.10546930423400991
12603,7.0,299.44762000000003,3524.0295,0.0,0.0,0.0,0.0,-0.12561170118489381,0.0,-0.3024437253888717,-0.3077681520143517,-0.46100511584516257,-0.21298344849482978,-1.0764315126355188,-0.13989228776129387
12604,7.0,299.55157,3782.4762,0.0,0.0,0.0,0.0,-0.12562166799447763,0.0,-0.34983442555096966,-0.3325868316862647,-0.46735704899954955,-0.24582671432120778,-1.0345514542022791,-0.0985648184423402
12605,7.0,299.15218,3439.2765,0.0,0.0,0.0,0.0,-0.12563163480406145,0.0,-0.3353318275321747,-0.27022196690883177,-0.43990038282478755,-0.2273000239277658,-1.098261580739979,-0.1224377578286659
12606,7.0,299.15918,3397.0486,0.0,0.0,0.0,0.0,-0.1256416016136453,0.0,-0.2707288655363588,-0.27997809615918673,-0.4819109884009115,-0.26133471988422874,-1.065834233814649,-0.1000263800358351
12607,7.0,299.27887999999996,3713.0468,0.0,0.0,0.0,0.0,-0.1256515684232291,0.0,-0.3222211413082507,-0.3057507305352477,-0.5007016405779046,-0.21705155645382077,-1.079292322967859,-0.11951798647300689
12608,7.0,300.22402,3785.6146,0.0,0.0,0.0,0.0,-0.1256615352328129,0.0,-0.3245308449112007,-0.2916161449527727,-0.5345853217394635,-0.22131427935951878,-1.027942834400059,-0.09788052910655609
12609,7.0,299.70522,3535.9621,0.0,0.0,0.0,0.0,-0.12567150204239674,0.0,-0.2971522800541467,-0.2953832264395547,-0.48230867893266055,-0.20825451908562082,-1.069048871081909,-0.13524817751795587
12610,7.0,300.8606,3816.0425,0.0,0.0,0.0,0.0,-0.12568146885198056,0.0,-0.37277426595995566,-0.3157519447197907,-0.4714554227390275,-0.26367999869818975,-1.039856831725879,-0.09740478994610431
12611,7.0,301.30777,3933.3158,0.0,0.0,0.0,0.0,-0.1256914356615644,0.0,-0.38173720276702866,-0.3244362073518607,-0.4894563781855835,-0.23625696229424678,-1.077687132159439,-0.10790811616470189
12612,7.0,300.28031,3344.4456,0.0,0.0,0.0,0.0,-0.12570140247114822,0.0,-0.2959911663670537,-0.29496980013375274,-0.4256669749600595,-0.25830480824269975,-1.029962343174369,-0.11285004087743188
12613,7.0,300.0129,3512.3719,0.0,0.0,0.0,0.0,-0.125711369280732,0.0,-0.30724987458820174,-0.2899181505676937,-0.47050531838525955,-0.25151711675030675,-1.0578524574769088,-0.09792088888453931
12614,7.0,301.23756000000003,3913.7812,0.0,0.0,0.0,0.0,-0.12572133609031585,0.0,-0.34197591108789466,-0.3031162904077487,-0.5445995561877914,-0.25892360007876974,-1.031571485658179,-0.07520742678639512
12615,7.0,299.4761,3706.1627,0.0,0.0,0.0,0.0,-0.12573130289989967,0.0,-0.3233037787750987,-0.3249148565665997,-0.4783622724431806,-0.2128067072798868,-1.0655149587081387,-0.12774059209451485
12616,7.0,299.59585,3725.6283,0.0,0.0,0.0,0.0,-0.1257412697094835,0.0,-0.3705775701406587,-0.26698524078939173,-0.49493515319879655,-0.2238779338350318,-1.023708766207189,-0.0923518890161718
12617,7.0,299.47814,3808.1833,0.0,0.0,0.0,0.0,-0.12575123651906733,0.0,-0.35766710213649466,-0.2974786985738617,-0.5024468321526415,-0.19978566329230982,-1.096446849810879,-0.11195817813941189
12618,7.0,299.42637,3522.658,0.0,0.0,0.0,0.0,-0.12576120332865112,0.0,-0.3146720936907177,-0.26656760949567476,-0.4895603781758475,-0.23862680229063177,-1.070181076743649,-0.1070193945019919
12619,7.0,300.02603,3739.6345,0.0,0.0,0.0,0.0,-0.12577117013823494,0.0,-0.3139996198643497,-0.29837291205211375,-0.5243829976750726,-0.2153848107018258,-1.1005519312660188,-0.13074199087822988
12620,7.0,298.84878,3861.6968,0.0,0.0,0.0,0.0,-0.12578113694781878,0.0,-0.3055849222888837,-0.3471952738105057,-0.5210792045315135,-0.24582773770380878,-1.059659285055229,-0.11283918896886089
12621,7.0,299.12165,3435.447,0.0,0.0,0.0,0.0,-0.1257911037574026,0.0,-0.29608784055909476,-0.2867172833692927,-0.46148499109252256,-0.2511938291734008,-1.086979851476559,-0.12328111628439889
12622,7.0,300.55169,3294.7091,0.0,0.0,0.0,0.0,-0.12580107056698644,0.0,-0.27989857629133874,-0.29620430352558874,-0.42540642782934557,-0.27943841889092474,-1.060014023915239,-0.1204843230933769
12623,7.0,299.96526,3773.3096,0.0,0.0,0.0,0.0,-0.12581103737657023,0.0,-0.3418080358113267,-0.3342730318401797,-0.4709108312077806,-0.24180719170451176,-1.064602223018059,-0.12138231599450189
12624,7.0,299.69732999999997,3824.1896,0.0,0.0,0.0,0.0,-0.12582100418615405,0.0,-0.36146429741624864,-0.30573023248572473,-0.49526361848371353,-0.2166371270304198,-1.016609125406509,-0.10937337713431189
12625,7.0,299.3974,3517.2209999999995,0.0,0.0,0.0,0.0,-0.12583097099573787,0.0,-0.2946328742105007,-0.2894704561435097,-0.4850440286376186,-0.18414350341604882,-1.079614739149679,-0.11452075856981889
12626,7.0,298.84551,3696.7557,0.0,0.0,0.0,0.0,-0.1258409378053217,0.0,-0.32934968000178266,-0.3005418954811757,-0.4938298493272115,-0.21326982337059278,-1.0560076330198391,-0.11809826096289089
12627,7.0,299.40758,4000.7752,0.0,0.0,0.0,0.0,-0.12585090461490553,0.0,-0.3948261547763076,-0.2880798109112637,-0.5332297957556835,-0.23137811240024175,-1.050434149519779,-0.0957061278292094
12628,7.0,299.87138,3671.2094,0.0,0.0,0.0,0.0,-0.12586087142448932,0.0,-0.3403059938630867,-0.3176626506983627,-0.4579873429398315,-0.24905624636493778,-1.0529709224701391,-0.12174777504056988
12629,7.0,299.55737,3545.5729,0.0,0.0,0.0,0.0,-0.12587083823407316,0.0,-0.3280219474682457,-0.27430889092217975,-0.47543480038676156,-0.2365034049835688,-1.0659367747247688,-0.11978742993959889
12630,7.0,300.47017,3739.8132,0.0,0.0,0.0,0.0,-0.12588080504365698,0.0,-0.33906844058844965,-0.2875088242149117,-0.5102325648610335,-0.24854027914901577,-1.0627879987140092,-0.10120906176455671
12631,7.0,300.59553,3639.7297,0.0,0.0,0.0,0.0,-0.12589077185324082,0.0,-0.3078474489671777,-0.3015543451135967,-0.49698514053611453,-0.2051481374590448,-1.062282285589099,-0.13779361375667085
12632,7.0,300.15961,3667.8979,0.0,0.0,0.0,0.0,-0.12590073866282464,0.0,-0.30013156972067967,-0.3180984900963767,-0.49671929410737753,-0.2311475270749848,-1.0554594647157391,-0.11905130374194889
12633,7.0,300.64505,3816.7088,0.0,0.0,0.0,0.0,-0.12591070547240843,0.0,-0.38080810308783364,-0.30620497055507767,-0.47317110847085253,-0.20262395920742782,-1.058027851069219,-0.1014474410095829
12634,7.0,299.88649,3580.8944,0.0,0.0,0.0,0.0,-0.12592067228199227,0.0,-0.32106558023170567,-0.2994009556035737,-0.4680359366990505,-0.2340684738007598,-1.034041789401979,-0.09737438636360371
12635,7.0,299.65154,3346.949,0.0,0.0,0.0,0.0,-0.1259306390915761,0.0,-0.3029740098287067,-0.26117331927579973,-0.45324160371146355,-0.1990949712291438,-1.034944797891099,-0.08686778633393302
12636,7.0,299.29205,3869.1539,0.0,0.0,0.0,0.0,-0.1259406059011599,0.0,-0.3376722326131547,-0.3101840138302787,-0.5282699466486844,-0.2498260023334068,-1.0418351012211189,-0.08807264810734361
12637,7.0,300.13821,3880.3726,0.0,0.0,0.0,0.0,-0.12595057271074375,0.0,-0.34971850973952967,-0.2977133571645207,-0.5321045207246275,-0.24994203973485876,-1.072508714873369,-0.07339283568580894
12638,7.0,299.59244,3356.7070000000003,0.0,0.0,0.0,0.0,-0.12596053952032754,0.0,-0.2950947541360847,-0.25897476920881973,-0.46628558768130457,-0.2337841152926958,-1.090810139504579,-0.11964533174557487
12639,7.0,299.70419,3580.1371,0.0,0.0,0.0,0.0,-0.12597050632991136,0.0,-0.35786176774570666,-0.26814849243419575,-0.4622620120642086,-0.2507719016992598,-1.0550761522029088,-0.0983198784029165
12640,7.0,298.60445,3965.2786,0.0,0.0,0.0,0.0,-0.1259804731394952,0.0,-0.36172997159246867,-0.3233350375406837,-0.5202806519952026,-0.21223325838579182,-1.043911858626079,-0.11696472794351988
12641,7.0,299.68904,3555.0184,0.0,0.0,0.0,0.0,-0.12599043994907902,0.0,-0.3138385536284537,-0.2972806892393197,-0.46951759205527854,-0.2376095498527368,-1.040420806731539,-0.12220286619048387
12642,7.0,299.74691,3431.5113,0.0,0.0,0.0,0.0,-0.12600040675866286,0.0,-0.28371361490535374,-0.29321292578536273,-0.4661671894071196,-0.2182140988235548,-1.053897742336609,-0.13301580516263786
12643,7.0,300.35539,3537.5089,0.0,0.0,0.0,0.0,-0.12601037356824665,0.0,-0.32078433240144866,-0.2650066977166247,-0.48952336414969455,-0.2249817279639678,-1.072801848127299,-0.10507390364748691
12644,7.0,299.96178,3418.708,0.0,0.0,0.0,0.0,-0.12602034037783047,0.0,-0.3193094050258847,-0.28948697212013974,-0.4304054795827136,-0.23582903637951377,-1.094090131403289,-0.11140566299238289
12645,7.0,300.59666,3685.2524,0.0,0.0,0.0,0.0,-0.1260303071874143,0.0,-0.36262432692573465,-0.2957301024787887,-0.46187026931054653,-0.25619832207980575,-1.0795434063426388,-0.08535851687272972
12646,7.0,299.70737,3909.9125,0.0,0.0,0.0,0.0,-0.12604027399699813,0.0,-0.37094846020726263,-0.2980434132520947,-0.5195238960255165,-0.23008977503059277,-1.0474913672543489,-0.07759035392107172
12647,7.0,300.68846,3693.4846,0.0,0.0,0.0,0.0,-0.12605024080658195,0.0,-0.3341688798624007,-0.29585940332404975,-0.4926988190355875,-0.23214817234374077,-1.016771042772489,-0.09111998359759223
12648,7.0,300.09372,3670.895,0.0,0.0,0.0,0.0,-0.12606020761616574,0.0,-0.30688510455220175,-0.30272307844144175,-0.5062522347582055,-0.1960686870229728,-1.059485816638109,-0.12062570187982988
12649,7.0,299.06428,4143.8306,0.0,0.0,0.0,0.0,-0.12607017442574958,0.0,-0.36205457639450467,-0.35668580994464866,-0.5408806547432645,-0.23099618804004876,-1.049621624264589,-0.1104318283212729
12650,7.0,299.27765,4032.7576,0.0,0.0,0.0,0.0,-0.1260801412353334,0.0,-0.40671770861241263,-0.32167589116443873,-0.49746400253337447,-0.22144020608194678,-1.082130233847939,-0.14457304726074888
12651,7.0,299.88774,3480.7478,0.0,0.0,0.0,0.0,-0.12609010804491724,0.0,-0.3224125746496437,-0.30186261632402067,-0.4337852158212676,-0.2330909205017828,-1.080630826349959,-0.11584816686332389
12652,7.0,299.78977000000003,3325.8857,0.0,0.0,0.0,0.0,-0.12610007485450103,0.0,-0.2897411965702297,-0.2983166564065617,-0.42292835245727856,-0.23693575880123877,-1.0789885505878791,-0.13181897440951987
12653,7.0,300.07786,3606.7586,0.0,0.0,0.0,0.0,-0.12611004166408485,0.0,-0.3016504721505837,-0.2837310326745727,-0.5109830589451014,-0.26052645027945875,-1.0308080017078292,-0.06704525950685193
12654,7.0,300.23635,3564.9022,0.0,0.0,0.0,0.0,-0.1261200084736687,0.0,-0.2710691757149447,-0.31932466457239067,-0.4932474331697316,-0.2580359321961637,-1.057209246313429,-0.13058266743250588
12655,7.0,299.65603,3742.5332,0.0,0.0,0.0,0.0,-0.1261299752832525,0.0,-0.3273626053631737,-0.3227589136663247,-0.4875151024514946,-0.26203305185314874,-1.048038117008309,-0.07514942227117052
12656,7.0,300.84006,3895.1657,0.0,0.0,0.0,0.0,-0.12613994209283633,0.0,-0.38904702203595165,-0.3187496755381437,-0.4762364129383745,-0.20891716438601882,-1.1123053284509887,-0.13679107371022786
12657,7.0,301.02704,3677.4868,0.0,0.0,0.0,0.0,-0.12614990890242014,0.0,-0.3485533937145417,-0.3098760871248887,-0.45943468964767353,-0.2012781097621028,-1.0880329223054888,-0.08404687373753061
12658,7.0,299.26862,3709.6726,0.0,0.0,0.0,0.0,-0.12615987571200396,0.0,-0.3140069253975707,-0.3274511938194167,-0.4861897307906905,-0.18793566284280583,-1.112568672151979,-0.14277201547300086
12659,7.0,299.27942,4063.4562,0.0,0.0,0.0,0.0,-0.12616984252158778,0.0,-0.36599572411596565,-0.3281534875962277,-0.5410400085864915,-0.2294129036987908,-1.0524235647661189,-0.07585510840931634
12660,7.0,298.91069,3565.0788,0.0,0.0,0.0,0.0,-0.12617980933117162,0.0,-0.27479038736969974,-0.3213822310204567,-0.48752231679220653,-0.24590402530383776,-1.072033804551499,-0.14387243547910386
12661,7.0,299.56714,2960.7563,0.0,0.0,0.0,0.0,-0.12618977614075544,0.0,-0.24610893487156077,-0.24735119975916275,-0.4065358504844646,-0.25298551879522674,-1.011320263859539,-0.11437568142050088
12662,7.0,300.4937,3398.3608,0.0,0.0,0.0,0.0,-0.12619974295033926,0.0,-0.32564495392615467,-0.2920672438972927,-0.41530462830737563,-0.25776391507431773,-1.059076868897749,-0.13756794269439887
12663,7.0,299.88159,3835.5429999999997,0.0,0.0,0.0,0.0,-0.12620970975992307,0.0,-0.37916155141033164,-0.31268756230985967,-0.4740601645060955,-0.24100216450006176,-1.0573325588505988,-0.1080371434324359
12664,7.0,300.17752,3716.9262,0.0,0.0,0.0,0.0,-0.1262196765695069,0.0,-0.3425891300484147,-0.30188097641583267,-0.48538264668853753,-0.22119952878569377,-1.089862548011059,-0.12152706890378788
12665,7.0,300.55645,3659.1126,0.0,0.0,0.0,0.0,-0.1262296433790907,0.0,-0.30326348524977575,-0.3110929093024797,-0.4979224779386225,-0.2046331530957198,-1.039807993071059,-0.09806120274513722
12666,7.0,300.31401,3647.7382,0.0,0.0,0.0,0.0,-0.12623961018867452,0.0,-0.28077852320818275,-0.3184025968488897,-0.5096402087200725,-0.1937172172509008,-1.077860093951509,-0.1083516359984739
12667,7.0,300.84291,3990.4278,0.0,0.0,0.0,0.0,-0.12624957699825837,0.0,-0.35398000661260665,-0.3574363242937187,-0.5015740691790065,-0.24747458322383978,-1.033465250095079,-0.09505937535662991
12668,7.0,299.95326,4208.2781,0.0,0.0,0.0,0.0,-0.12625954380784216,0.0,-0.40957442541434863,-0.3442349015233397,-0.5254021448906545,-0.21719288457776878,-1.0790783245467388,-0.10806634530031789
12669,7.0,300.69298,3679.2713,0.0,0.0,0.0,0.0,-0.126269510617426,0.0,-0.3636185177913537,-0.2916035806515327,-0.4631845256177536,-0.24400752509166776,-1.038244548166759,-0.09086435072986322
12670,7.0,301.41496,2964.3427,0.0,0.0,0.0,0.0,-0.12627947742700982,0.0,-0.23499533419723376,-0.23982515291889975,-0.4262656740466466,-0.20732465946885079,-1.0783617540760189,-0.10936920254389991
12671,7.0,300.23687,3394.8331,0.0,0.0,0.0,0.0,-0.12628944423659363,0.0,-0.28836656068956373,-0.26545829315369374,-0.47811964970673554,-0.25209371685221277,-1.063669222325979,-0.0969282918613276
12672,7.0,299.38391,4112.6276,0.0,0.0,0.0,0.0,-0.12629941104617745,0.0,-0.36445965722936763,-0.3209499379977927,-0.5647264825966645,-0.21979524520710178,-1.050721203273109,-0.1136957500733969
12673,7.0,300.38172000000003,3733.3011,0.0,0.0,0.0,0.0,-0.12630937785576127,0.0,-0.3725578053410927,-0.2882844570339607,-0.47398804136397754,-0.2671438346950437,-1.009278645968047,-0.1008571741903281
12674,7.0,300.02837999999997,3410.3189,0.0,0.0,0.0,0.0,-0.12631934466534508,0.0,-0.27569023451850777,-0.3255116203454957,-0.43544992494056156,-0.2045534407103528,-1.056396619733229,-0.13409494691664087
12675,7.0,300.04753,3818.8987,0.0,0.0,0.0,0.0,-0.1263293114749289,0.0,-0.3588242641481977,-0.31846652279769866,-0.4835590599535635,-0.2489372908031978,-1.061014811039009,-0.08437386170380182
12676,7.0,298.87532999999996,4140.2383,0.0,0.0,0.0,0.0,-0.12633927828451275,0.0,-0.37770085006617166,-0.3336153312002697,-0.5472128801832065,-0.1949033480829628,-1.090120825461549,-0.1146593306534949
12677,7.0,300.08146,4079.8617,0.0,0.0,0.0,0.0,-0.12634924509409656,0.0,-0.3570708247176467,-0.32691865996435965,-0.5561866081038445,-0.23865167758058678,-1.0632085988305189,-0.08165494995521612
12678,7.0,300.33864,3581.7328,0.0,0.0,0.0,0.0,-0.12635921190368035,0.0,-0.28970344287150374,-0.3014823131639877,-0.4975715691639905,-0.2261002952793618,-1.089138175514569,-0.10545457157755589
12679,7.0,300.76478,3187.5134,0.0,0.0,0.0,0.0,-0.1263691787132642,0.0,-0.28140269540228374,-0.2572582728769148,-0.43026350297870164,-0.25964991801545173,-1.0546719667380189,-0.0953370312152824
12680,7.0,300.5688,3356.3532,0.0,0.0,0.0,0.0,-0.126379145522848,0.0,-0.3010093584148107,-0.27186788023877073,-0.44737032600701354,-0.21026273012131583,-1.035931804813509,-0.13238555346793687
12681,7.0,299.88386,3826.2638,0.0,0.0,0.0,0.0,-0.12638911233243186,0.0,-0.3603201151383266,-0.3005074551102767,-0.5022610730118086,-0.23101334236424179,-1.0182178625902791,-0.1040075795072489
12682,7.0,299.52759,3677.651,0.0,0.0,0.0,0.0,-0.12639907914201567,0.0,-0.3377697478027787,-0.2946517915898677,-0.48549251339688054,-0.1968297594380848,-1.084267380958859,-0.12955328639091387
12683,7.0,300.5461,3362.7270000000003,0.0,0.0,0.0,0.0,-0.12640904595159946,0.0,-0.2671298417111628,-0.2915439610156487,-0.4635112177149956,-0.2261338034601688,-1.0880724390593888,-0.11734368348091988
12684,7.0,299.59935,3718.7921,0.0,0.0,0.0,0.0,-0.1264190127611833,0.0,-0.35553167755074466,-0.30182830767563473,-0.47305995493488256,-0.2063988427199798,-1.090073709331899,-0.12277307268425888
12685,7.0,299.50642,4388.6605,0.0,0.0,0.0,0.0,-0.12642897957076712,0.0,-0.4235139299550706,-0.35342224283005963,-0.5571070546271855,-0.25337441431610774,-1.0367290299921892,-0.06800921397623684
12686,7.0,299.75153,4051.2014,0.0,0.0,0.0,0.0,-0.12643894638035094,0.0,-0.3587706530854067,-0.3445731649367237,-0.5281202490789105,-0.26898949001719574,-1.072191668917079,-0.1176946935805619
12687,7.0,300.25412,3532.5004,0.0,0.0,0.0,0.0,-0.1264489131899348,0.0,-0.29577145321536974,-0.2911225908290627,-0.4868978608880775,-0.25461440952348574,-1.059497874314299,-0.08749986593181443
12688,7.0,301.47233,3415.4748,0.0,0.0,0.0,0.0,-0.12645887999951858,0.0,-0.3056665699819417,-0.26666289553507877,-0.4658895994097235,-0.22577508252726577,-1.0479561450752188,-0.1132259971945359
12689,7.0,301.33947,3463.8231,0.0,0.0,0.0,0.0,-0.1264688468091024,0.0,-0.3066542253844157,-0.26807878082731573,-0.4781827245254605,-0.1999828316292688,-1.064051622913719,-0.0978084140704389
12690,7.0,300.93843,3748.3196,0.0,0.0,0.0,0.0,-0.12647881361868624,0.0,-0.35731755111699665,-0.31828556646233974,-0.46379244528025054,-0.23920418259511478,-1.1179722336102689,-0.15836486046689485
12691,7.0,299.69788,3880.9086,0.0,0.0,0.0,0.0,-0.12648878042827005,0.0,-0.36805479017417964,-0.3085698962884777,-0.5030746115170985,-0.24275485412553877,-1.087352220888309,-0.1022011572289689
12692,7.0,299.05917,3470.9943,0.0,0.0,0.0,0.0,-0.12649874723785387,0.0,-0.27799307841828075,-0.3171914792693617,-0.4599110387846856,-0.2289943706124848,-1.069908309816729,-0.14286051273673486
12693,7.0,300.49987000000004,3383.1476,0.0,0.0,0.0,0.0,-0.1265087140474377,0.0,-0.27422858071925377,-0.29839101883140073,-0.45577277338877054,-0.22675803644927578,-1.030586809210999,-0.08882230423357891
12694,7.0,299.67915,4013.0354,0.0,0.0,0.0,0.0,-0.1265186808570215,0.0,-0.3408184045711577,-0.3510871066495997,-0.5279570347528025,-0.25541012495951676,-1.081226009458699,-0.1105524456131769
12695,7.0,300.08167000000003,4153.1442,0.0,0.0,0.0,0.0,-0.12652864766660532,0.0,-0.3759473701056167,-0.3434804051013767,-0.5430243677148324,-0.2294923121091278,-1.072288738276659,-0.100490761675916
12696,7.0,300.40803,3523.4767,0.0,0.0,0.0,0.0,-0.12653861447618917,0.0,-0.3392220391711087,-0.27694773868761374,-0.4548791577280775,-0.2354138166210348,-1.049822450434409,-0.11533018327970289
12697,7.0,300.11945,3378.1872,0.0,0.0,0.0,0.0,-0.12654858128577298,0.0,-0.3028196006459677,-0.27033084063207674,-0.4537341243200716,-0.2000730311531708,-1.068217600699869,-0.1013848525509059
12698,7.0,299.5735,3697.6339,0.0,0.0,0.0,0.0,-0.12655854809535677,0.0,-0.3262591962692757,-0.28255234923074574,-0.5151768099164925,-0.24126887219138377,-1.0841939203266089,-0.09247338276941232
12699,7.0,299.49216,3824.5508,0.0,0.0,0.0,0.0,-0.12656851490494062,0.0,-0.32711462253369966,-0.3283095078466257,-0.5071438239186985,-0.2389485294623838,-1.047846511414399,-0.1285261851620469
12700,7.0,298.44017,3759.7254,0.0,0.0,0.0,0.0,-0.12657848171452443,0.0,-0.34524596300312366,-0.29323269429481374,-0.5043839940913245,-0.2258471347418768,-1.038585101525369,-0.1143239550028959
12701,7.0,299.05189,3485.6621,0.0,0.0,0.0,0.0,-0.12658844852410828,0.0,-0.33036322394431167,-0.27609846285129674,-0.45309254448925257,-0.23437510354602176,-1.059588965498289,-0.13583530528840085
12702,7.0,299.05459,3282.8817,0.0,0.0,0.0,0.0,-0.1265984153336921,0.0,-0.3098761884498987,-0.27813816570009975,-0.4098996989614506,-0.23478861091183176,-1.1087802313530888,-0.11839807153497989
12703,7.0,299.99861,3901.9802,0.0,0.0,0.0,0.0,-0.12660838214327588,0.0,-0.35652862445663563,-0.33532322503882567,-0.4942526988589435,-0.2281666162082918,-1.0996645268284388,-0.12325152938147887
12704,7.0,300.93748999999997,4278.5918,0.0,0.0,0.0,0.0,-0.12661834895285973,0.0,-0.36871669580200467,-0.36233209546439366,-0.5695362794963544,-0.2082247396651818,-1.0352281026190588,-0.08364276831939851
12705,7.0,300.37342,3467.4133,0.0,0.0,0.0,0.0,-0.12662831576244354,0.0,-0.2857284424642017,-0.28406990403801674,-0.48420871538767957,-0.20220000523308682,-1.042019006114269,-0.0985337836050273
12706,7.0,299.89329,3146.9402,0.0,0.0,0.0,0.0,-0.12663828257202736,0.0,-0.2098047917386208,-0.27177736660733776,-0.47500909348974757,-0.24372552745633674,-1.043725521932689,-0.08356469030644283
12707,7.0,299.57341,3589.2484,0.0,0.0,0.0,0.0,-0.1266482493816112,0.0,-0.3199015686493267,-0.2928794651774527,-0.4782608562406716,-0.26038481818048076,-1.070354849135799,-0.1157818699092809
12708,7.0,299.62619,4022.2036,0.0,0.0,0.0,0.0,-0.126658216191195,0.0,-0.3842776234177486,-0.3143522916941557,-0.5240195448642024,-0.24012901649138876,-1.049854266487549,-0.10698421445851988
12709,7.0,299.95836,3677.0876,0.0,0.0,0.0,0.0,-0.1266681830007788,0.0,-0.3514893872043016,-0.2918052478189357,-0.4744481683668886,-0.20974648932786683,-1.101921338776169,-0.14921903201677186
12710,7.0,300.70716,3310.8495,0.0,0.0,0.0,0.0,-0.12667814981036266,0.0,-0.2677176483591747,-0.2649017959337717,-0.4737961317950376,-0.22359305856941677,-1.1062864202069689,-0.1112776895047529
12711,7.0,298.53756,3328.0681,0.0,0.0,0.0,0.0,-0.12668811661994647,0.0,-0.2710539161684387,-0.2737696392189597,-0.46682603501964254,-0.19913576467816982,-1.0834173654499688,-0.1255354153718809
12712,7.0,299.45937000000004,3909.7494,0.0,0.0,0.0,0.0,-0.1266980834295303,0.0,-0.3364035826929487,-0.3366266497024637,-0.5154359688945696,-0.2318806540523388,-1.0078378549883522,-0.0982695674957012
12713,7.0,299.82673,4318.2215,0.0,0.0,0.0,0.0,-0.1267080502391141,0.0,-0.42146190598505157,-0.3685309163961697,-0.5226386977604235,-0.23643533484185078,-1.037263519419939,-0.09764962055451722
12714,7.0,300.02427,3891.9394,0.0,0.0,0.0,0.0,-0.12671801704869792,0.0,-0.3873570120616606,-0.3065151770731927,-0.4891801966058265,-0.29928076387671176,-1.043987852383579,-0.07231807117223793
12715,7.0,300.08747,3290.9322,0.0,0.0,0.0,0.0,-0.12672798385828174,0.0,-0.2855651470780857,-0.2853901486533147,-0.4294059286240656,-0.25721356828250275,-1.097019842742429,-0.13902166274536987
12716,7.0,300.61597,3541.9705,0.0,0.0,0.0,0.0,-0.12673795066786558,0.0,-0.3091209624878637,-0.27338458391595777,-0.49416504259279254,-0.24851833215184976,-1.029576497536289,-0.07934957900969372
12717,7.0,300.71657000000005,4267.0475,0.0,0.0,0.0,0.0,-0.1267479174774494,0.0,-0.3481729790969977,-0.34969828526753366,-0.5992046477243945,-0.2025851314635958,-1.0593758790022592,-0.12564654864284888
12718,7.0,300.90055,4025.3542,0.0,0.0,0.0,0.0,-0.1267578842870332,0.0,-0.33126610071091867,-0.3383635123613787,-0.5539775607658285,-0.24236297964936376,-1.066260508131719,-0.08407980537903072
12719,7.0,299.58747,3306.3044,0.0,0.0,0.0,0.0,-0.12676785109661703,0.0,-0.29073606631341575,-0.26955903789840574,-0.4447388850998106,-0.2135939215475788,-1.105311166985719,-0.13893173679899487
12720,7.0,299.19282000000004,3579.5206,0.0,0.0,0.0,0.0,-0.12677781790620085,0.0,-0.3331494185392877,-0.3048064928995587,-0.4501289804642716,-0.2290758663180278,-1.038614181803239,-0.1183892461266089
12721,7.0,299.80155,3988.8952,0.0,0.0,0.0,0.0,-0.1267877847157847,0.0,-0.3786014774175567,-0.3555399862015647,-0.47838308460023454,-0.19681342584647282,-1.070320094657369,-0.15796130321706683
12722,7.0,299.41269,3847.1678,0.0,0.0,0.0,0.0,-0.1267977515253685,0.0,-0.34798855744629664,-0.3248161153443547,-0.4966382847618825,-0.26391011792840074,-1.0845141073582092,-0.1080905417127059
12723,7.0,299.22646000000003,3507.355,0.0,0.0,0.0,0.0,-0.1268077183349523,0.0,-0.2896495683636867,-0.2971046775644487,-0.47939409541751354,-0.2260523685496318,-1.079257973789469,-0.1243334575732569
12724,7.0,300.34179,3231.0756,0.0,0.0,0.0,0.0,-0.12681768514453615,0.0,-0.26591340456860973,-0.24926125725767076,-0.4669916406159865,-0.26383101349309374,-1.019909483632229,-0.08005171370623902
12725,7.0,299.85817000000003,3576.3819,0.0,0.0,0.0,0.0,-0.12682765195411996,0.0,-0.3111671602698077,-0.30931749247725965,-0.4666461324643875,-0.21553165090631782,-1.064951085027489,-0.10965623603222789
12726,7.0,300.67967000000004,4355.7269,0.0,0.0,0.0,0.0,-0.12683761876370378,0.0,-0.4095171058561916,-0.36210081099656766,-0.5524142982465465,-0.28477729446283073,-1.063860827919889,-0.09422816576959592
12727,7.0,299.96077,4018.6740000000004,0.0,0.0,0.0,0.0,-0.12684758557328762,0.0,-0.3943732522466096,-0.3192536965353867,-0.5079496009282225,-0.2279728017291638,-1.092676039563729,-0.12550959775933287
12728,7.0,299.72483,3207.2999,0.0,0.0,0.0,0.0,-0.1268575523828714,0.0,-0.26995444861742973,-0.28555176204426475,-0.41943285239479955,-0.2156482861253288,-1.053567929429059,-0.12376431499208687
12729,7.0,299.68851,3280.6055,0.0,0.0,0.0,0.0,-0.12686751919245523,0.0,-0.26967069805942573,-0.2667279867215027,-0.4608234603672346,-0.2006532282929318,-1.0890026026511888,-0.1336641636366259
12730,7.0,299.11478999999997,3923.6297,0.0,0.0,0.0,0.0,-0.12687748600203907,0.0,-0.3736117273001066,-0.2999721652149477,-0.5191015733838366,-0.26893096469141975,-1.078792790668559,-0.06622628288827524
12731,7.0,298.77896,3829.0333,0.0,0.0,0.0,0.0,-0.1268874528116229,0.0,-0.35577488797224766,-0.3056646650717537,-0.5024909490619955,-0.2557143330370397,-1.101489896883589,-0.12051822644172289
12732,7.0,298.80958,3392.8044,0.0,0.0,0.0,0.0,-0.1268974196212067,0.0,-0.33528406292246066,-0.24258759693153178,-0.45345615942013856,-0.28166051689022875,-1.029823325260649,-0.06222506362138564
12733,7.0,299.21884,3352.2186,0.0,0.0,0.0,0.0,-0.12690738643079053,0.0,-0.3272330714703897,-0.26688957984745076,-0.42486809818371657,-0.2054348365748398,-1.047621671217209,-0.15015964221710285
12734,7.0,300.13499,3755.1020000000003,0.0,0.0,0.0,0.0,-0.12691735324037434,0.0,-0.3346205766244797,-0.29799695573500967,-0.5088397006110685,-0.24345286185442677,-1.033010604775209,-0.07518938688161472
12735,7.0,300.73751,4112.689,0.0,0.0,0.0,0.0,-0.12692732004995816,0.0,-0.3508337941245997,-0.3412243834887247,-0.5580965946748454,-0.2117027206334318,-1.085617840692139,-0.1260504807952139
12736,7.0,300.07872000000003,4080.7452,0.0,0.0,0.0,0.0,-0.126937286859542,0.0,-0.3521857939980316,-0.3391183228908727,-0.5491405277034505,-0.2264665649255098,-1.053646152336779,-0.06430409374631993
12737,7.0,299.869,3451.0788,0.0,0.0,0.0,0.0,-0.12694725366912582,0.0,-0.2973278762964767,-0.2808514772153827,-0.47086243838300457,-0.1995658285506138,-1.088594060210869,-0.11514506248643289
12738,7.0,299.82159,3330.2216,0.0,0.0,0.0,0.0,-0.1269572204787096,0.0,-0.28775154827636673,-0.2763558486416987,-0.4481968037160806,-0.25162446046590076,-1.092226865794399,-0.1078905565404689
12739,7.0,301.3283,3942.9596,0.0,0.0,0.0,0.0,-0.12696718728829345,0.0,-0.37422846223847367,-0.3281325031866567,-0.4962003074061575,-0.25975514403833677,-1.084237287430889,-0.14492446266043088
12740,7.0,301.32082,4009.4796,0.0,0.0,0.0,0.0,-0.12697715409787727,0.0,-0.3634413408788677,-0.3299070080867867,-0.5254333428612336,-0.2649520632712328,-1.045666301174229,-0.11217302769061589
12741,7.0,300.50217000000004,3237.0848,0.0,0.0,0.0,0.0,-0.12698712090746112,0.0,-0.28233494628928973,-0.28534926401177974,-0.41630872875897257,-0.2173476990605478,-1.079903920728219,-0.12655192813720287
12742,7.0,298.64772999999997,3043.0641,0.0,0.0,0.0,0.0,-0.12699708771704493,0.0,-0.2650587179767588,-0.2290784095757788,-0.43087837353688463,-0.22882710328597677,-1.0799326970310592,-0.1072865784208609
12743,7.0,298.83231,3691.5723,0.0,0.0,0.0,0.0,-0.12700705452662872,0.0,-0.33721646258567367,-0.3020950457644597,-0.4828342922895345,-0.19772525974396382,-1.080116399274189,-0.0970422146098209
12744,7.0,299.89412999999996,4130.1681,0.0,0.0,0.0,0.0,-0.12701702133621257,0.0,-0.38808501199350864,-0.3519983731270347,-0.5153845971144995,-0.2051184796286178,-1.033313566555109,-0.0974343251732692
12745,7.0,299.36327,3947.3703,0.0,0.0,0.0,0.0,-0.12702698814579638,0.0,-0.35980295228728665,-0.3303071506837777,-0.5097918821275416,-0.2051447430712098,-1.0351152265579189,-0.1114492226141819
12746,7.0,299.30294,3622.3373,0.0,0.0,0.0,0.0,-0.1270369549553802,0.0,-0.3133924804044297,-0.31349886153242873,-0.4742087272357575,-0.24335960231522277,-1.063993158382949,-0.10308184381838591
12747,7.0,299.54326000000003,3495.3012,0.0,0.0,0.0,0.0,-0.12704692176496404,0.0,-0.2931077605574837,-0.29450445489282673,-0.47487208181122553,-0.2422611581468148,-1.093011627996849,-0.1176373740224049
12748,7.0,300.00827000000004,3966.8964,0.0,0.0,0.0,0.0,-0.12705688857454783,0.0,-0.36777282293635166,-0.32610018693108267,-0.5119644423294565,-0.24561153039747077,-1.075646649108059,-0.07140220757909924
12749,7.0,300.92725,4193.8159,0.0,0.0,0.0,0.0,-0.12706685538413165,0.0,-0.39414885787946363,-0.3392213096310367,-0.5414451465064755,-0.23362021195651977,-1.098362703099959,-0.11005680419426088
12750,7.0,301.09272000000004,3386.3676,0.0,0.0,0.0,0.0,-0.1270768221937155,0.0,-0.3290356839282937,-0.2534662249076688,-0.44686929409756554,-0.23258289716664476,-1.071069697081349,-0.08060923329551192
12751,7.0,299.91305,2970.5782,0.0,0.0,0.0,0.0,-0.1270867890032993,0.0,-0.23778811491785978,-0.2538643714019628,-0.4113291212750236,-0.23633456711940576,-1.071996618272829,-0.15262145492506485
12752,7.0,300.11191,3833.9502,0.0,0.0,0.0,0.0,-0.12709675581288313,0.0,-0.34193921116927267,-0.32949362231098867,-0.49399228345074253,-0.22199213354391778,-1.041372147250429,-0.11162748370427489
12753,7.0,299.11611,4374.5844,0.0,0.0,0.0,0.0,-0.12710672262246694,0.0,-0.40043749330010364,-0.3459440112620157,-0.5833829095329105,-0.25383004248857477,-1.0493574699635189,-0.1011734227187894
12754,7.0,299.63465,3969.011,0.0,0.0,0.0,0.0,-0.12711668943205076,0.0,-0.3773451891485707,-0.34310491487931866,-0.4860301135024376,-0.2391785169700818,-1.094302305974229,-0.1134905770606479
12755,7.0,299.66643999999997,3532.9053,0.0,0.0,0.0,0.0,-0.12712665624163458,0.0,-0.31369236190402566,-0.2875399411254827,-0.4726826915251496,-0.23510265764782579,-1.085295627160339,-0.08106311766455683
12756,7.0,300.29937,3504.2621,0.0,0.0,0.0,0.0,-0.12713662305121842,0.0,-0.3088054161417217,-0.3036439910598287,-0.4527587697738116,-0.2026418329391918,-1.053119464934799,-0.11281699879167088
12757,7.0,300.38381,3923.2021,0.0,0.0,0.0,0.0,-0.12714658986080224,0.0,-0.3151693765747957,-0.3339698471452577,-0.5434162523235085,-0.2329169150621098,-1.050227041199339,-0.08426585633589251
12758,7.0,301.44986,4103.1299,0.0,0.0,0.0,0.0,-0.12715655667038603,0.0,-0.3598455898514947,-0.3391364296701596,-0.5482670149247414,-0.22202961366511678,-1.0758068439488688,-0.15637824179083085
12759,7.0,300.38327000000004,3405.718,0.0,0.0,0.0,0.0,-0.12716652347996987,0.0,-0.28744497932611074,-0.2863265032032257,-0.46148174869220254,-0.25472139860154475,-1.075616454255079,-0.08967777812075761
12760,7.0,300.43388999999996,2938.4872,0.0,0.0,0.0,0.0,-0.1271764902895537,0.0,-0.25815091581751176,-0.23064801504068677,-0.40442779378391563,-0.2061076042437368,-1.0854055647961889,-0.15621941483765583
12761,7.0,299.75965,3720.0359,0.0,0.0,0.0,0.0,-0.12718645709913753,0.0,-0.3620754594790656,-0.2881315677263717,-0.4805910072306396,-0.2566682674761857,-1.086297326209199,-0.08866221781052962
12762,7.0,299.48464,4364.7867,0.0,0.0,0.0,0.0,-0.12719642390872132,0.0,-0.43378747536899054,-0.3352431377509217,-0.5577555448236865,-0.2502539181156388,-1.103809631662529,-0.10028497666010659
12763,7.0,299.57683,3861.2404,0.0,0.0,0.0,0.0,-0.12720639071830514,0.0,-0.32073403466648465,-0.3163390623577347,-0.5366475795354925,-0.24464889213996577,-1.069511014452519,-0.0949718771574945
12764,7.0,300.09702999999996,3434.9443,0.0,0.0,0.0,0.0,-0.12721635752788898,0.0,-0.26796098037068977,-0.3090569757440487,-0.4671193405260896,-0.1983634755844508,-1.049880813640169,-0.10916452602369989
12765,7.0,300.49048999999997,3867.8446,0.0,0.0,0.0,0.0,-0.1272263243374728,0.0,-0.36676348398173764,-0.2947570784077587,-0.5142076260633416,-0.2302207477385188,-1.056909628258859,-0.10008765734888271
12766,7.0,300.45102,4277.9704,0.0,0.0,0.0,0.0,-0.12723629114705662,0.0,-0.4407773811838406,-0.3368260167921397,-0.5227927827031306,-0.24150740139742474,-1.063400508399459,-0.07696151469701012
12767,7.0,299.39394,3908.9018,0.0,0.0,0.0,0.0,-0.12724625795664044,0.0,-0.3937325235458746,-0.3099416545388597,-0.4845343739698195,-0.22548101708324378,-1.054567196677679,-0.1136451787609059
12768,7.0,298.34497000000005,3360.3863,0.0,0.0,0.0,0.0,-0.12725622476622425,0.0,-0.2930844051426787,-0.27264707969817176,-0.45574203138073655,-0.2061054460210238,-1.059203221185219,-0.10173172859013989
12769,7.0,298.47123,3221.0562,0.0,0.0,0.0,0.0,-0.12726619157580807,0.0,-0.2162232244970708,-0.2738255706244797,-0.4890718599051345,-0.24132206782163376,-1.053733798470429,-0.1267485493191079
12770,7.0,298.36148,3534.1242,0.0,0.0,0.0,0.0,-0.12727615838539189,0.0,-0.2760939336233497,-0.3004888721034427,-0.4977027039919325,-0.24446217041153778,-1.114207604188729,-0.14357374961462588
12771,7.0,299.30877999999996,4123.7307,0.0,0.0,0.0,0.0,-0.12728612519497573,0.0,-0.3785253924675477,-0.34811104925088565,-0.5268747113934855,-0.26546834459468577,-1.064966689079029,-0.1073911863611849
12772,7.0,300.28439,3915.2831,0.0,0.0,0.0,0.0,-0.12729609200455955,0.0,-0.37590674890910764,-0.35134792735784065,-0.4628936215140436,-0.22229470015627878,-1.065736049879959,-0.14891048722882086
12773,7.0,300.02528,3320.0221,0.0,0.0,0.0,0.0,-0.12730605881414336,0.0,-0.3372170806682347,-0.27031643221565477,-0.4016702944317716,-0.22779687111430078,-1.0696379746900488,-0.09957937462171909
12774,7.0,300.45078,3639.5981,0.0,0.0,0.0,0.0,-0.12731602562372718,0.0,-0.3206775662384117,-0.32589345351317967,-0.45977593201635153,-0.20780933752168482,-1.092034652250429,-0.14565993024551585
12775,7.0,300.68877000000003,4136.668,0.0,0.0,0.0,0.0,-0.127325992433311,0.0,-0.3661926492729007,-0.33878070795755266,-0.5524704323020865,-0.23607651258393775,-1.040823067021239,-0.08394306221178521
12776,7.0,300.05591,3937.7284,0.0,0.0,0.0,0.0,-0.12733595924289481,0.0,-0.3319943539552917,-0.3294134134330727,-0.5355633310009855,-0.21338896131735077,-1.0682154728746591,-0.13409427817157488
12777,7.0,299.03751,3428.0053,0.0,0.0,0.0,0.0,-0.12734592605247866,0.0,-0.2882894928869577,-0.3040492910998287,-0.4496892400533726,-0.2831498830797177,-1.046762435132409,-0.1079478558336239
12778,7.0,299.02256,3357.7932,0.0,0.0,0.0,0.0,-0.12735589286206245,0.0,-0.3147835917317217,-0.26075866693737676,-0.4451430300346965,-0.23446463432485776,-1.0940860784028887,-0.1075445417638199
12779,7.0,298.80069,3593.5856,0.0,0.0,0.0,0.0,-0.12736585967164626,0.0,-0.35760028842490066,-0.2814548068549267,-0.4533051952877396,-0.25594568843237275,-1.047078163863569,-0.10078677559988031
12780,7.0,300.01185,3880.5246,0.0,0.0,0.0,0.0,-0.1273758264812301,0.0,-0.3510145579424397,-0.3356162873652487,-0.4929517161280465,-0.2071221614363658,-1.0756304371064591,-0.1153782619969479
12781,7.0,301.56095,4021.1145,0.0,0.0,0.0,0.0,-0.12738579329081393,0.0,-0.3436619997842987,-0.3176542305900317,-0.5610021805291044,-0.23351721508385476,-1.082921784826059,-0.08966983423997361
12782,7.0,300.6687,3636.8779,0.0,0.0,0.0,0.0,-0.12739576010039774,0.0,-0.32190496674704666,-0.27853888584964775,-0.5050762060296405,-0.2002253631732048,-1.120852903644569,-0.10381717968095791
12783,7.0,300.18573,3646.7162,0.0,0.0,0.0,0.0,-0.12740572690998156,0.0,-0.3234358052631287,-0.3006797785547837,-0.4843950723460716,-0.2255370903437778,-1.0722589487237189,-0.12242017793943089
12784,7.0,299.6652,4182.8108,0.0,0.0,0.0,0.0,-0.12741569371956538,0.0,-0.43319109662513255,-0.3232820445604537,-0.5149968769637345,-0.2155282666509838,-1.0674660731006989,-0.0945648201418211
12785,7.0,299.27884,4070.1681,0.0,0.0,0.0,0.0,-0.1274256605291492,0.0,-0.3906960561761986,-0.34620641264041263,-0.5003270014859306,-0.24024415210025177,-1.0439601906558489,-0.11641869759713089
12786,7.0,298.80192,3450.7451,0.0,0.0,0.0,0.0,-0.12743562733873304,0.0,-0.3199259778442357,-0.2772892850313217,-0.4517250722867936,-0.1987826166208168,-1.096622648703229,-0.13777886083521487
12787,7.0,299.39513,3457.615,0.0,0.0,0.0,0.0,-0.12744559414831685,0.0,-0.27124749760004374,-0.30095275826422474,-0.4788283472241786,-0.23686496301675178,-1.064686728076399,-0.09620903222484221
12788,7.0,299.69632,3754.8779999999997,0.0,0.0,0.0,0.0,-0.12745556095790064,0.0,-0.32249109139989274,-0.3100512780671787,-0.5088467730967665,-0.20776131959944577,-1.083385042771779,-0.12294701732892588
12789,7.0,300.7799,3897.583,0.0,0.0,0.0,0.0,-0.1274655277674845,0.0,-0.3132952387923327,-0.3302553837361687,-0.5412172969564885,-0.24942534297886476,-1.0669167902214889,-0.08353403746441762
12790,7.0,300.17696,3705.7561,0.0,0.0,0.0,0.0,-0.1274754945770683,0.0,-0.32128444225330566,-0.3260372843648747,-0.4791356051845026,-0.22009223894391278,-1.0970064678411091,-0.13285260096903087
12791,7.0,299.83344,3687.4353,0.0,0.0,0.0,0.0,-0.12748546138665215,0.0,-0.35760404758277164,-0.3017870177340597,-0.4614972007562276,-0.23366499761093978,-1.052553260778919,-0.08814973820145182
12792,7.0,299.20575,3697.6756,0.0,0.0,0.0,0.0,-0.12749542819623597,0.0,-0.32935451320475967,-0.3329223390593767,-0.4617241890436296,-0.21394553959728077,-1.0873347929865889,-0.15263769732416785
12793,7.0,300.38366,3932.7977,0.0,0.0,0.0,0.0,-0.12750539500581975,0.0,-0.35504889427559766,-0.33632211738490864,-0.5041012973134245,-0.2612774003260717,-1.072510842698579,-0.09265090722668261
12794,7.0,299.85266,3959.7670000000003,0.0,0.0,0.0,0.0,-0.1275153618154036,0.0,-0.36182734492707863,-0.2993101987921167,-0.5425327488988135,-0.2633840182114787,-1.122699349301799,-0.12008041120601388
12795,7.0,299.772,3460.0512,0.0,0.0,0.0,0.0,-0.12752532862498742,0.0,-0.30640093312441774,-0.2854309522348417,-0.45993727182977456,-0.24033970158468176,-1.0637618333851189,-0.08669348603848093
12796,7.0,300.06557999999995,3235.1922,0.0,0.0,0.0,0.0,-0.12753529543457123,0.0,-0.27896102610630974,-0.26393308830816775,-0.4405235316362876,-0.19895108971494382,-1.049351491787929,-0.11697433355446789
12797,7.0,299.4351,3856.5871,0.0,0.0,0.0,0.0,-0.12754526224415508,0.0,-0.3665597193866277,-0.2841108089445537,-0.5216356308239285,-0.23268744431196278,-1.0225234662402092,-0.09111902607624772
12798,7.0,299.72105,4152.552,0.0,0.0,0.0,0.0,-0.12755522905373887,0.0,-0.3999655619335276,-0.33957421450836567,-0.5227323625996675,-0.23432503885858078,-1.069699478971119,-0.1132320361651319
12799,7.0,300.29282,3796.0767,0.0,0.0,0.0,0.0,-0.12756519586332268,0.0,-0.35251996388101164,-0.29926399458755676,-0.5021285601637305,-0.24059977248784878,-1.029855343963809,-0.11421237590188389
12800,7.0,299.56971,3530.8829,0.0,0.0,0.0,0.0,-0.12757516267290653,0.0,-0.32297911317805666,-0.2938953294627107,-0.45642578268071754,-0.23950220984702777,-1.079875043100369,-0.0972200622938731
12801,7.0,299.87722,3738.0027,0.0,0.0,0.0,0.0,-0.12758512948249034,0.0,-0.3110140885772007,-0.31279502761546574,-0.5124503666799135,-0.24792461825575476,-1.0864995709291592,-0.0982451623537926
12802,7.0,300.41635,4023.4034,0.0,0.0,0.0,0.0,-0.12759509629207416,0.0,-0.35921101157886665,-0.3372852926649667,-0.5265178649732675,-0.2583030451875257,-1.111394619261109,-0.09048310220748691
12803,7.0,299.54882000000003,4039.3342,0.0,0.0,0.0,0.0,-0.12760506310165798,0.0,-0.35922883464812566,-0.3366738874221257,-0.5319540125547735,-0.2300270244518998,-1.059913712155339,-0.0998246865239295
12804,7.0,299.63813999999996,3681.4277,0.0,0.0,0.0,0.0,-0.1276150299112418,0.0,-0.3351861120352937,-0.3163927240830307,-0.4674832492995045,-0.2080120280716888,-1.037140004232749,-0.11936327331523788
12805,7.0,298.59715,3226.1558,0.0,0.0,0.0,0.0,-0.1276249967208256,0.0,-0.27987153264616976,-0.27495029850048175,-0.4258489648105206,-0.21862469816157779,-1.059410228180649,-0.14442211352585285
12806,7.0,299.17159,3649.2932,0.0,0.0,0.0,0.0,-0.12763496353040946,0.0,-0.3227235715028367,-0.28841499404434373,-0.4981554444016145,-0.2471373127955538,-1.094665353485059,-0.1311282012863459
12807,7.0,300.35005,4252.8562,0.0,0.0,0.0,0.0,-0.12764493033999327,0.0,-0.37374872884612764,-0.3503039352498067,-0.5687094471497525,-0.23756122795546777,-1.059429783907579,-0.12742284699565587
12808,7.0,300.27416,3648.1373,0.0,0.0,0.0,0.0,-0.12765489714957706,0.0,-0.29939322450531075,-0.2947955008515507,-0.5147539097222554,-0.21329898470847078,-1.088553226231839,-0.12383559713662189
12809,7.0,300.16234,3048.3114,0.0,0.0,0.0,0.0,-0.1276648639591609,0.0,-0.24694759184682977,-0.24013263379424576,-0.4395303236232656,-0.21347220994556682,-1.0919724386942888,-0.12452487064964787
12810,7.0,300.18625,3575.5411,0.0,0.0,0.0,0.0,-0.12767483076874472,0.0,-0.31136366999420173,-0.29177621820357075,-0.4837353249409595,-0.2376036932671588,-1.1053570672152488,-0.0984147550892801
12811,7.0,300.08094,4145.7365,0.0,0.0,0.0,0.0,-0.12768479757832857,0.0,-0.4232854015275166,-0.32287694717047366,-0.5140380282616035,-0.24254112928194574,-1.0618740471238088,-0.11357643987412189
12812,7.0,300.30624,4144.0866,0.0,0.0,0.0,0.0,-0.12769476438791239,0.0,-0.38127670086158066,-0.3423584940606527,-0.5360636637678645,-0.24964226969277376,-1.023926513653679,-0.1037310432899569
12813,7.0,300.31202,3661.4048,0.0,0.0,0.0,0.0,-0.12770473119749617,0.0,-0.3241188472880397,-0.2914878978876157,-0.49736888874648755,-0.23133461357344878,-1.068963758073509,-0.1001081969416598
12814,7.0,299.95493999999997,3469.6468,0.0,0.0,0.0,0.0,-0.12771469800708002,0.0,-0.29567310716066375,-0.26083681891758975,-0.4981760539086485,-0.24287451896234877,-1.092672999813429,-0.07502345907173893
12815,7.0,299.82881000000003,3921.4358,0.0,0.0,0.0,0.0,-0.12772466481666384,0.0,-0.35087893441655466,-0.31889471215745774,-0.5222449183740605,-0.23614549465074577,-1.055838521578149,-0.10047295279215841
12816,7.0,299.17675,4360.6107,0.0,0.0,0.0,0.0,-0.12773463162624765,0.0,-0.42737698649132455,-0.34187315739525365,-0.5562666244642415,-0.24741841877079673,-1.0691884969456888,-0.08727939182930532
12817,7.0,299.95087,4046.3462,0.0,0.0,0.0,0.0,-0.1277445984358315,0.0,-0.3851300909918806,-0.3336812937817797,-0.5111768126292235,-0.23943059332995978,-1.0748103124755188,-0.11145922339266891
12818,7.0,300.53161,3375.6836,0.0,0.0,0.0,0.0,-0.12775456524541529,0.0,-0.2911829501375197,-0.27708080882324676,-0.45785978488474255,-0.24384858668098175,-1.1103899817869591,-0.12085221393968489
12819,7.0,301.37009,3553.6059,0.0,0.0,0.0,0.0,-0.1277645320549991,0.0,-0.3155922058415257,-0.2700307463499597,-0.49458451800169156,-0.2050815669274748,-1.105117940191649,-0.12747148300045588
12820,7.0,301.3639,4034.4753,0.0,0.0,0.0,0.0,-0.12777449886458295,0.0,-0.3484581988676467,-0.34093898133305767,-0.5369825802835545,-0.21938102856622177,-1.059945021583429,-0.1170994699418179
12821,7.0,300.59078999999997,3617.2323,0.0,0.0,0.0,0.0,-0.12778446567416676,0.0,-0.3090776460460887,-0.29285112457215573,-0.4976195161587225,-0.18975186298455082,-1.1003039889665491,-0.1254772649486419
12822,7.0,300.50012000000004,3295.6785,0.0,0.0,0.0,0.0,-0.12779443248375058,0.0,-0.2704362997024848,-0.28221349813230373,-0.44915417307306554,-0.2412609384431008,-1.088020358004249,-0.11434878976284689
12823,7.0,300.6476,3692.8941,0.0,0.0,0.0,0.0,-0.1278043992933344,0.0,-0.3274051416023717,-0.33647214932721564,-0.45867030390473457,-0.2474398996729168,-1.0732923625007091,-0.13905736967889387
12824,7.0,300.76015,4105.8752,0.0,0.0,0.0,0.0,-0.12781436610291821,0.0,-0.37348505077260463,-0.3628897477894296,-0.5117087385342205,-0.2682994970965988,-1.043108351296779,-0.13986713889381186
12825,7.0,300.12088,4202.4831,0.0,0.0,0.0,0.0,-0.12782433291250203,0.0,-0.37408594861190864,-0.3934022850732826,-0.5099616927118005,-0.24687422240708878,-1.072618247209179,-0.1401392370756659
12826,7.0,298.84812999999997,3777.4231,0.0,0.0,0.0,0.0,-0.12783429972208588,0.0,-0.3205576379565757,-0.3179837597875537,-0.5097009125335635,-0.24376892495811975,-1.0687848181058488,-0.1147707476344909
12827,7.0,300.2843,3406.6887,0.0,0.0,0.0,0.0,-0.1278442665316697,0.0,-0.2979860430314327,-0.26339851782040974,-0.4741637287988165,-0.16534505934578683,-1.1122373393692788,-0.1165728230698419
12828,7.0,300.39996,3406.5764,0.0,0.0,0.0,0.0,-0.12785423334125348,0.0,-0.3074444490049047,-0.2624060798774637,-0.46566364463742355,-0.2160752595849678,-1.048610299339779,-0.1062288871714749
12829,7.0,300.45626,4059.4913,0.0,0.0,0.0,0.0,-0.12786420015083733,0.0,-0.37649307621197364,-0.30363178139612373,-0.5538591320941405,-0.19649578207262383,-1.0784286285826188,-0.11755341611911889
12830,7.0,299.30249,4086.9825,0.0,0.0,0.0,0.0,-0.12787416696042114,0.0,-0.3888086144199226,-0.3190942616321517,-0.5344377418623985,-0.28239914581562575,-1.069122230389149,-0.08240815448330162
12831,7.0,298.69391,3451.9512,0.0,0.0,0.0,0.0,-0.127884133770005,0.0,-0.3191263816603217,-0.2756488128544197,-0.45453177506379355,-0.2287657205949188,-1.078316056496509,-0.10979410897333489
12832,7.0,299.85705,3687.8533,0.0,0.0,0.0,0.0,-0.1278941005795888,0.0,-0.3247815635159447,-0.31827772390656567,-0.4779560199480865,-0.24926622218316077,-1.077062362147779,-0.08447641071992262
12833,7.0,300.56858,4108.4266,0.0,0.0,0.0,0.0,-0.1279040673891726,0.0,-0.3729643719437176,-0.33211764622745965,-0.5437770909491204,-0.2239808192501858,-1.091149375638059,-0.08263564534275322
12834,7.0,299.43122999999997,4009.4189,0.0,0.0,0.0,0.0,-0.12791403419875644,0.0,-0.37881832307145763,-0.3171744161376777,-0.5227704912009306,-0.2511300856096098,-1.0971350492787988,-0.08110948804213322
12835,7.0,299.76228,3935.6019,0.0,0.0,0.0,0.0,-0.12792400100834025,0.0,-0.3375709278681567,-0.32798446734704667,-0.5307693205378534,-0.1957689372458898,-1.090380724112199,-0.10908986975633189
12836,7.0,300.07561,3557.2217,0.0,0.0,0.0,0.0,-0.12793396781792407,0.0,-0.31900094129794165,-0.2956980128481217,-0.4666075985630846,-0.23907061596693277,-1.029782288631599,-0.12025733480597489
12837,7.0,300.67409,3487.2203,0.0,0.0,0.0,0.0,-0.12794393462750792,0.0,-0.2956174898626747,-0.30405521861291374,-0.46035520709852157,-0.2207068764545728,-1.058358575901859,-0.13614641359910487
12838,7.0,300.73955,3869.1574,0.0,0.0,0.0,0.0,-0.1279539014370917,0.0,-0.32966096056500366,-0.3362210051574297,-0.5102452710172874,-0.2421992890957088,-1.048699465348579,-0.12146154201982087
12839,7.0,299.46345,3896.4049,0.0,0.0,0.0,0.0,-0.12796386824667552,0.0,-0.35101944180792166,-0.3228621435865127,-0.5105282008427106,-0.2289859201066508,-1.069090313010999,-0.13851241337761086
12840,7.0,300.10648,3491.1785,0.0,0.0,0.0,0.0,-0.12797383505625937,0.0,-0.2928157013486597,-0.3103057659622947,-0.4581096118293986,-0.22940681406568977,-1.059566673996089,-0.1250665946831119
12841,7.0,299.99525,3346.5196,0.0,0.0,0.0,0.0,-0.12798380186584318,0.0,-0.26934323589210774,-0.2949084579726987,-0.4530067120732816,-0.2206511578315738,-1.118634696525649,-0.13406348550103586
12842,7.0,298.96296,3902.7071,0.0,0.0,0.0,0.0,-0.127993768675427,0.0,-0.3385262909899437,-0.3245833312663807,-0.5232158855473875,-0.2576502588106008,-1.092798541500819,-0.08857551399947261
12843,7.0,299.38416,4218.2004,0.0,0.0,0.0,0.0,-0.12800373548501082,0.0,-0.3861967799021546,-0.34070579195504364,-0.5553250212788124,-0.20399658885289582,-1.0867623066800889,-0.11359475943592989
12844,7.0,299.06293,3807.6505,0.0,0.0,0.0,0.0,-0.12801370229459463,0.0,-0.3317420749453937,-0.3123762108191317,-0.5133123892024885,-0.2141762870425538,-1.021510925415279,-0.0931180104565321
12845,7.0,298.89104,3586.6582,0.0,0.0,0.0,0.0,-0.12802366910417845,0.0,-0.32733155938010966,-0.2900477655204857,-0.4728752293091516,-0.19502395524236582,-1.0679931658027189,-0.11249629500251988
12846,7.0,299.42187,3951.0703,0.0,0.0,0.0,0.0,-0.1280336359137623,0.0,-0.35170707385578565,-0.3107889038749767,-0.5385307453763465,-0.2558673439346408,-1.072784825525619,-0.056729874969802745
12847,7.0,300.58134,4125.3478,0.0,0.0,0.0,0.0,-0.1280436027233461,0.0,-0.37630384162329766,-0.3332896624856287,-0.5444092070240055,-0.24221298823706075,-1.090761706149799,-0.1072617233959079
12848,7.0,299.89207999999996,4019.3441,0.0,0.0,0.0,0.0,-0.1280535695329299,0.0,-0.36493813419158966,-0.33213647241431765,-0.5247056367719145,-0.2747938324200398,-1.052015731600869,-0.09334907808883672
12849,7.0,300.22732,3667.2982,0.0,0.0,0.0,0.0,-0.12806353634251375,0.0,-0.34562580006811067,-0.29863264858274774,-0.4705086317130865,-0.24402466928335978,-1.0627696588871989,-0.12388448645394688
12850,7.0,299.80692999999997,3546.8378,0.0,0.0,0.0,0.0,-0.12807350315209756,0.0,-0.3352539389969877,-0.2857221299160787,-0.45717406787956755,-0.2578540031407088,-1.0427132850827892,-0.11544892605892189
12851,7.0,300.94588999999996,4043.4921,0.0,0.0,0.0,0.0,-0.1280834699616814,0.0,-0.3952131859170046,-0.3264419156598087,-0.5074655409579495,-0.23383342004256175,-1.066432963298739,-0.14193604361049686
12852,7.0,300.28042999999997,4199.2074,0.0,0.0,0.0,0.0,-0.12809343677126522,0.0,-0.37981924191774064,-0.35005676302041266,-0.5465781803205665,-0.2156801731059758,-1.049768950829129,-0.10044610977050922
12853,7.0,299.8364,3443.7888,0.0,0.0,0.0,0.0,-0.128103403580849,0.0,-0.2858551899192107,-0.2746228464656647,-0.4863477674087876,-0.2279429412487168,-1.096113693177999,-0.11044511203008389
12854,7.0,298.81038,3096.5794,0.0,0.0,0.0,0.0,-0.12811337039043286,0.0,-0.23622178225077475,-0.24666649600408777,-0.4583945478900196,-0.2159131395689678,-1.115862646902069,-0.10754861502922189
12855,7.0,299.23386,3741.6871,0.0,0.0,0.0,0.0,-0.12812333720001667,0.0,-0.3149292666985987,-0.3072049166812647,-0.5152452650932484,-0.22810939797514482,-1.109626903136649,-0.1185782172702589
12856,7.0,298.52668,4069.0225,0.0,0.0,0.0,0.0,-0.1281333040096005,0.0,-0.36480339219329166,-0.35266761468558366,-0.5194102397617996,-0.24805034232816275,-1.050712489322249,-0.13962569152748286
12857,7.0,300.10379,3755.3634,0.0,0.0,0.0,0.0,-0.12814327081918434,0.0,-0.33136191364037465,-0.3329568402252817,-0.4772179483102446,-0.25456797227140276,-1.056976300115439,-0.13475914248969187
12858,7.0,300.36332999999996,3537.4386,0.0,0.0,0.0,0.0,-0.12815323762876812,0.0,-0.2894294904419667,-0.3197378578306697,-0.4661256360205186,-0.26034466307901777,-1.061689331630579,-0.11557272495613989
12859,7.0,300.81676,3711.8802,0.0,0.0,0.0,0.0,-0.12816320443835194,0.0,-0.3277447222408857,-0.2949646122932407,-0.5056095808822806,-0.23324356662934778,-1.088705213746839,-0.08734052323433851
12860,7.0,300.20679,4036.0223,0.0,0.0,0.0,0.0,-0.12817317124793579,0.0,-0.36184287805111165,-0.34364634507025366,-0.5213607867343035,-0.2271110122541118,-1.064953516827729,-0.12302534156165588
12861,7.0,299.8831,4055.5633,0.0,0.0,0.0,0.0,-0.1281831380575196,0.0,-0.3974290726931956,-0.3142019557768187,-0.5211589371818824,-0.2058001942958978,-1.082619734971249,-0.1123260791182209
12862,7.0,300.55141000000003,3726.5222,0.0,0.0,0.0,0.0,-0.12819310486710342,0.0,-0.39381117201863663,-0.27227827692677375,-0.4666802688602566,-0.23483811831171778,-1.0913019711031189,-0.11708877002076189
12863,7.0,301.37304,3640.3611,0.0,0.0,0.0,0.0,-0.12820307167668724,0.0,-0.35458918270522766,-0.28521693354871974,-0.4667727583293846,-0.2357424845559718,-1.099567457468859,-0.1086438269298109
12864,7.0,299.20314,3871.6998,0.0,0.0,0.0,0.0,-0.12821303848627105,0.0,-0.35574525040682264,-0.3130705303176557,-0.5080842821315145,-0.26140841356400174,-1.094929913086169,-0.0985168724608583
12865,7.0,299.78707,4154.5203,0.0,0.0,0.0,0.0,-0.12822300529585487,0.0,-0.3498336453483927,-0.32899455610673467,-0.5840422415054815,-0.25395653663105877,-1.093799733924629,-0.07073377358087994
12866,7.0,299.86400000000003,3764.1568,0.0,0.0,0.0,0.0,-0.12823297210543871,0.0,-0.3211565194281807,-0.3082018230571517,-0.5148513438518716,-0.24963942245999277,-1.089218019622449,-0.09255786756275032
12867,7.0,300.07641,3433.2765,0.0,0.0,0.0,0.0,-0.12824293891502253,0.0,-0.28873810936873273,-0.2909723055742307,-0.4639199020103295,-0.2091171394257548,-1.0799485037326189,-0.11123009714755588
12868,7.0,299.14306,3776.2586,0.0,0.0,0.0,0.0,-0.12825290572460632,0.0,-0.3779319116189756,-0.3270122842735997,-0.4429441253301816,-0.18894810234272583,-1.045460408753909,-0.15609823012569585
12869,7.0,298.94417999999996,3930.8909,0.0,0.0,0.0,0.0,-0.12826287253419016,0.0,-0.35835117767650765,-0.34556048596666467,-0.49098100547855256,-0.21265218663963678,-1.036572888151779,-0.14387788676464186
12870,7.0,298.25082000000003,3582.2679,0.0,0.0,0.0,0.0,-0.12827283934377398,0.0,-0.3205785007761347,-0.3110803044712357,-0.4572611871231656,-0.23276084414920678,-1.086584177312509,-0.14518920464655885
12871,7.0,299.47616,3355.6739,0.0,0.0,0.0,0.0,-0.1282828061533578,0.0,-0.2538168499722728,-0.27480542400118374,-0.49141879031675856,-0.24593762467715377,-1.102599507068099,-0.10614137276033789
12872,7.0,299.57246000000004,3263.816,0.0,0.0,0.0,0.0,-0.12829277296294161,0.0,-0.27373349658789276,-0.2651461715928897,-0.45323889833369657,-0.2231140141871388,-1.1066278854906688,-0.12721701537034188
12873,7.0,300.96915,3682.4934,0.0,0.0,0.0,0.0,-0.12830273977252543,0.0,-0.3072663804323307,-0.3084026897569757,-0.5037169614179935,-0.22894472135758479,-1.099545165966659,-0.1084620599943719
12874,7.0,299.62789,4220.7328,0.0,0.0,0.0,0.0,-0.12831270658210928,0.0,-0.4067432729124356,-0.33429891024773367,-0.5419551862093125,-0.24346162646779176,-1.0951894064367789,-0.1164435019595789
12875,7.0,300.5269,4309.5119,0.0,0.0,0.0,0.0,-0.1283226733916931,0.0,-0.4154683593910346,-0.36291698395211763,-0.5315986758772046,-0.24862143034952475,-1.0802596728383291,-0.1063009900485909
12876,7.0,299.99975,3853.6084,0.0,0.0,0.0,0.0,-0.1283326402012769,0.0,-0.34278094842484563,-0.3221325832495107,-0.5064872074563955,-0.2143607492232588,-1.061447468831709,-0.11041656877476688
12877,7.0,300.50527999999997,3790.3351,0.0,0.0,0.0,0.0,-0.12834260701086073,0.0,-0.3110926762549567,-0.3219791873168717,-0.5190953621607235,-0.23397724076175577,-1.037764571594389,-0.06656905526460423
12878,7.0,300.50154,4061.1892,0.0,0.0,0.0,0.0,-0.12835257382044454,0.0,-0.34769382325720866,-0.33421509419946166,-0.5525911813165035,-0.2111370838976078,-1.086549625484099,-0.05912740405167045
12879,7.0,300.76597999999996,3886.1346,0.0,0.0,0.0,0.0,-0.12836254063002836,0.0,-0.37501300152590167,-0.2886255575476247,-0.5176493124130095,-0.2384249527382108,-1.0870380120322989,-0.0961114298957096
12880,7.0,299.03222999999997,3499.7559,0.0,0.0,0.0,0.0,-0.12837250743961218,0.0,-0.3446522896370327,-0.26958784459874874,-0.44959829072439655,-0.22923206895344378,-1.0805035621373988,-0.10511841572437991
12881,7.0,298.96812,3516.6415,0.0,0.0,0.0,0.0,-0.128382474249196,0.0,-0.3272625165182957,-0.2841936624052307,-0.4575150164057166,-0.24688516550816875,-1.063005847485509,-0.1367950456506199
12882,7.0,300.58816,3872.9676,0.0,0.0,0.0,0.0,-0.12839244105877984,0.0,-0.3511851183317726,-0.2976680446200487,-0.5284322895797064,-0.24408751105456178,-1.073210491892629,-0.11523014509732989
12883,7.0,299.89607,4230.622,0.0,0.0,0.0,0.0,-0.12840240786836365,0.0,-0.36583559007016164,-0.37310639921023464,-0.5470614702207635,-0.26210943064568676,-1.0651909213261592,-0.13031673994376086
12884,7.0,298.39227,4197.5402,0.0,0.0,0.0,0.0,-0.12841237467794747,0.0,-0.3913795035011496,-0.3255373568980357,-0.5590305579545205,-0.19230841457686282,-1.069405231142079,-0.08790059824036361
12885,7.0,298.53123999999997,3654.0894,0.0,0.0,0.0,0.0,-0.1284223414875313,0.0,-0.3335471090710367,-0.3269393100013977,-0.45026550578274555,-0.2133650992774958,-1.044721040155939,-0.13205401803521688
12886,7.0,300.01872000000003,3602.3015,0.0,0.0,0.0,0.0,-0.1284323082971151,0.0,-0.3179774877694347,-0.3288670791116537,-0.4481651396504556,-0.21377714756316182,-1.106374775615689,-0.09830795447573971
12887,7.0,300.60078,3944.3899,0.0,0.0,0.0,0.0,-0.12844227510669895,0.0,-0.3519594339256917,-0.3332746866491507,-0.5137619074768526,-0.25266383215347876,-1.094598478978459,-0.13860301820155285
12888,7.0,300.66206,3867.493,0.0,0.0,0.0,0.0,-0.12845224191628274,0.0,-0.3348267223573247,-0.36281555761710765,-0.47797903085785753,-0.23713132620303978,-1.0749205540863989,-0.13065475004461988
12889,7.0,298.73933999999997,3332.3948,0.0,0.0,0.0,0.0,-0.12846220872586656,0.0,-0.2816735168890117,-0.28530208708712373,-0.4459892053257076,-0.23959298692348677,-1.042445280431339,-0.12757050793272887
12890,7.0,299.44759,3453.0046,0.0,0.0,0.0,0.0,-0.1284721755354504,0.0,-0.3118262186648517,-0.27947356853689376,-0.4583273795408906,-0.23257335235070276,-1.074738675693449,-0.1093351168105359
12891,7.0,300.23769,3872.3845,0.0,0.0,0.0,0.0,-0.12848214234503422,0.0,-0.3582920342681707,-0.3221200493457737,-0.49669609068008747,-0.25757344432051976,-1.046591398515529,-0.1041212661684689
12892,7.0,299.68032999999997,3961.7912,0.0,0.0,0.0,0.0,-0.12849210915461803,0.0,-0.38617319143982665,-0.2853416545035287,-0.5327707427978785,-0.2118009653631278,-1.077111302127609,-0.10426055765971591
12893,7.0,299.36893,4047.2071,0.0,0.0,0.0,0.0,-0.12850207596420185,0.0,-0.3701866987820826,-0.32337513184714073,-0.5366880791419896,-0.2514870941498437,-1.059734670862669,-0.12496734683581688
12894,7.0,300.41165,3936.6651,0.0,0.0,0.0,0.0,-0.12851204277378567,0.0,-0.3580413156634267,-0.31638528682729666,-0.5222212995142295,-0.25605017478268477,-1.118399217202409,-0.098629390844713
12895,7.0,300.8792,3715.3847,0.0,0.0,0.0,0.0,-0.12852200958336948,0.0,-0.3314154639081597,-0.2886636050888797,-0.5093051066470006,-0.2844265680732167,-1.079333967546969,-0.0933361865078144
12896,7.0,301.91062999999997,4079.0195,0.0,0.0,0.0,0.0,-0.12853197639295333,0.0,-0.3903963063991156,-0.3530107822294517,-0.4965129862545165,-0.23637213843311378,-1.075181263337129,-0.08781046559096822
12897,7.0,299.64645,3996.4802,0.0,0.0,0.0,0.0,-0.12854194320253715,0.0,-0.39822984424722563,-0.3136633728186647,-0.5029369716235145,-0.24216502097732678,-1.065958863576949,-0.07044630540825902
12898,7.0,298.95259,3582.8379,0.0,0.0,0.0,0.0,-0.12855191001212093,0.0,-0.34714583733812665,-0.29073146615796175,-0.4512159546415476,-0.20956056806701778,-1.0968416120498388,-0.0952899171121326
12899,7.0,299.6361,3543.4934,0.0,0.0,0.0,0.0,-0.12856187682170478,0.0,-0.26877873399639574,-0.31613212628981174,-0.4922226421510925,-0.2217767368376598,-1.061854592721889,-0.13111645771768687
12900,7.0,298.48827,3881.5445,0.0,0.0,0.0,0.0,-0.12857184363128862,0.0,-0.3528435047704427,-0.29633813359879674,-0.5307109775970955,-0.18133538208890884,-1.0734605620173092,-0.11640815979609088
12901,7.0,299.40598,3929.1791,0.0,0.0,0.0,0.0,-0.12858181044087244,0.0,-0.3300245856283907,-0.35670039061358766,-0.5076473686883946,-0.2288797112311688,-1.0420694659692489,-0.14668771035194986
12902,7.0,299.41659,3582.5652,0.0,0.0,0.0,0.0,-0.12859177725045626,0.0,-0.35831254245019467,-0.27102490681807573,-0.4596729148786845,-0.24532754679194374,-1.096472789013439,-0.12092158104153089
12903,7.0,299.66441000000003,3564.4172,0.0,0.0,0.0,0.0,-0.12860174406004005,0.0,-0.33365519245920366,-0.2934788431416067,-0.45635977956920354,-0.2652658870922047,-1.078870202976199,-0.12135253657406289
12904,7.0,300.11439,3729.9231,0.0,0.0,0.0,0.0,-0.12861171086962386,0.0,-0.35418573691291066,-0.3217604266202817,-0.45785730242199757,-0.24759726754594774,-1.088228682224809,-0.11885609097768288
12905,7.0,300.37226,4039.0639,0.0,0.0,0.0,0.0,-0.1286216776792077,0.0,-0.3309161443913807,-0.3211050868531047,-0.5757533287974295,-0.2591404558651717,-1.0930298664986489,-0.1180356319742099
12906,7.0,300.21434,4115.7323,0.0,0.0,0.0,0.0,-0.12863164448879152,0.0,-0.34932455810064966,-0.34848526277781766,-0.5532700386185014,-0.2355473528517138,-1.1290685381053889,-0.10196787665844591
12907,7.0,301.72081000000003,3758.8175,0.0,0.0,0.0,0.0,-0.12864161129837537,0.0,-0.3110317089964397,-0.3299756253835587,-0.5015793380795265,-0.21620615123288578,-1.061233673060609,-0.1029386310492519
12908,7.0,300.28448,3509.4029,0.0,0.0,0.0,0.0,-0.12865157810795916,0.0,-0.3319335082867867,-0.25760741859637276,-0.4772299249264266,-0.17419312398902284,-1.073837187079479,-0.1130722263593599
12909,7.0,300.19507999999996,3925.152,0.0,0.0,0.0,0.0,-0.12866154491754297,0.0,-0.3798922263224436,-0.3343489850676757,-0.4789069956969405,-0.20893865542063977,-1.068998107251899,-0.1193900129853769
12910,7.0,300.3927,4008.1816,0.0,0.0,0.0,0.0,-0.12867151172712682,0.0,-0.3809350126628586,-0.2883653245244417,-0.5490867849181464,-0.20950577150160982,-1.107813692082699,-0.10301095684138989
12911,7.0,300.29171,3544.7849,0.0,0.0,0.0,0.0,-0.12868147853671064,0.0,-0.2942381221040417,-0.29170803660434175,-0.49157993761266255,-0.23617117040827978,-1.0878100072834889,-0.09346800426632382
12912,7.0,299.73584,3462.349,0.0,0.0,0.0,0.0,-0.12869144534629445,0.0,-0.26862005903073577,-0.29129100312818373,-0.49255658911905054,-0.23011863239344077,-1.0830464145883592,-0.11827487045532088
12913,7.0,300.1541,3885.6405,0.0,0.0,0.0,0.0,-0.12870141215587827,0.0,-0.3591049344258977,-0.29387225775793374,-0.5281604953728826,-0.26734008097441175,-1.101239016158829,-0.09334069243100909
12914,7.0,300.0739,4148.8276,0.0,0.0,0.0,0.0,-0.1287113789654621,0.0,-0.42376819493516454,-0.34252196169928567,-0.49484985780537855,-0.25154441370800074,-1.0884760165742189,-0.1086824418911219
12915,7.0,299.68618,4018.7604,0.0,0.0,0.0,0.0,-0.1287213457750459,0.0,-0.42485866482528556,-0.32673763270149364,-0.4700065257585325,-0.25019778406009874,-1.0581228939285992,-0.12018919373674988
12916,7.0,298.50791,3795.1314,0.0,0.0,0.0,0.0,-0.12873131258462975,0.0,-0.35343654992147167,-0.2987431536386537,-0.5014454674763146,-0.2020635711071218,-1.062085309769659,-0.1115789186269819
12917,7.0,299.74227,3599.7753,0.0,0.0,0.0,0.0,-0.12874127939421356,0.0,-0.27793699502524577,-0.31641120576485465,-0.4998936040206576,-0.22681361321726076,-1.051705069120209,-0.12248724496354989
12918,7.0,301.33712,3725.4646,0.0,0.0,0.0,0.0,-0.12875124620379735,0.0,-0.2788170128695967,-0.3044021453146527,-0.5492290452321865,-0.21380337047574977,-1.098780263466169,-0.09737273273944051
12919,7.0,301.09724,3811.5691,0.0,0.0,0.0,0.0,-0.1287612130133812,0.0,-0.31849924064342766,-0.33502612997700465,-0.5050964608991396,-0.21169114931728977,-1.061959666757259,-0.12193950222449189
12920,7.0,300.04636,3483.6314,0.0,0.0,0.0,0.0,-0.12877117982296502,0.0,-0.34312560544636067,-0.28291048247859074,-0.4329008612664886,-0.2237986875447108,-1.0783943807292389,-0.12689613932867388
12921,7.0,299.6576,3334.8538,0.0,0.0,0.0,0.0,-0.12878114663254886,0.0,-0.3254400646234337,-0.27406281300289376,-0.4142093961417846,-0.1972317765477608,-1.109985087046999,-0.14412792649181888
12922,7.0,300.86782,3771.0652,0.0,0.0,0.0,0.0,-0.12879111344213268,0.0,-0.3350814230349617,-0.3280894197924047,-0.4831388144745885,-0.24093992054641877,-1.120517619186479,-0.11609509591269387
12923,7.0,300.62012999999996,4198.509,0.0,0.0,0.0,0.0,-0.12880108025171647,0.0,-0.35759163526904664,-0.34151921900282267,-0.5771310550909005,-0.2103285305828098,-1.058974024012599,-0.1039184236309499
12924,7.0,299.3719,4100.3934,0.0,0.0,0.0,0.0,-0.12881104706130028,0.0,-0.3326944591118867,-0.3412553484117807,-0.5724673992531335,-0.21667489086164676,-1.081169470103119,-0.08655969244227651
12925,7.0,299.28218,3847.6803,0.0,0.0,0.0,0.0,-0.12882101387088413,0.0,-0.3301078443891077,-0.3066770741741707,-0.5328138059271286,-0.26130503165629876,-1.072160764789029,-0.07565800390711364
12926,7.0,300.46043,3918.9195,0.0,0.0,0.0,0.0,-0.12883098068046794,0.0,-0.38273912473091065,-0.31289920999074766,-0.49561535812342755,-0.25837290878192076,-1.0826635073755688,-0.07063342230422602
12927,7.0,300.53802,3958.775,0.0,0.0,0.0,0.0,-0.1288409474900518,0.0,-0.3925206865587756,-0.3218340189750447,-0.48901405398692954,-0.2576549602910647,-1.060404125203739,-0.09141664296187021
12928,7.0,300.62475,4090.5463,0.0,0.0,0.0,0.0,-0.12885091429963558,0.0,-0.37629098347952866,-0.34603673377866667,-0.5210962068681915,-0.23716573617643577,-1.043316270217299,-0.13088466662481088
12929,7.0,300.44445,3758.0738,0.0,0.0,0.0,0.0,-0.1288608811092194,0.0,-0.30115326019401273,-0.29595018040050874,-0.5452571453701905,-0.24438029980345777,-1.083715260979369,-0.1018764105719189
12930,7.0,300.98825,3444.8245,0.0,0.0,0.0,0.0,-0.12887084791880324,0.0,-0.25741848798272676,-0.2895540898067637,-0.5001680529427436,-0.20177128898327581,-1.087975774999849,-0.11257121471491391
12931,7.0,301.84282,3572.6517,0.0,0.0,0.0,0.0,-0.12888081472838706,0.0,-0.33396807395758266,-0.2607515944516787,-0.49127722914528754,-0.2166737256240318,-1.0596937355586291,-0.095636868131874
12932,7.0,301.01097000000004,3955.0921,0.0,0.0,0.0,0.0,-0.12889078153797087,0.0,-0.40694122145197165,-0.31667169210056273,-0.47863633633022856,-0.19324011830881482,-1.064693922152109,-0.12433365009077589
12933,7.0,300.14212000000003,4087.5223,0.0,0.0,0.0,0.0,-0.1289007483475547,0.0,-0.4099676475131566,-0.3292789551448027,-0.5032581111102086,-0.25087873878980377,-1.090820170680569,-0.11599265632758389
12934,7.0,300.3158,3944.6191,0.0,0.0,0.0,0.0,-0.1289107151571385,0.0,-0.3431412196304017,-0.34682755521671466,-0.5090969242814545,-0.27105590213863473,-1.097605501300229,-0.14638098941417885
12935,7.0,300.12941,3911.3813,0.0,0.0,0.0,0.0,-0.12892068196672232,0.0,-0.3176261331647587,-0.34847263768157166,-0.5228634771626075,-0.23709519370447377,-1.088045182631699,-0.1051163588266769
12936,7.0,300.27598,3902.4286,0.0,0.0,0.0,0.0,-0.12893064877630617,0.0,-0.3071085160667507,-0.34301268885521663,-0.5361196661008916,-0.2608384806477537,-1.053849714281869,-0.13230675300765987
12937,7.0,301.15269,3834.8542,0.0,0.0,0.0,0.0,-0.12894061558588998,0.0,-0.3460247267649817,-0.3202859349422607,-0.4993892486508815,-0.25431716247414976,-1.099548408366979,-0.09595930255219581
12938,7.0,300.12591000000003,3561.6704,0.0,0.0,0.0,0.0,-0.12895058239547377,0.0,-0.35097546675358166,-0.2852115329256867,-0.4464718670108426,-0.27152895821282175,-1.086816312910419,-0.11715127741943089
12939,7.0,299.03032,3564.6336,0.0,0.0,0.0,0.0,-0.12896054920505762,0.0,-0.34553978526712165,-0.26544134147952075,-0.47257847875236453,-0.19133096260289584,-1.056279589346679,-0.11935039490646689
12940,7.0,299.15313,3675.5984,0.0,0.0,0.0,0.0,-0.12897051601464143,0.0,-0.3319840897317787,-0.3130040509785947,-0.4723020033300785,-0.20381282581475982,-1.052909924814119,-0.17695258904636083
12941,7.0,298.69556,4049.6313,0.0,0.0,0.0,0.0,-0.12898048282422528,0.0,-0.3416803359012237,-0.33039109845456266,-0.5589153514181504,-0.20362670190389082,-1.090320537056259,-0.13257294394143088
12942,7.0,298.40529,4052.0261,0.0,0.0,0.0,0.0,-0.1289904496338091,0.0,-0.35479781090081763,-0.33471406921120667,-0.5422028650637565,-0.24767997915161075,-1.077907108756149,-0.12665453997482987
12943,7.0,299.88707999999997,3883.7786,0.0,0.0,0.0,0.0,-0.12900041644339288,0.0,-0.37311973358155065,-0.3078396368089067,-0.4996123359253985,-0.21992508307491576,-1.100626506473379,-0.07845805469720712
12944,7.0,300.05967999999996,3892.5325,0.0,0.0,0.0,0.0,-0.12901038325297673,0.0,-0.39295021340866665,-0.28275270930551977,-0.5075297708817885,-0.26207084608187875,-1.0752242251413688,-0.08122406129719072
12945,7.0,300.19638,4060.2214,0.0,0.0,0.0,0.0,-0.12902035006256055,0.0,-0.37774713533073967,-0.32667269350258465,-0.5297861031708175,-0.25361659122250874,-1.1399270328020388,-0.07943664961728693
12946,7.0,300.21772999999996,3972.3347,0.0,0.0,0.0,0.0,-0.12903031687214436,0.0,-0.3312530804471337,-0.3257307762096247,-0.5505067130782825,-0.2605751572117657,-1.096019562243709,-0.1256147224572079
12947,7.0,299.47582,3854.4186,0.0,0.0,0.0,0.0,-0.1290402836817282,0.0,-0.3127731312808047,-0.3124466924960877,-0.5464271959231655,-0.21170315633097478,-1.0724437655419592,-0.12114005802809287
12948,7.0,299.58062,3682.9967,0.0,0.0,0.0,0.0,-0.129050250491312,0.0,-0.3052425653450957,-0.3175705057342687,-0.4967259815580375,-0.2313629744437478,-1.037856777353489,-0.15387414615619585
12949,7.0,300.70521,3670.7953,0.0,0.0,0.0,0.0,-0.1290602173008958,0.0,-0.35906031089149365,-0.28429210978494673,-0.4724776907649175,-0.2243725518713468,-1.079568838920149,-0.0985061907783041
12950,7.0,300.30144,3750.5372,0.0,0.0,0.0,0.0,-0.12907018411047966,0.0,-0.34539356314519065,-0.3255492727192117,-0.4691268118892115,-0.23714833867221877,-1.0560946712034291,-0.1269829849947449
12951,7.0,300.52443,3877.6945,0.0,0.0,0.0,0.0,-0.12908015092006347,0.0,-0.36446071100947164,-0.3118288227176087,-0.5024327682412535,-0.2142388248387258,-1.091276943825649,-0.11741093289005688
12952,7.0,300.97764,3939.5561,0.0,0.0,0.0,0.0,-0.1290901177296473,0.0,-0.3365563605430267,-0.3234415807886987,-0.5375287220874545,-0.2181238689021498,-1.080406999402869,-0.14104805148785887
12953,7.0,300.52782,3690.285,0.0,0.0,0.0,0.0,-0.1291000845392311,0.0,-0.3037974883174777,-0.3156011731049107,-0.5023558524261625,-0.22110294578616177,-1.1459680298982389,-0.13963164943807085
12954,7.0,299.59395,3668.5429,0.0,0.0,0.0,0.0,-0.12911005134881492,0.0,-0.32655425469839566,-0.2962935911244007,-0.4922975821284885,-0.25157116351064074,-1.0940757432518688,-0.11172893030428689
12955,7.0,298.82133,3767.2278,0.0,0.0,0.0,0.0,-0.12912001815839874,0.0,-0.37417678648337366,-0.29325841058235175,-0.4777079965886085,-0.2179764308800988,-1.0714437890182689,-0.10051435925749491
12956,7.0,298.4896,3695.76,0.0,0.0,0.0,0.0,-0.1291299849679826,0.0,-0.3370083308826327,-0.3242569127466657,-0.4621535031109996,-0.24109837259705677,-1.0708074679554689,-0.1008775465968387
12957,7.0,299.1767,3645.6584,0.0,0.0,0.0,0.0,-0.1291399517775664,0.0,-0.3134697609895567,-0.27721602704909176,-0.5175033436036035,-0.23518093121805078,-1.1125836682534591,-0.10585530185960489
12958,7.0,299.69426,3766.9465,0.0,0.0,0.0,0.0,-0.1291499185871502,0.0,-0.3000500030876297,-0.3310025036974037,-0.5140051685608605,-0.24027240151303977,-1.0790545131693887,-0.12856811345118488
12959,7.0,300.22303,3878.1084,0.0,0.0,0.0,0.0,-0.12915988539673404,0.0,-0.3365020908676707,-0.3180870809002507,-0.5242589353328285,-0.19474775339760683,-1.084803390261759,-0.13544885170026089
12960,7.0,301.26095,4037.2566,0.0,0.0,0.0,0.0,-0.12916985220631785,0.0,-0.3799366472068276,-0.3157238371620167,-0.5315647117338524,-0.24662638143262877,-1.0482347888527188,-0.1168182423765629
12961,7.0,300.26896,3965.2524,0.0,0.0,0.0,0.0,-0.1291798190159017,0.0,-0.4077769805319546,-0.3307591615533877,-0.4668015650297275,-0.2286080892768618,-1.1164609710861189,-0.1100030006139509
12962,7.0,299.79773,3803.2009,0.0,0.0,0.0,0.0,-0.12918978582548551,0.0,-0.35697730173341663,-0.29185700463404374,-0.5072438013060655,-0.25482570256683873,-1.062843119519449,-0.08723144078157291
12963,7.0,300.09608,3921.6048,0.0,0.0,0.0,0.0,-0.1291997526350693,0.0,-0.36473794636933266,-0.3112086528614027,-0.5161233577624095,-0.2070801824847228,-1.068295924932599,-0.09579900132012531
12964,7.0,299.46813,4073.7945,0.0,0.0,0.0,0.0,-0.12920971944465315,0.0,-0.3313135410806007,-0.3490786220363777,-0.5579396523668565,-0.2068575917027548,-1.0571666898092291,-0.1116777713067379
12965,7.0,299.8159,3953.4966,0.0,0.0,0.0,0.0,-0.12921968625423697,0.0,-0.33664402694167866,-0.3129245919057527,-0.5521956287424655,-0.2261295174122458,-1.1248068081847888,-0.1087588206836599
12966,7.0,299.0044,3606.4338,0.0,0.0,0.0,0.0,-0.12922965306382078,0.0,-0.32146028167565965,-0.3301229114180947,-0.4446826395867595,-0.25291083213035576,-1.090542337503149,-0.12411457528665489
12967,7.0,298.50237999999996,3669.3869,0.0,0.0,0.0,0.0,-0.12923961987340463,0.0,-0.35459231364803667,-0.29754338446024575,-0.46326628476832254,-0.23489891331771778,-1.088089866961109,-0.0939318022743471
12968,7.0,298.2724,3827.632,0.0,0.0,0.0,0.0,-0.12924958668298842,0.0,-0.33282795481256167,-0.33175987774965066,-0.4989167194667465,-0.2547982536216298,-1.049902395867299,-0.13083839149274387
12969,7.0,298.2108,3723.6357,0.0,0.0,0.0,0.0,-0.12925955349257223,0.0,-0.3218639098529947,-0.3129442590901937,-0.49708411480588255,-0.2617926683994248,-1.1202733245873688,-0.11808911131448788
12970,7.0,299.25775,3599.0047,0.0,0.0,0.0,0.0,-0.12926952030215608,0.0,-0.2773765258649317,-0.28354650969886175,-0.5330845159563455,-0.23523257657564778,-1.0929300613637989,-0.12792181187489987
12971,7.0,299.69343,3572.57,0.0,0.0,0.0,0.0,-0.1292794871117399,0.0,-0.3064351708452967,-0.2966249441721027,-0.48291193764469753,-0.20282660922742782,-1.065678801249309,-0.14354403098919286
12972,7.0,299.37557999999996,3805.3333,0.0,0.0,0.0,0.0,-0.1292894539213237,0.0,-0.38812952407040163,-0.3052335170217027,-0.46336326293539354,-0.20572012727299582,-1.057309659398339,-0.12225222160285489
12973,7.0,300.38933,4075.0989,0.0,0.0,0.0,0.0,-0.12929942073090753,0.0,-0.42286003913553666,-0.2984371622409547,-0.5174311292689765,-0.21829616194915377,-1.1161784769582388,-0.09029285538196101
12974,7.0,299.73091,3883.633,0.0,0.0,0.0,0.0,-0.12930938754049134,0.0,-0.36333347027322166,-0.3109784221736807,-0.5062155551045855,-0.2448425748965808,-1.079559111719189,-0.10043403182931722
12975,7.0,300.38358,3771.2713,0.0,0.0,0.0,0.0,-0.12931935435007516,0.0,-0.32696881584430965,-0.3037203495873647,-0.5156831512564645,-0.2258845642005708,-1.084317739488829,-0.08357289459250251
12976,7.0,300.46493,3985.2343,0.0,0.0,0.0,0.0,-0.129329321159659,0.0,-0.3043633581008247,-0.34333354463188265,-0.5637148030343194,-0.24932411929387474,-1.079995923837299,-0.1278106279414269
12977,7.0,299.81725,4005.1673,0.0,0.0,0.0,0.0,-0.12933928796924282,0.0,-0.3517793489854187,-0.3323026251657157,-0.5333888861538845,-0.24893966180843174,-1.118841196896029,-0.13457415341893486
12978,7.0,299.58348,3790.1586,0.0,0.0,0.0,0.0,-0.1293492547788266,0.0,-0.38106880220606265,-0.29211564685456975,-0.4789291352116255,-0.2513513186364438,-1.0924958836959489,-0.100055580890467
12979,7.0,299.98005,3680.2698,0.0,0.0,0.0,0.0,-0.12935922158841046,0.0,-0.3284190807124397,-0.3185878696296747,-0.47170317252097854,-0.23803707046742978,-1.061790150015529,-0.12094306194365088
12980,7.0,299.56086,3717.2252,0.0,0.0,0.0,0.0,-0.12936918839799427,0.0,-0.3610713691599697,-0.2792457696494118,-0.4896265028773735,-0.23191975537369777,-1.055414273761279,-0.1124947852598709
12981,7.0,298.59546,3958.0391,0.0,0.0,0.0,0.0,-0.1293791552075781,0.0,-0.35067920255684265,-0.3062560991551237,-0.5462097524517056,-0.22457447235127478,-1.0980198192661188,-0.12426388782139089
12982,7.0,298.56295,3991.2113,0.0,0.0,0.0,0.0,-0.1293891220171619,0.0,-0.33827424502756864,-0.3383925622417457,-0.5365617572520225,-0.22794609245652778,-1.069429954444519,-0.11446233456905289
12983,7.0,299.07365,3882.1268,0.0,0.0,0.0,0.0,-0.12939908882674572,0.0,-0.3538060113054347,-0.31500643582621474,-0.5112571734946545,-0.23075197450094678,-1.0778679973022889,-0.11781044727198588
12984,7.0,299.8088,3897.4785,0.0,0.0,0.0,0.0,-0.12940905563632957,0.0,-0.38406122359389167,-0.3422052906455327,-0.45846963985493056,-0.24798127920134677,-1.083682431676129,-0.12050965434587689
12985,7.0,299.67407000000003,3828.4333,0.0,0.0,0.0,0.0,-0.12941902244591336,0.0,-0.3573852260911757,-0.33261705693674765,-0.47374584419257454,-0.26964386719677774,-1.121120806971009,-0.13956201889119885
12986,7.0,300.13254,3833.4775,0.0,0.0,0.0,0.0,-0.1294289892554972,0.0,-0.3692379521834487,-0.3120348468604417,-0.4840086390229335,-0.2462270291707158,-1.108813769931399,-0.0980688193461389
12987,7.0,299.49297,3690.5017,0.0,0.0,0.0,0.0,-0.12943895606508102,0.0,-0.3165888589048877,-0.3354833590846297,-0.4697481368505316,-0.2179008930851438,-1.0683867121415591,-0.13281022684984886
12988,7.0,300.34471,3672.3316,0.0,0.0,0.0,0.0,-0.12944892287466483,0.0,-0.2961055927008467,-0.3051863299645457,-0.5150051856145546,-0.2068630125907898,-1.066386353794139,-0.13176962912964987
12989,7.0,300.58094,3756.6156,0.0,0.0,0.0,0.0,-0.12945888968424865,0.0,-0.35258129590956466,-0.3073376828418677,-0.4819983508245336,-0.22794738941665577,-1.0839395945515091,-0.11622028296254888
12990,7.0,300.77397,3963.5984,0.0,0.0,0.0,0.0,-0.12946885649383247,0.0,-0.3574063320907586,-0.3397454943052697,-0.5076831161519225,-0.25135237241654773,-1.069712651222419,-0.1019402858582229
12991,7.0,300.48575,3979.2512,0.0,0.0,0.0,0.0,-0.12947882330341628,0.0,-0.38083005008499965,-0.3260435259854907,-0.5027194470920465,-0.25635566968783474,-1.0698937190152888,-0.10619736496086389
12992,7.0,299.77755,4062.9386,0.0,0.0,0.0,0.0,-0.12948879011300013,0.0,-0.3570647553495477,-0.3604205586207397,-0.5175465587203685,-0.24593660129455278,-1.0882550267274091,-0.1077575674648439
12993,7.0,299.41885,3992.2685,0.0,0.0,0.0,0.0,-0.12949875692258395,0.0,-0.3448745055164637,-0.32884039010401966,-0.5398350515675715,-0.2321234794388038,-1.101415625651259,-0.13171116459887985
12994,7.0,299.12157,3799.8054,0.0,0.0,0.0,0.0,-0.12950872373216774,0.0,-0.31859007851489274,-0.2906042323429047,-0.5458516394688625,-0.16807940593314583,-1.098516818440169,-0.10086055439266171
12995,7.0,299.12842,3833.3935,0.0,0.0,0.0,0.0,-0.12951869054175158,0.0,-0.36548331340789464,-0.3221536993815947,-0.47761891163981657,-0.21086963653371277,-1.0685631189839688,-0.11494120669881389
12996,7.0,299.39713,3775.6848,0.0,0.0,0.0,0.0,-0.1295286573513354,0.0,-0.3536823846607337,-0.27374511856653977,-0.5202864072557706,-0.19368662723038182,-1.099207449708329,-0.08983601434912432
12997,7.0,299.91877,3754.2712,0.0,0.0,0.0,0.0,-0.12953862416091924,0.0,-0.35221410420582566,-0.3110247783657557,-0.4779658079440526,-0.26428681391807773,-1.091528533825479,-0.12335071643376788
12998,7.0,300.8551,3910.8505,0.0,0.0,0.0,0.0,-0.12954859097050303,0.0,-0.33621193656903464,-0.3248230155775357,-0.5277659357839425,-0.23886079213622477,-1.085116585867669,-0.07741795245630702
12999,7.0,300.26072,3833.5159999999996,0.0,0.0,0.0,0.0,-0.12955855778008685,0.0,-0.3003799274526907,-0.3145757234737067,-0.5503375003115825,-0.2702809785946557,-1.0818827981735188,-0.1086359235790309
13000,7.0,300.76822999999996,3943.3063,0.0,0.0,0.0,0.0,-0.1295685245896707,0.0,-0.32137399329714367,-0.34687086152598867,-0.5304217960185554,-0.2422851012466778,-1.1116412443354489,-0.11204777984575488
13001,7.0,301.10131,4059.0029,0.0,0.0,0.0,0.0,-0.1295784913992545,0.0,-0.39833983254558064,-0.3276684143758547,-0.5078272813761505,-0.2247117981373278,-1.0846003349417188,-0.12784080252940488
13002,7.0,299.55959,3828.363,0.0,0.0,0.0,0.0,-0.12958845820883833,0.0,-0.3501239718995457,-0.3037873862139807,-0.5098154097948635,-0.1935609943504828,-1.093555743300549,-0.10860841383881589
13003,7.0,299.40555,3949.6816,0.0,0.0,0.0,0.0,-0.12959842501842214,0.0,-0.38792179766740065,-0.3274798080022407,-0.4852029873133066,-0.2238545784202268,-1.049816776233849,-0.11592858852376088
13004,7.0,300.33052000000004,4032.4574,0.0,0.0,0.0,0.0,-0.12960839182800596,0.0,-0.3831188300733846,-0.2931391915755857,-0.5495083273572495,-0.2106785882273578,-1.1020885250426689,-0.1077261567117439
13005,7.0,298.7851,3620.0552,0.0,0.0,0.0,0.0,-0.12961835863758978,0.0,-0.3144700820182807,-0.30161357971444275,-0.48432273642143253,-0.23415104355140876,-1.081401301725999,-0.12659149555360788
13006,7.0,300.32709,3733.1927,0.0,0.0,0.0,0.0,-0.12962832544717362,0.0,-0.3149502815056727,-0.2848433786343527,-0.5350037129707556,-0.2267439016103808,-1.088863483412459,-0.1079111457825009
13007,7.0,300.70755,3828.7855,0.0,0.0,0.0,0.0,-0.12963829225675744,0.0,-0.36377408207920664,-0.31160034495255967,-0.48848076019429754,-0.26125792565914974,-1.068009681779349,-0.0937668532640679
13008,7.0,299.5594,3897.9146,0.0,0.0,0.0,0.0,-0.12964825906634123,0.0,-0.34962317303762064,-0.3259401238127857,-0.5093054004895294,-0.26174003005672974,-1.118945764306349,-0.11825703725356089
13009,7.0,301.45707000000004,4072.0182,0.0,0.0,0.0,0.0,-0.12965822587592507,0.0,-0.3896376049892376,-0.32194248739824965,-0.5262117722505585,-0.27540950344580173,-1.0819826033083688,-0.09092821284391592
13010,7.0,301.55841000000004,3866.8959,0.0,0.0,0.0,0.0,-0.1296681926855089,0.0,-0.3413995744310147,-0.3189004370205227,-0.5151397756253375,-0.2074931426954788,-1.091079866681199,-0.12642792658996488
13011,7.0,299.68685,3944.3025,0.0,0.0,0.0,0.0,-0.1296781594950927,0.0,-0.3401353118837417,-0.3290276387224997,-0.5298065100278315,-0.22888874942206078,-1.064936798201079,-0.11674543022437689
13012,7.0,300.29119,4206.9074,0.0,0.0,0.0,0.0,-0.12968812630467655,0.0,-0.38198714116919563,-0.35129331317745066,-0.5455143386430734,-0.2119225655076288,-1.1121663105372688,-0.12645305519244487
13013,7.0,299.94811,4101.6277,0.0,0.0,0.0,0.0,-0.12969809311426034,0.0,-0.38543890935735864,-0.3526285032317237,-0.5087249905672475,-0.25345332623389577,-1.073056477877429,-0.12436200082857389
13014,7.0,299.65917,3821.5179,0.0,0.0,0.0,0.0,-0.12970805992384415,0.0,-0.34945424398094865,-0.3025345531278357,-0.5096572211892515,-0.23888862611647177,-1.082631995297459,-0.12064761847949289
13015,7.0,299.74515,3618.698,0.0,0.0,0.0,0.0,-0.129718026733428,0.0,-0.3253453156065827,-0.3031274868213537,-0.47152104081550356,-0.2876571842945537,-1.072633141985649,-0.10945507548987489
13016,7.0,299.0434,3627.6267,0.0,0.0,0.0,0.0,-0.12972799354301182,0.0,-0.27852892560116477,-0.31461548340763074,-0.5095635259525045,-0.25824361806916074,-1.1279688577718592,-0.11523086450490089
13017,7.0,298.77595,3704.0629,0.0,0.0,0.0,0.0,-0.12973796035259566,0.0,-0.3214660166712257,-0.3010387730652137,-0.5034378515454475,-0.24629803773772374,-1.0748950201838792,-0.14755915610045486
13018,7.0,300.40173,3744.1336,0.0,0.0,0.0,0.0,-0.12974792716217945,0.0,-0.3234898621559637,-0.3161678332233357,-0.4984654178722065,-0.1932324581380588,-1.0981292502769189,-0.1352680270874149
13019,7.0,299.50421,3781.0948,0.0,0.0,0.0,0.0,-0.12975789397176327,0.0,-0.3512500980606857,-0.3193855710359017,-0.4787227361662556,-0.20070307006535082,-1.068924747944659,-0.15129511054416486
13020,7.0,300.15716000000003,4035.1657,0.0,0.0,0.0,0.0,-0.1297678607813471,0.0,-0.3694120690806326,-0.33155030723146767,-0.5256272485328705,-0.21993667465605982,-1.127620907687519,-0.12075456702754787
13021,7.0,300.1034,3970.4834,0.0,0.0,0.0,0.0,-0.12977782759093093,0.0,-0.3789560440250497,-0.32604255326539466,-0.5019291930740545,-0.26688247696424977,-1.0977767405671288,-0.1151841942052949
13022,7.0,300.43331,3657.1605,0.0,0.0,0.0,0.0,-0.12978779440051474,0.0,-0.28682762630518277,-0.2815090663977817,-0.5433487698668485,-0.21854518842623077,-1.096079546649629,-0.09637061623153932
13023,7.0,300.42132000000004,3645.5419,0.0,0.0,0.0,0.0,-0.12979776121009856,0.0,-0.3126857384596797,-0.3177244994844667,-0.4777434603421086,-0.24933109045456275,-1.080569727368929,-0.1113155850584929
13024,7.0,301.66253,3728.2228,0.0,0.0,0.0,0.0,-0.12980772801968238,0.0,-0.3202814563768187,-0.29568640100197574,-0.5173187699653875,-0.2150658902328508,-1.131952045239969,-0.11429231120227289
13025,7.0,300.28944,3825.671,0.0,0.0,0.0,0.0,-0.1298176948292662,0.0,-0.36746539272351064,-0.3255003631368847,-0.4699427011347335,-0.2624185732511968,-1.0890036159012888,-0.1112535538873709
13026,7.0,301.06156,3838.9731,0.0,0.0,0.0,0.0,-0.12982766163885004,0.0,-0.36711405838383665,-0.31998476661503766,-0.4798531281103165,-0.22519669910518378,-1.0803506626973092,-0.11505078969712888
13027,7.0,299.6291,3877.9281,0.0,0.0,0.0,0.0,-0.12983762844843386,0.0,-0.37850764032579565,-0.3005261901046257,-0.4997594902374215,-0.24973699844462277,-1.070538855353959,-0.08262328774453362
13028,7.0,299.82736,4006.1552,0.0,0.0,0.0,0.0,-0.12984759525801765,0.0,-0.2935105983997407,-0.3453032825612807,-0.5789572864086354,-0.22821145252521677,-1.091630872085579,-0.1093516935821719
13029,7.0,299.64099999999996,4103.8049,0.0,0.0,0.0,0.0,-0.1298575620676015,0.0,-0.3672606858058077,-0.36283237756876763,-0.5173611643495715,-0.24964247234279374,-1.0778955577050089,-0.10986278706511289
13030,7.0,300.41725,4135.0861,0.0,0.0,0.0,0.0,-0.1298675288771853,0.0,-0.34271854235118665,-0.34875971169990366,-0.5654846773814924,-0.24042978965107278,-1.0976961871841788,-0.1097167979907049
13031,7.0,299.59051,3777.2073,0.0,0.0,0.0,0.0,-0.12987749568676915,0.0,-0.39220196873982066,-0.3144229456236287,-0.44155177783776756,-0.25085716669517477,-1.1042009488511488,-0.13592473474222688
13032,7.0,298.96934,3562.3045,0.0,0.0,0.0,0.0,-0.12988746249635297,0.0,-0.3326519431376907,-0.27380419104736975,-0.47639548307157353,-0.23594024057798876,-1.131129286158769,-0.09209755918807142
13033,7.0,300.24266,3538.6468,0.0,0.0,0.0,0.0,-0.12989742930593676,0.0,-0.3312588661052047,-0.28676442989644574,-0.4576369813202536,-0.22267386847619977,-1.0595869389980892,-0.13495837785685488
13034,7.0,300.54954,3659.4706,0.0,0.0,0.0,0.0,-0.12990739611552057,0.0,-0.2673450762974047,-0.3271324658679607,-0.5179101331212506,-0.21627532581721282,-1.063607819369919,-0.1048102762364689
13035,7.0,300.50691,3664.5933,0.0,0.0,0.0,0.0,-0.12991736292510442,0.0,-0.31456105161225867,-0.3046665833257507,-0.4947172233672885,-0.20154694527863481,-1.049034749806669,-0.13993464161547386
13036,7.0,301.04391,3862.2283,0.0,0.0,0.0,0.0,-0.12992732973468823,0.0,-0.3558479433044577,-0.34599055997160966,-0.4721824499507795,-0.2217782161828058,-1.077360359002189,-0.13900483266120886
13037,7.0,301.11837,4113.5073,0.0,0.0,0.0,0.0,-0.12993729654427208,0.0,-0.42155318968656064,-0.3470612005572737,-0.4817891045463825,-0.23278202107629678,-1.0720279277009188,-0.13128813268212988
13038,7.0,301.23704,4052.4042,0.0,0.0,0.0,0.0,-0.12994726335385587,0.0,-0.40322434650764466,-0.3162122338427177,-0.5123931180492636,-0.2628946792081847,-1.0906533897141089,-0.1067618161940709
13039,7.0,301.57954,3807.7852,0.0,0.0,0.0,0.0,-0.12995723016343969,0.0,-0.3331167918860677,-0.3026610878003237,-0.5216937407171636,-0.2541242497876108,-1.0842906857111592,-0.09041007828603001
13040,7.0,300.06212999999997,3513.5898,0.0,0.0,0.0,0.0,-0.12996719697302353,0.0,-0.26769291492423375,-0.26028334118296576,-0.5400673087554935,-0.23495085251784378,-1.1060664436102592,-0.09487827513975672
13041,7.0,300.02095,3665.0082,0.0,0.0,0.0,0.0,-0.12997716378260735,0.0,-0.32644465143507867,-0.28945326128931276,-0.4981730648208535,-0.2138825661035658,-1.0882845123053189,-0.1080927505979239
13042,7.0,299.96542999999997,3882.2244,0.0,0.0,0.0,0.0,-0.12998713059219116,0.0,-0.34683526604997567,-0.32185548974466366,-0.5114085023970895,-0.2228039292590358,-1.092380981134609,-0.14147426500992286
13043,7.0,299.12692000000004,3908.6515,0.0,0.0,0.0,0.0,-0.12999709740177498,0.0,-0.42548110436171555,-0.2988388855081017,-0.46381246710222657,-0.22781358974095078,-1.093661222635959,-0.08538178109502573
13044,7.0,299.19009,3765.3077,0.0,0.0,0.0,0.0,-0.1300070642113588,0.0,-0.35015099527971266,-0.3126935607504517,-0.4817149549040646,-0.23888049985066978,-1.079844645597369,-0.13298942013003387
13045,7.0,299.35287999999997,3685.8132,0.0,0.0,0.0,0.0,-0.13001703102094261,0.0,-0.3153691084345077,-0.3011191339306447,-0.5039069458117436,-0.22386982783423182,-1.075207101214679,-0.08387141023096371
13046,7.0,300.44133,3881.0965,0.0,0.0,0.0,0.0,-0.13002699783052646,0.0,-0.26570579975562075,-0.33877921847990566,-0.5752714169173685,-0.25311241823775077,-1.071945347817769,-0.12700686729960187
13047,7.0,301.58207000000004,4090.4953,0.0,0.0,0.0,0.0,-0.13003696464011028,0.0,-0.34750055593313467,-0.33643508463855765,-0.5594728010931665,-0.2438039732790788,-1.1173352032723989,-0.09316968317188182
13048,7.0,301.11166000000003,3938.1674,0.0,0.0,0.0,0.0,-0.13004693144969406,0.0,-0.3398293508835457,-0.3149035301460587,-0.5423716522654145,-0.2634265139206728,-1.101930559352079,-0.13529206137978686
13049,7.0,300.69884,3756.1453,0.0,0.0,0.0,0.0,-0.1300568982592779,0.0,-0.3900663516365516,-0.29784293158730873,-0.4538651172929996,-0.24178458609478076,-1.1032587275831591,-0.11179581494338789
13050,7.0,299.96586,3747.1097,0.0,0.0,0.0,0.0,-0.13006686506886173,0.0,-0.3576702229468027,-0.3030319373369237,-0.4783256130545625,-0.22093580004966581,-1.079247435988429,-0.13732980865589686
13051,7.0,299.39007000000004,3899.7115,0.0,0.0,0.0,0.0,-0.13007683187844557,0.0,-0.3248291153431377,-0.2929752477094057,-0.5676105470187994,-0.22908039554597476,-1.123637416244379,-0.0989674961910814
13052,7.0,299.51394,3945.0789,0.0,0.0,0.0,0.0,-0.1300867986880294,0.0,-0.3107225359934267,-0.35740550122567666,-0.5310774498932634,-0.22102040643301576,-1.091333888481269,-0.13497365766836286
13053,7.0,299.22298,3750.2211,0.0,0.0,0.0,0.0,-0.13009676549761318,0.0,-0.3056846058337217,-0.3017952655898737,-0.5324937100880375,-0.2227769160113698,-1.1129156089862189,-0.13180377565801987
13054,7.0,300.13191,3620.9859,0.0,0.0,0.0,0.0,-0.130106732307197,0.0,-0.31919380332197567,-0.3246564676585987,-0.45683902660150155,-0.2303888864601128,-1.0704051063407591,-0.15487788183775683
13055,7.0,300.08783,3925.4217,0.0,0.0,0.0,0.0,-0.13011669911678084,0.0,-0.41816292577946756,-0.31824295929563473,-0.45682430407754854,-0.25694907960889973,-1.114532148195759,-0.10578615767278089
13056,7.0,299.59521,4129.0277,0.0,0.0,0.0,0.0,-0.13012666592636465,0.0,-0.40241026084730064,-0.3099880613934397,-0.5427230068700905,-0.2554382933122967,-1.0771085663523388,-0.12141223726995488
13057,7.0,300.79616,3971.6329,0.0,0.0,0.0,0.0,-0.1301366327359485,0.0,-0.3303260174006397,-0.33201495332982467,-0.5449362490635205,-0.23867486074287475,-1.0868576535144991,-0.0957830608695521
13058,7.0,301.08884,3722.1968,0.0,0.0,0.0,0.0,-0.1301465995455323,0.0,-0.27108849839435173,-0.3122146379581857,-0.5481517374608645,-0.2174502906331728,-1.0632302823826592,-0.12223346634350389
13059,7.0,300.58192,4008.5866,0.0,0.0,0.0,0.0,-0.1301565663551161,0.0,-0.35957351193464265,-0.31678062661881373,-0.5421560833066396,-0.2244683141382978,-1.1135007609189689,-0.08175572983666232
13060,7.0,300.89191,4100.1806,0.0,0.0,0.0,0.0,-0.13016653316469995,0.0,-0.3944426497459586,-0.34076168283055963,-0.5111481984463996,-0.25133150959698874,-1.099996974186249,-0.14813934310771487
13061,7.0,299.53887000000003,3856.3081,0.0,0.0,0.0,0.0,-0.13017649997428377,0.0,-0.4199055639639526,-0.28391928441065173,-0.4683965220121376,-0.2313855800534788,-1.114843317301469,-0.10382557952428689
13062,7.0,299.49412,3641.4007,0.0,0.0,0.0,0.0,-0.13018646678386758,0.0,-0.3146119978272867,-0.3200968219435967,-0.47218605712113554,-0.2670314753914548,-1.075854061403529,-0.15243246351641285
13063,7.0,298.79034,3556.3506,0.0,0.0,0.0,0.0,-0.1301964335934514,0.0,-0.3099250777672237,-0.25851005218295575,-0.5126066402428365,-0.25085101626706774,-1.1182085235335888,-0.09510423193855691
13064,7.0,299.41861,3914.4972,0.0,0.0,0.0,0.0,-0.13020640040303522,0.0,-0.31671205998454666,-0.3320531123285907,-0.5411442314917775,-0.24601928250271277,-1.094749149268329,-0.11536743035337889
13065,7.0,299.86692,4169.677,0.0,0.0,0.0,0.0,-0.13021636721261903,0.0,-0.37786329432220367,-0.3456703830725107,-0.5439440137705945,-0.1918798604470678,-1.0959912925659188,-0.11549898061386188
13066,7.0,300.52647,3904.6844,0.0,0.0,0.0,0.0,-0.13022633402220288,0.0,-0.38241643497156363,-0.3320970063229227,-0.47241310620354354,-0.2159378730039088,-1.045785459385989,-0.12343885905996688
13067,7.0,300.5194,3510.1554,0.0,0.0,0.0,0.0,-0.1302363008317867,0.0,-0.33341609583310666,-0.27948628482564875,-0.45409719209590355,-0.2078234926255818,-1.1315060125459488,-0.10078905946560571
13068,7.0,300.58598,3826.6719,0.0,0.0,0.0,0.0,-0.13024626764137048,0.0,-0.3371300424846447,-0.3268238197549997,-0.4992588433630115,-0.25502263785627477,-1.096247442191199,-0.11584820739332788
13069,7.0,299.62896,4188.3563,0.0,0.0,0.0,0.0,-0.13025623445095433,0.0,-0.35392442984462164,-0.32373449112760666,-0.5954967907059574,-0.2392876541383528,-1.099602009297269,-0.1105932897247079
13070,7.0,301.41657000000004,3926.8313,0.0,0.0,0.0,0.0,-0.13026620126053814,0.0,-0.32558445276268366,-0.34557332384543166,-0.5225008754818216,-0.27054088737780674,-1.054978677543289,-0.12327441870123788
13071,7.0,300.90539,3412.1671,0.0,0.0,0.0,0.0,-0.130276168070122,0.0,-0.2871445608039617,-0.2978444919924627,-0.45222455392358857,-0.23451916744523976,-1.103488228730809,-0.14855448180618586
13072,7.0,300.52579,3464.9513,0.0,0.0,0.0,0.0,-0.1302861348797058,0.0,-0.34543469096674967,-0.2823790024036377,-0.42544498199565056,-0.24639064879686376,-1.104205204501569,-0.13642881653447586
13073,7.0,300.6205,3939.051,0.0,0.0,0.0,0.0,-0.1302961016892896,0.0,-0.37844672372978366,-0.33036815847229867,-0.48855826369444655,-0.18168349429326483,-1.1169156164059888,-0.14386095535547086
13074,7.0,300.60868999999997,4003.2241,0.0,0.0,0.0,0.0,-0.1303060684988734,0.0,-0.3481014639049397,-0.3380179130172707,-0.5307607889720115,-0.21466415683320278,-1.0617500253115688,-0.1096992586314739
13075,7.0,299.65722999999997,3741.5198,0.0,0.0,0.0,0.0,-0.13031603530845726,0.0,-0.3080901426311297,-0.3076895542040947,-0.5215488966153685,-0.1864353028897318,-1.118770168064019,-0.09081296071129141
13076,7.0,299.8928,3720.5609999999997,0.0,0.0,0.0,0.0,-0.13032600211804107,0.0,-0.2827832283985317,-0.3282193589852287,-0.5199550643405695,-0.25874390017353477,-1.0781019567503791,-0.09812801240373081
13077,7.0,299.28282,4126.4825,0.0,0.0,0.0,0.0,-0.13033596892762492,0.0,-0.3855574494865576,-0.3261166421127067,-0.5426735501327095,-0.2268988275506708,-1.086043304409129,-0.09055797125737591
13078,7.0,299.19445,4599.312,0.0,0.0,0.0,0.0,-0.1303459357372087,0.0,-0.4487718028828286,-0.3883784390899676,-0.5609257612065625,-0.25491508135815977,-1.047255482631069,-0.11172496849639589
13079,7.0,299.41597,4182.3486,0.0,0.0,0.0,0.0,-0.13035590254679252,0.0,-0.3931699772228556,-0.30693442956706973,-0.5712251546305335,-0.25757568360324073,-1.110458072193679,-0.06620730066090184
13080,7.0,299.7867,3427.4937,0.0,0.0,0.0,0.0,-0.13036586935637637,0.0,-0.26143814232193574,-0.2843048362062027,-0.4961295116216705,-0.26254251400342876,-1.108601494035449,-0.1243923780665719
13081,7.0,300.26833999999997,3577.7527,0.0,0.0,0.0,0.0,-0.13037583616596018,0.0,-0.3203513807662197,-0.27361696269389174,-0.4935791509874696,-0.22840700979451678,-1.128737407972709,-0.11100043387988989
13082,7.0,300.03643,4069.2431,0.0,0.0,0.0,0.0,-0.130385802975544,0.0,-0.3848547808072096,-0.3175614067483707,-0.5345320957117105,-0.2216427750419388,-1.047921086621759,-0.14989474824345986
13083,7.0,300.62649,4071.4671,0.0,0.0,0.0,0.0,-0.13039576978512782,0.0,-0.4020829810650006,-0.33966230647205964,-0.49587906659445347,-0.2237759502124668,-1.121988655681659,-0.14178943645352785
13084,7.0,300.84556000000003,3730.1452,0.0,0.0,0.0,0.0,-0.13040573659471164,0.0,-0.34161655180742867,-0.3262770700010397,-0.46597737726588656,-0.2418501433762508,-1.0959954468913289,-0.14558129190525484
13085,7.0,300.42006000000003,3745.3224,0.0,0.0,0.0,0.0,-0.13041570340429545,0.0,-0.32573678478271767,-0.3198530846320417,-0.49289460935241053,-0.22006547900877177,-1.108943060644159,-0.12264590979670889
13086,7.0,300.17469,4047.6779,0.0,0.0,0.0,0.0,-0.13042567021387927,0.0,-0.32114004398155466,-0.34561211105925965,-0.5636408357770194,-0.22483102727659482,-1.063529596462199,-0.09074994060807182
13087,7.0,299.01634,4221.2915,0.0,0.0,0.0,0.0,-0.1304356370234631,0.0,-0.34886016531481767,-0.3580273530770487,-0.5762797020918784,-0.2312413033717398,-1.095786008095659,-0.1010104252282028
13088,7.0,298.74802,4012.3228,0.0,0.0,0.0,0.0,-0.1304456038330469,0.0,-0.34769942653026165,-0.34200907476366765,-0.5299374422057535,-0.24858555116348374,-1.088377326014479,-0.09476632214945781
13089,7.0,300.33698,3578.8187,0.0,0.0,0.0,0.0,-0.13045557064263075,0.0,-0.3490224069208297,-0.29790664475359674,-0.44094244975763164,-0.23803253110698175,-1.091167006189799,-0.15762318165869685
13090,7.0,300.60244,3512.2129,0.0,0.0,0.0,0.0,-0.13046553745221456,0.0,-0.34205095239030064,-0.2832156936737127,-0.4423583958448746,-0.22186832451419877,-1.061127687100149,-0.12007652032562989
13091,7.0,299.8592,4013.9167,0.0,0.0,0.0,0.0,-0.13047550426179838,0.0,-0.33225688705620166,-0.3413922385002907,-0.5464813034785054,-0.23102790276817878,-1.101846864893819,-0.13801340796836287
13092,7.0,299.12906,4362.4205,0.0,0.0,0.0,0.0,-0.1304854710713822,0.0,-0.36431117555971365,-0.3618696886487576,-0.5998860280191415,-0.27287408825057574,-1.102477613081069,-0.0984431341980809
13093,7.0,299.64586,3966.7668,0.0,0.0,0.0,0.0,-0.13049543788096601,0.0,-0.3254407840310047,-0.34368167710124065,-0.5366755756357555,-0.25128179954708274,-1.1092314316226188,-0.14680712187623485
13094,7.0,299.85872,3701.1032,0.0,0.0,0.0,0.0,-0.13050540469054986,0.0,-0.3521996653919006,-0.3064412604783977,-0.46640203038279654,-0.24054841084027975,-1.075678667811219,-0.12261861283901487
13095,7.0,299.71385,3978.5332,0.0,0.0,0.0,0.0,-0.13051537150013365,0.0,-0.3896386790343436,-0.32099762154749867,-0.49873845837665354,-0.23724304715906575,-1.096166888808249,-0.1074791060723619
13096,7.0,299.40835,4130.0365,0.0,0.0,0.0,0.0,-0.1305253383097175,0.0,-0.39540379852581664,-0.34069930715440366,-0.5193248430433715,-0.2244021894367718,-1.091214426294479,-0.1016917153436909
13097,7.0,300.07331,3959.7791,0.0,0.0,0.0,0.0,-0.1305353051193013,0.0,-0.3285416637095377,-0.3238462120836327,-0.5512860847902005,-0.23673027168095875,-1.087122010465589,-0.0991687469126933
13098,7.0,299.87625,3644.5912,0.0,0.0,0.0,0.0,-0.13054527192888513,0.0,-0.2858518765913837,-0.2875284913993527,-0.5344843311019966,-0.21052717826491482,-1.066243080229999,-0.07609062826256033
13099,7.0,300.59296,3492.2836,0.0,0.0,0.0,0.0,-0.13055523873846894,0.0,-0.2830372603311027,-0.29438734344626877,-0.4841423981686346,-0.24013229942171277,-1.105623855966579,-0.1046187415700659
13100,7.0,300.25887,3979.1733,0.0,0.0,0.0,0.0,-0.13056520554805276,0.0,-0.3937748166050486,-0.31422393317148767,-0.5015705734661615,-0.24912626194684775,-1.1144501762626688,-0.13225578652762987
13101,7.0,299.92922000000004,4245.9529,0.0,0.0,0.0,0.0,-0.13057517235763658,0.0,-0.43619184692878354,-0.36051384855744667,-0.49395796466985553,-0.23124990586508876,-1.1110448453265889,-0.16957972535621582
13102,7.0,299.80625,3844.0062,0.0,0.0,0.0,0.0,-0.13058513916722042,0.0,-0.36459217007744565,-0.3091642687971377,-0.4947254509581005,-0.23596790230571876,-1.103761806257809,-0.13646427015547485
13103,7.0,301.16026,3379.5667,0.0,0.0,0.0,0.0,-0.13059510597680424,0.0,-0.2523578711532828,-0.28675538157305275,-0.48819064642566556,-0.23305392674063177,-1.1140788201010188,-0.15968368653205287
13104,7.0,300.25563999999997,3589.9254,0.0,0.0,0.0,0.0,-0.13060507278638803,0.0,-0.27511296567153576,-0.2936957293255117,-0.5224389962982146,-0.24948995793774176,-1.132208498840279,-0.08370776020731271
13105,7.0,300.66341,4014.2786,0.0,0.0,0.0,0.0,-0.13061503959597187,0.0,-0.33709432541861967,-0.3503110482655087,-0.5328350841792284,-0.22205256377988178,-1.0829296881768389,-0.14090635859387488
13106,7.0,299.67351,3873.3248,0.0,0.0,0.0,0.0,-0.1306250064055557,0.0,-0.40297303008534163,-0.30347478842562975,-0.47094620376877155,-0.21389599166739076,-1.076312861048809,-0.11035267322346089
13107,7.0,299.16282,3741.9699,0.0,0.0,0.0,0.0,-0.13063497321513953,0.0,-0.3744035214582506,-0.3146224241708157,-0.4484394568500286,-0.23195861351503277,-1.0691768445695389,-0.1288112124151769
13108,7.0,298.90204,3968.6533,0.0,0.0,0.0,0.0,-0.13064494002472332,0.0,-0.38472530770943164,-0.3201868796124847,-0.5014593084726805,-0.2448236473847128,-1.105595484963779,-0.09058652160544362
13109,7.0,299.26466,4216.9398,0.0,0.0,0.0,0.0,-0.13065490683430714,0.0,-0.36338141726795364,-0.36398194020472063,-0.5544810447405185,-0.2300110151003198,-1.058939573509199,-0.12233022159555289
13110,7.0,299.62027,4300.8628,0.0,0.0,0.0,0.0,-0.13066487364389098,0.0,-0.37642671846292464,-0.3448074891548497,-0.5861206809056074,-0.22432051134621078,-1.071784139726859,-0.09649571208888531
13111,7.0,300.01341,3854.6617,0.0,0.0,0.0,0.0,-0.1306748404534748,0.0,-0.3295700315010297,-0.3025737760392067,-0.5395771186221154,-0.2332116796487008,-1.0956975513619291,-0.10940544649997688
13112,7.0,300.14815,3356.8102,0.0,0.0,0.0,0.0,-0.13068480726305862,0.0,-0.30895196250368473,-0.26211307834604675,-0.4493214505320746,-0.24585725367922176,-1.1633462823633387,-0.13416580349613386
13113,7.0,300.16047000000003,3544.0506,0.0,0.0,0.0,0.0,-0.13069477407264243,0.0,-0.33565731386179765,-0.28312220108698577,-0.45852337250773356,-0.23954406720865876,-1.1305106969727188,-0.14254474347557086
13114,7.0,300.93683,4107.0424,0.0,0.0,0.0,0.0,-0.13070474088222625,0.0,-0.3868316216198086,-0.32304801418485674,-0.5385587110791066,-0.20716667351325882,-1.095973864664199,-0.14216974974606186
13115,7.0,300.09472,3930.9122,0.0,0.0,0.0,0.0,-0.13071470769181007,0.0,-0.33791801668991167,-0.33279968513477165,-0.5241814622301825,-0.24983372329916878,-1.079956508408409,-0.10910953694077288
13116,7.0,299.95722,3608.7128,0.0,0.0,0.0,0.0,-0.1307246745013939,0.0,-0.28771447345520773,-0.2996782314934387,-0.5095658766927365,-0.2239172074089078,-1.113243902018619,-0.1054759207571629
13117,7.0,299.92387,3778.9586,0.0,0.0,0.0,0.0,-0.13073464131097773,0.0,-0.3031874408297707,-0.3510726678356747,-0.49444893500581055,-0.25510166123157374,-1.0527228788456588,-0.1138297017366169
13118,7.0,300.20468999999997,4086.719,0.0,0.0,0.0,0.0,-0.13074460812056152,0.0,-0.4121040650840046,-0.3291282341924277,-0.5010282516151385,-0.2068542581099258,-1.0951683308346989,-0.09691289653930822
13119,7.0,300.33788,4096.4054,0.0,0.0,0.0,0.0,-0.13075457493014536,0.0,-0.38775983977141665,-0.3498013226702027,-0.5076437919155414,-0.2255740841049288,-1.0929387753146589,-0.1241266734928489
13120,7.0,299.58867000000004,3851.571,0.0,0.0,0.0,0.0,-0.13076454173972918,0.0,-0.3501263429047797,-0.3214138444235767,-0.49924121281127154,-0.2304491849735638,-1.1142864350465091,-0.11273180472326289
13121,7.0,299.59791,3561.3956,0.0,0.0,0.0,0.0,-0.130774508549313,0.0,-0.26350527385094574,-0.30474543444853275,-0.5143246260523885,-0.24054003126195275,-1.076176984210399,-0.14800175387663586
13122,7.0,299.7664,3541.3763,0.0,0.0,0.0,0.0,-0.13078447535889684,0.0,-0.28294437569443576,-0.3021144393713737,-0.4914311621004795,-0.22162827543300778,-1.089372641587709,-0.1265673802012279
13123,7.0,300.10157000000004,3836.5612,0.0,0.0,0.0,0.0,-0.13079444216848063,0.0,-0.3130141936120957,-0.3147888403672397,-0.5384157617549985,-0.25015491344836777,-1.081690584629549,-0.1150791100374239
13124,7.0,299.65616,3885.4729,0.0,0.0,0.0,0.0,-0.13080440897806445,0.0,-0.40639347871291365,-0.2956203370954557,-0.47907292553331654,-0.21940712988879782,-1.138744569935339,-0.11976088278697887
13125,7.0,299.83714,3763.1061,0.0,0.0,0.0,0.0,-0.1308143757876483,0.0,-0.3167983483630627,-0.3299416511077057,-0.49715026990491157,-0.23682638858544477,-1.0785914578736888,-0.13422892897736388
13126,7.0,299.74278,3889.1135,0.0,0.0,0.0,0.0,-0.1308243425972321,0.0,-0.3659993515513236,-0.3174742267097667,-0.4987198247073145,-0.17026659746650483,-1.111300488326819,-0.1145695668271359
13127,7.0,300.69751,4181.1657,0.0,0.0,0.0,0.0,-0.13083430940681595,0.0,-0.3509984877958537,-0.3438822803560387,-0.5760892110730784,-0.23393406617499476,-1.080016594139339,-0.08306875605824791
13128,7.0,299.96331000000004,4160.9307,0.0,0.0,0.0,0.0,-0.13084427621639974,0.0,-0.36255658102404864,-0.3471741272809187,-0.5550883159229514,-0.23966882869347178,-1.0839421276767591,-0.08853099381657882
13129,7.0,300.14806,3927.9179999999997,0.0,0.0,0.0,0.0,-0.13085424302598356,0.0,-0.3629563284535007,-0.31792728122697966,-0.5131053720745575,-0.2666656414428497,-1.048129613492339,-0.0935200123674566
13130,7.0,300.08378,3922.6051,0.0,0.0,0.0,0.0,-0.1308642098355674,0.0,-0.3849196997411166,-0.3083984341065557,-0.4990558691029795,-0.23423592351228578,-1.0804227047794188,-0.10379404718117491
13131,7.0,299.59976,3856.8299,0.0,0.0,0.0,0.0,-0.13087417664515122,0.0,-0.34037694163508864,-0.3310507242696627,-0.5009522983876425,-0.2709437049550617,-1.0898745043622389,-0.13672737067644086
13132,7.0,299.91365,4041.1027,0.0,0.0,0.0,0.0,-0.13088414345473504,0.0,-0.3730103127032517,-0.3141184437035767,-0.5412655377937495,-0.2059567819663518,-1.1532049660874688,-0.12818709088358088
13133,7.0,300.63757999999996,4088.8889,0.0,0.0,0.0,0.0,-0.13089411026431885,0.0,-0.33601995607258767,-0.34535718746660066,-0.5615429723724764,-0.26088038867188973,-1.080545308041519,-0.14760960582293386
13134,7.0,300.10735,3610.3792,0.0,0.0,0.0,0.0,-0.13090407707390267,0.0,-0.3130472863603617,-0.27356874212163274,-0.5108491174143825,-0.21734715190549378,-1.105888212917669,-0.1196191898929949
13135,7.0,300.09927000000005,3404.559,0.0,0.0,0.0,0.0,-0.1309140438834865,0.0,-0.28967248808094875,-0.28306376695371877,-0.46216467925960253,-0.2596856958764827,-1.079239026012599,-0.12035896379100489
13136,7.0,299.25088,3937.262,0.0,0.0,0.0,0.0,-0.13092401069307033,0.0,-0.39665209225151365,-0.3110546287137017,-0.4891226034701425,-0.24257667409545378,-1.1063390078871589,-0.10050933151049872
13137,7.0,298.59348,4384.8482,0.0,0.0,0.0,0.0,-0.13093397750265415,0.0,-0.3957142076939516,-0.37124970959449366,-0.5659204255869975,-0.22955219519003778,-1.074784778572999,-0.11686715195888987
13138,7.0,299.18528,4010.8839,0.0,0.0,0.0,0.0,-0.13094394431223794,0.0,-0.37713330842015963,-0.3186974830254927,-0.5233777725158645,-0.2150074358345818,-1.1014855399081591,-0.1009245978784823
13139,7.0,300.23032,3823.4962,0.0,0.0,0.0,0.0,-0.13095391112182178,0.0,-0.27554210748638874,-0.3345924690667057,-0.5521127854142894,-0.2264803957893748,-1.083703507278209,-0.1194103083848799
13140,7.0,300.58924,3986.0822,0.0,0.0,0.0,0.0,-0.1309638779314056,0.0,-0.3733569354299606,-0.3077532268403787,-0.5305592839246245,-0.23963233142486978,-1.103212827353629,-0.08797922138187311
13141,7.0,300.74368,4154.5266,0.0,0.0,0.0,0.0,-0.13097384474098941,0.0,-0.39630258176201966,-0.34232679959752466,-0.5242429867762545,-0.23478840826181177,-1.0370647197503189,-0.11540442411452989
13142,7.0,299.70221000000004,4008.6495,0.0,0.0,0.0,0.0,-0.13098381155057326,0.0,-0.4013683459019716,-0.2970993073389187,-0.5200616886485925,-0.23463261092643575,-1.0824268121522092,-0.1000079844802696
13143,7.0,300.03936,3694.1704,0.0,0.0,0.0,0.0,-0.13099377836015705,0.0,-0.3298707134682047,-0.29086631961377074,-0.5021985250831356,-0.24352597798164277,-1.0817618161115792,-0.13789385458906386
13144,7.0,300.2556,3486.1681,0.0,0.0,0.0,0.0,-0.13100374516974087,0.0,-0.29674401119135374,-0.27998857316522074,-0.4829754785584685,-0.24622266206278476,-1.151068629576629,-0.14387723828457785
13145,7.0,299.99334,3840.1003,0.0,0.0,0.0,0.0,-0.1310137119793247,0.0,-0.3122624937604087,-0.3217369192179617,-0.5332951909171375,-0.22889610561778675,-1.115443060035659,-0.14207332886654586
13146,7.0,299.50016,4393.883,0.0,0.0,0.0,0.0,-0.13102367878890853,0.0,-0.4196997019411356,-0.3624892809524066,-0.5534417338479465,-0.22042729035447978,-1.122837961915479,-0.12005232391324189
13147,7.0,299.36338,4021.2054,0.0,0.0,0.0,0.0,-0.13103364559849237,0.0,-0.37074776575995566,-0.3264584822989437,-0.5251397739097605,-0.2288531539460478,-1.1045132325319689,-0.0930706643191094
13148,7.0,299.35132000000004,3662.1613,0.0,0.0,0.0,0.0,-0.13104361240807616,0.0,-0.3116922062066257,-0.3213503845698137,-0.48016301038839954,-0.21422082951694982,-1.1062672697800788,-0.11020043239593588
13149,7.0,300.49125,3968.3038,0.0,0.0,0.0,0.0,-0.13105357921765998,0.0,-0.3323004568105017,-0.33058780069647564,-0.5433770091471355,-0.2105792897175578,-1.0756413802075389,-0.10278306676139891
13150,7.0,299.79523,4192.604,0.0,0.0,0.0,0.0,-0.13106354602724382,0.0,-0.3727435239519216,-0.3353054526320717,-0.5663979399616245,-0.19278149091605182,-1.088736725824949,-0.11123351180039288
13151,7.0,300.34391,3951.0005,0.0,0.0,0.0,0.0,-0.13107351283682764,0.0,-0.30753416216875873,-0.33626260920653567,-0.5572087140097184,-0.23647514543827977,-1.1019842616073792,-0.12776592334701486
13152,7.0,301.13029,3685.1438,0.0,0.0,0.0,0.0,-0.13108347964641145,0.0,-0.35356761382190666,-0.28423189233150375,-0.48239220113840353,-0.2388047188756908,-1.1202421164842888,-0.1167978760495529
13153,7.0,300.23598,3651.634,0.0,0.0,0.0,0.0,-0.13109344645599527,0.0,-0.3154921271291487,-0.3045984321240247,-0.4899150157108475,-0.25736110762956377,-1.102025500886449,-0.14302007936248287
13154,7.0,300.08247,3956.6799,0.0,0.0,0.0,0.0,-0.1311034132655791,0.0,-0.38608989214910566,-0.3198368321004377,-0.4968051670533525,-0.25149685174830677,-1.090627754486579,-0.1058589495599649
13155,7.0,300.52227999999997,4228.5102,0.0,0.0,0.0,0.0,-0.1311133800751629,0.0,-0.39142316444795866,-0.32894150233149866,-0.5649968481208474,-0.2123370861235388,-1.092358284332369,-0.13945196979783786
13156,7.0,299.71857,4030.4501,0.0,0.0,0.0,0.0,-0.13112334688474675,0.0,-0.35576582951635366,-0.3354428392131307,-0.5339475314640185,-0.24263963745666778,-1.116822904021839,-0.11019381587278289
13157,7.0,300.60381,3691.9225,0.0,0.0,0.0,0.0,-0.13113331369433057,0.0,-0.2864111906465837,-0.33033369783639766,-0.5055073642121924,-0.1991812596076598,-1.100548182240649,-0.14410763109231586
13158,7.0,299.8112,3790.1333,0.0,0.0,0.0,0.0,-0.13114328050391436,0.0,-0.38136983881077263,-0.2927512586422997,-0.47798479625092655,-0.24087320815983476,-1.088313187283149,-0.0935254839179966
13159,7.0,299.20382,4226.996,0.0,0.0,0.0,0.0,-0.1311532473134982,0.0,-0.3928211456109286,-0.35726615907192466,-0.5348139312270255,-0.2233371622566618,-1.067560305359999,-0.12555941926674988
13160,7.0,299.99862,4112.0262,0.0,0.0,0.0,0.0,-0.13116321412308202,0.0,-0.39833456364506065,-0.3186024097686097,-0.5330163140921145,-0.23918084744531176,-1.0987301075862188,-0.08970801958324222
13161,7.0,300.27005,3633.1648,0.0,0.0,0.0,0.0,-0.13117318093266583,0.0,-0.2978654966670357,-0.3049242629586817,-0.5016016093167245,-0.2335574613778268,-1.1095195999510592,-0.13733104482101885
13162,7.0,300.35208,3744.0823,0.0,0.0,0.0,0.0,-0.13118314774224968,0.0,-0.3128522154511097,-0.3047699449684517,-0.5204853589129055,-0.23714015161141075,-1.099154254078079,-0.11257782110556588
13163,7.0,300.7907,4002.1914,0.0,0.0,0.0,0.0,-0.13119311455183347,0.0,-0.3534411804744287,-0.2956752349858737,-0.5674498455529394,-0.2319682900534878,-1.114511883193759,-0.101242319672589
13164,7.0,300.21064,4048.2491,0.0,0.0,0.0,0.0,-0.13120308136141728,0.0,-0.3793757018189666,-0.3267589413510967,-0.5244320085824095,-0.2302471226386218,-1.087399843643009,-0.12727634116369688
13165,7.0,301.38352000000003,3949.3577,0.0,0.0,0.0,0.0,-0.13121304817100113,0.0,-0.3479572986807117,-0.3218136323830327,-0.5307351841419845,-0.24006857612292376,-1.103923926273809,-0.1105623450666539
13166,7.0,302.10613,3738.1342,0.0,0.0,0.0,0.0,-0.13122301498058495,0.0,-0.34758282170875365,-0.30337764813854273,-0.4853389958742295,-0.25685349972696675,-1.0948346675767688,-0.12173699405950587
13167,7.0,301.5161,3696.0185,0.0,0.0,0.0,0.0,-0.1312329817901688,0.0,-0.31789033812833367,-0.3100230894493967,-0.49558390684032355,-0.2415875596128358,-1.103408485947939,-0.11813209338372989
13168,7.0,300.43978,4071.1096,0.0,0.0,0.0,0.0,-0.13124294859975258,0.0,-0.35470027544619165,-0.3320158449899127,-0.5507995524896835,-0.25204567866497174,-1.065920562723169,-0.1270441751682839
13169,7.0,300.15044,4022.2651,0.0,0.0,0.0,0.0,-0.1312529154093364,0.0,-0.35556241955877865,-0.3378170665824487,-0.5292886682992245,-0.23072693709097578,-1.088826702433829,-0.12484322369856689
13170,7.0,299.97737,3626.1412,0.0,0.0,0.0,0.0,-0.13126288221892024,0.0,-0.3416840950590947,-0.2891672207860827,-0.4714050540765566,-0.25661660185358676,-1.089446406194989,-0.09650025550233372
13171,7.0,300.80522,3682.6482,0.0,0.0,0.0,0.0,-0.13127284902850406,0.0,-0.34532708380612964,-0.2896213392159007,-0.4844846639199135,-0.2214247033554168,-1.0989466391325888,-0.11956008701466189
13172,7.0,300.00032999999996,4017.5820000000003,0.0,0.0,0.0,0.0,-0.13128281583808787,0.0,-0.3834081332419366,-0.32361487695330166,-0.5142216089147216,-0.2292047415982468,-1.0964933579904688,-0.10146300453111891
13173,7.0,299.22562999999997,4170.4698,0.0,0.0,0.0,0.0,-0.1312927826476717,0.0,-0.3508218580384217,-0.3407887568732317,-0.5761080879224415,-0.1924139445747778,-1.0961485489814389,-0.15587150528331986
13174,7.0,298.96934,4046.9899,0.0,0.0,0.0,0.0,-0.1313027494572555,0.0,-0.3616793698824747,-0.33373445901452664,-0.5347700372326935,-0.2380165825504078,-1.078945791433659,-0.11496523085868489
13175,7.0,299.2886,3755.5671,0.0,0.0,0.0,0.0,-0.13131271626683932,0.0,-0.3142804826595687,-0.3079200584693437,-0.5193980807605996,-0.20924080660045982,-1.1129806596426388,-0.13937897526063386
13176,7.0,300.5984,3715.9748,0.0,0.0,0.0,0.0,-0.13132268307642317,0.0,-0.35522476409545467,-0.29774491990513574,-0.4765938774411535,-0.2695857471710418,-1.076041512672029,-0.10332854995273391
13177,7.0,300.5656,4091.1381,0.0,0.0,0.0,0.0,-0.13133264988600699,0.0,-0.34979937723001064,-0.3605007877636577,-0.5333036718204744,-0.23628992331999976,-1.129770821749699,-0.13852682179403286
13178,7.0,300.64353,4218.8315,0.0,0.0,0.0,0.0,-0.13134261669559077,0.0,-0.40205329283707064,-0.34958990803683765,-0.5307762309035355,-0.25033052995569977,-1.100603910996149,-0.097034271742287
13179,7.0,300.93546000000003,3933.7667,0.0,0.0,0.0,0.0,-0.13135258350517462,0.0,-0.3101980878741677,-0.3499043803378737,-0.5356643723009575,-0.23528544796586578,-1.109082585182929,-0.12662988759989688
13180,7.0,300.66823999999997,3873.2847,0.0,0.0,0.0,0.0,-0.13136255031475844,0.0,-0.32662392577527166,-0.35449841576126967,-0.49625948121199753,-0.24440420237331678,-1.065117764668939,-0.14093483092168488
13181,7.0,300.30071,4150.3366,0.0,0.0,0.0,0.0,-0.13137251712434228,0.0,-0.3598488119868127,-0.35799032891839466,-0.5437595617223905,-0.2280321275225188,-1.087264270779629,-0.12915746023934888
13182,7.0,300.15271,4160.1741,0.0,0.0,0.0,0.0,-0.1313824839339261,0.0,-0.3943132070456836,-0.3449742093263037,-0.5253016203482335,-0.25130882292724976,-1.0695648180328292,-0.12609516512462388
13183,7.0,300.28617,3698.3723,0.0,0.0,0.0,0.0,-0.1313924507435099,0.0,-0.35013728600585964,-0.29184540292039873,-0.4822301621824116,-0.22192842037762978,-1.1400440631885889,-0.1130125256634679
13184,7.0,300.03535,3461.1226,0.0,0.0,0.0,0.0,-0.1314024175530937,0.0,-0.31262042435823373,-0.27946468233351673,-0.4600097293444256,-0.27352869847768074,-1.1126838786883488,-0.12780405194827787
13185,7.0,299.36638,3709.4003,0.0,0.0,0.0,0.0,-0.13141238436267755,0.0,-0.30374551871984873,-0.31154867932996066,-0.5122708592921975,-0.2178427831919088,-1.1625972878894189,-0.13575685946565888
13186,7.0,299.67501,4294.7499,0.0,0.0,0.0,0.0,-0.13142235117226136,0.0,-0.37947201124097163,-0.36230151557637563,-0.5637232028776484,-0.24635585378842975,-1.097008595666319,-0.12025328180557487
13187,7.0,300.39972,4422.2581,0.0,0.0,0.0,0.0,-0.13143231798184518,0.0,-0.41542049345631055,-0.36461232362193463,-0.5642232316694975,-0.2023542016333048,-1.100246639010889,-0.1132675505811369
13188,7.0,300.91461,4127.4242,0.0,0.0,0.0,0.0,-0.131442284791429,0.0,-0.40746083636825364,-0.3207961266326127,-0.5263769421493595,-0.26033887742094675,-1.0628724024473388,-0.08544381530589802
13189,7.0,301.221,3811.6313,0.0,0.0,0.0,0.0,-0.13145225160101282,0.0,-0.3621988834737466,-0.2970046393820757,-0.4994372260431165,-0.23323688931118877,-1.1032831469105688,-0.1102787768936679
13190,7.0,300.80481000000003,3950.2326,0.0,0.0,0.0,0.0,-0.13146221841059666,0.0,-0.3866671407310756,-0.30308256944442075,-0.5110223629164805,-0.2563742020321637,-1.0818069057410291,-0.07920056639698733
13191,7.0,301.01615,4281.8397,0.0,0.0,0.0,0.0,-0.13147218522018048,0.0,-0.3654744272045176,-0.34699593711833265,-0.5891019970723405,-0.20878068973004982,-1.117899380928079,-0.13208726277099786
13192,7.0,300.15041,3859.2003,0.0,0.0,0.0,0.0,-0.1314821520297643,0.0,-0.36150810021807167,-0.28174283332835276,-0.5298496035545844,-0.24540367227195678,-1.076999034016529,-0.1059605278824899
13193,7.0,299.35017999999997,3464.0369,0.0,0.0,0.0,0.0,-0.1314921188393481,0.0,-0.2859149311451067,-0.29281566081865573,-0.47425012863484356,-0.23080202905588676,-1.120640019798559,-0.15294317196431584
13194,7.0,299.72261000000003,3654.6348,0.0,0.0,0.0,0.0,-0.13150208564893193,0.0,-0.3262451526228897,-0.30045841380543675,-0.4842141464082156,-0.25486096367031874,-1.0830900856676688,-0.10076951893742721
13195,7.0,300.01472,4082.5049,0.0,0.0,0.0,0.0,-0.13151205245851574,0.0,-0.3773474892262977,-0.3291738203144267,-0.5344582500444225,-0.2233803773734268,-1.1360615849955489,-0.12917967068154088
13196,7.0,299.22156,4305.5833,0.0,0.0,0.0,0.0,-0.13152201926809956,0.0,-0.38338213324437065,-0.3686832990787086,-0.5567243804619184,-0.24379564436325676,-1.094562103299869,-0.12267290277937289
13197,7.0,300.16631,4002.7259,0.0,0.0,0.0,0.0,-0.1315319860776834,0.0,-0.34344238795762466,-0.3137541093651197,-0.5595322282115315,-0.22554604747466178,-1.122652131847139,-0.12902076266835788
13198,7.0,299.37755,3608.3566,0.0,0.0,0.0,0.0,-0.1315419528872672,0.0,-0.3050543642715217,-0.3029678796656017,-0.4888280516660725,-0.24621543758957176,-1.1050749783874092,-0.1081312135717199
13199,7.0,299.83119,3876.6018,0.0,0.0,0.0,0.0,-0.13155191969685104,0.0,-0.3505035151220037,-0.3179784300920277,-0.5099081931065206,-0.21541090189190076,-1.117002046639519,-0.09042532263378451
13200,7.0,298.97014,4391.0931,0.0,0.0,0.0,0.0,-0.13156188650643486,0.0,-0.4074515549973376,-0.3642566019093277,-0.5630744998986265,-0.24789140391747674,-1.079911621428979,-0.09773977448216471
13201,7.0,298.75358,4094.4598,0.0,0.0,0.0,0.0,-0.13157185331601867,0.0,-0.4074421520364096,-0.31767870057994674,-0.5194926777899355,-0.23203314819238877,-1.0980805129471092,-0.0894768911559316
13202,7.0,299.06903,3450.2827,0.0,0.0,0.0,0.0,-0.1315818201256025,0.0,-0.3003591862231437,-0.27939966207459976,-0.4690409288107355,-0.25410112742032875,-1.0732593305474492,-0.13950758709582686
13203,7.0,300.01122000000004,3486.4406,0.0,0.0,0.0,0.0,-0.1315917869351863,0.0,-0.3103577355599237,-0.28895737669037275,-0.46047577372792053,-0.22001896069668078,-1.1082232477731189,-0.13847333232125386
13204,7.0,299.9416,4138.6488,0.0,0.0,0.0,0.0,-0.13160175374477012,0.0,-0.38264212629883765,-0.3280541890864277,-0.5473495676216965,-0.22076218977753181,-1.096370653403359,-0.14301561092954185
13205,7.0,300.53569,4302.779,0.0,0.0,0.0,0.0,-0.13161172055435394,0.0,-0.41953159361704456,-0.33335928289999966,-0.5550465092238255,-0.22267341251365477,-1.104430044698759,-0.1291307408342119
13206,7.0,300.09575,3827.652,0.0,0.0,0.0,0.0,-0.13162168736393778,0.0,-0.3702747907457766,-0.3008617076102387,-0.49237414330604456,-0.22015262864987276,-1.106448033597919,-0.0988190621441821
13207,7.0,300.09476,3621.9072,0.0,0.0,0.0,0.0,-0.1316316541735216,0.0,-0.3188024557358527,-0.2840359804246687,-0.4981309136166935,-0.25589311088468375,-1.1299878599211188,-0.08757223022745622
13208,7.0,300.71538,4049.6735,0.0,0.0,0.0,0.0,-0.13164162098310542,0.0,-0.34553967380961065,-0.35336270425418365,-0.5320972455889095,-0.2570984124086378,-1.109835733982259,-0.10243687973223291
13209,7.0,299.27272999999997,4483.7459,0.0,0.0,0.0,0.0,-0.13165158779268923,0.0,-0.40570568454503364,-0.37941623182296663,-0.5778248780968754,-0.2128316737623508,-1.0970514561455489,-0.11499892142450989
13210,7.0,299.42172999999997,4285.2435,0.0,0.0,0.0,0.0,-0.13166155460227305,0.0,-0.3991363687141926,-0.33839536894452266,-0.5650752838110885,-0.2204511017318298,-1.074324560377579,-0.1164141785016849
13211,7.0,300.25311,3683.9548,0.0,0.0,0.0,0.0,-0.13167152141185687,0.0,-0.32161940247136367,-0.3164713624232917,-0.4817394958214865,-0.21746519554214377,-1.108622569637529,-0.14206878950609786
13212,7.0,299.10617,3414.2705,0.0,0.0,0.0,0.0,-0.1316814882214407,0.0,-0.2982303781605467,-0.28209435005304473,-0.4575282595845236,-0.22078416717220078,-1.117228812011899,-0.15185723130214185
13213,7.0,299.6082,3991.9295,0.0,0.0,0.0,0.0,-0.13169145503102453,0.0,-0.3557230602296326,-0.33701590999338066,-0.5207079294298714,-0.2160672549091778,-1.0953502092276488,-0.11583160022418888
13214,7.0,299.09864,4310.8785,0.0,0.0,0.0,0.0,-0.13170142184060832,0.0,-0.39004699855964164,-0.34899855501347565,-0.5713538576582354,-0.23095440160592481,-1.112671010412079,-0.13886988801289085
13215,7.0,299.01097999999996,3816.4829999999997,0.0,0.0,0.0,0.0,-0.13171138865019216,0.0,-0.3240861395748117,-0.3067160741705197,-0.5293133308066585,-0.2597192040572897,-1.119699622380749,-0.11574974988111089
13216,7.0,299.44948,3604.0086,0.0,0.0,0.0,0.0,-0.13172135545977598,0.0,-0.2847177862844577,-0.32665422195326166,-0.4841566242000385,-0.25582620598058076,-1.1077299976244388,-0.16773351274650886
13217,7.0,300.80596,4138.3894,0.0,0.0,0.0,0.0,-0.13173132226935982,0.0,-0.37996331594945965,-0.3256586733325087,-0.5523450628672135,-0.24241081518658478,-1.082720249381169,-0.07694396419202802
13218,7.0,300.56506,4426.6016,0.0,0.0,0.0,0.0,-0.1317412890789436,0.0,-0.4263914994440646,-0.35415473145985066,-0.5650301232541315,-0.21860355163199077,-1.1163616725763188,-0.09835636756551772
13219,7.0,300.77107,4265.1929,0.0,0.0,0.0,0.0,-0.13175125588852743,0.0,-0.4085503234057776,-0.33724538074352767,-0.5507164558489824,-0.24600677899647877,-1.126066480709109,-0.05887672699018054
13220,7.0,299.57748,3570.2464,0.0,0.0,0.0,0.0,-0.13176122269811127,0.0,-0.3313488528465857,-0.26091340036014776,-0.4930035134731585,-0.23199718794633978,-1.133227321815829,-0.13607835358988787
13221,7.0,300.18323,3444.4172,0.0,0.0,0.0,0.0,-0.1317711895076951,0.0,-0.3167414138399437,-0.2680980427117167,-0.46217736515085456,-0.2312317382907958,-1.0857824938333889,-0.12770316263582088
13222,7.0,300.71443999999997,3974.7239,0.0,0.0,0.0,0.0,-0.1317811563172789,0.0,-0.36673699762412365,-0.3070494739834237,-0.5344303350041675,-0.23386391887057179,-1.090150412364469,-0.15845574900086484
13223,7.0,299.01619,4294.0634,0.0,0.0,0.0,0.0,-0.13179112312686272,0.0,-0.43311915586803257,-0.33127562526185866,-0.5408932899720116,-0.24727594567423578,-1.099392266526569,-0.12675642227238487
13224,7.0,299.22654,3875.1121,0.0,0.0,0.0,0.0,-0.13180108993644654,0.0,-0.34973318160097766,-0.3271053107652807,-0.5010988244846035,-0.24597373691071778,-1.130285147500459,-0.14284726955792787
13225,7.0,299.97387000000003,3463.0292,0.0,0.0,0.0,0.0,-0.13181105674603036,0.0,-0.2898971661581227,-0.28063020365854474,-0.48214703514420754,-0.23598005117441778,-1.082826944616699,-0.1052254655974449
13226,7.0,300.91238,3902.0322,0.0,0.0,0.0,0.0,-0.1318210235556142,0.0,-0.3178276888746507,-0.35255933877989765,-0.5157333274014165,-0.25075225477982077,-1.138740618259949,-0.1110781805600629
13227,7.0,301.28082,4548.7619,0.0,0.0,0.0,0.0,-0.13183099036519802,0.0,-0.4178872102947566,-0.37164760277626263,-0.5931752320768374,-0.23892092852965977,-1.1037728506838989,-0.1114607432678189
13228,7.0,300.59007,4250.4697,0.0,0.0,0.0,0.0,-0.1318409571747818,0.0,-0.35338764033914466,-0.3709875513961206,-0.5676614527038235,-0.22209024655110077,-1.1025401306122389,-0.13733559431396786
13229,7.0,299.96082,3572.4012,0.0,0.0,0.0,0.0,-0.13185092398436565,0.0,-0.31244205181062973,-0.3203042646365697,-0.4531744353623346,-0.2087883397683048,-1.051140688814509,-0.1145126829665219
13230,7.0,301.41517999999996,3575.2388,0.0,0.0,0.0,0.0,-0.13186089079394947,0.0,-0.31879894989050667,-0.28787451630850275,-0.4801098552881536,-0.23346910596910678,-1.1051837001231388,-0.12462954951747889
13231,7.0,300.22202999999996,3954.4103,0.0,0.0,0.0,0.0,-0.1318708576035333,0.0,-0.36246257167977064,-0.3233074974029657,-0.5162719103595704,-0.26959318442677577,-1.096780614393819,-0.1052014313050729
13232,7.0,298.97932000000003,4218.3143,0.0,0.0,0.0,0.0,-0.13188082441311713,0.0,-0.3781517159631686,-0.3584060249044207,-0.5457044952893405,-0.23540692652035478,-1.127672988742659,-0.16162283444093184
13233,7.0,299.17111,3996.4878,0.0,0.0,0.0,0.0,-0.13189079122270092,0.0,-0.3407279719997327,-0.32232805945880266,-0.5517764674410975,-0.26317690989103876,-1.057178950135439,-0.11227326852300888
13234,7.0,299.96639,3599.9875,0.0,0.0,0.0,0.0,-0.13190075803228474,0.0,-0.27315694714849176,-0.3374126987325407,-0.48373665229859053,-0.21761875359479876,-1.1106468406873091,-0.16216627086706484
13235,7.0,300.01166,3909.1574,0.0,0.0,0.0,0.0,-0.13191072484186858,0.0,-0.37913757791296565,-0.2903651559818097,-0.5187835040449456,-0.2594404386897778,-1.093841682478769,-0.07883382254979251
13236,7.0,299.64931,4419.9709,0.0,0.0,0.0,0.0,-0.1319206916514524,0.0,-0.4298649309193656,-0.3442061961480066,-0.5694896598592535,-0.2008852220358278,-1.134402894581849,-0.10619268374540189
13237,7.0,300.4597,4082.9793,0.0,0.0,0.0,0.0,-0.13193065846103624,0.0,-0.3957326792432746,-0.3133575840709857,-0.5320334918926175,-0.22418167581750878,-1.082154754500359,-0.05273611525014936
13238,7.0,300.64981,3673.3372,0.0,0.0,0.0,0.0,-0.13194062527062003,0.0,-0.3118278803950157,-0.27439139987782274,-0.5303834951647756,-0.1979515590212978,-1.1307309775444592,-0.10761345290312091
13239,7.0,300.08491000000004,4011.1813,0.0,0.0,0.0,0.0,-0.13195059208020385,0.0,-0.3550683385450166,-0.3345303264380727,-0.5297002707548465,-0.26634386360859275,-1.084100093367349,-0.1089516928401949
13240,7.0,298.57881000000003,4272.0341,0.0,0.0,0.0,0.0,-0.1319605588897877,0.0,-0.38059799554709767,-0.36300286703059365,-0.5549908209983295,-0.24477299501221375,-1.0965070368668188,-0.14087084417786988
13241,7.0,299.2987,4152.8998,0.0,0.0,0.0,0.0,-0.1319705256993715,0.0,-0.38977309679260963,-0.3562791825470176,-0.5163255619523656,-0.26878346587436275,-1.063925979901319,-0.12521826809058087
13242,7.0,299.30214,3748.3913,0.0,0.0,0.0,0.0,-0.13198049250895533,0.0,-0.3121869863629567,-0.3455604555691617,-0.4816699159371196,-0.24160094464665677,-1.1277992397051189,-0.14449488514803485
13243,7.0,300.14142999999996,3507.8466,0.0,0.0,0.0,0.0,-0.13199045931853914,0.0,-0.29361155863970473,-0.28740813755247474,-0.48527808941071854,-0.2660087108730157,-1.111458352692399,-0.13517053216279287
13244,7.0,299.44364,3694.8273,0.0,0.0,0.0,0.0,-0.13200042612812296,0.0,-0.3147972098130657,-0.3195074143604267,-0.48883061518882553,-0.1967986526600148,-1.1350030426160789,-0.16955917664418782
13245,7.0,300.45409,4192.7702,0.0,0.0,0.0,0.0,-0.13201039293770678,0.0,-0.37601779098756666,-0.34432472614470466,-0.5541549403283345,-0.24321277224323176,-1.085595346539919,-0.14281450104969387
13246,7.0,300.65449,4185.7928,0.0,0.0,0.0,0.0,-0.13202035974729062,0.0,-0.37853543377603865,-0.33163324175215264,-0.5622078366905935,-0.18525029676528082,-1.123612591616929,-0.13435766240256888
13247,7.0,300.42947000000004,3763.2689,0.0,0.0,0.0,0.0,-0.13203032655687444,0.0,-0.3156467389619077,-0.3324648465067257,-0.49582817104193055,-0.25010437253337975,-1.083945268752069,-0.1038575880949459
13248,7.0,299.64817,3666.2711,0.0,0.0,0.0,0.0,-0.13204029336645823,0.0,-0.3306339137085267,-0.2837495143563967,-0.5000714395457085,-0.22073199492455178,-1.1110709871791689,-0.11945285475657888
13249,7.0,300.00487999999996,4279.5793,0.0,0.0,0.0,0.0,-0.13205026017604207,0.0,-0.3981588964752236,-0.3499842548432566,-0.5527421150513995,-0.26710211918842675,-1.0835008572582092,-0.07633107757754083
13250,7.0,300.37217000000004,4289.6574,0.0,0.0,0.0,0.0,-0.1320602269856259,0.0,-0.38340001710863564,-0.3530659435648957,-0.5674827863136904,-0.22425226895197578,-1.1284123573406288,-0.13457336308385687
13251,7.0,299.83286,3919.9559,0.0,0.0,0.0,0.0,-0.1320701937952097,0.0,-0.35254993581896965,-0.3213724531569917,-0.5176463131927135,-0.2248596110619158,-1.0885133041778992,-0.11266001595367789
13252,7.0,299.22045,3752.1444,0.0,0.0,0.0,0.0,-0.13208016060479355,0.0,-0.33545265760659965,-0.3132236222752647,-0.4918819368049675,-0.2149689019332788,-1.125828974885669,-0.16846972000416685
13253,7.0,298.99858,3829.8893,0.0,0.0,0.0,0.0,-0.13209012741437734,0.0,-0.36922253051692666,-0.27665859763907774,-0.5183095968406746,-0.24958873968999076,-1.086336336338049,-0.08175011541785822
13254,7.0,298.82596,4039.5026,0.0,0.0,0.0,0.0,-0.13210009422396116,0.0,-0.36840796862903563,-0.3141813361372837,-0.5453186091212564,-0.23491459842926576,-1.1280289435027888,-0.12907331995104487
13255,7.0,300.35168,4253.0956,0.0,0.0,0.0,0.0,-0.132110061033545,0.0,-0.3976982223172586,-0.3304866479389927,-0.5646500024791165,-0.23152308822454978,-1.0873036862085188,-0.07103830691168503
13256,7.0,300.52556,3999.6254,0.0,0.0,0.0,0.0,-0.13212002784312882,0.0,-0.35576966973423263,-0.30505628944671176,-0.5549602715078145,-0.23418249483451278,-1.1049324140983388,-0.1216661577450149
13257,7.0,300.024,3899.8034,0.0,0.0,0.0,0.0,-0.13212999465271266,0.0,-0.3517475937272847,-0.32034725683831267,-0.5133480049435035,-0.24554674318607678,-1.106493224552379,-0.1037294626198009
13258,7.0,300.02088,4313.2397,0.0,0.0,0.0,0.0,-0.13213996146229645,0.0,-0.39277239814861764,-0.35537552557783364,-0.5629692434782385,-0.2236992674448988,-1.140594460642909,-0.11641720811948389
13259,7.0,299.32513,4246.0431,0.0,0.0,0.0,0.0,-0.13214992827188027,0.0,-0.38902311946609264,-0.33943767905739064,-0.5622302801803084,-0.22847832233655477,-1.090487520672739,-0.09055488895057172
13260,7.0,300.75854,3758.9179,0.0,0.0,0.0,0.0,-0.1321598950814641,0.0,-0.3192195500070167,-0.3380316628211277,-0.4853659584593905,-0.2016129179926458,-1.103392071296319,-0.12720626478678088
13261,7.0,301.15457999999995,3509.5999,0.0,0.0,0.0,0.0,-0.13216986189104793,0.0,-0.3113574993010927,-0.27075965820689774,-0.4847135875150065,-0.23734002532613677,-1.0896819868432388,-0.12960756619877087
13262,7.0,300.05232,3800.6999,0.0,0.0,0.0,0.0,-0.13217982870063175,0.0,-0.33368377624452467,-0.31928724524619767,-0.5023468446327736,-0.25130320952169577,-1.0860328679330988,-0.13329815743550388
13263,7.0,299.53752000000003,4100.2669,0.0,0.0,0.0,0.0,-0.13218979551021556,0.0,-0.36418069934433667,-0.35892156655530066,-0.5232764880358686,-0.2341139484652478,-1.076358862603349,-0.17823808931572982
13264,7.0,299.56464,4012.5199,0.0,0.0,0.0,0.0,-0.13219976231979938,0.0,-0.33796496056704467,-0.3267249366777407,-0.5550159698658115,-0.22255033302400778,-1.098945220582449,-0.14162209819951285
13265,7.0,298.52707000000004,3858.6505,0.0,0.0,0.0,0.0,-0.1322097291293832,0.0,-0.35672161820318266,-0.3171363078014167,-0.49907548562491555,-0.2688322741316797,-1.092974543043189,-0.13103485055463288
13266,7.0,299.99703,3983.824,0.0,0.0,0.0,0.0,-0.13221969593896704,0.0,-0.36043620320228364,-0.3044286519372687,-0.5461181647751665,-0.25013194306860076,-1.109981844646679,-0.07809603158222823
13267,7.0,299.31883999999997,4291.3202,0.0,0.0,0.0,0.0,-0.13222966274855086,0.0,-0.39503969723488264,-0.3552759940205107,-0.5541384952792114,-0.24504136443369975,-1.084531535259929,-0.1033922935165249
13268,7.0,300.03752000000003,4593.3485,0.0,0.0,0.0,0.0,-0.13223962955813465,0.0,-0.4269466895713576,-0.37760233175894864,-0.5917142267576474,-0.21259214143871077,-1.083249469908399,-0.09447433488139091
13269,7.0,300.63635,4198.9242,0.0,0.0,0.0,0.0,-0.1322495963677185,0.0,-0.4033663535091596,-0.3139429690512587,-0.5590587871023065,-0.2200681742540378,-1.1116448920358089,-0.1089337481809239
13270,7.0,300.3563,3795.8627,0.0,0.0,0.0,0.0,-0.1322595631773023,0.0,-0.30743658618412867,-0.3146335395244127,-0.5317773422673375,-0.20797563212809678,-1.111898913835879,-0.11587029624550789
13271,7.0,299.93833,3960.4318,0.0,0.0,0.0,0.0,-0.13226952998688613,0.0,-0.3527373566899667,-0.3165634769898827,-0.5345715516706044,-0.23980875853228178,-1.120001064285499,-0.1129390954287209
13272,7.0,300.31955,4252.258,0.0,0.0,0.0,0.0,-0.13227949679646997,0.0,-0.3715881351278937,-0.34285206844936467,-0.5781400394079795,-0.21646040608047878,-1.111255905322419,-0.1027564689462739
13273,7.0,300.10253,3825.8148,0.0,0.0,0.0,0.0,-0.13228946360605376,0.0,-0.34691927461576666,-0.3152323298035087,-0.5008005641851676,-0.25089934829683774,-1.1098662328102689,-0.13744934177019386
13274,7.0,301.32207999999997,3768.7571,0.0,0.0,0.0,0.0,-0.13229943041563758,0.0,-0.33230656670860464,-0.2963906807489827,-0.5169108152101255,-0.26080904573234875,-1.077883804003849,-0.11276079380862389
13275,7.0,298.8896,3937.5398,0.0,0.0,0.0,0.0,-0.13230939722522142,0.0,-0.35985074729450367,-0.33233151292606666,-0.5047315186106225,-0.24337711127695075,-1.083124536171069,-0.15220001381097184
13276,7.0,299.31248999999997,4088.3409,0.0,0.0,0.0,0.0,-0.13231936403480524,0.0,-0.33793900109948266,-0.34626974077166267,-0.5585448261215825,-0.23220292837914477,-1.101270224261909,-0.11884730609931587
13277,7.0,298.98353,4220.688,0.0,0.0,0.0,0.0,-0.13232933084438908,0.0,-0.3919852446759316,-0.34510685389689466,-0.5458916628478124,-0.2315109292233498,-1.143930485272149,-0.11994231534988488
13278,7.0,299.32467,4133.6287,0.0,0.0,0.0,0.0,-0.13233929765397287,0.0,-0.36161052967068064,-0.3369754205193847,-0.5579339680337955,-0.2558965052725188,-1.143009542256259,-0.08115164228604352
13279,7.0,299.23719,3704.0346,0.0,0.0,0.0,0.0,-0.1323492644635567,0.0,-0.36328790441622466,-0.29885983952016976,-0.4637862847196425,-0.2554026978362838,-1.1239027864455688,-0.13120191523112087
13280,7.0,301.32042,3632.3372,0.0,0.0,0.0,0.0,-0.13235923127314053,0.0,-0.3168575019039007,-0.2983548559353317,-0.4889274616333835,-0.24865710688554576,-1.105668641620999,-0.12953556464666488
13281,7.0,299.63005,3938.9116,0.0,0.0,0.0,0.0,-0.13236919808272435,0.0,-0.36588486442252466,-0.3297308342918997,-0.5017150831954236,-0.23368339823275577,-1.099766662438519,-0.15806470538977185
13282,7.0,301.35603,3982.5752,0.0,0.0,0.0,0.0,-0.13237916489230817,0.0,-0.35752646302261465,-0.30940226098062573,-0.5436747121590165,-0.23284128607464577,-1.086032361308049,-0.12716935208563787
13283,7.0,300.01987,3739.2543,0.0,0.0,0.0,0.0,-0.13238913170189198,0.0,-0.34861001413012965,-0.3084679531959167,-0.4795619808265825,-0.2159628901488778,-1.1132675107459489,-0.14205721818995587
13284,7.0,299.16706,4027.4183,0.0,0.0,0.0,0.0,-0.1323990985114758,0.0,-0.3731898910184746,-0.3069746657285407,-0.5440700418180324,-0.23192180213889976,-1.092485953844969,-0.10441885772283889
13285,7.0,298.82771,4249.8519,0.0,0.0,0.0,0.0,-0.13240906532105962,0.0,-0.4009764511607946,-0.34331092888965065,-0.5475614584826085,-0.22546585886174778,-1.111493411145859,-0.11127976666745788
13286,7.0,299.4399,4191.0261,0.0,0.0,0.0,0.0,-0.13241903213064346,0.0,-0.3813227328136236,-0.3550302200762547,-0.5376143315884034,-0.2277466240418418,-1.0861736083719888,-0.08937618118874231
13287,7.0,299.15175,4184.3785,0.0,0.0,0.0,0.0,-0.13242899894022728,0.0,-0.37001681727031666,-0.34134490958811964,-0.5605848532104175,-0.24485124831743676,-1.102762336359169,-0.12394932432784588
13288,7.0,298.74,4083.9328,0.0,0.0,0.0,0.0,-0.13243896574981107,0.0,-0.3613587066233277,-0.3361777596431617,-0.5438771392639945,-0.25505190051916277,-1.094085977077879,-0.08702564867301282
13289,7.0,299.45071,3769.7241,0.0,0.0,0.0,0.0,-0.1324489325593949,0.0,-0.3002813078204577,-0.3290092684981867,-0.5166114200705775,-0.24487700513497876,-1.144246923278379,-0.1283158952362929
13290,7.0,301.02783999999997,4036.7563,0.0,0.0,0.0,0.0,-0.13245889936897873,0.0,-0.35569108205647665,-0.32467940764086267,-0.5467026276978485,-0.2510694425911248,-1.1117631383224789,-0.09695976442268371
13291,7.0,300.57451000000003,4189.7772,0.0,0.0,0.0,0.0,-0.13246886617856254,0.0,-0.4119849068722446,-0.3518173458641687,-0.5097854074594025,-0.2116360994393568,-1.118137900001619,-0.13945478663311586
13292,7.0,300.13793,3773.8583,0.0,0.0,0.0,0.0,-0.1324788329881464,0.0,-0.3348179070814547,-0.2996855471591607,-0.5126552458501334,-0.20925950106480481,-1.080602961972209,-0.13366605841431287
13293,7.0,299.92723,3572.9572,0.0,0.0,0.0,0.0,-0.13248879979773018,0.0,-0.30019964999489873,-0.3354797113842697,-0.45041040054704556,-0.2053538778918498,-1.109607144759699,-0.1869222607552908
13294,7.0,300.39069,3738.5531,0.0,0.0,0.0,0.0,-0.132498766607314,0.0,-0.29382723905599073,-0.32594208951797965,-0.5166574722876225,-0.2612242756233287,-1.099982180734789,-0.12660380654232287
13295,7.0,300.52218999999997,3964.4289,0.0,0.0,0.0,0.0,-0.13250873341689784,0.0,-0.36262510712831164,-0.3356334315569407,-0.5068288753901155,-0.23666721712723576,-1.1432476560297589,-0.11943495062731188
13296,7.0,300.6211,3898.4123,0.0,0.0,0.0,0.0,-0.13251870022648166,0.0,-0.34114479269336967,-0.3107237012310417,-0.5331515019204565,-0.2624372879805438,-1.108058898606899,-0.0986649903737264
13297,7.0,298.43262000000004,3811.5363,0.0,0.0,0.0,0.0,-0.13252866703606547,0.0,-0.37501687214128365,-0.27641974419300475,-0.5071752448042995,-0.2605557737373527,-1.1301842277904988,-0.08302511436319082
13298,7.0,299.48002,3872.8578,0.0,0.0,0.0,0.0,-0.1325386338456493,0.0,-0.3266168431570727,-0.3080028511350147,-0.5426323615161445,-0.25342095289320077,-1.0950797727759591,-0.08726623477675682
13299,7.0,299.0641,4058.349,0.0,0.0,0.0,0.0,-0.1325486006552331,0.0,-0.3791120338779446,-0.3195303340776887,-0.5349943809373345,-0.22740083218021476,-1.105729841927039,-0.13264655656119587
13300,7.0,299.96924,4532.4323,0.0,0.0,0.0,0.0,-0.13255856746481692,0.0,-0.4145633851967206,-0.3395892612723507,-0.6235936181613985,-0.22567630077501677,-1.079541886467489,-0.08359630370956282
13301,7.0,299.97463999999997,4290.42,0.0,0.0,0.0,0.0,-0.13256853427440074,0.0,-0.3967408225627706,-0.3611219100749577,-0.5463178054423694,-0.20825481292814982,-1.1234214926480688,-0.14838733606968987
13302,7.0,300.51816,3568.9787,0.0,0.0,0.0,0.0,-0.13257850108398458,0.0,-0.30156813544745775,-0.28875282176018474,-0.4945594299292155,-0.2541041570381278,-1.080963273707769,-0.1023791346090339
13303,7.0,300.91402,3675.9516,0.0,0.0,0.0,0.0,-0.1325884678935684,0.0,-0.34521553510262065,-0.30176150409654173,-0.4704204586893846,-0.21181749147225878,-1.111970550617949,-0.15905744730774785
13304,7.0,300.60972999999996,4236.2852,0.0,0.0,0.0,0.0,-0.13259843470315222,0.0,-0.3685757932430987,-0.3393025418915537,-0.5798465856239025,-0.25130886345725373,-1.086167630196399,-0.08680881416486293
13305,7.0,299.82307000000003,3965.9087,0.0,0.0,0.0,0.0,-0.13260840151273603,0.0,-0.3810811233272786,-0.3190436497896567,-0.5054124429428245,-0.22501989709523476,-1.1248296063120389,-0.15360690144232084
13306,7.0,300.77979,3907.0376,0.0,0.0,0.0,0.0,-0.13261836832231985,0.0,-0.3011621970598947,-0.34355610501634765,-0.5429235594623835,-0.25357884765628375,-1.106418750670029,-0.08127457282792583
13307,7.0,299.57167000000004,4022.4537,0.0,0.0,0.0,0.0,-0.1326283351319037,0.0,-0.35727131651493366,-0.33637463413759167,-0.5290795436110854,-0.2302192177308678,-1.096666725082579,-0.13499912064337588
13308,7.0,298.68876,4189.8835,0.0,0.0,0.0,0.0,-0.13263830194148749,0.0,-0.35893705914932966,-0.34588992397167767,-0.5687929693554955,-0.26690884173185175,-1.073055869927369,-0.07373000985533543
13309,7.0,299.1537,4245.7292,0.0,0.0,0.0,0.0,-0.13264826875107133,0.0,-0.4075127350383756,-0.3427964308863737,-0.5402865152821275,-0.22700389145353977,-1.130196184141679,-0.13101791914546188
13310,7.0,300.28055,4043.3439,0.0,0.0,0.0,0.0,-0.13265823556065515,0.0,-0.34455690227261865,-0.3386923829463357,-0.5458263082163625,-0.25382724591829875,-1.1039766152790091,-0.12940694267897088
13311,7.0,300.29146000000003,3598.7641,0.0,0.0,0.0,0.0,-0.13266820237023896,0.0,-0.3313379401430087,-0.3059979838246497,-0.4565985114252646,-0.2042759925679708,-1.140399815298699,-0.15281756948191985
13312,7.0,300.92982,3746.6934,0.0,0.0,0.0,0.0,-0.13267816917982278,0.0,-0.3197388001532627,-0.3197335413852437,-0.49942889712729455,-0.23400149796914976,-1.117958858708949,-0.15271705507199987
13313,7.0,299.20309,4161.623,0.0,0.0,0.0,0.0,-0.1326881359894066,0.0,-0.42604289074715956,-0.3062629284607977,-0.5327236671982325,-0.2289554415436428,-1.1431668999967888,-0.11291900267923789
13314,7.0,299.60747000000003,3989.9719,0.0,0.0,0.0,0.0,-0.1326981027989904,0.0,-0.35950638411551766,-0.3172616671037887,-0.5360837869148505,-0.22775297711996878,-1.085715214026749,-0.10870668896601489
13315,7.0,300.06511,3630.4316,0.0,0.0,0.0,0.0,-0.13270806960857423,0.0,-0.3408983804015507,-0.2915159041203797,-0.4711462902660185,-0.21036868568427278,-1.072158029013759,-0.10429772367338391
13316,7.0,300.75276,4062.7467,0.0,0.0,0.0,0.0,-0.13271803641815808,0.0,-0.3667926250546137,-0.3279393878500977,-0.5402415472426895,-0.24222784248352677,-1.062234764159409,-0.09902881403413301
13317,7.0,300.13285,4596.904,0.0,0.0,0.0,0.0,-0.1327280032277419,0.0,-0.4435706279995125,-0.37063618665894366,-0.5831372267811634,-0.24945924632721078,-1.1342870800954188,-0.07637667281879074
13318,7.0,300.70284,4456.9785,0.0,0.0,0.0,0.0,-0.1327379700373257,0.0,-0.39837588398413865,-0.3581432790209897,-0.5982910001092244,-0.25942582762333577,-1.1217617889842688,-0.08699940954842322
13319,7.0,300.42118999999997,4034.7027,0.0,0.0,0.0,0.0,-0.13274793684690953,0.0,-0.3771125063956066,-0.3333144364505737,-0.5160219212948984,-0.23870134710048874,-1.125151515868809,-0.10826984645040189
13320,7.0,301.03059,3857.032,0.0,0.0,0.0,0.0,-0.13275790365649334,0.0,-0.3524244751915877,-0.3094800887208067,-0.5105368742635665,-0.26823053529479274,-1.097373771002359,-0.10560695426009489
13321,7.0,300.55823,3889.3824,0.0,0.0,0.0,0.0,-0.13276787046607716,0.0,-0.3429221549587817,-0.3245085128789967,-0.5148444638836925,-0.24255534518084876,-1.1432368142536888,-0.13767257089972487
13322,7.0,299.83932999999996,4004.7887,0.0,0.0,0.0,0.0,-0.132777837275661,0.0,-0.3402855566085697,-0.3364892327239017,-0.5405809657611875,-0.2157157989794918,-1.1119925381451188,-0.14935998523818284
13323,7.0,299.14142999999996,3980.8022,0.0,0.0,0.0,0.0,-0.13278780408524482,0.0,-0.3533382038667656,-0.34599624430467063,-0.5107300199976285,-0.17900441036635983,-1.106109202764479,-0.15415869718177885
13324,7.0,299.35605,3545.6213,0.0,0.0,0.0,0.0,-0.1327977708948286,0.0,-0.2783845577269167,-0.3240127802675717,-0.47538299290914854,-0.19450251647590383,-1.120563215440979,-0.16740729687681383
13325,7.0,300.09061,3669.3226,0.0,0.0,0.0,0.0,-0.13280773770441245,0.0,-0.3347414269639067,-0.3030599942321927,-0.4775810262185775,-0.2554280797512888,-1.1483178582051488,-0.12283130416750589
13326,7.0,300.06122999999997,4246.7916,0.0,0.0,0.0,0.0,-0.13281770451399627,0.0,-0.3899737304449106,-0.35936757898431865,-0.5415773148495194,-0.2580271270527948,-1.0990337786411888,-0.11446801890211389
13327,7.0,300.2615,4256.8448,0.0,0.0,0.0,0.0,-0.13282767132358012,0.0,-0.38450398349008863,-0.34993457519085364,-0.5595359772369015,-0.24741627068058478,-1.071696696243229,-0.07781991485047762
13328,7.0,300.61855,3997.0667,0.0,0.0,0.0,0.0,-0.1328376381331639,0.0,-0.3260500513161347,-0.3555369160537617,-0.5334215026746035,-0.2624535911746527,-1.070433274693539,-0.12483680982543388
13329,7.0,300.86779,4099.2994,0.0,0.0,0.0,0.0,-0.13284760494274772,0.0,-0.37832410020268165,-0.32857845482066866,-0.5391821132031315,-0.27302126282760075,-1.1404091371996188,-0.07993756500297343
13330,7.0,301.53409,4174.3262,0.0,0.0,0.0,0.0,-0.13285757175233157,0.0,-0.37756302778756967,-0.3476005434530027,-0.5437273505017115,-0.2617928102544388,-1.1322740561217488,-0.14467230524054486
13331,7.0,300.51602,4058.3491,0.0,0.0,0.0,0.0,-0.13286753856191538,0.0,-0.4125579403337986,-0.30715884419921774,-0.5139199947574545,-0.20641184271876278,-1.1062866228569888,-0.09784979013827241
13332,7.0,299.88662999999997,4135.4314,0.0,0.0,0.0,0.0,-0.1328775053714992,0.0,-0.38194125107216664,-0.3249474629548177,-0.5501791698509565,-0.21007772078555678,-1.116696551734369,-0.13365919871113585
13333,7.0,300.77879,4055.3029,0.0,0.0,0.0,0.0,-0.132887472181083,0.0,-0.37440965162135564,-0.3100511767421687,-0.5482499923230615,-0.2126675069811488,-1.128507602850029,-0.08792879395089633
13334,7.0,300.07306,3770.2151,0.0,0.0,0.0,0.0,-0.13289743899066683,0.0,-0.3332870786978737,-0.2988387335205867,-0.5139254257779905,-0.23127173127224276,-1.140309737364809,-0.12032070346722888
13335,7.0,299.83884,4095.6964,0.0,0.0,0.0,0.0,-0.13290740580025065,0.0,-0.37762484617617065,-0.3350839764252137,-0.5322806235920075,-0.2229942277603168,-1.100267106662909,-0.10344336132156491
13336,7.0,299.11734,4430.4542,0.0,0.0,0.0,0.0,-0.1329173726098345,0.0,-0.4121036192539606,-0.36390557154468367,-0.5707382372949785,-0.2586368199029667,-1.1066480491676591,-0.12221518731169989
13337,7.0,299.13281,4039.8026,0.0,0.0,0.0,0.0,-0.1329273394194183,0.0,-0.3779198640752866,-0.3318991591083967,-0.5181800933453935,-0.26121973626288075,-1.136566082220339,-0.09805932417945182
13338,7.0,300.13358,3867.3831,0.0,0.0,0.0,0.0,-0.1329373062290021,0.0,-0.32165575788495165,-0.3449639349702897,-0.5089682111212516,-0.25913623061225477,-1.1153035354968888,-0.13235904684532088
13339,7.0,300.60932,4100.48,0.0,0.0,0.0,0.0,-0.13294727303858594,0.0,-0.33761831757533367,-0.3241654770576417,-0.5846597363814234,-0.2507496811245668,-1.0603949046278291,-0.11079994208260288
13340,7.0,299.53766,4035.784,0.0,0.0,0.0,0.0,-0.13295723984816976,0.0,-0.3323584349812237,-0.3504209048413507,-0.5439982327834455,-0.21269057868592578,-1.0934690090919887,-0.14224825636380986
13341,7.0,300.57169,3965.6687,0.0,0.0,0.0,0.0,-0.13296720665775358,0.0,-0.3303549963534997,-0.3211727010322777,-0.5539365747992835,-0.25399411807726774,-1.124531710782639,-0.14129457523718889
13342,7.0,301.03756,3888.1857,0.0,0.0,0.0,0.0,-0.13297717346733742,0.0,-0.3688078376484996,-0.3190481080900967,-0.49405541906447353,-0.22387097280684476,-1.1295065661236188,-0.15715650906013984
13343,7.0,301.12904,3674.9012,0.0,0.0,0.0,0.0,-0.1329871402769212,0.0,-0.3635988911369166,-0.28349849177662273,-0.46998082973599653,-0.24846534930412076,-1.0982173017106092,-0.10778084181964089
13344,7.0,301.63412,3840.6449,0.0,0.0,0.0,0.0,-0.13299710708650503,0.0,-0.3361747705553667,-0.32055516562633174,-0.5107302226476486,-0.22310319267607082,-1.122619809168949,-0.14118812318168286
13345,7.0,300.15846,4188.2287,0.0,0.0,0.0,0.0,-0.13300707389608887,0.0,-0.38162134775059464,-0.3360276973033517,-0.5554678895429125,-0.24722832291953575,-1.1251670185953389,-0.06381244149304764
13346,7.0,299.9009,4184.7036,0.0,0.0,0.0,0.0,-0.1330170407056727,0.0,-0.38246019724338265,-0.33269970774740465,-0.5568855176253215,-0.2191069748116748,-1.128588561533019,-0.12376781070493187
13347,7.0,300.56155,3918.1112,0.0,0.0,0.0,0.0,-0.13302700751525653,0.0,-0.3515556334958397,-0.3215958038765347,-0.5178565423234615,-0.22257028391847677,-1.060138653677539,-0.08003669733975702
13348,7.0,301.08012,3995.9752,0.0,0.0,0.0,0.0,-0.13303697432484032,0.0,-0.4022698446484426,-0.3192528454053027,-0.49315398111300857,-0.24368789534762275,-1.103103902967879,-0.14115642871855485
13349,7.0,299.8341,4360.3986,0.0,0.0,0.0,0.0,-0.13304694113442414,0.0,-0.4316349369890516,-0.3330163585361557,-0.5608010098542505,-0.26460204615668875,-1.1053997250444592,-0.09302148825200611
13350,7.0,299.52428,4228.3741,0.0,0.0,0.0,0.0,-0.13305690794400798,0.0,-0.3818460562252716,-0.34401745805187967,-0.5594566194890694,-0.24530552886727078,-1.131228483343559,-0.14979864147147487
13351,7.0,300.14101,4039.1966,0.0,0.0,0.0,0.0,-0.1330668747535918,0.0,-0.35094264758284266,-0.3118142319161687,-0.5650580382943864,-0.23033691686248378,-1.075119961706079,-0.0953668075959711
13352,7.0,300.16854,3927.4165,0.0,0.0,0.0,0.0,-0.13307684156317562,0.0,-0.3510408213850317,-0.3092941775924587,-0.5335015393000024,-0.24309197256630977,-1.111041602926269,-0.1253331503869189
13353,7.0,300.35944,3845.4198,0.0,0.0,0.0,0.0,-0.13308680837275944,0.0,-0.3239391068528007,-0.3263832180815157,-0.5185892640007754,-0.25905128985637177,-1.1124570119909591,-0.11571326274500988
13354,7.0,301.02103,3968.1967,0.0,0.0,0.0,0.0,-0.13309677518234325,0.0,-0.38602865131306163,-0.3279930495753937,-0.4922110100399445,-0.2251206850826818,-1.1359847806379688,-0.15245473475361088
13355,7.0,300.1184,4141.7053,0.0,0.0,0.0,0.0,-0.13310674199192707,0.0,-0.37017485388841365,-0.35860474351403265,-0.5301953852837106,-0.2147828894799208,-1.079253211513999,-0.12076800272387389
13356,7.0,300.67421,3927.9542,0.0,0.0,0.0,0.0,-0.1331167088015109,0.0,-0.3342017800931477,-0.3431022196340527,-0.5166959859239235,-0.18138183960599383,-1.115075148924349,-0.15160398970464886
13357,7.0,301.06347,3781.6155,0.0,0.0,0.0,0.0,-0.13312667561109473,0.0,-0.28215197358623173,-0.3227022020582277,-0.5446625195490055,-0.26391013819340275,-1.119340425220299,-0.09879977695502881
13358,7.0,300.61717999999996,4019.0601,0.0,0.0,0.0,0.0,-0.13313664242067852,0.0,-0.32828687183939165,-0.36985061385641366,-0.5235564186409954,-0.2367590378512978,-1.1391300102733788,-0.14416965213093685
13359,7.0,300.16578,4163.4816,0.0,0.0,0.0,0.0,-0.13314660923026236,0.0,-0.37790779626659565,-0.3397991357655637,-0.5478875020997864,-0.26540135863057474,-1.0813901559748988,-0.1106682904971099
13360,7.0,300.5311,4203.2516,0.0,0.0,0.0,0.0,-0.13315657603984618,0.0,-0.4037642365584276,-0.35486685376263166,-0.5190524408864875,-0.23745609312509178,-1.129414765664559,-0.13354490409985587
13361,7.0,299.97481,4161.2372,0.0,0.0,0.0,0.0,-0.13316654284943,0.0,-0.3601533544368687,-0.3441975125946497,-0.5605613356755964,-0.26988989445355877,-1.113178344737149,-0.11544547087608088
13362,7.0,299.91342000000003,4074.8356,0.0,0.0,0.0,0.0,-0.13317650965901384,0.0,-0.37455725176342264,-0.3091220162679677,-0.5549690158561774,-0.22586698431133578,-1.1451028156378489,-0.12268814206087689
13363,7.0,300.07525,3994.6242,0.0,0.0,0.0,0.0,-0.13318647646859763,0.0,-0.3475661030821037,-0.29959273345000076,-0.5671071745016204,-0.2038361913620658,-1.085655026970809,-0.09127516892990781
13364,7.0,300.17663,4147.7221,0.0,0.0,0.0,0.0,-0.13319644327818145,0.0,-0.39753107658076264,-0.3122731835489637,-0.5509996896494355,-0.1929151284717408,-1.1265423029560688,-0.0968997050362563
13365,7.0,299.49781,4224.2124,0.0,0.0,0.0,0.0,-0.1332064100877653,0.0,-0.4137366643076296,-0.3269568493606287,-0.5433615773481125,-0.24217303578561777,-1.0970584475712388,-0.1036431235787799
13366,7.0,300.08359,3874.6596,0.0,0.0,0.0,0.0,-0.1332163768973491,0.0,-0.36860248225073267,-0.3211890751538937,-0.4880081904801586,-0.23208335473484376,-1.1302522168722091,-0.11863241601810788
13367,7.0,301.0562,3930.7886,0.0,0.0,0.0,0.0,-0.13322634370693295,0.0,-0.3203291196615227,-0.34278376526012366,-0.5317486976870105,-0.25634901263467774,-1.088602875486739,-0.13422088377156988
13368,7.0,300.05087000000003,4325.4223,0.0,0.0,0.0,0.0,-0.13323631051651674,0.0,-0.40190263267970167,-0.33560169656380867,-0.5773160441616574,-0.20385091388601878,-1.128597072833859,-0.1138181608179779
13369,7.0,300.37344,4223.0414,0.0,0.0,0.0,0.0,-0.13324627732610056,0.0,-0.3442075843006437,-0.35890373335354064,-0.5805878084695555,-0.26406373677606176,-1.1350527931959888,-0.1217532567236109
13370,7.0,300.41062999999997,3842.0588,0.0,0.0,0.0,0.0,-0.1332562441356844,0.0,-0.3166286492363147,-0.3339843062241847,-0.5172769733987626,-0.22316105938928177,-1.140292005488059,-0.12358426044931689
13371,7.0,300.45997,3872.9987,0.0,0.0,0.0,0.0,-0.13326621094526822,0.0,-0.33810382649324966,-0.3127513970661597,-0.5264396623305495,-0.23998826591999778,-1.0889453540205387,-0.14717552948009385
13372,7.0,299.77763999999996,4168.8275,0.0,0.0,0.0,0.0,-0.13327617775485204,0.0,-0.39379810109234664,-0.3327948924617987,-0.5406264809556796,-0.21030802240078578,-1.091598245432359,-0.13489120950772587
13373,7.0,299.50425,4101.2845,0.0,0.0,0.0,0.0,-0.13328614456443585,0.0,-0.34419856637475366,-0.3455282950109877,-0.5569612175402925,-0.24975631099152876,-1.083411589924399,-0.15958099363441786
13374,7.0,300.15747999999996,3900.3456,0.0,0.0,0.0,0.0,-0.13329611137401967,0.0,-0.3481610531433207,-0.3115028500279377,-0.5259437574666075,-0.25171202553954275,-1.122614033643379,-0.13334193997232488
13375,7.0,300.35442,3746.0748,0.0,0.0,0.0,0.0,-0.1333060781836035,0.0,-0.3163863710049037,-0.3172986507324387,-0.5050281881074016,-0.24295891256317775,-1.103312125863429,-0.12117442747148488
13376,7.0,299.06426,3811.7369,0.0,0.0,0.0,0.0,-0.13331604499318733,0.0,-0.35132253531033464,-0.30840433122213773,-0.4989459618646326,-0.2289909964896518,-1.135691546059029,-0.1019251681667309
13377,7.0,299.00259,4260.3698,0.0,0.0,0.0,0.0,-0.13332601180277115,0.0,-0.41910107378205563,-0.3441789498528177,-0.5317660242637204,-0.24445645568097377,-1.1319915619938687,-0.1055049301075259
13378,7.0,297.95427,4279.6835,0.0,0.0,0.0,0.0,-0.13333597861235494,0.0,-0.4124752591256386,-0.3251301418153467,-0.5633115294945193,-0.23425468890413775,-1.1555209518410388,-0.1073743258795209
13379,7.0,298.42856,3896.3544,0.0,0.0,0.0,0.0,-0.13334594542193878,0.0,-0.3253970014941837,-0.3183231276435467,-0.5406743164929005,-0.21849068570335178,-1.076203126062979,-0.11075570358323689
13380,7.0,300.65711,3972.4646,0.0,0.0,0.0,0.0,-0.1333559122315226,0.0,-0.37708464201785663,-0.27545829143811673,-0.5549870922379615,-0.22120392629112778,-1.076662331008299,-0.09580154052487591
13381,7.0,299.61686000000003,4251.4369,0.0,0.0,0.0,0.0,-0.13336587904110642,0.0,-0.38193425964647665,-0.3269241619124027,-0.5834722275292255,-0.23521857345926575,-1.083542096537279,-0.1079841403197049
13382,7.0,299.42383,4123.6188,0.0,0.0,0.0,0.0,-0.13337584585069026,0.0,-0.4091767551476016,-0.3091832976340157,-0.5351171057894465,-0.26110673861172873,-1.1010650411166591,-0.11099358430921388
13383,7.0,300.54705,3996.8099,0.0,0.0,0.0,0.0,-0.13338581266027405,0.0,-0.3682350878969737,-0.3285932280071267,-0.5181020933526954,-0.25005778329378175,-1.100803217290819,-0.13075695658220687
13384,7.0,299.88942000000003,4106.9115,0.0,0.0,0.0,0.0,-0.13339577946985787,0.0,-0.3613587876833356,-0.3628480930778186,-0.5241916453936876,-0.2604550972074168,-1.1238384450642187,-0.12032614462026588
13385,7.0,300.19255,4189.0054,0.0,0.0,0.0,0.0,-0.1334057462794417,0.0,-0.3413301060041587,-0.3769773084347636,-0.5550456074312364,-0.24397387505584675,-1.1376436737016888,-0.14721618107410586
13386,7.0,300.698,3991.8408,0.0,0.0,0.0,0.0,-0.13341571308902553,0.0,-0.33922194797859967,-0.33854688023197566,-0.5356510987246474,-0.21452817866978283,-1.124350035039709,-0.11794927266818689
13387,7.0,301.10415,3831.2597,0.0,0.0,0.0,0.0,-0.13342567989860937,0.0,-0.3088838416994617,-0.33766835186527167,-0.5180550684155546,-0.18970146392457682,-1.088998347000769,-0.14409875502143987
13388,7.0,300.10841,3850.5763,0.0,0.0,0.0,0.0,-0.13343564670819316,0.0,-0.35961909805664166,-0.3040790806527687,-0.5067808574678765,-0.22141798550725378,-1.105682117847329,-0.08829502104054011
13389,7.0,300.15513,3833.1716,0.0,0.0,0.0,0.0,-0.13344561351777698,0.0,-0.3645765052308997,-0.3026268602119457,-0.4979850967948025,-0.2414874201054528,-1.142654296771199,-0.14866157220925486
13390,7.0,298.85868,3961.6554,0.0,0.0,0.0,0.0,-0.13345558032736082,0.0,-0.36868130297601165,-0.29952083322290474,-0.5360421929982455,-0.25138397568716675,-1.1320076726704589,-0.12479817459912088
13391,7.0,298.58209,3960.8423,0.0,0.0,0.0,0.0,-0.13346554713694464,0.0,-0.3337948588529877,-0.32227847099890866,-0.5479238068508694,-0.2235225667599598,-1.108943465944199,-0.14819425113063386
13392,7.0,299.36855,3882.5978,0.0,0.0,0.0,0.0,-0.13347551394652846,0.0,-0.34123690725996064,-0.3086339438272987,-0.5303419316456734,-0.24696966043400775,-1.0996006920721388,-0.1064615800569399
13393,7.0,300.22992,4200.512,0.0,0.0,0.0,0.0,-0.13348548075611227,0.0,-0.3771517495719796,-0.3376769442261197,-0.5620220775497604,-0.27131554747675973,-1.119480861684159,-0.1021287098468189
13394,7.0,299.94096,4411.849,0.0,0.0,0.0,0.0,-0.1334954475656961,0.0,-0.47598954468401056,-0.3339130443446517,-0.5311893329693055,-0.24861070003096575,-1.103538587260779,-0.08280432311340043
13395,7.0,299.92987,4139.1842,0.0,0.0,0.0,0.0,-0.1335054143752799,0.0,-0.3897829354510806,-0.3514429094222147,-0.5169828167622316,-0.2254171620619418,-1.0931692897124092,-0.11764162967282489
13396,7.0,300.57282000000004,4153.0572,0.0,0.0,0.0,0.0,-0.13351538118486375,0.0,-0.3721712200304397,-0.3369185163937687,-0.5533359606700075,-0.22149983585033178,-1.1094244557666688,-0.1071214389195629
13397,7.0,300.60516,4178.6669,0.0,0.0,0.0,0.0,-0.13352534799444757,0.0,-0.34065543342507365,-0.3375927431428097,-0.5919622197196225,-0.25276986877644375,-1.161583125864329,-0.1108011174527189
13398,7.0,299.55635,3857.0490000000004,0.0,0.0,0.0,0.0,-0.13353531480403136,0.0,-0.32731537777601266,-0.31491848571753467,-0.5302127219929215,-0.23181573511843176,-1.107196420121779,-0.1044208538255359
13399,7.0,299.39872,3658.5705,0.0,0.0,0.0,0.0,-0.1335452816136152,0.0,-0.3014799016287497,-0.3197881353006317,-0.4908460405652325,-0.2306709043604458,-1.122548982986959,-0.13006871658428287
13400,7.0,299.38704,3902.2365,0.0,0.0,0.0,0.0,-0.13355524842319902,0.0,-0.3869040892669606,-0.3105497160563707,-0.4887286416987615,-0.2314348442733408,-1.1049631155763688,-0.1103087488316259
13401,7.0,298.67882000000003,4050.5373,0.0,0.0,0.0,0.0,-0.13356521523278284,0.0,-0.37022298326816366,-0.3363444088871087,-0.5246947848633434,-0.23690984999618175,-1.149599112956599,-0.14980022214163086
13402,7.0,298.67941,4095.2259,0.0,0.0,0.0,0.0,-0.13357518204236665,0.0,-0.35877773570360566,-0.3494081005713947,-0.5366605896667765,-0.2409545518778628,-1.102243248332939,-0.14978434451256387
13403,7.0,298.92986,4094.9648,0.0,0.0,0.0,0.0,-0.13358514885195047,0.0,-0.3255511067018927,-0.3533569084636116,-0.5658590428959395,-0.2214911421644738,-1.1262300192752488,-0.14926802265910685
13404,7.0,298.11446,3969.06,0.0,0.0,0.0,0.0,-0.13359511566153429,0.0,-0.3337610973596557,-0.3395086977568997,-0.5332253374552435,-0.24077687847282778,-1.109549389503999,-0.1271051221617989
13405,7.0,299.62281,4032.4365,0.0,0.0,0.0,0.0,-0.13360508247111813,0.0,-0.3745052213707876,-0.31527449114016975,-0.5359803036821376,-0.24065575455587376,-1.1339517956373288,-0.1023850519896179
13406,7.0,299.96043,4093.6399,0.0,0.0,0.0,0.0,-0.13361504928070195,0.0,-0.41835730767865165,-0.3264263318732707,-0.4995806617272725,-0.26175176349288776,-1.0859511999750389,-0.1041331414596409
13407,7.0,298.92986,3707.4584,0.0,0.0,0.0,0.0,-0.13362501609028576,0.0,-0.32468651052406367,-0.30629944599440173,-0.4959888218452855,-0.24931284182026175,-1.114675928384949,-0.1230275403143729
13408,7.0,298.17191,3615.2549,0.0,0.0,0.0,0.0,-0.13363498289986958,0.0,-0.29861533213853875,-0.2997409314096267,-0.5005909531369804,-0.24773151305169674,-1.098033295492449,-0.13581892103428386
13409,7.0,300.11855,4139.4521,0.0,0.0,0.0,0.0,-0.1336449497094534,0.0,-0.3336167700154117,-0.33801328246431367,-0.5866600339338374,-0.19430540893395082,-1.1549722769118886,-0.12542736238121688
13410,7.0,300.45866,4426.9525,0.0,0.0,0.0,0.0,-0.13365491651903724,0.0,-0.41974698019080164,-0.3499043600728717,-0.5760316787324005,-0.21770800066360682,-1.1033879169709089,-0.1112841033778859
13411,7.0,300.58089,4109.4577,0.0,0.0,0.0,0.0,-0.13366488332862103,0.0,-0.39362528115529066,-0.3104583006323487,-0.5450889559860914,-0.20886655254352382,-1.125177759046399,-0.0936906305120453
13412,7.0,300.98146,3869.0596,0.0,0.0,0.0,0.0,-0.13367485013820488,0.0,-0.39042231652918263,-0.3133902208567067,-0.4722849604633966,-0.25755734377643075,-1.1012025391552291,-0.10526983581932389
13413,7.0,299.92187,4103.2616,0.0,0.0,0.0,0.0,-0.1336848169477887,0.0,-0.36697274039238964,-0.3219514343966327,-0.5583649033013255,-0.23773880003549278,-1.1174100824547888,-0.1254843779643439
13414,7.0,299.58588,4287.8697,0.0,0.0,0.0,0.0,-0.1336947837573725,0.0,-0.4062397788052446,-0.3425826249827727,-0.5545829270380734,-0.2665815214195477,-1.089855556585369,-0.13284253939553786
13415,7.0,299.47386,3961.1292,0.0,0.0,0.0,0.0,-0.13370475056695633,0.0,-0.3172629134014117,-0.31815641760459373,-0.5686650262653684,-0.2247386188674748,-1.129248491323149,-0.13592902079014987
13416,7.0,299.42533,3656.0782,0.0,0.0,0.0,0.0,-0.13371471737654014,0.0,-0.3206967166653017,-0.30868048240439167,-0.4819792814576515,-0.2704266535615327,-1.126422739444269,-0.11888727881576089
13417,7.0,299.8177,3750.5005,0.0,0.0,0.0,0.0,-0.133724684186124,0.0,-0.34593133550326466,-0.3034884673019797,-0.49063870932977055,-0.1985417974695498,-1.151570998976209,-0.1160756820407779
13418,7.0,299.84181,4059.3297,0.0,0.0,0.0,0.0,-0.13373465099570778,0.0,-0.40109508248250264,-0.3318367631672387,-0.5010030216876485,-0.2354166638538158,-1.085402626370899,-0.11438262218368589
13419,7.0,300.19653999999997,4333.2214,0.0,0.0,0.0,0.0,-0.13374461780529162,0.0,-0.3956135615615186,-0.35912076139245963,-0.5624567922401635,-0.19798109526171281,-1.0950377228968091,-0.12015408462078489
13420,7.0,300.50374,4088.4145,0.0,0.0,0.0,0.0,-0.1337545846148754,0.0,-0.34718011558900963,-0.3504978206564417,-0.5450979941769835,-0.25506711953566474,-1.0840974589170889,-0.13449264758089086
13421,7.0,300.26934,3731.157,0.0,0.0,0.0,0.0,-0.13376455142445925,0.0,-0.3009096242074677,-0.3138827718628177,-0.5193861548069225,-0.2369454657371968,-1.145827188134339,-0.14096183403684986
13422,7.0,299.96297000000004,4058.2435,0.0,0.0,0.0,0.0,-0.13377451823404307,0.0,-0.3894211443703746,-0.32749957651169165,-0.5166839890427395,-0.24290814873316777,-1.121254049359159,-0.12814559829198588
13423,7.0,299.66935,4244.2199,0.0,0.0,0.0,0.0,-0.1337844850436269,0.0,-0.4505557512738906,-0.28680826309577173,-0.5527728469269325,-0.24147840217956276,-1.160151403473029,-0.08935010722391902
13424,7.0,298.65566,3918.4163,0.0,0.0,0.0,0.0,-0.1337944518532107,0.0,-0.3759766834310096,-0.3206343105916427,-0.4944897284548365,-0.2385253455581188,-1.1116209793334488,-0.11796625473986289
13425,7.0,299.66438999999997,3795.7891,0.0,0.0,0.0,0.0,-0.13380441866279452,0.0,-0.3156464045893747,-0.3105756653914317,-0.5276030456978664,-0.25085921346037676,-1.149760219722499,-0.12726004810208888
13426,7.0,299.08056,4137.9853,0.0,0.0,0.0,0.0,-0.13381438547237837,0.0,-0.37220604543637664,-0.3267702289572107,-0.5588679211809694,-0.22357480993511578,-1.077525620093499,-0.12917233475081688
13427,7.0,299.25982,4488.887,0.0,0.0,0.0,0.0,-0.13382435228196218,0.0,-0.3802608973713286,-0.37200233150377165,-0.6122463417490094,-0.2110556084570668,-1.1139764818409188,-0.12415288627293587
13428,7.0,300.62878,4474.5874,0.0,0.0,0.0,0.0,-0.133834319091546,0.0,-0.4264331845531786,-0.35696745294244464,-0.5767622016569974,-0.2284127549225838,-1.108921985042079,-0.0961896882671831
13429,7.0,300.54421,4036.0291,0.0,0.0,0.0,0.0,-0.13384428590112982,0.0,-0.37776285083979066,-0.32493365235595467,-0.5241555635576265,-0.2502964948848408,-1.169885899833749,-0.09601173115212011
13430,7.0,300.37205,3765.0849,0.0,0.0,0.0,0.0,-0.13385425271071363,0.0,-0.35553513273358567,-0.3093606670640207,-0.4795959854999386,-0.2454893223029098,-1.1254689671251388,-0.08157584349340892
13431,7.0,300.72872,4080.2538,0.0,0.0,0.0,0.0,-0.13386421952029745,0.0,-0.35727304917260466,-0.33627656166041264,-0.5467456502970944,-0.2137860945615448,-1.120323885767359,-0.12307701731675588
13432,7.0,299.73351,4251.9569,0.0,0.0,0.0,0.0,-0.1338741863298813,0.0,-0.38181932668763363,-0.3456867065316217,-0.5649826930169505,-0.23280941935900076,-1.0968296556986592,-0.11932999818195389
13433,7.0,299.30687,3991.9846,0.0,0.0,0.0,0.0,-0.13388415313946508,0.0,-0.3243086087667677,-0.3432566085517897,-0.5458984212259795,-0.20644085206912582,-1.123722833227809,-0.15864227821177385
13434,7.0,299.69932,3707.7905,0.0,0.0,0.0,0.0,-0.1338941199490489,0.0,-0.36382816936954465,-0.2856156373305687,-0.4776319116385995,-0.23237034769316778,-1.108171268042989,-0.13001408213889087
13435,7.0,298.36739,4031.0485,0.0,0.0,0.0,0.0,-0.13390408675863275,0.0,-0.3712584640753577,-0.3322876290642357,-0.5217920158443625,-0.23283048482857974,-1.128310627030589,-0.1250794730918829
13436,7.0,298.92365,4502.4723,0.0,0.0,0.0,0.0,-0.13391405356821656,0.0,-0.43357745902076356,-0.37130366516231866,-0.5637580181510845,-0.26274703853611375,-1.107320137958989,-0.11117573627969089
13437,7.0,298.29745,4282.803,0.0,0.0,0.0,0.0,-0.1339240203778004,0.0,-0.36159515866666364,-0.36487291128265265,-0.5753971004597724,-0.2565395340509808,-1.1424873131547189,-0.1135821748696879
13438,7.0,297.97625,3866.5408,0.0,0.0,0.0,0.0,-0.1339339871873842,0.0,-0.3131276269607907,-0.3336720022783627,-0.5285322264370695,-0.23500139343283177,-1.112448298040099,-0.13355463130081588
13439,7.0,299.07358999999997,3894.7509,0.0,0.0,0.0,0.0,-0.133943953996968,0.0,-0.3155568434130357,-0.3109890714322317,-0.5573610966922575,-0.24434195841967377,-1.131810088900959,-0.1130352022007059
13440,7.0,300.01361,4093.0813,0.0,0.0,0.0,0.0,-0.13395392080655183,0.0,-0.4055162270413356,-0.34330197175876664,-0.49537631215983546,-0.19845980527145782,-1.1065237233803888,-0.1177965454806139
13441,7.0,299.87782000000004,4124.0007,0.0,0.0,0.0,0.0,-0.13396388761613567,0.0,-0.39073086131713364,-0.3236009852944307,-0.5392614000234565,-0.2145419588711428,-1.1319942977691388,-0.1091451222842849
13442,7.0,300.49401,4147.2382,0.0,0.0,0.0,0.0,-0.1339738544257195,0.0,-0.4066192814976986,-0.33545006368634367,-0.5185875110781025,-0.2102034245929628,-1.099634534625479,-0.1139443307204299
13443,7.0,299.80147,3837.0042,0.0,0.0,0.0,0.0,-0.13398382123530328,0.0,-0.32474552220988767,-0.3123807907095837,-0.5292271538856536,-0.22654288292304178,-1.120103605195619,-0.13476218223999187
13444,7.0,299.07052000000004,4060.7121,0.0,0.0,0.0,0.0,-0.13399378804488712,0.0,-0.34318022975925166,-0.33346497501793065,-0.5577098776416796,-0.26481748339295075,-1.1128674796064688,-0.1283839147155059
13445,7.0,299.08932000000004,4568.6354,0.0,0.0,0.0,0.0,-0.13400375485447094,0.0,-0.3881661226640136,-0.38054780926964465,-0.6200371609729034,-0.26152917271091974,-1.116781766067779,-0.12259457854664288
13446,7.0,299.32442000000003,4338.4198,0.0,0.0,0.0,0.0,-0.13401372166405479,0.0,-0.4317625051766416,-0.3458272949829967,-0.5411814886979545,-0.2812678926089797,-1.1174292328816788,-0.11895197483464588
13447,7.0,299.63363,3702.0657,0.0,0.0,0.0,0.0,-0.1340236884736386,0.0,-0.3263306202688247,-0.3021040231603457,-0.49690089892280054,-0.24231937949756077,-1.0796267968258688,-0.13089686615601487
13448,7.0,300.54068,3692.1938,0.0,0.0,0.0,0.0,-0.1340336552832224,0.0,-0.3493839953515157,-0.2940603879040007,-0.47889033786529656,-0.2617253987252858,-1.1257146802743887,-0.11087025150704188
13449,7.0,300.216,4192.9051,0.0,0.0,0.0,0.0,-0.13404362209280624,0.0,-0.3494322868512817,-0.3392818817220147,-0.5858242849863554,-0.2004725658001018,-1.100333879844499,-0.12282641016952288
13450,7.0,299.35836,4138.0481,0.0,0.0,0.0,0.0,-0.13405358890239005,0.0,-0.34976407559652667,-0.33820288182302566,-0.5698963379193895,-0.22224220366859782,-1.119073737793979,-0.1161037389360469
13451,7.0,299.55755,4007.0753,0.0,0.0,0.0,0.0,-0.13406355571197387,0.0,-0.32054698869802467,-0.34757111867009866,-0.5499327170291335,-0.20383551248449883,-1.120911672150369,-0.14206715817343685
13452,7.0,299.20932,3854.5186,0.0,0.0,0.0,0.0,-0.13407352252155771,0.0,-0.37252792459564366,-0.2843285969210477,-0.5148208855538655,-0.25034917375753973,-1.1430800644632189,-0.12191719045728988
13453,7.0,298.35511,3920.63,0.0,0.0,0.0,0.0,-0.1340834893311415,0.0,-0.35134211130226667,-0.3040329068457117,-0.5363985935884195,-0.25202449160538076,-1.137222769610149,-0.13541370205429187
13454,7.0,299.22354,4284.6902,0.0,0.0,0.0,0.0,-0.13409345614072532,0.0,-0.42185258482610855,-0.3295731928413417,-0.5510130544182544,-0.2133723541482118,-1.1406822081015688,-0.12631238568106187
13455,7.0,300.03078999999997,4166.4426,0.0,0.0,0.0,0.0,-0.13410342295030916,0.0,-0.37363335005724063,-0.3043646347959507,-0.5884965294750855,-0.2432681666261988,-1.113640589432769,-0.11175932780728688
13456,7.0,300.57381000000004,3774.2291,0.0,0.0,0.0,0.0,-0.13411338975989298,0.0,-0.33001206185715465,-0.31607041935872165,-0.5011889226834955,-0.2127964430563738,-1.1189056396023889,-0.12899928176623787
13457,7.0,300.97512,3718.0851,0.0,0.0,0.0,0.0,-0.13412335656947683,0.0,-0.32960978130245266,-0.2873608998328127,-0.5132343486797865,-0.27267519738844676,-1.1117718522733389,-0.10598608205001189
13458,7.0,299.75267,4246.7793,0.0,0.0,0.0,0.0,-0.13413332337906061,0.0,-0.4114279840872806,-0.34939762356536064,-0.5300892574682365,-0.23909494410183377,-1.1015545422399688,-0.1216164274301069
13459,7.0,299.92905,4458.4816,0.0,0.0,0.0,0.0,-0.13414329018864443,0.0,-0.40437039316575063,-0.38188249269886765,-0.5690141922498284,-0.2697931392015097,-1.0797080594838888,-0.10114244664998231
13460,7.0,300.23327,4127.8017,0.0,0.0,0.0,0.0,-0.13415325699822828,0.0,-0.38061459258373564,-0.32548608644297566,-0.5486479665648385,-0.25416561065669274,-1.130471990818899,-0.1182341276687999
13461,7.0,299.17624,3801.2443,0.0,0.0,0.0,0.0,-0.1341632238078121,0.0,-0.3034897642621077,-0.30698769612482674,-0.5450058694778915,-0.25054824700468675,-1.1342305407398388,-0.1064842464616769
13462,7.0,300.05226,3914.9283,0.0,0.0,0.0,0.0,-0.1341731906173959,0.0,-0.3369093768778667,-0.3087616032073977,-0.5443694774875845,-0.21461714202856277,-1.177443327029609,-0.12109900113404089
13463,7.0,300.41107,4059.7634,0.0,0.0,0.0,0.0,-0.1341831574269797,0.0,-0.3644497780408927,-0.3146458707781297,-0.5549710423563775,-0.1891372761363958,-1.142465426952559,-0.13872008911810688
13464,7.0,299.77657,4077.9564,0.0,0.0,0.0,0.0,-0.13419312423656354,0.0,-0.4133454991065246,-0.30606335872110174,-0.5201880713335655,-0.1994539049445678,-1.1786069434444488,-0.14287066550273686
13465,7.0,300.10224,3919.9811,0.0,0.0,0.0,0.0,-0.13420309104614736,0.0,-0.35256407065786466,-0.3122117096653967,-0.5268006022811714,-0.22129251474737077,-1.112594003404479,-0.1326321988072789
13466,7.0,299.65071,3673.865,0.0,0.0,0.0,0.0,-0.1342130578557312,0.0,-0.34050327365755667,-0.2982582222732947,-0.4780017276600975,-0.23406653849306877,-1.1209465279538091,-0.12161223257469288
13467,7.0,299.05011,4129.6193,0.0,0.0,0.0,0.0,-0.13422302466531502,0.0,-0.32001133403265963,-0.36700703890827463,-0.5682827776651435,-0.25067566320476176,-1.068838115061109,-0.14259802016582887
13468,7.0,299.03805,4466.1272,0.0,0.0,0.0,0.0,-0.1342329914748988,0.0,-0.4194905569879946,-0.3619498063341646,-0.5761507862816555,-0.25742681689854874,-1.1240196141820988,-0.11443560503141488
13469,7.0,298.99453,4079.4334,0.0,0.0,0.0,0.0,-0.13424295828448266,0.0,-0.35493601821445764,-0.35557863156037867,-0.5295312505056655,-0.2729210929227147,-1.1291023806587288,-0.12420427831800789
13470,7.0,299.12189,3769.4206,0.0,0.0,0.0,0.0,-0.13425292509406647,0.0,-0.36466509368714267,-0.3054807500461027,-0.47566388610187055,-0.24890237420475175,-1.129299153828149,-0.1122078834940559
13471,7.0,300.12007,3983.5129,0.0,0.0,0.0,0.0,-0.1342628919036503,0.0,-0.3573471177549147,-0.33222337887539466,-0.5213179566525765,-0.24941203900505177,-1.092687894589899,-0.12078479227803089
13472,7.0,299.24494,4231.1964,0.0,0.0,0.0,0.0,-0.13427285871323413,0.0,-0.3949709887456016,-0.3439464494848717,-0.5472606245279185,-0.2118137323143878,-1.1479596742947988,-0.11506927137895288
13473,7.0,299.50166,4011.5224,0.0,0.0,0.0,0.0,-0.13428282552281792,0.0,-0.3211477345498137,-0.31838216972687367,-0.5798727477414845,-0.23747442281940076,-1.1157547357664188,-0.13239407490127786
13474,7.0,300.30126,3944.3587,0.0,0.0,0.0,0.0,-0.13429279233240174,0.0,-0.3640839643572897,-0.3155161310240177,-0.5193864385169505,-0.19167824394216984,-1.1660725330823989,-0.12661489149841687
13475,7.0,300.6912,3939.5237,0.0,0.0,0.0,0.0,-0.13430275914198558,0.0,-0.34774787001754265,-0.3174864465059727,-0.5322824981046924,-0.23186694477848577,-1.112090519429789,-0.1276480924928859
13476,7.0,299.76805,4206.5893,0.0,0.0,0.0,0.0,-0.1343127259515694,0.0,-0.4194623683702126,-0.33958876477980166,-0.5196469856476644,-0.22742846351044177,-1.1551006556995589,-0.12831730365393187
13477,7.0,300.39588,4423.37,0.0,0.0,0.0,0.0,-0.13432269276115325,0.0,-0.4002896905080166,-0.37122379065693567,-0.5730805371536455,-0.23915994409574878,-1.1062660538799591,-0.0997151035256145
13478,7.0,301.49405,4030.49,0.0,0.0,0.0,0.0,-0.13433265957073703,0.0,-0.37718526788528767,-0.3103508150617407,-0.5376322458501716,-0.24454455777716877,-1.112979038442479,-0.1090513054575259
13479,7.0,300.62161000000003,3699.7735,0.0,0.0,0.0,0.0,-0.13434262638032085,0.0,-0.27501237020160774,-0.3385342247382267,-0.5110921555833685,-0.24791925816272575,-1.074394373309469,-0.12402530795284487
13480,7.0,299.48389,4023.0591,0.0,0.0,0.0,0.0,-0.1343525931899047,0.0,-0.37015697002414866,-0.33500825624524067,-0.5177442944773836,-0.24294972238477078,-1.1192445717608388,-0.1176047372366839
13481,7.0,298.48212,4397.1991,0.0,0.0,0.0,0.0,-0.1343625599994885,0.0,-0.3934978345577126,-0.36994530207825865,-0.5731956119675025,-0.2531152148080268,-1.081421060102949,-0.1101438423778509
13482,7.0,298.86045,4275.3175,0.0,0.0,0.0,0.0,-0.13437252680907233,0.0,-0.41746252678034357,-0.35263939567029867,-0.5294878530038825,-0.22829066841803478,-1.1223460289919291,-0.1296540439808579
13483,7.0,300.62896,3997.8682,0.0,0.0,0.0,0.0,-0.13438249361865612,0.0,-0.34935321281347764,-0.3225995902206007,-0.5432992928644655,-0.2316152129236418,-1.108873855662329,-0.13108812724489088
13484,7.0,300.18194,3922.0519,0.0,0.0,0.0,0.0,-0.13439246042823996,0.0,-0.35647326047117167,-0.3060995418821727,-0.5296330314782105,-0.21605607876057478,-1.150051123826209,-0.11669153545155789
13485,7.0,299.67175,4057.9587,0.0,0.0,0.0,0.0,-0.13440242723782378,0.0,-0.3333735899914117,-0.3374680829830067,-0.5626764445968414,-0.2181803778602268,-1.122609271367909,-0.12067489517218488
13486,7.0,301.54435,4238.5699,0.0,0.0,0.0,0.0,-0.13441239404740762,0.0,-0.41186323580023665,-0.3311814132675607,-0.5453747634417985,-0.2041515755881918,-1.158272837787629,-0.12094318353366287
13487,7.0,301.21162999999996,4124.3335,0.0,0.0,0.0,0.0,-0.13442236085699144,0.0,-0.3761173428098916,-0.34285035605669567,-0.5347267005259165,-0.23026437828782476,-1.113373294056389,-0.1285818531225409
13488,7.0,299.89904,3859.6433,0.0,0.0,0.0,0.0,-0.13443232766657523,0.0,-0.38226817621693165,-0.31261927938562073,-0.4783477323042456,-0.2243321434573588,-1.1337373919161688,-0.11409659181295688
13489,7.0,300.01265,4035.5033,0.0,0.0,0.0,0.0,-0.13444229447615907,0.0,-0.34507886792913267,-0.3430563295370237,-0.5385570290839405,-0.26796939034651973,-1.1000488525913688,-0.1022820247194499
13490,7.0,299.15328,4386.1303,0.0,0.0,0.0,0.0,-0.1344522612857429,0.0,-0.4006046998316056,-0.3516078868034967,-0.5810615130238064,-0.25788310368358075,-1.1199793807333591,-0.1068349323212869
13491,7.0,299.7999,4476.0791,0.0,0.0,0.0,0.0,-0.1344622280953267,0.0,-0.3555298942305687,-0.37694645496921864,-0.6281399193725834,-0.27557656812228976,-1.0938128048509188,-0.08359594197927712
13492,7.0,299.68447000000003,3954.3204,0.0,0.0,0.0,0.0,-0.13447219490491055,0.0,-0.3467411148506837,-0.3119847821730007,-0.5432887550634254,-0.23619974406109978,-1.1286189590360187,-0.12718479401716187
13493,7.0,298.76427,3984.2306,0.0,0.0,0.0,0.0,-0.13448216171449434,0.0,-0.34199864842013866,-0.3391614265501267,-0.5299465411916515,-0.24778869075483975,-1.106138587017379,-0.10190105281435091
13494,7.0,300.24197000000004,4323.0449,0.0,0.0,0.0,0.0,-0.13449212852407816,0.0,-0.4344802344623606,-0.3307837024708096,-0.5488337561031745,-0.23248873583485177,-1.155579619021829,-0.13498378003686187
13495,7.0,300.85274,4273.4261,0.0,0.0,0.0,0.0,-0.134502095333662,0.0,-0.39854919028124264,-0.34240120255236767,-0.5580644341166715,-0.22690725779150275,-1.118309747218579,-0.13101303527997987
13496,7.0,300.36997,3918.7667,0.0,0.0,0.0,0.0,-0.13451206214324582,0.0,-0.35358038077316667,-0.3301211280979187,-0.5075057264569155,-0.19003595804758883,-1.1505702118524388,-0.15914960240434284
13497,7.0,300.68008,3863.3652,0.0,0.0,0.0,0.0,-0.13452202895282966,0.0,-0.3218520750918267,-0.3180123030428707,-0.5345021845687585,-0.2175576748787708,-1.1102414393222988,-0.13563618137874886
13498,7.0,300.14044,4082.9376,0.0,0.0,0.0,0.0,-0.13453199576241345,0.0,-0.37508813402081664,-0.35714335315980467,-0.5088795922675056,-0.2248656702975138,-1.120896777373899,-0.16057946041545884
13499,7.0,299.60954,4285.2862,0.0,0.0,0.0,0.0,-0.13454196257199727,0.0,-0.3871238936111536,-0.3727163283192376,-0.5427797894056945,-0.25430831680077676,-1.1134383447128091,-0.12951494500712987
13500,7.0,300.34409,4248.929,0.0,0.0,0.0,0.0,-0.13455192938158111,0.0,-0.3970195271352766,-0.35172575818762963,-0.5428230247874615,-0.24514281103371177,-1.107872561913509,-0.11507872500238588
13501,7.0,300.33927,3772.0813,0.0,0.0,0.0,0.0,-0.13456189619116493,0.0,-0.3081458308566257,-0.3235588948852767,-0.5149137803230335,-0.2636060010433867,-1.1038024375868187,-0.1178010443110579
13502,7.0,300.15776,3772.441,0.0,0.0,0.0,0.0,-0.13457186300074875,0.0,-0.3149050398887077,-0.30907797028612066,-0.5227448762384025,-0.22482763288875982,-1.118553231217609,-0.1024768423161769
13503,7.0,300.08158,4260.6744,0.0,0.0,0.0,0.0,-0.13458182981033256,0.0,-0.35949771069466163,-0.3277369607451197,-0.6079039773854513,-0.2605083536326728,-1.1321484131093489,-0.1270135243527589
13504,7.0,298.05424,4407.0025,0.0,0.0,0.0,0.0,-0.13459179661991638,0.0,-0.41603754250220865,-0.36336007822084765,-0.5602211065570185,-0.22039832153412078,-1.1394192931769291,-0.11784700533559389
13505,7.0,299.24596,4177.6297,0.0,0.0,0.0,0.0,-0.1346017634295002,0.0,-0.3926936280858436,-0.3325109696512777,-0.5446905156492685,-0.23337001010932676,-1.131251889420869,-0.14335045969008886
13506,7.0,299.77419,4080.6558,0.0,0.0,0.0,0.0,-0.13461173023908404,0.0,-0.4031828437835486,-0.32811301838723367,-0.5091215969213895,-0.22912169562005077,-1.1392172511069887,-0.11560734771205688
13507,7.0,299.63096,4080.9849,0.0,0.0,0.0,0.0,-0.13462169704866786,0.0,-0.3726010407228596,-0.3236137522456907,-0.5443027043059945,-0.23880697842341375,-1.112139966034669,-0.11977345722071987
13508,7.0,300.00551,4152.8365,0.0,0.0,0.0,0.0,-0.13463166385825165,0.0,-0.3841166889043656,-0.3038582326609727,-0.5743836882397565,-0.23762143527640978,-1.115421579133539,-0.0967092778522126
13509,7.0,300.89836,4147.1158,0.0,0.0,0.0,0.0,-0.1346416306678355,0.0,-0.33746824510302265,-0.3387148770985557,-0.5844365173843935,-0.23382856657458276,-1.119743496110079,-0.08582863452162673
13510,7.0,300.26268,4037.5058,0.0,0.0,0.0,0.0,-0.1346515974774193,0.0,-0.35871138808705766,-0.3052119753245767,-0.5633775934010395,-0.24557087880345874,-1.1303461451564791,-0.10053524538180621
13511,7.0,300.38022,4167.8691,0.0,0.0,0.0,0.0,-0.13466156428700313,0.0,-0.36394172430825167,-0.34486827402834863,-0.5581181465044724,-0.2378728327587208,-1.118339536771519,-0.1143112083166379
13512,7.0,299.62962999999996,4286.5948,0.0,0.0,0.0,0.0,-0.13467153109658694,0.0,-0.3978086767106596,-0.35145331550074166,-0.5537557907164414,-0.2527995367393717,-1.117960682559129,-0.14048563688735288
13513,7.0,299.23277,4406.1451,0.0,0.0,0.0,0.0,-0.13468149790617076,0.0,-0.3997008300799006,-0.35263625459498865,-0.5870210144144634,-0.2280415000859438,-1.107583177684949,-0.13093699085997487
13514,7.0,300.32493999999997,4001.8644,0.0,0.0,0.0,0.0,-0.13469146471575458,0.0,-0.35035675597751964,-0.33718520382008865,-0.5289249013808235,-0.2283140744953448,-1.118517666139099,-0.15050551513873786
13515,7.0,300.25834,3766.9005,0.0,0.0,0.0,0.0,-0.13470143152533842,0.0,-0.31394834940928973,-0.3023942787839917,-0.5287010541687315,-0.1957604158125488,-1.1485795807059789,-0.12855856863524287
13516,7.0,299.24399,4098.099,0.0,0.0,0.0,0.0,-0.13471139833492224,0.0,-0.3811661350106686,-0.3264504370931497,-0.5381031943641505,-0.2123637447336698,-1.1458421842358189,-0.12633596401088887
13517,7.0,299.50856,4232.851,0.0,0.0,0.0,0.0,-0.13472136514450606,0.0,-0.3968649558325216,-0.3402704389170777,-0.5495456250934305,-0.2110543722919448,-1.1641122994389388,-0.13321508105980487
13518,7.0,299.12138,3894.4377,0.0,0.0,0.0,0.0,-0.13473133195408987,0.0,-0.3647059479311746,-0.31772572551708766,-0.5013801229773656,-0.22828510567498578,-1.114874424079539,-0.13140000562567086
13519,7.0,298.17379,3829.1464,0.0,0.0,0.0,0.0,-0.1347412987636737,0.0,-0.3109981602856287,-0.31848250175177567,-0.5344842196444854,-0.2339433982084158,-1.117883472901509,-0.12931274081717387
13520,7.0,298.85372,4154.8147,0.0,0.0,0.0,0.0,-0.13475126557325753,0.0,-0.36638198518658666,-0.35466194419490865,-0.5419159936954445,-0.24866412870873877,-1.104808696261129,-0.1189817846525879
13521,7.0,299.58783,4240.4883,0.0,0.0,0.0,0.0,-0.13476123238284132,0.0,-0.36389409142105067,-0.3283620245993087,-0.5967464421867884,-0.24444478303982176,-1.1196710487279289,-0.10963634593276489
13522,7.0,299.84934,4270.7459,0.0,0.0,0.0,0.0,-0.13477119919242517,0.0,-0.40451698005771763,-0.34599655841220167,-0.5476865644724555,-0.2510692906036098,-1.125641422292159,-0.1111314065878159
13523,7.0,300.0219,4114.6819,0.0,0.0,0.0,0.0,-0.13478116600200898,0.0,-0.37775823041933465,-0.3254819929125717,-0.5475203407935505,-0.2160938831218058,-1.162450467949929,-0.12670988369529188
13524,7.0,299.72541,3837.5513,0.0,0.0,0.0,0.0,-0.1347911328115928,0.0,-0.40420868858229164,-0.27447004835058475,-0.4878410346111616,-0.24554657093355978,-1.1313000188006188,-0.12858542989539387
13525,7.0,300.05978,4211.566,0.0,0.0,0.0,0.0,-0.13480109962117662,0.0,-0.3723707188426287,-0.3522343996053287,-0.5556057726165204,-0.2273248992177208,-1.1422036031267189,-0.12670035914435188
13526,7.0,300.83274,4379.339,0.0,0.0,0.0,0.0,-0.13481106643076043,0.0,-0.4181654690372186,-0.3352438976884967,-0.5778003169144514,-0.2689738353031507,-1.1166928027089988,-0.1002808274009471
13527,7.0,300.56982,3944.8046,0.0,0.0,0.0,0.0,-0.13482103324034425,0.0,-0.3284515047156397,-0.3136188810067737,-0.5570517210392244,-0.21947702388069576,-1.1281551944652488,-0.09608044673415181
13528,7.0,300.07724,3841.5102,0.0,0.0,0.0,0.0,-0.13483100004992807,0.0,-0.34270051663190765,-0.3048444492483047,-0.5201782124100924,-0.23726860132658778,-1.1122620626717188,-0.1114060986899259
13529,7.0,300.96293,4294.1508,0.0,0.0,0.0,0.0,-0.1348409668595119,0.0,-0.37886225759579367,-0.3524353169676577,-0.5740170335585705,-0.21624136167386082,-1.1318756461824289,-0.1055654819335019
13530,7.0,300.36201,4411.4186,0.0,0.0,0.0,0.0,-0.1348509336690957,0.0,-0.4090072384058716,-0.37975472828387363,-0.5521991244553105,-0.26559528456721376,-1.098504456788949,-0.13437406692168785
13531,7.0,299.6142,4267.6257,0.0,0.0,0.0,0.0,-0.13486090047867955,0.0,-0.3575383687112897,-0.3611908617442627,-0.5785224197307174,-0.22995897457518377,-1.139093330619759,-0.15584613350081586
13532,7.0,299.22033,3979.4912,0.0,0.0,0.0,0.0,-0.13487086728826336,0.0,-0.3464822294501336,-0.33151405314288973,-0.5316696743117114,-0.24139387685622077,-1.102422897575669,-0.13878661911967288
13533,7.0,299.69827999999995,3907.2588,0.0,0.0,0.0,0.0,-0.13488083409784718,0.0,-0.3247558776259097,-0.3299839239018777,-0.5329692992874745,-0.2494630054850818,-1.1459082481423388,-0.14271515187738887
13534,7.0,299.58382,4084.6924,0.0,0.0,0.0,0.0,-0.134890800907431,0.0,-0.36850109644572665,-0.33330931953756865,-0.5398340788474755,-0.23981861745575475,-1.112907199010389,-0.1251873943600339
13535,7.0,299.65751,4090.7439,0.0,0.0,0.0,0.0,-0.1349007677170148,0.0,-0.3885553018949226,-0.3075732229601137,-0.5473554850022805,-0.23708657094612276,-1.154631115603219,-0.1206079294730759
13536,7.0,300.4863,3942.49,0.0,0.0,0.0,0.0,-0.13491073452659866,0.0,-0.37128869945834164,-0.32382552151659066,-0.5033042950497666,-0.21330861058442083,-1.115594743575629,-0.12551550500741587
13537,7.0,300.28639,3857.2904,0.0,0.0,0.0,0.0,-0.13492070133618247,0.0,-0.33883198854511365,-0.3057763454977757,-0.5279116208833204,-0.2401507608385348,-1.148500040573129,-0.12158676959967989
13538,7.0,300.45349,4274.4657,0.0,0.0,0.0,0.0,-0.1349306681457663,0.0,-0.38601813377702365,-0.3731356213431187,-0.5401770944038284,-0.25827816989757074,-1.1095422967532989,-0.12988394029604688
13539,7.0,299.71307,4416.5056,0.0,0.0,0.0,0.0,-0.1349406349553501,0.0,-0.39579585538700957,-0.3507266631915267,-0.5959848935441295,-0.24475273001021378,-1.126911632617519,-0.08931021151448161
13540,7.0,299.69512000000003,4154.9976,0.0,0.0,0.0,0.0,-0.13495060176493393,0.0,-0.38058483342829863,-0.3539664087962647,-0.5284642677528625,-0.23806112502480375,-1.112694821789429,-0.1024263824611969
13541,7.0,300.34951,3931.5984,0.0,0.0,0.0,0.0,-0.13496056857451774,0.0,-0.36550137965717766,-0.3201539895142387,-0.5094523825490355,-0.2120319559884248,-1.128152458689979,-0.1086798175733629
13542,7.0,300.81872999999996,3898.9038,0.0,0.0,0.0,0.0,-0.1349705353841016,0.0,-0.3543756402466527,-0.30178481898134274,-0.5290089403441175,-0.2553686019704188,-1.116337354573919,-0.12128544928494189
13543,7.0,299.00962000000004,4019.5723,0.0,0.0,0.0,0.0,-0.13498050219368538,0.0,-0.35503002755873564,-0.33399046678479266,-0.5328291161361396,-0.2254815642382978,-1.1336097224035688,-0.13721044779411687
13544,7.0,299.5046,4192.0717,0.0,0.0,0.0,0.0,-0.1349904690032692,0.0,-0.4065923290450386,-0.3240668878229117,-0.5436259140342005,-0.28753387175738376,-1.1258933162670188,-0.12245060583993389
13545,7.0,300.33172,4299.4086,0.0,0.0,0.0,0.0,-0.13500043581285304,0.0,-0.3898716758948386,-0.3341848182864737,-0.5828563741184455,-0.2329890787342318,-1.1292402839973388,-0.12796675964933588
13546,7.0,300.27115,4067.2085,0.0,0.0,0.0,0.0,-0.13501040262243685,0.0,-0.3660048737643687,-0.34635970724804166,-0.5239652346588425,-0.26939507376722377,-1.117928663855969,-0.13651374715785788
13547,7.0,300.55793,4108.221,0.0,0.0,0.0,0.0,-0.1350203694320207,0.0,-0.34616792940161467,-0.3546922403728987,-0.5479364319471154,-0.22118267843653078,-1.1430356841088387,-0.12988080935323787
13548,7.0,300.77356000000003,4329.9074,0.0,0.0,0.0,0.0,-0.1350303362416045,0.0,-0.38003216629375464,-0.3729142059312666,-0.5632373595871994,-0.24329583848642977,-1.1224591077030888,-0.13091146708995588
13549,7.0,300.1779,4213.6861,0.0,0.0,0.0,0.0,-0.1350403030511883,0.0,-0.35118804662456166,-0.36218225603960563,-0.5674850559939144,-0.2112130776551078,-1.1516235866563989,-0.1272588625994719
13550,7.0,301.06217000000004,3910.9587,0.0,0.0,0.0,0.0,-0.13505026986077212,0.0,-0.3350317129850557,-0.3332068495549557,-0.5205952256212485,-0.2157596524438198,-1.1487007654179389,-0.1266177691287009
13551,7.0,300.80062999999996,3806.7713,0.0,0.0,0.0,0.0,-0.13506023667035597,0.0,-0.3235179190512327,-0.31675912545169166,-0.5168863553527115,-0.2123419193265158,-1.145603969137309,-0.11831516741179787
13552,7.0,299.23356,3857.1348,0.0,0.0,0.0,0.0,-0.13507020347993978,0.0,-0.36597756667417364,-0.28089396279207574,-0.5256011370777935,-0.22775309870998076,-1.111502226421729,-0.1218976245978589
13553,7.0,299.54138,4207.7629,0.0,0.0,0.0,0.0,-0.13508017028952357,0.0,-0.39254999988416867,-0.3185038104013787,-0.5680010333423374,-0.24119292909638876,-1.121418601175399,-0.13465464600687888
13554,7.0,299.9543,4457.4387,0.0,0.0,0.0,0.0,-0.13509013709910742,0.0,-0.42494291657110056,-0.3642177741654956,-0.5657893616865625,-0.26950835512840376,-1.1193971672258989,-0.14730682642805187
13555,7.0,299.24844,4131.5922,0.0,0.0,0.0,0.0,-0.13510010390869123,0.0,-0.3814049377942366,-0.3089236522958907,-0.5655722728526374,-0.2653968496676297,-1.127489590474559,-0.13134074062732187
13556,7.0,300.4855,4032.5788,0.0,0.0,0.0,0.0,-0.13511007071827508,0.0,-0.3853694409305026,-0.3349701276439777,-0.5054636830003815,-0.27991674386563176,-1.1305444382010488,-0.12102387877162689
13557,7.0,301.13558,4247.0717,0.0,0.0,0.0,0.0,-0.1351200375278589,0.0,-0.3847983225116376,-0.3378552458462167,-0.5683501891942965,-0.23648396071414976,-1.121486286282079,-0.1115727783313759
13558,7.0,300.14999,4237.8416,0.0,0.0,0.0,0.0,-0.13513000433744268,0.0,-0.4077677802210466,-0.3440728321698447,-0.5363574252368565,-0.25028367727107576,-1.1434798929526788,-0.10828802415719589
13559,7.0,300.11143,4024.7844,0.0,0.0,0.0,0.0,-0.13513997114702653,0.0,-0.3452017042387557,-0.3327940413317147,-0.5454382131630604,-0.18611168094029282,-1.1217537843084788,-0.10919186351139788
13560,7.0,299.70852,3886.3445,0.0,0.0,0.0,0.0,-0.13514993795661034,0.0,-0.3402252783601207,-0.32462637413062867,-0.5165000334870845,-0.20462485457740082,-1.1378863471006389,-0.13034665108671287
13561,7.0,300.47507,4128.4335,0.0,0.0,0.0,0.0,-0.13515990476619416,0.0,-0.3699989638035547,-0.3303749573804697,-0.5545667656989784,-0.2053858965950098,-1.130921873863299,-0.12498048868961387
13562,7.0,300.5011,4315.601,0.0,0.0,0.0,0.0,-0.135169871575778,0.0,-0.3878561390609206,-0.36111126081640665,-0.5628675536982025,-0.24729321145593977,-1.1566527522027388,-0.13016122631841287
13563,7.0,301.05529,4113.1184,0.0,0.0,0.0,0.0,-0.1351798383853618,0.0,-0.34969800155750563,-0.3301433284076097,-0.5704439590684355,-0.23722358262464477,-1.1380542426422091,-0.13491685486775687
13564,7.0,300.0574,3956.2219,0.0,0.0,0.0,0.0,-0.1351898051949456,0.0,-0.3589332898589576,-0.3062599495055037,-0.5373994212421935,-0.24311393982847776,-1.1352331517137888,-0.14704388802710186
13565,7.0,300.204,4138.2051,0.0,0.0,0.0,0.0,-0.13519977200452946,0.0,-0.3656627903981077,-0.3432873404273227,-0.5489608885932215,-0.26147418362799274,-1.138411818602499,-0.15614921687072783
13566,7.0,300.12124,4241.5098,0.0,0.0,0.0,0.0,-0.13520973881411327,0.0,-0.3775834751745876,-0.3591742103352346,-0.5525553933229714,-0.22926621548181378,-1.1418746008192489,-0.14470240890101585
13567,7.0,300.03166,4149.0355,0.0,0.0,0.0,0.0,-0.13521970562369712,0.0,-0.3683994471956947,-0.3502968222341047,-0.5425069211537645,-0.2667022805664658,-1.129105116433999,-0.1214711172332659
13568,7.0,299.09722,4098.3991,0.0,0.0,0.0,0.0,-0.1352296724332809,0.0,-0.35000633356293565,-0.33742303388356065,-0.5583816117954744,-0.2145225348667258,-1.102831237365969,-0.096099335742516
13569,7.0,299.58817,4118.8203,0.0,0.0,0.0,0.0,-0.13523963924286472,0.0,-0.3780720947703107,-0.3149344140091067,-0.5590120256101915,-0.24863026589039675,-1.119142030850719,-0.09589030528663631
13570,7.0,299.75383999999997,4165.6288,0.0,0.0,0.0,0.0,-0.13524960605244854,0.0,-0.38520567944934064,-0.3193451626219137,-0.5616962872451075,-0.21345834868419877,-1.106838844161489,-0.0987309529552364
13571,7.0,299.80643,4212.4777,0.0,0.0,0.0,0.0,-0.13525957286203238,0.0,-0.36709226337418566,-0.3271745968071187,-0.5862211750505254,-0.2381347173795668,-1.131637228433899,-0.11704559543400089
13572,7.0,299.9009,4209.0703,0.0,0.0,0.0,0.0,-0.1352695396716162,0.0,-0.3854283208938137,-0.3282084969441567,-0.5658154528766375,-0.2142646323187728,-1.1407475627330188,-0.1287319255948519
13573,7.0,300.18987999999996,4022.6805,0.0,0.0,0.0,0.0,-0.1352795064812,0.0,-0.3595189281517557,-0.3065133228255097,-0.5567621848231494,-0.25047787678524175,-1.127663058891679,-0.12778470900386887
13574,7.0,300.36138,3906.0665,0.0,0.0,0.0,0.0,-0.13528947329078383,0.0,-0.35231633100841464,-0.30856595474558873,-0.5264643957654905,-0.2380781982889888,-1.153785862369799,-0.13297890259399586
13575,7.0,300.69313999999997,4019.7068,0.0,0.0,0.0,0.0,-0.13529944010036765,0.0,-0.37566698353794464,-0.3150593882764407,-0.5311641233068175,-0.2391792363776528,-1.1248463249386889,-0.13167691674549986
13576,7.0,301.44972,4191.1099,0.0,0.0,0.0,0.0,-0.1353094069099515,0.0,-0.40645793155177457,-0.3270432390641547,-0.5404915971023675,-0.23106955747978977,-1.142739511104609,-0.12129622013350488
13577,7.0,301.55172000000005,4125.6636,0.0,0.0,0.0,0.0,-0.1353193737195353,0.0,-0.3804077071783176,-0.3246627396767177,-0.5490282697248714,-0.2089931480110178,-1.123264033582529,-0.14649284209271785
13578,7.0,300.18181,3948.821,0.0,0.0,0.0,0.0,-0.1353293405291191,0.0,-0.37009288195532364,-0.31645177629885873,-0.5137983338179475,-0.2363496138833908,-1.142484172079409,-0.12469646455408288
13579,7.0,300.04872,4046.4316,0.0,0.0,0.0,0.0,-0.13533930733870295,0.0,-0.36124909322750964,-0.3196921197211557,-0.5490729439217805,-0.24965533048656277,-1.115966606362329,-0.13421848236883288
13580,7.0,299.86803,4307.1967,0.0,0.0,0.0,0.0,-0.13534927414828676,0.0,-0.3805340594657876,-0.3486177046983887,-0.5801284819342235,-0.25347821165635176,-1.128474976196809,-0.11649896727005289
13581,7.0,299.21303,4113.1165,0.0,0.0,0.0,0.0,-0.13535924095787058,0.0,-0.36018806838529466,-0.3284893090768707,-0.5616073340188285,-0.26270733939719576,-1.0857876614088988,-0.11625632426860588
13582,7.0,300.10216,3867.2563,0.0,0.0,0.0,0.0,-0.13536920776745442,0.0,-0.3438092959513357,-0.29911703279305274,-0.5326230109332984,-0.23231342330254978,-1.1327101589647888,-0.13921527457447785
13583,7.0,299.87002,3925.6226,0.0,0.0,0.0,0.0,-0.1353791745770382,0.0,-0.3196290043724267,-0.3356304120716427,-0.5380318210271064,-0.23470711520628879,-1.124007759155929,-0.12942520144577288
13584,7.0,299.16033,4246.7614,0.0,0.0,0.0,0.0,-0.13538914138662203,0.0,-0.3992681013596936,-0.3345049850530717,-0.5571363172900735,-0.22084117262282682,-1.149447936041679,-0.14965261186706286
13585,7.0,300.32697,4691.5772,0.0,0.0,0.0,0.0,-0.13539910819620588,0.0,-0.4257059141614026,-0.3898825784659146,-0.6105338173574965,-0.21972104490227878,-1.1230496298613688,-0.12428200473317888
13586,7.0,300.3964,4415.6621,0.0,0.0,0.0,0.0,-0.1354090750057897,0.0,-0.43998652934828963,-0.3396598848043207,-0.5626046152972525,-0.23173291205525776,-1.1510848415782289,-0.11884331389392189
13587,7.0,299.91739,3976.0736,0.0,0.0,0.0,0.0,-0.13541904181537354,0.0,-0.3724323548462117,-0.3108494151709487,-0.5253453218250466,-0.2364403706948478,-1.117189801883049,-0.09562966088391271
13588,7.0,300.62741,4199.6562,0.0,0.0,0.0,0.0,-0.13542900862495733,0.0,-0.38128880920027564,-0.3473917632698977,-0.5479100367820104,-0.2340102321850118,-1.1456161281385089,-0.1119131695699699
13589,7.0,300.45576,4408.4337,0.0,0.0,0.0,0.0,-0.13543897543454114,0.0,-0.3960397041560756,-0.3509046000415877,-0.5931094518803455,-0.2401441747128848,-1.113126365007019,-0.09741211067807681
13590,7.0,300.63005,4166.5684,0.0,0.0,0.0,0.0,-0.135448942244125,0.0,-0.38250354408266063,-0.34273746986305464,-0.5412917505738365,-0.23885972822361978,-1.129888865386349,-0.12249777263208889
13591,7.0,300.31241,3853.8046,0.0,0.0,0.0,0.0,-0.1354589090537088,0.0,-0.34238892196115567,-0.3282878546919887,-0.5007835922459926,-0.2516346132319028,-1.1023482210432989,-0.12508157051958987
13592,7.0,298.5761,3932.3782,0.0,0.0,0.0,0.0,-0.13546887586329262,0.0,-0.3474101334942107,-0.3319370242646337,-0.5159976336900015,-0.25282233486662176,-1.1415735642145388,-0.12404953476273588
13593,7.0,298.99596,4473.3123,0.0,0.0,0.0,0.0,-0.1354788426728764,0.0,-0.4232678216382816,-0.38281675995357267,-0.5536906488675125,-0.24926534065557376,-1.1004685407827888,-0.13627664663445788
13594,7.0,299.8608,4602.744000000001,0.0,0.0,0.0,0.0,-0.13548880948246025,0.0,-0.42863806743328364,-0.3591996023827407,-0.6112815959312965,-0.21765207939058778,-1.1128902777337188,-0.12341547324765889
13595,7.0,300.06023,4067.508,0.0,0.0,0.0,0.0,-0.13549877629204407,0.0,-0.34514739403339567,-0.3457303066834247,-0.5455431554759175,-0.23095310464579677,-1.137759589513129,-0.12196035491154988
13596,7.0,300.8474,3744.0407,0.0,0.0,0.0,0.0,-0.13550874310162792,0.0,-0.3184303396366277,-0.3096640544089627,-0.5100004900581295,-0.2154964708628458,-1.159279501761979,-0.13768721236366988
13597,7.0,300.36328,3982.9385,0.0,0.0,0.0,0.0,-0.13551870991121173,0.0,-0.36346184906089163,-0.3150303383960737,-0.5322216625686885,-0.2465160587617408,-1.1414626133285888,-0.1096559421896989
13598,7.0,300.80615,4338.4998,0.0,0.0,0.0,0.0,-0.13552867672079552,0.0,-0.4064264701361696,-0.36623747545732466,-0.5461316612664985,-0.20525229956932478,-1.151413742560689,-0.12208523798637488
13599,7.0,300.91145,4255.1281,0.0,0.0,0.0,0.0,-0.13553864353037937,0.0,-0.3815446345855236,-0.35024355567634763,-0.5616644813244684,-0.2674402204817948,-1.123515522257349,-0.09101132873636882
13600,7.0,300.73256000000003,3979.3763,0.0,0.0,0.0,0.0,-0.13554861033996315,0.0,-0.3246845954813747,-0.35280765598190467,-0.5321387787105085,-0.1997393374977378,-1.155711848159879,-0.14935661111534987
13601,7.0,299.46502999999996,4101.9581,0.0,0.0,0.0,0.0,-0.135558577149547,0.0,-0.3478739689924876,-0.3671539500402736,-0.5318649073409796,-0.24059214271459578,-1.116034696769049,-0.13705241117601988
13602,7.0,299.67517000000004,4444.3563,0.0,0.0,0.0,0.0,-0.13556854395913084,0.0,-0.4175821814846526,-0.3475313384711727,-0.5858598297998634,-0.22080389515164778,-1.1273760051383488,-0.14010635710992086
13603,7.0,299.41399,4354.7844,0.0,0.0,0.0,0.0,-0.13557851076871463,0.0,-0.4169345322857346,-0.35947965457787967,-0.5473315216374155,-0.2589317060795698,-1.133781772270549,-0.12359443348032087
13604,7.0,299.70716,3889.6986,0.0,0.0,0.0,0.0,-0.13558847757829845,0.0,-0.3477598668987267,-0.3004811308726787,-0.5341302508545516,-0.24504571127662875,-1.151300461199509,-0.10887842472546388
13605,7.0,299.62559,3719.4346,0.0,0.0,0.0,0.0,-0.1355984443878823,0.0,-0.3444917705561907,-0.28825958174400573,-0.4978638918178405,-0.2389159230741658,-1.137278599690659,-0.11656536554910588
13606,7.0,299.36274,3984.8751,0.0,0.0,0.0,0.0,-0.1356084111974661,0.0,-0.34847472497677767,-0.32577753770173973,-0.5370502755227355,-0.2100497246852938,-1.1277922482794291,-0.0911478165645891
13607,7.0,299.66205,4349.1355,0.0,0.0,0.0,0.0,-0.13561837800704996,0.0,-0.4077211909814486,-0.3322011988307057,-0.5821062042744094,-0.24590192787613077,-1.117174299156519,-0.12258745539843989
13608,7.0,300.2394,4429.9648,0.0,0.0,0.0,0.0,-0.13562834481663374,0.0,-0.39493867619991263,-0.3808167359786856,-0.5708432708003445,-0.22798100905497382,-1.121695927727769,-0.11552183953611787
13609,7.0,300.16177999999996,4119.608,0.0,0.0,0.0,0.0,-0.13563831162621756,0.0,-0.3683935095501087,-0.36430865256696465,-0.5195558032711656,-0.2577666609820888,-1.128721195971109,-0.15514454899907484
13610,7.0,299.93461,4050.5125,0.0,0.0,0.0,0.0,-0.1356482784358014,0.0,-0.37880643764778466,-0.3364609833111137,-0.5159872478764765,-0.23206121522015877,-1.106679054620719,-0.12157114528313788
13611,7.0,300.36697000000004,4269.4441,0.0,0.0,0.0,0.0,-0.13565824524538522,0.0,-0.3858628329341966,-0.3686438329873137,-0.5432977223268105,-0.2625430003634767,-1.149254607922599,-0.14367292653441385
13612,7.0,299.77702,4117.479,0.0,0.0,0.0,0.0,-0.13566821205496904,0.0,-0.3460287088378747,-0.34938264772888267,-0.5561994358501104,-0.24429972615550577,-1.170623647231559,-0.12172787480860588
13613,7.0,299.91022000000004,3744.0966,0.0,0.0,0.0,0.0,-0.13567817886455283,0.0,-0.3261631097622927,-0.3085928261382407,-0.5033559404073635,-0.24299264365900677,-1.1551744203068388,-0.13868294336944087
13614,7.0,299.83156,3775.7213,0.0,0.0,0.0,0.0,-0.13568814567413667,0.0,-0.34357233728294967,-0.30104893596371674,-0.5031037221924715,-0.2079968090551868,-1.135368319277129,-0.13282791819659487
13615,7.0,299.45804,4148.5482,0.0,0.0,0.0,0.0,-0.1356981124837205,0.0,-0.39303549866958365,-0.3174477707496557,-0.5505717839997045,-0.2422363740493688,-1.1078532088365989,-0.12765164900073686
13616,7.0,299.32342,4575.9386,0.0,0.0,0.0,0.0,-0.13570807929330433,0.0,-0.4437484837895656,-0.35987481198437865,-0.5873477571742104,-0.2368757845278198,-1.120337665968719,-0.13642361856146287
13617,7.0,298.99612,4475.2015,0.0,0.0,0.0,0.0,-0.13571804610288812,0.0,-0.4061570975970846,-0.36541431107608463,-0.5887780914128734,-0.23097493005295075,-1.1135882044025989,-0.11114123511378589
13618,7.0,298.65103,4197.0544,0.0,0.0,0.0,0.0,-0.13572801291247194,0.0,-0.3624291344264707,-0.35471726765036865,-0.5586533350747914,-0.2282035187769338,-1.1153031301968488,-0.11171046888746489
13619,7.0,300.17368999999997,4126.0423,0.0,0.0,0.0,0.0,-0.13573797972205578,0.0,-0.37428331959888766,-0.3353343302599217,-0.5445961820649585,-0.2424925135421478,-1.145723735299129,-0.10115840939205771
13620,7.0,301.02938,4237.8108,0.0,0.0,0.0,0.0,-0.1357479465316396,0.0,-0.37584102950762166,-0.35233808548806167,-0.5600095500686395,-0.25888505604496576,-1.1699401087140988,-0.11536180681532389
13621,7.0,300.31715,4094.7477,0.0,0.0,0.0,0.0,-0.13575791334122342,0.0,-0.3689292858054857,-0.3407389860283197,-0.5350327831161245,-0.26186082973365177,-1.1510011471199688,-0.1103878836644359
13622,7.0,300.30529,3776.1982,0.0,0.0,0.0,0.0,-0.13576788015080724,0.0,-0.34074296810121263,-0.3110615897418887,-0.49606539315534254,-0.24151203195038176,-1.121175623801419,-0.12592419943525088
13623,7.0,300.17708999999996,3781.9984,0.0,0.0,0.0,0.0,-0.13577784696039105,0.0,-0.3298389987400747,-0.3013935727202297,-0.5184004955071455,-0.2290157400570938,-1.133190034212149,-0.11932609716906888
13624,7.0,299.98512,4031.3437,0.0,0.0,0.0,0.0,-0.13578781376997487,0.0,-0.37323737191816064,-0.3086729539561487,-0.5435175064060015,-0.2187833325972338,-1.1339126841834688,-0.12539080431760888
13625,7.0,299.67,4377.3066,0.0,0.0,0.0,0.0,-0.1357977805795587,0.0,-0.4167670521767056,-0.34153835929721166,-0.5722865037127804,-0.21492694324663777,-1.1317835417483388,-0.11387923953400589
13626,7.0,299.94966,4375.9073,0.0,0.0,0.0,0.0,-0.13580774738914253,0.0,-0.42759161312750654,-0.3295215981462497,-0.5730533415209614,-0.2096337956517448,-1.1119350868644489,-0.12287528935434688
13627,7.0,299.63494,4256.7785,0.0,0.0,0.0,0.0,-0.13581771419872635,0.0,-0.3950914439174896,-0.3325600818836247,-0.5663028464397395,-0.2345081128866488,-1.143601178989649,-0.11444495732983789
13628,7.0,300.09649,4120.5148,0.0,0.0,0.0,0.0,-0.13582768100831016,0.0,-0.37509097112109663,-0.3306878591438507,-0.5467547898129964,-0.27212539775168576,-1.148712519119099,-0.13111861594039986
13629,7.0,300.31583,4267.0813,0.0,0.0,0.0,0.0,-0.13583764781789398,0.0,-0.36057015486550364,-0.3695289272146657,-0.5669870739672676,-0.24700345232484278,-1.1244719290267389,-0.1013013556764154
13630,7.0,299.93869,4108.3806,0.0,0.0,0.0,0.0,-0.13584761462747783,0.0,-0.36023043237197566,-0.37018383128429966,-0.5184308524801414,-0.25086695469114073,-1.110028656801299,-0.12698109021705786
13631,7.0,299.4571,4000.3889,0.0,0.0,0.0,0.0,-0.13585758143706161,0.0,-0.34638886858591966,-0.32768809169279667,-0.5419413654779485,-0.2261549499897558,-1.144215005900229,-0.0981734293129631
13632,7.0,300.08186,3909.1018,0.0,0.0,0.0,0.0,-0.13586754824664546,0.0,-0.3307184998268747,-0.3432888501699716,-0.5142619869312065,-0.23799241653552275,-1.1472115917459689,-0.16250741191073284
13633,7.0,300.55766,4048.0684,0.0,0.0,0.0,0.0,-0.13587751505622928,0.0,-0.36025350407675266,-0.3307605294410227,-0.5394976899467765,-0.2187936170857488,-1.1334075790086189,-0.12511999296338186
13634,7.0,300.38584,4483.1735,0.0,0.0,0.0,0.0,-0.1358874818658131,0.0,-0.39701248504708164,-0.36777673408173767,-0.5979835800288844,-0.23092946552096377,-1.1196783441286489,-0.14777735950948984
13635,7.0,300.72411,4340.9992,0.0,0.0,0.0,0.0,-0.1358974486753969,0.0,-0.38824937129222964,-0.3420761519202877,-0.5892298287049564,-0.24823606093899175,-1.1476904537432289,-0.11942318679365088
13636,7.0,299.7838,3963.9017,0.0,0.0,0.0,0.0,-0.13590741548498073,0.0,-0.3615733433920107,-0.3127630798398127,-0.5305907250752274,-0.2419355198296768,-1.160167007524569,-0.12193772903681689
13637,7.0,300.61342,4098.5457,0.0,0.0,0.0,0.0,-0.13591738229456454,0.0,-0.3918661371266766,-0.32324702663699767,-0.5307423883501955,-0.21513983722514882,-1.158559992865969,-0.10766620270332689
13638,7.0,300.09218,4420.9256,0.0,0.0,0.0,0.0,-0.13592734910414836,0.0,-0.4231274966319326,-0.35351753900196464,-0.5672059765188715,-0.2165380818331448,-1.1298333392808688,-0.12397171715505588
13639,7.0,300.03767999999997,4297.7985,0.0,0.0,0.0,0.0,-0.1359373159137322,0.0,-0.41144426701638764,-0.34627475635965765,-0.5487044147279095,-0.23798709697249779,-1.1810983227903291,-0.1124894656968459
13640,7.0,299.00352000000004,4069.5733,0.0,0.0,0.0,0.0,-0.135947282723316,0.0,-0.34958922915927065,-0.3491147140049397,-0.5383447025254855,-0.23607380720617077,-1.134728958464029,-0.13524034509468288
13641,7.0,299.33874,4031.4981,0.0,0.0,0.0,0.0,-0.13595724953289984,0.0,-0.34250434128004664,-0.34037562440995867,-0.5425948003349375,-0.24951710290792078,-1.118109123698779,-0.1265184706189009
13642,7.0,299.56284,4128.4367,0.0,0.0,0.0,0.0,-0.13596721634248365,0.0,-0.3668282813256326,-0.3448561048946477,-0.5432572936478205,-0.25401270108410173,-1.086651457119149,-0.09671947722771922
13643,7.0,300.50645,4167.8751,0.0,0.0,0.0,0.0,-0.13597718315206747,0.0,-0.37426459473703966,-0.3384527898276897,-0.5542125638615215,-0.2644348902876918,-1.1438840784175688,-0.12711668334543988
13644,7.0,300.1405,4018.3911,0.0,0.0,0.0,0.0,-0.1359871499616513,0.0,-0.3546610930648247,-0.3261843981468937,-0.5406450538300125,-0.26821242851550575,-1.135677360557629,-0.11287420689231689
13645,7.0,299.86116,4020.7255,0.0,0.0,0.0,0.0,-0.1359971167712351,0.0,-0.3777546131164777,-0.3268108906837237,-0.5176346709490645,-0.21108508390247582,-1.134699878186159,-0.14119936012529186
13646,7.0,300.30189,4215.8067,0.0,0.0,0.0,0.0,-0.13600708358081895,0.0,-0.36618376306952366,-0.3539221095018927,-0.5613941056677845,-0.21869666931618081,-1.1260532071327989,-0.11855690862065588
13647,7.0,300.50447,4385.3003,0.0,0.0,0.0,0.0,-0.13601705039040277,0.0,-0.42219118261202554,-0.34676560510560067,-0.5640650126663824,-0.2016205376333978,-1.1690169365479888,-0.13504479795788385
13648,7.0,300.70412999999996,4387.1102,0.0,0.0,0.0,0.0,-0.13602701719998656,0.0,-0.38604246191192465,-0.37404523622289065,-0.5734842565234894,-0.24693246402283675,-1.1506311081834488,-0.1103620255218839
13649,7.0,301.21623999999997,4182.2268,0.0,0.0,0.0,0.0,-0.1360369840095704,0.0,-0.38878276640987164,-0.3374176433930287,-0.5450921071939024,-0.18777108062906284,-1.1310686938027887,-0.14986897116091585
13650,7.0,300.82448,4120.3102,0.0,0.0,0.0,0.0,-0.13604695081915424,0.0,-0.34291438333051466,-0.3345002430426037,-0.5750567801486854,-0.25517631749894176,-1.1167889601434888,-0.12701383846028988
13651,7.0,301.11696,4222.7008,0.0,0.0,0.0,0.0,-0.13605691762873803,0.0,-0.37511278639574963,-0.36778300609985665,-0.5406997997329155,-0.24942812941663975,-1.170225338617249,-0.15042692746098185
13652,7.0,300.64532,4147.1908,0.0,0.0,0.0,0.0,-0.13606688443832188,0.0,-0.3285207603599747,-0.35200186883987966,-0.5801198186458685,-0.28067349983531775,-1.132398179258999,-0.13245510295480087
13653,7.0,300.2482,3856.7381,0.0,0.0,0.0,0.0,-0.13607685124790567,0.0,-0.35612189573399466,-0.3132776791680997,-0.5029524946150465,-0.25030913011358774,-1.113696520838289,-0.11176468790031589
13654,7.0,300.04915,3976.1415,0.0,0.0,0.0,0.0,-0.13608681805748948,0.0,-0.3502247497544917,-0.3136326916056367,-0.5447903005191165,-0.23660359515345675,-1.094041698048509,-0.11735955097748588
13655,7.0,299.96775,4361.9973,0.0,0.0,0.0,0.0,-0.13609678486707333,0.0,-0.4231677023959006,-0.3332884161880057,-0.5694821314110105,-0.23969365332092177,-1.141463119953639,-0.1014671284590259
13656,7.0,299.85391,4552.9909,0.0,0.0,0.0,0.0,-0.13610675167665715,0.0,-0.41870421411538855,-0.3720497820059546,-0.5932415594283834,-0.24562491543129175,-1.106614814564379,-0.11673963443380489
13657,7.0,300.44383,4516.8876,0.0,0.0,0.0,0.0,-0.13611671848624096,0.0,-0.42233190278591365,-0.3535194844421567,-0.5971696463560554,-0.22551768660436278,-1.1200582115911388,-0.12801734109432789
13658,7.0,299.95468999999997,4277.0724,0.0,0.0,0.0,0.0,-0.13612668529582478,0.0,-0.38617404256991067,-0.34283975746064965,-0.5711094009391094,-0.2402952705677968,-1.129226807771009,-0.13160606016600687
13659,7.0,300.46848,4169.2353,0.0,0.0,0.0,0.0,-0.1361366521054086,0.0,-0.39065309437195866,-0.34451352503583765,-0.5321768161192625,-0.25401150544898377,-1.176791908540319,-0.12858457876530988
13660,7.0,300.04785,4019.817,0.0,0.0,0.0,0.0,-0.1361466189149924,0.0,-0.3640359869650547,-0.3092992539754597,-0.5485887522289945,-0.26031524842861475,-1.176206249982519,-0.13120153019608288
13661,7.0,300.26121,3964.8602,0.0,0.0,0.0,0.0,-0.13615658572457626,0.0,-0.35959106142637465,-0.3283590355115137,-0.5172684013029165,-0.2122956847244528,-1.1505787231532791,-0.13305179580618987
13662,7.0,300.57867000000005,3964.5863,0.0,0.0,0.0,0.0,-0.13616655253416007,0.0,-0.3669513608152796,-0.30667574681653975,-0.5315081419807695,-0.24400592415650976,-1.118214299059159,-0.12408399539863689
13663,7.0,299.99275,4021.9872,0.0,0.0,0.0,0.0,-0.13617651934374386,0.0,-0.3190527386430537,-0.35345915553120266,-0.5500717754728575,-0.2292967244423248,-1.127756277900879,-0.15171393747299985
13664,7.0,300.41359,4100.3627,0.0,0.0,0.0,0.0,-0.1361864861533277,0.0,-0.32277571335298266,-0.36382323484155765,-0.5598089164163385,-0.26430696746256677,-1.120628975372469,-0.12783001141583986
13665,7.0,300.83055,4331.2067,0.0,0.0,0.0,0.0,-0.13619645296291152,0.0,-0.3734840172575027,-0.36297374622271966,-0.5801209332209785,-0.23563932556329076,-1.101561128365619,-0.12768991945701388
13666,7.0,300.88063999999997,4467.3805,0.0,0.0,0.0,0.0,-0.13620641977249537,0.0,-0.40122570055289364,-0.35589831196692867,-0.6008481089890915,-0.24974868121827576,-1.110943520316589,-0.12242124185203589
13667,7.0,300.3338,4371.4,0.0,0.0,0.0,0.0,-0.13621638658207919,0.0,-0.4222947063747426,-0.35392328487200864,-0.5525784447627464,-0.25330234183649475,-1.1535164391682091,-0.13250167192939685
13668,7.0,298.8296,4131.0733,0.0,0.0,0.0,0.0,-0.13622635339166297,0.0,-0.38260239676241664,-0.3289340245457607,-0.5442067191240215,-0.24515177829709675,-1.157894591525299,-0.14910807099832088
13669,7.0,299.26373,3950.546,0.0,0.0,0.0,0.0,-0.13623632020124682,0.0,-0.34660927074767167,-0.3180237629015017,-0.5362343052172055,-0.2071272783493708,-1.1646412159911388,-0.15977689540875184
13670,7.0,299.96987,4075.5598,0.0,0.0,0.0,0.0,-0.13624628701083064,0.0,-0.35042377233913363,-0.3224698334127947,-0.5659747965873635,-0.2189235360135708,-1.1529970471669488,-0.13849870410375786
13671,7.0,299.32967,3954.105,0.0,0.0,0.0,0.0,-0.13625625382041445,0.0,-0.3585867785897596,-0.3102793707971897,-0.5330830264786984,-0.23769082264325778,-1.1808730772930989,-0.11956427173757488
13672,7.0,299.67739,3875.4763,0.0,0.0,0.0,0.0,-0.1362662206299983,0.0,-0.3109753925558817,-0.3130271024183697,-0.5540455093175345,-0.26235423186984674,-1.1711287524064091,-0.1130562879352869
13673,7.0,300.22373999999996,3965.8139,0.0,0.0,0.0,0.0,-0.13627618743958209,0.0,-0.3859053387758916,-0.3183215672383927,-0.5012814830801305,-0.24372704733148678,-1.117560246119609,-0.1027927230348519
13674,7.0,300.32079,4353.4044,0.0,0.0,0.0,0.0,-0.1362861542491659,0.0,-0.3825589688631306,-0.38182841554103064,-0.5589388486879694,-0.2529184416386068,-1.0985797412713791,-0.13329358767755287
13675,7.0,301.27682000000004,4669.3689,0.0,0.0,0.0,0.0,-0.13629612105874975,0.0,-0.4275588648842746,-0.39098114422433466,-0.6008315220849544,-0.24653980934408476,-1.111464229542979,-0.13160291909069688
13676,7.0,300.61942999999997,4336.0232,0.0,0.0,0.0,0.0,-0.13630608786833356,0.0,-0.34883097357943665,-0.37163812888782766,-0.5975736697009295,-0.26070702157977976,-1.1474383571183489,-0.12109292163344089
13677,7.0,299.94426,3899.6141,0.0,0.0,0.0,0.0,-0.13631605467791738,0.0,-0.36510073043513663,-0.30298374716216775,-0.5173008455711184,-0.2190010901762248,-1.140576424791129,-0.11518682865555488
13678,7.0,299.37186,4163.5116,0.0,0.0,0.0,0.0,-0.1363260214875012,0.0,-0.37898355376526466,-0.3163510085764137,-0.5702690113061694,-0.21513579435724978,-1.1334536818881689,-0.1046381554419819
13679,7.0,298.89729,4268.8354,0.0,0.0,0.0,0.0,-0.13633598829708501,0.0,-0.4580149236075536,-0.3332944348935997,-0.5063100204114086,-0.24117176230179976,-1.155549728143879,-0.13277800549666888
13680,7.0,299.10013,3987.7116,0.0,0.0,0.0,0.0,-0.13634595510666883,0.0,-0.34760648109858866,-0.32771673627312364,-0.5368415460021355,-0.2330868067063768,-1.1549766338873189,-0.14294552442012487
13681,7.0,300.15903,3933.8915,0.0,0.0,0.0,0.0,-0.13635592191625268,0.0,-0.3394034413365117,-0.3367036364450617,-0.5196976886826684,-0.24301562417127479,-1.132026924422359,-0.17993946795614282
13682,7.0,299.94007,4062.5888,0.0,0.0,0.0,0.0,-0.1363658887258365,0.0,-0.3232135083236897,-0.3448893800279317,-0.5668226842710434,-0.2294367556061448,-1.122977993079299,-0.14396002081774786
13683,7.0,299.69785,4248.2029999999995,0.0,0.0,0.0,0.0,-0.13637585553542028,0.0,-0.3708891850764126,-0.35602732910216167,-0.5644311303250155,-0.25264464119658475,-1.154203321410999,-0.13097412647613987
13684,7.0,300.60206,4168.2114,0.0,0.0,0.0,0.0,-0.13638582234500413,0.0,-0.35305605424391967,-0.35215177919217466,-0.5618243620577474,-0.24431879552238778,-1.1655770537834989,-0.09446496941071661
13685,7.0,300.33916,3998.9632,0.0,0.0,0.0,0.0,-0.13639578915458794,0.0,-0.3847282967972266,-0.31273673533721275,-0.5181199164219545,-0.22178048586302979,-1.127455950571239,-0.08968303790202672
13686,7.0,300.46925,4108.6006,0.0,0.0,0.0,0.0,-0.1364057559641718,0.0,-0.3562991739714907,-0.34600507984554263,-0.5466077368259835,-0.21830322430235077,-1.128018507026759,-0.11200502069153488
13687,7.0,300.66765,4502.987,0.0,0.0,0.0,0.0,-0.1364157227737556,0.0,-0.42710125074161154,-0.3696606801251687,-0.5720336775478285,-0.21961090461640878,-1.1100377760521989,-0.12304609292370389
13688,7.0,300.14757000000003,4479.129,0.0,0.0,0.0,0.0,-0.1364256895833394,0.0,-0.40923402404325365,-0.3460972349421377,-0.6062121232959784,-0.24810378113843676,-1.1493740701093889,-0.12538984173001388
13689,7.0,300.14155,4176.2691,0.0,0.0,0.0,0.0,-0.13643565639292324,0.0,-0.3926169351857746,-0.3228536120206707,-0.5540109777541264,-0.2391267297574708,-1.1110023901473989,-0.1073244942396029
13690,7.0,300.78262,3976.3008,0.0,0.0,0.0,0.0,-0.13644562320250705,0.0,-0.36849017360964864,-0.3292563596675727,-0.5109496216918015,-0.2582718066869428,-1.141324203364929,-0.12197289894778789
13691,7.0,298.95285,3939.8713,0.0,0.0,0.0,0.0,-0.13645559001209087,0.0,-0.4050025295056376,-0.2723257375614577,-0.5202942194140415,-0.26012149474449275,-1.1271529887913387,-0.09263989319809561
13692,7.0,299.25658,4128.3759,0.0,0.0,0.0,0.0,-0.13646555682167472,0.0,-0.3500973234219157,-0.3545119933126097,-0.5503138510542485,-0.2355408173885688,-1.172850264326309,-0.15481217256877183
13693,7.0,298.97442,4064.2298,0.0,0.0,0.0,0.0,-0.1364755236312585,0.0,-0.34586323496404364,-0.3117492825847587,-0.5778118578330905,-0.2172861745144758,-1.1285042591246988,-0.11547190657118989
13694,7.0,299.47506,4092.7127,0.0,0.0,0.0,0.0,-0.13648549044084232,0.0,-0.3324553016907837,-0.3247798916532797,-0.5868472825523174,-0.21373555364655678,-1.1448032989082888,-0.14166678252892287
13695,7.0,299.58193,4236.9551,0.0,0.0,0.0,0.0,-0.13649545725042617,0.0,-0.36580863761750165,-0.35843053542433967,-0.5636893907218115,-0.2424056780085778,-1.145228053350209,-0.1084410755848009
13696,7.0,300.20205,4339.0897,0.0,0.0,0.0,0.0,-0.13650542406000998,0.0,-0.3987892393624336,-0.34314441136821666,-0.5770412811320405,-0.23766750775845677,-1.1330550692988288,-0.1157163328928129
13697,7.0,300.38582,4424.2741,0.0,0.0,0.0,0.0,-0.13651539086959383,0.0,-0.3921146367137016,-0.3831537770693336,-0.5696004486251874,-0.25201172465412075,-1.114213987664359,-0.1032298087304889
13698,7.0,300.51642000000004,4235.5423,0.0,0.0,0.0,0.0,-0.13652535767917762,0.0,-0.37470002883501363,-0.35689033447733365,-0.5559087242639195,-0.23665925298144977,-1.1354052015807687,-0.15527993947743685
13699,7.0,299.84179,4062.0039,0.0,0.0,0.0,0.0,-0.13653532448876143,0.0,-0.3651937873243207,-0.3277114673726037,-0.5418424925331905,-0.2568986197539198,-1.137896276951619,-0.1395599214634919
13700,7.0,300.54422,4056.1627,0.0,0.0,0.0,0.0,-0.13654529129834525,0.0,-0.3709934079816986,-0.3457096667788877,-0.5162691036567935,-0.2459478382381618,-1.1589844433328589,-0.17306736259791883
13701,7.0,300.57707,4125.7135,0.0,0.0,0.0,0.0,-0.1365552581079291,0.0,-0.38929818647073966,-0.3223285863488547,-0.5424871222468105,-0.24453067625079877,-1.1092724682516688,-0.13365920884363688
13702,7.0,299.88279,4129.7407,0.0,0.0,0.0,0.0,-0.1365652249175129,0.0,-0.3997922556364236,-0.3175826444704667,-0.5379631530678295,-0.24868172886297574,-1.1490285518252887,-0.12741318058970189
13703,7.0,299.14417000000003,4332.8874,0.0,0.0,0.0,0.0,-0.1365751917270967,0.0,-0.40491771033976665,-0.36372957000231365,-0.5484422869270396,-0.24377549081876776,-1.123010721057529,-0.11900807849268288
13704,7.0,299.14097000000004,4392.3627,0.0,0.0,0.0,0.0,-0.13658515853668055,0.0,-0.3704121570618336,-0.3534521843705147,-0.6113042420710314,-0.24510878609535378,-1.129172092265609,-0.10682622850292789
13705,7.0,300.0421,4420.6912,0.0,0.0,0.0,0.0,-0.13659512534626436,0.0,-0.3923629843132116,-0.3762188096749057,-0.5751979360201165,-0.24416131619184578,-1.092716873542759,-0.11078820864644491
13706,7.0,300.05773999999997,4433.9955,0.0,0.0,0.0,0.0,-0.1366050921558482,0.0,-0.38517563658387566,-0.36265860517661763,-0.5999896835043714,-0.24936515592292477,-1.155318605796069,-0.12372322770053189
13707,7.0,300.14176000000003,4394.5829,0.0,0.0,0.0,0.0,-0.13661505896543202,0.0,-0.42344793697605765,-0.33787921934358267,-0.5745163226778465,-0.2625260993518087,-1.164106929213409,-0.10786150666010189
13708,7.0,300.43976000000004,4221.5239,0.0,0.0,0.0,0.0,-0.1366250257750158,0.0,-0.39359721412752063,-0.3636991927643156,-0.5259414472563795,-0.22279103058526278,-1.171230989341499,-0.13721767226732987
13709,7.0,300.34196000000003,4046.9006,0.0,0.0,0.0,0.0,-0.13663499258459966,0.0,-0.3918798666655316,-0.30171873480982075,-0.5365581298166645,-0.24373950017521578,-1.130481718019859,-0.1232782589191169
13710,7.0,300.3118,4173.798,0.0,0.0,0.0,0.0,-0.13664495939418347,0.0,-0.35087688765135266,-0.3639427780883556,-0.5539107065242305,-0.2081141738142698,-1.145486938750759,-0.16218132776355085
13711,7.0,300.18936,4376.8892,0.0,0.0,0.0,0.0,-0.1366549262037673,0.0,-0.40758202108021363,-0.36229774628600364,-0.5605852686429584,-0.27902249998987677,-1.145651895867039,-0.1314420149748169
13712,7.0,300.10364,4314.1921,0.0,0.0,0.0,0.0,-0.13666489301335114,0.0,-0.3728441802168556,-0.35666000246460167,-0.5819025004743054,-0.21086940348618982,-1.1319151629363289,-0.16080547598276484
13713,7.0,299.85663999999997,3996.1807,0.0,0.0,0.0,0.0,-0.13667485982293492,0.0,-0.3579298784174287,-0.3481137647611537,-0.5086954948568365,-0.25767764696080375,-1.1121774562883688,-0.12972225597758988
13714,7.0,300.53929,3922.7391,0.0,0.0,0.0,0.0,-0.13668482663251874,0.0,-0.3543341172575547,-0.3100663552286667,-0.5280142732509515,-0.23745119912710877,-1.145629401714819,-0.12014987963286988
13715,7.0,299.71019,4000.6721,0.0,0.0,0.0,0.0,-0.13669479344210259,0.0,-0.35169081119168066,-0.3262123638496537,-0.5382012364438264,-0.24760432989914474,-1.164524894879659,-0.12440996808830787
13716,7.0,299.95712000000003,4112.273,0.0,0.0,0.0,0.0,-0.1367047602516864,0.0,-0.34354122037237866,-0.3463814617276887,-0.5601056264431215,-0.23800485924675077,-1.152909705008329,-0.12497935384950189
13717,7.0,299.7573,4145.5938,0.0,0.0,0.0,0.0,-0.13671472706127025,0.0,-0.36444994016090865,-0.3335723389985267,-0.5621347306958785,-0.2175078939013578,-1.1277137213966788,-0.12420626428820389
13718,7.0,299.55994,4131.7712,0.0,0.0,0.0,0.0,-0.13672469387085404,0.0,-0.35014731718184966,-0.3452816091416417,-0.5605263278846415,-0.24065390030819078,-1.1719018622327089,-0.1254619952696349
13719,7.0,300.00192000000004,4280.5806,0.0,0.0,0.0,0.0,-0.13673466068043785,0.0,-0.39968965393129763,-0.3482957343466127,-0.5532042482895084,-0.22477935152149478,-1.1580799149685888,-0.1187136888086289
13720,7.0,301.18679,4435.1324,0.0,0.0,0.0,0.0,-0.13674462749002167,0.0,-0.4450490713529236,-0.3280900176099637,-0.5750304153810835,-0.2254800240981458,-1.1553390734480888,-0.10181564596342191
13721,7.0,301.7686,4235.3901,0.0,0.0,0.0,0.0,-0.13675459429960551,0.0,-0.38215978885373464,-0.34287383306151265,-0.5624192107939544,-0.2094888198274368,-1.113398422658869,-0.13316100390196786
13722,7.0,301.72722999999996,3889.384,0.0,0.0,0.0,0.0,-0.13676456110918933,0.0,-0.3578744131069546,-0.2819692339306967,-0.5424319710438675,-0.22634284708829977,-1.131296877725309,-0.09692489848674271
13723,7.0,301.52169,4024.8992,0.0,0.0,0.0,0.0,-0.13677452791877312,0.0,-0.34635632299270763,-0.3265735875103037,-0.5505389445639635,-0.24651630194176477,-1.1405694333654388,-0.1272383240199449
13724,7.0,299.73913999999996,4351.3733,0.0,0.0,0.0,0.0,-0.13678449472835696,0.0,-0.3855719186979856,-0.35735682469087265,-0.5797800860198394,-0.25255627565536376,-1.1317694575719488,-0.12563955721715886
13725,7.0,300.18307000000004,4357.3925,0.0,0.0,0.0,0.0,-0.13679446153794078,0.0,-0.4017912866262126,-0.35340171438303364,-0.5693455351650295,-0.25847196411169676,-1.1131350789578789,-0.1122314719563839
13726,7.0,299.82376,4263.6268,0.0,0.0,0.0,0.0,-0.13680442834752463,0.0,-0.36956201996293164,-0.3895384179369486,-0.5369356668039245,-0.2325565526640448,-1.141080719365899,-0.12363418328174389
13727,7.0,299.96912000000003,4167.2689,0.0,0.0,0.0,0.0,-0.13681439515710841,0.0,-0.36310468853314265,-0.3294164227858697,-0.5742245674440525,-0.24815621683111175,-1.163720272975249,-0.1094468681640649
13728,7.0,300.40289,4268.9159,0.0,0.0,0.0,0.0,-0.13682436196669223,0.0,-0.3965696744883796,-0.3447406349132517,-0.5563335293683445,-0.2154134755471548,-1.1666801791673689,-0.12566621582728987
13729,7.0,300.27038999999996,4332.8043,0.0,0.0,0.0,0.0,-0.13683432877627608,0.0,-0.38584206130714666,-0.3460468460146647,-0.5851754097548165,-0.23684808227008577,-1.151445051988779,-0.11473198068566488
13730,7.0,298.74334,4061.0738,0.0,0.0,0.0,0.0,-0.1368442955858599,0.0,-0.3643041030740157,-0.3220021272991357,-0.5481587896815605,-0.2312471599573178,-1.1624685038017089,-0.15830381214836986
13731,7.0,299.22065,3910.3346,0.0,0.0,0.0,0.0,-0.1368542623954437,0.0,-0.3610385398567296,-0.3202096777397347,-0.5073958496160715,-0.24966768200528178,-1.1693852529593387,-0.12189552717015188
13732,7.0,298.76133,4078.0484,0.0,0.0,0.0,0.0,-0.13686422920502753,0.0,-0.36821245188973967,-0.3142116323152737,-0.5572008005264375,-0.22474720109582177,-1.148306712454049,-0.15588522468967386
13733,7.0,298.45409,4258.6275,0.0,0.0,0.0,0.0,-0.13687419601461134,0.0,-0.36027038482341867,-0.36065246117112665,-0.5735935760767784,-0.2263403544930538,-1.1180854136464389,-0.1083409056799149
13734,7.0,298.94925,4227.488,0.0,0.0,0.0,0.0,-0.13688416282419516,0.0,-0.36738594378316963,-0.36796774185808867,-0.5496970958508796,-0.2453485413340158,-1.141967718503439,-0.13864363939806187
13735,7.0,299.53328,4309.1854,0.0,0.0,0.0,0.0,-0.136894129633779,0.0,-0.3427397496757797,-0.35570608829045763,-0.6114389334068244,-0.24442100205997477,-1.1394940710343089,-0.11364649598603588
13736,7.0,300.68325,4320.7005,0.0,0.0,0.0,0.0,-0.13690409644336282,0.0,-0.38864722394399465,-0.36381317326806467,-0.5609246668964545,-0.25262490308463675,-1.1366562614792388,-0.1260957629421829
13737,7.0,300.87916,4321.8701,0.0,0.0,0.0,0.0,-0.13691406325294664,0.0,-0.3910563476467566,-0.34136179033478564,-0.5813224451895584,-0.25981164286391273,-1.127294539830309,-0.0941415653100491
13738,7.0,300.00063,4256.9701,0.0,0.0,0.0,0.0,-0.13692403006253046,0.0,-0.38598161624341965,-0.3396956727978527,-0.5683353349478304,-0.25782751678309473,-1.1525754338003389,-0.1284770526646979
13739,7.0,299.64363,4329.3449,0.0,0.0,0.0,0.0,-0.13693399687211427,0.0,-0.39855699230701264,-0.33917280534874966,-0.5782829482020835,-0.25847068741657075,-1.179452601977909,-0.11751774971559889
13740,7.0,299.68892,4208.177,0.0,0.0,0.0,0.0,-0.1369439636816981,0.0,-0.4238209447353706,-0.30668790581773975,-0.5486718792671985,-0.23563066227493576,-1.153493539715949,-0.13195253090520087
13741,7.0,300.06838,4166.0537,0.0,0.0,0.0,0.0,-0.1369539304912819,0.0,-0.3599491541442157,-0.3436615336892527,-0.5627656004731404,-0.23360995786550778,-1.1554199308060689,-0.14050686447694785
13742,7.0,300.09086,4256.1378,0.0,0.0,0.0,0.0,-0.13696389730086575,0.0,-0.39187500306505163,-0.34266864991626267,-0.5592159725903194,-0.23991011393978479,-1.137439301156519,-0.14881053010645587
13743,7.0,299.785,4336.5881,0.0,0.0,0.0,0.0,-0.13697386411044954,0.0,-0.3939548204853136,-0.3437003816980867,-0.5805592854792405,-0.23921875313155277,-1.1452308904504889,-0.11873670985090087
13744,7.0,298.60932,4009.39,0.0,0.0,0.0,0.0,-0.13698383092003338,0.0,-0.34043644981346166,-0.3455245966481227,-0.5327933889376135,-0.22079817028858278,-1.125374937515859,-0.13652382899635288
13745,7.0,298.77744,3876.1156,0.0,0.0,0.0,0.0,-0.1369937977296172,0.0,-0.3494865970566417,-0.3049919075353577,-0.5237638410689666,-0.2278717097666868,-1.133528561070559,-0.1008371766863545
13746,7.0,299.0292,3966.8383,0.0,0.0,0.0,0.0,-0.13700376453920102,0.0,-0.3383764211676527,-0.34006110144641766,-0.5273822686335775,-0.24871464935872475,-1.1523195881500887,-0.13921857776980387
13747,7.0,298.63322,4045.4575,0.0,0.0,0.0,0.0,-0.13701373134878483,0.0,-0.33926024883237965,-0.35223374099276367,-0.5382240751010805,-0.26861596550033173,-1.178493459433249,-0.14880625419103385
13748,7.0,299.9031,4251.8389,0.0,0.0,0.0,0.0,-0.13702369815836865,0.0,-0.4049265661456406,-0.3363882319539337,-0.5511380692155925,-0.26825740668744474,-1.151807086249509,-0.15068229688368487
13749,7.0,299.33349,4184.1818,0.0,0.0,0.0,0.0,-0.13703366496795247,0.0,-0.37743154845459365,-0.34635111488719367,-0.5481041451036675,-0.2326730764255448,-1.1290275014763387,-0.13887872355376285
13750,7.0,299.15651,4163.3853,0.0,0.0,0.0,0.0,-0.13704363177753628,0.0,-0.3697917440256036,-0.35427112349883766,-0.5415023039446165,-0.25858924781077175,-1.125311204084569,-0.1303644944209739
13751,7.0,301.28047999999995,4313.482,0.0,0.0,0.0,0.0,-0.13705359858712013,0.0,-0.41516937968402756,-0.33904297761343666,-0.5569784833219965,-0.23240658151674376,-1.1296681795145689,-0.12223751934390388
13752,7.0,300.68642,4438.9787,0.0,0.0,0.0,0.0,-0.13706356539670395,0.0,-0.4372154524448056,-0.3624528850088147,-0.5496703561807404,-0.23698697859379375,-1.1353898001792488,-0.11639554483234589
13753,7.0,299.29765,4199.1455,0.0,0.0,0.0,0.0,-0.13707353220628776,0.0,-0.3977126307336806,-0.3218612652702337,-0.5568614833329495,-0.2415552571996478,-1.142504133106379,-0.12482649493941589
13754,7.0,299.7292,3987.3208,0.0,0.0,0.0,0.0,-0.13708349901587158,0.0,-0.34432936683016263,-0.3498523904752427,-0.5178642024942175,-0.24602971897874276,-1.159951083928259,-0.11377324344104488
13755,7.0,299.66449,4108.0222,0.0,0.0,0.0,0.0,-0.1370934658254554,0.0,-0.32921686317867466,-0.35588493706560864,-0.5636343712413815,-0.24508199576270978,-1.1648527826120187,-0.1139468233156759
13756,7.0,300.36161,4334.9559,0.0,0.0,0.0,0.0,-0.13710343263503924,0.0,-0.38499312997586366,-0.34371841754986665,-0.5890067920929445,-0.2458917548451268,-1.116498866639859,-0.07923776787440882
13757,7.0,300.83242,4271.9866,0.0,0.0,0.0,0.0,-0.13711339944462306,0.0,-0.40188941989839766,-0.3369257813969857,-0.5597620637317146,-0.23367724780464877,-1.131541374974439,-0.0951855067555781
13758,7.0,300.38149,4216.6889,0.0,0.0,0.0,0.0,-0.13712336625420685,0.0,-0.3954109419390216,-0.33393226569904866,-0.5524249272400955,-0.25739678416558476,-1.1408225432404189,-0.08787000923309472
13759,7.0,301.43061,4399.4912,0.0,0.0,0.0,0.0,-0.1371333330637907,0.0,-0.41927075264380154,-0.3525343722974337,-0.5655303445634995,-0.24696845466638875,-1.1873187664792388,-0.15502280699955986
13760,7.0,300.68843,4515.6761,0.0,0.0,0.0,0.0,-0.1371432998733745,0.0,-0.41591886051799565,-0.38055892462324165,-0.5761749928265444,-0.22793185629262278,-1.1377093323081688,-0.15499054511637586
13761,7.0,299.19455,4305.5276,0.0,0.0,0.0,0.0,-0.13715326668295832,0.0,-0.3763304901009276,-0.35437990602957364,-0.5780625055103275,-0.22164705095736079,-1.126048242207309,-0.15204580727825284
13762,7.0,299.53744,3976.4309,0.0,0.0,0.0,0.0,-0.13716323349254217,0.0,-0.34830147947467965,-0.3336407840427817,-0.5267934284704635,-0.23172986217245678,-1.127099387861049,-0.13571012837104687
13763,7.0,299.31799,3778.6717,0.0,0.0,0.0,0.0,-0.13717320030212596,0.0,-0.3313950266536427,-0.3131093276639847,-0.5041174789175215,-0.24240903186640875,-1.165135783364949,-0.1029447409473549
13764,7.0,299.37864,3828.9884,0.0,0.0,0.0,0.0,-0.13718316711170978,0.0,-0.3271158586988217,-0.3215503494770487,-0.5152506555837805,-0.21532870704378881,-1.1306633937627888,-0.13053952324324788
13765,7.0,299.69298,4198.6140000000005,0.0,0.0,0.0,0.0,-0.13719313392129362,0.0,-0.38017874305322064,-0.35497832140613267,-0.5411167622815665,-0.24460632550326478,-1.1706681289109488,-0.11140243072456389
13766,7.0,300.72517999999997,4321.769,0.0,0.0,0.0,0.0,-0.13720310073087744,0.0,-0.35435925599253565,-0.36106720470205866,-0.5982834108659755,-0.25007833200580976,-1.174199406834459,-0.15682318017474287
13767,7.0,301.43507999999997,4321.571,0.0,0.0,0.0,0.0,-0.13721306754046125,0.0,-0.35413214611512167,-0.37808717193179864,-0.5814303360602064,-0.25482012969128875,-1.188484916019329,-0.10657072735771189
13768,7.0,301.38672,4335.7895,0.0,0.0,0.0,0.0,-0.13722303435004507,0.0,-0.40084899443071564,-0.35622090040126564,-0.5609018586367035,-0.2148862511226218,-1.1245256312820389,-0.11777247065823787
13769,7.0,299.47372,4364.9342,0.0,0.0,0.0,0.0,-0.1372330011596289,0.0,-0.4313363321845816,-0.3172712625822357,-0.5782234197587084,-0.2294985841272468,-1.1203860993234989,-0.09023214852871972
13770,7.0,299.22091,4339.564,0.0,0.0,0.0,0.0,-0.1372429679692127,0.0,-0.4149042931928656,-0.3333530007493797,-0.5708618031446735,-0.25256128111085774,-1.138935364929169,-0.13915589811861787
13771,7.0,299.18882,4219.8385,0.0,0.0,0.0,0.0,-0.13725293477879655,0.0,-0.42168706028977254,-0.30179697798254274,-0.5592414862278375,-0.24391267474980677,-1.1555452698434387,-0.1270535679967109
13772,7.0,298.87124,4075.4168,0.0,0.0,0.0,0.0,-0.13726290158838036,0.0,-0.36355085294967565,-0.32932634485197965,-0.5459477259758455,-0.24887173352172776,-1.132445599363679,-0.16176409163737285
13773,7.0,298.5014,4220.8056,0.0,0.0,0.0,0.0,-0.13727286839796415,0.0,-0.38998482553350566,-0.34178110362366865,-0.5512535898594935,-0.23393111761720378,-1.132533752122379,-0.13599432475909487
13774,7.0,299.74097,4235.1144,0.0,0.0,0.0,0.0,-0.137282835207548,0.0,-0.38872054272123063,-0.3173646234464497,-0.5812838606257504,-0.28344986590432375,-1.141781179160029,-0.09081152797565001
13775,7.0,300.74374,4146.1941,0.0,0.0,0.0,0.0,-0.13729280201713182,0.0,-0.3591140942068016,-0.3489041808991617,-0.5523212008273585,-0.24127740375722578,-1.1440127611802688,-0.1037490588767349
13776,7.0,300.52397,4188.898,0.0,0.0,0.0,0.0,-0.13730276882671566,0.0,-0.35510281944591965,-0.3543713744637317,-0.5638462114397885,-0.24583668470219178,-1.119201407306579,-0.094119161337088
13777,7.0,299.86746,4266.3488,0.0,0.0,0.0,0.0,-0.13731273563629948,0.0,-0.38806467606400163,-0.33819432999218163,-0.5706044882817785,-0.2321816197295418,-1.150082737229329,-0.12752146662788888
13778,7.0,299.04925,4156.3993,0.0,0.0,0.0,0.0,-0.13732270244588327,0.0,-0.3226766985532107,-0.3544329294073067,-0.5863319739489604,-0.2382477960907268,-1.1748762579012588,-0.17153849991953182
13779,7.0,300.24696,4086.0572,0.0,0.0,0.0,0.0,-0.1373326692554671,0.0,-0.37303624177331063,-0.3278054767168817,-0.5412176515940235,-0.2382002341310328,-1.1934103247554289,-0.17859167307062582
13780,7.0,300.332,4139.1342,0.0,0.0,0.0,0.0,-0.13734263606505093,0.0,-0.39493860527240565,-0.3190084089511787,-0.5442464283954405,-0.2214950330448578,-1.1266844619450989,-0.14229123843305186
13781,7.0,300.69501,4101.7567,0.0,0.0,0.0,0.0,-0.13735260287463474,0.0,-0.39315052282093566,-0.3381589878286937,-0.5155221052855705,-0.2206857907199918,-1.139839589318409,-0.14855887931161987
13782,7.0,300.43521,3988.4963,0.0,0.0,0.0,0.0,-0.1373625696842186,0.0,-0.36782340438134364,-0.2975072722266817,-0.5470725855743604,-0.24120680049025775,-1.151369058231279,-0.13618139099255686
13783,7.0,301.04548,4242.917,0.0,0.0,0.0,0.0,-0.13737253649380238,0.0,-0.3852844799096176,-0.3470062520043507,-0.5574500701835384,-0.2589135587702788,-1.1254884215270589,-0.15441735966730685
13784,7.0,300.26766000000003,4527.3551,0.0,0.0,0.0,0.0,-0.1373825033033862,0.0,-0.36378133694992265,-0.3714445271912207,-0.6409770382020084,-0.23760731057001577,-1.1014394370286091,-0.12791033175126687
13785,7.0,299.23786,4353.9667,0.0,0.0,0.0,0.0,-0.13739247011297004,0.0,-0.4145841770887726,-0.3427944753136807,-0.5661185261140486,-0.23755572600742475,-1.1287159270705889,-0.12585257278568188
13786,7.0,298.65111,4159.4538,0.0,0.0,0.0,0.0,-0.13740243692255386,0.0,-0.3470821039068367,-0.3355460691333187,-0.5817419104659565,-0.26237843841473574,-1.169371067457939,-0.09580409695487822
13787,7.0,299.20171,4116.0566,0.0,0.0,0.0,0.0,-0.13741240373213767,0.0,-0.3814933033354576,-0.3285678460921217,-0.5411172891716185,-0.24502903317998279,-1.161568028437839,-0.1043252131485969
13788,7.0,300.08849,4239.6053,0.0,0.0,0.0,0.0,-0.1374223705417215,0.0,-0.38143747325494765,-0.3248166219694047,-0.5824800428988045,-0.25183821570699677,-1.1678631486591189,-0.08807903766247423
13789,7.0,300.41662,4326.8997,0.0,0.0,0.0,0.0,-0.1374323373513053,0.0,-0.42228995423177357,-0.32759310962842264,-0.5653864225192955,-0.2199748235223248,-1.1591902344281688,-0.12794164117935689
13790,7.0,300.28537,4362.0511,0.0,0.0,0.0,0.0,-0.13744230416088912,0.0,-0.37327244050412167,-0.3603141673602397,-0.5923679959871694,-0.23666134027665575,-1.1844897722000387,-0.13317755027610087
13791,7.0,300.44732,4174.5219,0.0,0.0,0.0,0.0,-0.13745227097047297,0.0,-0.4122196667879136,-0.3318389213899517,-0.5248918417427915,-0.2203281843621988,-1.1589474597042089,-0.16047192418234585
13792,7.0,300.24576,4210.7797,0.0,0.0,0.0,0.0,-0.13746223778005678,0.0,-0.36550146071718564,-0.33213152775382965,-0.5823389072923755,-0.2160430787617918,-1.141345582942039,-0.13007389429229388
13793,7.0,299.77083999999996,4396.1495,0.0,0.0,0.0,0.0,-0.13747220458964057,0.0,-0.41513901257853064,-0.3600654448581927,-0.5611152288427614,-0.23361118389812877,-1.136205061209709,-0.1271259545838549
13794,7.0,299.40869,4203.7541,0.0,0.0,0.0,0.0,-0.13748217139922442,0.0,-0.33870630500270965,-0.35095458366902066,-0.5881753899883915,-0.23723612666088276,-1.142443540750399,-0.12335319889651288
13795,7.0,299.84485,3845.9452,0.0,0.0,0.0,0.0,-0.13749213820880823,0.0,-0.30240658977270674,-0.3364296333530197,-0.5302350641576266,-0.25511052716994875,-1.1388129643170888,-0.14335564753060084
13796,7.0,299.07148,4081.8572,0.0,0.0,0.0,0.0,-0.13750210501839208,0.0,-0.3238473063937407,-0.35535075161288865,-0.5615845966865844,-0.24086173816870277,-1.1287984056287288,-0.13305423773893088
13797,7.0,298.82212000000004,4496.913,0.0,0.0,0.0,0.0,-0.1375120718279759,0.0,-0.43969909055992157,-0.36652157052036266,-0.5607285827371025,-0.25356717501513176,-1.135643720654309,-0.13104132522277187
13798,7.0,299.66175,4407.3268,0.0,0.0,0.0,0.0,-0.13752203863755968,0.0,-0.3790168592960516,-0.3722444070851626,-0.5884560400010895,-0.2291111882165138,-1.171121659655709,-0.14295829137138485
13799,7.0,300.34457000000003,4211.0715,0.0,0.0,0.0,0.0,-0.13753200544714353,0.0,-0.3890863158748296,-0.3710169356490206,-0.5199573340207935,-0.22839511423834277,-1.157243071710999,-0.12065244154996889
13800,7.0,300.14141,4223.0586,0.0,0.0,0.0,0.0,-0.13754197225672735,0.0,-0.3754542415469486,-0.33537771762920365,-0.5728723953181035,-0.22074311027814877,-1.1510806872528188,-0.12569784949541188
13801,7.0,300.29974,4474.8688,0.0,0.0,0.0,0.0,-0.13755193906631116,0.0,-0.4295928023400086,-0.36655513949617563,-0.5641004156248765,-0.23536737936895177,-1.121079871666969,-0.1251512314639649
13802,7.0,299.95599,4334.2758,0.0,0.0,0.0,0.0,-0.137561905875895,0.0,-0.4011321066411566,-0.34407329826489064,-0.5723062012947244,-0.2361843223945778,-1.155314451470659,-0.1304166565361219
13803,7.0,300.02516,4043.1182,0.0,0.0,0.0,0.0,-0.1375718726854788,0.0,-0.38550940116681565,-0.3209181827396587,-0.5225793719670685,-0.24100967268330278,-1.124076457512709,-0.11946450713272888
13804,7.0,300.29413,3878.9107,0.0,0.0,0.0,0.0,-0.1375818394950626,0.0,-0.3326435027643577,-0.2928723420292497,-0.5535761516062124,-0.23700810485837878,-1.145238895126279,-0.1264029297099979
13805,7.0,299.30199,4120.398,0.0,0.0,0.0,0.0,-0.13759180630464646,0.0,-0.3986896368776036,-0.3153430375094347,-0.5384654211423995,-0.2466343557109158,-1.1361524735295188,-0.09452822762770972
13806,7.0,299.62895,4517.2504,0.0,0.0,0.0,0.0,-0.13760177311423027,0.0,-0.3901574934830466,-0.36639785268315267,-0.6165759796913114,-0.25468367530032177,-1.171720693114829,-0.11586176467966589
13807,7.0,299.52195,4383.878,0.0,0.0,0.0,0.0,-0.1376117399238141,0.0,-0.40610501654194464,-0.3456202575900637,-0.5808641926993324,-0.23769442981361374,-1.1484180686400387,-0.11268344229598988
13808,7.0,298.01636,4078.5397,0.0,0.0,0.0,0.0,-0.1376217067333979,0.0,-0.3431299928192937,-0.3340511300682797,-0.5625931149086174,-0.22780581811268377,-1.142017266433329,-0.12593890169420188
13809,7.0,298.46078,4183.7069,0.0,0.0,0.0,0.0,-0.13763167354298173,0.0,-0.40029149409319464,-0.3442134814162257,-0.5272374650617866,-0.24121170462074176,-1.135756394065429,-0.12491822447096888
13810,7.0,298.95166,4201.3538,0.0,0.0,0.0,0.0,-0.13764164035256554,0.0,-0.36029828973117267,-0.3450108079199157,-0.5717975396120235,-0.24870735395800475,-1.1856481197143591,-0.1264202664192089
13811,7.0,299.17994,4031.4325,0.0,0.0,0.0,0.0,-0.1376516071621494,0.0,-0.3933545407285706,-0.3183664744828247,-0.5137338100515795,-0.26895961940424773,-1.147008333775909,-0.11952682201387888
13812,7.0,299.7197,3965.9453,0.0,0.0,0.0,0.0,-0.1376615739717332,0.0,-0.3389475598515197,-0.3075821192959917,-0.5590186623983465,-0.22438661578273478,-1.128824243506279,-0.11626273814173889
13813,7.0,299.57657,3967.8796,0.0,0.0,0.0,0.0,-0.137671540781317,0.0,-0.3854379062397596,-0.31736623451410867,-0.5033321796925185,-0.2263655945530448,-1.128840455507879,-0.14280325397358387
13814,7.0,298.88421,4062.7804,0.0,0.0,0.0,0.0,-0.13768150759090084,0.0,-0.34648389118029765,-0.33218827989193067,-0.5563116229011825,-0.2282282522118748,-1.141466362353959,-0.13106565335767287
13815,7.0,300.02678,4264.0942,0.0,0.0,0.0,0.0,-0.13769147440048465,0.0,-0.37975261059116466,-0.3519120442185147,-0.5645134872931434,-0.23511468492651277,-1.1361673683059887,-0.14483449618405186
13816,7.0,300.12855,4397.8518,0.0,0.0,0.0,0.0,-0.1377014412100685,0.0,-0.36203010640458966,-0.37074844463752266,-0.6040585919309414,-0.24126416057841876,-1.165211878447459,-0.12836820933895587
13817,7.0,300.44187,4249.6359,0.0,0.0,0.0,0.0,-0.13771140801965231,0.0,-0.41354170485588865,-0.3298312980393147,-0.5484102074288735,-0.25660433139487576,-1.168168947539299,-0.13732083126001085
13818,7.0,301.04393999999996,4124.4221,0.0,0.0,0.0,0.0,-0.1377213748292361,0.0,-0.3560742020517877,-0.34402958665557665,-0.5536175428727975,-0.2611270441437328,-1.188296958125779,-0.12639513781672887
13819,7.0,300.74596,4128.2305,0.0,0.0,0.0,0.0,-0.13773134163881995,0.0,-0.4024724237409356,-0.32758336216246065,-0.5248232041810176,-0.2633808163411628,-1.116278890043149,-0.13011324892617787
13820,7.0,300.20203,4181.2276,0.0,0.0,0.0,0.0,-0.13774130844840377,0.0,-0.35193780103605665,-0.33837795117530367,-0.5806730228029654,-0.2600819678580918,-1.1204321008780387,-0.10565476953231388
13821,7.0,299.41447,4243.5264,0.0,0.0,0.0,0.0,-0.13775127525798758,0.0,-0.4158617638748606,-0.3190428493220777,-0.5550214616813535,-0.2447479981322468,-1.1342666124433989,-0.13213629394333687
13822,7.0,299.39487,4121.5392,0.0,0.0,0.0,0.0,-0.13776124206757143,0.0,-0.3617254018345176,-0.33644966530749665,-0.5546699145591585,-0.22221913196382076,-1.160322237439889,-0.1270265547490449
13823,7.0,299.15355,4057.8627,0.0,0.0,0.0,0.0,-0.13777120887715522,0.0,-0.4037020533997906,-0.31013700915813974,-0.5196498835429505,-0.2096634129521678,-1.148670165264919,-0.10448779925964291
13824,7.0,299.15261,4339.0839,0.0,0.0,0.0,0.0,-0.13778117568673903,0.0,-0.37298820358606966,-0.34749594564517966,-0.5984890094437664,-0.2175697224224598,-1.1479902744478188,-0.13111691368023187
13825,7.0,300.06372999999996,4409.9079,0.0,0.0,0.0,0.0,-0.13779114249632288,0.0,-0.45479845235761257,-0.33806456305187466,-0.5476388606577475,-0.24564873694114278,-1.1603750277700988,-0.12115062622663589
13826,7.0,300.62993,4157.3857,0.0,0.0,0.0,0.0,-0.1378011093059067,0.0,-0.32970674933702265,-0.3526125952051537,-0.5814220983368935,-0.23515388757288178,-1.1740629220459886,-0.14981348558543983
13827,7.0,300.58802000000003,3925.9871,0.0,0.0,0.0,0.0,-0.13781107611549054,0.0,-0.32608365068945067,-0.3364742062249187,-0.5308441895877425,-0.26478381309212773,-1.158404560300629,-0.1296183370473339
13828,7.0,300.75707,4140.8839,0.0,0.0,0.0,0.0,-0.13782104292507433,0.0,-0.3416450646652427,-0.35883915892466767,-0.5582410841391054,-0.24064826663763478,-1.154673672107419,-0.14252509655613185
13829,7.0,299.32419,4356.8436,0.0,0.0,0.0,0.0,-0.13783100973465814,0.0,-0.4185255071952516,-0.34498675336254164,-0.5608594034575135,-0.28296975760944076,-1.159096407468909,-0.12982009540724587
13830,7.0,299.67991,4347.4342,0.0,0.0,0.0,0.0,-0.13784097654424196,0.0,-0.4171763646871017,-0.35315664971384764,-0.5511784472320775,-0.23636495448990477,-1.1510364082234488,-0.13935234704800586
13831,7.0,300.14062,3990.336,0.0,0.0,0.0,0.0,-0.1378509433538258,0.0,-0.39399909951468365,-0.3265249413730027,-0.4924384542898915,-0.21393681551391983,-1.136423416606259,-0.12446942560417588
13832,7.0,299.18911,3879.7245,0.0,0.0,0.0,0.0,-0.13786091016340962,0.0,-0.33851899558922366,-0.3133168615494667,-0.5275035141405435,-0.21484255977830982,-1.1184144159539091,-0.13425574970751086
13833,7.0,298.40277000000003,4496.414000000001,0.0,0.0,0.0,0.0,-0.1378708769729934,0.0,-0.3894478131130066,-0.3732302285049557,-0.6041195186594545,-0.22451931101583078,-1.149999346746099,-0.13028949364857187
13834,7.0,298.32673,4536.9013,0.0,0.0,0.0,0.0,-0.13788084378257726,0.0,-0.3929007465387846,-0.37316918018643064,-0.6130347820493225,-0.25085161408462675,-1.176325610844299,-0.15252607769315185
13835,7.0,298.43177000000003,4119.4108,0.0,0.0,0.0,0.0,-0.13789081059216107,0.0,-0.3518043863953897,-0.3423025930526357,-0.5580910319317964,-0.2294663019790608,-1.1462212410982289,-0.11929730060122687
13836,7.0,299.57523,3907.8091,0.0,0.0,0.0,0.0,-0.13790077740174492,0.0,-0.3373423994406027,-0.3014739538506627,-0.5490600452480074,-0.23771918351355678,-1.1638255496606387,-0.1299415840942359
13837,7.0,298.9158,4299.9241,0.0,0.0,0.0,0.0,-0.1379107442113287,0.0,-0.4053030392202956,-0.3465790049671847,-0.5551875131077415,-0.25659984269693276,-1.157714536982529,-0.1118082880521189
13838,7.0,300.06685,4574.0197,0.0,0.0,0.0,0.0,-0.13792071102091252,0.0,-0.4048613635017056,-0.35930653066579366,-0.6262198712280894,-0.24755138758141979,-1.1719149331589989,-0.14813420592970786
13839,7.0,300.52629,4277.1872,0.0,0.0,0.0,0.0,-0.13793067783049637,0.0,-0.3911758098335466,-0.3346464246345307,-0.5743358729675375,-0.22900635736116776,-1.1534511858617689,-0.07525973784930784
13840,7.0,300.01777999999996,4000.2835,0.0,0.0,0.0,0.0,-0.13794064464008018,0.0,-0.3402828107007987,-0.3312180219936737,-0.5444854743590325,-0.2212571928488848,-1.152578878850679,-0.13193769692373689
13841,7.0,299.99549,4317.019,0.0,0.0,0.0,0.0,-0.137950611449664,0.0,-0.4046998311707636,-0.35184253526165465,-0.5557236136031505,-0.24278132021815074,-1.171375377480749,-0.1004543535733228
13842,7.0,299.42946,4543.6696,0.0,0.0,0.0,0.0,-0.13796057825924782,0.0,-0.43509380806041553,-0.37687501070466767,-0.5691932842050035,-0.23802152721089576,-1.1636376930920989,-0.15273363184363584
13843,7.0,299.59668,4285.1398,0.0,0.0,0.0,0.0,-0.13797054506883163,0.0,-0.4215534632640876,-0.3351206966088377,-0.5459013393862675,-0.2374625069982248,-1.138203393056929,-0.13456501390303288
13844,7.0,300.19833,3997.0546,0.0,0.0,0.0,0.0,-0.13798051187841545,0.0,-0.3360823418812447,-0.3361134486593147,-0.5428090115385785,-0.2117188211775208,-1.119390074475199,-0.17665734823222282
13845,7.0,299.52724,4025.6357,0.0,0.0,0.0,0.0,-0.1379904786879993,0.0,-0.34577822328065366,-0.3277147604354287,-0.5501997590929885,-0.24825196896556176,-1.1499735088685488,-0.13357706465802985
13846,7.0,297.9267,4268.5815,0.0,0.0,0.0,0.0,-0.1380004454975831,0.0,-0.35623940234809165,-0.35771520111874167,-0.5835875961856114,-0.25461906034144477,-1.1347589506669888,-0.14956594858600986
13847,7.0,298.97254,4393.3223,0.0,0.0,0.0,0.0,-0.13801041230716693,0.0,-0.39108781919486263,-0.3498451356045266,-0.5945273130102774,-0.25273195295770173,-1.1391549362258389,-0.10905255175514889
13848,7.0,298.53683,4102.3514,0.0,0.0,0.0,0.0,-0.13802037911675075,0.0,-0.3562541451370466,-0.32788983992020765,-0.5628684048282865,-0.2390474125396428,-1.149003119247779,-0.10493670958394691
13849,7.0,299.68582000000004,4033.6309,0.0,0.0,0.0,0.0,-0.13803034592633456,0.0,-0.35732555579278663,-0.3340523763659027,-0.5347451518102375,-0.23094689342268376,-1.1849333730938187,-0.12374795100297188
13850,7.0,299.64112,4212.2863,0.0,0.0,0.0,0.0,-0.13804031273591838,0.0,-0.36434678116822766,-0.3569434287825737,-0.5591396241952845,-0.23743815859832176,-1.1792475201576689,-0.14364552825170987
13851,7.0,299.00765,4366.0012,0.0,0.0,0.0,0.0,-0.1380502795455022,0.0,-0.4263639593063466,-0.35452946174433364,-0.5462619145668535,-0.2319494233366258,-1.156098605723049,-0.13342849179586688
13852,7.0,299.35542999999996,4293.0619,0.0,0.0,0.0,0.0,-0.13806024635508604,0.0,-0.3859762966803946,-0.3532228453428807,-0.5657844778210805,-0.24134923305681477,-1.120462194406009,-0.13136762215247486
13853,7.0,299.67954,4104.913,0.0,0.0,0.0,0.0,-0.13807021316466983,0.0,-0.38158523551703066,-0.33047491450283467,-0.5357308921700225,-0.22643302634719975,-1.156325675070459,-0.1287816863072629
13854,7.0,300.55009,4208.691,0.0,0.0,0.0,0.0,-0.13808017997425368,0.0,-0.3737185035956446,-0.34453991006844165,-0.5610785491891415,-0.24284471927690776,-1.121582646366589,-0.14748105478274684
13855,7.0,301.05374,4517.3904,0.0,0.0,0.0,0.0,-0.1380901467838375,0.0,-0.42155233855647667,-0.34704485683316066,-0.6045766667070714,-0.2398120718601088,-1.1191483130013387,-0.10855718391375989
13856,7.0,300.32617999999997,4508.2684,0.0,0.0,0.0,0.0,-0.1381001135934213,0.0,-0.4099119390226586,-0.36387800100946266,-0.5966110719734284,-0.25492113046125675,-1.140328685141679,-0.13749779538997586
13857,7.0,299.20805,4218.9385,0.0,0.0,0.0,0.0,-0.13811008040300513,0.0,-0.3754603210475486,-0.3425913186686307,-0.5644003275219756,-0.2872307478574677,-1.1720328754706388,-0.1008919843975136
13858,7.0,301.36177999999995,4249.8328,0.0,0.0,0.0,0.0,-0.13812004721258894,0.0,-0.36802552751129164,-0.3636811771775377,-0.5601363380536525,-0.2535205857755337,-1.159552066038879,-0.1224876705285919
13859,7.0,299.97581,4149.96,0.0,0.0,0.0,0.0,-0.13813001402217276,0.0,-0.36918218289794463,-0.3302247734506477,-0.5620772692827075,-0.25246148610850877,-1.148368723360169,-0.08277453660021072
13860,7.0,300.57523,4158.2888,0.0,0.0,0.0,0.0,-0.13813998083175658,0.0,-0.3603084019671706,-0.34194871545521066,-0.5617588554387825,-0.2370608951885888,-1.134982473639049,-0.12815475807288987
13861,7.0,299.82556,4274.964,0.0,0.0,0.0,0.0,-0.13814994764134042,0.0,-0.37068589670884966,-0.35420480627979267,-0.5745916071602765,-0.2399974763634068,-1.1864698655454589,-0.14631723571788688
13862,7.0,299.44577000000004,4204.7394,0.0,0.0,0.0,0.0,-0.13815991445092424,0.0,-0.3928627800575376,-0.35997103021387467,-0.5253019749857685,-0.2027893925512548,-1.157708457481929,-0.17597942312031684
13863,7.0,298.97062999999997,4091.3994,0.0,0.0,0.0,0.0,-0.13816988126050803,0.0,-0.4001361932503676,-0.33827957472309467,-0.5052674975160195,-0.18800725909487181,-1.145418544369009,-0.16790425552085983
13864,7.0,300.09513,4129.7304,0.0,0.0,0.0,0.0,-0.13817984807009187,0.0,-0.3845802913551197,-0.3362260308779257,-0.5345285999988655,-0.23051423562998377,-1.128094196809229,-0.14111044742901685
13865,7.0,299.69501,4128.773,0.0,0.0,0.0,0.0,-0.1381898148796757,0.0,-0.3860551376706756,-0.3303701545749957,-0.5386185941600165,-0.2698506107471817,-1.161528714333959,-0.13995907107538488
13866,7.0,299.20261,3947.1453,0.0,0.0,0.0,0.0,-0.13819978168925953,0.0,-0.32404317777057173,-0.3326295199129777,-0.5431609234308095,-0.26205917344072677,-1.124080003888059,-0.11494719500690488
13867,7.0,300.8886,4225.5461,0.0,0.0,0.0,0.0,-0.13820974849884335,0.0,-0.3569822362614037,-0.3468242621538897,-0.5806540040985885,-0.2316160032587198,-1.1532168211136389,-0.1089662532441319
13868,7.0,300.57126,4517.16,0.0,0.0,0.0,0.0,-0.13821971530842714,0.0,-0.38651098875816464,-0.38445798193554864,-0.6021348960860874,-0.25195504344352676,-1.1547923236941289,-0.11974917974832389
13869,7.0,299.73261,4592.795,0.0,0.0,0.0,0.0,-0.13822968211801098,0.0,-0.41837024688242863,-0.3925895774330746,-0.5851351735933454,-0.2685823863920177,-1.2019374322969887,-0.11389278668784289
13870,7.0,300.50539,4554.2663,0.0,0.0,0.0,0.0,-0.1382396489275948,0.0,-0.43464313468093757,-0.37238134783617766,-0.5773587627858735,-0.23525175740004078,-1.1465311943038188,-0.13603336528544785
13871,7.0,300.71709,4411.7481,0.0,0.0,0.0,0.0,-0.13824961573717862,0.0,-0.4253677622055296,-0.33685205731970963,-0.5788414313922015,-0.21647872564228682,-1.1337968696970389,-0.11666734917167088
13872,7.0,300.36872,4119.0988,0.0,0.0,0.0,0.0,-0.13825958254676246,0.0,-0.3472797484713427,-0.3438481135626667,-0.5609753294014544,-0.2165093865903128,-1.114442678211929,-0.13354113480948387
13873,7.0,300.48489,4038.2211,0.0,0.0,0.0,0.0,-0.13826954935634625,0.0,-0.35695580056629467,-0.30425427159505875,-0.5663082977252775,-0.2504921737441528,-1.151969712890559,-0.11942592256892089
13874,7.0,299.42942999999997,4241.2938,0.0,0.0,0.0,0.0,-0.13827951616593007,0.0,-0.38989047168419366,-0.3397643103596267,-0.5595926483149944,-0.23976179439014678,-1.1367675163402189,-0.14488342603138085
13875,7.0,298.9727,4054.9608,0.0,0.0,0.0,0.0,-0.1382894829755139,0.0,-0.36809821807346566,-0.32098524976377774,-0.5435233629915796,-0.22947800501771579,-1.154126415728409,-0.10116148967236172
13876,7.0,300.08182999999997,3935.3551,0.0,0.0,0.0,0.0,-0.13829944978509773,0.0,-0.3365744875873157,-0.32106691772183765,-0.5386082792739986,-0.2341479835361068,-1.178824893540959,-0.12808626236612988
13877,7.0,300.14319,4357.4025,0.0,0.0,0.0,0.0,-0.13830941659468154,0.0,-0.40275532316885565,-0.35107232333064065,-0.5707138888950755,-0.2373100128581748,-1.210924150083909,-0.10991569898533489
13878,7.0,300.21307,4512.2707,0.0,0.0,0.0,0.0,-0.13831938340426536,0.0,-0.38424079177661363,-0.3919305291705316,-0.5954462903209734,-0.2521902998517448,-1.141951405176829,-0.1345297426670519
13879,7.0,299.20533,4389.7116,0.0,0.0,0.0,0.0,-0.13832935021384918,0.0,-0.3838580365513386,-0.3923200022439696,-0.5581846866385395,-0.24248772086917478,-1.149770352223499,-0.13503465532438289
13880,7.0,299.51971000000003,4240.7975,0.0,0.0,0.0,0.0,-0.138339317023433,0.0,-0.36301092236888866,-0.36127021949209465,-0.5648154054254405,-0.2564553228351698,-1.138723494333259,-0.1351148439372969
13881,7.0,300.69781,4165.6187,0.0,0.0,0.0,0.0,-0.13834928383301684,0.0,-0.3922571807377696,-0.33826084986124666,-0.5357260589670455,-0.25242429982983877,-1.1761573100026887,-0.13634149464085787
13882,7.0,301.20354,3941.0954,0.0,0.0,0.0,0.0,-0.13835925064260066,0.0,-0.37763015560669466,-0.3025830878076257,-0.5177813389010395,-0.20963061404643077,-1.115846333575459,-0.13833309850741388
13883,7.0,300.11284,3921.0557,0.0,0.0,0.0,0.0,-0.13836921745218445,0.0,-0.36819374729289367,-0.27871255691678776,-0.5449966995644865,-0.22168423723603076,-1.125963939798989,-0.14206624624834688
13884,7.0,299.7634,4123.0471,0.0,0.0,0.0,0.0,-0.1383791842617683,0.0,-0.34775371647061964,-0.34251655094375166,-0.5630331086320415,-0.20975681434638582,-1.126504812702369,-0.1320736244246519
13885,7.0,299.09179,4301.1687,0.0,0.0,0.0,0.0,-0.1383891510713521,0.0,-0.38094033222588364,-0.3204336060118347,-0.6060739565123424,-0.24838527214871775,-1.191670776983749,-0.14361792731898587
13886,7.0,300.30495,4591.3587,0.0,0.0,0.0,0.0,-0.13839911788093595,0.0,-0.43783988808393254,-0.37352637111168263,-0.5842921393776445,-0.2221433813863448,-1.1358696754266089,-0.13424304355125688
13887,7.0,300.0487,4537.7631,0.0,0.0,0.0,0.0,-0.13840908469051977,0.0,-0.42654646591435863,-0.35992966934479265,-0.5928905493287414,-0.2295733417196248,-1.1365448039682389,-0.13473342620215387
13888,7.0,299.49731,4166.0737,0.0,0.0,0.0,0.0,-0.13841905150010356,0.0,-0.37621292269182466,-0.3127501912985407,-0.5774192740818455,-0.2531553699094898,-1.1481976867432888,-0.10935266630226789
13889,7.0,299.47472,4117.4224,0.0,0.0,0.0,0.0,-0.1384290183096874,0.0,-0.3431602889972837,-0.33600468639358066,-0.5724286221718065,-0.25697750127420477,-1.1968284226427688,-0.12695963971244087
13890,7.0,300.13003,4298.8236,0.0,0.0,0.0,0.0,-0.13843898511927122,0.0,-0.39161663442205263,-0.33165267588907066,-0.5834657123310825,-0.2531141508954217,-1.164060015733779,-0.1091637458211229
13891,7.0,299.51132,4189.9412,0.0,0.0,0.0,0.0,-0.13844895192885504,0.0,-0.4010133537294366,-0.33287604366230766,-0.5397480944439895,-0.24517576192696375,-1.145056712758299,-0.11902243624659989
13892,7.0,301.17658,3961.0251,0.0,0.0,0.0,0.0,-0.13845891873843888,0.0,-0.3414604808945257,-0.33777820844111367,-0.5248140241351115,-0.2798108288326787,-1.1396547725001689,-0.13895818262660486
13893,7.0,300.60103,4068.8032,0.0,0.0,0.0,0.0,-0.13846888554802267,0.0,-0.37970708526417163,-0.3232896135387007,-0.5338178861137235,-0.24489858736210876,-1.164653577642359,-0.14645848278182685
13894,7.0,300.31927,4360.9184,0.0,0.0,0.0,0.0,-0.13847885235760649,0.0,-0.40018281288746865,-0.34295957428497464,-0.5824679041626064,-0.21683189396464178,-1.1409600412789889,-0.15541825824858785
13895,7.0,300.15517,4452.4554,0.0,0.0,0.0,0.0,-0.13848881916719033,0.0,-0.42602193673509164,-0.35197633493735964,-0.5754369921162095,-0.2058630765971038,-1.1320576259003887,-0.16359263316533584
13896,7.0,300.8942,4344.1862,0.0,0.0,0.0,0.0,-0.13849878597677415,0.0,-0.37704966462440465,-0.36374240788108064,-0.5797320579650995,-0.24084797823234477,-1.162527474957529,-0.15631388014447883
13897,7.0,299.49258,4180.7191,0.0,0.0,0.0,0.0,-0.13850875278635796,0.0,-0.3691074455705686,-0.3588335556516147,-0.5428932227543896,-0.2884997828127117,-1.221050064958259,-0.16164547044816585
13898,7.0,299.50726000000003,4375.3487,0.0,0.0,0.0,0.0,-0.13851871959594178,0.0,-0.37776774483777364,-0.3622596278172417,-0.5899693796879444,-0.25409207909693576,-1.1639630476992089,-0.13390972479836086
13899,7.0,298.63475,4511.8033,0.0,0.0,0.0,0.0,-0.1385286864055256,0.0,-0.4154196929887316,-0.36404073910802365,-0.5920151012423415,-0.2342268650563918,-1.146167437517919,-0.12187918344603889
13900,7.0,298.10937,4357.732,0.0,0.0,0.0,0.0,-0.13853865321510944,0.0,-0.35864781677578367,-0.3579020950996866,-0.6080918136889895,-0.24926321283036376,-1.1101356560118592,-0.07211080478478234
13901,7.0,299.51946,4184.1565,0.0,0.0,0.0,0.0,-0.13854862002469326,0.0,-0.3582831885947977,-0.3200828289597157,-0.5935130699251795,-0.27329385750200375,-1.181967691376129,-0.12454410213654589
13902,7.0,300.1164,4415.1287,0.0,0.0,0.0,0.0,-0.13855858683427708,0.0,-0.4118574501421656,-0.33581402312226366,-0.5944174260369324,-0.23407906226430478,-1.172921901108379,-0.0991702688143435
13903,7.0,300.05528,4526.1526,0.0,0.0,0.0,0.0,-0.13856855364386086,0.0,-0.46167469177624454,-0.35425537759228365,-0.5599073030010485,-0.20952596557610279,-1.1513378501281988,-0.16170687340422585
13904,7.0,300.9662,4171.9549,0.0,0.0,0.0,0.0,-0.1385785204534447,0.0,-0.4106808033310396,-0.2995147942523087,-0.5579745183027975,-0.22160172828038777,-1.151343828303789,-0.13255040925920686
13905,7.0,300.09787,3911.8616,0.0,0.0,0.0,0.0,-0.13858848726302853,0.0,-0.35256966379841664,-0.3243555729089027,-0.5121830105085274,-0.2538274283033168,-1.1629673268259388,-0.17696386651997384
13906,7.0,299.67071,4114.805,0.0,0.0,0.0,0.0,-0.13859845407261237,0.0,-0.35844746683351064,-0.30026007009836175,-0.5920904262547755,-0.25313319999730177,-1.118492334886599,-0.11885358824993589
13907,7.0,300.07425,4391.8526,0.0,0.0,0.0,0.0,-0.1386084208821962,0.0,-0.4060924117107006,-0.35967558674971667,-0.5692455172476585,-0.21974197864934478,-1.119243457185729,-0.13743794270656887
13908,7.0,299.62597,4202.2695,0.0,0.0,0.0,0.0,-0.13861838769177998,0.0,-0.3574598620935417,-0.3519100683808197,-0.5680150668562225,-0.25108034516220074,-1.141670025624059,-0.11529483098371389
13909,7.0,300.27938,4209.1742,0.0,0.0,0.0,0.0,-0.13862835450136382,0.0,-0.36548978807603366,-0.35217939025739964,-0.5618146753867914,-0.2767936537449067,-1.1873862489358988,-0.12709452356575288
13910,7.0,300.48475,4338.0327,0.0,0.0,0.0,0.0,-0.13863832131094764,0.0,-0.3895412043747236,-0.3514824059111127,-0.5776299895726414,-0.25780414110328775,-1.170564777400749,-0.12129996915887489
13911,7.0,299.51159,4325.5725,0.0,0.0,0.0,0.0,-0.13864828812053145,0.0,-0.3759596304318266,-0.36276277741939866,-0.5761436226034484,-0.22831599967053479,-1.1158461309254388,-0.11602278025305687
13912,7.0,299.38043,4252.2744,0.0,0.0,0.0,0.0,-0.1386582549301153,0.0,-0.3548866931995897,-0.3525810121995367,-0.5851175531741065,-0.2246050015767878,-1.1207708303864687,-0.1235770055786009
13913,7.0,299.76,4015.6451,0.0,0.0,0.0,0.0,-0.1386682217396991,0.0,-0.36424209216789566,-0.31396809765373873,-0.5424456600527184,-0.24243280271375478,-1.1632302652268887,-0.1281545351578679
13914,7.0,298.78069,3977.2021,0.0,0.0,0.0,0.0,-0.1386781885492829,0.0,-0.36527478653731466,-0.3117852124333047,-0.5319101286929424,-0.2320455301086108,-1.1735644029967887,-0.15705152621727886
13915,7.0,299.35407999999995,4167.0446,0.0,0.0,0.0,0.0,-0.13868815535886675,0.0,-0.4208771796173436,-0.33450596790566867,-0.5112943699058254,-0.21544801724306378,-1.1660348401786789,-0.16732640912133084
13916,7.0,299.69522,4240.5701,0.0,0.0,0.0,0.0,-0.13869812216845057,0.0,-0.40984737472628663,-0.3138359090456927,-0.5653441497251234,-0.2259381043358548,-1.1670136397752788,-0.13205803050561288
13917,7.0,300.10663,4264.2626,0.0,0.0,0.0,0.0,-0.13870808897803438,0.0,-0.37058717575160666,-0.3520071884029047,-0.5736349876083654,-0.2579429766319898,-1.1778588608956189,-0.12062421240218288
13918,7.0,300.70827,4335.6819,0.0,0.0,0.0,0.0,-0.1387180557876182,0.0,-0.3857312117462066,-0.3254594075678427,-0.6067484061764054,-0.2518388337895578,-1.133215669439679,-0.08946162147692462
13919,7.0,299.85271,4456.0151,0.0,0.0,0.0,0.0,-0.13872802259720202,0.0,-0.4023910698904066,-0.36220389906174166,-0.5899223547508035,-0.24894714972667079,-1.102164822775199,-0.1053631662860349
13920,7.0,299.31824,4390.8148,0.0,0.0,0.0,0.0,-0.13873798940678583,0.0,-0.39414486567406964,-0.3583179734707307,-0.5822352214096425,-0.2442250394906348,-1.148623961060359,-0.09907358651630171
13921,7.0,299.98309,4351.1755,0.0,0.0,0.0,0.0,-0.13874795621636968,0.0,-0.38730772757679666,-0.36914013301879467,-0.5662008526846735,-0.26909526319513477,-1.1960014079111487,-0.13050736268507387
13922,7.0,299.67135,4300.7084,0.0,0.0,0.0,0.0,-0.1387579230259535,0.0,-0.4165128479916176,-0.3351914417308197,-0.5556036853213145,-0.22834777519367078,-1.1778453846692887,-0.1064005925334209
13923,7.0,298.74925,4286.3331,0.0,0.0,0.0,0.0,-0.13876788983553728,0.0,-0.3868697299560696,-0.3503809827874107,-0.5656875300515125,-0.2253487170176868,-1.142734951479159,-0.15828711378672183
13924,7.0,298.26738,4093.2725,0.0,0.0,0.0,0.0,-0.13877785664512113,0.0,-0.38086987081392965,-0.30617286065940874,-0.5572099096448364,-0.2163563756927118,-1.154304646420999,-0.13191165639616687
13925,7.0,298.62917000000004,3932.4649,0.0,0.0,0.0,0.0,-0.13878782345470494,0.0,-0.32894502844184664,-0.32937136355392266,-0.5370547338231755,-0.24317682212968378,-1.1772884010893188,-0.16202616877573783
13926,7.0,299.79738,4213.0598,0.0,0.0,0.0,0.0,-0.1387977902642888,0.0,-0.3697381430953136,-0.3481242215021857,-0.5628026246317945,-0.24090311930278677,-1.142547702860679,-0.15695266340502184
13927,7.0,299.9828,4346.7573,0.0,0.0,0.0,0.0,-0.1388077570738726,0.0,-0.4029770222907356,-0.36020894133735465,-0.5581197170421275,-0.2438265282263048,-1.1423689655430387,-0.16440376013538785
13928,7.0,299.68539,4231.7369,0.0,0.0,0.0,0.0,-0.1388177238834564,0.0,-0.36184869410668563,-0.3653116789734557,-0.5591819780494645,-0.24780250135370277,-1.190001650094019,-0.14323128121332684
13929,7.0,300.44792,4008.2994,0.0,0.0,0.0,0.0,-0.13882769069304024,0.0,-0.34198808022159566,-0.3239675791806107,-0.5524672608292734,-0.2903021318255897,-1.1876848537403688,-0.1136470026110859
13930,7.0,300.18359,4174.3177,0.0,0.0,0.0,0.0,-0.13883765750262406,0.0,-0.3563397039754907,-0.35202180960184765,-0.5605268345096914,-0.23878919588415876,-1.181763825456009,-0.1044987626257249
13931,7.0,300.65082,4427.7588,0.0,0.0,0.0,0.0,-0.13884762431220787,0.0,-0.41215673382420265,-0.36577405539158864,-0.5679973147144705,-0.2358524829868278,-1.125570494785159,-0.10804284803049889
13932,7.0,299.62933,4486.8004,0.0,0.0,0.0,0.0,-0.13885759112179172,0.0,-0.4177606857547696,-0.35848144110936364,-0.5876331491973764,-0.24408858509966777,-1.153217834363739,-0.14787426674905388
13933,7.0,299.21468,4284.0765,0.0,0.0,0.0,0.0,-0.1388675579313755,0.0,-0.37918647736279165,-0.36506909676701466,-0.5579966983474864,-0.26550283562808974,-1.1776457743995887,-0.14711899012451385
13934,7.0,298.43473,4328.8709,0.0,0.0,0.0,0.0,-0.13887752474095932,0.0,-0.4037411344561476,-0.31489520123023673,-0.5972323260072414,-0.23446900143278876,-1.150820281977119,-0.12627181514705788
13935,7.0,299.33156,4510.5144,0.0,0.0,0.0,0.0,-0.13888749155054317,0.0,-0.4155973663937666,-0.34925845366412567,-0.6062279097325365,-0.2269511517858348,-1.140346822318469,-0.12509138891305888
13936,7.0,298.92285,4191.5008,0.0,0.0,0.0,0.0,-0.13889745836012699,0.0,-0.39579576419450063,-0.3044920205985227,-0.5738238067645005,-0.2257762984273858,-1.1812032955006888,-0.1086438269298109
13937,7.0,299.05791,4042.3153,0.0,0.0,0.0,0.0,-0.1389074251697108,0.0,-0.36035027959380367,-0.3021293949428497,-0.5662832501828055,-0.2692692990323107,-1.189283357098129,-0.12371940774765489
13938,7.0,298.47156,4218.4049,0.0,0.0,0.0,0.0,-0.13891739197929462,0.0,-0.3899190858670176,-0.3451647307426067,-0.5472059495525224,-0.23685156785042974,-1.1644219486694989,-0.11742137949858789
13939,7.0,298.4206,4504.4159,0.0,0.0,0.0,0.0,-0.13892735878887844,0.0,-0.42459056898132663,-0.36749142311857963,-0.5771479763675704,-0.24222210748796077,-1.1345006732164988,-0.14203383237764786
13940,7.0,298.85175,4536.7572,0.0,0.0,0.0,0.0,-0.13893732559846225,0.0,-0.4101349047071636,-0.37219224497001463,-0.5967337664280374,-0.24233776998687578,-1.147779113126979,-0.12997165735720387
13941,7.0,299.82306,4286.7784,0.0,0.0,0.0,0.0,-0.1389472924080461,0.0,-0.36343138063038466,-0.35959922822218066,-0.5800429838907855,-0.25489999406417074,-1.1635472098581687,-0.12440659396547488
13942,7.0,300.08355,4153.2807,0.0,0.0,0.0,0.0,-0.1389572592176299,0.0,-0.3684590465665767,-0.3449006068390397,-0.5491339821078045,-0.23975125658910676,-1.150601014655479,-0.12928499802943588
13943,7.0,300.55085,4281.5047,0.0,0.0,0.0,0.0,-0.1389672260272137,0.0,-0.38564803404549763,-0.36873637311894664,-0.5470861124631955,-0.24397463499342179,-1.1374699013095388,-0.16170512048155283
13944,7.0,300.94396,4295.5992,0.0,0.0,0.0,0.0,-0.13897719283679755,0.0,-0.4150763531923466,-0.3483334475153347,-0.5423451152452955,-0.28388042626931675,-1.177160427601689,-0.16757505056336985
13945,7.0,300.02002999999996,3966.1321,0.0,0.0,0.0,0.0,-0.13898715964638136,0.0,-0.3654589143454866,-0.3120983877742127,-0.5280478118292615,-0.26494734152576677,-1.173300653995759,-0.15180419779190787
13946,7.0,299.20825,3941.2085,0.0,0.0,0.0,0.0,-0.1389971264559652,0.0,-0.3331382322581837,-0.3237838465399777,-0.5411068932255925,-0.23825239624618078,-1.140274982886379,-0.14618626300996088
13947,7.0,298.97269,4269.3456,0.0,0.0,0.0,0.0,-0.139007093265549,0.0,-0.38251771945155966,-0.3200258437740917,-0.5952308936147154,-0.23138884271880075,-1.117199731734029,-0.1091307949278709
13948,7.0,299.3887,4665.55,0.0,0.0,0.0,0.0,-0.13901706007513281,0.0,-0.4378277594802356,-0.3710736573896186,-0.6093092944791454,-0.21114135981302978,-1.173999289939709,-0.14175619171774687
13949,7.0,299.50219,4545.8625,0.0,0.0,0.0,0.0,-0.13902702688471666,0.0,-0.4069885503641426,-0.37343168288983764,-0.6014084362943914,-0.24148426889764177,-1.170867536530629,-0.09331475018869881
13950,7.0,299.64108,4331.7866,0.0,0.0,0.0,0.0,-0.13903699369430048,0.0,-0.40993748305767963,-0.3433582983318257,-0.5634591802990915,-0.24613959581958678,-1.163703250373569,-0.11751726335555089
13951,7.0,300.67795,4260.0932,0.0,0.0,0.0,0.0,-0.1390469605038843,0.0,-0.38289794155158463,-0.3464805170574647,-0.5655835097962465,-0.24562193647599775,-1.144275496931199,-0.11703325404778288
13952,7.0,300.99976000000004,4193.7771,0.0,0.0,0.0,0.0,-0.1390569273134681,0.0,-0.37654515726711363,-0.3204221968157087,-0.5778361758354905,-0.2606365703003268,-1.167054068454269,-0.12080473303999889
13953,7.0,301.27336,4096.4397,0.0,0.0,0.0,0.0,-0.13906689412305193,0.0,-0.34094790806643865,-0.3287184454544847,-0.5755490271797664,-0.2353035344801508,-1.163935689946509,-0.11781782373271389
13954,7.0,301.53817000000004,4142.6619,0.0,0.0,0.0,0.0,-0.13907686093263574,0.0,-0.3579856882329367,-0.33422245039518766,-0.5670576265717304,-0.2112814112418518,-1.1515487074740092,-0.10874783705257589
13955,7.0,300.70889,4374.8435,0.0,0.0,0.0,0.0,-0.13908682774221956,0.0,-0.3909314544394306,-0.3713359270455026,-0.5675757925403694,-0.22845161306391878,-1.149811996802609,-0.15516622241871386
13956,7.0,300.29942,4565.6848,0.0,0.0,0.0,0.0,-0.1390967945518034,0.0,-0.4488226883028506,-0.3577605541932177,-0.5812709214219735,-0.23317175759476078,-1.1812868886339387,-0.13483665612234189
13957,7.0,300.21564,4552.823,0.0,0.0,0.0,0.0,-0.13910676136138722,0.0,-0.4016508704273546,-0.38989134307927964,-0.5924022945030545,-0.23736758572885674,-1.151427826737079,-0.15026578016507786
13958,7.0,299.77252000000004,4259.601,0.0,0.0,0.0,0.0,-0.13911672817097104,0.0,-0.3696714813712347,-0.3717069387021186,-0.5534339216896754,-0.21236214379851182,-1.111594229530809,-0.11578779742236589
13959,7.0,300.17667,4173.6634,0.0,0.0,0.0,0.0,-0.13912669498055485,0.0,-0.3497948581345646,-0.35214340974634867,-0.5667511994764884,-0.24754478119076775,-1.1399149751258488,-0.13110172506123288
13960,7.0,300.15172,4249.5568,0.0,0.0,0.0,0.0,-0.13913666179013867,0.0,-0.36199162316579164,-0.36045746118938166,-0.5693100714115295,-0.25937512458833173,-1.175883124525629,-0.12512325562870388
13961,7.0,299.48969,4083.7021,0.0,0.0,0.0,0.0,-0.1391466285997225,0.0,-0.37614670679778966,-0.3356291556415187,-0.5295676059192536,-0.2600855041009407,-1.205867728109879,-0.12128173065707488
13962,7.0,299.5419,3995.3938,0.0,0.0,0.0,0.0,-0.13915659540930633,0.0,-0.3615190230541497,-0.3373303620294147,-0.5156505550007475,-0.23023702053512476,-1.1609971633314988,-0.14434289763303487
13963,7.0,299.92613,4171.6259,0.0,0.0,0.0,0.0,-0.13916656221889012,0.0,-0.36914747908201967,-0.3481503937522687,-0.5507722352669875,-0.25657088400907474,-1.1575155346628887,-0.14572070498651385
13964,7.0,300.55667,4308.9381,0.0,0.0,0.0,0.0,-0.13917652902847394,0.0,-0.39519533245024263,-0.34633452798305664,-0.5682797379148435,-0.23507149007474976,-1.176614387122799,-0.17273507736012483
13965,7.0,301.03493,4350.0091,0.0,0.0,0.0,0.0,-0.13918649583805778,0.0,-0.3886248716467886,-0.3331919446459847,-0.6004773101149965,-0.24261718383445177,-1.1492728464243989,-0.1088932891044309
13966,7.0,300.68844,4449.8604,0.0,0.0,0.0,0.0,-0.1391964626476416,0.0,-0.4071064318807766,-0.36718555331089264,-0.5783544633941414,-0.21817191722189178,-1.1288550463093188,-0.13218084655023388
13967,7.0,300.37311,4494.686,0.0,0.0,0.0,0.0,-0.13920642945722542,0.0,-0.43844692621884257,-0.3561939074186017,-0.5716314881856355,-0.2297606612656118,-1.1523048960236388,-0.0900981502559951
13968,7.0,300.82491,4554.3951,0.0,0.0,0.0,0.0,-0.13921639626680923,0.0,-0.4274889911573786,-0.37706647444356367,-0.5798669215534094,-0.25157040357306576,-1.1877654071233188,-0.13423778478323786
13969,7.0,300.12002,4560.5244,0.0,0.0,0.0,0.0,-0.13922636307639305,0.0,-0.4026801704089386,-0.38025167679541866,-0.6033536839688725,-0.24376790157551875,-1.156932510555349,-0.1093417130686869
13970,7.0,299.77726,4460.6720000000005,0.0,0.0,0.0,0.0,-0.13923632988597687,0.0,-0.3936843536361206,-0.3742452315276287,-0.5880033299889105,-0.23685320931559178,-1.1327753109462189,-0.1203113815663089
13971,7.0,300.03733,4406.5344,0.0,0.0,0.0,0.0,-0.1392462966955607,0.0,-0.3604742608760397,-0.3732715995065386,-0.6057305559209514,-0.24353196628973375,-1.165622244737959,-0.12770328422583288
13972,7.0,299.88725,4289.8216,0.0,0.0,0.0,0.0,-0.13925626350514453,0.0,-0.38571816108491863,-0.34894805462849166,-0.5693324338412364,-0.27156583038396076,-1.1942625694145388,-0.1318450858645969
13973,7.0,300.94826,4232.1118,0.0,0.0,0.0,0.0,-0.13926623031472832,0.0,-0.4007830723792096,-0.34262444181439966,-0.5430488073072445,-0.2534724969257877,-1.167346289783109,-0.15268673862900783
13974,7.0,301.18102999999996,4097.4363,0.0,0.0,0.0,0.0,-0.13927619712431216,0.0,-0.36489675305750563,-0.3406861450356047,-0.5399354139899765,-0.22990597146245279,-1.134241179865889,-0.15325382431247486
13975,7.0,299.88011,4194.0361,0.0,0.0,0.0,0.0,-0.13928616393389598,0.0,-0.3384883245086967,-0.36381436890318264,-0.5725795559067024,-0.23702748833279177,-1.1714274585358888,-0.1764730583040348
13976,7.0,299.05748,4422.7549,0.0,0.0,0.0,0.0,-0.13929613074347982,0.0,-0.38429719940968066,-0.37110693252290267,-0.5890029113450614,-0.23436700767772278,-1.1795712535646188,-0.15620114593835285
13977,7.0,299.02522999999997,4242.0837,0.0,0.0,0.0,0.0,-0.13930609755306364,0.0,-0.36333357159823165,-0.35933924851152266,-0.5668147099927565,-0.2160971964496328,-1.1644521435224788,-0.14872120197763986
13978,7.0,299.14169,4094.6978,0.0,0.0,0.0,0.0,-0.13931606436264743,0.0,-0.39775814592817266,-0.3330106640705937,-0.5139170765971665,-0.24455783135347878,-1.126155849367929,-0.1134981257738929
13979,7.0,300.33054,4410.6666,0.0,0.0,0.0,0.0,-0.13932603117223125,0.0,-0.42998027931074956,-0.34598202840576764,-0.5647702043384796,-0.24257516435280474,-1.1860553449295488,-0.1027927027698499
13980,7.0,299.79016,4420.8903,0.0,0.0,0.0,0.0,-0.1393359979818151,0.0,-0.4153411154434766,-0.35115868263666367,-0.5773404736215685,-0.2755137162185868,-1.160495908507029,-0.13326342322207588
13981,7.0,300.92054,4253.6133,0.0,0.0,0.0,0.0,-0.1393459647913989,0.0,-0.34862138279625166,-0.32973775479008266,-0.6146330928895635,-0.2526547129025788,-1.131727914317849,-0.11287105568450588
13982,7.0,301.10457,4328.4125,0.0,0.0,0.0,0.0,-0.13935593160098275,0.0,-0.3739024996813036,-0.34656948041624464,-0.5952573394423255,-0.25707184499101576,-1.1356894182338189,-0.13353551127142888
13983,7.0,300.36885,4351.291,0.0,0.0,0.0,0.0,-0.13936589841056654,0.0,-0.38982453950018664,-0.34488487106498666,-0.5879744016985554,-0.25784199612702374,-1.162107482791079,-0.12350301805629887
13984,7.0,300.74105,4287.7567,0.0,0.0,0.0,0.0,-0.13937586522015036,0.0,-0.4136856572975956,-0.3374054539943257,-0.5522798602232785,-0.24696929566397174,-1.1951334578754889,-0.13789971117464186
13985,7.0,301.38717,4328.4765,0.0,0.0,0.0,0.0,-0.1393858320297342,0.0,-0.4120243932286416,-0.33405956030911166,-0.5696648204040404,-0.20461839004176283,-1.1696358297090688,-0.12129677742105989
13986,7.0,301.31223,4375.1897,0.0,0.0,0.0,0.0,-0.13939579883931802,0.0,-0.38542091403558265,-0.34857478342415266,-0.5959527228534545,-0.22065645712959678,-1.1263817028152188,-0.12461016604306586
13987,7.0,301.06266,4438.7164,0.0,0.0,0.0,0.0,-0.13940576564890184,0.0,-0.3647385847168957,-0.35040525012730567,-0.6341151261397904,-0.2194470722077398,-1.1862798811517088,-0.12829282353151586
13988,7.0,299.76395,4560.3877,0.0,0.0,0.0,0.0,-0.13941573245848565,0.0,-0.37098507906587663,-0.37944193797800363,-0.6358169607427484,-0.24858774991620078,-1.1710089862445887,-0.11613935467706189
13989,7.0,299.0032,4496.2854,0.0,0.0,0.0,0.0,-0.13942569926806947,0.0,-0.39077435001142563,-0.37207236735068366,-0.6039117719914514,-0.22712099276759679,-1.153025418169749,-0.12253041955031088
13990,7.0,300.74069,4220.2253,0.0,0.0,0.0,0.0,-0.1394356660776533,0.0,-0.4019937745261966,-0.34156274822711863,-0.5392865691559405,-0.24942219177105376,-1.1339025516824688,-0.11430757074877888
13991,7.0,300.18143,4171.0833,0.0,0.0,0.0,0.0,-0.13944563288723713,0.0,-0.36458342572908264,-0.35154135680193066,-0.5517803887189845,-0.27107254983777773,-1.1924537153360188,-0.15310694357797885
13992,7.0,300.34159,4246.0722,0.0,0.0,0.0,0.0,-0.13945559969682095,0.0,-0.36356627461619767,-0.34082097822641166,-0.5863126614020544,-0.27564036234858574,-1.1717499760427188,-0.14527251406978087
13993,7.0,298.93582999999995,4104.5691,0.0,0.0,0.0,0.0,-0.13946556650640474,0.0,-0.33349822988621264,-0.35147502945038467,-0.5627132661054755,-0.23227308581606881,-1.167361995159659,-0.17223530188080083
13994,7.0,299.67652000000004,3974.1952,0.0,0.0,0.0,0.0,-0.13947553331598858,0.0,-0.33743925601766167,-0.32584489856838766,-0.5447719505598054,-0.2102904830415548,-1.1354082413310689,-0.13663451643727687
13995,7.0,299.54936000000004,4117.1688,0.0,0.0,0.0,0.0,-0.1394855001255724,0.0,-0.38868926369064366,-0.3343943077446487,-0.5284329380597705,-0.22452979815436577,-1.217554858738309,-0.15396444700510786
13996,7.0,299.71943,4395.7415,0.0,0.0,0.0,0.0,-0.13949546693515624,0.0,-0.4470279589307246,-0.34237257823704265,-0.5467951070344755,-0.25155523521906875,-1.1793230072901189,-0.13082217949114386
13997,7.0,299.53578,4462.0013,0.0,0.0,0.0,0.0,-0.13950543374474006,0.0,-0.43472095228861757,-0.3365947019268107,-0.5850213349446105,-0.2206732466837538,-1.152616774404419,-0.1186197706568599
13998,7.0,300.5241,4462.7911,0.0,0.0,0.0,0.0,-0.13951540055432385,0.0,-0.38900778899207966,-0.3634941210765767,-0.6040751484375754,-0.2242366446354338,-1.100004573561999,-0.11000091331874488
13999,7.0,301.15677,4270.4351,0.0,0.0,0.0,0.0,-0.1395253673639077,0.0,-0.34368827335939167,-0.3307837430008137,-0.6236336111428454,-0.2706011858912577,-1.166525557202109,-0.09754934425837072
14000,7.0,301.32332,4253.1251,0.0,0.0,0.0,0.0,-0.1395353341734915,0.0,-0.3415837630341927,-0.3483563976300997,-0.6029036793344604,-0.2532545164317747,-1.1735999680752989,-0.11342787714445991
14001,7.0,300.23285,4321.2137,0.0,0.0,0.0,0.0,-0.13954530098307533,0.0,-0.4140888295123856,-0.34385531777087763,-0.5555969269431474,-0.21645650506759379,-1.1558046618690387,-0.13295530399916689
14002,7.0,300.24868,4307.6952,0.0,0.0,0.0,0.0,-0.13955526779265917,0.0,-0.4247032423924466,-0.3452130627723767,-0.5395154724860315,-0.2018947129779568,-1.161229298929409,-0.12355219108365188
14003,7.0,300.17015,4202.3408,0.0,0.0,0.0,0.0,-0.13956523460224296,0.0,-0.36401582328806464,-0.3588513381908697,-0.5545395092712885,-0.2246255300238138,-1.2177189039294989,-0.15826907793494185
14004,7.0,299.22434,4245.7631,0.0,0.0,0.0,0.0,-0.13957520141182678,0.0,-0.35830597658954666,-0.3559193369065037,-0.5763806724643434,-0.26213709237341676,-1.1812286267531888,-0.15741609360325887
14005,7.0,299.76492,4431.0724,0.0,0.0,0.0,0.0,-0.13958516822141062,0.0,-0.38582550480051264,-0.36069025539985666,-0.6004195953893003,-0.2108098243803098,-1.122492950256429,-0.16165071908368386
14006,7.0,299.83641,4303.7423,0.0,0.0,0.0,0.0,-0.13959513503099444,0.0,-0.3922601799580656,-0.3525688835958397,-0.5634011109358605,-0.24790711942652774,-1.116380519028179,-0.13027510549715188
14007,7.0,299.98693,4206.3891,0.0,0.0,0.0,0.0,-0.13960510184057826,0.0,-0.3822358130087376,-0.35144832017774863,-0.5449531298101864,-0.26177105577479176,-1.201865592864899,-0.13148147093371088
14008,7.0,300.36556,4363.8286,0.0,0.0,0.0,0.0,-0.13961506865016207,0.0,-0.4358611524936466,-0.3467668818007267,-0.5438668750404815,-0.26731788066472073,-1.186890972287019,-0.10281871289991691
14009,7.0,299.4528,4448.0187,0.0,0.0,0.0,0.0,-0.1396250354597459,0.0,-0.4058468606814666,-0.36079671758786364,-0.5854430293712285,-0.22598724696570477,-1.1324667762907688,-0.12687769817685388
14010,7.0,299.5357,4323.0081,0.0,0.0,0.0,0.0,-0.1396350022693297,0.0,-0.38248686598601467,-0.35714511621497863,-0.5744545346867485,-0.2270253723556598,-1.123671157472709,-0.11946292646257288
14011,7.0,299.68619,4275.1671,0.0,0.0,0.0,0.0,-0.13964496907891355,0.0,-0.33790741809386565,-0.35578485835323165,-0.6058517811629154,-0.26060828035753475,-1.1838093747578888,-0.15305853048820084
14012,7.0,300.32908,4174.657,0.0,0.0,0.0,0.0,-0.13965493588849737,0.0,-0.36532509440477967,-0.3425420848462717,-0.5611243075636574,-0.25334553668825777,-1.1794760080552187,-0.13877070096060184
14013,7.0,301.09921,4269.7684,0.0,0.0,0.0,0.0,-0.13966490269808116,0.0,-0.42023975411193465,-0.3235182736887677,-0.5541449496823485,-0.2179219889522258,-1.155239470963259,-0.14230553539196286
14014,7.0,300.49126,4423.7855,0.0,0.0,0.0,0.0,-0.139674869507665,0.0,-0.43076625741331964,-0.3431858127673027,-0.5707682497629405,-0.23777851943941278,-1.155091029823609,-0.14088809982707287
14015,7.0,299.96752999999995,4251.0685,0.0,0.0,0.0,0.0,-0.13968483631724882,0.0,-0.39427388280930264,-0.3203798936240337,-0.5775648882537164,-0.2686004323762987,-1.221012777354579,-0.1135298810320269
14016,7.0,300.35932,4277.2277,0.0,0.0,0.0,0.0,-0.13969480312683266,0.0,-0.3664460631229106,-0.32825509631625566,-0.6054692589851635,-0.2510598876426818,-1.1690293995242187,-0.13362733199549087
14017,7.0,300.03573,4416.8679,0.0,0.0,0.0,0.0,-0.13970476993641648,0.0,-0.3943603535728366,-0.33889670482900064,-0.6093605041391994,-0.2245586656497148,-1.090939328892329,-0.12012395056281087
14018,7.0,300.76079,4523.9387,0.0,0.0,0.0,0.0,-0.13971473674600027,0.0,-0.4120990900260136,-0.36991935274319765,-0.5931459694139495,-0.2337738409366818,-1.100137410650109,-0.13077119274611188
14019,7.0,299.78582,4488.1404,0.0,0.0,0.0,0.0,-0.1397247035555841,0.0,-0.4085131168621056,-0.3867213394789246,-0.5690481665256815,-0.26408093163025875,-1.171938035261279,-0.1179506405558219
14020,7.0,298.59532,4354.2713,0.0,0.0,0.0,0.0,-0.13973467036516793,0.0,-0.3929430497304596,-0.36144713295955466,-0.5691995764881245,-0.2604578633801897,-1.1875117906232888,-0.15664037972420186
14021,7.0,300.25157,4471.6484,0.0,0.0,0.0,0.0,-0.13974463717475175,0.0,-0.3989924365374876,-0.37300575307780165,-0.5872712770566624,-0.22120936744416478,-1.1419857543552188,-0.13224142877371287
14022,7.0,300.76842999999997,4231.7446,0.0,0.0,0.0,0.0,-0.1397546039843356,0.0,-0.35926702404439464,-0.33698754912308165,-0.5900901185698605,-0.23683247821854578,-1.149481677270009,-0.16089575656667485
14023,7.0,300.51989,3915.0554,0.0,0.0,0.0,0.0,-0.13976457079391938,0.0,-0.2812618637708847,-0.3373745397337747,-0.5714426791620015,-0.25054640288950475,-1.203200955171689,-0.15335485547994585
14024,7.0,300.44721,4022.197,0.0,0.0,0.0,0.0,-0.1397745376035032,0.0,-0.3418501464854827,-0.3236295589472507,-0.5571677483081755,-0.24810150132571174,-1.1844110426672687,-0.14187918001488486
14025,7.0,299.64314,4323.1218,0.0,0.0,0.0,0.0,-0.13978450441308704,0.0,-0.4083017832887486,-0.3303159862246497,-0.5755033194677555,-0.2090488970315198,-1.1253385618372689,-0.12451731180390188
14026,7.0,299.64745,4236.9762,0.0,0.0,0.0,0.0,-0.13979447122267086,0.0,-0.4158744902961166,-0.32944391226108266,-0.5426165649470854,-0.22038208926751882,-1.1736348238787389,-0.1150171599263099
14027,7.0,300.50423,4378.0891,0.0,0.0,0.0,0.0,-0.13980443803225467,0.0,-0.40516587555425865,-0.35178569193104464,-0.5738781878973674,-0.28373198512966674,-1.2121316402280788,-0.1258357325690199
14028,7.0,300.17464,4655.7719,0.0,0.0,0.0,0.0,-0.1398144048418385,0.0,-0.41994545562038965,-0.37700928660791966,-0.6182836810123484,-0.25392385931533373,-1.193126918702459,-0.12298841872801189
14029,7.0,299.9435,4672.4687,0.0,0.0,0.0,0.0,-0.1398243716514223,0.0,-0.41713576375559464,-0.3892465613781446,-0.6139314881228205,-0.23598856247525776,-1.126395584341589,-0.14277846987613788
14030,7.0,300.26043,4592.6477,0.0,0.0,0.0,0.0,-0.13983433846100612,0.0,-0.42587635296072357,-0.38168503051937963,-0.5884888186418245,-0.2434878595128808,-1.1321607747605689,-0.1120155888900779
14031,7.0,299.45532000000003,4318.1123,0.0,0.0,0.0,0.0,-0.13984430527058997,0.0,-0.3896549720959516,-0.3454755350782807,-0.5774678290266375,-0.27449929074847074,-1.2088777901819487,-0.12712512371877288
14032,7.0,300.9416,4099.2869,0.0,0.0,0.0,0.0,-0.13985427208017379,0.0,-0.3846766818371326,-0.3110057900588817,-0.5503983763775905,-0.2408539564079348,-1.1881932013155387,-0.11686309895848988
14033,7.0,299.863,4000.3329,0.0,0.0,0.0,0.0,-0.13986423888975758,0.0,-0.3716130306828507,-0.3022360901783797,-0.5421521822937545,-0.19637850850604982,-1.121885304171459,-0.12167765813364989
14034,7.0,299.81302,4185.7647,0.0,0.0,0.0,0.0,-0.13987420569934142,0.0,-0.37595196012856963,-0.32552351590166967,-0.5708924640926994,-0.2005293989982108,-1.149717764543309,-0.13993247326025987
14035,7.0,298.91202999999996,4373.195,0.0,0.0,0.0,0.0,-0.13988417250892524,0.0,-0.35567187083458063,-0.36408083341448066,-0.6095893669392864,-0.26870002472862775,-1.1865269115260888,-0.14077562906597285
14036,7.0,299.94388,4458.6607,0.0,0.0,0.0,0.0,-0.13989413931850908,0.0,-0.3888490532314136,-0.38864172199595165,-0.5778307549474555,-0.2533037806516368,-1.1928139257465689,-0.12930741112164787
14037,7.0,298.16467,4504.2566,0.0,0.0,0.0,0.0,-0.1399041061280929,0.0,-0.4108058383933796,-0.38689679386624065,-0.5714789129855774,-0.21235794894309779,-1.121711734429329,-0.14447535981860785
14038,7.0,300.47712,4598.4334,0.0,0.0,0.0,0.0,-0.1399140729376767,0.0,-0.44900888314122656,-0.3875416667598846,-0.5612584010818914,-0.23499938719763375,-1.1660359547537889,-0.1171114972205049
14039,7.0,300.72942,4291.1265,0.0,0.0,0.0,0.0,-0.13992403974726053,0.0,-0.37493204284291165,-0.3723119300718266,-0.5571513336565554,-0.24391910888794174,-1.203489427475159,-0.15208636767975586
14040,7.0,300.61637,4223.2178,0.0,0.0,0.0,0.0,-0.13993400655684435,0.0,-0.3485766072743327,-0.3723715193102076,-0.5628046308669925,-0.24833048571581076,-1.193549342669149,-0.14812760967155686
14041,7.0,300.94984,4335.9161,0.0,0.0,0.0,0.0,-0.13994397336642816,0.0,-0.35191963346176364,-0.3710307259828816,-0.5950598671303364,-0.21177133793020378,-1.111588859305279,-0.15333832937081485
14042,7.0,300.91006,4210.0026,0.0,0.0,0.0,0.0,-0.139953940176012,0.0,-0.3695239420241736,-0.3362103558988787,-0.5740013889770265,-0.2367365943615828,-1.128798506953739,-0.12886397234788388
14043,7.0,299.44635,4109.9997,0.0,0.0,0.0,0.0,-0.1399639069855958,0.0,-0.35899503732005167,-0.3330332899453267,-0.5573089447096106,-0.2885388841340707,-1.1610072958324988,-0.13709882816310087
14044,7.0,299.93527,4259.8749,0.0,0.0,0.0,0.0,-0.13997387379517962,0.0,-0.4182590832139576,-0.3192286692579167,-0.5574078581843724,-0.25773931336188977,-1.1655043024263188,-0.08620328779910211
14045,7.0,299.48201,4343.5348,0.0,0.0,0.0,0.0,-0.13998384060476346,0.0,-0.3969805879339336,-0.34136695791029564,-0.5819785854243145,-0.2148374428653048,-1.130654477161909,-0.1034734244520319
14046,7.0,300.05492000000004,4456.9,0.0,0.0,0.0,0.0,-0.13999380741434728,0.0,-0.4148116517362226,-0.3328364762459027,-0.6071381832248735,-0.18786172598300882,-1.1892410032439489,-0.09415446702357241
14047,7.0,299.62736,4539.2057,0.0,0.0,0.0,0.0,-0.1400037742239311,0.0,-0.4155825121473006,-0.3723019698233437,-0.5919206967305244,-0.24190043097871378,-1.2378865325948887,-0.1030168438244709
14048,7.0,300.02877,4382.8926,0.0,0.0,0.0,0.0,-0.1400137410335149,0.0,-0.40420728016465257,-0.3468298350294397,-0.5812527842451835,-0.23008926840554275,-1.2009606592005888,-0.10532218031948988
14049,7.0,299.46206,4271.5647,0.0,0.0,0.0,0.0,-0.14002370784309873,0.0,-0.40558674924829563,-0.33214935082308866,-0.5607129077580554,-0.2098095641465918,-1.124719060726129,-0.1276835562463859
14050,7.0,300.19368,4317.165,0.0,0.0,0.0,0.0,-0.14003367465268254,0.0,-0.4393664000220876,-0.33039477655242566,-0.5425491736829344,-0.2330492556576708,-1.135110244476659,-0.1254339991693719
14051,7.0,299.23265,4181.2808,0.0,0.0,0.0,0.0,-0.1400436414622664,0.0,-0.35344627712243165,-0.3355359467648197,-0.5820227327311714,-0.26512351532065376,-1.147941537118009,-0.15066473725945187
14052,7.0,300.02976,4010.7483,0.0,0.0,0.0,0.0,-0.1400536082718502,0.0,-0.3192545881954747,-0.36016267633778865,-0.5397500601491835,-0.2633474094853657,-1.157190889330849,-0.14258992429752987
14053,7.0,300.10094,4158.0415,0.0,0.0,0.0,0.0,-0.140063575081434,0.0,-0.34438851023849965,-0.35444550384104767,-0.5651067857566975,-0.25086021657797575,-1.114633675855779,-0.16277055296170284
14054,7.0,301.7061,4276.9324,0.0,0.0,0.0,0.0,-0.14007354189101784,0.0,-0.3735972682211796,-0.36733268735791363,-0.5591506990188775,-0.24225411605861977,-1.1838365298605689,-0.15888715036344084
14055,7.0,301.04152,4028.5515,0.0,0.0,0.0,0.0,-0.14008350870060166,0.0,-0.34688081164197065,-0.35049862112402064,-0.5271996201705514,-0.24411547675732176,-1.2062086867685289,-0.16291169870063285
14056,7.0,301.48992000000004,4257.1706,0.0,0.0,0.0,0.0,-0.14009347551018547,0.0,-0.4094757449871096,-0.34932801328349067,-0.5352698127120175,-0.21088956716317978,-1.175904808077769,-0.12462655029718288
14057,7.0,299.67618,4679.8781,0.0,0.0,0.0,0.0,-0.1401034423197693,0.0,-0.4147848006085726,-0.4054332925206506,-0.6023479927146185,-0.2197432452119698,-1.131271141172769,-0.13547363579770688
14058,7.0,299.51339,4557.8216,0.0,0.0,0.0,0.0,-0.1401134091293531,0.0,-0.4280629162790206,-0.36984271050563367,-0.5875583409424934,-0.2174853896166368,-1.172184255035579,-0.11057333883023888
14059,7.0,300.00962000000004,4394.8271,0.0,0.0,0.0,0.0,-0.14012337593893695,0.0,-0.38612794982286164,-0.3504641908856227,-0.5993255588588274,-0.26445030182171275,-1.2107622327179288,-0.12498836164289087
14060,7.0,300.17562999999996,4410.24,0.0,0.0,0.0,0.0,-0.14013334274852077,0.0,-0.37885793101786663,-0.3664585666291446,-0.5952863285276864,-0.24788893158723277,-1.1857556255499688,-0.13178565874623188
14061,7.0,299.59099,4330.0562,0.0,0.0,0.0,0.0,-0.14014330955810458,0.0,-0.4071075464558866,-0.31904941518272567,-0.5900720016580725,-0.24634727156008276,-1.141865785543379,-0.1075153804259419
14062,7.0,300.52587,4473.4575,0.0,0.0,0.0,0.0,-0.1401532763676884,0.0,-0.4307996440041146,-0.3361758851304767,-0.5928438587641335,-0.24966248403226876,-1.1696586278363188,-0.1295042552185749
14063,7.0,300.01634,4508.4458,0.0,0.0,0.0,0.0,-0.14016324317727222,0.0,-0.4081181317081236,-0.35508124735129065,-0.6072555581164575,-0.28192963611678873,-1.165476438048569,-0.1019999257591089
14064,7.0,300.16097,4240.481,0.0,0.0,0.0,0.0,-0.14017320998685603,0.0,-0.4071926797292886,-0.3367698320740947,-0.5450378273860454,-0.24516000588790876,-1.150562207176649,-0.11418651775933189
14065,7.0,300.98722999999995,4429.9952,0.0,0.0,0.0,0.0,-0.14018317679643985,0.0,-0.3940218571119296,-0.37389500163056366,-0.5786910853423635,-0.2238169767090158,-1.120843075118599,-0.12077348440691488
14066,7.0,301.27047000000005,4921.0689,0.0,0.0,0.0,0.0,-0.14019314360602367,0.0,-0.4800106378383615,-0.39867467117362665,-0.6171967574975774,-0.26179065203172575,-1.1902630686198188,-0.12887072059354987
14067,7.0,299.05761,4728.1012,0.0,0.0,0.0,0.0,-0.1402031104156075,0.0,-0.43289066797048265,-0.3844435836516276,-0.6198904423584235,-0.23715441817281877,-1.2014072998446688,-0.12151518348011489
14068,7.0,299.69627,4213.1316,0.0,0.0,0.0,0.0,-0.14021307722519133,0.0,-0.3509665805502047,-0.36698886120148067,-0.5627313830172634,-0.2239696734990858,-1.188703575390909,-0.1367965249957659
14069,7.0,299.48669,4141.6431,0.0,0.0,0.0,0.0,-0.14022304403477515,0.0,-0.3281377619546757,-0.35180823674576966,-0.5790100767388455,-0.2049659044285598,-1.143601888264719,-0.14404339103597588
14070,7.0,299.36417,4349.6709,0.0,0.0,0.0,0.0,-0.14023301084435896,0.0,-0.3883690969240456,-0.37224294800501867,-0.5615792973885615,-0.24948992754023877,-1.1800660235884488,-0.13795212660231487
14071,7.0,300.6814,4200.9143,0.0,0.0,0.0,0.0,-0.14024297765394278,0.0,-0.3498336960108977,-0.34337296006077267,-0.5837664044307584,-0.25614553174959576,-1.168750654421709,-0.17803494280318083
14072,7.0,301.17419,3968.4263,0.0,0.0,0.0,0.0,-0.14025294446352662,0.0,-0.3452399139000267,-0.3337921332102187,-0.5272704463525415,-0.2319199782887198,-1.1666687294412388,-0.13503117987653987
14073,7.0,299.63571,4084.452,0.0,0.0,0.0,0.0,-0.1402629112731104,0.0,-0.34498519295738767,-0.3445721314216217,-0.5520141049870505,-0.22278167828683976,-1.132181749037639,-0.15488273530573585
14074,7.0,300.7198,4519.0495,0.0,0.0,0.0,0.0,-0.14027287808269423,0.0,-0.39733573209398365,-0.3722552083312286,-0.6040872669087715,-0.23768449996263374,-1.1868863113365589,-0.13693496535692887
14075,7.0,300.22483,4799.7526,0.0,0.0,0.0,0.0,-0.14028284489227807,0.0,-0.4409221138281246,-0.3979985496468986,-0.6200842872350544,-0.2398945808157518,-1.161164552248019,-0.13803731053822188
14076,7.0,299.62955,4720.2451,0.0,0.0,0.0,0.0,-0.1402928117018619,0.0,-0.4386980298586246,-0.38262484025213167,-0.6135137757690954,-0.22171023723359679,-1.145468700248959,-0.1045282279386329
14077,7.0,299.75705,4393.2197,0.0,0.0,0.0,0.0,-0.1403027785114457,0.0,-0.4022225562662756,-0.35383838464612966,-0.5793681593241854,-0.2245725370435838,-1.132232816842679,-0.0898943805946346
14078,7.0,298.53692,4231.3235,0.0,0.0,0.0,0.0,-0.14031274532102953,0.0,-0.3918556905181456,-0.33729749219617067,-0.5570634950053864,-0.25463395511791476,-1.2006941744242887,-0.11387342347843189
14079,7.0,299.19955,4517.1531,0.0,0.0,0.0,0.0,-0.14032271213061334,0.0,-0.4288493098141316,-0.3429179702358687,-0.6013344487720894,-0.26507266029813475,-1.1944829513112887,-0.09026290877525552
14080,7.0,300.38405,4473.3037,0.0,0.0,0.0,0.0,-0.14033267894019716,0.0,-0.39216303967097865,-0.35495614136144366,-0.6126534453741874,-0.21836751502119578,-1.165714957122109,-0.13736722798208986
14081,7.0,299.47322,4004.5883,0.0,0.0,0.0,0.0,-0.140342645749781,0.0,-0.35584810542447365,-0.3198481805015577,-0.5415985728366175,-0.21932795452598378,-1.143911334845259,-0.11540486994457388
14082,7.0,300.47992,4221.4641,0.0,0.0,0.0,0.0,-0.14035261255936482,0.0,-0.3594096795259737,-0.36903172539059564,-0.5547782715248525,-0.24173267729215778,-1.1792252286554687,-0.16740515891910285
14083,7.0,299.83907,4618.2298,0.0,0.0,0.0,0.0,-0.1403625793689486,0.0,-0.42072379381720554,-0.3637634936156617,-0.6193392647015263,-0.25236207614119777,-1.1686546996372387,-0.13264642483868289
14084,7.0,299.73927000000003,4553.3771,0.0,0.0,0.0,0.0,-0.14037254617853245,0.0,-0.4183124612292256,-0.3755231121562457,-0.5902773773208415,-0.23698641117373775,-1.1560267662909591,-0.13689212514270085
14085,7.0,300.38742,4493.0555,0.0,0.0,0.0,0.0,-0.14038251298811627,0.0,-0.38780836431870563,-0.37895039008949166,-0.5990179462609684,-0.2233361996690668,-1.155932736681679,-0.14295562652362187
14086,7.0,300.04773,4332.2814,0.0,0.0,0.0,0.0,-0.1403924797977001,0.0,-0.3928792656366646,-0.35352534102773464,-0.5705007517365405,-0.2525317752679458,-1.2003942523946887,-0.1259678705145609
14087,7.0,299.63647000000003,4057.243,0.0,0.0,0.0,0.0,-0.14040244660728393,0.0,-0.3656732268741376,-0.32275301655074273,-0.5448743293499094,-0.25037573104266075,-1.1841928899207388,-0.15200364594159185
14088,7.0,300.61125,4348.5429,0.0,0.0,0.0,0.0,-0.14041241341686772,0.0,-0.37278995107150364,-0.38127590039400167,-0.5677825968857795,-0.2348034246282938,-1.1559212869555489,-0.12690775117481987
14089,7.0,299.10331,4603.0888,0.0,0.0,0.0,0.0,-0.14042238022645154,0.0,-0.3918330849084146,-0.38991222616384064,-0.6174787450004073,-0.2305657290000658,-1.1372435412371988,-0.14880612246852087
14090,7.0,298.21111,4399.3655,0.0,0.0,0.0,0.0,-0.14043234703603538,0.0,-0.3914551122236116,-0.38216518947676764,-0.5636769480105834,-0.24792946159123277,-1.1897042611896687,-0.13385917375087186
14091,7.0,299.03828,4226.5494,0.0,0.0,0.0,0.0,-0.1404423138456192,0.0,-0.3540871679431827,-0.36321316708884865,-0.5674651557619504,-0.23417409499118377,-1.197850488018639,-0.16152297864357684
14092,7.0,299.24566,4307.6499,0.0,0.0,0.0,0.0,-0.14045228065520304,0.0,-0.39250185023941664,-0.3542222645790157,-0.5626938826310625,-0.2127343713552478,-1.178130411922419,-0.13307222292820586
14093,7.0,299.86097,4590.7729,0.0,0.0,0.0,0.0,-0.14046224746478683,0.0,-0.43129577178307854,-0.3762353357840366,-0.5879492224335705,-0.2216468483073408,-1.161541075985179,-0.13052790126460087
14094,7.0,300.07658,4565.483,0.0,0.0,0.0,0.0,-0.14047221427437065,0.0,-0.4067978364303206,-0.36982258735864765,-0.6111724182330214,-0.24456994982467478,-1.173783062368369,-0.13796336354592387
14095,7.0,299.41696,4320.9256,0.0,0.0,0.0,0.0,-0.1404821810839545,0.0,-0.4086565120162576,-0.3421198837946037,-0.5626770930769055,-0.2795285677523217,-1.1632710992059188,-0.09264042008814762
14096,7.0,299.67947000000004,4359.8137,0.0,0.0,0.0,0.0,-0.1404921478935383,0.0,-0.4102813193466136,-0.3304811155934467,-0.5845120653118495,-0.26044978777689276,-1.1228481957414889,-0.11219195520248389
14097,7.0,300.18639,4436.1294,0.0,0.0,0.0,0.0,-0.14050211470312213,0.0,-0.41244801283044963,-0.3380801164409097,-0.5979444483100225,-0.24537084296871678,-1.127577236608209,-0.1010302778374121
14098,7.0,299.98827,4561.9208,0.0,0.0,0.0,0.0,-0.14051208151270594,0.0,-0.42902711494167955,-0.37430589481111565,-0.5833769921523264,-0.23687626075536677,-1.1917887192953887,-0.14462955621882587
14099,7.0,300.34825,4474.2991,0.0,0.0,0.0,0.0,-0.14052204832228976,0.0,-0.4222558988959126,-0.33540053602145564,-0.6024187884991055,-0.22935774236334677,-1.1950023433125487,-0.1128746628548619
14100,7.0,300.77505,4144.7952,0.0,0.0,0.0,0.0,-0.14053201513187358,0.0,-0.3317328645019847,-0.37054537918498165,-0.5576360015768885,-0.2278549404775318,-1.193699303683949,-0.15974546439064985
14101,7.0,299.42692,4088.68,0.0,0.0,0.0,0.0,-0.14054198194145742,0.0,-0.34558212898880064,-0.3464620151106387,-0.5508124916934605,-0.22245914051500776,-1.1734201161825488,-0.13468249011962688
14102,7.0,299.52071,4532.4159,0.0,0.0,0.0,0.0,-0.14055194875104124,0.0,-0.3628724516102227,-0.38777003306742264,-0.6270987643648295,-0.2667570366018697,-1.1739935144141387,-0.1260373490739179
14103,7.0,299.84512,4398.9634,0.0,0.0,0.0,0.0,-0.14056191556062503,0.0,-0.38423328359337267,-0.3948597744146256,-0.5580819836084034,-0.22725014162534277,-1.155497039138679,-0.14108583558408785
14104,7.0,298.62144,4083.0288,0.0,0.0,0.0,0.0,-0.14057188237020887,0.0,-0.3636858989230037,-0.3382368358338767,-0.5392160570814815,-0.23668424986141678,-1.134157688057649,-0.1125732513476149
14105,7.0,299.53182999999996,4415.3632,0.0,0.0,0.0,0.0,-0.1405818491797927,0.0,-0.4053026339202556,-0.35712790109577963,-0.5797296160323584,-0.2099251050554948,-1.140592940767759,-0.15233882907467186
14106,7.0,299.3952,4730.5667,0.0,0.0,0.0,0.0,-0.14059181598937653,0.0,-0.42340262443158555,-0.38854003221591565,-0.6260314877694975,-0.2684996747863547,-1.184385306114729,-0.10420382578661691
14107,7.0,299.86408,4546.0959,0.0,0.0,0.0,0.0,-0.14060178279896035,0.0,-0.43722000193775457,-0.3495258706305177,-0.5951537548846024,-0.24350151812422877,-1.170761550570169,-0.14024723940382486
14108,7.0,299.81293999999997,4247.0293,0.0,0.0,0.0,0.0,-0.14061174960854414,0.0,-0.36197764031441165,-0.3449890027777637,-0.5840242157862024,-0.2350805485306438,-1.119632849199159,-0.12559559229531989
14109,7.0,299.99756,4032.2866,0.0,0.0,0.0,0.0,-0.14062171641812796,0.0,-0.36465931816157265,-0.3106578703720447,-0.5503972719349814,-0.22424732429148778,-1.1462045224715791,-0.14917519881744587
14110,7.0,299.90353,4143.8222,0.0,0.0,0.0,0.0,-0.1406316832277118,0.0,-0.36771049792270066,-0.3216602060528907,-0.5702477735840734,-0.24183879497513078,-1.1948979785522489,-0.13648170818969585
14111,7.0,300.75035,4624.6537,0.0,0.0,0.0,0.0,-0.14064165003729562,0.0,-0.4244503959624926,-0.37988357316658966,-0.6014452882005284,-0.2265051190918148,-1.1962055778062988,-0.12338604846475489
14112,7.0,298.82674,4567.4355,0.0,0.0,0.0,0.0,-0.14065161684687946,0.0,-0.4151734732144316,-0.3607881860220217,-0.6124246838991104,-0.2213380603393658,-1.1580913646947189,-0.1063662940175359
14113,7.0,299.89902,4214.6387,0.0,0.0,0.0,0.0,-0.14066158365646325,0.0,-0.3899393812665206,-0.31494711003285963,-0.5762584339722795,-0.2340703280484428,-1.167053359179199,-0.09915168783400971
14114,7.0,300.07355,4374.583,0.0,0.0,0.0,0.0,-0.14067155046604707,0.0,-0.37405073817093365,-0.3499375440136467,-0.6057757266104095,-0.27161951237425874,-1.1598192600902488,-0.1154620172502139
14115,7.0,300.94757999999996,4837.9449,0.0,0.0,0.0,0.0,-0.1406815172756309,0.0,-0.4792368491344945,-0.3721820820715116,-0.6191955047773384,-0.24465473859304274,-1.1492054652927488,-0.08672776631586411
14116,7.0,300.73503999999997,4732.7102,0.0,0.0,0.0,0.0,-0.14069148408521473,0.0,-0.44014770704169665,-0.40330808149590863,-0.5951699364886994,-0.25748878727466473,-1.122241866881649,-0.14665549913127085
14117,7.0,300.85192,4212.8369,0.0,0.0,0.0,0.0,-0.14070145089479855,0.0,-0.4077273515420566,-0.3356101065396387,-0.5372597751134115,-0.23684774789755275,-1.1740477232944888,-0.15681397986383483
14118,7.0,300.15095,4061.5852,0.0,0.0,0.0,0.0,-0.14071141770438236,0.0,-0.38627234809461264,-0.32235559959652066,-0.5259925251939205,-0.25956385255195774,-1.1958787033240388,-0.16093334814538485
14119,7.0,300.74869,4216.3111,0.0,0.0,0.0,0.0,-0.14072138451396618,0.0,-0.37488621354088864,-0.35342618437294865,-0.5533408951979945,-0.23369334834873776,-1.1803377772652688,-0.19261867175748282
14120,7.0,300.11807000000005,4197.3876,0.0,0.0,0.0,0.0,-0.14073135132355,0.0,-0.3345929858242567,-0.3542537462596227,-0.5870542692827454,-0.2244335596598678,-1.145780072004689,-0.15008036552927884
14121,7.0,300.45041000000003,4274.6904,0.0,0.0,0.0,0.0,-0.14074131813313384,0.0,-0.3509969273906997,-0.37695665839772563,-0.5714455567922855,-0.2169432704156338,-1.1639045831684387,-0.13463214172215787
14122,7.0,299.68532999999996,4142.8528,0.0,0.0,0.0,0.0,-0.14075128494271766,0.0,-0.33232395408032067,-0.34671484127559066,-0.5802850088096715,-0.23038875473759982,-1.1651076150121689,-0.10665330724086189
14123,7.0,299.95534,4315.1341,0.0,0.0,0.0,0.0,-0.14076125175230145,0.0,-0.3767568049480017,-0.3679894355427296,-0.5669467871432915,-0.2071569564447998,-1.1898273710768188,-0.14086623388991487
14124,7.0,300.06604,4948.3803,0.0,0.0,0.0,0.0,-0.1407712185618853,0.0,-0.4596645859628625,-0.42278804771593165,-0.6217314164651134,-0.22785679472521478,-1.1514900402932189,-0.1020903380655319
14125,7.0,300.03111,4872.0543,0.0,0.0,0.0,0.0,-0.1407811853714691,0.0,-0.46180637375924055,-0.3927465298735646,-0.6264299483713224,-0.23529542847935078,-1.1743435923236887,-0.13356418624925886
14126,7.0,300.06786,4303.6732,0.0,0.0,0.0,0.0,-0.14079115218105295,0.0,-0.36822488446846663,-0.3470352410897117,-0.5929490543895155,-0.25630105550744475,-1.185307667680759,-0.11902377373673188
14127,7.0,300.6552,4242.1635,0.0,0.0,0.0,0.0,-0.14080111899063677,0.0,-0.4083847380744356,-0.3305306229933327,-0.5505964262421364,-0.25347489832852477,-1.1546263533277488,-0.15020925094199886
14128,7.0,299.95633,4448.2851,0.0,0.0,0.0,0.0,-0.14081108580022056,0.0,-0.4077627038380456,-0.3526496294963087,-0.5917552735191984,-0.2568583734599478,-1.131181468538919,-0.14367478078209686
14129,7.0,300.58667,4370.496,0.0,0.0,0.0,0.0,-0.14082105260980438,0.0,-0.4270511049941626,-0.3555858762985936,-0.5458846612896214,-0.23906620832899778,-1.1542692839925088,-0.14916259398620185
14130,7.0,300.87539,4208.0778,0.0,0.0,0.0,0.0,-0.14083101941938822,0.0,-0.38243353863325164,-0.32104202216688066,-0.5756750045646994,-0.25135276758408676,-1.176794846965609,-0.13637829588448985
14131,7.0,300.74355,4182.7439,0.0,0.0,0.0,0.0,-0.14084098622897204,0.0,-0.38420073800016064,-0.32334022538119567,-0.5639087289709585,-0.2241099275779278,-1.190087877677529,-0.12810571676804988
14132,7.0,300.05758,4205.2539,0.0,0.0,0.0,0.0,-0.14085095303855588,0.0,-0.3065897725455547,-0.37841398561905265,-0.5932884222455085,-0.22591626879619978,-1.187864604308109,-0.12871141741282788
14133,7.0,300.13264,4496.6313,0.0,0.0,0.0,0.0,-0.14086091984813967,0.0,-0.38703058340944463,-0.3711838483379936,-0.6086491924364985,-0.22300085441597078,-1.1847659841772988,-0.1065638879195369
14134,7.0,299.77677,4812.0877,0.0,0.0,0.0,0.0,-0.1408708866577235,0.0,-0.4083797427514426,-0.4211578600275446,-0.6332169001911424,-0.24152360326652375,-1.177583763493469,-0.10106833449791801
14135,7.0,300.32828,4391.474,0.0,0.0,0.0,0.0,-0.14088085346730733,0.0,-0.4326332011200726,-0.3609084993388956,-0.5413567404352505,-0.2204497439766958,-1.176634246824759,-0.1239166875421249
14136,7.0,300.85008999999997,4068.0686,0.0,0.0,0.0,0.0,-0.14089082027689115,0.0,-0.35631793936334266,-0.33898824184303467,-0.5412850935206795,-0.23522076207948175,-1.146301085206109,-0.15459716089755185
14137,7.0,300.97311,4313.9235,0.0,0.0,0.0,0.0,-0.14090078708647497,0.0,-0.3855803793363206,-0.35399794113937666,-0.5717466947220055,-0.23911806646911576,-1.164197615097359,-0.16662383163449185
14138,7.0,298.9728,4394.9633,0.0,0.0,0.0,0.0,-0.14091075389605878,0.0,-0.37921815156091765,-0.3438383154341997,-0.6129026339712804,-0.26001934900191176,-1.1659248012178187,-0.15091880972202687
14139,7.0,299.22952000000004,4230.7369,0.0,0.0,0.0,0.0,-0.1409207207056426,0.0,-0.38243624401101867,-0.3360273629308187,-0.5675747792902693,-0.2588530880043107,-1.150290757474859,-0.17626162340566784
14140,7.0,299.46824,4084.9271,0.0,0.0,0.0,0.0,-0.14093068751522642,0.0,-0.3616604221056047,-0.3168914660472527,-0.5631639394849535,-0.25327085002338673,-1.1460901265352887,-0.13826804785099386
14141,7.0,299.75559,4212.5224,0.0,0.0,0.0,0.0,-0.14094065432481026,0.0,-0.3892989058783106,-0.3489929821379257,-0.5422097348994345,-0.2285205444682218,-1.149477218969569,-0.13837752952429888
14142,7.0,299.80644,4371.9627,0.0,0.0,0.0,0.0,-0.14095062113439408,0.0,-0.3847531619546806,-0.34465484302728466,-0.5995594777769134,-0.24807031348763375,-1.179204254378399,-0.1097354519250459
14143,7.0,300.46425,4789.3551,0.0,0.0,0.0,0.0,-0.14096058794397787,0.0,-0.4459954469463236,-0.35325989989903767,-0.6565890234902914,-0.2103240621498688,-1.1811342931688789,-0.0949410956327066
14144,7.0,299.9956,4769.8463,0.0,0.0,0.0,0.0,-0.1409705547535617,0.0,-0.4272012382614796,-0.38033513820615567,-0.6423777855377514,-0.22630188138675678,-1.1883148926525489,-0.08252529430086242
14145,7.0,300.42179,4439.6922,0.0,0.0,0.0,0.0,-0.14098052156314553,0.0,-0.4072554303079816,-0.3508672719079037,-0.5914328877348815,-0.23517087977705878,-1.1724764763644189,-0.08225649424808393
14146,7.0,300.70852,4657.9608,0.0,0.0,0.0,0.0,-0.14099048837272937,0.0,-0.4358251010550886,-0.37112526221721165,-0.6089534207790234,-0.25563206726142074,-1.1805977772409288,-0.11676752920905789
14147,7.0,300.01886,4732.3288,0.0,0.0,0.0,0.0,-0.1410004551823132,0.0,-0.4843767223867605,-0.3564307039669717,-0.5977023625961304,-0.2635788054107027,-1.121668671300079,-0.1161442385425439
14148,7.0,299.26657,4149.0454,0.0,0.0,0.0,0.0,-0.14101042199189698,0.0,-0.3921020217499566,-0.31282245629567274,-0.5562817117582304,-0.2610684073604458,-1.152347047227799,-0.16433731119382983
14149,7.0,300.13101,3771.6339,0.0,0.0,0.0,0.0,-0.14102038880148082,0.0,-0.3187685017250017,-0.3114070877609867,-0.5163069485480285,-0.25441298553610675,-1.1698459777798091,-0.16391336735198983
14150,7.0,299.39893,3942.8023,0.0,0.0,0.0,0.0,-0.14103035561106464,0.0,-0.32598318694203565,-0.3281619887645667,-0.5443682717199655,-0.25624344210675876,-1.1895978699291687,-0.17334656366297382
14151,7.0,299.06234,4277.0366,0.0,0.0,0.0,0.0,-0.14104032242064846,0.0,-0.40066990247554063,-0.3310092620755707,-0.5684331642449855,-0.24021890190775977,-1.1714861257166789,-0.1346173077406939
14152,7.0,299.37698,4463.0756,0.0,0.0,0.0,0.0,-0.1410502892302323,0.0,-0.4087705026525076,-0.3907770857866956,-0.5571159509630635,-0.23312749883039277,-1.1846106529369689,-0.15377488817639987
14153,7.0,299.17202000000003,4464.7263,0.0,0.0,0.0,0.0,-0.1410602560398161,0.0,-0.4254537162115126,-0.37080066754767665,-0.5609109170925974,-0.24336619857337374,-1.1862239497461888,-0.11369180853050789
14154,7.0,298.76049,4365.6183,0.0,0.0,0.0,0.0,-0.1410702228493999,0.0,-0.35546404310656965,-0.38489530067870864,-0.5866795997932684,-0.2140703112145948,-1.1958404024702591,-0.12241896203931088
14155,7.0,300.5116,4494.5684,0.0,0.0,0.0,0.0,-0.14108018965898375,0.0,-0.37757587579883767,-0.3942859708829956,-0.5943747175452174,-0.2238596142732238,-1.1710004749437488,-0.12990945393356487
14156,7.0,300.26513,4640.1915,0.0,0.0,0.0,0.0,-0.14109015646856757,0.0,-0.39770852707077564,-0.3676538065796056,-0.6451400269003634,-0.2146172332210718,-1.1844623131223289,-0.12654584863660287
14157,7.0,300.02889,4287.6521,0.0,0.0,0.0,0.0,-0.14110012327815138,0.0,-0.39106384569749664,-0.35044354084858464,-0.5618317993134815,-0.24127411069440075,-1.1779915966587189,-0.13384526182699888
14158,7.0,300.99919,3746.8149,0.0,0.0,0.0,0.0,-0.1411100900877352,0.0,-0.32851116488152765,-0.2844415135121917,-0.5259854932382265,-0.2288710580753148,-1.185652780664819,-0.16158374325207384
14159,7.0,300.65528,4080.7218,0.0,0.0,0.0,0.0,-0.14112005689731902,0.0,-0.4061827936196206,-0.3105736996862377,-0.5236810382707945,-0.24241620567711675,-1.160640803271329,-0.13231077561055687
14160,7.0,300.21359,4616.3392,0.0,0.0,0.0,0.0,-0.14113002370690284,0.0,-0.42719414551077955,-0.3783588141511076,-0.5976988770157864,-0.24814827295032776,-1.157011848038179,-0.16475519580007184
14161,7.0,300.75405,4681.4368,0.0,0.0,0.0,0.0,-0.14113999051648668,0.0,-0.4305929815137186,-0.3720075396092857,-0.6204393807325994,-0.2531367869026558,-1.156025246415809,-0.11794514874027989
14162,7.0,299.32018,4456.9479,0.0,0.0,0.0,0.0,-0.1411499573260705,0.0,-0.38308779422282163,-0.3726845325310997,-0.5990285347245135,-0.24148350896006676,-1.160329735490629,-0.13440452521969387
14163,7.0,298.61115,4744.3615,0.0,0.0,0.0,0.0,-0.14115992413565429,0.0,-0.4532284314601636,-0.3685376545093347,-0.6204013534563464,-0.23826671347009376,-1.1410543748632989,-0.07301344749061624
14164,7.0,299.54424,4992.9432,0.0,0.0,0.0,0.0,-0.14116989094523813,0.0,-0.46245443839069955,-0.4134734827266556,-0.6418021378909394,-0.22706947913251277,-1.1749690716104189,-0.08352447238347362
14165,7.0,299.24512999999996,4636.8641,0.0,0.0,0.0,0.0,-0.14117985775482195,0.0,-0.44720229874293055,-0.36822001073548566,-0.5940685741600035,-0.2710751640230358,-1.1774372475290091,-0.08910800428477532
14166,7.0,299.89874,4356.7258,0.0,0.0,0.0,0.0,-0.14118982456440576,0.0,-0.3380806939934667,-0.37644520014474864,-0.6098099514860564,-0.21734081909236877,-1.1707542551694488,-0.11162237692377089
14167,7.0,300.59184,4041.4635,0.0,0.0,0.0,0.0,-0.14119979137398958,0.0,-0.35064768034623167,-0.32983532064221166,-0.5480209775354594,-0.22503345438157277,-1.1485985284828488,-0.1169358097856659
14168,7.0,299.95198,4063.7621,0.0,0.0,0.0,0.0,-0.1412097581835734,0.0,-0.35707997436604966,-0.3401038606006377,-0.5380983915586764,-0.21039469581433978,-1.1702648553711488,-0.16271478367619885
14169,7.0,300.70768,4505.2701,0.0,0.0,0.0,0.0,-0.14121972499315724,0.0,-0.42742171135073864,-0.37370354802416866,-0.5683643544306944,-0.2685363037774698,-1.1919344246597687,-0.14453394593938984
14170,7.0,300.43534,4542.914000000001,0.0,0.0,0.0,0.0,-0.14122969180274106,0.0,-0.4237419922875786,-0.3515524113605217,-0.6056380056568175,-0.2550019979517378,-1.183976966324429,-0.1349901229824879
14171,7.0,299.57207,4305.7974,0.0,0.0,0.0,0.0,-0.14123965861232488,0.0,-0.38635755229552166,-0.37454123227934166,-0.5479561092640576,-0.25058922283873075,-1.1573969844011889,-0.15280083059026786
14172,7.0,299.76899,4315.4462,0.0,0.0,0.0,0.0,-0.1412496254219087,0.0,-0.3650996665225317,-0.3634247641072316,-0.5832634473461205,-0.2305188661829408,-1.176663023127599,-0.16261209077856384
14173,7.0,299.20377,4595.8367,0.0,0.0,0.0,0.0,-0.1412595922314925,0.0,-0.4236310414016286,-0.3780421532298556,-0.5953463939936144,-0.2695274346277867,-1.1590734066916388,-0.12279292225371788
14174,7.0,299.35501,4514.4937,0.0,0.0,0.0,0.0,-0.14126955904107633,0.0,-0.3933398486021206,-0.3735841871623886,-0.6053693119952994,-0.23937892770736077,-1.1734495004354488,-0.13222974600005988
14175,7.0,298.99737999999996,4183.3215,0.0,0.0,0.0,0.0,-0.14127952585066014,0.0,-0.37021374242725164,-0.3287811251056707,-0.5726304007967205,-0.2185898930206428,-1.1521651688348489,-0.1062281069688979
14176,7.0,298.87336,4148.7568,0.0,0.0,0.0,0.0,-0.14128949266024396,0.0,-0.3779763730333637,-0.3364375873663047,-0.5467045224755355,-0.22320933062404577,-1.1943923667523488,-0.1106004736679169
14177,7.0,299.79284,4423.5872,0.0,0.0,0.0,0.0,-0.1412994594698278,0.0,-0.3925104020702606,-0.35468423569710866,-0.5974654241927464,-0.24658999562153777,-1.1816146750412888,-0.09285893355171322
14178,7.0,299.5452,4626.4314,0.0,0.0,0.0,0.0,-0.14130942627941162,0.0,-0.4014207815946466,-0.38972410615027464,-0.6151747358630194,-0.24364075895297074,-1.1962789371135387,-0.12721687351532787
14179,7.0,299.82867999999996,4669.0473,0.0,0.0,0.0,0.0,-0.1413193930889954,0.0,-0.43579062015418557,-0.38593452037877163,-0.5975486424234594,-0.23563741052060178,-1.128773378351259,-0.11404590904295489
14180,7.0,299.78618,4508.4328,0.0,0.0,0.0,0.0,-0.14132935989857925,0.0,-0.4160580709492346,-0.3759394262248326,-0.5784534781939135,-0.2299479402815948,-1.1490724255546187,-0.15553284670239687
14181,7.0,300.4958,4173.809,0.0,0.0,0.0,0.0,-0.14133932670816307,0.0,-0.4197749053635576,-0.31210182269205167,-0.5368569879336594,-0.26096547128278674,-1.177876086147319,-0.13240565634992088
14182,7.0,299.97941000000003,4304.5816,0.0,0.0,0.0,0.0,-0.14134929351774692,0.0,-0.4030363582165916,-0.32962298395125567,-0.5758259788295994,-0.24881362362849274,-1.1955971211212488,-0.12314888714634889
14183,7.0,300.18721,4508.4177,0.0,0.0,0.0,0.0,-0.1413592603273307,0.0,-0.4251714146011516,-0.3476096931014057,-0.5976653080399734,-0.23700312980038776,-1.1735057358159988,-0.11469759097727089
14184,7.0,299.18577999999997,4477.8149,0.0,0.0,0.0,0.0,-0.14136922713691452,0.0,-0.38022376175516365,-0.36534239058398665,-0.6155777763552964,-0.22384032199131979,-1.1908775034804588,-0.14574690763409986
14185,7.0,299.31931000000003,4358.8515,0.0,0.0,0.0,0.0,-0.14137919394649837,0.0,-0.37955915074957164,-0.36826563738748863,-0.5771572070759815,-0.2520708984599607,-1.2195187400821288,-0.1324310382649259
14186,7.0,298.04708,4273.1812,0.0,0.0,0.0,0.0,-0.14138916075608218,0.0,-0.35261868483825465,-0.3427419382959957,-0.6035797603311844,-0.26206835348663277,-1.1995025923066889,-0.15498947107126987
14187,7.0,299.02429,4510.9574,0.0,0.0,0.0,0.0,-0.141399127565666,0.0,-0.42319601260369455,-0.38387704512321463,-0.5641453431343104,-0.23755455063730876,-1.165457591596709,-0.13047488801936888
14188,7.0,299.51347999999996,4375.9801,0.0,0.0,0.0,0.0,-0.14140909437524982,0.0,-0.3915478043427596,-0.36133796539378066,-0.5773029225728624,-0.25091603652598476,-1.176351550046859,-0.15362116800372885
14189,7.0,300.62117,4230.3143,0.0,0.0,0.0,0.0,-0.14141906118483363,0.0,-0.39402042842928864,-0.3365089708358497,-0.5553805271192905,-0.23000581712730678,-1.191344307801529,-0.14069213725773289
14190,7.0,300.41566,4140.5617,0.0,0.0,0.0,0.0,-0.14142902799441745,0.0,-0.35139559064254466,-0.34277616588437365,-0.5644556307124335,-0.24411562874483678,-1.170982337766959,-0.13289420501813687
14191,7.0,300.5937,4375.3306,0.0,0.0,0.0,0.0,-0.1414389948040013,0.0,-0.4042130151602186,-0.35074997807632763,-0.5750282571583705,-0.2248368939946738,-1.1506115524565188,-0.1294712435303169
14192,7.0,299.62414,4831.1142,0.0,0.0,0.0,0.0,-0.1414489616135851,0.0,-0.4498660217983196,-0.3811660539506606,-0.6375060182619454,-0.2550244819714568,-1.1573103515176388,-0.14164862508713086
14193,7.0,299.78302,4658.3558,0.0,0.0,0.0,0.0,-0.1414589284231689,0.0,-0.48603193735261757,-0.3513532570533667,-0.5786386699146905,-0.26789359923903977,-1.178261019860309,-0.11924669889123288
14194,7.0,300.10069,4273.2143,0.0,0.0,0.0,0.0,-0.14146889523275274,0.0,-0.39270503728196965,-0.3291302809576297,-0.5771151267993284,-0.2582068472230317,-1.1859270674668887,-0.11835411674564189
14195,7.0,301.00086,4447.3483,0.0,0.0,0.0,0.0,-0.14147886204233656,0.0,-0.4159034084539706,-0.3466603790827157,-0.5893190453762615,-0.24349823519390476,-1.1799884086307888,-0.13166099858642888
14196,7.0,299.86647,4693.1726,0.0,0.0,0.0,0.0,-0.14148882885192038,0.0,-0.41220456936142363,-0.3825997015171506,-0.6318030008691015,-0.23394574894864775,-1.185841346508429,-0.1337336624609849
14197,7.0,300.22668999999996,4408.982,0.0,0.0,0.0,0.0,-0.14149879566150422,0.0,-0.40715069064514464,-0.35625401341453367,-0.5768157215272794,-0.24251146131901777,-1.2118237135226886,-0.14183588383811188
14198,7.0,300.42323,3971.0820000000003,0.0,0.0,0.0,0.0,-0.141508762471088,0.0,-0.32494613559718666,-0.3200198352009987,-0.5621437992842734,-0.2066450827592818,-1.188094814730829,-0.12079501597153988
14199,7.0,299.569,4074.2332,0.0,0.0,0.0,0.0,-0.14151872928067183,0.0,-0.4013760770002346,-0.3227637164717987,-0.5143253657249615,-0.2366647042669878,-1.1498714745834788,-0.1267639912506319
14200,7.0,298.84798,4577.3776,0.0,0.0,0.0,0.0,-0.14152869609025567,0.0,-0.4051977827999076,-0.3795927095928836,-0.6066179907560344,-0.23969877023392677,-1.129881468660619,-0.13936047331380785
14201,7.0,299.81932,4760.7402,0.0,0.0,0.0,0.0,-0.1415386628998395,0.0,-0.4466413229575666,-0.40286088356427363,-0.5976439487278654,-0.27704049160176775,-1.1638278801358688,-0.14705705014590084
14202,7.0,298.81978,4540.0636,0.0,0.0,0.0,0.0,-0.14154862970942333,0.0,-0.38390600381107265,-0.36688231795346565,-0.6292776573798693,-0.24744101424802678,-1.1639025566682388,-0.1281605943934659
14203,7.0,299.55667,4379.6835,0.0,0.0,0.0,0.0,-0.14155859651900712,0.0,-0.3726361802363276,-0.36684918467519567,-0.5918290685239814,-0.23875688333846978,-1.164789049180729,-0.13498572547705387
14204,7.0,300.98075,4436.809,0.0,0.0,0.0,0.0,-0.14156856332859094,0.0,-0.38352815271628166,-0.35916285180161367,-0.6059881240963715,-0.23941308436823175,-1.172877824729029,-0.12850567698002288
14205,7.0,300.50694,4464.8042,0.0,0.0,0.0,0.0,-0.14157853013817479,0.0,-0.4296799418486086,-0.34176597579967566,-0.5857430628583394,-0.25549390047778475,-1.1983021949132189,-0.13738653039649487
14206,7.0,300.50182,4193.5086,0.0,0.0,0.0,0.0,-0.1415884969477586,0.0,-0.3584473148459957,-0.3550092255341826,-0.5612653621100784,-0.23080221144090476,-1.1895372775731887,-0.13400234599000188
14207,7.0,300.49562000000003,3964.031,0.0,0.0,0.0,0.0,-0.14159846375734242,0.0,-0.3549497173558096,-0.3216032411322687,-0.5284134836578505,-0.21234340880416278,-1.1717525091679688,-0.14790466425205387
14208,7.0,300.31925,4238.0155,0.0,0.0,0.0,0.0,-0.14160843056692624,0.0,-0.36309391768457966,-0.35561003218097764,-0.5695469490199074,-0.2197116014113468,-1.165010241677559,-0.14477027639271386
14209,7.0,300.22567999999995,4584.1496,0.0,0.0,0.0,0.0,-0.14161839737651005,0.0,-0.41836333651674656,-0.39269880579385463,-0.5824048597413845,-0.24178666325748577,-1.181185360973919,-0.13388467725588887
14210,7.0,299.39227,4446.9304,0.0,0.0,0.0,0.0,-0.14162836418609387,0.0,-0.4059692714260476,-0.3403249416399567,-0.6054616089469084,-0.24346207229783579,-1.1784691414308488,-0.0933421971074076
14211,7.0,299.20835,4234.6771,0.0,0.0,0.0,0.0,-0.1416383309956777,0.0,-0.4215236838436486,-0.3206354859617587,-0.5450769388399055,-0.2273058095858368,-1.1595933053179488,-0.08620751001226883
14212,7.0,299.2447,4480.8347,0.0,0.0,0.0,0.0,-0.14164829780526153,0.0,-0.4073274419925886,-0.3639158155031947,-0.5908185845967545,-0.26150061932310176,-1.1514431268135887,-0.10638155356404189
14213,7.0,298.91006,4627.8083,0.0,0.0,0.0,0.0,-0.14165826461484532,0.0,-0.4768258914490516,-0.3419278526356517,-0.5879844227420444,-0.2588828370272468,-1.178271557661349,-0.11194228024534289
14214,7.0,298.87698,4470.5966,0.0,0.0,0.0,0.0,-0.14166823142442916,0.0,-0.3963739044365586,-0.34538166758901667,-0.6171941635773215,-0.2742610959149627,-1.1614361032748188,-0.12785283994059288
14215,7.0,298.5884,4317.411,0.0,0.0,0.0,0.0,-0.14167819823401298,0.0,-0.3935307246559586,-0.3357729864932137,-0.5830814270981565,-0.2368140978617318,-1.153158356582869,-0.12198645623412589
14216,7.0,298.41376,4179.4194,0.0,0.0,0.0,0.0,-0.1416881650435968,0.0,-0.37093933082386166,-0.3254060194200737,-0.5740937872536455,-0.22512972327357378,-1.1674775056710591,-0.13351318937172588
14217,7.0,299.71937,4289.1694,0.0,0.0,0.0,0.0,-0.14169813185318064,0.0,-0.39677191920833965,-0.3587022485711557,-0.5483262191280844,-0.23789887328629078,-1.193868111150609,-0.14824479204562185
14218,7.0,298.98801000000003,4334.8842,0.0,0.0,0.0,0.0,-0.14170809866276443,0.0,-0.3656992977992107,-0.36830127339350566,-0.5836959734163074,-0.2602032538950617,-1.201551789308929,-0.17520634369151983
14219,7.0,298.60696,4267.9744,0.0,0.0,0.0,0.0,-0.14171806547234825,0.0,-0.38332568508129966,-0.37390171947872664,-0.5401302315867035,-0.22359904687750776,-1.1815787046627388,-0.17316233452979182
14220,7.0,299.20403999999996,4211.7218,0.0,0.0,0.0,0.0,-0.1417280322819321,0.0,-0.3432292305340877,-0.38915995889209765,-0.5478690508154654,-0.23653628494931378,-1.161820226387729,-0.17932137526264183
14221,7.0,300.06483,4199.3194,0.0,0.0,0.0,0.0,-0.1417379990915159,0.0,-0.3666979267002677,-0.36109635590743566,-0.5486939681193784,-0.2023006412330188,-1.1807186579778588,-0.15368571203509884
14222,7.0,299.11115,4201.7886,0.0,0.0,0.0,0.0,-0.14174796590109975,0.0,-0.37009624594565566,-0.3581532494019737,-0.5489893305235285,-0.2618997689349947,-1.173264683617209,-0.1092046405951589
14223,7.0,300.45281,4355.813,0.0,0.0,0.0,0.0,-0.14175793271068354,0.0,-0.39724194566472765,-0.3351325820325107,-0.5916838697846514,-0.24054930250036777,-1.182017036655999,-0.1227732955992809
14224,7.0,300.23347,4709.5348,0.0,0.0,0.0,0.0,-0.14176789952026736,0.0,-0.40763631102057163,-0.3815765519636736,-0.6423681089992963,-0.27387118714398173,-1.175144465202729,-0.11554190188809789
14225,7.0,300.48635,4869.5175,0.0,0.0,0.0,0.0,-0.1417778663298512,0.0,-0.46174257953294456,-0.37833631999888767,-0.6401328184836904,-0.24950331257405975,-1.191848906351329,-0.15638621606911787
14226,7.0,301.0338,4722.4244,0.0,0.0,0.0,0.0,-0.14178783313943502,0.0,-0.40933028280275363,-0.35678404454184365,-0.6693847611856324,-0.26620375138476476,-1.167876219585409,-0.12350581462657488
14227,7.0,302.44049,4630.092000000001,0.0,0.0,0.0,0.0,-0.14179779994901884,0.0,-0.4305179503438136,-0.35757020502943165,-0.6193441890970124,-0.26603881453348677,-1.1593032118143187,-0.14303649401410287
14228,7.0,300.41123,4679.3181,0.0,0.0,0.0,0.0,-0.14180776675860265,0.0,-0.44011259792573154,-0.36702209580476064,-0.6152611660965494,-0.2450268242947648,-1.155772440515859,-0.11136609557597789
14229,7.0,300.30064,4630.7634,0.0,0.0,0.0,0.0,-0.14181773356818647,0.0,-0.43583439255850553,-0.3746082891709596,-0.5971937718409365,-0.23014799638133876,-1.196508640911209,-0.12696429053039987
14230,7.0,299.03515,4251.5027,0.0,0.0,0.0,0.0,-0.1418277003777703,0.0,-0.37764410806057164,-0.34574458337733366,-0.5689619490746725,-0.2160781676127548,-1.185012710576649,-0.12965665816611588
14231,7.0,299.25273,4106.4382,0.0,0.0,0.0,0.0,-0.14183766718735413,0.0,-0.3653882705485147,-0.32264717244529667,-0.5602192320443334,-0.2203585717326978,-1.203463589597609,-0.1287140315980859
14232,7.0,299.33905,4397.7401,0.0,0.0,0.0,0.0,-0.14184763399693795,0.0,-0.37644197800943063,-0.34933731491940867,-0.6110239061658644,-0.2262125735229428,-1.1686324081350388,-0.15329052423109685
14233,7.0,300.31896,4459.396,0.0,0.0,0.0,0.0,-0.14185760080652174,0.0,-0.41862866618793265,-0.34358915723460964,-0.5933272094593364,-0.24251637558200276,-1.1868273401807388,-0.12507295789373987
14234,7.0,299.97045,4411.312,0.0,0.0,0.0,0.0,-0.14186756761610558,0.0,-0.38098800564308866,-0.35056638729070866,-0.6093743147380625,-0.22069122174052777,-1.2034579153970488,-0.14127026736728987
14235,7.0,301.06657,4579.9346,0.0,0.0,0.0,0.0,-0.1418775344256894,0.0,-0.4065043080088516,-0.36470663694124267,-0.6209748226154433,-0.25504478750346077,-1.183059265708859,-0.13522064751273885
14236,7.0,299.9725,4471.7606,0.0,0.0,0.0,0.0,-0.14188750123527324,0.0,-0.38454051115619364,-0.36396804854584963,-0.6107950129682744,-0.25021644812694077,-1.1596525804487987,-0.18546207616868182
14237,7.0,300.69227,4434.6589,0.0,0.0,0.0,0.0,-0.14189746804485706,0.0,-0.4046903370173266,-0.36115031147526067,-0.5821849135421775,-0.26162160138504176,-1.176513163437809,-0.16912140193848285
14238,7.0,299.82156000000003,4305.5299,0.0,0.0,0.0,0.0,-0.14190743485444085,0.0,-0.35278182823685567,-0.36659236630484965,-0.5893993859766904,-0.2333835775281658,-1.1591618634253689,-0.1989066992280628
14239,7.0,299.93879,4152.4676,0.0,0.0,0.0,0.0,-0.14191740166402467,0.0,-0.3781060893111656,-0.33207389408814164,-0.5520664900172205,-0.2249908472148678,-1.183021978105179,-0.14519993496511785
14240,7.0,299.1995,4273.2121,0.0,0.0,0.0,0.0,-0.1419273684736085,0.0,-0.37234217558731164,-0.36763899286314367,-0.5589686078434064,-0.2100626233590668,-1.157581902544439,-0.15545467445718186
14241,7.0,299.03148999999996,4506.4725,0.0,0.0,0.0,0.0,-0.14193733528319233,0.0,-0.4198193161154406,-0.3555831202583216,-0.5944526668754104,-0.2592808517990277,-1.1904368410119688,-0.1035361851632259
14242,7.0,299.06985,4428.0873,0.0,0.0,0.0,0.0,-0.14194730209277617,0.0,-0.3982275441694986,-0.3309543236551487,-0.6168461223004724,-0.23235596967424876,-1.192421392657829,-0.09534038912611381
14243,7.0,300.35147,4555.5204,0.0,0.0,0.0,0.0,-0.14195726890235996,0.0,-0.3993968043873956,-0.3571817249410916,-0.6281859310596244,-0.23372427274178978,-1.1913059056227389,-0.10488758721909891
14244,7.0,301.30343,4784.9479,0.0,0.0,0.0,0.0,-0.14196723571194378,0.0,-0.4467692964451966,-0.35817303817642665,-0.6495623468293124,-0.2199877120635968,-1.1612046769519788,-0.12304420827851788
14245,7.0,300.45609,4805.0892,0.0,0.0,0.0,0.0,-0.14197720252152762,0.0,-0.4721320812883085,-0.3491645355123567,-0.6393305169220094,-0.27706941989212275,-1.198247276757799,-0.1139074889467939
14246,7.0,300.58997999999997,4490.5975,0.0,0.0,0.0,0.0,-0.14198716933111144,0.0,-0.40779590804382265,-0.34812366421463065,-0.6091099273894693,-0.2904448784996777,-1.186253536649109,-0.12692918141443488
14247,7.0,300.81405,4301.2209,0.0,0.0,0.0,0.0,-0.14199713614069526,0.0,-0.4038674056836096,-0.3284338640313987,-0.5751624823991175,-0.23360862037537578,-1.1866278312360488,-0.11064005121682288
14248,7.0,299.63119,4342.6476,0.0,0.0,0.0,0.0,-0.14200710295027907,0.0,-0.3911245089809836,-0.36866097717900564,-0.5602709584619385,-0.2512830357122047,-1.159573648266009,-0.16551618715517583
14249,7.0,299.50144,4300.5716,0.0,0.0,0.0,0.0,-0.1420170697598629,0.0,-0.37824729584510164,-0.35507046637022666,-0.5739486087793175,-0.22696122349182876,-1.1767052756567689,-0.14519349069448187
14250,7.0,299.53265,4209.1834,0.0,0.0,0.0,0.0,-0.1420270365694467,0.0,-0.35105262574869667,-0.3574730343448416,-0.5709609800644615,-0.26961240578117274,-1.189281533247949,-0.17019908461234184
14251,7.0,299.20915,4330.979,0.0,0.0,0.0,0.0,-0.14203700337903055,0.0,-0.3888909612555496,-0.3586301760915427,-0.5689883341072764,-0.23023071811950277,-1.161098792316529,-0.10567925978723089
14252,7.0,299.40819,4587.2264,0.0,0.0,0.0,0.0,-0.14204697018861437,0.0,-0.39466185627259265,-0.39430039956441965,-0.6054400368522794,-0.2061557336234868,-1.164834037485169,-0.14320763195599287
14253,7.0,299.34952999999996,4661.8820000000005,0.0,0.0,0.0,0.0,-0.14205693699819816,0.0,-0.4317920414170566,-0.3736052323669657,-0.6116984368899354,-0.18667778377116281,-1.161679384623829,-0.09575182338221921
14254,7.0,299.38782000000003,4610.6081,0.0,0.0,0.0,0.0,-0.142066903807782,0.0,-0.4048231335754326,-0.37136933390129967,-0.6253172781715104,-0.25573563155414175,-1.1877879012755388,-0.12389357530734389
14255,7.0,301.00244,4427.8491,0.0,0.0,0.0,0.0,-0.14207687061736582,0.0,-0.37862722410259764,-0.3671538284502616,-0.6001745003226114,-0.24462041981215576,-1.204279255928109,-0.1255941737451799
14256,7.0,300.70896,4392.2008,0.0,0.0,0.0,0.0,-0.14208683742694966,0.0,-0.37682192653192864,-0.3759182087677387,-0.5823792447788564,-0.24576234254235474,-1.178113287995729,-0.16680083629446082
14257,7.0,300.06149,4486.2547,0.0,0.0,0.0,0.0,-0.14209680423653348,0.0,-0.44742409918982057,-0.34968654169887464,-0.5665987458664424,-0.2344244082958878,-1.1821119781903688,-0.15524643129662982
14258,7.0,299.42487,4184.3557,0.0,0.0,0.0,0.0,-0.14210677104611727,0.0,-0.38396923061731264,-0.3237507537917117,-0.5642196447641434,-0.2592437161828628,-1.1914544480873988,-0.16591264152180285
14259,7.0,299.23258,3915.2146,0.0,0.0,0.0,0.0,-0.1421167378557011,0.0,-0.36728104200031664,-0.3077051075931297,-0.5151413360304915,-0.28286207952131376,-1.1955020782618688,-0.13702323970564087
14260,7.0,299.7824,4265.5901,0.0,0.0,0.0,0.0,-0.14212670466528493,0.0,-0.37467043179959264,-0.35940846362585366,-0.5625539730572544,-0.24424541595014576,-1.1762838649401788,-0.13867868771902087
14261,7.0,299.70661,4720.2282,0.0,0.0,0.0,0.0,-0.14213667147486875,0.0,-0.42775503010363464,-0.38502885717438967,-0.6220476112913194,-0.23045731123936578,-1.1595683793654887,-0.1128635475012649
14262,7.0,300.15731,4771.2784,0.0,0.0,0.0,0.0,-0.1421466382844526,0.0,-0.4302743244897696,-0.3898642994341106,-0.6302108505894684,-0.21683737564768282,-1.1821973951737987,-0.09100187105993542
14263,7.0,300.75531,4655.7144,0.0,0.0,0.0,0.0,-0.14215660509403638,0.0,-0.4176024971491576,-0.38244081376896966,-0.6151776033608024,-0.23026479372036576,-1.2003710489673989,-0.08395022487674213
14264,7.0,301.45739,4639.9448,0.0,0.0,0.0,0.0,-0.1421665719036202,0.0,-0.4103314954915656,-0.38680034258922164,-0.6132955216975554,-0.24574178369782576,-1.1764963434861488,-0.11410078666837088
14265,7.0,301.70808999999997,4638.1305,0.0,0.0,0.0,0.0,-0.14217653871320404,0.0,-0.4427692586279236,-0.36790994607238464,-0.5991966633136064,-0.24528318670256577,-1.1678863520864091,-0.1114283192646189
14266,7.0,301.0329,4468.5127,0.0,0.0,0.0,0.0,-0.14218650552278786,0.0,-0.38715425058414965,-0.3842520895152286,-0.5869099318060004,-0.24613069948370875,-1.1684103037131188,-0.15393171902687786
14267,7.0,299.49966,4273.3228,0.0,0.0,0.0,0.0,-0.14219647233237168,0.0,-0.38209602502494167,-0.3421283039029347,-0.5747591075343075,-0.27784718053638174,-1.1787981437383188,-0.16338673061251485
14268,7.0,300.00171,4108.9809,0.0,0.0,0.0,0.0,-0.1422064391419555,0.0,-0.3607385975621276,-0.3339152126998657,-0.5543738023499344,-0.2533216847809038,-1.164550226132159,-0.20926599599794582
14269,7.0,300.08706,4038.7811,0.0,0.0,0.0,0.0,-0.1422164059515393,0.0,-0.3685973248077236,-0.33495796864277766,-0.5241333125854305,-0.2745144287049648,-1.172626133404189,-0.17289757227866182
14270,7.0,300.69417999999996,4354.0129,0.0,0.0,0.0,0.0,-0.14222637276112313,0.0,-0.3919250272224886,-0.3411457755459667,-0.5904403889969294,-0.2114044299364928,-1.169036086974879,-0.14856188866441686
14271,7.0,300.1289,4481.9539,0.0,0.0,0.0,0.0,-0.14223633957070694,0.0,-0.4305265832346656,-0.37150875711505965,-0.5603667207288895,-0.26293825909498575,-1.1933187269463887,-0.1048001741329719
14272,7.0,299.25876,4520.2918,0.0,0.0,0.0,0.0,-0.1422463063802908,0.0,-0.3928913841078606,-0.37493560948326365,-0.6062288520551296,-0.2016268805790238,-1.170380163232529,-0.11829758752256289
14273,7.0,299.55134,4788.251,0.0,0.0,0.0,0.0,-0.14225627318987458,0.0,-0.4509613856864235,-0.3888373197952556,-0.6157100358908494,-0.25878656813524575,-1.167213351369989,-0.1009594536819223
14274,7.0,298.78076,4784.9428,0.0,0.0,0.0,0.0,-0.14226623999945842,0.0,-0.43679519683332957,-0.37929865428136267,-0.6384092800635903,-0.23402834909679976,-1.1873909098863589,-0.08669142914077792
14275,7.0,298.15365,4481.3107,0.0,0.0,0.0,0.0,-0.14227620680904224,0.0,-0.4083193327804806,-0.36148685236347466,-0.5924003693278644,-0.24721498854821977,-1.2225926369104987,-0.11726084015274389
14276,7.0,298.71146,4332.1625,0.0,0.0,0.0,0.0,-0.14228617361862606,0.0,-0.40218129672220365,-0.3248180911820497,-0.5898698177331184,-0.2339515244742178,-1.189706389014879,-0.12808715402621787
14277,7.0,298.83834,4308.1348,0.0,0.0,0.0,0.0,-0.14229614042820987,0.0,-0.4096446132487756,-0.3364117089587507,-0.5635090727340155,-0.2680571783351837,-1.161716672227509,-0.14311436228428787
14278,7.0,299.53962,4123.3574,0.0,0.0,0.0,0.0,-0.1423061072377937,0.0,-0.35323292718137567,-0.3307021763677637,-0.5694625858165815,-0.25986841526701576,-1.167382462811679,-0.16597143029260486
14279,7.0,300.35179,4217.7187,0.0,0.0,0.0,0.0,-0.14231607404737753,0.0,-0.3593133599714677,-0.3499851667683467,-0.5727826517567464,-0.26862503408872673,-1.149196143391829,-0.17058337997776885
14280,7.0,299.7307,4452.4447,0.0,0.0,0.0,0.0,-0.14232604085696132,0.0,-0.3902017725124166,-0.3600127558529927,-0.6032174930229315,-0.2524968586694997,-1.170393639458859,-0.15750709359473986
14281,7.0,301.07366,4488.1397,0.0,0.0,0.0,0.0,-0.14233600766654517,0.0,-0.4069131138941976,-0.3563252043665597,-0.6010440715584314,-0.2408441380144658,-1.1667766405768887,-0.12808525924853087
14282,7.0,300.73118,4446.9518,0.0,0.0,0.0,0.0,-0.14234597447612898,0.0,-0.38518283065958564,-0.37717581426185465,-0.5894036618921125,-0.24632370336275677,-1.2189766512786289,-0.09683251642212531
14283,7.0,299.45263,4681.1104,0.0,0.0,0.0,0.0,-0.1423559412857128,0.0,-0.44644034480023154,-0.37312010848408766,-0.6033802209889914,-0.2256495509723768,-1.208216543166689,-0.09749875470737791
14284,7.0,299.13775,4856.2103,0.0,0.0,0.0,0.0,-0.14236590809529662,0.0,-0.4460816947948355,-0.39390920396581164,-0.6361757627356593,-0.2052734055689078,-1.182042165258479,-0.11092398415984489
14285,7.0,298.63597999999996,4513.8498,0.0,0.0,0.0,0.0,-0.14237587490488043,0.0,-0.41599422606043357,-0.37942107515844464,-0.5766823068866124,-0.2162867046158358,-1.155272806891549,-0.14327043319719088
14286,7.0,298.82765,4343.4237,0.0,0.0,0.0,0.0,-0.14238584171446425,0.0,-0.3709033401803096,-0.36060365291380964,-0.5887853564160904,-0.23658469803909177,-1.1705629535505688,-0.13429828594670887
14287,7.0,300.19821,4350.9762,0.0,0.0,0.0,0.0,-0.1423958085240481,0.0,-0.36670092592056364,-0.3782098866514096,-0.5776772982198104,-0.26373578824869576,-1.1652689244280887,-0.18369094539138484
14288,7.0,300.33598,4319.7337,0.0,0.0,0.0,0.0,-0.1424057753336319,0.0,-0.37079223730684463,-0.3572969112124596,-0.5850020325302054,-0.23569837777911878,-1.166004442675679,-0.15393432307963487
14289,7.0,300.01351,4387.6625,0.0,0.0,0.0,0.0,-0.1424157421432157,0.0,-0.41617063290284356,-0.35008292513799466,-0.5674862718940344,-0.22970864100547778,-1.1662845050033188,-0.15923036856981385
14290,7.0,301.21154,4452.2512,0.0,0.0,0.0,0.0,-0.14242570895279955,0.0,-0.39144091658971064,-0.3544031702518696,-0.6075290951134534,-0.25926599755256174,-1.206604158282559,-0.12178280309652689
14291,7.0,300.04292999999996,4250.3855,0.0,0.0,0.0,0.0,-0.14243567576238336,0.0,-0.3824808067504167,-0.3392317866370707,-0.5702984766190774,-0.2546251803720488,-1.188814931576899,-0.16382548817081685
14292,7.0,300.43656,4642.4391,0.0,0.0,0.0,0.0,-0.1424456425719672,0.0,-0.4234636220876056,-0.37124338691386966,-0.6164785455616955,-0.2443003949005718,-1.1718839277059387,-0.10563768613562789
14293,7.0,300.2816,5101.1942,0.0,0.0,0.0,0.0,-0.142455609381551,0.0,-0.4853688462221755,-0.42032988270832955,-0.6449369310503194,-0.2083426009168138,-1.1681831330406989,-0.12433370075328087
14294,7.0,299.48065,4773.123,0.0,0.0,0.0,0.0,-0.1424655761911348,0.0,-0.45321892717422557,-0.36720569672288067,-0.6304855832215824,-0.22939008530653876,-1.190791883847009,-0.07395771349730802
14295,7.0,299.35082,4286.9769,0.0,0.0,0.0,0.0,-0.14247554300071866,0.0,-0.38109012098816664,-0.3668263460179416,-0.5552174546481965,-0.23452075824789675,-1.1933476045742388,-0.13650518519451285
14296,7.0,300.00759,4333.2391,0.0,0.0,0.0,0.0,-0.14248550981030247,0.0,-0.38001934867998965,-0.3458047906982757,-0.5913723561739075,-0.22985004005693277,-1.2052358653475188,-0.11900319462720088
14297,7.0,300.01538,4372.9931,0.0,0.0,0.0,0.0,-0.1424954766198863,0.0,-0.4122952653778746,-0.34845709442503764,-0.5685283489593794,-0.2588650240904887,-1.188313676752429,-0.17141852097519084
14298,7.0,300.69993,4328.122,0.0,0.0,0.0,0.0,-0.1425054434294701,0.0,-0.36295446407331666,-0.3570326454538787,-0.5956539153989644,-0.2249069501065878,-1.209072840826199,-0.15258462328392983
14299,7.0,300.79467999999997,4320.9454,0.0,0.0,0.0,0.0,-0.14251541023905392,0.0,-0.36095214002070264,-0.35885240210347463,-0.5936549654691834,-0.25651882321893676,-1.1824097723947589,-0.18738809235626483
14300,7.0,300.10848,4407.8466,0.0,0.0,0.0,0.0,-0.14252537704863774,0.0,-0.37947941809920266,-0.35220602860252864,-0.6081898456361644,-0.24209390095280778,-1.1455556371075388,-0.13751933708710187
14301,7.0,300.74926,4595.0335,0.0,0.0,0.0,0.0,-0.14253534385822159,0.0,-0.4295179231576186,-0.3716161210956556,-0.5956414220252314,-0.2439205173055808,-1.1597816685115387,-0.13296114031974288
14302,7.0,301.05444,4732.4142,0.0,0.0,0.0,0.0,-0.1425453106678054,0.0,-0.4505229321031516,-0.34644874153432864,-0.6415640646474433,-0.2084514239775538,-1.174341971123529,-0.1102728696455849
14303,7.0,301.27509,4506.5485,0.0,0.0,0.0,0.0,-0.1425552774773892,0.0,-0.4277566513037946,-0.3606319732541047,-0.5814895706610524,-0.2482054405209698,-1.1850050098758889,-0.15314766609949787
14304,7.0,299.61428,4254.0558,0.0,0.0,0.0,0.0,-0.14256524428697304,0.0,-0.3486921279182337,-0.3561558193473427,-0.5882788022935974,-0.21296015387503078,-1.1853681587117288,-0.14980804443240284
14305,7.0,299.75872000000004,4389.2524,0.0,0.0,0.0,0.0,-0.14257521109655685,0.0,-0.3962848296202676,-0.35619053329576866,-0.5817477771840354,-0.27642419236094373,-1.1757729842397588,-0.16604539754990486
14306,7.0,299.59225,4648.954000000001,0.0,0.0,0.0,0.0,-0.14258517790614067,0.0,-0.4279786240032016,-0.36095298101828566,-0.6242343164646303,-0.22136111177914078,-1.1882996939010488,-0.13014108290642487
14307,7.0,299.78981,4316.9985,0.0,0.0,0.0,0.0,-0.14259514471572451,0.0,-0.39041042097300865,-0.33778279846406667,-0.5840665392428795,-0.24135004365689477,-1.197940363302509,-0.14559846649444985
14308,7.0,299.83481,4059.5751,0.0,0.0,0.0,0.0,-0.1426051115253083,0.0,-0.36259847891568364,-0.3208404360594857,-0.5505705478345825,-0.22578358369560478,-1.175332017796239,-0.13963125427053188
14309,7.0,299.18756,4443.6041,0.0,0.0,0.0,0.0,-0.14261507833489212,0.0,-0.4377566698532196,-0.3267747277876547,-0.5862133020972484,-0.25852082303151874,-1.203921781292829,-0.13695341664124988
14310,7.0,299.47327,4722.173,0.0,0.0,0.0,0.0,-0.14262504514447596,0.0,-0.4474126494636906,-0.34123729229499866,-0.6467727274489984,-0.23577461471664277,-1.1731040834763589,-0.12520450815422288
14311,7.0,300.42571,4689.4386,0.0,0.0,0.0,0.0,-0.14263501195405978,0.0,-0.44366311746864057,-0.3828397303333397,-0.5989693913161764,-0.25468502292295475,-1.161612510117229,-0.12707708553153188
14312,7.0,300.61439,4618.4221,0.0,0.0,0.0,0.0,-0.14264497876364363,0.0,-0.4383842972301616,-0.36572560177180663,-0.5997751075306944,-0.2385410610671698,-1.132781289121809,-0.1112076840553439
14313,7.0,300.99568999999997,4594.8822,0.0,0.0,0.0,0.0,-0.14265494557322742,0.0,-0.4290583838397656,-0.36883570202624966,-0.5988353585929485,-0.27256472273004373,-1.1596310995466788,-0.1080440335331159
14314,7.0,301.14848,4552.8731,0.0,0.0,0.0,0.0,-0.14266491238281123,0.0,-0.4338664683467866,-0.36714420257431163,-0.5829490662375935,-0.2512699343884117,-1.188489171669749,-0.1251833616246359
14315,7.0,299.99793999999997,4597.9432,0.0,0.0,0.0,0.0,-0.14267487919239508,0.0,-0.3980938052887996,-0.3790491313117366,-0.6205169855577584,-0.24681693324643478,-1.2034295443942489,-0.14582873771217586
14316,7.0,299.48519,4525.425,0.0,0.0,0.0,0.0,-0.1426848460019789,0.0,-0.34822614432974464,-0.4071430304743886,-0.6202470152011144,-0.2224252371666618,-1.1983628885942088,-0.16604509357487485
14317,7.0,299.06964,4346.9322,0.0,0.0,0.0,0.0,-0.1426948128115627,0.0,-0.37135840093272066,-0.3647675028747496,-0.5852329522279954,-0.21933123745630778,-1.2123931600788889,-0.16181576739247286
14318,7.0,299.23296,4195.9412,0.0,0.0,0.0,0.0,-0.14270477962114653,0.0,-0.38593113612343766,-0.3294774204418897,-0.5600528057154085,-0.24051679743715976,-1.181465321976549,-0.14758203528771288
14319,7.0,299.86111,4285.3826,0.0,0.0,0.0,0.0,-0.14271474643073034,0.0,-0.3951251648808176,-0.33524529597363467,-0.5722788334095235,-0.22567808409519277,-1.1754718463100389,-0.11968787811727388
14320,7.0,298.72609,4263.1526,0.0,0.0,0.0,0.0,-0.14272471324031416,0.0,-0.37761600050279764,-0.3488708753683747,-0.5694050838734064,-0.24576480474009774,-1.1783465381687488,-0.1072089938607039
14321,7.0,299.76783,4537.045999999999,0.0,0.0,0.0,0.0,-0.142734680049898,0.0,-0.40172581040475064,-0.37266966815213265,-0.6047532255369964,-0.23363795396577078,-1.192687370809079,-0.12036511421911189
14322,7.0,299.65807,4865.4769,0.0,0.0,0.0,0.0,-0.14274464685948182,0.0,-0.44278439658441754,-0.40193676907557063,-0.6342623209818175,-0.24496708306886877,-1.1879334039898988,-0.15096460862654687
14323,7.0,300.31512000000004,4620.1277,0.0,0.0,0.0,0.0,-0.1427546136690656,0.0,-0.44947514030724256,-0.3526995827262387,-0.6022287331778484,-0.24847689022275976,-1.1888148302518886,-0.13656641589805585
14324,7.0,299.9827,4517.2655,0.0,0.0,0.0,0.0,-0.14276458047864946,0.0,-0.41831796317726855,-0.37884097934369365,-0.5759769834920025,-0.25624637039954773,-1.2005810957131289,-0.14858571017426786
14325,7.0,299.60972000000004,4568.1226,0.0,0.0,0.0,0.0,-0.14277454728823327,0.0,-0.45042771699125456,-0.3498033694354047,-0.5883641280845184,-0.23834544300286375,-1.1983882198467088,-0.1114032717221469
14326,7.0,300.22265,4428.5759,0.0,0.0,0.0,0.0,-0.1427845140978171,0.0,-0.4063959206456546,-0.3391412932706397,-0.6006392882759823,-0.2512425259732068,-1.171949282337389,-0.12199165420713888
14327,7.0,300.65693,4232.6809,0.0,0.0,0.0,0.0,-0.14279448090740093,0.0,-0.3297460330433997,-0.3453312786615437,-0.6115519918529825,-0.2129128148303588,-1.203065584958329,-0.14801851303328986
14328,7.0,300.0765,4244.965999999999,0.0,0.0,0.0,0.0,-0.14280444771698472,0.0,-0.33098592692576767,-0.3436571057863157,-0.6157206344868954,-0.2633459098752177,-1.1960256245885388,-0.1389220703930409
14329,7.0,300.30645,4515.9778,0.0,0.0,0.0,0.0,-0.14281441452656854,0.0,-0.41217531683103664,-0.35692067118532766,-0.6036485093504694,-0.23070996515180078,-1.2062638075739687,-0.11154517739865188
14330,7.0,301.34738,4588.8055,0.0,0.0,0.0,0.0,-0.14282438133615238,0.0,-0.4391680056525076,-0.37018345638176264,-0.5855308376248944,-0.23780772130729477,-1.183636412965819,-0.12788105895587787
14331,7.0,300.32927,4541.4687,0.0,0.0,0.0,0.0,-0.1428343481457362,0.0,-0.43834140635342855,-0.37475067107501164,-0.5674009967656184,-0.24964624163316576,-1.1800907468908888,-0.1084112049718529
14332,7.0,299.79166000000004,4578.197,0.0,0.0,0.0,0.0,-0.14284431495532005,0.0,-0.4003540622868696,-0.4063776416138506,-0.5849258563876875,-0.2511499959740747,-1.1596577480243089,-0.12307158629621989
14333,7.0,299.31887,4627.9738,0.0,0.0,0.0,0.0,-0.14285428176490383,0.0,-0.3811642301004806,-0.4044890954149656,-0.6211351390462654,-0.24725329953450076,-1.1875404656011188,-0.13665446733174588
14334,7.0,300.38112,4703.2416,0.0,0.0,0.0,0.0,-0.14286424857448765,0.0,-0.41784535293312564,-0.3999103398030776,-0.6119123035885424,-0.23248668906964978,-1.1534276784594488,-0.18265602187174584
14335,7.0,300.01859,4487.9758,0.0,0.0,0.0,0.0,-0.1428742153840715,0.0,-0.41103435668843263,-0.3580090740452447,-0.5951891578430965,-0.24947209433847878,-1.2016506825186888,-0.16584260567489084
14336,7.0,299.6454,4016.1365,0.0,0.0,0.0,0.0,-0.1428841821936553,0.0,-0.36518674523612565,-0.31410975001771874,-0.5415087279502505,-0.25490748198240976,-1.1811222354926887,-0.17660369663942785
14337,7.0,299.84765,4085.2184,0.0,0.0,0.0,0.0,-0.14289414900323913,0.0,-0.3788762708446767,-0.3175195595192407,-0.5454085654651345,-0.27159688649952574,-1.2093205804756488,-0.13316288854715388
14338,7.0,301.00112,4509.6345,0.0,0.0,0.0,0.0,-0.14290411581282295,0.0,-0.39810006717441765,-0.36203815161038366,-0.6106780737742333,-0.23460556728126675,-1.163566461610069,-0.11986054606681487
14339,7.0,300.08036,4475.7387,0.0,0.0,0.0,0.0,-0.14291408262240676,0.0,-0.37962131364320667,-0.35418833083316664,-0.6267031611282864,-0.2551017321590808,-1.194715694859259,-0.1094540318422719
14340,7.0,300.2119,4317.4737,0.0,0.0,0.0,0.0,-0.14292404943199058,0.0,-0.36730792352546965,-0.36745419630990567,-0.5776420675138334,-0.2238592292381858,-1.196682008003319,-0.11534460182862588
14341,7.0,298.98699,4510.4074,0.0,0.0,0.0,0.0,-0.14293401624157442,0.0,-0.4312040827815296,-0.3378932629899687,-0.6019538688232214,-0.24664552172701776,-1.2070092556725387,-0.11055091560552589
14342,7.0,299.89083999999997,4854.2711,0.0,0.0,0.0,0.0,-0.14294398305115824,0.0,-0.4867887135873055,-0.3839690887622986,-0.6048193907685264,-0.1994988527190038,-1.1687021197419187,-0.13258215438483986
14343,7.0,299.34247999999997,4662.7348,0.0,0.0,0.0,0.0,-0.14295394986074203,0.0,-0.4666108409634046,-0.3630151070918016,-0.5877289925243355,-0.2207259964839598,-1.178595899018359,-0.1253121963748509
14344,7.0,299.38006,4353.7656,0.0,0.0,0.0,0.0,-0.14296391667032587,0.0,-0.3812477117762197,-0.35583331197301366,-0.5863549848587314,-0.2530341548000268,-1.1627099613005387,-0.15630712176631187
14345,7.0,299.59082,4222.1549,0.0,0.0,0.0,0.0,-0.1429738834799097,0.0,-0.3423166468315227,-0.34254251041131367,-0.5985705152818104,-0.26772117446952276,-1.1850995461102187,-0.13551730687701688
14346,7.0,300.4959,4083.677,0.0,0.0,0.0,0.0,-0.1429838502894935,0.0,-0.3465153221983997,-0.32849395989482966,-0.5663265564920795,-0.26513187463397875,-1.1648281606345887,-0.16105328655972184
14347,7.0,300.09103,4112.0556,0.0,0.0,0.0,0.0,-0.14299381709907735,0.0,-0.36437431117344465,-0.3174060451105377,-0.5681818579551835,-0.24345682366231777,-1.205961251094109,-0.13909846710294987
14348,7.0,300.43939,4323.3594,0.0,0.0,0.0,0.0,-0.14300378390866114,0.0,-0.3889593759023016,-0.3421384161389327,-0.5830955112745465,-0.23635664583908478,-1.203344532710859,-0.14061506945512686
14349,7.0,299.59605,4373.3223,0.0,0.0,0.0,0.0,-0.14301375071824496,0.0,-0.4108772421279266,-0.33321252375551563,-0.5852910114587254,-0.2218502278674128,-1.2297575310176188,-0.11208082193151589
14350,7.0,299.29571,4630.4776,0.0,0.0,0.0,0.0,-0.14302371752782878,0.0,-0.38995188477275466,-0.4011157831820456,-0.6164818994195264,-0.21854307073352178,-1.175536592991429,-0.15497049289689685
14351,7.0,300.07076,4883.7,0.0,0.0,0.0,0.0,-0.14303368433741262,0.0,-0.4459672279310386,-0.3950548047938736,-0.6435008212860863,-0.21547393618062177,-1.158201910280629,-0.10510655056570889
14352,7.0,299.92625,4732.2662,0.0,0.0,0.0,0.0,-0.14304365114699646,0.0,-0.4350439764204976,-0.3777038796839707,-0.6257428938760154,-0.2544923635489408,-1.165301247106279,-0.12278092537253389
14353,7.0,300.4798,4515.5689,0.0,0.0,0.0,0.0,-0.14305361795658025,0.0,-0.4099777192191506,-0.3653267257374406,-0.5973157266229725,-0.23669582117755877,-1.1932227721619189,-0.12373584266427688
14354,7.0,301.54776,4467.6746,0.0,0.0,0.0,0.0,-0.14306358476616407,0.0,-0.4218678646376166,-0.34097464773657765,-0.5952190183235434,-0.27867469176055076,-1.182152812169399,-0.12422730949278088
14355,7.0,301.80531,4325.6624,0.0,0.0,0.0,0.0,-0.14307355157574791,0.0,-0.39077209046370265,-0.3172588604010117,-0.6068623968126554,-0.2315043937602048,-1.2185231205338687,-0.12900290920159588
14356,7.0,301.05276000000003,4250.2322,0.0,0.0,0.0,0.0,-0.14308351838533173,0.0,-0.36803699750242364,-0.3240713157258487,-0.5998561371411915,-0.25467112113158275,-1.208194758289539,-0.14357313153206486
14357,7.0,300.05539,4525.5187,0.0,0.0,0.0,0.0,-0.14309348519491555,0.0,-0.4131454531392816,-0.33165924174971867,-0.6308399978415604,-0.23436802092782277,-1.1921659523076187,-0.12078742672829088
14358,7.0,299.35106,4741.2502,0.0,0.0,0.0,0.0,-0.14310345200449937,0.0,-0.43720031448831154,-0.39251576216328965,-0.6115055849984024,-0.24122543415959677,-1.171953943287849,-0.13951136651869986
14359,7.0,299.14405,4576.7156,0.0,0.0,0.0,0.0,-0.14311341881408318,0.0,-0.4080419251681026,-0.3697118796527216,-0.6134534671231434,-0.23692297158497677,-1.1647409198009788,-0.13081033459747488
14360,7.0,300.50045,4711.2903,0.0,0.0,0.0,0.0,-0.143123385623667,0.0,-0.4437935632865146,-0.39728637668161265,-0.5910346703130804,-0.25933600300197074,-1.1877235598941889,-0.12800337850794988
14361,7.0,300.90668,4912.159000000001,0.0,0.0,0.0,0.0,-0.14313335243325084,0.0,-0.4635566315844776,-0.3983786906869156,-0.6312383571183754,-0.2226797047967758,-1.1941847518068591,-0.1076027428495639
14362,7.0,301.35305,4627.4669,0.0,0.0,0.0,0.0,-0.14314331924283466,0.0,-0.4231892542255276,-0.37502446138453266,-0.6084206741414454,-0.23758543450035677,-1.1933937074537888,-0.13297396806600886
14363,7.0,300.59002999999996,4234.6468,0.0,0.0,0.0,0.0,-0.14315328605241845,0.0,-0.38015098000048064,-0.3335701605108117,-0.5735057475581105,-0.2114588009368588,-1.2163193015663687,-0.13478748309498886
14364,7.0,300.10112000000004,4271.9328,0.0,0.0,0.0,0.0,-0.1431632528620023,0.0,-0.3552309145235617,-0.3432444698155917,-0.6000855166988295,-0.25681828928599176,-1.205925280715559,-0.15786649340520983
14365,7.0,298.89162000000005,4368.8645,0.0,0.0,0.0,0.0,-0.1431732196715861,0.0,-0.38918223012929565,-0.3558649051111316,-0.5829785822130065,-0.23164489101907076,-1.1761364370506289,-0.15144745269669987
14366,7.0,299.02452999999997,4485.9421,0.0,0.0,0.0,0.0,-0.14318318648116993,0.0,-0.3963797306246336,-0.36124900203500065,-0.6059856517661274,-0.22240265182193278,-1.1717307242908188,-0.18223068987726881
14367,7.0,299.17652999999996,4553.8058,0.0,0.0,0.0,0.0,-0.14319315329075377,0.0,-0.39896278883956166,-0.36014591718113464,-0.6251345385159754,-0.24423677292679274,-1.179636912171099,-0.14804214202562185
14368,7.0,299.29868999999997,4354.7156,0.0,0.0,0.0,0.0,-0.14320312010033756,0.0,-0.36710770530570963,-0.35129731551534565,-0.6053197843304113,-0.2599281564929118,-1.2101828563107488,-0.16153732626499284
14369,7.0,301.37292,4343.6586,0.0,0.0,0.0,0.0,-0.14321308690992138,0.0,-0.3947979154960206,-0.33598265833640667,-0.5895831895448305,-0.2475954842257718,-1.1995560919119688,-0.12368684188944087
14370,7.0,301.28197,4696.098,0.0,0.0,0.0,0.0,-0.14322305371950522,0.0,-0.4338072134809386,-0.36696221272385066,-0.6267271042281494,-0.23419883855862578,-1.171451168588229,-0.13969821996964085
14371,7.0,299.67581,4695.7656,0.0,0.0,0.0,0.0,-0.14323302052908904,0.0,-0.4246432377215246,-0.38973352937620465,-0.6130187119027364,-0.2327721013578178,-1.177560864041209,-0.12333073514179588
14372,7.0,299.75527,4383.8574,0.0,0.0,0.0,0.0,-0.14324298733867286,0.0,-0.3947682981955976,-0.35677695179114366,-0.5810379448264805,-0.2424456304600208,-1.179125322195609,-0.1113053309674809
14373,7.0,299.08904,4386.9895,0.0,0.0,0.0,0.0,-0.14325295414825667,0.0,-0.3799389270195526,-0.34992472639988165,-0.6036716013202484,-0.22706264982683877,-1.1834763194500189,-0.10905657435804589
14374,7.0,299.74818,4674.4724,0.0,0.0,0.0,0.0,-0.1432629209578405,0.0,-0.4462330236972706,-0.35200164592485766,-0.6226882082695414,-0.22576619632388878,-1.197348017294049,-0.11203442520943689
14375,7.0,300.61789,4644.9515,0.0,0.0,0.0,0.0,-0.14327288776742433,0.0,-0.42636500295394963,-0.34450054530205665,-0.6410837030400354,-0.2376754719042428,-1.2042960758797687,-0.14379377687384087
14376,7.0,299.91359,4359.9185,0.0,0.0,0.0,0.0,-0.14328285457700815,0.0,-0.38190640540122767,-0.34284516821618366,-0.6005547933501434,-0.2339423444283118,-1.2092584682445189,-0.1297854726513289
14377,7.0,299.53087,4383.2202,0.0,0.0,0.0,0.0,-0.14329282138659197,0.0,-0.38973321526867366,-0.35433388421003165,-0.5883223821803985,-0.26167172686748874,-1.157842713120179,-0.14234775752362985
14378,7.0,300.6817,4623.9677,0.0,0.0,0.0,0.0,-0.14330278819617578,0.0,-0.4240978862527026,-0.3768326467179866,-0.6046401873558405,-0.24286016120843174,-1.153015285668749,-0.13062532526171586
14379,7.0,299.47095,4623.9991,0.0,0.0,0.0,0.0,-0.1433127550057596,0.0,-0.3990292276486186,-0.40928997571377557,-0.5972610617800774,-0.25511707276559475,-1.1643608496884688,-0.14782312801650685
14380,7.0,300.009,4524.5719,0.0,0.0,0.0,0.0,-0.14332272181534342,0.0,-0.3914455876726716,-0.38177184578794765,-0.6021394557115375,-0.24034761506796276,-1.1866528585135188,-0.14042720275408585
14381,7.0,299.09893999999997,4398.0067,0.0,0.0,0.0,0.0,-0.14333268862492723,0.0,-0.3815591037969516,-0.3876871796067456,-0.5676379351690025,-0.22817284769640678,-1.1727892666702888,-0.15133801155339885
14382,7.0,300.20923,4409.2753,0.0,0.0,0.0,0.0,-0.14334265543451108,0.0,-0.3870859980574136,-0.3654546282975637,-0.5877689652407804,-0.22406462516595677,-1.1894742534169689,-0.15767385429619785
14383,7.0,300.60559,4646.4212,0.0,0.0,0.0,0.0,-0.14335262224409487,0.0,-0.4022500964039936,-0.3934816630861166,-0.6166642540400235,-0.24242908408588776,-1.1963226081928489,-0.14451462325998285
14384,7.0,301.01597000000004,4474.6224,0.0,0.0,0.0,0.0,-0.1433625890536787,0.0,-0.37728775813290266,-0.37244797916275363,-0.6104377511155153,-0.24366401304276578,-1.2149997459611388,-0.14242215034597186
14385,7.0,300.03851000000003,4356.4825,0.0,0.0,0.0,0.0,-0.14337255586326253,0.0,-0.37100610400545164,-0.36077186256291066,-0.5924839421961124,-0.26258043995467173,-1.184034012305059,-0.14366428351106086
14386,7.0,299.82357,4742.7293,0.0,0.0,0.0,0.0,-0.14338252267284635,0.0,-0.4580088745044566,-0.3906856804951746,-0.5929767262497464,-0.24369502862832676,-1.1920815485742886,-0.13999315680874888
14387,7.0,298.59387000000004,4637.9659,0.0,0.0,0.0,0.0,-0.14339248948243016,0.0,-0.42436098677366857,-0.3814321131619186,-0.6040327033908864,-0.26579817776723774,-1.1987932159116788,-0.15951860782576086
14388,7.0,299.09132999999997,4400.6958,0.0,0.0,0.0,0.0,-0.14340245629201398,0.0,-0.3948467946808446,-0.35900167410820666,-0.5838531791693224,-0.25636157693591777,-1.204961679870459,-0.13601225928586486
14389,7.0,298.82387,4505.6534,0.0,0.0,0.0,0.0,-0.1434124231015978,0.0,-0.3986563009493136,-0.37349666261875064,-0.5974531841315385,-0.2215407812868728,-1.1754466163825488,-0.15407313834333486
14390,7.0,299.6644,4754.4112,0.0,0.0,0.0,0.0,-0.1434223899111816,0.0,-0.4410315651039266,-0.3777621820947246,-0.6264285298211825,-0.24066982859976274,-1.177316062817049,-0.11781502716243789
14391,7.0,299.75607,4688.0532,0.0,0.0,0.0,0.0,-0.14343235672076546,0.0,-0.44710212883804457,-0.35676592763005566,-0.6211830455109935,-0.24599846021315774,-1.1906038246284487,-0.13897615768337887
14392,7.0,299.57852,4591.1693,0.0,0.0,0.0,0.0,-0.14344232353034927,0.0,-0.42903185695214757,-0.35829819482877867,-0.6082707739216514,-0.25605651772831073,-1.2288420595522687,-0.08965335980659772
14393,7.0,299.32945,4542.6338,0.0,0.0,0.0,0.0,-0.1434522903399331,0.0,-0.3878174126420986,-0.3753181113960136,-0.6177117317284013,-0.25170757737160376,-1.183303965608009,-0.13534749629275786
14394,7.0,300.08678,4512.0034,0.0,0.0,0.0,0.0,-0.1434622571495169,0.0,-0.40540574225043163,-0.3705819372485897,-0.5955486792435785,-0.25441826456912775,-1.199264681183209,-0.12179549912027988
14395,7.0,300.2344,4517.8813,0.0,0.0,0.0,0.0,-0.14347222395910073,0.0,-0.3944114517753796,-0.38274176931367165,-0.5961698826148865,-0.2659539953676157,-1.1771476606504288,-0.14657475323080188
14396,7.0,300.92037,4496.4492,0.0,0.0,0.0,0.0,-0.14348219076868454,0.0,-0.4031309552459276,-0.3781921750396616,-0.5854851400453844,-0.26350118032054176,-1.1963952582250188,-0.12188162537877988
14397,7.0,299.71675,4269.1866,0.0,0.0,0.0,0.0,-0.1434921575782684,0.0,-0.36387302595147164,-0.37775166455868664,-0.5561014444329394,-0.23983922696278875,-1.1528972420320989,-0.16249267925427885
14398,7.0,300.39336000000003,4352.3706,0.0,0.0,0.0,0.0,-0.1435021243878522,0.0,-0.4187206287670086,-0.33057615845282673,-0.5737151964862814,-0.22975994185804077,-1.1637618162293488,-0.1368654462675679
14399,7.0,300.29972999999995,4569.0504,0.0,0.0,0.0,0.0,-0.143512091197436,0.0,-0.4019515625270306,-0.3887396931481206,-0.5981859666038585,-0.22970687795030378,-1.169843951279609,-0.16319128480072584
14400,7.0,299.56142,4479.6665,0.0,0.0,0.0,0.0,-0.14352205800701984,0.0,-0.42828785780122053,-0.3520899304060707,-0.5813289806527034,-0.24452705894794174,-1.2043591000359888,-0.13189890970990886
14401,7.0,298.71539,4359.7497,0.0,0.0,0.0,0.0,-0.14353202481660365,0.0,-0.3805618529160306,-0.36259583433292264,-0.5820973687335375,-0.25279467313889176,-1.188978875443079,-0.14211067726523188
14402,7.0,298.83152,4528.8115,0.0,0.0,0.0,0.0,-0.1435419916261875,0.0,-0.3965572115121496,-0.38051944839934565,-0.5995689516653484,-0.23743843217584876,-1.213990244886509,-0.12101795125854188
14403,7.0,298.349,4490.9171,0.0,0.0,0.0,0.0,-0.1435519584357713,0.0,-0.40804046608795863,-0.35233354612761364,-0.6047526581169403,-0.26463830024526674,-1.2100738305999887,-0.1150742363044429
14404,7.0,299.97807,4473.5465,0.0,0.0,0.0,0.0,-0.1435619252453551,0.0,-0.3983959868661226,-0.3695414205883986,-0.5919090342218735,-0.23774680471128276,-1.2224792542243088,-0.11225718824392189
14405,7.0,299.92517000000004,4489.1617,0.0,0.0,0.0,0.0,-0.14357189205493895,0.0,-0.3742080452489586,-0.3911216414832006,-0.5992633757001905,-0.24129178177614477,-1.1792444804073687,-0.14200600852990186
14406,7.0,299.64457000000004,4658.9927,0.0,0.0,0.0,0.0,-0.14358185886452277,0.0,-0.4336054956510306,-0.3639005559566887,-0.6187113941445604,-0.2270109436742358,-1.174175595457109,-0.11477493235740388
14407,7.0,300.38911,4572.2459,0.0,0.0,0.0,0.0,-0.14359182567410658,0.0,-0.4213953151884796,-0.3862949334393416,-0.5821583562570565,-0.2470616128805828,-1.181187387474119,-0.15237860927359784
14408,7.0,300.67211000000003,4441.7271,0.0,0.0,0.0,0.0,-0.1436017924836904,0.0,-0.41237605180834763,-0.33411330309441567,-0.6036847634390474,-0.23916867831161076,-1.180025088284409,-0.11283374781582389
14409,7.0,300.16462,4522.9704,0.0,0.0,0.0,0.0,-0.14361175929327422,0.0,-0.4226722636270046,-0.3681957332630897,-0.5840020762715175,-0.24386714942281376,-1.1707458451936188,-0.13594166615139786
14410,7.0,300.58177,4625.7539,0.0,0.0,0.0,0.0,-0.14362172610285803,0.0,-0.43963589415118454,-0.3519842788181437,-0.6144935075557875,-0.22619201467841377,-1.1851062335608789,-0.12359447401032489
14411,7.0,299.59587999999997,4546.1043,0.0,0.0,0.0,0.0,-0.14363169291244188,0.0,-0.37730376748448263,-0.3733932097835406,-0.6312052137076044,-0.26632259548899373,-1.203972139822799,-0.13624726238155788
14412,7.0,299.58942,4354.0489,0.0,0.0,0.0,0.0,-0.1436416597220257,0.0,-0.40239532554082663,-0.3467653112630717,-0.5743615081950675,-0.22928718975888376,-1.2305422932200687,-0.13554685324993287
14413,7.0,299.26347000000004,4396.6052,0.0,0.0,0.0,0.0,-0.14365162653160948,0.0,-0.36656116833427066,-0.36479693779015465,-0.6051000914437294,-0.24540801911488577,-1.1933694907763988,-0.14998375213224385
14414,7.0,299.63964,4547.8667,0.0,0.0,0.0,0.0,-0.14366159334119333,0.0,-0.4296618857318266,-0.36589923230894267,-0.5868768187927325,-0.22594164057870375,-1.194674151605159,-0.13978508590071387
14415,7.0,299.75169,4502.9736,0.0,0.0,0.0,0.0,-0.14367156015077714,0.0,-0.38241358773878265,-0.3908819673045466,-0.5954959902383785,-0.25396524044941776,-1.2040285778533688,-0.15515253340986285
14416,7.0,299.92231,4235.2993,0.0,0.0,0.0,0.0,-0.14368152696036096,0.0,-0.3753319929223837,-0.3171002462303577,-0.5949929926237364,-0.2246694949456528,-1.1859192654411188,-0.13461231241770086
14417,7.0,300.18287000000004,4312.5933,0.0,0.0,0.0,0.0,-0.1436914937699448,0.0,-0.35256615795307067,-0.38119915683142763,-0.5771553629607994,-0.21689560713092979,-1.171825361850159,-0.15533636737550585
14418,7.0,300.0909,4644.4277,0.0,0.0,0.0,0.0,-0.1437014605795286,0.0,-0.4443773777291326,-0.37383687147232664,-0.5935758103713714,-0.22555272479282076,-1.160986017580399,-0.12748974176725789
14419,7.0,300.32108999999997,4853.8911,0.0,0.0,0.0,0.0,-0.1437114273891124,0.0,-0.43645845329509564,-0.40115396244581364,-0.6378492668658213,-0.2643963766513907,-1.1841851892199788,-0.14412772384179887
14420,7.0,300.30426,4750.3157,0.0,0.0,0.0,0.0,-0.14372139419869626,0.0,-0.4500329142222905,-0.3867111157854156,-0.6072333375417643,-0.24424233566984174,-1.1921275501288289,-0.1241639509640279
14421,7.0,300.60141,4533.0864,0.0,0.0,0.0,0.0,-0.14373136100828007,0.0,-0.3954439941572836,-0.3479392628289317,-0.6345618275788765,-0.2564843119205308,-1.189078376602899,-0.13033419824298387
14422,7.0,300.57788999999997,4706.2581,0.0,0.0,0.0,0.0,-0.14374132781786392,0.0,-0.42886045556523156,-0.3807163532912786,-0.6210081382787314,-0.2258104854857598,-1.204273277752519,-0.12331568837781087
14423,7.0,299.63291,4743.8876,0.0,0.0,0.0,0.0,-0.1437512946274477,0.0,-0.4180115056845236,-0.38329834759360165,-0.6407135323810024,-0.25697360026131977,-1.223410329741199,-0.14705824578101884
14424,7.0,298.73897,4503.2756,0.0,0.0,0.0,0.0,-0.14376126143703152,0.0,-0.42566014565438565,-0.3506313062246157,-0.5925918735967644,-0.25455245941237176,-1.189517215221209,-0.14043401179475787
14425,7.0,300.65632999999997,4304.9215,0.0,0.0,0.0,0.0,-0.14377122824661537,0.0,-0.3590457808850596,-0.37052001753497865,-0.5790228436901054,-0.23711901521432477,-1.202440916271679,-0.16528328148718985
14426,7.0,300.45676000000003,4295.7709,0.0,0.0,0.0,0.0,-0.14378119505619918,0.0,-0.4242334996460866,-0.32525673728284066,-0.5563168512716985,-0.26053971372326773,-1.1825762493861887,-0.14152514029744387
14427,7.0,300.40196000000003,4550.7543,0.0,0.0,0.0,0.0,-0.143791161865783,0.0,-0.38820244768009865,-0.3771899896307537,-0.6179232375542754,-0.24006493855506478,-1.214826885494079,-0.14588388891511886
14428,7.0,301.41135,4710.4345,0.0,0.0,0.0,0.0,-0.14380112867536682,0.0,-0.44263595544476764,-0.36790501154439764,-0.6213135115938694,-0.24217529533334078,-1.1928026786704589,-0.1354883988516639
14429,7.0,300.16252000000003,4653.0314,0.0,0.0,0.0,0.0,-0.14381109548495064,0.0,-0.4222899440992726,-0.36514579979958467,-0.6269696053745825,-0.2195829186486468,-1.1447266972007288,-0.13218649035329086
14430,7.0,300.46151000000003,4668.3744,0.0,0.0,0.0,0.0,-0.14382106229453445,0.0,-0.4280655000667756,-0.39612472597196663,-0.5948790222524883,-0.24260978710872175,-1.167039984277879,-0.14257095625565788
14431,7.0,301.11915,4787.8997,0.0,0.0,0.0,0.0,-0.1438310291041183,0.0,-0.4352301813913746,-0.3752592213002016,-0.6449125623854144,-0.25477430038926574,-1.1814574186257687,-0.12597607784037088
14432,7.0,299.36908,4619.7026,0.0,0.0,0.0,0.0,-0.1438409959137021,0.0,-0.4287284493422036,-0.36064032243492866,-0.6149054747814454,-0.28523114944762273,-1.1827441449277591,-0.12855513371740387
14433,7.0,299.61097,4343.3216,0.0,0.0,0.0,0.0,-0.1438509627232859,0.0,-0.37218680381697766,-0.35347552965281864,-0.5945989599248485,-0.22776694983884777,-1.183634994415679,-0.15719324950876584
14434,7.0,300.27794,4260.3052,0.0,0.0,0.0,0.0,-0.14386092953286975,0.0,-0.37331150129547663,-0.3246411270520847,-0.5970737928965955,-0.26040535676000776,-1.188515617497359,-0.14017349506154686
14435,7.0,299.66218,4246.9723,0.0,0.0,0.0,0.0,-0.14387089634245356,0.0,-0.3802258794478726,-0.3345960357070577,-0.5761516171467375,-0.22928193099086477,-1.251645557027799,-0.16418066272836987
14436,7.0,299.31661,4473.4871,0.0,0.0,0.0,0.0,-0.14388086315203738,0.0,-0.4058371537455086,-0.36102071678747066,-0.5929705048941325,-0.2309737648153358,-1.2087108065654688,-0.14438528188471786
14437,7.0,300.1216,4635.4585,0.0,0.0,0.0,0.0,-0.14389082996162122,0.0,-0.4075543492199826,-0.37487303115708764,-0.6266362562241834,-0.22786531615855576,-1.1769317370541188,-0.13549090157941088
14438,7.0,300.02055,4676.1195,0.0,0.0,0.0,0.0,-0.14390079677120501,0.0,-0.43920701578135757,-0.38001430269449166,-0.6022022366877334,-0.22948540174344578,-1.180866592492459,-0.12078982813102787
14439,7.0,300.00766,4759.593,0.0,0.0,0.0,0.0,-0.14391076358078883,0.0,-0.4078352728102076,-0.35756227128114865,-0.6813998808714323,-0.25228242455083677,-1.205237993172729,-0.1373761243179679
14440,7.0,300.92706,4692.8497,0.0,0.0,0.0,0.0,-0.14392073039037268,0.0,-0.43053378744287657,-0.35382243608955566,-0.6421529149430584,-0.23681125062895078,-1.1691820963142887,-0.1068100671638329
14441,7.0,301.08387,4660.9542,0.0,0.0,0.0,0.0,-0.1439306971999565,0.0,-0.3845062633028136,-0.36710622596056364,-0.6652012136427484,-0.21766025631889482,-1.161361224092429,-0.11852432249743988
14442,7.0,301.60874,4620.9134,0.0,0.0,0.0,0.0,-0.14394066400954034,0.0,-0.42642351814722457,-0.35018196020276865,-0.6280368110424074,-0.2641759238271338,-1.1675587683290791,-0.11462430259753789
14443,7.0,299.32177,4344.5034,0.0,0.0,0.0,0.0,-0.14395063081912413,0.0,-0.3900089510183866,-0.3504417980584127,-0.5801698124058025,-0.2652697577075867,-1.2369131032238188,-0.14453937695992586
14444,7.0,300.28958,4308.8819,0.0,0.0,0.0,0.0,-0.14396059762870794,0.0,-0.41890532399523656,-0.3260543170990557,-0.5648328839896655,-0.2762112173224247,-1.2133262620959788,-0.12529174898783288
14445,7.0,299.33128,4573.0358,0.0,0.0,0.0,0.0,-0.1439705644382918,0.0,-0.3995853499660036,-0.37334249661603564,-0.6171608377815324,-0.24464732160231076,-1.1656261964133487,-0.15351191937794684
14446,7.0,299.85101000000003,4712.6694,0.0,0.0,0.0,0.0,-0.1439805312478756,0.0,-0.44990523457718956,-0.3932656584297986,-0.5893629393705935,-0.24497862398750775,-1.205594353232899,-0.14453320626681687
14447,7.0,299.21461,4580.811,0.0,0.0,0.0,0.0,-0.14399049805745942,0.0,-0.3916158035569706,-0.35830422366687364,-0.6425321339254844,-0.2404292222310168,-1.2146362931502688,-0.1329457287857219
14448,7.0,299.57592,4303.1599,0.0,0.0,0.0,0.0,-0.14400046486704324,0.0,-0.3963398085706936,-0.35806035463280567,-0.5536529964937965,-0.22675349708882778,-1.174758214264609,-0.15350686325994783
14449,7.0,299.7069,4247.8419,0.0,0.0,0.0,0.0,-0.14401043167662705,0.0,-0.3679204838734247,-0.3435827940239817,-0.5797345809578485,-0.2213854196490398,-1.1945620861440989,-0.13609270121130387
14450,7.0,300.45132,4494.5027,0.0,0.0,0.0,0.0,-0.14402039848621087,0.0,-0.4199380386296576,-0.3445931462286957,-0.6016853980767254,-0.23670821322628177,-1.182698751323279,-0.13633357102507587
14451,7.0,300.30327,4437.1596,0.0,0.0,0.0,0.0,-0.14403036529579472,0.0,-0.3711030619075207,-0.36082979007112764,-0.6168528604136374,-0.2576444022250228,-1.214493830186209,-0.15152963741231085
14452,7.0,300.71695,4271.6814,0.0,0.0,0.0,0.0,-0.14404033210537853,0.0,-0.4091889952088096,-0.3200564337946107,-0.5692390425795194,-0.22684250097761177,-1.1728345589497589,-0.14744259180895086
14453,7.0,301.41941,4478.5882,0.0,0.0,0.0,0.0,-0.14405029891496232,0.0,-0.3837417661023636,-0.35737153708232466,-0.6202656691354554,-0.25533430345453373,-1.189933762337319,-0.15112284789466385
14454,7.0,300.66649,4926.4688,0.0,0.0,0.0,0.0,-0.14406026572454617,0.0,-0.4802098630730235,-0.4095342804453866,-0.6077793678881535,-0.2627195591934018,-1.214259465438079,-0.15451147033659485
14455,7.0,299.85351,4948.8586,0.0,0.0,0.0,0.0,-0.14407023253412998,0.0,-0.4585422392245956,-0.39227861097738465,-0.6535085911987764,-0.26795298582740074,-1.2408654878888887,-0.13922994643592587
14456,7.0,298.86275,4574.3863,0.0,0.0,0.0,0.0,-0.1440801993437138,0.0,-0.4040808772146776,-0.3925384387005276,-0.5938799069913834,-0.24425930760901676,-1.196826396142569,-0.13916124807914587
14457,7.0,299.31023999999996,4469.1716,0.0,0.0,0.0,0.0,-0.14409016615329764,0.0,-0.38686853432095164,-0.3554722909623837,-0.6161757661668135,-0.2119409255994408,-1.1865773713810688,-0.12144756930094189
14458,7.0,300.24682,4614.2122,0.0,0.0,0.0,0.0,-0.14410013296288143,0.0,-0.4464208296033056,-0.35142438721038666,-0.6047600751076725,-0.24328008244737478,-1.2092395204676487,-0.13052201428151988
14459,7.0,299.78751,4521.6696,0.0,0.0,0.0,0.0,-0.14411009977246525,0.0,-0.38341334134745064,-0.37181496129527963,-0.6192463597998574,-0.2319083259125698,-1.207675872913329,-0.13929918181525888
14460,7.0,300.11747,4368.3597,0.0,0.0,0.0,0.0,-0.1441200665820491,0.0,-0.4273604603821936,-0.3073776251608097,-0.5931341751827854,-0.27191993089640776,-1.189673661036649,-0.11960082980118289
14461,7.0,299.87921,4453.104,0.0,0.0,0.0,0.0,-0.1441300333916329,0.0,-0.38940532753631363,-0.36893299430085164,-0.5952940900234525,-0.2223048225247778,-1.170795291798499,-0.15287619613270587
14462,7.0,300.44346,4678.8505,0.0,0.0,0.0,0.0,-0.14414000020121676,0.0,-0.45024455177067757,-0.3608756599031547,-0.6111334992966804,-0.27568502641299375,-1.1937781345417289,-0.13262221829379386
14463,7.0,300.03708,4917.7591,0.0,0.0,0.0,0.0,-0.14414996701080054,0.0,-0.45542715377966053,-0.36476079515908766,-0.6746880108840223,-0.23182230097907977,-1.2125721000465488,-0.14467129199044487
14464,7.0,301.01822999999996,4790.8558,0.0,0.0,0.0,0.0,-0.14415993382038436,0.0,-0.4378554820029716,-0.4066877062769516,-0.6117573371182484,-0.25555523250633777,-1.1856547058400089,-0.13184216770430887
14465,7.0,299.94217000000003,4315.6631,0.0,0.0,0.0,0.0,-0.1441699006299682,0.0,-0.3586117045422197,-0.3313389432606077,-0.6219031826220655,-0.24150957988513977,-1.1957140501827888,-0.12700528662944588
14466,7.0,300.35611,4292.5493,0.0,0.0,0.0,0.0,-0.14417986743955202,0.0,-0.40489247027977565,-0.3326065799307137,-0.5673287317684864,-0.25165644877155774,-1.2230155675022387,-0.12437217385957787
14467,7.0,299.65345,4569.4137,0.0,0.0,0.0,0.0,-0.14418983424913584,0.0,-0.4088151059219096,-0.3618612077454207,-0.6183113427400784,-0.23184542334636177,-1.236267764235129,-0.13590587815786587
14468,7.0,299.0421,4550.4589,0.0,0.0,0.0,0.0,-0.14419980105871966,0.0,-0.40270409324379963,-0.3535492334650927,-0.6269725336673714,-0.2522709545597048,-1.170198588814609,-0.11405966897931288
14469,7.0,298.86361,4383.3045,0.0,0.0,0.0,0.0,-0.14420976786830347,0.0,-0.37898775875317964,-0.3769348431230726,-0.5764925150103815,-0.23679790612513377,-1.1847294058486888,-0.14795499238452087
14470,7.0,299.62461,4471.8552,0.0,0.0,0.0,0.0,-0.1442197346778873,0.0,-0.37675874025569267,-0.36912749779004767,-0.6134460805299145,-0.2533048141667387,-1.1719057125830887,-0.16441757073425084
14471,7.0,300.09129,4506.6072,0.0,0.0,0.0,0.0,-0.14422970148747113,0.0,-0.4057694787713296,-0.35841865000066664,-0.6057079300462185,-0.2133269200137278,-1.206144041412149,-0.16259598010197385
14472,7.0,300.40526,4537.0794,0.0,0.0,0.0,0.0,-0.14423966829705495,0.0,-0.4212625084978726,-0.38130715915958663,-0.5765891689374205,-0.2382589114443238,-1.189387417883399,-0.16601657058455985
14473,7.0,300.37029,4439.1752,0.0,0.0,0.0,0.0,-0.14424963510663874,0.0,-0.3851603669048686,-0.34729527146287464,-0.6169427660950104,-0.2286838803843418,-1.177381417448499,-0.16515655429718284
14474,7.0,300.01499,4263.3137,0.0,0.0,0.0,0.0,-0.14425960191622259,0.0,-0.3937878875313386,-0.36490106950293166,-0.5372519528226395,-0.24973724162464675,-1.2091227940561289,-0.15247944792354987
14475,7.0,300.40788,4387.3986,0.0,0.0,0.0,0.0,-0.1442695687258064,0.0,-0.4007076156442626,-0.32487591736525673,-0.6080760779149365,-0.22991185844553375,-1.2002912048595187,-0.13150298223333387
14476,7.0,300.18145,4582.0925,0.0,0.0,0.0,0.0,-0.14427953553539022,0.0,-0.4091457902245456,-0.36058141207411465,-0.6231144927191123,-0.24724779758645773,-1.211820268472349,-0.1220964242674789
14477,7.0,299.93187,4591.0194,0.0,0.0,0.0,0.0,-0.14428950234497406,0.0,-0.39448450710758964,-0.3863953363917506,-0.6146754163462405,-0.24773824103236078,-1.1933474019242187,-0.14380490235993887
14478,7.0,300.5933,4731.2547,0.0,0.0,0.0,0.0,-0.14429946915455785,0.0,-0.44655415305146356,-0.3637345653253066,-0.6278945608608685,-0.2576321115013097,-1.1772139272069688,-0.10404663016610291
14479,7.0,298.31663,4669.7429999999995,0.0,0.0,0.0,0.0,-0.14430943596414167,0.0,-0.4054174655540886,-0.3919766421825826,-0.6220911607806174,-0.25231165681622175,-1.194525001190439,-0.13899688878042488
14480,7.0,300.02008,4592.2809,0.0,0.0,0.0,0.0,-0.1443194027737255,0.0,-0.45766123852764756,-0.3536857689160677,-0.5845917067697094,-0.2300922169633338,-1.173664106806629,-0.1046571944113609
14481,7.0,300.69507999999996,4587.6523,0.0,0.0,0.0,0.0,-0.14432936958330933,0.0,-0.4035932607365536,-0.37063110014344164,-0.6203073745095714,-0.25365619916891774,-1.162844115613779,-0.13784083121133087
14482,7.0,300.65335,4598.8444,0.0,0.0,0.0,0.0,-0.14433933639289315,0.0,-0.4020732032015356,-0.4087194956424736,-0.5871411554788204,-0.24956507016765475,-1.178694690903109,-0.14902293772491887
14483,7.0,301.05439,4583.3692,0.0,0.0,0.0,0.0,-0.14434930320247696,0.0,-0.4302996557422696,-0.34138893530496467,-0.6215411888913394,-0.26778668108848774,-1.198614681244059,-0.15174088992565987
14484,7.0,301.0411,4435.3311,0.0,0.0,0.0,0.0,-0.14435927001206078,0.0,-0.4027201025953796,-0.3531186731000997,-0.5923911183544515,-0.2479502129532808,-1.2177735181098888,-0.16288476651297484
14485,7.0,299.65952000000004,4367.4127,0.0,0.0,0.0,0.0,-0.14436923682164463,0.0,-0.3707177026294886,-0.37364422223081367,-0.5832224613795755,-0.25966302947174574,-1.207295093525749,-0.15514238064386085
14486,7.0,300.83966000000004,4596.9908,0.0,0.0,0.0,0.0,-0.14437920363122841,0.0,-0.42934538693059066,-0.36835142927345566,-0.5996736001356764,-0.24847022303710176,-1.2173989195479187,-0.14881331654423086
14487,7.0,300.40897,4680.5905,0.0,0.0,0.0,0.0,-0.14438917044081226,0.0,-0.4032395148616416,-0.3931230029482196,-0.6264201097128514,-0.24678011173780076,-1.2205492154338289,-0.12409167583439487
14488,7.0,299.57409,4575.7091,0.0,0.0,0.0,0.0,-0.14439913725039608,0.0,-0.4020605274427846,-0.3758922290351746,-0.6129485645983134,-0.2155675300923588,-1.200205483901059,-0.14598665274026087
14489,7.0,299.73728,4511.2573,0.0,0.0,0.0,0.0,-0.1444091040599799,0.0,-0.3988251388134766,-0.37899294659369165,-0.5934914876980495,-0.21990029897746982,-1.1867883300518887,-0.1316957935948629
14490,7.0,300.05075,4551.0387,0.0,0.0,0.0,0.0,-0.1444190708695637,0.0,-0.39904308890998663,-0.39439302075606064,-0.5899660055651115,-0.2238696555817148,-1.2034765591988887,-0.16123952192810184
14491,7.0,300.55246,4793.3302,0.0,0.0,0.0,0.0,-0.14442903767914753,0.0,-0.4609951758616816,-0.3714935482310586,-0.6245639571196634,-0.25524955521616977,-1.1789968420829289,-0.12881025996008288
14492,7.0,299.49041,4624.5419,0.0,0.0,0.0,0.0,-0.14443900448873137,0.0,-0.45667364392017956,-0.37039947117058164,-0.5786721476979945,-0.25910602562677376,-1.197914728074979,-0.16192097315035583
14493,7.0,300.22497000000004,4375.3198,0.0,0.0,0.0,0.0,-0.14444897129831516,0.0,-0.36101848763725064,-0.34817867356255966,-0.6207908062647823,-0.2693878695590127,-1.158587350618669,-0.14186957440393688
14494,7.0,300.36924,4371.0326,0.0,0.0,0.0,0.0,-0.144458938107899,0.0,-0.38019864328518466,-0.3536872583937147,-0.5947988640370775,-0.26042989767742974,-1.194582655121129,-0.1361896287158699
14495,7.0,299.58947,4645.2057,0.0,0.0,0.0,0.0,-0.1444689049174828,0.0,-0.42671449317844157,-0.37072213053242564,-0.6145899284353034,-0.24395868643684776,-1.2153092938666887,-0.14815503835176386
14496,7.0,299.56341000000003,4673.7234,0.0,0.0,0.0,0.0,-0.14447887172706664,0.0,-0.4452880767865116,-0.33228477169895365,-0.6431223723737364,-0.2302976939511128,-1.209921133809919,-0.11326733779861589
14497,7.0,299.80852000000004,4489.7936,0.0,0.0,0.0,0.0,-0.14448883853665045,0.0,-0.4132353689531556,-0.3736656626029296,-0.5778841228302224,-0.2216516004503098,-1.2127744460915189,-0.14351870986919385
14498,7.0,299.14848,4501.6707,0.0,0.0,0.0,0.0,-0.14449880534623427,0.0,-0.3900544054178726,-0.36491538672684465,-0.6134256838054014,-0.24377064748328975,-1.251267412090479,-0.12297353408404288
14499,7.0,300.62891,4693.8779,0.0,0.0,0.0,0.0,-0.1445087721558181,0.0,-0.4074490624020916,-0.37743124447956367,-0.6419413787196814,-0.24877639681981878,-1.2057174631200487,-0.13345285032827087
14500,7.0,300.24236,4731.6423,0.0,0.0,0.0,0.0,-0.1445187389654019,0.0,-0.4249407583483876,-0.3828056952624806,-0.6305546666134004,-0.23616404726007678,-1.208510284370679,-0.11884496549158488
14501,7.0,301.24966,4519.5699,0.0,0.0,0.0,0.0,-0.14452870577498575,0.0,-0.4075697607540036,-0.3500350186732667,-0.6162316165123254,-0.24104681843196876,-1.170378440707359,-0.14481540655216785
14502,7.0,300.39498,4414.7981,0.0,0.0,0.0,0.0,-0.14453867258456957,0.0,-0.3861234509924176,-0.37663016895050366,-0.5792347750810215,-0.26866975894814077,-1.199175515174409,-0.15265128500800884
14503,7.0,300.16183,4596.6361,0.0,0.0,0.0,0.0,-0.14454863939415338,0.0,-0.4609196988617326,-0.3552490010378467,-0.5810939066295034,-0.23420172632141076,-1.1949029434777387,-0.14759817636180586
14504,7.0,298.72538,4674.157,0.0,0.0,0.0,0.0,-0.1445586062037372,0.0,-0.44631082103994857,-0.34794428854942766,-0.6265719148428335,-0.2426611994187958,-1.1719500929374689,-0.14084569531038788
14505,7.0,299.17856,4523.2295,0.0,0.0,0.0,0.0,-0.14456857301332102,0.0,-0.3798491834581956,-0.3764023092680156,-0.6186973201006715,-0.23448166705903875,-1.1616977244506388,-0.14962998599232985
14506,7.0,298.75383,4439.8923,0.0,0.0,0.0,0.0,-0.14457853982290483,0.0,-0.3984231115712996,-0.34647213747913763,-0.6047211359063295,-0.24354306137832876,-1.2242467676987487,-0.13603826941593186
14507,7.0,300.05557000000005,4592.3425,0.0,0.0,0.0,0.0,-0.14458850663248868,0.0,-0.3998955564841186,-0.36774039893315164,-0.6283214836580024,-0.24734221223077577,-1.184608018486709,-0.14558606431322585
14508,7.0,300.45193,4704.6,0.0,0.0,0.0,0.0,-0.1445984734420725,0.0,-0.44308596007917955,-0.37419949341811465,-0.6127954827732054,-0.2179992188748478,-1.2146775324293388,-0.13776111882596387
14509,7.0,301.17564,4725.8674,0.0,0.0,0.0,0.0,-0.14460844025165628,0.0,-0.45070306770592955,-0.36168620932064965,-0.6241564076644414,-0.26305243211625373,-1.2050096066001887,-0.11897402315682189
14510,7.0,299.81408,4536.8266,0.0,0.0,0.0,0.0,-0.14461840706124013,0.0,-0.3786125826386526,-0.3859622631665096,-0.6145071459021334,-0.2439523840212258,-1.2372671328087588,-0.16024894836533984
14511,7.0,299.38351,4442.0961,0.0,0.0,0.0,0.0,-0.14462837387082395,0.0,-0.3723282535309377,-0.36279306346488766,-0.6151649782645564,-0.23122004538464178,-1.208159598511069,-0.14597923574952887
14512,7.0,298.72275,4545.3165,0.0,0.0,0.0,0.0,-0.1446383406804078,0.0,-0.42240178664531064,-0.33018690829441066,-0.6290740245072723,-0.19599385850308781,-1.1898944482334388,-0.11319300577127989
14513,7.0,299.02112,4549.865,0.0,0.0,0.0,0.0,-0.14464830748999158,0.0,-0.4108692171871346,-0.38398436857380663,-0.5881917539775064,-0.24138315667016275,-1.180043022811179,-0.14176741852885488
14514,7.0,298.6771,4380.9199,0.0,0.0,0.0,0.0,-0.1446582742995754,0.0,-0.4174723857038166,-0.3204313565966127,-0.5937864954646644,-0.24610129496580677,-1.2318260810967687,-0.11936716419562189
14515,7.0,298.63729,4306.2959,0.0,0.0,0.0,0.0,-0.14466824110915924,0.0,-0.4054826580655226,-0.3313412636033367,-0.5721825037225164,-0.28581288672753574,-1.2041307134634487,-0.1306447999286379
14516,7.0,299.08381,4626.5652,0.0,0.0,0.0,0.0,-0.14467820791874306,0.0,-0.4148718590571646,-0.35197471373719963,-0.6395137226725904,-0.25913114409675275,-1.1942996543681987,-0.13282859707416186
14517,7.0,300.79400000000004,4913.2125,0.0,0.0,0.0,0.0,-0.14468817472832687,0.0,-0.44578975717602354,-0.37696999276904164,-0.6707341570063073,-0.2873150097357837,-1.1944791009609088,-0.1268070138498779
14518,7.0,300.53652999999997,4734.8587,0.0,0.0,0.0,0.0,-0.14469814153791066,0.0,-0.4319908005566726,-0.40826913637052664,-0.5990188784510604,-0.27230445930935776,-1.2241802984921888,-0.14959837258920985
14519,7.0,300.09643,4573.0979,0.0,0.0,0.0,0.0,-0.1447081083474945,0.0,-0.4195818102920006,-0.3763784776256637,-0.5941472834277715,-0.2544450650342727,-1.1882924998253388,-0.14504042913437587
14520,7.0,299.96173,4394.1502,0.0,0.0,0.0,0.0,-0.14471807515707832,0.0,-0.43790416867027654,-0.3259832376045407,-0.5718245427271884,-0.20434570417485082,-1.1946554064783088,-0.14022777486940385
14521,7.0,300.57481,4413.5842,0.0,0.0,0.0,0.0,-0.14472804196666217,0.0,-0.4079490303989346,-0.35783807795836864,-0.5758322711127205,-0.23263050978884378,-1.1963985006253388,-0.1340174535489929
14522,7.0,300.28582,4570.4184,0.0,0.0,0.0,0.0,-0.14473800877624599,0.0,-0.39616081794052865,-0.3513814051411447,-0.6417508269058754,-0.22621688996836875,-1.2182021229021887,-0.13254402578357688
14523,7.0,300.38129,4512.871,0.0,0.0,0.0,0.0,-0.14474797558582977,0.0,-0.3949490518809366,-0.36853935676950267,-0.6083116686956874,-0.24344553605620375,-1.2189324735742688,-0.13826940560612788
14524,7.0,299.84727000000004,4349.3977,0.0,0.0,0.0,0.0,-0.14475794239541362,0.0,-0.37311142493073063,-0.35309311893257767,-0.5959037524761214,-0.23027234243361078,-1.204161212291459,-0.15180148228163987
14525,7.0,299.42713,4626.1675,0.0,0.0,0.0,0.0,-0.14476790920499744,0.0,-0.43754726145505257,-0.36537609128231263,-0.6033160417276574,-0.24916963918362878,-1.191848095751249,-0.13655162244659586
14526,7.0,299.31149,5000.5026,0.0,0.0,0.0,0.0,-0.14477787601458125,0.0,-0.4699761079905306,-0.4290440362183496,-0.6210077735086954,-0.2440135032672578,-1.1936584697049188,-0.14996917146330485
14527,7.0,299.85966,4894.1017,0.0,0.0,0.0,0.0,-0.1447878428241651,0.0,-0.4496567248576636,-0.4099710520334926,-0.6280569443218944,-0.2754211659544527,-1.164594505161529,-0.14620172520648686
14528,7.0,299.40263,4466.3266,0.0,0.0,0.0,0.0,-0.1447978096337489,0.0,-0.37804815167044764,-0.35627613266421665,-0.6233274880226334,-0.2452809271548428,-1.1872724609496688,-0.14363936769110186
14529,7.0,299.11773,4370.561,0.0,0.0,0.0,0.0,-0.1448077764433327,0.0,-0.39561784760944163,-0.35860071077863465,-0.5743228425712515,-0.26205146260746576,-1.1910752898999788,-0.1363457097612739
14530,7.0,300.44162,4359.7439,0.0,0.0,0.0,0.0,-0.14481774325291655,0.0,-0.36947563025940566,-0.3511251845883577,-0.6046524679470524,-0.2628036792167037,-1.2019501992482489,-0.13390836704322687
14531,7.0,300.52517,4474.1285,0.0,0.0,0.0,0.0,-0.14482771006250036,0.0,-0.4281081477634846,-0.35397379538949364,-0.5779414119908765,-0.25626568294645374,-1.210027829045449,-0.12779645257252786
14532,7.0,300.28918999999996,4556.9335,0.0,0.0,0.0,0.0,-0.1448376768720842,0.0,-0.4322368683434576,-0.35868578325703065,-0.5942713660350174,-0.25038585341115976,-1.205066652580819,-0.1153572978523789
14533,7.0,300.07187000000005,4458.7953,0.0,0.0,0.0,0.0,-0.144847643681668,0.0,-0.3747409742715546,-0.36422677182638363,-0.6163946889834194,-0.2324267350612328,-1.2014815710769988,-0.12849022491599787
14534,7.0,300.36621,4686.7524,0.0,0.0,0.0,0.0,-0.14485761049125181,0.0,-0.4167700412645006,-0.39043494162542863,-0.6174507185026413,-0.24649298705696374,-1.190526108345779,-0.13338601635167488
14535,7.0,299.48933999999997,5011.4578,0.0,0.0,0.0,0.0,-0.14486757730083566,0.0,-0.4493531652602045,-0.39104160485780165,-0.6829632751132273,-0.2327875432893418,-1.2243960194384789,-0.13103019973667387
14536,7.0,300.5153,4719.012,0.0,0.0,0.0,0.0,-0.14487754411041948,0.0,-0.4346731370163986,-0.3616004275671837,-0.6381882496867765,-0.24101783947910876,-1.2231807272685389,-0.13224071949864288
14537,7.0,299.44621,4206.2531,0.0,0.0,0.0,0.0,-0.1448875109200033,0.0,-0.3971586058440026,-0.3207369730917747,-0.5607003434568154,-0.24861719496410675,-1.2170840014168387,-0.16249107831912085
14538,7.0,299.16222,4367.7262,0.0,0.0,0.0,0.0,-0.14489747772958708,0.0,-0.40061769983038864,-0.34955069525796767,-0.5775112974559274,-0.26263383823494174,-1.2088119289254489,-0.14273753457209787
14539,7.0,298.99541,4593.1019,0.0,0.0,0.0,0.0,-0.14490744453917093,0.0,-0.4113899264135246,-0.3921611448932916,-0.5926372064062384,-0.26610430088744974,-1.1987766999350489,-0.16830646514805483
14540,7.0,299.13536,4598.6764,0.0,0.0,0.0,0.0,-0.14491741134875474,0.0,-0.40248005351418864,-0.37360757297469666,-0.6217951802939063,-0.27537607632500277,-1.1936678929308489,-0.12499971004401089
14541,7.0,299.63416,4413.6233,0.0,0.0,0.0,0.0,-0.1449273781583386,0.0,-0.37236378821194466,-0.37618846283441065,-0.5930790138473414,-0.2362898827899958,-1.190336529252069,-0.16736336235247784
14542,7.0,300.76399,4366.6566,0.0,0.0,0.0,0.0,-0.1449373449679224,0.0,-0.37165035881653463,-0.3766701416669486,-0.5790340603687124,-0.2254230186475198,-1.172110287778279,-0.14304167172211385
14543,7.0,300.23306,4576.9592,0.0,0.0,0.0,0.0,-0.1449473117775062,0.0,-0.4279050113834366,-0.3822020920454096,-0.5811742066999285,-0.23081184744935576,-1.203280191329509,-0.14500158112554187
14544,7.0,300.43576,4883.3153,0.0,0.0,0.0,0.0,-0.14495727858709004,0.0,-0.44468248759924456,-0.39161194307408964,-0.6481114841436234,-0.2211342045517468,-1.2003761152178989,-0.14102482779556688
14545,7.0,299.97706,4722.7864,0.0,0.0,0.0,0.0,-0.14496724539667386,0.0,-0.4116221633364446,-0.3981654319383686,-0.6258215322162765,-0.25038000695808277,-1.1934472070590687,-0.14260725087423987
14546,7.0,300.71821,4303.5943,0.0,0.0,0.0,0.0,-0.14497721220625767,0.0,-0.3666432618573726,-0.3459986457074077,-0.5955432887530464,-0.2399048957017698,-1.223088116209399,-0.12504215509069988
14547,7.0,299.47056000000003,4261.8567,0.0,0.0,0.0,0.0,-0.14498717901584152,0.0,-0.35958892346866367,-0.34195281911811565,-0.5939562655189194,-0.2772646225238877,-1.250542938268979,-0.14309539424241588
14548,7.0,298.80233,4664.7116,0.0,0.0,0.0,0.0,-0.1449971458254253,0.0,-0.45477638377043456,-0.34963292050358263,-0.6135465544098304,-0.27149039391401575,-1.249821504197779,-0.12198111640609888
14549,7.0,298.80785,4714.7722,0.0,0.0,0.0,0.0,-0.14500711263500912,0.0,-0.4859389615234415,-0.34799244832668064,-0.5992416212205435,-0.2527450644139958,-1.236967616079199,-0.12456053705316789
14550,7.0,299.56762000000003,4438.728,0.0,0.0,0.0,0.0,-0.14501707944459297,0.0,-0.38963125191111064,-0.36431335404742865,-0.5953178608707984,-0.23636121559703577,-1.178243693283599,-0.15418768626713986
14551,7.0,299.65957000000003,4374.5776,0.0,0.0,0.0,0.0,-0.14502704625417678,0.0,-0.39307587668606864,-0.34785395730301266,-0.5888325232082454,-0.2609830005095168,-1.203965655022159,-0.11309075870368888
14552,7.0,299.34126000000003,4576.0058,0.0,0.0,0.0,0.0,-0.14503701306376063,0.0,-0.40003943799831865,-0.37030229035349066,-0.6206497719833635,-0.2771133037539537,-1.182728946176259,-0.11296685848146089
14553,7.0,298.93089,4633.4386,0.0,0.0,0.0,0.0,-0.14504697987334442,0.0,-0.4139851841596566,-0.37328789256814665,-0.6211765505778524,-0.26026543705369876,-1.166909680315019,-0.14003174137255686
14554,7.0,299.45318,4560.1346,0.0,0.0,0.0,0.0,-0.14505694668292823,0.0,-0.4369227751534206,-0.35778786128341267,-0.5914564255347045,-0.24105898756566976,-1.1692903114249689,-0.15815440842112485
14555,7.0,300.28504,4404.4587,0.0,0.0,0.0,0.0,-0.14506691349251208,0.0,-0.4024050324767846,-0.35441342434288164,-0.5820270086465934,-0.2384101491542498,-1.2395946696134688,-0.16444276013173684
14556,7.0,299.50577999999996,4281.7145,0.0,0.0,0.0,0.0,-0.1450768803020959,0.0,-0.3759922266875436,-0.3391416681731767,-0.5864004088607144,-0.24639461060475476,-1.232462402159569,-0.17459386440357283
14557,7.0,300.42275,4602.9835,0.0,0.0,0.0,0.0,-0.1450868471116797,0.0,-0.3945180051558956,-0.38433749636615766,-0.6203365358474494,-0.2293644500790088,-1.233864132347909,-0.15180501852448886
14558,7.0,299.21592000000004,4559.944,0.0,0.0,0.0,0.0,-0.14509681392126353,0.0,-0.37542546524410864,-0.3862446458368786,-0.6244390031173314,-0.23915065259233179,-1.190280597846549,-0.14283375280159386
14559,7.0,298.52549,4411.5135,0.0,0.0,0.0,0.0,-0.14510678073084735,0.0,-0.36725952056819267,-0.37336732124348565,-0.6003630965637244,-0.23443547298697975,-1.2395964934636488,-0.13237874442726488
14560,7.0,300.00838,4675.4032,0.0,0.0,0.0,0.0,-0.14511674754043116,0.0,-0.4304081545629776,-0.38904127690788465,-0.6017563965112325,-0.24277828046785077,-1.2174334713763288,-0.14346750020913987
14561,7.0,300.12,4969.6276,0.0,0.0,0.0,0.0,-0.145126714350015,0.0,-0.47595723213832153,-0.39224201238377265,-0.6424434441442314,-0.23600460222434078,-1.1806277694438887,-0.15041855801515586
14562,7.0,299.93851,4797.9083,0.0,0.0,0.0,0.0,-0.14513668115959882,0.0,-0.43475021495150556,-0.38309160404319764,-0.6406025004350444,-0.23452047453786878,-1.146973883272509,-0.16063722580365986
14563,7.0,300.94408,4524.0635,0.0,0.0,0.0,0.0,-0.1451466479691826,0.0,-0.40272259519062564,-0.3390657554756847,-0.6334139874680934,-0.23304640842488977,-1.1928433099994689,-0.12297946159712789
14564,7.0,300.49915,4482.3093,0.0,0.0,0.0,0.0,-0.14515661477876646,0.0,-0.36710579026302065,-0.34262176683413564,-0.6527825468396213,-0.24896995798642174,-1.1698501321052188,-0.1073644264260439
14565,7.0,300.59449,4585.0921,0.0,0.0,0.0,0.0,-0.14516658158835027,0.0,-0.41520986915802355,-0.34136238815234465,-0.6371812513398935,-0.23795086314892175,-1.1733210203227689,-0.08795958054193473
14566,7.0,299.36467000000005,4677.3808,0.0,0.0,0.0,0.0,-0.1451765483979341,0.0,-0.4567753742302196,-0.3637337445927256,-0.6012978603109784,-0.25855055178945274,-1.1954839410850788,-0.13668579702483788
14567,7.0,298.57467,4647.4655,0.0,0.0,0.0,0.0,-0.14518651520751794,0.0,-0.44271042932711757,-0.34684064640800666,-0.6231623890513394,-0.27213893477302176,-1.239370842666379,-0.12577446133547288
14568,7.0,299.61085,4678.4394,0.0,0.0,0.0,0.0,-0.14519648201710172,0.0,-0.44419989684161654,-0.36195007991169165,-0.6159787802148724,-0.2828614107762477,-1.2290028623431386,-0.12483888698813889
14569,7.0,299.60256,4621.1252,0.0,0.0,0.0,0.0,-0.14520644882668554,0.0,-0.4110509334600686,-0.3626872598894456,-0.6309684678217394,-0.23959921841160176,-1.2022999731827688,-0.13371969987460688
14570,7.0,299.16221,4538.8986,0.0,0.0,0.0,0.0,-0.14521641563626939,0.0,-0.3817508816433786,-0.3658047568696186,-0.6321562097214604,-0.2550775458791938,-1.167751589823109,-0.1297274944806069
14571,7.0,300.52903,4476.4584,0.0,0.0,0.0,0.0,-0.1452263824458532,0.0,-0.3928790629866446,-0.3474986408904457,-0.6203538826891614,-0.2363201384379818,-1.2045621553560288,-0.13549439729225587
14572,7.0,300.76986,4360.3197,0.0,0.0,0.0,0.0,-0.14523634925543705,0.0,-0.4015945235892936,-0.34430784539803866,-0.5795259527622585,-0.23041516003520576,-1.1980821169914988,-0.14198490253031887
14573,7.0,301.03726,4435.6513,0.0,0.0,0.0,0.0,-0.14524631606502084,0.0,-0.4116521859369076,-0.37077943995808166,-0.5658956212245495,-0.19438170666648083,-1.1964851335088889,-0.18810896913990982
14574,7.0,300.57003,4653.7843,0.0,0.0,0.0,0.0,-0.14525628287460465,0.0,-0.42793050475595257,-0.36578762281042765,-0.6209160845071464,-0.2298710548640068,-1.184055493207179,-0.15442011570757885
14575,7.0,299.15205,4604.8525,0.0,0.0,0.0,0.0,-0.1452662496841885,0.0,-0.40284377990258563,-0.3805379807436746,-0.6163784161868134,-0.25379993882810375,-1.2265761283536387,-0.16492417551924884
14576,7.0,299.73554,4483.7959,0.0,0.0,0.0,0.0,-0.14527621649377231,0.0,-0.36331494806139364,-0.3586539368063877,-0.6409931184810954,-0.27682388912789074,-1.198748936882309,-0.11591913490032789
14577,7.0,299.85952000000003,4731.3532,0.0,0.0,0.0,0.0,-0.14528618330335613,0.0,-0.43588182279568655,-0.3806767352123686,-0.6216546627700383,-0.24512320464427678,-1.1778492350196688,-0.12070084450724589
14578,7.0,299.72058,4932.7390000000005,0.0,0.0,0.0,0.0,-0.14529615011293995,0.0,-0.46160220386409057,-0.4128025085104356,-0.6250247731326424,-0.24723502050269675,-1.169712127441599,-0.12688843862791388
14579,7.0,300.23187,4797.7373,0.0,0.0,0.0,0.0,-0.14530611692252376,0.0,-0.4792535677611445,-0.38822972437279063,-0.5909090576981835,-0.25810093219007874,-1.215406464551279,-0.14659031675233786
14580,7.0,300.4658,4723.6168,0.0,0.0,0.0,0.0,-0.14531608373210758,0.0,-0.45437880469619657,-0.36879359135209366,-0.6126891523077115,-0.2581288168328308,-1.2057958886777886,-0.13998634776807686
14581,7.0,300.58429,4538.2308,0.0,0.0,0.0,0.0,-0.14532605054169143,0.0,-0.4216463479007546,-0.3521107729606277,-0.6057517125830394,-0.24265236387792374,-1.2012874323578389,-0.12232514521255189
14582,7.0,301.17746,4398.3874,0.0,0.0,0.0,0.0,-0.14533601735127524,0.0,-0.3472038256413497,-0.36049741364082466,-0.6292987025844464,-0.22282348498596577,-1.1874910189962389,-0.1314621077242999
14583,7.0,300.09816,4531.1736,0.0,0.0,0.0,0.0,-0.14534598416085903,0.0,-0.42073202140801763,-0.3352716911387397,-0.6213599285809503,-0.2555333057741737,-1.2240258791769487,-0.08190184556733283
14584,7.0,300.9545,4895.1384,0.0,0.0,0.0,0.0,-0.14535595097044288,0.0,-0.4562106696844876,-0.3829371138004506,-0.6488520483767114,-0.25077205368677474,-1.2181505484720987,-0.1100312196292359
14585,7.0,300.93778,4683.3925,0.0,0.0,0.0,0.0,-0.1453659177800267,0.0,-0.4387683798130676,-0.38365665309396363,-0.6012093427822424,-0.25737881924131173,-1.216684274252389,-0.13535810502130488
14586,7.0,301.02267,4484.8815,0.0,0.0,0.0,0.0,-0.1453758845896105,0.0,-0.4050919082969586,-0.38451443009861963,-0.5736856501133654,-0.2262612703227488,-1.225664101938629,-0.15804563602288985
14587,7.0,301.30735,4856.7453,0.0,0.0,0.0,0.0,-0.14538585139919433,0.0,-0.41955030834639157,-0.39707662377841163,-0.6597023661450544,-0.24642682182543377,-1.2307414981897289,-0.1385948818032499
14588,7.0,300.38315,4837.3329,0.0,0.0,0.0,0.0,-0.14539581820877814,0.0,-0.4198687931178236,-0.3919292727404077,-0.6586303678042563,-0.25934138336000173,-1.202817845308879,-0.12810918208339186
14589,7.0,299.68672000000004,4422.7684,0.0,0.0,0.0,0.0,-0.14540578501836196,0.0,-0.39560453350312763,-0.36600607953198766,-0.5828005541704364,-0.26382723407022074,-1.195493566961029,-0.13859562147582288
14590,7.0,300.01542,4354.8022,0.0,0.0,0.0,0.0,-0.1454157518279458,0.0,-0.4013369959438776,-0.3440697012270357,-0.5783444220856504,-0.2616176193121487,-1.1701404282588688,-0.14566092323061386
14591,7.0,299.37449,4383.1629,0.0,0.0,0.0,0.0,-0.14542571863752962,0.0,-0.4032119544589216,-0.38223543810620064,-0.5469246915897644,-0.25298496150767175,-1.2177878049362987,-0.16103199817512084
14592,7.0,299.41687,4398.2422,0.0,0.0,0.0,0.0,-0.14543568544711344,0.0,-0.4130324352231276,-0.33807168620007766,-0.5858516934015604,-0.22207117718421876,-1.228652987083609,-0.15043498279927686
14593,7.0,299.45535,4681.4659,0.0,0.0,0.0,0.0,-0.14544565225669726,0.0,-0.3957579395682676,-0.3922817621851956,-0.6350090457755134,-0.2192764611559018,-1.2123252723221887,-0.17686866154057784
14594,7.0,300.35935,4431.9103,0.0,0.0,0.0,0.0,-0.14545561906628107,0.0,-0.37821911735982067,-0.3683062484514966,-0.6006646904559895,-0.2084806258454358,-1.2051702067410388,-0.16511059327264685
14595,7.0,300.88048,4249.6665,0.0,0.0,0.0,0.0,-0.14546558587586492,0.0,-0.3718470711909487,-0.35315175571586466,-0.5667936749206806,-0.21447310852684778,-1.215404438051079,-0.14899919727507585
14596,7.0,301.08948,4769.8564,0.0,0.0,0.0,0.0,-0.1454755526854487,0.0,-0.44712205946751155,-0.3904955441139096,-0.6122996387042694,-0.2355340894079048,-1.1958978537509288,-0.14388241599258886
14597,7.0,300.31716,5040.4857,0.0,0.0,0.0,0.0,-0.14548551949503255,0.0,-0.48720746958863353,-0.4156935339607576,-0.6292808085876804,-0.25375030983820573,-1.193105741775369,-0.12104521781873288
14598,7.0,299.86769,4661.8319,0.0,0.0,0.0,0.0,-0.14549548630461637,0.0,-0.40815184253895065,-0.3881791327952976,-0.6207495163232074,-0.2564825184678538,-1.2052419448481189,-0.15512598625724286
14599,7.0,299.36724,4303.4227,0.0,0.0,0.0,0.0,-0.14550545311420018,0.0,-0.35741098290871764,-0.34046464856374464,-0.6102574128627175,-0.26389098776651276,-1.221235185751529,-0.10741802735633389
14600,7.0,300.0206,4640.6384,0.0,0.0,0.0,0.0,-0.145515419923784,0.0,-0.4162725253328996,-0.35603323635024464,-0.6383324351760064,-0.25587612881300775,-1.2334297520300388,-0.11767129763575289
14601,7.0,298.89549,4741.986,0.0,0.0,0.0,0.0,-0.14552538673336782,0.0,-0.45444499019272855,-0.3494989891053647,-0.6375013471789844,-0.26248131369738875,-1.189496443594159,-0.1126167400419069
14602,7.0,299.76886,4650.8667,0.0,0.0,0.0,0.0,-0.14553535354295166,0.0,-0.4247059781677166,-0.39205578714789363,-0.5969855793428895,-0.25506475866293177,-1.1788160782650887,-0.14817088558332786
14603,7.0,299.71864,4453.0754,0.0,0.0,0.0,0.0,-0.14554532035253545,0.0,-0.42208848971439056,-0.36055877606688064,-0.5709764523934885,-0.25098549482033977,-1.1754015267530988,-0.12834689055685186
14604,7.0,299.5454,4481.7391,0.0,0.0,0.0,0.0,-0.1455552871621193,0.0,-0.3682706631079846,-0.3805780446526287,-0.6134880898790604,-0.2341267255490088,-1.1991463335715289,-0.14553727632091087
14605,7.0,299.65365,4777.4475,0.0,0.0,0.0,0.0,-0.14556525397170308,0.0,-0.42669600136411656,-0.3953490728879156,-0.6301796627513905,-0.2115221999956158,-1.207700494890759,-0.16115810728256683
14606,7.0,300.62145,5055.1621,0.0,0.0,0.0,0.0,-0.14557522078128693,0.0,-0.44734994954750257,-0.4023752733213476,-0.6869178180010104,-0.23697643066025276,-1.2264896981201088,-0.14400567786725388
14607,7.0,300.48849,4566.1007,0.0,0.0,0.0,0.0,-0.14558518759087075,0.0,-0.4165765206279016,-0.37819069569451563,-0.5932133910756034,-0.25054356578922476,-1.2475093687945886,-0.15824937022049684
14608,7.0,301.12199,4042.6599,0.0,0.0,0.0,0.0,-0.14559515440045456,0.0,-0.3515361790939197,-0.31899247052710566,-0.5583390248937714,-0.25004403348992477,-1.2481913874368988,-0.11978192799155589
14609,7.0,300.01184,4326.1029,0.0,0.0,0.0,0.0,-0.14560512121003838,0.0,-0.3879021203504586,-0.35486188883714165,-0.5722632394904844,-0.24425078617567575,-1.1970782901174288,-0.14550051560728286
14610,7.0,300.01698999999996,4660.2646,0.0,0.0,0.0,0.0,-0.1456150880196222,0.0,-0.3766759982525266,-0.3971917188572706,-0.6427363443506384,-0.26001530613401275,-1.177810934165889,-0.15137343477689486
14611,7.0,300.85847,4673.6506,0.0,0.0,0.0,0.0,-0.14562505482920604,0.0,-0.4060606463200656,-0.39431580096593966,-0.6202966340585114,-0.2619182404843177,-1.1886780414883888,-0.15626486923714183
14612,7.0,299.7046,4677.975,0.0,0.0,0.0,0.0,-0.14563502163878986,0.0,-0.4128306768632156,-0.38514161164551763,-0.6240153024555154,-0.2448224416170938,-1.2013703162160188,-0.15869285965676586
14613,7.0,298.89894,4755.2895,0.0,0.0,0.0,0.0,-0.14564498844837367,0.0,-0.47484136006819355,-0.38234311619432765,-0.5883047820261614,-0.2273952187746608,-1.1921006990011789,-0.15985733733419086
14614,7.0,299.62066,4702.359,0.0,0.0,0.0,0.0,-0.1456549552579575,0.0,-0.46681478794353254,-0.3676433802360767,-0.5949415397836584,-0.2206897727928848,-1.1962068950314289,-0.14969442869868985
14615,7.0,299.83599,4806.1067,0.0,0.0,0.0,0.0,-0.1456649220675413,0.0,-0.4637781685863416,-0.39025166494734065,-0.6069065846495164,-0.24438801063671875,-1.2080153116968289,-0.12062345246460789
14616,7.0,300.64055,4702.3777,0.0,0.0,0.0,0.0,-0.14567488887712512,0.0,-0.38219397591210863,-0.3681375220448447,-0.6790739044718764,-0.2529488999366128,-1.224945200992679,-0.11017538485346388
14617,7.0,300.46355,4251.2668,0.0,0.0,0.0,0.0,-0.14568485568670897,0.0,-0.3702972848979966,-0.3245541699285027,-0.5974275083740044,-0.24871680758143774,-1.2217072589731188,-0.1062580687743549
14618,7.0,299.81613,4489.738,0.0,0.0,0.0,0.0,-0.14569482249629276,0.0,-0.3855116100520336,-0.37194334008294966,-0.6073132931071554,-0.24027167197296778,-1.2199715615518187,-0.13844691689114688
14619,7.0,299.00225,4939.3338,0.0,0.0,0.0,0.0,-0.14570478930587658,0.0,-0.4955169512737156,-0.4038098733429316,-0.6021072951533635,-0.2714193752145067,-1.2027080089980386,-0.13018064019032888
14620,7.0,299.89541,4817.6033,0.0,0.0,0.0,0.0,-0.14571475611546042,0.0,-0.45148852905094855,-0.3897963002198996,-0.6231462783747495,-0.24752907581421776,-1.2160622400159988,-0.1255534816211639
14621,7.0,300.87555,4450.3646,0.0,0.0,0.0,0.0,-0.14572472292504424,0.0,-0.3947654408303156,-0.36823396318936263,-0.5898003087762584,-0.26908433022655576,-1.191007604793299,-0.16391141177929683
14622,7.0,301.6244,4461.2579,0.0,0.0,0.0,0.0,-0.14573468973462808,0.0,-0.34369523438757865,-0.36687564063530664,-0.6455401188348493,-0.23898990046396676,-1.1798652987436389,-0.13759400348697087
14623,7.0,300.95925,4549.0497,0.0,0.0,0.0,0.0,-0.14574465654421187,0.0,-0.4086910435796656,-0.3693797058724386,-0.6047267797093864,-0.26341458796699574,-1.184764059002109,-0.15000585111692488
14624,7.0,301.20185,4572.6798,0.0,0.0,0.0,0.0,-0.1457546233537957,0.0,-0.39828647479531465,-0.3801770002630486,-0.6115170043270295,-0.2378981437462188,-1.2216974304471488,-0.14383697172560386
14625,7.0,300.17208999999997,4559.9742,0.0,0.0,0.0,0.0,-0.1457645901633795,0.0,-0.4559578232545336,-0.36840848538658666,-0.5617519754706035,-0.24220986742675277,-1.210578125174759,-0.17110322794157384
14626,7.0,299.41097,4536.477,0.0,0.0,0.0,0.0,-0.14577455697296335,0.0,-0.4421118619630436,-0.34818600949328365,-0.5886778607129814,-0.1965840462888348,-1.211028312194189,-0.13305444038895087
14627,7.0,299.50772,4457.5326,0.0,0.0,0.0,0.0,-0.14578452378254717,0.0,-0.39981607714627465,-0.3629681429496667,-0.5921943755825344,-0.2118623581866868,-1.2247922002275788,-0.15010406544911786
14628,7.0,298.59933,4679.0113,0.0,0.0,0.0,0.0,-0.14579449059213095,0.0,-0.3697800612519506,-0.37567619398135366,-0.6768463247895313,-0.21241710248393578,-1.206549949402209,-0.12271723247124788
14629,7.0,299.80758,4991.5438,0.0,0.0,0.0,0.0,-0.1458044574017148,0.0,-0.4338564169057946,-0.3963740260265706,-0.6870742536839494,-0.24835423629815478,-1.181800606434639,-0.12284180143854188
14630,7.0,300.49863999999997,4717.6182,0.0,0.0,0.0,0.0,-0.14581442421129862,0.0,-0.41814077613228157,-0.3590311495536157,-0.6568662081876474,-0.2420662088275748,-1.190904050633079,-0.1120522178811929
14631,7.0,300.35487,4487.602,0.0,0.0,0.0,0.0,-0.14582439102088246,0.0,-0.4560635660349696,-0.3488099081098577,-0.5592454986982335,-0.2683041884445618,-1.200639053618849,-0.12367495646576789
14632,7.0,300.08094,4810.7201,0.0,0.0,0.0,0.0,-0.14583435783046628,0.0,-0.46689419635386953,-0.3430785197142137,-0.6523660807835193,-0.24984200155248576,-1.2200229333318886,-0.12135002371381488
14633,7.0,299.96723,4975.0679,0.0,0.0,0.0,0.0,-0.14584432464005007,0.0,-0.46885845260022657,-0.37481767730412463,-0.6686202842501844,-0.23469710429530077,-1.2015413528328989,-0.15328556943810784
14634,7.0,299.5952,4841.7336,0.0,0.0,0.0,0.0,-0.1458542914496339,0.0,-0.40108910430691264,-0.38704660289352566,-0.6836304091115684,-0.2378116020551778,-1.2025052576530288,-0.16362894804891984
14635,7.0,301.07487000000003,4523.2379,0.0,0.0,0.0,0.0,-0.14586425825921773,0.0,-0.3968842075844216,-0.36094265599976666,-0.6171245228979484,-0.23178146700004978,-1.1917949001209989,-0.14072723624119687
14636,7.0,300.9834,4302.119000000001,0.0,0.0,0.0,0.0,-0.14587422506880154,0.0,-0.36921652194383364,-0.3440014487002997,-0.5945187611794335,-0.23117708358040176,-1.1900405588978589,-0.14010782632256585
14637,7.0,300.92312000000004,4486.2497,0.0,0.0,0.0,0.0,-0.1458841918783854,0.0,-0.4406406937453506,-0.36626213796475865,-0.5568050655673814,-0.2162041855276918,-1.2102542904427989,-0.15983674809215884
14638,7.0,301.08919,4742.4359,0.0,0.0,0.0,0.0,-0.14589415868796918,0.0,-0.4480932900858646,-0.3583235666112826,-0.6351652281459275,-0.22553560086613078,-1.2434336715923489,-0.13641788356589687
14639,7.0,300.0363,4596.7503,0.0,0.0,0.0,0.0,-0.145904125497553,0.0,-0.3997170218164986,-0.36578634611530164,-0.6317939424132074,-0.24022607571846774,-1.2334753482845389,-0.14414454379345887
14640,7.0,299.27121,4328.9294,0.0,0.0,0.0,0.0,-0.14591409230713684,0.0,-0.3105965991384977,-0.3593135930189907,-0.6459762419428914,-0.2531489256388538,-1.2331334777007987,-0.14698856457164186
14641,7.0,300.07985,4655.4291,0.0,0.0,0.0,0.0,-0.14592405911672066,0.0,-0.38737682110111565,-0.3912883616546546,-0.6364690175796014,-0.24317460311196476,-1.1923303014738387,-0.15767797822410484
14642,7.0,299.38664,5020.4058,0.0,0.0,0.0,0.0,-0.1459340259263045,0.0,-0.4539595724673216,-0.4121939201028726,-0.6599245110969784,-0.28205179354884474,-1.176979258483809,-0.12287972738978488
14643,7.0,299.63911,4795.6308,0.0,0.0,0.0,0.0,-0.1459439927358883,0.0,-0.48497658671096255,-0.37047012510005467,-0.6023052842229034,-0.26140236446090476,-1.1889949861196687,-0.12778856948674988
14644,7.0,300.23266,4346.9894,0.0,0.0,0.0,0.0,-0.1459539595454721,0.0,-0.38321240372011967,-0.3400415457194877,-0.5981222939675744,-0.25524403300312476,-1.183722944524359,-0.14475551333875686
14645,7.0,300.33918,4375.4454,0.0,0.0,0.0,0.0,-0.14596392635505595,0.0,-0.4090158814292246,-0.3141232465090507,-0.6068870187900854,-0.2172970264230468,-1.217286043486779,-0.13581146351354786
14646,7.0,300.34608,4906.1604,0.0,0.0,0.0,0.0,-0.14597389316463977,0.0,-0.4320789026528676,-0.3654080897204706,-0.6938632624014723,-0.2180796000052808,-1.2361479980733088,-0.15517795585487185
14647,7.0,301.63734,4991.1652,0.0,0.0,0.0,0.0,-0.14598385997422358,0.0,-0.47922941187876056,-0.36624091037516365,-0.6717192691510304,-0.24518340183271775,-1.2119578678359288,-0.12458377087796088
14648,7.0,301.15455,4530.231,0.0,0.0,0.0,0.0,-0.14599382678380737,0.0,-0.41772567796381466,-0.3450090043347377,-0.6143424319658775,-0.23519343472428478,-1.193576497771829,-0.1162237280128889
14649,7.0,299.34076,4358.8294,0.0,0.0,0.0,0.0,-0.14600379359339122,0.0,-0.4285385460084616,-0.3526295874093307,-0.5438071743445895,-0.2280870254129368,-1.180829304888779,-0.12689094135566087
14650,7.0,300.01007000000004,4633.7276,0.0,0.0,0.0,0.0,-0.14601376040297506,0.0,-0.4075563453226796,-0.37250050604793766,-0.6284806247187084,-0.22756826162673877,-1.180137559045509,-0.13357111687994289
14651,7.0,300.19695,5065.037,0.0,0.0,0.0,0.0,-0.14602372721255888,0.0,-0.4672624013077086,-0.4155755511191136,-0.6568068215992864,-0.2461022170233978,-1.2174102679490386,-0.12393403438383689
14652,7.0,298.97976,4817.8548,0.0,0.0,0.0,0.0,-0.1460336940221427,0.0,-0.3732527023921736,-0.43586218600874854,-0.6553926689647204,-0.24973303663673177,-1.2232467911750589,-0.17264016622325784
14653,7.0,299.44291,4166.6488,0.0,0.0,0.0,0.0,-0.14604366083172649,0.0,-0.34975736788086464,-0.35029069207099967,-0.5665091340275985,-0.26226876422391177,-1.232419136380299,-0.17645830538257884
14654,7.0,299.83856000000003,4255.0572,0.0,0.0,0.0,0.0,-0.14605362764131033,0.0,-0.3729507133323697,-0.35741190496630865,-0.5630685217230365,-0.24041848177995676,-1.221922169319329,-0.16432080534970084
14655,7.0,299.43467999999996,4653.0074,0.0,0.0,0.0,0.0,-0.14606359445089415,0.0,-0.4642689869347815,-0.3373512248489737,-0.6127778319564634,-0.25939889543567773,-1.2083786631826887,-0.13397048940685788
14656,7.0,301.24636,4671.1757,0.0,0.0,0.0,0.0,-0.14607356126047796,0.0,-0.4044775240988236,-0.38013712887161366,-0.6353061104398313,-0.22506743878992677,-1.215594422444829,-0.15705159714478584
14657,7.0,299.9475,4373.5299,0.0,0.0,0.0,0.0,-0.1460835280700618,0.0,-0.38061812882658463,-0.36482929086584764,-0.5839964729984644,-0.24597600659094176,-1.2370876862160487,-0.15097382920245686
14658,7.0,299.71893,4417.6484,0.0,0.0,0.0,0.0,-0.1460934948796456,0.0,-0.3814769900088476,-0.35368544467603563,-0.6076923904995694,-0.2116374977244948,-1.2186280932442288,-0.16486903444880682
14659,7.0,300.82437999999996,4844.9517,0.0,0.0,0.0,0.0,-0.1461034616892294,0.0,-0.46339429878595656,-0.40793657755520557,-0.6014134518823864,-0.24232151745527178,-1.2363199466152788,-0.15405804091684486
14660,7.0,299.80146,5088.3779,0.0,0.0,0.0,0.0,-0.14611342849881326,0.0,-0.47325275616391055,-0.43256379348822255,-0.6409232650192014,-0.24551253586270078,-1.1891376517337489,-0.1356840574459739
14661,7.0,299.45774,4939.8917,0.0,0.0,0.0,0.0,-0.14612339530839707,0.0,-0.47160345857863756,-0.3958628717486236,-0.6341373973769884,-0.28829970644796576,-1.2063329112307888,-0.0959329813543481
14662,7.0,299.88723999999996,4511.0704,0.0,0.0,0.0,0.0,-0.14613336211798092,0.0,-0.36753638102551667,-0.39615697772264963,-0.6075594014239445,-0.25776249652417776,-1.1974436681034888,-0.12943929575466387
14663,7.0,299.8428,4402.0121,0.0,0.0,0.0,0.0,-0.1461433289275647,0.0,-0.3919772602651436,-0.3379848405340067,-0.6081396593587114,-0.2633474500153698,-1.2045500976798387,-0.09205848218471482
14664,7.0,299.9017,4894.2649,0.0,0.0,0.0,0.0,-0.14615329573714853,0.0,-0.4092029375301856,-0.4132391990385336,-0.6652921933692274,-0.24239651822767377,-1.205773799825609,-0.14543115863793785
14665,7.0,299.95097999999996,4899.901,0.0,0.0,0.0,0.0,-0.14616326254673237,0.0,-0.4829589524493375,-0.3805990391947006,-0.6258895719604914,-0.2663322517624468,-1.220810735284639,-0.14133476073615486
14666,7.0,299.00442000000004,4400.3726,0.0,0.0,0.0,0.0,-0.1461732293563162,0.0,-0.4076588457027956,-0.3411967014959927,-0.5887478560298894,-0.24700347258984476,-1.2072134255676887,-0.16510250753684885
14667,7.0,299.66393,4490.9958,0.0,0.0,0.0,0.0,-0.1461831961659,0.0,-0.4403570445123566,-0.35618730102794965,-0.5686062273620655,-0.2172180233127498,-1.2001992017504388,-0.1269341564724259
14668,7.0,300.38714,4789.7136,0.0,0.0,0.0,0.0,-0.1461931629754838,0.0,-0.40880538885345064,-0.3947105429398976,-0.6524374237230604,-0.21968604724382482,-1.1835543397077188,-0.16702072169866183
14669,7.0,300.42761,4795.598,0.0,0.0,0.0,0.0,-0.14620312978506764,0.0,-0.4314138863472356,-0.4033266543702416,-0.6230014950679603,-0.21869671997868578,-1.1989310179252788,-0.14990097973157487
14670,7.0,300.3661,4631.5629,0.0,0.0,0.0,0.0,-0.14621309659465145,0.0,-0.37991216708441167,-0.4242777178804506,-0.6036895763770224,-0.25562497451072075,-1.1983115168141387,-0.1881940517508068
14671,7.0,300.72549,4376.6895,0.0,0.0,0.0,0.0,-0.1462230634042353,0.0,-0.4204207104472936,-0.3555794522929596,-0.5544041593229304,-0.24013857143983178,-1.2178158719640688,-0.12990930194604988
14672,7.0,300.72174,4154.1962,0.0,0.0,0.0,0.0,-0.14623303021381912,0.0,-0.3546462894808637,-0.3740312635040116,-0.5340943716685105,-0.25519640011592376,-1.2098887098067188,-0.15788357680189585
14673,7.0,300.16463999999996,4620.9644,0.0,0.0,0.0,0.0,-0.1462429970234029,0.0,-0.4032646637291236,-0.38192194865776163,-0.6194711695995444,-0.23560734739013478,-1.1974991942089688,-0.12909977591115587
14674,7.0,300.14836,4992.1967,0.0,0.0,0.0,0.0,-0.14625296383298675,0.0,-0.4079995713139226,-0.4034107845260446,-0.7060927959409333,-0.26839815725883576,-1.1767908952902189,-0.13424212149366588
14675,7.0,299.56007999999997,4539.4221,0.0,0.0,0.0,0.0,-0.14626293064257057,0.0,-0.3728575247206727,-0.38354613790555664,-0.6234673165364334,-0.25721935394057377,-1.1990084302329187,-0.14283182762640387
14676,7.0,299.24064,4195.6504,0.0,0.0,0.0,0.0,-0.14627289745215438,0.0,-0.35556071729861066,-0.3214574243103777,-0.5983548348655244,-0.25455859970797773,-1.203590144535099,-0.15254048610957385
14677,7.0,300.1332,4869.1491,0.0,0.0,0.0,0.0,-0.14628286426173823,0.0,-0.5052432909711305,-0.37267070166723465,-0.6021857511086064,-0.22405938666293979,-1.2258804308349789,-0.15595362920392483
14678,7.0,301.20305,5067.840999999999,0.0,0.0,0.0,0.0,-0.14629283107132202,0.0,-0.5103720488697995,-0.38798298784093965,-0.6421420832994894,-0.22976422790596376,-1.2189901275049588,-0.13753711962635687
14679,7.0,301.62597999999997,4713.9525,0.0,0.0,0.0,0.0,-0.14630279788090583,0.0,-0.4754491277431756,-0.3190533364606127,-0.6384213884022855,-0.21780217212790082,-1.2439873114469886,-0.11684661337936289
14680,7.0,300.13192000000004,4485.8345,0.0,0.0,0.0,0.0,-0.14631276469048968,0.0,-0.3777322304217686,-0.35511835256995267,-0.6307310937208124,-0.2273595017086358,-1.2057691388751488,-0.10971382916791188
14681,7.0,300.57847000000004,4372.3611,0.0,0.0,0.0,0.0,-0.1463227315000735,0.0,-0.36469681854777364,-0.33935699395192764,-0.6250347941761314,-0.22299531193792377,-1.1968560843704987,-0.11806616119972288
14682,7.0,300.18207,4625.7391,0.0,0.0,0.0,0.0,-0.14633269830965734,0.0,-0.3852684097630316,-0.39719946008803464,-0.6236413219761064,-0.24340125702683377,-1.1835578860830687,-0.13734408534980588
14683,7.0,299.9576,4976.7366,0.0,0.0,0.0,0.0,-0.14634266511924113,0.0,-0.5017892125727396,-0.3855339522167386,-0.6254804823651174,-0.2801822559218357,-1.2164195120012589,-0.1190665024934489
14684,7.0,300.03247000000005,4766.5536,0.0,0.0,0.0,0.0,-0.14635263192882494,0.0,-0.4256379048146906,-0.37789666064799665,-0.6453787283589214,-0.2725076564844118,-1.2182824736351188,-0.13208551998082588
14685,7.0,299.04242,4227.8396,0.0,0.0,0.0,0.0,-0.1463625987384088,0.0,-0.35539596283235064,-0.3373834056721497,-0.5923782906081854,-0.24326817675869974,-1.2199093479956788,-0.14849755741556786
14686,7.0,299.89221000000003,4534.5548,0.0,0.0,0.0,0.0,-0.1463725655479926,0.0,-0.3565164553229347,-0.35245947285004164,-0.6694155031936663,-0.2416050077795578,-1.2004401526242188,-0.16352846403650284
14687,7.0,300.06068999999997,5023.9539,0.0,0.0,0.0,0.0,-0.14638253235757642,0.0,-0.45532683188725953,-0.38989734151987165,-0.6819323843289863,-0.2532061033419968,-1.2164844613326689,-0.14761771182373384
14688,7.0,300.29506000000003,4603.5436,0.0,0.0,0.0,0.0,-0.1463924991671602,0.0,-0.42222152945252056,-0.36824436926788967,-0.6088963950633954,-0.25274163962865775,-1.2000624129869388,-0.17933675639915986
14689,7.0,299.84708,4263.8046,0.0,0.0,0.0,0.0,-0.14640246597674406,0.0,-0.4063669518252956,-0.3612426185593707,-0.5284805608144705,-0.22528594617399178,-1.221021086005399,-0.17633012924492883
14690,7.0,300.89959,4458.6257,0.0,0.0,0.0,0.0,-0.14641243278632787,0.0,-0.4101189054880846,-0.3667518721355917,-0.5784400931600924,-0.1977046806344328,-1.2276374065083788,-0.16435614751318883
14691,7.0,300.14069,4787.0455,0.0,0.0,0.0,0.0,-0.14642239959591172,0.0,-0.4383052637223616,-0.38400343794068864,-0.6328335978108134,-0.2234884911590968,-1.2711448459272288,-0.14451366067238788
14692,7.0,301.04226,4864.536,0.0,0.0,0.0,0.0,-0.14643236640549553,0.0,-0.4064904264824816,-0.38374528208021064,-0.6884617781058874,-0.2219929137464948,-1.2257617792482687,-0.12787797867557388
14693,7.0,299.57166,4647.9267,0.0,0.0,0.0,0.0,-0.14644233321507932,0.0,-0.3911677950252556,-0.3760796600386726,-0.6456062131388725,-0.24926408422544977,-1.2265599163520389,-0.13655510802693988
14694,7.0,299.04298,4453.9761,0.0,0.0,0.0,0.0,-0.14645230002466317,0.0,-0.3860411345542936,-0.35182109488953867,-0.6160352993054504,-0.2555375715570947,-1.1920002859162688,-0.11620658382119689
14695,7.0,299.04752,4721.4358,0.0,0.0,0.0,0.0,-0.14646226683424698,0.0,-0.4568753110875826,-0.36677703113557464,-0.6115462264599134,-0.27582860395216374,-1.2144221934041388,-0.14583738073552885
14696,7.0,299.73937,5188.1884,0.0,0.0,0.0,0.0,-0.1464722336438308,0.0,-0.49361927569142955,-0.4216286261565056,-0.6618318328202164,-0.27099832926795275,-1.1903917513825188,-0.1200354127690729
14697,7.0,299.5903,4871.008,0.0,0.0,0.0,0.0,-0.14648220045341462,0.0,-0.46655513247290653,-0.3605980192432537,-0.6535116309490764,-0.25811474278894175,-1.2138437289220487,-0.12433339677825088
14698,7.0,299.611,4338.9489,0.0,0.0,0.0,0.0,-0.14649216726299844,0.0,-0.35132187669776965,-0.3697579116047647,-0.5978523337434315,-0.22815095136174576,-1.2161028713450088,-0.16317939937705286
14699,7.0,298.92823,4498.02,0.0,0.0,0.0,0.0,-0.14650213407258225,0.0,-0.41127526703220857,-0.3538819746654317,-0.6021285328754593,-0.24704191529863875,-1.249921613307659,-0.14613744462014286
14700,7.0,299.49258,5029.9416,0.0,0.0,0.0,0.0,-0.1465121008821661,0.0,-0.49189027585329054,-0.39678878982250465,-0.6402975729499504,-0.2342128822050118,-1.2175359109614388,-0.15544333618856285
14701,7.0,300.87642,4811.1348,0.0,0.0,0.0,0.0,-0.1465220676917499,0.0,-0.4553742114619355,-0.4052896643189756,-0.6018009491181294,-0.23738924901599476,-1.2037981647806288,-0.15430378446359785
14702,7.0,301.94187999999997,4281.7453,0.0,0.0,0.0,0.0,-0.14653203450133373,0.0,-0.36644235462754465,-0.3381162590719767,-0.5969850321878354,-0.23974121528061576,-1.2252885914515688,-0.14903755892386186
14703,7.0,299.84474,4176.5056,0.0,0.0,0.0,0.0,-0.14654200131091755,0.0,-0.3412255081963357,-0.3352933037633727,-0.5930346030954584,-0.2254409937042938,-1.2470572565999687,-0.13427346131925888
14704,7.0,300.67964,4535.7819,0.0,0.0,0.0,0.0,-0.14655196812050136,0.0,-0.36398773599529266,-0.3685043692435496,-0.6462723136221113,-0.24705166276460075,-1.2421445134901188,-0.14709412496705987
14705,7.0,299.88262000000003,5087.555,0.0,0.0,0.0,0.0,-0.1465619349300852,0.0,-0.4502856593272346,-0.42627743788030764,-0.6699265865441064,-0.22542701085291378,-1.2238696360115289,-0.14884176860703885
14706,7.0,299.56557999999995,4987.6988,0.0,0.0,0.0,0.0,-0.146571901739669,0.0,-0.4476034241925186,-0.4126701881798766,-0.6558622799885673,-0.27028721008277073,-1.2003229195876488,-0.13433714408804387
14707,7.0,299.41613,4706.5809,0.0,0.0,0.0,0.0,-0.14658186854925284,0.0,-0.42017917188845555,-0.3964705482310966,-0.6140333501553734,-0.26070788284236474,-1.176877426848759,-0.13523859217200987
14708,7.0,300.26116,4657.0559,0.0,0.0,0.0,0.0,-0.14659183535883666,0.0,-0.4189050605502106,-0.38391391729435365,-0.6128097290696114,-0.26532930641596375,-1.1843092110322189,-0.11811636774217787
14709,7.0,298.83339,4870.6417,0.0,0.0,0.0,0.0,-0.14660180216842048,0.0,-0.47719705509318255,-0.36285538847853865,-0.6405010133050284,-0.22326429944197076,-1.167224598446099,-0.14800310149926885
14710,7.0,300.39382,4921.1953,0.0,0.0,0.0,0.0,-0.1466117689780043,0.0,-0.45538826524082254,-0.37462339672995065,-0.6659088067175825,-0.24140853858516775,-1.2163282181672488,-0.11612630401577388
14711,7.0,299.56795,4379.9125,0.0,0.0,0.0,0.0,-0.1466217357875881,0.0,-0.43277240141881057,-0.3340575540739137,-0.5645540882246505,-0.24050030172553175,-1.258811869685059,-0.17069095674088583
14712,7.0,300.1845,4523.1686,0.0,0.0,0.0,0.0,-0.14663170259717193,0.0,-0.4283071602156256,-0.34629976337212565,-0.6003234075573075,-0.2407135604740788,-1.230747982990369,-0.13014487246179887
14713,7.0,299.48102,4903.708,0.0,0.0,0.0,0.0,-0.14664166940675574,0.0,-0.4712174508205415,-0.37752633800144864,-0.6418609874567474,-0.2131503713163038,-1.210619871078879,-0.13618939566834687
14714,7.0,299.92456,4977.0418,0.0,0.0,0.0,0.0,-0.1466516362163396,0.0,-0.4312957920480806,-0.41376207662013764,-0.6678385516655333,-0.2244187763409088,-1.2003278845131387,-0.1105080753912979
14715,7.0,300.19771000000003,4845.5926,0.0,0.0,0.0,0.0,-0.14666160302592338,0.0,-0.4135154211482946,-0.40329391625951067,-0.6561298185449713,-0.26395301893763473,-1.207515576747509,-0.1281500363274239
14716,7.0,300.28123999999997,4654.0145,0.0,0.0,0.0,0.0,-0.14667156983550722,0.0,-0.36982685314156866,-0.4093777637024396,-0.6354995804139254,-0.25380579541368176,-1.205863675109479,-0.13301370773493087
14717,7.0,300.52689,4550.7392,0.0,0.0,0.0,0.0,-0.14668153664509104,0.0,-0.4263911752040326,-0.3843308393130006,-0.5725890703251414,-0.2559840906111628,-1.191848399726279,-0.14377149550414187
14718,7.0,300.77172,4820.8681,0.0,0.0,0.0,0.0,-0.14669150345467485,0.0,-0.4310964958859116,-0.4015428579666946,-0.6327841714709355,-0.2512726397661788,-1.2100276263954288,-0.13964406175179586
14719,7.0,299.93579,4811.0546,0.0,0.0,0.0,0.0,-0.14670147026425867,0.0,-0.4508673358121416,-0.4099352032449546,-0.6016379374420414,-0.2671516569858157,-1.210717447063509,-0.14424299117317488
14720,7.0,300.76828,4465.6671,0.0,0.0,0.0,0.0,-0.1467114370738425,0.0,-0.4054914530763906,-0.35042141146640066,-0.6015384160172194,-0.23761808141857876,-1.2063805339854887,-0.15090417839058284
14721,7.0,299.37934,4211.0359,0.0,0.0,0.0,0.0,-0.14672140388342633,0.0,-0.35933960314905766,-0.37022103782797167,-0.5504891331890475,-0.2166312400473388,-1.192907752705829,-0.17171366046431885
14722,7.0,299.12271,4618.3248,0.0,0.0,0.0,0.0,-0.14673137069301015,0.0,-0.4128890502014766,-0.37217453335826667,-0.6187918259374984,-0.22347917939067777,-1.219097025390509,-0.13334003506213687
14723,7.0,299.86236,5236.6059,0.0,0.0,0.0,0.0,-0.14674133750259397,0.0,-0.5153188777130135,-0.4283748453223056,-0.6481037125153564,-0.24671516240639074,-1.2329135011040888,-0.15320833951548588
14724,7.0,300.3432,4801.3831,0.0,0.0,0.0,0.0,-0.14675130431217778,0.0,-0.45126217911110955,-0.4011216499001246,-0.6071167631177594,-0.25257396700210977,-1.2453520580066788,-0.15060243251080285
14725,7.0,299.74575,4267.1618,0.0,0.0,0.0,0.0,-0.1467612711217616,0.0,-0.38540300990631565,-0.3320628597945527,-0.5796447664689844,-0.2461265451582988,-1.208278756722829,-0.13028051625268589
14726,7.0,300.9991,4374.2448,0.0,0.0,0.0,0.0,-0.14677123793134542,0.0,-0.3703771594033796,-0.34897872570901867,-0.6103053193274455,-0.24241218307421977,-1.2076260210084089,-0.10044478849237881
14727,7.0,299.10927000000004,4780.9488,0.0,0.0,0.0,0.0,-0.14678120474092926,0.0,-0.4050156612269336,-0.3925406678507476,-0.6557327460957834,-0.2661458441415498,-1.2241643904656188,-0.12700153760407587
14728,7.0,299.99849,5176.414000000001,0.0,0.0,0.0,0.0,-0.14679117155051305,0.0,-0.4829222423982145,-0.4172289118372876,-0.6733494568394173,-0.24793352472413374,-1.2003467309649989,-0.12200378281083588
14729,7.0,299.60826000000003,4693.8686,0.0,0.0,0.0,0.0,-0.14680113836009687,0.0,-0.45096514484429456,-0.3874387408147266,-0.5884149729745365,-0.25985058206525574,-1.2175712733899289,-0.15041732185003387
14730,7.0,299.89488,4274.0982,0.0,0.0,0.0,0.0,-0.1468111051696807,0.0,-0.39632872361459964,-0.36154801213951065,-0.5413424130788366,-0.2253857310438398,-1.2388422300892088,-0.15951605443550884
14731,7.0,300.6858,4709.3527,0.0,0.0,0.0,0.0,-0.14682107197926453,0.0,-0.4718936736722796,-0.36786195854764864,-0.5917699859106504,-0.2542043776055187,-1.2316674061311088,-0.13801875792889087
14732,7.0,300.8831,5035.4545,0.0,0.0,0.0,0.0,-0.14683103878884834,0.0,-0.46066034736613654,-0.4018539966749016,-0.6681380886600954,-0.2128670767208448,-1.2092588735445589,-0.15436764961740085
14733,7.0,300.74956000000003,4552.939,0.0,0.0,0.0,0.0,-0.14684100559843216,0.0,-0.35828645126011965,-0.38628996851385167,-0.6394033594716984,-0.24012295725579078,-1.1946242997002388,-0.14865639450124385
14734,7.0,300.69516,4145.1647,0.0,0.0,0.0,0.0,-0.14685097240801598,0.0,-0.3273907534509517,-0.34794407576690667,-0.5846917449520824,-0.2297348537855648,-1.2348317861934088,-0.17603112927291983
14735,7.0,299.61386,4659.2926,0.0,0.0,0.0,0.0,-0.1468609392175998,0.0,-0.43445173173704765,-0.4012055267434026,-0.5806513595158275,-0.2639769721699987,-1.2222447881511689,-0.15798731334713387
14736,7.0,299.2031,5049.255999999999,0.0,0.0,0.0,0.0,-0.14687090602718364,0.0,-0.5072778465094255,-0.4008171986425776,-0.6267527090581764,-0.24162077395111375,-1.2212521070281988,-0.16262417885225683
14737,7.0,298.9866,4761.6378,0.0,0.0,0.0,0.0,-0.14688087283676746,0.0,-0.46261431912397855,-0.39134516445526063,-0.5934595297898955,-0.24630231365314578,-1.2263267675040288,-0.1267594721551859
14738,7.0,299.31367,4497.4039,0.0,0.0,0.0,0.0,-0.14689083964635125,0.0,-0.37029878450814463,-0.34557415471051367,-0.6512255360734563,-0.26525756830888375,-1.2443833909110789,-0.1116893426228799
14739,7.0,299.9118,4549.4878,0.0,0.0,0.0,0.0,-0.1469008064559351,0.0,-0.3761352469391586,-0.36939665754661166,-0.6373987758713614,-0.25073100692522376,-1.2225163391779688,-0.12174983193827288
14740,7.0,301.28722,4832.5136,0.0,0.0,0.0,0.0,-0.1469107732655189,0.0,-0.43411337713115455,-0.40368066369017963,-0.6311694358465734,-0.24620669324120875,-1.219226822728319,-0.15961560625783386
14741,7.0,299.51687000000004,5040.2346,0.0,0.0,0.0,0.0,-0.14692074007510275,0.0,-0.49021572807552555,-0.39718650061925564,-0.6447032249147543,-0.23122949900807477,-1.172322867649259,-0.15588951073759685
14742,7.0,300.26007999999996,4646.5951,0.0,0.0,0.0,0.0,-0.14693070688468657,0.0,-0.45790549259675356,-0.3852629888749966,-0.5692804135811025,-0.2419909243451448,-1.2340564472168887,-0.15391184919241685
14743,7.0,300.20772999999997,4126.5045,0.0,0.0,0.0,0.0,-0.14694067369427036,0.0,-0.38027300571002365,-0.3233427585064457,-0.5507385548336635,-0.20986831238738982,-1.241937202519659,-0.15065937716642286
14744,7.0,300.83076,4495.9733,0.0,0.0,0.0,0.0,-0.1469506405038542,0.0,-0.36574776155149363,-0.35354995287266366,-0.6473659043225404,-0.2151542456415708,-1.2437482857483988,-0.14995087216649886
14745,7.0,300.01558,5027.8035,0.0,0.0,0.0,0.0,-0.14696060731343802,0.0,-0.44218396484015954,-0.3858671291146207,-0.7002756257918233,-0.1955251391393288,-1.2178810239454987,-0.13274872256877887
14746,7.0,299.9457,4874.3938,0.0,0.0,0.0,0.0,-0.14697057412302184,0.0,-0.4197932350578666,-0.38085114595208164,-0.6810496104443633,-0.25661838517376273,-1.2195328242585188,-0.13235785121020285
14747,7.0,299.11232,4589.3796,0.0,0.0,0.0,0.0,-0.14698054093260568,0.0,-0.42064209546164266,-0.36069543310786767,-0.6137192831543774,-0.27332748727282274,-1.2069965900462887,-0.13196021134095887
14748,7.0,299.95435,4781.3538,0.0,0.0,0.0,0.0,-0.14699050774218947,0.0,-0.4630094765304776,-0.38118879128290467,-0.6092138969822304,-0.2824113656118317,-1.188049218476329,-0.13962202356212086
14749,7.0,299.52472,4755.0793,0.0,0.0,0.0,0.0,-0.14700047455177329,0.0,-0.45068024931367756,-0.34555418355104267,-0.6491909400051574,-0.23955302433954276,-1.179252181108129,-0.1144667118094849
14750,7.0,299.31306,4797.5041,0.0,0.0,0.0,0.0,-0.14701044136135713,0.0,-0.38992324019242763,-0.3906256251617476,-0.6777725772359454,-0.24457718443038876,-1.2315588870453988,-0.15864182224922885
14751,7.0,299.38819,4907.5533,0.0,0.0,0.0,0.0,-0.14702040817094095,0.0,-0.41991809786768963,-0.39105981296209863,-0.6807957406318084,-0.2503530545054228,-1.2361460728981188,-0.13756891541449487
14752,7.0,300.15327,4475.2555,0.0,0.0,0.0,0.0,-0.1470303749805248,0.0,-0.38908876794007163,-0.3628819356311586,-0.6083952212989334,-0.24422696466582478,-1.2187759264338187,-0.18323029149842182
14753,7.0,300.32606,4359.3083,0.0,0.0,0.0,0.0,-0.14704034179010858,0.0,-0.4109737136699476,-0.3566152877376887,-0.5575318799966125,-0.24038065715372378,-1.191101127777529,-0.16117129979886885
14754,7.0,300.15085,4666.3147,0.0,0.0,0.0,0.0,-0.1470503085996924,0.0,-0.43954252315446957,-0.36066058743692864,-0.6182400301980404,-0.24199102567015476,-1.217267501009949,-0.13627713299450586
14755,7.0,301.07787,4623.5226,0.0,0.0,0.0,0.0,-0.14706027540927621,0.0,-0.4099072578071966,-0.3539028678824937,-0.6416252953509863,-0.25836258376340177,-1.231716244785929,-0.13068350608245788
14756,7.0,300.87581,4382.4133,0.0,0.0,0.0,0.0,-0.14707024221886006,0.0,-0.34112652379406666,-0.35699297671246366,-0.6340247037008664,-0.22532237251508677,-1.244761333198379,-0.14996126811252486
14757,7.0,299.14534,4584.3748,0.0,0.0,0.0,0.0,-0.14708020902844388,0.0,-0.4035697128042296,-0.3515085781611957,-0.6384571865283184,-0.25012713013062576,-1.243512299800109,-0.1166579056807389
14758,7.0,300.1076,5044.6074,0.0,0.0,0.0,0.0,-0.14709017583802766,0.0,-0.46346209535014754,-0.4008584784516516,-0.6691141220839224,-0.23914735952950675,-1.2231662377921089,-0.15409867224585486
14759,7.0,299.90346,4968.6643,0.0,0.0,0.0,0.0,-0.1471001426476115,0.0,-0.49914113409889455,-0.3881178919592536,-0.6230908434617783,-0.28952276011367173,-1.1980926547925388,-0.12041084219612488
14760,7.0,300.23291,4797.7345,0.0,0.0,0.0,0.0,-0.14711010945719533,0.0,-0.4583174902199146,-0.4049095638089626,-0.5951644244081554,-0.24869333057662077,-1.162750896604579,-0.15902746523728886
14761,7.0,300.02147,4740.4769,0.0,0.0,0.0,0.0,-0.14712007626677917,0.0,-0.41972770817389965,-0.38128331738473364,-0.6399755823331723,-0.2736494170945947,-1.174128479327459,-0.13736479618184985
14762,7.0,299.56889,4515.6842,0.0,0.0,0.0,0.0,-0.147130043076363,0.0,-0.3548702076204627,-0.3730415005413296,-0.6447435421362334,-0.23584362718095378,-1.2317609291153389,-0.14701996519224084
14763,7.0,300.39846,4728.9542,0.0,0.0,0.0,0.0,-0.14714000988594678,0.0,-0.4103614066345176,-0.38302387840651364,-0.6440987097725934,-0.25343044704663775,-1.268121611603859,-0.14546713914898884
14764,7.0,301.09137000000004,4863.9118,0.0,0.0,0.0,0.0,-0.14714997669553062,0.0,-0.44340056410272854,-0.3900406454815146,-0.6450665358706104,-0.21111787267571178,-1.218445404251199,-0.15865886511591085
14765,7.0,300.31658,4373.2602,0.0,0.0,0.0,0.0,-0.14715994350511444,0.0,-0.41809290006505656,-0.36451859798768466,-0.5467504227050655,-0.24909743498150275,-1.2120768233976689,-0.1296382575442999
14766,7.0,300.58182999999997,4311.3547,0.0,0.0,0.0,0.0,-0.14716991031469825,0.0,-0.37756755701551664,-0.35011554165871367,-0.5828610857314104,-0.2274742624149618,-1.199706660876829,-0.16033170050100684
14767,7.0,300.3364,4938.258,0.0,0.0,0.0,0.0,-0.1471798771242821,0.0,-0.42021337921183166,-0.39491009241459163,-0.6859836520713153,-0.2521231213701148,-1.2053447897332688,-0.13926040473393186
14768,7.0,299.48937,5082.501,0.0,0.0,0.0,0.0,-0.1471898439338659,0.0,-0.44776066034303663,-0.4189027098099786,-0.6782900237970133,-0.2176679874171578,-1.195439662055709,-0.15053472713912086
14769,7.0,300.21006,4877.5919,0.0,0.0,0.0,0.0,-0.1471998107434497,0.0,-0.4520028041392036,-0.3960917750787146,-0.6345715649123373,-0.26872079635567775,-1.2513699530005988,-0.14787517867414385
14770,7.0,299.28573,4532.0463,0.0,0.0,0.0,0.0,-0.14720977755303355,0.0,-0.4494593842681876,-0.3390913096432067,-0.5890782160924934,-0.27152813748024074,-1.2623401078582688,-0.14682006108001186
14771,7.0,298.74356,4779.9787,0.0,0.0,0.0,0.0,-0.14721974436261737,0.0,-0.45654824408780353,-0.3813544374092526,-0.6150914872348034,-0.2820196836531757,-1.217705326378159,-0.13352950269833586
14772,7.0,299.37106,5020.4056,0.0,0.0,0.0,0.0,-0.1472297111722012,0.0,-0.44047256515625755,-0.4150205737743416,-0.6705848039415674,-0.27053502065972773,-1.1718421818018188,-0.15013195009186986
14773,7.0,299.39576,4984.4384,0.0,0.0,0.0,0.0,-0.147239677981785,0.0,-0.42001493417974656,-0.4156122003752306,-0.6795176877506743,-0.25048751279369275,-1.188791728149609,-0.13566998340208486
14774,7.0,300.8687,4608.4924,0.0,0.0,0.0,0.0,-0.14724964479136882,0.0,-0.3867128585755876,-0.39084271399567266,-0.6233110429735104,-0.27338900168639374,-1.2313292845727388,-0.13391643251402288
14775,7.0,301.40825,4351.0408,0.0,0.0,0.0,0.0,-0.14725961160095263,0.0,-0.4082101550822056,-0.33466310273117666,-0.5797344998978404,-0.2194843598114198,-1.2343659951224386,-0.13473541217234986
14776,7.0,300.63395,4820.2734,0.0,0.0,0.0,0.0,-0.14726957841053648,0.0,-0.45664065249692354,-0.40609627219358163,-0.6025058266826954,-0.2130636675052468,-1.2381463299205289,-0.16697014025366985
14777,7.0,300.11685,5134.6828,0.0,0.0,0.0,0.0,-0.1472795452201203,0.0,-0.5100732110178066,-0.37669877611477465,-0.6740433811704023,-0.18450006612623884,-1.234066478392879,-0.14307271770517788
14778,7.0,300.4377,4649.4452,0.0,0.0,0.0,0.0,-0.14728951202970408,0.0,-0.3809781872496196,-0.37340577408478065,-0.6589312929514554,-0.24513743067568075,-1.2461476619851988,-0.17110749372449482
14779,7.0,299.99123,4089.6363,0.0,0.0,0.0,0.0,-0.14729947883928793,0.0,-0.3248818651433437,-0.33082787004266867,-0.5874375615305734,-0.22585308251996378,-1.2256111089583988,-0.16153122649939086
14780,7.0,299.02043,4585.8784,0.0,0.0,0.0,0.0,-0.14730944564887175,0.0,-0.4264598228983076,-0.35636517708300464,-0.6111675242350384,-0.2738600211278797,-1.186059397929949,-0.14578072992243785
14781,7.0,299.11495,5037.8305,0.0,0.0,0.0,0.0,-0.1473194124584556,0.0,-0.5222148147135895,-0.3863710082568496,-0.6227888645344755,-0.2552550976942167,-1.1967210181321688,-0.13899036344978088
14782,7.0,299.94945,4762.8859,0.0,0.0,0.0,0.0,-0.1473293792680394,0.0,-0.4766627987129556,-0.36217070498846565,-0.6089648705051535,-0.2866926613918627,-1.2020729038353588,-0.14528937455144486
14783,7.0,299.62138,4440.6794,0.0,0.0,0.0,0.0,-0.1473393460776232,0.0,-0.4125468452452036,-0.33900832446001666,-0.5983004739976594,-0.24992226109290677,-1.2006392562688688,-0.13572534738754885
14784,7.0,299.96044,4646.6578,0.0,0.0,0.0,0.0,-0.14734931288720704,0.0,-0.3665759212557267,-0.39790512798767863,-0.6479868847788264,-0.24881903438402678,-1.1796102636934689,-0.14373073245261886
14785,7.0,299.9581,4963.0493,0.0,0.0,0.0,0.0,-0.14735927969679086,0.0,-0.4218458264479416,-0.3992282806307636,-0.6875689527802723,-0.2171152088251028,-1.212579902072319,-0.13115379598387186
14786,7.0,299.22659,4943.3682,0.0,0.0,0.0,0.0,-0.14736924650637467,0.0,-0.46323931205066055,-0.3886473556665076,-0.6507738089138744,-0.24471399345889075,-1.2411137341633889,-0.13050550843739087
14787,7.0,300.57543,4550.7367,0.0,0.0,0.0,0.0,-0.14737921331595852,0.0,-0.4509392563042396,-0.35603068295999263,-0.5763403957728684,-0.21639157600118578,-1.240907943068079,-0.14681253263176886
14788,7.0,300.6511,4072.4563,0.0,0.0,0.0,0.0,-0.1473891801255423,0.0,-0.39216460007613263,-0.31196411187096074,-0.5337963241515955,-0.22501717145246578,-1.2433735858614188,-0.14934856590955586
14789,7.0,300.94022,4505.9806,0.0,0.0,0.0,0.0,-0.14739914693512612,0.0,-0.40756734921876564,-0.3449135865728207,-0.6172246624053314,-0.19709284982654982,-1.2503113092961187,-0.18029432840616483
14790,7.0,300.70482000000004,5027.9386,0.0,0.0,0.0,0.0,-0.14740911374470997,0.0,-0.41559476234100956,-0.39017318872709567,-0.7225998357050513,-0.2375492716042878,-1.2376261273191889,-0.13331377161954489
14791,7.0,301.28619,4826.6088,0.0,0.0,0.0,0.0,-0.14741908055429379,0.0,-0.4100176615380926,-0.37755990697726166,-0.6795909963954093,-0.2504377520812818,-1.2103656466287886,-0.15936494844809584
14792,7.0,300.70575,4514.2878,0.0,0.0,0.0,0.0,-0.14742904736387763,0.0,-0.3910089376745776,-0.3732159923410507,-0.6080058596830064,-0.25307498877905676,-1.1751511526533889,-0.14591918041610186
14793,7.0,300.28387999999995,4671.936,0.0,0.0,0.0,0.0,-0.14743901417346142,0.0,-0.4565152931945516,-0.37310101885220365,-0.5905355838438244,-0.2787853792014747,-1.190368547955229,-0.1321955082791809
14794,7.0,300.30228999999997,5097.6482,0.0,0.0,0.0,0.0,-0.14744898098304524,0.0,-0.4707270985671475,-0.4304305777876906,-0.6484000881696064,-0.23975649509212377,-1.2174244534504388,-0.14015951221016687
14795,7.0,299.75403,4998.4773,0.0,0.0,0.0,0.0,-0.14745894779262908,0.0,-0.44489414541263356,-0.4094747216045086,-0.6650434100721744,-0.27902231760485874,-1.226926915538259,-0.14089624635787687
14796,7.0,299.30296,4555.0599,0.0,0.0,0.0,0.0,-0.1474689146022129,0.0,-0.35018644890071166,-0.35433448202759066,-0.6801035590909953,-0.2209485771334268,-1.2075521550761188,-0.16196292170449583
14797,7.0,298.48028,4088.4652,0.0,0.0,0.0,0.0,-0.14747888141179671,0.0,-0.3473219807355107,-0.3127796059489437,-0.5826897350069994,-0.2487845737481258,-1.240097140338059,-0.12342192765079589
14798,7.0,299.78151,4308.8727,0.0,0.0,0.0,0.0,-0.1474888482213805,0.0,-0.39588727081103164,-0.3225392613096467,-0.5913631761280014,-0.22538706853397178,-1.2107425756659886,-0.14189795553923787
14799,7.0,299.84629,5017.0067,0.0,0.0,0.0,0.0,-0.14749881503096435,0.0,-0.5059507523234515,-0.3940706653692466,-0.6250233545825024,-0.24432455078295576,-1.2321396820027186,-0.12585405213082787
14800,7.0,300.10337000000004,5083.8622,0.0,0.0,0.0,0.0,-0.14750878184054816,0.0,-0.5093453833384756,-0.39494562709559866,-0.6410761644592914,-0.2222317469275658,-1.183697815921879,-0.13897279369304685
14801,7.0,299.91174,4612.2404,0.0,0.0,0.0,0.0,-0.147518748650132,0.0,-0.4019380153731936,-0.36825503879144267,-0.6318128597925744,-0.24002847168396577,-1.237413750098229,-0.16134817273632485
14802,7.0,300.84978,4683.5828,0.0,0.0,0.0,0.0,-0.1475287154597158,0.0,-0.36478460653643763,-0.3950603067419166,-0.6638472885941263,-0.23705612278061777,-1.264022406999299,-0.14456759597521085
14803,7.0,300.97454,5233.7118,0.0,0.0,0.0,0.0,-0.14753868226929961,0.0,-0.4650487234167356,-0.4067750990980766,-0.7190938789015403,-0.24805531738615377,-1.249331901749459,-0.12990297926542588
14804,7.0,300.86256000000003,5147.3447,0.0,0.0,0.0,0.0,-0.14754864907888346,0.0,-0.4811185052326996,-0.4244956679769606,-0.6590500762606784,-0.25911557044271577,-1.2046656081912388,-0.10634310072274689
14805,7.0,300.16958,4527.3534,0.0,0.0,0.0,0.0,-0.14755861588846728,0.0,-0.4360129272261256,-0.36818086888412266,-0.5720085996078534,-0.24960079736618077,-1.193558157945019,-0.15472444537511387
14806,7.0,299.82122999999996,4183.1157,0.0,0.0,0.0,0.0,-0.1475685826980511,0.0,-0.37675066465239565,-0.32790404568660964,-0.5669080100619645,-0.27707113228479174,-1.198461680478959,-0.12350527760402188
14807,7.0,300.35852,4606.3944,0.0,0.0,0.0,0.0,-0.1475785495076349,0.0,-0.36683762349155463,-0.40656405936724865,-0.6268272032055283,-0.2387114593364868,-1.2088108143503389,-0.17606951118670786
14808,7.0,299.86067,5062.9926,0.0,0.0,0.0,0.0,-0.14758851631721873,0.0,-0.4319568972083266,-0.4243070717358476,-0.6827593787956043,-0.24363099122200677,-1.2097530356183288,-0.15572672197653084
14809,7.0,299.51422,5043.1808,0.0,0.0,0.0,0.0,-0.14759848312680254,0.0,-0.4618673916802626,-0.4028597183266586,-0.6682739351010024,-0.23379116751339177,-1.222818895657829,-0.14878905933683687
14810,7.0,299.60254,4479.2261,0.0,0.0,0.0,0.0,-0.1476084499363864,0.0,-0.39477353669861465,-0.3812091170799107,-0.5855902140807544,-0.25113838412792877,-1.2529903425605187,-0.16024888757033384
14811,7.0,301.04272000000003,4375.3284,0.0,0.0,0.0,0.0,-0.1476184167459702,0.0,-0.42119238145845156,-0.3254313709375757,-0.5833668089888214,-0.2385804258335548,-1.2302836104695387,-0.14212782145692385
14812,7.0,299.72342000000003,5186.5926,0.0,0.0,0.0,0.0,-0.14762838355555402,0.0,-0.5033115499204825,-0.4158540733066016,-0.6574290280881934,-0.23811476648509775,-1.215539706939429,-0.16370548896147386
14813,7.0,300.15877,5160.331,0.0,0.0,0.0,0.0,-0.14763835036513784,0.0,-0.46970059515583956,-0.3950160277125466,-0.7038951476665424,-0.22779658740427278,-1.2068895908357289,-0.13701096924692988
14814,7.0,301.05116,4407.3501,0.0,0.0,0.0,0.0,-0.14764831717472165,0.0,-0.3665661332597606,-0.34245730621040466,-0.6307009191328343,-0.27564378713392373,-1.2565646836132789,-0.16033401071123485
14815,7.0,300.45995,4228.1618,0.0,0.0,0.0,0.0,-0.1476582839843055,0.0,-0.3673960256216646,-0.3209099348838447,-0.5969496596268444,-0.24591352958977578,-1.262202407169679,-0.12859515709635386
14816,7.0,300.33522999999997,4905.0225,0.0,0.0,0.0,0.0,-0.1476682507938893,0.0,-0.4888901436322005,-0.3738680491779036,-0.6282461789105704,-0.26907881814601176,-1.2227393555249788,-0.1062440352604699
14817,7.0,300.1641,5376.8322,0.0,0.0,0.0,0.0,-0.14767821760347313,0.0,-0.5490890545983704,-0.4388420836253416,-0.6464915910762523,-0.2229403836500028,-1.1985790148405386,-0.13095413505166686
14818,7.0,299.2133,5045.8421,0.0,0.0,0.0,0.0,-0.14768818441305692,0.0,-0.48749918429242356,-0.4187233240122746,-0.6275874852855624,-0.26961292253872376,-1.215857867470829,-0.14598989514058086
14819,7.0,300.63615,4499.5256,0.0,0.0,0.0,0.0,-0.14769815122264077,0.0,-0.3657214575788976,-0.3919045798354706,-0.6101173918313985,-0.23578244713991575,-1.211540611444749,-0.1892353688785768
14820,7.0,300.32629,4391.2306,0.0,0.0,0.0,0.0,-0.14770811803222458,0.0,-0.3558606697257136,-0.38790965893120266,-0.5910541145824995,-0.23164786997436476,-1.2256191136341887,-0.16430728859336685
14821,7.0,299.59608,4988.8696,0.0,0.0,0.0,0.0,-0.1477180848418084,0.0,-0.4533077790754946,-0.40345802224570665,-0.6597259850048853,-0.2149946790158228,-1.246035697849149,-0.18338828758651482
14822,7.0,299.11219,5207.9467,0.0,0.0,0.0,0.0,-0.14772805165139222,0.0,-0.5239716687969775,-0.39179311219196966,-0.6673209835144533,-0.23584389062597977,-1.2615549403557789,-0.0997768732782107
14823,7.0,299.20014,4486.8136,0.0,0.0,0.0,0.0,-0.14773801846097603,0.0,-0.4126013479680826,-0.35739569296470863,-0.5938822475991145,-0.24536395286803675,-1.2484679033891888,-0.13803837445082687
14824,7.0,299.48273,4182.138,0.0,0.0,0.0,0.0,-0.14774798527055988,0.0,-0.3397208723278397,-0.3382786324005017,-0.5932660294182984,-0.2530855873751027,-1.1826398814924688,-0.13596237698344188
14825,7.0,300.20991000000004,5052.1737,0.0,0.0,0.0,0.0,-0.14775795208014367,0.0,-0.4122450791004216,-0.4293742848234426,-0.6941152880988454,-0.26398063000285976,-1.187592445331249,-0.15241060771175585
14826,7.0,299.83229,5366.2071,0.0,0.0,0.0,0.0,-0.1477679188897275,0.0,-0.4685711657993735,-0.44371180413594563,-0.7189099942733923,-0.26499156989263173,-1.2165008759842886,-0.16506145064279684
14827,7.0,301.19964,4740.7627,0.0,0.0,0.0,0.0,-0.14777788569931133,0.0,-0.4130030611027286,-0.37696522036107066,-0.6511051822265784,-0.2860856232569527,-1.2428742562121389,-0.13271220503517486
14828,7.0,301.73596000000003,4443.4946,0.0,0.0,0.0,0.0,-0.14778785250889515,0.0,-0.43344869519805557,-0.35954435059676465,-0.5577183585450165,-0.21740444106614779,-1.229063049399079,-0.13612433487942588
14829,7.0,301.13465,4657.3856,0.0,0.0,0.0,0.0,-0.14779781931847896,0.0,-0.45952457506404454,-0.3446002795093997,-0.6116040729081224,-0.23573532087776478,-1.2139054358531387,-0.1032781103627559
14830,7.0,300.3026,5088.0024,0.0,0.0,0.0,0.0,-0.14780778612806278,0.0,-0.4598220652934046,-0.4046553393588726,-0.6821482673952923,-0.2034234540663318,-1.2444817774957888,-0.14927424401472086
14831,7.0,299.87007,5278.1933,0.0,0.0,0.0,0.0,-0.14781775293764662,0.0,-0.46256007984612557,-0.4132673572588126,-0.7286115296083593,-0.2539347517539087,-1.2276684119614387,-0.10640772581412489
14832,7.0,300.46592000000004,4965.7554,0.0,0.0,0.0,0.0,-0.14782771974723044,0.0,-0.4327772447542886,-0.39776033454838866,-0.6789280775174843,-0.2376220533589708,-1.183317340509329,-0.15451364882430985
14833,7.0,299.54172,4444.6097,0.0,0.0,0.0,0.0,-0.14783768655681423,0.0,-0.4150931224815016,-0.34306093982497865,-0.5928962944568085,-0.27330590504569274,-1.1973125535405489,-0.12139042199530188
14834,7.0,299.81566000000004,4625.0376,0.0,0.0,0.0,0.0,-0.14784765336639807,0.0,-0.4543054149914536,-0.36752830542221965,-0.5840622329299544,-0.24122485660703974,-1.2298063696724386,-0.12772923356089388
14835,7.0,299.09805,4983.6438,0.0,0.0,0.0,0.0,-0.1478576201759819,0.0,-0.4785206434338105,-0.3844161651039216,-0.6519664650765803,-0.2747708012452667,-1.2457372956946988,-0.11732245589132488
14836,7.0,299.97687,4628.581,0.0,0.0,0.0,0.0,-0.1478675869855657,0.0,-0.4014651822140286,-0.3704474181653136,-0.6350604580855874,-0.21691454477529878,-1.2220446712564188,-0.15148524692542983
14837,7.0,300.64079,4247.5977,0.0,0.0,0.0,0.0,-0.14787755379514955,0.0,-0.3261816623716237,-0.36968080327215463,-0.5953011523766494,-0.2653756220780347,-1.232922316379959,-0.1866498788634088
14838,7.0,300.85476,4529.5305,0.0,0.0,0.0,0.0,-0.14788752060473334,0.0,-0.39427334578674966,-0.37527056970132167,-0.6073202440028415,-0.22729320475459278,-1.220004897480109,-0.17564048082936584
14839,7.0,299.68919,5079.1961,0.0,0.0,0.0,0.0,-0.14789748741431716,0.0,-0.4744295853600546,-0.4335365439817256,-0.6359826372665994,-0.2585965837414958,-1.220547188933629,-0.17624708326673283
14840,7.0,299.56532999999996,5016.0368,0.0,0.0,0.0,0.0,-0.147907454223901,0.0,-0.5094531323541095,-0.4019123092181566,-0.6133844850563355,-0.21272105724893378,-1.196173457778129,-0.1259339772987159
14841,7.0,298.20187999999996,4642.4781,0.0,0.0,0.0,0.0,-0.14791742103348482,0.0,-0.42154901509614856,-0.37375450437169766,-0.6158939205189974,-0.2266657091001638,-1.2088932929084788,-0.15614809216311684
14842,7.0,298.46296,4342.0047,0.0,0.0,0.0,0.0,-0.14792738784306864,0.0,-0.3792051312971326,-0.34922388157071366,-0.5914319960747935,-0.25006431875692675,-1.2405921130119089,-0.12630295232263086
14843,7.0,299.39555,4668.3705,0.0,0.0,0.0,0.0,-0.14793735465265245,0.0,-0.3685711930876447,-0.3774530597542166,-0.6730438200792533,-0.24038685824433575,-1.2245529718789687,-0.14243209032945287
14844,7.0,299.58255,5140.3802,0.0,0.0,0.0,0.0,-0.14794732146223627,0.0,-0.44549320926925656,-0.4287952225237936,-0.6882587835808534,-0.2682779148694687,-1.2199931437789489,-0.13523997019214587
14845,7.0,299.8739,4998.8596,0.0,0.0,0.0,0.0,-0.1479572882718201,0.0,-0.48481795227530655,-0.3914591956215146,-0.6432513591114664,-0.2536499575483017,-1.199370768468679,-0.12650719314528788
14846,7.0,300.15592000000004,4450.838,0.0,0.0,0.0,0.0,-0.14796725508140393,0.0,-0.43569959989770257,-0.34588360129105367,-0.5713604336513844,-0.29074066646886976,-1.2646926719404488,-0.12439383714671587
14847,7.0,299.90601000000004,4446.9886,0.0,0.0,0.0,0.0,-0.14797722189098775,0.0,-0.4138268536990306,-0.33608365910637467,-0.6018629701567505,-0.24366639418050076,-1.214859309497279,-0.12275793472776488
14848,7.0,300.37403,5323.6495,0.0,0.0,0.0,0.0,-0.14798718870057154,0.0,-0.49732530885968657,-0.42176378358734457,-0.6991674341574533,-0.24649454746211777,-1.2410248721296189,-0.14035838280729385
14849,7.0,299.80066,5248.3405,0.0,0.0,0.0,0.0,-0.14799715551015538,0.0,-0.4653320788072005,-0.4215361366873776,-0.7084962353106343,-0.20839513793449882,-1.2154942120099388,-0.15630499394110187
14850,7.0,300.09397,4589.262,0.0,0.0,0.0,0.0,-0.1480071223197392,0.0,-0.37996319435944764,-0.4067398785246006,-0.6083179812438104,-0.25581654970712775,-1.257219445827899,-0.17834781416905882
14851,7.0,300.02102,4256.174,0.0,0.0,0.0,0.0,-0.14801708912932304,0.0,-0.39379625697716464,-0.3389880391930147,-0.5609863332975404,-0.23017478671398275,-1.223834678883079,-0.13825684130488788
14852,7.0,301.55496,4523.2021,0.0,0.0,0.0,0.0,-0.14802705593890686,0.0,-0.4394175488871356,-0.3448490932039557,-0.5906738620849714,-0.23954221296097578,-1.2078292789784688,-0.12914173459779688
14853,7.0,301.21655,4829.2416,0.0,0.0,0.0,0.0,-0.14803702274849065,0.0,-0.43585740346827656,-0.3967925287153736,-0.6353189179210954,-0.22485021823348877,-1.227748661369359,-0.14086027597932688
14854,7.0,300.66913999999997,4773.9465,0.0,0.0,0.0,0.0,-0.1480469895580745,0.0,-0.4249318620125096,-0.38097235092904363,-0.6452563074818394,-0.23598644478254877,-1.2566281130695387,-0.14466995450031286
14855,7.0,299.99405,4467.6611,0.0,0.0,0.0,0.0,-0.1480569563676583,0.0,-0.3250807965354767,-0.4094277878598766,-0.6235488426394794,-0.25531140400227376,-1.231233735088309,-0.18386905449396285
14856,7.0,299.96077,4472.9012,0.0,0.0,0.0,0.0,-0.14806692317724213,0.0,-0.3873363316271196,-0.37994704315285366,-0.5923668915445605,-0.2357079732575658,-1.220471195176129,-0.17744803794775782
14857,7.0,299.11418,5213.934,0.0,0.0,0.0,0.0,-0.14807688998682597,0.0,-0.48645736053960353,-0.43099439067333456,-0.6674539827225794,-0.25416196295633275,-1.2201012575646188,-0.16102494595442485
14858,7.0,300.02092000000005,5176.7441,0.0,0.0,0.0,0.0,-0.14808685679640976,0.0,-0.5386968272002375,-0.4152844544978846,-0.6196196715342004,-0.25400462548080477,-1.2359471719034887,-0.16294036354596184
14859,7.0,299.60582,4357.3899,0.0,0.0,0.0,0.0,-0.14809682360599358,0.0,-0.39441655855588365,-0.34061851059142967,-0.5895026564268824,-0.25054954396481477,-1.221793689206649,-0.12124696604614388
14860,7.0,299.27687000000003,4188.6019,0.0,0.0,0.0,0.0,-0.14810679041557742,0.0,-0.3775429553030886,-0.3104093910500217,-0.5852780418574455,-0.24105364773764276,-1.2274693083167887,-0.12974466906980187
14861,7.0,299.83788,4979.4221,0.0,0.0,0.0,0.0,-0.14811675722516124,0.0,-0.41120402541767764,-0.39730918494136364,-0.7051067718711204,-0.23657237691787578,-1.2216834475957687,-0.1052164679365569
14862,7.0,299.85319,5120.9606,0.0,0.0,0.0,0.0,-0.14812672403474506,0.0,-0.4843076693924455,-0.37845681570077966,-0.6938796567880904,-0.2317640390983298,-1.2453513487316088,-0.13871040244715085
14863,7.0,299.85400000000004,4798.477,0.0,0.0,0.0,0.0,-0.14813669084432887,0.0,-0.4232207561711366,-0.38643497473566263,-0.6489614591225094,-0.24351367712542876,-1.1993850552950887,-0.1081184668854619
14864,7.0,300.15657000000004,4458.982,0.0,0.0,0.0,0.0,-0.1481466576539127,0.0,-0.4223766783078326,-0.3402373866988157,-0.5928051424778124,-0.2174266109783358,-1.2021441353173887,-0.15054493056762785
14865,7.0,300.17039,4672.4892,0.0,0.0,0.0,0.0,-0.1481566244634965,0.0,-0.4249230771341426,-0.35497786544358767,-0.6404191021669443,-0.24808308043889377,-1.2162709695365987,-0.11697589395962188
14866,7.0,300.78396000000004,5154.543,0.0,0.0,0.0,0.0,-0.14816659127308035,0.0,-0.4682658938092456,-0.43840410626961657,-0.6601823427174244,-0.1984270874257288,-1.2394414661983488,-0.17856493340048685
14867,7.0,299.72123,5005.9766,0.0,0.0,0.0,0.0,-0.14817655808266417,0.0,-0.4386260891015246,-0.3917980163224536,-0.6912677716078173,-0.24255753380106476,-1.2018600199893488,-0.14220334911937785
14868,7.0,299.42593,4418.8294,0.0,0.0,0.0,0.0,-0.14818652489224796,0.0,-0.39499425296789764,-0.38129982322886263,-0.5669197434981225,-0.23113163931341676,-1.1954404726557888,-0.15910636702257583
14869,7.0,299.74947000000003,4370.101,0.0,0.0,0.0,0.0,-0.1481964917018318,0.0,-0.3749542532851037,-0.35922652443789765,-0.5942208251200295,-0.28170180683180374,-1.2119246332326488,-0.16754092430000184
14870,7.0,300.28657999999996,4870.8009999999995,0.0,0.0,0.0,0.0,-0.14820645851141562,0.0,-0.4670343288426996,-0.38782838614068166,-0.6257391549831464,-0.25578612180662474,-1.2264341720146288,-0.13145873360146687
14871,7.0,298.90022,5058.3307,0.0,0.0,0.0,0.0,-0.14821642532099946,0.0,-0.43645686249243865,-0.4331260155712096,-0.6680233380862703,-0.24895722143266477,-1.233564412968329,-0.15152872548722085
14872,7.0,298.211,4604.1945,0.0,0.0,0.0,0.0,-0.14822639213058328,0.0,-0.4061337928447846,-0.3600406100982417,-0.6333857684528084,-0.2022863645391098,-1.209989730841689,-0.12538862582989388
14873,7.0,297.93408,4435.7096,0.0,0.0,0.0,0.0,-0.14823635894016707,0.0,-0.3600037683246056,-0.35926848312453863,-0.6290727072821424,-0.24099091742395176,-1.218867017617809,-0.1810903072872218
14874,7.0,299.80271,4731.0369,0.0,0.0,0.0,0.0,-0.1482463257497509,0.0,-0.43953777101150054,-0.37243298306127365,-0.6261463396683324,-0.23119888872255379,-1.241889275789929,-0.12885744701723986
14875,7.0,300.60166,4836.013,0.0,0.0,0.0,0.0,-0.14825629255933473,0.0,-0.42442543961252954,-0.37742273317872366,-0.6681790138316344,-0.23007560979419478,-1.2020894198119887,-0.16057634973765186
14876,7.0,299.95291000000003,4914.7177,0.0,0.0,0.0,0.0,-0.14826625936891855,0.0,-0.4510479679074686,-0.4045061686791506,-0.6383973237124104,-0.2427945735294588,-1.211476574038429,-0.13041168147813087
14877,7.0,300.03286,4901.053,0.0,0.0,0.0,0.0,-0.1482762261785024,0.0,-0.4650628683881315,-0.37136559500843064,-0.6533692693100264,-0.25870484951468076,-1.2136289199008488,-0.12304377258097489
14878,7.0,300.43685,4636.3625,0.0,0.0,0.0,0.0,-0.14828619298808618,0.0,-0.44243047845698863,-0.3411697693083347,-0.6257381721305494,-0.2857109841649787,-1.237190125801159,-0.11833779328653089
14879,7.0,300.32161,4846.2304,0.0,0.0,0.0,0.0,-0.14829615979767,0.0,-0.45237498103343454,-0.3829647957931826,-0.6377932645327944,-0.23476708947970779,-1.2059170733897489,-0.13144920905052687
14880,7.0,300.64068,5213.2574,0.0,0.0,0.0,0.0,-0.14830612660725384,0.0,-0.5105130932837195,-0.38527360773604463,-0.6889133836754573,-0.25390814380628274,-1.2169592703295289,-0.12392631341807488
14881,7.0,299.01342999999997,4847.8425,0.0,0.0,0.0,0.0,-0.14831609341683766,0.0,-0.43278022370958263,-0.38935643821898863,-0.6514863871792004,-0.23319873031242278,-1.215908327325809,-0.14224013009800787
14882,7.0,299.71342000000004,4517.5205,0.0,0.0,0.0,0.0,-0.14832606022642147,0.0,-0.4018145913785126,-0.36325716240819067,-0.6081416757264104,-0.2524836560206968,-1.2559077935734488,-0.14858430175662887
14883,7.0,299.92394,4524.9035,0.0,0.0,0.0,0.0,-0.1483360270360053,0.0,-0.39211191107093263,-0.34615124117246765,-0.6371945451812054,-0.22347442724770877,-1.205719286970229,-0.13865779450195886
14884,7.0,299.7958,4815.6128,0.0,0.0,0.0,0.0,-0.1483459938455891,0.0,-0.4341769281774266,-0.3969404834949756,-0.6327086235434795,-0.24955816993447377,-1.2265629561023388,-0.17158472438909383
14885,7.0,300.01134,4965.5551,0.0,0.0,0.0,0.0,-0.14835596065517292,0.0,-0.4524992865557026,-0.3949472077657546,-0.6619582763001953,-0.2329770717205468,-1.233292760616519,-0.16690023612927085
14886,7.0,301.29727,4853.2342,0.0,0.0,0.0,0.0,-0.14836592746475677,0.0,-0.44953068667772456,-0.4010837442138836,-0.6246475907829174,-0.2653949751549447,-1.2491202338035687,-0.14805718878960686
14887,7.0,300.99312000000003,4637.4239,0.0,0.0,0.0,0.0,-0.1483758942743406,0.0,-0.3836102361068826,-0.39621589821596465,-0.6298349348023684,-0.2165655814408588,-1.216966059105199,-0.14379445575140784
14888,7.0,301.1814,4692.0617,0.0,0.0,0.0,0.0,-0.14838586108392438,0.0,-0.4179785649237726,-0.3731619253157146,-0.6351290956473614,-0.2357277924295218,-1.2166208447961289,-0.11595200473357188
14889,7.0,300.07697,5017.7235,0.0,0.0,0.0,0.0,-0.14839582789350822,0.0,-0.42916038772733256,-0.41986694900264154,-0.6762353045817283,-0.22192849130513678,-1.2505729304719388,-0.13717060680018486
14890,7.0,300.24313,5018.0995,0.0,0.0,0.0,0.0,-0.14840579470309204,0.0,-0.48935132441521556,-0.3830910670206446,-0.6529345748846254,-0.25590747877110176,-1.2474863680173187,-0.12360294478116088
14891,7.0,300.45202,4648.0886,0.0,0.0,0.0,0.0,-0.14841576151267588,0.0,-0.4153981715566076,-0.38242378103478863,-0.6150809190362605,-0.24563079228187176,-1.2003522025155386,-0.16424011011173684
14892,7.0,299.13192999999995,4685.7515,0.0,0.0,0.0,0.0,-0.1484257283222597,0.0,-0.43202354879990457,-0.37905025601934766,-0.6132776378332904,-0.26789963820963575,-1.192966217236599,-0.16540843813954184
14893,7.0,299.66674,5084.6227,0.0,0.0,0.0,0.0,-0.1484356951318435,0.0,-0.4241710125124196,-0.40456380234483863,-0.7168635330464224,-0.24889829080684878,-1.2106626302330987,-0.14415506132949685
14894,7.0,299.94405,4970.5408,0.0,0.0,0.0,0.0,-0.14844566194142733,0.0,-0.4567829432084666,-0.38829404548913865,-0.6658433000986174,-0.25123104584957373,-1.2417270544489187,-0.14303304896376284
14895,7.0,300.14297,4654.4647,0.0,0.0,0.0,0.0,-0.14845562875101115,0.0,-0.4096194745137946,-0.3520787035949626,-0.6531428585751814,-0.2056244865960568,-1.2319453406335388,-0.11274850308491088
14896,7.0,300.42118999999997,4580.9878,0.0,0.0,0.0,0.0,-0.14846559556059497,0.0,-0.45601685520535956,-0.3315996525113377,-0.6048893860854344,-0.23478875276684577,-1.239034240983159,-0.12359197128257789
14897,7.0,299.51802000000004,4840.9797,0.0,0.0,0.0,0.0,-0.1484755623701788,0.0,-0.46411170012175856,-0.38165754104416666,-0.6257676982384635,-0.24329665921901078,-1.2394117779704188,-0.13236210686062289
14898,7.0,300.60256,5112.0791,0.0,0.0,0.0,0.0,-0.1484855291797626,0.0,-0.5070852783279205,-0.3986494209811346,-0.6482097086083174,-0.24210012230842176,-1.225351412957769,-0.17471985192100684
14899,7.0,301.53258,5024.9396,0.0,0.0,0.0,0.0,-0.14849549598934642,0.0,-0.43330463129883756,-0.4053891756112966,-0.6887623486155513,-0.2335680701063738,-1.180190653350749,-0.13528402630649386
14900,7.0,301.45038999999997,4478.4613,0.0,0.0,0.0,0.0,-0.14850546279893026,0.0,-0.37864205808406165,-0.3717554632494076,-0.6109428866878684,-0.24744129795805475,-1.1995214387585489,-0.17245179289716683
14901,7.0,301.7321,4386.7423,0.0,0.0,0.0,0.0,-0.14851542960851408,0.0,-0.35137685564819565,-0.35504068694978763,-0.6270425796467844,-0.27827107371571674,-1.244085799356709,-0.14068321052435184
14902,7.0,301.44819,4818.8714,0.0,0.0,0.0,0.0,-0.14852539641809792,0.0,-0.4602629304119146,-0.3676836873250547,-0.6368699606441713,-0.24322602555453973,-1.2471185582310187,-0.17048640181069782
14903,7.0,299.85934,4881.8447,0.0,0.0,0.0,0.0,-0.1485353632276817,0.0,-0.45817889787123656,-0.3918973654947586,-0.6338826359043453,-0.22947087173701178,-1.2264162374878589,-0.15929334206352885
14904,7.0,301.09202,4606.8461,0.0,0.0,0.0,0.0,-0.14854533003726553,0.0,-0.4198940230453136,-0.3902870273758306,-0.5901851208992365,-0.2125191367690058,-1.2164141417757288,-0.18179238828151184
14905,7.0,299.6684,4556.5231,0.0,0.0,0.0,0.0,-0.14855529684684934,0.0,-0.36944125068351263,-0.38342434524353664,-0.6322036500911424,-0.25486910006862173,-1.237776797609059,-0.17714621100796984
14906,7.0,299.4527,4913.8179,0.0,0.0,0.0,0.0,-0.1485652636564332,0.0,-0.44002321913441056,-0.38914455749057764,-0.6645101770745483,-0.25302277600140377,-1.216291031888579,-0.13028137751527089
14907,7.0,299.13856,4939.9109,0.0,0.0,0.0,0.0,-0.148575230466017,0.0,-0.43202663921270956,-0.3997522930524796,-0.6698306317596364,-0.24886364778592976,-1.2066498558620689,-0.14342914869285486
14908,7.0,299.90783,4824.9911,0.0,0.0,0.0,0.0,-0.1485851972756008,0.0,-0.4672388533753845,-0.37632190787258063,-0.6231160531242664,-0.24519651328901174,-1.2198796597677488,-0.09936969467252531
14909,7.0,300.92812999999995,4736.0783,0.0,0.0,0.0,0.0,-0.14859516408518464,0.0,-0.4531601586684256,-0.36918966068368264,-0.6172997341052404,-0.25719869377103477,-1.2318469540488288,-0.14476490616718385
14910,7.0,301.59319,4854.0877,0.0,0.0,0.0,0.0,-0.14860513089476846,0.0,-0.4661435401497856,-0.37634854621770963,-0.6330293678626344,-0.2612426255826398,-1.2354253481019888,-0.11758259772199889
14911,7.0,301.0477,5035.2166,0.0,0.0,0.0,0.0,-0.1486150977043523,0.0,-0.4445834525344706,-0.3924088440127376,-0.6935878204942884,-0.23897060818206275,-1.205178718041879,-0.16431157464128984
14912,7.0,300.57677,5002.9032,0.0,0.0,0.0,0.0,-0.1486250645139361,0.0,-0.4481554732445016,-0.37883933787853163,-0.6937628493165623,-0.24300942308066276,-1.2206553027192988,-0.10976182682514889
14913,7.0,300.40328,4685.2583,0.0,0.0,0.0,0.0,-0.1486350313235199,0.0,-0.4203735031251346,-0.3634345217056947,-0.6403934973369173,-0.23788418115984078,-1.2152881169395988,-0.14579314223616285
14914,7.0,300.58125,4682.2273,0.0,0.0,0.0,0.0,-0.14864499813310375,0.0,-0.4510721339223535,-0.3685982671303166,-0.6036097930641484,-0.27108392863640074,-1.228087796177829,-0.1158585425443479
14915,7.0,299.26075,4931.1318,0.0,0.0,0.0,0.0,-0.14865496494268757,0.0,-0.48635258034676254,-0.37851035583606363,-0.6340780006561264,-0.22879028177734279,-1.2120543292454489,-0.16311644614833984
14916,7.0,300.13882,5030.6013,0.0,0.0,0.0,0.0,-0.14866493175227138,0.0,-0.43163081306114454,-0.4367614961350036,-0.6607848820218903,-0.2498303086463318,-1.2326769072057386,-0.15822879111096586
14917,7.0,301.13262000000003,4704.5116,0.0,0.0,0.0,0.0,-0.1486748985618552,0.0,-0.3798671787799716,-0.4020230574540866,-0.6481638286437894,-0.23608698958997176,-1.242020998302929,-0.18062465807126582
14918,7.0,300.34852,4642.8404,0.0,0.0,0.0,0.0,-0.14868486537143902,0.0,-0.39273383384981164,-0.38462143944168065,-0.6339522563187163,-0.24930977167245874,-1.246436539588709,-0.13662145564348788
14919,7.0,299.38365,4607.8586,0.0,0.0,0.0,0.0,-0.14869483218102283,0.0,-0.43316942320549356,-0.36550907022543666,-0.6019954728723274,-0.2319759806217468,-1.2243812259870188,-0.13857592389387885
14920,7.0,299.11874,4708.7154,0.0,0.0,0.0,0.0,-0.14870479899060668,0.0,-0.46027919307601955,-0.38282655808203964,-0.5882261639509024,-0.2468314936503718,-1.2506671627312387,-0.13915039617057487
14921,7.0,298.58407,4771.7156,0.0,0.0,0.0,0.0,-0.1487147658001905,0.0,-0.43367980741336465,-0.39278813392267065,-0.6240144513254314,-0.23302180671246178,-1.2558608800938187,-0.16150466921426987
14922,7.0,299.37897999999996,4735.1331,0.0,0.0,0.0,0.0,-0.1487247326097743,0.0,-0.4151452947291506,-0.39987195788928964,-0.6243449937730534,-0.26406898541157975,-1.2471205847312188,-0.17527555880585083
14923,7.0,298.18497,4553.2695,0.0,0.0,0.0,0.0,-0.14873469941935813,0.0,-0.3554848755286257,-0.3818763321382596,-0.6467190353261993,-0.23974614980860276,-1.2149392549301687,-0.1884248802560878
14924,7.0,299.25034,4676.2964,0.0,0.0,0.0,0.0,-0.14874466622894195,0.0,-0.41335583425754463,-0.3843318019005956,-0.6237897124532514,-0.2847532703029597,-1.213509660364079,-0.14130213408293488
14925,7.0,300.28763,5083.8976,0.0,0.0,0.0,0.0,-0.14875463303852576,0.0,-0.47607755558769654,-0.4092088143807656,-0.6600915656409654,-0.24934032116297375,-1.2007614542309288,-0.13311022993945687
14926,7.0,300.44461,5016.7032,0.0,0.0,0.0,0.0,-0.14876459984810958,0.0,-0.5347453949902615,-0.3785482108597996,-0.6116588796060314,-0.25230800911586176,-1.2014430675731989,-0.1005288689989269
14927,7.0,299.66302,4584.5384,0.0,0.0,0.0,0.0,-0.14877456665769342,0.0,-0.4242646266891586,-0.35334565125500067,-0.6159749095994904,-0.2057494405983888,-1.2088341191026388,-0.14320160311789787
14928,7.0,300.13133,4754.0138,0.0,0.0,0.0,0.0,-0.1487845334672772,0.0,-0.4171427653137856,-0.3831186578208676,-0.6448400643407594,-0.24023013885136876,-1.2586758915216387,-0.1191756092642169
14929,7.0,300.53561,4979.6382,0.0,0.0,0.0,0.0,-0.14879450027686106,0.0,-0.3976021763402796,-0.4138689441081846,-0.7022145609181814,-0.2526028040999558,-1.2776405896683087,-0.15896761255388187
14930,7.0,299.55348,4864.862,0.0,0.0,0.0,0.0,-0.14880446708644487,0.0,-0.45880364761789455,-0.38786211723651065,-0.6321308075414535,-0.23300197740800477,-1.2495832890992689,-0.15705512325513385
14931,7.0,298.63854,4841.8383,0.0,0.0,0.0,0.0,-0.1488144338960287,0.0,-0.48060228470425254,-0.39354694679005964,-0.5976487008708344,-0.23460731007143878,-1.208672911011729,-0.13454547844110487
14932,7.0,298.36801,4597.6356,0.0,0.0,0.0,0.0,-0.1488244007056125,0.0,-0.47948240016372856,-0.34772046160233766,-0.5703635576730005,-0.24883025106263373,-1.2048039168298887,-0.14721643438663085
14933,7.0,298.96827,4661.3356,0.0,0.0,0.0,0.0,-0.14883436751519633,0.0,-0.3913740522156116,-0.4081211613259226,-0.6174344153085324,-0.26446328155549376,-1.2362457767079589,-0.1258872056740999
14934,7.0,298.27384,5076.7332,0.0,0.0,0.0,0.0,-0.14884433432478014,0.0,-0.4260583225461826,-0.4227147492036976,-0.6944270550221143,-0.2426874425963858,-1.2154648277570388,-0.17399566180953485
14935,7.0,298.25695,5117.7585,0.0,0.0,0.0,0.0,-0.14885430113436396,0.0,-0.3929868626647836,-0.4385381997878506,-0.7241457209851183,-0.23554646119162578,-1.225259004548649,-0.13552023516980588
14936,7.0,299.50541,4546.0142,0.0,0.0,0.0,0.0,-0.1488642679439478,0.0,-0.4068306150710556,-0.3701268258336737,-0.6049173619206955,-0.23118345692353076,-1.2450494002018089,-0.17316542494259685
14937,7.0,300.65022,4526.048,0.0,0.0,0.0,0.0,-0.14887423475353162,0.0,-0.4265515625623616,-0.3549265747235257,-0.5943274291630504,-0.2623992911017938,-1.2600437791566388,-0.1162082759488639
14938,7.0,300.3093,4975.543,0.0,0.0,0.0,0.0,-0.14888420156311544,0.0,-0.5162776858851406,-0.38129063305045563,-0.6148725036231915,-0.22380994475332178,-1.2447133051436388,-0.14760871416284585
14939,7.0,299.85042999999996,4978.8055,0.0,0.0,0.0,0.0,-0.14889416837269925,0.0,-0.4412986274327836,-0.4079231823888836,-0.6642107616699984,-0.23891818262188877,-1.2269369467142488,-0.15214248147029386
14940,7.0,299.68705,4689.9572,0.0,0.0,0.0,0.0,-0.14890413518228307,0.0,-0.37365148723403063,-0.39988608259568365,-0.6520923107390003,-0.23424954159362976,-1.247477350091429,-0.15677482787997085
14941,7.0,300.32915,4646.892,0.0,0.0,0.0,0.0,-0.14891410199186692,0.0,-0.35270824601459366,-0.39714762221291866,-0.6626832668792463,-0.26137816804851677,-1.2428390964336689,-0.17592253925970283
14942,7.0,299.77952999999997,4860.0004,0.0,0.0,0.0,0.0,-0.14892406880145073,0.0,-0.4629549028800916,-0.3903206064841446,-0.6240432681582754,-0.24849238281678876,-1.198386598646549,-0.13200130876501487
14943,7.0,299.21314,5118.0070000000005,0.0,0.0,0.0,0.0,-0.14893403561103452,0.0,-0.5398155363706455,-0.39071444666551364,-0.6252163483290494,-0.23387865152702578,-1.196886076573459,-0.13711249690694988
14944,7.0,299.86124,5018.7185,0.0,0.0,0.0,0.0,-0.14894400242061837,0.0,-0.5475962433585414,-0.36523887695377066,-0.6127300065517434,-0.25234953210495975,-1.1916848611601387,-0.1004949545048298
14945,7.0,299.86509,4572.7009,0.0,0.0,0.0,0.0,-0.14895396923020218,0.0,-0.4085892423421186,-0.3353330029022907,-0.6460646682791183,-0.2547229488741978,-1.2191042194662187,-0.15317462868465884
14946,7.0,300.05463,4651.3708,0.0,0.0,0.0,0.0,-0.148963936039786,0.0,-0.38160816536679365,-0.38404454549724565,-0.6482478777395844,-0.24597327081567177,-1.233749533761599,-0.14681070878158886
14947,7.0,299.94397000000004,5167.8252,0.0,0.0,0.0,0.0,-0.14897390284936984,0.0,-0.41077826785815863,-0.4360066248105036,-0.7241049174035913,-0.2446871727287438,-1.226051974076909,-0.18325788229864481
14948,7.0,300.39254,5095.0016,0.0,0.0,0.0,0.0,-0.14898386965895363,0.0,-0.48277013329320256,-0.3996421223691066,-0.6663410085477374,-0.2461195537326088,-1.2640877616307489,-0.12928089436653087
14949,7.0,300.40693,4424.5354,0.0,0.0,0.0,0.0,-0.14899383646853745,0.0,-0.4303860454457956,-0.3472481755982267,-0.5673140700395395,-0.23490333108815378,-1.2501355104037688,-0.1362519435970199
14950,7.0,301.42574,4426.0098,0.0,0.0,0.0,0.0,-0.1490038032781213,0.0,-0.42155151782389566,-0.3487791559693227,-0.5750657778095735,-0.24613695123682577,-1.2387218559773288,-0.14452217197322786
14951,7.0,300.42925,4942.367,0.0,0.0,0.0,0.0,-0.1490137700877051,0.0,-0.4221221498827126,-0.3936670777219156,-0.6865669396238814,-0.21293976728301878,-1.204491227849029,-0.14380180181463284
14952,7.0,300.60046,5175.1411,0.0,0.0,0.0,0.0,-0.14902373689728893,0.0,-0.4071210834772226,-0.43587455779246964,-0.7301180197245384,-0.2662923702385107,-1.226704912441349,-0.16721769751810184
14953,7.0,299.62792,4960.7489,0.0,0.0,0.0,0.0,-0.14903370370687274,0.0,-0.39646670801321765,-0.4023581088646536,-0.7091189889545954,-0.2458583581218308,-1.2250940474323688,-0.14502997239334386
14954,7.0,299.87998999999996,4713.9555,0.0,0.0,0.0,0.0,-0.14904367051645656,0.0,-0.43426708717132456,-0.37800550397373867,-0.6206521936511025,-0.2564878278983777,-1.2307056291361886,-0.16434619739720685
14955,7.0,299.92326,4558.3028,0.0,0.0,0.0,0.0,-0.14905363732604038,0.0,-0.4555540937521885,-0.3437733965002927,-0.5862827401266014,-0.2517244885157727,-1.2087809234723887,-0.1142590968639949
14956,7.0,300.60662,4996.4022,0.0,0.0,0.0,0.0,-0.14906360413562422,0.0,-0.5022129740295614,-0.37349944905652566,-0.6430690855509773,-0.23304822214256876,-1.242239860324529,-0.13366575443928289
14957,7.0,299.52642000000003,5165.1412,0.0,0.0,0.0,0.0,-0.14907357094520804,0.0,-0.45138800450852756,-0.4197220846358446,-0.6989638620798623,-0.24009990581601576,-1.2333120123684187,-0.1272336630694849
14958,7.0,299.06748,4765.8263,0.0,0.0,0.0,0.0,-0.14908353775479183,0.0,-0.37602118537540163,-0.3890272737915026,-0.6836437232178824,-0.21362224188787382,-1.2162051082800989,-0.16075957575323485
14959,7.0,299.30001,4611.2148,0.0,0.0,0.0,0.0,-0.14909350456437567,0.0,-0.3516987652049657,-0.38609119924173463,-0.6639041724547404,-0.2384129051945218,-1.2338961510510689,-0.16351337674251384
14960,7.0,299.44265,4869.1321,0.0,0.0,0.0,0.0,-0.1491034713739595,0.0,-0.4887401623523985,-0.3776692873255566,-0.6136851264935064,-0.26336444221954675,-1.2373695723938687,-0.15042948085123384
14961,7.0,299.71757,5001.0329,0.0,0.0,0.0,0.0,-0.14911343818354333,0.0,-0.4858523185073905,-0.3807661444011926,-0.6535706628999024,-0.27774720314901474,-1.2524201867292488,-0.12364188398250388
14962,7.0,299.42215,4665.6,0.0,0.0,0.0,0.0,-0.14912340499312715,0.0,-0.4800273463325106,-0.37020955770433867,-0.5679889959311495,-0.22902850700835378,-1.234663080051759,-0.13169604690738787
14963,7.0,299.13872000000003,4567.2356,0.0,0.0,0.0,0.0,-0.14913337180271094,0.0,-0.3753514979868086,-0.35613450056523865,-0.6568395597100174,-0.22358225732335077,-1.197178905852359,-0.15950544570696185
14964,7.0,300.1248,4835.9653,0.0,0.0,0.0,0.0,-0.14914333861229478,0.0,-0.4325011644995416,-0.3655041964924557,-0.6720073260219593,-0.21056491169863878,-1.2350100168859988,-0.15600553800654784
14965,7.0,301.2157,5099.5158,0.0,0.0,0.0,0.0,-0.1491533054218786,0.0,-0.4078869283003056,-0.42605123992798355,-0.7161873000621833,-0.25024784874753975,-1.225376642885259,-0.14734135799145986
14966,7.0,300.27145,4951.7459,0.0,0.0,0.0,0.0,-0.14916327223146242,0.0,-0.5003053381987925,-0.3715679207883986,-0.6333338596501854,-0.2374482910993218,-1.2311261279276886,-0.14284720876292187
14967,7.0,300.77564,4945.598,0.0,0.0,0.0,0.0,-0.14917323904104626,0.0,-0.4701086208386085,-0.3849537956069816,-0.6482758941048493,-0.24975137646354179,-1.2238288020324988,-0.0982081412348889
14968,7.0,301.11614,4808.4977,0.0,0.0,0.0,0.0,-0.14918320585063005,0.0,-0.4645668925966826,-0.3869204532560756,-0.6101758968921724,-0.2642971288040957,-1.2515862818969488,-0.14524568320713285
14969,7.0,301.33673999999996,4882.7825,0.0,0.0,0.0,0.0,-0.14919317266021387,0.0,-0.40841626028504663,-0.4032879684814236,-0.6725397180220024,-0.2855052032021697,-1.252591223346129,-0.1100621744197909
14970,7.0,301.32817,4941.5291,0.0,0.0,0.0,0.0,-0.1492031394697977,0.0,-0.41552511152913557,-0.42718530996990756,-0.6593910450518294,-0.2551770673040158,-1.2237391293986488,-0.16885683220487185
14971,7.0,300.62282999999996,4652.8714,0.0,0.0,0.0,0.0,-0.14921310627938153,0.0,-0.40303615556657163,-0.3833275494614836,-0.6279930285055864,-0.24553330748975077,-1.2211983034478888,-0.14146009977352486
14972,7.0,300.65193999999997,4557.9683,0.0,0.0,0.0,0.0,-0.14922307308896535,0.0,-0.4445141968901356,-0.3602620255100937,-0.5807323384638194,-0.21394481005720878,-1.256024114684929,-0.17628976136094482
14973,7.0,299.98801000000003,4931.3506,0.0,0.0,0.0,0.0,-0.14923303989854916,0.0,-0.4815361162614145,-0.37549412307088464,-0.6419772072432174,-0.24578257714685176,-1.2562056891028488,-0.12475292284965488
14974,7.0,298.97895,5154.4393,0.0,0.0,0.0,0.0,-0.14924300670813298,0.0,-0.49362864825485453,-0.39250473800220165,-0.6806874444611204,-0.2121947042194868,-1.203287486730229,-0.13451948857603988
14975,7.0,299.63676,5046.9885,0.0,0.0,0.0,0.0,-0.1492529735177168,0.0,-0.4421123280580896,-0.42254587080953054,-0.6695002818295334,-0.24435717743617577,-1.186865945009549,-0.13352473029036488
14976,7.0,299.69656000000003,4961.0683,0.0,0.0,0.0,0.0,-0.14926294032730064,0.0,-0.4171012423246876,-0.4175254597440546,-0.6734141832558054,-0.2578680062570908,-1.2049365512679788,-0.15209710813081587
14977,7.0,299.8224,4804.6775,0.0,0.0,0.0,0.0,-0.14927290713688446,0.0,-0.42820709163574955,-0.3891081919444886,-0.6431867137550864,-0.27333905858896473,-1.2327060888086188,-0.15499334168665185
14978,7.0,300.43438,4687.4197,0.0,0.0,0.0,0.0,-0.14928287394646825,0.0,-0.44936954951432156,-0.4023936435456606,-0.5730953610026085,-0.2635457633249418,-1.238707974450959,-0.13392699058006488
14979,7.0,300.59215,4787.4021,0.0,0.0,0.0,0.0,-0.1492928407560521,0.0,-0.4748318963122595,-0.36898141752313063,-0.6114374033991734,-0.22817366842898779,-1.2367357844563187,-0.15223451497687684
14980,7.0,300.3347,4722.0462,0.0,0.0,0.0,0.0,-0.1493028075656359,0.0,-0.44833766574498257,-0.37162453107148563,-0.6154219384899163,-0.24058821130420777,-1.2683675274031287,-0.11477464864737588
14981,7.0,300.37012000000004,4491.1876,0.0,0.0,0.0,0.0,-0.14931277437521975,0.0,-0.3625690743977817,-0.37179372357318363,-0.6308460874746614,-0.2275657892964948,-1.241746306200819,-0.18840169709379984
14982,7.0,300.08416,4791.1582,0.0,0.0,0.0,0.0,-0.14932274118480357,0.0,-0.38759475093262363,-0.40465206656104963,-0.6641456502185723,-0.25253139023290777,-1.2158716476721887,-0.15287752349033684
14983,7.0,301.08616,5158.3304,0.0,0.0,0.0,0.0,-0.14933270799438736,0.0,-0.46670850814054354,-0.42526445122533363,-0.6760306787240333,-0.26208103937788474,-1.1988396227662588,-0.18245802266970482
14984,7.0,301.40641,4964.4295,0.0,0.0,0.0,0.0,-0.1493426748039712,0.0,-0.4755032251660145,-0.4025166926378046,-0.6310426681265624,-0.26008617284600677,-1.2399570078492288,-0.13420927192542387
14985,7.0,300.99416,4605.299,0.0,0.0,0.0,0.0,-0.14935264161355502,0.0,-0.4361844096730496,-0.37656572624414364,-0.5871457657667755,-0.24178410986723375,-1.2407752073049787,-0.13780362466765889
14986,7.0,300.86446,4657.6017,0.0,0.0,0.0,0.0,-0.14936260842313884,0.0,-0.4325858114128956,-0.3565943742556247,-0.6266144206845284,-0.2398629572801308,-1.2218495192871588,-0.1124132186268209
14987,7.0,299.98728,4769.1605,0.0,0.0,0.0,0.0,-0.14937257523272268,0.0,-0.40021589550323367,-0.3855118329670556,-0.6639779573270224,-0.23884750842741376,-1.207574446578319,-0.14749998229461483
14988,7.0,300.31892,4872.9545,0.0,0.0,0.0,0.0,-0.14938254204230647,0.0,-0.4229536431797746,-0.40736950200423966,-0.6509333451421193,-0.2711540354108198,-1.224687126192209,-0.15761659553304683
14989,7.0,299.70094,4964.1692,0.0,0.0,0.0,0.0,-0.1493925088518903,0.0,-0.44689081552968957,-0.4115578118225936,-0.6505348440102904,-0.2785805608262607,-1.2124501047345089,-0.15554291840839085
14990,7.0,298.74147999999997,4983.6092,0.0,0.0,0.0,0.0,-0.14940247566147413,0.0,-0.47866441349049954,-0.4198200760530156,-0.6164082564022585,-0.26257861610449174,-1.1968831381481688,-0.15691630799143386
14991,7.0,299.09307,4788.6462,0.0,0.0,0.0,0.0,-0.14941244247105795,0.0,-0.46424093003951256,-0.3833386952125836,-0.6080492470522885,-0.25823719406352674,-1.2088833630574989,-0.13807420297436288
14992,7.0,300.33549,4913.8842,0.0,0.0,0.0,0.0,-0.14942240928064177,0.0,-0.44932240298716863,-0.3812007273690826,-0.6631749768877744,-0.26814157193601273,-1.2592061252989688,-0.13824406422112687
14993,7.0,300.88861,4736.6981,0.0,0.0,0.0,0.0,-0.14943237609022558,0.0,-0.3870927868330836,-0.37384275845540765,-0.6789024118924514,-0.24133807717321376,-1.2526808959799787,-0.15519735959428685
14994,7.0,300.89525,4469.5117,0.0,0.0,0.0,0.0,-0.1494423428998094,0.0,-0.37856580088153563,-0.3510310739190697,-0.6290230681597434,-0.23212855582180478,-1.2339908899354188,-0.13729688816014787
14995,7.0,299.80728,4581.9356,0.0,0.0,0.0,0.0,-0.14945230970939322,0.0,-0.4150253765798156,-0.36722869750015064,-0.6105399373881004,-0.21110246114169082,-1.199728749729009,-0.18838869709501682
14996,7.0,299.91166,4978.8908,0.0,0.0,0.0,0.0,-0.14946227651897706,0.0,-0.5203388024184414,-0.36826593123001766,-0.6248537466482634,-0.25336077596976175,-1.230569043022709,-0.12131540095789789
14997,7.0,299.63597999999996,4999.1166,0.0,0.0,0.0,0.0,-0.14947224332856088,0.0,-0.4806808926470106,-0.40182038716908464,-0.6371053285099004,-0.2348568026435618,-1.2538967960999787,-0.14546833478410684
14998,7.0,299.14619,4829.9648,0.0,0.0,0.0,0.0,-0.14948221013814467,0.0,-0.4488050172211066,-0.36548516765557765,-0.6538985101022584,-0.2501411839095128,-1.2416365712149888,-0.11808259611634488
14999,7.0,299.7533,5094.3924,0.0,0.0,0.0,0.0,-0.1494921769477285,0.0,-0.42089017961612657,-0.41682992434541066,-0.7108479685277324,-0.25755404058110476,-1.237725628479009,-0.14883469612134087
15000,7.0,299.13191,4941.7402,0.0,0.0,0.0,0.0,-0.14950214375731233,0.0,-0.4385643923029356,-0.39567628174270864,-0.6679249717665623,-0.2627537361192747,-1.2570944107655588,-0.14290711210883386
15001,7.0,299.57022,4670.0906,0.0,0.0,0.0,0.0,-0.14951211056689617,0.0,-0.3932639561696306,-0.3959018008174656,-0.6304251631181194,-0.2701632389330358,-1.2510215976162187,-0.16433599396869983
15002,7.0,301.0584,4587.7055,0.0,0.0,0.0,0.0,-0.14952207737648,0.0,-0.4560741443660135,-0.3476903579418667,-0.5907834045532825,-0.22888988426217277,-1.2302509838163187,-0.14197099060644588
15003,7.0,300.50618,4474.5509,0.0,0.0,0.0,0.0,-0.14953204418606378,0.0,-0.39080093769404967,-0.37011119138463067,-0.5992396149853454,-0.22216425433840475,-1.2239124964907588,-0.15226837779521885
15004,7.0,299.72854,4495.0841,0.0,0.0,0.0,0.0,-0.14954201099564762,0.0,-0.38991760652187163,-0.34381072463397666,-0.6326649828616724,-0.2277863434457618,-1.253234029209569,-0.15915251043212986
15005,7.0,299.87209,5020.5773,0.0,0.0,0.0,0.0,-0.14955197780523144,0.0,-0.4251721441412236,-0.3972364234516826,-0.7037215576594104,-0.24378879479258078,-1.2719721646338789,-0.15834013716445486
15006,7.0,299.55012999999997,5170.8296,0.0,0.0,0.0,0.0,-0.14956194461481526,0.0,-0.48049842656900255,-0.4101260995637946,-0.6811785465195883,-0.2542971102546707,-1.2245641176300688,-0.17250956841786885
15007,7.0,299.89628999999996,4902.7874,0.0,0.0,0.0,0.0,-0.1495719114243991,0.0,-0.45886035922599155,-0.38259963058964364,-0.6488649571829854,-0.2295486994771928,-1.2011899576982188,-0.17090586708709582
15008,7.0,300.91483999999997,5002.6796,0.0,0.0,0.0,0.0,-0.1495818782339829,0.0,-0.5109698866938015,-0.37966021231454566,-0.6300595926145404,-0.2517009405834488,-1.2318622541253388,-0.14543678217599287
15009,7.0,300.51198999999997,4860.0033,0.0,0.0,0.0,0.0,-0.1495918450435667,0.0,-0.45935131942944557,-0.37093302840823966,-0.6470352909474114,-0.23180870316273777,-1.2340648571927186,-0.13012144611948687
15010,7.0,300.12793,4594.0075,0.0,0.0,0.0,0.0,-0.14960181185315055,0.0,-0.4047957150277266,-0.34864321833590667,-0.6430246140040884,-0.22119267921501778,-1.239624155191379,-0.1110315710554629
15011,7.0,299.97123999999997,4740.1588,0.0,0.0,0.0,0.0,-0.14961177866273437,0.0,-0.37682339574457363,-0.37282120983708866,-0.6912453179856013,-0.2220610142857158,-1.2443207720548988,-0.15060298979835787
15012,7.0,299.01754,5049.4276,0.0,0.0,0.0,0.0,-0.14962174547231818,0.0,-0.45695142643509457,-0.4005954589906936,-0.6773530207670384,-0.2430085922155808,-1.2625741686313687,-0.12891794818071087
15013,7.0,298.53044,5040.4988,0.0,0.0,0.0,0.0,-0.149631712281902,0.0,-0.4468087625365916,-0.4098556023170986,-0.6755214090912723,-0.2091589663898828,-1.241058917332979,-0.16271072054329785
15014,7.0,299.09442,5012.5847,0.0,0.0,0.0,0.0,-0.14964167909148582,0.0,-0.4892550555232145,-0.4073595417557566,-0.6270859974135694,-0.24435810962626778,-1.207703635966069,-0.1200326567288009
15015,7.0,299.77077,4995.2084,0.0,0.0,0.0,0.0,-0.14965164590106964,0.0,-0.44053721051263756,-0.41412238835569765,-0.6637590345104163,-0.22702815879343477,-1.1991409633459988,-0.15316697864640386
15016,7.0,300.8136,4797.3964,0.0,0.0,0.0,0.0,-0.14966161271065348,0.0,-0.4278843917439016,-0.36299205565202664,-0.6674122672159624,-0.25460282807484275,-1.236316400239929,-0.1286721235739499
15017,7.0,299.80946,4685.5937,0.0,0.0,0.0,0.0,-0.1496715795202373,0.0,-0.3951183862376486,-0.37332649739695667,-0.6558585917582034,-0.24378171217438177,-1.2309897444642288,-0.17960644304577583
15018,7.0,299.46008,4836.6741,0.0,0.0,0.0,0.0,-0.14968154632982109,0.0,-0.47024554132462154,-0.38904067909032564,-0.6109419342327744,-0.24827051144239176,-1.2279859645427789,-0.14539911966977587
15019,7.0,299.79299,4836.2843,0.0,0.0,0.0,0.0,-0.14969151313940493,0.0,-0.46659429458927154,-0.3903677428787966,-0.6131476378454603,-0.23792294810866677,-1.2076060599814387,-0.16788289620875183
15020,7.0,300.39392999999995,4796.3679,0.0,0.0,0.0,0.0,-0.14970147994898875,0.0,-0.46653292203071456,-0.3922700692790416,-0.5991730951162805,-0.26293597928226076,-1.230401552781179,-0.13428026022742987
15021,7.0,299.56363,4785.978,0.0,0.0,0.0,0.0,-0.1497114467585726,0.0,-0.40753361812293665,-0.38775670882860763,-0.6595274791777943,-0.22756225305364577,-1.2400269221061289,-0.16143982120786984
15022,7.0,300.07122000000004,4908.231,0.0,0.0,0.0,0.0,-0.14972141356815638,0.0,-0.4037459676591246,-0.4036821430353256,-0.6845515547774784,-0.24850734852076575,-1.1934803403373386,-0.11420769468642189
15023,7.0,299.28693,4747.0470000000005,0.0,0.0,0.0,0.0,-0.1497313803777402,0.0,-0.39762014126455264,-0.36880049158527467,-0.6765631315190823,-0.21685394228681779,-1.2176811097007687,-0.17694152435526883
15024,7.0,299.03927999999996,5022.3777,0.0,0.0,0.0,0.0,-0.14974134718732404,0.0,-0.4528323621285746,-0.40322477207268664,-0.6706202676950673,-0.24719711481645576,-1.2598624073887388,-0.13625919846773588
15025,7.0,299.47494,5000.946,0.0,0.0,0.0,0.0,-0.14975131399690786,0.0,-0.48632839406687556,-0.3866239965418176,-0.6472103197696853,-0.23834548353286775,-1.2533709192980789,-0.16344144611791483
15026,7.0,299.61055,4650.0509,0.0,0.0,0.0,0.0,-0.14976128080649168,0.0,-0.4355728524426936,-0.36390412259704064,-0.6140223665242894,-0.25202701459812976,-1.2163496990693687,-0.1078949439134019
15027,7.0,299.90974,4655.9474,0.0,0.0,0.0,0.0,-0.1497712476160755,0.0,-0.4078129306455026,-0.3758185353554016,-0.6316602744600154,-0.24567035969827675,-1.196496988535059,-0.14339633965461687
15028,7.0,300.83488,5045.4501,0.0,0.0,0.0,0.0,-0.1497812144256593,0.0,-0.46296627154621356,-0.38092022934389963,-0.6898043446208884,-0.2886367438287287,-1.2290436963221687,-0.12203255911367589
15029,7.0,300.69912999999997,5000.2922,0.0,0.0,0.0,0.0,-0.14979118123524313,0.0,-0.44325148461551556,-0.3965660166555186,-0.6801464803652313,-0.25541958871545073,-1.2348039218156588,-0.16482243507670785
15030,7.0,300.14955,5038.226,0.0,0.0,0.0,0.0,-0.14980114804482697,0.0,-0.5050709573941226,-0.3996503499599186,-0.6267735921427374,-0.2648641131625527,-1.2108519053517788,-0.16317512346163085
15031,7.0,300.80295,5110.0740000000005,0.0,0.0,0.0,0.0,-0.1498111148544108,0.0,-0.49242830152388956,-0.4096002227618946,-0.6513063832989354,-0.24024429395526578,-1.2479635074894089,-0.16129846268641884
15032,7.0,299.1034,4627.5461,0.0,0.0,0.0,0.0,-0.1498210816639946,0.0,-0.4270456841061276,-0.34914509124293763,-0.6304676993573174,-0.25987571066773574,-1.269378548352909,-0.13858012888179386
15033,7.0,299.29837000000003,4627.0473,0.0,0.0,0.0,0.0,-0.14983104847357842,0.0,-0.3578987615068577,-0.3875748304356576,-0.6610332296214003,-0.2274138727090018,-1.2365716379401186,-0.14017386996408387
15034,7.0,299.02682000000004,4760.2025,0.0,0.0,0.0,0.0,-0.14984101528316224,0.0,-0.4062271841065016,-0.37708751964814063,-0.6636679939889314,-0.2293797400230178,-1.1900439026231888,-0.12015099420797988
15035,7.0,299.59085,4742.0517,0.0,0.0,0.0,0.0,-0.14985098209274605,0.0,-0.4006579866543646,-0.3900228426772576,-0.6507844683049263,-0.24119159160625678,-1.191258485518059,-0.14898912556908186
15036,7.0,300.1764,4876.4708,0.0,0.0,0.0,0.0,-0.14986094890232987,0.0,-0.48967649663730756,-0.4080704886884216,-0.5845783622658924,-0.26589279506157576,-1.2429366724182989,-0.16855443784502783
15037,7.0,300.29229,4980.9139,0.0,0.0,0.0,0.0,-0.14987091571191372,0.0,-0.4974836190553105,-0.3821977046724766,-0.6343921487171303,-0.25753626817435077,-1.2535423612149987,-0.16710491264947086
15038,7.0,300.03969,4902.2819,0.0,0.0,0.0,0.0,-0.1498808825214975,0.0,-0.45440011334579955,-0.42024595520254665,-0.6155252292051104,-0.24484198721152278,-1.2074367458897288,-0.15420676576652284
15039,7.0,301.48113,4811.7439,0.0,0.0,0.0,0.0,-0.14989084933108135,0.0,-0.3969516191135746,-0.3981330788626756,-0.6675652983785654,-0.23586888750594678,-1.2374923783059886,-0.13644526158359888
15040,7.0,300.83723,4980.9966,0.0,0.0,0.0,0.0,-0.14990081614066517,0.0,-0.4401156275435306,-0.4056654078535586,-0.6683175352528054,-0.2748916718496957,-1.2422931572797888,-0.16038700369146486
15041,7.0,299.86469,5047.4813,0.0,0.0,0.0,0.0,-0.14991078295024898,0.0,-0.4361292686026076,-0.40617832518667957,-0.6920006756701493,-0.24214538419038878,-1.227463431466209,-0.13455479020952385
15042,7.0,299.92469,4673.7211,0.0,0.0,0.0,0.0,-0.1499207497598328,0.0,-0.46296151940324454,-0.37209388878280764,-0.5856391033980796,-0.23142543117991177,-1.2070731917538489,-0.17307311785848684
15043,7.0,299.64137999999997,4670.884,0.0,0.0,0.0,0.0,-0.14993071656941662,0.0,-0.40889961098024963,-0.38648015555762166,-0.6244523374886475,-0.23320035151258278,-1.2547375910329588,-0.13967594873244288
15044,7.0,300.29875,4852.7981,0.0,0.0,0.0,0.0,-0.14994068337900043,0.0,-0.4438453403666246,-0.3861692498969376,-0.6451148375028773,-0.23977648651659678,-1.2721782597042186,-0.12301989027611787
15045,7.0,300.29927999999995,4822.0799,0.0,0.0,0.0,0.0,-0.14995065018858425,0.0,-0.38453235449288864,-0.3923529227397186,-0.6889066151647893,-0.24767289653341173,-1.2399982471282989,-0.11319096913857889
15046,7.0,299.58585,4829.8492,0.0,0.0,0.0,0.0,-0.1499606169981681,0.0,-0.4072502222024676,-0.4082681636504306,-0.6526351797450775,-0.2377509691691938,-1.1810612378366687,-0.15209975271357687
15047,7.0,301.0595,5002.1587,0.0,0.0,0.0,0.0,-0.1499705838077519,0.0,-0.45485429257062354,-0.3937286225329897,-0.6719484156611454,-0.23951614203590277,-1.2191942974001089,-0.13751800972947087
15048,7.0,299.70892000000003,4654.338,0.0,0.0,0.0,0.0,-0.1499805506173357,0.0,-0.49137838190277056,-0.3618962256688767,-0.5615279154759905,-0.24548017265450675,-1.2598092117584887,-0.17071147505541082
15049,7.0,298.89727,4476.7506,0.0,0.0,0.0,0.0,-0.14999051742691955,0.0,-0.42146231128509165,-0.36203689518025967,-0.5773212016046665,-0.21540236019355777,-1.2665815727768688,-0.17476285425525084
15050,7.0,299.91146000000003,4654.482,0.0,0.0,0.0,0.0,-0.15000048423650336,0.0,-0.4321070608731466,-0.37143586390286565,-0.6113033909409474,-0.1976007819691788,-1.222729526999009,-0.15757279273122385
15051,7.0,300.63597000000004,4653.7399,0.0,0.0,0.0,0.0,-0.1500104510460872,0.0,-0.37866348832367663,-0.36700867024093564,-0.6689485671500833,-0.2139976915799278,-1.2441466956877187,-0.12264431899405187
15052,7.0,300.45837,4659.1798,0.0,0.0,0.0,0.0,-0.15002041785567102,0.0,-0.37409248407505363,-0.39107152613325463,-0.6511103194045854,-0.25749786599556074,-1.2492562119669888,-0.13227676080469988
15053,7.0,299.36831,4846.6859,0.0,0.0,0.0,0.0,-0.1500303846652548,0.0,-0.45075332491088954,-0.36230529499924863,-0.6602128618104364,-0.2911264715769457,-1.2236062923105386,-0.11657472798002988
15054,7.0,299.32917000000003,4917.7682,0.0,0.0,0.0,0.0,-0.15004035147483863,0.0,-0.4619127244897365,-0.4123441952252036,-0.6206218164131043,-0.27193700416059274,-1.172346172401559,-0.15752008346102186
15055,7.0,300.2541,4843.1214,0.0,0.0,0.0,0.0,-0.15005031828442247,0.0,-0.4324230631818336,-0.4037900947009796,-0.6359748149758274,-0.24691156067327377,-1.206567377303929,-0.14749764168688387
15056,7.0,299.26412,4936.5175,0.0,0.0,0.0,0.0,-0.1500602850940063,0.0,-0.45112847062791356,-0.4040026948369616,-0.6454468694281463,-0.2308937991174438,-1.246260639371349,-0.16101482358592584
15057,7.0,298.15405,4891.6635,0.0,0.0,0.0,0.0,-0.15007025190359014,0.0,-0.43356693135222457,-0.3803277921429306,-0.6730488559322503,-0.2106634806683668,-1.2572831792591888,-0.13267199927120688
15058,7.0,299.68385,4558.5373,0.0,0.0,0.0,0.0,-0.15008021871317392,0.0,-0.3874583269391596,-0.36866428037433163,-0.6295588849451244,-0.22719250795965476,-1.2277951695489489,-0.16565114193599484
15059,7.0,299.87484,4579.3038,0.0,0.0,0.0,0.0,-0.15009018552275774,0.0,-0.42481802336377456,-0.35564632679955965,-0.6115296598207784,-0.2240166173762188,-1.2736462564490987,-0.13424733973168088
15060,7.0,300.44375,5019.9955,0.0,0.0,0.0,0.0,-0.15010015233234159,0.0,-0.4862709630512075,-0.3968006043186706,-0.6428817153424854,-0.2672099695290707,-1.279063091483699,-0.14917436795236386
15061,7.0,300.29552,4923.4595,0.0,0.0,0.0,0.0,-0.1501101191419254,0.0,-0.4455870868910216,-0.3834532431363886,-0.6675684191888733,-0.2470297664299398,-1.262968221595259,-0.13637299658646687
15062,7.0,300.39322999999996,4788.226,0.0,0.0,0.0,0.0,-0.15012008595150922,0.0,-0.4130701078618456,-0.41390921066715863,-0.6285218133352733,-0.2406477701450858,-1.2441651368395388,-0.17823912283083182
15063,7.0,300.63462999999996,5013.0276,0.0,0.0,0.0,0.0,-0.15013005276109304,0.0,-0.41465184193045057,-0.39274769511117963,-0.7164356577941943,-0.24978841075469677,-1.2298004928218589,-0.1153223609889309
15064,7.0,300.02442,4964.6791,0.0,0.0,0.0,0.0,-0.15014001957067685,0.0,-0.44560679460546654,-0.40160277144510764,-0.6619289021797964,-0.24962174124574774,-1.2569261099239488,-0.15024333667536285
15065,7.0,300.2908,4764.5998,0.0,0.0,0.0,0.0,-0.15014998638026067,0.0,-0.4399987694094976,-0.38004562225508265,-0.6282749754784124,-0.2361976061033888,-1.220123954366859,-0.13800448123498188
15066,7.0,300.04157000000004,4737.5282,0.0,0.0,0.0,0.0,-0.15015995318984451,0.0,-0.46565787924435453,-0.38893173443957363,-0.5855006630369165,-0.25024173884943673,-1.193717643510759,-0.19088178883356582
15067,7.0,300.09168999999997,4711.8375,0.0,0.0,0.0,0.0,-0.15016991999942833,0.0,-0.41095149309525464,-0.4023728009911036,-0.6189566513312653,-0.25174967791325875,-1.2210099402542989,-0.16129618287369385
15068,7.0,299.8471,4642.0417,0.0,0.0,0.0,0.0,-0.15017988680901212,0.0,-0.40233371993474665,-0.3804631420912887,-0.6282679029927144,-0.2736676353313927,-1.2526564766525687,-0.2052412044807298
15069,7.0,299.47342000000003,5041.659000000001,0.0,0.0,0.0,0.0,-0.15018985361859596,0.0,-0.4549550197630645,-0.38031153961132663,-0.6972718762678763,-0.27219170483822974,-1.2703375895725588,-0.13427293442920687
15070,7.0,299.4971,5087.3675,0.0,0.0,0.0,0.0,-0.15019982042817978,0.0,-0.49531860756664053,-0.39263168810723065,-0.6584823826271513,-0.24702539932200876,-1.2441175140848386,-0.16299179612103784
15071,7.0,299.73315,4816.8464,0.0,0.0,0.0,0.0,-0.15020978723776363,0.0,-0.4506508245307736,-0.36386099867278465,-0.6496892158743334,-0.28091765257941376,-1.2374521522770188,-0.11232219837033788
15072,7.0,299.05922999999996,5026.7988,0.0,0.0,0.0,0.0,-0.15021975404734744,0.0,-0.4598626864899136,-0.4155631590703906,-0.6525954806061594,-0.22790408310738175,-1.252580381570059,-0.15839768977013485
15073,7.0,299.29819,5338.165,0.0,0.0,0.0,0.0,-0.15022972085693123,0.0,-0.47462794933213154,-0.4225482519472656,-0.7254926546080502,-0.2487623633059338,-1.2182166123786187,-0.10405992400741491
15074,7.0,300.62047,5015.102,0.0,0.0,0.0,0.0,-0.15023968766651508,0.0,-0.4229121911181836,-0.4207057275679226,-0.6808478723494533,-0.2176598206213518,-1.2112817260441988,-0.17182397300270585
15075,7.0,299.78652,4637.2521,0.0,0.0,0.0,0.0,-0.1502496544760989,0.0,-0.36468156913376865,-0.38190087305568166,-0.6630264141581124,-0.24698959106347476,-1.2353154104661388,-0.1172806491921989
15076,7.0,299.79382000000004,4730.5545,0.0,0.0,0.0,0.0,-0.1502596212856827,0.0,-0.4504961924330126,-0.34300966936991867,-0.6444645741187014,-0.25655480372998773,-1.2562933352364987,-0.15306868325420286
15077,7.0,299.65305,4985.6215,0.0,0.0,0.0,0.0,-0.15026958809526655,0.0,-0.4625893526415146,-0.39249127190837263,-0.6604238103487554,-0.22747115173715476,-1.2549587835297888,-0.13374789862488987
15078,7.0,300.4309,4960.4318,0.0,0.0,0.0,0.0,-0.15027955490485034,0.0,-0.4563320570464676,-0.4131172645214996,-0.6383980836499854,-0.23591740192073477,-1.2327345611364289,-0.18024438530873582
15079,7.0,300.30189,4946.399,0.0,0.0,0.0,0.0,-0.15028952171443416,0.0,-0.41792368729835655,-0.40114762963268863,-0.6845104573534224,-0.25130375667674976,-1.210074235900029,-0.1261389881914489
15080,7.0,298.77969,4834.1719,0.0,0.0,0.0,0.0,-0.150299488524018,0.0,-0.4225579892807266,-0.38927960346390567,-0.6576299454505224,-0.25160733653921075,-1.2454100159123989,-0.15710388084994584
15081,7.0,299.55287999999996,4932.1384,0.0,0.0,0.0,0.0,-0.15030945533360182,0.0,-0.44333231157599257,-0.3733774841419886,-0.6825371122536683,-0.2525409249163488,-1.217445326402499,-0.13876661756269887
15082,7.0,300.40382999999997,5108.1693,0.0,0.0,0.0,0.0,-0.15031942214318564,0.0,-0.5156108761268315,-0.3958637026137056,-0.6412813476045414,-0.21839513621892176,-1.2302697289431688,-0.15722617000451483
15083,7.0,299.25158999999996,4884.0073,0.0,0.0,0.0,0.0,-0.15032938895276945,0.0,-0.45296044707371563,-0.38597282123255167,-0.6456829972314504,-0.2220488248870128,-1.2314074061554487,-0.14843929553481786
15084,7.0,299.05829,4477.8642,0.0,0.0,0.0,0.0,-0.15033935576235327,0.0,-0.39363955784919963,-0.3508312407343477,-0.6166881059473774,-0.22760293504516077,-1.2519922912120187,-0.15691415990122184
15085,7.0,299.46617000000003,4694.2135,0.0,0.0,0.0,0.0,-0.1503493225719371,0.0,-0.38815433856535064,-0.3906102440252296,-0.6481591170308244,-0.24330680185251177,-1.2433964853136787,-0.12869205420341687
15086,7.0,299.2412,4946.6886,0.0,0.0,0.0,0.0,-0.15035928938152093,0.0,-0.4314975301429906,-0.38113603135019763,-0.6910362642249693,-0.2376704157862438,-1.203843051760059,-0.15011685266537983
15087,7.0,301.01676000000003,4800.3306,0.0,0.0,0.0,0.0,-0.15036925619110475,0.0,-0.44170424158031457,-0.37810703163375864,-0.6393693750633443,-0.2515834238368508,-1.2269868999441789,-0.11726526805568088
15088,7.0,300.13993,4684.5348,0.0,0.0,0.0,0.0,-0.15037922300068854,0.0,-0.4526365110167456,-0.3728267725801377,-0.5985183430341614,-0.2517082055866658,-1.2749093740237587,-0.13064498231365587
15089,7.0,299.9384,4964.8151,0.0,0.0,0.0,0.0,-0.15038918981027238,0.0,-0.5018794323616435,-0.3644325426566916,-0.6428678540811174,-0.26398137980793374,-1.243249260074149,-0.13074290280331988
15090,7.0,300.64024,5212.3638,0.0,0.0,0.0,0.0,-0.1503991566198562,0.0,-0.4725992605119156,-0.4502984262784946,-0.6615307455530013,-0.24048241786126676,-1.2616731866424489,-0.16906984777339484
15091,7.0,300.35754,5051.7761,0.0,0.0,0.0,0.0,-0.15040912342944004,0.0,-0.4465026090188766,-0.4080776422341276,-0.6810335504302784,-0.24186433901015175,-1.2313325269730588,-0.13769171119411386
15092,7.0,299.86082000000005,4970.9806,0.0,0.0,0.0,0.0,-0.15041909023902386,0.0,-0.4150153656688276,-0.3972868731741616,-0.6987517280389264,-0.25768750588427675,-1.2504601557358088,-0.13383763205374588
15093,7.0,299.57244,4637.7479,0.0,0.0,0.0,0.0,-0.15042905704860765,0.0,-0.41568186131960566,-0.37911345242808464,-0.6149642432872454,-0.2168857988699618,-1.2239339773928788,-0.15408492244199787
15094,7.0,299.33117000000004,4703.2322,0.0,0.0,0.0,0.0,-0.1504390238581915,0.0,-0.45109484085709456,-0.36621655184275964,-0.6123537462596094,-0.24292775512260276,-1.2342767277886288,-0.14571432151088387
15095,7.0,299.38102000000003,5104.237,0.0,0.0,0.0,0.0,-0.15044899066777528,0.0,-0.4711089722648355,-0.43169359403734053,-0.6487580187674313,-0.20025535537616482,-1.240806415408059,-0.17932231758523484
15096,7.0,298.77237,4913.8948,0.0,0.0,0.0,0.0,-0.15045895747735913,0.0,-0.4327705167736246,-0.4086270365708486,-0.6523037760348704,-0.23789395902330576,-1.2943607361934588,-0.14087254643803784
15097,7.0,298.97732,4531.3782,0.0,0.0,0.0,0.0,-0.15046892428694295,0.0,-0.37382675923632863,-0.3872222599308616,-0.6163767949866534,-0.24799421840512378,-1.2284055514091887,-0.17234709376433383
15098,7.0,299.77117000000004,4772.5193,0.0,0.0,0.0,0.0,-0.15047889109652676,0.0,-0.3969779028211686,-0.41042760226355063,-0.6433211923083584,-0.23545564358516274,-1.2259544994172888,-0.13521015024170288
15099,7.0,299.49407,4958.2897,0.0,0.0,0.0,0.0,-0.15048885790611058,0.0,-0.47191419198680457,-0.40064213942280064,-0.6346399390290853,-0.26520604454129876,-1.219497157854999,-0.15315753515547184
15100,7.0,300.33607,4978.096,0.0,0.0,0.0,0.0,-0.15049882471569442,0.0,-0.4947956489250286,-0.39014837423214666,-0.6282728476532025,-0.2482644826042968,-1.2833201604538387,-0.11559186525052888
15101,7.0,300.78597,4913.0356,0.0,0.0,0.0,0.0,-0.1505087915252782,0.0,-0.47469228058098056,-0.40452776103878163,-0.6142201022813044,-0.22926682343187377,-1.2816926781432187,-0.18448802871505082
15102,7.0,299.78019,4799.4504,0.0,0.0,0.0,0.0,-0.15051875833486206,0.0,-0.4322682284340526,-0.3919516351701146,-0.6346931954543413,-0.23077669780338675,-1.2648744490083887,-0.15782353160096987
15103,7.0,299.92289,4740.7125,0.0,0.0,0.0,0.0,-0.15052872514444585,0.0,-0.3945130199654036,-0.4083938573253356,-0.6381513572506354,-0.25593114829343777,-1.237402908322159,-0.17531612933985483
15104,7.0,300.85836,5103.571,0.0,0.0,0.0,0.0,-0.1505386919540297,0.0,-0.42089631991173265,-0.4132353993506586,-0.7172264083047354,-0.2599260691977057,-1.219163899897109,-0.13786346721856488
15105,7.0,300.1204,5103.5834,0.0,0.0,0.0,0.0,-0.1505486587636135,0.0,-0.4722018536901946,-0.4121187268129516,-0.6670413366193543,-0.25884200304821675,-1.1803755714939987,-0.12911304948746588
15106,7.0,300.09798,4727.6257,0.0,0.0,0.0,0.0,-0.15055862557319735,0.0,-0.4222857999063636,-0.38812356615981364,-0.6266707979200924,-0.24216227506955576,-1.1994198097735187,-0.14025562911465286
15107,7.0,299.50364,4600.3342,0.0,0.0,0.0,0.0,-0.15056859238278117,0.0,-0.42048626772876363,-0.36072487815577364,-0.6171755907029884,-0.2380073113119928,-1.2401302736163289,-0.15190343550670185
15108,7.0,298.92013,5050.9909,0.0,0.0,0.0,0.0,-0.15057855919236496,0.0,-0.47565761408375157,-0.39086987923085365,-0.6688476271751214,-0.25552604077095675,-1.2936088032942488,-0.12820185393753789
15109,7.0,299.89105,5149.7105,0.0,0.0,0.0,0.0,-0.15058852600194877,0.0,-0.46932502387377356,-0.4170035042200416,-0.6790548857674994,-0.22902002610501676,-1.270893053277379,-0.15875902488829585
15110,7.0,300.83745,4884.0312,0.0,0.0,0.0,0.0,-0.15059849281153262,0.0,-0.4392842051739756,-0.3784475140648616,-0.6668918113020973,-0.2237229876297398,-1.2577766320578887,-0.15071704122961385
15111,7.0,300.42712,4753.1687,0.0,0.0,0.0,0.0,-0.15060845962111644,0.0,-0.4101255524087406,-0.4078695611935916,-0.6268494744427264,-0.24205274273374577,-1.239413703145609,-0.14963700781552286
15112,7.0,300.04241,4699.4971,0.0,0.0,0.0,0.0,-0.15061842643070028,0.0,-0.41816241915441754,-0.3763466919700266,-0.6340206608329674,-0.26173869256659776,-1.2397949891582387,-0.13699375412773088
15113,7.0,300.64641,4996.8712,0.0,0.0,0.0,0.0,-0.15062839324028407,0.0,-0.44456228573988155,-0.4344893131832566,-0.6398724740029963,-0.23911745851905578,-1.232770024889929,-0.19226867490794083
15114,7.0,299.7012,4980.4466,0.0,0.0,0.0,0.0,-0.15063836004986791,0.0,-0.4812382004670125,-0.4007900638048996,-0.6319031403764844,-0.2273220519849398,-1.214878054624129,-0.17990543288528382
15115,7.0,299.90944,4664.6502,0.0,0.0,0.0,0.0,-0.1506483268594517,0.0,-0.38955193469328264,-0.39243782296559765,-0.6359474065606223,-0.2506471402144468,-1.2158841106484186,-0.16898780491279783
15116,7.0,300.42682,4493.9272,0.0,0.0,0.0,0.0,-0.15065829366903555,0.0,-0.38298839438801163,-0.35725043343037266,-0.6258028276194304,-0.27177024345913475,-1.2400284419812788,-0.1182971822225229
15117,7.0,300.19558,4940.6402,0.0,0.0,0.0,0.0,-0.15066826047861936,0.0,-0.4537005148142546,-0.38436075045595264,-0.6637699978764984,-0.26624100859094174,-1.202634953665829,-0.13535533884853188
15118,7.0,299.53753,5173.8958,0.0,0.0,0.0,0.0,-0.15067822728820318,0.0,-0.4910429150596625,-0.40039397420830863,-0.6812982214888994,-0.2515767971811968,-1.187975149894019,-0.13734486555238287
15119,7.0,300.77443999999997,4730.7106,0.0,0.0,0.0,0.0,-0.150688194097787,0.0,-0.4417958697868576,-0.38391013787148065,-0.6123118888979784,-0.23885233149788976,-1.2340094324122488,-0.14870623627366286
15120,7.0,300.26858,4536.2225,0.0,0.0,0.0,0.0,-0.15069816090737084,0.0,-0.43005489504811356,-0.3539654968711746,-0.5948779684723845,-0.2752009056477147,-1.2878654990774288,-0.14820717006940887
15121,7.0,299.5387,4959.9216,0.0,0.0,0.0,0.0,-0.15070812771695463,0.0,-0.4432279468156926,-0.40034185262316463,-0.6641225278512903,-0.2319566376773378,-1.2822055853438385,-0.17265569934729083
15122,7.0,298.95104,5145.3369,0.0,0.0,0.0,0.0,-0.15071809452653848,0.0,-0.47109625597608057,-0.4038917540835126,-0.6890659284780124,-0.23793153033701375,-1.2570114255823688,-0.15201743627545286
15123,7.0,299.11367,4907.6695,0.0,0.0,0.0,0.0,-0.15072806133612227,0.0,-0.4488259611006736,-0.37515915272032563,-0.6678238696715844,-0.2161253850674148,-1.2421841315690287,-0.13470939190978187
15124,7.0,300.23793,4736.1283,0.0,0.0,0.0,0.0,-0.1507380281457061,0.0,-0.4045472458382046,-0.3757801027791086,-0.6593374035915354,-0.2557494826830088,-1.2431884650681488,-0.11480272580764689
15125,7.0,301.13448999999997,4664.9848,0.0,0.0,0.0,0.0,-0.15074799495528993,0.0,-0.4319663913617636,-0.36718591808092865,-0.6188865952193514,-0.23832947418128778,-1.2123232458219888,-0.16662637489224286
15126,7.0,300.17857000000004,4960.1652,0.0,0.0,0.0,0.0,-0.15075796176487377,0.0,-0.45507512029741753,-0.40298060919608963,-0.6497106461139484,-0.23938921219587575,-1.2128706035260088,-0.16790207703314483
15127,7.0,300.00525,5128.8811,0.0,0.0,0.0,0.0,-0.1507679285744576,0.0,-0.4600794814813095,-0.4339073225908186,-0.6650649821668034,-0.2398015441915698,-1.2366478343476388,-0.1851479483726798
15128,7.0,299.42229,4691.0233,0.0,0.0,0.0,0.0,-0.15077789538404138,0.0,-0.40408266053485364,-0.3721772995310397,-0.6496939984148054,-0.27762986878743473,-1.2644429057907989,-0.11828468884878988
15129,7.0,300.23211000000003,4509.2593,0.0,0.0,0.0,0.0,-0.1507878621936252,0.0,-0.3836604223843356,-0.3798053299938677,-0.6072364684845735,-0.24420167394332876,-1.2604631633730288,-0.18332735072550083
15130,7.0,299.86745,4992.1754,0.0,0.0,0.0,0.0,-0.15079782900320904,0.0,-0.43711908222779455,-0.4165770981804586,-0.6638004865720073,-0.23588698415273276,-1.2111431134305188,-0.13791074546823087
15131,7.0,298.49379,5074.152,0.0,0.0,0.0,0.0,-0.15080779581279286,0.0,-0.4838694184591935,-0.4180890193171736,-0.6404570686481914,-0.23217595566148277,-1.2386509284703289,-0.17003497862614586
15132,7.0,299.07012000000003,4904.9787,0.0,0.0,0.0,0.0,-0.1508177626223767,0.0,-0.4336339071838346,-0.38886657232564265,-0.6684905578398813,-0.24178938890025478,-1.263676990040209,-0.12970794888617787
15133,7.0,300.57959,4826.5626,0.0,0.0,0.0,0.0,-0.1508277294319605,0.0,-0.4222308817509436,-0.39041911465886664,-0.6545045248545673,-0.24068192680595676,-1.261115899087449,-0.18207655427205682
15134,7.0,299.88145,4797.7877,0.0,0.0,0.0,0.0,-0.15083769624154433,0.0,-0.44670610003645955,-0.35123190008888966,-0.6604696497832794,-0.22876962160780379,-1.253280537389159,-0.1129082419631759
15135,7.0,300.22332,4836.9499,0.0,0.0,0.0,0.0,-0.15084766305112812,0.0,-0.4503884535498796,-0.3452165179552177,-0.6747070093233973,-0.22747436373997176,-1.2595125321292089,-0.13911582407716286
15136,7.0,299.86234,4942.3992,0.0,0.0,0.0,0.0,-0.15085762986071197,0.0,-0.4399546525001436,-0.37104165895146063,-0.6913696336403703,-0.23253126194154877,-1.2488412860510387,-0.1018237924942259
15137,7.0,299.54979,4885.4816,0.0,0.0,0.0,0.0,-0.15086759667029578,0.0,-0.4528804003158156,-0.38947592067078063,-0.6427080848053494,-0.2493633624702478,-1.2367538203080988,-0.14304570445751186
15138,7.0,301.01599999999996,5065.5934,0.0,0.0,0.0,0.0,-0.1508775634798796,0.0,-0.44731184121124157,-0.4212105591652456,-0.6712914850913113,-0.2737384817783847,-1.1885746899781888,-0.16517303987630985
15139,7.0,300.39963,5064.4116,0.0,0.0,0.0,0.0,-0.15088753028946342,0.0,-0.47587701312790454,-0.4202074516987466,-0.6433702234806974,-0.2674943888321408,-1.2478199299502388,-0.16129197788577884
15140,7.0,298.83175,5028.5648,0.0,0.0,0.0,0.0,-0.15089749709904726,0.0,-0.47002291001264956,-0.3931833825216786,-0.6653518535351154,-0.26635980203266574,-1.2539408724793288,-0.12851501914594488
15141,7.0,298.94665,5013.7792,0.0,0.0,0.0,0.0,-0.15090746390863105,0.0,-0.45042829454381156,-0.39530957639901765,-0.6783258016580443,-0.24274327267689577,-1.2754359601007288,-0.13980150055233387
15142,7.0,299.24515,4808.3483,0.0,0.0,0.0,0.0,-0.1509174307182149,0.0,-0.43025926759328365,-0.38816177582108463,-0.6431967651960784,-0.2028461750868588,-1.2332621604634988,-0.16462315917954085
15143,7.0,299.43253,4873.6622,0.0,0.0,0.0,0.0,-0.15092739752779868,0.0,-0.4510116327588825,-0.36445954577185663,-0.6660004349241253,-0.23849515070513877,-1.2358323706671588,-0.14278415420919888
15144,7.0,299.69149,4973.6077,0.0,0.0,0.0,0.0,-0.15093736433738253,0.0,-0.4270098859800946,-0.3894097959692546,-0.6954328678663804,-0.22058722175026382,-1.239837140362399,-0.17919043295221884
15145,7.0,300.36486,4876.5075,0.0,0.0,0.0,0.0,-0.15094733114696635,0.0,-0.4241876399465606,-0.4034712248945096,-0.6546776588991544,-0.2243079267799688,-1.2498315353737688,-0.1894222831245238
15146,7.0,300.44345,4746.2766,0.0,0.0,0.0,0.0,-0.1509572979565502,0.0,-0.42249962607496655,-0.37332862522216664,-0.6469213307086644,-0.2205245015690738,-1.2278547486548288,-0.18665359749127583
15147,7.0,301.18478,4773.116,0.0,0.0,0.0,0.0,-0.150967264766134,0.0,-0.4210467368890776,-0.37341932123861765,-0.6564420211657834,-0.2317846283403618,-1.2552188848304588,-0.14617709309655585
15148,7.0,300.12723,4665.8275,0.0,0.0,0.0,0.0,-0.1509772315757178,0.0,-0.4340571924131096,-0.3541970143865237,-0.6300408576201914,-0.25888742705019974,-1.2758423747158387,-0.14534716020464786
15149,7.0,300.08841,5008.7997,0.0,0.0,0.0,0.0,-0.1509871983853016,0.0,-0.44021010298285457,-0.41906125305312564,-0.6632787033005113,-0.25832123302682075,-1.2538315427935387,-0.14722515846999185
15150,7.0,299.75982,5209.0672,0.0,0.0,0.0,0.0,-0.15099716519488546,0.0,-0.4707639808707876,-0.4359513722825506,-0.6767110153711774,-0.25939211679250873,-1.2061300585607688,-0.16321389041045684
15151,7.0,298.84333,5027.9163,0.0,0.0,0.0,0.0,-0.15100713200446927,0.0,-0.48032515066940157,-0.37181198233998564,-0.6762238852531014,-0.26648709664272874,-1.211892715854499,-0.12364845997565288
15152,7.0,299.55188,4961.1393,0.0,0.0,0.0,0.0,-0.15101709881405312,0.0,-0.4555076058376006,-0.38379018932464265,-0.6687646926544364,-0.2746623530870637,-1.248313180098919,-0.13583766616113388
15153,7.0,300.09772000000004,5088.5748,0.0,0.0,0.0,0.0,-0.1510270656236369,0.0,-0.4785632404680145,-0.36442916853385865,-0.7038072583528683,-0.23604048141038178,-1.2637728434996687,-0.1091558526028439
15154,7.0,299.35231,4987.3221,0.0,0.0,0.0,0.0,-0.15103703243322075,0.0,-0.47936507593464955,-0.3674740458793646,-0.6691822631531473,-0.1980982371057738,-1.2388834693682789,-0.13239308191617988
15155,7.0,300.52946000000003,4812.3051,0.0,0.0,0.0,0.0,-0.15104699924280454,0.0,-0.44091785817770457,-0.36417471103624566,-0.6577280179277014,-0.2228538824889658,-1.2613736699128886,-0.13050026993437389
15156,7.0,300.73487,4772.3276,0.0,0.0,0.0,0.0,-0.1510569660523884,0.0,-0.4300484913074816,-0.34635701200277563,-0.6742629322020703,-0.26422398227937677,-1.2519918859119787,-0.16134159674317586
15157,7.0,299.47587000000004,4825.6839,0.0,0.0,0.0,0.0,-0.1510669328619722,0.0,-0.4424613217900326,-0.3863847884582096,-0.6380412980247734,-0.26227973772249474,-1.243263040275509,-0.16419011635180283
15158,7.0,299.47074,4860.5205,0.0,0.0,0.0,0.0,-0.15107689967155602,0.0,-0.4109622031488116,-0.4070482611925356,-0.6594664105942674,-0.2433745072241938,-1.1880862021049787,-0.1945794424234958
15159,7.0,299.18155,4760.3615,0.0,0.0,0.0,0.0,-0.15108686648113984,0.0,-0.4409377077471636,-0.37102965193777565,-0.6350636802209054,-0.23546823828390578,-1.2409485743970887,-0.13116376636485588
15160,7.0,298.50936,4648.7432,0.0,0.0,0.0,0.0,-0.15109683329072368,0.0,-0.4119222576185616,-0.38296378254308266,-0.6182158236531514,-0.2605829795025377,-1.2771517978200688,-0.14487109477766386
15161,7.0,299.51084,4850.5073,0.0,0.0,0.0,0.0,-0.1511068001003075,0.0,-0.43417765771749856,-0.38757951165111965,-0.6526759427966004,-0.23931064478312175,-1.2884857094636388,-0.15699428771912982
15162,7.0,298.80656,5100.7911,0.0,0.0,0.0,0.0,-0.15111676690989131,0.0,-0.4522240675635405,-0.4047553674087446,-0.6935336926739463,-0.22358664469628378,-1.2471643571355386,-0.16264504167181584
15163,7.0,299.45565,5092.698,0.0,0.0,0.0,0.0,-0.1511267337194751,0.0,-0.47694907226370853,-0.39128434918425864,-0.6798196160154724,-0.22676121805458976,-1.2209769083010387,-0.14858433215413186
15164,7.0,300.49478999999997,4735.2934,0.0,0.0,0.0,0.0,-0.15113670052905895,0.0,-0.39592351476710863,-0.3748658674788807,-0.6686215609453103,-0.26394065728641475,-1.2392508738545387,-0.14426840348568284
15165,7.0,301.16006,4607.5125,0.0,0.0,0.0,0.0,-0.15114666733864277,0.0,-0.4148391006814316,-0.36265294110855867,-0.6230767288878853,-0.24497433793958479,-1.2443230012051187,-0.15701776472394685
15166,7.0,299.90835,4904.5346,0.0,0.0,0.0,0.0,-0.1511566341482266,0.0,-0.4543560774964536,-0.3895557546461596,-0.6469442098959224,-0.25628645457350374,-1.2323620903996686,-0.14109067891956587
15167,7.0,300.0929,4846.5524,0.0,0.0,0.0,0.0,-0.15116660095781043,0.0,-0.47036687802409655,-0.36831638095249664,-0.6345476420774764,-0.23237117855824976,-1.2653372003290588,-0.15183108944956186
15168,7.0,300.0516,4655.1382,0.0,0.0,0.0,0.0,-0.15117656776739422,0.0,-0.41644268042219257,-0.36605588077440265,-0.6325472026700484,-0.2637987313449078,-1.2841267075334386,-0.13665713217950887
15169,7.0,300.45589,4698.5887,0.0,0.0,0.0,0.0,-0.15118653457697803,0.0,-0.43781177039365754,-0.3543946792160317,-0.6360471914304704,-0.26558582081127974,-1.2420252539533487,-0.15178980964048785
15170,7.0,298.96001,4888.2644,0.0,0.0,0.0,0.0,-0.15119650138656188,0.0,-0.42908167845956463,-0.4132688163389566,-0.6435598431044114,-0.24833615991637076,-1.2248921066874388,-0.14545962083324684
15171,7.0,298.66369,5054.041,0.0,0.0,0.0,0.0,-0.1512064681961457,0.0,-0.5066841427458315,-0.38484974495421265,-0.6447683768961844,-0.25371724748744273,-1.2330466421672288,-0.12239880849482188
15172,7.0,298.7429,5232.8201,0.0,0.0,0.0,0.0,-0.15121643500572954,0.0,-0.48824401430843256,-0.3957139543814266,-0.7066886680597413,-0.25937736387105276,-1.2678839031303988,-0.12354133917508088
15173,7.0,299.51229,4915.7797,0.0,0.0,0.0,0.0,-0.15122640181531333,0.0,-0.4603200270550496,-0.3918790054029466,-0.6420752594553943,-0.2615449794124798,-1.2822089290691687,-0.14510350395310084
15174,7.0,300.35287,4523.3643,0.0,0.0,0.0,0.0,-0.15123636862489717,0.0,-0.3830181028809436,-0.36018185716218165,-0.6317898286178014,-0.23166832749388377,-1.2372546698325289,-0.1906573539364158
15175,7.0,300.35832,4679.1536,0.0,0.0,0.0,0.0,-0.15124633543448096,0.0,-0.39451744786834064,-0.37353260259979765,-0.6542957953339674,-0.23138701886862076,-1.2484943492167988,-0.16460681545542782
15176,7.0,300.51624,4807.0642,0.0,0.0,0.0,0.0,-0.1512563022440648,0.0,-0.39094698756346363,-0.4130850127708166,-0.6571954840726444,-0.2345233724331548,-1.246098823330379,-0.17059596454401085
15177,7.0,299.92245,4476.6375,0.0,0.0,0.0,0.0,-0.15126626905364862,0.0,-0.4118421500656556,-0.3621910713154756,-0.5867527868479915,-0.24460698411582976,-1.2354305156774987,-0.15097011057458984
15178,7.0,300.44856,4546.5415,0.0,0.0,0.0,0.0,-0.15127623586323244,0.0,-0.39435323042463366,-0.3912505674259246,-0.5964312808756844,-0.24655022555511277,-1.2424705773722988,-0.18284243962514382
15179,7.0,300.19667999999996,4951.039000000001,0.0,0.0,0.0,0.0,-0.15128620267281626,0.0,-0.4811764530059186,-0.40003045046993163,-0.6237853250803184,-0.25418065742067775,-1.235135963873429,-0.14960321592468787
15180,7.0,300.2374,5015.0924,0.0,0.0,0.0,0.0,-0.1512961694824001,0.0,-0.45839844890290454,-0.4104808688213076,-0.6555835450185583,-0.26458117320462876,-1.2751458665970987,-0.16872073245143984
15181,7.0,299.39965,5142.9177,0.0,0.0,0.0,0.0,-0.15130613629198392,0.0,-0.4287529193321186,-0.4347463342036226,-0.6998192984767873,-0.2473700968735278,-1.251090397298009,-0.14506593263939285
15182,7.0,299.32766000000004,5117.2422,0.0,0.0,0.0,0.0,-0.1513161031015677,0.0,-0.4580486141733786,-0.4323820670827876,-0.6650831700060984,-0.24701173057815978,-1.2123720844768089,-0.13644025612810487
15183,7.0,299.33555,4987.947,0.0,0.0,0.0,0.0,-0.15132606991115152,0.0,-0.4649239923294256,-0.4013717909523116,-0.6499155455491703,-0.24181398048018177,-1.215996480084509,-0.10845459234113489
15184,7.0,299.83822999999995,4914.8318,0.0,0.0,0.0,0.0,-0.15133603672073537,0.0,-0.4556441412885756,-0.3947042303917746,-0.6436377823021033,-0.27054559899077174,-1.2491276305292989,-0.12966485535942487
15185,7.0,300.16368,5031.2385,0.0,0.0,0.0,0.0,-0.15134600353031918,0.0,-0.4761573692980735,-0.3929076569044666,-0.6603058477721134,-0.24984606468538678,-1.2452313799197687,-0.12862969879226288
15186,7.0,299.89637,4781.9703,0.0,0.0,0.0,0.0,-0.15135597033990303,0.0,-0.4469630703943206,-0.37610625785379764,-0.6305302472859904,-0.2217037524329568,-1.2559973648822886,-0.16386564327227982
15187,7.0,300.35819,4779.3089,0.0,0.0,0.0,0.0,-0.15136593714948685,0.0,-0.40892498276275363,-0.3792071881948356,-0.6646583750341744,-0.2389695341369568,-1.2281403838580187,-0.15297523119747983
15188,7.0,300.70976,4927.3347,0.0,0.0,0.0,0.0,-0.15137590395907063,0.0,-0.4338990038074975,-0.4093653311237126,-0.6545223783213294,-0.24158505688508874,-1.2641151193834488,-0.13786272754599188
15189,7.0,299.60942,5044.6473,0.0,0.0,0.0,0.0,-0.15138587076865445,0.0,-0.46904300597344056,-0.40288637693678964,-0.6615174314466874,-0.2780768944665527,-1.2317066189099788,-0.1210870245178589
15190,7.0,299.46837999999997,5178.9283,0.0,0.0,0.0,0.0,-0.1513958375782383,0.0,-0.4952782700801595,-0.4277453130351756,-0.6512412921125114,-0.25170276443362877,-1.2081557481606888,-0.14005851144019887
15191,7.0,300.07435,5163.5501,0.0,0.0,0.0,0.0,-0.1514058043878221,0.0,-0.5050087539704835,-0.41664937331009166,-0.6479321591409254,-0.2586319866999897,-1.2165205330362288,-0.14089940769818887
15192,7.0,300.53983999999997,4937.9188,0.0,0.0,0.0,0.0,-0.15141577119740593,0.0,-0.4148779892202696,-0.4236174233202846,-0.6625085926945073,-0.24511017424799078,-1.2577174582520487,-0.17304510149322183
15193,7.0,300.66114,4839.9028,0.0,0.0,0.0,0.0,-0.15142573800698975,0.0,-0.3775681953630796,-0.41139833638935464,-0.6822430670746483,-0.22586449171608977,-1.2568738262187886,-0.16410865104376282
15194,7.0,299.35377,4883.532999999999,0.0,0.0,0.0,0.0,-0.1514357048165736,0.0,-0.4011247808429336,-0.3865829700452686,-0.6967643494252873,-0.2111885671351888,-1.2559119478988587,-0.16514141634068885
15195,7.0,299.13808,4781.3018,0.0,0.0,0.0,0.0,-0.15144567162615738,0.0,-0.4473918879691416,-0.3656387865032386,-0.6403656633566703,-0.21835652125761082,-1.2166412111231386,-0.12783364898369887
15196,7.0,300.82756,4553.9812,0.0,0.0,0.0,0.0,-0.1514556384357412,0.0,-0.41234013209230264,-0.3708750907675216,-0.6010813388971094,-0.2776478539767097,-1.273768859711199,-0.15052744187090186
15197,7.0,300.97346,4676.5991,0.0,0.0,0.0,0.0,-0.15146560524532504,0.0,-0.45634737738797954,-0.37246879131980765,-0.5927531830126844,-0.28081372351665673,-1.2346142413969388,-0.15905009111202184
15198,7.0,299.33847000000003,5014.1794,0.0,0.0,0.0,0.0,-0.15147557205490886,0.0,-0.4504889375622966,-0.4090103997461836,-0.6646860063644013,-0.2803527251186597,-1.2457278724687688,-0.15407242906826485
15199,7.0,299.59805,5068.116,0.0,0.0,0.0,0.0,-0.15148553886449267,0.0,-0.4687969888491606,-0.38396031401643266,-0.6878234102778853,-0.21620906939317378,-1.2383455348901886,-0.15498315852314684
15200,7.0,299.51272,4982.288,0.0,0.0,0.0,0.0,-0.15149550567407652,0.0,-0.4503508619711696,-0.3933587761139886,-0.6707815163159814,-0.25819637021699776,-1.2831741511144288,-0.11961353595743689
15201,7.0,300.49382,4993.5085,0.0,0.0,0.0,0.0,-0.15150547248366034,0.0,-0.47064646412418953,-0.38337741149890464,-0.6638780103371584,-0.24432865444586077,-1.2669500918382386,-0.14242375128112986
15202,7.0,299.89957999999996,4910.5182,0.0,0.0,0.0,0.0,-0.15151543929324413,0.0,-0.4838338533806836,-0.36552131028664464,-0.6433197534932165,-0.26679570222568577,-1.2428912788138187,-0.11466054655361489
15203,7.0,299.04485,4893.3363,0.0,0.0,0.0,0.0,-0.15152540610282794,0.0,-0.4852499210579385,-0.36470936258401165,-0.6374927548181364,-0.25490092625426275,-1.1985391941116088,-0.16260154284502285
15204,7.0,299.25298,5090.7235,0.0,0.0,0.0,0.0,-0.15153537291241176,0.0,-0.47347782940862354,-0.3862673629041206,-0.6877076261889584,-0.24282602481256277,-1.2337899624405888,-0.15548129253730886
15205,7.0,299.48163,4793.2597,0.0,0.0,0.0,0.0,-0.1515453397219956,0.0,-0.4070230008675426,-0.37813129897365366,-0.6718769511315924,-0.2411438067315408,-1.2297657383434288,-0.18118110462868284
15206,7.0,300.20512,4579.0084,0.0,0.0,0.0,0.0,-0.15155530653157942,0.0,-0.38412170449236066,-0.36866313540171863,-0.6391193758661714,-0.22692787743103776,-1.2526596177278788,-0.14210727274489587
15207,7.0,300.97409,4978.4936,0.0,0.0,0.0,0.0,-0.15156527334116326,0.0,-0.44762937352757953,-0.39012699465503664,-0.6755813833646913,-0.22879985699078775,-1.257319352287759,-0.14056978730815786
15208,7.0,301.17519,5110.3639,0.0,0.0,0.0,0.0,-0.15157524015074705,0.0,-0.49128736164628756,-0.40905310823789864,-0.6530825397967284,-0.24486277910357476,-1.2975017101784487,-0.15614564009787485
15209,7.0,300.15929,4815.7516,0.0,0.0,0.0,0.0,-0.15158520696033087,0.0,-0.4382228054292236,-0.3836924613524976,-0.6419529905658274,-0.2530332428749368,-1.2592297340262988,-0.17043191935282082
15210,7.0,300.70734,4960.9605,0.0,0.0,0.0,0.0,-0.1515951737699147,0.0,-0.4109736630074426,-0.42709641753863464,-0.6699380362702363,-0.24406340583468278,-1.266866802680019,-0.22189839777716677
15211,7.0,299.93949,4987.3738,0.0,0.0,0.0,0.0,-0.15160514057949853,0.0,-0.4364172140160256,-0.3966167399555246,-0.6830031363721614,-0.2484025784604258,-1.2427435469492387,-0.15231246430706988
15212,7.0,300.47686,4880.7367,0.0,0.0,0.0,0.0,-0.15161510738908235,0.0,-0.4474557733879466,-0.3853247464685916,-0.6508415446830593,-0.24640663788344178,-1.274371338220659,-0.16216779074221485
15213,7.0,299.72141,4919.2859,0.0,0.0,0.0,0.0,-0.15162507419866617,0.0,-0.46387047567045153,-0.3849326794748976,-0.6465369137532254,-0.2566136634282967,-1.244614411933879,-0.1254522883336769
15214,7.0,298.52415,4681.7251,0.0,0.0,0.0,0.0,-0.15163504100824995,0.0,-0.44491025608922363,-0.34417380254230967,-0.6340434690927184,-0.24531491156319676,-1.257302836311129,-0.14721827850181285
15215,7.0,300.04247000000004,4784.0574,0.0,0.0,0.0,0.0,-0.1516450078178338,0.0,-0.41952805737419563,-0.3742701372150866,-0.6604357970974384,-0.25357063019797277,-1.2346957067049789,-0.11302571817976988
15216,7.0,301.30183999999997,5082.6194,0.0,0.0,0.0,0.0,-0.15165497462741762,0.0,-0.4487727046754176,-0.3896225582252526,-0.7065941216929104,-0.2187737371187868,-1.2571350420945688,-0.17562711606054682
15217,7.0,300.58076,5294.1771,0.0,0.0,0.0,0.0,-0.15166494143700146,0.0,-0.4760008424226255,-0.4090536857904556,-0.7242431145847303,-0.2226780430666118,-1.2364936176824188,-0.12310036259905988
15218,7.0,300.56367,5045.3814,0.0,0.0,0.0,0.0,-0.15167490824658525,0.0,-0.4761339733532646,-0.38776376104930366,-0.6697722178913714,-0.1986869759438778,-1.223658677340709,-0.13740961223377288
15219,7.0,301.23848,4918.1045,0.0,0.0,0.0,0.0,-0.1516848750561691,0.0,-0.4538365639051816,-0.37782169027309764,-0.6633226986198534,-0.24591596139001576,-1.240118418590159,-0.11669258923166188
15220,7.0,300.9066,5058.8792,0.0,0.0,0.0,0.0,-0.1516948418657529,0.0,-0.5066796439153876,-0.36390439617456766,-0.6671889164964193,-0.24947595482135976,-1.2838557644566988,-0.12875561538218988
15221,7.0,300.00017,5170.4619,0.0,0.0,0.0,0.0,-0.15170480867533676,0.0,-0.45739265632364057,-0.4124014235908516,-0.7018972312518633,-0.24966427748494577,-1.2591314487665988,-0.16181299108719885
15222,7.0,298.46081000000004,4851.2827,0.0,0.0,0.0,0.0,-0.15171477548492054,0.0,-0.4210071086776666,-0.3838077996113807,-0.6698539061144334,-0.2056737812134218,-1.2400263141560688,-0.1855538563627398
15223,7.0,298.8721,4722.5658,0.0,0.0,0.0,0.0,-0.15172474229450436,0.0,-0.4032034938205866,-0.38892258479117064,-0.6434160122527164,-0.24078148876078279,-1.2379801569041289,-0.15985446983640783
15224,7.0,299.18321000000003,4764.174,0.0,0.0,0.0,0.0,-0.15173470910408818,0.0,-0.43559603560498156,-0.38129801964368465,-0.6312958894590533,-0.25597046239731774,-1.2654862494187689,-0.16392503999314184
15225,7.0,299.93757999999997,4749.3928,0.0,0.0,0.0,0.0,-0.15174467591367202,0.0,-0.43888850061242257,-0.3569831583189947,-0.6478251497978644,-0.24520321087217276,-1.2429157994662388,-0.14172292671696388
15226,7.0,299.53163,4841.2302,0.0,0.0,0.0,0.0,-0.15175464272325584,0.0,-0.4251201745435946,-0.3903315090552206,-0.6561614015505883,-0.24310500296259577,-1.243380273312079,-0.15315439408016185
15227,7.0,299.51901000000004,4992.3513,0.0,0.0,0.0,0.0,-0.15176460953283968,0.0,-0.40050063904633565,-0.4150960305092886,-0.7019534666324133,-0.2325125877422058,-1.2355269770870188,-0.14997916210929085
15228,7.0,300.28828,5091.2265,0.0,0.0,0.0,0.0,-0.15177457634242345,0.0,-0.4194122732852686,-0.43477545501149656,-0.6934180099100294,-0.25793407016361075,-1.2672846670212587,-0.17180791298862083
15229,7.0,300.64547999999996,5151.4432,0.0,0.0,0.0,0.0,-0.1517845431520073,0.0,-0.4740134739414875,-0.43079701968635553,-0.6610996177679523,-0.2499817490062778,-1.2421648798171288,-0.14455508233647588
15230,7.0,299.58241,5100.4416,0.0,0.0,0.0,0.0,-0.1517945099615911,0.0,-0.4971958864244135,-0.4043196090707386,-0.6488913928780944,-0.24720022549426277,-1.2254441253419188,-0.15206769348041285
15231,7.0,299.66602,4917.2014,0.0,0.0,0.0,0.0,-0.15180447677117495,0.0,-0.4885355162297015,-0.3901853578607966,-0.6159855689905424,-0.23402002018097778,-1.225769378624019,-0.12357496894589988
15232,7.0,299.27119,4890.5453,0.0,0.0,0.0,0.0,-0.15181444358075877,0.0,-0.47921774937010947,-0.3778405468574586,-0.6295453580562894,-0.2443506217080288,-1.2672667324944886,-0.14762174455913185
15233,7.0,299.35935,5006.1148,0.0,0.0,0.0,0.0,-0.15182441039034258,0.0,-0.4512733957897166,-0.37751743153306966,-0.6929430590581553,-0.24561543141035577,-1.2530918702205387,-0.14904797513488985
15234,7.0,299.81743,4869.8117,0.0,0.0,0.0,0.0,-0.15183437719992637,0.0,-0.43374085573188964,-0.38347819948635165,-0.6630820922511074,-0.2277521158573838,-1.2405666804343989,-0.16330135415908884
15235,7.0,299.56951000000004,4839.9398,0.0,0.0,0.0,0.0,-0.15184434400951022,0.0,-0.42569272164510064,-0.3935251011179036,-0.6520030130076874,-0.2452359388504028,-1.2350776006676687,-0.18645907373707782
15236,7.0,299.80503,5069.2554,0.0,0.0,0.0,0.0,-0.15185431081909403,0.0,-0.4872494992027815,-0.40018418077510365,-0.6534934025797774,-0.2699454712215437,-1.216199839379579,-0.16081738167143986
15237,7.0,300.67208,5185.4344,0.0,0.0,0.0,0.0,-0.15186427762867788,0.0,-0.5008174347993325,-0.4299821234259316,-0.6454430089452654,-0.27638884006495473,-1.2127515466392589,-0.15426821938508786
15238,7.0,300.23541,4985.5858,0.0,0.0,0.0,0.0,-0.15187424443826167,0.0,-0.4725040048700146,-0.3899069066008156,-0.6530826917842434,-0.2541839504835028,-1.2248452945328188,-0.12894479930836086
15239,7.0,300.45362,4757.3673,0.0,0.0,0.0,0.0,-0.1518842112478455,0.0,-0.37271250836636066,-0.4142655403298256,-0.6591428291748324,-0.25219384622709473,-1.2728917904246388,-0.17374848958014086
15240,7.0,300.4952,4771.458,0.0,0.0,0.0,0.0,-0.15189417805742933,0.0,-0.41009094991782563,-0.39836051298012165,-0.6419526359282924,-0.23101184275409378,-1.2826230443850386,-0.14269498820039886
15241,7.0,300.46476,4842.2745,0.0,0.0,0.0,0.0,-0.15190414486701317,0.0,-0.4338632563439696,-0.38573479865156063,-0.6523324712777024,-0.24955168513383377,-1.2598471073122288,-0.18229316687843483
15242,7.0,299.82511,4875.0492,0.0,0.0,0.0,0.0,-0.15191411167659696,0.0,-0.4851586677539325,-0.3891074522719156,-0.6076270966631254,-0.25882468660400776,-1.249703967186179,-0.14400530296471686
15243,7.0,299.49104,4735.6623,0.0,0.0,0.0,0.0,-0.15192407848618078,0.0,-0.4460295529446896,-0.3681122515873506,-0.6253812851803274,-0.26776453144130175,-1.242286165854099,-0.16500696818491986
15244,7.0,299.34427,4796.1497,0.0,0.0,0.0,0.0,-0.1519340452957646,0.0,-0.4073860179808696,-0.3955676613319886,-0.6549560696291313,-0.26803770366826174,-1.2293213268495689,-0.15362734882933884
15245,7.0,299.10197,5045.4863,0.0,0.0,0.0,0.0,-0.15194401210534844,0.0,-0.40354631685942066,-0.4224306136106556,-0.7077249088045103,-0.2240411481611398,-1.2462762434228887,-0.16619928997509284
15246,7.0,298.90524,5202.0208,0.0,0.0,0.0,0.0,-0.15195397891493226,0.0,-0.46298887715594456,-0.3909648714277286,-0.7273306902894503,-0.24041903906751177,-1.2474622526649386,-0.13097656840888086
15247,7.0,300.75426,5094.1878,0.0,0.0,0.0,0.0,-0.1519639457245161,0.0,-0.45913152521775363,-0.42142810396171554,-0.6679462500186624,-0.2613755538632587,-1.2716684935789089,-0.15316048371326285
15248,7.0,299.51412999999997,4751.6586,0.0,0.0,0.0,0.0,-0.15197391253409986,0.0,-0.4842569967549445,-0.36845118374580066,-0.5916773748515104,-0.25198789301176877,-1.251195977958429,-0.13749648829734687
15249,7.0,299.88924,4950.3219,0.0,0.0,0.0,0.0,-0.1519838793436837,0.0,-0.48668511889708155,-0.39190198591521463,-0.6261871331173584,-0.24799622464032178,-1.2195310004083388,-0.11107580955482889
15250,7.0,300.34938999999997,5251.41,0.0,0.0,0.0,0.0,-0.15199384615326753,0.0,-0.4930922437844155,-0.4085995673606376,-0.6946057011472453,-0.2442225772928918,-1.2236711403169387,-0.13679443770055988
15251,7.0,300.32245,5171.1177,0.0,0.0,0.0,0.0,-0.15200381296285137,0.0,-0.43371712541454766,-0.4198724914806886,-0.7183010410957933,-0.24252835219818475,-1.2704594835595886,-0.13673362242955786
15252,7.0,300.77235,4888.781,0.0,0.0,0.0,0.0,-0.1520137797724352,0.0,-0.43137731815112657,-0.4098813388696386,-0.6448086839851624,-0.23463660313182977,-1.267844183726479,-0.15514332296645386
15253,7.0,300.73992999999996,4879.7944,0.0,0.0,0.0,0.0,-0.152023746582019,0.0,-0.44106224631695456,-0.3877427665072316,-0.6545306464421454,-0.2047238085821668,-1.2607785881291589,-0.16448041250545284
15254,7.0,298.66741,4846.4536,0.0,0.0,0.0,0.0,-0.1520337133916028,0.0,-0.5196170643722114,-0.35489176958259067,-0.5986920647638064,-0.24302598971979777,-1.226276915599109,-0.15411742750520585
15255,7.0,299.70367999999996,5054.9894,0.0,0.0,0.0,0.0,-0.15204368020118664,0.0,-0.47384366335722855,-0.3979216439643086,-0.6648252471931434,-0.2603405594161128,-1.2578148315866589,-0.16724713243350683
15256,7.0,299.72969,4899.3385,0.0,0.0,0.0,0.0,-0.15205364701077045,0.0,-0.4125747501529576,-0.40229307847323564,-0.6744087388914604,-0.25173052748636876,-1.2288588795039288,-0.15694429395919585
15257,7.0,298.96036000000004,4466.130999999999,0.0,0.0,0.0,0.0,-0.1520636138203543,0.0,-0.3399264607731297,-0.3736822799045697,-0.6439835741637304,-0.2326367210119568,-1.2221983812965889,-0.17228158714536884
15258,7.0,299.78303999999997,4832.0922,0.0,0.0,0.0,0.0,-0.1520735806299381,0.0,-0.4122850822143696,-0.4206881882086916,-0.6358620807697014,-0.2239159307137818,-1.2522518858876388,-0.16335319203420484
15259,7.0,299.40435,5186.67,0.0,0.0,0.0,0.0,-0.15208354743952193,0.0,-0.4732546610740985,-0.4024951509406786,-0.7008683568353213,-0.25170219701357277,-1.2970847577622988,-0.16026904111482285
15260,7.0,299.8144,5035.3442,0.0,0.0,0.0,0.0,-0.15209351424910575,0.0,-0.5183179662865005,-0.4119079099971456,-0.6003930381041794,-0.26120432472885974,-1.2829236756897089,-0.16167010255809686
15261,7.0,300.10532,4861.454000000001,0.0,0.0,0.0,0.0,-0.1521034810586896,0.0,-0.42527653929902653,-0.40124316898461765,-0.6512409273424753,-0.22726836999464178,-1.2623887438630688,-0.15216811669782387
15262,7.0,300.40402,4849.9607,0.0,0.0,0.0,0.0,-0.15211344786827338,0.0,-0.4074967966143026,-0.3837282392135286,-0.6830419235859894,-0.24065047552285276,-1.2369323549757187,-0.14473667701939788
15263,7.0,299.78752000000003,5079.56,0.0,0.0,0.0,0.0,-0.1521234146778572,0.0,-0.40488582335911966,-0.4185045937131876,-0.7206690065794934,-0.24617252644783677,-1.2441561189136487,-0.15601602514508284
15264,7.0,300.08625,5181.1877,0.0,0.0,0.0,0.0,-0.15213338148744102,0.0,-0.4693026918415696,-0.3767056054204486,-0.7289433791486103,-0.25941404352467273,-1.220903245018769,-0.13915768143879387
15265,7.0,298.54457,4813.2317,0.0,0.0,0.0,0.0,-0.15214334829702486,0.0,-0.4551959301068406,-0.3655660655435617,-0.6423402547540474,-0.2255613475511718,-1.2364772030307989,-0.13641757959086687
15266,7.0,298.52891,4642.5822,0.0,0.0,0.0,0.0,-0.15215331510660868,0.0,-0.47138534636211155,-0.3290309824478297,-0.6108127245800224,-0.24886890655394875,-1.249500101266059,-0.14449006207755888
15267,7.0,299.66663,5021.6784,0.0,0.0,0.0,0.0,-0.15216328191619252,0.0,-0.45571777417334264,-0.37548127505961665,-0.6952658031898924,-0.24099334922419174,-1.2711503174777687,-0.15338467543038886
15268,7.0,299.99051000000003,5266.8148,0.0,0.0,0.0,0.0,-0.15217324872577628,0.0,-0.46087941203775656,-0.42878114847990456,-0.7113196364492823,-0.26090498025181674,-1.250871028651359,-0.16354283192292082
15269,7.0,300.71952999999996,4924.8513,0.0,0.0,0.0,0.0,-0.15218321553536013,0.0,-0.4175418338656706,-0.38242909046531265,-0.6970609175970564,-0.21932353675554778,-1.2269034081359387,-0.15873919558383887
15270,7.0,301.11241,4672.0672,0.0,0.0,0.0,0.0,-0.15219318234494394,0.0,-0.4138421335105386,-0.38075727846281765,-0.6255923553086584,-0.23547627335719878,-1.2515006622634988,-0.15531417719831586
15271,7.0,301.08247,4761.7243,0.0,0.0,0.0,0.0,-0.1522031491545278,0.0,-0.45231203793722263,-0.3497906632791507,-0.6453425958603554,-0.2303287905966818,-1.3107589731618388,-0.15645600873600585
15272,7.0,300.54431,5040.0107,0.0,0.0,0.0,0.0,-0.1522131159641116,0.0,-0.49783652393263955,-0.3735549143669996,-0.6606459755656814,-0.2560342464911128,-1.267968104213709,-0.14362426013211085
15273,7.0,300.4812,5018.2079,0.0,0.0,0.0,0.0,-0.15222308277369542,0.0,-0.41649829772018165,-0.4098920489231956,-0.6990195604378593,-0.2188969483309468,-1.2570697887881288,-0.16635366876032884
15274,7.0,299.95138,4820.6179999999995,0.0,0.0,0.0,0.0,-0.1522330495832792,0.0,-0.3996396399063616,-0.37755492178676964,-0.6881529394754073,-0.24810938441148975,-1.2508971705039387,-0.16214311810227983
15275,7.0,299.37143,4854.7626,0.0,0.0,0.0,0.0,-0.15224301639286306,0.0,-0.4148083485408966,-0.38834474852414264,-0.6725735099128374,-0.24985184021095674,-1.2608589388620888,-0.16348978828018584
15276,7.0,299.77299,5127.7617,0.0,0.0,0.0,0.0,-0.15225298320244687,0.0,-0.4884018482765095,-0.42543908488006865,-0.6448705733012704,-0.24627736743568376,-1.2093102453246287,-0.16896377062042583
15277,7.0,300.26812,5186.9042,0.0,0.0,0.0,0.0,-0.15226295001203072,0.0,-0.5348201525826395,-0.37227628393330864,-0.6695929131536753,-0.25362795988863074,-1.2225398465802888,-0.14793376479492587
15278,7.0,300.9295,5169.223,0.0,0.0,0.0,0.0,-0.1522729168216145,0.0,-0.49922861811252855,-0.4147788528304856,-0.6573072455586744,-0.2640762909448008,-1.2570189236331089,-0.15182147370611285
15279,7.0,300.95065,4936.9220000000005,0.0,0.0,0.0,0.0,-0.15228288363119835,0.0,-0.4037981095092706,-0.38711634489790864,-0.7097865586504793,-0.24130768980271475,-1.282521922025059,-0.16133444319746984
15280,7.0,300.4291,4948.7698,0.0,0.0,0.0,0.0,-0.15229285044078217,0.0,-0.4151540897400186,-0.38000037050561664,-0.7091479679074554,-0.2207042318718118,-1.2528167728183888,-0.14335145267518687
15281,7.0,300.81892999999997,5272.738,0.0,0.0,0.0,0.0,-0.152302817250366,0.0,-0.4436594697682805,-0.4299279753405876,-0.7291932567557713,-0.22543588692378977,-1.205759006374149,-0.1430817558960699
15282,7.0,300.82099999999997,5142.8658,0.0,0.0,0.0,0.0,-0.1523127840599498,0.0,-0.4952510947124775,-0.3907440031709306,-0.6773076778250634,-0.24548548208503077,-1.2420936483350988,-0.14197085888393285
15283,7.0,299.48983,4787.795999999999,0.0,0.0,0.0,0.0,-0.15232275086953362,0.0,-0.46206499571476456,-0.3765354908611596,-0.6167699664229563,-0.25955472316855677,-1.2718439884962287,-0.13622021873638887
15284,7.0,299.5101,4923.5191,0.0,0.0,0.0,0.0,-0.15233271767911744,0.0,-0.4892819674458705,-0.3679827987545746,-0.6393620999276264,-0.2481609487090788,-1.2536183549724988,-0.13228872728838087
15285,7.0,299.26249,5229.4364,0.0,0.0,0.0,0.0,-0.15234268448870128,0.0,-0.4472160688117896,-0.4063876727898406,-0.7360143247064583,-0.22148660280402577,-1.2404111465440488,-0.12987126453729586
15286,7.0,299.89834,5226.2008,0.0,0.0,0.0,0.0,-0.1523526512982851,0.0,-0.4612646699907786,-0.43480469740938255,-0.6925651674333604,-0.24518167930754778,-1.2666746904610588,-0.16066603250400285
15287,7.0,301.08956,5052.259,0.0,0.0,0.0,0.0,-0.1523626181078689,0.0,-0.43141190037703964,-0.4100091806347556,-0.6943395102134743,-0.25480276258457474,-1.2381866572745088,-0.16432860737547084
15288,7.0,300.51007000000004,4835.8355,0.0,0.0,0.0,0.0,-0.1523725849174527,0.0,-0.4898993305992996,-0.38710050779884564,-0.5929734129219193,-0.24131572487600778,-1.227369199206909,-0.17638038644988885
15289,7.0,300.82759,4869.7970000000005,0.0,0.0,0.0,0.0,-0.15238255172703655,0.0,-0.4877700767066585,-0.38416499053663267,-0.6083616421906194,-0.2515439476129548,-1.2112051243366386,-0.15968066704675485
15290,7.0,301.92537000000004,5077.9579,0.0,0.0,0.0,0.0,-0.15239251853662036,0.0,-0.4865179934255875,-0.39126120655197466,-0.6657932050136733,-0.26746488298922877,-1.2616149247616988,-0.15021226029479584
15291,7.0,301.09496,4938.5449,0.0,0.0,0.0,0.0,-0.1524024853462042,0.0,-0.3924663358234116,-0.4140995193009406,-0.6946284790094934,-0.25243194986809375,-1.2911172212983486,-0.15028333978931085
15292,7.0,300.56084,4663.238,0.0,0.0,0.0,0.0,-0.15241245215578803,0.0,-0.35806854169361363,-0.38793544614624764,-0.6715039433722794,-0.23698635037873178,-1.2559307943507187,-0.13198155038806486
15293,7.0,300.20758,4719.1278,0.0,0.0,0.0,0.0,-0.15242241896537184,0.0,-0.37483672640600463,-0.39427890852979863,-0.6653813897755304,-0.22514242942982782,-1.2549188614758486,-0.13161744909713086
15294,7.0,300.06712999999996,5208.0219,0.0,0.0,0.0,0.0,-0.15243238577495563,0.0,-0.4981331427669135,-0.45027233508841963,-0.6347031253053214,-0.22970891458300477,-1.2827133249689489,-0.16304892316167585
15295,7.0,299.93597,5350.3704,0.0,0.0,0.0,0.0,-0.15244235258453948,0.0,-0.5241975222442675,-0.41532923001980365,-0.6868522404545384,-0.27511378640411677,-1.2492475993411387,-0.14264441688790785
15296,7.0,299.74984,4936.0946,0.0,0.0,0.0,0.0,-0.1524523193941233,0.0,-0.47241285289101853,-0.39904038353221966,-0.6289962474295965,-0.23464391879755178,-1.2376413260706887,-0.15190374961423284
15297,7.0,300.25611000000004,4745.4547,0.0,0.0,0.0,0.0,-0.1524622862037071,0.0,-0.4020283871496126,-0.3720876370296906,-0.6683836903518344,-0.2381102676546538,-1.220431881072249,-0.13917393397039787
15298,7.0,300.09237,4958.2355,0.0,0.0,0.0,0.0,-0.15247225301329093,0.0,-0.4512488548722946,-0.36299274466209464,-0.6929381853251744,-0.25551293944716374,-1.252287552291159,-0.14499837925522585
15299,7.0,300.24237999999997,5119.0502,0.0,0.0,0.0,0.0,-0.15248221982287477,0.0,-0.4570696119267586,-0.4294434898052726,-0.6695503566494754,-0.25542526291601075,-1.2630591101292288,-0.15826140763168484
15300,7.0,299.87628,4993.1782,0.0,0.0,0.0,0.0,-0.1524921866324586,0.0,-0.5236058348483725,-0.35387741503998166,-0.6403182533844914,-0.2782767783137797,-1.2311370710287688,-0.14048717702750488
15301,7.0,299.89664,4876.2303,0.0,0.0,0.0,0.0,-0.15250215344204238,0.0,-0.4555647328782386,-0.3922173600088396,-0.6344701791073314,-0.25520983581224976,-1.2054820851218186,-0.16577747395846285
15302,7.0,298.76976,4883.9890000000005,0.0,0.0,0.0,0.0,-0.15251212025162622,0.0,-0.44911899302959357,-0.4104141463022226,-0.6250775533303514,-0.25127658130906777,-1.279167557569009,-0.14526368866140987
15303,7.0,300.34526,5062.7462,0.0,0.0,0.0,0.0,-0.15252208706121004,0.0,-0.41222960677139464,-0.4011532937007476,-0.7255655275552423,-0.2210595482843788,-1.259811339583699,-0.14371189613325985
15304,7.0,299.72433,5037.3522,0.0,0.0,0.0,0.0,-0.15253205387079385,0.0,-0.42105058723945765,-0.42597391881285257,-0.6842047597982523,-0.21805346828520178,-1.273636225273109,-0.13903119742881087
15305,7.0,301.0958,4885.15,0.0,0.0,0.0,0.0,-0.15254202068037767,0.0,-0.4194956637684986,-0.38268423697299364,-0.6827837069305053,-0.2137217126501908,-1.254043008089409,-0.14168425096064685
15306,7.0,299.95813,4809.4559,0.0,0.0,0.0,0.0,-0.15255198748996152,0.0,-0.4515602468930266,-0.39315747371662163,-0.6172367808765274,-0.23713489284339176,-1.2996226452877688,-0.16907866304926483
15307,7.0,300.41264,5047.2378,0.0,0.0,0.0,0.0,-0.15256195429954533,0.0,-0.46891933879873554,-0.42128445549503857,-0.6440304775108593,-0.2464385856590948,-1.2645772627540588,-0.17443733752812485
15308,7.0,300.23162,5141.1,0.0,0.0,0.0,0.0,-0.15257192110912912,0.0,-0.48002216862449953,-0.3889385738777486,-0.6938052842307504,-0.22167125750224978,-1.231122682877349,-0.15549921693157784
15309,7.0,300.89876,5013.7004,0.0,0.0,0.0,0.0,-0.15258188791871297,0.0,-0.4199603199993566,-0.42594169745967264,-0.6781377221744823,-0.2516172562576897,-1.2230651154321288,-0.16391925433507085
15310,7.0,300.25452,4886.9776,0.0,0.0,0.0,0.0,-0.15259185472829678,0.0,-0.41025373867889164,-0.39695380773379063,-0.6783116060241433,-0.24899720428161073,-1.2726883298045588,-0.15690958001076988
15311,7.0,299.62755,4853.5166,0.0,0.0,0.0,0.0,-0.1526018215378806,0.0,-0.4333847895142486,-0.38723091308671564,-0.6547321413570314,-0.27082098010294975,-1.2663844956324188,-0.15416663093006186
15312,7.0,299.79913999999997,5134.3606,0.0,0.0,0.0,0.0,-0.15261178834746444,0.0,-0.4866631820324165,-0.4392038848385486,-0.6348503708098534,-0.23556996859394577,-1.246228519343179,-0.14340713076818185
15313,7.0,299.49987000000004,5402.5073,0.0,0.0,0.0,0.0,-0.15262175515704826,0.0,-0.5032287876523145,-0.4293820868492126,-0.7096164339586893,-0.26559653086483676,-1.2285062684691288,-0.13682270737834987
15314,7.0,299.25785,5238.0897,0.0,0.0,0.0,0.0,-0.15263172196663205,0.0,-0.4746913483908885,-0.42828895211132856,-0.6892681731979724,-0.2714261133276717,-1.2577576842810188,-0.14049747164852086
15315,7.0,299.23388,4890.56,0.0,0.0,0.0,0.0,-0.15264168877621587,0.0,-0.4116093963851846,-0.4102976326732236,-0.6647010936583904,-0.27541219869106776,-1.2416607878923789,-0.13445896714756686
15316,7.0,299.76454,4780.9901,0.0,0.0,0.0,0.0,-0.1526516555857997,0.0,-0.4302744258147796,-0.34423349310570067,-0.6787936800242204,-0.23640807841416075,-1.2526462428265588,-0.12840166685725787
15317,7.0,299.74268,5036.3497,0.0,0.0,0.0,0.0,-0.15266162239538353,0.0,-0.4571264957873725,-0.4193992530214836,-0.6543987820741314,-0.23907825587268677,-1.2723560850967688,-0.15449230977720385
15318,7.0,299.8711,5115.0961,0.0,0.0,0.0,0.0,-0.15267158920496735,0.0,-0.5238783180652645,-0.37393162048917766,-0.6570515620284404,-0.24475695526313077,-1.296870556691159,-0.14893401489614286
15319,7.0,299.72902999999997,4850.395,0.0,0.0,0.0,0.0,-0.15268155601455116,0.0,-0.4531111680260905,-0.4011749772528876,-0.6201128102253693,-0.21564728300772976,-1.2678576599528089,-0.1969852426659298
15320,7.0,299.75875,4682.3744,0.0,0.0,0.0,0.0,-0.152691522824135,0.0,-0.44688092620871356,-0.3692349732281547,-0.6072090094068634,-0.21220909237090682,-1.2434830168722188,-0.17092556466903983
15321,7.0,300.52218,4963.6573,0.0,0.0,0.0,0.0,-0.1527014896337188,0.0,-0.4334346312866676,-0.3985066439095436,-0.6768865812160043,-0.24161968977350676,-1.2315291988174688,-0.16800709027350882
15322,7.0,299.92042000000004,5066.2339,0.0,0.0,0.0,0.0,-0.15271145644330264,0.0,-0.44950174825486855,-0.44700928473138163,-0.6434975484882633,-0.27123316011112875,-1.2855670425505887,-0.17714325231767783
15323,7.0,300.93743,4882.835,0.0,0.0,0.0,0.0,-0.15272142325288643,0.0,-0.4247011145672365,-0.4108447167997166,-0.6487140943755964,-0.2928710045391177,-1.2555382612619788,-0.15994439578278286
15324,7.0,301.46482000000003,4663.4595,0.0,0.0,0.0,0.0,-0.15273139006247027,0.0,-0.4317037265383406,-0.3785449988569826,-0.6073264957559584,-0.24556057404994178,-1.2512624471649887,-0.13567362096994387
15325,7.0,300.82444,4815.8921,0.0,0.0,0.0,0.0,-0.1527413568720541,0.0,-0.41569222686812857,-0.4048146729370976,-0.6434040356365345,-0.2746110623670018,-1.2560644420389089,-0.16079440115917185
15326,7.0,299.20026,5086.5511,0.0,0.0,0.0,0.0,-0.15275132368163793,0.0,-0.4597861253123576,-0.39545570732843965,-0.6909427108432363,-0.24953820890750375,-1.277481002777559,-0.15512526684967184
15327,7.0,298.85871000000003,5062.7934,0.0,0.0,0.0,0.0,-0.15276129049122175,0.0,-0.4449435210900065,-0.39810003677691463,-0.6959192076493783,-0.2412426898087998,-1.2500187839922487,-0.16020712140121185
15328,7.0,299.2396,4911.9646,0.0,0.0,0.0,0.0,-0.15277125730080554,0.0,-0.4663967513497756,-0.36569991588177164,-0.6610179092798883,-0.1979464218432908,-1.2386233680676089,-0.16004196163491183
15329,7.0,299.75503,4901.4019,0.0,0.0,0.0,0.0,-0.15278122411038936,0.0,-0.4544458514553136,-0.3752460389164006,-0.6602118890903403,-0.2236848691609778,-1.2581763592223387,-0.13364870144009988
15330,7.0,300.2991,5195.8009,0.0,0.0,0.0,0.0,-0.1527911909199732,0.0,-0.5065181115844455,-0.39784423165666866,-0.6750313912104113,-0.2449078889980268,-1.2990148978777887,-0.15137848076239285
15331,7.0,299.52409,5323.5563,0.0,0.0,0.0,0.0,-0.15280115772955702,0.0,-0.5057521654363525,-0.4142628045545556,-0.6982132058757784,-0.25145911831458273,-1.2611305912138988,-0.1178637036972419
15332,7.0,300.16778999999997,5050.0383,0.0,0.0,0.0,0.0,-0.15281112453914086,0.0,-0.45000441149697756,-0.40215600599970763,-0.6829251059819603,-0.25818190100556976,-1.2388254101375487,-0.11363583659498389
15333,7.0,300.81338999999997,4924.1848,0.0,0.0,0.0,0.0,-0.15282109134872465,0.0,-0.42179759574318154,-0.4008554994963576,-0.6741761270660034,-0.25784210758453474,-1.2364819653062689,-0.1193042818944159
15334,7.0,301.04877,5124.4866,0.0,0.0,0.0,0.0,-0.15283105815830847,0.0,-0.4756548884409825,-0.40027654865421963,-0.6817845511393963,-0.26935624602339175,-1.2633667328595888,-0.1292673877426979
15335,7.0,299.4967,5253.2992,0.0,0.0,0.0,0.0,-0.15284102496789229,0.0,-0.4915597739356725,-0.4226669947264846,-0.6826450132568174,-0.22944656386711276,-1.2231993710703788,-0.14561088894067586
15336,7.0,299.77398999999997,5092.3798,0.0,0.0,0.0,0.0,-0.15285099177747613,0.0,-0.48651490301278255,-0.3892315044816586,-0.6722099051144524,-0.2269703731402318,-1.2369165482741589,-0.14227139899609387
15337,7.0,299.93034,4762.1543,0.0,0.0,0.0,0.0,-0.15286095858705995,0.0,-0.4267567153101086,-0.3770880566706936,-0.6437312140938244,-0.2227251591962618,-1.271857059422519,-0.17864230517812282
15338,7.0,300.00007,4668.456,0.0,0.0,0.0,0.0,-0.15287092539664376,0.0,-0.37695547289510867,-0.3945681914333486,-0.6475703984577224,-0.25652086998413876,-1.2903074318184289,-0.19597115156834682
15339,7.0,300.62472,4952.2248,0.0,0.0,0.0,0.0,-0.15288089220622758,0.0,-0.43695977904707256,-0.39906548173719664,-0.6693274112299724,-0.24053955503440577,-1.2690060776161487,-0.1949158515891968
15340,7.0,300.49532999999997,5190.4519,0.0,0.0,0.0,0.0,-0.15289085901581143,0.0,-0.4907573305189775,-0.42261195498105264,-0.6643984865160254,-0.24630051006796777,-1.2603904120158487,-0.16208848365688783
15341,7.0,300.00855,4945.9214,0.0,0.0,0.0,0.0,-0.15290082582539521,0.0,-0.45192048770107957,-0.3928029881691366,-0.6587131300724244,-0.2706910814401297,-1.2726154771223688,-0.16874891093672084
15342,7.0,299.93816,4864.6145,0.0,0.0,0.0,0.0,-0.15291079263497906,0.0,-0.44491387339208055,-0.40445636743673563,-0.6293510977471174,-0.25421853270941575,-1.283467284368359,-0.15921058992786186
15343,7.0,299.51075,5032.6919,0.0,0.0,0.0,0.0,-0.15292075944456285,0.0,-0.45474777972011154,-0.38786614997190866,-0.6871987517237363,-0.22315910381658877,-1.244021863275399,-0.13395404435773486
15344,7.0,299.46842999999996,5259.6751,0.0,0.0,0.0,0.0,-0.1529307262541467,0.0,-0.46029838403291357,-0.42150600262940363,-0.7170054995179332,-0.2235978715073918,-1.2252097605937888,-0.12834187496885688
15345,7.0,300.78713,5164.3982,0.0,0.0,0.0,0.0,-0.1529406930637305,0.0,-0.4568894763239806,-0.4019858813079176,-0.7109727502775472,-0.25403040256334875,-1.2627467251233988,-0.14055482160418087
15346,7.0,300.41303,5036.4546,0.0,0.0,0.0,0.0,-0.15295065987331435,0.0,-0.46666326652357853,-0.39372239104487466,-0.6705707906926843,-0.27197477812432075,-1.2528462583962987,-0.15366144469520387
15347,7.0,300.41532,5082.5653,0.0,0.0,0.0,0.0,-0.15296062668289817,0.0,-0.47716626242264354,-0.4102615711021646,-0.6575451060196494,-0.25575764947881474,-1.2158719516472187,-0.15104501002198187
15348,7.0,301.23013,5192.8906,0.0,0.0,0.0,0.0,-0.15297059349248196,0.0,-0.5426808455334295,-0.38402263903008366,-0.6518055913582034,-0.24132346610677177,-1.2345829319688488,-0.14146459860396887
15349,7.0,300.7024,5347.5687,0.0,0.0,0.0,0.0,-0.15298056030206578,0.0,-0.49125591036318356,-0.4098571525897516,-0.7244142930566243,-0.2621550471651887,-1.2718569580975088,-0.14503442056128288
15350,7.0,300.24663,5191.3715,0.0,0.0,0.0,0.0,-0.15299052711164962,0.0,-0.4657964107980266,-0.4058660415058596,-0.7063848348847553,-0.24468932081895575,-1.2730221957125087,-0.17223669003343783
15351,7.0,299.95183,4935.4028,0.0,0.0,0.0,0.0,-0.15300049392123344,0.0,-0.43198194475079854,-0.37875870343557366,-0.6894985660057104,-0.2081559095858888,-1.2574187521225688,-0.14620512972682284
15352,7.0,299.10544,5028.029,0.0,0.0,0.0,0.0,-0.15301046073081728,0.0,-0.4675871378322576,-0.3844835462355716,-0.6763245719155383,-0.2504566187981438,-1.2469247234868888,-0.13827846406202185
15353,7.0,299.52062,5290.8335,0.0,0.0,0.0,0.0,-0.15302042754040107,0.0,-0.4848944222603535,-0.43616647514627954,-0.6872203744808704,-0.2745410163875887,-1.2814415947684388,-0.14243087442933286
15354,7.0,300.08078,4999.6013,0.0,0.0,0.0,0.0,-0.15303039434998492,0.0,-0.4658404871773765,-0.4201566777362356,-0.6337567902419254,-0.27877762783820975,-1.2513647854250887,-0.14838209756667287
15355,7.0,300.64011,4713.1322,0.0,0.0,0.0,0.0,-0.1530403611595687,0.0,-0.3457515545380217,-0.4243808262106266,-0.6625421312728174,-0.24664917955987878,-1.224221031146209,-0.16159461542564685
15356,7.0,300.10201,4870.0514,0.0,0.0,0.0,0.0,-0.15305032796915255,0.0,-0.3956926558643246,-0.4141364623995866,-0.6705449021526294,-0.23818817645484278,-1.2419748954233787,-0.16751361720980684
15357,7.0,300.26409,5175.5292,0.0,0.0,0.0,0.0,-0.15306029477873637,0.0,-0.4424811105644855,-0.4145512363280216,-0.7161992868108663,-0.2675761175852068,-1.284769716046899,-0.17042764343739883
15358,7.0,299.67456,5229.8039,0.0,0.0,0.0,0.0,-0.15307026158832018,0.0,-0.49640795274915056,-0.4347239008464086,-0.6585979438010564,-0.2417930771306188,-1.2817848839023187,-0.2027536349552258
15359,7.0,300.37858,5005.1569,0.0,0.0,0.0,0.0,-0.153080228397904,0.0,-0.5200175514742366,-0.3595029897276827,-0.6419221674977853,-0.23642562790589278,-1.2602578789027687,-0.16656579266876384
15360,7.0,300.71335,4765.8751,0.0,0.0,0.0,0.0,-0.15309019520748784,0.0,-0.47863237452233753,-0.3526741906787327,-0.6174004511651804,-0.2577967342450568,-1.2359706793058087,-0.15757229623867486
15361,7.0,300.74037999999996,4918.6454,0.0,0.0,0.0,0.0,-0.15310016201707163,0.0,-0.4265256841548076,-0.38728898244994664,-0.6813307062871053,-0.26356792310462873,-1.2743626242697987,-0.14576506507589185
15362,7.0,299.8145,5205.8024,0.0,0.0,0.0,0.0,-0.15311012882665548,0.0,-0.4638106027220426,-0.3946665881505596,-0.7239567498414683,-0.2590990848635888,-1.2513121977448989,-0.15578297762208285
15363,7.0,299.44626,5181.6295,0.0,0.0,0.0,0.0,-0.15312009563623927,0.0,-0.4465672037127516,-0.43488784471258857,-0.6936309444185443,-0.21966051334130482,-1.2343945687752589,-0.12391083095654688
15364,7.0,300.13561,4723.4659,0.0,0.0,0.0,0.0,-0.1531300624458231,0.0,-0.4237827046765966,-0.37523790251809763,-0.6367950713292804,-0.24541898248096775,-1.2404116531690987,-0.12288983962578287
15365,7.0,299.46959,5014.964,0.0,0.0,0.0,0.0,-0.15314002925540693,0.0,-0.47536372089224654,-0.4024439818106286,-0.6466161397785444,-0.24059274053215474,-1.2821815713164686,-0.13673729039491989
15366,7.0,298.73339,5435.0455,0.0,0.0,0.0,0.0,-0.15314999606499077,0.0,-0.5156305027812685,-0.4479336322676076,-0.6885539838649873,-0.25254987191473177,-1.263382640886159,-0.15669626046721685
15367,7.0,298.44597000000005,5208.7544,0.0,0.0,0.0,0.0,-0.1531599628745746,0.0,-0.4854008547928345,-0.38191218092679763,-0.7160182494154993,-0.21151282743219077,-1.220351429014309,-0.14467507141331787
15368,7.0,299.77706,4993.1439,0.0,0.0,0.0,0.0,-0.15316992968415838,0.0,-0.43971608276409857,-0.3878624009465386,-0.6902125932186793,-0.25518890206518374,-1.2413594473126388,-0.1133797477647099
15369,7.0,299.99447999999995,4986.1196,0.0,0.0,0.0,0.0,-0.1531798964937422,0.0,-0.4436257690699546,-0.38734665664563867,-0.6846834292779933,-0.25285524522986974,-1.295798234110329,-0.16072619929494084
15370,7.0,300.81023999999996,5012.9643,0.0,0.0,0.0,0.0,-0.15318986330332604,0.0,-0.4707876301281216,-0.39064077325074265,-0.6623875802350644,-0.28305223616758074,-1.276453972476199,-0.13984846469446885
15371,7.0,301.22272000000004,5005.5989,0.0,0.0,0.0,0.0,-0.15319983011290986,0.0,-0.4887437796552555,-0.3939185359992326,-0.6389147702734783,-0.21166754058995982,-1.2611908795948488,-0.1948514088828368
15372,7.0,300.76876,4903.5542,0.0,0.0,0.0,0.0,-0.1532097969224937,0.0,-0.4395288037481156,-0.4022132343653556,-0.6488159868056524,-0.2441263995933998,-1.2371639839485788,-0.15556968847603286
15373,7.0,299.54597,4701.5117,0.0,0.0,0.0,0.0,-0.1532197637320775,0.0,-0.3797440080978156,-0.4118467198236066,-0.6375514321314274,-0.2433196295987778,-1.2707281974861089,-0.2198647642964628
15374,7.0,299.85562999999996,4844.415,0.0,0.0,0.0,0.0,-0.15322973054166134,0.0,-0.3934455711175546,-0.4293633518548636,-0.6497722821175314,-0.22491349570223376,-1.258521066906359,-0.16299830118667982
15375,7.0,299.32928,4940.8931,0.0,0.0,0.0,0.0,-0.15323969735124512,0.0,-0.4181142391121626,-0.42856161771323864,-0.6552322714738904,-0.2443314408836358,-1.2351454884243689,-0.15989947840584987
15376,7.0,300.02532,4923.2599,0.0,0.0,0.0,0.0,-0.15324966416082897,0.0,-0.44494832389548056,-0.4024265640414096,-0.6491731777309044,-0.24925872413242076,-1.2532170066078887,-0.11986087030684689
15377,7.0,300.92812000000004,4778.0209,0.0,0.0,0.0,0.0,-0.15325963097041279,0.0,-0.4434723326073116,-0.38216949578969267,-0.6267572281536223,-0.2768397971544607,-1.304548155348879,-0.17719486727777184
15378,7.0,300.10472000000004,4911.8452,0.0,0.0,0.0,0.0,-0.1532695977799966,0.0,-0.4499905705006116,-0.3826922416487836,-0.6603954798759594,-0.24788738131457977,-1.2518051439185487,-0.15431411961461786
15379,7.0,300.46411,5230.4209,0.0,0.0,0.0,0.0,-0.15327956458958042,0.0,-0.5006385657591795,-0.3778462210580186,-0.7114325530404263,-0.22464950352117977,-1.2461354016589887,-0.15888891341861486
15380,7.0,300.28866,5238.7779,0.0,0.0,0.0,0.0,-0.15328953139916426,0.0,-0.49191557670828756,-0.37271455513156265,-0.7278275374759854,-0.2313465699246288,-1.2333116070683787,-0.1176718751883099
15381,7.0,299.72167,5159.1201,0.0,0.0,0.0,0.0,-0.15329949820874805,0.0,-0.4677226499006315,-0.40172522271969263,-0.6987958145507773,-0.23963840079296875,-1.2820611972045888,-0.15912482843939785
15382,7.0,299.75289,5354.3084,0.0,0.0,0.0,0.0,-0.1533094650183319,0.0,-0.5212345965668496,-0.4173483030965706,-0.6889931568558303,-0.24160859468491178,-1.246959579290329,-0.12085061300452689
15383,7.0,299.84325,5143.6623,0.0,0.0,0.0,0.0,-0.1533194318279157,0.0,-0.49568970028326453,-0.39249092740333863,-0.6753642641332633,-0.24094898913481377,-1.2502803038430588,-0.14919540302443984
15384,7.0,299.87434,4911.3899,0.0,0.0,0.0,0.0,-0.15332939863749953,0.0,-0.42982398548282463,-0.4106810262460616,-0.6524348905978103,-0.24685398780259177,-1.278289069732309,-0.14484198410229088
15385,7.0,301.36202000000003,4949.8414,0.0,0.0,0.0,0.0,-0.15333936544708335,0.0,-0.41663743722391366,-0.4112835047555216,-0.6767072359483044,-0.25801170538627277,-1.287777042343699,-0.16253587410604184
15386,7.0,300.82558,4968.0577,0.0,0.0,0.0,0.0,-0.1533493322566672,0.0,-0.41103216806821663,-0.4375956745448306,-0.6615376559186834,-0.2593123132146327,-1.2242611558501688,-0.15460549994587486
15387,7.0,301.0874,4928.5057,0.0,0.0,0.0,0.0,-0.153359299066251,0.0,-0.44029600632633265,-0.3970329121690976,-0.6608137596497404,-0.2383379348196228,-1.2340057847118886,-0.14413255704477584
15388,7.0,300.24934,5031.0754,0.0,0.0,0.0,0.0,-0.1533692658758348,0.0,-0.4862723106738406,-0.39053872883317164,-0.6525102460077474,-0.27799792175375876,-1.241468473023399,-0.13508679717452887
15389,7.0,298.55409,5034.9965,0.0,0.0,0.0,0.0,-0.15337923268541861,0.0,-0.44377297404448257,-0.40983322975489056,-0.6769069982055194,-0.25179261945249676,-1.2898264419959589,-0.17242697840221785
15390,7.0,299.44957999999997,5015.2632,0.0,0.0,0.0,0.0,-0.15338919949500246,0.0,-0.4370992529233376,-0.4004298533943496,-0.6869856753602074,-0.25651376710093776,-1.2596428360920688,-0.1958089302273368
15391,7.0,300.75247,5090.1685,0.0,0.0,0.0,0.0,-0.15339916630458628,0.0,-0.44950537569022664,-0.40992232483618357,-0.6878564118336423,-0.22559194770419178,-1.2819417350177988,-0.18025720292250083
15392,7.0,299.82799,4820.5735,0.0,0.0,0.0,0.0,-0.15340913311417012,0.0,-0.45687026510208456,-0.3549712387879337,-0.6534924805221864,-0.25290189526447376,-1.2769059833458087,-0.17485214185406284
15393,7.0,300.87169,4789.4386,0.0,0.0,0.0,0.0,-0.1534190999237539,0.0,-0.45765481452201356,-0.38995024330759265,-0.6082646741560493,-0.24772417712097275,-1.276583769814009,-0.17395175768270182
15394,7.0,301.55141000000003,4864.1465,0.0,0.0,0.0,0.0,-0.15342906673333775,0.0,-0.47929665115539655,-0.3901432573191416,-0.6091391697873554,-0.23932403994944376,-1.2158547263955188,-0.15251871136492487
15395,7.0,300.36831,5150.2008,0.0,0.0,0.0,0.0,-0.15343903354292154,0.0,-0.4725782355723405,-0.4066678567074926,-0.6862863504061895,-0.23052027460057978,-1.2280327766973989,-0.1156396501252449
15396,7.0,300.59827,5374.8465,0.0,0.0,0.0,0.0,-0.1534490003525054,0.0,-0.49096234141171047,-0.42046699571186164,-0.7223897889593214,-0.24621098942163278,-1.2524861493107589,-0.10924299211144389
15397,7.0,299.36705,5430.2392,0.0,0.0,0.0,0.0,-0.1534589671620892,0.0,-0.4549155131416655,-0.4332272392561996,-0.7625143814618103,-0.25465210242720576,-1.2924529889051788,-0.12253939694619688
15398,7.0,298.73672,5361.7045,0.0,0.0,0.0,0.0,-0.15346893397167302,0.0,-0.48765225598503054,-0.4162058838738226,-0.7259661362472793,-0.2702452919261338,-1.242913975616059,-0.1283375382584289
15399,7.0,299.49903,5352.6658,0.0,0.0,0.0,0.0,-0.15347890078125684,0.0,-0.5244430428759985,-0.4049876651266706,-0.6976460593973053,-0.2747231075630597,-1.2480796259508689,-0.11955116028128088
15400,7.0,299.23868999999996,5017.3252,0.0,0.0,0.0,0.0,-0.15348886759084068,0.0,-0.4887007165260055,-0.3758577177367686,-0.6605831439269804,-0.2810806237254977,-1.2715596705181686,-0.13838197769223787
15401,7.0,299.14315,4825.3763,0.0,0.0,0.0,0.0,-0.15349883440042447,0.0,-0.4366579521072846,-0.3652485838897287,-0.6648873695567743,-0.24281271070624874,-1.2792964429817288,-0.16267168001694485
15402,7.0,300.77322000000004,4936.1795,0.0,0.0,0.0,0.0,-0.1535088012100083,0.0,-0.43283407795239764,-0.40652296194319265,-0.6611182818347944,-0.2177460583373628,-1.279358251237829,-0.19012055429843783
15403,7.0,300.47303999999997,4840.0753,0.0,0.0,0.0,0.0,-0.1535187680195921,0.0,-0.4110070192007346,-0.3640463221160747,-0.6962086830704473,-0.2001922501599368,-1.2687474961906289,-0.18387873103241784
15404,7.0,300.21382,4994.3499,0.0,0.0,0.0,0.0,-0.15352873482917595,0.0,-0.4451262708780426,-0.4207195077692826,-0.6523118820356704,-0.2286159723626398,-1.2940548359882686,-0.17929113987965783
15405,7.0,299.78528,5107.9148,0.0,0.0,0.0,0.0,-0.15353870163875977,0.0,-0.5021817760589825,-0.4013807176856926,-0.6491160608227673,-0.23071274145707477,-1.2684069428320188,-0.15957374889620285
15406,7.0,299.88176,5034.4915,0.0,0.0,0.0,0.0,-0.15354866844834358,0.0,-0.4428032531687786,-0.4316471365202556,-0.6559093353232114,-0.25688152622473276,-1.2131111490997488,-0.16793264678866182
15407,7.0,300.29735,4957.6452,0.0,0.0,0.0,0.0,-0.15355863525792743,0.0,-0.41680183705263857,-0.42685695614250163,-0.6633415653367153,-0.26803037787003875,-1.224933041991479,-0.14048949737023386
15408,7.0,301.15291,5127.9482,0.0,0.0,0.0,0.0,-0.15356860206751122,0.0,-0.4070301746782506,-0.41986529740497863,-0.7318727257177143,-0.2795307259750347,-1.2572378869797187,-0.12383135161870289
15409,7.0,299.66775,5053.7862,0.0,0.0,0.0,0.0,-0.15357856887709503,0.0,-0.4173492048891596,-0.43350282301839754,-0.6853727737185263,-0.2749443912523987,-1.2753547987677187,-0.17897476266843382
15410,7.0,300.12517,5055.5692,0.0,0.0,0.0,0.0,-0.15358853568667885,0.0,-0.46970825532659555,-0.3962561850399406,-0.6708023588705383,-0.2321358714875268,-1.2600215889794488,-0.15474918894255585
15411,7.0,299.63372000000004,5122.1191,0.0,0.0,0.0,0.0,-0.1535985024962627,0.0,-0.5277562693779885,-0.39566380863397765,-0.6335762189416044,-0.24628731755166577,-1.2662793202720388,-0.16792877617327984
15412,7.0,299.45972,5256.5484,0.0,0.0,0.0,0.0,-0.1536084693058465,0.0,-0.5103230683599655,-0.4170270926823696,-0.6705092864116143,-0.22668148540422076,-1.2821073000841388,-0.14212981755962087
15413,7.0,299.7321,5284.658,0.0,0.0,0.0,0.0,-0.15361843611543033,0.0,-0.5143623088236076,-0.3964359761376846,-0.6956057992609473,-0.2153661770324868,-1.2515727043456089,-0.16628234608578984
15414,7.0,300.25467000000003,5247.8247,0.0,0.0,0.0,0.0,-0.15362840292501417,0.0,-0.42496166169795063,-0.4089197442597366,-0.7613262747920533,-0.1961914422725878,-1.225784476050509,-0.12742063811043788
15415,7.0,299.69054,5093.4314,0.0,0.0,0.0,0.0,-0.15363836973459796,0.0,-0.44806287231786257,-0.38553273631661866,-0.7146803337184573,-0.22821808931337179,-1.2649798270187886,-0.13042834944227588
15416,7.0,299.85558,5073.0244,0.0,0.0,0.0,0.0,-0.15364833654418178,0.0,-0.45778096415946357,-0.38583650869659863,-0.6984552814571693,-0.27907161222222376,-1.3162090427997186,-0.1043725825907719
15417,7.0,300.29564,5144.4042,0.0,0.0,0.0,0.0,-0.15365830335376562,0.0,-0.49489049926688955,-0.4164056562635386,-0.6524742756291974,-0.2805760555732007,-1.2702557189644788,-0.13439116045087487
15418,7.0,300.61669,5112.8283,0.0,0.0,0.0,0.0,-0.15366827016334944,0.0,-0.4491284973155316,-0.42897612819664754,-0.6760675204976694,-0.25253882748864176,-1.2490925720758388,-0.16171407761243684
15419,7.0,300.31605,4886.6106,0.0,0.0,0.0,0.0,-0.15367823697293326,0.0,-0.42363483095700266,-0.4074908184387126,-0.6542819442051004,-0.25324989601131875,-1.2466848871882188,-0.13238752930563188
15420,7.0,300.02281,4966.1007,0.0,0.0,0.0,0.0,-0.15368820378251705,0.0,-0.3843247496798996,-0.4191910807884386,-0.7060547990621833,-0.24284148700908875,-1.3015910862570388,-0.1911824302707368
15421,7.0,300.10204,5079.5427,0.0,0.0,0.0,0.0,-0.1536981705921009,0.0,-0.45179316269351355,-0.3971159784122956,-0.6951450136454713,-0.23689917034012778,-1.252719703458809,-0.16804188528194286
15422,7.0,299.20628999999997,4842.6514,0.0,0.0,0.0,0.0,-0.1537081374016847,0.0,-0.45242300908817457,-0.3989294934412756,-0.6206925919325894,-0.22350202818043277,-1.2710125154641687,-0.21035119698754678
15423,7.0,299.36647,4839.6493,0.0,0.0,0.0,0.0,-0.15371810421126852,0.0,-0.48360892199098454,-0.3786822942455326,-0.6088413249204604,-0.26907728813836074,-1.2779498335988289,-0.15705100945972786
15424,7.0,299.38536,4829.6678,0.0,0.0,0.0,0.0,-0.15372807102085234,0.0,-0.4499678129033655,-0.37816845485482065,-0.6399621365043453,-0.25935595389643973,-1.2921988657800987,-0.17346876162503383
15425,7.0,298.54832999999996,4787.4973,0.0,0.0,0.0,0.0,-0.15373803783043619,0.0,-0.41901584931614455,-0.40230857106726464,-0.6339552251415094,-0.2639822714680218,-1.240921621944429,-0.16709970454395684
15426,7.0,300.13256,4938.8009,0.0,0.0,0.0,0.0,-0.15374800464002,0.0,-0.3982166415984226,-0.3973808318559346,-0.7056746884196693,-0.2097510388208158,-1.212121406402069,-0.14939853940448786
15427,7.0,299.62152000000003,5190.22,0.0,0.0,0.0,0.0,-0.15375797144960385,0.0,-0.4506080147140486,-0.4139198396607076,-0.7131694359643433,-0.26531607336965773,-1.2590366085572386,-0.1295143471895709
15428,7.0,299.82052999999996,5278.1042,0.0,0.0,0.0,0.0,-0.1537679382591876,0.0,-0.5060495746057045,-0.40439909854108363,-0.6939632195238373,-0.24127017928401276,-1.3004777270471588,-0.11633462823633388
15429,7.0,300.01342,5277.6944,0.0,0.0,0.0,0.0,-0.15377790506877145,0.0,-0.49706392073138955,-0.4069365807665136,-0.7002868323379294,-0.24140264146958576,-1.2565941691911886,-0.15106235686369385
15430,7.0,300.11303,5247.3532,0.0,0.0,0.0,0.0,-0.15378787187835527,0.0,-0.5099672047923445,-0.42239272818941664,-0.6627044032763324,-0.22796773547866378,-1.256163740548709,-0.14511733481696587
15431,7.0,301.11374,5255.8253,0.0,0.0,0.0,0.0,-0.15379783868793911,0.0,-0.46857137858189457,-0.4076019314446786,-0.7214663634806863,-0.2572526594713608,-1.2574792431535387,-0.14413396546241486
15432,7.0,301.18971,5210.3027,0.0,0.0,0.0,0.0,-0.15380780549752293,0.0,-0.45998984937746357,-0.4143018045509046,-0.7095102554807103,-0.27981594574568375,-1.2740733413662488,-0.14485519688359486
15433,7.0,299.87368,5197.4367,0.0,0.0,0.0,0.0,-0.15381777230710675,0.0,-0.46985419373849857,-0.42709637700863057,-0.6829404060584704,-0.2559182090896608,-1.2281408904830686,-0.14450884773441286
15434,7.0,300.09105,5083.3893,0.0,0.0,0.0,0.0,-0.15382773911669054,0.0,-0.4996477490163935,-0.3897855293713366,-0.6557901264489464,-0.23147032829184278,-1.2438050277539987,-0.16696868117352584
15435,7.0,299.71569,4966.0123,0.0,0.0,0.0,0.0,-0.15383770592627438,0.0,-0.48425595310734154,-0.38260401796257665,-0.6426837668029494,-0.2424987754277658,-1.253829414968329,-0.13211031421077288
15436,7.0,299.78074,5074.8967,0.0,0.0,0.0,0.0,-0.1538476727358582,0.0,-0.4771445383404996,-0.39641227621784564,-0.6690850722035554,-0.2383957508703288,-1.3052261209907887,-0.17457791584699883
15437,7.0,300.53292999999996,5120.7973,0.0,0.0,0.0,0.0,-0.15385763954544204,0.0,-0.4379653183138116,-0.42723351027716466,-0.6913956843004414,-0.2320918457706818,-1.2273912880590887,-0.15376080400000985
15438,7.0,299.36462,4929.4711,0.0,0.0,0.0,0.0,-0.15386760635502583,0.0,-0.3991886929493566,-0.4205464851822066,-0.6787009372425674,-0.22186750378161776,-1.261028354278809,-0.1933196989716688
15439,7.0,298.99666,4888.3615,0.0,0.0,0.0,0.0,-0.15387757316460968,0.0,-0.4329833296921276,-0.3929250138786796,-0.6600314799100354,-0.2704341921422767,-1.2734686337065688,-0.12988298784095287
15440,7.0,300.6451,4979.3331,0.0,0.0,0.0,0.0,-0.1538875399741935,0.0,-0.45112832877289955,-0.39171746293950366,-0.6707471468725894,-0.27247752242643775,-1.3088573053741588,-0.17185290129306083
15441,7.0,300.18102999999996,4875.406,0.0,0.0,0.0,0.0,-0.15389750678377734,0.0,-0.4493210350995336,-0.4066589502391136,-0.6260216997735314,-0.2553582870844007,-1.267228127665679,-0.14497143693506687
15442,7.0,301.08842999999996,4998.731,0.0,0.0,0.0,0.0,-0.15390747359336113,0.0,-0.4248224411342105,-0.4289453963211146,-0.6657215783641044,-0.2217823198457108,-1.2568811216195088,-0.17736855860991385
15443,7.0,300.78177,5102.7427,0.0,0.0,0.0,0.0,-0.15391744040294494,0.0,-0.44753400642816754,-0.4087578978212636,-0.6948144711978493,-0.24912682936690375,-1.2433599069850687,-0.16224461536479687
15444,7.0,300.73017000000004,5181.8795,0.0,0.0,0.0,0.0,-0.15392740721252876,0.0,-0.4746639501081846,-0.41700905683058964,-0.6834889492651074,-0.25270167704471375,-1.2578018619853788,-0.1372168008722439
15445,7.0,300.29411,5256.3291,0.0,0.0,0.0,0.0,-0.1539373740221126,0.0,-0.49390426241455554,-0.4189378189259436,-0.6849507145218723,-0.24054641473758276,-1.2216380539912888,-0.16898979088299385
15446,7.0,301.1762,5411.2214,0.0,0.0,0.0,0.0,-0.15394734083169642,0.0,-0.5151301092193835,-0.42422615358286153,-0.7055199347318963,-0.23932625896716278,-1.230212581637529,-0.11849899124493987
15447,7.0,298.36564,5191.8417,0.0,0.0,0.0,0.0,-0.15395730764128027,0.0,-0.4971335512782616,-0.40288624521427663,-0.6781704400202113,-0.25704625029348976,-1.2748367239915888,-0.14116513253691385
15448,7.0,299.59718,5184.1179,0.0,0.0,0.0,0.0,-0.15396727445086403,0.0,-0.45016661257298557,-0.3855088844092646,-0.7401668971937853,-0.27206296128052376,-1.3132306954557789,-0.1121547182613089
15449,7.0,299.2567,5137.4738,0.0,0.0,0.0,0.0,-0.15397724126044787,0.0,-0.4590506374622706,-0.3959618358858906,-0.7066512892635524,-0.22563373413831578,-1.2558250110402789,-0.15956937165577084
15450,7.0,300.0003,4956.4662,0.0,0.0,0.0,0.0,-0.1539872080700317,0.0,-0.4216222933433806,-0.4050992036976786,-0.6799204546654243,-0.2196233270626348,-1.2406288939905386,-0.13952640315018386
15451,7.0,300.87095,4973.2866,0.0,0.0,0.0,0.0,-0.15399717487961553,0.0,-0.45825820495656355,-0.39728750138922364,-0.6562092472203104,-0.2324980374707698,-1.2525288071399687,-0.15069599602503686
15452,7.0,300.95108999999997,5096.3543,0.0,0.0,0.0,0.0,-0.15400714168919935,0.0,-0.46646230863124555,-0.41688711218105456,-0.6658150304208273,-0.24338481197771075,-1.2781838943719288,-0.16638658925607785
15453,7.0,299.82267,5016.1937,0.0,0.0,0.0,0.0,-0.15401710849878317,0.0,-0.4874022263903545,-0.4168805361879056,-0.6205148577325484,-0.2201440362890248,-1.2640535137773687,-0.16900651964214483
15454,7.0,299.40814,4974.3088,0.0,0.0,0.0,0.0,-0.15402707530836696,0.0,-0.4134683860786526,-0.4316517468082106,-0.6669455439549004,-0.21763604977400577,-1.2595391806068388,-0.1908776345081558
15455,7.0,299.06186,4898.0845,0.0,0.0,0.0,0.0,-0.1540370421179508,0.0,-0.4296559480862406,-0.4011655033644526,-0.6580739212468394,-0.27213464872509874,-1.3023832451852186,-0.16555141786115282
15456,7.0,298.99622,4882.5101,0.0,0.0,0.0,0.0,-0.15404700892753462,0.0,-0.4313619370146086,-0.38654890457690666,-0.6662503226637874,-0.24235684948625877,-1.3118754734470288,-0.17460111927428884
15457,7.0,300.01915,4837.9218,0.0,0.0,0.0,0.0,-0.15405697573711846,0.0,-0.45629621839043055,-0.38297168589386266,-0.6313395200083594,-0.27065168627624175,-1.2516055336488487,-0.15315490070521184
15458,7.0,299.12746,4975.3640000000005,0.0,0.0,0.0,0.0,-0.15406694254670225,0.0,-0.45987829054145357,-0.39972285813707464,-0.6527852826148913,-0.23068166507650778,-1.2273163075516889,-0.17407995408535384
15459,7.0,299.99392,5127.3028,0.0,0.0,0.0,0.0,-0.1540769093562861,0.0,-0.47014872527756657,-0.40602035949608967,-0.6824029275429253,-0.2547422918186068,-1.2669479640130288,-0.14521858889945885
15460,7.0,300.08679,5119.9531,0.0,0.0,0.0,0.0,-0.1540868761658699,0.0,-0.43087009528356757,-0.4115900534407756,-0.7138777484467483,-0.24413412055916178,-1.2721812994545187,-0.14644792471578486
15461,7.0,299.71419,5103.162,0.0,0.0,0.0,0.0,-0.15409684297545376,0.0,-0.4383417508584626,-0.4162067248714056,-0.6966853463149904,-0.23092263621528977,-1.2627323369719787,-0.15425428719621284
15462,7.0,299.54722999999996,5116.4285,0.0,0.0,0.0,0.0,-0.15410680978503755,0.0,-0.4741017077601955,-0.3918054941081916,-0.6893593150444673,-0.2201596099430618,-1.2538697423223089,-0.13115284352877787
15463,7.0,299.84865,5168.1964,0.0,0.0,0.0,0.0,-0.15411677659462136,0.0,-0.4764059904751105,-0.4104998773931836,-0.6840967878675963,-0.2770489015775977,-1.2775775655120887,-0.13848620059752387
15464,7.0,299.49584,5244.8636,0.0,0.0,0.0,0.0,-0.15412674340420518,0.0,-0.5051457555165045,-0.3931831089441516,-0.6959787056952503,-0.24833391050114878,-1.2794899737508287,-0.1189705781064819
15465,7.0,299.87503,5202.1783,0.0,0.0,0.0,0.0,-0.15413671021378902,0.0,-0.5008293810180116,-0.4058607928703416,-0.6746421410519954,-0.23047711014631977,-1.234227585158779,-0.16562773585868484
15466,7.0,299.39437000000004,5022.734,0.0,0.0,0.0,0.0,-0.15414667702337284,0.0,-0.45538205401770954,-0.38271556666608564,-0.6886880976482234,-0.22113240096656878,-1.226612706682249,-0.15055458684108086
15467,7.0,299.73019,5134.7049,0.0,0.0,0.0,0.0,-0.15415664383295669,0.0,-0.4715443455678035,-0.3964537080144346,-0.6928240224364074,-0.2304063346268348,-1.275498477631899,-0.15042783938607185
15468,7.0,299.5261,5244.9875,0.0,0.0,0.0,0.0,-0.15416661064254045,0.0,-0.4822760117494365,-0.3981742472142386,-0.7138949838309493,-0.2539359980515318,-1.2800292254540488,-0.15307174326950485
15469,7.0,300.00587,5286.1947,0.0,0.0,0.0,0.0,-0.1541765774521243,0.0,-0.5025579350261066,-0.42109395434373764,-0.6832192930159944,-0.24580276108884375,-1.234052292891479,-0.14394729439649187
15470,7.0,299.92034,5054.6882,0.0,0.0,0.0,0.0,-0.1541865442617081,0.0,-0.44996485421307353,-0.4108737362825806,-0.6756604168724913,-0.27435606784683575,-1.2353644517709788,-0.17406201955858383
15471,7.0,300.03717,4887.3719,0.0,0.0,0.0,0.0,-0.15419651107129195,0.0,-0.4258214956003096,-0.4036802989201436,-0.6561372254032024,-0.28124971490218575,-1.2672808166708787,-0.15354810253901785
15472,7.0,300.09979,4857.933,0.0,0.0,0.0,0.0,-0.15420647788087577,0.0,-0.3857888251468926,-0.4238617584493986,-0.6670397559491984,-0.2906449042019187,-1.2695089536407789,-0.19265111602568483
15473,7.0,301.18823,5020.3412,0.0,0.0,0.0,0.0,-0.1542164446904596,0.0,-0.4405359743475155,-0.4207109052759336,-0.6648114872567854,-0.2339569048322488,-1.272290527815299,-0.14492518206800184
15474,7.0,301.2523,5123.1296,0.0,0.0,0.0,0.0,-0.15422641150004338,0.0,-0.4550307196780356,-0.4332612337970546,-0.6690115305112974,-0.22608683931803375,-1.2666330458819488,-0.1892783509478188
15475,7.0,301.13831,4921.3964,0.0,0.0,0.0,0.0,-0.15423637830962722,0.0,-0.4710162092181806,-0.3741303390987897,-0.6508350598824193,-0.24009090815512776,-1.2973179066103089,-0.13694647587806486
15476,7.0,300.21455,4946.3518,0.0,0.0,0.0,0.0,-0.15424634511921104,0.0,-0.4310136322927336,-0.4006805517340916,-0.6718732730337295,-0.2276910371413558,-1.286356060403459,-0.15303724210359984
15477,7.0,299.74484,5137.4976,0.0,0.0,0.0,0.0,-0.15425631192879488,0.0,-0.46977767309094653,-0.3966245115837916,-0.6952687922776873,-0.22323243272632579,-1.2339121604026488,-0.15965684553690385
15478,7.0,299.54081,5310.9609,0.0,0.0,0.0,0.0,-0.15426627873837867,0.0,-0.46292312735695557,-0.41854973400514256,-0.7329266375442274,-0.24658238611328676,-1.223586939233629,-0.14396650561838786
15479,7.0,301.108,5283.0349,0.0,0.0,0.0,0.0,-0.15427624554796251,0.0,-0.5071382814406515,-0.4029613675766906,-0.6958110432012033,-0.25775533284597074,-1.282567011654509,-0.12677032406375688
15480,7.0,300.30467000000004,5057.2518,0.0,0.0,0.0,0.0,-0.15428621235754633,0.0,-0.44891922063987755,-0.38863148816994164,-0.6997275689452344,-0.28364808802138675,-1.2678605983780988,-0.1272943972804789
15481,7.0,299.59751,5105.3529,0.0,0.0,0.0,0.0,-0.15429617916713018,0.0,-0.5019317869943105,-0.4000077941976956,-0.6499602197460794,-0.23440961484442777,-1.2694863581635487,-0.14250807395445186
15482,7.0,300.19043999999997,5316.6143,0.0,0.0,0.0,0.0,-0.15430614597671397,0.0,-0.45564538758619855,-0.4466216963031296,-0.7138509074515993,-0.2374089972604438,-1.2368556519431488,-0.14968790336804585
15483,7.0,300.38998,5253.9336,0.0,0.0,0.0,0.0,-0.15431611278629778,0.0,-0.47122324661111353,-0.4287283885471976,-0.6971129783871943,-0.25680726512490376,-1.2635020017479388,-0.15625869854403285
15484,7.0,299.52159,5046.5015,0.0,0.0,0.0,0.0,-0.1543260795958816,0.0,-0.42881886164862654,-0.4136976035162746,-0.6914939796926424,-0.2434789530445018,-1.2639467172168288,-0.16049904888752287
15485,7.0,299.74568,4946.6257,0.0,0.0,0.0,0.0,-0.15433604640546544,0.0,-0.4544642318121276,-0.41046584232232464,-0.6387206315543184,-0.2344915665125158,-1.2545376767882288,-0.17293711943006485
15486,7.0,299.58572000000004,4988.9897,0.0,0.0,0.0,0.0,-0.15434601321504926,0.0,-0.4673832719121376,-0.39344630065762665,-0.6556987211574253,-0.23742560442958274,-1.2597739506550087,-0.16736587521272583
15487,7.0,300.79907000000003,5115.3183,0.0,0.0,0.0,0.0,-0.1543559800246331,0.0,-0.5115630433023415,-0.37272990587057764,-0.6706360743966273,-0.24987944114368077,-1.3095528002427987,-0.15919172321099984
15488,7.0,300.57687000000004,4867.0937,0.0,0.0,0.0,0.0,-0.15436594683421687,0.0,-0.4106244159629746,-0.3787454298592636,-0.6901051076480713,-0.24241701627719678,-1.2803947047651187,-0.15581117637236586
15489,7.0,300.66525,4660.5772,0.0,0.0,0.0,0.0,-0.1543759136438007,0.0,-0.4052816393781836,-0.3693684587963287,-0.6420489858803013,-0.2173251846433258,-1.2762041050015387,-0.17655564831968582
15490,7.0,300.66808,5138.2736,0.0,0.0,0.0,0.0,-0.15438588045338453,0.0,-0.4417027926326716,-0.4324498332494756,-0.6877542559585603,-0.21967211505494977,-1.254648121049129,-0.17198291141339184
15491,7.0,300.55113,5425.4728,0.0,0.0,0.0,0.0,-0.15439584726296837,0.0,-0.5426941393747414,-0.42048445401108464,-0.6860296637583563,-0.2621606707032437,-1.2856172997555488,-0.16153721480748184
15492,7.0,299.90957000000003,5359.8506,0.0,0.0,0.0,0.0,-0.1544058140725522,0.0,-0.5034999739090785,-0.44099971865328363,-0.6847610442356534,-0.26771657431406876,-1.2540479730148988,-0.13854273995310387
15493,7.0,299.5997,5039.6684,0.0,0.0,0.0,0.0,-0.154415780882136,0.0,-0.5002907777948555,-0.3975241358175776,-0.6341184394676174,-0.24779891444834876,-1.2524985109619788,-0.12675605750234886
15494,7.0,298.90575,5054.5887,0.0,0.0,0.0,0.0,-0.1544257476917198,0.0,-0.4120825943143856,-0.41701043485072564,-0.7073757225550483,-0.2479929721075008,-1.2625597804799489,-0.14318818768657388
15495,7.0,300.31494,5357.5037,0.0,0.0,0.0,0.0,-0.15443571450130364,0.0,-0.4974816736151186,-0.41456915058978966,-0.7164965439927033,-0.25915825866942876,-1.2888877671033188,-0.11875304344251288
15496,7.0,299.34025,5263.156999999999,0.0,0.0,0.0,0.0,-0.15444568131088746,0.0,-0.47901139085474354,-0.40159379404922163,-0.7192631119332423,-0.24360383611932676,-1.2631391568871289,-0.15974382292548786
15497,7.0,298.27037,4905.0113,0.0,0.0,0.0,0.0,-0.1544556481204713,0.0,-0.47375093070807656,-0.3652638029062306,-0.6519862031885284,-0.21800423446284278,-1.2385547710358387,-0.14347375196225687
15498,7.0,298.59758999999997,4718.7515,0.0,0.0,0.0,0.0,-0.1544656149300551,0.0,-0.43473472235747657,-0.3580649750532617,-0.6415829212318044,-0.2230878723345588,-1.2477271162410788,-0.17513698672217484
15499,7.0,300.10242,5081.7975,0.0,0.0,0.0,0.0,-0.15447558173963893,0.0,-0.4634906386054646,-0.3761297044611116,-0.7051191943173464,-0.22792450009689677,-1.2914017419264288,-0.13663785003010587
15500,7.0,299.00226000000004,5290.0417,0.0,0.0,0.0,0.0,-0.15448554854922275,0.0,-0.4374195716774506,-0.4219814195763236,-0.7486395932049753,-0.22624088373073678,-1.2768489373651788,-0.17860804719224185
15501,7.0,299.59938,5146.3279,0.0,0.0,0.0,0.0,-0.1544955153588066,0.0,-0.4713656589126685,-0.3874792201562216,-0.7055102987234454,-0.23661009008659775,-1.2704098343046888,-0.13246367505064685
15502,7.0,299.60094,4805.2738,0.0,0.0,0.0,0.0,-0.15450548216839038,0.0,-0.4122595077818456,-0.4088120053766036,-0.6396117343547634,-0.2511644651855027,-1.292734672432979,-0.18849538219804582
15503,7.0,299.87467999999996,4962.1533,0.0,0.0,0.0,0.0,-0.1545154489779742,0.0,-0.4772783785462085,-0.39488450784956663,-0.6362078118363225,-0.3037026886381217,-1.2929504947042787,-0.14791095653517486
15504,7.0,299.89951,5246.9874,0.0,0.0,0.0,0.0,-0.15452541578755802,0.0,-0.5054396385755086,-0.43399039896651753,-0.6555230945175924,-0.2625281967795157,-1.2564218153491788,-0.17360579356855785
15505,7.0,300.59278,5211.9551,0.0,0.0,0.0,0.0,-0.15453538259714186,0.0,-0.49778327763988456,-0.4247788105849046,-0.6617420993913603,-0.22609562419640078,-1.2317113811854488,-0.14020077175423887
15506,7.0,299.83069,4795.919,0.0,0.0,0.0,0.0,-0.15454534940672568,0.0,-0.37850855225088564,-0.39898001409126166,-0.6803510656929224,-0.22085245009643978,-1.2321519423289289,-0.18248990965035183
15507,7.0,300.80146,4918.6162,0.0,0.0,0.0,0.0,-0.15455531621630947,0.0,-0.43329151984254355,-0.3869351555150266,-0.6749098315959144,-0.23376702176350878,-1.2927941502138487,-0.1292122973347609
15508,7.0,299.72332,5215.7101,0.0,0.0,0.0,0.0,-0.15456528302589329,0.0,-0.44696853181235957,-0.4140407102651366,-0.7244364021738062,-0.2652831224764058,-1.2589271775464386,-0.17355779591132084
15509,7.0,299.13156000000004,5325.9113,0.0,0.0,0.0,0.0,-0.15457524983547713,0.0,-0.5254542259457945,-0.4050474874125746,-0.6884423237039674,-0.25395017342043075,-1.2406703359196287,-0.13937201423244686
15510,7.0,299.45068,5235.4017,0.0,0.0,0.0,0.0,-0.15458521664506095,0.0,-0.4872454462023815,-0.4221064445061626,-0.6820794879785043,-0.25115063432163776,-1.281075000882259,-0.17816139641566084
15511,7.0,299.95518,4917.1712,0.0,0.0,0.0,0.0,-0.15459518345464476,0.0,-0.4495547412350986,-0.3728541607303406,-0.6722883408046934,-0.24408280957409775,-1.2965788419873687,-0.13938602748132986
15512,7.0,300.37782999999996,5007.065,0.0,0.0,0.0,0.0,-0.1546051502642286,0.0,-0.4299466090099266,-0.4022247144889886,-0.6898514100880333,-0.24573211729187175,-1.2905954988218589,-0.15144705752916085
15513,7.0,300.01662999999996,5294.3555,0.0,0.0,0.0,0.0,-0.15461511707381242,0.0,-0.5122504119051795,-0.3895363914367486,-0.7075650686012354,-0.2122916013265498,-1.2618529372101885,-0.12382398529047589
15514,7.0,300.43793,5190.8323,0.0,0.0,0.0,0.0,-0.1546250838833962,0.0,-0.4715850174268176,-0.4103411416325176,-0.6959572450581323,-0.24982844426614775,-1.2532531796364588,-0.17500442321159185
15515,7.0,301.24679,5045.4556,0.0,0.0,0.0,0.0,-0.15463505069298006,0.0,-0.5018361665823735,-0.3981191872038046,-0.6337371635874883,-0.26030248147735474,-1.2674995773674687,-0.14638066517414686
15516,7.0,300.87318999999997,4962.299,0.0,0.0,0.0,0.0,-0.15464501750256388,0.0,-0.4374561601385616,-0.40406851556345763,-0.6668903015594484,-0.26192714695269675,-1.2462007562904387,-0.16772807159347183
15517,7.0,300.20917000000003,5203.9483,0.0,0.0,0.0,0.0,-0.1546549843121477,0.0,-0.4554853649979056,-0.44343732481635656,-0.6829476406641843,-0.25688143503222377,-1.217693370026979,-0.15346820776863285
15518,7.0,300.01746,5272.0515,0.0,0.0,0.0,0.0,-0.1546649511217315,0.0,-0.43606624444638753,-0.44219379336612963,-0.7243119750615262,-0.2264134098252638,-1.2614728670976787,-0.16573717700198584
15519,7.0,299.66837000000004,4983.6289,0.0,0.0,0.0,0.0,-0.15467491793131535,0.0,-0.4560072394619106,-0.37686565840624464,-0.6820258363857093,-0.2528063356475428,-1.2942612350336387,-0.12589614253998188
15520,7.0,299.87869,4985.4561,0.0,0.0,0.0,0.0,-0.15468488474089917,0.0,-0.4294556690714746,-0.4188170395140236,-0.6671814691081844,-0.2197061095958048,-1.2865925529767988,-0.17158426842654884
15521,7.0,300.39855,5098.0647,0.0,0.0,0.0,0.0,-0.15469485155048296,0.0,-0.5317064755553434,-0.3782362514190116,-0.6397416330175834,-0.24098361189073078,-1.2781885553223888,-0.13271539677298988
15522,7.0,299.99432,5297.1695,0.0,0.0,0.0,0.0,-0.1547048183600668,0.0,-0.4699096894464756,-0.4443214767211156,-0.6959760813774913,-0.23928495889308676,-1.2664837941422187,-0.17668341915729582
15523,7.0,299.86406,5274.4566,0.0,0.0,0.0,0.0,-0.15471478516965062,0.0,-0.49504969099010054,-0.4103048267489336,-0.6979485854796623,-0.2716489675546658,-1.280274735953279,-0.1381836846476679
15524,7.0,298.76916,4918.0664,0.0,0.0,0.0,0.0,-0.15472475197923444,0.0,-0.39344765841276064,-0.40597932286703964,-0.6955424103346913,-0.2637630446763858,-1.246846095279129,-0.14904823857991586
15525,7.0,299.70339,4958.1328,0.0,0.0,0.0,0.0,-0.15473471878881825,0.0,-0.4482213041034986,-0.4072257522125526,-0.6517015001754304,-0.2743796563091637,-1.2502789866179287,-0.12880920617997887
15526,7.0,300.44742,5258.9261,0.0,0.0,0.0,0.0,-0.1547446855984021,0.0,-0.46508220120003957,-0.43576053675871657,-0.6977394810565254,-0.26177782428545976,-1.2600613083833687,-0.16810435215060784
15527,7.0,299.62111,5080.8883,0.0,0.0,0.0,0.0,-0.15475465240798592,0.0,-0.5188035157344205,-0.3760203646428206,-0.6496392829094054,-0.24302781356997777,-1.3000393950538986,-0.13198428616333488
15528,7.0,300.15054,4925.7904,0.0,0.0,0.0,0.0,-0.1547646192175697,0.0,-0.4142314951264656,-0.4135329098450206,-0.6695528796422243,-0.2013580349299908,-1.269258883516099,-0.17322587544356283
15529,7.0,300.56812,5117.9349,0.0,0.0,0.0,0.0,-0.15477458602715352,0.0,-0.4696586162041966,-0.3968634562223736,-0.6892023626039773,-0.19054047553738082,-1.2348097986662387,-0.14299443400245188
15530,7.0,300.18981,5341.4845,0.0,0.0,0.0,0.0,-0.15478455283673737,0.0,-0.4742233383021996,-0.43329114494000653,-0.7161634177573263,-0.2254490794400918,-1.2463066409258887,-0.17786140345855384
15531,7.0,300.46873,5509.8265,0.0,0.0,0.0,0.0,-0.15479451964632118,0.0,-0.5268766568336775,-0.43508963347000357,-0.7128833954611133,-0.25831120185083073,-1.2573934208700688,-0.12624631164204086
15532,7.0,299.68519,5278.4397,0.0,0.0,0.0,0.0,-0.15480448645590503,0.0,-0.4903785573665955,-0.4084967630054916,-0.7056385559211032,-0.2840357271121437,-1.2530910596204587,-0.14614266285815786
15533,7.0,299.13108,5042.0757,0.0,0.0,0.0,0.0,-0.1548144532654888,0.0,-0.4757572874960886,-0.4279304135634436,-0.6289774009777364,-0.26121823665273275,-1.2643679252833988,-0.16697302801645486
15534,7.0,299.95046,4846.4206,0.0,0.0,0.0,0.0,-0.15482442007507263,0.0,-0.4028532740560226,-0.4031201742648636,-0.6672174090892313,-0.2636553868532608,-1.2660948074288287,-0.1884350330220898
15535,7.0,299.57155,4879.1054,0.0,0.0,0.0,0.0,-0.15483438688465645,0.0,-0.4392969113302296,-0.4008480419756216,-0.6429812468998083,-0.24887635394218377,-1.2974671583500386,-0.16822476679249185
15536,7.0,299.18089,4845.5372,0.0,0.0,0.0,0.0,-0.1548443536942403,0.0,-0.4080320257146256,-0.3810282114070566,-0.6838620786144324,-0.2074511840088378,-1.2914956702106988,-0.17125880236192784
15537,7.0,300.36442999999997,4864.8654,0.0,0.0,0.0,0.0,-0.1548543205038241,0.0,-0.4389293751214566,-0.40538027927541864,-0.6344879515140853,-0.20956794452774583,-1.2591848470468687,-0.17145086391838282
15538,7.0,300.85545,5059.8772,0.0,0.0,0.0,0.0,-0.15486428731340793,0.0,-0.4446366481647206,-0.43904889810325265,-0.6543907773983414,-0.2125439208664518,-1.270413988630099,-0.18570934972308584
15539,7.0,300.52707999999996,5396.6597,0.0,0.0,0.0,0.0,-0.15487425412299174,0.0,-0.5094902882352765,-0.42338374758222264,-0.7075757583897903,-0.2542486566348887,-1.2783312209364688,-0.1182768462930159
15540,7.0,300.35927999999996,5483.0265,0.0,0.0,0.0,0.0,-0.1548842209325756,0.0,-0.4914389438612475,-0.4397030321028106,-0.7355611789967363,-0.26912357340292875,-1.2534942318352487,-0.16152022260330484
15541,7.0,300.3826,5343.0636,0.0,0.0,0.0,0.0,-0.15489418774215938,0.0,-0.5006974761199935,-0.4044252201286616,-0.7190352117207504,-0.2523812468330897,-1.2577184715021488,-0.10435882265441389
15542,7.0,301.5826,5066.7355,0.0,0.0,0.0,0.0,-0.15490415455174322,0.0,-0.4414990584350646,-0.39529875488794963,-0.7033632521590484,-0.2686462211483177,-1.2774624603007287,-0.15585870793455686
15543,7.0,300.74292,4976.3544,0.0,0.0,0.0,0.0,-0.154914121361327,0.0,-0.47492949256189154,-0.3809108669129756,-0.6568471286882643,-0.2582471239145067,-1.2787386488016788,-0.1059986564837529
15544,7.0,300.57989,5040.2442,0.0,0.0,0.0,0.0,-0.15492408817091086,0.0,-0.47665857346003854,-0.3836923397624856,-0.6717574686798004,-0.25421916092447777,-1.2946472833217386,-0.14582714690951887
15545,7.0,300.20993,5071.0981,0.0,0.0,0.0,0.0,-0.15493405498049467,0.0,-0.4899651817232985,-0.3995400880840366,-0.6519819171406054,-0.24122010446407077,-1.2589143092701687,-0.14897584186027085
15546,7.0,300.4631,4961.5789,0.0,0.0,0.0,0.0,-0.15494402179007852,0.0,-0.4125463386201536,-0.4262663427917126,-0.6693834034304984,-0.23785944772489975,-1.271326521670159,-0.1794551648058458
15547,7.0,299.72377,5044.0068,0.0,0.0,0.0,0.0,-0.15495398859966233,0.0,-0.4674723872584326,-0.3837487980580576,-0.6820309229012113,-0.24561070966488976,-1.2616016511853887,-0.14971050897777688
15548,7.0,300.92298999999997,5353.391,0.0,0.0,0.0,0.0,-0.15496395540924612,0.0,-0.4610972405442546,-0.42809268556695856,-0.7381072738480163,-0.26738067177341773,-1.2602853379804788,-0.14091570075979687
15549,7.0,298.65733,5363.607,0.0,0.0,0.0,0.0,-0.15497392221882994,0.0,-0.5141884655039505,-0.42628686110623765,-0.6899272923880224,-0.25547422316084273,-1.254214247356309,-0.16505986997264085
15550,7.0,300.01677,5223.3906,0.0,0.0,0.0,0.0,-0.15498388902841378,0.0,-0.45501835802681556,-0.4310421552830486,-0.7017198010268524,-0.24059129158451176,-1.2795282746046088,-0.13859855990111286
15551,7.0,300.77692,5110.7103,0.0,0.0,0.0,0.0,-0.1549938558379976,0.0,-0.4661767950180676,-0.4294035880163346,-0.6579479337294054,-0.2382260213460778,-1.2898951403527388,-0.17118780392742083
15552,7.0,300.23749,4888.5985,0.0,0.0,0.0,0.0,-0.15500382264758145,0.0,-0.4216623775173366,-0.39206776376407565,-0.6722817344140414,-0.2129908249555578,-1.2823837147114188,-0.14209273260596086
15553,7.0,300.36458,4969.6497,0.0,0.0,0.0,0.0,-0.1550137894571652,0.0,-0.4621766356107826,-0.40862449331309764,-0.6398482775906085,-0.22100241111123978,-1.271593209096479,-0.18686038157168383
15554,7.0,301.19856,5161.0466,0.0,0.0,0.0,0.0,-0.15502375626674905,0.0,-0.4374872871816336,-0.4358428430643396,-0.6954991749529243,-0.2193184603725468,-1.2737959134888686,-0.17572065930977884
15555,7.0,300.19001000000003,4945.697,0.0,0.0,0.0,0.0,-0.15503372307633287,0.0,-0.48360407865550653,-0.38237156825713564,-0.6373927369007655,-0.27561016749560574,-1.2742215798558787,-0.18102097058287883
15556,7.0,300.42419,4970.9916,0.0,0.0,0.0,0.0,-0.1550436898859167,0.0,-0.44767491911957463,-0.4089894761316186,-0.6543929153560524,-0.26057569423431876,-1.2789918600016688,-0.16722885340170285
15557,7.0,301.33682000000005,5148.6691,0.0,0.0,0.0,0.0,-0.15505365669550053,0.0,-0.4999662540528275,-0.3996510491024876,-0.6654495511097573,-0.2759183171160177,-1.2470156120208589,-0.16853363582047484
15558,7.0,299.26724,5236.0203,0.0,0.0,0.0,0.0,-0.15506362350508435,0.0,-0.42602531085792456,-0.4415087552385216,-0.7240853515441603,-0.2507818822127448,-1.2547425559584486,-0.14938366489301988
15559,7.0,299.20822000000004,5116.5929,0.0,0.0,0.0,0.0,-0.15507359031466816,0.0,-0.47661637159337356,-0.37337983488222065,-0.7053202839321923,-0.2371278000926918,-1.271358641698329,-0.10986654622298389
15560,7.0,299.80245,5210.0733,0.0,0.0,0.0,0.0,-0.155083557124252,0.0,-0.43673383440727354,-0.39395683685301264,-0.7530415062769102,-0.2266019047413668,-1.2778856948674988,-0.1172406460782509
15561,7.0,300.2667,5297.549,0.0,0.0,0.0,0.0,-0.1550935239338358,0.0,-0.5353929529966704,-0.40102550259813563,-0.6739041606066624,-0.2226356993449328,-1.276883590518599,-0.1073008855122729
15562,7.0,299.85305,5214.9689,0.0,0.0,0.0,0.0,-0.15510349074341964,0.0,-0.4697410744973346,-0.4081238869686916,-0.7073553764930404,-0.24413029047378376,-1.2849910098687387,-0.15180726793971086
15563,7.0,299.59488,5099.3289,0.0,0.0,0.0,0.0,-0.15511345755300343,0.0,-0.5012008486371725,-0.4042419333180726,-0.6446258734021204,-0.24576804714041775,-1.275376988944909,-0.14096749810490886
15564,7.0,299.67791,5028.6738,0.0,0.0,0.0,0.0,-0.15512342436258728,0.0,-0.4320245721825056,-0.39927437337781263,-0.6972923135223934,-0.2259635977083708,-1.2792265287248288,-0.16813379719851385
15565,7.0,301.13451000000003,4920.3184,0.0,0.0,0.0,0.0,-0.1551333911721711,0.0,-0.4586275143530116,-0.3858112990341106,-0.6512151097299274,-0.23422880036408278,-1.2590762266361488,-0.17502611689623282
15566,7.0,300.2079,4875.1109,0.0,0.0,0.0,0.0,-0.15514335798175494,0.0,-0.41162754369447563,-0.4076772767221146,-0.6626071717967364,-0.2507535720049508,-1.2638285722551688,-0.1973328786427388
15567,7.0,300.59022999999996,4978.3035,0.0,0.0,0.0,0.0,-0.15515332479133875,0.0,-0.4859918633111625,-0.37612336151548564,-0.6511647309349554,-0.2571839307170778,-1.2896450702280589,-0.16895816734737285
15568,7.0,301.40563,5054.1908,0.0,0.0,0.0,0.0,-0.15516329160092254,0.0,-0.4305901849434426,-0.4180236748182246,-0.6877339402940553,-0.25632815994761976,-1.2714527726326186,-0.16721460710529684
15569,7.0,300.65427999999997,5200.8959,0.0,0.0,0.0,0.0,-0.15517325841050636,0.0,-0.4669842641552585,-0.4420946468438446,-0.6718635964952744,-0.2332596367759338,-1.2597155874492487,-0.15489800498474285
15570,7.0,299.75327999999996,5253.1997,0.0,0.0,0.0,0.0,-0.1551832252200902,0.0,-0.46505864313521456,-0.41603234452919563,-0.7157505588715802,-0.24283871070381477,-1.2603245507593488,-0.15270285943809886
15571,7.0,299.98464,5215.3684,0.0,0.0,0.0,0.0,-0.15519319202967402,0.0,-0.4677911253423896,-0.4178259795912136,-0.6997246507849464,-0.23991173513994474,-1.263871432734399,-0.11233184451128989
15572,7.0,298.43174,4964.1013,0.0,0.0,0.0,0.0,-0.15520315883925787,0.0,-0.4448513558609105,-0.38838228944034764,-0.6757292064217804,-0.2297518054597378,-1.2868521476524188,-0.14370141912722587
15573,7.0,299.77923,5176.4683,0.0,0.0,0.0,0.0,-0.15521312564884163,0.0,-0.5139465013800705,-0.4012735462226156,-0.6582970794488634,-0.23633378691682874,-1.2925486397146186,-0.1151553064449439
15574,7.0,300.34617000000003,5160.6967,0.0,0.0,0.0,0.0,-0.15522309245842547,0.0,-0.4726036985473535,-0.4270231899539076,-0.6690960457021383,-0.2470183572338138,-1.2949734485289288,-0.19500975960846484
15575,7.0,300.16902000000005,5119.2939,0.0,0.0,0.0,0.0,-0.1552330592680093,0.0,-0.4943983636933196,-0.3935116147590726,-0.6682275383789233,-0.25729804294333974,-1.279179919220229,-0.13697158421554287
15576,7.0,300.44409,5292.7064,0.0,0.0,0.0,0.0,-0.15524302607759313,0.0,-0.4428837862867266,-0.4431782570307886,-0.7227885231386734,-0.24931364228784075,-1.2432131883705888,-0.18579531386156983
15577,7.0,301.5491,5371.6312,0.0,0.0,0.0,0.0,-0.15525299288717695,0.0,-0.5068129470985435,-0.4140542270214706,-0.7119745607839183,-0.2556260789533298,-1.2321225580760289,-0.12549661802555187
15578,7.0,300.24773999999996,5321.375,0.0,0.0,0.0,0.0,-0.15526295969676077,0.0,-0.47257638132465757,-0.40801922836586263,-0.7369695155757283,-0.2558359027840378,-1.2456077010069089,-0.16265306661260784
15579,7.0,301.32262000000003,5438.2412,0.0,0.0,0.0,0.0,-0.15527292650634458,0.0,-0.5419896975077184,-0.4240502229679986,-0.6870496215740183,-0.26439861593411174,-1.2789433253218787,-0.1119661625501999
15580,7.0,299.3905,5184.05,0.0,0.0,0.0,0.0,-0.15528289331592843,0.0,-0.4630080275828345,-0.40341517189897763,-0.7093985649221873,-0.24300141840487274,-1.2582533662299387,-0.14168150505287588
15581,7.0,300.0345,4986.2516,0.0,0.0,0.0,0.0,-0.15529286012551222,0.0,-0.4597022383365786,-0.4035204992468726,-0.6524732319815943,-0.24325437629233776,-1.2719972932363588,-0.15093453536357884
15582,7.0,299.48098,5039.0979,0.0,0.0,0.0,0.0,-0.15530282693509606,0.0,-0.4121323144967926,-0.44378212369288556,-0.6758454971357574,-0.23150085751735577,-1.2637939191017487,-0.17104673924849884
15583,7.0,299.17376,5021.5711,0.0,0.0,0.0,0.0,-0.15531279374467985,0.0,-0.45680353245049854,-0.39167781446309063,-0.6779508788560423,-0.24295465691275775,-1.2764134424721987,-0.15188100214948785
15584,7.0,300.18731,4940.0654,0.0,0.0,0.0,0.0,-0.1553227605542637,0.0,-0.4234477545910396,-0.4117517276267316,-0.6664570459491893,-0.23575839258254175,-1.274189966452759,-0.16390138060330683
15585,7.0,299.408,4875.5522,0.0,0.0,0.0,0.0,-0.1553327273638475,0.0,-0.45134973405225054,-0.4010399515445616,-0.6296564406647525,-0.22928541657120877,-1.2658875977833788,-0.19914912944698882
15586,7.0,299.83732000000003,4968.555,0.0,0.0,0.0,0.0,-0.15534269417343136,0.0,-0.44022257609158555,-0.39261480736056464,-0.6774792818619993,-0.23572449936669676,-1.2586901783480489,-0.18109992303067082
15587,7.0,301.10627999999997,5097.3562,0.0,0.0,0.0,0.0,-0.15535266098301517,0.0,-0.4720094780262085,-0.40352008381433163,-0.6739394622401463,-0.21858327649748976,-1.2860339481966687,-0.18338128602832382
15588,7.0,300.25167000000005,4971.7308,0.0,0.0,0.0,0.0,-0.15536262779259896,0.0,-0.4113496699870516,-0.3764647761366806,-0.7234675628256894,-0.2421680809926288,-1.2652719470226186,-0.14457183136062884
15589,7.0,300.25163,5082.791,0.0,0.0,0.0,0.0,-0.15537259460218278,0.0,-0.47165451625117655,-0.3921032781800806,-0.6812837522774713,-0.2292556776807738,-1.2603890947907188,-0.16645847935067284
15590,7.0,301.54842,5231.2392,0.0,0.0,0.0,0.0,-0.15538256141176662,0.0,-0.4657080756543086,-0.3879059099058326,-0.7365520970645323,-0.25593049981337374,-1.2587113552751388,-0.1126108023963209
15591,7.0,300.23238,5122.2624,0.0,0.0,0.0,0.0,-0.15539252822135044,0.0,-0.5133047796942375,-0.38532950874406163,-0.6584055782695714,-0.24502376427946276,-1.2749888128315987,-0.1290280175390739
15592,7.0,300.42532,5412.9551,0.0,0.0,0.0,0.0,-0.15540249503093428,0.0,-0.4711256604939825,-0.44425926316497555,-0.7300182753846943,-0.2577437108673237,-1.2683978235811186,-0.12473059081745089
15593,7.0,300.02013,5464.0674,0.0,0.0,0.0,0.0,-0.15541246184051805,0.0,-0.5327190265127745,-0.4237371793496036,-0.7044838561071433,-0.25061952914922175,-1.2596875204214788,-0.14599113130570288
15594,7.0,299.43307999999996,5120.2083,0.0,0.0,0.0,0.0,-0.1554224286501019,0.0,-0.4132006550047296,-0.43833764719555757,-0.7048771693984603,-0.26486304924994775,-1.2487409742911388,-0.17936297931174783
15595,7.0,299.99178,4957.8883,0.0,0.0,0.0,0.0,-0.1554323954596857,0.0,-0.5049563385428105,-0.3734509245092366,-0.6286669918096014,-0.25525985996968675,-1.2778398959629789,-0.15755268984923984
15596,7.0,299.69417000000004,4993.5518,0.0,0.0,0.0,0.0,-0.15544236226926955,0.0,-0.45739780363414856,-0.39198578169848464,-0.6685314728789193,-0.25186780260991676,-1.2721954849559187,-0.15427792632104584
15597,7.0,299.12975,4860.3855,0.0,0.0,0.0,0.0,-0.15545232907885337,0.0,-0.46667623612485853,-0.3919274995527326,-0.6188321127614744,-0.23397752447178374,-1.2718797562247588,-0.16640318629271583
15598,7.0,300.11593999999997,5020.4223,0.0,0.0,0.0,0.0,-0.15546229588843719,0.0,-0.4233209767385276,-0.4175899024504146,-0.6851721603312274,-0.23813837521242778,-1.2527781679895789,-0.16562199073061784
15599,7.0,298.42113,5045.0111,0.0,0.0,0.0,0.0,-0.155472262698021,0.0,-0.4666154917813636,-0.39634890755659163,-0.6705930011348763,-0.2321636446727678,-1.2892913446181489,-0.16499507262874585
15600,7.0,299.77271,5109.5122,0.0,0.0,0.0,0.0,-0.1554822295076048,0.0,-0.4368344501422036,-0.40755469372501657,-0.7087749905456453,-0.23362806464479477,-1.2933158726903387,-0.15493286078818283
15601,7.0,300.75927,5306.8539,0.0,0.0,0.0,0.0,-0.15549219631718864,0.0,-0.4804204873713105,-0.44202388145686056,-0.6907066944974433,-0.2152975496032138,-1.288213854461809,-0.18495060778320382
15602,7.0,300.36207,5464.7564,0.0,0.0,0.0,0.0,-0.15550216312677248,0.0,-0.4974486923243635,-0.4501910015028926,-0.7135098069379353,-0.23785033860650076,-1.264149671211859,-0.15351053122530986
15603,7.0,299.93812,5278.5356,0.0,0.0,0.0,0.0,-0.15551212993635627,0.0,-0.4895765192499405,-0.4403977265038716,-0.6745687716122543,-0.25461628403617076,-1.273190091254079,-0.19016656598547882
15604,7.0,300.78272000000004,4934.8861,0.0,0.0,0.0,0.0,-0.1555220967459401,0.0,-0.41736383622060363,-0.42104378833128664,-0.6616745257421913,-0.27312803912313877,-1.286114906879659,-0.16143173547207185
15605,7.0,300.17251,5058.6172,0.0,0.0,0.0,0.0,-0.15553206355552393,0.0,-0.4492591255184236,-0.4236794443589056,-0.6647547452511854,-0.23605560923437477,-1.2773219225118588,-0.18818257162717383
15606,7.0,300.80105,5229.9361,0.0,0.0,0.0,0.0,-0.15554203036510778,0.0,-0.4702868008686935,-0.3993649579367526,-0.7201182443551373,-0.24393162252667677,-1.2552595161594688,-0.14170269211246686
15607,7.0,300.41173,4901.7927,0.0,0.0,0.0,0.0,-0.1555519971746916,0.0,-0.4757399102568735,-0.36552211075422364,-0.6487605721576833,-0.25281184772808674,-1.2965008217296687,-0.14165844348059986
15608,7.0,299.03968,4807.862,0.0,0.0,0.0,0.0,-0.15556196398427538,0.0,-0.4377765295551796,-0.3526132335527166,-0.6710802325779623,-0.2532080893121928,-1.2959361374489387,-0.12718119697930685
15609,7.0,299.75894,5272.4796,0.0,0.0,0.0,0.0,-0.1555719307938592,0.0,-0.5105543224302885,-0.39702476563829364,-0.6951230666483054,-0.24904900162672278,-1.2748989375477289,-0.12875429815705988
15610,7.0,299.85694,5489.475,0.0,0.0,0.0,0.0,-0.15558189760344304,0.0,-0.4974674678487165,-0.4242527513979866,-0.7469430984300442,-0.2220690696240108,-1.2623770914869188,-0.16364948662844686
15611,7.0,300.11941,5411.3727,0.0,0.0,0.0,0.0,-0.15559186441302686,0.0,-0.5153757717061285,-0.4135131616005716,-0.7160332353844784,-0.2525105071483468,-1.284224688818109,-0.11768012304412388
15612,7.0,300.36577,5247.3493,0.0,0.0,0.0,0.0,-0.15560183122261068,0.0,-0.4523791049613416,-0.4062058349268946,-0.7364782311322423,-0.2421845057767498,-1.2908494192969187,-0.16863546745552485
15613,7.0,299.7773,5012.4707,0.0,0.0,0.0,0.0,-0.1556117980321945,0.0,-0.48025576330255354,-0.38840465187005463,-0.6550055162340114,-0.25310774715478973,-1.303312496851929,-0.14637760515884485
15614,7.0,299.88357,5054.1156,0.0,0.0,0.0,0.0,-0.1556217648417783,0.0,-0.4173775353619556,-0.4350180676154406,-0.6839293482885714,-0.23731498791616576,-1.2774097712955288,-0.1884299667715898
15615,7.0,300.47055,5222.6154,0.0,0.0,0.0,0.0,-0.15563173165136213,0.0,-0.4945921072449405,-0.4308132924829616,-0.6621392630330574,-0.24671030893841175,-1.277445437699049,-0.15056584404969187
15616,7.0,300.66,4893.1265,0.0,0.0,0.0,0.0,-0.15564169846094597,0.0,-0.4055929199414046,-0.40803174200459763,-0.6737636126852914,-0.2399436930480988,-1.264724184018559,-0.18105771103150484
15617,7.0,300.97726,4590.3074,0.0,0.0,0.0,0.0,-0.1556516652705298,0.0,-0.4048088264840206,-0.38526575504776966,-0.6052642278274284,-0.2185516022993638,-1.2392594864803887,-0.18472536228597383
15618,7.0,301.19591,4995.1348,0.0,0.0,0.0,0.0,-0.1556616320801136,0.0,-0.4247023304673566,-0.4118187338558446,-0.6818751964933424,-0.2241884949906818,-1.231476611137279,-0.16483175697762784
15619,7.0,300.20504,5554.776999999999,0.0,0.0,0.0,0.0,-0.15567159888969742,0.0,-0.5459845373519785,-0.4240595955314236,-0.7184693723349064,-0.23315122914773476,-1.265636109108559,-0.15682649350256986
15620,7.0,299.99478,5458.8255,0.0,0.0,0.0,0.0,-0.15568156569928127,0.0,-0.48748883900890255,-0.45376348830796964,-0.7180942975453893,-0.25012966325587577,-1.275299981937309,-0.13798760048831588
15621,7.0,300.17971,5166.073,0.0,0.0,0.0,0.0,-0.15569153250886505,0.0,-0.49569904244918656,-0.4087406827020646,-0.6659174598734364,-0.24738920677041376,-1.292656956150309,-0.18585083996704982
15622,7.0,300.39221000000003,5280.7304,0.0,0.0,0.0,0.0,-0.15570149931844887,0.0,-0.4720702932972105,-0.41624219875740665,-0.7168976998397943,-0.25252632398240776,-1.2738612681203187,-0.15043890407716387
15623,7.0,300.50746000000004,5369.085,0.0,0.0,0.0,0.0,-0.1557114661280327,0.0,-0.49028652386001254,-0.4452237455376626,-0.6965574842848713,-0.2551531951316598,-1.2855092872948888,-0.17163591378414583
15624,7.0,300.29191000000003,5276.0386,0.0,0.0,0.0,0.0,-0.15572143293761653,0.0,-0.46513082707233855,-0.40749582389420663,-0.7311573306171103,-0.24242340988532776,-1.2692079170360688,-0.11392504857102688
15625,7.0,300.21114,5003.7631,0.0,0.0,0.0,0.0,-0.15573139974720035,0.0,-0.48563989062392554,-0.3882985240545806,-0.6470806237568855,-0.25683641633028076,-1.2759350870999888,-0.13926180301906987
15626,7.0,301.1441,4564.5183,0.0,0.0,0.0,0.0,-0.15574136655678417,0.0,-0.37757712209646066,-0.38368057592882465,-0.6262418891527625,-0.24107944508518878,-1.2701191328509989,-0.12742808549867288
15627,7.0,301.60752,4789.9593,0.0,0.0,0.0,0.0,-0.155751333366368,0.0,-0.45752762123696056,-0.37565619242437964,-0.6228442082549375,-0.2689594370192297,-1.2824130989643188,-0.12607569045770187
15628,7.0,300.69579,5648.4877,0.0,0.0,0.0,0.0,-0.1557613001759518,0.0,-0.5037735007735735,-0.45930442621481754,-0.7539212910737383,-0.23883124576330877,-1.2454399067903488,-0.15747235938131185
15629,7.0,300.44077999999996,5575.4423,0.0,0.0,0.0,0.0,-0.15577126698553562,0.0,-0.5275256739202305,-0.4460122871629856,-0.7212572590575493,-0.25251114549590975,-1.2469925099185788,-0.14756310777584486
15630,7.0,299.59652,5045.5694,0.0,0.0,0.0,0.0,-0.15578123379511943,0.0,-0.4474811654354526,-0.39389828112973363,-0.6923476530343934,-0.23069950841076878,-1.2636260235601788,-0.17302147250088984
15631,7.0,299.27495,5335.3394,0.0,0.0,0.0,0.0,-0.15579120060470328,0.0,-0.5038059754392785,-0.42857552963711154,-0.6894284693637923,-0.24632632768051574,-1.2880503158956687,-0.14493538549650886
15632,7.0,299.33687000000003,5659.951999999999,0.0,0.0,0.0,0.0,-0.1558011674142871,0.0,-0.5162469641421085,-0.4425746234162146,-0.7616625015727363,-0.2147037951771148,-1.2930858649176387,-0.15539641257643186
15633,7.0,299.67377999999997,5350.0759,0.0,0.0,0.0,0.0,-0.1558111342238709,0.0,-0.5196111368591265,-0.41986644237759163,-0.6868118928355563,-0.2243814786047278,-1.290727120009849,-0.16363328475934785
15634,7.0,299.61877000000004,4866.2372,0.0,0.0,0.0,0.0,-0.1558211010334547,0.0,-0.4048145918770896,-0.39951174747873963,-0.6748882493687843,-0.21953604569902077,-1.2660934902036989,-0.16965309479595686
15635,7.0,300.36206,4508.0325,0.0,0.0,0.0,0.0,-0.15583106784303855,0.0,-0.38803287014336263,-0.35494370878271664,-0.6273527557673965,-0.23384784872398579,-1.275090441816629,-0.17511742086274384
15636,7.0,300.38626,4727.558,0.0,0.0,0.0,0.0,-0.15584103465262236,0.0,-0.3956157096517306,-0.4036585748379996,-0.6377853105195094,-0.23953819035807875,-1.2670951892525588,-0.15051510048468386
15637,7.0,299.93002,5178.5776,0.0,0.0,0.0,0.0,-0.1558510014622062,0.0,-0.45241788204266853,-0.4114369412181646,-0.7103034681889944,-0.23694904251004978,-1.2664964597684687,-0.16946434656732884
15638,7.0,300.57338,5492.0176,0.0,0.0,0.0,0.0,-0.15586096827179002,0.0,-0.5236516540178945,-0.4350975672182866,-0.7106869833518443,-0.24181834758811274,-1.2749566928034288,-0.13103589420223588
15639,7.0,300.37448,5154.2055,0.0,0.0,0.0,0.0,-0.15587093508137384,0.0,-0.4791105981720345,-0.41838211204109954,-0.6692570612755294,-0.25228812914889975,-1.2712946042920088,-0.16577743342845885
15640,7.0,300.17947999999996,5179.3115,0.0,0.0,0.0,0.0,-0.15588090189095763,0.0,-0.46463625969852856,-0.4075667716662086,-0.7021783473596073,-0.25273751570075076,-1.2530238811388288,-0.14445641204173787
15641,7.0,300.89712000000003,5937.0625,0.0,0.0,0.0,0.0,-0.15589086870054147,0.0,-0.5652455503578925,-0.47899164261029453,-0.7604815585811863,-0.24184590799083275,-1.2685388679950387,-0.16739419555302085
15642,7.0,299.25642,5692.9297,0.0,0.0,0.0,0.0,-0.1559008355101253,0.0,-0.5333448097745345,-0.4168887739112186,-0.7802748825271353,-0.24856229707368876,-1.2726971450804287,-0.13236611933101886
15643,7.0,299.21126,4833.9479,0.0,0.0,0.0,0.0,-0.1559108023197091,0.0,-0.43062284199416556,-0.38557704574349166,-0.6531995701832785,-0.2590987099610518,-1.3074068378560089,-0.17045286323238784
15644,7.0,299.58639,4534.707,0.0,0.0,0.0,0.0,-0.15592076912929292,0.0,-0.4041540946669036,-0.3512858961867186,-0.6229977156450873,-0.26998280948772874,-1.3000090988759088,-0.16168339639940885
15645,7.0,298.97638,4732.1052,0.0,0.0,0.0,0.0,-0.15593073593887677,0.0,-0.4284891196685836,-0.37412234455550064,-0.6358303660415714,-0.2673762844004847,-1.2744183530252988,-0.16118550556527084
15646,7.0,298.29922999999997,5009.9432,0.0,0.0,0.0,0.0,-0.15594070274846059,0.0,-0.4155605043551286,-0.4301572637057166,-0.6771798765899504,-0.25142965300167475,-1.256692657100909,-0.17117480392863785
15647,7.0,299.80983,5323.9313,0.0,0.0,0.0,0.0,-0.15595066955804443,0.0,-0.4976138115606595,-0.42967637520825663,-0.6910519898665214,-0.2360275928691098,-1.259041877457759,-0.15228946352979986
15648,7.0,299.53447,5206.4759,0.0,0.0,0.0,0.0,-0.1559606363676282,0.0,-0.41666548398668163,-0.4480301646046346,-0.7179430091729583,-0.2230907094348388,-1.2552593135094487,-0.16202280478540584
15649,7.0,301.13214,5247.5713,0.0,0.0,0.0,0.0,-0.15597060317721204,0.0,-0.47555190170081857,-0.44752745070002053,-0.6720512909437983,-0.2038011329086058,-1.2908332072953186,-0.15230288909362485
15650,7.0,300.51966,5816.1619,0.0,0.0,0.0,0.0,-0.15598056998679588,0.0,-0.5509750170095005,-0.4407109930372886,-0.7762819779905663,-0.2169203101683678,-1.2960504320602186,-0.15221644872759385
15651,7.0,299.86021,5818.8814,0.0,0.0,0.0,0.0,-0.1559905367963797,0.0,-0.5638736603849974,-0.4426609725897365,-0.7622600151567063,-0.2311475473399868,-1.299509262601579,-0.14669392157506286
15652,7.0,299.22736000000003,5049.638,0.0,0.0,0.0,0.0,-0.15600050360596351,0.0,-0.43428274188536964,-0.4098473240637816,-0.6908337965899873,-0.24142231878652776,-1.282845858082029,-0.16327678284416386
15653,7.0,300.39746,4571.8864,0.0,0.0,0.0,0.0,-0.15601047041554733,0.0,-0.39883481535193166,-0.3396312807539977,-0.6512731993581604,-0.2527482460193098,-1.2850941587289189,-0.18257742406148883
15654,7.0,299.69572999999997,5053.4325,0.0,0.0,0.0,0.0,-0.15602043722513112,0.0,-0.45097935061069655,-0.4174402454106446,-0.6676976997691324,-0.26311475712990473,-1.2935123418847287,-0.16113462014524885
15655,7.0,299.78979,5138.1291,0.0,0.0,0.0,0.0,-0.15603040403471496,0.0,-0.48642006280342254,-0.3945436606484276,-0.6808992339970223,-0.25527936503411175,-1.2724760539086089,-0.15849091891183587
15656,7.0,299.52862999999996,4982.7683,0.0,0.0,0.0,0.0,-0.15604037084429878,0.0,-0.46751592661522956,-0.38353196253665767,-0.6635892340586583,-0.2473148342130738,-1.2796724600938385,-0.15077847458317686
15657,7.0,300.17509,5122.8442,0.0,0.0,0.0,0.0,-0.15605033765388263,0.0,-0.4365790705869996,-0.4252680178656856,-0.6953696207951383,-0.24023491125933974,-1.2840082585967487,-0.16713325325476783
15658,7.0,298.80109,5118.8193,0.0,0.0,0.0,0.0,-0.15606030446346641,0.0,-0.4642057905260446,-0.37356003128000465,-0.7182274284760283,-0.23849643753276578,-1.2925693100166589,-0.1267380925780759
15659,7.0,299.27884,5482.856,0.0,0.0,0.0,0.0,-0.15607027127305026,0.0,-0.4843220372788636,-0.4605071540835176,-0.7218221358557982,-0.24212446057582374,-1.2889356938330487,-0.17900790607920483
15660,7.0,298.81447000000003,5553.1083,0.0,0.0,0.0,0.0,-0.15608023808263405,0.0,-0.5035151219980735,-0.4257190864127026,-0.7587720638074723,-0.2487954155241958,-1.2740535829892987,-0.13585403015024886
15661,7.0,298.45231,4942.7001,0.0,0.0,0.0,0.0,-0.1560902048922179,0.0,-0.4673357200849445,-0.38077794876485765,-0.6543437321961983,-0.24685510237770175,-1.2863923347570387,-0.15767893067919886
15662,7.0,299.13955,4586.1405,0.0,0.0,0.0,0.0,-0.1561001717018017,0.0,-0.4148748076149556,-0.36504947011257766,-0.6141479183441804,-0.25556221379952676,-1.3048890126825188,-0.16383609689936385
15663,7.0,300.27447,5045.3311,0.0,0.0,0.0,0.0,-0.15611013851138553,0.0,-0.4626568047006716,-0.3722987476880256,-0.6986991302262353,-0.25917943559651874,-1.2781381967924188,-0.16436378741894284
15664,7.0,299.89489,5326.1136,0.0,0.0,0.0,0.0,-0.15612010532096934,0.0,-0.48830796052224357,-0.4341063147779576,-0.6965912559107044,-0.2319437795335688,-1.2601939428214588,-0.17609939193215682
15665,7.0,300.15131,5007.7675,0.0,0.0,0.0,0.0,-0.1561300721305532,0.0,-0.4490153274118626,-0.39896434924471563,-0.6742565993889453,-0.23036768926802076,-1.2677063817128789,-0.17631962184139183
15666,7.0,299.92492000000004,4915.5421,0.0,0.0,0.0,0.0,-0.156140038940137,0.0,-0.4211415770984376,-0.4094940138864126,-0.6635664663289114,-0.24401359445976678,-1.2829449539418087,-0.18171232125860984
15667,7.0,299.47348999999997,5149.3215,0.0,0.0,0.0,0.0,-0.15615000574972085,0.0,-0.49231228438743957,-0.4072307171380426,-0.6657221660491623,-0.26589940145222773,-1.3020851470057988,-0.14173791268594285
15668,7.0,300.0538,5541.704000000001,0.0,0.0,0.0,0.0,-0.1561599725593046,0.0,-0.49554614300909655,-0.44922186831224653,-0.7397716181972743,-0.2530519373392817,-1.2888204872966786,-0.15679158703662485
15669,7.0,299.75206000000003,5527.9201,0.0,0.0,0.0,0.0,-0.15616993936888846,0.0,-0.5071859041953516,-0.4390201623304166,-0.7341435914443314,-0.2333809836079098,-1.2672434277421887,-0.14916646460158386
15670,7.0,298.50642,5149.2981,0.0,0.0,0.0,0.0,-0.15617990617847227,0.0,-0.46114480250394857,-0.4096979406015386,-0.6944153114534553,-0.25029335380953077,-1.2636185255094388,-0.16326790677328784
15671,7.0,298.46382,4828.7136,0.0,0.0,0.0,0.0,-0.15618987298805612,0.0,-0.4429319055339756,-0.3550922005848717,-0.6697842350375574,-0.22704666074026078,-1.2652126718917687,-0.15441208063428585
15672,7.0,298.59542999999996,4921.429,0.0,0.0,0.0,0.0,-0.15619983979763993,0.0,-0.4366430674633156,-0.4030379287542466,-0.6563105317003064,-0.27062933397903577,-1.2596231790401289,-0.15203915022509587
15673,7.0,298.87158999999997,5267.2298,0.0,0.0,0.0,0.0,-0.15620980660722375,0.0,-0.5095454495707206,-0.3848866272578526,-0.7066742495108184,-0.2508243779219388,-1.253037762665199,-0.1285405530484649
15674,7.0,299.09899,5049.1733,0.0,0.0,0.0,0.0,-0.15621977341680754,0.0,-0.45005663440713156,-0.3886818264349096,-0.6960841445006564,-0.2562605862984508,-1.2679934354662088,-0.14500099344048384
15675,7.0,298.82588,4881.3446,0.0,0.0,0.0,0.0,-0.15622974022639138,0.0,-0.4504914098925406,-0.3999899103334306,-0.6333255408668643,-0.24787354031821374,-1.2971177897155588,-0.1832511644504818
15676,7.0,299.543,5344.658,0.0,0.0,0.0,0.0,-0.1562397070359752,0.0,-0.48952245222460455,-0.4111042405478296,-0.7240158831173042,-0.26038526401052475,-1.2891370266279187,-0.16912164511850683
15677,7.0,300.70147000000003,5609.1323,0.0,0.0,0.0,0.0,-0.15624967384555905,0.0,-0.5005938611647676,-0.4879559371725016,-0.7164863709616993,-0.2582289867377167,-1.2849988118945088,-0.17673901619028282
15678,7.0,299.8128,5052.9518,0.0,0.0,0.0,0.0,-0.15625964065514283,0.0,-0.4491829291109036,-0.4135167890359296,-0.6732714467142183,-0.24625051630803374,-1.2890794740222387,-0.18356604205155783
15679,7.0,300.54765,4882.3802,0.0,0.0,0.0,0.0,-0.15626960746472668,0.0,-0.43516766386020456,-0.37894093646605864,-0.6700130471751393,-0.24577094503570376,-1.2793645333884487,-0.14970815823754485
15680,7.0,300.8821,4863.6802,0.0,0.0,0.0,0.0,-0.15627957427431047,0.0,-0.4226471248920236,-0.4101265757913416,-0.6456636238895385,-0.23132209993471378,-1.2477976384480387,-0.16988763179660385
15681,7.0,299.69277999999997,4980.3899,0.0,0.0,0.0,0.0,-0.1562895410838943,0.0,-0.45628259017658557,-0.37836378920909863,-0.6792678000110124,-0.21662267808399377,-1.2526593137528488,-0.12903890997764886
15682,7.0,299.41882000000004,5287.8856,0.0,0.0,0.0,0.0,-0.15629950789347813,0.0,-0.47661899591113255,-0.4280459139423426,-0.7027202740430913,-0.2162736336895458,-1.2652610039215386,-0.19159770069172083
15683,7.0,299.06483,5358.0769,0.0,0.0,0.0,0.0,-0.15630947470306195,0.0,-0.4809414397777245,-0.4303253517648056,-0.7174547948772754,-0.24477121169203775,-1.2872403237657288,-0.14190524080745687
15684,7.0,298.16181,5077.8243,0.0,0.0,0.0,0.0,-0.15631944151264576,0.0,-0.4339278206403416,-0.41493260340065957,-0.6946713698862264,-0.26402556764479473,-1.3027574384471488,-0.17216228707859485
15685,7.0,299.18768,5204.7247,0.0,0.0,0.0,0.0,-0.1563294083222296,0.0,-0.44408627097540254,-0.4326587958175986,-0.7053612698987374,-0.2640769596898667,-1.2984671348737287,-0.16066874801427086
15686,7.0,300.38219,5511.0204,0.0,0.0,0.0,0.0,-0.15633937513181342,0.0,-0.5077167459227415,-0.4292798093841186,-0.7382160259812492,-0.2607699646759918,-1.278698422772709,-0.16214704951266787
15687,7.0,300.85492,5245.0248,0.0,0.0,0.0,0.0,-0.15634934194139727,0.0,-0.5058693883404215,-0.39936144195890566,-0.6891257608964174,-0.2251139672345188,-1.2807043539956788,-0.14275851898166886
15688,7.0,300.8879,4829.7306,0.0,0.0,0.0,0.0,-0.15635930875098103,0.0,-0.41883053600535564,-0.4022060098921426,-0.6470809378644165,-0.22537170766245582,-1.2805023119257386,-0.18319831332526582
15689,7.0,300.52158,5050.2177,0.0,0.0,0.0,0.0,-0.15636927556056487,0.0,-0.4621812560312385,-0.3696539116145007,-0.7033048990857894,-0.22695337080355377,-1.2669055088338386,-0.12733673086965688
15690,7.0,299.51507000000004,5422.7135,0.0,0.0,0.0,0.0,-0.1563792423701487,0.0,-0.5033821633199516,-0.44136640373197256,-0.7036209419244803,-0.2587568799073158,-1.2636100142085989,-0.13342809662832786
15691,7.0,300.13667000000004,5427.4662,0.0,0.0,0.0,0.0,-0.15638920917973254,0.0,-0.47382871791825354,-0.4442941392334176,-0.7316913539498143,-0.25366636206742077,-1.2706066074741087,-0.13579130996905886
15692,7.0,300.70781,5280.9879,0.0,0.0,0.0,0.0,-0.15639917598931635,0.0,-0.48905870791883654,-0.4084675206076056,-0.7077622166731924,-0.24698383580290675,-1.2694888912887987,-0.14072371013084886
15693,7.0,300.58718,5221.4029,0.0,0.0,0.0,0.0,-0.15640914279890017,0.0,-0.49073279973405654,-0.4263152321090376,-0.6701280915914933,-0.24376169035240577,-1.2778628967402488,-0.15810615745136283
15694,7.0,300.26831,5291.0693,0.0,0.0,0.0,0.0,-0.15641910960848396,0.0,-0.4896409315587975,-0.42225842188866164,-0.6964536058846192,-0.2366168991272698,-1.2816481964638287,-0.1911183320694108
15695,7.0,299.63487000000003,5446.0907,0.0,0.0,0.0,0.0,-0.1564290764180678,0.0,-0.5237759696726636,-0.42764550790032557,-0.7040541063422303,-0.22506074120676575,-1.294613035468359,-0.17889423968298684
15696,7.0,299.49789,5166.3872,0.0,0.0,0.0,0.0,-0.15643904322765162,0.0,-0.45812835695624854,-0.42835546184789264,-0.6839688751749724,-0.24822525969292578,-1.2754736530044488,-0.18352232030974283
15697,7.0,299.16393,4702.991,0.0,0.0,0.0,0.0,-0.15644901003723546,0.0,-0.3869740643188666,-0.36907344089721267,-0.6735443250986494,-0.21971375963405979,-1.2388880289937287,-0.16876847679615184
15698,7.0,298.9538,4779.0023,0.0,0.0,0.0,0.0,-0.15645897684681925,0.0,-0.40938400532305563,-0.3862042576878926,-0.6571091045016193,-0.2604145773359178,-1.2466494234347187,-0.19483747669396181
15699,7.0,299.89849,5321.2362,0.0,0.0,0.0,0.0,-0.1564689436564031,0.0,-0.5010617699284465,-0.39586994423432165,-0.7205912396343183,-0.24827566888540079,-1.2713876206511887,-0.14618615155244985
15700,7.0,300.53862000000004,5311.3791,0.0,0.0,0.0,0.0,-0.1564789104659869,0.0,-0.4560838411694706,-0.4258442025350506,-0.7325985674268494,-0.2334877497709468,-1.3143277413390488,-0.17708939807486285
15701,7.0,300.06986,5016.1642,0.0,0.0,0.0,0.0,-0.15648887727557073,0.0,-0.4553946487164526,-0.41535151138950266,-0.6540424929414683,-0.2244046009720098,-1.306961210462029,-0.15458489043884086
15702,7.0,300.58331,5436.5828,0.0,0.0,0.0,0.0,-0.15649884408515455,0.0,-0.47415093145005355,-0.4226828520905496,-0.7557516361868792,-0.23879085761432275,-1.3138318567401088,-0.15433755608943084
15703,7.0,301.061,5554.3503,0.0,0.0,0.0,0.0,-0.15650881089473836,0.0,-0.5125879356459906,-0.4342823163203276,-0.7415135471066893,-0.23784859581632878,-1.2886177359516686,-0.13641159128277586
15704,7.0,299.69397000000004,5223.6855,0.0,0.0,0.0,0.0,-0.15651877770432218,0.0,-0.46983141587625055,-0.4116988765015156,-0.7063396439302954,-0.21983045564807677,-1.2702639262902886,-0.15678360262583685
15705,7.0,298.65524,5141.8065,0.0,0.0,0.0,0.0,-0.15652874451390603,0.0,-0.4811434311851595,-0.3724006705155847,-0.7094366833909493,-0.2295461663519428,-1.2536275755484088,-0.14870639839367886
15706,7.0,299.82215,5146.9941,0.0,0.0,0.0,0.0,-0.15653871132348984,0.0,-0.47033265043571854,-0.4232985433813136,-0.6709265124052913,-0.25936048312438675,-1.261849796134879,-0.19225006150360383
15707,7.0,300.11481000000003,4991.8153,0.0,0.0,0.0,0.0,-0.1565486781330737,0.0,-0.4562657600924246,-0.3848480832240486,-0.6762733723879853,-0.25884282378079776,-1.2954941577553187,-0.18047048193604984
15708,7.0,300.78837000000004,5046.7015,0.0,0.0,0.0,0.0,-0.15655864494265745,0.0,-0.4541023394064116,-0.3939630886061296,-0.6860057915860003,-0.26909604339771176,-1.2773006442597588,-0.16617937961062784
15709,7.0,299.98156,5202.5655,0.0,0.0,0.0,0.0,-0.1565686117522413,0.0,-0.4548842949060846,-0.4248224613992126,-0.7017432577666673,-0.2711664173270418,-1.257399297720649,-0.14226845043830288
15710,7.0,300.21735,5093.6042,0.0,0.0,0.0,0.0,-0.1565785785618251,0.0,-0.4695083917443706,-0.3758343927194666,-0.7029857050392873,-0.23445061094347378,-1.2723722970983686,-0.13439524384877788
15711,7.0,299.14763,5295.5276,0.0,0.0,0.0,0.0,-0.15658854537140895,0.0,-0.4737452869050196,-0.42925163089883756,-0.7067112331394683,-0.2392990430694768,-1.2810898956587287,-0.15367722099926084
15712,7.0,299.72427999999996,5586.6912,0.0,0.0,0.0,0.0,-0.15659851218099277,0.0,-0.5395846470703585,-0.43480679483708956,-0.7238231730807853,-0.2151034514140578,-1.2956735030230186,-0.14858132280133485
15713,7.0,298.93726000000004,5294.2508,0.0,0.0,0.0,0.0,-0.1566084789905766,0.0,-0.5007609663712596,-0.4035047330753166,-0.7050543564434473,-0.21871442145793277,-1.3028067837270187,-0.17192334244001284
15714,7.0,298.19834,5045.1545,0.0,0.0,0.0,0.0,-0.15661844580016038,0.0,-0.4452929403869916,-0.41769296011808565,-0.6706151001195574,-0.24048872027688878,-1.2803638006370688,-0.18891163547162682
15715,7.0,299.31757000000005,5067.0713,0.0,0.0,0.0,0.0,-0.15662841260974422,0.0,-0.4761648470838115,-0.37659005437904464,-0.6875082489667814,-0.2702039715870557,-1.284711251516129,-0.15971645504028686
15716,7.0,299.88494,4969.7908,0.0,0.0,0.0,0.0,-0.15663837941932804,0.0,-0.43130013889100954,-0.40661249272202865,-0.6727796759106844,-0.26507221446809076,-1.257022470008459,-0.16137555075402685
15717,7.0,299.91706,4990.237,0.0,0.0,0.0,0.0,-0.15664834622891188,0.0,-0.42432242247486257,-0.41861113696120256,-0.6739738924785444,-0.2722974881486698,-1.242298426180309,-0.16835126093497582
15718,7.0,299.90331000000003,5506.3001,0.0,0.0,0.0,0.0,-0.15665831303849567,0.0,-0.5082857871789015,-0.4395874911939076,-0.7259044495811913,-0.2376979052614568,-1.2855331999972488,-0.15820953935906584
15719,7.0,299.94988,5554.3908,0.0,0.0,0.0,0.0,-0.15666827984807952,0.0,-0.5040343822768205,-0.4782163745612816,-0.7061453633561213,-0.2587483990039787,-1.319322152406959,-0.17564902252770884
15720,7.0,299.62514,5344.2753,0.0,0.0,0.0,0.0,-0.15667824665766333,0.0,-0.48309401868766755,-0.4288271804319476,-0.7126050353936413,-0.2310571147685618,-1.3011450535630187,-0.15884082456886883
15721,7.0,299.44801,5436.6213,0.0,0.0,0.0,0.0,-0.15668821346724718,0.0,-0.47885521861683056,-0.43336131250943155,-0.7403805916398754,-0.22512245827035676,-1.2855678531506687,-0.15270954688875885
15722,7.0,299.89817,5405.172,0.0,0.0,0.0,0.0,-0.15669818027683097,0.0,-0.48404105289363253,-0.4270077378898826,-0.7319885402041443,-0.2352132842937438,-1.2657011597649788,-0.13459413471090687
15723,7.0,300.32475,5037.2382,0.0,0.0,0.0,0.0,-0.15670814708641478,0.0,-0.42917021625330254,-0.37659775507980464,-0.7254266616290374,-0.23564518214886876,-1.2965706346615589,-0.16447301577972284
15724,7.0,300.34603,4932.9688,0.0,0.0,0.0,0.0,-0.1567181138959986,0.0,-0.46247290994002255,-0.37889102376613265,-0.6581353849979054,-0.23254692678809477,-1.2955416791850087,-0.13753924745156687
15725,7.0,300.66611,5036.2303,0.0,0.0,0.0,0.0,-0.15672808070558245,0.0,-0.4641539830484316,-0.40450461840649765,-0.6622296652069795,-0.2266759935886788,-1.2833075961525988,-0.18857609770101183
15726,7.0,301.10139,5090.4989,0.0,0.0,0.0,0.0,-0.15673804751516626,0.0,-0.47761693580212156,-0.39032927990500066,-0.6794383502678444,-0.2535589474243198,-1.2874666838380686,-0.15078720879903887
15727,7.0,300.9794,5248.6442,0.0,0.0,0.0,0.0,-0.15674801432475005,0.0,-0.46257954438054655,-0.4644580492709406,-0.6684191845028373,-0.2628026355691008,-1.2769177370469689,-0.19764093707064181
15728,7.0,300.23933,5443.6473,0.0,0.0,0.0,0.0,-0.15675798113433387,0.0,-0.48768721311348057,-0.4220998989105166,-0.7449457291704192,-0.26044392105881375,-1.2463069449009188,-0.1163924240220379
15729,7.0,300.09325,5233.1888,0.0,0.0,0.0,0.0,-0.1567679479439177,0.0,-0.4486687452151576,-0.4476824982303226,-0.6944074790301823,-0.23217980601186278,-1.245946835815379,-0.16617346223004384
15730,7.0,299.73058,5131.9231,0.0,0.0,0.0,0.0,-0.15677791475350153,0.0,-0.4594002290117726,-0.4122692248503046,-0.6883070142856133,-0.2546083705528897,-1.285332171177409,-0.13492821340137787
15731,7.0,299.72792999999996,5351.0152,0.0,0.0,0.0,0.0,-0.15678788156308535,0.0,-0.47923980782478653,-0.4459416940285185,-0.7013935040971494,-0.24350600682217177,-1.3277841079670887,-0.15249634893521785
15732,7.0,299.68764,5050.8771,0.0,0.0,0.0,0.0,-0.1567978483726692,0.0,-0.4761804714003535,-0.4045734687507926,-0.6545865778476654,-0.2439376209672688,-1.3120394173132088,-0.14655592704394385
15733,7.0,299.91692,4860.0507,0.0,0.0,0.0,0.0,-0.156807815182253,0.0,-0.42961168932187255,-0.37913207596492265,-0.6685902920472243,-0.2088440077287988,-1.2684383535851187,-0.15928532725523784
15734,7.0,298.82018,5192.7444,0.0,0.0,0.0,0.0,-0.1568177819918368,0.0,-0.4522730278083726,-0.42553102719414265,-0.7006605797698153,-0.2392149331786758,-1.2738323904924687,-0.16541988786567183
15735,7.0,300.12522,5350.2127,0.0,0.0,0.0,0.0,-0.1568277488014206,0.0,-0.46781713547245657,-0.44646796599795757,-0.7120459847834674,-0.23858928163942877,-1.258170178396729,-0.16580656436883384
15736,7.0,299.80741,5195.3124,0.0,0.0,0.0,0.0,-0.15683771561100446,0.0,-0.4939779966243325,-0.4129895747438976,-0.6722776611486394,-0.2350703653671388,-1.2349234853274589,-0.15893204747537185
15737,7.0,300.05595,5249.5738,0.0,0.0,0.0,0.0,-0.15684768242058827,0.0,-0.4878330805978765,-0.4454553339805186,-0.6624509387638173,-0.23281883245242976,-1.2705493588434589,-0.17273461126507883
15738,7.0,301.47243,5461.4677,0.0,0.0,0.0,0.0,-0.1568576492301721,0.0,-0.5457578834371094,-0.4280549825307376,-0.6863369419836823,-0.25596878040215176,-1.2984912502261088,-0.14174579577172086
15739,7.0,301.33036,5159.441,0.0,0.0,0.0,0.0,-0.15686761603975594,0.0,-0.44479359047270955,-0.4405697662383506,-0.6829778760471684,-0.26622465473432777,-1.3117825584128588,-0.17458919332061185
15740,7.0,300.05298,5090.3037,0.0,0.0,0.0,0.0,-0.15687758284933975,0.0,-0.4366833036247865,-0.43130233764372655,-0.6793395989130984,-0.2580182509819187,-1.2835398330755188,-0.13384698435216885
15741,7.0,300.86104,5196.9073,0.0,0.0,0.0,0.0,-0.15688754965892354,0.0,-0.4461451039860936,-0.4191946879587946,-0.7143902706123304,-0.25691504453804076,-1.275443356826459,-0.15619877493311884
15742,7.0,300.2866,5107.6485,0.0,0.0,0.0,0.0,-0.1568975164685074,0.0,-0.4823463617038795,-0.4063216696783266,-0.6639295645022464,-0.2603908368860748,-1.2973120297597287,-0.13953559332859086
15743,7.0,300.11543,5106.8949,0.0,0.0,0.0,0.0,-0.1569074832780912,0.0,-0.4565727748727246,-0.43964480061956357,-0.6561509650745584,-0.25685480681959577,-1.3077220599621187,-0.2051564967723698
15744,7.0,299.66667,5132.3934,0.0,0.0,0.0,0.0,-0.15691745008767502,0.0,-0.5167288253596646,-0.36423586067978064,-0.6791547719623574,-0.23176674447609677,-1.2714803330353388,-0.13468130461700986
15745,7.0,299.48741,5120.6143,0.0,0.0,0.0,0.0,-0.15692741689725884,0.0,-0.4385593361849366,-0.4200344797741756,-0.6979450897668174,-0.23429209809782978,-1.272407659526859,-0.19521994820920882
15746,7.0,300.52929,5267.8608,0.0,0.0,0.0,0.0,-0.15693738370684268,0.0,-0.4866853722096065,-0.3810701092986917,-0.7335426632075243,-0.24073118089331777,-1.2929912273582989,-0.14666524659723287
15747,7.0,300.75226000000004,5416.3853,0.0,0.0,0.0,0.0,-0.15694735051642647,0.0,-0.4875845303483466,-0.43425442154507454,-0.7246069422981373,-0.2636668467118917,-1.3259679584878488,-0.17809008387362282
15748,7.0,298.35852,5162.9398,0.0,0.0,0.0,0.0,-0.1569573173260103,0.0,-0.47561816825735853,-0.4115447814263076,-0.6822418207770253,-0.24812174606270979,-1.2872439714660886,-0.13362145514491086
15749,7.0,299.32432,5160.779,0.0,0.0,0.0,0.0,-0.1569672841355941,0.0,-0.4685940652516336,-0.40706596267178263,-0.6930879335574534,-0.24935698912711873,-1.2857917814227688,-0.15201873323558085
15750,7.0,299.04888,5377.7596,0.0,0.0,0.0,0.0,-0.15697725094517795,0.0,-0.49199210748834055,-0.4389549495539806,-0.7037575787004653,-0.25804622681717976,-1.2992913125050687,-0.14884230562959186
15751,7.0,299.72702000000004,5384.5218,0.0,0.0,0.0,0.0,-0.15698721775476177,0.0,-0.4688127043582116,-0.4151841022079806,-0.7527633792569614,-0.27455107796108175,-1.3015215773001787,-0.15951000533241183
15752,7.0,299.97221,5181.8784,0.0,0.0,0.0,0.0,-0.1569971845643456,0.0,-0.4346229507389455,-0.41121710647646864,-0.7293215747484353,-0.24213513009937676,-1.274223403706059,-0.16000472469373686
15753,7.0,300.32207999999997,5070.6093,0.0,0.0,0.0,0.0,-0.15700715137392937,0.0,-0.4447512467510306,-0.4064148785550256,-0.6901724786472203,-0.23100912724382577,-1.2735310499127288,-0.18132387156777283
15754,7.0,299.80309,5355.8932,0.0,0.0,0.0,0.0,-0.15701711818351322,0.0,-0.48063308750729256,-0.4077902743732666,-0.7396344342662353,-0.23225837342461675,-1.2813548605598788,-0.16666572952612682
15755,7.0,301.0451,5284.8267,0.0,0.0,0.0,0.0,-0.15702708499309703,0.0,-0.4934093809332145,-0.43174963690037155,-0.6812963469762143,-0.23450923759425976,-1.3018438921569886,-0.1977849705723568
15756,7.0,300.53636,5116.8503,0.0,0.0,0.0,0.0,-0.15703705180268088,0.0,-0.46408217401384455,-0.41926832084356164,-0.6720442184581004,-0.2185373965329618,-1.2692839107935687,-0.15485205409270786
15757,7.0,300.97337999999996,5047.152,0.0,0.0,0.0,0.0,-0.1570470186122647,0.0,-0.4573751169644095,-0.3872514111362386,-0.6895816727789124,-0.2458630494697938,-1.2706241367008386,-0.15401955767804684
15758,7.0,300.24421,5170.5539,0.0,0.0,0.0,0.0,-0.1570569854218485,0.0,-0.4941836154671255,-0.39949499845458664,-0.6780406629474033,-0.2719987313566848,-1.3131631116741087,-0.12051041428345188
15759,7.0,299.24613,5360.4293,0.0,0.0,0.0,0.0,-0.15706695223143233,0.0,-0.48949055511145656,-0.4250606663652216,-0.7148854358036993,-0.2770295181031847,-1.3201041788341386,-0.15855762116591884
15760,7.0,300.10251,5547.0867,0.0,0.0,0.0,0.0,-0.15707691904101617,0.0,-0.5279265561897946,-0.42826366138883265,-0.7299856183339714,-0.2795095389154438,-1.254247684609609,-0.10752661736955088
15761,7.0,299.79235,5374.3502,0.0,0.0,0.0,0.0,-0.15708688585059996,0.0,-0.46529600710364055,-0.45890963357835457,-0.7094626225935093,-0.25034911296253376,-1.254413756300999,-0.15670104300768886
15762,7.0,298.89885,5245.2339,0.0,0.0,0.0,0.0,-0.1570968526601838,0.0,-0.4755989469029615,-0.3880012668727436,-0.7308199183338102,-0.26548757608158374,-1.2576000225654589,-0.12663080965748788
15763,7.0,298.94729,5366.4826,0.0,0.0,0.0,0.0,-0.1571068194697676,0.0,-0.45630167980846953,-0.45063197807891364,-0.7243430514420933,-0.24271588452669277,-1.294961289527729,-0.17784987267241584
15764,7.0,298.05039,5180.6074,0.0,0.0,0.0,0.0,-0.15711678627935144,0.0,-0.49710064091501355,-0.40156120792600564,-0.6761134308597003,-0.24746657854804974,-1.2938368858917588,-0.12906386632761188
15765,7.0,299.81107000000003,4945.3676,0.0,0.0,0.0,0.0,-0.15712675308893526,0.0,-0.4538153667130896,-0.3906361123002826,-0.6588167754251534,-0.2144483953569088,-1.3123979051985886,-0.18712842675313782
15766,7.0,300.41696,5028.3179,0.0,0.0,0.0,0.0,-0.1571367198985191,0.0,-0.49621413827002253,-0.40425583510944463,-0.6280131313875704,-0.22310601964384982,-1.2979229182450187,-0.18006380387591384
15767,7.0,299.57358999999997,5264.9361,0.0,0.0,0.0,0.0,-0.1571466867081029,0.0,-0.49493905421168155,-0.4090902134565606,-0.6963798412773394,-0.2151596462646038,-1.279338290210859,-0.1800716666966898
15768,7.0,299.34875,5433.6221,0.0,0.0,0.0,0.0,-0.1571566535176867,0.0,-0.4835838744485126,-0.48291213016221657,-0.6851894261129313,-0.24071212165893677,-1.2473698442558188,-0.1888922317322118
15769,7.0,301.07909,5378.0072,0.0,0.0,0.0,0.0,-0.15716662032727052,0.0,-0.4483321030019336,-0.4565682963072825,-0.7298795107834993,-0.23150029009729978,-1.2657233499421687,-0.15431188033189686
15770,7.0,300.22181,5330.6583,0.0,0.0,0.0,0.0,-0.15717658713685437,0.0,-0.4893015333053016,-0.4106201197825506,-0.7204653737068963,-0.27260800877431574,-1.3032649754222385,-0.14548369565562286
15771,7.0,300.69414,5109.8404,0.0,0.0,0.0,0.0,-0.15718655394643818,0.0,-0.4524264744035166,-0.41183136908459156,-0.6890060453971023,-0.2621183168490637,-1.3104446629808189,-0.14046312247013085
15772,7.0,299.70682999999997,5023.0012,0.0,0.0,0.0,0.0,-0.15719652075602203,0.0,-0.49242225242079257,-0.3804423501992366,-0.6540023378400054,-0.25679094166579275,-1.2898810561763487,-0.15013977238264187
15773,7.0,300.29504,5339.138000000001,0.0,0.0,0.0,0.0,-0.1572064875656058,0.0,-0.46912668016669856,-0.42103532769295154,-0.7328026157319874,-0.23263315437160478,-1.273901899449329,-0.13852681166153186
15774,7.0,299.22344,5369.9442,0.0,0.0,0.0,0.0,-0.15721645437518963,0.0,-0.5078161356250506,-0.4113163036612586,-0.7131965100070153,-0.22819254527835076,-1.2905247739648789,-0.16739618152321684
15775,7.0,298.78312999999997,5125.0826,0.0,0.0,0.0,0.0,-0.15722642118477345,0.0,-0.44684246323491755,-0.3976524538102416,-0.7134022099098164,-0.2190312141016978,-1.2825817037809588,-0.14905325416791085
15776,7.0,299.34632,5119.0398,0.0,0.0,0.0,0.0,-0.1572363879943573,0.0,-0.4922414480729485,-0.3970437640776686,-0.6667750747580764,-0.23453625084192575,-1.2796653673431386,-0.13609999661202385
15777,7.0,299.92435,5355.3344,0.0,0.0,0.0,0.0,-0.1572463548039411,0.0,-0.4789622076948896,-0.4258667270847736,-0.7230590102528683,-0.24547570422156575,-1.2898400195472988,-0.13274902654380888
15778,7.0,299.82445,5380.7747,0.0,0.0,0.0,0.0,-0.15725632161352493,0.0,-0.5501373834168325,-0.40249668094832963,-0.6829870966230783,-0.24726300647045876,-1.310965372207209,-0.14384857343924887
15779,7.0,300.5017,5452.6219,0.0,0.0,0.0,0.0,-0.15726628842310875,0.0,-0.48262515746889456,-0.44542313289234053,-0.7294126051374192,-0.2701581726825357,-1.2932972288884987,-0.14378168880014786
15780,7.0,300.15819,5265.8066,0.0,0.0,0.0,0.0,-0.1572762552326926,0.0,-0.47420431959782255,-0.4227679448339476,-0.7037014649099274,-0.25880551591211576,-1.2527407790608889,-0.13858374618465086
15781,7.0,299.01906,5129.3994,0.0,0.0,0.0,0.0,-0.15728622204227638,0.0,-0.41513991437111963,-0.43148889725213857,-0.7125805350062233,-0.25851349723329575,-1.2903021629179088,-0.15536098935293585
15782,7.0,299.67553,5445.5104,0.0,0.0,0.0,0.0,-0.15729618885186022,0.0,-0.48702614848323855,-0.43360964997644064,-0.7346633887456313,-0.2534914649676598,-1.3023047183024687,-0.14724150219410487
15783,7.0,300.90905,5445.8769,0.0,0.0,0.0,0.0,-0.157306155661444,0.0,-0.5255499476827414,-0.4240066329486966,-0.7058540134223673,-0.2360261641864688,-1.2983877973908988,-0.15872878950531183
15784,7.0,301.22247000000004,5014.9523,0.0,0.0,0.0,0.0,-0.15731612247102786,0.0,-0.47626103491580457,-0.42198129798631157,-0.6261779328064504,-0.2100789164206748,-1.2772021563500386,-0.19315925081833382
15785,7.0,300.85887,4961.1737,0.0,0.0,0.0,0.0,-0.15732608928061168,0.0,-0.4351902086749295,-0.3894624444444506,-0.6834202711733294,-0.23009817487392176,-1.276969514127079,-0.17954762387747084
15786,7.0,300.49412,5317.5934,0.0,0.0,0.0,0.0,-0.15733605609019552,0.0,-0.46133901215061557,-0.44345857267095357,-0.7116180284712313,-0.2194518344832098,-1.2800083525019887,-0.19841681306971481
15787,7.0,299.86792,5213.3756,0.0,0.0,0.0,0.0,-0.1573460228997793,0.0,-0.46898076201979755,-0.4079147420155506,-0.7078405003759184,-0.24017705467862976,-1.2708475583478887,-0.17556688847460283
15788,7.0,299.40156,5012.6004,0.0,0.0,0.0,0.0,-0.15735598970936313,0.0,-0.4424939383107516,-0.42144177270556454,-0.6597696560841954,-0.2374680190787688,-1.269600450124809,-0.16995034184529284
15789,7.0,299.6165,5092.3352,0.0,0.0,0.0,0.0,-0.15736595651894694,0.0,-0.4817273570852886,-0.3937780995353726,-0.6724372784368924,-0.25998661089118075,-1.2927134955058888,-0.13296429152755387
15790,7.0,298.69212999999996,5465.5512,0.0,0.0,0.0,0.0,-0.1573759233285308,0.0,-0.5222165980337654,-0.41468272579349863,-0.7244917560267693,-0.26192678218266074,-1.3269512163848887,-0.15043630002440686
15791,7.0,299.68747,5580.7768,0.0,0.0,0.0,0.0,-0.1573858901381146,0.0,-0.4999866507773405,-0.4377852435060396,-0.7586449009199223,-0.25149791566091173,-1.2891869798578488,-0.16273125912282485
15792,7.0,300.50911,5360.5026,0.0,0.0,0.0,0.0,-0.15739585694769845,0.0,-0.4885968989207595,-0.40267140579557364,-0.7381906339337433,-0.24513440105788176,-1.2750168798593688,-0.15080350186064684
15793,7.0,301.26764,5157.0338,0.0,0.0,0.0,0.0,-0.1574058237572822,0.0,-0.43380197497792156,-0.40003205140508963,-0.7337754574179993,-0.2361266684638878,-1.2851010488295986,-0.13968686143601988
15794,7.0,300.25847000000005,5075.5507,0.0,0.0,0.0,0.0,-0.15741579056686605,0.0,-0.45879653460219255,-0.4040875545328366,-0.6799565972964914,-0.2605511735818987,-1.3038721148821588,-0.14362896161257485
15795,7.0,300.41261000000003,5410.6676,0.0,0.0,0.0,0.0,-0.15742575737644987,0.0,-0.5262416529960076,-0.43802618424731854,-0.6804400189192014,-0.2306374367096428,-1.277834120437409,-0.15980484084650987
15796,7.0,300.72055,5389.8924,0.0,0.0,0.0,0.0,-0.15743572418603372,0.0,-0.5194524618934665,-0.4309191163234056,-0.6880211257698983,-0.23419837246357975,-1.2487070304127887,-0.16868737625814784
15797,7.0,300.80217999999996,4936.737,0.0,0.0,0.0,0.0,-0.15744569099561753,0.0,-0.4096086732677286,-0.41018358124196763,-0.6808525231674123,-0.22724274489961277,-1.2694728819372187,-0.18890102674307982
15798,7.0,299.35041,4893.7947,0.0,0.0,0.0,0.0,-0.15745565780520135,0.0,-0.40440840017700164,-0.37609756416793966,-0.7070854264013984,-0.24372887118166678,-1.2965300033325486,-0.16842872390512084
15799,7.0,300.39351,5331.1842,0.0,0.0,0.0,0.0,-0.15746562461478517,0.0,-0.43867578901892956,-0.4331813390266696,-0.7486897592174263,-0.23336955414678176,-1.289228117811909,-0.16868377922029282
15800,7.0,300.23627999999997,5322.3273,0.0,0.0,0.0,0.0,-0.157475591424369,0.0,-0.4952092576158485,-0.41122594201734064,-0.7114194111866293,-0.24107163292691777,-1.2740351418374787,-0.15185990628240587
15801,7.0,298.56854,5080.6934,0.0,0.0,0.0,0.0,-0.1574855582339528,0.0,-0.4636871787273616,-0.3973713073049946,-0.6833454426534443,-0.23662238081031078,-1.310342932670779,-0.14527328413985685
15802,7.0,298.86092,5205.3397,0.0,0.0,0.0,0.0,-0.15749552504353664,0.0,-0.4715444874228175,-0.43288017069944656,-0.6778686333454254,-0.25903623295988576,-1.3150059096309787,-0.16928216419934883
15803,7.0,299.39215,5221.7543,0.0,0.0,0.0,0.0,-0.15750549185312043,0.0,-0.47731536217485854,-0.41107289058973556,-0.6988946570980323,-0.22923170418340777,-1.2794782200496686,-0.19715707975038882
15804,7.0,298.99204,5159.3915,0.0,0.0,0.0,0.0,-0.15751545866270428,0.0,-0.45941283384301657,-0.4315394179021246,-0.6773739342491023,-0.23638047748143678,-1.261851619985059,-0.19604788499841982
15805,7.0,299.61839,5239.9586,0.0,0.0,0.0,0.0,-0.1575254254722881,0.0,-0.4344913092859536,-0.4384649620706225,-0.7198602911446794,-0.25513992155534976,-1.2627421654979487,-0.16528096114446084
15806,7.0,300.06421,5130.4358,0.0,0.0,0.0,0.0,-0.15753539228187194,0.0,-0.5010602196557935,-0.3981067647575786,-0.6603573918047003,-0.27998847184021075,-1.2885589674458686,-0.13957050992703687
15807,7.0,299.96823,5139.1349,0.0,0.0,0.0,0.0,-0.15754535909145576,0.0,-0.47120028636384753,-0.4184676506145416,-0.6725007484231563,-0.25057841146016374,-1.2624020174393789,-0.14340668493813785
15808,7.0,300.79355,5391.0586,0.0,0.0,0.0,0.0,-0.15755532590103954,0.0,-0.5287990962484075,-0.4057222511841686,-0.7042258421016794,-0.2528793200522458,-1.255196289353229,-0.1362540106272239
15809,7.0,299.90777,5528.5553,0.0,0.0,0.0,0.0,-0.15756529271062336,0.0,-0.4735827717214806,-0.4492371481237546,-0.7577228534614232,-0.2322351294673228,-1.3052974537978288,-0.13880204078619487
15810,7.0,299.7052,5368.8557,0.0,0.0,0.0,0.0,-0.1575752595202072,0.0,-0.4575954178011516,-0.42360893228444657,-0.7507937223875712,-0.24518379700025678,-1.3244319726612588,-0.16059827646981586
15811,7.0,300.91606,5437.8668,0.0,0.0,0.0,0.0,-0.15758522632979102,0.0,-0.48248661578272156,-0.43282237491374265,-0.7376667431020394,-0.2294258935650728,-1.3017160199943687,-0.16957894515363883
15812,7.0,300.99097,5311.3897,0.0,0.0,0.0,0.0,-0.15759519313937487,0.0,-0.5295324360082825,-0.4097597285926366,-0.6752376787982703,-0.22827798252678277,-1.2957020766758387,-0.15978423133947584
15813,7.0,300.31621,5112.7333,0.0,0.0,0.0,0.0,-0.15760515994895863,0.0,-0.47882899570424253,-0.4066496182056926,-0.6686646443395623,-0.2559049963083568,-1.2897492323383386,-0.16184819139567283
15814,7.0,300.46403,5188.5845,0.0,0.0,0.0,0.0,-0.15761512675854247,0.0,-0.47346990579284154,-0.4287312763099826,-0.6749989469422093,-0.2626078686348788,-1.3006809850172187,-0.17354598141515484
15815,7.0,300.33603,5177.3506,0.0,0.0,0.0,0.0,-0.1576250935681263,0.0,-0.4452157205968706,-0.4363913862709766,-0.6921782072201703,-0.24751227612755974,-1.2871489286067088,-0.20338491003252782
15816,7.0,300.8435,5076.0342,0.0,0.0,0.0,0.0,-0.15763506037771013,0.0,-0.4070875550314136,-0.44590884446027657,-0.6899912689993363,-0.24294688528449074,-1.2679878625906589,-0.18182506559723682
15817,7.0,300.1335,5140.2166,0.0,0.0,0.0,0.0,-0.15764502718729395,0.0,-0.4463711803484056,-0.4325196968438706,-0.6836066179992203,-0.23951679051596678,-1.3184658547474488,-0.17154195510237283
15818,7.0,298.89939,5502.4646,0.0,0.0,0.0,0.0,-0.15765499399687777,0.0,-0.5382448973906355,-0.4370554703865166,-0.6973114740817843,-0.24402706055359574,-1.3170188322796388,-0.13727647117063288
15819,7.0,299.99213,5436.3983,0.0,0.0,0.0,0.0,-0.15766496080646158,0.0,-0.5143517710225676,-0.4309640640978416,-0.7072134809490364,-0.24817141558261174,-1.2776070510899988,-0.16214090921706184
15820,7.0,300.25136000000003,5121.4758,0.0,0.0,0.0,0.0,-0.15767492761604543,0.0,-0.4645600734235095,-0.4193123668254086,-0.6729283298328553,-0.23795884755970978,-1.2649314949890187,-0.15700929395311083
15821,7.0,299.11395,5081.6513,0.0,0.0,0.0,0.0,-0.15768489442562922,0.0,-0.4202216979951526,-0.4079601254875296,-0.7165133031493574,-0.25364879231068677,-1.2757581736325287,-0.16631479035399185
15822,7.0,299.76887,5328.5961,0.0,0.0,0.0,0.0,-0.15769486123521306,0.0,-0.4589712493169355,-0.4305082231428536,-0.7302806868955923,-0.2532822085570078,-1.297572131060399,-0.16282916947998785
15823,7.0,300.36519,5401.8747,0.0,0.0,0.0,0.0,-0.15770482804479685,0.0,-0.5059426868526555,-0.4318634958141086,-0.7042288413219754,-0.2551209129834738,-1.3006582882149786,-0.16383154740641484
15824,7.0,299.71684,5192.2376,0.0,0.0,0.0,0.0,-0.1577147948543807,0.0,-0.5233651575521195,-0.39487136599576966,-0.6600740465467364,-0.25575070871562977,-1.3002662617512886,-0.1360459599841909
15825,7.0,299.51003,4993.8273,0.0,0.0,0.0,0.0,-0.1577247616639645,0.0,-0.4837686710017506,-0.36848008163865265,-0.6657500405594133,-0.26039619697910377,-1.3028645389827187,-0.14800838053228987
15826,7.0,299.78121,5248.6498,0.0,0.0,0.0,0.0,-0.15773472847354836,0.0,-0.5019526599463705,-0.39059179274090866,-0.7029140277272133,-0.2515857137820768,-1.2860275647210386,-0.11241574161956988
15827,7.0,299.92725,5550.2675,0.0,0.0,0.0,0.0,-0.15774469528313217,0.0,-0.4658137272422356,-0.4615739341863006,-0.7597550785244883,-0.24149263834346776,-1.2633756494604687,-0.18311875292741384
15828,7.0,299.62049,5493.2144,0.0,0.0,0.0,0.0,-0.15775466209271596,0.0,-0.46921388047030455,-0.44093307719420655,-0.7596530746369213,-0.23880518497073677,-1.264864215182379,-0.15978588293713886
15829,7.0,299.41465,5064.0358,0.0,0.0,0.0,0.0,-0.15776462890229978,0.0,-0.4533408414262575,-0.4119214064884776,-0.6740781863113373,-0.23347963363764576,-1.298244017201709,-0.16084620863678484
15830,7.0,299.77227999999997,5078.6523,0.0,0.0,0.0,0.0,-0.15777459571188363,0.0,-0.48503415958164453,-0.4107661899169666,-0.6479831357534563,-0.23986922929824975,-1.3057216002896888,-0.15798422293432884
15831,7.0,300.75822999999997,5485.1533,0.0,0.0,0.0,0.0,-0.15778456252146744,0.0,-0.5225508591092546,-0.4522361657697346,-0.6925626241756093,-0.23756182577302679,-1.2755257340595887,-0.1866080316342788
15832,7.0,300.09151,5311.5308,0.0,0.0,0.0,0.0,-0.15779452933105126,0.0,-0.4966680945798245,-0.42598704040164753,-0.6919175891619493,-0.24655613280319574,-1.2590641689599589,-0.17814459672900282
15833,7.0,299.3524,4928.0733,0.0,0.0,0.0,0.0,-0.15780449614063505,0.0,-0.37230673209881365,-0.4116747408841336,-0.7140297562267504,-0.25009367261232374,-1.2852547588697687,-0.1924383942996908
15834,7.0,300.52237,5030.4986,0.0,0.0,0.0,0.0,-0.1578144629502189,0.0,-0.41600467266896457,-0.39718761519436563,-0.7159536648541253,-0.27533000384295575,-1.2959742356526989,-0.16435275312535383
15835,7.0,301.09567999999996,5404.7226,0.0,0.0,0.0,0.0,-0.1578244297598027,0.0,-0.5090322079975675,-0.4323208667767476,-0.7015476397023613,-0.25050196174011874,-1.2935359506120587,-0.15658270552850986
15836,7.0,300.63682,5524.632,0.0,0.0,0.0,0.0,-0.15783439656938653,0.0,-0.5592015641738974,-0.4161184403901926,-0.7040301835073692,-0.23362303892429878,-1.2869246963595788,-0.14098746926437986
15837,7.0,299.66668,5329.9036,0.0,0.0,0.0,0.0,-0.15784436337897037,0.0,-0.5017019920041316,-0.4109173060368806,-0.7075383187985953,-0.22610181515451178,-1.3001092079857888,-0.14151617303405886
15838,7.0,298.52885,5200.0831,0.0,0.0,0.0,0.0,-0.1578543301885542,0.0,-0.4794021304908066,-0.39183739122133965,-0.7094559047453464,-0.23256877246025076,-1.2889590999103588,-0.14583748206053887
15839,7.0,299.93865,5444.0491,0.0,0.0,0.0,0.0,-0.157864296998138,0.0,-0.4323216064493206,-0.43586090931362254,-0.7866724727310282,-0.23369130158353577,-1.2634689697946788,-0.16248888969890485
15840,7.0,300.53425,5548.4882,0.0,0.0,0.0,0.0,-0.15787426380772185,0.0,-0.4951237798374125,-0.45069687674781855,-0.7407811901994114,-0.26711672012236776,-1.2802850711042988,-0.16373210704160085
15841,7.0,299.84431,5387.7789,0.0,0.0,0.0,0.0,-0.15788423061730564,0.0,-0.5140181584271425,-0.3977951903518286,-0.7259369242468963,-0.26184747509733375,-1.3141064475172088,-0.1283348936756679
15842,7.0,299.80208,5086.681,0.0,0.0,0.0,0.0,-0.15789419742688945,0.0,-0.49905333597772955,-0.38090798928269165,-0.6662626741825063,-0.26727205136269777,-1.3078061597204187,-0.13936286458404384
15843,7.0,300.78536,5075.5142,0.0,0.0,0.0,0.0,-0.15790416423647327,0.0,-0.47542379649067557,-0.40379939633689765,-0.6636063883828514,-0.23291564849948476,-1.2879858731893088,-0.16496990349626184
15844,7.0,300.70992,5326.9064,0.0,0.0,0.0,0.0,-0.15791413104605712,0.0,-0.4622727930452725,-0.4190601486105166,-0.7379135910914013,-0.23929543589912078,-1.2779751648513287,-0.16812813313045483
15845,7.0,301.09927000000005,5436.9496,0.0,0.0,0.0,0.0,-0.15792409785564093,0.0,-0.43654334338847356,-0.46290503071016953,-0.7532485538023442,-0.22405480677248776,-1.2833178299786088,-0.16980077599803184
15846,7.0,299.99831,5308.9269,0.0,0.0,0.0,0.0,-0.15793406466522475,0.0,-0.4745617131730946,-0.4144231919128846,-0.7247963086093263,-0.2420306234840628,-1.2923285617928988,-0.16360996987454685
15847,7.0,298.64995,5177.9665,0.0,0.0,0.0,0.0,-0.1579440314748086,0.0,-0.5054217749762455,-0.4007836904617706,-0.6677670567384774,-0.2242643063631638,-1.2657810038728587,-0.15242746819341987
15848,7.0,299.27358,5282.7615,0.0,0.0,0.0,0.0,-0.15795399828439238,0.0,-0.5046700649920575,-0.4332118378546796,-0.6679456724661054,-0.24484279781160276,-1.2712075661084186,-0.16681386669074683
15849,7.0,300.26296,5439.5938,0.0,0.0,0.0,0.0,-0.1579639650939762,0.0,-0.49940154950709553,-0.42290228153220555,-0.7311968473710103,-0.24689379839902073,-1.3225425651997886,-0.15776461110765486
15850,7.0,299.77747,5262.5482,0.0,0.0,0.0,0.0,-0.15797393190356002,0.0,-0.4213776339742346,-0.4438245383420716,-0.7344810746551383,-0.2252129212392848,-1.3163055042092386,-0.18305496883361883
15851,7.0,299.61775,5141.3958,0.0,0.0,0.0,0.0,-0.15798389871314386,0.0,-0.4145815831685166,-0.42778674483176454,-0.7204876044140903,-0.24311390943097475,-1.3069461130355386,-0.20825953467361583
15852,7.0,300.60501,5074.6181,0.0,0.0,0.0,0.0,-0.15799386552272768,0.0,-0.4468992457705216,-0.42088635966324955,-0.6747715837522703,-0.24253532335887276,-1.3013251081057888,-0.17872500665128482
15853,7.0,300.19122000000004,5025.4312,0.0,0.0,0.0,0.0,-0.15800383233231147,0.0,-0.48615254451202056,-0.4172015236870846,-0.6242515214513283,-0.27958252332014677,-1.3162325502020387,-0.17077711339688884
15854,7.0,301.1033,5336.0859,0.0,0.0,0.0,0.0,-0.15801379914189528,0.0,-0.5382495583410954,-0.4047759059882716,-0.6790113970732073,-0.21827057738412878,-1.2788236604850687,-0.13748742984145285
15855,7.0,300.32377,5418.5883,0.0,0.0,0.0,0.0,-0.15802376595147913,0.0,-0.5270531244710935,-0.4317659907569856,-0.6882964359545692,-0.23446103728700277,-1.2839397628899887,-0.15798958302735785
15856,7.0,300.3005,5392.7863,0.0,0.0,0.0,0.0,-0.15803373276106294,0.0,-0.45540975627544356,-0.43455173952191756,-0.7493108713962252,-0.25248443622327377,-1.2924744698072987,-0.14430826474461686
15857,7.0,300.25767,5580.1314,0.0,0.0,0.0,0.0,-0.1580436995706468,0.0,-0.4911447568272136,-0.41573666801751463,-0.7893391848742123,-0.29482412516687573,-1.3212506713222887,-0.13270059318902888
15858,7.0,299.83976,5754.64,0.0,0.0,0.0,0.0,-0.15805366638023058,0.0,-0.5349945937198555,-0.4531681430792136,-0.7611041197076283,-0.26491428930750477,-1.2991941418204789,-0.1303174289538289
15859,7.0,298.32887999999997,5560.593000000001,0.0,0.0,0.0,0.0,-0.15806363318981442,0.0,-0.5640185348842955,-0.4099015025466286,-0.7163613865618643,-0.25383245402381277,-1.251940716781929,-0.13466266081516987
15860,7.0,299.84156,5352.6630000000005,0.0,0.0,0.0,0.0,-0.1580735999993982,0.0,-0.5183199522566966,-0.4139737344335266,-0.6947822093146653,-0.23816752641780475,-1.2892042051095487,-0.15384593727341186
15861,7.0,299.46372,5068.306,0.0,0.0,0.0,0.0,-0.15808356680898206,0.0,-0.4390810485289256,-0.4106891829093666,-0.6908682369608864,-0.23843637206683777,-1.300453915669809,-0.16876709877601584
15862,7.0,299.16412,5166.5477,0.0,0.0,0.0,0.0,-0.15809353361856587,0.0,-0.4208461235017786,-0.41552649968177263,-0.7341288790528794,-0.2106429826188438,-1.2877744078934388,-0.19280426877829981
15863,7.0,299.84316,5288.1771,0.0,0.0,0.0,0.0,-0.1581035004281497,0.0,-0.4518780527868915,-0.44144935851765954,-0.7141463914457613,-0.2067475730068968,-1.3085165493655286,-0.17968781716130683
15864,7.0,300.59426,5155.7486,0.0,0.0,0.0,0.0,-0.1581134672377335,0.0,-0.4820319400653485,-0.42116208528046156,-0.6640248100116464,-0.24096304291370077,-1.3157121449506788,-0.17588458291095685
15865,7.0,299.58473,5046.1854,0.0,0.0,0.0,0.0,-0.15812343404731735,0.0,-0.46489088944865853,-0.4117668250532216,-0.6572566539811814,-0.2727412308974637,-1.3013754666357589,-0.15219688286816285
15866,7.0,300.6556,5366.1795,0.0,0.0,0.0,0.0,-0.15813340085690117,0.0,-0.5092109453152075,-0.4345923100559216,-0.6873813292592553,-0.24315484473501475,-1.2762120083523187,-0.15322362945949486
15867,7.0,300.56392999999997,5735.4959,0.0,0.0,0.0,0.0,-0.158143367666485,0.0,-0.5199127206188905,-0.4573714591315486,-0.7661633483844352,-0.2329203297149468,-1.242656812740679,-0.15849853855258786
15868,7.0,299.32282000000004,5530.6824,0.0,0.0,0.0,0.0,-0.15815333447606877,0.0,-0.46134138315584955,-0.45549414987627257,-0.7643538255608493,-0.24301892736660077,-1.2876685232579888,-0.18551913228181283
15869,7.0,299.56609,5103.6099,0.0,0.0,0.0,0.0,-0.15816330128565262,0.0,-0.4333027162561485,-0.3959474679994726,-0.7221197882051743,-0.2508167785461888,-1.3332343802549886,-0.15124840984705587
15870,7.0,299.63639,4955.4095,0.0,0.0,0.0,0.0,-0.15817326809523644,0.0,-0.4501415143680086,-0.3819220297177696,-0.6742571972065043,-0.2567466018414168,-1.2832022181421987,-0.14527071048460286
15871,7.0,299.52662999999995,5152.6586,0.0,0.0,0.0,0.0,-0.15818323490482028,0.0,-0.4923514971663095,-0.4134846284777556,-0.6604434268706914,-0.24541975255104378,-1.2764249935233387,-0.14642705176372486
15872,7.0,300.21019,5333.5761,0.0,0.0,0.0,0.0,-0.1581932017144041,0.0,-0.5227222300986675,-0.4218499199783456,-0.6767018049277683,-0.2667224543759567,-1.2843138548269089,-0.15684441789683884
15873,7.0,299.93571000000003,5176.677,0.0,0.0,0.0,0.0,-0.15820316852398789,0.0,-0.45075474346102956,-0.42158205718190955,-0.7012437457323693,-0.24586933162041377,-1.2826316570108889,-0.14930929233567986
15874,7.0,298.82043999999996,5052.441,0.0,0.0,0.0,0.0,-0.1582131353335717,0.0,-0.4172070053701256,-0.4165139423017256,-0.7020949670088783,-0.24969405690538476,-1.2776920627733888,-0.18971599393101082
15875,7.0,299.84484,5496.5324,0.0,0.0,0.0,0.0,-0.15822310214315555,0.0,-0.48914194641455155,-0.4303004866073516,-0.7513661681640672,-0.22596430698344078,-1.2914238307786088,-0.15244663888531185
15876,7.0,300.10797,5664.8595,0.0,0.0,0.0,0.0,-0.15823306895273936,0.0,-0.5322712104985785,-0.4538854734875086,-0.7358191524721963,-0.25757135702531375,-1.3142920749355287,-0.17728291871146182
15877,7.0,299.9343,5416.8805,0.0,0.0,0.0,0.0,-0.1582430357623232,0.0,-0.5128492832442835,-0.4101017005013866,-0.7236454287482433,-0.2299017360770348,-1.3071674068573789,-0.12224136969428388
15878,7.0,300.64402,5016.4239,0.0,0.0,0.0,0.0,-0.158253002571907,0.0,-0.4777705647822835,-0.3853234697734656,-0.6617735810719674,-0.24008441322198676,-1.2739133491754588,-0.16223280086863084
15879,7.0,300.56861000000004,5139.3152,0.0,0.0,0.0,0.0,-0.15826296938149084,0.0,-0.45920798507029953,-0.40161481898879664,-0.7014006779078573,-0.23149376476665576,-1.2444562435932687,-0.1399796299199139
15880,7.0,300.96882,5436.4631,0.0,0.0,0.0,0.0,-0.15827293619107463,0.0,-0.47679586884858854,-0.42819778999983155,-0.7475553750679713,-0.27582250418656173,-1.2783697244402688,-0.17742592883057584
15881,7.0,300.01473,5350.1865,0.0,0.0,0.0,0.0,-0.15828290300065848,0.0,-0.4772562694290265,-0.4348063794045486,-0.7142604428770173,-0.25444630119939476,-1.3080344449679489,-0.15299504023693486
15882,7.0,299.2701,5197.601,0.0,0.0,0.0,0.0,-0.1582928698102423,0.0,-0.46040853445128455,-0.44173719247356663,-0.6777952031106783,-0.24510880636035579,-1.286263550669329,-0.17502115197074283
15883,7.0,299.01164,5092.5806,0.0,0.0,0.0,0.0,-0.1583028366198261,0.0,-0.4904396867451285,-0.4048591850139906,-0.6527184689032974,-0.23863025747347277,-1.2965428716088188,-0.1902466026108778
15884,7.0,300.83609,5238.0305,0.0,0.0,0.0,0.0,-0.15831280342940993,0.0,-0.4766598906851685,-0.4328914481730595,-0.6826791395201853,-0.2632883977995418,-1.3202528226238088,-0.16131807920835484
15885,7.0,300.83517,5367.3588,0.0,0.0,0.0,0.0,-0.15832277023899377,0.0,-0.46595185349586754,-0.41379395346828357,-0.7517972250216093,-0.24153524551017277,-1.3140142417581089,-0.16194781414550485
15886,7.0,301.32183,5383.8174,0.0,0.0,0.0,0.0,-0.1583327370485776,0.0,-0.47026530983407255,-0.42436014577608555,-0.7419206102018633,-0.22971485222859078,-1.2828095837284488,-0.13571457653898586
15887,7.0,300.13364,5177.0409,0.0,0.0,0.0,0.0,-0.15834270385816143,0.0,-0.47681600212807557,-0.4056453049715746,-0.6912298659215763,-0.23943646004803876,-1.289642030477759,-0.1781432592388708
15888,7.0,300.55228,5268.1186,0.0,0.0,0.0,0.0,-0.1583526706677452,0.0,-0.4929042149633585,-0.40849504048032165,-0.6999772439023754,-0.29159402570308973,-1.3067252245137386,-0.1399361209606199
15889,7.0,300.75018,5440.8873,0.0,0.0,0.0,0.0,-0.15836263747732904,0.0,-0.5323483897586955,-0.4181248985032146,-0.7034205919822073,-0.2564009822323068,-1.3066689891331886,-0.17468559393512584
15890,7.0,300.11402999999996,5523.9207,0.0,0.0,0.0,0.0,-0.15837260428691285,0.0,-0.5177442640798805,-0.4269319873124066,-0.7344577091078323,-0.22027607290955578,-1.2894450546583187,-0.15226846898772786
15891,7.0,298.91682000000003,5424.204000000001,0.0,0.0,0.0,0.0,-0.1583825710964967,0.0,-0.4807566634894886,-0.4395232004750626,-0.7285427096615673,-0.24590669015160077,-1.2836930364906387,-0.17575601160576784
15892,7.0,300.28688999999997,5224.1396,0.0,0.0,0.0,0.0,-0.15839253790608052,0.0,-0.4804717476938695,-0.42438589246112657,-0.6831503514791903,-0.25763035857863675,-1.3191989411947986,-0.17145694341898285
15893,7.0,299.52761,5112.7762,0.0,0.0,0.0,0.0,-0.15840250471566433,0.0,-0.46752521811864656,-0.40193807616819965,-0.6846930044914383,-0.28638486640898575,-1.2811862557432387,-0.16713027429947383
15894,7.0,300.05839,5405.4427,0.0,0.0,0.0,0.0,-0.15841247152524812,0.0,-0.49618494653464157,-0.45702132042699256,-0.6899133298016443,-0.2325159821300408,-1.2734783609075289,-0.17149563944030183
15895,7.0,299.76556,5508.5883,0.0,0.0,0.0,0.0,-0.15842243833483197,0.0,-0.5145831872129064,-0.43858187086716055,-0.7213082458025813,-0.24913018322473476,-1.288537790518779,-0.16450237976762083
15896,7.0,299.62172999999996,5301.818,0.0,0.0,0.0,0.0,-0.15843240514441578,0.0,-0.4575072549099506,-0.40881423452682364,-0.7452987860352632,-0.22531485419934477,-1.3244458541876287,-0.16731409813261586
15897,7.0,300.00105,5071.9952,0.0,0.0,0.0,0.0,-0.15844237195399963,0.0,-0.4316655878045766,-0.3952889770244846,-0.7148053282507932,-0.2509105953729478,-1.3246230716301186,-0.15237614707585484
15898,7.0,300.50939,5171.9778,0.0,0.0,0.0,0.0,-0.15845233876358342,0.0,-0.46708054317976055,-0.38447758832498363,-0.7205939754095882,-0.2062706057873238,-1.3091352398765888,-0.17738967474199785
15899,7.0,299.74037000000004,5463.9097,0.0,0.0,0.0,0.0,-0.15846230557316726,0.0,-0.5238986945247756,-0.41670732108331066,-0.7202861094992044,-0.22739737699737378,-1.3001170100115589,-0.16964706595786183
15900,7.0,300.82389,5614.5687,0.0,0.0,0.0,0.0,-0.15847227238275105,0.0,-0.5369365483315115,-0.46466882555674255,-0.7050833252638063,-0.24655830115840977,-1.3122084274298886,-0.17599369981422583
15901,7.0,300.02526,5314.9047,0.0,0.0,0.0,0.0,-0.1584822391923349,0.0,-0.4944647011773666,-0.4064374132372496,-0.7146961910825224,-0.23505453840057677,-1.2813214233065788,-0.14659725751552286
15902,7.0,299.36003999999997,5172.1243,0.0,0.0,0.0,0.0,-0.1584922060019187,0.0,-0.4412513390506166,-0.43198291747089457,-0.6989623827347163,-0.26941555155174474,-1.2778714080410887,-0.1760594901432188
15903,7.0,300.08768,5473.1589,0.0,0.0,0.0,0.0,-0.15850217281150253,0.0,-0.4746449618013105,-0.43940193470309463,-0.7496567443178603,-0.25351571204255274,-1.301028124501479,-0.13399471621674888
15904,7.0,301.55581,5534.0523,0.0,0.0,0.0,0.0,-0.15851213962108635,0.0,-0.5154462432505835,-0.4344629686806566,-0.7323045121153283,-0.29525984297487773,-1.3202240463209687,-0.15300032940245684
15905,7.0,301.13341,5364.4835,0.0,0.0,0.0,0.0,-0.1585221064306702,0.0,-0.49153634759336057,-0.4214933876656586,-0.7176393077204853,-0.24549957639392175,-1.2764524526010488,-0.14351269116359985
15906,7.0,299.28904,5065.2712,0.0,0.0,0.0,0.0,-0.158532073240254,0.0,-0.47669024765816453,-0.4126124531891786,-0.6504132742632924,-0.26865845107702474,-1.2846167152817989,-0.15234094676738086
15907,7.0,299.14603999999997,5165.4277,0.0,0.0,0.0,0.0,-0.15854204004983785,0.0,-0.4693313161568946,-0.3977051630804436,-0.7031245709654923,-0.23180224875960076,-1.2944987408570787,-0.15499302757912084
15908,7.0,298.90479,5429.5731,0.0,0.0,0.0,0.0,-0.1585520068594216,0.0,-0.4992138449260705,-0.43698945714250165,-0.7142513337586183,-0.2317857530479728,-1.3250882547510288,-0.17668399670985283
15909,7.0,299.8301,5522.1982,0.0,0.0,0.0,0.0,-0.15856197366900546,0.0,-0.5180140115215025,-0.3985404155353766,-0.7620559364540653,-0.1925315930438888,-1.2984883118008188,-0.15928317916502585
15910,7.0,299.77533,5275.7358,0.0,0.0,0.0,0.0,-0.15857194047858927,0.0,-0.4879770431720845,-0.4130539971852556,-0.7026609077197323,-0.2229513672810868,-1.3059988255170487,-0.2047055498153648
15911,7.0,300.01617999999996,5272.8182,0.0,0.0,0.0,0.0,-0.15858190728817312,0.0,-0.47614893905724154,-0.4298834733961956,-0.6967726682086083,-0.2459964539779598,-1.3095564479431587,-0.1803757227866978
15912,7.0,301.32182,5361.5838,0.0,0.0,0.0,0.0,-0.15859187409775694,0.0,-0.49977985656443147,-0.4132493720695376,-0.7167583779510444,-0.26157213451515976,-1.298230844950409,-0.16352449209611086
15913,7.0,301.2293,5462.5693,0.0,0.0,0.0,0.0,-0.15860184090734075,0.0,-0.4717070735338636,-0.4492373710387766,-0.7395402121394363,-0.23837707667098576,-1.239195753049099,-0.13563184466832087
15914,7.0,299.97649,5176.3464,0.0,0.0,0.0,0.0,-0.15861180771692454,0.0,-0.42628014325807456,-0.4030338960188486,-0.7441660230859682,-0.2547989932942028,-1.2693588913009688,-0.14796419269542885
15915,7.0,299.45582,5082.4824,0.0,0.0,0.0,0.0,-0.15862177452650839,0.0,-0.4397555184579906,-0.38679046340074663,-0.7184017480232323,-0.2598117441889228,-1.2969603306500188,-0.13341703193723586
15916,7.0,299.65286000000003,5328.5282,0.0,0.0,0.0,0.0,-0.1586317413360922,0.0,-0.49260517446134555,-0.4145398980594026,-0.7125944570625973,-0.26748448937866376,-1.3154836570531288,-0.17087293645884585
15917,7.0,298.63518,5442.0388,0.0,0.0,0.0,0.0,-0.15864170814567605,0.0,-0.5278260519123755,-0.42558602640957055,-0.7008318190367153,-0.2196370667339908,-1.2926657714261789,-0.15366399808545583
15918,7.0,299.33449,5472.909000000001,0.0,0.0,0.0,0.0,-0.15865167495525984,0.0,-0.5241557966051495,-0.4499055689497226,-0.6895663017748953,-0.24097180752706576,-1.284745398044499,-0.16455762216307285
15919,7.0,298.35161,5286.2829,0.0,0.0,0.0,0.0,-0.15866164176484368,0.0,-0.4592253724420156,-0.42637767871270055,-0.7212949418287683,-0.25467534638449973,-1.2895236828660788,-0.17772599271518982
15920,7.0,299.07783,5230.1326,0.0,0.0,0.0,0.0,-0.15867160857442747,0.0,-0.4771040184690005,-0.39897495797326266,-0.7137507375467134,-0.26780367329266475,-1.2896268317262587,-0.14042231888860388
15921,7.0,299.94304,5278.1149,0.0,0.0,0.0,0.0,-0.15868157538401131,0.0,-0.4842753872442595,-0.4142463291079296,-0.7058934187187563,-0.24975515588641478,-1.2779458819234386,-0.17822781495971585
15922,7.0,299.73458,5423.8718,0.0,0.0,0.0,0.0,-0.15869154219359513,0.0,-0.5236807646932675,-0.4121800284440016,-0.7128607898513822,-0.2393433930263538,-1.300840977208009,-0.13460860392233487
15923,7.0,299.75961,5457.8606,0.0,0.0,0.0,0.0,-0.15870150900317895,0.0,-0.5217539581706065,-0.42946406891480365,-0.7078353125354063,-0.25759260487991076,-1.313407304948209,-0.18734551558706283
15924,7.0,299.18945,5294.2394,0.0,0.0,0.0,0.0,-0.15871147581276276,0.0,-0.4867434213078355,-0.4102154580901136,-0.7123577111767324,-0.26163000122837077,-1.2915911183701188,-0.13847321073124186
15925,7.0,300.40903,5163.7541,0.0,0.0,0.0,0.0,-0.1587214426223466,0.0,-0.42644180731152964,-0.4164363881390716,-0.7267741018770192,-0.25318184613460276,-1.261444800069909,-0.18235638355217382
15926,7.0,301.2258,5241.8821,0.0,0.0,0.0,0.0,-0.15873140943193043,0.0,-0.4395346502011926,-0.42588612069168763,-0.7279804977110813,-0.2298539208048158,-1.272544853590399,-0.12744001145234987
15927,7.0,300.92871,5356.3138,0.0,0.0,0.0,0.0,-0.15874137624151427,0.0,-0.4754012010134456,-0.44866348644713855,-0.7041209707163294,-0.2772029763878037,-1.3106503527511186,-0.1846810123290968
15928,7.0,299.67375,5584.2758,0.0,0.0,0.0,0.0,-0.15875134305109803,0.0,-0.5328196219827025,-0.4503301308741236,-0.7143306307114443,-0.24849087307413975,-1.3143235870136387,-0.15493229336812686
15929,7.0,299.57396,5454.5916,0.0,0.0,0.0,0.0,-0.15876130986068188,0.0,-0.5415694925587474,-0.43889910934096954,-0.6775910332155283,-0.27276972349027573,-1.3055946400521588,-0.18508442772391082
15930,7.0,299.71937,5170.5107,0.0,0.0,0.0,0.0,-0.1587712766702657,0.0,-0.47973072749823653,-0.4026753068084586,-0.6893001007086234,-0.2361157557603108,-1.3112035873057188,-0.15491460202138085
15931,7.0,299.87348,5225.9682,0.0,0.0,0.0,0.0,-0.15878124347984954,0.0,-0.44872412946562357,-0.40556591682623966,-0.7342737839496803,-0.24854353168183677,-1.3128763618958088,-0.15470293407549085
15932,7.0,299.3013,5415.6055,0.0,0.0,0.0,0.0,-0.15879121028943335,0.0,-0.4794872637642085,-0.40696293540161466,-0.7597586552973412,-0.22646339345269675,-1.2969699565259687,-0.14775353799963886
15933,7.0,298.97601000000003,5407.311,0.0,0.0,0.0,0.0,-0.15880117709901717,0.0,-0.4701581687684986,-0.42956522167228656,-0.7439641431360443,-0.2417988425236878,-1.2641524069871288,-0.15511565110622286
15934,7.0,300.24462,5283.2604,0.0,0.0,0.0,0.0,-0.15881114390860096,0.0,-0.48421246441304955,-0.41790123367614057,-0.7038655506311213,-0.2504737933873388,-1.2977169244996887,-0.17759455391221785
15935,7.0,300.51672,5280.6715,0.0,0.0,0.0,0.0,-0.1588211107181848,0.0,-0.49345617282283255,-0.42217632836555957,-0.6895597764442513,-0.2633031000584927,-1.3230157529964888,-0.17373412169372282
15936,7.0,300.84828,5366.9599,0.0,0.0,0.0,0.0,-0.15883107752776862,0.0,-0.4680811479185126,-0.44409497479376153,-0.7192456840315223,-0.26091363340767076,-1.3335879032148787,-0.16118491788021286
15937,7.0,299.70862999999997,5244.4882,0.0,0.0,0.0,0.0,-0.15884104433735244,0.0,-0.45864067647181056,-0.42064961377738463,-0.7149031778129503,-0.2367019310756618,-1.288525124892529,-0.16494565642136885
15938,7.0,299.25678,5042.1366,0.0,0.0,0.0,0.0,-0.15885101114693626,0.0,-0.4431668579671636,-0.3951270799235066,-0.6943896964909274,-0.27104576963763477,-1.301771850074879,-0.14761557386602286
15939,7.0,299.00445,5058.8698,0.0,0.0,0.0,0.0,-0.1588609779565201,0.0,-0.46275059112992756,-0.40500919669129565,-0.6700103113998693,-0.25434666831706176,-1.3014117409893387,-0.16412263389514284
15940,7.0,298.85452000000004,5410.3087,0.0,0.0,0.0,0.0,-0.1588709447661039,0.0,-0.5401294513841265,-0.41783762183486256,-0.6866316761727703,-0.2360506747063878,-1.2974957320028588,-0.16486019890793485
15941,7.0,299.15931,5527.0802,0.0,0.0,0.0,0.0,-0.1588809115756877,0.0,-0.5412063031929035,-0.4514167402813636,-0.6874713362656384,-0.2165258823019408,-1.2674282445604288,-0.1951520097900038
15942,7.0,298.83909,5163.4925,0.0,0.0,0.0,0.0,-0.15889087838527155,0.0,-0.4671053982047136,-0.40403688189533565,-0.6984305176247253,-0.23637219922811978,-1.2833814620848887,-0.18440973487982384
15943,7.0,300.01788999999997,5020.9064,0.0,0.0,0.0,0.0,-0.15890084519485537,0.0,-0.4118393838928826,-0.4115976528165256,-0.7027931469902834,-0.24897723312213976,-1.3142515449315288,-0.16523044049447483
15944,7.0,300.37404,5225.6745,0.0,0.0,0.0,0.0,-0.15891081200443918,0.0,-0.4507576514888166,-0.40360561225527264,-0.7341113092961453,-0.24681491687873575,-1.3180989568862387,-0.13747484527521087
15945,7.0,300.86245,5439.7586,0.0,0.0,0.0,0.0,-0.15892077881402303,0.0,-0.4541673191353246,-0.4457258717572185,-0.7536576028677142,-0.2344022079861968,-1.270091369798259,-0.15195017673381486
15946,7.0,298.94853,5234.9008,0.0,0.0,0.0,0.0,-0.15893074562360684,0.0,-0.5041526488284925,-0.3984083282523406,-0.6887181607786903,-0.23819518814553478,-1.3036689582371088,-0.16516946310345684
15947,7.0,300.7082,5297.3887,0.0,0.0,0.0,0.0,-0.15894071243319063,0.0,-0.4765244394118005,-0.43211399150383056,-0.7016354479560273,-0.25580131042562376,-1.3045890906529187,-0.17669896241382982
15948,7.0,300.20023,5284.7556,0.0,0.0,0.0,0.0,-0.15895067924277445,0.0,-0.48285089945867354,-0.41841767711960953,-0.7051651756068843,-0.24468075885561075,-1.3163614356147588,-0.17221284825858485
15949,7.0,300.10077,5403.2746,0.0,0.0,0.0,0.0,-0.1589606460523583,0.0,-0.4582376258470326,-0.44239395079088356,-0.7418289718628193,-0.2145521420346478,-1.2832947278763287,-0.17537518155568282
15950,7.0,299.16632999999996,5405.5399,0.0,0.0,0.0,0.0,-0.1589706128619421,0.0,-0.48091254188487254,-0.42340525888184555,-0.7388313423694762,-0.23760432148222077,-1.3066368691050188,-0.14770401033475086
15951,7.0,298.9754,5285.0206,0.0,0.0,0.0,0.0,-0.15898057967152593,0.0,-0.4650151037784176,-0.44223554940275056,-0.6992636321219473,-0.25566534239470473,-1.3160911004880789,-0.16328927621789685
15952,7.0,298.70523,5108.6177,0.0,0.0,0.0,0.0,-0.15899054648110977,0.0,-0.4932443326244256,-0.3903149322835846,-0.6693329435755184,-0.25050164763258775,-1.312685769551999,-0.15728069299239586
15953,7.0,300.33767,5152.4603,0.0,0.0,0.0,0.0,-0.1590005132906936,0.0,-0.49350980415062556,-0.40357590376234065,-0.6691335764858424,-0.2225122550852498,-1.270091876423309,-0.19381706291575482
15954,7.0,299.30453,5324.3931,0.0,0.0,0.0,0.0,-0.15901048010027738,0.0,-0.4701589996335806,-0.43703320928181955,-0.7112903636538933,-0.2095590887218718,-1.2779648297003088,-0.16815383928549182
15955,7.0,298.66542999999996,5274.2747,0.0,0.0,0.0,0.0,-0.1590204469098612,0.0,-0.47343482707437956,-0.3910160405577786,-0.7387969526610823,-0.25471741652865176,-1.3164930568027486,-0.16870920166530184
15956,7.0,299.30885,5317.7873,0.0,0.0,0.0,0.0,-0.15903041371944504,0.0,-0.4548838592085415,-0.41696560866630156,-0.7446250760437734,-0.25269131149619073,-1.3109769232583486,-0.13825736819493986
15957,7.0,299.58285,5255.8148,0.0,0.0,0.0,0.0,-0.15904038052902886,0.0,-0.4884175941830636,-0.4140928014527776,-0.6951260658686014,-0.2590391713851758,-1.2870026152922687,-0.14804454342835885
15958,7.0,300.41792999999996,5261.0965,0.0,0.0,0.0,0.0,-0.15905034733861267,0.0,-0.4997444130759335,-0.3921144745936856,-0.7073830787507743,-0.24415358509358276,-1.2745915174673887,-0.12495213795181587
15959,7.0,300.52797000000004,5324.5674,0.0,0.0,0.0,0.0,-0.15906031414819646,0.0,-0.5087180802015655,-0.4256591830667906,-0.6841582617511633,-0.27193509925040477,-1.2966309230425088,-0.17027713526754484
15960,7.0,300.54374,5426.8082,0.0,0.0,0.0,0.0,-0.1590702809577803,0.0,-0.5038894976450216,-0.4212252715566976,-0.7244994161975253,-0.23725030202978178,-1.3115105007610088,-0.15360775257240486
15961,7.0,300.96719,5400.7144,0.0,0.0,0.0,0.0,-0.15908024776736412,0.0,-0.4896449845591975,-0.4319676984543926,-0.7200696387478402,-0.24196143876723478,-1.3003895742884588,-0.19059103671737082
15962,7.0,300.55454,5280.2524,0.0,0.0,0.0,0.0,-0.15909021457694797,0.0,-0.4452641438191496,-0.44113072175871254,-0.7186700059872073,-0.2107307300775038,-1.3258716997283486,-0.15937093675618685
15963,7.0,299.6622,5366.3823,0.0,0.0,0.0,0.0,-0.15910018138653179,0.0,-0.4752734200433345,-0.4339281043503696,-0.7220447063727643,-0.23738276421535476,-1.3392759853012488,-0.18014929178685082
15964,7.0,299.27067999999997,5511.1274,0.0,0.0,0.0,0.0,-0.1591101481961156,0.0,-0.5085729017272375,-0.44006926121895457,-0.7266029538026283,-0.22987852251724378,-1.2960580314359686,-0.14667631128832487
15965,7.0,299.10558,5294.514,0.0,0.0,0.0,0.0,-0.15912011500569942,0.0,-0.49009764390887156,-0.4288246270416956,-0.6904777709023503,-0.22641922588083777,-1.2508919016034188,-0.18069705479091083
15966,7.0,299.6911,5135.5968,0.0,0.0,0.0,0.0,-0.15913008181528326,0.0,-0.44733009997804357,-0.40038175441210266,-0.7133813470902574,-0.24859039449896178,-1.2737084700052388,-0.14346897955428586
15967,7.0,299.98121000000003,5260.425,0.0,0.0,0.0,0.0,-0.15914004862486705,0.0,-0.4642920383745566,-0.42213964871193965,-0.7126061702337533,-0.27448013018907974,-1.307134678879149,-0.16122693736185986
15968,7.0,299.65591,5435.2274,0.0,0.0,0.0,0.0,-0.15915001543445087,0.0,-0.4847181978029615,-0.42910675639953966,-0.7383484577693192,-0.27431577089035875,-1.3216673197634088,-0.14481225534435685
15969,7.0,299.98506000000003,5428.7947,0.0,0.0,0.0,0.0,-0.1591599822440347,0.0,-0.5136824078740065,-0.42535342471661464,-0.7111822093382193,-0.25029436705963076,-1.2936980706280587,-0.15418650076452284
15970,7.0,299.20747,5418.6712,0.0,0.0,0.0,0.0,-0.15916994905361853,0.0,-0.4946189482400895,-0.45427244383319954,-0.6982493282418434,-0.23230788082450277,-1.2840486872757386,-0.16113150946744187
15971,7.0,299.98556,5387.6163,0.0,0.0,0.0,0.0,-0.15917991586320235,0.0,-0.5107855055731044,-0.42743657572970556,-0.6994787451181773,-0.24698267056529177,-1.3002047574702187,-0.16085084932224286
15972,7.0,300.35995,5446.1046,0.0,0.0,0.0,0.0,-0.1591898826727862,0.0,-0.5093630037577145,-0.4501965946434446,-0.6959202208994784,-0.23468044646365677,-1.2788364274363289,-0.17694539497065084
15973,7.0,300.25202,5348.6573,0.0,0.0,0.0,0.0,-0.15919984948236995,0.0,-0.48794726375164554,-0.43441804117122257,-0.7034929583043493,-0.22652142228592378,-1.2704235131810386,-0.16622004133714083
15974,7.0,299.85964,5258.4768,0.0,0.0,0.0,0.0,-0.1592098162919538,0.0,-0.49222306771613455,-0.4041558678545786,-0.7020666973310884,-0.24597312896065776,-1.3123430883681788,-0.17087256155630884
15975,7.0,300.24777,5203.3161,0.0,0.0,0.0,0.0,-0.15921978310153762,0.0,-0.4729820663996956,-0.4086900911245716,-0.7000059999402133,-0.25516846481066674,-1.3378019090557687,-0.1299574718558039
15976,7.0,298.85652000000005,5257.0724,0.0,0.0,0.0,0.0,-0.15922974991112146,0.0,-0.4910394801418235,-0.4133360860130956,-0.6936431844797524,-0.26506988399286074,-1.3022323722453288,-0.15937870838445387
15977,7.0,299.30442999999997,5568.7989,0.0,0.0,0.0,0.0,-0.15923971672070528,0.0,-0.5093775134991465,-0.43159722382032956,-0.7518010652394883,-0.2209756613085998,-1.251244917938259,-0.14257640754119585
15978,7.0,298.21842999999996,5462.9326,0.0,0.0,0.0,0.0,-0.1592496835302891,0.0,-0.5018385578526094,-0.4418551449177076,-0.7169013880701584,-0.26271076418253375,-1.2795296931547488,-0.16340558719687584
15979,7.0,299.15491000000003,5288.5013,0.0,0.0,0.0,0.0,-0.1592596503398729,0.0,-0.4388556713091826,-0.44352957110546054,-0.7251870786428923,-0.26713158450133473,-1.3003385064834185,-0.15380622800199284
15980,7.0,299.62822,5422.6627,0.0,0.0,0.0,0.0,-0.15926961714945673,0.0,-0.49414567938338155,-0.4396110897887366,-0.7145972776077604,-0.27362124874181476,-1.3171989881474189,-0.16407354192779786
15981,7.0,300.58089,5484.5966,0.0,0.0,0.0,0.0,-0.15927958395904054,0.0,-0.4936975796591575,-0.45682346307996563,-0.7166593732837734,-0.2197546138780918,-1.2895203391407488,-0.16728521037226485
15982,7.0,299.33707999999996,5279.4804,0.0,0.0,0.0,0.0,-0.1592895507686244,0.0,-0.48637072765605355,-0.4178861666471536,-0.7005733085387023,-0.2423421370948068,-1.3042083112653386,-0.18241127131009083
15983,7.0,300.21336,5222.866,0.0,0.0,0.0,0.0,-0.15929951757820818,0.0,-0.4603080909688716,-0.4047136924321316,-0.7225990757674763,-0.22653287201205377,-1.3186287853635288,-0.16120699659989185
15984,7.0,299.80226,5233.8407,0.0,0.0,0.0,0.0,-0.15930948438779202,0.0,-0.4461141086655346,-0.42228800879158157,-0.7225547460756013,-0.24342072156125477,-1.3076166819517185,-0.16545650672428583
15985,7.0,300.40328,5454.9346,0.0,0.0,0.0,0.0,-0.15931945119737584,0.0,-0.4854181307070396,-0.41130314154245956,-0.7614426465660383,-0.23359846760937375,-1.2813456399839687,-0.14810888480970885
15986,7.0,299.66823,5540.7016,0.0,0.0,0.0,0.0,-0.15932941800695968,0.0,-0.4992049283251906,-0.44452616337381656,-0.7405038332495384,-0.24138834451067478,-1.2887727632169688,-0.17857554212903382
15987,7.0,299.4834,5446.081999999999,0.0,0.0,0.0,0.0,-0.15933938481654347,0.0,-0.5154412884575945,-0.43346039823671056,-0.7065712526381533,-0.25940397181867875,-1.3064023017068687,-0.13985989415559688
15988,7.0,299.77361,5282.0402,0.0,0.0,0.0,0.0,-0.1593493516261273,0.0,-0.47660627962237756,-0.4329783141041326,-0.6960237446621954,-0.25207908552076874,-1.2872263409143487,-0.2044423884993928
15989,7.0,300.10501,5315.4915,0.0,0.0,0.0,0.0,-0.1593593184357111,0.0,-0.5046017618028165,-0.4218694047777686,-0.6893055215966584,-0.23979831192375078,-1.290150682027959,-0.14029184267322686
15990,7.0,299.09779,5401.7125,0.0,0.0,0.0,0.0,-0.15936928524529495,0.0,-0.4915358511008115,-0.4137344148924076,-0.7367154431131533,-0.24495713295288676,-1.2961647266714986,-0.17913566678431384
15991,7.0,299.35447999999997,5394.3339,0.0,0.0,0.0,0.0,-0.15937925205487877,0.0,-0.4955133137058565,-0.4276002865483626,-0.7166292189607973,-0.27928485070576875,-1.3152506095301288,-0.12570784014139788
15992,7.0,298.99598,5355.9601,0.0,0.0,0.0,0.0,-0.1593892188644626,0.0,-0.4732686439254785,-0.43494128352286254,-0.7198682147604613,-0.25570058323318273,-1.2910506507667787,-0.18428607783761985
15993,7.0,299.47634,5491.4505,0.0,0.0,0.0,0.0,-0.15939918567404637,0.0,-0.5283927018982995,-0.4053333759282896,-0.7355377627869253,-0.23355313479989975,-1.284745398044499,-0.16074238089903786
15994,7.0,299.14252,5417.0598,0.0,0.0,0.0,0.0,-0.15940915248363022,0.0,-0.4922860006798455,-0.42298948183581153,-0.7313754428336363,-0.2218824289555908,-1.292918577326129,-0.16406089656654985
15995,7.0,301.21128,5410.5899,0.0,0.0,0.0,0.0,-0.15941911929321403,0.0,-0.48403367643290457,-0.4141761108759996,-0.7464744499937922,-0.2135884094670348,-1.3239823935918886,-0.16048451888108883
15996,7.0,300.10895,5298.5281,0.0,0.0,0.0,0.0,-0.15942908610279788,0.0,-0.44336610346682753,-0.4235109003372716,-0.7437432444817432,-0.2414973499564328,-1.3103279365692988,-0.14283139192886085
15997,7.0,300.66368,5165.3447,0.0,0.0,0.0,0.0,-0.1594390529123817,0.0,-0.45550179991452755,-0.4056174000638206,-0.7090166101644914,-0.2336591511578628,-1.3045070173948188,-0.18301261497943883
15998,7.0,300.51356,5199.5919,0.0,0.0,0.0,0.0,-0.1594490197219655,0.0,-0.4726036478848486,-0.4282917892116086,-0.6796506565612973,-0.2276996092372018,-1.3010409927777487,-0.17061772915615883
15999,7.0,299.64952999999997,5371.1495,0.0,0.0,0.0,0.0,-0.15945898653154933,0.0,-0.5061130141944655,-0.43928505630405956,-0.6872972598984584,-0.24696575942112275,-1.3108244291182987,-0.1960740167184988
16000,7.0,300.12695,5524.2865,0.0,0.0,0.0,0.0,-0.15946895334113317,0.0,-0.5035380721128385,-0.4735386750771286,-0.7021684073761263,-0.24618200033627174,-1.2998168853319387,-0.1787020869340228
16001,7.0,300.59776,5269.6036,0.0,0.0,0.0,0.0,-0.15947892015071696,0.0,-0.48314271548747356,-0.4071181551844336,-0.7115670417261993,-0.23690762084596176,-1.283482989744909,-0.15119931787971086
16002,7.0,299.57673,5312.8814,0.0,0.0,0.0,0.0,-0.1594888869603008,0.0,-0.4513888151086076,-0.4324993811793656,-0.7310950866634673,-0.24645504084071876,-1.2968767375167687,-0.16629019877406484
16003,7.0,300.12471,5485.7625,0.0,0.0,0.0,0.0,-0.1594988537698846,0.0,-0.49409998180387155,-0.43186284733404456,-0.7415719812399564,-0.25735847317930377,-1.3085160427404787,-0.1315797663259119
16004,7.0,301.04627999999997,5485.8598,0.0,0.0,0.0,0.0,-0.15950882057946844,0.0,-0.5040455685579245,-0.4352676615125736,-0.7282511570777933,-0.24080942406603975,-1.303302364350929,-0.17706385403984184
16005,7.0,299.08761,5319.1702,0.0,0.0,0.0,0.0,-0.15951878738905226,0.0,-0.5058140446199595,-0.43619774404436557,-0.6748831324557794,-0.2182886335009108,-1.2901148129744187,-0.14976822370347284
16006,7.0,299.22659,5190.89,0.0,0.0,0.0,0.0,-0.1595287541986361,0.0,-0.5031583059753585,-0.3894074249640206,-0.6853352226698204,-0.23010440636203677,-1.2909538853822287,-0.17110617649936483
16007,7.0,299.06577000000004,5100.4946,0.0,0.0,0.0,0.0,-0.1595387210082199,0.0,-0.4738420016270646,-0.3859555858483506,-0.6906254115744214,-0.2289942794199758,-1.3131046471433387,-0.13763849529886185
16008,7.0,300.06835,5344.344,0.0,0.0,0.0,0.0,-0.1595486878178037,0.0,-0.4803333681277126,-0.43089913503143357,-0.7133146144386713,-0.24441638163951876,-1.3132639300590587,-0.16683085889492386
16009,7.0,300.84634,5518.2031,0.0,0.0,0.0,0.0,-0.15955865462738753,0.0,-0.5108597362754305,-0.4183569834386196,-0.7481792128895394,-0.21796875044434078,-1.290215935334399,-0.13174188634191186
16010,7.0,300.32117999999997,5421.8729,0.0,0.0,0.0,0.0,-0.15956862143697137,0.0,-0.5026739420300556,-0.45722186288678457,-0.6882181826493463,-0.27102252568034074,-1.2849573699654186,-0.17771868718196882
16011,7.0,300.69858999999997,5354.9023,0.0,0.0,0.0,0.0,-0.1595785882465552,0.0,-0.4952366862960555,-0.4237511622009836,-0.7087687387925283,-0.25036376455897974,-1.2842970348752487,-0.16649630397690582
16012,7.0,300.54901,5476.9507,0.0,0.0,0.0,0.0,-0.15958855505613903,0.0,-0.5197579264011135,-0.4412092891714666,-0.7038890377684394,-0.27039247663565974,-1.280653691490679,-0.17509349802788282
16013,7.0,299.90907000000004,5443.6318,0.0,0.0,0.0,0.0,-0.1595985218657228,0.0,-0.4648917507112435,-0.45338914305852457,-0.7364472358116833,-0.2316172292913408,-1.288303425770649,-0.16208323502136987
16014,7.0,299.30551,5133.8357,0.0,0.0,0.0,0.0,-0.15960848867530664,0.0,-0.45237300519573964,-0.38567939413609265,-0.7225054818557394,-0.24966006236452976,-1.3263019257208088,-0.15669573357716485
16015,7.0,299.06653,5195.8462,0.0,0.0,0.0,0.0,-0.15961845548489045,0.0,-0.4276955117927606,-0.4501416055605176,-0.7015703669021044,-0.22785439332247778,-1.3301747702530287,-0.16510780683487183
16016,7.0,299.92352999999997,5361.241,0.0,0.0,0.0,0.0,-0.1596284222944743,0.0,-0.4973472761218545,-0.4369790915939786,-0.6953570362288963,-0.2335021885848718,-1.3190394556290588,-0.1814241022676648
16017,7.0,300.20535,5439.1756,0.0,0.0,0.0,0.0,-0.15963838910405811,0.0,-0.5015735828189586,-0.42923585459478064,-0.7225641389040283,-0.2099481970252738,-1.2728351497440489,-0.15582935407915988
16018,7.0,299.56453999999997,5267.0972,0.0,0.0,0.0,0.0,-0.15964835591364193,0.0,-0.48767225754200455,-0.43106368684767354,-0.6823300951257374,-0.24989432578764975,-1.2885515707201387,-0.17818755853324283
16019,7.0,299.88072,5261.3312,0.0,0.0,0.0,0.0,-0.15965832272322575,0.0,-0.4689388235981585,-0.40492734634821764,-0.7254471394135583,-0.26308070179404375,-1.2886339479532687,-0.14218003423457687
16020,7.0,300.85773,5409.4407,0.0,0.0,0.0,0.0,-0.1596682895328096,0.0,-0.4768977410136426,-0.4581146375498945,-0.7093225103696813,-0.30362686713313874,-1.309000781588319,-0.18794558256128482
16021,7.0,300.23913999999996,5516.0141,0.0,0.0,0.0,0.0,-0.15967825634239338,0.0,-0.49326928897438854,-0.4587115229188025,-0.7247497295022294,-0.26659421744330075,-1.2863589988287487,-0.14490396461090785
16022,7.0,300.43037000000004,5495.9845,0.0,0.0,0.0,0.0,-0.15968822315197723,0.0,-0.5146790710698695,-0.4302479901196706,-0.7257150022099943,-0.2807059035735157,-1.300689698968079,-0.17382770547295884
16023,7.0,301.63265,5379.7059,0.0,0.0,0.0,0.0,-0.15969818996156102,0.0,-0.5086073015681325,-0.4252816055495266,-0.7014073450935153,-0.25932881905876176,-1.299251795751169,-0.14577227941660387
16024,7.0,300.81806,5153.0213,0.0,0.0,0.0,0.0,-0.15970815677114486,0.0,-0.46559333521298457,-0.3891942371429806,-0.7116022319021723,-0.24504916645946978,-1.2835119686977687,-0.17477764770671084
16025,7.0,300.11132000000003,5328.7872,0.0,0.0,0.0,0.0,-0.15971812358072868,0.0,-0.4855590535309475,-0.4103925539425916,-0.7238666415100753,-0.23614922341111375,-1.2683827261546288,-0.14420748688967086
16026,7.0,300.12167999999997,5604.0021,0.0,0.0,0.0,0.0,-0.15972809039031252,0.0,-0.5035713168486196,-0.4332204099505256,-0.7666849999334183,-0.2191999202433478,-1.3103416154456489,-0.16284223027377684
16027,7.0,299.6666,5417.6543,0.0,0.0,0.0,0.0,-0.1597380571998963,0.0,-0.5027268235527745,-0.40230223825413963,-0.7418025766977143,-0.24717056766383577,-1.3096362920510387,-0.16214410095487683
16028,7.0,300.2834,5480.3884,0.0,0.0,0.0,0.0,-0.15974802400948013,0.0,-0.5032160004360525,-0.44071197588988553,-0.7219732519757123,-0.22990379297473781,-1.3014970566477588,-0.16856682989375082
16029,7.0,300.56559,5425.420999999999,0.0,0.0,0.0,0.0,-0.15975799081906394,0.0,-0.5079691971851565,-0.42820973621851055,-0.7130135778339614,-0.25312256087125173,-1.3054085060087885,-0.17581751588683783
16030,7.0,299.80061,5298.9829,0.0,0.0,0.0,0.0,-0.1597679576286478,0.0,-0.49088656043673157,-0.4050187313747366,-0.7148531840530163,-0.2574376992046228,-1.3178262912843288,-0.13948495108859288
16031,7.0,299.35069,5485.8043,0.0,0.0,0.0,0.0,-0.1597779244382316,0.0,-0.4975216868615675,-0.4409476882606486,-0.7290781515444114,-0.27846951874780174,-1.3201171484354186,-0.17315196898126883
16032,7.0,300.02714,5506.2588,0.0,0.0,0.0,0.0,-0.15978789124781545,0.0,-0.49215330544674957,-0.4306040056748066,-0.7510078930612083,-0.2582041317127638,-1.2896519603287389,-0.16000009414077984
16033,7.0,300.11764,5189.6712,0.0,0.0,0.0,0.0,-0.1597978580573992,0.0,-0.4659202096952446,-0.41911542140347163,-0.6924948174789174,-0.26667364611863975,-1.257628596218279,-0.2080914263495248
16034,7.0,300.59181,5190.2727,0.0,0.0,0.0,0.0,-0.15980782486698306,0.0,-0.46227581253057054,-0.3993472159275016,-0.7160902813651083,-0.2402563009689508,-1.289120409326279,-0.15513183271031986
16035,7.0,299.8657,5428.2363,0.0,0.0,0.0,0.0,-0.15981779167656687,0.0,-0.4951096044685135,-0.3995704957195376,-0.7553681818190352,-0.27125418505070376,-1.2928360987679888,-0.1813281981456998
16036,7.0,301.05668,5519.7389,0.0,0.0,0.0,0.0,-0.15982775848615072,0.0,-0.49642890676121854,-0.42214817014528067,-0.7592857208131663,-0.23075521690126677,-1.3033299247536487,-0.15306049619339485
16037,7.0,301.22732,5294.3304,0.0,0.0,0.0,0.0,-0.15983772529573453,0.0,-0.4664951278019846,-0.4037815023401316,-0.7390676221602953,-0.24881636953626377,-1.2965142979559987,-0.16990598175591484
16038,7.0,301.26806,5340.8967,0.0,0.0,0.0,0.0,-0.15984769210531835,0.0,-0.4791926410326316,-0.4162670031198546,-0.7280396005894143,-0.22641082603750878,-1.3216071327074688,-0.15797730243614586
16039,7.0,299.90504,5495.5154,0.0,0.0,0.0,0.0,-0.15985765891490217,0.0,-0.5235368527815645,-0.4275620262245866,-0.7194005694418083,-0.23965096509420877,-1.3318722681455588,-0.17236965884406083
16040,7.0,300.38962000000004,5595.6242,0.0,0.0,0.0,0.0,-0.159867625724486,0.0,-0.5138863345891326,-0.4306867882079766,-0.7563569011341142,-0.21159959203825382,-1.3040534866500588,-0.18385523376259882
16041,7.0,299.763,5347.8358,0.0,0.0,0.0,0.0,-0.1598775925340698,0.0,-0.49337101928442856,-0.42339167119800464,-0.7088458673901403,-0.23162810146491378,-1.3152791831829487,-0.16655395790759586
16042,7.0,300.18624,5179.2947,0.0,0.0,0.0,0.0,-0.15988755934365362,0.0,-0.45654023941201355,-0.3941448960715726,-0.7236911263277533,-0.2421671690675388,-1.3159492454740789,-0.15667679593279585
16043,7.0,300.03264,5157.7912,0.0,0.0,0.0,0.0,-0.15989752615323743,0.0,-0.4731608037173355,-0.4041181445533556,-0.6905607966155444,-0.28437739504586373,-1.3295773579940686,-0.14716477889653284
16044,7.0,299.72022999999996,5526.5025,0.0,0.0,0.0,0.0,-0.15990749296282128,0.0,-0.5104125383437955,-0.4195188773282897,-0.7499873576929893,-0.25151563740516075,-1.2986208449138987,-0.17584100302415584
16045,7.0,298.96057,5650.8978,0.0,0.0,0.0,0.0,-0.1599174597724051,0.0,-0.5389679627944965,-0.43393220801327465,-0.7448316473416603,-0.26137537147824075,-1.280174221543359,-0.17494821822854484
16046,7.0,301.27529,5285.5005,0.0,0.0,0.0,0.0,-0.15992742658198894,0.0,-0.47207531901770655,-0.40034270375324865,-0.7342421705465603,-0.2505913506639408,-1.315977109851829,-0.17833450006274482
16047,7.0,300.7627,5170.3511,0.0,0.0,0.0,0.0,-0.15993739339157273,0.0,-0.4507956382350655,-0.4114707128439976,-0.7093912695214674,-0.2353755664297598,-1.3191780682427388,-0.18219676626392084
16048,7.0,299.91936,5477.3318,0.0,0.0,0.0,0.0,-0.15994736020115655,0.0,-0.48639449850339955,-0.4121478476208256,-0.7664297521007273,-0.24268748312638977,-1.3112150370318487,-0.14749733771185386
16049,7.0,300.36638,5728.2168,0.0,0.0,0.0,0.0,-0.15995732701074036,0.0,-0.5074409493780225,-0.4834645946467406,-0.7503293397342403,-0.2047226230795498,-1.322726064792899,-0.16470890040300284
16050,7.0,300.35071,5437.9453,0.0,0.0,0.0,0.0,-0.15996729382032418,0.0,-0.49461899890259453,-0.4392996876355036,-0.7190809093002604,-0.25812343647479974,-1.3363051360080487,-0.15640902432886886
16051,7.0,298.63912999999997,5186.682,0.0,0.0,0.0,0.0,-0.15997726062990802,0.0,-0.4600632289497055,-0.42749800908326857,-0.6890605886499853,-0.2331510163652138,-1.3215188786237588,-0.19251080115183683
16052,7.0,299.01365,5135.8129,0.0,0.0,0.0,0.0,-0.15998722743949184,0.0,-0.47394919335514357,-0.4070546649331676,-0.6801550220635744,-0.23855918811145876,-1.3116075701205887,-0.1963501679007528
16053,7.0,298.992,5266.8237,0.0,0.0,0.0,0.0,-0.15999719424907563,0.0,-0.47765511506588954,-0.4021480519864226,-0.7211797251598974,-0.2339644839429968,-1.287824969073429,-0.18097512101585383
16054,7.0,298.54819,5568.0669,0.0,0.0,0.0,0.0,-0.16000716105865948,0.0,-0.5099139787645915,-0.42765280330104555,-0.7549865310363693,-0.24989957442316776,-1.3246946070871788,-0.15799892519327985
16055,7.0,299.2675,5404.108,0.0,0.0,0.0,0.0,-0.1600171278682433,0.0,-0.48536580647187555,-0.40959957428183064,-0.7477485005370312,-0.24466262167882075,-1.2990212813534185,-0.14677879140343886
16056,7.0,300.38017,5128.2354,0.0,0.0,0.0,0.0,-0.1600270946778271,0.0,-0.44727181783229153,-0.3976194117244806,-0.7139642597402863,-0.24708525200541576,-1.282764595424009,-0.16795184787805684
16057,7.0,299.85302,5405.5703,0.0,0.0,0.0,0.0,-0.16003706148741095,0.0,-0.5027556302531175,-0.4416494855449106,-0.6987532884440802,-0.2295265295650048,-1.2680720636739686,-0.17355139217068882
16058,7.0,300.01293,5726.5318,0.0,0.0,0.0,0.0,-0.16004702829699477,0.0,-0.5327640452147175,-0.45808398673436956,-0.7498746437518653,-0.26951073626613875,-1.2696402708537389,-0.15525012965949483
16059,7.0,300.59709,5467.4873,0.0,0.0,0.0,0.0,-0.1600569951065786,0.0,-0.5128403261133996,-0.4494670241739415,-0.6996722454897744,-0.2426706023797238,-1.3127752395358288,-0.16619673658484083
16060,7.0,299.95349,5237.7804,0.0,0.0,0.0,0.0,-0.16006696191616238,0.0,-0.47500850580468956,-0.41863742066879667,-0.6985085277499243,-0.22893510561413577,-1.3236180288559287,-0.13478875979011487
16061,7.0,298.9842,5158.2989,0.0,0.0,0.0,0.0,-0.16007692872574622,0.0,-0.4599938314503566,-0.39973425720069966,-0.7082659843579103,-0.2411070865479168,-1.3236502502091088,-0.15484144536416083
16062,7.0,299.22958,5291.8368,0.0,0.0,0.0,0.0,-0.16008689553533004,0.0,-0.46326907120609756,-0.43006384204649656,-0.7152533266500073,-0.24316649711116478,-1.3267861579435989,-0.14943239209032885
16063,7.0,299.15967,5445.7434,0.0,0.0,0.0,0.0,-0.16009686234491385,0.0,-0.5022091642091855,-0.4166714114997666,-0.7364894376783483,-0.25642062915174574,-1.2943060206880588,-0.19322105907443382
16064,7.0,299.82662,5432.9580000000005,0.0,0.0,0.0,0.0,-0.16010682915449767,0.0,-0.49856148411418755,-0.43805929726058657,-0.7148627997964653,-0.2204894025856098,-1.2730358745888588,-0.16816900763948886
16065,7.0,300.76926000000003,5097.9264,0.0,0.0,0.0,0.0,-0.16011679596408152,0.0,-0.44852561350603154,-0.41083936683918865,-0.6902773500325703,-0.25934391648525174,-1.286248047942799,-0.18438384633976881
16066,7.0,301.74456000000004,5293.2014,0.0,0.0,0.0,0.0,-0.1601267627736653,0.0,-0.4746386695181896,-0.3929304550317166,-0.7414319298111344,-0.25219488987469774,-1.2900846181214387,-0.12999486078449388
16067,7.0,300.81781,5863.4169999999995,0.0,0.0,0.0,0.0,-0.16013672958324915,0.0,-0.5311472729576545,-0.49288168028113455,-0.7583034153712203,-0.25346856551539976,-1.2949128561729488,-0.16817212844979684
16068,7.0,301.00473,5769.1262,0.0,0.0,0.0,0.0,-0.16014669639283297,0.0,-0.5562364701412654,-0.4404096220600456,-0.7570242073849722,-0.2401577319992228,-1.2765224681829588,-0.13437203028898687
16069,7.0,300.82369,5288.6102,0.0,0.0,0.0,0.0,-0.16015666320241678,0.0,-0.4701749481901546,-0.4427322142042676,-0.6946982818088823,-0.24937244119114377,-1.2907272213348588,-0.18488977224719982
16070,7.0,299.66343,5337.8786,0.0,0.0,0.0,0.0,-0.1601666300120006,0.0,-0.4981080850919405,-0.43918338678902563,-0.6852903356903903,-0.23997556989624477,-1.3027568304970887,-0.14098475375411187
16071,7.0,298.52594,5655.3364,0.0,0.0,0.0,0.0,-0.16017659682158444,0.0,-0.5438884876651144,-0.4570156766239356,-0.7181768976935413,-0.28140037505955473,-1.2894934880130988,-0.16291283354074484
16072,7.0,299.71878,5458.0345,0.0,0.0,0.0,0.0,-0.16018656363116826,0.0,-0.49681877500219557,-0.44368776984357355,-0.7185996762977663,-0.24122879814992879,-1.3136333610455186,-0.15417066366545987
16073,7.0,300.50836,4983.1839,0.0,0.0,0.0,0.0,-0.16019653044075205,0.0,-0.44074842249598256,-0.3881069691231756,-0.6859080838788574,-0.2558836471287498,-1.3004010240145887,-0.15313971208621285
16074,7.0,299.89957000000004,4975.442,0.0,0.0,0.0,0.0,-0.16020649725033587,0.0,-0.4340610832934936,-0.39250293441702366,-0.6858461236352423,-0.22547755176790177,-1.2990127700525786,-0.15236502158975684
16075,7.0,300.38353,5242.2472,0.0,0.0,0.0,0.0,-0.1602164640599197,0.0,-0.46465537972791554,-0.4400420858512726,-0.6888147944407274,-0.2347963622750968,-1.3056210858797686,-0.1954691773363058
16076,7.0,300.77487,5505.806,0.0,0.0,0.0,0.0,-0.16022643086950353,0.0,-0.5054558404446075,-0.4457316776802916,-0.7224400258992794,-0.23987670708398776,-1.2958382574892788,-0.1862347604299398
16077,7.0,300.87201,5644.0474,0.0,0.0,0.0,0.0,-0.16023639767908737,0.0,-0.5257261924051355,-0.4488749821405116,-0.7410482930582722,-0.2371286410902748,-1.3216926510159088,-0.16474715059427783
16078,7.0,298.6146,5263.6318,0.0,0.0,0.0,0.0,-0.16024636448867116,0.0,-0.4667510747772446,-0.44287971302132456,-0.6903818566478843,-0.23997029086322377,-1.3290123697383087,-0.17020656239807982
16079,7.0,299.00338999999997,5274.0801,0.0,0.0,0.0,0.0,-0.160256331298255,0.0,-0.47396267971397454,-0.4204407424017706,-0.7087852345041563,-0.26180417892056074,-1.3197551141746886,-0.15576240864505286
16080,7.0,298.50084,5609.8721,0.0,0.0,0.0,0.0,-0.1602662981078388,0.0,-0.5283717884162354,-0.44618734638276264,-0.7307019050946634,-0.25623962215388174,-1.3066490281062186,-0.15477843134044186
16081,7.0,299.05568999999997,5398.1595,0.0,0.0,0.0,0.0,-0.16027626491742264,0.0,-0.48416717213357957,-0.42836165280600363,-0.7283768608851994,-0.24164612546861577,-1.2864171593844886,-0.14739981238972885
16082,7.0,300.45895,5097.4698,0.0,0.0,0.0,0.0,-0.16028623172700646,0.0,-0.46373193398427853,-0.4085632322120516,-0.6772083793152633,-0.25827923381017576,-1.2870305809950289,-0.14998766327762986
16083,7.0,300.69392,5306.0452,0.0,0.0,0.0,0.0,-0.16029619853659027,0.0,-0.4812636330445225,-0.4398447351292956,-0.6917968908100374,-0.23624434733050179,-1.3013349366317588,-0.18221597748581683
16084,7.0,298.93012999999996,5438.3885,0.0,0.0,0.0,0.0,-0.1603061653461741,0.0,-0.5252296998561354,-0.4023167986580766,-0.7255878089249413,-0.2796146230833147,-1.3023343052053886,-0.14680135648316586
16085,7.0,300.17298999999997,5489.2326,0.0,0.0,0.0,0.0,-0.16031613215575793,0.0,-0.5035667470906685,-0.4402773219944886,-0.7247455650443183,-0.20872606541715882,-1.3231519338099287,-0.17684881197111885
16086,7.0,300.73927000000003,5437.9809,0.0,0.0,0.0,0.0,-0.16032609896534175,0.0,-0.5138235232154335,-0.4131664983438586,-0.7260203755251323,-0.22852604641626476,-1.323764646145399,-0.14088229390399987
16087,7.0,299.17487,5470.4056,0.0,0.0,0.0,0.0,-0.1603360657749256,0.0,-0.4781547892202036,-0.4304313782552696,-0.7542805388966932,-0.2051017407369658,-1.3072514052906687,-0.18053653571006884
16088,7.0,300.24572,5407.4393,0.0,0.0,0.0,0.0,-0.16034603258450936,0.0,-0.47427029231183354,-0.44924739208226555,-0.7202088289140773,-0.24708377266026976,-1.3105690900930986,-0.18052583578901282
16089,7.0,299.91329,5407.9489,0.0,0.0,0.0,0.0,-0.1603559993940932,0.0,-0.4685444970567416,-0.4297808007635626,-0.7455561414281623,-0.23936057774804975,-1.2969487795988788,-0.15838434526631787
16090,7.0,299.15693999999996,5497.5469,0.0,0.0,0.0,0.0,-0.16036596620367702,0.0,-0.4931221549273675,-0.46363854272256155,-0.7143562760714753,-0.26195769644321176,-1.3004098392904588,-0.16185521321886584
16091,7.0,300.29523,5217.2862,0.0,0.0,0.0,0.0,-0.16037593301326086,0.0,-0.47260874453285157,-0.42516537563055556,-0.6881506090001773,-0.23757580862440678,-1.2915470419907686,-0.16052315410740184
16092,7.0,301.28483,5098.4936,0.0,0.0,0.0,0.0,-0.16038589982284468,0.0,-0.4531824299056236,-0.42190491919377365,-0.6747273959154094,-0.24480994824336078,-1.3101807113297685,-0.18950122543981482
16093,7.0,301.06197000000003,5483.704000000001,0.0,0.0,0.0,0.0,-0.16039586663242847,0.0,-0.4984524888009305,-0.4347446116784526,-0.7337119874317353,-0.23127351459241877,-1.3259526584113386,-0.14396233102797587
16094,7.0,300.67075,5553.3064,0.0,0.0,0.0,0.0,-0.16040583344201229,0.0,-0.4845608805924355,-0.4535292654148535,-0.7499763132668993,-0.2524102460509518,-1.3322710833849187,-0.1857325430178748
16095,7.0,299.79441,5370.5247,0.0,0.0,0.0,0.0,-0.16041580025159613,0.0,-0.4778559615007116,-0.4308234148514606,-0.7238260405785683,-0.23417744884901476,-1.3162556523043187,-0.15092124152226685
16096,7.0,299.96342000000004,5564.5406,0.0,0.0,0.0,0.0,-0.16042576706117995,0.0,-0.5222757009120985,-0.4431617005241546,-0.7260439943849633,-0.25812267653722476,-1.2928601127953587,-0.17367736955562185
16097,7.0,299.8273,5575.7839,0.0,0.0,0.0,0.0,-0.1604357338707638,0.0,-0.5353239303998585,-0.4174365774452826,-0.7421385704308743,-0.2615890253943267,-1.2734265838274188,-0.12695209099919588
16098,7.0,299.67278,5377.5295,0.0,0.0,0.0,0.0,-0.16044570068034758,0.0,-0.4859437440639136,-0.4325712408764576,-0.7161197061480123,-0.2407805363056888,-1.2851485702592886,-0.16843953528368782
16099,7.0,299.86593,5522.2480000000005,0.0,0.0,0.0,0.0,-0.16045566748993143,0.0,-0.49480657176110654,-0.4355838056762745,-0.7482351341625583,-0.23993047013429378,-1.2966146097158988,-0.14503918283675288
16100,7.0,299.60188999999997,5317.3529,0.0,0.0,0.0,0.0,-0.16046563429951521,0.0,-0.4817489393124185,-0.40270379940127066,-0.7318897787168973,-0.23290013564045378,-1.3076705868570386,-0.15556644607571285
16101,7.0,299.23208,4998.026,0.0,0.0,0.0,0.0,-0.16047560110909906,0.0,-0.43984424876924755,-0.38379990639310163,-0.6956309481284294,-0.24451135357139178,-1.3435555484236088,-0.16074050638635284
16102,7.0,300.88969,5309.1805,0.0,0.0,0.0,0.0,-0.16048556791868288,0.0,-0.5025776123430485,-0.4171707715465496,-0.6941099280058163,-0.25908624698482174,-1.3220236798235787,-0.16014081431466784
16103,7.0,299.79222000000004,5694.0325,0.0,0.0,0.0,0.0,-0.1604955347282667,0.0,-0.5394846088879854,-0.45147611673722354,-0.7398829642507633,-0.24737187006120276,-1.317971186048629,-0.17083624667272485
16104,7.0,300.8892,5527.6607,0.0,0.0,0.0,0.0,-0.1605055015378505,0.0,-0.5294087283035734,-0.4419831082728366,-0.7088789804034084,-0.2202558281725578,-1.2870654367984689,-0.1870207486650108
16105,7.0,300.7082,5452.2404,0.0,0.0,0.0,0.0,-0.16051546834743435,0.0,-0.48773769323346255,-0.42184469160782956,-0.7477625644484193,-0.23481757973219075,-1.3117740471120187,-0.18062606648890484
16106,7.0,301.22635,5628.9116,0.0,0.0,0.0,0.0,-0.16052543515701817,0.0,-0.5002989141931585,-0.46475718096546254,-0.7459924975837273,-0.2210543199138628,-1.3164666109751386,-0.16604798133765986
16107,7.0,300.38514,5452.5215,0.0,0.0,0.0,0.0,-0.16053540196660201,0.0,-0.4738108543189905,-0.43815238454727357,-0.7454671578043803,-0.26621150274802974,-1.3083561518746987,-0.15923073333984983
16108,7.0,301.57034,5400.4996,0.0,0.0,0.0,0.0,-0.16054536877618578,0.0,-0.47747295296291153,-0.4513249904848085,-0.7128191047422683,-0.24978994076234778,-1.3068210779731988,-0.17654281044091882
16109,7.0,300.13667999999996,5306.2454,0.0,0.0,0.0,0.0,-0.16055533558576962,0.0,-0.5032346138403896,-0.4113651017860746,-0.6983663788933954,-0.2543964492944748,-1.2936264338459886,-0.15122806378504786
16110,7.0,299.72945,5284.9498,0.0,0.0,0.0,0.0,-0.16056530239535344,0.0,-0.48079514672828655,-0.4401365714230976,-0.6855610558521084,-0.24428593582164476,-1.2754918915062488,-0.19832219577537682
16111,7.0,299.75579,5253.0208,0.0,0.0,0.0,0.0,-0.16057526920493728,0.0,-0.47384158619452355,-0.4285303488151526,-0.6944152303934473,-0.24510347666482973,-1.3085916311979386,-0.16767724696845585
16112,7.0,299.34788,5426.1851,0.0,0.0,0.0,0.0,-0.1605852360145211,0.0,-0.4683794386154515,-0.4544805856687416,-0.7265647644063593,-0.26283588030488175,-1.3194395880935488,-0.2047503354697848
16113,7.0,299.33639,5442.3224,0.0,0.0,0.0,0.0,-0.1605952028241049,0.0,-0.4797879355988825,-0.4261151253467886,-0.7484270437314984,-0.26744808330257075,-1.336281932580759,-0.12041114617115489
16114,7.0,300.57642999999996,5245.8149,0.0,0.0,0.0,0.0,-0.1606051696336887,0.0,-0.4671065431773265,-0.4163860600066046,-0.7111041384180142,-0.24449727952750278,-1.3192298453228488,-0.1859814479049398
16115,7.0,300.07133,5418.8161,0.0,0.0,0.0,0.0,-0.16061513644327255,0.0,-0.5020828423192185,-0.41557829702688465,-0.7295236573483793,-0.24361933884585676,-1.3012082803692588,-0.11511671174863489
16116,7.0,299.02715,5610.396,0.0,0.0,0.0,0.0,-0.16062510325285637,0.0,-0.5456527790042365,-0.43932063151507056,-0.7204468920250723,-0.23621046424715778,-1.2779904649278389,-0.14794203291574187
16117,7.0,299.71967,5695.8936,0.0,0.0,0.0,0.0,-0.1606350700624402,0.0,-0.5332706196022126,-0.4397395293714126,-0.7583992688306803,-0.24672264019212875,-1.2980631520588588,-0.1234697125255119
16118,7.0,300.47142,5663.8285,0.0,0.0,0.0,0.0,-0.160645036872024,0.0,-0.5238339782408885,-0.4578794824666866,-0.7399489572297764,-0.24286347453625876,-1.2961527703203186,-0.16395933850902686
16119,7.0,299.97108,5618.2323,0.0,0.0,0.0,0.0,-0.16065500368160784,0.0,-0.4991510639498745,-0.4484087756370006,-0.7602424720875903,-0.2502083015961368,-1.3084839227123088,-0.14791939690850786
16120,7.0,300.08342000000005,5327.1731,0.0,0.0,0.0,0.0,-0.16066497049119163,0.0,-0.48369426804690757,-0.4167938627743516,-0.7188394720664323,-0.25748399460169175,-1.3012258095959885,-0.16465138832732684
16121,7.0,299.10151,5235.884,0.0,0.0,0.0,0.0,-0.16067493730077548,0.0,-0.4642113937990976,-0.4359465289470726,-0.6914200732303483,-0.24855908507087177,-1.3067397139901686,-0.17230691839786885
16122,7.0,300.29913999999997,5293.7428,0.0,0.0,0.0,0.0,-0.1606849041103593,0.0,-0.49761858396863046,-0.42872027241389654,-0.6828267801922564,-0.2547147010183838,-1.2788582123134788,-0.1887259067282968
16123,7.0,300.938,5176.1601,0.0,0.0,0.0,0.0,-0.1606948709199431,0.0,-0.45206447054028964,-0.41678988070145867,-0.7045690603080523,-0.23613208935192279,-1.3039181164366989,-0.17119925365355085
16124,7.0,300.04681,4997.8105,0.0,0.0,0.0,0.0,-0.16070483772952693,0.0,-0.4200514719783526,-0.4258037333260566,-0.6733544014999053,-0.24250291962067477,-1.3120396199632287,-0.1988234809973498
16125,7.0,300.32339,5416.5737,0.0,0.0,0.0,0.0,-0.16071480453911077,0.0,-0.48995554571484756,-0.4012087590112216,-0.7553388482286403,-0.23411231713258676,-1.3265098446413288,-0.13754821471495188
16126,7.0,299.93297,5707.9805,0.0,0.0,0.0,0.0,-0.1607247713486946,0.0,-0.5280831235952465,-0.45662346777522755,-0.7503769624889404,-0.24673764642610976,-1.3499905984836988,-0.16556129704962785
16127,7.0,299.25203,5318.8156,0.0,0.0,0.0,0.0,-0.16073473815827843,0.0,-0.5058469549832075,-0.39182623533773864,-0.7191139615185222,-0.2265321120744788,-1.3143566189668987,-0.12499340762838888
16128,7.0,300.08265,5343.5965,0.0,0.0,0.0,0.0,-0.1607447049678622,0.0,-0.48772433859714454,-0.41508515833571563,-0.7215104094625333,-0.23059762611321377,-1.2910663561433289,-0.16288455373045385
16129,7.0,299.59437,5534.3119,0.0,0.0,0.0,0.0,-0.16075467177744604,0.0,-0.5238053336605615,-0.4366248390940166,-0.7218624530772773,-0.2235689432170368,-1.2698470751991489,-0.13703340260414384
16130,7.0,299.18444,5463.9628,0.0,0.0,0.0,0.0,-0.16076463858702986,0.0,-0.48999259013850355,-0.44860470780883754,-0.7223109479690403,-0.29351232092491075,-1.2756640426982386,-0.19911292602091582
16131,7.0,300.65065,5470.8522,0.0,0.0,0.0,0.0,-0.1607746053966137,0.0,-0.5104972865821594,-0.4234354537348256,-0.7290697314360803,-0.2793939169465327,-1.2997188027222588,-0.14122699145551887
16132,7.0,300.06942000000004,5347.3778,0.0,0.0,0.0,0.0,-0.16078457220619752,0.0,-0.49278905908949355,-0.42920725054445763,-0.7034730074098803,-0.25177964985121676,-1.3143821528694186,-0.17909741659303885
16133,7.0,299.56554,5229.3820000000005,0.0,0.0,0.0,0.0,-0.1607945390157813,0.0,-0.48996925498870053,-0.39532081334262664,-0.7043114921326323,-0.25468762697571173,-1.3215500867268386,-0.13125125037848986
16134,7.0,300.9637,5523.2852,0.0,0.0,0.0,0.0,-0.16080450582536512,0.0,-0.49568975094576956,-0.44137423615524557,-0.7418767972675393,-0.2231007507433298,-1.3444630152131687,-0.17303012565674383
16135,7.0,301.12818,5829.1005,0.0,0.0,0.0,0.0,-0.16081447263494897,0.0,-0.5457485108736845,-0.4587627325788565,-0.7673897457754713,-0.24640241263052473,-1.3255672180732987,-0.14248171931935086
16136,7.0,299.78087999999997,5607.8381,0.0,0.0,0.0,0.0,-0.16082443944453279,0.0,-0.5244407022682674,-0.42644211128655957,-0.7537599512603153,-0.19995163365868981,-1.2949864181302089,-0.15153930381826486
16137,7.0,300.38397000000003,5367.2385,0.0,0.0,0.0,0.0,-0.16083440625411663,0.0,-0.48435237398685754,-0.45026296252499454,-0.6968911475428013,-0.20476083274082083,-1.3094129717289986,-0.18364057672891382
16138,7.0,300.26752999999997,5269.4772,0.0,0.0,0.0,0.0,-0.16084437306370042,0.0,-0.4619305171614926,-0.4092007590424706,-0.7306582137503513,-0.21323865579751677,-1.2934323964518386,-0.16023809645676884
16139,7.0,299.99188,5410.6196,0.0,0.0,0.0,0.0,-0.16085433987328426,0.0,-0.4693363722748936,-0.45223655080477254,-0.7231203321489204,-0.24452179004742178,-1.3215652854783386,-0.1898237328141438
16140,7.0,300.3668,5392.7763,0.0,0.0,0.0,0.0,-0.16086430668286805,0.0,-0.48246993768607555,-0.43333737954206963,-0.7234620102151412,-0.24617804866088178,-1.3002175244214789,-0.17096499023043085
16141,7.0,300.06842,5174.8101,0.0,0.0,0.0,0.0,-0.1608742734924519,0.0,-0.4626136605114136,-0.41991637534251963,-0.6904830094053673,-0.25801844349943776,-1.3023130269532888,-0.19120842013580183
16142,7.0,299.64997999999997,5287.4917,0.0,0.0,0.0,0.0,-0.1608842403020357,0.0,-0.4663543772305936,-0.45088152131354153,-0.6900295495881144,-0.2546844960329028,-1.3238499618038186,-0.18081458167000983
16143,7.0,300.07304,5625.2071,0.0,0.0,0.0,0.0,-0.16089420711161953,0.0,-0.5224262901419605,-0.45201432479284054,-0.7354818820439103,-0.27381415129585274,-1.3135439923866987,-0.17519634291303285
16144,7.0,299.21837,5829.6834,0.0,0.0,0.0,0.0,-0.16090417392120335,0.0,-0.5496614902423655,-0.44435438708436353,-0.7780623192112722,-0.24027048647035076,-1.3093447799972686,-0.14267113629304487
16145,7.0,298.72607,5616.8847,0.0,0.0,0.0,0.0,-0.1609141407307872,0.0,-0.5191295998816025,-0.43376803109957157,-0.7544950540753643,-0.2355215859016708,-1.2973844771418788,-0.14574148674606488
16146,7.0,299.08637000000004,5310.7699,0.0,0.0,0.0,0.0,-0.160924107540371,0.0,-0.4768775672041516,-0.3942578835902236,-0.7432060091462223,-0.2072294139594508,-1.3200451063533087,-0.13817128246644386
16147,7.0,299.78832,5387.7208,0.0,0.0,0.0,0.0,-0.16093407434995485,0.0,-0.49200724544483454,-0.41453030258095563,-0.7311950437858323,-0.2382851343569118,-1.3235054567698188,-0.16610824945360783
16148,7.0,300.73952,5722.7047,0.0,0.0,0.0,0.0,-0.16094404115953861,0.0,-0.5348824674637895,-0.43396024464354155,-0.7707166106238073,-0.24663101198558576,-1.2977063866986487,-0.16531764079808084
16149,7.0,300.48134,5381.9249,0.0,0.0,0.0,0.0,-0.16095400796912246,0.0,-0.5283065351097954,-0.3898341349786337,-0.7178301128468163,-0.2696817019555117,-1.3106850059045387,-0.16718759385763082
16150,7.0,300.52506,5089.0684,0.0,0.0,0.0,0.0,-0.16096397477870628,0.0,-0.4447170191626526,-0.40648607963955263,-0.6957466207598453,-0.2247000545686688,-1.3196372731880588,-0.17123594343967183
16151,7.0,299.7311,5243.1846,0.0,0.0,0.0,0.0,-0.16097394158829012,0.0,-0.46188773774227054,-0.4146706377198056,-0.7172388104859593,-0.24827945844077476,-1.318997405749909,-0.15924615500637185
16152,7.0,299.00818,5666.0495,0.0,0.0,0.0,0.0,-0.16098390839787394,0.0,-0.5208683167882004,-0.4499863148501915,-0.7514829351055913,-0.22313331660154379,-1.3098853489256188,-0.15574048191288886
16153,7.0,299.47738,5807.0805,0.0,0.0,0.0,0.0,-0.16099387520745773,0.0,-0.5225301888072145,-0.48024537748902857,-0.7624318927711692,-0.2669242836633757,-1.3125516152387589,-0.19014114354046982
16154,7.0,301.67077,5504.6413,0.0,0.0,0.0,0.0,-0.16100384201704154,0.0,-0.48256305537026556,-0.42583300612144553,-0.7648774529475273,-0.27903953272405774,-1.302779324649309,-0.15798491194439684
16155,7.0,299.78489,5122.4567,0.0,0.0,0.0,0.0,-0.1610138088266254,0.0,-0.43089656137617954,-0.4393794709483776,-0.6868228865991414,-0.23982910459428977,-1.2920236748378089,-0.2123819528379668
16156,7.0,299.72316,5237.7348,0.0,0.0,0.0,0.0,-0.1610237756362092,0.0,-0.4664413343541755,-0.3936449078097276,-0.7320543406656383,-0.25887036391851576,-1.2814383523681188,-0.16296761997365183
16157,7.0,300.48401,5778.9521,0.0,0.0,0.0,0.0,-0.16103374244579302,0.0,-0.5517311548966254,-0.4518358103902225,-0.7530901524142113,-0.2189654440377068,-1.2986639080431488,-0.18891851543980584
16158,7.0,300.30484,5494.9533,0.0,0.0,0.0,0.0,-0.16104370925537684,0.0,-0.5253117427167325,-0.42295258939967056,-0.7220642722321954,-0.23531461943624477,-1.3264714424625386,-0.16259811805968483
16159,7.0,299.49194,4897.5483,0.0,0.0,0.0,0.0,-0.16105367606496068,0.0,-0.43808145704027357,-0.3787417416288996,-0.6719091724847723,-0.2038234750733108,-1.3305605145660988,-0.2033599232850618
16160,7.0,299.39389,5104.996,0.0,0.0,0.0,0.0,-0.16106364287454447,0.0,-0.45589507267584056,-0.4247382197858986,-0.6711580096556383,-0.23342076380683577,-1.3329096335979387,-0.17165753654127983
16161,7.0,298.6926,5636.798000000001,0.0,0.0,0.0,0.0,-0.1610736096841283,0.0,-0.5246952509583895,-0.43944323477717057,-0.7493073554183783,-0.26450895887000175,-1.3196766886169486,-0.17275126909672284
16162,7.0,299.53601000000003,5767.7234,0.0,0.0,0.0,0.0,-0.16108357649371213,0.0,-0.5148542620121594,-0.4680112336616125,-0.7703784080054293,-0.2728464974503527,-1.3114225506523287,-0.13841053108005585
16163,7.0,301.10765,5285.4044,0.0,0.0,0.0,0.0,-0.16109354330329595,0.0,-0.47900833083944155,-0.40997100137098763,-0.7176516389742023,-0.2556115286818938,-1.2995416866047789,-0.14125132972292084
16164,7.0,300.0762,5153.6475,0.0,0.0,0.0,0.0,-0.16110351011287977,0.0,-0.46405723792888354,-0.37515177625959767,-0.7273711493659433,-0.26562070701222273,-1.288066933197309,-0.11227446415812689
16165,7.0,300.85035,5571.4345,0.0,0.0,0.0,0.0,-0.16111347692246358,0.0,-0.5280782093322615,-0.4279755538553986,-0.7375231959603723,-0.26968693032602775,-1.3206821366911787,-0.15432031057272885
16166,7.0,300.55485,5956.5521,0.0,0.0,0.0,0.0,-0.16112344373204743,0.0,-0.5661238659420754,-0.4394989736651716,-0.8050202839518162,-0.27527677781520277,-1.3126958007279887,-0.15305448762030185
16167,7.0,299.80607000000003,5634.3579,0.0,0.0,0.0,0.0,-0.16113341054163122,0.0,-0.5176483599579155,-0.44528668863387455,-0.7497690630914452,-0.21841026404291478,-1.2999056460406988,-0.17978203928810582
16168,7.0,298.735,5171.3475,0.0,0.0,0.0,0.0,-0.16114337735121503,0.0,-0.4541059972392726,-0.4296074438039536,-0.6882470704096973,-0.2118469061226618,-1.3167796039310289,-0.17076732540092285
16169,7.0,298.57679,5170.5689,0.0,0.0,0.0,0.0,-0.16115334416079888,0.0,-0.4702254080451346,-0.40017175832887764,-0.7013266802530543,-0.19608841500241983,-1.3174431814215188,-0.18660480949896083
16170,7.0,299.44877,5666.8553,0.0,0.0,0.0,0.0,-0.1611633109703827,0.0,-0.5268947838779665,-0.4452716722673926,-0.7504160536777983,-0.23760757401504176,-1.3231692603866385,-0.16135499190949787
16171,7.0,300.18991,5625.7075,0.0,0.0,0.0,0.0,-0.1611732777799665,0.0,-0.5028939591567695,-0.45909440986659056,-0.7480862471928643,-0.21540710220402579,-1.3098018571173788,-0.18667011346790582
16172,7.0,299.86989,5118.0276,0.0,0.0,0.0,0.0,-0.16118324458955036,0.0,-0.43150728774145364,-0.3908367054225796,-0.7334085899542923,-0.26197818436023373,-1.337830584033599,-0.14359269739149585
16173,7.0,301.04746,5243.2556,0.0,0.0,0.0,0.0,-0.16119321139913417,0.0,-0.42504053308573464,-0.4580121067722756,-0.7107661283171554,-0.2655396267392207,-1.3354904829276486,-0.1948136146541068
16174,7.0,300.54843999999997,5567.8075,0.0,0.0,0.0,0.0,-0.16120317820871796,0.0,-0.5225393485881185,-0.4056352737955846,-0.7642998193305193,-0.28356277236296673,-1.3157824645076186,-0.12171296989963488
16175,7.0,299.19511,5664.9872,0.0,0.0,0.0,0.0,-0.16121314501830178,0.0,-0.5313582417609755,-0.4535110471780555,-0.7371453549980823,-0.25248003871783975,-1.294821258363909,-0.16868303954771985
16176,7.0,299.2184,5519.8256,0.0,0.0,0.0,0.0,-0.16122311182788562,0.0,-0.5090229671566555,-0.4338754457426726,-0.7349907495879393,-0.23640421793127975,-1.2824133016143386,-0.14770178118453087
16177,7.0,299.77972,5211.9694,0.0,0.0,0.0,0.0,-0.16123307863746944,0.0,-0.49810176241131654,-0.39008639372352966,-0.6961203884567333,-0.26310263865870875,-1.304186729038209,-0.16928458586708786
16178,7.0,299.2106,5186.4537,0.0,0.0,0.0,0.0,-0.16124304544705326,0.0,-0.4760425579292425,-0.4065606143169086,-0.6939492366724573,-0.22622909963207377,-1.3072273912632988,-0.17304223399543883
16179,7.0,299.3173,5412.8718,0.0,0.0,0.0,0.0,-0.16125301225663705,0.0,-0.49799662758094054,-0.3965925739406396,-0.7507886460045703,-0.26006733652664776,-1.3125891054924588,-0.16536282162003985
16180,7.0,298.68032,5710.789000000001,0.0,0.0,0.0,0.0,-0.1612629790662209,0.0,-0.5218893081189645,-0.46155863410979053,-0.7524893153699133,-0.2332527770727568,-1.3162222150510186,-0.14249937013609287
16181,7.0,299.32001,5527.8209,0.0,0.0,0.0,0.0,-0.1612729458758047,0.0,-0.5226853477950275,-0.43176448101433657,-0.7258696849702603,-0.2625824563223707,-1.3323291426156487,-0.15791759160775284
16182,7.0,299.89694,5282.7277,0.0,0.0,0.0,0.0,-0.16128291268538855,0.0,-0.48128859952698655,-0.4078165986108646,-0.7167121129514783,-0.24033486838170479,-1.310635052674609,-0.13836811643086988
16183,7.0,300.2335,5323.9095,0.0,0.0,0.0,0.0,-0.16129287949497234,0.0,-0.5053842847225455,-0.42288014201752055,-0.6900711333722183,-0.24947933907669378,-1.3181306716143688,-0.16133935746045483
16184,7.0,299.85195,5634.8422,0.0,0.0,0.0,0.0,-0.16130284630455619,0.0,-0.5061331981364575,-0.45417159505074656,-0.7525465336030602,-0.26699765310311674,-1.3148045768361087,-0.14757408127442787
16185,7.0,300.42221,5656.0282,0.0,0.0,0.0,0.0,-0.16131281311414,0.0,-0.4883178701082215,-0.4596545547868725,-0.7713189270132513,-0.2556603268067098,-1.3238290888517588,-0.17753701143903883
16186,7.0,300.42276,5292.0353,0.0,0.0,0.0,0.0,-0.16132277992372385,0.0,-0.4651155675258326,-0.4417788269201756,-0.7017522047650504,-0.2353813014253258,-1.3185021291010288,-0.18757207830942282
16187,7.0,300.18777,5174.6447,0.0,0.0,0.0,0.0,-0.16133274673330764,0.0,-0.4711053549619786,-0.4117328001148636,-0.6901246228449973,-0.23245762905678177,-1.2997021854206188,-0.18597027175633682
16188,7.0,299.97242,5351.1526,0.0,0.0,0.0,0.0,-0.16134271354289145,0.0,-0.4962210992982095,-0.44024631654142854,-0.6901493562799383,-0.23722862861014277,-1.3211616066384988,-0.19335098813475682
16189,7.0,299.95066,5566.033,0.0,0.0,0.0,0.0,-0.16135268035247527,0.0,-0.5086954847243356,-0.46381085603456756,-0.7194287073970853,-0.25096489544580675,-1.3068910935551088,-0.1997326399145768
16190,7.0,299.06472,5382.585999999999,0.0,0.0,0.0,0.0,-0.16136264716205911,0.0,-0.49046882781800455,-0.4154432105235526,-0.7302597024860213,-0.23077493474821278,-1.2948938070710687,-0.16986867388723284
16191,7.0,299.06399,5188.7068,0.0,0.0,0.0,0.0,-0.16137261397164293,0.0,-0.4246231551045426,-0.44004056597612257,-0.7125735739780363,-0.22065457248441078,-1.3058689268542287,-0.17041066136572283
16192,7.0,299.23124,5325.7842,0.0,0.0,0.0,0.0,-0.16138258078122678,0.0,-0.4711804570593905,-0.4010260193556866,-0.7466989254209463,-0.2527521672971968,-1.3241762283360186,-0.14216079261517786
16193,7.0,299.45264,5718.0561,0.0,0.0,0.0,0.0,-0.16139254759081054,0.0,-0.5387559706085745,-0.4361340207455766,-0.7632562629200283,-0.26035005356954977,-1.3559055472674588,-0.14526885623691987
16194,7.0,300.38246000000004,5731.5172,0.0,0.0,0.0,0.0,-0.16140251440039438,0.0,-0.5473487772866185,-0.45837706932579453,-0.7365122560706002,-0.24586051634454378,-1.3352056583245386,-0.15523974384596986
16195,7.0,300.66733,5439.2587,0.0,0.0,0.0,0.0,-0.1614124812099782,0.0,-0.5237622300013075,-0.38123278660224663,-0.7484037997742043,-0.26384586773955976,-1.3087066350842886,-0.13723145246868987
16196,7.0,300.24295,5533.2556,0.0,0.0,0.0,0.0,-0.16142244801956204,0.0,-0.4916941308989325,-0.45728149265516954,-0.7329959235860654,-0.26715695628383873,-1.3254406631358087,-0.16517909911190784
16197,7.0,299.92568,5628.4761,0.0,0.0,0.0,0.0,-0.16143241482914586,0.0,-0.5201524758575525,-0.4261253085102936,-0.7646383968514343,-0.27127779377803374,-1.3163368136373288,-0.16533010377431084
16198,7.0,300.63965,5650.7138,0.0,0.0,0.0,0.0,-0.16144238163872968,0.0,-0.5138113540817325,-0.44512280556270056,-0.7587417372319794,-0.23564037934339477,-1.3020643753787489,-0.17269807346647284
16199,7.0,299.69969,5325.7071,0.0,0.0,0.0,0.0,-0.16145234844831347,0.0,-0.4962489028809535,-0.43091885287837955,-0.6917142298668794,-0.1961242435259558,-1.2955814999139386,-0.17311767046538382
16200,7.0,299.36802,5184.9378,0.0,0.0,0.0,0.0,-0.1614623152578973,0.0,-0.49032175456598953,-0.38078162686272066,-0.7049882317419214,-0.24122493766704778,-1.322353796706159,-0.16013395461149085
16201,7.0,299.66654,5374.6126,0.0,0.0,0.0,0.0,-0.16147228206748113,0.0,-0.4982153274825245,-0.42969593093518654,-0.7058367679056653,-0.23112924804318077,-1.3228116844263487,-0.17080503856964485
16202,7.0,300.35791,5500.8562,0.0,0.0,0.0,0.0,-0.16148224887706497,0.0,-0.4847480886809115,-0.4378340213658536,-0.7495408183739193,-0.25437934563278675,-1.3144801341540888,-0.16932683839625784
16203,7.0,300.39104,5505.8323,0.0,0.0,0.0,0.0,-0.16149221568664876,0.0,-0.4824376352728876,-0.4408133718273926,-0.7503845415996883,-0.22976021543556777,-1.3047369238425088,-0.16474401965146884
16204,7.0,302.00391,5412.6265,0.0,0.0,0.0,0.0,-0.1615021824962326,0.0,-0.47030733944822056,-0.45215993896471157,-0.7228360445683634,-0.26626296572060876,-1.3471247219008589,-0.17241165806070582
16205,7.0,300.46929,5408.340999999999,0.0,0.0,0.0,0.0,-0.16151214930581642,0.0,-0.4902403196554525,-0.43924162840477354,-0.7145186696650023,-0.25017853230819875,-1.3457600766661788,-0.1853252874051818
16206,7.0,300.01055,5618.9313,0.0,0.0,0.0,0.0,-0.16152211611540027,0.0,-0.5274955297297554,-0.4581480545381926,-0.7223712160849882,-0.24660563007058078,-1.3100336887402588,-0.1969056214730718
16207,7.0,299.59132999999997,5604.4008,0.0,0.0,0.0,0.0,-0.16153208292498406,0.0,-0.5120718367075555,-0.45710041472979857,-0.7344256397421673,-0.21457834468223377,-1.2977908917569887,-0.2030556949425368
16208,7.0,299.57111000000003,5259.8726,0.0,0.0,0.0,0.0,-0.16154204973456787,0.0,-0.44675288179357653,-0.4202111703266136,-0.7319058792609863,-0.2223810391972998,-1.2795026393770788,-0.18302483477564482
16209,7.0,299.86978,5212.963,0.0,0.0,0.0,0.0,-0.1615520165441517,0.0,-0.45763474203753257,-0.4235995090585166,-0.7033763332178394,-0.23702315162236376,-1.3082317247624187,-0.1931660598590058
16210,7.0,300.01191,5451.6835,0.0,0.0,0.0,0.0,-0.16156198335373553,0.0,-0.4976673314309415,-0.4248866609255486,-0.7346216631065132,-0.24885790265786278,-1.2881193182274788,-0.14984085347064086
16211,7.0,299.22886,5572.8038,0.0,0.0,0.0,0.0,-0.16157195016331935,0.0,-0.5086591698407515,-0.4332445557004086,-0.7520894767479522,-0.2530716957162318,-1.3258045212467187,-0.14546272137855285
16212,7.0,300.97508,5757.7678,0.0,0.0,0.0,0.0,-0.1615819169729032,0.0,-0.5324971551383775,-0.46041064201149257,-0.7573098425881624,-0.26469021918039076,-1.3345631564361289,-0.11916628736329689
16213,7.0,300.81973,5712.8954,0.0,0.0,0.0,0.0,-0.16159188378248696,0.0,-0.5404232736481245,-0.4282139310739246,-0.7679403458798113,-0.25040060633261574,-1.3318994232482386,-0.1139985396007799
16214,7.0,300.6964,5710.0589,0.0,0.0,0.0,0.0,-0.1616018505920708,0.0,-0.5097359507220215,-0.46382211324317857,-0.7621572715965662,-0.22985752797517175,-1.306311514497909,-0.14074062127501788
16215,7.0,301.49534,5770.608,0.0,0.0,0.0,0.0,-0.16161181740165462,0.0,-0.5410098846610184,-0.4367613238824866,-0.7763495212422322,-0.2435067870247488,-1.300162606266059,-0.15125793439799587
16216,7.0,300.1164,5684.405,0.0,0.0,0.0,0.0,-0.16162178421123846,0.0,-0.5294168647018765,-0.43401344027379163,-0.7644868855639813,-0.24718017327478375,-1.3183385905348888,-0.16940846582431382
16217,7.0,300.21932000000004,5397.3522,0.0,0.0,0.0,0.0,-0.16163175102082228,0.0,-0.48123868682706056,-0.44756582248130755,-0.7118557673421944,-0.2353459997918418,-1.3059199946592688,-0.2011125142982598
16218,7.0,300.18182,5088.1584,0.0,0.0,0.0,0.0,-0.1616417178304061,0.0,-0.4768716903535716,-0.3790599325578026,-0.6907414692408753,-0.23975875463984678,-1.2835089289474688,-0.19615249293874382
16219,7.0,299.48871,5154.9935,0.0,0.0,0.0,0.0,-0.16165168463998988,0.0,-0.4333077926391496,-0.4601648579347356,-0.6735166633709193,-0.26161887574227277,-1.2905563873679986,-0.1979087998670778
16220,7.0,299.90112999999997,5340.9697,0.0,0.0,0.0,0.0,-0.16166165144957373,0.0,-0.45728270855528963,-0.45497870955040254,-0.7112599965483963,-0.26002079794955474,-1.3293076308174487,-0.19287601701788082
16221,7.0,300.57974,5620.5849,0.0,0.0,0.0,0.0,-0.16167161825915755,0.0,-0.5131754180539705,-0.46575662046659955,-0.7295854352069763,-0.2651348738542747,-1.3064051388071487,-0.17115080003376884
16222,7.0,299.19841,5586.1877,0.0,0.0,0.0,0.0,-0.1616815850687414,0.0,-0.4942604704872105,-0.48631897084094555,-0.7174821222324723,-0.21279282575351682,-1.2885430594192988,-0.18381901007152382
16223,7.0,299.22481,5564.041,0.0,0.0,0.0,0.0,-0.16169155187832518,0.0,-0.5078613468445125,-0.4360362015809226,-0.7474319713382923,-0.21550139525833178,-1.3115290432378388,-0.16233783437399685
16224,7.0,299.41804,5605.9043,0.0,0.0,0.0,0.0,-0.16170151868790902,0.0,-0.5153200125531255,-0.44018370781774957,-0.7485512175312533,-0.2133841889093798,-1.3406397186108385,-0.15733359478011685
16225,7.0,299.95083,5611.2518,0.0,0.0,0.0,0.0,-0.16171148549749284,0.0,-0.5169555502020405,-0.4305875606256836,-0.7581373132823273,-0.22859680167074778,-1.3554922425516687,-0.16261553582890384
16226,7.0,300.81711,5411.8311,0.0,0.0,0.0,0.0,-0.16172145230707669,0.0,-0.5063333048987065,-0.4095452032814646,-0.7291830026647592,-0.2471951288462598,-1.2934113208497588,-0.17155273608343682
16227,7.0,301.13358999999997,5034.8415,0.0,0.0,0.0,0.0,-0.16173141911666047,0.0,-0.4741121442362255,-0.3941152078436426,-0.6622387540603764,-0.2706789427039317,-1.3151576944959589,-0.16912302313864283
16228,7.0,300.71016000000003,5136.2002,0.0,0.0,0.0,0.0,-0.1617413859262443,0.0,-0.46288346874804154,-0.3996390015587986,-0.6987541497066653,-0.2952413410280517,-1.3200535163291387,-0.17884784296090783
16229,7.0,299.93543999999997,5612.3931,0.0,0.0,0.0,0.0,-0.1617513527358281,0.0,-0.5292633167817226,-0.4313362409920726,-0.7454278031704963,-0.28711452807099774,-1.2995752251830888,-0.16482131036909684
16230,7.0,299.82513,5822.7949,0.0,0.0,0.0,0.0,-0.16176131954541195,0.0,-0.5517145882574904,-0.46343925669289354,-0.7548304094609612,-0.25577313194034274,-1.295882029893599,-0.16186750394257884
16231,7.0,300.13916,5595.3443,0.0,0.0,0.0,0.0,-0.16177128635499577,0.0,-0.49957854403456353,-0.4474038037903175,-0.7538626238929482,-0.22790017196199577,-1.2950496449364488,-0.14059535160818087
16232,7.0,299.82847999999996,5487.3644,0.0,0.0,0.0,0.0,-0.1617812531645796,0.0,-0.4949904766542565,-0.44332792420305955,-0.7297033572536143,-0.25424344852937475,-1.3375477859306886,-0.13718278606638687
16233,7.0,299.47792000000004,5653.459,0.0,0.0,0.0,0.0,-0.16179121997416337,0.0,-0.5025103325364085,-0.4545624765418235,-0.7614375701830373,-0.23001426763314078,-1.3230211232220186,-0.13706621164238186
16234,7.0,299.65632,5718.5367,0.0,0.0,0.0,0.0,-0.16180118678374722,0.0,-0.5063220578225964,-0.44861811310766053,-0.7833522041408433,-0.2529992787315848,-1.316022503456309,-0.16918025150429084
16235,7.0,300.52267,5493.7111,0.0,0.0,0.0,0.0,-0.16181115359333104,0.0,-0.48277667888884856,-0.4487797771611156,-0.7383945302513663,-0.22038303159011177,-1.3132778115854287,-0.17235937435554582
16236,7.0,300.57932,5155.2308,0.0,0.0,0.0,0.0,-0.16182112040291488,0.0,-0.46003846511726154,-0.4041419154007016,-0.7028810667014603,-0.26137173391038176,-1.3700006667585387,-0.17926628485470483
16237,7.0,300.15935,5115.7861,0.0,0.0,0.0,0.0,-0.1618310872124987,0.0,-0.4389772714536836,-0.4164288394258266,-0.6996651223415713,-0.23850533386864375,-1.3379201553424387,-0.19804181934020582
16238,7.0,300.06076,5349.7908,0.0,0.0,0.0,0.0,-0.16184105402208251,0.0,-0.5067248044723445,-0.4242350701837416,-0.6952429645326383,-0.2179830778007548,-1.3447961718460486,-0.20982146983526678
16239,7.0,300.54832000000005,5520.3112,0.0,0.0,0.0,0.0,-0.1618510208316663,0.0,-0.5018102881748195,-0.4336844582313236,-0.7425420263556923,-0.2179442196594198,-1.3029063862118486,-0.19109334532194483
16240,7.0,299.87215,5434.257,0.0,0.0,0.0,0.0,-0.16186098764125015,0.0,-0.4633634554529125,-0.4627939784992095,-0.7257210107830873,-0.23887616314024177,-1.3191821212431385,-0.1959946995006708
16241,7.0,299.80117,5455.8049,0.0,0.0,0.0,0.0,-0.16187095445083396,0.0,-0.49574748593646756,-0.43879047879774863,-0.7238904832849283,-0.2367911781444698,-1.2778930915932287,-0.15459675559751185
16242,7.0,300.02583,5749.0926,0.0,0.0,0.0,0.0,-0.1618809212604178,0.0,-0.5064345589811995,-0.45330793106300954,-0.7878381055135673,-0.2712077477986207,-1.2795609012578288,-0.14103571010164087
16243,7.0,300.21493,5653.2967,0.0,0.0,0.0,0.0,-0.1618908880700016,0.0,-0.5251125580120746,-0.44070405227410353,-0.7526444236952213,-0.26421362686335476,-1.3002305953477689,-0.13447675981932286
16244,7.0,299.51914,5432.0949,0.0,0.0,0.0,0.0,-0.16190085487958544,0.0,-0.48483283691927553,-0.42366376937985856,-0.7427246038912112,-0.28367516206405874,-1.3451061250516385,-0.13643895916797688
16245,7.0,299.03057,5405.323,0.0,0.0,0.0,0.0,-0.16191082168916926,0.0,-0.5093051775745074,-0.4075982736118176,-0.7261797597658624,-0.2164444169939008,-1.331150530099329,-0.15543199791994386
16246,7.0,298.91508999999996,5510.1101,0.0,0.0,0.0,0.0,-0.1619207884987531,0.0,-0.4965723931078795,-0.4204076597860056,-0.7579558401894172,-0.2098756685831158,-1.323626438831759,-0.17077764028694084
16247,7.0,298.72933,5436.9046,0.0,0.0,0.0,0.0,-0.1619307553083369,0.0,-0.5206520385543555,-0.4074093632631736,-0.7246218472071083,-0.1967117867289418,-1.3108306099439089,-0.16890548847467385
16248,7.0,299.01427,5415.1937,0.0,0.0,0.0,0.0,-0.1619407221179207,0.0,-0.4899572986375205,-0.4373615732417266,-0.7187648056665633,-0.23407095626350477,-1.3288894625011787,-0.20090484869026481
16249,7.0,298.8558,5395.5677,0.0,0.0,0.0,0.0,-0.16195068892750453,0.0,-0.5206658187557155,-0.4097300200997046,-0.7097220247516104,-0.26963664272356475,-1.299600759085609,-0.17174842507524984
16250,7.0,299.92236,5323.835999999999,0.0,0.0,0.0,0.0,-0.16196065573708837,0.0,-0.5147262175970225,-0.41640317380079356,-0.6871838265497633,-0.2596023661882587,-1.308837546997209,-0.18050086930654882
16251,7.0,299.55324,5477.9321,0.0,0.0,0.0,0.0,-0.1619706225466722,0.0,-0.4819051014178305,-0.43484798345365455,-0.7484014794314753,-0.2907258426199067,-1.3109724649579089,-0.16350057939375084
16252,7.0,300.28082,5513.4732,0.0,0.0,0.0,0.0,-0.16198058935625603,0.0,-0.4831729002079525,-0.43480195150161155,-0.7579833397971313,-0.2883339137713417,-1.3211451919868789,-0.17474581138856884
16253,7.0,299.99692999999996,5424.3387,0.0,0.0,0.0,0.0,-0.1619905561658398,0.0,-0.4550279028427576,-0.4600742328457916,-0.7337613935066113,-0.27101087330419077,-1.3052078824889888,-0.15601345148982884
16254,7.0,300.06604,5454.0952,0.0,0.0,0.0,0.0,-0.16200052297542364,0.0,-0.4864499232838695,-0.4319349806086636,-0.7395238380178203,-0.19524897782457382,-1.2910506507667787,-0.18374066557379184
16255,7.0,299.93369,5597.823,0.0,0.0,0.0,0.0,-0.16201048978500746,0.0,-0.5262896405207436,-0.42603371070125357,-0.7492750732701923,-0.2068640461058918,-1.3089501190833188,-0.15503491533825484
16256,7.0,300.8278,5579.1893,0.0,0.0,0.0,0.0,-0.1620204565945913,0.0,-0.5036044703918915,-0.4512535259552556,-0.7410762486285313,-0.21235500038530677,-1.352142336396059,-0.17929145398718885
16257,7.0,300.21934,5372.7613,0.0,0.0,0.0,0.0,-0.16203042340417512,0.0,-0.46611011302898653,-0.4076982509991846,-0.7593769234546673,-0.26294995200113974,-1.3373775599138886,-0.17619609652170085
16258,7.0,300.21373,5373.0457,0.0,0.0,0.0,0.0,-0.16204039021375893,0.0,-0.4829924910276475,-0.4069859463113856,-0.7432933006423373,-0.2288718382778918,-1.3418349484287986,-0.17466243103783982
16259,7.0,299.76701,5456.8859,0.0,0.0,0.0,0.0,-0.16205035702334275,0.0,-0.5016363131326496,-0.4127804095257546,-0.7443403527656732,-0.25722944591156977,-1.2966075169651987,-0.16568116453645784
16260,7.0,298.68944,5523.7058,0.0,0.0,0.0,0.0,-0.16206032383292657,0.0,-0.5123162934266815,-0.4168580015056816,-0.7498943514663102,-0.26557779587048774,-1.2924652492313886,-0.17452880361465184
16261,7.0,298.89013,5587.8072,0.0,0.0,0.0,0.0,-0.16207029064251038,0.0,-0.5443863379692485,-0.4277652639296446,-0.7264022694878223,-0.2738586228427417,-1.288071999447809,-0.16434986536256885
16262,7.0,299.76211,5662.5331,0.0,0.0,0.0,0.0,-0.1620802574520942,0.0,-0.5335098479508225,-0.4328086656398896,-0.7549501350927773,-0.2533167907829208,-1.2879168708574988,-0.14377212371920386
16263,7.0,299.88091000000003,5517.9071,0.0,0.0,0.0,0.0,-0.16209022426167802,0.0,-0.4991945425116655,-0.4217097672245136,-0.7564016766560333,-0.2389408490266258,-1.315348388164779,-0.13689526621801085
16264,7.0,299.31347999999997,5482.1728,0.0,0.0,0.0,0.0,-0.16210019107126186,0.0,-0.48232969373973456,-0.43403050340547555,-0.7500834441999723,-0.24542182971374873,-1.3514953762072088,-0.16882497562172785
16265,7.0,299.70948,5490.3745,0.0,0.0,0.0,0.0,-0.16211015788084568,0.0,-0.4464014157313896,-0.4475041054177166,-0.7750312423321283,-0.25383559509912273,-1.3401985495172988,-0.14078121207402386
16266,7.0,300.8087,5247.1092,0.0,0.0,0.0,0.0,-0.16212012469042947,0.0,-0.46383276250172956,-0.42306396585066264,-0.7080934582633833,-0.2378620213801538,-1.3322720966350188,-0.18108062061626584
16267,7.0,300.39781,5272.3305,0.0,0.0,0.0,0.0,-0.1621300915000133,0.0,-0.4831971574153466,-0.41715803499279264,-0.7023016193667733,-0.24184351672059676,-1.301589769031909,-0.17640267795208883
16268,7.0,301.53311,5418.5762,0.0,0.0,0.0,0.0,-0.16214005830959713,0.0,-0.5101800075783466,-0.4337790653931606,-0.7031528001132783,-0.25409271744449874,-1.3107256372335487,-0.2078880467894528
16269,7.0,301.94099,5506.6435,0.0,0.0,0.0,0.0,-0.16215002511918095,0.0,-0.5115010729262255,-0.44882947707852056,-0.7135515832395584,-0.2311618746964008,-1.3079496359345788,-0.19325605673288782
16270,7.0,300.86079,5392.2769,0.0,0.0,0.0,0.0,-0.1621599919287648,0.0,-0.5140708575648435,-0.39542822798572763,-0.7296184468952344,-0.24659199172423477,-1.2995808993836488,-0.17815376664240784
16271,7.0,300.35562000000004,5567.7214,0.0,0.0,0.0,0.0,-0.1621699587383486,0.0,-0.5027013099152565,-0.4510374503714306,-0.7387095091774523,-0.2100055672459358,-1.2964328326479588,-0.17471629541315584
16272,7.0,299.59324,5624.9395,0.0,0.0,0.0,0.0,-0.16217992554793242,0.0,-0.5009847021258406,-0.45643992765211355,-0.7524165133502283,-0.25747113645792274,-1.291553526791409,-0.17530737485899084
16273,7.0,298.62482,5552.8645,0.0,0.0,0.0,0.0,-0.1621898923575162,0.0,-0.5257461534321055,-0.4387787858915946,-0.7234072035172323,-0.25715172962889976,-1.2967226221765589,-0.14757977573998987
16274,7.0,299.17035,5656.206999999999,0.0,0.0,0.0,0.0,-0.16219985916710006,0.0,-0.5195444650025466,-0.46636088229623557,-0.7334403553449274,-0.29662174230178673,-1.3088912492525089,-0.16529090112794184
16275,7.0,299.8886,5570.4735,0.0,0.0,0.0,0.0,-0.16220982597668387,0.0,-0.5376462590990545,-0.3849959873411456,-0.7706426028365033,-0.26450698303230674,-1.3077313818630385,-0.12611138725872487
16276,7.0,300.08277999999996,5571.9802,0.0,0.0,0.0,0.0,-0.1622197927862677,0.0,-0.5035381126428425,-0.4464464952283385,-0.7437582405832233,-0.23833065968390477,-1.3618308312022385,-0.17483998285286284
16277,7.0,300.83987,5733.7175,0.0,0.0,0.0,0.0,-0.16222975959585154,0.0,-0.5100474339352625,-0.43404394923430256,-0.7988155659044582,-0.2125228452643718,-1.3304717538573385,-0.16007023131270184
16278,7.0,301.21051,5783.2448,0.0,0.0,0.0,0.0,-0.16223972640543535,0.0,-0.5321249174491405,-0.43800547341527457,-0.7878316105804263,-0.1983870640467788,-1.303595497604859,-0.17644792970155485
16279,7.0,300.46891,5558.5275,0.0,0.0,0.0,0.0,-0.16224969321501917,0.0,-0.5022850161116715,-0.43633743070315156,-0.7510311268860013,-0.2071849930750668,-1.3054815613409987,-0.16405378355084785
16280,7.0,299.726,5406.3334,0.0,0.0,0.0,0.0,-0.16225966002460296,0.0,-0.4996884614054115,-0.42292341792929156,-0.7207784882527983,-0.23863344921128776,-1.3209644281690387,-0.18995747169484284
16281,7.0,299.53002000000004,5383.4345,0.0,0.0,0.0,0.0,-0.1622696268341868,0.0,-0.49665380775341456,-0.4402465495889516,-0.6995292961656664,-0.26839032483556274,-1.326928316932629,-0.15962160469842585
16282,7.0,299.83741000000003,5358.9184,0.0,0.0,0.0,0.0,-0.16227959364377062,0.0,-0.4884291958967085,-0.42895914612497155,-0.7115890393858703,-0.25589401267727274,-1.309854343472559,-0.17750336140321782
16283,7.0,299.29891000000003,5420.3429,0.0,0.0,0.0,0.0,-0.16228956045335444,0.0,-0.46488632982320854,-0.4284075327705316,-0.7543550431765463,-0.26248166833492376,-1.2981625518936688,-0.17076931137111884
16284,7.0,299.65754,5305.8533,0.0,0.0,0.0,0.0,-0.16229952726293825,0.0,-0.4631797937397865,-0.4107309490784886,-0.7389361732248223,-0.24343949708560778,-1.3190299310781188,-0.15455277041067086
16285,7.0,300.11321,5311.7668,0.0,0.0,0.0,0.0,-0.1623094940725221,0.0,-0.4503867918197156,-0.41044288207505863,-0.7538148086207294,-0.24479612751199678,-1.3052860040716987,-0.16511700714577984
16286,7.0,301.33038,5554.8101,0.0,0.0,0.0,0.0,-0.1623194608821059,0.0,-0.5046831055208445,-0.4200605405667476,-0.7637799207042092,-0.2162918417938428,-1.2959492083752289,-0.14339446514193185
16287,7.0,299.64707000000004,5711.1601,0.0,0.0,0.0,0.0,-0.16232942769168973,0.0,-0.5550820844348364,-0.4440767160269596,-0.7368912622705053,-0.2193246918606618,-1.3182513497012789,-0.1929581308059848
16288,7.0,299.12211,5586.8851,0.0,0.0,0.0,0.0,-0.16233939450127352,0.0,-0.5306886252998896,-0.41891146429084264,-0.7486734762883193,-0.2267974316131638,-1.3381761023176988,-0.15919408408373284
16289,7.0,298.75844,5370.4783,0.0,0.0,0.0,0.0,-0.16234936131085737,0.0,-0.4993286765599035,-0.42836421632875654,-0.7047984094681873,-0.23390947459506778,-1.3621216339809386,-0.18429928048642283
16290,7.0,299.34074,5436.7388,0.0,0.0,0.0,0.0,-0.16235932812044118,0.0,-0.5007539952105715,-0.4333387575622056,-0.7185400870593853,-0.23017957938695577,-1.3129798147310185,-0.13323374512664687
16291,7.0,298.90521,5501.1403,0.0,0.0,0.0,0.0,-0.16236929493002503,0.0,-0.5056826463469916,-0.3946145070954196,-0.7719121444167972,-0.24903072259491876,-1.3132593704336089,-0.13409703421184688
16292,7.0,300.59392,5493.5779,0.0,0.0,0.0,0.0,-0.16237926173960884,0.0,-0.48129521605013953,-0.43610838551804654,-0.7525069256566513,-0.26691465778742574,-1.3126348030719688,-0.13851333543520186
16293,7.0,300.88315,5392.6836,0.0,0.0,0.0,0.0,-0.16238922854919263,0.0,-0.4915755198422266,-0.4033266746352436,-0.7443389544805353,-0.27520038889016374,-1.3029713355432588,-0.13922844682577787
16294,7.0,301.2765,5631.017,0.0,0.0,0.0,0.0,-0.16239919535877645,0.0,-0.4947404875895845,-0.4637607204196196,-0.7531873534963043,-0.24331952827376777,-1.2736015721196887,-0.18144449899217782
16295,7.0,300.16071,5726.4144,0.0,0.0,0.0,0.0,-0.1624091621683603,0.0,-0.5199091134485345,-0.45727917231244053,-0.7634987032714553,-0.23754529966389576,-1.3188048882309087,-0.19219359307553083
16296,7.0,299.5399,5606.1639,0.0,0.0,0.0,0.0,-0.1624191289779441,0.0,-0.5008333022958985,-0.43731355531948757,-0.7659869820720293,-0.2540922209519498,-1.3430828672519588,-0.18514645889503284
16297,7.0,300.10471,5335.9275,0.0,0.0,0.0,0.0,-0.16242909578752796,0.0,-0.4561654179350216,-0.44771178115821253,-0.7181115126645883,-0.2591568806492927,-1.3413404823799988,-0.1811819152287628
16298,7.0,300.11388,5105.7337,0.0,0.0,0.0,0.0,-0.16243906259711174,0.0,-0.4572487646769396,-0.3943670308909956,-0.7003997691940753,-0.24875565559027177,-1.3153499080399287,-0.15467912269814085
16299,7.0,299.65943,5266.5885,0.0,0.0,0.0,0.0,-0.1624490294066956,0.0,-0.4944197432704295,-0.42199853337051263,-0.6844931206442113,-0.2319823640973768,-1.3240649734750387,-0.17448791897311683
16300,7.0,299.59815,5586.9906,0.0,0.0,0.0,0.0,-0.16245899621627938,0.0,-0.5332226726074805,-0.4605107815188756,-0.7045721811183604,-0.24095733831563776,-1.3252314269901588,-0.17914937605816683
16301,7.0,300.0028,5418.6966,0.0,0.0,0.0,0.0,-0.16246896302586322,0.0,-0.5203336044454285,-0.4165620210189706,-0.7102528360814974,-0.21580565399835983,-1.3374149488425786,-0.17704828038580483
16302,7.0,301.06495,5291.2707,0.0,0.0,0.0,0.0,-0.16247892983544704,0.0,-0.46730446131935954,-0.4376664703293176,-0.7034432279894414,-0.2392034125250388,-1.3278189637705287,-0.15823399921647985
16303,7.0,300.89158,5615.0509999999995,0.0,0.0,0.0,0.0,-0.16248889664503086,0.0,-0.4926417325249535,-0.4385238217689316,-0.7756697418826433,-0.24230465697360776,-1.3500355867881386,-0.16322736663678683
16304,7.0,300.57633,5734.1565,0.0,0.0,0.0,0.0,-0.16249886345461467,0.0,-0.5407804443083745,-0.4251520513917406,-0.7771078984120783,-0.2690827495563997,-1.3270151524661988,-0.1330935113128069
16305,7.0,300.77391,5608.7576,0.0,0.0,0.0,0.0,-0.16250883026419852,0.0,-0.49522122409952946,-0.4679674916547955,-0.7417335237033993,-0.26615261265221773,-1.3098060114427885,-0.18731443920649582
16306,7.0,301.02277000000004,5386.8656,0.0,0.0,0.0,0.0,-0.1625187970737823,0.0,-0.5149473898288506,-0.40712408269751865,-0.7154011497070963,-0.26766491882397075,-1.2838768400587788,-0.17142724505855184
16307,7.0,299.60542000000004,5318.4303,0.0,0.0,0.0,0.0,-0.16252876388336615,0.0,-0.48559349390184653,-0.43225730559797454,-0.6988192104955863,-0.2514092765421637,-1.3253173505986386,-0.1996713180185248
16308,7.0,299.01446,5435.7899,0.0,0.0,0.0,0.0,-0.16253873069294994,0.0,-0.49810320122645857,-0.4396136533114896,-0.7146275433882473,-0.24134383243378177,-1.3271392756034486,-0.17884019292265282
16309,7.0,299.06047,5614.4482,0.0,0.0,0.0,0.0,-0.16254869750253378,0.0,-0.4977771880067835,-0.43516097640954454,-0.7737138753471143,-0.2120042233331878,-1.3504328821523488,-0.14116687532708586
16310,7.0,299.37408999999997,5625.5006,0.0,0.0,0.0,0.0,-0.1625586643121176,0.0,-0.5219342761584025,-0.4611446201189306,-0.7269328173726833,-0.2185734783690228,-1.3169361510714788,-0.15305617974796887
16311,7.0,299.99157,5534.6171,0.0,0.0,0.0,0.0,-0.16256863112170145,0.0,-0.4840555727675655,-0.45445841575655355,-0.7438714206193933,-0.22578726179346775,-1.333153725547029,-0.14999754246610486
16312,7.0,299.93837,5557.8208,0.0,0.0,0.0,0.0,-0.16257859793128526,0.0,-0.5063266377130485,-0.46239696684502757,-0.7207151297240453,-0.25778737181413275,-1.3125949823430385,-0.17828301682516381
16313,7.0,299.92917,5593.6432,0.0,0.0,0.0,0.0,-0.16258856474086905,0.0,-0.5048296316178055,-0.45229429592797155,-0.7432039421160183,-0.24642396446015175,-1.3103102046925488,-0.16081008627071985
16314,7.0,299.77384,5437.9531,0.0,0.0,0.0,0.0,-0.16259853155045287,0.0,-0.46706250732798055,-0.43623517350305957,-0.7497042860125522,-0.24190991499964978,-1.316782137056279,-0.17855547977705383
16315,7.0,300.23376,5270.7743,0.0,0.0,0.0,0.0,-0.1626084983600367,0.0,-0.4420072134927156,-0.4452028827181036,-0.7149736797549083,-0.25900512618181576,-1.3485392190404588,-0.18136291209412583
16316,7.0,299.29327,5463.4499,0.0,0.0,0.0,0.0,-0.16261846516962053,0.0,-0.48658444236714554,-0.4276168835850006,-0.7465510111713483,-0.26046862409625177,-1.3325568199131188,-0.15836322913423384
16317,7.0,299.9189,5643.4332,0.0,0.0,0.0,0.0,-0.16262843197920437,0.0,-0.5237303430206605,-0.4495605775556746,-0.7421718455641583,-0.22517279653532477,-1.3049631825898387,-0.16190743612901984
16318,7.0,299.25055,5614.5156,0.0,0.0,0.0,0.0,-0.16263839878878816,0.0,-0.5360977798987315,-0.47338525887948757,-0.6971895192997484,-0.22133100811866982,-1.274972094204949,-0.17136862854026683
16319,7.0,299.86785,5661.4513,0.0,0.0,0.0,0.0,-0.162648365598372,0.0,-0.5330417061396204,-0.4362715593141506,-0.7516265633072663,-0.2398346673373388,-1.3102552865371286,-0.18491792033497784
16320,7.0,300.52258,5743.7461,0.0,0.0,0.0,0.0,-0.1626583324079558,0.0,-0.5123021281902835,-0.47991337596126254,-0.7537398889083353,-0.25756895562257676,-1.330341956519529,-0.15388528177479485
16321,7.0,300.97767999999996,5645.1201,0.0,0.0,0.0,0.0,-0.16266829921753964,0.0,-0.5218675232418145,-0.4472780898504106,-0.7468299285263753,-0.24566752259799676,-1.3415035143210885,-0.16442185678217383
16322,7.0,301.05359,5525.9975,0.0,0.0,0.0,0.0,-0.16267826602712346,0.0,-0.5144959362467956,-0.41494533995441657,-0.7503239796412112,-0.2137813322860748,-1.3288551133227886,-0.1142596440190489
16323,7.0,300.66506,5589.6393,0.0,0.0,0.0,0.0,-0.16268823283670727,0.0,-0.5151082128847225,-0.4431524292857396,-0.7408501317362154,-0.23415328283412978,-1.3441474891320289,-0.16844602008432785
16324,7.0,300.02449,5544.0601,0.0,0.0,0.0,0.0,-0.1626981996462911,0.0,-0.5215040602984435,-0.42923396994959456,-0.7345178151037643,-0.24418256404644276,-1.3336414028201589,-0.14675429101602086
16325,7.0,299.49617,5534.0227,0.0,0.0,0.0,0.0,-0.16270816645587494,0.0,-0.4983220024530525,-0.44078355187694956,-0.7430991517906762,-0.23435679411671476,-1.3056545231330687,-0.1931560590805188
16326,7.0,299.99786,5676.3311,0.0,0.0,0.0,0.0,-0.16271813326545873,0.0,-0.5078644676548205,-0.4628533650875705,-0.7547450938025413,-0.26421043512553977,-1.2811627483409187,-0.18764543761666283
16327,7.0,299.32187000000005,5523.7368,0.0,0.0,0.0,0.0,-0.16272810007504257,0.0,-0.5035158718031475,-0.43889802516336257,-0.7366641422605903,-0.2530628905728628,-1.309002605438499,-0.18733057014808782
16328,7.0,299.95552999999995,5465.2475,0.0,0.0,0.0,0.0,-0.16273806688462636,0.0,-0.48895158711826453,-0.46494565561656354,-0.7074015300350953,-0.27941799176890875,-1.3396261645358087,-0.17977364957727782
16329,7.0,299.69361000000004,5529.7996,0.0,0.0,0.0,0.0,-0.1627480336942102,0.0,-0.5071972525964715,-0.42774646814028966,-0.7459772785672253,-0.26374975083507374,-1.3315348558622588,-0.15840071938793385
16330,7.0,300.08448,5519.5306,0.0,0.0,0.0,0.0,-0.16275800050379402,0.0,-0.5023142179795536,-0.44337267945997655,-0.7321125924138873,-0.23651817817002677,-1.3259318867842886,-0.14804187858059586
16331,7.0,299.10604,5353.3024,0.0,0.0,0.0,0.0,-0.16276796731337786,0.0,-0.45600280142647254,-0.4375418810970216,-0.7337255649830753,-0.24367944484178874,-1.3161971877735488,-0.17113762778246885
16332,7.0,299.10671,5563.2026,0.0,0.0,0.0,0.0,-0.16277793412296168,0.0,-0.48467260154846153,-0.4299910298943106,-0.7764110356558033,-0.22890289439345676,-1.3287395014863788,-0.16039027648928783
16333,7.0,299.4868,5549.4989,0.0,0.0,0.0,0.0,-0.16278790093254547,0.0,-0.49366174100312055,-0.4502310248818426,-0.7430163185950013,-0.2356961486288988,-1.3070678043725488,-0.16975086329810585
16334,7.0,299.5128,5438.4724,0.0,0.0,0.0,0.0,-0.1627978677421293,0.0,-0.5173737387833125,-0.4091656296615036,-0.7266204424993543,-0.22787237851175277,-1.3079027224549489,-0.16099938165440184
16335,7.0,298.75999,5507.1914,0.0,0.0,0.0,0.0,-0.16280783455171313,0.0,-0.5151684303381655,-0.4156377444102516,-0.7432425064148243,-0.24705278747221177,-1.3295211226135186,-0.17751552040441784
16336,7.0,299.88746000000003,5562.339,0.0,0.0,0.0,0.0,-0.16281780136129695,0.0,-0.5126480619069245,-0.4411906453696266,-0.7369734672511182,-0.26901870201757877,-1.3582329827471586,-0.16455587937290084
16337,7.0,300.63207,5603.6507,0.0,0.0,0.0,0.0,-0.1628277681708808,0.0,-0.48126670319232556,-0.45497078593462054,-0.7671323903825723,-0.28096238757132874,-1.3373761413637488,-0.18155328152291383
16338,7.0,300.05332999999996,5729.3228,0.0,0.0,0.0,0.0,-0.16283773498046458,0.0,-0.5317995425770286,-0.4634682356457535,-0.7463032917869002,-0.2523785313228218,-1.3043114601255188,-0.16372446713584685
16339,7.0,300.28019,5797.666,0.0,0.0,0.0,0.0,-0.16284770179004843,0.0,-0.5542647462416714,-0.45452257475288554,-0.7535583752854212,-0.2553782582438718,-1.3118496355694789,-0.17064836983918283
16340,7.0,300.10166,5567.9809,0.0,0.0,0.0,0.0,-0.16285766859963222,0.0,-0.5310413680572025,-0.43071410543067257,-0.7307716977615513,-0.2246715619758568,-1.3236004996291988,-0.14670365890852385
16341,7.0,300.30658999999997,5448.4574,0.0,0.0,0.0,0.0,-0.16286763540921606,0.0,-0.4882658599805885,-0.45038765308230055,-0.7175414986883324,-0.23359726184175475,-1.3175928384612887,-0.16258799569118584
16342,7.0,300.32583999999997,5584.9688,0.0,0.0,0.0,0.0,-0.16287760221879988,0.0,-0.5073204536761304,-0.42604363041973253,-0.7643269643006984,-0.2047032193401348,-1.3091817480561787,-0.14006025423037086
16343,7.0,300.43701,5543.7371,0.0,0.0,0.0,0.0,-0.1628875690283837,0.0,-0.47433864616357957,-0.44213538963036564,-0.7686836053581653,-0.2224280540019398,-1.3441457666068588,-0.18343052998318385
16344,7.0,299.53685,5386.776999999999,0.0,0.0,0.0,0.0,-0.1628975358379675,0.0,-0.4610192506840576,-0.4433193926372176,-0.7331070771220353,-0.27392142408393977,-1.3464087593801988,-0.1812376237192608
16345,7.0,300.55086,5616.79,0.0,0.0,0.0,0.0,-0.16290750264755136,0.0,-0.5280316504901665,-0.4304350259556296,-0.7488972424404032,-0.27391311543311975,-1.3246935938370787,-0.17786929667683282
16346,7.0,299.69187,5571.2253,0.0,0.0,0.0,0.0,-0.16291746945713514,0.0,-0.5112114353851406,-0.45707692759248053,-0.7252249944616342,-0.27502779186812976,-1.3118606799955685,-0.1804653751555458
16347,7.0,300.08671,5461.1697,0.0,0.0,0.0,0.0,-0.162927436266719,0.0,-0.5288823550091245,-0.4111646505187916,-0.7200122381296753,-0.2396581895674218,-1.3231528457350188,-0.15962833267908982
16348,7.0,300.40608,5676.3544,0.0,0.0,0.0,0.0,-0.16293740307630278,0.0,-0.5133811787517776,-0.4451154898969786,-0.7669733202493733,-0.23016507977802475,-1.3424626568657487,-0.15407494192851287
16349,7.0,299.86467000000005,5638.8928,0.0,0.0,0.0,0.0,-0.16294736988588662,0.0,-0.4911998067051465,-0.4700291415007646,-0.7528536497083702,-0.2183394682584278,-1.3067812572442687,-0.17169728634270282
16350,7.0,299.49852999999996,5583.3439,0.0,0.0,0.0,0.0,-0.16295733669547044,0.0,-0.5098581790815845,-0.4260067481160926,-0.7613322225701403,-0.22423884338815075,-1.2975477117329888,-0.14577083046896086
16351,7.0,299.96359,5773.1333,0.0,0.0,0.0,0.0,-0.16296730350505428,0.0,-0.5499375198346075,-0.4669692275237745,-0.7379816105706143,-0.23863056144850278,-1.312748692383209,-0.16170731923426987
16352,7.0,298.67902999999995,5632.9541,0.0,0.0,0.0,0.0,-0.1629772703146381,0.0,-0.5319901551858405,-0.44632883662672657,-0.7339583997235543,-0.26983532080317274,-1.3391065698845288,-0.14416389687036887
16353,7.0,299.8669,5480.3864,0.0,0.0,0.0,0.0,-0.1629872371242219,0.0,-0.5033025421270935,-0.4272836661571146,-0.7353144221998833,-0.2585053912324958,-1.3217000477416385,-0.15040770610658485
16354,7.0,300.7689,5571.915,0.0,0.0,0.0,0.0,-0.1629972039338057,0.0,-0.48027873368232055,-0.4655570101968995,-0.7478872854032284,-0.25430259193771176,-1.3211749815398188,-0.16982094980752285
16355,7.0,300.41369,5662.8238,0.0,0.0,0.0,0.0,-0.16300717074338955,0.0,-0.5033268195994895,-0.4356791018481796,-0.7823511231745442,-0.22550739198334677,-1.3287223775596886,-0.18326693062203783
16356,7.0,300.53462,5508.4347,0.0,0.0,0.0,0.0,-0.16301713755297337,0.0,-0.5081288955334176,-0.4136484406214226,-0.7526492568981983,-0.2092242804913288,-1.3487781434140387,-0.17725299743600884
16357,7.0,300.89455,5504.9786,0.0,0.0,0.0,0.0,-0.1630271043625572,0.0,-0.4967021499156855,-0.4654057826194746,-0.7112680822841944,-0.23458156338639777,-1.3060563781227288,-0.2027340184332898
16358,7.0,299.52781,5631.3974,0.0,0.0,0.0,0.0,-0.163037071172141,0.0,-0.5235037802983005,-0.43954436726965157,-0.7487560561714692,-0.24317261714176877,-1.3144877335298386,-0.16990425923074484
16359,7.0,300.68498,5609.5999,0.0,0.0,0.0,0.0,-0.16304703798172485,0.0,-0.5062719526051515,-0.46751857119799056,-0.7313877740873532,-0.26831265921539776,-1.3014731439453988,-0.16965297320594483
16360,7.0,299.86741,5491.9202,0.0,0.0,0.0,0.0,-0.16305700479130864,0.0,-0.4822855565653786,-0.4539246153388716,-0.7331964457808553,-0.26145123351322774,-1.3311490102241788,-0.16329058331052584
16361,7.0,299.10991,5491.3938,0.0,0.0,0.0,0.0,-0.16306697160089248,0.0,-0.47566616591459554,-0.4320874848812146,-0.7614929645660042,-0.25943459223670073,-1.3502625548105385,-0.15937045039613884
16362,7.0,298.74408,5543.885,0.0,0.0,0.0,0.0,-0.1630769384104763,0.0,-0.4847741697384856,-0.47698954147270256,-0.7234388979803603,-0.27892778137052876,-1.3467751506163588,-0.17788660298854084
16363,7.0,299.72118,5628.149,0.0,0.0,0.0,0.0,-0.1630869052200601,0.0,-0.5186065297824795,-0.45342581257964354,-0.7387844187573452,-0.25785622215842774,-1.3483066781425088,-0.17984454668677483
16364,7.0,299.72052,5802.2095,0.0,0.0,0.0,0.0,-0.16309687202964393,0.0,-0.5612518757512475,-0.4630393066134216,-0.7394356143316133,-0.22597804665479676,-1.319533617702829,-0.17489253000304883
16365,7.0,300.68122,5613.3744,0.0,0.0,0.0,0.0,-0.16310683883922777,0.0,-0.5224551475048085,-0.4661322018811665,-0.7177383022552553,-0.2209070642768298,-1.305820594824459,-0.18662093030805182
16366,7.0,299.6542,5390.7837,0.0,0.0,0.0,0.0,-0.1631168056488116,0.0,-0.4747177942184986,-0.4405163274280766,-0.7234295355494363,-0.2192297604587928,-1.3101143434482188,-0.16237985385564385
16367,7.0,298.97673,5630.8953,0.0,0.0,0.0,0.0,-0.16312677245839538,0.0,-0.5079287786386675,-0.4532691438491816,-0.7504536553890093,-0.2862660830997627,-1.3309567966802087,-0.17065003156934683
16368,7.0,299.69554,5789.9213,0.0,0.0,0.0,0.0,-0.1631367392679792,0.0,-0.5418952524658974,-0.4346954183860976,-0.7834008502781443,-0.25990811440593375,-1.3443766863046487,-0.14514760059745285
16369,7.0,300.8523,5445.1259,0.0,0.0,0.0,0.0,-0.16314670607756304,0.0,-0.5115200409680976,-0.4129083120858776,-0.7307539658848013,-0.2789248530777398,-1.3267054019106288,-0.15906364839835985
16370,7.0,300.65279,5379.1999,0.0,0.0,0.0,0.0,-0.16315667288714686,0.0,-0.49324036068403354,-0.41845932169871963,-0.7234427584632414,-0.24973201325413077,-1.3190680292818788,-0.17496871627806784
16371,7.0,300.83042,5727.9429,0.0,0.0,0.0,0.0,-0.1631666396967307,0.0,-0.5181665259265545,-0.45764568513861253,-0.7653394139331192,-0.25134137865296274,-1.3343349725136089,-0.16679456427634184
16372,7.0,300.27203,5708.3142,0.0,0.0,0.0,0.0,-0.16317660650631452,0.0,-0.5067825191980405,-0.4502047918367536,-0.7781976894246323,-0.22615737165749478,-1.3301516681507488,-0.18530825467100084
16373,7.0,300.45083999999997,5717.9605,0.0,0.0,0.0,0.0,-0.1631865733158983,0.0,-0.4960725872310525,-0.4841183537437615,-0.7579262836840003,-0.2262249250416618,-1.3101589264526186,-0.1929422937069218
16374,7.0,300.54062999999996,5493.0738,0.0,0.0,0.0,0.0,-0.16319654012548213,0.0,-0.49029558231590653,-0.4180671331150136,-0.7613945577162923,-0.22735881269856778,-1.3246704917347987,-0.1861143559205568
16375,7.0,299.79462,5215.9995,0.0,0.0,0.0,0.0,-0.16320650693506597,0.0,-0.4658593336292366,-0.4278987596303196,-0.6917755011004263,-0.25869545668625377,-1.3320433047624387,-0.17666760232323483
16376,7.0,299.80278,5409.8054,0.0,0.0,0.0,0.0,-0.1632164737446498,0.0,-0.4950360931737585,-0.4319954412421306,-0.7174142344757723,-0.26344996052798675,-1.3338439515151486,-0.18015183504460183
16377,7.0,299.52449,5664.5698,0.0,0.0,0.0,0.0,-0.1632264405542336,0.0,-0.5378729636764285,-0.4233076119697086,-0.7607071992459552,-0.25097543324684674,-1.2916641737023289,-0.16120407843960383
16378,7.0,300.28361,5619.3135,0.0,0.0,0.0,0.0,-0.16323640736381742,0.0,-0.5013442235263226,-0.45698166181807853,-0.7498051043975023,-0.2592036421414078,-1.3179445375709988,-0.15006012079228087
16379,7.0,299.67089,5429.4898,0.0,0.0,0.0,0.0,-0.16324637417340127,0.0,-0.47721655002510655,-0.4250128916230066,-0.7481999034565813,-0.25436102607097877,-1.330345502894879,-0.15811706002243883
16380,7.0,299.1855,5743.5087,0.0,0.0,0.0,0.0,-0.16325634098298505,0.0,-0.5196694797998845,-0.4529906520591966,-0.7732231076611793,-0.2588630786502968,-1.3345253622073987,-0.16573536328430682
16381,7.0,300.72092000000004,6076.406,0.0,0.0,0.0,0.0,-0.16326630779256887,0.0,-0.5692258905932214,-0.49341092107336654,-0.7844388844755903,-0.2068417343386898,-1.323196820789359,-0.16538314741704585
16382,7.0,300.9641,5625.5932,0.0,0.0,0.0,0.0,-0.16327627460215272,0.0,-0.5266591829647145,-0.41536177561301557,-0.7680188930275633,-0.22570806616565178,-1.3131209604699488,-0.16048668723630286
16383,7.0,300.04822,5351.7457,0.0,0.0,0.0,0.0,-0.16328624141173653,0.0,-0.45294373857956655,-0.44459885393599063,-0.7292544570618114,-0.2559862589663768,-1.333693585200309,-0.17827866998223485
16384,7.0,300.61462,5460.1259,0.0,0.0,0.0,0.0,-0.16329620822132035,0.0,-0.4910300062533885,-0.4244745721098786,-0.7442373761580102,-0.2598571985884088,-1.3430349405222288,-0.17410077637490884
16385,7.0,300.28421000000003,5493.3214,0.0,0.0,0.0,0.0,-0.16330617503090417,0.0,-0.4821172861212715,-0.43036215300843755,-0.7573530881024303,-0.26561408035656875,-1.3136327530954588,-0.17663275665229583
16386,7.0,300.55261,5756.0873,0.0,0.0,0.0,0.0,-0.163316141840488,0.0,-0.5439841283420535,-0.4650607506954226,-0.7406619407951422,-0.2184350684053628,-1.3028705171583088,-0.17690798577695882
16387,7.0,299.95437999999996,5766.0105,0.0,0.0,0.0,0.0,-0.1633261086500718,0.0,-0.5367245460130885,-0.44660864564184155,-0.7693900230628833,-0.23848527151666377,-1.3135288949602089,-0.14117003666739786
16388,7.0,299.43847999999997,5532.0003,0.0,0.0,0.0,0.0,-0.16333607545965562,0.0,-0.5096480816733495,-0.4561309572991205,-0.7158109283125383,-0.22402343654939177,-1.3276265475765385,-0.17526727042003284
16389,7.0,299.95322999999996,5682.8174,0.0,0.0,0.0,0.0,-0.16334604226923943,0.0,-0.5004582984338886,-0.47882469952381856,-0.7481515916918133,-0.22678274961921477,-1.3289629231334288,-0.18644507062069582
16390,7.0,299.66228,5852.0827,0.0,0.0,0.0,0.0,-0.16335600907882328,0.0,-0.5470761015522075,-0.4616698383082656,-0.7701410643020052,-0.2569283687768557,-1.3192841555282089,-0.19074065322713682
16391,7.0,299.13999,5705.5491,0.0,0.0,0.0,0.0,-0.1633659758884071,0.0,-0.5034416512333225,-0.49935249806975446,-0.7315502994033933,-0.2633355949891998,-1.3225809673785787,-0.20528123799218082
16392,7.0,299.51689,5322.1267,0.0,0.0,0.0,0.0,-0.16337594269799094,0.0,-0.4681995765902005,-0.43578881656900764,-0.7138052301370913,-0.25709135005544076,-1.3417261253680588,-0.1952722724443728
16393,7.0,300.36602,5143.7186,0.0,0.0,0.0,0.0,-0.16338590950757473,0.0,-0.46909484384855654,-0.40394985384424664,-0.6905173383187554,-0.24846942256952276,-1.3101992538065987,-0.19589124666546082
16394,7.0,301.21931,5434.9245,0.0,0.0,0.0,0.0,-0.16339587631715854,0.0,-0.48117990818875955,-0.4260598322888316,-0.7448415873251413,-0.23246359709987077,-1.3242040927137688,-0.15199404033064384
16395,7.0,300.70092,5568.8135,0.0,0.0,0.0,0.0,-0.16340584312674236,0.0,-0.4994587677402425,-0.4150218808669706,-0.7782996021196903,-0.2187613552025648,-1.3423315423028088,-0.16566352385221686
16396,7.0,300.09711,5735.4857,0.0,0.0,0.0,0.0,-0.1634158099363262,0.0,-0.5243143499807975,-0.46587558616084057,-0.7532544813154294,-0.22009219841390879,-1.3369032575420787,-0.17102038461339783
16397,7.0,300.36159,5883.0436,0.0,0.0,0.0,0.0,-0.16342577674591002,0.0,-0.5489694708215684,-0.47263935481837255,-0.7666895392938663,-0.2257015307025068,-1.3119766971320186,-0.18053800492271382
16398,7.0,299.77404,5822.4044,0.0,0.0,0.0,0.0,-0.16343574355549384,0.0,-0.5589371058977975,-0.4445516466138316,-0.7663767996505012,-0.24545063641409176,-1.298204703097829,-0.14838357691181886
16399,7.0,298.74499,5885.1263,0.0,0.0,0.0,0.0,-0.16344571036507763,0.0,-0.5373058577279595,-0.4836786133328625,-0.7679469522704633,-0.2743099852322877,-1.3461512925297887,-0.15500523724282586
16400,7.0,299.08033,5847.895,0.0,0.0,0.0,0.0,-0.16345567717466147,0.0,-0.5337508292221055,-0.44925598444311354,-0.7946072342641283,-0.26730171932562574,-1.3542347991775687,-0.15243937388209486
16401,7.0,299.68402000000003,5498.4055,0.0,0.0,0.0,0.0,-0.1634656439842453,0.0,-0.4969813408482396,-0.4262785017929126,-0.7481181341735113,-0.2695982405447747,-1.3440414018465587,-0.15959107547291285
16402,7.0,301.16406,5340.1618,0.0,0.0,0.0,0.0,-0.16347561079382913,0.0,-0.4579000413112156,-0.4231791723870326,-0.7421966397941053,-0.22598089388757778,-1.3122072115297687,-0.17440315046975086
16403,7.0,301.29911,5493.456,0.0,0.0,0.0,0.0,-0.16348557760341292,0.0,-0.49110815823360154,-0.42129816476889154,-0.7574671294011852,-0.24648723179639576,-1.3305259627376886,-0.16311828013102084
16404,7.0,300.37862,5658.2078,0.0,0.0,0.0,0.0,-0.16349554441299677,0.0,-0.5028814860480385,-0.4613119279754425,-0.7557604717277513,-0.23516054462603878,-1.3073059181460487,-0.18902780459559182
16405,7.0,300.05975,5593.9001,0.0,0.0,0.0,0.0,-0.16350551122258059,0.0,-0.5063028060706966,-0.4550358568560426,-0.7390672675227603,-0.2249518472185188,-1.3137324569052988,-0.16769894065309685
16406,7.0,299.32567,5567.4943,0.0,0.0,0.0,0.0,-0.16351547803216443,0.0,-0.5038158850252565,-0.4381973728517136,-0.7503659687253553,-0.2337128432806618,-1.3145377880847788,-0.14609563792101685
16407,7.0,299.46696000000003,5640.5864,0.0,0.0,0.0,0.0,-0.16352544484174822,0.0,-0.5089077200902815,-0.43854615380113554,-0.7671435563986743,-0.24193613791223778,-1.3534485170999686,-0.16405723873368883
16408,7.0,299.67602,5710.7354,0.0,0.0,0.0,0.0,-0.16353541165133204,0.0,-0.4990506812624675,-0.46717685260176556,-0.7696934408053283,-0.26000254931525374,-1.3664304800311886,-0.19142483009215983
16409,7.0,299.89493999999996,5792.7518,0.0,0.0,0.0,0.0,-0.16354537846091585,0.0,-0.5453601017128515,-0.47777574249029453,-0.7377160579844063,-0.23563046975741678,-1.3421896872888088,-0.2018931019102978
16410,7.0,299.54185,5631.531,0.0,0.0,0.0,0.0,-0.1635553452704997,0.0,-0.5314098364560674,-0.4425816857694116,-0.7378532723129483,-0.2302671545930988,-1.2996142353119386,-0.16676392359331785
16411,7.0,300.00217000000004,5489.4531,0.0,0.0,0.0,0.0,-0.1635653120800835,0.0,-0.5042634375944265,-0.4332871020721076,-0.7311061209570563,-0.23990563537434276,-1.3155170943064287,-0.17314009369009684
16412,7.0,299.57538,5662.2501,0.0,0.0,0.0,0.0,-0.16357527888966736,0.0,-0.5014896046506705,-0.46274531209690656,-0.7569477373999253,-0.2570377085951468,-1.303110150806959,-0.17551381443436484
16413,7.0,299.66615,5686.7019,0.0,0.0,0.0,0.0,-0.16358524569925112,0.0,-0.5061306143487024,-0.43564753910756465,-0.7868372271972882,-0.2517845134516968,-1.3082724574164386,-0.16567342330569385
16414,7.0,300.28947,5568.3729,0.0,0.0,0.0,0.0,-0.16359521250883496,0.0,-0.49009622535873154,-0.44641201432743555,-0.7561380999075202,-0.24889783484430378,-1.3092745617653387,-0.17517001867543483
16415,7.0,299.6867,5628.9524,0.0,0.0,0.0,0.0,-0.16360517931841878,0.0,-0.5166462454765145,-0.4328431364082916,-0.7615716029062652,-0.25472335417423775,-1.3699563877291687,-0.15465042745530885
16416,7.0,301.08266000000003,5845.8734,0.0,0.0,0.0,0.0,-0.16361514612800263,0.0,-0.5447636824389895,-0.45723602812318254,-0.7749998315790283,-0.25989210505435373,-1.3447731710687787,-0.17530421351867884
16417,7.0,301.36163999999997,5831.7956,0.0,0.0,0.0,0.0,-0.16362511293758644,0.0,-0.5469310142703885,-0.46553877169509955,-0.7602504666308794,-0.2539493222903468,-1.3415173958474589,-0.15277199349242185
16418,7.0,300.42801000000003,5610.8163,0.0,0.0,0.0,0.0,-0.16363507974717026,0.0,-0.5173790076838326,-0.4046326628216346,-0.7835363927440213,-0.2172702563554048,-1.310345769771059,-0.15174520637108585
16419,7.0,299.81031,5461.4778,0.0,0.0,0.0,0.0,-0.16364504655675405,0.0,-0.4963209753605665,-0.40685084967555263,-0.7569810631957142,-0.2104541128002038,-1.3311881216780386,-0.15563330031731085
16420,7.0,301.14495,5508.5295,0.0,0.0,0.0,0.0,-0.1636550133663379,0.0,-0.4893647905090445,-0.42446612160404457,-0.7606245079052942,-0.21789299986686478,-1.3295033907367686,-0.2107165243111018
16421,7.0,300.20968,5554.9797,0.0,0.0,0.0,0.0,-0.1636649801759217,0.0,-0.4962396823050435,-0.43264142871088457,-0.7596939998084602,-0.24106820814157975,-1.311340274744209,-0.19474114700695483
16422,7.0,299.43234,5576.7742,0.0,0.0,0.0,0.0,-0.16367494698550555,0.0,-0.5089838151727916,-0.45177527882924856,-0.7344410107461843,-0.25566714597988277,-1.3075461597447589,-0.18838676178732583
16423,7.0,298.87957,5400.2714,0.0,0.0,0.0,0.0,-0.16368491379508934,0.0,-0.49508348288093557,-0.4149823337155676,-0.7314818442266373,-0.24491171908340476,-1.3297244819085885,-0.17333485049181785
16424,7.0,299.4948,5408.4159,0.0,0.0,0.0,0.0,-0.1636948806046732,0.0,-0.4754776608659915,-0.45843278794879355,-0.7101129265076893,-0.2687571213717628,-1.3044533151395188,-0.1890687702971348
16425,7.0,300.60202000000004,5687.896,0.0,0.0,0.0,0.0,-0.163704847414257,0.0,-0.5265987628612515,-0.4393262550531256,-0.7630533494550022,-0.24279126020163178,-1.3034709691675688,-0.16881493431323683
16426,7.0,300.16584,5901.5371,0.0,0.0,0.0,0.0,-0.16371481422384085,0.0,-0.5239927545315585,-0.4760399640089865,-0.7938871883455653,-0.22893941192706077,-1.3062413975909886,-0.16215820539626885
16427,7.0,300.44185,5726.1456,0.0,0.0,0.0,0.0,-0.16372478103342464,0.0,-0.5369343901087985,-0.45372511652668257,-0.7499457840413863,-0.23093315375132775,-1.3576528970649089,-0.17502463755108683
16428,7.0,300.56863,5815.7613,0.0,0.0,0.0,0.0,-0.16373474784300845,0.0,-0.5413511270296965,-0.4630714570390945,-0.7634236214390453,-0.21411728548923079,-1.3484184396285386,-0.18055750998713882
16429,7.0,300.78489,5873.6446,0.0,0.0,0.0,0.0,-0.16374471465259227,0.0,-0.5465974422049674,-0.45926279176820856,-0.7795810595211603,-0.23738777980334977,-1.3421984012396686,-0.15667489102260784
16430,7.0,299.80568999999997,5555.4366,0.0,0.0,0.0,0.0,-0.16375468146217612,0.0,-0.4864351602299125,-0.44161930082443157,-0.7606595460937522,-0.26404179991139676,-1.3163678190903887,-0.16304746408153184
16431,7.0,299.43424,5547.6201,0.0,0.0,0.0,0.0,-0.16376464827175993,0.0,-0.48351351436156853,-0.4020900738157006,-0.8007344082813332,-0.2605378493430837,-1.3588881502618186,-0.14722489502496586
16432,7.0,298.47041,5596.1029,0.0,0.0,0.0,0.0,-0.16377461508134378,0.0,-0.4847855181396056,-0.44567790449748457,-0.7706121344059963,-0.25623838598875975,-1.3290595871929687,-0.2085158058889078
16433,7.0,298.96369,5634.045,0.0,0.0,0.0,0.0,-0.16378458189092754,0.0,-0.5280983020817445,-0.43354418388747956,-0.7509665017946233,-0.22636592892557778,-1.3258894316050989,-0.13646013609506685
16434,7.0,300.19469,5638.6035,0.0,0.0,0.0,0.0,-0.16379454870051138,0.0,-0.5240447139966865,-0.4398560632654136,-0.7500938806760022,-0.22757696544509776,-1.3147137896271488,-0.18430566396205283
16435,7.0,299.33751,5697.1122,0.0,0.0,0.0,0.0,-0.1638045155100952,0.0,-0.5326246422659594,-0.45683124484073356,-0.7423239850666733,-0.23236674052281178,-1.333939804974609,-0.12550569674644788
16436,7.0,300.26815,5711.9174,0.0,0.0,0.0,0.0,-0.16381448231967904,0.0,-0.5225231467190196,-0.4538307377171065,-0.7599263684538933,-0.23770298164445777,-1.3196264314119885,-0.1897242924493298
16437,7.0,300.47255,5764.3387,0.0,0.0,0.0,0.0,-0.16382444912926286,0.0,-0.5213158794898715,-0.4653340749098976,-0.7655650849953913,-0.23197274835392778,-1.3171114433387787,-0.14227994069443686
16438,7.0,299.69382,5756.0399,0.0,0.0,0.0,0.0,-0.16383441593884668,0.0,-0.5164536975600115,-0.4679285321884505,-0.7653101816677343,-0.2683823100272717,-1.3413088689768788,-0.18555986493583282
16439,7.0,299.80055,5706.4457,0.0,0.0,0.0,0.0,-0.16384438274843047,0.0,-0.5367978647903245,-0.4401575051701636,-0.7576616227578803,-0.2678376171710148,-1.3618914235582187,-0.16144314466819784
16440,7.0,300.36375,5529.7528,0.0,0.0,0.0,0.0,-0.1638543495580143,0.0,-0.49805767589946554,-0.4808460524133106,-0.7020030550923073,-0.25399794816264576,-1.3500166390112687,-0.2215899137842218
16441,7.0,298.94984,5428.2912,0.0,0.0,0.0,0.0,-0.16386431636759813,0.0,-0.4951592638559146,-0.42270548809778363,-0.7322002081500343,-0.22402376078942376,-1.3152622619062788,-0.18242583171402782
16442,7.0,299.4117,5482.7602,0.0,0.0,0.0,0.0,-0.16387428317718197,0.0,-0.5043687953398245,-0.44413069185978654,-0.7181227090781933,-0.21370632138117182,-1.3025903535056589,-0.1870764774205108
16443,7.0,299.43232,5419.3721,0.0,0.0,0.0,0.0,-0.16388424998676576,0.0,-0.4674954285657066,-0.43264497508623456,-0.7472133828942192,-0.25257911431261776,-1.3307671162614887,-0.17319167825268783
16444,7.0,299.43066,5490.3652,0.0,0.0,0.0,0.0,-0.1638942167963496,0.0,-0.5102549982182476,-0.4359895920763226,-0.7226893360863843,-0.23046311716243878,-1.3134854265309186,-0.18015704315011583
16445,7.0,300.00973,5734.7855,0.0,0.0,0.0,0.0,-0.16390418360593342,0.0,-0.5349696677673955,-0.4638226198682286,-0.7444392865054373,-0.26305800499180376,-1.3196219731115488,-0.15407665432118184
16446,7.0,299.58681,5581.5138,0.0,0.0,0.0,0.0,-0.16391415041551727,0.0,-0.5214195755051054,-0.4371928265700726,-0.7380284125927333,-0.24352619076416376,-1.3300040376111788,-0.16149783990859584
16447,7.0,299.35544,5661.721,0.0,0.0,0.0,0.0,-0.16392411722510106,0.0,-0.49822673667865053,-0.4537824259523386,-0.7690126279306373,-0.2964421741190647,-1.3463157430210186,-0.14745238993741785
16448,7.0,301.02672,5922.0347,0.0,0.0,0.0,0.0,-0.16393408403468487,0.0,-0.5408291613731825,-0.4847581502544045,-0.7745633437009503,-0.2653980959652527,-1.3388075597800189,-0.17574191729687683
16449,7.0,300.33036,5780.0784,0.0,0.0,0.0,0.0,-0.1639440508442687,0.0,-0.5298934874164155,-0.4505140053697706,-0.7765920122561643,-0.2520622959666118,-1.3197559247747686,-0.14671052874420187
16450,7.0,299.80607000000003,5485.0274,0.0,0.0,0.0,0.0,-0.16395401765385254,0.0,-0.5251774465484784,-0.4177443318981556,-0.7243895798866853,-0.23853425202649778,-1.3281047002987287,-0.18396003422044183
16451,7.0,300.14817,5568.9346,0.0,0.0,0.0,0.0,-0.16396398446343635,0.0,-0.5296984874346705,-0.4323622681758336,-0.7307562963600314,-0.22953583120092277,-1.3480484006920186,-0.17594380737930185
16452,7.0,301.30875,5561.8429,0.0,0.0,0.0,0.0,-0.1639739512730202,0.0,-0.4902475745261685,-0.43421741765142263,-0.7661963702051943,-0.2504451285420098,-1.3445263433444186,-0.20042311919522182
16453,7.0,300.3978,5475.937,0.0,0.0,0.0,0.0,-0.16398391808260396,0.0,-0.47408136169818754,-0.4433653941917576,-0.7471013680956643,-0.2412607357930808,-1.3308400702686887,-0.18557940039776083
16454,7.0,299.51538,5570.4737,0.0,0.0,0.0,0.0,-0.1639938848921878,0.0,-0.46800521495601854,-0.4549376019938456,-0.7703420829893443,-0.2521116412464818,-1.3420294924479987,-0.17033329972058783
16455,7.0,298.90834,5668.911999999999,0.0,0.0,0.0,0.0,-0.16400385170177162,0.0,-0.5104483162048264,-0.4462441795808716,-0.7665151893491593,-0.25648275151537675,-1.3345806856628588,-0.16219940414533485
16456,7.0,299.43531,5798.41,0.0,0.0,0.0,0.0,-0.16401381851135546,0.0,-0.5246220031086605,-0.4832526125933196,-0.7546972278678172,-0.23445176604858778,-1.3182328072244487,-0.18598315016510783
16457,7.0,299.10804,5743.8693,0.0,0.0,0.0,0.0,-0.16402378532093928,0.0,-0.5517535983863405,-0.42741536840511263,-0.7668238658596233,-0.21595698290079476,-1.3102263075842686,-0.17311887623300284
16458,7.0,299.3916,5671.7035,0.0,0.0,0.0,0.0,-0.1640337521305231,0.0,-0.4902074599547095,-0.46969773779055757,-0.7641510336858353,-0.22093268937185878,-1.319549627054409,-0.18231479976806983
16459,7.0,299.54408,5454.2486,0.0,0.0,0.0,0.0,-0.1640437189401069,0.0,-0.47354097515485555,-0.42254704617964667,-0.7618673503454533,-0.23405488611691877,-1.3485272626892788,-0.17434057214357485
16460,7.0,300.94735,5545.5743,0.0,0.0,0.0,0.0,-0.16405368574969073,0.0,-0.49605273766159347,-0.4328941738158286,-0.7567691925998042,-0.2414748254067098,-1.3579247520667386,-0.17190303690800884
16461,7.0,300.85528999999997,5679.6319,0.0,0.0,0.0,0.0,-0.16406365255927455,0.0,-0.5457641554552285,-0.4482376984901166,-0.7324644232461103,-0.27550095939982777,-1.3319505923782886,-0.15944798429379087
16462,7.0,300.71934,5486.5105,0.0,0.0,0.0,0.0,-0.1640736193688584,0.0,-0.5412108324208506,-0.4104528929860466,-0.7160984785584174,-0.24877524171470475,-1.3370338654799687,-0.15828552298406484
16463,7.0,299.15092000000004,5583.1715,0.0,0.0,0.0,0.0,-0.16408358617844218,0.0,-0.5149878995678485,-0.4495806399076546,-0.7325761745996393,-0.24536345637548776,-1.3275012085391686,-0.16069206289907187
16464,7.0,299.74259,5945.018,0.0,0.0,0.0,0.0,-0.16409355298802603,0.0,-0.5336154792737474,-0.4717050369011625,-0.8018165188581292,-0.2100146560993328,-1.3137126985283487,-0.17993356070805983
16465,7.0,298.35935,5937.8436,0.0,0.0,0.0,0.0,-0.16410351979760984,0.0,-0.5394058590902134,-0.4559955060257526,-0.8095548415943422,-0.2237858294009418,-1.3115160736365588,-0.14939853940448786
16466,7.0,298.47564,5788.3369,0.0,0.0,0.0,0.0,-0.1641134866071937,0.0,-0.5222399838460735,-0.46465134699251753,-0.7726185519890143,-0.22615133268689877,-1.3366352528906287,-0.16329284285824885
16467,7.0,298.87282999999996,5581.6564,0.0,0.0,0.0,0.0,-0.16412345341677748,0.0,-0.5248297497766635,-0.4251421114082596,-0.7467123003222663,-0.24888447007548475,-1.3255149343681385,-0.14677183037525188
16468,7.0,299.77239,5467.1126,0.0,0.0,0.0,0.0,-0.1641334202263613,0.0,-0.5342260840490095,-0.4218900041523016,-0.7057496283970653,-0.25007950737592577,-1.3251371947308588,-0.13981708433887186
16469,7.0,299.39793,5510.8992,0.0,0.0,0.0,0.0,-0.1641433870359451,0.0,-0.48868365339432157,-0.4508339390888456,-0.7356581774288092,-0.26099405506810774,-1.3210439683018886,-0.17592472787991884
16470,7.0,299.80892,5485.5475,0.0,0.0,0.0,0.0,-0.16415335384552895,0.0,-0.47707091558823356,-0.4221071943112366,-0.7682913559794532,-0.27739720629947273,-1.3350640059605587,-0.16513545843010083
16471,7.0,299.85393999999997,5441.5155,0.0,0.0,0.0,0.0,-0.16416332065511277,0.0,-0.4515109826731646,-0.46394006568731955,-0.7386337991299803,-0.25135297023410674,-1.3691333246729387,-0.21099174330326378
16472,7.0,300.27353999999997,5668.3827,0.0,0.0,0.0,0.0,-0.1641732874646966,0.0,-0.5202028647850255,-0.45776706236809156,-0.7450768639983613,-0.2338414348508528,-1.3664248058306288,-0.1984547896834628
16473,7.0,299.54017999999996,5881.8939,0.0,0.0,0.0,0.0,-0.16418325427428038,0.0,-0.5749774426658555,-0.46799044176956056,-0.7449809902738993,-0.2169174426705848,-1.320339962132409,-0.1973224928292138
16474,7.0,299.72484,5899.3894,0.0,0.0,0.0,0.0,-0.16419322108386422,0.0,-0.5734919369592474,-0.48203902268354754,-0.7377361102038853,-0.2188043372718068,-1.3011869007921488,-0.16222747117310485
16475,7.0,299.78801,5659.4864,0.0,0.0,0.0,0.0,-0.16420318789344804,0.0,-0.4949829178085105,-0.4687849210404696,-0.7565747195081113,-0.2630684718653367,-1.3037241803675588,-0.17155320217848286
16476,7.0,298.7521,5520.7712,0.0,0.0,0.0,0.0,-0.16421315470303188,0.0,-0.47204779914499057,-0.4523816076890886,-0.7537471944415564,-0.26991755618128876,-1.3241558620090088,-0.15275822342356285
16477,7.0,299.26649,5652.9913,0.0,0.0,0.0,0.0,-0.1642231215126157,0.0,-0.48406715421620855,-0.4690382031679665,-0.7652628324905613,-0.2768880785217257,-1.3086841409320689,-0.17009819529988482
16478,7.0,299.11325,5521.885,0.0,0.0,0.0,0.0,-0.16423308832219952,0.0,-0.5119943534724085,-0.4216900493775676,-0.7448307455490712,-0.26258153426477976,-1.3364918780014787,-0.15786806394286484
16479,7.0,299.07434,5348.1436,0.0,0.0,0.0,0.0,-0.1642430551317833,0.0,-0.5154898737998895,-0.4149427865641646,-0.6952694407577513,-0.24982602259840878,-1.3692103316805386,-0.19291846206456983
16480,7.0,300.03369,5416.7115,0.0,0.0,0.0,0.0,-0.16425302194136715,0.0,-0.5236332432635775,-0.3928714838758966,-0.7300403135743693,-0.2281243839441238,-1.3502364129579587,-0.16710243018672585
16481,7.0,299.51964,5449.2848,0.0,0.0,0.0,0.0,-0.16426298875095097,0.0,-0.5055857289749265,-0.41482828930286464,-0.7360324821482503,-0.2111392725178238,-1.3224067896863887,-0.1855993715572318
16482,7.0,299.67113,5791.3305,0.0,0.0,0.0,0.0,-0.16427295556053478,0.0,-0.5260973155192625,-0.4551243135897725,-0.7791982232358773,-0.22730899119115078,-1.3194482007193988,-0.17162557863312583
16483,7.0,300.52322000000004,6044.6307,0.0,0.0,0.0,0.0,-0.1642829223701186,0.0,-0.5408332143735824,-0.46566643107519856,-0.8309171630551393,-0.2613719061628988,-1.3379698045973385,-0.17932488110798783
16484,7.0,300.02404,5859.1055,0.0,0.0,0.0,0.0,-0.16429288917970244,0.0,-0.5472058279625105,-0.47466939126122154,-0.7591465407794303,-0.25850773184022674,-1.3328021277623288,-0.16015377378344686
16485,7.0,299.37014,5634.4217,0.0,0.0,0.0,0.0,-0.16430285598928626,0.0,-0.5334639882512965,-0.4453322139608676,-0.7339273030779853,-0.25555958948176777,-1.3305827047432888,-0.17005013684764184
16486,7.0,299.51425,5649.7245,0.0,0.0,0.0,0.0,-0.16431282279887005,0.0,-0.5392616634684825,-0.4320921660966766,-0.7460213448140743,-0.25016155023652276,-1.3238709360808887,-0.13638503399765486
16487,7.0,300.31962999999996,5532.1203,0.0,0.0,0.0,0.0,-0.1643227896084539,0.0,-0.47706433959508454,-0.44897894160077156,-0.7555831529602512,-0.24973024006645575,-1.3424695469664287,-0.16869475271887585
16488,7.0,301.07027999999997,5348.1937,0.0,0.0,0.0,0.0,-0.1643327564180377,0.0,-0.44761016230568357,-0.42988577347392265,-0.7482214046237032,-0.25287612831443074,-1.3266820971583289,-0.18264985117863683
16489,7.0,301.30672999999996,5376.1177,0.0,0.0,0.0,0.0,-0.16434272322762153,0.0,-0.4471939292971046,-0.45017267180858356,-0.7368389279028403,-0.24887391200944278,-1.3060464482717487,-0.2097769982883778
16490,7.0,300.65406,5596.4787,0.0,0.0,0.0,0.0,-0.16435269003720535,0.0,-0.5115855881170664,-0.4500887037727966,-0.7395154888369964,-0.2386248061879348,-1.3289287766050588,-0.1973129378807708
16491,7.0,300.40308999999996,5735.8557,0.0,0.0,0.0,0.0,-0.1643626568467892,0.0,-0.5201466901994815,-0.45963652906759356,-0.7637736993485953,-0.23858411406391877,-1.3470908793475187,-0.1945463091452258
16492,7.0,299.74068,5753.5394,0.0,0.0,0.0,0.0,-0.164372623656373,0.0,-0.5360119272177585,-0.4491085666860646,-0.7638118076848562,-0.2323647748176178,-1.3465583150949587,-0.16553504373953684
16493,7.0,299.96116,5888.6555,0.0,0.0,0.0,0.0,-0.1643825904659568,0.0,-0.5458947633931185,-0.4466244422109006,-0.7974850064031422,-0.24649333156199776,-1.3269973192644386,-0.14470484070125586
16494,7.0,300.11306,5802.9223,0.0,0.0,0.0,0.0,-0.16439255727554064,0.0,-0.5374011336348624,-0.43847466900658055,-0.7880676775887243,-0.23272971710613477,-1.3313959392735486,-0.14351347136617687
16495,7.0,299.64468999999997,5658.3283,0.0,0.0,0.0,0.0,-0.16440252408512446,0.0,-0.5116435561552876,-0.43563806521912957,-0.7727088933679302,-0.25517847572165475,-1.3119716308815188,-0.16668224550275684
16496,7.0,299.98523,5752.9232,0.0,0.0,0.0,0.0,-0.16441249089470827,0.0,-0.5650160694752445,-0.4249106749529186,-0.7588182376145293,-0.2066343017782178,-1.297376168491059,-0.17564026804684485
16497,7.0,299.54134,5637.5909,0.0,0.0,0.0,0.0,-0.16442245770429212,0.0,-0.5422228564882295,-0.43883383576952756,-0.7326301706974683,-0.2231050570562548,-1.2936151867698789,-0.17637345581920483
16498,7.0,300.83586,5480.2774,0.0,0.0,0.0,0.0,-0.16443242451387594,0.0,-0.5232959829677926,-0.40332655304523163,-0.7392449307952943,-0.21894015331521077,-1.3251604994831587,-0.16955611662888584
16499,7.0,300.63768,5586.8853,0.0,0.0,0.0,0.0,-0.16444239132345972,0.0,-0.47240362218260756,-0.4459382084481746,-0.7799318061757763,-0.25518181944698476,-1.3532287431532788,-0.18132991053836883
16500,7.0,300.46373,5752.7784,0.0,0.0,0.0,0.0,-0.16445235813304354,0.0,-0.4819635051535945,-0.4737327631337835,-0.7930047184359723,-0.24984686515296578,-1.3237168207406789,-0.17734497014758582
16501,7.0,300.18157,5882.9462,0.0,0.0,0.0,0.0,-0.16446232494262739,0.0,-0.5076358885647615,-0.47251815997391156,-0.8081146990947112,-0.2758914558558667,-1.3151200015922386,-0.17368528303890285
16502,7.0,300.31854,5873.78,0.0,0.0,0.0,0.0,-0.1644722917522112,0.0,-0.5427537590106255,-0.48365567335059856,-0.7590730193521743,-0.26279566440841273,-1.3414332960891588,-0.16762213629551684
16503,7.0,299.2538,5637.4931,0.0,0.0,0.0,0.0,-0.16448225856179502,0.0,-0.5173377582722615,-0.46019887274059257,-0.7361205133169383,-0.24921721127582375,-1.3471579565041385,-0.16659145829379685
16504,7.0,299.77704,5673.5113,0.0,0.0,0.0,0.0,-0.16449222537137884,0.0,-0.5297892543786284,-0.4385564585546526,-0.7562600648220572,-0.2154744428056718,-1.3281823152563887,-0.15808259938653785
16505,7.0,298.88304,5792.3009999999995,0.0,0.0,0.0,0.0,-0.16450219218096268,0.0,-0.5269582335992284,-0.4545221390553426,-0.7792345077219582,-0.2032931501034718,-1.3338936007700486,-0.16374179371255684
16506,7.0,299.16076,5767.8369999999995,0.0,0.0,0.0,0.0,-0.16451215899054647,0.0,-0.5167343881027134,-0.4386068373496245,-0.7979371895252692,-0.24542198170126378,-1.3446869434852686,-0.15855452062061284
16507,7.0,300.05987000000005,5579.6168,0.0,0.0,0.0,0.0,-0.16452212580013031,0.0,-0.4729048466095746,-0.46567752616379354,-0.7574818012626333,-0.23432036777561976,-1.3404674660938385,-0.1944335952041018
16508,7.0,300.10516,5466.6757,0.0,0.0,0.0,0.0,-0.1645320926097141,0.0,-0.48403914798344455,-0.4416289874953876,-0.7360647744289373,-0.24519110253347776,-1.3010220450008787,-0.19913290731288782
16509,7.0,300.53975,5669.3007,0.0,0.0,0.0,0.0,-0.16454205941929795,0.0,-0.5089623849331765,-0.44906555421931954,-0.7652979213415243,-0.2368273511730398,-1.3187478422502787,-0.18903388409619182
16510,7.0,301.0303,5785.1201,0.0,0.0,0.0,0.0,-0.16455202622888176,0.0,-0.5232520079134525,-0.4713504398961665,-0.7639295980089812,-0.25573445618402574,-1.3457681826669787,-0.18813492860747183
16511,7.0,300.39755,5611.0586,0.0,0.0,0.0,0.0,-0.1645619930384656,0.0,-0.4926204846703566,-0.4327383866129536,-0.7802628451159472,-0.2452148936458258,-1.3648003632703087,-0.16460818334306285
16512,7.0,300.47337999999996,5563.177,0.0,0.0,0.0,0.0,-0.16457195984804943,0.0,-0.5060243649432166,-0.4343921627636686,-0.7506503576309224,-0.2227161615353738,-1.3381025403604387,-0.16249381409439084
16513,7.0,299.81057999999996,5773.7798,0.0,0.0,0.0,0.0,-0.16458192665763322,0.0,-0.5360461852036396,-0.4404374560402926,-0.7786012466744603,-0.22732117045735276,-1.3295124086626589,-0.15658967668919785
16514,7.0,299.68442999999996,6038.7034,0.0,0.0,0.0,0.0,-0.16459189346721703,0.0,-0.5798125302880414,-0.4494996812246646,-0.8063028356633942,-0.24185835070206077,-1.3528460385905088,-0.1357504455925259
16515,7.0,299.52634,5876.6726,0.0,0.0,0.0,0.0,-0.16460186027680088,0.0,-0.5519018064784675,-0.4650960320639046,-0.7693639116078063,-0.23742015314404477,-1.3347517222797385,-0.17948021234831782
16516,7.0,299.0831,5523.8565,0.0,0.0,0.0,0.0,-0.1646118270863847,0.0,-0.5230341287444494,-0.40052894925412963,-0.7555513774371152,-0.2239135191785438,-1.3193993620645788,-0.15786954328801084
16517,7.0,299.71655,5482.2634,0.0,0.0,0.0,0.0,-0.16462179389596854,0.0,-0.5123568538281845,-0.4057120072256576,-0.7484023305615592,-0.22118260750902377,-1.3327468043068686,-0.17541619791973082
16518,7.0,299.44484,5707.5817,0.0,0.0,0.0,0.0,-0.1646317607055523,0.0,-0.5240715549918356,-0.45495247650531356,-0.7559382869878003,-0.26502066030300275,-1.3454506300856386,-0.17822355930929581
16519,7.0,299.12157,5765.3268,0.0,0.0,0.0,0.0,-0.16464172751513614,0.0,-0.5188246014690016,-0.4490152463518545,-0.7846755290364452,-0.23991540310530676,-1.3545139495801186,-0.1909246087827918
16520,7.0,299.50235,5551.3565,0.0,0.0,0.0,0.0,-0.16465169432471996,0.0,-0.4895898738862585,-0.4545966230701936,-0.7432872616717413,-0.2326889743196138,-1.3163762290662187,-0.18491927809011183
16521,7.0,300.04599,5440.7835,0.0,0.0,0.0,0.0,-0.1646616611343038,0.0,-0.4712231047560995,-0.4517694931711776,-0.7308697398412273,-0.22717069268500178,-1.3125108825847387,-0.19023789879251882
16522,7.0,300.19068,5813.1822,0.0,0.0,0.0,0.0,-0.16467162794388762,0.0,-0.5203078982903915,-0.47045439243523357,-0.7762999327823383,-0.25416897464702476,-1.3290957602215385,-0.15524437439892685
16523,7.0,300.83786000000003,5960.0539,0.0,0.0,0.0,0.0,-0.16468159475347144,0.0,-0.5300486565367295,-0.5045468537798975,-0.7771120730024903,-0.2782497448011117,-1.329483531034809,-0.16827084940703985
16524,7.0,299.20516000000003,5683.8108,0.0,0.0,0.0,0.0,-0.16469156156305526,0.0,-0.5361625772426265,-0.45627998612382853,-0.7352939950778673,-0.25755662436885973,-1.3334042009717486,-0.16583238198138187
16525,7.0,300.15391,5501.0532,0.0,0.0,0.0,0.0,-0.1647015283726391,0.0,-0.5078990397482325,-0.43570049155779056,-0.7285832700630703,-0.2542915981741267,-1.3466492036289288,-0.17979604240448782
16526,7.0,300.56797,5519.7295,0.0,0.0,0.0,0.0,-0.1647114951822229,0.0,-0.5234984202052716,-0.4468274873984396,-0.7075340327506723,-0.24540842441492577,-1.3263404292246088,-0.2005510014903428
16527,7.0,299.89752999999996,5636.9422,0.0,0.0,0.0,0.0,-0.16472146199180673,0.0,-0.5232099073717975,-0.4236269782687276,-0.7666527887127393,-0.2161516485100068,-1.3302292831084088,-0.17747368330778884
16528,7.0,299.17095,5608.1198,0.0,0.0,0.0,0.0,-0.16473142880139052,0.0,-0.5174618712770105,-0.44458554996217764,-0.7426809632094042,-0.2229365332996228,-1.3011538688388886,-0.2018613770496668
16529,7.0,299.71531,5457.9281,0.0,0.0,0.0,0.0,-0.16474139561097437,0.0,-0.4883990719712355,-0.3997746656146876,-0.7709001102169172,-0.23663787340433975,-1.3063856844052288,-0.15975159455375487
16530,7.0,300.09791,5478.8258,0.0,0.0,0.0,0.0,-0.16475136242055818,0.0,-0.5106512803323575,-0.4262535150454466,-0.7285214415419683,-0.24981061106438776,-1.3330598985877686,-0.17846575648069882
16531,7.0,299.17354,5828.3566,0.0,0.0,0.0,0.0,-0.16476132923014203,0.0,-0.5184170621462805,-0.4750073405670746,-0.7782504594898402,-0.25886309891529874,-1.3514478547775188,-0.16361294882984084
16532,7.0,298.91468,5949.319,0.0,0.0,0.0,0.0,-0.16477129603972585,0.0,-0.5664502439317864,-0.4499375977853836,-0.7920565899198992,-0.25698794788273577,-1.3436670059346087,-0.15098539038609785
16533,7.0,299.81595,5809.8595,0.0,0.0,0.0,0.0,-0.16478126284930963,0.0,-0.5272754822055384,-0.4863016645292375,-0.7524750792060083,-0.25831401868610876,-1.3284561967584185,-0.13680005110611387
16534,7.0,300.36343,5620.0152,0.0,0.0,0.0,0.0,-0.16479122965889345,0.0,-0.4938409038858025,-0.4647541614801645,-0.7497492236544873,-0.26043873321830174,-1.3164513108986289,-0.16229756781502286
16535,7.0,299.57774,5587.7916,0.0,0.0,0.0,0.0,-0.1648011964684773,0.0,-0.4832170272498076,-0.45761266331785355,-0.7577194388085863,-0.2568302456371718,-1.3111805865284487,-0.16511955040353085
16536,7.0,299.94757999999996,5615.5486,0.0,0.0,0.0,0.0,-0.1648111632780611,0.0,-0.5235164256595485,-0.4439120223557056,-0.7395580960037014,-0.2280475491890408,-1.3222498372458988,-0.20775692209401178
16537,7.0,300.07641,5670.4416,0.0,0.0,0.0,0.0,-0.16482113008764496,0.0,-0.5322463352086235,-0.4337424870645506,-0.7576838129350703,-0.2282416575106978,-1.3350097970802088,-0.18886396205442182
16538,7.0,300.27371,5536.1473,0.0,0.0,0.0,0.0,-0.16483109689722875,0.0,-0.5061445769350805,-0.4375047150833536,-0.7392012394509823,-0.21498020980439478,-1.3340961494650387,-0.1962058608215108
16539,7.0,299.33927,5569.5740000000005,0.0,0.0,0.0,0.0,-0.16484106370681256,0.0,-0.5013254783994725,-0.45100418537064757,-0.7406817599670983,-0.23650897785911879,-1.3247231807399988,-0.18416325166049782
16540,7.0,298.52419,5787.9025,0.0,0.0,0.0,0.0,-0.16485103051639638,0.0,-0.5126023947249175,-0.4524137682472626,-0.7943616832348942,-0.23781961686346878,-1.3255301331196387,-0.18353930238141883
16541,7.0,299.21983,5871.1654,0.0,0.0,0.0,0.0,-0.16486099732598022,0.0,-0.5188065858822235,-0.48185233135262256,-0.7840287411001122,-0.25828815041105574,-1.3293986206764288,-0.16533643658743585
16542,7.0,299.52922,5800.1577,0.0,0.0,0.0,0.0,-0.16487096413556404,0.0,-0.5217660867743035,-0.47440082932221656,-0.7669362048982102,-0.26536124405911576,-1.3370834134098588,-0.16221913212478184
16543,7.0,300.18433999999996,5472.147,0.0,0.0,0.0,0.0,-0.16488093094514786,0.0,-0.4830304879063975,-0.4484748395435206,-0.7318907311719913,-0.25282279082916675,-1.3369394305706488,-0.17114666597336084
16544,7.0,300.96078,5471.513000000001,0.0,0.0,0.0,0.0,-0.16489089775473167,0.0,-0.5093625376626685,-0.4376180369745376,-0.7162227536831823,-0.26471577334791274,-1.3454305677336589,-0.15027235615822684
16545,7.0,300.85927999999996,5803.8977,0.0,0.0,0.0,0.0,-0.16490086456431552,0.0,-0.5588555291322465,-0.4387387422476426,-0.7666456959620394,-0.23441739660519578,-1.3365455802567787,-0.16102842140226784
16546,7.0,300.61942999999997,5875.9082,0.0,0.0,0.0,0.0,-0.1649108313738993,0.0,-0.5400371341675154,-0.4653251481765166,-0.7807671092932142,-0.26307188651817376,-1.3215040851722988,-0.14807395807876186
16547,7.0,300.01018999999997,5730.2779,0.0,0.0,0.0,0.0,-0.16492079818348315,0.0,-0.5197209225074615,-0.45248683371197357,-0.7696536302088993,-0.24139780826660875,-1.3068807584040887,-0.1967704539097318
16548,7.0,299.22174,5601.5830000000005,0.0,0.0,0.0,0.0,-0.16493076499306694,0.0,-0.49775976010506356,-0.43186589721684554,-0.7731157132830803,-0.2612774813860797,-1.3407853226502089,-0.16047670672281786
16549,7.0,299.19787,5721.3981,0.0,0.0,0.0,0.0,-0.1649407318026508,0.0,-0.5476725106935685,-0.44792670163692355,-0.7435629568914502,-0.21943629122667582,-1.3636730212090489,-0.19242313475318482
16550,7.0,300.43875,5893.4603,0.0,0.0,0.0,0.0,-0.1649506986122346,0.0,-0.5628929964082134,-0.45893775126862957,-0.7696340136869633,-0.24983706702449876,-1.3789401670907986,-0.15011499841769688
16551,7.0,299.4814,5671.2492,0.0,0.0,0.0,0.0,-0.16496066542181845,0.0,-0.5178073388986055,-0.46403305164899655,-0.7420777551598723,-0.2340846554048568,-1.3603859365596387,-0.16898017513954486
16552,7.0,300.8418,5526.0153,0.0,0.0,0.0,0.0,-0.16497063223140226,0.0,-0.48433618225025954,-0.4528016099880396,-0.7426328743596583,-0.2537275522409598,-1.3295642870677788,-0.17505572406415484
16553,7.0,301.44595,5539.3834,0.0,0.0,0.0,0.0,-0.16498059904098605,0.0,-0.4798902130639766,-0.4386415107680465,-0.7653025214969783,-0.2378201741510238,-1.3104176092031488,-0.15216070983959284
16554,7.0,300.64342999999997,5675.4748,0.0,0.0,0.0,0.0,-0.16499056585056987,0.0,-0.47202997607573155,-0.4752350381295466,-0.7779375982564632,-0.2638773696851688,-1.3249263373850486,-0.19701555910892182
16555,7.0,300.61273,5942.8983,0.0,0.0,0.0,0.0,-0.16500053266015371,0.0,-0.5440238072159694,-0.47050458884518753,-0.7919642828357893,-0.26615918864536675,-1.3244930716422887,-0.18839061213770583
16556,7.0,300.65187000000003,5728.1269999999995,0.0,0.0,0.0,0.0,-0.16501049946973753,0.0,-0.5370226137950055,-0.45988727806984053,-0.7442976746714614,-0.25399744153759574,-1.3628846113062387,-0.2203702342413488
16557,7.0,299.2995,5403.5505,0.0,0.0,0.0,0.0,-0.16502046627932138,0.0,-0.5048219410495466,-0.41379716547110057,-0.7239253188233663,-0.2400620305272778,-1.3683234338680088,-0.15920011292182784
16558,7.0,300.03746,5547.0325,0.0,0.0,0.0,0.0,-0.16503043308890517,0.0,-0.5144967975093805,-0.4292657353402296,-0.7423968276163623,-0.23936785288376777,-1.3680255383386088,-0.18808224973477283
16559,7.0,300.57547,5641.0172,0.0,0.0,0.0,0.0,-0.165040399898489,0.0,-0.5207317104097184,-0.44275643088165756,-0.7512402211766374,-0.2266698127630688,-1.3382428754992886,-0.17397870000286084
16560,7.0,299.9443,5677.056,0.0,0.0,0.0,0.0,-0.1650503667080728,0.0,-0.5041457992578164,-0.4459558389999146,-0.7755816296539473,-0.23297445753528875,-1.2973002760585688,-0.18264500784315882
16561,7.0,299.98683,5745.6249,0.0,0.0,0.0,0.0,-0.16506033351765664,0.0,-0.5262109616504784,-0.46299839157438355,-0.7573171582538842,-0.24494441666413178,-1.2923407207940987,-0.16023366855383184
16562,7.0,299.4527,5623.898,0.0,0.0,0.0,0.0,-0.16507030032724046,0.0,-0.5313996330275604,-0.46532882627437955,-0.7127961242300004,-0.25004000075452676,-1.3620558740494486,-0.17983842665617084
16563,7.0,299.25657,5768.0176,0.0,0.0,0.0,0.0,-0.16508026713682428,0.0,-0.5385569784214356,-0.45231475344749056,-0.7624615809990992,-0.2556670547873738,-1.3747044776977686,-0.17836533326328782
16564,7.0,299.70512,5855.0134,0.0,0.0,0.0,0.0,-0.1650902339464081,0.0,-0.5291284937234165,-0.4716833432165216,-0.7789660369754623,-0.2512789219167988,-1.3669105579285687,-0.1965749777004398
16565,7.0,298.57164,5640.1184,0.0,0.0,0.0,0.0,-0.16510020075599194,0.0,-0.5024149350394935,-0.4448731812680645,-0.7671670334034912,-0.2577504895104928,-1.3513955710723589,-0.16251969250194484
16566,7.0,299.12428,5492.2962,0.0,0.0,0.0,0.0,-0.16511016756557573,0.0,-0.4675096140671065,-0.44573166754779053,-0.7562796002839853,-0.2559526291955578,-1.3315866329423687,-0.17809810881441482
16567,7.0,299.84069,5672.8802,0.0,0.0,0.0,0.0,-0.16512013437515957,0.0,-0.4964940688751496,-0.46166493417778154,-0.7662549259284732,-0.24734810934635776,-1.3171279593154088,-0.16964918365057083
16568,7.0,301.01725,5825.7443,0.0,0.0,0.0,0.0,-0.16513010118474336,0.0,-0.5565508613822935,-0.4416904107164496,-0.7726395363985852,-0.22942134407212378,-1.3164230412208386,-0.19015262366410282
16569,7.0,300.71823,5737.6656,0.0,0.0,0.0,0.0,-0.1651400679943272,0.0,-0.5465529098630725,-0.4391618146943966,-0.7583923584649983,-0.24921361423796876,-1.3305742947674588,-0.14744827614201186
16570,7.0,300.27808,5412.2767,0.0,0.0,0.0,0.0,-0.16515003480391102,0.0,-0.49635970177938854,-0.42261708202655857,-0.7262201783123513,-0.2532651251603218,-1.3653161075712088,-0.17942017727989282
16571,7.0,300.31192000000004,5706.6013,0.0,0.0,0.0,0.0,-0.16516000161349487,0.0,-0.5130936791684035,-0.4329173671106176,-0.7886532449540152,-0.2539641360068087,-1.3656224130764385,-0.16304840640412482
16572,7.0,300.52171,6019.7743,0.0,0.0,0.0,0.0,-0.16516996842307868,0.0,-0.5278185943916396,-0.5024895305118555,-0.7995529383997313,-0.23787355216629175,-1.3309210289516786,-0.1976121607678018
16573,7.0,298.98431,5801.2784,0.0,0.0,0.0,0.0,-0.16517993523266247,0.0,-0.5303813774720665,-0.44006028382306855,-0.7930021143832152,-0.23832260434560978,-1.3327496414071487,-0.15226020086691186
16574,7.0,299.26793,5558.8096,0.0,0.0,0.0,0.0,-0.1651899020422463,0.0,-0.5016866108676136,-0.4487438371800686,-0.7393088770091053,-0.25031269675393975,-1.3493504270705188,-0.17413888471116987
16575,7.0,298.84797000000003,5317.5694,0.0,0.0,0.0,0.0,-0.16519986885183013,0.0,-0.5104456817545665,-0.3956850970185786,-0.7102775492514363,-0.24694075240865476,-1.3392629143749588,-0.16490107341696883
16576,7.0,299.53544,5594.9063,0.0,0.0,0.0,0.0,-0.16520983566141395,0.0,-0.5289837408141305,-0.4207574945155316,-0.7509705851925262,-0.22858975958255276,-1.3367692045538488,-0.17236344762094785
16577,7.0,299.29537999999997,5889.2168,0.0,0.0,0.0,0.0,-0.1652198024709978,0.0,-0.5560568918260425,-0.44912992599817253,-0.7849880356322873,-0.24784824959571777,-1.3260700940979286,-0.16381770641004884
16578,7.0,298.96327,5667.9197,0.0,0.0,0.0,0.0,-0.16522976928058158,0.0,-0.4882946362834285,-0.44997825951189657,-0.7846331853147662,-0.27749125617375475,-1.3328804519950588,-0.15614217478253287
16579,7.0,300.33002999999997,5452.0406,0.0,0.0,0.0,0.0,-0.16523973609016543,0.0,-0.4869952747526915,-0.4292102092347496,-0.7410787310912763,-0.2621790206625548,-1.3252779351697488,-0.17076437684313184
16580,7.0,301.01758,5586.3046,0.0,0.0,0.0,0.0,-0.16524970289974922,0.0,-0.5275189662045685,-0.44629770958365456,-0.7242804427184144,-0.23637025378792778,-1.2978577662635886,-0.15963432098718086
16581,7.0,300.40041,5831.5231,0.0,0.0,0.0,0.0,-0.16525966970933306,0.0,-0.5663002829169864,-0.4426174838954446,-0.7637196221907583,-0.2181944113741118,-1.3175419733062688,-0.16335433700681784
16582,7.0,300.43287000000004,5730.4018,0.0,0.0,0.0,0.0,-0.16526963651891688,0.0,-0.5351524783504376,-0.45222003482814255,-0.7545265560209733,-0.24319704660167973,-1.374658982768279,-0.17570455876568983
16583,7.0,299.8956,5375.8379,0.0,0.0,0.0,0.0,-0.1652796033285007,0.0,-0.4600062741615845,-0.44104186985744354,-0.7330723327761063,-0.22907158027010477,-1.3590944479821787,-0.2023623886941128
16584,7.0,299.66305,5414.0896,0.0,0.0,0.0,0.0,-0.1652895701380845,0.0,-0.4795530743582035,-0.4465524001287906,-0.7196425842281934,-0.22812590381927378,-1.3286400003265588,-0.17581149718124384
16585,7.0,299.26099999999997,5660.7078,0.0,0.0,0.0,0.0,-0.16529953694766836,0.0,-0.4952186099142715,-0.4538413363131526,-0.7716538669663072,-0.2369509372877368,-1.306331475524879,-0.16556448878744284
16586,7.0,298.90472,5620.4974,0.0,0.0,0.0,0.0,-0.16530950375725215,0.0,-0.49936036089053054,-0.4415430638869076,-0.7675874308699813,-0.28759325834574473,-1.3288916916513986,-0.15402788659386885
16587,7.0,300.02223,5496.0131,0.0,0.0,0.0,0.0,-0.16531947056683596,0.0,-0.49977178096113456,-0.4295065240939936,-0.7413724520302643,-0.26327408057562873,-1.3159332361224987,-0.1739026657153568
16588,7.0,299.9668,5633.0542,0.0,0.0,0.0,0.0,-0.16532943737641978,0.0,-0.5265826015221565,-0.4442665383006936,-0.7414586694812734,-0.25871928832860575,-1.3234967428189588,-0.17740498495100882
16589,7.0,299.45652,5748.0358,0.0,0.0,0.0,0.0,-0.16533940418600362,0.0,-0.5282230129040525,-0.44194273025635156,-0.7770936318506703,-0.21313924583020577,-1.3414516359159687,-0.17555401006583182
16590,7.0,300.10447999999997,6030.3137,0.0,0.0,0.0,0.0,-0.16534937099558744,0.0,-0.5640694912318245,-0.48650791158709256,-0.7824873850479922,-0.23990292999657578,-1.3752661222281986,-0.18895417171082482
16591,7.0,299.52711,6048.2345,0.0,0.0,0.0,0.0,-0.16535933780517126,0.0,-0.5591409312879134,-0.47056606272875456,-0.8088052695678652,-0.2197713527697438,-1.3247688783195088,-0.16766071072682384
16592,7.0,299.70829,5735.1997,0.0,0.0,0.0,0.0,-0.1653693046147551,0.0,-0.5079744559531756,-0.47868057482959453,-0.7567024802132203,-0.23838092702136576,-1.3098029716924888,-0.15953259067714085
16593,7.0,300.30136,5455.6489,0.0,0.0,0.0,0.0,-0.1653792714243389,0.0,-0.47912634407858856,-0.44042995798955253,-0.7388247258463233,-0.23454729526801577,-1.3276583636296788,-0.14948271009029487
16594,7.0,299.57878,5681.1814,0.0,0.0,0.0,0.0,-0.1653892382339227,0.0,-0.5099776108708715,-0.4341168829765006,-0.7828428027855693,-0.26741762500456473,-1.3511260465457589,-0.15975368184896085
16595,7.0,300.14066,5879.0391,0.0,0.0,0.0,0.0,-0.16539920504350653,0.0,-0.5340648658255985,-0.4526808103111175,-0.8003354207894563,-0.24869479978926573,-1.3581325696622488,-0.17070542595231383
16596,7.0,300.7606,5654.7486,0.0,0.0,0.0,0.0,-0.16540917185309037,0.0,-0.5350689358796925,-0.4262877122363216,-0.7575457170789412,-0.2288486044530988,-1.3379785185481987,-0.16265970340076283
16597,7.0,299.81273,5528.1616,0.0,0.0,0.0,0.0,-0.1654191386626742,0.0,-0.4884508693163475,-0.44402667160452064,-0.7479455371514773,-0.23203256050733076,-1.3232378574184087,-0.16310937366264186
16598,7.0,300.04955,5717.2103,0.0,0.0,0.0,0.0,-0.165429105472258,0.0,-0.5226983376613095,-0.46202541816585857,-0.7531654267641403,-0.24227318542550177,-1.3212010220673887,-0.16431600254422685
16599,7.0,299.20114,6074.0188,0.0,0.0,0.0,0.0,-0.16543907228184185,0.0,-0.5329630272693555,-0.5079993211106295,-0.8053876985705772,-0.23304975215021978,-1.308665801105259,-0.19892210062958282
16600,7.0,298.04966,6001.0918,0.0,0.0,0.0,0.0,-0.16544903909142564,0.0,-0.5604966903192165,-0.4903488387411625,-0.7733365308773733,-0.2246589875421158,-1.323034700773359,-0.19256334830202282
16601,7.0,299.55259,5749.2534,0.0,0.0,0.0,0.0,-0.16545900590100945,0.0,-0.5263804885247094,-0.45052920412127057,-0.7707197719641192,-0.24268757431889879,-1.3638885395053186,-0.19261746598986382
16602,7.0,300.50236,5428.3336,0.0,0.0,0.0,0.0,-0.1654689727105933,0.0,-0.5152606664947684,-0.42095801671032157,-0.7138591654399143,-0.22975794575534378,-1.4012780761453787,-0.1890032130156648
16603,7.0,299.67847,5440.0318,0.0,0.0,0.0,0.0,-0.16547893952017712,0.0,-0.48424491881375253,-0.4224009355152266,-0.7469879752769732,-0.23355142240723079,-1.3665162009896488,-0.18591493816837584
16604,7.0,299.64552000000003,5774.8192,0.0,0.0,0.0,0.0,-0.16548890632976093,0.0,-0.5451842622904974,-0.4329110950924986,-0.7773054821815782,-0.22900971121899877,-1.3232853788480987,-0.14737376172965785
16605,7.0,300.54348,5766.5799,0.0,0.0,0.0,0.0,-0.16549887313934472,0.0,-0.4780763332649606,-0.47834380089385753,-0.7964761740735783,-0.27084612897043175,-1.3222797281238488,-0.16132016650356085
16606,7.0,300.36927000000003,5607.0273,0.0,0.0,0.0,0.0,-0.16550883994892857,0.0,-0.5081101706715695,-0.44505280011329157,-0.7512333209434563,-0.2517754347308008,-1.3241123935797188,-0.16835678314802086
16607,7.0,301.11918,6010.7958,0.0,0.0,0.0,0.0,-0.16551880675851238,0.0,-0.5380485497862575,-0.4928505025755575,-0.7962327711345563,-0.25312957256194374,-1.305679651735549,-0.18190427135755383
16608,7.0,300.50132,6064.2812,0.0,0.0,0.0,0.0,-0.1655287735680962,0.0,-0.5963630891439544,-0.4652337428849956,-0.7817932175369833,-0.21443710775079478,-1.3507028119789886,-0.18070933538212283
16609,7.0,300.36099,5886.6949,0.0,0.0,0.0,0.0,-0.16553874037768002,0.0,-0.5486492635249665,-0.4522273200963616,-0.7885316853395182,-0.25264575577169474,-1.363895733581029,-0.16975880717888983
16610,7.0,300.70615,5764.3168,0.0,0.0,0.0,0.0,-0.16554870718726386,0.0,-0.5404370842469874,-0.4418531792125136,-0.7699181188825023,-0.2554820049216107,-1.3836066904263487,-0.15848178952843484
16611,7.0,300.34888,5635.5908,0.0,0.0,0.0,0.0,-0.16555867399684768,0.0,-0.5095046966516985,-0.4284200768067696,-0.7751541090392543,-0.24798635558434776,-1.3366034368374886,-0.14294721654779186
16612,7.0,298.63304,5475.4572,0.0,0.0,0.0,0.0,-0.16556864080643152,0.0,-0.5146535675648526,-0.4231506291317156,-0.7265980699371464,-0.22830735664718177,-1.3071456219802289,-0.14937402888456885
16613,7.0,299.54672999999997,5625.8877,0.0,0.0,0.0,0.0,-0.16557860761601528,0.0,-0.5274290402581935,-0.44794104925833955,-0.7347592827350954,-0.2256797964878618,-1.3189868679488685,-0.18422112850620984
16614,7.0,300.18719,5701.0731,0.0,0.0,0.0,0.0,-0.16558857442559913,0.0,-0.5418045665819475,-0.4436329732781656,-0.7475463267445783,-0.24842352233999276,-1.3467935917681788,-0.19938559162282582
16615,7.0,299.74683999999996,5474.9843,0.0,0.0,0.0,0.0,-0.16559854123518294,0.0,-0.5005694823673615,-0.43980054729243456,-0.7238884871822313,-0.24492619842733376,-1.3308286205425588,-0.2121238172424908
16616,7.0,299.60445,5561.6238,0.0,0.0,0.0,0.0,-0.1656085080447668,0.0,-0.49198600772273854,-0.4360350667408106,-0.7625736869901634,-0.2501835782936968,-1.3563755939888487,-0.17720232479850784
16617,7.0,300.1419,5905.0208,0.0,0.0,0.0,0.0,-0.1656184748543506,0.0,-0.5077102509896005,-0.4692526778166336,-0.8180159662893902,-0.2465837843984248,-1.3499675977064287,-0.1882582107471388
16618,7.0,301.41447999999997,5920.9369,0.0,0.0,0.0,0.0,-0.16562844166393442,0.0,-0.5191808399391595,-0.4752919321226616,-0.8053441997437842,-0.28062501581803273,-1.3525636457876387,-0.17174157550457383
16619,7.0,301.25187999999997,5708.6272,0.0,0.0,0.0,0.0,-0.1656384084735182,0.0,-0.4973496673920905,-0.45319929038728757,-0.7847311665994362,-0.23964218021584174,-1.3157882400331886,-0.21323986156513583
16620,7.0,300.54337999999996,5664.2115,0.0,0.0,0.0,0.0,-0.16564837528310206,0.0,-0.5345922219726446,-0.43795789119057854,-0.7492287373431192,-0.24337687822942775,-1.3288757836248288,-0.17235792540790282
16621,7.0,299.83288,5611.5322,0.0,0.0,0.0,0.0,-0.16565834209268587,0.0,-0.5177087901938795,-0.4360218438270056,-0.7520350348200794,-0.2382195466779388,-1.3266928376093885,-0.19411079398724382
16622,7.0,299.75206000000003,5874.548000000001,0.0,0.0,0.0,0.0,-0.16566830890226972,0.0,-0.5382986908384445,-0.45137422430716756,-0.7960429792583252,-0.25094701158154176,-1.3396483547129987,-0.14030809520483087
16623,7.0,299.59368,5928.4127,0.0,0.0,0.0,0.0,-0.1656782757118535,0.0,-0.5448099271735535,-0.4544554874637646,-0.8028239934325592,-0.24247119476004375,-1.3063062455973886,-0.15281211819638185
16624,7.0,299.78046,5663.3828,0.0,0.0,0.0,0.0,-0.16568824252143735,0.0,-0.5342421237980924,-0.41524412714390463,-0.7720407157219863,-0.24515223425964175,-1.3193472810094387,-0.12761328735195088
16625,7.0,300.6094,5667.6914,0.0,0.0,0.0,0.0,-0.16569820933102114,0.0,-0.5136703198003135,-0.4307324857874866,-0.7784338476254392,-0.2515681642903448,-1.3239508815137788,-0.17357200167772285
16626,7.0,301.36446,5960.3023,0.0,0.0,0.0,0.0,-0.16570817614060498,0.0,-0.5796308950751154,-0.4609890659635786,-0.7711631195453743,-0.2461082255964908,-1.3582830373020987,-0.17111902451063285
16627,7.0,301.44434,6074.3158,0.0,0.0,0.0,0.0,-0.1657181429501888,0.0,-0.5884869137316364,-0.47239190901145156,-0.7855614946588833,-0.2502389625441627,-1.3397190795699787,-0.18587834970726483
16628,7.0,301.00718,5819.6639,0.0,0.0,0.0,0.0,-0.16572810975977262,0.0,-0.5315359455635135,-0.45438981872478357,-0.7831067645691202,-0.24151298440547575,-1.3481034201724489,-0.17622148856920683
16629,7.0,301.10513,5523.3964,0.0,0.0,0.0,0.0,-0.16573807656935644,0.0,-0.4877166682938875,-0.43152701572090063,-0.7597309023771023,-0.24340563426726577,-1.3249766959150189,-0.16292074702402584
16630,7.0,300.45333,5528.0094,0.0,0.0,0.0,0.0,-0.16574804337894028,0.0,-0.47681609332058456,-0.4360484517746316,-0.7675122882425652,-0.24319967091943878,-1.3338019016359988,-0.17243382797289383
16631,7.0,300.40869,5586.9176,0.0,0.0,0.0,0.0,-0.1657580101885241,0.0,-0.48393466163313253,-0.44757994718770155,-0.7667688362466922,-0.2259658268585908,-1.3116602591257887,-0.17825231534713384
16632,7.0,300.16829,5726.3338,0.0,0.0,0.0,0.0,-0.16576797699810794,0.0,-0.5452614010206105,-0.46630205299542954,-0.7290990346289723,-0.23139645222705177,-1.3358409661372386,-0.18401309812817881
16633,7.0,299.65367000000003,5684.3777,0.0,0.0,0.0,0.0,-0.1657779438076917,0.0,-0.5276707915995524,-0.46014762255053454,-0.7400904778712433,-0.25569165649980174,-1.3475871692464987,-0.1970457944919058
16634,7.0,299.76574,5411.4796,0.0,0.0,0.0,0.0,-0.16578791061727555,0.0,-0.49257562808842953,-0.44619286859580753,-0.7061861669376484,-0.2242763944368568,-1.3655675962460287,-0.19343531080807883
16635,7.0,299.77786000000003,5547.3793,0.0,0.0,0.0,0.0,-0.16579787742685936,0.0,-0.47137606499119555,-0.45758593378021556,-0.7573027701024643,-0.25276586643854876,-1.3511093279191086,-0.17122656074374584
16636,7.0,299.08243,5803.8584,0.0,0.0,0.0,0.0,-0.1658078442364432,0.0,-0.5297527368450244,-0.4491265518753396,-0.7853487526678873,-0.2216696464345908,-1.3474707468100087,-0.14570849532280886
16637,7.0,299.87056,5795.2173,0.0,0.0,0.0,0.0,-0.16581781104602702,0.0,-0.4833516577905946,-0.4883254289539676,-0.7899242557469542,-0.27241023248729673,-1.3362707868296588,-0.2025961556246838
16638,7.0,300.70115,5706.8815,0.0,0.0,0.0,0.0,-0.16582777785561084,0.0,-0.5369105382014445,-0.46847732870761255,-0.7293616183923873,-0.2530948788785198,-1.3314640296802687,-0.16585082313320185
16639,7.0,300.26476,5860.5961,0.0,0.0,0.0,0.0,-0.16583774466519463,0.0,-0.5346415672525145,-0.47682537469150055,-0.7700079333713663,-0.25594623558742674,-1.3580326632023887,-0.19837424643301382
16640,7.0,300.06222,5919.6159,0.0,0.0,0.0,0.0,-0.16584771147477848,0.0,-0.5506555797829744,-0.45295936289610855,-0.7958004781118923,-0.25262554143219973,-1.3492949009650386,-0.15937670214925584
16641,7.0,301.07491,5838.0227,0.0,0.0,0.0,0.0,-0.1658576782843623,0.0,-0.5340215189863204,-0.4596106303950376,-0.7809809861243223,-0.25504567916354876,-1.3577682049262887,-0.15559475628350686
16642,7.0,299.57104,5586.5102,0.0,0.0,0.0,0.0,-0.16586764509394614,0.0,-0.4842965844363515,-0.4374026706657826,-0.7764603505381703,-0.2201931991838768,-1.3276911929329187,-0.15805477553879185
16643,7.0,300.12182,5568.2356,0.0,0.0,0.0,0.0,-0.16587761190352993,0.0,-0.5172656148651414,-0.4279434439597296,-0.7473955348646962,-0.2103057121905578,-1.3152843507584588,-0.14150446999540386
16644,7.0,300.4563,5753.0416,0.0,0.0,0.0,0.0,-0.16588757871311377,0.0,-0.5694662841794464,-0.43205822221832657,-0.7472564662884713,-0.22891160834431679,-1.3300439596651186,-0.15235923593168585
16645,7.0,299.98022000000003,6087.3381,0.0,0.0,0.0,0.0,-0.1658975455226976,0.0,-0.5590488876488295,-0.49272784865095254,-0.7986220351353582,-0.23689068943679076,-1.3139638832281386,-0.18792871194711985
16646,7.0,299.38096,5924.6977,0.0,0.0,0.0,0.0,-0.16590751233228143,0.0,-0.5351033661180905,-0.47305070396146953,-0.7928061011513703,-0.2538411173121678,-1.3419865306437588,-0.2045314937131868
16647,7.0,300.63791000000003,5580.2742,0.0,0.0,0.0,0.0,-0.16591747914186522,0.0,-0.4931869928012665,-0.4411316032862996,-0.7619454212656582,-0.25657743973722175,-1.358075118381579,-0.18397321660424282
16648,7.0,300.14456,5696.8105,0.0,0.0,0.0,0.0,-0.16592744595144904,0.0,-0.49272799050596655,-0.46251253815143356,-0.7764476241169143,-0.2426528603704728,-1.3581334815873385,-0.1873589614158898
16649,7.0,299.80978999999996,5775.4762,0.0,0.0,0.0,0.0,-0.16593741276103285,0.0,-0.5209530042315584,-0.4557406837581036,-0.7789068530371213,-0.25761240378686473,-1.3327275525549687,-0.16256255298117486
16650,7.0,299.08162999999996,5630.9924,0.0,0.0,0.0,0.0,-0.1659473795706167,0.0,-0.5074805066619265,-0.48027115457157254,-0.7239294326187723,-0.2521760636878398,-1.3148321372388287,-0.19472730601058882
16651,7.0,298.30794,5343.6019,0.0,0.0,0.0,0.0,-0.16595734638020052,0.0,-0.4558330719022216,-0.4189081408305146,-0.7495803351278192,-0.24663057628804275,-1.3352784096817185,-0.1898927959409598
16652,7.0,298.18834,5366.7182,0.0,0.0,0.0,0.0,-0.16596731318978436,0.0,-0.5043968117050895,-0.42454991738731457,-0.7024016068866413,-0.25395683047358775,-1.3393327273068487,-0.16877578232937285
16653,7.0,299.1107,5692.679,0.0,0.0,0.0,0.0,-0.16597727999936812,0.0,-0.5198789388605565,-0.4507443373825025,-0.7598089935623092,-0.2364172280625638,-1.3387577078750987,-0.1833152119893028
16654,7.0,299.26783,5912.7249,0.0,0.0,0.0,0.0,-0.16598724680895197,0.0,-0.5472633400381864,-0.4631575022375866,-0.7868998865834723,-0.21595158227776176,-1.336640623116159,-0.15792124944061386
16655,7.0,299.44154,5865.9313,0.0,0.0,0.0,0.0,-0.16599721361853578,0.0,-0.5322190078534265,-0.4679326257188546,-0.7829450093231562,-0.2289111321167698,-1.3341888618491886,-0.16678322600772286
16656,7.0,299.2129,5753.1245,0.0,0.0,0.0,0.0,-0.16600718042811963,0.0,-0.5243450818563306,-0.4219728880104816,-0.8024882327469222,-0.24381871606803374,-1.3500326483628486,-0.14297379409791486
16657,7.0,300.77986,5925.0608,0.0,0.0,0.0,0.0,-0.16601714723770344,0.0,-0.5264737176664105,-0.47365739759134556,-0.8009394191740662,-0.24337220714646673,-1.3264436794097987,-0.1970458958169158
16658,7.0,299.82556,6150.1265,0.0,0.0,0.0,0.0,-0.16602711404728726,0.0,-0.5784926808402825,-0.4866512966087435,-0.8043408997597663,-0.26527764079336474,-1.3288473112970187,-0.16619399067706986
16659,7.0,299.97561,5827.9613,0.0,0.0,0.0,0.0,-0.16603708085687105,0.0,-0.5225918045457955,-0.44553306039568963,-0.8034298359323513,-0.24678406341319079,-1.3311197272962887,-0.16912770435410485
16660,7.0,300.4332,5359.4093,0.0,0.0,0.0,0.0,-0.1660470476664549,0.0,-0.4900407296507545,-0.4207463994269366,-0.7183394838045873,-0.25331333560007974,-1.3452823292440288,-0.15644392066231283
16661,7.0,300.5521,5480.5107,0.0,0.0,0.0,0.0,-0.1660570144760387,0.0,-0.5124238904548005,-0.4149967117344866,-0.7385177921260313,-0.2312772838827908,-1.3206449504125088,-0.15175220792927685
16662,7.0,300.60357,5842.2634,0.0,0.0,0.0,0.0,-0.16606698128562256,0.0,-0.5371423900893265,-0.4679617566592295,-0.7707980556668452,-0.23501564986173876,-1.3331406546207385,-0.17546373961442283
16663,7.0,301.33511,5922.2947,0.0,0.0,0.0,0.0,-0.16607694809520634,0.0,-0.5205976675539895,-0.5079553055262855,-0.7716767258885633,-0.25868875910309275,-1.3454555950111289,-0.18512650800056382
16664,7.0,299.75135,5716.8578,0.0,0.0,0.0,0.0,-0.1660869149047902,0.0,-0.5182378789985965,-0.46120616493000455,-0.7583379874646323,-0.23901467442891178,-1.3597152663184486,-0.18975770943762782
16665,7.0,300.03565,5708.6778,0.0,0.0,0.0,0.0,-0.166096881714374,0.0,-0.4996277677244216,-0.4809327055618626,-0.7547350119640462,-0.22968511333815578,-1.3340385968593589,-0.18367663829997283
16666,7.0,300.48876,5752.6286,0.0,0.0,0.0,0.0,-0.16610684852395785,0.0,-0.5288441352153525,-0.46797321651786056,-0.7518380893981423,-0.20226038480654582,-1.3311080749201387,-0.1947422615820648
16667,7.0,299.78661,5696.0843,0.0,0.0,0.0,0.0,-0.16611681533354164,0.0,-0.5285698889432865,-0.4185501393051826,-0.7843473474615563,-0.23441437711989777,-1.3596863886905985,-0.14154997505739486
16668,7.0,299.51062,5639.5447,0.0,0.0,0.0,0.0,-0.16612678214312546,0.0,-0.48527673165558455,-0.4536142568332416,-0.7753897808800133,-0.23663115555617675,-1.3474237320053688,-0.1812104382190778
16669,7.0,299.80143,5550.7537,0.0,0.0,0.0,0.0,-0.16613674895270927,0.0,-0.49880675143339354,-0.4091877083811826,-0.7792960727980343,-0.2635323985561227,-1.3286090961985089,-0.15516715460880584
16670,7.0,299.45832,5695.6322,0.0,0.0,0.0,0.0,-0.16614671576229312,0.0,-0.5094190770182485,-0.4669396304883536,-0.7549712714898632,-0.26093126395941074,-1.3149534232757987,-0.17823252657268082
16671,7.0,300.81399,6156.2119999999995,0.0,0.0,0.0,0.0,-0.16615668257187693,0.0,-0.5631764531236885,-0.5017816131969896,-0.8063766408006783,-0.24476565908148976,-1.3352514572290588,-0.17238410779048685
16672,7.0,300.17259,6125.8767,0.0,0.0,0.0,0.0,-0.16616664938146078,0.0,-0.5976742651708574,-0.4833935050197245,-0.7810457936007182,-0.2511638876329458,-1.3515107776087287,-0.16083221565290384
16673,7.0,300.39282000000003,5860.1653,0.0,0.0,0.0,0.0,-0.16617661619104454,0.0,-0.5277339778757886,-0.48327167182770053,-0.7703382630364674,-0.2265715376358698,-1.3536545108452989,-0.16841364674363285
16674,7.0,300.79918,5660.1046,0.0,0.0,0.0,0.0,-0.16618658300062839,0.0,-0.5258755556023764,-0.43461953608610854,-0.7600353738996513,-0.23035267290153877,-1.3506041214192486,-0.17139100110247482
16675,7.0,301.00374,5642.8227,0.0,0.0,0.0,0.0,-0.1661965498102122,0.0,-0.5190588851571235,-0.43542440117054254,-0.7607939233220143,-0.25278594905553076,-1.3539357890730588,-0.16166263490485985
16676,7.0,299.92651,5562.0815,0.0,0.0,0.0,0.0,-0.16620651661979605,0.0,-0.5011854269706505,-0.44270862574193964,-0.7468398279798523,-0.2366277307708388,-1.3497367793336488,-0.1812407343970678
16677,7.0,299.75467000000003,5528.5926,0.0,0.0,0.0,0.0,-0.16621648342937986,0.0,-0.4855044190855555,-0.4453720245572966,-0.7496776679324253,-0.2161718020544958,-1.3299732348081386,-0.18160383257040283
16678,7.0,299.12517,5524.1264,0.0,0.0,0.0,0.0,-0.16622645023896368,0.0,-0.5344830645393716,-0.43311113092724063,-0.7116023028296794,-0.22880030282083177,-1.3373442239855986,-0.19436280955211582
16679,7.0,299.87472,5688.918000000001,0.0,0.0,0.0,0.0,-0.16623641704854747,0.0,-0.5084796725855365,-0.44456131301978563,-0.7762480442447173,-0.2532455896983937,-1.3827898081957286,-0.17057184919163085
16680,7.0,299.93436,5834.7455,0.0,0.0,0.0,0.0,-0.1662463838581313,0.0,-0.5261861066255255,-0.47684647055858254,-0.7705843814857573,-0.24693893869097577,-1.3741744465704586,-0.1935028743247468
16681,7.0,299.86168,5942.6102,0.0,0.0,0.0,0.0,-0.16625635066771513,0.0,-0.5371347805810756,-0.4862820480073015,-0.7829882953674283,-0.25424367144439675,-1.3374880041747887,-0.16866983689891682
16682,7.0,298.55644,5806.7862,0.0,0.0,0.0,0.0,-0.16626631747729897,0.0,-0.5122001243027166,-0.4666415424414346,-0.7862763324719323,-0.2236755371275568,-1.3310936867687186,-0.19889187537909983
16683,7.0,299.5142,5648.6556,0.0,0.0,0.0,0.0,-0.16627628428688276,0.0,-0.5047312247680935,-0.4508130256067816,-0.7615060152272922,-0.26319208837753677,-1.3300672644174187,-0.16989243460207784
16684,7.0,300.64113,5725.4325,0.0,0.0,0.0,0.0,-0.1662862510964666,0.0,-0.5417637022054145,-0.4576764676766506,-0.7409483460684083,-0.2725311942842347,-1.3319137100746488,-0.17686041368476382
16685,7.0,300.89218,5650.8873,0.0,0.0,0.0,0.0,-0.16629621790605043,0.0,-0.5099438088475355,-0.43507718062627454,-0.7727076572028082,-0.22721807225967777,-1.3259411073601988,-0.17131852332282185
16686,7.0,301.59047999999996,5549.9266,0.0,0.0,0.0,0.0,-0.16630618471563427,0.0,-0.5034470721213575,-0.43883601425724256,-0.7447560082216953,-0.26373982098409376,-1.3619649855154787,-0.1773968890827098
16687,7.0,299.74122,5503.77,0.0,0.0,0.0,0.0,-0.16631615152521806,0.0,-0.5039532108113095,-0.38992556053515665,-0.7791298795166323,-0.2401261996561108,-1.3821953343620588,-0.16200820385146486
16688,7.0,300.15656,5803.0612,0.0,0.0,0.0,0.0,-0.16632611833480188,0.0,-0.5034209100037755,-0.46013262644905456,-0.8004321557765033,-0.27123477117878775,-1.3711527321222385,-0.17172941650337384
16689,7.0,300.46576,5867.5507,0.0,0.0,0.0,0.0,-0.1663360851443857,0.0,-0.5399088364398534,-0.4545625677343325,-0.7891174958848333,-0.23012399248646978,-1.3372527275015686,-0.18106721531744283
16690,7.0,300.30346000000003,6000.7027,0.0,0.0,0.0,0.0,-0.16634605195396954,0.0,-0.5882783361985514,-0.4642167640246276,-0.7715686728978992,-0.2546762380445877,-1.332644364721759,-0.15532883892726285
16691,7.0,299.32961,6023.2469,0.0,0.0,0.0,0.0,-0.16635601876355335,0.0,-0.5781292888244184,-0.4702997907349755,-0.7824875674330102,-0.24595429264129876,-1.3557805122051185,-0.1836447411868248
16692,7.0,299.62332999999995,5723.9404,0.0,0.0,0.0,0.0,-0.16636598557313714,0.0,-0.5520738867429505,-0.43222135548442653,-0.7556397125808333,-0.26927030214990977,-1.3541766386218288,-0.15539417329371086
16693,7.0,299.58211,5700.0564,0.0,0.0,0.0,0.0,-0.16637595238272096,0.0,-0.5028436512893045,-0.4624088117386966,-0.7674223622961902,-0.24453433408365977,-1.3406614021629788,-0.18446023526480784
16694,7.0,300.75466,5755.5595,0.0,0.0,0.0,0.0,-0.1663859191923048,0.0,-0.4831736297480245,-0.47826394665347655,-0.7881087851452813,-0.24378520788722674,-1.3422053926653588,-0.1970026097726438
16695,7.0,300.7255,5597.5244,0.0,0.0,0.0,0.0,-0.16639588600188862,0.0,-0.5123172864117795,-0.4305268264146896,-0.7586635244567602,-0.23211012480248577,-1.3445221890190089,-0.17450593455989483
16696,7.0,300.69726,5567.9517,0.0,0.0,0.0,0.0,-0.16640585281147244,0.0,-0.5022810644362815,-0.4549193837570476,-0.7353178267202193,-0.2610302483616797,-1.3247818479207887,-0.18454827656599682
16697,7.0,300.55062999999996,5536.1751,0.0,0.0,0.0,0.0,-0.16641581962105628,0.0,-0.5136962792678754,-0.43226641471637356,-0.7368963082560033,-0.2356914978109398,-1.3303675917470588,-0.18443952443276382
16698,7.0,300.13292,5553.3566,0.0,0.0,0.0,0.0,-0.1664257864306401,0.0,-0.5123716067496406,-0.43780216478270956,-0.7379079776858473,-0.25072341768197476,-1.3541739028465587,-0.18427562109658782
16699,7.0,300.68543,5890.2216,0.0,0.0,0.0,0.0,-0.1664357532402239,0.0,-0.5379355217376025,-0.46999019216692056,-0.7825545533971212,-0.21727414723578878,-1.3735885853626386,-0.16543835941499482
16700,7.0,299.82079,6112.0825,0.0,0.0,0.0,0.0,-0.16644572004980773,0.0,-0.5247438565656865,-0.5106799249126845,-0.8224966595566002,-0.24668285999320275,-1.3827761293193788,-0.17762900441561782
16701,7.0,299.89408,6006.5588,0.0,0.0,0.0,0.0,-0.16645568685939155,0.0,-0.5681881806358074,-0.4815122744865616,-0.7761434363043933,-0.2542043472080157,-1.3440516356725687,-0.14631405411257287
16702,7.0,299.89907,5778.308000000001,0.0,0.0,0.0,0.0,-0.16646565366897537,0.0,-0.5203327533153445,-0.47594081748670153,-0.7601877565821903,-0.25270444321748675,-1.3388370453579288,-0.16915233646403585
16703,7.0,299.30012999999997,5675.6505,0.0,0.0,0.0,0.0,-0.16647562047855918,0.0,-0.5380883198526825,-0.4365541142370366,-0.7506135969172943,-0.2566787444822198,-1.3201757142911987,-0.13304801638331687
16704,7.0,300.11654,5727.7597,0.0,0.0,0.0,0.0,-0.16648558728814303,0.0,-0.5501636873894284,-0.44295132953839256,-0.7479809097124683,-0.24901935392879676,-1.3134539144528088,-0.16416430887175584
16705,7.0,301.12486,5733.1506,0.0,0.0,0.0,0.0,-0.16649555409772684,0.0,-0.4881985903064496,-0.46116060920550855,-0.7933754159850572,-0.24232440521805676,-1.3433109498494686,-0.17441026348545283
16706,7.0,301.57527999999996,5681.2298,0.0,0.0,0.0,0.0,-0.16650552090731063,0.0,-0.4857527160225605,-0.4475843852231396,-0.7936148976461923,-0.22220573679749878,-1.3390563126795687,-0.17966153345371283
16707,7.0,301.30458,5648.4807,0.0,0.0,0.0,0.0,-0.16651548771689448,0.0,-0.5134640930074605,-0.4364421703659886,-0.7670908167309692,-0.23755412507226678,-1.3510896708671687,-0.16043206292341186
16708,7.0,301.13298,5807.9614,0.0,0.0,0.0,0.0,-0.1665254545264783,0.0,-0.5462984422329585,-0.4532275499325766,-0.7659492486383053,-0.2169530178815958,-1.3482470990366289,-0.16186275179960985
16709,7.0,300.59327,6009.361999999999,0.0,0.0,0.0,0.0,-0.1665354213360621,0.0,-0.5783083605145914,-0.49390890310001356,-0.7544787407487543,-0.25555097685591777,-1.3453845661791188,-0.16396888332496887
16710,7.0,300.96887000000004,5940.255999999999,0.0,0.0,0.0,0.0,-0.16654538814564593,0.0,-0.5645933516660255,-0.48233335157259555,-0.7587627925690573,-0.23855997844653676,-1.3459060860055887,-0.16990226312804782
16711,7.0,299.19707999999997,5625.2987,0.0,0.0,0.0,0.0,-0.16655535495522977,0.0,-0.45693049268802854,-0.47951403383185054,-0.7735058348365823,-0.24705127772956276,-1.3450336776694887,-0.19575813599982383
16712,7.0,299.46847,5374.4353,0.0,0.0,0.0,0.0,-0.16656532176481356,0.0,-0.47562875672090354,-0.4343035033799186,-0.7237618815822363,-0.25384023578458076,-1.3502731939365886,-0.19118520657601082
16713,7.0,300.37782000000004,5663.0399,0.0,0.0,0.0,0.0,-0.16657528857439738,0.0,-0.5411533203451745,-0.43833658328295255,-0.7419328299980693,-0.2554984702357358,-1.354191330748279,-0.19112454329252382
16714,7.0,300.06815,5584.6019,0.0,0.0,0.0,0.0,-0.1665852553839812,0.0,-0.5064164319369105,-0.4348511853239706,-0.7563119128296742,-0.24152508261166977,-1.3361938811470688,-0.18599765990653983
16715,7.0,299.61102999999997,5348.6918,0.0,0.0,0.0,0.0,-0.16659522219356504,0.0,-0.5344531837939225,-0.3921492999996226,-0.6992662868372093,-0.24015097362105575,-1.3145224880082687,-0.16751309031975484
16716,7.0,299.81774,5685.0887,0.0,0.0,0.0,0.0,-0.16660518900314886,0.0,-0.5134843681419615,-0.4373740666154595,-0.7772665632452372,-0.23834749990056678,-1.3559679634736186,-0.16911181659253682
16717,7.0,299.48845,5921.3757,0.0,0.0,0.0,0.0,-0.1666151558127327,0.0,-0.5208208156235126,-0.47704016344769856,-0.8020893769775582,-0.24522598873442078,-1.3534760775026886,-0.18587206755664484
16718,7.0,299.72045,6045.871999999999,0.0,0.0,0.0,0.0,-0.16662512262231652,0.0,-0.5478767920462295,-0.48843590361237055,-0.8014814370500591,-0.24578446179203775,-1.3678351486448186,-0.16378437048175884
16719,7.0,299.35924,5967.5935,0.0,0.0,0.0,0.0,-0.1666350894319003,0.0,-0.5558098310541595,-0.4723421381665396,-0.7858474338371032,-0.24934573191850778,-1.3519908555061089,-0.13872893479147985
16720,7.0,298.38707999999997,5621.1609,0.0,0.0,0.0,0.0,-0.16664505624148412,0.0,-0.5189867012199995,-0.4497735221966906,-0.7399323297956354,-0.2340471144886518,-1.3700980400931488,-0.14988762509525685
16721,7.0,299.12895,5644.8403,0.0,0.0,0.0,0.0,-0.16665502305106797,0.0,-0.5529977175216254,-0.4376050977707606,-0.7252876943778223,-0.2550630665352647,-1.3638415247006788,-0.14655826765167487
16722,7.0,300.55806,5881.6827,0.0,0.0,0.0,0.0,-0.16666498986065179,0.0,-0.5284787673617934,-0.4658669836674916,-0.7935389241536942,-0.23886912105204675,-1.3559903563008289,-0.1880578709373668
16723,7.0,299.91702000000004,5684.5115,0.0,0.0,0.0,0.0,-0.1666749566702356,0.0,-0.5051371834206585,-0.4456935288140265,-0.7771188415131582,-0.2297572466127748,-1.3078900568286989,-0.19850804610871883
16724,7.0,300.52202,5345.838000000001,0.0,0.0,0.0,0.0,-0.16668492347981942,0.0,-0.4685900122512336,-0.4104855601692706,-0.7459257041371353,-0.24152935852709176,-1.3342359779788386,-0.2035549739293118
16725,7.0,299.91746,5350.0169,0.0,0.0,0.0,0.0,-0.16669489028940326,0.0,-0.4804282792645795,-0.4306647601508026,-0.7151784981301224,-0.21807945815026678,-1.3627419456921588,-0.2150450375457928
16726,7.0,299.40353999999996,5741.0614,0.0,0.0,0.0,0.0,-0.16670485709898705,0.0,-0.5352834003958585,-0.4470739807502666,-0.7627819504157173,-0.24455574405827277,-1.3704356550264687,-0.1847126763947218
16727,7.0,299.41983,5938.2423,0.0,0.0,0.0,0.0,-0.1667148239085709,0.0,-0.5904615659240193,-0.4503692119304806,-0.7642466135677682,-0.22214111170612078,-1.3447857353700188,-0.17194370876702283
16728,7.0,299.84835,5898.0042,0.0,0.0,0.0,0.0,-0.1667247907181547,0.0,-0.48683992324735953,-0.49987578095139856,-0.8061303095688672,-0.24797466267819374,-1.3662450552628886,-0.17498278018945584
16729,7.0,300.24005,5842.8671,0.0,0.0,0.0,0.0,-0.16673475752773853,0.0,-0.5153949120005176,-0.4576263016641996,-0.8030644984762952,-0.24051540928452275,-1.3447277774642987,-0.16973230055627384
16730,7.0,300.42336,5881.5447,0.0,0.0,0.0,0.0,-0.16674472433732235,0.0,-0.5308987125756235,-0.4717881335418635,-0.7851558906438533,-0.25013022054343076,-1.3467150648854287,-0.17845281727692183
16731,7.0,299.74636,5991.3383,0.0,0.0,0.0,0.0,-0.1667546911469062,0.0,-0.5620760331175855,-0.4721025045178896,-0.7870386917146712,-0.22977097615162978,-1.3233174988762688,-0.16535771483953585
16732,7.0,300.16322,5930.266,0.0,0.0,0.0,0.0,-0.16676465795649,0.0,-0.5893939245586515,-0.4366574758797376,-0.7766013746870882,-0.2395807164647758,-1.3640245176687387,-0.14275411134373386
16733,7.0,301.32146,5603.4711,0.0,0.0,0.0,0.0,-0.1667746247660738,0.0,-0.5269583754542425,-0.4154171193334776,-0.7609398110714123,-0.26168943847923676,-1.3664958346626386,-0.16530562365189483
16734,7.0,300.9059,5610.286,0.0,0.0,0.0,0.0,-0.16678459157565761,0.0,-0.46731737012563357,-0.42620345035800555,-0.8118660448074402,-0.21795261950274877,-1.3397259696706587,-0.16710843875981884
16735,7.0,300.49023,5932.3041,0.0,0.0,0.0,0.0,-0.16679455838524146,0.0,-0.5350716311249585,-0.4678941627450586,-0.8003065127641033,-0.22473590335720678,-1.3020591064782288,-0.16419232523702085
16736,7.0,300.61872,6173.4399,0.0,0.0,0.0,0.0,-0.16680452519482528,0.0,-0.5593775758487685,-0.4891554327733826,-0.8280385701835442,-0.22662806685894876,-1.3184381930197187,-0.17425508423263783
16737,7.0,300.49827999999997,6032.2282,0.0,0.0,0.0,0.0,-0.16681449200440912,0.0,-0.5541525591905995,-0.47925077119086856,-0.8002434176803762,-0.2561511958176548,-1.3644412674348687,-0.16571475377727285
16738,7.0,300.97844,5759.3953,0.0,0.0,0.0,0.0,-0.16682445881399288,0.0,-0.5470609737282145,-0.4559180835856116,-0.7477333017855313,-0.2574511247684477,-1.3748405571861988,-0.16410562142596383
16739,7.0,300.37838999999997,5946.6497,0.0,0.0,0.0,0.0,-0.16683442562357673,0.0,-0.5575961504504555,-0.46545007178134556,-0.7845867784601862,-0.25504671267865076,-1.3428539740543688,-0.14941085039320287
16740,7.0,299.29915,5949.0687,0.0,0.0,0.0,0.0,-0.16684439243316054,0.0,-0.5147845301402775,-0.4666836936455946,-0.8269001229011883,-0.23453843946214176,-1.3744187411695687,-0.16398790202934585
16741,7.0,299.27727000000004,5735.4333,0.0,0.0,0.0,0.0,-0.1668543592427444,0.0,-0.5101874752315836,-0.4697380347470345,-0.7635029791868773,-0.25147400295855177,-1.3535218764072088,-0.17409494005433282
16742,7.0,299.81914,5518.9207,0.0,0.0,0.0,0.0,-0.1668643260523282,0.0,-0.4746484575141556,-0.4404079400648796,-0.7625576776385833,-0.23645812283659975,-1.3252559476425787,-0.18629354920074181
16743,7.0,299.95239,5475.7558,0.0,0.0,0.0,0.0,-0.16687429286191202,0.0,-0.49807758626393056,-0.44820861821224656,-0.7182068189689944,-0.21421659413153182,-1.3205050205736988,-0.19530412902751682
16744,7.0,300.46771,5766.9339,0.0,0.0,0.0,0.0,-0.16688425967149584,0.0,-0.5372537158778135,-0.4560739214509915,-0.7596762577992092,-0.23962902822954377,-1.3301078957464287,-0.18970286220971483
16745,7.0,301.45445,6065.9037,0.0,0.0,0.0,0.0,-0.16689422648107968,0.0,-0.5740280070571535,-0.46710488144716256,-0.8027503909452952,-0.24682904158512975,-1.3506364440974385,-0.18339101322928383
16746,7.0,300.58802000000003,5893.8595,0.0,0.0,0.0,0.0,-0.16690419329066347,0.0,-0.5174517691735134,-0.4892486315175805,-0.7848857075046882,-0.24011876240037675,-1.3323856819712288,-0.17086244932031083
16747,7.0,301.29798999999997,5765.9785,0.0,0.0,0.0,0.0,-0.16691416010024732,0.0,-0.5267385812425506,-0.4444721976734906,-0.7815027086008123,-0.26756954159205776,-1.3083832056523688,-0.16700678950978684
16748,7.0,300.86852000000005,5993.5209,0.0,0.0,0.0,0.0,-0.1669241269098311,0.0,-0.5403827841741285,-0.46975185547839854,-0.8117460658630993,-0.24499332624645875,-1.3443906691560288,-0.15790832036933786
16749,7.0,300.14666,6028.1424,0.0,0.0,0.0,0.0,-0.16693409371941495,0.0,-0.5833427848289504,-0.46548928456021554,-0.7835726873626032,-0.27669968493063274,-1.3732171278759786,-0.17027510876734483
16750,7.0,299.75515,5657.5699,0.0,0.0,0.0,0.0,-0.16694406052899877,0.0,-0.5403840710017555,-0.4146231669526206,-0.7647527421252193,-0.2280454720263358,-1.3709531218525386,-0.16742006382807384
16751,7.0,300.26295,5335.4621,0.0,0.0,0.0,0.0,-0.1669540273385826,0.0,-0.49598870025527353,-0.4020852608777256,-0.7237733009108633,-0.2233421271821518,-1.3821388963314887,-0.18075351308648283
16752,7.0,299.43507,5525.2484,0.0,0.0,0.0,0.0,-0.16696399414816643,0.0,-0.4861469615039695,-0.4133758662120216,-0.7800147204314593,-0.22694249862998075,-1.3642101450870587,-0.16088429670804386
16753,7.0,299.99137,5860.6531,0.0,0.0,0.0,0.0,-0.16697396095775022,0.0,-0.5436444970410345,-0.4374084056613486,-0.8004393093222092,-0.2315192986691758,-1.3433001080733988,-0.17272749824937683
16754,7.0,299.23621,5882.7067,0.0,0.0,0.0,0.0,-0.16698392776733403,0.0,-0.5203275046798265,-0.4690407869557215,-0.7988276438456502,-0.24059032899691676,-1.3378975598652088,-0.2066518107399458
16755,7.0,300.08414,5852.8829,0.0,0.0,0.0,0.0,-0.16699389457691788,0.0,-0.5485409369567755,-0.45900769592303253,-0.7715816121016763,-0.25627800406766976,-1.3150410694094488,-0.16247063093210284
16756,7.0,300.68335,5779.8394,0.0,0.0,0.0,0.0,-0.1670038613865017,0.0,-0.5295668662466805,-0.4625233191324975,-0.7648366696310023,-0.2841817769815577,-1.3639490305362887,-0.20177659841379983
16757,7.0,299.3948,6058.7402,0.0,0.0,0.0,0.0,-0.16701382819608554,0.0,-0.5574926368202395,-0.5044746799752745,-0.7797384071291893,-0.25277283759923674,-1.3582198104958587,-0.17262537277179782
16758,7.0,299.83546,6135.4695,0.0,0.0,0.0,0.0,-0.1670237950056693,0.0,-0.5594166062426205,-0.4922718861059525,-0.8133410431105113,-0.25538391217942974,-1.3392789237265386,-0.17510641696665782
16759,7.0,300.71813,5727.6899,0.0,0.0,0.0,0.0,-0.16703376181525315,0.0,-0.4792729715005595,-0.4979450227533475,-0.7638567047967872,-0.24054506711494977,-1.3368527976870987,-0.17988784286354784
16760,7.0,300.93757999999997,5367.8683,0.0,0.0,0.0,0.0,-0.16704372862483696,0.0,-0.4483824919294066,-0.42169354509041257,-0.7616218905087283,-0.25773320346378675,-1.3563595846372687,-0.18975859096521483
16761,7.0,301.09758,5674.56,0.0,0.0,0.0,0.0,-0.1670536954344208,0.0,-0.5182888758761295,-0.46793014325610954,-0.7387055169720583,-0.26105996698711276,-1.3520432405362788,-0.18598711197299883
16762,7.0,300.45743999999996,6006.7649,0.0,0.0,0.0,0.0,-0.16706366224400462,0.0,-0.5706191196132224,-0.4978492706188975,-0.7574381504483253,-0.21731992587530677,-1.3469180188804588,-0.18637966532674083
16763,7.0,300.18834,5875.149,0.0,0.0,0.0,0.0,-0.16707362905358844,0.0,-0.5559811513810674,-0.43547486102552263,-0.7944425912553793,-0.2221283650198628,-1.3710020618323686,-0.19001510536053082
16764,7.0,300.39943999999997,5819.9165,0.0,0.0,0.0,0.0,-0.16708359586317226,0.0,-0.5296783034926785,-0.46874056095109157,-0.7706904383737243,-0.21260256778223982,-1.3504942851084087,-0.16236022720120685
16765,7.0,300.74556,5852.2216,0.0,0.0,0.0,0.0,-0.1670935626727561,0.0,-0.5363233395034924,-0.4203750837952906,-0.8222308131278632,-0.23480022275797777,-1.3567408706498987,-0.16582127676028585
16766,7.0,300.20805,5964.2802,0.0,0.0,0.0,0.0,-0.1671035294823399,0.0,-0.5565943906065896,-0.4450965725176116,-0.8113012794667022,-0.2394532799996988,-1.319030843003209,-0.15554192542329287
16767,7.0,299.96621,6046.4968,0.0,0.0,0.0,0.0,-0.16711349629192374,0.0,-0.5621328663156945,-0.48493845810969954,-0.7909127318820093,-0.2776162811035937,-1.3483102245178586,-0.15299833329975987
16768,7.0,298.99116000000004,5823.736999999999,0.0,0.0,0.0,0.0,-0.16712346310150752,0.0,-0.5545031842552035,-0.4232938013708456,-0.7924736537935603,-0.2783765125211227,-1.3499899905336388,-0.15292480174000284
16769,7.0,299.45145,5595.6874,0.0,0.0,0.0,0.0,-0.16713342991109137,0.0,-0.5357600636404015,-0.45731890184886154,-0.7078702899288584,-0.2817345449425347,-1.3385299292526187,-0.17002028649969583
16770,7.0,298.92023,5512.7884,0.0,0.0,0.0,0.0,-0.16714339672067519,0.0,-0.5155199774603605,-0.43327293683570955,-0.7269570847125782,-0.2649000632761007,-1.3246772805104685,-0.17871661694045682
16771,7.0,300.52417,5667.5915,0.0,0.0,0.0,0.0,-0.16715336353025903,0.0,-0.5132531444691415,-0.44225233895690763,-0.7673008026816932,-0.2477600664395148,-1.3431663590601988,-0.16683522600285483
16772,7.0,300.56701,5592.2058,0.0,0.0,0.0,0.0,-0.16716333033984285,0.0,-0.4785050292497695,-0.4724447500041665,-0.7489411465672362,-0.2539206169150138,-1.3542731000313488,-0.20156165767008682
16773,7.0,300.45551,5529.2876,0.0,0.0,0.0,0.0,-0.16717329714942664,0.0,-0.5129336971101145,-0.4155094568150906,-0.7523222000309203,-0.2169229142211248,-1.3491707778277886,-0.15973236306685684
16774,7.0,299.28848,5689.7621,0.0,0.0,0.0,0.0,-0.16718326395901045,0.0,-0.5179423443419295,-0.47106166361766655,-0.7405416072132662,-0.2161248885748658,-1.3449774422889385,-0.19701669394903382
16775,7.0,299.70799,5753.5767,0.0,0.0,0.0,0.0,-0.1671932307685943,0.0,-0.5285673456855355,-0.46501528616343557,-0.7553610080083273,-0.21342064564797777,-1.3662985548681685,-0.15713043813506683
16776,7.0,299.35922999999997,5740.9129,0.0,0.0,0.0,0.0,-0.16720319757817811,0.0,-0.5180603879785796,-0.45781439128026263,-0.7692193816135423,-0.23528858904117578,-1.3494814403084487,-0.1935069475901488
16777,7.0,299.79881,5870.0832,0.0,0.0,0.0,0.0,-0.16721316438776196,0.0,-0.5344591923670156,-0.47299566421603756,-0.7769038602394412,-0.24988736475946277,-1.3466518380791888,-0.18566012603322782
16778,7.0,299.82244,5652.7032,0.0,0.0,0.0,0.0,-0.16722313119734572,0.0,-0.5342410193554834,-0.41819896708552456,-0.7658406484925873,-0.2261696623812078,-1.3316684022254388,-0.17291797913567583
16779,7.0,300.61863999999997,5579.4318,0.0,0.0,0.0,0.0,-0.16723309800692956,0.0,-0.5098804401862815,-0.4458302871800236,-0.7402972112891463,-0.26954955387746976,-1.3568813071137587,-0.16264800036210786
16780,7.0,300.64156,5902.7077,0.0,0.0,0.0,0.0,-0.16724306481651338,0.0,-0.5573521598263754,-0.47959978518781354,-0.7573237950420394,-0.23069188877001676,-1.3250845057256588,-0.16333437597984785
16781,7.0,301.20641,5989.7378,0.0,0.0,0.0,0.0,-0.16725303162609723,0.0,-0.5991322712697514,-0.43627313998430656,-0.7853253263255753,-0.25635887155815074,-1.3395640523046788,-0.13512491564329088
16782,7.0,300.83797000000004,5809.0038,0.0,0.0,0.0,0.0,-0.16726299843568104,0.0,-0.5264147971730955,-0.47265980220539056,-0.7667174847316243,-0.2231863602442788,-1.3411584013370288,-0.16689676068142784
16783,7.0,300.56957,5881.7601,0.0,0.0,0.0,0.0,-0.16727296524526486,0.0,-0.5080277731734375,-0.4676489663533595,-0.8122314531910032,-0.2488843687504748,-1.3715485076112985,-0.15461649370945987
16784,7.0,299.90614,6025.2519999999995,0.0,0.0,0.0,0.0,-0.16728293205484868,0.0,-0.5389793517256205,-0.4809524538063115,-0.8115943620581272,-0.25772749886572377,-1.3413267021786386,-0.17487112002843583
16785,7.0,300.43917000000005,5967.1897,0.0,0.0,0.0,0.0,-0.16729289886443252,0.0,-0.5312489222076865,-0.48705870420895153,-0.7955690416565513,-0.26250267300949676,-1.3544001615938885,-0.17131450071992485
16786,7.0,299.91818,5705.7625,0.0,0.0,0.0,0.0,-0.1673028656740163,0.0,-0.5447376621764215,-0.4241361972389836,-0.7655354676949683,-0.25133924069525176,-1.3663633015495587,-0.17911672913994484
16787,7.0,299.61217,5495.7195,0.0,0.0,0.0,0.0,-0.16731283248360015,0.0,-0.5037279855790815,-0.4438510753621906,-0.7229824389428113,-0.24350950253501674,-1.3634849619904885,-0.18068625354484483
16788,7.0,299.61359,5371.9795,0.0,0.0,0.0,0.0,-0.16732279929318394,0.0,-0.47754350556737457,-0.4326661216158216,-0.7227380024886874,-0.2284768125939058,-1.3593241517798487,-0.20868459309056578
16789,7.0,299.47078999999997,5535.3181,0.0,0.0,0.0,0.0,-0.1673327661027678,0.0,-0.4754178588450895,-0.4353025983760216,-0.7718780384184313,-0.21807220327955082,-1.3723926462696088,-0.2092948229632908
16790,7.0,299.94903,5750.3177,0.0,0.0,0.0,0.0,-0.1673427329123516,0.0,-0.5246251137864676,-0.47379373039230055,-0.7495341511882613,-0.2419934270728918,-1.3506799125267288,-0.2198050838655728
16791,7.0,301.95183,5796.2169,0.0,0.0,0.0,0.0,-0.16735269972193545,0.0,-0.5185511657970155,-0.4489420694296326,-0.7944119708373573,-0.2506646897061788,-1.3610921718793387,-0.1837378994010188
16792,7.0,301.722,5634.1299,0.0,0.0,0.0,0.0,-0.16736266653151927,0.0,-0.5054689316358996,-0.46238168703351956,-0.7447841765744754,-0.24876010375821078,-1.3296755419287587,-0.17474204209819683
16793,7.0,300.27905,5883.026999999999,0.0,0.0,0.0,0.0,-0.16737263334110306,0.0,-0.5393413555888474,-0.46766830929776854,-0.7812836540616932,-0.25624640079705074,-1.3224480289654588,-0.15174249086081784
16794,7.0,300.60937,6286.9696,0.0,0.0,0.0,0.0,-0.16738260015068687,0.0,-0.5670197512829924,-0.4979611232974365,-0.8461008880561562,-0.24045367195592976,-1.3205706791801788,-0.17540524468614985
16795,7.0,300.22979,6198.5223,0.0,0.0,0.0,0.0,-0.16739256696027072,0.0,-0.5662521434047355,-0.49095025333801756,-0.8269936256204162,-0.2390006915775318,-1.3431017137038186,-0.17625716510522782
16796,7.0,299.41825,5876.9484,0.0,0.0,0.0,0.0,-0.16740253376985453,0.0,-0.5447598928836155,-0.45689794709481657,-0.7847877363525192,-0.19904520038423182,-1.3306066174456488,-0.18913384121855684
16797,7.0,299.63125,5833.6167,0.0,0.0,0.0,0.0,-0.16741250057943835,0.0,-0.5547595669280064,-0.43789246563162154,-0.7806217788313713,-0.2301403058130798,-1.3591666927143087,-0.16055827335586786
16798,7.0,298.99692999999996,5805.5107,0.0,0.0,0.0,0.0,-0.16742246738902214,0.0,-0.5436688758384405,-0.44015050361197255,-0.7809108996149052,-0.2267011829861648,-1.3573871215636788,-0.16349206809291084
16799,7.0,299.10308,5778.7954,0.0,0.0,0.0,0.0,-0.16743243419860598,0.0,-0.5432506771246675,-0.4153225527016446,-0.7980362752525483,-0.25665180216206074,-1.3451285178788488,-0.14514208851690888
16800,7.0,300.15276,5796.1476,0.0,0.0,0.0,0.0,-0.1674424010081898,0.0,-0.5004512158156895,-0.47029780476477956,-0.7911351098814563,-0.25243053131795373,-1.3362323846508686,-0.1904799541089078
16801,7.0,300.67169,5649.7534,0.0,0.0,0.0,0.0,-0.16745236781777365,0.0,-0.5013488540792795,-0.4376892785890686,-0.7783458265892522,-0.2553020415713498,-1.3415605603017187,-0.19671436038419582
16802,7.0,300.63103,5800.3942,0.0,0.0,0.0,0.0,-0.16746233462735746,0.0,-0.5194070176264814,-0.47851337843059355,-0.7652545947672483,-0.2687843068719457,-1.3587262328958385,-0.21705843642199976
16803,7.0,301.12852999999996,6094.416,0.0,0.0,0.0,0.0,-0.16747230143694128,0.0,-0.5758851830329424,-0.47397375453756757,-0.8026913488619682,-0.24480214621759078,-1.3571392805892186,-0.19221966400060383
16804,7.0,300.3531,6008.4237,0.0,0.0,0.0,0.0,-0.1674822682465251,0.0,-0.5614624291220275,-0.47192561131543154,-0.7930227137577482,-0.23623508622458778,-1.3220719105283387,-0.17436229622571883
16805,7.0,300.23758,5614.6029,0.0,0.0,0.0,0.0,-0.16749223505610894,0.0,-0.47862632541924055,-0.4520496466913266,-0.7760231027225173,-0.2109679420584148,-1.3256704682584886,-0.16474606641667083
16806,7.0,299.48847,5663.2561,0.0,0.0,0.0,0.0,-0.16750220186569273,0.0,-0.4918074426576155,-0.4347849491649336,-0.7948960510726322,-0.2264524098216128,-1.3333935618456987,-0.16749058603503383
16807,7.0,298.94277999999997,5933.4769,0.0,0.0,0.0,0.0,-0.16751216867527655,0.0,-0.5405185799525305,-0.47209330420698153,-0.7910169345222933,-0.24133209899762378,-1.3255663061482088,-0.16941720004017582
16808,7.0,299.62226,5807.7828,0.0,0.0,0.0,0.0,-0.16752213548486036,0.0,-0.5394143095960475,-0.45778123773699053,-0.7682254136629453,-0.2567559946698437,-1.3516777612252089,-0.17297696042399682
16809,7.0,299.39189,5743.9466,0.0,0.0,0.0,0.0,-0.1675321022944442,0.0,-0.5440910768901085,-0.4494557669653305,-0.7524694860654563,-0.2530198274436128,-1.3534666542767588,-0.18677881493863382
16810,7.0,299.40544,5699.2426,0.0,0.0,0.0,0.0,-0.16754206910402802,0.0,-0.5403747896308395,-0.4379571819155086,-0.7540954586334273,-0.25336849693552377,-1.3668515867727487,-0.16545450048908783
16811,7.0,299.91704,5760.0433,0.0,0.0,0.0,0.0,-0.16755203591361184,0.0,-0.5352120878538205,-0.4410804240237486,-0.7746168331737293,-0.22877517421835178,-1.3514842304561088,-0.16506849273099186
16812,7.0,300.32522,6014.4594,0.0,0.0,0.0,0.0,-0.16756200272319569,0.0,-0.5451424251938686,-0.46900558664724756,-0.8140974748401653,-0.21235587178039278,-1.3087749281410288,-0.17600766240060384
16813,7.0,300.45783,6045.6885,0.0,0.0,0.0,0.0,-0.16757196953277947,0.0,-0.5728542378763114,-0.47756500673449653,-0.7873190884148442,-0.24448629589641876,-1.3228432978294689,-0.18198437891045982
16814,7.0,300.61316,5740.1294,0.0,0.0,0.0,0.0,-0.1675819363423633,0.0,-0.5309394148321405,-0.4514597730131106,-0.7624568187236292,-0.2264817231470058,-1.3685702615923687,-0.19054138746247082
16815,7.0,299.72571,5561.4641,0.0,0.0,0.0,0.0,-0.1675919031519471,0.0,-0.5376562193475375,-0.42787851489332157,-0.7250114722680613,-0.24211547304743677,-1.3635810180999686,-0.16978205113618383
16816,7.0,299.86112,5898.7611,0.0,0.0,0.0,0.0,-0.16760186996153095,0.0,-0.5511951253287235,-0.46342919511940056,-0.7784517821522092,-0.21597128999220677,-1.3559024061921487,-0.15302298567469286
16817,7.0,300.59327,5957.9628,0.0,0.0,0.0,0.0,-0.16761183677111477,0.0,-0.5285556325143795,-0.4482619050350056,-0.8342543934519981,-0.23973024178203278,-1.3354403270476989,-0.14500853202122788
16818,7.0,300.85999,5682.7668,0.0,0.0,0.0,0.0,-0.1676218035806986,0.0,-0.4787418460631415,-0.46242516559531055,-0.7862521867220492,-0.2526265648148008,-1.3605856481543486,-0.1801256222645148
16819,7.0,300.39484,5647.1551,0.0,0.0,0.0,0.0,-0.16763177039028238,0.0,-0.5114492350511095,-0.4367381812502026,-0.7684067449008413,-0.2642385528158147,-1.3502616428854488,-0.16634028372650783
16820,7.0,300.37361,5785.8682,0.0,0.0,0.0,0.0,-0.16764173719986622,0.0,-0.5077981403032745,-0.4836916842591525,-0.7672696553736191,-0.26130707842150075,-1.3395132884746686,-0.2184869062804788
16821,7.0,301.01223999999996,5831.8837,0.0,0.0,0.0,0.0,-0.16765170400945004,0.0,-0.5580591145536464,-0.48759418662179954,-0.7270937214885633,-0.24037547944571278,-1.3552315333009386,-0.2007899157314218
16822,7.0,299.78946,5743.5596,0.0,0.0,0.0,0.0,-0.16766167081903388,0.0,-0.5276435554368645,-0.4551817142079376,-0.7630734219394832,-0.26191013448351774,-1.3756904713700786,-0.1989202362493988
16823,7.0,299.72475,5648.0851,0.0,0.0,0.0,0.0,-0.1676716376286177,0.0,-0.5171079835470844,-0.4556689355185225,-0.7440999287819453,-0.2547142247908368,-1.3623552894539988,-0.16819438955449384
16824,7.0,299.58738,5517.3644,0.0,0.0,0.0,0.0,-0.16768160443820151,0.0,-0.4872862700489105,-0.42949761762561456,-0.7603571314689063,-0.23632969338642476,-1.3711867773255986,-0.16442848343782784
16825,7.0,300.14108,5834.2479,0.0,0.0,0.0,0.0,-0.1676915712477853,0.0,-0.5348761751806684,-0.46564489951057353,-0.7729446260036953,-0.2549899402755477,-1.3531063425411989,-0.16148975417279784
16826,7.0,299.86422000000005,6064.6404,0.0,0.0,0.0,0.0,-0.16770153805736915,0.0,-0.5454973768363995,-0.4819622284584685,-0.8160396321018412,-0.24499166451629475,-1.3749147270935185,-0.17143131832395384
16827,7.0,300.41857999999996,5839.4041,0.0,0.0,0.0,0.0,-0.16771150486695297,0.0,-0.5674522064256724,-0.4465981179733025,-0.7609827019481452,-0.24260705133345178,-1.3570154614269987,-0.15024310362783985
16828,7.0,301.32792,5683.6359,0.0,0.0,0.0,0.0,-0.16772147167653678,0.0,-0.5166774231820915,-0.4298996043377876,-0.7811063555591953,-0.21770171851298678,-1.3378469986852186,-0.15860266013286384
16829,7.0,300.4034,5957.4937,0.0,0.0,0.0,0.0,-0.1677314384861206,0.0,-0.5478606611046375,-0.45082224618269157,-0.8122464290274812,-0.2236269923152658,-1.3519597487280386,-0.14811905784071286
16830,7.0,300.07353,5914.8327,0.0,0.0,0.0,0.0,-0.16774140529570444,0.0,-0.5585436406189654,-0.4328489220663626,-0.8065688847421512,-0.26000580184807476,-1.3498378003686187,-0.15920527036483684
16831,7.0,300.53751,5820.6519,0.0,0.0,0.0,0.0,-0.16775137210528826,0.0,-0.5242338067303485,-0.4715892224147325,-0.7735097966444733,-0.25487281869648876,-1.3360334836562386,-0.2047781187875268
16832,7.0,300.25365,5697.5189,0.0,0.0,0.0,0.0,-0.1677613389148721,0.0,-0.5348799343385395,-0.4400711965266456,-0.7569523476878802,-0.2499024520534518,-1.3534685794519488,-0.19693674851614382
16833,7.0,300.06852000000003,5640.759,0.0,0.0,0.0,0.0,-0.16777130572445587,0.0,-0.5310199479500884,-0.4536926823909816,-0.7299372356416963,-0.24288982917135976,-1.3230064310955687,-0.2034275475967358
16834,7.0,300.31949,5753.5975,0.0,0.0,0.0,0.0,-0.1677812725340397,0.0,-0.5039473643582325,-0.47004481647981156,-0.7749577816998783,-0.22537845590812178,-1.3573859056635589,-0.2048334827729908
16835,7.0,299.93195,5772.008000000001,0.0,0.0,0.0,0.0,-0.16779123934362353,0.0,-0.5268040878615156,-0.43143057457638256,-0.7963116526548413,-0.22445850587732977,-1.3266885819589687,-0.16667549725709085
16836,7.0,299.95315,5654.6805,0.0,0.0,0.0,0.0,-0.16780120615320737,0.0,-0.49883901331657754,-0.4372700666251955,-0.7827726149511423,-0.2333900521963048,-1.3685474634651187,-0.15135515574509084
16837,7.0,300.32145,5438.5273,0.0,0.0,0.0,0.0,-0.1678111729627912,0.0,-0.4715037649012985,-0.4167258736926416,-0.7649468504468763,-0.2137874320516768,-1.3869970252609487,-0.17748200209110984
16838,7.0,299.46551,5722.8515,0.0,0.0,0.0,0.0,-0.167821139772375,0.0,-0.4938445921161665,-0.45108508325863156,-0.7946742911557463,-0.2589372586901178,-1.4030817626483887,-0.17509083318011984
16839,7.0,299.98866,6043.1467,0.0,0.0,0.0,0.0,-0.1678311065819588,0.0,-0.5629592730972545,-0.48424471616373255,-0.7897616899009102,-0.26282470415627873,-1.3651650319812987,-0.17786278147868984
16840,7.0,299.6719,5759.9298,0.0,0.0,0.0,0.0,-0.16784107339154264,0.0,-0.5018520543439415,-0.44848020976905056,-0.8005425797724013,-0.24512674088712574,-1.3568419930098787,-0.18965215917471082
16841,7.0,299.83474,5485.5713,0.0,0.0,0.0,0.0,-0.16785104020112646,0.0,-0.5095915119202665,-0.4280433200220866,-0.7298418584097833,-0.24244897418535077,-1.3367417454761388,-0.18632574015641884
16842,7.0,300.82522,5844.4213,0.0,0.0,0.0,0.0,-0.1678610070107103,0.0,-0.5366711072028145,-0.4544826425664446,-0.7854044003633793,-0.23595548999199378,-1.3431204588306687,-0.17544580508765284
16843,7.0,301.44361000000004,6044.7298,0.0,0.0,0.0,0.0,-0.1678709738202941,0.0,-0.5541887423516705,-0.5046111039687384,-0.7786470759764833,-0.2512337106973368,-1.3379895629742886,-0.17993407746561083
16844,7.0,300.44722,5860.9465,0.0,0.0,0.0,0.0,-0.16788094062987793,0.0,-0.5348508033981645,-0.4628851507432076,-0.7838454340245212,-0.23937600954707278,-1.3320898129420289,-0.16885257655445185
16845,7.0,299.84571,5961.6111,0.0,0.0,0.0,0.0,-0.16789090743946172,0.0,-0.5530944423761714,-0.4679328587663776,-0.7911536118282823,-0.24039650438528778,-1.3342535072055686,-0.16667868899490584
16846,7.0,299.33082,5851.0662,0.0,0.0,0.0,0.0,-0.16790087424904557,0.0,-0.5126258109347285,-0.4476831669753885,-0.8182690457668672,-0.2338795431871138,-1.3628098334488588,-0.15283017431316384
16847,7.0,299.16778,5714.9536,0.0,0.0,0.0,0.0,-0.16791084105862938,0.0,-0.5250905400874015,-0.4498602260077476,-0.7622524360459583,-0.26547451528779475,-1.3449469434609287,-0.16085804339795284
16848,7.0,299.05371,5979.2673,0.0,0.0,0.0,0.0,-0.1679208078682132,0.0,-0.5418958502834564,-0.4639192636627666,-0.8117328328167932,-0.26771357509377275,-1.3556441287416587,-0.16488882322325984
16849,7.0,300.63634,6025.2501,0.0,0.0,0.0,0.0,-0.16793077467779702,0.0,-0.5473104561678365,-0.4728218107638795,-0.8113933231057863,-0.2555932496500898,-1.383055583696959,-0.2046367197360718
16850,7.0,300.30418,5711.4753,0.0,0.0,0.0,0.0,-0.16794074148738086,0.0,-0.5224705387738275,-0.46613963913690054,-0.7475356876185283,-0.24869064546385578,-1.3754094971173487,-0.20896785728852177
16851,7.0,301.04181,5752.2751,0.0,0.0,0.0,0.0,-0.16795070829696468,0.0,-0.5173868198421036,-0.46763507469448856,-0.7635261116866603,-0.2183827644352008,-1.3625177134450288,-0.21713944576749478
16852,7.0,301.38912999999997,5954.1701,0.0,0.0,0.0,0.0,-0.16796067510654852,0.0,-0.5531926465758635,-0.47108771427773755,-0.7856386637864993,-0.2024254229828338,-1.3466506221790686,-0.2082003406027738
16853,7.0,300.51292,5689.1187,0.0,0.0,0.0,0.0,-0.16797064191613229,0.0,-0.5309830453814465,-0.44019318170618454,-0.7581737902859274,-0.2329004396154838,-1.3341815664484686,-0.19074917466047783
16854,7.0,300.4203,5602.5416,0.0,0.0,0.0,0.0,-0.16798060872571613,0.0,-0.4887963470704435,-0.4596196888509316,-0.7546167048823703,-0.24196127664721878,-1.3811274700816687,-0.1900446314684448
16855,7.0,300.49529,5801.5445,0.0,0.0,0.0,0.0,-0.16799057553529995,0.0,-0.5017696163158055,-0.46430563619089854,-0.7974494210596302,-0.27706457655664474,-1.3768210558316587,-0.15209936767853885
16856,7.0,299.61938,5766.146,0.0,0.0,0.0,0.0,-0.1680005423448838,0.0,-0.5227565286145525,-0.4464746737136196,-0.7835331908737053,-0.27032316019631875,-1.3606983215654687,-0.15207872777400186
16857,7.0,299.40719,5906.1153,0.0,0.0,0.0,0.0,-0.1680105091544676,0.0,-0.5240539041750935,-0.4608883894336426,-0.8103692717597202,-0.25384942596298776,-1.3705738623401087,-0.16462778973249784
16858,7.0,300.79573999999997,6042.3756,0.0,0.0,0.0,0.0,-0.16802047596405142,0.0,-0.5814968761942734,-0.4482250936588726,-0.8070093344281203,-0.2581028978952728,-1.3472856260167385,-0.15570247490163786
16859,7.0,300.35168999999996,5824.6172,0.0,0.0,0.0,0.0,-0.1680304427736352,0.0,-0.5385751865257324,-0.46365722705440554,-0.7683057846608773,-0.24275118616017677,-1.3486378082751886,-0.16907875424177385
16860,7.0,300.05387,5796.1442,0.0,0.0,0.0,0.0,-0.16804040958321906,0.0,-0.5212265817585584,-0.4772143107423855,-0.7634422247108813,-0.1943071111941188,-1.3570105978265188,-0.19792378583605683
16861,7.0,299.88808,6054.6302,0.0,0.0,0.0,0.0,-0.16805037639280287,0.0,-0.5702550689847935,-0.4816763906052585,-0.7885249370938522,-0.22728889844166777,-1.3615826862527487,-0.17822226234916783
16862,7.0,300.17077,5950.468000000001,0.0,0.0,0.0,0.0,-0.16806034320238672,0.0,-0.5749054917762545,-0.4700783753231235,-0.7638098318471612,-0.2418088635671768,-1.3789045006872789,-0.17799623664936082
16863,7.0,299.17919,5579.7348,0.0,0.0,0.0,0.0,-0.1680703100119705,0.0,-0.4948299575734146,-0.4463233752086876,-0.7549467204399403,-0.2723390618002728,-1.3693710331463986,-0.16679472639635784
16864,7.0,299.03332,5469.6057,0.0,0.0,0.0,0.0,-0.16808027682155435,0.0,-0.5099591494540495,-0.42897582422161756,-0.7236885830700023,-0.2586095432102748,-1.3309657132810886,-0.16379151389496385
16865,7.0,298.63428,5747.4436,0.0,0.0,0.0,0.0,-0.16809024363113814,0.0,-0.5302501109216115,-0.4330075666345196,-0.7838216530446742,-0.24505351330239877,-1.3246070622785386,-0.15926340052307383
16866,7.0,299.41378,5923.6923,0.0,0.0,0.0,0.0,-0.168100210440722,0.0,-0.5257097878860165,-0.47022088894968855,-0.8047238677675622,-0.23238546538465976,-1.3221117312572686,-0.17782040735950783
16867,7.0,300.19426,5919.436,0.0,0.0,0.0,0.0,-0.1681101772503058,0.0,-0.5363373426198745,-0.48433422667756654,-0.7786891765181383,-0.22693751343948876,-1.3331708494737187,-0.17097443372136284
16868,7.0,300.0516,5897.5878,0.0,0.0,0.0,0.0,-0.16812014405988962,0.0,-0.5230804241415185,-0.48191459557126753,-0.7877244087198463,-0.22896082190167377,-1.3286188233994687,-0.17387865168798683
16869,7.0,300.37397000000004,5683.3656,0.0,0.0,0.0,0.0,-0.16813011086947344,0.0,-0.5147649946783495,-0.45648884736694156,-0.7563473968481762,-0.2105349904231858,-1.3507247995061589,-0.2050010439420278
16870,7.0,300.61972000000003,5753.3816,0.0,0.0,0.0,0.0,-0.16814007767905728,0.0,-0.5456712404210584,-0.46909470199354253,-0.7341183919143444,-0.23807946485161377,-1.3605482592256588,-0.18257534689878382
16871,7.0,299.95793,5967.2441,0.0,0.0,0.0,0.0,-0.1681500444886411,0.0,-0.5438541486192254,-0.47086124274788654,-0.7991778230802102,-0.28200253946148374,-1.3542337859274687,-0.1815137951665168
16872,7.0,299.38833999999997,5645.1867,0.0,0.0,0.0,0.0,-0.16816001129822494,0.0,-0.4783130183558196,-0.4609360223208435,-0.7767467659439372,-0.28192466105879777,-1.3611703947870588,-0.17655153452427982
16873,7.0,299.60584,5452.7799,0.0,0.0,0.0,0.0,-0.1681699781078087,0.0,-0.4778457580722046,-0.4133974281741496,-0.7662657271745393,-0.2543569021430718,-1.3550536065833787,-0.15575779835709785
16874,7.0,299.14184,5762.6725,0.0,0.0,0.0,0.0,-0.16817994491739255,0.0,-0.5206528086244315,-0.42634548775702363,-0.8047102699512202,-0.25047395550735474,-1.3493194216174589,-0.14745606803528086
16875,7.0,299.1229,5927.1401,0.0,0.0,0.0,0.0,-0.16818991172697637,0.0,-0.5655591816613454,-0.4503154792776775,-0.7858279186401772,-0.21720520569898477,-1.3593115874786088,-0.16701721585331583
16876,7.0,300.15394,5825.6706,0.0,0.0,0.0,0.0,-0.1681998785365602,0.0,-0.5780240425365314,-0.4205113051387346,-0.7723230578623512,-0.22656595462781878,-1.3321868823016088,-0.16454655747198085
16877,7.0,300.16139,5868.6484,0.0,0.0,0.0,0.0,-0.16820984534614403,0.0,-0.5271802772261425,-0.46369710857834157,-0.7930451876449662,-0.1994299618447048,-1.3628439799772287,-0.19001355508787782
16878,7.0,300.00404,5972.8161,0.0,0.0,0.0,0.0,-0.16821981215572784,0.0,-0.5522663130694415,-0.4625247680801406,-0.8007958618998982,-0.22789144787863477,-1.3650121325412088,-0.17188684517141084
16879,7.0,300.0685,5982.2115,0.0,0.0,0.0,0.0,-0.16822977896531163,0.0,-0.5321305511196964,-0.47586658678437554,-0.8104457924072722,-0.2590378744250478,-1.3636449541812787,-0.19777488873386181
16880,7.0,299.83487,5985.0166,0.0,0.0,0.0,0.0,-0.16823974577489548,0.0,-0.5119953261925045,-0.5027645367214966,-0.8045357376214952,-0.2627422559956417,-1.3453706846527487,-0.18621472847546283
16881,7.0,300.5503,5704.9177,0.0,0.0,0.0,0.0,-0.1682497125844793,0.0,-0.5225470594213795,-0.4323654497811476,-0.7792400096700013,-0.27216019276011977,-1.3537744796571387,-0.17494361807309083
16882,7.0,301.6514,5493.1069,0.0,0.0,0.0,0.0,-0.16825967939406314,0.0,-0.5227292113918565,-0.4270458968886485,-0.7199922061751983,-0.24527114929137778,-1.3536265451425387,-0.17641863664116383
16883,7.0,300.08324,5641.9817,0.0,0.0,0.0,0.0,-0.16826964620364693,0.0,-0.4878080634529075,-0.45815637332151354,-0.7690571400075302,-0.22003617581587975,-1.3587573396739088,-0.18748953895627682
16884,7.0,300.59504,5997.5315,0.0,0.0,0.0,0.0,-0.16827961301323077,0.0,-0.5456914648930545,-0.4621320931363866,-0.8152762697415032,-0.2252887326117668,-1.3330434839361487,-0.17294955200879183
16885,7.0,299.41721,5985.8249,0.0,0.0,0.0,0.0,-0.16828957982281456,0.0,-0.5046884048188676,-0.5113906894603315,-0.8034622194055472,-0.25088374424529775,-1.3698383440925188,-0.18797581794426882
16886,7.0,298.9669,5884.7924,0.0,0.0,0.0,0.0,-0.1682995466323984,0.0,-0.5416552945772155,-0.46942524444116457,-0.7777494174478913,-0.25205281194567575,-1.3736688347705588,-0.18552263812715883
16887,7.0,299.66331,6075.5854,0.0,0.0,0.0,0.0,-0.16830951344198222,0.0,-0.5886784180005364,-0.4693698297931955,-0.7887779963063273,-0.25248488205331776,-1.3805864958532788,-0.16462403057462685
16888,7.0,300.49467000000004,5900.9539,0.0,0.0,0.0,0.0,-0.16831948025156604,0.0,-0.5553952901732475,-0.4736752611906086,-0.7646720772847583,-0.2447015710126648,-1.3737180787254186,-0.1971181405490458
16889,7.0,299.62529,5705.6427,0.0,0.0,0.0,0.0,-0.16832944706114986,0.0,-0.4790343713670116,-0.4555544281247216,-0.7997841012775453,-0.26384747880721876,-1.3960482870792386,-0.17744196857965883
16890,7.0,300.84429,5649.0701,0.0,0.0,0.0,0.0,-0.1683394138707337,0.0,-0.5264996973989745,-0.4315148871172036,-0.7591616686034233,-0.2692922288820737,-1.3791274157092788,-0.16912981191431284
16891,7.0,299.44379,5466.2774,0.0,0.0,0.0,0.0,-0.16834938068031752,0.0,-0.4847042149515815,-0.4143470157703666,-0.7625605856663703,-0.23996741323293977,-1.3487089384322088,-0.16899074333808783
16892,7.0,301.41792000000004,5653.9389,0.0,0.0,0.0,0.0,-0.16835934748990136,0.0,-0.5201483215321425,-0.4556166214158595,-0.7428912835326613,-0.2344375602821858,-1.3178155508332687,-0.18288426658927184
16893,7.0,300.89177,6159.0424,0.0,0.0,0.0,0.0,-0.16836931429948512,0.0,-0.5714801896807035,-0.4944797074113475,-0.8062352214842212,-0.2496009594861968,-1.3536128662661886,-0.15989506063541387
16894,7.0,300.31268,6230.6862,0.0,0.0,0.0,0.0,-0.16837928110906897,0.0,-0.5780250051241265,-0.4789177969430065,-0.8370302022334491,-0.26223502299558177,-1.3829021776318187,-0.17879174943537182
16895,7.0,300.49613,5861.2411,0.0,0.0,0.0,0.0,-0.16838924791865278,0.0,-0.5221690968690775,-0.4578835050695836,-0.8016183474035713,-0.2236776345552638,-1.3719229035232487,-0.18809400343593283
16896,7.0,300.00947,5824.2944,0.0,0.0,0.0,0.0,-0.16839921472823663,0.0,-0.5279902186935774,-0.4788853932048085,-0.7635644632029452,-0.24303816898599975,-1.3343383162389386,-0.2073525441116028
16897,7.0,299.94138,6005.0169,0.0,0.0,0.0,0.0,-0.16840918153782045,0.0,-0.5457703058833355,-0.4615676621681815,-0.8180372141439872,-0.2206707743535098,-1.3648502151752289,-0.18363324079818982
16898,7.0,300.04883,5839.9933,0.0,0.0,0.0,0.0,-0.16841914834740426,0.0,-0.5493063055523115,-0.45571678118824455,-0.7701890518267414,-0.23874235333203575,-1.3692498484344386,-0.2074372112899588
16899,7.0,298.2642,5530.5247,0.0,0.0,0.0,0.0,-0.16842911515698805,0.0,-0.5196718710701205,-0.41298049602300163,-0.7484890343726163,-0.2188615960349578,-1.3305539284404488,-0.16650172486494083
16900,7.0,298.53897,5650.0905,0.0,0.0,0.0,0.0,-0.1684390819665719,0.0,-0.4963455973379965,-0.4388020703788926,-0.7823387716558252,-0.2089869773179088,-1.3530880027143886,-0.18364959465480382
16901,7.0,298.62474,5934.1065,0.0,0.0,0.0,0.0,-0.1684490487761557,0.0,-0.5127128896483225,-0.47714971604851053,-0.8139575855313592,-0.23812962073156377,-1.389168521550259,-0.14752203061679087
16902,7.0,298.69343,6051.4759,0.0,0.0,0.0,0.0,-0.16845901558573956,0.0,-0.5546231328020415,-0.4569782167677386,-0.8278962288094962,-0.2555694078752368,-1.3888414444179789,-0.1768030029340978
16903,7.0,300.12581,6197.1943,0.0,0.0,0.0,0.0,-0.16846898239532335,0.0,-0.5782441812532574,-0.48786153266068455,-0.8176866194768861,-0.2524525897726308,-1.3508583458693386,-0.14750378198248987
16904,7.0,299.98629,5816.3604,0.0,0.0,0.0,0.0,-0.1684789492049072,0.0,-0.5510924324310885,-0.4646261981250356,-0.7523096863921853,-0.26010945733330476,-1.3242041940387788,-0.16901991480846684
16905,7.0,300.46297000000004,5636.1286,0.0,0.0,0.0,0.0,-0.16848891601449098,0.0,-0.5173699188304355,-0.4275544572463396,-0.7683179841920813,-0.25853698437061373,-1.3572902548541188,-0.15262957105836586
16906,7.0,301.30872,5980.656999999999,0.0,0.0,0.0,0.0,-0.16849888282407482,0.0,-0.5291107111841614,-0.4745187108388506,-0.8143409588391952,-0.23547315254689077,-1.3649190148570187,-0.17152711098840784
16907,7.0,300.1549,5813.1677,0.0,0.0,0.0,0.0,-0.16850884963365864,0.0,-0.5454986231340224,-0.42533544965984055,-0.7962237329436642,-0.22476417303499677,-1.3277514813138687,-0.16661144971826986
16908,7.0,300.80683999999997,5435.2812,0.0,0.0,0.0,0.0,-0.16851881644324246,0.0,-0.5016421291882235,-0.40815823614708163,-0.7423894004931293,-0.2224847858750388,-1.3462808872175787,-0.20593210932641678
16909,7.0,299.54817,5541.4636,0.0,0.0,0.0,0.0,-0.16852878325282628,0.0,-0.5107929630938406,-0.41963917038016163,-0.7540344204474032,-0.2383090673242738,-1.3899118418236185,-0.19998012625150183
16910,7.0,299.31088,5786.0308,0.0,0.0,0.0,0.0,-0.16853875006241012,0.0,-0.5552465653235694,-0.4441538446245716,-0.7594084861952822,-0.2509499196093287,-1.3838629413766386,-0.18388551980808782
16911,7.0,299.39336000000003,5880.9615,0.0,0.0,0.0,0.0,-0.16854871687199394,0.0,-0.5287264360837365,-0.4680686748097815,-0.7908703374978252,-0.2305372972022598,-1.3420750887024988,-0.18943132131541582
16912,7.0,299.11951,5854.6381,0.0,0.0,0.0,0.0,-0.16855868368157773,0.0,-0.5064323500959815,-0.49093176152369256,-0.7822996804669672,-0.24001838984547075,-1.3388916595383187,-0.18201830252380782
16913,7.0,299.08878,5681.9908,0.0,0.0,0.0,0.0,-0.16856865049116154,0.0,-0.49171193370318955,-0.4345521346894566,-0.8009192453645753,-0.24981016523434377,-1.3676483053263788,-0.12804109167667188
16914,7.0,300.47846,5747.5407,0.0,0.0,0.0,0.0,-0.1685786173007454,0.0,-0.5068570538753966,-0.4828870015597365,-0.7573648114060872,-0.2261972734464328,-1.370820588739459,-0.1847024121712088
16915,7.0,299.27055,5950.5803,0.0,0.0,0.0,0.0,-0.1685885841103292,0.0,-0.5713792395732404,-0.46116815791875354,-0.7762804378504143,-0.21381087865899082,-1.3202977096032387,-0.15306261388610384
16916,7.0,299.58845,6081.6904,0.0,0.0,0.0,0.0,-0.16859855091991302,0.0,-0.6066612464028034,-0.4746700498737866,-0.7673507356466213,-0.23524732949710378,-1.3248370700512386,-0.1983240601555608
16917,7.0,299.28024,5866.9256,0.0,0.0,0.0,0.0,-0.16860851772949687,0.0,-0.5126915809987196,-0.4610885873884006,-0.8096187168806462,-0.2909480382343357,-1.3403587443581089,-0.16169062087262184
16918,7.0,299.52466,5618.6237,0.0,0.0,0.0,0.0,-0.16861848453908068,0.0,-0.48213246460776954,-0.45472298549016454,-0.7710658678007762,-0.26909639803524676,-1.3583491012086186,-0.2118222740127308
16919,7.0,300.32769,6029.3433,0.0,0.0,0.0,0.0,-0.16862845134866447,0.0,-0.5585747676620375,-0.4508782079857146,-0.8233168449825462,-0.24345176754431877,-1.3072500880655387,-0.14230697420710486
16920,7.0,300.83706,6071.1167,0.0,0.0,0.0,0.0,-0.1686384181582483,0.0,-0.5787220097354154,-0.4621131250945146,-0.8046327563185702,-0.22939375327190076,-1.3533084859361486,-0.2049652052859908
16921,7.0,300.42278999999996,5706.1552,0.0,0.0,0.0,0.0,-0.16864838496783213,0.0,-0.5380837196972285,-0.4351486147583246,-0.7612963636491012,-0.24387824451140874,-1.4026527525560486,-0.16327157473864984
16922,7.0,300.27085,5755.9015,0.0,0.0,0.0,0.0,-0.16865835177741595,0.0,-0.5383043143764995,-0.4461004601866876,-0.7652455464438552,-0.22915721003605577,-1.4133917850659088,-0.1982088333541888
16923,7.0,299.27227,5932.6516,0.0,0.0,0.0,0.0,-0.16866831858699977,0.0,-0.5127487688343635,-0.47800526390294656,-0.8126239052197353,-0.19556349065561382,-1.3462342777129788,-0.17457522060173283
16924,7.0,298.53657999999996,5876.2804,0.0,0.0,0.0,0.0,-0.1686782853965836,0.0,-0.5206867626352825,-0.48844199324547155,-0.7771137347326543,-0.2264896771602908,-1.3591482515624886,-0.18203239683269884
16925,7.0,299.04051,5953.1651,0.0,0.0,0.0,0.0,-0.16868825220616743,0.0,-0.5271370823743795,-0.4647121825285216,-0.8177642648320492,-0.2842942984051627,-1.3713336985900988,-0.15765795640212885
16926,7.0,299.38817,5790.2509,0.0,0.0,0.0,0.0,-0.16869821901575122,0.0,-0.5224968528789244,-0.4792836308916115,-0.7583111869994873,-0.2805565606412767,-1.3884011872495288,-0.17204124422164885
16927,7.0,300.03142,5527.7287,0.0,0.0,0.0,0.0,-0.16870818582533506,0.0,-0.5339061300649325,-0.4119593628372236,-0.7344259943797022,-0.2364892498796718,-1.3236580522348789,-0.1913479953370768
16928,7.0,301.44102000000004,5851.4301,0.0,0.0,0.0,0.0,-0.16871815263491888,0.0,-0.5530695062912105,-0.4547627454240886,-0.7708563783426012,-0.23241430248250577,-1.3458959535045887,-0.21286989355612276
16929,7.0,299.91688,6039.7782,0.0,0.0,0.0,0.0,-0.1687281194445027,0.0,-0.5349837012812805,-0.46724514565850556,-0.8337129024660571,-0.21859045030819782,-1.3619847438924289,-0.17836470504822582
16930,7.0,300.95347999999996,5848.5267,0.0,0.0,0.0,0.0,-0.1687380862540865,0.0,-0.5476325177121215,-0.4398983765895896,-0.7902751847865883,-0.2443110137616198,-1.3664457801076988,-0.18581535594854784
16931,7.0,300.33641,5716.2495,0.0,0.0,0.0,0.0,-0.16874805306367036,0.0,-0.5343296990042355,-0.44482547745335654,-0.7584419266598903,-0.2195609513864788,-1.3150925425145288,-0.17221371965367083
16932,7.0,299.60663999999997,5848.8401,0.0,0.0,0.0,0.0,-0.16875801987325414,0.0,-0.5467048973780725,-0.45170284157959956,-0.7794936160375302,-0.22787018989153676,-1.3486008246465386,-0.18025632139491385
16933,7.0,299.6165,6023.0936,0.0,0.0,0.0,0.0,-0.16876798668283796,0.0,-0.5528824197927464,-0.47907099022562555,-0.7989166578669352,-0.25222943157060673,-1.3631863571860185,-0.12745225151355788
16934,7.0,299.58128,6057.5509,0.0,0.0,0.0,0.0,-0.16877795349242178,0.0,-0.5250783202911955,-0.49536363640108455,-0.8209022699942462,-0.25330880637213277,-1.4088921440218287,-0.17986035338833484
16935,7.0,297.95857,5970.8384,0.0,0.0,0.0,0.0,-0.16878792030200562,0.0,-0.5238194786319575,-0.45747502342426954,-0.8336912898414242,-0.24462989370059077,-1.349107854996579,-0.16467347717950687
16936,7.0,299.04871,5683.6345,0.0,0.0,0.0,0.0,-0.16879788711158944,0.0,-0.5085303046930335,-0.43495940043465064,-0.7841932422538472,-0.24349754618383676,-1.3729007911947588,-0.18578552586560382
16937,7.0,298.96648,5516.5918,0.0,0.0,0.0,0.0,-0.16880785392117328,0.0,-0.4914260147899715,-0.4300775614528506,-0.7554025917924313,-0.24335156724192974,-1.3763715780872987,-0.2018579421318278
16938,7.0,299.67221,5903.0027,0.0,0.0,0.0,0.0,-0.16881782073075705,0.0,-0.5639645489189675,-0.4445889848800166,-0.7858118991560963,-0.24179556972586475,-1.3659647902852288,-0.17273573597268985
16939,7.0,299.84936,6098.8277,0.0,0.0,0.0,0.0,-0.1688277875403409,0.0,-0.5831436710517994,-0.4825290304319076,-0.7882186315886223,-0.2269216256779208,-1.3197287696720887,-0.2117086481465168
16940,7.0,299.75857,5717.6591,0.0,0.0,0.0,0.0,-0.1688377543499247,0.0,-0.5139576369986695,-0.4506712516527896,-0.7733967280658143,-0.23713767928116677,-1.3553384311864887,-0.1989498636823228
16941,7.0,300.1452,5748.4974,0.0,0.0,0.0,0.0,-0.16884772115950855,0.0,-0.5197232935126954,-0.4437994502695956,-0.7838769258376294,-0.2560667312893188,-1.3833120372972685,-0.1963457602628178
16942,7.0,300.80257,6057.8574,0.0,0.0,0.0,0.0,-0.16885768796909237,0.0,-0.5731330336413265,-0.4740054591331965,-0.7942989123911992,-0.26931527018934776,-1.3809146875606686,-0.13486262572240487
16943,7.0,299.85085,6003.903,0.0,0.0,0.0,0.0,-0.16886765477867619,0.0,-0.5644304109174444,-0.4639172067650636,-0.7966889667270793,-0.23247366880586476,-1.329458909057379,-0.18807941263449282
16944,7.0,299.7725,5866.4785,0.0,0.0,0.0,0.0,-0.16887762158826,0.0,-0.5418920911255856,-0.4741716625470995,-0.7671992243591683,-0.23455283774606278,-1.3395700304802687,-0.16182021556041185
16945,7.0,299.64993,5688.1721,0.0,0.0,0.0,0.0,-0.16888758839784385,0.0,-0.5121128328066016,-0.4554104047555076,-0.7615390370480513,-0.2328276375957988,-1.3458054702706588,-0.1921056227018488
16946,7.0,299.25043,5709.6531,0.0,0.0,0.0,0.0,-0.16889755520742764,0.0,-0.48266990259331055,-0.43966186375124755,-0.8132602060175332,-0.22806336602310176,-1.3616144009808786,-0.16371130501704784
16947,7.0,299.34972,5932.1001,0.0,0.0,0.0,0.0,-0.16890752201701148,0.0,-0.5372939013767796,-0.48749367221187956,-0.7784227221393413,-0.23468895776449678,-1.3414968268704286,-0.2069956166313768
16948,7.0,299.17927000000003,5963.3539,0.0,0.0,0.0,0.0,-0.16891748882659527,0.0,-0.5635719347702195,-0.43269257757593266,-0.8164461683069631,-0.25471556228096875,-1.3612751648473986,-0.18282910525382784
16949,7.0,299.37395,5705.9369,0.0,0.0,0.0,0.0,-0.1689274556361791,0.0,-0.5413623741058066,-0.43473320248232655,-0.7583667637674723,-0.24724286305847076,-1.3744903779516386,-0.2038082763218108
16950,7.0,299.47123999999997,5664.9239,0.0,0.0,0.0,0.0,-0.16893742244576293,0.0,-0.5424336834365364,-0.4426889382924966,-0.7368727907211823,-0.22751635282411578,-1.3592187737694488,-0.18548918060885683
16951,7.0,299.83581000000004,6081.6979,0.0,0.0,0.0,0.0,-0.16894738925534677,0.0,-0.5916429040831085,-0.4629734352244206,-0.7940679724284072,-0.22417692367453976,-1.3338365547894186,-0.1906233188655568
16952,7.0,299.66924,6251.7861,0.0,0.0,0.0,0.0,-0.16895735606493056,0.0,-0.5683393980807314,-0.49765402745712856,-0.8343934316307201,-0.2258683927289748,-1.3728464809893988,-0.17018258890071383
16953,7.0,300.54937,5686.7682,0.0,0.0,0.0,0.0,-0.16896732287451438,0.0,-0.4992675370488695,-0.4462380696827686,-0.7831299274664062,-0.26572369375238675,-1.3640442760456886,-0.17904625759548984
16954,7.0,299.51968999999997,5459.9706,0.0,0.0,0.0,0.0,-0.1689772896840982,0.0,-0.4876424781215656,-0.4031469747300086,-0.7689052842150432,-0.26558645915884277,-1.3797929183749589,-0.12554184951001587
16955,7.0,299.42507,5872.4535,0.0,0.0,0.0,0.0,-0.16898725649368204,0.0,-0.5168463826362665,-0.4851327082863705,-0.7831001480459673,-0.2278811431251178,-1.3590790465806588,-0.19538304094530481
16956,7.0,299.91769,6038.3151,0.0,0.0,0.0,0.0,-0.16899722330326586,0.0,-0.5654110343642245,-0.4731644412851946,-0.7969215380225323,-0.24874390188911177,-1.3488291098940686,-0.14244652914337785
16957,7.0,300.74062999999995,5957.7217,0.0,0.0,0.0,0.0,-0.1690071901128497,0.0,-0.5129720587589005,-0.5021299483163676,-0.7958966152813802,-0.2492960927961088,-1.3828775556543886,-0.20866401398103482
16958,7.0,300.79085,5875.3347,0.0,0.0,0.0,0.0,-0.16901715692243346,0.0,-0.5073448122085346,-0.46647405219990457,-0.8121361671515992,-0.2594424955874807,-1.3709225216995187,-0.14128049106079887
16959,7.0,299.93344,5667.0691,0.0,0.0,0.0,0.0,-0.1690271237320173,0.0,-0.5110624268254345,-0.4392979245803295,-0.7722871482788073,-0.23614296152549577,-1.3453397805246987,-0.2028773325274338
16960,7.0,299.5146,6026.2411,0.0,0.0,0.0,0.0,-0.16903709054160113,0.0,-0.5831560631005225,-0.4525773169459036,-0.7960934289808043,-0.2027158103289928,-1.3828705642286987,-0.17065330436716986
16961,7.0,299.44031,6222.2880000000005,0.0,0.0,0.0,0.0,-0.16904705735118497,0.0,-0.5988320351326204,-0.4743823476403926,-0.8182057986956253,-0.23613171444938577,-1.3710483673619387,-0.1908072440237088
16962,7.0,299.59106,5803.3415,0.0,0.0,0.0,0.0,-0.1690570241607688,0.0,-0.5751048284684275,-0.4262048486431436,-0.7627612294511723,-0.23768942435811977,-1.3712712823839386,-0.16999502617470283
16963,7.0,299.50323,5796.3947,0.0,0.0,0.0,0.0,-0.1690669909703526,0.0,-0.47604412846689753,-0.5158602369764415,-0.7700548671159982,-0.2255242524650108,-1.3424785648923188,-0.20115668187011881
16964,7.0,299.27757,6029.3424,0.0,0.0,0.0,0.0,-0.16907695777993642,0.0,-0.5415160537484734,-0.4727380960406176,-0.8185153972636802,-0.24210102410101075,-1.3254169530834687,-0.17417660801239282
16965,7.0,299.53663,6028.0613,0.0,0.0,0.0,0.0,-0.16908692458952027,0.0,-0.5295641304714105,-0.4945565320339295,-0.8082594418714962,-0.25310985471499775,-1.3602246271437186,-0.15489717411966086
16966,7.0,301.38746000000003,5792.6205,0.0,0.0,0.0,0.0,-0.16909689139910405,0.0,-0.49816953871050546,-0.4784796372022635,-0.7841628143533442,-0.24680784439303777,-1.3651669571564886,-0.16555474132148085
16967,7.0,301.19279,5640.9842,0.0,0.0,0.0,0.0,-0.1691068582086879,0.0,-0.5107646326210445,-0.45672594789034154,-0.7472277811781403,-0.23829532765291778,-1.3448462264009886,-0.19236926024536782
16968,7.0,299.99118,6001.3596,0.0,0.0,0.0,0.0,-0.1691168250182717,0.0,-0.5745800459766355,-0.47340816846424855,-0.7762752500099023,-0.22702257578538376,-1.3600351493750187,-0.20357728569651382
16969,7.0,301.44833,6135.9114,0.0,0.0,0.0,0.0,-0.16912679182785553,0.0,-0.5614795631812185,-0.48497091251040253,-0.8187133762007192,-0.23756708454104578,-1.3677614853625486,-0.20729872026629081
16970,7.0,299.98392,6139.0423,0.0,0.0,0.0,0.0,-0.16913675863743935,0.0,-0.5720455832365035,-0.4740334248359565,-0.8200365491088062,-0.25737436094087174,-1.3670098564383686,-0.15198865997261285
16971,7.0,299.62917000000004,5992.8901,0.0,0.0,0.0,0.0,-0.1691467254470232,0.0,-0.5648252035539075,-0.4572217818267766,-0.7996419828185192,-0.24586325211981377,-1.3548808474413288,-0.18051942191587983
16972,7.0,299.66251,5738.8393,0.0,0.0,0.0,0.0,-0.16915669225660698,0.0,-0.5292011032255824,-0.45311879779934355,-0.7621439473577513,-0.27336202896873174,-1.3598491166566589,-0.17399694863716184
16973,7.0,299.81099,5729.4772,0.0,0.0,0.0,0.0,-0.1691666590661908,0.0,-0.5431433435415746,-0.44778819034825357,-0.7506864597319852,-0.24639063866436275,-1.3915107504814186,-0.1938721229261888
16974,7.0,300.29927999999995,6060.401999999999,0.0,0.0,0.0,0.0,-0.16917662587577462,0.0,-0.5847556709008915,-0.4670610989103416,-0.7903941200833262,-0.2557077266463878,-1.3674458579563986,-0.16494219110602684
16975,7.0,299.94915,5836.1243,0.0,0.0,0.0,0.0,-0.16918659268535846,0.0,-0.5009388018963105,-0.4967036697908355,-0.7763935874890813,-0.22272610151885477,-1.3518127261385289,-0.2027310698754988
16976,7.0,299.51671,5499.9346,0.0,0.0,0.0,0.0,-0.16919655949494228,0.0,-0.48061777729828153,-0.4505878814345615,-0.7406371263001933,-0.2560404475817248,-1.3490722899180687,-0.17582028205961084
16977,7.0,300.62023999999997,5772.9317,0.0,0.0,0.0,0.0,-0.16920652630452612,0.0,-0.47220086070509654,-0.4725249284845795,-0.8101012873732722,-0.2552934086804977,-1.3426388610581386,-0.18602244400398582
16978,7.0,300.02159,5929.7112,0.0,0.0,0.0,0.0,-0.16921649311410988,0.0,-0.5393426424164744,-0.45369807288151354,-0.8094434246133463,-0.2222406331309428,-1.3569790857484088,-0.15971471225011485
16979,7.0,299.37886000000003,6157.4601,0.0,0.0,0.0,0.0,-0.16922645992369373,0.0,-0.5728327468416905,-0.4952935498916675,-0.8035878320204443,-0.2299010470669668,-1.3684492795304286,-0.1925432251550368
16980,7.0,301.22603,6156.7413,0.0,0.0,0.0,0.0,-0.16923642673327755,0.0,-0.5827082065563225,-0.47583068733333256,-0.8129567274800823,-0.2300589924925548,-1.3866866667553186,-0.18600657650741984
16981,7.0,300.34467,5742.1661,0.0,0.0,0.0,0.0,-0.1692463935428614,0.0,-0.5340953139911034,-0.43983591985342557,-0.7715438888004532,-0.24133793531819978,-1.3978461980566785,-0.18438522435990484
16982,7.0,300.72346,5604.4292,0.0,0.0,0.0,0.0,-0.1692563603524452,0.0,-0.5164399578886555,-0.42937578443359053,-0.7577907817481272,-0.2088339157578028,-1.3414019866610687,-0.17111551866528685
16983,7.0,300.40802,6124.2899,0.0,0.0,0.0,0.0,-0.16926632716202902,0.0,-0.5599704183497775,-0.47628932485859654,-0.8253714831378233,-0.23553337000033375,-1.3468118302699787,-0.18509126716208582
16984,7.0,299.79281000000003,6146.5283,0.0,0.0,0.0,0.0,-0.16927629397161284,0.0,-0.5480650235173065,-0.5001842649443435,-0.8201418460591982,-0.25840968976055073,-1.3461737866820087,-0.18228275066740685
16985,7.0,299.5348,5526.6797,0.0,0.0,0.0,0.0,-0.16928626078119668,0.0,-0.5077612883971375,-0.42620672315582864,-0.7460046059224222,-0.2641976884392817,-1.3846857004578386,-0.16516282631530183
16986,7.0,300.01236,5601.672,0.0,0.0,0.0,0.0,-0.16929622759078047,0.0,-0.49336976285430456,-0.44491711579240056,-0.7644815558684552,-0.2189527378814528,-1.3593268875551185,-0.1784221867263988
16987,7.0,299.22246,5989.065,0.0,0.0,0.0,0.0,-0.16930619440036432,0.0,-0.5529415935985864,-0.4596609078649996,-0.8079237115833622,-0.2419581355719088,-1.3452489933157386,-0.14209614725879785
16988,7.0,299.71301,6143.4942,0.0,0.0,0.0,0.0,-0.1693161612099481,0.0,-0.5495698417708205,-0.49557507129945155,-0.8223239409445542,-0.24244186116964878,-1.3771141890855887,-0.17557052604246184
16989,7.0,299.62037000000004,5913.8989,0.0,0.0,0.0,0.0,-0.16932612801953195,0.0,-0.5042395350245675,-0.4579263250188095,-0.8355117253685872,-0.2508056530600908,-1.3727211419520289,-0.13803582106057485
16990,7.0,299.83909,5797.3799,0.0,0.0,0.0,0.0,-0.16933609482911577,0.0,-0.5267038875591264,-0.47083291227509055,-0.7647219291896782,-0.23125630960572077,-1.3355037565039587,-0.17276761282083583
16991,7.0,299.25166,5881.7339,0.0,0.0,0.0,0.0,-0.1693460616386996,0.0,-0.5666049469570544,-0.4504565135590966,-0.7708387781883643,-0.21867749862428879,-1.3400231559249887,-0.1785854618475128
16992,7.0,299.87414,5973.9494,0.0,0.0,0.0,0.0,-0.1693560284482834,0.0,-0.5837077372499685,-0.47887381175616556,-0.7533498990773463,-0.23447124071550976,-1.4054227756794289,-0.2232005457456788
16993,7.0,300.17196,5890.2431,0.0,0.0,0.0,0.0,-0.16936599525786722,0.0,-0.5597654986495535,-0.45525693789536154,-0.7754643662198742,-0.24165457597444978,-1.3858708990998088,-0.19139441232415783
16994,7.0,301.28396000000004,5657.5635,0.0,0.0,0.0,0.0,-0.16937596206745104,0.0,-0.5296577953106545,-0.43278815745786564,-0.7573120920033842,-0.23851294337689477,-1.3523470129162587,-0.17898947505988583
16995,7.0,300.60515,5785.0223,0.0,0.0,0.0,0.0,-0.16938592887703488,0.0,-0.48521334272932853,-0.48514625544020756,-0.7881427290236312,-0.24577405571351074,-1.3513325469161386,-0.18242125182357583
16996,7.0,300.966,6191.5429,0.0,0.0,0.0,0.0,-0.1693958956866187,0.0,-0.5635276050783444,-0.4798563198481315,-0.8386905138473092,-0.27748915874604774,-1.3562367787251486,-0.16473062448514683
16997,7.0,299.37703,6296.0149,0.0,0.0,0.0,0.0,-0.16940586249620254,0.0,-0.5856561462647615,-0.5028691851918246,-0.8253059967838602,-0.25817257910464975,-1.3628671834045187,-0.14984300156085284
16998,7.0,299.49096000000003,5785.8464,0.0,0.0,0.0,0.0,-0.1694158293057863,0.0,-0.5244138612731185,-0.4551436666666826,-0.7791952949430883,-0.23026583736796877,-1.342054621050479,-0.17913444075169282
16999,7.0,299.17446,5738.5441,0.0,0.0,0.0,0.0,-0.16942579611537015,0.0,-0.5442330940241246,-0.44260814172952256,-0.7575328893326753,-0.2330330132585678,-1.3530924610148287,-0.17909868315566382
17000,7.0,300.24982,5982.2162,0.0,0.0,0.0,0.0,-0.16943576292495396,0.0,-0.5257094332484815,-0.48741917806452756,-0.8053157375484752,-0.24911219803545978,-1.3987698768478387,-0.21942344321540783
17001,7.0,299.3416,5862.7533,0.0,0.0,0.0,0.0,-0.1694457297345378,0.0,-0.5308326790666066,-0.44619924193893656,-0.8050986791120532,-0.2346068642413948,-1.3778988499630287,-0.17958499254115884
17002,7.0,299.8995,5767.8085,0.0,0.0,0.0,0.0,-0.16945569654412163,0.0,-0.5290797969236105,-0.46639014495912356,-0.7577997996740172,-0.22307293702808478,-1.3348940839187886,-0.1996656134204618
17003,7.0,300.65332,5762.0199,0.0,0.0,0.0,0.0,-0.16946566335370544,0.0,-0.5585174683688824,-0.4162775713183976,-0.7767151221433143,-0.22457869760419177,-1.3632275964650886,-0.14927513567480885
17004,7.0,301.16266,5867.3198,0.0,0.0,0.0,0.0,-0.16947563016328926,0.0,-0.5317560234852335,-0.4777253332978196,-0.7740373453090383,-0.24782452941087676,-1.4007425734675287,-0.21180117814564878
17005,7.0,300.18183,6007.0592,0.0,0.0,0.0,0.0,-0.1694855969728731,0.0,-0.5661014123198594,-0.44144288384952063,-0.8184517043623942,-0.24425324837341875,-1.3927046630742486,-0.1347306600293809
17006,7.0,301.0749,6287.4718,0.0,0.0,0.0,0.0,-0.1694955637824569,0.0,-0.5268809428816005,-0.5053982067789196,-0.8789552895011332,-0.24029342645261478,-1.3672523271872987,-0.2003853350989928
17007,7.0,300.75329,5949.311,0.0,0.0,0.0,0.0,-0.16950553059204074,0.0,-0.5205612108153915,-0.45601649043532355,-0.8318642884536132,-0.25822323147714876,-1.3314715277310087,-0.16452771102012084
17008,7.0,300.57653,5614.1707,0.0,0.0,0.0,0.0,-0.16951549740162453,0.0,-0.5053702714736625,-0.44353938949892957,-0.7576580561175283,-0.27799343305581575,-1.3740658261597385,-0.2058540789362158
17009,7.0,301.4897,5892.0906,0.0,0.0,0.0,0.0,-0.16952546421120837,0.0,-0.5515104284948414,-0.4533647034661125,-0.7861732950692633,-0.2344517255185838,-1.3473997179779986,-0.18234854099639983
17010,7.0,300.37288,5980.7676,0.0,0.0,0.0,0.0,-0.1695354310207922,0.0,-0.5902155184022364,-0.45371362627054856,-0.7740748760927423,-0.2217133580439048,-1.3327825720353987,-0.17491095088986683
17011,7.0,299.62147999999996,5946.3811,0.0,0.0,0.0,0.0,-0.16954539783037603,0.0,-0.5659707233219615,-0.4605046614882715,-0.7810759884536982,-0.2071195573836088,-1.3821535884579386,-0.17417172414691084
17012,7.0,300.13287,5828.5131,0.0,0.0,0.0,0.0,-0.16955536463995985,0.0,-0.5118796940910926,-0.46994411968487354,-0.7898986205194243,-0.24769425584551977,-1.4214495551611486,-0.1981998052957978
17013,7.0,299.83709,5837.2061,0.0,0.0,0.0,0.0,-0.16956533144954364,0.0,-0.5365918203824894,-0.45283048761588957,-0.7849425711003003,-0.25688815288038674,-1.3794060594867787,-0.15202835911153084
17014,7.0,299.18617,5935.8479,0.0,0.0,0.0,0.0,-0.16957529825912745,0.0,-0.5475499884914765,-0.4716700392427086,-0.7851295157437502,-0.2395146120282518,-1.3422101549408287,-0.16065008394742886
17015,7.0,299.32349,6108.5139,0.0,0.0,0.0,0.0,-0.1695852650687113,0.0,-0.5459921468602295,-0.4786214314212575,-0.8322221379914302,-0.24119280750637678,-1.3239160257103386,-0.16335802523718185
17016,7.0,300.69362,6019.0262,0.0,0.0,0.0,0.0,-0.16959523187829512,0.0,-0.5467416783567025,-0.4715328553116696,-0.8113591157824103,-0.25037645045023177,-1.3630831070008287,-0.18048030032951884
17017,7.0,300.72639,5740.76,0.0,0.0,0.0,0.0,-0.16960519868787893,0.0,-0.4959242170189095,-0.44959245440382056,-0.7995310116675672,-0.24338127573486176,-1.3677417269855987,-0.16480975931795683
17018,7.0,300.59054,5708.4278,0.0,0.0,0.0,0.0,-0.16961516549746272,0.0,-0.4988422759818995,-0.44911886130708056,-0.7872583542038503,-0.2144925021337618,-1.3589559366935087,-0.22411472025090076
17019,7.0,300.46475,5988.5916,0.0,0.0,0.0,0.0,-0.16962513230704657,0.0,-0.5812177156592224,-0.4308072332473636,-0.8083573724936612,-0.22318135478878476,-1.3641928185103487,-0.16822768495277982
17020,7.0,300.83966000000004,6002.5405,0.0,0.0,0.0,0.0,-0.16963509911663038,0.0,-0.5714334585860914,-0.4793189426575965,-0.7738700273200252,-0.22043733166297078,-1.3881276097225288,-0.22886225293194576
17021,7.0,300.37543999999997,5732.8516,0.0,0.0,0.0,0.0,-0.1696450659262142,0.0,-0.5443710378927384,-0.43380579493079857,-0.7644668941395083,-0.23732118900677776,-1.3566501847659487,-0.13688177985917985
17022,7.0,299.5049,5841.1575,0.0,0.0,0.0,0.0,-0.16965503273579804,0.0,-0.5345013638361775,-0.47247560346971157,-0.7685890589913342,-0.22586752133388877,-1.3746750934448686,-0.18682795756848383
17023,7.0,300.3966,6191.9671,0.0,0.0,0.0,0.0,-0.16966499954538186,0.0,-0.5616867322966644,-0.4768024448417375,-0.8437142179756103,-0.2345712586328808,-1.3616391242833188,-0.13622802076215887
17024,7.0,300.93906,6365.3101,0.0,0.0,0.0,0.0,-0.16967496635496568,0.0,-0.5483010499956005,-0.5188439849434145,-0.8677503139327881,-0.2276245274047918,-1.3826173530287087,-0.2029290589450388
17025,7.0,300.58726,6046.8832,0.0,0.0,0.0,0.0,-0.16968493316454952,0.0,-0.5646305075471925,-0.4589509640499336,-0.8145200305293682,-0.25070811760546474,-1.3741561067436487,-0.14524784142984587
17026,7.0,299.0928,5647.2171,0.0,0.0,0.0,0.0,-0.1696948999741333,0.0,-0.5107936318389065,-0.42915102529640864,-0.7766683201211952,-0.25330796537454975,-1.3471699128553187,-0.18770257478980182
17027,7.0,300.05681,5765.6228,0.0,0.0,0.0,0.0,-0.16970486678371713,0.0,-0.5404055823013785,-0.4468182465575276,-0.7653815144747743,-0.24283377617582777,-1.3498928198490487,-0.17951512894676383
17028,7.0,299.24064,5918.241,0.0,0.0,0.0,0.0,-0.16971483359330095,0.0,-0.5450645366586815,-0.4557561763521326,-0.7981767725114142,-0.24934222607316178,-1.3600730449287588,-0.2038479551957268
17029,7.0,300.10855,6038.5775,0.0,0.0,0.0,0.0,-0.1697248004028848,0.0,-0.5445735359252235,-0.4790101040271165,-0.8119931468999841,-0.24134533204392977,-1.3433513785284588,-0.1924192236077988
17030,7.0,301.02512,5831.3799,0.0,0.0,0.0,0.0,-0.1697347672124686,0.0,-0.5383851616019785,-0.44909634688985856,-0.7851123715520583,-0.23152224722696677,-1.3680529974163187,-0.1923753194809658
17031,7.0,300.39392999999995,5838.8135,0.0,0.0,0.0,0.0,-0.16974473402205242,0.0,-0.5550473806189115,-0.43709716562813156,-0.7827089625798602,-0.2443060893661338,-1.3780112193991187,-0.18378787289595083
17032,7.0,300.76377,6143.7809,0.0,0.0,0.0,0.0,-0.16975470083163627,0.0,-0.5766880824121825,-0.48727616794541356,-0.8035917229008283,-0.23824524270047479,-1.3733201754111486,-0.17333737348456682
17033,7.0,301.38984,6311.6728,0.0,0.0,0.0,0.0,-0.16976466764122006,0.0,-0.6027184268186774,-0.48096650758519854,-0.8349060044588072,-0.2156716111426308,-1.3625531771985289,-0.13363009816826388
17034,7.0,300.42672999999996,5946.2234,0.0,0.0,0.0,0.0,-0.16977463445080387,0.0,-0.5252347255766315,-0.47193368691872856,-0.8103350239063403,-0.25762763293586777,-1.3417811448484886,-0.17179415305226284
17035,7.0,299.77552000000003,5763.7464,0.0,0.0,0.0,0.0,-0.1697846012603877,0.0,-0.4607067035582116,-0.47196192619901556,-0.8193663652276642,-0.2571809213642808,-1.3546744483959587,-0.16891935986854284
17036,7.0,300.45423999999997,5772.9147,0.0,0.0,0.0,0.0,-0.16979456806997154,0.0,-0.5041467618454115,-0.45892424464479653,-0.7917509328947332,-0.2634185497748867,-1.3587980723279287,-0.1980271170812548
17037,7.0,299.59774,5842.3144,0.0,0.0,0.0,0.0,-0.16980453487955535,0.0,-0.5381948225706935,-0.4474307562429776,-0.7902921161957592,-0.23065458090133478,-1.3550252355805787,-0.1777978828097848
17038,7.0,299.73658,5920.7548,0.0,0.0,0.0,0.0,-0.16981450168913914,0.0,-0.5455304087896594,-0.46572344665832555,-0.7885077726371582,-0.2337727263615718,-1.3803119050761787,-0.21200609784587282
17039,7.0,300.06404,5853.2896,0.0,0.0,0.0,0.0,-0.16982446849872296,0.0,-0.5677077886308965,-0.4440924923310166,-0.7674536007967733,-0.2408254536826218,-1.3726501131200188,-0.1741182144091298
17040,7.0,300.40207000000004,5867.6669999999995,0.0,0.0,0.0,0.0,-0.1698344353083068,0.0,-0.5289480642781095,-0.4734168317526036,-0.7812593461917943,-0.25771427595191876,-1.3606828188389386,-0.2140587601634548
17041,7.0,300.18487999999996,6010.7007,0.0,0.0,0.0,0.0,-0.16984440211789062,0.0,-0.5438591743397215,-0.45788538971476955,-0.8253583716815293,-0.2058326892266048,-1.3395289938512187,-0.17615365147501183
17042,7.0,300.15387999999996,6303.7903,0.0,0.0,0.0,0.0,-0.16985436892747446,0.0,-0.5678674261841515,-0.5014635134605955,-0.8468639261764622,-0.25373726930941876,-1.3426376451580186,-0.17191515537920482
17043,7.0,300.27472,6084.1146,0.0,0.0,0.0,0.0,-0.16986433573705825,0.0,-0.5555536915613805,-0.47361755659741356,-0.8202476698996422,-0.2257786187701148,-1.3808442666787186,-0.17089415391593984
17044,7.0,299.70769,5691.0697,0.0,0.0,0.0,0.0,-0.1698743025466421,0.0,-0.5128002926019486,-0.44473983755490454,-0.7724029425002353,-0.26301516477757575,-1.3900311013603885,-0.15815603975378584
17045,7.0,299.56889,5743.5463,0.0,0.0,0.0,0.0,-0.1698842693562259,0.0,-0.5370380962565335,-0.4472707843171896,-0.7615857681426633,-0.21602235779724682,-1.3691092093205588,-0.18341732733438082
17046,7.0,300.21795,5955.7257,0.0,0.0,0.0,0.0,-0.16989423616580973,0.0,-0.5530866504829024,-0.45821124081442854,-0.7990939968994373,-0.2239931707689048,-1.3630164351442486,-0.17005730052584883
17047,7.0,299.60511,5995.8322,0.0,0.0,0.0,0.0,-0.16990420297539355,0.0,-0.5038735693534495,-0.5019453240156465,-0.8167643592358662,-0.24798596041680876,-1.3693827868475588,-0.23761067456034776
17048,7.0,300.15873999999997,5927.5585,0.0,0.0,0.0,0.0,-0.16991416978497736,0.0,-0.5407067506286015,-0.4714061990491696,-0.7897168333189832,-0.2749134668593467,-1.3580958900086288,-0.1943721213205348
17049,7.0,299.63718,5795.4472,0.0,0.0,0.0,0.0,-0.16992413659456118,0.0,-0.5259593412531455,-0.4694181415579636,-0.7662937334073033,-0.25445739628798975,-1.3546288521414587,-0.21090275967948177
17050,7.0,299.88998,5794.8066,0.0,0.0,0.0,0.0,-0.16993410340414503,0.0,-0.5527407978262694,-0.4320516766226806,-0.7766840254977452,-0.25353904719235576,-1.3571975424699687,-0.15597066193810585
17051,7.0,300.14589,6167.0407,0.0,0.0,0.0,0.0,-0.16994407021372884,0.0,-0.5846974799476484,-0.4694057292442385,-0.8205231827343332,-0.24459837148997976,-1.4048696424498386,-0.17490897505217184
17052,7.0,300.96429,6121.4225,0.0,0.0,0.0,0.0,-0.1699540370233127,0.0,-0.5635809526961094,-0.47883729422256155,-0.8183413411615023,-0.24753650293745078,-1.3852081322093988,-0.15441448203702285
17053,7.0,300.11281,5644.8745,0.0,0.0,0.0,0.0,-0.16996400383289645,0.0,-0.5124194726843645,-0.44412925304464457,-0.7593521798872253,-0.22547521116017077,-1.3646203087275386,-0.18228461504759083
17054,7.0,300.20622000000003,5778.7851,0.0,0.0,0.0,0.0,-0.1699739706424803,0.0,-0.5135981155981875,-0.4444552966618226,-0.7985529517435402,-0.2340518564991198,-1.3599475032413686,-0.17330143350351984
17055,7.0,300.28717,6266.7966,0.0,0.0,0.0,0.0,-0.1699839374520641,0.0,-0.5741801262946664,-0.5051246697819235,-0.8256448884123062,-0.23880067600779176,-1.3860623020436988,-0.1913602860607898
17056,7.0,300.42151,6149.1994,0.0,0.0,0.0,0.0,-0.16999390426164795,0.0,-0.5627376449028815,-0.4615859411999855,-0.8448794961206142,-0.2345577418765468,-1.3740711963852688,-0.17861369099529883
17057,7.0,299.91366,5617.4208,0.0,0.0,0.0,0.0,-0.17000387107123177,0.0,-0.5290225685579625,-0.4096598322652776,-0.7688732655118833,-0.2236537826479098,-1.3679592717820688,-0.17190025047023383
17058,7.0,299.0336,5687.2607,0.0,0.0,0.0,0.0,-0.17001383788081556,0.0,-0.5067069408730815,-0.43423350806301053,-0.7878447828317262,-0.23953315450508178,-1.3454447532350589,-0.17808453126307483
17059,7.0,299.57497,5993.3178,0.0,0.0,0.0,0.0,-0.17002380469039938,0.0,-0.5693380776442934,-0.4478892721782296,-0.8045915879670072,-0.25630700328553174,-1.3533975506199385,-0.18292914343620084
17060,7.0,299.84968,6187.7404,0.0,0.0,0.0,0.0,-0.17003377149998322,0.0,-0.5751211012650335,-0.48631039874509957,-0.8194870838445782,-0.2528370877880778,-1.3369581756974986,-0.17708662176958884
17061,7.0,299.44847000000004,5974.1987,0.0,0.0,0.0,0.0,-0.17004373830956704,0.0,-0.5777697876889385,-0.43412083465189055,-0.8041165965851294,-0.2379941187956908,-1.3465578084699088,-0.1840874706855188
17062,7.0,299.79652000000004,5782.3475,0.0,0.0,0.0,0.0,-0.17005370511915088,0.0,-0.5452158756936174,-0.4375643955142436,-0.7749089835750622,-0.23791220765760676,-1.3581230451113089,-0.15143803960327085
17063,7.0,299.47283,5833.6225,0.0,0.0,0.0,0.0,-0.17006367192873467,0.0,-0.5227990445887485,-0.47403904837401156,-0.7764374713509122,-0.24178492046731379,-1.4001769772617088,-0.2057335731018228
17064,7.0,300.73481,6106.4879,0.0,0.0,0.0,0.0,-0.17007363873831852,0.0,-0.5677328564383705,-0.45655844751631053,-0.8319285285099531,-0.22223820133070277,-1.3884143595008287,-0.17518606855701885
17065,7.0,301.11715,6097.4213,0.0,0.0,0.0,0.0,-0.1700836055479023,0.0,-0.5358142826532525,-0.5085419165391795,-0.8091076031327032,-0.2246295627592118,-1.3800893953542186,-0.2107009405245638
17066,7.0,301.47362000000004,5558.0968,0.0,0.0,0.0,0.0,-0.17009357235748615,0.0,-0.49326905592686554,-0.4143460025202666,-0.7819075729432692,-0.2351595719059428,-1.3783773066602487,-0.18122098615261883
17067,7.0,300.0529,5551.3758,0.0,0.0,0.0,0.0,-0.17010353916706997,0.0,-0.47551504979468157,-0.4445232046835246,-0.7674413708680663,-0.2641195668565718,-1.3894927615822588,-0.21730934754426282
17068,7.0,299.75397999999996,5831.4662,0.0,0.0,0.0,0.0,-0.17011350597665378,0.0,-0.5460137696173635,-0.4365658375406936,-0.7900405261959293,-0.2501791706557618,-1.3697514072339385,-0.15094791026489887
17069,7.0,299.99611,6023.0753,0.0,0.0,0.0,0.0,-0.1701234727862376,0.0,-0.5737042331201995,-0.4497422431661035,-0.8074180085909533,-0.22281574375520177,-1.3476655948042386,-0.19035848568691982
17070,7.0,300.64236,6093.6226,0.0,0.0,0.0,0.0,-0.17013343959582145,0.0,-0.5718277851275084,-0.4773588508691506,-0.8031224563820153,-0.23873326447863877,-1.3516253761950385,-0.16436695889175584
17071,7.0,298.60915,5937.9395,0.0,0.0,0.0,0.0,-0.17014340640540526,0.0,-0.5597592671614384,-0.4785275436669916,-0.7666985166897523,-0.24519521632888375,-1.3915887707391188,-0.21767431009778182
17072,7.0,298.79022000000003,6035.5949,0.0,0.0,0.0,0.0,-0.1701533732149891,0.0,-0.5527007947123215,-0.47679095458560355,-0.8051784117624222,-0.24608692707938878,-1.3469677694603688,-0.17683032015679384
17073,7.0,299.83538,6128.5297,0.0,0.0,0.0,0.0,-0.17016334002457287,0.0,-0.5869363472361074,-0.47761776666720357,-0.7983658855100783,-0.22123677585936977,-1.3522257268792885,-0.17762467783769084
17074,7.0,300.59985,6149.4875,0.0,0.0,0.0,0.0,-0.1701733068341567,0.0,-0.5660601426432864,-0.4625576784433885,-0.8406728262104483,-0.23121329713897576,-1.3597046271923987,-0.15240939181163587
17075,7.0,300.39612,5800.325,0.0,0.0,0.0,0.0,-0.17018327364374053,0.0,-0.5158704606699506,-0.4496719844041696,-0.7976115309431292,-0.26981291784346173,-1.3890206883606686,-0.1882179340556638
17076,7.0,300.40101,5696.9773,0.0,0.0,0.0,0.0,-0.17019324045332437,0.0,-0.4850436334700795,-0.45902267175951056,-0.7876725505797282,-0.2507226881419028,-1.3744135735940588,-0.18612272536638283
17077,7.0,300.11197000000004,5957.8625,0.0,0.0,0.0,0.0,-0.1702032072629082,0.0,-0.5299046331675155,-0.4785116052429186,-0.8026252038954402,-0.23428496481712577,-1.342485556318009,-0.19732890670234682
17078,7.0,301.14175,6274.4179,0.0,0.0,0.0,0.0,-0.17021317407249198,0.0,-0.5838503319365415,-0.48782676804975356,-0.8355892491337382,-0.23318528448359577,-1.3476381357265288,-0.17690369972903583
17079,7.0,301.34783999999996,6018.8408,0.0,0.0,0.0,0.0,-0.1702231408820758,0.0,-0.5554898568050805,-0.4832655923271006,-0.7908218636130412,-0.24920613645223078,-1.3863369941458088,-0.18921902515446382
17080,7.0,300.66874,5607.5698,0.0,0.0,0.0,0.0,-0.17023310769165964,0.0,-0.5300232138267186,-0.4278241134954526,-0.7467138607274203,-0.24640586781336576,-1.3483723367489886,-0.16165883521698485
17081,7.0,300.21756,5892.738,0.0,0.0,0.0,0.0,-0.17024307450124346,0.0,-0.5310280843483915,-0.4822951419113245,-0.7779219840724223,-0.21588511307120178,-1.3611353363335987,-0.1831258152806108
17082,7.0,299.85997000000003,6335.4598,0.0,0.0,0.0,0.0,-0.1702530413108273,0.0,-0.6208132092244935,-0.46774207390504857,-0.8372663097717512,-0.2248687708428198,-1.3706342520460686,-0.16927708781634784
17083,7.0,299.72195,6293.871999999999,0.0,0.0,0.0,0.0,-0.1702630081204111,0.0,-0.5533662264504945,-0.5221311101228285,-0.8376825934428352,-0.2481712939925998,-1.3940704228840386,-0.22795472534737976
17084,7.0,299.49962,5738.0912,0.0,0.0,0.0,0.0,-0.17027297492999494,0.0,-0.5383789098488615,-0.4386196752283916,-0.7672378595854813,-0.25433198632311277,-1.3878504858201788,-0.18777444461939483
17085,7.0,299.37214,5607.3621,0.0,0.0,0.0,0.0,-0.17028294173957872,0.0,-0.48426766627849754,-0.45397084994093456,-0.7662595463489292,-0.2652293695586007,-1.3623768716811289,-0.2042422513396408
17086,7.0,300.4477,5943.6979,0.0,0.0,0.0,0.0,-0.17029290854916257,0.0,-0.5336380747509775,-0.46218656546176257,-0.8109110971181942,-0.23568406055520577,-1.3614336371630384,-0.16112845958464084
17087,7.0,300.47562999999997,6127.6792,0.0,0.0,0.0,0.0,-0.1703028753587464,0.0,-0.5396351069253386,-0.4851080761764396,-0.8379182956810972,-0.24715915846770978,-1.3871967368556588,-0.1913506500523388
17088,7.0,300.15488,5887.6795,0.0,0.0,0.0,0.0,-0.1703128421683302,0.0,-0.5390829261508425,-0.4443321462446686,-0.8062925005123742,-0.23321600622662778,-1.3745960599370688,-0.14660975088925587
17089,7.0,301.56222,5631.5143,0.0,0.0,0.0,0.0,-0.17032280897791402,0.0,-0.4981751622485605,-0.42991879529468163,-0.7837457707446853,-0.2255660388991348,-1.3871587399769088,-0.17899176500511182
17090,7.0,300.23821,6064.1364,0.0,0.0,0.0,0.0,-0.17033277578749786,0.0,-0.5703246590016614,-0.4757468307550565,-0.7972745543573723,-0.2221111904306678,-1.3729202455966787,-0.15395096064627686
17091,7.0,299.94212000000005,6596.358,0.0,0.0,0.0,0.0,-0.17034274259708168,0.0,-0.6451652061653483,-0.5046631850238785,-0.8552997398840121,-0.25880045979411676,-1.3816362229568786,-0.16200784921392983
17092,7.0,299.83338,6476.1033,0.0,0.0,0.0,0.0,-0.17035270940666553,0.0,-0.6230559775258374,-0.49957761184447147,-0.8459401257952902,-0.2651338910016778,-1.3684846419589187,-0.16464908824959984
17093,7.0,299.45694,5920.929,0.0,0.0,0.0,0.0,-0.1703626762162493,0.0,-0.5329959578976055,-0.46841076830854356,-0.7984078441967192,-0.26460500484698074,-1.3357673028549686,-0.14942507642460687
17094,7.0,299.84317999999996,5824.9209,0.0,0.0,0.0,0.0,-0.17037264302583313,0.0,-0.5332434948970355,-0.45461545938955256,-0.7827715409060362,-0.24300568418779375,-1.3448871617050289,-0.17229313819650885
17095,7.0,300.83579,6165.7413,0.0,0.0,0.0,0.0,-0.17038260983541695,0.0,-0.5619949427120825,-0.49329434664936156,-0.8189420971457922,-0.24572299804097178,-1.3684464424301486,-0.17269562140123085
17096,7.0,300.18596,6105.2497,0.0,0.0,0.0,0.0,-0.1703925766450008,0.0,-0.5610428929181224,-0.47044888035468957,-0.8243516874421772,-0.23309086983927776,-1.3916635485964985,-0.18357808959524682
17097,7.0,300.99477,5767.9331,0.0,0.0,0.0,0.0,-0.1704025434545846,0.0,-0.4964240228957365,-0.4726563672875515,-0.7842272367947023,-0.2248141870599328,-1.3806787016123787,-0.18177257924205684
17098,7.0,300.33607,5460.1063,0.0,0.0,0.0,0.0,-0.17041251026416843,0.0,-0.48491259996714753,-0.4323926454138316,-0.7424307410972093,-0.2142388552362288,-1.3732846103326386,-0.19442704960845583
17099,7.0,300.04764,5752.0509999999995,0.0,0.0,0.0,0.0,-0.17042247707375222,0.0,-0.5129494328841675,-0.4679335883064496,-0.7675968540959113,-0.2226050991919128,-1.3850130815651487,-0.2095642157673778
17100,7.0,300.80675,6231.0915,0.0,0.0,0.0,0.0,-0.17043244388333603,0.0,-0.5739267833721635,-0.4959103658900425,-0.8242590865155383,-0.22131759268734577,-1.3820626999239687,-0.17085870029494082
17101,7.0,300.98139,6182.863,0.0,0.0,0.0,0.0,-0.17044241069291988,0.0,-0.5630682886755135,-0.49755861982771254,-0.8188090574076622,-0.2502246453202498,-1.3653027326698886,-0.19277851196075782
17102,7.0,300.57306,5738.2963,0.0,0.0,0.0,0.0,-0.17045237750250372,0.0,-0.5035502007165354,-0.46644796100982955,-0.7743006282150223,-0.2418405478978038,-1.3728523578399787,-0.17708022816145783
17103,7.0,299.97825,5839.9112,0.0,0.0,0.0,0.0,-0.1704623443120875,0.0,-0.5398131451004095,-0.46209771356049356,-0.7732763235564313,-0.27734951261726576,-1.3784727548196685,-0.2010301370651298
17104,7.0,299.13493,6285.9405,0.0,0.0,0.0,0.0,-0.17047231112167135,0.0,-0.6036424906448755,-0.4727271124095336,-0.8343993388788032,-0.25754061501727976,-1.3690778998924686,-0.17235096437971584
17105,7.0,299.59147,6235.8341,0.0,0.0,0.0,0.0,-0.17048227793125514,0.0,-0.5795956238391344,-0.48366131715365557,-0.8322809267622322,-0.23762415078667778,-1.3587994908780685,-0.16812150647480084
17106,7.0,299.79023,5814.5463,0.0,0.0,0.0,0.0,-0.170492244740839,0.0,-0.5135422449876735,-0.4547278794881476,-0.7992067615030662,-0.23652209944791378,-1.3683008383907789,-0.17909561300786084
17107,7.0,299.2742,5530.1468,0.0,0.0,0.0,0.0,-0.1705022115504228,0.0,-0.4883752403288835,-0.4264375617936106,-0.7662137373119082,-0.24860981850337877,-1.3688254992925588,-0.16840585485036383
17108,7.0,299.16806,5921.672,0.0,0.0,0.0,0.0,-0.17051217836000662,0.0,-0.5248558308342375,-0.4847289889165265,-0.7904555939668932,-0.24653216943833076,-1.3874869316842988,-0.19015961508979282
17109,7.0,300.17519,6248.4464,0.0,0.0,0.0,0.0,-0.17052214516959044,0.0,-0.5680980520394125,-0.5030476995944425,-0.8282259302595352,-0.2308009043482758,-1.3576433725139687,-0.15218848302483387
17110,7.0,300.11894,6250.1763,0.0,0.0,0.0,0.0,-0.17053211197917428,0.0,-0.5841418642553134,-0.5029048921253485,-0.8128507617846242,-0.22738991947663775,-1.3867115927077787,-0.20070635299567482
17111,7.0,300.92342,5884.8306,0.0,0.0,0.0,0.0,-0.1705420787887581,0.0,-0.5384587134267375,-0.46166176270496856,-0.7887210921807113,-0.2304519410138358,-1.3766973379944487,-0.17180569397090184
17112,7.0,300.63719,5647.2523,0.0,0.0,0.0,0.0,-0.17055204559834194,0.0,-0.5243056360299375,-0.41877364201224065,-0.7735444194003902,-0.2346232383630108,-1.3796399176098588,-0.18402469984182382
17113,7.0,301.10202999999996,6096.2887,0.0,0.0,0.0,0.0,-0.1705620124079257,0.0,-0.5576903421797514,-0.4755986327954305,-0.8198305553634763,-0.24532298716649376,-1.3510571455389588,-0.16670969444796582
17114,7.0,299.65691,6200.7395,0.0,0.0,0.0,0.0,-0.17057197921750955,0.0,-0.5663867739455225,-0.4802955131039766,-0.8381876783526833,-0.2286208663606228,-1.3769571353200885,-0.20130092815435482
17115,7.0,300.29184,5883.7182,0.0,0.0,0.0,0.0,-0.17058194602709337,0.0,-0.5297727586670005,-0.47351723470501256,-0.7852134128520303,-0.2608389264777977,-1.3732582658300385,-0.21805346828520178
17116,7.0,298.93314,5562.0915,0.0,0.0,0.0,0.0,-0.1705919128366772,0.0,-0.5152506657162815,-0.41664599918725864,-0.7588402656717033,-0.23199690423631175,-1.3839354900837986,-0.2144748209195168
17117,7.0,299.19546,5743.7012,0.0,0.0,0.0,0.0,-0.17060187964626103,0.0,-0.5244164247958715,-0.45408582342978154,-0.7674394862228803,-0.25806309743134476,-1.3629568560383687,-0.19943988156318382
17118,7.0,298.75032000000004,6142.0578,0.0,0.0,0.0,0.0,-0.17061184645584485,0.0,-0.5512663872082565,-0.5070217272816485,-0.8087440793943262,-0.22726926165472977,-1.3694011266743686,-0.1929127675990078
17119,7.0,300.83382,6267.2912,0.0,0.0,0.0,0.0,-0.17062181326542863,0.0,-0.5611110846498525,-0.5098420684049945,-0.8341468876163882,-0.24090713177318276,-1.3743505494378387,-0.17546822831236583
17120,7.0,300.5859,5831.4199,0.0,0.0,0.0,0.0,-0.17063178007501248,0.0,-0.5223476315366975,-0.4598539218765486,-0.7904044856318493,-0.23667743068824376,-1.3732137841506487,-0.16738698121230886
17121,7.0,300.94082000000003,5731.8803,0.0,0.0,0.0,0.0,-0.1706417468845963,0.0,-0.5144369752234765,-0.44886997668501755,-0.7790415443729143,-0.25399608378246175,-1.3626437617574687,-0.14313235760606385
17122,7.0,300.98915,6171.7154,0.0,0.0,0.0,0.0,-0.1706517136941801,0.0,-0.5752327614260535,-0.4720737890100556,-0.8287408234303513,-0.24003810769241676,-1.3794566206667687,-0.18292936635122284
17123,7.0,300.77578,6540.6598,0.0,0.0,0.0,0.0,-0.17066168050376393,0.0,-0.6181203856262324,-0.5152265604964025,-0.8548503229346581,-0.24148785580299575,-1.3523062802622385,-0.14656054746439987
17124,7.0,299.30316,6163.8961,0.0,0.0,0.0,0.0,-0.17067164731334777,0.0,-0.5771680488520515,-0.47367018480760753,-0.8228322581222213,-0.24149906234910176,-1.3935783886354787,-0.1919006827366228
17125,7.0,299.52722,5852.5843,0.0,0.0,0.0,0.0,-0.17068161412293156,0.0,-0.5295102053010885,-0.4441523652794256,-0.8053769378545153,-0.26560693694336374,-1.3633506050272286,-0.16002633731836988
17126,7.0,299.85444,6065.4279,0.0,0.0,0.0,0.0,-0.17069158093251538,0.0,-0.5574779750912924,-0.4843636514604705,-0.8018970114460732,-0.2656753110601117,-1.387314780492309,-0.2304519916763408
17127,7.0,299.66016,6305.7372,0.0,0.0,0.0,0.0,-0.17070154774209922,0.0,-0.5946701711418765,-0.48809003069073553,-0.8340264425770011,-0.2276809755678628,-1.3622484928934588,-0.19411540427519883
17128,7.0,300.76588,6033.9183,0.0,0.0,0.0,0.0,-0.17071151455168304,0.0,-0.5569402128657194,-0.4763504643696305,-0.8008698291571983,-0.22916606584192975,-1.3734277825717687,-0.1976215637287298
17129,7.0,300.14677,5632.4439,0.0,0.0,0.0,0.0,-0.17072148136126686,0.0,-0.5215374063592345,-0.4284587728280886,-0.7621261141559912,-0.2432670317860868,-1.3719663719525386,-0.16019010893203284
17130,7.0,300.62041,5696.9669,0.0,0.0,0.0,0.0,-0.1707314481708507,0.0,-0.5262528696746145,-0.4377314196607276,-0.7677513848686622,-0.2372542739701738,-1.3774886863225486,-0.16970544942862384
17131,7.0,300.68237999999997,6222.1073,0.0,0.0,0.0,0.0,-0.17074141498043452,0.0,-0.5563351404360035,-0.5258952734493225,-0.8091348494278923,-0.2410747841347288,-1.3514917285068486,-0.16722963360427984
17132,7.0,301.52347000000003,6466.0735,0.0,0.0,0.0,0.0,-0.1707513817900183,0.0,-0.6085070942424745,-0.5039205436280856,-0.8530972584066443,-0.2005914200368318,-1.3657695369909588,-0.14473053672379188
17133,7.0,301.11067,6192.6651,0.0,0.0,0.0,0.0,-0.17076134859960213,0.0,-0.5769284354684034,-0.48329856348535455,-0.8221885707311942,-0.22706388599196078,-1.3602018290164686,-0.16943657338208784
17134,7.0,301.07262000000003,5841.6492,0.0,0.0,0.0,0.0,-0.17077131540918597,0.0,-0.5046078717009196,-0.4833450615324435,-0.7877625474536103,-0.23605991554729977,-1.3637216572138486,-0.2133607625670678
17135,7.0,300.51457999999997,5922.1764,0.0,0.0,0.0,0.0,-0.1707812822187698,0.0,-0.5544711756845444,-0.45186821412842054,-0.7938543691748262,-0.2360518804740068,-1.3526199824931986,-0.21652722992457377
17136,7.0,300.90136,6109.6963,0.0,0.0,0.0,0.0,-0.1707912490283536,0.0,-0.5631278069863874,-0.46487271174186456,-0.8291946074876363,-0.2544259044748817,-1.3556791871951186,-0.20505536427988882
17137,7.0,299.96378,5731.9888,0.0,0.0,0.0,0.0,-0.17080121583793745,0.0,-0.5351571798309015,-0.4276904556747616,-0.7795338319339992,-0.2568617171852777,-1.3587686880750287,-0.17547035613757583
17138,7.0,299.82334,5578.8158,0.0,0.0,0.0,0.0,-0.17081118264752126,0.0,-0.4984051801537615,-0.43739536513256155,-0.7600201447506483,-0.27218003219707776,-1.3865877735455587,-0.18709075411441983
17139,7.0,299.62255,5956.1336,0.0,0.0,0.0,0.0,-0.17082114945710505,0.0,-0.5359293777321115,-0.4696674517450686,-0.8049190501343253,-0.25456528715863774,-1.3608775655081589,-0.16640941778083085
17140,7.0,299.0751,6258.3854,0.0,0.0,0.0,0.0,-0.17083111626668887,0.0,-0.5475701825659695,-0.48973148572023456,-0.8650912214303562,-0.24027410377320776,-1.3752949998560486,-0.15741248643290284
17141,7.0,299.41103,6378.6979,0.0,0.0,0.0,0.0,-0.17084108307627272,0.0,-0.5924358128163625,-0.48207751605484656,-0.8644515566422262,-0.2177786545930798,-1.3644958816152588,-0.11402490436838188
17142,7.0,299.87717999999995,6305.6906,0.0,0.0,0.0,0.0,-0.17085104988585653,0.0,-0.5687076942270796,-0.5169212820836585,-0.8311435231274792,-0.2219152582588308,-1.3772208843211187,-0.16331430349536685
17143,7.0,299.9336,5923.8769,0.0,0.0,0.0,0.0,-0.17086101669544035,0.0,-0.5688604619446564,-0.4385456573085866,-0.7933045391405623,-0.2406985035775928,-1.3718987881708686,-0.15395150780133085
17144,7.0,300.26655,5923.6349,0.0,0.0,0.0,0.0,-0.17087098350502414,0.0,-0.5588915299082995,-0.46435934857869954,-0.7773862078170453,-0.2429365602659718,-1.3776043994839686,-0.19220586353424182
17145,7.0,300.32176,5992.8972,0.0,0.0,0.0,0.0,-0.17088095031460798,0.0,-0.5761998275864955,-0.44454520234319556,-0.8009460762272232,-0.23950610072741177,-1.3782592630235988,-0.17351625265722084
17146,7.0,300.40851000000004,5741.1734,0.0,0.0,0.0,0.0,-0.1708909171241918,0.0,-0.5047837009907725,-0.4538942178358716,-0.7864954376735562,-0.24876059011825874,-1.3714778840793287,-0.2068593344929268
17147,7.0,299.79562999999996,5452.9203,0.0,0.0,0.0,0.0,-0.17090088393377564,0.0,-0.48299934059832356,-0.4313124701447266,-0.7432398010370572,-0.24606619598234278,-1.3566609252170088,-0.21552496345565778
17148,7.0,299.13085,5643.9122,0.0,0.0,0.0,0.0,-0.17091085074335946,0.0,-0.5106384627185925,-0.4447759396559676,-0.7601939678053032,-0.25012684642059774,-1.3670401526163587,-0.1933498127646408
17149,7.0,298.10343,6092.4974,0.0,0.0,0.0,0.0,-0.17092081755294328,0.0,-0.5913980724614454,-0.46398968454471656,-0.7965793128012573,-0.25776303354673075,-1.3653738628269088,-0.17072133397888384
17150,7.0,299.52198,6259.9268,0.0,0.0,0.0,0.0,-0.17093078436252712,0.0,-0.5752236421751534,-0.5014169748835026,-0.8262208400341482,-0.23939639613908478,-1.3645100671166588,-0.1932520746599948
17151,7.0,299.23888999999997,6061.4239,0.0,0.0,0.0,0.0,-0.17094075117211094,0.0,-0.5386414936122765,-0.4874658483641336,-0.8164141597363043,-0.22514475990505778,-1.3874584593564887,-0.17380799775851383
17152,7.0,299.30461,5932.9591,0.0,0.0,0.0,0.0,-0.17095071798169473,0.0,-0.5356103356731244,-0.4603089724964586,-0.8075521021091873,-0.2223532052170528,-1.3766970340194187,-0.17667753217421484
17153,7.0,299.36679,5996.0187,0.0,0.0,0.0,0.0,-0.17096068479127854,0.0,-0.5194527456034945,-0.4543537470212236,-0.8488334918533431,-0.2187173396182208,-1.3665447746424686,-0.15390254755649885
17154,7.0,299.88846,6027.1604,0.0,0.0,0.0,0.0,-0.17097065160086236,0.0,-0.5552288537118215,-0.45057454706324557,-0.8263028423647412,-0.22160942898114777,-1.3612314937680887,-0.1882493245437618
17155,7.0,300.53306000000003,6031.5976,0.0,0.0,0.0,0.0,-0.1709806184104462,0.0,-0.5672638736295854,-0.4581288433162966,-0.8080623343295432,-0.2275911306814958,-1.3839321463584686,-0.18061395815020984
17156,7.0,300.66553999999996,5851.3806,0.0,0.0,0.0,0.0,-0.17099058522003002,0.0,-0.5535367159123205,-0.4437528508974966,-0.7813840164840983,-0.24894894317934776,-1.3839139078566687,-0.19940236091198082
17157,7.0,299.41916000000003,5881.8098,0.0,0.0,0.0,0.0,-0.17100055202961387,0.0,-0.5413448246140745,-0.45748652381290456,-0.7890919721148142,-0.25391632073458975,-1.3580786647569287,-0.17431966879401184
17158,7.0,300.55363,6195.8444,0.0,0.0,0.0,0.0,-0.17101051883919763,0.0,-0.5551552816220605,-0.49844316690001056,-0.8297835287107582,-0.26695177313858875,-1.347067979895259,-0.2047629504335298
17159,7.0,300.514,6161.5593,0.0,0.0,0.0,0.0,-0.17102048564878147,0.0,-0.5589686787709135,-0.4621433199474945,-0.8518481844783703,-0.2567570383174468,-1.3500624379157886,-0.15923410746268285
17160,7.0,299.81619,5914.5235,0.0,0.0,0.0,0.0,-0.1710304524583653,0.0,-0.5287154828501555,-0.4725846190479705,-0.7965673564500773,-0.2723416658530297,-1.3716413213204588,-0.19029203674536183
17161,7.0,299.82831,5906.3964,0.0,0.0,0.0,0.0,-0.17104041926794913,0.0,-0.5542294446081875,-0.4291011835239896,-0.8120664048822142,-0.25024682536493875,-1.3776457400880486,-0.14371908007646886
17162,7.0,299.07591,5895.3252,0.0,0.0,0.0,0.0,-0.17105038607753295,0.0,-0.5374970478893285,-0.4596612422375326,-0.7948733846678953,-0.2509906826608518,-1.3821377817563787,-0.19698515147342083
17163,7.0,298.84362000000004,5981.0993,0.0,0.0,0.0,0.0,-0.17106035288711677,0.0,-0.5304928653805695,-0.47913586862952856,-0.8084761152728802,-0.2050959854763978,-1.3909424185003287,-0.18730900818595983
17164,7.0,299.66384,6055.6538,0.0,0.0,0.0,0.0,-0.17107031969670056,0.0,-0.5369928141095646,-0.4616511438439206,-0.8421235774386262,-0.2042763573380068,-1.3911350373443385,-0.18365208725004983
17165,7.0,299.79127,5887.7323,0.0,0.0,0.0,0.0,-0.1710802865062844,0.0,-0.5302754827041155,-0.4424915267755136,-0.8169566031773393,-0.18916798774692684,-1.401155472883279,-0.18078883498496884
17166,7.0,300.97798,5828.5905,0.0,0.0,0.0,0.0,-0.17109025331586822,0.0,-0.5245874411477495,-0.45529170250629253,-0.7918668385736722,-0.2301769449366958,-1.3791712894386088,-0.19263950417953882
17167,7.0,301.36761,6104.736999999999,0.0,0.0,0.0,0.0,-0.17110022012545206,0.0,-0.5662533897023584,-0.47738654299438354,-0.8120476800203662,-0.26075419850443576,-1.3734271746217088,-0.20614686768511178
17168,7.0,300.55214,6290.2502,0.0,0.0,0.0,0.0,-0.17111018693503585,0.0,-0.5900649393048755,-0.5027998180899785,-0.8192142358576502,-0.2666290529817387,-1.3504949943834788,-0.19147768121737582
17169,7.0,300.27285,6093.6915,0.0,0.0,0.0,0.0,-0.1711201537446197,0.0,-0.5704003893141354,-0.4569397537939426,-0.8249899032826642,-0.24336081821534275,-1.3456801312332887,-0.18442276527610985
17170,7.0,300.53961,6010.7582,0.0,0.0,0.0,0.0,-0.1711301205542035,0.0,-0.5406929906922435,-0.4691936357333066,-0.8172337878746952,-0.2343665314501758,-1.3522462958563186,-0.16512152624122584
17171,7.0,299.62023999999997,6056.8071,0.0,0.0,0.0,0.0,-0.17114008736378736,0.0,-0.5351785290105086,-0.46528787070533756,-0.8406517303433662,-0.23207068910859377,-1.3814750148659687,-0.1770635601973128
17172,7.0,299.75365,6074.8456,0.0,0.0,0.0,0.0,-0.17115005417337115,0.0,-0.5612623831547845,-0.4426117083698746,-0.8427272819807071,-0.2526725055743348,-1.3751445322161988,-0.13554387429463888
17173,7.0,299.33243,6103.6576,0.0,0.0,0.0,0.0,-0.17116002098295496,0.0,-0.5788294750410214,-0.46650278797274053,-0.8100272390559642,-0.22737694987535778,-1.3929097448944885,-0.17392706477776482
17174,7.0,299.85829,6094.3699,0.0,0.0,0.0,0.0,-0.17116998779253878,0.0,-0.5461469816080105,-0.4749478019911985,-0.8314414997168872,-0.23539439261661776,-1.3705721398149386,-0.17337202663798684
17175,7.0,300.88502,6063.7391,0.0,0.0,0.0,0.0,-0.17117995460212262,0.0,-0.5597142788569984,-0.48405938258794157,-0.7994516336547333,-0.23659700902780675,-1.3748783514149288,-0.1965277602457798
17176,7.0,301.03497999999996,6016.638000000001,0.0,0.0,0.0,0.0,-0.17118992141170644,0.0,-0.5091703646487025,-0.4939279319368915,-0.8258094098310432,-0.23990477411175776,-1.3746700271943686,-0.2057942262528088
17177,7.0,301.14553,6052.2937,0.0,0.0,0.0,0.0,-0.1711998882212903,0.0,-0.5659562439780325,-0.44689112963722055,-0.8268987752785552,-0.23164843739442081,-1.3917239383024589,-0.17683303566706185
17178,7.0,300.69626,6121.514,0.0,0.0,0.0,0.0,-0.17120985503087405,0.0,-0.5553246666412774,-0.5017817145219995,-0.8036810003671392,-0.23482424691784878,-1.4001273280068087,-0.18981182712546882
17179,7.0,300.99967000000004,5874.7541,0.0,0.0,0.0,0.0,-0.1712198218404579,0.0,-0.5348195243675775,-0.46951143149467056,-0.7814476080603743,-0.2422285618910978,-1.3875661678421187,-0.19487889835804983
17180,7.0,301.26885,5938.1018,0.0,0.0,0.0,0.0,-0.1712297886500417,0.0,-0.5379749979614985,-0.4781365304534015,-0.7889231443831523,-0.25786360875165676,-1.3432406302925288,-0.18472890866132383
17181,7.0,299.94427,5973.3513,0.0,0.0,0.0,0.0,-0.17123975545962555,0.0,-0.5615740892830474,-0.47470863443759453,-0.7794669067648943,-0.25533332060193675,-1.3505393747378587,-0.18539280025934482
17182,7.0,299.1204,5893.5963,0.0,0.0,0.0,0.0,-0.17124972226920937,0.0,-0.5369052389034215,-0.45321681961401755,-0.8013840738479503,-0.2501087193763088,-1.3380075988260687,-0.1971522972099168
17183,7.0,300.4079,6040.3718,0.0,0.0,0.0,0.0,-0.1712596890787932,0.0,-0.5403622962571064,-0.48995977096776455,-0.8058001318912812,-0.23665804721383077,-1.3754349296948587,-0.19967667811155382
17184,7.0,299.7959,6044.2596,0.0,0.0,0.0,0.0,-0.171269655888377,0.0,-0.5758407722810595,-0.46364474381317355,-0.7978184771435533,-0.24289162262403674,-1.3803102838760186,-0.17596003964590384
17185,7.0,299.35065,5971.5831,0.0,0.0,0.0,0.0,-0.17127962269796082,0.0,-0.5577223406179095,-0.45817678017852753,-0.7993130311735542,-0.22990597146245279,-1.4037460494139486,-0.17196328475895484
17186,7.0,299.87166,6183.6238,0.0,0.0,0.0,0.0,-0.17128958950754464,0.0,-0.5768532320459815,-0.4956208296739676,-0.8071931582612623,-0.2021137573845748,-1.4027496192656088,-0.16827567247751585
17187,7.0,299.52579,6183.6169,0.0,0.0,0.0,0.0,-0.17129955631712848,0.0,-0.5603196045992395,-0.48022571030458755,-0.8391198076496772,-0.2192668656774548,-1.3814081403593688,-0.16737543016116885
17188,7.0,299.07448,5936.1759999999995,0.0,0.0,0.0,0.0,-0.17130952312671227,0.0,-0.5257535400253345,-0.4659077264540126,-0.8127880010734302,-0.2293701445445708,-1.3659445252832287,-0.16184112904247583
17189,7.0,299.67298999999997,5723.8648,0.0,0.0,0.0,0.0,-0.17131948993629612,0.0,-0.5210552614316505,-0.43097724648164265,-0.7878794663826493,-0.2506012399849168,-1.3847405172882488,-0.15871660010660885
17190,7.0,299.92255,5800.0001,0.0,0.0,0.0,0.0,-0.17132945674587993,0.0,-0.5533626091476375,-0.4256581292866866,-0.7840344659631773,-0.28940874921241977,-1.3617589917701487,-0.17297580531888285
17191,7.0,300.6195,6044.887,0.0,0.0,0.0,0.0,-0.17133942355546378,0.0,-0.5666915393106005,-0.4904394638301065,-0.7803636938984003,-0.26681313012740576,-1.3649378613088787,-0.17558188457608284
17192,7.0,301.49352999999996,5871.4033,0.0,0.0,0.0,0.0,-0.17134939036504757,0.0,-0.5377877088130144,-0.45154382210890553,-0.7954284633376772,-0.2533551017692018,-1.3315664692653788,-0.1852503372952848
17193,7.0,300.63132,5965.0218,0.0,0.0,0.0,0.0,-0.17135935717463138,0.0,-0.5291968577076636,-0.4831184988100835,-0.8009023240879053,-0.25812980981792877,-1.3521339264202288,-0.1968655170341138
17194,7.0,300.28345,6212.9402,0.0,0.0,0.0,0.0,-0.1713693239842152,0.0,-0.5288990432382714,-0.5145991155044786,-0.8450805249404542,-0.2288062607314198,-1.3608008624755887,-0.2095620575446648
17195,7.0,298.72701,6093.6589,0.0,0.0,0.0,0.0,-0.17137929079379904,0.0,-0.5320955635937434,-0.49769095029077254,-0.8225336431852502,-0.22088086162924378,-1.3811996134887885,-0.19127790882765983
17196,7.0,298.87356,6042.456,0.0,0.0,0.0,0.0,-0.17138925760338286,0.0,-0.5485558823957505,-0.5036898468453175,-0.7845100045001092,-0.2074519540789138,-1.3782499411226787,-0.18062140553844483
17197,7.0,298.43599,5943.9178,0.0,0.0,0.0,0.0,-0.1713992244129667,0.0,-0.5654290904810064,-0.4551624827210396,-0.7862109981054842,-0.23480789306123478,-1.3998952937339089,-0.18492331082550983
17198,7.0,299.17465,5773.7907,0.0,0.0,0.0,0.0,-0.17140919122255047,0.0,-0.5457138070577595,-0.4381086729379595,-0.7712657111179992,-0.24636100109893774,-1.3815709696504386,-0.17193723409888384
17199,7.0,298.80176,5712.7587,0.0,0.0,0.0,0.0,-0.1714191580321343,0.0,-0.5010502391423085,-0.4500268448541916,-0.7854589030862582,-0.2129860525475868,-1.3835217800679684,-0.20014603582287582
17200,7.0,299.62208,5978.1951,0.0,0.0,0.0,0.0,-0.17142912484171813,0.0,-0.5191573730668435,-0.45182273946393253,-0.8462419122050742,-0.23747789826724378,-1.3571563031908986,-0.14643463087447287
17201,7.0,299.31515,6093.2601,0.0,0.0,0.0,0.0,-0.17143909165130197,0.0,-0.5477197078832264,-0.5008081635609175,-0.8036710603836582,-0.2549930509533548,-1.3665015088631987,-0.21102089450864078
17202,7.0,300.90623999999997,6165.5246,0.0,0.0,0.0,0.0,-0.1714490584608858,0.0,-0.5833838214580005,-0.4860302249599485,-0.8047514788327872,-0.2606435921235198,-1.3642800593439588,-0.17878619682482383
17203,7.0,300.17229,6175.2965,0.0,0.0,0.0,0.0,-0.1714590252704696,0.0,-0.6007282009722574,-0.4945532389711045,-0.7818545090355322,-0.25584959179288874,-1.3643772300285486,-0.20257748142534082
17204,7.0,299.79152999999997,6240.7179,0.0,0.0,0.0,0.0,-0.17146899208005342,0.0,-0.5893776517620455,-0.4961299675842155,-0.8115147915277743,-0.2481426190147698,-1.3686024829455488,-0.15213031233659285
17205,7.0,299.9932,6285.772,0.0,0.0,0.0,0.0,-0.17147895888963727,0.0,-0.5813183313941525,-0.48378396094575954,-0.8456154399332461,-0.25805306625535473,-1.3907218339535588,-0.17894343297534185
17206,7.0,299.53825,6062.7744,0.0,0.0,0.0,0.0,-0.17148892569922106,0.0,-0.5168113343153076,-0.46574495795794857,-0.8603757378499741,-0.23048530733962877,-1.3718618045422186,-0.14429388672569787
17207,7.0,299.14411,5850.3584,0.0,0.0,0.0,0.0,-0.1714988925088049,0.0,-0.5215430400297905,-0.4628636901060896,-0.7939561400148702,-0.2357187035761248,-1.3730799338124386,-0.17230207506239084
17208,7.0,299.0049,5928.9717,0.0,0.0,0.0,0.0,-0.1715088593183887,0.0,-0.5543501530926005,-0.4318717031399186,-0.8160374941441302,-0.2052216487537998,-1.3624858973918885,-0.1322493929194989
17209,7.0,298.50751,6053.9894,0.0,0.0,0.0,0.0,-0.17151882612797253,0.0,-0.5908575339305985,-0.4819220328270016,-0.7674820325945794,-0.2357537822945868,-1.3881429097990385,-0.1947105164564318
17210,7.0,299.91305,6145.1349,0.0,0.0,0.0,0.0,-0.17152879293755635,0.0,-0.5911772346021504,-0.4691819225621506,-0.8076083982847433,-0.2239190312590878,-1.3827464410914487,-0.17414206631648385
17211,7.0,300.45748,5991.0157,0.0,0.0,0.0,0.0,-0.1715387597471402,0.0,-0.5435645414756435,-0.4812884374069706,-0.7962661982553553,-0.24455928030112176,-1.371732209854429,-0.2184558400324128
17212,7.0,300.35595,6066.178000000001,0.0,0.0,0.0,0.0,-0.17154872655672398,0.0,-0.5184809576975865,-0.5036170853556365,-0.8218686066146162,-0.23519340432678176,-1.3729418278238088,-0.1896403142810418
17213,7.0,301.02108,6317.8743,0.0,0.0,0.0,0.0,-0.1715586933663078,0.0,-0.5713430361471674,-0.5014334098001245,-0.8476995737989342,-0.2595802165410728,-1.3643647670523187,-0.19250708252396984
17214,7.0,300.99976000000004,6260.6048,0.0,0.0,0.0,0.0,-0.17156866017589162,0.0,-0.5785834781817434,-0.5206805919421735,-0.8038034516417242,-0.24759635562085774,-1.3725568941108188,-0.18190122147475282
17215,7.0,299.17938,5843.2547,0.0,0.0,0.0,0.0,-0.17157862698547546,0.0,-0.5495611683499645,-0.4594842781075676,-0.7671580762726072,-0.25439127158646374,-1.3729966446542186,-0.1928225174126008
17216,7.0,299.72238,5893.0558,0.0,0.0,0.0,0.0,-0.17158859379505928,0.0,-0.5490178028513385,-0.44537688815777654,-0.7969471327200582,-0.2351829577182508,-1.3928988017934087,-0.15496480856383585
17217,7.0,300.07178,5972.7949,0.0,0.0,0.0,0.0,-0.17159856060464312,0.0,-0.5016729927862695,-0.5007274379254506,-0.8131800781996252,-0.1987982004073548,-1.3875841023688886,-0.2043101086988378
17218,7.0,300.06085,6109.045999999999,0.0,0.0,0.0,0.0,-0.17160852741422689,0.0,-0.5317892783535155,-0.46705434053217454,-0.8581538222356883,-0.20221304576187382,-1.3746885696711988,-0.17293422153477883
17219,7.0,299.77913,6041.8264,0.0,0.0,0.0,0.0,-0.17161849422381073,0.0,-0.5310669424897265,-0.4920353631351095,-0.8134620454374532,-0.2047721608769388,-1.3731506586694187,-0.18452859924905482
17220,7.0,299.91778999999997,5943.9904,0.0,0.0,0.0,0.0,-0.17162846103339455,0.0,-0.5601080481108605,-0.46369355207049057,-0.7830230701108603,-0.25402762625807473,-1.3649957178895886,-0.16599630558255984
17221,7.0,299.43826,6102.8287,0.0,0.0,0.0,0.0,-0.1716384278429784,0.0,-0.5908639680687334,-0.47724075656999554,-0.7870028327936323,-0.25121893751087876,-1.3689007837749887,-0.17548593992411382
17222,7.0,299.81004,6381.469,0.0,0.0,0.0,0.0,-0.1716483946525622,0.0,-0.6154573921109154,-0.5167783023620476,-0.8075715463786063,-0.24136969057633378,-1.3773019443291188,-0.19160469211741082
17223,7.0,298.92142,6124.2676,0.0,0.0,0.0,0.0,-0.17165836146214603,0.0,-0.5704848437099704,-0.46693732027812557,-0.8242022735824313,-0.2556542878361137,-1.3872291608588587,-0.2055408225352998
17224,7.0,298.08886,5787.3346,0.0,0.0,0.0,0.0,-0.17166832827172984,0.0,-0.5146992043493566,-0.44320383146331255,-0.8013021728423672,-0.25446645474388374,-1.3959571958952486,-0.17960730430836083
17225,7.0,299.50935,5848.1382,0.0,0.0,0.0,0.0,-0.1716782950813137,0.0,-0.5306064000542745,-0.46352537281889256,-0.7835561916509752,-0.2508924277986547,-1.3761498789654187,-0.19680388103053081
17226,7.0,300.18752,5919.0092,0.0,0.0,0.0,0.0,-0.17168826189089748,0.0,-0.5553668279779385,-0.4416569126681436,-0.8022072483616912,-0.23419427893317576,-1.3755059585268687,-0.15159601542636184
17227,7.0,299.62824,5866.5192,0.0,0.0,0.0,0.0,-0.1716982287004813,0.0,-0.5475122854552554,-0.46324162226088855,-0.7725214420994303,-0.21599220347427078,-1.3702517501333187,-0.16473232674531485
17228,7.0,299.77901,5752.6166,0.0,0.0,0.0,0.0,-0.1717081955100651,0.0,-0.5134469184182655,-0.4386196650958906,-0.7965852099168392,-0.2116625351344658,-1.3792902450003486,-0.16772778788344384
17229,7.0,300.49201,5975.2509,0.0,0.0,0.0,0.0,-0.17171816231964895,0.0,-0.5286073791969865,-0.47886414535021155,-0.8088555369053262,-0.22524419013737076,-1.3784294890403987,-0.18753410169567483
17230,7.0,301.19732999999997,6162.6888,0.0,0.0,0.0,0.0,-0.17172812912923277,0.0,-0.5515964331633295,-0.5275640254365155,-0.7941430643933183,-0.22257767051170577,-1.3803100812259987,-0.19574341347587082
17231,7.0,300.97209,6109.9398,0.0,0.0,0.0,0.0,-0.17173809593881662,0.0,-0.5672956694177235,-0.4822309018549845,-0.8077425728629852,-0.2463253448279188,-1.3761372133391687,-0.18377646369982484
17232,7.0,300.1564,6005.1394,0.0,0.0,0.0,0.0,-0.1717480627484004,0.0,-0.5835218058566185,-0.4507837325463906,-0.7911068908661713,-0.24780474063642377,-1.3987520436460787,-0.17663710349522482
17233,7.0,299.43023999999997,5929.7699,0.0,0.0,0.0,0.0,-0.17175802955798422,0.0,-0.5542954173221984,-0.45706673429647454,-0.7911398316269223,-0.28672933091298175,-1.3722118824517686,-0.17413053553034583
17234,7.0,299.39087,5930.3787,0.0,0.0,0.0,0.0,-0.17176799636756804,0.0,-0.5339764496218724,-0.4392581241164016,-0.8294524695055853,-0.2524061829180508,-1.3663268245459588,-0.1931573357756448
17235,7.0,298.90515,6090.0974,0.0,0.0,0.0,0.0,-0.17177796317715188,0.0,-0.5356442491539716,-0.4945115842594936,-0.8210817165869563,-0.25555888020669776,-1.3726947974494288,-0.1957499388065148
17236,7.0,300.15563,6080.2519999999995,0.0,0.0,0.0,0.0,-0.1717879299867357,0.0,-0.5505470708297655,-0.4672616211051316,-0.8304360921726612,-0.23883781162395679,-1.3624906596673587,-0.17792364741219685
17237,7.0,300.52633,5897.6093,0.0,0.0,0.0,0.0,-0.17179789679631952,0.0,-0.5530042023222654,-0.46146981260602454,-0.7782519489674873,-0.25866982145872375,-1.3734777358016987,-0.15829959702795385
17238,7.0,300.39092999999997,5964.464,0.0,0.0,0.0,0.0,-0.1718078636059033,0.0,-0.5743457825535154,-0.4712530665615566,-0.7674492640863453,-0.22799987577183578,-1.3689887338836688,-0.14752269936185686
17239,7.0,299.79446,6107.6522,0.0,0.0,0.0,0.0,-0.17181783041548715,0.0,-0.5775606022057934,-0.47019242675437956,-0.8088207418968922,-0.23784641732861375,-1.3722740960079087,-0.14498329196123688
17240,7.0,300.48159,6168.4492,0.0,0.0,0.0,0.0,-0.17182779722507097,0.0,-0.5328461894003245,-0.49103895325177155,-0.8511693879713782,-0.2081629719390858,-1.3912319040538985,-0.15586308517498887
17241,7.0,300.78328999999997,6378.403,0.0,0.0,0.0,0.0,-0.17183776403465478,0.0,-0.5729091864292345,-0.5039974087806716,-0.8619686379346811,-0.23384199213840778,-1.3855656068446787,-0.17024529894940282
17242,7.0,300.4344,6275.1579,0.0,0.0,0.0,0.0,-0.17184773084423863,0.0,-0.5803855434845934,-0.49631797614027057,-0.8307878014148723,-0.2294204422795348,-1.389164975174909,-0.1906782876834818
17243,7.0,299.72504,5894.044,0.0,0.0,0.0,0.0,-0.17185769765382244,0.0,-0.5641167390839874,-0.45616627919760655,-0.7713591935722253,-0.24908013880229576,-1.3940925117362186,-0.18882091919017382
17244,7.0,299.14311000000004,5957.8815,0.0,0.0,0.0,0.0,-0.17186766446340626,0.0,-0.5841729305033795,-0.4411509259657066,-0.7857233613623582,-0.2659307311453198,-1.3766015858599987,-0.19431969576036082
17245,7.0,299.43625,5901.8354,0.0,0.0,0.0,0.0,-0.17187763127299005,0.0,-0.5431851299756986,-0.45455021621561353,-0.7962752364462472,-0.26320465267877674,-1.3454720096627486,-0.17140742588659583
17246,7.0,300.11465,5719.7839,0.0,0.0,0.0,0.0,-0.1718875980825739,0.0,-0.48514544484012756,-0.45602568061373056,-0.7975003470096562,-0.25258162717286575,-1.3468265223964286,-0.20250322032551182
17247,7.0,299.87635,5837.4093,0.0,0.0,0.0,0.0,-0.1718975648921577,0.0,-0.5006398829843095,-0.46641456428653355,-0.8073722299514353,-0.24402455782584875,-1.336931628544879,-0.17231519665118583
17248,7.0,300.35696,6191.4729,0.0,0.0,0.0,0.0,-0.17190753170174153,0.0,-0.5664238183691785,-0.5006400045743216,-0.8149893375781851,-0.23590378383939078,-1.3939482249219788,-0.1925088151816408
17249,7.0,300.42791,6283.5606,0.0,0.0,0.0,0.0,-0.17191749851132537,0.0,-0.6126256823214474,-0.48496993979030656,-0.8124498795150602,-0.2298322169876738,-1.3952220829476987,-0.15491148121107284
17250,7.0,300.23143,6127.1045,0.0,0.0,0.0,0.0,-0.1719274653209092,0.0,-0.5925424573893874,-0.4816033150080465,-0.7883409916706983,-0.2155444786525838,-1.3905368144852988,-0.17344651065283784
17251,7.0,300.95341,6104.8898,0.0,0.0,0.0,0.0,-0.17193743213049298,0.0,-0.5613656130749725,-0.4741651068189526,-0.8202033503402683,-0.22750103248260378,-1.3772036590694186,-0.14814467280324087
17252,7.0,300.85053999999997,5999.0852,0.0,0.0,0.0,0.0,-0.17194739894007682,0.0,-0.5134877523972955,-0.4533747549071046,-0.8567095963381542,-0.2231061209688598,-1.3821017100528186,-0.17926120847170382
17253,7.0,300.22069,5764.5234,0.0,0.0,0.0,0.0,-0.17195736574966064,0.0,-0.5012691518264135,-0.4330156827678206,-0.8179863591214682,-0.2114467736581718,-1.3686257876978487,-0.17224374225413383
17254,7.0,299.35195,5983.6247,0.0,0.0,0.0,0.0,-0.17196733255924446,0.0,-0.5490225245968046,-0.4536651219882616,-0.8161848713711752,-0.22841247121255578,-1.3673246732444386,-0.2107718882965658
17255,7.0,298.97673,6058.1999,0.0,0.0,0.0,0.0,-0.17197729936882827,0.0,-0.6194417954791455,-0.43794819438712157,-0.7841514963497273,-0.24249437792233178,-1.3650203398670187,-0.1835289874954008
17256,7.0,299.68234,5882.9484,0.0,0.0,0.0,0.0,-0.17198726617841212,0.0,-0.5532871321476884,-0.45780116836645757,-0.7771811259968052,-0.2633042450311057,-1.3820718191748687,-0.21638683399071781
17257,7.0,300.41364,6081.107,0.0,0.0,0.0,0.0,-0.17199723298799593,0.0,-0.5420676367054105,-0.4885733509884356,-0.8178636950643623,-0.26641057599517676,-1.3704677750546388,-0.17740784231629084
17258,7.0,298.26354,6059.5221,0.0,0.0,0.0,0.0,-0.17200719979757972,0.0,-0.5094510450589035,-0.49298847684167446,-0.8395039003650842,-0.24263111602332676,-1.3676137534979687,-0.19248999912728382
17259,7.0,298.28477000000004,6112.6172,0.0,0.0,0.0,0.0,-0.17201716660716354,0.0,-0.5284366465551366,-0.4807246143888255,-0.8489217459370533,-0.2243468153188068,-1.3847163006108587,-0.15633250368131685
17260,7.0,298.84661,6142.6622,0.0,0.0,0.0,0.0,-0.17202713341674739,0.0,-0.5570756337415844,-0.48307442243073356,-0.8270658602200452,-0.21951606440704882,-1.4033402427488986,-0.2023346661713768
17261,7.0,299.66819,6027.3564,0.0,0.0,0.0,0.0,-0.1720371002263312,0.0,-0.5856623777528764,-0.4617852880246595,-0.7847181767331542,-0.2258121978784288,-1.3950449668302185,-0.14232230468111787
17262,7.0,299.75757999999996,5811.7094,0.0,0.0,0.0,0.0,-0.17204706703591505,0.0,-0.5368411609670974,-0.44222611604431955,-0.7875472520723622,-0.2188487277586878,-1.3863469239967885,-0.2046615747610248
17263,7.0,299.52214,5948.5835,0.0,0.0,0.0,0.0,-0.17205703384549884,0.0,-0.5302680657133835,-0.4583582228739346,-0.8195945390176832,-0.23060393866133677,-1.3822766983450885,-0.17610331321004383
17264,7.0,299.15535,6114.2294,0.0,0.0,0.0,0.0,-0.17206700065508268,0.0,-0.5092872531802385,-0.4876219091445355,-0.8616638928346052,-0.2519657534970838,-1.4033225108721488,-0.22371083876104078
17265,7.0,301.3414,6152.6428,0.0,0.0,0.0,0.0,-0.17207696746466647,0.0,-0.5434497605043155,-0.47804771908213656,-0.8487523001228302,-0.26829010426817174,-1.3974778816453288,-0.1920661768754558
17266,7.0,300.64072999999996,5893.7721,0.0,0.0,0.0,0.0,-0.1720869342742503,0.0,-0.5439088742571265,-0.45905724385292257,-0.7885934328006122,-0.24030093463585575,-1.3686404798242988,-0.2195543551283278
17267,7.0,299.56977,5902.6983,0.0,0.0,0.0,0.0,-0.17209690108383413,0.0,-0.5910401925261255,-0.4384391241930726,-0.7647935761042493,-0.23437907548641376,-1.3605938554801589,-0.17322738518621184
17268,7.0,299.89724,6065.6951,0.0,0.0,0.0,0.0,-0.17210686789341795,0.0,-0.5721336650676965,-0.47383393615626856,-0.7978522386368853,-0.2436321463271208,-1.3649246890575786,-0.2043648748667428
17269,7.0,299.59659,6183.5081,0.0,0.0,0.0,0.0,-0.17211683470300176,0.0,-0.5563989042647964,-0.49237956419407947,-0.8308535917438652,-0.2598996841651018,-1.3726627787462686,-0.16366845467031885
17270,7.0,299.4426,6246.9753,0.0,0.0,0.0,0.0,-0.1721268015125856,0.0,-0.5422336172042914,-0.4861786964971016,-0.8705121803928633,-0.25965367717332277,-1.3750007520270089,-0.19318181589806083
17271,7.0,299.24363,6015.8037,0.0,0.0,0.0,0.0,-0.1721367683221694,0.0,-0.5348100200816396,-0.44973856506824056,-0.8441055250317293,-0.24761728936792374,-1.3969465332928885,-0.15623499862419385
17272,7.0,299.0,5809.035,0.0,0.0,0.0,0.0,-0.17214673513175324,0.0,-0.5300288474972745,-0.43872871107165257,-0.7970440298271212,-0.23538108864280477,-1.4211432496559184,-0.1771735180981648
17273,7.0,299.46481,6026.4986,0.0,0.0,0.0,0.0,-0.17215670194133703,0.0,-0.5985045121702964,-0.4428042461538766,-0.7905963242732823,-0.2217004897676348,-1.3893200024402088,-0.17413248097053782
17274,7.0,300.45632,6190.1244,0.0,0.0,0.0,0.0,-0.17216666875092088,0.0,-0.5968551841875204,-0.47221916000190256,-0.8125688958718063,-0.23235607099925878,-1.3717348443046886,-0.18840269007889782
17275,7.0,300.86235,5914.2965,0.0,0.0,0.0,0.0,-0.1721766355605047,0.0,-0.5458535241140485,-0.4595200661010995,-0.7924248556687442,-0.22052554521667678,-1.3957542419002185,-0.20198246043661683
17276,7.0,300.18346,5748.6465,0.0,0.0,0.0,0.0,-0.17218660237008854,0.0,-0.46483287074793256,-0.4481212051261196,-0.8344909062903403,-0.24640680000345777,-1.3917188720519589,-0.2081230701501478
17277,7.0,299.69235,6081.3049,0.0,0.0,0.0,0.0,-0.17219656917967235,0.0,-0.5478229985984204,-0.46407965102109555,-0.8366622100621313,-0.2187135703278488,-1.3736966991483086,-0.19438374329918182
17278,7.0,299.98281000000003,6390.2119999999995,0.0,0.0,0.0,0.0,-0.17220653598925614,0.0,-0.5870571165155265,-0.5022095391117225,-0.8531982389116102,-0.24963432581198977,-1.3485227030638287,-0.16876848692865284
17279,7.0,299.68692999999996,6334.4435,0.0,0.0,0.0,0.0,-0.17221650279883996,0.0,-0.6155571263182584,-0.5053494795816106,-0.8046060571784353,-0.26531350984690477,-1.3557806135301287,-0.18216758466104083
17280,7.0,299.94383,6300.5739,0.0,0.0,0.0,0.0,-0.1722264696084238,0.0,-0.5857465383061824,-0.4893127601164095,-0.8401578418471233,-0.2846824542534707,-1.3573711122120986,-0.16017486965052885
17281,7.0,300.23882000000003,5986.6556,0.0,0.0,0.0,0.0,-0.17223643641800762,0.0,-0.5467929994742675,-0.4780270893101006,-0.7949737166927973,-0.24546734490824074,-1.3534824609783187,-0.18156061745363783
17282,7.0,300.42258,5959.8566,0.0,0.0,0.0,0.0,-0.17224640322759147,0.0,-0.48199783406698254,-0.5095791300040445,-0.8200706348421702,-0.24923445679252573,-1.3490449321653688,-0.1966295513508258
17283,7.0,300.05113,6213.7109,0.0,0.0,0.0,0.0,-0.17225637003717525,0.0,-0.5695722296099025,-0.45776211770760356,-0.8614786099213192,-0.22227806258963675,-1.4007834074465588,-0.18147243429743484
17284,7.0,300.84541,5985.2235,0.0,0.0,0.0,0.0,-0.1722663368467591,0.0,-0.5529968562590405,-0.4629987158144156,-0.8033629310282482,-0.23427756809139577,-1.4198846917067087,-0.17391349735892583
17285,7.0,300.11188,5618.5286,0.0,0.0,0.0,0.0,-0.1722763036563429,0.0,-0.5446636746541195,-0.41899885711196755,-0.7442298679747693,-0.20247387660261582,-1.4066092915465287,-0.19348160620514782
17286,7.0,300.05321000000004,6085.3316,0.0,0.0,0.0,0.0,-0.17228627046592673,0.0,-0.5690801041688335,-0.47421846456921857,-0.8064902869318943,-0.23571169188543276,-1.3869835490346187,-0.17162432220300183
17287,7.0,299.22902,6395.9341,0.0,0.0,0.0,0.0,-0.17229623727551055,0.0,-0.5950689661162344,-0.5101985905851806,-0.8389367234891083,-0.2570660188029408,-1.3851987089834688,-0.17658103023469082
17288,7.0,299.21907000000004,6232.2432,0.0,0.0,0.0,0.0,-0.17230620408509437,0.0,-0.5404596493267145,-0.49008898062051653,-0.8638976837400631,-0.27201408209569977,-1.3723572838411187,-0.17871154055745583
17289,7.0,300.03688999999997,6018.4584,0.0,0.0,0.0,0.0,-0.17231617089467818,0.0,-0.5579262369355324,-0.46272312191971654,-0.8088117138385013,-0.24237596951564577,-1.3487522042114788,-0.18373359308809384
17290,7.0,299.87712999999997,5923.6807,0.0,0.0,0.0,0.0,-0.17232613770426203,0.0,-0.5509926272962384,-0.4585910272169106,-0.7910673639797703,-0.23377594849688976,-1.3334875914549786,-0.18231237810033082
17291,7.0,300.31913,5929.7503,0.0,0.0,0.0,0.0,-0.17233610451384584,0.0,-0.5678671120766204,-0.4372132638245896,-0.7974156393012963,-0.24314357739390277,-1.3815073375441589,-0.17820108542207783
17292,7.0,300.59594,6034.5305,0.0,0.0,0.0,0.0,-0.1723460713234297,0.0,-0.5479991217308025,-0.4716238958331545,-0.8147235620769552,-0.24210365855127078,-1.3979218878391488,-0.1926243155605398
17293,7.0,298.83075,6136.4857,0.0,0.0,0.0,0.0,-0.17235603813301345,0.0,-0.5721935076186024,-0.4745836297727576,-0.8185612873607092,-0.23484382290978076,-1.3892745075107187,-0.19996066171708082
17294,7.0,298.89241,5945.7491,0.0,0.0,0.0,0.0,-0.1723660049425973,0.0,-0.5191601291071155,-0.45542653569709957,-0.8327725962407562,-0.22009666684684978,-1.3798634405819186,-0.19514111735142883
17295,7.0,299.52788,5912.7826,0.0,0.0,0.0,0.0,-0.1723759717521811,0.0,-0.5242221036916935,-0.48935006798509156,-0.7837661066741922,-0.2199552677953948,-1.4176483474109987,-0.1976952675410038
17296,7.0,299.25003,6199.2789,0.0,0.0,0.0,0.0,-0.17238593856176496,0.0,-0.5712949472974215,-0.4710563237896395,-0.8420747185188041,-0.24002520901864377,-1.3779824430962788,-0.17045632854772982
17297,7.0,300.01551,6354.5991,0.0,0.0,0.0,0.0,-0.17239590537134877,0.0,-0.5942587004087674,-0.5058300134415354,-0.8315507382101682,-0.24916521128069175,-1.3818389743018886,-0.17765314003299984
17298,7.0,300.20517,5967.6288,0.0,0.0,0.0,0.0,-0.17240587218093256,0.0,-0.5403749010883505,-0.4569512237850745,-0.8166840186354373,-0.23330991424589576,-1.3552926322819687,-0.16908820786520684
17299,7.0,299.99273999999997,5849.0739,0.0,0.0,0.0,0.0,-0.17241583899051638,0.0,-0.5048069044180625,-0.4401915402410225,-0.8329739796981313,-0.25074231479633974,-1.4049664078343884,-0.18112826363596782
17300,7.0,301.43264,6193.6553,0.0,0.0,0.0,0.0,-0.17242580580010022,0.0,-0.5318049837300655,-0.49148321275811657,-0.8594283794039772,-0.25803978254654375,-1.4006458080829787,-0.17972268309724782
17301,7.0,300.58943,6138.0904,0.0,0.0,0.0,0.0,-0.17243577260968404,0.0,-0.5666138331604315,-0.4809754343185796,-0.8182369460036992,-0.24072188938990077,-1.3808981715840385,-0.2041984282728158
17302,7.0,299.19349,5929.8361,0.0,0.0,0.0,0.0,-0.17244573941926788,0.0,-0.5486400328165555,-0.4557841015248886,-0.7980979720511372,-0.24190123144629277,-1.3815066282690887,-0.19951719254581382
17303,7.0,298.58612,5869.812,0.0,0.0,0.0,0.0,-0.17245570622885167,0.0,-0.5485193243321425,-0.4721521740377915,-0.7636047702919233,-0.23130889728591078,-1.4074078339503386,-0.21767187829754178
17304,7.0,299.47373,5815.2854,0.0,0.0,0.0,0.0,-0.17246567303843552,0.0,-0.5370728811324664,-0.4315363376218206,-0.7990923554342753,-0.25135937397473873,-1.4081983716783588,-0.19052862051121083
17305,7.0,299.74813,6034.4206,0.0,0.0,0.0,0.0,-0.1724756398480193,0.0,-0.5404769556384225,-0.4844800840294616,-0.8093561331172313,-0.2215344282087458,-1.3989152782371885,-0.21969273469448478
17306,7.0,300.31316,6270.0422,0.0,0.0,0.0,0.0,-0.17248560665760315,0.0,-0.5600083848310244,-0.4759182220094715,-0.8700096590057682,-0.2389775692102498,-1.3920653022611487,-0.16439436730696083
17307,7.0,299.30067,5945.0032,0.0,0.0,0.0,0.0,-0.17249557346718697,0.0,-0.5384357227819685,-0.4492124450863166,-0.8194843582018092,-0.2237218933196318,-1.4036787696073088,-0.19584447504084482
17308,7.0,299.82627,5989.0041,0.0,0.0,0.0,0.0,-0.17250554027677079,0.0,-0.5280287931248845,-0.48241188858784656,-0.8100670395198922,-0.24121021514309476,-1.3993015291753088,-0.16828414324835184
17309,7.0,300.36461,6346.4931,0.0,0.0,0.0,0.0,-0.1725155070863546,0.0,-0.6209834251087923,-0.4848244269434456,-0.8233675784150533,-0.2513452391358438,-1.3640322183694988,-0.17780947439092884
17310,7.0,300.62982,6306.2094,0.0,0.0,0.0,0.0,-0.17252547389593845,0.0,-0.5776087822480485,-0.48151336879666956,-0.8578080506390632,-0.25158933108493375,-1.3704845950062987,-0.16586864620246086
17311,7.0,300.0058,5981.0903,0.0,0.0,0.0,0.0,-0.17253544070552226,0.0,-0.5333558845981274,-0.46051181503397753,-0.8242344037431022,-0.24855572108053978,-1.3965734546060686,-0.19418853053491583
17312,7.0,299.83793,5916.3587,0.0,0.0,0.0,0.0,-0.1725454075151061,0.0,-0.5272303723110865,-0.45180706448488556,-0.8193878866597882,-0.23334530707188877,-1.3908279212390287,-0.17471807873333184
17313,7.0,298.84389,6028.4629,0.0,0.0,0.0,0.0,-0.17255537432468987,0.0,-0.5615220994204164,-0.47681076362505853,-0.7941693278359102,-0.23830571346644278,-1.4039792995869687,-0.2026306466580878
17314,7.0,299.77916,6132.4599,0.0,0.0,0.0,0.0,-0.17256534113427371,0.0,-0.5742430896558804,-0.46740879568215654,-0.8224627967382582,-0.2210690120403128,-1.3639313999845486,-0.17191331126402284
17315,7.0,299.25099,6074.7777,0.0,0.0,0.0,0.0,-0.17257530794385753,0.0,-0.5880134118274054,-0.4793777212958975,-0.7791896004775263,-0.24615698319130275,-1.3892862612118786,-0.18653924208498981
17316,7.0,299.72484,6048.272,0.0,0.0,0.0,0.0,-0.17258527475344138,0.0,-0.5334887824812434,-0.4883457142209695,-0.8166891558134443,-0.22527264220017876,-1.3660256866162386,-0.17189745389995784
17317,7.0,299.68422000000004,5970.7492,0.0,0.0,0.0,0.0,-0.1725952415630252,0.0,-0.5190644377676715,-0.47863311419491056,-0.8172611050973912,-0.23178185203508778,-1.3844918657137089,-0.19492024909463082
17318,7.0,300.55744,6228.7603,0.0,0.0,0.0,0.0,-0.17260520837260898,0.0,-0.5369813947809374,-0.4953830604055015,-0.8610231337363672,-0.23879764638999276,-1.3842866825684588,-0.16178504564944085
17319,7.0,300.11573,6342.005,0.0,0.0,0.0,0.0,-0.1726151751821928,0.0,-0.5828653312493295,-0.48878483654930754,-0.8561609923365112,-0.23765914844513175,-1.4069143811516385,-0.19208842784765182
17320,7.0,300.365,5923.0088,0.0,0.0,0.0,0.0,-0.17262514199177664,0.0,-0.5359776894968795,-0.4698013527457836,-0.7946677354275993,-0.24575084215371978,-1.3864461211815788,-0.18269252927284885
17321,7.0,300.43481,5831.9813,0.0,0.0,0.0,0.0,-0.17263510880136046,0.0,-0.5713581943686634,-0.46282366672713954,-0.7385948295311343,-0.21911577995504378,-1.3720841116141589,-0.2062716798324298
17322,7.0,300.06777,6200.6373,0.0,0.0,0.0,0.0,-0.1726450756109443,0.0,-0.5643557242525735,-0.4695639887773576,-0.8509191861241853,-0.2501802953633728,-1.3664563179087388,-0.15725706400006384
17323,7.0,299.13492,6164.1971,0.0,0.0,0.0,0.0,-0.1726550424205281,0.0,-0.5502127590917715,-0.5032164260010945,-0.8203328133055453,-0.27280820672907374,-1.3801883898889886,-0.1981267702285898
17324,7.0,299.00486,6051.8999,0.0,0.0,0.0,0.0,-0.17266500923011194,0.0,-0.5220158427914525,-0.4938087129301255,-0.8238018878054162,-0.27528038498555873,-1.3848364720727186,-0.16937130994314684
17325,7.0,299.18402000000003,6083.1744,0.0,0.0,0.0,0.0,-0.17267497603969573,0.0,-0.5460901788074045,-0.49197890483953755,-0.8110640269557873,-0.27362758155493977,-1.3926543045442787,-0.1930265758502398
17326,7.0,299.13403,6019.2861,0.0,0.0,0.0,0.0,-0.17268494284927957,0.0,-0.5651111325996264,-0.47301092376254356,-0.7915906164639113,-0.23224920351121178,-1.4160776071059786,-0.17451986674876985
17327,7.0,298.83349,6013.7631,0.0,0.0,0.0,0.0,-0.1726949096588634,0.0,-0.5646427780059035,-0.4671509235317065,-0.7962401171977812,-0.23922848033251276,-1.4068846929237087,-0.1976150383980858
17328,7.0,300.45885,6138.4114,0.0,0.0,0.0,0.0,-0.1727048764684472,0.0,-0.5638210119098015,-0.48213916219093056,-0.8199635951016062,-0.19830895259656983,-1.3718507601161287,-0.1793937618497858
17329,7.0,300.6656,6022.7742,0.0,0.0,0.0,0.0,-0.17271484327803102,0.0,-0.5482441357374835,-0.47798327637577653,-0.8045455560149642,-0.22244938291654479,-1.3996545455101486,-0.16890594443721885
17330,7.0,300.59565,5954.2765,0.0,0.0,0.0,0.0,-0.17272481008761487,0.0,-0.5390886915439115,-0.4558739970737606,-0.8149886992306222,-0.2022815617336358,-1.3874184359775386,-0.15841103427395184
17331,7.0,299.81911,6245.5965,0.0,0.0,0.0,0.0,-0.17273477689719868,0.0,-0.5799640922379995,-0.5055000586789715,-0.8130412224059212,-0.23794996135633276,-1.4042645294901186,-0.17127254203328385
17332,7.0,299.6182,6377.8761,0.0,0.0,0.0,0.0,-0.17274474370678253,0.0,-0.6029839388748814,-0.5043594025113975,-0.8313717374475021,-0.2344294542813858,-1.3609192100872687,-0.17351240230684084
17333,7.0,299.94777,6140.3092,0.0,0.0,0.0,0.0,-0.1727547105163663,0.0,-0.5675693077397296,-0.5093010739116025,-0.7896302916279422,-0.3005708440365327,-1.3555069346781188,-0.19196450736042184
17334,7.0,300.39162999999996,5791.8922,0.0,0.0,0.0,0.0,-0.17276467732595013,0.0,-0.5063636112091975,-0.47312947402424355,-0.7810975301508243,-0.28369432262344974,-1.3859402054066488,-0.1972400446685768
17335,7.0,299.18111,5792.8663,0.0,0.0,0.0,0.0,-0.17277464413553395,0.0,-0.5384092668218575,-0.45415767299437254,-0.7683197472472553,-0.2560846252860847,-1.3620517197240385,-0.19061352073708981
17336,7.0,299.70046,5965.2514,0.0,0.0,0.0,0.0,-0.1727846109451178,0.0,-0.5255293989707135,-0.4901957569160545,-0.7975623072532713,-0.22868088116404578,-1.3576960615191687,-0.2075642120574928
17337,7.0,299.17548,6018.1031,0.0,0.0,0.0,0.0,-0.1727945777547016,0.0,-0.5754364145636525,-0.46151454759793953,-0.7924020879389972,-0.21398173289085282,-1.4024055195316487,-0.2109916521107548
17338,7.0,299.0587,5893.5826,0.0,0.0,0.0,0.0,-0.1728045445642854,0.0,-0.5362659996803335,-0.46997362552778554,-0.7852623224343572,-0.22683996785236177,-1.4321817988953387,-0.18714681724245283
17339,7.0,299.0254,5934.6001,0.0,0.0,0.0,0.0,-0.17281451137386922,0.0,-0.5314275480678156,-0.47732571759088055,-0.7952169879093063,-0.21197258966506582,-1.4087574830835385,-0.18655884847442483
17340,7.0,299.62222,6238.0441,0.0,0.0,0.0,0.0,-0.17282447818345306,0.0,-0.5475642753178865,-0.4918529375871056,-0.8567924396663301,-0.20851593761142082,-1.3913380926643786,-0.1730027679040438
17341,7.0,300.09766,6552.507,0.0,0.0,0.0,0.0,-0.17283444499303688,0.0,-0.6038491734002734,-0.5179945672520836,-0.8699547611153501,-0.25996156334870874,-1.3819572205885589,-0.1283325024054319
17342,7.0,300.594,6298.8379,0.0,0.0,0.0,0.0,-0.1728444118026207,0.0,-0.5606040137698084,-0.4990765698025225,-0.8550088560453043,-0.26767101858957276,-1.3938900643662386,-0.15719340149628083
17343,7.0,299.23785,5900.9071,0.0,0.0,0.0,0.0,-0.1728543786122045,0.0,-0.5537017946186125,-0.4441399529657006,-0.7958866651653982,-0.26071698182826275,-1.3826238378293487,-0.16615333908305785
17344,7.0,300.52806,6184.7765,0.0,0.0,0.0,0.0,-0.17286434542178836,0.0,-0.5675348471038284,-0.4919876289228985,-0.8204951562365672,-0.22912875797324778,-1.3449619395624088,-0.1877243495344508
17345,7.0,300.30996,6273.5647,0.0,0.0,0.0,0.0,-0.17287431223137215,0.0,-0.5939564783014405,-0.47809341666164656,-0.8349571330588531,-0.2596563521535868,-1.3788158413035287,-0.17843756786291684
17346,7.0,299.44946,6005.3189,0.0,0.0,0.0,0.0,-0.17288427904095596,0.0,-0.5320690671036286,-0.46946747670533256,-0.8239304489781042,-0.24357386418136875,-1.4014846778407686,-0.2011766834270928
17347,7.0,298.61064,5763.4369,0.0,0.0,0.0,0.0,-0.1728942458505398,0.0,-0.5438278851766335,-0.4426994558285346,-0.7654135737079383,-0.2631939426252197,-1.3925412258331187,-0.20863665622833483
17348,7.0,298.95014,5750.594,0.0,0.0,0.0,0.0,-0.17290421266012362,0.0,-0.5083136008941466,-0.4421377809006016,-0.7975856018730703,-0.2094091175745708,-1.3833797224039488,-0.1937284744595118
17349,7.0,298.77052000000003,5900.3047,0.0,0.0,0.0,0.0,-0.17291417946970744,0.0,-0.5762061907971235,-0.4580395455849836,-0.7592995516770312,-0.21346866357021677,-1.4028820510536788,-0.18988041402473782
17350,7.0,299.93127000000004,6261.9017,0.0,0.0,0.0,0.0,-0.17292414627929126,0.0,-0.5527147269011965,-0.49803794792001854,-0.8527090721608331,-0.2202401937235148,-1.4059536174068186,-0.17826294434068282
17351,7.0,299.72118,6301.6352,0.0,0.0,0.0,0.0,-0.1729341130888751,0.0,-0.5821544552441714,-0.4895509752149195,-0.8438343286424641,-0.20131267172301381,-1.4146598675660589,-0.17114120455532184
17352,7.0,299.43303,6020.3743,0.0,0.0,0.0,0.0,-0.1729440798984589,0.0,-0.5258496569298206,-0.4840099562480636,-0.8201838351433423,-0.2235791061155398,-1.3833676647277589,-0.16548595177219183
17353,7.0,299.17087000000004,6129.5991,0.0,0.0,0.0,0.0,-0.1729540467080427,0.0,-0.5760254877742894,-0.4774639654345246,-0.8097556069691562,-0.2512889024302838,-1.3968075153791686,-0.15768408812220785
17354,7.0,299.91095,6316.7302,0.0,0.0,0.0,0.0,-0.17296401351762655,0.0,-0.5840647255252004,-0.5067071333906005,-0.8293563931311032,-0.2686977955784077,-1.3892907195123188,-0.1935238891318208
17355,7.0,300.0855,5945.8875,0.0,0.0,0.0,0.0,-0.17297398032721037,0.0,-0.5796047532225355,-0.4536147026632856,-0.7741818854358032,-0.27331680761676874,-1.3562274568242287,-0.19299932955505084
17356,7.0,300.7236,5683.1939,0.0,0.0,0.0,0.0,-0.17298394713679419,0.0,-0.5079616890019155,-0.4403533258844896,-0.7792340416269123,-0.2637087344710258,-1.3722633555568486,-0.20836398049392382
17357,7.0,300.23822,5900.2918,0.0,0.0,0.0,0.0,-0.17299391394637803,0.0,-0.5468039223103455,-0.4567711591098036,-0.7899663056261043,-0.24575600972922973,-1.4025206247430089,-0.16677122912653886
17358,7.0,299.73839,6143.9112,0.0,0.0,0.0,0.0,-0.17300388075596182,0.0,-0.5633683018976225,-0.45475224815305254,-0.8494750615516612,-0.2501508097854628,-1.4056483251516887,-0.17910091230588385
17359,7.0,299.55122,6390.6645,0.0,0.0,0.0,0.0,-0.17301384756554564,0.0,-0.5791662185792554,-0.49318271688584453,-0.8702534976423331,-0.22692537470329077,-1.3955758085576087,-0.18337163988737182
17360,7.0,299.81476000000004,6473.0927,0.0,0.0,0.0,0.0,-0.17302381437512945,0.0,-0.5956049044916274,-0.4994871792730465,-0.8725664436456032,-0.2042285825957918,-1.3859683737594288,-0.17410589328791384
17361,7.0,298.88738,6258.6034,0.0,0.0,0.0,0.0,-0.1730337811847133,0.0,-0.6153726844025554,-0.4676947855228816,-0.8193916964801642,-0.23714345480673676,-1.3904569703774188,-0.16554365636538684
17362,7.0,298.52934,6195.3736,0.0,0.0,0.0,0.0,-0.17304374799429711,0.0,-0.5325092026820665,-0.5131408256955565,-0.8375888475435831,-0.2521031907406478,-1.4051606478785588,-0.1897504646994128
17363,7.0,298.74865,6173.545,0.0,0.0,0.0,0.0,-0.17305371480388093,0.0,-0.5848507137602715,-0.46828037315317456,-0.8234724498004032,-0.22452394156878777,-1.3792685614482088,-0.15571039851741988
17364,7.0,300.98937,5867.8819,0.0,0.0,0.0,0.0,-0.17306368161346472,0.0,-0.5116596769643785,-0.44485298719357164,-0.8271769022985042,-0.25348644937966475,-1.3787278911948488,-0.18248196576956782
17365,7.0,301.54356,5568.8419,0.0,0.0,0.0,0.0,-0.17307364842304857,0.0,-0.5053287282195625,-0.43180913494624357,-0.7556510001869473,-0.24577186709329474,-1.3998553716799687,-0.1784757876566888
17366,7.0,300.05942999999996,5687.6230000000005,0.0,0.0,0.0,0.0,-0.17308361523263238,0.0,-0.5073276680168425,-0.44253449871225453,-0.7790331951920902,-0.2647019424840477,-1.3826040794523986,-0.23704215006173876
17367,7.0,299.26482999999996,6115.313,0.0,0.0,0.0,0.0,-0.17309358204221623,0.0,-0.5874829551350534,-0.47651050722292554,-0.7949090004089102,-0.24164765547626674,-1.3453480891755187,-0.2254659703192588
17368,7.0,300.39166,6137.6226,0.0,0.0,0.0,0.0,-0.17310354885180002,0.0,-0.5406424396447544,-0.4956474274890926,-0.8293941468298293,-0.2327071520264078,-1.3492768651132587,-0.2453749466316218
17369,7.0,299.5975,5915.8886,0.0,0.0,0.0,0.0,-0.17311351566138386,0.0,-0.5548562715175505,-0.43634619531651664,-0.8070799376950882,-0.2531850986674238,-1.3922129328007187,-0.17426114346823582
17370,7.0,299.65286000000003,6004.6789,0.0,0.0,0.0,0.0,-0.17312348247096768,0.0,-0.5357585133677485,-0.4469106448341466,-0.8426033006984712,-0.25508759732018577,-1.4306164288158485,-0.18929158399412482
17371,7.0,299.74435,6074.4455,0.0,0.0,0.0,0.0,-0.17313344928055152,0.0,-0.5552069776421624,-0.44732951229298556,-0.8439432530282142,-0.2337147785883528,-1.4114919411284086,-0.14894993305521387
17372,7.0,298.9755,5959.3473,0.0,0.0,0.0,0.0,-0.1731434160901353,0.0,-0.5435051751522845,-0.4502062509168976,-0.8177813380962342,-0.22419388548121377,-1.4054849892355685,-0.16475014981457384
17373,7.0,299.14038999999997,6162.3062,0.0,0.0,0.0,0.0,-0.17315338289971913,0.0,-0.5741105160127965,-0.47033474786342555,-0.8287419582704633,-0.2272445687497928,-1.4099728765784885,-0.16563210296661585
17374,7.0,299.20571,6146.4429,0.0,0.0,0.0,0.0,-0.17316334970930294,0.0,-0.5536985319532904,-0.4830814037239226,-0.8315852089785701,-0.23299510757232678,-1.3918345852133787,-0.17998063630770583
17375,7.0,300.15078,5883.3246,0.0,0.0,0.0,0.0,-0.1731733165188868,0.0,-0.5534169902805045,-0.45931117446048353,-0.7756556070437483,-0.2227847990971478,-1.3710719760892687,-0.18452878163407282
17376,7.0,300.55653,6052.7371,0.0,0.0,0.0,0.0,-0.1731832833284706,0.0,-0.5183283723650275,-0.4919969913538226,-0.8295555677032602,-0.23852097845018774,-1.3635687577737587,-0.17532363752309585
17377,7.0,300.42177999999996,6248.9094,0.0,0.0,0.0,0.0,-0.17319325013805445,0.0,-0.5798990719790824,-0.4682900091616255,-0.8513233411915723,-0.26556210062643876,-1.4128635777887788,-0.17821036679299385
17378,7.0,300.04301,6001.8308,0.0,0.0,0.0,0.0,-0.1732032169476382,0.0,-0.5430367901610584,-0.46648436708592256,-0.8148855301054402,-0.26196856861678475,-1.4004033373340488,-0.2100000956953958
17379,7.0,299.97456,5949.2789,0.0,0.0,0.0,0.0,-0.17321318375722206,0.0,-0.5505338175184575,-0.47282821450451157,-0.7850702000828963,-0.24500782585538974,-1.3495029212105687,-0.2126929496911598
17380,7.0,299.1787,6100.1234,0.0,0.0,0.0,0.0,-0.17322315056680587,0.0,-0.5491059454775375,-0.4824156882757215,-0.8227635698979422,-0.22641022821994977,-1.3510962569928187,-0.2085266375324768
17381,7.0,300.04621000000003,6283.1453,0.0,0.0,0.0,0.0,-0.17323311737638972,0.0,-0.6042409060214344,-0.4854956747371925,-0.8201827003032301,-0.2617132194590837,-1.4002693856708288,-0.14555112744977786
17382,7.0,299.43585,6221.0414,0.0,0.0,0.0,0.0,-0.17324308418597353,0.0,-0.5545182006216854,-0.49733906879604456,-0.8391839666460092,-0.25674170784343375,-1.4119488155984987,-0.18864488725030082
17383,7.0,298.65266,5942.0564,0.0,0.0,0.0,0.0,-0.17325305099555735,0.0,-0.5589189484560054,-0.44895506942841557,-0.7983627444347682,-0.20462904943281482,-1.3952413346995987,-0.16066997404689184
17384,7.0,299.1142,5686.5408,0.0,0.0,0.0,0.0,-0.17326301780514114,0.0,-0.49105339206569654,-0.47081478523080156,-0.7666982228472232,-0.2119405709619058,-1.3824838066655287,-0.21116981187583778
17385,7.0,298.82671,5920.883000000001,0.0,0.0,0.0,0.0,-0.17327298461472498,0.0,-0.5395071435702095,-0.4666470646544796,-0.7936463691942982,-0.2341447006057828,-1.4208492044768988,-0.18760819054298683
17386,7.0,299.11345,6342.8341,0.0,0.0,0.0,0.0,-0.1732829514243088,0.0,-0.5868481843449065,-0.4958535833544386,-0.8453614181331761,-0.2627598358848768,-1.4092393848310987,-0.2125491188394648
17387,7.0,300.71519,6066.1389,0.0,0.0,0.0,0.0,-0.17329291823389265,0.0,-0.5649157678478455,-0.4694718336807625,-0.8095671424505562,-0.24483790381361978,-1.3608177837522588,-0.18622395918387383
17388,7.0,300.35107999999997,5552.4613,0.0,0.0,0.0,0.0,-0.17330288504347643,0.0,-0.4640271038709095,-0.4335177481923706,-0.7902647381780572,-0.2603894487334378,-1.3787130977433886,-0.17100218664160183
17389,7.0,299.76703,5980.1707,0.0,0.0,0.0,0.0,-0.17331285185306028,0.0,-0.5555250469810535,-0.4564128333444396,-0.8058846876121263,-0.25225932244855676,-1.4020801649245387,-0.16830332407274484
17390,7.0,300.39387999999997,6634.6305,0.0,0.0,0.0,0.0,-0.1733228186626441,0.0,-0.6179031144072894,-0.5209574929295016,-0.8779014080721232,-0.2583875198483627,-1.3851888804574988,-0.15528229021766887
17391,7.0,299.76896,6343.9191,0.0,0.0,0.0,0.0,-0.17333278547222794,0.0,-0.6361859256341624,-0.4863249895465396,-0.8058820936918702,-0.18575982984306783,-1.3694494587041386,-0.1986024708855378
17392,7.0,298.98832000000004,5862.8065,0.0,0.0,0.0,0.0,-0.17334275228181173,0.0,-0.5389714889048445,-0.44893097434103757,-0.7942443286083122,-0.22436648250324778,-1.3775066208493185,-0.17807135901177484
17393,7.0,300.22873,6044.4381,0.0,0.0,0.0,0.0,-0.17335271909139555,0.0,-0.5588850552401604,-0.47703329361202057,-0.8014398937959591,-0.23225419883420478,-1.4006308119814985,-0.18892818184575982
17394,7.0,299.62917000000004,6212.8632,0.0,0.0,0.0,0.0,-0.17336268590097936,0.0,-0.5543562528582026,-0.4821018137922446,-0.8520972109554471,-0.24657605330016177,-1.4048675146246286,-0.17709364359278182
17395,7.0,299.0851,6150.3369999999995,0.0,0.0,0.0,0.0,-0.1733726527105632,0.0,-0.5599007371404005,-0.4871603838564865,-0.8224877632207221,-0.22387684965742477,-1.3737796843314987,-0.1919488729113788
17396,7.0,300.1382,5959.8691,0.0,0.0,0.0,0.0,-0.17338261952014702,0.0,-0.5113415873604855,-0.4769015407015175,-0.8234082604065682,-0.25203309409872976,-1.3811312191070386,-0.19043935317740082
17397,7.0,300.44624,5765.4751,0.0,0.0,0.0,0.0,-0.17339258632973087,0.0,-0.49798445844723954,-0.46481101494327554,-0.7897649930962363,-0.23774671351877377,-1.410860179691059,-0.19509138703652082
17398,7.0,300.66898,6070.3867,0.0,0.0,0.0,0.0,-0.17340255313931463,0.0,-0.5360484650163645,-0.4727520788919976,-0.8364454353357372,-0.25011105998403976,-1.3870164796628688,-0.22889236672491775
17399,7.0,299.72584,6387.8308,0.0,0.0,0.0,0.0,-0.17341251994889847,0.0,-0.5885553587758915,-0.48390460863516654,-0.8692811017863652,-0.23116747796945378,-1.3801362075088386,-0.18810908059742082
17400,7.0,300.19092,6060.4147,0.0,0.0,0.0,0.0,-0.17342248675848232,0.0,-0.5516645641000535,-0.4736050125611755,-0.8169451534512092,-0.2535953332354107,-1.3838194729473487,-0.19347374338437182
17401,7.0,300.34382999999997,5690.1886,0.0,0.0,0.0,0.0,-0.17343245356806614,0.0,-0.5313276112104525,-0.4239794271835116,-0.7743682018641913,-0.26645854325491075,-1.3740708924102387,-0.16620241078540082
17402,7.0,300.33651000000003,6013.3863,0.0,0.0,0.0,0.0,-0.17344242037764995,0.0,-0.5558893813195105,-0.47921965428029756,-0.7928102554767803,-0.24752790044410175,-1.3896560974983787,-0.2068340336379298
17403,7.0,299.99818,6338.2323,0.0,0.0,0.0,0.0,-0.17345238718723377,0.0,-0.6172039515732874,-0.48491334977222156,-0.8245470521939583,-0.2304540080440398,-1.3774512973938586,-0.18077689889879084
17404,7.0,299.56385,6212.2299,0.0,0.0,0.0,0.0,-0.17346235399681756,0.0,-0.5435011728143895,-0.4920186647734615,-0.8528429427640452,-0.2379291491992788,-1.4016903676110686,-0.18931993473192282
17405,7.0,299.19766,5982.9131,0.0,0.0,0.0,0.0,-0.1734723208064014,0.0,-0.5295167103667305,-0.47768373938121456,-0.8114557291794452,-0.24650580467072877,-1.4349660075201185,-0.1969875630086588
17406,7.0,299.59496,5924.9229,0.0,0.0,0.0,0.0,-0.17348228761598522,0.0,-0.5372109871210965,-0.45279534810242156,-0.8110222911841682,-0.24055645604607376,-1.3787749059994885,-0.17196187634131582
17407,7.0,299.98839,6054.5048,0.0,0.0,0.0,0.0,-0.17349225442556906,0.0,-0.5650514217712335,-0.46774574187041057,-0.8076211247059992,-0.2514190645381298,-1.3568247677581788,-0.20317067856388482
17408,7.0,299.75196,6201.8558,0.0,0.0,0.0,0.0,-0.17350222123515285,0.0,-0.5629756370863694,-0.4923782064389455,-0.8298554593353572,-0.25672962990224174,-1.3739958105778287,-0.16599857526278383
17409,7.0,299.92515,6185.2387,0.0,0.0,0.0,0.0,-0.1735121880447367,0.0,-0.5559751326754735,-0.49450976040931355,-0.8296732465698742,-0.26798779096833575,-1.3773835109621686,-0.2054529332216258
17410,7.0,300.02885,5913.2112,0.0,0.0,0.0,0.0,-0.17352215485432052,0.0,-0.5333563304281715,-0.44358397250332954,-0.8205282489848332,-0.21700644655936882,-1.3862371890109588,-0.1920780724316298
17411,7.0,300.62607,6020.315,0.0,0.0,0.0,0.0,-0.17353212166390436,0.0,-0.5424304410362164,-0.4742330655031595,-0.8133619261950722,-0.22496265859708578,-1.3945100721024286,-0.2157773437905658
17412,7.0,299.78495,6249.3941,0.0,0.0,0.0,0.0,-0.17354208847348815,0.0,-0.5924781362730395,-0.48403409186544555,-0.8231475410233372,-0.20990962259396678,-1.3983083414272885,-0.1889756222154418
17413,7.0,300.3666,6207.1892,0.0,0.0,0.0,0.0,-0.17355205528307197,0.0,-0.5860543434215605,-0.49161828912894756,-0.8091579008676673,-0.2346398252671478,-1.4144170928420985,-0.2073132604052258
17414,7.0,300.70525,6060.0227,0.0,0.0,0.0,0.0,-0.17356202209265578,0.0,-0.5715824975433005,-0.4755549009211145,-0.7949581937012652,-0.20215431778607781,-1.3784502606674487,-0.21439034625867978
17415,7.0,299.33037,6005.3582,0.0,0.0,0.0,0.0,-0.17357198890223963,0.0,-0.5380570104245925,-0.47970112033031453,-0.8077208183833382,-0.2074907412927418,-1.3819115230090488,-0.1858784712972768
17416,7.0,298.59439,6008.1990000000005,0.0,0.0,0.0,0.0,-0.17358195571182344,0.0,-0.5060095613592555,-0.46305639001010757,-0.8572765097691042,-0.2380073721069988,-1.4104723075527787,-0.17959979612511984
17417,7.0,299.84604,6125.3149,0.0,0.0,0.0,0.0,-0.1735919225214073,0.0,-0.5493598659525974,-0.48468035291172656,-0.8279025616226212,-0.26298587171718474,-1.4103949965701486,-0.16456395497619783
17418,7.0,299.65051,6169.7591,0.0,0.0,0.0,0.0,-0.17360188933099105,0.0,-0.5603017511324775,-0.48912342420272353,-0.8260275321800702,-0.26187007057456374,-1.4104626816768286,-0.16792262574517283
17419,7.0,300.02412999999996,6021.5708,0.0,0.0,0.0,0.0,-0.1736118561405749,0.0,-0.5805419285050275,-0.46492562366208656,-0.7849396022775073,-0.2534623137622828,-1.3762061143459687,-0.15551401038303783
17420,7.0,300.05482,6084.5108,0.0,0.0,0.0,0.0,-0.1736218229501587,0.0,-0.5348151369946444,-0.5065580944333915,-0.8081661215372862,-0.26014798110210674,-1.4001390817079686,-0.1822703991486878
17421,7.0,300.66781000000003,6361.5369,0.0,0.0,0.0,0.0,-0.17363178975974256,0.0,-0.5935568321969984,-0.4924056148541506,-0.8477859128399552,-0.24472508854748576,-1.3967062916941786,-0.19319827107968482
17422,7.0,300.55289,6506.3737,0.0,0.0,0.0,0.0,-0.17364175656932637,0.0,-0.5984845815408295,-0.49219025867789656,-0.887100290297482,-0.2385884710393488,-1.3829781713893186,-0.19423918290741482
17423,7.0,300.65062,5992.3042,0.0,0.0,0.0,0.0,-0.1736517233789102,0.0,-0.5539257330232135,-0.4489206493225186,-0.8186644767508932,-0.2032446356886838,-1.4138059003817787,-0.19379229908331083
17424,7.0,300.98207,5837.2811,0.0,0.0,0.0,0.0,-0.17366169018849398,0.0,-0.5487251255599535,-0.43263258303751156,-0.7930299888934662,-0.24291369121121478,-1.4379792106674987,-0.1919328838248008
17425,7.0,300.27033,6219.999,0.0,0.0,0.0,0.0,-0.17367165699807782,0.0,-0.5816418317535794,-0.4880053837773815,-0.8210771569615062,-0.23033306651210378,-1.4088238509650886,-0.1869016411157558
17426,7.0,299.13911,6349.8684,0.0,0.0,0.0,0.0,-0.17368162380766164,0.0,-0.6241867545049364,-0.46857026400678453,-0.8374444087418281,-0.2239835752904578,-1.3759955609751886,-0.16012760153336383
17427,7.0,299.95322000000004,6253.7947,0.0,0.0,0.0,0.0,-0.17369159061724548,0.0,-0.5591689881831825,-0.5092490029889635,-0.8325794302416921,-0.2150174264805678,-1.3525559450868787,-0.17837440185168282
17428,7.0,300.01474,6023.3643,0.0,0.0,0.0,0.0,-0.17370155742682927,0.0,-0.5139977819676316,-0.4948254688754715,-0.8221290929503242,-0.2401218933431858,-1.3876053806209885,-0.16068059290793985
17429,7.0,300.61016,6238.1931,0.0,0.0,0.0,0.0,-0.17371152423641312,0.0,-0.5420498237686525,-0.5035107447576415,-0.8506943763244982,-0.2522539724880288,-1.3768008921546686,-0.18926096357610284
17430,7.0,299.93676,6582.8965,0.0,0.0,0.0,0.0,-0.17372149104599693,0.0,-0.6308086580159674,-0.5138408903221475,-0.8563866127362781,-0.2683387402729717,-1.3548780103410487,-0.1879768311943688
17431,7.0,298.49658999999997,6207.4579,0.0,0.0,0.0,0.0,-0.17373145785558078,0.0,-0.6067089603500124,-0.47211964870958156,-0.8080835720516393,-0.25200942457639375,-1.3637273314144087,-0.19243204122156382
17432,7.0,298.76754,5747.4115,0.0,0.0,0.0,0.0,-0.17374142466516457,0.0,-0.5167035751671726,-0.4550660415765216,-0.7752999663911493,-0.26339588337014974,-1.3762406661743787,-0.20063683390631382
17433,7.0,300.20918,5858.5847,0.0,0.0,0.0,0.0,-0.17375139147474838,0.0,-0.5380983915586764,-0.45644520668513455,-0.7863198718287293,-0.2503502376701448,-1.4162709352250589,-0.20950634905416682
17434,7.0,299.4411,6180.4422,0.0,0.0,0.0,0.0,-0.1737613582843322,0.0,-0.5547133424584445,-0.4723393821262675,-0.8516473887060533,-0.21986659827914382,-1.4064195098027987,-0.20449607048969082
17435,7.0,299.10192,6258.2128,0.0,0.0,0.0,0.0,-0.17377132509391605,0.0,-0.5908436828017315,-0.46470753171056256,-0.8467892293790903,-0.23426166006482577,-1.4025655117224385,-0.16869672855657084
17436,7.0,300.04411,5946.2645,0.0,0.0,0.0,0.0,-0.17378129190349986,0.0,-0.5314689393344004,-0.4596752352214136,-0.8163717754846213,-0.21311371192768577,-1.4511804409203586,-0.1781869404506818
17437,7.0,299.94562,5828.4315,0.0,0.0,0.0,0.0,-0.1737912587130837,0.0,-0.5350040676082904,-0.44940155808498056,-0.7872920143721722,-0.24479966375484574,-1.4278111445889885,-0.15372966682443687
17438,7.0,300.72303,6448.1789,0.0,0.0,0.0,0.0,-0.17380122552266747,0.0,-0.6079745299899144,-0.4926236966731735,-0.8594871377772761,-0.2228945442154788,-1.3642549307414789,-0.17383353166103382
17439,7.0,301.26195,6713.7008,0.0,0.0,0.0,0.0,-0.1738111923322513,0.0,-0.6577216344520713,-0.5130516900842594,-0.8700240674221902,-0.2550331452598118,-1.3604675031926885,-0.14731333149369386
17440,7.0,299.89987,6145.3292,0.0,0.0,0.0,0.0,-0.17382115914183513,0.0,-0.5497280607739355,-0.4801659082836855,-0.8381326386072513,-0.2554753681334558,-1.3614172225114187,-0.18815156617411383
17441,7.0,299.89521,5783.3722,0.0,0.0,0.0,0.0,-0.17383112595141897,0.0,-0.5052650961132825,-0.46472664160744853,-0.7880090002754332,-0.2934649616152367,-1.3661706827055486,-0.1766072328822768
17442,7.0,299.99541,5972.1435,0.0,0.0,0.0,0.0,-0.1738410927610028,0.0,-0.5574606485145825,-0.4591217676192906,-0.7988000834429302,-0.24311775978135475,-1.3497193514319288,-0.20160451814931682
17443,7.0,299.05155,6337.4273,0.0,0.0,0.0,0.0,-0.1738510595705866,0.0,-0.6151813219886694,-0.4989928449467595,-0.8122454968373892,-0.26436717478350874,-1.3580192883010687,-0.19540370111484381
17444,7.0,300.24324,6237.3376,0.0,0.0,0.0,0.0,-0.1738610263801704,0.0,-0.5793117111611145,-0.48156679747444253,-0.8351163754445693,-0.2598404799617588,-1.4118799145916987,-0.20482170880682882
17445,7.0,299.76066000000003,5809.3035,0.0,0.0,0.0,0.0,-0.17387099318975424,0.0,-0.5279418866638075,-0.4540034360641506,-0.7839378829636452,-0.24886231029579775,-1.4310943788880186,-0.2173183249401488
17446,7.0,299.44527999999997,5782.0797,0.0,0.0,0.0,0.0,-0.17388095999933806,0.0,-0.5132507228014025,-0.4526944081274596,-0.7916627193410272,-0.2090909469106698,-1.4014531657626588,-0.17708673322709984
17447,7.0,300.22149,6364.8747,0.0,0.0,0.0,0.0,-0.17389092680892188,0.0,-0.6018561611160784,-0.4869666200398635,-0.8459401967227972,-0.2152070866342858,-1.4049047009032987,-0.1898949744286748
17448,7.0,300.51088,6567.2111,0.0,0.0,0.0,0.0,-0.1739008936185057,0.0,-0.6063673430787974,-0.5063508847879415,-0.8835499632720922,-0.2219831257505288,-1.4253732648483886,-0.13912676717824288
17449,7.0,301.02772000000004,5996.3208,0.0,0.0,0.0,0.0,-0.17391086042808954,0.0,-0.5354819872829575,-0.48503808085953154,-0.8022117269271332,-0.21653613639295283,-1.4221822363084589,-0.19319398503176183
17450,7.0,301.49852000000004,5932.8804,0.0,0.0,0.0,0.0,-0.17392082723767335,0.0,-0.5217833221585044,-0.46699635222895153,-0.8146678130564533,-0.21581465165924776,-1.3766759584173385,-0.17267593395178782
17451,7.0,300.80053,6218.6558,0.0,0.0,0.0,0.0,-0.17393079404725714,0.0,-0.5914351270176025,-0.4715403736274116,-0.8273405725871572,-0.24207704047114376,-1.3813498784786187,-0.20174925079360082
17452,7.0,302.11913,6476.9514,0.0,0.0,0.0,0.0,-0.173940760856841,0.0,-0.5997692610776174,-0.5055982426136616,-0.8634639924322611,-0.28064695268269774,-1.3977134622935787,-0.20154340903578583
17453,7.0,301.11597,6094.8658,0.0,0.0,0.0,0.0,-0.1739507276664248,0.0,-0.5723926821907594,-0.4660919657196956,-0.8142023563580162,-0.2961923167769057,-1.3822067840881886,-0.1992668589761078
17454,7.0,299.86917,5922.4833,0.0,0.0,0.0,0.0,-0.17396069447600862,0.0,-0.5551521000167464,-0.4647971536819076,-0.7803377749608423,-0.25052312853470776,-1.3630440968719788,-0.18506655399214683
17455,7.0,300.25977,6049.9655,0.0,0.0,0.0,0.0,-0.17397066128559247,0.0,-0.5520304892411675,-0.47345381538125353,-0.8135541296065412,-0.24912955500967274,-1.3960906409334186,-0.1859837479826668
17456,7.0,299.83104,6155.9821,0.0,0.0,0.0,0.0,-0.17398062809517628,0.0,-0.5614551438538085,-0.4547656534518756,-0.8550440360887761,-0.25784155029697975,-1.4392328036912185,-0.1746805986121328
17457,7.0,300.15609,6217.1831,0.0,0.0,0.0,0.0,-0.1739905949047601,0.0,-0.5730098021641645,-0.4862975406013305,-0.8305610867049972,-0.22757108859451777,-1.4245493911920788,-0.18994228307584382
17458,7.0,299.69447,6150.893,0.0,0.0,0.0,0.0,-0.1740005617143439,0.0,-0.5512095236126445,-0.4767838922324066,-0.8417244480917352,-0.19525968787813083,-1.3968723633855686,-0.17159420841002984
17459,7.0,299.38512000000003,6077.2185,0.0,0.0,0.0,0.0,-0.17401052852392773,0.0,-0.5721924031759935,-0.48438290321237054,-0.7907473593331883,-0.20132839736456581,-1.4055428458162786,-0.1970662418789238
17460,7.0,299.88471,6202.794,0.0,0.0,0.0,0.0,-0.17402049533351155,0.0,-0.5746253483886065,-0.47389438665723455,-0.8369747774529793,-0.23150391753265778,-1.4165973030822685,-0.17757124915991784
17461,7.0,300.43613,6266.3251,0.0,0.0,0.0,0.0,-0.17403046214309537,0.0,-0.5570784201793595,-0.4975064577125646,-0.8502214621053252,-0.2331594263410438,-1.3997425969438384,-0.1902671006604008
17462,7.0,300.29071,5971.608,0.0,0.0,0.0,0.0,-0.1740404289526792,0.0,-0.5423507489158516,-0.4474223260021456,-0.8254466358977401,-0.23579603482375677,-1.3890978980182886,-0.16554934069844784
17463,7.0,301.19648,5953.5361,0.0,0.0,0.0,0.0,-0.17405039576226303,0.0,-0.5355799483026255,-0.4746433709986535,-0.7995029851698012,-0.24835082164531777,-1.3907330810296685,-0.2028090901331988
17464,7.0,301.63127000000003,6073.0751,0.0,0.0,0.0,0.0,-0.17406036257184684,0.0,-0.5525767526350795,-0.4694769100637636,-0.8240095432809101,-0.2613101485693038,-1.4003992843336486,-0.18310982619403282
17465,7.0,301.04106,6290.5098,0.0,0.0,0.0,0.0,-0.17407032938143063,0.0,-0.5785399793549505,-0.5102796607256815,-0.8233382549571592,-0.25098627502291676,-1.3680459046656186,-0.2035931531930798
17466,7.0,299.61172,6462.9741,0.0,0.0,0.0,0.0,-0.17408029619101448,0.0,-0.5869674438816764,-0.5262691627362225,-0.8513461494513233,-0.24034606479530976,-1.3257224479886187,-0.1852846459436708
17467,7.0,299.78475,6509.595,0.0,0.0,0.0,0.0,-0.1740902630005983,0.0,-0.5935905936903304,-0.5188496490114735,-0.8663141028435453,-0.2328944918373968,-1.3891798699513787,-0.18651193499479482
17468,7.0,301.17615,6291.6535,0.0,0.0,0.0,0.0,-0.1741002298101821,0.0,-0.5817255059468375,-0.4849516202284986,-0.8458284251042661,-0.2525557588978128,-1.4186163052315286,-0.15585326678151987
17469,7.0,300.05277,5999.7396,0.0,0.0,0.0,0.0,-0.17411019661976593,0.0,-0.5361390394428035,-0.44428994437800357,-0.8433420512138802,-0.20992581433056481,-1.4277650417094385,-0.14869098685965784
17470,7.0,299.46431,6133.8979,0.0,0.0,0.0,0.0,-0.17412016342934977,0.0,-0.5662059392001755,-0.4650417826535505,-0.8333040965807113,-0.1949042600080528,-1.4056516688770186,-0.15450435732089285
17471,7.0,298.61956000000004,6112.5216,0.0,0.0,0.0,0.0,-0.17413013023893356,0.0,-0.5797867430729964,-0.4680301814384825,-0.8102370020916662,-0.21800379876529982,-1.4257935609898686,-0.17388039447815884
17472,7.0,299.35381,5789.8002,0.0,0.0,0.0,0.0,-0.1741400970485174,0.0,-0.5282032342621005,-0.43659859591642664,-0.7951528491779762,-0.23125630960572077,-1.4045847165217185,-0.19900108347487783
17473,7.0,299.22485,5824.6113,0.0,0.0,0.0,0.0,-0.1741500638581012,0.0,-0.5197736216451625,-0.4715342333318055,-0.7792285194138673,-0.2292603487637348,-1.366555515093529,-0.2017148610852068
17474,7.0,299.43351,6065.7535,0.0,0.0,0.0,0.0,-0.17416003066768504,0.0,-0.5505607699711175,-0.4587238440400186,-0.8345529779914661,-0.23735440334505578,-1.3468894452276385,-0.18080332446139882
17475,7.0,300.47547000000003,6254.8307,0.0,0.0,0.0,0.0,-0.17416999747726886,0.0,-0.5875244679916505,-0.4773008220359236,-0.8364870697823463,-0.26138662868685175,-1.3827234403141786,-0.1921133132701078
17476,7.0,301.21148999999997,6378.3318,0.0,0.0,0.0,0.0,-0.1741799642868527,0.0,-0.5925545251980784,-0.5056619861774525,-0.8406370787469202,-0.2873980050514747,-1.3799281872633087,-0.17622080969163983
17477,7.0,299.92685,6131.8128,0.0,0.0,0.0,0.0,-0.17418993109643652,0.0,-0.5760671323533995,-0.4812794802760865,-0.8065713672048962,-0.26718634053673873,-1.3675462710413089,-0.1976707063585798
17478,7.0,300.70063999999996,6068.0137,0.0,0.0,0.0,0.0,-0.1741998979060203,0.0,-0.5505689266344225,-0.48646246732010756,-0.8074932626758802,-0.24536803626593978,-1.3386737094418089,-0.16894496469856987
17479,7.0,300.28672,6244.7315,0.0,0.0,0.0,0.0,-0.17420986471560412,0.0,-0.5759720590965165,-0.5051795980698445,-0.8170907777555813,-0.23448474733934277,-1.3910842735143287,-0.20183539731710282
17480,7.0,298.94379,6205.9793,0.0,0.0,0.0,0.0,-0.17421983152518797,0.0,-0.5629990938261844,-0.47093357867252555,-0.8525300713981673,-0.2318935628586128,-1.4214791420640687,-0.17131592940256582
17481,7.0,298.59834,5952.5878,0.0,0.0,0.0,0.0,-0.17422979833477178,0.0,-0.5234314545061625,-0.4689236755091636,-0.8170829250673062,-0.2073764466814618,-1.4060086368872486,-0.20955090166106383
17482,7.0,298.71772000000004,5942.9853,0.0,0.0,0.0,0.0,-0.17423976514435563,0.0,-0.5507654971538225,-0.4403222495039226,-0.8154313881993123,-0.19329109492134583,-1.4010878891016088,-0.16520711547717284
17483,7.0,298.82042,6211.5057,0.0,0.0,0.0,0.0,-0.17424973195393942,0.0,-0.6026737424892674,-0.44593155139501756,-0.8395373376183842,-0.22677511984596177,-1.4033178499216887,-0.2019226989457188
17484,7.0,300.4928,6418.3283,0.0,0.0,0.0,0.0,-0.17425969876352326,0.0,-0.5978368512819034,-0.5013472328791195,-0.8518274736463262,-0.25080551120507677,-1.3981224100339384,-0.17076359664055482
17485,7.0,300.35213,6123.1776,0.0,0.0,0.0,0.0,-0.17426966557310705,0.0,-0.5636877999191545,-0.46185201054374453,-0.8357532841924272,-0.27031730361074074,-1.3727920694590288,-0.19251256420701082
17486,7.0,299.67732,6120.9647,0.0,0.0,0.0,0.0,-0.1742796323826909,0.0,-0.5376522170096425,-0.47627337630202254,-0.8466948248672732,-0.27676444174452375,-1.3645481653204186,-0.16676393372581882
17487,7.0,300.28901,6287.0195,0.0,0.0,0.0,0.0,-0.1742895991922747,0.0,-0.5721092862702905,-0.4820151099811876,-0.8569725550041062,-0.27008039560485975,-1.4051627757037688,-0.18142168059992583
17488,7.0,300.82773,6398.7724,0.0,0.0,0.0,0.0,-0.17429956600185853,0.0,-0.5848075797035144,-0.4858785616849805,-0.8743808908646752,-0.26903487348917476,-1.4129440298467184,-0.16800580344588184
17489,7.0,299.61717999999996,6213.6818,0.0,0.0,0.0,0.0,-0.17430953281144235,0.0,-0.5778441399812765,-0.49180949955531855,-0.8191504618963562,-0.23858419512392676,-1.4135856198100385,-0.19549117499597682
17490,7.0,299.34424,6079.0355,0.0,0.0,0.0,0.0,-0.1743194996210262,0.0,-0.5506658845364915,-0.4701619177938686,-0.8270471860207023,-0.2351453762720418,-1.3949789029236987,-0.17654854543648482
17491,7.0,299.21175,6073.2646,0.0,0.0,0.0,0.0,-0.17432946643060998,0.0,-0.5687897776176805,-0.46405233379839955,-0.8132786876993573,-0.2229542753088738,-1.4144865004739486,-0.2003857100015298
17492,7.0,298.76808,6300.6262,0.0,0.0,0.0,0.0,-0.17433943324019383,0.0,-0.5523661080717905,-0.49921681374886356,-0.8636501163431302,-0.23888467444108177,-1.4119518553487986,-0.2030262397621298
17493,7.0,299.9278,6336.9497,0.0,0.0,0.0,0.0,-0.17434940004977761,0.0,-0.5757149164861385,-0.4865022779165365,-0.8640572807633142,-0.23184907104672178,-1.3940262451796788,-0.19509328181420782
17494,7.0,300.90979,6107.4732,0.0,0.0,0.0,0.0,-0.17435936685936146,0.0,-0.5643280726573444,-0.4621275436434375,-0.8300637328934122,-0.23752386942428078,-1.3666423506270986,-0.18791773844853682
17495,7.0,301.49197000000004,6150.4585,0.0,0.0,0.0,0.0,-0.17436933366894528,0.0,-0.5915303421294994,-0.4702692615094625,-0.8077861932797902,-0.22208165419025278,-1.4106818476734588,-0.1804186643259358
17496,7.0,300.64722,6217.8175,0.0,0.0,0.0,0.0,-0.17437930047852912,0.0,-0.5820487428612384,-0.4693699919132116,-0.8386425364550741,-0.26735626257850875,-1.4005301962465686,-0.19593497853977682
17497,7.0,300.59483,6247.2355,0.0,0.0,0.0,0.0,-0.17438926728811294,0.0,-0.5708551055615125,-0.4851650512295625,-0.8429834316059872,-0.2296332349330358,-1.3796211724830088,-0.17059189127860883
17498,7.0,299.98182,6247.5947,0.0,0.0,0.0,0.0,-0.17439923409769673,0.0,-0.5530973808014615,-0.49197163983632053,-0.8540437555900562,-0.2252848923938878,-1.3551325387661688,-0.1997804146567918
17499,7.0,299.3856,6356.0004,0.0,0.0,0.0,0.0,-0.17440920090728054,0.0,-0.5870695186967505,-0.4823208885963655,-0.8626749948443931,-0.22574974114226481,-1.3896136423191887,-0.15258766303422983
17500,7.0,299.4055,6222.4031,0.0,0.0,0.0,0.0,-0.1744191677168644,0.0,-0.5815352378430594,-0.47159539310784154,-0.8383245279111893,-0.23398598511011878,-1.3973236649801086,-0.1873669356941768
17501,7.0,299.74814,6135.6385,0.0,0.0,0.0,0.0,-0.1744291345264482,0.0,-0.5854219335041465,-0.4756505415980536,-0.8040084321369542,-0.21107620783159978,-1.3822102291385288,-0.16120499036469385
17502,7.0,299.61802,6107.2985,0.0,0.0,0.0,0.0,-0.17443910133603205,0.0,-0.5637445723222575,-0.46571221984721756,-0.8270094424544772,-0.23289277944472778,-1.3712224437291187,-0.18413427270763782
17503,7.0,300.81817,6194.1896,0.0,0.0,0.0,0.0,-0.17444906814561584,0.0,-0.5765702718230554,-0.46025562487869354,-0.8460530829164381,-0.23672875180580877,-1.4030045529907686,-0.16214592480505685
17504,7.0,300.36362,6085.5024,0.0,0.0,0.0,0.0,-0.17445903495519968,0.0,-0.5279144275860975,-0.49209293600579157,-0.8298334211456821,-0.24129245052121076,-1.3935712958847788,-0.2004168370446018
17505,7.0,299.86966,6073.0231,0.0,0.0,0.0,0.0,-0.17446900176478347,0.0,-0.5400522619915085,-0.48281303430243655,-0.8231820928517471,-0.21433428313064679,-1.3689236832272487,-0.18172914121026984
17506,7.0,300.6862,6202.5874,0.0,0.0,0.0,0.0,-0.17447896857436732,0.0,-0.5656123874240965,-0.48782507592208657,-0.8319942479114393,-0.22521879808986478,-1.3445342466951988,-0.19536458966098383
17507,7.0,300.92503999999997,6262.1116,0.0,0.0,0.0,0.0,-0.17448893538395113,0.0,-0.5979482277328955,-0.46305277270725054,-0.8425245711657012,-0.24391434661247174,-1.3925286615318786,-0.18146498690919982
17508,7.0,301.53611,6269.4894,0.0,0.0,0.0,0.0,-0.17449890219353495,0.0,-0.5739461263165725,-0.48892143279528855,-0.8429006794703202,-0.24429741594527776,-1.4152918316534286,-0.1975668279583278
17509,7.0,300.85462,6081.2818,0.0,0.0,0.0,0.0,-0.17450886900311877,0.0,-0.5292274882581864,-0.4581763140834816,-0.8611540152517841,-0.24549698247366575,-1.4092132429785185,-0.17032327867709884
17510,7.0,300.61794,6028.9305,0.0,0.0,0.0,0.0,-0.1745188358127026,0.0,-0.5125126612960615,-0.4787238000788605,-0.8414078580979902,-0.24275209808526677,-1.3901576562978788,-0.17338515835928284
17511,7.0,300.51501,6295.8587,0.0,0.0,0.0,0.0,-0.1745288026222864,0.0,-0.5741424435234475,-0.4866922015152806,-0.8529492023020321,-0.2624700058262728,-1.4131995715219385,-0.16398112338617685
17512,7.0,300.60708999999997,6368.1896,0.0,0.0,0.0,0.0,-0.17453876943187024,0.0,-0.6143547125570894,-0.47668246589739655,-0.8447334665162023,-0.22327455353298278,-1.3858130425190986,-0.17508166326671482
17513,7.0,300.70117999999997,6045.0484,0.0,0.0,0.0,0.0,-0.17454873624145403,0.0,-0.5916282423541614,-0.46780873562912756,-0.7781067806256603,-0.21249336981896277,-1.3723776501681286,-0.17542764764586083
17514,7.0,300.23242,6100.6409,0.0,0.0,0.0,0.0,-0.17455870305103788,0.0,-0.5624100206155475,-0.48043842189808056,-0.8115940682155982,-0.19443626005186482,-1.3741732306703387,-0.19075980365402684
17515,7.0,299.27736,6474.7744,0.0,0.0,0.0,0.0,-0.1745686698606217,0.0,-0.6144329455973104,-0.48673030985154153,-0.8670064769018772,-0.2205191313435438,-1.4304201622714787,-0.17010156942271784
17516,7.0,299.30851,6527.9451,0.0,0.0,0.0,0.0,-0.17457863667020554,0.0,-0.5941053956686374,-0.5157843344114504,-0.8744425775307632,-0.23323564301356578,-1.4143210367326184,-0.1922433335229398
17517,7.0,299.80196,6087.1425,0.0,0.0,0.0,0.0,-0.17458860347978936,0.0,-0.5496125907925394,-0.4751213312033246,-0.8256053919234082,-0.23229906554863278,-1.3742945167073088,-0.18893156610109382
17518,7.0,299.87867,5928.7547,0.0,0.0,0.0,0.0,-0.17459857028937315,0.0,-0.5247037622592294,-0.4685693622141956,-0.8089202633217143,-0.25089353224126376,-1.3563602939123385,-0.1879194407087048
17519,7.0,300.09175,6221.2145,0.0,0.0,0.0,0.0,-0.17460853709895696,0.0,-0.5926360310361224,-0.4711440915133016,-0.8273137214595072,-0.27592445741162375,-1.3977554108477186,-0.1980677281452628
17520,7.0,299.76003,6355.1698,0.0,0.0,0.0,0.0,-0.1746185039085408,0.0,-0.5735440788093935,-0.49694300959695653,-0.8613258422037421,-0.2546140244884477,-1.4293303104639186,-0.19988259079687581
17521,7.0,300.37982,5999.1535,0.0,0.0,0.0,0.0,-0.17462847071812462,0.0,-0.5321706352936525,-0.46186480789250756,-0.8295574320834442,-0.2419886647974218,-1.4220626727966588,-0.21433784977099882
17522,7.0,300.87731,5884.2227,0.0,0.0,0.0,0.0,-0.17463843752770847,0.0,-0.5040044103388626,-0.47082396527670756,-0.8138283961436092,-0.22804500593128976,-1.4184510441402185,-0.2071629548853918
17523,7.0,300.69365,6102.9966,0.0,0.0,0.0,0.0,-0.17464840433729226,0.0,-0.5652891910396994,-0.48843843673762055,-0.8014309467975762,-0.22684199435256178,-1.4355029287481087,-0.2146463742939478
17524,7.0,300.34736000000004,6407.7113,0.0,0.0,0.0,0.0,-0.1746583711468761,0.0,-0.6262891775349294,-0.5080844442515305,-0.8134106128623773,-0.2253200521723578,-1.3881037983451787,-0.2030241119369198
17525,7.0,300.56711,6436.7449,0.0,0.0,0.0,0.0,-0.1746683379564599,0.0,-0.6242379236349864,-0.49817453403349854,-0.8341972664113602,-0.2188222717985768,-1.3538462177642185,-0.17604594298938184
17526,7.0,299.88698999999997,6076.4006,0.0,0.0,0.0,0.0,-0.17467830476604373,0.0,-0.5558658840496914,-0.4865569832894355,-0.8046511670728873,-0.24081068049616375,-1.3600229903738186,-0.18159174449670984
17527,7.0,300.08322999999996,6243.0227,0.0,0.0,0.0,0.0,-0.17468827157562755,0.0,-0.5604999225870354,-0.4817324334682896,-0.8554906564678542,-0.2561761217701148,-1.4023910300552185,-0.16876437313324683
17528,7.0,299.94006,6622.2482,0.0,0.0,0.0,0.0,-0.17469823838521137,0.0,-0.6184711322808484,-0.48718213833613355,-0.907344834777963,-0.2663997240866058,-1.4291960548256686,-0.16981513375194884
17529,7.0,299.59466000000003,6389.2665,0.0,0.0,0.0,0.0,-0.17470820519479519,0.0,-0.5964107321636565,-0.47328638593472955,-0.8724803579171072,-0.24187752139395277,-1.3882542659850288,-0.16975612206612484
17530,7.0,300.18022,5924.25,0.0,0.0,0.0,0.0,-0.17471817200437903,0.0,-0.5400962775758524,-0.44909023699175554,-0.8116375569098903,-0.26544864701274173,-1.3882566977852686,-0.2021221268304008
17531,7.0,301.10804,6050.8958,0.0,0.0,0.0,0.0,-0.17472813881396282,0.0,-0.5527820877678444,-0.4577695549633376,-0.8287695896006901,-0.24229434208758976,-1.3910968378155686,-0.1771556139688978
17532,7.0,300.65955,6249.7524,0.0,0.0,0.0,0.0,-0.17473810562354666,0.0,-0.5860666240127724,-0.4937613130904475,-0.8199407463118512,-0.24469034420155675,-1.4206773572599385,-0.23005373372453577
17533,7.0,301.14516000000003,6276.1055,0.0,0.0,0.0,0.0,-0.17474807243313045,0.0,-0.5610701290808106,-0.5131006199315885,-0.8336086187657652,-0.2026852912359808,-1.3851659810052386,-0.18693306200135681
17534,7.0,300.70176000000004,6166.2373,0.0,0.0,0.0,0.0,-0.1747580392427143,0.0,-0.5527152031287434,-0.5017868719650085,-0.8198801032933662,-0.2187650738304318,-1.4070847084934486,-0.2151538200765288
17535,7.0,299.55187,6109.4472,0.0,0.0,0.0,0.0,-0.1747680060522981,0.0,-0.5378865412277685,-0.48848470173718656,-0.8307481428059582,-0.22416445056580878,-1.4125352847563788,-0.17698991718004484
17536,7.0,299.81633999999997,6204.2771,0.0,0.0,0.0,0.0,-0.17477797286188196,0.0,-0.5713779122156094,-0.4989091707535015,-0.8156582346317003,-0.22035764967510676,-1.4217888926196387,-0.1979318310418508
17537,7.0,299.60172,6415.4864,0.0,0.0,0.0,0.0,-0.17478793967146578,0.0,-0.5797838147802075,-0.4918972470139785,-0.8784666192429051,-0.22440521905457078,-1.3543823283921286,-0.15782766566137785
17538,7.0,298.14038999999997,6312.2068,0.0,0.0,0.0,0.0,-0.17479790648104956,0.0,-0.5673628782968565,-0.4917371129681745,-0.8596532601311713,-0.22876503158485076,-1.3556364280408988,-0.17547914101594284
17539,7.0,299.54915,6126.5707,0.0,0.0,0.0,0.0,-0.17480787329063338,0.0,-0.5230898473674485,-0.4928398431845055,-0.8463948217776652,-0.28806512891731473,-1.4041008895989686,-0.19666145859647483
17540,7.0,299.10258,6188.7556,0.0,0.0,0.0,0.0,-0.17481784010021723,0.0,-0.5783122209974725,-0.47556438494205056,-0.8273505632331433,-0.24583986630750576,-1.4161689009399887,-0.2065333212732518
17541,7.0,301.27614,6411.3281,0.0,0.0,0.0,0.0,-0.17482780690980104,0.0,-0.6004326055205844,-0.5124181757242365,-0.8360328702925202,-0.26074269811580075,-1.3935261049303187,-0.2136264266107868
17542,7.0,301.23382000000004,6226.1712,0.0,0.0,0.0,0.0,-0.1748377737193849,0.0,-0.5869819029606035,-0.48149982164283256,-0.8241188527016982,-0.23158591986325078,-1.3957511008249088,-0.19001403131542483
17543,7.0,300.65423,6026.2571,0.0,0.0,0.0,0.0,-0.17484774052896868,0.0,-0.5433275726747565,-0.4827619968948995,-0.8057421233230562,-0.24185486512171675,-1.4032724563172088,-0.19626424429227282
17544,7.0,300.44043999999997,6245.2358,0.0,0.0,0.0,0.0,-0.17485770733855252,0.0,-0.5817900702432094,-0.47699339182308254,-0.8396122775957803,-0.2240789626548718,-1.4048669066745687,-0.16949122809248185
17545,7.0,301.08782,6447.4192,0.0,0.0,0.0,0.0,-0.1748676741481363,0.0,-0.5938617292845895,-0.5072257147917806,-0.8587669905337032,-0.22063707365518379,-1.3766747425172188,-0.16709493213598584
17546,7.0,299.67348,6352.2704,0.0,0.0,0.0,0.0,-0.17487764095772015,0.0,-0.6029413418406774,-0.48262092208347657,-0.8453693316164572,-0.2111376310526618,-1.3864039699774187,-0.15974330616793683
17547,7.0,300.19762000000003,6378.3822,0.0,0.0,0.0,0.0,-0.17488760776730397,0.0,-0.6057642262217744,-0.4767677106283096,-0.8563369938788811,-0.24681586933382973,-1.3991995962152486,-0.15797811303622583
17548,7.0,299.63586000000004,6159.0073,0.0,0.0,0.0,0.0,-0.1748975745768878,0.0,-0.5698777549125555,-0.46637955649557855,-0.8359271376445851,-0.21551532744720678,-1.4189857362179885,-0.17990571659531182
17549,7.0,300.02771,5997.6943,0.0,0.0,0.0,0.0,-0.1749075413864716,0.0,-0.5332095206211825,-0.47708604341222655,-0.8128537508724192,-0.2400247834536018,-1.3714679542283486,-0.2002082088490118
17550,7.0,300.22916000000004,6226.7831,0.0,0.0,0.0,0.0,-0.17491750819605542,0.0,-0.5413696897715284,-0.5026604556712245,-0.8487564443157393,-0.23977410537886176,-1.3946068374869787,-0.2075263772987588
17551,7.0,300.55065,6251.196999999999,0.0,0.0,0.0,0.0,-0.17492747500563924,0.0,-0.5559577047737535,-0.5024618079891195,-0.8417882929805363,-0.2755596265806177,-1.4071310140230187,-0.2263731128687868
17552,7.0,300.39164,6040.3208,0.0,0.0,0.0,0.0,-0.17493744181522305,0.0,-0.5606111774480155,-0.4881445232811135,-0.7873509855279922,-0.25941935295519675,-1.4003159951754287,-0.2120726278474388
17553,7.0,301.32887,6023.1907,0.0,0.0,0.0,0.0,-0.17494740862480687,0.0,-0.5687233996036295,-0.4778044276006256,-0.7843717667889663,-0.24473225222569278,-1.3770853114577386,-0.2221539495848878
17554,7.0,300.88147999999995,6290.2169,0.0,0.0,0.0,0.0,-0.17495737543439072,0.0,-0.5911031052248344,-0.5054600859625266,-0.8155056695641432,-0.22525282302822278,-1.4004498455136387,-0.17038736674592384
17555,7.0,301.42507,6236.0964,0.0,0.0,0.0,0.0,-0.17496734224397453,0.0,-0.5578904590745015,-0.4761498408498306,-0.8615772802160571,-0.2337285587897128,-1.4111207876167786,-0.19019698375348082
17556,7.0,300.2657,6326.3377,0.0,0.0,0.0,0.0,-0.17497730905355838,0.0,-0.5425183202173895,-0.49646567760734756,-0.8840647145878943,-0.20149345580585581,-1.4100914268401885,-0.16659205611135586
17557,7.0,299.03059,6240.0458,0.0,0.0,0.0,0.0,-0.1749872758631422,0.0,-0.5572636929601444,-0.4928893911143955,-0.8466650353143332,-0.2059811810287598,-1.3887310001570787,-0.1992733741742508
17558,7.0,298.7595,5924.948,0.0,0.0,0.0,0.0,-0.17499724267272598,0.0,-0.5297916456488645,-0.44100991194928957,-0.8302346884502843,-0.23671695757464478,-1.417903281136159,-0.16387149985785784
17559,7.0,299.81222,6045.1759,0.0,0.0,0.0,0.0,-0.1750072094823098,0.0,-0.5429523864277285,-0.47526769518026957,-0.8193624236847752,-0.24431885631739375,-1.4217102644118786,-0.2055627188699608
17560,7.0,299.83246,6472.0854,0.0,0.0,0.0,0.0,-0.17501717629189364,0.0,-0.6239020413593374,-0.4787435989858146,-0.8647067031499072,-0.26350514212843273,-1.4095956435662587,-0.18335795087852083
17561,7.0,300.62531,6366.9694,0.0,0.0,0.0,0.0,-0.17502714310147746,0.0,-0.5889649549963154,-0.4965308903837835,-0.8499038791264822,-0.22674575585806378,-1.3779723105952788,-0.18989681854385682
17562,7.0,300.27162999999996,6007.9314,0.0,0.0,0.0,0.0,-0.17503710991106128,0.0,-0.5607722234189094,-0.4593728509940706,-0.8061160734049622,-0.26254318274849475,-1.3988679594575186,-0.18979382167119183
17563,7.0,299.80843,6379.9394,0.0,0.0,0.0,0.0,-0.1750470767206451,0.0,-0.5921926125273604,-0.5075763803863885,-0.8395732775994311,-0.25106983775866376,-1.3965443743281987,-0.16972554217810684
17564,7.0,299.53578,6602.2796,0.0,0.0,0.0,0.0,-0.17505704353022894,0.0,-0.6483688699340254,-0.5031182724639075,-0.8554410072129542,-0.23560683063258378,-1.3683450160951387,-0.19095695172598381
17565,7.0,299.76975,6457.1966,0.0,0.0,0.0,0.0,-0.17506701033981273,0.0,-0.5918173756178274,-0.5136106089719206,-0.8573985456111483,-0.22455116759897478,-1.3428728205062286,-0.17389327288692982
17566,7.0,300.36818999999997,6251.7129,0.0,0.0,0.0,0.0,-0.17507697714939655,0.0,-0.5790484383876315,-0.48948937974134055,-0.8318268083324142,-0.2063680601819418,-1.3901755908246487,-0.17954242590445782
17567,7.0,301.23674,6123.0255,0.0,0.0,0.0,0.0,-0.1750869439589804,0.0,-0.5129812793348105,-0.48746243371129655,-0.8608031368746552,-0.24591756232517378,-1.4138298130841385,-0.16517900791939885
17568,7.0,301.19216,6126.8034,0.0,0.0,0.0,0.0,-0.1750969107685642,0.0,-0.5378015295443784,-0.4787725982036765,-0.8458211297035462,-0.21519820043090881,-1.4110341547332288,-0.19973441310225182
17569,7.0,300.58117999999996,6272.2067,0.0,0.0,0.0,0.0,-0.17510687757814802,0.0,-0.5585595486455355,-0.4925487364307755,-0.8554859347223882,-0.23392001239610777,-1.4069776079578786,-0.2065535153477448
17570,7.0,299.68397000000004,6198.9677,0.0,0.0,0.0,0.0,-0.17511684438773184,0.0,-0.5741642790631024,-0.49488624361646955,-0.8152808597644563,-0.24153744426288976,-1.3919294254227386,-0.2107575305426488
17571,7.0,300.72556000000003,5979.039000000001,0.0,0.0,0.0,0.0,-0.17512681119731568,0.0,-0.5302148396856305,-0.4807894623952256,-0.8064742674478133,-0.24757877573162276,-1.4100074284068986,-0.22805598956237377
17572,7.0,299.68805,6131.7399,0.0,0.0,0.0,0.0,-0.17513677800689947,0.0,-0.5811975418497315,-0.4705568016228405,-0.8121414664496223,-0.2291491850952638,-1.3931585991190487,-0.2036052615317748
17573,7.0,297.98762999999997,6348.3459,0.0,0.0,0.0,0.0,-0.1751467448164833,0.0,-0.5838902337254795,-0.49850141864825953,-0.8473469728966352,-0.22821535353810177,-1.3836961604101787,-0.18969779595921482
17574,7.0,299.38302000000004,6226.6808,0.0,0.0,0.0,0.0,-0.1751567116260671,0.0,-0.5830652353615584,-0.47073786941571055,-0.8389523680706522,-0.22891406040955878,-1.4118359395373588,-0.15176202632274585
17575,7.0,299.76422,6108.9739,0.0,0.0,0.0,0.0,-0.17516667843565095,0.0,-0.5356148041060655,-0.4848178813477995,-0.8365428492003513,-0.26050127101447373,-1.4067719181875786,-0.16736664528280185
17576,7.0,299.88081,6369.8432,0.0,0.0,0.0,0.0,-0.17517664524523477,0.0,-0.6006844083029355,-0.4936879740482095,-0.8419009055966502,-0.24587327316330276,-1.3740845712865886,-0.16860133105965583
17577,7.0,300.4693,6493.6082,0.0,0.0,0.0,0.0,-0.1751866120548186,0.0,-0.6055508965457205,-0.5159026617581285,-0.8524411789668942,-0.2308208552427448,-1.3574656484464287,-0.2121413363367198
17578,7.0,299.79453,6205.1172,0.0,0.0,0.0,0.0,-0.1751965788644024,0.0,-0.5700220417267955,-0.4866611352672145,-0.8295175100295042,-0.24376972542569877,-1.3695674010157788,-0.18978080140740683
17579,7.0,300.12495,6304.1227,0.0,0.0,0.0,0.0,-0.17520654567398622,0.0,-0.5578488752903974,-0.5123488592848955,-0.8460981320158841,-0.23590131150914675,-1.4291965614507187,-0.2023015024956038
17580,7.0,300.7137,6207.7667,0.0,0.0,0.0,0.0,-0.17521651248357004,0.0,-0.5793624952561264,-0.47632293436441353,-0.8313206189799572,-0.2310375894391348,-1.4283486737670386,-0.17913553506180083
17581,7.0,299.61372,6016.9081,0.0,0.0,0.0,0.0,-0.17522647929315388,0.0,-0.5446182709171384,-0.46475018953977254,-0.8196213496153293,-0.23517630066509376,-1.4255918228949587,-0.1933709998242318
17582,7.0,299.12922000000003,6239.1092,0.0,0.0,0.0,0.0,-0.1752364461027377,0.0,-0.5637813836983905,-0.5031500378545426,-0.8296019948228422,-0.2168855556899378,-1.4158691815604088,-0.18638504568477182
17583,7.0,299.93914,6219.3025,0.0,0.0,0.0,0.0,-0.17524641291232151,0.0,-0.5707862754822194,-0.48175013494753655,-0.8379762333218151,-0.24940880673723279,-1.4174334370647885,-0.2014953708485448
17584,7.0,300.39293,6246.5448,0.0,0.0,0.0,0.0,-0.1752563797219053,0.0,-0.5455097891501245,-0.5169543646994235,-0.8363294992592951,-0.2161135199087438,-1.3774948671481588,-0.19405336297157583
17585,7.0,301.32736,6323.111999999999,0.0,0.0,0.0,0.0,-0.17526634653148915,0.0,-0.5805457585904055,-0.5002780412410985,-0.8412443600618542,-0.2142929222615648,-1.3544664281504286,-0.2117766777582308
17586,7.0,300.90387999999996,6341.2557,0.0,0.0,0.0,0.0,-0.17527631334107296,0.0,-0.5801940797456975,-0.48849745855594556,-0.8588918634760272,-0.22398726352082177,-1.3741974473477288,-0.16392509065564684
17587,7.0,300.91261000000003,6130.8059,0.0,0.0,0.0,0.0,-0.1752862801506568,0.0,-0.5638449448771635,-0.48696772448247255,-0.8127992278845383,-0.24840792842095377,-1.4026627837320387,-0.1997729064735508
17588,7.0,300.46087,6271.4437,0.0,0.0,0.0,0.0,-0.1752962469602406,0.0,-0.5584374621409864,-0.49789429945334157,-0.8500305252564812,-0.23020695740465777,-1.3841543521053987,-0.18164439297190582
17589,7.0,299.85,6373.3938,0.0,0.0,0.0,0.0,-0.17530621376982444,0.0,-0.5909694778016464,-0.4912050553406645,-0.8551780485470022,-0.22673172234417877,-1.3714796066044987,-0.2042930860971578
17590,7.0,299.96469,6147.7087,0.0,0.0,0.0,0.0,-0.17531618057940826,0.0,-0.5618230853626215,-0.4784279310496605,-0.8284989201014772,-0.24758760113999378,-1.3900789267651088,-0.17448903354822684
17591,7.0,299.95796,6062.4059,0.0,0.0,0.0,0.0,-0.1753261473889921,0.0,-0.5294721172298296,-0.47229765648714955,-0.8410502618726982,-0.24773480611452178,-1.4222716049672788,-0.18694854446288484
17592,7.0,300.38311,6399.5829,0.0,0.0,0.0,0.0,-0.1753361141985759,0.0,-0.6065637413456805,-0.47937891693101553,-0.8593707356057882,-0.22626895075850678,-1.4002251066414588,-0.17518145826906384
17593,7.0,299.23,6540.0802,0.0,0.0,0.0,0.0,-0.1753460810081597,0.0,-0.6089793802465854,-0.5077005339211416,-0.8713411810946793,-0.2145557694700058,-1.3822572439431686,-0.1772772242458998
17594,7.0,299.56965,6430.0638,0.0,0.0,0.0,0.0,-0.17535604781774353,0.0,-0.5990449088461295,-0.4858352655082076,-0.8696986520200741,-0.2055541467741148,-1.4036405700785386,-0.19151376305343681
17595,7.0,300.04871,6367.8608,0.0,0.0,0.0,0.0,-0.17536601462732737,0.0,-0.5550193642536465,-0.5342078455472095,-0.8464434679149662,-0.2141023805802598,-1.4096829857248787,-0.2095604870070098
17596,7.0,299.15187000000003,6329.4727,0.0,0.0,0.0,0.0,-0.1753759814369112,0.0,-0.5727238325884414,-0.5097550099564025,-0.8415228113218353,-0.22664199904782378,-1.3752156623732188,-0.19053799307463581
17597,7.0,299.57776,6338.3352,0.0,0.0,0.0,0.0,-0.17538594824649503,0.0,-0.5756022532075195,-0.5200418390791336,-0.8310515402834012,-0.2192599046492678,-1.3910492150608686,-0.2110233871038868
17598,7.0,299.7307,6198.3449,0.0,0.0,0.0,0.0,-0.1753959150560788,0.0,-0.5751681667321784,-0.48471762025040455,-0.8242562798127613,-0.28027327617831876,-1.3763964027147488,-0.18179488087675783
17599,7.0,299.41216000000003,6088.2801,0.0,0.0,0.0,0.0,-0.17540588186566264,0.0,-0.5396782815120995,-0.47664723519141955,-0.8343596093423823,-0.25360904250926375,-1.4105066567311686,-0.1915995549394038
17600,7.0,300.63906000000003,6154.4645,0.0,0.0,0.0,0.0,-0.17541584867524646,0.0,-0.5289982201580594,-0.5100594004189435,-0.8317459104444302,-0.25554500881282877,-1.3984458394658588,-0.21280698085741379
17601,7.0,301.22667,6285.8009,0.0,0.0,0.0,0.0,-0.1754258154848303,0.0,-0.5689844128293895,-0.4846108439548666,-0.8571312502347681,-0.2355441205838948,-1.3866978125064187,-0.2017717246808188
17602,7.0,299.93197000000004,6348.6744,0.0,0.0,0.0,0.0,-0.17543578229441412,0.0,-0.5891889845934254,-0.4901820983047065,-0.8504674083020982,-0.25753294471402277,-1.4065464700403287,-0.1948929116069328
17603,7.0,300.29082999999997,6177.4887,0.0,0.0,0.0,0.0,-0.17544574910399793,0.0,-0.5583446281668245,-0.4864187759757955,-0.8330389087645392,-0.2522466568223068,-1.3940776169597486,-0.18277032661552683
17604,7.0,300.95697,6132.547,0.0,0.0,0.0,0.0,-0.17545571591358172,0.0,-0.5770567939910715,-0.47758332629630457,-0.8095010380140322,-0.24117460953458075,-1.3749916327761087,-0.1965694858848978
17605,7.0,299.96152,6381.2741,0.0,0.0,0.0,0.0,-0.17546568272316557,0.0,-0.5976812971265515,-0.49534663406440654,-0.8467200547947632,-0.21383985761185081,-1.3755414222803688,-0.15416349998725287
17606,7.0,299.57317,6317.7480000000005,0.0,0.0,0.0,0.0,-0.17547564953274938,0.0,-0.5939273473610654,-0.47674825622638956,-0.8497620443774841,-0.23431857432294279,-1.3876787399282287,-0.19702977500782481
17607,7.0,298.95883,6165.285,0.0,0.0,0.0,0.0,-0.17548561634233323,0.0,-0.5282217260764255,-0.47439228762387353,-0.8714786690007481,-0.23382700616942878,-1.4306427733184486,-0.16899177685318983
17608,7.0,299.7857,6227.2558,0.0,0.0,0.0,0.0,-0.17549558315191702,0.0,-0.5595137566622085,-0.4953300471602695,-0.8380864749326952,-0.23267053316779376,-1.4238418386472487,-0.1895083283230158
17609,7.0,299.68327999999997,6344.1975,0.0,0.0,0.0,0.0,-0.17550554996150086,0.0,-0.6051463868407984,-0.46525583173717555,-0.8580754169429501,-0.22909839086775077,-1.4065356282642587,-0.17277871804193182
17610,7.0,300.59901,6318.5231,0.0,0.0,0.0,0.0,-0.17551551677108468,0.0,-0.6137859550109575,-0.4750715806234146,-0.8318157132438192,-0.24858059637049476,-1.380957649364909,-0.1854432297168218
17611,7.0,300.65924,6146.2047,0.0,0.0,0.0,0.0,-0.17552548358066852,0.0,-0.5739810631800204,-0.48225579740994157,-0.8120558873461762,-0.25703621911749974,-1.3880990360697087,-0.19017243270355783
17612,7.0,299.88024,6063.1459,0.0,0.0,0.0,0.0,-0.1755354503902523,0.0,-0.5191413029202575,-0.49236392974503657,-0.8315397140490802,-0.2578886968241328,-1.3827209071889286,-0.18463025863158783
17613,7.0,300.23967000000005,6158.0992,0.0,0.0,0.0,0.0,-0.17554541719983613,0.0,-0.5444115982942416,-0.48900958555398855,-0.8384872052147442,-0.2433292149447238,-1.4020198765435885,-0.2227290095466418
17614,7.0,299.69366,6274.3104,0.0,0.0,0.0,0.0,-0.17555538400941995,0.0,-0.5817392253531914,-0.4831340825966215,-0.8423604043844992,-0.24780712177415876,-1.4071637420012486,-0.19590192632151482
17615,7.0,299.31654,6277.0294,0.0,0.0,0.0,0.0,-0.1755653508190038,0.0,-0.6055120688018885,-0.49432563260114154,-0.8082225089053513,-0.22256946318589577,-1.4000183022960486,-0.19287333190511582
17616,7.0,299.40207000000004,6274.7596,0.0,0.0,0.0,0.0,-0.1755753176285876,0.0,-0.5968654889410374,-0.5018411720378675,-0.8086635766738812,-0.23901938604187678,-1.3937580378782088,-0.17768379084852481
17617,7.0,300.44254,6345.1501,0.0,0.0,0.0,0.0,-0.17558528443817145,0.0,-0.5831895003538224,-0.5056699604557395,-0.8399077311924392,-0.2179956623669968,-1.3928180457604387,-0.19150161418473782
17618,7.0,300.25759,6296.8565,0.0,0.0,0.0,0.0,-0.1755952512477552,0.0,-0.5542599738337005,-0.49690912651361246,-0.8629180330133791,-0.22166473217160582,-1.3827457318163787,-0.18308617693669885
17619,7.0,300.5956,6189.6887,0.0,0.0,0.0,0.0,-0.17560521805733906,0.0,-0.5287713129306655,-0.49281238410679556,-0.8599271011031971,-0.22311115682185678,-1.4294959768552686,-0.1997757537063318
17620,7.0,300.16256,6125.1627,0.0,0.0,0.0,0.0,-0.17561518486692287,0.0,-0.5379805809695495,-0.47986372670636257,-0.8440522179439681,-0.23478004894848678,-1.4539259433913185,-0.1920056554469828
17621,7.0,300.14959,6259.5272,0.0,0.0,0.0,0.0,-0.17562515167650672,0.0,-0.6070751084061484,-0.4819389946336755,-0.8137258653659902,-0.26279434718328276,-1.4343756880118588,-0.18278221203919984
17622,7.0,300.37253,6300.8892,0.0,0.0,0.0,0.0,-0.17563511848609054,0.0,-0.6050544343942235,-0.48803310630011754,-0.8222254226373312,-0.25099578944135575,-1.4097893769853787,-0.18798522090519681
17623,7.0,299.44492,6174.3221,0.0,0.0,0.0,0.0,-0.17564508529567435,0.0,-0.5779467011563985,-0.47406081298615954,-0.8248322415671042,-0.2546144905834938,-1.3870848740446187,-0.17959418271956581
17624,7.0,299.45387,6449.5719,0.0,0.0,0.0,0.0,-0.17565505210525814,0.0,-0.5663872299080674,-0.5105728547746176,-0.8835487271069701,-0.24321403880585676,-1.3498494527447686,-0.1975050602322318
17625,7.0,299.35241,6435.4535,0.0,0.0,0.0,0.0,-0.17566501891484199,0.0,-0.5814897226485674,-0.4946034556460605,-0.880123982298974,-0.22057105027866777,-1.3958714749367884,-0.18076501347511784
17626,7.0,298.88215,6175.4067,0.0,0.0,0.0,0.0,-0.1756749857244258,0.0,-0.5342857847449015,-0.4793279605834865,-0.8635556814338102,-0.2096547699288148,-1.3910964325155286,-0.1845235329985548
17627,7.0,299.66673,6372.3562,0.0,0.0,0.0,0.0,-0.17568495253400965,0.0,-0.6082518970722884,-0.4846693996781455,-0.8441158601827492,-0.22925002374521578,-1.3997656990461185,-0.16758092741394984
17628,7.0,300.88912999999997,6495.3084,0.0,0.0,0.0,0.0,-0.17569491934359344,0.0,-0.6271818002105244,-0.48609918676175456,-0.8611305787769712,-0.2300780922569398,-1.4036093619754586,-0.18505789070379183
17629,7.0,300.15,6126.8325,0.0,0.0,0.0,0.0,-0.17570488615317728,0.0,-0.5667566710270285,-0.5007693560820875,-0.7948780658833572,-0.23276267813188778,-1.3845557004700086,-0.21352380464065882
17630,7.0,300.14727,6073.2627,0.0,0.0,0.0,0.0,-0.1757148529627611,0.0,-0.5377707875363446,-0.49291974808739153,-0.8154296656741422,-0.2453584306549918,-1.3724918434543987,-0.2036668063428488
17631,7.0,300.38628,6197.2758,0.0,0.0,0.0,0.0,-0.17572481977234494,0.0,-0.5267758485812285,-0.5037997236861615,-0.8532415452208841,-0.2196338952611778,-1.3960539612797986,-0.2133114679497028
17632,7.0,300.33152,6082.8796,0.0,0.0,0.0,0.0,-0.17573478658192873,0.0,-0.5343397808427305,-0.4954557509676755,-0.8192479872184812,-0.24669923411481878,-1.4153538425595487,-0.2150217327934928
17633,7.0,299.83945,6194.8444,0.0,0.0,0.0,0.0,-0.17574475339151255,0.0,-0.5826991379679275,-0.47375628066860453,-0.8266226038312993,-0.23094501890999877,-1.4259199132773386,-0.1932202383418528
17634,7.0,299.40495,6213.5785,0.0,0.0,0.0,0.0,-0.17575472020109636,0.0,-0.6074788277759924,-0.47941765348233856,-0.8018762195540213,-0.2348489398227858,-1.4012168758393386,-0.2027256895174678
17635,7.0,299.42796,6234.7605,0.0,0.0,0.0,0.0,-0.1757646870106802,0.0,-0.5654144794145645,-0.4978199572935045,-0.8319770733222442,-0.22163147730332378,-1.3755844854096186,-0.16364800728330084
17636,7.0,300.28704,6415.9962,0.0,0.0,0.0,0.0,-0.17577465382026403,0.0,-0.5772571236683425,-0.48875523951388655,-0.8842902640601541,-0.25417997854311075,-1.3842817176429685,-0.18541569971160482
17637,7.0,299.35781000000003,6735.9341,0.0,0.0,0.0,0.0,-0.17578462062984787,0.0,-0.5918166055477514,-0.5284861235575196,-0.9272530612852521,-0.24418730605691077,-1.3756921938952487,-0.14195570066243687
17638,7.0,298.11428,6380.840999999999,0.0,0.0,0.0,0.0,-0.17579458743943163,0.0,-0.5694581579136444,-0.49237877385900153,-0.8777794026275821,-0.24707477499938177,-1.3615826862527487,-0.19888774131869183
17639,7.0,297.80631,5988.4546,0.0,0.0,0.0,0.0,-0.17580455424901548,0.0,-0.5728094623543925,-0.4491910857742086,-0.7983401084275342,-0.22924488656720876,-1.3991172189821186,-0.15897927506253284
17640,7.0,299.45464,6248.4954,0.0,0.0,0.0,0.0,-0.1758145210585993,0.0,-0.6000460506074344,-0.48066506568044853,-0.8186754603819772,-0.2471819160649558,-1.4465500906133786,-0.21127805738402078
17641,7.0,299.73555,6258.8618,0.0,0.0,0.0,0.0,-0.17582448786818314,0.0,-0.6167962501305504,-0.4451381056392105,-0.8406033476510912,-0.22071907598577678,-1.4290566316119087,-0.16883511825522884
17642,7.0,299.40132,5844.376,0.0,0.0,0.0,0.0,-0.17583445467776695,0.0,-0.5108792413398555,-0.46581607798246755,-0.7998490607414562,-0.2337388331457268,-1.4099171478229886,-0.2103788587152768
17643,7.0,299.18897999999996,5857.2565,0.0,0.0,0.0,0.0,-0.17584442148735077,0.0,-0.4896732846344905,-0.4657370951371726,-0.8250493506660311,-0.22151594652692178,-1.3955925271842589,-0.17863575958247682
17644,7.0,300.36764,6267.8708,0.0,0.0,0.0,0.0,-0.17585438829693456,0.0,-0.5499475206130945,-0.4808970290258416,-0.8744316749596872,-0.26850612918949174,-1.4097188547784185,-0.19227965853902482
17645,7.0,299.77625,6469.6129,0.0,0.0,0.0,0.0,-0.1758643551065184,0.0,-0.6248962727549604,-0.4996941660034745,-0.8420103366074502,-0.24964100313014878,-1.3966046627091488,-0.17143987015479784
17646,7.0,300.46039,6485.0364,0.0,0.0,0.0,0.0,-0.17587432191610222,0.0,-0.6338952508680904,-0.48995467431976153,-0.8474392090532381,-0.2134689371477438,-1.3968162293300288,-0.1960304266991968
17647,7.0,299.46274,6326.7209,0.0,0.0,0.0,0.0,-0.17588428872568607,0.0,-0.5909615136558605,-0.49377293506909453,-0.8384307367866712,-0.21591575375422578,-1.3770480238540588,-0.19396043780490482
17648,7.0,300.00415,6041.0065,0.0,0.0,0.0,0.0,-0.17589425553526986,0.0,-0.5292380665892304,-0.46371535721264256,-0.8433617183983213,-0.22798447437031577,-1.4102568905815187,-0.2139620150439068
17649,7.0,300.53728,6335.102,0.0,0.0,0.0,0.0,-0.1759042223448537,0.0,-0.5485286664980644,-0.4995936921235585,-0.8775904720139363,-0.23697982504808776,-1.3832780934189186,-0.2016516545439688
17650,7.0,300.70037,6491.971,0.0,0.0,0.0,0.0,-0.17591418915443752,0.0,-0.5855135009156834,-0.5165253039445785,-0.8713582644913651,-0.2282945491659178,-1.3683708539726884,-0.2061523088381488
17651,7.0,300.31709,5969.7185,0.0,0.0,0.0,0.0,-0.17592415596402136,0.0,-0.5465765895179096,-0.4696931882976086,-0.7983755721810343,-0.23276450198206777,-1.3951609839666685,-0.20011853621516182
17652,7.0,300.53899,5798.874,0.0,0.0,0.0,0.0,-0.17593412277360515,0.0,-0.5434222406315995,-0.44075237417137264,-0.7785382934457473,-0.2257550404402878,-1.4395603874485485,-0.1977750812513808
17653,7.0,300.25944,6462.5003,0.0,0.0,0.0,0.0,-0.17594408958318897,0.0,-0.6321573344290714,-0.47983729101125355,-0.8524440768621802,-0.26181104875623873,-1.4474621170283886,-0.17930633863115783
17654,7.0,300.50216,6816.4537,0.0,0.0,0.0,0.0,-0.17595405639277278,0.0,-0.6188539584336303,-0.5396147709958314,-0.913562978389146,-0.22436949185604477,-1.4193186902008486,-0.16823043086055084
17655,7.0,299.7884,6516.2915,0.0,0.0,0.0,0.0,-0.17596402320235663,0.0,-0.5938242592958914,-0.5139376151766935,-0.8730280499936601,-0.26864987898117876,-1.393122730065509,-0.15538771889057384
17656,7.0,299.49125,6269.6454,0.0,0.0,0.0,0.0,-0.17597399001194045,0.0,-0.5561845005436364,-0.4857324814180636,-0.8638986665926602,-0.2512564176320778,-1.3904771340544086,-0.17316446235500182
17657,7.0,298.59702000000004,6255.6471,0.0,0.0,0.0,0.0,-0.17598395682152426,0.0,-0.5917686382880174,-0.4753714823880126,-0.8344203840833803,-0.26476376087264875,-1.3888979837735589,-0.15048651669936286
17658,7.0,298.94513,6473.0895,0.0,0.0,0.0,0.0,-0.17599392363110805,0.0,-0.6197230331769014,-0.4850210481253505,-0.8629134936529312,-0.20879511841147377,-1.3937817479305488,-0.17586264604629184
17659,7.0,299.32959,6353.3097,0.0,0.0,0.0,0.0,-0.1760038904406919,0.0,-0.6107767643339734,-0.4611695055413866,-0.8593012367814292,-0.22736940116211277,-1.4137897897051885,-0.18739551947949784
17660,7.0,299.79618,5857.7703,0.0,0.0,0.0,0.0,-0.1760138572502757,0.0,-0.5102878072564856,-0.4636185614305896,-0.8067095238560312,-0.21492475462642177,-1.4392593508438385,-0.23354911219700278
17661,7.0,300.4131,5822.563,0.0,0.0,0.0,0.0,-0.17602382405985956,0.0,-0.5112801641394235,-0.45517654663242757,-0.8034570619625382,-0.25580607270109373,-1.4044203673554987,-0.19497385002492082
17662,7.0,299.75599,6313.685,0.0,0.0,0.0,0.0,-0.17603379086944337,0.0,-0.5667735619061954,-0.5227315013370826,-0.8296975139097692,-0.2390696939093418,-1.3841701588069588,-0.22335000013542877
17663,7.0,299.9833,6668.2385,0.0,0.0,0.0,0.0,-0.1760437576790272,0.0,-0.6140276759548133,-0.5522233613977025,-0.8607269505996362,-0.23896817638182277,-1.3412581051468686,-0.17835828104259183
17664,7.0,300.66192,6339.7671,0.0,0.0,0.0,0.0,-0.17605372448861098,0.0,-0.5857161408031825,-0.5177429671197525,-0.8236717966250773,-0.23255686677157578,-1.3929112647696387,-0.1924113607870228
17665,7.0,300.01692,5912.7122,0.0,0.0,0.0,0.0,-0.17606369129819482,0.0,-0.5328780257184665,-0.4708207634063915,-0.7936180691190052,-0.2196262452229228,-1.4095760878393286,-0.17927977121353583
17666,7.0,300.29171,6220.2311,0.0,0.0,0.0,0.0,-0.17607365810777864,0.0,-0.5500833569215005,-0.49426897165554956,-0.8464426167848823,-0.2284185811106588,-1.4454514235299487,-0.1958479808861908
17667,7.0,300.08066,6477.0989,0.0,0.0,0.0,0.0,-0.17608362491736246,0.0,-0.5994580919719075,-0.4910324988486346,-0.8783857416199231,-0.2302406986329878,-1.4260753458426787,-0.17664698268369983
17668,7.0,297.43823,6261.2501,0.0,0.0,0.0,0.0,-0.17609359172694627,0.0,-0.5734062666632925,-0.4852689802923195,-0.8445884501618901,-0.23984528619838674,-1.4343335368076986,-0.2037758320536088
17669,7.0,298.85609,6111.3972,0.0,0.0,0.0,0.0,-0.17610355853653012,0.0,-0.5695201080247585,-0.45488448742360355,-0.8333075517635521,-0.21466390352067777,-1.3965274530515286,-0.15669680762227087
17670,7.0,299.06012999999996,5941.4648,0.0,0.0,0.0,0.0,-0.17611352534611394,0.0,-0.5478273049113455,-0.4537811999197176,-0.8044484359928793,-0.23156595883628078,-1.4002605703949587,-0.1938537830993788
17671,7.0,298.99044,6338.6879,0.0,0.0,0.0,0.0,-0.17612349215569773,0.0,-0.5759868930779805,-0.4979759268813975,-0.8528400043387552,-0.23391114645773275,-1.4005152001450885,-0.17244602750409782
17672,7.0,299.7582,6731.0826,0.0,0.0,0.0,0.0,-0.17613345896528157,0.0,-0.6261479710009934,-0.5193937339176705,-0.9005393404813131,-0.24654574698967074,-1.4213622130025287,-0.1919642236503938
17673,7.0,299.62169,6384.5549,0.0,0.0,0.0,0.0,-0.1761434257748654,0.0,-0.5748845985591924,-0.5132099090873745,-0.8526507596175782,-0.25583071494352577,-1.4126948716471286,-0.16128005193210185
17674,7.0,300.00566000000003,5979.6559,0.0,0.0,0.0,0.0,-0.1761533925844492,0.0,-0.5530226637390875,-0.46144409631848654,-0.8031993215346013,-0.25191552668962675,-1.4059189642533987,-0.18611881422099683
17675,7.0,299.85784,6259.7905,0.0,0.0,0.0,0.0,-0.17616335939403302,0.0,-0.5666604426650315,-0.4902292853618635,-0.8459302871368191,-0.2590327169820387,-1.3800464335499787,-0.17798602308835282
17676,7.0,300.06082999999995,6427.6757,0.0,0.0,0.0,0.0,-0.17617332620361686,0.0,-0.6159996531669324,-0.49407621095652554,-0.8437770394818102,-0.2536592591842198,-1.3883634943458087,-0.18321365393177982
17677,7.0,300.48772,6299.0176,0.0,0.0,0.0,0.0,-0.17618329301320068,0.0,-0.5669225198033965,-0.4839714223467605,-0.8638501319128701,-0.2059647359796368,-1.4041155817254185,-0.17325603989903984
17678,7.0,300.51175,6048.7,0.0,0.0,0.0,0.0,-0.17619325982278447,0.0,-0.5394971427917225,-0.4757620497715585,-0.8233945612652163,-0.2125912599111238,-1.4227582689903087,-0.2044887142939648
17679,7.0,300.47443,6070.9231,0.0,0.0,0.0,0.0,-0.17620322663236831,0.0,-0.5522329974061534,-0.4607439810293905,-0.8324320530146472,-0.21159089835239578,-1.4170619795781287,-0.1985558613809378
17680,7.0,300.88638,6421.2208,0.0,0.0,0.0,0.0,-0.17621319344195213,0.0,-0.6000697606597745,-0.4918347294828085,-0.8599862850415381,-0.22619118381333178,-1.4118534687640887,-0.19929699303408183
17681,7.0,299.69923,6426.5037,0.0,0.0,0.0,0.0,-0.17622316025153595,0.0,-0.5962914624943855,-0.5127413518436315,-0.8444638406645922,-0.2323736812859968,-1.3693389131182288,-0.1989824194080358
17682,7.0,300.03853,6165.1669999999995,0.0,0.0,0.0,0.0,-0.1762331270611198,0.0,-0.5831982041721815,-0.46785370366856555,-0.8230049260717622,-0.25581227379170574,-1.3880623564160885,-0.16024988055543185
17683,7.0,299.41301,5925.6773,0.0,0.0,0.0,0.0,-0.1762430938707036,0.0,-0.5269743949383235,-0.46511345996562453,-0.8091700801338692,-0.26013667323099077,-1.3858475943475086,-0.19356867478624082
17684,7.0,299.29465,6117.6561,0.0,0.0,0.0,0.0,-0.1762530606802874,0.0,-0.5498333273268244,-0.4841505244344365,-0.8256308346334191,-0.27315999703129273,-1.4239954473624088,-0.17295790118961585
17685,7.0,299.88007999999996,6515.6061,0.0,0.0,0.0,0.0,-0.17626302748987122,0.0,-0.6144891809778604,-0.4931425719168825,-0.8729498169534393,-0.22516295787685378,-1.4180255804232287,-0.19697348896476982
17686,7.0,300.75766,6553.731,0.0,0.0,0.0,0.0,-0.17627299429945506,0.0,-0.6119612942308774,-0.5045089480936565,-0.8757003350123941,-0.20892368971666278,-1.4076381456980684,-0.18537452122754083
17687,7.0,300.51442000000003,6259.1552,0.0,0.0,0.0,0.0,-0.17628296110903888,0.0,-0.5766345625419005,-0.49765328778455553,-0.8283390596332002,-0.22952504008735777,-1.3953452941598588,-0.2178822188858008
17688,7.0,300.72968,6217.64,0.0,0.0,0.0,0.0,-0.1762929279186227,0.0,-0.5715966019846924,-0.45652302429281455,-0.8618876893841921,-0.2179174394592768,-1.3635818287000485,-0.16878394912517886
17689,7.0,300.38813,6273.033,0.0,0.0,0.0,0.0,-0.1763028947282065,0.0,-0.5761079663324294,-0.48364983703002257,-0.8470875808710352,-0.24074409983209277,-1.3767979537293786,-0.1980208855931398
17690,7.0,299.6913,6372.6398,0.0,0.0,0.0,0.0,-0.17631286153779036,0.0,-0.5879109114472895,-0.45223231541935455,-0.8969801373850472,-0.2217539285779088,-1.3988783959335487,-0.16191694041495783
17691,7.0,299.52952,6208.2777,0.0,0.0,0.0,0.0,-0.17632282834737414,0.0,-0.5763428275731085,-0.47093255528992456,-0.8398860273752973,-0.26689344033033174,-1.4445789138688385,-0.21495963069486376
17692,7.0,299.58969,5875.0562,0.0,0.0,0.0,0.0,-0.176332795156958,0.0,-0.5250043023713905,-0.4420364761556036,-0.8188295959871892,-0.2381746698310098,-1.4101222296432288,-0.17869015084784481
17693,7.0,299.40604,5955.1626,0.0,0.0,0.0,0.0,-0.17634276196654178,0.0,-0.5405114365393255,-0.46443653797131756,-0.8052727656117342,-0.24636721232205078,-1.4258717838975885,-0.21557168441776878
17694,7.0,299.24048,6590.9512,0.0,0.0,0.0,0.0,-0.17635272877612562,0.0,-0.5959758857507405,-0.5206337392575495,-0.8868749536077432,-0.23134932596490076,-1.4008045843736487,-0.16006902554508284
17695,7.0,299.75087,6687.284000000001,0.0,0.0,0.0,0.0,-0.17636269558570944,0.0,-0.6284116730494035,-0.5077495245634766,-0.896606156905638,-0.2225076751947978,-1.4049677250595185,-0.2181291783326738
17696,7.0,300.41104,6365.8468,0.0,0.0,0.0,0.0,-0.17637266239529328,0.0,-0.5682869927855594,-0.4970627048312696,-0.8697087845210741,-0.22036611031344178,-1.3843159654963486,-0.15862709972527583
17697,7.0,300.51469,6040.7239,0.0,0.0,0.0,0.0,-0.1763826292048771,0.0,-0.5636224858177085,-0.4605921455019055,-0.8120145872721003,-0.2211334344816708,-1.3928964713181788,-0.2245459797584628
17698,7.0,299.52186,6228.491,0.0,0.0,0.0,0.0,-0.1763925960144609,0.0,-0.5714607454112844,-0.4700606941088785,-0.8517842990595651,-0.24476752346167374,-1.4097623232077088,-0.17073281410251684
17699,7.0,299.70007000000004,6425.1725,0.0,0.0,0.0,0.0,-0.1764025628240447,0.0,-0.5932623817179384,-0.5098763466558776,-0.8499532852013582,-0.2304249176336688,-1.4278468109925087,-0.2063639058565318
17700,7.0,300.01425,6266.5325,0.0,0.0,0.0,0.0,-0.17641252963362855,0.0,-0.5501612251916854,-0.4999426047954935,-0.8547655544312922,-0.24056849345726178,-1.3989453717651588,-0.17257607815443282
17701,7.0,300.78139,5923.5830000000005,0.0,0.0,0.0,0.0,-0.17642249644321237,0.0,-0.5251894940921675,-0.44818715757512856,-0.8272446583326912,-0.2315415091113678,-1.3922805165823886,-0.1931812079480008
17702,7.0,301.20865,6057.1155,0.0,0.0,0.0,0.0,-0.1764324632527962,0.0,-0.5558403501471715,-0.4677918548824615,-0.8175796506638293,-0.24783230103914378,-1.4055358543905885,-0.18586175267062682
17703,7.0,300.49495,6642.3872,0.0,0.0,0.0,0.0,-0.17644243006237997,0.0,-0.6037102872090664,-0.5316676984740165,-0.8837418525760302,-0.2182140177635468,-1.4241673959043786,-0.2030273644697408
17704,7.0,301.31782999999996,6794.7627,0.0,0.0,0.0,0.0,-0.17645239687196382,0.0,-0.6501811386653824,-0.5154864388820505,-0.8997706180279462,-0.2313299222254858,-1.4170707948539987,-0.18852845468130983
17705,7.0,299.64426000000003,6292.2421,0.0,0.0,0.0,0.0,-0.17646236368154763,0.0,-0.5712459363900845,-0.4999463234233606,-0.8414922314338171,-0.21870569737457177,-1.4325757505342185,-0.2063368824763648
17706,7.0,299.75576,5864.1924,0.0,0.0,0.0,0.0,-0.17647233049113148,0.0,-0.5296507025599545,-0.4441730355814656,-0.8087443327068512,-0.24929827128382376,-1.4353322974312688,-0.19023387618962181
17707,7.0,299.43582999999995,6062.5366,0.0,0.0,0.0,0.0,-0.1764822973007153,0.0,-0.5387030181583484,-0.4773970098679165,-0.8267596965698293,-0.23891331902140875,-1.4252830855894885,-0.1819344256805298
17708,7.0,299.41592,6424.4225,0.0,0.0,0.0,0.0,-0.1764922641102991,0.0,-0.6059578887133875,-0.4850853287116945,-0.8618208148775921,-0.23685831609609576,-1.3789085536876786,-0.16833861557372784
17709,7.0,299.91881,6407.743,0.0,0.0,0.0,0.0,-0.17650223091988293,0.0,-0.5912927856435544,-0.5002114099145225,-0.8562896750992113,-0.2104343848207568,-1.3709093494482187,-0.2006396406090908
17710,7.0,300.00471,6147.1990000000005,0.0,0.0,0.0,0.0,-0.17651219772946677,0.0,-0.5674253958280264,-0.48233936014568857,-0.8188302343347522,-0.23577801923697878,-1.3735642673602386,-0.1930304160681188
17711,7.0,299.43367,6302.8399,0.0,0.0,0.0,0.0,-0.17652216453905056,0.0,-0.5607224829715004,-0.5090473358215605,-0.8461361390271351,-0.22491090178197778,-1.4175787371291286,-0.2180356654809448
17712,7.0,300.04197999999997,6657.8656,0.0,0.0,0.0,0.0,-0.1765321313486344,0.0,-0.6125250767190183,-0.5318799034424595,-0.8794199153344882,-0.25103388764511575,-1.4078333989923386,-0.18758866521355982
17713,7.0,300.66073,6699.1338,0.0,0.0,0.0,0.0,-0.1765420981582182,0.0,-0.6156820397905863,-0.5334000926999904,-0.8872872653384352,-0.23022126449606978,-1.4152733905016086,-0.1918851901425938
17714,7.0,300.20892000000003,6371.4208,0.0,0.0,0.0,0.0,-0.17655206496780204,0.0,-0.5948671672263185,-0.49491118983393156,-0.8469744717623723,-0.26004076910902574,-1.4092322920803988,-0.18567395689709282
17715,7.0,300.61400000000003,5986.3123,0.0,0.0,0.0,0.0,-0.17656203177738586,0.0,-0.5458925342428984,-0.46507112637644654,-0.8087258104950232,-0.24458971833412577,-1.4163704363848788,-0.19794893470353883
17716,7.0,299.48598,6121.9149,0.0,0.0,0.0,0.0,-0.1765719985869697,0.0,-0.5594401947049484,-0.48644366139825157,-0.8150254194142462,-0.25316979859091376,-1.3967560422740886,-0.19207135458346683
17717,7.0,300.0214,6504.3193,0.0,0.0,0.0,0.0,-0.17658196539655352,0.0,-0.5921963311552274,-0.5010752461547766,-0.8838790669045722,-0.2053139761029118,-1.4029911780894486,-0.17814160764120782
17718,7.0,299.36652999999995,6531.6127,0.0,0.0,0.0,0.0,-0.1765919322061373,0.0,-0.5957350260694694,-0.49414689528350153,-0.8955652450779081,-0.2129560299471238,-1.4187768040473685,-0.18886153025418181
17719,7.0,299.48147,6249.0299,0.0,0.0,0.0,0.0,-0.17660189901572113,0.0,-0.5825509400083014,-0.4669286772547725,-0.8500694441928223,-0.2011036584923858,-1.4074053008250884,-0.1918376484479018
17720,7.0,298.77245,6218.0997,0.0,0.0,0.0,0.0,-0.17661186582530497,0.0,-0.5742072611323444,-0.48068772195268455,-0.8352520395004581,-0.2143423283364408,-1.3634873937907288,-0.1904816766340778
17721,7.0,299.67972000000003,6552.1734,0.0,0.0,0.0,0.0,-0.1766218326348888,0.0,-0.6147506400336644,-0.5387935013922784,-0.8381529644042572,-0.2341312547769558,-1.3641068949018686,-0.18613083136718284
17722,7.0,300.59594,6633.6908,0.0,0.0,0.0,0.0,-0.17663179944447263,0.0,-0.6119096488732804,-0.5231459611579865,-0.8814207397769541,-0.26018854150360976,-1.3732023344245186,-0.18509514790996884
17723,7.0,300.97972000000004,6290.7881,0.0,0.0,0.0,0.0,-0.1766417662540564,0.0,-0.5773463707371504,-0.5078334723342615,-0.8270626786147313,-0.27324751144242976,-1.4142463602002486,-0.19030442879408482
17724,7.0,300.87686,6001.6588,0.0,0.0,0.0,0.0,-0.17665173306364024,0.0,-0.5301411257408555,-0.4818503757799295,-0.8123629122589772,-0.25135967794976877,-1.4056304919499287,-0.16273966909865487
17725,7.0,300.94858999999997,6159.0097,0.0,0.0,0.0,0.0,-0.17666169987322405,0.0,-0.5809063945659975,-0.4749180934982665,-0.8163606702635252,-0.24589189670014075,-1.4115373347328886,-0.18606267003295582
17726,7.0,299.566,6743.007,0.0,0.0,0.0,0.0,-0.1766716666828079,0.0,-0.6262356779296494,-0.5310314787362265,-0.8924385984493323,-0.2240841200978808,-1.4004598766896286,-0.18039449831105084
17727,7.0,300.1543,6745.9435,0.0,0.0,0.0,0.0,-0.17668163349239172,0.0,-0.6631172520295774,-0.5053406947032436,-0.8821404411904832,-0.22234567676880979,-1.4063804996739486,-0.2090119235353708
17728,7.0,299.67791,6129.2329,0.0,0.0,0.0,0.0,-0.17669160030197553,0.0,-0.5571848621023645,-0.48208735471331754,-0.8238615378388032,-0.21788148934572882,-1.3556267008399385,-0.18947876168509784
17729,7.0,298.78749,5793.2782,0.0,0.0,0.0,0.0,-0.17670156711155935,0.0,-0.5011566709328125,-0.4563352285192806,-0.8035200151912513,-0.22122683587588882,-1.3741324980163188,-0.19871846775698582
17730,7.0,298.9204,6307.6465,0.0,0.0,0.0,0.0,-0.1767115339211432,0.0,-0.5656498270152914,-0.49976043256001457,-0.8519567846240882,-0.25290154062693876,-1.4075086523352884,-0.16110053441188485
17731,7.0,300.16362999999996,6543.1279,0.0,0.0,0.0,0.0,-0.17672150073072698,0.0,-0.6140923415761954,-0.5009806389929395,-0.8738745292597011,-0.24809913032047776,-1.4348803878866685,-0.1957605981975668
17732,7.0,299.61697000000004,6212.491,0.0,0.0,0.0,0.0,-0.17673146754031083,0.0,-0.5866907151468654,-0.46749596558825957,-0.8342554472321023,-0.23497017519725077,-1.4001518486592288,-0.17392448099000984
17733,7.0,300.45619,6188.7145,0.0,0.0,0.0,0.0,-0.17674143434989462,0.0,-0.5878145817602825,-0.4783421391636935,-0.8150579447424563,-0.24830015914031778,-1.3746818822205384,-0.1876040058200738
17734,7.0,299.85983,6484.1686,0.0,0.0,0.0,0.0,-0.17675140115947846,0.0,-0.5916230849111525,-0.5020390901799006,-0.8773631696190032,-0.24390360616141177,-1.3956440002893387,-0.18773800814579883
17735,7.0,300.69424,6684.543000000001,0.0,0.0,0.0,0.0,-0.17676136796906228,0.0,-0.6058575465559844,-0.5033944033811595,-0.922682198891643,-0.25462002292903974,-1.3929409529975687,-0.18885335332587483
17736,7.0,300.89738,6630.7309,0.0,0.0,0.0,0.0,-0.17677133477864612,0.0,-0.6089933630979654,-0.5013895056732915,-0.9051937554781682,-0.23385394848958777,-1.4080945135431089,-0.17892966290648282
17737,7.0,300.45037,6190.2146,0.0,0.0,0.0,0.0,-0.17678130158822994,0.0,-0.5730488122930144,-0.46656973340684754,-0.8420521129090732,-0.22735810342349777,-1.411721442276059,-0.17609046519877583
17738,7.0,299.37304,5845.6877,0.0,0.0,0.0,0.0,-0.17679126839781373,0.0,-0.5423326421365645,-0.4426094285571496,-0.7920010334169163,-0.23756973925630775,-1.4274756574808787,-0.21319914917611782
17739,7.0,298.56323,6341.5579,0.0,0.0,0.0,0.0,-0.17680123520739754,0.0,-0.5725115465599905,-0.5233798395460685,-0.8317838566606752,-0.2234481030101108,-1.4248131401931088,-0.2041556893835978
17740,7.0,299.59567000000004,6617.869000000001,0.0,0.0,0.0,0.0,-0.1768112020169814,0.0,-0.6111143184722874,-0.5212423175326115,-0.8793102715411671,-0.22413768049816676,-1.3858736348750786,-0.22444642793613778
17741,7.0,299.07525,6196.1993,0.0,0.0,0.0,0.0,-0.1768211688265652,0.0,-0.5430301635054045,-0.49193181910739053,-0.8485278753581812,-0.20165226249402882,-1.3727663329064885,-0.19446827875502481
17742,7.0,299.59105,5955.0431,0.0,0.0,0.0,0.0,-0.17683113563614905,0.0,-0.5271310231387815,-0.45953356259243155,-0.8235198091100773,-0.2252516476581068,-1.4116322762672586,-0.21828187512274377
17743,7.0,299.6823,6289.1635,0.0,0.0,0.0,0.0,-0.17684110244573284,0.0,-0.5814248543771654,-0.4654446610258115,-0.8648791279194241,-0.22799721092407277,-1.4013477877522587,-0.16859692342172083
17744,7.0,300.37747,6537.1527,0.0,0.0,0.0,0.0,-0.17685106925531668,0.0,-0.6117837728133574,-0.5099827683138806,-0.8653646368373401,-0.2520934939371907,-1.4098106552374787,-0.1943848173442878
17745,7.0,299.92062999999996,6580.6177,0.0,0.0,0.0,0.0,-0.17686103606490047,0.0,-0.6204830416794084,-0.4792109200644355,-0.9006495010321851,-0.2261999990892018,-1.3986472735857385,-0.16359419357048985
17746,7.0,300.11472000000003,6410.901,0.0,0.0,0.0,0.0,-0.17687100287448432,0.0,-0.5668817263543705,-0.5188855991250215,-0.8629865084551372,-0.27683373791886273,-1.4094809436549385,-0.19653324192882082
17747,7.0,300.21668,6178.5598,0.0,0.0,0.0,0.0,-0.17688096968406813,0.0,-0.5474191880360675,-0.49088328763890854,-0.8398254147543152,-0.23804872284357975,-1.4186838890131985,-0.18513939654183584
17748,7.0,300.15697,6301.531,0.0,0.0,0.0,0.0,-0.17689093649365195,0.0,-0.5662914169786115,-0.4912777256378365,-0.8579389220219792,-0.24573073927173578,-1.4072162283564287,-0.19600803387198681
17749,7.0,299.90243,6665.755999999999,0.0,0.0,0.0,0.0,-0.17690090330323577,0.0,-0.6388670461937684,-0.5136814655514136,-0.8736748581949951,-0.1873538343703838,-1.3992170241169686,-0.19343752982579782
17750,7.0,299.82567,6354.8078,0.0,0.0,0.0,0.0,-0.1769108701128196,0.0,-0.6129598015419224,-0.4648831279528926,-0.8538599722869181,-0.19799448029553382,-1.4318858285411287,-0.19177766404198182
17751,7.0,299.56804,5859.3974,0.0,0.0,0.0,0.0,-0.1769208369224034,0.0,-0.5273031439332685,-0.4623568016110635,-0.7914505751675903,-0.18754029265378583,-1.4307575745547787,-0.2016080645246668
17752,7.0,299.64658,5971.6511,0.0,0.0,0.0,0.0,-0.17693080373198725,0.0,-0.5236611279063295,-0.47859564420621253,-0.8129760501594893,-0.2366620191542228,-1.4185366637736687,-0.20266706286668182
17753,7.0,299.30034,6526.8666,0.0,0.0,0.0,0.0,-0.17694077054157104,0.0,-0.5921600365366454,-0.4914048378628815,-0.9004395758764672,-0.24714462846127574,-1.4014613730884686,-0.17562361021520081
17754,7.0,299.84275,6625.6596,0.0,0.0,0.0,0.0,-0.17695073735115488,0.0,-0.6063303797151495,-0.5281354579629115,-0.8795692380017252,-0.26202561459741475,-1.4223157826716386,-0.19741046320289582
17755,7.0,299.71308,6235.7257,0.0,0.0,0.0,0.0,-0.1769607041607387,0.0,-0.5845636093444364,-0.4517818649548985,-0.8591594222974331,-0.23607820471160476,-1.4144969369499787,-0.18494638253028683
17756,7.0,299.68086,6107.2338,0.0,0.0,0.0,0.0,-0.17697067097032254,0.0,-0.5708703144455135,-0.46501444516585255,-0.8205617976956443,-0.2307054967188598,-1.4104144509720686,-0.19210680820446582
17757,7.0,300.34358,6395.1347,0.0,0.0,0.0,0.0,-0.17698063777990636,0.0,-0.6057602441488814,-0.4768074502972316,-0.8613935678404262,-0.2131482941535988,-1.3884372589530887,-0.1990759525247668
17758,7.0,300.85798,6737.4786,0.0,0.0,0.0,0.0,-0.17699060458949015,0.0,-0.6231500375326204,-0.5240799447026635,-0.9007952874565731,-0.22109965272333681,-1.4254279803537886,-0.2004214169350538
17759,7.0,300.49208,6467.2322,0.0,0.0,0.0,0.0,-0.17700057139907396,0.0,-0.5841810365041795,-0.5089906546109665,-0.8727054108968181,-0.23353851360095676,-1.4152283008721587,-0.2050428810386568
17760,7.0,300.28688,5877.9602,0.0,0.0,0.0,0.0,-0.1770105382086578,0.0,-0.5123496901499776,-0.48006062146579453,-0.7943428266505332,-0.2326175604525658,-1.4038645996756487,-0.1877123222557638
17761,7.0,300.24778,5908.7553,0.0,0.0,0.0,0.0,-0.17702050501824163,0.0,-0.5376837594852555,-0.4751882665049305,-0.7832420537224722,-0.2304729659534108,-1.3903659805184385,-0.2049282520548438
17762,7.0,300.63761,6662.2183,0.0,0.0,0.0,0.0,-0.17703047182782547,0.0,-0.6113001890706313,-0.5504189960171254,-0.8634288123887892,-0.2213977711677588,-1.4154127123903586,-0.18703560291147683
17763,7.0,300.95113,6690.5912,0.0,0.0,0.0,0.0,-0.17704043863740926,0.0,-0.6183199452334275,-0.5121782887630615,-0.903274426741245,-0.23698032154063678,-1.4140179736277088,-0.19806153718715183
17764,7.0,299.40272999999996,6159.5024,0.0,0.0,0.0,0.0,-0.1770504054469931,0.0,-0.5406637786918604,-0.5131845980998765,-0.8184865702983352,-0.20325217426942782,-1.4210979573764486,-0.17862019606094084
17765,7.0,298.28647,6104.0386,0.0,0.0,0.0,0.0,-0.1770603722565769,0.0,-0.5413968955367136,-0.4778622031213276,-0.8362162280306162,-0.25365307835860973,-1.4055811466700587,-0.20545600336942882
17766,7.0,299.25054,6590.9749,0.0,0.0,0.0,0.0,-0.17707033906616074,0.0,-0.6173316920133944,-0.5037452817582886,-0.8824148090525611,-0.24545102144912978,-1.4055284576648588,-0.16953514235181583
17767,7.0,299.11602999999997,6656.9624,0.0,0.0,0.0,0.0,-0.17708030587574455,0.0,-0.6257369663629304,-0.5284716746110936,-0.8693417144073472,-0.2832568113627707,-1.3945245615788586,-0.18613319223991584
17768,7.0,298.96965,6290.6711,0.0,0.0,0.0,0.0,-0.17709027268532837,0.0,-0.5959696643951264,-0.47898260441940255,-0.8372546675281021,-0.22602456496688778,-1.3996729866619686,-0.17863865747776284
17769,7.0,298.59552,5996.6004,0.0,0.0,0.0,0.0,-0.1771002394949122,0.0,-0.5372141079314046,-0.4826759618289086,-0.8029266964626952,-0.26285401748167175,-1.3926377885676486,-0.1815769409127488
17770,7.0,299.48349,6171.7142,0.0,0.0,0.0,0.0,-0.17711020630449603,0.0,-0.5591451666733315,-0.4951810791305676,-0.8217207632925252,-0.23806606968529176,-1.4240735689451185,-0.21541973743277282
17771,7.0,300.16535,6678.8438,0.0,0.0,0.0,0.0,-0.17712017311407982,0.0,-0.6246185003725464,-0.5178681237721046,-0.8877151304581622,-0.2416953086284698,-1.4059547319819288,-0.17847690223179885
17772,7.0,299.74863,6710.8653,0.0,0.0,0.0,0.0,-0.17713013992366364,0.0,-0.6095458883774955,-0.5325303998741585,-0.8978592129068051,-0.2119631259091318,-1.3858394883467087,-0.1970799308877748
17773,7.0,299.53775,6251.7084,0.0,0.0,0.0,0.0,-0.17714010673324745,0.0,-0.5658633086788605,-0.5045845466836175,-0.8299154032112732,-0.19875962597604782,-1.3631399503314385,-0.15891116439081085
17774,7.0,300.48405,6106.2146,0.0,0.0,0.0,0.0,-0.1771500735428313,0.0,-0.5326582315067745,-0.4930593232886665,-0.8304192114259952,-0.22615791881254876,-1.4163571628085687,-0.1981182893252528
17775,7.0,300.50881,6507.3391,0.0,0.0,0.0,0.0,-0.17716004035241512,0.0,-0.6074272128158984,-0.5187849935225924,-0.8518564120691822,-0.24866929628424875,-1.4014080761332088,-0.16415692227852682
17776,7.0,299.79828,6599.3288,0.0,0.0,0.0,0.0,-0.17717000716199893,0.0,-0.6114654096319374,-0.5162544723253495,-0.8783112677375732,-0.25516032841236375,-1.4202005217628786,-0.18400025011691082
17777,7.0,299.5325,6240.053000000001,0.0,0.0,0.0,0.0,-0.17717997397158278,0.0,-0.5763059047394644,-0.4965886253744815,-0.8239257576301412,-0.23263158383394977,-1.4142260951982488,-0.19617558490852283
17778,7.0,299.69551,6100.6218,0.0,0.0,0.0,0.0,-0.17718994078116657,0.0,-0.5446328009235725,-0.4790728748708115,-0.8307310188792683,-0.23612155155088277,-1.4303517678897286,-0.20685633527263078
17779,7.0,299.52161,6365.845,0.0,0.0,0.0,0.0,-0.17719990759075038,0.0,-0.5738924443262744,-0.5028692662518325,-0.8582962244047422,-0.22493260559911982,-1.4052609596384589,-0.17509952686597782
17780,7.0,298.66944,6485.6448,0.0,0.0,0.0,0.0,-0.17720987440033423,0.0,-0.5975225613658854,-0.5206294329446245,-0.8533220884713333,-0.2097073474765038,-1.3955559488556488,-0.2084254543774908
17781,7.0,299.26562,6523.0195,0.0,0.0,0.0,0.0,-0.17721984120991804,0.0,-0.6068605526974734,-0.5108615195956066,-0.8651129657775022,-0.1919925135931858,-1.3576095299606288,-0.1866148812049548
17782,7.0,300.10945,6266.306,0.0,0.0,0.0,0.0,-0.17722980801950186,0.0,-0.5835559219874854,-0.4985544217609906,-0.8226902004582012,-0.23290122995056178,-1.4164625408189686,-0.1995717357986968
17783,7.0,300.68253,5947.6653,0.0,0.0,0.0,0.0,-0.17723977482908568,0.0,-0.5194628983694966,-0.46740579646186053,-0.8210730330335991,-0.2531625943827028,-1.4017612951180685,-0.17959255138690483
17784,7.0,299.89078,6270.0097,0.0,0.0,0.0,0.0,-0.17724974163866952,0.0,-0.5493452143561515,-0.5052520758494976,-0.8513290964521402,-0.27653544722192375,-1.4038469691239088,-0.1867205327928818
17785,7.0,300.06723999999997,6596.31,0.0,0.0,0.0,0.0,-0.1772597084482533,0.0,-0.5903381925918435,-0.5072565682573256,-0.9075187591576281,-0.2527053348775748,-1.3940696122839586,-0.15336201915815284
17786,7.0,299.77024,6265.7171,0.0,0.0,0.0,0.0,-0.17726967525783713,0.0,-0.5683695321387054,-0.4891928217020725,-0.8470591896032331,-0.2291298218858528,-1.4224538886602687,-0.18949415295411684
17787,7.0,300.08507000000003,6104.6897,0.0,0.0,0.0,0.0,-0.17727964206742097,0.0,-0.5866989022076734,-0.4678663895598175,-0.8011079530631993,-0.22418062203740477,-1.4176769210638187,-0.16638351910827484
17788,7.0,299.54672,6467.8274,0.0,0.0,0.0,0.0,-0.1772896088770048,0.0,-0.6388240742570274,-0.4917525346346965,-0.8354814190580961,-0.2081609961013908,-1.4267838103125987,-0.18612422497653083
17789,7.0,299.63076,6812.3211,0.0,0.0,0.0,0.0,-0.1772995756865886,0.0,-0.6583546016570404,-0.5249723444632365,-0.8874485646218541,-0.2280798921322328,-1.384726433111859,-0.18639961622120982
17790,7.0,301.02409,6754.7416,0.0,0.0,0.0,0.0,-0.1773095424961724,0.0,-0.6229795987332994,-0.5302968622812254,-0.8999963194877211,-0.2147697172286208,-1.4082457917830384,-0.2050192115163208
17791,7.0,300.61894,6342.5416,0.0,0.0,0.0,0.0,-0.17731950930575624,0.0,-0.5627232466189604,-0.4983535145311625,-0.8668975119861232,-0.22989177582855178,-1.4045533057686186,-0.1911519517077288
17792,7.0,300.07585,6100.241999999999,0.0,0.0,0.0,0.0,-0.17732947611534006,0.0,-0.5422816959215365,-0.4825540374443756,-0.8294855217238472,-0.2329053133484648,-1.3948885210147788,-0.18815248823170483
17793,7.0,301.02527000000003,6269.0254,0.0,0.0,0.0,0.0,-0.17733944292492387,0.0,-0.5851438976767064,-0.49281617366216957,-0.8276671329618862,-0.24006626591269578,-1.3904437981261186,-0.1910144435366578
17794,7.0,301.2318,6540.3788,0.0,0.0,0.0,0.0,-0.1773494097345077,0.0,-0.5984070071131734,-0.5083185658196365,-0.8813862791410532,-0.23905462688035478,-1.4062460413856788,-0.1972987625118718
17795,7.0,300.56531,6260.868,0.0,0.0,0.0,0.0,-0.17735937654409153,0.0,-0.5571718317060784,-0.5103212647747875,-0.8356544517776733,-0.25130256104163173,-1.4172785111244988,-0.2028145718162398
17796,7.0,300.17144,5962.7893,0.0,0.0,0.0,0.0,-0.17736934335367535,0.0,-0.5207714500786405,-0.46799600451260953,-0.8237716118924282,-0.2168682088482258,-1.4399943624663787,-0.18393412541538484
17797,7.0,299.52983,6314.156,0.0,0.0,0.0,0.0,-0.1773793101632592,0.0,-0.5688787308439595,-0.4979944592257265,-0.8524725795874932,-0.2319897202931028,-1.3904176562735386,-0.2121613277611928
17798,7.0,299.43922000000003,6737.4485,0.0,0.0,0.0,0.0,-0.17738927697284296,0.0,-0.6323482611454144,-0.5093249258189565,-0.9063429128140811,-0.23234578651074378,-1.4114893066781486,-0.18746344776620183
17799,7.0,299.7758,6554.289000000001,0.0,0.0,0.0,0.0,-0.1773992437824268,0.0,-0.6129798233638984,-0.5141667515543075,-0.8651936204854622,-0.24465363415043376,-1.4164735852450587,-0.19394653601353282
17800,7.0,299.22673,6110.2375,0.0,0.0,0.0,0.0,-0.17740921059201062,0.0,-0.5537195163628614,-0.4689262390319166,-0.8347138922398473,-0.2378366901276538,-1.4129749339747686,-0.1937124043129258
17801,7.0,299.94964,6124.411,0.0,0.0,0.0,0.0,-0.17741917740159446,0.0,-0.5858937027507065,-0.44968356585281255,-0.8260907387213082,-0.2404683134198748,-1.4265575515652686,-0.1844299796168218
17802,7.0,301.02377,6432.8975,0.0,0.0,0.0,0.0,-0.17742914421117828,0.0,-0.5614808804063485,-0.5043542552008895,-0.8896050648096843,-0.2261302064223138,-1.4185229848973187,-0.2014653583805828
17803,7.0,301.53721,6365.8559,0.0,0.0,0.0,0.0,-0.1774391110207621,0.0,-0.5609093870849465,-0.5012088127829585,-0.8729430484427713,-0.23818646406217378,-1.4312632876796885,-0.2045835241058218
17804,7.0,300.6136,6146.3065,0.0,0.0,0.0,0.0,-0.17744907783034589,0.0,-0.5390928863993255,-0.4750941355706405,-0.8541366706242262,-0.1766793762893968,-1.4154742166714287,-0.17868134570447583
17805,7.0,300.52106000000003,6280.7034,0.0,0.0,0.0,0.0,-0.17745904463992973,0.0,-0.5936320356194205,-0.4920118152027855,-0.8235331434813932,-0.2292421406594378,-1.4129962122268687,-0.17914616405534983
17806,7.0,300.33165,6627.6183,0.0,0.0,0.0,0.0,-0.17746901144951355,0.0,-0.5976209884805995,-0.5386887414644396,-0.8783207517585092,-0.25272594438460877,-1.3948387704348686,-0.2055537718715778
17807,7.0,298.83448,6911.27,0.0,0.0,0.0,0.0,-0.1774789782590974,0.0,-0.6532906208372643,-0.5526759498198693,-0.8948869247984632,-0.28551091793273375,-1.3977801341501588,-0.17802879237507382
17808,7.0,300.0067,6673.7807,0.0,0.0,0.0,0.0,-0.17748894506868118,0.0,-0.5773426521092835,-0.5363904774551186,-0.9149295589315171,-0.23963125737976376,-1.3749438073713887,-0.21751747924730377
17809,7.0,300.60521,6214.3702,0.0,0.0,0.0,0.0,-0.17749891187826503,0.0,-0.5643056393001304,-0.4716660571698156,-0.8530416715061583,-0.22525759543619378,-1.4185495320499386,-0.1830469641578288
17810,7.0,299.80617,6180.5032,0.0,0.0,0.0,0.0,-0.17750887868784881,0.0,-0.5707803884991384,-0.46635303974046155,-0.8415852072629932,-0.22635088216159277,-1.4308125940352088,-0.21180125920565682
17811,7.0,300.46295,6447.159000000001,0.0,0.0,0.0,0.0,-0.17751884549743266,0.0,-0.6288333472110194,-0.4664655105015616,-0.8644765028596881,-0.2174119897793928,-1.4196393838574985,-0.17335543973384984
17812,7.0,300.24762000000004,6268.53,0.0,0.0,0.0,0.0,-0.17752881230701648,0.0,-0.5847032453407174,-0.4804737032665625,-0.8402996461986182,-0.2213535022708898,-1.4021828071596685,-0.19490067310269882
17813,7.0,299.59933,6149.9739,0.0,0.0,0.0,0.0,-0.1775387791166003,0.0,-0.5645897343631684,-0.47398810215898357,-0.8308606743620642,-0.2079203492026408,-1.4031976784598288,-0.18445835061962182
17814,7.0,299.6814,6340.3915,0.0,0.0,0.0,0.0,-0.1775487459261841,0.0,-0.5527583169204985,-0.5187044198746406,-0.8558579596291042,-0.23613987111269077,-1.4066365479742184,-0.2170770599588378
17815,7.0,298.50746000000004,6371.7068,0.0,0.0,0.0,0.0,-0.17755871273576795,0.0,-0.5688232047384796,-0.5123563776006375,-0.8556601833420852,-0.2237961746844628,-1.4110781297875685,-0.2081087731912368
17816,7.0,298.33709,6515.0537,0.0,0.0,0.0,0.0,-0.17756867954535177,0.0,-0.6174862835811514,-0.5058274600512834,-0.8570999104091752,-0.25071596016123876,-1.4057752853892185,-0.18683534416171282
17817,7.0,299.99352000000005,6553.983,0.0,0.0,0.0,0.0,-0.17757864635493562,0.0,-0.6148756953610064,-0.49897544744254246,-0.8783960261084381,-0.2580842540934328,-1.4272839505619588,-0.15373821865528084
17818,7.0,299.99683999999996,6028.4445,0.0,0.0,0.0,0.0,-0.17758861316451938,0.0,-0.5719801171475424,-0.4393184023648506,-0.8211980579634383,-0.2623603822979537,-1.4208261023746187,-0.16667718938475784
17819,7.0,300.12335,6058.4614,0.0,0.0,0.0,0.0,-0.17759857997410322,0.0,-0.5246949672483615,-0.46878168877265053,-0.8481443399303293,-0.22998821697306981,-1.3824722556143885,-0.17334149741247384
17820,7.0,300.63967,6534.6213,0.0,0.0,0.0,0.0,-0.17760854678368704,0.0,-0.5814199603791824,-0.5176747753880225,-0.8872669800714332,-0.2142676822015738,-1.3692375881082288,-0.20276883370672583
17821,7.0,299.86397,6563.6731,0.0,0.0,0.0,0.0,-0.17761851359327088,0.0,-0.6152694848798704,-0.5006197395723215,-0.8793035030304991,-0.21580581611837577,-1.4000352235727185,-0.2062731287800728
17822,7.0,300.11258,6250.8476,0.0,0.0,0.0,0.0,-0.1776284804028547,0.0,-0.5979803274960634,-0.47815747433296857,-0.8239637747738933,-0.1985898964517968,-1.4058641474229885,-0.2099449039624488
17823,7.0,299.43487999999996,6090.4807,0.0,0.0,0.0,0.0,-0.17763844721243852,0.0,-0.5899871824922014,-0.4582439282626546,-0.8031229427420632,-0.2101688221020478,-1.4160137723496786,-0.1922544894065408
17824,7.0,300.01566,6365.24,0.0,0.0,0.0,0.0,-0.1776484140220223,0.0,-0.5778001446619345,-0.5012267473097285,-0.8558471381180363,-0.23168131736016578,-1.3855708757451988,-0.18963984818599583
17825,7.0,300.07032000000004,6674.4546,0.0,0.0,0.0,0.0,-0.17765838083160615,0.0,-0.5936354300072554,-0.5266301432168485,-0.9086019640445321,-0.23914019585129978,-1.4153903195631488,-0.17226551699878284
17826,7.0,300.14124,6518.0281,0.0,0.0,0.0,0.0,-0.17766834764118997,0.0,-0.5684642102280495,-0.5229156595427575,-0.8899379073350331,-0.2354404245686608,-1.4041184188256985,-0.18025609847989182
17827,7.0,300.42759,6102.5091,0.0,0.0,0.0,0.0,-0.1776783144507738,0.0,-0.5751293896508515,-0.46202490140830754,-0.8178560855561112,-0.2205882653978668,-1.4113819021675487,-0.17034177049142382
17828,7.0,301.20581,6091.0133,0.0,0.0,0.0,0.0,-0.1776882812603576,0.0,-0.5536394898699635,-0.47666741913341154,-0.8212090415945222,-0.21895736843440983,-1.4051081615233787,-0.17001516958669086
17829,7.0,300.5405,6427.6495,0.0,0.0,0.0,0.0,-0.17769824806994144,0.0,-0.6330032158775534,-0.48142852936579655,-0.8394132043486332,-0.24551355924530177,-1.4281679099491986,-0.15810770772401583
17830,7.0,300.11455,6713.0904,0.0,0.0,0.0,0.0,-0.17770821487952526,0.0,-0.6221658373129874,-0.5283472677638155,-0.8900987607884081,-0.25907812071901976,-1.3967966736030986,-0.17207263470974685
17831,7.0,300.11387,6370.5484,0.0,0.0,0.0,0.0,-0.17771818168910908,0.0,-0.5627043089745914,-0.5237560289106955,-0.8500273233861652,-0.23880606649832375,-1.3956562606155487,-0.1991005035746898
17832,7.0,299.60202000000004,6154.227,0.0,0.0,0.0,0.0,-0.1777281484986929,0.0,-0.5073851496950155,-0.5352784557353705,-0.8280677416539232,-0.2460588701841198,-1.3649061465807488,-0.2134218311505948
17833,7.0,299.57479,6443.0709,0.0,0.0,0.0,0.0,-0.1777381153082767,0.0,-0.5998223655153584,-0.5088507855671626,-0.8498595089046032,-0.2539620385791017,-1.4183822444584286,-0.2161878722010818
17834,7.0,299.38221,6541.5101,0.0,0.0,0.0,0.0,-0.17774808211786053,0.0,-0.6205815802516335,-0.48861612027515655,-0.8792580283660111,-0.2321533297867498,-1.4084082157740685,-0.1907406836246398
17835,7.0,299.87201,6214.8402,0.0,0.0,0.0,0.0,-0.17775804892744437,0.0,-0.6097140777615944,-0.4650636181932056,-0.8143785402854042,-0.2197877775538648,-1.4295009417807587,-0.1817180663866768
17836,7.0,300.51023,6048.2348,0.0,0.0,0.0,0.0,-0.1777680157370282,0.0,-0.5445911462119615,-0.45484727074743053,-0.8390739276851491,-0.1989000421749058,-1.4124327438462587,-0.16246333553138284
17837,7.0,300.39665,6241.2188,0.0,0.0,0.0,0.0,-0.17777798254661203,0.0,-0.5321328511974235,-0.5019967768557245,-0.8630450337809131,-0.24530159745688274,-1.4273906457974885,-0.1849624020143678
17838,7.0,299.68437,6612.4177,0.0,0.0,0.0,0.0,-0.1777879493561958,0.0,-0.5812339073958204,-0.5283815054846945,-0.900394455849514,-0.26356843986217976,-1.3959749277719988,-0.1989770491825058
17839,7.0,300.50542,6878.8434,0.0,0.0,0.0,0.0,-0.17779791616577964,0.0,-0.6300052013491724,-0.5541600268438365,-0.9068314209522932,-0.25469971504940475,-1.4120839831618386,-0.1904367896546478
17840,7.0,299.82049,6498.4742,0.0,0.0,0.0,0.0,-0.17780788297536346,0.0,-0.5996204349029295,-0.5236221380424815,-0.8521313270863141,-0.2593647894373118,-1.3816119049544786,-0.2049397220459758
17841,7.0,298.93077,6080.3736,0.0,0.0,0.0,0.0,-0.1778178497849473,0.0,-0.5622170775315054,-0.46693293290519255,-0.8191317370345083,-0.23700404172547776,-1.4302958364842087,-0.1949247580575758
17842,7.0,299.49376,6309.2778,0.0,0.0,0.0,0.0,-0.17782781659453112,0.0,-0.6069684131706183,-0.48437260859135456,-0.8265218766388582,-0.22829296849576178,-1.4103138352371387,-0.2250268175934178
17843,7.0,299.6453,6444.5626,0.0,0.0,0.0,0.0,-0.17783778340411494,0.0,-0.6062725940619464,-0.4725856626955735,-0.8801278630468571,-0.18747884916772184,-1.3895200180099487,-0.2001418004374578
17844,7.0,299.46213,6209.1676,0.0,0.0,0.0,0.0,-0.17784775021369872,0.0,-0.5885650353143465,-0.4814408606195135,-0.8174260115511662,-0.2016026031066278,-1.3922211401265288,-0.2105608485657378
17845,7.0,300.21716000000004,6177.0678,0.0,0.0,0.0,0.0,-0.17785771702328257,0.0,-0.5562781755153815,-0.4763195501090795,-0.8450766441925712,-0.20784905692560482,-1.4282357977058986,-0.1972473299367958
17846,7.0,299.81525,6375.2976,0.0,0.0,0.0,0.0,-0.17786768383286639,0.0,-0.6157985838170884,-0.4744094723455695,-0.8477232027912662,-0.26831191954282474,-1.4086339678963486,-0.18062829563912483
17847,7.0,300.09101,6681.4493,0.0,0.0,0.0,0.0,-0.17787765064245023,0.0,-0.6100198259792694,-0.5173566249891235,-0.9036173004425841,-0.24711237671059275,-1.4201576612836486,-0.17573465229365984
17848,7.0,301.3788,6807.1903,0.0,0.0,0.0,0.0,-0.17788761745203402,0.0,-0.6188687924150944,-0.5284516325241155,-0.921895450718997,-0.27878435581887373,-1.4159202493654486,-0.16140688044711884
17849,7.0,300.49107999999995,6521.9067,0.0,0.0,0.0,0.0,-0.17789758426161786,0.0,-0.5353233933773055,-0.5333852891160294,-0.913788092163863,-0.23755086240694478,-1.4548472917072486,-0.19055946384425482
17850,7.0,300.12904,6202.9954,0.0,0.0,0.0,0.0,-0.17790755107120168,0.0,-0.5455008826817455,-0.49593804788277457,-0.8441167923728412,-0.23361687836369077,-1.4437129903333785,-0.1933725500968848
17851,7.0,300.44847000000004,6283.6788,0.0,0.0,0.0,0.0,-0.17791751788078553,0.0,-0.5488774575799875,-0.47985853886585056,-0.8813454451620232,-0.2031999817567768,-1.4113773425420986,-0.2109238656790648
17852,7.0,298.90485,6362.7716,0.0,0.0,0.0,0.0,-0.17792748469036931,0.0,-0.6023245663723065,-0.4986011832531055,-0.8331979485002352,-0.23115893627111078,-1.4092622842833589,-0.1973964904840168
17853,7.0,298.23752,6252.5109999999995,0.0,0.0,0.0,0.0,-0.17793745149995313,0.0,-0.5683565524049244,-0.4820455176166885,-0.8502051690437172,-0.2230812659439068,-1.4264293754276185,-0.20058933274162583
17854,7.0,300.25723999999997,6054.8229,0.0,0.0,0.0,0.0,-0.17794741830953695,0.0,-0.5591154683129005,-0.4647175527540516,-0.8166819414727322,-0.2278447066515218,-1.4038026900945386,-0.2089376219055378
17855,7.0,299.95788999999996,6187.693,0.0,0.0,0.0,0.0,-0.1779573851191208,0.0,-0.5591167044780225,-0.48966841090150953,-0.8321190701912581,-0.20955393127886282,-1.3946023791865385,-0.2167565993497108
17856,7.0,300.06302,6613.8961,0.0,0.0,0.0,0.0,-0.1779673519287046,0.0,-0.6042320603480614,-0.4968264757029556,-0.9094007192308632,-0.26001831548680976,-1.4044830875366887,-0.1953018289497898
17857,7.0,301.24357000000003,6798.2756,0.0,0.0,0.0,0.0,-0.17797731873828845,0.0,-0.6380896604520464,-0.5377298826298075,-0.8906864863764121,-0.2427228151573768,-1.4204655879890384,-0.19259081751223384
17858,7.0,300.12492000000003,6441.0891,0.0,0.0,0.0,0.0,-0.17798728554787221,0.0,-0.5877601296999084,-0.4971780228251505,-0.8729920897476112,-0.24343445110010978,-1.4189011298346386,-0.17168179374867384
17859,7.0,300.25863,6309.3258,0.0,0.0,0.0,0.0,-0.17799725235745606,0.0,-0.5953691921208645,-0.4634627134327086,-0.8590455937811993,-0.20323482742771581,-1.4008385282519988,-0.16597349732280883
17860,7.0,300.85143,6558.3747,0.0,0.0,0.0,0.0,-0.17800721916703988,0.0,-0.5784440043054784,-0.5259759078922805,-0.8891622441184812,-0.2218192021493508,-1.4108058694856986,-0.17242121300914884
17861,7.0,298.91492999999997,6541.2319,0.0,0.0,0.0,0.0,-0.17801718597662372,0.0,-0.5893625847330585,-0.5106110543033876,-0.8883975341355103,-0.2181525945424848,-1.4351093824092687,-0.1932957457393048
17862,7.0,298.76878,6463.0188,0.0,0.0,0.0,0.0,-0.17802715278620754,0.0,-0.5749810194387085,-0.5108128531933035,-0.8788024508560491,-0.24001960574559075,-1.4042894554425787,-0.19473194669604682
17863,7.0,300.09743,6170.1062,0.0,0.0,0.0,0.0,-0.17803711959579135,0.0,-0.5667856094498845,-0.4894319892556765,-0.8193406084101222,-0.2133809667740618,-1.4007685126700884,-0.2145436206013068
17864,7.0,299.02491000000003,6114.7448,0.0,0.0,0.0,0.0,-0.17804708640537514,0.0,-0.5622503931947935,-0.44853905933485855,-0.8479402713601892,-0.24731852244343777,-1.3964286611667787,-0.15874068506148584
17865,7.0,299.11647,6592.5381,0.0,0.0,0.0,0.0,-0.178057053214959,0.0,-0.6183854315873903,-0.5229805886091654,-0.8626009363945842,-0.23846758016991776,-1.4084664776548186,-0.20620065100041982
17866,7.0,299.86792,6599.3087,0.0,0.0,0.0,0.0,-0.1780670200245428,0.0,-0.5866539037707325,-0.5231302659139375,-0.8962408903770892,-0.2225228030187908,-1.3959931662737985,-0.15983085097657684
17867,7.0,300.57523,6227.2092,0.0,0.0,0.0,0.0,-0.17807698683412665,0.0,-0.5731991076803475,-0.4849191455627936,-0.8347978400106322,-0.19905553553525182,-1.4042603751647087,-0.2190247698310618
17868,7.0,300.64102,6333.2995,0.0,0.0,0.0,0.0,-0.17808695364371044,0.0,-0.5421333054443914,-0.5216696253647835,-0.8613619949673103,-0.2183807784650048,-1.4426162484251386,-0.19200820883723482
17869,7.0,300.09654,6471.2502,0.0,0.0,0.0,0.0,-0.17809692045329428,0.0,-0.6105091953800664,-0.49943134919253657,-0.8571579392424021,-0.25354261383270776,-1.4489694278771486,-0.20332144004626382
17870,7.0,299.76055,6617.0392,0.0,0.0,0.0,0.0,-0.1781068872628781,0.0,-0.5981245129852935,-0.5353861236909965,-0.8779040425223832,-0.25278607064554276,-1.4248489079216384,-0.1806583891670948
17871,7.0,300.2282,6377.6164,0.0,0.0,0.0,0.0,-0.17811685407246194,0.0,-0.5830188183744774,-0.5120402131719346,-0.8435770948395772,-0.25799812783493276,-1.3985451379756588,-0.18093205788660383
17872,7.0,300.45129,6118.5637,0.0,0.0,0.0,0.0,-0.17812682088204573,0.0,-0.5399610492175064,-0.4725574132827855,-0.8473721420291193,-0.23450684632402377,-1.4139157366926185,-0.1768240076086708
17873,7.0,301.14489,6230.7203,0.0,0.0,0.0,0.0,-0.17813678769162955,0.0,-0.5862514914935175,-0.4851863598791655,-0.8225455184764222,-0.23403673880762776,-1.4045621210444885,-0.2018988571708658
17874,7.0,300.1899,6559.2023,0.0,0.0,0.0,0.0,-0.17814675450121337,0.0,-0.6272653528137704,-0.4992380920009636,-0.8673302812363342,-0.2059888209345138,-1.4067034224808186,-0.2111035757168008
17875,7.0,299.77171,6508.6255,0.0,0.0,0.0,0.0,-0.1781567213107972,0.0,-0.6201438663409344,-0.4974616517931425,-0.8608541033546852,-0.2051195638062248,-1.3990261277981286,-0.17967174701472083
17876,7.0,298.74244,6326.8496,0.0,0.0,0.0,0.0,-0.17816668812038103,0.0,-0.5933144425080764,-0.4932380099438015,-0.8366518445136082,-0.19045938513187782,-1.4306623290453786,-0.20253621174876782
17877,7.0,299.31162,6387.9219,0.0,0.0,0.0,0.0,-0.17817665492996482,0.0,-0.5914212657562344,-0.4899144989532966,-0.8604329966131251,-0.2178577286308838,-1.4178497815308786,-0.16543609986727184
17878,7.0,300.24268,6584.2451,0.0,0.0,0.0,0.0,-0.17818662173954863,0.0,-0.6225234234057784,-0.5208955934808924,-0.8580270849131802,-0.21875661319209677,-1.4116083635648986,-0.18675447667123182
17879,7.0,301.13816,6616.1919,0.0,0.0,0.0,0.0,-0.17819658854913248,0.0,-0.5952080549574614,-0.5220799308602775,-0.8938691353380153,-0.24232439508555578,-1.4078666335956187,-0.15895477467511485
17880,7.0,300.23287,6454.9665,0.0,0.0,0.0,0.0,-0.1782065553587163,0.0,-0.6046867968604405,-0.4929117636766035,-0.8645500850819503,-0.24440270276316875,-1.4436334502005286,-0.1919073499222808
17881,7.0,299.98575,6451.3483,0.0,0.0,0.0,0.0,-0.1782165221683001,0.0,-0.5632738872533045,-0.5154133227548345,-0.8823616032898103,-0.2556394335896478,-1.4038517313993786,-0.17555852916127784
17882,7.0,300.9305,6384.9963,0.0,0.0,0.0,0.0,-0.17822648897788396,0.0,-0.5918436289279184,-0.4920724987512745,-0.8569633242956952,-0.26769582295202077,-1.372388086644159,-0.1995715534136788
17883,7.0,300.54533,6457.4715,0.0,0.0,0.0,0.0,-0.17823645578746777,0.0,-0.5632545341763945,-0.5208867883375236,-0.8787687704227252,-0.24701574304855575,-1.370907221623009,-0.17892749455126883
17884,7.0,299.90129,6232.3379,0.0,0.0,0.0,0.0,-0.17824642259705156,0.0,-0.5663048526749375,-0.4856430620967385,-0.8425271752184582,-0.23711908614183178,-1.4057739681640886,-0.2096186880927538
17885,7.0,299.3542,6332.5096,0.0,0.0,0.0,0.0,-0.1782563894066354,0.0,-0.5863903979497265,-0.49535170031490655,-0.8431827075031543,-0.2055616853548588,-1.4090446381618786,-0.20190092420106984
17886,7.0,300.75208,6455.7765,0.0,0.0,0.0,0.0,-0.17826635621621922,0.0,-0.5990612525702425,-0.5072332128425204,-0.85610038984803,-0.21201184297393977,-1.4393878309565187,-0.21748129608623282
17887,7.0,300.86818999999997,6516.1301,0.0,0.0,0.0,0.0,-0.17827632302580304,0.0,-0.6135640937690614,-0.5052559667298815,-0.8619207922649591,-0.21906086179962378,-1.4439847440101987,-0.1692466092533398
17888,7.0,299.90956,6427.2635,0.0,0.0,0.0,0.0,-0.17828628983538686,0.0,-0.5833249414946895,-0.5053306027322475,-0.8650720710034662,-0.2347230333653598,-1.4652202369559786,-0.19123250509067882
17889,7.0,299.78006,6355.3318,0.0,0.0,0.0,0.0,-0.1782962566449707,0.0,-0.5755043631153585,-0.49052973428151553,-0.8658280873005793,-0.25299622884878376,-1.3814974076931787,-0.14977631957177187
17890,7.0,299.91722000000004,6364.7166,0.0,0.0,0.0,0.0,-0.17830622345455452,0.0,-0.5761341284500114,-0.49836479200477557,-0.8602159989717092,-0.24569201285291378,-1.3998620591306288,-0.1999158355326568
17891,7.0,299.4946,6433.1914,0.0,0.0,0.0,0.0,-0.1783161902641383,0.0,-0.5984319330656335,-0.48993379123520053,-0.8671638346424071,-0.24596929887527974,-1.3891366041721087,-0.16566882315023984
17892,7.0,299.97942,6507.2667,0.0,0.0,0.0,0.0,-0.17832615707372215,0.0,-0.5913231831465544,-0.5155393305372705,-0.8711840766666741,-0.24180929926471978,-1.4157181059704986,-0.23077682952589978
17893,7.0,300.31311,6385.4054,0.0,0.0,0.0,0.0,-0.17833612388330597,0.0,-0.5979097951566024,-0.4818661318189846,-0.8612278811840741,-0.22239244839342578,-1.3983217163286088,-0.2023623278991068
17894,7.0,300.90004,6349.3322,0.0,0.0,0.0,0.0,-0.17834609069288979,0.0,-0.5740227280241325,-0.48987780916717555,-0.8661379189161571,-0.23658603552922378,-1.4299049245956286,-0.2231897444996128
17895,7.0,301.0948,6469.9014,0.0,0.0,0.0,0.0,-0.1783560575024736,0.0,-0.6079665861091303,-0.5163936016965804,-0.8423282843563292,-0.22564654161957978,-1.3957774453275087,-0.2029555757001558
17896,7.0,300.40447,6480.9252,0.0,0.0,0.0,0.0,-0.17836602431205745,0.0,-0.5945855647585264,-0.5124845942682915,-0.8629692832034372,-0.23036484203523977,-1.4123242247605488,-0.18831279453002583
17897,7.0,300.31165,6450.2514,0.0,0.0,0.0,0.0,-0.17837599112164124,0.0,-0.5941405047846025,-0.5110833909700035,-0.8554914772004353,-0.2324559875916198,-1.3832991690209988,-0.21181466450447978
17898,7.0,300.39227,6472.9987,0.0,0.0,0.0,0.0,-0.17838595793122505,0.0,-0.5756623490709504,-0.5067402160063655,-0.8852274190776441,-0.2228622215372888,-1.4206802956852287,-0.16472594326968484
17899,7.0,300.51529,6438.1821,0.0,0.0,0.0,0.0,-0.17839592474080887,0.0,-0.5771895094891694,-0.5058040337089715,-0.8740530436623192,-0.22769724836446878,-1.4235870062470986,-0.20762397354839082
17900,7.0,299.48381,6509.1604,0.0,0.0,0.0,0.0,-0.17840589155039271,0.0,-0.5841380443024364,-0.5043604866890045,-0.8901237070058702,-0.2282304914945958,-1.4153435074085288,-0.16156523117274685
17901,7.0,299.45299,6462.1018,0.0,0.0,0.0,0.0,-0.17841585835997653,0.0,-0.6052928622752544,-0.49825860339429556,-0.8607661025835002,-0.24301651583136277,-1.4180945827550386,-0.2136212286377738
17902,7.0,299.18966,6254.4046,0.0,0.0,0.0,0.0,-0.17842582516956038,0.0,-0.5595795875212055,-0.46399746630548455,-0.877605761957945,-0.23044705714835378,-1.4283853534206588,-0.17275037743663485
17903,7.0,299.66667,6184.7219,0.0,0.0,0.0,0.0,-0.1784357919791442,0.0,-0.5625024492896694,-0.47720151339362255,-0.8402970725433642,-0.26101968016313676,-1.4279288842506088,-0.1998059688243138
17904,7.0,299.25917000000004,6296.3501,0.0,0.0,0.0,0.0,-0.17844575878872798,0.0,-0.5811837211183675,-0.47151645079255056,-0.8612330386270831,-0.22487802181623281,-1.4345050800496286,-0.1923926865876798
17905,7.0,299.96911,6375.4227,0.0,0.0,0.0,0.0,-0.1784557255983118,0.0,-0.5952950830085504,-0.49273244880640654,-0.8499417746802223,-0.27240647332942575,-1.3945039926018288,-0.2001578604515428
17906,7.0,300.64961,6378.999,0.0,0.0,0.0,0.0,-0.17846569240789564,0.0,-0.5936097441172205,-0.5137184694450655,-0.8317282089651833,-0.2270681416423808,-1.4159253156159486,-0.19729332135883482
17907,7.0,302.06748999999996,6318.5769,0.0,0.0,0.0,0.0,-0.17847565921747946,0.0,-0.6082181558439584,-0.49010861740745454,-0.8223628193508913,-0.25400277123312176,-1.3988099002267884,-0.16926746194039785
17908,7.0,301.13749,6618.1008,0.0,0.0,0.0,0.0,-0.17848562602706328,0.0,-0.6128630462898734,-0.5366863971468234,-0.8621879356538241,-0.2154129385246018,-1.4139369136197089,-0.2011142368234298
17909,7.0,300.99832999999995,6771.8259,0.0,0.0,0.0,0.0,-0.1784955928366471,0.0,-0.6504040638198834,-0.5115353511771085,-0.896526566110283,-0.23113891444913479,-1.4184903582440986,-0.1786311492945218
17910,7.0,299.77905,6593.6754,0.0,0.0,0.0,0.0,-0.17850555964623094,0.0,-0.5930612009105835,-0.5137709051377405,-0.8974805613444352,-0.21280990915020281,-1.4483334107893786,-0.20297260843433682
17911,7.0,299.88358,6221.693,0.0,0.0,0.0,0.0,-0.17851552645581473,0.0,-0.5687977316309655,-0.47561552367459753,-0.8468260610202252,-0.2332021550977608,-1.4350750332308786,-0.18644839408102382
17912,7.0,299.70192000000003,6007.1814,0.0,0.0,0.0,0.0,-0.17852549326539857,0.0,-0.5284191983884146,-0.4562174584601576,-0.8413964691668662,-0.21250865976297179,-1.4397088285881987,-0.20723559478506082
17913,7.0,300.43942000000004,6176.353,0.0,0.0,0.0,0.0,-0.17853546007498236,0.0,-0.5585274488823674,-0.4822267779270776,-0.8367028616561433,-0.23945008826188377,-1.4091360333208987,-0.20539636346854281
17914,7.0,300.12127000000004,6380.6685,0.0,0.0,0.0,0.0,-0.1785454268845662,0.0,-0.5756098728482715,-0.4950338944210415,-0.8689201314382402,-0.22715479479093278,-1.4165765314552186,-0.2085283499251458
17915,7.0,299.75256,6324.5453,0.0,0.0,0.0,0.0,-0.17855539369415002,0.0,-0.5793865700785025,-0.47888319445209154,-0.8642340726407622,-0.24261683932941777,-1.4171979577415488,-0.1914753000796408
17916,7.0,299.49237999999997,6253.5252,0.0,0.0,0.0,0.0,-0.17856536050373387,0.0,-0.5665865463352385,-0.49710405556785053,-0.8372249083726653,-0.22884646649538776,-1.4161784254909286,-0.2155499198056208
17917,7.0,299.62339,6728.0727,0.0,0.0,0.0,0.0,-0.17857532731331766,0.0,-0.6307634366640044,-0.5458470393134085,-0.8685556349797672,-0.23071973288276476,-1.4180760402782089,-0.1942067589042148
17918,7.0,299.48708999999997,6763.2438,0.0,0.0,0.0,0.0,-0.17858529412290147,0.0,-0.6502661402162714,-0.5200496107074005,-0.8855414962111412,-0.23996440388014276,-1.3994203834120387,-0.18833629179984482
17919,7.0,299.2823,6526.6928,0.0,0.0,0.0,0.0,-0.1785952609324853,0.0,-0.6040090541335524,-0.5297462216468815,-0.8501963740328492,-0.24816611628458876,-1.4107129544515287,-0.16633446767093385
17920,7.0,299.19715,6128.5103,0.0,0.0,0.0,0.0,-0.17860522774206913,0.0,-0.5652858777118724,-0.45835687525130153,-0.8392713594671342,-0.2433539585121658,-1.4153994388140487,-0.17582534831011082
17921,7.0,299.94175,6186.1547,0.0,0.0,0.0,0.0,-0.17861519455165295,0.0,-0.5491275378371685,-0.4820881247833935,-0.8492208978965773,-0.23645001683579978,-1.4267151119558186,-0.17850191937676782
17922,7.0,300.26294,6252.0005,0.0,0.0,0.0,0.0,-0.1786251613612368,0.0,-0.5685016396867435,-0.4653750912739455,-0.8665753288518261,-0.2313686283793058,-1.4263924931239786,-0.2089307824673628
17923,7.0,300.26433,6426.3361,0.0,0.0,0.0,0.0,-0.17863512817082056,0.0,-0.5879048116816875,-0.4897375044258286,-0.8758033926800652,-0.22652777536405078,-1.4099106630223488,-0.17902510093340185
17924,7.0,299.58489,6374.9031,0.0,0.0,0.0,0.0,-0.1786450949804044,0.0,-0.5607242358941735,-0.5209806659592885,-0.8561064693486302,-0.25260809326547773,-1.4308014482841087,-0.22364536253957878
17925,7.0,300.96148999999997,6421.7224,0.0,0.0,0.0,0.0,-0.17865506178998822,0.0,-0.5845613497967135,-0.5196842428538415,-0.8477976564086143,-0.2168241324688758,-1.4170317847251486,-0.1951435694166708
17926,7.0,300.72659,6598.9789,0.0,0.0,0.0,0.0,-0.17866502859957206,0.0,-0.6082955681515984,-0.5267225110959645,-0.8709067501143042,-0.24633310632368477,-1.4195425171479386,-0.17449615669642982
17927,7.0,300.06362,6727.6122,0.0,0.0,0.0,0.0,-0.17867499540915588,0.0,-0.6273537082224904,-0.5334490529448225,-0.8842233490235503,-0.18863760198208182,-1.3883387710433686,-0.18650868246197383
17928,7.0,299.28937,6647.9452,0.0,0.0,0.0,0.0,-0.1786849622187397,0.0,-0.6066141910681594,-0.5188993793263815,-0.895295781346314,-0.2313068302557068,-1.3888318185420288,-0.16999452968215384
17929,7.0,299.53384,6363.6177,0.0,0.0,0.0,0.0,-0.1786949290283235,0.0,-0.5893304545723874,-0.5060536884011105,-0.8389967281600302,-0.2002601581816388,-1.4019456053112587,-0.22841765905306777
17930,7.0,299.17852999999997,6410.8916,0.0,0.0,0.0,0.0,-0.17870489583790736,0.0,-0.5919577006241764,-0.5026223270699615,-0.8541709387426081,-0.24036396892457676,-1.4081872259272588,-0.16753926256983784
17931,7.0,299.03861,6401.3553,0.0,0.0,0.0,0.0,-0.17871486264749115,0.0,-0.5968390937759325,-0.4607107058961066,-0.8883023595536172,-0.2422671971174108,-1.4143657210620288,-0.19138145285537883
17932,7.0,299.08095,6468.9962,0.0,0.0,0.0,0.0,-0.178724829457075,0.0,-0.5803091342945524,-0.5012303443475835,-0.8848738454552492,-0.24739080770557179,-1.4224468972345787,-0.15506943676916185
17933,7.0,299.89536,6335.3224,0.0,0.0,0.0,0.0,-0.17873479626665878,0.0,-0.5545912255563925,-0.49114789790252356,-0.8800406830082531,-0.25125412768685174,-1.4313191177601987,-0.22693375428161777
17934,7.0,299.99813,6335.9594,0.0,0.0,0.0,0.0,-0.17874476307624262,0.0,-0.5488335331881525,-0.4982806213189685,-0.8788593043191602,-0.24447736916303778,-1.4122208732503487,-0.16196181726188683
17935,7.0,299.22891,6636.2919,0.0,0.0,0.0,0.0,-0.17875472988582644,0.0,-0.6022537199253144,-0.5448215694172025,-0.8701917299162371,-0.2273066708484218,-1.4125021514781089,-0.2148738084113938
17936,7.0,299.52342000000004,6878.1855,0.0,0.0,0.0,0.0,-0.17876469669541029,0.0,-0.6327524364778033,-0.5316227203020775,-0.9264214869281822,-0.21419222546662678,-1.3820978597024385,-0.16235830202601684
17937,7.0,300.51299,6646.1125,0.0,0.0,0.0,0.0,-0.1787746635049941,0.0,-0.6323749704180504,-0.5318052370425905,-0.8560720593752341,-0.2154628005620228,-1.4268013395393286,-0.2125770541447218
17938,7.0,300.38255,6211.7328,0.0,0.0,0.0,0.0,-0.1787846303145779,0.0,-0.5628005778665925,-0.47020965200607956,-0.8552014444918112,-0.21662253622897976,-1.4146055573606986,-0.15347795523459484
17939,7.0,300.68166,6159.269,0.0,0.0,0.0,0.0,-0.1787945971241617,0.0,-0.5909900771761795,-0.4622531461258336,-0.8190207456185542,-0.2144725715042948,-1.4403982439562386,-0.16622609044023784
17940,7.0,299.88037,6399.2384,0.0,0.0,0.0,0.0,-0.17880456393374555,0.0,-0.5651252978360245,-0.5086909250988856,-0.8713924718147412,-0.21931273550948177,-1.4063496968709086,-0.17818089134758483
17941,7.0,299.48295,6518.379,0.0,0.0,0.0,0.0,-0.17881453074332937,0.0,-0.6234372736709684,-0.4959607649500165,-0.8620264235878843,-0.2546476441267657,-1.4150443959790089,-0.2148155870606478
17942,7.0,298.84825,6405.5832,0.0,0.0,0.0,0.0,-0.17882449755291321,0.0,-0.5675962703248905,-0.5274896224816725,-0.8520514627134322,-0.27471097895936275,-1.3962707968011987,-0.2192156357523988
17943,7.0,299.06299,6110.7718,0.0,0.0,0.0,0.0,-0.17883446436249698,0.0,-0.5766265679986115,-0.46301615384863654,-0.8178793193809043,-0.27809121169046574,-1.4025552778964288,-0.2096331167741778
17944,7.0,299.32649,6364.1139,0.0,0.0,0.0,0.0,-0.17884443117208082,0.0,-0.5756826546029544,-0.5025094104788176,-0.8563396384616422,-0.23466248153938377,-1.4029036332808087,-0.1985699252923258
17945,7.0,300.13402,6737.2589,0.0,0.0,0.0,0.0,-0.17885439798166464,0.0,-0.6449526668243724,-0.5098570442414725,-0.8931487651794202,-0.2166951052011418,-1.4442085709572885,-0.20175650566431683
17946,7.0,300.28112999999996,6596.7543,0.0,0.0,0.0,0.0,-0.17886436479124848,0.0,-0.6041598460134344,-0.5202380853585015,-0.8808506650056921,-0.2212646908996248,-1.4146157911867088,-0.19266683153473582
17947,7.0,300.04026,6260.366,0.0,0.0,0.0,0.0,-0.1788743316008323,0.0,-0.5609018282392005,-0.49219087676045753,-0.8499022477938212,-0.2061471209976368,-1.4294927344549486,-0.18362495241237184
17948,7.0,300.04559,6380.2323,0.0,0.0,0.0,0.0,-0.17888429841041611,0.0,-0.5824337069717315,-0.5070591466078416,-0.8499384512198942,-0.20002369600580183,-1.3889063937493886,-0.17784086487902684
17949,7.0,299.98179,6716.8121,0.0,0.0,0.0,0.0,-0.17889426521999993,0.0,-0.6109311431192094,-0.5122722170473315,-0.9185397893028191,-0.2134093985718678,-1.4068712166973787,-0.17774340035190783
17950,7.0,299.66174,6589.0083,0.0,0.0,0.0,0.0,-0.17890423202958378,0.0,-0.6051548272141314,-0.5132009215589876,-0.8845382468896282,-0.24023334072168478,-1.4107204525022685,-0.1872121313438988
17951,7.0,299.67491,6233.3002,0.0,0.0,0.0,0.0,-0.17891419883916757,0.0,-0.5562544046680354,-0.4715932247526276,-0.8669199960058422,-0.23209350750084579,-1.4298369355139187,-0.17141498473234185
17952,7.0,300.91291,6210.4703,0.0,0.0,0.0,0.0,-0.1789241656487514,0.0,-0.5602328703906795,-0.4971820960905525,-0.8304129394078763,-0.24095353862776278,-1.4172884409754787,-0.2225497656039518
17953,7.0,300.77005,6524.1303,0.0,0.0,0.0,0.0,-0.1789341324583352,0.0,-0.5647871256151495,-0.5307617616921074,-0.8876237960941481,-0.2202168180437078,-1.4325292423546285,-0.19400709797200982
17954,7.0,300.28655,6449.6149,0.0,0.0,0.0,0.0,-0.17894409926791904,0.0,-0.5975445995555604,-0.4921531331942326,-0.8708241499661521,-0.24552805885423276,-1.4047595021639685,-0.21811678628395081
17955,7.0,300.01767,6301.9715,0.0,0.0,0.0,0.0,-0.17895406607750286,0.0,-0.5480571505640295,-0.4993355159980785,-0.8682493193420362,-0.20546242737506282,-1.420735821790709,-0.16222552573291285
17956,7.0,300.00266,6128.1296,0.0,0.0,0.0,0.0,-0.1789640328870867,0.0,-0.5796504609345464,-0.44861104062196255,-0.8345368774473773,-0.23488904426174376,-1.4074948721339287,-0.19974911536120282
17957,7.0,299.17581,6571.6324,0.0,0.0,0.0,0.0,-0.17897399969667052,0.0,-0.6137466206420754,-0.4856337604608205,-0.8982317748360742,-0.2048848748180628,-1.4292889698598386,-0.15412447972590188
17958,7.0,298.89507000000003,6832.4236,0.0,0.0,0.0,0.0,-0.1789839665062543,0.0,-0.6487784458894474,-0.5283247837440965,-0.8997829391491622,-0.21708203501682877,-1.4159622992445986,-0.21608528062845678
17959,7.0,299.82787,6512.2875,0.0,0.0,0.0,0.0,-0.17899393331583813,0.0,-0.5839257886714885,-0.48759453112683354,-0.9080524683828011,-0.19569280163337582,-1.3996179671815385,-0.15810880203412384
17960,7.0,300.06691,6145.6786,0.0,0.0,0.0,0.0,-0.17900390012542197,0.0,-0.5648025776791744,-0.4866595748620606,-0.8166706842641211,-0.23103402279878277,-1.4023043971716687,-0.21674173497074378
17961,7.0,300.98364,6328.1564,0.0,0.0,0.0,0.0,-0.1790138669350058,0.0,-0.5718462769418334,-0.4760180879393275,-0.8757371666535293,-0.2148265706917318,-1.4252461019608385,-0.17689176364285783
17962,7.0,300.30678,6512.3893,0.0,0.0,0.0,0.0,-0.17902383374458963,0.0,-0.6102632289182914,-0.5085193007969475,-0.8608212031239381,-0.25471617023102877,-1.4246015735722286,-0.18274450900297884
17963,7.0,300.35352,6517.6483,0.0,0.0,0.0,0.0,-0.1790338005541734,0.0,-0.5972728661437424,-0.5092151401706215,-0.8747143413400842,-0.1995300202920798,-1.4298543634156384,-0.18852289193826083
17964,7.0,299.62841000000003,6403.0287,0.0,0.0,0.0,0.0,-0.17904376736375724,0.0,-0.5605579615527635,-0.5094607215973584,-0.8763421478907363,-0.2431985968743328,-1.4361461399115887,-0.19989080825518682
17965,7.0,299.17723,6496.269,0.0,0.0,0.0,0.0,-0.17905373417334106,0.0,-0.5641175192865645,-0.5362363722474095,-0.8743496624965932,-0.2270073466363808,-1.4350139342498487,-0.23297940219577676
17966,7.0,299.086,6694.4458,0.0,0.0,0.0,0.0,-0.1790637009829249,0.0,-0.5887828536883434,-0.5462289535411005,-0.8999325455264271,-0.25816375369627875,-1.4174650504679087,-0.17702029441804285
17967,7.0,299.48528,6595.7805,0.0,0.0,0.0,0.0,-0.17907366779250872,0.0,-0.5963768997428174,-0.5237834069283974,-0.8847922585571972,-0.22467389245108682,-1.3961825427174885,-0.1886014694835158
17968,7.0,300.6297,6333.8496,0.0,0.0,0.0,0.0,-0.17908363460209253,0.0,-0.5667533576992014,-0.5168194403161075,-0.8417593241601772,-0.24548106431459477,-1.4105882233642186,-0.16602831415321884
17969,7.0,301.77983,6191.9343,0.0,0.0,0.0,0.0,-0.17909360141167635,0.0,-0.5969877173006004,-0.45772019955096654,-0.8274854977489602,-0.23669521322749876,-1.4333405517096987,-0.2001098019992998
17970,7.0,300.77457999999996,6505.6572,0.0,0.0,0.0,0.0,-0.1791035682212602,0.0,-0.6272484518021024,-0.5107783216298954,-0.8395305792402172,-0.2131661881503648,-1.4005855197020287,-0.18385825324789684
17971,7.0,300.64839,6659.3344,0.0,0.0,0.0,0.0,-0.17911353503084398,0.0,-0.6507254464866014,-0.5138667585972004,-0.8596791790687291,-0.21263833551076983,-1.4179147308622886,-0.20612902435085081
17972,7.0,300.74025,6552.5499,0.0,0.0,0.0,0.0,-0.17912350184042783,0.0,-0.5698639443136925,-0.5255323475285044,-0.8964152504542972,-0.23174045063600177,-1.4070034458354286,-0.17711722192260884
17973,7.0,299.59022999999996,6378.3928,0.0,0.0,0.0,0.0,-0.17913346865001162,0.0,-0.5752562890933755,-0.5302919074882365,-0.8333239461501701,-0.25231317669137177,-1.4469179003996786,-0.2063413711743078
17974,7.0,299.63374,6271.5723,0.0,0.0,0.0,0.0,-0.17914343545959546,0.0,-0.5545124757586205,-0.4897701817415535,-0.8621187104069922,-0.2329860693814348,-1.4284413861511884,-0.17106210012001485
17975,7.0,300.84132,6218.031999999999,0.0,0.0,0.0,0.0,-0.17915340226917928,0.0,-0.6117605795185684,-0.46944414155552955,-0.8089217527993613,-0.2312419721168058,-1.4306265613168485,-0.20503404549778478
17976,7.0,299.98824,6300.7642,0.0,0.0,0.0,0.0,-0.17916336907876312,0.0,-0.5575663406325134,-0.49536439633865953,-0.8623442396142502,-0.2097448478627048,-1.4301023057151088,-0.2017341432346098
17977,7.0,299.36483,6316.7504,0.0,0.0,0.0,0.0,-0.17917333588834694,0.0,-0.6119190923642124,-0.46343752403522254,-0.8447777860755762,-0.23961127608779176,-1.4269049950245587,-0.2041503191580678
17978,7.0,298.97637000000003,6311.5051,0.0,0.0,0.0,0.0,-0.17918330269793073,0.0,-0.5718670485688835,-0.48986666341607554,-0.8568062603976943,-0.2253720622999908,-1.4137275761490486,-0.19602515779867682
17979,7.0,299.50746000000004,6533.9891,0.0,0.0,0.0,0.0,-0.17919326950751455,0.0,-0.6269851182336134,-0.48879063233987957,-0.8703937922511792,-0.24862273744215377,-1.4085488548879486,-0.15724664778903585
17980,7.0,299.06802000000005,6722.0044,0.0,0.0,0.0,0.0,-0.1792032363170984,0.0,-0.6165977645684614,-0.5228821006994455,-0.9038416340147242,-0.24633406891127974,-1.4170794074798487,-0.18789554827134683
17981,7.0,298.68394,6669.8132,0.0,0.0,0.0,0.0,-0.1792132031266822,0.0,-0.6238610857902954,-0.5421093826095305,-0.8614862092970692,-0.24557934957429478,-1.4017904767209486,-0.19682036660965782
17982,7.0,300.47914,6500.3283,0.0,0.0,0.0,0.0,-0.17922316993626602,0.0,-0.6085374917454743,-0.5073790600619145,-0.8600209483274591,-0.22990807902266075,-1.4172350426952087,-0.18768903776846582
17983,7.0,300.08885,6299.5778,0.0,0.0,0.0,0.0,-0.1792331367458498,0.0,-0.5669939640679474,-0.49545964184805946,-0.8524607448263253,-0.21017441524259983,-1.4012231579899588,-0.18846363707241282
17984,7.0,300.96644,6334.8905,0.0,0.0,0.0,0.0,-0.17924310355543366,0.0,-0.5574554606740705,-0.49550073927211546,-0.8726923298380271,-0.22133062308363177,-1.4348159451803086,-0.1949957868895858
17985,7.0,300.2967,6443.7576,0.0,0.0,0.0,0.0,-0.17925307036501748,0.0,-0.5673874698767835,-0.49533124279538754,-0.8960227072330562,-0.22765495530529478,-1.4179947776201884,-0.18827408837620582
17986,7.0,299.73627,6445.8773,0.0,0.0,0.0,0.0,-0.17926303717460132,0.0,-0.5985527631400585,-0.5111405180106415,-0.8496924644931172,-0.23672916723834977,-1.4174214807136087,-0.17859230128568784
17987,7.0,300.51016,6407.7993,0.0,0.0,0.0,0.0,-0.17927300398418514,0.0,-0.5937775687312834,-0.4941761478138885,-0.8598572577738041,-0.25541744062523875,-1.3940359723806386,-0.18373258997049483
17988,7.0,301.36059,6603.4234,0.0,0.0,0.0,0.0,-0.17928297079376895,0.0,-0.6271172257816514,-0.5247763717613956,-0.8553822184421521,-0.2551193525783198,-1.4167481760221587,-0.20977577225575678
17989,7.0,299.4295,6859.4259,0.0,0.0,0.0,0.0,-0.17929293760335277,0.0,-0.6460583658634964,-0.5578444271224584,-0.8811914007493201,-0.2286131048648568,-1.3925540941093886,-0.2108846427676938
17990,7.0,299.49138,6690.3371,0.0,0.0,0.0,0.0,-0.17930290441293661,0.0,-0.6480323290458113,-0.5147611240629675,-0.8709019574413311,-0.22276444290263878,-1.4092858930106886,-0.1895951537240848
17991,7.0,299.42992999999996,6280.1844,0.0,0.0,0.0,0.0,-0.1793128712225204,0.0,-0.5865811524135525,-0.47675262333432056,-0.8456854757801582,-0.23065388175876578,-1.4314909649771588,-0.15174938096149784
17992,7.0,299.73765,6056.4969,0.0,0.0,0.0,0.0,-0.17932283803210422,0.0,-0.5567136805408625,-0.45683955349155353,-0.8274705928399891,-0.23554448535393074,-1.4508208384598686,-0.2089864605603578
17993,7.0,299.72715,6392.6919,0.0,0.0,0.0,0.0,-0.17933280484168804,0.0,-0.5862147713098935,-0.5056420048854805,-0.8513619561528831,-0.21374075161956982,-1.4153477630589486,-0.17708803018722782
17994,7.0,299.77027000000004,6594.209,0.0,0.0,0.0,0.0,-0.17934277165127188,0.0,-0.6117231399273734,-0.5203609723306295,-0.8723907764757661,-0.2252373304341938,-1.4116329855423286,-0.22903261067125877
17995,7.0,300.78397,6397.4417,0.0,0.0,0.0,0.0,-0.1793527384608557,0.0,-0.5798070182074974,-0.4949260440803975,-0.8699294602603532,-0.22888576033426575,-1.3948707891380288,-0.16790711288614185
17996,7.0,300.03999,6231.9311,0.0,0.0,0.0,0.0,-0.17936270527043952,0.0,-0.5418025299492465,-0.49982360870374953,-0.8527253145599363,-0.2534084595194678,-1.4561644155122384,-0.22444705615119978
17997,7.0,299.48722000000004,6425.5373,0.0,0.0,0.0,0.0,-0.17937267208002336,0.0,-0.5718133463135835,-0.5003219757654345,-0.8810675815871002,-0.21053591248077677,-1.4136469214410885,-0.16606194392403784
17998,7.0,298.74406,6581.5829,0.0,0.0,0.0,0.0,-0.17938263888960715,0.0,-0.6001223686049664,-0.5084061815557835,-0.8921083194467361,-0.23133743040872676,-1.4382779167969786,-0.1965616838591278
17999,7.0,298.0097,6537.1383,0.0,0.0,0.0,0.0,-0.17939260569919097,0.0,-0.5972437757333714,-0.5170064457545636,-0.8728765792362111,-0.2140221514373418,-1.4043428537228486,-0.19625467921132883
18000,7.0,297.96693999999997,6394.802,0.0,0.0,0.0,0.0,-0.17940257250877478,0.0,-0.5872410923361835,-0.4979637172176925,-0.8586553101076813,-0.24655565657564876,-1.4457462793090488,-0.21316731285797577
