,case,Temp,Pressure,e11,e22,e33,e12,e23,e13,s11,s22,s33,s12,s23,s13
0,3.0,300.0,108.02865,0.0,0.0,0.0,0.0,0.0,0.0,-0.04334082867840676,0.0008615745951032923,0.009641241989091501,-0.006444597713132274,0.01041122279775769,-0.026994861229685373
1,3.0,300.79125,56.883326000000004,0.0,0.0,0.0,1.0141143672261198e-05,0.0,0.0,0.014053992682771087,-0.02350296631106218,-0.007842136693758633,-0.006816751201285963,0.019182841773949084,-0.0013559852900503287
2,3.0,299.69343,21.849012,0.0,0.0,0.0,2.0282287344522396e-05,0.0,0.0,0.02052995474214878,-0.013179691595484287,-0.013991817630134885,0.008292120455218571,-0.0068314478873614136,-0.009561531528899691
3,3.0,299.75149,197.57706000000002,0.0,0.0,0.0,3.0423431016783594e-05,0.0,0.0,0.002219074663655618,-0.016492768136459484,-0.04578480109185805,0.0011390940398948288,-0.020254686100731882,0.02087902852084968
4,3.0,297.90968,247.95064,0.0,0.0,0.0,4.056457468904479e-05,0.0,0.0,-0.03343357722863717,-0.026898522423427478,-0.015038703580454485,0.012569419166255088,0.002017981806409298,0.00956473218331557
5,3.0,299.17792000000003,539.14225,0.0,0.0,0.0,5.070571836130599e-05,0.0,0.0,-0.1020599101650289,-0.026864124609032678,-0.034961745830705666,-0.008496595642623702,0.01136123291926639,0.028096267128135673
6,3.0,299.65522000000004,458.29457,0.0,0.0,0.0,6.084686203356719e-05,0.0,0.0,-0.06345823560259024,-0.04651372612104736,-0.02933814495419947,0.013512778314107386,0.009120694173442431,7.816165979120523e-05
7,3.0,300.40469,92.967053,0.0,0.0,0.0,7.09880057058284e-05,0.0,0.0,0.014476418675961285,-0.026765897104588373,-0.015970185410634587,0.0029110041078437374,-0.009631640735118931,-0.006920053467531103
8,3.0,299.87352999999996,157.65668,0.0,0.0,0.0,8.112914937808958e-05,0.0,0.0,0.019454540735263683,-0.029129427592600673,-0.03824880818861347,-0.0011430404463843088,0.000982208119273894,0.011875675193787887
9,3.0,300.43818999999996,451.59853,0.0,0.0,0.0,9.127029305035078e-05,0.0,0.0,-0.02326104778343668,-0.04558935730656925,-0.06842427161469983,0.002651218130604857,0.0059434884927016445,-0.0036652465080066663
10,3.0,299.47384,58.348032999999994,0.0,0.0,0.0,0.00010141143672261198,0.0,0.0,0.0015860825327341586,-0.025920139272618575,0.006597712063568484,-0.01158458566530959,-0.005570348706900615,-0.013996160420063486
11,3.0,300.1466,-94.945965,0.0,0.0,0.0,0.00011155258039487319,0.0,0.0,-0.008561553789309572,0.002118465008226218,0.03530429123901226,-0.005544620260361416,-0.008266046287745252,-0.02110153621630948
12,3.0,299.56402,370.67712,0.0,0.0,0.0,0.00012169372406713438,0.0,0.0,-0.04346323334348716,-0.052896973769774855,-0.01631638054580138,-2.838927473905327e-05,0.0007430646100947672,-0.02243378885854258
13,3.0,300.06924,593.2991400000001,0.0,0.0,0.0,0.00013183486773939558,0.0,0.0,-0.06479277413704894,-0.046207566523831754,-0.06934778220634323,-0.02095707613630238,0.024377627102134477,-0.0004187469023421016
14,3.0,300.60221,569.4991200000001,0.0,0.0,0.0,0.0001419760114116568,0.0,0.0,-0.05590477122787135,-0.04792027026061245,-0.06928846857198943,-0.01213045085193229,0.014080780988914885,0.014461002075689788
15,3.0,300.37969,498.83145999999994,0.0,0.0,0.0,0.000152117155083918,0.0,0.0,-0.03805257305499656,-0.053232532818641945,-0.06034720315805524,-0.015179434900093585,-0.008311005410582373,0.034535713680409565
16,3.0,300.66737,230.10372,0.0,0.0,0.0,0.00016225829875617917,0.0,0.0,-0.04671870053677676,-0.005606898968482844,-0.017620186191476983,0.013521270363195486,-0.004440206225014236,0.039139217925990066
17,3.0,301.68617,244.16228999999998,0.0,0.0,0.0,0.00017239944242844035,0.0,0.0,-0.06405415737065315,-0.016200621788126885,0.006035539528511375,0.025276342450580774,-0.014625655216939787,0.03764151167492796
18,3.0,300.43054,504.44032999999996,0.0,0.0,0.0,0.00018254058610070155,0.0,0.0,-0.059603108761618846,-0.05456008195391085,-0.03917407575593026,0.02916747716035587,-0.035834939435633165,-0.006175563599580674
19,3.0,299.2071,236.55966,0.0,0.0,0.0,0.00019268172977296278,0.0,0.0,-0.005840602570922594,-0.021654488074131582,-0.04441314011348566,0.0038236109125110167,-0.03202454049382607,-0.000914236060165574
20,3.0,299.30832999999996,-22.869085000000002,0.0,0.0,0.0,0.00020282287344522396,0.0,0.0,0.026407925976759377,-0.01827978566207438,-0.0011765092117624189,0.030777215435224672,0.0015156987357378188,-0.017865216410159583
21,3.0,299.65229,263.1727,0.0,0.0,0.0,0.00021296401711748514,0.0,0.0,-0.01090880256411499,-0.007935499989772873,-0.06115362763439314,0.0028062164169519975,0.03273041509649047,0.0033119856759175367
22,3.0,300.52212000000003,470.17099,0.0,0.0,0.0,0.00022310516078974637,0.0,0.0,-0.07016926357916713,-0.03661676219954307,-0.036134216024919466,-0.011156605035071189,0.029201397733953572,0.01002333120507577
23,3.0,301.26652,323.55143,0.0,0.0,0.0,0.00023324630446200758,0.0,0.0,-0.04182819522687146,-0.04005172664804767,-0.016471634779123785,-0.02218115622435968,0.02054311888744798,-0.005941245663605294
24,3.0,301.05596,149.49569,0.0,0.0,0.0,0.00024338744813426875,0.0,0.0,-0.01043418304502369,-0.01885985918532318,-0.016148913609023683,-0.019139864770957582,0.0017063051637242084,0.0012971961139482885
25,3.0,300.58736,280.67175,0.0,0.0,0.0,0.00025352859180652993,0.0,0.0,-0.018929923403237982,-0.041914794673168165,-0.024472486563246375,0.00899312325007716,-0.006505350263953084,0.005656176056621115
26,3.0,300.06656,330.54438,0.0,0.0,0.0,0.00026366973547879116,0.0,0.0,-0.023932674532721077,-0.02460277836710518,-0.051941785940255156,0.0016444642809709884,-0.031539351762941675,0.011325956617034888
27,3.0,298.94274,329.06276,0.0,0.0,0.0,0.00027381087915105234,0.0,0.0,-0.016981706905963984,-0.039565409156551865,-0.043479747293616956,0.014410067006412884,-0.022079793724105977,-0.006573336407237795
28,3.0,299.23142,284.0554,0.0,0.0,0.0,0.0002839520228233136,0.0,0.0,-0.04762942289890805,-0.01858461992815918,-0.020131704896344582,0.013369009270668485,-0.008350798072484601,0.00015565918885736588
29,3.0,299.16975,160.96906,0.0,0.0,0.0,0.0002940931664955747,0.0,0.0,-0.03885288965973167,0.00985188624840547,-0.01992957264714568,0.025344798640586877,0.005175472477304365,0.012628680111603688
30,3.0,299.99325,279.60602,0.0,0.0,0.0,0.000304234310167836,0.0,0.0,-0.03184138135274967,-0.03138337710879817,-0.021768490869382776,0.02240336602429008,-0.017386060570370586,-0.016497543584180784
31,3.0,300.21801,378.18143,0.0,0.0,0.0,0.00031437545384009716,0.0,0.0,-0.028261124945905873,-0.02938936981300497,-0.057307216770781946,-0.006549389760999444,-0.02041560541536338,0.012326318175762888
32,3.0,300.44798,-11.395541,0.0,0.0,0.0,0.00032451659751235834,0.0,0.0,0.016953231538403685,0.004049203650550286,-0.017538475676912784,0.003117592630982437,-0.004442055406446736,-0.005927297465378714
33,3.0,300.23568,-33.98594,0.0,0.0,0.0,0.00033465774118461957,0.0,0.0,-0.001015285719450899,-0.006185419787278404,0.017531582536482484,-0.014251457902009386,0.02169458643358898,0.009202259185292272
34,3.0,299.99358,351.68568999999997,0.0,0.0,0.0,0.0003447988848568807,0.0,0.0,-0.06357231236509873,-0.0058095918489620745,-0.03752176476485986,-0.014275279411860384,0.02192074284265888,0.01130450813891809
35,3.0,298.99544,526.84228,0.0,0.0,0.0,0.0003549400285291419,0.0,0.0,-0.06774385593404803,-0.06525904548856634,-0.027143995432403773,-0.020172505438121283,0.02036526005764468,0.00898063585451975
36,3.0,299.45779,429.27992,0.0,0.0,0.0,0.0003650811722014031,0.0,0.0,-0.03544177205233057,-0.04674096772097436,-0.04830763577384246,0.011371794025058689,0.03052315411840077,-0.008851657932065621
37,3.0,300.41195,398.95448999999996,0.0,0.0,0.0,0.00037522231587366434,0.0,0.0,-0.038136721449301365,-0.03086822353270647,-0.05226725707112665,0.004039361445703936,0.012460915279296589,0.018430940285492182
38,3.0,300.26142999999996,371.27585,0.0,0.0,0.0,0.00038536345954592557,0.0,0.0,-0.018002881634996082,-0.039148368587643166,-0.05570733843263625,0.015991620716500086,-0.013409802719694486,-0.0023755695204004577
39,3.0,300.56616,179.66414,0.0,0.0,0.0,0.0003955046032181867,0.0,0.0,-0.01952929022164088,-0.027456119019707972,-0.007628003409050323,0.016874795848162684,-0.021177863333092378,-0.01248148425632659
40,3.0,300.54406,46.799422,0.0,0.0,0.0,0.0004056457468904479,0.0,0.0,-0.02144844569279678,-0.007658413679001582,0.014881004374640785,0.03226882901343547,-0.006754824901549313,-0.02386372387666618
41,3.0,300.47066,176.84268,0.0,0.0,0.0,0.00041578689056270916,0.0,0.0,-0.01112928173287459,-0.034988228135319266,-0.007638249495386534,-0.008496749453988883,-0.0013292096495327787,-0.028147007653393372
42,3.0,300.0157,101.56358,0.0,0.0,0.0,0.0004259280342349703,0.0,0.0,-0.00922910940101718,-0.01057971210388629,-0.01106397168442899,0.004552425700089436,0.00045356337141321955,-0.029193455879669768
43,3.0,299.04438999999996,244.61721,0.0,0.0,0.0,0.00043606917790723156,0.0,0.0,0.004640716767428086,-0.051251497150628954,-0.027746743466390375,-0.009356419817781741,0.0032315649274056273,-0.015128334671050384
44,3.0,300.56012999999996,448.65198,0.0,0.0,0.0,0.00044621032157949274,0.0,0.0,-0.03828524364895936,-0.025440274157759575,-0.07265348026009023,0.0017019594353703186,0.03138780399848507,0.02930906366307937
45,3.0,299.67306,381.16066,0.0,0.0,0.0,0.0004563514652517539,0.0,0.0,-0.06382306136734574,-0.01143339253838799,-0.04060686915258596,-0.005293399387542845,0.01873171040542588,0.03605398992175177
46,3.0,299.38603,442.53107,0.0,0.0,0.0,0.00046649260892401515,0.0,0.0,-0.07109564572159394,-0.039158526419895666,-0.024264223137692376,-0.001113694899638129,-0.0001342546351324009,0.028483880887640176
47,3.0,300.43266,486.87089000000003,0.0,0.0,0.0,0.0004766337525962763,0.0,0.0,-0.06532688460926153,-0.02697030511351187,-0.05569940367110315,-0.019004302040078584,-0.00982837236128483,-0.0026443666347536676
48,3.0,299.64173,280.16098,0.0,0.0,0.0,0.0004867748962685375,0.0,0.0,-0.017353033683361083,-0.033011530190984364,-0.03479737639948367,0.012904821161356687,0.007917347614231372,0.007458219473268952
49,3.0,299.32886,95.558841,0.0,0.0,0.0,0.0004969160399407987,0.0,0.0,0.0017151897459010484,0.0019363794056307681,-0.03269907121789707,0.001134897259305639,-0.0017003569803371685,-0.0024186947618815876
50,3.0,300.01454,200.0895,0.0,0.0,0.0,0.0005070571836130599,0.0,0.0,-0.009640418824710261,-0.001958069341246398,-0.04922372532175345,0.003935775165455766,-0.0007861760511095352,0.01137068046319879
51,3.0,298.70636,46.763434000000004,0.0,0.0,0.0,0.0005171983272853211,0.0,0.0,-0.03017521821956217,0.0018136220281905582,0.014146679735668587,0.01939513084215038,-0.014565839010536385,-0.004535432887962375
52,3.0,299.69073,145.49685,0.0,0.0,0.0,0.0005273394709575823,0.0,0.0,-0.016626223307130487,-0.006809873056957143,-0.020791312472942778,0.02296494469346358,0.008389808809284662,-0.017805357647251982
53,3.0,300.02308,473.49571,0.0,0.0,0.0,0.0005374806146298435,0.0,0.0,-0.04579280070139755,-0.051364336734765356,-0.04677373420270816,0.0006344368735765444,-0.0031258646021488173,-0.009660368503279141
54,3.0,299.28439,444.96897,0.0,0.0,0.0,0.0005476217583021047,0.0,0.0,-0.040675732669132256,-0.02408568137732168,-0.07049804094511493,-0.011722735223693888,0.005282450004312224,-0.012870175100687387
55,3.0,300.31179,265.52485,0.0,0.0,0.0,0.0005577629019743659,0.0,0.0,0.0014668246171643186,-0.04328903842604546,-0.03889071023296426,-0.0037781735356266963,0.0028945445692443073,0.008315519034477832
56,3.0,301.33322000000004,69.844766,0.0,0.0,0.0,0.0005679040456466271,0.0,0.0,0.01928148572418448,-0.018416454862062583,-0.022096095904964877,3.000990747899727e-06,0.014132413174260589,0.015629552005266684
57,3.0,300.24297,219.55358999999999,0.0,0.0,0.0,0.0005780451893188883,0.0,0.0,-0.042645693513552255,0.0056510460726898245,-0.02974416034877007,0.02015547574369058,-0.005296659013114545,0.030256802077863867
58,3.0,299.86232,410.52528,0.0,0.0,0.0,0.0005881863329911494,0.0,0.0,-0.050026583157739356,-0.043947484818029056,-0.030815366327989868,0.003030219770884407,-0.004692319163220845,-0.0027615568108444372
59,3.0,299.10458,346.98312000000004,0.0,0.0,0.0,0.0005983274766634106,0.0,0.0,-0.029300419626476268,-0.03889941911757376,-0.03727436759394367,0.013177208119489185,0.0013682593964616887,-0.02929468969716077
60,3.0,299.37372,260.32467,0.0,0.0,0.0,0.000608468620335672,0.0,0.0,-0.020227172307516483,-0.012878872839545788,-0.04602615523917786,-0.002493515783715848,0.012235693086818886,-0.005384274242636495
61,3.0,300.1318,212.21545,0.0,0.0,0.0,0.0006186097640079332,0.0,0.0,-0.006939648001939932,-0.016999392173209383,-0.04056915801036417,0.009743785533661762,0.020915890559487678,-0.0024513873776830977
62,3.0,300.36025,319.27783999999997,0.0,0.0,0.0,0.0006287509076801943,0.0,0.0,-0.03249346554735537,-0.001049481390450749,-0.06350954253465384,5.312749830002584e-05,-7.517336435778343e-05,0.016800996790379285
63,3.0,299.55078,478.9092,0.0,0.0,0.0,0.0006388920513524554,0.0,0.0,-0.08382221592535863,-0.01184830629533679,-0.04990591621658045,0.027452757055876176,-0.026013643005096676,0.023652675026587276
64,3.0,299.64941,421.92933,0.0,0.0,0.0,0.0006490331950247167,0.0,0.0,-0.051184626697029355,-0.039531973929752065,-0.037539379104598265,0.02344242259108698,-0.01212251710364929,0.029555760678176474
65,3.0,300.0531,242.35457000000002,0.0,0.0,0.0,0.0006591743386969779,0.0,0.0,-0.02984332510955687,-0.013995505860498886,-0.02983090874283147,0.006522420285737764,-0.02068566392476608,0.021574108970198777
66,3.0,299.27766,388.0175,0.0,0.0,0.0,0.0006693154823692391,0.0,0.0,-0.05268743567559505,-0.026195646027808973,-0.039064547473120666,0.004248773288921277,-0.009337345587299262,0.004363517884570686
67,3.0,299.90663,622.6352,0.0,0.0,0.0,0.0006794566260415003,0.0,0.0,-0.06894709650729863,-0.04879095911129275,-0.07152749696721435,0.008699637689087391,0.008196176309874622,0.01134380603079649
68,3.0,299.52981,347.5221,0.0,0.0,0.0,0.0006895977697137614,0.0,0.0,-0.03563678216657657,-0.048624540888368546,-0.02137671873146788,0.006069484420111474,0.04666910498413205,-0.012658028900750186
69,3.0,299.27344,94.77606800000001,0.0,0.0,0.0,0.0006997389133860226,0.0,0.0,-0.01057760859667869,-0.01836388542037438,0.0001319364708911159,0.009161146461159762,0.01814759401427808,0.023550246587228374
70,3.0,300.33365,147.19718999999998,0.0,0.0,0.0,0.0007098800570582839,0.0,0.0,-0.016422968376820783,-0.00917541221196768,-0.019145889556052183,0.003267202858597817,0.0038049821067724964,-0.03034677666024367
71,3.0,300.82685,81.330391,0.0,0.0,0.0,0.0007200212007305452,0.0,0.0,0.024270290479291176,-0.044187344421451356,-0.004805354203301536,0.00984849054334534,-0.010888775675888489,-0.04654531317966475
72,3.0,300.20204,-102.32085,0.0,0.0,0.0,0.0007301623444028062,0.0,0.0,0.02024714650673778,0.01097714628335999,-0.00012130865271223189,0.007316383305720813,0.0033301979345399467,-0.02281557440347188
73,3.0,299.40889,122.1924,0.0,0.0,0.0,0.0007403034880750673,0.0,0.0,-0.001046572754713689,-0.008986183500142263,-0.02711068078236587,0.006248075829737073,-0.0012597190324995888,0.016059135597163286
74,3.0,298.77195,133.00037,0.0,0.0,0.0,0.0007504446317473287,0.0,0.0,-0.01973756073994558,-0.018295110056586784,-0.0023961194483285778,0.00899131125492333,-0.0067799330363772945,0.017063364731522982
75,3.0,300.04407000000003,327.10509,0.0,0.0,0.0,0.0007605857754195899,0.0,0.0,-0.04737143827769696,-0.02169089820322498,-0.030369444078230768,0.016102976902490084,-0.0015640736259870485,0.0038089860658676563
76,3.0,299.71696000000003,665.3567400000001,0.0,0.0,0.0,0.0007707269190918511,0.0,0.0,-0.06789479878819493,-0.08483509213607171,-0.04952194407793536,0.02008448946818478,0.010850752452635889,0.012602324463252589
77,3.0,299.53232,474.30904000000004,0.0,0.0,0.0,0.0007808680627641123,0.0,0.0,-0.06460080275985285,-0.04738723383350586,-0.03219006806991237,0.033795538535359965,-0.0012995600264315889,-0.02121209902747118
78,3.0,300.44597999999996,292.05357999999995,0.0,0.0,0.0,0.0007910092064363734,0.0,0.0,-0.04275584697167356,-0.021968764817898275,-0.02405238496578558,0.01175956585157879,-0.0022221957779386477,0.014499916959030386
79,3.0,301.40952999999996,271.4338,0.0,0.0,0.0,0.0008011503501086346,0.0,0.0,-0.01921193015781988,-0.034050284809251465,-0.02924688455744277,-0.0058403340596460945,-0.020461066907600082,-0.010422648205885291
80,3.0,301.36081,184.31383,0.0,0.0,0.0,0.0008112914937808958,0.0,0.0,-0.03804743992998997,0.0025552342658569874,-0.02053459745410698,0.004535027689247385,0.009581730264343152,0.03880463159721896
81,3.0,300.69844,161.42138,0.0,0.0,0.0,0.0008214326374531571,0.0,0.0,-0.013818603538789985,-0.006932034643338554,-0.028317431253962876,-0.002126153043359968,0.01021602016599269,0.029889770467640676
82,3.0,299.69597999999996,363.97791,0.0,0.0,0.0,0.0008315737811254183,0.0,0.0,-0.03518509857674887,-0.023991526125029274,-0.051463572423059156,0.01066635208018699,0.03080696445816067,0.03568216766505576
83,3.0,299.42195,550.10803,0.0,0.0,0.0,0.0008417149247976793,0.0,0.0,-0.06349466802318585,-0.04823967607638536,-0.055484761836169655,-0.002171455860631008,-0.0013022136271184789,-0.014253630310223787
84,3.0,299.98175,484.37030999999996,0.0,0.0,0.0,0.0008518560684699406,0.0,0.0,-0.04735529112410336,-0.05546433370090355,-0.04441685367510216,0.024562179462098377,0.004226535488976576,-0.012130785224465288
85,3.0,299.03109,361.24577999999997,0.0,0.0,0.0,0.0008619972121422018,0.0,0.0,-0.043838608055033756,-0.04565879533592226,-0.020312292408667183,0.011528675538041688,-0.017220936267824085,-0.002842674371450117
86,3.0,299.02725,539.70557,0.0,0.0,0.0,0.0008721383558144631,0.0,0.0,-0.07221704405776734,-0.052195513897796156,-0.039644459889603564,0.030352794352587573,-0.011804859144298888,0.03429726553437657
87,3.0,300.17834,274.10209,0.0,0.0,0.0,0.0008822794994867244,0.0,0.0,-0.01955020876995538,-0.06566867615949373,0.0018986939999615083,0.014842407651831585,0.0018107514906572583,-0.017013685079119985
88,3.0,299.43231000000003,8.938493,0.0,0.0,0.0,0.0008924206431589855,0.0,0.0,0.03847162897835416,-0.024829144518945773,-0.016359563238563184,0.002231171957924528,0.008978881411971602,0.014211539901069787
89,3.0,299.69894,283.63133,0.0,0.0,0.0,0.0009025617868312466,0.0,0.0,-0.023851452404705077,-0.04532316029329766,-0.017042229347687086,0.015571790670066086,0.018919762531235184,-0.017697228662830484
90,3.0,299.97887000000003,278.19756,0.0,0.0,0.0,0.0009127029305035078,0.0,0.0,-0.015132557897467185,-0.022211211248825878,-0.047221343513883754,-0.014931751992649183,0.003999154465835816,0.015390035893628286
91,3.0,299.89801,70.47018800000001,0.0,0.0,0.0,0.0009228440741757691,0.0,0.0,-0.008277237331124721,-0.004264054620304426,-0.008879885661301481,-0.003860616832663216,0.0009801475738705342,-0.03880750213475226
92,3.0,300.91893999999996,336.74375,0.0,0.0,0.0,0.0009329852178480303,0.0,0.0,-0.030099044103544373,-0.03217077477475827,-0.04009187263025976,-0.0029758787627213673,-0.007075038480301933,0.028081582094436373
93,3.0,301.94222,311.90438,0.0,0.0,0.0,0.0009431263615202914,0.0,0.0,-0.024821835945974476,-0.019316640436403982,-0.05067266587200275,0.02186469288687718,0.020827443958258682,-0.01805178919082288
94,3.0,300.42118999999997,261.35124,0.0,0.0,0.0,0.0009532675051925526,0.0,0.0,-0.033322245360649566,-0.005742421574657885,-0.04037958600940486,0.0028879940086728173,0.014955470150989985,0.03079812081128787
95,3.0,301.06001000000003,489.17905,0.0,0.0,0.0,0.0009634086488648138,0.0,0.0,-0.06175084534933394,-0.04457435833689666,-0.04237301169964066,0.014920835236071786,0.0009275745148794771,-0.03181061806646357
96,3.0,299.30664,429.42843,0.0,0.0,0.0,0.000973549792537075,0.0,0.0,-0.049222273334360155,-0.02911702642462677,-0.05219621911986575,-0.0030865507009188373,0.00037053743530419763,0.03149244942906276
97,3.0,298.77184,262.49132000000003,0.0,0.0,0.0,0.0009836909362093364,0.0,0.0,-0.02797686168335127,-0.04083481090833206,-0.01097913428005619,0.015707690813228384,0.0043719310014759954,-0.01120253363560399
98,3.0,299.76634,549.77704,0.0,0.0,0.0,0.0009938320798815975,0.0,0.0,-0.08210541967142403,-0.029989737722506675,-0.05502333685988055,0.03381179208021407,0.002246961636882848,0.03697924127706696
99,3.0,298.93221,523.24271,0.0,0.0,0.0,0.0010039732235538586,0.0,0.0,-0.050995362724100456,-0.057613204115480536,-0.050444151629950154,0.0009025499833172482,0.014445072770867685,-0.00029972159859771873
100,3.0,299.47036,-6.315706,0.0,0.0,0.0,0.0010141143672261197,0.0,0.0,0.011328963943331688,0.004255248666335346,-0.013664394979570787,0.008312218169627062,0.004771398571250376,0.025630833064316273
101,3.0,300.74152000000004,21.633712,0.0,0.0,0.0,0.0010242555108983808,0.0,0.0,0.016721868037069883,-0.0051354294413024255,-0.018162546546003782,0.01937363271477868,0.012438756512859687,-0.01107392686666149
102,3.0,299.5208,369.00895,0.0,0.0,0.0,0.0010343966545706422,0.0,0.0,-0.04022183614108616,-0.008103083247662053,-0.06384458887897033,0.013985616539522886,0.006571325713739354,0.012301339534297687
103,3.0,300.38677,347.81484,0.0,0.0,0.0,0.0010445377982429033,0.0,0.0,-0.03288253737375377,-0.05371307275806755,-0.01913141527837368,0.01844882617625738,-0.0020363120073433483,-0.014412459289898987
104,3.0,300.74048999999997,291.20193,0.0,0.0,0.0,0.0010546789419151647,0.0,0.0,-0.027774256246355673,-0.03831588230548316,-0.02242797786921908,0.015906248316074484,-0.02969287266845837,0.009951285475265411
105,3.0,298.72258999999997,184.49408,0.0,0.0,0.0,0.0010648200855874258,0.0,0.0,0.0026276806347568875,-0.04046307275139436,-0.01824619946100968,0.011718059074482387,-0.0035422203153149265,-0.009320089431471211
106,3.0,300.10812000000004,319.33212000000003,0.0,0.0,0.0,0.001074961229259687,0.0,0.0,-0.036344720759694665,-0.04054678139515576,-0.020177488602113082,0.013614706207916884,0.0029463432315814373,0.013883208365165987
107,3.0,300.11491,488.78028,0.0,0.0,0.0,0.0010851023729319482,0.0,0.0,-0.04589849889882916,-0.07618936543180493,-0.026489137972274375,-0.005676771276828705,0.006924634371233203,-0.008126812349103932
108,3.0,297.834,394.52448,0.0,0.0,0.0,0.0010952435166042094,0.0,0.0,-0.03376374578697226,-0.047497709505158955,-0.03866413636485316,0.0033160872109973265,0.01129802029852779,0.0021155707606405776
109,3.0,298.17098,108.51941000000001,0.0,0.0,0.0,0.0011053846602764707,0.0,0.0,0.0034306686733806364,-0.016030069504794683,-0.02038779068686828,0.004328043998569686,0.03248245151876837,0.014209720103890185
110,3.0,300.02567999999997,-27.946177000000002,0.0,0.0,0.0,0.0011155258039487318,0.0,0.0,0.005407673024545775,0.0035747136248217666,-0.0004874465560822296,0.03431162632804387,0.03082219158066347,0.0018210438825230384
111,3.0,300.5443,397.90454,0.0,0.0,0.0,0.001125666947620993,0.0,0.0,-0.04513258112173896,-0.03739883118322726,-0.038421634205170065,0.00021187364579280078,0.015642450679039684,-0.0038667753667710166
112,3.0,300.2138,493.35826,0.0,0.0,0.0,0.0011358080912932543,0.0,0.0,-0.07247777154699914,-0.020311951956633583,-0.057178869393865045,0.007798109558363492,-0.012565175674836289,0.012976967608226987
113,3.0,300.60249,315.50559,0.0,0.0,0.0,0.0011459492349655154,0.0,0.0,-0.017810381341247784,-0.03370901710932097,-0.04438642374809896,0.010806225176991388,-0.013292676074384988,0.004307586580375697
114,3.0,300.25275,374.65167,0.0,0.0,0.0,0.0011560903786377765,0.0,0.0,-0.03564400360003927,-0.03382456511097467,-0.04441618290353595,0.027993923801785173,-0.020502468306686082,-0.007651499564294212
115,3.0,300.20325,621.8582299999999,0.0,0.0,0.0,0.0011662315223100377,0.0,0.0,-0.0949457008544111,-0.05012847558779536,-0.04395519970429046,0.030766523620169472,-0.01970391982337548,0.023314748012236475
116,3.0,299.61707,415.82005,0.0,0.0,0.0,0.0011763726659822988,0.0,0.0,-0.060366393101699146,-0.046576589170501455,-0.01945592888790068,0.02034704283409678,-0.019833765797190282,-0.0014795901498741786
117,3.0,298.56135,275.97025,0.0,0.0,0.0,0.0011865138096545601,0.0,0.0,-0.04711117080401055,-0.04015186108918017,0.003374965857083197,0.0075280433482600335,0.013411344886346687,-0.002744501785161237
118,3.0,298.37686,192.23549,0.0,0.0,0.0,0.0011966549533268213,0.0,0.0,-0.024008250831179877,-0.016407984434341986,-0.018018553574292783,0.003262349390618817,0.007908053172389082,0.016292960282989984
119,3.0,299.29413999999997,45.317164,0.0,0.0,0.0,0.0012067960969990826,0.0,0.0,0.002517153084698668,-0.013198300946820885,-0.0030941387282677167,-0.0023084039070467278,0.04076555019774656,-0.005196558617185405
120,3.0,299.39328,160.45789,0.0,0.0,0.0,0.001216937240671344,0.0,0.0,0.026766038959602372,-0.027691043081893178,-0.047850186790945756,-0.0036444825816574268,0.025267518055459872,-0.004951827205957295
121,3.0,299.85491,325.91405,0.0,0.0,0.0,0.0012270783843436048,0.0,0.0,-0.029129407327598673,-0.035726399071671064,-0.03421392571365157,0.013436292117058789,0.022181127853356877,-0.003173642992064177
122,3.0,300.71179,264.88757000000004,0.0,0.0,0.0,0.0012372195280158664,0.0,0.0,0.001152107818879189,-0.05738740741019615,-0.024283906534134977,0.002503404800716818,0.011028727806200688,-0.016540476004167883
123,3.0,300.67928,136.55442,0.0,0.0,0.0,0.0012473606716881273,0.0,0.0,-0.04496152626635716,-0.010754650746901389,0.014207044110376087,0.029914854487116272,-0.017506877472544282,-0.026452594094167774
124,3.0,300.21041,404.01557,0.0,0.0,0.0,0.0012575018153603886,0.0,0.0,-0.04755062851813166,-0.05159902470967725,-0.02366099178340808,-0.0008353094401186233,-0.007307711708714993,-0.022292316853080377
125,3.0,299.21927999999997,443.55199999999996,0.0,0.0,0.0,0.0012676429590326498,0.0,0.0,-0.04736975020303036,-0.04692225234936575,-0.04053672894091366,0.009070144747153591,0.0005921684566449764,0.012236508753149388
126,3.0,299.93196,306.44203,0.0,0.0,0.0,0.0012777841027049109,0.0,0.0,-0.024819528775496775,-0.01932275945375788,-0.04900843602000605,0.018595928812525284,0.002840994301459307,0.014707424500009787
127,3.0,299.67407000000003,261.23843,0.0,0.0,0.0,0.0012879252463771722,0.0,0.0,-0.027855628335386476,-0.02823281980436237,-0.02332151246990408,0.021469832362657478,-0.007794045006912352,0.029479616959661673
128,3.0,299.02671000000004,112.9767,0.0,0.0,0.0,0.0012980663900494334,0.0,0.0,-0.02164754123144598,0.00976239812739868,-0.02245695276907868,0.019249860162063284,-0.02231835738065038,0.02288745233906568
129,3.0,299.72587000000004,158.34767,0.0,0.0,0.0,0.0013082075337216945,0.0,0.0,-0.037670773324565865,-0.01094908533509059,0.0004861206676638746,0.03593680957418697,-0.006514989818779434,0.013172982866572187
130,3.0,300.8869,389.8095,0.0,0.0,0.0,0.0013183486773939558,0.0,0.0,-0.028517953448752874,-0.037469583397959964,-0.052504817610072044,0.017179590597493584,-0.009277487938966772,-0.013835149912922989
131,3.0,300.98507,596.1392599999999,0.0,0.0,0.0,0.0013284898210662167,0.0,0.0,-0.06334665548832814,-0.02811297156928427,-0.08975182238506522,0.017671365454027983,0.02102291510130018,0.007132718552844513
132,3.0,301.42111,422.16115,0.0,0.0,0.0,0.0013386309647384783,0.0,0.0,-0.02098237395154908,-0.07283118102287793,-0.03451289224840726,-0.002880627477795797,0.023553539650053374,-0.012689147837821386
133,3.0,300.9458,273.45197,0.0,0.0,0.0,0.0013487721084107394,0.0,0.0,-0.024525531219231476,-0.021670269444439078,-0.03692677012063846,-0.0023744913209690476,0.04047131452770776,0.01341743857244809
134,3.0,300.99933,514.53328,0.0,0.0,0.0,0.0013589132520830005,0.0,0.0,-0.04666519991824666,-0.05779954587512104,-0.051940523430630554,-0.016161887263304087,0.016688124782239685,-0.006600842499752433
135,3.0,300.38626,570.80516,0.0,0.0,0.0,0.0013690543957552619,0.0,0.0,-0.1013823802206619,-0.04482717740909796,-0.027300959018644873,0.016337885765923783,0.007918421152712322,0.00963341909036944
136,3.0,299.28963,216.30059,0.0,0.0,0.0,0.0013791955394275228,0.0,0.0,-0.004899445114212586,-0.02359215258486418,-0.037258381547115964,0.02715401951564307,-0.016587624557821083,-0.009158009236200141
137,3.0,299.99584,126.9401,0.0,0.0,0.0,0.0013893366830997843,0.0,0.0,-0.0026386107662356075,-3.645077967416187e-05,-0.03591155735519476,0.02454855935425418,-0.01043386995074279,0.02148314748222158
138,3.0,300.07542,274.37291,0.0,0.0,0.0,0.0013994778267720452,0.0,0.0,0.011519959560681489,-0.016366827228530088,-0.07855564486733853,0.05053149277532005,0.007820882557011013,-0.006312610640531164
139,3.0,299.58973,303.53972999999996,0.0,0.0,0.0,0.0014096189704443066,0.0,0.0,-0.022407763529724078,-0.01991254396596508,-0.049948191037252655,0.02957562240663667,-0.005712670829196714,0.008214427477300872
140,3.0,299.42874,315.62304,0.0,0.0,0.0,0.0014197601141165677,0.0,0.0,-0.023317112937969876,-0.04198226193107666,-0.030642146157144372,0.01963768062458818,0.006846889818885414,-0.03492546235787477
141,3.0,299.55009,311.73012,0.0,0.0,0.0,0.0014299012577888288,0.0,0.0,-0.07111615998311853,0.00977520033976216,-0.033417212226272065,-0.00022681641992003775,-0.013033343830540887,0.02283726099536218
142,3.0,300.34237,162.92983,0.0,0.0,0.0,0.0014400424014610904,0.0,0.0,0.014494143459960588,-0.05455157470607124,-0.00946917003325932,0.005138227531453575,0.02025498906251178,-0.061203024590018244
143,3.0,300.96111,350.76371,0.0,0.0,0.0,0.0014501835451333513,0.0,0.0,-0.03743896905943856,-0.03253288401599567,-0.03665155720797707,-0.0024633363321373675,0.0038117719970176063,0.02194402023720618
144,3.0,300.50541,462.41691,0.0,0.0,0.0,0.0014603246888056124,0.0,0.0,-0.05345812687390635,-0.024348672467276875,-0.06275639474857393,0.008831331628434571,0.0036187737921701667,-0.012551200929457088
145,3.0,300.29697000000004,448.38749,0.0,0.0,0.0,0.0014704658324778738,0.0,0.0,-0.052803440653043855,-0.041239496918771455,-0.04225566213930916,0.014121196495653587,0.020436200736895983,0.06268340730412064
146,3.0,301.2118,150.30819,0.0,0.0,0.0,0.0014806069761501347,0.0,0.0,-0.028112642263001773,0.010598866583776689,-0.028176158858770374,0.02076247233534648,0.02187275835767318,0.005375360073556735
147,3.0,300.37071000000003,463.07017,0.0,0.0,0.0,0.0014907481198223962,0.0,0.0,-0.07303204569620173,-0.025303478301508874,-0.04242624684664456,0.04776421049346055,0.005079298729487755,0.05687278477715685
148,3.0,299.86402000000004,654.16887,0.0,0.0,0.0,0.0015008892634946573,0.0,0.0,-0.06821962042575234,-0.05316457413443495,-0.07746680732312862,0.018199463300147184,0.0012919771666582186,-0.028705958965057576
149,3.0,300.45897,378.54419,0.0,0.0,0.0,0.0015110304071669185,0.0,0.0,-0.057563042156029955,-0.017025555304041484,-0.040479385064754264,0.028506726637644874,-0.008179368010590772,0.0069532252493049035
150,3.0,300.06976000000003,211.29852000000002,0.0,0.0,0.0,0.0015211715508391798,0.0,0.0,-0.005291955100850305,-0.06396799260864935,0.0050304745641441845,0.014883242644111686,-0.003297114001549817,-0.05027724806022805
151,3.0,299.64979,144.06878999999998,0.0,0.0,0.0,0.0015313126945114407,0.0,0.0,-0.01003289375289452,-0.03515548938232667,0.0013950692848326187,0.02312153337716768,0.0018252956825926582,-0.02496291278389768
152,3.0,299.37474,100.08310999999999,0.0,0.0,0.0,0.0015414538381837023,0.0,0.0,-0.014138680126129087,-0.03360666871671997,0.017322583491355882,0.028748714066277176,0.007567617756090723,-0.041938611116768665
153,3.0,299.35146000000003,200.13683,0.0,0.0,0.0,0.0015515949818559632,0.0,0.0,-0.024783599940200875,-0.02096044012663438,-0.015092560863019785,0.01196627191172909,-0.005633891951146845,-0.017612244337193182
154,3.0,300.16418999999996,257.07923,0.0,0.0,0.0,0.0015617361255282245,0.0,0.0,-0.018678128726887785,-0.02925332680157857,-0.030214211123160473,0.02274892078539368,0.02057236331183418,-0.015656559173432085
155,3.0,300.47502000000003,22.211898,0.0,0.0,0.0,0.0015718772692004856,0.0,0.0,-0.0059142445749404944,-0.007434309202709192,0.006596691518067763,0.004269935523884826,0.012211793556710187,0.012169188416505388
156,3.0,300.8087,173.16523,0.0,0.0,0.0,0.0015820184128727468,0.0,0.0,0.0001922135338374988,-0.027885660055100372,-0.024944460486326574,0.005751790693032545,0.027153497691841576,0.0030817435384694067
157,3.0,300.14631,552.7438900000001,0.0,0.0,0.0,0.0015921595565450083,0.0,0.0,-0.08367667369424472,-0.028176131501017675,-0.05616753534980415,0.005504508323352675,-0.0012515296412163588,0.04715829706616156
158,3.0,299.71013999999997,465.32527999999996,0.0,0.0,0.0,0.0016023007002172692,0.0,0.0,-0.04115024984996346,-0.04400303726801166,-0.05629397882978314,0.0007384057469299733,0.008618713963225841,-4.545471967303156e-05
159,3.0,300.03497000000004,239.24854,0.0,0.0,0.0,0.0016124418438895306,0.0,0.0,-0.034480465205456966,-0.003279438968130427,-0.03496567724109367,0.016802162027994286,0.005867620378214045,0.026118922730236978
160,3.0,299.70601,353.26949,0.0,0.0,0.0,0.0016225829875617917,0.0,0.0,-0.03938670628941526,-0.023878493010123774,-0.04411990452129556,0.009216002909648672,0.015116056106338586,-0.02953828718020197
161,3.0,299.84136,473.59149,0.0,0.0,0.0,0.0016327241312340526,0.0,0.0,-0.09042194040495073,-0.02472236619690758,-0.028815681791886375,0.04398065862630306,-0.005065893228014735,0.004878063307952365
162,3.0,300.65252999999996,302.82569,0.0,0.0,0.0,0.0016428652749063142,0.0,0.0,-0.016821724847674985,-0.017062734489960783,-0.058166987851634745,0.02109662094007438,-0.0031533024016067164,-0.019966597819049782
163,3.0,299.95263,176.9206,0.0,0.0,0.0,0.0016530064185785753,0.0,0.0,-0.03315184303833217,-0.015151093281546487,-0.005476509385989395,0.04128831834833976,-0.0023615918365959675,0.00978096674608126
164,3.0,299.15853,112.1277,0.0,0.0,0.0,0.0016631475622508366,0.0,0.0,-0.015247498962310986,0.0004483871022173616,-0.01928490949627238,0.026726455331195772,0.0015492195821710686,0.009088681245808002
165,3.0,299.98902999999996,233.55944,0.0,0.0,0.0,0.0016732887059230977,0.0,0.0,-0.045413722560735455,-0.01007612042071066,-0.015506393482111885,0.009458631218969222,-0.007226792947778932,0.012388655348415089
166,3.0,300.41856,517.95966,0.0,0.0,0.0,0.0016834298495953587,0.0,0.0,-0.04053263338400946,-0.04503350350046076,-0.07188066731606953,-0.0037045582814114364,0.01078872736101449,0.008330937458599513
167,3.0,300.13849,529.40436,0.0,0.0,0.0,0.0016935709932676202,0.0,0.0,-0.047006244703155155,-0.044268257508186866,-0.06965120400178863,0.013183976630157185,0.022843508695478774,-0.003018542468781947
168,3.0,299.65042,234.76856,0.0,0.0,0.0,0.0017037121369398811,0.0,0.0,0.015927737324195286,-0.046421869933231864,-0.04086964644677006,0.02963673253341777,0.03403360063310487,-0.004354615367867076
169,3.0,300.31007999999997,200.2732,0.0,0.0,0.0,0.0017138532806121427,0.0,0.0,-0.022386990889423978,-0.014507440341022887,-0.023983622774249275,0.018939683028201183,-0.0009224899448176692,-0.028887122003436974
170,3.0,301.13027999999997,362.04469,0.0,0.0,0.0,0.0017239944242844036,0.0,0.0,-0.03265203513500497,-0.03053480548130067,-0.04686570488778496,0.028053987241212976,-0.007823930109336782,-0.024373048224932577
171,3.0,300.8411,174.08749,0.0,0.0,0.0,0.001734135567956665,0.0,0.0,-0.02823501653057918,-0.015085150965038485,-0.009598082601082001,0.030641541246834672,-0.004175499905289756,-0.03841570567883497
172,3.0,300.80572,79.466269,0.0,0.0,0.0,0.0017442767116289263,0.0,0.0,0.016550965169203086,-0.010806929385810888,-0.029899797590630273,0.028781503852763273,0.00928361040137101,0.0015733339213009686
173,3.0,300.29804,174.0263,0.0,0.0,0.0,0.0017544178553011872,0.0,0.0,-0.008852331034107052,-0.04004766148864646,-0.0039996569365604055,-0.005834165595687314,-0.016143705503509683,-0.0017800363337509082
174,3.0,299.26469,250.28416,0.0,0.0,0.0,0.0017645589989734487,0.0,0.0,-0.017124463712552985,-0.012570974505158589,-0.04638469784006325,-0.013102288407095188,-0.0006071359135446495,0.022381696657651478
175,3.0,299.733,585.7049599999999,0.0,0.0,0.0,0.0017747001426457096,0.0,0.0,-0.09360324883667141,-0.03253976297092457,-0.05189667097955266,0.010048457173105511,0.0064692044918107745,0.041220106351607756
176,3.0,299.50497,589.24398,0.0,0.0,0.0,0.001784841286317971,0.0,0.0,-0.07496578487604692,-0.04857206466568955,-0.055577607969332844,0.019044706401066182,0.013461410587037786,0.015931568422823384
177,3.0,299.30352999999997,431.26003,0.0,0.0,0.0,0.001794982429990232,0.0,0.0,-0.06886643977283843,-0.023149388635666776,-0.039076453161795664,0.02342482345010008,-0.006184524479490044,0.05070845589203495
178,3.0,299.63147000000004,342.81705,0.0,0.0,0.0,0.0018051235736624932,0.0,0.0,-0.030256793971863073,-0.022430312397449477,-0.05152071567569875,0.03212829831731617,-0.017025734649309184,-0.00823309012559273
179,3.0,299.09455,438.36973,0.0,0.0,0.0,0.0018152647173347546,0.0,0.0,-0.039186052372112264,-0.03345877574537407,-0.060608624723605536,0.047144355758035654,-0.015151119626049085,0.012036654290175289
180,3.0,299.61748,305.06105,0.0,0.0,0.0,0.0018254058610070157,0.0,0.0,-0.03712222302517816,-0.03144833859920937,-0.024160381214443978,0.036186124827542465,0.01114940487986059,-0.0012031418826908588
181,3.0,300.28716000000003,82.399682,0.0,0.0,0.0,0.0018355470046792768,0.0,0.0,-0.030073434207266873,-0.013751656078182786,0.018777644072209183,0.013251337496805187,-0.003844978938569876,-0.011306459658610688
182,3.0,300.38178999999997,-35.055665000000005,0.0,0.0,0.0,0.0018456881483515381,0.0,0.0,-0.001897914506659578,-0.01164895237791209,0.02420291441389168,0.0005213162949224125,0.018216919572869982,-0.02321829774846758
183,3.0,299.39822999999996,108.99426000000001,0.0,0.0,0.0,0.001855829292023799,0.0,0.0,0.0017998478050061481,-0.024352226948627678,-0.01057915582958139,-0.013486867482550187,0.04346172866708866,-0.03692481454794547
184,3.0,299.99802,320.96383,0.0,0.0,0.0,0.0018659704356960606,0.0,0.0,-0.006180340871152155,-0.05337994449619036,-0.03800470408052226,0.024144216835598677,0.02341519250789958,-0.011756481518274388
185,3.0,300.53012,279.08064,0.0,0.0,0.0,0.0018761115793683217,0.0,0.0,-0.008002874433972212,-0.03531234151105676,-0.04151832916079006,0.005597171058247774,-0.0002024665102743888,-0.018989893623656582
186,3.0,300.86736,268.17427000000004,0.0,0.0,0.0,0.0018862527230405829,0.0,0.0,-0.01195077323819949,-0.04331803764390746,-0.026249470886371078,0.037737970044697665,0.002832896913285157,0.015598316544433985
187,3.0,299.70296,208.15071,0.0,0.0,0.0,0.0018963938667128442,0.0,0.0,-0.043924881234798256,-0.013606570822863985,-0.005741166968384064,0.026301242900230573,-0.005710724375754614,-0.00991152827711668
188,3.0,299.91812999999996,489.72697,0.0,0.0,0.0,0.001906535010385105,0.0,0.0,-0.05515533092390735,-0.05695458648423004,-0.03675485400267167,0.015505150224239185,-0.006999276047799764,0.025539341646536776
189,3.0,299.67918,696.56646,0.0,0.0,0.0,0.0019166761540573667,0.0,0.0,-0.09117744805051352,-0.07674579983022072,-0.043815562694759363,0.018107810775601783,-0.028392880896159177,-0.0016318211488732081
190,3.0,299.85792000000004,461.89808,0.0,0.0,0.0,0.0019268172977296276,0.0,0.0,-0.03371306301697027,-0.04144211856776866,-0.06525030012695324,-0.002829824333681917,-0.01940433419280868,0.013103785990742987
191,3.0,299.20108,96.19325500000001,0.0,0.0,0.0,0.001936958441401889,0.0,0.0,-0.002023933029546638,-0.01908121177566898,-0.008135203073182032,0.008299100228532422,0.011009128509516387,-0.0013524275662992085
192,3.0,300.53227000000004,106.27981000000001,0.0,0.0,0.0,0.00194709958507415,0.0,0.0,0.007024697884858703,-0.0034393804964154267,-0.03589172501098747,-0.00935253501689834,0.0066965307994461334,0.02250197045777158
193,3.0,299.6497,258.83876000000004,0.0,0.0,0.0,0.001957240728746411,0.0,0.0,-0.051261808996896654,-0.002898008466036167,-0.024520701056004776,0.027493980122944576,0.0009793004258594274,0.03718746923886747
194,3.0,299.97433,422.60675999999995,0.0,0.0,0.0,0.0019673818724186727,0.0,0.0,-0.04025178274779167,-0.04718888708668055,-0.04102123271473046,0.016134912519141884,0.025328125610191373,0.010610613192185989
195,3.0,299.40828999999997,538.0208299999999,0.0,0.0,0.0,0.0019775230160909334,0.0,0.0,-0.06817472939332193,-0.046189779931576365,-0.049180387601726355,0.04503237473984936,0.035700575379622464,-0.007042150712531164
196,3.0,299.64347000000004,311.49271,0.0,0.0,0.0,0.001987664159763195,0.0,0.0,0.002859793738514667,-0.03824941816517366,-0.05929638275759735,0.0036031443080526563,0.015728603282042286,0.0005959787735135254
197,3.0,299.79019,302.063,0.0,0.0,0.0,0.0019978053034354556,0.0,0.0,-0.026558414894861476,-0.051667474820182746,-0.013593718758595587,0.008008549850432332,-0.026498456833444074,-0.02210361422070688
198,3.0,301.5238,600.89472,0.0,0.0,0.0,0.002007946447107717,0.0,0.0,-0.04888139877546845,-0.06885859215081394,-0.06491699961255903,0.008492052229175304,-0.005051491600368405,0.02124840377855418
199,3.0,300.92877000000004,364.06802999999996,0.0,0.0,0.0,0.0020180875907799788,0.0,0.0,-0.08202520978025792,-0.03807809783826566,0.009435716770607741,0.026536316923430572,-0.00945285397087405,-0.008762341759600802
200,3.0,301.16472999999996,118.9135,0.0,0.0,0.0,0.0020282287344522395,0.0,0.0,-0.002025877355163528,-0.03885507625344746,0.0047342185747309955,0.027947959737498872,0.0003438853505038417,0.0075293691860158826
201,3.0,300.70052999999996,105.73031999999999,0.0,0.0,0.0,0.002038369878124501,0.0,0.0,-0.006526411275231645,-0.01885294983289128,-0.006760016795061713,0.03341751518805197,-0.025927056731051272,-0.042827400667235366
202,3.0,299.84899,392.64628999999996,0.0,0.0,0.0,0.0020485110217967617,0.0,0.0,-0.008614526301887552,-0.056805239498990655,-0.05393490056271025,0.06128511507336994,0.004489695589048456,-0.004609782748500136
203,3.0,299.66504,537.6713599999999,0.0,0.0,0.0,0.0020586521654690233,0.0,0.0,-0.03940846887506306,-0.06442332389883704,-0.059606873998990444,0.04190252320120706,0.016829973716739086,-0.017118594967973785
204,3.0,300.35816,395.94212999999996,0.0,0.0,0.0,0.0020687933091412844,0.0,0.0,-0.03094291019757747,-0.042312620980430565,-0.04710098966700575,0.007305799199151243,-0.008480903235674983,0.03062232495868817
205,3.0,299.30916,169.02317,0.0,0.0,0.0,0.0020789344528135455,0.0,0.0,-0.018523676987644584,-0.01798374438035738,-0.014871401803443087,-0.007546418334848502,-0.005081722119751925,0.02062060313584508
206,3.0,299.99141000000003,456.09380999999996,0.0,0.0,0.0,0.0020890755964858066,0.0,0.0,-0.04788009388089736,-0.04570091411607905,-0.04506012158058775,0.0033109575310410672,0.031411083419532575,0.023538035910273276
207,3.0,299.78162000000003,702.96382,0.0,0.0,0.0,0.0020992167401580678,0.0,0.0,-0.07867075717144922,-0.07084925673452723,-0.06416343335418784,0.016908974800535884,0.03972369908717387,0.007594993645967513
208,3.0,300.47325,584.75961,0.0,0.0,0.0,0.0021093578838303293,0.0,0.0,-0.06803857492438453,-0.04944602023469225,-0.060267723820211234,-0.008960881631895162,0.044461214777730254,0.004242924708019066
209,3.0,300.44395,156.92341000000002,0.0,0.0,0.0,0.0021194990275025904,0.0,0.0,-0.031825641525696266,-0.00850115334289851,-0.0073740046097575925,0.012200286075324487,0.026276654360053872,0.014219952916650087
210,3.0,299.78458,96.733967,0.0,0.0,0.0,0.0021296401711748516,0.0,0.0,-0.012688424377249987,-0.012527995475666888,-0.004188290667927106,0.04041697595134496,-0.002076491629458768,-0.019493300591338983
211,3.0,299.10804,588.16177,0.0,0.0,0.0,0.0021397813148471127,0.0,0.0,-0.1002864144619985,-0.03269623107786677,-0.04580384614073765,0.040262893035138164,-0.016931676669026383,0.039038737966573464
212,3.0,299.95511,691.7389599999999,0.0,0.0,0.0,0.002149922458519374,0.0,0.0,-0.07351547745141274,-0.04750263795364536,-0.0892532557131105,0.02857524666240727,-0.04616250425213446,-0.0035257644244158564
213,3.0,300.04742000000005,236.7241,0.0,0.0,0.0,0.0021600636021916354,0.0,0.0,-0.003114199053747517,-0.03239500904838847,-0.036449007499736966,0.017717804732611184,-0.04165917396444036,0.008357504774896503
214,3.0,300.53655,-27.731892,0.0,0.0,0.0,0.0021702047458638965,0.0,0.0,0.05491197662089015,-0.029891349111296473,-0.016590824401636884,0.038098945459073164,0.0010605433457674788,-0.0023902317559725077
215,3.0,300.23371000000003,213.90039,0.0,0.0,0.0,0.0021803458895361576,0.0,0.0,0.005176117309668006,-0.04813290788684816,-0.02206358678875648,0.03127187298829357,0.03511017785110476,0.011174480793335387
216,3.0,299.91542000000004,549.2112599999999,0.0,0.0,0.0,0.0021904870332084187,0.0,0.0,-0.06321718745680065,-0.06106032351218474,-0.042668998265852257,0.02081982533075678,0.02280177596361008,-0.0026236199336561274
217,3.0,299.70476,435.05391,0.0,0.0,0.0,0.00220062817688068,0.0,0.0,-0.07311683446456974,-0.04773393356722245,-0.011394755285574789,0.004713940400479695,0.027672381041551373,-0.0007422747613768152
218,3.0,299.22515,-49.461859999999994,0.0,0.0,0.0,0.0022107693205529414,0.0,0.0,0.0004810049300289905,-0.027276388716969975,0.04183055407310426,0.016458853642362384,0.027360041631975873,-0.027032211654871578
219,3.0,299.22019,-117.67148,0.0,0.0,0.0,0.0022209104642252025,0.0,0.0,0.013759770184983587,-0.012591702562454288,0.03460112505386517,0.005889700617768194,0.036199694272881666,-0.050484697845951755
220,3.0,298.63951000000003,321.50838999999996,0.0,0.0,0.0,0.0022310516078974637,0.0,0.0,-0.012748858666214388,-0.03351416202234027,-0.05146750383344715,-0.0017764704026739784,0.004859571696277386,-0.046414679910522255
221,3.0,297.50927,618.98636,0.0,0.0,0.0,0.0022411927515697248,0.0,0.0,-0.06611538063833004,-0.04099191330983686,-0.08104910441567383,-0.002827772502229417,-0.004273015702863816,-0.017976620218904286
222,3.0,298.27872,213.8525,0.0,0.0,0.0,0.002251333895241986,0.0,0.0,-0.0037142659266445064,-0.024333420013521578,-0.036958133250983766,0.01981997039707878,-0.028122522464726872,-0.013629951568921486
223,3.0,299.86717000000004,-82.812421,0.0,0.0,0.0,0.0022614750389142475,0.0,0.0,0.0033929438522824866,-0.0015315626859284685,0.02331152689016858,0.046688690095314955,-0.01104321626938059,0.03223843657668597
224,3.0,299.5839,384.24397999999997,0.0,0.0,0.0,0.0022716161825865086,0.0,0.0,-0.019479626781239483,-0.027174416240156072,-0.07014653232642373,0.05580179360695824,-0.035544185292937965,0.012272762841727387
225,3.0,299.38831,826.46741,0.0,0.0,0.0,0.0022817573262587693,0.0,0.0,-0.10987460156127889,-0.06195866902434454,-0.07939218516314864,0.06199035842122204,0.015364606355868587,0.05152218995459425
226,3.0,300.09312,544.68377,0.0,0.0,0.0,0.002291898469931031,0.0,0.0,-0.012047421085737888,-0.07109532857431264,-0.08242751465296233,0.03068207834358537,0.025557290358808177,0.017394774521230585
227,3.0,300.11755,86.863159,0.0,0.0,0.0,0.0023020396136032915,0.0,0.0,-0.028744918431402575,-0.0098396434514222,0.012180330114604988,0.023838891143215375,0.03092451768176227,0.026208951014872077
228,3.0,301.04962,198.41245,0.0,0.0,0.0,0.002312180757275553,0.0,0.0,-0.01923695236903938,-0.017948022248081882,-0.02312745379750198,-0.004933489000347456,0.0014402666227682486,0.005404518473009444
229,3.0,301.30093,616.79235,0.0,0.0,0.0,0.0023223219009478146,0.0,0.0,-0.1081504045286139,-0.05047570829106455,-0.02886335926209177,-0.015862666402773284,0.005997886850820344,-0.007107019490558213
230,3.0,300.34721,674.58307,0.0,0.0,0.0,0.0023324630446200753,0.0,0.0,-0.07550278716404493,-0.054231538648736144,-0.07532208414121093,0.0005570260047516865,0.002816089019301347,-0.010555843984530688
231,3.0,299.89497,210.81466,0.0,0.0,0.0,0.002342604188292337,0.0,0.0,-0.02377224157813758,-0.014710470329810385,-0.025599679676741677,0.007865169084431753,0.012568837560697687,-0.03410964606635997
232,3.0,299.73598,-83.860373,0.0,0.0,0.0,0.0023527453319645976,0.0,0.0,0.05253105369491135,-0.012241987396440088,-0.014797606798660086,0.01911720951197168,-0.0033672581648975064,-0.001980883072547938
233,3.0,298.72275,155.39478,0.0,0.0,0.0,0.002362886475636859,0.0,0.0,-0.016764886583315482,-0.013212224016444988,-0.017259020286082682,0.055233178929090354,0.01030979443624749,-0.02023766653880218
234,3.0,299.31321,716.32682,0.0,0.0,0.0,0.0023730276193091203,0.0,0.0,-0.07210188717065223,-0.06450518944066654,-0.08113838998798563,0.05735932518367465,0.02260558237324728,0.04033124283388376
235,3.0,299.72001,415.94075,0.0,0.0,0.0,0.0023831687629813814,0.0,0.0,-0.05559387468643824,-0.050955602790176455,-0.01988612549610778,0.04836901137214975,0.03150071653662867,-0.013140640936630288
236,3.0,300.32003,-22.128176999999997,0.0,0.0,0.0,0.0023933099066536425,0.0,0.0,0.017834046810583384,-0.03241997958385287,0.02131234593936478,0.03867256052618456,-0.000899844301575218,0.019681018344615282
237,3.0,300.01802000000004,212.93486000000001,0.0,0.0,0.0,0.002403451050325904,0.0,0.0,-0.02304015926163668,-0.032541457125091766,-0.009145264779092362,0.025546244919468077,0.007883780158293522,-0.021232735892257878
238,3.0,300.42363,666.15266,0.0,0.0,0.0,0.002413592193998165,0.0,0.0,-0.023049262300535077,-0.09387946588018191,-0.08556504865386283,0.025767397899544176,-0.0021791193751123377,-0.014933357994057685
239,3.0,300.3668,536.94437,0.0,0.0,0.0,0.0024237333376704263,0.0,0.0,-0.06728060710757892,-0.04087275408482676,-0.05506432181317544,0.001178135984797969,0.0008782422958032661,-0.01102028743286769
240,3.0,300.39759,176.50169,0.0,0.0,0.0,0.002433874481342688,0.0,0.0,-0.02123562061529258,-0.006560021996948764,-0.025856462583334176,-0.007389179347230223,-0.002366957705150538,-0.017522748008860584
241,3.0,300.66700000000003,-75.111839,0.0,0.0,0.0,0.0024440156250149486,0.0,0.0,-0.034123622838239366,0.03130309426362487,0.025652652391969677,-0.0031950965364314766,0.03410167888082367,0.014628480158218585
242,3.0,300.08551,8.3732178,0.0,0.0,0.0,0.0024541567686872097,0.0,0.0,-0.008868497034152512,0.04257545501662026,-0.03625220697256427,0.035698149658883065,0.014474208777493187,-0.01124639824568309
243,3.0,298.92848,585.5922099999999,0.0,0.0,0.0,0.0024642979123594717,0.0,0.0,-0.06893227873783624,-0.03226205341001677,-0.07681107745466313,0.027125842043612177,0.013722331607038686,0.03676973155388997
244,3.0,299.30059,708.21236,0.0,0.0,0.0,0.002474439056031733,0.0,0.0,-0.052530238028580846,-0.06458261492055785,-0.09816602042823191,0.04532398001262855,-0.029809855432253674,-0.009465059378928631
245,3.0,299.254,236.48821,0.0,0.0,0.0,0.0024845801997039935,0.0,0.0,-0.028846435958921574,-0.02013905197281968,-0.022901020771154777,0.035096516200006464,-0.021524808273333182,0.03304342223788186
246,3.0,299.66288,215.63853999999998,0.0,0.0,0.0,0.0024947213433762546,0.0,0.0,-0.01949491064574788,-0.05714588810311004,0.01109206505670159,0.04074074380879836,0.0018230835549743383,-0.01862194502209288
247,3.0,300.39237,649.1230099999999,0.0,0.0,0.0,0.0025048624870485157,0.0,0.0,-0.08110881119106642,-0.05400590001046735,-0.06220247523690635,0.02133726479907408,0.009353329810276782,0.04453355171561936
248,3.0,299.84484,495.9491,0.0,0.0,0.0,0.0025150036307207773,0.0,0.0,-0.037875063796477766,-0.05557396432197324,-0.05730711544577194,0.01944168765774518,0.014476216025941287,-0.008279301929528481
249,3.0,300.76347000000004,185.30749,0.0,0.0,0.0,0.0025251447743930384,0.0,0.0,0.016433453488855585,-0.02154733282305618,-0.05121497151102415,0.02194521485907408,0.023251947784288577,-0.004495654512886556
250,3.0,301.30904,-4.683800499999999,0.0,0.0,0.0,0.0025352859180652995,0.0,0.0,0.043162891828345755,-0.01861098976201168,-0.02312814382082008,0.014670554355370987,-0.0020550880383213978,-0.026475986999226472
251,3.0,300.04736,54.313617,0.0,0.0,0.0,0.0025454270617375602,0.0,0.0,0.007573306344802144,-0.026358794492660476,0.0022755042842497876,0.016845604112781683,-0.008791007010229841,-0.03154446867594667
252,3.0,299.99031,416.2825,0.0,0.0,0.0,0.0025555682054098218,0.0,0.0,-0.06536555935232843,-0.04242804029932156,-0.018745884761074784,0.0040681816222732665,-0.03607271275709957,-0.028235328611609975
253,3.0,299.07381000000004,384.36901,0.0,0.0,0.0,0.0025657093490820833,0.0,0.0,-0.06870386075454314,-0.03074830639662157,-0.017386413181405384,0.019004015290300283,-0.002238769915124388,-0.02208329652970168
254,3.0,299.96435,-212.93023,0.0,0.0,0.0,0.0025758504927543445,0.0,0.0,0.035453276493965964,-0.005851841845006824,0.03512403809922267,0.007253108775401103,0.015750563451459587,-0.033307747778218766
255,3.0,300.54555,-139.26856,0.0,0.0,0.0,0.0025859916364266056,0.0,0.0,0.04910743866077686,0.009266380083420511,-0.016039652824240483,0.04955216730191816,0.02182712055991908,0.011165031222902789
256,3.0,300.69745,606.60429,0.0,0.0,0.0,0.0025961327800988667,0.0,0.0,-0.05536603526895224,-0.05112587035023054,-0.07790065163169572,0.059968078407888536,-0.004732892129025086,-0.006809085255004394
257,3.0,300.88664,902.48911,0.0,0.0,0.0,0.002606273923771128,0.0,0.0,-0.1034427027089999,-0.07363514532797302,-0.0972563011836996,0.056138883676726446,0.01992517514171168,0.03207273066858207
258,3.0,301.3893,260.27575,0.0,0.0,0.0,0.002616415067443389,0.0,0.0,-0.05097952157203705,-0.0008044350610915592,-0.027333372889343874,0.03261692703229007,0.009461155528943352,0.015380132387150884
259,3.0,301.39014,158.25194,0.0,0.0,0.0,0.0026265562111156505,0.0,0.0,-0.025819024005389272,0.0008204424469663651,-0.023106056995140276,0.005423299367587975,0.025532441413355773,0.03446258336769217
260,3.0,301.11377000000005,524.57116,0.0,0.0,0.0,0.0026366973547879116,0.0,0.0,-0.07054560999755964,-0.0025900869282216776,-0.08632083798295341,-0.01221270953480059,0.014249140599030687,0.032987026763816076
261,3.0,299.51042,718.77573,0.0,0.0,0.0,0.0026468384984601728,0.0,0.0,-0.06497046679383585,-0.04705875334983736,-0.1064606579993489,0.005926864098310943,0.017088584526511984,0.025553595035693474
262,3.0,298.89032000000003,513.905,0.0,0.0,0.0,0.0026569796421324334,0.0,0.0,-0.031151804877943768,-0.06539407828964303,-0.05966840563781315,0.006924691721188863,-0.003175531487600557,-0.013349055336449188
263,3.0,299.43272,54.631876,0.0,0.0,0.0,0.0026671207858046954,0.0,0.0,-0.03087280443640857,-0.004519837753023255,0.018785916246025585,0.01794745989427638,-0.017999090053121884,-0.008460935723904342
264,3.0,299.67407000000003,11.340455,0.0,0.0,0.0,0.0026772619294769566,0.0,0.0,-0.013885193322111888,-0.03230789284454076,0.04274587152443906,0.03838135548719486,-0.02916629672398937,-0.014070505619650788
265,3.0,299.98463,428.22115999999994,0.0,0.0,0.0,0.0026874030731492173,0.0,0.0,-0.06992742307179933,-0.04294521530936276,-0.017295902589722682,0.06432710870909134,0.01071580780431789,-0.024658681401622376
266,3.0,300.09497000000005,609.8196,0.0,0.0,0.0,0.002697544216821479,0.0,0.0,-0.026764684244218677,-0.06427831261077555,-0.09432693333634351,0.059609556072005146,0.03662943289204357,0.0057034465042613445
267,3.0,300.32597000000004,119.32923000000001,0.0,0.0,0.0,0.00270768536049374,0.0,0.0,0.023712664498757776,-0.030653641479528874,-0.029332127261855575,0.02876031172692177,0.027918937214884573,-0.025380188426829577
268,3.0,300.81657,-25.103585,0.0,0.0,0.0,0.002717826504166001,0.0,0.0,0.059262492581502645,-0.0047730379085871655,-0.04685859085883286,-0.0009099139506715152,0.012847619140211288,0.005984134412513084
269,3.0,300.59483,437.66797,0.0,0.0,0.0,0.002727967647838262,0.0,0.0,-0.05735861388210445,-0.04734588411017495,-0.028335637331759676,0.008241258238623862,-0.0037038695753184663,-0.017137371505576884
270,3.0,300.35289,639.40031,0.0,0.0,0.0,0.0027381087915105237,0.0,0.0,-0.05625738124942124,-0.06806360625485494,-0.07004073888348274,0.02035495530412768,-0.0016846225235092984,0.014570446258741087
271,3.0,300.28001,236.62624,0.0,0.0,0.0,0.002748249935182785,0.0,0.0,-0.05185290668123345,-0.017873492636976383,-0.002202067362052128,-0.00023622686876627677,-0.01127695786869909,-0.019507608696001082
272,3.0,300.43576,113.4399,0.0,0.0,0.0,0.0027583910788550456,0.0,0.0,-0.005049825918529015,-0.022537771623554876,-0.006895299058313034,0.010878407087615189,0.007105347222593174,0.008102526872032143
273,3.0,299.44892999999996,253.0784,0.0,0.0,0.0,0.0027685322225273075,0.0,0.0,-0.030796266563604874,-0.025017639435048776,-0.02111560924694838,0.023548635519569375,0.026964316805420878,-0.019321562805389783
274,3.0,299.41877999999997,558.09505,0.0,0.0,0.0,0.0027786733661995687,0.0,0.0,-0.05267782195864625,-0.057828484297977045,-0.05914065229672795,0.04587727232248425,0.028557589766164675,-0.0055883081596230745
275,3.0,299.66979,685.59485,0.0,0.0,0.0,0.0027888145098718294,0.0,0.0,-0.1047545778784719,-0.06838509328633323,-0.03526404899804067,0.02987559611199177,-0.0025835929070057674,0.006452965233783084
276,3.0,300.22421,384.62641,0.0,0.0,0.0,0.0027989556535440905,0.0,0.0,-0.07815806376660032,0.0026591593769385974,-0.04141791911563036,0.03641356603773917,-0.015625600329876685,0.028696841740657772
277,3.0,300.51101,83.197886,0.0,0.0,0.0,0.0028090967972163516,0.0,0.0,-0.02296547158351558,0.0008989374832657223,-0.0032235456608141868,0.04125909621545576,-0.004487288816085926,0.013742329111012285
278,3.0,300.63964,299.22736000000003,0.0,0.0,0.0,0.002819237940888613,0.0,0.0,-0.007019338602429784,-0.029032517313286373,-0.054905789715779536,0.05537748094208184,0.006991027178735665,0.012670326717213886
279,3.0,300.61129,715.35037,0.0,0.0,0.0,0.0028293790845608743,0.0,0.0,-0.052581922902931746,-0.06233889821712024,-0.1025278290612089,0.04286282186423116,0.01042655833802119,0.003519909561363027
280,3.0,301.33322000000004,420.76228,0.0,0.0,0.0,0.0028395202282331354,0.0,0.0,-0.029571202609700472,-0.04840447816540005,-0.04992554591076775,0.03062664039086407,0.010436084915461389,0.008252889640496792
281,3.0,300.5653,-58.607133999999995,0.0,0.0,0.0,0.002849661371905397,0.0,0.0,0.0100146641676954,-0.004629636370959535,0.01243007701250309,0.01011955409552223,0.013253503825518986,-0.014921772492414288
282,3.0,299.78552,17.152582000000002,0.0,0.0,0.0,0.0028598025155776577,0.0,0.0,0.01907309969536838,-0.018722215238738783,-0.005564841185982064,0.02278528937123298,0.02119201742373928,-0.015230242299857885
283,3.0,299.30726,370.85792000000004,0.0,0.0,0.0,0.002869943659249919,0.0,0.0,-0.03505522220543107,-0.04007709741730157,-0.03759922672175476,0.013175904066610487,-0.0037469045362156866,-0.007187427472118864
284,3.0,299.46364,481.1616,0.0,0.0,0.0,0.0028800848029221808,0.0,0.0,-0.018068811792502883,-0.07290644726680613,-0.05528585374878895,0.003771752671068007,0.0014738452244571988,-0.026671315274003876
285,3.0,299.27502999999996,222.30776,0.0,0.0,0.0,0.0028902259465944415,0.0,0.0,-0.02030077074178008,-0.04269484728915336,-0.004580390389599336,0.006251479640798004,-0.014835496272899486,-0.023715680944305477
286,3.0,300.34585,105.84671999999999,0.0,0.0,0.0,0.0029003670902667026,0.0,0.0,-0.014645867529934587,-0.02099947659998698,0.003470585357095106,0.022940402762791478,0.02817154350456487,-0.026092435359372876
287,3.0,299.7976,236.62389,0.0,0.0,0.0,0.0029105082339389637,0.0,0.0,-0.019185922054253082,-0.06140568068951885,0.008663847162430143,0.056372028471736044,-0.005670189406829125,-0.003622378328075906
288,3.0,300.29402999999996,454.92780999999997,0.0,0.0,0.0,0.002920649377611225,0.0,0.0,-0.05998181098649385,-0.026442021842624376,-0.051862861863465955,0.05034422389183805,0.0024435463417842476,0.006044503752146074
289,3.0,300.29212,500.43983,0.0,0.0,0.0,0.0029307905212834864,0.0,0.0,-0.05423183958401585,-0.03050134188349807,-0.06738802985668074,0.07188211727696264,-0.006954631133818653,0.014389089689592587
290,3.0,301.42863,274.58492,0.0,0.0,0.0,0.0029409316649557475,0.0,0.0,-0.01115551477796359,-0.038388970061696365,-0.03392247648138776,0.045887607473504254,0.00012621677540162587,0.008481215316705782
291,3.0,300.37215,220.61389,0.0,0.0,0.0,0.0029510728086280086,0.0,0.0,-0.014738458324072588,-0.015707074757167587,-0.03661558074992647,0.03084352657476907,0.007781163963691093,0.01170903709559199
292,3.0,300.83083999999997,600.34097,0.0,0.0,0.0,0.0029612139523002693,0.0,0.0,-0.08752001542330302,-0.03554490166075867,-0.05942374829516735,-0.005232552300487706,0.012623456807338188,0.024975234918363773
293,3.0,301.57135,669.15656,0.0,0.0,0.0,0.0029713550959725313,0.0,0.0,-0.0982104210476139,-0.054798681074208745,-0.05039778429212405,0.002718985310542958,0.030200315411289074,0.003985427764081096
294,3.0,301.80017000000004,318.73631,0.0,0.0,0.0,0.0029814962396447924,0.0,0.0,-0.04733759572435695,-0.01037250448493649,-0.03917778019829586,0.006339457309880724,0.04184982406350606,0.030867978326182266
295,3.0,300.37913,179.29613,0.0,0.0,0.0,0.002991637383317053,0.0,0.0,-0.008690409817776672,-0.022703813930691978,-0.023107324571015376,0.049417321952109954,0.015339974245937587,-0.0013117792146875287
296,3.0,299.6782,304.25333,0.0,0.0,0.0,0.0030017785269893147,0.0,0.0,-0.03112063831811787,-0.002061080703387828,-0.059303695383569034,0.05987949603114614,-0.004571299813677166,0.018593138321749882
297,3.0,299.51297,494.76230999999996,0.0,0.0,0.0,0.003011919670661576,0.0,0.0,-0.06893961973481073,-0.04597752734037866,-0.035478239936679666,0.045577560035654954,0.001172429562884789,-0.005832554021403264
298,3.0,300.16222999999997,428.71283,0.0,0.0,0.0,0.003022060814333837,0.0,0.0,-0.05681263521147054,-0.04324520117371906,-0.03026015694894497,0.050842959776559456,0.016816507622910086,0.004095076522327587
299,3.0,299.90519,144.84587,0.0,0.0,0.0,0.003032201958006098,0.0,0.0,-0.01014579484131199,-0.024686485997616477,-0.009197247447647652,0.024929003356051076,-0.017262816934207382,-0.016893523749760983
300,3.0,300.27133,118.16958000000001,0.0,0.0,0.0,0.0030423431016783596,0.0,0.0,0.025781849885720475,-0.04182209850101976,-0.019880353010288083,0.04555379830755986,0.013944813971245985,-0.00952136872673593
301,3.0,300.33262,470.84749000000005,0.0,0.0,0.0,0.0030524842453506207,0.0,0.0,-0.016287134094914984,-0.062156003534319944,-0.06468274125568954,0.03724969900700907,-0.013270762514472286,-0.02142230282696668
302,3.0,299.78869,470.63409,0.0,0.0,0.0,0.0030626253890228814,0.0,0.0,-0.030836693216094672,-0.05213607563368005,-0.06008824379024794,0.04236345067169706,0.014031108429262586,-0.008346138540574742
303,3.0,300.51563,-57.30712,0.0,0.0,0.0,0.0030727665326951434,0.0,0.0,0.0012923419366942187,-0.018320709820363282,0.03444830160753267,-0.004688135757532976,-0.003962558810649106,-0.025570293397341477
304,3.0,299.65779,-14.180339000000002,0.0,0.0,0.0,0.0030829076763674045,0.0,0.0,-0.014108417385392386,0.0035246169186776066,0.014894269844949987,0.01820525807746908,0.0094823096579061,-3.267884370615077e-05
305,3.0,298.53629,340.07903,0.0,0.0,0.0,0.0030930488200396652,0.0,0.0,-0.06640311934872763,-0.03004518580772897,-0.006927227480889123,0.02944781914502347,0.030022631873753074,-0.002022428150498118
306,3.0,299.33099999999996,655.5451,0.0,0.0,0.0,0.0031031899637119264,0.0,0.0,-0.06169107473918503,-0.050282159283462746,-0.08729610741620501,0.04084146796148906,0.05217500166277175,0.014291094219421185
307,3.0,300.04474,529.02524,0.0,0.0,0.0,0.003113331107384188,0.0,0.0,-0.04539423269506195,-0.03758753381560077,-0.07782869567584422,0.034931664461736865,0.01131359800556519,0.02835941425860627
308,3.0,300.62182,281.68981,0.0,0.0,0.0,0.003123472251056449,0.0,0.0,-0.03752312758624436,-0.019765988484751182,-0.028337552374448672,0.017642995464478086,-0.015924201081346283,0.046119701528160154
309,3.0,301.24432,291.47078999999997,0.0,0.0,0.0,0.00313361339472871,0.0,0.0,-0.04010499624555496,-0.013570549781808989,-0.034924296107009666,0.045966097879250656,-0.028263831336922972,0.01044878803196509
310,3.0,300.82863,520.00373,0.0,0.0,0.0,0.0031437545384009713,0.0,0.0,-0.07396211910874283,-0.03844626935485136,-0.04565976096326756,0.05499981527205915,-0.02194824549012318,0.016344628945339286
311,3.0,300.59757,538.19267,0.0,0.0,0.0,0.003153895682073233,0.0,0.0,-0.06532544579411953,-0.06564333274799253,-0.03262835446691787,0.04635404195828775,-0.011460534468816688,-0.004104094448217586
312,3.0,299.92283,216.31205,0.0,0.0,0.0,0.0031640368257454935,0.0,0.0,-0.0012332351066858289,-0.013907676328580787,-0.05061254873031965,0.026190525061803575,0.006740354372896182,0.017068414770021384
313,3.0,300.09116,-52.631806999999995,0.0,0.0,0.0,0.003174177969417755,0.0,0.0,0.02911821699349427,-0.024952501639120175,0.011833040669330188,0.01720569495981988,0.024363277454218273,-0.002138678739771158
314,3.0,299.40905,258.47907000000004,0.0,0.0,0.0,0.0031843191130900166,0.0,0.0,-0.038867512885174864,-0.02649976088632277,-0.013203909286124386,0.03087134231651427,0.04707886940407265,-0.002033152896181568
315,3.0,299.68901,714.3088,0.0,0.0,0.0,0.0031944602567622773,0.0,0.0,-0.0978556436841001,-0.05255986039525436,-0.06671653584315944,0.012403487303378887,-0.007052632278190613,0.008181349015861282
316,3.0,300.74843,430.63592,0.0,0.0,0.0,0.0032046014004345385,0.0,0.0,-0.06471042223517144,-0.04527025242607605,-0.020921893053080082,0.004076533741522556,-0.013407676920984686,-0.006495972836927604
317,3.0,300.90857,103.21918000000001,0.0,0.0,0.0,0.0032147425441067996,0.0,0.0,0.005972880547627415,-0.018916906179203285,-0.018432027502849484,0.008599664152070773,-0.006408613858355943,-0.02077787880311698
318,3.0,300.35781000000003,361.5587,0.0,0.0,0.0,0.003224883687779061,0.0,0.0,-0.006494801418486993,-0.06152064303261474,-0.041889374254659356,0.04838847388007055,0.02981252737276737,-0.012055100508245788
319,3.0,300.58398,459.0376,0.0,0.0,0.0,0.0032350248314513223,0.0,0.0,-0.03420371620564396,-0.041581588391033264,-0.06375066363445064,0.057121459656449144,0.015834376459981286,-0.004167579430583066
320,3.0,299.60361,488.47306,0.0,0.0,0.0,0.0032451659751235834,0.0,0.0,-0.08215422590224083,-0.038061972976174266,-0.028267414189276575,0.03748091558707836,0.02003303257510638,0.008990037194247591
321,3.0,299.36163,445.43765,0.0,0.0,0.0,0.0032553071187958445,0.0,0.0,-0.04007946842253556,-0.05849981416498214,-0.036822639421111567,0.04033861422836126,-0.00010840564222880387,-0.005487422494866434
322,3.0,300.20037,34.291805,0.0,0.0,0.0,0.003265448262468105,0.0,0.0,-0.02000979165756268,-0.006133096058739454,0.015719035161347986,0.03604528205039236,0.0012151453500005088,-0.01253149321501209
323,3.0,299.5947,103.17671,0.0,0.0,0.0,0.003275589406140367,0.0,0.0,0.007109418461494973,-0.014143406937845588,-0.024329155243850677,0.03557785863351127,-0.014611832459075587,0.004328555487220166
324,3.0,299.93557000000004,525.73435,0.0,0.0,0.0,0.0032857305498126283,0.0,0.0,-0.07534133184011053,-0.03719969410132397,-0.04726908785859575,0.025631112721343875,-0.010665188869072188,-0.012621310743626386
325,3.0,300.42527,463.93007,0.0,0.0,0.0,0.003295871693484889,0.0,0.0,-0.05226028895018895,-0.03191135741790577,-0.05685151057805725,0.028315383475510773,0.03263238314931547,0.02789400518292397
326,3.0,301.32079,80.19618299999999,0.0,0.0,0.0,0.0033060128371571506,0.0,0.0,-0.01973558692875078,-0.03296907805154467,0.02832702774565997,0.01247174388311529,0.045788133671436956,0.007897985722045503
327,3.0,300.44203,235.75122000000002,0.0,0.0,0.0,0.0033161539808294117,0.0,0.0,-0.02568232035489768,-0.02361918508428208,-0.02236097873285678,0.026606960720402573,0.020587548891082882,0.027398436718015173
328,3.0,299.90881,662.98983,0.0,0.0,0.0,0.0033262951245016732,0.0,0.0,-0.08452591508005833,-0.05406204723825865,-0.06294439317212794,0.02041155646796378,-0.008372873448438272,0.009935747892931971
329,3.0,299.87825,684.02804,0.0,0.0,0.0,0.003336436268173934,0.0,0.0,-0.03647475317152786,-0.09376847345097782,-0.07768421735733533,0.03545309816194837,0.023301657834194578,-0.0035931416043904663
330,3.0,299.52051,402.4228,0.0,0.0,0.0,0.0033465774118461955,0.0,0.0,-0.02293618257612498,-0.043832781866958756,-0.05555751724635004,0.03647293134784806,0.034440459051758666,-0.017237646788473285
331,3.0,300.02067999999997,132.56378999999998,0.0,0.0,0.0,0.0033567185555184566,0.0,0.0,-0.0016943160845659783,-0.014932999303522286,-0.023668767464675475,0.006158343920756224,0.013784236121898186,0.017702404344341286
332,3.0,300.45429,185.84001,0.0,0.0,0.0,0.0033668596991907173,0.0,0.0,-0.03543889543529667,-0.014237785105159986,-0.006814041669193554,0.030866875910073466,-0.007334286320412702,0.014189338578128687
333,3.0,300.35647,473.14217,0.0,0.0,0.0,0.0033770008428629793,0.0,0.0,-0.05269085032843204,-0.039371176205132564,-0.05176137777320025,0.031176958811676272,-0.008991141028906531,0.008189491696314903
334,3.0,300.68302,505.80553,0.0,0.0,0.0,0.0033871419865352404,0.0,0.0,-0.05573115994248725,-0.05877775272041254,-0.03924333747976586,0.04997509384065775,0.0016403452166644684,-0.0024695166511223177
335,3.0,301.5957,155.54242,0.0,0.0,0.0,0.0033972831302075015,0.0,0.0,0.01022710512208669,-0.023097445382540376,-0.03441067051206877,0.029589508999257174,-0.015714559635656284,-0.006724112277768214
336,3.0,300.79804,186.03171,0.0,0.0,0.0,0.0034074242738797622,0.0,0.0,-0.023501369428904576,-0.015200630065685386,-0.017846993107111082,0.042174075241257165,0.014284819161551885,-0.007139246416613764
337,3.0,299.74032,733.18093,0.0,0.0,0.0,0.003417565417552024,0.0,0.0,-0.10873628600143591,-0.06257813771148135,-0.05155427553226086,0.04304694764590296,0.036363848895082464,0.001094101682454429
338,3.0,299.21422,572.07225,0.0,0.0,0.0,0.0034277065612242853,0.0,0.0,-0.0911709287993701,-0.03941027347349116,-0.04331447505655586,0.03489490070835857,0.04905605978795615,0.016122254998892686
339,3.0,299.94889,47.212959000000005,0.0,0.0,0.0,0.003437847704896546,0.0,0.0,-0.011173047044443888,-0.0028398531791966873,-0.0003386604554356847,0.0014257293209335286,0.02718633206133208,0.007697092880368923
340,3.0,299.36609,226.40737000000001,0.0,0.0,0.0,0.003447988848568807,0.0,0.0,-0.014667473061816885,-0.016134385629089882,-0.03802032941031436,0.017584719398226683,0.0028417725788611172,0.03813594631297486
341,3.0,299.48817,401.27997,0.0,0.0,0.0,0.0034581299922410687,0.0,0.0,-0.03475916572496257,-0.007324747381321284,-0.07989517669829002,0.05811727881497885,-0.00014684487557496087,-0.006299612262948323
342,3.0,300.08148,384.0941,0.0,0.0,0.0,0.00346827113591333,0.0,0.0,-0.04059157312907636,-0.03544931367282486,-0.04071412775517156,0.07585321059187902,-0.013528167556626187,0.005724829931721725
343,3.0,300.65916,267.74728,0.0,0.0,0.0,0.003478412279585591,0.0,0.0,-0.04968713829473875,-0.007211649519734393,-0.02448969864269508,0.03184283030039267,-0.007743143476213762,-0.006625401149051184
344,3.0,300.7086,125.32061000000002,0.0,0.0,0.0,0.0034885534232578525,0.0,0.0,-0.038333148087187165,0.0021186524594947183,-0.0018798405566758183,0.02206505600140148,-0.02386772925431148,0.00886143944323098
345,3.0,300.74151,175.24174,0.0,0.0,0.0,0.0034986945669301136,0.0,0.0,-0.02315578123054768,-0.026306010241951075,-0.0038073208906533166,0.04498520288144386,0.00908376181524749,-0.01138825021993279
346,3.0,299.28054,440.95588,0.0,0.0,0.0,0.0035088357106023743,0.0,0.0,-0.03247564247809637,-0.028258029466850375,-0.07330590591997964,0.04864989240587055,0.03692962748592046,-0.00979956718081698
347,3.0,299.92604,578.58278,0.0,0.0,0.0,0.0035189768542746355,0.0,0.0,-0.017290205084410384,-0.06590503194407023,-0.09267947986625251,0.03148573259414987,0.026227492478451974,0.016327813046679684
348,3.0,299.58639,213.60246,0.0,0.0,0.0,0.0035291179979468974,0.0,0.0,-0.03892498747059716,-0.009159689914141012,-0.016845137004485585,0.016019854930536585,0.008265302866146882,0.007215363284000914
349,3.0,300.74601,167.25189,0.0,0.0,0.0,0.003539259141619158,0.0,0.0,-0.012840716880530088,-0.025789545520229974,-0.012210134866296489,-0.011924112601568289,0.030131806532277768,-0.0070148754383893034
350,3.0,300.28874,382.81957,0.0,0.0,0.0,0.0035494002852914193,0.0,0.0,-0.06944398827683802,-0.03234111528881957,-0.014582486709679385,0.03417420124348107,0.011533602973277988,-0.0063178689019251135
351,3.0,301.15441,526.7754,0.0,0.0,0.0,0.0035595414289636804,0.0,0.0,-0.03222504546336437,-0.052328955896215855,-0.07557256564543154,0.042618268886345664,0.0041440213657580665,0.007490498581704653
352,3.0,300.27834,344.05485,0.0,0.0,0.0,0.003569682572635942,0.0,0.0,-0.026706683781994475,-0.04626447267594796,-0.031612927905703074,0.044563663482091155,-0.003395080898068397,-0.006143633555804425
353,3.0,300.11057,228.61765,0.0,0.0,0.0,0.003579823716308203,0.0,0.0,0.017951887797213382,-0.038809013903901464,-0.04863693091059136,0.07324528113999643,0.0032269903058541475,-0.0021870408630691282
354,3.0,298.76679,202.52256,0.0,0.0,0.0,0.003589964859980464,0.0,0.0,-0.05950896465507753,-0.013365328133055188,0.01131249254970609,0.04023358274949546,0.003288262451326237,-0.008442529529212792
355,3.0,299.25026,322.53556000000003,0.0,0.0,0.0,0.0036001060036527257,0.0,0.0,-0.03483794997323797,-0.027101848281244175,-0.036102959285834665,0.054104933048741144,-0.017946144695646583,0.0013531811203985784
356,3.0,299.92126,534.15069,0.0,0.0,0.0,0.0036102471473249864,0.0,0.0,-0.10008814370893071,-0.033488283614786264,-0.028792045706803673,0.02062620438239788,-0.017951753034950085,0.006443828453656353
357,3.0,300.20365,406.13919,0.0,0.0,0.0,0.0036203882909972476,0.0,0.0,-0.03746693172244826,-0.013180058392020489,-0.07280918133670672,0.022473065472168877,0.04636064226943916,0.016130103634167284
358,3.0,300.32587,234.81387,0.0,0.0,0.0,0.003630529434669509,0.0,0.0,-0.027927839630263174,-0.01924296702163298,-0.02420674753901998,0.015052810048346684,0.01988014934701798,-0.0036120799580345365
359,3.0,301.1999,584.79137,0.0,0.0,0.0,0.0036406705783417702,0.0,0.0,-0.027669154853232975,-0.055738918398502944,-0.09435390098775501,0.03864879170533876,0.020449641499472482,0.02343207224131548
360,3.0,300.22142,801.03095,0.0,0.0,0.0,0.0036508117220140314,0.0,0.0,-0.1162591613688859,-0.061276965502815646,-0.06595728322522702,0.029600740876615673,-0.010894692043222388,0.0037675068491739763
361,3.0,299.84836,546.91597,0.0,0.0,0.0,0.0036609528656862925,0.0,0.0,-0.04983606072818625,-0.06675618229307223,-0.04965655435372036,0.03963018116919436,6.368172108439653e-05,0.0016468548419319186
362,3.0,300.43726000000004,5.5158941,0.0,0.0,0.0,0.0036710940093585536,0.0,0.0,-0.036844609723029866,-0.0048729364650963855,0.040040852447974465,0.034864341085342566,-0.01029517121080429,-0.02957556059838057
363,3.0,299.73126,-75.922107,0.0,0.0,0.0,0.003681235153030815,0.0,0.0,0.034315181822644765,-0.012440028141735187,0.001203271578703659,0.02626423090057777,0.0007197671025329822,-0.007517396014884222
364,3.0,299.89724,191.90379,0.0,0.0,0.0,0.0036913762967030763,0.0,0.0,-0.021785310821042778,-0.009521721641745761,-0.027026927555600072,0.06060781007052514,0.0009223951552708141,-0.029915895094968968
365,3.0,300.39743,409.75584,0.0,0.0,0.0,0.0037015174403753374,0.0,0.0,-0.02813198520741077,-0.05239428722291355,-0.04402927132635076,0.05379822021697095,0.031061545572285867,-0.022357372575750878
366,3.0,299.77639,295.80884,0.0,0.0,0.0,0.003711658584047598,0.0,0.0,-0.05268186482654525,-0.032157184051166965,-0.005079451932902875,0.05555379051248225,0.015001243724257485,0.00039169489785977665
367,3.0,298.98675,179.21303999999998,0.0,0.0,0.0,0.0037217997277198597,0.0,0.0,-0.015791115746961785,-0.015347369958417484,-0.023337803505011877,0.014844112951749885,-0.02209673121277758,0.008064636587192663
368,3.0,299.0391,414.71109,0.0,0.0,0.0,0.0037319408713921212,0.0,0.0,-0.046387022235792656,-0.04906017054361186,-0.030614624257928175,0.021412292929228777,-0.02154214498254418,0.01870568507660738
369,3.0,299.52236,758.13077,0.0,0.0,0.0,0.003742082015064382,0.0,0.0,-0.05449951391593325,-0.07170462119069514,-0.10424869250104489,0.023348456816563275,0.02097170746774638,-0.0008557815909690673
370,3.0,300.06139,572.69122,0.0,0.0,0.0,0.0037522231587366435,0.0,0.0,-0.05915307170320365,-0.04487485589255346,-0.07005590318447934,0.02301801873370158,0.048968841245848355,0.022247489655406277
371,3.0,299.05025,44.959189,0.0,0.0,0.0,0.0037623643024089046,0.0,0.0,0.007475522339926614,-0.011035233885092791,-0.010106759178559471,0.00984381003715841,0.016603518398889683,-0.009659015307770592
372,3.0,299.95285,-6.2481532,0.0,0.0,0.0,0.0037725054460811657,0.0,0.0,-0.014777478585423586,0.01874027236877088,-0.002063511287727708,0.01766430816708148,0.009667901105847553,0.022613754235303776
373,3.0,300.4664,280.2501,0.0,0.0,0.0,0.003782646589753427,0.0,0.0,-0.03799207391802576,-0.03706919356794457,-0.010127765676982651,0.057141087324136246,0.005390653969241125,-0.028145160498461077
374,3.0,301.06449,503.35486,0.0,0.0,0.0,0.0037927877334256884,0.0,0.0,-0.07032549357233583,-0.04577111410950726,-0.036910702000552666,0.08136439238304033,-0.01168979851594329,0.008895270749494873
375,3.0,300.05203,381.26993,0.0,0.0,0.0,0.0038029288770979495,0.0,0.0,-0.016037229130001288,-0.036404918961385764,-0.06345438930521065,0.05329471091102845,-0.016771215343440084,-0.01983433220399618
376,3.0,299.80893,402.90799,0.0,0.0,0.0,0.00381307002077021,0.0,0.0,-0.02724484218835658,-0.053122808978563044,-0.042106315154069755,0.045918837868086454,-0.025231531464908277,0.012132351709119887
377,3.0,299.74277,472.4068,0.0,0.0,0.0,0.0038232111644424713,0.0,0.0,-0.04426665353327855,-0.04235153079752066,-0.056981685858154545,0.04247125136308617,0.004138863314799006,-0.005733989307325684
378,3.0,300.1447,631.8739,0.0,0.0,0.0,0.0038333523081147333,0.0,0.0,-0.08654410561598823,-0.03961942855913316,-0.06591035454684553,0.044503827010685754,0.01940906303102538,0.02438197495831358
379,3.0,298.95416,385.06891,0.0,0.0,0.0,0.003843493451786994,0.0,0.0,-0.05524972732972354,-0.02070459346313428,-0.041097013689709465,0.018276003199451083,0.012573646445672288,0.02215368701414868
380,3.0,298.81495,54.58636,0.0,0.0,0.0,0.003853634595459255,0.0,0.0,-0.016345449677920287,0.0023639705425307278,-0.0026114111818762173,0.01305126011880909,0.027266127533207275,0.027387188628655072
381,3.0,299.69687999999996,60.795190000000005,0.0,0.0,0.0,0.0038637757391315163,0.0,0.0,0.02158070320184958,-0.03184547690965387,-0.008215445084376303,0.03331693694337567,0.04473633548463255,-0.03215115622632207
382,3.0,301.01117,479.22412,0.0,0.0,0.0,0.003873916882803778,0.0,0.0,-0.06516665835769844,-0.03278128937076137,-0.047724220551763855,0.06117639435089004,0.033155553560198364,0.003719229534909377
383,3.0,301.10211,500.5676,0.0,0.0,0.0,0.003884058026476039,0.0,0.0,-0.05180898026289825,-0.04307291927246616,-0.05727815169166344,0.03146076509843577,0.0030167257113526474,-0.020970198738347483
384,3.0,299.981,117.46878000000001,0.0,0.0,0.0,0.0038941991701483,0.0,0.0,-0.013393469128082485,-0.02974166876677417,0.007427562071618304,0.023319960170750876,-0.004082044910141466,-0.01640375816817488
385,3.0,300.13563,118.06942,0.0,0.0,0.0,0.0039043403138205616,0.0,0.0,0.0012336882321305489,-0.008089460505367593,-0.029034382706720475,0.020435574548334178,-0.008415928471687472,-0.024850314353285077
386,3.0,299.99362,613.875,0.0,0.0,0.0,0.003914481457492822,0.0,0.0,-0.07157676118707633,-0.05112207876835636,-0.06390383158581714,0.021676339825788184,0.01867990596756318,0.023115070868029875
387,3.0,298.91778999999997,591.2844200000001,0.0,0.0,0.0,0.003924622601165084,0.0,0.0,-0.039653913513036564,-0.05323102206274285,-0.08685076170575282,0.028758446333487675,-0.017419492757420083,0.0035308647201192167
388,3.0,300.09524,361.95821,0.0,0.0,0.0,0.003934763744837345,0.0,0.0,-0.07341500661124703,0.005029780183850655,-0.04164103070814976,0.03385426043165537,-0.0026529326510990677,0.04386416627555616
389,3.0,300.28642,302.46634,0.0,0.0,0.0,0.003944904888509606,0.0,0.0,-0.02010045828976078,-0.04964925489999995,-0.022192500572479276,0.060949510428248345,0.026161652500204073,0.0038700101677152663
390,3.0,300.03365,168.52312,0.0,0.0,0.0,0.003955046032181867,0.0,0.0,-0.05156103695017815,0.006245193335852594,-0.0059109774513180545,0.04237751154333476,0.03318924615252357,0.02341319741845268
391,3.0,299.88067,530.6168700000001,0.0,0.0,0.0,0.003965187175854129,0.0,0.0,-0.05687915913353595,-0.04989246836125325,-0.05452265148196675,0.04411174887124066,0.01210904898332009,0.013780254049005186
392,3.0,299.84232000000003,626.30385,0.0,0.0,0.0,0.00397532831952639,0.0,0.0,-0.06235845191755003,-0.07259755088107042,-0.05542472778099474,0.014236340210517385,0.016232938386816286,0.0071767683850418925
393,3.0,298.86491,253.69682999999998,0.0,0.0,0.0,0.003985469463198651,0.0,0.0,0.005796222723167644,-0.03888242691339676,-0.044031297826550755,0.05252082797490215,0.030428179146777472,-0.001238278457733569
394,3.0,299.03995,198.53378,0.0,0.0,0.0,0.003995610606870911,0.0,0.0,-0.03516539694180447,-0.029675114447205768,0.004491200772072005,0.02355332382778208,0.013961277258870787,-0.025462386314691873
395,3.0,298.79617,506.83192,0.0,0.0,0.0,0.004005751750543174,0.0,0.0,-0.07063593313797384,-0.041409146396264564,-0.04201916956596916,0.038901611790790165,-0.02009050209427818,0.004319182518495126
396,3.0,298.71396,463.65872,0.0,0.0,0.0,0.004015892894215434,0.0,0.0,-0.06001446803721684,-0.04592290302748766,-0.035003302257056966,0.01834154021591908,-0.04036658601062186,-0.019784808592108582
397,3.0,299.48662,332.06306,0.0,0.0,0.0,0.004026034037887695,0.0,0.0,-0.012863843300812488,-0.05782984813261165,-0.030245188205217675,0.05899694708804534,0.0035638761044021867,-0.007921859312951642
398,3.0,299.15674,312.90515,0.0,0.0,0.0,0.0040361751815599575,0.0,0.0,-0.008323506282366113,-0.02945516824799877,-0.05733667701743945,0.046086802310663255,0.0025340948290206874,0.008471863119607792
399,3.0,300.44678999999996,316.93141,0.0,0.0,0.0,0.004046316325232218,0.0,0.0,-0.006625558202816683,-0.03985911996303886,-0.049854556595511655,0.05432221440018515,-0.010162409103201691,0.015284803791242684
400,3.0,301.0226,274.64037,0.0,0.0,0.0,0.004056457468904479,0.0,0.0,-0.04881530143169515,-0.017304234545294984,-0.017364277719720784,0.05538317743414404,0.0009130059340141702,0.007751232049112043
401,3.0,301.18323,335.60663,0.0,0.0,0.0,0.004066598612576741,0.0,0.0,-0.04519837550373236,-0.02134097430769018,-0.03547668561102626,0.038658918126838165,0.02029499420295998,-0.007382436471789753
402,3.0,300.31349,418.68625,0.0,0.0,0.0,0.004076739756249002,0.0,0.0,-0.06265599990216573,-0.05836641067006624,-0.006247755946680504,0.03843467777370736,0.030120526018914472,0.0052506656659003555
403,3.0,299.80349,214.45577000000003,0.0,0.0,0.0,0.004086880899921263,0.0,0.0,-0.017854904563891882,-0.01769036794640338,-0.029643924582627573,-0.021052583064228178,0.001104830481138279,-0.028837789895818273
404,3.0,299.20248,376.25300000000004,0.0,0.0,0.0,0.004097022043593523,0.0,0.0,-0.01883685131530248,-0.05326498113984435,-0.042269685520693163,0.01884639714449458,0.028086792226450573,-0.0019295926564609684
405,3.0,300.55883,729.05946,0.0,0.0,0.0,0.004107163187265786,0.0,0.0,-0.06563547398021694,-0.07419065665554773,-0.08178974261601912,0.02582473772270318,0.028745904323749873,-0.013190580994308988
406,3.0,299.76727,336.6365,0.0,0.0,0.0,0.0041173043309380465,0.0,0.0,-0.060859910748405535,-0.015445670416868985,-0.026023509021320376,0.060527945697643144,0.034818728618840965,0.04588295665554525
407,3.0,299.29669,132.38018,0.0,0.0,0.0,0.004127445474610307,0.0,0.0,-0.024399394754032775,-0.02676497808674768,0.010924104667125189,0.03429683591633417,-0.02132493151885688,-0.00037972407746834864
408,3.0,300.05731000000003,442.61449000000005,0.0,0.0,0.0,0.004137586618282569,0.0,0.0,-0.05068993368020695,-0.024146635463587376,-0.05970718271914015,0.05285271095240644,-0.02143321857029398,0.03296939722532617
409,3.0,300.31674,497.5332,0.0,0.0,0.0,0.0041477277619548295,0.0,0.0,-0.04426224082909305,-0.06348434401791694,-0.04349108657548605,0.04083781418162846,-0.015386675956296685,-0.012492743491437789
410,3.0,300.54902000000004,369.85675,0.0,0.0,0.0,0.004157868905627091,0.0,0.0,-0.005270539654686765,-0.07246090397258444,-0.03469577173245607,0.053287828916349256,0.0075371147737553126,-0.02166807575797258
411,3.0,300.55454,301.81593,0.0,0.0,0.0,0.0041680100492993526,0.0,0.0,-0.04142897164772116,-0.037503060168013864,-0.012812474560492788,0.04068537577033396,0.014132384803257788,-0.020791129074674678
412,3.0,300.07443,225.08355,0.0,0.0,0.0,0.004178151192971613,0.0,0.0,-0.02116794057486308,-0.05494368628276965,0.007691848500501342,0.04436547784203176,0.025304655698125077,-0.026462292924124976
413,3.0,301.27882999999997,192.1087,0.0,0.0,0.0,0.004188292336643875,0.0,0.0,-0.029992437020773074,-0.02151669517978248,-0.006887117063755534,0.039888516374940064,0.025407557325280678,-0.017108486784976184
414,3.0,300.911,441.83468,0.0,0.0,0.0,0.0041984334803161355,0.0,0.0,-0.025710625496441177,-0.06473259822686003,-0.04386348739798916,0.039541263406668865,0.025219981427018374,6.999423171714284e-05
415,3.0,300.44364,219.29854,0.0,0.0,0.0,0.004208574623988397,0.0,0.0,-0.004565806072959975,-0.01970576495180758,-0.04238970803478846,0.02751838729135337,-0.0026659205922058772,0.008312809401060413
416,3.0,299.95718,169.45253,0.0,0.0,0.0,0.004218715767660659,0.0,0.0,0.017503776927238285,-0.023497510972523776,-0.045515605871540556,0.036804831550604065,0.01164949142696529,0.016944669575058684
417,3.0,299.90798,506.04301,0.0,0.0,0.0,0.004228856911332919,0.0,0.0,-0.04626061523281725,-0.05381588116621395,-0.05374794376025904,0.03292879021431857,0.003222098840996397,0.008888726369748991
418,3.0,299.48389,803.25942,0.0,0.0,0.0,0.004238998055005181,0.0,0.0,-0.10821709665019591,-0.06653247794924434,-0.06942123067959202,0.047663085093730254,-0.006883284343927273,0.03900148076039646
419,3.0,299.85382999999996,533.9540900000001,0.0,0.0,0.0,0.0042491391986774416,0.0,0.0,-0.06673334160931804,-0.043253995171336955,-0.05232137374571755,0.03687959623573276,-0.04739891762040896,0.02276693535892158
420,3.0,299.37368,340.89415,0.0,0.0,0.0,0.004259280342349703,0.0,0.0,-0.03389853439477487,-0.04133345965354486,-0.02839131643800477,0.06487115207203424,-0.007606983637050832,0.027783049230723472
421,3.0,300.65791,363.8887,0.0,0.0,0.0,0.004269421486021965,0.0,0.0,-0.018672174869300184,-0.01851639475917588,-0.07342450887068483,0.058108285207091236,0.03890305972518306,-0.00963348414102586
422,3.0,300.1598,273.23238,0.0,0.0,0.0,0.004279562629694225,0.0,0.0,-0.04071181450519326,-0.026793829370095074,-0.015550177032182986,0.03373862529049307,0.04085441223151656,0.00030173966855688675
423,3.0,300.6809,229.26679,0.0,0.0,0.0,0.004289703773366487,0.0,0.0,-0.03821679961795447,-0.026820689616995973,-0.004653888917403076,0.044347515957509055,0.013000996834348489,-0.027523039122562477
424,3.0,299.69714,116.04615,0.0,0.0,0.0,0.004299844917038748,0.0,0.0,-0.04691089381574475,0.014022228305386186,-0.0023864662146258777,0.004244187420293686,0.02403833625314908,0.005845231705329454
425,3.0,300.43917999999996,227.47803,0.0,0.0,0.0,0.004309986060711009,0.0,0.0,-0.016275961999312385,-0.03375155030876867,-0.01912013071200998,0.05984946431143224,0.013249485275622386,-0.002082245066176588
426,3.0,300.66806,507.07973,0.0,0.0,0.0,0.004320127204383271,0.0,0.0,-0.03921032376500767,-0.04036484220719976,-0.07456441016693434,0.015832256740772085,-0.014974428060360987,0.02053347375974608
427,3.0,300.3019,702.9152799999999,0.0,0.0,0.0,0.004330268348055531,0.0,0.0,-0.04168269453901166,-0.07306634319883663,-0.0989196545743598,0.028528474024541173,-0.0030252323512421873,0.024218144576144775
428,3.0,300.21757,398.5196,0.0,0.0,0.0,0.004340409491727793,0.0,0.0,-0.03269116178761647,-0.048558974487647656,-0.039889871090323756,0.03021680504341647,-0.00047517236861086156,-0.0006946615210952544
429,3.0,299.74641,136.80778999999998,0.0,0.0,0.0,0.004350550635400054,0.0,0.0,-0.017188174852340785,-0.024480121402749876,8.214523330760332e-05,0.06427563053776084,0.03013546537838887,-0.0015502061837934385
430,3.0,298.54081,248.30567000000002,0.0,0.0,0.0,0.004360691779072315,0.0,0.0,-0.04937084011702255,-0.04197314268017666,0.015865257283278984,0.03517910722890757,0.014676414993949383,-0.04410045721212626
431,3.0,300.14367000000004,323.8884,0.0,0.0,0.0,0.004370832922744577,0.0,0.0,-0.04902338145898105,-0.022039014460581378,-0.02739158917383937,0.056637476693183746,-0.019817714902356183,0.0038400547457338964
432,3.0,299.77154,24.030535,0.0,0.0,0.0,0.0043809740664168375,0.0,0.0,0.01899564179147388,-0.017801109089582684,-0.008499215806057291,0.05137031187060505,0.004681123864190956,-0.03255133935331707
433,3.0,299.02297000000004,-205.42093,0.0,0.0,0.0,0.004391115210089099,0.0,0.0,0.05494357685175885,-0.0037585813316930966,0.011257838852562188,0.06224090781319934,0.012089340255624989,-0.0056097510648643245
434,3.0,300.32141,177.73465,0.0,0.0,0.0,0.00440125635376136,0.0,0.0,-0.023783837212281975,0.011691623379373389,-0.04193468274613096,0.04875492996423696,-0.001215975607132449,0.001202495125152029
435,3.0,301.00192000000004,616.2898700000001,0.0,0.0,0.0,0.004411397497433621,0.0,0.0,-0.07561042066916752,-0.03815574724642906,-0.07357056481959943,0.0020191685249264183,0.0015881671934898985,0.013607855623990788
436,3.0,300.43759,749.57192,0.0,0.0,0.0,0.004421538641105883,0.0,0.0,-0.11167276585124389,-0.05737295441076975,-0.05880543167339424,0.04789440299880955,0.01123364750642469,0.015740508970717285
437,3.0,300.63889,748.5844599999999,0.0,0.0,0.0,0.0044316797847781435,0.0,0.0,-0.1007251456757979,-0.05064756868027585,-0.07617826932995983,0.038273069449007865,0.02785025608335627,0.020980721340635982
438,3.0,300.145,409.19051,0.0,0.0,0.0,0.004441820928450405,0.0,0.0,-0.035541830499705565,-0.036107374016520366,-0.05273449303673925,0.038352206308318065,0.004665083608482905,0.035099138491265267
439,3.0,300.74666,282.09529,0.0,0.0,0.0,0.004451962072122666,0.0,0.0,-0.0061358603063372645,-0.03829600740477167,-0.041318057238774755,0.029415447830828674,0.0027396122454786775,0.01002690108782809
440,3.0,299.7841,344.16298,0.0,0.0,0.0,0.004462103215794927,0.0,0.0,-0.03630601967212516,-0.016650711535547286,-0.05166021994946675,0.04254460661732576,0.014127417851267587,0.03416870537493867
441,3.0,299.16458,106.35555,0.0,0.0,0.0,0.004472244359467189,0.0,0.0,-0.029364692106819468,-0.022125604787627182,0.019160866405780283,0.05131099620975105,0.024183255335451476,-0.036732972866762165
442,3.0,299.02468,-126.39116999999999,0.0,0.0,0.0,0.0044823855031394496,0.0,0.0,-0.004705266878298685,0.021533622535953083,0.021591404136155682,0.056077284150147046,0.0016617505303270087,-0.004862647011655896
443,3.0,299.47694,273.52833,0.0,0.0,0.0,0.004492526646811711,0.0,0.0,-0.02722905372529837,-0.03948531578914726,-0.01643141280315418,0.04477621498206836,0.015803385192422685,-0.03711425077339136
444,3.0,300.15589,609.27998,0.0,0.0,0.0,0.004502667790483972,0.0,0.0,-0.046857406369465955,-0.050001132341727546,-0.0883473604744556,0.05646483508814535,0.039375527101061965,0.007369558164343763
445,3.0,300.70226,477.86622,0.0,0.0,0.0,0.004512808934156233,0.0,0.0,-0.005519432585400584,-0.06155161808817174,-0.07818834778558913,0.019258297495645983,0.02948640674858177,-0.0005859418321304564
446,3.0,300.00712999999996,405.69446,0.0,0.0,0.0,0.004522950077828495,0.0,0.0,-0.024739272274826078,-0.060387563949288535,-0.038194149425219065,0.03881942910167936,0.005157181489149185,0.01262525127326529
447,3.0,299.49264,422.27854,0.0,0.0,0.0,0.004533091221500756,0.0,0.0,-0.054857487070262445,-0.029605019831787975,-0.04389962394955555,0.014459375809279288,0.0025404871199265575,0.0001005978530922351
448,3.0,299.96013,523.8317599999999,0.0,0.0,0.0,0.004543232365173017,0.0,0.0,-0.05634033704835835,-0.08517039077966311,-0.01772104713293118,0.05505303927331195,0.016574349968260984,-0.007223821693185692
449,3.0,300.32248,341.63203,0.0,0.0,0.0,0.004553373508845278,0.0,0.0,-0.05227469331361054,-0.04125647595069717,-0.01031643831715319,0.044733637199616254,0.015542999168474585,-0.017320250989625682
450,3.0,301.00532999999996,88.84187800000001,0.0,0.0,0.0,0.004563514652517539,0.0,0.0,0.0034230245119762164,-0.0024189530393320777,-0.028009784205600474,0.04826745635437705,0.0035975445813750066,0.018893176875111384
451,3.0,301.63057000000003,-125.22617,0.0,0.0,0.0,0.004573655796189801,0.0,0.0,0.037519059387092865,-0.012256805165902489,0.012803375574594789,0.052641648930076244,0.01759331885182538,0.0023377913010220377
452,3.0,301.65281,175.43498,0.0,0.0,0.0,0.004583796939862062,0.0,0.0,-0.00988768832611386,-0.005064691412071125,-0.03837547357036437,0.058983356364454044,0.03704957197975807,0.011834923288015988
453,3.0,300.20943,661.42539,0.0,0.0,0.0,0.004593938083534322,0.0,0.0,-0.09162237326217422,-0.05015621026953255,-0.059278218223054645,0.054083433908119344,0.03775210691009286,-0.004068468980001626
454,3.0,300.26658,805.07872,0.0,0.0,0.0,0.004604079227206583,0.0,0.0,-0.1052528942776519,-0.08239632580163421,-0.05707460494532495,0.038234350122936564,-0.025270777681031576,0.01065029510585229
455,3.0,299.76847000000004,478.95669000000004,0.0,0.0,0.0,0.0046142203708788455,0.0,0.0,-0.048566555624895855,-0.04593934301036016,-0.051084974562944446,0.03833707240482446,-0.00917707688055697,-0.0068662195910431136
456,3.0,299.33832,347.03,0.0,0.0,0.0,0.004624361514551106,0.0,0.0,-0.038122841949431566,-0.03387688731963846,-0.03348872539182987,0.06566221567685614,0.0066479949037560136,0.026676487915764373
457,3.0,299.56473,577.56873,0.0,0.0,0.0,0.004634502658223367,0.0,0.0,-0.03949272467387847,-0.06928486038838334,-0.06678888595329983,0.053564335749388355,0.01974092574352768,0.02169436047881668
458,3.0,300.73086,315.3226,0.0,0.0,0.0,0.004644643801895629,0.0,0.0,-0.04139907367702046,-0.009655529322126552,-0.04479559541673105,0.027481838346996273,0.01090727863596459,0.039982885423003565
459,3.0,300.49984,145.04768,0.0,0.0,0.0,0.00465478494556789,0.0,0.0,0.002057819355290958,-0.040012457127172066,-0.006136236830074425,0.03432884752674347,-0.011803048466370189,-0.014300543789853785
460,3.0,300.64817,116.67963,0.0,0.0,0.0,0.004664926089240151,0.0,0.0,-0.00915986621965841,-0.03331406133959187,0.007006233630936424,0.055003408256913744,-0.006621653542231324,-0.013568824216888688
461,3.0,298.85102,38.29736,0.0,0.0,0.0,0.004675067232912413,0.0,0.0,0.013992427606695088,-0.03139892036533217,0.005765051299741265,0.04901275246543205,0.01926552196885898,-0.050283627482857654
462,3.0,298.09078999999997,215.71263,0.0,0.0,0.0,0.004685208376584674,0.0,0.0,-0.011742606071404989,-0.032932288966913865,-0.02089635915056008,0.05492534746920975,-0.008171433654357711,-0.022922390215763776
463,3.0,299.07375,496.85076,0.0,0.0,0.0,0.0046953495202569345,0.0,0.0,-0.05311838006237595,-0.04717767040807355,-0.050734175219323246,0.03591525369155957,0.01769032842964948,-0.007944561181442144
464,3.0,300.03814,240.65393999999998,0.0,0.0,0.0,0.004705490663929195,0.0,0.0,-0.030640021371684676,-0.024361810268073478,-0.01815095800461008,0.050752814968162856,0.03938822211156486,-0.00848703177757982
465,3.0,298.97631,194.42323000000002,0.0,0.0,0.0,0.004715631807601458,0.0,0.0,-0.016799635995494982,-0.02690815640537827,-0.015392013757823486,0.05304281592291835,0.037498978796611064,0.016198847587201786
466,3.0,299.65745,569.04985,0.0,0.0,0.0,0.004725772951273718,0.0,0.0,-0.06480899424464974,-0.022017473776705477,-0.08615047821714023,0.01895098583306668,-0.017476143570511082,0.02890832831477987
467,3.0,299.95078,576.87185,0.0,0.0,0.0,0.004735914094945979,0.0,0.0,-0.07320937155645243,-0.03290116293709197,-0.06924410442961103,0.036586055655262566,-0.021128510960471678,0.03690306817429927
468,3.0,300.2348,277.09302,0.0,0.0,0.0,0.0047460552386182405,0.0,0.0,-0.03051149363624997,-0.02129439520059318,-0.032423470230447365,0.04137258630615636,0.0006504867450280434,0.02763491510585377
469,3.0,300.30217000000005,113.51575,0.0,0.0,0.0,0.004756196382290502,0.0,0.0,-0.004957803051072065,0.0006079392182239294,-0.030156091097424474,0.06469133361653753,0.04032219248399056,0.029795182557555575
470,3.0,299.42452000000003,276.96027999999995,0.0,0.0,0.0,0.004766337525962763,0.0,0.0,-0.03874842965392226,-0.024242858759333876,-0.02119772100855218,0.032310953873092865,0.006726245878503784,0.006360482452105744
471,3.0,299.89417000000003,486.68698,0.0,0.0,0.0,0.004776478669635024,0.0,0.0,-0.07442716037463883,-0.027713480492107576,-0.04580004949261296,0.013212304063202887,-0.0007555908131310073,-0.015102642701514785
472,3.0,300.94534,549.85332,0.0,0.0,0.0,0.004786619813307285,0.0,0.0,-0.07009349780293964,-0.058511930609677944,-0.03853625204323196,0.04175800637919436,0.011510067199955188,-0.007288598873403702
473,3.0,300.29688,264.96398999999997,0.0,0.0,0.0,0.004796760956979547,0.0,0.0,-0.029079932351715868,-0.034726049671944266,-0.016736453772259383,0.03978137024311556,0.02003754457780168,-0.04139987009159907
474,3.0,301.73487,21.556126000000003,0.0,0.0,0.0,0.004806902100651808,0.0,0.0,-0.002216478412924388,0.012474367187624189,-0.016810412923558588,0.05242914910585415,0.004652172066433636,0.015501339390613086
475,3.0,301.90001,459.71727999999996,0.0,0.0,0.0,0.004817043244324069,0.0,0.0,-0.06604490504087464,-0.029398508315656872,-0.04429916062298676,0.04743736640870355,0.004637927391227795,-0.0014679099093464285
476,3.0,301.81554,716.60231,0.0,0.0,0.0,0.00482718438799633,0.0,0.0,-0.07422866265354863,-0.05527811150477485,-0.08832243553524573,0.04992481738394586,0.04825077015173025,0.027489120575464973
477,3.0,300.51,235.27027999999999,0.0,0.0,0.0,0.004837325531668591,0.0,0.0,-0.04199337323167326,-0.025021857595215077,-0.004501059898195026,0.04758804480457436,0.024518859980573078,-0.013581535439393187
478,3.0,300.35426,90.970434,0.0,0.0,0.0,0.004847466675340853,0.0,0.0,0.016962934421361285,-0.026868944639758374,-0.017746729983215883,0.053821206808739544,-0.015956113393245784,-0.0025976792112209776
479,3.0,299.72606,366.38637,0.0,0.0,0.0,0.004857607819013113,0.0,0.0,-0.04859097191255555,-0.03948241485411096,-0.02329892003242438,0.03313173002384717,-0.03185955703304347,-0.025790020734526874
480,3.0,299.70525,484.20446,0.0,0.0,0.0,0.004867748962685376,0.0,0.0,-0.02038442669653628,-0.05577100093641924,-0.07103063660842802,0.05844287153586235,0.00959598000579949,-0.006409147233208583
481,3.0,299.83588,294.81139,0.0,0.0,0.0,0.004877890106357637,0.0,0.0,-0.04362697759939746,-0.040731731962408965,-0.005256591253810164,0.04563256026433305,0.041712087911162564,-0.008639645075841581
482,3.0,300.18793,98.712153,0.0,0.0,0.0,0.004888031250029897,0.0,0.0,0.0023961513657067275,-0.003302594873990737,-0.029099586363905573,0.04044379972124226,0.013262452850402187,0.0029810012486019173
483,3.0,300.15421000000003,165.1479,0.0,0.0,0.0,0.004898172393702159,0.0,0.0,-0.05343618392974074,-0.002813553259601088,0.006048900953605044,0.031806614715318475,0.008707058935469811,0.015622483572569087
484,3.0,299.32906,477.32850999999994,0.0,0.0,0.0,0.004908313537374419,0.0,0.0,-0.04270782600968426,-0.034383506290137866,-0.06800461584728303,0.04979234101287145,0.035653863536762365,-0.0030842487993416566
485,3.0,298.48041,603.6765,0.0,0.0,0.0,0.004918454681046681,0.0,0.0,-0.09646333672169011,-0.02119031212382098,-0.06584893436553385,0.07545180548526342,0.02127933222460658,0.021474606797128683
486,3.0,298.25171,480.74453,0.0,0.0,0.0,0.004928595824718943,0.0,0.0,-0.03965676378556786,-0.04783691118813555,-0.05864065694213224,0.05175239429781365,-0.013989091987365886,0.018052377889130982
487,3.0,299.23452000000003,139.85343,0.0,0.0,0.0,0.004938736968391204,0.0,0.0,-0.025492065423370975,0.008481784256636931,-0.02550166799456868,0.031032117749631574,-0.022074206663054582,0.026988859749343074
488,3.0,300.36182,257.79839,0.0,0.0,0.0,0.004948878112063466,0.0,0.0,-0.023411873100571978,-0.034287889931201264,-0.020664510302428378,0.04017010871023106,0.006420259445730274,0.012320461590184887
489,3.0,300.22208,473.12102999999996,0.0,0.0,0.0,0.004959019255735725,0.0,0.0,-0.057506113712411544,-0.03758276951363057,-0.04872809606183866,0.040946051583810664,0.016134570040608087,0.015891269439846183
490,3.0,301.21322999999995,326.2843,0.0,0.0,0.0,0.004969160399407987,0.0,0.0,0.0041990072062847465,-0.04568412050892166,-0.05769716708501704,0.044906053863132456,0.007497599539730463,-0.011630996572889988
491,3.0,299.49775,172.74081,0.0,0.0,0.0,0.0049793015430802485,0.0,0.0,-0.004859133465609135,-0.03097329655482637,-0.016676462273588682,0.04250210482863116,0.014174019249866788,-0.007345025960872623
492,3.0,300.04582999999997,249.96778999999998,0.0,0.0,0.0,0.004989442686752509,0.0,0.0,-0.012095681174750789,-0.025050557904297575,-0.03883772738523526,0.07315394778923252,0.02977524280883767,-0.016290466674493884
493,3.0,298.61672000000004,354.88944,0.0,0.0,0.0,0.004999583830424771,0.0,0.0,-0.04802293681374486,-0.04561474226132455,-0.014239849095613688,0.059512033789630436,0.027273755279960076,0.015597176638071485
494,3.0,299.70772,452.27053,0.0,0.0,0.0,0.0050097249740970315,0.0,0.0,-0.055382910949367745,-0.040648187465163764,-0.041447849510334256,0.03522901486258307,0.0025010791890872973,0.00024282526487498775
495,3.0,299.23868,502.47905999999995,0.0,0.0,0.0,0.005019866117769294,0.0,0.0,-0.07465104912998494,-0.05407038020708105,-0.024019659014055776,0.05135552348539554,-0.012365822770661688,0.016373213743910382
496,3.0,299.87391,292.1465,0.0,0.0,0.0,0.005030007261441555,0.0,0.0,-0.016359755756082183,-0.047555091884822154,-0.024890392447740474,0.040883744808661464,0.01378524329249759,-0.03371040830170827
497,3.0,299.44337,358.39459,0.0,0.0,0.0,0.005040148405113815,0.0,0.0,-0.015758340145977087,-0.035117342542561866,-0.05806732355854865,0.06319314100542743,0.011790501390381888,0.03178679149036207
498,3.0,301.81424,521.88914,0.0,0.0,0.0,0.005050289548786077,0.0,0.0,-0.020075402641287984,-0.08095548010643382,-0.057610383227202154,0.037696766229381166,-0.005521853543864515,-0.028014378281553873
499,3.0,300.64403,475.54166,0.0,0.0,0.0,0.0050604306924583375,0.0,0.0,-0.04420090373428955,-0.040272842137870066,-0.060079044492590036,0.04105975547028236,0.0015002523459133785,0.05571115331926275
500,3.0,300.91994,263.50178999999997,0.0,0.0,0.0,0.005070571836130599,0.0,0.0,-0.02298421265736518,-0.05110260308818425,-0.006011150091979324,0.06762637059820314,0.03368060557651697,-0.055674427056138155
501,3.0,300.20151,132.98386000000002,0.0,0.0,0.0,0.0050807129798028615,0.0,0.0,-0.026156294433675273,-0.014371473323353985,0.0001039944173884499,0.06822229439276623,0.03182695773757617,0.03116728936597197
502,3.0,299.65261,236.36321,0.0,0.0,0.0,0.0050908541234751204,0.0,0.0,-0.007624935997022592,-0.03329455526191677,-0.03092902157845677,0.025675713964245676,0.001969793860803518,-0.03204123378922357
503,3.0,299.10894,612.93292,0.0,0.0,0.0,0.005100995267147383,0.0,0.0,-0.06994868409864764,-0.05812259027200305,-0.05824502938758685,0.02950790487595347,-0.01103950473426429,0.03882042816627796
504,3.0,299.76581,599.31556,0.0,0.0,0.0,0.0051111364108196436,0.0,0.0,-0.042206720132978964,-0.07731057327695952,-0.06265967192052814,0.04659444365051355,0.03954226449776767,-0.007344170372488183
505,3.0,299.18486,356.73286,0.0,0.0,0.0,0.005121277554491905,0.0,0.0,-0.07482472627662552,-0.011420060193572189,-0.022193094337037877,0.04122878281221406,0.02205509575291848,0.07249447801464792
506,3.0,299.94301,379.21139,0.0,0.0,0.0,0.005131418698164167,0.0,0.0,-0.035442594811411765,-0.05422226133082054,-0.025605936496109177,0.014726587085900987,-0.011762567098374989,0.005688014502588324
507,3.0,299.14546,577.69734,0.0,0.0,0.0,0.005141559841836427,0.0,0.0,-0.09885861537508571,-0.03775932125080486,-0.038987630644779565,0.03007741830666007,-0.006577222221371294,0.012523907011513388
508,3.0,299.26853,548.54721,0.0,0.0,0.0,0.005151700985508689,0.0,0.0,-0.03956427836944026,-0.07209158343038534,-0.055088791803090446,0.055383731681948746,0.0018828272126705783,-0.02941732538326397
509,3.0,299.57384,122.89343000000001,0.0,0.0,0.0,0.005161842129180949,0.0,0.0,-0.023260812709413478,-0.026542070157498373,0.012446350822359188,0.07867757533137212,0.03150794506284207,-0.03855003933734266
510,3.0,300.81542,-111.94147,0.0,0.0,0.0,0.005171983272853211,0.0,0.0,0.06234421778014524,-0.01081511340686859,-0.017501691658532485,0.057012645714960036,0.016913125072945484,-0.012173150224396388
511,3.0,299.7714,86.104449,0.0,0.0,0.0,0.005182124416525473,0.0,0.0,-0.025006079264657876,-0.04744739961119375,0.04627987610396816,0.05501831113938454,0.016840555087533383,-0.021282960673214682
512,3.0,299.75124,401.89038999999997,0.0,0.0,0.0,0.005192265560197733,0.0,0.0,-0.03097038548728907,-0.037839328491950965,-0.05335492735122135,0.06913915401075323,0.03740062970215476,-0.009479706821049221
513,3.0,299.55247,411.86262999999997,0.0,0.0,0.0,0.005202406703869995,0.0,0.0,-0.07132519043899822,-0.03274785414396157,-0.02112291174041908,0.06013841892194984,0.026796557039364274,-0.005539978359003295
514,3.0,300.42196,205.88201,0.0,0.0,0.0,0.005212547847542256,0.0,0.0,0.022208200882778778,-0.04911343102186825,-0.03567776104037086,0.06043755061647185,0.01119356434571879,-0.010196710658836991
515,3.0,299.90463,207.6426,0.0,0.0,0.0,0.005222688991214517,0.0,0.0,-0.03617583729927717,0.013520599591629287,-0.040462926843379966,0.03301920150749147,-0.01093942602188729,0.008114784462466872
516,3.0,299.26466,498.87759000000005,0.0,0.0,0.0,0.005232830134886778,0.0,0.0,-0.027382341240176678,-0.06460494188651134,-0.05965904827313965,0.05844539452861135,0.04096695392012356,-0.002878217057132907
517,3.0,298.35927000000004,471.0162,0.0,0.0,0.0,0.005242971278559039,0.0,0.0,-0.1031943855069929,-0.003643361420421777,-0.03633942044842156,0.028440805599388972,0.01781503418570698,0.02879789317313077
518,3.0,299.10159,260.66209,0.0,0.0,0.0,0.005253112422231301,0.0,0.0,-0.02259153974011138,-0.0018089291603524084,-0.05483429884172395,0.03837996226830736,-0.015420321939117286,0.020135759923244782
519,3.0,299.94894,92.943984,0.0,0.0,0.0,0.005263253565903562,0.0,0.0,-0.029692169472888972,-0.017682820246408482,0.01912233959722798,0.024859624095203873,-0.04240069673212296,-0.006125452809260124
520,3.0,299.71839,323.17093,0.0,0.0,0.0,0.005273394709575823,0.0,0.0,-0.017952529184526684,-0.013570800054583687,-0.06671256288951734,0.06410792042095914,0.007153280335798803,-0.019270905366640282
521,3.0,300.5257,632.41898,0.0,0.0,0.0,0.005283535853248085,0.0,0.0,-0.09134743088728951,-0.03932199101877836,-0.06157015549875124,0.06457372669068065,0.04133054858600756,-0.0047091576573576755
522,3.0,300.40268,511.33806,0.0,0.0,0.0,0.0052936769969203455,0.0,0.0,-0.04252222594911696,-0.05305304062967745,-0.05985873554984724,0.05425027668283545,0.028537318684664074,0.018009687635917784
523,3.0,299.81227,93.089738,0.0,0.0,0.0,0.005303818140592606,0.0,0.0,-0.02400936236653958,0.005158600849889265,-0.00944619468856683,0.05399890453177694,0.027347881617525775,0.02805981140278777
524,3.0,300.12611,211.98581000000001,0.0,0.0,0.0,0.005313959284264867,0.0,0.0,0.0011647189322738088,-0.053567415016442244,-0.012035695755580687,0.04763823412177766,0.04110413683791246,0.017933429420141683
525,3.0,300.73485,466.78384000000005,0.0,0.0,0.0,0.005324100427937129,0.0,0.0,-0.06832677770332794,-0.021337169553564683,-0.05222668451062244,0.06654743149422014,0.021236340022863582,0.02081173250220808
526,3.0,300.63961,528.90512,0.0,0.0,0.0,0.005334241571609391,0.0,0.0,-0.04776305032209605,-0.05448648858589775,-0.05852441081115964,0.03208936519547377,-0.026826812687350272,-0.002005530887855488
527,3.0,300.63594,326.75932,0.0,0.0,0.0,0.005344382715281652,0.0,0.0,-0.023416240208502977,-0.04413679236071226,-0.031773640517314176,0.04046784313286517,-0.03530111267344856,-0.002271633668867788
528,3.0,299.38437999999996,40.886373999999996,0.0,0.0,0.0,0.005354523858953913,0.0,0.0,-0.01052855918583789,0.015945619161960085,-0.017845496536713384,0.05556400508674035,0.007244193694396253,-0.03057435060620347
529,3.0,299.44852000000003,230.40419,0.0,0.0,0.0,0.005364665002626174,0.0,0.0,-0.008683404510560303,-0.03587697816903207,-0.025476740015608474,0.058367365151660446,0.028878588411094773,0.0034199576065735366
530,3.0,300.35809,391.0818,0.0,0.0,0.0,0.0053748061462984345,0.0,0.0,-0.061647953854679347,-0.02361567518593568,-0.033615473860088965,0.05044523986055755,0.01230865621326979,-0.023188470705273877
531,3.0,299.30432,480.86518,0.0,0.0,0.0,0.005384947289970696,0.0,0.0,-0.04431952897649696,-0.04594689172360516,-0.055904587829603246,0.05670354059970374,-0.011881713151133788,0.02949644603057257
532,3.0,299.71339,204.31988,0.0,0.0,0.0,0.005395088433642958,0.0,0.0,-0.0056028039182036945,-0.05828958908723454,0.0017842511501918782,0.09319291497017461,0.02614159116147418,-0.04085058417263876
533,3.0,299.94886,183.14042,0.0,0.0,0.0,0.005405229577315219,0.0,0.0,-0.03137902621286877,-0.005566917335436964,-0.01872417182468188,0.08353676513368682,0.03137866853558347,0.032975645938692864
534,3.0,299.98679,401.30086,0.0,0.0,0.0,0.00541537072098748,0.0,0.0,-0.05231926517225945,-0.04211331569901066,-0.027552860086255574,0.03106638384151337,0.004497544629623096,0.0015312955932021085
535,3.0,301.07707999999997,585.45147,0.0,0.0,0.0,0.005425511864659741,0.0,0.0,-0.06813747320039504,-0.05906926274768235,-0.05075589322196665,0.03326184856193887,-0.003163015417065317,0.03577416672113536
536,3.0,301.06295,387.15925,0.0,0.0,0.0,0.005435653008332002,0.0,0.0,-0.03972924359172106,-0.032334012405618576,-0.04562348863618776,0.012414188237684988,0.043799848198958456,0.0034225428128786765
537,3.0,300.35093,301.29778,0.0,0.0,0.0,0.005445794152004263,0.0,0.0,-0.034354806994305466,-0.04386422504406196,-0.013367968662815788,0.05163666289789186,0.03611474743749807,0.02287530853661718
538,3.0,299.77993,363.3712,0.0,0.0,0.0,0.005455935295676524,0.0,0.0,-0.025199405357237678,-0.03026642694056377,-0.05498993912333444,0.015424854206814585,-0.01984599065964678,-0.0025349224517023676
539,3.0,299.32597000000004,568.86177,0.0,0.0,0.0,0.005466076439348785,0.0,0.0,-0.06787415787040785,-0.06542872232381214,-0.03961689138088276,0.045022793446903756,-0.022618641140536078,-0.004023908773728876
540,3.0,298.80373,602.20093,0.0,0.0,0.0,0.0054762175830210475,0.0,0.0,-0.05480824108890224,-0.08152433391132533,-0.04672147177580026,0.06248473631726334,0.015299748216967588,-0.025115121187419476
541,3.0,299.33007000000003,369.44809,0.0,0.0,0.0,0.005486358726693309,0.0,0.0,-0.04958076831249086,-0.03389764881418747,-0.02882457508801407,0.0950538896205885,0.022036743767107278,0.006252429664091764
542,3.0,299.62607,50.742901,0.0,0.0,0.0,0.00549649987036557,0.0,0.0,0.009037844259140781,-0.044107069682278864,0.01964464975877598,0.057031801208100544,0.010247808861379989,0.010710282551522591
543,3.0,300.25494,263.93207,0.0,0.0,0.0,0.00550664101403783,0.0,0.0,-0.013006793638170588,-0.03947966185358926,-0.027742304417702274,0.025847782069727473,-0.011185715710444188,0.012721498887014187
544,3.0,300.06939,539.1666700000001,0.0,0.0,0.0,0.005516782157710091,0.0,0.0,-0.02650328294367037,-0.05903455893175735,-0.07835536483932241,0.05549263580269674,0.04857772670724836,0.01085703359000579
545,3.0,300.71457000000004,356.25752,0.0,0.0,0.0,0.005526923301382353,0.0,0.0,-0.04283491594322706,-0.05212198537778945,-0.013336489008708988,0.04329432961806766,0.043900564245648366,-0.004711545989168385
546,3.0,300.21236,148.53146999999998,0.0,0.0,0.0,0.005537064445054615,0.0,0.0,-0.007014344495336903,-0.015978223523677886,-0.02215728911825418,0.05779564182248575,0.023578270045244078,0.021456975232138582
547,3.0,300.23776000000004,320.75459,0.0,0.0,0.0,0.005547205588726876,0.0,0.0,-0.057593454857781445,-0.03409243905316177,-0.005815492510919425,0.009884118240711521,-0.012169231986259688,-0.003974758949803167
548,3.0,299.77962,649.0892299999999,0.0,0.0,0.0,0.005557346732399137,0.0,0.0,-0.06607503301934803,-0.05189243052788415,-0.07933945258819433,0.05083238752501605,0.015427315391307485,0.024695102676466876
549,3.0,299.30856,552.47265,0.0,0.0,0.0,0.005567487876071398,0.0,0.0,-0.06247765673881465,-0.050330396067723354,-0.05512983856464145,0.058087363619026444,0.0043347211140786655,-0.009218168529087401
550,3.0,299.20635,422.13799000000006,0.0,0.0,0.0,0.005577629019743659,0.0,0.0,-0.016355281243640586,-0.043373392510120554,-0.06859073340737834,0.06457875139792653,-0.010968250960732092,0.022600218227217878
551,3.0,299.74769,328.42982,0.0,0.0,0.0,0.00558777016341592,0.0,0.0,-0.05980277982632484,-0.02164563226825758,-0.018386052292812084,0.041446730882223864,-0.005834796242549555,-0.02852225874842777
552,3.0,298.32972,454.6016,0.0,0.0,0.0,0.005597911307088181,0.0,0.0,-0.052760852738090745,-0.05449496340973416,-0.03093171885022297,0.043302021199576754,0.03242942206153477,0.01810133205446238
553,3.0,298.83853,390.61163999999997,0.0,0.0,0.0,0.0056080524507604425,0.0,0.0,-0.07667588557332072,-0.02850544588951847,-0.013554853524509886,0.06075558145185904,0.04905278800338325,-0.009028248780693781
554,3.0,300.33484,258.32977,0.0,0.0,0.0,0.005618193594432703,0.0,0.0,-0.024621953111997576,-0.01009746848574255,-0.04380637859585296,0.057765506751261644,0.02182345867405768,0.04573554396474675
555,3.0,300.17907,61.201108999999995,0.0,0.0,0.0,0.005628334738104966,0.0,0.0,0.01097895594803859,-0.015073824855420685,-0.014508740340901187,0.050802618237078045,0.006441610043887414,-0.020669684970689082
556,3.0,300.52969,387.31062000000003,0.0,0.0,0.0,0.005638475881777226,0.0,0.0,-0.007464502535814044,-0.03344894316640367,-0.07681931315147593,0.06874628148322974,0.019065178106086583,0.006814099424449254
557,3.0,300.67694,689.44637,0.0,0.0,0.0,0.005648617025449487,0.0,0.0,-0.07453491445652333,-0.054303120715300746,-0.08073644583231682,0.06316642565329084,0.018887225044023983,-0.015248424059652285
558,3.0,300.13485,458.78031,0.0,0.0,0.0,0.005658758169121749,0.0,0.0,-0.05260440894915096,-0.05858211844410494,-0.028271231102403274,0.06354754346640425,-0.0019096755032202981,-0.004395118014114375
559,3.0,300.97179,225.48549,0.0,0.0,0.0,0.005668899312794009,0.0,0.0,-0.06211447142597104,-0.006431408743205624,3.921601519081936e-06,0.049916788390153455,-0.01727109518752438,-0.003929477106809197
560,3.0,299.94787,177.96256,0.0,0.0,0.0,0.005679040456466271,0.0,0.0,-0.02185450465712168,-0.020822994777069583,-0.01141867609393559,0.061746782216432934,0.03152210928598997,0.005060484093680896
561,3.0,298.67069,415.402,0.0,0.0,0.0,0.005689181600138533,0.0,0.0,-0.04209464251291776,-0.029162582149122773,-0.05501460973676924,0.06296327306124125,0.033931904773568264,0.0025153730069229874
562,3.0,298.60764,592.31606,0.0,0.0,0.0,0.005699322743810794,0.0,0.0,-0.05014413942109125,-0.03193590745457867,-0.0979692442190616,0.052597095309929155,0.016145368246923784,-0.0039951980281703455
563,3.0,299.58299,239.4131,0.0,0.0,0.0,0.005709463887483055,0.0,0.0,-0.02258971386343118,-0.032753584073277074,-0.017432307331434783,0.06692994049972084,0.018322475915287583,0.004219642753846316
564,3.0,299.24703999999997,-34.061253,0.0,0.0,0.0,0.005719605031155315,0.0,0.0,-0.0003245358908966987,0.014351570051639687,-0.003673263646772897,0.08040788732839063,0.027351161508099475,-0.018210200711456882
565,3.0,300.83758,351.9268,0.0,0.0,0.0,0.005729746174827577,0.0,0.0,-0.053660946106673046,-0.02472212403013368,-0.028593890464247273,0.06741754076584323,0.04073990686421576,0.021944543074257777
566,3.0,300.24242999999996,569.9160400000001,0.0,0.0,0.0,0.005739887318499838,0.0,0.0,-0.07734608566646432,-0.04501700069608205,-0.05087716000718475,0.04106079101188456,-0.005126094165481105,-0.00013013280465310788
567,3.0,299.55555,663.2538099999999,0.0,0.0,0.0,0.005750028462172099,0.0,0.0,-0.051202953351588046,-0.05135659145100095,-0.0990530540162753,0.05046508841676645,-0.011220166213844189,0.019015567354690382
568,3.0,300.20353,329.45779,0.0,0.0,0.0,0.0057601696058443615,0.0,0.0,-0.03455976823778357,-0.03079265837999877,-0.034794514981201265,0.04581062681040686,0.005483732238002235,-0.01839388876908548
569,3.0,300.11516,373.73666000000003,0.0,0.0,0.0,0.005770310749516622,0.0,0.0,-0.03668749009627337,-0.03074045877459707,-0.046178665591229455,0.06394180515981485,0.015467038848227884,0.018037572278669783
570,3.0,300.63347999999996,666.7687599999999,0.0,0.0,0.0,0.005780451893188883,0.0,0.0,-0.09619259325521981,-0.058891752475913446,-0.047596709106179455,0.04185316677558596,-0.012190951002153188,0.006858949318925594
571,3.0,300.57672,584.8635400000001,0.0,0.0,0.0,0.0057905930368611445,0.0,0.0,-0.07656951255132252,-0.05852526092799354,-0.04268913762483986,0.04978429479382736,0.012226302284892089,0.009227382012246701
572,3.0,300.61704,255.2196,0.0,0.0,0.0,0.005800734180533405,0.0,0.0,-0.037368835940516966,-0.002813938497289107,-0.03739761021685676,0.06540199278617415,0.04080164824580916,0.0043956171411136365
573,3.0,300.64096,59.237464,0.0,0.0,0.0,0.005810875324205667,0.0,0.0,0.022996026140281078,-0.03180482632889197,-0.009197910315863072,0.05873136511758445,0.04820917116887475,-0.012960456697847489
574,3.0,300.31712999999996,26.401434000000002,0.0,0.0,0.0,0.005821016467877927,0.0,0.0,0.016757749249611084,-0.02209452739381008,-0.0026885983453439977,0.05516831471068875,0.0025023549722882074,-0.03009969258360837
575,3.0,299.58239,439.75847000000005,0.0,0.0,0.0,0.005831157611550189,0.0,0.0,-0.03933961853076807,-0.047287436804656656,-0.04704853776232915,0.05266578860045865,-0.001999326149543128,-0.015200635131935885
576,3.0,299.42446,548.33003,0.0,0.0,0.0,0.00584129875522245,0.0,0.0,-0.06099793162402715,-0.06954026122183943,-0.03614044346003406,0.08220211818146742,0.010824215432516889,-0.012118890681541388
577,3.0,299.06979,138.13102,0.0,0.0,0.0,0.00585143989889471,0.0,0.0,-0.030348707914934266,-0.013701699808502485,0.002062027788256298,0.08112614587377723,0.016715573727448682,0.015099588765713384
578,3.0,300.40201,222.29285,0.0,0.0,0.0,0.005861581042566973,0.0,0.0,0.01183515430903879,-0.04193270893493616,-0.03747392112163807,0.05703892030330315,-0.006594968992897764,0.011999057645214788
579,3.0,300.66242,521.74192,0.0,0.0,0.0,0.0058717221862392335,0.0,0.0,-0.048011155754832155,-0.06564244919390534,-0.04494290880901975,0.04334389173345905,0.014098606084674089,0.006271132031787545
580,3.0,300.17329,643.07507,0.0,0.0,0.0,0.005881863329911495,0.0,0.0,-0.06376066137318735,-0.05645740695166225,-0.07526069435740222,0.049579617260377254,0.02942641119691067,0.023389670764380775
581,3.0,301.04294,413.97085,0.0,0.0,0.0,0.005892004473583757,0.0,0.0,-0.06729516852476604,-0.04293080385319046,-0.015610829169918886,0.04441258586568096,0.03772426077084467,-0.007753892742549632
582,3.0,301.25971,135.32041,0.0,0.0,0.0,0.005902145617256017,0.0,0.0,-0.03261316990091927,-0.013441662342588789,0.004920807364745875,0.05360346341524995,-0.007104657199275073,0.03705064906461436
583,3.0,301.71332,237.81902999999997,0.0,0.0,0.0,0.005912286760928278,0.0,0.0,-0.04072777522076846,-0.016725460008674385,-0.014837812562628087,0.03935157285544786,0.0023703998170652475,0.005552977141886175
584,3.0,301.28326,730.21232,0.0,0.0,0.0,0.005922427904600539,0.0,0.0,-0.03446467066289817,-0.1000951776911249,-0.08740646352434632,0.07314054654340993,0.031321280076419676,0.026569364075442078
585,3.0,300.21828,801.87195,0.0,0.0,0.0,0.005932569048272801,0.0,0.0,-0.08305624039301272,-0.07803808988850983,-0.08265472078913583,0.06206463471980254,0.062427666018630944,-0.02260172999636708
586,3.0,299.6509,391.46777000000003,0.0,0.0,0.0,0.005942710191945063,0.0,0.0,-0.017635810508018983,-0.05486115098262405,-0.04649946563913995,0.051840775037786155,0.02134794040212768,0.004384225170239336
587,3.0,300.28285,70.24601,0.0,0.0,0.0,0.005952851335617323,0.0,0.0,-0.022254922858139875,-0.04347825072321926,0.04438014159747896,0.029906969374838072,0.004597653232878045,-0.04397042784004336
588,3.0,299.93164,404.80037000000004,0.0,0.0,0.0,0.005962992479289585,0.0,0.0,-0.04082637965424996,-0.04035971516169376,-0.04186310878556716,0.04290651219529305,0.028068756374670576,0.04160971216080886
589,3.0,299.53378,599.17676,0.0,0.0,0.0,0.0059731336229618456,0.0,0.0,-0.08271902468023212,-0.05620136675739305,-0.04321438317192756,0.05196122413017355,0.001082561371765489,0.009175220910348803
590,3.0,299.50666,410.59197,0.0,0.0,0.0,0.005983274766634106,0.0,0.0,-0.0024063308815113677,-0.04983427234175975,-0.07256910287126284,0.05294156791992596,-0.04401803032974136,0.03006905190058437
591,3.0,300.13579,158.25335,0.0,0.0,0.0,0.005993415910306369,0.0,0.0,-0.014136738738937487,-0.024941796651813678,-0.009026532638999411,0.06662462190008824,-0.023454418459020878,-0.016472143430673984
592,3.0,300.09137999999996,502.27109,0.0,0.0,0.0,0.006003557053978629,0.0,0.0,-0.04004827045195656,-0.07414087567813472,-0.038488722507541165,0.098910263772433,0.01112343122679719,-0.027561384559346872
593,3.0,300.35339,697.39714,0.0,0.0,0.0,0.006013698197650891,0.0,0.0,-0.11085221565526189,-0.04876437852141945,-0.05237472845623325,0.1009837392603191,0.06715141974632914,-0.01074364077131479
594,3.0,300.68895,463.67635,0.0,0.0,0.0,0.006023839341323152,0.0,0.0,-0.059218083856119846,-0.04173157575033586,-0.03999637279508466,0.07178169912580212,0.008097704814806242,-0.02238136329836858
595,3.0,301.15562,153.49778,0.0,0.0,0.0,0.006033980484995413,0.0,0.0,0.004688841688877646,-0.02789467190148977,-0.023453663587696377,0.06540571546704153,0.008522529272308153,0.005798964780588264
596,3.0,301.0349,-71.370595,0.0,0.0,0.0,0.006044121628667674,0.0,0.0,0.04708308452448866,0.008709992699809353,-0.03409819836673017,0.05671463670154885,0.03150260016856457,-0.0021535529472641282
597,3.0,301.50075,347.54015,0.0,0.0,0.0,0.0060542627723399346,0.0,0.0,-0.03590946094073786,-0.043129062447257054,-0.02660500616095968,0.06435255141910234,0.026140055074322575,0.024215719868655478
598,3.0,301.22436,735.6789,0.0,0.0,0.0,0.006064403916012196,0.0,0.0,-0.1050427563394129,-0.06844509086450454,-0.050140173560199855,0.04080090148048546,-0.008809213088026643,-0.01325204271887479
599,3.0,300.16282,427.68816,0.0,0.0,0.0,0.006074545059684457,0.0,0.0,-0.08388906611395622,-0.04125221624727676,-0.004865239108061715,0.020915360629685378,0.0002883688911647937,0.016417290123260382
600,3.0,300.37029,253.75021,0.0,0.0,0.0,0.006084686203356719,0.0,0.0,-0.04131394141686857,-0.04560298248066395,0.00978319518702619,0.059275481434534545,0.016370107119103784,-0.011751101160243388
601,3.0,300.1305,484.70930999999996,0.0,0.0,0.0,0.006094827347028981,0.0,0.0,-0.030312549071865674,-0.013323813249957987,-0.1037031586472049,0.062425747936191635,0.04257363623269076,0.034953170695109365
602,3.0,300.06674,535.5418599999999,0.0,0.0,0.0,0.0061049684907012415,0.0,0.0,-0.033421993753493966,-0.04023080441772126,-0.08913855478854042,0.05669333413144644,-0.023363209738019277,0.004773785889810985
603,3.0,300.09272999999996,373.6036,0.0,0.0,0.0,0.006115109634373502,0.0,0.0,-0.009692637783188872,-0.033654861931226264,-0.07021866560104273,0.06203628094225423,-0.021596024556611682,-0.008627755801818201
604,3.0,298.91696,-27.309516,0.0,0.0,0.0,0.006125250778045763,0.0,0.0,-0.022786072613560276,0.015970583617923886,0.015116900143671884,0.08539352770343502,0.02014632102903708,-0.027960128871199877
605,3.0,299.01232999999996,88.47535699999999,0.0,0.0,0.0,0.006135391921718024,0.0,0.0,-0.03394232402434657,-0.031358294102572674,0.03840631892990856,0.09467602028729571,0.041698114179033456,-0.014406470981807987
606,3.0,301.04927999999995,428.76131,0.0,0.0,0.0,0.006145533065390287,0.0,0.0,-0.07551582363983152,-0.025215175581794078,-0.029601732848463572,0.04987203921273705,-0.008911362478308002,-0.009375296768469751
607,3.0,300.79735,554.66465,0.0,0.0,0.0,0.0061556742090625475,0.0,0.0,-0.04374923838296366,-0.04493914661139846,-0.07991581862932721,0.03864368087183436,0.006199621500680004,0.01976140048829838
608,3.0,301.03033999999997,362.9185,0.0,0.0,0.0,0.006165815352734809,0.0,0.0,-0.025397020537490773,-0.034155657753400966,-0.05076548464741325,0.06273456528841953,0.03688081821535336,0.02090112446578038
609,3.0,300.46303,205.35815,0.0,0.0,0.0,0.00617595649640707,0.0,0.0,-0.02010450622391028,0.006368369894859175,-0.04868761165409315,0.07012944994298784,0.04231270913318926,0.02975580867191967
610,3.0,300.16364,461.36787999999996,0.0,0.0,0.0,0.0061860976400793305,0.0,0.0,-0.06386109978934984,-0.05959123245719675,-0.016791984943989882,0.04135388576231076,-0.013794579378918986,-0.00903115083030519
611,3.0,299.95976,820.73041,0.0,0.0,0.0,0.006196238783751592,0.0,0.0,-0.12283210463508487,-0.07289383128981103,-0.05375561811651645,0.02965864913308077,-0.009702547774466911,-0.013688863956235687
612,3.0,299.86595,552.4284,0.0,0.0,0.0,0.006206379927423853,0.0,0.0,-0.05015190193010736,-0.04243712408646806,-0.07533541243302633,0.053711118198624654,0.05988136446433053,-0.0065348524591647235
613,3.0,299.20923,46.535965000000004,0.0,0.0,0.0,0.006216521071096115,0.0,0.0,0.02158928543019658,-0.026840701306470975,-0.008894355278029523,0.08286597938198542,0.05880236861834195,-0.014525398172545187
614,3.0,299.95269,-9.2133632,0.0,0.0,0.0,0.006226662214768376,0.0,0.0,0.038265850042045364,0.00992473254711984,-0.04538994968688926,0.06503611324131464,-0.01070737655023579,0.016983216648612985
615,3.0,299.15666,239.66837,0.0,0.0,0.0,0.006236803358440637,0.0,0.0,-0.034722768768120464,-0.03233265363723447,-0.005797777251471064,0.07875713572922413,-0.022732508160273876,-0.007876681834717972
616,3.0,298.50709,400.29881,0.0,0.0,0.0,0.006246944502112898,0.0,0.0,-0.045716577949374955,-0.050110460001017355,-0.025853804828321874,0.08547331304280922,0.015326476741355484,0.007852637612494993
617,3.0,298.99366000000003,349.91839,0.0,0.0,0.0,0.006257085645785159,0.0,0.0,-0.08852171649866322,-0.015518194806026585,-0.0023265415904617777,0.06725210944851644,0.035909703107511765,-0.01924527419211068
618,3.0,299.53807,405.42851,0.0,0.0,0.0,0.00626722678945742,0.0,0.0,-0.012800005504762187,-0.06219759137142434,-0.04824254458741845,0.029608913751922268,-0.023572449936669678,0.014762708438715884
619,3.0,299.17728,362.35844,0.0,0.0,0.0,0.006277367933129681,0.0,0.0,-0.03037571103009927,-0.029332398812882375,-0.05043980884002155,0.022253472897246777,-0.0024207515582595775,-0.004169271862225096
620,3.0,299.6831,594.8407,0.0,0.0,0.0,0.0062875090768019426,0.0,0.0,-0.03157399681036087,-0.05007283194530375,-0.0991698908720562,0.037467097895464666,0.03942355819555226,0.032196745388071366
621,3.0,300.33355,487.47020999999995,0.0,0.0,0.0,0.006297650220474205,0.0,0.0,-0.06937152670918664,-0.05030539412150585,-0.028501848851663476,0.058377227114883745,0.05200569162406215,-0.006738270522740524
622,3.0,299.90738,219.86988,0.0,0.0,0.0,0.006307791364146466,0.0,0.0,-0.03151719502300497,-0.01718684344170938,-0.01813091490438198,0.04426817543492876,-0.0016329443366090584,0.010941326879074889
623,3.0,299.95649,250.86628,0.0,0.0,0.0,0.006317932507818726,0.0,0.0,-0.05121747727852145,-0.05102700956447375,0.025987403880507076,0.06585137427177463,-0.008000521971215042,-0.038426423838392766
624,3.0,300.3683,545.48228,0.0,0.0,0.0,0.006328073651490987,0.0,0.0,-0.029165279420888975,-0.05150523524067095,-0.08514247776590832,0.08664553499074852,0.04853415593969825,0.013140524412868788
625,3.0,300.05895,452.76530999999994,0.0,0.0,0.0,0.006338214795163249,0.0,0.0,-0.017179632140747685,-0.05327568410065065,-0.06717403042231064,0.08242972455143042,0.037492656115987066,-0.011985284536605488
626,3.0,300.89536,282.72742999999997,0.0,0.0,0.0,0.00634835593883551,0.0,0.0,0.017603711758101086,-0.051527142721083045,-0.05201865007959105,0.06836513124611314,-0.004944750261958855,0.01017891900033109
627,3.0,299.71907999999996,291.56877000000003,0.0,0.0,0.0,0.006358497082507771,0.0,0.0,-0.03816089557018716,-0.035867217530818764,-0.014601513520057185,0.059146243410779745,-0.014436514860523088,-0.008360659934382892
628,3.0,299.7667,591.06698,0.0,0.0,0.0,0.006368638226180033,0.0,0.0,-0.07345957137714522,-0.07596817293497492,-0.030241857652138975,0.0917165690444706,0.04334468409503726,0.002137321389937198
629,3.0,299.5194,595.7228,0.0,0.0,0.0,0.006378779369852294,0.0,0.0,-0.0916649338193746,-0.07115199762590543,-0.018267922529903585,0.059560289825642945,0.01797441538668668,-0.011424638057523988
630,3.0,299.34677,396.47071,0.0,0.0,0.0,0.006388920513524555,0.0,0.0,-0.01060580228071119,-0.045968740435511454,-0.06394265223689843,0.04428506530084566,-0.007843371440330493,0.006291570907504704
631,3.0,298.37901,220.71331,0.0,0.0,0.0,0.006399061657196816,0.0,0.0,-0.0035223420708780963,-0.03098558018578867,-0.03258341277198246,0.03691018017675116,-0.013537580650055185,-0.010198280183241891
632,3.0,299.44912,273.84677999999997,0.0,0.0,0.0,0.006409202800869077,0.0,0.0,-0.014721377967136887,-0.007317291583110452,-0.06120391219710585,0.07861823737901592,0.05998198222576075,0.011739965541644387
633,3.0,300.12087,364.34292,0.0,0.0,0.0,0.0064193439445413385,0.0,0.0,-0.051474872188174356,-0.036082507845816264,-0.023193770003296876,0.07213499005141923,0.051809532484202746,0.007850123840321903
634,3.0,300.9855,389.471,0.0,0.0,0.0,0.006429485088213599,0.0,0.0,-0.07293535529215914,-0.03384273977801837,-0.01161136282570229,0.05793336378932785,0.0002603610574656358,0.002923618767613707
635,3.0,299.95061,379.97078,0.0,0.0,0.0,0.006439626231885861,0.0,0.0,-0.04765067480650546,-0.04194704439735096,-0.025903910045766875,0.05894557125497494,-0.008833434527692112,-0.00848540814561958
636,3.0,299.59075,335.80334,0.0,0.0,0.0,0.006449767375558122,0.0,0.0,-0.004960535178641705,-0.05483745308928525,-0.042277841170748065,0.0962036944233154,0.024875824951052772,0.012117152957619887
637,3.0,300.42475,586.6074,0.0,0.0,0.0,0.006459908519230383,0.0,0.0,-0.018456696089784085,-0.06545270899342943,-0.09440459591675822,0.09250215603250202,0.022212290360182376,0.0018442125553346082
638,3.0,301.0161,587.87804,0.0,0.0,0.0,0.0064700496629026445,0.0,0.0,-0.05390429129043935,-0.05927087317307975,-0.06552508139507203,0.04234522432889826,-0.018600477292224183,0.01992352050429838
639,3.0,300.64089,360.85372,0.0,0.0,0.0,0.006480190806574905,0.0,0.0,-0.04852750496604186,-0.03893716065729856,-0.02222585575252118,0.054195655409694746,-0.012574463125252887,-0.004026360838970876
640,3.0,301.10194,216.3558,0.0,0.0,0.0,0.006490331950247167,0.0,0.0,-0.04806260352865966,-0.007222681786823193,-0.010481475480191089,0.06243821496542203,0.03205123051471017,0.025920359147890273
641,3.0,299.85618999999997,281.3682,0.0,0.0,0.0,0.006500473093919428,0.0,0.0,-0.017099404011079785,-0.05284016590291835,-0.015589337122047785,0.07968747258679122,0.018016276801318083,0.0013925593630099088
642,3.0,299.85847,313.66397,0.0,0.0,0.0,0.006510614237591689,0.0,0.0,-0.021080070512940977,-0.004995350958702756,-0.06927059281372523,0.03829576118499736,0.009892639674052522,-0.004356898220342376
643,3.0,299.63029,390.48186,0.0,0.0,0.0,0.00652075538126395,0.0,0.0,-0.023654332703750877,-0.05016490800839095,-0.044877493382563756,0.06308975707122425,0.003807550695775996,-0.004598326436244486
644,3.0,299.93519,178.78478,0.0,0.0,0.0,0.00653089652493621,0.0,0.0,0.0007128858069963513,-0.03234135137609287,-0.022717641754806683,0.07835680669421471,0.03966663892104246,-0.03233393134561057
645,3.0,299.20822999999996,231.70187,0.0,0.0,0.0,0.006541037668608473,0.0,0.0,-0.05395161007010935,-0.03557670656814756,0.01909673476720098,0.09834921503306181,0.04940389841478515,0.0006340075797741764
646,3.0,300.55607000000003,646.59545,0.0,0.0,0.0,0.006551178812280734,0.0,0.0,-0.08502471378628591,-0.08026105219014912,-0.031263105335178266,0.07465694624556693,0.01176346889096399,-0.004142446471127636
647,3.0,300.69082000000003,571.81938,0.0,0.0,0.0,0.006561319955952995,0.0,0.0,-0.07668123148084834,-0.027809369415321073,-0.06932821128066173,0.07827661301505022,0.0035520702208620366,0.02245595167797988
648,3.0,301.27182999999997,225.73342000000002,0.0,0.0,0.0,0.006571461099625257,0.0,0.0,0.014134937180259686,-0.017186030815129184,-0.06556623049488314,0.06249499750102604,0.01115798913470779,0.02038161188775848
649,3.0,301.57839,175.72803000000002,0.0,0.0,0.0,0.006581602243297517,0.0,0.0,-0.004460644290131316,-0.010230847054705991,-0.03872544306215367,0.07394490702929414,-0.008085470225148782,0.030489569943836267
650,3.0,300.12234,417.91876,0.0,0.0,0.0,0.00659174338696978,0.0,0.0,-0.04603429569048126,-0.005836194629012564,-0.07516637698509383,0.03629911437269367,-0.009101330356081372,0.02176251370704288
651,3.0,299.60345,453.64294,0.0,0.0,0.0,0.00660188453064204,0.0,0.0,-0.097510337169271,-0.03836379586296187,-0.002021992554280128,0.045130142228748255,0.011545067898159489,-0.0052254991678666145
652,3.0,300.51457999999997,393.06358,0.0,0.0,0.0,0.006612025674314301,0.0,0.0,-0.06842164121744022,-0.018986686687090085,-0.03207318663112707,0.04042161562355286,0.04666196461067736,0.015031091032453184
653,3.0,299.89862,145.66772,0.0,0.0,0.0,0.006622166817986563,0.0,0.0,-0.021427207970700777,-0.0017052249377925985,-0.02114691664853818,0.04645711583796036,0.03997982743420176,-0.026307338612832173
654,3.0,299.50883,137.65833999999998,0.0,0.0,0.0,0.006632307961658823,0.0,0.0,0.03471025107638507,-0.029688599792786673,-0.04686634728834836,0.047314544284581955,0.005245221473113055,0.008739369454658611
655,3.0,300.06498,387.63759,0.0,0.0,0.0,0.006642449105331085,0.0,0.0,-0.029633347264833673,-0.026606295015086875,-0.06159250576945703,0.050651979357961154,0.006575122767164093,-0.032543306306524265
656,3.0,299.32866,648.49219,0.0,0.0,0.0,0.0066525902490033465,0.0,0.0,-0.05656956563173144,-0.06354436490084053,-0.07701150339069364,0.08059843610244632,0.01974738825266548,0.013047553649943287
657,3.0,299.52521,374.69304,0.0,0.0,0.0,0.006662731392675606,0.0,0.0,-0.09008516950896402,-0.05462454391202274,0.030812384332945572,0.08096655594327692,-0.0003989857997493326,-0.028577158665345975
658,3.0,299.81726000000003,140.59523000000002,0.0,0.0,0.0,0.006672872536347868,0.0,0.0,-0.02360949436032568,-0.013807777974721588,-0.005320167226034625,0.07408371216049313,0.02112388040751468,0.02323909977302058
659,3.0,299.3956,371.26354,0.0,0.0,0.0,0.006683013680020129,0.0,0.0,-0.030701823548284074,-0.05087948034991375,-0.031273540797958174,0.07756777668234352,0.02063453735122028,-0.011134548606894388
660,3.0,300.08252999999996,515.32756,0.0,0.0,0.0,0.006693154823692391,0.0,0.0,0.0017442520892442786,-0.06452527408414874,-0.09386568973182231,0.07105880090820764,0.048433482449512545,0.02052316596647878
661,3.0,300.2413,296.3481,0.0,0.0,0.0,0.0067032959673646525,0.0,0.0,-0.007142374623647493,-0.029447789760770574,-0.05349225820352485,0.056221192008849646,0.013535688912118487,-0.007382289955825294
662,3.0,300.25717000000003,294.25498,0.0,0.0,0.0,0.006713437111036913,0.0,0.0,-0.021427955749274582,-0.05327994380407104,-0.014738266819803685,0.057652617517870354,-0.005813790453401444,-0.019409353833804086
663,3.0,300.80137,329.43645,0.0,0.0,0.0,0.006723578254709175,0.0,0.0,-0.08405187817977453,-0.013225671871772187,-0.0028629040110216275,0.07156057249022864,-0.0012382174600775488,-0.0046335146870422955
664,3.0,300.47075,397.47187,0.0,0.0,0.0,0.006733719398381435,0.0,0.0,-0.055384580785532544,-0.04346375415403855,-0.021973189681084977,0.08301168069336501,0.04711731616586705,-0.017869512590583583
665,3.0,300.15084,396.56622000000004,0.0,0.0,0.0,0.006743860542053696,0.0,0.0,-0.011597587690592789,-0.04450003340231136,-0.06444860854183244,0.05630414172828615,0.03457682225021667,0.0067998882878217235
666,3.0,299.45132,268.12574,0.0,0.0,0.0,0.006754001685725959,0.0,0.0,0.017565680428847683,-0.01877092723729628,-0.08029828406507362,0.04250193561586446,0.023826922633034178,0.007606552701783304
667,3.0,299.6487,214.64092000000002,0.0,0.0,0.0,0.006764142829398219,0.0,0.0,-0.017712352433823082,-0.023990059952134577,-0.02354306771026988,0.050593514827191155,0.007448753285534712,0.026404760583446974
668,3.0,299.80332000000004,500.16697,0.0,0.0,0.0,0.006774283973070481,0.0,0.0,-0.09648677623625342,-0.04923982687909255,-0.006311667304688064,0.08123982848199683,0.03825230187495826,0.019073066258115084
669,3.0,300.1134,788.61465,0.0,0.0,0.0,0.0067844251167427415,0.0,0.0,-0.14530985233596588,-0.05870491219722375,-0.03570439735899967,0.06717545809170153,0.01072596462332029,0.031121954529997768
670,3.0,299.16978,501.19485,0.0,0.0,0.0,0.006794566260415003,0.0,0.0,-0.06670885034115094,-0.04607748142299336,-0.039564387800451066,0.05989264497769385,-0.009498623085841111,-0.0005640228209322185
671,3.0,299.85365,272.939,0.0,0.0,0.0,0.006804707404087264,0.0,0.0,0.001262797488953409,-0.04190324260877806,-0.04232619650527036,0.051358504467189744,-0.0015525060588704187,0.006057050726809364
672,3.0,300.47275,317.13192999999995,0.0,0.0,0.0,0.0068148485477595245,0.0,0.0,0.00994778895182033,-0.04565706977100195,-0.060690905697976034,0.06674536382175454,0.025159145891014374,-0.02745704614354947
673,3.0,300.35727,460.96800999999994,0.0,0.0,0.0,0.006824989691431787,0.0,0.0,-0.021943799348684376,-0.055849135691380544,-0.062329829628725235,0.053550664979039146,0.03299965591306247,-0.006659433788109944
674,3.0,300.15483,274.11123,0.0,0.0,0.0,0.006835130835104048,0.0,0.0,-0.036726405992864065,-0.04376870595713496,-0.002827857919212847,0.06302359487944455,0.006602330457524284,-0.03489624934424167
675,3.0,299.84873999999996,130.26891,0.0,0.0,0.0,0.006845271978776309,0.0,0.0,-0.037251396200926566,-0.033844677112209565,0.03149757748781887,0.099280951189017,0.012171937364026688,0.008932463918265552
676,3.0,299.48783,53.314838,0.0,0.0,0.0,0.006855413122448571,0.0,0.0,0.0014414357107336287,-0.02608776224991168,0.008439947261332941,0.08106535289427742,0.03163591044447127,-0.03054627648568277
677,3.0,299.9044,365.07197,0.0,0.0,0.0,0.006865554266120831,0.0,0.0,0.015342135508400885,-0.05455462256237204,-0.07176027597893783,0.10031331827865371,0.029351445888262172,0.03169436078973987
678,3.0,299.69413,635.05373,0.0,0.0,0.0,0.006875695409793092,0.0,0.0,-0.016898782517779983,-0.08008876420939563,-0.09605292888793601,0.04936105212105655,-0.0042364133602264455,-0.015220162487863086
679,3.0,299.16441000000003,611.6936599999999,0.0,0.0,0.0,0.006885836553465353,0.0,0.0,-0.06741477560632034,-0.057602009728375744,-0.060922811288113346,0.0934589437839296,0.015562589345907984,0.04573134302983216
680,3.0,299.70637999999997,350.68942000000004,0.0,0.0,0.0,0.006895977697137614,0.0,0.0,-0.07820504006773653,-0.03755493857313386,0.009159152688937992,0.08372609192812192,0.01086095689439299,-0.015221681349762987
681,3.0,300.72625,315.22298,0.0,0.0,0.0,0.006906118840809877,0.0,0.0,-0.0954517037688497,-0.017638113625496284,0.017269901578906583,0.0914946561268195,0.00978156537424034,0.027551775908648577
682,3.0,300.91808,519.18121,0.0,0.0,0.0,0.006916259984482137,0.0,0.0,-0.05033862568503555,-0.03964249925066007,-0.06783699894949054,0.05690365242820324,-0.013046502909589587,-0.004247051169051316
683,3.0,300.61247000000003,632.31627,0.0,0.0,0.0,0.006926401128154399,0.0,0.0,-0.04173997660691496,-0.04009111674568516,-0.1103772648033879,0.044208873959576164,0.00998372781829222,0.014366765763389387
684,3.0,299.7409,344.67084,0.0,0.0,0.0,0.00693654227182666,0.0,0.0,0.028118085442538972,-0.04175253786840466,-0.09113687549000932,0.040695514350834565,0.038140423865166764,-0.018066042579979586
685,3.0,300.76102000000003,88.502935,0.0,0.0,0.0,0.00694668341549892,0.0,0.0,-0.011556450749782888,-0.004322425526765186,-0.011023805437214889,0.04505910123773705,0.04033861828136166,0.011879153681381188
686,3.0,299.77005,283.25521000000003,0.0,0.0,0.0,0.006956824559171182,0.0,0.0,-0.06282760697885204,-0.04041051648195746,0.017135612503403282,0.06047619192228545,0.004393800079709306,0.016771199131438482
687,3.0,300.49967000000004,617.6972,0.0,0.0,0.0,0.006966965702843443,0.0,0.0,-0.12867298483653486,-0.04268598135077836,-0.016405559726852686,0.05822631871124024,0.0038991507339662156,0.012537052918310788
688,3.0,300.10303999999996,544.52734,0.0,0.0,0.0,0.006977106846515705,0.0,0.0,-0.024008543660458775,-0.07212422832210713,-0.06938994354300423,0.07579181270206953,-0.00965012981366866,0.028791057787956174
689,3.0,300.85939,327.33116,0.0,0.0,0.0,0.006987247990187966,0.0,0.0,-0.004439900020834016,-0.03442976318370307,-0.060630835165797536,0.06623562606744735,-0.005616719692427074,0.0014068108269914188
690,3.0,299.01732000000004,271.96893,0.0,0.0,0.0,0.006997389133860227,0.0,0.0,0.023886685137182277,-0.04691680916982855,-0.05964164063642164,0.07439556318352042,-0.008908243795825211,-0.009859670339648699
691,3.0,298.83351,342.86508,0.0,0.0,0.0,0.007007530277532488,0.0,0.0,-0.06157611644908954,-0.02455989255662268,-0.018086414986490183,0.08309202028054392,0.03211136690814517,-0.04446183184704116
692,3.0,298.35951,519.50847,0.0,0.0,0.0,0.007017671421204749,0.0,0.0,-0.0943105288172245,-0.058488643082629646,-0.005118430853649795,0.07765443591039613,0.04918265728195036,-0.024167120340859077
693,3.0,299.60841,197.23593,0.0,0.0,0.0,0.00702781256487701,0.0,0.0,-0.08680276202201562,-0.008154533047989753,0.03500249773647757,0.05995431644503034,0.039639686468382465,-0.033322270691902064
694,3.0,299.14295,-97.460432,0.0,0.0,0.0,0.007037953708549271,0.0,0.0,0.04043939512305757,0.003592293514056767,-0.014406150794776387,0.058471655944703146,0.010099401969583371,-0.013505515337390589
695,3.0,300.54458999999997,238.23807999999997,0.0,0.0,0.0,0.007048094852221533,0.0,0.0,0.010985299906914688,-0.01811782168658978,-0.06528590674871734,0.05904744342002894,0.024185027509876375,0.029617522324771873
696,3.0,299.91435,596.57606,0.0,0.0,0.0,0.007058235995893795,0.0,0.0,-0.004393370259016886,-0.052042791776473654,-0.12490806157246588,0.07487011684135522,0.024059530405490775,0.011343980309813689
697,3.0,299.73388,635.27297,0.0,0.0,0.0,0.007068377139566056,0.0,0.0,-0.0956129209790106,-0.05773793418954045,-0.03975626595863797,0.06050320719645164,0.010329814231723291,0.05439790418265515
698,3.0,300.44682,483.73497000000003,0.0,0.0,0.0,0.007078518283238316,0.0,0.0,-0.1133978241464939,-0.029195128755584873,-0.004450396075969896,0.08099598781893162,0.0017939760206766484,0.01254919672075929
699,3.0,299.97019,450.1958,0.0,0.0,0.0,0.007088659426910577,0.0,0.0,-0.11150665362984988,-0.024251419709428776,-0.001090211916645539,0.07809028442766103,0.005692066996363275,0.03520735866819577
700,3.0,299.06102999999996,601.82564,0.0,0.0,0.0,0.0070988005705828385,0.0,0.0,-0.03994981699273996,-0.06553153073195854,-0.07745861924907052,0.1103993435230669,0.017577495938263785,-0.015495240638261186
701,3.0,299.7885,507.73965999999996,0.0,0.0,0.0,0.0071089417142551,0.0,0.0,-0.01165865627411979,-0.03853339873095036,-0.10414812742861991,0.05300089067353065,0.0061224144775102645,0.01376435716818629
702,3.0,299.93597,138.26485,0.0,0.0,0.0,0.007119082857927361,0.0,0.0,0.012837002305663488,-0.02137910696195358,-0.033486958283655464,0.06270580317108095,-0.021931988905518777,-0.04485759517709995
703,3.0,301.15599,5.735860099999999,0.0,0.0,0.0,0.007129224001599623,0.0,0.0,-0.015541887633114882,0.01124317307061479,0.0025551562455992877,0.042910575328194055,0.017453884492314282,0.0026865574569925775
704,3.0,300.49157,157.39356,0.0,0.0,0.0,0.007139365145271884,0.0,0.0,-0.08909257451225251,-0.01651175340358318,0.05776061477977885,0.08178446864924861,0.022699546121270776,-0.014885377562072385
705,3.0,300.15586,592.53525,0.0,0.0,0.0,0.007149506288944145,0.0,0.0,-0.06707240346378085,-0.06075856547340354,-0.05228495145762295,0.048907161672511044,0.03043325249002817,0.006076809509059405
706,3.0,300.70783,569.62729,0.0,0.0,0.0,0.007159647432616406,0.0,0.0,-0.03042158896812707,-0.07159470685959743,-0.07113617673884402,0.04822571754300776,0.009522812000178371,-0.006717506191091244
707,3.0,299.84788,292.01702,0.0,0.0,0.0,0.007169788576288667,0.0,0.0,0.057744271055665854,-0.06438799186785003,-0.08212216261607642,0.08631954811557611,0.03133869277938817,0.024045650905620976
708,3.0,300.37474,327.57493999999997,0.0,0.0,0.0,0.007179929719960928,0.0,0.0,0.0017361692918715684,-0.06738470234335234,-0.03392606946624237,0.08060311225165782,0.011138619845796189,-0.02956399941473957
709,3.0,299.00298,586.7960400000001,0.0,0.0,0.0,0.007190070863633189,0.0,0.0,-0.07502114075551013,-0.08143614670212193,-0.02191405741849908,0.1028260994931459,0.013648469727749088,0.01793063386311578
710,3.0,298.747,501.69088,0.0,0.0,0.0,0.0072002120073054515,0.0,0.0,-0.1129232988596619,-0.05725843283146735,0.017680232405653085,0.05854148610184485,-0.004455347829208595,-0.04746936383361146
711,3.0,299.99441,237.67892,0.0,0.0,0.0,0.007210353150977712,0.0,0.0,-0.03889930259381226,-0.014972609276431485,-0.018376543953873684,0.08897524623017311,0.017845042600668583,0.01145968941823329
712,3.0,300.94711,34.48922,0.0,0.0,0.0,0.007220494294649973,0.0,0.0,0.013657558581146088,-0.0008585959437843222,-0.023282824554585878,0.0932923239242355,0.012127251008116489,-0.03527775827189367
713,3.0,299.59693,266.9506,0.0,0.0,0.0,0.007230635438322234,0.0,0.0,0.027241741643050578,-0.031540731809577865,-0.07684732749024073,0.08882641093623422,0.01991603765230988,0.031200974865546467
714,3.0,300.53035,578.85099,0.0,0.0,0.0,0.007240776581994495,0.0,0.0,-0.048493925857727854,-0.038313948011042265,-0.08914837216875932,0.07558062503672693,0.009749620537012631,-0.010290119145805689
715,3.0,300.01089,513.1189,0.0,0.0,0.0,0.007250917725666757,0.0,0.0,-0.08885545879010101,-0.041748016746458456,-0.025371857484507373,0.052610343554986644,0.025692388007891274,0.045220503872666254
716,3.0,300.32247,344.51681,0.0,0.0,0.0,0.007261058869339018,0.0,0.0,-0.09322761675959941,-0.034425990853580765,0.022929100971176078,0.06363977860975714,0.03364340105934517,0.01227254701945609
717,3.0,300.5705,618.30187,0.0,0.0,0.0,0.00727120001301128,0.0,0.0,-0.07217171732779393,-0.07203101133940734,-0.043745601828354755,0.045943183228239155,0.03208727688701767,0.017884038544017183
718,3.0,301.34219,801.76361,0.0,0.0,0.0,0.0072813411566835405,0.0,0.0,-0.04629751070870855,-0.1025795554788139,-0.09483905222838572,0.054728149747997855,0.0075366659039610125,0.017743207925868282
719,3.0,301.0094,663.86567,0.0,0.0,0.0,0.007291482300355801,0.0,0.0,-0.021633156119776276,-0.053759061140356244,-0.1264063646278369,0.051858114786747456,0.025987978393313776,0.012403495409379689
720,3.0,300.57858999999996,370.25095,0.0,0.0,0.0,0.007301623444028063,0.0,0.0,-0.028555498417958274,-0.040904791026488564,-0.043086755202581664,0.07905141294251702,0.00994234506300806,0.017427786209488583
721,3.0,299.56292,71.140344,0.0,0.0,0.0,0.007311764587700324,0.0,0.0,-0.04314870835344596,-0.018586825773626883,0.04011064612811256,0.08092042773247442,0.012366761040254288,-0.01958426005281598
722,3.0,300.69392999999997,184.41519,0.0,0.0,0.0,0.007321905731372585,0.0,0.0,-0.05099547215511125,-0.01175534870466259,0.006693209162968314,0.08332788463882192,0.003188502406105687,0.01087320404835169
723,3.0,300.17174,370.74117,0.0,0.0,0.0,0.0073320468750448465,0.0,0.0,-0.040253854844246165,-0.03295209294011837,-0.039490110488620465,0.08396770648071741,0.036539631575430866,-0.03492041029287617
724,3.0,299.7846,415.02227,0.0,0.0,0.0,0.007342188018717107,0.0,0.0,-0.004516701743963756,-0.06360108056193794,-0.05803862527596635,0.05266509148438985,0.026607526113958377,0.01061536330865479
725,3.0,299.92598,213.41315,0.0,0.0,0.0,0.007352329162389368,0.0,0.0,0.00890083187134371,-0.040881935143982855,-0.03289116519835527,0.04565223555477486,0.040906217682629364,-0.03450624431450117
726,3.0,299.43029,296.62166,0.0,0.0,0.0,0.00736247030606163,0.0,0.0,-0.025401651090447775,-0.05771962678673365,-0.007044301538518432,0.053907484041504444,0.030368046806342874,-0.0033327759467693774
727,3.0,300.14457999999996,745.97049,0.0,0.0,0.0,0.007372611449733891,0.0,0.0,-0.12342740933383689,-0.07916275190325534,-0.024166243879522577,0.09150392432548421,0.022931073769120777,-0.013449151274077887
728,3.0,301.18332999999996,786.53817,0.0,0.0,0.0,0.007382752593406153,0.0,0.0,-0.1051839223433449,-0.08003403755824452,-0.05386999986730504,0.08991503164492272,0.015139269666129586,0.007032524937906174
729,3.0,299.73148,100.30503,0.0,0.0,0.0,0.007392893737078413,0.0,0.0,-0.00909538318594443,-0.007083149750002452,-0.014311692580704088,0.06717116191127753,-9.156052244957001e-05,0.011240201208071489
730,3.0,300.4358,-97.27105300000001,0.0,0.0,0.0,0.007403034880750675,0.0,0.0,0.04900930234884155,0.008155338176519212,-0.02759666998082927,0.07237469766732653,0.018183839996855283,0.01980578489567878
731,3.0,301.11776000000003,155.27567,0.0,0.0,0.0,0.0074131760244229355,0.0,0.0,0.01910782884254588,-0.007852575094963822,-0.058455181511327246,0.06183167230981094,0.028824434246250176,0.012519645281592788
732,3.0,300.53627,531.82615,0.0,0.0,0.0,0.007423317168095196,0.0,0.0,-0.10085406047277082,-0.028882393165220274,-0.031925416263043266,0.07483258099140072,0.028487350255982574,0.020819311612956082
733,3.0,300.69293,736.13491,0.0,0.0,0.0,0.007433458311767459,0.0,0.0,-0.14824165097031186,-0.056542644589824546,-0.018982336804410783,0.06017760839606754,0.0008891148138813,0.001190875882280299
734,3.0,300.18501000000003,463.79362000000003,0.0,0.0,0.0,0.007443599455439719,0.0,0.0,-0.07800757890149862,-0.041975716335430666,-0.02099838532962928,0.08294727142425833,-0.007595777496244873,-0.001817449681768318
735,3.0,300.07783,403.62762999999995,0.0,0.0,0.0,0.007453740599111981,0.0,0.0,-0.003178893147457327,-0.05446734322525825,-0.06504648486933824,0.07797494718202813,-0.01076251052792709,0.0028217065791807574
736,3.0,300.42422,760.05942,0.0,0.0,0.0,0.0074638817427842424,0.0,0.0,-0.03154333383583467,-0.07325287848924622,-0.12624287672420187,0.06649058208410953,0.01767770839965398,0.012086581175602688
737,3.0,299.79899,782.63905,0.0,0.0,0.0,0.007474022886456503,0.0,0.0,-0.04403627693754216,-0.07716724297081393,-0.1166992158873159,0.05755918369964915,0.017206100259859886,0.015815676929385784
738,3.0,300.60537,207.02725,0.0,0.0,0.0,0.007484164030128764,0.0,0.0,-0.06748529274702984,-0.005742921005632175,0.01029710043899469,0.05814640063610295,0.04088466180000196,0.028253954174948175
739,3.0,299.8991,-104.78035,0.0,0.0,0.0,0.0074943051738010245,0.0,0.0,0.001950300550079678,-0.002078130460170508,0.03197844065402637,0.06601110909703924,0.04954236106745036,-0.01009693936654033
740,3.0,299.30599,66.394278,0.0,0.0,0.0,0.007504446317473287,0.0,0.0,-0.023222492603881578,-0.014344817752973285,0.017385108115276583,0.07886115091823963,0.021271054984539683,-0.012578324621383988
741,3.0,300.14901000000003,418.54082999999997,0.0,0.0,0.0,0.0075145874611455485,0.0,0.0,0.01170939375962719,-0.06218422153635485,-0.07675113256549702,0.07414683358872273,-0.00020296639721122377,-0.04047173198674896
742,3.0,300.76846,473.09044000000006,0.0,0.0,0.0,0.007524728604817809,0.0,0.0,-0.02451813449350148,-0.05939799553062575,-0.059891551680835944,0.08226531762995472,0.0013224419494648589,-0.026338831439190274
743,3.0,301.05342,222.05577000000002,0.0,0.0,0.0,0.007534869748490071,0.0,0.0,0.02850391892161777,-0.054429343306757944,-0.04157398293578266,0.1015209320393359,0.01244956181192609,-0.04270926178507596
744,3.0,301.01025,116.9619,0.0,0.0,0.0,0.007545010892162331,0.0,0.0,-0.07442336068676383,-0.007825566710898303,0.046695429221730055,0.07852349748141582,0.025211175270399275,-0.019182375678903085
745,3.0,300.65547999999995,414.58427,0.0,0.0,0.0,0.007555152035834592,0.0,0.0,-0.07387787344242842,-0.04051598365836626,-0.011629409823233388,0.08744023008392882,0.006645269362312024,-0.011994719921536688
746,3.0,299.80681,603.3994299999999,0.0,0.0,0.0,0.007565293179506854,0.0,0.0,-0.1057219885439479,-0.03248188207221217,-0.04521448922007266,0.06693067510604334,0.024705975863289976,0.008793495653800451
747,3.0,300.28148,300.88268,0.0,0.0,0.0,0.007575434323179114,0.0,0.0,0.016427671883784984,-0.03648606610889436,-0.07140242644112084,0.06291423580940164,0.0028706935738153977,0.03900980764971826
748,3.0,299.28389,0.76261037,0.0,0.0,0.0,0.007585575466851377,0.0,0.0,0.04101370325323736,0.005960409870696654,-0.04720592792686236,0.06415787567738934,0.016074150950395185,0.02268021229611268
749,3.0,299.30801,341.63146,0.0,0.0,0.0,0.0075957166105236375,0.0,0.0,-0.015416724901262285,-0.036748549560549466,-0.05168215782738185,0.04785422357934416,0.009475949487028401,0.021271077276041876
750,3.0,298.7842,636.70092,0.0,0.0,0.0,0.007605857754195899,0.0,0.0,-0.14041396970777983,-0.02133475396532628,-0.03179245859817137,0.06659979119313764,0.015666558938668983,0.025750248641601678
751,3.0,300.70007999999996,649.61482,0.0,0.0,0.0,0.00761599889786816,0.0,0.0,-0.09003155236667242,-0.07647164576391383,-0.030963485254108074,0.08116353378921713,0.017843877363053585,-0.008621336862434702
752,3.0,300.28968,406.92207,0.0,0.0,0.0,0.00762614004154042,0.0,0.0,-0.050380340178402455,-0.04211581640025746,-0.031197991857252073,0.05655492518103654,0.031276727469522675,-0.020060850343351783
753,3.0,301.07581,354.06056,0.0,0.0,0.0,0.007636281185212682,0.0,0.0,-0.012112031991614489,-0.04603294401484786,-0.04948059435460445,0.08382404281528892,-0.005338835953827084,-0.019154112080613683
754,3.0,300.65016,426.41585,0.0,0.0,0.0,0.007646422328884943,0.0,0.0,-0.015108860004128383,-0.028480009259008073,-0.08603090051983882,0.05861838469168414,0.030447163400651074,0.028224250748266674
755,3.0,300.2528,378.84942,0.0,0.0,0.0,0.007656563472557205,0.0,0.0,-0.04111437066392246,-0.03025636232732047,-0.04379003183198966,0.08639308575483373,0.025927437713088874,-0.007030878406493674
756,3.0,298.92121000000003,257.06145,0.0,0.0,0.0,0.007666704616229467,0.0,0.0,-0.05555230812758595,-0.038139177567543765,0.015551222706286186,0.06776134868377442,0.02120790315880708,0.014918594940100687
757,3.0,299.69862,86.12191899999999,0.0,0.0,0.0,0.007676845759901727,0.0,0.0,-0.008225786010921872,-0.040225035984901965,0.022271908982816276,0.06292057571527734,0.024025453791377677,-0.04395781186304826
758,3.0,297.87577999999996,244.42292,0.0,0.0,0.0,0.007686986903573988,0.0,0.0,-0.024818787076423578,-0.04980860266372636,0.00032892550311241966,0.07382856362631193,0.009261296202368772,-0.0033293470071059663
759,3.0,299.18044,587.36435,0.0,0.0,0.0,0.007697128047246249,0.0,0.0,0.0007708311889451152,-0.09255929117914082,-0.08675563677311472,0.0973754685147105,0.004763008657772356,-0.03899626353563156
760,3.0,299.70552999999995,562.61517,0.0,0.0,0.0,0.00770726919091851,0.0,0.0,0.008189157425106912,-0.08061539790912033,-0.09859472451904172,0.06780211376179764,0.026106724212283078,0.023442978865391876
761,3.0,300.5175,147.36077,0.0,0.0,0.0,0.007717410334590772,0.0,0.0,-0.0029581392865956173,-0.03473759768333397,-0.0070982567010433924,0.08495712392511533,-0.0025161049787952275,-0.015383667616749787
762,3.0,301.13749,59.282967000000006,0.0,0.0,0.0,0.0077275514782630325,0.0,0.0,-0.05613588141668015,0.017060018979692785,0.02105532086599838,0.05652029735886905,0.04343858400830446,0.015741686367333484
763,3.0,300.57244,351.20332,0.0,0.0,0.0,0.007737692621935295,0.0,0.0,-0.06430933731558744,-0.01966683993596598,-0.02278086248154608,0.09530723254309151,0.029082163528436074,0.003161566570747327
764,3.0,299.55214,674.29095,0.0,0.0,0.0,0.007747833765607556,0.0,0.0,-0.09354577627774932,-0.047862856470196155,-0.06355897900703285,0.053273621123447044,0.03248490662376067,0.008799707788838542
765,3.0,300.24202,560.33654,0.0,0.0,0.0,0.007757974909279816,0.0,0.0,-0.007850126474772161,-0.06938349521936783,-0.093094694558481,0.05366806114887524,0.007380934733816543,0.0050866404357373255
766,3.0,299.00582,235.74687000000003,0.0,0.0,0.0,0.007768116052952078,0.0,0.0,-0.01773240769305238,-0.011259781253003889,-0.04266897192134966,0.07480368208529863,0.006065171115760785,0.020745161970638082
767,3.0,299.50206000000003,295.68966,0.0,0.0,0.0,0.0077782571966243386,0.0,0.0,-0.05597441596024475,-0.02141263540776258,-0.012495221901182386,0.06414304270917544,0.008961952941225893,0.02859857370620947
768,3.0,299.46595,731.01729,0.0,0.0,0.0,0.0077883983402966,0.0,0.0,-0.10239248924535191,-0.08115082965946332,-0.038667682740203164,0.08123545732106542,0.026862944172666176,-0.005925515665077864
769,3.0,298.95989,753.90125,0.0,0.0,0.0,0.007798539483968861,0.0,0.0,-0.06570891434746494,-0.09110977510283472,-0.07234846664873773,0.06179302695099694,0.007706692817116362,-0.001016242936820369
770,3.0,299.45847000000003,398.61975,0.0,0.0,0.0,0.007808680627641123,0.0,0.0,-0.03952228219254557,-0.04657999875708795,-0.03506817052845897,0.06087121760627145,0.04113245211195696,-0.011596160021201889
771,3.0,298.95167000000004,26.299387,0.0,0.0,0.0,0.007818821771313383,0.0,0.0,0.06417265696984814,-0.02065385395112668,-0.05151315986970304,0.08877933331008801,0.026610335856485676,0.002404734404653808
772,3.0,298.40471,151.67833000000002,0.0,0.0,0.0,0.007828962914985645,0.0,0.0,-0.004861914127858565,-0.027808240654709677,-0.013436270838806687,0.07136884733280684,0.022632377772141776,-0.002150049229743338
773,3.0,300.23261,610.75492,0.0,0.0,0.0,0.007839104058657904,0.0,0.0,-0.06980081139230372,-0.05480128208721544,-0.061052153676628446,0.07492869384288633,-0.017292443353881283,0.00859290232885343
774,3.0,299.82437999999996,587.39543,0.0,0.0,0.0,0.007849245202330168,0.0,0.0,-0.0875162471461811,-0.07320954786196984,-0.017827748447961783,0.06653319533031514,0.0024354824921884078,-0.03288742123923577
775,3.0,300.09724,262.3098,0.0,0.0,0.0,0.00785938634600243,0.0,0.0,-0.02960765428204797,-0.025797725488287272,-0.024330250567208774,0.06210636137217065,0.013964789183717385,-0.017487208261603087
776,3.0,301.07055,205.26939,0.0,0.0,0.0,0.00786952748967469,0.0,0.0,-0.006999844683755883,-0.04026453146054986,-0.015132391724450784,0.0983160827680419,0.03786239107747706,-0.03656049946124036
777,3.0,300.92321,464.21864000000005,0.0,0.0,0.0,0.00787966863334695,0.0,0.0,0.02105665328987988,-0.07814232495279702,-0.08402520335764192,0.08940407596399531,0.02771246926850777,-0.0017122393642598683
778,3.0,300.9781,557.19732,0.0,0.0,0.0,0.007889809777019212,0.0,0.0,-0.07178726896160183,-0.027390459399977873,-0.07019634471458984,0.08640907686791192,0.047965963787122055,0.0020201251343458277
779,3.0,299.85345,242.69192999999999,0.0,0.0,0.0,0.007899950920691472,0.0,0.0,-0.05125362700233915,-0.015407980552899285,-0.007110679653894442,0.07899892962708734,0.02070889673630898,0.046232674861309754
780,3.0,299.38337,-122.36125,0.0,0.0,0.0,0.007910092064363734,0.0,0.0,-0.014481854762747786,0.011508015368502688,0.040168604033832565,0.08030764649599763,0.03294756979167197,-0.009162734224066462
781,3.0,300.20721000000003,340.9048,0.0,0.0,0.0,0.007920233208035997,0.0,0.0,-0.04352176272226355,-0.04117719014362226,-0.01892759495450818,0.06413021597615953,-0.007466620532498073,0.02289440830100218
782,3.0,299.61464,844.3721800000001,0.0,0.0,0.0,0.007930374351708258,0.0,0.0,-0.09261740512537622,-0.07385849908726633,-0.09019215250752241,0.06715821662799994,0.027931023262077373,-0.0009299807406869531
783,3.0,298.97423,656.1404200000001,0.0,0.0,0.0,0.007940515495380518,0.0,0.0,-0.04930641159616395,-0.05025635079016565,-0.0998875424806329,0.07324011559098663,0.036907658197252266,0.015249509250509384
784,3.0,299.69476000000003,157.3502,0.0,0.0,0.0,0.00795065663905278,0.0,0.0,-0.02199044026403748,-0.02769592796062527,0.0018558373710818885,0.08012774394074262,0.04017635742359776,0.007313674786878503
785,3.0,299.8355,127.07967,0.0,0.0,0.0,0.00796079778272504,0.0,0.0,-0.023882784124297275,0.010841996958521791,-0.025588258321614477,0.09421265493706511,0.001868054735487648,0.021490267590674277
786,3.0,299.94548,629.2640200000001,0.0,0.0,0.0,0.007970938926397301,0.0,0.0,-0.06571770935833293,-0.07649660312712693,-0.04906623788521065,0.07537879676255803,-0.0012414582391973889,0.009237879688582742
787,3.0,300.23738,664.24292,0.0,0.0,0.0,0.007981080070069565,0.0,0.0,-0.05499925798450415,-0.06873965482757573,-0.07817434973545763,0.08249020950289983,0.02052067235798268,-0.014402743234690088
788,3.0,299.17456,162.31235,0.0,0.0,0.0,0.007991221213741823,0.0,0.0,0.024782723478864375,-0.02748583156564037,-0.04663579337384446,0.04370310206616036,0.012237484512995687,-0.026486443740258474
789,3.0,300.11776000000003,-108.17521,0.0,0.0,0.0,0.008001362357414086,0.0,0.0,0.06968688357755994,-0.028962142027590874,-0.007842179351587842,0.08336535361426983,0.018176675305398182,-0.03132020400481347
790,3.0,300.92634,232.85282,0.0,0.0,0.0,0.008011503501086347,0.0,0.0,-0.027211990593614375,-0.038321301167017964,-0.005248150677827145,0.07008969203556403,0.03914908394221376,-0.012424871946739387
791,3.0,301.61204,648.97505,0.0,0.0,0.0,0.008021644644758607,0.0,0.0,-0.0955814879344084,-0.07416697700071073,-0.027523745357882178,0.1009760740233126,0.03899496049600296,-0.014207976300468087
792,3.0,301.22407000000004,649.32173,0.0,0.0,0.0,0.008031785788430869,0.0,0.0,-0.08682792406174891,-0.07364017003521893,-0.03690949825943387,0.07286977875893723,0.012510955648735188,0.006733350078929915
793,3.0,300.12769,187.97585,0.0,0.0,0.0,0.008041926932103129,0.0,0.0,-0.012778289528618989,-0.02176850201513388,-0.022593173099272577,0.09074788978986942,-0.010416527162031189,-0.01089911994615939
794,3.0,298.55995,304.29585,0.0,0.0,0.0,0.00805206807577539,0.0,0.0,0.0099507605103886,-0.039021317157604166,-0.06342778338408485,0.09250261098179692,-0.004133522777496936,0.013359253698705689
795,3.0,298.79915,830.50801,0.0,0.0,0.0,0.008062209219447652,0.0,0.0,-0.07264591128184324,-0.07203237720054213,-0.1077754107991049,0.08439767916065243,0.026265932147495678,0.0018400543795742284
796,3.0,299.38655,620.8625400000001,0.0,0.0,0.0,0.008072350363119915,0.0,0.0,-0.09807383493413391,-0.025444011024128372,-0.06520886123761353,0.07418844979682993,0.016164568323068684,0.04213925692807086
797,3.0,299.43847,-42.677927000000004,0.0,0.0,0.0,0.008082491506792177,0.0,0.0,-0.016844799592202284,0.014538046573543488,0.015279776044246487,0.05580333476036035,0.035155435680071366,0.002062703626072998
798,3.0,299.59411,-1.2648028999999998,0.0,0.0,0.0,0.008092632650464436,0.0,0.0,-0.025994578704465178,0.003248924232093857,0.023130123711515477,0.058547960769983844,0.03405199517542026,0.027415087456908474
799,3.0,299.66437,410.64383,0.0,0.0,0.0,0.008102773794136696,0.0,0.0,-0.025934170760003372,-0.05256725914748455,-0.04632404063607686,0.08823047194291961,0.031101581110237073,-0.01059932051982149
800,3.0,300.64894,715.54987,0.0,0.0,0.0,0.008112914937808958,0.0,0.0,-0.044765759254286455,-0.08066719728073252,-0.09207633565147681,0.09157669088141572,0.00959322092577719,-0.0015378869877526286
801,3.0,300.12807999999995,566.02536,0.0,0.0,0.0,0.00812305608148122,0.0,0.0,-0.04354706155076036,-0.06939861595061013,-0.05911189828539015,0.08791825513660623,-0.0018513910269930681,-0.005301717157613745
802,3.0,299.48927000000003,281.23105,0.0,0.0,0.0,0.008133197225153483,0.0,0.0,-0.044071234065992164,-0.048356216049886956,0.006940231937972562,0.1052001546099469,0.01115974205738079,0.010805991116218291
803,3.0,299.1478,336.39428,0.0,0.0,0.0,0.00814333836882574,0.0,0.0,-0.03830016780968226,-0.056720611837388545,-0.007234682721007592,0.07641566369588883,0.04638568271916045,-0.015203126713931786
804,3.0,300.22364,608.15662,0.0,0.0,0.0,0.008153479512498004,0.0,0.0,-0.09451538468269222,-0.04902779416316655,-0.04132124897658976,0.07571541668427983,0.017171923333986885,0.00016445440237538585
805,3.0,300.21233,388.63936,0.0,0.0,0.0,0.008163620656170264,0.0,0.0,-0.001934401136135528,-0.04597182882181625,-0.07023042943470373,0.05041238015981455,0.011454815685252289,-0.02278474424267918
806,3.0,299.63838,-56.100149,0.0,0.0,0.0,0.008173761799842525,0.0,0.0,0.047525804903931754,0.016005079717578384,-0.04647783984225566,0.058420907313444646,0.03131527352982687,-0.010459610556283189
807,3.0,299.21185,-87.541848,0.0,0.0,0.0,0.008183902943514787,0.0,0.0,0.03032585101917847,-0.008325701083407721,0.004610386442909715,0.07037747836871633,0.014014100013083987,-0.012071234489588089
808,3.0,300.02474,351.78254,0.0,0.0,0.0,0.008194044087187047,0.0,0.0,-0.04280967993623646,-0.05473613213228565,-0.009387297094704091,0.1024525344462779,0.026672181602839375,-0.006276332639250804
809,3.0,299.93052,660.6094400000001,0.0,0.0,0.0,0.008204185230859308,0.0,0.0,-0.07819198737994833,-0.07497120475083183,-0.047645582211502856,0.08648921988457141,0.019198455957990083,0.00989413269807487
810,3.0,299.03087999999997,436.81192999999996,0.0,0.0,0.0,0.008214326374531572,0.0,0.0,-0.08181216381423191,-0.04871373729467155,-0.002254017809254238,0.10815409275897789,0.017067083359389987,0.0061895688437878845
811,3.0,299.19619,318.23575,0.0,0.0,0.0,0.008224467518203833,0.0,0.0,0.01051387719188889,-0.06601274752245094,-0.04123685233601046,0.07341303685305263,0.02656900538490668,0.018979215994102783
812,3.0,299.20806,296.43417999999997,0.0,0.0,0.0,0.008234608661876093,0.0,0.0,-0.018422676217676584,-0.016429179599933785,-0.055256732940914946,0.0909389401227246,-0.0027512086902231575,0.024535467149712078
813,3.0,299.68837,647.0756,0.0,0.0,0.0,0.008244749805548353,0.0,0.0,-0.07520881595228224,-0.039688266744426964,-0.08179774121230853,0.07351481377259722,0.007442478430315432,0.02843978323003807
814,3.0,300.09612999999996,710.56132,0.0,0.0,0.0,0.008254890949220614,0.0,0.0,-0.11852069506208189,-0.028664485625214474,-0.06880772091629334,0.07674112469425932,0.01193460277985359,0.020090678399795583
815,3.0,299.39676000000003,156.46892,0.0,0.0,0.0,0.008265032092892876,0.0,0.0,-0.04086190014975556,-0.011087389920740189,0.004386647243278376,0.07350285539491702,0.04543490962032645,5.841625649548564e-05
816,3.0,299.88522,-58.201,0.0,0.0,0.0,0.008275173236565138,0.0,0.0,-0.01089606094410749,0.0015277381734260184,0.027059973694361476,0.06054006112908885,0.04371712240779405,-0.015600195110119385
817,3.0,300.9502,431.71797999999995,0.0,0.0,0.0,0.0082853143802374,0.0,0.0,0.004337752758377866,-0.05278050371053015,-0.08278873628711213,0.06358001407910885,0.028271557368935475,-0.007119477501862723
818,3.0,300.72393999999997,536.01232,0.0,0.0,0.0,0.008295455523909659,0.0,0.0,-0.03193257994125027,-0.06332165759511103,-0.06768012250275802,0.08321509267744022,0.02125657766711088,-0.008859400176079722
819,3.0,299.15605,363.3508,0.0,0.0,0.0,0.00830559666758192,0.0,0.0,-0.03176521331623247,-0.06559560562853224,-0.013088751385759186,0.0856426818500246,0.02880275677361077,-0.015170025859664985
820,3.0,299.60767000000004,310.7062,0.0,0.0,0.0,0.008315737811254182,0.0,0.0,-0.03440832686458747,-0.05445205530774945,-0.0055865456110741245,0.1030099435912899,-0.0014945923308547786,0.0010063082627698931
821,3.0,299.95115,299.56788,0.0,0.0,0.0,0.008325878954926444,0.0,0.0,-0.043792096835693455,-0.06200882997054504,0.014739772509452288,0.08000010279914542,0.0024984068432735576,-0.005314770757327035
822,3.0,299.68879,530.06354,0.0,0.0,0.0,0.008336020098598705,0.0,0.0,-0.06361909209571553,-0.04633318116522896,-0.05117380822571165,0.09748670919018909,0.0049536221785094455,0.00984645634244458
823,3.0,299.99581,706.63733,0.0,0.0,0.0,0.008346161242270965,0.0,0.0,-0.050209695689311155,-0.07220103065318693,-0.09238937724337161,0.09507210279113601,0.018370536394030784,-0.017026187572103883
824,3.0,300.37526,276.12191,0.0,0.0,0.0,0.008356302385943227,0.0,0.0,-0.006231060118157754,-0.03090778284311067,-0.04679532149608866,0.08823470530183741,0.02054229815486698,0.01027347853941339
825,3.0,300.68932,29.939102000000002,0.0,0.0,0.0,0.00836644352961549,0.0,0.0,-0.0031496376786450367,0.002291586792487008,-0.008242688441140011,0.1024622616472379,0.025619140158162274,-0.02128653541956748
826,3.0,300.59278,604.33547,0.0,0.0,0.0,0.00837658467328775,0.0,0.0,-0.09060579159584542,-0.06629596713740253,-0.026801135916566174,0.06493085580767653,0.02005499071802348,0.0029516787026330074
827,3.0,301.37879,769.3419700000001,0.0,0.0,0.0,0.008386725816960011,0.0,0.0,-0.13614523822898886,-0.057478200698656744,-0.040237305430362864,0.08929312507804532,0.043139847481321464,-0.009222526619092512
828,3.0,300.12011,321.27775,0.0,0.0,0.0,0.008396866960632271,0.0,0.0,-0.03462499114672057,-0.040460076570848665,-0.02257534395051298,0.05228116798174955,-0.008467352738112652,0.009827391737838052
829,3.0,299.99253,214.43646,0.0,0.0,0.0,0.008407008104304533,0.0,0.0,0.01992262783096028,-0.04949558032358345,-0.03561037686897057,0.05846119616392084,0.01031847798960449,-0.006444490207296664
830,3.0,300.10348,514.46673,0.0,0.0,0.0,0.008417149247976794,0.0,0.0,-0.034387059758238574,-0.04570329930681445,-0.07629468264719894,0.07030107829792623,0.012583988689442988,0.03843958089094126
831,3.0,300.30572,642.60461,0.0,0.0,0.0,0.008427290391649056,0.0,0.0,-0.09081635611237651,-0.050487063784935254,-0.054032333679076144,0.1068428052745639,0.029273756963344874,0.005373093635733055
832,3.0,299.32851,516.00187,0.0,0.0,0.0,0.008437431535321317,0.0,0.0,-0.08757973841069722,-0.01830048534836728,-0.05097146218074165,0.100401909774647,0.017842760761443383,0.03580183554161607
833,3.0,300.19434,92.172247,0.0,0.0,0.0,0.008447572678993577,0.0,0.0,-0.039660728633209165,0.008449311212132092,0.003193355671434667,0.08057315855220162,0.019718297842294483,0.014604435733345588
834,3.0,300.56332000000003,31.07505,0.0,0.0,0.0,0.008457713822665839,0.0,0.0,0.035273009168674964,-0.0059487155459925145,-0.038770333081333964,0.0908523123054251,0.023784910244137876,0.011296206580848789
835,3.0,300.07903999999996,584.96778,0.0,0.0,0.0,0.0084678549663381,0.0,0.0,-0.03047920642181347,-0.06007379383057185,-0.08726259822214791,0.04757108603765065,0.04548997773676126,-0.022843904876267876
836,3.0,300.75367,861.5986,0.0,0.0,0.0,0.008477996110010362,0.0,0.0,-0.08231032113314622,-0.07282605093762164,-0.1067680882121899,0.08771483200677992,0.017674547059341985,-0.01843606935749838
837,3.0,300.90911,268.32272,0.0,0.0,0.0,0.008488137253682623,0.0,0.0,-0.026891687038252874,-0.04284379100085296,-0.011827928822575688,0.06760108291545744,0.016756457355733587,-0.022486789944773378
838,3.0,300.2131,-64.246133,0.0,0.0,0.0,0.008498278397354883,0.0,0.0,-0.0006243899010174854,-0.005994165892478114,0.02614777604008458,0.11218700040949489,0.03489339096570957,-0.010319961387750891
839,3.0,301.10576000000003,392.78413,0.0,0.0,0.0,0.008508419541027145,0.0,0.0,-0.05313288676405765,-0.03964180720084176,-0.02662187272212427,0.09086138596007061,0.016318253031986186,0.0046559771245341655
840,3.0,301.02176000000003,475.87434,0.0,0.0,0.0,0.008518560684699406,0.0,0.0,-0.04697429287450175,-0.046220338541342255,-0.051459284348635954,0.1028846957464289,0.008798864967405362,0.005371414376342324
841,3.0,299.26392000000004,131.12427,0.0,0.0,0.0,0.008528701828371668,0.0,0.0,0.034765958553632965,-0.03140922005259867,-0.04321524342126246,0.07955444703416262,0.03815446751155276,0.011988390148161988
842,3.0,299.40015,134.18499,0.0,0.0,0.0,0.00853884297204393,0.0,0.0,-0.003381134726342017,-0.04479110773203816,0.007383355894930493,0.09207870361696051,0.02306493829283218,-0.004196481376435466
843,3.0,299.52711,438.58635999999996,0.0,0.0,0.0,0.00854898411571619,0.0,0.0,-0.04418881768709675,-0.03341794379284426,-0.055712541471899746,0.07405256485241914,0.03927963007184767,-0.0011501594402618988
844,3.0,299.88282999999996,769.28716,0.0,0.0,0.0,0.00855912525938845,0.0,0.0,-0.1182766233779939,-0.06551143696922544,-0.05005602719239525,0.06329072610930835,-0.005510732110766915,-0.019209336237563882
845,3.0,299.7515,889.1594699999999,0.0,0.0,0.0,0.008569266403060712,0.0,0.0,-0.09337335556123272,-0.07179312149417943,-0.1051158015391219,0.1060801521892959,-0.006285330097488784,0.006326025767880134
846,3.0,299.89252999999997,363.36322,0.0,0.0,0.0,0.008579407546732974,0.0,0.0,-0.01052379691036789,-0.02003140630869588,-0.07989814349458284,0.1001417466657209,0.008283799138772321,-0.02302044648094118
847,3.0,300.41572,135.77876,0.0,0.0,0.0,0.008589548690405235,0.0,0.0,0.025678474057518077,-0.02110053715171088,-0.04585129056342006,0.11233313133891688,0.02250829921789618,-0.0024229197108235575
848,3.0,300.90464,409.24506,0.0,0.0,0.0,0.008599689834077495,0.0,0.0,-0.052554885337263345,-0.022178847027381775,-0.04966654803945666,0.09744789056560801,0.025006321431431774,-0.025802978176805675
849,3.0,300.22524,568.5754599999999,0.0,0.0,0.0,0.008609830977749757,0.0,0.0,-0.06892787109990123,-0.05897264732414714,-0.04493222408671526,0.07026555273617013,0.05415751464943055,0.025146354621751976
850,3.0,300.13465,190.32386,0.0,0.0,0.0,0.008619972121422018,0.0,0.0,-0.047305869850475864,-0.04518307745372255,0.03463524726423276,0.08434555554900822,0.02087954629165078,-7.202581640614464e-05
851,3.0,299.93872000000005,110.41605,0.0,0.0,0.0,0.00863011326509428,0.0,0.0,0.004556425099559146,-0.035366767226928164,-0.0027533783626622873,0.05997219524304485,0.006656440748639554,0.03772092413826537
852,3.0,299.55052,549.51093,0.0,0.0,0.0,0.008640254408766541,0.0,0.0,-0.027551805292901473,-0.08209354640675222,-0.057392249732424044,0.05823719088481324,0.003036719567625887,0.00011812296400032888
853,3.0,299.65646,947.25413,0.0,0.0,0.0,0.008650395552438801,0.0,0.0,-0.07203106402841253,-0.07523167588778833,-0.14067886368142285,0.08259586413057712,0.0013480979486219088,0.033247851525057465
854,3.0,299.41187,761.27575,0.0,0.0,0.0,0.008660536696111063,0.0,0.0,-0.08368647080946162,-0.07505653662125343,-0.07266581252705734,0.1059609838450349,0.026602155888428375,-0.025871907554608473
855,3.0,299.11629,334.16591,0.0,0.0,0.0,0.008670677839783324,0.0,0.0,-0.05728045176939044,-0.032769945022641765,-0.011527694711944888,0.11162293421132588,0.024392743780376376,-0.028102927221042975
856,3.0,299.64222,38.326956,0.0,0.0,0.0,0.008680818983455586,0.0,0.0,-0.03133587797061037,0.007428379967099023,0.012257060504927688,0.0998479527727257,0.023168757924578377,-0.026245602297489276
857,3.0,300.26589,124.66411000000001,0.0,0.0,0.0,0.008690960127127847,0.0,0.0,0.0016380413899120983,-0.016386395114461286,-0.023146421839373977,0.0888983202825811,0.03424463124468197,-0.018755789280802283
858,3.0,299.78364,287.26105,0.0,0.0,0.0,0.008701101270800107,0.0,0.0,-0.0009904168737665349,-0.03924193210187717,-0.047087837680707754,0.06959884632937134,0.019570370420445182,-0.014136715434185185
859,3.0,300.7623,196.74666000000002,0.0,0.0,0.0,0.008711242414472369,0.0,0.0,-0.010994639033086388,-0.03416828791589747,-0.014643145940165987,0.07400744381221604,0.01064621373444949,-0.007198350004221832
860,3.0,301.74769,130.21034,0.0,0.0,0.0,0.00872138355814463,0.0,0.0,0.013561459915161885,-0.06384267484953145,0.01070052191330929,0.08313380772791802,0.001030014120254479,-0.009300060314094492
861,3.0,300.24897000000004,424.45042,0.0,0.0,0.0,0.008731524701816892,0.0,0.0,-0.08252619102720092,-0.03147835613342187,-0.015017780979139587,0.09072309150692201,0.016230162081542286,0.00994933344894776
862,3.0,299.18465,844.80836,0.0,0.0,0.0,0.008741665845489154,0.0,0.0,-0.11387962456904388,-0.07858459646244584,-0.06433643061001133,0.09215743720273091,0.027141392392896875,0.019369853291905683
863,3.0,299.59238999999997,824.37365,0.0,0.0,0.0,0.008751806989161413,0.0,0.0,-0.07888489238133273,-0.07284240175448534,-0.09886171288064141,0.11610837962150489,0.011280005724999887,0.02168866297350438
864,3.0,299.65305,485.98228,0.0,0.0,0.0,0.008761948132833675,0.0,0.0,-0.03043334570903737,-0.024279172629667774,-0.09301395879051301,0.08527262062200242,0.02383249348208398,0.029327293045628474
865,3.0,300.41224,182.58217,0.0,0.0,0.0,0.008772089276505936,0.0,0.0,-0.03302890540369917,0.005607303660572785,-0.02807881997466377,0.0969648083816815,0.02873385576681077,0.015376102691503184
866,3.0,300.89828,145.7177,0.0,0.0,0.0,0.008782230420178198,0.0,0.0,-0.03247266656255267,0.007650702643090563,-0.01947257760029378,0.045149907698448954,0.02113957058531318,-0.023925056918469276
867,3.0,300.42998,259.66649,0.0,0.0,0.0,0.00879237156385046,0.0,0.0,-0.08459542302366822,-0.0018871269394699283,0.007550421078043544,0.06617930456063885,0.03805307056079567,-0.029610020221031475
868,3.0,299.40434,314.27766,0.0,0.0,0.0,0.00880251270752272,0.0,0.0,-0.05285453378933635,-0.03847177083336816,-0.004206257213400266,0.06112008905608315,0.026715468660361476,-0.03311388972933647
869,3.0,299.30752,131.81527,0.0,0.0,0.0,0.008812653851194981,0.0,0.0,0.0024431229045674577,-0.018273761890229882,-0.024237911059095577,0.1030861501313109,0.02755016281448937,-0.0023255589405147977
870,3.0,300.19074,378.5621,0.0,0.0,0.0,0.008822794994867243,0.0,0.0,0.0017994332843902384,-0.05563999479123995,-0.06123286480546324,0.07014169304394614,0.018588788439070584,-0.005939651922523005
871,3.0,299.38901,840.77633,0.0,0.0,0.0,0.008832936138539504,0.0,0.0,-0.06694706341316074,-0.07039442396338873,-0.1182335197187399,0.09200741336642472,-0.007678210458130373,0.03702191734477876
872,3.0,299.21834,743.80449,0.0,0.0,0.0,0.008843077282211766,0.0,0.0,-0.06785586769285273,-0.07564757148408402,-0.08259455298494772,0.08943337915688732,0.009457716152803912,0.008478484810336303
873,3.0,299.06186,294.52584,0.0,0.0,0.0,0.008853218425884025,0.0,0.0,-0.06299422785179623,-0.023769310245598276,-0.0027649632563556273,0.11792461016075288,0.023441493440745278,0.024306242619339377
874,3.0,299.66064,19.142262,0.0,0.0,0.0,0.008863359569556287,0.0,0.0,-0.003105365944675757,0.012524210986543388,-0.015237614707585487,0.0961885605198218,0.04331671636577706,-0.01689762639941588
875,3.0,300.1054,114.82766000000001,0.0,0.0,0.0,0.008873500713228549,0.0,0.0,0.009214841826359082,-0.015412802610125185,-0.02870678172413877,0.05297234843146375,0.0072183835798989935,-0.016051207928380884
876,3.0,301.33435,195.29782,0.0,0.0,0.0,0.00888364185690081,0.0,0.0,-0.002670879539520287,-0.015897395549950784,-0.040797386515888566,0.06808388240260603,0.03262307746039707,-0.023671576193952677
877,3.0,300.47596,185.70331000000002,0.0,0.0,0.0,0.008893783000573072,0.0,0.0,-0.02230222137280788,-0.004344204527064606,-0.02980274444305187,0.0912743867008306,0.017993079453528682,-0.01273964416980499
878,3.0,300.06276,162.32305,0.0,0.0,0.0,0.008903924144245332,0.0,0.0,-0.020502561525695278,-0.03441397776039517,0.005574385495299015,0.1061198715932159,0.044757076714179556,-0.04213395661679776
879,3.0,301.22354,557.43192,0.0,0.0,0.0,0.008914065287917593,0.0,0.0,-0.1036566099376109,-0.037150964877514764,-0.028637812829582075,0.08462297633363751,-0.004014594370859616,-0.001337841020509629
880,3.0,301.0878,835.93673,0.0,0.0,0.0,0.008924206431589855,0.0,0.0,-0.08366603355494462,-0.09102656193837222,-0.07941129708653483,0.08387398895246823,0.03784717814047567,-0.004431865758141095
881,3.0,299.02932999999996,737.7275400000001,0.0,0.0,0.0,0.008934347575262116,0.0,0.0,-0.059536731760817946,-0.06314624880404954,-0.1015677745914589,0.07620820175116393,0.026940210572291772,0.060581925583470544
882,3.0,299.50666,406.12833,0.0,0.0,0.0,0.008944488718934378,0.0,0.0,-0.03109398376098727,-0.029447248685217177,-0.06291163783614524,0.07763103185958632,-0.0005379889098853716,0.033501969583886966
883,3.0,300.33704,276.33361,0.0,0.0,0.0,0.008954629862606638,0.0,0.0,-0.006601063590924253,-0.035303539407438064,-0.042093914999345956,0.07464364429825414,-0.012573594769917188,0.051805803723834754
884,3.0,299.8604,363.28827,0.0,0.0,0.0,0.008964771006278899,0.0,0.0,-0.05395790741948085,-0.030201403641896468,-0.026271250697270574,0.06323433367499284,0.0015787299847085184,0.005812106127760214
885,3.0,299.77445,446.95140999999995,0.0,0.0,0.0,0.00897491214995116,0.0,0.0,-0.05645886603180624,-0.03907048309220646,-0.040332719139279466,0.11533558390273589,-0.006621651819706154,0.007013231034802014
886,3.0,299.97373999999996,194.31346000000002,0.0,0.0,0.0,0.008985053293623422,0.0,0.0,0.004137229550337766,-0.029306850724860976,-0.03389681794910547,0.1003316094694589,0.027354600478938874,-0.06232668450041484
887,3.0,299.85385,257.76995,0.0,0.0,0.0,0.008995194437295684,0.0,0.0,-0.01835360397160968,-0.024964944350348177,-0.035037077935890365,0.09769028937378091,0.024278766316377678,-0.010043564694997661
888,3.0,301.25972,392.35228,0.0,0.0,0.0,0.009005335580967944,0.0,0.0,-0.05122887938189675,-0.027458243805167676,-0.04057817188325376,0.0923396459152135,0.04145271209756416,-0.030139172860504767
889,3.0,301.64508,479.60177999999996,0.0,0.0,0.0,0.009015476724640205,0.0,0.0,-0.046572621283109863,-0.06130775716010453,-0.037906584993838664,0.07221213283453264,0.05226957538735545,-0.004364765904718856
890,3.0,301.61374,475.99842,0.0,0.0,0.0,0.009025617868312467,0.0,0.0,-0.07431401884197263,-0.04205863363086396,-0.028318980513365774,0.08869580907784481,0.04370302607240287,-0.0029810124956780276
891,3.0,301.65448,527.74557,0.0,0.0,0.0,0.009035759011984728,0.0,0.0,-0.03507969928809677,-0.08126571398230151,-0.04407606118946855,0.08523821166185651,0.00932235130966944,0.0022496234448955476
892,3.0,300.97508999999997,373.13313999999997,0.0,0.0,0.0,0.00904590015565699,0.0,0.0,0.0037895795906773863,-0.05938812343490144,-0.05782461368259504,0.08610959053585492,0.01061220804784339,0.025849649489661775
893,3.0,301.05736,388.95987,0.0,0.0,0.0,0.00905604129932925,0.0,0.0,-0.030295671364949973,-0.03727019300353166,-0.05066822378356435,0.09303640228022801,-0.022267212568602777,0.03579620491081037
894,3.0,299.82063,524.43367,0.0,0.0,0.0,0.009066182443001511,0.0,0.0,-0.047481186435778255,-0.05393505964297595,-0.05799849550575585,0.1026122530595409,0.009224144880827222,0.036907879085774066
895,3.0,299.86139,379.45119,0.0,0.0,0.0,0.009076323586673773,0.0,0.0,-0.04594442141986136,-0.04031431345121296,-0.029084954019211472,0.12118099333213288,0.018048227616721382,-0.008464152387671802
896,3.0,300.12692999999996,426.56105999999994,0.0,0.0,0.0,0.009086464730346034,0.0,0.0,-0.06340239133657884,-0.04765184409712086,-0.018609673550131784,0.1108431977293719,0.04043404718902976,0.003123156589931557
897,3.0,300.01125,567.47871,0.0,0.0,0.0,0.009096605874018296,0.0,0.0,-0.05393933150539754,-0.06178255095821304,-0.056777474419750444,0.09142771879871332,0.025002747698329077,-0.027459418162033573
898,3.0,299.45152,552.70805,0.0,0.0,0.0,0.009106747017690556,0.0,0.0,-0.04303669355489096,-0.043060157387456666,-0.08191259615089383,0.03298591522845637,0.011470310305781488,-0.001273289997713939
899,3.0,300.40166,442.4979,0.0,0.0,0.0,0.009116888161362817,0.0,0.0,-0.05262085501152405,-0.04040146207906386,-0.04148599635009906,0.05919130061622654,0.006790221679217703,-0.00967694152588977
900,3.0,300.72378,410.13345,0.0,0.0,0.0,0.009127029305035079,0.0,0.0,-0.07106429272374963,-0.015136607858116885,-0.03846942617263676,0.06175688533318003,0.03334608308250217,0.03228754880903297
901,3.0,300.67278999999996,400.73045,0.0,0.0,0.0,0.00913717044870734,0.0,0.0,-0.06653481957022545,-0.04707785412747246,-0.008199376964290503,0.1036795803173779,0.027271137041701674,0.012224413586705687
902,3.0,301.04118,436.29891,0.0,0.0,0.0,0.009147311592379602,0.0,0.0,-0.061456318876516446,-0.06483600141281515,-0.0063316527509854744,0.08907104193437743,0.026445681701985576,0.0067481568039662225
903,3.0,300.78533999999996,538.82456,0.0,0.0,0.0,0.009157452736051862,0.0,0.0,-0.028222802813873772,-0.07747935034611653,-0.058087057617496246,0.1027282195334859,0.011308400032552188,-0.017098546801495182
904,3.0,300.43621,435.81552999999997,0.0,0.0,0.0,0.009167593879724123,0.0,0.0,-0.012032304407495989,-0.05334535416427655,-0.06709938124769334,0.0880989044571849,0.007494969547770904,0.016274179692386485
905,3.0,299.876,186.31961,0.0,0.0,0.0,0.009177735023396385,0.0,0.0,0.008517087308671073,-0.024483712361104276,-0.04066988317630496,0.09292997859572481,0.017621899597396084,-0.004432531666106816
906,3.0,300.36769,227.07261,0.0,0.0,0.0,0.009187876167068645,0.0,0.0,-0.023076122547435976,-0.01087526905205549,-0.03507301285068687,0.09840918322698022,0.02285544072865638,-0.0003372351266525157
907,3.0,299.74537999999995,397.24087000000003,0.0,0.0,0.0,0.009198017310740908,0.0,0.0,-0.06994686328821793,-0.04145884935341986,-0.009345591923238111,0.06559679822389994,0.028578857885763673,-0.033695782036514764
908,3.0,300.4219,479.03107,0.0,0.0,0.0,0.009208158454413166,0.0,0.0,-0.0914442763185974,-0.028308994933630267,-0.025860212621954273,0.0908113010076276,0.033983271487387764,-0.025777358148027178
909,3.0,300.73069,445.67945,0.0,0.0,0.0,0.00921829959808543,0.0,0.0,-0.04111557541829136,-0.04654072416996186,-0.04781912662238036,0.0942922599179215,0.025786052847135272,-0.024651980778711075
910,3.0,300.56192000000004,304.45347999999996,0.0,0.0,0.0,0.009228440741757691,0.0,0.0,-0.024079618088723276,-0.022190413277273276,-0.04627622536385786,0.1115884127804189,0.023394763359383376,0.016191928102268882
911,3.0,300.03906,168.68966,0.0,0.0,0.0,0.009238581885429952,0.0,0.0,0.00990798636006712,-0.01328740717386499,-0.04789802435466695,0.07115110697906753,0.007903913133805493,0.021117031850088782
912,3.0,299.02246,294.72694,0.0,0.0,0.0,0.009248723029102212,0.0,0.0,-0.04575035160170816,-0.03090396390348377,-0.012935312896615989,0.08918650583627283,0.03263179039800697,0.02637472379748258
913,3.0,298.94321,533.15195,0.0,0.0,0.0,0.009258864172774474,0.0,0.0,-0.07786921757384344,-0.026044820710673676,-0.05815084069804115,0.05989828067475004,0.03637191943212897,0.02365249061506908
914,3.0,298.59427999999997,498.7,0.0,0.0,0.0,0.009269005316446734,0.0,0.0,-0.07197507689413703,-0.048578188749293955,-0.031039082830818972,0.0985378822016818,0.029448943852634468,0.0007385791748170892
915,3.0,299.80682,328.53055,0.0,0.0,0.0,0.009279146460118997,0.0,0.0,0.011708851670823688,-0.043459255323594556,-0.06811468013939553,0.060796154012363234,0.022049712355137183,-0.018745245400261682
916,3.0,299.83019,356.71136,0.0,0.0,0.0,0.009289287603791259,0.0,0.0,-0.040261866612786856,-0.005898313344943204,-0.06227116751418574,0.0930383933166745,0.023986548027287977,0.009775876278903872
917,3.0,300.85171,545.20061,0.0,0.0,0.0,0.00929942874746352,0.0,0.0,-0.04145687655547516,-0.030869400929322676,-0.09340109632247051,0.1014697426442839,0.012582005758997289,0.013037555911206587
918,3.0,300.63029,341.55334,0.0,0.0,0.0,0.00930956989113578,0.0,0.0,-0.06869357018652754,-0.0016337848275670083,-0.03349633084708047,0.10638024647141289,0.017729053835221383,-0.008431013232551222
919,3.0,300.98674,328.97867,0.0,0.0,0.0,0.009319711034808041,0.0,0.0,-0.041630737100383855,-0.03254885081107147,-0.025821711144654477,0.0981194271356335,-0.0027373947476348275,0.004944571625966225
920,3.0,299.74332999999996,359.91976,0.0,0.0,0.0,0.009329852178480301,0.0,0.0,-0.05671551721588574,-0.03330029532373327,-0.019390806290723584,0.086395702979842,0.004940280207817695,-0.018975661512751985
921,3.0,299.66897,382.58184,0.0,0.0,0.0,0.009339993322152563,0.0,0.0,-0.04303234164571146,-0.028989035711745072,-0.04427394893399855,0.08815259455348373,0.04118891142077906,-0.004889867772942376
922,3.0,299.3575,355.95874,0.0,0.0,0.0,0.009350134465824826,0.0,0.0,-0.03273654728609567,-0.042990103302042865,-0.03247591706887347,0.09341499710059241,0.004889518606957915,-0.0016516555195807082
923,3.0,301.17316,393.39419,0.0,0.0,0.0,0.009360275609497084,0.0,0.0,-0.005404491925856824,-0.056845946821758156,-0.057331572263435646,0.08756512734425523,0.005462521671008915,0.008414696663540902
924,3.0,300.46797999999995,409.9027,0.0,0.0,0.0,0.009370416753169348,0.0,0.0,-0.04289753277290686,-0.044476745875263055,-0.03722590688141096,0.09717939347460941,0.02916740217984847,-0.011849057113660888
925,3.0,300.53139,532.964,0.0,0.0,0.0,0.009380557896841609,0.0,0.0,-0.07948693012699923,-0.04479594802776586,-0.037724868720904664,0.1085354193016119,0.053925523946284845,-0.003527978578534377
926,3.0,301.44652,603.62948,0.0,0.0,0.0,0.009390699040513869,0.0,0.0,-0.07067496859807634,-0.05504879375539295,-0.057764525925164845,0.11196032622962389,0.04021443536235576,-0.013472636384895688
927,3.0,301.28322000000003,269.82592999999997,0.0,0.0,0.0,0.00940084018418613,0.0,0.0,-0.025302527872915075,-0.02247164185577838,-0.03424617442458427,0.0974057910372031,0.023047369549348277,-0.012910360599653387
928,3.0,300.60999,174.09288999999998,0.0,0.0,0.0,0.00941098132785839,0.0,0.0,-0.01246862003305699,-0.017374509519230585,-0.023076761908249078,0.09455078764118621,0.018808653578269583,-0.005573187529705786
929,3.0,300.00607,209.66992,0.0,0.0,0.0,0.009421122471530652,0.0,0.0,-0.017112424274864785,-0.007596788517194654,-0.03902520601148796,0.06747099882786914,0.031837788367895074,0.01967962208597748
930,3.0,299.13121,265.90909,0.0,0.0,0.0,0.009431263615202915,0.0,0.0,-0.04768070348646905,-0.025335024830122274,-0.007813994786806243,0.05776408921437175,0.006965383541229833,0.015537802208711685
931,3.0,299.94601,499.64725999999996,0.0,0.0,0.0,0.009441404758875177,0.0,0.0,-0.06442215866122203,-0.06296465513437764,-0.024493478065568078,0.07750180295508242,0.008094039281244483,0.0070952667013233035
932,3.0,299.89322999999996,589.86946,0.0,0.0,0.0,0.009451545902547437,0.0,0.0,-0.05174858447743765,-0.06655074786179743,-0.06100625547359864,0.1035875670757969,0.03103186241060637,0.0007760518992903593
933,3.0,299.6945,512.9130200000001,0.0,0.0,0.0,0.009461687046219698,0.0,0.0,-0.04799537235802446,-0.05023064970137916,-0.057686726555986646,0.1114739155191189,0.028396417139008177,0.007883369589353003
934,3.0,299.97412,607.9227900000001,0.0,0.0,0.0,0.009471828189891958,0.0,0.0,-0.06004370739535254,-0.05020213988331545,-0.07454750206251563,0.08918451176007601,-0.005564198380118625,-0.003935986326776606
935,3.0,300.05069,567.10117,0.0,0.0,0.0,0.00948196933356422,0.0,0.0,-0.04276476053280326,-0.07494718768371153,-0.054672646947270157,0.0912237748583356,0.01172286795945699,0.016713525948996586
936,3.0,300.36324,321.12108,0.0,0.0,0.0,0.009492110477236481,0.0,0.0,-0.033437861250059965,-0.035692970937621964,-0.028481958752200474,0.08617524204958422,0.029174760402074673,0.0052139516631019645
937,3.0,300.80854,200.29944,0.0,0.0,0.0,0.009502251620908744,0.0,0.0,-0.022592350340191376,-0.02884879379190427,-0.00944488404956248,0.1109493762073509,0.05740797334747585,0.004607154580390756
938,3.0,301.02575,179.16126,0.0,0.0,0.0,0.009512392764581004,0.0,0.0,-0.0033592174174039468,-0.03290831040329737,-0.01819302004276128,0.07869118125371492,0.018989490350116784,-0.00874130192524933
939,3.0,301.26142999999996,341.47119,0.0,0.0,0.0,0.009522533908253266,0.0,0.0,-0.005120065327386104,-0.04518730371988966,-0.053491346278434854,0.08677777223479932,0.008079881036272173,-0.007720976502451053
940,3.0,301.08312,535.09123,0.0,0.0,0.0,0.009532675051925526,0.0,0.0,-0.014909097746913385,-0.09420616000392411,-0.05353911595439935,0.10486252954412591,0.005862099077094134,-0.02003683935573208
941,3.0,300.93224,529.22205,0.0,0.0,0.0,0.009542816195597787,0.0,0.0,-0.053077912879882144,-0.054716816545629356,-0.05307555909989986,0.1030372709464869,0.024296470835374975,0.008182985820072822
942,3.0,300.57204,536.70168,0.0,0.0,0.0,0.009552957339270049,0.0,0.0,-0.09152109790142911,-0.06540743900546164,-0.006215371358909394,0.099725160032857,-0.008492792914998402,0.007698767073509153
943,3.0,300.83045,503.43958,0.0,0.0,0.0,0.009563098482942308,0.0,0.0,-0.07193874883830173,-0.04224584070608986,-0.038848472902545755,0.07721304795483452,0.01146615496712139,0.00025684925420904777
944,3.0,300.13712999999996,455.62444000000005,0.0,0.0,0.0,0.00957323962661457,0.0,0.0,-0.04442311961372056,-0.03671337255682776,-0.05736196166043485,0.0996276762539861,0.03976262511626556,0.002667423748729227
945,3.0,299.27074,385.19375,0.0,0.0,0.0,0.009583380770286833,0.0,0.0,-0.025658479593294776,-0.01823702346810408,-0.07319377865066352,0.09370234874945182,0.048220541861496956,0.02005639001641158
946,3.0,299.6145,288.26453,0.0,0.0,0.0,0.009593521913959095,0.0,0.0,-0.02951159817256797,-0.008849342554262112,-0.049264279643755855,0.09181523528620822,0.02258171425389168,-0.008652870117471793
947,3.0,300.10946,264.44709,0.0,0.0,0.0,0.009603663057631356,0.0,0.0,-0.04150305340228246,-0.017808570663319083,-0.02107368906381118,0.07450233441280793,0.00975297895446908,0.0023763855920309975
948,3.0,299.45943,298.93762000000004,0.0,0.0,0.0,0.009613804201303616,0.0,0.0,-0.06667462173952284,-0.019818588323942378,-0.004376360829588186,0.1015930247839509,0.050729835469144946,-0.02075315752717718
949,3.0,300.05948,486.72862000000003,0.0,0.0,0.0,0.009623945344975878,0.0,0.0,-0.06133955598799285,-0.05695988780875324,-0.029653905096112574,0.0945901615268221,0.044244038804296656,0.005156072486914735
950,3.0,299.84125,403.07991,0.0,0.0,0.0,0.00963408648864814,0.0,0.0,-0.05095350840221975,-0.037775535278905065,-0.033797183040272266,0.09340176912053691,0.011622179270519789,-0.023458199908394078
951,3.0,300.46682999999996,485.68704,0.0,0.0,0.0,0.0096442276323204,0.0,0.0,-0.04065864724594606,-0.038262713019735765,-0.06871537228892922,0.06887011179120084,-0.005334860568384745,0.02280788991471348
952,3.0,302.12862,602.01185,0.0,0.0,0.0,0.00965436877599266,0.0,0.0,-0.05065971146947425,-0.06844329234557703,-0.06389356533580394,0.07950597618912893,0.007013857223363813,0.005427173326695305
953,3.0,301.33817999999997,459.7548,0.0,0.0,0.0,0.00966450991966492,0.0,0.0,-0.05521201517425165,-0.04037652295435256,-0.04416544200728975,0.09313399042385923,0.03825089852356976,0.017192474072515083
954,3.0,300.13059,420.16281,0.0,0.0,0.0,0.009674651063337182,0.0,0.0,-0.06803910586743693,-0.030202829284787173,-0.029477066609159972,0.10454185615247791,-0.0006797621951323054,-0.0038251026193082366
955,3.0,299.48422999999997,337.67593999999997,0.0,0.0,0.0,0.009684792207009444,0.0,0.0,-0.033609707453769865,-0.016594897667038883,-0.05244044887096936,0.10762142718140788,0.002288905631397398,0.008539180821801532
956,3.0,299.5562,249.91293,0.0,0.0,0.0,0.009694933350681705,0.0,0.0,-0.008175697714753542,-0.017392771325782885,-0.05039882287347655,0.1156133562851499,0.018137910383072383,-0.015882376143718485
957,3.0,300.06381,463.88993,0.0,0.0,0.0,0.009705074494353967,0.0,0.0,-0.0026123947437482874,-0.05367497050130715,-0.08472359206856751,0.1181869608766449,0.03437217004801907,-0.007483417888680842
958,3.0,299.16624,497.27603,0.0,0.0,0.0,0.009715215638026227,0.0,0.0,-0.04870476597828616,-0.042563723606962464,-0.059891005539032045,0.08956474703235232,0.02285039778290868,-0.011643839517907489
959,3.0,300.22816,375.72128,0.0,0.0,0.0,0.00972535678169849,0.0,0.0,-0.07303642394988383,-0.04501683958931616,0.0038433767875117562,0.08587722594342231,0.03362481298626067,-0.014627942122415485
960,3.0,301.0439,388.36675,0.0,0.0,0.0,0.009735497925370751,0.0,0.0,-0.06335128806778535,-0.02824754739456587,-0.026454958006651073,0.09763831977615191,0.039111099222464966,0.017888735971480784
961,3.0,300.30057999999997,407.97491,0.0,0.0,0.0,0.009745639069043013,0.0,0.0,-0.04646679946916605,-0.02740039026420797,-0.050146995773123156,0.06715931701760854,0.058960880450735845,0.013028831827845588
962,3.0,299.93997,553.34908,0.0,0.0,0.0,0.009755780212715275,0.0,0.0,-0.05088791464374615,-0.05128676332035945,-0.06602962624261673,0.07236671021678823,-0.006066229556815244,0.03331369454305567
963,3.0,299.55033,563.34993,0.0,0.0,0.0,0.009765921356387534,0.0,0.0,-0.037880148285479566,-0.04663574473783966,-0.08672841884892851,0.08704739504665902,-0.0023981788791568276,0.007605947284848554
964,3.0,298.85193,531.41989,0.0,0.0,0.0,0.009776062500059794,0.0,0.0,-0.05221844780055955,-0.04072297444179466,-0.06859695374974224,0.10026269630365771,0.04377080642459225,-0.002020732983080818
965,3.0,299.37327999999997,400.14931,0.0,0.0,0.0,0.009786203643732056,0.0,0.0,-0.06339966366730963,-0.03654709821541777,-0.02168863561575168,0.11842543942018088,0.057604271302598944,-0.007279260861807113
966,3.0,298.53825,319.84474,0.0,0.0,0.0,0.009796344787404317,0.0,0.0,-0.03813269074040357,-0.04214619262500536,-0.016945932084683285,0.098433418142872,0.02073146890878668,-0.011843556178867988
967,3.0,299.12496,355.23725,0.0,0.0,0.0,0.009806485931076579,0.0,0.0,-0.04209183175714036,-0.03547096277446146,-0.030420459194265573,0.10627474687100091,0.02194430698698448,-0.013491885097045388
968,3.0,300.64538,353.13002,0.0,0.0,0.0,0.009816627074748839,0.0,0.0,-0.022324165330223578,-0.034442001218410866,-0.05057654187476605,0.10964554624367288,-0.003594073794482466,0.0028141851223634474
969,3.0,300.99593,287.16799,0.0,0.0,0.0,0.0098267682184211,0.0,0.0,0.005040231453332115,-0.05078823717840875,-0.04154389346081306,0.09214606549685861,0.009836385447050662,-0.01121843558267339
970,3.0,300.70255,359.5732,0.0,0.0,0.0,0.009836909362093362,0.0,0.0,-0.03609931665172517,-0.04244962049995136,-0.030752336092269267,0.05095466452058385,0.008798238677518552,0.0027650032797345778
971,3.0,299.71143,407.27682000000004,0.0,0.0,0.0,0.009847050505765623,0.0,0.0,-0.07616797166919352,-0.03754185548784267,-0.01009215682606833,0.0942927472912196,0.019534956316200083,0.013231395721587087
972,3.0,300.38559,559.70887,0.0,0.0,0.0,0.009857191649437887,0.0,0.0,-0.04852522211356655,-0.08346268540562572,-0.03814961404357376,0.0986306665265889,0.05146278411448135,0.01048512115405089
973,3.0,300.2231,561.62382,0.0,0.0,0.0,0.009867332793110145,0.0,0.0,-0.05044748116977875,-0.047304288167069754,-0.07296784718311584,0.1093076273353229,0.05359198734461735,0.016759428205026784
974,3.0,299.78954,456.15774000000005,0.0,0.0,0.0,0.009877473936782408,0.0,0.0,-0.016004766623297483,-0.04894844148158505,-0.07370735560959964,0.09881601834088172,0.015881475364379588,0.012137021778830788
975,3.0,299.73875,300.72231,0.0,0.0,0.0,0.00988761508045467,0.0,0.0,-0.003051599854619457,-0.03576288924752237,-0.05259758268322724,0.1034024057525229,0.004273529623314536,-0.016829735602965586
976,3.0,299.6248,278.445,0.0,0.0,0.0,0.009897756224126931,0.0,0.0,-0.06561604389629934,0.0018678464112670881,-0.020892128831392583,0.09484191060691781,0.004396475566598355,0.022968509307315376
977,3.0,299.92221,482.79249000000004,0.0,0.0,0.0,0.009907897367799191,0.0,0.0,-0.0919870004299101,-0.05999167092321694,0.0052218090123274255,0.09941530207277641,0.021963331770862078,-0.023306043180627376
978,3.0,300.52078,423.07319,0.0,0.0,0.0,0.00991803851147145,0.0,0.0,-0.06840646171769214,-0.03213001070998517,-0.02806721319476827,0.06804882293589594,0.012352909911387289,0.007969477812001222
979,3.0,300.17862,232.95412000000002,0.0,0.0,0.0,0.009928179655143712,0.0,0.0,-0.01144954881123249,-0.036659209272732265,-0.02270347651840868,0.07599598665021992,0.02037654158425808,-0.0035903332804133065
980,3.0,300.13311,390.7145,0.0,0.0,0.0,0.009938320798815974,0.0,0.0,-0.005270162117699505,-0.05191913068126925,-0.06157815916129114,0.08210550478443243,0.04734364178770366,0.026183685623628578
981,3.0,300.01497,379.76056,0.0,0.0,0.0,0.009948461942488235,0.0,0.0,-0.008110344197878653,-0.02575364302943668,-0.08157374099945143,0.11497771409991689,0.027717823282036175,0.00928536697174437
982,3.0,299.39628999999996,302.23652000000004,0.0,0.0,0.0,0.009958603086160497,0.0,0.0,-0.06072672408901104,-0.03152911084418097,0.0003834801651915456,0.11162886172441089,0.027513764844397177,0.011029181742245488
983,3.0,299.62872000000004,455.24554000000006,0.0,0.0,0.0,0.009968744229832757,0.0,0.0,-0.06290816644130265,-0.05621775202476014,-0.01925735821280328,0.08466251639228982,0.012225673056579987,-0.0061116712906749944
984,3.0,299.7201,364.89526,0.0,0.0,0.0,0.009978885373505018,0.0,0.0,-0.06456401063547174,-0.017676700215804485,-0.028678335740831375,0.0996742097648286,0.032839571516513365,0.01054438311264959
985,3.0,300.13896,326.3157,0.0,0.0,0.0,0.00998902651717728,0.0,0.0,-0.016044038170673285,-0.05641297289502695,-0.02673481565777087,0.07087224737929623,0.02619463987045968,-0.011197104641568189
986,3.0,300.31287000000003,467.72419,0.0,0.0,0.0,0.009999167660849542,0.0,0.0,-0.0015115775436060886,-0.04196799536966866,-0.0986969026856259,0.08608236045266751,0.03690925811916017,-0.007743183904892753
987,3.0,300.65814,389.23488,0.0,0.0,0.0,0.010009308804521805,0.0,0.0,-0.03032330776142747,-0.03880311070881886,-0.04919126382829975,0.07960044250920202,0.012283305709017887,-0.009595719600523791
988,3.0,299.84358,171.4058,0.0,0.0,0.0,0.010019449948194063,0.0,0.0,-0.02637578872333768,-0.020513821774056584,-0.0052134724971296745,0.10236565838270391,0.03817955558402876,0.0014882977172585485
989,3.0,300.09331000000003,321.73711000000003,0.0,0.0,0.0,0.010029591091866326,0.0,0.0,-0.07047369659821234,-0.027150165112262675,-0.00017618499130060483,0.13471823758315488,0.012098332850262489,-0.007498198573189583
990,3.0,300.0584,501.8548,0.0,0.0,0.0,0.010039732235538588,0.0,0.0,-0.06361207939177345,-0.05637440251672036,-0.03256484597715007,0.13821930038868288,0.006734494747567884,0.0072955303146877825
991,3.0,299.67829,332.99226,0.0,0.0,0.0,0.010049873379210848,0.0,0.0,-0.016509118953323184,-0.03552331639387837,-0.04918889788931625,0.12017758189060389,0.005774045718228944,-0.0014333624379118586
992,3.0,299.33094,265.89002999999997,0.0,0.0,0.0,0.01006001452288311,0.0,0.0,0.009408475642994251,-0.02039925358524958,-0.06983315230899553,0.10068588527417321,0.01124562310935659,0.012931265975716588
993,3.0,299.36617,387.29028999999997,0.0,0.0,0.0,0.010070155666555369,0.0,0.0,-0.040125933032371254,-0.04109058664432516,-0.03651005784476217,0.08998031129586533,0.03345180458468607,0.00989500652496111
994,3.0,298.88172000000003,426.37939000000006,0.0,0.0,0.0,0.01008029681022763,0.0,0.0,-0.08828955151650032,-0.014078997668738885,-0.027240139694642472,0.08180146895942642,0.027650672158158876,0.023604940814376276
995,3.0,299.85584,473.46040999999997,0.0,0.0,0.0,0.010090437953899892,0.0,0.0,-0.07557406322907932,-0.05372839208632946,-0.014617686004903287,0.08511928548436942,0.02688063653266227,-0.0030885856110946667
996,3.0,301.091,449.98965999999996,0.0,0.0,0.0,0.010100579097572154,0.0,0.0,-0.07017688625966943,-0.027000659046757577,-0.03960807711826286,0.06794540252468914,0.05372482747247764,0.028863591296364673
997,3.0,300.42626,325.48348,0.0,0.0,0.0,0.010110720241244415,0.0,0.0,-0.011348299794989988,-0.02099792328758368,-0.06659262650168053,0.0984781338830351,0.018957180844178082,-0.01013591666608709
998,3.0,300.06077,222.33931,0.0,0.0,0.0,0.010120861384916675,0.0,0.0,0.01104070442238269,-0.026165108696295177,-0.05246119314026665,0.1163643367292659,0.022800386797722977,0.009646129096973821
999,3.0,300.62677,321.31289,0.0,0.0,0.0,0.010131002528588937,0.0,0.0,-0.03577760569197476,-0.02125071601528238,-0.04064277265662936,0.13407630311480087,0.007088892243619193,-0.01151966065190199
1000,3.0,300.52693,504.58909000000006,0.0,0.0,0.0,0.010141143672261198,0.0,0.0,-0.06271075897732004,-0.050734459942601354,-0.03993726383725106,0.13001735493671387,0.016264790916959884,0.022445732037471276
1001,3.0,300.86312000000004,515.7665400000001,0.0,0.0,0.0,0.01015128481593346,0.0,0.0,-0.10748823545576289,-0.04760524067202146,-0.0016866735443617183,0.08911891901485251,0.010629593393059189,-0.0011677179499197889
1002,3.0,300.95661,590.52675,0.0,0.0,0.0,0.010161425959605723,0.0,0.0,-0.07359991563524614,-0.056147259202053046,-0.04975820968325295,0.08455427899010762,0.006091189554478604,0.030184513775979572
1003,3.0,299.92949,387.56144,0.0,0.0,0.0,0.010171567103277981,0.0,0.0,-0.02403414747723568,-0.04229042675024016,-0.05148442409686705,0.10549496985904289,0.0008439358056399792,-0.005103270808303615
1004,3.0,299.40932000000004,263.12908,0.0,0.0,0.0,0.010181708246950241,0.0,0.0,0.015684179357907984,-0.03160174973059987,-0.06406710062743054,0.09101354674083771,0.02721898201930437,0.02038372046121658
1005,3.0,300.16927999999996,492.83074000000005,0.0,0.0,0.0,0.010191849390622504,0.0,0.0,-0.05287339240019755,-0.044735289810529356,-0.052199556765695154,0.12028465202867088,0.04410349898892646,-0.012781175264903789
1006,3.0,299.23483,504.24169000000006,0.0,0.0,0.0,0.010201990534294766,0.0,0.0,-0.06911519064588824,-0.05695439497996115,-0.027207297219151178,0.08306191864657313,0.02805322223738747,0.0005497485385584566
1007,3.0,298.82412,197.81985,0.0,0.0,0.0,0.010212131677967027,0.0,0.0,-0.05269547277538825,-0.01050447321771079,0.003067650749453557,0.1036210549916019,0.04385144998680116,-0.00979894788235586
1008,3.0,300.10900000000004,267.61932,0.0,0.0,0.0,0.010222272821639287,0.0,0.0,-0.004900347818726675,-0.049677501273037654,-0.026771741531165176,0.1050974313148089,0.036643771394208664,-0.012363862131718186
1009,3.0,299.88027999999997,475.70940999999993,0.0,0.0,0.0,0.010232413965311549,0.0,0.0,-0.015139717522673787,-0.05223766814170645,-0.07722639752490203,0.10725760960050189,0.04250473927889116,-0.003423203654593897
1010,3.0,300.35523,566.62777,0.0,0.0,0.0,0.01024255510898381,0.0,0.0,-0.03683573669190417,-0.06467761927643403,-0.07072733741624472,0.07182785368110722,0.016101460067090387,-0.008051421475413432
1011,3.0,300.7107,399.88543,0.0,0.0,0.0,0.010252696252656072,0.0,0.0,-0.042734719693838456,-0.04500001963765616,-0.03382044726256826,0.07526706871378133,-0.0013884443517037889,0.011116049699818688
1012,3.0,300.70301,233.71392000000003,0.0,0.0,0.0,0.010262837396328333,0.0,0.0,-0.053952799625726744,-0.035298140810905265,0.018207744593214482,0.1108653169790549,0.04045677641527296,0.003097501705349617
1013,3.0,300.44237999999996,508.5151,0.0,0.0,0.0,0.010272978540000593,0.0,0.0,-0.09409239329594621,-0.03969419121776166,-0.02078930725099488,0.12454422372655788,0.03149428138524357,0.02814869876781027
1014,3.0,300.28384,509.34492,0.0,0.0,0.0,0.010283119683672855,0.0,0.0,-0.07840463817843532,-0.033681701913125174,-0.04274179927228716,0.1070847693984439,0.0060097030695115145,-0.01963992092055928
1015,3.0,299.63114,344.6796,0.0,0.0,0.0,0.010293260827345116,0.0,0.0,0.006329187108192134,-0.04598176171254655,-0.06512141674073343,0.07158580849721924,-0.00860601439309749,0.0013391995862437086
1016,3.0,300.15346,291.67768,0.0,0.0,0.0,0.010303401971017378,0.0,0.0,0.020249787036498382,-0.04795469847251025,-0.06095782110556854,0.10354514229410991,0.02196590238636578,-0.01130610299457549
1017,3.0,299.36512,374.17467,0.0,0.0,0.0,0.010313543114689638,0.0,0.0,-0.020950140439367878,-0.04818229977622275,-0.04460731530964925,0.08275982522200882,0.013931052008387786,0.01322029556674159
1018,3.0,299.46935,603.4995,0.0,0.0,0.0,0.010323684258361897,0.0,0.0,-0.08874067984527323,-0.06786188234544634,-0.02684621744001537,0.08990639470107031,0.05065373532038445,-0.009220273353520133
1019,3.0,299.98602999999997,644.40116,0.0,0.0,0.0,0.010333825402034159,0.0,0.0,-0.09517840083262681,-0.04495422275963636,-0.055749238350771446,0.04614222101163266,0.045785740374700755,0.02279603590179358
1020,3.0,300.29214,225.17191,0.0,0.0,0.0,0.010343966545706422,0.0,0.0,-0.03853524993888306,-0.018162550599004183,-0.011748838572770091,0.07902762486991934,0.03960864859131926,-0.0019013808352516782
1021,3.0,300.61485,170.20221,0.0,0.0,0.0,0.010354107689378684,0.0,0.0,0.02983598005958197,-0.039521271982195856,-0.042051930981452455,0.09853971010486222,0.03487341575323817,0.018017427853431685
1022,3.0,300.96463,579.3759299999999,0.0,0.0,0.0,0.010364248833050945,0.0,0.0,-0.03830387731829836,-0.06785510167577714,-0.06995683772220233,0.13046139152803687,-0.012113956153554388,-0.008612961438433112
1023,3.0,300.17389,726.43502,0.0,0.0,0.0,0.010374389976723205,0.0,0.0,-0.06653366547836154,-0.06907986773415213,-0.08520457277178661,0.11250576889095489,-0.006238618659928724,0.017820441901490684
1024,3.0,299.97521,360.15776,0.0,0.0,0.0,0.010384531120395467,0.0,0.0,-0.04544315038338975,-0.055009586042773444,-0.009026228866619431,0.1053005271648529,0.026195045170499674,-0.012896525682787988
1025,3.0,299.62694,243.05717,0.0,0.0,0.0,0.010394672264067728,0.0,0.0,-0.013015741649803686,-0.04056262761346966,-0.020304942292441782,0.096044336527088,0.03787127626760396,0.020188023363402783
1026,3.0,299.30717999999996,487.25935,0.0,0.0,0.0,0.01040481340773999,0.0,0.0,-0.03379107415541937,-0.06248892711967694,-0.051834674258934045,0.09290280221479272,0.01695054845213888,-0.024808602899668474
1027,3.0,299.6455,653.06614,0.0,0.0,0.0,0.010414954551412252,0.0,0.0,-0.04494517950249386,-0.058062374845060244,-0.0955082441376798,0.08218800056782412,0.003786143558263277,-0.0005788062513487294
1028,3.0,300.38406000000003,393.87081,0.0,0.0,0.0,0.010425095695084511,0.0,0.0,-0.03551318693262867,-0.03436423123348557,-0.04984947413301005,0.09745626710418472,0.01088097567661869,-0.0068572211195550336
1029,3.0,300.89373,78.736586,0.0,0.0,0.0,0.010435236838756773,0.0,0.0,-0.02068979798517408,-0.006616262038449223,0.003372103425550697,0.08448226122600001,0.02550060408196368,0.01981514124710218
1030,3.0,300.70961,182.98831,0.0,0.0,0.0,0.010445377982429034,0.0,0.0,-0.04274272943587896,-0.011947320081858687,-0.0009338265111765011,0.1045830245040409,0.04523789327088246,0.00957020363253056
1031,3.0,301.2794,409.55733,0.0,0.0,0.0,0.010455519126101294,0.0,0.0,-0.07182263544309223,-0.026779796869460176,-0.025892769360917375,0.1010875163355611,0.04516405874934556,0.004548083214135865
1032,3.0,299.15977000000004,426.09607,0.0,0.0,0.0,0.010465660269773556,0.0,0.0,-0.02037634805348898,-0.04411714746777346,-0.06502906811336935,0.08808004381982351,0.05258759001074105,-0.016523091672202186
1033,3.0,299.95034,371.42655,0.0,0.0,0.0,0.010475801413445816,0.0,0.0,-0.003513590528439387,-0.04471086744336905,-0.06467993759266284,0.1042198655356999,0.018735348986534985,-0.015766604213792685
1034,3.0,299.41444,309.93271,0.0,0.0,0.0,0.010485942557118077,0.0,0.0,-0.006898835402487044,-0.059212428907311744,-0.02810054203030757,0.10990332720161389,-0.012802963181804088,-0.021249519366914278
1035,3.0,299.98548,414.91892,0.0,0.0,0.0,0.01049608370079034,0.0,0.0,-0.06451985319611374,-0.016337713513406783,-0.04526742545829705,0.12628631475598887,-0.012823719610102589,0.018554404810177182
1036,3.0,299.42216,353.33142000000004,0.0,0.0,0.0,0.010506224844462602,0.0,0.0,-0.05114199723882216,-0.041981559748757356,-0.014280372006862985,0.11454125661934188,-0.008393655005339251,0.01898273197194978
1037,3.0,300.28885,183.0282,0.0,0.0,0.0,0.010516365988134864,0.0,0.0,-0.012589578790244688,-0.013752689593284786,-0.02929373420231647,0.10715859480072991,0.045265873159143856,0.018904294255208582
1038,3.0,299.18662,192.96138,0.0,0.0,0.0,0.010526507131807123,0.0,0.0,-0.006548858817947044,-0.013541487742440787,-0.038565096233828665,0.06159194848190203,0.03525490948213867,0.0076484625497694825
1039,3.0,300.62537000000003,414.95269,0.0,0.0,0.0,0.010536648275479385,0.0,0.0,-0.032820637925144766,-0.03391586705098547,-0.05939875242845045,0.09814296696195672,0.04399112144683566,-0.009160084169754923
1040,3.0,300.26814,442.65457999999995,0.0,0.0,0.0,0.010546789419151647,0.0,0.0,-0.05845524230633324,-0.03883969916992987,-0.03726099674562407,0.09606928274455001,0.04127839153711006,-0.0077502904357941126
1041,3.0,300.82132,441.60757,0.0,0.0,0.0,0.010556930562823908,0.0,0.0,-0.06911906024802013,-0.03385126931736017,-0.03126734578684677,0.12635534748530186,0.025071645665378773,-0.003066572955322187
1042,3.0,301.05372,458.59919,0.0,0.0,0.0,0.01056707170649617,0.0,0.0,-0.05751169570721245,-0.05041297493762325,-0.03147803189338987,0.09818139143224891,0.006493111519970213,-0.001042762630362659
1043,3.0,299.70833999999996,406.18042,0.0,0.0,0.0,0.01057721285016843,0.0,0.0,-0.03642920555303267,-0.025006328524182476,-0.06203317127769734,0.0996137876348654,0.009016281993037752,0.007665431246544162
1044,3.0,299.62637,440.91898,0.0,0.0,0.0,0.010587353993840691,0.0,0.0,-0.01058817578197159,-0.06043689301715694,-0.06300329036069065,0.12209086152442988,0.03942071805552196,-0.006650779720330854
1045,3.0,299.28052,453.41812000000004,0.0,0.0,0.0,0.01059749513751295,0.0,0.0,-0.027846889053273975,-0.052887731915612746,-0.057093165660656746,0.09765457433425609,0.055441169790367444,0.005234175932447945
1046,3.0,299.56955,272.86546,0.0,0.0,0.0,0.010607636281185212,0.0,0.0,-0.04204533472330146,-0.022668952047751375,-0.01822999961841088,0.11916870903103588,0.005316881458610345,-0.025682806714945675
1047,3.0,299.01547,206.15644,0.0,0.0,0.0,0.010617777424857474,0.0,0.0,-0.053653114696650156,-0.03025699560863297,0.02124370027158998,0.1006924278300689,0.019128573111843183,0.023717627397747576
1048,3.0,299.72622,355.99721,0.0,0.0,0.0,0.010627918568529734,0.0,0.0,-0.07013428517246503,-0.023651662789737377,-0.014428315640713885,0.1066834615638379,0.02337068651050718,-0.00931546556596487
1049,3.0,299.60708999999997,433.93797,0.0,0.0,0.0,0.010638059712201995,0.0,0.0,-0.014054725262593387,-0.04631645240607796,-0.07153512978021763,0.1019868852303219,0.012064019135625988,0.001917576016900018
1050,3.0,299.8773,380.09927999999996,0.0,0.0,0.0,0.010648200855874259,0.0,0.0,-0.0016179804564822385,-0.06579268479948244,-0.04813002620356375,0.07611132085610253,0.012553525325186488,-0.05534688180231194
1051,3.0,300.47353,447.59223,0.0,0.0,0.0,0.01065834199954652,0.0,0.0,-0.02995251598008317,-0.03257575260122647,-0.07352859397395722,0.07274781992390084,0.01942224845457668,-0.00018017871656975484
1052,3.0,300.56998,306.64592999999996,0.0,0.0,0.0,0.010668483143218782,0.0,0.0,-0.06344897956292674,-0.036338542973834966,0.0065748147391336935,0.10673759951668091,0.03295032177894357,-0.02179702196569858
1053,3.0,300.39254,379.77662000000004,0.0,0.0,0.0,0.010678624286891042,0.0,0.0,-0.059669384437409746,-0.03289796410652626,-0.022875260913862477,0.09622470619063911,0.05302673665708146,0.016826636070909683
1054,3.0,299.84427,553.23838,0.0,0.0,0.0,0.010688765430563303,0.0,0.0,-0.07288893019907733,-0.044084759941577054,-0.05119696200374675,0.13405051589975586,0.013348692592913386,0.008264466732164362
1055,3.0,300.4178,549.40157,0.0,0.0,0.0,0.010698906574235565,0.0,0.0,-0.016024422661987385,-0.07986699821300902,-0.07111293987430073,0.10263580099186491,0.0003083565260824197,0.014182881135241384
1056,3.0,300.52288,432.17970999999994,0.0,0.0,0.0,0.010709047717907826,0.0,0.0,-0.0004248604278804596,-0.04959822863821405,-0.08134875084124663,0.1136601951273879,0.02254027131155158,0.019032783487139483
1057,3.0,301.7923,452.7272,0.0,0.0,0.0,0.010719188861580086,0.0,0.0,-0.04155275027993716,-0.04433794175731416,-0.05172707216456455,0.10997420404610889,0.016661741776135882,0.004841086366753026
1058,3.0,300.85346,407.31822999999997,0.0,0.0,0.0,0.010729330005252348,0.0,0.0,-0.06504601269479164,-0.03474568037938167,-0.024022877096373376,0.11675346529766989,0.04234177826530816,0.019102212397241584
1059,3.0,299.92681,267.57612,0.0,0.0,0.0,0.010739471148924607,0.0,0.0,-0.06009555844271984,-0.02116634267945538,-7.455767509351963e-05,0.08977084108944222,0.027747130527928578,0.012545412231635788
1060,3.0,300.23514,365.02949,0.0,0.0,0.0,0.010749612292596869,0.0,0.0,-0.03538363784109316,-0.03721462231504726,-0.03836159103074426,0.0981315719513321,0.028458341918869676,0.003090951246103137
1061,3.0,299.88425,478.46950999999996,0.0,0.0,0.0,0.01075975343626913,0.0,0.0,-0.026744262188453178,-0.05029805616428166,-0.06840046530360035,0.08557490048458512,0.036969402618595965,-0.0064878155656725445
1062,3.0,299.98107000000005,450.29112000000003,0.0,0.0,0.0,0.010769894579941392,0.0,0.0,-0.02056583899444028,-0.04698695242125116,-0.06932446529504203,0.1101607231245169,0.025987560934272576,-0.017281019972253883
1063,3.0,299.39986,496.03126,0.0,0.0,0.0,0.010780035723613652,0.0,0.0,-0.049365001769946355,-0.06914896531147152,-0.032267151071269866,0.11727174272381989,0.03794522022015167,-0.004095997262693456
1064,3.0,300.34745,466.96962,0.0,0.0,0.0,0.010790176867285915,0.0,0.0,-0.08430271330828003,-0.031142109087736868,-0.02650228286582168,0.0994004934225649,0.016157425923113783,0.002041881437843008
1065,3.0,301.06277,388.36001,0.0,0.0,0.0,0.010800318010958177,0.0,0.0,-0.06762258712232973,-0.032262473908808265,-0.01816668465941218,0.1131752333645259,0.020603709216927783,0.01026893411271489
1066,3.0,300.78395,284.09395,0.0,0.0,0.0,0.010810459154630438,0.0,0.0,-0.008708094173096982,-0.031635842556714575,-0.046013532169432055,0.1019469834413839,0.017944660284250083,0.005924405852243334
1067,3.0,301.02425,383.54715,0.0,0.0,0.0,0.0108206002983027,0.0,0.0,-0.003704722529252646,-0.04718687578523205,-0.06569715963305484,0.12959570104009988,0.018962057616909382,0.01962054859189738
1068,3.0,301.21615,410.71949,0.0,0.0,0.0,0.01083074144197496,0.0,0.0,0.004887987991356855,-0.05083140669891925,-0.07890505099207222,0.09471425122681881,-0.0026716338028947273,-0.0028999828851810276
1069,3.0,300.64727,269.75169,0.0,0.0,0.0,0.010840882585647221,0.0,0.0,-0.05940565266163144,-0.01195614143722929,-0.01063598294818979,0.09737090787601041,0.019699842504973083,0.005489889454884905
1070,3.0,300.24478999999997,328.07042,0.0,0.0,0.0,0.010851023729319483,0.0,0.0,-0.060418878443629045,-0.03205540003887167,-0.007250935353936603,0.11844175274679089,0.03224016822110687,-0.0090460203768477
1071,3.0,299.98893,345.30312000000004,0.0,0.0,0.0,0.010861164872991743,0.0,0.0,-0.08428291440132601,-0.017315224255879585,-0.003365387705212907,0.1083681823726069,0.04157274474416046,-0.003668302571633277
1072,3.0,299.7702,328.67967999999996,0.0,0.0,0.0,0.010871306016664004,0.0,0.0,-0.010684145765193092,-0.04105403668671796,-0.04817223313647925,0.1048883674216759,0.048951779127414455,-0.015060263516082285
1073,3.0,300.16085,469.53963,0.0,0.0,0.0,0.010881447160336264,0.0,0.0,-0.04283313363630116,-0.04236018496662476,-0.05753500451251285,0.09061157320091602,0.04103762811459856,-0.0006667914286146903
1074,3.0,299.51223999999996,520.5641,0.0,0.0,0.0,0.010891588304008526,0.0,0.0,-0.031402145540400474,-0.04909247700980025,-0.07774386637747223,0.08995991153160202,0.03408662705058817,-0.0017132526143598685
1075,3.0,299.15391,422.25479,0.0,0.0,0.0,0.010901729447680787,0.0,0.0,-0.06211372972689785,-0.040879984637540355,-0.025361199106705475,0.12810209946519288,0.014527538156756387,0.023576883919107276
1076,3.0,300.54273,503.68885,0.0,0.0,0.0,0.010911870591353049,0.0,0.0,-0.06779129225072963,-0.05679702508042995,-0.02852051595825577,0.12837902071752288,0.024496950473660774,0.010842755882846689
1077,3.0,300.74504,544.50123,0.0,0.0,0.0,0.010922011735025312,0.0,0.0,-0.054601858255533854,-0.054813062132878045,-0.05609985834912495,0.13246739367851387,0.03271572702304087,0.019984699532086283
1078,3.0,301.46383,357.15802,0.0,0.0,0.0,0.01093215287869757,0.0,0.0,0.001915255370195988,-0.040483609304421166,-0.06999876398484013,0.10941811212622689,0.012476351131319988,0.006726359565165004
1079,3.0,300.67726,446.11455,0.0,0.0,0.0,0.010942294022369833,0.0,0.0,-0.014286309652448986,-0.040578033067990064,-0.08074334201249742,0.09786924757994271,0.023738913755848377,0.006030670861780874
1080,3.0,300.31698,498.74192,0.0,0.0,0.0,0.010952435166042095,0.0,0.0,-0.035039029455582966,-0.054584024040523746,-0.06198203761140084,0.0917193250847426,0.018926952553944783,-0.004338330310934866
1081,3.0,300.18944,363.01222,0.0,0.0,0.0,0.010962576309714357,0.0,0.0,-0.06528865569623864,-0.016373938217731882,-0.028684055537645872,0.0864581556630056,0.01127716558496959,-0.01110597900707479
1082,3.0,300.46143,383.60757,0.0,0.0,0.0,0.010972717453386618,0.0,0.0,-0.07457188389967194,-0.01032832678057649,-0.03170690989222837,0.08784459793383682,0.04104396295422376,0.004621677595399065
1083,3.0,299.63209,513.8331400000001,0.0,0.0,0.0,0.010982858597058878,0.0,0.0,-0.06985527054542844,-0.03812168380456726,-0.048215489796498354,0.09819291309913601,0.028687100354196374,-0.005807064904537684
1084,3.0,299.49272,545.2259,0.0,0.0,0.0,0.01099299974073114,0.0,0.0,-0.039618677740809065,-0.05921732797154524,-0.06689905258367244,0.13135010305824588,0.048513904109949546,0.006640947749310514
1085,3.0,299.4789,346.0911,0.0,0.0,0.0,0.0110031408844034,0.0,0.0,-0.020826602960675678,-0.03684307768887867,-0.04753337185567855,0.1108188087994649,0.028445226409575274,0.006215319987129324
1086,3.0,298.93151,301.49992000000003,0.0,0.0,0.0,0.01101328202807566,0.0,0.0,-0.02892781919370347,-0.03417180794674487,-0.028548820086549177,0.13464862730128488,0.03321171497349107,0.015093210356333884
1087,3.0,299.74556,323.4732,0.0,0.0,0.0,0.011023423171747922,0.0,0.0,-0.07575129587032084,-0.021960107609043877,-0.0006163729952987784,0.07354864518018613,2.8050162222085473e-05,0.024405036530589577
1088,3.0,299.45512,395.20592,0.0,0.0,0.0,0.011033564315420182,0.0,0.0,-0.053627910100412644,-0.03990275760509557,-0.026602061656169077,0.12106634408331787,0.0026445458786963573,-0.007465749745362133
1089,3.0,299.12113,469.06467999999995,0.0,0.0,0.0,0.011043705459092444,0.0,0.0,-0.04495871145757936,-0.05920991807356395,-0.03841531963054686,0.1100207730207049,-7.685630995237722e-05,-0.004943975024307345
1090,3.0,299.92601,316.65972,0.0,0.0,0.0,0.011053846602764705,0.0,0.0,0.006302979597005654,-0.022007370659958378,-0.08055225621588873,0.11136179939555389,0.03762837590063156,-0.01960857906846608
1091,3.0,301.21443999999997,309.63451000000003,0.0,0.0,0.0,0.011063987746436967,0.0,0.0,-0.007208601866083613,-0.04934489990121245,-0.03756765688838907,0.08283848788027222,0.02296552731227108,-0.0064477742521957745
1092,3.0,299.77862999999996,343.88525,0.0,0.0,0.0,0.01107412889010923,0.0,0.0,-0.03530116434920367,-0.015519839310938886,-0.053711523498664655,0.0954315998736156,0.05204326699077054,-0.008162011441677811
1093,3.0,299.84915,409.26792,0.0,0.0,0.0,0.011084270033781488,0.0,0.0,-0.0827538744041715,-0.03390998412090487,-0.007743370950861212,0.12952711414083087,0.04664734442498446,0.003129409964248717
1094,3.0,299.64957000000004,348.51606,0.0,0.0,0.0,0.011094411177453752,0.0,0.0,-0.03800302309860636,-0.04456227330295395,-0.023374883392421376,0.13138619502680787,0.03182455734808927,-0.016204530907012682
1095,3.0,299.96261,308.45519,0.0,0.0,0.0,0.011104552321126013,0.0,0.0,-0.04910497342328355,-0.015044380820764787,-0.02961332240310737,0.1252970584183569,0.010236181816482491,0.014511326155156384
1096,3.0,299.46555,474.0407,0.0,0.0,0.0,0.011114693464798275,0.0,0.0,-0.01646590586305838,-0.06496576024712133,-0.06266487090679124,0.1042924243753609,0.026364356222459376,-0.004403439938510685
1097,3.0,298.81122999999997,477.67260999999996,0.0,0.0,0.0,0.011124834608470534,0.0,0.0,-0.03432856989621606,-0.06003561051380345,-0.050836365544908654,0.0922073012666521,0.009433473738861371,0.02088717099865328
1098,3.0,299.19718,399.49112,0.0,0.0,0.0,0.011134975752142796,0.0,0.0,-0.04974460984041075,-0.03546077150495567,-0.03622994384136707,0.09748276460754982,0.015191489536533287,0.012919808143585789
1099,3.0,300.25759,499.95342999999997,0.0,0.0,0.0,0.011145116895815056,0.0,0.0,-0.08663308214701951,-0.05033801672172545,-0.015002259000857684,0.09868380237508301,0.005521876645966795,0.0029452700984005276
1100,3.0,300.90626000000003,525.97856,0.0,0.0,0.0,0.011155258039487317,0.0,0.0,-0.06019445469223015,-0.04014158369341586,-0.05954830915646054,0.12197282802028088,0.02287868975220088,-0.003526136895152616
1101,3.0,300.14945,451.55684,0.0,0.0,0.0,0.011165399183159579,0.0,0.0,-0.03317965574032707,-0.053886082172892244,-0.05019626708573585,0.14628655450485886,0.024893229548020476,0.00037388512244208866
1102,3.0,299.05082000000004,432.04285,0.0,0.0,0.0,0.01117554032683184,0.0,0.0,0.006768482398322203,-0.053728618041101746,-0.08437010355918091,0.12844949226197788,0.04078951558911176,-0.02570717031360018
1103,3.0,299.14493,316.67281,0.0,0.0,0.0,0.0111856814705041,0.0,0.0,-0.028506108555083873,-0.013437701547947887,-0.05431681580365235,0.10407614614151589,0.020350482818186282,0.02108781275695508
1104,3.0,300.05133,301.09996,0.0,0.0,0.0,0.011195822614176362,0.0,0.0,-0.04537355428702116,-0.03439232865875857,-0.011760985414968889,0.09126207165911522,0.06712915154888144,0.004026329124242747
1105,3.0,299.87343,423.63655,0.0,0.0,0.0,0.011205963757848623,0.0,0.0,-0.06702796636739523,-0.051910058039873856,-0.009836907777477212,0.09081358487335302,0.07219550134739124,0.008530241017494241
1106,3.0,300.40289,433.31038,0.0,0.0,0.0,0.011216104901520885,0.0,0.0,-0.04897454787041155,-0.05008446000345136,-0.03265652889919847,0.07743488183897783,0.04044505919111656,0.0030341750939747673
1107,3.0,300.75061,463.53324000000003,0.0,0.0,0.0,0.011226246045193148,0.0,0.0,-0.02124325849454638,-0.08882815980590682,-0.03083111122129377,0.11155820779493789,0.0041067614238057965,-0.014357603955985187
1108,3.0,299.87121,435.7585,0.0,0.0,0.0,0.011236387188865406,0.0,0.0,0.001058634382579079,-0.045566129561276855,-0.08795220914745723,0.1110166864114939,0.003687198368773147,0.007940411213007573
1109,3.0,300.03814,485.29987,0.0,0.0,0.0,0.01124652833253767,0.0,0.0,-0.04074331949055256,-0.07705752419698553,-0.02971819986795797,0.14253840052994488,0.00022378514039087378,-0.005370947369371235
1110,3.0,300.23704,383.02682000000004,0.0,0.0,0.0,0.011256669476209931,0.0,0.0,-0.037743283528222066,-0.03614015873675596,-0.04254714784857656,0.10926608408122289,0.015784160798275385,0.007186817900858703
1111,3.0,300.11641000000003,313.95505,0.0,0.0,0.0,0.011266810619882191,0.0,0.0,-0.05542778171679615,-0.013521710113738886,-0.026485003911866374,0.1150534038823869,0.0058886498774144945,0.0020448929184652184
1112,3.0,298.49515,293.33805,0.0,0.0,0.0,0.011276951763554453,0.0,0.0,-0.02656928402868418,-0.04557932511732916,-0.017018834416128184,0.10785232661419589,0.06950896800575103,0.0032854062006193465
1113,3.0,299.08243,241.02252000000001,0.0,0.0,0.0,0.011287092907226712,0.0,0.0,-0.029492949304477472,0.0005077556445940804,-0.044279633267059554,0.1072442650966849,0.06235081910454674,0.007518656599333633
1114,3.0,299.72869,388.23987,0.0,0.0,0.0,0.011297234050898974,0.0,0.0,-0.01158780172112699,-0.04116182927210626,-0.06526559615046285,0.0977280380062564,0.05010932617415545,0.00921538290191248
1115,3.0,299.79907000000003,584.64915,0.0,0.0,0.0,0.011307375194571236,0.0,0.0,-0.08885307765236601,-0.04195076099871776,-0.04691490425964055,0.08716968318797792,0.018446089387737282,0.024582152648069577
1116,3.0,300.05335,597.5985400000001,0.0,0.0,0.0,0.011317516338243497,0.0,0.0,-0.0906375377347285,-0.039445860843503364,-0.05157163757272436,0.13225515831256787,0.027665066389079476,0.03840087879012166
1117,3.0,300.37268,521.413,0.0,0.0,0.0,0.011327657481915759,0.0,0.0,-0.07579163437005192,-0.07101700130183233,-0.01168789563225549,0.12842379623944186,0.013300728372929687,0.01173830077173009
1118,3.0,299.95952,626.76192,0.0,0.0,0.0,0.011337798625588019,0.0,0.0,-0.04755856935916536,-0.07610421290665102,-0.06685719218229114,0.11195370970647088,0.013899329174256988,0.007781643129663383
1119,3.0,300.32942,648.40832,0.0,0.0,0.0,0.01134793976926028,0.0,0.0,-0.05560977156725715,-0.07863576457924572,-0.06285440237774655,0.1043976200007429,-0.0016747626881112082,-0.02118597946639338
1120,3.0,299.91465,429.86355999999995,0.0,0.0,0.0,0.011358080912932542,0.0,0.0,-0.006815028473465943,-0.06972056401088393,-0.054132194542681644,0.10477568387805489,0.019505467698539784,-0.01105409249595399
1121,3.0,301.18709,188.59563,0.0,0.0,0.0,0.011368222056604803,0.0,0.0,-0.04692273465641336,0.00973175470859941,-0.02013738314990498,0.1283421789438869,0.02990146134729447,-0.013051075707290888
1122,3.0,300.53232,82.13423,0.0,0.0,0.0,0.011378363200277066,0.0,0.0,-0.026438187704245976,-0.02214206300900148,0.02361349467172048,0.11775939973194789,0.017453474126023785,-0.0014873550906905183
1123,3.0,300.1636,178.96316000000002,0.0,0.0,0.0,0.011388504343949326,0.0,0.0,-0.03107295780816217,-0.017379425808715782,-0.0059479480090417645,0.1131946269714399,0.02829313250331477,0.0005759923950260235
1124,3.0,299.63844,388.43753,0.0,0.0,0.0,0.011398645487621588,0.0,0.0,-0.029950113564096072,-0.020901410202308582,-0.06722378606847114,0.10622300018839391,0.030537610157577468,0.0006834074535595644
1125,3.0,299.79886,501.47575,0.0,0.0,0.0,0.011408786631293848,0.0,0.0,-0.027009209864351475,-0.07190307027578054,-0.05352382499714024,0.11134159518855989,0.04915489017620995,-0.012377281616042589
1126,3.0,299.81835,409.58338,0.0,0.0,0.0,0.01141892777496611,0.0,0.0,-0.021305180234657578,-0.04404297756045346,-0.05915496344114035,0.1030879334514869,0.04573739010642896,-0.0035370715862567863
1127,3.0,300.61503,458.19024,0.0,0.0,0.0,0.01142906891863837,0.0,0.0,-0.06657768916870634,-0.061524764934021536,-0.01117593683372909,0.09054076627067792,0.020508138454245678,0.01072022760125409
1128,3.0,299.2851,607.8580599999999,0.0,0.0,0.0,0.01143921006231063,0.0,0.0,-0.09266864011668272,-0.06223938996454954,-0.02986564092975927,0.09255812492827573,0.029069002422887177,0.011065314240811489
1129,3.0,300.10425,528.5563400000001,0.0,0.0,0.0,0.011449351205982892,0.0,0.0,-0.07953918140815602,-0.023317932657300776,-0.057810815242733245,0.10220547367439489,0.002017051034867438,0.02172634473147328
1130,3.0,300.47269,283.64158,0.0,0.0,0.0,0.011459492349655154,0.0,0.0,0.0026039921646440175,-0.054212048783062655,-0.03461190198192877,0.1280166723492619,0.0009585584465073531,-0.0015948978086041585
1131,3.0,300.42911000000004,209.89922,0.0,0.0,0.0,0.011469633493327415,0.0,0.0,0.02609544572541998,-0.009877331592866731,-0.08002223522107972,0.12453957290859888,0.013648964193797887,0.00983552185399043
1132,3.0,300.06106,440.93703,0.0,0.0,0.0,0.011479774636999677,0.0,0.0,-0.03734980609038886,-0.02236234358074148,-0.07432169725123043,0.13795152878475586,0.03167103779893807,0.0014142458535751988
1133,3.0,300.70455,542.1846400000001,0.0,0.0,0.0,0.011489915780671937,0.0,0.0,-0.09940106185587101,-0.023048109221921274,-0.04236142113174676,0.1137381039275769,0.03163903530777967,0.012095256622958888
1134,3.0,300.63254,451.51949,0.0,0.0,0.0,0.011500056924344198,0.0,0.0,-0.08505155478143492,-0.004018782640147965,-0.048180313806026755,0.10212843626929191,0.05357682608337105,0.017548126884115285
1135,3.0,300.46207000000004,453.59835999999996,0.0,0.0,0.0,0.01151019806801646,0.0,0.0,-0.04663121247014236,-0.058610017272358345,-0.03264134534644997,0.1018827129875409,0.04006939975629186,0.013720668863624589
1136,3.0,300.97756,508.38788,0.0,0.0,0.0,0.011520339211688723,0.0,0.0,-0.02310536089232158,-0.06563590055850903,-0.06579596063705574,0.08950048671101032,0.03002379103186747,-0.008487283266254643
1137,3.0,300.70383,571.06244,0.0,0.0,0.0,0.011530480355360985,0.0,0.0,-0.022906411261686774,-0.06949582412545384,-0.08118648897023263,0.1031000519226829,0.02998117373266147,0.0013208865092363487
1138,3.0,300.51378,493.32533,0.0,0.0,0.0,0.011540621499033244,0.0,0.0,-0.038548307692921766,-0.07099054128872094,-0.04041973199161696,0.10976481591294389,0.017575302251797285,0.0030841266013795967
1139,3.0,299.37162,147.5651,0.0,0.0,0.0,0.011550762642705503,0.0,0.0,-0.03267118758839517,0.0006857410293348703,-0.012870659434235187,0.10668500170398988,0.027274369309520676,0.02234219104950258
1140,3.0,299.33409,80.753293,0.0,0.0,0.0,0.011560903786377766,0.0,0.0,-0.011015398501135188,-0.02203845413327608,0.008506867262862431,0.13208910688617986,0.024613820766694976,-0.003247219742775637
1141,3.0,298.87496,365.33325,0.0,0.0,0.0,0.011571044930050027,0.0,0.0,-0.04636394141176475,-0.03168611698692627,-0.03300212621680627,0.11949861313109489,0.03559017671497697,0.004775940566148635
1142,3.0,299.18382,470.23832000000004,0.0,0.0,0.0,0.011581186073722289,0.0,0.0,-0.017605529528780483,-0.03483300429949987,-0.0905021736008691,0.14652951161383687,0.019901894707414082,-0.007744973405894363
1143,3.0,299.36292000000003,346.68556,0.0,0.0,0.0,0.011591327217394549,0.0,0.0,-0.004257803981762536,-0.049337108007943456,-0.05178884090391066,0.13628692099047188,0.026540190578562873,-0.02483202518898008
1144,3.0,300.26726,391.5298,0.0,0.0,0.0,0.01160146836106681,0.0,0.0,-0.03206355872867687,-0.04547907617893536,-0.041472647793281664,0.13492166780573187,0.02098968759077088,-0.007376911522969484
1145,3.0,299.79578,516.1489,0.0,0.0,0.0,0.011611609504739072,0.0,0.0,-0.1084627794019429,-0.03017029585057637,-0.018263304135947782,0.1059179612457889,0.017422296420446785,0.0013830112033425784
1146,3.0,300.5575,669.06512,0.0,0.0,0.0,0.011621750648411333,0.0,0.0,-0.08245277801770562,-0.08557737889432972,-0.035348930985417866,0.08343171541631922,0.015852494385019383,0.00953594686254968
1147,3.0,299.56702,512.49525,0.0,0.0,0.0,0.011631891792083595,0.0,0.0,-0.06035996909606515,-0.04593417340834995,-0.04949161750244235,0.07864834509248733,0.03633200548418976,0.029430267626791268
1148,3.0,300.73992000000004,555.1471799999999,0.0,0.0,0.0,0.011642032935755855,0.0,0.0,0.0016333467995487785,-0.0868791560133051,-0.08350507269705902,0.08701486465219851,0.02006656000766528,0.0064658868070083435
1149,3.0,300.5147,445.70125,0.0,0.0,0.0,0.011652174079428116,0.0,0.0,-0.03104269506742547,-0.06063906782286004,-0.04380028794950186,0.1108916614816549,0.016609145989945083,0.013630952660020287
1150,3.0,299.73461000000003,325.82585,0.0,0.0,0.0,0.011662315223100378,0.0,0.0,-0.04740544801730345,-0.01035808289626319,-0.041279391614958756,0.1068830718335379,0.02354087199730318,0.020141666158077682
1151,3.0,299.42400000000004,373.53424,0.0,0.0,0.0,0.011672456366772641,0.0,0.0,-0.06968117593974663,-0.04273999974010956,-0.0011239062314959089,0.11583375844690189,0.03680043100541976,0.009930077036097301
1152,3.0,299.24287000000004,372.34474,0.0,0.0,0.0,0.0116825975104449,0.0,0.0,-0.052132821074358855,-0.012692494602901687,-0.04835818682133145,0.12091607909348788,0.029643940794629172,0.008445271789283431
1153,3.0,299.72308,406.44728,0.0,0.0,0.0,0.01169273865411716,0.0,0.0,-0.04187014986051207,-0.05836231612641214,-0.02331735814449408,0.12331384426262888,0.042538622362235164,-0.034832316302681965
1154,3.0,300.58319,495.53144000000003,0.0,0.0,0.0,0.01170287979778942,0.0,0.0,-0.011231266368689688,-0.06233667615965094,-0.07706124181160243,0.12682607308425886,0.018590514003990883,-0.02286036208439208
1155,3.0,299.10207,438.38907,0.0,0.0,0.0,0.011713020941461684,0.0,0.0,-0.027979894340900573,-0.05075208846784115,-0.054527347896180245,0.10559115769103589,0.013173342570357688,-0.018273666644720483
1156,3.0,299.0381,435.65061,0.0,0.0,0.0,0.011723162085133946,0.0,0.0,-0.055928157040179345,-0.06681161011329254,-0.00968714150934643,0.11964993190102889,0.01816713251595638,0.016707590329910784
1157,3.0,300.90882999999997,473.21278,0.0,0.0,0.0,0.011733303228806207,0.0,0.0,-0.07293825724044553,-0.04617156676102886,-0.024735043982158773,0.09243226913335471,0.04257749367582146,-0.004974200072140325
1158,3.0,300.17064,278.66931,0.0,0.0,0.0,0.011743444372478467,0.0,0.0,-0.040917704899013065,-0.03257168845507537,-0.011219118513240789,0.10325111738009189,0.04592240754818875,0.016533030642433087
1159,3.0,300.65492,194.85603999999998,0.0,0.0,0.0,0.011753585516150728,0.0,0.0,0.01912157560665258,-0.04938470137839055,-0.028968244832943173,0.07691326068749783,0.025888631247508974,-0.008438152694080832
1160,3.0,301.58534,496.84168,0.0,0.0,0.0,0.01176372665982299,0.0,0.0,-0.011790160938348289,-0.04785633924555295,-0.09138096237284882,0.1095833225550319,0.02033338320949868,0.004637211124732105
1161,3.0,300.10713,591.45249,0.0,0.0,0.0,0.011773867803495252,0.0,0.0,-0.05468989854347274,-0.07136756962443074,-0.05372932022342105,0.12181456848716189,0.018935887393326585,-0.01014989749096689
1162,3.0,299.92107000000004,395.54792000000003,0.0,0.0,0.0,0.011784008947167513,0.0,0.0,-0.06581537856197214,-0.0028852325981752872,-0.05153608060021515,0.14765844447775386,0.0077511250499014825,0.012873893728554386
1163,3.0,298.89477,297.22746,0.0,0.0,0.0,0.011794150090839773,0.0,0.0,-0.051886632710811946,-0.014007510847683686,-0.024455581498577978,0.1252316227268989,0.03201560362794407,-0.0018439527580089681
1164,3.0,299.43922000000003,447.64986,0.0,0.0,0.0,0.011804291234512035,0.0,0.0,-0.04751957645556705,-0.05037435288356155,-0.038180450283867066,0.1127339528134749,0.03026058656698737,0.010584382173597189
1165,3.0,299.90217,562.15531,0.0,0.0,0.0,0.011814432378184296,0.0,0.0,-0.06971982028531053,-0.024241414877941375,-0.07691994307190733,0.09789717883219931,0.04472477835399196,-0.003302383510019877
1166,3.0,300.06031,507.69577999999996,0.0,0.0,0.0,0.011824573521856556,0.0,0.0,-0.03185794191238407,-0.05954588748872154,-0.06292301156851773,0.1094996584942749,0.03854705024954767,-0.001969315404106298
1167,3.0,299.85835,244.47626,0.0,0.0,0.0,0.01183471466552882,0.0,0.0,-0.04566247647353555,-0.010970729370476688,-0.01768147161052538,0.1027611298967339,0.016354719903085183,0.014820274216647184
1168,3.0,300.10353,248.46707,0.0,0.0,0.0,0.011844855809201077,0.0,0.0,-0.049051232664479756,-0.006936950020898664,-0.019539602067908585,0.0956252147424739,0.008380181616109532,0.013563498574363087
1169,3.0,299.8557,556.16304,0.0,0.0,0.0,0.01185499695287334,0.0,0.0,-0.07234756384289863,-0.07220962808028543,-0.02450248585895708,0.08406971847428522,0.033369439510557264,-0.005533235686212844
1170,3.0,301.3119,676.43995,0.0,0.0,0.0,0.011865138096545602,0.0,0.0,-0.05331918495394386,-0.06643395457577084,-0.08586771659123382,0.09675674355314709,0.03602658251979687,-0.0012667892890473687
1171,3.0,299.49142,290.53602,0.0,0.0,0.0,0.011875279240217864,0.0,0.0,0.018336177083139782,-0.059545503466933644,-0.04710637002503676,0.08772220948075801,0.03223784686512777,-0.01878536402472108
1172,3.0,300.37897000000004,61.348783,0.0,0.0,0.0,0.011885420383890125,0.0,0.0,0.03307158147141097,-0.022497478720078276,-0.029222601005546175,0.12279756293917589,0.041833878546682364,-0.03406364653832017
1173,3.0,300.0485,364.7555,0.0,0.0,0.0,0.011895561527562385,0.0,0.0,-0.07184732733477914,-0.009025097674207791,-0.030004138032927872,0.13866504937267485,0.04532238920997155,-0.02376603542127508
1174,3.0,299.59971,493.27244,0.0,0.0,0.0,0.011905702671234647,0.0,0.0,-0.05806360087768125,-0.04596417270406066,-0.04591473217868126,0.15029091890005886,0.03468884110177207,-0.007640720812380431
1175,3.0,298.96674,256.54575,0.0,0.0,0.0,0.011915843814906908,0.0,0.0,-0.037092623963256965,-0.03803501647051386,-0.002855862733426707,0.1286339139126789,0.01045099894368329,0.005906569914708063
1176,3.0,299.40398999999996,403.78611,0.0,0.0,0.0,0.01192598495857917,0.0,0.0,-0.030640224021704677,-0.043982335555218556,-0.04811833633716005,0.12302281856890687,0.012324210615554887,0.024026719340752577
1177,3.0,299.06899,751.05338,0.0,0.0,0.0,0.011936126102251431,0.0,0.0,-0.06307864475737754,-0.09411092057402472,-0.07111190838569893,0.0963434327578565,0.02791215958496568,-0.003128826129541097
1178,3.0,299.45569,875.69655,0.0,0.0,0.0,0.011946267245923691,0.0,0.0,-0.09865984103671821,-0.05591194706507954,-0.1116181010083489,0.0989320344640816,0.024397215253067678,0.032448342480652065
1179,3.0,298.06494,575.31493,0.0,0.0,0.0,0.011956408389595953,0.0,0.0,-0.0869170616995461,-0.05261919024160975,-0.03534512015179177,0.0986107379236221,0.023730523031770274,-8.559832784014722e-05
1180,3.0,299.32991,189.89183,0.0,0.0,0.0,0.011966549533268213,0.0,0.0,-0.007657985986134373,-0.019134532035681284,-0.03092985649653917,0.1049489496451549,0.03043229699518387,0.02149994818212968
1181,3.0,300.36742999999996,99.41844499999999,0.0,0.0,0.0,0.011976690676940474,0.0,0.0,-0.03182061479195017,0.01940086279796608,-0.017800972300819184,0.12064188348392689,0.03005323000027287,0.004474834452481776
1182,3.0,300.39242,449.66394,0.0,0.0,0.0,0.011986831820612737,0.0,0.0,-0.023641511036985478,-0.062364624637159236,-0.05068047296402325,0.13097534237625988,0.015917319086667086,0.0032506597268651366
1183,3.0,300.09387000000004,472.03525,0.0,0.0,0.0,0.011996972964284995,0.0,0.0,-0.02790989193124187,-0.03311999050818857,-0.08245704582712682,0.12402594630040788,0.003345250372725507,-0.003406492323344617
1184,3.0,300.67492000000004,294.55321000000004,0.0,0.0,0.0,0.012007114107957259,0.0,0.0,-0.01710356948224088,-0.04299624055789856,-0.029437012832706968,0.1303663790661599,0.03651014498427076,-0.007275657947101533
1185,3.0,300.4636,378.07343,0.0,0.0,0.0,0.01201725525162952,0.0,0.0,-0.05548711358965175,-0.048663465904210154,-0.010774302732590888,0.12859423503876286,0.051843854304840044,-0.028324028525363976
1186,3.0,300.09882999999996,842.71147,0.0,0.0,0.0,0.012027396395301782,0.0,0.0,-0.08710038498713873,-0.08900212471557582,-0.08006073568512943,0.13046795738868489,0.04909146578620045,-0.009194951524246061
1187,3.0,299.30294,826.6908599999999,0.0,0.0,0.0,0.012037537538974043,0.0,0.0,-0.08844912320849882,-0.10529416395422489,-0.05755009180650184,0.10185613543741791,0.004642479923927095,0.0024942431959626378
1188,3.0,298.60435,349.78758,0.0,0.0,0.0,0.012047678682646303,0.0,0.0,-0.008105849015135013,-0.04805139900905386,-0.05016944230258845,0.0995680606711025,0.006862279669354274,0.003461988436621656
1189,3.0,300.15456,133.39192,0.0,0.0,0.0,0.012057819826318565,0.0,0.0,0.012624844959975188,-0.018221568364328783,-0.034951089479403966,0.08939355538820701,0.013144507499011887,0.003750926429837617
1190,3.0,300.79762,153.58145,0.0,0.0,0.0,0.012067960969990826,0.0,0.0,-0.015205621335677986,-0.02355871330506398,-0.007920590723826441,0.1158347514319999,0.027204754974650275,-0.009236502073746782
1191,3.0,300.40891,367.91852,0.0,0.0,0.0,0.012078102113663088,0.0,0.0,-0.057521104747641036,-0.018702357563278982,-0.03561458084363547,0.09577153413641451,0.03201293776693097,-0.009007349990756232
1192,3.0,299.93281,427.23731,0.0,0.0,0.0,0.012088243257335348,0.0,0.0,-0.038770869090636866,-0.04632321281074516,-0.044775393236237256,0.1162152572420529,0.04884521358789725,-0.0025278113611755574
1193,3.0,300.276,395.42777,0.0,0.0,0.0,0.01209838440100761,0.0,0.0,-0.059932516369128844,-0.046858874568860856,-0.013408776297343186,0.12459597040916488,0.05375842988554395,0.006109283364164324
1194,3.0,299.90256,562.8344,0.0,0.0,0.0,0.012108525544679869,0.0,0.0,-0.057105692471643044,-0.05204194064638965,-0.06193997050699915,0.14997502804888285,0.032791823118800974,-2.975358458795017e-05
1195,3.0,299.30458,637.44875,0.0,0.0,0.0,0.01211866668835213,0.0,0.0,-0.058211074363485736,-0.07703186769120343,-0.05852556186327324,0.14951809278378686,-0.001995752821740468,0.02110933418907908
1196,3.0,299.18012999999996,521.64765,0.0,0.0,0.0,0.012128807832024392,0.0,0.0,-0.06252910653914234,-0.03060148341738127,-0.06543727010165573,0.15513189350532586,0.002408999376974728,0.00945672063458066
1197,3.0,299.27311000000003,408.57277999999997,0.0,0.0,0.0,0.012138948975696656,0.0,0.0,-0.04416545315304086,-0.025967818769324174,-0.054062651135318246,0.13913354582141188,0.0012250440942024388,0.02753300342404587
1198,3.0,299.36935,211.9664,0.0,0.0,0.0,0.012149090119368914,0.0,0.0,-0.025881592199064274,-0.04088028253306976,0.002329381223867028,0.1047281725808659,0.035543166976587465,-0.02132562559517538
1199,3.0,298.78754,164.96629,0.0,0.0,0.0,0.012159231263041177,0.0,0.0,-0.014555387335754885,0.0010159382525152991,-0.03660618488174917,0.07898013282448221,0.025584513349244872,0.03452735943333507
1200,3.0,299.11418,352.61596000000003,0.0,0.0,0.0,0.012169372406713438,0.0,0.0,-0.019275781126121484,-0.06363553005208784,-0.024275135841269373,0.08516943427156873,0.04117511095441706,-0.02356412912684848
1201,3.0,300.05011,525.16699,0.0,0.0,0.0,0.0121795135503857,0.0,0.0,-0.03118354088432587,-0.05957436184303174,-0.06887974982615204,0.11834282913952789,0.04525821704138825,0.004926861534093376
1202,3.0,300.50167000000005,396.48501,0.0,0.0,0.0,0.012189654694057962,0.0,0.0,-0.03513175197223397,-0.05556213260055554,-0.02982765924976077,0.12735113928607888,0.03191327144734467,-0.04826859828723975
1203,3.0,300.38867999999997,217.57151000000002,0.0,0.0,0.0,0.012199795837730221,0.0,0.0,-0.007058006556721014,-0.04571871388058576,-0.013359584018238287,0.13720582737366085,0.002101283528930538,-0.01025926669351079
1204,3.0,300.45445,385.8796,0.0,0.0,0.0,0.012209936981402483,0.0,0.0,-0.04430564947662716,-0.04673672625605576,-0.026255387253704975,0.12208057703591488,0.04730149666304426,-0.022067602298902776
1205,3.0,299.54565,748.54083,0.0,0.0,0.0,0.012220078125074745,0.0,0.0,-0.08865333566015302,-0.08027103979638484,-0.05861334579893685,0.13312879268128885,0.04604327409961736,0.0046170715630944855
1206,3.0,299.61514,548.88355,0.0,0.0,0.0,0.012230219268747004,0.0,0.0,-0.06731674973864593,-0.04095833420152286,-0.05857181065083764,0.0909830063695736,0.043496431469763557,-0.009213186074370671
1207,3.0,300.26642000000004,119.32569,0.0,0.0,0.0,0.012240360412419266,0.0,0.0,-0.015640317787579187,-0.004530244439500316,-0.016101468173091184,0.11691650737126089,0.009030255623841842,0.02094492929410358
1208,3.0,300.81744,143.3197,0.0,0.0,0.0,0.012250501556091526,0.0,0.0,-0.006776890752952043,-0.019250969670922782,-0.017537749176591084,0.1068587234336349,0.017064277669863084,0.011958657337227589
1209,3.0,300.35885,721.2021599999999,0.0,0.0,0.0,0.012260642699763787,0.0,0.0,-0.07817702572897173,-0.04915341691056455,-0.09189700558252832,0.12119948514645788,0.013536889613486989,0.02338568869148778
1210,3.0,301.02308,876.346,0.0,0.0,0.0,0.012270783843436049,0.0,0.0,-0.1097880902677409,-0.07431405126597583,-0.08228515706691272,0.1032215608746749,0.022433177868732276,-0.003309238754896437
1211,3.0,299.43457,418.96057,0.0,0.0,0.0,0.01228092498710831,0.0,0.0,-0.05296909589864275,-0.03068002043263227,-0.04370443651654206,0.09685605016894791,0.02211088530342448,0.02118853488314558
1212,3.0,299.40547000000004,89.525704,0.0,0.0,0.0,0.012291066130780574,0.0,0.0,0.02208335225845718,-0.028016792856542176,-0.02128013775843608,0.09663449188883182,0.05643991622843604,-0.008963279893556851
1213,3.0,300.28463999999997,352.08494,0.0,0.0,0.0,0.012301207274452833,0.0,0.0,-0.042802159593994256,-0.02294697571619018,-0.04127589387561356,0.13264931260146787,0.027595588842972574,0.013976425347865785
1214,3.0,300.04782,799.5233400000001,0.0,0.0,0.0,0.012311348418125095,0.0,0.0,-0.08543597072362383,-0.05915220436111804,-0.09844695719070821,0.13866557626272685,0.031409525040878766,-0.008886144709819202
1215,3.0,298.76239,600.39979,0.0,0.0,0.0,0.012321489561797357,0.0,0.0,-0.08382384117851902,-0.03988495784058886,-0.058797743131635445,0.14868655895672087,0.023060906570684277,0.03223601490894697
1216,3.0,300.34926,321.96336,0.0,0.0,0.0,0.012331630705469618,0.0,0.0,-0.04460522396144286,-0.044855870625429756,-0.008407726820078032,0.1347841495021599,0.035562768299771966,0.00015554369861096786
1217,3.0,300.4426,383.3329,0.0,0.0,0.0,0.01234177184914188,0.0,0.0,-0.03277026622292347,-0.029429170276932974,-0.05432419327763045,0.13245599461488888,0.044390974254298055,0.012910509547418089
1218,3.0,300.63802999999996,599.19602,0.0,0.0,0.0,0.01235191299281414,0.0,0.0,-0.049280522042858856,-0.07596571377698222,-0.05689439233553935,0.09566915838606081,0.028309475214177676,-0.02103261393125738
1219,3.0,300.27757,621.51888,0.0,0.0,0.0,0.012362054136486401,0.0,0.0,-0.06503847208754743,-0.06806256463375214,-0.05582518245901654,0.1003320775910051,-0.0005399390920878394,-0.02325821878915748
1220,3.0,299.94986,213.66381,0.0,0.0,0.0,0.012372195280158661,0.0,0.0,-0.0010682229709253989,-0.033197419027830175,-0.030682821055908673,0.0986397705787374,0.005866802888033365,-0.015648336648870585
1221,3.0,300.19043,-40.724069,0.0,0.0,0.0,0.012382336423830922,0.0,0.0,0.015110426488782986,-0.023435916512194878,0.020704590423383983,0.11653948714155188,0.01798916526839238,-0.03359034627085907
1222,3.0,300.2106,331.70147000000003,0.0,0.0,0.0,0.012392477567503184,0.0,0.0,-0.03335519220090117,-0.026991880247891172,-0.04048189184550166,0.12292605318435688,0.03316699619357767,0.004364519786269566
1223,3.0,300.77008,529.37725,0.0,0.0,0.0,0.012402618711175444,0.0,0.0,-0.02096265103835258,-0.054005413650419345,-0.08594940177454552,0.1098232905762149,0.04345401378082726,-0.017653032719968684
1224,3.0,300.04492,213.24516,0.0,0.0,0.0,0.012412759854847705,0.0,0.0,-0.012461141234068888,-0.024940774282462774,-0.027419287378572976,0.10548117952518189,0.06269687643769994,0.010707825420030091
1225,3.0,299.72937,241.26955,0.0,0.0,0.0,0.012422900998519967,0.0,0.0,-0.024531317890552577,-0.013786506815372288,-0.035022093993411565,0.13263018243957989,0.053190704841263856,0.013833599640269988
1226,3.0,299.99959,542.7282,0.0,0.0,0.0,0.01243304214219223,0.0,0.0,-0.08031808803827813,-0.035756251446117264,-0.04890148240570055,0.15120068576734585,0.04657257670010546,-0.0014700785685354586
1227,3.0,300.36987,759.27005,0.0,0.0,0.0,0.012443183285864492,0.0,0.0,-0.11123864897839988,-0.04494939867591025,-0.07461108857254113,0.14004066810593788,0.004819182635366295,0.03272060987527277
1228,3.0,300.29905,586.02215,0.0,0.0,0.0,0.012453324429536752,0.0,0.0,-0.09375324531522491,-0.021825791175787878,-0.06255706312265144,0.13915349671588087,0.0007846322227271713,0.008090199468665522
1229,3.0,300.4559,321.40817000000004,0.0,0.0,0.0,0.012463465573209013,0.0,0.0,-0.03316829416695577,-0.02023775773131118,-0.04429400621972805,0.1128562115705409,0.01062131311324199,0.025983426873864575
1230,3.0,300.09552,280.50439,0.0,0.0,0.0,0.012473606716881275,0.0,0.0,-0.04555086596177046,-0.015162882446459988,-0.024552582970401273,0.08745779882741272,0.009431379756204712,-0.014212205606385487
1231,3.0,300.8747,542.10024,0.0,0.0,0.0,0.012483747860553536,0.0,0.0,-0.05969245006268614,-0.04884343229422145,-0.05624905334684935,0.0945232160927151,0.0033566005976956867,0.013597763652994787
1232,3.0,300.74827999999997,590.1200299999999,0.0,0.0,0.0,0.012493889004225796,0.0,0.0,-0.04297561483886296,-0.08846461681577791,-0.047941521154959754,0.10562511170188689,-0.004454598429434636,-0.02188864510599108
1233,3.0,299.97348999999997,261.04578,0.0,0.0,0.0,0.012504030147898058,0.0,0.0,-0.018919465648955882,-0.032558420958265964,-0.02787351118640137,0.14938935935858186,0.02032558726322928,0.02376334524225958
1234,3.0,299.80753,122.84732,0.0,0.0,0.0,0.012514171291570318,0.0,0.0,0.0020582953801879383,-0.04348656241378956,0.004085749656482096,0.14326723132687486,0.04593978478740376,-0.026844491875095074
1235,3.0,300.13894,257.63024,0.0,0.0,0.0,0.012524312435242579,0.0,0.0,0.02014899398280088,-0.05044795131782515,-0.04801420259788286,0.12977098317489888,0.05575417490525864,0.005111041625970535
1236,3.0,301.35106,454.79247000000004,0.0,0.0,0.0,0.01253445357891484,0.0,0.0,-0.03442857970758626,-0.05283536715044475,-0.050981606840742856,0.1055729597192399,0.044576219677330366,-0.0040468855369715055
1237,3.0,301.65506,508.14012,0.0,0.0,0.0,0.012544594722587102,0.0,0.0,-0.01908807857159668,-0.07776555499586273,-0.05760827465374404,0.11313233235529188,0.05823206586580744,-0.018051620991306284
1238,3.0,299.86207,327.38982000000004,0.0,0.0,0.0,0.012554735866259362,0.0,0.0,-0.047767764974811354,-0.03918820856832506,-0.012562357826308188,0.11870940276070589,0.03381214671774907,-0.005561527554180035
1239,3.0,300.40569,275.40778,0.0,0.0,0.0,0.012564877009931624,0.0,0.0,-0.01871709832573378,-0.043704180164266755,-0.021295808684482682,0.1115394018730819,0.01080033616741019,-0.03389015278994767
1240,3.0,299.71521,399.3895,0.0,0.0,0.0,0.012575018153603885,0.0,0.0,-0.03895544070235267,-0.04395176174670116,-0.038497232795131064,0.12778205428860687,-0.02095528572337568,-0.003670768417076637
1241,3.0,299.20091,547.774,0.0,0.0,0.0,0.012585159297276148,0.0,0.0,-0.028971016071966674,-0.05891356268431595,-0.07862504135343742,0.12018450238878689,0.0004951744828724166,-0.0028286526112662777
1242,3.0,299.9614,511.4505,0.0,0.0,0.0,0.01259530044094841,0.0,0.0,-0.055507037126368036,-0.05737709657717854,-0.042584046364218156,0.12313265487974688,0.023312202727985277,-0.0012709412839821388
1243,3.0,299.82889,392.29086,0.0,0.0,0.0,0.01260544158462067,0.0,0.0,-0.03580897287532047,-0.03720287671988807,-0.04623477735526725,0.11737110202862588,0.04113617175307406,0.018412715969193586
1244,3.0,300.22932000000003,393.67941,0.0,0.0,0.0,0.012615582728292931,0.0,0.0,-0.06827091013256424,-0.018165129320508684,-0.033232668985559065,0.13649961231896288,0.04068781466332466,0.019588157012700582
1245,3.0,301.08451,648.1202400000001,0.0,0.0,0.0,0.012625723871965193,0.0,0.0,-0.08788101616893101,-0.052214592383929045,-0.05691675983149685,0.14832637894367387,0.06707380782841943,0.04228352550380906
1246,3.0,300.51627,553.7906,0.0,0.0,0.0,0.012635865015637453,0.0,0.0,-0.07297623993369413,-0.014379398965636187,-0.08098287636263762,0.15466667998691286,0.03058767889801887,0.024395125931361474
1247,3.0,300.21016000000003,460.70237000000003,0.0,0.0,0.0,0.012646006159309714,0.0,0.0,-0.04608235312947416,-0.03832977497760426,-0.05562989066124274,0.13495277458380187,0.027711119619374572,0.020002510442344083
1248,3.0,299.73767000000004,385.00297,0.0,0.0,0.0,0.012656147302981974,0.0,0.0,-0.027778084305233472,-0.02110303481320738,-0.06815016922414803,0.11025670830648988,-0.01023945968055599,0.01046888280794829
1249,3.0,299.95792,365.1372,0.0,0.0,0.0,0.012666288446654236,0.0,0.0,-0.041132261620938165,-0.015413170419911486,-0.054447160296516355,0.1358632203286559,0.02277521259898848,-0.0014180601322516387
1250,3.0,300.33727999999996,425.43550999999997,0.0,0.0,0.0,0.012676429590326497,0.0,0.0,-0.05460424547276945,-0.06142481997065774,-0.013292707485138089,0.1036742202243489,0.027544094459640473,-0.037434464149493966
1251,3.0,299.57239,346.19003,0.0,0.0,0.0,0.012686570733998759,0.0,0.0,-0.055087090556172544,-0.025509979685138975,-0.024636056540139475,0.12192829567838588,0.02490854178353168,-0.03607670597574367
1252,3.0,300.46126,156.81033,0.0,0.0,0.0,0.01269671187767102,0.0,0.0,0.021257535188455377,-0.06334220732038914,-0.005581753951351224,0.08632846268995592,0.007189203091594103,-0.022481418705993277
1253,3.0,299.9967,173.89149,0.0,0.0,0.0,0.01270685302134328,0.0,0.0,0.025594564790236876,-0.045664548569990054,-0.032788685083241266,0.10021610199780921,0.04019304463949466,-0.02897954966430887
1254,3.0,299.88712999999996,570.30363,0.0,0.0,0.0,0.012716994165015542,0.0,0.0,-0.04087630147342686,-0.05901551185637754,-0.07346624869530423,0.13996057068553286,0.03308684304441717,0.02189532749040058
1255,3.0,300.14418,575.38663,0.0,0.0,0.0,0.012727135308687803,0.0,0.0,-0.04528062304084955,-0.06715948217737484,-0.062463061884374234,0.12582806226576287,0.053815011797628154,-0.014908171636321988
1256,3.0,300.69802999999996,373.14027000000004,0.0,0.0,0.0,0.012737276452360067,0.0,0.0,-0.06507540302719224,-0.02070557732898138,-0.02764434339803427,0.14543520150583686,0.028538135364244675,0.04890592145438866
1257,3.0,299.83128999999997,406.67981000000003,0.0,0.0,0.0,0.012747417596032328,0.0,0.0,-0.05549901117232595,-0.03990086181415846,-0.028220635471909873,0.14035544438200387,0.036522048646445565,-0.023555187194715978
1258,3.0,299.82195,737.1754599999999,0.0,0.0,0.0,0.012757558739704588,0.0,0.0,-0.08825578698341802,-0.05765155765826575,-0.07817558792707983,0.14200364765716886,0.029924859318603673,0.01966251335803898
1259,3.0,299.39115,801.71002,0.0,0.0,0.0,0.01276769988337685,0.0,0.0,-0.098769938766084,-0.03744125697816436,-0.10748863062330191,0.12204872045277089,0.01181284152858669,-0.02125643074584638
1260,3.0,300.1357,530.09049,0.0,0.0,0.0,0.01277784102704911,0.0,0.0,-0.06293635100608423,-0.03644385613622857,-0.06175406545815174,0.1083186243102159,-0.00835183908563734,0.024051572339205376
1261,3.0,299.45182,108.6096,0.0,0.0,0.0,0.012787982170721371,0.0,0.0,0.014721334397382586,-0.002339055938471848,-0.04539688437057366,0.10776178258525991,0.023900953725090476,-0.005900970795980474
1262,3.0,300.18536,131.52277,0.0,0.0,0.0,0.012798123314393632,0.0,0.0,-0.044804334698843554,0.02065618847935708,-0.015831490723696485,0.12764314783239789,0.01903385145274488,0.026356046558389273
1263,3.0,300.00307999999995,543.97201,0.0,0.0,0.0,0.012808264458065892,0.0,0.0,-0.060540136109596236,-0.06362809279635384,-0.041185679152960064,0.12313966657043887,0.05802830735019804,-0.0067887707050745035
1264,3.0,300.56359,515.40595,0.0,0.0,0.0,0.012818405601738154,0.0,0.0,-0.05184423427362755,-0.02859539210089547,-0.07623091375215543,0.14105097978064787,0.02906812393505047,0.017084850699893486
1265,3.0,300.17902000000004,168.5904,0.0,0.0,0.0,0.012828546745410415,0.0,0.0,0.006595314004556814,-0.04618191913730055,-0.01166066757556829,0.12941533238979888,0.04735938566775746,0.004912797724030386
1266,3.0,300.84934,338.41123,0.0,0.0,0.0,0.012838687889082677,0.0,0.0,-0.01852747566226948,-0.04702517018852296,-0.03731591692754426,0.12308282323982889,0.027902677590529876,-0.010420088736132689
1267,3.0,300.35188,712.20437,0.0,0.0,0.0,0.012848829032754938,0.0,0.0,-0.07753184582054742,-0.06670274348279824,-0.07225775442028513,0.13243841472565387,0.019263723449931484,0.0006415963265306274
1268,3.0,300.84788,771.66138,0.0,0.0,0.0,0.012858970176427198,0.0,0.0,-0.0955588965101788,-0.09675743965596581,-0.042249455982446664,0.1128646620763749,0.018689274477987784,-0.026477513967127175
1269,3.0,299.65898,302.62408999999997,0.0,0.0,0.0,0.01286911132009946,0.0,0.0,-0.023300143025295077,-0.033521996472113465,-0.035168027339064066,0.11658410054345487,0.04974163392486705,-0.025771309044930177
1270,3.0,299.63951000000003,154.38282,0.0,0.0,0.0,0.012879252463771721,0.0,0.0,0.005881950774378344,-0.03855004237709296,-0.014260432258145085,0.1097160380531299,0.028293069681808575,-0.026770614797053973
1271,3.0,299.53882999999996,314.19851,0.0,0.0,0.0,0.012889393607443985,0.0,0.0,-0.024030021522828477,-0.03544458179485786,-0.036033897172268764,0.0947741424137296,0.046385373677879954,-0.009236299018426741
1272,3.0,300.42197999999996,421.71913,0.0,0.0,0.0,0.012899534751116245,0.0,0.0,-0.028313011457026676,-0.026681709193529673,-0.07319736454276743,0.1271180917630789,0.02447285234653248,0.0063360012151146335
1273,3.0,300.38382,354.12494,0.0,0.0,0.0,0.012909675894788506,0.0,0.0,-0.015240588596628987,-0.06063085948379994,-0.03177369219306927,0.1104997464754759,0.02405634778692668,0.003491531161837296
1274,3.0,299.61681,206.71021000000002,0.0,0.0,0.0,0.012919817038460766,0.0,0.0,-0.03422614044360707,-0.0076972398016334235,-0.02091136133154068,0.13453921655548687,0.025253505819826976,0.03407465752715687
1275,3.0,300.31477,531.33085,0.0,0.0,0.0,0.012929958182133027,0.0,0.0,-0.05743715495035585,-0.07026215530858483,-0.03381200080973467,0.11906013928282087,0.020992111285010082,-0.0007816984279901283
1276,3.0,300.51386,780.3949700000001,0.0,0.0,0.0,0.012940099325805289,0.0,0.0,-0.10428147114177991,-0.07306225878768353,-0.05987685752788574,0.13464224382565487,0.04108283933406057,0.030039335301651576
1277,3.0,300.53796,772.88759,0.0,0.0,0.0,0.01295024046947755,0.0,0.0,-0.08385792691188301,-0.05536037626714375,-0.09572022619110082,0.1405411427278309,0.05654237202554765,0.023883976719664978
1278,3.0,300.92607000000004,414.4904,0.0,0.0,0.0,0.01296038161314981,0.0,0.0,-0.04998038300617975,-0.03566605192221527,-0.04034829887281706,0.14463067079393588,0.04132929316913366,0.01100394978825529
1279,3.0,301.14307,242.10768,0.0,0.0,0.0,0.012970522756822072,0.0,0.0,-0.034669635959376666,-0.012893373461726887,-0.02603167987012677,0.15590488174161385,0.030489593248588572,-0.008712933556899592
1280,3.0,301.11481000000003,356.45501,0.0,0.0,0.0,0.012980663900494334,0.0,0.0,-0.04221451202624796,-0.004684522102376336,-0.061454389648326044,0.15711497593854085,0.0033474262259902466,0.004715580852391595
1281,3.0,301.07572000000005,370.2052,0.0,0.0,0.0,0.012990805044166595,0.0,0.0,-0.02157385768417398,-0.04776320332286115,-0.04319607678237086,0.14378375583035186,0.007917399897936533,-0.01127092599085379
1282,3.0,300.04861,234.76991,0.0,0.0,0.0,0.013000946187838857,0.0,0.0,-0.018981292143557683,-0.03460193464069507,-0.017780964664344586,0.13328340451404788,0.013363461726370988,-0.014702061367230486
1283,3.0,299.79855,305.07408,0.0,0.0,0.0,0.013011087331511116,0.0,0.0,-0.03486571910547857,-0.04946481501079716,-0.008404368402621583,0.09583258752119,0.03660176001856246,-0.017423660255081384
1284,3.0,299.78516,472.28517,0.0,0.0,0.0,0.013021228475183378,0.0,0.0,-0.05393909744462445,-0.06718619854276153,-0.022437604758419178,0.08793982115173461,0.01912661956565038,-0.021830283926731277
1285,3.0,299.89553,411.33007000000003,0.0,0.0,0.0,0.013031369618855641,0.0,0.0,-0.04422896265605876,-0.05176017504533155,-0.029044932666761676,0.11889973165948987,0.03200827073697037,-0.0035900154238569367
1286,3.0,300.50665,582.07211,0.0,0.0,0.0,0.0130415107625279,0.0,0.0,-0.040414913987391464,-0.0926512719967186,-0.04386920010205296,0.12740478074637288,0.037553358916227964,0.0006652549868255553
1287,3.0,300.22511000000003,570.08617,0.0,0.0,0.0,0.013051651906200163,0.0,0.0,-0.04720832628984905,-0.05626373128779795,-0.06981990203743783,0.16276305491096285,0.035416040566041064,-0.002177325922435338
1288,3.0,300.11122,391.31407,0.0,0.0,0.0,0.01306179304987242,0.0,0.0,-0.04818519463175846,-0.03397220679629576,-0.036792306766117965,0.14739494878924886,0.037029185387746064,0.006736845285149864
1289,3.0,300.33715,301.10759,0.0,0.0,0.0,0.013071934193544684,0.0,0.0,-0.011066736843951888,-0.04918227326016245,-0.031280178599363266,0.13309910445335887,0.036828595305199364,-0.018249362827821882
1290,3.0,300.94057000000004,461.5988,0.0,0.0,0.0,0.013082075337216946,0.0,0.0,-0.060024719088478534,-0.03551313728337376,-0.04477665371936166,0.1061308957543039,0.027840852109178176,0.00976598513407769
1291,3.0,300.88661,495.5421,0.0,0.0,0.0,0.013092216480889207,0.0,0.0,-0.05049942847590554,-0.06106760371415324,-0.039065393536954165,0.1106569623609919,0.02473881225928068,-0.025327904721669577
1292,3.0,300.72477000000003,426.44749,0.0,0.0,0.0,0.013102357624561469,0.0,0.0,-0.04681440504847205,-0.046999819684271055,-0.03581516383343147,0.1174433771582589,0.0013999762524168986,0.02352832796106518
1293,3.0,300.12953999999996,393.74807999999996,0.0,0.0,0.0,0.013112498768233729,0.0,0.0,-0.026523926901207775,-0.03417075112689057,-0.05899490741559404,0.14576118432800886,0.003314185948509687,0.006945014377119554
1294,3.0,300.46463,587.4044200000001,0.0,0.0,0.0,0.01312263991190599,0.0,0.0,-0.06887363384854844,-0.05044105513764455,-0.05924158619218935,0.13461930384339085,0.016710913790238785,0.036664840916788066
1295,3.0,300.0538,760.19944,0.0,0.0,0.0,0.013132781055578252,0.0,0.0,-0.10030807166963591,-0.06891366837324954,-0.061859909563597736,0.13846238922017387,0.04786273082718375,0.0066231003620491145
1296,3.0,299.8375,611.70962,0.0,0.0,0.0,0.013142922199250513,0.0,0.0,-0.09767858025562531,-0.03975417359718146,-0.04851169725123175,0.12812129042208686,0.07337064246886864,0.036056178541967764
1297,3.0,299.32632,273.53295,0.0,0.0,0.0,0.013153063342922775,0.0,0.0,-0.03078597092933877,-0.044571028797068056,-0.007790188171731713,0.12745592961142088,0.050631213810411746,0.008978829330916462
1298,3.0,299.91816,139.67126000000002,0.0,0.0,0.0,0.013163204486595035,0.0,0.0,0.012423696576623388,-0.017493591737233083,-0.03738668130127817,0.14025712872480087,0.03214057789527807,-0.004267575360426897
1299,3.0,299.17578,341.31166,0.0,0.0,0.0,0.013173345630267296,0.0,0.0,-0.003231299151904397,-0.052493192591674745,-0.04802572831777036,0.13072223250127987,0.02975233930357727,-0.0034405118914770873
1300,3.0,300.20468,513.31262,0.0,0.0,0.0,0.01318348677393956,0.0,0.0,-0.036075296544854564,-0.054029295955276356,-0.06592962757699763,0.12095781486510689,0.005706243074537345,-0.02054126261326478
1301,3.0,300.3427,227.91228999999998,0.0,0.0,0.0,0.013193627917611818,0.0,0.0,-0.01721101958909538,-0.02215397477717708,-0.02991465183709627,0.10375321320214491,0.014133721280139686,-0.01576980000460809
1302,3.0,301.30686000000003,193.91046,0.0,0.0,0.0,0.01320376906128408,0.0,0.0,-0.019699482801187582,-0.04492985409473136,0.005685398898780184,0.1113224143641669,0.024410768486405277,-0.026091095842740678
1303,3.0,300.54345,617.30039,0.0,0.0,0.0,0.013213910204956339,0.0,0.0,-0.055149795538611046,-0.08083584870687713,-0.051658259310523244,0.1303238529594629,0.028486870988685273,-0.014802808824673486
1304,3.0,300.86659,697.2329,0.0,0.0,0.0,0.013224051348628602,0.0,0.0,-0.07308549159922643,-0.08118322427841042,-0.057672676830100036,0.12856742444111688,0.03690105687285076,-0.012770792491129088
1305,3.0,300.40263999999996,405.37525,0.0,0.0,0.0,0.013234192492300864,0.0,0.0,-0.03177641783583827,-0.041580472802673164,-0.04986706314149596,0.1298662692143029,0.012658650023061489,-0.004185623692338897
1306,3.0,300.09956,175.27803,0.0,0.0,0.0,0.013244333635973125,0.0,0.0,-0.02280457253388608,-0.024144702182396578,-0.006330871332508353,0.13310627826406687,0.036622654248874564,0.022576887130415276
1307,3.0,299.88719,276.29306,0.0,0.0,0.0,0.013254474779645387,0.0,0.0,-0.017779508623950883,-0.042230794955354964,-0.02397588559648568,0.10660514746360888,0.060563250370877446,0.007129833829809812
1308,3.0,300.08529,548.92981,0.0,0.0,0.0,0.013264615923317647,0.0,0.0,-0.08293745100428912,-0.03580439197161836,-0.04811911349998675,0.1229818123373599,0.03945267393717576,0.018284393923529183
1309,3.0,300.32192000000003,582.4715,0.0,0.0,0.0,0.013274757066989908,0.0,0.0,-0.058095926595621544,-0.04711366339925655,-0.07184720067851663,0.1079113180350179,0.04057813236649986,-0.003148953430852507
1310,3.0,300.64878,324.67914,0.0,0.0,0.0,0.01328489821066217,0.0,0.0,-0.03157115059082997,-0.026411620286623975,-0.04071158145767026,0.13192681461766287,0.045480432920819255,0.0024528207212745575
1311,3.0,300.30576,348.30021,0.0,0.0,0.0,0.013295039354334431,0.0,0.0,-0.009751872181384852,-0.028765696137953177,-0.06735699704586803,0.14245034909625487,0.01945892000219588,-0.004845192461458266
1312,3.0,299.16648,602.88062,0.0,0.0,0.0,0.013305180498006693,0.0,0.0,-0.056270988185014144,-0.05595957893903045,-0.07103008641362374,0.1257223498828299,0.026019713386445775,0.007785249185444273
1313,3.0,300.01781,645.01489,0.0,0.0,0.0,0.013315321641678953,0.0,0.0,-0.06600273762471304,-0.054794378814284145,-0.07527130308594922,0.13022429100463687,-0.0027608857353032075,0.02285043729966258
1314,3.0,300.14225,295.35794,0.0,0.0,0.0,0.013325462785351213,0.0,0.0,-0.04034841843632886,-0.039496208227722256,-0.00993681271746206,0.13772570573496887,0.024816137427412076,-2.7268764009967474e-05
1315,3.0,299.71493,153.07869,0.0,0.0,0.0,0.013335603929023474,0.0,0.0,-0.01731224327408538,-0.03857538072234366,0.009355525523243481,0.1254399672124609,0.036139267076667966,-0.0002877330159320377
1316,3.0,300.66795,454.90239,0.0,0.0,0.0,0.013345745072695736,0.0,0.0,-0.043595592177549956,-0.06160861036654643,-0.03307476510322517,0.14393489221526787,0.046199662159801654,-0.022662321339096975
1317,3.0,301.1956,543.16222,0.0,0.0,0.0,0.013355886216367999,0.0,0.0,-0.048836469239534254,-0.06346552593705973,-0.05280575795602255,0.13969023555885285,0.03860697386046167,0.01054543790600369
1318,3.0,300.73998,391.90895,0.0,0.0,0.0,0.013366027360040259,0.0,0.0,-0.02758998962291998,-0.049337294445961855,-0.04220325076463656,0.13925464947336386,0.05117354072768525,-0.014749257543638386
1319,3.0,300.21494,284.81502,0.0,0.0,0.0,0.01337616850371252,0.0,0.0,-0.016895879556243484,-0.008435867409805294,-0.061244906269651636,0.14258307472685386,0.019996035774205084,0.007483209665785293
1320,3.0,299.56655,340.50694,0.0,0.0,0.0,0.013386309647384782,0.0,0.0,-0.03111772927708077,-0.035576936575920266,-0.036810942461957166,0.1178924394700779,0.028963051926180674,-0.025797445831259678
1321,3.0,299.06074,436.06255999999996,0.0,0.0,0.0,0.013396450791057044,0.0,0.0,-0.03697221742737376,-0.03204591500468557,-0.06353399631256723,0.11940529279688489,0.01238101037641059,-0.014164838190710686
1322,3.0,300.03731,569.077,0.0,0.0,0.0,0.013406591934729305,0.0,0.0,-0.06188095780792503,-0.07663076655961783,-0.034473473779766964,0.09874786207290522,0.026070774098735077,-0.023603001453684876
1323,3.0,300.48492000000005,408.10395,0.0,0.0,0.0,0.013416733078401565,0.0,0.0,-0.05413441457365075,-0.040701139915389754,-0.02921785595532787,0.1180473958078709,0.04277410979147596,0.005407687007397155
1324,3.0,299.84066,188.38828999999998,0.0,0.0,0.0,0.013426874222073826,0.0,0.0,-0.024729502517361876,-0.03321441832475787,0.0006785863589212594,0.13055525901730086,0.05414619765906366,0.01140292613438119
1325,3.0,299.93737000000004,422.00658,0.0,0.0,0.0,0.013437015365746088,0.0,0.0,-0.05074211910010725,-0.04003043421044626,-0.03750690747864356,0.14223658372265785,0.028586495765017473,0.035100227735122766
1326,3.0,300.65553,602.9601200000001,0.0,0.0,0.0,0.01344715650941835,0.0,0.0,-0.06767122616688002,-0.03379807064735987,-0.08181552172506333,0.1370599092267599,0.01638304530963068,0.04108028898355886
1327,3.0,299.50744,512.95209,0.0,0.0,0.0,0.01345729765309061,0.0,0.0,-0.04960434866881805,-0.04081897279601896,-0.06550130446822544,0.15195317595411087,-0.007179896693400634,0.015278715171391788
1328,3.0,298.89606000000003,488.46149,0.0,0.0,0.0,0.01346743879676287,0.0,0.0,-0.06549903377475134,-0.04253495237037296,-0.04044610993147026,0.15278326083353386,0.03153185979170227,-0.008162332034009451
1329,3.0,299.3768,354.16097,0.0,0.0,0.0,0.01347757994043513,0.0,0.0,-0.03865294704399887,-0.033211267116946865,-0.035791878332883366,0.13540688288111888,0.03741802517987157,0.0019796945301806383
1330,3.0,299.09923,221.1207,0.0,0.0,0.0,0.013487721084107392,0.0,0.0,0.0002227562254443278,-0.05187815484722525,-0.015559771497379884,0.10983424380979588,0.050267864351051954,-0.03856256716157907
1331,3.0,300.66184,372.26678,0.0,0.0,0.0,0.013497862227779656,0.0,0.0,-0.048313576459178754,-0.02335061301277608,-0.04149561614654846,0.10033909333469751,0.02821950164504797,0.0013145252237835386
1332,3.0,300.973,441.00147999999996,0.0,0.0,0.0,0.013508003371451917,0.0,0.0,-0.027069395907041372,-0.060629630411428645,-0.046354409768074055,0.12341256521987189,0.03757639515725146,-0.03340606242217167
1333,3.0,300.38055,216.10481000000001,0.0,0.0,0.0,0.013518144515124177,0.0,0.0,0.00019263535998662984,-0.04249036936597296,-0.02339273381943308,0.13342864378338187,0.01997932424030578,0.014355686886795985
1334,3.0,299.71527000000003,417.15554,0.0,0.0,0.0,0.013528285658796439,0.0,0.0,-0.03643920430501947,-0.06260036031267453,-0.02776530519497227,0.13440553846979386,0.026542506868291477,-0.011338602991532989
1335,3.0,300.02232000000004,778.14126,0.0,0.0,0.0,0.0135384268024687,0.0,0.0,-0.07861269895396933,-0.07721511295853833,-0.08070770195348002,0.14647434014589186,0.012371639839485788,0.02232851723940308
1336,3.0,299.96884,598.1116400000001,0.0,0.0,0.0,0.013548567946140962,0.0,0.0,-0.07682976583950753,-0.05182761089248695,-0.05315362698035455,0.12568166789131488,0.04280426512770206,0.0003890544694241867
1337,3.0,300.10157999999996,285.49492999999995,0.0,0.0,0.0,0.013558709089813223,0.0,0.0,-0.02138548942433348,-0.02000178292877228,-0.04539605857174216,0.14225188379916787,0.04763936896188965,0.026099512911321374
1338,3.0,298.85152,269.97197,0.0,0.0,0.0,0.013568850233485483,0.0,0.0,-0.006299081015920895,-0.040730223233010066,-0.035035433430978064,0.1123750190980509,0.04677152835724045,-0.0023256577323995478
1339,3.0,298.96275,444.36571,0.0,0.0,0.0,0.013578991377157745,0.0,0.0,-0.03449198788559417,-0.018527375350509585,-0.08205671780536751,0.1251030311567079,0.026333089350873574,0.015888278325550984
1340,3.0,299.90947,553.2583,0.0,0.0,0.0,0.013589132520830006,0.0,0.0,-0.07842450092014563,-0.049336994523932254,-0.04041521289617096,0.12010922803885789,0.023972176087869577,-0.016734869049102985
1341,3.0,300.16823,564.9220799999999,0.0,0.0,0.0,0.013599273664502266,0.0,0.0,-0.04689070987375275,-0.05505774075377595,-0.06977375457488343,0.13405892587558588,0.02291071656136168,-0.016366312497479284
1342,3.0,299.6348,335.29786,0.0,0.0,0.0,0.013609414808174528,0.0,0.0,-0.05667790334567354,-0.03313196813762067,-0.01211230658239159,0.1323054053850269,0.023870881475372578,0.006159733187968333
1343,3.0,300.56318,309.91378,0.0,0.0,0.0,0.013619555951846787,0.0,0.0,-0.02389081717109008,-0.04519227371163016,-0.025122959690193077,0.11924311198587889,0.0076331927694374725,0.012986002759368688
1344,3.0,300.63768,587.49723,0.0,0.0,0.0,0.013629697095519049,0.0,0.0,-0.05801266682165444,-0.057323136956353146,-0.06324868433615914,0.13826789586347887,0.029256777931419172,0.024946021904730678
1345,3.0,299.92761,690.62623,0.0,0.0,0.0,0.01363983823919131,0.0,0.0,-0.06736268036567894,-0.050809344191241855,-0.09176110543936601,0.1367752366111649,0.03239479626586747,0.02238636875386258
1346,3.0,300.38607,380.61781,0.0,0.0,0.0,0.013649979382863574,0.0,0.0,-0.024259515577727774,-0.06096234324076485,-0.03047645139479157,0.14592109545879087,0.028849853651508873,-0.017136071505698586
1347,3.0,299.63018,183.18182,0.0,0.0,0.0,0.013660120526535835,0.0,0.0,-0.0005650078216194304,-0.024454213610942976,-0.03066347709824957,0.13532716036325088,0.015299836369726287,-0.015182934665938985
1348,3.0,299.40249,490.80020999999994,0.0,0.0,0.0,0.013670261670208095,0.0,0.0,-0.06029747182989715,-0.04357913496942576,-0.045314400746183155,0.1290906870577589,0.026373794647140875,-0.03320873500494697
1349,3.0,299.5844,705.68423,0.0,0.0,0.0,0.013680402813880357,0.0,0.0,-0.06200364516978334,-0.07085447902554264,-0.08165225977620062,0.11202407992591588,0.06943761696020924,-0.0006103930161236004
1350,3.0,299.24287999999996,363.68899,0.0,0.0,0.0,0.013690543957552618,0.0,0.0,-0.017992725829243782,-0.03175779125924997,-0.06080185354417574,0.12229137358671889,0.07342732975896323,-0.016591762671229485
1351,3.0,298.60677999999996,184.32918,0.0,0.0,0.0,0.01370068510122488,0.0,0.0,-0.013451041998764488,-0.02105243006346308,-0.021527994944897683,0.14027311781137886,0.035882669594843764,0.01014331339181709
1352,3.0,299.53053,227.21175,0.0,0.0,0.0,0.013710826244897141,0.0,0.0,-0.022350541243576678,-0.01880887345354128,-0.027907285851984674,0.13009937753230888,0.02549161047407608,-0.007677200855730732
1353,3.0,299.51565,382.7443,0.0,0.0,0.0,0.013720967388569401,0.0,0.0,-0.06489576087721294,-0.025846647229615473,-0.025602300954750374,0.14491458347195588,0.014996494621038787,-0.003493913414147406
1354,3.0,299.48463,626.53044,0.0,0.0,0.0,0.013731108532241663,0.0,0.0,-0.07622745147656372,-0.056857387428637246,-0.05736476937646195,0.11999619999020288,0.0001375514672477729,-0.00027218473367754176
1355,3.0,299.9864,487.642,0.0,0.0,0.0,0.013741249675913923,0.0,0.0,-0.043355275598332556,-0.034379214162714264,-0.07049650181821303,0.1138769799862829,0.014302209573018185,0.012737450483338488
1356,3.0,300.10544,320.28927000000004,0.0,0.0,0.0,0.013751390819586184,0.0,0.0,-0.028292136478466474,-0.03723786221934087,-0.03182994175912067,0.12536602022016288,0.03418072758737517,0.027883277904115274
1357,3.0,300.40616,497.83929000000006,0.0,0.0,0.0,0.013761531963258446,0.0,0.0,-0.055118343242256944,-0.027106562933959476,-0.06910580592346204,0.13945270947041086,0.05939965016803904,0.004265935111165017
1358,3.0,299.34512,667.4458599999999,0.0,0.0,0.0,0.013771673106930706,0.0,0.0,-0.08133869433400412,-0.03647948200974457,-0.08506869795987683,0.13459779254376789,0.044345330377043364,0.030656073279768874
1359,3.0,299.29235,449.48588,0.0,0.0,0.0,0.013781814250602967,0.0,0.0,-0.046577337962325355,-0.05427814106058545,-0.03577700483466546,0.15071523764443587,0.014067122377566885,-0.02998783179906857
1360,3.0,300.05537000000004,258.96603,0.0,0.0,0.0,0.013791955394275229,0.0,0.0,-0.03425861612256217,-0.017400126508258784,-0.02706046309415977,0.14537823658521487,0.015515924112552483,0.005212479208056645
1361,3.0,300.21378,184.87103000000002,0.0,0.0,0.0,0.013802096537947492,0.0,0.0,-0.013771311103622588,-0.016523539528746384,-0.025901326258011875,0.14732975627781486,0.04273037589065976,-0.02336465260616168
1362,3.0,300.69642999999996,203.9512,0.0,0.0,0.0,0.013812237681619753,0.0,0.0,-0.027301193079417974,-0.025077389780195677,-0.00961748968422233,0.11670669367305389,0.04019134339257676,0.007263008026228083
1363,3.0,301.14556,359.92951,0.0,0.0,0.0,0.013822378825292013,0.0,0.0,-0.03872971087157486,-0.04725979838167895,-0.023420074346881377,0.09434919646754071,0.03712174274463076,-0.005072458176737645
1364,3.0,300.59639,510.79887,0.0,0.0,0.0,0.013832519968964275,0.0,0.0,-0.06301321007916964,-0.06486094661702703,-0.027395946149269372,0.10783676309265991,0.019633280079403882,0.005410643569863945
1365,3.0,300.65159,514.5915,0.0,0.0,0.0,0.013842661112636536,0.0,0.0,-0.053568921719340946,-0.07260868953941974,-0.030245355391484173,0.15676308431131186,0.016498164706492086,-0.025385410717844975
1366,3.0,300.94746000000004,494.67832999999996,0.0,0.0,0.0,0.013852802256308798,0.0,0.0,-0.026705279417355874,-0.053542992649281945,-0.07012158914871203,0.14543414772573288,0.014161081059339884,-0.007652300538498263
1367,3.0,299.46654,597.34954,0.0,0.0,0.0,0.013862943399981058,0.0,0.0,-0.03677040536520646,-0.08141126431941623,-0.06339767465736335,0.12710454460924187,0.017117367922102684,-0.013844656225361187
1368,3.0,299.84456,581.15927,0.0,0.0,0.0,0.01387308454365332,0.0,0.0,-0.06347693513318574,-0.055464133077383744,-0.05771683832245845,0.14659505876280587,0.04158242432236576,0.003291913292761547
1369,3.0,300.41517000000005,313.38838,0.0,0.0,0.0,0.01388322568732558,0.0,0.0,-0.058942275152399644,-0.02800780735465537,-0.008312160414371363,0.14817415838115086,0.08259888868212563,-0.009517957518949271
1370,3.0,300.02781,210.46504,0.0,0.0,0.0,0.01389336683099784,0.0,0.0,-0.02101384245990478,-0.03029321727320777,-0.012669058128088688,0.13783456932571286,0.054292950724047044,0.0035220299898472964
1371,3.0,299.3339,114.6623,0.0,0.0,0.0,0.013903507974670102,0.0,0.0,0.006360235827031405,-0.032309965954245366,-0.008904745549854962,0.1064292472462489,0.034102783323432674,-0.003216261507170297
1372,3.0,299.92655,399.59314,0.0,0.0,0.0,0.013913649118342364,0.0,0.0,-0.017016605265908185,-0.05748005089333935,-0.04696968056004655,0.11554611700851389,0.03368394322234637,-0.004944237861383285
1373,3.0,299.58454,660.82936,0.0,0.0,0.0,0.013923790262014624,0.0,0.0,-0.07215610821000343,-0.06452317868294194,-0.06419633865118533,0.12767860145339688,0.023048885371497876,-0.005424829679214005
1374,3.0,299.64985,527.30283,0.0,0.0,0.0,0.013933931405686885,0.0,0.0,-0.08445203901526732,-0.02826710514799607,-0.047567748391821256,0.15159382680614586,0.013976973516169887,0.01968964819571698
1375,3.0,301.21701,408.41376,0.0,0.0,0.0,0.013944072549359149,0.0,0.0,-0.059137729070189445,-0.03548302247715167,-0.029526833401071574,0.1348242640736189,0.01723990025669568,0.012444372958163988
1376,3.0,301.26228,629.76125,0.0,0.0,0.0,0.01395421369303141,0.0,0.0,-0.07907899057048873,-0.05041480081430345,-0.06193790347679515,0.15042012855281084,0.019224118543272783,0.00986146389365071
1377,3.0,300.62518,686.34617,0.0,0.0,0.0,0.013964354836703672,0.0,0.0,-0.05103401821541545,-0.06690065149233024,-0.09069742892163932,0.15088341689603385,0.04068117179566906,0.016777602872070484
1378,3.0,299.95451,379.59575,0.0,0.0,0.0,0.013974495980375931,0.0,0.0,-0.0005690490176557654,-0.05823820818791365,-0.05658037194404795,0.16390123874829285,0.004254376460649266,0.004475651740012436
1379,3.0,300.69472,224.32764,0.0,0.0,0.0,0.013984637124048193,0.0,0.0,0.01061255153962729,-0.046823722896391654,-0.03197882872881467,0.13411078401570387,0.015855919170357384,0.003360119311317957
1380,3.0,300.68277,260.0121,0.0,0.0,0.0,0.013994778267720455,0.0,0.0,-0.04600902117998686,-0.016356148585726184,-0.016672015118899784,0.13276755888813788,0.026667640215891176,0.008970991030792881
1381,3.0,299.65401,390.69689,0.0,0.0,0.0,0.014004919411392714,0.0,0.0,-0.08616895685921391,-0.03027150129706457,-0.0023216418169532075,0.12640992113568789,0.05348006981807195,0.0008571740803164953
1382,3.0,299.28578,398.16586,0.0,0.0,0.0,0.014015060555064976,0.0,0.0,-0.053596459830558746,-0.04001214200639096,-0.027423875375025775,0.14077312633822586,0.04512162991465816,-0.030479081792051176
1383,3.0,299.29952000000003,570.3009599999999,0.0,0.0,0.0,0.014025201698737236,0.0,0.0,-0.026893360927418074,-0.07971067905383152,-0.06675321043052894,0.12503716990020788,0.05581756889776515,-0.014989238737072684
1384,3.0,300.05439,719.9984,0.0,0.0,0.0,0.014035342842409497,0.0,0.0,-0.02162493967471538,-0.09073535791263261,-0.1065012386658539,0.12592307472763986,0.046733706770757756,-0.026370879526603178
1385,3.0,300.71722,775.81031,0.0,0.0,0.0,0.014045483986081759,0.0,0.0,-0.04891415917770166,-0.08896768941092731,-0.09794511265468,0.12087889281481788,0.05264004090216755,0.006132428326923555
1386,3.0,300.58245,711.06273,0.0,0.0,0.0,0.01405562512975402,0.0,0.0,-0.08577116094945451,-0.045151749787130754,-0.08522240394704642,0.13419087130360788,-0.0005156117779194204,0.02007195455119768
1387,3.0,300.35337000000004,321.61041,0.0,0.0,0.0,0.014065766273426282,0.0,0.0,-0.050063972086429355,-0.02190676201777908,-0.025790799923853774,0.1274389576722459,0.016722867101668485,0.045961458207042755
1388,3.0,300.50968,187.6203,0.0,0.0,0.0,0.014075907417098542,0.0,0.0,-0.01876803339501068,-0.01965709956275468,-0.018606754376593683,0.14848701961452787,0.025035379417799576,0.01162636601993299
1389,3.0,300.49161000000004,512.2024299999999,0.0,0.0,0.0,0.014086048560770803,0.0,0.0,-0.03545503144313917,-0.05251716608904075,-0.06772455250639293,0.15353583208030686,0.05369568335985135,-0.0023966303290289975
1390,3.0,299.35722999999996,629.92526,0.0,0.0,0.0,0.014096189704443067,0.0,0.0,-0.05638825060583704,-0.07684860114561642,-0.058244698054804145,0.14147110366961085,0.009461483416675711,0.004918312641674665
1391,3.0,299.70621,426.48418,0.0,0.0,0.0,0.014106330848115328,0.0,0.0,-0.04822160374760175,-0.03561773103819636,-0.045801207637477255,0.16456738989403685,0.02829745502824137,-0.002275659514165108
1392,3.0,299.93622999999997,351.50742,0.0,0.0,0.0,0.01411647199178759,0.0,0.0,-0.06831009048743103,-0.03303257539556137,-0.0055068131633551455,0.15053559853420684,0.014223075753458287,-0.0015819957911058285
1393,3.0,299.85058,447.27483,0.0,0.0,0.0,0.01412661313545985,0.0,0.0,-0.08699666769365261,-0.028303925643379968,-0.02065978754371228,0.14384658746905285,0.042601398272180666,-0.015808997584726585
1394,3.0,299.55247,599.55402,0.0,0.0,0.0,0.014136754279132111,0.0,0.0,-0.06757208876384593,-0.05099410224097605,-0.06368326122454854,0.1156284334466379,0.006405253718374323,-0.010128873665967
1395,3.0,300.33925,496.58311,0.0,0.0,0.0,0.014146895422804371,0.0,0.0,-0.020686861586384282,-0.07464370509326013,-0.055618298066848655,0.11065005199530989,0.04386383291627326,-0.025486371971059078
1396,3.0,299.92855,365.79152999999997,0.0,0.0,0.0,0.014157036566476633,0.0,0.0,0.005626279200495525,-0.04738177748171736,-0.06943599373354903,0.14014740387147187,0.04622460837726366,0.009021453418898132
1397,3.0,300.11071,245.89267999999998,0.0,0.0,0.0,0.014167177710148894,0.0,0.0,-0.02511359320626868,-0.03437602242489927,-0.015255621175112586,0.13097712569643588,0.05110247947167205,0.0024096583948397675
1398,3.0,299.84997000000004,255.32975,0.0,0.0,0.0,0.014177318853821154,0.0,0.0,-0.03673859032531657,-0.031777180813163566,-0.009098098493562412,0.14731852946670684,0.019645821075891582,0.02378567828771368
1399,3.0,300.43869,512.2578,0.0,0.0,0.0,0.014187459997493415,0.0,0.0,-0.06172045392583454,-0.051900880020468054,-0.04209224617643126,0.1270019733016189,0.02054602488873478,0.0014085443965875088
1400,3.0,301.38155,612.5328400000001,0.0,0.0,0.0,0.014197601141165677,0.0,0.0,-0.04800526370550066,-0.09150940702177532,-0.046680017687709054,0.16118089527731586,0.04333124333246076,-0.02101704129047048
1401,3.0,300.81528,383.46811,0.0,0.0,0.0,0.014207742284837939,0.0,0.0,-0.0052218873365601545,-0.06940001524899822,-0.04194282725043476,0.13664978611628387,0.06746309041083864,-0.05709571905090874
1402,3.0,300.14286,495.00764000000004,0.0,0.0,0.0,0.0142178834285102,0.0,0.0,-0.05756189819666704,-0.05491024801621955,-0.037997816006342465,0.13810224973713087,0.026190150159266574,-0.011724188224337288
1403,3.0,299.52615,530.3272099999999,0.0,0.0,0.0,0.01422802457218246,0.0,0.0,-0.08700017252574851,-0.04474826954431036,-0.02945778851275737,0.12156750771527888,0.02675644753415577,-0.008511700364514423
1404,3.0,298.12358,354.93474,0.0,0.0,0.0,0.014238165715854722,0.0,0.0,-0.07890489495155682,-0.020290257258742478,-0.00869614623189281,0.1250875182976769,0.025209282519212475,0.01797626963436968
1405,3.0,299.62965,543.16403,0.0,0.0,0.0,0.014248306859526985,0.0,0.0,-0.06657751995593963,-0.03678429297107707,-0.06174648736065384,0.1278760737653859,0.016686074977287385,0.015996269507958884
1406,3.0,300.00731,560.8394,0.0,0.0,0.0,0.014258448003199246,0.0,0.0,-0.04893594506810175,-0.04456892731636066,-0.07697630105571943,0.13330808728648388,-0.0006044628888533424,0.024946697742547375
1407,3.0,299.05481000000003,269.09465,0.0,0.0,0.0,0.014268589146871506,0.0,0.0,0.02176455641924448,-0.025193190081124275,-0.07836942267120983,0.12485828059505288,0.04056370571157606,-0.006221010399690924
1408,3.0,300.27139,580.61383,0.0,0.0,0.0,0.014278730290543768,0.0,0.0,-0.04202191040748966,-0.05941547510810084,-0.07505472189032433,0.15446750541475585,0.048710088581061455,0.019284161717698582
1409,3.0,299.16551,747.20285,0.0,0.0,0.0,0.014288871434216028,0.0,0.0,-0.0984409921873695,-0.06825545198903864,-0.06043456456842714,0.13266393380041086,0.052212585135480945,0.011683391735560988
1410,3.0,299.67652000000004,517.28315,0.0,0.0,0.0,0.01429901257788829,0.0,0.0,-0.08231646446850252,-0.037970969944942964,-0.03695372662629886,0.15348910098569485,0.03104338205099327,0.02933194892983797
1411,3.0,301.13392000000005,220.4745,0.0,0.0,0.0,0.01430915372156055,0.0,0.0,-0.03114086279011387,-0.04741794949703725,0.01154006852216609,0.15422922952123985,0.015788137804917883,-0.011602928531869889
1412,3.0,299.653,208.4927,0.0,0.0,0.0,0.014319294865232812,0.0,0.0,0.006046233674041805,-0.029804225814698073,-0.03961858148204956,0.15193953760776485,0.031216032775282572,-0.007783131087435233
1413,3.0,298.84789,421.9132,0.0,0.0,0.0,0.014329436008905072,0.0,0.0,-0.003113856879188747,-0.07404182744110943,-0.05109539178722255,0.13062509221419288,0.0099368090697617,-0.026166407682923377
1414,3.0,298.97797,435.72924000000006,0.0,0.0,0.0,0.014339577152577334,0.0,0.0,-0.04968600750762715,-0.041305897224324664,-0.04145890609542546,0.12537310283836187,0.03999321348127286,-0.023552869891737275
1415,3.0,299.32027,300.63181000000003,0.0,0.0,0.0,0.014349718296249595,0.0,0.0,-0.054757848108428854,-0.005860740308710035,-0.03076597545186537,0.1260759944327319,0.05961674609471475,0.003074384910943167
1416,3.0,300.0161,311.26345,0.0,0.0,0.0,0.014359859439921857,0.0,0.0,-0.05661447388941354,-0.026341416240195373,-0.011660426422044488,0.13848199560960886,0.053357050110180854,-0.004765336397227086
1417,3.0,299.78044,441.29373,0.0,0.0,0.0,0.014370000583594118,0.0,0.0,-0.031780153688956966,-0.05538579567240244,-0.046976325454202356,0.13082710388662988,0.029794167280955373,-0.01373432747497259
1418,3.0,299.10464,685.13668,0.0,0.0,0.0,0.014380141727266378,0.0,0.0,-0.045556727613598955,-0.06701931827779173,-0.09568839696570951,0.14003560185543787,0.012161693405515688,0.007982666680602862
1419,3.0,300.6749,713.60092,0.0,0.0,0.0,0.01439028287093864,0.0,0.0,-0.013931062140888786,-0.1057267812169209,-0.09725901669396761,0.17167392079539684,0.02120577330709688,-0.001004474594196424
1420,3.0,300.78949,281.58038999999997,0.0,0.0,0.0,0.014400424014610903,0.0,0.0,-0.03181487270363347,-0.03142688201509177,-0.02235165176568628,0.15615738366653384,0.041192104171844164,0.016624605146720785
1421,3.0,301.30129,402.86515,0.0,0.0,0.0,0.014410565158283163,0.0,0.0,-0.048515673244624156,-0.061668257360183144,-0.012277013425896887,0.13902006181021187,0.04048172060623476,0.015285416807553185
1422,3.0,300.30262999999997,739.43479,0.0,0.0,0.0,0.014420706301955424,0.0,0.0,-0.15424012195981487,-0.04022842935948686,-0.03030116318049197,0.0993807624033676,0.03812746946263826,0.03274077963176337
1423,3.0,299.98081,572.49753,0.0,0.0,0.0,0.014430847445627684,0.0,0.0,-0.07623765794482103,-0.024843746466136876,-0.07294355045896793,0.14547147585941686,0.033156860652827365,-0.0013472357741118187
1424,3.0,300.18424,577.19371,0.0,0.0,0.0,0.014440988589299946,0.0,0.0,-0.04578244123237516,-0.06820506508806584,-0.06146496899262015,0.14932708500743586,0.03514582500287287,-0.003962532060846466
1425,3.0,299.72097,679.66579,0.0,0.0,0.0,0.014451129732972207,0.0,0.0,-0.038917082093316964,-0.05926162321291685,-0.1084227256254899,0.14926052460836686,-0.002012431931636568,-0.01846291541889788
1426,3.0,298.27774,553.7194900000001,0.0,0.0,0.0,0.014461270876644469,0.0,0.0,-0.06618872170706823,-0.03007496117516757,-0.07205321468884864,0.13189213106673986,-0.007089933155446924,0.006840792991708703
1427,3.0,299.25289,478.78785999999997,0.0,0.0,0.0,0.01447141202031673,0.0,0.0,-0.053676242130182655,-0.05657408979342795,-0.03528922319677517,0.14376483845098487,0.025455723182034273,0.0044043387926743964
1428,3.0,299.09763,308.3558,0.0,0.0,0.0,0.01448155316398899,0.0,0.0,-0.05657948535021044,-0.007188256817325713,-0.029964719564287572,0.14339297566428486,0.06394150929078564,0.024495775103544774
1429,3.0,299.34501,206.2138,0.0,0.0,0.0,0.014491694307661252,0.0,0.0,0.01930330707833808,-0.04936547394449295,-0.03262167816200897,0.15540318108709986,0.04216281600614596,-0.005438793076192085
1430,3.0,300.76982000000004,239.49285,0.0,0.0,0.0,0.014501835451333513,0.0,0.0,-0.002802031390063967,-0.040837055257303564,-0.029160760325442975,0.1251764715239559,0.056363825198926444,-0.018609627953877283
1431,3.0,300.62912,486.22805999999997,0.0,0.0,0.0,0.014511976595005775,0.0,0.0,-0.04306466533715156,-0.046035787194628454,-0.05870073659356165,0.15500011019731988,0.023228146539439578,-0.006777220261884562
1432,3.0,299.68291,653.02724,0.0,0.0,0.0,0.014522117738678036,0.0,0.0,-0.08551005146493501,-0.07645362916388573,-0.03654029626749646,0.15713731810324585,0.028912115843653673,-0.016474115215368585
1433,3.0,300.25077999999996,555.10316,0.0,0.0,0.0,0.014532258882350296,0.0,0.0,-0.08492894341333412,-0.05007040926431466,-0.03373814703644586,0.15224959213836484,0.03216860540629417,0.004264487379422136
1434,3.0,300.24508,491.24200999999994,0.0,0.0,0.0,0.01454240002602256,0.0,0.0,-0.06965232972264973,-0.03873559582815567,-0.040937379176204755,0.11866126324845487,0.042615703337092456,0.001043679216403119
1435,3.0,300.08062,466.4528,0.0,0.0,0.0,0.014552541169694818,0.0,0.0,-0.02058457398878928,-0.044178862504864254,-0.07702656636668023,0.12358579045696788,0.028612968950380176,0.012716495458020387
1436,3.0,299.55714,449.68849000000006,0.0,0.0,0.0,0.014562682313367081,0.0,0.0,-0.004256220474506256,-0.03933818376862646,-0.09309966657672172,0.13319056040738486,0.053292180825528744,-0.00016447589341000684
1437,3.0,298.45159,446.89322999999996,0.0,0.0,0.0,0.014572823457039343,0.0,0.0,-0.01954382326782518,-0.040601954889600965,-0.07569860382537053,0.16775269357090186,0.00982854968005233,-0.014782196277889185
1438,3.0,298.75203999999997,482.74976,0.0,0.0,0.0,0.014582964600711602,0.0,0.0,-0.08017559366346502,-0.01717177134647188,-0.04939650675530566,0.15995012064584785,0.028307748636007272,0.008761623973229962
1439,3.0,299.38296,383.27179,0.0,0.0,0.0,0.014593105744383864,0.0,0.0,-0.07169141347564163,-0.008231974537232631,-0.03658166524257926,0.15436116481676085,0.026349032841197075,0.017124077664264884
1440,3.0,300.22021,439.50057000000004,0.0,0.0,0.0,0.014603246888056125,0.0,0.0,-0.05860563800542614,-0.038374786586796564,-0.03661677537179436,0.14952191273666388,0.046142028494113654,0.019013421290978584
1441,3.0,300.8307,630.32839,0.0,0.0,0.0,0.014613388031728387,0.0,0.0,-0.05279818188502485,-0.05394246548795686,-0.08486344287386971,0.1274260995284769,0.03520595430355717,0.007820908090913533
1442,3.0,300.43678,491.45333,0.0,0.0,0.0,0.014623529175400649,0.0,0.0,-0.028745348049444973,-0.05926238011074154,-0.061381812570163244,0.12045774554325388,0.037635301465065066,0.006321665752699834
1443,3.0,300.78238,370.07482999999996,0.0,0.0,0.0,0.014633670319072908,0.0,0.0,-0.024563420693470877,-0.041619146532489965,-0.046310940325533956,0.13728190219116887,0.01741518745774518,-0.011651442946657887
1444,3.0,299.95038999999997,470.64632,0.0,0.0,0.0,0.01464381146274517,0.0,0.0,-0.07033507587853152,-0.05037818296893955,-0.022351469380668277,0.13194232747669388,0.037338391828012366,0.00019434164275752678
1445,3.0,300.41683,545.0215599999999,0.0,0.0,0.0,0.014653952606417431,0.0,0.0,-0.07038998491470064,-0.038114648809122964,-0.057168311327823046,0.15678558859603284,0.014247361331855087,-9.91870857262532e-05
1446,3.0,300.20766000000003,467.7277,0.0,0.0,0.0,0.014664093750089693,0.0,0.0,-0.051580654485364245,-0.04668085057929125,-0.04391603556142526,0.15508862772605586,0.041849547446228756,0.013677594588623486
1447,3.0,299.25167999999996,341.37489,0.0,0.0,0.0,0.014674234893761956,0.0,0.0,0.006358168188877343,-0.03264693342075147,-0.07748067567724733,0.17150730194895283,0.04980811934342866,0.007334602961068953
1448,3.0,299.42005,322.05451,0.0,0.0,0.0,0.014684376037434214,0.0,0.0,-0.008920376857822652,-0.04690214744088155,-0.04207400666138116,0.15516370955846587,0.05591661713479045,0.0037117741419985866
1449,3.0,300.73965,337.47716,0.0,0.0,0.0,0.014694517181106474,0.0,0.0,-0.0003889734499461906,-0.05448633659838275,-0.047709319695793256,0.1356607121636699,0.05249523125087595,-0.01769598945795818
1450,3.0,301.14784,509.72279000000003,0.0,0.0,0.0,0.014704658324778736,0.0,0.0,-0.06989591909969013,-0.07489693655825212,-0.01015014472399129,0.13782488265475687,0.045842626261814956,-0.012689462958602488
1451,3.0,300.98503999999997,546.4305099999999,0.0,0.0,0.0,0.014714799468450999,0.0,0.0,-0.06867701773289393,-0.06621541983395314,-0.03120879411656817,0.1254730092982219,-0.001144038599057819,-0.010058386010835411
1452,3.0,300.42837000000003,365.4452,0.0,0.0,0.0,0.01472494061212326,0.0,0.0,-0.05116467681581045,-0.05624539247423804,-0.0036761450260822666,0.12654522042154087,0.03293437322236957,-0.01269282998868479
1453,3.0,299.40634,326.26131000000004,0.0,0.0,0.0,0.01473508175579552,0.0,0.0,0.006668447357024514,-0.059923461966235235,-0.045920276683228456,0.11861946668182989,0.02663027661845368,-0.001763742157567798
1454,3.0,300.06143,709.49495,0.0,0.0,0.0,0.014745222899467782,0.0,0.0,-0.05843166195000604,-0.06351768501245744,-0.09371940174863481,0.14917081144451286,0.05136059074914565,0.009319774817315161
1455,3.0,300.08301,610.49999,0.0,0.0,0.0,0.014755364043140044,0.0,0.0,-0.04740082962334766,-0.05669220233108474,-0.08148371980756702,0.15678636879860985,0.057392492912448044,0.012344211159278789
1456,3.0,299.22995,291.10011000000003,0.0,0.0,0.0,0.014765505186812305,0.0,0.0,-0.05410651777189754,-0.025639414279413176,-0.008741233429542571,0.14889083017688087,0.05736106696059654,-0.003856066225139106
1457,3.0,299.65909,497.93164,0.0,0.0,0.0,0.014775646330484567,0.0,0.0,-0.06150862892617904,-0.04358536240454036,-0.04626479387622966,0.12835046732970487,0.026663776693259873,0.005647770640416563
1458,3.0,300.09392,623.15994,0.0,0.0,0.0,0.014785787474156827,0.0,0.0,-0.06669496172203024,-0.048827933620691856,-0.07390216611357593,0.1024199077930579,0.030934153690213267,-0.001029837308112029
1459,3.0,300.51726,604.58825,0.0,0.0,0.0,0.014795928617829088,0.0,0.0,-0.028296365784383874,-0.06794988615638163,-0.08753347949063182,0.14992021121847285,0.022597194688919478,0.012467450742441589
1460,3.0,301.00985,536.7094400000001,0.0,0.0,0.0,0.01480606976150135,0.0,0.0,-0.05603052569778235,-0.06246555853262064,-0.044650183894880055,0.13148128854869287,0.03367239521095667,-0.013391348395623186
1461,3.0,301.42888,478.19535999999994,0.0,0.0,0.0,0.01481621090517361,0.0,0.0,-0.04336847419413516,-0.05656774786105205,-0.04542322684667346,0.17108703620497584,0.028265862903373476,0.0014774386146118386
1462,3.0,299.73349,323.90623999999997,0.0,0.0,0.0,0.014826352048845871,0.0,0.0,-0.06129843829893485,-0.04930419055194475,0.012143220842942589,0.12777640035304888,0.03042755701121607,-0.018289052847488982
1463,3.0,299.99582999999996,623.05269,0.0,0.0,0.0,0.01483649319251813,0.0,0.0,-0.07656264575539483,-0.06243611449796473,-0.05039370190747115,0.15884237484152186,0.03451069045593997,0.007672960201412212
1464,3.0,298.98789,560.83864,0.0,0.0,0.0,0.014846634336190392,0.0,0.0,-0.03616375125208436,-0.05840599429847285,-0.07591119484210163,0.15063420803393887,0.027803561465747872,-0.017907571277589684
1465,3.0,298.36441,288.80965,0.0,0.0,0.0,0.014856775479862654,0.0,0.0,0.03508755197637176,-0.05165737879618635,-0.07122109418997473,0.15828905922691383,0.035495851236667764,0.01083143889247979
1466,3.0,299.52907000000005,373.24597,0.0,0.0,0.0,0.014866916623534917,0.0,0.0,-0.019060750203149582,-0.038510502318440665,-0.05588620341978885,0.13199769146215787,0.029022180135766174,0.0013042561366700587
1467,3.0,300.28636,705.62819,0.0,0.0,0.0,0.014877057767207179,0.0,0.0,-0.0945159257582456,-0.040903168813078455,-0.07907425463952132,0.1264383326684919,0.01954479294817088,0.030629142105360968
1468,3.0,299.76394,685.89573,0.0,0.0,0.0,0.014887198910879439,0.0,0.0,-0.10047909511426459,-0.06019677908795954,-0.04781930191464766,0.13593282047802488,0.05847373513390835,0.005932632227155214
1469,3.0,300.57013,555.39122,0.0,0.0,0.0,0.0148973400545517,0.0,0.0,-0.06741665923825624,-0.051736042467699854,-0.04967236206853045,0.14401152432033087,0.03757182438605036,-0.001192128056753879
1470,3.0,299.81615,589.71872,0.0,0.0,0.0,0.014907481198223962,0.0,0.0,-0.04861331103751025,-0.06264223996580774,-0.06800421460024343,0.13235456827987888,0.02000479126831918,-0.002085618378409508
1471,3.0,299.37581,443.61852000000005,0.0,0.0,0.0,0.014917622341896223,0.0,0.0,-0.01964585349989478,-0.03913109875293876,-0.07607199965947183,0.14038507181492788,0.016405055128302884,-0.01929894908965798
1472,3.0,299.47397,340.57479,0.0,0.0,0.0,0.014927763485568485,0.0,0.0,-0.036978984924791666,-0.02154088855242018,-0.04500635954353186,0.16251736202671485,0.02974789924163907,0.001028943925498859
1473,3.0,299.17349,348.16804,0.0,0.0,0.0,0.014937904629240745,0.0,0.0,-0.04465197126805646,-0.03424177083964967,-0.02694064829633498,0.15251166927672982,0.036968070194714465,-0.01972927032762738
1474,3.0,299.44382,196.80221,0.0,0.0,0.0,0.014948045772913006,0.0,0.0,-0.04581231893807386,-0.015785255108383384,0.0017746160536659683,0.14094830714801487,0.02791655101089907,0.019608604399718583
1475,3.0,299.1059,196.59058000000002,0.0,0.0,0.0,0.014958186916585266,0.0,0.0,-0.001928627333090698,-0.037675239731006664,-0.020154761402370082,0.12896365589272188,0.03395982488007376,-0.024697317641185476
1476,3.0,300.27008,559.90571,0.0,0.0,0.0,0.014968328060257528,0.0,0.0,-0.029716706337310574,-0.06066709128087574,-0.07981355737623483,0.13712429113811386,0.046526476860305754,0.007592381588534722
1477,3.0,301.27011,691.1587099999999,0.0,0.0,0.0,0.01497846920392979,0.0,0.0,-0.04501569461670316,-0.06808559479527503,-0.0969936981685327,0.16174811268329584,0.03640330485397646,-0.0052470288073164255
1478,3.0,300.62301,412.8547,0.0,0.0,0.0,0.014988610347602049,0.0,0.0,-0.04396874989787775,-0.044437475341137365,-0.03709129356587566,0.16379790750309486,0.027500193372557772,0.006280286645116035
1479,3.0,299.68777,380.798,0.0,0.0,0.0,0.01499875149127431,0.0,0.0,-0.059509024436833445,-0.03023686334239607,-0.02600719468146027,0.14617807594915286,0.03879635030415166,-0.008345809943567312
1480,3.0,299.89151,655.01533,0.0,0.0,0.0,0.015008892634946574,0.0,0.0,-0.0923852938454686,-0.04309683501457646,-0.06362617572716464,0.15706868054147186,0.04500807497595116,0.005915020521867074
1481,3.0,299.03732,449.11642,0.0,0.0,0.0,0.015019033778618835,0.0,0.0,-0.03626511375233807,-0.05874001118068775,-0.04151505230996666,0.12855357331224987,0.05431192079241925,-0.008583484270498942
1482,3.0,299.64455,386.24164,0.0,0.0,0.0,0.015029174922291097,0.0,0.0,-0.007515970068018493,-0.052309124565258644,-0.05758272048622204,0.16091341751591784,0.04060178263708396,-0.004920563070146765
1483,3.0,298.58494,395.12965,0.0,0.0,0.0,0.015039316065963357,0.0,0.0,-0.029679640635402474,-0.03292038834448937,-0.05750951823274754,0.14348535367590187,0.016393543593916787,0.00940489289196566
1484,3.0,298.44369,386.78157999999996,0.0,0.0,0.0,0.015049457209635618,0.0,0.0,-0.05302787960319425,-0.057111696991735655,-0.007432365991667413,0.16712929144687683,0.03764516038853807,0.00926552196191082
1485,3.0,299.15002000000004,543.0375799999999,0.0,0.0,0.0,0.01505959835330788,0.0,0.0,-0.07822561613751722,-0.034164968508569864,-0.052679280025540155,0.14139530242962986,0.04651399767207416,0.03102267223219937
1486,3.0,299.39784,808.2556,0.0,0.0,0.0,0.015069739496980141,0.0,0.0,-0.1016326631278629,-0.08133312652470462,-0.06272373263160043,0.14339061479155185,0.028942705864172674,0.02035652584178268
1487,3.0,298.89207999999996,634.59948,0.0,0.0,0.0,0.015079880640652403,0.0,0.0,-0.05031861399556055,-0.053142862211292156,-0.08944091773763133,0.13541958903737286,0.04130150174539086,0.006668161012546253
1488,3.0,300.19146,455.01334,0.0,0.0,0.0,0.015090021784324663,0.0,0.0,-0.005283180962934365,-0.05613494517358775,-0.07689456824965303,0.15190485405684184,0.052945129494027444,-0.016593226817623985
1489,3.0,299.99793999999997,593.4219400000001,0.0,0.0,0.0,0.015100162927996923,0.0,0.0,-0.025905099601384273,-0.07406972930911314,-0.08041062310366064,0.13000264254526187,0.05955596324771595,-0.004333301246713536
1490,3.0,299.75845,526.9752,0.0,0.0,0.0,0.015110304071669184,0.0,0.0,-0.07939281236496053,-0.028406615501264675,-0.05238787537628074,0.12816557958395788,0.018900267599311182,0.0041012821725650355
1491,3.0,299.58838,212.14404,0.0,0.0,0.0,0.015120445215341446,0.0,0.0,-0.04407825284943486,-0.024134098520100077,0.003725859736938726,0.13214645684183987,0.034736248034200765,0.00027384631185402677
1492,3.0,299.32653999999997,114.34168000000001,0.0,0.0,0.0,0.015130586359013707,0.0,0.0,-0.01208953277314399,-0.04409344957443466,0.021425965726078182,0.15615289496859083,0.039743358165614064,-0.009060070609359351
1493,3.0,299.66632000000004,289.35265,0.0,0.0,0.0,0.015140727502685967,0.0,0.0,-0.0017728107459627981,-0.03859195242772916,-0.04759121830388755,0.14877298919025086,0.052290513187421846,0.017010958423100884
1494,3.0,299.78468,377.60537999999997,0.0,0.0,0.0,0.015150868646358229,0.0,0.0,0.00024729300880591974,-0.06615348086859023,-0.04887641865122695,0.1360112966982699,0.018071791761046983,-0.01774598017814188
1495,3.0,298.58917,525.33983,0.0,0.0,0.0,0.015161009790030492,0.0,0.0,-0.04120182630655366,-0.06253713958593514,-0.05595122367870585,0.17322941168641184,0.023440967563943378,0.013236703125610887
1496,3.0,298.0951,592.2512,0.0,0.0,0.0,0.015171150933702754,0.0,0.0,-0.08286246745713882,-0.04712203588483286,-0.050045074972064355,0.17840144549685183,0.018299276540997982,-0.011958801218741788
1497,3.0,299.69484,532.68927,0.0,0.0,0.0,0.015181292077375015,0.0,0.0,-0.05909515838048804,-0.08121896971543821,-0.021610108733001683,0.15983131707162285,0.036920272147747166,0.005170108635249995
1498,3.0,299.52089,543.53962,0.0,0.0,0.0,0.015191433221047275,0.0,0.0,-0.055713360177980537,-0.06777770558013874,-0.04173140856406936,0.14248620801729386,0.014936392678107185,-0.023696022879115375
1499,3.0,299.41947999999996,784.79418,0.0,0.0,0.0,0.015201574364719537,0.0,0.0,-0.06104599615577074,-0.07584649882321663,-0.1016653404435879,0.1138226495159209,0.04813852129240216,0.015833783708672784
1500,3.0,300.48289,379.98942,0.0,0.0,0.0,0.015211715508391798,0.0,0.0,-0.018303907093954984,-0.050113877693604654,-0.047089511569872955,0.16067889064777185,0.03647580999138217,-0.02035593309047418
1501,3.0,299.3768,-165.46872,0.0,0.0,0.0,0.01522185665206406,0.0,0.0,0.04176855633923556,0.025849462038393275,-0.017319658238317184,0.15863840759639186,0.046362668769639154,0.02050147633483818
1502,3.0,300.03788,211.86262000000002,0.0,0.0,0.0,0.01523199779573632,0.0,0.0,-0.03839711659250036,-0.029578059273127174,0.0035742292912739663,0.14573497154792187,0.0035745355967791966,0.003382134094915647
1503,3.0,299.92349,717.06394,0.0,0.0,0.0,0.01524213893940858,0.0,0.0,-0.1028623333167219,-0.04976806455372555,-0.06533913074997014,0.14744405088909485,0.03432638532900047,0.016785591335858885
1504,3.0,300.10946,659.00473,0.0,0.0,0.0,0.01525228008308084,0.0,0.0,-0.09150955596954001,-0.07281444719747643,-0.03599697839162516,0.1356688384294719,0.04923846101795775,-0.006765771042379613
1505,3.0,299.78517999999997,548.23198,0.0,0.0,0.0,0.015262421226753102,0.0,0.0,-0.014424477449335086,-0.09265514565185091,-0.05956920946627325,0.1294209660603549,0.04652728239413525,-0.013978271489547988
1506,3.0,300.92967999999996,663.10848,0.0,0.0,0.0,0.015272562370425364,0.0,0.0,-0.05001472002556855,-0.06273848555305644,-0.08881521654912941,0.11452198460243988,0.012917927551400189,0.007947504976957674
1507,3.0,301.02497999999997,721.59699,0.0,0.0,0.0,0.015282703514097625,0.0,0.0,-0.05206740463465275,-0.08532223238664874,-0.08195782864860793,0.13615728577267788,0.02896338832521387,0.002002715471127628
1508,3.0,300.77738,674.0190299999999,0.0,0.0,0.0,0.015292844657769885,0.0,0.0,-0.07060345745901873,-0.07908981410805692,-0.05519168329774504,0.17481149026005086,0.02741946875034087,0.012918798946486187
1509,3.0,300.0991,307.14729,0.0,0.0,0.0,0.015302985801442147,0.0,0.0,-0.04154081926000966,-0.018219123391837483,-0.03360516505357157,0.16811006688117183,0.03267315329358917,0.002795382341582757
1510,3.0,299.23446,36.208337,0.0,0.0,0.0,0.01531312694511441,0.0,0.0,0.0016461567126130185,-0.018621491086048082,0.005968903642309925,0.16497446312171185,0.01071903095288599,-0.006641570594146983
1511,3.0,299.08386,265.70002,0.0,0.0,0.0,0.015323268088786672,0.0,0.0,-0.01200215008451999,-0.02003397489769938,-0.04873004859478136,0.14066647163269985,0.051335509769420355,-0.006937320465135222
1512,3.0,299.17553,737.76734,0.0,0.0,0.0,0.015333409232458933,0.0,0.0,-0.06845003856474284,-0.05083929789069805,-0.1049735108275789,0.15329192251623486,0.05383263728311766,0.016020195382570185
1513,3.0,299.99593,523.04103,0.0,0.0,0.0,0.015343550376131193,0.0,0.0,-0.03814481630435026,-0.06673515836674734,-0.05411143710113304,0.12476568980091488,0.04003023865317696,-0.005685515422541683
1514,3.0,300.20833,245.3947,0.0,0.0,0.0,0.015353691519803455,0.0,0.0,-0.008571885697929252,-0.039651049055003856,-0.02637092613610777,0.14558451404057285,0.030051293679331768,-0.005036326286121706
1515,3.0,300.91472000000005,603.0380200000001,0.0,0.0,0.0,0.015363832663475716,0.0,0.0,-0.08497300256743241,-0.05469323112305165,-0.04364226551690625,0.14297776603830686,0.04377737228524026,-0.014523244002832586
1516,3.0,300.7467,891.73637,0.0,0.0,0.0,0.015373973807147976,0.0,0.0,-0.1002805720619219,-0.08362640939653401,-0.08715860735113481,0.17717465293827683,0.04158642058076016,0.001944277487510248
1517,3.0,300.92203,514.48974,0.0,0.0,0.0,0.015384114950820238,0.0,0.0,-0.05070154248660265,-0.031025666386244866,-0.07466482730484472,0.13808659502308587,0.04782730355068736,0.0066171175255086544
1518,3.0,299.90439,266.97596,0.0,0.0,0.0,0.015394256094492497,0.0,0.0,-0.0026501122694457175,-0.028916921688877974,-0.04958699068135495,0.20193465529689883,0.006378384149572504,0.0036027840976421066
1519,3.0,298.83468,306.25846,0.0,0.0,0.0,0.015404397238164759,0.0,0.0,-0.023430099443370777,-0.033487015025661065,-0.03617780807072166,0.14356127650589487,0.04300566783682896,0.003065738949164877
1520,3.0,299.29837000000003,529.9716099999999,0.0,0.0,0.0,0.01541453838183702,0.0,0.0,-0.06603020278192363,-0.05432203910791785,-0.040745893145806567,0.16784555794256684,0.049861801333726655,0.013861896675812686
1521,3.0,299.99141000000003,644.56034,0.0,0.0,0.0,0.015424679525509282,0.0,0.0,-0.08554873431400273,-0.06658274326020515,-0.04379877212735225,0.1138356697797059,0.037366996891585465,-0.0004030223652327106
1522,3.0,299.64033,372.76266,0.0,0.0,0.0,0.015434820669181544,0.0,0.0,-0.037833738391149264,-0.03387263268246857,-0.04160417170926206,0.10922278790444989,0.02030006247996018,0.0017749395844228982
1523,3.0,300.71202,142.35806000000002,0.0,0.0,0.0,0.015444961812853803,0.0,0.0,0.021382026135491682,-0.04209996308919286,-0.02255535961879068,0.13817959111726386,0.028622763025846768,-0.025002043489509577
1524,3.0,299.96107,360.77311000000003,0.0,0.0,0.0,0.015455102956526065,0.0,0.0,-0.024640066984035276,-0.04496239563494296,-0.04006355532971507,0.16028813074670684,0.03800530189808126,-0.025022529380031376
1525,3.0,300.24941,694.20355,0.0,0.0,0.0,0.015465244100198328,0.0,0.0,-0.06185966537032365,-0.053176025887065145,-0.0959848546932176,0.15196456488523485,0.042268140314290666,-0.013020759264298886
1526,3.0,300.52873999999997,477.26979000000006,0.0,0.0,0.0,0.01547538524387059,0.0,0.0,-0.06994352868213884,-0.06515175648847774,-0.009982813866702021,0.16916501222278685,0.011526369380814088,-0.014154567887697088
1527,3.0,300.1187,104.07646,0.0,0.0,0.0,0.015485526387542851,0.0,0.0,0.0089712060424641,-0.023511590082663278,-0.017096259896019483,0.17065419602725784,0.05104243528399615,0.003894251568407707
1528,3.0,299.93818999999996,297.57711,0.0,0.0,0.0,0.015495667531215111,0.0,0.0,-0.032889943218734674,-0.03525713660585847,-0.02230893111497008,0.16071882283421285,0.04427215649457166,-0.002444042226383188
1529,3.0,300.7107,750.90547,0.0,0.0,0.0,0.015505808674887373,0.0,0.0,-0.06999457723542693,-0.058637348680555736,-0.09962458888093141,0.13726474786697587,0.04929463155050136,0.024402421332081474
1530,3.0,300.39936,673.47425,0.0,0.0,0.0,0.015515949818559633,0.0,0.0,-0.06153665238419474,-0.07142885403022903,-0.07175384994680364,0.1064567671189649,0.035528441412884165,-0.007656892993251502
1531,3.0,300.1001,509.03607999999997,0.0,0.0,0.0,0.015526090962231894,0.0,0.0,-0.034897225104087964,-0.06064893282583364,-0.059188099759160645,0.14573005728493685,0.04045070096767336,0.016911266772262085
1532,3.0,299.51286,343.54963,0.0,0.0,0.0,0.015536232105904156,0.0,0.0,-0.03952540401610366,-0.056484424252328656,-0.008420681121281522,0.15355943067513586,0.043491694525546055,-0.02023216053775878
1533,3.0,299.97905,407.67904,0.0,0.0,0.0,0.015546373249576416,0.0,0.0,-0.03897868668614686,-0.05352807659455986,-0.03141748513366437,0.19244313631015883,0.04208620720583526,0.0078019161363391725
1534,3.0,300.57736,792.3353599999999,0.0,0.0,0.0,0.015556514393248677,0.0,0.0,-0.09936525157083681,-0.06700782802165774,-0.07447708523356603,0.15655522618579784,0.012548652605455589,-0.03379863705416577
1535,3.0,299.65544,647.49744,0.0,0.0,0.0,0.015566655536920939,0.0,0.0,-0.06762003879832824,-0.05537818616415145,-0.07382482777319323,0.16015554697112186,0.022211622628366477,0.011146590071082789
1536,3.0,299.98573999999996,89.770514,0.0,0.0,0.0,0.0155767966805932,0.0,0.0,-0.0053766125520053444,-0.020290798334295878,-0.0016205833946641285,0.15755268984923984,0.029010454805608973,-0.034777277570500066
1537,3.0,300.6369,313.65473,0.0,0.0,0.0,0.015586937824265462,0.0,0.0,-0.03083504263168177,-0.03439172070869857,-0.03011644363426157,0.16280601671520284,0.03983790757219536,0.006039705303647504
1538,3.0,299.78852,734.15751,0.0,0.0,0.0,0.015597078967937722,0.0,0.0,-0.11631238739663889,-0.04899342066677415,-0.05785974509006224,0.12489151519833289,0.02018674869477698,-0.00022709048380708575
1539,3.0,299.25426,751.6406400000001,0.0,0.0,0.0,0.015607220111609985,0.0,0.0,-0.06386471303920645,-0.07360012436476672,-0.09101514868924582,0.14211037329020185,0.028183173589212674,0.0026515330487359373
1540,3.0,300.38428,439.09483,0.0,0.0,0.0,0.015617361255282246,0.0,0.0,-0.034007437502272767,-0.05992399797553814,-0.03954242965753396,0.12757280801045587,0.04721638770764466,-0.006310670165264654
1541,3.0,298.69952,251.68475,0.0,0.0,0.0,0.015627502398954506,0.0,0.0,0.004548674952194266,-0.03158935970837707,-0.04946519396633455,0.16448006800041884,0.025755761735395774,-0.004251655478830726
1542,3.0,299.06428,421.67803,0.0,0.0,0.0,0.015637643542626766,0.0,0.0,-0.02022762624356128,-0.051147138469829545,-0.05680482811945004,0.15370945248494186,0.026234827395925878,0.005446867868889005
1543,3.0,300.3456,573.7057,0.0,0.0,0.0,0.01564778468629903,0.0,0.0,-0.04634279082917736,-0.047219858089237156,-0.08082955845025633,0.14993302883223786,0.03650699174995957,-0.006421559952233624
1544,3.0,299.80429,497.27598,0.0,0.0,0.0,0.01565792582997129,0.0,0.0,-0.04907602892092695,-0.06494919259473624,-0.037134259423116066,0.16278932848605585,0.05872176761263724,0.0037818297472875365
1545,3.0,300.69524,264.89218,0.0,0.0,0.0,0.01566806697364355,0.0,0.0,-0.036671475678442866,-0.029335390940427676,-0.014513741743394787,0.15417447348583585,0.051625968043086355,-0.008241307279928702
1546,3.0,300.95504,279.58226,0.0,0.0,0.0,0.01567820811731581,0.0,0.0,-0.02650294249163677,-0.037461507794662965,-0.02102157457141788,0.15799830711071883,0.03176884683109107,-0.0076283533856348635
1547,3.0,300.21742,751.21815,0.0,0.0,0.0,0.015688349260988076,0.0,0.0,-0.0966123351488951,-0.07091121393839193,-0.06082801059550724,0.16210995442650683,0.02103884744587258,0.005692163964397845
1548,3.0,300.39466,1013.4507,0.0,0.0,0.0,0.015698490404660335,0.0,0.0,-0.09404092627036682,-0.08794648631089241,-0.12607628827526088,0.14804208123061585,0.027239630029842175,0.007284127096737374
1549,3.0,300.11397,438.73778,0.0,0.0,0.0,0.0157086315483326,0.0,0.0,-0.04596446958633996,-0.04505401573548516,-0.04234684350255806,0.15998906997969184,0.026773076994796974,0.0005677589476284455
1550,3.0,298.40812999999997,200.23547,0.0,0.0,0.0,0.01571877269200486,0.0,0.0,0.0011664827980478888,-0.00979098677632016,-0.052242079832641855,0.15233068254386786,0.03677311175622357,0.00928305230321593
1551,3.0,299.05348,593.65766,0.0,0.0,0.0,0.01572891383567712,0.0,0.0,-0.06471403143202764,-0.04833457606750125,-0.06740849852195084,0.13931356996667885,0.027322816849802076,0.007412859002067223
1552,3.0,298.91401,677.92267,0.0,0.0,0.0,0.01573905497934938,0.0,0.0,-0.05490972720566815,-0.06009196343136504,-0.0910698723006466,0.1318897904590089,0.06252747216673103,0.0052877086710062145
1553,3.0,299.2865,420.29213,0.0,0.0,0.0,0.01574919612302164,0.0,0.0,-0.028454304117221177,-0.048116787077757156,-0.05118722264378554,0.12502976304197688,0.06323945768074854,-0.0038062651853741263
1554,3.0,299.54691,331.64417000000003,0.0,0.0,0.0,0.0157593372666939,0.0,0.0,-0.018869103065985483,-0.03566983742458887,-0.04627260502125055,0.13312130476304987,0.04335844808439566,-0.01010241446345568
1555,3.0,300.30969,392.1198,0.0,0.0,0.0,0.015769478410366165,0.0,0.0,-0.042149385376070464,-0.047126946094817455,-0.029918297510956076,0.15969589619575786,0.03128765435860107,-0.021507155430090977
1556,3.0,300.06536,503.10337000000004,0.0,0.0,0.0,0.015779619554038424,0.0,0.0,-0.06140351334755494,-0.06455993433031944,-0.026967413297726475,0.16307021154627685,0.04999343062771745,-0.02565061069301818
1557,3.0,301.21611,651.74595,0.0,0.0,0.0,0.015789760697710684,0.0,0.0,-0.07616680541832843,-0.05972569682496735,-0.062221993473582635,0.16500514433473984,0.030343353901405867,-0.025883568036759272
1558,3.0,299.73636,278.5392,0.0,0.0,0.0,0.015799901841382944,0.0,0.0,-0.029133764303028675,-0.020183494135455782,-0.03535170526419167,0.13482902634908886,0.02003298799210198,0.0036125171754526867
1559,3.0,299.36383,97.9609,0.0,0.0,0.0,0.015810042985055207,0.0,0.0,0.010225503173678591,-0.029461977288670768,-0.01054119340133479,0.15948890946532984,0.012205652247854089,-0.017107269871606084
1560,3.0,299.72682000000003,682.3230599999999,0.0,0.0,0.0,0.015820184128727467,0.0,0.0,-0.06427557480900534,-0.05198315592858805,-0.09115044290884831,0.14608606270757185,0.04809001397036486,0.0034115190570907167
1561,3.0,299.82537,858.3925,0.0,0.0,0.0,0.015830325272399727,0.0,0.0,-0.08963568771160361,-0.06996957630245952,-0.10132462192521159,0.16576656125488584,0.053498032715844746,-0.00041608851911473953
1562,3.0,297.86145,286.49397999999997,0.0,0.0,0.0,0.015840466416071994,0.0,0.0,-0.00956113777991083,-0.041188329815221664,-0.036337546948986665,0.13115816309180287,0.05379622006127354,-0.0013925373754827385
1563,3.0,299.70034,291.20588,0.0,0.0,0.0,0.015850607559744254,0.0,0.0,-0.03263120271294897,-0.020698787540061284,-0.03518932585616607,0.15325559750014986,0.02226510703489498,0.00022398810451840478
1564,3.0,299.85217,683.935,0.0,0.0,0.0,0.015860748703416517,0.0,0.0,-0.08762565991847932,-0.05391981934822185,-0.06635368186309853,0.1372407338396059,0.03743453203725067,0.007102411735728464
1565,3.0,300.26723,648.2640299999999,0.0,0.0,0.0,0.015870889847088777,0.0,0.0,-0.07413403218695933,-0.06555440586621614,-0.05736763890074515,0.17773806052388083,0.04533002303622496,-0.0004586584387460636
1566,3.0,300.28063,494.62805999999995,0.0,0.0,0.0,0.015881030990761037,0.0,0.0,-0.04788431102781355,-0.04911868573688686,-0.05335158159939115,0.14230330624174287,0.05434623248055555,-0.020443781874144182
1567,3.0,299.06675,401.3898,0.0,0.0,0.0,0.0158911721344333,0.0,0.0,-0.04870104127091855,-0.051629665392701245,-0.021681769833074082,0.18066023328227682,0.03393148427477677,-0.004489840179837726
1568,3.0,299.44031,269.00397000000004,0.0,0.0,0.0,0.01590131327810556,0.0,0.0,-0.03505908876781267,-0.034317203256594264,-0.012394197826462089,0.16183987261235186,0.05674475049452085,-0.027500998906387273
1569,3.0,301.3218,384.71324,0.0,0.0,0.0,0.01591145442177782,0.0,0.0,-0.06339121113497545,-0.03589411425472326,-0.017657892267448284,0.18363105217797382,0.03785790237953407,0.01008644979620509
1570,3.0,301.03895,531.16113,0.0,0.0,0.0,0.01592159556545008,0.0,0.0,-0.05301641163856245,-0.045390010481895254,-0.06305329729287594,0.13324122291238485,0.015276232708646786,-0.002191911860274858
1571,3.0,299.77531,371.27582,0.0,0.0,0.0,0.015931736709122343,0.0,0.0,-0.015973735838984985,-0.04598016584363906,-0.05090467684015045,0.13424046989600288,-0.001270325937196409,0.002791634329462857
1572,3.0,300.78037,308.69431000000003,0.0,0.0,0.0,0.015941877852794602,0.0,0.0,-0.011262048906727688,-0.04856440145518325,-0.03400891279441837,0.14549148754889188,0.03647108925916626,-0.008852657604614282
1573,3.0,299.90159,752.6457,0.0,0.0,0.0,0.015952018996466862,0.0,0.0,-0.06860710448924402,-0.08769076529040473,-0.07248762844397193,0.18240890030485682,0.05498474317682166,-0.005520808680361394
1574,3.0,299.71469,878.4157,0.0,0.0,0.0,0.01596216014013913,0.0,0.0,-0.07741321956508991,-0.0860455146260311,-0.1035577065953499,0.13499037629501287,0.05198683706620135,-0.004068154365845576
1575,3.0,299.42912,560.74852,0.0,0.0,0.0,0.015972301283811385,0.0,0.0,-0.05586294831674375,-0.08235549587560463,-0.032235105010357167,0.16374588724296085,0.008443507011584262,-0.012176411876468288
1576,3.0,299.40778,272.64031,0.0,0.0,0.0,0.015982442427483645,0.0,0.0,-0.014887327055264786,-0.03756649671702456,-0.030422020612669676,0.14422389140878986,0.04364905935882676,0.007528186621824174
1577,3.0,299.45241,306.69795,0.0,0.0,0.0,0.015992583571155912,0.0,0.0,-0.026075221253423975,-0.021979843694491682,-0.04517345461752286,0.19104496262966983,0.03128507462384647,0.017024668710203982
1578,3.0,300.84177999999997,341.59577,0.0,0.0,0.0,0.016002724714828172,0.0,0.0,-0.02934042071392407,-0.04304059051477555,-0.03145557320492337,0.18419969826659482,0.029066480443388273,0.0020975064365327677
1579,3.0,300.92576,450.87789000000004,0.0,0.0,0.0,0.016012865858500435,0.0,0.0,-0.050271054062366746,-0.033597120861027674,-0.05318744420244204,0.14768741329811286,0.025600788172351077,-0.008162241550775523
1580,3.0,300.7678,646.94268,0.0,0.0,0.0,0.016023007002172695,0.0,0.0,-0.07076596251005673,-0.06450306060220644,-0.061385399475517244,0.14738619430838487,0.03584911987078267,0.004950666223992715
1581,3.0,300.35129,416.39673,0.0,0.0,0.0,0.016033148145844955,0.0,0.0,-0.07106053559237883,-0.03110205835103417,-0.024411615563488878,0.15573417949726684,0.04280938710695756,0.006275885491981674
1582,3.0,300.09987,567.50968,0.0,0.0,0.0,0.016043289289517215,0.0,0.0,-0.03390481958514517,-0.057178284748557344,-0.08142566766958773,0.16256179304359983,0.05404561840113725,0.02377083822674908
1583,3.0,300.33395,873.0110900000001,0.0,0.0,0.0,0.016053430433189478,0.0,0.0,-0.08014182811713262,-0.08054863182028102,-0.1046831133489189,0.15330690848521386,0.005293283167756375,0.0025093021189488375
1584,3.0,300.38563999999997,691.95296,0.0,0.0,0.0,0.016063571576861738,0.0,0.0,-0.055793374511877346,-0.06954342965490214,-0.08499961659455901,0.14171133513581988,0.03832437840757166,0.004008839312941636
1585,3.0,300.02348,268.25482,0.0,0.0,0.0,0.016073712720533997,0.0,0.0,-0.02326077927216018,-0.048752675482764456,-0.009529311087644782,0.16609786364008283,0.04289705451885966,-0.016344689740345284
1586,3.0,300.13422,280.92774,0.0,0.0,0.0,0.016083853864206257,0.0,0.0,-0.025778071476097578,-0.03897540476907296,-0.02064154093591148,0.17598246287061683,0.04996344146450775,0.004566350086938666
1587,3.0,299.72305,358.98548999999997,0.0,0.0,0.0,0.01609399500787852,0.0,0.0,-0.025239592882703873,-0.048790132299211156,-0.03509290092364967,0.15263628890652886,0.04028041719561767,-0.00017386732355186883
1588,3.0,299.69437,369.48599,0.0,0.0,0.0,0.01610413615155078,0.0,0.0,-0.00979412633175501,-0.044122378878039756,-0.05839800988768485,0.15287153518224586,0.04933123926336425,0.010016740621125331
1589,3.0,299.71653,442.22108,0.0,0.0,0.0,0.016114277295223047,0.0,0.0,-0.026186344391890975,-0.06555026369980733,-0.04268755796793396,0.15184128274556785,0.047961856071216655,-0.03095386343115847
1590,3.0,298.83995,420.5017,0.0,0.0,0.0,0.016124418438895304,0.0,0.0,-0.03752117302680147,-0.041478177099077355,-0.04882266573342195,0.1871871141989298,0.03422729858847137,-0.00918631143931835
1591,3.0,299.91832,575.22635,0.0,0.0,0.0,0.016134559582567563,0.0,0.0,-0.04502852438946936,-0.08919858985696541,-0.04062733275160556,0.16619710135487684,0.017102085070844382,-0.039429117898850966
1592,3.0,300.70805,925.81984,0.0,0.0,0.0,0.01614470072623983,0.0,0.0,-0.12440480051279788,-0.08091544558173272,-0.07610586450431403,0.14253214877682788,0.011834826016006387,0.016213712979418884
1593,3.0,300.11034,842.25235,0.0,0.0,0.0,0.01615484186991209,0.0,0.0,-0.1066852550165149,-0.05943001220728554,-0.08990841410851962,0.1343259983369439,0.04924462360506595,0.005499383608321905
1594,3.0,300.1683,348.56876,0.0,0.0,0.0,0.016164983013584353,0.0,0.0,-0.030992366934958472,-0.03212360088985257,-0.042840230440001556,0.14051244748499886,0.07316339938616534,0.025463895044090776
1595,3.0,300.38988,99.16887,0.0,0.0,0.0,0.016175124157256613,0.0,0.0,0.01005817636938972,-0.012237043749202188,-0.027965992549528574,0.16269591695933686,0.049391246974036546,0.013974378582663788
1596,3.0,300.68824,503.51275999999996,0.0,0.0,0.0,0.016185265300928873,0.0,0.0,-0.06195816949204524,-0.06051184718005435,-0.03058528864103297,0.15904319087884083,0.03934102593515696,0.006838097138492644
1597,3.0,299.86606,680.06322,0.0,0.0,0.0,0.016195406444601133,0.0,0.0,-0.1017376155732209,-0.06088244036437904,-0.044102180750546366,0.16446254890618983,0.06404962814270614,-0.005969214406115594
1598,3.0,298.90285,297.3422,0.0,0.0,0.0,0.016205547588273393,0.0,0.0,-0.06753713467514623,-0.017403806632621983,-0.005443662654847675,0.16745471698149383,0.05358193894337565,-0.011282273378723688
1599,3.0,299.59848,257.48332999999997,0.0,0.0,0.0,0.016215688731945656,0.0,0.0,0.00031531599386426567,-0.02810353314460277,-0.05048028615501636,0.16053521178359187,0.03174892633412507,0.007356883824142903
1600,3.0,300.80515,439.00494000000003,0.0,0.0,0.0,0.016225829875617916,0.0,0.0,-0.011764306848796688,-0.035171236302130766,-0.08651099665572061,0.15591731432034087,0.029574466288272577,-0.012207888490824789
1601,3.0,300.93016,771.62342,0.0,0.0,0.0,0.016235971019290175,0.0,0.0,-0.054449579937755156,-0.08174110661121912,-0.09836356670747821,0.14359845265206386,0.05451794797500255,-0.015968419315710285
1602,3.0,301.38752,810.87167,0.0,0.0,0.0,0.01624611216296244,0.0,0.0,-0.08641160087391102,-0.08230712736883102,-0.07776601095840772,0.14319707388995087,0.03867021890520347,-0.03606350130044047
1603,3.0,301.67437,332.38433,0.0,0.0,0.0,0.0162562533066347,0.0,0.0,-0.05855131260131465,-0.02968799589572707,-0.012797230212738289,0.14447359676343385,0.04060067616797476,-0.0015136315028837985
1604,3.0,300.85854,83.161026,0.0,0.0,0.0,0.016266394450306965,0.0,0.0,-0.037401334924224365,-0.015604659490059986,0.027727118838453572,0.17028009395783683,0.037131749602618364,-0.0028896121690825173
1605,3.0,300.02682999999996,461.72603,0.0,0.0,0.0,0.01627653559397922,0.0,0.0,-0.025350808226929974,-0.05621136246962954,-0.05879101211122115,0.17293986533783584,0.06772346326253544,0.0014392197327649284
1606,3.0,299.21376000000004,682.35297,0.0,0.0,0.0,0.01628667673765148,0.0,0.0,-0.060914291881272536,-0.06507143817955094,-0.08143253446551542,0.16105809949769687,0.036193979542317664,0.005224990921616455
1607,3.0,299.1826,481.13802999999996,0.0,0.0,0.0,0.016296817881323748,0.0,0.0,-0.006090039515615104,-0.07809722924384642,-0.06206667945850434,0.13893144295646587,0.03542381827380867,-0.017431413644846582
1608,3.0,299.85786,465.67970999999994,0.0,0.0,0.0,0.016306959024996008,0.0,0.0,-0.04982029151687996,-0.05973919128979915,-0.03199552101096207,0.16484945845687485,0.007324101333057523,0.00016758832413967984
1609,3.0,299.75017,648.9816400000001,0.0,0.0,0.0,0.016317100168668268,0.0,0.0,-0.06609336271365704,-0.07326692112238213,-0.05791392965240985,0.17978516009841383,0.04217272761862416,-0.013155759641372385
1610,3.0,300.65039,708.03124,0.0,0.0,0.0,0.016327241312340528,0.0,0.0,-0.0918715243690135,-0.05883614125742504,-0.06451615078024835,0.18410028829928382,0.02119080760311988,0.034499297471815564
1611,3.0,300.68498999999997,640.0609900000001,0.0,0.0,0.0,0.01633738245601279,0.0,0.0,-0.045025754163695954,-0.03909425089980216,-0.11044255863983188,0.14434958508369486,0.016840335212261682,0.01063225925407229
1612,3.0,301.0172,605.71812,0.0,0.0,0.0,0.01634752359968505,0.0,0.0,-0.06146002737188245,-0.04974973485941655,-0.07291342146724443,0.15929810433899882,0.00901208602304864,0.029141732501815072
1613,3.0,300.34422,459.08464000000004,0.0,0.0,0.0,0.01635766474335731,0.0,0.0,-0.04356646832992566,-0.05225203298837415,-0.04373176691148936,0.17238019664510082,0.06988817381592573,-0.002395841919126188
1614,3.0,300.93119,376.84789,0.0,0.0,0.0,0.016367805887029574,0.0,0.0,-0.05723047928770854,-0.05333323569308054,-0.003988635207272647,0.17871059823486282,0.06271607144759435,-0.013786675014888885
1615,3.0,301.49164,542.16277,0.0,0.0,0.0,0.016377947030701834,0.0,0.0,-0.07661789321709733,-0.05871849278831404,-0.029467557256971474,0.14569135113111686,0.039989819093437864,-0.00010143415730077189
1616,3.0,302.08695,536.4414,0.0,0.0,0.0,0.016388088174374094,0.0,0.0,-0.06861603831537574,-0.04516931954386476,-0.049279432799001356,0.16508935555055085,0.031648112002175474,0.0027246322546752677
1617,3.0,300.22438999999997,340.47846,0.0,0.0,0.0,0.016398229318046357,0.0,0.0,0.0012949175171234088,-0.05901245792057615,-0.04577940857482586,0.15159932875418886,0.06667537154459684,-0.02130860603324568
1618,3.0,300.36977,496.1643,0.0,0.0,0.0,0.016408370461718617,0.0,0.0,-0.012355049895598488,-0.06658800000172393,-0.07187850909335652,0.1788460191107278,0.04021696139485506,-0.028212592292616075
1619,3.0,300.69431000000003,500.94662999999997,0.0,0.0,0.0,0.016418511605390883,0.0,0.0,-0.025057557435988375,-0.07097756662119044,-0.056240141812219854,0.13421620255610786,0.03917457427497946,-0.007395324202461673
1620,3.0,300.67012,570.5058,0.0,0.0,0.0,0.016428652749063143,0.0,0.0,-0.05094383186376475,-0.0965121348465061,-0.025963549946652877,0.18013367760280982,0.016087894674751586,-0.02898667990526257
1621,3.0,300.20416,519.32867,0.0,0.0,0.0,0.0164387938927354,0.0,0.0,-0.061183322955073845,-0.043024709845958256,-0.05365491625532794,0.17235116702973585,0.054766534701536154,0.006631968630899343
1622,3.0,298.61499,238.18161,0.0,0.0,0.0,0.016448935036407666,0.0,0.0,-0.008740553944025512,-0.03775765952064086,-0.025903047769931773,0.19171027277783081,0.02875579465797597,0.006522381072958894
1623,3.0,299.08072999999996,131.00777,0.0,0.0,0.0,0.016459076180079926,0.0,0.0,0.012313237116971888,-0.01261995704149279,-0.03951636987821206,0.16300399565224186,0.02129933580808078,-0.0020150529056702383
1624,3.0,300.19195,596.98902,0.0,0.0,0.0,0.016469217323752186,0.0,0.0,-0.06346298369255884,-0.05501234309629554,-0.06299442948856615,0.15753306319480284,0.003736372713351277,0.006567480226959833
1625,3.0,300.44571,746.67744,0.0,0.0,0.0,0.016479358467424446,0.0,0.0,-0.09465067383604421,-0.06596551790878973,-0.06635510446623895,0.13972236571952384,0.06734823040600284,-0.020570477653398082
1626,3.0,299.90814,393.93158999999997,0.0,0.0,0.0,0.016489499611096706,0.0,0.0,-0.06831602408001664,-0.047369070312213254,-0.004060273205242767,0.15904383935890484,0.06556158271667444,-0.010586093553016089
1627,3.0,300.69865,276.66298,0.0,0.0,0.0,0.01649964075476897,0.0,0.0,-0.03836946195752106,-0.02556131802795568,-0.020167857659912584,0.15567016235594885,0.06446429567988064,-0.02105902429511388
1628,3.0,300.88104,634.12546,0.0,0.0,0.0,0.01650978189844123,0.0,0.0,-0.059747408748110145,-0.06278172093482344,-0.07022917604433003,0.17101077900244982,0.03298730034134307,0.02199915117514718
1629,3.0,300.76899,755.22578,0.0,0.0,0.0,0.016519923042113492,0.0,0.0,-0.055304347589614146,-0.05669707505081564,-0.1175683615580939,0.18401669516603383,0.06332884052506993,0.03016411705146657
1630,3.0,299.10256,438.27352,0.0,0.0,0.0,0.016530064185785752,0.0,0.0,-0.03657401621757436,-0.04785988156790255,-0.04879030860472855,0.15556795581836186,0.027140777350086177,0.013201760182662288
1631,3.0,298.48741,379.39939,0.0,0.0,0.0,0.016540205329458012,0.0,0.0,-0.016821910272443282,-0.03273519662371237,-0.06577083507432603,0.13044435879385588,0.015571243515012085,0.016028913386430584
1632,3.0,299.41913999999997,441.94665,0.0,0.0,0.0,0.016550346473130275,0.0,0.0,-0.0942300423087811,-0.025058370062568575,-0.015052333820799686,0.15946171383264585,0.01074600367054799,-0.004570699361667906
1633,3.0,299.58892000000003,619.35646,0.0,0.0,0.0,0.016560487616802535,0.0,0.0,-0.05768375469344335,-0.07381059768878882,-0.056774547140211545,0.15341121245050784,0.05681889101758794,-0.007096709164165663
1634,3.0,299.92305,703.42264,0.0,0.0,0.0,0.0165706287604748,0.0,0.0,-0.07089430279422293,-0.06239993538989414,-0.08052867889931183,0.15708074835016286,0.036503047167320266,-0.02689582109866087
1635,3.0,299.69205,468.03809,0.0,0.0,0.0,0.01658076990414706,0.0,0.0,-0.02171764901911508,-0.05343932095205035,-0.06711492045122694,0.15566616001805386,0.02051273253019908,0.007453381609341493
1636,3.0,299.71207999999996,109.05558,0.0,0.0,0.0,0.016590911047819318,0.0,0.0,0.0017326341635976784,-0.04054219542520316,0.005659388667388175,0.17580129375273684,0.052072316871137544,-0.052266200251272356
1637,3.0,300.03664,376.07337,0.0,0.0,0.0,0.01660105219149158,0.0,0.0,-0.013779267143407787,-0.04338263436428266,-0.057155011407010445,0.17903546648192484,0.08463343104816932,-0.006423278525728234
1638,3.0,300.69534,670.80542,0.0,0.0,0.0,0.01661119333516384,0.0,0.0,-0.09834397045054422,-0.09171507551382323,-0.013849053730795187,0.17296935091574583,0.06359330994692103,-0.01241813079382409
1639,3.0,300.49195,385.25853,0.0,0.0,0.0,0.016621334478836104,0.0,0.0,-0.005252024434284455,-0.03632342629559306,-0.07553352309257833,0.12856897471376988,0.048233915749566855,0.0023382049097128575
1640,3.0,300.68744,215.57302,0.0,0.0,0.0,0.016631475622508364,0.0,0.0,0.009620339146153551,-0.027382019026644874,-0.047767135746499254,0.15281935280209585,0.02229919884775958,0.007616647509879582
1641,3.0,300.1987,510.06923,0.0,0.0,0.0,0.016641616766180624,0.0,0.0,-0.02961974032924077,-0.04947403963970755,-0.07595453053562852,0.16901170748265684,0.022143764255919376,0.03703486769430687
1642,3.0,300.1219,749.57301,0.0,0.0,0.0,0.016651757909852887,0.0,0.0,-0.08258868322711842,-0.06924465259791514,-0.07601814339015663,0.15469563867477085,0.019384316423833082,0.006601403232357774
1643,3.0,299.76157,708.3906099999999,0.0,0.0,0.0,0.016661899053525147,0.0,0.0,-0.09243712969408441,-0.059147150269619246,-0.06374877696276443,0.13314566329545388,0.03386453580091947,-0.000964092940143565
1644,3.0,298.86523,576.88985,0.0,0.0,0.0,0.01667204019719741,0.0,0.0,-0.11221070032933388,-0.046665236395250255,-0.016484175775611485,0.16038954694921584,0.03937469420947976,-0.013747494660022086
1645,3.0,299.66552,433.5205,0.0,0.0,0.0,0.01668218134086967,0.0,0.0,-0.05146265036546815,-0.03124669068355827,-0.04907006391758825,0.17233324263546684,0.06614509217101233,-0.016813824536645282
1646,3.0,299.40441,410.04211000000004,0.0,0.0,0.0,0.01669232248454193,0.0,0.0,-0.037655361790544864,-0.04545919823847355,-0.04152800265949476,0.17302236416097783,0.05706911718278335,-0.007003896772230793
1647,3.0,299.9028,708.88135,0.0,0.0,0.0,0.016702463628214193,0.0,0.0,-0.05748571090839794,-0.06252396936113534,-0.095472549363157,0.13478055246430487,0.01793134415143588,0.022704573868266978
1648,3.0,300.25486,549.1958900000001,0.0,0.0,0.0,0.016712604771886453,0.0,0.0,-0.05275012039303155,-0.04123887478321006,-0.07295284094913483,0.14391412058821787,0.02946036318126147,0.005103684518319445
1649,3.0,300.55644,253.49405,0.0,0.0,0.0,0.016722745915558716,0.0,0.0,-0.01045051055713509,-0.047389746693753856,-0.01921560521593258,0.16374520836539383,0.05103056708557485,-0.01681879655488598
1650,3.0,300.98631,378.99368,0.0,0.0,0.0,0.01673288705923098,0.0,0.0,-0.05744794302417054,-0.029356271998488476,-0.028400401238401374,0.16607930089825085,0.04516231089292305,0.006683059538041624
1651,3.0,300.78389,652.49723,0.0,0.0,0.0,0.016743028202903236,0.0,0.0,-0.03532088726240017,-0.07408932353954693,-0.08893265426221961,0.15579404231317487,0.027281567438231073,-0.009190655141172042
1652,3.0,299.31633,423.78807,0.0,0.0,0.0,0.0167531693465755,0.0,0.0,-0.00979380644869844,-0.05615054719862754,-0.06287663612469084,0.15854781290495085,0.036365119510707866,0.0007490660904370673
1653,3.0,299.53937,296.85712,0.0,0.0,0.0,0.01676331049024776,0.0,0.0,-0.0003066469705136997,-0.03491460842280356,-0.05501589656439624,0.1826685253779798,0.04641331607588766,-0.012746166460698687
1654,3.0,299.36664,452.11,0.0,0.0,0.0,0.016773451633920022,0.0,0.0,-0.04695342802844255,-0.06732642931685123,-0.02315029346800608,0.17010808462086083,0.04183920317595786,-0.0010085554387091722
1655,3.0,299.21087,429.24722,0.0,0.0,0.0,0.016783592777592282,0.0,0.0,-0.06984005558192684,-0.042055206819025755,-0.018585175189213984,0.14571612509606185,0.019166317691318283,-0.026461247250021774
1656,3.0,300.24233,619.31465,0.0,0.0,0.0,0.016793733921264542,0.0,0.0,-0.09427486444020472,-0.06421100848613315,-0.02977031537360137,0.13845301665674886,0.03822172705319076,-0.003837100615067346
1657,3.0,300.03072000000003,723.0905799999999,0.0,0.0,0.0,0.016803875064936805,0.0,0.0,-0.060768764848910146,-0.06681594277072013,-0.0922167731285869,0.18050327070928582,0.04525567884988776,-0.013182882320049187
1658,3.0,300.82675,455.94287,0.0,0.0,0.0,0.016814016208609065,0.0,0.0,-0.03348531681849347,-0.04981347437020715,-0.05529645741108545,0.18755765976049982,0.057359129626405346,0.013341305999684387
1659,3.0,299.91657999999995,135.92411,0.0,0.0,0.0,0.01682415735228133,0.0,0.0,0.03682671471301376,-0.025649619734420374,-0.052494631406816754,0.18966996197896782,0.037029653509292264,-0.004617055553742905
1660,3.0,298.41517999999996,465.91667,0.0,0.0,0.0,0.016834298495953588,0.0,0.0,-0.04767209997986995,-0.04833410591945486,-0.04562082682817505,0.14706870252205084,0.053216837574592946,0.0053009274304858045
1661,3.0,298.51614,509.26122999999995,0.0,0.0,0.0,0.016844439639625848,0.0,0.0,-0.07990019735253552,-0.060704318089549736,-0.014198183238251588,0.16861834352883484,0.047826253823583756,-0.02724986588235237
1662,3.0,299.79488,136.28478,0.0,0.0,0.0,0.01685458078329811,0.0,0.0,-0.04891834288736455,-0.013564569579718787,0.021055741364789878,0.14174658610679888,0.06378402489399314,-0.022953051163789776
1663,3.0,300.44369,226.36787999999999,0.0,0.0,0.0,0.01686472192697037,0.0,0.0,0.014623442278721385,-0.03139979176041817,-0.05203383363233955,0.15797164850058784,0.027926036045085173,-0.003042104687932357
1664,3.0,300.11592,497.66938,0.0,0.0,0.0,0.016874863070642634,0.0,0.0,-0.02427978361947808,-0.04827979470084475,-0.07871948639525843,0.13630319378707786,0.02961209333073607,0.004869557579987915
1665,3.0,299.42161,629.83874,0.0,0.0,0.0,0.016885004214314894,0.0,0.0,-0.029822681152019474,-0.06615937190467164,-0.09547319480347072,0.18898101270597384,0.03025372787706047,0.0008589573599624911
1666,3.0,300.03774,692.5509,0.0,0.0,0.0,0.016895145357987154,0.0,0.0,-0.10892808411286489,-0.05634749262056454,-0.045242602857347256,0.17214531513941983,0.034904040224260566,-0.0067473657596131545
1667,3.0,300.65651,522.75129,0.0,0.0,0.0,0.016905286501659417,0.0,0.0,-0.08949378406159882,-0.04236730811482776,-0.027042246883861972,0.2061098941889628,0.00925726914117133,0.0054680536112548745
1668,3.0,299.89504,264.23907,0.0,0.0,0.0,0.016915427645331677,0.0,0.0,-0.03997480374020596,-0.02901908972296117,-0.011328185767254889,0.17560695238355684,0.04746287903297145,-0.02168586640322838
1669,3.0,299.82927,545.49306,0.0,0.0,0.0,0.01692556878900394,0.0,0.0,-0.002033380674804048,-0.07562775433862823,-0.08815513274498422,0.19431345413974482,0.040636138908224664,0.006904927264738263
1670,3.0,299.00882,723.3491,0.0,0.0,0.0,0.0169357099326762,0.0,0.0,-0.04758265634054255,-0.07129108545388234,-0.10100632156529782,0.15507773528748087,0.06068196883209404,-0.007362851867231904
1671,3.0,299.65807,365.87029,0.0,0.0,0.0,0.01694585107634846,0.0,0.0,0.009384308716184162,-0.05249147918575565,-0.06810826322651224,0.15636534311705785,0.03308272215626047,0.0028267793144813973
1672,3.0,300.00027,168.89578999999998,0.0,0.0,0.0,0.016955992220020723,0.0,0.0,-0.03850753045589736,-0.03191615313062907,0.01908357974115268,0.13291503744019287,0.03697563917296147,-0.018194174134625183
1673,3.0,299.66128,596.4590400000001,0.0,0.0,0.0,0.016966133363692983,0.0,0.0,-0.07492276025030073,-0.07002128042856233,-0.03636461187240777,0.15943731477023784,0.023782289979379274,-0.012393719572414887
1674,3.0,300.82151,807.28857,0.0,0.0,0.0,0.016976274507365247,0.0,0.0,-0.1079306812444289,-0.07682974962750592,-0.060635140465472435,0.16223748208409286,0.04684247916899275,-0.016883456096767384
1675,3.0,300.30899,491.42397,0.0,0.0,0.0,0.016986415651037506,0.0,0.0,-0.010664081386712888,-0.05410595237834175,-0.08461058327166443,0.18114945069555882,0.032805610412911676,0.012250015376982388
1676,3.0,300.01612,348.2032,0.0,0.0,0.0,0.016996556794709766,0.0,0.0,-0.012550254553863688,-0.026444627921881573,-0.06685019569035064,0.16590030013558485,0.04559939760181016,0.02177239289551788
1677,3.0,300.3434,414.41057,0.0,0.0,0.0,0.01700669793838203,0.0,0.0,-0.004070333056210596,-0.05572666516504365,-0.06617346722681273,0.18061607584291883,0.04204926816018966,0.002375151453409198
1678,3.0,300.30686000000003,508.55630999999994,0.0,0.0,0.0,0.01701683908205429,0.0,0.0,-0.11236755144481388,-0.03167645767372297,-0.01054441553665279,0.16049439806956384,0.06197195577290584,0.010745107957459591
1679,3.0,299.09762,763.13023,0.0,0.0,0.0,0.017026980225726553,0.0,0.0,-0.1000694127675821,-0.07485677233753822,-0.05704634843978624,0.16899622502112885,0.029226030857134672,-0.01103803653486939
1680,3.0,299.39141,610.36112,0.0,0.0,0.0,0.017037121369398812,0.0,0.0,-0.07773643114823843,-0.06599502780470215,-0.04180308182314296,0.14687299326523587,0.04281151898516796,-0.012650492346506387
1681,3.0,299.86101,301.10868,0.0,0.0,0.0,0.017047262513071072,0.0,0.0,0.015647481465786185,-0.04882148023080495,-0.05835552025799145,0.17447326737667082,0.03997252595398117,-0.029960078878829576
1682,3.0,300.448,633.73582,0.0,0.0,0.0,0.017057403656743336,0.0,0.0,-0.030853411842744673,-0.0857072653981485,-0.07607918866893133,0.15567930187185083,0.04390618069095266,0.009296087765752432
1683,3.0,300.70079,841.9377599999999,0.0,0.0,0.0,0.017067544800415595,0.0,0.0,-0.07274828095269634,-0.07947681383800083,-0.10370296612968591,0.16173100902160786,0.019249591650786782,0.015175061712661985
1684,3.0,300.48921,379.20642999999995,0.0,0.0,0.0,0.01707768594408786,0.0,0.0,-0.07528970370776522,-0.03322330351488476,-0.006756278408817764,0.14591720457840684,0.03320551388287907,0.03808082956053526
1685,3.0,300.47772000000003,152.77251,0.0,0.0,0.0,0.01708782708776012,0.0,0.0,-0.02144362971507148,-0.024976257287714677,-1.9141715978890283e-05,0.16140219923165686,0.027993079764451874,-0.021981955307700078
1686,3.0,300.63312,578.78434,0.0,0.0,0.0,0.01709796823143238,0.0,0.0,-0.06178645501084835,-0.04944798796638645,-0.06470154616429544,0.15361899964851486,0.06139871358183124,-0.002191069849441758
1687,3.0,300.9181,668.092,0.0,0.0,0.0,0.01710810937510464,0.0,0.0,-0.044478592016945255,-0.06695991446417904,-0.0916447792616355,0.1822604085027018,0.036177520307693264,-0.015162102243882983
1688,3.0,300.23349,649.32006,0.0,0.0,0.0,0.0171182505187769,0.0,0.0,-0.03116623355936777,-0.07061126759078953,-0.09559958559444451,0.16746161721467484,0.05752977208899644,-0.014730875160324185
1689,3.0,299.4742,773.7356599999999,0.0,0.0,0.0,0.017128391662449165,0.0,0.0,-0.06982186470288154,-0.08444820183713862,-0.08092625392054942,0.18324942166030983,0.052297671799378345,-0.016579106164230386
1690,3.0,300.47078,521.08263,0.0,0.0,0.0,0.017138532806121425,0.0,0.0,-0.08942854696716042,-0.056739067174709945,-0.012228493944858386,0.18203762520321481,0.05520314518287625,0.009620889948907911
1691,3.0,300.23636,394.14397,0.0,0.0,0.0,0.017148673949793684,0.0,0.0,-0.049710963857590156,-0.054087464617017154,-0.016011497643711785,0.18485728744899382,0.040114540048246855,-0.004966273720583055
1692,3.0,300.77291,582.73125,0.0,0.0,0.0,0.017158815093465948,0.0,0.0,-0.047893809234250954,-0.060920596323394735,-0.06832134465629174,0.15721302815071783,0.045665032903537864,0.00964810898766922
1693,3.0,300.72135,508.78265999999996,0.0,0.0,0.0,0.017168956237138207,0.0,0.0,-0.03303386424968857,-0.06867112264381213,-0.05295223643022885,0.14026286372036686,0.03026107596678567,-0.000993402253066169
1694,3.0,299.95476,188.8832,0.0,0.0,0.0,0.01717909738081047,0.0,0.0,0.0026171775881953176,-0.023484399516229777,-0.036548553242561364,0.13155162837063486,0.06838792532036274,0.017458338739753883
1695,3.0,299.21479,272.52038,0.0,0.0,0.0,0.01718923852448273,0.0,0.0,-0.05077271216037655,-0.018834979842367785,-0.013231699696617088,0.15964672316840486,0.03946116497301376,0.001389299940088229
1696,3.0,299.18149,652.17264,0.0,0.0,0.0,0.01719937966815499,0.0,0.0,-0.1013902835714419,-0.05109694408637575,-0.04575696711161105,0.16606889481972384,0.04407246921786405,0.03448881337303086
1697,3.0,298.26462000000004,650.78357,0.0,0.0,0.0,0.017209520811827254,0.0,0.0,-0.07405903445430764,-0.056779403647940846,-0.06698351812525853,0.18968547483799883,0.05600368774238365,-0.02271001704780418
1698,3.0,298.98257,633.08741,0.0,0.0,0.0,0.017219661955499514,0.0,0.0,-0.052989090362866045,-0.07098721174889233,-0.06846646334886385,0.18561701224147284,0.03638706549462376,-0.006776059482570003
1699,3.0,299.64172,514.29547,0.0,0.0,0.0,0.017229803099171777,0.0,0.0,-0.031312599562812966,-0.03981001077044216,-0.08521036957560872,0.18850946637443583,0.02883553237459547,-0.020465329650770782
1700,3.0,300.15947,330.76331,0.0,0.0,0.0,0.017239944242844037,0.0,0.0,-0.011715855255514888,-0.03773568516572217,-0.05109224665891215,0.17486799921812782,0.05123509567126025,-0.006755733989539034
1701,3.0,301.60604,466.80782,0.0,0.0,0.0,0.017250085386516296,0.0,0.0,-0.05540677602897305,-0.06049674367406374,-0.025994403412197872,0.18630316494419083,0.046132100669633865,0.0021459792067416578
1702,3.0,301.36352,659.1298099999999,0.0,0.0,0.0,0.01726022653018856,0.0,0.0,-0.11234008223460289,-0.05449323784481386,-0.033525680649477065,0.14935988391317284,0.06255095119804824,0.03966503190638386
1703,3.0,299.85853,486.92725,0.0,0.0,0.0,0.01727036767386082,0.0,0.0,-0.047825969100305656,-0.06894877343621413,-0.03123898289004757,0.14196968351381686,0.06173163311418784,0.02155677428748798
1704,3.0,299.47623,399.70363,0.0,0.0,0.0,0.017280508817533083,0.0,0.0,-0.028783328716193372,-0.06489587334797403,-0.02782072186944147,0.15848073574833085,0.025830749335546476,-0.006811225137890583
1705,3.0,299.41406,704.31957,0.0,0.0,0.0,0.017290649961205343,0.0,0.0,-0.034226433272885964,-0.08393281014727343,-0.09593631798692741,0.16621888623202685,0.01917303047323078,-0.013566847365943588
1706,3.0,300.39282000000003,764.9662599999999,0.0,0.0,0.0,0.017300791104877603,0.0,0.0,-0.08258908244765784,-0.05794717945444135,-0.09199437993038842,0.1951503581923408,0.03169073234113177,-0.022210445231750277
1707,3.0,299.15032,368.39595,0.0,0.0,0.0,0.017310932248549866,0.0,0.0,-0.04602210527852816,-0.038424105522163965,-0.027536960165686374,0.17505274510886082,0.03040618351360667,-0.0006571531808809694
1708,3.0,298.73054,168.72122,0.0,0.0,0.0,0.017321073392222126,0.0,0.0,-0.045492680074777955,-0.01738599268261388,0.01159163484625529,0.20551900726064679,0.04724174327814705,-0.00983621947668428
1709,3.0,299.90886,392.34156,0.0,0.0,0.0,0.01733121453589439,0.0,0.0,-0.024119388155148278,-0.049078025023623954,-0.046064625305724555,0.16896816812585985,0.04409618129670426,-0.0032297931582807673
1710,3.0,300.92927000000003,424.07649000000004,0.0,0.0,0.0,0.01734135567956665,0.0,0.0,-0.016658503428816286,-0.04406498433937536,-0.06818517600185293,0.20104902404699382,0.03035941087574057,0.0026689795942577777
1711,3.0,300.78302,480.93054000000006,0.0,0.0,0.0,0.01735149682323891,0.0,0.0,-0.008537791453264412,-0.05268830301768065,-0.08496478105612101,0.13922445462038385,0.04191669857010606,-0.0027427914189924376
1712,3.0,300.71538,471.60208,0.0,0.0,0.0,0.017361637966911172,0.0,0.0,-0.04099586903822726,-0.049806574137026154,-0.05255281324080885,0.15702444204210586,0.043365339198325754,0.025127202168361774
1713,3.0,298.92677000000003,354.17262,0.0,0.0,0.0,0.01737177911058343,0.0,0.0,-0.07207692474118864,-0.03921895158960916,0.0036362430344942464,0.16357816395390784,0.043898353333930155,0.017699258202780784
1714,3.0,299.4227,740.78638,0.0,0.0,0.0,0.017381920254255695,0.0,0.0,-0.10373305965765589,-0.07438711774393693,-0.04706038670899855,0.16419510154229483,0.053642587028111144,0.016861698577370084
1715,3.0,299.80331,978.49318,0.0,0.0,0.0,0.017392061397927955,0.0,0.0,-0.12942031758029088,-0.058691864575686044,-0.10932530854956789,0.16286583900110685,0.05839782142316625,0.0030801019719823974
1716,3.0,299.27045,582.13815,0.0,0.0,0.0,0.017402202541600215,0.0,0.0,-0.030014426574443268,-0.05862687471427205,-0.08831416133492911,0.16698074898221685,0.03464283346773146,-0.006374425685406833
1717,3.0,299.83509,200.42858,0.0,0.0,0.0,0.017412343685272478,0.0,0.0,0.02818618800826017,-0.04155800094195536,-0.04755347068466216,0.2008811690354278,0.05698960643418624,-0.02784702989503787
1718,3.0,300.5896,432.04328,0.0,0.0,0.0,0.017422484828944738,0.0,0.0,-0.04145990009377356,-0.028924896980415074,-0.06094557395160984,0.19281461406182082,0.03823354458910706,0.008260099725558372
1719,3.0,299.7736,595.2318,0.0,0.0,0.0,0.017432625972617,0.0,0.0,-0.1280672841917569,-0.026389162611407575,-0.026479158472039476,0.17362628148557985,0.043385442080309755,0.008803791186741542
1720,3.0,299.16177000000005,341.95426000000003,0.0,0.0,0.0,0.01744276711628926,0.0,0.0,-0.03922466530692307,-0.05393935075714945,-0.010781540378055189,0.15675402585541784,0.03471728911157967,-0.023913259647554978
1721,3.0,298.68779,338.21375,0.0,0.0,0.0,0.01745290825996152,0.0,0.0,-0.011092458197740388,-0.06323983967603623,-0.02847623591563567,0.15901216516077885,0.03055444834773927,-0.006015867987094944
1722,3.0,298.87714,478.37572,0.0,0.0,0.0,0.017463049403633784,0.0,0.0,0.016982885315830285,-0.07027671773902203,-0.09212044242832981,0.2083721472897298,0.024181516598279877,-0.018158246312579382
1723,3.0,298.86573,615.6878,0.0,0.0,0.0,0.017473190547306044,0.0,0.0,-0.022574947769723876,-0.09344490115079372,-0.07113386956836634,0.17397138433713882,0.030725129313834174,-0.023069795813811578
1724,3.0,299.1859,744.73588,0.0,0.0,0.0,0.017483331690978307,0.0,0.0,-0.08914219843590002,-0.08505155782118523,-0.05218735318149075,0.1859225071466228,0.03505892056829607,-0.016325745003225586
1725,3.0,299.70273,444.99722,0.0,0.0,0.0,0.017493472834650567,0.0,0.0,-0.08785551266391402,-0.05886009651628924,0.011447566894036887,0.15346945406625587,0.04273712616282596,-0.006772582514851854
1726,3.0,299.92900000000003,119.82691000000001,0.0,0.0,0.0,0.017503613978322827,0.0,0.0,0.00886425506260886,-0.035549479524710464,-0.009739164403930689,0.17697953136651984,0.06791071796051602,-0.02155101902691998
1727,3.0,300.97914,359.69512000000003,0.0,0.0,0.0,0.01751375512199509,0.0,0.0,-0.024671554744142874,-0.03324330203210847,-0.05142347710335205,0.13876299012734086,0.07049005856082713,0.0003422640084888277
1728,3.0,300.16284,662.4886799999999,0.0,0.0,0.0,0.01752389626566735,0.0,0.0,-0.03369804665048827,-0.047209632369227955,-0.12047233634469388,0.14652472907336486,0.049180874975024456,0.011682383551711488
1729,3.0,299.98971,450.20463,0.0,0.0,0.0,0.017534037409339613,0.0,0.0,-0.015571297217267384,-0.04539055966344945,-0.07588910801642183,0.13955656760566088,0.06537286589879954,-0.013756215703632788
1730,3.0,299.90713999999997,300.36818999999997,0.0,0.0,0.0,0.017544178553011873,0.0,0.0,-0.07102056186268373,-0.01944272826559788,-0.0008411381410538712,0.18231846773343183,0.03393559908343287,0.0065162902239577734
1731,3.0,299.69437999999997,698.90212,0.0,0.0,0.0,0.017554319696684133,0.0,0.0,-0.13891272822711886,-0.037423253550387565,-0.03611280807680667,0.2058229417606428,0.03720787508263137,0.006982460047815154
1732,3.0,299.97671,896.6796199999999,0.0,0.0,0.0,0.017564460840356396,0.0,0.0,-0.11874016503374188,-0.0936574901410246,-0.06017056124162203,0.2049653978035098,0.021333384051191083,0.01104852671315469
1733,3.0,299.93041,543.2989200000001,0.0,0.0,0.0,0.017574601984028656,0.0,0.0,-0.027465282853612372,-0.04686554378101905,-0.0908184778580859,0.2092444340358178,0.03130272645383857,-0.0012736297404724688
1734,3.0,299.21225,405.02327,0.0,0.0,0.0,0.01758474312770092,0.0,0.0,0.018289145053248083,-0.06541281024424174,-0.07599329545795433,0.17241647099868082,0.027108194266620478,-0.007883811569046623
1735,3.0,299.68311,422.13365999999996,0.0,0.0,0.0,0.01759488427137318,0.0,0.0,-0.002787742739803787,-0.044327499201783555,-0.08120284890634721,0.14932592990232185,0.047550341768353356,0.0026417734237727374
1736,3.0,300.2773,295.18124,0.0,0.0,0.0,0.01760502541504544,0.0,0.0,-0.05162373281336575,-0.027930545008030175,-0.01017344947629129,0.15882529144483584,0.05226392854454816,-0.016728890873512984
1737,3.0,299.94271000000003,401.13751,0.0,0.0,0.0,0.017615166558717702,0.0,0.0,-0.06902092798908524,-0.041008714009744957,-0.011906143624294888,0.14047243423854988,0.06606463403357173,0.003857254463531376
1738,3.0,301.35437,480.67922000000004,0.0,0.0,0.0,0.017625307702389962,0.0,0.0,-0.058489368569701244,-0.04370570611891736,-0.04391940664450796,0.17085204324178385,0.04480541887645055,-0.03295693120934587
1739,3.0,300.22676,260.52799,0.0,0.0,0.0,0.017635448846062225,0.0,0.0,0.0044393556015552855,-0.049302849008812356,-0.03433050925690746,0.16450780065565584,0.026971704411899975,-0.01910339384685818
1740,3.0,300.09505,435.79649000000006,0.0,0.0,0.0,0.017645589989734485,0.0,0.0,0.013799868544440985,-0.04454134158238816,-0.1017297730174469,0.1835009812626368,0.027463377943424374,-0.034337238250821564
1741,3.0,300.28296,847.99727,0.0,0.0,0.0,0.017655731133406745,0.0,0.0,-0.08613730393934002,-0.06491265378288014,-0.1067200398924479,0.19170993840529782,0.02706269427087997,0.013938963465168588
1742,3.0,301.00317,628.44434,0.0,0.0,0.0,0.017665872277079008,0.0,0.0,-0.0951717853227239,-0.07608892296264202,-0.01977067780621398,0.2027020098626308,0.03529840932218176,0.003045221445239957
1743,3.0,299.44661,401.56111,0.0,0.0,0.0,0.017676013420751268,0.0,0.0,-0.07437132218812803,-0.026229304169630773,-0.021463924101324378,0.16487495182939085,0.047997553885489756,0.03098676062215517
1744,3.0,299.05933999999996,642.28452,0.0,0.0,0.0,0.01768615456442353,0.0,0.0,-0.08143901521315502,-0.06246555042661984,-0.05133388958251045,0.18364153931650884,0.04848359577295836,0.0069174454630987125
1745,3.0,298.60062,611.52483,0.0,0.0,0.0,0.01769629570809579,0.0,0.0,-0.046310269553967755,-0.044501884610244055,-0.09507612438078292,0.16352362070102483,0.05244053803697815,0.025276525848848878
1746,3.0,298.15608,542.36363,0.0,0.0,0.0,0.01770643685176805,0.0,0.0,-0.012910492322166386,-0.04532645436937275,-0.1066280570483699,0.15676168602617385,0.04215528755790296,-0.012670467558977789
1747,3.0,299.42983,755.65176,0.0,0.0,0.0,0.017716577995440314,0.0,0.0,-0.07066326758592154,-0.07857651072664783,-0.08045948708973312,0.14559450468655885,0.04040355646702056,0.0013695926309432685
1748,3.0,299.90446000000003,420.51100999999994,0.0,0.0,0.0,0.017726719139112574,0.0,0.0,-0.07905332697195593,-0.025012963285837273,-0.023758555609036877,0.16796739113459083,0.026699918311076775,-0.003996854793408856
1749,3.0,300.2039,222.08914,0.0,0.0,0.0,0.017736860282784837,0.0,0.0,-0.04880538475296645,-0.026359513900231474,0.007655344443123673,0.1776981283374398,0.046929111039292655,0.004743171145989546
1750,3.0,300.38421,603.70294,0.0,0.0,0.0,0.017747001426457097,0.0,0.0,-0.07113152389438483,-0.043223869219363754,-0.06915522618383943,0.2015647176853888,0.024341119701031477,-0.008421693662106452
1751,3.0,301.11002,674.46508,0.0,0.0,0.0,0.017757142570129357,0.0,0.0,-0.05638327757434624,-0.06276787588545703,-0.08586938946714891,0.18189082552872682,0.04589901464313005,-0.012304328622092688
1752,3.0,300.37045,425.38930999999997,0.0,0.0,0.0,0.01776728371380162,0.0,0.0,0.01038506169342579,-0.07799147835740962,-0.061701311604945346,0.19223543017215983,0.05710503081932774,-0.03974108848539006
1753,3.0,300.53123,499.92897999999997,0.0,0.0,0.0,0.01777742485747388,0.0,0.0,-0.07955158257612993,-0.03347694129316687,-0.03893740485057267,0.18253077402688483,0.06035487751431265,-0.00964046827131514
1754,3.0,300.49345,708.05142,0.0,0.0,0.0,0.017787566001146143,0.0,0.0,-0.08470694335617442,-0.08432607682908583,-0.046196930437532056,0.19508833715371982,0.05614515569484545,0.0028013655834232573
1755,3.0,299.69489,544.6885599999999,0.0,0.0,0.0,0.017797707144818403,0.0,0.0,-0.05535589466195145,-0.08579350716715992,-0.02442231852429518,0.16149666453847983,0.047424268124660864,0.0009647740367282841
1756,3.0,298.29072,320.56599,0.0,0.0,0.0,0.017807848288490663,0.0,0.0,-0.0004482685418231605,-0.04535005904370236,-0.05164572743328645,0.1859413333334808,0.02828991644749737,-6.961704430116733e-05
1757,3.0,299.34637999999995,507.47328,0.0,0.0,0.0,0.017817989432162926,0.0,0.0,-0.02255097224585768,-0.06025231532594054,-0.07145591692714993,0.15845818080110485,0.02420808604240208,-0.0003727944093719436
1758,3.0,299.74617,388.8213,0.0,0.0,0.0,0.017828130575835186,0.0,0.0,-0.005393719861393705,-0.016218168240108587,-0.09658007833196161,0.16904098027804584,0.041789142541517256,-0.014307994217839086
1759,3.0,300.13415,455.96569000000005,0.0,0.0,0.0,0.01783827171950745,0.0,0.0,-0.05655507210230104,-0.037825472296833466,-0.044221639897586054,0.16625720735080884,0.05066101754885315,-0.01291863479996999
1760,3.0,300.51806,697.9659,0.0,0.0,0.0,0.01784841286317971,0.0,0.0,-0.08610706754310592,-0.05111726380388115,-0.07493987505773983,0.15657292766504485,0.07091412804567952,-0.009060483914075141
1761,3.0,300.83643,490.17059000000006,0.0,0.0,0.0,0.01785855400685197,0.0,0.0,-0.08125390759213633,-0.022975749992529975,-0.044769964242201456,0.17192680775535482,0.06949990448360653,0.02400767023887258
1762,3.0,300.51991,424.30274000000003,0.0,0.0,0.0,0.017868695150524232,0.0,0.0,-0.04269618883228576,-0.03017958127449277,-0.05610166801380354,0.18666450006235183,0.05411911145739045,0.025241815953423275
1763,3.0,299.98585,861.9435,0.0,0.0,0.0,0.017878836294196492,0.0,0.0,-0.07741490561325633,-0.07157926796782373,-0.11301512971622489,0.2094974020557838,0.027876885309234375,0.02813585683604287
1764,3.0,298.21409,799.27153,0.0,0.0,0.0,0.017888977437868755,0.0,0.0,-0.06127122037474864,-0.08506004885702323,-0.0966273180781238,0.19436262716709782,0.01881342801274078,0.016141180484260484
1765,3.0,299.91047000000003,409.81926,0.0,0.0,0.0,0.017899118581541015,0.0,0.0,-0.07551680851892872,-0.04498836320850575,-0.004069651138893296,0.18501147371671084,0.03394869230122507,0.0013602851181746887
1766,3.0,299.39426000000003,382.13851,0.0,0.0,0.0,0.017909259725213275,0.0,0.0,-0.033235365244075166,-0.035960679720042764,-0.04696452007728725,0.15686695257906286,0.03683652297398177,0.005443457167727395
1767,3.0,300.29888,324.35562999999996,0.0,0.0,0.0,0.01791940086888554,0.0,0.0,-0.053963744753306946,-0.022062468160646078,-0.022569799445965776,0.1776321353584268,0.03695020760870157,0.009233433445818931
1768,3.0,298.59749,198.15544,0.0,0.0,0.0,0.017929542012557798,0.0,0.0,0.023868823564419477,-0.041905818290532255,-0.04219731109255036,0.17144292003759884,0.04800158358113745,-0.017591030933099584
1769,3.0,298.77867000000003,420.05012,0.0,0.0,0.0,0.01793968315623006,0.0,0.0,-0.008406453873977402,-0.04011291479508646,-0.07916537723426442,0.17821541277849184,0.059836893930691644,-0.01703221438369868
1770,3.0,300.0726,643.51894,0.0,0.0,0.0,0.01794982429990232,0.0,0.0,-0.05290897875695965,-0.07666704901919863,-0.06603766232915984,0.15583732835744685,0.06800912683672823,-0.03583329391747076
1771,3.0,300.12685,518.55348,0.0,0.0,0.0,0.01795996544357458,0.0,0.0,-0.0962598791413604,-0.05563782136977544,-0.005729609736418454,0.17792288747462182,0.03595563981404536,-0.028485694605319176
1772,3.0,299.1897,622.7338900000001,0.0,0.0,0.0,0.017970106587246844,0.0,0.0,-0.05848597215536604,-0.10654382556755689,-0.02426575010559308,0.1964439644625098,0.049181087757545455,-0.059103451832556546
1773,3.0,300.45617999999996,809.63598,0.0,0.0,0.0,0.017980247730919104,0.0,0.0,-0.09846464853745421,-0.10144228356657391,-0.046202190218801155,0.20534334009080982,0.026146609789219472,0.01249316905647979
1774,3.0,300.47354,377.55368,0.0,0.0,0.0,0.017990388874591368,0.0,0.0,-0.01165924193267759,-0.03224945263177317,-0.07085819562690944,0.17797268871703684,0.02172913420899858,0.02957169707574927
1775,3.0,300.66125,232.89889,0.0,0.0,0.0,0.018000530018263627,0.0,0.0,0.012326025346483988,-0.04538368881452136,-0.03773778158017906,0.15775308032151683,0.0040618058473440265,0.024319416897139578
1776,3.0,300.71335,489.6847,0.0,0.0,0.0,0.018010671161935887,0.0,0.0,-0.06074496563056135,-0.013650063570156384,-0.07445689318557322,0.14511826700705785,0.03608010441657907,0.017979551551443585
1777,3.0,299.3201,565.92219,0.0,0.0,0.0,0.01802081230560815,0.0,0.0,-0.09439366294817922,-0.04224470789247806,-0.03538784282900817,0.18131409370430784,0.057795816101502945,0.008430853037710413
1778,3.0,299.97657000000004,459.29402999999996,0.0,0.0,0.0,0.01803095344928041,0.0,0.0,-0.04087832898687696,-0.04802719651716525,-0.05070839205727865,0.16708495162250084,0.08449585397609151,-0.015441313441438986
1779,3.0,299.95724,506.36456,0.0,0.0,0.0,0.018041094592952674,0.0,0.0,-0.06281811991816574,-0.03846339429479147,-0.05264067013047965,0.17168394183888583,0.03793724796836487,0.0051393723014165555
1780,3.0,299.11429,424.09601,0.0,0.0,0.0,0.018051235736624933,0.0,0.0,-0.0030601362840619374,-0.05881750961458624,-0.06703695186928203,0.16064884778230684,0.05457979980085685,0.001282833496430809
1781,3.0,299.65359,506.3303,0.0,0.0,0.0,0.018061376880297193,0.0,0.0,-0.058709237761900644,-0.03937439834045056,-0.05582813405655786,0.18892139307008982,0.044535945012355554,0.008045434180572531
1782,3.0,299.48607999999996,751.9417,0.0,0.0,0.0,0.018071518023969457,0.0,0.0,-0.10337548369736589,-0.06630073650562324,-0.05889528263926185,0.17277808982686985,0.04789043105841755,0.01250634941378059
1783,3.0,300.1324,681.3201,0.0,0.0,0.0,0.018081659167641716,0.0,0.0,-0.13649841668384485,-0.05074597755648805,-0.01985990258351978,0.15769715904849785,0.02807563532959947,0.001293729785356189
1784,3.0,300.18437,472.56332000000003,0.0,0.0,0.0,0.01809180031131398,0.0,0.0,-0.040589478741119664,-0.04900418442258645,-0.05405378722344344,0.16968465753657186,0.048187365013472656,-0.004148563765956366
1785,3.0,300.2188,444.99782999999996,0.0,0.0,0.0,0.018101941454986236,0.0,0.0,-0.038828683114842666,-0.06868353293103693,-0.027756012678305172,0.20081052523845583,0.039116313407479564,0.005150824560671805
1786,3.0,299.23804,523.42047,0.0,0.0,0.0,0.0181120825986585,0.0,0.0,0.0046901289218046855,-0.06819127880720524,-0.09560560227353831,0.19391812448072882,0.051120237692924654,0.009047499924643721
1787,3.0,301.36095,377.51736,0.0,0.0,0.0,0.018122223742330763,0.0,0.0,-0.04831609742542755,-0.020673324565048282,-0.045766428841044864,0.19011928773581283,0.004016692609166696,-0.004017809413426917
1788,3.0,299.96152,199.50544,0.0,0.0,0.0,0.018132364886003022,0.0,0.0,0.015358852108550687,-0.07434967105999123,-0.0016538522457975086,0.14370252356983487,0.03266443224997847,-0.038969853171775065
1789,3.0,299.99682,276.15288,0.0,0.0,0.0,0.018142506029675286,0.0,0.0,-0.052136508291472754,-0.03019027410279807,-0.0016167989055406286,0.17298619113240785,0.04220722371827866,-0.03151134856992797
1790,3.0,299.7293,492.3054,0.0,0.0,0.0,0.018152647173347546,0.0,0.0,-0.028733375486263375,-0.07819698878244193,-0.04271818547870666,0.15121419239117886,0.053123483803129645,-0.03920377310311117
1791,3.0,299.56604,646.9227400000001,0.0,0.0,0.0,0.018162788317019805,0.0,0.0,-0.07578223951512472,-0.06917367138865985,-0.05169244839539745,0.17525616519893683,0.03937603777911236,-0.015956109340245384
1792,3.0,299.17177999999996,770.1908599999999,0.0,0.0,0.0,0.01817292946069207,0.0,0.0,-0.06552284008585084,-0.04514842734005286,-0.12344752234832189,0.14951448561343086,0.06237705721588623,0.03563879954752567
1793,3.0,299.88047,770.38503,0.0,0.0,0.0,0.01818307060436433,0.0,0.0,-0.11438753644667088,-0.061826267633777535,-0.05796400447235185,0.1986333952785898,0.05742449540360644,0.04451887681442106
1794,3.0,299.80645,607.37535,0.0,0.0,0.0,0.018193211748036592,0.0,0.0,-0.08518455297631082,-0.037149988104418365,-0.06229239814353104,0.17924532071013582,0.04918516406269775,0.04344033895747766
1795,3.0,299.08474,688.34546,0.0,0.0,0.0,0.01820335289170885,0.0,0.0,-0.08913807754774332,-0.05907085861658985,-0.06103089467628034,0.18208307960270081,0.019580410715686083,0.01760346756482698
1796,3.0,300.94744,636.12669,0.0,0.0,0.0,0.01821349403538111,0.0,0.0,-0.04497334886852396,-0.07302049667156194,-0.07537278312321452,0.16726234131750783,0.035213993429850564,0.001995046383770748
1797,3.0,300.39887000000004,203.05387,0.0,0.0,0.0,0.018223635179053375,0.0,0.0,0.011446066270638789,-0.022788252114525377,-0.05038112038097946,0.18911519741671684,0.023751434487334078,-0.0019039642177066385
1798,3.0,300.85164,130.24561,0.0,0.0,0.0,0.018233776322725635,0.0,0.0,0.05110537736695805,-0.04413013328105505,-0.04656665729302125,0.17752465992031985,0.041941711662074666,0.0008911568978678382
1799,3.0,300.44169,325.54665,0.0,0.0,0.0,0.018243917466397898,0.0,0.0,-0.052892278368811455,-0.012546502488743387,-0.03351927082934447,0.2042477634201848,0.018272281531833783,0.012597100145736988
1800,3.0,299.88619,623.44005,0.0,0.0,0.0,0.018254058610070158,0.0,0.0,-0.06022168984166804,-0.05965444609118545,-0.06963407196909785,0.2130932544081668,0.07390838240293943,-0.01872213012573038
1801,3.0,300.00057999999996,774.69545,0.0,0.0,0.0,0.018264199753742414,0.0,0.0,-0.1016211019442219,-0.09120446940418032,-0.04266249725321066,0.1944410729898398,0.06379181780051224,-0.003293913752433977
1802,3.0,299.68197000000004,719.35357,0.0,0.0,0.0,0.01827434089741468,0.0,0.0,-0.05169566343796475,-0.06893607639921102,-0.0980337852106813,0.17506495477256584,0.03953570066361986,0.0005955699777606804
1803,3.0,299.27586,554.97365,0.0,0.0,0.0,0.01828448204108694,0.0,0.0,-0.05137738942255354,-0.06339192041004543,-0.053928820048860154,0.15695778031802685,0.0024945665240695475,0.01226070212578709
1804,3.0,299.72222,611.33717,0.0,0.0,0.0,0.018294623184759204,0.0,0.0,-0.045606945301805056,-0.06428903887633414,-0.07593525041272572,0.15679083723155085,0.05408653749317566,-0.001875342840806928
1805,3.0,298.84288,536.64626,0.0,0.0,0.0,0.018304764328431464,0.0,0.0,-0.097809083828755,-0.028592689762878775,-0.03672528837800376,0.17979331676171884,0.044244348858827255,0.04677809219138825
1806,3.0,299.1386,205.42332,0.0,0.0,0.0,0.018314905472103724,0.0,0.0,0.0015400978994708284,-0.057189410234655354,-0.006794249247040193,0.16401971808248583,0.046117924287484756,-0.039075329467434756
1807,3.0,300.60035,98.425343,0.0,0.0,0.0,0.018325046615775987,0.0,0.0,-0.008700736254845812,-0.028123892378862075,0.0069057816372225835,0.18260529857173982,0.024742927067936772,-0.03878779746005757
1808,3.0,299.47321,291.02946000000003,0.0,0.0,0.0,0.018335187759448247,0.0,0.0,-0.0009072176516254112,-0.04297442021699506,-0.044584052100603365,0.19634913438565083,0.04709085108650515,-0.04901919369631775
1809,3.0,300.58399,638.47599,0.0,0.0,0.0,0.01834532890312051,0.0,0.0,-0.029978572719654772,-0.07858029318927112,-0.08552189230560361,0.2144533298848958,0.04537314493398075,-0.027303482011393872
1810,3.0,300.81703999999996,372.15465,0.0,0.0,0.0,0.01835547004679277,0.0,0.0,-0.00981827420946322,-0.030589387237687473,-0.07271805772871352,0.18423718852029483,0.03338871760695987,0.0048450628667704755
1811,3.0,299.92851,360.22918,0.0,0.0,0.0,0.01836561119046503,0.0,0.0,-0.061613056507985244,-0.04742833328406205,-0.0004592848907528896,0.16537873977911086,0.02217906284965308,0.010830320264369388
1812,3.0,300.41739,729.53723,0.0,0.0,0.0,0.01837575233413729,0.0,0.0,-0.1003487992574054,-0.06050334499846524,-0.06090895813274615,0.16779790479036383,0.07878208802618673,0.018749195049151485
1813,3.0,300.12998,883.56165,0.0,0.0,0.0,0.01838589347780955,0.0,0.0,-0.12162877894882587,-0.08726469767635511,-0.05968720244041824,0.17462081685623282,0.08401446898608252,-0.005846559468260495
1814,3.0,299.13982999999996,818.36009,0.0,0.0,0.0,0.018396034621481816,0.0,0.0,-0.06378076830817174,-0.08578379111195102,-0.09919647450167982,0.17800916572063682,0.04686721159068366,0.020976956103264378
1815,3.0,300.19687999999996,748.60275,0.0,0.0,0.0,0.018406175765154076,0.0,0.0,-0.06426516062447754,-0.06844227504247663,-0.09484910873562821,0.18244782937369883,0.02758217645139887,0.0003226971966027337
1816,3.0,300.30779,384.78607999999997,0.0,0.0,0.0,0.018416316908826332,0.0,0.0,0.01112021213122949,-0.052443892908059245,-0.07564168146125272,0.1828757350234298,0.057214705010151745,0.005711820408387785
1817,3.0,301.13628,268.31472,0.0,0.0,0.0,0.0184264580524986,0.0,0.0,-0.07003873062178452,-0.01101611689545609,-0.0005061277873809236,0.18763906427353383,0.04487636664845255,0.003019719054798067
1818,3.0,301.04908,515.87395,0.0,0.0,0.0,0.01843659919617086,0.0,0.0,-0.04206911266339816,-0.049949530553884854,-0.06479415418368514,0.18250906007724182,0.03484841887327117,-0.007597754752490013
1819,3.0,300.15696,256.1945,0.0,0.0,0.0,0.018446740339843122,0.0,0.0,-0.04865323106495005,-0.04262293085005576,0.013399431091670886,0.17446366176572284,0.026688431094693075,-0.03450749061212417
1820,3.0,300.09879,343.02182,0.0,0.0,0.0,0.018456881483515382,0.0,0.0,0.009052349238297312,-0.05924528556830445,-0.05407713149249735,0.18478871068222583,0.04789228125310016,-0.020207850641359583
1821,3.0,299.79037,594.6546099999999,0.0,0.0,0.0,0.01846702262718764,0.0,0.0,-0.06066391068881184,-0.054056433832704656,-0.06603980839287163,0.18322159781256384,0.03105868010100307,0.008787743230332731
1822,3.0,298.91019,660.92837,0.0,0.0,0.0,0.018477163770859905,0.0,0.0,-0.05382320797768705,-0.06973254265356614,-0.07734997046734772,0.18798079300225984,0.014162164223696786,0.026495826436184474
1823,3.0,300.08924,634.7905400000001,0.0,0.0,0.0,0.018487304914532165,0.0,0.0,-0.08897063391571793,-0.05833202602792274,-0.045657812483325254,0.18588131853005782,0.022242195423633777,0.02314962978919058
1824,3.0,300.16412,725.9182900000001,0.0,0.0,0.0,0.018497446058204425,0.0,0.0,-0.07293401577552693,-0.08754815844483052,-0.06017885874669094,0.16087413380954083,0.07896173321591633,0.01181481331328129
1825,3.0,299.60659,662.49828,0.0,0.0,0.0,0.018507587201876688,0.0,0.0,-0.0978891093084029,-0.07090255672953753,-0.03259126850000777,0.13986383569848587,0.08926819709908511,-0.04474702223343725
1826,3.0,300.93965,319.01004,0.0,0.0,0.0,0.018517728345548948,0.0,0.0,-0.005770280480857344,-0.030278879784292768,-0.06092192469427585,0.15016289474992386,0.07775468991504042,-0.006712753034872144
1827,3.0,300.51183,181.47913,0.0,0.0,0.0,0.018527869489221208,0.0,0.0,0.008177805984236612,-0.03945322007897966,-0.023889709688730776,0.15951763510566483,0.036098259831870864,-0.04480749907890586
1828,3.0,299.85495,288.43167,0.0,0.0,0.0,0.018538010632893467,0.0,0.0,-0.00022766832007411374,-0.009584668385658121,-0.07786368928129783,0.18909722235994283,0.020144472860854683,0.015440908141398986
1829,3.0,299.05298999999997,268.14763,0.0,0.0,0.0,0.018548151776565734,0.0,0.0,-0.026162689055056376,-0.042200834163148064,-0.013146661668724486,0.18600483371724782,0.013495385876140886,-0.027303816383926875
1830,3.0,299.03700000000003,297.94035,0.0,0.0,0.0,0.018558292920237994,0.0,0.0,-0.003482209564892327,-0.042100673377512964,-0.044983543177780055,0.2090503763766658,0.012678426638513289,0.01920693584807698
1831,3.0,298.55631,648.52455,0.0,0.0,0.0,0.01856843406391025,0.0,0.0,-0.08206743596492533,-0.05963463299873004,-0.05543320260483115,0.2038491406983438,0.028434195155736575,-0.01036636621583069
1832,3.0,299.69498,644.40797,0.0,0.0,0.0,0.018578575207582517,0.0,0.0,-0.03585749742260946,-0.06395505948437294,-0.09607137510600651,0.2001431784575938,0.09488870148328572,0.01125352848663679
1833,3.0,299.46133,547.688,0.0,0.0,0.0,0.018588716351254777,0.0,0.0,-0.07838208931070993,-0.03245696422575297,-0.05564442066767675,0.17028368086319084,0.08845479132955822,0.031156130442620673
1834,3.0,300.80818999999997,726.43629,0.0,0.0,0.0,0.01859885749492704,0.0,0.0,-0.07468187726427743,-0.05868014025877894,-0.08745647653603222,0.14955247235967983,0.05422945844628086,0.022622424616409478
1835,3.0,300.88374,443.81358,0.0,0.0,0.0,0.0186089986385993,0.0,0.0,-0.06870856932775785,-0.03516729374599167,-0.031032384234407868,0.15073877544425884,0.03298262115238127,0.02179704527045088
1836,3.0,300.50657,253.64911,0.0,0.0,0.0,0.01861913978227156,0.0,0.0,-0.002992556758042357,-0.03528124182573747,-0.038829198859143564,0.1779408929288988,0.02340796398168618,-0.03652053383754607
1837,3.0,299.78797000000003,451.54097,0.0,0.0,0.0,0.018629280925943823,0.0,0.0,-0.05356216739417435,-0.05690644190572854,-0.026788569588825976,0.16189447666024084,0.048929827063997955,-0.012817316882720687
1838,3.0,299.37723,302.60497000000004,0.0,0.0,0.0,0.018639422069616083,0.0,0.0,0.012030227244790989,-0.03578475518468037,-0.06822982790725973,0.15662726826790785,0.03564696634333167,-0.060287767933689444
1839,3.0,298.94388,81.61626,0.0,0.0,0.0,0.018649563213288343,0.0,0.0,-0.012629148233149888,0.008484653983570152,-0.02066481022445798,0.16756776529515086,0.05796426386437745,0.003750751846845387
1840,3.0,299.66204,464.16704000000004,0.0,0.0,0.0,0.018659704356960603,0.0,0.0,-0.025627411318728577,-0.057816311111275644,-0.05765146849225694,0.2068818489101488,0.06241102541223865,-0.011375958482969689
1841,3.0,297.85282,625.29608,0.0,0.0,0.0,0.018669845500632862,0.0,0.0,-0.07216779503665684,-0.06069986080235985,-0.05720673985111565,0.2087324286277868,0.07110434751345274,0.018572717279234482
1842,3.0,298.44947,564.61697,0.0,0.0,0.0,0.018679986644305126,0.0,0.0,-0.04700929357270606,-0.07115550043150114,-0.05346466639005175,0.17801479939119283,0.015606275623969485,0.012707577843890289
1843,3.0,299.76805,821.7662,0.0,0.0,0.0,0.018690127787977386,0.0,0.0,-0.09052897710576442,-0.0996704191962045,-0.05959700798276674,0.16771282217946684,0.005303583564297945,0.006382543439907994
1844,3.0,299.60026,715.87653,0.0,0.0,0.0,0.018700268931649652,0.0,0.0,-0.05648891902977224,-0.059003466339188744,-0.1021162063405849,0.1968393954465358,0.03572135409942317,0.005391665496815954
1845,3.0,299.13309,510.80472000000003,0.0,0.0,0.0,0.018710410075321912,0.0,0.0,-0.05897807631818294,-0.06991482735980624,-0.026378977421402373,0.17817114388162283,0.056995112435229645,-0.012382548490062388
1846,3.0,300.7449,565.68169,0.0,0.0,0.0,0.01872055121899417,0.0,0.0,-0.040948975823599264,-0.04240973593626506,-0.08859439591508611,0.18214356050116984,0.035860755021680964,-0.0042583597494423855
1847,3.0,300.27833,358.22900000000004,0.0,0.0,0.0,0.018730692362666435,0.0,0.0,-0.036117687889288264,-0.02720855162277497,-0.045566432523056755,0.15278025148073685,0.06803777141705523,-0.03253642431184507
1848,3.0,300.33957999999996,116.5343,0.0,0.0,0.0,0.018740833506338695,0.0,0.0,0.02067499541446318,-0.025190633651121976,-0.030907880115120266,0.2006509991427118,0.060336806198779146,-0.01983473750403618
1849,3.0,299.36929,281.56913,0.0,0.0,0.0,0.01875097465001096,0.0,0.0,-0.03704436792724446,-0.012498461261752088,-0.036047156563077366,0.18608168873733283,0.058766976805599044,0.01119967829682219
1850,3.0,299.23896,496.17375999999996,0.0,0.0,0.0,0.018761115793683215,0.0,0.0,-0.03026907253657487,-0.038271305380583764,-0.08228405667730412,0.17802190227439382,0.015508766513846087,0.009187340597444922
1851,3.0,300.20614,574.6914,0.0,0.0,0.0,0.018771256937355478,0.0,0.0,-0.08761647379307272,-0.03467622715127717,-0.052399136637892155,0.17737677606822483,0.02238997693746868,0.05379821819047075
1852,3.0,301.35206,685.6650900000001,0.0,0.0,0.0,0.018781398081027738,0.0,0.0,-0.049446718364011155,-0.07608443933094952,-0.08289390962099193,0.1963651133397278,0.04530553987405866,0.014491664036965887
1853,3.0,301.40886,884.26506,0.0,0.0,0.0,0.0187915392247,0.0,0.0,-0.11704653775659389,-0.1000336146415491,-0.05171434675655865,0.1966983206351128,0.05976208060955815,0.013686708773272988
1854,3.0,300.13788,865.7615300000001,0.0,0.0,0.0,0.01880168036837226,0.0,0.0,-0.08525208102922532,-0.0913240156907286,-0.08659379033464172,0.1985117748690868,0.02021759912057168,0.010719389643421388
1855,3.0,299.70847000000003,592.35575,0.0,0.0,0.0,0.01881182151204452,0.0,0.0,-0.09063933524040592,-0.05944630526889354,-0.029975717380872974,0.16873778545062285,0.032892918121028264,-0.014155197116009186
1856,3.0,299.0866,538.0279,0.0,0.0,0.0,0.01882196265571678,0.0,0.0,-0.027832790691382576,-0.061443438441245245,-0.07427081892395913,0.19278957665184981,0.03051150275550087,-0.02008290170527808
1857,3.0,300.21482000000003,207.64806000000002,0.0,0.0,0.0,0.018832103799389044,0.0,0.0,-0.03085295588019967,-0.0009738946352509172,-0.03129297493487617,0.15016162818729886,0.06603587900898383,-0.027032184297118872
1858,3.0,299.6846,-130.89113999999998,0.0,0.0,0.0,0.018842244943061304,0.0,0.0,0.08236067864986613,-0.016645601715292984,-0.025927438726338976,0.16428951618661283,0.06603850839299334,-0.027283589885430677
1859,3.0,300.0544,52.47949200000001,0.0,0.0,0.0,0.01885238608673357,0.0,0.0,-0.0006591446935550163,-0.004730811521269746,-0.01056249901118749,0.12945816247152586,0.07122528904538873,-0.05070217272816486
1860,3.0,299.36736,338.47802,0.0,0.0,0.0,0.01886252723040583,0.0,0.0,-0.013388432261835385,-0.04034431983967436,-0.049156112155830545,0.16338567683241084,0.06148207569405844,0.008714777469431572
1861,3.0,299.52516,459.83567,0.0,0.0,0.0,0.01887266837407809,0.0,0.0,-0.05749574512413824,-0.06677942321061593,-0.015503394261815883,0.17038999106368286,0.03907377007553086,-0.015947089387855183
1862,3.0,300.71243,771.86084,0.0,0.0,0.0,0.018882809517750353,0.0,0.0,-0.0902277196125326,-0.06125253198990425,-0.08314617140563822,0.21921671993000577,-0.005521499514279574,0.029584353582748368
1863,3.0,301.18729,1040.1647,0.0,0.0,0.0,0.018892950661422613,0.0,0.0,-0.12215154507291888,-0.11970512363397588,-0.07432743731304693,0.2171383311923848,0.010105358056321189,0.006966335489698784
1864,3.0,300.83662000000004,843.9143,0.0,0.0,0.0,0.018903091805094873,0.0,0.0,-0.09433761299239751,-0.06676603817679493,-0.09542522247748621,0.2343409266201488,0.02371452685244158,0.0025460752955530678
1865,3.0,300.91506,661.8539400000001,0.0,0.0,0.0,0.018913232948767136,0.0,0.0,-0.09293405084787672,-0.06206416862475654,-0.04618885179448476,0.1950525086301838,0.05746287833064455,-0.01081681465378649
1866,3.0,300.12327,315.05588,0.0,0.0,0.0,0.018923374092439396,0.0,0.0,-0.03497157536992577,-0.023739409235147276,-0.037058135969603265,0.1782624681131358,0.04177484963560667,-0.010666559796457491
1867,3.0,300.57003,-76.55577,0.0,0.0,0.0,0.018933515236111656,0.0,0.0,0.007219751264883973,0.02972748630512447,-0.013676195290235385,0.15847405843017184,0.06982302183449572,0.006806406931015062
1868,3.0,299.61907,-74.000372,0.0,0.0,0.0,0.018943656379783916,0.0,0.0,0.030194056565421373,0.005071759236818665,-0.012771550402203888,0.14594941579908585,0.05103736802024605,-0.012628760158361589
1869,3.0,299.5029,207.61713,0.0,0.0,0.0,0.01895379752345618,0.0,0.0,-0.011701120572560687,-0.017422696654236285,-0.03398660609346687,0.16342677425646684,0.04989302159580786,-0.006336661246229774
1870,3.0,299.33825,440.19779000000005,0.0,0.0,0.0,0.01896393866712844,0.0,0.0,-0.01703440097741448,-0.051393047176348856,-0.06538168826742023,0.15830045829053885,0.04113201844091416,-0.025717772962646577
1871,3.0,300.04146000000003,758.63099,0.0,0.0,0.0,0.0189740798108007,0.0,0.0,-0.07100850317324364,-0.1203587510084839,-0.03923762376245196,0.2002295073661138,0.04906384053547405,-0.014578755922811184
1872,3.0,299.79301,990.79128,0.0,0.0,0.0,0.018984220954472962,0.0,0.0,-0.08761185539911692,-0.12504884254135987,-0.08851510808151102,0.1947439841072348,0.05981851560037785,-0.01751452447104898
1873,3.0,300.86179,885.94659,0.0,0.0,0.0,0.018994362098145222,0.0,0.0,-0.1046099060291939,-0.07117599544127384,-0.0935197387899296,0.17820690147765184,0.05173202898405375,0.02535883823397248
1874,3.0,300.41839,533.44597,0.0,0.0,0.0,0.01900450324181749,0.0,0.0,-0.03947642350626966,-0.07933945056169413,-0.04333837965291506,0.19135336556260682,0.02521690215996448,-0.00970816563832135
1875,3.0,299.56638,249.36085,0.0,0.0,0.0,0.01901464438548975,0.0,0.0,-0.006108404268377564,-0.024577429889353478,-0.04511363739786936,0.18439470838084082,0.03266520029355427,0.01079901387602969
1876,3.0,299.47853,119.34018999999999,0.0,0.0,0.0,0.01902478552916201,0.0,0.0,0.00906842617365898,-0.012437798991515188,-0.03290706714542467,0.1980896954074308,0.03403028527877767,-0.03970981148130326
1877,3.0,298.79732,141.46296999999998,0.0,0.0,0.0,0.01903492667283427,0.0,0.0,-0.024730126679423477,-0.007607231478025294,-0.010663853405440389,0.19639055604973882,0.04543267337735576,-0.023938385210284678
1878,3.0,298.95332,150.42765,0.0,0.0,0.0,0.01904506781650653,0.0,0.0,-0.0015603470947692685,-0.02058497928882928,-0.023580923747255976,0.17380263766548484,0.03890800539892116,-0.04693896489651516
1879,3.0,298.70027999999996,531.72033,0.0,0.0,0.0,0.01905520896017879,0.0,0.0,-0.04834174886495916,-0.055115487903475154,-0.05817246548167535,0.17401811543175083,0.04453287081155216,-0.002006836156634308
1880,3.0,299.51489,803.0480200000001,0.0,0.0,0.0,0.01906535010385105,0.0,0.0,-0.07090883381390703,-0.05883999464755535,-0.1143577164962279,0.14618565505990086,0.03976261701026476,0.006399219206078764
1881,3.0,300.33967,896.18834,0.0,0.0,0.0,0.01907549124752331,0.0,0.0,-0.07757675205172933,-0.0991965849459407,-0.09564554155273,0.17557622050802382,0.05756032056626135,0.03478239043050467
1882,3.0,300.82,876.75059,0.0,0.0,0.0,0.019085632391195574,0.0,0.0,-0.0914115574596183,-0.07989136991766432,-0.09520736053373491,0.16657233826440984,0.026778642777596274,0.04196475398259876
1883,3.0,300.75201,675.47884,0.0,0.0,0.0,0.019095773534867834,0.0,0.0,-0.11561340694765489,-0.04171195922839986,-0.04800333549056036,0.19917021518156983,0.05274762881103565,0.05032966855415155
1884,3.0,299.74104,461.97395,0.0,0.0,0.0,0.019105914678540097,0.0,0.0,-0.04637695559604916,-0.05623796231125475,-0.03781362638991436,0.19637127390033582,0.054311887355165955,0.02762623256574687
1885,3.0,299.39146,496.64780999999994,0.0,0.0,0.0,0.019116055822212357,0.0,0.0,-0.08865044181786741,-0.0014907153319971484,-0.06082737731419474,0.2124425046639428,0.07419309858828874,0.012049222644415688
1886,3.0,299.62124,403.72231,0.0,0.0,0.0,0.019126196965884617,0.0,0.0,-0.02057835972592598,-0.03344676265218847,-0.06869638094230493,0.19014644283849283,0.049047566725617955,-0.011984295604507887
1887,3.0,299.67472000000004,8.9239867,0.0,0.0,0.0,0.019136338109556884,0.0,0.0,0.021736741690749378,-0.019510141821251083,-0.0049392680722928056,0.18844172047274982,0.044122511613802866,-0.05089767325545925
1888,3.0,299.93003999999996,199.03388,0.0,0.0,0.0,0.01914647925322914,0.0,0.0,0.015141505909100286,-0.045467424816035454,-0.030175410737081174,0.16699700151382085,0.04790191320855075,-0.03961331055502936
1889,3.0,301.06099,578.6159299999999,0.0,0.0,0.0,0.019156620396901407,0.0,0.0,-0.08329330139965882,-0.06247153569496054,-0.030119959612108574,0.16523222381465083,0.023571259367802178,-0.029476573156361267
1890,3.0,301.52678,565.8858299999999,0.0,0.0,0.0,0.019166761540573667,0.0,0.0,-0.04252811191894786,-0.08036186246909834,-0.049125186749528454,0.17514733200569585,0.031133292798616766,-0.01720949768744518
1891,3.0,301.78272999999996,372.99514,0.0,0.0,0.0,0.019176902684245926,0.0,0.0,-0.04046607602469076,-0.03918116445362987,-0.03373396839303347,0.14890072963035786,0.04671016897093475,-0.0034878565090246364
1892,3.0,300.71295,614.11991,0.0,0.0,0.0,0.01918704382791819,0.0,0.0,-0.015901215502827786,-0.097785211656399,-0.07299069191987043,0.18107370011808283,0.06040271102503344,0.013817122167143788
1893,3.0,300.33322999999996,776.5976400000001,0.0,0.0,0.0,0.01919718497159045,0.0,0.0,-0.07149351661186074,-0.07991068145132021,-0.08466209285374801,0.18556883219921783,0.06725834498963183,0.025194888288291875
1894,3.0,299.75561,709.54985,0.0,0.0,0.0,0.019207326115262713,0.0,0.0,-0.07897582144530672,-0.07123821609016454,-0.06547140041802414,0.21627312706449578,0.04423244823640276,0.025752250823799273
1895,3.0,299.69903,578.5572400000001,0.0,0.0,0.0,0.019217467258934973,0.0,0.0,-0.1011574934139673,-0.04359500550574205,-0.03111445445275757,0.2394344234153378,0.02014962422436308,0.022551231637883275
1896,3.0,300.37104,558.47567,0.0,0.0,0.0,0.019227608402607232,0.0,0.0,-0.05906397155566014,-0.04352954954928206,-0.06716913743757774,0.18807946329699782,0.018666726623512483,-0.01130944773315559
1897,3.0,300.39076,464.36389,0.0,0.0,0.0,0.019237749546279496,0.0,0.0,-0.05151279813941735,-0.037654175274677765,-0.051988054992821546,0.18680205889592782,0.03746764099751826,-0.0073648404718781625
1898,3.0,300.22639,401.72531000000004,0.0,0.0,0.0,0.019247890689951756,0.0,0.0,-0.015797361420578183,-0.02297405583836278,-0.08334304691331831,0.12977675870046887,0.031253800659509966,-0.03493954045476417
1899,3.0,300.77192,442.6255,0.0,0.0,0.0,0.019258031833624015,0.0,0.0,-0.03093297325384677,-0.05271039490961095,-0.05090373046455705,0.16837321806464284,0.03836723382055116,-0.012666801620115988
1900,3.0,300.67631,257.74728999999996,0.0,0.0,0.0,0.01926817297729628,0.0,0.0,-0.03613966933695767,-0.027933931289864374,-0.014275139583346586,0.16121507220318884,0.05189946147032805,-0.008861737642735413
1901,3.0,299.96952999999996,322.23769,0.0,0.0,0.0,0.01927831412096854,0.0,0.0,-0.06467639729681343,-0.027119488965485175,-0.006156326539807124,0.1962032466362528,0.058299807714493036,0.057384192367628845
1902,3.0,299.64957999999996,689.56908,0.0,0.0,0.0,0.0192884552646408,0.0,0.0,-0.09536224189102051,-0.06964424398685173,-0.044605295902199964,0.1912800873153748,0.04740857997336255,0.00991914062246796
1903,3.0,299.54662,816.87151,0.0,0.0,0.0,0.019298596408313058,0.0,0.0,-0.07908285915937052,-0.06053274039711635,-0.10869293916215789,0.2114627222147458,0.02905089665685027,0.04282917588141055
1904,3.0,298.91539,671.8184200000001,0.0,0.0,0.0,0.01930873755198532,0.0,0.0,-0.01015241035121489,-0.10205514788955891,-0.09200846309352832,0.1851505828229398,0.05325348379095965,-0.04402199112438225
1905,3.0,298.76613,557.75078,0.0,0.0,0.0,0.01931887869565758,0.0,0.0,-0.022034799340165376,-0.07332020287889063,-0.07418730583746702,0.19780779909710983,0.05735061933881544,-0.010869565467242591
1906,3.0,299.56613,288.27359,0.0,0.0,0.0,0.01932901983932984,0.0,0.0,-0.031283799955220674,-0.04815532705856075,-0.008188844229501002,0.16514795180383385,0.04521551057617346,-0.059386177994709445
1907,3.0,300.83669,0.05693493,0.0,0.0,0.0,0.019339160983002104,0.0,0.0,0.01977035761918238,-0.04294300338439446,0.02315533945350408,0.2068643602134228,0.014800749900470287,-0.013771443839385685
1908,3.0,300.63518999999997,-46.573046999999995,0.0,0.0,0.0,0.019349302126674364,0.0,0.0,0.015774391040811183,-0.014970880671760884,0.013353532888641089,0.17392344747490784,0.026391011792840077,-0.05670118175347094
1909,3.0,300.75362,140.42443,0.0,0.0,0.0,0.019359443270346628,0.0,0.0,0.016052578855766185,-0.035172303254486066,-0.023565795923262977,0.20470531676784182,0.05866590105512365,-0.0022516733511728573
1910,3.0,299.65496,312.7146,0.0,0.0,0.0,0.019369584414018887,0.0,0.0,0.0085545079520892,-0.04477399495109926,-0.05883794281610284,0.13764672288967386,0.052987319201691245,-0.051738797494721746
1911,3.0,299.00043,846.13269,0.0,0.0,0.0,0.019379725557691147,0.0,0.0,-0.07586184449598113,-0.07231299782898723,-0.1090283654752619,0.18621924757090882,0.05959845186415924,0.031627150897356765
1912,3.0,300.70358999999996,1064.5937,0.0,0.0,0.0,0.01938986670136341,0.0,0.0,-0.13758822796140088,-0.09134699721624673,-0.09467467469116292,0.17277609372417285,0.03791482474365186,0.0060374481877247445
1913,3.0,299.98207,964.6523099999999,0.0,0.0,0.0,0.01940000784503567,0.0,0.0,-0.13062939852711788,-0.07149643578539884,-0.09110437954605222,0.2294846418058708,0.053894468843969943,0.08278119669311802
1914,3.0,300.46297000000004,773.53867,0.0,0.0,0.0,0.019410148988707934,0.0,0.0,-0.12131323260268388,-0.03352592585600126,-0.08029728094747463,0.17243318962533086,0.024444501608734476,0.04535258912920205
1915,3.0,299.78898,789.809,0.0,0.0,0.0,0.019420290132380193,0.0,0.0,-0.08612041002042273,-0.05118195576976575,-0.1027798446260809,0.18536502707410382,0.013297651132375986,0.04121442100529667
1916,3.0,301.04537999999997,487.17330999999996,0.0,0.0,0.0,0.019430431276052453,0.0,0.0,-0.025626594639147977,-0.03545075046146667,-0.0870111774350846,0.1776821696483648,0.03468411834305597,-0.003353661969755667
1917,3.0,300.2818,256.51822999999996,0.0,0.0,0.0,0.01944057241972472,0.0,0.0,-0.01851369748740968,-0.034905795173433764,-0.024555643998953377,0.23288935465938976,0.058553776825557846,-0.01611864478878638
1918,3.0,301.70309,286.13247,0.0,0.0,0.0,0.01945071356339698,0.0,0.0,-0.035132176524025865,-0.03232484249221357,-0.019520107135984583,0.22185299404018577,0.06304006120681964,-0.03338060856640957
1919,3.0,300.27513,151.94906,0.0,0.0,0.0,0.019460854707069243,0.0,0.0,-0.05577220771728835,0.005713198327198774,0.0038702888114927666,0.2016990341186448,0.04576206071986375,-0.01073862518331979
1920,3.0,300.52651000000003,268.00714,0.0,0.0,0.0,0.019470995850741503,0.0,0.0,-0.004339685026318566,-0.057018181100256346,-0.02010961097791408,0.17983902447372982,0.05837494527565854,-0.039738180457603064
1921,3.0,299.14878,566.33146,0.0,0.0,0.0,0.019481136994413763,0.0,0.0,-0.03565987514960567,-0.05257600045609725,-0.08391474693774072,0.18592552663192083,0.04494695066366866,-0.01899742207189958
1922,3.0,300.45116,781.9976,0.0,0.0,0.0,0.019491278138086026,0.0,0.0,-0.012809222027671789,-0.11983256009905288,-0.1050659597667029,0.16061823749678583,0.05557632823445654,-0.019110660876575383
1923,3.0,299.98212,541.0045700000001,0.0,0.0,0.0,0.019501419281758286,0.0,0.0,-0.05855235928866795,-0.07471219472051953,-0.03118732537344937,0.15951236620514483,0.025349956083595873,-0.02237446205193748
1924,3.0,299.49495,466.33117999999996,0.0,0.0,0.0,0.01951156042543055,0.0,0.0,-0.06632755318276984,-0.04470742239302905,-0.030718057841386266,0.17601389388871885,0.03725918505444526,0.003642627827349377
1925,3.0,298.42311,345.22767000000005,0.0,0.0,0.0,0.01952170156910281,0.0,0.0,-0.06399075932514624,-0.036516300478628264,-0.004433532047930546,0.2170242493636258,0.07559152152830233,0.0035385158729493273
1926,3.0,299.43158999999997,224.35616000000002,0.0,0.0,0.0,0.01953184271277507,0.0,0.0,-0.0034119711692853372,-0.018859336348271583,-0.04592736132792766,0.22891750545989878,0.03710578608205597,0.010114217509895551
1927,3.0,299.176,290.49171,0.0,0.0,0.0,0.01954198385644733,0.0,0.0,0.0046579981531836255,-0.048477016740059053,-0.04448320838440086,0.20095738570794983,0.025070023451968678,-0.039545419758579066
1928,3.0,300.28737,424.27635999999995,0.0,0.0,0.0,0.01955212500011959,0.0,0.0,-0.0060123737941250935,-0.05893698902662794,-0.06402005643853763,0.17327185673310083,0.025504723956870274,-0.013612824602481187
1929,3.0,300.67181,368.77272999999997,0.0,0.0,0.0,0.01956226614379185,0.0,0.0,-0.06134704998573245,-0.02070043812447418,-0.03005021355472517,0.19242298276566983,0.046068470589854055,-0.03677747379790407
1930,3.0,300.28535,699.8316599999999,0.0,0.0,0.0,0.01957240728746411,0.0,0.0,-0.1032051158255519,-0.06723057180439083,-0.04229565917375656,0.17095999490743782,0.053651316177722654,0.022025814851528682
1931,3.0,300.54632000000004,887.1996800000001,0.0,0.0,0.0,0.01958254843113637,0.0,0.0,-0.14445590541668785,-0.04843455953436886,-0.07679608945918392,0.16218621162903285,0.04376492045476136,0.02037872209847328
1932,3.0,300.92081,664.9442,0.0,0.0,0.0,0.019592689574808635,0.0,0.0,-0.07357567970610422,-0.032945482496465964,-0.09560527094075559,0.17200554742062582,0.04346279055319346,0.07377359784813722
1933,3.0,299.43539,469.22907000000004,0.0,0.0,0.0,0.019602830718480894,0.0,0.0,-0.013815824193765688,-0.059636602756924444,-0.06918149469268194,0.17564662112497184,0.05689896918624104,0.008062221809554342
1934,3.0,300.10525,732.6152900000001,0.0,0.0,0.0,0.019612971862153158,0.0,0.0,-0.04399850094731396,-0.08088597824232452,-0.0978122765798201,0.23348288617046675,0.045571884821844856,0.030978874496626868
1935,3.0,300.28628,664.9911400000001,0.0,0.0,0.0,0.019623113005825418,0.0,0.0,-0.08791015014905632,-0.06119729567395285,-0.05303325692147495,0.22548609346624476,0.03556628529086907,-0.01071969159195119
1936,3.0,299.62494,349.60527,0.0,0.0,0.0,0.019633254149497677,0.0,0.0,-0.04801028841274655,-0.04677366530170136,-0.01148731872196009,0.1925241963181588,0.04181026677960206,-0.006010060848121824
1937,3.0,299.91156,123.89436,0.0,0.0,0.0,0.01964339529316994,0.0,0.0,-0.03661369205174007,-0.0002670369064119908,-0.0007800638123988042,0.18596357417317583,0.06495336617189813,-0.013680742756684187
1938,3.0,300.39288,275.38117,0.0,0.0,0.0,0.0196535364368422,0.0,0.0,-3.6485014355290564e-05,-0.04055072800429526,-0.04312178731153905,0.17081342828047283,0.045550665338250654,-0.01840500412268248
1939,3.0,299.79939,628.82832,0.0,0.0,0.0,0.019663677580514464,0.0,0.0,0.018491653218234084,-0.1054536292549629,-0.1041861344398709,0.2039841056116638,0.037905798711761064,-0.04795210353900416
1940,3.0,300.39041000000003,667.68719,0.0,0.0,0.0,0.019673818724186724,0.0,0.0,-0.03758653880400257,-0.06104689896160984,-0.1043267938187529,0.19711477655871382,0.018562438870220084,-0.030913226022647868
1941,3.0,299.95994,417.1891,0.0,0.0,0.0,0.019683959867858983,0.0,0.0,-0.04203747595552586,-0.05869701999219484,-0.026080573240452175,0.2097569460688988,0.039605704086528665,-0.013827901121707589
1942,3.0,299.82957999999996,193.45802,0.0,0.0,0.0,0.019694101011531247,0.0,0.0,-0.04322934684940436,-0.02427363927087168,0.00869657807908543,0.18908397918113581,0.045882021425702954,0.011765778087941887
1943,3.0,300.13531,692.22009,0.0,0.0,0.0,0.019704242155203507,0.0,0.0,-0.07818418434092823,-0.07272527510917584,-0.059508161147748234,0.2021634269044768,0.07052919230618933,0.038179318483505365
1944,3.0,300.63608999999997,930.85187,0.0,0.0,0.0,0.019714383298875773,0.0,0.0,-0.0998241231568739,-0.09107376419428072,-0.09205783877090132,0.18227596189173684,0.057934956618485044,0.028836431127434177
1945,3.0,299.81192999999996,553.8231099999999,0.0,0.0,0.0,0.01972452444254803,0.0,0.0,-0.015737184497139185,-0.05363160846327765,-0.09897960452977642,0.16147217428356284,0.07423568548999172,0.022500439436870478
1946,3.0,300.46015,234.13291,0.0,0.0,0.0,0.01973466558622029,0.0,0.0,-0.028383776844010677,-0.028348156036745172,-0.014438625460481384,0.15517371033695287,0.025700041085896578,-0.016098823590330182
1947,3.0,299.7297,426.92495999999994,0.0,0.0,0.0,0.019744806729892556,0.0,0.0,-0.03421438572919697,-0.051906667705039246,-0.04365347611601266,0.1843201331734808,0.04220245029705756,0.0016386091139431284
1948,3.0,300.33387999999997,523.3855900000001,0.0,0.0,0.0,0.019754947873564816,0.0,0.0,-0.09492794263315851,-0.02192661462698838,-0.042241593161670664,0.21682801321675882,0.04024250441662596,-0.0005679519413749924
1949,3.0,299.99536,695.5860700000001,0.0,0.0,0.0,0.01976508901723708,0.0,0.0,-0.07826325736548213,-0.04946500347531575,-0.08371253565503402,0.21319971659617382,0.05819500725665005,0.023553438325043377
1950,3.0,300.0755,652.63923,0.0,0.0,0.0,0.019775230160909332,0.0,0.0,-0.04966308576386495,-0.05288394134698864,-0.0958390024075731,0.19432081033547083,0.029015080292315476,0.011950905973962589
1951,3.0,299.50485,384.29152,0.0,0.0,0.0,0.0197853713045816,0.0,0.0,0.011778429528690489,-0.07375767056981533,-0.05483578629287075,0.17884231061536182,0.03524857565576357,-0.005860190823180805
1952,3.0,300.16695,675.1030400000001,0.0,0.0,0.0,0.019795512448253862,0.0,0.0,-0.08067522120827442,-0.08595306366040692,-0.038586183994909866,0.1976486681689048,0.03334308994170677,-0.00985537942812522
1953,3.0,300.17612,839.87245,0.0,0.0,0.0,0.019805653591926122,0.0,0.0,-0.12164595353802089,-0.07620831219542484,-0.057445983398477146,0.1894081482856288,0.05032281290397495,0.003687762749078846
1954,3.0,301.35495,448.27325999999994,0.0,0.0,0.0,0.019815794735598382,0.0,0.0,-0.08812125067489032,-0.04331766578112076,-0.004824961200686595,0.19309606454209782,0.04845821993745396,0.013917990201348688
1955,3.0,301.20845,-38.448765,0.0,0.0,0.0,0.019825935879270642,0.0,0.0,0.03269034510803587,-0.04333105284144196,0.02232817273436908,0.16000927418668584,0.07380815676929793,-0.03661832463119726
1956,3.0,301.21873999999997,175.87183000000002,0.0,0.0,0.0,0.0198360770229429,0.0,0.0,0.050220142297842156,-0.05692493473330365,-0.046755852364943354,0.19263045585614583,0.07413725837527772,-0.02031489139517368
1957,3.0,300.9424,573.2128700000001,0.0,0.0,0.0,0.019846218166615165,0.0,0.0,-0.013828748198791187,-0.08061121419945742,-0.07980243594313721,0.17818542057553183,0.05987231208793715,-0.05689490909309035
1958,3.0,300.56179,515.4578700000001,0.0,0.0,0.0,0.019856359310287425,0.0,0.0,-0.049175797578773356,-0.057028863796060654,-0.05048165910890186,0.22382324872713477,0.030894831480332473,-0.030936354469430473
1959,3.0,300.75644,218.34947000000003,0.0,0.0,0.0,0.019866500453959688,0.0,0.0,-0.04239101816716776,-0.02887070025906627,0.004888932239125046,0.18572293740692683,0.01969469215471478,-0.06477392363218853
1960,3.0,300.86334,353.52191,0.0,0.0,0.0,0.019876641597631948,0.0,0.0,-0.06454432521252894,-0.028650864504120174,-0.014266645507758285,0.23245155968868278,0.02085809274728348,0.01955289388272038
1961,3.0,299.69311,666.4644,0.0,0.0,0.0,0.019886782741304208,0.0,0.0,-0.058425950259192345,-0.05196754579754744,-0.0921950389139419,0.1917376203980298,0.025675017861426976,0.01349381432523579
1962,3.0,299.4805,987.4335699999999,0.0,0.0,0.0,0.01989692388497647,0.0,0.0,-0.07343618151183683,-0.08127081164355462,-0.14544815084211485,0.2038064220741278,0.01838201246466338,0.04739058971783705
1963,3.0,299.52259,720.5074900000001,0.0,0.0,0.0,0.01990706502864873,0.0,0.0,-0.08174176117078373,-0.04942560223192716,-0.08784892349851373,0.15923416825768885,0.05728390391248114,0.012637733501247188
1964,3.0,299.50909,209.91407999999998,0.0,0.0,0.0,0.019917206172320994,0.0,0.0,-0.03471265551887237,-0.01814913010142968,-0.01094685314512029,0.17930863870888483,0.05672514815808624,0.04287913012459066
1965,3.0,300.53297000000003,339.36874,0.0,0.0,0.0,0.019927347315993254,0.0,0.0,-0.08664073927802522,-0.02864322155861587,0.012124335887578788,0.16990104722792784,0.08054287757296313,-0.006750179555140853
1966,3.0,300.08743,959.98325,0.0,0.0,0.0,0.019937488459665514,0.0,0.0,-0.14259572008810184,-0.05438006186164425,-0.0948351603347516,0.20039332964228182,0.015875062504496683,0.01941002663187048
1967,3.0,300.1812,716.9628700000001,0.0,0.0,0.0,0.019947629603337777,0.0,0.0,-0.046245360752561755,-0.08554781022991152,-0.08614563893466261,0.2073737210386928,0.048869354271529754,-0.025294580952380772
1968,3.0,301.3535,95.169943,0.0,0.0,0.0,0.019957770747010037,0.0,0.0,0.06515154674570703,-0.02910527474996697,-0.06497555837558834,0.20117602481452782,0.048958740155601456,-0.025330091315385377
1969,3.0,300.7822,95.23611700000001,0.0,0.0,0.0,0.0199679118906823,0.0,0.0,0.03157136337335097,-0.03290638016185687,-0.027614384632327574,0.18461824148540182,0.08398546976822051,-0.021958977835182376
1970,3.0,300.57371,585.0257799999999,0.0,0.0,0.0,0.01997805303435456,0.0,0.0,-0.08055755450066163,-0.05714138623291574,-0.04013428829269586,0.2129969753836648,0.05070461364765575,-0.019482996851072083
1971,3.0,300.74342,629.12635,0.0,0.0,0.0,0.01998819417802682,0.0,0.0,-0.08726292550193022,-0.060931702557740844,-0.043044072042119165,0.2044892006540128,0.05366434454750845,-0.028305411068026573
1972,3.0,299.42532,220.65121000000002,0.0,0.0,0.0,0.019998335321699083,0.0,0.0,-0.016833828120119486,-0.050371417498021855,0.00013278818866017386,0.22950627469550577,0.014853338593910385,-0.0069066960954378325
1973,3.0,299.69829,125.85524,0.0,0.0,0.0,0.020008476465371343,0.0,0.0,0.05448675507067404,-0.04292303931767416,-0.04982056610765705,0.16614792832752384,0.02150273968615518,0.02040429754424738
1974,3.0,300.40744,435.99562000000003,0.0,0.0,0.0,0.02001861760904361,0.0,0.0,0.010745334925481988,-0.07087560427687753,-0.07240151130472285,0.17630665224011183,0.021589007799669182,-0.017102990916433785
1975,3.0,299.26799,900.10141,0.0,0.0,0.0,0.020028758752715866,0.0,0.0,-0.081568680828452,-0.08274200721900032,-0.1092976670868399,0.15143703648567186,0.038157891283640666,-0.00983067233768682
1976,3.0,299.83859,861.6031300000001,0.0,0.0,0.0,0.020038899896388126,0.0,0.0,-0.14693398078875486,-0.06932607230970063,-0.04564578115163786,0.1985203773624358,0.06434000636961423,-0.020816503896928983
1977,3.0,300.49478,228.63696000000002,0.0,0.0,0.0,0.020049041040060393,0.0,0.0,-0.04318905293267766,-0.03246758916630157,0.006156715425195504,0.18449082528532681,0.07275434120154443,-0.010060848309903421
1978,3.0,300.75102999999996,0.29966045,0.0,0.0,0.0,0.020059182183732652,0.0,0.0,-0.02315478013944888,0.008107534354026343,0.014956157134557786,0.2019227293432218,0.026755134362026173,-0.021921713536254682
1979,3.0,301.54804,691.0401099999999,0.0,0.0,0.0,0.020069323327404912,0.0,0.0,-0.04659184871700746,-0.039398594752838564,-0.12406849267210689,0.19007929475436583,0.04234887912200896,0.027146045237356076
1980,3.0,300.81423,699.93697,0.0,0.0,0.0,0.020079464471077176,0.0,0.0,-0.07272403995730393,-0.04804618077103886,-0.09199313971226601,0.2055599425646868,0.03301195170302597,0.002223010431019048
1981,3.0,299.9039,361.83691,0.0,0.0,0.0,0.020089605614749435,0.0,0.0,-0.029558966601492872,-0.027072978759394975,-0.05335743919821924,0.19765960113748382,0.08190616809225942,0.056389334783444045
1982,3.0,300.5981,574.26814,0.0,0.0,0.0,0.020099746758421695,0.0,0.0,-0.1155829182521459,-0.04594543568321145,-0.013034826215437188,0.15938144415972386,0.04169274901975396,-0.01069737171874839
1983,3.0,300.36617,922.27857,0.0,0.0,0.0,0.020109887902093955,0.0,0.0,-0.1168041278026699,-0.07184130457618473,-0.09170422360525222,0.17251083498049385,0.06078731948474135,0.02235536634055288
1984,3.0,300.10575,875.7121099999999,0.0,0.0,0.0,0.02012002904576622,0.0,0.0,-0.11753443794474588,-0.0917368735632245,-0.05692330846689314,0.2018862928696258,0.036843486028668965,-0.014463266689663287
1985,3.0,299.61568,579.36654,0.0,0.0,0.0,0.020130170189438478,0.0,0.0,0.0033968353406165466,-0.08047611553712422,-0.09903368168761341,0.22010625219279578,0.049137187683712856,0.00941003533887318
1986,3.0,299.5076,139.93399,0.0,0.0,0.0,0.020140311333110738,0.0,0.0,0.0013377244967481287,-0.021529699231565877,-0.02234446478272698,0.21869198810071877,0.026803848387083874,-0.028505841057057474
1987,3.0,300.05582999999996,29.769353999999996,0.0,0.0,0.0,0.020150452476783,0.0,0.0,0.035076583544039266,-0.028946215762519073,-0.015179507854100785,0.18963367749288682,0.042998859809407056,-0.025997670130520272
1988,3.0,300.35242999999997,371.98068,0.0,0.0,0.0,0.02016059362045526,0.0,0.0,-0.06985843492549074,-0.04958946909109955,0.006375066262120054,0.2151637600600098,0.06442647409339794,-0.03151469432175817
1989,3.0,299.75256,769.6715,0.0,0.0,0.0,0.020170734764127524,0.0,0.0,-0.06284662163022864,-0.08279945343341982,-0.08831484223899631,0.2041488398129218,0.06969532699064324,-0.022041314538308376
1990,3.0,300.16532,465.05123,0.0,0.0,0.0,0.020180875907799784,0.0,0.0,-0.025028592668629772,-0.08973316439772382,-0.026602204524433175,0.20527121694869183,0.03226114351142697,-0.014254882687347384
1991,3.0,300.22337999999996,342.57347999999996,0.0,0.0,0.0,0.020191017051472044,0.0,0.0,0.036127932861049365,-0.06697049887472363,-0.07329121683327992,0.16380635800892884,-0.0009648671848099771,-0.030361515396198267
1992,3.0,300.19468,752.80003,0.0,0.0,0.0,0.020201158195144307,0.0,0.0,-0.0886461831276971,-0.060081100377042944,-0.08010512819851064,0.1978689690056468,0.03246927926746837,0.037057013288492466
1993,3.0,301.40395,725.61651,0.0,0.0,0.0,0.020211299338816567,0.0,0.0,-0.08291568031264052,-0.07400613773283714,-0.06364748235026745,0.19854571874743682,0.03392952971533387,0.00899760384201936
1994,3.0,300.48055,473.97944,0.0,0.0,0.0,0.02022144048248883,0.0,0.0,-0.08534227852662711,-0.029977187606768072,-0.02875844835998787,0.2110995733789058,0.03750864621581517,0.02390392254788348
1995,3.0,300.94939,505.46999000000005,0.0,0.0,0.0,0.02023158162616109,0.0,0.0,-0.06685900893972044,-0.038377426103307063,-0.04841382033132205,0.2018423887427928,0.04601853357192566,-0.005156393889846455
1996,3.0,300.11666,451.03042999999997,0.0,0.0,0.0,0.02024172276983335,0.0,0.0,-0.037442581296045066,-0.030721047942431367,-0.06893835925168634,0.2025069085558758,0.06525208547362943,0.02237559283904908
1997,3.0,300.14072999999996,473.27327,0.0,0.0,0.0,0.020251863913505613,0.0,0.0,-0.013806639081609187,-0.02864607487089747,-0.1014105384409409,0.2068155114261018,0.07215964242635223,0.012969005488941187
1998,3.0,299.77913,793.08942,0.0,0.0,0.0,0.020262005057177873,0.0,0.0,-0.07122284001989704,-0.07115769817096802,-0.0986988440728175,0.19228340756439483,0.04979809931318975,0.01983779346633778
1999,3.0,300.1604,620.9945799999999,0.0,0.0,0.0,0.020272146200850136,0.0,0.0,-0.06224623244247484,-0.05377961187888445,-0.07274100176397792,0.18786851475867883,0.04922796172042155,0.015538493245279884
2000,3.0,299.67933,341.35393999999997,0.0,0.0,0.0,0.020282287344522396,0.0,0.0,-0.05968064468577104,-0.03089159313301287,-0.01319083532008409,0.15476328325144686,0.05740181886636844,0.017453932115068984
2001,3.0,301.16772000000003,603.30657,0.0,0.0,0.0,0.020292428488194656,0.0,0.0,-0.06885969051392234,-0.06757427130456134,-0.04695616988321316,0.18888415612891482,0.05698194727668035,-0.004157036461967556
2002,3.0,299.73384,877.45605,0.0,0.0,0.0,0.02030256963186692,0.0,0.0,-0.07991188417918893,-0.09079602626237011,-0.0960168176676221,0.19379577453115382,0.04332172080802096,0.004141222465006837
2003,3.0,299.65195,540.97503,0.0,0.0,0.0,0.02031271077553918,0.0,0.0,-0.0036728901627860367,-0.08114672903630862,-0.07962328217970611,0.20556154349984482,0.040333541898360664,-0.02786482560654418
2004,3.0,300.28461,154.05095,0.0,0.0,0.0,0.020322851919211446,0.0,0.0,0.013579564667948687,-0.03617424548337007,-0.024232960319106975,0.21879711279859376,0.04005837255545357,0.003645588949441617
2005,3.0,300.66562999999996,254.65659,0.0,0.0,0.0,0.020332993062883706,0.0,0.0,0.007577642345955072,-0.036507053558215666,-0.04847983458858716,0.19563195596487082,0.03936417566019166,-0.010150589540785189
2006,3.0,301.10693,441.17731,0.0,0.0,0.0,0.020343134206555962,0.0,0.0,-0.059381052975703646,-0.04858744174920716,-0.026138392330908474,0.2032468851039058,0.05594950723303644,-0.02131247968837798
2007,3.0,302.05679,491.66955,0.0,0.0,0.0,0.020353275350228222,0.0,0.0,-0.00985053041844666,-0.08572067778972223,-0.05388405871244255,0.2073386524527318,0.04391036744036586,-0.05515015726889674
2008,3.0,300.75736,335.63428999999996,0.0,0.0,0.0,0.020363416493900482,0.0,0.0,-0.04753806523014175,-0.03403334529407967,-0.02045303284755718,0.18893404856383883,0.08294673744145563,-0.024916315438298874
2009,3.0,301.07799,455.37274,0.0,0.0,0.0,0.02037355763757275,0.0,0.0,0.005041390206146475,-0.07387167235181642,-0.06959165934641202,0.1943615125919878,0.04076980787466676,-0.02159598402660768
2010,3.0,300.82271000000003,607.37298,0.0,0.0,0.0,0.02038369878124501,0.0,0.0,-0.08373976675147152,-0.04606924673943066,-0.05481720733903715,0.1837811043852828,0.052292262057094446,0.0028915997604786773
2011,3.0,299.67851,970.0852,0.0,0.0,0.0,0.020393839924917265,0.0,0.0,-0.0917546723144811,-0.10019380238960841,-0.1029332000287159,0.2050269223495818,0.016318968386556783,0.013858724189749589
2012,3.0,299.59488999999996,845.01281,0.0,0.0,0.0,0.02040398106858953,0.0,0.0,-0.14838631268708888,-0.062144242740409236,-0.046332243908886454,0.20012140371294482,0.03888177235383217,0.02523973271121768
2013,3.0,299.94673,427.10783,0.0,0.0,0.0,0.02041412221226179,0.0,0.0,-0.037856586167654166,-0.02349482788625898,-0.06847870037032153,0.20054695862244382,0.02631764336634918,0.031878547366417674
2014,3.0,300.01007999999996,556.3956599999999,0.0,0.0,0.0,0.020424263355934055,0.0,0.0,-0.08951871710680952,-0.03254379874607287,-0.047067870574237156,0.1753187435251128,0.03768269725174266,0.007371861180496054
2015,3.0,300.19385,766.5849,0.0,0.0,0.0,0.020434404499606314,0.0,0.0,-0.04652076922249246,-0.05667111254350335,-0.12983078519580088,0.2009314566378908,0.05881520953685924,0.015474080936422885
2016,3.0,300.66649,457.53511,0.0,0.0,0.0,0.020444545643278574,0.0,0.0,-0.07783498289271472,-0.026930189528802776,-0.03431407636678567,0.17740258354827182,0.10313493812362591,-0.005681359577256535
2017,3.0,300.66307,277.11615,0.0,0.0,0.0,0.020454686786950838,0.0,0.0,-0.01911585378333788,-0.03223014920411807,-0.03289038803552857,0.2144300960601028,0.06359485717982374,-0.005148974264664195
2018,3.0,301.55244,329.71229,0.0,0.0,0.0,0.020464827930623097,0.0,0.0,-0.06517126053965264,-0.035076028282984464,2.2986683974359077e-05,0.18164171799164183,0.07773476637832412,-0.02608873193025737
2019,3.0,300.6889,283.96733,0.0,0.0,0.0,0.02047496907429536,0.0,0.0,0.027031797235580676,-0.06767940005543674,-0.04567137584916386,0.2212724726603928,0.047590852520601454,-0.03319183601977917
2020,3.0,299.74552,443.5366,0.0,0.0,0.0,0.02048511021796762,0.0,0.0,-0.035673445608194965,-0.06750649703187253,-0.03164410865103037,0.2142162192289948,0.06716816978373223,-0.02960582637886757
2021,3.0,299.84819,509.43568,0.0,0.0,0.0,0.02049525136163988,0.0,0.0,-0.013005016397495186,-0.05523967994173194,-0.08661102875859301,0.21628373579304278,0.024954870617853977,-0.008663179329289231
2022,3.0,299.72767000000005,297.92908,0.0,0.0,0.0,0.020505392505312144,0.0,0.0,-0.061001109176340745,-0.01983580850939188,-0.00972608456103981,0.18132672893305482,0.03736524194241227,0.008326806640591832
2023,3.0,300.42593999999997,425.56965,0.0,0.0,0.0,0.020515533648984403,0.0,0.0,-0.027005081883444075,-0.061095923041198145,-0.04126154220119716,0.18721555612923682,0.016809815105999586,-0.017417228143446584
2024,3.0,299.87476000000004,715.36292,0.0,0.0,0.0,0.020525674792656667,0.0,0.0,-0.1031590028135009,-0.05887182995244724,-0.055421629262188944,0.18408268814504683,0.06399220624628904,0.024679671890693977
2025,3.0,300.0881,773.0907,0.0,0.0,0.0,0.020535815936328927,0.0,0.0,-0.03379798452110137,-0.09910671878132159,-0.1020955664360479,0.2198939965618478,0.03287430167694097,-0.0025839432888903474
2026,3.0,300.138,451.1629,0.0,0.0,0.0,0.020545957080001186,0.0,0.0,-0.044272580033113455,-0.04404785331993466,-0.04882182372258886,0.2015184628183238,0.04783980199067086,-0.0035858342473192866
2027,3.0,299.98418,392.17367,0.0,0.0,0.0,0.02055609822367345,0.0,0.0,-0.009289768327528753,-0.05555888918698544,-0.05436234518364575,0.2133917680201278,0.030141589461993273,-0.019125002418490782
2028,3.0,299.77902,561.3181,0.0,0.0,0.0,0.02056623936734571,0.0,0.0,-0.08899333477095832,-0.045234011509749365,-0.036399340006335164,0.18052289736372282,0.07155787623171252,0.015657275541252787
2029,3.0,301.11951,595.8208099999999,0.0,0.0,0.0,0.020576380511017973,0.0,0.0,-0.06698600869400434,-0.059031256749681446,-0.05509738213743825,0.2093423241279788,0.03858548991859136,0.0021994375727425876
2030,3.0,300.88426,643.49432,0.0,0.0,0.0,0.020586521654690233,0.0,0.0,-0.08034041500423163,-0.05825396726671895,-0.05701182295587885,0.17795072145486884,0.06609245180181714,0.014140085504017788
2031,3.0,300.26102000000003,579.6813900000001,0.0,0.0,0.0,0.020596662798362492,0.0,0.0,-0.04937448376438216,-0.03207536613209217,-0.09475881903246731,0.18324231877710884,0.04299515030079096,0.015496134324849383
2032,3.0,299.56052999999997,423.12503,0.0,0.0,0.0,0.020606803942034756,0.0,0.0,-0.016955374562365184,-0.036450684428652465,-0.07521338368373302,0.19537662707217182,0.058110786921588144,0.041629772486288665
2033,3.0,299.92983,549.0034400000001,0.0,0.0,0.0,0.020616945085707016,0.0,0.0,-0.03622249847963226,-0.04879605981229616,-0.08186477885217464,0.1973426666387048,0.027874714927520177,0.012813727950866488
2034,3.0,300.56527,953.8837599999999,0.0,0.0,0.0,0.020627086229379275,0.0,0.0,-0.1194253652813659,-0.07324220085969244,-0.0972892794347043,0.18083428938445484,0.04748636617028946,0.031668585733696075
2035,3.0,300.2112,702.55282,0.0,0.0,0.0,0.020637227373051535,0.0,0.0,-0.06637144413735153,-0.08903522658309272,-0.05815184381564015,0.1955065966624988,0.042530842627967365,-0.02311651778917268
2036,3.0,299.51412,240.02091000000001,0.0,0.0,0.0,0.020647368516723795,0.0,0.0,-0.017417189639942786,-0.04551994359521866,-0.01002323099464088,0.2011250988645018,0.07371513129086703,-0.028808704551697772
2037,3.0,299.43658,380.46465,0.0,0.0,0.0,0.02065750966039606,0.0,0.0,0.007994801161150441,-0.06738256843864174,-0.05626398662682315,0.22541335224156578,0.054168098046725045,-0.03120049762474937
2038,3.0,300.01561,617.27405,0.0,0.0,0.0,0.020667650804068318,0.0,0.0,-0.03594737473297967,-0.08212136214849741,-0.06956716199874433,0.2191898485373538,0.06539899255262804,-0.02170627427349248
2039,3.0,300.50072,443.78115,0.0,0.0,0.0,0.020677791947740585,0.0,0.0,-0.013558103017580588,-0.058918293549032844,-0.062421992831321035,0.22756657963157276,0.03647371762992567,-0.02874454656861587
2040,3.0,301.12881,381.73131,0.0,0.0,0.0,0.020687933091412845,0.0,0.0,-0.06890314171796064,-0.04291682809456116,-0.004216816090042346,0.2075180889129408,0.05026462397723215,0.00856695613486774
2041,3.0,300.28036000000003,414.6675,0.0,0.0,0.0,0.0206980742350851,0.0,0.0,-0.040448171895423754,-0.06270666544691603,-0.022893727396934977,0.1954036909823428,0.050210338089874545,0.0007118258764642443
2042,3.0,299.68088,696.8100900000001,0.0,0.0,0.0,0.020708215378757368,0.0,0.0,-0.08567560943852433,-0.08341599889401813,-0.042721260692760166,0.17445348873471883,0.05746149625750815,0.001776074424534898
2043,3.0,300.55485,1157.8958,0.0,0.0,0.0,0.020718356522429628,0.0,0.0,-0.08324823507496112,-0.12423262905580588,-0.14449053830510586,0.17942969169833184,0.06368494119321434,0.0022680888133929378
2044,3.0,300.82113,968.1703,0.0,0.0,0.0,0.02072849766610189,0.0,0.0,-0.09407345666482732,-0.07583254839583983,-0.12439359396669189,0.18291189791949883,0.04947641469794195,0.03267564487558507
2045,3.0,300.44063,407.25366,0.0,0.0,0.0,0.02073863880977415,0.0,0.0,-0.008327758183760742,-0.031834375741558264,-0.08363280908416562,0.21404352088195078,0.041123993500122163,0.02240876360757278
2046,3.0,300.096,418.22655,0.0,0.0,0.0,0.02074877995344641,0.0,0.0,-0.07155906781383013,-0.03788262466872397,-0.01768873560049228,0.19288728435899283,0.05763977254635265,0.005873108039430635
2047,3.0,299.67337000000003,664.4395,0.0,0.0,0.0,0.020758921097118674,0.0,0.0,-0.09222269050917091,-0.04858131259935225,-0.06116901485041174,0.20944145038526177,0.035400788112285766,-0.002178559554432088
2048,3.0,299.10263,517.04761,0.0,0.0,0.0,0.020769062240790934,0.0,0.0,-0.0955420238695136,-0.04606221883673706,-0.015565318028427285,0.2176236374602808,0.061910999660139944,-0.022950898007327275
2049,3.0,300.4857,243.51028,0.0,0.0,0.0,0.020779203384463197,0.0,0.0,0.01037467993290119,-0.039752453098511664,-0.04464327048944775,0.2057558443390208,0.04945868586094225,-0.012854107993851687
2050,3.0,299.97937,328.54852999999997,0.0,0.0,0.0,0.020789344528135457,0.0,0.0,-0.024824356912223275,-0.048976733450877254,-0.026069458900105275,0.2103612281635368,0.049053224714176356,-0.016034770985258684
2051,3.0,299.0141,640.58532,0.0,0.0,0.0,0.020799485671807717,0.0,0.0,-0.03922783576648596,-0.05762616966376015,-0.09786793643431331,0.17431187690074285,0.049234250963792255,0.024346661165828377
2052,3.0,300.86996,855.8536300000001,0.0,0.0,0.0,0.02080962681547998,0.0,0.0,-0.1167519758200229,-0.08149278332971152,-0.06191337370512424,0.2007473693597228,0.06263294440939034,0.0014067893460892986
2053,3.0,300.76339,787.34454,0.0,0.0,0.0,0.02081976795915224,0.0,0.0,-0.06579844006005044,-0.08739744661170643,-0.0861371934950791,0.1874349754383918,0.05089274278047265,0.005388772870430475
2054,3.0,300.9564,486.89935,0.0,0.0,0.0,0.020829909102824503,0.0,0.0,-0.06413812337993995,-0.04089782087905067,-0.042969301277489866,0.20221854770991682,0.05111262109192295,-0.022725856173367375
2055,3.0,301.37057999999996,398.80091,0.0,0.0,0.0,0.020840050246496763,0.0,0.0,0.0015134154779624786,-0.06461802801155285,-0.05812090625033685,0.20048454241628383,0.02276861127458698,-0.029823856522135473
2056,3.0,300.0611,352.27744,0.0,0.0,0.0,0.020850191390169023,0.0,0.0,-0.049197977623462355,-0.02371438499742758,-0.03417118277143317,0.22842657565394778,0.03694639373532516,-0.023856527774455977
2057,3.0,299.45385,314.89262,0.0,0.0,0.0,0.020860332533841286,0.0,0.0,-0.009710185147095662,-0.02820104833422677,-0.05780825982598104,0.22259744915365778,0.07373731234880614,-0.014309382370476086
2058,3.0,299.31322,141.38013,0.0,0.0,0.0,0.020870473677513546,0.0,0.0,-0.030676614899046176,-0.03186267176385087,0.019563256391493082,0.2118192241299298,0.048191711856401656,-0.028475819469844576
2059,3.0,298.91949,229.71648,0.0,0.0,0.0,0.020880614821185806,0.0,0.0,-0.026237407130680478,-0.02310291490658018,-0.02048775287548378,0.17962343524995283,0.057557780348260645,-0.03061996104620487
2060,3.0,299.55855,782.15591,0.0,0.0,0.0,0.02089075596485807,0.0,0.0,-0.1028184089248869,-0.0867603828365831,-0.04817707647195726,0.20954735528571378,0.03256677621859057,-0.0066994436908336145
2061,3.0,300.76327000000003,886.08012,0.0,0.0,0.0,0.02090089710853033,0.0,0.0,-0.05252560544912365,-0.09966430119210071,-0.11715632340492889,0.20055346368808583,0.023773977275558876,-0.009193239435552092
2062,3.0,300.39749,649.08566,0.0,0.0,0.0,0.02091103825220259,0.0,0.0,-0.05981488107226914,-0.05604898002185365,-0.08144197086369673,0.2283368726225948,0.029563451246435474,0.013335726031383688
2063,3.0,300.72659,669.50067,0.0,0.0,0.0,0.02092117939587485,0.0,0.0,-0.053568925772341354,-0.06107074377621314,-0.08887181467321521,0.1935375882731728,0.025311922727842273,0.03246922961821347
2064,3.0,299.94558,515.1049,0.0,0.0,0.0,0.02093132053954711,0.0,0.0,-0.08840986888637473,-0.01997683569806018,-0.04819232284621195,0.2060558271636268,0.05753356772387104,0.029667179685672673
2065,3.0,299.68795,406.83805,0.0,0.0,0.0,0.02094146168321937,0.0,0.0,-0.05053322543299105,-0.03344697746120967,-0.03968840454644056,0.17894839790083183,0.07926599499569463,-0.0052618256025017554
2066,3.0,299.90265,577.87739,0.0,0.0,0.0,0.02095160282689163,0.0,0.0,-0.08810331716137042,-0.06197452132215904,-0.025582458478042077,0.18551467398137284,0.05803851483170545,-0.030738408969644766
2067,3.0,299.28578,356.58297999999996,0.0,0.0,0.0,0.020961743970563895,0.0,0.0,-0.012901085308237989,-0.03601265337067217,-0.059478585390579354,0.15837314885271286,0.05453554103648885,-0.025694120665562273
2068,3.0,299.22415,234.65245,0.0,0.0,0.0,0.020971885114236154,0.0,0.0,-0.02118765740855898,-0.04769572187945125,-0.0024451070509132777,0.2160952408769398,0.06033237221634153,-0.03204427252627347
2069,3.0,298.5901,553.6881099999999,0.0,0.0,0.0,0.02098202625790842,0.0,0.0,-0.040187841600231165,-0.051263685536081856,-0.07685583271158013,0.2211655139798368,0.07772906988626194,-0.01122109232443559
2070,3.0,298.8924,828.33971,0.0,0.0,0.0,0.02099216740158068,0.0,0.0,-0.09083582773954822,-0.08927079304584132,-0.07168796842530163,0.24007496973105477,0.04969116191088586,0.004203439871497216
2071,3.0,300.07955,633.4467599999999,0.0,0.0,0.0,0.02100230854525294,0.0,0.0,-0.03494022135883137,-0.09728081271686871,-0.06033096379870254,0.20629925036765082,0.036538567662825865,-0.020604446863000583
2072,3.0,301.33558999999997,358.51712000000003,0.0,0.0,0.0,0.021012449688925204,0.0,0.0,-0.02234145137692958,-0.02311960820197768,-0.06351919374185634,0.22003836443609576,0.017634895543178684,0.02194186708074368
2073,3.0,299.97709,478.23024000000004,0.0,0.0,0.0,0.021022590832597464,0.0,0.0,0.003703960362527426,-0.06744564832361723,-0.08162836429909233,0.19663774854413482,0.04048598030965516,0.0005674464005025994
2074,3.0,299.74912,575.7333,0.0,0.0,0.0,0.021032731976269727,0.0,0.0,-0.052354691435505744,-0.056335561600637046,-0.06631829511660614,0.20951653221767177,0.032103122092081465,0.022192402287219578
2075,3.0,299.46372,435.98657000000003,0.0,0.0,0.0,0.021042873119941987,0.0,0.0,-0.03060925301914807,-0.044532571902772655,-0.05738720577342624,0.17486987373081284,0.05415036414347485,-0.008442202756055542
2076,3.0,300.96017,563.50468,0.0,0.0,0.0,0.021053014263614247,0.0,0.0,-0.08104995047950733,-0.07191919615112202,-0.01832220335101068,0.2073904092678398,0.08821758948114822,0.0005372628047312104
2077,3.0,300.7126,596.2701400000001,0.0,0.0,0.0,0.02106315540728651,0.0,0.0,-0.06786256426276364,-0.05443019545009205,-0.05895847499499845,0.17924230122483784,0.09404835339359982,-0.04061468637710746
2078,3.0,299.83673999999996,641.19439,0.0,0.0,0.0,0.02107329655095877,0.0,0.0,-0.06909582439672693,-0.07449339146742533,-0.05131786705867915,0.2162433577765578,0.05513649055154795,-0.025531074538970872
2079,3.0,298.57754,796.20479,0.0,0.0,0.0,0.021083437694631033,0.0,0.0,-0.052208905011117746,-0.08901408106675582,-0.1008033888485199,0.18407899991468282,0.030628056914503873,-0.015465895902115086
2080,3.0,300.28656,703.50053,0.0,0.0,0.0,0.021093578838303293,0.0,0.0,-0.099650453102984,-0.015005034292881587,-0.09919110630265,0.2166004575093008,0.02768536989458327,0.035519418420743666
2081,3.0,299.46351,322.20903,0.0,0.0,0.0,0.021103719981975553,0.0,0.0,-0.003534146738518127,-0.04768922593306016,-0.04672012820616765,0.18944337899160582,0.043836559263331555,0.016041751265197586
2082,3.0,299.53632999999996,323.83016000000003,0.0,0.0,0.0,0.021113861125647816,0.0,0.0,-0.05082653904543885,-0.018243530560246284,-0.029366211981969474,0.1928234192051898,0.038557473553326366,0.04139577453469486
2083,3.0,298.33884,625.4933900000001,0.0,0.0,0.0,0.021124002269320076,0.0,0.0,-0.04287257743619396,-0.07505921362801764,-0.07220258092583992,0.17540665310378883,0.039080537572948756,0.011431261673427688
2084,3.0,298.70603,632.30604,0.0,0.0,0.0,0.02113414341299234,0.0,0.0,-0.03378868997793407,-0.08989061637051311,-0.06852594315623403,0.2019815282465248,0.044692501272056456,0.0074047222997891925
2085,3.0,300.13525,510.95162999999997,0.0,0.0,0.0,0.0211442845566646,0.0,0.0,-0.015813016134623183,-0.04869573589339495,-0.09080778705628083,0.2227169316054498,0.051819998344485654,-0.036990268477905264
2086,3.0,300.68275,616.24133,0.0,0.0,0.0,0.02115442570033686,0.0,0.0,-0.051360940320430155,-0.07782535803001484,-0.05813567842354474,0.22778700205832678,0.05064582285035355,-0.017792274561960784
2087,3.0,299.7443,580.7103400000001,0.0,0.0,0.0,0.02116456684400912,0.0,0.0,-0.03563737593113517,-0.07663620061990413,-0.06424786849827094,0.20644823866235482,0.04277072046989146,-0.04161075986141226
2088,3.0,300.78111,715.6704599999999,0.0,0.0,0.0,0.021174707987681382,0.0,0.0,-0.09364362685315641,-0.059688890515084844,-0.06421343116712223,0.21845163504449777,0.06094125851943394,0.0009589853794369882
2089,3.0,300.61893,627.0119599999999,0.0,0.0,0.0,0.021184849131353642,0.0,0.0,-0.06553935808898104,-0.07019913013911473,-0.05485749112326285,0.18320979344889882,0.06927472687413323,-0.03390687546959807
2090,3.0,300.30097,404.46746,0.0,0.0,0.0,0.0211949902750259,0.0,0.0,-0.04172237037317736,-0.048844178046295046,-0.032381460881301366,0.20759778103330578,0.06474124530321344,0.022238250840994477
2091,3.0,300.66647,353.68775,0.0,0.0,0.0,0.02120513141869816,0.0,0.0,-0.011527490035424687,-0.05725981389135364,-0.03872494150335416,0.18958560890814283,0.031169959279985473,-0.004117341173399936
2092,3.0,299.49306,582.86414,0.0,0.0,0.0,0.021215272562370425,0.0,0.0,-0.05071994310841865,-0.06367358164634324,-0.06278261867441202,0.22665371221897976,0.029236496717417574,0.033635112673527166
2093,3.0,298.9224,741.19235,0.0,0.0,0.0,0.021225413706042685,0.0,0.0,-0.05503046102133365,-0.08213658927100023,-0.08813691450818623,0.2020262632384398,0.016723178169449182,0.003949337720694286
2094,3.0,299.13167999999996,633.96344,0.0,0.0,0.0,0.021235554849714948,0.0,0.0,-0.08838457208437811,-0.06815968465583713,-0.036164797939437665,0.2300688108860238,0.04982346602944325,0.005361382389752245
2095,3.0,299.71085,506.3484,0.0,0.0,0.0,0.021245695993387208,0.0,0.0,-0.043804816164198755,-0.04504504745885005,-0.06506740544415293,0.17960886471351484,0.047970100887280355,-0.015640964241142984
2096,3.0,300.18703999999997,499.77457000000004,0.0,0.0,0.0,0.021255837137059468,0.0,0.0,-0.04902649213678805,-0.05787804540011835,-0.04501445338533066,0.2039633846471188,0.060994219075660744,-0.014868597127166287
2097,3.0,300.49527,464.67897999999997,0.0,0.0,0.0,0.021265978280731734,0.0,0.0,-0.03358491525032307,-0.05761638572079454,-0.05004950692800175,0.18298091038380984,0.06639133626331474,-0.02809291934980527
2098,3.0,299.70967,447.71837,0.0,0.0,0.0,0.02127611942440399,0.0,0.0,-0.06270725515847424,-0.025831854791405574,-0.047556096015671255,0.2178498860751098,0.05291164765772305,-0.006474835629241524
2099,3.0,300.97607,390.6982,0.0,0.0,0.0,0.021286260568076257,0.0,0.0,-0.02173318518289838,-0.054975653310174545,-0.04205365958612306,0.2111574400921168,0.03822037639080746,-0.014283447220916486
2100,3.0,300.26648,286.3633,0.0,0.0,0.0,0.021296401711748517,0.0,0.0,-0.05081276289707925,-0.018222564389177083,-0.018011964408892484,0.2131779114540218,0.05259766982273586,0.012555647070895888
2101,3.0,301.39099,611.3696,0.0,0.0,0.0,0.021306542855420777,0.0,0.0,-0.03928129382851186,-0.0861953895145726,-0.06036441017125344,0.1887319153013898,0.05394456494216404,-0.026038511202300975
2102,3.0,300.93376,857.81199,0.0,0.0,0.0,0.02131668399909304,0.0,0.0,-0.09990019088163121,-0.08459636737276142,-0.07625686815346694,0.19095644510093382,0.07694257198639062,-0.001158286921964019
2103,3.0,300.53047000000004,600.8011,0.0,0.0,0.0,0.0213268251427653,0.0,0.0,-0.032474836944266866,-0.07387533829067822,-0.07627835716158772,0.2087183444513968,0.05755299375478824,-0.03128230845107347
2104,3.0,299.87494,404.54182000000003,0.0,0.0,0.0,0.021336966286437564,0.0,0.0,-0.015510580231525087,-0.07067148504423253,-0.036788547608246965,0.2166062938298768,0.057551797106420145,-0.0072851375097370925
2105,3.0,299.95014,489.42734,0.0,0.0,0.0,0.021347107430109823,0.0,0.0,-0.008572364965226552,-0.06922708689418154,-0.07097423809461192,0.2165566749724798,0.03512543030486007,-0.023610011117876677
2106,3.0,299.54741,506.56992,0.0,0.0,0.0,0.021357248573782083,0.0,0.0,-0.07458937259639793,-0.05084980630748515,-0.02854542671196427,0.1951768749474578,0.039999078172851664,0.008100313224538674
2107,3.0,300.58007000000003,527.44734,0.0,0.0,0.0,0.021367389717454346,0.0,0.0,-0.03648876034091026,-0.04904757483161875,-0.07479448481414093,0.2010894729909858,0.029861264702577373,-0.01041021866690859
2108,3.0,299.5598,488.7199,0.0,0.0,0.0,0.021377530861126606,0.0,0.0,-0.07007569905168302,-0.031554118869899075,-0.046928826316014555,0.19480011816277482,0.06133958334574554,-0.003633283736252187
2109,3.0,300.2137,653.57336,0.0,0.0,0.0,0.02138767200479887,0.0,0.0,-0.04631373182955945,-0.07244245978101413,-0.07991379111587713,0.22077220068851983,0.044364029907638866,-0.004234381591125926
2110,3.0,300.21804,862.89449,0.0,0.0,0.0,0.02139781314847113,0.0,0.0,-0.096125649847613,-0.06449939162359433,-0.1016733349868769,0.2170099017422098,0.06554760189179465,0.012421270855883987
2111,3.0,300.18408,837.19939,0.0,0.0,0.0,0.02140795429214339,0.0,0.0,-0.07294275404438934,-0.05927028751452194,-0.12227466509256989,0.2137981623702358,0.04860938773312305,0.027424787300115768
2112,3.0,300.04871,596.73734,0.0,0.0,0.0,0.021418095435815653,0.0,0.0,-0.05681712492266365,-0.06463318623304884,-0.05994293865965744,0.21611822138920778,0.062007263485890446,0.030037763750746474
2113,3.0,300.07752999999997,347.66128,0.0,0.0,0.0,0.021428236579487912,0.0,0.0,-0.013746055844880088,-0.027762871368232075,-0.06417142080472614,0.18476374419976183,0.051677604281432456,0.008425867847218412
2114,3.0,300.15321,529.57277,0.0,0.0,0.0,0.021438377723160172,0.0,0.0,-0.060465945937274244,-0.055779653079023155,-0.04473130064488566,0.18103915842217383,0.039486136521728256,-0.018489330849004882
2115,3.0,301.27495,624.7715599999999,0.0,0.0,0.0,0.021448518866832432,0.0,0.0,-0.05315018193001454,-0.06262177636678815,-0.07414299438409384,0.17485765393460684,0.03516599577261357,-0.007800563143480643
2116,3.0,300.01477,413.26203,0.0,0.0,0.0,0.021458660010504695,0.0,0.0,-0.04526970932402245,-0.04879225303167046,-0.03155937561141787,0.2119464275474838,0.06524167128910163,-0.014889930094771686
2117,3.0,300.23765,331.77481,0.0,0.0,0.0,0.021468801154176955,0.0,0.0,-0.016882542145177183,-0.06283188289427404,-0.021136832783542978,0.23882091061228877,0.04510738564475236,-0.029356476675008677
2118,3.0,300.74348,448.4581,0.0,0.0,0.0,0.021478942297849215,0.0,0.0,-0.047708136219676456,-0.03186600738318007,-0.05674592181163644,0.2377320619223278,0.05441296209239125,-0.008520884463420822
2119,3.0,299.51472,509.21039,0.0,0.0,0.0,0.021489083441521478,0.0,0.0,-0.03238647342954607,-0.04824152525781786,-0.07415924488919763,0.2110351002750428,0.014882920430579883,-0.014323494917868886
2120,3.0,300.2984,439.35685,0.0,0.0,0.0,0.021499224585193738,0.0,0.0,-0.04450655265345475,-0.04747086952326005,-0.041576089482740566,0.2171982041407938,0.03256785127694667,-0.007449394368872983
2121,3.0,300.29362000000003,460.54522000000003,0.0,0.0,0.0,0.021509365728865998,0.0,0.0,-0.01675597504868598,-0.06046971421439614,-0.06276855780277434,0.2114655086525208,0.030767486207764472,-0.02198392405264438
2122,3.0,298.86305,583.97368,0.0,0.0,0.0,0.02151950687253826,0.0,0.0,-0.057656671531520445,-0.08604221345720532,-0.03381453089523437,0.21392302518005882,0.04159905276975686,-0.017726415331960982
2123,3.0,299.68616000000003,674.72746,0.0,0.0,0.0,0.02152964801621052,0.0,0.0,-0.06474061708815144,-0.062039817185103235,-0.07831986562206893,0.18752077745685983,0.03847143747408526,-0.016231460054920384
2124,3.0,300.47652999999997,701.92216,0.0,0.0,0.0,0.021539789159882784,0.0,0.0,-0.07690525398520763,-0.06517347651762134,-0.07128807812758553,0.17810761310035284,0.07770630519626523,0.01081287108439729
2125,3.0,300.86297,522.90738,0.0,0.0,0.0,0.021549930303555044,0.0,0.0,-0.05458026589590285,-0.046007129442050154,-0.058363391184768236,0.19474160296949983,0.05657971434473304,0.0012891071357499688
2126,3.0,301.94822,572.5432900000001,0.0,0.0,0.0,0.021560071447227304,0.0,0.0,-0.07152682923539844,-0.039653988493543964,-0.06285804602510614,0.1986783227880238,0.052455403429195246,0.01091323857305279
2127,3.0,301.21787,580.42372,0.0,0.0,0.0,0.02157021259089957,0.0,0.0,-0.056604550117934145,-0.05676014885629054,-0.06306961973873684,0.2164811979725308,0.04057934725336976,-0.0012614345662438986
2128,3.0,299.77434,567.99586,0.0,0.0,0.0,0.02158035373457183,0.0,0.0,-0.06931385251349463,-0.05092199024460915,-0.05242071683852195,0.22870174398360477,0.06258294456995574,0.005310051950286325
2129,3.0,299.47469,467.26836,0.0,0.0,0.0,0.021590494878244094,0.0,0.0,-0.028253474907650872,-0.04841904363558755,-0.06536539520581224,0.2301475606837958,0.05216995466402365,-0.011409286305258889
2130,3.0,299.41017,483.46272,0.0,0.0,0.0,0.021600636021916354,0.0,0.0,-0.03211961476395917,-0.06527091166048744,-0.04957006737818475,0.18461496868757882,0.05133283884215675,0.004635777882465655
2131,3.0,299.8766,671.02816,0.0,0.0,0.0,0.021610777165588613,0.0,0.0,-0.056365353180077245,-0.07362056567228413,-0.07398988722773334,0.17626848310884483,0.038939578272037166,0.015451427703937185
2132,3.0,300.69501,765.8457,0.0,0.0,0.0,0.021620918309260877,0.0,0.0,-0.07766052959649752,-0.06377405248650894,-0.09136338856311442,0.19350743395019682,0.06262449896980685,0.016177723349116983
2133,3.0,300.04591,771.4219,0.0,0.0,0.0,0.021631059452933137,0.0,0.0,-0.06860987471501744,-0.09874215848809231,-0.06714096199204703,0.21582423700519382,0.04100040130592456,-0.013533533729155788
2134,3.0,300.39374,664.58478,0.0,0.0,0.0,0.0216412005966054,0.0,0.0,-0.06336589812097723,-0.07784390861284562,-0.06080737170422035,0.2274915991241728,0.03032519139336337,0.00011753035454684289
2135,3.0,300.19847000000004,425.7183,0.0,0.0,0.0,0.02165134174027766,0.0,0.0,-0.01884368264747668,-0.07570805643555342,-0.034855993931018764,0.25515829177966276,0.03195811587027047,-0.03362987822351057
2136,3.0,300.03772000000004,340.33313,0.0,0.0,0.0,0.02166148288394992,0.0,0.0,-0.007870383877396412,-0.06581342197602903,-0.029768968764218473,0.2311123774290158,0.07280293464984022,-0.003829393226856686
2137,3.0,299.40702000000005,454.50704,0.0,0.0,0.0,0.021671624027622183,0.0,0.0,-0.04391302823512846,-0.05127640993083765,-0.04296935497974516,0.21905770045931178,0.05393396431961785,-0.002226839199171918
2138,3.0,299.05485,457.37768,0.0,0.0,0.0,0.021681765171294443,0.0,0.0,-0.056633133903255146,-0.05319600819228725,-0.02920225291703797,0.17406053008093683,0.06379588295991344,0.0008455192723662551
2139,3.0,298.79916000000003,475.77243,0.0,0.0,0.0,0.021691906314966706,0.0,0.0,-0.054170507555462856,-0.051924461390045355,-0.038527968723664464,0.19507616802001881,0.04251714146011516,0.007539921577857322
2140,3.0,299.69219,677.65391,0.0,0.0,0.0,0.021702047458638966,0.0,0.0,-0.07559420562781723,-0.04932295594379675,-0.08107270503700302,0.2205126769404068,0.07795204469001783,0.0029005635788133376
2141,3.0,300.46909,924.29163,0.0,0.0,0.0,0.021712188602311226,0.0,0.0,-0.08327589781594122,-0.07634894624305433,-0.12133672987250288,0.2133774811937178,0.046036116500910954,-0.006412245144064323
2142,3.0,300.89344,989.8385,0.0,0.0,0.0,0.021722329745983485,0.0,0.0,-0.11670267107015689,-0.08644812144726532,-0.09773539926823291,0.19466971287490484,0.03277343566923627,0.02180195852018578
2143,3.0,300.94245,651.94869,0.0,0.0,0.0,0.021732470889655745,0.0,0.0,-0.07415124223990782,-0.047454407248885354,-0.07657047412566742,0.21541427601473379,0.03621549489494107,0.020150914091740378
2144,3.0,301.05166,440.70724,0.0,0.0,0.0,0.02174261203332801,0.0,0.0,-0.04558154109529786,-0.048677803393125156,-0.039704652011794066,0.24202345980585577,0.06890235442263293,0.021028391718090678
2145,3.0,299.96474,399.74233,0.0,0.0,0.0,0.02175275317700027,0.0,0.0,-0.03877922435096146,-0.047546859227759655,-0.035185602162048565,0.23837917409869275,0.03081728542367927,0.014322876835307885
2146,3.0,300.21177,409.23926,0.0,0.0,0.0,0.021762894320672528,0.0,0.0,-0.03918095065785876,-0.05407262455605255,-0.03114494112176637,0.21452157227913082,0.045733060488751656,-0.02954151944802097
2147,3.0,299.7837,468.14929000000006,0.0,0.0,0.0,0.02177303546434479,0.0,0.0,-0.03649986556200626,-0.059910122528668744,-0.045895706381553554,0.2069345987103548,0.04386803790418826,-0.03793747290988707
2148,3.0,299.9506,499.80537999999996,0.0,0.0,0.0,0.02178317660801705,0.0,0.0,-0.03671261363250287,-0.05990820140647914,-0.05530753932742915,0.2040545264936138,0.09676643326385341,-0.036972904410941566
2149,3.0,299.42836,635.66069,0.0,0.0,0.0,0.021793317751689315,0.0,0.0,-0.05448990323873474,-0.08120411344247201,-0.057530960631363745,0.18117184352276883,0.07317980390528434,-0.02524559436304618
2150,3.0,300.47612999999996,700.93674,0.0,0.0,0.0,0.021803458895361574,0.0,0.0,-0.08236252175179802,-0.04971243104373495,-0.08099231580056922,0.18294208263997783,0.06588888073747623,-0.006047637633380364
2151,3.0,300.14079,648.182,0.0,0.0,0.0,0.021813600039033834,0.0,0.0,-0.053844316003770244,-0.08058500749887101,-0.06260182040606864,0.20753339912195182,0.07008115135047113,0.0032888875253129267
2152,3.0,301.10499,520.76543,0.0,0.0,0.0,0.021823741182706097,0.0,0.0,-0.03679079601021886,-0.06198744026093404,-0.05952144992280974,0.23639621325548976,0.06581509687844433,-0.011050139807313888
2153,3.0,300.22466000000003,372.04402999999996,0.0,0.0,0.0,0.021833882326378357,0.0,0.0,-0.02159137981815328,-0.03803984562049047,-0.053460868728676954,0.23695998561112977,0.017846624284074682,0.0007762872975535913
2154,3.0,299.90067999999997,436.01962000000003,0.0,0.0,0.0,0.021844023470050624,0.0,0.0,-0.033169640776338674,-0.06881469207698133,-0.030554743203518368,0.2086407902887428,0.011457499784767188,-0.012857153823652288
2155,3.0,299.6857,542.0242099999999,0.0,0.0,0.0,0.02185416461372288,0.0,0.0,-0.05717037734477695,-0.05210321187993665,-0.05548823627076255,0.2184387262382238,0.03573572603884157,-0.014422491479139087
2156,3.0,298.50247,523.57829,0.0,0.0,0.0,0.02186430575739514,0.0,0.0,-0.042434481530207256,-0.06372830221799373,-0.05299194164864744,0.2140094047510838,0.06754341479926602,-0.017681180807746683
2157,3.0,299.10262,554.36215,0.0,0.0,0.0,0.021874446901067407,0.0,0.0,-0.054217161643067245,-0.06563394701231623,-0.04866114150848075,0.2251134504769678,0.04829393055298986,-0.008745312267820122
2158,3.0,299.90179,588.20253,0.0,0.0,0.0,0.021884588044739667,0.0,0.0,-0.06106522460291844,-0.04081087996747026,-0.07692277713243702,0.2251061348112458,0.046597258459291364,0.0006686642289070213
2159,3.0,299.33401000000003,617.4123900000001,0.0,0.0,0.0,0.02189472918841193,0.0,0.0,-0.059010716143654246,-0.050613507264914245,-0.07805372737730312,0.2143708817242588,0.05708314360391764,-0.0025241300209122375
2160,3.0,300.2365,587.4247799999999,0.0,0.0,0.0,0.02190487033208419,0.0,0.0,-0.06551833010965574,-0.02886134289439277,-0.08418279211919472,0.2034991641138038,0.08246490864790283,0.0002078779548184568
2161,3.0,300.92368999999997,382.77345,0.0,0.0,0.0,0.02191501147575645,0.0,0.0,-0.05480556408213804,-0.015442267923033185,-0.046105739955032254,0.18348276302583882,0.04880867173629086,0.00981157693027725
2162,3.0,300.1652,379.02585,0.0,0.0,0.0,0.021925152619428713,0.0,0.0,-0.03781696504899386,-0.046586009356681155,-0.03081141971885037,0.18391050655555383,0.04806505559390166,-0.006973675169448153
2163,3.0,300.80507,685.08692,0.0,0.0,0.0,0.021935293763100973,0.0,0.0,-0.06820182978049653,-0.06364230666875664,-0.07640517959710413,0.20925572164193182,0.05967865364932454,0.007580253896762812
2164,3.0,300.73118,795.07415,0.0,0.0,0.0,0.021945434906773236,0.0,0.0,-0.06270531275803254,-0.08777900316211311,-0.09119837369157872,0.2258892859460368,0.07853988578853323,-0.014018711314289087
2165,3.0,300.79644,623.3720099999999,0.0,0.0,0.0,0.021955576050445496,0.0,0.0,-0.041097008623458955,-0.06864409622389483,-0.07974842059355633,0.21093506209266982,0.04369018312738536,0.0008756681440567173
2166,3.0,300.94221,392.31555,0.0,0.0,0.0,0.021965717194117756,0.0,0.0,-0.025620271958523975,-0.03608995928705167,-0.05754389882189065,0.21065965058298877,0.026195387649033473,-0.02186767184217118
2167,3.0,299.96373,544.3380900000001,0.0,0.0,0.0,0.02197585833779002,0.0,0.0,-0.05044928272845655,-0.08132307812346293,-0.03369282638597307,0.2266127566499378,0.06599201845190514,-0.008560139190844961
2168,3.0,299.6577,667.5034400000001,0.0,0.0,0.0,0.02198599948146228,0.0,0.0,-0.07978546907021272,-0.07219959690429542,-0.05091931222459486,0.23632810258376777,0.06791057711875213,-0.028116402434122872
2169,3.0,300.13183,416.08626,0.0,0.0,0.0,0.02199614062513454,0.0,0.0,-0.04864384127627336,-0.04439497456569286,-0.033441017524121465,0.1988148683714998,0.043324723068067256,-0.008595074230442782
2170,3.0,299.87944,334.98618,0.0,0.0,0.0,0.0220062817688068,0.0,0.0,-0.023356448320101978,-0.049176230236566046,-0.02929475555841727,0.19707664795745083,0.008699376270561592,-0.005229832129269245
2171,3.0,300.04882000000003,454.54534,0.0,0.0,0.0,0.02201642291247906,0.0,0.0,-0.03572139969567767,-0.03547988950784246,-0.06696914314608983,0.22596497572850677,0.05980485090952924,0.002075698051980448
2172,3.0,299.76904,650.61109,0.0,0.0,0.0,0.02202656405615132,0.0,0.0,-0.05738889790109324,-0.06325480841976354,-0.07712582029347582,0.24202308490331878,0.07299313486586154,-0.0005022553785462465
2173,3.0,299.81853,952.27706,0.0,0.0,0.0,0.02203670519982358,0.0,0.0,-0.1036138913133949,-0.08805869261371632,-0.0977958619282001,0.19001602741812182,0.04077386188831686,-0.003938270901777076
2174,3.0,301.30052,956.6520300000001,0.0,0.0,0.0,0.022046846343495845,0.0,0.0,-0.1128862240385029,-0.10551757546877391,-0.07239453102478392,0.1958718429260458,0.03153482557474497,0.008675171448197763
2175,3.0,300.6704,642.62525,0.0,0.0,0.0,0.022056987487168105,0.0,0.0,-0.07316815355563452,-0.07459711180066173,-0.047576763277960954,0.2078434232550488,0.08777406863412611,0.0061311982413021545
2176,3.0,301.42699,524.74968,0.0,0.0,0.0,0.022067128630840364,0.0,0.0,-0.06117875218387274,-0.057749121483894536,-0.04058292503947286,0.25472458020685873,0.1003644407991991,0.03055811732635137
2177,3.0,299.89085,517.81965,0.0,0.0,0.0,0.022077269774512628,0.0,0.0,-0.05373317564005155,-0.044851972652295055,-0.058819095350992744,0.2036427923154788,0.024969001403748577,0.02980417819194337
2178,3.0,298.97189,514.86909,0.0,0.0,0.0,0.022087410918184888,0.0,0.0,-0.04091637247513156,-0.04490497779152625,-0.07068599782541483,0.2105894120860568,0.0068907773284167745,0.011312366906693688
2179,3.0,299.18208,513.21069,0.0,0.0,0.0,0.02209755206185715,0.0,0.0,-0.05057138949800755,-0.06053126105197035,-0.04490058535234276,0.2152684490603418,0.037516561725596365,-0.006593963240848505
2180,3.0,299.41255,417.95966,0.0,0.0,0.0,0.02210769320552941,0.0,0.0,-0.050043213631630654,-0.059403165132635945,-0.01760292243627318,0.23664970816550776,0.059715986849259044,-0.034487702850921266
2181,3.0,299.76817,610.60585,0.0,0.0,0.0,0.02211783434920167,0.0,0.0,-0.06932159273100853,-0.06877832247789194,-0.047509017376274956,0.2105520940848738,0.03361946505223287,-0.013799653735419786
2182,3.0,300.40893,867.4702300000001,0.0,0.0,0.0,0.022127975492873934,0.0,0.0,-0.08160076437961843,-0.0889856776399526,-0.09310284615553552,0.2071992495039738,0.03773264237567186,-0.026342196442772376
2183,3.0,300.93422000000004,801.95299,0.0,0.0,0.0,0.022138116636546194,0.0,0.0,-0.06408942252713352,-0.08418751589116091,-0.09549674577554501,0.2101848213211268,0.09249332454463041,-0.0011545408350193088
2184,3.0,300.69382,511.75699999999995,0.0,0.0,0.0,0.02214825778021846,0.0,0.0,0.006678578743449404,-0.07878254500198183,-0.08345738205460232,0.21146769727273682,0.06872951928682543,-0.0034906054565459364
2185,3.0,300.61067,394.65392,0.0,0.0,0.0,0.02215839892389072,0.0,0.0,-0.02047589987581398,-0.05808405231769964,-0.04140498599135396,0.18644354061304483,0.03241375518848857,0.013444775046895988
2186,3.0,298.6319,469.705,0.0,0.0,0.0,0.022168540067562977,0.0,0.0,-0.04655007849488505,-0.05703893347555444,-0.03918957848246026,0.19193427197743781,0.013880976175195684,0.009617302232953831
2187,3.0,299.1865,686.4879900000001,0.0,0.0,0.0,0.022178681211235243,0.0,0.0,-0.08925750021777942,-0.06610687643024074,-0.053310830706869344,0.2195449217698968,0.08691344237018891,0.0031948126237534573
2188,3.0,298.89905,625.97752,0.0,0.0,0.0,0.022188822354907503,0.0,0.0,-0.08121603939614902,-0.06872837228771224,-0.04033712373746416,0.2440991330332088,0.07585333420839122,0.012200272903073189
2189,3.0,299.77476,520.08507,0.0,0.0,0.0,0.022198963498579766,0.0,0.0,-0.050706300709072255,-0.04553272675848025,-0.06185384627499935,0.2065813391954908,0.05431567387078965,-0.009091595454420611
2190,3.0,300.1748,667.18245,0.0,0.0,0.0,0.022209104642252026,0.0,0.0,-0.042866613446105366,-0.056608197818294154,-0.1033319950030739,0.2066653680262838,0.016363675007468985,0.016638288076071185
2191,3.0,300.59722,809.3789400000001,0.0,0.0,0.0,0.022219245785924286,0.0,0.0,-0.07909831021014542,-0.06775751657189623,-0.09917515977257621,0.2066974171269468,0.06973061950487633,-0.006139176673914564
2192,3.0,300.04823,749.87286,0.0,0.0,0.0,0.02222938692959655,0.0,0.0,-0.07668534021000384,-0.06794929137857293,-0.08330799555260901,0.22108482887437378,0.06036935989799195,-0.0018888214989371682
2193,3.0,299.86118,463.62413,0.0,0.0,0.0,0.02223952807326881,0.0,0.0,-0.06595638953863883,-0.03722208794178406,-0.037751681345050865,0.1860836949725308,0.04305355099680466,-0.017234532057665883
2194,3.0,299.33631,221.72641000000002,0.0,0.0,0.0,0.02224966921694107,0.0,0.0,-0.013148053874361887,-0.022933623106372376,-0.03131761515080797,0.23854285451984678,0.030910934050921674,-0.0012907735268644287
2195,3.0,299.48377,473.93510999999995,0.0,0.0,0.0,0.022259810360613332,0.0,0.0,-0.046116445955588864,-0.045138051659028865,-0.052809942678935545,0.23491342305914978,0.07021509794744063,-0.008386651521973062
2196,3.0,299.44644,759.5079400000001,0.0,0.0,0.0,0.022269951504285592,0.0,0.0,-0.044771956291898056,-0.08826927739524941,-0.09783021414634041,0.2461504173306548,0.06399792199010314,-0.015594409452048383
2197,3.0,299.81567,633.23028,0.0,0.0,0.0,0.022280092647957852,0.0,0.0,-0.040566437433845665,-0.08849459787298682,-0.06342515906632584,0.18666037613444483,0.028364391343097473,-0.014948809044832588
2198,3.0,300.27828,474.21860999999996,0.0,0.0,0.0,0.02229023379163011,0.0,0.0,-0.017159565735767286,-0.05895074794973584,-0.06804030048930483,0.22666162570226078,0.021885827257462978,-0.015087903965560184
2199,3.0,300.29386,586.19532,0.0,0.0,0.0,0.022300374935302375,0.0,0.0,-0.07293037719441783,-0.05314691115869175,-0.05211145264299995,0.21632717382482977,0.09018844502540652,-0.01225006806598759
2200,3.0,300.26758,648.24594,0.0,0.0,0.0,0.022310516078974635,0.0,0.0,-0.06709700416295873,-0.061103886173734044,-0.06884968973543534,0.2249617365394948,0.06623118093925864,-0.0024584439553545275
2201,3.0,300.07568,544.14116,0.0,0.0,0.0,0.022320657222646895,0.0,0.0,-0.05113455694333785,-0.05862004743509824,-0.05565072004354845,0.15803471318681184,0.05751156398469945,-0.04047865349818206
2202,3.0,300.12687999999997,454.85227000000003,0.0,0.0,0.0,0.022330798366319158,0.0,0.0,-0.028803422478926474,-0.04556650446381386,-0.06389380446282754,0.1883362208723378,0.05893032589397034,-0.004817184607494105
2203,3.0,300.21184,470.77739,0.0,0.0,0.0,0.022340939509991418,0.0,0.0,-0.03483010843071407,-0.07139156946629933,-0.03688289233830806,0.22015894119799578,0.09587587761846242,-0.03645262986884447
2204,3.0,299.46425,736.14624,0.0,0.0,0.0,0.02235108065366368,0.0,0.0,-0.08478519463489721,-0.07119969029486234,-0.06778518843212723,0.21669954323657978,0.042194003844223955,0.000972928288498046
2205,3.0,299.55747,911.68555,0.0,0.0,0.0,0.02236122179733594,0.0,0.0,-0.1107218914273999,-0.08836239811918972,-0.07804534881222622,0.2066658847838348,-0.006017746552780344,0.0033540551107944664
2206,3.0,299.3417,550.5332400000001,0.0,0.0,0.0,0.0223713629410082,0.0,0.0,-0.06364568687109023,-0.06554773361430764,-0.03815493867284926,0.2212279808485018,-0.007627543798804963,0.01193506279539899
2207,3.0,300.22941000000003,506.75530999999995,0.0,0.0,0.0,0.022381504084680464,0.0,0.0,-0.06670519757454044,-0.04230722542364806,-0.04502853756172066,0.24540677281726275,0.08049009332225372,0.0017426909748152082
2208,3.0,300.9801,849.48581,0.0,0.0,0.0,0.022391645228352724,0.0,0.0,-0.08360308336598192,-0.0905743524717426,-0.08404503975484962,0.24221581520483976,0.07096982235067614,0.007341336311958483
2209,3.0,300.71517,826.2223299999999,0.0,0.0,0.0,0.022401786372024987,0.0,0.0,-0.07830834496843193,-0.08991136975906132,-0.08293124180767633,0.18869662380040683,0.07409422260378043,0.018919802047989084
2210,3.0,300.2314,533.5235299999999,0.0,0.0,0.0,0.022411927515697247,0.0,0.0,-0.03176086140705297,-0.06732522050948193,-0.06309174912092085,0.19768646239763482,0.06369375849558453,0.008670241479836211
2211,3.0,300.53173,286.25228,0.0,0.0,0.0,0.022422068659369507,0.0,0.0,-0.02125664960786798,-0.02952234672962877,-0.036234548049821465,0.21603577322857082,0.07236875191573973,0.008677407184543412
2212,3.0,300.75665,525.7986400000001,0.0,0.0,0.0,0.02243220980304177,0.0,0.0,-0.03878210096799536,-0.06041276550577574,-0.06063479190743804,0.23342543488979675,0.04801310322152436,-0.031835211672890766
2213,3.0,299.9925,727.51753,0.0,0.0,0.0,0.02244235094671403,0.0,0.0,-0.05490460725291285,-0.07961818350520293,-0.08662437123590983,0.21483760498532078,0.017863798873269682,-0.004818149424239326
2214,3.0,299.995,613.90873,0.0,0.0,0.0,0.022452492090386297,0.0,0.0,-0.05411959579093825,-0.07692668219832244,-0.055566645616500945,0.2173157512848948,0.05581899960690635,-0.04587787824604406
2215,3.0,299.07716,410.39971,0.0,0.0,0.0,0.022462633234058556,0.0,0.0,-0.04814102098039886,-0.060327928101402944,-0.016282314064189285,0.20390683515903782,0.06986984006861634,-0.004629426830838855
2216,3.0,299.67492000000004,328.18269,0.0,0.0,0.0,0.022472774377730813,0.0,0.0,-0.04480806751221196,-0.04615067253071675,-0.008800605123127102,0.21068171917016681,0.06406171115014864,-0.024593911415480077
2217,3.0,299.88409,636.20755,0.0,0.0,0.0,0.02248291552140308,0.0,0.0,-0.06012163443404335,-0.05472581825951774,-0.07854375640391523,0.1943763567059528,0.01848168385050018,0.01802336752551788
2218,3.0,300.1317,831.55876,0.0,0.0,0.0,0.02249305666507534,0.0,0.0,-0.06358374790572734,-0.08474531209771112,-0.10444403698782391,0.23351284797592378,0.02802253899785927,0.007454625373839244
2219,3.0,299.74855,561.64495,0.0,0.0,0.0,0.022503197808747603,0.0,0.0,-0.047135953888206454,-0.057769307452386745,-0.06582078019825523,0.23522443004484375,0.06588124792447295,-0.006666835985390484
2220,3.0,300.71729,412.61109,0.0,0.0,0.0,0.022513338952419863,0.0,0.0,-0.03913466235354046,-0.038390183935316166,-0.04789862318547605,0.22357044282718477,0.05603239514421685,-0.023137828465275876
2221,3.0,300.78213999999997,691.0486400000001,0.0,0.0,0.0,0.022523480096092122,0.0,0.0,-0.07666172033692273,-0.06956685599721413,-0.06383295575457223,0.20767739209366282,0.035568444526832166,-0.0032529506853412366
2222,3.0,300.55352999999997,786.4999,0.0,0.0,0.0,0.022533621239764382,0.0,0.0,-0.08049233260497472,-0.07224906884042794,-0.08633492925209411,0.17690549318171284,0.051738265538419245,-0.005182277768950995
2223,3.0,301.32306,567.6298099999999,0.0,0.0,0.0,0.022543762383436645,0.0,0.0,-0.05567697841988995,-0.045337169489180255,-0.07153114162782404,0.2238297233952738,0.06713467173542624,-0.004882670556157065
2224,3.0,300.27436,417.55156,0.0,0.0,0.0,0.022553903527108905,0.0,0.0,-0.030307517271869075,-0.051337868615653155,-0.04527986107677436,0.20305125690709883,0.04565422355147105,-0.007680254183582073
2225,3.0,299.3198,433.52203,0.0,0.0,0.0,0.022564044670781165,0.0,0.0,-0.03880399223640586,-0.04598750886711376,-0.04698837097139116,0.2108755032517918,0.022296409370234277,0.008799089604952532
2226,3.0,300.05976,660.74038,0.0,0.0,0.0,0.022574185814453425,0.0,0.0,-0.05404620203319485,-0.08113556099370642,-0.06566681380580994,0.2120069185784538,0.04304878872133466,-0.012058647896845888
2227,3.0,299.44265,859.2227800000001,0.0,0.0,0.0,0.022584326958125688,0.0,0.0,-0.0945273947361275,-0.07536718491641202,-0.09128769168789372,0.2254940677445318,0.08242120717108982,0.008578521472834152
2228,3.0,299.17347,653.07053,0.0,0.0,0.0,0.022594468101797948,0.0,0.0,-0.05721324593000774,-0.07053275894654133,-0.07077113109881683,0.2024649194717318,0.07651574240826584,-0.012978230117851588
2229,3.0,299.98461000000003,337.0577,0.0,0.0,0.0,0.02260460924547021,0.0,0.0,-0.04493609672859746,-0.017674046513792584,-0.039846982240090964,0.21369684749273682,0.03329616835607597,0.025422483512503775
2230,3.0,299.58857,437.62195,0.0,0.0,0.0,0.02261475038914247,0.0,0.0,-0.022409605618405878,-0.04304055099802166,-0.06757598977673093,0.2275603785409608,0.06625253417186602,-0.016789969589540984
2231,3.0,300.35365,729.31804,0.0,0.0,0.0,0.02262489153281473,0.0,0.0,-0.07218876830047673,-0.06692056590979563,-0.08258513887826863,0.25712740149399876,0.04753340833268216,0.007145598988115712
2232,3.0,300.92006000000003,602.6738,0.0,0.0,0.0,0.022635032676486994,0.0,0.0,-0.05717941958866935,-0.06426589928380044,-0.06175246756274404,0.2142556954528908,0.05392985255071205,-0.03276590316799287
2233,3.0,299.53362999999996,398.20768,0.0,0.0,0.0,0.022645173820159254,0.0,0.0,-0.06219223127839534,-0.044110869370153856,-0.014742089812430985,0.18130107344052282,0.02953740159961457,-0.003717441857757947
2234,3.0,300.74605,504.13777999999996,0.0,0.0,0.0,0.022655314963831517,0.0,0.0,-0.05906242432275745,-0.05147612861829835,-0.04270674284532736,0.19807718176869582,0.07285132342161584,0.001097417847381709
2235,3.0,301.51845,683.0101900000001,0.0,0.0,0.0,0.022665456107503777,0.0,0.0,-0.05825411216148324,-0.07587723576500012,-0.07348669405582203,0.23103320206620176,0.06275983675916365,0.01126956012971899
2236,3.0,299.92797,770.4535400000001,0.0,0.0,0.0,0.022675597251176037,0.0,0.0,-0.03671984013221607,-0.0956860320399761,-0.1017927667761639,0.22280101109874778,0.04672326218872696,-0.00034423986644882966
2237,3.0,299.76569,778.4875900000001,0.0,0.0,0.0,0.0226857383948483,0.0,0.0,-0.045672494477274256,-0.07921041012170883,-0.1117578889921449,0.22413754877565378,0.007223555917684464,0.004791744835908396
2238,3.0,298.95527999999996,478.32014000000004,0.0,0.0,0.0,0.02269587953852056,0.0,0.0,-0.03819740094478997,-0.04633529683143775,-0.06086468112987634,0.1970411031439428,0.05032620729180995,-0.01311615878771409
2239,3.0,299.80976,361.76885,0.0,0.0,0.0,0.022706020682192823,0.0,0.0,-0.05201925904290115,-0.03209046457183227,-0.025858972403831875,0.25920092663113975,0.06508705641659233,-0.0024873029394026874
2240,3.0,300.71852,618.84023,0.0,0.0,0.0,0.022716161825865083,0.0,0.0,-0.08873339153730392,-0.06490042081442284,-0.03447816411447987,0.1991369096507828,0.06939800800055014,-0.019116401951641982
2241,3.0,299.66516,619.24451,0.0,0.0,0.0,0.022726302969537343,0.0,0.0,-0.08746818666743791,-0.03891649643475916,-0.06185018438913795,0.22001374245866578,0.05630801639666855,0.003425174932663447
2242,3.0,298.83135,322.6166,0.0,0.0,0.0,0.022736444113209606,0.0,0.0,-0.01842978315387798,-0.03463056503552067,-0.04500704146084916,0.1969509542825458,0.06823822167108815,-0.03191309514182727
2243,3.0,299.65991,614.69924,0.0,0.0,0.0,0.022746585256881866,0.0,0.0,-0.03923586577352846,-0.08428480411276251,-0.06333254902043593,0.2325872845395778,0.05885304328234315,0.0060140695694924536
2244,3.0,300.30073,873.7446800000001,0.0,0.0,0.0,0.022756726400554133,0.0,0.0,-0.0973019784982076,-0.08282955709389082,-0.08546502972324173,0.19430501376641182,0.03358649186747867,-0.014049011545279487
2245,3.0,300.63965,806.02453,0.0,0.0,0.0,0.022766867544226393,0.0,0.0,-0.09184336310898422,-0.07227413867440213,-0.08089382991734942,0.20055436548067482,0.03424329578105017,0.031209607756398472
2246,3.0,300.58263,493.43319,0.0,0.0,0.0,0.022777008687898653,0.0,0.0,-0.042883185151490866,-0.06205417797877054,-0.045054004589734055,0.19936408032320282,0.08589204168638452,0.0029780489417855468
2247,3.0,299.98068,444.20376,0.0,0.0,0.0,0.022787149831570916,0.0,0.0,-0.02301729932613058,-0.030501471579510872,-0.08150808137972132,0.2517699935777638,0.08164180911466923,0.023767426613662376
2248,3.0,300.72452000000004,622.01419,0.0,0.0,0.0,0.022797290975243176,0.0,0.0,-0.02976249308282937,-0.06857195281677485,-0.09074233616607132,0.24009124252766076,0.06942685725739733,0.00032926803230872467
2249,3.0,300.22923,600.70699,0.0,0.0,0.0,0.022807432118915436,0.0,0.0,-0.05803385996074604,-0.060986091796608646,-0.06357997253585473,0.25776808966472975,0.02120401430492328,0.004653578153597405
2250,3.0,299.79105,563.74491,0.0,0.0,0.0,0.022817573262587695,0.0,0.0,-0.05867489061001085,-0.06093397021146465,-0.05175551409487155,0.2240175293013088,0.055847665465485447,-0.025333249615947077
2251,3.0,300.27052000000003,430.08074000000005,0.0,0.0,0.0,0.02282771440625996,0.0,0.0,-0.06490694006556624,-0.04223042207931817,-0.02359644369903768,0.2266850317795708,0.03657177794810347,-0.022580034285225876
2252,3.0,299.56374,500.7299,0.0,0.0,0.0,0.02283785554993222,0.0,0.0,-0.05744533795816345,-0.07181368641820902,-0.02295035997152418,0.19639619985279583,0.023609598725085976,-0.026261924743350176
2253,3.0,299.74309,777.1073299999999,0.0,0.0,0.0,0.02284799669360448,0.0,0.0,-0.08537334173494282,-0.06071911052775965,-0.09012877270051732,0.2017746428411068,0.029511263800034968,-0.004724467258418616
2254,3.0,300.08329,785.7312099999999,0.0,0.0,0.0,0.02285813783727674,0.0,0.0,-0.05766034658963314,-0.09317118278202982,-0.08801113977327323,0.21263357323529983,0.07440354658105833,-0.006888869074503443
2255,3.0,299.5039,522.00522,0.0,0.0,0.0,0.022868278980949,0.0,0.0,-0.03332035058296257,-0.061817154462378135,-0.06353904635106565,0.22146161605655978,0.0860180808795736,0.015311968013173588
2256,3.0,300.79384,445.55927,0.0,0.0,0.0,0.02287842012462126,0.0,0.0,-0.026118766689721573,-0.04669943662587555,-0.06262069016268094,0.20374859589092081,0.060742881375105647,0.01066448567350279
2257,3.0,301.63081,475.54218,0.0,0.0,0.0,0.022888561268293525,0.0,0.0,-0.05071197896263265,-0.049130440451296956,-0.04471053003108576,0.24309590397669778,0.03104605297825687,0.035447057164852164
2258,3.0,301.18529,449.9206,0.0,0.0,0.0,0.022898702411965784,0.0,0.0,-0.03942936918487576,-0.028171904221600475,-0.06916335447614164,0.23279461577503976,0.06517754471677284,0.0014555611264026986
2259,3.0,300.42036,535.13867,0.0,0.0,0.0,0.022908843555638048,0.0,0.0,-0.04619610869170095,-0.06578299812852643,-0.050689686447182546,0.2527969022891118,0.06490533102440743,-0.018603598102532183
2260,3.0,300.90722999999997,567.70408,0.0,0.0,0.0,0.022918984699310307,0.0,0.0,-0.06702282817613814,-0.04806955645084586,-0.057475480122138246,0.21318362618458578,0.03956565031007566,-0.027116949760734577
2261,3.0,300.23377999999997,630.00232,0.0,0.0,0.0,0.022929125842982567,0.0,0.0,-0.07734251395986183,-0.06480291271754954,-0.04935954845790815,0.2227127570150378,0.050786954403782156,-0.03957021500177616
2262,3.0,301.06512000000004,758.15135,0.0,0.0,0.0,0.02293926698665483,0.0,0.0,-0.07764703006541522,-0.08351568243885613,-0.06929636685651892,0.2201410978637348,0.056928866143691643,-0.02254393218416288
2263,3.0,300.41163,786.23998,0.0,0.0,0.0,0.02294940813032709,0.0,0.0,-0.07813133321571222,-0.08178276841558083,-0.07908322088965622,0.2246456126407958,0.07419361331933952,-0.0063768362073947345
2264,3.0,299.92024,576.8073400000001,0.0,0.0,0.0,0.022959549273999354,0.0,0.0,-0.051386516779454355,-0.04905403126125595,-0.07489448246650994,0.18672693653351383,0.03947470402084996,0.020397802611106377
2265,3.0,299.30023,336.2469,0.0,0.0,0.0,0.022969690417671614,0.0,0.0,-0.015868710439619786,-0.027369818482190774,-0.05897213360634644,0.20955861249432478,0.03618737315166567,-0.0015538389893769687
2266,3.0,300.14631,592.72988,0.0,0.0,0.0,0.022979831561343873,0.0,0.0,-0.04218521288635636,-0.07442329178575702,-0.06356657838278285,0.2367736793152428,0.09060066759008972,0.018831998860573584
2267,3.0,299.60436,702.4218,0.0,0.0,0.0,0.022989972705016137,0.0,0.0,-0.06022770449426164,-0.07742586492633792,-0.07586511729380413,0.24322352282679274,0.1007063590056938,-0.0025680499544467974
2268,3.0,300.13268999999997,627.78015,0.0,0.0,0.0,0.023000113848688396,0.0,0.0,-0.048246086909768046,-0.08525770558053042,-0.05732569845260594,0.21246133085080082,0.05382503892061775,-0.015218155239414985
2269,3.0,300.96687000000003,540.9445,0.0,0.0,0.0,0.02301025499236066,0.0,0.0,-0.03519817760903967,-0.06437857472142064,-0.06485686929862465,0.1883114671723948,0.029561532150746073,0.006597093271732414
2270,3.0,300.1986,643.62278,0.0,0.0,0.0,0.02302039613603292,0.0,0.0,-0.043793845705366055,-0.08077718557908752,-0.07107422257472963,0.24050096033809676,0.03632175848592847,-0.011592335002074388
2271,3.0,300.3685,832.69146,0.0,0.0,0.0,0.02303053727970518,0.0,0.0,-0.06483467405518414,-0.07967371569018353,-0.1086090217888759,0.23888875783898475,0.053778108215736045,-0.0043259376542618055
2272,3.0,301.25178,822.08052,0.0,0.0,0.0,0.023040678423377446,0.0,0.0,-0.1006530093614286,-0.06548059262293134,-0.08375834975830551,0.23634176119511577,0.03812084078048406,-0.029062360568481674
2273,3.0,300.09565,598.92088,0.0,0.0,0.0,0.023050819567049703,0.0,0.0,-0.08616935810625351,-0.053134170551934354,-0.04275346482068846,0.20510343286463278,0.04962558233791365,0.002985456002666567
2274,3.0,300.28596,379.68559,0.0,0.0,0.0,0.02306096071072197,0.0,0.0,-0.06327997045949685,-0.016404686305266484,-0.03573028083280417,0.2205550713245908,0.08050272956425082,0.015207547524118088
2275,3.0,299.37279,590.7871299999999,0.0,0.0,0.0,0.02307110185439423,0.0,0.0,-0.043154958080062755,-0.05788664384046694,-0.07854293364483403,0.22505328368602978,0.07950880214365783,0.02176242758078438
2276,3.0,298.73739,910.63279,0.0,0.0,0.0,0.02308124299806649,0.0,0.0,-0.07749179711034493,-0.08036631367678762,-0.11895151887210088,0.21720529689149376,0.019828999468719882,0.03579652915084237
2277,3.0,300.51895,1084.2518,0.0,0.0,0.0,0.02309138414173875,0.0,0.0,-0.08377439457363901,-0.1119888998824439,-0.13382219012222188,0.21099783293636482,0.020137985020464377,0.024960701872179476
2278,3.0,301.17998,702.03095,0.0,0.0,0.0,0.023101525285411005,0.0,0.0,-0.05434716973689804,-0.1061878201449219,-0.05286489325835875,0.2439616349946388,0.042598147765859865,-0.01151048263249619
2279,3.0,299.62636000000003,402.91521,0.0,0.0,0.0,0.023111666429083272,0.0,0.0,-0.030933877072935972,-0.06993164933796643,-0.021610636636303776,0.23594864042131777,0.10024543558820422,-0.039130635697643065
2280,3.0,299.63611000000003,755.5703900000001,0.0,0.0,0.0,0.02312180757275553,0.0,0.0,-0.09298923954107341,-0.08757595290832361,-0.049109337491464254,0.24111276074847676,0.07045591811195773,-0.036911367705868364
2281,3.0,299.63845,777.80761,0.0,0.0,0.0,0.02313194871642779,0.0,0.0,-0.07201640128621542,-0.08287036168866792,-0.08154732860909472,0.2099756763679858,0.07451923137147552,-0.03354555858993887
2282,3.0,300.48886,309.32597999999996,0.0,0.0,0.0,0.023142089860100055,0.0,0.0,-0.02035797377617558,-0.02813815590051977,-0.04553124538683405,0.21926778773504582,0.05494264466166685,-0.009919559500059301
2283,3.0,300.73818,198.47579,0.0,0.0,0.0,0.023152231003772315,0.0,0.0,0.001080633663450239,-0.029163632889476473,-0.03224868458819737,0.22202969472512477,0.03541879255331267,-0.015905270529727986
2284,3.0,300.24727,485.13789,0.0,0.0,0.0,0.023162372147444578,0.0,0.0,-0.05115902186700236,-0.05096826436342605,-0.04534251843645816,0.23810457318909178,-7.726031404549932e-05,0.01016337067754659
2285,3.0,298.83082,889.4313199999999,0.0,0.0,0.0,0.023172513291116838,0.0,0.0,-0.12709282130558489,-0.06033549302664955,-0.08293659379470451,0.2096255984584358,0.01092682828339399,0.015844188773949684
2286,3.0,299.9214,1150.6514,0.0,0.0,0.0,0.023182654434789098,0.0,0.0,-0.11714456970376888,-0.1103402609097359,-0.12228445308853587,0.21443239613782977,0.04591070146978345,0.016635011225247784
2287,3.0,300.40976,709.45838,0.0,0.0,0.0,0.02319279557846136,0.0,0.0,-0.042934906502845364,-0.09439713231652161,-0.07832559352488422,0.1947584938486668,0.0972615498192176,0.0047730750948658356
2288,3.0,299.5053,382.67094,0.0,0.0,0.0,0.02320293672213362,0.0,0.0,0.02061530687757238,-0.08020714931132933,-0.05673056904612124,0.2407730179899468,0.04544408966623246,0.012938682966448588
2289,3.0,299.26704,667.8481099999999,0.0,0.0,0.0,0.023213077865805884,0.0,0.0,-0.050056038338146355,-0.07255160404203582,-0.08040150587926083,0.23343279108552276,0.037716332088812164,0.008897887366553113
2290,3.0,299.8535,643.12105,0.0,0.0,0.0,0.023223219009478144,0.0,0.0,-0.08295464180548572,-0.03457993799427417,-0.07795815965437133,0.24400838635425276,0.04165651722267816,-0.004142223961405676
2291,3.0,300.21961,217.39002000000002,0.0,0.0,0.0,0.023233360153150404,0.0,0.0,-0.036211165277263764,-0.02740879922678787,-0.0024611727391988377,0.23437141531565775,0.08138321249039772,-0.02054788521591838
2292,3.0,300.84637000000004,17.995516000000002,0.0,0.0,0.0,0.023243501296822667,0.0,0.0,-0.015657022228727786,0.016972606906815884,-0.006785772295378583,0.1965747649179188,0.038326132343494766,-0.024308973328358876
2293,3.0,300.44221,312.80078,0.0,0.0,0.0,0.023253642440494927,0.0,0.0,-0.033951647951766764,-0.016159533483321786,-0.04497244403618466,0.18353900853888983,0.07111441516644633,-0.01233055558768109
2294,3.0,300.73882000000003,919.11183,0.0,0.0,0.0,0.02326378358416719,0.0,0.0,-0.09665116390597721,-0.07550249332151593,-0.1072333929231119,0.2079327108538608,0.055828296176573845,-0.007009413311075234
2295,3.0,300.10132000000004,942.8194199999999,0.0,0.0,0.0,0.02327392472783945,0.0,0.0,-0.0926027667011815,-0.10169693358170591,-0.09229386018294482,0.23542168957431178,0.08399477241738862,-0.0016474123321369386
2296,3.0,299.74907,598.46478,0.0,0.0,0.0,0.02328406587151171,0.0,0.0,-0.03462386947885986,-0.08679154230365832,-0.060502937671925036,0.2367456224199738,0.016571880677767284,0.0010258739803458792
2297,3.0,299.47774,423.47648,0.0,0.0,0.0,0.023294207015183973,0.0,0.0,-0.034997359545220465,-0.06140156182786235,-0.03232735535246157,0.2231852254041668,0.055629249273929454,-0.008024651610421452
2298,3.0,298.90819,602.29075,0.0,0.0,0.0,0.023304348158856233,0.0,0.0,-0.03905110772379426,-0.08407298215285733,-0.059957257910070644,0.24627807671075377,0.056855298106931046,-0.0026144992642059875
2299,3.0,298.58877,841.17893,0.0,0.0,0.0,0.023314489302528496,0.0,0.0,-0.03603523972865127,-0.12024535818979289,-0.09941679459017372,0.2222387180882538,0.1031351306411449,-0.03059853587284037
2300,3.0,300.35038,414.82842999999997,0.0,0.0,0.0,0.023324630446200756,0.0,0.0,0.002361000909137648,-0.06033552241090244,-0.06812296244571293,0.22051621318325582,0.04987946836247025,0.01125160331144679
2301,3.0,299.57675,-123.16779,0.0,0.0,0.0,0.023334771589873016,0.0,0.0,0.03173677645217597,0.01144959238098679,-0.0057464364768541245,0.2003792961283968,0.05617750674403824,-0.010945003963687791
2302,3.0,300.85708,480.50847000000005,0.0,0.0,0.0,0.023344912733545282,0.0,0.0,-0.07698157603574003,-0.02815676018560587,-0.04092423934890796,0.23508752982383277,0.04258184254525066,0.009009455220489002
2303,3.0,300.23836,1058.017,0.0,0.0,0.0,0.023355053877217542,0.0,0.0,-0.14872435318545085,-0.08157190397702012,-0.091314474927787,0.24379066930526577,0.05134311826442125,-0.025127225473114075
2304,3.0,300.23633,1049.2785,0.0,0.0,0.0,0.0233651950208898,0.0,0.0,-0.1207319208878129,-0.09054087975468911,-0.1076816547673519,0.2430605719457108,0.04189778625698956,-0.007218269994562784
2305,3.0,300.87199,695.6211,0.0,0.0,0.0,0.02337533616456206,0.0,0.0,-0.05403208441955154,-0.06399314147613135,-0.0934262198587,0.20377804093882682,0.05433827238776994,-0.03313443236186387
2306,3.0,300.04374,442.03472,0.0,0.0,0.0,0.02338547730823432,0.0,0.0,-0.025431516637145272,-0.056303345313707544,-0.05263265633543875,0.21334902913090978,0.049204305370336855,0.004979620453550276
2307,3.0,300.04433,477.98614000000003,0.0,0.0,0.0,0.023395618451906585,0.0,0.0,-0.04197800526740656,-0.06771411299061264,-0.03560373400131497,0.21102291087633981,0.06683129654948543,0.004854719342873496
2308,3.0,299.36163999999997,634.0258,0.0,0.0,0.0,0.02340575959557884,0.0,0.0,-0.06481303609929864,-0.06015135001972604,-0.06776362444349904,0.2236129486688798,0.029651051783830974,0.026364570018230477
2309,3.0,299.12845,550.47548,0.0,0.0,0.0,0.023415900739251108,0.0,0.0,-0.05442276630035885,-0.057325805857116545,-0.05558222838978885,0.24479113218900378,0.034260456184743764,0.012042819917033789
2310,3.0,299.7452,285.79641000000004,0.0,0.0,0.0,0.023426041882923368,0.0,0.0,-0.0053187287148676555,-0.04008151316123736,-0.04147472900898706,0.24846344439393278,0.061222646178204734,0.0002264363396750268
2311,3.0,300.23447999999996,393.52359,0.0,0.0,0.0,0.023436183026595628,0.0,0.0,-0.0019024154649287884,-0.05914929430683085,-0.05856963621612304,0.24273917914649176,0.06665354107119234,-0.034832970862246564
2312,3.0,300.06532000000004,762.99345,0.0,0.0,0.0,0.02344632417026789,0.0,0.0,-0.08150948878411021,-0.061664204359783134,-0.08875726370965992,0.25507147651109474,0.05331631846941095,-0.016659437645408486
2313,3.0,301.63128,838.5476,0.0,0.0,0.0,0.02345646531394015,0.0,0.0,-0.12293020750976688,-0.04727391802182246,-0.08469340937458872,0.2174262259432978,0.07181286973862842,-0.008266009202791592
2314,3.0,300.84406,476.17349,0.0,0.0,0.0,0.023466606457612414,0.0,0.0,-0.08028707954546782,-0.05041729340954945,-0.014040476939687185,0.24895902501784276,0.04857335757281716,-0.017853086793212482
2315,3.0,300.66274,353.12318,0.0,0.0,0.0,0.023476747601284674,0.0,0.0,-0.04825340764174055,-0.025389728176521076,-0.03369749544243386,0.2151249120511758,0.062457157676041535,-0.025758041548120773
2316,3.0,300.41785,664.46582,0.0,0.0,0.0,0.023486888744956934,0.0,0.0,-0.04663188121520836,-0.06796775279539494,-0.08738138355787112,0.21528661663463478,0.02439541673414018,-0.006568377257273364
2317,3.0,299.60267000000005,773.73127,0.0,0.0,0.0,0.023497029888629197,0.0,0.0,-0.027622955714923472,-0.1114734696890749,-0.09609856161943961,0.2123686083341498,0.022247575781664777,-0.017211439074636785
2318,3.0,298.5856,534.6705900000001,0.0,0.0,0.0,0.023507171032301457,0.0,0.0,-0.03928805119342876,-0.06276458079613184,-0.060473875632556844,0.2136866237992278,0.045693915597638364,0.017083409858251283
2319,3.0,299.86312999999996,419.21774,0.0,0.0,0.0,0.02351731217597372,0.0,0.0,-0.044358973789639856,-0.05696646278865215,-0.026106287501489977,0.2055788903415568,0.05619237314950545,0.013626481187328987
2320,3.0,299.47571,344.80401,0.0,0.0,0.0,0.02352745331964598,0.0,0.0,-0.05025394128142786,-0.01894724896669788,-0.035610618022494364,0.2351899592764418,0.05668338198896424,0.04620880775520425
2321,3.0,300.30274,730.5362,0.0,0.0,0.0,0.02353759446331824,0.0,0.0,-0.06581498542093334,-0.06419400006995453,-0.09205577883344801,0.24518090923747174,0.06560880017133444,0.023340644658292276
2322,3.0,300.26215,1026.7915,0.0,0.0,0.0,0.023547735606990503,0.0,0.0,-0.09855791719590909,-0.1018437129911919,-0.11171733872314289,0.2461862255891888,0.05748240366007154,-0.006482878403235285
2323,3.0,300.82889,781.0394200000001,0.0,0.0,0.0,0.023557876750662763,0.0,0.0,-0.08287683230380652,-0.06341229484305623,-0.09112735499206971,0.23014757081629678,0.045912515187462456,-0.021444975311204276
2324,3.0,300.24901,590.33661,0.0,0.0,0.0,0.023568017894335026,0.0,0.0,-0.07712386978703334,-0.054365907770997354,-0.04795781016356736,0.18739013912146682,0.04772056373215296,-0.024677295819209476
2325,3.0,301.07771,769.7207400000001,0.0,0.0,0.0,0.023578159038007286,0.0,0.0,-0.1020166646507609,-0.07237400865725853,-0.059585210711852445,0.21686394306530477,0.05865187260748914,0.005678223061571984
2326,3.0,300.40667,796.7298400000001,0.0,0.0,0.0,0.023588300181679546,0.0,0.0,-0.1000768034138115,-0.044842901024149756,-0.09726627257793372,0.2121522693052988,0.0966956648371191,-0.004623186730098006
2327,3.0,300.79267999999996,444.51606,0.0,0.0,0.0,0.02359844132535181,0.0,0.0,-0.030536107507679173,-0.07088901464195103,-0.03369666052435147,0.22871432854984677,0.07039747688594003,-0.016860403643742285
2328,3.0,300.17238,170.40954,0.0,0.0,0.0,0.02360858246902407,0.0,0.0,0.03264171112973607,-0.031139679313997068,-0.053302275836275045,0.19579006351047482,0.040663190659394464,-0.015563032136201685
2329,3.0,299.867,316.4841,0.0,0.0,0.0,0.02361872361269633,0.0,0.0,0.016916557964284283,-0.06225450968254174,-0.05086531308701555,0.2579279400005058,0.055714649032107745,0.009210323338863142
2330,3.0,299.05446,562.86109,0.0,0.0,0.0,0.023628864756368592,0.0,0.0,-0.024006357066742975,-0.09586951440783441,-0.05121984423075505,0.25780509355838177,0.06317935675106703,0.0017703411514940685
2331,3.0,299.6461,709.77901,0.0,0.0,0.0,0.023639005900040852,0.0,0.0,-0.07987647919419473,-0.06565992167862973,-0.07021869599854573,0.25209082908942776,0.06978405122239963,0.01100695914105229
2332,3.0,299.98682,708.79422,0.0,0.0,0.0,0.023649147043713112,0.0,0.0,-0.08622353557585043,-0.06320373554847303,-0.06602847215075285,0.18716270500402082,0.056972006279949236,0.014775399396218384
2333,3.0,300.1348,552.41383,0.0,0.0,0.0,0.02365928818738537,0.0,0.0,-0.06385112332886524,-0.048268724943502254,-0.05580016227429724,0.2331301231481518,0.06723001046383544,-0.01054990937869499
2334,3.0,300.46317999999997,808.7634,0.0,0.0,0.0,0.02366942933105764,0.0,0.0,-0.07091211978398133,-0.058139653403687035,-0.11679211065648389,0.23906024028590878,0.08198370097666133,-0.012076165977824788
2335,3.0,300.81012999999996,1064.6615,0.0,0.0,0.0,0.023679570474729895,0.0,0.0,-0.1157942923555069,-0.09528814595095782,-0.11254807208262989,0.25473460125034775,0.023075971573171077,-0.03067794934942787
2336,3.0,300.49226,689.58947,0.0,0.0,0.0,0.023689711618402155,0.0,0.0,-0.09484837210280551,-0.03303734983003257,-0.08173225789809582,0.20299112051366383,0.024394157264265876,0.014644050772505286
2337,3.0,299.82189,251.43092000000001,0.0,0.0,0.0,0.02369985276207442,0.0,0.0,-0.020296815013389678,-0.031481758627257675,-0.02465014679603008,0.21085277605204883,0.03999571012951926,0.0031517743191309066
2338,3.0,300.33,420.69232,0.0,0.0,0.0,0.02370999390574668,0.0,0.0,-0.031359103689402576,-0.05533235179587795,-0.04118850510748896,0.2165118285230538,0.08214347734518002,0.016815372782798085
2339,3.0,300.29264,793.13653,0.0,0.0,0.0,0.023720135049418944,0.0,0.0,-0.04923357917897595,-0.09305200025226741,-0.09880812106960231,0.22115461140876078,0.07608894829389452,0.015056160866427385
2340,3.0,300.37543,788.18832,0.0,0.0,0.0,0.023730276193091204,0.0,0.0,-0.03022649982037327,-0.10988159298696888,-0.09948146933080661,0.2148420328882578,0.07223879245791373,-0.0032996703302271067
2341,3.0,299.60997000000003,535.28607,0.0,0.0,0.0,0.023740417336763464,0.0,0.0,-0.03773647144779976,-0.05897065122145015,-0.06600647753083214,0.23084976326809778,0.03107064557143397,0.0038098811710059965
2342,3.0,300.16188999999997,567.75235,0.0,0.0,0.0,0.023750558480435727,0.0,0.0,-0.05042442973000375,-0.07724208567620033,-0.04491602120436616,0.23425002795367778,0.05677118112337935,-0.007451547120035443
2343,3.0,300.5489,750.7291,0.0,0.0,0.0,0.023760699624107987,0.0,0.0,-0.0860136580428871,-0.08288462115732521,-0.05930462048091035,0.2611834011142948,0.017188042116577682,-0.023142395183476577
2344,3.0,299.53801,701.77906,0.0,0.0,0.0,0.02377084076778025,0.0,0.0,-0.1019157854708049,-0.03380227158227447,-0.07760525680354252,0.25072331635696476,0.05539459878927125,-0.0025117997804453376
2345,3.0,299.17429,417.62605,0.0,0.0,0.0,0.02378098191145251,0.0,0.0,-0.04035944361066696,-0.04396721887697666,-0.04262122960313786,0.23504330145696778,0.06436230901756534,-0.020897007630624083
2346,3.0,299.94265,141.48545,0.0,0.0,0.0,0.02379112305512477,0.0,0.0,0.009522854050057521,-0.03249379586688797,-0.02003710077425788,0.20931403418518682,0.08153511995863982,-0.04957651468857105
2347,3.0,299.28421000000003,363.94121,0.0,0.0,0.0,0.023801264198797033,0.0,0.0,-0.041730239273453956,-0.03226030150059387,-0.036638499453938364,0.19466174872911882,0.046294578362919156,-0.024011291594729974
2348,3.0,299.33662000000004,784.46893,0.0,0.0,0.0,0.023811405342469293,0.0,0.0,-0.09826634232063292,-0.07809028746741133,-0.062102338769273645,0.2088335813852698,0.047169493479766546,-0.012876007368262988
2349,3.0,299.8504,557.6224,0.0,0.0,0.0,0.023821546486141557,0.0,0.0,-0.07227594023307993,-0.042288998067599164,-0.05493834645474265,0.2423389960194968,0.02035884517126158,0.01957541539269308
2350,3.0,299.41107999999997,273.24377000000004,0.0,0.0,0.0,0.023831687629813816,0.0,0.0,-0.012144048668274288,-0.05048598771332905,-0.02042924680145968,0.24423773551438777,0.05897239198512194,0.0017984380701420184
2351,3.0,300.70531,582.65888,0.0,0.0,0.0,0.023841828773486076,0.0,0.0,-0.028272960720323974,-0.09222813470195822,-0.056612653078983846,0.27095399957607774,0.03585012501488186,-0.0002289741258754868
2352,3.0,300.77744,834.75446,0.0,0.0,0.0,0.02385196991715834,0.0,0.0,-0.07300032691507133,-0.08036891367654422,-0.1003752724427681,0.26977351254707277,0.06990271800786113,-0.003243091052593167
2353,3.0,299.97736000000003,664.5362,0.0,0.0,0.0,0.0238621110608306,0.0,0.0,-0.08116793737415172,-0.061820454617953845,-0.05901401832573015,0.27106677431220777,0.05447786076129625,0.010970640204467889
2354,3.0,299.65436,469.6954,0.0,0.0,0.0,0.023872252204502863,0.0,0.0,-0.06940136996438194,-0.04102288735214376,-0.03235141497608607,0.22878158809148477,0.060303961696787645,-0.0025081778166378774
2355,3.0,300.69614,538.62776,0.0,0.0,0.0,0.023882393348175122,0.0,0.0,-0.07902288589920163,-0.04580927006852296,-0.038897234550358165,0.2041474313952828,0.03645771739759657,0.003687152468543616
2356,3.0,300.68536,679.96046,0.0,0.0,0.0,0.023892534491847382,0.0,0.0,-0.06557390890414093,-0.06945854462777463,-0.07165854870864813,0.19405982750721382,0.04521965983533296,-0.005901520382834714
2357,3.0,300.76592999999997,1075.5373,0.0,0.0,0.0,0.023902675635519642,0.0,0.0,-0.10540522629768591,-0.09330311301130031,-0.1282281477776329,0.24444279706962574,0.030359316643481273,0.01038563823273269
2358,3.0,300.66004,859.3543900000001,0.0,0.0,0.0,0.023912816779191905,0.0,0.0,-0.06188079264815874,-0.1043133479899259,-0.0950281409090473,0.22441885740091677,0.06866443924615254,-0.03544591725848967
2359,3.0,300.88786,432.83788,0.0,0.0,0.0,0.023922957922864165,0.0,0.0,-0.03131286199458887,-0.06397355940469873,-0.03628548514559857,0.2336456141365268,0.06098627418162665,-0.016842227963448485
2360,3.0,300.38255,469.99957,0.0,0.0,0.0,0.023933099066536425,0.0,0.0,-0.02238395823187468,-0.07914344948885033,-0.04134072465676186,0.2064004740526408,0.05751768502855354,-0.020702651062692583
2361,3.0,300.66686,683.32083,0.0,0.0,0.0,0.023943240210208685,0.0,0.0,-0.06396158582826704,-0.06959517127125864,-0.07415571168609893,0.25090283387718176,0.05968742535544024,0.026610320657734176
2362,3.0,299.94187,585.93992,0.0,0.0,0.0,0.023953381353880948,0.0,0.0,-0.02737067974477577,-0.07230601248279785,-0.07843441455912402,0.2575474240579518,0.06316558364245774,0.005432603637956234
2363,3.0,299.29624,372.02881,0.0,0.0,0.0,0.023963522497553208,0.0,0.0,0.0057269525893562144,-0.05916681745406024,-0.059647603613260144,0.26948092644819677,0.04913549352954565,0.010908720490856888
2364,3.0,299.09168999999997,418.67998,0.0,0.0,0.0,0.023973663641225475,0.0,0.0,-0.024366598888046077,-0.05916967279284204,-0.043731988813261256,0.2281410316432668,0.05620716862746565,-0.012389961427793987
2365,3.0,300.05978,711.2866700000001,0.0,0.0,0.0,0.02398380478489773,0.0,0.0,-0.08055164623932852,-0.058342641849220445,-0.07731909775005083,0.23962849120699076,0.05751911472444465,-0.0021559718792278576
2366,3.0,299.77578,969.3688800000001,0.0,0.0,0.0,0.02399394592856999,0.0,0.0,-0.1259276748830939,-0.07490482471028062,-0.09383143275919141,0.23430220020132678,0.07325363437382083,-0.014021037736518686
2367,3.0,300.15061000000003,872.4692,0.0,0.0,0.0,0.024004087072242258,0.0,0.0,-0.11677673965246688,-0.061179689440215235,-0.08725242519114391,0.24913807644301375,0.06458603666614553,-0.007911225050502122
2368,3.0,299.89572000000004,389.30811,0.0,0.0,0.0,0.024014228215914517,0.0,0.0,-0.03281780589111527,-0.033125306018213174,-0.05239683352041485,0.21223065433303478,0.03312123781906167,-0.00014852752935352585
2369,3.0,300.90607,391.84677,0.0,0.0,0.0,0.02402436935958678,0.0,0.0,-0.02693107814914047,-0.04913399898564816,-0.043046557544614464,0.23341274899854478,0.04777746380476855,-0.014565776189030185
2370,3.0,300.71693,818.68359,0.0,0.0,0.0,0.02403451050325904,0.0,0.0,-0.09006406046963072,-0.061471365640501444,-0.09732394170737521,0.22561773491923676,0.06552091085766043,0.00849685310947411
2371,3.0,300.83036,660.40053,0.0,0.0,0.0,0.0240446516469313,0.0,0.0,-0.06931628431373464,-0.07355628508594013,-0.05787270151909094,0.24697360197689674,0.06867394555859073,0.00967698509564407
2372,3.0,300.77891,296.19274,0.0,0.0,0.0,0.024054792790603564,0.0,0.0,-0.01231519978241559,-0.04504192360879176,-0.032678073636074764,0.2252453857724888,0.05547864788506624,0.01013473724297069
2373,3.0,300.61489,519.8104900000001,0.0,0.0,0.0,0.024064933934275824,0.0,0.0,-0.02228167468728008,-0.06403395924315973,-0.07169377738812494,0.2287685070326938,0.05157001738581445,0.025492606498924375
2374,3.0,300.41393,875.71333,0.0,0.0,0.0,0.024075075077948087,0.0,0.0,-0.06522103138456464,-0.0924111519880206,-0.10856280745181489,0.25243595220598875,0.04935280021224216,-0.00026818177769998073
2375,3.0,299.74945,994.28271,0.0,0.0,0.0,0.024085216221620347,0.0,0.0,-0.08513307885798073,-0.09820789704161481,-0.1188961447541359,0.26374678201228074,0.030865256736413674,-0.0098550083759386
2376,3.0,300.35103,829.65592,0.0,0.0,0.0,0.024095357365292606,0.0,0.0,-0.09149340374969592,-0.08840712601835402,-0.07229415543012764,0.23952102590138477,0.019492225532982882,-0.018656523195005482
2377,3.0,299.45165,492.60184000000004,0.0,0.0,0.0,0.02410549850896487,0.0,0.0,-0.04666786983226016,-0.04714633868848136,-0.055924449558063444,0.2310736712751958,0.041081530214931355,-0.02114952678079578
2378,3.0,299.86286,522.28452,0.0,0.0,0.0,0.02411563965263713,0.0,0.0,-0.043160012171561554,-0.052514299604507854,-0.06308713984621593,0.20697539215938082,0.07469399978847384,-0.0013677323037596689
2379,3.0,299.9916,733.23745,0.0,0.0,0.0,0.024125780796309393,0.0,0.0,-0.08094769834566583,-0.06775457105385553,-0.07418360747460202,0.2045957033720238,0.08069122752010412,-0.003815378356773527
2380,3.0,299.75879,652.13412,0.0,0.0,0.0,0.024135921939981653,0.0,0.0,-0.06828018846372994,-0.06119221625120154,-0.06876008296284183,0.2061697468723698,0.06318826119294584,0.023727670732738775
2381,3.0,300.23023,267.63551,0.0,0.0,0.0,0.024146063083653913,0.0,0.0,-0.018114132442975682,-0.04458295981699555,-0.018657418908093883,0.22540267258551178,0.07361579326431314,0.008460188046655553
2382,3.0,301.72038,367.05317,0.0,0.0,0.0,0.024156204227326176,0.0,0.0,-0.04496240982044436,-0.057793951721318945,-0.008818636719256681,0.24879383485403977,0.061127770505091245,0.006576805370280154
2383,3.0,300.65099,866.80796,0.0,0.0,0.0,0.024166345370998436,0.0,0.0,-0.09361981648905651,-0.09386498957600321,-0.07600316856692874,0.24725532603470077,0.056146869100764545,-0.008921331440741863
2384,3.0,300.25026,871.6038800000001,0.0,0.0,0.0,0.024176486514670695,0.0,0.0,-0.08460658498676983,-0.08125284266628123,-0.099086386904815,0.2574113952320267,0.03290960837667547,0.015314923663715287
2385,3.0,300.38478,523.7552099999999,0.0,0.0,0.0,0.024186627658342955,0.0,0.0,-0.047804986717234856,-0.05185561307225055,-0.05954790588292075,0.2572365082647668,0.06976435668020593,0.0062679751497759836
2386,3.0,300.05598,488.71450999999996,0.0,0.0,0.0,0.02419676880201522,0.0,0.0,-0.03875739691730726,-0.03093122033117377,-0.07886839059020412,0.26854013386284775,0.05637787695131325,0.003032100363070007
2387,3.0,299.76897,656.5543200000001,0.0,0.0,0.0,0.02420690994568748,0.0,0.0,-0.08900657592326511,-0.05726541108490605,-0.05330413211045825,0.2185764066618118,0.058595494358675046,-0.017838949927817285
2388,3.0,299.48992000000004,870.8760900000001,0.0,0.0,0.0,0.024217051089359738,0.0,0.0,-0.11120850478792489,-0.07233323040698403,-0.08118285038912353,0.2080129399967788,0.018962571334710084,-0.027739078229383877
2389,3.0,299.45718,735.20254,0.0,0.0,0.0,0.024227192233032,0.0,0.0,-0.08111756668518051,-0.06529200955406964,-0.07707363993982602,0.2029254821721858,0.04117858944201036,-0.013721713524477685
2390,3.0,299.41271,316.9254,0.0,0.0,0.0,0.02423733337670426,0.0,0.0,-0.01034982693444839,-0.05724694561508365,-0.028740635423229872,0.22014381337400277,0.06269652585316535,-0.03112965117775737
2391,3.0,299.23669,255.12783,0.0,0.0,0.0,0.02424747452037652,0.0,0.0,-0.0015087900925809885,-0.04469635871518716,-0.03134734086899167,0.1996755432714418,0.09097025968331561,0.018607290385896584
2392,3.0,299.48841,559.90528,0.0,0.0,0.0,0.024257615664048784,0.0,0.0,-0.03631500517401197,-0.07865708437459983,-0.055225133723296356,0.2285929817178708,0.06499943358769464,-0.002022006131831468
2393,3.0,298.67512,746.84431,0.0,0.0,0.0,0.024267756807721044,0.0,0.0,-0.07344770317872393,-0.08403456072231541,-0.06953975864978984,0.24199862504590475,0.10017723372397322,0.025860313946964274
2394,3.0,300.20641,543.0622599999999,0.0,0.0,0.0,0.02427789795139331,0.0,0.0,-0.053533950405389545,-0.061610919563524345,-0.04993249579320365,0.2745543507589047,0.058898662841595444,-0.017100231836411486
2395,3.0,300.95725,432.11384000000004,0.0,0.0,0.0,0.02428803909506557,0.0,0.0,-0.019553100585740783,-0.05926652936990103,-0.05253218853502335,0.24731542189813177,0.05266719600484755,-0.04004294987568146
2396,3.0,301.18371,598.17415,0.0,0.0,0.0,0.024298180238737827,0.0,0.0,-0.05643416096786805,-0.035371081645853966,-0.09002476359100241,0.22100503542899877,0.01894346954382488,0.004800358272358475
2397,3.0,300.63765,750.54759,0.0,0.0,0.0,0.024308321382410094,0.0,0.0,-0.05552379526977195,-0.05866465982375115,-0.11395927615940489,0.23501943941711276,0.04313324514366986,0.003073094536940817
2398,3.0,301.28301,710.44118,0.0,0.0,0.0,0.024318462526082354,0.0,0.0,-0.06574357662013584,-0.06491979820933524,-0.08529300518751423,0.2454417603432158,0.04903600858172725,0.010307217741243189
2399,3.0,300.38077999999996,418.27902,0.0,0.0,0.0,0.024328603669754617,0.0,0.0,-0.07356885850643102,-0.0034306350334773164,-0.05014688532886225,0.23418569670482878,0.07907516149836083,-0.016619944196260786
2400,3.0,300.49681,381.87823,0.0,0.0,0.0,0.024338744813426877,0.0,0.0,-0.053099210383734045,-0.051285068152942155,-0.011697167883920591,0.2369937876344658,0.03132508280404497,-0.00974224052990928
2401,3.0,299.07231,594.65846,0.0,0.0,0.0,0.024348885957099137,0.0,0.0,-0.051219908065511355,-0.05841089234945625,-0.07113052179003593,0.2206553020244828,0.07659894746672753,-0.017107544462383183
2402,3.0,299.04003,848.6025900000001,0.0,0.0,0.0,0.0243590271007714,0.0,0.0,-0.07327190732612424,-0.08233213944754951,-0.1023499530061539,0.24934311773324974,0.049519249845919454,0.014644777272826986
2403,3.0,298.19356,624.24038,0.0,0.0,0.0,0.02436916824444366,0.0,0.0,-0.04996405042781786,-0.08077277186165192,-0.05901666493499135,0.24612882497102379,0.07460197337464153,0.01934836529703498
2404,3.0,299.27648999999997,282.78904,0.0,0.0,0.0,0.024379309388115923,0.0,0.0,-0.00011134187889858789,-0.037705561240249166,-0.048143902663683256,0.24339532951374876,0.05969126050706874,0.018918373365348084
2405,3.0,300.70148,507.71757,0.0,0.0,0.0,0.024389450531788183,0.0,0.0,-0.05866361820264834,-0.044727347956245556,-0.05094249640013295,0.23194414430360474,0.06933491595657343,0.004815722487599806
2406,3.0,300.21517,879.8547900000001,0.0,0.0,0.0,0.024399591675460443,0.0,0.0,-0.07843135758357234,-0.09241366586151872,-0.0966088607143022,0.2594868962068627,0.036541802970395165,-0.027118801981917372
2407,3.0,300.15457999999995,788.0654,0.0,0.0,0.0,0.024409732819132706,0.0,0.0,-0.08809853968714891,-0.07126002224556663,-0.08019364268749633,0.22138441653144078,0.03302794990885487,-0.03569283212235826
2408,3.0,300.61055,430.56102999999996,0.0,0.0,0.0,0.024419873962804966,0.0,0.0,-0.037006706434277566,-0.056029585401689536,-0.037843511188363765,0.2537273394584387,-0.001806306869093608,-0.03737120491925076
2409,3.0,300.1932,86.321928,0.0,0.0,0.0,0.02443001510647723,0.0,0.0,-0.003127448514705137,-0.006227457710077224,-0.016884804732650485,0.2163009914422458,0.05680455048892264,0.007290148842081674
2410,3.0,300.34654,303.72674,0.0,0.0,0.0,0.02444015625014949,0.0,0.0,-0.02008134332662428,-0.05228525644590305,-0.019958743104274583,0.2456230409186068,0.05619673012493545,-0.013595877994558686
2411,3.0,299.61206,787.05033,0.0,0.0,0.0,0.02445029739382175,0.0,0.0,-0.08015924588635162,-0.09054761381485373,-0.06853678797205433,0.2476652160976538,0.08045878794716413,-0.004281666426917577
2412,3.0,299.76187000000004,870.3513,0.0,0.0,0.0,0.02446043853749401,0.0,0.0,-0.07455968031546753,-0.08559126852670051,-0.1044141157123709,0.26293766127742674,0.05312956330372965,0.001152610998878849
2413,3.0,301.17901,613.34265,0.0,0.0,0.0,0.02447057968116627,0.0,0.0,-0.029991949647474973,-0.08868020198655452,-0.06776869879999985,0.23758894034570277,0.06343809725685275,-0.002273528547879798
2414,3.0,301.09165,666.3102200000001,0.0,0.0,0.0,0.024480720824838532,0.0,0.0,-0.046755732801431554,-0.07798187781271212,-0.07780405748641263,0.25505902366736577,0.03366183005216397,0.027762298881925575
2415,3.0,299.38423,961.71923,0.0,0.0,0.0,0.02449086196851079,0.0,0.0,-0.08701322217378642,-0.09224880500399822,-0.1130766035997919,0.2359820371446138,0.06917847216763363,0.03019821595708187
2416,3.0,299.64803,906.8567300000001,0.0,0.0,0.0,0.02450100311218305,0.0,0.0,-0.1149668621913459,-0.06861354774662994,-0.09208139480922611,0.26169209319449876,0.05344612695297205,0.04733919665951496
2417,3.0,299.19757999999996,375.11907,0.0,0.0,0.0,0.024511144255855315,0.0,0.0,-0.05030872974083505,-0.026193896144886274,-0.03752420568435076,0.23805359657656078,0.06824877568412972,0.01769198914656338
2418,3.0,300.48818,386.31012999999996,0.0,0.0,0.0,0.024521285399527575,0.0,0.0,-0.05366810978488005,-0.035091260471737766,-0.028669264112686076,0.23844158017235179,0.057839319994546445,-0.024107222061197576
2419,3.0,300.70763999999997,694.5557,0.0,0.0,0.0,0.024531426543199838,0.0,0.0,-0.07879987664494233,-0.06538452435445014,-0.06694318975802845,0.21796497102146778,0.03654555908851586,-0.04127047602732886
2420,3.0,300.12012999999996,539.44742,0.0,0.0,0.0,0.024541567686872098,0.0,0.0,-0.07674004456965272,-0.05203490666419545,-0.03520359444407426,0.27358894632862674,0.04472240025600725,-0.04653074770947725
2421,3.0,300.27348,582.2935,0.0,0.0,0.0,0.024551708830544357,0.0,0.0,-0.05035542435844345,-0.06705402817321734,-0.059593230586393944,0.2552750485886857,0.04289443729385136,0.013668502695476186
2422,3.0,301.73597,465.49587,0.0,0.0,0.0,0.02456184997421662,0.0,0.0,-0.04136555435046236,-0.05644824109125765,-0.04368532459315586,0.26700809971164774,0.046764697025066256,0.006916964473276243
2423,3.0,300.54196,436.21797999999995,0.0,0.0,0.0,0.02457199111788888,0.0,0.0,-0.01824813578195078,-0.07637644281101802,-0.03797479395082037,0.2021082149065278,0.06712649784686953,0.01143224959227519
2424,3.0,299.96592999999996,867.09012,0.0,0.0,0.0,0.024582132261561147,0.0,0.0,-0.06433710138157754,-0.1003383577151249,-0.0988982861430009,0.21548775691198582,0.06622265950591764,-0.015530339621725184
2425,3.0,299.57558,1031.2056,0.0,0.0,0.0,0.024592273405233407,0.0,0.0,-0.0955928667330314,-0.11090356717032991,-0.1069643344915579,0.2050322013826028,0.1046956472526559,0.011545400244192289
2426,3.0,299.55984,601.99757,0.0,0.0,0.0,0.024602414548905667,0.0,0.0,-0.04034824213081146,-0.07902815783947192,-0.06361582943039354,0.2141684444867798,0.07798366721238872,-0.024022021913288977
2427,3.0,299.89257000000003,325.38917999999995,0.0,0.0,0.0,0.02461255569257793,0.0,0.0,-0.032664321805717565,-0.045087458055035654,-0.02115840589142208,0.22359216690932876,0.05508517652673365,-0.02049521951547068
2428,3.0,299.43681000000004,419.02643,0.0,0.0,0.0,0.02462269683625019,0.0,0.0,-0.05089222298317136,-0.03978553368777646,-0.03669581495909496,0.23756767222610378,0.02680989445043058,0.0018106066972179682
2429,3.0,298.89965,499.82707999999997,0.0,0.0,0.0,0.024632837979922453,0.0,0.0,-0.07044894796451984,-0.04592262134395986,-0.035563381316082464,0.27272935560629175,0.03428445501336227,-0.019006283957274182
2430,3.0,300.31383999999997,559.72635,0.0,0.0,0.0,0.024642979123594713,0.0,0.0,-0.05825370787469335,-0.04150657140662966,-0.07038255576496744,0.2577749595004078,0.032862924904818167,-0.018916372196400584
2431,3.0,300.57255,490.24805,0.0,0.0,0.0,0.024653120267266973,0.0,0.0,-0.06080810732379294,-0.04964571257765036,-0.03856934681799817,0.24412887192364377,0.06064963703465315,-0.03964521070792767
2432,3.0,300.52668,297.76757000000003,0.0,0.0,0.0,0.024663261410939236,0.0,0.0,-0.014776848343861386,-0.024810650678120577,-0.05092640700179504,0.22488850895476778,0.05093304885620055,0.015135077850465885
2433,3.0,299.75145,520.3872299999999,0.0,0.0,0.0,0.024673402554611496,0.0,0.0,-0.05020463045206125,-0.050967625002612954,-0.05701246940944264,0.22677972000141577,0.07119983012337613,0.008525386333615123
2434,3.0,299.40247999999997,1100.8004,0.0,0.0,0.0,0.02468354369828376,0.0,0.0,-0.1219704874125499,-0.08637043353559812,-0.12627492582486488,0.23823149289661777,0.07853735874278382,0.06992421410873265
2435,3.0,299.09508999999997,1070.0979,0.0,0.0,0.0,0.02469368484195602,0.0,0.0,-0.0857680715498996,-0.1007517019476688,-0.13876328396986987,0.24580148439371777,0.054149650815404446,0.012787576979035589
2436,3.0,299.18796000000003,450.26642999999996,0.0,0.0,0.0,0.02470382598562828,0.0,0.0,-0.021137703165378878,-0.05441693301953315,-0.06131511538233074,0.21578529780385078,0.07595690255411262,0.014982392206146986
2437,3.0,298.94435,344.43321000000003,0.0,0.0,0.0,0.024713967129300542,0.0,0.0,-0.04078529134944486,-0.028018436348204376,-0.03589536967159717,0.23444200845012475,0.05740425877260925,-0.02942082514910937
2438,3.0,298.6332,623.17355,0.0,0.0,0.0,0.024724108272972802,0.0,0.0,-0.06441116793738734,-0.046861818060401364,-0.07815621458516783,0.2517967940429088,0.061957347746214135,0.002605594619677168
2439,3.0,297.90824,435.1002,0.0,0.0,0.0,0.024734249416645062,0.0,0.0,-0.05740889641831694,-0.038124960655390665,-0.03672573927429826,0.24166575212305277,0.03415895284272617,-0.042312623006930755
2440,3.0,298.46461,386.08009,0.0,0.0,0.0,0.024744390560317322,0.0,0.0,-0.02256594706908558,-0.03082120670156627,-0.06397155316950073,0.2323069385019098,0.017342217238543584,0.00875686929713571
2441,3.0,299.32816,372.45147000000003,0.0,0.0,0.0,0.02475453170398958,0.0,0.0,-0.03522195149613597,-0.04333016118135396,-0.03466383408930407,0.21205179542538283,0.022612649792694776,-0.026544487772236974
2442,3.0,300.13437000000005,610.10957,0.0,0.0,0.0,0.024764672847661845,0.0,0.0,-0.043450834202013455,-0.07358159303368783,-0.06842564659508553,0.2159614412012348,0.06767501673550413,-0.0012272457853447288
2443,3.0,299.9636,906.2448099999999,0.0,0.0,0.0,0.024774813991334105,0.0,0.0,-0.1022262756989479,-0.10122652715653041,-0.07202299247811593,0.24153071628222578,0.07690251719668753,-0.02249481691206558
2444,3.0,299.57495,1144.9348,0.0,0.0,0.0,0.024784955135006368,0.0,0.0,-0.08076405487104162,-0.14344852203476685,-0.12381902036498588,0.2286946714979068,0.1043900814199989,0.01991890413684278
2445,3.0,300.49332999999996,626.59395,0.0,0.0,0.0,0.024795096278678628,0.0,0.0,-0.04527665312695776,-0.07116214937865734,-0.07403011123020313,0.24327490473936378,0.06876154812248643,0.017660024145658683
2446,3.0,300.65382,338.31902,0.0,0.0,0.0,0.024805237422350888,0.0,0.0,-0.008783943542457732,-0.041729493521380355,-0.05232709759553245,0.24185880666460577,0.05307039760389045,0.013411873802898888
2447,3.0,300.32734,485.60675,0.0,0.0,0.0,0.02481537856602315,0.0,0.0,-0.041333401898289164,-0.05734409806117184,-0.04893482643999136,0.25342470191857075,0.03268074557658847,-0.017378641553138383
2448,3.0,300.29321,535.3798400000001,0.0,0.0,0.0,0.02482551970969541,0.0,0.0,-0.07635602379500282,-0.04341821362829405,-0.04296786550209816,0.25873286587994576,0.04415115011462926,-0.02368713464923818
2449,3.0,299.70977999999997,372.48559,0.0,0.0,0.0,0.024835660853367674,0.0,0.0,-0.04621161952423175,-0.055849966556462544,-0.01116473231412329,0.22794431926885278,0.026227417497944577,-0.04711950478608305
2450,3.0,299.14883,450.44395999999995,0.0,0.0,0.0,0.024845801997039934,0.0,0.0,-0.06225493119458335,-0.03619103909052747,-0.038477743942707664,0.2277281018300138,0.09015437246429382,-0.02799665653730487
2451,3.0,300.11582999999996,750.24035,0.0,0.0,0.0,0.024855943140712194,0.0,0.0,-0.08622782972977423,-0.07362751048846952,-0.06819899369346664,0.24915785508496577,0.04306343018527966,-0.008420105291249692
2452,3.0,298.63886,761.82571,0.0,0.0,0.0,0.02486608428438446,0.0,0.0,-0.07345193755089184,-0.07269691829187723,-0.08542713822250211,0.24842839607297376,0.08777204112067602,0.005597353037965735
2453,3.0,299.40472,896.4933,0.0,0.0,0.0,0.024876225428056717,0.0,0.0,-0.08676279943807161,-0.09005118003435951,-0.0956975972766175,0.2495144177951558,0.04553735629818716,0.013099172663037688
2454,3.0,299.60145,742.65846,0.0,0.0,0.0,0.024886366571728984,0.0,0.0,-0.07786686176736092,-0.06787218304596294,-0.08001058284492972,0.2376553386247558,0.09726216891502872,0.035219640272657865
2455,3.0,299.5499,420.22247000000004,0.0,0.0,0.0,0.024896507715401243,0.0,0.0,-0.027675022584562076,-0.07412384294395373,-0.025938272396408175,0.24151181916786074,0.06355029038742534,0.005303600080274575
2456,3.0,300.00133,476.24654000000004,0.0,0.0,0.0,0.024906648859073503,0.0,0.0,-0.036735848470545965,-0.05360258290091305,-0.054428625925687146,0.24607296449301078,0.08984170070868551,0.0035741745757685668
2457,3.0,300.58439,679.6037299999999,0.0,0.0,0.0,0.024916790002745767,0.0,0.0,-0.055910206301407736,-0.08061832822840952,-0.07005402867179433,0.24234935143551875,0.03911309532516197,0.010995219625393689
2458,3.0,299.41782,476.47544000000005,0.0,0.0,0.0,0.024926931146418026,0.0,0.0,-0.024922887378447476,-0.06360153348473263,-0.05631221631833304,0.2373632287534268,0.056520777639416445,-0.020045291888066284
2459,3.0,299.81321,508.66337999999996,0.0,0.0,0.0,0.02493707229009029,0.0,0.0,-0.05553361974274155,-0.06990895658872684,-0.02917839087718297,0.23230022065374675,0.034649487481138164,-0.037780572145152166
2460,3.0,300.13101,657.28616,0.0,0.0,0.0,0.02494721343376255,0.0,0.0,-0.09545612660553622,-0.07548594694738292,-0.02885650665166547,0.23485642774102478,0.038208006633586665,-0.05752450420172655
2461,3.0,300.53494,656.87425,0.0,0.0,0.0,0.02495735457743481,0.0,0.0,-0.07013375828241303,-0.08068215690520893,-0.04885745364910525,0.25683976005561077,0.006722761919359944,-0.02100086981887448
2462,3.0,300.64035,680.35189,0.0,0.0,0.0,0.024967495721107073,0.0,0.0,-0.053321626886684854,-0.07564928286350292,-0.07783907844961893,0.2389592800459448,0.038687819059440465,-0.02022798290759648
2463,3.0,299.96171,683.64653,0.0,0.0,0.0,0.024977636864779332,0.0,0.0,-0.045426737758269956,-0.07395048497109463,-0.08843425275003122,0.27961725753357475,0.05630191359131624,0.04149088021558106
2464,3.0,298.76564,480.99800999999997,0.0,0.0,0.0,0.024987778008451592,0.0,0.0,-0.024131840998877274,-0.042394850279045965,-0.07968469425501702,0.23556526711348177,0.0906456477885289,0.02597907192493477
2465,3.0,299.15281,475.43850999999995,0.0,0.0,0.0,0.024997919152123852,0.0,0.0,-0.05073546204695025,-0.04560054054792296,-0.04818543375878205,0.25785118630543075,0.04612231368691796,0.027359472185419675
2466,3.0,299.21486,734.14765,0.0,0.0,0.0,0.025008060295796115,0.0,0.0,-0.07465189012756793,-0.07442125920605643,-0.07408940459955493,0.24867709831001877,0.07773157261400893,-0.0008190016357216683
2467,3.0,299.27393,808.62961,0.0,0.0,0.0,0.025018201439468375,0.0,0.0,-0.08118161219750132,-0.10793308264716589,-0.05668851308747065,0.2611424151477498,0.057766215013081545,-0.02025092187661038
2468,3.0,299.59166,561.17384,0.0,0.0,0.0,0.025028342583140635,0.0,0.0,-0.04965337173515625,-0.059108000312255445,-0.06182146280180335,0.20786304990948581,0.07091489608925533,-0.014629126611782384
2469,3.0,300.65975,518.87365,0.0,0.0,0.0,0.0250384837268129,0.0,0.0,-0.050617278581786454,-0.04170761947822156,-0.06539973627820143,0.23234756983091978,0.02844992282378877,-0.01891942613220198
2470,3.0,300.58841,615.85303,0.0,0.0,0.0,0.025048624870485158,0.0,0.0,-0.06298487555337323,-0.04795109738165486,-0.07626796932156252,0.2224135543930088,0.05483216493701335,0.01045917283223999
2471,3.0,300.84378,642.15022,0.0,0.0,0.0,0.025058766014157418,0.0,0.0,-0.11950035592126688,-0.03461785077326587,-0.04107942366797346,0.26353279372366173,0.03136130953487027,-0.013836854199591188
2472,3.0,299.1411,579.8614200000001,0.0,0.0,0.0,0.02506890715782968,0.0,0.0,-0.08413261394774252,-0.04303681413165286,-0.04909396344769695,0.23163844674843478,0.04738308153459605,-0.013344277862227687
2473,3.0,299.33783999999997,486.3244,0.0,0.0,0.0,0.02507904830150194,0.0,0.0,-0.05287624368597895,-0.04029606279041176,-0.05465816962984135,0.25208334117118875,0.00989634320449303,-0.017032728101499386
2474,3.0,299.4697,641.8321599999999,0.0,0.0,0.0,0.025089189445174204,0.0,0.0,-0.021585679273090682,-0.08260338751256963,-0.09091188229205421,0.2679080785829687,0.05776845429580254,0.01049135365541599
2475,3.0,299.34087999999997,746.7824099999999,0.0,0.0,0.0,0.025099330588846464,0.0,0.0,-0.030269441359611272,-0.09429264292645931,-0.10244112525015191,0.2768329171862817,0.07194716084063194,-0.0034074028298844766
2476,3.0,299.15747000000005,712.68637,0.0,0.0,0.0,0.025109471732518724,0.0,0.0,-0.048024664405165354,-0.0966761881436969,-0.07193800713922853,0.24268375436602174,0.1050387134715139,0.015623305318400185
2477,3.0,300.34559,435.19235,0.0,0.0,0.0,0.025119612876190987,0.0,0.0,-0.054961226655250744,-0.053931128232587944,-0.02339525174593158,0.2063843836410528,0.07380731374521472,-0.011917229593638988
2478,3.0,301.02775,488.3415,0.0,0.0,0.0,0.025129754019863247,0.0,0.0,-0.04248600225804196,-0.07387446790884233,-0.03208315295911067,0.2028460940268508,0.06668631869867724,-0.05216863237264315
2479,3.0,301.03992,699.81704,0.0,0.0,0.0,0.02513989516353551,0.0,0.0,-0.07273427580981413,-0.09218362566481551,-0.047809004253881356,0.2246721091309108,0.04102601424195236,-0.029739255205035973
2480,3.0,300.12946,784.54566,0.0,0.0,0.0,0.02515003630720777,0.0,0.0,-0.07754550848489583,-0.07483130226977452,-0.08610548079344932,0.22346414275919382,0.048311873185760655,-0.01149777748949229
2481,3.0,299.15826,627.59974,0.0,0.0,0.0,0.02516017745088003,0.0,0.0,-0.04687390917384466,-0.04561771817686825,-0.0982830224437791,0.23760030901182477,0.029025063845550772,0.030234153911628675
2482,3.0,300.253,613.77982,0.0,0.0,0.0,0.025170318594552297,0.0,0.0,-0.07981295145267502,-0.02953981617460287,-0.07722097055736643,0.23613208935192279,0.07869297166664163,0.02617630510990018
2483,3.0,299.62277,836.60156,0.0,0.0,0.0,0.025180459738224553,0.0,0.0,-0.11900392416727289,-0.05293684718771005,-0.08236520990431333,0.2839252929837447,0.050406427315477044,0.03683774495360236
2484,3.0,300.02702999999997,993.17175,0.0,0.0,0.0,0.02519060088189682,0.0,0.0,-0.1057858435652499,-0.08648166103882542,-0.1096319078973269,0.2686197347907037,0.06157072190555714,-0.0033825625983829365
2485,3.0,300.27918999999997,869.13688,0.0,0.0,0.0,0.02520074202556908,0.0,0.0,-0.0882245434165845,-0.08901592720843801,-0.08695543854708361,0.25466844615131873,0.05081181044198525,0.016471902277150185
2486,3.0,300.42969,458.13575,0.0,0.0,0.0,0.02521088316924134,0.0,0.0,-0.014019381072605187,-0.05484824926910074,-0.07039419699536634,0.25772210837519177,0.04857740753346686,-0.0062955056616180345
2487,3.0,301.17568,386.72119,0.0,0.0,0.0,0.025221024312913603,0.0,0.0,0.016289717882669984,-0.07630633198359862,-0.05753697123095694,0.23261828999263778,0.06367404470163894,-0.006225186611303083
2488,3.0,300.42269,524.00486,0.0,0.0,0.0,0.025231165456585863,0.0,0.0,-0.058558420550766155,-0.05424745782105725,-0.046478513653572154,0.23210865558984078,0.09572661473298132,-0.008247171667532471
2489,3.0,300.62158999999997,667.45329,0.0,0.0,0.0,0.025241306600258126,0.0,0.0,-0.08410287201755721,-0.07177164059205944,-0.047014621241731856,0.21411415454642177,0.061304267526760145,0.0010615079598626789
2490,3.0,300.94327999999996,415.98492000000005,0.0,0.0,0.0,0.025251447743930386,0.0,0.0,-0.05706788709716194,-0.05417047209170935,-0.015210670360926284,0.21608755030868082,0.08349380839569732,-0.04945977307829955
2491,3.0,299.43735,361.45747,0.0,0.0,0.0,0.025261588887602646,0.0,0.0,-0.02316120211858268,-0.05353118727236685,-0.03318165690927457,0.22014060137118577,0.06235051512951674,-0.008452876433933951
2492,3.0,299.2854,729.09784,0.0,0.0,0.0,0.025271730031274905,0.0,0.0,-0.05320429657810524,-0.07634784787994593,-0.09207539332888381,0.2661517817871358,0.04333131425996776,-0.00986023917825484
2493,3.0,300.1374,840.42885,0.0,0.0,0.0,0.025281871174947165,0.0,0.0,-0.06737867857150784,-0.06982026275447344,-0.11827044255238388,0.24658839468637975,0.04598459881282655,0.026976734185396374
2494,3.0,300.1073,493.78986,0.0,0.0,0.0,0.02529201231861943,0.0,0.0,-0.059535289905925645,-0.053833878514490154,-0.03673061706027966,0.2679836062454228,0.03577176633164847,-0.011589708657815188
2495,3.0,300.7721,497.32365,0.0,0.0,0.0,0.02530215346229169,0.0,0.0,-0.03736835059371907,-0.06866753877820843,-0.04513808205653186,0.24438973316188878,0.06113040394210114,-0.0012791080797881387
2496,3.0,300.31657,530.53655,0.0,0.0,0.0,0.025312294605963948,0.0,0.0,-0.03843659484289657,-0.1004911254327019,-0.022342144439997977,0.23944852785672974,0.06506706904511973,-0.03314749923515347
2497,3.0,299.36894,512.7094599999999,0.0,0.0,0.0,0.02532243574963621,0.0,0.0,-0.046776491256230256,-0.07106665258323253,-0.038007730658570965,0.27049428800570774,0.03802566315884076,-0.016774802248794084
2498,3.0,299.62202,584.1731599999999,0.0,0.0,0.0,0.02533257689330847,0.0,0.0,-0.02906626968736747,-0.07294683744229234,-0.07556094670653483,0.26017318063209377,0.03087195634607487,-0.012135186782899687
2499,3.0,298.6913,407.18732,0.0,0.0,0.0,0.025342718036980735,0.0,0.0,-0.029284854078440076,-0.043992666653238165,-0.050497259107441454,0.26533719963424274,0.044773385987789155,0.015335655774011385
2500,3.0,298.30155,292.56717000000003,0.0,0.0,0.0,0.025352859180652994,0.0,0.0,-0.03687868431064276,-0.024618961997702374,-0.02743546796941987,0.2349251159653038,0.031086313457730268,0.026230375174986473
2501,3.0,299.20328,695.15977,0.0,0.0,0.0,0.025363000324325254,0.0,0.0,-0.08069193882167432,-0.06475396665821895,-0.06586530848714983,0.2369624376763718,0.07989414115668782,0.015072467100286686
2502,3.0,298.96034,934.1256699999999,0.0,0.0,0.0,0.025373141467997518,0.0,0.0,-0.11593767737715788,-0.07114673277838583,-0.0968664633402256,0.23091024416656677,0.07106383169495413,0.0019473371988372181
2503,3.0,299.21278,640.10973,0.0,0.0,0.0,0.025383282611669777,0.0,0.0,-0.07803337422254443,-0.07113830355080394,-0.045405698633193554,0.23717993181033678,0.1002302094789515,-0.02370314298756808
2504,3.0,299.92991,452.38016,0.0,0.0,0.0,0.02539342375534204,0.0,0.0,-0.015221079479203585,-0.06428513279719865,-0.058006061444252535,0.23685380713315077,0.06300243112460585,-0.015384971669628485
2505,3.0,300.42759,545.75663,0.0,0.0,0.0,0.0254035648990143,0.0,0.0,-0.03280066068617317,-0.07037212232868774,-0.06272360496208784,0.28054509065014477,0.038670854213016165,-0.008595201494655341
2506,3.0,300.47619,486.2947,0.0,0.0,0.0,0.02541370604268656,0.0,0.0,-0.03994201901997036,-0.07070551606209113,-0.03717391195252946,0.2773626240735597,0.015123785178101383,-0.017913795672953984
2507,3.0,300.23597,385.47479,0.0,0.0,0.0,0.025423847186358824,0.0,0.0,-0.013578456172339286,-0.07605432553797753,-0.02754193015742687,0.28382312697616174,0.04774965718227425,-0.036163364190546166
2508,3.0,299.87557000000004,373.62282999999996,0.0,0.0,0.0,0.025433988330031083,0.0,0.0,-0.02125032692724398,-0.06476017281508144,-0.027561512228859473,0.23241817309788776,0.051030998730117454,-0.016596295952176883
2509,3.0,299.74097,407.8687,0.0,0.0,0.0,0.025444129473703347,0.0,0.0,-0.02794660704861537,-0.059700445619225245,-0.03633484663747017,0.2057631498722418,0.08120841874214692,-0.016985079002296784
2510,3.0,299.94787,621.42709,0.0,0.0,0.0,0.025454270617375607,0.0,0.0,-0.010477855137583791,-0.08704059309873773,-0.09137986907599091,0.23895785136330375,0.050670082084247746,-0.009617666293714761
2511,3.0,299.90483,856.33525,0.0,0.0,0.0,0.025464411761047866,0.0,0.0,-0.0995539390044588,-0.04915749422896695,-0.11159310412838189,0.22736197403887978,0.07296298864888634,0.008459837766095981
2512,3.0,300.15157,822.01996,0.0,0.0,0.0,0.025474552904720133,0.0,0.0,-0.08676695680323192,-0.05691737082130715,-0.1061892184300599,0.26052457576677374,0.03763216849575586,0.01050181140969809
2513,3.0,300.2866,508.69569,0.0,0.0,0.0,0.025484694048392393,0.0,0.0,-0.05839377146251654,-0.04759340388435326,-0.04864361228175075,0.2096500380508478,0.06461562255581543,-0.00930373192715685
2514,3.0,299.94479,662.33365,0.0,0.0,0.0,0.025494835192064656,0.0,0.0,-0.06935822881487423,-0.06348601182758153,-0.06848864947305343,0.2403988044630148,0.05968721966566994,-0.016514732358877182
2515,3.0,298.08543,758.038,0.0,0.0,0.0,0.025504976335736916,0.0,0.0,-0.08770008921782492,-0.05230608582820875,-0.09041844975835622,0.24505071673212278,0.08681735687645602,-0.014819739220594385
2516,3.0,299.01374,570.9159999999999,0.0,0.0,0.0,0.025515117479409176,0.0,0.0,-0.025718912869009077,-0.06503392462109864,-0.08279136972412202,0.2742683001231737,0.08124308912081862,-0.017900955767686782
2517,3.0,299.43407,213.18767000000003,0.0,0.0,0.0,0.02552525862308144,0.0,0.0,-0.0019292529137024384,-0.023302587997786377,-0.03957188787769126,0.23027970876183776,0.059070423932296945,0.014802175543360985
2518,3.0,300.19178,247.5417,0.0,0.0,0.0,0.0255353997667537,0.0,0.0,0.01911353344060888,-0.05912456897789065,-0.03523546115971926,0.25532640010375374,0.01794842248187138,-0.013661123194997885
2519,3.0,300.18121,464.7242,0.0,0.0,0.0,0.02554554091042596,0.0,0.0,-0.04478750562793266,-0.04334731854529726,-0.05312972643699575,0.23170623318012476,0.05326188262103855,0.020812786282312083
2520,3.0,300.53761000000003,860.27128,0.0,0.0,0.0,0.02555568205409822,0.0,0.0,-0.11548224172220989,-0.06112252794907384,-0.08489621644835421,0.2653618925391797,0.04825696110984125,-0.0003645661903448817
2521,3.0,300.13484,1079.139,0.0,0.0,0.0,0.02556582319777048,0.0,0.0,-0.10922704355486991,-0.09363767907506941,-0.1251665923354809,0.2162831278429828,0.08378242458068152,0.006167058682216305
2522,3.0,300.51934,625.43082,0.0,0.0,0.0,0.025575964341442742,0.0,0.0,-0.04032958211696986,-0.04889521038758155,-0.1008905607811231,0.21852272467151382,0.08258291580754923,-0.027752868563244874
2523,3.0,299.61571000000004,499.33110999999997,0.0,0.0,0.0,0.025586105485115,0.0,0.0,-0.03716532263143177,-0.04450301033110516,-0.07011585516639614,0.23686492248674776,0.07485213975808103,0.006191881789791154
2524,3.0,299.00049,810.23604,0.0,0.0,0.0,0.025596246628787265,0.0,0.0,-0.07789384461752392,-0.06830796367547114,-0.10008971728633599,0.27014742209897474,0.06574717061824054,-0.015489554278699986
2525,3.0,298.32797,724.04953,0.0,0.0,0.0,0.025606387772459525,0.0,0.0,-0.08554228396386611,-0.05952126348479135,-0.07502943015457823,0.2631131257972438,0.03473216868929817,-0.002994442011178417
2526,3.0,299.43461,163.55365,0.0,0.0,0.0,0.025616528916131785,0.0,0.0,-0.006972943298900924,-0.06129072645242374,0.01854744378199018,0.26368297765348375,0.016112382903168385,-0.04281836956909405
2527,3.0,300.21299,139.18098,0.0,0.0,0.0,0.025626670059804048,0.0,0.0,0.02341747333387468,-0.039490024362361965,-0.026234992555692175,0.22317170864783278,0.04352436778827066,-0.02195664938645258
2528,3.0,300.42973,565.0452700000001,0.0,0.0,0.0,0.025636811203476308,0.0,0.0,-0.03376737727533067,-0.06252298853503854,-0.07546928708923874,0.24483610022844177,0.06718634343752583,-0.021151827871772878
2529,3.0,300.31416,899.77267,0.0,0.0,0.0,0.02564695234714857,0.0,0.0,-0.08280799411851271,-0.09874998483186471,-0.0919504464193025,0.24220662502643278,0.07576835798875473,0.016035136768544785
2530,3.0,301.21991,965.78172,0.0,0.0,0.0,0.02565709349082083,0.0,0.0,-0.08915517006368022,-0.10280819536387889,-0.1016101689756429,0.25070608097276376,0.07270317815099503,0.006202173168406834
2531,3.0,300.23033,595.76145,0.0,0.0,0.0,0.02566723463449309,0.0,0.0,-0.06573041956758734,-0.047267225504911956,-0.06809895855084393,0.22870188583861878,0.07246840607632483,0.02319481871715038
2532,3.0,300.60468,600.9079,0.0,0.0,0.0,0.025677375778165354,0.0,0.0,-0.09382845279064732,-0.04944270893336545,-0.03938983520572406,0.24620370415341375,0.03292673129011537,0.016065441052535587
2533,3.0,300.27345,963.7328,0.0,0.0,0.0,0.025687516921837614,0.0,0.0,-0.097059147032242,-0.06989640545973815,-0.1259951573397539,0.25137731863400975,0.04310807601118586,9.6329748815256e-05
2534,3.0,299.57289,812.3448400000001,0.0,0.0,0.0,0.025697658065509877,0.0,0.0,-0.1019000902267559,-0.07764242788346101,-0.06739002899912803,0.25459606969667575,0.02743815916168547,-0.025170311907116372
2535,3.0,299.64247,191.952,0.0,0.0,0.0,0.025707799209182137,0.0,0.0,-0.009089851043048451,-0.03519340824081897,-0.014065354256142385,0.24230993600662876,0.05359076536499675,-0.01845943997105488
2536,3.0,300.39527999999996,54.945542,0.0,0.0,0.0,0.025717940352854397,0.0,0.0,-0.0089565149292642,-0.01907412611771968,0.011328568775792688,0.2217544656004618,0.06190627386167354,-0.01009342977216896
2537,3.0,299.44484,568.15932,0.0,0.0,0.0,0.02572808149652666,0.0,0.0,-0.06619487720142574,-0.08320330756552713,-0.023308063601326773,0.25670637581244676,0.06836658019375615,-0.015562972354445787
2538,3.0,300.16076,808.88887,0.0,0.0,0.0,0.02573822264019892,0.0,0.0,-0.06337963272608274,-0.0889178658770101,-0.0935845209350731,0.2597196904173377,0.04838323233730325,0.002083210288221848
2539,3.0,299.81853,669.05974,0.0,0.0,0.0,0.025748363783871187,0.0,0.0,-0.016130385317695086,-0.1216554983539629,-0.06559156580038353,0.25832271237196675,0.04885676869203766,-0.04859951766389895
2540,3.0,300.19394,615.4979099999999,0.0,0.0,0.0,0.025758504927543443,0.0,0.0,-0.039663687323501166,-0.05502214325126274,-0.0924101640691731,0.23964578738619777,0.052810914385781456,0.023958691755538775
2541,3.0,300.70002,775.34241,0.0,0.0,0.0,0.025768646071215703,0.0,0.0,-0.09727457109625272,-0.08392343758384842,-0.05448672264667086,0.22348986917923278,0.06569363149620665,-0.012937421470074088
2542,3.0,300.73337000000004,812.33546,0.0,0.0,0.0,0.02577878721488797,0.0,0.0,-0.05962191873647524,-0.08917173568956512,-0.0981360403842731,0.2317460032465498,0.07451812895536673,0.013170239998551488
2543,3.0,300.57518,715.3256700000001,0.0,0.0,0.0,0.02578892835856023,0.0,0.0,-0.08251983997557412,-0.06604363645174943,-0.06887766455744623,0.23816975556802475,0.04772466435530766,-0.01028670955921919
2544,3.0,301.09101,592.8233799999999,0.0,0.0,0.0,0.02579906950223249,0.0,0.0,-0.030906064370941073,-0.06585405127853884,-0.08344338805747122,0.22746895298443778,0.06727700196372313,0.007916656273688143
2545,3.0,299.96032,376.30052,0.0,0.0,0.0,0.025809210645904752,0.0,0.0,-0.05362638211926186,-0.03428929024283947,-0.026470290507164273,0.2158582518110508,0.052333739449937945,-0.04291743097837066
2546,3.0,300.41753,580.49607,0.0,0.0,0.0,0.025819351789577012,0.0,0.0,-0.05273975788425885,-0.06457990447654034,-0.059136646919082644,0.25108528982268874,0.060355092323333845,-0.018415544963472783
2547,3.0,299.80731000000003,659.30438,0.0,0.0,0.0,0.025829492933249272,0.0,0.0,-0.09029592350326382,-0.07559743181613562,-0.034518712356981666,0.26820392734716675,0.05607351587302514,-0.025940884555165973
2548,3.0,300.38666,602.18995,0.0,0.0,0.0,0.025839634076921532,0.0,0.0,-0.04958143908405705,-0.07089272719031743,-0.06257654285582394,0.26749804666500177,0.059015429783119445,0.0030683570860982673
2549,3.0,300.24638999999996,564.21475,0.0,0.0,0.0,0.025849775220593795,0.0,0.0,-0.07762945321593052,-0.04729121622752966,-0.04658652510098205,0.25830367340258775,0.05033649684657546,0.005359732615939425
2550,3.0,300.41116,799.70549,0.0,0.0,0.0,0.02585991636426606,0.0,0.0,-0.05472338848577795,-0.07092769242476822,-0.1174394254828689,0.2273956342072018,0.049652071735277956,0.026888905666728375
2551,3.0,299.88669,730.4338700000001,0.0,0.0,0.0,0.025870057507938315,0.0,0.0,-0.04900802666696566,-0.061521166882916443,-0.1115044650096339,0.24156278564789077,0.03109677425176267,8.912686897513711e-05
2552,3.0,300.0978,657.56614,0.0,0.0,0.0,0.025880198651610578,0.0,0.0,-0.048107414514332154,-0.05593747387484885,-0.09583879975755309,0.24828788868160676,0.05876649652505165,0.02225244850139568
2553,3.0,299.65117000000004,671.43472,0.0,0.0,0.0,0.025890339795282838,0.0,0.0,-0.07416898627565903,-0.053830862068942456,-0.07609954081043993,0.2187346155324258,0.07279348609265772,-0.036823270675923864
2554,3.0,300.24632,493.85187,0.0,0.0,0.0,0.0259004809389551,0.0,0.0,-0.06621927525058363,-0.025286492176832473,-0.05861286855813974,0.23357906386995878,0.10051980041053189,-0.013046023642292287
2555,3.0,299.69649,427.70443,0.0,0.0,0.0,0.02591062208262736,0.0,0.0,-0.039562350154499965,-0.07065643625374733,-0.01979268053213548,0.22632470991150977,0.07465980462409902,-0.05895148052955815
2556,3.0,299.72122,538.3371900000001,0.0,0.0,0.0,0.02592076322629962,0.0,0.0,-0.04491100055012066,-0.043523100212395555,-0.07520696271784934,0.2716517235949378,0.09041331359359932,0.004045312668841276
2557,3.0,299.71049,599.11964,0.0,0.0,0.0,0.025930904369971884,0.0,0.0,-0.06557947266044002,-0.07200636403072484,-0.04453157486467425,0.26030665606776676,0.028399489313311373,-0.03305739191701057
2558,3.0,300.14667000000003,446.04734,0.0,0.0,0.0,0.025941045513644144,0.0,0.0,-0.03963727594639456,-0.054827308429284044,-0.04112266816899136,0.27090640721888076,0.026113689293470476,-0.02085586765006388
2559,3.0,300.35882999999995,530.4906,0.0,0.0,0.0,0.025951186657316407,0.0,0.0,-0.018702373775280584,-0.06338147177501424,-0.07917205049942302,0.2445565546583528,-0.008346189304404752,-0.02183500263244698
2560,3.0,300.99512000000004,740.6197599999999,0.0,0.0,0.0,0.025961327800988667,0.0,0.0,-0.07476289066277284,-0.06371788499371564,-0.08664913709485401,0.2732949112821077,0.04798070758932716,0.007954536223376602
2561,3.0,300.9202,842.27636,0.0,0.0,0.0,0.025971468944660927,0.0,0.0,-0.08260105703733962,-0.07128629176765923,-0.1021436350207919,0.28414833972825776,0.06125861250375435,0.02067226673194388
2562,3.0,300.52906,623.97403,0.0,0.0,0.0,0.02598161008833319,0.0,0.0,-0.05344615025772435,-0.04917374676057095,-0.08705262645692532,0.26664480902079374,0.0973997297751049,-0.003531666403598337
2563,3.0,299.4346,376.31061,0.0,0.0,0.0,0.02599175123200545,0.0,0.0,-0.044470695758915955,-0.01891252184602058,-0.05100581034588155,0.24569378604058875,0.06670261074703514,0.0022093949841253077
2564,3.0,299.39096,489.14763,0.0,0.0,0.0,0.026001892375677713,0.0,0.0,-0.035919216512700664,-0.054454988666788946,-0.05831446032418914,0.22404239445876278,0.07041774391444024,-0.010954517368876688
2565,3.0,299.57732000000004,734.52468,0.0,0.0,0.0,0.026012033519349973,0.0,0.0,-0.09069353297500482,-0.07054599401934752,-0.06203763464438785,0.2653235106253918,0.05920786016261084,-0.026076998494099373
2566,3.0,299.96769,855.13079,0.0,0.0,0.0,0.026022174663022233,0.0,0.0,-0.1270377511626499,-0.07595741221891293,-0.05694324416261065,0.2522388446640358,0.05973948817207844,-0.017062307911668684
2567,3.0,299.50948999999997,391.09038,0.0,0.0,0.0,0.026032315806694496,0.0,0.0,-0.054901923153397945,-0.05544568685931325,-0.008534098663274961,0.26084718446611277,0.04010054098486526,-0.018199048880856283
2568,3.0,300.13628,286.50277,0.0,0.0,0.0,0.026042456950366756,0.0,0.0,-0.00032541678013613573,-0.050299112984135946,-0.03646515667983077,0.2250407599147938,0.06786683308543494,-0.00016441818881681185
2569,3.0,300.63378,913.0713300000001,0.0,0.0,0.0,0.026052598094039023,0.0,0.0,-0.09118709723121582,-0.08348182367351452,-0.1028819599711589,0.2760056592746377,0.04773279974036055,0.005384565653365255
2570,3.0,300.86226,1154.3713,0.0,0.0,0.0,0.026062739237711283,0.0,0.0,-0.08150514295443133,-0.11796315419455689,-0.15143175745265086,0.25902057824584074,0.06835819757567885,0.014183858921587886
2571,3.0,299.78553,573.69645,0.0,0.0,0.0,0.02607288038138354,0.0,0.0,-0.03065998949140537,-0.08171913428280063,-0.06201027385193754,0.28660635274834473,0.027823793030494575,-0.003799808857061936
2572,3.0,300.44518999999997,399.07142000000005,0.0,0.0,0.0,0.0260830215250558,0.0,0.0,-0.040022528833166066,-0.03393429199080387,-0.047350927055922656,0.2505300591653918,0.04490244973252675,0.025922405913092274
2573,3.0,299.85732,757.9185200000001,0.0,0.0,0.0,0.026093162668728066,0.0,0.0,-0.08014672211511563,-0.0865051552688941,-0.06373642645729553,0.2674873771414487,0.053408010510710244,-0.013905781550893788
2574,3.0,299.10635,863.34161,0.0,0.0,0.0,0.026103303812400325,0.0,0.0,-0.09279730464088091,-0.08193401119175733,-0.08770297596735982,0.25137402557118477,0.09344545134559801,-0.02941578321661177
2575,3.0,299.04787000000005,586.54336,0.0,0.0,0.0,0.026113444956072585,0.0,0.0,-0.05448531828203224,-0.07032791220032453,-0.05348130496994385,0.25655854262285677,0.04641520274757386,-0.037878095440776964
2576,3.0,298.88998,168.62498,0.0,0.0,0.0,0.02612358609974484,0.0,0.0,0.02961769356403877,-0.05895156564256654,-0.02192391330222178,0.2069021139121488,0.06983518792844644,-0.03866164579610736
2577,3.0,299.39315,245.61791000000002,0.0,0.0,0.0,0.02613372724341711,0.0,0.0,-0.036622801170139066,-0.034103328451986464,-0.003935582039986707,0.24358971141293276,0.036051712135526964,-0.006581539376072363
2578,3.0,300.64072000000004,872.0706,0.0,0.0,0.0,0.026143868387089368,0.0,0.0,-0.1025310511965269,-0.1047419831797289,-0.05781465140761184,0.23886023484866978,0.07774348843518493,-0.0036694090407424764
2579,3.0,299.7609,892.4395599999999,0.0,0.0,0.0,0.02615400953076163,0.0,0.0,-0.1058355333501539,-0.07929251985681242,-0.08615128476421982,0.26457967359448076,0.07026169934603983,0.020000079655354178
2580,3.0,299.7356,538.68935,0.0,0.0,0.0,0.02616415067443389,0.0,0.0,-0.024001040543468275,-0.05517348937894945,-0.08457358140451263,0.23652593966579277,0.07855954182722312,0.023663911970196277
2581,3.0,301.09022999999996,600.1096299999999,0.0,0.0,0.0,0.02617429181810615,0.0,0.0,-0.04522354463621636,-0.06322095370742235,-0.07397384545215013,0.23519632248706981,0.04258031557734996,0.002801295770491367
2582,3.0,300.12811,958.20383,0.0,0.0,0.0,0.026184432961778414,0.0,0.0,-0.05952480074089045,-0.1028639139868779,-0.12888131918959586,0.22266113192244277,0.07455974212372364,-0.004617199435257105
2583,3.0,299.84923,939.37689,0.0,0.0,0.0,0.026194574105450674,0.0,0.0,-0.1124326730287409,-0.08237343648187523,-0.09074101286144072,0.2816694132261067,0.01932032157401728,0.0016162007840065985
2584,3.0,299.77689,529.77361,0.0,0.0,0.0,0.026204715249122938,0.0,0.0,-0.05149981435263595,-0.05326883554322475,-0.05626929909709744,0.28013260666693574,0.05162020670301775,0.01100745563360129
2585,3.0,298.67609,244.18701000000001,0.0,0.0,0.0,0.026214856392795197,0.0,0.0,-0.04087543818434166,-0.0097151626368869,-0.02363615297045668,0.26381783110929274,0.03052091280917957,-0.017036068787079084
2586,3.0,298.48012,488.64815,0.0,0.0,0.0,0.026224997536467457,0.0,0.0,-0.04243177311268996,-0.08009485485574673,-0.02601020808725768,0.24733069157713877,0.07558576322798402,-0.03146919027301727
2587,3.0,298.37775,637.93286,0.0,0.0,0.0,0.02623513868013972,0.0,0.0,-0.04446879591497846,-0.06615068632481444,-0.08329617902994282,0.22633507546003276,0.08556449136630782,-0.02242154069133378
2588,3.0,298.43532999999996,690.38607,0.0,0.0,0.0,0.02624527982381198,0.0,0.0,-0.030720291044606673,-0.09230597764089071,-0.08683385664108441,0.24084337807689077,0.1052572107230779,-0.007823002884170274
2589,3.0,298.94931,756.4409400000001,0.0,0.0,0.0,0.026255420967484244,0.0,0.0,-0.08241630405385592,-0.08967465325744922,-0.05784820011842286,0.20516273839298582,0.04437823770054105,0.023627037772557077
2590,3.0,299.59937,560.15693,0.0,0.0,0.0,0.026265562111156503,0.0,0.0,-0.04963596916468875,-0.04158362806348456,-0.07905412338653452,0.23557328192177276,0.05783544633941415,0.01944178695625498
2591,3.0,299.73263,677.16057,0.0,0.0,0.0,0.026275703254828763,0.0,0.0,-0.056534768596797236,-0.07726919112962542,-0.07203594485414423,0.24402592571348375,0.024574757948839777,0.01987547319780648
2592,3.0,300.49064,908.523,0.0,0.0,0.0,0.026285844398501026,0.0,0.0,-0.05799064889698145,-0.09326588012312573,-0.12491178020033289,0.27160927854824873,0.04767166934857746,0.005726962823182224
2593,3.0,299.85505,677.0140200000001,0.0,0.0,0.0,0.026295985542173286,0.0,0.0,-0.046670533666773054,-0.07028522093386123,-0.08883960345253622,0.2664334855799378,0.026019768101951175,-0.011941886021572388
2594,3.0,300.28345,292.14898,0.0,0.0,0.0,0.02630612668584555,0.0,0.0,-0.00033975060108577365,-0.052723002780605245,-0.035743241314833266,0.27543021427784575,0.07128388732517194,-0.07417354083485853
2595,3.0,301.52176000000003,236.0844,0.0,0.0,0.0,0.02631626782951781,0.0,0.0,-0.07222486634853933,0.003065410250832437,-0.0026043071841001073,0.26967021169937777,0.08001015829313783,-0.0043666123503760855
2596,3.0,300.5665,398.96216,0.0,0.0,0.0,0.02632640897319007,0.0,0.0,-0.05831702486019224,-0.03456908507245307,-0.02838842563546947,0.2688699670353997,0.06869220331214262,-0.047663614010282455
2597,3.0,299.57777999999996,756.75189,0.0,0.0,0.0,0.026336550116862333,0.0,0.0,-0.09743769422985171,-0.05956578164118495,-0.07303020259426984,0.25390343219331774,0.03514009608680747,0.01008981865013757
2598,3.0,298.65074,849.7638599999999,0.0,0.0,0.0,0.026346691260534592,0.0,0.0,-0.08513019616144622,-0.07715173416478333,-0.0960250634969359,0.23823274932674177,0.044222958135966155,-0.03300233798607717
2599,3.0,298.82341,637.39965,0.0,0.0,0.0,0.026356832404206852,0.0,0.0,-0.02354477301018818,-0.09624599153548981,-0.07396281318506133,0.23719944700726275,0.05800968685311035,0.019055844046165383
2600,3.0,298.42756,618.2681299999999,0.0,0.0,0.0,0.02636697354787912,0.0,0.0,-0.046813203333853456,-0.05930420707486953,-0.08182066295607072,0.2217998389399398,0.07392429144275953,-0.0038689923579898165
2601,3.0,299.34739,999.69889,0.0,0.0,0.0,0.02637711469155138,0.0,0.0,-0.13571248924377988,-0.07802632605484883,-0.09014468781983802,0.26101499894767477,0.06538122419887443,0.05439910589727375
2602,3.0,299.6332,866.4272599999999,0.0,0.0,0.0,0.026387255835223635,0.0,0.0,-0.10695519497565589,-0.08212132769799402,-0.07429573069091773,0.28700098326479173,0.06390704156213393,-0.008275559591609142
2603,3.0,300.94357,348.68487999999996,0.0,0.0,0.0,0.026397396978895895,0.0,0.0,-0.04539921281930345,-0.016675930317286185,-0.04391635372195666,0.29281684632127275,0.07080140295880444,0.02066539993601618
2604,3.0,301.07207,86.882102,0.0,0.0,0.0,0.02640753812256816,0.0,0.0,0.03960213035342596,-0.031061418916023372,-0.03495070140461567,0.26423761049322175,0.03134424538993617,-0.04213375194027756
2605,3.0,300.98909,601.18828,0.0,0.0,0.0,0.02641767926624042,0.0,0.0,-0.026360948662373075,-0.07455100385486123,-0.08183427394466401,0.23820687091918777,0.02903956345448177,-0.04343481167818216
2606,3.0,300.11647,949.0365800000001,0.0,0.0,0.0,0.026427820409912678,0.0,0.0,-0.09789899761612882,-0.08920949648104182,-0.1013749328324269,0.24483671831100276,0.046288021621522055,-0.052209480537174544
2607,3.0,300.43115,671.56948,0.0,0.0,0.0,0.026437961553584945,0.0,0.0,-0.10098355788855122,-0.0906814114640585,-0.012475383477474488,0.28077825976315673,0.07318275043657513,-0.032824006981727265
2608,3.0,300.18059,171.4257,0.0,0.0,0.0,0.026448102697257204,0.0,0.0,-0.02747882494119887,-0.011167451877391689,-0.013462855481680386,0.2558128310792608,0.053618734107507046,0.004610228071919085
2609,3.0,299.9167,427.61886,0.0,0.0,0.0,0.026458243840929468,0.0,0.0,-0.04553147843435706,-0.04433853248212245,-0.04011544690708636,0.26104028967017073,0.024719333539358276,0.01129762513098879
2610,3.0,300.33771,1029.802,0.0,0.0,0.0,0.026468384984601728,0.0,0.0,-0.04836581558133436,-0.12648870133096288,-0.13817957085226187,0.2699101290580558,0.030913307082655866,-0.006537521258603114
2611,3.0,300.28901,977.1804800000001,0.0,0.0,0.0,0.026478526128273987,0.0,0.0,-0.08384693720129842,-0.06173128962240394,-0.15146023991296187,0.26567434847251675,0.07113606426808293,0.017766438710910985
2612,3.0,300.2319,437.8393,0.0,0.0,0.0,0.02648866727194625,0.0,0.0,-0.01185700504744529,-0.06688129030941944,-0.05435391899581415,0.24861533058392277,0.05862086614117905,-0.0026961074405100877
2613,3.0,300.72835,194.37489,0.0,0.0,0.0,0.02649880841561851,0.0,0.0,-0.05454771422319025,0.01150736992818899,-0.016044767710745287,0.2227313298893708,0.08735101138612361,0.011688949412359489
2614,3.0,300.91468,631.68285,0.0,0.0,0.0,0.026508949559290774,0.0,0.0,-0.07354721244454472,-0.06780427603751103,-0.05066432378392945,0.2316599377830558,0.06062484179145604,-0.026203119760546578
2615,3.0,300.53634,804.76766,0.0,0.0,0.0,0.026519090702963034,0.0,0.0,-0.09265702523078642,-0.07647390531163682,-0.07549834102260614,0.2827805534182677,0.06432077792246653,-0.004533588975430396
2616,3.0,300.68793,467.16455,0.0,0.0,0.0,0.026529231846635293,0.0,0.0,-0.006460214126323494,-0.036038981661270564,-0.09950716231359232,0.2761508478814667,0.04114786668572826,-0.027549158683640274
2617,3.0,300.6872,243.75279,0.0,0.0,0.0,0.026539372990307557,0.0,0.0,-0.009045561881177451,-0.040723010918798264,-0.024326189460807977,0.2595812905861788,0.03379466004752327,-0.024715510546730976
2618,3.0,299.93371,538.42133,0.0,0.0,0.0,0.026549514133979817,0.0,0.0,-0.054381155158502156,-0.04855004167476605,-0.06073544209287144,0.2610270870213678,0.043233275220042056,-0.013997620513457586
2619,3.0,299.99346,1051.5711,0.0,0.0,0.0,0.02655965527765208,0.0,0.0,-0.15327125221419485,-0.08900606625846483,-0.07737403617047282,0.2612000488134378,0.1035163153287649,0.007754141799424213
2620,3.0,298.58893,983.0549199999999,0.0,0.0,0.0,0.02656979642132434,0.0,0.0,-0.09452177119807251,-0.1073089509830689,-0.09699342965725621,0.2737685449088518,0.08149030897296733,0.023448435217180378
2621,3.0,298.89545,639.22912,0.0,0.0,0.0,0.0265799375649966,0.0,0.0,-0.051021032402133855,-0.04809348435195736,-0.09519517417478221,0.2004289453832968,0.06723496930982484,0.014993756819268587
2622,3.0,298.61031,573.58392,0.0,0.0,0.0,0.026590078708668863,0.0,0.0,0.017969740250725282,-0.09066593609528123,-0.10165899749796191,0.2179559530955778,0.031555514115286766,0.01262904589488979
2623,3.0,299.40393,781.46863,0.0,0.0,0.0,0.026600219852341123,0.0,0.0,-0.04139058770743296,-0.1011131009005861,-0.09504326265353971,0.22049448910111177,0.049384303171101256,-0.006880905232692474
2624,3.0,299.22952000000004,924.4815699999999,0.0,0.0,0.0,0.026610360996013386,0.0,0.0,-0.09428818462601932,-0.07026316957193493,-0.11646796181699288,0.28306162899600773,0.03183599187546777,0.01890592457461948
2625,3.0,299.55003999999997,620.29202,0.0,0.0,0.0,0.026620502139685646,0.0,0.0,-0.09278963737737422,-0.07122051157116722,-0.024543136439718977,0.24954101561028078,0.06422427294319223,-0.022261721766310878
2626,3.0,300.29258,336.71461,0.0,0.0,0.0,0.026630643283357906,0.0,0.0,-0.04619080534067755,-0.04049301327859926,-0.015669015056911383,0.28128605005077173,0.07034380401489293,-0.019593179693446282
2627,3.0,300.88647000000003,466.30765,0.0,0.0,0.0,0.026640784427030165,0.0,0.0,-0.03958772599000436,-0.05520256864356935,-0.04695558827765575,0.2506311713928708,0.12570283468590387,-0.028737136670634576
2628,3.0,301.0184,714.20984,0.0,0.0,0.0,0.026650925570702425,0.0,0.0,-0.03189657916519727,-0.10485464645834791,-0.08035072583724921,0.2699055289026018,0.07382580657278984,-0.03133617586613977
2629,3.0,300.36444,692.97956,0.0,0.0,0.0,0.02666106671437469,0.0,0.0,-0.07274371828749603,-0.051915857883446256,-0.08598890434294411,0.22449470930340276,0.056544044901462746,0.0020702293385407283
2630,3.0,301.08358,544.21675,0.0,0.0,0.0,0.02667120785804695,0.0,0.0,-0.06717203837261403,-0.06052689191753914,-0.03772937363084926,0.23853011796608978,0.029797135090498268,-0.011755432804420889
2631,3.0,299.88244,513.4427,0.0,0.0,0.0,0.026681349001719208,0.0,0.0,-0.08171515018340741,-0.03225025107285197,-0.04210835887952146,0.22334286685472476,0.07005104769000013,0.03505350272001137
2632,3.0,299.82825,694.03111,0.0,0.0,0.0,0.02669149014539147,0.0,0.0,-0.04484111567747356,-0.06741282813962814,-0.09871418366608141,0.27435114345134975,0.03203547852865557,0.008696088679287131
2633,3.0,298.96752000000004,942.4720599999999,0.0,0.0,0.0,0.02670163128906373,0.0,0.0,-0.04909167147597075,-0.1060264600664969,-0.13136984117019387,0.27150166125512776,0.08690844704719591,0.004697332218090595
2634,3.0,299.96185,953.76374,0.0,0.0,0.0,0.026711772432735998,0.0,0.0,-0.05014695321661895,-0.099588158486836,-0.14018524876270688,0.2881071382664607,0.08135639277350083,-0.02089541277496668
2635,3.0,300.4211,551.65799,0.0,0.0,0.0,0.026721913576408258,0.0,0.0,-0.06375315217669623,-0.06840186358873834,-0.03553523829455496,0.2649268232112418,0.1082003172285399,-0.02346429764749588
2636,3.0,300.39666,303.31316,0.0,0.0,0.0,0.026732054720080518,0.0,0.0,-0.049725412804016156,-0.03475924779822067,-0.007714967726708033,0.26528307181390076,0.060826573806865444,-0.02021960231601938
2637,3.0,299.70546,480.40587,0.0,0.0,0.0,0.02674219586375278,0.0,0.0,-0.07034771212052864,-0.05069669408487415,-0.02498698152677308,0.25601239068645576,0.06219391428681144,-0.018803081715969682
2638,3.0,300.00667999999996,629.6619400000001,0.0,0.0,0.0,0.02675233700742504,0.0,0.0,-0.07092229990773602,-0.059843723236365644,-0.06063548395725635,0.26748079101579875,0.02833832852402527,-0.022837711891656683
2639,3.0,300.42215,532.46564,0.0,0.0,0.0,0.026762478151097304,0.0,0.0,-0.02626313760371987,-0.05972272293592385,-0.07587039835332533,0.2526464245167608,0.07259456179327543,-0.023232628144631878
2640,3.0,299.98485,413.87082000000004,0.0,0.0,0.0,0.026772619294769564,0.0,0.0,-0.017331529476488784,-0.03169643187294426,-0.07677843458944153,0.22445782699976277,0.036109833174513065,-0.001185580535932689
2641,3.0,299.3627,654.61771,0.0,0.0,0.0,0.026782760438441824,0.0,0.0,-0.04882923362057016,-0.08006316849861951,-0.07009503490334135,0.2512926615881548,0.08618727642102192,-0.006814263368315433
2642,3.0,299.06788,940.7837599999999,0.0,0.0,0.0,0.026792901582114087,0.0,0.0,-0.12936985772531087,-0.07589857177235583,-0.08070634217184583,0.26012077533692174,0.061763793672361844,0.006113103317041324
2643,3.0,299.29831,995.5861800000001,0.0,0.0,0.0,0.026803042725786347,0.0,0.0,-0.10957547999925789,-0.10991803959306588,-0.08313981934076133,0.27785006829916675,0.08505593708811741,0.0006008215922339744
2644,3.0,299.15688,659.3243,0.0,0.0,0.0,0.02681318386945861,0.0,0.0,-0.03753018385994076,-0.08203996067521373,-0.08084798035032442,0.24859124562904575,0.032064789827548366,-0.006287411718494224
2645,3.0,299.0313,430.77022999999997,0.0,0.0,0.0,0.02682332501313087,0.0,0.0,0.023717176501453077,-0.07146228925702884,-0.08319828083178102,0.27267619037354474,0.06277252771666614,-0.012264282951640488
2646,3.0,299.59348,418.2248,0.0,0.0,0.0,0.02683346615680313,0.0,0.0,-0.016710097110658184,-0.06095694768398235,-0.04946285234535345,0.27201183268047774,0.062167426915947344,-0.02505283265077208
2647,3.0,300.84481,480.03213,0.0,0.0,0.0,0.026843607300475393,0.0,0.0,-0.08332805891783912,-0.023199413806353878,-0.03939030839352076,0.3028072693922507,0.07850191322778562,-0.004928767761506506
2648,3.0,301.38455,352.53275,0.0,0.0,0.0,0.026853748444147653,0.0,0.0,-0.057129303225473244,-0.028311045751832676,-0.02172080529317658,0.27402514036417575,0.06025401251985804,-0.004475068918554916
2649,3.0,300.05921,316.6661,0.0,0.0,0.0,0.026863889587819916,0.0,0.0,-0.054391729436545744,-0.023570355548712976,-0.01829650327547428,0.28006971423322874,0.06663205814257213,-0.01094616312180219
2650,3.0,299.60202999999996,818.82073,0.0,0.0,0.0,0.026874030731492173,0.0,0.0,-0.04020391681306766,-0.06969138240800393,-0.1390057547187999,0.2720456651013167,0.05953307595445715,-0.026524787150542673
2651,3.0,299.82537,1119.2735,0.0,0.0,0.0,0.026884171875164436,0.0,0.0,-0.09898433336799309,-0.11797516120824189,-0.12327170319096988,0.25321135197751476,0.08956066160794911,-0.0060597200328728045
2652,3.0,299.78028,885.6546,0.0,0.0,0.0,0.0268943130188367,0.0,0.0,-0.06870342303049994,-0.06987493772986943,-0.13063851777801788,0.24951051678227076,0.06308057601206814,0.003445382584707787
2653,3.0,299.95763,579.01368,0.0,0.0,0.0,0.02690445416250896,0.0,0.0,-0.06064997748668674,-0.06054281615611074,-0.05481290811886286,0.2196402584718058,0.08047456019822072,0.005907388316813834
2654,3.0,300.63305,583.31542,0.0,0.0,0.0,0.02691459530618122,0.0,0.0,-0.04938536100420565,-0.08354696552244352,-0.04438099475406316,0.22048603859527777,0.06527307494945093,0.0043168841632932956
2655,3.0,300.31829,751.4989999999999,0.0,0.0,0.0,0.02692473644985348,0.0,0.0,-0.08254866187466862,-0.07735626984321943,-0.06853199833883163,0.26412500800960875,0.05131808288095045,-0.016248226304325087
2656,3.0,301.40594,678.9877700000001,0.0,0.0,0.0,0.02693487759352574,0.0,0.0,-0.022812681574436378,-0.09693994930372811,-0.08664269687721841,0.27728364122826477,0.03654503321171396,0.00996287219280893
2657,3.0,300.73084,317.48469,0.0,0.0,0.0,0.026945018737198,0.0,0.0,0.005933921891882494,-0.05288366371646124,-0.049557676342711854,0.3037832622860737,0.032991004783708665,-0.018037557079918283
2658,3.0,300.08817,367.4254,0.0,0.0,0.0,0.02695515988087026,0.0,0.0,-0.01859668267059968,-0.04953684696040615,-0.04355461634350596,0.3033147151748317,0.036796781278559565,-0.008730720149154991
2659,3.0,300.12315,824.7951099999999,0.0,0.0,0.0,0.026965301024542525,0.0,0.0,-0.1104769179507229,-0.07236191855706534,-0.06787828179831484,0.2889716837817847,0.07042684594008854,-0.033652986405291165
2660,3.0,300.35159,1102.649,0.0,0.0,0.0,0.026975442168214785,0.0,0.0,-0.12728071840412888,-0.08741169290811242,-0.12048533634347688,0.2758999468917048,0.07491671317370394,-0.006776253925264193
2661,3.0,300.30192999999997,781.3627,0.0,0.0,0.0,0.026985583311887044,0.0,0.0,-0.07198000128962302,-0.08443423418451011,-0.08110051571249773,0.24292053064938976,0.05562090819910624,-0.03688397347616477
2662,3.0,300.47776,659.46335,0.0,0.0,0.0,0.02699572445555931,0.0,0.0,-0.007155998987142113,-0.09484013235299231,-0.0984642604626659,0.20640995807357682,0.06102714058465985,-0.029120394467959176
2663,3.0,299.75614,668.66384,0.0,0.0,0.0,0.027005865599231568,0.0,0.0,-0.07060424272784623,-0.07522991080611413,-0.057422956276704545,0.21222502066247878,0.05067189782842695,-0.005562999198625275
2664,3.0,300.04857000000004,617.86713,0.0,0.0,0.0,0.027016006742903834,0.0,0.0,-0.06997555751779984,-0.06168547045288194,-0.05615515039383185,0.25268780565084475,0.08572331933273292,0.01896309923801218
2665,3.0,299.42512,405.83218999999997,0.0,0.0,0.0,0.027026147886576094,0.0,0.0,-0.05963744071475715,-0.057881882578247036,-0.005843529343836444,0.2921425689097267,0.08808790157434902,0.023452402091321878
2666,3.0,299.14847000000003,275.23546,0.0,0.0,0.0,0.027036289030248354,0.0,0.0,-0.02702143270030777,-0.04780212023270195,-0.00884115498682906,0.2961784859130407,0.09049983096663791,-0.009590973841030422
2667,3.0,298.64077000000003,525.45857,0.0,0.0,0.0,0.027046430173920617,0.0,0.0,-0.026984004254863875,-0.07453419504895233,-0.058208087302190945,0.2975088731618397,0.04467181779776516,-0.023967962993953776
2668,3.0,299.61674,716.87972,0.0,0.0,0.0,0.027056571317592877,0.0,0.0,-0.03955565459783917,-0.08287749091637152,-0.09548038887918073,0.29082350979704574,0.04237387701522606,-0.02140708583696488
2669,3.0,299.80145,764.98183,0.0,0.0,0.0,0.02706671246126514,0.0,0.0,-0.07519123302329693,-0.08207144438232092,-0.07527269833133693,0.28121136338590075,0.025937204430802774,0.0028152321136917778
2670,3.0,300.85098999999997,637.7855599999999,0.0,0.0,0.0,0.0270768536049374,0.0,0.0,-0.08025897806719443,-0.047364776158289455,-0.06624712949583264,0.25687282240637377,0.042852096611922665,-0.022034936128928876
2671,3.0,300.73806,551.1012099999999,0.0,0.0,0.0,0.02708699474860966,0.0,0.0,-0.08652907405075472,-0.03718970041558767,-0.043802232376443755,0.25196256175926873,0.05110671992334055,-0.005946403005289285
2672,3.0,300.80829,657.03836,0.0,0.0,0.0,0.027097135892281923,0.0,0.0,-0.06902575713906184,-0.05826729555853435,-0.07243020148130434,0.22718848535675779,0.06022847760408795,-0.015233738012702884
2673,3.0,300.16245,740.06362,0.0,0.0,0.0,0.027107277035954183,0.0,0.0,-0.03638198100562197,-0.06981550959825433,-0.11876336846103189,0.25902710357648473,0.06201305623671214,-0.007095811627227083
2674,3.0,299.94214,644.73639,0.0,0.0,0.0,0.027117418179626446,0.0,0.0,-0.01864064556593848,-0.08412104364485062,-0.09322207529480252,0.23083093708123975,0.07110210215123113,-0.005853388571284475
2675,3.0,299.27378,514.47241,0.0,0.0,0.0,0.027127559323298706,0.0,0.0,-0.054089823463249954,-0.06063551435475935,-0.04166142743266276,0.2893785847569427,0.06021713629571864,0.009954503861558042
2676,3.0,299.29798,372.08801,0.0,0.0,0.0,0.027137700466970966,0.0,0.0,-0.053814509225578545,-0.026193886012385276,-0.03309706977767647,0.23771762310840275,0.09935057464313832,0.014001437426584289
2677,3.0,299.98261,529.52315,0.0,0.0,0.0,0.02714784161064323,0.0,0.0,-0.059757230181329446,-0.0854626323735051,-0.015741952852109786,0.26151876663239276,0.07173174994887252,-0.01094354387029369
2678,3.0,299.72441000000003,745.6568599999999,0.0,0.0,0.0,0.02715798275431549,0.0,0.0,-0.05707036044065604,-0.09114322350188582,-0.07844748143241362,0.22675665842913975,0.057161582333908945,-0.02925715992670687
2679,3.0,300.12284,758.74067,0.0,0.0,0.0,0.02716812389798775,0.0,0.0,-0.03696026918219456,-0.096800312294197,-0.0968776364490783,0.2777306365098797,0.05089168393411815,-0.02995827124065117
2680,3.0,301.135,666.2093,0.0,0.0,0.0,0.027178265041660012,0.0,0.0,-0.06368089629881514,-0.06763043677085444,-0.07119965989735934,0.26732662501308374,0.06232359307435974,-0.013663544862736887
2681,3.0,301.05941,660.16484,0.0,0.0,0.0,0.027188406185332272,0.0,0.0,-0.08279098468908401,-0.03127410011201337,-0.0866085412295975,0.3069019143713607,0.05341173116507745,0.002925854605284367
2682,3.0,300.57747,678.64869,0.0,0.0,0.0,0.027198547329004532,0.0,0.0,-0.09726331388764171,-0.049745163074965355,-0.059283779952853534,0.2590120466799987,0.06357960573931853,-0.009357587284546961
2683,3.0,300.45435,618.58469,0.0,0.0,0.0,0.027208688472676792,0.0,0.0,-0.07408191769456603,-0.05480592783892394,-0.05914645518005065,0.2956045101288937,0.05027376754613455,0.014134139752430986
2684,3.0,300.20301,451.70795,0.0,0.0,0.0,0.027218829616349055,0.0,0.0,-0.01062836736043819,-0.04668874075781995,-0.07999083054748032,0.24553285152720578,0.08959912762149541,0.011385526603663989
2685,3.0,299.54476,387.99907,0.0,0.0,0.0,0.027228970760021315,0.0,0.0,0.016672584565455985,-0.06856935281701823,-0.06604526170490985,0.24483957567628475,0.06769703060717673,-0.014808364474971785
2686,3.0,300.0329,510.49526,0.0,0.0,0.0,0.027239111903693575,0.0,0.0,-0.014467784771859187,-0.06611088180788603,-0.07459914640686253,0.21851059606781678,0.06576746399124334,-0.008501709819853431
2687,3.0,300.28353,658.35123,0.0,0.0,0.0,0.027249253047365838,0.0,0.0,-0.07031466496851714,-0.07018276918975003,-0.059624899718269446,0.2622753402170607,0.06971013969385514,0.0002366241134679818
2688,3.0,299.8932,768.22703,0.0,0.0,0.0,0.027259394191038098,0.0,0.0,-0.09569574201568441,-0.06130093798693154,-0.07652515550169484,0.2816969432313237,0.09906568316552172,0.016014370207745286
2689,3.0,299.99306,760.75947,0.0,0.0,0.0,0.02726953533471036,0.0,0.0,-0.1086780443856879,-0.06038411079294775,-0.062189723484397844,0.2868580238081827,0.06825585931557884,-0.01045278631685969
2690,3.0,300.07088999999996,785.81992,0.0,0.0,0.0,0.02727967647838262,0.0,0.0,-0.03971811101287236,-0.09645891692475392,-0.1026926037924709,0.24906598369839875,0.06170966078576935,-0.015111216823860985
2691,3.0,300.55458,795.24895,0.0,0.0,0.0,0.02728981762205488,0.0,0.0,-0.06536159247818694,-0.07069305409911122,-0.1056811748299199,0.23270024166072578,0.034529510563297366,-0.0014317470132774286
2692,3.0,301.026,792.0271299999999,0.0,0.0,0.0,0.027299958765727148,0.0,0.0,-0.08877053525946972,-0.04941830480470696,-0.1025676295251369,0.2374327782402908,0.051420781858086045,0.006152314069411124
2693,3.0,299.89943999999997,490.56257,0.0,0.0,0.0,0.027310099909399407,0.0,0.0,-0.07960276589168133,-0.02593013093185468,-0.04358587612234105,0.25604981001264876,0.036651312001452864,-0.009699407408431981
2694,3.0,300.52374,425.08408,0.0,0.0,0.0,0.02732024105307167,0.0,0.0,-0.052332243892790356,-0.061868312446677044,-0.015014389631054885,0.23303337802860377,0.06086848081775134,-0.0010353649927075691
2695,3.0,301.29644,552.883,0.0,0.0,0.0,0.02733038219674393,0.0,0.0,-0.05006001534478886,-0.07887891623224293,-0.03912369290795786,0.25611060501864874,0.06197759450971234,-0.008619879910115914
2696,3.0,300.54196,612.06693,0.0,0.0,0.0,0.02734052334041619,0.0,0.0,-0.013353798360167287,-0.0946252331525334,-0.07807403088280693,0.27556325401597576,0.0902839934965864,-0.003425574659827897
2697,3.0,300.26086000000004,555.49488,0.0,0.0,0.0,0.027350664484088454,0.0,0.0,-0.004651642643256386,-0.0922586781129726,-0.07194625296854233,0.28422278321310473,0.06476117593268044,-0.01832243943828398
2698,3.0,300.53005,442.96484000000004,0.0,0.0,0.0,0.027360805627760713,0.0,0.0,-0.009447874353257602,-0.06572399150895294,-0.059478384767059536,0.28029503065796574,0.051631928993424656,-0.024090054564753275
2699,3.0,299.24412,417.82800000000003,0.0,0.0,0.0,0.027370946771432977,0.0,0.0,-0.051464372890638155,-0.04419138830260046,-0.031353516628351175,0.2876694648857657,0.052878247894676746,-0.01039238445189849
2700,3.0,299.75322,663.5189799999999,0.0,0.0,0.0,0.027381087915105237,0.0,0.0,-0.07243414099769313,-0.060661810221354535,-0.06859725164527163,0.2738309915125147,0.06929336966272313,-0.007115076450053373
2701,3.0,299.31883,747.9196599999999,0.0,0.0,0.0,0.027391229058777496,0.0,0.0,-0.09923640263512042,-0.05774297612203804,-0.07036952131568103,0.26899474878521473,0.036488905235674565,-0.013962777882268886
2702,3.0,299.10939,516.51015,0.0,0.0,0.0,0.02740137020244976,0.0,0.0,-0.008756229834997601,-0.07552923400490502,-0.07272072358972663,0.26166683286950576,0.04475552036202596,-0.03485663025208157
2703,3.0,300.57277999999997,578.23942,0.0,0.0,0.0,0.02741151134612202,0.0,0.0,-0.04961085373446005,-0.06105063988097903,-0.06510885243949344,0.22486067497452078,0.06156696680068654,-0.0016822167637968685
2704,3.0,301.33612,675.89456,0.0,0.0,0.0,0.027421652489794283,0.0,0.0,-0.07436475734073014,-0.05712487633578635,-0.07396543648957023,0.28375139900158275,0.09572852268291959,0.0016087539023966484
2705,3.0,299.51905,695.80373,0.0,0.0,0.0,0.027431793633466543,0.0,0.0,-0.08524494876177141,-0.07307995722718023,-0.05318205573841025,0.25822134683196274,0.07587257076153973,0.010162016975412991
2706,3.0,300.17681,826.8186,0.0,0.0,0.0,0.027441934777138802,0.0,0.0,-0.07651743554918293,-0.0945549804701,-0.08025979373352492,0.28662846186552676,0.06096716529799074,0.0012740198417609688
2707,3.0,300.64817999999997,604.67067,0.0,0.0,0.0,0.027452075920811062,0.0,0.0,-0.056717725087853645,-0.07150285067178193,-0.055584207267234155,0.25043469206597974,0.04057011350520846,0.011234193648228589
2708,3.0,299.61253999999997,602.61634,0.0,0.0,0.0,0.027462217064483326,0.0,0.0,-0.027645651503913373,-0.08505325400185261,-0.07048141553747414,0.25514812888115973,0.06834591495796663,0.004142720453954676
2709,3.0,300.14169,729.76841,0.0,0.0,0.0,0.027472358208155585,0.0,0.0,-0.05449167845290994,-0.06471234234411094,-0.1026273504860309,0.23123777726139177,0.03620360541826767,0.005568460414014255
2710,3.0,299.95152,698.83182,0.0,0.0,0.0,0.027482499351827845,0.0,0.0,-0.07480659011308563,-0.06701461274432734,-0.07060621957879133,0.24513287105023077,0.04055186791065776,-0.004692392421203075
2711,3.0,298.74682,710.26018,0.0,0.0,0.0,0.027492640495500105,0.0,0.0,-0.053897795344048254,-0.07623252481981442,-0.08577104138594273,0.2808838100260737,0.091743302635109,-0.0028306479033631976
2712,3.0,299.02263999999997,670.01385,0.0,0.0,0.0,0.027502781639172368,0.0,0.0,-0.09357969077184641,-0.05157858340215985,-0.05850920496690895,0.28093200020082976,0.08751283350659422,-0.006679804269445354
2713,3.0,299.24122,624.21675,0.0,0.0,0.0,0.027512922782844628,0.0,0.0,-0.04860359498230136,-0.08463082496891212,-0.05651188636978894,0.2895067507620917,0.07128189324897513,-0.027437919021411773
2714,3.0,299.38732999999996,523.4929,0.0,0.0,0.0,0.02752306392651689,0.0,0.0,-0.027041330905771575,-0.07018310153578285,-0.06190433754073244,0.25595769544605773,0.04143531358009706,-0.04311969393683246
2715,3.0,300.68947000000003,542.42758,0.0,0.0,0.0,0.02753320507018915,0.0,0.0,-0.018780983744538782,-0.07872077018313513,-0.06738268597565333,0.2826431972347117,0.06831809718972123,-0.004085823218439356
2716,3.0,300.0974,424.41379000000006,0.0,0.0,0.0,0.02754334621386141,0.0,0.0,-0.02232544709160008,-0.06541507181846494,-0.041270676650848666,0.26197947118786075,0.06574615635489044,-0.0004344740840342536
2717,3.0,300.63282999999996,406.34006,0.0,0.0,0.0,0.027553487357533674,0.0,0.0,-0.032235395813135864,-0.05288541765238435,-0.03839641846318147,0.26395989890581373,0.06888324047274653,-0.006888947297411164
2718,3.0,301.19374,466.29661,0.0,0.0,0.0,0.027563628501205934,0.0,0.0,-0.054584292551800244,-0.06549523104712604,-0.02166300342797198,0.25977643242293774,0.07232941450710743,-0.02147572035898858
2719,3.0,300.78115,665.42174,0.0,0.0,0.0,0.0275737696448782,0.0,0.0,-0.05334506741449825,-0.06508490224687974,-0.08384162473102413,0.2823230912631197,0.08366129458422691,0.0025741879195775677
2720,3.0,299.44139,689.95537,0.0,0.0,0.0,0.027583910788550457,0.0,0.0,-0.05712828389587265,-0.059245145739790644,-0.0933557766852478,0.2928832547328267,0.05867366255088965,-0.00912537792202968
2721,3.0,299.23897999999997,638.57373,0.0,0.0,0.0,0.027594051932222717,0.0,0.0,-0.06043719699218694,-0.04300252473501876,-0.09067074599350591,0.27620407390921975,0.03423852337307917,0.006555020898430193
2722,3.0,299.76617999999996,684.5768400000001,0.0,0.0,0.0,0.027604193075894984,0.0,0.0,-0.059375118369867946,-0.048621778768595955,-0.100097367324591,0.27355905545067677,0.03315810087094977,0.005813333173631315
2723,3.0,300.43568999999997,667.24531,0.0,0.0,0.0,0.027614334219567244,0.0,0.0,-0.08450377759187351,-0.04446324735743086,-0.07385889020180493,0.2608170098781348,0.07049332325264934,0.017348847947197984
2724,3.0,299.67495,707.70547,0.0,0.0,0.0,0.027624475363239507,0.0,0.0,-0.08501768892334262,-0.07473619760213843,-0.05537090393568274,0.2641067999053117,0.06506816943472835,0.011683383629560187
2725,3.0,299.62194,598.3575900000001,0.0,0.0,0.0,0.027634616506911767,0.0,0.0,-0.05791592676835694,-0.05936522702239175,-0.06460461156697875,0.23400148783664879,0.06561428793387604,-0.00999727517477924
2726,3.0,299.76293,494.29894,0.0,0.0,0.0,0.027644757650584027,0.0,0.0,-0.03356012507337647,-0.08116789684414771,-0.03552651421119397,0.22072838775419582,0.044199073804608954,-0.02090026928269598
2727,3.0,300.03141,575.4889,0.0,0.0,0.0,0.02765489879425629,0.0,0.0,-0.04325840483577216,-0.047629538409419456,-0.08404631341022532,0.25617022465453276,0.07696470238182473,0.01208618195506329
2728,3.0,300.82513,656.21853,0.0,0.0,0.0,0.02766503993792855,0.0,0.0,-0.04220119184043336,-0.07383166518486803,-0.08344119031800433,0.2692746793903418,0.07822972993292322,-0.0026689033978502578
2729,3.0,300.26945,680.31016,0.0,0.0,0.0,0.027675181081600813,0.0,0.0,-0.05874231227166484,-0.09697702412488711,-0.05107796489875265,0.2769067223235657,0.07757646327545083,-0.013981475386364186
2730,3.0,301.84761000000003,562.3454,0.0,0.0,0.0,0.027685322225273073,0.0,0.0,-0.036459314279754164,-0.05767363333819444,-0.07680601221741322,0.27012184766645075,0.047002220073757955,-0.02279977986091308
2731,3.0,302.17835,582.76661,0.0,0.0,0.0,0.027695463368945333,0.0,0.0,-0.059882892445481346,-0.08226275005420132,-0.035000856271315564,0.26073622344766173,0.07663938121196802,-0.022401027443059277
2732,3.0,300.91446,689.7262099999999,0.0,0.0,0.0,0.027705604512617596,0.0,0.0,-0.058203785042266344,-0.045884511994448755,-0.10557124732657089,0.26527468210307276,0.02949792334921837,-0.015023870612240588
2733,3.0,300.35799,808.1564900000001,0.0,0.0,0.0,0.027715745656289856,0.0,0.0,-0.09094282897660841,-0.06408475043092245,-0.09063181489816372,0.26366598544930675,0.030086954003351176,-0.006037298632009984
2734,3.0,300.91665,651.93487,0.0,0.0,0.0,0.027725886799962116,0.0,0.0,-0.03776187160130656,-0.07695041048916422,-0.08345963856257502,0.3009947169508657,0.03887336237800216,-0.014710353806048886
2735,3.0,300.07406000000003,482.23912,0.0,0.0,0.0,0.027736027943634375,0.0,0.0,-0.08460820821343001,-0.013213769222847487,-0.04876667353289595,0.27357473042972374,0.08534346808224452,0.016363015381653884
2736,3.0,299.70783,532.63573,0.0,0.0,0.0,0.02774616908730664,0.0,0.0,-0.04343731440592916,-0.07622392536621572,-0.04224672324692696,0.2941859802538957,0.08560343158090092,-0.01998972119958188
2737,3.0,299.35536,540.78215,0.0,0.0,0.0,0.0277563102309789,0.0,0.0,-0.05426275384456685,-0.06220603073150723,-0.04791548569364025,0.24187382303108776,0.07890462137402983,-0.009890187203510481
2738,3.0,300.52675,467.36435,0.0,0.0,0.0,0.02776645137465116,0.0,0.0,-0.026218292167543972,-0.05723923072882225,-0.05860956941581415,0.26874340196540875,0.05302081522349704,-0.0038581994205746364
2739,3.0,300.27237,447.72533,0.0,0.0,0.0,0.02777659251832342,0.0,0.0,-0.04086607372691746,-0.03882649753437696,-0.05640474935721535,0.2335243584970598,0.08557971544906032,0.0015508964097615584
2740,3.0,300.00919,590.54105,0.0,0.0,0.0,0.02778673366199568,0.0,0.0,-0.05327276188736225,-0.051975634573095744,-0.07426133692952333,0.2695109895786637,0.05471855730930115,0.01049428600120539
2741,3.0,299.73425,858.37101,0.0,0.0,0.0,0.02779687480566794,0.0,0.0,-0.11263909233911289,-0.06771574027027323,-0.08056851989324383,0.22894911886301877,0.05503021581480945,-0.0034207993134316066
2742,3.0,299.04327,1011.1377,0.0,0.0,0.0,0.027807015949340205,0.0,0.0,-0.1031214314997929,-0.1105103045415179,-0.0937288888093211,0.2702531040844048,0.027917132616456473,-0.03080234099795437
2743,3.0,299.68051,744.05351,0.0,0.0,0.0,0.027817157093012464,0.0,0.0,-0.0982335403751456,-0.02401497475884348,-0.10392517187661589,0.2649683968628448,0.07428754970961034,0.009711281990328911
2744,3.0,300.42774,578.47447,0.0,0.0,0.0,0.027827298236684728,0.0,0.0,-0.04474897172662966,-0.06461760953926153,-0.06647521108009254,0.2919585525590657,0.060512032604822644,-0.024057500865540475
2745,3.0,300.11157000000003,504.52579000000003,0.0,0.0,0.0,0.027837439380356988,0.0,0.0,-0.05781464330161104,-0.03659180382307987,-0.05895679502633265,0.2662975175490187,0.07211127898582913,0.014250317995646886
2746,3.0,300.5983,393.29601,0.0,0.0,0.0,0.027847580524029247,0.0,0.0,-0.009034983144833413,-0.06384834905009144,-0.04666883444635536,0.2937647316573217,0.04226205878719046,-0.014475802619900486
2747,3.0,300.33044,347.59918999999996,0.0,0.0,0.0,0.02785772166770151,0.0,0.0,-0.02021125516169558,-0.08186774564846742,-0.0035824719795124567,0.2842254075308637,0.06938425313044264,0.02069496252093378
2748,3.0,299.83598,534.10318,0.0,0.0,0.0,0.02786786281137377,0.0,0.0,-0.01058782519743699,-0.07475707460719883,-0.07700913238545963,0.27690111905051273,0.048709665042519654,-0.01091638674111349
2749,3.0,299.74985,807.81993,0.0,0.0,0.0,0.027878003955046037,0.0,0.0,-0.05508585945730104,-0.12020261930057488,-0.07026860261897114,0.23001899951110777,0.05449770019825424,0.003227499058729357
2750,3.0,299.37751000000003,866.4694800000001,0.0,0.0,0.0,0.027888145098718297,0.0,0.0,-0.05851855017258125,-0.1026286677111609,-0.10223787741259291,0.25127952986685875,0.05240523336374385,-0.027397582548180872
2751,3.0,299.595,851.7249,0.0,0.0,0.0,0.027898286242390553,0.0,0.0,-0.08661388815037523,-0.05894842558050664,-0.11334078829836489,0.2756774878322497,0.1088485135825119,0.02027558742379468
2752,3.0,299.21788,602.7933,0.0,0.0,0.0,0.02790842738606282,0.0,0.0,-0.06592495548078653,-0.05992477108536444,-0.05738438589839794,0.3046977002363217,0.08444494018506671,-0.013029878515198887
2753,3.0,299.5657,548.9046,0.0,0.0,0.0,0.02791856852973508,0.0,0.0,-0.05488625324060145,-0.03605345593894906,-0.07591358307258733,0.27528165154818374,0.08205461125840963,0.015725643578500186
2754,3.0,302.04793,562.49723,0.0,0.0,0.0,0.027928709673407343,0.0,0.0,-0.07335131067021072,-0.05262705812863625,-0.045006741538819554,0.27073420536438575,0.04810422581626746,-0.01017689756638159
2755,3.0,300.45481,431.34002000000004,0.0,0.0,0.0,0.027938850817079603,0.0,0.0,-0.046722815345432864,-0.04108516879604046,-0.04330861239147726,0.28190198452155973,0.05671004769184595,-0.0016143885862027485
2756,3.0,300.32115,526.0373,0.0,0.0,0.0,0.027948991960751863,0.0,0.0,-0.060393381018112646,-0.04566164864820386,-0.053847173369052245,0.27744981424466475,0.029254751431219174,-0.011176733248307688
2757,3.0,300.80109,721.16575,0.0,0.0,0.0,0.027959133104424126,0.0,0.0,-0.06641254561440793,-0.09288023713506571,-0.05992359774174864,0.27945079067464573,0.037550532961699065,-0.011822452205785188
2758,3.0,300.38445,595.86141,0.0,0.0,0.0,0.027969274248096386,0.0,0.0,-0.04283662124314536,-0.09400673009274191,-0.04428363763145476,0.27251737355287076,0.03482957850091176,-0.009743629999771412
2759,3.0,299.9631,550.5259900000001,0.0,0.0,0.0,0.02797941539176865,0.0,0.0,-0.04325999969142955,-0.06781090978591574,-0.05627524484868424,0.28701199729337873,0.08212074913218692,0.01059381046577769
2760,3.0,300.68768,676.6294,0.0,0.0,0.0,0.02798955653544091,0.0,0.0,-0.03274040270272617,-0.09025807354577832,-0.08267996591537732,0.26582478571486373,0.06498164699543924,-0.016745878011439484
2761,3.0,298.92708999999996,613.25443,0.0,0.0,0.0,0.02799969767911317,0.0,0.0,-0.06474716471029764,-0.04591530669148795,-0.07575156336834724,0.25513052872692277,0.05517782102312694,-0.0052276070320496455
2762,3.0,300.15825,625.84732,0.0,0.0,0.0,0.02800983882278543,0.0,0.0,-0.04876874360285025,-0.06184818625994074,-0.07962502902287852,0.26090411898923177,0.06674091362731534,-0.03968955255880386
2763,3.0,300.1997,627.46763,0.0,0.0,0.0,0.02801997996645769,0.0,0.0,-0.07958522957220063,-0.046410051384065454,-0.06473921272351284,0.27587153535890074,0.1003055608358881,-0.005537006395134984
2764,3.0,300.38377,688.6224900000001,0.0,0.0,0.0,0.028030121110129952,0.0,0.0,-0.06952638577497003,-0.07362036099576394,-0.06617729629894063,0.2930347052252737,0.06403741847900114,-0.03159785682371567
2765,3.0,300.82982999999996,696.02147,0.0,0.0,0.0,0.02804026225380221,0.0,0.0,-0.05907178168743095,-0.1050478935174199,-0.04745346999254286,0.28673882506641873,0.05161142182465075,-0.01208920448011159
2766,3.0,301.64592000000005,687.37902,0.0,0.0,0.0,0.02805040339747447,0.0,0.0,-0.050232963964607545,-0.08446854891239672,-0.07424454534886613,0.28503801384606176,0.05184599428905125,-0.0028255770932377475
2767,3.0,300.36591,714.81461,0.0,0.0,0.0,0.028060544541146735,0.0,0.0,-0.06833507115539644,-0.07331241199887173,-0.07563831139142013,0.2763648057725827,0.05478727491783305,0.01171039586397609
2768,3.0,301.01842999999997,731.78238,0.0,0.0,0.0,0.028070685684818995,0.0,0.0,-0.06597921097064113,-0.07212272567220883,-0.08434163325787111,0.2630409013301157,0.04512628478561755,-0.0038262219566937063
2769,3.0,299.59726,713.5502700000001,0.0,0.0,0.0,0.028080826828491258,0.0,0.0,-0.07564951895077622,-0.06907179010435494,-0.07218015364812654,0.26179866684001674,0.04781239458871595,-0.023914473521174776
2770,3.0,300.5455,806.0045200000001,0.0,0.0,0.0,0.028090967972163518,0.0,0.0,-0.07706404243487883,-0.08841935088081052,-0.07952185483144603,0.27669396006756775,0.08628064235148641,0.012373139449633789
2771,3.0,300.79762,691.48272,0.0,0.0,0.0,0.028101109115835778,0.0,0.0,-0.06343377067892574,-0.06905779002772323,-0.07770191883658233,0.2551771787615268,0.08586098861056983,-0.006299017079839583
2772,3.0,299.72837000000004,537.01725,0.0,0.0,0.0,0.02811125025950804,0.0,0.0,-0.04668380217683255,-0.04330737521310516,-0.07324865728932962,0.2526275983299027,0.07469307367788243,0.03353666529381117
2773,3.0,299.11915,621.57211,0.0,0.0,0.0,0.0281213914031803,0.0,0.0,-0.07755959772753633,-0.052873817965239545,-0.05850898610488735,0.25837767105739073,0.04913875011536705,-0.00990618976631481
2774,3.0,300.18363999999997,679.73879,0.0,0.0,0.0,0.028131532546852564,0.0,0.0,-0.06595539148729034,-0.03533110994265907,-0.10533711562596389,0.28338821976823975,0.08892904810511373,0.006075036625359433
2775,3.0,299.56759,424.29103,0.0,0.0,0.0,0.028141673690524824,0.0,0.0,-0.048530918605628755,-0.06390039058847753,-0.016542570392124586,0.2842585610741357,0.07939127019830833,-0.04550360291085596
2776,3.0,300.34315,529.52743,0.0,0.0,0.0,0.028151814834197084,0.0,0.0,-0.04964691226576875,-0.06425487714921264,-0.04706132700509136,0.25686626667822676,0.07565640803820613,-0.02136923689272948
2777,3.0,300.16075,533.75743,0.0,0.0,0.0,0.028161955977869347,0.0,0.0,-0.06903801645202173,-0.05936332515195404,-0.033847591219497174,0.24440723199111578,0.056379022937176344,-0.024438628811154876
2778,3.0,299.80901,496.32786,0.0,0.0,0.0,0.028172097121541607,0.0,0.0,-0.04027043870863286,-0.07967647780995613,-0.03092436062799677,0.26098715483492674,0.08456500930866662,0.001013706569170049
2779,3.0,301.71963,616.0787799999999,0.0,0.0,0.0,0.028182238265213874,0.0,0.0,-0.05081181044198525,-0.05338226585216945,-0.08307849136520873,0.2644690570810638,0.06866458211441664,0.007778848079262533
2780,3.0,301.86087000000003,788.58995,0.0,0.0,0.0,0.028192379408886133,0.0,0.0,-0.04808266689388975,-0.08731893999395841,-0.1043100447945999,0.2524560044254678,0.05341989390788305,0.0011744954785136788
2781,3.0,300.49941,656.61139,0.0,0.0,0.0,0.02820252055255839,0.0,0.0,-0.04126592349462956,-0.08183478360946432,-0.07649275885624753,0.2775122101858227,0.04661372073366605,-0.01893769908450538
2782,3.0,299.77027999999996,712.8021,0.0,0.0,0.0,0.028212661696230656,0.0,0.0,-0.06734404163008943,-0.06728854693536253,-0.08204145217936093,0.3013617667995907,0.08572082065798632,-0.019772717478665283
2783,3.0,300.10332,599.6513,0.0,0.0,0.0,0.028222802839902916,0.0,0.0,-0.05470373346033815,-0.08151074420098413,-0.04606454221921636,0.3102744464017037,0.08740470148242242,-0.02855892826954677
2784,3.0,299.64695,304.39598,0.0,0.0,0.0,0.02823294398357518,0.0,0.0,-0.05099555118861905,0.003755397395903866,-0.04528862265038905,0.24865942722827475,0.07307790438247763,0.015309786485708287
2785,3.0,300.15628,438.06587,0.0,0.0,0.0,0.02824308512724744,0.0,0.0,-0.038106438443562665,-0.05243724497415315,-0.04261740154426006,0.25193893276693674,0.04945748110657335,-0.022871896923530477
2786,3.0,299.65956,565.40209,0.0,0.0,0.0,0.0282532262709197,0.0,0.0,-0.03575286617753316,-0.04427769593286836,-0.091837555159411,0.2559087858637307,0.09113535662810941,-0.001075195448838529
2787,3.0,299.93226,610.23968,0.0,0.0,0.0,0.028263367414591963,0.0,0.0,-0.05553163681229586,-0.05893479331366124,-0.07103119592248323,0.2998352751264377,0.05055440236008105,-0.025418897620399873
2788,3.0,299.28317999999996,690.0568,0.0,0.0,0.0,0.028273508558264222,0.0,0.0,-0.05533653854529115,-0.09043643292113102,-0.06398706704178184,0.27080136358101375,0.05199662202241705,0.0016165005033861783
2789,3.0,300.72593,878.28539,0.0,0.0,0.0,0.028283649701936482,0.0,0.0,-0.1091098814458069,-0.06744249306280584,-0.09042444819894822,0.2794475381418247,0.041370191996170064,0.01034346777682079
2790,3.0,300.08186,676.36935,0.0,0.0,0.0,0.028293790845608742,0.0,0.0,-0.07797433923196813,-0.04325719805490306,-0.08436785414395892,0.26964023976141976,0.07312798933492064,0.04636606721047455
2791,3.0,300.36786,487.57754000000006,0.0,0.0,0.0,0.028303931989281002,0.0,0.0,-0.02202198983240118,-0.05640441093168194,-0.06978499557149283,0.2966409737886847,0.07387108770650873,0.018428598664511082
2792,3.0,300.73693,674.31854,0.0,0.0,0.0,0.028314073132953265,0.0,0.0,-0.04734382214622145,-0.03121218242490257,-0.1264199928416819,0.2588545470844547,0.09194211649023042,0.03287610222236867
2793,3.0,301.19673,675.3165799999999,0.0,0.0,0.0,0.028324214276625525,0.0,0.0,-0.03680011993763907,-0.07933959140345802,-0.08913966531065001,0.29942741156368474,0.05376364609705874,-0.015856194774384585
2794,3.0,301.3403,480.23987,0.0,0.0,0.0,0.028334355420297788,0.0,0.0,-0.04660732712553505,-0.06513856701192604,-0.034235034752984866,0.2495865612022758,0.08481580998666871,-0.03518630333111777
2795,3.0,300.77286000000004,597.65687,0.0,0.0,0.0,0.028344496563970048,0.0,0.0,-0.08860187268757401,-0.05307558037815195,-0.03999531293548006,0.28948494561993976,0.05566210289517185,-0.02987618481029987
2796,3.0,300.50515,651.16403,0.0,0.0,0.0,0.028354637707642308,0.0,0.0,-0.0968024391061569,-0.07446913324678123,-0.026666033201232578,0.24377970593918377,0.036520797282572064,-0.04512603653934305
2797,3.0,300.68834,537.03113,0.0,0.0,0.0,0.02836477885131457,0.0,0.0,-0.03934514074381306,-0.06341985571530244,-0.06047905536706804,0.2888458381193647,0.03617510674595507,-0.025924363512285477
2798,3.0,299.72736000000003,589.74268,0.0,0.0,0.0,0.02837491999498683,0.0,0.0,-0.03365915912490037,-0.08304419386257382,-0.06256369788430623,0.2884245489927867,0.06535803698358603,-0.01990774723999168
2799,3.0,299.64521,674.579,0.0,0.0,0.0,0.028385061138659094,0.0,0.0,-0.040322051642226665,-0.10102258828240321,-0.06371053285099004,0.3196855031980027,0.053698074630087356,-0.00961471439219843
2800,3.0,299.78785,419.56137,0.0,0.0,0.0,0.028395202282331354,0.0,0.0,-0.01976348778350438,-0.039911771477985164,-0.06786091975785133,0.27886000507133973,0.06516858251963835,0.033086068921340764
2801,3.0,299.99632,304.34615,0.0,0.0,0.0,0.028405343426003614,0.0,0.0,-0.03999521566347047,-0.05624815459401065,0.003729739572896636,0.28979978269101175,0.05679155454314005,-0.022717926478084776
2802,3.0,300.73156,574.93443,0.0,0.0,0.0,0.028415484569675877,0.0,0.0,-0.07446830339494934,-0.02073686851856958,-0.07956053768051372,0.2550903026979528,0.08759779148772892,0.034818702274338365
2803,3.0,300.60684,541.29752,0.0,0.0,0.0,0.028425625713348137,0.0,0.0,-0.04304306487151976,-0.037780133407858865,-0.08371773058829672,0.26447541015919074,0.06527266660966063,-0.028053949750959272
2804,3.0,299.06869,540.25782,0.0,0.0,0.0,0.0284357668570204,0.0,0.0,-0.022420101876191777,-0.07456818249705663,-0.06723660266898603,0.2309985489127818,0.07021687012186553,0.003250889228012787
2805,3.0,300.00275,817.57561,0.0,0.0,0.0,0.02844590800069266,0.0,0.0,-0.08743189306210601,-0.06470083283622503,-0.096389844678687,0.27300588169108275,0.06166290537315495,-0.025197255240525476
2806,3.0,299.48686000000004,865.66451,0.0,0.0,0.0,0.02845604914436492,0.0,0.0,-0.11363017252692491,-0.07993693273491102,-0.06957328912209904,0.26640815432743775,0.1046870751568099,0.02890692698989157
2807,3.0,299.02071,488.75253,0.0,0.0,0.0,0.028466190288037183,0.0,0.0,-0.08072309322249901,-0.03949452927230657,-0.028350941461270072,0.2731752261802957,0.035817147777127266,-0.015831349881932587
2808,3.0,299.54606,658.38578,0.0,0.0,0.0,0.028476331431709443,0.0,0.0,-0.08481903718823722,-0.041911897791132253,-0.07340190224770374,0.2713752988351567,0.04549340150884916,0.027868139947621273
2809,3.0,299.73311,858.3302800000001,0.0,0.0,0.0,0.02848647257538171,0.0,0.0,-0.06339499157109854,-0.10946381983823789,-0.08805216019032161,0.2766827129914577,0.05810266369553644,-0.0054018397437200745
2810,3.0,299.37419,695.74789,0.0,0.0,0.0,0.02849661371905397,0.0,0.0,-0.03752236156916876,-0.07840795454601263,-0.0955596716465053,0.3102264183469637,0.07732181528681903,0.02150534373891218
2811,3.0,300.22454,501.39354000000003,0.0,0.0,0.0,0.02850675486272623,0.0,0.0,-0.024815333920082776,-0.06747128456439734,-0.06012449787882595,0.2900378559345077,0.06162040459771043,-0.015662501885268586
2812,3.0,300.48827,528.131,0.0,0.0,0.0,0.028516896006398493,0.0,0.0,-0.037823205656359764,-0.06952973861955093,-0.05318569127976904,0.25439174781401075,0.06642797234718043,0.0020192770440121285
2813,3.0,300.3204,508.76027999999997,0.0,0.0,0.0,0.028527037150070753,0.0,0.0,-0.07023290480469803,-0.04697527572709875,-0.037442239830761365,0.27733800209612974,0.05117684797601165,-0.02240982954667798
2814,3.0,300.89572999999996,619.9812099999999,0.0,0.0,0.0,0.028537178293743012,0.0,0.0,-0.053143788321883545,-0.08497593592647192,-0.050339081647580546,0.2800036401942077,0.0929947830323705,-0.026037329752684375
2815,3.0,299.91323,731.98617,0.0,0.0,0.0,0.028547319437415276,0.0,0.0,-0.06729347133084854,-0.093921962602626,-0.06129008506511044,0.2798352785575917,0.07286577034154164,-0.04665676562441426
2816,3.0,299.29396,604.0337599999999,0.0,0.0,0.0,0.028557460581087536,0.0,0.0,-0.024114174983383776,-0.08409628386540702,-0.07540072248147192,0.2695422382117477,0.05954765358364585,-0.03710491367371986
2817,3.0,299.16791,443.20025,0.0,0.0,0.0,0.028567601724759795,0.0,0.0,-0.036339643363443565,-0.091467323705372,-0.006914843132866884,0.26625117148944477,0.07474575052408122,-0.045839697969025955
2818,3.0,299.18563,599.1977,0.0,0.0,0.0,0.028577742868432055,0.0,0.0,-0.08048525606627634,-0.04253987169960846,-0.059116011067546034,0.27557953694508275,0.07688104541381842,0.018862964796879683
2819,3.0,299.79852999999997,594.99281,0.0,0.0,0.0,0.02858788401210432,0.0,0.0,-0.0927049033245116,-0.034928447392669364,-0.05322960756560325,0.28770104789138273,0.04885950548055775,0.02296203565242648
2820,3.0,301.11728,514.30312,0.0,0.0,0.0,0.02859802515577658,0.0,0.0,-0.04038794228297956,-0.05034056707222715,-0.06560679697588673,0.2854173037559947,0.029745026677605573,0.017560629377099183
2821,3.0,301.10438999999997,667.83094,0.0,0.0,0.0,0.028608166299448838,0.0,0.0,-0.014559149533376184,-0.08596942967602211,-0.1024753528385299,0.27712360850747075,0.056023888909627347,-0.0014909937731246287
2822,3.0,300.67081,858.22511,0.0,0.0,0.0,0.0286183074431211,0.0,0.0,-0.06498975907573984,-0.1110796700377099,-0.08480957241905311,0.2880320665665517,0.07169696709943973,-0.005294970533147905
2823,3.0,301.26092,865.24957,0.0,0.0,0.0,0.02862844858679336,0.0,0.0,-0.07403854957703593,-0.09480047070432801,-0.09417524270362282,0.29747458477845573,0.06433857160747264,-0.015927233738895586
2824,3.0,299.7619,524.60433,0.0,0.0,0.0,0.028638589730465625,0.0,0.0,-0.07677483856483662,-0.04115881080005836,-0.04153296961148496,0.2731621045915007,0.07033409403918463,0.016858158281520683
2825,3.0,300.22972999999996,574.98673,0.0,0.0,0.0,0.028648730874137884,0.0,0.0,-0.08064531006532243,-0.04216310984867496,-0.051973188587354356,0.2697698547142118,0.05467648513864895,0.008999262025808011
2826,3.0,300.41794,680.12738,0.0,0.0,0.0,0.028658872017810144,0.0,0.0,-0.05240048831352555,-0.06878278787108263,-0.08555846556796311,0.24850474446800877,0.07033186184921433,0.0038704720071108456
2827,3.0,299.96842000000004,647.62238,0.0,0.0,0.0,0.028669013161482407,0.0,0.0,-0.04840576296652686,-0.06610771438807345,-0.08234755503457092,0.2385148888170868,0.07192811579175235,-0.020522966356209083
2828,3.0,300.10402,770.13468,0.0,0.0,0.0,0.028679154305154667,0.0,0.0,-0.07259069117789343,-0.08213574523366693,-0.07937527705872993,0.26429106956849774,0.04923320123668865,-0.01047189621374569
2829,3.0,301.32535,625.14821,0.0,0.0,0.0,0.02868929544882693,0.0,0.0,-0.06337311651468965,-0.06921953514118624,-0.05743679322007015,0.2943513832002197,0.08601649514316712,-0.012291995341875488
2830,3.0,300.01172,443.8642,0.0,0.0,0.0,0.02869943659249919,0.0,0.0,-0.03663838900967747,-0.05798458966138344,-0.04030065585311506,0.27779625458635576,0.06938665453317963,-0.00827421298222624
2831,3.0,299.58027999999996,731.9055,0.0,0.0,0.0,0.02870957773617145,0.0,0.0,-0.08073170584834902,-0.06459475264350574,-0.07715453681455993,0.28966342962505476,0.05989416789259414,0.011695306543486888
2832,3.0,299.34411,659.6031,0.0,0.0,0.0,0.028719718879843713,0.0,0.0,-0.03017915570945077,-0.08303393369206122,-0.08728978372233093,0.27042431295380176,0.03894443376651636,-0.025158682835718676
2833,3.0,299.00156,366.50779,0.0,0.0,0.0,0.028729860023515973,0.0,0.0,0.007696817073691702,-0.06455086472867434,-0.05455516971742604,0.2998378082516877,0.05935322507495724,-0.04054000984473746
2834,3.0,299.96585,514.64405,0.0,0.0,0.0,0.028740001167188237,0.0,0.0,-0.047179506417254755,-0.05968125770208154,-0.04957817540548495,0.2655493032776758,0.06607779007287014,-0.04631912130684136
2835,3.0,299.85843,599.8661599999999,0.0,0.0,0.0,0.028750142310860496,0.0,0.0,-0.06624375334649944,-0.06807291903652403,-0.04802766159896116,0.25515781555211575,0.0881233308773456,-0.00021603197354069578
2836,3.0,300.66771,519.71871,0.0,0.0,0.0,0.028760283454532756,0.0,0.0,-0.09252489843099651,-0.02649554069965627,-0.038961072346408464,0.26175580636078677,0.06458416823296113,0.009915339313392802
2837,3.0,301.21452999999997,607.41088,0.0,0.0,0.0,0.028770424598205023,0.0,0.0,-0.057135245937309745,-0.042647077613188866,-0.08485541793307771,0.28050427693611674,0.08105306419706462,0.034374107382210264
2838,3.0,301.26156000000003,775.07852,0.0,0.0,0.0,0.02878056574187728,0.0,0.0,-0.055136469273295845,-0.07829407030102313,-0.10217397172878591,0.27984341495589476,0.07217662956427873,0.02243578901423998
2839,3.0,300.80366000000004,883.1734,0.0,0.0,0.0,0.028790706885549546,0.0,0.0,-0.07151203071768794,-0.09147192994032662,-0.1054786970624369,0.2691886240593488,0.058959941167893146,-0.01133470299189809
2840,3.0,300.23312000000004,928.1850800000001,0.0,0.0,0.0,0.028800848029221806,0.0,0.0,-0.0973479628274959,-0.0911791563901821,-0.09361796832087411,0.2740265893118187,0.054475042912768154,0.008605271376799162
2841,3.0,299.22906,851.60384,0.0,0.0,0.0,0.028810989172894066,0.0,0.0,-0.1004850824091055,-0.06822238558527523,-0.09015883583098432,0.26613969371344276,0.06747490794675494,-0.005844222305579834
2842,3.0,299.76726,533.54994,0.0,0.0,0.0,0.028821130316566326,0.0,0.0,-0.06656432946613784,-0.05822176921829124,-0.03739976134681907,0.2922844644537307,0.06725090469414753,0.004376481710325116
2843,3.0,299.53936,295.62807000000004,0.0,0.0,0.0,0.02883127146023859,0.0,0.0,-0.0013029667759178088,-0.04432816794684955,-0.04423241783889975,0.25679474135366775,0.06315821224798024,-0.005719092909655525
2844,3.0,299.3329,606.45145,0.0,0.0,0.0,0.02884141260391085,0.0,0.0,-0.025742049421792475,-0.06750585868430953,-0.09109818858794122,0.29512133168620774,0.06048395848430194,-0.006627056597064563
2845,3.0,300.12082000000004,590.96887,0.0,0.0,0.0,0.02885155374758311,0.0,0.0,-0.035786594233611864,-0.05987608543130953,-0.08397709930914442,0.27172835570000076,0.07358239046151653,-0.02766961486877837
2846,3.0,300.6678,366.94297,0.0,0.0,0.0,0.02886169489125537,0.0,0.0,-0.016055605433814884,-0.06046335100376814,-0.035022542863205865,0.3026329903750507,0.08329956328527682,-0.026841403488790272
2847,3.0,301.02691,615.43408,0.0,0.0,0.0,0.02887183603492763,0.0,0.0,-0.06881053775157134,-0.06540571648029164,-0.05286033768590915,0.27758318835532775,0.08570361263153801,0.0034706092697974664
2848,3.0,301.0707,855.3172400000001,0.0,0.0,0.0,0.02888197717859989,0.0,0.0,-0.11797311444303987,-0.08087074504032112,-0.061151227244906244,0.27443676308479975,0.04462501374914596,0.00966294195588312
2849,3.0,301.41123,917.23677,0.0,0.0,0.0,0.028892118322272155,0.0,0.0,-0.08444128133895562,-0.1017063669401369,-0.09266942437226011,0.26174187417191175,0.06308642651814554,0.009067992198641153
2850,3.0,301.14335,946.2874300000001,0.0,0.0,0.0,0.028902259465944418,0.0,0.0,-0.08075429727257863,-0.1066714545501529,-0.1002219960736409,0.2811486229397087,0.06985868823801573,-0.012332966109668988
2851,3.0,300.47137000000004,667.62875,0.0,0.0,0.0,0.028912400609616674,0.0,0.0,-0.053095399550107954,-0.08956870985349341,-0.06027836091976104,0.2834908924008727,0.07133729877769322,-0.02132919223552738
2852,3.0,300.15339,228.99187999999998,0.0,0.0,0.0,0.028922541753288938,0.0,0.0,-0.023561391325078278,-0.030159358828996972,-0.015887062425430986,0.2687754915960757,0.05262375594656035,-0.04142248786033126
2853,3.0,300.36644,361.16954,0.0,0.0,0.0,0.028932682896961198,0.0,0.0,-0.05458876706424185,-0.033130004458926866,-0.022067751246667478,0.2576456789201488,0.06899066626159864,-0.0100857051587066
2854,3.0,299.68792,472.29222000000004,0.0,0.0,0.0,0.02894282404063346,0.0,0.0,-0.06549988693133553,-0.03539956207966476,-0.04266559273226616,0.2998017973431337,0.07068775378783813,-0.013566326555392187
2855,3.0,299.44734,174.87673,0.0,0.0,0.0,0.02895296518430572,0.0,0.0,0.011259829889008689,-0.019182810363195982,-0.04523517978711466,0.29670588259009073,0.07169154317165442,-0.002221446175514668
2856,3.0,299.28135,301.01873,0.0,0.0,0.0,0.02896310632797798,0.0,0.0,-0.004203124244091067,-0.047675550096460455,-0.039623502837785256,0.3187126108494857,0.05339560934273636,-0.017400766882321984
2857,3.0,299.12899,976.66699,0.0,0.0,0.0,0.028973247471650244,0.0,0.0,-0.0999018323467932,-0.08519496209458811,-0.11178558111737791,0.2695911072640707,0.04289821165047387,0.014903665713127285
2858,3.0,299.23356,1151.1907,0.0,0.0,0.0,0.028983388615322504,0.0,0.0,-0.13058040788478287,-0.12095486630731589,-0.09839794324362092,0.27754701532675774,0.06351912078784913,-0.017494558377828484
2859,3.0,299.96934,928.67905,0.0,0.0,0.0,0.028993529758994767,0.0,0.0,-0.10792156199352891,-0.0968666649769955,-0.07750701106059643,0.26949444320453075,0.05303911756005336,0.008319083040379573
2860,3.0,299.69977,808.53872,0.0,0.0,0.0,0.029003670902667027,0.0,0.0,-0.07946369022270564,-0.08437679303634113,-0.08193509638261443,0.27019124516579973,0.060201550482680444,0.0012556724155752188
2861,3.0,300.23642,500.17427999999995,0.0,0.0,0.0,0.029013812046339287,0.0,0.0,-0.0020347028648595384,-0.08748947505203891,-0.06251631425662985,0.24726077732023877,0.07483983687536684,0.004895352698383695
2862,3.0,300.40546,366.2943,0.0,0.0,0.0,0.02902395319001155,0.0,0.0,-0.002047452084242788,-0.057868713366697355,-0.05142815426581365,0.29482426702188974,0.08517090551071392,-0.029854323939392368
2863,3.0,301.24032,533.29475,0.0,0.0,0.0,0.02903409433368381,0.0,0.0,-0.025844511298404677,-0.07443129443504683,-0.06183248290989094,0.29961302884950375,0.08195066193065062,-0.018832393014862482
2864,3.0,299.49656,256.57275,0.0,0.0,0.0,0.029044235477356073,0.0,0.0,-0.0034876295410022364,-0.049235294611395246,-0.025268785631334976,0.27887986477329973,0.053471143084690954,-0.044565449842017456
2865,3.0,300.2659,215.13747,0.0,0.0,0.0,0.029054376621028333,0.0,0.0,-0.014707359652003387,-0.028211633758021472,-0.022477426500599276,0.2912365612003107,0.04402231435116416,-0.012700577298949387
2866,3.0,299.59621,979.4471599999999,0.0,0.0,0.0,0.029064517764700593,0.0,0.0,-0.0890700661745311,-0.11703644578559788,-0.09162097396378611,0.2728489191180918,0.059157520884392745,-0.008995361722198081
2867,3.0,299.74602000000004,1430.8878,0.0,0.0,0.0,0.02907465890837286,0.0,0.0,-0.12610217681531588,-0.12483031489229288,-0.18402166009152382,0.2923820911008657,0.07086533498711403,0.008460689706780062
2868,3.0,300.24745,902.9658,0.0,0.0,0.0,0.02908480005204512,0.0,0.0,-0.09189781010310773,-0.08374812099854602,-0.0988331240290699,0.27706482986916975,0.044703287319370955,0.004882689098633896
2869,3.0,300.48426,520.4596799999999,0.0,0.0,0.0,0.029094941195717375,0.0,0.0,-0.03227560765660447,-0.07864813534971662,-0.04728300586196936,0.26018667712342575,0.07575433866037112,0.004676097535744895
2870,3.0,299.75612,679.71358,0.0,0.0,0.0,0.029105082339389635,0.0,0.0,-0.10738417467049288,-0.03883448093191486,-0.06039730026949944,0.26965980562085073,0.07396953305972452,0.02869032451601457
2871,3.0,300.20763,680.28453,0.0,0.0,0.0,0.029115223483061902,0.0,0.0,-0.091036550557858,-0.049552645555965356,-0.06620031430146235,0.2605119101405238,0.08019551213393084,0.014184321976883586
2872,3.0,299.90207999999996,353.59947,0.0,0.0,0.0,0.029125364626734162,0.0,0.0,-0.014289449714508887,-0.05252268931533585,-0.04067327047138926,0.27483283241638873,0.07037144750412114,0.0012308618723016087
2873,3.0,300.91533,294.51034,0.0,0.0,0.0,0.029135505770406418,0.0,0.0,0.045890892430328456,-0.040632687778384066,-0.09478199510200461,0.2734463617745547,0.08116622498148272,-0.01123650385845659
2874,3.0,299.64203,240.96867000000003,0.0,0.0,0.0,0.029145646914078685,0.0,0.0,0.017179456848480382,-0.05458563612143285,-0.03584228043260767,0.31725477700310867,0.08565562206705173,-0.016549309518539685
2875,3.0,299.43453,590.8806,0.0,0.0,0.0,0.029155788057750945,0.0,0.0,-0.043156846778249165,-0.06751890731909733,-0.06893719300082123,0.2950335538300447,0.06961585069254952,-0.04425920006554296
2876,3.0,300.4599,1114.0851,0.0,0.0,0.0,0.029165929201423205,0.0,0.0,-0.13657268791617488,-0.1010699313800756,-0.1010114394915529,0.28730287099958574,0.06219452223687144,-0.007350958641533133
2877,3.0,300.85978,899.07439,0.0,0.0,0.0,0.029176070345095468,0.0,0.0,-0.10678193934105691,-0.0967789691940906,-0.06973525917708423,0.28329344035388576,0.053419781437121956,-0.0007928651938972022
2878,3.0,300.33834,515.6299,0.0,0.0,0.0,0.029186211488767728,0.0,0.0,-0.03445913223785157,-0.05793944835617835,-0.06434003372736695,0.28663841198150875,0.08818801473722941,0.005676546436631515
2879,3.0,300.3744,628.1786099999999,0.0,0.0,0.0,0.02919635263243999,0.0,0.0,-0.04840626959157686,-0.07172052921726514,-0.07082381301126614,0.27831584923763575,0.06656432136013704,-0.009106972335288191
2880,3.0,299.60273,805.66531,0.0,0.0,0.0,0.02920649377611225,0.0,0.0,-0.08010594082509083,-0.07904187116632533,-0.08575432478579292,0.26553807646656774,0.06119436332816345,0.008169669484608602
2881,3.0,300.79534,614.0531,0.0,0.0,0.0,0.02921663491978451,0.0,0.0,-0.04905987062158225,-0.06682534167864773,-0.07077159922036302,0.26087894985674775,0.07454841804060602,-0.008319952206315352
2882,3.0,300.94019,364.49248,0.0,0.0,0.0,0.029226776063456774,0.0,0.0,-0.05055664468255236,-0.05269044300189185,-0.007549525972905203,0.2821637678173957,0.07658377303322993,-0.008803124873475782
2883,3.0,299.26842999999997,381.39069,0.0,0.0,0.0,0.029236917207129034,0.0,0.0,-0.055740135311873044,-0.02025901267865888,-0.03993409743068856,0.29411328969172174,0.054792122306311454,-0.008229674256855612
2884,3.0,300.1142,584.25853,0.0,0.0,0.0,0.029247058350801297,0.0,0.0,-0.024293125083544774,-0.07328100327227194,-0.08002587582868902,0.2843625610643997,0.06412060935196144,-0.02225855333324818
2885,3.0,300.85188999999997,773.72224,0.0,0.0,0.0,0.029257199494473557,0.0,0.0,-0.05878861881448494,-0.09403636056541621,-0.08236726173576582,0.29700398076951073,0.08504622407265883,-0.013287065708581286
2886,3.0,300.54835,852.99636,0.0,0.0,0.0,0.029267340638145817,0.0,0.0,-0.0931434359412914,-0.06751259882397473,-0.0986335583423743,0.29102131648156776,0.12601778321448687,0.009024749420148422
2887,3.0,299.96996,881.6907199999999,0.0,0.0,0.0,0.02927748178181808,0.0,0.0,-0.08624700143491631,-0.10305946112367691,-0.07870549746437783,0.2721169371133507,0.07028871765995634,-0.01234206610881709
2888,3.0,299.589,811.75402,0.0,0.0,0.0,0.02928762292549034,0.0,0.0,-0.13441063511779688,-0.04711665957980225,-0.06522565383152085,0.2869818733679057,0.034275966004024466,0.027866549144964274
2889,3.0,299.41085,844.26818,0.0,0.0,0.0,0.029297764069162603,0.0,0.0,-0.0944391892884223,-0.07395855854789142,-0.08823869750723141,0.27000957955537075,0.03255564870599237,-0.004934246404797205
2890,3.0,299.37342,736.89633,0.0,0.0,0.0,0.029307905212834863,0.0,0.0,-0.06788253136923424,-0.07552032753652602,-0.08059522409962933,0.29874581848641674,0.048887738681344155,0.024514867775179076
2891,3.0,299.70931,339.7434,0.0,0.0,0.0,0.029318046356507123,0.0,0.0,-0.02147810656297408,-0.04012694324272097,-0.041668458375106666,0.2888617968084397,0.040704424872213964,-0.017225915378815484
2892,3.0,300.65378,277.52045,0.0,0.0,0.0,0.029328187500179386,0.0,0.0,-0.014558740180335787,-0.04407836633344605,-0.025722180600581575,0.26712956813363575,0.06991216453854343,-0.0010627205162573492
2893,3.0,301.32371,412.37793999999997,0.0,0.0,0.0,0.029338328643851646,0.0,0.0,-0.007947261594283652,-0.06836558518215793,-0.04903975051434655,0.27373899853593575,0.08306782792115633,-0.034299393359586566
2894,3.0,300.99863,629.6483099999999,0.0,0.0,0.0,0.029348469787523913,0.0,0.0,-0.06853635734076184,-0.07254156273354483,-0.05031944486064255,0.28201989643569675,0.1048483541752269,-0.012318410771982488
2895,3.0,300.96094,793.99482,0.0,0.0,0.0,0.02935861093119617,0.0,0.0,-0.05888060672481345,-0.10227561084631691,-0.08019837760521363,0.3000868853912697,0.05142371116412515,-0.020873989628102378
2896,3.0,300.21914,553.32585,0.0,0.0,0.0,0.02936875207486843,0.0,0.0,-0.04216857430646426,-0.04670399827782575,-0.07932467028248542,0.29164590410820973,0.026551564310935374,-0.01172918354733029
2897,3.0,299.40339,370.99721,0.0,0.0,0.0,0.02937889321854069,0.0,0.0,-0.02512961775660018,-0.04903983157435455,-0.03860443769546136,0.3141243610841607,0.03225306689487987,0.004025359950522096
2898,3.0,299.69897000000003,823.56389,0.0,0.0,0.0,0.02938903436221295,0.0,0.0,-0.06223729861634315,-0.08350221026552652,-0.10460335030104691,0.28507072155928975,0.08132972605736902,-0.007984148052249061
2899,3.0,298.86071,939.4933300000001,0.0,0.0,0.0,0.029399175505885212,0.0,0.0,-0.10557810702974789,-0.08245390272531662,-0.0975505034164851,0.27294691053526277,0.07323442416517494,0.03096025602603937
2900,3.0,299.65475,482.57365999999996,0.0,0.0,0.0,0.02940931664955747,0.0,0.0,-0.08378521608470701,-0.04765083388677116,-0.015254291790981384,0.26898464668171773,0.07003240084840984,-0.03142607242826187
2901,3.0,300.05691,275.22265,0.0,0.0,0.0,0.02941945779322973,0.0,0.0,0.0037242458321794466,-0.03112892062443527,-0.05625613900479865,0.2898639011573398,0.07699058484237913,0.005770554058384345
2902,3.0,301.02007000000003,436.18116,0.0,0.0,0.0,0.029429598936901998,0.0,0.0,-0.02827638854541227,-0.06042390720387534,-0.043887887473647254,0.2928824036027427,0.08622415365841142,-0.01905524926835668
2903,3.0,299.87335,769.80303,0.0,0.0,0.0,0.029439740080574258,0.0,0.0,-0.041332144454915065,-0.08534341032698882,-0.10732534536968688,0.28868224889071975,0.05023340472840104,0.0003617434376862976
2904,3.0,300.74741,862.5594699999999,0.0,0.0,0.0,0.02944988122424652,0.0,0.0,-0.05977129003971704,-0.08545333073758711,-0.11697192201922989,0.26678418157204875,0.04776360355665066,-0.0018245485119689183
2905,3.0,300.0235,698.77479,0.0,0.0,0.0,0.02946002236791878,0.0,0.0,-0.07016690777268464,-0.06767612827086383,-0.07456705272319514,0.2958111219567847,0.06974823587111494,0.007782524657250383
2906,3.0,299.63869,683.08142,0.0,0.0,0.0,0.02947016351159104,0.0,0.0,-0.09411166328634801,-0.06054590150266524,-0.05298213034792915,0.28767116714593377,0.09407542135677123,0.00924992054482108
2907,3.0,298.65162000000004,889.56563,0.0,0.0,0.0,0.029480304655263304,0.0,0.0,-0.07137413244532843,-0.0964810523864385,-0.1025505562609519,0.2831050163652898,0.05439522514939075,0.0025769987766799778
2908,3.0,299.38622999999995,966.78483,0.0,0.0,0.0,0.029490445798935564,0.0,0.0,-0.1096013280093089,-0.08357865187957073,-0.100698467813915,0.28025628397414176,0.04098385493179157,0.02193035757285778
2909,3.0,299.52009,622.30003,0.0,0.0,0.0,0.029500586942607827,0.0,0.0,-0.06244118682796534,-0.05245654840180825,-0.07426593708497733,0.32147764878237367,0.07041802357146784,0.006523763652720344
2910,3.0,299.53956,73.996344,0.0,0.0,0.0,0.029510728086280087,0.0,0.0,0.027280234001099475,-0.04381509963946366,-0.0059581753502511246,0.2927238704920967,0.09198888912809651,-0.007121728943584924
2911,3.0,300.43467999999996,343.95611,0.0,0.0,0.0,0.029520869229952347,0.0,0.0,-0.053244911695113646,-0.039404106833382566,-0.01190505134068709,0.2580526204253108,0.06559200757742714,-0.02024816988933878
2912,3.0,299.98039,832.84703,0.0,0.0,0.0,0.02953101037362461,0.0,0.0,-0.09146289276268471,-0.08170556483746141,-0.07999624231626443,0.23384755488145678,0.07359090480210684,-0.02434870995753058
2913,3.0,300.27082,664.75184,0.0,0.0,0.0,0.02954115151729687,0.0,0.0,-0.04148477031747806,-0.08655979174078632,-0.07402339946154073,0.2884555037833417,0.06657978153016285,-0.04568699104645496
2914,3.0,300.29114,311.64312,0.0,0.0,0.0,0.029551292660969133,0.0,0.0,-0.0023989634387092578,-0.05091140786056475,-0.04142135504671946,0.3234240718269707,0.08440582569145642,-0.011633722215658988
2915,3.0,300.03602,370.45217,0.0,0.0,0.0,0.029561433804641393,0.0,0.0,-0.014822141636581486,-0.04692855476498775,-0.05085751410099586,0.31164546497951273,0.03929803474666406,0.008353376186039043
2916,3.0,299.80248,791.18063,0.0,0.0,0.0,0.029571574948313653,0.0,0.0,-0.06804070680259494,-0.08796799659726533,-0.08449045132655833,0.2983850811858147,0.04103714378105076,0.0005756826444704535
2917,3.0,300.21165,950.7670099999999,0.0,0.0,0.0,0.029581716091985916,0.0,0.0,-0.14143154638570687,-0.05707041312966125,-0.09050747593864242,0.28145100716705174,0.061653931017019235,0.016466665800633384
2918,3.0,300.18213,709.88458,0.0,0.0,0.0,0.029591857235658176,0.0,0.0,-0.07742457100596023,-0.07786520206369713,-0.06049741241912973,0.2971386619728027,0.10245545260656591,-0.02013937621285168
2919,3.0,299.13907,381.8471,0.0,0.0,0.0,0.02960199837933044,0.0,0.0,-0.03639092597750476,-0.04377235568399516,-0.03590870201641297,0.27009441898624376,0.09189570456939992,-0.01934778774447798
2920,3.0,299.41038,444.09457000000003,0.0,0.0,0.0,0.0296121395230027,0.0,0.0,-0.06072722868756084,-0.037864329424918367,-0.03640210212610776,0.2609307573343607,0.07035914360815684,-0.013259881221648387
2921,3.0,298.96807,827.957,0.0,0.0,0.0,0.02962228066667496,0.0,0.0,-0.07344175540063694,-0.07365732233291174,-0.1045791741536609,0.2852467231016597,0.07653961154087152,-0.016260727784058883
2922,3.0,299.20527999999996,819.05674,0.0,0.0,0.0,0.02963242181034722,0.0,0.0,-0.09370258787647541,-0.05933822086747645,-0.09593198938250022,0.2817421645832867,0.04530251025625966,0.019884832588980182
2923,3.0,299.05854,287.88487000000003,0.0,0.0,0.0,0.029642562954019482,0.0,0.0,-0.04292248000361896,-0.04216244515660936,-0.002424887746492788,0.2952940097682497,0.028365338731940973,-0.02449437884490698
2924,3.0,299.79472999999996,460.10225,0.0,0.0,0.0,0.029652704097691742,0.0,0.0,-0.007444898071554233,-0.07230453719065223,-0.060110159376660845,0.26788287905298175,0.04001155330808286,-0.00941197399028951
2925,3.0,299.39437000000004,835.37194,0.0,0.0,0.0,0.029662845241364002,0.0,0.0,-0.08452636394985262,-0.07511803279632262,-0.09428781377648272,0.2928683599563567,0.09191255998481342,-0.030954250492696674
2926,3.0,299.8797,907.83554,0.0,0.0,0.0,0.02967298638503626,0.0,0.0,-0.07675783420165842,-0.1051308483031069,-0.09407065198855051,0.27904885462497775,0.0984924105769441,0.012699054384049089
2927,3.0,300.03657000000004,658.83373,0.0,0.0,0.0,0.029683127528708525,0.0,0.0,-0.04940563107245615,-0.04937070535475925,-0.1014926623615459,0.28590492023411873,0.05434670769485244,0.0012702019153841687
2928,3.0,300.26788,414.00216,0.0,0.0,0.0,0.029693268672380785,0.0,0.0,-0.06806333673032834,-0.03183676903829447,-0.025946212224191773,0.28662207838989673,0.01947698422497868,0.018413609655781784
2929,3.0,300.23116,418.07087,0.0,0.0,0.0,0.02970340981605305,0.0,0.0,-0.03075741754152077,-0.047538892042223356,-0.04878679769313205,0.28706699650880674,0.024785211007859874,-0.003926248486690556
2930,3.0,299.95874,704.11653,0.0,0.0,0.0,0.029713550959725308,0.0,0.0,-0.05480146447223345,-0.06708128054790694,-0.09215109729685522,0.29789756603270073,0.07336995649855092,-0.024112861811254178
2931,3.0,299.0579,847.1754099999999,0.0,0.0,0.0,0.029723692103397568,0.0,0.0,-0.06763381697318803,-0.1085182143149139,-0.08136814242166043,0.3000137388665507,0.07221085107315613,-0.03277532943367317
2932,3.0,299.62327999999997,431.86700999999994,0.0,0.0,0.0,0.029733833247069835,0.0,0.0,-0.03790522723870467,-0.046916088749007455,-0.04645547133304805,0.2913197895635247,0.10148540749082992,-0.03914348776191146
2933,3.0,299.00781,297.37732,0.0,0.0,0.0,0.029743974390742094,0.0,0.0,-0.005890435528065724,-0.04998331129896875,-0.03452153425851017,0.27723859212881874,0.09168102119121231,-0.00910970851585823
2934,3.0,300.48342,742.80781,0.0,0.0,0.0,0.029754115534414358,0.0,0.0,-0.1110845944331959,-0.055008797734195654,-0.059701636188092745,0.2669886757072308,0.08877027890719442,0.02128093721276498
2935,3.0,299.53317000000004,1037.4978,0.0,0.0,0.0,0.029764256678086617,0.0,0.0,-0.1024458571281189,-0.07832262875509163,-0.13460493595697287,0.26220459509507876,0.05637394047467475,0.04579281184714866
2936,3.0,300.07375,683.73755,0.0,0.0,0.0,0.029774397821758877,0.0,0.0,-0.03854503286859857,-0.08503605205490491,-0.08425805836312293,0.29883865246057867,0.033885799867518065,-0.00975765257055533
2937,3.0,299.77654,499.68627999999995,0.0,0.0,0.0,0.02978453896543114,0.0,0.0,-0.03820088348538366,-0.061712207083270645,-0.051979061384933946,0.3107337628045347,0.08239189688544712,0.018444493518829784
2938,3.0,300.39117999999996,804.29775,0.0,0.0,0.0,0.0297946801091034,0.0,0.0,-0.07968527079432393,-0.05610196793583314,-0.10869919091527488,0.3000941402619857,0.09991792579813151,-0.0054474965905760555
2939,3.0,300.9438,910.21277,0.0,0.0,0.0,0.029804821252775664,0.0,0.0,-0.11617133285021788,-0.08193451883005742,-0.07857610745310803,0.27942913752000875,0.07833914270522142,-0.0023031750299056775
2940,3.0,301.0675,671.0046,0.0,0.0,0.0,0.029814962396447924,0.0,0.0,-0.09923755166073381,-0.03328916781113507,-0.07144192293001883,0.28196467430524674,0.06756901861604293,0.01237391154620999
2941,3.0,299.37596,368.26552999999996,0.0,0.0,0.0,0.029825103540120183,0.0,0.0,-0.005495719391985275,-0.05926409149016044,-0.04718371444492005,0.2922898954742667,0.08941411929898652,-0.02302284991017838
2942,3.0,299.24766,337.09004,0.0,0.0,0.0,0.029835244683792447,0.0,0.0,0.01139145614324919,-0.07129750641976604,-0.04256090677168446,0.29714910858133375,0.1016300793401079,-0.025280636604504577
2943,3.0,299.00561,760.59685,0.0,0.0,0.0,0.029845385827464706,0.0,0.0,-0.06109451665005935,-0.08994999383962322,-0.08015794082022283,0.2671082797490347,0.07150403617439893,-0.03079485814596587
2944,3.0,299.38439,1020.5576,0.0,0.0,0.0,0.02985552697113697,0.0,0.0,-0.0932077438853881,-0.1265360809056389,-0.09048019924595041,0.3016002858731307,0.07290836028299492,-0.017831894667370982
2945,3.0,299.06631,433.44035999999994,0.0,0.0,0.0,0.02986566811480923,0.0,0.0,-0.05800675957357145,-0.04102048493615667,-0.032727803950982765,0.2772061275956147,0.07968641374043672,0.01076055698173429
2946,3.0,299.82227,200.70523,0.0,0.0,0.0,0.02987580925848149,0.0,0.0,-0.03098987231321227,-0.02034964790010388,-0.00966985941431582,0.3098527317100837,0.08976194374031411,0.015123539971577187
2947,3.0,299.97583,809.17401,0.0,0.0,0.0,0.029885950402153753,0.0,0.0,-0.05240624560059375,-0.08838372298079432,-0.1051787243703319,0.27609343713080076,0.054819112249225144,-0.0075519924262986236
2948,3.0,300.88035,1116.5158,0.0,0.0,0.0,0.029896091545826012,0.0,0.0,-0.0955621216852471,-0.08355503808599021,-0.16027575896298585,0.3019703653396547,0.05596993536830254,0.0036659773653037963
2949,3.0,299.96385,865.47625,0.0,0.0,0.0,0.029906232689498272,0.0,0.0,-0.044107042324526155,-0.1299714141771799,-0.08900471356958131,0.3101218712016457,0.06651798239331373,-0.02959536659808527
2950,3.0,299.99185,459.63293,0.0,0.0,0.0,0.029916373833170532,0.0,0.0,-0.02452959131238218,-0.04864547362218446,-0.06654186773792103,0.30236998104659374,0.06880698630997084,-0.004449439973175536
2951,3.0,299.87908,376.21666,0.0,0.0,0.0,0.029926514976842795,0.0,0.0,-0.06955993245928084,-0.029388242065643673,-0.015412294971825087,0.2880574991440617,0.05485224350099495,-0.00965790326578584
2952,3.0,300.72963,623.0702,0.0,0.0,0.0,0.029936656120515055,0.0,0.0,-0.06822786726831623,-0.08105720940322371,-0.04011270505231576,0.2617226933475188,0.04856701462719115,-0.01066899564969789
2953,3.0,299.65896000000004,685.45938,0.0,0.0,0.0,0.029946797264187315,0.0,0.0,-0.05172053974116985,-0.06876626682820214,-0.08787572902990921,0.2916275237513957,0.07563605690994764,-0.013124470478284387
2954,3.0,299.79316,603.46605,0.0,0.0,0.0,0.02995693840785958,0.0,0.0,-0.04006220365408166,-0.07918624917307433,-0.06419015681232523,0.30774296261686573,0.058912183650929845,0.025871451592063475
2955,3.0,299.44354,282.21569,0.0,0.0,0.0,0.029967079551531838,0.0,0.0,0.004825739782063436,-0.040954050180100066,-0.04965821203088395,0.30607092769934874,0.05520058064687315,-0.017530621975387684
2956,3.0,299.61232,650.42984,0.0,0.0,0.0,0.029977220695204098,0.0,0.0,-0.06178753310895474,-0.051618907716389544,-0.08430798930155071,0.2940511673280907,0.06118183955692744,0.02211528179560838
2957,3.0,298.90303,1103.7703,0.0,0.0,0.0,0.02998736183887636,0.0,0.0,-0.14796151771516486,-0.08975225098985751,-0.09780483527108572,0.2972199347633237,0.08067602471560373,-0.0005247144216502814
2958,3.0,299.5273,940.82474,0.0,0.0,0.0,0.02999750298254862,0.0,0.0,-0.1123020346933479,-0.06058881669740064,-0.11309637210924288,0.2981728559523697,0.08585869765209372,0.004418806889527285
2959,3.0,299.47935,358.36965,0.0,0.0,0.0,0.030007644126220888,0.0,0.0,-0.01179519172509479,-0.047177919667598156,-0.04996231473039655,0.2997741153504017,0.09041269044478782,-0.03974643135316736
2960,3.0,300.41755,424.10892,0.0,0.0,0.0,0.030017785269893148,0.0,0.0,-0.02304727531708898,-0.07359876863613293,-0.03227247772704557,0.30104374812320467,0.06399153952772324,-0.025896531558538678
2961,3.0,300.21537,540.2755599999999,0.0,0.0,0.0,0.030027926413565404,0.0,0.0,-0.03243327139866467,-0.05188731158837895,-0.07990969758547313,0.2914746040463037,0.06452491336711313,-0.034079800784664466
2962,3.0,300.31721,379.41263,0.0,0.0,0.0,0.03003806755723767,0.0,0.0,-0.01999657583650838,-0.06796804258492353,-0.027367348178446972,0.3010606086048687,0.042347381538361165,-0.01133640525206609
2963,3.0,301.11515,336.41415,0.0,0.0,0.0,0.03004820870090993,0.0,0.0,-0.055238857182650744,-0.03929566880768056,-0.0077269749430430535,0.29709915535140374,0.06305159097970754,0.007627815248506753
2964,3.0,300.27531,387.55561,0.0,0.0,0.0,0.030058349844582194,0.0,0.0,-0.04314137444922216,-0.043127702665622866,-0.03153815106157317,0.2858938352780247,0.05296521211100945,0.0015547291295898186
2965,3.0,299.93471,656.85908,0.0,0.0,0.0,0.030068490988254454,0.0,0.0,-0.05596352960117035,-0.09596555025231242,-0.047739679708539554,0.27799351411582374,0.09471263103990891,-0.023881313898402177
2966,3.0,300.30769,1014.0808,0.0,0.0,0.0,0.030078632131926714,0.0,0.0,-0.08700679614165222,-0.08812146751041172,-0.13312698909611087,0.27644003959250774,0.09984739548517071,-0.006828957521265633
2967,3.0,298.90493,898.88268,0.0,0.0,0.0,0.030088773275598977,0.0,0.0,-0.05293877236290005,-0.09766925227520472,-0.12262987004762589,0.28362700228680576,0.08491095011805833,-0.0043799348666659155
2968,3.0,299.60963,483.81593,0.0,0.0,0.0,0.030098914419271237,0.0,0.0,-0.03777091283194886,-0.05163843101931636,-0.05765861899821265,0.2863181236248987,0.04823397046507225,-0.016134243774075883
2969,3.0,298.95212000000004,435.96390999999994,0.0,0.0,0.0,0.0301090555629435,0.0,0.0,-0.06977500087250643,-0.025317572610399873,-0.037429570151510966,0.27995493326190074,0.052953129103566955,0.0037879962860711265
2970,3.0,298.48714,787.97205,0.0,0.0,0.0,0.03011919670661576,0.0,0.0,-0.091893810804963,-0.07528428079323002,-0.07234573796621843,0.29926117775227873,0.06453378437173864,-0.01150067842452859
2971,3.0,298.79787999999996,795.43595,0.0,0.0,0.0,0.03012933785028802,0.0,0.0,-0.08842346062321611,-0.07124454079728873,-0.08212466534382341,0.28270735623104376,0.07493859126986313,-0.009133943533075041
2972,3.0,299.54249,568.1666,0.0,0.0,0.0,0.030139478993960283,0.0,0.0,-0.04080259968765306,-0.07659627349971362,-0.05530958609263115,0.3070451372729957,0.07603934868824942,-0.011670282305767188
2973,3.0,299.50509,640.60807,0.0,0.0,0.0,0.030149620137632543,0.0,0.0,-0.028956612721795172,-0.07883503237041192,-0.08693721220428482,0.28246614191223773,0.09275705733365883,0.008589540263696623
2974,3.0,300.47601000000003,796.3213400000001,0.0,0.0,0.0,0.030159761281304806,0.0,0.0,-0.0997845810717214,-0.06436685749726424,-0.07791036464715433,0.3033437042601927,0.091234955059939,0.025524290829551374
2975,3.0,300.32051,830.2069299999999,0.0,0.0,0.0,0.030169902424977066,0.0,0.0,-0.07776542226009962,-0.08573220148310952,-0.08886455169649841,0.24747188797857375,0.08156489633932852,0.025783071865341078
2976,3.0,300.42022000000003,859.79265,0.0,0.0,0.0,0.030180043568649326,0.0,0.0,-0.08549418092861873,-0.07778771173579943,-0.098073602899861,0.26180681337082073,0.053122817084563845,-0.015843407558122587
2977,3.0,299.90708,678.2810900000001,0.0,0.0,0.0,0.030190184712321586,0.0,0.0,-0.06666261371258773,-0.06308882994738274,-0.07642907203446213,0.2798777540017837,0.07270850075377033,-0.023232855112654275
2978,3.0,299.14226,339.02561000000003,0.0,0.0,0.0,0.030200325855993845,0.0,0.0,0.0002966126939783937,-0.05756969920918694,-0.04578223351610466,0.3042046223401587,0.1079616664324869,-0.05808088692438724
2979,3.0,299.77122,514.0912,0.0,0.0,0.0,0.03021046699966611,0.0,0.0,-0.02891253735569527,-0.060021159540877236,-0.06733719003291323,0.3042670892088237,0.09382255972806572,-0.04557994421314025
2980,3.0,298.8364,569.64552,0.0,0.0,0.0,0.03022060814333837,0.0,0.0,-0.07011208283627383,-0.04939912094056366,-0.05364681126777805,0.29635157942762375,0.041456514825189465,-0.011024386029522189
2981,3.0,298.71362999999997,311.36759,0.0,0.0,0.0,0.03023074928701063,0.0,0.0,-0.027915698867564974,-0.04138590649197096,-0.025346368164991775,0.2967658264660067,0.043377487053774665,-0.01076848465051669
2982,3.0,299.45492,380.34663,0.0,0.0,0.0,0.03024089043068289,0.0,0.0,-0.03523452390337676,-0.05111679568233495,-0.02926455766568697,0.30782546144000766,0.06105775492318124,0.0064455630365025446
2983,3.0,300.30791,689.9085299999999,0.0,0.0,0.0,0.03025103157435515,0.0,0.0,-0.08211930930379482,-0.08106237191248322,-0.046533283874477555,0.2919368892719277,0.05439113465873704,-0.0016079415797914786
2984,3.0,300.12518,907.22555,0.0,0.0,0.0,0.030261172718027415,0.0,0.0,-0.06797140353550524,-0.1048200034374289,-0.10298250477858191,0.2673743288277917,0.05641312589579204,-0.011188902382008687
2985,3.0,301.04417,753.54586,0.0,0.0,0.0,0.030271313861699675,0.0,0.0,-0.06380956183626343,-0.05421525774612935,-0.1110343068307329,0.27898767458393975,0.08606411384486673,-0.004032132514190496
2986,3.0,299.83594,628.4246,0.0,0.0,0.0,0.030281455005371934,0.0,0.0,-0.06115025756456054,-0.047486686357321055,-0.08238844372910632,0.28181580760055475,0.0970855381443466,0.028121466658122676
2987,3.0,299.63334,565.99715,0.0,0.0,0.0,0.030291596149044198,0.0,0.0,-0.03852104822548146,-0.03029070643945997,-0.1032372459862229,0.3014356833943857,0.06533639598795024,0.012847820776981187
2988,3.0,299.69268999999997,574.9613099999999,0.0,0.0,0.0,0.030301737292716457,0.0,0.0,-0.06365308967632084,-0.05147659977959486,-0.05964419402667365,0.2991014794040177,0.04013863310912466,0.007047212707380743
2989,3.0,300.17374,704.64277,0.0,0.0,0.0,0.030311878436388724,0.0,0.0,-0.10169773404928491,-0.05708208171781285,-0.05541398631668464,0.33119711864411067,0.06625720120182664,-0.011007640045119489
2990,3.0,299.77936,703.37763,0.0,0.0,0.0,0.030322019580060984,0.0,0.0,-0.07235504365513684,-0.05905597498587094,-0.08239821753957091,0.3081963211091087,0.07021480005191123,-0.029224458292979472
2991,3.0,299.26009,449.69057000000004,0.0,0.0,0.0,0.030332160723733244,0.0,0.0,-0.03528315585517637,-0.07599653684502422,-0.025415011806266374,0.2986490024393617,0.06429710840013053,-0.03171585993036167
2992,3.0,299.8985,653.00563,0.0,0.0,0.0,0.030342301867405507,0.0,0.0,-0.05400736010386145,-0.07185478282901493,-0.07263526404979243,0.2726509199160508,0.059457317270980345,0.0002065641544737948
2993,3.0,299.76561,924.31764,0.0,0.0,0.0,0.030352443011077767,0.0,0.0,-0.06649678824097204,-0.1044260517985489,-0.1100466412957579,0.29121378333806275,0.08922502960507482,0.01149792339750669
2994,3.0,299.32563,730.19101,0.0,0.0,0.0,0.03036258415475003,0.0,0.0,-0.06379591234416634,-0.08428920769769713,-0.07387471311536652,0.2849269008400957,0.0892829540735415,0.03967308825792896
2995,3.0,300.2117,544.87809,0.0,0.0,0.0,0.03037272529842229,0.0,0.0,-0.04217842107093606,-0.06718040072568934,-0.056270512970717244,0.3002545782828197,0.07245389430839262,-0.01154708021285809
2996,3.0,299.64833,576.82294,0.0,0.0,0.0,0.03038286644209455,0.0,0.0,-0.024889896968441575,-0.07790595194296883,-0.07254392056652753,0.2953477930835577,0.06984951933786084,-0.031346060120865264
2997,3.0,300.13825,678.55552,0.0,0.0,0.0,0.030393007585766813,0.0,0.0,-0.04750328542045925,-0.08390476237125533,-0.07485588574370072,0.3048359176824627,0.06497873086165144,-0.04301014336252066
2998,3.0,301.2084,668.0404,0.0,0.0,0.0,0.030403148729439073,0.0,0.0,-0.06280286746441044,-0.053346210360611046,-0.08691852381944042,0.30366792402719067,0.08241693733516842,-0.02398977117585608
2999,3.0,301.30143,463.06664000000006,0.0,0.0,0.0,0.030413289873111336,0.0,0.0,-0.02567024747995618,-0.07119153464480743,-0.043898912647985365,0.27316382711667075,0.046647706155270155,-0.03130768226007767
3000,3.0,300.51395,297.01507000000004,0.0,0.0,0.0,0.030423431016783596,0.0,0.0,-0.03446741758391927,-0.033362866557158574,-0.02245487965937408,0.2954904384326357,0.05208753386113935,-0.01122966644678179
3001,3.0,300.06356,633.0867099999999,0.0,0.0,0.0,0.030433572160455856,0.0,0.0,-0.051712616125387856,-0.09198731757719142,-0.04874261796227186,0.3065466486212987,0.06719976798810073,-0.01955271757720298
3002,3.0,299.3268,1008.3733,0.0,0.0,0.0,0.03044371330412812,0.0,0.0,-0.1055183455388499,-0.1038566964348579,-0.09714528038349272,0.3174316094105607,0.09159568526779031,-0.005612638928974334
3003,3.0,299.06178,944.8910300000001,0.0,0.0,0.0,0.03045385444780038,0.0,0.0,-0.1013795532528829,-0.09042558709206061,-0.09541813681953691,0.2717911873387017,0.06767201244895764,0.01103227722130099
3004,3.0,299.6186,582.64713,0.0,0.0,0.0,0.03046399559147264,0.0,0.0,-0.04958776683093155,-0.07418065689031082,-0.05334175408667125,0.27784603556376875,0.06676735742842514,0.00981382999319961
3005,3.0,300.12156,608.39996,0.0,0.0,0.0,0.0304741367351449,0.0,0.0,-0.037893466444793966,-0.050212365603324656,-0.0968325630316299,0.28863935801398677,0.099419320622673,0.05183248766521825
3006,3.0,299.80742999999995,699.83239,0.0,0.0,0.0,0.03048427787881716,0.0,0.0,-0.06626596581519165,-0.06387439768366224,-0.08259120925961771,0.3149847016115697,0.1091008635199169,0.031419553177118476
3007,3.0,300.03609,712.90619,0.0,0.0,0.0,0.030494419022489422,0.0,0.0,-0.03651065262257087,-0.07984656399824233,-0.10034846387162231,0.28280797196597374,0.06527032701517974,-0.010966624694321591
3008,3.0,300.24106,635.87274,0.0,0.0,0.0,0.03050456016616168,0.0,0.0,-0.044259235529296455,-0.06466903907458724,-0.08436115858729812,0.2940835305362847,0.04300123385439136,-0.05664661418258554
3009,3.0,299.80045,462.36719000000005,0.0,0.0,0.0,0.030514701309833945,0.0,0.0,-0.04898374108856885,-0.06249538760231453,-0.029068952773632268,0.3017660637219917,0.06722716019130413,-0.06677707449688414
3010,3.0,299.56808,421.81029,0.0,0.0,0.0,0.030524842453506205,0.0,0.0,-0.03036318320586287,-0.06552616759917923,-0.03233044373876637,0.3223923704426497,0.08777546489276392,-0.05265466716736105
3011,3.0,299.6572,531.06331,0.0,0.0,0.0,0.030534983597178465,0.0,0.0,-0.057298855430956745,-0.06413584356721494,-0.039995286590977466,0.27624553610331176,0.06432609039274084,-0.00987874923108164
3012,3.0,298.85236000000003,563.4521,0.0,0.0,0.0,0.030545124740850728,0.0,0.0,-0.058037688019623855,-0.06220850103525104,-0.051029179946187955,0.27316885283716674,0.08551559900923252,0.028429950651067674
3013,3.0,299.05726,494.36509,0.0,0.0,0.0,0.030555265884522988,0.0,0.0,-0.009076955409025752,-0.05865315943511615,-0.08254452882751072,0.28620072846831274,0.0992213710698869,0.029889374286851574
3014,3.0,299.1926,683.75472,0.0,0.0,0.0,0.03056540702819525,0.0,0.0,-0.02993224895158297,-0.08010810310080423,-0.0978040094722542,0.2949773589794987,0.09332832672678872,0.031177922412521368
3015,3.0,299.58692,1051.5934,0.0,0.0,0.0,0.03057554817186751,0.0,0.0,-0.1119142638800779,-0.07600790145814583,-0.13173595882882688,0.2743340701871647,0.043040296672246556,-0.007770188539932904
3016,3.0,300.45121,1066.3075,0.0,0.0,0.0,0.03058568931553977,0.0,0.0,-0.1195586076695159,-0.0918629624056685,-0.1127092801735399,0.2681653022533548,0.03294348132751847,-0.01116690877533809
3017,3.0,300.36397,584.03012,0.0,0.0,0.0,0.030595830459212037,0.0,0.0,-0.07828271987340292,-0.05294679831694215,-0.04630105505755836,0.32012581102895765,0.06554676494721204,-0.011035640198382888
3018,3.0,300.06535,426.66781,0.0,0.0,0.0,0.030605971602884294,0.0,0.0,-0.04094546592525286,-0.026611781764378374,-0.062139113668403044,0.3270050395353847,0.0983835520524506,0.007007516101587993
3019,3.0,300.25951000000003,574.16717,0.0,0.0,0.0,0.03061611274655656,0.0,0.0,-0.02401191373029138,-0.07195689817409294,-0.07856367183463073,0.3122719676488437,0.061234596449884146,-0.021932101376279878
3020,3.0,299.23521,585.23707,0.0,0.0,0.0,0.03062625389022882,0.0,0.0,-0.061870487894641744,-0.051859498886384046,-0.06416747014258624,0.28020345311392775,0.057333092138585645,-0.02314269409225608
3021,3.0,299.37621,592.01269,0.0,0.0,0.0,0.03063639503390108,0.0,0.0,-0.06576654396015254,-0.06378764624985053,-0.05040288600637755,0.28524104890109975,0.08336369999010662,-0.031682529068322175
3022,3.0,300.14671,545.0980000000001,0.0,0.0,0.0,0.030646536177573343,0.0,0.0,-0.04415537435429616,-0.08465400407819972,-0.03688680348369407,0.2881034500360967,0.05985182315766504,-0.02185452796187398
3023,3.0,300.09347,527.16038,0.0,0.0,0.0,0.030656677321245603,0.0,0.0,-0.08162392525040423,-0.034469591005383764,-0.04415007505627316,0.28744512118112475,0.03226197944275947,0.0014377834507481786
3024,3.0,300.01214,906.24946,0.0,0.0,0.0,0.030666818464917867,0.0,0.0,-0.07572130772036122,-0.09997494746075909,-0.0997809526231133,0.28793302136927673,0.06256031362897224,0.028665289132543775
3025,3.0,300.81588999999997,1049.6021,0.0,0.0,0.0,0.030676959608590126,0.0,0.0,-0.07871179380049922,-0.09640972464564901,-0.14393131544241486,0.3201892303527167,0.10201417205551491,0.024116226814836276
3026,3.0,300.8078,732.65757,0.0,0.0,0.0,0.030687100752262386,0.0,0.0,-0.03763323646136126,-0.06857198422752793,-0.11650438815808789,0.3001713600521067,0.1131890844933929,0.001122113994719029
3027,3.0,300.54405,459.80895,0.0,0.0,0.0,0.03069724189593465,0.0,0.0,0.001118751726912199,-0.08556840555144411,-0.05532078453273635,0.28152934153228276,0.056813369817793044,-0.03897651630443266
3028,3.0,298.5949,568.1433599999999,0.0,0.0,0.0,0.03070738303960691,0.0,0.0,-0.06702968382631473,-0.05149651521031036,-0.05417519687692565,0.29744589966812474,0.058435449478879846,-0.03503014629195626
3029,3.0,299.18321000000003,697.32222,0.0,0.0,0.0,0.03071752418327917,0.0,0.0,-0.1191592959376069,-0.043230141237482755,-0.049579103542576546,0.3072846493316337,0.09085814558625081,-0.0036250553348401065
3030,3.0,299.43172999999996,418.67971,0.0,0.0,0.0,0.030727665326951432,0.0,0.0,-0.03895272924508506,-0.05606647378483015,-0.03224897437772597,0.3073177623449017,0.08011839366881983,-0.014359465296418884
3031,3.0,300.42721,258.34403,0.0,0.0,0.0,0.030737806470623692,0.0,0.0,-0.014076686445260788,-0.02255217700022658,-0.041901269810833364,0.2858511774488147,0.03426586896677797,0.002954692817705477
3032,3.0,300.49818,490.41458,0.0,0.0,0.0,0.030747947614295952,0.0,0.0,-0.05228188536282035,-0.059589864569561744,-0.03720203774880526,0.26438831118059475,0.04445217253383786,-0.022461271241004877
3033,3.0,300.29569,912.18084,0.0,0.0,0.0,0.030758088757968212,0.0,0.0,-0.09080088884960001,-0.08582702852021823,-0.10065227982135659,0.31538012246309466,0.07593002001570952,-0.0032611178864472767
3034,3.0,299.76151,1010.368,0.0,0.0,0.0,0.030768229901640475,0.0,0.0,-0.12912624200376788,-0.09883885193188521,-0.07916154512238623,0.2967645903008847,0.09924531720950021,-0.005630127929675364
3035,3.0,301.15091,785.6535299999999,0.0,0.0,0.0,0.030778371045312735,0.0,0.0,-0.07312768535989063,-0.1068501614702899,-0.058841205481424845,0.28546868566856576,0.05129853829977155,0.006556699955170904
3036,3.0,299.99301,416.03913,0.0,0.0,0.0,0.030788512188984995,0.0,0.0,-0.015501620060890786,-0.05171336187746145,-0.05925052508457154,0.2961550697032297,0.06966064445297034,-0.0035969560857169263
3037,3.0,301.11975,612.96485,0.0,0.0,0.0,0.030798653332657258,0.0,0.0,-0.04074700670766646,-0.06569827623466502,-0.07988072471211372,0.29126269292038975,0.09805323555960091,0.02368911555318368
3038,3.0,302.03686,843.98962,0.0,0.0,0.0,0.030808794476329518,0.0,0.0,-0.05992922735930424,-0.09314116626106742,-0.1034813784653169,0.2984254288047967,0.09257243303293781,-0.028267514501036473
3039,3.0,301.39246,495.53403,0.0,0.0,0.0,0.03081893562000178,0.0,0.0,-0.0062122404161003945,-0.06561749081744214,-0.07880023938847812,0.24332203100151475,0.016012584861069087,-0.027196784749363677
3040,3.0,300.69642999999996,360.60129,0.0,0.0,0.0,0.03082907676367404,0.0,0.0,-0.03438564627434907,-0.06207670252849354,-0.013151438129695887,0.30052486274699475,0.04484641396224646,-0.05121569699809575
3041,3.0,300.08121,758.89806,0.0,0.0,0.0,0.0308392179073463,0.0,0.0,-0.09018199264876972,-0.07040752630043183,-0.07009654059298993,0.3318499759485427,0.07741901940866233,0.006161698893162334
3042,3.0,299.71022,1006.9482,0.0,0.0,0.0,0.030849359051018564,0.0,0.0,-0.1059376689602339,-0.09212651280967891,-0.1080229174010319,0.34842548102191767,0.0988180407880813,-0.00997480118623623
3043,3.0,299.26887999999997,924.2092,0.0,0.0,0.0,0.030859500194690824,0.0,0.0,-0.09127759363739711,-0.11326960747883989,-0.07638931716678862,0.2941959101048757,0.02995868971294247,0.0024959464693807376
3044,3.0,299.58113,698.23916,0.0,0.0,0.0,0.030869641338363087,0.0,0.0,-0.032480341932060175,-0.09089911736729442,-0.08886781030882002,0.28548611357028575,0.06270549109005014,-0.0077666948535881014
3045,3.0,299.53914,554.51551,0.0,0.0,0.0,0.030879782482035347,0.0,0.0,-0.030162554619812373,-0.05918925081127424,-0.07920706436987864,0.2965824281979067,0.1015045072552149,0.008875360385029871
3046,3.0,299.95024,556.71425,0.0,0.0,0.0,0.030889923625707607,0.0,0.0,-0.06950936114678984,-0.04770878165999015,-0.05200908803839736,0.3083871768979447,0.0918591586647931,0.0008534810370145201
3047,3.0,300.53382999999997,613.216,0.0,0.0,0.0,0.030900064769379874,0.0,0.0,-0.05770199015549304,-0.03294311858398267,-0.09575724427025423,0.27839931064837276,0.052880583436157244,0.010908340522069388
3048,3.0,301.40331000000003,469.6892,0.0,0.0,0.0,0.03091020591305213,0.0,0.0,-0.03735444373609657,-0.03990916134572756,-0.06551018155235154,0.28090776325843775,0.05500341940266485,-0.002160830008157318
3049,3.0,300.89907,459.19485,0.0,0.0,0.0,0.030920347056724397,0.0,0.0,-0.05290964446227535,-0.03266166202420507,-0.05401246283136505,0.3159676048710747,0.1029820488160369,-0.0038480649943994465
3050,3.0,300.14862,790.36738,0.0,0.0,0.0,0.030930488200396657,0.0,0.0,-0.06006866374531554,-0.08146582885055131,-0.0987174544374042,0.28860394492299174,0.09013703575508282,-0.02949423714535457
3051,3.0,299.70635,1026.9501,0.0,0.0,0.0,0.030940629344068916,0.0,0.0,-0.0941606367034313,-0.13286060564482086,-0.08514596233300223,0.2904632588564917,0.03255048619673287,-0.029315450178459677
3052,3.0,299.12437,761.93503,0.0,0.0,0.0,0.03095077048774118,0.0,0.0,-0.06900693703170444,-0.1015276093574949,-0.06107468227935185,0.28371959308094374,0.043169272264225456,-0.010753674987055092
3053,3.0,300.18797,631.19398,0.0,0.0,0.0,0.03096091163141344,0.0,0.0,-0.07718888700620002,-0.05673752703455794,-0.05794079597881135,0.33037194802767267,0.08442066676567113,0.00997360778026845
3054,3.0,299.6669,590.7550200000001,0.0,0.0,0.0,0.030971052775085703,0.0,0.0,-0.06442186988494354,-0.05803558552566635,-0.05711732154304074,0.3017468322350937,0.06178591393529494,0.005781375569452345
3055,3.0,299.20813,404.87612,0.0,0.0,0.0,0.030981193918757963,0.0,0.0,-0.04834507131203705,-0.03040716839270387,-0.044319992031792654,0.2938524689834807,0.01989430647741518,0.018743830903122084
3056,3.0,300.26637,600.42472,0.0,0.0,0.0,0.030991335062430223,0.0,0.0,0.0036947915636975364,-0.1072182448341169,-0.07899066454602163,0.29957545753579573,0.05590354114224995,-0.03950413285675436
3057,3.0,299.88554,827.87216,0.0,0.0,0.0,0.031001476206102482,0.0,0.0,-0.08112447198461202,-0.06504178136237403,-0.10548620524567791,0.32840970814901466,0.090820870141572,-0.01015678353864649
3058,3.0,300.87478,888.9825199999999,0.0,0.0,0.0,0.031011617349774746,0.0,0.0,-0.07412094403541764,-0.09079693616095992,-0.1053106090033479,0.30441815466623273,0.10218670828254289,-0.02105630371859538
3059,3.0,300.85255,745.70116,0.0,0.0,0.0,0.031021758493447005,0.0,0.0,-0.05559337414088885,-0.09103151774461132,-0.08004963958328433,0.28239727130294073,0.07922525626217401,-0.008666675447434272
3060,3.0,300.5246,722.58424,0.0,0.0,0.0,0.031031899637119265,0.0,0.0,-0.07054468895321872,-0.06909735845737834,-0.08000551963418001,0.2800209059759117,0.10201757657585091,0.0051441997288679845
3061,3.0,300.76576,673.7372799999999,0.0,0.0,0.0,0.031042040780791525,0.0,0.0,-0.06712513502548503,-0.07731190266109073,-0.06036227322679254,0.3031382576699167,0.0961023663735651,0.006148436361278425
3062,3.0,300.88989,565.09294,0.0,0.0,0.0,0.03105218192446379,0.0,0.0,-0.03017991362052557,-0.07429335765918353,-0.06730087109632883,0.27683811515929474,0.059230371540082545,-0.03946598804348976
3063,3.0,300.32338,443.89495,0.0,0.0,0.0,0.031062323068136048,0.0,0.0,-0.04690603122851486,-0.05358382865481215,-0.034443120859771366,0.2936595056344367,0.001129272606675529,0.006124735225539304
3064,3.0,299.48217,438.03697999999997,0.0,0.0,0.0,0.03107246421180831,0.0,0.0,-0.03869575787397397,-0.046612042791500455,-0.04784450448438495,0.3231709518194897,0.05064951918671835,0.004538286808194035
3065,3.0,299.74598,576.7180099999999,0.0,0.0,0.0,0.03108260535548057,0.0,0.0,-0.05546545840851454,-0.058443000218625044,-0.061399416777400635,0.3408990491466167,0.0957204156688695,0.03283864945892237
3066,3.0,299.68426,757.80615,0.0,0.0,0.0,0.03109274649915283,0.0,0.0,-0.08941839217465822,-0.057699917045788446,-0.08323583998648783,0.3057033408280707,0.1092601970981419,-0.015760179194908585
3067,3.0,299.81793999999996,909.75141,0.0,0.0,0.0,0.031102887642825094,0.0,0.0,-0.08465516424956421,-0.09088069445397622,-0.1010058544570017,0.2573710070830407,0.07370847829071044,-0.027286596198477373
3068,3.0,299.69858,738.19362,0.0,0.0,0.0,0.031113028786497354,0.0,0.0,-0.04698096512641025,-0.09003905345716272,-0.08737240818848532,0.26958697320366276,0.09917647193145572,-0.05914368799402755
3069,3.0,300.74358,755.4078099999999,0.0,0.0,0.0,0.031123169930169618,0.0,0.0,-0.08597506942607873,-0.07432748290930143,-0.06932255835835384,0.2851576584178698,0.10775891508747688,-0.012702408241880089
3070,3.0,300.18866,755.2393400000001,0.0,0.0,0.0,0.031133311073841877,0.0,0.0,-0.07705538826577472,-0.06481310804005573,-0.0877054047278495,0.2815385013131867,0.06839239577980394,-0.004779472046722165
3071,3.0,300.76471000000004,369.90274,0.0,0.0,0.0,0.031143452217514137,0.0,0.0,-0.036290845238627564,-0.013502075353301087,-0.06264827690990353,0.28819736818786573,0.013744501519226687,0.015934486583111383
3072,3.0,301.40803999999997,257.88013,0.0,0.0,0.0,0.0311535933611864,0.0,0.0,0.006172047115108625,-0.040053660942488564,-0.044507508148299055,0.3143609043200057,0.07486931130752572,0.005170467325785395
3073,3.0,300.22333,650.7753,0.0,0.0,0.0,0.03116373450485866,0.0,0.0,-0.05076709267532195,-0.05562467647622815,-0.0914276711759586,0.3295851491925217,0.09820158044049142,0.01155512440540199
3074,3.0,299.53021,1028.7399,0.0,0.0,0.0,0.031173875648530924,0.0,0.0,-0.08869958242121723,-0.12203388647130688,-0.1019777659794219,0.30363766837920475,0.05058109643396555,-0.04205390073964686
3075,3.0,299.30888999999996,930.02813,0.0,0.0,0.0,0.031184016792203183,0.0,0.0,-0.1134101959302149,-0.1061545551441389,-0.06314057055048913,0.2769486100826997,0.04638821483116036,-0.019433627253199682
3076,3.0,299.44007999999997,674.22365,0.0,0.0,0.0,0.031194157935875443,0.0,0.0,-0.04303691241691256,-0.08878212988036402,-0.07312811193818272,0.3098149780113577,0.07739907864669433,-0.02281780963319248
3077,3.0,300.56092,630.08006,0.0,0.0,0.0,0.03120429907954771,0.0,0.0,-0.04694042498990925,-0.05948754150821324,-0.085100637629529,0.32857775567809966,0.1073245651671099,0.03991908714370716
3078,3.0,300.76734,624.76779,0.0,0.0,0.0,0.03121444022321997,0.0,0.0,-0.022990500887485776,-0.059480597705277936,-0.1074427101287699,0.2976521872559837,0.07623989013479134,0.00940730614972883
3079,3.0,299.45018,743.97329,0.0,0.0,0.0,0.031224581366892233,0.0,0.0,-0.05490930670687665,-0.08326114692098542,-0.08797884850583632,0.27367450516707076,0.046407162608030364,-0.005786498460632934
3080,3.0,300.07636,687.92224,0.0,0.0,0.0,0.031234722510564493,0.0,0.0,-0.08486024100355372,-0.04094051315876406,-0.08331043039259933,0.2840430123803627,0.07703622770638373,-0.008707906215203431
3081,3.0,300.00543,549.4927299999999,0.0,0.0,0.0,0.031244863654236753,0.0,0.0,-0.0894147941235531,-0.06128486378734514,-0.016332412188883587,0.30433938460345866,0.10982235838612289,-0.02081584629761408
3082,3.0,299.14842999999996,602.8548099999999,0.0,0.0,0.0,0.03125500479790901,0.0,0.0,-0.058542049468900445,-0.05590864488300366,-0.06880211460349003,0.28722438464683975,0.044388169578021254,-0.015179228197073185
3083,3.0,298.72194,934.15212,0.0,0.0,0.0,0.03126514594158127,0.0,0.0,-0.1096954893411019,-0.08343431136307541,-0.09082911698413591,0.27503347620119073,0.037874999961721466,0.01160199228877749
3084,3.0,298.07103,663.79723,0.0,0.0,0.0,0.03127528708525353,0.0,0.0,-0.02804044211387617,-0.06920921113591734,-0.1045281266136229,0.2902752401679357,0.05124375085361445,0.012871464968064688
3085,3.0,299.51317,433.25415,0.0,0.0,0.0,0.03128542822892579,0.0,0.0,-0.007001910295409744,-0.06421065182209794,-0.06048588061974164,0.3314701490160567,0.09068501559466421,-0.011499022773865188
3086,3.0,299.79717,619.3293,0.0,0.0,0.0,0.03129556937259806,0.0,0.0,-0.049676741335462654,-0.07629999815722352,-0.062283905081192845,0.31060956873977774,0.04575617778978316,-0.031245889202729173
3087,3.0,299.9992,688.1438400000001,0.0,0.0,0.0,0.03130571051627032,0.0,0.0,-0.08621095404935873,-0.09409641184584282,-0.028871178513113473,0.3085590139824037,0.040809789710362664,-0.04088665283644846
3088,3.0,300.75079,663.2463700000001,0.0,0.0,0.0,0.03131585165994258,0.0,0.0,-0.05353483091972645,-0.06595382297613553,-0.08212168030902882,0.32271645848713465,0.09255826779653982,-0.017719860617064084
3089,3.0,300.5777,545.2498400000001,0.0,0.0,0.0,0.03132599280361484,0.0,0.0,-0.07298015715858072,-0.04012444760772466,-0.05263773170518965,0.31240430824440474,0.13013036272036688,0.003207507938231387
3090,3.0,299.86123,610.20505,0.0,0.0,0.0,0.0313361339472871,0.0,0.0,0.005373509980199145,-0.07876081889333762,-0.11209978997338789,0.28184946776887676,0.06459568686009794,0.011673767886111188
3091,3.0,300.19028,659.66619,0.0,0.0,0.0,0.03134627509095936,0.0,0.0,-0.04124185272525396,-0.07665064956633012,-0.08262954861690151,0.24475505035294276,0.05670470887706904,-0.02777111618429577
3092,3.0,299.58106000000004,976.1163300000001,0.0,0.0,0.0,0.03135641623463162,0.0,0.0,-0.09581806562075681,-0.10984220795558189,-0.09105471610565082,0.2847538579880177,0.07237228309233823,-0.020940320019398682
3093,3.0,300.0094,973.31265,0.0,0.0,0.0,0.03136655737830389,0.0,0.0,-0.12691758983329088,-0.09853190503934191,-0.07041325217674693,0.3270997480222317,0.09141154732711732,-0.031431735483070766
3094,3.0,299.10577,567.04017,0.0,0.0,0.0,0.03137669852197615,0.0,0.0,-0.05577205370327315,-0.05197028359931766,-0.06462371538436414,0.34061192446577965,0.04583624278618496,-0.008791504617353951
3095,3.0,299.91900000000004,568.19327,0.0,0.0,0.0,0.03138683966564841,0.0,0.0,-0.048937385909743954,-0.07172237738544752,-0.05205680198560636,0.33251332039150966,0.04523265679436566,0.007765675625312513
3096,3.0,301.2053,761.66383,0.0,0.0,0.0,0.03139698080932067,0.0,0.0,-0.02257566413754458,-0.06277875616503086,-0.14617236121858884,0.3443843255155867,0.04936330761577916,0.04147355262562096
3097,3.0,301.78979,734.0482,0.0,0.0,0.0,0.031407121952992924,0.0,0.0,-0.04853814409209185,-0.07846687605257772,-0.09612730347177623,0.3191647331766067,0.08983966812898492,-0.0017157374075800983
3098,3.0,301.68118,701.63726,0.0,0.0,0.0,0.0314172630966652,0.0,0.0,-0.07569735043499683,-0.05074206033160145,-0.08684079537776923,0.3014745719332237,0.03982067725424486,-0.009166836468421322
3099,3.0,301.15682000000004,755.62189,0.0,0.0,0.0,0.03142740424033746,0.0,0.0,-0.09671384862341371,-0.06487638956180114,-0.06809994849619164,0.26646751051829576,0.08542269309431341,-0.046958903631982955
3100,3.0,299.38759,635.80005,0.0,0.0,0.0,0.03143754538400972,0.0,0.0,-0.06579810670076754,-0.07158117591776203,-0.05588805564097165,0.28159129164339675,0.11031899279013689,-0.014093187223139287
3101,3.0,300.04071,714.29839,0.0,0.0,0.0,0.03144768652768198,0.0,0.0,-0.06583082758624684,-0.06355332405822474,-0.08774472389798,0.2887905754589107,0.12294619659634487,0.0023603722887756075
3102,3.0,299.53234,796.2017599999999,0.0,0.0,0.0,0.03145782767135424,0.0,0.0,-0.04332120506372005,-0.06890345785199184,-0.1298007929928409,0.28256680830967273,0.043669834025627054,0.018516772701463183
3103,3.0,299.62856,599.95593,0.0,0.0,0.0,0.031467968815026504,0.0,0.0,-0.05269751143458944,-0.07864636824154222,-0.05102774113104595,0.29414818602516574,0.03839195914949136,-0.017040452107011682
3104,3.0,299.72916000000004,492.7765,0.0,0.0,0.0,0.03147810995869876,0.0,0.0,-0.03691776536699976,-0.055681124639299154,-0.05719286136449595,0.3428854955701637,0.053109240546473944,-0.01025861112069609
3105,3.0,299.7613,849.28672,0.0,0.0,0.0,0.03148825110237102,0.0,0.0,-0.09069694762784182,-0.11039967789559989,-0.05706532965390955,0.3444578976053477,0.08643214147993823,-0.02051205061288178
3106,3.0,300.10046,950.8445300000001,0.0,0.0,0.0,0.03149839224604328,0.0,0.0,-0.08212625108022993,-0.1060404733153799,-0.1008662670967255,0.32040293493130767,0.043606034733080556,-0.01876907298961328
3107,3.0,300.41925,578.38501,0.0,0.0,0.0,0.03150853338971554,0.0,0.0,-0.04430586428564836,-0.06856003395584853,-0.06294870252480324,0.2973944265630447,0.07466113299498013,-0.01762199382965538
3108,3.0,300.20884,499.57462000000004,0.0,0.0,0.0,0.0315186745333878,0.0,0.0,0.005350632920766355,-0.09262021892090391,-0.06458862450690094,0.3092574371438327,0.07368217938436493,-0.007606377510841013
3109,3.0,299.75014,728.63933,0.0,0.0,0.0,0.03152881567706007,0.0,0.0,-0.08139599768015952,-0.07253203716935473,-0.06756012734641544,0.3022488267321367,0.07300916144269322,0.0017917596374079083
3110,3.0,299.93166,835.24902,0.0,0.0,0.0,0.03153895682073233,0.0,0.0,-0.08121159528121041,-0.08021524923262872,-0.09246800139813122,0.2900109237468497,0.038975876943619564,-0.013743683826395988
3111,3.0,300.76636,793.1221400000001,0.0,0.0,0.0,0.03154909796440459,0.0,0.0,-0.1083854278893089,-0.09552719596755022,-0.03717670852280547,0.3031829116018237,0.06100285601951314,-0.03277855460874147
3112,3.0,302.4387,651.6825200000001,0.0,0.0,0.0,0.03155923910807685,0.0,0.0,-0.06374892692377923,-0.049007829083196154,-0.08533845654724992,0.3050740415884637,0.09042551211155321,-0.004811394288472646
3113,3.0,300.8159,541.55391,0.0,0.0,0.0,0.03156938025174911,0.0,0.0,-0.03621466909610956,-0.06909820958746234,-0.05930598735529524,0.2861538555186867,0.1130333378205219,0.0015109234906665386
3114,3.0,300.27529,805.07773,0.0,0.0,0.0,0.03157952139542137,0.0,0.0,-0.04030722171376306,-0.08347408446925071,-0.1209422209460679,0.28351836161108374,0.04629533526074386,0.013206719028651687
3115,3.0,300.51594,1153.1222,0.0,0.0,0.0,0.03158966253909363,0.0,0.0,-0.12048727165116789,-0.11463816385890589,-0.11539490969609088,0.2739291349172007,0.05721063275799985,0.015473805332395686
3116,3.0,300.50425,826.63185,0.0,0.0,0.0,0.03159980368276589,0.0,0.0,-0.059456216881371746,-0.1103525718984509,-0.08146665059638242,0.32609829215339564,0.04387867095073766,-0.004285392147535276
3117,3.0,300.52057,487.34556,0.0,0.0,0.0,0.03160994482643815,0.0,0.0,-0.059108222214027346,-0.06918121098265394,-0.01985144802468538,0.33846817096420767,0.09397510959687122,-0.031498861275695574
3118,3.0,300.33432,649.76346,0.0,0.0,0.0,0.031620085970110415,0.0,0.0,-0.04971824507280875,-0.08499092493520122,-0.06280269622514353,0.31627684880159473,0.050812509584554244,-0.022358802271641977
3119,3.0,300.09213,799.35198,0.0,0.0,0.0,0.031630227113782675,0.0,0.0,-0.06964684196010813,-0.09117363215063692,-0.08216256900356422,0.3192494104874637,0.07253083342823594,-0.026198687804609176
3120,3.0,299.86955,649.11451,0.0,0.0,0.0,0.031640368257454934,0.0,0.0,-0.04259289507734146,-0.06091689694727965,-0.0938048116393141,0.3020635742163537,0.0964418558195701,0.004647415566489206
3121,3.0,299.94128,395.49182,0.0,0.0,0.0,0.031650509401127194,0.0,0.0,-0.051425323245034245,-0.03842471853847446,-0.03036959707899587,0.3079894559686927,0.11570102268380189,-0.01192666092556979
3122,3.0,298.94456,405.60994,0.0,0.0,0.0,0.031660650544799454,0.0,0.0,-0.030077095079878175,-0.05652991918181865,-0.03668828043135136,0.2836917692331978,0.04813247624230555,-0.02001033577286638
3123,3.0,299.2297,737.53036,0.0,0.0,0.0,0.03167079168847173,0.0,0.0,-0.0935602991914326,-0.06892019978339414,-0.061710315345333944,0.28477736539033777,0.07360222483222402,-0.04208169621639006
3124,3.0,300.49961,1041.4405,0.0,0.0,0.0,0.03168093283214399,0.0,0.0,-0.07421899726084473,-0.1067114677966019,-0.13564143001426687,0.2984037756501597,0.07040181562286824,-0.020301767779878483
3125,3.0,300.192,795.66553,0.0,0.0,0.0,0.03169107397581625,0.0,0.0,-0.059597023181518244,-0.08306903166227513,-0.09919639749467221,0.29189836550312576,0.1006649221428543,0.014253351666446288
3126,3.0,300.87646,459.05222000000003,0.0,0.0,0.0,0.03170121511948851,0.0,0.0,-0.012542949020642688,-0.03845339452955457,-0.08854406879586922,0.2985638590334587,0.08910913000563642,0.024422428968556075
3127,3.0,300.02437000000003,510.9591,0.0,0.0,0.0,0.03171135626316076,0.0,0.0,-0.06469110563526503,-0.05076289680665786,-0.03986480429609986,0.32261435327455773,0.07471002636530553,0.008311838504814591
3128,3.0,301.58119,851.92854,0.0,0.0,0.0,0.031721497406833034,0.0,0.0,-0.08106742904373233,-0.07463680486007913,-0.10326076352104391,0.3454751399107417,0.08751671628097742,-0.01023275601789439
3129,3.0,300.51506,815.43452,0.0,0.0,0.0,0.031731638550505294,0.0,0.0,-0.10202297719888391,-0.08487373952138592,-0.06097501292001524,0.34562944776847065,0.07685662507315832,-0.022379253711660378
3130,3.0,299.62052,511.73967999999996,0.0,0.0,0.0,0.03174177969417755,0.0,0.0,-0.008112270284993742,-0.06829327965502194,-0.07915053413354953,0.3041660175113487,0.03370928359409727,-0.049723109686538855
3131,3.0,298.84422,547.2649299999999,0.0,0.0,0.0,0.03175192083784981,0.0,0.0,-0.055090588295517745,-0.048395742936287955,-0.06286854228289204,0.27541124623597374,0.029653216086044574,-0.011822965923585888
3132,3.0,299.68767,765.22691,0.0,0.0,0.0,0.03176206198152207,0.0,0.0,-0.06379646861847124,-0.06862421524368273,-0.100189188048653,0.27226678667063975,0.06862589217259824,0.007462981242113903
3133,3.0,299.49059,818.3138,0.0,0.0,0.0,0.03177220312519434,0.0,0.0,-0.09995780630881741,-0.06799576105465914,-0.08079339454093723,0.26917038555754874,0.1002981063549024,0.014693724345407687
3134,3.0,300.24465,830.2155700000001,0.0,0.0,0.0,0.0317823442688666,0.0,0.0,-0.05828818168284565,-0.08589155937933693,-0.1081850576820339,0.2866776247603787,0.06908192159210483,-0.0011893961318342587
3135,3.0,300.02281,622.16901,0.0,0.0,0.0,0.03179248541253886,0.0,0.0,-0.06236841013953285,-0.06915219960579073,-0.05760323272124644,0.30958053220321974,0.07395285394982842,-0.012976849057965287
3136,3.0,299.46467,421.00233,0.0,0.0,0.0,0.03180262655621112,0.0,0.0,0.008946484969174322,-0.06957157368967973,-0.06734910788058944,0.3255783225995787,0.07767616201904033,-0.02035095803248318
3137,3.0,299.34872,729.8419299999999,0.0,0.0,0.0,0.03181276769988338,0.0,0.0,-0.05883597812415894,-0.07018925804339043,-0.09282848639945832,0.3440466599197617,0.07546772263108432,0.004286035257373746
3138,3.0,300.00403,945.85316,0.0,0.0,0.0,0.03182290884355564,0.0,0.0,-0.08523852576938751,-0.1030620854414359,-0.099215130462521,0.3103055227822707,0.03603431969756047,0.0015355386793208686
3139,3.0,299.83741000000003,596.75499,0.0,0.0,0.0,0.0318330499872279,0.0,0.0,-0.08744580903897942,-0.052656531547545044,-0.041296275401375065,0.3171493280652017,0.06298537001942205,-0.010284490541500189
3140,3.0,300.03125,382.50172000000003,0.0,0.0,0.0,0.03184319113090016,0.0,0.0,-0.038671195678299866,-0.04880472107415095,-0.02879505303310047,0.31887152899516974,0.08652357210271172,-0.04327509610466946
3141,3.0,300.11401,682.37703,0.0,0.0,0.0,0.03185333227457242,0.0,0.0,-0.07504852383946263,-0.06258245922315785,-0.06979459408969013,0.30915940519665774,0.08338124948183862,-0.022918546958134476
3142,3.0,299.88827000000003,860.9478300000001,0.0,0.0,0.0,0.031863473418244685,0.0,0.0,-0.04935443053165305,-0.07753732953008863,-0.13481488137769287,0.3080116664108847,0.05813309564903985,-0.04065751341908416
3143,3.0,299.47859,789.1909400000001,0.0,0.0,0.0,0.031873614561916945,0.0,0.0,-0.06730571645830703,-0.08634162379550482,-0.08624699940841611,0.2991442486907387,0.04405763624965016,-0.0017978998316888982
3144,3.0,299.83582,500.78788,0.0,0.0,0.0,0.031883755705589205,0.0,0.0,-0.037147861292458464,-0.044777579829953056,-0.07030156871097464,0.2968808708823607,0.07009689219077463,0.01186455882694079
3145,3.0,299.27898,558.17055,0.0,0.0,0.0,0.031893896849261465,0.0,0.0,-0.07936155055962522,-0.06245366500294684,-0.027854694118794272,0.29446996385942276,0.06495842735614764,0.03082524956946527
3146,3.0,299.38234,932.9976800000001,0.0,0.0,0.0,0.031904037992933724,0.0,0.0,-0.0985646938125779,-0.1069358621637479,-0.07810743672535383,0.28964047951028976,0.06026871680530924,-0.015726656828600184
3147,3.0,298.48242999999997,1069.3102,0.0,0.0,0.0,0.031914179136605984,0.0,0.0,-0.11661021199853189,-0.1025814806540039,-0.1058519074717699,0.2921248066354737,0.07953568772181123,-0.0026214855223204775
3148,3.0,299.35081,703.11145,0.0,0.0,0.0,0.03192432028027826,0.0,0.0,-0.02031490254092478,-0.08125576994582012,-0.11215764655409788,0.3132640610867557,0.1078280491417999,-0.014325396788306587
3149,3.0,298.71916,256.67938,0.0,0.0,0.0,0.03193446142395051,0.0,0.0,-0.02115591430942618,-0.03510584519367717,-0.02176236171952788,0.3157330273404237,0.07659911363974392,0.006905430039437884
3150,3.0,298.48237,486.62217000000004,0.0,0.0,0.0,0.03194460256762277,0.0,0.0,-0.05395203158215095,-0.036077906677112165,-0.057891052491652044,0.3122680463709567,0.055580108670579643,-0.004336500887879316
3151,3.0,299.64356000000004,949.5535800000001,0.0,0.0,0.0,0.03195474371129503,0.0,0.0,-0.14054638123084787,-0.07921245486041062,-0.06888174390234883,0.3360627861543147,0.05796313105076564,-0.004404839844848845
3152,3.0,300.42654,762.11134,0.0,0.0,0.0,0.03196488485496729,0.0,0.0,-0.06360657035097973,-0.09463927578566932,-0.07341697028994083,0.3259455244358187,0.07579271550790863,-0.03350551089298647
3153,3.0,299.67997,390.88403999999997,0.0,0.0,0.0,0.031975025998639564,0.0,0.0,-0.011060492183585591,-0.05595149624298274,-0.05180700138545295,0.3127677002602687,0.08396756361245332,-0.035832130706355964
3154,3.0,299.94019,583.0298700000001,0.0,0.0,0.0,0.031985167142311824,0.0,0.0,0.014589791229650288,-0.09011745469690031,-0.10169885875689591,0.26146517583460377,0.06431369530426755,-0.03327255861549587
3155,3.0,299.74561,833.18694,0.0,0.0,0.0,0.031995308285984084,0.0,0.0,-0.08183094339158532,-0.08337958673842451,-0.08805749697859831,0.2825768090881597,0.06964532613795854,0.006656063009002274
3156,3.0,300.05713,944.0541,0.0,0.0,0.0,0.032005449429656344,0.0,0.0,-0.08316172074167283,-0.09664279344690109,-0.1071643601937989,0.29940969995193667,0.08603504775249811,0.03148515504159287
3157,3.0,300.39979,716.80614,0.0,0.0,0.0,0.0320155905733286,0.0,0.0,-0.1140792652362469,-0.06336014083390903,-0.04045176589352846,0.3151374997266497,0.07278344579741683,0.014599810246639085
3158,3.0,298.65904,348.5082,0.0,0.0,0.0,0.03202573171700087,0.0,0.0,-0.02830271784926077,-0.040155068025746664,-0.037480003661988365,0.31953920001606373,0.06533905475621264,0.0030327394199080775
3159,3.0,298.19851,673.29022,0.0,0.0,0.0,0.03203587286067313,0.0,0.0,-0.04045253393710426,-0.07385438022560983,-0.09035649964724222,0.31949881186707774,0.08328156897675093,-0.01969026526502788
3160,3.0,298.70215,1086.9343,0.0,0.0,0.0,0.03204601400434539,0.0,0.0,-0.06881941990194794,-0.09475200593879492,-0.16682944034478384,0.33157039998095067,0.11748427193229488,-0.0030933453534394166
3161,3.0,299.41377,908.12182,0.0,0.0,0.0,0.03205615514801765,0.0,0.0,-0.09456504508334332,-0.07745974193018133,-0.10402157249112991,0.30304914232362173,0.08110339030303142,-0.004785515171643576
3162,3.0,299.95835,537.5058,0.0,0.0,0.0,0.03206629629168991,0.0,0.0,-0.05624802185824754,-0.06094930777822835,-0.04619101305694805,0.2870060697802937,0.05253551807485195,-0.01220984406351779
3163,3.0,299.26273,449.48592,0.0,0.0,0.0,0.03207643743536217,0.0,0.0,-0.0974219270450456,-0.02241328472951898,-0.016797284242012885,0.2985881669033577,0.03273870145580827,-0.014742822392253285
3164,3.0,299.30214,824.3779400000001,0.0,0.0,0.0,0.03208657857903443,0.0,0.0,-0.07824556804523633,-0.07970375754239843,-0.09264098446845331,0.30094232178819474,0.07458099909757153,-0.018416879413854483
3165,3.0,300.07982000000004,924.69989,0.0,0.0,0.0,0.032096719722706696,0.0,0.0,-0.05051905310384235,-0.11247459118537789,-0.11809202947477589,0.2978304483460767,0.04985134357944455,-0.013259806241140988
3166,3.0,300.04515,563.17261,0.0,0.0,0.0,0.032106860866378956,0.0,0.0,0.011566152619490387,-0.08583606063160962,-0.09692050300780891,0.2949791220346727,0.07965818256615052,-0.007268298205000183
3167,3.0,300.68152000000003,313.00998,0.0,0.0,0.0,0.032117002010051215,0.0,0.0,-0.013416537793109187,-0.03461921764765077,-0.04711146262003936,0.3100405477486197,0.08653811426814692,0.02077759002683848
3168,3.0,300.0534,593.04987,0.0,0.0,0.0,0.032127143153723475,0.0,0.0,-0.05206887283404765,-0.08060436260228122,-0.04759911557516695,0.3085333787548737,0.0928101040161441,0.0009873470907335708
3169,3.0,299.06426,987.9933599999999,0.0,0.0,0.0,0.032137284297395735,0.0,0.0,-0.14280448000620485,-0.07720383244517502,-0.08031699676792042,0.3366506333323307,0.06384759113901664,0.03214083424755337
3170,3.0,299.03664,1075.8308,0.0,0.0,0.0,0.032147425441067995,0.0,0.0,-0.1039927759232879,-0.11957616729374888,-0.1034567463553859,0.2981587515109777,0.06176367106909974,-0.04535377665831925
3171,3.0,299.58294,733.33988,0.0,0.0,0.0,0.032157566584740255,0.0,0.0,-0.04868683145151615,-0.08082351846641023,-0.0934066631185199,0.34174446450005264,0.06609080223065433,-0.02830452954043957
3172,3.0,299.39794,540.48448,0.0,0.0,0.0,0.032167707728412515,0.0,0.0,-0.03260867917647607,-0.045112983851554864,-0.08657212400775342,0.3043595888104527,0.0962741071992646,-0.04057765816545306
3173,3.0,299.85794,823.26908,0.0,0.0,0.0,0.03217784887208478,0.0,0.0,-0.08571396602105982,-0.0899502613376496,-0.07458901694561283,0.3343108665989137,0.08467498950102083,0.0030412303544210674
3174,3.0,299.36967999999996,669.74307,0.0,0.0,0.0,0.03218799001575704,0.0,0.0,-0.08277941337294202,-0.05148304303698075,-0.06932271237236902,0.3065191084835807,0.08023833714940733,-0.004865028757340956
3175,3.0,300.04422999999997,330.43631,0.0,0.0,0.0,0.0321981311594293,0.0,0.0,-0.06155342471310004,-0.02262063622998298,-0.016270326302256184,0.31466137350465967,0.08350103084241013,0.021372136814515684
3176,3.0,300.98499,320.12425,0.0,0.0,0.0,0.03220827230310156,0.0,0.0,-0.0044552705182259655,-0.045274543540249554,-0.04757996616152705,0.3042437439265197,0.08068202720919612,-0.030872063750585474
3177,3.0,300.55002,677.39547,0.0,0.0,0.0,0.03221841344677382,0.0,0.0,-0.04103017160711266,-0.053881952165484644,-0.11099918758226689,0.29194469129769773,0.060796190489366846,0.013249789250652386
3178,3.0,300.42021,1016.3909,0.0,0.0,0.0,0.032228554590446094,0.0,0.0,-0.06975089970562784,-0.1193274245266999,-0.11987913920614988,0.2913627918977687,0.05619403589291954,-0.03673924387163107
3179,3.0,300.2416,1061.6071,0.0,0.0,0.0,0.032238695734118354,0.0,0.0,-0.1028630932542969,-0.0893031136975311,-0.1305358552778859,0.3174046468253997,0.05974166260679304,0.015262646038055884
3180,3.0,299.75992,653.2235900000001,0.0,0.0,0.0,0.03224883687779061,0.0,0.0,-0.0917764521253806,-0.07270620168929343,-0.034081006552283466,0.3278458040708617,0.09039546620633791,-0.010291897399731189
3181,3.0,300.35798,527.97482,0.0,0.0,0.0,0.03225897802146287,0.0,0.0,-0.07080134317704853,-0.03762652975894937,-0.052063287799496455,0.3245833920613867,0.06137963509569835,0.019165611455998585
3182,3.0,299.82894,739.18153,0.0,0.0,0.0,0.03226911916513513,0.0,0.0,-0.05909829033654715,-0.06872246909262963,-0.09687196731476881,0.3264113053742877,0.08132984156788042,-0.03879889254865256
3183,3.0,299.66695,878.3036,0.0,0.0,0.0,0.0322792603088074,0.0,0.0,-0.06995803234407023,-0.07689528259097352,-0.12012904721081388,0.3274076139326157,0.08321673414260222,-0.02145243789819078
3184,3.0,300.86893,533.9825599999999,0.0,0.0,0.0,0.03228940145247966,0.0,0.0,-0.020267217977968682,-0.05624353620005485,-0.08580661051745311,0.3171746086551967,0.08667454636761172,-0.036640480357883864
3185,3.0,300.23738,250.00574,0.0,0.0,0.0,0.03229954259615192,0.0,0.0,-0.023483115728353078,-0.023029323565067275,-0.02948306403650187,0.29529980555882174,0.06392957117810744,0.017857582583906184
3186,3.0,299.07126,677.8211299999999,0.0,0.0,0.0,0.03230968373982418,0.0,0.0,-0.08191329124046243,-0.07440549202125034,-0.049721915064670955,0.30314210802029673,0.056625378486989744,0.010195078312925892
3187,3.0,299.84422,1136.1628,0.0,0.0,0.0,0.03231982488349644,0.0,0.0,-0.12834216881138588,-0.12031160448133088,-0.0967113428559164,0.3065720305363037,0.09252302695806182,0.025239609094705476
3188,3.0,299.67157000000003,934.5341900000001,0.0,0.0,0.0,0.032329966027168706,0.0,0.0,-0.03739558472990687,-0.13775856543571188,-0.1089209001696559,0.2984514389348637,0.08014604830379912,-0.026758499365608274
3189,3.0,300.75133,596.65817,0.0,0.0,0.0,0.032340107170840966,0.0,0.0,-0.028672476115503075,-0.07401984295368973,-0.07867686402980192,0.3080699485566367,0.06893230508233883,-0.017088924978545583
3190,3.0,300.9096,408.23255,0.0,0.0,0.0,0.032350248314513226,0.0,0.0,-0.004556192254686165,-0.05379086300799485,-0.06574544809307054,0.29577306428302874,0.05854693029463214,-0.03528524821663287
3191,3.0,300.21913,560.92852,0.0,0.0,0.0,0.032360389458185486,0.0,0.0,-0.08030352054159041,-0.04840592812629316,-0.04179881604022196,0.3318013095462397,0.0915788531571291,0.0014471315948457685
3192,3.0,299.91782,805.57818,0.0,0.0,0.0,0.032370530601857746,0.0,0.0,-0.11509927371441388,-0.06596495048873373,-0.06381142621644745,0.3365044416079027,0.08194343340443722,-0.0036795720405704865
3193,3.0,299.67231,560.77077,0.0,0.0,0.0,0.032380671745530006,0.0,0.0,-0.05713357914089524,-0.03666311535186776,-0.07666361714110993,0.3200710549935537,0.06764743201478172,0.013815074388691687
3194,3.0,299.09061,385.17267000000004,0.0,0.0,0.0,0.032390812889202265,0.0,0.0,0.007417850474709843,-0.05993516500489024,-0.06456555888162453,0.32779960999880264,0.05774925928590815,-0.024074156670684275
3195,3.0,298.77678,793.33067,0.0,0.0,0.0,0.032400954032874525,0.0,0.0,-0.048437898193448355,-0.07115980877092633,-0.1215550042090449,0.3186808657238527,0.08521274868684352,-0.015524431360392086
3196,3.0,299.33344,1201.6259,0.0,0.0,0.0,0.032411095176546785,0.0,0.0,-0.1007004081878565,-0.12805985706852388,-0.13650399969189586,0.3172280879954747,0.09922708478720081,-0.007660202065428082
3197,3.0,300.48411,994.18931,0.0,0.0,0.0,0.032421236320219045,0.0,0.0,-0.12486925409363588,-0.08703257626394652,-0.09030688788259592,0.3010974706435067,0.07208354937034243,0.036140026000992864
3198,3.0,300.72783,502.55428,0.0,0.0,0.0,0.03243137746389131,0.0,0.0,-0.07246020280351523,-0.06233661029839445,-0.017967139237718584,0.2815201412213747,0.08408570857411332,0.031798065924224767
3199,3.0,300.50765,368.89731,0.0,0.0,0.0,0.03244151860756357,0.0,0.0,-0.030519171032257673,-0.06322123843070045,-0.01839516242446118,0.2848752960125027,0.09257155251860091,-0.0018550120788754381
3200,3.0,300.51872000000003,768.58532,0.0,0.0,0.0,0.03245165975123583,0.0,0.0,-0.03765111019312526,-0.09763484230180872,-0.0983447932096254,0.29937173347068974,0.08124970260422133,-0.012587750887064288
3201,3.0,300.3162,912.75575,0.0,0.0,0.0,0.03246180089490809,0.0,0.0,-0.07193685304736462,-0.0993499210968238,-0.10616818335798389,0.3103693778035727,0.06301794601013704,-0.037344726667637565
3202,3.0,299.13477,784.55404,0.0,0.0,0.0,0.03247194203858035,0.0,0.0,-0.06958944032869303,-0.08049558007154523,-0.08839981744538272,0.3367314602928077,0.05124406800089575,-0.03236667046959167
3203,3.0,299.9205,557.74937,0.0,0.0,0.0,0.03248208318225262,0.0,0.0,-0.09559270866601581,-0.04919931511359436,-0.024749857698620772,0.3682897426073677,0.07917250139571752,-0.001189025079647639
3204,3.0,300.64757000000003,563.8829,0.0,0.0,0.0,0.03249222432592488,0.0,0.0,-0.07514684962916662,-0.06507774160842303,-0.031181730206397175,0.3382156589067867,0.07955807953577113,-0.02022519545657138
3205,3.0,300.38587,926.85141,0.0,0.0,0.0,0.03250236546959714,0.0,0.0,-0.08114648079003413,-0.09085658112809641,-0.1097366272951619,0.32625613625397365,0.06104954759737124,0.01776097020012128
3206,3.0,300.43735,949.94651,0.0,0.0,0.0,0.0325125066132694,0.0,0.0,-0.05834394083584865,-0.1062576634743149,-0.12415841861848187,0.30349798172041875,0.04735556774138065,-0.024644822166754576
3207,3.0,301.61936000000003,633.1940099999999,0.0,0.0,0.0,0.03252264775694166,0.0,0.0,-0.019045925340936482,-0.09145750227215273,-0.08197174057248093,0.3290617953833707,0.0949476402151025,-0.007174943825586823
3208,3.0,300.72347,371.71411,0.0,0.0,0.0,0.03253278890061393,0.0,0.0,-0.02014892102879368,-0.06440980511600285,-0.028433080580626574,0.3096075758483887,0.07374927477948673,-0.03121337502027027
3209,3.0,300.35007,606.24312,0.0,0.0,0.0,0.03254293004428619,0.0,0.0,-0.08909999960898532,-0.06155882736263324,-0.033623942604424764,0.2926128588111407,0.07907757506009902,0.03194345718107376
3210,3.0,300.60471,809.84298,0.0,0.0,0.0,0.03255307118795844,0.0,0.0,-0.1091416164389389,-0.06925597161478224,-0.06777445203406764,0.30519716160811466,0.08336794449477553,0.015526325124828984
3211,3.0,299.60704,809.38279,0.0,0.0,0.0,0.0325632123316307,0.0,0.0,-0.06184172983030353,-0.10023308508273532,-0.0839573419454445,0.30784579736951473,0.1119656660576509,-0.0021917268408065977
3212,3.0,299.24302,752.35377,0.0,0.0,0.0,0.03257335347530296,0.0,0.0,-0.07330245073713863,-0.051367794957356654,-0.10402651715161791,0.3165019929738147,0.09123692481813342,-0.0067938623881520135
3213,3.0,300.10866,789.3792599999999,0.0,0.0,0.0,0.03258349461897524,0.0,0.0,-0.061594652846418935,-0.07227297343678714,-0.1060839620096719,0.3057184179895587,0.05885640828592524,-0.015378288271968884
3214,3.0,299.52542,870.74646,0.0,0.0,0.0,0.032593635762647497,0.0,0.0,-0.10583558401265891,-0.07858392569087963,-0.08026566754435463,0.33352306464616366,0.05585703802891044,0.005414035323248684
3215,3.0,299.88909,996.64804,0.0,0.0,0.0,0.032603776906319756,0.0,0.0,-0.16476262292330485,-0.05237059743557554,-0.0858228934465601,0.33148842804786066,0.07045613798722943,0.0022739370903201175
3216,3.0,301.26333,805.35561,0.0,0.0,0.0,0.032613918049992016,0.0,0.0,-0.08825623281346201,-0.07909702642226872,-0.07745473647468733,0.35759881921225567,0.06848187994913534,0.015019232966532884
3217,3.0,299.93101,332.27047999999996,0.0,0.0,0.0,0.032624059193664276,0.0,0.0,-0.0010825531644396789,-0.051138944316270855,-0.04878043245600386,0.3090925205575567,0.05611616458298425,-0.012743665759451886
3218,3.0,299.98627999999997,530.93283,0.0,0.0,0.0,0.032634200337336536,0.0,0.0,-0.012630091568992988,-0.05820422479280974,-0.09055600757868211,0.3092986156278967,0.04866844096220116,0.0016595291821327781
3219,3.0,300.22676,904.7117599999999,0.0,0.0,0.0,0.032644341481008796,0.0,0.0,-0.04832511737781776,-0.11976012284940388,-0.10692454416013089,0.2977051599712117,0.08751081409914492,-0.03705628678817076
3220,3.0,299.28472,680.54109,0.0,0.0,0.0,0.032654482624681055,0.0,0.0,-0.08971091038577751,-0.06930566241293634,-0.04785092646351875,0.2956173277426587,0.08107043231702872,-0.013933748266903887
3221,3.0,298.92852999999997,515.9173599999999,0.0,0.0,0.0,0.03266462376835332,0.0,0.0,-0.07959143370256293,-0.07063366852400034,-0.006600891946357313,0.2842174535175787,0.08539084157741991,-0.01919421651957168
3222,3.0,299.76805,617.6075599999999,0.0,0.0,0.0,0.03267476491202558,0.0,0.0,-0.062441091582455935,-0.06433253365012674,-0.06096365134664394,0.3092042212485807,0.06037141679569494,-0.014898546773622087
3223,3.0,299.61367,678.30031,0.0,0.0,0.0,0.03268490605569784,0.0,0.0,-0.04295040011012446,-0.06766085656535664,-0.0955751014190281,0.3372047190170147,0.09641038325821401,-0.010692736099540889
3224,3.0,299.72999,924.4120300000001,0.0,0.0,0.0,0.0326950471993701,0.0,0.0,-0.04816659439967275,-0.09561494038645992,-0.13721663875222787,0.3489190959406337,0.06950987891759093,-0.005420191324231235
3225,3.0,299.62062000000003,707.8333,0.0,0.0,0.0,0.03270518834304236,0.0,0.0,-0.051499718093876455,-0.061849071840528146,-0.1018148556283439,0.33845230346764166,0.07676617426323153,0.0070537639772273045
3226,3.0,299.61602,409.11623,0.0,0.0,0.0,0.03271532948671462,0.0,0.0,-0.055534176017046445,-0.035534929253274464,-0.03329201301741586,0.3109069069816227,0.06777161898678803,0.006216635489734154
3227,3.0,301.23667,608.48155,0.0,0.0,0.0,0.03272547063038688,0.0,0.0,-0.08972259923893111,-0.058082019737999036,-0.037158577425516065,0.3165602751195667,0.09402592611588641,0.0035989647527151663
3228,3.0,300.92605,957.72185,0.0,0.0,0.0,0.03273561177405915,0.0,0.0,-0.09842955462024072,-0.07125116745294273,-0.12144280702547189,0.3101092258403977,0.07297720860078973,0.02609832740870437
3229,3.0,300.25125,801.13818,0.0,0.0,0.0,0.03274575291773141,0.0,0.0,-0.06217397757784385,-0.096795722271244,-0.08455630143730722,0.2890718840841737,0.08568855066880152,-0.009233747857324962
3230,3.0,299.73451,606.25456,0.0,0.0,0.0,0.03275589406140367,0.0,0.0,-0.040526539697908065,-0.061972035819663734,-0.08178767153281472,0.3090874036445517,0.05534153589478435,0.016954728108801383
3231,3.0,300.56462,699.82535,0.0,0.0,0.0,0.03276603520507593,0.0,0.0,-0.05966792333076554,-0.06295000759093204,-0.0901114998260626,0.3208065327111397,0.07148387452390914,-0.04185115952713786
3232,3.0,300.34546,848.1438800000001,0.0,0.0,0.0,0.03277617634874819,0.0,0.0,-0.13283397743219288,-0.07088756062805752,-0.054093026346816044,0.3163943047531867,0.07469937609350442,0.018407011371130582
3233,3.0,299.49683,684.85814,0.0,0.0,0.0,0.032786317492420454,0.0,0.0,-0.08233010382809863,-0.05714731273275065,-0.06870235709139473,0.31962891317991765,0.09003794090855292,-0.04264722757420366
3234,3.0,299.47269,576.08583,0.0,0.0,0.0,0.032796458636092714,0.0,0.0,-0.03403871349310947,-0.06265603029966875,-0.07842096366404652,0.31001597643369466,0.08939057440641282,0.006333003413368774
3235,3.0,299.71497,492.59039,0.0,0.0,0.0,0.032806599779764974,0.0,0.0,-0.004255061113741836,-0.06653048893929803,-0.07894962994347182,0.3048265248540357,0.1031858438086499,-0.05044385677417105
3236,3.0,300.56764,516.99495,0.0,0.0,0.0,0.03281674092343723,0.0,0.0,-0.033206785511754565,-0.04952372233186086,-0.07442304860573302,0.3344707574646937,0.08703236145492532,0.002339976577512708
3237,3.0,300.0402,737.6038,0.0,0.0,0.0,0.03282688206710949,0.0,0.0,-0.05548221148566794,-0.11616672256226289,-0.05256420521168315,0.31087185866066375,0.08739562174827632,-0.025952533891565675
3238,3.0,299.54036,680.94026,0.0,0.0,0.0,0.03283702321078177,0.0,0.0,-0.09037957641826971,-0.06535663971169814,-0.051252620844989855,0.3168878791418987,0.05960067898787904,0.0025821381838371975
3239,3.0,299.3668,572.83474,0.0,0.0,0.0,0.03284716435445403,0.0,0.0,-0.055191901146516543,-0.08904568839037522,-0.02988986571315007,0.3274708812688597,0.07073386781313923,-0.029399534738008173
3240,3.0,300.87932,669.41638,0.0,0.0,0.0,0.03285730549812629,0.0,0.0,-0.04382159659910486,-0.07987687233523352,-0.07978739525865282,0.3225736104880367,0.05226516774942045,-0.019784701187597984
3241,3.0,300.03959,704.17305,0.0,0.0,0.0,0.03286744664179854,0.0,0.0,-0.054872037341698446,-0.05997083850116094,-0.09920814815608191,0.3025290714447947,0.05774094151583725,-0.005651381559797934
3242,3.0,300.56883,683.49382,0.0,0.0,0.0,0.0328775877854708,0.0,0.0,-0.04333853366693026,-0.06759797021115024,-0.09682854954798381,0.3004451908916317,0.06480080009109103,-0.009485601606155991
3243,3.0,300.46533999999997,680.43705,0.0,0.0,0.0,0.032887728929143066,0.0,0.0,-0.06902302643004234,-0.07322697475043972,-0.06458587150637923,0.3129855692967707,0.0977582338724865,-0.008815633749935312
3244,3.0,299.6305,822.89798,0.0,0.0,0.0,0.03289787007281533,0.0,0.0,-0.11635435621578089,-0.06282794135138503,-0.07095813957702313,0.3213486417796417,0.07952526340478243,0.014544759355455987
3245,3.0,300.23899,1002.8707,0.0,0.0,0.0,0.03290801121648759,0.0,0.0,-0.11830194449799288,-0.08702271531397332,-0.09952298218740359,0.3204765982135777,0.07452360151915684,0.0062377608423940635
3246,3.0,300.78871000000004,899.48525,0.0,0.0,0.0,0.03291815236015985,0.0,0.0,-0.08495918791556901,-0.08073950584761883,-0.1077223570238689,0.3221198973582587,0.06825236866898433,0.012873300977245887
3247,3.0,299.90471,735.5396,0.0,0.0,0.0,0.03292829350383211,0.0,0.0,-0.04443032179543136,-0.0865047904988581,-0.09265056069514842,0.3333219142363117,0.07608110776462072,-0.018873218887891684
3248,3.0,301.12057000000004,719.70298,0.0,0.0,0.0,0.03293843464750437,0.0,0.0,-0.053894600566482945,-0.06620232357641063,-0.0986748097804455,0.3368572552927227,0.041220085073355665,0.01056163166910189
3249,3.0,300.99376,556.237,0.0,0.0,0.0,0.03294857579117663,0.0,0.0,-0.05276922319716685,-0.058081531351450846,-0.058231403200242046,0.3282097128442767,0.028655952032872273,-0.023655558736371877
3250,3.0,300.16863,552.55785,0.0,0.0,0.0,0.03295871693484889,0.0,0.0,-0.060176323594940746,-0.06502544777076204,-0.042762018678032664,0.30538255597891173,0.05409916157617155,0.005864365109617775
3251,3.0,299.54186,680.3598400000001,0.0,0.0,0.0,0.03296885807852115,0.0,0.0,-0.041683576066598664,-0.09428045859400681,-0.07084836811418953,0.3132035801882867,0.08529234556169911,-0.036103010961589764
3252,3.0,298.71319,506.33603,0.0,0.0,0.0,0.03297899922219341,0.0,0.0,-0.032262002747511766,-0.05421060895467055,-0.06744089820714844,0.29699140633576976,0.07782965421043883,-0.008252541082462393
3253,3.0,299.1358,603.2617700000001,0.0,0.0,0.0,0.03298914036586568,0.0,0.0,-0.058960465018194845,-0.05792055934781415,-0.06649549128084403,0.2921276032057497,0.06700914626003784,-0.04221769363156196
3254,3.0,300.75445,741.41769,0.0,0.0,0.0,0.03299928150953794,0.0,0.0,-0.07246672002815843,-0.06003718814420915,-0.09286855740116301,0.32192873759439267,0.08050939573665872,-0.016867017127144984
3255,3.0,298.97385,553.63719,0.0,0.0,0.0,0.0330094226532102,0.0,0.0,-0.06260076966571494,-0.06651929860519364,-0.03917181316845696,0.33438568498629767,0.09606639396851491,-0.04846631479250286
3256,3.0,299.94133999999997,713.3432799999999,0.0,0.0,0.0,0.03301956379688246,0.0,0.0,-0.08065194685347743,-0.05193640152922375,-0.08425019655559701,0.33361156190989766,0.07703457509547063,0.0018099021844234383
3257,3.0,300.74,892.48963,0.0,0.0,0.0,0.03302970494055472,0.0,0.0,-0.08451149957088562,-0.07997073577149713,-0.1068123267115559,0.3214268241573577,0.05830585377783975,0.005060036439786715
3258,3.0,300.63807,746.77669,0.0,0.0,0.0,0.033039846084226984,0.0,0.0,-0.03561581802200757,-0.07752390092651333,-0.1138617508372799,0.3109984541281577,0.08435728594541592,0.02067377343484258
3259,3.0,301.17631,633.5572400000001,0.0,0.0,0.0,0.033049987227899244,0.0,0.0,-0.02860552966814597,-0.08427041089509202,-0.07970964047247903,0.31264924119107773,0.0945028365934538,-0.015075656811601484
3260,3.0,300.37543,702.45149,0.0,0.0,0.0,0.033060128371571504,0.0,0.0,-0.04008657434548686,-0.07511902476817052,-0.09832211464588721,0.31397064091148974,0.07425246288514753,0.004888893938271265
3261,3.0,300.10913,831.93924,0.0,0.0,0.0,0.033070269515243764,0.0,0.0,-0.1119161890552679,-0.06653323180731874,-0.07443933964084083,0.3179049390622747,0.058354611372651743,0.0011625689168866188
3262,3.0,299.92615,875.22836,0.0,0.0,0.0,0.033080410658916024,0.0,0.0,-0.0983650278141224,-0.08497091729872662,-0.08271162086175142,0.3213847134832017,0.06705651772871303,0.005547636300609074
3263,3.0,299.31541,616.71223,0.0,0.0,0.0,0.03309055180258829,0.0,0.0,-0.05912396001458054,-0.047285743663739555,-0.08105541595054672,0.3146346743645247,0.09089330637797091,-0.01085957887425699
3264,3.0,299.95869,607.96135,0.0,0.0,0.0,0.03310069294626055,0.0,0.0,-0.04317547234158736,-0.03662904481725526,-0.10500055447274789,0.28932960424710874,0.09008011440421511,0.030193387820355373
3265,3.0,300.35107999999997,710.03806,0.0,0.0,0.0,0.03311083408993281,0.0,0.0,-0.07660042985162382,-0.04752071636192955,-0.09171269234958801,0.30559469001984774,0.08550618388930332,-0.016882586728181586
3266,3.0,299.66812999999996,953.69976,0.0,0.0,0.0,0.03312097523360507,0.0,0.0,-0.0954835897362466,-0.08352341049736883,-0.11089391089687689,0.3147079627442577,0.1144464873374889,0.004618690027479215
3267,3.0,299.57626,952.76458,0.0,0.0,0.0,0.03313111637727733,0.0,0.0,-0.09672472079698671,-0.11012068961306588,-0.08277122833863422,0.3389640656956487,0.09251870645963542,-0.03413323655518817
3268,3.0,299.36455,612.25539,0.0,0.0,0.0,0.0331412575209496,0.0,0.0,-0.03446391680482376,-0.08067698223694822,-0.07096945048788943,0.3334232493788127,0.099846618322344,0.003162266726566427
3269,3.0,299.16704,507.47172,0.0,0.0,0.0,0.03315139866462186,0.0,0.0,-0.022678962958739377,-0.07718255216657482,-0.05439721517258715,0.3175862921708267,0.040187354226933064,-0.02385279597433768
3270,3.0,299.71098,586.22736,0.0,0.0,0.0,0.03316153980829412,0.0,0.0,-0.015986012377196587,-0.07567444591648634,-0.08653802104913773,0.3385876838135027,0.06706994126603784,0.008342410692131833
3271,3.0,299.642,414.11402000000004,0.0,0.0,0.0,0.03317168095196638,0.0,0.0,0.005537564290640045,-0.08266320777197342,-0.048754678678212156,0.3268861954311557,0.08112092662251212,-0.02734473851571557
3272,3.0,299.67798,325.37257999999997,0.0,0.0,0.0,0.033181822095638636,0.0,0.0,-0.024050348333084576,-0.03223866253145827,-0.04261612890213446,0.3134952543620727,0.09503641409611381,-0.025486270646049077
3273,3.0,299.99717000000004,699.5478400000001,0.0,0.0,0.0,0.0331919632393109,0.0,0.0,-0.08853410854738622,-0.06324079821063085,-0.060870167879167845,0.27526263284380675,0.05261503084994924,-0.03453195756228886
3274,3.0,300.61005,808.60246,0.0,0.0,0.0,0.03320210438298316,0.0,0.0,-0.11446753254206589,-0.06878630587542985,-0.06254111963232795,0.29656734090391773,0.08646237787617232,-0.029257409186231473
3275,3.0,299.74701,778.23858,0.0,0.0,0.0,0.03321224552665542,0.0,0.0,-0.07969534655331832,-0.07512751276425823,-0.08174223739833072,0.3291564228102097,0.08623942637716872,-0.017179158952950982
3276,3.0,299.51928,902.48683,0.0,0.0,0.0,0.03322238667032768,0.0,0.0,-0.08315730905073743,-0.09073359891045901,-0.1004425522494081,0.3116918819665937,0.1081641441999699,-0.008119751819757113
3277,3.0,299.9396,889.55805,0.0,0.0,0.0,0.03323252781399995,0.0,0.0,-0.0888753752340666,-0.052725645336866044,-0.1288024174043089,0.3321736282954847,0.06503506756721143,0.03002190537343137
3278,3.0,300.70649,701.78425,0.0,0.0,0.0,0.03324266895767221,0.0,0.0,-0.055458562228333945,-0.09273679131840872,-0.06512953591378473,0.33885423951730964,0.06865821282428802,-0.008505511736878652
3279,3.0,299.50813999999997,630.94003,0.0,0.0,0.0,0.03325281010134447,0.0,0.0,-0.04989494778424795,-0.08420130014552132,-0.05769376661768144,0.36212717576416964,0.07150016251926662,0.005609761602665364
3280,3.0,300.52948,703.48066,0.0,0.0,0.0,0.03326295124501673,0.0,0.0,-0.07242709992274822,-0.07383153244910493,-0.06758192235606643,0.34339679170312465,0.05890716907618495,-0.0007061209338962102
3281,3.0,299.80764,540.79195,0.0,0.0,0.0,0.03327309238868899,0.0,0.0,-0.03945868656326916,-0.06094074682813344,-0.06398781583360574,0.3081361137881667,0.039032361583694164,0.005559479573077915
3282,3.0,299.45371,547.61475,0.0,0.0,0.0,0.03328323353236125,0.0,0.0,-0.036552027677154264,-0.04997716087086175,-0.07993202049842622,0.2972127406876137,0.06778532319439054,-0.0004718960244125116
3283,3.0,298.82685,807.8040900000001,0.0,0.0,0.0,0.033293374676033514,0.0,0.0,-0.056996052731322445,-0.08609195593111452,-0.1024642678824359,0.33574988439093373,0.08280345779781502,0.015985227108369086
3284,3.0,299.69005,950.16309,0.0,0.0,0.0,0.033303515819705774,0.0,0.0,-0.08446379778267782,-0.12073322798044189,-0.08362882903777283,0.3196482054618217,0.0915426233865535,-0.012060778761806189
3285,3.0,299.27299,974.8569699999999,0.0,0.0,0.0,0.033313656963378034,0.0,0.0,-0.11686987760165889,-0.09247878237919523,-0.08698351672060473,0.3276858118800717,0.06791778943296393,-0.01899561139397088
3286,3.0,300.82022,949.49588,0.0,0.0,0.0,0.033323798107050294,0.0,0.0,-0.12084561768153387,-0.10923620333577388,-0.05854121657731825,0.3067778114991127,0.1001648031717464,-0.03620137018854707
3287,3.0,301.16208,497.33299000000005,0.0,0.0,0.0,0.033333939250722554,0.0,0.0,-0.036222427552125264,-0.06166472213058424,-0.053289660872530044,0.33636002307114965,0.09618067642079373,-0.034064382157892766
3288,3.0,301.7122,122.4627,0.0,0.0,0.0,0.03334408039439482,0.0,0.0,0.01920627318251158,-0.012903766368002589,-0.04352810870763986,0.33077623481757273,0.10082065260372372,-0.0008367479816830962
3289,3.0,300.42933999999997,366.60587000000004,0.0,0.0,0.0,0.03335422153806708,0.0,0.0,0.005068017202874355,-0.06291305435978505,-0.053593991553315144,0.3259005563963807,0.04320034965804256,-0.01196582608168509
3290,3.0,300.37856,451.207,0.0,0.0,0.0,0.03336436268173934,0.0,0.0,-0.018246725337811583,-0.049194589315127955,-0.06971434670827034,0.35419037759836863,0.06357261937987904,-0.013384561646453387
3291,3.0,299.59145,434.18755999999996,0.0,0.0,0.0,0.0333745038254116,0.0,0.0,-0.029967763367587972,-0.07421944714388913,-0.02779496606514957,0.3310160711162427,0.07968419269621752,-0.03258191214858437
3292,3.0,299.57748,731.3068099999999,0.0,0.0,0.0,0.03338464496908386,0.0,0.0,-0.07332538058690163,-0.1016986763718779,-0.04727494748392405,0.3179642445906277,0.08499632657148432,-0.018104930105567484
3293,3.0,299.57842999999997,1003.1572,0.0,0.0,0.0,0.03339478611275613,0.0,0.0,-0.1283909770687029,-0.06725903501294993,-0.1092847177505619,0.30494022164775675,0.08065302495158382,0.029525291234419368
3294,3.0,299.69041,981.03116,0.0,0.0,0.0,0.033404927256428386,0.0,0.0,-0.09622522902769072,-0.0932931446568165,-0.1086905985544269,0.3020994736673967,0.098375521032158,0.002107672273461058
3295,3.0,299.6019,871.13081,0.0,0.0,0.0,0.033415068400100646,0.0,0.0,-0.09147025503791133,-0.053483529053913355,-0.11984822494559888,0.3182348127648307,0.08434999054469593,0.025773950587940877
3296,3.0,301.42464,848.7556400000001,0.0,0.0,0.0,0.033425209543772906,0.0,0.0,-0.057587531397696845,-0.07421376281082813,-0.12619922590989388,0.3257331168173557,0.1013174734457561,0.012101782966852988
3297,3.0,301.99496,687.5731599999999,0.0,0.0,0.0,0.033435350687445166,0.0,0.0,-0.07284545569028673,-0.06276874525404284,-0.07339087200711512,0.3245556290086467,0.07597749787564523,0.017904679461804282
3298,3.0,300.68776,579.72707,0.0,0.0,0.0,0.03344549183111743,0.0,0.0,-0.06530244603009963,-0.04899638644981686,-0.061923718988645245,0.3360924338522407,0.07866670923729972,-0.024005156365374477
3299,3.0,299.04128,661.82914,0.0,0.0,0.0,0.03345563297478969,0.0,0.0,-0.07239499306682952,-0.07005991970787574,-0.058724617885168535,0.30686464703268274,0.09119966051920572,-0.02261340162426898
3300,3.0,300.28123999999997,631.46155,0.0,0.0,0.0,0.03346577411846196,0.0,0.0,-0.035390131760984066,-0.10016966575897632,-0.05638874608513594,0.3265069967137317,0.06102997768493984,-0.045551058479289454
3301,3.0,299.61888,583.87707,0.0,0.0,0.0,0.03347591526213422,0.0,0.0,-0.024869806245458776,-0.07376710392824634,-0.07884713868260672,0.3146128185598677,0.02950396535956467,-0.005966234842871535
3302,3.0,299.61777,876.4005099999999,0.0,0.0,0.0,0.03348605640580647,0.0,0.0,-0.05184333856053915,-0.14000472812489087,-0.07455580564708514,0.3534144306717886,0.051510773665717546,-0.02090169391233658
3303,3.0,299.92287000000005,834.2884700000001,0.0,0.0,0.0,0.03349619754947874,0.0,0.0,-0.06915615634743123,-0.08315587428859583,-0.1012908330741269,0.3389279534620847,0.06733566103851234,-0.011902709719705988
3304,3.0,300.14692,603.79605,0.0,0.0,0.0,0.033506338693151,0.0,0.0,-0.055133608868263545,-0.07217811701542552,-0.05622719754219235,0.3308872768960317,0.08195327307615834,-0.0018472667951110384
3305,3.0,301.12542,900.85186,0.0,0.0,0.0,0.03351647983682326,0.0,0.0,-0.08361075772223932,-0.0988837125668126,-0.09134200189325373,0.3032529677137377,0.07661968768302443,0.0030271672536331473
3306,3.0,301.27762,1009.2436,0.0,0.0,0.0,0.03352662098049552,0.0,0.0,-0.1142778926533499,-0.061894787658539945,-0.13061217327541788,0.3250813335580297,0.1009541300658969,0.009562608309780962
3307,3.0,300.78657000000004,740.49437,0.0,0.0,0.0,0.03353676212416778,0.0,0.0,-0.04628485926795996,-0.08155927280127351,-0.09724766626634741,0.3237211060937857,0.09574555237735032,-0.02279765507545338
3308,3.0,301.06556,610.8824400000001,0.0,0.0,0.0,0.033546903267840045,0.0,0.0,-0.047429842013460954,-0.06204554002166804,-0.07621762700359414,0.3188631696818447,0.058771365191782145,-0.018506449709444383
3309,3.0,300.91674,662.28892,0.0,0.0,0.0,0.033557044411512305,0.0,0.0,-0.05830532182153724,-0.062399780362628846,-0.08061419112825123,0.2981956338146177,0.0879631056390326,-0.013293635622229688
3310,3.0,300.47491,576.35514,0.0,0.0,0.0,0.033567185555184564,0.0,0.0,-0.07212233962392073,-0.07834481285278101,-0.024730419508702375,0.3134384414289657,0.1117677073856139,-0.02637652839591068
3311,3.0,299.15976,678.06798,0.0,0.0,0.0,0.033577326698856824,0.0,0.0,-0.08000458440433772,-0.06005679959989464,-0.06605435157155694,0.3385349238807957,0.09701657026304,0.0034700997063221765
3312,3.0,298.75043,656.91661,0.0,0.0,0.0,0.033587467842529084,0.0,0.0,-0.06221304546194954,-0.07780976917722633,-0.05966343159307224,0.3207404890696217,0.03261379811598127,0.0004075468309042406
3313,3.0,299.62674,622.8308099999999,0.0,0.0,0.0,0.03359760898620135,0.0,0.0,-0.03129136285396707,-0.061223947191333145,-0.0968097061358741,0.3501219048693417,0.014158086905294385,0.030343275881148175
3314,3.0,300.03572,877.9192,0.0,0.0,0.0,0.03360775012987361,0.0,0.0,-0.08701805132376302,-0.06119906987487794,-0.11864839497218488,0.3508765127488157,0.04167682478118236,0.01022953692232669
3315,3.0,299.1888,1106.585,0.0,0.0,0.0,0.03361789127354587,0.0,0.0,-0.1098943802032309,-0.1062428497578529,-0.12023698874396689,0.3317810749417427,0.09496719087578201,0.025927866317881177
3316,3.0,300.17451,850.6351800000001,0.0,0.0,0.0,0.03362803241721813,0.0,0.0,-0.0926805903883621,-0.07644898746517763,-0.08944227650601541,0.3207365981892377,0.08731588403165683,-0.003248993741050717
3317,3.0,300.14392000000004,587.39095,0.0,0.0,0.0,0.03363817356089039,0.0,0.0,-0.044670828865667554,-0.07329604395675635,-0.060585308825554435,0.3067519837540637,0.1164498347727039,-0.03028113730551557
3318,3.0,300.4933,753.11577,0.0,0.0,0.0,0.03364831470456266,0.0,0.0,-0.06440267386179904,-0.1030581844285509,-0.06146753656837354,0.3161256009591677,0.12776274174170088,-0.05055607320949595
3319,3.0,300.63726,656.62403,0.0,0.0,0.0,0.03365845584823492,0.0,0.0,-0.03250971098620867,-0.07592307418627403,-0.09116452505873811,0.31188811811346073,0.0990817522988576,-0.04921321487846615
3320,3.0,301.44424,271.96071,0.0,0.0,0.0,0.033668596991907176,0.0,0.0,0.0021410351542037183,-0.06656383094708865,-0.01824646999878638,0.3099446132291517,0.04045524944737226,-0.03969946214478186
3321,3.0,300.48659,345.03704,0.0,0.0,0.0,0.033678738135579436,0.0,0.0,-0.005872836387078824,-0.06339116351222074,-0.03561864600303667,0.3307006666251147,0.05620974430921984,-0.027415312398430678
3322,3.0,299.62797,645.45068,0.0,0.0,0.0,0.033688879279251696,0.0,0.0,-0.07689893839733433,-0.06520203193193953,-0.05409991847399625,0.3414003647660927,0.08186044011524642,0.015758814347023885
3323,3.0,299.5693,834.38634,0.0,0.0,0.0,0.03369902042292397,0.0,0.0,-0.06247749664529885,-0.10581787240091091,-0.08533724166038001,0.3102338657351987,0.09979446836619721,-0.006464581234254494
3324,3.0,299.36483,1067.0557,0.0,0.0,0.0,0.03370916156659622,0.0,0.0,-0.1006619796645639,-0.08849967020298742,-0.13519664361786987,0.32164819903920566,0.050709617076649546,0.03216588888277607
3325,3.0,299.17368,1066.3918,0.0,0.0,0.0,0.03371930271026848,0.0,0.0,-0.08649283921392861,-0.0894138771322126,-0.14824977723611385,0.33574481814043367,0.07189447588843234,0.00976113328729885
3326,3.0,299.86471,870.0168800000001,0.0,0.0,0.0,0.03372944385394074,0.0,0.0,-0.10381787882352689,-0.06844264893176354,-0.09220287741671551,0.36434989184603467,0.08932070675901742,0.009311120344236033
3327,3.0,299.92177000000004,861.2229699999999,0.0,0.0,0.0,0.033739584997613,0.0,0.0,-0.10818732736225789,-0.07163202992703092,-0.08197092085315003,0.34095095794923974,0.09252121425363291,-0.0061070023355392035
3328,3.0,300.57595,884.3067300000001,0.0,0.0,0.0,0.03374972614128527,0.0,0.0,-0.10956218615794588,-0.08382320587070632,-0.07542176869929904,0.30217004653686175,0.06951390759998853,-0.009139846829482651
3329,3.0,301.18464,546.18259,0.0,0.0,0.0,0.03375986728495753,0.0,0.0,-0.05202023176299715,-0.04115850074552776,-0.07284713768545273,0.2978740079678757,0.08358632724907822,-0.013893486774180385
3330,3.0,301.66645,481.12464000000006,0.0,0.0,0.0,0.03377000842862979,0.0,0.0,-0.025021900151719276,-0.07276921064676194,-0.04845876607925786,0.33621817818965066,0.10757846537716789,-0.03133240556251767
3331,3.0,300.69391,709.36084,0.0,0.0,0.0,0.03378014957230205,0.0,0.0,-0.042604515029488255,-0.1002887408842281,-0.07273472569285852,0.3161631013453687,0.08335316522881692,-0.02151771552263318
3332,3.0,299.65417,778.50762,0.0,0.0,0.0,0.03379029071597431,0.0,0.0,-0.07292264102990434,-0.08064179814047583,-0.08308243797434822,0.3062642963484327,0.039542924123582755,-0.016679313559370083
3333,3.0,299.98702000000003,729.5177,0.0,0.0,0.0,0.033800431859646575,0.0,0.0,-0.050146358438810254,-0.09666265922836172,-0.07494614808910892,0.3193682849891957,0.05493364092127825,-0.01941284650689878
3334,3.0,300.28254,777.41819,0.0,0.0,0.0,0.033810573003318835,0.0,0.0,-0.062184402908122736,-0.08636252917156802,-0.08776878656135483,0.36059026787998866,0.0936708295785911,-0.0045254155934987455
3335,3.0,299.83749,695.88529,0.0,0.0,0.0,0.033820714146991095,0.0,0.0,-0.03319251793709647,-0.09080848619884982,-0.0875307467551121,0.3480846034232757,0.09249654262694801,-0.014482596461820985
3336,3.0,299.38231,661.68898,0.0,0.0,0.0,0.033830855290663354,0.0,0.0,-0.03879312310258316,-0.09934873458095672,-0.06299506884937925,0.3348005906372457,0.060426863867667144,-0.023469908013299578
3337,3.0,300.33453,775.04041,0.0,0.0,0.0,0.033840996434335614,0.0,0.0,-0.055433106346071646,-0.06933795469362335,-0.11082186881476688,0.3111894416395067,0.061560822452080145,-0.022814874247652776
3338,3.0,298.99244,616.5953,0.0,0.0,0.0,0.03385113757800788,0.0,0.0,-0.06388664889062134,-0.07658270506762453,-0.04696022187036305,0.34823637815575464,0.07755546265387822,-0.012124635809608387
3339,3.0,300.40947,446.7238,0.0,0.0,0.0,0.03386127872168014,0.0,0.0,-0.02531667385756118,-0.055603563383894446,-0.05487264225200815,0.3134604390886367,0.08948832973631052,-0.04617968390757996
3340,3.0,301.0514,664.1865,0.0,0.0,0.0,0.0338714198653524,0.0,0.0,-0.08362172615457182,-0.05789880993441765,-0.06037557720060554,0.30646255899549973,0.05974915255153224,-0.018209695099656982
3341,3.0,300.47888,770.1173200000001,0.0,0.0,0.0,0.03388156100902466,0.0,0.0,-0.058437737397605646,-0.06603232554088313,-0.10962637555178091,0.27818410645963376,0.06871209341160564,-0.012328862446763988
3342,3.0,300.59997999999996,694.90205,0.0,0.0,0.0,0.03389170215269692,0.0,0.0,-0.06983543718797103,-0.06208143947271104,-0.07931599382187912,0.3279194977506347,0.10529492389179991,0.015313923585866586
3343,3.0,301.17019,660.26571,0.0,0.0,0.0,0.03390184329636919,0.0,0.0,-0.036385190981938764,-0.07445326372371502,-0.08986583429956732,0.3460388210738727,0.08238774458653732,0.004810380126447555
3344,3.0,299.53311,685.7081599999999,0.0,0.0,0.0,0.03391198444004145,0.0,0.0,-0.0934530010720931,-0.045373390140504954,-0.06961176830789663,0.35783430866799665,0.06772229701167035,0.03383435715994107
3345,3.0,299.2635,877.6967900000001,0.0,0.0,0.0,0.03392212558371371,0.0,0.0,-0.08414484894270001,-0.06454891726198214,-0.11810413781347089,0.3358988828181387,0.06382241187403165,0.01977119355051488
3346,3.0,298.91222,960.9218900000001,0.0,0.0,0.0,0.03393226672738597,0.0,0.0,-0.1126274298304619,-0.08325099516823352,-0.0962178302754605,0.3372820806621497,0.0951804688760809,0.0035713146773613167
3347,3.0,298.60861,812.36631,0.0,0.0,0.0,0.033942407871058226,0.0,0.0,-0.06062758060647635,-0.06896743648980602,-0.11734405838345689,0.3197470480090767,0.09207954765429381,-0.012144924116360688
3348,3.0,299.22767000000005,575.8373,0.0,0.0,0.0,0.03395254901473049,0.0,0.0,-0.03131602333490087,-0.07644415831520103,-0.06727997990576703,0.3076572619234077,0.07577748027940502,-0.012887878606434588
3349,3.0,299.64249,411.72174,0.0,0.0,0.0,0.03396269015840275,0.0,0.0,-0.021019909801503582,-0.061514896891297646,-0.04261832258860096,0.3124140354453647,0.09105235725941802,-0.025392316017276477
3350,3.0,299.7975,611.1254299999999,0.0,0.0,0.0,0.03397283130207501,0.0,0.0,-0.07694829786270573,-0.062222451462627844,-0.046596122605929255,0.3059047546829487,0.0941734451979454,-0.02229234826383348
3351,3.0,300.29196,637.75022,0.0,0.0,0.0,0.03398297244574727,0.0,0.0,-0.045126102400599555,-0.08491431309514022,-0.06381972676126664,0.3322072378013017,0.06018693029698754,-0.02781422997605077
3352,3.0,299.52376,382.9716,0.0,0.0,0.0,0.03399311358941953,0.0,0.0,-0.01162883429717659,-0.07072205230372312,-0.034062918011498265,0.3202527104714817,0.047778339252854955,-0.03716945669183976
3353,3.0,300.46811,588.94796,0.0,0.0,0.0,0.0340032547330918,0.0,0.0,0.008429083092435733,-0.07098566046298924,-0.11646889400708489,0.3417961098576497,0.06358490909034195,-0.023006850691099378
3354,3.0,299.80791,925.2175300000001,0.0,0.0,0.0,0.03401339587676406,0.0,0.0,-0.07190156559938203,-0.1044438039403009,-0.1048976589250929,0.3383661366791377,0.10915532571279189,0.0024116980672910676
3355,3.0,299.4888,920.69467,0.0,0.0,0.0,0.03402353702043632,0.0,0.0,-0.08041862575295042,-0.09030587969874641,-0.10914368346914288,0.3112891353168457,0.08743554380221633,-0.004767965679911576
3356,3.0,299.9194,785.76901,0.0,0.0,0.0,0.03403367816410858,0.0,0.0,-0.1001269197770076,-0.06677494464517393,-0.07195229193913832,0.3231148886914567,0.06616718811594303,0.012206637126951289
3357,3.0,300.94957,767.8813200000001,0.0,0.0,0.0,0.03404381930778084,0.0,0.0,-0.08139066798463351,-0.06384133229314894,-0.08818474497915672,0.33904935095656563,0.06597246779122563,-0.0005941914003371253
3358,3.0,300.78597,822.9764,0.0,0.0,0.0,0.034053960451453105,0.0,0.0,-0.11190651251681288,-0.04584129383793346,-0.0924164664847951,0.35571757854659164,0.11091762094921691,0.0025906539429776374
3359,3.0,300.99645,946.16753,0.0,0.0,0.0,0.034064101595125365,0.0,0.0,-0.07542052949442672,-0.07906840919969443,-0.13312236867565486,0.3328663063288467,0.052181813743194055,-0.02802121670647877
3360,3.0,300.68485,821.89995,0.0,0.0,0.0,0.034074242738797625,0.0,0.0,-0.09387207016770201,-0.045805296101630755,-0.1101596997419159,0.3116701882819527,0.06425217785094624,0.02290182529173418
3361,3.0,300.00494,581.85244,0.0,0.0,0.0,0.034084383882469885,0.0,0.0,-0.04754500498007666,-0.07051699885448594,-0.05880660805676034,0.31774351818884367,0.08206905513858512,-0.008772370706440581
3362,3.0,300.02566,629.02096,0.0,0.0,0.0,0.034094525026142145,0.0,0.0,-0.0924344567403206,-0.04627926612740795,-0.05249294231890004,0.3318238138309607,0.10513025048554789,0.02057903860349298
3363,3.0,300.01915,1011.8752,0.0,0.0,0.0,0.03410466616981441,0.0,0.0,-0.1022737059361289,-0.10453102450890892,-0.10078007396371891,0.3326105012086007,0.07230041123624502,0.0008552668903157701
3364,3.0,298.75813,984.67749,0.0,0.0,0.0,0.03411480731348667,0.0,0.0,-0.09025910604763022,-0.1013273810052339,-0.1077308885897109,0.3112948297824077,0.03862834026532036,0.021880241209661682
3365,3.0,298.89606000000003,576.44845,0.0,0.0,0.0,0.03412494845715893,0.0,0.0,0.007007717130407832,-0.0921569579354336,-0.09007669569837772,0.3372208600911077,0.05106203356743036,-0.020027320884292682
3366,3.0,299.85885,600.79261,0.0,0.0,0.0,0.03413508960083119,0.0,0.0,-0.05662107825356535,-0.06375931577705454,-0.06224555863115835,0.34094202108335764,0.0967224896202665,0.025775111772555474
3367,3.0,300.39637999999997,824.19123,0.0,0.0,0.0,0.03414523074450345,0.0,0.0,-0.0961414747876748,-0.07810691895455273,-0.07628516113600922,0.33131820203106066,0.06531053480564794,-0.03354961868308957
3368,3.0,300.91292000000004,697.59334,0.0,0.0,0.0,0.03415537188817572,0.0,0.0,-0.07952813495556584,-0.07708261834896213,-0.05544020314977204,0.3226580851488737,0.06933292492012694,-0.022107160596056878
3369,3.0,301.66016,504.87194000000005,0.0,0.0,0.0,0.03416551303184798,0.0,0.0,-0.04105470644503406,-0.05052921296259505,-0.06188454471327903,0.3180213513662637,0.09218409783936211,-0.05443914143522495
3370,3.0,301.4968,687.46964,0.0,0.0,0.0,0.03417565417552024,0.0,0.0,-0.03138118038258137,-0.08073049704097972,-0.09686192701952791,0.3530250791883627,0.11731179650027289,-0.017404417622432285
3371,3.0,300.97219,686.4445400000001,0.0,0.0,0.0,0.0341857953191925,0.0,0.0,-0.02347867262666458,-0.09468568770649982,-0.09049763829342151,0.3131198553325237,0.04620009177784405,-0.039757253877485466
3372,3.0,300.73895,782.69352,0.0,0.0,0.0,0.03419593646286476,0.0,0.0,-0.07085786226762653,-0.08133013034415892,-0.08573129158451973,0.31088459521442074,0.04249318518800086,0.026406469936365678
3373,3.0,299.40891,823.90235,0.0,0.0,0.0,0.03420607760653702,0.0,0.0,-0.07983143921399961,-0.1032402756040219,-0.06737402978004903,0.3021840091232397,0.04956383589006975,0.001063395036848919
3374,3.0,298.7356,721.97702,0.0,0.0,0.0,0.03421621875020928,0.0,0.0,-0.09060512791702992,-0.06568929478577863,-0.06316856361100184,0.3464260244670867,0.12854601446650388,0.02965636425410527
3375,3.0,299.17193,804.9260400000001,0.0,0.0,0.0,0.03422635989388154,0.0,0.0,-0.08216729682853083,-0.07474225785098652,-0.08776786349051373,0.3260409928602407,0.09117956270347222,0.006468043205871164
3376,3.0,300.24119,872.92034,0.0,0.0,0.0,0.0342365010375538,0.0,0.0,-0.08852808781529202,-0.06382981163951193,-0.1129880860710559,0.33815890676868565,0.08685456139362782,0.02169097926323298
3377,3.0,300.52057,627.15323,0.0,0.0,0.0,0.03424664218122606,0.0,0.0,-0.043168445452143864,-0.055259431225931244,-0.0922110442125215,0.3228199518523487,0.06408984707892544,-0.019225722518181082
3378,3.0,300.46803,560.61467,0.0,0.0,0.0,0.03425678332489833,0.0,0.0,-0.06432725563035584,-0.049676434320682354,-0.05640917016740165,0.3358775843010367,0.08029452490720262,0.002784376216346537
3379,3.0,299.52386,708.10746,0.0,0.0,0.0,0.03426692446857059,0.0,0.0,-0.08040484048533993,-0.04492565113331655,-0.08991649477806711,0.35215110031460767,0.05375258849871745,-0.03936608563663017
3380,3.0,299.26369,708.9954299999999,0.0,0.0,0.0,0.03427706561224285,0.0,0.0,-0.09156819883232761,-0.05127183308013595,-0.07267687620489922,0.3507325400421067,0.06292794305675443,-0.009202568733197821
3381,3.0,298.9307,614.10499,0.0,0.0,0.0,0.03428720675591511,0.0,0.0,-0.02031666052984828,-0.0988137790581607,-0.06754214317039053,0.34139921979347965,0.10289756402269891,-0.03838669024897136
3382,3.0,298.87715,714.46987,0.0,0.0,0.0,0.03429734789958737,0.0,0.0,-0.03084997793815577,-0.09201843246126222,-0.0943125917944281,0.3307423314692267,0.13712213291540087,-0.007116080884877503
3383,3.0,299.9746,740.70978,0.0,0.0,0.0,0.034307489043259635,0.0,0.0,-0.03968072613718276,-0.09686639342596871,-0.08861015803364172,0.2910131496857617,0.08355249989448972,-0.01921574504444638
3384,3.0,299.75886,511.05670999999995,0.0,0.0,0.0,0.034317630186931895,0.0,0.0,-0.045634482399772754,-0.07732321053220673,-0.032390786835221765,0.2941876825140637,0.04370063176241656,-0.0007074875144385813
3385,3.0,300.0006,502.81608,0.0,0.0,0.0,0.034327771330604155,0.0,0.0,-0.034579955219525865,-0.06230804677807544,-0.05595553100488095,0.3062239487294507,0.06531978983206134,-0.013378942161398788
3386,3.0,300.86095,858.42825,0.0,0.0,0.0,0.034337912474276415,0.0,0.0,-0.07723062075131883,-0.1090009165300529,-0.07470921272547523,0.3487903321179257,0.09159142961737031,-0.029422732085797574
3387,3.0,300.19329,785.94492,0.0,0.0,0.0,0.034348053617948675,0.0,0.0,-0.04603885936893166,-0.08357159763237453,-0.10929717059429091,0.35465340249656563,0.08731064755514001,-0.021631703119132876
3388,3.0,299.77871,655.40785,0.0,0.0,0.0,0.03435819476162094,0.0,0.0,-0.04477364335331455,-0.07024927588656374,-0.08420470263935712,0.34559330513740366,0.06044590891654674,-0.06646635628746864
3389,3.0,300.27929,870.7176400000001,0.0,0.0,0.0,0.0343683359052932,0.0,0.0,-0.07432983162303322,-0.08778152514161201,-0.1025650660023839,0.38542666929615066,0.07231952417288133,-0.018314834996283485
3390,3.0,299.54926,698.70442,0.0,0.0,0.0,0.03437847704896546,0.0,0.0,-0.09324108184017832,-0.05401321162318895,-0.06513440255401504,0.3427086125002067,0.08171447839859113,-0.026082693972911478
3391,3.0,299.62289,745.51455,0.0,0.0,0.0,0.03438861819263772,0.0,0.0,-0.07947498188182002,-0.06696818157174493,-0.08017464526137143,0.3156752011572167,0.05800887929278064,0.014423378072976589
3392,3.0,300.03151,910.8947099999999,0.0,0.0,0.0,0.03439875933630998,0.0,0.0,-0.12310573282458986,-0.05916556102393625,-0.09461794788431441,0.2919484200580657,0.05852934331264644,0.013544244795962886
3393,3.0,298.26666,690.4583,0.0,0.0,0.0,0.03440890047998225,0.0,0.0,-0.02830745479347827,-0.07743644123088173,-0.10413818744513889,0.3272972709967257,0.1252379454075229,0.05203699699915174
3394,3.0,297.87268,680.73063,0.0,0.0,0.0,0.03441904162365451,0.0,0.0,-0.05197698726197925,-0.07308506198118403,-0.08186306443300542,0.32777221171609866,0.13209287617655185,0.015242160147534087
3395,3.0,300.13195,1043.7239,0.0,0.0,0.0,0.03442918276732677,0.0,0.0,-0.1068119822065219,-0.0916908020944276,-0.11876321647351688,0.3017498213228887,0.054995766324659544,0.021456069386549183
3396,3.0,300.21776,822.84698,0.0,0.0,0.0,0.03443932391099903,0.0,0.0,-0.1101251377810049,-0.06688343333338094,-0.07311636735627364,0.3197428936836667,0.048162711625289546,0.011769970916855688
3397,3.0,300.44705,503.9568,0.0,0.0,0.0,0.03444946505467129,0.0,0.0,-0.04132777532048386,-0.05258290575552874,-0.05927960232269124,0.35367884841788466,0.06984428792759453,-0.02221932738212688
3398,3.0,300.5715,687.90806,0.0,0.0,0.0,0.034459606198343554,0.0,0.0,-0.08024970480227922,-0.06798881319872344,-0.06086835618798903,0.3972913213421006,0.1076203734013039,-0.024868157687546077
3399,3.0,300.21567999999996,808.5205599999999,0.0,0.0,0.0,0.034469747342015813,0.0,0.0,-0.02468253128247618,-0.1009184383311244,-0.12016909085476588,0.3390050313971917,0.062442133203558736,-0.06147287740965064
3400,3.0,300.04264,511.14493,0.0,0.0,0.0,0.03447988848568807,0.0,0.0,-0.02958495545330777,-0.07506051058814563,-0.050729829389644356,0.3350421393285847,0.05890181202290624,-0.04510248962026916
3401,3.0,300.15389,407.3247,0.0,0.0,0.0,0.03449002962936033,0.0,0.0,-0.019276093207152283,-0.06594812952382365,-0.038592316184515064,0.3112776450607117,0.10173464675042791,-0.03181643006903717
3402,3.0,298.96656,549.85454,0.0,0.0,0.0,0.03450017077303259,0.0,0.0,-0.05427268268229675,-0.0928184177332146,-0.02005094987662468,0.3338293498863917,0.09543915466636121,0.004356938750346376
3403,3.0,299.82255,585.78715,0.0,0.0,0.0,0.03451031191670486,0.0,0.0,-0.05715155217116904,-0.059607425207044845,-0.06130568810340035,0.3119799793675267,0.05953569115296524,0.018771265662829682
3404,3.0,299.45664,782.35524,0.0,0.0,0.0,0.03452045306037712,0.0,0.0,-0.06203464960959324,-0.09332501542546191,-0.08245679150135171,0.3122617338228337,0.04912464972697545,0.0016005917675411083
3405,3.0,298.99937,864.9898300000001,0.0,0.0,0.0,0.03453059420404938,0.0,0.0,-0.051451065877074854,-0.08900254926736773,-0.12248169235300187,0.3452961594130777,0.08960107914118802,0.01984125472867938
3406,3.0,300.03412000000003,835.6555599999999,0.0,0.0,0.0,0.03454073534772164,0.0,0.0,-0.06512067909466064,-0.07283403028215914,-0.1160637155570969,0.3325895269315307,0.09439026957359431,-0.00933708690454873
3407,3.0,300.68757999999997,817.89046,0.0,0.0,0.0,0.0345508764913939,0.0,0.0,-0.08020936934229843,-0.08083275626757193,-0.08757615251859333,0.30645843506759274,0.0902825151646905,-0.0012655890943039187
3408,3.0,300.75083,978.73457,0.0,0.0,0.0,0.034561017635066166,0.0,0.0,-0.1190547386597879,-0.09135056385659872,-0.08710556776140023,0.3126174656679417,0.06631594842937454,-0.02409697810268658
3409,3.0,300.71914,897.20338,0.0,0.0,0.0,0.034571158778738426,0.0,0.0,-0.11334278440106188,-0.06594034674980553,-0.0934442911742335,0.33785472908866565,0.1141914320223169,0.012682878859452688
3410,3.0,300.22558,594.3288200000001,0.0,0.0,0.0,0.034581299922410685,0.0,0.0,-0.04105443489400726,-0.06598683669089374,-0.07361985031771352,0.38323223302457665,0.08481445628453513,-0.01996476991586938
3411,3.0,300.33394,617.06152,0.0,0.0,0.0,0.034591441066082945,0.0,0.0,-0.035299099345499865,-0.05613899513423745,-0.096133198560858,0.3555340485559787,0.03640627266351937,-0.0078116405001988935
3412,3.0,300.28108,781.18872,0.0,0.0,0.0,0.034601582209755205,0.0,0.0,-0.09283064563542141,-0.06622462723761184,-0.07840659172462812,0.34520327477641066,0.050719714113896044,0.005731843648913925
3413,3.0,299.4951,822.12711,0.0,0.0,0.0,0.03461172335342747,0.0,0.0,-0.07760011151953472,-0.09259512983517781,-0.07971087055810043,0.32661694448208267,0.06832675541182573,-0.000982579870603083
3414,3.0,299.50492,925.4486199999999,0.0,0.0,0.0,0.03462186449709973,0.0,0.0,-0.10765638430985788,-0.10563357234022192,-0.06802331740437872,0.33165993075978667,0.1009479867305406,0.025181631937233575
3415,3.0,300.10657000000003,819.89648,0.0,0.0,0.0,0.03463200564077199,0.0,0.0,-0.060846804358362046,-0.08909667006915672,-0.0992845836906255,0.2975594242093287,0.08822421816330242,0.007222613291116433
3416,3.0,299.53533999999996,744.58865,0.0,0.0,0.0,0.03464214678444425,0.0,0.0,-0.04190900800184706,-0.11545644437466389,-0.06897090889789874,0.3226714296526907,0.09447007821772083,-0.025000849880891775
3417,3.0,298.52545,979.7852300000001,0.0,0.0,0.0,0.03465228792811651,0.0,0.0,-0.04106904393394906,-0.1150071084853179,-0.14175409429003985,0.3205165000025157,0.11513753403818988,-0.031194655224672768
3418,3.0,298.8359,758.6868,0.0,0.0,0.0,0.03466242907178878,0.0,0.0,-0.061866855393033236,-0.08324242915188812,-0.08551255723243233,0.3351091252926957,0.08932589561277951,-0.03251962259868687
3419,3.0,300.09733,309.20114,0.0,0.0,0.0,0.03467257021546104,0.0,0.0,-0.010068182923402292,-0.04104934027250446,-0.04287190362487746,0.3262198315028907,0.04158070179719576,-0.027624150336791373
3420,3.0,300.28827,366.04641000000004,0.0,0.0,0.0,0.0346827113591333,0.0,0.0,-0.06598808197526664,-0.040530396127788665,-0.004750490459411906,0.3230999331199807,0.041675491344050755,-0.04295627392095416
3421,3.0,299.65586,603.90647,0.0,0.0,0.0,0.03469285250280556,0.0,0.0,-0.04783612490605795,-0.07610732865070853,-0.059629031752177236,0.38046111559108864,0.1005014372789696,0.01061494382311339
3422,3.0,301.14072000000004,662.66444,0.0,0.0,0.0,0.03470299364647782,0.0,0.0,-0.039540016095795764,-0.08520163029349623,-0.07669179562639093,0.3645531599485956,0.09860367759692532,-0.025717484186368076
3423,3.0,300.93667999999997,802.11473,0.0,0.0,0.0,0.034713134790150084,0.0,0.0,-0.043826774307115866,-0.07345568151001133,-0.12654038721856387,0.35167830768544667,0.07491213227000183,0.02024992990476248
3424,3.0,300.90954,982.492,0.0,0.0,0.0,0.034723275933822344,0.0,0.0,-0.11498700560333389,-0.08534871874426272,-0.09831731082716309,0.31285550851393473,0.04120787034340016,-0.025735491667145272
3425,3.0,301.13052999999996,943.3758,0.0,0.0,0.0,0.034733417077494604,0.0,0.0,-0.0955969724224366,-0.07980110959875633,-0.1113646060983309,0.3174726764371137,0.0998276360949706,0.03426082906078057
3426,3.0,300.19883,884.4412800000001,0.0,0.0,0.0,0.03474355822116686,0.0,0.0,-0.11584731573323988,-0.08363022428316051,-0.06937052764458802,0.3152975729774477,0.0970723344822935,-0.008530586231803312
3427,3.0,299.45226,833.10412,0.0,0.0,0.0,0.03475369936483912,0.0,0.0,-0.06625811414016673,-0.06026268188771365,-0.12672205282899288,0.3097857862759767,0.07901635550230712,0.01748164450530398
3428,3.0,300.58121,531.96305,0.0,0.0,0.0,0.03476384050851139,0.0,0.0,-0.02976594218616977,-0.036907136373450763,-0.09503040653627091,0.3343285680781607,0.06576871535511684,-0.007746662392486054
3429,3.0,299.87823,282.88526,0.0,0.0,0.0,0.03477398165218365,0.0,0.0,0.025621757383170577,-0.05431097846982624,-0.057300835321652144,0.35942714795769765,0.1020801751670289,-0.033908354814744066
3430,3.0,298.71438,451.44760999999994,0.0,0.0,0.0,0.03478412279585591,0.0,0.0,-0.07097984947366573,-0.025905918307465078,-0.04034303199879726,0.3589813787087036,0.08799925232310002,-0.027980180077428772
3431,3.0,299.63482,787.29349,0.0,0.0,0.0,0.03479426393952817,0.0,0.0,-0.08162271948278522,-0.08790152029795462,-0.06979332144756453,0.3327026563051957,0.04797549340431255,-0.026567991121556576
3432,3.0,300.064,633.2062099999999,0.0,0.0,0.0,0.03480440508320043,0.0,0.0,-0.1130608880907409,-0.07165693966748933,-0.007761048314755833,0.3243325619991317,0.058586762169313245,-0.03421651760740737
3433,3.0,300.8533,679.9966400000001,0.0,0.0,0.0,0.034814546226872696,0.0,0.0,-0.017507411455346983,-0.1029491080552859,-0.08624548155976632,0.37162211953624763,0.09857691360878391,-0.025377780944591977
3434,3.0,300.8015,892.43434,0.0,0.0,0.0,0.034824687370544956,0.0,0.0,-0.049696548348417455,-0.10471441264450791,-0.11686678718885388,0.38021650688444764,0.08943502264854951,0.014331317208640885
3435,3.0,300.35755,907.23323,0.0,0.0,0.0,0.034834828514217216,0.0,0.0,-0.02404112370417418,-0.1035614353557179,-0.14817369228610486,0.3253520638522487,0.055838270610558245,0.0025490376335454276
3436,3.0,299.49264,867.7213300000001,0.0,0.0,0.0,0.034844969657889475,0.0,0.0,-0.06744915720871353,-0.1035500464245939,-0.09276640963208181,0.31867541443831465,0.050881388299852046,-0.0014125628451590988
3437,3.0,299.82086,800.93709,0.0,0.0,0.0,0.034855110801561735,0.0,0.0,-0.07725158996213834,-0.08692423348375392,-0.07928905352822033,0.3012887519973847,0.09310477943672632,0.0006707998662752924
3438,3.0,300.69671,500.88016,0.0,0.0,0.0,0.034865251945234,0.0,0.0,-0.07507174449200432,-0.05653769891608645,-0.020645619267563982,0.3291885935008847,0.1106904097467929,-0.016509132125574484
3439,3.0,300.24557000000004,462.20928,0.0,0.0,0.0,0.03487539308890626,0.0,0.0,-0.03280118554972497,-0.05623083105705095,-0.05146806213425225,0.3175540708176467,0.08894127094107002,-0.014743355361805884
3440,3.0,298.79296,861.67185,0.0,0.0,0.0,0.03488553423257852,0.0,0.0,-0.07506112157795593,-0.07947635483570552,-0.10738925105349391,0.3325180826669797,0.09142906135509582,-0.003692237464170466
3441,3.0,298.41277,641.99081,0.0,0.0,0.0,0.03489567537625078,0.0,0.0,-0.03356453169806137,-0.07018194744391892,-0.0914026976007439,0.34092485662666366,0.099583973763923,-0.008147153142211412
3442,3.0,299.65872,524.82823,0.0,0.0,0.0,0.03490581651992304,0.0,0.0,-0.03499921075315317,-0.06942674073363585,-0.055108726485557855,0.34313570754985767,0.07466006502937474,-0.017012283754231684
3443,3.0,300.23542000000003,761.96202,0.0,0.0,0.0,0.03491595766359531,0.0,0.0,-0.10668323864881589,-0.04814480141652196,-0.07678938579652234,0.32920723730272466,0.04470428841046976,-0.009729522518629111
3444,3.0,300.00844,862.7144599999999,0.0,0.0,0.0,0.03492609880726757,0.0,0.0,-0.1284238165044439,-0.07205173737020285,-0.06176810505153734,0.3697518219716637,0.04365595148600696,0.016127356713146183
3445,3.0,300.12453,688.52702,0.0,0.0,0.0,0.03493623995093983,0.0,0.0,-0.02453713394612658,-0.09233879782487982,-0.09241908877605391,0.36992211891597065,0.09343466833803382,-0.026184665436475275
3446,3.0,300.0944,724.46192,0.0,0.0,0.0,0.03494638109461209,0.0,0.0,-0.05280845218803845,-0.05916173499155865,-0.1082481426332599,0.36493972499424665,0.08201059263431533,0.04681397847017996
3447,3.0,299.3033,753.8471,0.0,0.0,0.0,0.03495652223828435,0.0,0.0,-0.017238995424356383,-0.08927145773790691,-0.12264024572864989,0.3187582273689877,0.07372382092372463,-0.012269066505362589
3448,3.0,300.04975,683.71734,0.0,0.0,0.0,0.034966663381956614,0.0,0.0,-0.04560542137365466,-0.088816215613728,-0.07341136093738723,0.3051628833572317,0.09307706603324122,0.02149307530670138
3449,3.0,299.90052000000003,648.86088,0.0,0.0,0.0,0.034976804525628874,0.0,0.0,-0.06717450664985763,-0.0995224644166025,-0.030540536423866272,0.3122997813640887,0.12262275703192388,-0.04010814036061526
3450,3.0,300.32821,780.12454,0.0,0.0,0.0,0.034986945669301134,0.0,0.0,-0.08872278888825752,-0.0969039890576791,-0.051511602504299356,0.3354190481007827,0.0985150415179276,-0.01873226161348028
3451,3.0,300.80782999999997,634.64591,0.0,0.0,0.0,0.034997086812973394,0.0,0.0,-0.03507432298306617,-0.08048538677553922,-0.07735679875977163,0.33175691905935867,0.050135748697013156,-0.06258348057925865
3452,3.0,300.35344,539.8279,0.0,0.0,0.0,0.03500722795664565,0.0,0.0,-0.04760291526304195,-0.042991372904418165,-0.07349991392987672,0.37541576844065166,0.04651196711887375,-0.02112624837299838
3453,3.0,300.49506,848.0807599999999,0.0,0.0,0.0,0.03501736910031792,0.0,0.0,-0.04498670958434255,-0.09664684543405101,-0.11616181843177888,0.36297547888039067,0.08214298997188192,-0.015826574434211284
3454,3.0,300.10115,774.13919,0.0,0.0,0.0,0.03502751024399018,0.0,0.0,-0.07530226395600484,-0.07517637979008102,-0.08484033975833963,0.3395176751527857,0.07808046603419203,-0.0008555797414166463
3455,3.0,299.3196,724.14144,0.0,0.0,0.0,0.03503765138766244,0.0,0.0,-0.06384004850527224,-0.08883387554972091,-0.06744699087999974,0.3224276112811277,0.07159556102943172,0.025178522272676678
3456,3.0,298.36618,1081.5127,0.0,0.0,0.0,0.0350477925313347,0.0,0.0,-0.1091659243088379,-0.1183923568044159,-0.101194575327877,0.3206364789468567,0.0981475519186592,-0.005418524831791765
3457,3.0,298.26341,1007.6776,0.0,0.0,0.0,0.03505793367500696,0.0,0.0,-0.07906212603582433,-0.1014946179342389,-0.12575207864076388,0.3553154905094087,0.11374128553289088,0.025271334968586575
3458,3.0,299.31577000000004,746.78206,0.0,0.0,0.0,0.035068074818679226,0.0,0.0,-0.045884118853409955,-0.11309203539881489,-0.06802694889273714,0.3216166059010877,0.08344710668533821,-0.007125619013368842
3459,3.0,300.30118,680.83572,0.0,0.0,0.0,0.035078215962351486,0.0,0.0,-0.015855293995045684,-0.05328691293825885,-0.13781485147876688,0.3086279048567027,0.04289995748039616,0.029175155569613673
3460,3.0,299.93062000000003,626.90955,0.0,0.0,0.0,0.035088357106023746,0.0,0.0,-0.07715926666602672,-0.03931093038068676,-0.07409465222182283,0.31355843050580773,0.053674055536466855,0.013665704098699988
3461,3.0,300.60554,530.14125,0.0,0.0,0.0,0.035098498249696006,0.0,0.0,-0.059829132434925644,-0.051054307535417856,-0.05026626341589396,0.35317977208112966,0.11348123489472589,-0.006911655752027312
3462,3.0,300.26198999999997,744.81416,0.0,0.0,0.0,0.035108639393368266,0.0,0.0,-0.12483511769776687,-0.03900999307448656,-0.06255979687142123,0.35765074827988064,0.09243793826766422,-0.019015133683647583
3463,3.0,299.53357,980.6896300000001,0.0,0.0,0.0,0.03511878053704053,0.0,0.0,-0.09503887629385681,-0.0999112667184743,-0.1031550207406079,0.33492054931658466,0.06368801438076764,-0.03231538684228037
3464,3.0,299.25137,711.6909,0.0,0.0,0.0,0.03512892168071279,0.0,0.0,-0.08833368362460582,-0.06553212956276763,-0.062470447464353145,0.3398436579749577,0.07400504240947903,-0.01690867893150668
3465,3.0,300.5088,872.1273199999999,0.0,0.0,0.0,0.03513906282438505,0.0,0.0,-0.03312544078047647,-0.10762225804648988,-0.12435722842060289,0.36671068351902664,0.08435881493981683,-0.012929631603305288
3466,3.0,299.84918999999996,919.79709,0.0,0.0,0.0,0.03514920396805731,0.0,0.0,-0.09281005538013933,-0.10263028891132091,-0.08415499968220183,0.3299747539884727,0.07798660969067912,0.019546152729805085
3467,3.0,299.96869,457.28648,0.0,0.0,0.0,0.03515934511172957,0.0,0.0,-0.004524096544518566,-0.06621976161063164,-0.06825981504396923,0.3181339437173757,0.05619378865989515,-0.0006371262419919643
3468,3.0,299.23873,366.20529,0.0,0.0,0.0,0.03516948625540184,0.0,0.0,-0.033652428104486064,-0.05243810218373775,-0.025226734738934876,0.3087132509126257,0.1050489979600289,-0.01895337203705218
3469,3.0,299.01592999999997,781.97227,0.0,0.0,0.0,0.0351796273990741,0.0,0.0,-0.05939552522688195,-0.08912879820332752,-0.08917572080220842,0.34834030721851167,0.12085801986275788,-0.02211243760257768
3470,3.0,298.98072,604.4970900000001,0.0,0.0,0.0,0.03518976854274636,0.0,0.0,-0.039746481002422264,-0.06415151955951204,-0.07985402050572822,0.3658145448655847,0.08682978033593211,-0.029265601313289973
3471,3.0,299.38457999999997,347.50257999999997,0.0,0.0,0.0,0.03519990968641862,0.0,0.0,0.005302070072623575,-0.047018207133835754,-0.06391597032201514,0.34068513178550464,0.05140635418991215,-0.028119690430697373
3472,3.0,299.91061,723.0862599999999,0.0,0.0,0.0,0.03521005083009088,0.0,0.0,-0.08876002076318201,-0.07416434559020103,-0.05687580223595465,0.3339051207288697,0.07100426778782563,-0.029939235311022473
3473,3.0,300.31845,875.42505,0.0,0.0,0.0,0.035220191973763144,0.0,0.0,-0.09320395027701371,-0.08079761776735402,-0.0921057888053836,0.3460169247392117,0.10991447295271391,-0.007511179117570664
3474,3.0,301.11244,780.90772,0.0,0.0,0.0,0.035230333117435404,0.0,0.0,-0.08778575140777911,-0.09241846056099191,-0.057172234632210245,0.32482669367539874,0.1004068250508821,-0.03748117396585386
3475,3.0,300.63495,844.1225900000001,0.0,0.0,0.0,0.035240474261107664,0.0,0.0,-0.07502673186956192,-0.08344484105811462,-0.0981206166912509,0.3224019253910927,0.05280636793258275,0.0061287899484644736
3476,3.0,300.10166,766.74194,0.0,0.0,0.0,0.035250615404779924,0.0,0.0,-0.06089218175084045,-0.08320043601474372,-0.08897778644817382,0.3383974562397287,0.07389674421229084,-0.014159570303440786
3477,3.0,299.82998,678.57622,0.0,0.0,0.0,0.035260756548452184,0.0,0.0,-0.04557426393307966,-0.06263281167362725,-0.0980631522383296,0.3622288148817006,0.08962983923202641,0.016055056252260683
3478,3.0,300.34087999999997,929.94022,0.0,0.0,0.0,0.03527089769212445,0.0,0.0,-0.1018403490008599,-0.07463996417389093,-0.10619829715095591,0.3773565476821916,0.08260259008474093,0.02915306469093347
3479,3.0,299.5256,937.5005199999999,0.0,0.0,0.0,0.03528103883579671,0.0,0.0,-0.08359577377976052,-0.08654172143850292,-0.11483925347375189,0.3412528456840337,0.06839195704251064,0.005349932663622245
3480,3.0,300.69584,675.6232200000001,0.0,0.0,0.0,0.03529117997946897,0.0,0.0,-0.06545997703639674,-0.07483552549619134,-0.06507708704885844,0.34558342594892866,0.1075287755922639,0.009520069334807691
3481,3.0,301.911,664.4967,0.0,0.0,0.0,0.03530132112314123,0.0,0.0,-0.05017721595735566,-0.06322331660665553,-0.08858986972688941,0.3330225798917697,0.1207098016381299,-0.04067043539760946
3482,3.0,301.36985,874.0151400000001,0.0,0.0,0.0,0.03531146226681349,0.0,0.0,-0.09178576896005011,-0.07187532546154234,-0.1020176880333619,0.3309930602064717,0.0962416609045624,-0.005250863654969895
3483,3.0,301.56481,729.90209,0.0,0.0,0.0,0.035321603410485757,0.0,0.0,-0.06575807521581674,-0.08243564699826492,-0.07367828850398093,0.3097468673396357,0.03116021080077337,-0.05244519189468745
3484,3.0,300.60423,564.41036,0.0,0.0,0.0,0.035331744554158016,0.0,0.0,-0.08526595444959452,-0.05550297399346705,-0.030797726656998974,0.3459611047912027,0.06777725671034443,-0.005945622600062265
3485,3.0,300.11994,704.54995,0.0,0.0,0.0,0.035341885697830276,0.0,0.0,-0.05683461361938965,-0.088969429161349,-0.06836154940700964,0.38076830262390565,0.0999630863550885,-0.04158102502397766
3486,3.0,300.33342999999996,702.1755400000001,0.0,0.0,0.0,0.035352026841502536,0.0,0.0,-0.048581191009340254,-0.08254870443117283,-0.08231393640950302,0.3721796097412676,0.1006383608047329,0.005594666202675564
3487,3.0,299.67605,559.13406,0.0,0.0,0.0,0.035362167985174796,0.0,0.0,-0.007483763913589992,-0.07285108328134214,-0.08962794445433941,0.33586577993737166,0.07088298580385603,-0.03015427839299557
3488,3.0,299.99295,868.4091699999999,0.0,0.0,0.0,0.03537230912884706,0.0,0.0,-0.05222832496253435,-0.1066308941486499,-0.10511547729908989,0.3349613528981117,0.1022084931596929,-0.017371832512466382
3489,3.0,301.35998,797.90003,0.0,0.0,0.0,0.03538245027251932,0.0,0.0,-0.07964417235701783,-0.07946661547574432,-0.08343089671023843,0.33721128487766266,0.12321207342258488,-0.014503927402926185
3490,3.0,300.82347000000004,530.0793,0.0,0.0,0.0,0.03539259141619158,0.0,0.0,-0.07356529693232954,-0.05800893299503595,-0.02955664017926327,0.3143902987054067,0.10008049367067572,-0.005058825403267195
3491,3.0,300.4674,750.80077,0.0,0.0,0.0,0.03540273255986384,0.0,0.0,-0.07186231938325872,-0.07289319598199834,-0.08346917223276593,0.2968443533487567,0.05022360254693366,0.0031254426848071767
3492,3.0,299.5816,970.7585,0.0,0.0,0.0,0.0354128737035361,0.0,0.0,-0.086283363941255,-0.08787731375306561,-0.1209256644394339,0.3216293120573417,0.07150659159115114,0.015126115653331386
3493,3.0,298.14749,739.49576,0.0,0.0,0.0,0.03542301484720837,0.0,0.0,-0.05046396776215586,-0.07672704963712022,-0.0975972284315965,0.3733640180481596,0.099935855258651,-0.006628181507325584
3494,3.0,300.29037999999997,831.5810700000001,0.0,0.0,0.0,0.03543315599088063,0.0,0.0,-0.07244493413775834,-0.06381953323049754,-0.11651541231917589,0.3500107715983737,0.07101450161383563,-0.01998461036607748
3495,3.0,300.02166,849.10499,0.0,0.0,0.0,0.03544329713455289,0.0,0.0,-0.1011400290352437,-0.07310742542414113,-0.08385926034901463,0.3396496611108117,0.04469729799802986,0.003283570191438147
3496,3.0,299.08162000000004,569.9379799999999,0.0,0.0,0.0,0.03545343827822515,0.0,0.0,-0.06694674119962893,-0.06231985519474085,-0.04398031817426946,0.35537814989559263,0.06792852583102353,-0.013268863683784887
3497,3.0,300.07895,743.8582299999999,0.0,0.0,0.0,0.03546357942189741,0.0,0.0,-0.04947354314715855,-0.09371759917670691,-0.08292318342963102,0.3770446693014116,0.11801576213974888,-0.011995606515374188
3498,3.0,300.88426,767.72523,0.0,0.0,0.0,0.035473720565569675,0.0,0.0,-0.07224285153781433,-0.05789919192970535,-0.1032272553402369,0.3314314124647337,0.08649894100603081,0.007594848953853233
3499,3.0,300.45624,581.4892,0.0,0.0,0.0,0.035483861709241935,0.0,0.0,0.006636871646808233,-0.07996546079147651,-0.10342961151770791,0.3280727416957587,0.04880763011518805,-0.030244539725153674
3500,3.0,300.34277000000003,674.6616799999999,0.0,0.0,0.0,0.035494002852914194,0.0,0.0,-0.03487377748352387,-0.0885395182896701,-0.08166700965790633,0.3157949470540347,0.08005537761860063,-0.004150888668310816
3501,3.0,299.47707,962.9373800000001,0.0,0.0,0.0,0.035504143996586454,0.0,0.0,-0.09701387096477361,-0.1043766963861779,-0.09131835466241991,0.37448930321171664,0.1031259100652349,-0.025323456553730576
3502,3.0,299.0393,806.5738200000001,0.0,0.0,0.0,0.035514285140258714,0.0,0.0,-0.12434186754908688,-0.06965192644910993,-0.05118450510701735,0.3412272307215057,0.09566293095094622,0.00954494239561247
3503,3.0,300.20181,596.14513,0.0,0.0,0.0,0.03552442628393098,0.0,0.0,-0.046847715645509554,-0.07720643244493162,-0.057159085685662546,0.3390439402010317,0.07107082717364453,0.0033466710506907167
3504,3.0,299.4678,584.64558,0.0,0.0,0.0,0.03553456742760324,0.0,0.0,-0.03884625185832656,-0.055148255398459044,-0.08372315248958181,0.34296880499338567,0.1036607338655179,-0.0016852671532229184
3505,3.0,299.47782,746.03593,0.0,0.0,0.0,0.0355447085712755,0.0,0.0,-0.022593689856823577,-0.08403279766714142,-0.12014980870536289,0.3434212920905427,0.11790908716922088,-0.007114889100109884
3506,3.0,300.1644,716.32289,0.0,0.0,0.0,0.03555484971494776,0.0,0.0,-0.05889690789242224,-0.07026924603278463,-0.0885781180522296,0.3254977084216227,0.06912555822091143,-0.03631397469866027
3507,3.0,300.17111,711.64703,0.0,0.0,0.0,0.03556499085862002,0.0,0.0,-0.08691578196466983,-0.06358859022795524,-0.06581855510103564,0.3299718054306817,0.05451804220726185,2.3281035154909277e-05
3508,3.0,300.14515,854.11603,0.0,0.0,0.0,0.03557513200229229,0.0,0.0,-0.1049257259528629,-0.07924818307218671,-0.07545603985743134,0.35601165412311464,0.09688583364238731,-0.011199315553286389
3509,3.0,300.67245,772.7973599999999,0.0,0.0,0.0,0.03558527314596455,0.0,0.0,-0.07175411440507973,-0.08458711234634801,-0.07856987292524271,0.3937563146582226,0.11444050916189889,0.0014307268730767487
3510,3.0,299.80786,744.98408,0.0,0.0,0.0,0.035595414289636806,0.0,0.0,-0.05320527639095195,-0.08453917649736713,-0.08871210619245322,0.35073706927005366,0.06838480856305514,-0.004548745069101186
3511,3.0,300.28983,880.1962300000001,0.0,0.0,0.0,0.035605555433309066,0.0,0.0,-0.05833105432107685,-0.07948413558322343,-0.12974248044958586,0.3257086062974367,0.048641416568784054,0.01107472936074069
3512,3.0,299.48413999999997,682.1432900000001,0.0,0.0,0.0,0.035615696576981326,0.0,0.0,-0.05008893958214346,-0.07316112970594134,-0.08410445876721383,0.3232294062177587,0.09134026619583241,0.0035061577310058272
3513,3.0,299.01346,620.52363,0.0,0.0,0.0,0.03562583772065359,0.0,0.0,-0.07567865901040213,-0.09146355441500001,-0.02148147561955658,0.3339231464481487,0.14009556599635586,-0.02930559429473697
3514,3.0,299.63741,929.9886300000001,0.0,0.0,0.0,0.03563597886432585,0.0,0.0,-0.1322271926098079,-0.07705887688586902,-0.07340724815523134,0.31608801951295873,0.08577643694272523,-0.00013285629933189588
3515,3.0,299.89755,889.0306699999999,0.0,0.0,0.0,0.03564612000799811,0.0,0.0,-0.07934908555689503,-0.10094369257661681,-0.08995034543740792,0.3089813062265807,0.06922481518745734,-0.04101049125042036
3516,3.0,298.48784,686.00985,0.0,0.0,0.0,0.03565626115167037,0.0,0.0,-0.031162382195737668,-0.09337336670698382,-0.08399411684457392,0.35985990707540766,0.0885109983391054,-0.017867136519099085
3517,3.0,299.93716,749.03839,0.0,0.0,0.0,0.03566640229534263,0.0,0.0,-0.005208512739215185,-0.092183549671058,-0.13029690050680287,0.3924110934279596,0.09300190010107291,-0.03861399771015486
3518,3.0,299.84007,596.5479799999999,0.0,0.0,0.0,0.0356765434390149,0.0,0.0,-0.03434475251356317,-0.08011984869596343,-0.06687108789416253,0.3759680708051596,0.06411340311725024,-0.004739449883672285
3519,3.0,299.38925,402.48588,0.0,0.0,0.0,0.03568668458268716,0.0,0.0,-0.04555215380264756,-0.05124953245868505,-0.025543972199493774,0.35052136858876565,0.027084247113757072,-0.019362682520947982
3520,3.0,299.868,635.5244700000001,0.0,0.0,0.0,0.03569682572635942,0.0,0.0,-0.09043971889120532,-0.05477439650906204,-0.047969452407216354,0.36485365953075266,0.1079556781243959,0.01087185743896879
3521,3.0,300.7169,732.6309200000001,0.0,0.0,0.0,0.03570696687003168,0.0,0.0,-0.07751679095056162,-0.08186978836066902,-0.06331492657469674,0.3215014601597237,0.13127285287062188,-0.009626961951457172
3522,3.0,300.42762999999997,810.15369,0.0,0.0,0.0,0.03571710801370394,0.0,0.0,-0.05656906913918244,-0.08882761974360351,-0.1008698033395745,0.30311009944963774,0.05173540918638735,0.00031423148188473263
3523,3.0,300.09649,1098.2447,0.0,0.0,0.0,0.035727249157376205,0.0,0.0,-0.100379334562419,-0.0971307686155605,-0.13632884927960986,0.28366370220542775,0.043048480693304254,-0.017847766216937382
3524,3.0,299.57007000000004,1166.4017,0.0,0.0,0.0,0.035737390301048465,0.0,0.0,-0.13207018950681287,-0.09094705321627532,-0.13153973281446085,0.35901143170666966,0.1035410386312049,0.003711702403891506
3525,3.0,298.9529,751.31469,0.0,0.0,0.0,0.035747531444720725,0.0,0.0,-0.0954723507661374,-0.06519440317193664,-0.06771415149411644,0.3919957014169636,0.13432065850891686,0.00823502371075856
3526,3.0,299.94329,658.6551,0.0,0.0,0.0,0.035757672588392984,0.0,0.0,-0.060157280572561346,-0.07824825619775162,-0.06180916802508994,0.35845998047224564,0.10558374070030391,-0.015967958286914788
3527,3.0,300.43559,688.59047,0.0,0.0,0.0,0.035767813732065244,0.0,0.0,-0.08184792445001123,-0.029808911083160472,-0.0976574742560423,0.35304671207799765,0.06744847731789644,0.027135570257822275
3528,3.0,299.62857,567.06281,0.0,0.0,0.0,0.03577795487573751,0.0,0.0,-0.02789327868260227,-0.05390205302096845,-0.09057760196481332,0.35756292989371363,0.09181923559760301,-0.007068626734994143
3529,3.0,300.57547999999997,470.11075999999997,0.0,0.0,0.0,0.03578809601940977,0.0,0.0,-0.005198310526608305,-0.06938405655992323,-0.06831956437586603,0.36564357917621165,0.10360195522721691,-0.02222065980600838
3530,3.0,301.30074,664.2849,0.0,0.0,0.0,0.03579823716308203,0.0,0.0,-0.06889097258425964,-0.06952299138713504,-0.06351205944790224,0.3245697131850367,0.03277148617604387,-0.013297569059117886
3531,3.0,301.01197,975.38455,0.0,0.0,0.0,0.03580837830675429,0.0,0.0,-0.09274810628227541,-0.12650873328543988,-0.07723570524032063,0.33154101572805067,0.038927945147639066,-0.00996377297214783
3532,3.0,300.03454,937.16941,0.0,0.0,0.0,0.03581851945042655,0.0,0.0,-0.1029447916098599,-0.1071436493617549,-0.07478765652171702,0.34528166993664766,0.10075591200183431,-0.018005152328470185
3533,3.0,300.06126,1005.1095,0.0,0.0,0.0,0.03582866059409882,0.0,0.0,-0.09691539926705521,-0.1014169320490719,-0.1071958418744059,0.3770417916711276,0.12486240452295988,0.0054764749354859945
3534,3.0,300.10893,815.7713,0.0,0.0,0.0,0.03583880173777108,0.0,0.0,-0.04143339347115756,-0.10544688100929689,-0.1010938329366845,0.33750598866924764,0.05688224144034014,-0.02658962603769177
3535,3.0,300.75075,621.99013,0.0,0.0,0.0,0.03584894288144334,0.0,0.0,-0.022815077910922875,-0.04987986251675915,-0.11637453002527189,0.3599660044933787,0.055770485192118344,-0.013346942709990685
3536,3.0,300.51257000000004,759.4897599999999,0.0,0.0,0.0,0.035859084025115597,0.0,0.0,-0.07558625668078273,-0.05792362138961635,-0.09735604349704341,0.35433058101470566,0.0963584278460864,-0.007867752568211723
3537,3.0,300.3982,691.1300200000001,0.0,0.0,0.0,0.035869225168787856,0.0,0.0,-0.08088620014409643,-0.06143512067117435,-0.06776494876137973,0.3670745517624377,0.12952400346302387,-0.006735039673471664
3538,3.0,299.83507000000003,469.15165999999994,0.0,0.0,0.0,0.03587936631246012,0.0,0.0,-0.04179760014010196,-0.04988709306947275,-0.05092569671347495,0.3300517508635717,0.08587653895985452,-0.017286029480748283
3539,3.0,299.70034,753.29132,0.0,0.0,0.0,0.03588950745613238,0.0,0.0,-0.06867531344622572,-0.09094118548494623,-0.06936525165131734,0.3163175713231137,0.07739163024520923,-0.0075381585226833225
3540,3.0,299.94729,1057.5608,0.0,0.0,0.0,0.03589964859980464,0.0,0.0,-0.07737176547699873,-0.10772670386679789,-0.13637361466902786,0.3445200098364777,0.10206819855084691,-0.005927023989176724
3541,3.0,300.8631,889.27487,0.0,0.0,0.0,0.0359097897434769,0.0,0.0,-0.07403553110498803,-0.08822233047836611,-0.10805949572964188,0.36196467071313165,0.10117351289804831,0.001205927509865779
3542,3.0,301.00232,747.10547,0.0,0.0,0.0,0.03591993088714916,0.0,0.0,-0.057369412088420155,-0.10970332176437489,-0.06002867076386854,0.3567175246727787,0.051858162409502154,-0.038776491615441756
3543,3.0,301.00998,889.3471800000001,0.0,0.0,0.0,0.03593007203082143,0.0,0.0,-0.09598969498894531,-0.07492568246358913,-0.09942395826838071,0.37882419992203764,0.05543948475545115,0.02398374335101118
3544,3.0,300.73225,693.51094,0.0,0.0,0.0,0.03594021317449369,0.0,0.0,-0.08679892889688731,-0.056297030739084354,-0.06771404712935614,0.37247282405520565,0.08915477590939132,-0.005141396977766375
3545,3.0,299.59848999999997,475.97172,0.0,0.0,0.0,0.03595035431816595,0.0,0.0,-0.03740504645934067,-0.027275373440369774,-0.08000309897969113,0.33960370008627566,0.1031524977478589,0.007915410280040173
3546,3.0,299.34937,709.66745,0.0,0.0,0.0,0.03596049546183821,0.0,0.0,-0.03696588562749886,-0.06192974073398953,-0.11682555804228488,0.3178270099970837,0.07628717243745772,-0.023861724734218874
3547,3.0,299.72427999999996,687.29721,0.0,0.0,0.0,0.03597063660551047,0.0,0.0,-0.028425592662387575,-0.09104539420473082,-0.08945020316154773,0.3277070597346687,0.05664757170393004,-0.03475643400269297
3548,3.0,298.63398,484.51196,0.0,0.0,0.0,0.035980777749182735,0.0,0.0,-0.023355568819015182,-0.07829015611588683,-0.04563381061495646,0.3763847901737867,0.09793396386382971,-0.04864169622581165
3549,3.0,299.63531,903.74506,0.0,0.0,0.0,0.035990918892854995,0.0,0.0,-0.08257365166188492,-0.12102758726699288,-0.07111468773072323,0.36176447275837365,0.12223904935155488,-0.030211901926182574
3550,3.0,299.72315,1025.4584,0.0,0.0,0.0,0.036001060036527255,0.0,0.0,-0.11211237453962988,-0.11646059548876589,-0.08314078395485652,0.3510410746975567,0.06744958378700563,-0.007758118198116652
3551,3.0,301.00977,752.2168,0.0,0.0,0.0,0.036011201180199515,0.0,0.0,-0.07098005313693584,-0.07647439977768562,-0.08120067143188232,0.3206842739540737,0.05105619116735375,-0.012215114990537988
3552,3.0,300.92404,807.05991,0.0,0.0,0.0,0.036021342323871774,0.0,0.0,-0.05223030485322975,-0.08943854875889751,-0.1036572077551699,0.3425519437697446,0.10382365434909689,0.0041731713552349455
3553,3.0,301.038,996.8915300000001,0.0,0.0,0.0,0.03603148346754404,0.0,0.0,-0.11351751938080688,-0.07348424097732993,-0.11602837339360889,0.3471835910368527,0.07641699510652022,-0.013619636682903486
3554,3.0,299.28553999999997,871.0853400000001,0.0,0.0,0.0,0.0360416246112163,0.0,0.0,-0.08176729102030333,-0.08787773425185712,-0.0951431670868995,0.3382901834516417,0.06041281515503064,-0.019886648333159382
3555,3.0,299.23111,764.83822,0.0,0.0,0.0,0.03605176575488856,0.0,0.0,-0.07968957102774833,-0.07940110176402863,-0.07340104706461933,0.34112072800349463,0.055176737858770045,-0.025196722270972877
3556,3.0,298.76949,709.86482,0.0,0.0,0.0,0.03606190689856082,0.0,0.0,-0.07714352886547353,-0.06397264038685804,-0.07466500968986273,0.4013665321842926,0.09374407742832011,-0.009622836807650052
3557,3.0,300.31234,499.63287,0.0,0.0,0.0,0.03607204804223308,0.0,0.0,-0.03497330498784647,-0.04558255231889766,-0.07132005832724174,0.3620767564391937,0.11215562005389788,0.00837514221673718
3558,3.0,300.90529,578.4669700000001,0.0,0.0,0.0,0.03608218918590535,0.0,0.0,-0.02956969590680177,-0.07321562229631934,-0.07305419635663783,0.3387827952527587,0.09501743490849071,-0.029091523932859874
3559,3.0,299.68505,920.70653,0.0,0.0,0.0,0.03609233032957761,0.0,0.0,-0.0900278347520555,-0.08996340927094723,-0.0998805510549429,0.3249158191541947,0.08219560095682421,0.01051563720731259
3560,3.0,300.24222000000003,797.6381299999999,0.0,0.0,0.0,0.03610247147324987,0.0,0.0,-0.06048835294998564,-0.100239070351076,-0.08173465018158192,0.3518242460973497,0.1102500715183349,-0.026232973148242876
3561,3.0,300.84578,771.59483,0.0,0.0,0.0,0.03611261261692213,0.0,0.0,-0.08930164752463642,-0.07966299651737563,-0.06558091755508265,0.34126737569046767,0.08677632430040642,0.008032058063352413
3562,3.0,300.11124,922.1491300000001,0.0,0.0,0.0,0.03612275376059439,0.0,0.0,-0.1079949820957749,-0.07665630451513822,-0.09565902892481111,0.3358223216405827,0.05355956030166704,-0.0009349021065551541
3563,3.0,299.33316,677.0908099999999,0.0,0.0,0.0,0.03613289490426665,0.0,0.0,-0.07850543427188313,-0.049090560953861155,-0.07822270304347972,0.32769817353129166,0.05347041658436924,0.014475078146078986
3564,3.0,299.60741,509.69917000000004,0.0,0.0,0.0,0.03614303604793891,0.0,0.0,-0.022291175933467775,-0.05770011868255835,-0.07494452688894893,0.3522100106754216,0.07447938936429344,-0.028522645809965972
3565,3.0,298.78209,744.38472,0.0,0.0,0.0,0.03615317719161117,0.0,0.0,-0.06682833076644273,-0.07721427297420543,-0.08223176283964313,0.36180958265282565,0.10822670226114389,-0.024273402170348273
3566,3.0,299.27787,817.25349,0.0,0.0,0.0,0.03616331833528343,0.0,0.0,-0.06275647378208174,-0.1018543622497429,-0.08381381304227932,0.36674551905746466,0.10508289117587388,-0.04787015085766605
3567,3.0,299.49503,491.67574,0.0,0.0,0.0,0.03617345947895569,0.0,0.0,-0.058607913765150746,-0.04668806390675316,-0.04416117217136836,0.35328709553172166,0.10915342080260389,-0.03230065621232657
3568,3.0,298.68902,464.64355,0.0,0.0,0.0,0.03618360062262796,0.0,0.0,-0.008085257543952793,-0.057207609219701444,-0.07594717028690212,0.3438107550314796,0.09497067544287591,-0.004080173234556746
3569,3.0,299.92907,799.51779,0.0,0.0,0.0,0.03619374176630021,0.0,0.0,-0.03350596989528177,-0.08565892019612723,-0.12386855816237488,0.3456747603129427,0.06849455570788633,0.003922872033382326
3570,3.0,301.34988,733.40486,0.0,0.0,0.0,0.03620388290997247,0.0,0.0,-0.03825906633262586,-0.07194203278187583,-0.11273566520614389,0.3090412399699957,0.05906354700386825,-5.012332422428695e-05
3571,3.0,300.25574,702.9370200000001,0.0,0.0,0.0,0.03621402405364474,0.0,0.0,-0.039394397870924365,-0.08405700421203041,-0.09022389864640551,0.3349886599883067,0.06604922857905134,-0.004945584065466146
3572,3.0,300.04271,861.50548,0.0,0.0,0.0,0.036224165197317,0.0,0.0,-0.08539141406372643,-0.11115063807471388,-0.06533410401622404,0.33619660609502167,0.10068199135403891,-0.017486256819759183
3573,3.0,299.92957,735.0889599999999,0.0,0.0,0.0,0.036234306340989265,0.0,0.0,-0.09413115315202152,-0.07106175047924873,-0.058255785037398346,0.37180271110157065,0.11648863211903289,-0.0011458847407400188
3574,3.0,300.0677,792.58149,0.0,0.0,0.0,0.036244447484661525,0.0,0.0,-0.0986068814937415,-0.08678243521175952,-0.055535665494693444,0.3767468143020156,0.08786320019242272,-0.037653149865576566
3575,3.0,299.68601,941.8286099999999,0.0,0.0,0.0,0.036254588628333785,0.0,0.0,-0.07243483811376193,-0.09036778624010611,-0.12348975461248989,0.3572615082539657,0.08659836718534342,0.01197707822404559
3576,3.0,299.73287999999997,686.6683400000001,0.0,0.0,0.0,0.036264729772006045,0.0,0.0,-0.06195039583727804,-0.05029030986726715,-0.0964893235470048,0.3459390159390227,0.08240432541117372,-0.018519269349709582
3577,3.0,298.98918,641.87269,0.0,0.0,0.0,0.036274870915678305,0.0,0.0,-0.03310908793711257,-0.08507202040695473,-0.07693216388136342,0.35086896403557066,0.07597765492941073,-0.012724022893013288
3578,3.0,299.57943,803.53738,0.0,0.0,0.0,0.03628501205935057,0.0,0.0,-0.06686971696677724,-0.08153870179774332,-0.09584688144035072,0.3454852318817377,0.11057451420035488,-0.014689872981777588
3579,3.0,299.97132999999997,738.3574,0.0,0.0,0.0,0.03629515320302283,0.0,0.0,-0.09105703340862951,-0.05537269130885914,-0.07801248809823312,0.35985587434000965,0.07849501198135451,0.00997973277579794
3580,3.0,301.04017000000005,517.9159099999999,0.0,0.0,0.0,0.03630529434669509,0.0,0.0,-0.00961393114987113,-0.08141579456061332,-0.06640377998779283,0.35739619958975866,0.09769220340321981,-0.010502497380015791
3581,3.0,300.64639,677.7814400000001,0.0,0.0,0.0,0.03631543549036735,0.0,0.0,-0.03199679973258827,-0.07396907507067933,-0.1000627597674255,0.32964938924886167,0.07797634242741583,-0.004400598481255256
3582,3.0,300.8326,1068.4167,0.0,0.0,0.0,0.03632557663403961,0.0,0.0,-0.07657782221539262,-0.12201952871738989,-0.12617464446246787,0.3651556181930537,0.053381757200619245,-0.02254547941706558
3583,3.0,300.36391000000003,875.84104,0.0,0.0,0.0,0.03633571777771188,0.0,0.0,-0.08859199045934872,-0.0991887971056721,-0.07845301681770993,0.3332900171231637,0.07745776913223662,-0.03671700607168636
3584,3.0,300.40832,740.11808,0.0,0.0,0.0,0.03634585892138414,0.0,0.0,-0.08709629753623532,-0.0923519812219309,-0.04552913580012586,0.3658734552263987,0.08321750522592833,-0.018341116677377284
3585,3.0,299.57197,778.15276,0.0,0.0,0.0,0.0363560000650564,0.0,0.0,-0.10035547353581409,-0.08856295375123302,-0.04762058229178555,0.34905815438435767,0.08717501187025382,-0.02047242544122108
3586,3.0,299.42022000000003,656.92109,0.0,0.0,0.0,0.03636614120872866,0.0,0.0,-0.02986921060986157,-0.07841884901108782,-0.09139954943268322,0.3302233549005077,0.08513486217815672,-0.01028040714359719
3587,3.0,299.40481,725.1891,0.0,0.0,0.0,0.03637628235240092,0.0,0.0,-0.035331209241168865,-0.08538446215479031,-0.09972370500571341,0.35979541370654267,0.07084988292308902,-0.021564847864284777
3588,3.0,300.89213,822.80552,0.0,0.0,0.0,0.036386423496073184,0.0,0.0,-0.054383803794263545,-0.07425541245618864,-0.12147311333596288,0.37007645717120263,0.08762185719085401,0.008324465830210811
3589,3.0,299.66067000000004,634.93924,0.0,0.0,0.0,0.03639656463974544,0.0,0.0,-0.053422950883434746,-0.08109573621177601,-0.058486987431966245,0.36686728132198165,0.09544859815729322,-0.02454493698514668
3590,3.0,300.20117,662.82617,0.0,0.0,0.0,0.0364067057834177,0.0,0.0,-0.05987659813586014,-0.08120601125990932,-0.06039999551476544,0.38005206652571866,0.09066490156692911,-0.004012393388992396
3591,3.0,299.73303,962.9122199999999,0.0,0.0,0.0,0.03641684692708996,0.0,0.0,-0.12600823839854486,-0.08770282397984482,-0.07899021364972712,0.35244491244610465,0.0954508789832683,-0.0034479246265586663
3592,3.0,299.7518,1009.9469,0.0,0.0,0.0,0.03642698807076222,0.0,0.0,-0.06839887652744353,-0.1051629379337739,-0.13343682071168886,0.3515865376238897,0.1011438712796229,0.01194046949793259
3593,3.0,299.68015,706.94778,0.0,0.0,0.0,0.03643712921443448,0.0,0.0,-0.06415463125056914,-0.07448554283215074,-0.07625429855121334,0.3231226299222207,0.06456413222548373,-0.015630356525846087
3594,3.0,300.55331,609.62225,0.0,0.0,0.0,0.03644727035810675,0.0,0.0,-0.02970812309571347,-0.06728776774603563,-0.08831405089066822,0.3400277857831297,0.06641322449197494,-0.005214791242134825
3595,3.0,299.38163,660.43604,0.0,0.0,0.0,0.03645741150177901,0.0,0.0,-0.08925649000742972,-0.05485076618234915,-0.05664880888230215,0.36181329114819166,0.056872097793589045,-0.009607027167664761
3596,3.0,301.11848,673.00077,0.0,0.0,0.0,0.03646755264545127,0.0,0.0,-0.07481570733748544,-0.07092310645481564,-0.058836614445221744,0.37302977723767267,0.08234030523010542,-0.005487892034962775
3597,3.0,300.57583,703.1432599999999,0.0,0.0,0.0,0.03647769378912353,0.0,0.0,-0.06813465940486733,-0.08139976291753112,-0.06420357123039915,0.36020480727694665,0.09123606456879851,-0.02026349732360148
3598,3.0,300.79235,723.08643,0.0,0.0,0.0,0.036487834932795796,0.0,0.0,-0.00895324000361599,-0.08378336386352422,-0.12706361943770286,0.3461764407024547,0.08814094319058383,0.0030341326387955773
3599,3.0,299.78701,557.62702,0.0,0.0,0.0,0.036497976076468056,0.0,0.0,-0.02430629632159468,-0.07094016350699903,-0.07425822929146662,0.35824228368826067,0.11570779119446988,-0.024450237617550576
3600,3.0,300.38566000000003,848.6388699999999,0.0,0.0,0.0,0.036508117220140315,0.0,0.0,-0.04934234955071075,-0.09409222610967972,-0.1145304553732759,0.3343890287116277,0.0950192364671685,-0.008513405765757731
3601,3.0,299.62807999999995,995.30106,0.0,0.0,0.0,0.03651825836381257,0.0,0.0,-0.12099375484615388,-0.08142849869036711,-0.1001244160360105,0.3541933464211617,0.08880193385356851,-0.012950989902163187
3602,3.0,299.67479,782.95765,0.0,0.0,0.0,0.03652839950748483,0.0,0.0,-0.08402066602369412,-0.0967203526758056,-0.05725855543472944,0.3243827280115827,0.03905650226732666,-0.008568089151129561
3603,3.0,299.00796,545.8383200000001,0.0,0.0,0.0,0.0365385406511571,0.0,0.0,-0.04517751977692405,-0.06399536556010084,-0.056748333346874444,0.3576142104812747,0.06897209136076543,-0.02066081193956338
3604,3.0,299.23891000000003,835.3185900000001,0.0,0.0,0.0,0.03654868179482936,0.0,0.0,-0.05387250158180195,-0.08619261320929861,-0.11385087866370688,0.3266264589005217,0.07828257700513883,0.01002123438531883
3605,3.0,299.16868999999997,879.1855300000001,0.0,0.0,0.0,0.03655882293850162,0.0,0.0,-0.07887717749507132,-0.07999284894167952,-0.10838042243381489,0.35941763353925865,0.1066924896222289,-0.011136340033071188
3606,3.0,301.24181,664.6392400000001,0.0,0.0,0.0,0.03656896408217388,0.0,0.0,-0.06192600285437064,-0.05033573386925016,-0.08977199822105641,0.3337539539464507,0.09693630768286872,-0.007441321400026242
3607,3.0,300.5362,696.1933,0.0,0.0,0.0,0.03657910522584614,0.0,0.0,-0.08069569291329483,-0.08242003686722432,-0.04850964947277966,0.3679859296973837,0.08545141468164802,-0.02132383619549878
3608,3.0,299.99584,706.5919200000001,0.0,0.0,0.0,0.03658924636951841,0.0,0.0,-0.07378999932750592,-0.053859386072507544,-0.0871369167062441,0.3896821069336296,0.09276559092600101,-0.006931349686270953
3609,3.0,299.70721000000003,732.75579,0.0,0.0,0.0,0.03659938751319067,0.0,0.0,-0.04140752418285446,-0.07279646200820143,-0.10853548009661791,0.35400898556546667,0.09199234025793711,-0.028224508113792075
3610,3.0,300.1454,761.6584799999999,0.0,0.0,0.0,0.03660952865686293,0.0,0.0,-0.027351643815147073,-0.07647669276266193,-0.1276968196901949,0.3446033800547057,0.06812779362218974,-0.012004186717220987
3611,3.0,300.2367,767.11237,0.0,0.0,0.0,0.03661966980053519,0.0,0.0,-0.048104135637008556,-0.07042940743634134,-0.11464946159752089,0.3406699634315077,0.07547752785230202,-0.0075689441004716225
3612,3.0,300.41895,560.59651,0.0,0.0,0.0,0.03662981094420745,0.0,0.0,-0.03868048211546637,-0.07483349190324064,-0.056893367939688244,0.36598174126458566,0.10081456499712291,-0.029458715636598874
3613,3.0,298.95862,592.28095,0.0,0.0,0.0,0.036639952087879714,0.0,0.0,-0.08784322599320142,-0.06509563661843915,-0.027099755919787676,0.3568595215417926,0.1009545495514383,-0.013723278995882188
3614,3.0,298.89075,1022.6921,0.0,0.0,0.0,0.036650093231551974,0.0,0.0,-0.12517031096334788,-0.1048452130999169,-0.08085733062224722,0.3392235793112607,0.05622374438585154,-0.00987190614520628
3615,3.0,298.78246,852.10085,0.0,0.0,0.0,0.036660234375224234,0.0,0.0,-0.07685188103619013,-0.097372940455711,-0.08479255893662402,0.3380250361654737,0.06544446316411563,-0.007693323488671913
3616,3.0,299.32306,461.77268,0.0,0.0,0.0,0.03667037551889649,0.0,0.0,0.012316504848544386,-0.07131862660485043,-0.08136524047337401,0.3615930612389567,0.07783862552682422,-0.0008529905429061123
3617,3.0,300.28366,740.86049,0.0,0.0,0.0,0.03668051666256875,0.0,0.0,-0.04201183768824556,-0.08077706398907551,-0.1024141829299929,0.3530928352225497,0.11050993977148191,0.005201729941720776
3618,3.0,299.69826,869.0577699999999,0.0,0.0,0.0,0.03669065780624102,0.0,0.0,-0.07017076116281494,-0.08087187177443232,-0.11312923180998588,0.34030387617037766,0.07807644444454513,-0.03049011608564017
3619,3.0,300.72562,745.71695,0.0,0.0,0.0,0.03670079894991328,0.0,0.0,-0.1069746088475719,-0.07785672723986073,-0.041847990080825063,0.3507490458862357,0.08808428427149202,-0.02203084462502508
3620,3.0,300.42652999999996,826.5613099999999,0.0,0.0,0.0,0.03671094009358554,0.0,0.0,-0.07232377475705085,-0.09478723765802201,-0.08414298557576613,0.39521410797459566,0.1019182172710449,-0.03245530249558897
3621,3.0,299.42058,681.48498,0.0,0.0,0.0,0.0367210812372578,0.0,0.0,-0.05140764203078925,-0.07037167041914313,-0.08537510377686673,0.3888661771581036,0.09424656841791211,-0.022582076997427477
3622,3.0,299.62696,455.17386,0.0,0.0,0.0,0.03673122238093006,0.0,0.0,0.002365098289892028,-0.06936429412997284,-0.07136229160465984,0.36572842873958566,0.06341575407889764,-0.020280657727295082
3623,3.0,300.13257999999996,838.35142,0.0,0.0,0.0,0.03674136352460232,0.0,0.0,-0.061751149324363944,-0.09984801660748199,-0.09323873109994632,0.3305787017105777,0.06240713149210434,-0.015745704917230086
3624,3.0,298.9423,831.71172,0.0,0.0,0.0,0.03675150466827458,0.0,0.0,-0.08044693494749432,-0.0873839420143736,-0.08498871908973352,0.33199459713531565,0.12776867938728687,-0.0005083075416585486
3625,3.0,300.38132,576.01112,0.0,0.0,0.0,0.03676164581194684,0.0,0.0,-0.09140263275273751,-0.08842762305462692,0.004737260250206186,0.3094177029121497,0.11106664977392489,-4.943607011871025e-05
3626,3.0,301.00612,673.05405,0.0,0.0,0.0,0.0367717869556191,0.0,0.0,-0.05996076172891644,-0.08150944521435592,-0.06312141708384884,0.3227505948830037,0.07090729468700513,-0.015406994660551987
3627,3.0,300.01141,1041.0347,0.0,0.0,0.0,0.036781928099291365,0.0,0.0,-0.09212944110246792,-0.09145648294255211,-0.1328626220125199,0.3283311407362607,0.07032353597314263,-0.011416667832237389
3628,3.0,300.23202000000003,910.27756,0.0,0.0,0.0,0.03679206924296363,0.0,0.0,-0.035496084284190765,-0.10362895834238191,-0.13757660598275387,0.3937601244785986,0.07612813979451243,0.002935378953574347
3629,3.0,299.25569,549.28496,0.0,0.0,0.0,0.03680221038663589,0.0,0.0,-0.022766513846879978,-0.046517925029461754,-0.0976844723049568,0.4063310523742526,0.08440973582359232,-0.005082632423641766
3630,3.0,297.87011,747.57317,0.0,0.0,0.0,0.03681235153030815,0.0,0.0,-0.06350964081991353,-0.07765914347036072,-0.08607479046117042,0.3639361210351986,0.05506415564015904,-0.015205221101888485
3631,3.0,299.49112,744.80254,0.0,0.0,0.0,0.036822492673980405,0.0,0.0,-0.11446779598709189,-0.05852674229963974,-0.05340683108759385,0.38009656847011064,0.06076011270630624,-0.01012510599679516
3632,3.0,299.96133,707.33911,0.0,0.0,0.0,0.036832633817652664,0.0,0.0,-0.045501348429383456,-0.11339300107601788,-0.05611908173002215,0.3422321519056837,0.11168900825034689,-0.03325183967745107
3633,3.0,300.09898,915.09417,0.0,0.0,0.0,0.03684277496132494,0.0,0.0,-0.08901372744247092,-0.09119603004409742,-0.0979560213052566,0.36446219035461763,0.10801127515738289,-0.015755467581943586
3634,3.0,300.19383999999997,931.4753099999999,0.0,0.0,0.0,0.0368529161049972,0.0,0.0,-0.04743385752360725,-0.11597889639122588,-0.11973248138667589,0.3123117275827677,0.042934490057054256,-0.008822506929338642
3635,3.0,300.61127999999997,599.16048,0.0,0.0,0.0,0.03686305724866946,0.0,0.0,-0.05103128953289616,-0.06612644228967174,-0.06497209204699624,0.3297340665597187,0.07880866051005922,0.011968140344913489
3636,3.0,300.43716,844.97826,0.0,0.0,0.0,0.03687319839234172,0.0,0.0,-0.06430063856347894,-0.08084617271214602,-0.1117054836969729,0.35563651853859163,0.11448706800399389,-0.0029593248905376273
3637,3.0,300.68908999999996,968.27943,0.0,0.0,0.0,0.03688333953601398,0.0,0.0,-0.13198277642068587,-0.07833478775629163,-0.08401520359240501,0.37652791175041167,0.1324116446580119,0.016949529122538283
3638,3.0,300.44593,585.89991,0.0,0.0,0.0,0.036893480679686244,0.0,0.0,-0.02749052595335368,-0.06409171449885974,-0.08651670328028381,0.3393777250489737,0.09050864725575801,-0.06736422050583094
3639,3.0,300.92082999999997,551.97921,0.0,0.0,0.0,0.036903621823358504,0.0,0.0,-0.03882950486067376,-0.05754619383336715,-0.07141219923833533,0.3605075562743257,0.06459270486505364,-0.021883240429957682
3640,3.0,299.50771000000003,663.75338,0.0,0.0,0.0,0.036913762967030764,0.0,0.0,-0.03888217968037236,-0.07088535579583993,-0.09199691812188891,0.3600443996536157,0.09121142029986631,-0.046384872119080454
3641,3.0,299.5159,799.08535,0.0,0.0,0.0,0.036923904110703024,0.0,0.0,-0.06908666664232313,-0.09292340260257581,-0.08089192298066122,0.37285150601507866,0.08800262137968251,-0.013900629174135289
3642,3.0,299.25552000000005,723.85821,0.0,0.0,0.0,0.03693404525437528,0.0,0.0,-0.08357526357123633,-0.08061500375483142,-0.05584455377442835,0.3271508158272717,0.04026852467919396,-0.033722235970125566
3643,3.0,299.91736000000003,844.6539300000001,0.0,0.0,0.0,0.03694418639804755,0.0,0.0,-0.1019507122017519,-0.08814990741421852,-0.06665308105564693,0.3410424139032657,0.056744155716712145,0.003915802182134586
3644,3.0,300.70126,778.15269,0.0,0.0,0.0,0.03695432754171981,0.0,0.0,-0.06424293802328435,-0.07390142137475243,-0.0983946268760436,0.36412013738585963,0.0950850784719166,-0.014373366074540787
3645,3.0,300.37537000000003,723.79743,0.0,0.0,0.0,0.03696446868539207,0.0,0.0,-0.06082781909123834,-0.06643010017239044,-0.09275842724779401,0.3802880930040126,0.1089213561322009,-0.011839335992201489
3646,3.0,300.04374,874.7035800000001,0.0,0.0,0.0,0.03697460982906433,0.0,0.0,-0.05876232801414025,-0.07892553586934392,-0.12820018207487288,0.34960173266550465,0.06677150364783435,-0.004608387705762456
3647,3.0,302.05221,795.73088,0.0,0.0,0.0,0.03698475097273659,0.0,0.0,-0.07656244918487544,-0.047932381639057754,-0.1173874862827429,0.36788673251259363,0.06843862835536674,0.017439531804647784
3648,3.0,300.80044,567.69762,0.0,0.0,0.0,0.03699489211640885,0.0,0.0,-0.046595711226388656,-0.07446856278697493,-0.051501627057064854,0.35928489777615863,0.11721819245603488,-0.018122419815543585
3649,3.0,300.7235,956.2017199999999,0.0,0.0,0.0,0.03700503326008111,0.0,0.0,-0.1224139768488189,-0.07669604823706062,-0.09155142549017221,0.36755225865458363,0.10718225419056489,-0.0017947161998746982
3650,3.0,299.63471,1097.7798,0.0,0.0,0.0,0.03701517440375337,0.0,0.0,-0.07584965813702843,-0.12455607875272788,-0.13329190568238689,0.3223727235232107,0.07301230657100363,-0.062143938765379235
3651,3.0,298.85601,704.5351400000001,0.0,0.0,0.0,0.037025315547425636,0.0,0.0,-0.08019898960827401,-0.06601522289244524,-0.06794687883008484,0.3173916974891217,0.07419310162803902,-0.001975917133807838
3652,3.0,300.0503,703.2710000000001,0.0,0.0,0.0,0.037035456691097896,0.0,0.0,-0.017480925097732983,-0.09331589414806173,-0.10298000205083489,0.38030408209059063,0.10537651078985191,-0.027219014443307574
3653,3.0,300.35008,778.99625,0.0,0.0,0.0,0.037045597834770155,0.0,0.0,-0.09241154512905941,-0.07434833356985923,-0.07003553077796873,0.35724224636956464,0.09225861427821631,0.04213916573556186
3654,3.0,299.83822999999995,583.79986,0.0,0.0,0.0,0.037055738978442415,0.0,0.0,-0.04906930499326336,-0.06142346829502435,-0.06696780666920793,0.38403858758665765,0.04836638908089095,-0.019976383788515583
3655,3.0,300.57414,760.43895,0.0,0.0,0.0,0.037065880122114675,0.0,0.0,-0.06861078461360723,-0.08072932876361442,-0.08181433926219663,0.3475104452541106,0.05472994522717505,0.043679277516559055
3656,3.0,299.33463,767.8098200000001,0.0,0.0,0.0,0.037076021265786935,0.0,0.0,-0.025518551780984975,-0.09634019745028721,-0.11153626079777189,0.37195066588117265,0.10460449527365989,-0.02212823113188638
3657,3.0,299.17689,714.18744,0.0,0.0,0.0,0.037086162409459195,0.0,0.0,-0.05005630583617275,-0.07870097127618113,-0.08833787240051923,0.35359109082672363,0.1036191602139149,-0.016314305409596584
3658,3.0,299.70827,839.0060599999999,0.0,0.0,0.0,0.03709630355313147,0.0,0.0,-0.037561611838292465,-0.11701073963056088,-0.1004645448428286,0.3105057511345317,0.07712467532086283,-0.06204619964748315
3659,3.0,299.18914,812.28427,0.0,0.0,0.0,0.03710644469680373,0.0,0.0,-0.11760220411143388,-0.06644773883013123,-0.06286418733396225,0.3222468778607907,0.09025216832419551,-0.03928593552721996
3660,3.0,298.49715,562.73499,0.0,0.0,0.0,0.03711658584047599,0.0,0.0,-0.06417965346178864,-0.04106934182947846,-0.06580838916278234,0.36714032182642864,0.11151114232779288,0.006558356416434383
3661,3.0,299.55622999999997,412.93125,0.0,0.0,0.0,0.03712672698414825,0.0,0.0,-0.03386985941694487,-0.06635834484005874,-0.025292584849683775,0.35592338990690364,0.11873137002287389,-0.04387211724909086
3662,3.0,300.36931,642.7456099999999,0.0,0.0,0.0,0.0371368681278205,0.0,0.0,-0.017840929818512683,-0.07088661526571423,-0.1066510679581409,0.35188760462610263,0.053093116697632656,0.033946275699736565
3663,3.0,301.24221,782.46794,0.0,0.0,0.0,0.037147009271492774,0.0,0.0,-0.06506814106372553,-0.07304023984976044,-0.09974233563530209,0.35703797514940466,0.07413621776742503,-0.013693167229410387
3664,3.0,299.71212,763.6467200000001,0.0,0.0,0.0,0.037157150415165034,0.0,0.0,-0.027746183139085074,-0.10867678795556389,-0.09570656454000251,0.3675937917761827,0.1114745336016799,0.0037662503177249658
3665,3.0,299.3603,807.56582,0.0,0.0,0.0,0.037167291558837294,0.0,0.0,-0.12203543674395988,-0.06189337113490014,-0.06155103850911454,0.3870410097529736,0.0881018894919795,-0.011657718004527189
3666,3.0,299.37174,891.96855,0.0,0.0,0.0,0.037177432702509554,0.0,0.0,-0.1009516222718994,-0.0924689933699791,-0.07771555211667783,0.3371640268929987,0.049383160224988454,-0.01322414591712159
3667,3.0,299.3413,585.93542,0.0,0.0,0.0,0.037187573846181814,0.0,0.0,-0.05650985379008835,-0.05723541989519615,-0.06436446116077774,0.34974132813178166,0.058296989865964946,-0.015368254056228587
3668,3.0,299.61635,706.90833,0.0,0.0,0.0,0.03719771498985408,0.0,0.0,-0.03964704975685916,-0.06483206493617664,-0.11040336612596388,0.36012043394111964,0.11243015003599191,-0.013859811407106886
3669,3.0,299.77412999999996,913.1429800000001,0.0,0.0,0.0,0.03720785613352634,0.0,0.0,-0.05226831794398135,-0.1009610769085825,-0.12434326583422488,0.36992189600094866,0.13871236815234486,-0.003540893869609017
3670,3.0,300.29489,786.11467,0.0,0.0,0.0,0.0372179972771986,0.0,0.0,-0.04620359154368946,-0.08937488726836461,-0.1033807525978859,0.33773068701142367,0.0991301025671294,-0.037721162252038865
3671,3.0,301.20018999999996,816.83381,0.0,0.0,0.0,0.03722813842087086,0.0,0.0,-0.10676399468178589,-0.09256364308832031,-0.04896944919590836,0.36208492323499963,0.11472637741261188,0.0032270646784114867
3672,3.0,300.49691,927.47254,0.0,0.0,0.0,0.03723827956454312,0.0,0.0,-0.1082458628205349,-0.08293040992934422,-0.09075222650029742,0.3485477397789837,0.0921904407849881,-0.015091614487426384
3673,3.0,300.06032999999996,863.0732199999999,0.0,0.0,0.0,0.037248420708215386,0.0,0.0,-0.0976201846258621,-0.08640291732055402,-0.07832960599528023,0.3690077721582316,0.0876984700441651,-0.002702032521794847
3674,3.0,298.8699,677.43512,0.0,0.0,0.0,0.037258561851887646,0.0,0.0,-0.026620085348947872,-0.09985174334134982,-0.07945153122150563,0.3220754764738747,0.01935718259940518,-0.01976611210126338
3675,3.0,298.53006,765.71204,0.0,0.0,0.0,0.037268702995559906,0.0,0.0,-0.03206389715421027,-0.08548353977606851,-0.1152099003603319,0.36391261363287863,0.06804956666146934,-0.0021511853870804683
3676,3.0,299.05366000000004,693.44513,0.0,0.0,0.0,0.037278844139232166,0.0,0.0,-0.05251807801413075,-0.07923858556723952,-0.07903334061373342,0.35216597482607565,0.10917964371519188,-0.02791990284222987
3677,3.0,300.07824,570.0206,0.0,0.0,0.0,0.037288985282904426,0.0,0.0,-0.07444597440249563,-0.07292091141198363,-0.02590514418438868,0.3753986850439656,0.1105215212201249,-0.038400603186094465
3678,3.0,300.62203999999997,625.27665,0.0,0.0,0.0,0.037299126426576686,0.0,0.0,-0.07618303565843022,-0.04807589129047105,-0.06580956047989793,0.3420703966597197,0.06711360119959674,-0.016773709965186286
3679,3.0,300.39487,906.5203300000001,0.0,0.0,0.0,0.037309267570248945,0.0,0.0,-0.08248881020451172,-0.1025949264828309,-0.09047580376701661,0.3553659706293907,0.07649108395383222,-0.016011986030259984
3680,3.0,301.12278,912.5130199999999,0.0,0.0,0.0,0.037319408713921205,0.0,0.0,-0.04554540049073105,-0.0927151472830226,-0.13912062688263688,0.3819941123298837,0.08739445448416111,0.007592120879283993
3681,3.0,301.39009,954.2834,0.0,0.0,0.0,0.037329549857593465,0.0,0.0,-0.04970928794192475,-0.08583721978972401,-0.15453181639860286,0.35716925183236065,0.08721178271638282,0.004053662254965316
3682,3.0,301.68932,958.32755,0.0,0.0,0.0,0.037339691001265725,0.0,0.0,-0.07930268072881522,-0.1042613986572989,-0.10774357448096289,0.33657033326190566,0.07260247831630673,0.0014250183233383586
3683,3.0,299.83975,724.34883,0.0,0.0,0.0,0.03734983214493799,0.0,0.0,-0.1018000520443829,-0.05196315842461445,-0.06642074686071733,0.35523707508416963,0.07520731127588373,0.013638685784783488
3684,3.0,299.40234,765.66343,0.0,0.0,0.0,0.03735997328861025,0.0,0.0,-0.1038584797550339,-0.08539782388385901,-0.04348626350501005,0.35618205239243167,0.11954447283062089,-0.01119007065937399
3685,3.0,299.22267,943.9518300000001,0.0,0.0,0.0,0.03737011443228251,0.0,0.0,-0.11185043925627888,-0.09469869783778381,-0.08038864672224173,0.35689362754015863,0.09175583552559592,0.0069785804145072634
3686,3.0,300.8937,719.49427,0.0,0.0,0.0,0.03738025557595477,0.0,0.0,-0.038573349155893166,-0.06803613197839344,-0.11209880712079089,0.3544620704801827,0.06303891116795614,-0.019827333685555483
3687,3.0,300.01039,540.906,0.0,0.0,0.0,0.03739039671962703,0.0,0.0,0.014189513870395987,-0.1040004968890499,-0.07461093658502613,0.3594280092202827,0.08372497633976182,-0.018732126851216984
3688,3.0,300.25567,790.54603,0.0,0.0,0.0,0.037400537863299305,0.0,0.0,-0.05905821528184204,-0.08135125356899363,-0.0998967833215449,0.3854916591575646,0.09975793563384172,-0.018879620602023483
3689,3.0,299.44813,868.7897800000001,0.0,0.0,0.0,0.037410679006971564,0.0,0.0,-0.12351964549043987,-0.07391305753890083,-0.06665769539660235,0.3471573681242647,0.0999567099722092,-0.04455226644496636
3690,3.0,299.8361,821.7380400000001,0.0,0.0,0.0,0.037420820150643824,0.0,0.0,-0.07999375276076871,-0.09878341093941359,-0.07101068166095863,0.35790729307269964,0.06555365707439223,-0.019852672030806182
3691,3.0,298.7961,662.52869,0.0,0.0,0.0,0.037430961294316084,0.0,0.0,-0.08090195415665122,-0.04624520876504675,-0.07424501448366243,0.36385438214963167,0.07157397170955103,-0.01832373842491218
3692,3.0,299.51623,660.52708,0.0,0.0,0.0,0.03744110243798834,0.0,0.0,-0.011872091328184188,-0.07690775975270492,-0.11200388585142289,0.3889898038028046,0.091178354909353,0.006103571876000645
3693,3.0,299.86133,719.1106599999999,0.0,0.0,0.0,0.03745124358166061,0.0,0.0,-0.00917263894644398,-0.0926420868845621,-0.11677696256748889,0.37111787562398263,0.07691903114681733,-0.016509840387394382
3694,3.0,299.78673,776.26485,0.0,0.0,0.0,0.03746138472533287,0.0,0.0,-0.04387602028847606,-0.09025935024090431,-0.1018297605373149,0.3692542047150526,0.06920278206403284,0.029124249884589677
3695,3.0,300.3005,755.1461400000001,0.0,0.0,0.0,0.03747152586900513,0.0,0.0,-0.08917206398259751,-0.1012518330777779,-0.03912167248725846,0.33266474048645367,0.0961897541284396,-0.036363258170274165
3696,3.0,300.66889,672.68688,0.0,0.0,0.0,0.03748166701267739,0.0,0.0,-0.05121978242249895,-0.0940800134062244,-0.05918021768663274,0.3791654017607116,0.1118333457270919,-0.00989654200416265
3697,3.0,299.6872,760.58889,0.0,0.0,0.0,0.03749180815634965,0.0,0.0,-0.08161615159563702,-0.08683396911184552,-0.06274990792143374,0.3583965814134887,0.09230389743843542,-0.04941722366685025
3698,3.0,300.05482,1103.4387,0.0,0.0,0.0,0.03750194930002192,0.0,0.0,-0.08293464531476222,-0.1045515124259309,-0.14793165723471785,0.36613211771192666,0.05094973303234715,-0.013950947174101289
3699,3.0,299.55019,665.2755900000001,0.0,0.0,0.0,0.03751209044369418,0.0,0.0,-0.04923912267027305,-0.055673489799795646,-0.09731455394519871,0.34936703354484167,0.07824822681349872,-0.02947634821483907
3700,3.0,299.85627999999997,527.78472,0.0,0.0,0.0,0.03752223158736643,0.0,0.0,-0.03179798283771657,-0.059598656540679446,-0.06903673773039554,0.36793521652987865,0.08754095524986961,0.005033251173393215
3701,3.0,301.00895,979.9946,0.0,0.0,0.0,0.037532372731038696,0.0,0.0,-0.12329875696863989,-0.07913169072143983,-0.095463440244758,0.3695952849637147,0.100032600378199,-0.008118899575098003
3702,3.0,300.96875,961.4700300000001,0.0,0.0,0.0,0.037542513874710956,0.0,0.0,-0.07842409258035532,-0.0947191330658006,-0.11911965759369489,0.33698651560797965,0.0910748169611346,0.030682328616360072
3703,3.0,300.02977999999996,756.3248,0.0,0.0,0.0,0.037552655018383216,0.0,0.0,-0.06968762021038263,-0.08508751806723423,-0.07512871650537703,0.35665879669698264,0.0920501532688928,-0.007184267449031993
3704,3.0,300.56121,875.74056,0.0,0.0,0.0,0.037562796162055476,0.0,0.0,-0.03455468172228157,-0.09526971493163881,-0.13637886330454588,0.34929999691822566,0.09230528660432251,0.01069904155491319
3705,3.0,299.83602,802.52617,0.0,0.0,0.0,0.037572937305727735,0.0,0.0,-0.05647351762825225,-0.1127947376869739,-0.07467965824655842,0.3685512117956727,0.07286856691181763,-0.01222859121686799
3706,3.0,299.58374,776.22061,0.0,0.0,0.0,0.0375830784494,0.0,0.0,-0.05776637409334725,-0.09104373146131672,-0.08714157664345401,0.3575370818836627,0.03810444132761556,0.0007750445361734402
3707,3.0,299.7226,868.13368,0.0,0.0,0.0,0.03759321959307226,0.0,0.0,-0.07793205833179533,-0.1088717676723069,-0.07708713744440814,0.3664225658530917,0.07845763419841563,-0.04174414511782636
3708,3.0,300.10597,650.60078,0.0,0.0,0.0,0.03760336073674452,0.0,0.0,-0.05919122259596885,-0.08388542955934733,-0.054689740476457145,0.3675971456340137,0.1056374632206059,-0.035365674943320366
3709,3.0,300.25753,302.48602999999997,0.0,0.0,0.0,0.03761350188041678,0.0,0.0,-0.007940073395424232,-0.02831854076282237,-0.05568958527763415,0.3844730894945397,0.0933353556427324,-0.060207050404223236
3710,3.0,299.82363,653.2973,0.0,0.0,0.0,0.03762364302408904,0.0,0.0,-0.03856871454993576,-0.06793475022638784,-0.092082599563595,0.3459263401802717,0.07986019423858752,-0.03287080799059617
3711,3.0,300.08898999999997,997.3809699999999,0.0,0.0,0.0,0.0376337841677613,0.0,0.0,-0.1109273886801809,-0.06964989082965903,-0.12260163076733888,0.37032267694550264,0.09211783938882291,-0.025035840446595077
3712,3.0,300.5844,807.7658299999999,0.0,0.0,0.0,0.03764392531143356,0.0,0.0,-0.08075999984414142,-0.07210954734140823,-0.0926710962349251,0.36220723265457067,0.07774905117823393,-0.013715543844618788
3713,3.0,301.14751,676.1944,0.0,0.0,0.0,0.037654066455105835,0.0,0.0,-0.05153534295414235,-0.1002580272471969,-0.05375284485099275,0.3524479420639037,0.08250905392825962,-0.0032698045808795873
3714,3.0,300.75259,818.83735,0.0,0.0,0.0,0.03766420759877809,0.0,0.0,-0.07909822813688733,-0.07639551724415053,-0.09341236062383222,0.34921540066737666,0.046620077864793455,0.027203728552298974
3715,3.0,300.42713,831.98036,0.0,0.0,0.0,0.03767434874245035,0.0,0.0,-0.046082597322748255,-0.11439061672697488,-0.09242803678768702,0.35742258462236265,0.08132152278455942,0.0006501583405381324
3716,3.0,299.03092999999996,778.2467,0.0,0.0,0.0,0.03768448988612261,0.0,0.0,-0.04663732946099605,-0.09599050558902532,-0.09393972791662931,0.35917832413064066,0.09604409537356422,-0.013948429247602787
3717,3.0,299.73222000000004,840.7728,0.0,0.0,0.0,0.03769463102979487,0.0,0.0,-0.09033515958688611,-0.07881864001029412,-0.08642013851925362,0.3745015432729246,0.08446072459512452,0.003945616154401996
3718,3.0,298.97084,374.67013,0.0,0.0,0.0,0.03770477217346714,0.0,0.0,-0.03613861251710336,-0.03402965098421507,-0.04372210151878546,0.36316290988388866,0.06786233324174083,-0.014731257155611886
3719,3.0,299.57182,383.26632,0.0,0.0,0.0,0.0377149133171394,0.0,0.0,-0.04762121354659786,-0.025487332532153874,-0.04339484402798766,0.35236489608570765,0.07585102197166302,-0.01911826633182598
3720,3.0,299.75035,916.01948,0.0,0.0,0.0,0.03772505446081166,0.0,0.0,-0.09228418060473952,-0.06920314075456822,-0.11695973262052689,0.3737441996181806,0.07635479269613134,-0.016409576250249087
3721,3.0,299.59076,945.7783900000001,0.0,0.0,0.0,0.03773519560448392,0.0,0.0,-0.09223898053102861,-0.08897580453097821,-0.10627823245134489,0.34966451364170065,0.08048912972140862,-0.014812474217377384
3722,3.0,300.08016000000003,659.357,0.0,0.0,0.0,0.03774533674815618,0.0,0.0,-0.05026163894243755,-0.05998403203071304,-0.09018239186930911,0.3720529940087716,0.06699191391558713,-0.007839461510844612
3723,3.0,300.18494,862.06264,0.0,0.0,0.0,0.03775547789182845,0.0,0.0,-0.08971510220144123,-0.11406994333532688,-0.058260475372111244,0.36168608773063765,0.08366397463074142,-0.016211177827668684
3724,3.0,299.92407000000003,1114.105,0.0,0.0,0.0,0.03776561903550071,0.0,0.0,-0.10892395005245689,-0.12661435447586386,-0.1031217861373279,0.3864395039636096,0.10674593856500389,-0.018903203998100984
3725,3.0,300.38511,972.38084,0.0,0.0,0.0,0.03777576017917297,0.0,0.0,-0.0988844421068846,-0.11998393966399289,-0.07671110918654703,0.35622771957443866,0.09234223780896932,-0.014684392311986684
3726,3.0,299.61135,655.1775200000001,0.0,0.0,0.0,0.037785901322845226,0.0,0.0,-0.019673853653158182,-0.1109847082383379,-0.06849904237932913,0.37025350236117566,0.07246033756577852,-0.0076067687267046226
3727,3.0,299.59665,348.31937,0.0,0.0,0.0,0.037796042466517486,0.0,0.0,0.0015063899057441083,-0.043844142427079964,-0.06354263730942003,0.34024623237218865,0.095294592248094,0.0027214137670576277
3728,3.0,300.34639,351.32427,0.0,0.0,0.0,0.037806183610189746,0.0,0.0,0.025966712300214977,-0.08137015169660872,-0.05139036611658425,0.3839550755134157,0.12380857375645489,-0.02822781029586797
3729,3.0,300.30888,782.0232599999999,0.0,0.0,0.0,0.03781632475386201,0.0,0.0,-0.10108916388022371,-0.05525161906766025,-0.08137476097131362,0.3488622931400277,0.1123414197247349,-0.015965423135164584
3730,3.0,299.7053,1058.3508,0.0,0.0,0.0,0.03782646589753427,0.0,0.0,-0.13710466448367686,-0.05605633317782935,-0.1285512023070159,0.37442024008490066,0.05366590799241274,-0.004235877452248556
3731,3.0,299.58197,753.3260799999999,0.0,0.0,0.0,0.03783660704120653,0.0,0.0,-0.1178587590367539,-0.06523011618496123,-0.045903442546067055,0.35085104977380266,0.06265619951243544,-0.024252238415509577
3732,3.0,299.33484,703.8217099999999,0.0,0.0,0.0,0.03784674818487879,0.0,0.0,-0.040587658943940064,-0.06658253149093424,-0.1067740359902769,0.3917200568597596,0.08574919571378672,-0.015235073476334684
3733,3.0,299.47232,1157.2731,0.0,0.0,0.0,0.03785688932855105,0.0,0.0,-0.1254452867754859,-0.10482249603267489,-0.12151435261503289,0.36079800441549065,0.08739465409443083,0.0035308835665710764
3734,3.0,299.33096,1201.2603,0.0,0.0,0.0,0.03786703047222331,0.0,0.0,-0.0971533468675388,-0.12183261447144288,-0.14616718351057786,0.3497534567354787,0.08180417332394332,0.005970568716199254
3735,3.0,299.8723,689.65295,0.0,0.0,0.0,0.03787717161589557,0.0,0.0,-0.08815472339194382,-0.06942303325151992,-0.05205951952237455,0.35140833732880267,0.11420277029093588,0.0008984315776232932
3736,3.0,300.10688,446.5739,0.0,0.0,0.0,0.03788731275956783,0.0,0.0,-0.024673516396336477,-0.08512803287248273,-0.02594576436764758,0.3579815339075267,0.1312259495234929,-0.01953368975357508
3737,3.0,299.55242999999996,424.80383,0.0,0.0,0.0,0.03789745390324009,0.0,0.0,-0.045600759409944555,-0.03993453110173136,-0.04359446645668886,0.3532317923412637,0.08999087341490772,-0.0039051594083842262
3738,3.0,300.46651,727.1089999999999,0.0,0.0,0.0,0.03790759504691236,0.0,0.0,-0.025118443634497375,-0.08082368565267672,-0.1150808528275959,0.35454254280312464,0.028422685647850675,-0.0038218632587385362
3739,3.0,300.1459,944.04699,0.0,0.0,0.0,0.03791773619058462,0.0,0.0,-0.05343876366449535,-0.11233842050443889,-0.12118952489797487,0.3780853886116226,0.07021388002082044,-0.002896425870704977
3740,3.0,299.78724,776.13103,0.0,0.0,0.0,0.03792787733425688,0.0,0.0,-0.033492545344706866,-0.07123533643338033,-0.13119657540309387,0.38678336051754564,0.09019253247630993,-0.024661252017126076
3741,3.0,300.20725,587.30667,0.0,0.0,0.0,0.03793801847792914,0.0,0.0,-0.04739810499382875,-0.06291498358797544,-0.06821347303739564,0.39124744661561667,0.09118730089448591,-0.01879308600373318
3742,3.0,300.39057,867.86374,0.0,0.0,0.0,0.0379481596216014,0.0,0.0,-0.1021365422700919,-0.07749580552774052,-0.08417656063107971,0.3234697288764767,0.07068145339871633,-0.02876985248986337
3743,3.0,298.86868,1257.2731,0.0,0.0,0.0,0.03795830076527367,0.0,0.0,-0.15492900030530185,-0.08578283156410632,-0.14146779034178386,0.3822535144879846,0.07691993192615623,0.013221397982850387
3744,3.0,298.52443,960.53674,0.0,0.0,0.0,0.037968441908945924,0.0,0.0,-0.06527832358496893,-0.1345771931692349,-0.09212366962989832,0.3596797208101246,0.09213400478091832,-0.024658120061066977
3745,3.0,299.33586,583.44506,0.0,0.0,0.0,0.037978583052618184,0.0,0.0,-0.015972009260814584,-0.053077077961799744,-0.10830363834123691,0.37613080890372064,0.09619836067478901,0.022316503132967378
3746,3.0,299.36252,688.6041799999999,0.0,0.0,0.0,0.037988724196290444,0.0,0.0,-0.027693785949913875,-0.08406659766397721,-0.097558091646484,0.34400954456859867,0.05656194396447925,0.0007848119124999052
3747,3.0,299.9658,804.80337,0.0,0.0,0.0,0.037998865339962704,0.0,0.0,-0.09101551244603172,-0.09090926405379582,-0.06271535406652354,0.3709934383792016,0.0988633918360571,0.01027445024625929
3748,3.0,299.716,767.76729,0.0,0.0,0.0,0.03800900648363498,0.0,0.0,-0.08383994780210863,-0.08725042604869661,-0.06229171217321334,0.3574770670802397,0.12205950143383487,-0.017574560552724085
3749,3.0,300.59421000000003,757.27171,0.0,0.0,0.0,0.03801914762730724,0.0,0.0,-0.08003847964668293,-0.08064662830370252,-0.06950658180176553,0.35707976158352867,0.1079665401654679,0.0004161013772585086
3750,3.0,300.59977000000003,607.0061099999999,0.0,0.0,0.0,0.0380292887709795,0.0,0.0,-0.037423106629123064,-0.060707572648870944,-0.08638402121943911,0.3160082564650867,0.07802289924301063,-0.025362470735580976
3751,3.0,301.13031,754.67553,0.0,0.0,0.0,0.03803942991465176,0.0,0.0,-0.03895794140359946,-0.06763812328611303,-0.12280644914255288,0.35215879088286667,0.07636760929664622,-0.00026211574319380976
3752,3.0,300.64176000000003,1164.1666,0.0,0.0,0.0,0.03804957105832402,0.0,0.0,-0.10146248777356791,-0.1112610012756059,-0.14115406784582188,0.37564529998580465,0.09096249514779932,-0.029443891787635873
3753,3.0,299.55091,1101.9281,0.0,0.0,0.0,0.03805971220199628,0.0,0.0,-0.13807272362921688,-0.07420005556347534,-0.12268585211565089,0.38211216609903464,0.08658651114592332,0.012776213379164089
3754,3.0,300.37316,738.2397599999999,0.0,0.0,0.0,0.03806985334566854,0.0,0.0,-0.08365105771846662,-0.0975169273479214,-0.043238469140054664,0.37882752338236564,0.05054755582915535,-0.03576468573994967
3755,3.0,300.11206,763.49783,0.0,0.0,0.0,0.0380799944893408,0.0,0.0,-0.07862233090941993,-0.08564308512356442,-0.06781885771970013,0.3755263241590627,0.0862225395510021,0.0049322954930546645
3756,3.0,298.3279,715.77998,0.0,0.0,0.0,0.03809013563301306,0.0,0.0,-0.032438959784726065,-0.07329038191519753,-0.11184990223372589,0.4027965219179216,0.10118566176674731,-0.01015714729543239
3757,3.0,298.39302999999995,612.41176,0.0,0.0,0.0,0.03810027677668532,0.0,0.0,-0.006484046275300544,-0.11082864745793589,-0.06884518887849113,0.3863319981279997,0.08660235432448692,0.00997738355544109
3758,3.0,299.66485,499.30152000000004,0.0,0.0,0.0,0.03811041792035758,0.0,0.0,-0.015068957201940287,-0.05297538615526354,-0.08373085217709172,0.36442516619596366,0.054899792288437645,-0.005175172757924785
3759,3.0,299.64717,587.1116099999999,0.0,0.0,0.0,0.03812055906402984,0.0,0.0,-0.06591349055590504,-0.06403541528355344,-0.04851836342363965,0.3432596483020897,0.08484465012426501,-0.0017002943614809884
3760,3.0,300.13461,708.20482,0.0,0.0,0.0,0.0381307002077021,0.0,0.0,-0.07585580045913462,-0.09383543509708642,-0.04558534382292316,0.33259162435923767,0.13279920268876086,-0.045975821027210255
3761,3.0,300.0943,1010.2187,0.0,0.0,0.0,0.03814084135137436,0.0,0.0,-0.1247992486442269,-0.08020607526622332,-0.10207592964910991,0.35111124226698165,0.1335172322396249,-0.027388049891240076
3762,3.0,300.20347999999996,1219.664,0.0,0.0,0.0,0.03815098249504662,0.0,0.0,-0.1139954795854779,-0.11897718449713389,-0.13777474703980888,0.3562571646223447,0.07927469577430334,-0.022791895761884978
3763,3.0,300.32164,922.22866,0.0,0.0,0.0,0.03816112363871889,0.0,0.0,-0.08748176725852823,-0.07378739730124913,-0.1190653169908319,0.3828013686845536,0.07533645304087902,-0.0017973353500581883
3764,3.0,300.38765,580.7511,0.0,0.0,0.0,0.03817126478239115,0.0,0.0,-0.03730381264184967,-0.06175593693108644,-0.07747408347209672,0.4190635632633536,0.08413265650424671,-0.007428477543083653
3765,3.0,300.36822,751.20881,0.0,0.0,0.0,0.03818140592606341,0.0,0.0,-0.0968207353632126,-0.06835704247056483,-0.06317094373548673,0.39356431389677365,0.06032733028384395,0.006694380277433894
3766,3.0,300.67212,924.0143800000001,0.0,0.0,0.0,0.03819154706973567,0.0,0.0,-0.07789706168659143,-0.1031240659500529,-0.09985616820453651,0.36882455627514965,0.04797515092577875,-0.002241921122935388
3767,3.0,301.33759,483.99830999999995,0.0,0.0,0.0,0.03820168821340793,0.0,0.0,-0.03072676571274567,-0.07552289105927902,-0.040873744030174464,0.33752460207358465,0.0989719362530196,-0.03384510673025196
3768,3.0,302.12008,482.65372,0.0,0.0,0.0,0.038211829357080195,0.0,0.0,0.02199683589866868,-0.08457954742110142,-0.08413196648092862,0.34666064252774165,0.11969604491307989,-0.02310507819554368
3769,3.0,301.19077999999996,764.62321,0.0,0.0,0.0,0.038221970500752454,0.0,0.0,-0.03534338648087067,-0.09682095625173441,-0.100262020465841,0.35505209614591365,0.10690118874532589,-0.010218953525032189
3770,3.0,299.85424,799.49383,0.0,0.0,0.0,0.038232111644424714,0.0,0.0,-0.052520900928909355,-0.08360813644423062,-0.1068971256124249,0.3542114937304527,0.06826623499660284,-0.02130139067928358
3771,3.0,299.89836,1020.3679,0.0,0.0,0.0,0.038242252788096974,0.0,0.0,-0.14192541461694785,-0.06997378736987514,-0.0982671529207129,0.3983665215532146,0.08282645148233432,-0.029053885744645274
3772,3.0,300.33423,975.80808,0.0,0.0,0.0,0.038252393931769234,0.0,0.0,-0.1178490521007959,-0.07747583436826952,-0.10129640189667649,0.39046851060124166,0.1139911631400519,-0.01903755285536018
3773,3.0,299.9231,557.51616,0.0,0.0,0.0,0.03826253507544151,0.0,0.0,-0.05608963262911574,-0.059682053103410036,-0.053699304715708746,0.37682117672685467,0.1031902514465849,-0.017157374075800983
3774,3.0,300.28196,809.98083,0.0,0.0,0.0,0.03827267621911377,0.0,0.0,-0.06303506284407634,-0.06553668918821764,-0.11764219709288089,0.3374556909342837,0.03932293536787156,-0.0007151094046058033
3775,3.0,299.47951,1179.8361,0.0,0.0,0.0,0.03828281736278602,0.0,0.0,-0.1118079030170809,-0.1115393613430779,-0.1352934495324239,0.3776999786710856,0.08362580549947442,-0.008421353615372893
3776,3.0,299.1495,799.53227,0.0,0.0,0.0,0.03829295850645828,0.0,0.0,-0.05922899149344635,-0.09042895209564272,-0.09337990318337891,0.36669059076954363,0.08750930232999574,-0.009451471289787591
3777,3.0,299.99032,432.43299,0.0,0.0,0.0,0.03830309965013054,0.0,0.0,-0.01125675264845499,-0.07619884438649042,-0.043993235086544256,0.4054145372612996,0.07835064106735623,-0.009425852679559232
3778,3.0,300.63697,662.9019099999999,0.0,0.0,0.0,0.038313240793802814,0.0,0.0,-0.04202467860676286,-0.09370940502314823,-0.06577154333614593,0.35584435639910367,0.06023546092377714,-0.012986725206689986
3779,3.0,300.38266,908.8367199999999,0.0,0.0,0.0,0.03832338193747507,0.0,0.0,-0.07668136725636172,-0.08645046408149652,-0.11313183586274289,0.39420607611261066,0.1078199431409999,-0.005193483403131905
3780,3.0,300.64221000000003,902.14079,0.0,0.0,0.0,0.03833352308114733,0.0,0.0,-0.05328769719383625,-0.10187066544385191,-0.11906991714628588,0.3611074003335257,0.14009679202897687,-0.00986453272422858
3781,3.0,301.50691,847.8879699999999,0.0,0.0,0.0,0.03834366422481959,0.0,0.0,-0.060685694552711736,-0.07318506267330334,-0.12386601490462387,0.3636504959645096,0.0957357765403855,0.013144326127243987
3782,3.0,300.81774,773.48545,0.0,0.0,0.0,0.03835380536849185,0.0,0.0,-0.08530533542798112,-0.04120332186370126,-0.1086116055766309,0.34448567079058867,0.06277804992971114,0.016011593902471286
3783,3.0,299.85173,870.30655,0.0,0.0,0.0,0.03836394651216412,0.0,0.0,-0.1046604976066869,-0.08171020653616952,-0.07818075854234012,0.3678861448275357,0.08780896091456972,-0.018328590879641084
3784,3.0,299.70837,1137.322,0.0,0.0,0.0,0.03837408765583638,0.0,0.0,-0.13531059372411586,-0.0944091383169565,-0.1159977732405889,0.3702375842021047,0.09975917889171441,-0.008291081975191081
3785,3.0,299.69133999999997,1100.9893,0.0,0.0,0.0,0.03838422879950864,0.0,0.0,-0.098042090821751,-0.12396479665687289,-0.11266636903180488,0.36157815632998563,0.08053376034856333,-0.019033342801194682
3786,3.0,299.10505,471.03930999999994,0.0,0.0,0.0,0.0383943699431809,0.0,0.0,-0.0028820854433646874,-0.08589448767212592,-0.054407614158363454,0.36302651628792765,0.06320868527521153,-0.03897285036557086
3787,3.0,299.3186,449.8068,0.0,0.0,0.0,0.03840451108685316,0.0,0.0,0.0036258759660960965,-0.08447988008826501,-0.05587603342853515,0.40165029287479764,0.1016183459039499,-0.03736007639340247
3788,3.0,300.07929,653.9938900000001,0.0,0.0,0.0,0.038414652230525426,0.0,0.0,-0.04563469011604326,-0.08840486039113042,-0.06475826182539283,0.4030692483148376,0.12299482246864388,-0.03348510504922257
3789,3.0,300.86098,596.78637,0.0,0.0,0.0,0.038424793374197685,0.0,0.0,-0.04610862163831666,-0.06599153614485753,-0.06930799694116672,0.38623640811356563,0.06161839836251244,-0.013837676958672386
3790,3.0,300.60887,466.91212,0.0,0.0,0.0,0.038434934517869945,0.0,0.0,-0.044867110608789056,-0.035965094450728465,-0.06109741961159584,0.34946678801718667,0.02269362266118618,-0.012482726500949188
3791,3.0,300.6562,852.3194900000001,0.0,0.0,0.0,0.038445075661542205,0.0,0.0,-0.05404910702123154,-0.09840928252549,-0.10662545299561291,0.36296727155458064,0.07371675654402743,0.0013628017274480587
3792,3.0,300.69406000000004,1184.2555,0.0,0.0,0.0,0.038455216805214465,0.0,0.0,-0.09196265304325722,-0.1066494366254799,-0.16137202464367884,0.36193091935230065,0.09344905750270391,0.007384214624390243
3793,3.0,299.93631,1122.7443,0.0,0.0,0.0,0.03846535794888673,0.0,0.0,-0.12270826520786288,-0.1022787519216269,-0.11629920501283789,0.3522217339790787,0.1080294123341729,-0.0033896306257804967
3794,3.0,299.69815,1156.6361,0.0,0.0,0.0,0.03847549909255899,0.0,0.0,-0.13628424601020786,-0.11667375291230288,-0.0986304861680711,0.3490791083964257,0.10558363937529389,-0.004193634346304486
3795,3.0,299.19712999999996,852.8698800000001,0.0,0.0,0.0,0.03848564023623125,0.0,0.0,-0.11909429594369189,-0.07046216581207435,-0.06969468053707943,0.3790531235171306,0.13176245531894187,-0.0032658929288685366
3796,3.0,299.03954,506.47135999999995,0.0,0.0,0.0,0.03849578137990351,0.0,0.0,-0.04990730639571766,-0.08308341981369512,-0.020963920640727877,0.3829628300879886,0.11899871606175888,-0.019477816103310782
3797,3.0,299.57397000000003,552.67068,0.0,0.0,0.0,0.03850592252357577,0.0,0.0,-0.04461717828612266,-0.044510391858083656,-0.07887051740216403,0.35018232497280466,0.06268506802103455,-0.00929553402457278
3798,3.0,299.41943,623.65042,0.0,0.0,0.0,0.03851606366724803,0.0,0.0,-0.012089735423163989,-0.07049245591056373,-0.1069919658217849,0.36880875970609067,0.053888364012117454,-0.0045191263501280455
3799,3.0,299.80136,493.68251,0.0,0.0,0.0,0.03852620481092029,0.0,0.0,-0.018308768667934783,-0.09232490515275872,-0.03943348399353186,0.37941147967999767,0.08631573018919932,-0.03949211165756796
3800,3.0,301.12391,785.52958,0.0,0.0,0.0,0.03853634595459256,0.0,0.0,-0.059569764727328035,-0.08317218356220542,-0.09603942935685372,0.42013352497145057,0.12633998661378587,-0.006429249709892545
3801,3.0,300.61892,1069.7678,0.0,0.0,0.0,0.03854648709826481,0.0,0.0,-0.1040338936123459,-0.1291201827681699,-0.09202861866451752,0.35674466964295765,0.10935662811015891,-0.02719468326865627
3802,3.0,300.26624,1001.2707,0.0,0.0,0.0,0.03855662824193708,0.0,0.0,-0.09305111365842991,-0.1023875749823669,-0.1089226024298239,0.36549696188674163,0.0887750533416656,-0.00873673480174859
3803,3.0,299.70217,1003.0168,0.0,0.0,0.0,0.03856676938560934,0.0,0.0,-0.09068145908681323,-0.08682827261978332,-0.12738233725665787,0.36206574241060663,0.08610885288978211,-0.01001895416729379
3804,3.0,300.10635,900.39321,0.0,0.0,0.0,0.0385769105292816,0.0,0.0,-0.06017444604250544,-0.09736560148523672,-0.1161570054938039,0.37366290656265766,0.10816102338966191,0.0003268627386913407
3805,3.0,300.64107,620.23334,0.0,0.0,0.0,0.038587051672953857,0.0,0.0,-0.06463112933534584,-0.042597105131506954,-0.08130721265339712,0.34824858781945967,0.06666492594931593,-0.0021954000750691177
3806,3.0,300.39027000000004,626.6023299999999,0.0,0.0,0.0,0.038597192816626116,0.0,0.0,-0.049034908192118656,-0.07177344316398733,-0.06966310969046363,0.3356233193209427,0.06894655745824543,-0.022819435899602978
3807,3.0,300.60937,788.97593,0.0,0.0,0.0,0.038607333960298376,0.0,0.0,-0.07902263967942733,-0.1019815251372929,-0.058824820214057744,0.36927494594459964,0.1183591525986389,-0.028156390349319372
3808,3.0,300.11046,691.7201,0.0,0.0,0.0,0.03861747510397064,0.0,0.0,-0.05272336755064125,-0.07392473828605363,-0.08361753332565802,0.4091707972370136,0.12205285451317889,-0.028289316603438176
3809,3.0,298.81632,602.5477099999999,0.0,0.0,0.0,0.0386276162476429,0.0,0.0,-0.025642646547232178,-0.0979539735268045,-0.059562837136394355,0.37214018417987665,0.07896438387817793,-0.028362903891950675
3810,3.0,300.56667000000004,882.9394199999999,0.0,0.0,0.0,0.03863775739131516,0.0,0.0,-0.046554101097782054,-0.1053827321454659,-0.1164546983731839,0.38165127915854863,0.03964093175275536,-0.003877366768741306
3811,3.0,300.89986,1009.4745,0.0,0.0,0.0,0.03864789853498742,0.0,0.0,-0.10758995563330191,-0.08589407325283502,-0.11337101354884789,0.39443275029248165,0.08652313437866851,0.0057499872091795546
3812,3.0,300.36332000000004,869.24919,0.0,0.0,0.0,0.03865803967865968,0.0,0.0,-0.0885079352840531,-0.08821899688553711,-0.08750311643813523,0.3838723132452477,0.12435532351041488,-0.023397188066872677
3813,3.0,301.31928999999997,836.50676,0.0,0.0,0.0,0.03866818082233195,0.0,0.0,-0.12257250995946488,-0.029104886675178677,-0.1025997698183089,0.34732394644070463,0.1084356344317639,0.02081397482467938
3814,3.0,301.21469,880.38714,0.0,0.0,0.0,0.03867832196600421,0.0,0.0,-0.07632006557545402,-0.0920178741604571,-0.09927776857045291,0.32128492861335367,0.09065316914402122,-0.006396117647522665
3815,3.0,301.67768,857.3981,0.0,0.0,0.0,0.03868846310967647,0.0,0.0,-0.06848462281715603,-0.08835138510385282,-0.1037916052484339,0.3457905444018697,0.11289810946217589,-0.004700335390061986
3816,3.0,301.7961,822.9830900000001,0.0,0.0,0.0,0.03869860425334873,0.0,0.0,-0.07660547482387173,-0.05895412409906904,-0.1146067125758019,0.3854463263480906,0.10653001496869391,-0.007024769724290794
3817,3.0,300.25176,699.0735,0.0,0.0,0.0,0.03870874539702099,0.0,0.0,-0.054194976532127744,-0.0974207891651833,-0.06088512243739374,0.3887402605681766,0.05113802833818045,-0.02175856912440358
3818,3.0,299.92624,437.0619,0.0,0.0,0.0,0.038718886540693255,0.0,0.0,-0.024176292280764275,-0.045515997999329254,-0.06316361287101323,0.38444162807893467,0.04669833826276716,-0.04276716497529055
3819,3.0,299.56275,732.90197,0.0,0.0,0.0,0.038729027684365515,0.0,0.0,-0.03544989831813257,-0.09729142955141651,-0.09004256943500973,0.40520606105322465,0.08762800457921072,-0.031525066963031874
3820,3.0,299.76403,935.0283300000001,0.0,0.0,0.0,0.038739168828037775,0.0,0.0,-0.07194162342883544,-0.11630414967332589,-0.09597949763993892,0.39057030170628765,0.12934651244300688,-0.029929278102289767
3821,3.0,299.74686,790.02632,0.0,0.0,0.0,0.038749309971710034,0.0,0.0,-0.05172096226646155,-0.07402225550217784,-0.11440505554089989,0.37758534968727264,0.09320978963734,0.00973181449035531
3822,3.0,299.84918999999996,704.71065,0.0,0.0,0.0,0.038759451115382294,0.0,0.0,-0.05867348928512254,-0.08436275749595591,-0.07117819318074073,0.33416849482736266,0.06985428971933164,0.0005647230780763285
3823,3.0,300.57794,1160.3202,0.0,0.0,0.0,0.03876959225905456,0.0,0.0,-0.1090578003906669,-0.1022743138861889,-0.14137624319524886,0.39062937418711763,0.1000027480037528,0.01108078150358799
3824,3.0,300.66694,1137.637,0.0,0.0,0.0,0.03877973340272682,0.0,0.0,-0.13712746261092687,-0.08084319375685202,-0.1278425858495809,0.36858601693660764,0.08133020431141622,0.0040619352393817965
3825,3.0,300.5124,874.6805099999999,0.0,0.0,0.0,0.03878987454639908,0.0,0.0,-0.08102984759752332,-0.1042606083222209,-0.08059058037442102,0.37865342675018365,0.06579190966315594,-0.03096988190198937
3826,3.0,301.21373,823.62459,0.0,0.0,0.0,0.03880001569007134,0.0,0.0,-0.07735879790221893,-0.05933382944154304,-0.11366868616322588,0.35312164192289264,0.06187212530680335,-0.015825770926881984
3827,3.0,300.3143,720.34048,0.0,0.0,0.0,0.0388101568337436,0.0,0.0,-0.03867404291108086,-0.09852698469685632,-0.08176449039702692,0.3595648689112897,0.12008229585119988,-0.03268392515540227
3828,3.0,300.62711,619.20914,0.0,0.0,0.0,0.03882029797741587,0.0,0.0,-0.04283216699570576,-0.0933526133184356,-0.05203933659363265,0.3790146402783326,0.1162031387708569,-0.02670376764820668
3829,3.0,300.19917000000004,687.71353,0.0,0.0,0.0,0.03883043912108813,0.0,0.0,-0.06677860855753553,-0.048601051724550356,-0.09366808063106981,0.37320305313727364,0.08380011187442712,-0.014111922217488287
3830,3.0,300.18821,688.8924099999999,0.0,0.0,0.0,0.03884058026476039,0.0,0.0,-0.052719219304731856,-0.09595148228792401,-0.06073539041711635,0.40026464296554465,0.05732735005026894,0.008926554238382312
3831,3.0,300.3855,543.85828,0.0,0.0,0.0,0.03885072140843265,0.0,0.0,-0.028429874657310176,-0.05765948228729785,-0.07922998104739033,0.37650937940608264,0.08787989855407072,-0.018653500669957183
3832,3.0,300.21095,896.1346900000001,0.0,0.0,0.0,0.038860862552104906,0.0,0.0,-0.07187446014595693,-0.07369273745040693,-0.1268353747201769,0.4080152057629656,0.1113857627604189,0.004274462421356596
3833,3.0,299.69811,1176.8494,0.0,0.0,0.0,0.03887100369577718,0.0,0.0,-0.1284172101137919,-0.11937730682912288,-0.10993832486006791,0.3550426323899797,0.08069528052050413,-0.02276025196126198
3834,3.0,299.61363,825.32802,0.0,0.0,0.0,0.03888114483944944,0.0,0.0,-0.0869572573310131,-0.053070199006870857,-0.1108516583677069,0.37104275326156866,0.08682706381241401,0.003045991515315957
3835,3.0,299.23567,618.5513599999999,0.0,0.0,0.0,0.0388912859831217,0.0,0.0,-0.07086604527543414,-0.096736903102939,-0.02042122084741758,0.36186422723071865,0.09635661311515731,-0.045219175501785155
3836,3.0,299.4768,887.42123,0.0,0.0,0.0,0.03890142712679396,0.0,0.0,-0.08233248699233382,-0.09237159673061682,-0.0950498102756859,0.4023426061381236,0.1106494541777509,-0.016919530840077683
3837,3.0,300.42919,749.90815,0.0,0.0,0.0,0.03891156827046621,0.0,0.0,-0.06368048491927454,-0.07321617249112362,-0.091056693969846,0.35576732912650166,0.06929770738640123,-0.039173007790324864
3838,3.0,300.51726,519.64187,0.0,0.0,0.0,0.038921709414138486,0.0,0.0,0.005535439707830364,-0.09401876243767941,-0.06947483059663193,0.36748490792043664,0.05035344041474765,-0.02219545217002058
3839,3.0,300.26355,553.77147,0.0,0.0,0.0,0.038931850557810746,0.0,0.0,-0.04151070040078716,-0.03814640913350746,-0.08867558764559912,0.35606620750849866,0.09933539311689,-0.017284536963350985
3840,3.0,300.29392,682.66755,0.0,0.0,0.0,0.038941991701483006,0.0,0.0,-0.04019172842761476,-0.08767078095868241,-0.07965137960497913,0.3945016816967846,0.12111646956576487,-0.004431882375442736
3841,3.0,300.36971,856.4027800000001,0.0,0.0,0.0,0.038952132845155266,0.0,0.0,-0.08967859784008851,-0.099810435161273,-0.07083602672797153,0.38534619697320865,0.09726475776903422,-0.01872396512166148
3842,3.0,299.54056,1141.4987,0.0,0.0,0.0,0.038962273988827525,0.0,0.0,-0.1088764792852719,-0.1005081601933831,-0.13760245399280488,0.40554153802883364,0.06584362594825995,0.022739863342749776
3843,3.0,298.84368,977.5468199999999,0.0,0.0,0.0,0.03897241513249979,0.0,0.0,-0.07514900278562912,-0.11564149424042688,-0.1063593329893489,0.3690179857192397,0.08437966458712451,-0.0028013326527950074
3844,3.0,298.47116,818.52522,0.0,0.0,0.0,0.03898255627617205,0.0,0.0,-0.04923999305210895,-0.07250562984524853,-0.12706560540789888,0.36456718332997967,0.09553746221756342,0.010630879207436092
3845,3.0,300.10979,1011.0751,0.0,0.0,0.0,0.03899269741984431,0.0,0.0,-0.10220536221688391,-0.08545026666928474,-0.11968596307458489,0.3257463194661587,0.07803436720764242,-0.015701845373401486
3846,3.0,300.70249,1012.3848,0.0,0.0,0.0,0.03900283856351657,0.0,0.0,-0.1140071522266299,-0.09895424186652331,-0.09477830991139091,0.32787057803580666,0.08311148785471523,-0.024046841474488476
3847,3.0,301.08713,582.24641,0.0,0.0,0.0,0.03901297970718883,0.0,0.0,-0.07155760569393584,-0.04807556705043905,-0.057355197202767244,0.36989901681369064,0.1141391280521549,-0.03889460111334826
3848,3.0,300.85774,512.7000099999999,0.0,0.0,0.0,0.0390231208508611,0.0,0.0,-0.05276616926136546,-0.07686587300682102,-0.026215956626063477,0.38645174402481763,0.1049037080281899,-0.04003516912816356
3849,3.0,300.67565,884.61384,0.0,0.0,0.0,0.03903326199453336,0.0,0.0,-0.06720893384850535,-0.08767632343672942,-0.11401525822742989,0.38391394769185666,0.07678301245339333,-0.003357845172793517
3850,3.0,300.54861,768.17034,0.0,0.0,0.0,0.03904340313820562,0.0,0.0,-0.05094278821616175,-0.07966308872313473,-0.1028987292603139,0.36822098345558163,0.05583014839775665,-0.007298930984673403
3851,3.0,299.63006,644.87298,0.0,0.0,0.0,0.03905354428187788,0.0,0.0,-0.006866501274570914,-0.1016139281335139,-0.08754485626275461,0.39926737181962163,0.09404395082191531,0.005921275720034414
3852,3.0,299.80903,998.9108,0.0,0.0,0.0,0.03906368542555014,0.0,0.0,-0.099041510057886,-0.09099133123239522,-0.1136111031600429,0.38125401419184163,0.11684580277928289,-0.016627247702981584
3853,3.0,299.83218,1010.6661,0.0,0.0,0.0,0.0390738265692224,0.0,0.0,-0.0987965608992114,-0.11898761084066288,-0.08943308024810782,0.3857332889089116,0.09124712925989051,-0.00893426517296832
3854,3.0,299.43115,666.75864,0.0,0.0,0.0,0.03908396771289466,0.0,0.0,-0.07062311349770863,-0.07573822291753063,-0.05631664219476985,0.3541218312291037,0.08014929779686983,-0.05652705573703604
3855,3.0,300.10102,829.9121299999999,0.0,0.0,0.0,0.03909410885656692,0.0,0.0,-0.05976894740548585,-0.06423427777467965,-0.12826933639419788,0.3959228054920386,0.08605945998715742,-0.005389381732415564
3856,3.0,299.64996,707.07911,0.0,0.0,0.0,0.03910425000023918,0.0,0.0,-0.06661723935985964,-0.05889797180502725,-0.08941918250973623,0.37581744104529363,0.09450887860380011,-0.01021411018955419
3857,3.0,299.61972000000003,522.50247,0.0,0.0,0.0,0.03911439114391144,0.0,0.0,-0.02306364639895468,-0.03721846658592667,-0.0985455910084426,0.37148291923750965,0.08682070769453672,0.007989978799949513
3858,3.0,299.90135,720.2785200000001,0.0,0.0,0.0,0.0391245322875837,0.0,0.0,-0.08395383711334863,-0.07538137244431223,-0.059611476180944645,0.3350269304445837,0.09082383288486441,-0.009756322477149061
3859,3.0,298.79952000000003,863.16391,0.0,0.0,0.0,0.03913467343125596,0.0,0.0,-0.08725795449693961,-0.09379525263787071,-0.08132706728910662,0.37235342266342164,0.13245486990727787,-0.005996249641308765
3860,3.0,298.01294,763.54797,0.0,0.0,0.0,0.03914481457492822,0.0,0.0,-0.09194408320867452,-0.08676207699075032,-0.05339335688776405,0.36411578041042963,0.11581827598537388,-0.03395832628317587
3861,3.0,299.36744,977.6546400000001,0.0,0.0,0.0,0.03915495571860048,0.0,0.0,-0.05333680435993275,-0.12505661416962688,-0.11878917594107888,0.36752520487691365,0.07146383952968183,-0.02342144527426668
3862,3.0,299.15525,1063.6556,0.0,0.0,0.0,0.03916509686227274,0.0,0.0,-0.09002253646728262,-0.1020316506197399,-0.13127054266039387,0.35258380876981266,0.04960728506760786,0.02141754055149668
3863,3.0,299.46334,761.16778,0.0,0.0,0.0,0.03917523800594501,0.0,0.0,-0.035271422419018365,-0.08198399583244043,-0.1141205855753249,0.3932371253069826,0.09556096759338321,0.004975172285611276
3864,3.0,300.3148,793.0794900000001,0.0,0.0,0.0,0.03918537914961727,0.0,0.0,-0.08333625712439822,-0.08152196290609133,-0.07621814173464493,0.39940581218078464,0.10027540347316181,0.003037874875389907
3865,3.0,300.41288,1004.8496,0.0,0.0,0.0,0.03919552029328953,0.0,0.0,-0.1096738665839679,-0.08461216900807092,-0.11116314158094791,0.39034624171167465,0.07523350379096873,-0.012216636892188189
3866,3.0,300.69614,709.43665,0.0,0.0,0.0,0.03920566143696179,0.0,0.0,-0.07570508254650994,-0.08067932183142913,-0.05926662258891024,0.36367976875989866,0.07879208475167333,-0.02910978269966187
3867,3.0,300.16346,506.05069000000003,0.0,0.0,0.0,0.03921580258063405,0.0,0.0,-0.00048665834882943956,-0.07093001175424714,-0.08241010498974412,0.36382471418670365,0.10521924424183089,-0.04177831900394906
3868,3.0,300.0962,791.90636,0.0,0.0,0.0,0.039225943724306316,0.0,0.0,-0.06700118008775163,-0.08094348829150033,-0.09277509217218873,0.3625641094722917,0.10063356103900921,0.001917036765196798
3869,3.0,299.38611000000003,735.92038,0.0,0.0,0.0,0.039236084867978575,0.0,0.0,-0.057183313508803645,-0.09152735674729681,-0.07499075034526083,0.3385049722078397,0.08002750614809992,-0.03754080272098876
3870,3.0,299.93997,666.77748,0.0,0.0,0.0,0.039246226011650835,0.0,0.0,-0.06338238370010424,-0.08741663351560001,-0.051884686257369854,0.3779311516814006,0.08144963407420301,-0.012709154461045888
3871,3.0,300.09652,784.76352,0.0,0.0,0.0,0.039256367155323095,0.0,0.0,-0.05257003241300825,-0.12527155491333986,-0.06070692720855724,0.40762543884699864,0.1133388833881769,-0.04053136378163416
3872,3.0,299.88652,970.27251,0.0,0.0,0.0,0.039266508298995355,0.0,0.0,-0.08876709223562991,-0.11122497010204989,-0.094946550971245,0.41916117977798756,0.12671962102875287,-0.016595432663091682
3873,3.0,300.6718,785.56829,0.0,0.0,0.0,0.03927664944266762,0.0,0.0,-0.03768714035343117,-0.08217314733460822,-0.11893285480525889,0.36676307868169766,0.06522877768157914,-0.03392987523361797
3874,3.0,301.83252000000005,773.69617,0.0,0.0,0.0,0.03928679058633988,0.0,0.0,-0.06233584124156854,-0.09299491982113402,-0.07985355441068222,0.3693516084471657,0.058344846681438044,0.030145536071132774
3875,3.0,300.46696000000003,846.72995,0.0,0.0,0.0,0.03929693173001214,0.0,0.0,-0.06787458647520014,-0.07245871028611793,-0.1170514621520799,0.3618553308948407,0.07060361755253453,0.0067749252504080626
3876,3.0,300.12043,904.9196800000001,0.0,0.0,0.0,0.0393070728736844,0.0,0.0,-0.0964469585470737,-0.08920365914721573,-0.08942236918130073,0.3826493001095456,0.08714410064945312,0.024242080583257077
3877,3.0,301.16357,988.77678,0.0,0.0,0.0,0.03931721401735666,0.0,0.0,-0.1036618991031329,-0.09510034511117331,-0.1018012071494969,0.35385423187769366,0.07998011137467242,-0.02025295952256148
3878,3.0,300.20592,1083.2253,0.0,0.0,0.0,0.03932735516102893,0.0,0.0,-0.1121352841243909,-0.09513170925476871,-0.12200644765859887,0.3586860568345577,0.09779715990157821,-0.01028522717432289
3879,3.0,299.39772999999997,766.8384900000001,0.0,0.0,0.0,0.03933749630470119,0.0,0.0,-0.03205248795808427,-0.1115672763833329,-0.08947999372773782,0.3874369676270516,0.13935339069560887,-0.04564333921889686
3880,3.0,298.81909,695.56871,0.0,0.0,0.0,0.03934763744837345,0.0,0.0,-0.051673584718285745,-0.07727926891512002,-0.08248266585590533,0.37484913871972964,0.11085846740837889,-0.012322231738109589
3881,3.0,299.47668999999996,872.4735900000001,0.0,0.0,0.0,0.03935777859204571,0.0,0.0,-0.06474367203720294,-0.06695841080103064,-0.13350810285622386,0.3826418223238076,0.07488764201508483,0.017206738607422882
3882,3.0,300.65038,661.32468,0.0,0.0,0.0,0.03936791973571797,0.0,0.0,-0.06215836035405253,-0.07935034907976972,-0.05951748203541815,0.35894584402769664,0.05830205510321485,0.005018658750753056
3883,3.0,299.9147,556.16323,0.0,0.0,0.0,0.039378060879390234,0.0,0.0,-0.005298542138425395,-0.07274342444496702,-0.09101776895400442,0.4002356336151816,0.08668438299958252,0.004354175921298706
3884,3.0,298.94707,903.9635300000001,0.0,0.0,0.0,0.039388202023062494,0.0,0.0,-0.0891341035808511,-0.08382954678983212,-0.10181868571372191,0.38835313823497064,0.10141307156619091,-0.024470527950803077
3885,3.0,299.31352000000004,1087.7958,0.0,0.0,0.0,0.03939834316673475,0.0,0.0,-0.07408407389077884,-0.1253582891218999,-0.13122040704544588,0.3832053920294276,0.08455101632478562,-0.026471280452511972
3886,3.0,299.60154,916.0788,0.0,0.0,0.0,0.03940848431040701,0.0,0.0,-0.1129696854492399,-0.08975915426278883,-0.07573623796058473,0.37842646886028464,0.08413164730714712,-0.03697282233768347
3887,3.0,299.49642,863.7669599999999,0.0,0.0,0.0,0.03941862545407927,0.0,0.0,-0.06664886796173114,-0.11995868947150089,-0.07595603419877693,0.39394397870924364,0.0970283695604545,-0.03449162007580786
3888,3.0,299.97706,677.60198,0.0,0.0,0.0,0.03942876659775155,0.0,0.0,-0.10150157896242591,-0.07534683277490344,-0.029125665394979374,0.4059549542021346,0.09041321834808991,-0.04206148896964576
3889,3.0,300.49805,596.19685,0.0,0.0,0.0,0.0394389077414238,0.0,0.0,-0.02508535797898208,-0.07915101745384723,-0.07699257993182601,0.3895843586964826,0.07023620090727334,-0.024407030606786374
3890,3.0,300.58404,598.13129,0.0,0.0,0.0,0.03944904888509606,0.0,0.0,-0.03463666784087297,-0.07308880087405302,-0.07409150709351243,0.3613244689024487,0.094839480833178,-0.027093639942184077
3891,3.0,299.81694,635.31978,0.0,0.0,0.0,0.03945919002876832,0.0,0.0,-0.008572226048637843,-0.053853391684915944,-0.13069573601116488,0.37155682569980364,0.12496494543307989,0.0044661727853269355
3892,3.0,300.15181,702.6352,0.0,0.0,0.0,0.03946933117244058,0.0,0.0,-0.050987993356123154,-0.07572531917750713,-0.08687024245217541,0.3286878756989677,0.12491858924100488,-0.007568631512815773
3893,3.0,300.26966,1031.8434,0.0,0.0,0.0,0.03947947231611285,0.0,0.0,-0.097902981715522,-0.1037040401747919,-0.11204759746073688,0.3696788375669607,0.08202488452697583,0.015397646415129385
3894,3.0,299.86817,1197.4517,0.0,0.0,0.0,0.03948961345978511,0.0,0.0,-0.16168419686698784,-0.0930169691565601,-0.1092942524340029,0.3636482364167867,0.05809673111620094,0.011630532504344189
3895,3.0,299.34548,923.9236599999999,0.0,0.0,0.0,0.03949975460345737,0.0,0.0,-0.07473035520206184,-0.10445741188914388,-0.1016619561882539,0.4099897768953406,0.08209380174577742,-0.005540593908439045
3896,3.0,299.05383,806.13486,0.0,0.0,0.0,0.03950989574712963,0.0,0.0,-0.06184591961946704,-0.08129896682408332,-0.1018999787692449,0.4036886784984706,0.07867688632130412,-0.02248543928239008
3897,3.0,299.63322,939.6628800000001,0.0,0.0,0.0,0.03952003689080189,0.0,0.0,-0.06903353282032923,-0.08447266676080313,-0.13212785357000387,0.4014870177536836,0.07822552393175813,-0.0015830357910084686
3898,3.0,299.82682,713.23199,0.0,0.0,0.0,0.03953017803447416,0.0,0.0,-0.07135152987534772,-0.07592956911941502,-0.06952361858894693,0.3679804885443466,0.06668884878417693,-0.03585428339329226
3899,3.0,299.00593,481.76800000000003,0.0,0.0,0.0,0.03954031917814642,0.0,0.0,-0.03573775355229167,-0.04514617995133105,-0.06556150773616704,0.3666002291256257,0.10580189344683388,-0.013515696474395385
3900,3.0,299.55377999999996,678.23105,0.0,0.0,0.0,0.039550460321818665,0.0,0.0,-0.09157313133381441,-0.06618976535467123,-0.048402407082195655,0.3659199228759847,0.1070165168717079,-0.02476324171919168
3901,3.0,299.70949,877.68926,0.0,0.0,0.0,0.03956060146549094,0.0,0.0,-0.06778995780034794,-0.09248508378156711,-0.1065205816102629,0.38683552263269366,0.08300927422437752,-0.02043449341047748
3902,3.0,300.66645,797.8604,0.0,0.0,0.0,0.0395707426091632,0.0,0.0,-0.04832046352010846,-0.07261514090280644,-0.12159403460289689,0.3966557399518736,0.07779053870357842,-0.0016962757102593783
3903,3.0,300.53112000000004,1001.4486,0.0,0.0,0.0,0.03958088375283546,0.0,0.0,-0.03332815767498307,-0.13683239404930586,-0.1342548276499199,0.37982537208084566,0.10917021035676089,-0.011793758989453387
3904,3.0,300.35121000000004,960.34229,0.0,0.0,0.0,0.039591024896507725,0.0,0.0,-0.07615114563803294,-0.0915247131777859,-0.12424422063694987,0.36870711045605864,0.11282716169017389,-0.0033819585999983266
3905,3.0,300.25613,665.90276,0.0,0.0,0.0,0.039601166040179984,0.0,0.0,-0.07448505545885263,-0.08707554414768712,-0.04085721082829276,0.35238257729995265,0.07189890987086993,-0.03377548732913107
3906,3.0,299.84807,652.06987,0.0,0.0,0.0,0.039611307183852244,0.0,0.0,-0.0911506333998671,-0.07530675468044802,-0.03175557122828086,0.37478591191348964,0.06925614690704954,-0.019695922240336183
3907,3.0,299.32085,580.65491,0.0,0.0,0.0,0.039621448327524504,0.0,0.0,-0.05495233335912305,-0.06024457206867634,-0.061307689272347844,0.3763038314907966,0.07721072659885542,-0.043490034821882254
3908,3.0,299.70187000000004,565.08752,0.0,0.0,0.0,0.039631589471196764,0.0,0.0,-0.01948019318804538,-0.09752970848468281,-0.05476259619839745,0.3804935699917916,0.0879937817858101,-0.03835468370481257
3909,3.0,299.74451,754.49472,0.0,0.0,0.0,0.039641730614869024,0.0,0.0,-0.04315578286564416,-0.05982625683114185,-0.1263655103838049,0.35418424743526367,0.07458649192636363,-0.024560502533182874
3910,3.0,299.50135,923.9998099999999,0.0,0.0,0.0,0.039651871758541284,0.0,0.0,-0.08479487016010212,-0.0907075168396349,-0.1053704819517569,0.3731342129254796,0.1031040745255799,0.0026617032426396576
3911,3.0,299.0606,679.24017,0.0,0.0,0.0,0.03966201290221354,0.0,0.0,-0.06360793519886443,-0.07255044589717154,-0.07031366995691894,0.39147351284542764,0.1260038814231149,0.011339042742076387
3912,3.0,300.72862000000003,857.18033,0.0,0.0,0.0,0.0396721540458858,0.0,0.0,-0.08535073004571123,-0.09214504920700832,-0.08306563626119001,0.4029003091256646,0.11797691413091489,0.012838314464542987
3913,3.0,300.95588,1216.4080000000001,0.0,0.0,0.0,0.03968229518955807,0.0,0.0,-0.11677926264521589,-0.1004932492049115,-0.15248515252161285,0.36425710853437765,0.07740997007201922,0.02279489194243068
3914,3.0,301.33396,1075.5627,0.0,0.0,0.0,0.03969243633323033,0.0,0.0,-0.08391185005570483,-0.1088929749968999,-0.13413937793352587,0.3952616598017886,0.04526529864633716,0.01877853066604668
3915,3.0,300.61335,535.13618,0.0,0.0,0.0,0.03970257747690259,0.0,0.0,-0.007496465307568523,-0.06784817509809353,-0.0873233952546481,0.3673316437103107,0.09845356155486,0.003467870961402216
3916,3.0,300.9572,632.3671,0.0,0.0,0.0,0.03971271862057485,0.0,0.0,-0.054876755034164046,-0.09022316302683292,-0.047123891145765956,0.3795671554253616,0.10803178333940691,-0.01860438134485948
3917,3.0,299.36101,792.10187,0.0,0.0,0.0,0.03972285976424711,0.0,0.0,-0.0909480391086226,-0.0943490282680241,-0.05548212130640904,0.36754229840610064,0.10677083411996091,-0.03837800264261396
3918,3.0,299.76411,636.61455,0.0,0.0,0.0,0.039733000907919376,0.0,0.0,-0.08356897230136542,-0.05963713471322695,-0.05030881992009396,0.36988248057205864,0.09288568335435322,-0.05257621222536816
3919,3.0,298.87847999999997,674.2051700000001,0.0,0.0,0.0,0.039743142051591636,0.0,0.0,-0.02040852178391428,-0.1077323476698549,-0.07680066529663551,0.4138149986728606,0.0927856593574816,-0.06708320167009654
3920,3.0,299.59103,555.31623,0.0,0.0,0.0,0.039753283195263896,0.0,0.0,-0.018989143818582584,-0.05742052042346414,-0.09239260343169,0.39861453478019165,0.08422638720474722,-0.027550351279007974
3921,3.0,299.45448999999996,642.44697,0.0,0.0,0.0,0.039763424338936156,0.0,0.0,-0.005774830176456364,-0.0990490334398785,-0.09046397305884901,0.37879117810127866,0.07093780871376663,-0.03056009417729647
3922,3.0,299.58532,1062.7623,0.0,0.0,0.0,0.039773565482608415,0.0,0.0,-0.11582800318633388,-0.09822608690741,-0.1089990926798729,0.3508744963811167,0.08147640819484542,0.027312517162535573
3923,3.0,299.60509,1026.4541,0.0,0.0,0.0,0.03978370662628068,0.0,0.0,-0.1041830946895709,-0.1077782175018819,-0.10005508541116809,0.34621552175881165,0.13503356101427488,0.00011973432550185789
3924,3.0,300.57167999999996,715.37624,0.0,0.0,0.0,0.03979384776995294,0.0,0.0,-0.06542404617460064,-0.11040958748157789,-0.04162288238560866,0.3876895404794786,0.1079565596519829,-0.003736290032143116
3925,3.0,301.56928,853.61864,0.0,0.0,0.0,0.0398039889136252,0.0,0.0,-0.06627326526891203,-0.1022245633062789,-0.09098092920686861,0.36486938517230466,0.07713808163293592,-0.019653638300413084
3926,3.0,300.92453,1163.7413,0.0,0.0,0.0,0.03981413005729746,0.0,0.0,-0.1118552521942539,-0.12193449676899787,-0.11995853748398588,0.3962212481764926,0.08588092126653701,-0.02217812052706008
3927,3.0,300.90103,963.9931,0.0,0.0,0.0,0.03982427120096972,0.0,0.0,-0.09164667201282231,-0.07487491762032902,-0.1265082367928909,0.38832953964014166,0.09176007496401431,-0.012020174790548888
3928,3.0,300.38934,585.15092,0.0,0.0,0.0,0.03983441234464199,0.0,0.0,-0.06123610619253315,-0.057725557339568946,-0.05890960492942535,0.39002586216255564,0.1189867495780779,-0.024506898563142577
3929,3.0,299.60962,673.3602900000001,0.0,0.0,0.0,0.03984455348831425,0.0,0.0,-0.07457493986197353,-0.052645518532208155,-0.07746425697262693,0.35935382918046166,0.08550013073320592,0.00988689150623522
3930,3.0,299.84353,883.56735,0.0,0.0,0.0,0.03985469463198651,0.0,0.0,-0.07753434044229363,-0.07156489602840534,-0.1194831711995709,0.37067174160495264,0.09557619370263591,-0.014095786209645788
3931,3.0,299.93709,899.4545,0.0,0.0,0.0,0.03986483577565877,0.0,0.0,-0.058749665427640534,-0.0970462828089724,-0.11761576139777188,0.3811194140485576,0.09665593935369851,-0.0019454014858461782
3932,3.0,299.67965,888.0863199999999,0.0,0.0,0.0,0.03987497691933103,0.0,0.0,-0.055477035804157145,-0.08588307746274983,-0.12859594743143188,0.3942639630908236,0.08000310505919173,-0.012281399785579789
3933,3.0,299.30859,963.44715,0.0,0.0,0.0,0.039885118063003294,0.0,0.0,-0.06391382628480353,-0.11530816535502988,-0.11364188569808088,0.38708735581254766,0.06777455842532813,0.027454681217816076
3934,3.0,299.79472999999996,931.38542,0.0,0.0,0.0,0.039895259206675554,0.0,0.0,-0.1012011695595278,-0.10671104223155989,-0.07520570223472492,0.39975066171981866,0.09580793109325661,0.014835977566696986
3935,3.0,300.41848999999996,1123.8635,0.0,0.0,0.0,0.039905400350347814,0.0,0.0,-0.10752824870221189,-0.12931253816715388,-0.1047856441265379,0.4057875146231096,0.11619437415749188,-0.008122063752510282
3936,3.0,300.59027000000003,1037.5873,0.0,0.0,0.0,0.039915541494020074,0.0,0.0,-0.09725357148793021,-0.12032950861059788,-0.0978175495333405,0.3611592888711467,0.0944487391706148,-0.014865205779081589
3937,3.0,299.68769,468.7466,0.0,0.0,0.0,0.039925682637692333,0.0,0.0,-0.009783372201818661,-0.07718383798095173,-0.05552005131065245,0.36792416197128763,0.06048094102550415,-0.06041205015120514
3938,3.0,300.8914,354.87705,0.0,0.0,0.0,0.0399358237813646,0.0,0.0,-0.02962056815457247,-0.03821624638339986,-0.040036947382089065,0.3661826687594157,0.06929951705107984,-0.04750929905980275
3939,3.0,301.2024,646.2493599999999,0.0,0.0,0.0,0.03994596492503686,0.0,0.0,-0.04843897831805495,-0.06444903410687444,-0.08355565718180132,0.3816235870333156,0.08084175190195972,-0.061826823908082446
3940,3.0,300.77981,580.944,0.0,0.0,0.0,0.03995610606870912,0.0,0.0,-0.058833695271683646,-0.04526180495999236,-0.07249696757014364,0.38823455757576764,0.08295446651321843,-0.011701624157860387
3941,3.0,300.3428,529.1985,0.0,0.0,0.0,0.03996624721238138,0.0,0.0,-0.013832855914696589,-0.07023723746212564,-0.07679303754988273,0.34945369682589467,0.0937835982352205,-0.013371592045173386
3942,3.0,299.39157,917.1450800000001,0.0,0.0,0.0,0.03997638835605364,0.0,0.0,-0.06955166028546445,-0.09544181140812341,-0.11379572746076388,0.39867796423645163,0.12971365348424088,0.026453836338790372
3943,3.0,299.48626,1241.0629,0.0,0.0,0.0,0.039986529499725906,0.0,0.0,-0.1175550474517799,-0.1043642739399519,-0.15533281086765485,0.3937754144226076,0.13346738033470487,0.015626627765478088
3944,3.0,300.15262,1293.367,0.0,0.0,0.0,0.039996670643398166,0.0,0.0,-0.11761138415733988,-0.13805807203277087,-0.13748180630339787,0.3903498590145316,0.11171366062527989,0.006756314683171344
3945,3.0,299.82003,954.7389999999999,0.0,0.0,0.0,0.040006811787070426,0.0,0.0,-0.09796767469465671,-0.08967087079482591,-0.1025782686511869,0.36550108581464863,0.057641340044257354,0.01177818634866649
3946,3.0,299.4882,660.54516,0.0,0.0,0.0,0.040016952930742686,0.0,0.0,-0.07590110287110563,-0.06799280337761723,-0.056895326552131545,0.3677909601131416,0.08598607737516512,0.003337122080423307
3947,3.0,300.60854,593.74015,0.0,0.0,0.0,0.040027094074414946,0.0,0.0,-0.04524702670728386,-0.08375460782568622,-0.05148054638873436,0.36957520234673263,0.07879345365255842,-0.014930358773761686
3948,3.0,300.01599999999996,612.74242,0.0,0.0,0.0,0.04003723521808722,0.0,0.0,-0.03907888293553546,-0.05024553231884795,-0.096933980247389,0.3985368995575296,0.07912236983376993,-0.032980967528218066
3949,3.0,299.78472,659.87023,0.0,0.0,0.0,0.04004737636175948,0.0,0.0,-0.03701064595066637,-0.07658981200382593,-0.08698361601911452,0.4078965339112536,0.08768632320196632,-0.04215670813454316
3950,3.0,300.22199,525.78292,0.0,0.0,0.0,0.04005751750543173,0.0,0.0,-0.03135222473447367,-0.06986899197828263,-0.05860366115448105,0.4162845424790856,0.12022146575243489,-0.05287205389681545
3951,3.0,301.16177000000005,564.18195,0.0,0.0,0.0,0.04006765864910399,0.0,0.0,-0.060297660294415745,-0.06581020085396114,-0.04538936402833146,0.42481492281846855,0.12511815898070086,-0.044024259791356164
3952,3.0,301.52294,895.6745800000001,0.0,0.0,0.0,0.04007779979277625,0.0,0.0,-0.1037250651143669,-0.10763490340773789,-0.06090274083013254,0.3903749876170116,0.09038958226300721,-0.0055656805623649054
3953,3.0,300.17307,994.1533,0.0,0.0,0.0,0.040087940936448525,0.0,0.0,-0.07285283823051535,-0.12172599016341987,-0.10761894471866289,0.3735066937947406,0.07666608035210302,-0.0008949334329780533
3954,3.0,299.57041,916.36834,0.0,0.0,0.0,0.040098082080120785,0.0,0.0,-0.04855230628873955,-0.12303362994747388,-0.1069671513268359,0.3544602162324997,0.09351954728566071,0.02078364723593628
3955,3.0,299.71858,817.19871,0.0,0.0,0.0,0.040108223223793045,0.0,0.0,-0.03066522698117227,-0.10242149859571491,-0.11532127681132388,0.35149235602709467,0.10388481412513291,-0.024794687936045178
3956,3.0,299.54253,749.01865,0.0,0.0,0.0,0.040118364367465305,0.0,0.0,-0.04811562285339225,-0.07267804144251423,-0.10688930332165289,0.3699768141563686,0.08808203688277022,0.0013033937595099488
3957,3.0,298.56579,710.59735,0.0,0.0,0.0,0.040128505511137565,0.0,0.0,-0.06969232777034723,-0.08919344153320732,-0.05711808046736565,0.35928481671615065,0.09060705613197022,-0.04993411192711315
3958,3.0,299.51993,796.14039,0.0,0.0,0.0,0.040138646654809824,0.0,0.0,-0.0990568466113996,-0.06586237310161014,-0.07708758023470183,0.4060487304988896,0.09680341283950301,-0.022350521991824777
3959,3.0,300.50057999999996,607.54333,0.0,0.0,0.0,0.04014878779848208,0.0,0.0,-0.06036159840222595,-0.05080010841658035,-0.07351629514424343,0.3864873901633356,0.08104316271708742,-0.03566745223385347
3960,3.0,300.74733,493.64646,0.0,0.0,0.0,0.04015892894215435,0.0,0.0,-0.025655097364460977,-0.062184993632931035,-0.06221610750375174,0.4036861453732206,0.05952687385059505,-0.037890855299286264
3961,3.0,300.35551,890.08824,0.0,0.0,0.0,0.04016907008582661,0.0,0.0,-0.05397820281898385,-0.07248687559914763,-0.14409952509151586,0.3952877915218676,0.059578806971220435,-0.003069159174877427
3962,3.0,300.3251,1226.5784,0.0,0.0,0.0,0.04017921122949887,0.0,0.0,-0.12541042083954487,-0.11371847727313987,-0.13372031795716788,0.40013999293824265,0.0925802735622116,-0.016501543895575586
3963,3.0,300.33912000000004,984.76673,0.0,0.0,0.0,0.04018935237317113,0.0,0.0,-0.10988179563698891,-0.10320340343288291,-0.08625929418512951,0.3877526558282076,0.09921553576256101,0.00967938052020548
3964,3.0,300.25076,866.4815199999999,0.0,0.0,0.0,0.04019949351684339,0.0,0.0,-0.1103001260732749,-0.0915108488766676,-0.06157777209975294,0.3500258183623587,0.08857878173104511,0.017679094525790785
3965,3.0,298.82742,1006.158,0.0,0.0,0.0,0.04020963466051565,0.0,0.0,-0.08870229489173491,-0.0990303268165323,-0.1181142905794729,0.39005191282262663,0.09122033994049661,0.02326157771323898
3966,3.0,299.39012,840.9246199999999,0.0,0.0,0.0,0.04021977580418791,0.0,0.0,-0.05696424377093314,-0.087738208699837,-0.1109176310817179,0.3946883021002026,0.1121602708718569,-0.004220469971227956
3967,3.0,300.23992999999996,606.65092,0.0,0.0,0.0,0.04022991694786017,0.0,0.0,0.00988088556759248,-0.07554036253075333,-0.11874725778444188,0.41677306074979864,0.11862092576197389,-0.017207642426512085
3968,3.0,300.62813,620.08638,0.0,0.0,0.0,0.04024005809153244,0.0,0.0,-0.03068728239609897,-0.07922657754030442,-0.07857691703993792,0.35585106411476564,0.07119636987428463,-0.027151030427848076
3969,3.0,299.98176,414.38007999999996,0.0,0.0,0.0,0.040250199235204696,0.0,0.0,-0.03189652242319167,-0.04371420222100587,-0.050350472605204755,0.36838792654205765,0.08947088967558932,-0.046914734033623756
3970,3.0,299.63723,568.9416200000001,0.0,0.0,0.0,0.040260340378876956,0.0,0.0,-0.05409786360279345,-0.08142474358549652,-0.03742143881945847,0.3876524149958146,0.11245502532594691,-0.057820322568421546
3971,3.0,301.29192,1050.1728,0.0,0.0,0.0,0.040270481522549216,0.0,0.0,-0.09321388316774401,-0.13136495730471187,-0.0946474658862276,0.3939502608598636,0.08309255325009653,-0.04620947548702016
3972,3.0,300.48957,923.1583199999999,0.0,0.0,0.0,0.040280622666221476,0.0,0.0,-0.07194549404421743,-0.10625994328703989,-0.1024116396722419,0.3781137697469236,0.04586684395245506,-0.02042290689558398
3973,3.0,299.91994,707.96066,0.0,0.0,0.0,0.04029076380989374,0.0,0.0,-0.017811035900812382,-0.1050581172109289,-0.09233321177707851,0.40386746647861566,0.05531664641932795,-0.00982932795745414
3974,3.0,299.99466,984.9321800000001,0.0,0.0,0.0,0.040300904953566,0.0,0.0,-0.10664353950989791,-0.0909005480764356,-0.1018507044168819,0.42810470271314466,0.12797308232995988,0.007942626583026212
3975,3.0,299.54421,1117.2002,0.0,0.0,0.0,0.04031104609723826,0.0,0.0,-0.11877149472683388,-0.1082530264987419,-0.11257643295292888,0.38132364473871366,0.13526871609748287,0.032874284451689266
3976,3.0,298.83172,759.1165,0.0,0.0,0.0,0.04032118724091052,0.0,0.0,-0.08710686978777872,-0.0897472556668645,-0.05389833641960164,0.34776348420158365,0.09428118205457821,-0.018126319815178482
3977,3.0,299.05478,819.23948,0.0,0.0,0.0,0.04033132838458278,0.0,0.0,-0.07456295919279113,-0.08097805734516202,-0.09348732897223101,0.3443849435981477,0.09662620451626391,0.014848815445463986
3978,3.0,298.68417,811.41787,0.0,0.0,0.0,0.04034146952825505,0.0,0.0,-0.061831746277068236,-0.08538052162515142,-0.09943850347356621,0.38687507991659764,0.10578315845248489,-0.04440455788513866
3979,3.0,300.51077999999995,697.34632,0.0,0.0,0.0,0.04035161067192731,0.0,0.0,-0.008041500946334351,-0.07605375203842092,-0.12788061312583388,0.4123156621023876,0.07581564130467122,-0.017950953580621182
3980,3.0,300.13043999999996,673.89603,0.0,0.0,0.0,0.04036175181559957,0.0,0.0,-0.051932222885811355,-0.060010533587078536,-0.09290480743674061,0.3788757034246207,0.04949016044879855,-0.024107426737717777
3981,3.0,300.27754,842.6582800000001,0.0,0.0,0.0,0.04037189295927183,0.0,0.0,-0.08251730077082352,-0.06542623682131683,-0.1082035393638579,0.40527580305760763,0.08482898629096912,0.014608484680745186
3982,3.0,300.40937,810.80348,0.0,0.0,0.0,0.04038203410294409,0.0,0.0,-0.08671257668361501,-0.1030188500596689,-0.056732589466820645,0.3887802130196196,0.13163425891628985,-0.01782951656938628
3983,3.0,300.11071,829.63041,0.0,0.0,0.0,0.040392175246616355,0.0,0.0,-0.09335080061400672,-0.08433426591639402,-0.07450186325151144,0.40418080393953965,0.12225279915541187,-0.006603191314809243
3984,3.0,299.28298,1224.269,0.0,0.0,0.0,0.040402316390288615,0.0,0.0,-0.09091562625117372,-0.15190853215470485,-0.12932304557069088,0.3918261441452296,0.061837449861881146,-0.013876344608988586
3985,3.0,300.22987,1137.996,0.0,0.0,0.0,0.040412457533960874,0.0,0.0,-0.09280756785114382,-0.11700045514204589,-0.13611434423343988,0.39517059901530166,0.06694296886950664,0.012744296001014089
3986,3.0,299.12211,588.3408,0.0,0.0,0.0,0.040422598677633134,0.0,0.0,-0.029635839860079675,-0.07441994603392683,-0.07478512744946743,0.4075860031531066,0.08740907061685362,-0.0010804141934785789
3987,3.0,299.84103,557.7173700000001,0.0,0.0,0.0,0.040432739821305394,0.0,0.0,-0.029980380357833174,-0.07328687201685113,-0.06626490088933654,0.37540205916679864,0.08935332631948673,-0.0015254121564964584
3988,3.0,299.24658999999997,599.67818,0.0,0.0,0.0,0.04044288096497766,0.0,0.0,-0.04396345059985476,-0.07701672264195872,-0.06130702052728185,0.3600197168811797,0.09172931269097832,-0.034997835772767466
3989,3.0,298.96682999999996,617.23768,0.0,0.0,0.0,0.04045302210864992,0.0,0.0,-0.03402342658885077,-0.08096027480590702,-0.07264113988712233,0.3672430552540677,0.12101312818806588,-0.04333351402593486
3990,3.0,299.65841,753.9322099999999,0.0,0.0,0.0,0.04046316325232218,0.0,0.0,-0.056954027170174844,-0.08546042956778772,-0.08676211042800361,0.3949843129844166,0.1269825898272059,-0.07180968205381384
3991,3.0,300.25445,740.42742,0.0,0.0,0.0,0.04047330439599444,0.0,0.0,-0.06154638870440564,-0.07254455587434024,-0.09098050364182661,0.3857476162653256,0.08964761974478122,-0.03154250398400277
3992,3.0,299.29236000000003,581.47839,0.0,0.0,0.0,0.0404834455396667,0.0,0.0,-0.02895497936263397,-0.059710583186475735,-0.08808934849549181,0.39085196496908564,0.03860014050178726,-0.025697993307444475
3993,3.0,299.40047000000004,1026.2691,0.0,0.0,0.0,0.04049358668333897,0.0,0.0,-0.08579534722934151,-0.1042787860290149,-0.12188604314921588,0.38452878785253664,0.061720296872069036,0.028932009996117076
3994,3.0,299.94812,1216.3112,0.0,0.0,0.0,0.04050372782701123,0.0,0.0,-0.11545236097676088,-0.1000108621105536,-0.15426500738227086,0.3865498063694956,0.07488883663695273,0.035030451280236366
3995,3.0,300.21186,745.38077,0.0,0.0,0.0,0.040513868970683486,0.0,0.0,-0.07096991658293543,-0.06992480280704073,-0.08568242253219673,0.37879711574686464,0.10043395076930921,0.00887196812502008
3996,3.0,300.59657000000004,603.63584,0.0,0.0,0.0,0.040524010114355746,0.0,0.0,-0.029032512247035874,-0.0904958255889926,-0.06396188271054634,0.36268435186165865,0.10409973460384389,-0.007065541692414674
3997,3.0,299.04956,782.8969900000001,0.0,0.0,0.0,0.040534151258028006,0.0,0.0,-0.08462441717527971,-0.07040904617558183,-0.08294767064479772,0.4053000298674986,0.13133587702684188,-0.024367838092918377
3998,3.0,298.91865,998.64121,0.0,0.0,0.0,0.04054429240170027,0.0,0.0,-0.08559884358444811,-0.1120862833495549,-0.10587686382173289,0.4013706257146966,0.1321948699316179,-0.024626926143488374
3999,3.0,299.58232999999996,765.95835,0.0,0.0,0.0,0.04055443354537253,0.0,0.0,-0.056771860000946354,-0.08720709035516973,-0.08885326105063411,0.4010952648675206,0.08426051752111563,-0.025877093368620274
4000,3.0,299.83348,570.12039,0.0,0.0,0.0,0.04056457468904479,0.0,0.0,-0.04264077215781655,-0.059513343922009736,-0.07114824454753503,0.3633944780617427,0.05552927897931315,-0.025187232170536273
4001,3.0,299.79246,655.96691,0.0,0.0,0.0,0.04057471583271705,0.0,0.0,-0.051018026089087155,-0.06893302752966013,-0.07944650752750983,0.36323127386813564,0.0866843384165781,-0.03310791358024667
4002,3.0,300.36157000000003,811.363,0.0,0.0,0.0,0.04058485697638931,0.0,0.0,-0.06703137392748153,-0.08708930408404511,-0.0925134142543631,0.3852055173293246,0.11527244828900489,-0.033426141999403365
4003,3.0,299.71997000000005,938.1372,0.0,0.0,0.0,0.04059499812006158,0.0,0.0,-0.08757964924468842,-0.10329260997168689,-0.09429802429774041,0.39498458656194363,0.1087438245821799,-0.02080451714824598
4004,3.0,300.96345,770.35887,0.0,0.0,0.0,0.04060513926373384,0.0,0.0,-0.04507917574871825,-0.09067121006205171,-0.09841947379499581,0.3970286261211746,0.07841778408523273,0.010183627573545791
4005,3.0,300.58246,451.59695,0.0,0.0,0.0,0.0406152804074061,0.0,0.0,0.013626474094578287,-0.08785511749637501,-0.06304555403561174,0.41694902176216464,0.0889076776472546,0.007599825531719383
4006,3.0,300.20959,616.68035,0.0,0.0,0.0,0.04062542155107836,0.0,0.0,-0.012810185628516888,-0.0932091563560275,-0.08143608692036602,0.39840285670180065,0.0973313090488523,0.001161110951317729
4007,3.0,300.48434,1032.5273,0.0,0.0,0.0,0.04063556269475062,0.0,0.0,-0.08426170201048251,-0.1053945061116279,-0.12420631495070887,0.38450929292061264,0.08115466683759202,-0.011618184025375488
4008,3.0,300.88267,860.99035,0.0,0.0,0.0,0.04064570383842289,0.0,0.0,-0.08167002407695383,-0.1082751964109299,-0.07177434799632663,0.36261833861764364,0.08339260193595902,-0.052547081284993157
4009,3.0,299.99241,574.1475,0.0,0.0,0.0,0.04065584498209515,0.0,0.0,-0.07695033550865683,-0.06981139377634814,-0.027764775265169975,0.3806590641306246,0.12534659621574587,-0.06433433723530474
4010,3.0,300.84289,812.02913,0.0,0.0,0.0,0.04066598612576741,0.0,0.0,-0.0936510256053866,-0.08257420084343912,-0.07061135371704802,0.37275495341304965,0.1149648356911459,-0.029580476887865772
4011,3.0,299.64464,1053.2411,0.0,0.0,0.0,0.040676127269439664,0.0,0.0,-0.11968003556149989,-0.0944320387824666,-0.1060469074535149,0.3650260741677686,0.07747092415828492,0.0023122483805761477
4012,3.0,299.20341,1093.2385,0.0,0.0,0.0,0.040686268413111924,0.0,0.0,-0.1115884533104229,-0.07136965489313653,-0.14935910371059585,0.3812647850404046,0.044803848338795554,0.02669607302694727
4013,3.0,300.27154,874.10451,0.0,0.0,0.0,0.040696409556784184,0.0,0.0,-0.06344965033449294,-0.08229617920150052,-0.11996011815414188,0.4146047258008006,0.07385140937631664,0.029210969907648272
4014,3.0,300.61691,592.18449,0.0,0.0,0.0,0.040706550700456444,0.0,0.0,-0.026019260463651078,-0.07240554910637134,-0.08158448854326213,0.43232982390763164,0.11691330550094488,0.01960767322287668
4015,3.0,299.7,758.21016,0.0,0.0,0.0,0.040716691844128704,0.0,0.0,-0.07485390787950552,-0.09550484468359431,-0.06011820458245485,0.40676475381455557,0.11175666295952388,-0.004943250347835826
4016,3.0,300.14463,1329.4903,0.0,0.0,0.0,0.040726832987800964,0.0,0.0,-0.12640191645989787,-0.14773607970041586,-0.12999385766689486,0.38965457692841265,0.1013402695465059,-0.01995639236404258
4017,3.0,300.03697,1057.5984,0.0,0.0,0.0,0.04073697413147324,0.0,0.0,-0.09421175922397672,-0.12316404536784488,-0.10410770888213089,0.36514830252733166,0.08948043651803152,-0.02071219587863458
4018,3.0,300.90986000000004,414.68082000000004,0.0,0.0,0.0,0.0407471152751455,0.0,0.0,0.003957917213266016,-0.09433000247089642,-0.035680530252894166,0.38787351630013567,0.08567835028004482,-0.051790980888121854
4019,3.0,300.91534,564.0333,0.0,0.0,0.0,0.04075725641881776,0.0,0.0,-0.00029990644581346173,-0.09344893895244222,-0.07770319249195802,0.3761437582399986,0.038893647645004165,-0.03854955297729466
4020,3.0,300.67226,950.18521,0.0,0.0,0.0,0.04076739756249002,0.0,0.0,-0.08144084919583602,-0.07965931031351182,-0.12773241516620787,0.40543168145299163,0.057497756425586743,-0.025285826471516774
4021,3.0,300.51613,929.81515,0.0,0.0,0.0,0.04077753870616227,0.0,0.0,-0.08291762372633232,-0.11107974096521689,-0.08864322443740512,0.41341577813346064,0.1154114662027249,-0.04282846457984036
4022,3.0,300.45741,714.1607700000001,0.0,0.0,0.0,0.04078767984983453,0.0,0.0,-0.07068124872219612,-0.06599930574662434,-0.08040648803000253,0.4036255023547356,0.1327588652022799,-0.005658953881770265
4023,3.0,299.26262,618.3693,0.0,0.0,0.0,0.0407978209935068,0.0,0.0,-0.05198919793893435,-0.07431684884950193,-0.06166278074339264,0.38433123448053963,0.1037974820990139,0.002085963694043588
4024,3.0,299.07857,809.10139,0.0,0.0,0.0,0.04080796213717906,0.0,0.0,-0.07818920803492403,-0.08037413495430952,-0.08738327732230801,0.35298061777397466,0.06643059261193902,0.018150218332037085
4025,3.0,299.22605,1300.7706,0.0,0.0,0.0,0.04081810328085132,0.0,0.0,-0.11252806039315488,-0.11254073615190588,-0.17033297548055584,0.3981616423829946,0.06959026410102434,0.011892887273236591
4026,3.0,300.28581,1406.7683,0.0,0.0,0.0,0.04082824442452358,0.0,0.0,-0.12658691566315586,-0.15974721731332286,-0.14128831335157085,0.3984502160114746,0.07320411380168353,-0.0008680024409551711
4027,3.0,300.17436000000004,688.22863,0.0,0.0,0.0,0.04083838556819584,0.0,0.0,-0.03817020429885586,-0.08555232223260682,-0.08548179293289611,0.4000045517973756,0.1018553349698389,-0.01798487010121848
4028,3.0,301.02387000000004,389.89418,0.0,0.0,0.0,0.04084852671186811,0.0,0.0,-0.03943983099215826,-0.04694135008725055,-0.032136914996166575,0.38263652302578466,0.1055224188042519,-0.04312087639969916
4029,3.0,300.75077999999996,728.23376,0.0,0.0,0.0,0.04085866785554037,0.0,0.0,-0.08550796315647892,-0.059886217932309534,-0.07597069694097403,0.3954289271282966,0.12501652999567087,-0.013740237762805885
4030,3.0,301.14261,923.05116,0.0,0.0,0.0,0.04086880899921263,0.0,0.0,-0.08984407070066942,-0.07285488803546764,-0.1178855493693979,0.39660377035424466,0.11831229991401489,-0.016408768689919383
4031,3.0,300.22285,642.50449,0.0,0.0,0.0,0.04087895014288489,0.0,0.0,-0.02251484987979268,-0.06529056263292685,-0.10749990809691488,0.3886521179419776,0.06283292856837723,-0.014906081301365686
4032,3.0,299.66900000000004,673.89575,0.0,0.0,0.0,0.04088909128655715,0.0,0.0,-0.032640506375367175,-0.05553342317222215,-0.11667355026228289,0.38301193218783464,0.04368124930125366,0.001105756794379699
4033,3.0,300.40754,987.49145,0.0,0.0,0.0,0.040899232430229415,0.0,0.0,-0.06767147846615494,-0.092752236289683,-0.13974903446215586,0.37415682545640366,0.06656184396364254,-0.004404466462186995
4034,3.0,299.71957000000003,1254.9304,0.0,0.0,0.0,0.040909373573901675,0.0,0.0,-0.1191285336645709,-0.12951546176468087,-0.13282351055865987,0.37355293852930466,0.10851803192989591,0.0068972555429311225
4035,3.0,298.88579,1123.479,0.0,0.0,0.0,0.040919514717573935,0.0,0.0,-0.10216607851050691,-0.11754040598783488,-0.12180307823102787,0.36576447004564266,0.12373818327200789,-0.006005149219587084
4036,3.0,300.14534,592.47286,0.0,0.0,0.0,0.040929655861246195,0.0,0.0,-0.03220192613583267,-0.08328985026981822,-0.06460518101353495,0.3770044027424377,0.12406883717714087,-0.007112628437811774
4037,3.0,300.72326,307.43982,0.0,0.0,0.0,0.040939797004918455,0.0,0.0,0.013324106079236885,-0.06824900974490283,-0.03852912382877847,0.4268175204486096,0.0974614022556915,-0.04836008261226855
4038,3.0,299.97078999999997,631.51652,0.0,0.0,0.0,0.04094993814859072,0.0,0.0,-0.03933520278683226,-0.06574020351055293,-0.08688984681511022,0.44124644505263355,0.0972609874654121,-0.004382825061251155
4039,3.0,299.89419,994.0084300000001,0.0,0.0,0.0,0.04096007929226298,0.0,0.0,-0.07164321012863434,-0.13051294569312488,-0.09999758346799309,0.4463802489368005,0.08090553194275432,-0.03676447075937076
4040,3.0,301.29326000000003,725.90751,0.0,0.0,0.0,0.04097022043593524,0.0,0.0,-0.07567553516034384,-0.047640582835509454,-0.0973416391336218,0.37810370817343064,0.05941059022936874,-0.0021640651130765977
4041,3.0,300.3675,555.70186,0.0,0.0,0.0,0.0409803615796075,0.0,0.0,-0.059914857446386034,-0.06503356593056324,-0.04397106618760636,0.3675801838273397,0.1119521999638219,-0.04226399713463176
4042,3.0,300.98256000000003,1074.8263,0.0,0.0,0.0,0.04099050272327976,0.0,0.0,-0.1097538120168579,-0.1021326108597039,-0.11483393391072688,0.35770513954524863,0.12612430619749987,0.01138985622134129
4043,3.0,299.52121,1307.5319,0.0,0.0,0.0,0.04100064386695203,0.0,0.0,-0.1238181084398959,-0.12711747368051787,-0.14652145627554186,0.4032453815797206,0.10437419365843091,-0.008201294438779743
4044,3.0,299.1558,964.11638,0.0,0.0,0.0,0.04101078501062429,0.0,0.0,-0.07197229146961213,-0.11760721969942889,-0.10348780247095091,0.40290495994362363,0.06781806333162174,-0.005930073162702654
4045,3.0,299.58827,626.16187,0.0,0.0,0.0,0.04102092615429655,0.0,0.0,-0.035247463107153765,-0.08032173371213792,-0.07476837741206434,0.4224069643533216,0.06779912974025314,-0.01138673642428339
4046,3.0,300.31427,496.1774,0.0,0.0,0.0,0.04103106729796881,0.0,0.0,-0.03929081736620176,-0.07454323526634453,-0.03699148640452546,0.4260875244140646,0.08223000991697012,-0.010580154894179988
4047,3.0,298.89739,648.5797299999999,0.0,0.0,0.0,0.04104120844164107,0.0,0.0,-0.06271275710651725,-0.08722644241882961,-0.04721284234554476,0.39222155486425364,0.08281413745386902,-0.025733183483417476
4048,3.0,299.63752999999997,1125.9343,0.0,0.0,0.0,0.04105134958531333,0.0,0.0,-0.10178503567790091,-0.1094707200714189,-0.13100014673870786,0.37999290285237963,0.08455519091519761,-0.00961156257643737
4049,3.0,299.66744,779.7778,0.0,0.0,0.0,0.04106149072898559,0.0,0.0,-0.07373874609769764,-0.0862832585632446,-0.07701097548739153,0.36566013568284567,0.1101296366114489,-0.040972089071630365
4050,3.0,299.66426,431.03882999999996,0.0,0.0,0.0,0.04107163187265785,0.0,0.0,-0.015808867888713784,-0.06721218638132634,-0.04800398701037466,0.3918886414113976,0.1151309783100429,-0.029305357194213573
4051,3.0,300.09727999999996,958.6805800000001,0.0,0.0,0.0,0.04108177301633011,0.0,0.0,-0.07600463879282383,-0.09753181705814092,-0.11787850728120289,0.40885728752357264,0.08249371230849552,-0.036393027458212164
4052,3.0,299.81197000000003,1329.0767,0.0,0.0,0.0,0.04109191416000237,0.0,0.0,-0.14382442768936587,-0.12792273393249087,-0.13225896813294388,0.42394787457539757,0.07276738071708133,0.003031627276598317
4053,3.0,300.03788,919.1907199999999,0.0,0.0,0.0,0.04110205530367464,0.0,0.0,-0.09429445157788781,-0.08497593389997171,-0.1001406401966117,0.40924053924139664,0.08474333220701571,-0.029478261231027873
4054,3.0,299.98431,584.0829200000001,0.0,0.0,0.0,0.0411121964473469,0.0,0.0,-0.038711286945006564,-0.07508013014983193,-0.06375520502139885,0.4147458816722316,0.1068278497030879,0.006103475211941104
4055,3.0,300.48552,682.79338,0.0,0.0,0.0,0.04112233759101916,0.0,0.0,-0.04638929596901705,-0.08777095491656882,-0.07339188627046522,0.39547804949314463,0.12073921628853289,-0.02022739218278818
4056,3.0,300.37969,965.35295,0.0,0.0,0.0,0.04113247873469142,0.0,0.0,-0.05642353906706975,-0.09146638340927922,-0.14555326540748886,0.38449760001445865,0.1053642099336379,0.00993182154879447
4057,3.0,299.62817,1093.8349,0.0,0.0,0.0,0.04114261987836368,0.0,0.0,-0.06432257948114434,-0.14685813901876987,-0.12131777196313188,0.38294122759585664,0.09460352730889122,-0.033636299189394266
4058,3.0,298.92474,850.9698,0.0,0.0,0.0,0.041152761022035945,0.0,0.0,-0.07383613463105913,-0.08498009734463262,-0.09985733749515191,0.40080983231435063,0.08249463537933663,0.014052679510641488
4059,3.0,297.86156,463.341,0.0,0.0,0.0,0.041162902165708205,0.0,0.0,-0.02392839456429868,-0.06878961819000673,-0.04812608060767436,0.38690151561170666,0.07478636665433973,-0.024870938045820478
4060,3.0,299.5908,784.67156,0.0,0.0,0.0,0.041173043309380465,0.0,0.0,-0.06978617094160884,-0.1029886856041919,-0.06574570748509614,0.4212212793513036,0.08027219388824872,-0.022874378373025375
4061,3.0,300.55233,1328.3516,0.0,0.0,0.0,0.041183184453052725,0.0,0.0,-0.14238688924249185,-0.1120014641836839,-0.14939735390187087,0.4136229979114116,0.12080964730298388,-0.014247839585902287
4062,3.0,300.02952,1108.9919,0.0,0.0,0.0,0.041193325596724985,0.0,0.0,-0.09328273249878892,-0.1132115077181059,-0.13061158559035987,0.4174144784606016,0.13500121807108287,-0.012880381568944686
4063,3.0,300.72298,600.61073,0.0,0.0,0.0,0.04120346674039726,0.0,0.0,-0.04163624411467736,-0.06616030916101413,-0.07477411139438023,0.37751347985767963,0.1066005473081549,-0.00955798991582516
4064,3.0,301.2579,750.17224,0.0,0.0,0.0,0.04121360788406951,0.0,0.0,-0.06144873368626785,-0.06266383840493935,-0.10392105808120991,0.35727849032564163,0.07155512931069144,0.014211670610332685
4065,3.0,299.97004,1137.0766,0.0,0.0,0.0,0.04122374902774177,0.0,0.0,-0.08338348167180891,-0.13125068295843387,-0.1310087188345539,0.35279743228839566,0.06842025002505293,-0.01872001749927188
4066,3.0,300.28872,1283.3027,0.0,0.0,0.0,0.04123389017141403,0.0,0.0,-0.0998486488755444,-0.1163818456909939,-0.17386149736379383,0.36935260143226367,0.07013091814238273,0.008168454597738703
4067,3.0,299.3326,924.97429,0.0,0.0,0.0,0.04124403131508629,0.0,0.0,-0.06569136282923273,-0.12288648576795189,-0.0925912419945441,0.4034010066625796,0.09551277437887691,-0.013728234802121288
4068,3.0,299.28716000000003,409.70578,0.0,0.0,0.0,0.04125417245875855,0.0,0.0,0.0049458090069883455,-0.07673847200549752,-0.052747664274789156,0.4096709273538726,0.1111345375306249,-0.010173945968840291
4069,3.0,300.63156000000004,549.50245,0.0,0.0,0.0,0.04126431360243081,0.0,0.0,-0.053817986699921744,-0.05544515591626085,-0.05777188110764075,0.4362693402964316,0.11322502447443988,-0.01325371255503959
4070,3.0,300.27282,985.67525,0.0,0.0,0.0,0.04127445474610307,0.0,0.0,-0.1076723227339309,-0.08371563518708991,-0.1082327007017359,0.40010735615252163,0.07983392674299512,0.004365732747964276
4071,3.0,300.05174,1003.5283,0.0,0.0,0.0,0.04128459588977533,0.0,0.0,-0.09741173780204,-0.0878403595086685,-0.11979544474788989,0.3990623305293856,0.06653241411448803,-0.014491194902169588
4072,3.0,300.31273999999996,601.63205,0.0,0.0,0.0,0.04129473703344759,0.0,0.0,-0.04485856181769536,-0.05539113854017974,-0.08263141907658612,0.39000567822056365,0.06965728046263833,-0.0026577865243781074
4073,3.0,299.39108999999996,672.31507,0.0,0.0,0.0,0.04130487817711986,0.0,0.0,-0.029162708805385268,-0.09952257486086341,-0.07568171193295342,0.39464301995323364,0.11163595447511089,-0.049890129780022455
4074,3.0,299.62472,1203.6203,0.0,0.0,0.0,0.04131501932079212,0.0,0.0,-0.11277540487506589,-0.1060638895251909,-0.14703122240085187,0.39529624202770164,0.1118427993505249,-0.017296830726814285
4075,3.0,299.79228,1154.5846,0.0,0.0,0.0,0.041325160464464376,0.0,0.0,-0.12570358449097788,-0.11399477031040789,-0.1112665133561499,0.3998346196231046,0.1074282003873379,-0.021844712608155275
4076,3.0,300.24523999999997,635.42602,0.0,0.0,0.0,0.041335301608136636,0.0,0.0,-0.05867510136603164,-0.08127341569631162,-0.053205125416687045,0.39399542141682065,0.11593598524949089,-0.004727659300208646
4077,3.0,300.83541,345.3671,0.0,0.0,0.0,0.041345442751808896,0.0,0.0,-0.023040076175128477,-0.04276154346373576,-0.039181354944648666,0.40004784797414866,0.09724604303968722,0.014630485380166485
4078,3.0,301.01672,640.36491,0.0,0.0,0.0,0.04135558389548117,0.0,0.0,-0.03127525927012777,-0.11091649624160589,-0.05246319329596404,0.39398852118363964,0.07225601163011312,-0.0027417264931373377
4079,3.0,301.0757,1143.3618,0.0,0.0,0.0,0.04136572503915343,0.0,0.0,-0.08681213154569031,-0.11746828284571688,-0.14327301698494585,0.3809964054864176,0.06707905747718752,-0.0018143479205621983
4080,3.0,299.86201,1208.7437,0.0,0.0,0.0,0.04137586618282569,0.0,0.0,-0.11627075295002988,-0.10729479587917191,-0.14386236377310987,0.3980217226766856,0.08574189220706592,-0.024570894426208474
4081,3.0,298.52036,671.3244599999999,0.0,0.0,0.0,0.04138600732649795,0.0,0.0,-0.08711508420633941,-0.07862963441614072,-0.038321152219253266,0.40170366075756464,0.1046928709473819,-0.015415102687852185
4082,3.0,299.22008999999997,508.59109000000007,0.0,0.0,0.0,0.0413961484701702,0.0,0.0,-0.047744233254488955,-0.03671562906480046,-0.07013913053444323,0.4220137929170186,0.09373684383585622,-0.04047849340466626
4083,3.0,299.33906,1044.3861,0.0,0.0,0.0,0.041406289613842476,0.0,0.0,-0.10950204976451089,-0.10090470676576921,-0.1070605425885529,0.4200393636396576,0.07491881465441133,0.004832160342647095
4084,3.0,299.96695,1227.9458,0.0,0.0,0.0,0.041416430757514736,0.0,0.0,-0.1134931608484029,-0.1091140965662229,-0.15065761411124887,0.4357276669254726,0.09855244159236871,-0.02023027791907298
4085,3.0,299.56272,729.78638,0.0,0.0,0.0,0.041426571901186995,0.0,0.0,-0.04737496236154475,-0.07680212640327973,-0.09765974697601659,0.4305771241496536,0.1040582521447499,-0.006213041592954464
4086,3.0,299.89209,307.42586,0.0,0.0,0.0,0.041436713044859255,0.0,0.0,-0.0007370522069163893,-0.06885545918150474,-0.02385727453977968,0.4100719818759536,0.11694409817148389,-0.03083413273309197
4087,3.0,300.83916,721.38522,0.0,0.0,0.0,0.041446854188531515,0.0,0.0,-0.08652749743359911,-0.08393518317900762,-0.04882041226519955,0.35798172642504567,0.11355138219914888,0.0016340154432897681
4088,3.0,301.25771000000003,1196.7343,0.0,0.0,0.0,0.04145699533220378,0.0,0.0,-0.1181866872991179,-0.13470098193395186,-0.11088966537895789,0.3719478389133936,0.11417391292808789,-0.007401835144954253
4089,3.0,299.44408,1047.685,0.0,0.0,0.0,0.04146713647587604,0.0,0.0,-0.10242298807336189,-0.1092141246160949,-0.1068329767485939,0.3748800935102846,0.11026755008255991,0.00983966746544957
4090,3.0,299.21804,673.76392,0.0,0.0,0.0,0.0414772776195483,0.0,0.0,-0.04841497138343566,-0.06896220507953973,-0.08743023234519211,0.40744946770213164,0.1022840917496539,0.0003596599624331747
4091,3.0,298.58475,603.29918,0.0,0.0,0.0,0.04148741876322056,0.0,0.0,-0.02198299287580248,-0.08598336287814722,-0.07542153159877563,0.42409672101508755,0.05475378801527815,-0.011312380078944988
4092,3.0,299.08537,926.94303,0.0,0.0,0.0,0.04149755990689282,0.0,0.0,-0.07641362604993773,-0.1061441389331109,-0.09920977746224272,0.44912687611537155,0.08573819181770073,-0.03847804386473726
4093,3.0,298.2264,1192.5173,0.0,0.0,0.0,0.04150770105056509,0.0,0.0,-0.13970444132525486,-0.08180667503844022,-0.14098435858657288,0.4348051229744246,0.09442653075492301,-0.02391709682568368
4094,3.0,298.98505,880.84175,0.0,0.0,0.0,0.04151784219423735,0.0,0.0,-0.055972607308816244,-0.1032083784908739,-0.10857290955531189,0.40676939450001365,0.08036825506397922,-0.043576559287671554
4095,3.0,299.15095,478.69830999999994,0.0,0.0,0.0,0.04152798333790961,0.0,0.0,-0.03607404923398146,-0.03878790385131806,-0.07065037803139944,0.35771551522627265,0.08169312212623342,0.0025819626889198775
4096,3.0,300.71975,846.4137599999999,0.0,0.0,0.0,0.04153812448158187,0.0,0.0,-0.03897510484704336,-0.08653732899931942,-0.13177621525529987,0.36808800451245766,0.10546332605841989,-0.012447600159732487
4097,3.0,301.24739,1207.7469,0.0,0.0,0.0,0.04154826562525413,0.0,0.0,-0.10070468612977872,-0.11172176662607988,-0.15469844537754784,0.3736157701680056,0.0915477311803076,0.018743404324829984
4098,3.0,300.2355,970.8542800000001,0.0,0.0,0.0,0.041558406768926394,0.0,0.0,-0.07207994017348622,-0.08977972323981882,-0.13325579344882288,0.3835451753179617,0.1022657721878459,-0.014634168544279985
4099,3.0,299.82481,780.8135599999999,0.0,0.0,0.0,0.041568547912598654,0.0,0.0,-0.07859607658607883,-0.1016410832361939,-0.05711066550313385,0.38768122169615765,0.09227701793978262,-0.004627816168479897
4100,3.0,300.56177,852.4554099999999,0.0,0.0,0.0,0.041578689056270914,0.0,0.0,-0.09378946292679931,-0.08553658037905322,-0.07979911450930943,0.4027363652594846,0.12027554291027188,-0.01954187276138268
4101,3.0,300.33628999999996,934.32165,0.0,0.0,0.0,0.04158883019994317,0.0,0.0,-0.11237370187292088,-0.09641087671101271,-0.07522586895146523,0.4169580295555536,0.11948241126199588,0.000929007838205935
4102,3.0,300.25842,1082.963,0.0,0.0,0.0,0.04159897134361543,0.0,0.0,-0.094808120742583,-0.10555105325207789,-0.12883452729997788,0.38890161051410066,0.07894469642873493,-0.03019671026743327
4103,3.0,299.78132999999997,773.71587,0.0,0.0,0.0,0.0416091124872877,0.0,0.0,-0.05663576328726464,-0.04960191281557766,-0.12895263173163388,0.41147363100428563,0.06522282382399154,-0.012930380395129186
4104,3.0,298.51525,294.42753,0.0,0.0,0.0,0.04161925363095996,0.0,0.0,0.016095842608535985,-0.047605081591755756,-0.05798937726810595,0.4031227884501216,0.07061918006082044,-0.046094705661443254
4105,3.0,299.44287,640.30303,0.0,0.0,0.0,0.04162939477463222,0.0,0.0,-0.037218518261681766,-0.06352870106754464,-0.09388891342411432,0.43109725582348657,0.08792761047477951,-0.036624234919030565
4106,3.0,300.57374,1197.9938,0.0,0.0,0.0,0.04163953591830448,0.0,0.0,-0.12797119768477389,-0.1017884098007339,-0.13440060394180686,0.37805998643161565,0.06840998681479003,-0.006329199469843353
4107,3.0,299.70027999999996,1035.6296,0.0,0.0,0.0,0.04164967706197674,0.0,0.0,-0.0921574949579866,-0.12184115616978587,-0.1008068967203661,0.39286983227823363,0.10778139910719589,-0.007178952445632442
4108,3.0,299.54992999999996,641.00598,0.0,0.0,0.0,0.041659818205649006,0.0,0.0,-0.018068995190770983,-0.08383330594770312,-0.09294751187545522,0.3832118160350616,0.14780448421466685,0.02187161743806058
4109,3.0,300.19765,684.18396,0.0,0.0,0.0,0.041669959349321266,0.0,0.0,-0.029138677552763576,-0.1111111213208139,-0.06772504190619123,0.4253472641560066,0.14545222410751688,-0.012166957239785187
4110,3.0,300.32015,1049.5465,0.0,0.0,0.0,0.041680100492993526,0.0,0.0,-0.09405571465557631,-0.1074394677284499,-0.1175407504928689,0.38328723224000466,0.07940635546579712,0.004648519705123176
4111,3.0,300.34515,1050.4528,0.0,0.0,0.0,0.041690241636665785,0.0,0.0,-0.11585085197608888,-0.09251719165073592,-0.11094339803176088,0.3861418820117366,0.07798582442185162,-0.017398108114059584
4112,3.0,299.6347,872.76805,0.0,0.0,0.0,0.041700382780338045,0.0,0.0,-0.10393876969295791,-0.1013390840438889,-0.060021837405194144,0.4152519393021756,0.09887912659686,-0.0005807850376015203
4113,3.0,298.54514,617.87626,0.0,0.0,0.0,0.04171052392401031,0.0,0.0,-0.08177755524381632,-0.03878027306481496,-0.06726112737440644,0.4080522501866216,0.1053835832755499,-0.01953158118011698
4114,3.0,299.01173,672.79885,0.0,0.0,0.0,0.04172066506768257,0.0,0.0,-0.043111435948517456,-0.06512298322538804,-0.09627963346531,0.42277415605706065,0.08555015995689341,-0.040742581844479764
4115,3.0,298.46882999999997,1127.5491,0.0,0.0,0.0,0.04173080621135483,0.0,0.0,-0.09140005605773321,-0.10673944363186291,-0.14460727484912686,0.4031961376248606,0.08484250608705342,-0.014990945050241088
4116,3.0,299.06076,1223.5702,0.0,0.0,0.0,0.04174094735502709,0.0,0.0,-0.10152080031682291,-0.0985045604588932,-0.17190944064864083,0.4278451890975326,0.10184038953086391,-0.007159552961867864
4117,3.0,299.57632,734.9596799999999,0.0,0.0,0.0,0.04175108849869935,0.0,0.0,-0.04696397190898316,-0.1110578648955579,-0.06538755295899903,0.4059492090740676,0.07231062277075284,0.001008993699774925
4118,3.0,300.1469,637.37729,0.0,0.0,0.0,0.04176122964237161,0.0,0.0,-0.08084463561174433,-0.07002205759138903,-0.04288008865918526,0.3929054885492526,0.07757403654146132,0.006681126155525813
4119,3.0,299.49676,1036.2092,0.0,0.0,0.0,0.04177137078604388,0.0,0.0,-0.12758849312200388,-0.09645313126668291,-0.09094011447959051,0.38006888647737863,0.0967737306910736,0.012749298416757789
4120,3.0,300.0753,1161.3366,0.0,0.0,0.0,0.04178151192971614,0.0,0.0,-0.09351876910958391,-0.13661175884003085,-0.12288677961048088,0.3943866170154286,0.1317631341965089,-0.0006908261870817363
4121,3.0,299.95454,770.10655,0.0,0.0,0.0,0.0417916530733884,0.0,0.0,-0.03791541040220967,-0.08854491891270311,-0.10763282624503291,0.3934267145331936,0.12727150796071987,-0.02074029026415728
4122,3.0,299.62399,609.79832,0.0,0.0,0.0,0.04180179421706066,0.0,0.0,-0.00963411610511323,-0.08961604687166522,-0.08611329903122092,0.40364164342882863,0.09141965738091772,-0.03694199825639136
4123,3.0,299.24079,831.03631,0.0,0.0,0.0,0.04181193536073292,0.0,0.0,-0.09117424516694742,-0.06690468524097834,-0.09453535685541331,0.40639207029527463,0.08051510134797182,-0.04107515180555186
4124,3.0,300.23312999999996,1112.5289,0.0,0.0,0.0,0.04182207650440518,0.0,0.0,-0.13166797987961787,-0.09713169269965172,-0.1093813210150959,0.4244614809185866,0.08356565492053801,-0.01080153180252819
4125,3.0,300.75446,1091.9866,0.0,0.0,0.0,0.04183221764807744,0.0,0.0,-0.11604349108510088,-0.12931677355257187,-0.08657638776417423,0.4251592454674506,0.08102401229019743,-0.035999234899597866
4126,3.0,301.11217999999997,725.6904900000001,0.0,0.0,0.0,0.0418423587917497,0.0,0.0,-0.04576608737576116,-0.06203739450411414,-0.1127883035488389,0.4087883358542676,0.07343291580676453,0.010451797384762089
4127,3.0,300.79613,652.8934,0.0,0.0,0.0,0.041852499935421957,0.0,0.0,-0.02924910560166197,-0.08607904915134074,-0.08313513711204921,0.38920517011155964,0.0988158177173619,-0.015009197737542487
4128,3.0,299.90067999999997,1253.6272,0.0,0.0,0.0,0.04186264107909422,0.0,0.0,-0.08091999811443203,-0.13497908868889885,-0.16517227993873485,0.3938445586094316,0.1136962668309479,0.022331108119908776
4129,3.0,298.978,1347.8625,0.0,0.0,0.0,0.04187278222276648,0.0,0.0,-0.13624508389384288,-0.1292311235216189,-0.14424034659041388,0.3849646880455566,0.1066908582895679,0.004990877763486286
4130,3.0,299.97516,801.87332,0.0,0.0,0.0,0.04188292336643874,0.0,0.0,-0.06862325468258793,-0.1066677967172919,-0.06845841307681934,0.3844615688409026,0.1016030458274399,0.003464414258686067
4131,3.0,299.36026,529.28542,0.0,0.0,0.0,0.041893064510111,0.0,0.0,-0.04599418719852286,-0.04025305944291766,-0.07464230376837183,0.4095490131018406,0.11049118451213089,-0.01955391625207128
4132,3.0,300.04868,820.3422,0.0,0.0,0.0,0.04190320565378326,0.0,0.0,-0.05301033517771275,-0.0858679172147536,-0.11048528739654889,0.40790092128418665,0.12064853040458288,-0.02023296303183798
4133,3.0,300.19912,979.49947,0.0,0.0,0.0,0.041913346797455536,0.0,0.0,-0.06529912560952193,-0.1023735414684819,-0.13007072281948087,0.39288809104503564,0.1132448233813939,-0.04500424590382326
4134,3.0,300.79911,979.12096,0.0,0.0,0.0,0.04192348794112779,0.0,0.0,-0.06610020215183203,-0.09508241362415361,-0.13644570741364287,0.3867074174225506,0.09305415746173032,-0.02464907376417418
4135,3.0,300.28344,621.41087,0.0,0.0,0.0,0.04193362908480005,0.0,0.0,-0.07511403451142804,-0.06135115263538734,-0.05242820070376055,0.4099565321595596,0.09378699971580622,-0.01874466278145418
4136,3.0,300.12408,567.65703,0.0,0.0,0.0,0.04194377022847231,0.0,0.0,-0.08447016200655592,-0.029465287576747472,-0.05861811212740724,0.39801808510882664,0.09109903059877432,0.006549250439110693
4137,3.0,300.13572,945.53455,0.0,0.0,0.0,0.04195391137214457,0.0,0.0,-0.1030142499042149,-0.09076408152646741,-0.09364055771860351,0.4293175022878386,0.08357414899612632,-0.01024597893169939
4138,3.0,298.99997,1296.9454,0.0,0.0,0.0,0.04196405251581684,0.0,0.0,-0.11240459586846989,-0.14040231733162983,-0.14143210367326187,0.38089871804427666,0.09230522783581672,0.002382671086376328
4139,3.0,298.7981,1047.9773,0.0,0.0,0.0,0.0419741936594891,0.0,0.0,-0.058986060728970946,-0.11595081923095488,-0.14362205124689287,0.4094201175566196,0.09352609592105701,-0.012247601815244188
4140,3.0,299.75469,576.76372,0.0,0.0,0.0,0.04198433480316136,0.0,0.0,-0.011412541877830189,-0.08794807914004961,-0.07596114807203164,0.40476972516266163,0.12319474684587489,-0.006631822824209953
4141,3.0,298.81291,615.64153,0.0,0.0,0.0,0.04199447594683362,0.0,0.0,-0.04564617327942655,-0.07173560739200323,-0.06975787289281603,0.4019914947134716,0.12095557558238587,-0.025890510826444477
4142,3.0,298.75311,1010.1523,0.0,0.0,0.0,0.04200461709050588,0.0,0.0,-0.1014208837244619,-0.08649653149729301,-0.1191436716210649,0.38776096447902764,0.0900745364624146,0.008784818990544133
4143,3.0,300.43644,839.0026,0.0,0.0,0.0,0.04201475823417815,0.0,0.0,-0.06720641288225654,-0.0938281244976149,-0.09400130312520631,0.38653348291038464,0.09326694504898082,-0.026171306747156873
4144,3.0,299.36683,531.82237,0.0,0.0,0.0,0.04202489937785041,0.0,0.0,-0.04654183367882136,-0.03852342632346616,-0.07659546087313343,0.3956999917950486,0.1065701295401529,-0.008035690058335862
4145,3.0,300.75108,833.70128,0.0,0.0,0.0,0.04203504052152267,0.0,0.0,-0.06853324159670433,-0.08986685160266773,-0.095024277386416,0.4223071896159746,0.08675689826948922,-0.029594955218544675
4146,3.0,300.20229,1113.1336,0.0,0.0,0.0,0.04204518166519493,0.0,0.0,-0.11598289872912089,-0.1043493892959829,-0.11803254156140489,0.4114075974952686,0.08654138605271981,-0.02776079116577677
4147,3.0,299.55244,1268.354,0.0,0.0,0.0,0.04205532280886719,0.0,0.0,-0.13699984376083188,-0.11338556382028388,-0.13516254775200487,0.4361046263601756,0.10074935222068691,0.003055948926698677
4148,3.0,300.23777,1076.2973,0.0,0.0,0.0,0.042065463952539454,0.0,0.0,-0.11062982752331389,-0.1308395769953609,-0.0856980853522425,0.4407542486840576,0.11163391784240989,-0.011527339061159788
4149,3.0,300.38041,609.54264,0.0,0.0,0.0,0.042075605096211714,0.0,0.0,-0.06638033844672935,-0.05921673015398624,-0.059688673679563445,0.4163194084150266,0.1045678966800479,-0.0051454652782428854
4150,3.0,299.63454,625.41918,0.0,0.0,0.0,0.042085746239883974,0.0,0.0,-0.026898833491208175,-0.09555622760941541,-0.06765675290245164,0.4004365104475066,0.09764116498243272,-0.04433163022244126
4151,3.0,299.4288,1032.7389,0.0,0.0,0.0,0.042095887383556234,0.0,0.0,-0.07724108053210113,-0.1289915810654779,-0.1076941582735859,0.3896138442743926,0.09569282182889621,-0.008950251827746081
4152,3.0,298.94146,911.78695,0.0,0.0,0.0,0.042106028527228494,0.0,0.0,-0.07391296634639183,-0.08445415569472621,-0.11879334039898988,0.38473148853504163,0.1260977793098819,-0.03241323133818687
4153,3.0,299.02353,362.11899,0.0,0.0,0.0,0.04211616967090076,0.0,0.0,-0.02781307689743697,-0.05056484592886175,-0.03169720802252087,0.40024672870377664,0.1013400061014799,-0.02256013607976208
4154,3.0,299.79244,466.38257999999996,0.0,0.0,0.0,0.04212631081457302,0.0,0.0,-0.03633296908503486,-0.04968607438213375,-0.055749615279808644,0.41036987740535363,0.0920100143794314,-0.03064501669467767
4155,3.0,300.42714,989.3266199999999,0.0,0.0,0.0,0.04213645195824528,0.0,0.0,-0.0972413658772256,-0.07093605275134333,-0.13255316529947886,0.4119154789753926,0.07724545473278283,-0.0003763803318733467
4156,3.0,301.34828,1337.8495,0.0,0.0,0.0,0.04214659310191754,0.0,0.0,-0.12565650889133187,-0.14199704126651685,-0.13901929174013586,0.42204255908735766,0.07716532691487483,-0.01984997577229008
4157,3.0,301.07769,1224.8985,0.0,0.0,0.0,0.0421567342455898,0.0,0.0,-0.12641168419086188,-0.1112757339320599,-0.13465115029403385,0.42818714074128056,0.06323619501542653,-0.0036054170280269563
4158,3.0,301.13524,774.87309,0.0,0.0,0.0,0.042166875389262067,0.0,0.0,-0.06858704923001474,-0.09397867826372341,-0.07297634328520433,0.4120912474702396,0.08681598493582061,-0.021300479767443682
4159,3.0,300.41848,703.5360000000001,0.0,0.0,0.0,0.042177016532934326,0.0,0.0,-0.06716542083621094,-0.09512297503890671,-0.05156898184421225,0.40203903640816363,0.12594303575460988,-0.015302237772463286
4160,3.0,300.03974,1035.5329,0.0,0.0,0.0,0.042187157676606586,0.0,0.0,-0.1147972846546099,-0.07422093256853572,-0.12575793522634188,0.4099676272481546,0.12124021780047789,0.02440490075507618
4161,3.0,299.9149,1060.9131,0.0,0.0,0.0,0.042197298820278846,0.0,0.0,-0.08915714387487501,-0.1150932854063229,-0.11824068339694689,0.3784355982436856,0.09060218847848982,0.0030265053986678276
4162,3.0,299.12982999999997,518.87032,0.0,0.0,0.0,0.042207439963951106,0.0,0.0,-0.004149568606080536,-0.05877716807510485,-0.09479688379897401,0.3980373368607266,0.08173891191150252,0.0010795441156177092
4163,3.0,299.63308,345.36771,0.0,0.0,0.0,0.04221758110762337,0.0,0.0,0.0032149080076867165,-0.04869441664176476,-0.05950365218480324,0.4307132745655906,0.08224158528611251,-0.025382310172538974
4164,3.0,300.38821,934.77544,0.0,0.0,0.0,0.04222772225129563,0.0,0.0,-0.07508094176316202,-0.12371246698446987,-0.08535498164313082,0.4118485943362916,0.1035365803307649,-0.034800550912046965
4165,3.0,299.26241,1211.7778,0.0,0.0,0.0,0.04223786339496789,0.0,0.0,-0.16007202476537885,-0.07508313544962852,-0.13319502884032589,0.3983075402648936,0.08030253870224352,-0.02848156966416207
4166,3.0,299.91286,1092.5882,0.0,0.0,0.0,0.04224800453864015,0.0,0.0,-0.09905781122549481,-0.14246670295286887,-0.09059502784003311,0.4139827422269156,0.09681676544932082,-0.024776765568276377
4167,3.0,300.2469,760.4102,0.0,0.0,0.0,0.04225814568231241,0.0,0.0,-0.07192816949400763,-0.08135153423927133,-0.07786600962402683,0.4010808767161006,0.12733664980964887,0.004974306159425795
4168,3.0,300.41098999999997,830.0611700000001,0.0,0.0,0.0,0.04226828682598468,0.0,0.0,-0.03928749897212426,-0.08141522106105673,-0.13161514901940388,0.4297656121445636,0.10396069642512189,0.017383035005571982
4169,3.0,301.36342,1181.5456,0.0,0.0,0.0,0.04227842796965694,0.0,0.0,-0.12007763490073987,-0.13935345149061487,-0.0997292859872642,0.4053377633012226,0.08190002374365302,0.005288863370820175
4170,3.0,300.81907,1208.5308,0.0,0.0,0.0,0.0422885691133292,0.0,0.0,-0.1114073551200499,-0.1054019231023599,-0.15055388769851186,0.4087041246384566,0.0935190791641145,-0.006089495298986394
4171,3.0,299.37879,631.04727,0.0,0.0,0.0,0.04229871025700146,0.0,0.0,-0.06778811875141644,-0.07772434712754583,-0.046310146950705657,0.42009220463237257,0.10085442422955672,-0.009539255022801172
4172,3.0,300.02673,495.99079000000006,0.0,0.0,0.0,0.04230885140067372,0.0,0.0,-0.0038288216524752765,-0.08637006167281142,-0.06056993174203684,0.4027108516219666,0.13461584866054987,-0.022403530170806277
4173,3.0,300.51822999999996,1039.7124,0.0,0.0,0.0,0.04231899254434598,0.0,0.0,-0.08159224294627743,-0.09336927317657982,-0.14108510604401586,0.3876447649575596,0.12580850653883288,-0.0071376916856603235
4174,3.0,299.97927999999996,1320.71,0.0,0.0,0.0,0.04232913368801824,0.0,0.0,-0.0982731169108015,-0.16145251723162285,-0.14173721354337385,0.37610268108094463,0.08634927079400952,-0.029197078248777267
4175,3.0,298.21256,939.3362699999999,0.0,0.0,0.0,0.042339274831690504,0.0,0.0,-0.09355027206844302,-0.0887443113336316,-0.1032401844115129,0.39551513444680464,0.09309721957773022,-0.01869226457903288
4176,3.0,298.52954,560.0308200000001,0.0,0.0,0.0,0.042349415975362764,0.0,0.0,-0.04986971380375755,-0.06346475384048353,-0.05690091867943345,0.4334473374429216,0.08542447641448941,-0.016108710884805987
4177,3.0,299.71879,885.37366,0.0,0.0,0.0,0.042359557119035024,0.0,0.0,-0.08546638139887511,-0.11659112236664788,-0.06707398312068673,0.4491265518753396,0.08047089628585913,-0.02346869717943008
4178,3.0,300.84854,1231.9303,0.0,0.0,0.0,0.042369698262707284,0.0,0.0,-0.14339926794740587,-0.08677828899235032,-0.14429849701365285,0.4265108299083416,0.0926077681036751,0.007251419890134424
4179,3.0,300.28405,1003.7601,0.0,0.0,0.0,0.042379839406379544,0.0,0.0,-0.07990559493581822,-0.11083262953082891,-0.1143797749509049,0.4203963417823886,0.1138117266798429,0.0065982597252475335
4180,3.0,299.9663,563.61776,0.0,0.0,0.0,0.0423899805500518,0.0,0.0,-0.021282822871201083,-0.08617573550238292,-0.06386716713094864,0.3940416560188836,0.09598989257271481,-0.018530429286310983
4181,3.0,300.26395,556.48707,0.0,0.0,0.0,0.04240012169372406,0.0,0.0,-0.027182771500480676,-0.06816409736002263,-0.07381130392410852,0.3933021860959036,0.100705631492122,-0.007514748392372923
4182,3.0,301.91458,1032.7501,0.0,0.0,0.0,0.04241026283739632,0.0,0.0,-0.07911141052068833,-0.15773381843711587,-0.07708501569869872,0.36826371221229864,0.0961905393972671,-0.06752386211208633
4183,3.0,300.47062999999997,1222.5439999999999,0.0,0.0,0.0,0.04242040398106859,0.0,0.0,-0.12298131584481088,-0.1004797567665799,-0.14816177646492887,0.38218010451823964,0.1190191229187729,0.004380099722457186
4184,3.0,300.32962000000003,702.29072,0.0,0.0,0.0,0.04243054512474085,0.0,0.0,-0.05108609521755505,-0.08380993533414663,-0.07858281212901973,0.38792317568753665,0.12469176307361889,-0.04123392708297176
4185,3.0,300.20276,344.60987,0.0,0.0,0.0,0.04244068626841311,0.0,0.0,0.01065992300830249,-0.05789685942797514,-0.05751585915187334,0.4105154510472206,0.12622441530737988,-0.00957185938451897
4186,3.0,300.61537999999996,835.1295700000001,0.0,0.0,0.0,0.04245082741208537,0.0,0.0,-0.09172120669017832,-0.056992336129955655,-0.1051449932745029,0.4239939369249436,0.10255448767133989,-0.03042283019949957
4187,3.0,300.36601,1363.3705,0.0,0.0,0.0,0.04246096855575763,0.0,0.0,-0.13231587225855987,-0.14354566232185387,-0.13856905405820086,0.42749557728302856,0.09604203847586122,0.007760941619520303
4188,3.0,299.97073,1068.7806,0.0,0.0,0.0,0.042471109699429896,0.0,0.0,-0.11845244253534588,-0.0997747535590015,-0.1066554148010699,0.4362598968054996,0.06856421158601084,-0.03097739413823077
4189,3.0,298.79393,737.59195,0.0,0.0,0.0,0.042481250843102156,0.0,0.0,-0.036826959919537966,-0.09123919044535701,-0.09614338375086322,0.41893056405522755,0.06654403102688453,-0.0014345170364008088
4190,3.0,299.33712,736.42868,0.0,0.0,0.0,0.042491391986774416,0.0,0.0,-0.06297512707416114,-0.09703179535904259,-0.06384900664940635,0.3987244217535366,0.07591413124089143,-0.034738648423687665
4191,3.0,300.17385,971.84425,0.0,0.0,0.0,0.042501533130446675,0.0,0.0,-0.050482352171970245,-0.07852195024851312,-0.16641208262859386,0.3948954712156486,0.09310621419886791,0.006902696695968123
4192,3.0,300.67623,976.15935,0.0,0.0,0.0,0.042511674274118935,0.0,0.0,-0.08583064278332492,-0.0989494806043034,-0.11194794431340191,0.39403878852110064,0.11546878576088188,-0.005597430855573415
4193,3.0,300.60802,893.94106,0.0,0.0,0.0,0.04252181541779121,0.0,0.0,-0.06033188180329315,-0.09593978735526981,-0.11546409441291888,0.38211571247438464,0.12479340219114989,-0.032975631753191466
4194,3.0,300.41991,695.5825,0.0,0.0,0.0,0.04253195656146347,0.0,0.0,-0.061209741424931144,-0.04795523752156345,-0.10227472931872991,0.4249956663713066,0.1078367326951569,-0.023574518993373875
4195,3.0,300.86512,1010.5492,0.0,0.0,0.0,0.04254209770513573,0.0,0.0,-0.08571083001200032,-0.11274722638978489,-0.10872368117019189,0.4083175798578076,0.12397206166008988,-0.014041029160991687
4196,3.0,300.50122999999996,1441.7316,0.0,0.0,0.0,0.04255223884880798,0.0,0.0,-0.14619705412352585,-0.11842267324740789,-0.17363066885851283,0.4110560909030776,0.1052541203102729,0.013739677435500587
4197,3.0,300.19969,1237.2506,0.0,0.0,0.0,0.04256237999248024,0.0,0.0,-0.1031870799737719,-0.1302631998084769,-0.14264301860276987,0.3746621332812736,0.07976414116885783,-0.0025634964084973975
4198,3.0,299.74676,760.09518,0.0,0.0,0.0,0.042572521136152515,0.0,0.0,-0.06711254944599293,-0.11581451682750288,-0.048122888869859354,0.40864134366226057,0.09791894243109722,-0.02356803723248418
4199,3.0,299.04225,732.7038,0.0,0.0,0.0,0.042582662279824775,0.0,0.0,-0.08076071823846233,-0.062109756773255746,-0.07985318558764583,0.4083770272411746,0.0982533818386038,-0.011450312801807888
4200,3.0,300.16326000000004,1035.91,0.0,0.0,0.0,0.042592803423497035,0.0,0.0,-0.10832647699849089,-0.11441176325656188,-0.09215253611199721,0.4433260800878776,0.0992782397317494,-0.03838066749037696
4201,3.0,299.44137,1061.9479,0.0,0.0,0.0,0.042602944567169294,0.0,0.0,-0.0938411001783955,-0.1055317103076689,-0.1234328200893709,0.40978941682056663,0.09718523283493571,-0.02163341855155218
4202,3.0,299.41891,761.16522,0.0,0.0,0.0,0.042613085710841554,0.0,0.0,-0.022955969324077775,-0.0938018610550229,-0.1146173922318559,0.44672232217056057,0.08581774512280202,-0.04659515191233345
4203,3.0,299.46079,497.84164000000004,0.0,0.0,0.0,0.04262322685451382,0.0,0.0,-0.020541138996752584,-0.08432789662626541,-0.04646239385773125,0.40894622048484963,0.096488737888447,-0.02054890961176948
4204,3.0,301.13822999999996,780.78508,0.0,0.0,0.0,0.04263336799818608,0.0,0.0,-0.06055932402673994,-0.06306003540604094,-0.11371981476327189,0.4107589350462506,0.07651527226021942,-0.00027003423193030374
4205,3.0,300.31262000000004,1240.4438,0.0,0.0,0.0,0.04264350914185834,0.0,0.0,-0.1202801835957299,-0.13490844489192688,-0.12187530269815587,0.3670149523915557,0.10885451202310391,-0.026842102631359274
4206,3.0,299.90629,1240.9747,0.0,0.0,0.0,0.0426536502855306,0.0,0.0,-0.1174666819105589,-0.13305269759877886,-0.12670595228490386,0.3680011487138857,0.11856416349137187,-0.009042131725613922
4207,3.0,299.6582,675.9671900000001,0.0,0.0,0.0,0.04266379142920286,0.0,0.0,-0.06221321264821603,-0.07691472078089193,-0.06634921343015754,0.38253495483576067,0.15132862885747286,-0.011884986962206887
4208,3.0,300.57773,618.67977,0.0,0.0,0.0,0.04267393257287513,0.0,0.0,-0.04315834436189696,-0.08004744083056732,-0.06485741544042854,0.38805434091298163,0.11788588374193089,0.007002402430983312
4209,3.0,299.7928,992.8716099999999,0.0,0.0,0.0,0.04268407371654739,0.0,0.0,-0.1021372312801599,-0.07931983707950842,-0.1203511111027299,0.43659135117821163,0.1034962327117829,-0.01123497891705609
4210,3.0,300.21994,971.3146,0.0,0.0,0.0,0.04269421486021965,0.0,0.0,-0.08821494996463772,-0.1008517168252895,-0.10618872193751089,0.4352983933881066,0.07755702407228234,-0.0014567482502198584
4211,3.0,299.91086,696.36036,0.0,0.0,0.0,0.042704356003891907,0.0,0.0,-0.04092913739989136,-0.09420177567074141,-0.07654524723792773,0.4574671302059906,0.09565346010226151,-0.045046779103270956
4212,3.0,299.75944,623.45064,0.0,0.0,0.0,0.042714497147564166,0.0,0.0,-0.04238144194047266,-0.05076525666614075,-0.09636673041740582,0.4264838369256776,0.06751858713206574,-0.008133347508273903
4213,3.0,299.97381,814.06258,0.0,0.0,0.0,0.04272463829123643,0.0,0.0,-0.04966921086071945,-0.1023479467709559,-0.0954375425854521,0.40433494967725264,0.08254395330145392,-0.02887229916772407
4214,3.0,300.3732,1149.0621,0.0,0.0,0.0,0.04273477943490869,0.0,0.0,-0.1113210160790289,-0.11095291245019989,-0.1270122577901339,0.38253030401780164,0.09123380603432561,-0.0008954055264646451
4215,3.0,300.33347000000003,1155.769,0.0,0.0,0.0,0.04274492057858095,0.0,0.0,-0.11965182667871588,-0.10533383269563988,-0.12633927733871586,0.3965605248399766,0.1048009847330519,0.015296053907102985
4216,3.0,301.89462000000003,913.0006400000001,0.0,0.0,0.0,0.04275506172225321,0.0,0.0,-0.1150954537615369,-0.1121803636213399,-0.050253583604142546,0.39389319461423167,0.0992941041885651,0.0016778595857168484
4217,3.0,300.79184,765.89584,0.0,0.0,0.0,0.04276520286592547,0.0,0.0,-0.06193544533205253,-0.06831748822641114,-0.10256027332941091,0.40522692387278364,0.11003164519427788,0.01112819755526759
4218,3.0,299.75201,1110.9514,0.0,0.0,0.0,0.04277534400959774,0.0,0.0,-0.11253859819419489,-0.13052706026701788,-0.09463581249682751,0.4103220418681326,0.13167462680027386,-0.03518737636297367
4219,3.0,300.51513,1253.1715,0.0,0.0,0.0,0.04278548515327,0.0,0.0,-0.07803365691932233,-0.11640730866600689,-0.18649187264281483,0.39787643274484663,0.13853093558943885,5.688549194666094e-05
4220,3.0,301.64626,792.63107,0.0,0.0,0.0,0.04279562629694226,0.0,0.0,-0.05579885720816845,-0.08782468047662112,-0.09731651559739231,0.4143440976100786,0.08955237626188141,-0.04006418861102756
4221,3.0,299.62653,510.19699,0.0,0.0,0.0,0.04280576744061452,0.0,0.0,-0.014235560007940384,-0.09804059830435372,-0.042810988042115555,0.40187950017991864,0.08239606640960863,-0.026456614670564576
4222,3.0,299.5327,765.35249,0.0,0.0,0.0,0.04281590858428678,0.0,0.0,-0.06955860003539933,-0.07488875557694473,-0.08820068948273033,0.44113062043370255,0.08379242941216893,-0.05017456630834416
4223,3.0,298.95592999999997,1051.336,0.0,0.0,0.0,0.042826049727959045,0.0,0.0,-0.06776343496573034,-0.15030077782353185,-0.1015156834038179,0.4302404008764216,0.08193437292204302,-0.022982115229658182
4224,3.0,299.74872,917.0904800000001,0.0,0.0,0.0,0.042836190871631305,0.0,0.0,-0.07360581072432794,-0.12334807185100688,-0.08181872258212922,0.4293274625363216,0.08167752314094391,-0.03701069965292167
4225,3.0,300.11773,818.20731,0.0,0.0,0.0,0.042846332015303565,0.0,0.0,-0.06203114275099715,-0.06223875161698654,-0.12444470230173589,0.4192878461729886,0.08188596996476602,-0.008525854759136352
4226,3.0,300.15533,663.8190400000001,0.0,0.0,0.0,0.042856473158975825,0.0,0.0,-0.06305389105743454,-0.08898982183286161,-0.04974070072152495,0.4182667636497156,0.1050990119849649,-0.03461509979924437
4227,3.0,299.97286,934.66082,0.0,0.0,0.0,0.042866614302648084,0.0,0.0,-0.1129299052503139,-0.07420593241405533,-0.09697771009520481,0.37700468645246565,0.1156627522275249,-0.0025010921586885774
4228,3.0,300.29972000000004,1311.1358,0.0,0.0,0.0,0.042876755446320344,0.0,0.0,-0.15757845679928284,-0.1068159034844089,-0.13415819398788287,0.37530561802228063,0.08998098004093132,-0.015982253219325584
4229,3.0,300.50607,1067.1279,0.0,0.0,0.0,0.042886896589992604,0.0,0.0,-0.10017051790231041,-0.100111319778468,-0.12409840381505889,0.35545407272558566,0.08823714318157802,-0.009165709025035051
4230,3.0,300.84272000000004,490.98857999999996,0.0,0.0,0.0,0.042897037733664864,0.0,0.0,-0.041305774621062566,-0.02209473612333068,-0.08584775860401411,0.40933407235812763,0.12786748140453788,-0.025561670638990473
4231,3.0,300.65153,681.66793,0.0,0.0,0.0,0.04290717887733713,0.0,0.0,0.004405699992858736,-0.1034317697404209,-0.1081839633719259,0.4227112737558546,0.1018633295131279,-0.015599061283257484
4232,3.0,299.17259,1114.4636,0.0,0.0,0.0,0.04291732002100939,0.0,0.0,-0.08836403857110162,-0.10381238700798491,-0.14659267762507086,0.44424961702402355,0.089994432962509,-0.004297456207200906
4233,3.0,299.47972999999996,1075.8053,0.0,0.0,0.0,0.04292746116468165,0.0,0.0,-0.10343996693372991,-0.08612846941171812,-0.13744950389020988,0.44366779868410255,0.08019572998270232,0.016333023178693885
4234,3.0,298.39171,704.8566599999999,0.0,0.0,0.0,0.04293760230835391,0.0,0.0,-0.04083405097075706,-0.11112658351733988,-0.062298191907602836,0.4544572099889346,0.11266617651428588,-0.028187574134396976
4235,3.0,299.76479,716.2957700000001,0.0,0.0,0.0,0.04294774345202617,0.0,0.0,-0.06922792485201423,-0.05422077387967375,-0.09428732944293491,0.4162954146526586,0.09749071760758471,0.006936832078587023
4236,3.0,299.88015,1055.1905,0.0,0.0,0.0,0.04295788459569843,0.0,0.0,-0.08488925845991752,-0.1195275211564479,-0.1163347802238489,0.38176114586689164,0.0871991353286346,-0.02859733754108747
4237,3.0,300.11995,1219.2148,0.0,0.0,0.0,0.04296802573937069,0.0,0.0,-0.10972582604909589,-0.12535590798416488,-0.13552912137318285,0.36380554349481165,0.09296434297286632,-0.039866261349743665
4238,3.0,300.10627999999997,1021.1601,0.0,0.0,0.0,0.042978166883042956,0.0,0.0,-0.09590039523113211,-0.07832810435863202,-0.13617868561478988,0.3794633986151216,0.11383637905477588,-0.006975725886325544
4239,3.0,301.05697000000004,547.4697,0.0,0.0,0.0,0.042988308026715216,0.0,0.0,-0.030027202644954176,-0.095132755942122,-0.04125716090776476,0.4149981201521256,0.1131680899513209,-0.044113673033180555
4240,3.0,300.22976,469.80273,0.0,0.0,0.0,0.042998449170387476,0.0,0.0,-0.014090345056608786,-0.06609877752219144,-0.06261917434053134,0.4253697279107236,0.08007581183336733,-0.013277396262876988
4241,3.0,300.4506,1059.0871,0.0,0.0,0.0,0.043008590314059736,0.0,0.0,-0.08174412710976722,-0.1183518268004159,-0.12184009225718088,0.45887585182002055,0.0988703305727419,-0.03327582432056817
4242,3.0,299.32024,1096.893,0.0,0.0,0.0,0.043018731457731996,0.0,0.0,-0.07430607698768883,-0.13027337283948087,-0.12884863174136987,0.4265158049663326,0.1286677767310209,-0.017316088558214884
4243,3.0,300.35387000000003,539.09002,0.0,0.0,0.0,0.04302887260140426,0.0,0.0,-0.008883769854234821,-0.06144025379618094,-0.0935458796292595,0.4463263845614846,0.11974987889089289,-0.012753397013412288
4244,3.0,299.92672000000005,531.96794,0.0,0.0,0.0,0.04303901374507652,0.0,0.0,-0.034759053254201464,-0.08397304428224421,-0.042972872984092365,0.38114807889388663,0.08277445655345282,-0.0017708826323475087
4245,3.0,299.93706000000003,1038.7838,0.0,0.0,0.0,0.04304915488874878,0.0,0.0,-0.1173015525417619,-0.09699195537836072,-0.10147083695439191,0.39264950104398866,0.08683365804406482,0.0044771126440066155
4246,3.0,299.81792,1387.5381,0.0,0.0,0.0,0.04305929603242104,0.0,0.0,-0.16324773296379683,-0.12548443875934986,-0.13304478411549786,0.37167291376376066,0.1059555730895009,-0.01090492992223279
4247,3.0,300.10432000000003,1163.4216,0.0,0.0,0.0,0.0430694371760933,0.0,0.0,-0.1149664974213099,-0.12361075693943188,-0.11507385126940488,0.4033525834403006,0.10030540884837309,-0.006173453202272395
4248,3.0,298.36071,740.11487,0.0,0.0,0.0,0.04307957831976557,0.0,0.0,-0.06231243820400884,-0.05276617128786565,-0.10989782525357089,0.3938356825385556,0.07339934379120124,-0.003675338985627716
4249,3.0,298.50345,703.01555,0.0,0.0,0.0,0.04308971946343783,0.0,0.0,-0.03785089879484286,-0.08081913514647764,-0.09502913997364591,0.44197689704972354,0.0957135316476901,-0.03567216384681846
4250,3.0,297.53001,952.4281,0.0,0.0,0.0,0.04309986060711009,0.0,0.0,-0.10631548965752188,-0.08911680334864372,-0.09408206422442682,0.42268690509094964,0.12232360507239988,-0.03363059357808117
4251,3.0,299.73958999999996,1033.714,0.0,0.0,0.0,0.04311000175078235,0.0,0.0,-0.11362785218419588,-0.08926906545442082,-0.1113263356420539,0.43466312610541064,0.0942175033387936,-0.007272725398662114
4252,3.0,300.1431,525.46663,0.0,0.0,0.0,0.04312014289445461,0.0,0.0,-0.025821849959918177,-0.1000241103556111,-0.033882774302719465,0.4032390791640986,0.06891025878666303,-0.03416291161086686
4253,3.0,300.06371,366.02511,0.0,0.0,0.0,0.04313028403812688,0.0,0.0,0.002021378727369548,-0.07152594264156094,-0.04175792937218676,0.43205552697306054,0.09080547684605282,-0.027165357784262077
4254,3.0,299.69936,986.82315,0.0,0.0,0.0,0.04314042518179914,0.0,0.0,-0.05385663307198585,-0.12766948220249688,-0.1184434854044619,0.4315014007583726,0.1003749664412379,-0.027243670871240973
4255,3.0,300.00909,1407.4172,0.0,0.0,0.0,0.0431505663254714,0.0,0.0,-0.1033722210320439,-0.15082396951266686,-0.17362348491530386,0.42214086461205963,0.08939205983105941,0.001033670635890349
4256,3.0,300.39398,1107.0468,0.0,0.0,0.0,0.04316070746914366,0.0,0.0,-0.1171247100018089,-0.10688133917586691,-0.11250852493122689,0.41437052317268663,0.07081435736133293,-0.015942871227688882
4257,3.0,300.37425,773.42855,0.0,0.0,0.0,0.043170848612815914,0.0,0.0,-0.053798352952734045,-0.09468439682587242,-0.08662021488399961,0.4195769872215246,0.08412715252970351,-0.01091990778521099
4258,3.0,299.61087000000003,717.0794099999999,0.0,0.0,0.0,0.04318098975648819,0.0,0.0,-0.06256181729212065,-0.07223829089911422,-0.08317412596264713,0.4237333087342216,0.10521827152173491,-0.04050455825023866
4259,3.0,299.63821,994.36109,0.0,0.0,0.0,0.04319113090016045,0.0,0.0,-0.07675211237834373,-0.0919916613803701,-0.1335171714446189,0.40862438185558664,0.09456855498168973,-0.014794425193346087
4260,3.0,298.86088,1012.3751,0.0,0.0,0.0,0.04320127204383271,0.0,0.0,-0.07948864657266863,-0.11398278356172488,-0.1142653080871079,0.38344880510095064,0.10434089826014491,-0.04037496862869916
4261,3.0,298.49981,650.74634,0.0,0.0,0.0,0.04321141318750497,0.0,0.0,-0.03971757905656986,-0.06573351605989293,-0.09235954310742721,0.4030397019419216,0.09845183700318981,-0.00831537069466319
4262,3.0,298.84111,395.45068,0.0,0.0,0.0,0.04322155433117723,0.0,0.0,-0.02957034641336597,-0.07321762143876663,-0.017419164464387682,0.4154233001590876,0.13783318117307589,-0.008516698321957682
4263,3.0,299.741,854.48636,0.0,0.0,0.0,0.043231695474849494,0.0,0.0,-0.06619473534641174,-0.10190801384253789,-0.0916397697531411,0.4261474784224816,0.1138683774929339,0.0006149279486686634
4264,3.0,298.98866,1415.435,0.0,0.0,0.0,0.04324183661852175,0.0,0.0,-0.13578549391348488,-0.12511095477248987,-0.16936046816707684,0.43389863903746156,0.08972430352559932,0.017531013089926283
4265,3.0,299.84676,1307.9348,0.0,0.0,0.0,0.04325197776219401,0.0,0.0,-0.1101538836863419,-0.13729570265753085,-0.15012994385667186,0.43446752830610663,0.08526310417706323,-0.027407670466176478
4266,3.0,300.36995,786.82173,0.0,0.0,0.0,0.04326211890586627,0.0,0.0,-0.02914560919669767,-0.09441100675014091,-0.11561754100806289,0.45046206616964457,0.08508838236956952,-0.023468538099164375
4267,3.0,300.71653,764.1740900000001,0.0,0.0,0.0,0.04327226004953853,0.0,0.0,-0.06207728920030144,-0.07190734923095284,-0.09830520350171822,0.4106005133931156,0.07376401858169183,-0.019755018025918482
4268,3.0,300.39096,1080.9435,0.0,0.0,0.0,0.0432824011932108,0.0,0.0,-0.12003066062610389,-0.08846887449269811,-0.12008029974850289,0.3864837019329716,0.07737939626350183,-0.0052520662815135856
4269,3.0,299.54575,1063.7915,0.0,0.0,0.0,0.04329254233688306,0.0,0.0,-0.0963489286263989,-0.09386897975489701,-0.13314813562569788,0.38707790218911464,0.11240130280564489,-0.02313192729669348
4270,3.0,299.31878,701.12007,0.0,0.0,0.0,0.04330268348055532,0.0,0.0,-0.037973842508976466,-0.097137268614952,-0.07801188420117351,0.39225794067534464,0.1323977023366359,-0.013905714676387187
4271,3.0,301.23426,465.98934,0.0,0.0,0.0,0.04331282462422758,0.0,0.0,0.0026759769981233674,-0.08263381237332232,-0.06169128752170604,0.4151255870147056,0.13433908952823587,-0.034891065556730064
4272,3.0,300.16896,702.53572,0.0,0.0,0.0,0.04332296576789984,0.0,0.0,-0.028783456385705973,-0.08728242955310511,-0.0974874285977601,0.4223250532152376,0.08301262200270793,-0.02311883610540148
4273,3.0,298.51538999999997,1320.2462,0.0,0.0,0.0,0.043333106911572106,0.0,0.0,-0.13650452658194787,-0.14773336419014785,-0.11708397734778889,0.4442258056466736,0.11467551225759189,-0.01979103096097268
4274,3.0,299.60376,1349.369,0.0,0.0,0.0,0.043343248055244366,0.0,0.0,-0.11955985396713888,-0.14749257543638386,-0.14312206298504784,0.4392758559931516,0.08775765803550652,0.012797303166745487
4275,3.0,299.67973,585.34625,0.0,0.0,0.0,0.043353389198916625,0.0,0.0,-0.03907712494661196,-0.08373505919150692,-0.05511845976601845,0.43705783125924963,0.08770315936562792,-0.02365019661684268
4276,3.0,299.77654,760.26284,0.0,0.0,0.0,0.043363530342588885,0.0,0.0,-0.05201158772639405,-0.0936987881886004,-0.08539054368189052,0.39291785020047265,0.06487008106667853,-0.002749220896176977
4277,3.0,299.90657999999996,1241.0693,0.0,0.0,0.0,0.043373671486261145,0.0,0.0,-0.13097494720872088,-0.1001507139291059,-0.14612841656175185,0.4069658839594056,0.10596074066501089,-0.029213088613607375
4278,3.0,299.83963,1069.9075,0.0,0.0,0.0,0.04338381262993341,0.0,0.0,-0.08408978285276543,-0.1203389318365279,-0.12079646491918289,0.4045069083517236,0.1074074692902919,-0.023184121835844677
4279,3.0,300.63204,517.91344,0.0,0.0,0.0,0.04339395377360567,0.0,0.0,-0.06053811366239665,-0.05098618673119486,-0.04590845408106166,0.4242524575554576,0.11732421894649887,-0.039022255427196756
4280,3.0,301.01131000000004,366.35456,0.0,0.0,0.0,0.04340409491727793,0.0,0.0,-0.035046060398026865,-0.022005368477760776,-0.05431121050409914,0.4002649064105706,0.08140758419505302,-0.0026364207274694675
4281,3.0,299.80961,665.92368,0.0,0.0,0.0,0.04341423606095019,0.0,0.0,-0.07378428155719163,-0.07215697555208904,-0.05648291552292975,0.4440948228062466,0.1056597445903049,-0.03394160765652587
4282,3.0,300.40803,1266.8526,0.0,0.0,0.0,0.04342437720462245,0.0,0.0,-0.0936999443069645,-0.1202455000448069,-0.17114612895080783,0.4110572662731936,0.1156711014083489,-0.00988048725897817
4283,3.0,300.20232999999996,1251.2056,0.0,0.0,0.0,0.04343451834829471,0.0,0.0,-0.08471019082274492,-0.14822839765900386,-0.14739666118191785,0.42278693314082155,0.08697389692415532,-0.01856326770880188
4284,3.0,300.10848,751.45121,0.0,0.0,0.0,0.04344465949196697,0.0,0.0,-0.034526732231523166,-0.08512853341803212,-0.1087671394669809,0.4116361765853276,0.07434326123985863,-0.015602654268112085
4285,3.0,299.1329,683.02362,0.0,0.0,0.0,0.04345480063563923,0.0,0.0,-0.061449145065808446,-0.08546297079903852,-0.06071000850211135,0.42965912969155456,0.10689701415491391,-0.012131329339768989
4286,3.0,300.2591,1150.1519,0.0,0.0,0.0,0.04346494177931149,0.0,0.0,-0.11935847050976389,-0.1168251426097439,-0.11343384518754888,0.4446096349170546,0.09103959841415882,-0.014155635853302487
4287,3.0,300.91072,1307.0688,0.0,0.0,0.0,0.04347508292298376,0.0,0.0,-0.15351153434290885,-0.1173699367910109,-0.1264347862931419,0.42163145312428457,0.09798827710894,0.006280414314628634
4288,3.0,301.55102999999997,586.87513,0.0,0.0,0.0,0.04348522406665602,0.0,0.0,-0.022875770578662778,-0.07737002673982712,-0.07814958894276393,0.4317101505439746,0.08048888451488442,-0.027108107127111872
4289,3.0,299.88087,296.98361,0.0,0.0,0.0,0.04349536521032828,0.0,0.0,-0.013526134976925588,-0.049442075652052955,-0.027307393156779877,0.4410912860648206,0.08717982987447932,-0.03740268153360726
4290,3.0,300.68688,859.22974,0.0,0.0,0.0,0.04350550635400054,0.0,0.0,-0.07294585053669493,-0.07589714511621502,-0.11234138932723188,0.4217486861608546,0.1025488641332849,-0.03505614122327176
4291,3.0,300.49145,1176.8004,0.0,0.0,0.0,0.043515647497672796,0.0,0.0,-0.1093525143147529,-0.1266999335793099,-0.12166548899994888,0.38880380148194765,0.09100517222876123,-0.02861829965915627
4292,3.0,300.52647,1040.0702,0.0,0.0,0.0,0.043525788641345056,0.0,0.0,-0.09334207653064572,-0.09005039375228191,-0.13276290807017888,0.40511134243387664,0.08247607162425452,-0.012023724205649188
4293,3.0,299.59157000000005,769.32845,0.0,0.0,0.0,0.04353592978501732,0.0,0.0,-0.07066812308040073,-0.08403829556218402,-0.07915022103926862,0.4010691027499386,0.1110232826696449,0.014137586829271187
4294,3.0,300.06632,686.2768599999999,0.0,0.0,0.0,0.04354607092868958,0.0,0.0,-0.025339125453276976,-0.09090425961155192,-0.09236764505522682,0.4134427305861206,0.12909367614555387,0.0021460437507730278
4295,3.0,300.47086,1192.7983,0.0,0.0,0.0,0.04355621207236184,0.0,0.0,-0.07564177569351203,-0.12592632726046088,-0.16101281735072784,0.3979276829349046,0.12255606491034189,0.017599367954922382
4296,3.0,299.41458,1407.0284,0.0,0.0,0.0,0.0435663532160341,0.0,0.0,-0.11292724040255091,-0.15317526703222184,-0.16159898253357785,0.4139218864259096,0.1018337730077109,-0.001990734599295208
4297,3.0,299.84472999999997,874.34024,0.0,0.0,0.0,0.04357649435970636,0.0,0.0,-0.0977876951323941,-0.09402546407384081,-0.07396444046472193,0.4105740169030006,0.10198154540229491,-0.013891197842204486
4298,3.0,300.00055,363.48721,0.0,0.0,0.0,0.04358663550337863,0.0,0.0,-0.03905062237699636,-0.05048853603733055,-0.02095187715003928,0.44320925235134756,0.1002345664543815,-0.03273382063007657
4299,3.0,299.78076,753.35491,0.0,0.0,0.0,0.04359677664705089,0.0,0.0,-0.06699760331489864,-0.09425698665544031,-0.06774649139755813,0.3918269243478066,0.06367334758557014,-0.018779654360407586
4300,3.0,300.17551000000003,1290.2075,0.0,0.0,0.0,0.04360691779072315,0.0,0.0,-0.1071668730540469,-0.10478068933354891,-0.1802433112636298,0.4101885968299626,0.06137598435558804,-0.03219157071981067
4301,3.0,300.61444,1075.983,0.0,0.0,0.0,0.04361705893439541,0.0,0.0,-0.08246149602156602,-0.12584644262257688,-0.11876400680859489,0.38971951612732164,0.10092050941432881,-0.03723034694334917
4302,3.0,300.53382,629.7882900000001,0.0,0.0,0.0,0.04362720007806767,0.0,0.0,-0.022979855681935182,-0.09543621218807082,-0.07302384647639253,0.4304377617308996,0.14205439122217686,-0.039643838767292265
4303,3.0,301.58576,816.54254,0.0,0.0,0.0,0.043637341221739935,0.0,0.0,-0.08587206546066302,-0.07125875770944183,-0.091077718909421,0.41125601528030864,0.12896571279042487,0.0015577939071672886
4304,3.0,300.63496000000004,1212.7678,0.0,0.0,0.0,0.043647482365412195,0.0,0.0,-0.1002704922499271,-0.15298506985595087,-0.11539554804365389,0.42861215862822655,0.11201634882765289,0.006088500388713204
4305,3.0,300.24708,1437.7572,0.0,0.0,0.0,0.043657623509084455,0.0,0.0,-0.16563580132948086,-0.11949709325594488,-0.15190937315228786,0.42767981654871157,0.12297158864385088,0.017807420624455585
4306,3.0,300.16811,1058.0311,0.0,0.0,0.0,0.043667764652756715,0.0,0.0,-0.06190132717468534,-0.11797328669555687,-0.14174043567869188,0.43583202155327155,0.1101415828301279,0.021046858201163178
4307,3.0,299.8999,405.1246,0.0,0.0,0.0,0.043677905796428974,0.0,0.0,-0.023508793512387275,-0.05423557746363474,-0.04540339044946575,0.41511475537113657,0.08357332522379501,-0.016534130018791584
4308,3.0,300.00878,708.40077,0.0,0.0,0.0,0.04368804694010125,0.0,0.0,-0.035751069685105864,-0.05978130601695554,-0.1198037736637119,0.3957622661461946,0.062496902411214035,-0.005534445202857215
4309,3.0,299.47303999999997,1241.9309,0.0,0.0,0.0,0.0436981880837735,0.0,0.0,-0.14378392808286886,-0.12501569913058888,-0.1087163452394679,0.4134363471104906,0.07934676622741613,-0.04543854921468566
4310,3.0,299.94115,1051.0392,0.0,0.0,0.0,0.04370832922744576,0.0,0.0,-0.09654624692437272,-0.1070136899039289,-0.1159297334963739,0.4194358414825946,0.08846455399427172,-0.02199442841643108
4311,3.0,300.44256,384.45677,0.0,0.0,0.0,0.04371847037111802,0.0,0.0,-0.04624760510153325,-0.03728334701632986,-0.033334305063339766,0.4288484384190456,0.093025134939116,-0.046248508920622454
4312,3.0,299.80401,597.7737900000001,0.0,0.0,0.0,0.04372861151479028,0.0,0.0,-0.002755216803643727,-0.1100960676356359,-0.06885701756015852,0.41988931143234864,0.08457063385997171,-0.035879281286509364
4313,3.0,299.79298,1227.5913,0.0,0.0,0.0,0.043738752658462554,0.0,0.0,-0.13266623387813786,-0.1107882289114469,-0.12970262932315288,0.43426370291599065,0.1247390413232849,-0.026462230102618774
4314,3.0,300.96642,1375.6121,0.0,0.0,0.0,0.043748893802134814,0.0,0.0,-0.11879891327453988,-0.15767409747622185,-0.14167871861510087,0.4291886675376235,0.12868017891224487,-0.0015176119545766385
4315,3.0,300.0065,785.29597,0.0,0.0,0.0,0.043759034945807074,0.0,0.0,-0.08677861323238233,-0.09489341410950082,-0.05703833971099585,0.42366908894288363,0.08720054779927401,-0.001924356686569218
4316,3.0,299.86965,451.21237,0.0,0.0,0.0,0.043769176089479334,0.0,0.0,-0.021322289975846183,-0.04084583000316956,-0.07498917271485513,0.4157450779933446,0.08886944265473111,0.04100776054140086
4317,3.0,299.62619,910.69023,0.0,0.0,0.0,0.04377931723315159,0.0,0.0,-0.06770228430894523,-0.13489064208766988,-0.07423416358834152,0.41995094743593164,0.08469917071465732,-0.02941886957641637
4318,3.0,299.21166,1365.931,0.0,0.0,0.0,0.04378945837682386,0.0,0.0,-0.1018696319287499,-0.12900574630187586,-0.18433355873730584,0.43199741707982564,0.09095012133757811,-0.01145140407216559
4319,3.0,299.91196,1051.9432,0.0,0.0,0.0,0.04379959952049612,0.0,0.0,-0.1039029513019229,-0.0987703795298775,-0.1170911410259959,0.4108818726808836,0.08288762240412142,-0.036725487988273464
4320,3.0,299.89043,404.96308999999997,0.0,0.0,0.0,0.04380974066416838,0.0,0.0,0.027433536714729274,-0.07638763821137293,-0.07414456593499893,0.43257540533436856,0.08910747638147322,-0.030770421593304172
4321,3.0,299.8439,440.42087000000004,0.0,0.0,0.0,0.04381988180784064,0.0,0.0,-0.047464898440420754,-0.03449640970903057,-0.05191564003467475,0.4302795832577886,0.10550204234474089,-0.014671810785494985
4322,3.0,299.85851,1128.4231,0.0,0.0,0.0,0.0438300229515129,0.0,0.0,-0.10919719320692389,-0.1176026803389809,-0.11621256199678688,0.4301761202900776,0.09444246208624532,-0.014486459984452287
4323,3.0,300.43507,1259.6347,0.0,0.0,0.0,0.043840164095185166,0.0,0.0,-0.15303098021798184,-0.09347236529475422,-0.13639415324855486,0.41715914956790257,0.07139519284865693,0.0014638646096471887
4324,3.0,300.63408,816.37168,0.0,0.0,0.0,0.043850305238857426,0.0,0.0,-0.05597351720740605,-0.08931813411701352,-0.10286495763448089,0.4114587260953146,0.08744143281179752,-0.02250688573400668
4325,3.0,300.45021,648.11737,0.0,0.0,0.0,0.043860446382529686,0.0,0.0,-0.05519901416221854,-0.09821359049392671,-0.043598893346375754,0.42266952785173456,0.11482539221238389,-0.02080346539464218
4326,3.0,301.08761,1142.3329,0.0,0.0,0.0,0.043870587526201946,0.0,0.0,-0.0984661299091004,-0.11196206901979588,-0.13681248368484086,0.43741530589452954,0.1170499321444289,-0.023692435973761375
4327,3.0,300.9869,1318.3029999999999,0.0,0.0,0.0,0.043880728669874206,0.0,0.0,-0.11333414137770889,-0.14762218025667487,-0.13977488247220687,0.4210631819382006,0.11331910474622489,0.01199070339814029
4328,3.0,300.00787,842.4269300000001,0.0,0.0,0.0,0.04389086981354647,0.0,0.0,-0.05120230081852366,-0.10925371229750189,-0.09562073719028201,0.4291821016769756,0.11859918141482789,-0.009854679576281151
4329,3.0,299.85254,524.21362,0.0,0.0,0.0,0.04390101095721873,0.0,0.0,0.002182906802661128,-0.05293597883237435,-0.1085947754924699,0.4132742574919936,0.11278163636318089,-0.017323412329937685
4330,3.0,299.69153,620.63725,0.0,0.0,0.0,0.04391115210089099,0.0,0.0,-0.04393092729814496,-0.09092150816800422,-0.053805791221718156,0.41666719637935057,0.11619820424286989,-0.04413376172966316
4331,3.0,299.62282000000005,1014.9314,0.0,0.0,0.0,0.04392129324456325,0.0,0.0,-0.08213003860910373,-0.0947469741387983,-0.13163678190903888,0.3730954459766536,0.07439146458686594,-0.034973038503070174
4332,3.0,299.35876,1048.2679,0.0,0.0,0.0,0.04393143438823551,0.0,0.0,-0.09480081216961173,-0.1010042241375908,-0.12284223713608489,0.42276305083596455,0.08466085770187612,-0.02324990101908658
4333,3.0,299.58648999999997,712.1763900000001,0.0,0.0,0.0,0.04394157553190778,0.0,0.0,-0.06236137818383884,-0.08396651793835012,-0.07015594339335253,0.42407632429057457,0.09918322220362191,-0.011166129586011188
4334,3.0,299.93374,695.78405,0.0,0.0,0.0,0.04395171667558004,0.0,0.0,-0.07539004485191814,-0.05562039042830515,-0.08049054117879793,0.4626471078972145,0.1178464683130409,-0.016454913112723485
4335,3.0,299.96961,1195.4744,0.0,0.0,0.0,0.0439618578192523,0.0,0.0,-0.10605430417924491,-0.14254503731809987,-0.11479502510688688,0.42621652128429566,0.09571878129645821,-0.011828276367359988
4336,3.0,299.99433999999997,1304.6523,0.0,0.0,0.0,0.04397199896292456,0.0,0.0,-0.12041216955375589,-0.14379565138652586,-0.13237391122428788,0.42407011306746156,0.11557910843176988,-0.033591200440693365
4337,3.0,301.05908,1122.3238,0.0,0.0,0.0,0.04398214010659682,0.0,0.0,-0.09308159931418859,-0.13509297800013886,-0.11298383042063588,0.4117313511672206,0.13373445279606286,-0.037958048979667765
4338,3.0,300.71791,829.7002,0.0,0.0,0.0,0.04399228125026908,0.0,0.0,-0.05524369545187824,-0.11309451786155988,-0.08386992683281733,0.39385472150793466,0.1075576532201139,-0.03738455144956796
4339,3.0,300.01536,733.0930099999999,0.0,0.0,0.0,0.04400242239394134,0.0,0.0,-0.06888085933501154,-0.048303043724389254,-0.1056580625951389,0.38036055051866363,0.08440435343906112,0.022385353477262376
4340,3.0,300.37871,937.78218,0.0,0.0,0.0,0.0440125635376136,0.0,0.0,-0.05511259203468935,-0.08302193579762712,-0.14692784049314886,0.38081114283813366,0.07107510916856713,0.01090040576053629
4341,3.0,299.59277000000003,1128.1484,0.0,0.0,0.0,0.04402270468128586,0.0,0.0,-0.09207658795075171,-0.11022804346116089,-0.14062431029603886,0.43881422938009257,0.1077765659042189,0.025542499947098476
4342,3.0,300.25372000000004,1050.528,0.0,0.0,0.0,0.04403284582495812,0.0,0.0,-0.09190199178627041,-0.09243305946843272,-0.13499924223338788,0.43434431709394655,0.11067205978748189,-0.01163209189624809
4343,3.0,299.18105,765.92216,0.0,0.0,0.0,0.044042986968630383,0.0,0.0,-0.07499421870035312,-0.09279665312106661,-0.06503033974224484,0.45385270497927455,0.09814589120174531,-0.02248380288347858
4344,3.0,299.12049,1019.4763,0.0,0.0,0.0,0.04405312811230264,0.0,0.0,-0.08524247035202683,-0.11561952697825889,-0.10903335066575388,0.43440029916197154,0.0977556308329796,-0.03692326934154296
4345,3.0,299.2587,1255.4248,0.0,0.0,0.0,0.0440632692559749,0.0,0.0,-0.12091825758120289,-0.13734028566193088,-0.12335923786710888,0.4431821985736776,0.12662082914400288,-0.02639557952429087
4346,3.0,299.96868,897.9888599999999,0.0,0.0,0.0,0.04407341039964716,0.0,0.0,-0.04413168861995855,-0.12885277593427888,-0.0999817281304283,0.41552045057867554,0.12284600642645689,-0.037063318743864766
4347,3.0,300.25523,483.30332999999996,0.0,0.0,0.0,0.04408355154331942,0.0,0.0,-0.028589616575325473,-0.05414567988826255,-0.06417684675901164,0.4176873264475296,0.09292482824546651,-0.026485191363134875
4348,3.0,300.64815,518.35453,0.0,0.0,0.0,0.04409369268699169,0.0,0.0,-0.02382019363912008,-0.06625405404701602,-0.06749258510799953,0.4091726514846966,0.07251974441914152,-0.011848915258646887
4349,3.0,300.10553,893.1694699999999,0.0,0.0,0.0,0.04410383383066395,0.0,0.0,-0.08271629903746312,-0.0959567765196965,-0.0928281398679241,0.4269418766333826,0.09174740123176352,-0.043088056215710054
4350,3.0,301.09631,1219.8002,0.0,0.0,0.0,0.044113974974336216,0.0,0.0,-0.11979041902739387,-0.1110226240570799,-0.13997575930453185,0.4255596109794636,0.05937117986672923,0.014562385854195586
4351,3.0,300.23215,1043.5669,0.0,0.0,0.0,0.04412411611800847,0.0,0.0,-0.11706869753628088,-0.09488236867016071,-0.1052672216340659,0.44057890575425257,0.06670961838472673,-0.012386295488932188
4352,3.0,299.3216,700.76137,0.0,0.0,0.0,0.04413425726168073,0.0,0.0,-0.03645165613549837,-0.06675394199710113,-0.10980836540224191,0.4145019011806526,0.08508344885483261,0.025801753157434774
4353,3.0,300.18632,873.0215199999999,0.0,0.0,0.0,0.044144398405352996,0.0,0.0,-0.07361467970245322,-0.10000499133947421,-0.09175707067746781,0.4564410726247266,0.13429187207357587,-0.018106049746927984
4354,3.0,300.31165,1399.4588,0.0,0.0,0.0,0.044154539549025255,0.0,0.0,-0.11833072080083289,-0.16857499668955683,-0.13849482335587487,0.41330268928979963,0.13755964417607985,-0.017139716166308286
4355,3.0,299.61922999999996,1144.3577,0.0,0.0,0.0,0.044164680692697515,0.0,0.0,-0.1209326457326229,-0.1074686391988289,-0.1194548913892799,0.4248092283529066,0.10989940592372688,-0.029522624360156176
4356,3.0,300.19369,539.2386,0.0,0.0,0.0,0.044174821836369775,0.0,0.0,-0.03964984531388506,-0.08498328300294701,-0.03928194028207566,0.4209407711936196,0.09458110813717861,-0.04625311515557705
4357,3.0,300.32424,477.87472,0.0,0.0,0.0,0.044184962980042035,0.0,0.0,-0.008804748809411051,-0.06492453819330304,-0.07153269494022733,0.43690342207651056,0.13166224488405187,-0.028255951290895275
4358,3.0,300.24962999999997,995.67185,0.0,0.0,0.0,0.0441951041237143,0.0,0.0,-0.05948954065066054,-0.1091437645291509,-0.13402607630734387,0.43213581691098457,0.0988709993178079,-0.024329121806597374
4359,3.0,300.6147,980.2539,0.0,0.0,0.0,0.04420524526738656,0.0,0.0,-0.07520784931168684,-0.1049062614184419,-0.1178586070492389,0.4164131239167756,0.07128802037232983,-0.007938934907611871
4360,3.0,300.23398,697.80372,0.0,0.0,0.0,0.04421538641105882,0.0,0.0,-0.04474944086142596,-0.07365117494455503,-0.09371429091513041,0.41357378435405456,0.0940602560425245,-0.028151574371594074
4361,3.0,300.22802,712.93493,0.0,0.0,0.0,0.04422552755473108,0.0,0.0,-0.03775452857783186,-0.09353469841440601,-0.08542519075580993,0.41759098662802163,0.11231927007754888,-0.023033105014440478
4362,3.0,300.99142,989.11648,0.0,0.0,0.0,0.04423566869840334,0.0,0.0,-0.0983648352966034,-0.12010620855355988,-0.08219567087108112,0.41837490783288855,0.1226212371567739,-0.013739827396515386
4363,3.0,300.30675,1242.0278,0.0,0.0,0.0,0.04424580984207561,0.0,0.0,-0.12496780279836188,-0.1196336084419179,-0.13294402652555387,0.4026158796900936,0.08454097096329422,-0.002088084730477918
4364,3.0,299.67311,1015.9603,0.0,0.0,0.0,0.04425595098574787,0.0,0.0,-0.09272948071893722,-0.1042016776964049,-0.1118953870307149,0.4497154224359566,0.10009513108162031,-0.011909006055827388
4365,3.0,299.70731,671.20343,0.0,0.0,0.0,0.04426609212942013,0.0,0.0,-0.03602755625314297,-0.09315438410862191,-0.07484714139533773,0.44577225834679657,0.14513306045851784,-0.016407741254317987
4366,3.0,300.10832,588.21279,0.0,0.0,0.0,0.04427623327309239,0.0,0.0,-0.03253536749199076,-0.07683749693777052,-0.06942913605687223,0.47301928307586855,0.12346048181710088,-0.025775975061640678
4367,3.0,300.06607,1091.2602,0.0,0.0,0.0,0.04428637441676465,0.0,0.0,-0.11292970260029388,-0.09915725057705871,-0.11962888669645189,0.4288656231407416,0.0908399911842091,-0.01065877600918929
4368,3.0,299.59927999999996,1105.2195,0.0,0.0,0.0,0.04429651556043692,0.0,0.0,-0.12640738801043788,-0.08130443634812312,-0.1282473184695249,0.4124042404261296,0.0901031455789881,-0.010580860116249589
4369,3.0,300.89128999999997,804.8464299999999,0.0,0.0,0.0,0.04430665670410918,0.0,0.0,-0.05376683986137394,-0.09729057740808242,-0.09359579942193622,0.4103533310312206,0.1013485579323239,-0.003911667007151476
4370,3.0,300.94921,725.4870400000001,0.0,0.0,0.0,0.04431679784778144,0.0,0.0,-0.06363962054274154,-0.07656507856888493,-0.08032524563698451,0.39268310041730464,0.10640789806664189,-0.026114653907565677
4371,3.0,300.71909,1092.0065,0.0,0.0,0.0,0.04432693899145369,0.0,0.0,-0.1079523445315669,-0.09103381680908822,-0.13295654016428887,0.3916705494598736,0.0959081567268981,0.00978003242816405
4372,3.0,300.68093999999996,1143.5105,0.0,0.0,0.0,0.04433708013512595,0.0,0.0,-0.0976394596825144,-0.12095812897263788,-0.1290010346889109,0.4225992184272956,0.08490246212197061,-0.03101307675375237
4373,3.0,300.22767999999996,934.75375,0.0,0.0,0.0,0.04434722127879823,0.0,0.0,-0.061829993354395235,-0.11398726212716688,-0.10832454169079989,0.44552437684233254,0.12174179686497989,0.02117242724630588
4374,3.0,300.43773,669.57614,0.0,0.0,0.0,0.04435736242247049,0.0,0.0,-0.033281845052662365,-0.09841564269636771,-0.07183693848150384,0.44725350840298456,0.12121066129506089,-0.03583567809495607
4375,3.0,300.61242999999996,700.75382,0.0,0.0,0.0,0.044367503566142746,0.0,0.0,-0.045601691600036555,-0.08367490759932042,-0.08373506324450733,0.44980801323009456,0.09813190227086471,-0.005647015059816994
4376,3.0,300.70392999999996,989.19699,0.0,0.0,0.0,0.044377644709815006,0.0,0.0,-0.1023893785675449,-0.1022648298652529,-0.09603698438436241,0.4239237896205206,0.10245857341687391,-0.03322085550264317
4377,3.0,300.57486,1164.4527,0.0,0.0,0.0,0.044387785853487266,0.0,0.0,-0.1053577453979999,-0.13303063914410188,-0.1155761700064799,0.43386792742693064,0.11633763758913089,-0.02138594640012858
4378,3.0,299.53882000000004,762.46657,0.0,0.0,0.0,0.04439792699715953,0.0,0.0,-0.07057197577841173,-0.07429546623264163,-0.08690335850519372,0.3977027211477026,0.1163029033757029,-0.025127609494901976
4379,3.0,298.76183,621.6831400000001,0.0,0.0,0.0,0.04440806814083179,0.0,0.0,-0.050768699689980545,-0.08666285346145772,-0.05154459696730565,0.3950748671458536,0.08263107963780263,-0.033233534301144466
4380,3.0,299.96173,971.14041,0.0,0.0,0.0,0.04441820928450405,0.0,0.0,-0.07948840744564502,-0.10481710554214291,-0.11089692024967389,0.4006696491630156,0.08529921134437672,-0.011532695101188388
4381,3.0,300.21979,990.8608300000001,0.0,0.0,0.0,0.04442835042817631,0.0,0.0,-0.08011768743350012,-0.09252058603857091,-0.12855868009275387,0.45539058558355155,0.1118104766723349,-0.015835178954060485
4382,3.0,299.2408,801.57103,0.0,0.0,0.0,0.04443849157184857,0.0,0.0,-0.07218719674957164,-0.08866501438080561,-0.08280536676100343,0.4322669314739246,0.11398642112958389,0.00040688440851886456
4383,3.0,299.47312999999997,768.78677,0.0,0.0,0.0,0.04444863271552084,0.0,0.0,-0.08557502308784723,-0.08007771674355534,-0.06803924164295033,0.45382194270623855,0.08991928526884252,-0.03047323229922387
4384,3.0,300.01968,818.82493,0.0,0.0,0.0,0.0444587738591931,0.0,0.0,-0.08704269153969482,-0.09012750208489191,-0.07173213802366084,0.43985015601733063,0.08446859653515142,0.0031028720322046274
4385,3.0,301.58997999999997,1006.1431,0.0,0.0,0.0,0.04446891500286536,0.0,0.0,-0.09343389725470772,-0.10484482806487891,-0.1075636415282049,0.4580679773827896,0.1016855345180809,-0.01906773960233938
4386,3.0,300.83653,1179.0922,0.0,0.0,0.0,0.04447905614653762,0.0,0.0,-0.09001237559527982,-0.1123347120090729,-0.15606751851516484,0.4068601817089736,0.10235710655185991,-0.0017417839133256885
4387,3.0,299.26815,952.13901,0.0,0.0,0.0,0.04448919729020988,0.0,0.0,-0.06635249028098095,-0.11397511325846789,-0.10909887754972089,0.4202758156829936,0.08258244768600302,-0.02233873080041108
4388,3.0,299.46217,780.3345099999999,0.0,0.0,0.0,0.04449933843388214,0.0,0.0,-0.05788351188440785,-0.08789769527882711,-0.09142099993730021,0.41496565561892157,0.09687567074388431,-0.03294619582453637
4389,3.0,300.16947999999996,891.1017300000001,0.0,0.0,0.0,0.044509479577554405,0.0,0.0,-0.09465089776431632,-0.07293391749026723,-0.1032878578287179,0.4429432438025946,0.10036185802469422,-0.023990544285682376
4390,3.0,300.26342,1016.1911,0.0,0.0,0.0,0.044519620721226665,0.0,0.0,-0.1067873703615929,-0.11828383771870589,-0.08382552114718482,0.42678191484009564,0.10383587414530289,-0.03591485751077046
4391,3.0,299.5745,774.75191,0.0,0.0,0.0,0.044529761864898924,0.0,0.0,-0.08401700211133252,-0.06379774632684734,-0.08769048563337711,0.3933509031607116,0.11776112225711789,-0.03178255914469437
4392,3.0,300.00661,707.37057,0.0,0.0,0.0,0.044539903008571184,0.0,0.0,-0.021558641707422277,-0.1014134160712249,-0.09205092941846942,0.4144678357122906,0.13203491827083189,-0.027214004934813175
4393,3.0,299.89156,805.3237799999999,0.0,0.0,0.0,0.044550044152243444,0.0,0.0,-0.036202741115932364,-0.1068363407389259,-0.1017592383303549,0.4192740862366306,0.1304890836532699,-0.005875293417246314
4394,3.0,300.11388,1065.7076,0.0,0.0,0.0,0.044560185295915704,0.0,0.0,-0.06746473694225114,-0.09753584371403831,-0.15894792510443884,0.43262278490904454,0.11648538971871289,-0.0010480209930816189
4395,3.0,299.88257000000004,1164.2969,0.0,0.0,0.0,0.044570326439587964,0.0,0.0,-0.09264713894956071,-0.14273656185200187,-0.11853347214584288,0.4261411050793526,0.07325064731252602,-0.02384563128288058
4396,3.0,300.45063999999996,1032.5751,0.0,0.0,0.0,0.04458046758326022,0.0,0.0,-0.1191606536927409,-0.0965709388160596,-0.0981454473982015,0.43399937636240354,0.09533238951657431,-0.006953671079348904
4397,3.0,299.89457999999996,923.5964,0.0,0.0,0.0,0.04459060872693248,0.0,0.0,-0.06927587488649653,-0.08140732581627752,-0.1300670447216179,0.43907731976855763,0.0976974611579887,-0.008653707872654471
4398,3.0,299.96464,934.98097,0.0,0.0,0.0,0.04460074987060475,0.0,0.0,-0.0918463866472826,-0.09398869930721242,-0.09837578245068382,0.4420272555796936,0.10648360811411389,-0.0035847832029905565
4399,3.0,300.02428,1008.0076,0.0,0.0,0.0,0.04461089101427701,0.0,0.0,-0.05969598225253474,-0.08513972172563632,-0.16157342836605584,0.4073574645930516,0.09246743296482511,0.0003111707573076627
4400,3.0,301.03604,796.56574,0.0,0.0,0.0,0.04462103215794927,0.0,0.0,-0.07789746496013122,-0.0881726964222176,-0.07606593333112313,0.4217048529615286,0.11475105005254689,-0.028736047426777073
4401,3.0,301.71375,590.46371,0.0,0.0,0.0,0.04463117330162153,0.0,0.0,-0.006258429320583884,-0.1131093214455209,-0.06011847309373135,0.4080018916566516,0.09483758706874111,-0.03283422864873607
4402,3.0,300.46671000000003,672.19335,0.0,0.0,0.0,0.04464131444529379,0.0,0.0,-0.10065551310242571,-0.046157663956406754,-0.05751681667321785,0.4162619976643606,0.09870881141405122,-0.02422831659389868
4403,3.0,300.67262999999997,1218.3194,0.0,0.0,0.0,0.044651455588966056,0.0,0.0,-0.08298226300321172,-0.15477609073271084,-0.13258032040215886,0.4075993476569236,0.07879568482927862,-0.025230243624031177
4404,3.0,300.2754,1088.9979,0.0,0.0,0.0,0.044661596732638316,0.0,0.0,-0.09777151555479731,-0.1029058625410179,-0.13035080541212288,0.4147258193202516,0.1119684220979229,-0.00982477471547977
4405,3.0,299.83027999999996,896.62818,0.0,0.0,0.0,0.044671737876310576,0.0,0.0,-0.020675751299037783,-0.1074527413047599,-0.14442408936354786,0.4190014206347206,0.12002743849078588,0.013789045006872787
4406,3.0,299.89484,939.0581699999999,0.0,0.0,0.0,0.044681879019982836,0.0,0.0,-0.07682592562162853,-0.09119033861828572,-0.11743397419733088,0.4442266567767576,0.11819435760237489,-0.010509843443240791
4407,3.0,300.60045,1143.5558,0.0,0.0,0.0,0.044692020163655095,0.0,0.0,-0.1024471946182509,-0.1008065086455778,-0.14435869420209385,0.4509081089961656,0.0931725891731686,0.007608202374271113
4408,3.0,300.50935,1073.3722,0.0,0.0,0.0,0.04470216130732736,0.0,0.0,-0.12650649400271888,-0.14580748985757888,-0.053964366888868354,0.4603544876909505,0.08514026888069032,-0.049670942505140356
4409,3.0,300.44207,710.39972,0.0,0.0,0.0,0.04471230245099962,0.0,0.0,-0.03994232198175026,-0.08485717085575072,-0.09114428437474051,0.4398667023914635,0.07216971413234623,-0.026749040675924776
4410,3.0,299.70516000000003,431.47489,0.0,0.0,0.0,0.04472244359467188,0.0,0.0,-0.05191467744707975,-0.055013225637132644,-0.024229689547784178,0.42486035695295254,0.07403356236004373,-0.031063934816021672
4411,3.0,299.01867000000004,529.11012,0.0,0.0,0.0,0.04473258473834414,0.0,0.0,0.01123554025761149,-0.095064908715426,-0.07700689614248893,0.43132347404081256,0.09243512649863671,-0.02881079184690377
4412,3.0,300.79323999999997,984.5264699999999,0.0,0.0,0.0,0.0447427258820164,0.0,0.0,-0.08917845151122791,-0.1090453678119399,-0.1010476419043758,0.4286695187163876,0.1139163852826719,-0.025215800757105774
4413,3.0,300.15285,1002.497,0.0,0.0,0.0,0.04475286702568867,0.0,0.0,-0.07052116331239693,-0.10855893683643289,-0.12565394536857888,0.4421228658591295,0.13797138848671586,-0.01304265255920959
4414,3.0,300.53502000000003,823.33385,0.0,0.0,0.0,0.04476300816936093,0.0,0.0,-0.1122159692298539,-0.06276914447458223,-0.07528781906257923,0.4057529019996936,0.11607405070811688,-0.0030522407353077074
4415,3.0,300.20283,919.8254,0.0,0.0,0.0,0.04477314931303319,0.0,0.0,-0.07418868081785274,-0.07662468300601744,-0.1287905927756419,0.42007671203834357,0.1068837608436059,-0.0006697382740130214
4416,3.0,301.35396000000003,1241.1269,0.0,0.0,0.0,0.04478329045670545,0.0,0.0,-0.15035483471636685,-0.1129390143687129,-0.11397772744372589,0.4133299659824916,0.1141700625777079,0.02066257195498708
4417,3.0,301.39498,1072.9853,0.0,0.0,0.0,0.04479343160037771,0.0,0.0,-0.04474456206219446,-0.13488889929749787,-0.14652727233111584,0.4296714406802696,0.12117658569419787,-0.025583162686861578
4418,3.0,299.46934,740.73437,0.0,0.0,0.0,0.044803572744049974,0.0,0.0,-0.057176802363661045,-0.08527039349828261,-0.08271755546758713,0.4193106341677376,0.10555102285457489,0.01919431480483138
4419,3.0,299.89359,797.9178400000001,0.0,0.0,0.0,0.044813713887722234,0.0,0.0,-0.04801037656550525,-0.1088872703988369,-0.08564945441369302,0.4263742235298596,0.1040300533944669,-0.046901321642050055
4420,3.0,299.60200000000003,893.84295,0.0,0.0,0.0,0.044823855031394494,0.0,0.0,-0.1016438392764659,-0.08477435488532742,-0.08528773932674451,0.43742022015751464,0.08843762889936442,-0.022119909308815078
4421,3.0,299.50471,796.93101,0.0,0.0,0.0,0.044833996175066754,0.0,0.0,-0.030064074816093172,-0.1116172904082689,-0.100565762448318,0.46264383509939155,0.06809927975112563,-0.06983776766320103
4422,3.0,300.37413,867.50138,0.0,0.0,0.0,0.044844137318739014,0.0,0.0,-0.09526907557082571,-0.08191364689124753,-0.08651603554846791,0.44011787695875254,0.07808713625960033,-0.012396018636891788
4423,3.0,300.8477,913.7285800000001,0.0,0.0,0.0,0.04485427846241128,0.0,0.0,-0.07506842812442703,-0.08094926381707032,-0.12173298158910989,0.4147055340532496,0.1073030639999879,-0.039706816314007666
4424,3.0,300.74265,1006.2513,0.0,0.0,0.0,0.04486441960608354,0.0,0.0,-0.11644675449239988,-0.10509218267929091,-0.08433633395984812,0.41358277188244164,0.12638562339828988,-0.005122999091725645
4425,3.0,300.71143,1200.7527,0.0,0.0,0.0,0.0448745607497558,0.0,0.0,-0.09888343797603551,-0.1133438280486649,-0.15277156792737984,0.4238913048223146,0.15240236998844287,-0.01070323438382699
4426,3.0,299.09775,1168.4428,0.0,0.0,0.0,0.04488470189342806,0.0,0.0,-0.1000029030310181,-0.12658727030069086,-0.12858725374557387,0.43348883003451655,0.12464893299189188,0.007572316500779453
4427,3.0,299.22722999999996,866.22601,0.0,0.0,0.0,0.04489484303710032,0.0,0.0,-0.055701581145568044,-0.09340138307224881,-0.1142081101189629,0.4283804080653546,0.08537549286490512,-0.011826010740136388
4428,3.0,300.87017000000003,857.54346,0.0,0.0,0.0,0.04490498418077259,0.0,0.0,-0.08306981085160202,-0.08070673936588502,-0.0968952487623165,0.4343201713440636,0.08645712214790362,-0.015090567800073085
4429,3.0,299.40319,772.70043,0.0,0.0,0.0,0.04491512532444485,0.0,0.0,-0.019605729809184878,-0.09151225324130623,-0.12376365637952187,0.4405639400502756,0.10502671659032992,-0.02153064763365948
4430,3.0,300.70167999999995,877.7642699999999,0.0,0.0,0.0,0.04492526646811711,0.0,0.0,-0.07875371398363643,-0.0941593731805566,-0.0939053311154846,0.4469855442815386,0.1058211249337319,-0.010533822006857289
4431,3.0,301.42944,831.27787,0.0,0.0,0.0,0.04493540761178937,0.0,0.0,-0.048700593414374355,-0.07350563372669122,-0.13048148427751988,0.4012425205045536,0.1098416101380229,-0.02159949392495408
4432,3.0,301.80736,725.98365,0.0,0.0,0.0,0.044945548755461626,0.0,0.0,-0.07790921156854053,-0.06356039755717285,-0.07921129164929583,0.43634134184853757,0.10608193550947191,-0.03470248147461827
4433,3.0,301.8346,722.89115,0.0,0.0,0.0,0.0449556898991339,0.0,0.0,-0.026080817433726273,-0.09008991658568251,-0.1035701290415759,0.4170501339896436,0.08687869194475932,-0.02216113744213398
4434,3.0,299.57443,974.6741699999999,0.0,0.0,0.0,0.04496583104280616,0.0,0.0,-0.11588754176220989,-0.08125269675826682,-0.0991363755984985,0.45646263458685454,0.07832331877840973,-0.02008343062183028
4435,3.0,299.13024,1349.6068,0.0,0.0,0.0,0.04497597218647842,0.0,0.0,-0.09364008047780642,-0.14048852465013786,-0.17611817758901083,0.42785923274391857,0.08617129240069442,-0.015279142762933984
4436,3.0,299.80625,1017.8118,0.0,0.0,0.0,0.04498611333015068,0.0,0.0,-0.14042599698646688,-0.08487073827458971,-0.08409263819154722,0.45444529416775853,0.11874649784686689,-0.0026706579417234175
4437,3.0,299.8391,589.06622,0.0,0.0,0.0,0.04499625447382294,0.0,0.0,-0.0017014167386167586,-0.07928869078468452,-0.09807131498113521,0.4313430804302476,0.13603343621295486,-0.015978145503420183
4438,3.0,299.00448,860.91221,0.0,0.0,0.0,0.045006395617495205,0.0,0.0,-0.08786136114349122,-0.08467534819155621,-0.0891591045138185,0.4305797180699096,0.11904832478665489,0.0041177615708664255
4439,3.0,301.04321,1140.9519,0.0,0.0,0.0,0.045016536761167465,0.0,0.0,-0.06337548245367314,-0.1174155229130099,-0.16602987455837284,0.42404318087980364,0.11294674546697589,-0.0077885444774194925
4440,3.0,300.08947,787.73045,0.0,0.0,0.0,0.045026677904839725,0.0,0.0,-0.09424374550313351,-0.08759425625813001,-0.057612386422649854,0.43368819712419254,0.09895898894324182,-0.006125635396928144
4441,3.0,301.02524,702.3925,0.0,0.0,0.0,0.045036819048511985,0.0,0.0,-0.005071566313999625,-0.08852133045037511,-0.11991688277237487,0.4235758800661846,0.0931433163777796,-0.02422571760739218
4442,3.0,300.51863,762.07279,0.0,0.0,0.0,0.045046960192184245,0.0,0.0,-0.09034997229009802,-0.0961023633338148,-0.04519876459177075,0.4185234705625506,0.06705614687917644,-0.02501591488337858
4443,3.0,300.6736,1101.2458,0.0,0.0,0.0,0.045057101335856505,0.0,0.0,-0.05701161523960835,-0.1138116354873339,-0.16392796828593084,0.4142653883423106,0.09947430362609941,-0.031187522957218872
4444,3.0,299.72134,1356.5404,0.0,0.0,0.0,0.045067242479528764,0.0,0.0,-0.16289762465674384,-0.1259323763635579,-0.1235244178984109,0.43989576240433165,0.1019256139967749,-0.032523283471298174
4445,3.0,299.17682,892.72916,0.0,0.0,0.0,0.04507738362320103,0.0,0.0,-0.062316725265181935,-0.08900318862818082,-0.12004746031276188,0.4528686466146556,0.12503030006452986,-0.025601069855878875
4446,3.0,299.44037000000003,540.24447,0.0,0.0,0.0,0.04508752476687329,0.0,0.0,-0.06922527317650252,-0.03443675764914336,-0.06055879916318814,0.44590949294034055,0.1073964248642019,-0.015845758298354586
4447,3.0,299.56448,872.9663400000001,0.0,0.0,0.0,0.04509766591054555,0.0,0.0,-0.061999220306596645,-0.0989795488010209,-0.1043811952166219,0.4622726815877616,0.09652281044955971,-0.014718769861379485
4448,3.0,299.64088,1121.1733,0.0,0.0,0.0,0.04510780705421781,0.0,0.0,-0.16005108088581185,-0.07851005773208942,-0.1022475336860459,0.4401527124971906,0.096755546904779,0.001862635063352768
4449,3.0,299.91011000000003,965.66903,0.0,0.0,0.0,0.04511794819789007,0.0,0.0,-0.048334345046478454,-0.11307615776974789,-0.13212876549509386,0.4194751859839776,0.1130684266714849,-0.0006682840878670044
4450,3.0,299.74855,679.90375,0.0,0.0,0.0,0.04512808934156233,0.0,0.0,-0.05390086245210095,-0.0979328330767181,-0.054840069301043445,0.37827231299007064,0.0921474921529994,-0.018537294055738483
4451,3.0,300.70038999999997,960.68651,0.0,0.0,0.0,0.04513823048523459,0.0,0.0,-0.05367530791359045,-0.1170963389990089,-0.12125306581174589,0.38128356056475765,0.12061278294105487,-0.02090894574330228
4452,3.0,300.82656000000003,1209.2308,0.0,0.0,0.0,0.04514837162890685,0.0,0.0,-0.1209711897664269,-0.13085692383707287,-0.11574784497092289,0.4295082263541616,0.1097167878582039,-0.012729810577584488
4453,3.0,300.3024,1031.2328,0.0,0.0,0.0,0.04515851277257912,0.0,0.0,-0.08518497246185222,-0.1082865752095529,-0.1199974868178299,0.45969612843847557,0.12550260633364288,-0.03651535916928536
4454,3.0,299.71848,756.98511,0.0,0.0,0.0,0.045168653916251376,0.0,0.0,-0.09184722359186522,-0.05594663365575285,-0.08231071528743512,0.44088570775203156,0.07831609430519672,-0.0016472826361241385
4455,3.0,300.25277,579.41271,0.0,0.0,0.0,0.045178795059923636,0.0,0.0,-0.01988101871560378,-0.07187375492388734,-0.08437222125188992,0.4606635188389496,0.06893713828531584,-0.03709783916152167
4456,3.0,298.97187,774.3838900000001,0.0,0.0,0.0,0.045188936203595896,0.0,0.0,-0.07570197997470372,-0.08016542063246103,-0.07952596660035183,0.4367772116440546,0.09752632422934882,-0.013191995491448588
4457,3.0,299.17894,1101.1885,0.0,0.0,0.0,0.045199077347268156,0.0,0.0,-0.08630720470285792,-0.1117085133147719,-0.13671809943802588,0.44720265338046555,0.1145011217828809,-0.03958443090067917
4458,3.0,299.18099,947.85924,0.0,0.0,0.0,0.04520921849094042,0.0,0.0,-0.08085664465192952,-0.14168583163080287,-0.06558306767179484,0.4379228631346216,0.1026431369225889,-0.015212636066120286
4459,3.0,300.60747000000003,656.54885,0.0,0.0,0.0,0.04521935963461268,0.0,0.0,-0.029532815629661972,-0.1034835873505349,-0.06655805643476874,0.40221477450550763,0.09864226824023391,-0.028547903095208674
4460,3.0,301.0092,983.33456,0.0,0.0,0.0,0.04522950077828494,0.0,0.0,-0.08722004982394872,-0.11950473316169889,-0.09218436837713882,0.43995125811230856,0.08434930862737863,-0.016938250635675185
4461,3.0,299.56683,1272.9035,0.0,0.0,0.0,0.0452396419219572,0.0,0.0,-0.09249205190250481,-0.14081872259272588,-0.15362010409112384,0.41713015035004064,0.07874664960393922,-0.007874863354763503
4462,3.0,300.58616,1146.2415,0.0,0.0,0.0,0.04524978306562946,0.0,0.0,-0.11801811287998089,-0.0936334994184069,-0.13677719218385787,0.4377087633884916,0.1120315577116539,-0.004409260148410095
4463,3.0,300.17318,821.75814,0.0,0.0,0.0,0.04525992420930173,0.0,0.0,-0.04120582053844786,-0.10578714052537791,-0.10280100128816891,0.4221602683514746,0.1054296861550999,-0.04415711917096836
4464,3.0,300.39407,821.19253,0.0,0.0,0.0,0.04527006535297399,0.0,0.0,-0.08894813165749711,-0.06337143147977335,-0.0973024628317554,0.43264854172658657,0.13753468782611686,-0.01035059903102459
4465,3.0,300.35348,1001.3671,0.0,0.0,0.0,0.04528020649664625,0.0,0.0,-0.09539563152156581,-0.09000433545573631,-0.11899064045846189,0.43906061127440854,0.11046292496684189,-0.01894631171035538
4466,3.0,300.27076,1004.0021,0.0,0.0,0.0,0.04529034764031851,0.0,0.0,-0.11529307806104089,-0.09840854183966691,-0.09148995464635551,0.4341937177315836,0.09198746348520581,-0.01092434379414879
4467,3.0,300.24632,864.59106,0.0,0.0,0.0,0.04530048878399077,0.0,0.0,-0.031609849651899266,-0.08602346833035532,-0.14518077440572685,0.43107598770388755,0.08875108288404991,-0.02346458845027458
4468,3.0,301.28439,792.29772,0.0,0.0,0.0,0.045310629927663035,0.0,0.0,-0.06652055706181784,-0.1023984775534429,-0.07191969264367103,0.4350841619194636,0.09572661473298132,-0.008517913208827582
4469,3.0,300.24352000000005,976.90769,0.0,0.0,0.0,0.045320771071335295,0.0,0.0,-0.024650635182578276,-0.12646092814572188,-0.14584398712618085,0.4235356844347176,0.11160536445459189,-0.02003138503044378
4470,3.0,299.37284,1301.8795,0.0,0.0,0.0,0.045330912215007554,0.0,0.0,-0.13635440344713187,-0.12638412378814187,-0.13300034296611188,0.43388648003626157,0.0986327477422943,-0.0010998509648468388
4471,3.0,300.70011,1192.3502,0.0,0.0,0.0,0.045341053358679814,0.0,0.0,-0.07967353229191543,-0.12864260759853688,-0.15412856312380485,0.4325010226445276,0.12388163922116589,-0.007772239256810292
4472,3.0,300.92305,630.69273,0.0,0.0,0.0,0.045351194502352074,0.0,0.0,-0.05192568235641585,-0.06654313126079574,-0.07324602993182033,0.42627757973532154,0.1100031627339669,-0.013380969674848886
4473,3.0,300.80147,628.34136,0.0,0.0,0.0,0.04536133564602434,0.0,0.0,-0.006358999560584394,-0.08112107759677702,-0.10352000355912891,0.4273766014562866,0.07466993611184893,-0.014057554256872589
4474,3.0,299.51698,1033.0184,0.0,0.0,0.0,0.0453714767896966,0.0,0.0,-0.12169445782030788,-0.08552138466730351,-0.1067959424574389,0.4166566788433126,0.09374189488760472,-0.03038290105280887
4475,3.0,299.62455,1170.2999,0.0,0.0,0.0,0.04538161793336886,0.0,0.0,-0.07047878919321493,-0.11439549045995588,-0.17086766755832583,0.43768940017908053,0.1035994828969729,-0.027069139554766076
4476,3.0,299.2184,788.09122,0.0,0.0,0.0,0.04539175907704112,0.0,0.0,-0.0879784958948015,-0.0902612713630939,-0.06132028397109085,0.46134539562624555,0.14033982006546186,-0.04426954129606355
4477,3.0,298.57509,565.57592,0.0,0.0,0.0,0.04540190022071338,0.0,0.0,-0.03501303655076767,-0.058931219580558546,-0.07797670111795121,0.4294476339981816,0.14452222263573286,-0.014842330644823987
4478,3.0,298.94417999999996,791.50652,0.0,0.0,0.0,0.04541204136438565,0.0,0.0,-0.09094674417499482,-0.06369566543227273,-0.08595580956817792,0.4224117063637896,0.1069118481363779,-0.014281773331751287
4479,3.0,299.76863,1086.5619,0.0,0.0,0.0,0.04542218250805791,0.0,0.0,-0.0927739411200751,-0.1111671033888389,-0.12634665379944388,0.42870358418474963,0.0920467700268089,-0.02233778442481768
4480,3.0,300.2409,1204.3283,0.0,0.0,0.0,0.045432323651730167,0.0,0.0,-0.13960358241030085,-0.09474713929856461,-0.13173502663873488,0.4062344288447166,0.08619684555496632,0.01109858734759529
4481,3.0,299.84546,913.3199900000001,0.0,0.0,0.0,0.045442464795402426,0.0,0.0,-0.04291282575666616,-0.11422301502793389,-0.1204906356414999,0.4434242234925636,0.08421674613004572,-0.01194804556893029
4482,3.0,299.26478,618.97007,0.0,0.0,0.0,0.045452605939074686,0.0,0.0,-0.06394216385035023,-0.08098297262139713,-0.04322630912560456,0.3879176230769886,0.07179703162631533,0.0006712520595299204
4483,3.0,300.26295,1062.0888,0.0,0.0,0.0,0.04546274708274696,0.0,0.0,-0.08258338798209583,-0.1044013791586139,-0.13586370668870387,0.45164833885672057,0.09592252765306641,-0.01046940969800029
4484,3.0,299.98488,1382.5894,0.0,0.0,0.0,0.04547288822641921,0.0,0.0,-0.14027951141950987,-0.14777592069434786,-0.13221722222882387,0.4281949326345496,0.11972095060053788,-0.0006652820304707244
4485,3.0,300.318,884.0032699999999,0.0,0.0,0.0,0.04548302937009147,0.0,0.0,-0.06720617274198284,-0.1021905485004219,-0.0993181952229427,0.4633265326192686,0.12671201152050188,-0.04347876140126966
4486,3.0,300.12606,560.34636,0.0,0.0,0.0,0.04549317051376373,0.0,0.0,-0.03550931733049677,-0.07259300746762203,-0.062228974766771646,0.4379682162090976,0.10992730069897991,-0.04594255298667696
4487,3.0,300.77085,737.99591,0.0,0.0,0.0,0.04550331165743599,0.0,0.0,-0.03588209508203707,-0.1088190178721009,-0.07963121592798912,0.44923239598078557,0.1093544496224439,-0.08623868670459572
4488,3.0,300.54819,946.70246,0.0,0.0,0.0,0.045513452801108266,0.0,0.0,-0.11246049687648689,-0.08970119129081831,-0.08561221949901823,0.43974466654941957,0.11954663105333388,-0.02156983102827658
4489,3.0,302.05681,978.6700599999999,0.0,0.0,0.0,0.045523593944780526,0.0,0.0,-0.06751394948635803,-0.13102077651074387,-0.09895653181174931,0.43002191375735854,0.1114132623681329,-0.022024899886688376
4490,3.0,301.1288,824.05344,0.0,0.0,0.0,0.045533735088452786,0.0,0.0,-0.07569241185400942,-0.07768758134766733,-0.0971116769571763,0.3956346371635986,0.08027058079408951,0.03547965342056917
4491,3.0,301.06151,757.43175,0.0,0.0,0.0,0.045543876232125045,0.0,0.0,-0.02213647392144988,-0.10534189816643591,-0.1027619708943169,0.4301775084427146,0.07069269844832614,-0.0023542407071204677
4492,3.0,300.45361,1106.6532,0.0,0.0,0.0,0.045554017375797305,0.0,0.0,-0.09971642885674531,-0.12565716750389688,-0.1110213372294529,0.43280831100235456,0.09382072270563441,0.0027229403296582873
4493,3.0,299.3979,1500.6446,0.0,0.0,0.0,0.04556415851946957,0.0,0.0,-0.15381843766569786,-0.13581108861101088,-0.16652896102762885,0.46612792596574454,0.0999996028754424,-0.02077150343348778
4494,3.0,300.04967,1241.5406,0.0,0.0,0.0,0.04557429966314183,0.0,0.0,-0.15638723945171887,-0.11116583682621389,-0.1098442749857859,0.4411737038279546,0.09858920737224722,0.0014914952305991184
4495,3.0,300.11553,479.36105,0.0,0.0,0.0,0.04558444080681409,0.0,0.0,-0.03396538863637287,-0.054628733701186254,-0.05711966721702224,0.4357310714458086,0.09572719329878841,-0.04802740220693555
4496,3.0,299.63497,604.6062400000001,0.0,0.0,0.0,0.04559458195048635,0.0,0.0,-0.06384290485730414,-0.04507187426849766,-0.07487041980313514,0.4413499181528456,0.1093083062128899,0.01926333030889268
4497,3.0,299.49941,1075.7725,0.0,0.0,0.0,0.04560472309415861,0.0,0.0,-0.08014700075889312,-0.1173838791123869,-0.12947708998339388,0.4230318762199956,0.11092564589000889,-0.02582754442548018
4498,3.0,299.71714,1028.0557,0.0,0.0,0.0,0.04561486423783087,0.0,0.0,-0.08082410311171792,-0.1082928573601729,-0.12338631190978089,0.4421406990608896,0.09367388047464222,-0.026997108618407175
4499,3.0,300.36417,668.53719,0.0,0.0,0.0,0.04562500538150313,0.0,0.0,-0.018146160265386582,-0.07915523358751334,-0.1059172215732159,0.4399015379299016,0.07403223702891293,-0.08418067645298592
4500,3.0,301.18302,713.50784,0.0,0.0,0.0,0.04563514652517539,0.0,0.0,-0.055108934201828344,-0.11156997162859889,-0.050209661238807754,0.4559937632355806,0.11537893074201389,-0.022813594512776477
4501,3.0,300.63495,846.59324,0.0,0.0,0.0,0.04564528766884765,0.0,0.0,-0.04511535384353876,-0.0995742121124596,-0.1126536426105489,0.4372476940629875,0.09700387626578721,-0.026041402004836272
4502,3.0,300.27766,1287.5739,0.0,0.0,0.0,0.04565542881251992,0.0,0.0,-0.13730111341306486,-0.13001725361170388,-0.12407196811994987,0.4147630359964246,0.12124385536833687,0.02742628285726337
4503,3.0,300.3871,1363.9799,0.0,0.0,0.0,0.04566556995619218,0.0,0.0,-0.08882107718770782,-0.14286212380439386,-0.18293262901654483,0.37168400885235564,0.11288978054635389,-0.01098478618911399
4504,3.0,299.10241,651.37314,0.0,0.0,0.0,0.04567571109986444,0.0,0.0,-0.03349909094035287,-0.08041094937019283,-0.08409112844889821,0.43656390223300257,0.1299970088747059,-0.01201034829107909
4505,3.0,299.88561,424.93117,0.0,0.0,0.0,0.0456858522435367,0.0,0.0,0.003054149597171097,-0.06531533558462173,-0.06690728017448444,0.4314743368482016,0.10408717030260389,-0.05206287338020555
4506,3.0,299.36501,1217.5203,0.0,0.0,0.0,0.04569599338720896,0.0,0.0,-0.13843527464749789,-0.10767720659941289,-0.12398327833869688,0.4764259413695795,0.08217596214338602,-0.03661717155258347
4507,3.0,299.89268,1328.3588,0.0,0.0,0.0,0.045706134530881216,0.0,0.0,-0.1314466049977699,-0.12108761220291689,-0.15125367874757584,0.47916916402781456,0.07644254522104184,-0.033759961297848765
4508,3.0,299.77583,634.8008,0.0,0.0,0.0,0.04571627567455348,0.0,0.0,-0.07250450513763754,-0.06525913465457514,-0.055199952431811146,0.4624137867966876,0.09745564496862331,0.0035810586982729766
4509,3.0,300.16937,621.1592400000001,0.0,0.0,0.0,0.04572641681822574,0.0,0.0,-0.011102453909976889,-0.08531818141274893,-0.09239626227780111,0.47330580993914656,0.09405883749238451,0.0028471573951925574
4510,3.0,301.22463,1054.8348,0.0,0.0,0.0,0.045736557961898,0.0,0.0,-0.08116975514483113,-0.1087805751633069,-0.13069310156090488,0.4208472482093896,0.1030834346210429,0.001038590775725929
4511,3.0,301.59108,1333.3304,0.0,0.0,0.0,0.04574669910557026,0.0,0.0,-0.09814321115523081,-0.15284824056244686,-0.15430768547648285,0.4299472169599866,0.11650425643557488,-0.039254822669649365
4512,3.0,299.89871,1186.1545,0.0,0.0,0.0,0.04575684024924252,0.0,0.0,-0.11275497775304989,-0.11529003831074089,-0.13251634379084487,0.4160968784280646,0.0919308947453729,-0.017485313483916083
4513,3.0,300.04657000000003,779.44017,0.0,0.0,0.0,0.04576698139291479,0.0,0.0,-0.06025243894245274,-0.08874154820060891,-0.08793636191589323,0.4180575072390636,0.1000227951569813,-0.01132261187845479
4514,3.0,299.72501,517.26179,0.0,0.0,0.0,0.04577712253658705,0.0,0.0,-0.06924983942517703,-0.04683342273959896,-0.04115140698157766,0.4203427509845996,0.0942395820584726,-0.011652692284031188
4515,3.0,299.79028999999997,909.09473,0.0,0.0,0.0,0.04578726368025931,0.0,0.0,-0.03260378619174317,-0.11264320613451889,-0.13109509840557887,0.4276041672962456,0.12546321116975487,-0.038020686074349566
4516,3.0,300.09427,1160.1253,0.0,0.0,0.0,0.04579740482393157,0.0,0.0,-0.1040996940738399,-0.1080175066454979,-0.14053193228442187,0.4435598267534465,0.15072401239030184,-0.03871081679696016
4517,3.0,299.46732000000003,659.57542,0.0,0.0,0.0,0.04580754596760383,0.0,0.0,-0.008142258333628333,-0.099160394692119,-0.0931918054613151,0.45567997994461257,0.12985127311282288,-0.052294951222859855
4518,3.0,299.57777999999996,519.79875,0.0,0.0,0.0,0.045817687111276095,0.0,0.0,-0.05163357045858666,-0.06579051137801793,-0.04058176081510796,0.4481868637325996,0.0974916852614302,-0.05553105824648874
4519,3.0,300.77906,1166.4729,0.0,0.0,0.0,0.045827828254948355,0.0,0.0,-0.1053211974668929,-0.13508703022205187,-0.1141704070827419,0.4478619346905316,0.06091385213072914,-0.02761937691557027
4520,3.0,300.01385,1317.7657,0.0,0.0,0.0,0.045837969398620615,0.0,0.0,-0.14754484900904286,-0.10671281541923491,-0.14631020376219286,0.4284275241950046,0.07333623148222253,0.006955094898389425
4521,3.0,300.79201,1099.1089,0.0,0.0,0.0,0.045848110542292875,0.0,0.0,-0.051892372772628446,-0.12737385635332088,-0.15483544692356885,0.41604789791823055,0.07100263746841473,-0.0009608094525320101
4522,3.0,300.23893,952.05206,0.0,0.0,0.0,0.045858251685965135,0.0,0.0,-0.08204553355076372,-0.0951573059787949,-0.1121972139705029,0.4313482176082546,0.1007138935334374,-0.003384958326919377
4523,3.0,299.80773,846.89819,0.0,0.0,0.0,0.0458683928296374,0.0,0.0,-0.04208438335565526,-0.09787273417353681,-0.1174787902492539,0.44404185009101854,0.14378264125524187,-0.02067223228144048
4524,3.0,300.09255,1018.4162,0.0,0.0,0.0,0.04587853397330966,0.0,0.0,-0.10848461494159789,-0.09379901787524231,-0.1072894661836459,0.44672885763370557,0.1170828729051799,-0.014910954021096587
4525,3.0,300.01441,1028.9192,0.0,0.0,0.0,0.04588867511698192,0.0,0.0,-0.12085010637947688,-0.08235449275800562,-0.1095611526428439,0.45017083782590256,0.12155360592390688,-0.02241414396560378
4526,3.0,298.74604,711.5785,0.0,0.0,0.0,0.04589881626065418,0.0,0.0,-0.09744581948240359,-0.06873395225601293,-0.05012232313318816,0.4209285615299146,0.1033475686571109,-0.017334688790300583
4527,3.0,299.232,574.5849400000001,0.0,0.0,0.0,0.04590895740432644,0.0,0.0,-0.019271085725158083,-0.07271299553121394,-0.08267539413092613,0.4535248375119166,0.09860967502426722,-0.04628946347641436
4528,3.0,299.3763,979.1022,0.0,0.0,0.0,0.04591909854799871,0.0,0.0,-0.0929291457041426,-0.1026827752665009,-0.1020106966076719,0.44981369756315553,0.12425474830548888,-0.012983793874150688
4529,3.0,299.1924,1416.5475,0.0,0.0,0.0,0.04592923969167097,0.0,0.0,-0.11569223780543489,-0.14371931312399186,-0.17118352801199885,0.4270460691411656,0.12306271022534389,-0.018405245276206284
4530,3.0,300.42952,1235.0168,0.0,0.0,0.0,0.04593938083534323,0.0,0.0,-0.1175582797195989,-0.11968670274715788,-0.13816929649624787,0.45634281776252955,0.08430256233401512,0.0002851413653562618
4531,3.0,299.99059,610.36421,0.0,0.0,0.0,0.04594952197901549,0.0,0.0,-0.02333369578910648,-0.09698539965021372,-0.06521638461960604,0.42922165896087955,0.08317026851951642,-0.03322021310207977
4532,3.0,299.88338999999996,625.09758,0.0,0.0,0.0,0.04595966312268775,0.0,0.0,-0.05154492526033805,-0.06470896822127793,-0.07376016316506133,0.46980137301078556,0.08363104298924132,0.007877068288306113
4533,3.0,301.54487,1082.6483,0.0,0.0,0.0,0.04596980426636001,0.0,0.0,-0.08188517861643793,-0.10948224072505588,-0.13773064026295587,0.4280104197913396,0.09405987506048692,-0.035843158920444367
4534,3.0,301.18867,1210.0903,0.0,0.0,0.0,0.04597994541003227,0.0,0.0,-0.09011291533645231,-0.13745110482536788,-0.14027320900388787,0.4385920945606696,0.1195600971471629,-0.02375600424528508
4535,3.0,300.17466,821.81258,0.0,0.0,0.0,0.04599008655370453,0.0,0.0,-0.04540714555433636,-0.1042802451091589,-0.10012310691688131,0.4203927244795316,0.11934661548359389,-0.05534972295559236
4536,3.0,300.41981,631.77372,0.0,0.0,0.0,0.04600022769737679,0.0,0.0,-0.04487105924442875,-0.08626995357618152,-0.06090242165635104,0.45394418119830254,0.13859576333083687,8.926471253199122e-05
4537,3.0,300.51164,994.6613800000001,0.0,0.0,0.0,0.04601036884104905,0.0,0.0,-0.11246830903475788,-0.0984128076225879,-0.0914711122474959,0.4228247071045496,0.12939071041236888,-0.024786544444991475
4538,3.0,299.84935,1363.618,0.0,0.0,0.0,0.04602050998472132,0.0,0.0,-0.12563865542456987,-0.11667108806453988,-0.17219609923443183,0.44818064237698557,0.1026725110429879,-0.0022232918105718176
4539,3.0,299.49917999999997,1087.6563,0.0,0.0,0.0,0.04603065112839358,0.0,0.0,-0.11055643781857089,-0.11746247692264389,-0.1026014315484729,0.42631561714407556,0.11624807641279189,-0.02328490475704118
4540,3.0,299.15699,621.11715,0.0,0.0,0.0,0.04604079227206584,0.0,0.0,-0.03479572176207037,-0.062416938739822236,-0.0915914427896216,0.47250222154983856,0.11601751135253689,0.0062366928767886645
4541,3.0,299.17933,696.83773,0.0,0.0,0.0,0.0460509334157381,0.0,0.0,-0.04568317818632866,-0.08976120812074151,-0.07637688256156143,0.4377711086671446,0.1261815750931519,-0.029746153411716766
4542,3.0,300.30985,1173.5706,0.0,0.0,0.0,0.04606107455941036,0.0,0.0,-0.11127241047173189,-0.1038437977610849,-0.14161996024180187,0.4516155602159856,0.08739596929306061,-0.002458254072285788
4543,3.0,299.87966,1227.2235,0.0,0.0,0.0,0.04607121570308263,0.0,0.0,-0.11018898266980591,-0.11804944257307289,-0.14480689525132787,0.43783397070334856,0.08258838026533852,-0.02210383308272848
4544,3.0,299.95986,748.1218700000001,0.0,0.0,0.0,0.04608135684675489,0.0,0.0,-0.018036991686362483,-0.1016857675656039,-0.10768761267793989,0.4438850699030456,0.07538834461825032,-0.01920824192745588
4545,3.0,300.36265,551.47231,0.0,0.0,0.0,0.04609149799042715,0.0,0.0,-0.04430394113695855,-0.04280629872065276,-0.08052357414530802,0.46608613953162054,0.1050062996008149,-0.011343516241267887
4546,3.0,301.11927000000003,1067.0879,0.0,0.0,0.0,0.046101639134099405,0.0,0.0,-0.08375464936894032,-0.11993925533458288,-0.12067418589711487,0.44203966789341864,0.10379121008089491,-0.024821793389470274
4547,3.0,300.63182,1236.3834,0.0,0.0,0.0,0.046111780277771665,0.0,0.0,-0.1052648810263349,-0.1301785934251269,-0.14038620665503987,0.4374736691002896,0.12517539747884987,-0.027358988865121975
4548,3.0,300.92984,957.74885,0.0,0.0,0.0,0.04612192142144394,0.0,0.0,-0.10618229793187689,-0.08061315761314922,-0.1043362778396889,0.4405016150366246,0.13506408010728685,0.0008844465274905761
4549,3.0,299.9305,594.31775,0.0,0.0,0.0,0.0461320625651162,0.0,0.0,-0.02874606441726567,-0.06846519374648853,-0.08344649772202813,0.42539357981807757,0.13632237461147087,-0.019697375240979583
4550,3.0,300.49266,638.27131,0.0,0.0,0.0,0.04614220370878846,0.0,0.0,-0.041612485426332564,-0.05228645714727155,-0.100119598031785,0.4397865644410546,0.08569345783903583,-0.0034111322995275467
4551,3.0,299.1238,1235.1412,0.0,0.0,0.0,0.04615234485246072,0.0,0.0,-0.11639079268937688,-0.11824242618711889,-0.14081887458024087,0.4425905111777826,0.09489468472512622,-0.006485253258819664
4552,3.0,298.83935,1399.8122,0.0,0.0,0.0,0.04616248599613298,0.0,0.0,-0.1281538968103049,-0.15366840572339086,-0.14368564282316887,0.4428985088106796,0.08663031597424652,-0.016205931218650885
4553,3.0,299.89435,871.05566,0.0,0.0,0.0,0.04617262713980524,0.0,0.0,-0.05371445989745445,-0.1006340869158111,-0.11043062255365388,0.45982533809122755,0.08806108895020283,-0.016509960964156283
4554,3.0,300.71861,725.1114299999999,0.0,0.0,0.0,0.0461827682834775,0.0,0.0,-0.06219765723268085,-0.08794661296715492,-0.07027149747450684,0.4345860076402996,0.08699268258100933,-0.01904317436691498
4555,3.0,300.00977,1035.3761,0.0,0.0,0.0,0.04619290942714975,0.0,0.0,-0.044296939578767555,-0.12572590639068087,-0.14470564116883486,0.4379460564294106,0.11440212724811089,-0.020307778379471682
4556,3.0,300.49534,959.91352,0.0,0.0,0.0,0.04620305057082201,0.0,0.0,-0.06972139284946574,-0.0930816216056908,-0.12898672759749888,0.4343490692369156,0.11887801770984688,0.0012119289902080789
4557,3.0,299.92429,793.8326,0.0,0.0,0.0,0.04621319171449427,0.0,0.0,-0.04971637967937466,-0.09332442166090331,-0.09826448604644972,0.44488498563172957,0.11100867160320291,0.004999914333178125
4558,3.0,299.5206,741.91489,0.0,0.0,0.0,0.046223332858166544,0.0,0.0,-0.09128094445547781,-0.05706851936522435,-0.07717413915099453,0.4505275322586056,0.08002093623445151,-0.04175038775169246
4559,3.0,299.69498,802.4495,0.0,0.0,0.0,0.046233474001838804,0.0,0.0,-0.08841629897150932,-0.08622428639417451,-0.06928402547030092,0.46710064606174456,0.0938679067230411,-0.04149175667691756
4560,3.0,300.06878,1189.3695,0.0,0.0,0.0,0.04624361514551106,0.0,0.0,-0.10746936873890091,-0.14275160861598687,-0.11131765208869689,0.4514332359929916,0.1120237759508859,-0.04149921723740386
4561,3.0,300.08019,1435.229,0.0,0.0,0.0,0.04625375628918332,0.0,0.0,-0.1054853845130969,-0.12863195833998586,-0.2021564557437888,0.43479935758135557,0.12583278401122888,-0.014089869842311885
4562,3.0,300.04717,1049.5391,0.0,0.0,0.0,0.04626389743285558,0.0,0.0,-0.07445813745669602,-0.14034127914560587,-0.10423426381962089,0.4157947880432506,0.1165628324238559,-0.02338101963502698
4563,3.0,300.31082000000004,576.67115,0.0,0.0,0.0,0.04627403857652785,0.0,0.0,-0.03659995542013436,-0.08133981904161512,-0.05735385464638474,0.4252819297895586,0.11302614374481189,-0.009378716183582221
4564,3.0,300.29111,869.1094,0.0,0.0,0.0,0.04628417972020011,0.0,0.0,-0.07010769748984103,-0.08958860805895721,-0.1044912443099829,0.46148408929993356,0.11613050900368889,-0.023647353437062077
4565,3.0,300.11612,1093.6511,0.0,0.0,0.0,0.04629432086387237,0.0,0.0,-0.11998333171393288,-0.12941716637247988,-0.08304212581911971,0.44874937965811557,0.08159409212770993,-0.014545101833989786
4566,3.0,299.07861,772.5421,0.0,0.0,0.0,0.04630446200754463,0.0,0.0,-0.045122021029196754,-0.07967872215892763,-0.1100327699018889,0.4508348915439396,0.06646880227321003,-0.03217610852328467
4567,3.0,298.88175,592.46625,0.0,0.0,0.0,0.04631460315121689,0.0,0.0,-0.030786704522411175,-0.08277752872775603,-0.06653071185432004,0.4219933860600046,0.09122892318209372,-0.02345314379039508
4568,3.0,298.75165,799.48329,0.0,0.0,0.0,0.046324744294889156,0.0,0.0,-0.052305914588941856,-0.09587181144581111,-0.0948452300142454,0.4733420437627225,0.13137090508279886,-0.01269892266153609
4569,3.0,299.93528,1200.4114,0.0,0.0,0.0,0.046334885438561416,0.0,0.0,-0.11152215635637988,-0.11515048337446789,-0.13822244146399287,0.43030972744826357,0.14554640570431185,-0.027134569166723473
4570,3.0,300.27561000000003,1367.9154,0.0,0.0,0.0,0.046345026582233675,0.0,0.0,-0.12546966557289188,-0.14971988154120186,-0.14062257763836786,0.44362734974011053,0.11545369846689289,-0.035838990409532964
4571,3.0,300.19755,1076.6546,0.0,0.0,0.0,0.046355167725905935,0.0,0.0,-0.12090800349019089,-0.11301110711332789,-0.09335700373111891,0.4367415452405346,0.094563522168443,-0.03847521892345846
4572,3.0,300.48701,563.9172599999999,0.0,0.0,0.0,0.046365308869578195,0.0,0.0,-0.014101996419508687,-0.07006852828072534,-0.08724624233903372,0.45301748292184457,0.1125869302239649,-0.0017475880125485085
4573,3.0,300.40554,723.0519,0.0,0.0,0.0,0.04637545001325046,0.0,0.0,-0.033678862786344965,-0.0988072253565139,-0.08730363383794783,0.4367407346404546,0.0991315363160209,-0.017101276497264586
4574,3.0,299.94154,1135.4321,0.0,0.0,0.0,0.04638559115692272,0.0,0.0,-0.08009254261901852,-0.12343683255976688,-0.14161363756117787,0.44618976805050153,0.1069336634110309,0.008354594213984252
4575,3.0,299.0888,889.25939,0.0,0.0,0.0,0.04639573230059498,0.0,0.0,-0.07240403531072193,-0.09458501826931451,-0.1033235951597449,0.4222229378701596,0.13028802443592688,-0.005590700544434184
4576,3.0,299.21442,539.18332,0.0,0.0,0.0,0.04640587344426724,0.0,0.0,-0.02273768789478508,-0.07372875950471203,-0.06743181745975224,0.4612905990608376,0.15224070593498787,-0.015475228948786186
4577,3.0,298.79368,797.36983,0.0,0.0,0.0,0.0464160145879395,0.0,0.0,-0.08235280367008893,-0.07790487384486243,-0.08212284149364342,0.4452988071050706,0.13383318388580687,-0.012417535002765288
4578,3.0,298.64038999999997,1463.5128,0.0,0.0,0.0,0.04642615573161177,0.0,0.0,-0.1077053648196919,-0.17443428764532384,-0.16273170495286884,0.44610265893940454,0.096634737095356,-0.031475658861655674
4579,3.0,298.51607,1469.9902,0.0,0.0,0.0,0.04643629687528403,0.0,0.0,-0.13775654906801288,-0.13563408395104187,-0.17344968212565084,0.4574540592797005,0.07681906895820183,-0.015786121437218883
4580,3.0,299.95589,981.0849800000001,0.0,0.0,0.0,0.04644643801895629,0.0,0.0,-0.08691261555810732,-0.09589324168542611,-0.11541948101101589,0.45173604578537657,0.11940782592213489,-0.008677676101119951
4581,3.0,301.04773,610.7626,0.0,0.0,0.0,0.04645657916262855,0.0,0.0,-0.04191024112721876,-0.07276727837882123,-0.07097906116508793,0.4619686254977536,0.1115562319572429,-0.007768155250957232
4582,3.0,300.62237000000005,877.26191,0.0,0.0,0.0,0.04646672030630081,0.0,0.0,-0.07786632981105843,-0.07647213820346244,-0.11232724435583588,0.4277475928479006,0.08323604770275833,-0.015138610040314486
4583,3.0,300.17971,1233.833,0.0,0.0,0.0,0.046476861449973074,0.0,0.0,-0.1273775445836849,-0.10755972025031789,-0.14011716848848788,0.4376528725129756,0.0997498012620389,-0.018438337011222182
4584,3.0,299.63032999999996,1043.4862,0.0,0.0,0.0,0.046487002593645334,0.0,0.0,-0.061146627089452246,-0.1095675665159769,-0.14647953811890485,0.44714230420450957,0.1068148193068019,-0.02114731282932728
4585,3.0,300.42409,632.5761200000001,0.0,0.0,0.0,0.046497143737317594,0.0,0.0,-0.009535471850902802,-0.0936893943469233,-0.08906247794453222,0.4543369372020646,0.1113920449110389,-0.005109326092226225
4586,3.0,299.27963,879.9515,0.0,0.0,0.0,0.04650728488098985,0.0,0.0,-0.033991602429709965,-0.1330206181006129,-0.10047106713372231,0.4275109584195466,0.07991659883190422,-0.026770118304504972
4587,3.0,299.07673,1400.3062,0.0,0.0,0.0,0.04651742602466211,0.0,0.0,-0.11916874956103989,-0.15125892738309388,-0.15523044221005186,0.4667018713523886,0.1068269985730039,-0.014604424587594485
4588,3.0,298.32397000000003,1134.5828,0.0,0.0,0.0,0.04652756716833438,0.0,0.0,-0.1315488318003589,-0.10720134382244889,-0.1061346751771769,0.43804873919454457,0.13162282945516188,-0.011717864530463187
4589,3.0,299.48366,721.25685,0.0,0.0,0.0,0.04653770831200664,0.0,0.0,-0.06938190644321103,-0.08630443853008492,-0.06355772764315934,0.46338978982301154,0.1113253426569559,-0.018634057413788284
4590,3.0,300.16247999999996,608.65309,0.0,0.0,0.0,0.0465478494556789,0.0,0.0,-0.023307270226498478,-0.06748401503865373,-0.0942240560271903,0.42109229261357356,0.07455235857024493,-0.03809197531163526
4591,3.0,300.47372,953.8442699999999,0.0,0.0,0.0,0.04655799059935116,0.0,0.0,-0.0967619516586611,-0.09171164667548481,-0.10147124225443191,0.44654868150092364,0.08295414632618683,-0.01688389990031118
4592,3.0,300.28942,1270.8694,0.0,0.0,0.0,0.04656813174302342,0.0,0.0,-0.11922431619652388,-0.1196915156851329,-0.14739673210942486,0.45781544506036653,0.12061486010375988,-0.020794156665973482
4593,3.0,300.06076,1061.7531,0.0,0.0,0.0,0.046578272886695686,0.0,0.0,-0.10750511620242889,-0.10208613307761691,-0.11315518114504688,0.4778898749815585,0.12714234897047288,0.006924409531036014
4594,3.0,300.23915,663.15542,0.0,0.0,0.0,0.046588414030367946,0.0,0.0,-0.04837366522985905,-0.07779533441630172,-0.07541368904300162,0.44259069356280056,0.09831830786526151,-0.04103015438186096
4595,3.0,300.11534,835.1091299999999,0.0,0.0,0.0,0.046598555174040206,0.0,0.0,-0.06343326506712584,-0.11515296583721288,-0.07526609092743483,0.44907380207513353,0.0969474503942184,-0.018507429522291084
4596,3.0,299.62507999999997,1133.1594,0.0,0.0,0.0,0.046608696317712466,0.0,0.0,-0.08175447239328823,-0.11898790468319188,-0.14370976830804988,0.4396501505800916,0.11381388490255588,-0.03658895861679907
4597,3.0,298.78254,993.90981,0.0,0.0,0.0,0.046618837461384725,0.0,0.0,-0.09406756360224572,-0.09945704291064592,-0.10859915273290188,0.4563983134705065,0.10008781642914841,0.015073346601373485
4598,3.0,299.53136,624.6226,0.0,0.0,0.0,0.04662897860505699,0.0,0.0,-0.015607740783614087,-0.08144531458902672,-0.0928166171877869,0.4104220293880006,0.08554095457973492,-0.026663590255241478
4599,3.0,299.82675,695.8679900000001,0.0,0.0,0.0,0.04663911974872925,0.0,0.0,-0.06087620482326364,-0.07779342849286364,-0.07285685880691213,0.4449924914673396,0.0998699301673947,0.010760487067477389
4600,3.0,299.89711,1070.2935,0.0,0.0,0.0,0.04664926089240151,0.0,0.0,-0.11414302906503988,-0.09152512050432611,-0.1196743410959379,0.46069342998190155,0.15074637482000885,-0.0036275727547135563
4601,3.0,299.8634,1382.1766,0.0,0.0,0.0,0.04665940203607377,0.0,0.0,-0.13243565868538187,-0.13101731119540186,-0.15669420356951383,0.45622680062607956,0.14543784608859786,-0.005447920129117855
4602,3.0,299.89041000000003,1268.5539,0.0,0.0,0.0,0.04666954317974603,0.0,0.0,-0.1067362518940479,-0.13459094297309188,-0.14428152507447786,0.44914783012743964,0.09403271995780692,-0.03886226526290697
4603,3.0,301.15623,968.91759,0.0,0.0,0.0,0.04667968432341829,0.0,0.0,-0.07865687159207883,-0.1074486376418549,-0.1084212462803439,0.4422507278892486,0.08065575059435283,-0.03347173014790257
4604,3.0,301.11258,748.80278,0.0,0.0,0.0,0.046689825467090565,0.0,0.0,-0.042477091736662566,-0.0943955607656165,-0.09074469602555423,0.4585061675210356,0.0992725057494335,-0.021576817387716083
4605,3.0,300.58932000000004,795.91427,0.0,0.0,0.0,0.046699966610762825,0.0,0.0,-0.0873363091271726,-0.07413096406565653,-0.08047079090784873,0.4430963560252056,0.07454093518861753,-0.0018447445116371083
4606,3.0,299.44677,857.8227699999999,0.0,0.0,0.0,0.046710107754435085,0.0,0.0,-0.05503988120751335,-0.11366335646769989,-0.09205346558346972,0.4300915848342346,0.08554143688678252,-0.022006999810421778
4607,3.0,299.88425,797.6410400000001,0.0,0.0,0.0,0.04672024889810734,0.0,0.0,-0.03104167776432507,-0.10883063985074791,-0.1025906505674089,0.43180056285039753,0.09317882167453373,-0.04050870142989756
4608,3.0,299.63417000000004,882.92032,0.0,0.0,0.0,0.0467303900417796,0.0,0.0,-0.04221182387373266,-0.12718752979243186,-0.09898637709344481,0.4641356229566196,0.15736378963309686,-0.01893666962240378
4609,3.0,300.71573,1183.2004,0.0,0.0,0.0,0.04674053118545186,0.0,0.0,-0.1013768884051199,-0.12255700723293489,-0.13572948144795685,0.4556800306071176,0.15927482998420184,-0.009392521614869712
4610,3.0,299.3701,1412.527,0.0,0.0,0.0,0.04675067232912412,0.0,0.0,-0.11975748839914388,-0.14624188030794988,-0.16337356849371584,0.4558818700270376,0.1003018067442676,-0.005032133862507945
4611,3.0,298.88725,1158.0154,0.0,0.0,0.0,0.04676081347279638,0.0,0.0,-0.12972150617251588,-0.12666170365303686,-0.09562454498415782,0.44827713418400855,0.08615217845080801,-0.002177589164811318
4612,3.0,299.72013,765.52033,0.0,0.0,0.0,0.04677095461646864,0.0,0.0,-0.048582476823717156,-0.08404260998110982,-0.10007397745928259,0.4474058302905176,0.11075687895335289,-0.02101664814943168
4613,3.0,300.03839,718.55952,0.0,0.0,0.0,0.04678109576014091,0.0,0.0,-0.05309488380580704,-0.08477211256285612,-0.08055715426687213,0.4383121436905406,0.1063053166265179,-0.022863454523697275
4614,3.0,299.44831,834.01144,0.0,0.0,0.0,0.04679123690381317,0.0,0.0,-0.06399511832707644,-0.0995603356523401,-0.08996319952817651,0.42482580512454265,0.0941773887673346,-0.04167692610619236
4615,3.0,300.22877,896.14806,0.0,0.0,0.0,0.04680137804748543,0.0,0.0,-0.08366657361724791,-0.0991962708384097,-0.08954379099378411,0.4590421058964285,0.10475728325623891,-0.03849362157177466
4616,3.0,300.73652000000004,811.65228,0.0,0.0,0.0,0.04681151919115768,0.0,0.0,-0.05630520462764104,-0.11300165348989488,-0.07741516601853202,0.46822046980726256,0.12352200636317287,-0.017019770659220584
4617,3.0,300.75452,759.89727,0.0,0.0,0.0,0.04682166033482994,0.0,0.0,-0.08964382613640681,-0.09006500177897361,-0.05128096651653735,0.49203402564497756,0.09235553063703122,-0.003815523656837866
4618,3.0,300.61122,1109.8523,0.0,0.0,0.0,0.046831801478502216,0.0,0.0,-0.06487625378628774,-0.13228115831013387,-0.14020998219764785,0.4539722583585736,0.054028890655236354,-0.011251747192960989
4619,3.0,299.33196,1305.9617,0.0,0.0,0.0,0.046841942622174476,0.0,0.0,-0.10223408785721891,-0.14040364468926086,-0.15434201438987086,0.4582726235054866,0.08220926159467243,-0.013705966604673587
4620,3.0,299.27035,1136.3918,0.0,0.0,0.0,0.046852083765846736,0.0,0.0,-0.061855252666138144,-0.12973037211089086,-0.15384911887872585,0.44852129706060556,0.12105629264232588,-0.005848279055005204
4621,3.0,300.01327000000003,752.98185,0.0,0.0,0.0,0.046862224909518996,0.0,0.0,-0.048674414071540655,-0.08057654888703622,-0.0996367184978785,0.45404888033113555,0.14731163936602684,-0.017685016972625284
4622,3.0,299.60251,597.6188599999999,0.0,0.0,0.0,0.046872366053191256,0.0,0.0,-0.07124404329148963,-0.04481764779190746,-0.06559952082691864,0.42692862332207465,0.1141819581338819,-0.02082415798818438
4623,3.0,299.54256000000004,1034.2015,0.0,0.0,0.0,0.04688250719686352,0.0,0.0,-0.13150300249833588,-0.0929831306562205,-0.08988530187373861,0.47067207908671754,0.11594640146051888,-0.03010848455472607
4624,3.0,300.00041,1167.8304,0.0,0.0,0.0,0.04689264834053578,0.0,0.0,-0.09550959682656332,-0.1022529545740809,-0.15722873352726785,0.43083320284742654,0.1130312505253159,-0.02302612980075208
4625,3.0,300.17967999999996,925.92792,0.0,0.0,0.0,0.04690278948420804,0.0,0.0,-0.07974714288518021,-0.09470370734627823,-0.1070081170283789,0.4585069882536166,0.1035437136114689,-0.014173022211768384
4626,3.0,300.54154,833.10742,0.0,0.0,0.0,0.0469129306278803,0.0,0.0,-0.04056923603062186,-0.10317536680261591,-0.10949924306173389,0.4187386342212856,0.08197355226365972,-0.006922315244404323
4627,3.0,300.61111,1117.1499,0.0,0.0,0.0,0.04692307177155256,0.0,0.0,-0.09379732777407551,-0.14355196473747586,-0.1022363879349459,0.4533592116505706,0.13626215715802786,-0.004218274460911276
4628,3.0,300.45158,1258.0037,0.0,0.0,0.0,0.04693321291522483,0.0,0.0,-0.1164241387501679,-0.14340491175046285,-0.12257268221198189,0.4557463478261625,0.12767203559274887,-0.0042574076996484255
4629,3.0,300.52355,1092.2862,0.0,0.0,0.0,0.04694335405889709,0.0,0.0,-0.11021924845029289,-0.11568518558473889,-0.1061232862460529,0.4438381462909146,0.1033918476864809,-0.002737808558975667
4630,3.0,299.6367,738.62325,0.0,0.0,0.0,0.04695349520256935,0.0,0.0,-0.010419829344107089,-0.08978975238930861,-0.12431344588378189,0.44570178680234157,0.05949049006600424,-0.018627375029378782
4631,3.0,299.54056,717.46448,0.0,0.0,0.0,0.04696363634624161,0.0,0.0,-0.03219636339278367,-0.094645098933994,-0.09124982349190641,0.47650787277266554,0.08350414861296783,-0.02187504728964908
4632,3.0,299.26291000000003,993.17519,0.0,0.0,0.0,0.04697377748991387,0.0,0.0,-0.06335815283721284,-0.09143275870471072,-0.14710954663358186,0.4837677286791575,0.13603885710098987,-0.024083070231813976
4633,3.0,299.22373,1123.6072,0.0,0.0,0.0,0.046983918633586134,0.0,0.0,-0.0968056105789699,-0.1274487760657149,-0.1172941355510299,0.4636193112356635,0.1203079061184659,-0.04077384061006476
4634,3.0,298.89329,932.4572,0.0,0.0,0.0,0.046994059777258394,0.0,0.0,-0.0990749929074405,-0.08593881128450032,-0.0984299001385248,0.44047858386185157,0.13085169546655687,-0.013294354016550587
4635,3.0,299.04752,733.6443,0.0,0.0,0.0,0.047004200920930654,0.0,0.0,-0.059784599079780544,-0.08451746356097423,-0.07870748546107402,0.4201161274672336,0.14276351430466186,-0.04184850886487626
4636,3.0,300.0775,939.9240800000001,0.0,0.0,0.0,0.047014342064602914,0.0,0.0,-0.05595973700604604,-0.12596773879204787,-0.10378598171037891,0.45705042096986453,0.13058749050298188,-0.010439403309538891
4637,3.0,300.62071000000003,1177.2983,0.0,0.0,0.0,0.047024483208275174,0.0,0.0,-0.10977795776674089,-0.1011419552236838,-0.14694939232277585,0.4196929131654656,0.09116529816856442,-0.01085976125927499
4638,3.0,300.0953,1134.7103,0.0,0.0,0.0,0.04703462435194744,0.0,0.0,-0.08559578964864673,-0.1281380090487369,-0.13118980689242588,0.4438572663203016,0.06046417578934954,0.00985059952210348
4639,3.0,299.78978,875.2819300000001,0.0,0.0,0.0,0.0470447654956197,0.0,0.0,-0.08443824564165602,-0.0924054261117055,-0.08922018019009623,0.46207038620529656,0.1023676342203989,-0.010191874416109688
4640,3.0,299.84872,947.0500199999999,0.0,0.0,0.0,0.04705490663929196,0.0,0.0,-0.08913906951959122,-0.08469989924147922,-0.11404058947992989,0.4844895883153995,0.11451123401887889,0.0033947776323134666
4641,3.0,300.34515,1243.6631,0.0,0.0,0.0,0.04706504778296422,0.0,0.0,-0.12835606047025688,-0.13520404034359987,-0.11448242731853588,0.4772830597616705,0.1031310067132379,-0.015067994614345286
4642,3.0,299.51349,1186.7777,0.0,0.0,0.0,0.04707518892663648,0.0,0.0,-0.08646667101684602,-0.1091472197119919,-0.16513688711274185,0.44033424638510654,0.07938046287274172,-0.015133682605078186
4643,3.0,299.41835,901.8624699999999,0.0,0.0,0.0,0.04708533007030875,0.0,0.0,-0.08096496514061992,-0.09519488641175382,-0.0979838188085,0.4433526779030026,0.1179265049384399,-0.029499912359164673
4644,3.0,299.70142999999996,755.9999799999999,0.0,0.0,0.0,0.047095471213981006,0.0,0.0,-0.03188632304768507,-0.10593201502467589,-0.09198678055463841,0.44605454982465653,0.12236984980696389,-0.049387866771702954
4645,3.0,299.35998,841.11219,0.0,0.0,0.0,0.047105612357653266,0.0,0.0,-0.08998917723424031,-0.09618662521213081,-0.06950129871574413,0.4307905247532146,0.1136710470359589,-0.02432844596878068
4646,3.0,298.87936,1021.8104,0.0,0.0,0.0,0.047115753501325526,0.0,0.0,-0.06577823078680595,-0.13960795965073286,-0.10521864642427191,0.4307375013754816,0.09528173613082522,-0.034373707148420765
4647,3.0,298.68991,1046.4036,0.0,0.0,0.0,0.047125894644997786,0.0,0.0,-0.08880369589549242,-0.11918614706525688,-0.1100907278076089,0.4377728818548196,0.13747958728567888,-0.025352000822297677
4648,3.0,298.5443,832.16299,0.0,0.0,0.0,0.04713603578867005,0.0,0.0,-0.03138335481729597,-0.1100166389602969,-0.1115567791122969,0.47805434573779054,0.1107186794245829,-0.017093643684261285
4649,3.0,299.827,765.2801,0.0,0.0,0.0,0.04714617693234231,0.0,0.0,-0.060068966707095446,-0.09638649284735622,-0.07617058180145113,0.4629105326582125,0.1104954604275529,-0.021880069970394777
4650,3.0,300.36935,1002.0364,0.0,0.0,0.0,0.047156318076014565,0.0,0.0,-0.06249595603562064,-0.09472687125681431,-0.14737122860440788,0.45845302255329057,0.08880969838908483,-0.014315815495360987
4651,3.0,299.77178,1082.5728,0.0,0.0,0.0,0.04716645921968683,0.0,0.0,-0.12190936816651789,-0.1162582899737999,-0.09090745641561741,0.46677551436965653,0.11016676209511288,-0.02575908924872418
4652,3.0,300.20102,802.10566,0.0,0.0,0.0,0.04717660036335909,0.0,0.0,-0.06622385716753584,-0.08683688625888342,-0.09075934964850041,0.4415115720737996,0.12538797734982987,-0.02181069070954758
4653,3.0,300.31247,730.09392,0.0,0.0,0.0,0.04718674150703136,0.0,0.0,-0.08699413558165273,-0.062326595334406036,-0.07260959133200873,0.45853963517183854,0.12025317034806388,-0.01126146932767049
4654,3.0,300.03846,931.76361,0.0,0.0,0.0,0.04719688265070362,0.0,0.0,-0.05526956980643185,-0.1100179967154309,-0.1179453007277949,0.46180967695456654,0.08067335885459062,-0.029843251142299573
4655,3.0,300.13768999999996,1057.0562,0.0,0.0,0.0,0.04720702379437588,0.0,0.0,-0.1139387477123789,-0.08636184320125033,-0.12101808298105488,0.47371624715715355,0.10456864648512189,-0.002709502201532047
4656,3.0,301.17786,1179.3045,0.0,0.0,0.0,0.04721716493804814,0.0,0.0,-0.08918458370083311,-0.11462158708726988,-0.15467295200503187,0.4713254734137025,0.08149424038335533,-0.030530002675826673
4657,3.0,300.03432000000004,1022.1996,0.0,0.0,0.0,0.0472273060817204,0.0,0.0,-0.10896517919902589,-0.10098720558891121,-0.10077077030130072,0.45275918520635255,0.10900463515791989,-0.0003670124597963096
4658,3.0,299.79821,726.1329400000001,0.0,0.0,0.0,0.04723744722539266,0.0,0.0,-0.031749162421398365,-0.07256660115676593,-0.11641052066882389,0.41829106138711364,0.1074005893221129,-0.012227102752471089
4659,3.0,300.35051,1022.342,0.0,0.0,0.0,0.04724758836906492,0.0,0.0,-0.08263268766571133,-0.1150280118348809,-0.11310572440766588,0.43286616758306456,0.14268751041466088,-0.006713168872713183
4660,3.0,299.96167,1097.3139,0.0,0.0,0.0,0.047257729512737184,0.0,0.0,-0.07999067349371483,-0.1052824102530649,-0.14828295104438785,0.43507067556063256,0.14314760702006887,-0.01920757115588968
4661,3.0,299.29348999999996,745.17534,0.0,0.0,0.0,0.047267870656409444,0.0,0.0,-0.05853175586113454,-0.06343411721045994,-0.1045488273131659,0.4545795498060086,0.12290637586741489,-0.012105785304747988
4662,3.0,299.55839,706.5013799999999,0.0,0.0,0.0,0.047278011800081704,0.0,0.0,-0.025101089700034676,-0.1028789506183619,-0.08677873583564441,0.4507770754932336,0.07792431710103133,-0.04803161732735155
4663,3.0,299.33139,1082.8969,0.0,0.0,0.0,0.047288152943753964,0.0,0.0,-0.11028600136688091,-0.0953961340936154,-0.12349148727016089,0.4728308590872725,0.0944036829784181,-0.023651600981481277
4664,3.0,299.38399,1296.2,0.0,0.0,0.0,0.047298294087426224,0.0,0.0,-0.1051478202422819,-0.14791005474258584,-0.14095455890113187,0.4730102752824795,0.1028942000323669,-0.029663131751523172
4665,3.0,298.84761000000003,982.7271699999999,0.0,0.0,0.0,0.047308435231098483,0.0,0.0,-0.07337083397313753,-0.1091649211912389,-0.11618876075193789,0.44867291980556956,0.1100182094979519,-0.01942750114309508
4666,3.0,299.33184,848.54803,0.0,0.0,0.0,0.04731857637477074,0.0,0.0,-0.03988174583777186,-0.0943104680222185,-0.12374519496269988,0.42921486005270865,0.10724157998391991,-0.007626929971894383
4667,3.0,300.20191,916.47585,0.0,0.0,0.0,0.047328717518443,0.0,0.0,-0.06271033341227804,-0.10873620494142791,-0.10713923159131891,0.4288556122297536,0.1389501374208109,-0.024773985210001976
4668,3.0,300.64318,1006.3084,0.0,0.0,0.0,0.04733885866211528,0.0,0.0,-0.07771499584237293,-0.09598899078012582,-0.1321886283110019,0.4528609459138956,0.1271407480353149,-0.03355082546395867
4669,3.0,300.20011,1034.6949,0.0,0.0,0.0,0.04734899980578753,0.0,0.0,-0.12334880139107889,-0.08335849695084313,-0.1078141270854259,0.45809578096553355,0.11611830947248489,-0.00999502109860678
4670,3.0,300.87332999999995,820.65539,0.0,0.0,0.0,0.04735914094945979,0.0,0.0,-0.057804772219136845,-0.08707305256569123,-0.1045809169438329,0.4792250954333345,0.1135572083872239,-0.02128628312029258
4671,3.0,299.62205,652.8622,0.0,0.0,0.0,0.04736928209313205,0.0,0.0,-0.05224988388491205,-0.07987487724578662,-0.06632904671341723,0.46060486179066057,0.11959372691798188,-0.006707073869386655
4672,3.0,299.40344,957.7448099999999,0.0,0.0,0.0,0.04737942323680431,0.0,0.0,-0.05397557039522405,-0.10112733199824059,-0.13602761002487984,0.46899942608663964,0.1203593893560469,-0.025482289586406175
4673,3.0,299.86824,1413.4485,0.0,0.0,0.0,0.04738956438047658,0.0,0.0,-0.13890553415140888,-0.13490320638890987,-0.15584430965063584,0.4384801101596176,0.1141059643763819,0.004516634869457156
4674,3.0,299.235,1009.1967,0.0,0.0,0.0,0.04739970552414884,0.0,0.0,-0.06724225255154363,-0.1067158754345369,-0.13281247626507087,0.4640123813469566,0.08740451707090423,-0.02169420139855098
4675,3.0,298.98742999999996,742.44073,0.0,0.0,0.0,0.0474098466678211,0.0,0.0,-0.08290160221575112,-0.09406926788891391,-0.04871257307030665,0.4449596418990976,0.1087243904452619,-0.00994230129060374
4676,3.0,299.21488,986.0168800000001,0.0,0.0,0.0,0.04741998781149336,0.0,0.0,-0.05554542917265704,-0.1144810290333979,-0.12969804943270088,0.46133253748247655,0.09220682605235522,-0.029807976866568272
4677,3.0,298.82443,1067.2808,0.0,0.0,0.0,0.04743012895516562,0.0,0.0,-0.1218569628713459,-0.08935759716865822,-0.1132121460656689,0.45216016187973357,0.07021262967019704,0.005026487019700645
4678,3.0,299.76785,976.51935,0.0,0.0,0.0,0.04744027009883789,0.0,0.0,-0.03959553004227456,-0.1302076534379949,-0.12703431624481087,0.4531832709032066,0.10231002081971291,-0.028368655099518275
4679,3.0,301.07831,826.10426,0.0,0.0,0.0,0.04745041124251015,0.0,0.0,-0.06410844427126085,-0.08158995908055201,-0.10541666589131489,0.44860116143348755,0.15397607911625585,-5.566726236468105e-05
4680,3.0,300.32587,812.8187,0.0,0.0,0.0,0.04746055238618241,0.0,0.0,-0.04774857604441755,-0.12107145086382189,-0.07825656687507183,0.4547140992867875,0.13305242402125186,-0.04166609142287306
4681,3.0,300.55754,1005.067,0.0,0.0,0.0,0.04747069352985467,0.0,0.0,-0.13354508648487387,-0.097258625579429,-0.07471157258495813,0.43321210129970555,0.12429436638439889,-0.018464288372783383
4682,3.0,299.31471,1127.9004,0.0,0.0,0.0,0.04748083467352693,0.0,0.0,-0.07904116898400602,-0.12956704632727187,-0.1342453537614849,0.4469257219956346,0.08862619372972431,-0.032957109541363466
4683,3.0,298.65674,969.5854199999999,0.0,0.0,0.0,0.047490975817199195,0.0,0.0,-0.09659987318591522,-0.10236646898278391,-0.09576341901636361,0.43627946266493056,0.12440693847050888,-0.004790487088559265
4684,3.0,299.64699,784.98895,0.0,0.0,0.0,0.047501116960871455,0.0,0.0,-0.01031071852033869,-0.09306622932342172,-0.13524009178215787,0.4361489864495536,0.12264534237665287,-0.01986512994078568
4685,3.0,299.22114,868.8946900000001,0.0,0.0,0.0,0.047511258104543715,0.0,0.0,-0.05996865393394535,-0.1062262020587099,-0.09792743346693522,0.4567579361959986,0.1035949435365249,-0.001876565023077548
4686,3.0,299.68048,1147.7505,0.0,0.0,0.0,0.047521399248215974,0.0,0.0,-0.09737758418091931,-0.1072995480221409,-0.14421035438745386,0.46445042963018857,0.1139711919805809,-0.003334303522620137
4687,3.0,300.74896,1291.8622,0.0,0.0,0.0,0.047531540391888234,0.0,0.0,-0.14768810230818086,-0.12414795174494887,-0.12085779694773588,0.4679584433314026,0.11867400993471287,-0.010248303327428791
4688,3.0,299.90047999999996,970.60151,0.0,0.0,0.0,0.0475416815355605,0.0,0.0,-0.0962559274659704,-0.1016891923509419,-0.0970935093828833,0.4602879272918815,0.08761273186045342,-0.031371472433373265
4689,3.0,300.5001,1038.8996,0.0,0.0,0.0,0.04755182267923276,0.0,0.0,-0.1130950954141169,-0.1110557978653539,-0.0916486306252656,0.4408552494540256,0.07239787880311432,-0.00015901137482570086
4690,3.0,300.56849,1064.7068,0.0,0.0,0.0,0.04756196382290502,0.0,0.0,-0.07376092918213693,-0.09397209923082411,-0.15591125508474285,0.4521843988221256,0.07792080314968453,-0.00984645877424482
4691,3.0,299.47593,1027.1466,0.0,0.0,0.0,0.04757210496657728,0.0,0.0,-0.06929332507971873,-0.1055430992387929,-0.13739048207188487,0.45221972072061156,0.12411551760924788,-0.005695703145672135
4692,3.0,299.51886,962.25155,0.0,0.0,0.0,0.04758224611024954,0.0,0.0,-0.08242328433379482,-0.09936435889749871,-0.1107128025740029,0.4529837619585166,0.13276209747009887,-0.023172876786234878
4693,3.0,300.09173,775.67794,0.0,0.0,0.0,0.04759238725392181,0.0,0.0,-0.10169923365943291,-0.05701672404661254,-0.07707076433604222,0.44709961597779657,0.12264921299203489,-0.008993664528280581
4694,3.0,300.26338,817.25354,0.0,0.0,0.0,0.04760252839759407,0.0,0.0,-0.06645516291361393,-0.1038565849773469,-0.07811292246139523,0.44666736348513664,0.10402889828935291,-0.025998738096125677
4695,3.0,300.24602000000004,1178.2803,0.0,0.0,0.0,0.04761266954126633,0.0,0.0,-0.1087484551351369,-0.1020231393188999,-0.14739619508687188,0.4772380511922285,0.10672195493513689,-0.0029643557786091373
4696,3.0,299.40313,1406.2138,0.0,0.0,0.0,0.04762281068493859,0.0,0.0,-0.07525263699260702,-0.16599558617498886,-0.1862056700195688,0.44495255928089855,0.12173795664710088,-0.007026180979030073
4697,3.0,299.17482,1139.6816,0.0,0.0,0.0,0.047632951828610846,0.0,0.0,-0.08498454449932151,-0.11925017433907589,-0.14220003579155086,0.46087873316018957,0.1117882560976419,-0.016314992393164383
4698,3.0,299.07851,910.29224,0.0,0.0,0.0,0.04764309297228311,0.0,0.0,-0.04926810162313305,-0.1110747861722279,-0.1163632221541559,0.4487696547926166,0.0951671061337621,-0.029606778833961574
4699,3.0,298.82867999999996,870.26228,0.0,0.0,0.0,0.04765323411595537,0.0,0.0,-0.11005589226917088,-0.100478258169682,-0.05400384817901485,0.4666265564724556,0.1106883832465929,-0.01996162276105878
4700,3.0,299.39043,1007.3564,0.0,0.0,0.0,0.04766337525962763,0.0,0.0,-0.08535820276519872,-0.10673500559642489,-0.1141179916550689,0.4568252970626465,0.10034916706719171,-0.042506987680863056
4701,3.0,299.43795,909.7913599999999,0.0,0.0,0.0,0.04767351640329989,0.0,0.0,-0.08643386096535792,-0.09194792545305372,-0.0981720695313289,0.45576203293771056,0.08969778677048232,-0.009307545395233211
4702,3.0,300.32544,791.1634799999999,0.0,0.0,0.0,0.04768365754697215,0.0,0.0,-0.03763107215914766,-0.07093692515967943,-0.1319259432225769,0.4409004910709906,0.12234191450170687,-0.02071400554331318
4703,3.0,300.25172000000003,835.3688,0.0,0.0,0.0,0.04769379869064442,0.0,0.0,-0.07976785067747393,-0.07233578177073584,-0.10182762257960391,0.47900548360666056,0.1219940961398799,0.0012457005147160688
4704,3.0,300.60278999999997,1050.8895,0.0,0.0,0.0,0.04770393983431668,0.0,0.0,-0.07570004669351293,-0.1107845001510789,-0.13295962044459286,0.45291391862912356,0.14288840751198786,-0.03719109667422547
4705,3.0,300.64051,1429.0387,0.0,0.0,0.0,0.04771408097798894,0.0,0.0,-0.16548022690912684,-0.13931162452648688,-0.12960023026804687,0.44313621728413966,0.1129163479639759,-0.007022027464220155
4706,3.0,300.34697,1074.4648,0.0,0.0,0.0,0.0477242221216612,0.0,0.0,-0.09396746766461701,-0.10343087808033291,-0.12921211494974288,0.4522224970258856,0.10698102272070491,-0.022201453650362878
4707,3.0,299.9587,546.36314,0.0,0.0,0.0,0.04773436326533346,0.0,0.0,-0.03370093238677307,-0.06339490240508973,-0.06898491708053123,0.4649546634099525,0.1018094347403089,-0.013878301194931686
4708,3.0,300.18773,679.6230400000001,0.0,0.0,0.0,0.047744504409005725,0.0,0.0,-0.008056397951954572,-0.07423010045544053,-0.12430193536264587,0.4718135559868725,0.1038206044662959,-0.014610503074944384
4709,3.0,299.8603,935.17257,0.0,0.0,0.0,0.047754645552677985,0.0,0.0,-0.08385228412207613,-0.09103866419756661,-0.1093781596747839,0.4659426430524585,0.08585197372443011,-0.006812458769887333
4710,3.0,299.43838,874.4555,0.0,0.0,0.0,0.047764786696350245,0.0,0.0,-0.05885396331343394,-0.09679732928590261,-0.11016134120707789,0.43316526888008355,0.10612465413368789,-0.02131036098241888
4711,3.0,299.77532,841.23625,0.0,0.0,0.0,0.047774927840022505,0.0,0.0,-0.1157009314912929,-0.07641386011071083,-0.06360002475533373,0.47484503816605655,0.10125351405969381,-0.021540220820604278
4712,3.0,299.67881,985.4126,0.0,0.0,0.0,0.047785068983694765,0.0,0.0,-0.08066489112350493,-0.1149117312534049,-0.1039642022704679,0.47848718591550854,0.1027475118153899,-0.03387072473253027
4713,3.0,300.36247000000003,1120.7782,0.0,0.0,0.0,0.047795210127367024,0.0,0.0,-0.1046142934021269,-0.0965179559683306,-0.13955634469063888,0.49004355661853355,0.0994721403371359,-0.015788284726182385
4714,3.0,300.07217,1256.1379,0.0,0.0,0.0,0.047805351271039284,0.0,0.0,-0.06773465055688953,-0.15637520204053085,-0.15772470931871685,0.4588624769187006,0.1042312949968279,-0.02165188908762508
4715,3.0,300.3097,1115.2313,0.0,0.0,0.0,0.047815492414711544,0.0,0.0,-0.10898884872136189,-0.1055944507538609,-0.12441915826671487,0.46892358431665454,0.1027673309873459,0.0006211442582971654
4716,3.0,301.4199,874.6890099999999,0.0,0.0,0.0,0.04782563355838381,0.0,0.0,-0.04476326868554066,-0.11941073394992188,-0.1017096093404569,0.46171329660505456,0.13462821031176989,-0.04332019991962086
4717,3.0,301.87201,839.7510800000001,0.0,0.0,0.0,0.04783577470205607,0.0,0.0,-0.0990218590854466,-0.1021078166297569,-0.05413368300707854,0.4472336993635296,0.1068056189958939,-0.006358906848200244
4718,3.0,301.64537,1192.9545,0.0,0.0,0.0,0.04784591584572833,0.0,0.0,-0.10289951959539191,-0.13497905829139586,-0.12474979190684589,0.4404466056886956,0.1256057146638189,-0.03823849330259546
4719,3.0,300.71302000000003,1144.8959,0.0,0.0,0.0,0.04785605698940059,0.0,0.0,-0.08290392661148052,-0.13622045178391187,-0.1288953831009839,0.44752208047449055,0.1147728653271999,-0.0028246768205238974
4720,3.0,300.39091,785.27565,0.0,0.0,0.0,0.04786619813307285,0.0,0.0,-0.031678657439690075,-0.1050491499475439,-0.1019763778267849,0.4585164520095506,0.13345738968871887,-0.05679706155743355
4721,3.0,300.09115,853.2386,0.0,0.0,0.0,0.04787633927674511,0.0,0.0,-0.06419384808243954,-0.07825079540250222,-0.11691858453396589,0.4459367696330325,0.09676343303030732,-0.002814956104364537
4722,3.0,300.12405,934.2264,0.0,0.0,0.0,0.04788648042041737,0.0,0.0,-0.08159759898630602,-0.1066781723983159,-0.09570572252916941,0.4529769427853435,0.1136984554511639,-0.02854394432706797
4723,3.0,300.50487000000004,1079.8168,0.0,0.0,0.0,0.047896621564089636,0.0,0.0,-0.1062617772697209,-0.10271170355685591,-0.11926387348042788,0.47371761504478854,0.0979906622996754,0.008662124231960102
4724,3.0,300.28507,1102.6523,0.0,0.0,0.0,0.047906762707761896,0.0,0.0,-0.09892488699787622,-0.12054272682914088,-0.11571115518480189,0.4748845650524575,0.12266468532106188,-0.03098823692755087
4725,3.0,300.12863,1009.7176,0.0,0.0,0.0,0.047916903851434156,0.0,0.0,-0.05872438990389604,-0.12474001404338088,-0.12346451455249889,0.47978349756344457,0.0975017437951729,-0.018864320525513484
4726,3.0,300.30182,1017.5827,0.0,0.0,0.0,0.047927044995106416,0.0,0.0,-0.06712232629620783,-0.1115236660990289,-0.13067373835149387,0.44848726198974653,0.07623676121848252,-0.02240270335872468
4727,3.0,299.72702000000004,1307.3299,0.0,0.0,0.0,0.047937186138778676,0.0,0.0,-0.11215076658591888,-0.15861505218158684,-0.12662982680489088,0.4682301767432206,0.11356902288338988,-0.01220346869388859
4728,3.0,299.11322,1182.7735,0.0,0.0,0.0,0.04794732728245095,0.0,0.0,-0.11147881964960289,-0.1274038282912789,-0.12065095207232188,0.4311830679744556,0.13393862269121287,-0.0067425553547634035
4729,3.0,299.74377000000004,766.51796,0.0,0.0,0.0,0.04795746842612321,0.0,0.0,-0.09305611506092351,-0.07864924181882582,-0.061296961993539144,0.4599494713609785,0.12383822145438089,-0.007895983742497923
4730,3.0,299.66952000000003,639.68642,0.0,0.0,0.0,0.04796760956979546,0.0,0.0,-0.01908482806527588,-0.0939204842707301,-0.08144338738733652,0.4244728394522076,0.1090421051466179,-0.013765003621750087
4731,3.0,299.80568999999997,1080.6672,0.0,0.0,0.0,0.04797775071346772,0.0,0.0,-0.07601881112197252,-0.10447929809130391,-0.14799773127373886,0.46382349126331457,0.11917205275636589,0.008035558335822863
4732,3.0,301.08917,1203.3192,0.0,0.0,0.0,0.04798789185713998,0.0,0.0,-0.05972967180510965,-0.1316307125409399,-0.17441860253377584,0.4636766003963176,0.12862448055424788,-0.017305022853872785
4733,3.0,300.24728999999996,966.53477,0.0,0.0,0.0,0.047998033000812255,0.0,0.0,-0.0980595126439704,-0.08112202802537083,-0.11462089807720188,0.4861051345398415,0.08770294151685641,-0.0037089630822461565
4734,3.0,300.96922,1070.3073,0.0,0.0,0.0,0.048008174144484515,0.0,0.0,-0.07455647033915072,-0.11709859854673188,-0.13369161258183487,0.4749566679295736,0.0991006544794731,-0.023105363932071875
4735,3.0,301.12641,1153.5676,0.0,0.0,0.0,0.048018315288156775,0.0,0.0,-0.1148801381152869,-0.13139918489308988,-0.1043764329411519,0.47570474034590254,0.10672453872289189,-0.007682890153717223
4736,3.0,300.81818,1243.0245,0.0,0.0,0.0,0.048028456431829035,0.0,0.0,-0.06882496845949553,-0.15200455786668185,-0.15701888943155784,0.46872879711743054,0.12361619809246889,-0.04187209530070406
4737,3.0,299.24592,1280.9703,0.0,0.0,0.0,0.048038597575501295,0.0,0.0,-0.12011745562966987,-0.12177953029870389,-0.14748598931073387,0.44750363932267057,0.08711109605394582,-0.017156973842011484
4738,3.0,299.76867000000004,849.97868,0.0,0.0,0.0,0.04804873871917356,0.0,0.0,-0.042994356925962665,-0.10128071982487881,-0.11409722002801888,0.44883884964194554,0.09539308117106411,-0.015891310983100287
4739,3.0,298.91168999999996,443.56809000000004,0.0,0.0,0.0,0.04805887986284582,0.0,0.0,-0.048221462905837856,-0.05663021168996674,-0.029981949882238075,0.44783420203529456,0.10681313731163591,-0.008951283316347883
4740,3.0,300.33769,1066.8411,0.0,0.0,0.0,0.04806902100651808,0.0,0.0,-0.08870093713660092,-0.12789657181490888,-0.1076955464262229,0.4522237838535126,0.13133872425962287,-0.0025603738756642277
4741,3.0,300.08094,1481.743,0.0,0.0,0.0,0.04807916215019034,0.0,0.0,-0.16750588611154382,-0.13511205749952188,-0.14779493939872484,0.4592339344053606,0.1206865779458379,-0.010072474442875831
4742,3.0,300.02471,1063.7966,0.0,0.0,0.0,0.0480893032938626,0.0,0.0,-0.05922313997411884,-0.10008852367771821,-0.16405595190606184,0.4500760685440495,0.10550737204026689,-0.006789032731550364
4743,3.0,300.07695,823.40385,0.0,0.0,0.0,0.04809944443753487,0.0,0.0,-0.03168600755591547,-0.11423670403678489,-0.10437149841316488,0.48312111299534155,0.12238825042877988,-0.045521910313662754
4744,3.0,300.34086,1096.4199,0.0,0.0,0.0,0.04810958558120713,0.0,0.0,-0.08992922727882373,-0.08640480095248991,-0.15695023160478186,0.4932472609172145,0.12230681551824288,0.006526829950172963
4745,3.0,300.21941,1189.7069,0.0,0.0,0.0,0.04811972672487939,0.0,0.0,-0.14031706246821588,-0.1094218915490999,-0.11190222646888988,0.4840658167260765,0.1053762372123249,-0.042631604270911755
4746,3.0,300.55998,1151.8773,0.0,0.0,0.0,0.04812986786855165,0.0,0.0,-0.1352037971635759,-0.0996168121864139,-0.1153213274738289,0.46356574070287654,0.06312763945271294,0.006405773718325645
4747,3.0,299.16386,739.43552,0.0,0.0,0.0,0.04814000901222391,0.0,0.0,-0.06385257227650824,-0.06926370676604564,-0.09165365634576161,0.4681848135362435,0.08190541930043552,-0.03344477364224217
4748,3.0,299.20446,553.54029,0.0,0.0,0.0,0.048150150155896174,0.0,0.0,-0.0036386066430025166,-0.1000093878316581,-0.06461442996044774,0.4750305743918676,0.1176027816639909,-0.01051200774545439
4749,3.0,300.31082000000004,910.45604,0.0,0.0,0.0,0.04816029129956843,0.0,0.0,-0.049423354843205355,-0.11288826067120389,-0.1144442784522709,0.45417769481634856,0.1053792060351179,-0.034474369492855365
4750,3.0,298.99082000000004,1273.7091,0.0,0.0,0.0,0.04817043244324069,0.0,0.0,-0.1191431143335099,-0.12607726099535688,-0.14195538655490586,0.45193710500271955,0.0976376297528338,-0.0018832792235401882
4751,3.0,299.24012999999997,1022.8529,0.0,0.0,0.0,0.04818057358691295,0.0,0.0,-0.0997772674324996,-0.11716792511857389,-0.0939765473987631,0.4511137582364616,0.12100023964679388,-0.01858555414475138
4752,3.0,300.82691,754.1435799999999,0.0,0.0,0.0,0.04819071473058521,0.0,0.0,-0.05445000550279715,-0.1035672818087949,-0.07122353105646523,0.46585270697358255,0.13625939098525486,-0.03251582088431167
4753,3.0,299.87115,927.03595,0.0,0.0,0.0,0.04820085587425748,0.0,0.0,-0.060775833281607745,-0.1110440340316929,-0.1099759164387779,0.46012032559284055,0.1124615506565909,-0.045811922757284754
4754,3.0,300.16975,1322.2181,0.0,0.0,0.0,0.04821099701792974,0.0,0.0,-0.06868059146599663,-0.14307316353522187,-0.1901675285730738,0.45309341588433855,0.10241384855745991,-0.03879836768510076
4755,3.0,301.12574,1033.6364,0.0,0.0,0.0,0.048221138161602,0.0,0.0,-0.08121903051044423,-0.1012810673696631,-0.13169955275273387,0.4575044583396745,0.13139520282019687,-0.020948867797242282
4756,3.0,300.65722999999997,641.0083599999999,0.0,0.0,0.0,0.04823127930527426,0.0,0.0,-0.032428094703903766,-0.08087090412058683,-0.08155153765001012,0.4776368765640896,0.13519813309551687,-0.027939832458446768
4757,3.0,300.19481,736.6657700000001,0.0,0.0,0.0,0.04824142044894652,0.0,0.0,-0.10037576184256641,-0.06880653338717614,-0.054745705319230446,0.4715347602218576,0.1045066355790019,-0.004611514291596026
4758,3.0,300.62554,1085.5709,0.0,0.0,0.0,0.048251561592618786,0.0,0.0,-0.12072867848749289,-0.09623485490364071,-0.11302293174199489,0.4630075108252836,0.08510072882203801,-0.012048749456618988
4759,3.0,299.77367999999996,1348.0261,0.0,0.0,0.0,0.048261702736291046,0.0,0.0,-0.11894288598124889,-0.14662207201047187,-0.14420130606406084,0.4526237035354816,0.09749011675027541,-0.013062412962659786
4760,3.0,299.51443,1156.777,0.0,0.0,0.0,0.048271843879963305,0.0,0.0,-0.06714580532752504,-0.11948421484717389,-0.16500130411686084,0.46213755455442557,0.12078235034528989,-0.02070265714219318
4761,3.0,299.50472,825.44573,0.0,0.0,0.0,0.048281985023635565,0.0,0.0,-0.04936708805190225,-0.098282788383006,-0.10326500903896291,0.43903333458171656,0.1035994828969729,-0.007621171266276043
4762,3.0,298.96955,822.26168,0.0,0.0,0.0,0.048292126167307825,0.0,0.0,-0.05992505682189264,-0.07492037404631523,-0.1151015940571429,0.44416883059355056,0.0999195601705428,-0.007470461864952182
4763,3.0,298.7431,1226.8881,0.0,0.0,0.0,0.04830226731098009,0.0,0.0,-0.12657868807234388,-0.11148377444259189,-0.13488089462170788,0.44234930699147756,0.12367402427567589,0.0001142215052852849
4764,3.0,299.08049,1101.0561,0.0,0.0,0.0,0.04831240845465235,0.0,0.0,-0.1104820449962289,-0.0941416767675601,-0.13006984129189386,0.4760397714914676,0.1320881341660839,-0.006004853857182934
4765,3.0,300.05846,790.21598,0.0,0.0,0.0,0.04832254959832461,0.0,0.0,-0.04649421903012216,-0.1050092380261049,-0.08870247018400222,0.46480998142817354,0.11008202398924989,-0.04070389291591146
4766,3.0,300.15664,730.60047,0.0,0.0,0.0,0.04833269074199687,0.0,0.0,-0.031532138435479765,-0.08829379703441932,-0.10225836532961491,0.47665336535452457,0.0935501636506823,-0.025650214512229076
4767,3.0,300.24365,1049.7764,0.0,0.0,0.0,0.04834283188566913,0.0,0.0,-0.08091736873042252,-0.11931019927499989,-0.1188782608898709,0.4862969731812745,0.13793856931597687,-0.047288177490479755
4768,3.0,300.13985,1136.4268,0.0,0.0,0.0,0.04835297302934139,0.0,0.0,-0.08813537335478411,-0.13209582473434286,-0.12521416442767588,0.46714766086638454,0.10902144497707891,-0.019346852514635682
4769,3.0,301.16517000000005,910.7153400000001,0.0,0.0,0.0,0.04836311417301365,0.0,0.0,-0.0971173744624886,-0.0968032922627411,-0.08291405404623002,0.44926393845639856,0.0961258372988815,-0.025370802691153275
4770,3.0,300.03898,728.15255,0.0,0.0,0.0,0.04837325531668591,0.0,0.0,-0.05236113570614175,-0.08862615623947061,-0.08035290229846402,0.4308952644160516,0.08632452621331742,-0.021701684250539477
4771,3.0,300.222,718.71845,0.0,0.0,0.0,0.04838339646035817,0.0,0.0,-0.030232857964750767,-0.08821304201469941,-0.100026561407603,0.45964153452308754,0.12496783319586487,-0.043672805888170366
4772,3.0,299.07399,1164.4863,0.0,0.0,0.0,0.04839353760403044,0.0,0.0,-0.07113739770521453,-0.1291191593855689,-0.15371818670080387,0.4641072114238155,0.12838029741264886,-0.019517680401995082
4773,3.0,299.53219,1304.8756,0.0,0.0,0.0,0.0484036787477027,0.0,0.0,-0.100615239450701,-0.12424743263976687,-0.17178693871155082,0.4605406318668216,0.11775064525108389,-0.016665309429737984
4774,3.0,300.18835,880.44024,0.0,0.0,0.0,0.04841381989137496,0.0,0.0,-0.06468044827071323,-0.08439326848296713,-0.11855813465327689,0.4745774996096525,0.10944053535093991,0.005462246066981715
4775,3.0,301.21792999999997,712.72383,0.0,0.0,0.0,0.04842396103504722,0.0,0.0,-0.058918861982338935,-0.07896201287294392,-0.07876937376393192,0.47161793792256657,0.12300217866436987,-0.008636974249902993
4776,3.0,300.74631,1024.0472,0.0,0.0,0.0,0.048434102178719476,0.0,0.0,-0.1012004430592061,-0.08761975368364641,-0.12246458869131388,0.4738064162835526,0.12821499579133486,-0.0030866899214825774
4777,3.0,300.72956,1244.535,0.0,0.0,0.0,0.048444243322391736,0.0,0.0,-0.11732677233675089,-0.12123374313233888,-0.13974703835945887,0.4547052738784166,0.07418204098994742,-0.036997787806897366
4778,3.0,301.22087999999997,1247.8076,0.0,0.0,0.0,0.048454384466064,0.0,0.0,-0.12042536207005787,-0.13786081250330287,-0.12101616793836589,0.4847068392693406,0.09701953300633241,-0.027079455454034174
4779,3.0,300.87026000000003,896.15001,0.0,0.0,0.0,0.04846452560973626,0.0,0.0,-0.06521261938223444,-0.11100323045016589,-0.09619137431534949,0.4778036170005456,0.13490465533655285,-0.031100642840644472
4780,3.0,299.99125,822.3853,0.0,0.0,0.0,0.04847466675340852,0.0,0.0,-0.07717879908820444,-0.09321439283254432,-0.07959140330505993,0.4735254622958246,0.12910452805412487,0.02072005971266068
4781,3.0,299.99563,1199.8452,0.0,0.0,0.0,0.04848480789708078,0.0,0.0,-0.11844217831183287,-0.10542119511926192,-0.14085959710175988,0.4465839932669085,0.09517586466762651,-0.013824565502378386
4782,3.0,299.36127,1328.4305,0.0,0.0,0.0,0.04849494904075304,0.0,0.0,-0.1082385167573099,-0.12294761514648489,-0.17262356918661984,0.44295388292864457,0.09450789676445322,0.014302976603343887
4783,3.0,299.97438999999997,935.15122,0.0,0.0,0.0,0.04850509018442531,0.0,0.0,-0.04696960253978886,-0.12001022337158689,-0.11728279728241088,0.4828300569041165,0.12665864363773488,-0.036196867305102666
4784,3.0,300.4237,711.00639,0.0,0.0,0.0,0.04851523132809757,0.0,0.0,-0.021576561035440776,-0.08573516929265242,-0.10881645434934789,0.4633128537429186,0.07742891987538943,-0.02738024989197027
4785,3.0,300.39532,1015.5112,0.0,0.0,0.0,0.04852537247176983,0.0,0.0,-0.07663809235784083,-0.1069735854649709,-0.12507836864927388,0.4438792335824696,0.1003440258361843,-0.05308042574013015
4786,3.0,299.17962,1376.0497,0.0,0.0,0.0,0.04853551361544209,0.0,0.0,-0.1329369033773509,-0.14797138677113886,-0.13737644855799985,0.4405605963249456,0.10023514603343872,-0.019977722291897683
4787,3.0,300.52837,998.2248,0.0,0.0,0.0,0.04854565475911435,0.0,0.0,-0.09439903013395891,-0.1151289416773419,-0.09390743766244251,0.49201782377587855,0.15515507666761386,-0.02056983626608478
4788,3.0,299.73292999999995,564.72866,0.0,0.0,0.0,0.04855579590278662,0.0,0.0,-0.00910951336388897,-0.07537496667718002,-0.08717893010839052,0.47557678712327456,0.13894117015742588,-0.02758915470483758
4789,3.0,300.38092,844.0219199999999,0.0,0.0,0.0,0.04856593704645888,0.0,0.0,-0.06041211702571174,-0.10052791958358322,-0.09562155083011231,0.4509194472647846,0.1038207159238069,-0.01939099171549188
4790,3.0,299.93272,1247.8828,0.0,0.0,0.0,0.04857607819013114,0.0,0.0,-0.1081777116188089,-0.11822907155080088,-0.15291842839687386,0.45519293088654456,0.0989233387517234,-0.04432479382401655
4791,3.0,300.55803,1317.6247,0.0,0.0,0.0,0.048586219333803395,0.0,0.0,-0.13367403269259986,-0.11584929157093489,-0.15100169358020685,0.4485441863803646,0.11720838419506688,-0.0037290667748302365
4792,3.0,300.99065,1010.6625,0.0,0.0,0.0,0.048596360477475654,0.0,0.0,-0.1033639427787269,-0.08376032660925062,-0.1200918811971459,0.48426201234293953,0.1143870906166269,-0.008237593009037132
4793,3.0,301.47166,855.74138,0.0,0.0,0.0,0.04860650162114793,0.0,0.0,-0.07750464309511274,-0.06699931266781735,-0.1156200538683109,0.42996282101152655,0.0980835742940951,0.03326786321453247
4794,3.0,300.8824,1025.022,0.0,0.0,0.0,0.04861664276482019,0.0,0.0,-0.06790101710405864,-0.1040316441971239,-0.13964843899222787,0.44956786282389355,0.12052676814006588,-0.0017570740599847084
4795,3.0,300.86547,1578.2733,0.0,0.0,0.0,0.04862678390849245,0.0,0.0,-0.1187902398536839,-0.15775142872385384,-0.2032140152706618,0.4535933636161795,0.12754309951752388,0.02068993376068748
4796,3.0,299.95173,1333.7933,0.0,0.0,0.0,0.04863692505216471,0.0,0.0,-0.1137910158477989,-0.12617689387768988,-0.16547193852330883,0.48586523744616555,0.1369553924789449,-0.026813090241245972
4797,3.0,299.11613,810.80657,0.0,0.0,0.0,0.04864706619583697,0.0,0.0,-0.06922830583405183,-0.09751919601489531,-0.07971744959099972,0.4600479491381976,0.11271264416387188,-0.03301300345662977
4798,3.0,299.78236,982.57105,0.0,0.0,0.0,0.048657207339509234,0.0,0.0,-0.11396082643205789,-0.1030489841176429,-0.08166725385118043,0.47433731880594854,0.09445101391708931,-0.03670276889453126
4799,3.0,299.26201000000003,1132.8766,0.0,0.0,0.0,0.048667348483181494,0.0,0.0,-0.0947380605776686,-0.10647446859821191,-0.14315368652066887,0.4722368006861436,0.12078569407061987,-0.01097813724195779
4800,3.0,299.75501,968.33051,0.0,0.0,0.0,0.048677489626853754,0.0,0.0,-0.048441698894573455,-0.12113838616542788,-0.12476821279366389,0.4624752708127556,0.09303146471249071,-0.013116606644258287
4801,3.0,301.8676,801.9907900000001,0.0,0.0,0.0,0.048687630770526014,0.0,0.0,-0.020152846359681082,-0.093453759996418,-0.13017856302762387,0.4592222009692025,0.09486907989509921,-0.029864424016389172
4802,3.0,299.77054,700.46907,0.0,0.0,0.0,0.04869777191419827,0.0,0.0,-0.04248349851704486,-0.09173782804481871,-0.07870378101870842,0.46302648899965654,0.10449300736515689,-0.049470935041401154
4803,3.0,300.32406000000003,880.1343,0.0,0.0,0.0,0.04870791305787054,0.0,0.0,-0.05301733572265365,-0.12461454328349787,-0.0899069742801275,0.46896804573104256,0.13920091682056088,-0.05902875604843465
4804,3.0,300.90968,1195.0795,0.0,0.0,0.0,0.0487180542015428,0.0,0.0,-0.13043973837339987,-0.13074579056610489,-0.1020887877928789,0.4540707462682935,0.1189364518431139,-0.022692227415798478
4805,3.0,300.06202,1194.7861,0.0,0.0,0.0,0.04872819534521506,0.0,0.0,-0.0934146900858121,-0.13154162759214788,-0.13822882493962285,0.4430501923506495,0.12466618864109488,-0.002153926329925978
4806,3.0,299.25347,840.5085,0.0,0.0,0.0,0.04873833648888732,0.0,0.0,-0.050865443796278456,-0.10828994933238589,-0.0963382003343401,0.46635280669293855,0.1237500990931839,-0.016255791229571683
4807,3.0,299.68368,704.8949,0.0,0.0,0.0,0.04874847763255958,0.0,0.0,-0.01083809898538709,-0.07974462597193183,-0.12368772341702788,0.4849824838265445,0.13683656863971788,0.01040131523827989
4808,3.0,298.64813,1136.9843,0.0,0.0,0.0,0.048758618776231846,0.0,0.0,-0.10169799749431091,-0.12785999348629887,-0.1160568355889179,0.48035140397949255,0.11206850081029988,-0.01904462736755838
4809,3.0,300.64294,1379.6754,0.0,0.0,0.0,0.048768759919904106,0.0,0.0,-0.14825963615958684,-0.11859270674668887,-0.15253452819898586,0.46922112520851955,0.07800370929936673,-0.01051254578125749
4810,3.0,301.12647000000004,785.29423,0.0,0.0,0.0,0.048778901063576366,0.0,0.0,-0.1107563014007959,-0.08052265614071742,-0.04743088262131366,0.4731559299843545,0.07773054720490773,-0.04288284773920756
4811,3.0,300.76164,629.4028900000001,0.0,0.0,0.0,0.048789042207248626,0.0,0.0,-0.054205250888141744,-0.07302488201799473,-0.06409262946370003,0.4844035431169076,0.13060172666688688,-0.026904298962247577
4812,3.0,300.26524,1044.7016,0.0,0.0,0.0,0.048799183350920886,0.0,0.0,-0.07513327917057733,-0.09493111613247171,-0.14749878665949684,0.46207106508286355,0.13204888085720987,-0.014409803561386885
4813,3.0,299.84705,1263.8747,0.0,0.0,0.0,0.04880932449459315,0.0,0.0,-0.10749128533856389,-0.13836834947839288,-0.13832670489928287,0.46114807530177154,0.13010665266802687,-0.03594292251204026
4814,3.0,299.87253,1139.9469,0.0,0.0,0.0,0.04881946563826541,0.0,0.0,-0.07882422707134552,-0.12198494649147688,-0.14570620537758286,0.4476395060285796,0.13784271585651686,-0.037298942961869065
4815,3.0,299.735,829.82102,0.0,0.0,0.0,0.04882960678193767,0.0,0.0,-0.06835318401418403,-0.0985363491542805,-0.08535533628066583,0.48390037324974855,0.13551251420404387,-0.02295258709524398
4816,3.0,298.44237000000004,633.3879599999999,0.0,0.0,0.0,0.04883974792560993,0.0,0.0,-0.028347400152170573,-0.1048816597060139,-0.05930506833745454,0.45596086300483357,0.10320437615297891,-0.018834259421546682
4817,3.0,298.88281,984.5576,0.0,0.0,0.0,0.04884988906928219,0.0,0.0,-0.06769555126203074,-0.1034338367706249,-0.1281515359375719,0.4436325781106266,0.09579136850712201,-0.0015823974434454684
4818,3.0,299.64091,1352.7297,0.0,0.0,0.0,0.04886003021295446,0.0,0.0,-0.1049406105968319,-0.13928204775606787,-0.16697338265398984,0.45577834626432057,0.10681909522222391,-0.016887350016901684
4819,3.0,299.48741,834.7316,0.0,0.0,0.0,0.04887017135662672,0.0,0.0,-0.040025756034734565,-0.1125781149480949,-0.1011336911558682,0.4844382671978345,0.13317595947344388,-0.013367554243524885
4820,3.0,299.95145,542.93031,0.0,0.0,0.0,0.04888031250029898,0.0,0.0,-0.017679153294296583,-0.07493881823788552,-0.07241928472472693,0.5006070232835665,0.10911358994117289,-0.05080724372378455
4821,3.0,299.9004,1121.6562,0.0,0.0,0.0,0.04889045364397124,0.0,0.0,-0.11315911255543488,-0.12095679148250589,-0.10683958313924591,0.4987083648486835,0.0904698965189336,-0.04250051807897456
4822,3.0,299.67642,1387.8905,0.0,0.0,0.0,0.0489005947876435,0.0,0.0,-0.16934001064755783,-0.11915345961703089,-0.13339060637462788,0.4874680065868465,0.12526838344052688,-0.026345524969350873
4823,3.0,301.13739,1087.1334,0.0,0.0,0.0,0.04891073593131576,0.0,0.0,-0.08847042071235073,-0.09325699493299881,-0.14873399932640285,0.46119204022361054,0.1159565440940199,-0.006159164349362194
4824,3.0,301.50068,726.18109,0.0,0.0,0.0,0.04892087707498802,0.0,0.0,-0.05538585950715874,-0.07375833627513102,-0.09159672384914282,0.4675752625410855,0.09694565390179109,0.008241121753835392
4825,3.0,298.84677999999997,807.05442,0.0,0.0,0.0,0.04893101821866028,0.0,0.0,-0.04416026733902906,-0.06673798533452634,-0.1344261378443269,0.4694737183259486,0.08915912680532072,0.007259614955618213
4826,3.0,299.76565,1341.0019,0.0,0.0,0.0,0.04894115936233254,0.0,0.0,-0.11753384012718687,-0.13899594645783186,-0.15110129606503686,0.48510756955138956,0.11941182826002988,-0.0006269597971136144
4827,3.0,300.38448,1449.7778,0.0,0.0,0.0,0.0489513005060048,0.0,0.0,-0.14824891597352888,-0.14881993306738386,-0.14362739107491987,0.4780886239886736,0.09713498677572681,0.015283002232564886
4828,3.0,298.80858,895.0880599999999,0.0,0.0,0.0,0.048961441649677064,0.0,0.0,-0.08427935282722451,-0.08776552592253302,-0.1000395401281339,0.46030183921575457,0.1054405481961719,0.0032881412666142767
4829,3.0,298.61413999999996,673.0041,0.0,0.0,0.0,0.04897158279334932,0.0,0.0,-0.028934271570340273,-0.08351301455134282,-0.09212915637918982,0.46842059683451354,0.0917201508835741,-0.014393683765545985
4830,3.0,299.70068,1158.757,0.0,0.0,0.0,0.04898172393702158,0.0,0.0,-0.11541407025548188,-0.1119129871849519,-0.12490613639727588,0.4738150897044085,0.13221377717848387,-0.02657862112835568
4831,3.0,299.35904,1497.6675,0.0,0.0,0.0,0.04899186508069384,0.0,0.0,-0.12240939695836689,-0.14428264978208888,-0.1885614663695678,0.46588602263687057,0.12461659004869988,-0.03336219983859277
4832,3.0,300.72621000000004,965.5636900000001,0.0,0.0,0.0,0.0490020062243661,0.0,0.0,-0.08020986279509713,-0.1125471804225419,-0.1007502053772711,0.46949398332794856,0.0992990316238014,-0.05912568963250124
4833,3.0,299.89451,370.66452999999996,0.0,0.0,0.0,0.04901214736803837,0.0,0.0,0.012758537231169589,-0.06644314576742794,-0.05898815309042744,0.45472735259809555,0.06336470856535985,-0.04135433260560486
4834,3.0,298.9373,663.9470299999999,0.0,0.0,0.0,0.04902228851171063,0.0,0.0,-0.038666851875121165,-0.1075205378689509,-0.05563592456558825,0.46646526732153754,0.10748073740502291,-0.055851780274141546
4835,3.0,300.31435,1275.4894,0.0,0.0,0.0,0.04903242965538289,0.0,0.0,-0.08275410846494462,-0.14156888230426085,-0.16339393482072584,0.48737772600293655,0.090823656579347,-0.01105537729708079
4836,3.0,300.97535,1216.7801,0.0,0.0,0.0,0.04904257079905515,0.0,0.0,-0.11941707689554787,-0.13046121927551987,-0.1199924610973339,0.4838792469851636,0.12598510589876188,-0.015707930953502088
4837,3.0,300.28692,869.76858,0.0,0.0,0.0,0.04905271194272741,0.0,0.0,-0.03335980856835677,-0.12448587065329887,-0.1065422448974009,0.4860381587082315,0.1183200411447789,-0.013479209338294386
4838,3.0,300.33718,827.43609,0.0,0.0,0.0,0.049062853086399676,0.0,0.0,-0.08022458734555032,-0.1048374516041509,-0.06645786727813084,0.5077598495819955,0.1293047564063859,-0.018971712877112284
4839,3.0,298.96492,1318.6041,0.0,0.0,0.0,0.049072994230071935,0.0,0.0,-0.12693943550544687,-0.14448043620160886,-0.1294028491485669,0.4844794558143995,0.11401201582710989,-0.015837376693527385
4840,3.0,298.01207999999997,1738.6811,0.0,0.0,0.0,0.049083135373744195,0.0,0.0,-0.17381765403196683,-0.16101458040590186,-0.19368340509506382,0.4453910027316696,0.10337815867762991,-0.0006037316363886735
4841,3.0,298.79381,1296.2982,0.0,0.0,0.0,0.049093276517416455,0.0,0.0,-0.10515044456004091,-0.12280856683526188,-0.16608326270614185,0.4516388447032836,0.08973088053199842,0.007963631662899252
4842,3.0,299.19847999999996,644.24376,0.0,0.0,0.0,0.049103417661088715,0.0,0.0,-0.04140433244503946,-0.07897693399391652,-0.07545275084760672,0.46689657749160457,0.1297202092123879,-0.009948037299419841
4843,3.0,299.32835,894.65986,0.0,0.0,0.0,0.04911355880476098,0.0,0.0,-0.09430916295608972,-0.07367558413946403,-0.10396951170099192,0.4947618671666945,0.12559334288009788,-0.018517148617250283
4844,3.0,300.16794,1348.9593,0.0,0.0,0.0,0.04912369994843324,0.0,0.0,-0.15023055959160186,-0.12356631579004589,-0.13625307843713186,0.4719981194925875,0.13588277605558588,-0.014200752840505187
4845,3.0,300.5212,1154.9604,0.0,0.0,0.0,0.0491338410921055,0.0,0.0,-0.1057937671810319,-0.12271909685143188,-0.12256624807384689,0.4720714281373225,0.1132149021059409,-0.016440615140562383
4846,3.0,300.83237,883.80055,0.0,0.0,0.0,0.04914398223577776,0.0,0.0,-0.052527165854277656,-0.12906603468282588,-0.08706009917641283,0.48153094868590457,0.13977396041461587,-0.03265802445634607
4847,3.0,300.44568,964.7543099999999,0.0,0.0,0.0,0.04915412337945002,0.0,0.0,-0.057892255219520745,-0.13181062522869588,-0.1035583449429129,0.4733556111815616,0.10512849756287489,-0.004823500701992456
4848,3.0,299.42832999999996,1181.5271,0.0,0.0,0.0,0.049164264523122295,0.0,0.0,-0.1057249371017389,-0.1343627185205679,-0.1190670699135049,0.44958475370306056,0.10388055847471289,-0.03177785867748047
4849,3.0,299.62962999999996,1376.2889,0.0,0.0,0.0,0.049174405666794554,0.0,0.0,-0.1074807070075199,-0.16415638525597384,-0.14672036740267286,0.4385136284729256,0.08251153031150402,-0.044327761633559455
4850,3.0,300.36997,1067.4184,0.0,0.0,0.0,0.049184546810466814,0.0,0.0,-0.09374136495780241,-0.13471705208053786,-0.0960101180579609,0.4657862884295276,0.14168783786600087,-0.06289848382334703
4851,3.0,300.57253,541.43575,0.0,0.0,0.0,0.049194687954139074,0.0,0.0,-0.01910213640348408,-0.07009609982919644,-0.07538471211664183,0.46956420155987855,0.13061307506800687,-0.05914313779922324
4852,3.0,299.67877999999996,474.10797,0.0,0.0,0.0,0.049204829097811334,0.0,0.0,-0.018692316254787983,-0.05470570423178265,-0.07071896493066844,0.4766507815667695,0.1272233481834669,-0.04338395158941266
4853,3.0,299.62741,965.22606,0.0,0.0,0.0,0.0492149702414836,0.0,0.0,-0.05327224512981125,-0.07907863694620383,-0.16105374252226684,0.4896949073916246,0.1153317842148609,-0.006826855027308134
4854,3.0,299.81451,1174.9793,0.0,0.0,0.0,0.04922511138515586,0.0,0.0,-0.10418935657518891,-0.12042603081512389,-0.1325489805765659,0.4803391740507855,0.13371050969619985,-0.003943614478829446
4855,3.0,299.81641,969.22917,0.0,0.0,0.0,0.04923525252882812,0.0,0.0,-0.07968317032686663,-0.0958355299994804,-0.1191027667145279,0.4875121437612025,0.1098863957924429,-0.016146607451796087
4856,3.0,298.31367,1107.8683,0.0,0.0,0.0,0.04924539367250038,0.0,0.0,-0.12080882657040287,-0.1142808310786399,-0.1016746319470049,0.45723192446027755,0.100327131917267,0.006768025017227062
4857,3.0,298.90575,1419.5885,0.0,0.0,0.0,0.04925553481617264,0.0,0.0,-0.11331651082596889,-0.15914513397140184,-0.15905782221028483,0.4612938921236625,0.1006274065579018,-0.015498900497622384
4858,3.0,299.28992,1341.2312,0.0,0.0,0.0,0.04926567595984491,0.0,0.0,-0.1218401733171889,-0.13075502127451588,-0.15510558953272985,0.4869846558916435,0.12070830202798188,0.024246450730938375
4859,3.0,301.20248,1089.5831,0.0,0.0,0.0,0.04927581710351717,0.0,0.0,-0.06464430766614644,-0.12739738402064288,-0.13916435875695288,0.4804830960949895,0.11295032223982888,0.004294976581556186
4860,3.0,300.98318,652.78087,0.0,0.0,0.0,0.049285958247189426,0.0,0.0,-0.06306832885810945,-0.07142418497376823,-0.06393657172304834,0.4769939693756396,0.1001647170454879,0.014507349148513886
4861,3.0,299.76149,505.69795999999997,0.0,0.0,0.0,0.049296099390861686,0.0,0.0,-0.021037673089006677,-0.04953301890152836,-0.08314886158465372,0.48338870221425057,0.08929377355810932,-0.032263702981179566
4862,3.0,299.57111000000003,1077.9179,0.0,0.0,0.0,0.049306240534533946,0.0,0.0,-0.10870965778880788,-0.13590687114296388,-0.08304358591251383,0.4774790425960126,0.15084314020455886,-0.04070289790431326
4863,3.0,299.53981,1370.7635,0.0,0.0,0.0,0.04931638167820621,0.0,0.0,-0.1034478398870069,-0.13812407514428487,-0.17510595087161182,0.4581345175168566,0.12226257701887688,-0.04666506718248355
4864,3.0,299.53483,946.27484,0.0,0.0,0.0,0.04932652282187847,0.0,0.0,-0.06968065006294473,-0.12135265816407488,-0.09661061059722491,0.4355527191632066,0.10543139854776891,-0.04721543018630016
4865,3.0,301.07083,788.21872,0.0,0.0,0.0,0.04933666396555073,0.0,0.0,-0.011851667245918488,-0.12262859335249988,-0.1051185474468929,0.4356567394184726,0.08895922674609211,-0.028241468907215975
4866,3.0,301.06497,1078.87,0.0,0.0,0.0,0.04934680510922299,0.0,0.0,-0.09077251278054951,-0.1078999088388919,-0.12927712507615888,0.49686600258935654,0.13606930526649486,-0.014565199649723286
4867,3.0,300.4316,1293.0058,0.0,0.0,0.0,0.04935694625289525,0.0,0.0,-0.11205100198107289,-0.16438996980152684,-0.11660049493007289,0.49943461185785853,0.1021475360336769,-0.016077543311729985
4868,3.0,301.5433,1070.2131,0.0,0.0,0.0,0.04936708739656752,0.0,0.0,-0.1132182762287739,-0.12112979380457989,-0.09096999319853931,0.48339151904952854,0.09101152328038802,-0.044162404283489956
4869,3.0,300.86232,703.54065,0.0,0.0,0.0,0.04937722854023978,0.0,0.0,-0.042715040350396256,-0.0944222659852521,-0.07672148284107083,0.4903151785728405,0.09710773946728772,-0.03873497166609407
4870,3.0,300.34674,696.48752,0.0,0.0,0.0,0.04938736968391204,0.0,0.0,-0.06512098408294073,-0.06999453163917244,-0.07659929906451222,0.49459908853812956,0.14317400218517387,-0.03242268698812007
4871,3.0,299.48299,1043.8329,0.0,0.0,0.0,0.0493975108275843,0.0,0.0,-0.06764363840640733,-0.09433541119993022,-0.15532010471140087,0.4883841873272666,0.12791159831389187,-0.02355111392931398
4872,3.0,298.86945,1230.1494,0.0,0.0,0.0,0.04940765197125656,0.0,0.0,-0.1159613975619989,-0.11498580996821589,-0.14298749323926685,0.4603554401460446,0.09167455260257391,0.002240713430141198
4873,3.0,299.44514,1147.9122,0.0,0.0,0.0,0.04941779311492882,0.0,0.0,-0.1089338596384349,-0.1020609335476299,-0.13794184211379987,0.4406360530598926,0.08458480416262021,-0.024259060628432874
4874,3.0,301.0492,1033.8727,0.0,0.0,0.0,0.049427934258601085,0.0,0.0,-0.10214900524632191,-0.07912525962305512,-0.1329972120233029,0.48365371777790556,0.12994293171686888,-0.0008170526086243142
4875,3.0,300.61911000000003,1218.6896,0.0,0.0,0.0,0.049438075402273345,0.0,0.0,-0.1036856395529759,-0.13613079941506387,-0.13063477888514888,0.47541425167473356,0.11471147250364089,-0.02945368484985237
4876,3.0,299.76795,1571.9318,0.0,0.0,0.0,0.049448216545945604,0.0,0.0,-0.16863038094002286,-0.13455311834685887,-0.17464451677607182,0.4982862955195285,0.09567457826084572,0.02804538880086437
4877,3.0,300.11719,1167.6580000000001,0.0,0.0,0.0,0.049458357689617864,0.0,0.0,-0.06807338310506984,-0.12311384895789088,-0.16375162223852682,0.4659252759457445,0.10028443659780331,-0.011163469804498689
4878,3.0,300.96311000000003,694.08465,0.0,0.0,0.0,0.049468498833290124,0.0,0.0,-0.05730515075382805,-0.08225911957909302,-0.07142013298661834,0.4924224854683156,0.12353949505989889,0.00867297826835631
4879,3.0,301.20111,889.42539,0.0,0.0,0.0,0.049478639976962384,0.0,0.0,-0.05675234277752015,-0.09189603995518301,-0.12171472282230789,0.4940115757326465,0.1164167926869429,-0.02530348134125918
4880,3.0,300.11531,1051.8168,0.0,0.0,0.0,0.049488781120634644,0.0,0.0,-0.06798133743948565,-0.13096289966503188,-0.12078180319023589,0.4459384516281986,0.09951338366920631,-0.038074208984381866
4881,3.0,299.46742,977.86639,0.0,0.0,0.0,0.049498922264306904,0.0,0.0,-0.04360774509924936,-0.13152456446046387,-0.12211465263677787,0.4550367890461346,0.1027632171919399,-0.07462613837627644
4882,3.0,299.96087,909.7144699999999,0.0,0.0,0.0,0.04950906340797916,0.0,0.0,-0.07902434497934563,-0.08078505650586433,-0.1167210818244739,0.4482118302150636,0.13635333953452689,-0.03641423984905567
4883,3.0,299.55867,722.50238,0.0,0.0,0.0,0.04951920455165143,0.0,0.0,-0.017133299253424984,-0.09943642935061149,-0.1030529560580349,0.4577592907398246,0.13659275026815487,-0.03832222930410956
4884,3.0,299.91202000000004,1032.4995,0.0,0.0,0.0,0.04952934569532369,0.0,0.0,-0.10213894367282891,-0.09708867516665622,-0.1146264506877499,0.4639780929635725,0.09081056538805501,-0.0015944624150361886
4885,3.0,300.36736,1479.6657,0.0,0.0,0.0,0.04953948683899595,0.0,0.0,-0.14707412341008586,-0.13049397765125287,-0.17221332448613183,0.4780641742637606,0.1173285657894279,-0.012976875402467888
4886,3.0,300.38434,1429.5064,0.0,0.0,0.0,0.04954962798266821,0.0,0.0,-0.14742455595717086,-0.13876451000249088,-0.14834517473302886,0.48874065884494755,0.11276037837608291,-0.0006048039285720004
4887,3.0,300.94988,875.5467800000001,0.0,0.0,0.0,0.04955976912634047,0.0,0.0,-0.06404995238273814,-0.08638232301227151,-0.11571208737489388,0.48852156377582456,0.1150387624184419,-0.023661398096698177
4888,3.0,300.7935,860.1044699999999,0.0,0.0,0.0,0.049569910270012736,0.0,0.0,-0.06651692253370914,-0.08803210695759252,-0.10690124954033191,0.4835434559020236,0.10944051508593791,0.005144692371066605
4889,3.0,299.72096,1128.8771,0.0,0.0,0.0,0.049580051413684996,0.0,0.0,-0.0913758333008426,-0.10803416447714188,-0.14374044952107787,0.47510623377683453,0.12192437440049889,-0.012197236192523489
4890,3.0,299.19802999999996,1113.6652,0.0,0.0,0.0,0.049590192557357256,0.0,0.0,-0.1268332671599689,-0.0979815177175229,-0.11371162770246389,0.48758999176638557,0.11697936940746488,0.003999167536762106
4891,3.0,299.86146,982.47473,0.0,0.0,0.0,0.049600333701029516,0.0,0.0,-0.07314126392448073,-0.11492137739435689,-0.11058514319390389,0.45692466649995356,0.11565231575149489,-0.053623661542743346
4892,3.0,298.79781,798.37734,0.0,0.0,0.0,0.049610474844701775,0.0,0.0,-0.07356627775842633,-0.08159065417012062,-0.08752984394927302,0.4814184373948005,0.08454730377641921,-0.016411127536152183
4893,3.0,299.3835,735.7413700000001,0.0,0.0,0.0,0.04962061598837404,0.0,0.0,-0.02076608051895258,-0.1057817095048419,-0.0970992099279459,0.47881534722539554,0.1261522617677589,-0.048735100659779956
4894,3.0,299.98862,1212.0576,0.0,0.0,0.0,0.0496307571320463,0.0,0.0,-0.1098230879261949,-0.10242035362310191,-0.15619180377243083,0.4767717129662045,0.14363661165082986,0.0014879677017009788
4895,3.0,299.88229,1525.3852,0.0,0.0,0.0,0.04964089827571856,0.0,0.0,-0.14340382757285586,-0.14804719814362086,-0.17222798621507884,0.46292577193971657,0.13193147556812287,-0.005952079941624555
4896,3.0,299.68242000000004,1019.3281,0.0,0.0,0.0,0.04965103941939082,0.0,0.0,-0.12106115624280589,-0.0979617157708186,-0.09082741979021841,0.4423735439338696,0.1002671100210933,0.007586986031752223
4897,3.0,301.20681,719.2871299999999,0.0,0.0,0.0,0.04966118056306308,0.0,0.0,-0.02219186121166618,-0.10658497365411791,-0.08986849306782972,0.4758463623123796,0.11879424219157889,-0.051174707991800454
4898,3.0,300.01333,1158.8071,0.0,0.0,0.0,0.04967132170673535,0.0,0.0,-0.0936959510883204,-0.13899926991815986,-0.11955319691398189,0.49435501685404154,0.10747081768654389,-0.007626353027287443
4899,3.0,300.89214,1405.852,0.0,0.0,0.0,0.04968146285040761,0.0,0.0,-0.09550314242342631,-0.16787619862559083,-0.16396455674704183,0.4808602784447145,0.11269335188196788,-0.05103982211198825
4900,3.0,300.57826,839.3861300000001,0.0,0.0,0.0,0.04969160399407987,0.0,0.0,-0.04583038316085666,-0.1065765434132859,-0.1027455055801919,0.46954743227072354,0.10251941908537891,-0.03142103049576427
4901,3.0,299.23766,558.13105,0.0,0.0,0.0,0.04970174513775213,0.0,0.0,-0.024075750513091576,-0.08787114407320673,-0.05771100808138305,0.46283140795790356,0.13438812070057485,-0.03173505696675627
4902,3.0,298.93846,989.96105,0.0,0.0,0.0,0.04971188628142439,0.0,0.0,-0.1061660150027699,-0.09779327003444431,-0.0969641558486171,0.4871967392700745,0.14409675891874285,-0.015964023836776486
4903,3.0,300.33276,1230.9618,0.0,0.0,0.0,0.04972202742509666,0.0,0.0,-0.11264077433427888,-0.1192427877458469,-0.14229807787122686,0.43587808390281757,0.12589482531485188,-0.03738103851147126
4904,3.0,299.20369,1313.9555,0.0,0.0,0.0,0.04973216856876892,0.0,0.0,-0.13176494791418786,-0.11157718596931089,-0.15606754891266786,0.4740611270936905,0.1126569863358789,-0.02599747862625137
4905,3.0,300.04222999999996,1175.2398,0.0,0.0,0.0,0.049742309712441174,0.0,0.0,-0.07620265319361633,-0.10612284041600889,-0.17491807403806983,0.4501147746978696,0.12958615622415787,0.00024710569939243374
4906,3.0,300.86704,861.94735,0.0,0.0,0.0,0.049752450856113434,0.0,0.0,-0.05065233399549615,-0.08811474155624792,-0.1232433929831759,0.5118485569155194,0.14045076081891086,0.015275897322863686
4907,3.0,301.91201,1253.6546,0.0,0.0,0.0,0.049762591999785694,0.0,0.0,-0.11533660728533689,-0.1194749942712639,-0.14626809308803684,0.4812989346780065,0.1155776797491289,0.02953135452301777
4908,3.0,301.25956,1591.6867,0.0,0.0,0.0,0.04977273314345797,0.0,0.0,-0.1943230698831938,-0.13061364248806287,-0.15889632027684586,0.4824843055724935,0.0933557391949941,0.002687453068755967
4909,3.0,300.53081000000003,939.5609400000001,0.0,0.0,0.0,0.04978287428713023,0.0,0.0,-0.05934564292445895,-0.14135830866847887,-0.08489911434364021,0.4674399835202346,0.1178042360488729,-0.037780634966658365
4910,3.0,300.47278,395.29613,0.0,0.0,0.0,0.04979301543080249,0.0,0.0,-0.01845813794467638,-0.06136998388849585,-0.040332030129211466,0.4912410257192146,0.1024585632843729,-0.05054480384188375
4911,3.0,299.74998999999997,761.94965,0.0,0.0,0.0,0.04980315657447475,0.0,0.0,-0.005105347768358595,-0.1096202555211769,-0.11688806544095388,0.4910551956508745,0.13044716549663288,-0.06748101176535734
4912,3.0,298.83195,1094.6374,0.0,0.0,0.0,0.04981329771814701,0.0,0.0,-0.08408179236247683,-0.11941462483030589,-0.12924602843058988,0.4414075214210306,0.1023849506646079,-0.02162867856758438
4913,3.0,299.66879,851.2295,0.0,0.0,0.0,0.04982343886181927,0.0,0.0,-0.054420306129116046,-0.08514208867786992,-0.1191901190056489,0.4757909071344066,0.1328366220149539,-0.03132684991221937
4914,3.0,299.60513,772.4531599999999,0.0,0.0,0.0,0.04983358000549153,0.0,0.0,-0.06466441257463064,-0.09147646018152372,-0.07866560074169032,0.4440714876564436,0.12712763657902088,-0.007380758124324113
4915,3.0,300.43765,1035.4992,0.0,0.0,0.0,0.04984372114916379,0.0,0.0,-0.08884064710013923,-0.1106516529304679,-0.1152736135266199,0.4867213527206576,0.12773353987381889,-0.042989189350452664
4916,3.0,300.63784,1395.3269,0.0,0.0,0.0,0.04985386229283605,0.0,0.0,-0.1255289103062389,-0.13979640390433087,-0.15881923220923785,0.4785266317419015,0.1104306022886519,-0.009439960768651591
4917,3.0,300.62016,1457.8079,0.0,0.0,0.0,0.04986400343650831,0.0,0.0,-0.10700686059825489,-0.16361355677990083,-0.17251679289108182,0.5065383360564415,0.14950695716518786,-0.038739305336771765
4918,3.0,300.99975,1226.8527,0.0,0.0,0.0,0.04987414458018058,0.0,0.0,-0.09193240347477181,-0.13584597481195387,-0.14515419685560388,0.4905703149480205,0.12380158233076487,0.016835406763775287
4919,3.0,301.23086,747.5589200000001,0.0,0.0,0.0,0.04988428572385284,0.0,0.0,-0.06847928704212944,-0.09046868061881361,-0.06829127848607443,0.46987286793784155,0.08759759998346,-0.025376836595498775
4920,3.0,300.09354,788.28142,0.0,0.0,0.0,0.0498944268675251,0.0,0.0,-0.06954398592920703,-0.07641340009516544,-0.09366048328182,0.45731433209091055,0.09278941851535259,-0.01192981922613149
4921,3.0,300.15051,1039.1777,0.0,0.0,0.0,0.04990456801119736,0.0,0.0,-0.1041120253275569,-0.09263728103933783,-0.11913475502018488,0.4742528846751155,0.11814874108287288,-0.024770205787128977
4922,3.0,299.52895,866.1957199999999,0.0,0.0,0.0,0.04991470915486962,0.0,0.0,-0.04198935569502676,-0.0981694097498164,-0.12314310148827788,0.4653555152820136,0.12233670639619289,-0.04927850466190975
4923,3.0,299.74331,830.48469,0.0,0.0,0.0,0.049924850298541885,0.0,0.0,-0.03763176927521646,-0.08120009894557582,-0.13361473729674786,0.47303937582535155,0.12501110910763588,-0.014097890730103485
4924,3.0,298.86162,1240.4331,0.0,0.0,0.0,0.049934991442214145,0.0,0.0,-0.0988220542717274,-0.12465299612479287,-0.15358563332272188,0.48119394170264457,0.1296130174843089,-0.012570642159125789
4925,3.0,298.87074,1464.1782,0.0,0.0,0.0,0.049945132585886405,0.0,0.0,-0.14830706639676786,-0.14492036913002687,-0.15184616661104985,0.5149304584196795,0.15993355400671286,0.025832095944929374
4926,3.0,300.48707,1521.0124,0.0,0.0,0.0,0.049955273729558665,0.0,0.0,-0.14203381211264587,-0.13390745511813687,-0.18640854295459083,0.4807335411222065,0.11941547596038989,0.006467028435896013
4927,3.0,300.81622000000004,1312.6409,0.0,0.0,0.0,0.049965414873230925,0.0,0.0,-0.10877225637998589,-0.16179743769816385,-0.12844035274607588,0.4769020979890725,0.09025743013196483,-0.022332693856315276
4928,3.0,300.13411,882.50224,0.0,0.0,0.0,0.049975556016903185,0.0,0.0,-0.055272818286252454,-0.09004597091559541,-0.12293985365071887,0.4509772531829896,0.0924944097354875,-0.029633639080862473
4929,3.0,299.94378,798.04333,0.0,0.0,0.0,0.049985697160575444,0.0,0.0,-0.038496064517765764,-0.10205881585492091,-0.1020303637921129,0.48781263321085855,0.14120406160575585,-0.046902606443176856
4930,3.0,300.23245,997.3499300000001,0.0,0.0,0.0,0.049995838304247704,0.0,0.0,-0.07699652755421563,-0.12231899478444488,-0.10385395052708689,0.46923019379691455,0.12831088978079888,-0.017313692221728384
4931,3.0,300.67539,855.71967,0.0,0.0,0.0,0.05000597944791997,0.0,0.0,-0.07093168463016222,-0.0934086551682165,-0.0957770725614611,0.46764685879315154,0.0866080741213014,-0.019924812398175878
4932,3.0,300.09139,637.02633,0.0,0.0,0.0,0.05001612059159223,0.0,0.0,-0.03682512391035676,-0.1058928225108079,-0.050922151351375046,0.47555940988405954,0.1025182234502609,-0.03806286159651197
4933,3.0,299.71159,939.0070400000001,0.0,0.0,0.0,0.05002626173526449,0.0,0.0,-0.05960695708549864,-0.1063470017356319,-0.11948072926682989,0.49886877247201455,0.14427102780344186,-0.04209282778198866
4934,3.0,300.16737,1442.5246,0.0,0.0,0.0,0.05003640287893675,0.0,0.0,-0.12627153143702988,-0.13503642851205785,-0.17718349861164984,0.5245868433301906,0.16154355775310783,-0.03335735954286507
4935,3.0,300.73931,1406.8724,0.0,0.0,0.0,0.05004654402260901,0.0,0.0,-0.1027939186699699,-0.15854103426178184,-0.16631913719692085,0.4593443685337596,0.09255900240286231,-0.03050639496174677
4936,3.0,300.75897000000003,1192.9974,0.0,0.0,0.0,0.05005668516628127,0.0,0.0,-0.14470986642175185,-0.1024309927491519,-0.11550054101901588,0.47179942114797757,0.10431696529278289,-0.007757320364987914
4937,3.0,300.0935,957.89335,0.0,0.0,0.0,0.05006682630995353,0.0,0.0,-0.0929210042395891,-0.09803114974717121,-0.10022350682954001,0.4516310224125115,0.11706308413072689,0.017506055726713182
4938,3.0,299.15091,785.54723,0.0,0.0,0.0,0.0500769674536258,0.0,0.0,-0.08890390329063211,-0.09225228653134182,-0.057630551970442645,0.4771718758281976,0.12390452854092487,-0.038869328629354064
4939,3.0,299.44385,986.52766,0.0,0.0,0.0,0.050087108597298056,0.0,0.0,-0.06252516904925375,-0.1055562816225939,-0.13179832437248187,0.4705036971850996,0.09051742098837391,-0.011239154520718189
4940,3.0,299.44599,1029.2464,0.0,0.0,0.0,0.050097249740970316,0.0,0.0,-0.055893418773750946,-0.13918865649435086,-0.1177831199167889,0.48540875814361456,0.11455182481788491,-0.06341850707941935
4941,3.0,299.75138,741.94442,0.0,0.0,0.0,0.050107390884642576,0.0,0.0,-0.026920785554624675,-0.0948216385121671,-0.10379015630079089,0.5214224126053855,0.14576272446816085,-0.02082494731001228
4942,3.0,299.12726000000004,689.36622,0.0,0.0,0.0,0.050117532028314836,0.0,0.0,-0.05016539538168904,-0.08824969735031701,-0.07113502366023022,0.5113508383338985,0.12737095845803487,-0.047416987922692354
4943,3.0,299.82068,1232.8062,0.0,0.0,0.0,0.0501276731719871,0.0,0.0,-0.11057469658537289,-0.14282703495343088,-0.12134057009038188,0.4765758922518785,0.08908469851922522,0.008888797702556033
4944,3.0,299.62891,1308.5332,0.0,0.0,0.0,0.05013781431565936,0.0,0.0,-0.1127500330925619,-0.11891852744884487,-0.16609286831708983,0.48023198232270653,0.08102931462797072,-0.01131463760016779
4945,3.0,300.63305,1136.9427,0.0,0.0,0.0,0.05014795545933162,0.0,0.0,-0.07445414626455213,-0.13532040198508385,-0.13582764511764486,0.4867810331515476,0.13012940013277188,-0.005055045676419166
4946,3.0,300.2007,1150.1413,0.0,0.0,0.0,0.05015809660300388,0.0,0.0,-0.06317815402319835,-0.13375436316052786,-0.15268172304101285,0.47246399162356556,0.13632268871900188,-0.02064465971971928
4947,3.0,300.55346000000003,1307.4595,0.0,0.0,0.0,0.05016823774667614,0.0,0.0,-0.1109353426934659,-0.11755555407682988,-0.16894415409848984,0.4774853855416385,0.1059887063677709,0.005195891189344535
4948,3.0,299.33783,1124.3619,0.0,0.0,0.0,0.05017837889034841,0.0,0.0,-0.11930020862901389,-0.12388040305604388,-0.09859731641279751,0.4658084178117115,0.11053232246619088,-0.01963129512245798
4949,3.0,301.23284,902.5635599999999,0.0,0.0,0.0,0.05018852003402067,0.0,0.0,-0.09695193199941071,-0.07562342674745114,-0.1017814285075449,0.49065657292903353,0.1177409281826249,0.0057427631412665945
4950,3.0,299.82155,700.89375,0.0,0.0,0.0,0.050198661177692935,0.0,0.0,-0.042690748692498864,-0.0974388270434635,-0.07292462396035003,0.4793216683003656,0.13090337122165688,-0.03550885022220067
4951,3.0,298.94678,768.4326599999999,0.0,0.0,0.0,0.05020880232136519,0.0,0.0,-0.020571336889482882,-0.11458844367649888,-0.09842456132374791,0.46628694543643856,0.08476528528368232,-0.038182481850317564
4952,3.0,299.10126,1122.4668,0.0,0.0,0.0,0.05021894346503745,0.0,0.0,-0.06306319877285314,-0.10540155833232391,-0.17273713425782783,0.46567754642879555,0.1084732057454719,-0.05299633206133074
4953,3.0,299.30286,1219.6887,0.0,0.0,0.0,0.050229084608709715,0.0,0.0,-0.10888367336098188,-0.12988804395895187,-0.13198321211822886,0.5014264386394365,0.13640118520424888,-0.03454216403054617
4954,3.0,298.70399,846.4494199999999,0.0,0.0,0.0,0.050239225752381975,0.0,0.0,-0.08163335455583483,-0.08307662191877421,-0.0925895093368731,0.47591930618707856,0.13384267803924388,-0.023615546503172977
4955,3.0,299.99626,855.2176800000001,0.0,0.0,0.0,0.050249366896054234,0.0,0.0,-0.0896610341628551,-0.08859373527602091,-0.08171004948240401,0.47769470274729653,0.09311270203925823,-0.008252482820581643
4956,3.0,300.28911,1228.8662,0.0,0.0,0.0,0.050259508039726494,0.0,0.0,-0.1038194088311779,-0.12267431119701189,-0.14705090985029487,0.47274792456658754,0.0968327778406511,0.001197420059376159
4957,3.0,300.07167000000004,1222.7363,0.0,0.0,0.0,0.050269649183398754,0.0,0.0,-0.09506716015714822,-0.1077594318450279,-0.16885469424716085,0.5238190733319175,0.13145235012583686,0.02155240819280708
4958,3.0,299.92501,986.1438300000001,0.0,0.0,0.0,0.05027979032707102,0.0,0.0,-0.03149346166591267,-0.13747807754302985,-0.13079155907312187,0.4830358783969296,0.13655695214212185,-0.028691858576665976
4959,3.0,299.32366,805.72727,0.0,0.0,0.0,0.05028993147074328,0.0,0.0,-0.07367391835629963,-0.08269163450352891,-0.08855541821023932,0.4708155654333786,0.10600244603912691,-0.016983184224609784
4960,3.0,299.61085,845.30478,0.0,0.0,0.0,0.05030007261441554,0.0,0.0,-0.08753403171193631,-0.10268478150169891,-0.06673273061950774,0.46038089298855656,0.10283417509644291,-0.05326465284681195
4961,3.0,300.07561,1020.0898,0.0,0.0,0.0,0.0503102137580878,0.0,0.0,-0.11198849458240388,-0.11741982922593489,-0.08067352097460663,0.4808596299646506,0.11986290693954789,-0.042208008987106166
4962,3.0,300.20585,1171.618,0.0,0.0,0.0,0.05032035490176006,0.0,0.0,-0.09597483972922921,-0.1229463080538559,-0.1372214618227039,0.49444385862280954,0.11021069661944889,-0.04670723763839545
4963,3.0,298.89941,866.68843,0.0,0.0,0.0,0.050330496045432334,0.0,0.0,-0.03843078081382276,-0.11412055517782191,-0.1109003045050079,0.48053892617549954,0.10059929393387732,-0.0005210053284667225
4964,3.0,299.4774,931.23839,0.0,0.0,0.0,0.050340637189104594,0.0,0.0,-0.03540058748876596,-0.1270636295702039,-0.12060900351818188,0.5013161970285566,0.11930706833219089,-0.03065326353724157
4965,3.0,298.83923,1284.7699,0.0,0.0,0.0,0.050350778332776853,0.0,0.0,-0.1109701174368979,-0.1043773448662419,-0.17519051672495783,0.5175330216990325,0.13972081544687087,0.015444281250981884
4966,3.0,298.81229,1352.1091,0.0,0.0,0.0,0.050360919476449106,0.0,0.0,-0.14275793129661088,-0.15916652368101286,-0.1090829695231509,0.4919797053071165,0.13291519956020886,-0.008013436350364592
4967,3.0,299.66272999999995,1112.8559,0.0,0.0,0.0,0.050371060620121366,0.0,0.0,-0.08917745649962973,-0.11377416549863588,-0.1353287916959119,0.4660213523202266,0.08050298996952653,-0.0005547064624902655
4968,3.0,300.20604,905.6507300000001,0.0,0.0,0.0,0.05038120176379364,0.0,0.0,-0.07228478894620323,-0.11008081822163089,-0.0929295945739369,0.46267646175261157,0.09062913789139951,-0.014479470585262487
4969,3.0,300.00111,991.00194,0.0,0.0,0.0,0.0503913429074659,0.0,0.0,-0.056886999662809745,-0.12292755279450487,-0.12142529806374387,0.4652886103779106,0.13522823675598786,-0.025839431875653372
4970,3.0,300.8357,1110.6524,0.0,0.0,0.0,0.05040148405113816,0.0,0.0,-0.08064396649568982,-0.12969511100741088,-0.12727151809322088,0.4948022958456846,0.12355044829347987,-0.05123283004403665
4971,3.0,300.53848,930.88616,0.0,0.0,0.0,0.05041162519481042,0.0,0.0,-0.08044693596074443,-0.1211916527231849,-0.08132755668890491,0.47212398542000955,0.10037997493648221,-0.05544101273660195
4972,3.0,300.49695,845.9654199999999,0.0,0.0,0.0,0.05042176633848268,0.0,0.0,-0.09578007482150741,-0.09693506949124651,-0.06443721859745835,0.48780676649277954,0.1273935134052609,-0.030603338678314367
4973,3.0,299.63887,862.07259,0.0,0.0,0.0,0.050431907482154946,0.0,0.0,-0.08181088711910593,-0.06845862687259044,-0.11177902538923089,0.4973533860199575,0.13875474227152687,-0.02262738244914878
4974,3.0,299.5965,1015.4249,0.0,0.0,0.0,0.050442048625827206,0.0,0.0,-0.07161747965559492,-0.11132638630455889,-0.12571993834759188,0.5092752664315555,0.12461044975309389,-0.014087881845615685
4975,3.0,299.03287,1324.757,0.0,0.0,0.0,0.050452189769499466,0.0,0.0,-0.0869947425184626,-0.10782871788686589,-0.2078695752401298,0.48483575507956356,0.07349201260559693,0.01927190443123888
4976,3.0,298.87131,1171.9631,0.0,0.0,0.0,0.050462330913171725,0.0,0.0,-0.07788030354318752,-0.12038669644624188,-0.15798050430646185,0.49761669932344454,0.09210687095649041,-0.017535271780096583
4977,3.0,298.34308,812.7608299999999,0.0,0.0,0.0,0.050472472056843985,0.0,0.0,-0.07305044530476763,-0.07387196315459513,-0.10013658820946181,0.4670712820738465,0.1278206287199139,0.0007566347849740392
4978,3.0,298.58378,886.0464900000001,0.0,0.0,0.0,0.05048261320051625,0.0,0.0,-0.0923521595539485,-0.11618807174186987,-0.06079577910982624,0.4922421269505155,0.11964004258005288,-0.04320501364825286
4979,3.0,299.00286,1073.9534,0.0,0.0,0.0,0.05049275434418851,0.0,0.0,-0.10740195720974789,-0.1010028947534596,-0.11805017211314488,0.4693729404710026,0.1037090861602899,-0.00010225063423135188
4980,3.0,299.62106,979.9407,0.0,0.0,0.0,0.05050289548786077,0.0,0.0,-0.07273732062636463,-0.11335629102489488,-0.1117838889897109,0.49467707839832653,0.13190456364546688,-0.037132566282198964
4981,3.0,299.20862999999997,948.6005,0.0,0.0,0.0,0.05051303663153303,0.0,0.0,-0.04898852666879116,-0.10667455509545891,-0.13268777557526387,0.5069136134959785,0.16169477519803185,-0.01054509644071999
4982,3.0,299.20198,968.3385,0.0,0.0,0.0,0.05052317777520529,0.0,0.0,-0.061668021272909844,-0.10479230117969489,-0.1278904011217999,0.48572027175435856,0.12863503862028988,-0.04088814130084536
4983,3.0,300.1338,1090.7017,0.0,0.0,0.0,0.05053331891887755,0.0,0.0,-0.1013525906677219,-0.11284935186736389,-0.1173441394434649,0.4627461733594916,0.09368278289002081,-0.02639672652340408
4984,3.0,300.45087,1189.3244,0.0,0.0,0.0,0.05054346006254981,0.0,0.0,-0.1072621590934509,-0.11719011529576388,-0.13707265591301787,0.46385569235149254,0.08345228641984942,-0.007246440069867953
4985,3.0,300.43517,1287.8087,0.0,0.0,0.0,0.05055360120622207,0.0,0.0,-0.14459297789021586,-0.11061151809400689,-0.13625718210003687,0.4931968719897415,0.12378719417934489,0.0053598993969058845
4986,3.0,299.86368,1097.7039,0.0,0.0,0.0,0.05056374234989433,0.0,0.0,-0.08044669582047073,-0.11384951077607189,-0.13937836731057385,0.47285275542193356,0.1142638388744629,0.016940631773410184
4987,3.0,298.98753,915.0951,0.0,0.0,0.0,0.0505738834935666,0.0,0.0,-0.05409005955052325,-0.1035868476682259,-0.12048915629635387,0.47294263070580356,0.1068218917924999,-0.02891900898408397
4988,3.0,299.67337000000003,1229.242,0.0,0.0,0.0,0.05058402463723886,0.0,0.0,-0.08298335731331972,-0.14878630329656486,-0.1418892111908749,0.49170655334515856,0.12434951758734189,-0.013379086042912988
4989,3.0,299.35219,1256.8423,0.0,0.0,0.0,0.05059416578091112,0.0,0.0,-0.11382132215828988,-0.15487683819015385,-0.11335050536682388,0.4901360663526636,0.17713561241192383,-0.05485321723434105
4990,3.0,298.83013,913.32929,0.0,0.0,0.0,0.05060430692458338,0.0,0.0,-0.07913939547520023,-0.11612042716519388,-0.08236948075348483,0.4675742898209896,0.13193327915330086,-0.04028516933858667
4991,3.0,300.12052,752.052,0.0,0.0,0.0,0.05061444806825564,0.0,0.0,-0.05358117799255054,-0.1006262484130375,-0.07439760285597173,0.4711954430283696,0.0933175518252253,-0.043338437408170755
4992,3.0,300.60455,866.6303199999999,0.0,0.0,0.0,0.050624589211927896,0.0,0.0,-0.058182017390368046,-0.09122293690050291,-0.11402902829628889,0.4904232315635045,0.1127012754977499,-0.020256167472378083
4993,3.0,300.07993999999997,1049.2169999999999,0.0,0.0,0.0,0.05063473035560016,0.0,0.0,-0.06935142686695293,-0.1074842027203649,-0.14210014959669287,0.5168079905899775,0.12478354326767689,-0.02161598355708148
4994,3.0,300.35618999999997,1113.4725,0.0,0.0,0.0,0.05064487149927242,0.0,0.0,-0.09506055376649622,-0.12314465176093088,-0.12026263410399787,0.48632260840880454,0.11034709021540991,-0.03693054447726096
4995,3.0,299.6127,975.4109800000001,0.0,0.0,0.0,0.05065501264294468,0.0,0.0,-0.07531199014371473,-0.0944618475871585,-0.12672674417695587,0.4662693047521975,0.08991357155152861,-0.01108040153480049
4996,3.0,298.8485,817.6392900000001,0.0,0.0,0.0,0.05066515378661694,0.0,0.0,-0.03359325328539597,-0.12784624368244188,-0.08710242769934032,0.4891996104777425,0.11205522723398988,-0.025348301446182577
4997,3.0,299.42077,904.54399,0.0,0.0,0.0,0.0506752949302892,0.0,0.0,-0.06693379692960144,-0.11230202456084691,-0.09572296095312072,0.5031536348923975,0.18373104983034283,-0.008570246461917473
4998,3.0,300.25809,1244.3724,0.0,0.0,0.0,0.05068543607396147,0.0,0.0,-0.0986007067476321,-0.11670724082810789,-0.16295020220443285,0.4825842525623576,0.15673272733831584,0.00023287003197998275
4999,3.0,300.01042,1008.2005,0.0,0.0,0.0,0.05069557721763373,0.0,0.0,-0.07587783966205972,-0.12438482935332687,-0.1062051163241289,0.4747622252353836,0.13443081905978888,-0.04251853670550287
5000,3.0,300.87733,723.12803,0.0,0.0,0.0,0.05070571836130599,0.0,0.0,-0.05226288185719485,-0.07682027675232103,-0.09072970701682491,0.4835777645504096,0.1175782812765729,-0.03357059397340967
5001,3.0,299.74561,956.2297900000001,0.0,0.0,0.0,0.05071585950497825,0.0,0.0,-0.087865928874942,-0.11294188186649588,-0.0898621643077051,0.5077437997004115,0.13328712314191488,-0.05106282288925825
5002,3.0,299.93605,1301.1471,0.0,0.0,0.0,0.05072600064865051,0.0,0.0,-0.1308378038076859,-0.12603541376622687,-0.13864301118299988,0.49107521747285054,0.08821610203000141,-0.024074507255218876
5003,3.0,300.77344,1165.009,0.0,0.0,0.0,0.050736141792322775,0.0,0.0,-0.12095383279221388,-0.08978885667622022,-0.14339094916408487,0.45783416992221454,0.0897464997822899,-0.004838765213423945
5004,3.0,301.97485,1022.6665,0.0,0.0,0.0,0.050746282935995035,0.0,0.0,-0.07585425525273214,-0.1024423614152739,-0.13256846537598888,0.4863786715368375,0.12475760406511688,0.005341391573229305
5005,3.0,301.69407,1014.1695,0.0,0.0,0.0,0.050756424079667295,0.0,0.0,-0.07242691551123003,-0.09560637437011452,-0.14024891126648986,0.49560992710289153,0.17352543270312684,0.010173920637587791
5006,3.0,300.77709,1090.6288,0.0,0.0,0.0,0.050766565223339555,0.0,0.0,-0.09443443714545331,-0.1056565528524899,-0.13143291598891887,0.5053003268192595,0.11804724382035588,-0.02215602052912898
5007,3.0,300.34626000000003,1198.5888,0.0,0.0,0.0,0.050776706367011815,0.0,0.0,-0.09040981686750421,-0.14946279972582985,-0.1244684528840799,0.4535382326782386,0.09162607263828931,-0.03178190255862957
5008,3.0,300.82162,1096.9246,0.0,0.0,0.0,0.05078684751068408,0.0,0.0,-0.08140768045381251,-0.11268021002817089,-0.13934980379025486,0.4878447025765235,0.09833256834716891,-0.03985716945659636
5009,3.0,300.28189,898.35272,0.0,0.0,0.0,0.05079698865435634,0.0,0.0,-0.05508228775069855,-0.12048226619567387,-0.09751223599995841,0.48854446322808454,0.1303931795313049,-0.02008438307692428
5010,3.0,299.66289,882.8879800000001,0.0,0.0,0.0,0.0508071297980286,0.0,0.0,-0.045984234042790555,-0.09505098463255181,-0.12734068254504688,0.5017846934772935,0.11343788805544788,-0.03803696393720607
5011,3.0,301.10447,1272.587,0.0,0.0,0.0,0.05081727094170086,0.0,0.0,-0.11619967345551489,-0.12500858611488688,-0.14562640179970687,0.4913530303852685,0.09104946443038252,-0.008586494332571012
5012,3.0,299.80658,1119.6224,0.0,0.0,0.0,0.05082741208537312,0.0,0.0,-0.0934056255504175,-0.1051490361424019,-0.14178257675035086,0.4983990094606525,0.12048253977320088,-0.04018892273808786
5013,3.0,299.06273,836.04295,0.0,0.0,0.0,0.05083755322904539,0.0,0.0,-0.08909417950041092,-0.09537353152363472,-0.06966846775699244,0.4964819706689555,0.13148012331107786,-0.033268523853597666
5014,3.0,298.83801,887.1320099999999,0.0,0.0,0.0,0.05084769437271765,0.0,0.0,-0.06263517153311014,-0.08015521517745383,-0.12687559061664588,0.5036673425605965,0.1107791299255489,-0.011987171208291689
5015,3.0,299.63917000000004,973.26768,0.0,0.0,0.0,0.05085783551638991,0.0,0.0,-0.10658455822157689,-0.08768343138618091,-0.1015810886977729,0.45387958650442756,0.1274637519021929,0.0016578128377883886
5016,3.0,298.81297,1133.6685,0.0,0.0,0.0,0.05086797666006217,0.0,0.0,-0.06455764742484374,-0.1071509346299739,-0.17289833221623685,0.4783846146078855,0.11685942086062688,0.006721154803376333
5017,3.0,300.8268,1118.2481,0.0,0.0,0.0,0.05087811780373443,0.0,0.0,-0.1011987711965411,-0.10784898288886591,-0.13087174768603588,0.48392182375436554,0.15081188143897387,-0.022925977121117776
5018,3.0,300.24418,948.99101,0.0,0.0,0.0,0.050888258947406693,0.0,0.0,-0.061200189516238436,-0.1167471223520439,-0.1105222507601969,0.48962268292449657,0.1076663749558439,-0.03187571330588797
5019,3.0,301.17231,979.3765900000001,0.0,0.0,0.0,0.05089840009107895,0.0,0.0,-0.09391264272820621,-0.1060029222666739,-0.09779046333166731,0.5144966860518695,0.07706733853745412,-0.05868836987609114
5020,3.0,300.95907,1206.4375,0.0,0.0,0.0,0.05090854123475121,0.0,0.0,-0.11346900496601887,-0.11768003185161488,-0.13557785870299285,0.5023835242863935,0.09755374581680509,-0.02059316128338678
5021,3.0,300.41495,1246.2708,0.0,0.0,0.0,0.05091868237842347,0.0,0.0,-0.1054492925445349,-0.12574277700484587,-0.14764314440124385,0.49304618143486956,0.13807871193730786,-0.011866092887592187
5022,3.0,298.77912000000003,961.32467,0.0,0.0,0.0,0.05092882352209573,0.0,0.0,-0.05393238466271195,-0.10888870921397889,-0.12939760051304888,0.4770742897110666,0.12387351295536388,0.022011727635388376
5023,3.0,299.35401,970.5152,0.0,0.0,0.0,0.050938964665768006,0.0,0.0,-0.07715191756305143,-0.10604361439068989,-0.11181685001546389,0.44297784629350956,0.14655498472135087,-0.013543267009616385
5024,3.0,299.20162,1184.5135,0.0,0.0,0.0,0.050949105809440266,0.0,0.0,-0.08169923405083662,-0.1344102500827589,-0.14395303952455885,0.47403927128903356,0.12555218466103588,-0.01106531018781109
5025,3.0,299.66045,1119.5999,0.0,0.0,0.0,0.050959246953112526,0.0,0.0,-0.08797426861538432,-0.1512657769537699,-0.10109037268759301,0.47487554712656754,0.1111706801616919,-0.04396035917379966
5026,3.0,299.81415,1028.0087,0.0,0.0,0.0,0.050969388096784786,0.0,0.0,-0.05811498785650274,-0.12181633154233588,-0.13255764386492086,0.4855851447210225,0.0932397220585441,-0.025529041959270273
5027,3.0,300.22,931.3856099999999,0.0,0.0,0.0,0.050979529240457046,0.0,0.0,-0.06860882600116393,-0.1087667037694379,-0.1057424460634669,0.5228447219032565,0.0864974039056291,-0.04507097956865936
5028,3.0,300.98483999999996,889.7660800000001,0.0,0.0,0.0,0.05098967038412931,0.0,0.0,-0.04308789814869446,-0.11320994731295189,-0.11416882641258588,0.5204177143362294,0.1182509374879589,-0.01899725792538338
5029,3.0,301.19381,1070.5596,0.0,0.0,0.0,0.05099981152780157,0.0,0.0,-0.10183818064564591,-0.11985386874865589,-0.1037313371324859,0.5214377937419036,0.14944184571376185,-0.06132791273109374
5030,3.0,300.76646,1291.8502,0.0,0.0,0.0,0.05100995267147383,0.0,0.0,-0.0996116162399011,-0.13692426543587286,-0.15615433378373283,0.47733042920384555,0.1224669394315459,-0.022873617422200277
5031,3.0,300.58654,1154.6354,0.0,0.0,0.0,0.05102009381514609,0.0,0.0,-0.12583198354364988,-0.1282310760704219,-0.09691727884599072,0.47418098444801954,0.13555075426281787,-0.028116201810603075
5032,3.0,300.12415,988.4920699999999,0.0,0.0,0.0,0.05103023495881835,0.0,0.0,-0.07844319335799042,-0.10921401315858391,-0.11281970416943789,0.46962576663595457,0.11495710459288289,-0.008975365028824562
5033,3.0,299.89914,1044.1836,0.0,0.0,0.0,0.05104037610249062,0.0,0.0,-0.08168541433272272,-0.09031547416394331,-0.14540484453284086,0.4856884151712146,0.12197215927521489,0.016909170357805182
5034,3.0,300.79983,1215.8612,0.0,0.0,0.0,0.05105051724616288,0.0,0.0,-0.0919877846854875,-0.13717893571600687,-0.14042471015883987,0.48273689868992253,0.1093213872716809,0.014688159575858485
5035,3.0,299.89234,972.3466599999999,0.0,0.0,0.0,0.05106065838983514,0.0,0.0,-0.06722313150890653,-0.09562192674589941,-0.13272404992884387,0.5084319383733255,0.1200690121423889,-0.00974173968038485
5036,3.0,300.06965,1020.2772,0.0,0.0,0.0,0.0510707995335074,0.0,0.0,-0.06045221031891865,-0.12458124788521187,-0.12510534136693588,0.5048740828996925,0.11793165224894789,-0.026117567001603177
5037,3.0,299.70266000000004,1165.0752,0.0,0.0,0.0,0.05108094067717966,0.0,0.0,-0.1040962388909989,-0.12963250228373188,-0.12042504796252688,0.5016282172643505,0.0960469496990959,-0.04035534096101206
5038,3.0,300.01927,1160.8701,0.0,0.0,0.0,0.05109108182085192,0.0,0.0,-0.09248768884757422,-0.10905611839550089,-0.15133170913777685,0.48466510349772157,0.1120881477297389,-0.04753104138044855
5039,3.0,299.48259,1237.8321,0.0,0.0,0.0,0.05110122296452418,0.0,0.0,-0.1069953602096199,-0.14466500983982486,-0.12460966955051687,0.4842236709591556,0.11394717795321088,-0.03038649910391397
5040,3.0,300.18414,1016.3028,0.0,0.0,0.0,0.05111136410819644,0.0,0.0,-0.09332827505103361,-0.08769383746470792,-0.12790854843109087,0.4852946661823545,0.12879401756097988,-0.017978422790832182
5041,3.0,300.51985,875.6772,0.0,0.0,0.0,0.0511215052518687,0.0,0.0,-0.07581245463310674,-0.0987529475751571,-0.09161859991880182,0.47427326113462653,0.10980799049970488,-0.02396021467043908
5042,3.0,300.7169,990.4725900000001,0.0,0.0,0.0,0.05113164639554096,0.0,0.0,-0.058012787398416345,-0.12442620035490988,-0.11863994446635089,0.5051263112470855,0.1126118967064289,-0.01837725221569358
5043,3.0,301.09837000000005,1168.3514,0.0,0.0,0.0,0.051141787539213224,0.0,0.0,-0.11257753739553789,-0.14164160326393788,-0.1009305112060659,0.5101100325264406,0.12297139612633189,-0.015013313559448686
5044,3.0,301.47595,1062.9249,0.0,0.0,0.0,0.051151928682885484,0.0,0.0,-0.07201285592411552,-0.11129123665858989,-0.13979852159703987,0.5126104905932165,0.14514314229701286,-0.031916872538200074
5045,3.0,301.16017999999997,906.8149099999999,0.0,0.0,0.0,0.05116206982655774,0.0,0.0,-0.055632512952501545,-0.12091155999804189,-0.0991050155079035,0.5029555444978475,0.11089805508978588,-0.04476227468719256
5046,3.0,301.15207000000004,1045.728,0.0,0.0,0.0,0.05117221097023,0.0,0.0,-0.07032960534124164,-0.11726437639559288,-0.13028120526275389,0.4740396968540755,0.1041639442626809,-0.023044990438113477
5047,3.0,301.82538999999997,1278.0569,0.0,0.0,0.0,0.05118235211390226,0.0,0.0,-0.09006116054784451,-0.13853562693740187,-0.15990060311346085,0.4760216951096835,0.1129313845954599,-0.027825539873666972
5048,3.0,299.78576,1122.9144,0.0,0.0,0.0,0.05119249325757453,0.0,0.0,-0.08164724925445611,-0.13764140332664887,-0.12204927774032588,0.48071492771786956,0.1169489516394629,-0.012769473239498886
5049,3.0,300.93948,1179.0952,0.0,0.0,0.0,0.05120263440124679,0.0,0.0,-0.09427641167310741,-0.10944977619185188,-0.15468930586164586,0.46651116755106753,0.12295742340745289,-0.012564453227514987
5050,3.0,300.03468,1133.4279,0.0,0.0,0.0,0.05121277554491905,0.0,0.0,-0.08510977511893082,-0.12093040644990188,-0.13849360745575487,0.48240523153468956,0.13966879518673686,-0.016269216793396685
5051,3.0,300.30827999999997,1025.5068,0.0,0.0,0.0,0.05122291668859131,0.0,0.0,-0.09530954477981972,-0.11104068017386189,-0.1053782434475229,0.5153879205748275,0.13667471206874388,-0.01954850752303748
5052,3.0,299.76255,1296.567,0.0,0.0,0.0,0.05123305783226357,0.0,0.0,-0.12440764774557889,-0.12638188450542087,-0.14333447060351087,0.5037111656274215,0.13731180320161987,-0.006970717695056274
5053,3.0,300.05127999999996,1210.1896,0.0,0.0,0.0,0.051243198975935836,0.0,0.0,-0.12565672167385286,-0.13089791993611888,-0.1113127884882169,0.4925410661275186,0.1004306040042289,-0.015461264335907986
5054,3.0,299.35204,896.7412300000001,0.0,0.0,0.0,0.051253340119608096,0.0,0.0,-0.06648681178048745,-0.1070884778938099,-0.09901165768343981,0.4847707044231436,0.09715444117764681,-0.021018496317614082
5055,3.0,299.57844,963.1407,0.0,0.0,0.0,0.051263481263280355,0.0,0.0,-0.06176578166905804,-0.1224265411500589,-0.1085784013708539,0.4955887299107995,0.11389732604829088,-0.03075972572524857
5056,3.0,298.52903,1151.539,0.0,0.0,0.0,0.051273622406952615,0.0,0.0,-0.05312257897079035,-0.12788964118422486,-0.16902688596915486,0.48933555824365954,0.13971477647627487,-0.022764185398150182
5057,3.0,299.47597,1068.5982,0.0,0.0,0.0,0.051283763550624875,0.0,0.0,-0.09026768422297682,-0.11810037865559989,-0.11645909587861789,0.47189801038270757,0.100166207536385,-0.03879535934555386
5058,3.0,300.21672,841.29134,0.0,0.0,0.0,0.05129390469429714,0.0,0.0,-0.04675345906820716,-0.09446123254434782,-0.1145168676894349,0.4632426557759906,0.12078989905853488,-0.018135168528301784
5059,3.0,300.57649,890.25592,0.0,0.0,0.0,0.0513040458379694,0.0,0.0,-0.08223386330710042,-0.1026866965443879,-0.08569501115143911,0.5063451700573776,0.12322513421637389,-0.035780843026044264
5060,3.0,300.80691,1060.4283,0.0,0.0,0.0,0.05131418698164166,0.0,0.0,-0.07975557515251243,-0.11811837397737589,-0.12446978024171089,0.5133292192866495,0.14075528300396487,-0.006297363151701354
5061,3.0,300.65862999999996,1099.141,0.0,0.0,0.0,0.05132432812531392,0.0,0.0,-0.06737263250816114,-0.12962581483307187,-0.13711296300199585,0.4878865599381545,0.13227719650224287,-0.05068961247992525
5062,3.0,300.62592,1152.0318,0.0,0.0,0.0,0.05133446926898618,0.0,0.0,-0.08076427575956342,-0.14080281456615587,-0.12862182583898588,0.4749183569432926,0.12170921074176388,-0.016969285472988087
5063,3.0,300.75132,1063.0394,0.0,0.0,0.0,0.05134461041265845,0.0,0.0,-0.09562722097767191,-0.1020585422773939,-0.1254516601186149,0.5003642586921075,0.1075192713063259,-0.028210616454921077
5064,3.0,300.00575,1033.6857,0.0,0.0,0.0,0.05135475155633071,0.0,0.0,-0.08415783171623133,-0.14915183327013984,-0.08090497972144983,0.49579890837904256,0.1109515141650619,-0.024969615433309177
5065,3.0,298.85335,1155.1924,0.0,0.0,0.0,0.05136489270000297,0.0,0.0,-0.11292370415970189,-0.1047347283090129,-0.13349121197705688,0.5090112235879964,0.07022457994187643,-0.019582582110650382
5066,3.0,299.33893,1228.703,0.0,0.0,0.0,0.05137503384367523,0.0,0.0,-0.10311498722915691,-0.1277452023824699,-0.14263484167446286,0.4794730681303076,0.09298464445186991,-0.016267528718730086
5067,3.0,299.52037,926.74826,0.0,0.0,0.0,0.05138517498734749,0.0,0.0,-0.034670391843951265,-0.10869149021451488,-0.13834644301123086,0.5068722019643915,0.12853877986078988,-0.009286034703560271
5068,3.0,299.83594,947.5345199999999,0.0,0.0,0.0,0.051395316131019754,0.0,0.0,-0.05260684885539175,-0.08618616691216241,-0.14923381533573085,0.5148505332517914,0.15651607420193386,0.01084082462815609
5069,3.0,299.5659,1335.0908,0.0,0.0,0.0,0.051405457274692014,0.0,0.0,-0.10849870925048889,-0.14287124305529386,-0.15446430354443985,0.49780163773169656,0.14036833292327588,0.0068218213021363425
5070,3.0,300.3453,1208.1693,0.0,0.0,0.0,0.051415598418364274,0.0,0.0,-0.10149331084160991,-0.1257253085731219,-0.14003468993034784,0.4650536275472195,0.10499395821459691,-0.03167607871818557
5071,3.0,299.25813,997.0318,0.0,0.0,0.0,0.05142573956203653,0.0,0.0,-0.1060073096396069,-0.1114251984543109,-0.08564026322203593,0.48634584223359756,0.09100362803560881,-0.0018077264324837083
5072,3.0,300.10881,1124.9431,0.0,0.0,0.0,0.05143588070570879,0.0,0.0,-0.0908268321051604,-0.15851271392148686,-0.09261506046464481,0.5022127612470405,0.1121499559858389,-0.04502184504481016
5073,3.0,300.46727999999996,1134.1252,0.0,0.0,0.0,0.05144602184938106,0.0,0.0,-0.09202257766742131,-0.11395661131164188,-0.13876655676769287,0.5272085469039325,0.1013007700178576,-0.019436173550700982
5074,3.0,300.09997000000004,1056.1159,0.0,0.0,0.0,0.05145616299305332,0.0,0.0,-0.06785008203478173,-0.14005959561780587,-0.11312319283938987,0.4900217210788785,0.1074572806652079,-0.06381938124298253
5075,3.0,299.75127000000003,1145.1459,0.0,0.0,0.0,0.05146630413672558,0.0,0.0,-0.09602029818171559,-0.12042151171967788,-0.13165394636573288,0.48349221584446656,0.13633456401017385,-0.008831862571486972
5076,3.0,299.65825,818.0373099999999,0.0,0.0,0.0,0.05147644528039784,0.0,0.0,-0.06298281865567024,-0.06868834789551213,-0.11699175132368689,0.48763826300114954,0.13767608687757188,-0.043393753770880054
5077,3.0,299.77871,684.86461,0.0,0.0,0.0,0.0514865864240701,0.0,0.0,-0.027928264182055074,-0.1078782860817579,-0.07237519314662544,0.49068034377637954,0.1092228385669549,-0.03045874383604397
5078,3.0,299.66705,1100.1293,0.0,0.0,0.0,0.05149672756774237,0.0,0.0,-0.07588081355110322,-0.11635977710381588,-0.14217124935620987,0.48018035723011154,0.08783047728044321,-0.04385869573826626
5079,3.0,299.05336,1253.4647,0.0,0.0,0.0,0.05150686871141463,0.0,0.0,-0.08428944885122093,-0.13174644596736187,-0.16498607496785786,0.4815507171953556,0.1087628432865569,-0.015514261369138383
5080,3.0,298.57752999999997,950.4268800000001,0.0,0.0,0.0,0.051517009855086886,0.0,0.0,-0.07363436715189622,-0.12269250916880788,-0.09257916202685192,0.4808024319965055,0.1446832584741259,-0.024735684356221976
5081,3.0,300.30713,947.9179,0.0,0.0,0.0,0.051527150998759146,0.0,0.0,-0.08228364732426371,-0.08727858021597523,-0.11858114556304787,0.4869700448252015,0.13567171605975586,0.0059871244122331755
5082,3.0,301.23381,1151.4954,0.0,0.0,0.0,0.051537292142431405,0.0,0.0,-0.10762038353380489,-0.12893395753229087,-0.1134715178262669,0.49059092445505453,0.1259765135379139,-0.02309950430674358
5083,3.0,300.36242999999996,1148.7735,0.0,0.0,0.0,0.05154743328610368,0.0,0.0,-0.12020309552812189,-0.10376740883604589,-0.1252279648940379,0.49623918581249454,0.13437338804412088,-0.007146942659073323
5084,3.0,300.11432,1146.2526,0.0,0.0,0.0,0.05155757442977594,0.0,0.0,-0.1126468437023779,-0.09255230583295142,-0.14323301387099785,0.5167254005743266,0.13576790389174886,-0.001075504084818989
5085,3.0,300.09067999999996,989.66945,0.0,0.0,0.0,0.0515677155734482,0.0,0.0,-0.06812412160382735,-0.11413493319674088,-0.1185757449400149,0.4926924355599575,0.1013962820120339,-0.018268572023217685
5086,3.0,300.07889,824.3875400000001,0.0,0.0,0.0,0.05157785671712046,0.0,0.0,-0.05497608698121736,-0.06680509086214914,-0.1288120534127599,0.49975431252941055,0.09155191590322061,-0.006473028599013183
5087,3.0,299.72421,969.85557,0.0,0.0,0.0,0.05158799786079272,0.0,0.0,-0.05405530811184354,-0.1134061733273179,-0.12735038948100488,0.4800770462499156,0.1122319279189289,-0.03362714548799087
5088,3.0,299.60722999999996,1203.3918,0.0,0.0,0.0,0.05159813900446498,0.0,0.0,-0.07778125226641193,-0.1181707083450409,-0.16984908776279983,0.4775519560732085,0.11849369194691689,-0.012849597004406488
5089,3.0,299.36215,977.74143,0.0,0.0,0.0,0.051608280148137245,0.0,0.0,-0.059144741774131544,-0.1031120994663719,-0.13495214636873987,0.4713702894656256,0.11721925636863989,-0.016692708725692083
5090,3.0,299.59713999999997,735.11874,0.0,0.0,0.0,0.051618421291809505,0.0,0.0,-0.016203820618692584,-0.12075977513306188,-0.0864941463065576,0.4992561481177455,0.12716894678559787,-0.03549417734750257
5091,3.0,299.75387,1023.8435,0.0,0.0,0.0,0.051628562435481765,0.0,0.0,-0.07855876567764652,-0.11600164385597088,-0.11666243490868589,0.5273292959183495,0.13779403932171286,-0.019448788514445984
5092,3.0,299.62186,1300.7747,0.0,0.0,0.0,0.051638703579154024,0.0,0.0,-0.10427400348854289,-0.15533810003317686,-0.13579092493402087,0.5032437533562916,0.1183602671737489,-0.027046018200734177
5093,3.0,299.8166,1105.0529,0.0,0.0,0.0,0.051648844722826284,0.0,0.0,-0.09357735624361602,-0.14000913576282586,-0.1023219873033939,0.4669246647843766,0.13240763218761586,-0.05359602818601615
5094,3.0,299.83021,961.82568,0.0,0.0,0.0,0.051658985866498544,0.0,0.0,-0.05778016949345874,-0.10497127154485789,-0.1296195529474539,0.47017044935971053,0.0988805735180028,-0.04896099261057375
5095,3.0,300.40796,986.23418,0.0,0.0,0.0,0.051669127010170804,0.0,0.0,-0.0982425005457799,-0.10053938450846471,-0.1010086804115306,0.4826234856062295,0.13176947714213488,-0.04542232910708486
5096,3.0,300.75857,1080.6872,0.0,0.0,0.0,0.051679268153843064,0.0,0.0,-0.07772001649661842,-0.11389958559601389,-0.13688232701423386,0.5019816490317316,0.1082369968821599,-0.04576736407088716
5097,3.0,301.51021000000003,1258.8579,0.0,0.0,0.0,0.051689409297515324,0.0,0.0,-0.12116179224273788,-0.12386130329165888,-0.13763826225133888,0.5063809073884046,0.09496590404815501,-0.01769226779034088
5098,3.0,300.24634,1190.2034,0.0,0.0,0.0,0.05169955044118759,0.0,0.0,-0.08268842250071191,-0.13962066580698687,-0.13948303604590387,0.49047839289894857,0.099137616829871,-0.02195118087566288
5099,3.0,299.41864,983.86864,0.0,0.0,0.0,0.05170969158485985,0.0,0.0,-0.07281758118003573,-0.09841837948488781,-0.1278355336288849,0.5086821503530194,0.13240639602249388,0.01013654589439919
5100,3.0,299.30433,991.48149,0.0,0.0,0.0,0.05171983272853212,0.0,0.0,-0.06224859635495814,-0.1051331686458359,-0.13400384560014988,0.4993706352465445,0.1251138020052709,0.006484308909726464
5101,3.0,299.63689,1221.9288,0.0,0.0,0.0,0.05172997387220437,0.0,0.0,-0.0984455862633229,-0.13132514670828285,-0.14166510053375686,0.48260780049468155,0.15595803684185985,0.007032874610515682
5102,3.0,299.63427,1155.2658,0.0,0.0,0.0,0.05174011501587663,0.0,0.0,-0.08484867880666261,-0.1168486297470619,-0.14947464461949886,0.49835173121098647,0.13768120379057688,-0.008762209429137741
5103,3.0,298.94015,860.6053099999999,0.0,0.0,0.0,0.051750256159548896,0.0,0.0,-0.059887624323448345,-0.10913253771804289,-0.09258236389716791,0.49868107802349054,0.15470253890795185,-0.02762715361008777
5104,3.0,299.77662999999995,959.77605,0.0,0.0,0.0,0.051760397303221156,0.0,0.0,-0.09468153135458961,-0.08578811667662792,-0.11127830758731388,0.5072800351296416,0.11788343167668888,-0.031572026038916366
5105,3.0,301.20964,1206.0555,0.0,0.0,0.0,0.051770538446893416,0.0,0.0,-0.08338045002750973,-0.11219029347231989,-0.17104001126783483,0.5081404060545535,0.1085282758884069,-0.039304175042270066
5106,3.0,302.01501,1136.8048,0.0,0.0,0.0,0.051780679590565676,0.0,0.0,-0.08606297089875392,-0.13319333671265887,-0.12630396557273088,0.4918134917607125,0.08545818724531642,-0.030432722560225868
5107,3.0,300.85975,1058.9531,0.0,0.0,0.0,0.051790820734237936,0.0,0.0,-0.06177051760002544,-0.1032315211231579,-0.15689327681666085,0.5077500919835325,0.1022126170875999,-0.03521163357036767
5108,3.0,300.83515,895.10553,0.0,0.0,0.0,0.0518009618779102,0.0,0.0,-0.06479088341236233,-0.1034043309277129,-0.1038945109285899,0.5112643878353664,0.09900652455843321,-0.03062168255812477
5109,3.0,299.47766,694.10471,0.0,0.0,0.0,0.05181110302158246,0.0,0.0,-0.036262158101796366,-0.1062604803095929,-0.06846785656775134,0.4933039117303055,0.13882372433833487,-0.05587860809703925
5110,3.0,300.57678,979.59479,0.0,0.0,0.0,0.05182124416525472,0.0,0.0,-0.05191111181997786,-0.12645840515297288,-0.11940283059914188,0.49611932845816553,0.12443298913057987,-0.024819630100506775
5111,3.0,300.77671000000004,1180.0913,0.0,0.0,0.0,0.05183138530892698,0.0,0.0,-0.07336079874414714,-0.13973912487617787,-0.14561836672641387,0.4630723892291866,0.13775969014332287,-0.02003388167869018
5112,3.0,299.51737,985.87863,0.0,0.0,0.0,0.05184152645259924,0.0,0.0,-0.06340683241176714,-0.10414380085069291,-0.13213185590789886,0.49719663622948757,0.12108110713727488,-0.008358586115403223
5113,3.0,299.36176,954.8283,0.0,0.0,0.0,0.05185166759627151,0.0,0.0,-0.06338519040288124,-0.11529823550404988,-0.11156052813766688,0.4943836918318716,0.12350772966926389,-0.024397927567887976
5114,3.0,299.17341,1129.9581,0.0,0.0,0.0,0.05186180873994377,0.0,0.0,-0.1037219544365599,-0.1152642308306939,-0.12449285194648788,0.5132281374566735,0.11691272794838789,-0.033723676811767765
5115,3.0,299.81068999999997,1133.1068,0.0,0.0,0.0,0.05187194988361603,0.0,0.0,-0.11608877323206988,-0.10857517923553589,-0.11977220079059589,0.4998732680911505,0.12654937474695088,-0.012682066232872487
5116,3.0,301.17582000000004,1170.3335,0.0,0.0,0.0,0.05188209102728829,0.0,0.0,-0.1082275837887309,-0.1128105950510389,-0.13471399206523588,0.47876718744814256,0.13225621209267188,-0.04393919541896096
5117,3.0,299.6068,1143.6176,0.0,0.0,0.0,0.05189223217096055,0.0,0.0,-0.08855408578635783,-0.1083140140222609,-0.15076308331415786,0.46642544659260754,0.1376458616270889,-0.006391338248125974
5118,3.0,300.17615,1011.7271,0.0,0.0,0.0,0.051902373314632815,0.0,0.0,-0.07098514167893803,-0.1063482885632589,-0.13020634634536588,0.48089616776325655,0.10678337815619889,-0.0060984401695441835
5119,3.0,300.85415,1072.3967,0.0,0.0,0.0,0.051912514458305074,0.0,0.0,-0.06256755634068703,-0.12749450404272789,-0.1359197596842359,0.4926541651036805,0.12026235039396987,-0.0015052290251045385
5120,3.0,300.57296,1338.0245,0.0,0.0,0.0,0.051922655601977334,0.0,0.0,-0.11934840893627088,-0.12638993984371588,-0.16098767861574684,0.5062754483179964,0.11532984890716988,0.016569051683488083
5121,3.0,300.53796,1315.8126,0.0,0.0,0.0,0.051932796745649594,0.0,0.0,-0.12471288933820389,-0.14798276556976186,-0.12727850951891087,0.5136497508232836,0.13444685880887186,-0.034036009128592566
5122,3.0,300.70782,963.7269,0.0,0.0,0.0,0.051942937889321854,0.0,0.0,-0.047826323737840654,-0.12124665193861289,-0.1238759346231029,0.5233678831948886,0.11589059164501088,-0.012809940421992688
5123,3.0,299.08874,828.64518,0.0,0.0,0.0,0.05195307903299412,0.0,0.0,-0.04282936029292876,-0.11282790136274688,-0.09623018382067972,0.5155168566500525,0.12846863255636687,-0.051206361924924455
5124,3.0,299.84783999999996,1162.6234,0.0,0.0,0.0,0.05196322017666638,0.0,0.0,-0.08575101551096632,-0.1121863823269339,-0.15547107897630086,0.49656275709942854,0.12162393561334789,-4.755684784724546e-05
5125,3.0,299.88532000000004,1080.4317,0.0,0.0,0.0,0.05197336132033864,0.0,0.0,-0.1110213473619539,-0.1030915608868449,-0.11431136030415288,0.4904430608679615,0.12211635489694589,-0.06864052147754203
5126,3.0,299.91756000000004,866.6022,0.0,0.0,0.0,0.0519835024640109,0.0,0.0,-0.07058076268327894,-0.1111761213147289,-0.08166854878480821,0.48061783809328756,0.11098568095843389,-0.03532772467407497
5127,3.0,300.23826,1015.6417,0.0,0.0,0.0,0.05199364360768316,0.0,0.0,-0.0967041862704601,-0.10555270484974089,-0.1064728170005489,0.4855387581314446,0.12442609902989989,-0.06064003952970594
5128,3.0,299.69117,1195.5028,0.0,0.0,0.0,0.05200378475135543,0.0,0.0,-0.0889899839528776,-0.1276841540639449,-0.14672885843851086,0.48770374935511257,0.1275699303801719,-0.023058988488244978
5129,3.0,299.90903,1300.5517,0.0,0.0,0.0,0.052013925895027686,0.0,0.0,-0.10305581342331689,-0.15469418972712787,-0.13758522874110488,0.4793151632347235,0.11816810429228389,-0.023485302322068878
5130,3.0,301.18106,1467.2165,0.0,0.0,0.0,0.052024067038699946,0.0,0.0,-0.13464960002138085,-0.12925553271652787,-0.18209203673358484,0.48709055065959456,0.09524546076399511,0.004036347229306457
5131,3.0,300.90328999999997,1037.009,0.0,0.0,0.0,0.052034208182372206,0.0,0.0,-0.07898717288617702,-0.11265517261819989,-0.12358249739414287,0.5299872231831665,0.12794374873956488,0.030483680934255068
5132,3.0,299.9469,777.2320900000001,0.0,0.0,0.0,0.052044349326044466,0.0,0.0,-0.06742936438126014,-0.07590713069595052,-0.09292265178425171,0.5147975301390605,0.12291414749568187,-0.00972614191099547
5133,3.0,299.65873999999997,1353.5082,0.0,0.0,0.0,0.05205449046971673,0.0,0.0,-0.13850309147669088,-0.11917151573381289,-0.15375807835724084,0.5126849644755666,0.13531769660731688,0.0031653392048446565
5134,3.0,299.48671,1408.1341,0.0,0.0,0.0,0.05206463161338899,0.0,0.0,-0.1240412463769179,-0.14838374916433586,-0.15561259961776785,0.47420231336262453,0.1174817286745439,-0.044917859240047556
5135,3.0,299.71389,848.60049,0.0,0.0,0.0,0.05207477275706125,0.0,0.0,-0.06465530649598195,-0.08647567273073442,-0.10682237815254789,0.4729578193248026,0.11883289768289387,-0.022409767738421876
5136,3.0,299.82035,873.02001,0.0,0.0,0.0,0.05208491390073351,0.0,0.0,-0.05712608311665545,-0.08728313376192462,-0.12096706583851988,0.5067044888078396,0.1124603550214729,-0.035649116460043866
5137,3.0,299.1518,1204.4786,0.0,0.0,0.0,0.05209505504440577,0.0,0.0,-0.11212799885617189,-0.12359597362047288,-0.13040743596021187,0.4977600438150916,0.13368715428139488,-0.022533672013650276
5138,3.0,299.55742999999995,1120.8636,0.0,0.0,0.0,0.052105196188078046,0.0,0.0,-0.10413378993970489,-0.1086911558419819,-0.12788961078672187,0.5035160845856685,0.11811924537246189,-0.027312859641069373
5139,3.0,300.16192,969.1754300000001,0.0,0.0,0.0,0.052115337331750305,0.0,0.0,-0.05486449470795405,-0.11969506206048287,-0.12004556553507488,0.4743534193500376,0.11608702030939688,-0.026471883336321476
5140,3.0,300.21238999999997,998.4427599999999,0.0,0.0,0.0,0.052125478475422565,0.0,0.0,-0.07444254049790672,-0.11251706662956988,-0.11654206079680587,0.5241084170304735,0.13519957191065887,-0.012929521159044388
5141,3.0,299.56816000000003,899.01285,0.0,0.0,0.0,0.05213561961909482,0.0,0.0,-0.04467403681548416,-0.11769711524830088,-0.11090630294559989,0.5159574177935324,0.11986847981509789,-0.023866659262205877
5142,3.0,300.89545,1120.1384,0.0,0.0,0.0,0.05214576076276708,0.0,0.0,-0.09073797919064132,-0.14845348103621786,-0.1013026475702929,0.5202642880060875,0.1164931816119819,-0.04046358038969446
5143,3.0,300.61064,1443.9163,0.0,0.0,0.0,0.05215590190643934,0.0,0.0,-0.1117877190750889,-0.14687225359266287,-0.18025452794223684,0.5074259836740455,0.0989635141181884,-0.018380635457777482
5144,3.0,300.25189,1003.8602,0.0,0.0,0.0,0.0521660430501116,0.0,0.0,-0.1006607911221966,-0.12315698301464788,-0.08133064203545942,0.5289778133010454,0.12249284823660288,-0.04452032170906366
5145,3.0,299.85117,776.0360400000001,0.0,0.0,0.0,0.05217618419378387,0.0,0.0,-0.034257192506171666,-0.11143181497746389,-0.09020657409619572,0.5120006862855335,0.13206934850922988,-0.04556359440952666
5146,3.0,300.68773999999996,1185.6912,0.0,0.0,0.0,0.05218632533745613,0.0,0.0,-0.11486806017409489,-0.1006861304806974,-0.14486632236969285,0.47871930124841655,0.1086830701061839,-0.040827599607370355
5147,3.0,299.7844,1161.1495,0.0,0.0,0.0,0.05219646648112839,0.0,0.0,-0.10301194982648791,-0.1024107176146509,-0.14753778665584585,0.4516875921655946,0.11681150426339788,-0.005316468559194595
5148,3.0,299.87527,800.0425299999999,0.0,0.0,0.0,0.05220660762480065,0.0,0.0,-0.05697800066754085,-0.07661244598455973,-0.10960250337942491,0.4818961138894436,0.12917031838311788,-0.014985202961924385
5149,3.0,300.16576000000003,867.04706,0.0,0.0,0.0,0.05221674876847291,0.0,0.0,-0.07935825344379983,-0.08799899191782432,-0.0962034107132874,0.5265025952942605,0.15572672197653084,0.02073895682702568
5150,3.0,299.75099,1206.8539,0.0,0.0,0.0,0.05222688991214517,0.0,0.0,-0.11326155214054488,-0.13154382634486486,-0.12204808210520789,0.5061566346112705,0.12910553117172388,-0.02134428864876728
5151,3.0,299.69991,1444.0407,0.0,0.0,0.0,0.05223703105581742,0.0,0.0,-0.12260177262235289,-0.14093070699377785,-0.17541982535508885,0.5182399561613015,0.08634008669510311,0.0048001497454878955
5152,3.0,299.28735,1359.2689,0.0,0.0,0.0,0.05224717219948968,0.0,0.0,-0.08756162453865951,-0.16740758058684183,-0.15821458534456384,0.5214552824386295,0.11416420599212988,-0.02215067968785188
5153,3.0,298.81186,1009.2092,0.0,0.0,0.0,0.05225731334316196,0.0,0.0,-0.06467629698505353,-0.11966154374717489,-0.12243656219354788,0.5446338851011795,0.13294499924564987,-0.01036862779005389
5154,3.0,299.99345,756.01731,0.0,0.0,0.0,0.05226745448683422,0.0,0.0,-0.01853619062637958,-0.1013895337663679,-0.1098846631347719,0.5432081307529685,0.11630727048363389,-0.022373573431599774
5155,3.0,300.2512,740.76371,0.0,0.0,0.0,0.052277595630506477,0.0,0.0,-0.06879742021577673,-0.09909455066087072,-0.05728170110676374,0.48220332118726256,0.09261179678607272,-0.030028780275359872
5156,3.0,298.92598,1029.9911,0.0,0.0,0.0,0.052287736774178736,0.0,0.0,-0.07363159185987234,-0.1063425434351919,-0.13311742401516685,0.5145803703776285,0.12493264301989188,-0.017575843327350682
5157,3.0,299.36907,1018.8283,0.0,0.0,0.0,0.052297877917850996,0.0,0.0,-0.05367178686949295,-0.12666685096354488,-0.12935972522431088,0.5162862478484855,0.12646494061611788,-0.045102214016241954
5158,3.0,300.05029,918.41765,0.0,0.0,0.0,0.05230801906152326,0.0,0.0,-0.05618918343819065,-0.12147727779387389,-0.1015095735057149,0.4934029569275805,0.11979184771003488,-0.02786338375165187
5159,3.0,300.25138,1303.0107,0.0,0.0,0.0,0.05231816020519552,0.0,0.0,-0.095981373165874,-0.11788049325139888,-0.18222085121879783,0.4971817313205165,0.07642653992246222,-0.012741359602224289
5160,3.0,300.24458,1401.5617,0.0,0.0,0.0,0.05232830134886778,0.0,0.0,-0.12585584558350488,-0.15168475587011987,-0.14849915835072586,0.47989497533944653,0.13030149052975587,-0.006415775814037774
5161,3.0,300.23564,1324.7195,0.0,0.0,0.0,0.05233844249254004,0.0,0.0,-0.11811707701724788,-0.1313392207521719,-0.15322536211716586,0.5323923546805345,0.16115788436754486,-0.01961375677647708
5162,3.0,300.95256,1169.979,0.0,0.0,0.0,0.0523485836362123,0.0,0.0,-0.1037550167873229,-0.12470858302527889,-0.12718079167926688,0.5405940468199785,0.13470551116189888,-0.026334106653973975
5163,3.0,300.86287000000004,892.68674,0.0,0.0,0.0,0.05235872477988457,0.0,0.0,-0.06804612566412972,-0.12112195124880588,-0.08218640469891662,0.5198352373837435,0.09313848925430322,-0.02790507899326687
5164,3.0,299.53544,747.63523,0.0,0.0,0.0,0.05236886592355683,0.0,0.0,-0.04185498555951546,-0.08817374513607111,-0.0972337107727201,0.5156244638106725,0.09322110054820631,-0.024992919172359077
5165,3.0,299.34701,1094.384,0.0,0.0,0.0,0.05237900706722909,0.0,0.0,-0.08527827962381092,-0.11432392460539288,-0.1330632050023159,0.5087301682752585,0.1259391448742259,-0.03946624642226526
5166,3.0,299.39698,1304.2343,0.0,0.0,0.0,0.05238914821090135,0.0,0.0,-0.13163354964121987,-0.13233483016793088,-0.13248629079287888,0.47304238517814856,0.12419988081257388,-0.012665907933527789
5167,3.0,298.54742999999996,938.08505,0.0,0.0,0.0,0.05239928935457361,0.0,0.0,-0.09091687457529692,-0.08723146205982502,-0.1070060905281789,0.47013764032147254,0.09169435556252832,-0.02214116628266298
5168,3.0,298.26755,1127.5638,0.0,0.0,0.0,0.052409430498245875,0.0,0.0,-0.09434171462880231,-0.11539764547136089,-0.13301187375224988,0.46679802878687854,0.13745846102109388,-0.024657749211530376
5169,3.0,298.69507000000004,1574.2485,0.0,0.0,0.0,0.052419571641918135,0.0,0.0,-0.14386787585365385,-0.13703415240921787,-0.1976301864870808,0.5054793377144264,0.15336053981300685,-0.007911330327187513
5170,3.0,299.65358,1400.9477,0.0,0.0,0.0,0.052429712785590395,0.0,0.0,-0.12198573682655489,-0.13991012096305386,-0.16395726134632185,0.5084741503724916,0.14117773736815786,-0.0004687194144215045
5171,3.0,300.6661,855.30167,0.0,0.0,0.0,0.052439853929262654,0.0,0.0,-0.03368339201429196,-0.0982885517495748,-0.12801840500693287,0.5004884932868685,0.08428896147792282,-0.017568958292921183
5172,3.0,300.6301,764.40608,0.0,0.0,0.0,0.052449995072934914,0.0,0.0,-0.06959254391374935,-0.06644556540866674,-0.0963222517777661,0.5244250678192245,0.11639359939215389,0.010287943697840989
5173,3.0,300.08964,1007.829,0.0,0.0,0.0,0.05246013621660718,0.0,0.0,-0.049676756534214155,-0.14593576732023886,-0.1107423286819169,0.5243832915176014,0.14102807019588687,-0.03357410893800657
5174,3.0,299.51721000000003,1217.4681,0.0,0.0,0.0,0.05247027736027944,0.0,0.0,-0.0984286244566489,-0.15993072703893385,-0.11172055072595989,0.5300494671368094,0.15440048905314185,-0.02388752917451558
5175,3.0,299.8514,1218.9558,0.0,0.0,0.0,0.0524804185039517,0.0,0.0,-0.07220518396534684,-0.14068338277686887,-0.15764356825070885,0.49636855758526255,0.1011178540568052,-0.04660527833383286
5176,3.0,298.89341,910.2057699999999,0.0,0.0,0.0,0.05249055964762396,0.0,0.0,-0.04575107404902946,-0.1285838086952339,-0.10234493741815891,0.4988052214257426,0.1270552398593759,-0.04871087283663886
5177,3.0,299.67744,980.4553,0.0,0.0,0.0,0.05250070079129622,0.0,0.0,-0.048003787400104955,-0.11445215140554788,-0.13557799042550586,0.5115965109531445,0.14080659398902887,-0.039652514214648465
5178,3.0,300.16684,1317.6157,0.0,0.0,0.0,0.05251084193496849,0.0,0.0,-0.14194918546429386,-0.1091669780889419,-0.14940611851523586,0.4895975745870185,0.13329913015559985,-0.014240668814944587
5179,3.0,300.64168,1382.2429,0.0,0.0,0.0,0.05252098307864075,0.0,0.0,-0.12212870641566487,-0.12292855591210387,-0.17511006466701784,0.4528485336001706,0.10391876813598391,-0.008158064427238272
5180,3.0,300.78898,886.7052,0.0,0.0,0.0,0.05253112422231301,0.0,0.0,-0.07369788982716542,-0.07382830220778613,-0.12201004469645389,0.48090887391951054,0.12145975869964488,-0.02241964692689688
5181,3.0,300.48686000000004,894.1158800000001,0.0,0.0,0.0,0.05254126536598527,0.0,0.0,-0.06255836413577985,-0.11452226831246788,-0.09470827305122881,0.49857618637313855,0.16141212908263686,-0.0012470823852024488
5182,3.0,300.9586,1366.1086,0.0,0.0,0.0,0.052551406509657526,0.0,0.0,-0.12737977373390488,-0.14290265380839387,-0.14498048525845986,0.5037051469218274,0.13308150429912188,-0.023870721381856773
5183,3.0,300.10111,1280.0217,0.0,0.0,0.0,0.05256154765332979,0.0,0.0,-0.12559432573269488,-0.11764155874531788,-0.14585876031263886,0.4966120517167935,0.09247374652619822,0.007015653715791114
5184,3.0,299.82132,1079.6789,0.0,0.0,0.0,0.05257168879700205,0.0,0.0,-0.0870806205306881,-0.13927787316565585,-0.1018369242155219,0.5091942165560566,0.10556492464594691,-0.05703725452013874
5185,3.0,298.42615,904.12852,0.0,0.0,0.0,0.05258182994067431,0.0,0.0,-0.05355170457364175,-0.09335162945258851,-0.12792915793812487,0.5410933663367575,0.12133445005977787,0.001977915465655058
5186,3.0,299.64101,881.6547199999999,0.0,0.0,0.0,0.05259197108434657,0.0,0.0,-0.06896883274844384,-0.1079023203741299,-0.09112986582581752,0.5373681928741114,0.12059783750207989,-0.04502273163864766
5187,3.0,300.15637999999996,1110.0524,0.0,0.0,0.0,0.05260211222801883,0.0,0.0,-0.06471314078518974,-0.11162694668172189,-0.16108811196565886,0.48741073769119453,0.0936189207759681,-0.010704662053217889
5188,3.0,299.64077000000003,1214.6553,0.0,0.0,0.0,0.0526122533716911,0.0,0.0,-0.08877234897714872,-0.12135571817937688,-0.15909681207413284,0.4769343396072545,0.09827455876569381,-0.025885163905666773
5189,3.0,299.46859,1021.5077,0.0,0.0,0.0,0.05262239451536336,0.0,0.0,-0.06869467462913653,-0.1138721265183039,-0.12794602855228987,0.4806358840775686,0.12950690993383687,-0.014933642717335785
5190,3.0,300.12358,894.51549,0.0,0.0,0.0,0.05263253565903562,0.0,0.0,-0.07266597870007373,-0.08685162398158792,-0.11239277123980289,0.5049392956761285,0.13013221696804989,-0.01994529018269688
5191,3.0,300.98179,1120.3536,0.0,0.0,0.0,0.05264267680270788,0.0,0.0,-0.08685054892323182,-0.1154218317512479,-0.13828712735037688,0.5062204896325725,0.10891606696667888,-0.02132103861197268
5192,3.0,301.15881,1183.3042,0.0,0.0,0.0,0.05265281794638014,0.0,0.0,-0.09844131541415141,-0.14767296435168686,-0.11358066512703889,0.5185311439750395,0.12964823805778486,-0.026661322601517677
5193,3.0,300.63838,955.28892,0.0,0.0,0.0,0.052662959090052405,0.0,0.0,-0.04810899214473786,-0.13568464513103187,-0.1065903438796479,0.5436416802057565,0.14705134554783786,-0.058702162236452346
5194,3.0,300.06583,1052.2864,0.0,0.0,0.0,0.052673100233724665,0.0,0.0,-0.07045634469024983,-0.13521112296179888,-0.1142013213432929,0.5165226390968155,0.1256792360910749,-0.023104249356961877
5195,3.0,300.26664,1137.7966,0.0,0.0,0.0,0.052683241377396925,0.0,0.0,-0.07366943371135702,-0.1298846901011209,-0.14230763281966988,0.5100152429795856,0.1093810474375689,-0.028700477282016575
5196,3.0,298.83513999999997,1057.9799,0.0,0.0,0.0,0.052693382521069185,0.0,0.0,-0.07713755474288393,-0.11795306222356089,-0.12650884474295088,0.5002794091287336,0.1071895698562869,-0.014233574037744385
5197,3.0,299.17627000000005,1222.8898,0.0,0.0,0.0,0.052703523664741445,0.0,0.0,-0.09409578261753071,-0.14053969378018788,-0.13709247508497385,0.49025553867195454,0.14224801318378585,-0.024946068514235274
5198,3.0,299.90828999999997,1192.7758,0.0,0.0,0.0,0.052713664808413704,0.0,0.0,-0.12464410992141588,-0.07637552885942783,-0.16155442992668084,0.48892088564023456,0.1028388765769069,0.008318829829179582
5199,3.0,299.07901,843.9522900000001,0.0,0.0,0.0,0.052723805952085964,0.0,0.0,-0.05941891103918994,-0.08549111078081573,-0.1116304018645629,0.5101340262888086,0.1093900754959599,-0.020285991475821483
5200,3.0,299.35167,960.55064,0.0,0.0,0.0,0.05273394709575824,0.0,0.0,-0.06945110635879052,-0.1101973723806339,-0.1123349349240949,0.4967865333840135,0.12339697130083288,-0.01971265201273728
5201,3.0,299.28006,1294.0592,0.0,0.0,0.0,0.0527440882394305,0.0,0.0,-0.09845457176520972,-0.12743661706451487,-0.16747048315304985,0.5139776486881446,0.15768039989184385,-0.014451255622977884
5202,3.0,299.81954,1211.6165,0.0,0.0,0.0,0.05275422938310276,0.0,0.0,-0.09673006062501373,-0.15752890886939286,-0.1140421904150879,0.49652914759361155,0.13075710856972186,-0.039909375141498664
5203,3.0,299.58734,925.7018300000001,0.0,0.0,0.0,0.05276437052677501,0.0,0.0,-0.08671279351913641,-0.0972280649431629,-0.09744938308300531,0.5171734091060415,0.11346677581579889,-0.02977277250509387
5204,3.0,299.83972,969.52804,0.0,0.0,0.0,0.05277451167044727,0.0,0.0,-0.07361521165875573,-0.1177483451733569,-0.1033487541597279,0.5324684902930485,0.1029597573138369,-0.044785086999943956
5205,3.0,299.84223,1023.1185,0.0,0.0,0.0,0.05278465281411953,0.0,0.0,-0.05044872544090155,-0.13065367599951386,-0.12990008137013986,0.5207266745567215,0.12351958469543388,-0.02051127547655528
5206,3.0,300.26267,1081.6925,0.0,0.0,0.0,0.05279479395779179,0.0,0.0,-0.060305325531422246,-0.1051966284995989,-0.16330554901450284,0.5090917668384456,0.09532826153566691,-0.01958186776932988
5207,3.0,300.55768,1101.3586,0.0,0.0,0.0,0.05280493510146405,0.0,0.0,-0.06970331444118152,-0.12439966333479088,-0.14068253164678488,0.4959443097683925,0.1088119352539019,-0.02255214254972318
5208,3.0,300.37807000000004,973.05061,0.0,0.0,0.0,0.05281507624513632,0.0,0.0,-0.062239066737767634,-0.1066620009267199,-0.1268820247547809,0.5334386975288006,0.12425398836791389,-0.028718191933514874
5209,3.0,299.68549,990.82484,0.0,0.0,0.0,0.05282521738880858,0.0,0.0,-0.07693366349151143,-0.1280018079702949,-0.09625053494893822,0.5253681199522965,0.14529620385711886,-0.03378285061760777
5210,3.0,300.20914,1291.4865,0.0,0.0,0.0,0.05283535853248084,0.0,0.0,-0.1328718628534319,-0.1287942607410039,-0.13091352398765888,0.5019928150478336,0.10407350155875492,-0.024901364933073378
5211,3.0,299.71482000000003,1378.8511,0.0,0.0,0.0,0.0528454996761531,0.0,0.0,-0.1123939364774179,-0.13201258623862788,-0.17472978177198684,0.4999563647318515,0.1066140336669859,-0.02675708588171877
5212,3.0,298.44287,922.67799,0.0,0.0,0.0,0.052855640819825356,0.0,0.0,-0.060000532808591536,-0.10486295510916789,-0.1156075807595799,0.4812170539374255,0.1269354129025499,-0.02451199521114558
5213,3.0,299.55517000000003,948.5141699999999,0.0,0.0,0.0,0.05286578196349763,0.0,0.0,-0.036560490341989466,-0.1214330392945079,-0.1303310976976779,0.5051193603513996,0.14823637193729086,-0.02360801501517968
5214,3.0,299.93562000000003,1237.329,0.0,0.0,0.0,0.05287592310716989,0.0,0.0,-0.12141460827518889,-0.1054164531087939,-0.14928606864338786,0.4791720112605955,0.13082306101873087,0.006070172315604364
5215,3.0,299.65157,1159.4379,0.0,0.0,0.0,0.05288606425084215,0.0,0.0,-0.10650217085594589,-0.1305355817003589,-0.11540242801183288,0.49219344028321055,0.13581160536856188,-0.01092039921150949
5216,3.0,299.93785,1106.8519999999999,0.0,0.0,0.0,0.05289620539451441,0.0,0.0,-0.0984529181410465,-0.09927319273300131,-0.13872925903151187,0.5247764021588985,0.0979206132805121,-0.011164615790361791
5217,3.0,300.53227000000004,1241.9342,0.0,0.0,0.0,0.05290634653818667,0.0,0.0,-0.08683106007080842,-0.12533736550733487,-0.16534855505863183,0.5264509195391606,0.11023248149659891,-0.00992513217295928
5218,3.0,300.54867,1177.1025,0.0,0.0,0.0,0.052916487681858936,0.0,0.0,-0.08608024579970881,-0.12809374015186786,-0.14363577065324684,0.5077709649355925,0.07476711895544014,-0.011466396120645189
5219,3.0,300.49165,1301.8149,0.0,0.0,0.0,0.052926628825531195,0.0,0.0,-0.0961490913886765,-0.12471109588552688,-0.17485904208724384,0.4883821405620646,0.1046868117117839,-0.022849416956811877
5220,3.0,299.70661,1409.2685,0.0,0.0,0.0,0.052936769969203455,0.0,0.0,-0.13665179235148187,-0.15763427674729186,-0.1340963755992819,0.4772985726207016,0.13498711362969087,-0.042626796399187254
5221,3.0,300.73263,1031.076,0.0,0.0,0.0,0.052946911112875715,0.0,0.0,-0.0983791271892639,-0.10914965151223188,-0.10589259959578591,0.48767504397977957,0.14972885893708787,-0.03540192801864826
5222,3.0,301.54434,863.76487,0.0,0.0,0.0,0.052957052256547975,0.0,0.0,-0.07004012282742193,-0.1016013233022699,-0.0909215010752535,0.4925378946547055,0.13662049305589288,-0.034993346061574365
5223,3.0,300.94622999999996,1007.1443,0.0,0.0,0.0,0.05296719340022024,0.0,0.0,-0.06219000010167514,-0.12607174891481288,-0.11788497181684088,0.47754900751541757,0.1164057178633499,-0.03479852745159727
5224,3.0,299.28607999999997,1091.6134,0.0,0.0,0.0,0.0529773345438925,0.0,0.0,-0.060793377707089244,-0.11316832299884388,-0.15786152847971988,0.5144338544131685,0.13317609119595689,-0.027163611954339775
5225,3.0,300.32276,965.8497,0.0,0.0,0.0,0.05298747568756476,0.0,0.0,-0.024359701694615377,-0.12288042653235388,-0.14635406735902187,0.5165928573287455,0.13535428506842787,-0.04085260661983836
5226,3.0,299.37785,823.42299,0.0,0.0,0.0,0.05299761683123702,0.0,0.0,-0.05925987231674404,-0.10111495818801941,-0.08992519656992592,0.5311975808251195,0.11741669828312588,-0.01119294626315779
5227,3.0,300.26608,1066.2335,0.0,0.0,0.0,0.05300775797490928,0.0,0.0,-0.1031423449818569,-0.10381128256537592,-0.1171547326022719,0.5184838251953695,0.1278124011291019,-0.032142608448478466
5228,3.0,300.17387,1176.1766,0.0,0.0,0.0,0.05301789911858155,0.0,0.0,-0.11805455948607789,-0.12554472714029988,-0.11392903064391989,0.5196804229009645,0.1365334954023069,-0.02049350914930188
5229,3.0,299.91407999999996,1187.2714,0.0,0.0,0.0,0.05302804026225381,0.0,0.0,-0.0957520473104913,-0.11380910236208389,-0.15133972394606784,0.5188740480738815,0.12781488359184687,-0.04006037068465076
5230,3.0,299.64912000000004,1188.7408,0.0,0.0,0.0,0.05303818140592607,0.0,0.0,-0.07969332714586902,-0.11981113999193889,-0.16184305421766584,0.47974281557192955,0.10007622890100482,-0.010591232757523291
5231,3.0,300.06741,1013.8203,0.0,0.0,0.0,0.05304832254959833,0.0,0.0,-0.05894177258035004,-0.11852431236493888,-0.13070997217506988,0.4781752568722235,0.11271246177885388,-0.035316517114718865
5232,3.0,298.84137000000004,954.64515,0.0,0.0,0.0,0.05305846369327059,0.0,0.0,-0.09807612285285972,-0.09280850004123582,-0.09930366420325859,0.47062764806983254,0.13915137902317187,-0.005703540331220605
5233,3.0,300.431,1217.6824,0.0,0.0,0.0,0.053068604836942854,0.0,0.0,-0.12101071665282788,-0.13060608364231688,-0.11852823364282589,0.48127630880327354,0.16137164974114185,-0.018828896288767383
5234,3.0,299.68433,1136.5765,0.0,0.0,0.0,0.053078745980615114,0.0,0.0,-0.095269149538083,-0.1002346677793915,-0.14998706546007087,0.5073544583494866,0.1072325417930279,0.007456231577897763
5235,3.0,299.39897,853.0867099999999,0.0,0.0,0.0,0.05308888712428737,0.0,0.0,-0.04346078634449566,-0.09201464290588822,-0.12384162597471689,0.5027936980593746,0.1079262736064939,-0.009407612860534102
5236,3.0,299.47354,1043.5217,0.0,0.0,0.0,0.05309902826795963,0.0,0.0,-0.04826411769529755,-0.13231297436327386,-0.13662746421658087,0.5161372291562786,0.12110235499187189,-0.030646694636843268
5237,3.0,300.69425,1279.5376,0.0,0.0,0.0,0.05310916941163189,0.0,0.0,-0.1059126518152649,-0.12228938761652287,-0.16074544091433984,0.4975788949622136,0.12372374445808287,-0.028286215044882074
5238,3.0,300.38512000000003,1214.6144,0.0,0.0,0.0,0.05311931055530416,0.0,0.0,-0.11457839223550689,-0.14131704912440687,-0.11331700731851789,0.4831929118974275,0.10921727582390589,-0.04895902589212965
5239,3.0,300.38922,1105.7576,0.0,0.0,0.0,0.05312945169897642,0.0,0.0,-0.09348687706268641,-0.13221742487884386,-0.11041841288994889,0.4856241143198685,0.10418890061264391,-0.040784711770387665
5240,3.0,299.89697,1169.4802,0.0,0.0,0.0,0.05313959284264868,0.0,0.0,-0.08760496935143731,-0.1282305593128709,-0.13965724413559688,0.5316446267692395,0.13377796175535686,-0.04882704398710405
5241,3.0,300.40198,1127.7787,0.0,0.0,0.0,0.05314973398632094,0.0,0.0,-0.05630481148660224,-0.14983749961280984,-0.13667426623869985,0.5080647568020875,0.13179239685939687,-0.026630188465694975
5242,3.0,300.437,1236.9496,0.0,0.0,0.0,0.0531598751299932,0.0,0.0,-0.08506555789781692,-0.1294043892887189,-0.16153185471445286,0.5380665957705385,0.10684203520448789,-0.027684471141744577
5243,3.0,300.03231,1192.0828,0.0,0.0,0.0,0.053170016273665466,0.0,0.0,-0.08000570303244812,-0.12609742467234689,-0.15626028934668984,0.5047239496323755,0.09947205826387781,-0.024719518964126577
5244,3.0,300.29073,909.3127,0.0,0.0,0.0,0.053180157417337726,0.0,0.0,-0.08290407251949491,-0.1205468912870519,-0.07295739145533393,0.5462981889204335,0.12940058960084388,-0.025504812109628974
5245,3.0,300.26018,1124.0349,0.0,0.0,0.0,0.053190298561009985,0.0,0.0,-0.07246285346577683,-0.13710155380586989,-0.13211414429615087,0.5192881633897515,0.14573749454067086,-0.021957292800266082
5246,3.0,300.35208,1491.7544,0.0,0.0,0.0,0.053200439704682245,0.0,0.0,-0.14394866228412687,-0.14273640986448685,-0.16677102647651884,0.4994815861324945,0.13413702719329387,0.01062216829632639
5247,3.0,299.43811,1505.217,0.0,0.0,0.0,0.053210580848354505,0.0,0.0,-0.101253870723729,-0.16418662063895784,-0.19210787211707084,0.4734216446905785,0.12695221258920789,-0.013102040160820685
5248,3.0,299.29299,1177.8566,0.0,0.0,0.0,0.05322072199202677,0.0,0.0,-0.08650585542471323,-0.12812012518447188,-0.14341301775126286,0.49395218914428557,0.14004332282119986,-0.016078115798036485
5249,3.0,300.43051,1002.565,0.0,0.0,0.0,0.05323086313569903,0.0,0.0,-0.07020368064531383,-0.10483298317120991,-0.12971806112217588,0.5104708306220485,0.1266785742672019,-0.018113195186633183
5250,3.0,301.11357999999996,1091.7255,0.0,0.0,0.0,0.05324100427937129,0.0,0.0,-0.11857752826019088,-0.0961297220997649,-0.11715004125430889,0.5069134412434615,0.0927177807200325,-0.017306271177995984
5251,3.0,300.59541,1149.7724,0.0,0.0,0.0,0.05325114542304355,0.0,0.0,-0.0981943032782732,-0.11591503123742287,-0.13539276830722588,0.5149835932549235,0.07775512054633292,-0.04536983160615376
5252,3.0,301.00484,1111.4849,0.0,0.0,0.0,0.05326128656671581,0.0,0.0,-0.09432536685168891,-0.13904161363983886,-0.1044966550655169,0.5223489892918315,0.09689453644749622,-0.053211961815111744
5253,3.0,301.7285,876.2293599999999,0.0,0.0,0.0,0.05327142771038807,0.0,0.0,-0.024069472415471978,-0.1054391904410379,-0.13684318516287086,0.5350999210677505,0.12015146030302588,-0.030428708063329674
5254,3.0,300.88523,910.0296099999999,0.0,0.0,0.0,0.05328156885406033,0.0,0.0,-0.05235036384432865,-0.1134254352117189,-0.1108504728650899,0.5043441632298935,0.1308283805817559,-0.032333857378353266
5255,3.0,299.92184,1393.7419,0.0,0.0,0.0,0.05329170999773259,0.0,0.0,-0.12437167736702888,-0.15616440548972685,-0.14312664287549987,0.4953744477796515,0.12231886306193188,0.003600804916221777
5256,3.0,299.97772000000003,1478.6062,0.0,0.0,0.0,0.05330185114140485,0.0,0.0,-0.13991149898318986,-0.16085656405280685,-0.14869132123219087,0.4880402294483205,0.13913422469897885,-0.01166893366988409
5257,3.0,299.82169,1063.8189,0.0,0.0,0.0,0.05331199228507712,0.0,0.0,-0.08294628046566052,-0.14417457652642285,-0.09625350883798171,0.5152350312672385,0.13010675399303687,-0.022738961550160777
5258,3.0,300.14805,977.20341,0.0,0.0,0.0,0.05332213342874938,0.0,0.0,-0.07882032707171062,-0.10998991955515991,-0.1082351932969819,0.5134206955056775,0.1119831040918719,-0.014581185696550987
5259,3.0,300.77506,1199.9177,0.0,0.0,0.0,0.05333227457242164,0.0,0.0,-0.07646622183612851,-0.1280098937060929,-0.16026888912730786,0.5103318228408295,0.09150905441074052,-0.03235909845159437
5260,3.0,300.13587,1130.6936,0.0,0.0,0.0,0.0533424157160939,0.0,0.0,-0.08910874497059841,-0.12421706553426987,-0.13037680540968888,0.5228547834767495,0.12829050318878688,-0.03666939142298717
5261,3.0,300.65553,1068.0295,0.0,0.0,0.0,0.053352556859766156,0.0,0.0,-0.09130904593375122,-0.11321418269836989,-0.12013108384351488,0.5196534096532984,0.12176000496927689,-0.027195192933456576
5262,3.0,299.56104,1096.6906,0.0,0.0,0.0,0.053362698003438416,0.0,0.0,-0.08660767490076202,-0.1096009733717739,-0.13715790064393088,0.5103965593897185,0.12374359402754188,-0.000960650250676298
5263,3.0,299.10422,1179.6339,0.0,0.0,0.0,0.05337283914711069,0.0,0.0,-0.07261400403619422,-0.12481025254031289,-0.16115499660475985,0.5101477963576675,0.12558734443950587,-0.027394380677864875
5264,3.0,298.80663,1365.4014,0.0,0.0,0.0,0.05338298029078294,0.0,0.0,-0.1073142604135929,-0.14539190532906388,-0.16234175565188386,0.5026689771045656,0.15774466021318587,-0.015233481660427586
5265,3.0,298.95443,1426.3093,0.0,0.0,0.0,0.0533931214344552,0.0,0.0,-0.07950797026532573,-0.16210514148853183,-0.1919492984764208,0.5157115425242665,0.14901241005637986,-0.03261194994779887
5266,3.0,299.36643,1009.3345,0.0,0.0,0.0,0.05340326257812746,0.0,0.0,-0.10146552752386791,-0.09407356102958761,-0.1112733933243289,0.4861583200375906,0.15112082139446387,0.004539815194644876
5267,3.0,299.63602000000003,773.20412,0.0,0.0,0.0,0.05341340372179972,0.0,0.0,-0.06311521295348653,-0.08882132948698272,-0.08309820313265412,0.49957964847717257,0.1100218875958149,-0.021550616766630275
5268,3.0,300.50376,1179.6519,0.0,0.0,0.0,0.053423544865471996,0.0,0.0,-0.1182075298536749,-0.11293069558539189,-0.12744650638549088,0.4977492121715225,0.10588365259740289,-0.011415287785601188
5269,3.0,300.36045,1221.0796,0.0,0.0,0.0,0.053433686009144256,0.0,0.0,-0.11606841703756089,-0.11366807821316591,-0.14144120265915988,0.4972682831440585,0.08946612334711891,-0.025418086007069775
5270,3.0,299.98702000000003,980.20601,0.0,0.0,0.0,0.053443827152816516,0.0,0.0,-0.07837891074514622,-0.09838781479562131,-0.12119142980816287,0.49898559007604354,0.0972985820838724,-0.03496719508974347
5271,3.0,299.71269,1034.8294,0.0,0.0,0.0,0.053453968296488776,0.0,0.0,-0.05541367423565385,-0.12256379600860488,-0.13658481651987187,0.48474412687302054,0.1252114793149109,-0.04364366785504466
5272,3.0,300.61565,1302.8773,0.0,0.0,0.0,0.053464109440161035,0.0,0.0,-0.12044702535719587,-0.1287975842013319,-0.14679755679529086,0.5100919460121556,0.16250576031306985,-0.028605492177892274
5273,3.0,299.8565,1332.4456,0.0,0.0,0.0,0.0534742505838333,0.0,0.0,-0.1072601224607499,-0.15943727424023385,-0.13833279453238387,0.49847253088790855,0.15684009131891186,-0.026447239067389272
5274,3.0,300.05197000000004,1166.3118,0.0,0.0,0.0,0.05348439172750556,0.0,0.0,-0.10134423135439691,-0.12874172372331888,-0.12444371944913889,0.5180652009165545,0.14572333943677387,0.00013891942581027987
5275,3.0,300.9924,1034.756,0.0,0.0,0.0,0.05349453287117782,0.0,0.0,-0.07291595965874494,-0.1033469809720529,-0.13827705564438286,0.5268501096810575,0.1074914778560829,-0.014654663554052686
5276,3.0,300.97796,900.28719,0.0,0.0,0.0,0.05350467401485008,0.0,0.0,-0.054303154152554045,-0.10402833086929689,-0.1153333446200149,0.5641112877984494,0.12072785775491188,-0.028500679561048074
5277,3.0,301.00287000000003,1044.4673,0.0,0.0,0.0,0.05351481515852234,0.0,0.0,-0.05256678798618805,-0.14174088150873584,-0.12318431036984488,0.49635551705647557,0.1100768462812389,-0.04008423779075626
5278,3.0,300.66279,1433.6244,0.0,0.0,0.0,0.05352495630219461,0.0,0.0,-0.17195729645086383,-0.13096417636015786,-0.13286453705520887,0.4954187977365285,0.12280468608737889,-2.3289571787001776e-05
5279,3.0,300.35981,1306.5967,0.0,0.0,0.0,0.05353509744586687,0.0,0.0,-0.1287584423499689,-0.13063927771559286,-0.13777504088233786,0.4626322029882436,0.14431473941275585,-0.02008252781599118
5280,3.0,300.09137000000004,963.29151,0.0,0.0,0.0,0.05354523858953913,0.0,0.0,-0.07969336970237323,-0.1124241110653959,-0.1006990899494764,0.49309690473487555,0.15180210036420086,-0.0026975170740492077
5281,3.0,300.15111,1072.8437,0.0,0.0,0.0,0.05355537973321139,0.0,0.0,-0.045952888137696955,-0.11918715018285587,-0.16097766770475883,0.5095186693705774,0.12397077483246288,-0.03472905801149117
5282,3.0,299.53697,1248.7591,0.0,0.0,0.0,0.05356552087688365,0.0,0.0,-0.08532058788173641,-0.12996008604106188,-0.16431091602872483,0.5050788911424056,0.1005349981487818,0.0032503134993059667
5283,3.0,299.70043,1176.6009,0.0,0.0,0.0,0.053575662020555914,0.0,0.0,-0.06808085785105754,-0.13566657888174888,-0.15390986322222086,0.5364088071494275,0.09124367103729922,-0.045784464692824864
5284,3.0,300.21816,967.66235,0.0,0.0,0.0,0.053585803164228174,0.0,0.0,-0.1032912116865489,-0.09633866338963581,-0.09451531679493551,0.5352107098336845,0.13105001890862988,-0.0070642483799870336
5285,3.0,299.2312,830.3480599999999,0.0,0.0,0.0,0.053595944307900434,0.0,0.0,-0.06294384601707394,-0.11695581134263988,-0.07250541706272753,0.5257443397144265,0.1128267462576329,-0.03713211538590446
5286,3.0,299.7115,998.08255,0.0,0.0,0.0,0.053606085451572694,0.0,0.0,-0.08371751780577572,-0.1162048005010209,-0.1034698578116799,0.4937197799688485,0.09135697266348122,-0.013279492677333887
5287,3.0,300.26025,1327.7051,0.0,0.0,0.0,0.053616226595244953,0.0,0.0,-0.1098141003978079,-0.13836599873816086,-0.15540908833518285,0.4801232909844796,0.12557705995099086,-0.034255683776772766
5288,3.0,301.19625,1452.0975,0.0,0.0,0.0,0.05362636773891722,0.0,0.0,-0.08262023279548213,-0.17469088310064784,-0.18409026725579483,0.4867482443783115,0.14140934607601585,-0.02023152117694568
5289,3.0,301.05253999999996,954.61915,0.0,0.0,0.0,0.05363650888258948,0.0,0.0,-0.02969862792902637,-0.13653821714777287,-0.12394353866977488,0.5108414673761275,0.13399624622439987,-0.03342051947459847
5290,3.0,300.49501000000004,919.37947,0.0,0.0,0.0,0.05364665002626174,0.0,0.0,-0.0871286029891736,-0.11532587696677789,-0.07701392404518252,0.5031734743293556,0.12478640063295889,-0.014324930693260586
5291,3.0,299.83954,1400.6235,0.0,0.0,0.0,0.053656791169934,0.0,0.0,-0.13510371845119887,-0.13472610040393088,-0.15592476170857586,0.5257710489870625,0.11830329212062589,-0.004419204184891496
5292,3.0,300.8544,1352.3106,0.0,0.0,0.0,0.05366693231360626,0.0,0.0,-0.13691103238956687,-0.1230669962732669,-0.15109060627648185,0.5215854040164716,0.14257553614610988,-0.012221620056179988
5293,3.0,300.00009,819.6750599999999,0.0,0.0,0.0,0.053677073457278526,0.0,0.0,-0.014545881023316685,-0.11290015622737791,-0.1217147126898069,0.5444314883937045,0.11051269581175391,-0.02768779257557237
5294,3.0,299.87536,805.2093,0.0,0.0,0.0,0.053687214600950786,0.0,0.0,-0.031041909798597972,-0.07610605803508314,-0.13761555531659786,0.5373962193718774,0.08491276383573733,-0.0005554515458187995
5295,3.0,299.98803,1287.2629,0.0,0.0,0.0,0.053697355744623046,0.0,0.0,-0.1054565980777559,-0.12850807838275988,-0.15733109205236986,0.5140041147807566,0.12874380088602388,-0.030311722259784072
5296,3.0,299.27644,1551.7972,0.0,0.0,0.0,0.053707496888295306,0.0,0.0,-0.1929014293303888,-0.14913069687305386,-0.12967549448547486,0.5238536859553335,0.14420025228395686,-0.003020138439014457
5297,3.0,300.16994,1286.1789,0.0,0.0,0.0,0.053717638031967566,0.0,0.0,-0.12665685018505787,-0.13851984050084387,-0.12578956889446388,0.48977380917691155,0.14003721292309687,-0.012274204696619688
5298,3.0,300.14587,974.80625,0.0,0.0,0.0,0.05372777917563983,0.0,0.0,-0.08667625774703061,-0.12319893156878788,-0.08644157281186901,0.4865073239020345,0.12790655232839387,0.007167213031298854
5299,3.0,299.65193999999997,1025.9949,0.0,0.0,0.0,0.05373792031931209,0.0,0.0,-0.030371473618181072,-0.12032665124531589,-0.16117869652459885,0.5187529038919255,0.13230206165969688,-0.028217867272636674
5300,3.0,300.23908,1320.0088,0.0,0.0,0.0,0.053748061462984345,0.0,0.0,-0.07047157789225322,-0.13911273366435786,-0.19166539593090182,0.5054032628969185,0.13664221713803687,-0.022714932324039275
5301,3.0,300.70507000000003,1131.3102,0.0,0.0,0.0,0.05375820260665661,0.0,0.0,-0.06569292323438673,-0.12887934335190088,-0.14931779350401886,0.5059586759392335,0.08370474882801551,-0.038743031057389465
5302,3.0,300.49253999999996,694.95835,0.0,0.0,0.0,0.05376834375032887,0.0,0.0,-0.05924590871711594,-0.07120615280400014,-0.08079792579538442,0.4993255456170945,0.06668251901080224,-0.023795409541674077
5303,3.0,300.39378999999997,799.33366,0.0,0.0,0.0,0.05377848489400114,0.0,0.0,-0.049586682653324554,-0.11386141646474689,-0.07952936909418763,0.5308027577911535,0.12291328623309689,-0.04559943103906346
5304,3.0,300.73284,1349.0016,0.0,0.0,0.0,0.0537886260376734,0.0,0.0,-0.13228582939309488,-0.13491332875740888,-0.14286363354704287,0.5470272324998845,0.16226663328946986,-0.018577757185231882
5305,3.0,300.5352,1443.7258,0.0,0.0,0.0,0.05379876718134566,0.0,0.0,-0.09392618481579272,-0.14413989297549987,-0.20079053381398282,0.5062287780183905,0.12935929965926887,-0.053706136047882956
5306,3.0,299.86503999999996,1133.0209,0.0,0.0,0.0,0.05380890832501792,0.0,0.0,-0.07463642590454173,-0.12936832771765988,-0.14040531655192587,0.5034006956642806,0.12456202653081488,-0.02109473730813848
5307,3.0,300.84799,976.57815,0.0,0.0,0.0,0.05381904946869018,0.0,0.0,-0.07819465526746162,-0.10650659875888291,-0.1121541204437499,0.5211323089692546,0.14667993872368287,-0.016702686199426785
5308,3.0,300.40682999999996,1189.5567,0.0,0.0,0.0,0.05382919061236244,0.0,0.0,-0.13920994487895186,-0.11299610087934689,-0.10938947767840089,0.5266441868632346,0.15717519339198385,-0.004787420081831576
5309,3.0,299.52249,1340.3394,0.0,0.0,0.0,0.0538393317560347,0.0,0.0,-0.12850922335537288,-0.13044731748414787,-0.14847315835315986,0.4750262072839365,0.1121033464812389,-0.00948035388256308
5310,3.0,299.38482999999997,1280.2044,0.0,0.0,0.0,0.05384947289970696,0.0,0.0,-0.12093057870241888,-0.0970618503835088,-0.17115775092945484,0.47557531791062957,0.09221921911432832,0.018064534863830785
5311,3.0,300.14526,1104.5898,0.0,0.0,0.0,0.05385961404337922,0.0,0.0,-0.04165893990366726,-0.13369969831763287,-0.16040906214614184,0.49949892284170555,0.15162676756689686,-0.03448490729389537
5312,3.0,299.43928999999997,916.1617699999999,0.0,0.0,0.0,0.05386975518705148,0.0,0.0,-0.033160949116980865,-0.0958105017087603,-0.14951885272136184,0.5374452809417194,0.16495845377013185,-0.036557228689917565
5313,3.0,300.38327000000004,1258.434,0.0,0.0,0.0,0.053879896330723744,0.0,0.0,-0.11575778495440389,-0.13512740823853686,-0.13164732984257987,0.5260727948668424,0.1052606557734179,-0.03484153991834226
5314,3.0,300.39376,1382.2771,0.0,0.0,0.0,0.053890037474396,0.0,0.0,-0.14557123033176186,-0.12065673773039287,-0.15394974474615686,0.4997716593711225,0.07888294592789064,-0.018082403529344284
5315,3.0,301.17294,921.7325300000001,0.0,0.0,0.0,0.05390017861806826,0.0,0.0,-0.096884827485038,-0.09895201778255382,-0.08434682819113382,0.5252078947139835,0.12088176031260088,-0.02577429407972477
5316,3.0,299.65133,704.32732,0.0,0.0,0.0,0.05391031976174052,0.0,0.0,-0.02988419860534077,-0.09590252001659182,-0.08831119960488683,0.5426068073486224,0.14124853315264488,-0.01831967630526128
5317,3.0,300.33186,1087.5555,0.0,0.0,0.0,0.05392046090541278,0.0,0.0,-0.047369482705003955,-0.1298469870648999,-0.15337324596926086,0.5105139545463045,0.1112561275426249,-0.027171532530371474
5318,3.0,300.78287,1388.7472,0.0,0.0,0.0,0.05393060204908505,0.0,0.0,-0.10524553808192591,-0.14542217110955086,-0.17147676259093886,0.47848391311768557,0.08987827802404541,-0.02868916637115027
5319,3.0,299.90864,1314.7259,0.0,0.0,0.0,0.05394074319275731,0.0,0.0,-0.11477198379961288,-0.14879649659257085,-0.13607537463459388,0.49346534273623754,0.13405990872818285,-0.01975253454992338
5320,3.0,299.53155,971.2058099999999,0.0,0.0,0.0,0.05395088433642957,0.0,0.0,-0.08296841694059522,-0.1136645014403129,-0.09858939988976621,0.5202398078836715,0.16110292568212084,-0.032854464266483176
5321,3.0,300.03847,994.4585099999999,0.0,0.0,0.0,0.05396102548010183,0.0,0.0,-0.07907104466320453,-0.12489331878351088,-0.0983261970305401,0.5076165861503565,0.11572489485615789,-0.005775817588678814
5322,3.0,299.38681,1185.1704,0.0,0.0,0.0,0.05397116662377409,0.0,0.0,-0.0921779626100066,-0.1105911213694939,-0.15749312087586084,0.48985713886513554,0.1031055437382249,-0.02051335669226068
5323,3.0,299.94897000000003,1345.4553,0.0,0.0,0.0,0.05398130776744636,0.0,0.0,-0.07299926300246633,-0.13479067483280388,-0.2011948915313898,0.4981695083130025,0.14102575998565886,-0.03371654251781367
5324,3.0,300.36985,1149.1142,0.0,0.0,0.0,0.05399144891111862,0.0,0.0,-0.09728090897562822,-0.12854572062397487,-0.12347539685857287,0.5239173180616135,0.16769723839292883,-0.049643646560696454
5325,3.0,299.64389,774.37265,0.0,0.0,0.0,0.05400159005479088,0.0,0.0,-0.07507213965954333,-0.10250142376360291,-0.05781638913153334,0.5226323649472985,0.12286846004867287,-0.051140136911638545
5326,3.0,300.1079,1159.5610000000001,0.0,0.0,0.0,0.054011731198463135,0.0,0.0,-0.13900027303575888,-0.11482796586763788,-0.0986493508584329,0.5232053173488446,0.08641541170753711,0.011842212609235387
5327,3.0,301.30917,1539.9551,0.0,0.0,0.0,0.054021872342135395,0.0,0.0,-0.17561585885193584,-0.13761035734358487,-0.15488168152563186,0.5437347269624395,0.12857842833720287,0.02123164158214988
5328,3.0,300.28187,1229.4752,0.0,0.0,0.0,0.05403201348580767,0.0,0.0,-0.08903541099461092,-0.15225915721930885,-0.13243519259033587,0.5470066837878566,0.14337985407548987,0.0003638384335930576
5329,3.0,300.36078,1008.85,0.0,0.0,0.0,0.05404215462947993,0.0,0.0,-0.016616305615151684,-0.13817964177976885,-0.15186925858082886,0.5197715343499566,0.11594042328492889,-0.023332808182018876
5330,3.0,300.83103,1190.4878,0.0,0.0,0.0,0.05405229577315219,0.0,0.0,-0.08954189925584741,-0.14422821798671687,-0.12810846267582088,0.4981363952997345,0.1034280308475519,-0.04147371677213717
5331,3.0,299.88543,1317.3174,0.0,0.0,0.0,0.05406243691682445,0.0,0.0,-0.12281058320296089,-0.14105908578144788,-0.13656190693511086,0.5269735640732415,0.13715862005150187,-0.04109142561540796
5332,3.0,299.93162,1206.0456,0.0,0.0,0.0,0.05407257806049671,0.0,0.0,-0.11762395859108088,-0.14583895127318386,-0.1031448274446019,0.5051464242615705,0.16656889321406987,-0.06813419837607183
5333,3.0,300.45517,849.4053,0.0,0.0,0.0,0.054082719204168975,0.0,0.0,-0.05097300536064395,-0.0999410643774151,-0.10728393383809989,0.4882384211678805,0.1169484956769179,-0.015339544627895186
5334,3.0,299.33707999999996,553.14086,0.0,0.0,0.0,0.054092860347841235,0.0,0.0,0.0032784530757831265,-0.08775494556498882,-0.08366451773279501,0.5070724201841516,0.1014108018859669,-0.03926075828873516
5335,3.0,299.26894,1010.7353,0.0,0.0,0.0,0.054103001491513494,0.0,0.0,-0.04938254822192805,-0.12327479360377488,-0.13458096245960688,0.5447065857958545,0.14905298059038385,-0.010938324619028592
5336,3.0,299.75482,1617.4491,0.0,0.0,0.0,0.054113142635185754,0.0,0.0,-0.14228491575242785,-0.19642906968603982,-0.15295015325750486,0.5474740453964815,0.16016778703232984,-0.055950046282089654
5337,3.0,300.20401,1339.6576,0.0,0.0,0.0,0.054123283778858014,0.0,0.0,-0.13058259650499887,-0.14445087969619186,-0.13218899308103788,0.5116463324605615,0.11586152149964188,-0.016353502989715087
5338,3.0,301.27297999999996,954.7623199999999,0.0,0.0,0.0,0.05413342492253028,0.0,0.0,-0.09499644036641872,-0.1098188018782719,-0.0854086616069286,0.49713418962582456,0.10567834786214089,-0.025692060728108975
5339,3.0,300.68346,1254.1403,0.0,0.0,0.0,0.05414356606620254,0.0,0.0,-0.11309545005165188,-0.12274845070682888,-0.14538345482322984,0.5308913563798975,0.1320337935632209,0.034121529463532765
5340,3.0,299.84264,1540.932,0.0,0.0,0.0,0.0541537072098748,0.0,0.0,-0.1035945990314909,-0.1408736711456489,-0.22393658075081982,0.5263676101159385,0.13103250994690188,-0.004306297624923486
5341,3.0,300.84571,1415.3586,0.0,0.0,0.0,0.05416384835354706,0.0,0.0,-0.1030866263588579,-0.14391432323823786,-0.18323271316616083,0.5039357930420906,0.09608448048279991,-0.0037853117812561865
5342,3.0,300.17062000000004,1054.618,0.0,0.0,0.0,0.05417398949721932,0.0,0.0,-0.07314766867836284,-0.10378377282516091,-0.14364610580426687,0.49598483977239255,0.09679437870161141,-0.03762059008686317
5343,3.0,299.94827000000004,920.72829,0.0,0.0,0.0,0.05418413064089159,0.0,0.0,-0.11330300420213589,-0.07488789330110962,-0.09168750801835251,0.5472780524296385,0.14401375347055087,-0.03904632923632267
5344,3.0,299.52407999999997,1174.9311,0.0,0.0,0.0,0.05419427178456385,0.0,0.0,-0.12039024282159189,-0.13270777713223786,-0.1040516862841019,0.5423322267040235,0.16246397387894584,-0.049278574576166655
5345,3.0,299.81494,1242.9256,0.0,0.0,0.0,0.054204412928236106,0.0,0.0,-0.10921517839619889,-0.1128239800848599,-0.15577919819920985,0.5013837098827195,0.12048270189321689,-0.0017038967695615183
5346,3.0,299.44692000000003,1105.3007,0.0,0.0,0.0,0.054214554071908366,0.0,0.0,-0.027067893257143077,-0.14082650435349386,-0.16808940671163283,0.5114521836089004,0.10249761394322691,-0.013584542765689985
5347,3.0,300.72528,947.2493300000001,0.0,0.0,0.0,0.054224695215580626,0.0,0.0,-0.04343857590230366,-0.10778854252040089,-0.13671302305502486,0.5323222479061155,0.12725321879641488,0.005588998892216245
5348,3.0,299.62986,1095.5767,0.0,0.0,0.0,0.05423483635925289,0.0,0.0,-0.07008199437455433,-0.13596458586865987,-0.12698137392708586,0.5552956370259124,0.13631412675565688,-0.057215692928999244
5349,3.0,299.71637000000004,1616.085,0.0,0.0,0.0,0.05424497750292515,0.0,0.0,-0.1323553991449609,-0.1938461330611238,-0.16504793388646286,0.5059913329899566,0.09211106479865432,-0.04931088104235505
5350,3.0,300.19326,1386.7267,0.0,0.0,0.0,0.05425511864659741,0.0,0.0,-0.13638762791791087,-0.13141099938925588,-0.15373166292713386,0.5098765797034005,0.09470039097870091,-0.041298637287358164
5351,3.0,300.068,924.4521199999999,0.0,0.0,0.0,0.05426525979026967,0.0,0.0,-0.05933646693155335,-0.1031881033563729,-0.11848579872863789,0.4960515116289725,0.1196732670508319,-0.023044599323574878
5352,3.0,299.99777,951.4106099999999,0.0,0.0,0.0,0.05427540093394193,0.0,0.0,-0.04698512958432126,-0.08711189652152482,-0.15510804159797184,0.5260296202800815,0.13259468828857687,-0.026866875583054173
5353,3.0,301.23831,1092.4292,0.0,0.0,0.0,0.0542855420776142,0.0,0.0,-0.07929670863272584,-0.08231843118694662,-0.17045605497020283,0.5000068955143385,0.09865604236209331,0.007461187282811852
5354,3.0,300.81741,1123.647,0.0,0.0,0.0,0.05429568322128646,0.0,0.0,-0.09673350162235331,-0.1224057796555099,-0.12242133304454489,0.5046194430170615,0.1097105057075839,-0.037683282910300465
5355,3.0,300.44121,1179.0639,0.0,0.0,0.0,0.05430582436495872,0.0,0.0,-0.10569620132890291,-0.1241956960896609,-0.12851409708835387,0.5199718538947266,0.13958266892823687,-0.04291775217865236
5356,3.0,300.32475,1173.7604,0.0,0.0,0.0,0.05431596550863098,0.0,0.0,-0.13729788114524585,-0.1177960692530669,-0.1016998922719979,0.5361342569023314,0.14616355607521989,-0.04153276088196436
5357,3.0,300.57611,1235.4379,0.0,0.0,0.0,0.05432610665230324,0.0,0.0,-0.10064344022748421,-0.14581737917855486,-0.12908145634934787,0.5373269637275424,0.12991917100202385,-0.03911125424973026
5358,3.0,300.41622,1371.674,0.0,0.0,0.0,0.0543362477959755,0.0,0.0,-0.1053624063484599,-0.13465974265488187,-0.17693249629687782,0.5291824898212455,0.1200597206389719,0.016137416260138985
5359,3.0,300.44152,1306.944,0.0,0.0,0.0,0.054346388939647765,0.0,0.0,-0.1096896023580209,-0.12303180609729387,-0.16455692302050384,0.5228304654743495,0.13661353202770588,-0.004786427198058585
5360,3.0,299.77961,1072.7617,0.0,0.0,0.0,0.054356530083320025,0.0,0.0,-0.08405606796893803,-0.11939926395878987,-0.12263743902587287,0.5256574535183516,0.12783364898369887,-0.024589850309079272
5361,3.0,300.08718,967.59827,0.0,0.0,0.0,0.054366671226992284,0.0,0.0,-0.07391591794393314,-0.1093469414392029,-0.1108628547813119,0.5198556543732585,0.095127071609061,-0.04870488250204766
5362,3.0,298.99159,1125.1723,0.0,0.0,0.0,0.054376812370664544,0.0,0.0,-0.08139537858434842,-0.13550081116538887,-0.1251281090966829,0.5025211844449795,0.12477985503731287,-0.04512821097405766
5363,3.0,299.87286,1151.4903,0.0,0.0,0.0,0.054386953514336804,0.0,0.0,-0.07539098413476084,-0.11832294917256587,-0.15631036416663185,0.5151862331424225,0.15552256221388186,-0.037630657739856764
5364,3.0,300.03442,920.2466400000001,0.0,0.0,0.0,0.054397094658009064,0.0,0.0,-0.05737914435563065,-0.1108025461353599,-0.11155031457665888,0.5078678215126515,0.16069798027965584,-0.04266297145425746
5365,3.0,300.72367,853.37849,0.0,0.0,0.0,0.054407235801681324,0.0,0.0,-0.07579206702784462,-0.10559098543851889,-0.07802270165924113,0.5185847955678344,0.13644453204352686,-0.012760746116387589
5366,3.0,301.29859,1091.3948,0.0,0.0,0.0,0.054417376945353584,0.0,0.0,-0.06701585194919964,-0.12441222763603088,-0.14032870471186487,0.5482122183593334,0.11264497932219389,-0.02049748108969388
5367,3.0,300.8707,1459.8145,0.0,0.0,0.0,0.05442751808902584,0.0,0.0,-0.1057694491786319,-0.2002358807092428,-0.13774180627905788,0.5562706875971425,0.12183174307635689,-0.04809843813169625
5368,3.0,300.49104,1499.4992,0.0,0.0,0.0,0.05443765923269811,0.0,0.0,-0.1162996103128779,-0.15025464454647885,-0.18925605944561882,0.5099935492949444,0.11241829500982188,-0.026181437221656674
5369,3.0,300.46643,1281.4094,0.0,0.0,0.0,0.05444780037637037,0.0,0.0,-0.1164089298661669,-0.13678082975171688,-0.13632670118939788,0.5079410186998755,0.11025942381675789,-0.015060827896387985
5370,3.0,299.15205,1034.1859,0.0,0.0,0.0,0.05445794152004263,0.0,0.0,-0.0988801236349584,-0.0989003349347031,-0.1165862182361639,0.4925322407191475,0.14129677398990587,0.01103082624715779
5371,3.0,298.48416000000003,1147.0437,0.0,0.0,0.0,0.05446808266371489,0.0,0.0,-0.11450956215621388,-0.10877832574808491,-0.1253847450820109,0.5378846768475845,0.16678913325580585,-0.007515767316673482
5372,3.0,299.79092,1477.6898,0.0,0.0,0.0,0.05447822380738715,0.0,0.0,-0.12077833787489388,-0.14460067859097586,-0.18380179495232482,0.5051807633074595,0.11121469574603589,-0.01045849699442329
5373,3.0,299.22547000000003,1165.8474,0.0,0.0,0.0,0.054488364951059416,0.0,0.0,-0.0935325209399411,-0.11716698279598088,-0.14368899668099985,0.5102307916733585,0.10922720567488589,-0.03519396654162407
5374,3.0,300.34668,789.48037,0.0,0.0,0.0,0.054498506094731676,0.0,0.0,-0.03101828587251647,-0.08869408959242511,-0.12026993963721888,0.4958025054168975,0.11541980525104789,-0.01972262340697138
5375,3.0,299.75552999999996,1056.0981,0.0,0.0,0.0,0.054508647238403936,0.0,0.0,-0.056216889748925046,-0.13304585816060388,-0.13176471486666488,0.5438812125293965,0.15291470976900684,-0.015126168342336585
5376,3.0,300.61256000000003,1356.5952,0.0,0.0,0.0,0.054518788382076196,0.0,0.0,-0.14756212492324786,-0.12021911501220288,-0.14458983681490586,0.5073919992656916,0.15168130068727886,-0.01046481460879679
5377,3.0,300.04555,1302.6701,0.0,0.0,0.0,0.054528929525748455,0.0,0.0,-0.12871017111520489,-0.15068234754618984,-0.11658666406620788,0.5120687564272515,0.11697965311749288,-0.02492254996616418
5378,3.0,301.48854,1229.3954,0.0,0.0,0.0,0.05453907066942072,0.0,0.0,-0.09752855844581931,-0.13429975515935388,-0.14187720417718988,0.5304150579053905,0.11946658429543389,-0.005607759116492734
5379,3.0,299.92401,1105.9728,0.0,0.0,0.0,0.05454921181309298,0.0,0.0,-0.06472910758026554,-0.15006452843021587,-0.12139448512820289,0.5470035325800455,0.13740267147058788,-0.03227868185740787
5380,3.0,299.58308,1226.4014,0.0,0.0,0.0,0.05455935295676524,0.0,0.0,-0.06799282769561964,-0.17032252887202484,-0.13448006301464888,0.5581782018378995,0.1095953599662199,-0.03132012294480547
5381,3.0,299.07409,1223.4901,0.0,0.0,0.0,0.0545694941004375,0.0,0.0,-0.1114146606532709,-0.1059839643573029,-0.15451180470912787,0.5111017206643126,0.07487913274074502,-0.012619974266744487
5382,3.0,298.12016,890.70383,0.0,0.0,0.0,0.05457963524410976,0.0,0.0,-0.08966420766216833,-0.10068827857090941,-0.08039923822553702,0.5191474330833625,0.1097138696979159,-0.02084643530488298
5383,3.0,298.38937999999996,754.14679,0.0,0.0,0.0,0.054589776387782035,0.0,0.0,-0.042861823812882664,-0.09438891181846032,-0.0919910574833105,0.5115213987232315,0.13601624135875787,-0.04818397062563765
5384,3.0,300.07137,1109.7843,0.0,0.0,0.0,0.054599917531454295,0.0,0.0,-0.07228838497080814,-0.12304474530107087,-0.14201359777315087,0.5262930450410795,0.13494352361038886,-0.05278643021036505
5385,3.0,299.89014,1377.9803,0.0,0.0,0.0,0.054610058675126555,0.0,0.0,-0.09236419392538622,-0.15640165800064185,-0.17010574401312983,0.49728519428822754,0.09794105256152931,-0.027821005579469475
5386,3.0,300.07565,1278.3552,0.0,0.0,0.0,0.054620199818798815,0.0,0.0,-0.07547701514775143,-0.12202842505326789,-0.19108261500338583,0.5202876028908885,0.11564066337534488,-0.005024113177366365
5387,3.0,299.76153999999997,1177.47,0.0,0.0,0.0,0.05463034096247107,0.0,0.0,-0.08104795437681032,-0.1230248552016079,-0.15384865278367985,0.5212009870610325,0.15010534214424387,0.006749823499055714
5388,3.0,299.9537,1260.1992,0.0,0.0,0.0,0.05464048210614334,0.0,0.0,-0.14001799156869985,-0.12606329840897887,-0.11698780978079788,0.5327910685948846,0.14295759222881585,0.009198409746837362
5389,3.0,300.2249,1469.7671,0.0,0.0,0.0,0.0546506232498156,0.0,0.0,-0.14673715695682987,-0.13168390817118986,-0.16835142305499184,0.5300045092298725,0.11573008269666989,-0.004865198071432665
5390,3.0,299.62312000000003,1376.4652,0.0,0.0,0.0,0.05466076439348786,0.0,0.0,-0.14269357978275987,-0.14841472421989285,-0.12730273632880187,0.5201194540367935,0.11810433033098988,-0.01931917254840388
5391,3.0,299.60303,1066.1204,0.0,0.0,0.0,0.05467090553716012,0.0,0.0,-0.05749594777415824,-0.1124798296883949,-0.15409819601830785,0.5325916508427035,0.12944492942521987,-0.027629388839808373
5392,3.0,300.53657999999996,975.03605,0.0,0.0,0.0,0.05468104668083238,0.0,0.0,-0.03456338554064057,-0.12947364493305388,-0.13234958308938688,0.5206875732353625,0.11842645267028089,-0.04358797355004806
5393,3.0,298.17101,919.72864,0.0,0.0,0.0,0.05469118782450465,0.0,0.0,-0.07103148165901144,-0.0976844996627095,-0.11085855860088789,0.5154344186219165,0.1019343178151339,-0.013002980778044288
5394,3.0,298.72233,1105.7843,0.0,0.0,0.0,0.05470132896817691,0.0,0.0,-0.11424216545482391,-0.07754391970873903,-0.14434473161571587,0.5404336999916535,0.13359043955934988,-0.014044442800578589
5395,3.0,299.44327000000004,1198.6767,0.0,0.0,0.0,0.05471147011184917,0.0,0.0,-0.1151413539910669,-0.13864902988859387,-0.1105774120956409,0.5235663687569775,0.16362275709080884,-0.057257403369365745
5396,3.0,299.94993,945.0531699999999,0.0,0.0,0.0,0.05472161125552143,0.0,0.0,-0.07826938448883683,-0.0993595398800231,-0.1096436413334849,0.5141083680835454,0.14698080307587585,-0.06541871039957403
5397,3.0,300.73201,1100.4068,0.0,0.0,0.0,0.05473175239919369,0.0,0.0,-0.06744787443408694,-0.12466424320090289,-0.14238406227471287,0.5209628023600255,0.12543977469494189,-0.03130951928250897
5398,3.0,300.11515,1377.1439,0.0,0.0,0.0,0.05474189354286595,0.0,0.0,-0.08277412218091983,-0.15904220802624383,-0.17680102709640283,0.5388468692750455,0.11597026350037389,-0.010049851810543152
5399,3.0,299.19811,1263.4793,0.0,0.0,0.0,0.05475203468653821,0.0,0.0,-0.1133469589914739,-0.1041643596952219,-0.16655482930268184,0.5389436245270944,0.12160577817155589,0.031141709867197467
5400,3.0,300.6402,1195.7722,0.0,0.0,0.0,0.05476217583021047,0.0,0.0,-0.07626731678849813,-0.13906171652182286,-0.14815585908434487,0.5103968127022436,0.1016814308551759,-0.01098238275987679
5401,3.0,300.68073,1065.8801,0.0,0.0,0.0,0.05477231697388273,0.0,0.0,-0.08826503187733042,-0.1216497228283929,-0.11408619586693089,0.5248483834460025,0.10540871187802991,-0.01979960913631928
5402,3.0,299.20067,1048.9157,0.0,0.0,0.0,0.05478245811755499,0.0,0.0,-0.09389098146756841,-0.1113288383698009,-0.11362436660385189,0.5215940065098206,0.11062491326032889,-0.03238534973518517
5403,3.0,300.2772,1233.2789,0.0,0.0,0.0,0.05479259926122726,0.0,0.0,-0.07900973492615372,-0.16088036529765584,-0.13499587824305587,0.5526379022786144,0.14573784917820587,-0.07111248796475614
5404,3.0,299.14459,1072.2982,0.0,0.0,0.0,0.05480274040489952,0.0,0.0,-0.07574673827137103,-0.0992805772997301,-0.15092455485009384,0.49689698777741453,0.12282712957709388,-0.034477570349921265
5405,3.0,298.87564,862.21945,0.0,0.0,0.0,0.05481288154857178,0.0,0.0,-0.05985132159886554,-0.1071822237930619,-0.0950596408281561,0.5278680713940225,0.11894538870899589,-0.02653777803007477
5406,3.0,299.25531,1052.3267,0.0,0.0,0.0,0.05482302269224404,0.0,0.0,-0.08449516597927362,-0.1105102640115139,-0.12487561730426389,0.5010416569139615,0.12107926302209289,0.006079739625698584
5407,3.0,299.36625,1338.0041,0.0,0.0,0.0,0.0548331638359163,0.0,0.0,-0.13187082241713688,-0.13872035256313286,-0.13612865132485188,0.5467792902004145,0.12307088715365089,-0.011972304802824489
5408,3.0,300.20032000000003,1519.9023,0.0,0.0,0.0,0.054843304979588565,0.0,0.0,-0.13656770272568286,-0.17739618994014084,-0.14804844444124385,0.5200298016679455,0.12761214237933788,-0.02066050593803318
5409,3.0,300.45349,1295.5684,0.0,0.0,0.0,0.054853446123260825,0.0,0.0,-0.08982279346181951,-0.13780919754320886,-0.16618846846402482,0.4991794653501775,0.1151034483048259,-0.04455576013131116
5410,3.0,299.94043999999997,1109.5843,0.0,0.0,0.0,0.054863587266933085,0.0,0.0,-0.08601721759048842,-0.11531936176863489,-0.13594935671965686,0.5223258466595475,0.11725138652931089,0.0030173596006152076
5411,3.0,301.52922,1088.7442,0.0,0.0,0.0,0.054873728410605345,0.0,0.0,-0.07607959700872163,-0.12876795676840788,-0.12610349404044588,0.5256747496975586,0.13595769576797984,-0.013105148812127487
5412,3.0,301.00004,1087.3475,0.0,0.0,0.0,0.054883869554277605,0.0,0.0,-0.09413710903610932,-0.10902839587276489,-0.12736096781204886,0.5487561918080195,0.13294893065603788,-0.012686118220022387
5413,3.0,299.49702,1164.5505,0.0,0.0,0.0,0.054894010697949865,0.0,0.0,-0.0941689585265026,-0.15037028678039185,-0.1094550349598709,0.5256288190705255,0.08739461761742721,-0.03971472169128786
5414,3.0,300.5518,1143.518,0.0,0.0,0.0,0.054904151841622124,0.0,0.0,-0.0864772483346399,-0.13766129342611189,-0.12346238672728889,0.5220086993782476,0.1172407170057579,-0.05968039947924684
5415,3.0,300.59465,981.9725800000001,0.0,0.0,0.0,0.054914292985294384,0.0,0.0,-0.03313870321103537,-0.1146923727392559,-0.15066406851438585,0.5272327737138235,0.13298154717675686,-0.06323526687833493
5416,3.0,300.78502000000003,1200.4744,0.0,0.0,0.0,0.05492443412896665,0.0,0.0,-0.08655249532681622,-0.14662688494844686,-0.13173486451871888,0.5220327438031205,0.14429831462863485,-0.03873352170520097
5417,3.0,300.22407000000004,1402.6271,0.0,0.0,0.0,0.05493457527263891,0.0,0.0,-0.11700773027776389,-0.1295215919277859,-0.17983428246326183,0.49254820954072354,0.1218711889027499,0.006326188495846194
5418,3.0,298.91466,1175.1581,0.0,0.0,0.0,0.05494471641631117,0.0,0.0,-0.1090360763085229,-0.1114461423338779,-0.13673648992734086,0.5035962630660815,0.13777093721943287,0.01236455519478659
5419,3.0,299.34056,1129.0821,0.0,0.0,0.0,0.05495485755998343,0.0,0.0,-0.11452905708813788,-0.1028442468024369,-0.12583948159438987,0.49842601257581753,0.15447793175828486,0.001009362765991349
5420,3.0,299.91271,1320.1279,0.0,0.0,0.0,0.05496499870365569,0.0,0.0,-0.08800950945386232,-0.15334221011869784,-0.15993420248677684,0.5404180858076125,0.14304615028755585,-0.015405307599135484
5421,3.0,299.40119,1286.7086,0.0,0.0,0.0,0.05497513984732795,0.0,0.0,-0.08808042986811161,-0.14807143508601286,-0.15497541729238284,0.5249508432961145,0.12263697293082687,-0.036619528372316065
5422,3.0,299.88506,1241.6819,0.0,0.0,0.0,0.05498528099100021,0.0,0.0,-0.09454832037719273,-0.13616563495350187,-0.14672634557826286,0.5393150110862475,0.11940506988186289,-0.016974886719540883
5423,3.0,300.05295,1129.455,0.0,0.0,0.0,0.05499542213467248,0.0,0.0,-0.07053889012289644,-0.1406636750624239,-0.13212356752208088,0.5284644298728786,0.11263739007894491,-0.03858673013671376
5424,3.0,300.24766,1005.3125,0.0,0.0,0.0,0.055005563278344737,0.0,0.0,-0.06930576880419684,-0.11776771851526889,-0.1185164191466599,0.5458577898969694,0.12808875496137587,-0.015968026174671485
5425,3.0,300.78536,1123.1114,0.0,0.0,0.0,0.055015704422016996,0.0,0.0,-0.09891211599361581,-0.1123879380368259,-0.13009776646464988,0.5215325832887585,0.12582184091014886,-0.029325633341964672
5426,3.0,300.1713,1120.6628,0.0,0.0,0.0,0.055025845565689256,0.0,0.0,-0.07538514274793434,-0.12116624041067689,-0.14410211901177186,0.5216362489064895,0.12860984922280388,-0.030663911782542474
5427,3.0,300.88137,1164.0599,0.0,0.0,0.0,0.055035986709361516,0.0,0.0,-0.08151374342128012,-0.1143427609247519,-0.15798865083726585,0.5145762768472245,0.16009444799009184,-0.03027455016661547
5428,3.0,299.8235,1081.0549,0.0,0.0,0.0,0.05504612785303378,0.0,0.0,-0.08540047555937073,-0.1124018296956969,-0.13081138837757889,0.5080630950719235,0.15028209349168786,-0.02684827332446827
5429,3.0,298.83132,1120.7161,0.0,0.0,0.0,0.05505626899670604,0.0,0.0,-0.08535388631977273,-0.11709328911620788,-0.13822253265650186,0.5030425624164355,0.12959455606748688,-0.01108672522867459
5430,3.0,299.95034,1238.8419999999999,0.0,0.0,0.0,0.0550664101403783,0.0,0.0,-0.12083328642781689,-0.1261296865555309,-0.12961407126441288,0.5256317980258195,0.11040051889318289,0.013079434551089687
5431,3.0,299.78988,1132.4721,0.0,0.0,0.0,0.05507655128405056,0.0,0.0,-0.08510920060612412,-0.14852557378083286,-0.11060847834370689,0.5525122086037095,0.12561798512252986,-0.015264123356701687
5432,3.0,298.50937999999996,1056.7224,0.0,0.0,0.0,0.05508669242772282,0.0,0.0,-0.06269072195659253,-0.11901928503878888,-0.13950722232579085,0.5177246779554475,0.1041085701447159,-0.04904351777821836
5433,3.0,299.35323999999997,1179.9398,0.0,0.0,0.0,0.05509683357139509,0.0,0.0,-0.07945746988034172,-0.14672972983359686,-0.13248504449525586,0.5327428074926215,0.1102653513298429,-0.046246449996419255
5434,3.0,300.10107999999997,1166.3728,0.0,0.0,0.0,0.05510697471506735,0.0,0.0,-0.08282185436663062,-0.1338346024359469,-0.13789173689635487,0.5243401878583475,0.11204601679058089,-0.040835549567654957
5435,3.0,300.53742,1049.5262,0.0,0.0,0.0,0.05511711585873961,0.0,0.0,-0.08767325632867672,-0.1046283573135149,-0.12672814246209388,0.5387928630447155,0.14446982747306186,-0.040694608505245165
5436,3.0,300.77845,1098.5066,0.0,0.0,0.0,0.05512725700241187,0.0,0.0,-0.12436870854423589,-0.1023593559670819,-0.10719053244388191,0.5256727535948615,0.1131142053110029,0.009786294921732112
5437,3.0,300.19602000000003,1060.8389,0.0,0.0,0.0,0.05513739814608413,0.0,0.0,-0.09115226777227842,-0.08611388671627891,-0.14520237689785886,0.5266771377564865,0.1098993856587249,0.0015481159501621485
5438,3.0,299.34392,1239.1883,0.0,0.0,0.0,0.0551475392897564,0.0,0.0,-0.07826808752870883,-0.13422929374739986,-0.16418490824628884,0.5327997217507385,0.09363140807020051,-0.005100725118752375
5439,3.0,300.20877,1375.9034,0.0,0.0,0.0,0.055157680433428655,0.0,0.0,-0.08910495338872422,-0.14749878665949684,-0.18163654028363083,0.5214708864901695,0.13176144206884188,-0.03243232806282157
5440,3.0,299.60467,1441.8567,0.0,0.0,0.0,0.055167821577100914,0.0,0.0,-0.10313630601126089,-0.16555093150110484,-0.16960120625833583,0.5220423595465695,0.11590839444926788,-0.006527158344530374
5441,3.0,298.62185,1289.7162,0.0,0.0,0.0,0.055177962720773174,0.0,0.0,-0.0986736232645784,-0.16694753464393886,-0.1264203778767199,0.5025795375182386,0.12441679739398188,-0.04133981374492196
5442,3.0,299.22632000000004,1134.5988,0.0,0.0,0.0,0.055188103864445434,0.0,0.0,-0.12771631462211888,-0.1296067657311919,-0.08756660871590141,0.5165496320794796,0.12662455790437088,-0.007494060358456174
5443,3.0,301.2283,1100.1449,0.0,0.0,0.0,0.05519824500811771,0.0,0.0,-0.062377498992929846,-0.14926914736671787,-0.12276993160894889,0.5461076979016335,0.15944748780124185,-0.042823681026118256
5444,3.0,300.23522,944.69786,0.0,0.0,0.0,0.05520838615178997,0.0,0.0,-0.031053059602698368,-0.13118603760205388,-0.12492545907668288,0.5429438041993815,0.13205399777021487,-0.04046339800467646
5445,3.0,300.90611,972.00239,0.0,0.0,0.0,0.05521852729546223,0.0,0.0,-0.03814003275062817,-0.11319603538907888,-0.14412838245436388,0.5269866653970344,0.11583286678681388,-0.049630118658611354
5446,3.0,300.38256,1093.1057,0.0,0.0,0.0,0.05522866843913449,0.0,0.0,-0.07396921185944284,-0.11569431496813988,-0.14261332024233886,0.5178072173085936,0.10778331414988489,-0.042150643832694665
5447,3.0,300.59018,1135.9803,0.0,0.0,0.0,0.05523880958280675,0.0,0.0,-0.1043448398030339,-0.12385305543584488,-0.1171117505330299,0.5127676051537225,0.14665192235841784,-0.04556037430070886
5448,3.0,299.95219,1149.7662,0.0,0.0,0.0,0.055248950726479014,0.0,0.0,-0.12013943302433888,-0.1051077259358249,-0.12425304604532088,0.5217234796075985,0.1289365311875449,-0.01192805819745769
5449,3.0,300.42141000000004,1307.9386,0.0,0.0,0.0,0.055259091870151274,0.0,0.0,-0.1080049727417609,-0.14019443894111386,-0.14938127362278386,0.5159616126489465,0.1230913953356749,-0.018860761991162284
5450,3.0,299.59972999999997,1384.7246,0.0,0.0,0.0,0.055269233013823534,0.0,0.0,-0.10408572135496091,-0.13246392836317186,-0.18437204197610382,0.5230839401193655,0.1199461960977679,-0.013391924934930088
5451,3.0,300.88919,1388.5681,0.0,0.0,0.0,0.05527937415749579,0.0,0.0,-0.08061359533719242,-0.16301811022613483,-0.1784583394899668,0.5306855956820905,0.13671976116818987,-0.015657297832754984
5452,3.0,299.63363,1135.5962,0.0,0.0,0.0,0.05528951530116805,0.0,0.0,-0.05125113542034325,-0.13814764334161087,-0.15579411324068185,0.5264839514924206,0.12730424607145088,-0.014956436791585384
5453,3.0,300.36825,965.8678699999999,0.0,0.0,0.0,0.05529965644484032,0.0,0.0,-0.1097295041469589,-0.07018590215905923,-0.11368430034726688,0.5149521217068176,0.1192521603092719,0.017430743886530483
5454,3.0,299.39871,939.6351900000001,0.0,0.0,0.0,0.05530979758851258,0.0,0.0,-0.1017356498680269,-0.09855100784347721,-0.08533898039755161,0.5303908209629985,0.13553212059347886,-0.008308146120125181
5455,3.0,299.37811,1129.8493,0.0,0.0,0.0,0.05531993873218484,0.0,0.0,-0.0987637265297209,-0.10857030550255489,-0.13611194283070288,0.5013275656946785,0.16205299963838585,-0.024589019443997273
5456,3.0,299.65631,1377.7987,0.0,0.0,0.0,0.0553300798758571,0.0,0.0,-0.10880158997038089,-0.14109617073510786,-0.16891863032847085,0.5439915757302886,0.12256823404404288,-0.03312202714088957
5457,3.0,299.75368,1376.9463,0.0,0.0,0.0,0.05534022101952936,0.0,0.0,-0.08283042646247663,-0.16467613189476882,-0.17105074158639383,0.5171888307725635,0.11989441901765788,-0.04240675799422116
5458,3.0,299.92339,1287.2393,0.0,0.0,0.0,0.055350362163201626,0.0,0.0,-0.09077907256169691,-0.14353155788046187,-0.15697798452502085,0.5612095117645665,0.09991453647654701,-0.027287868840602972
5459,3.0,300.06796,1262.1017,0.0,0.0,0.0,0.055360503306873886,0.0,0.0,-0.12286019192785687,-0.15012350971853686,-0.1106637004741569,0.5434256350194345,0.12492175058131687,-0.018756733629895484
5460,3.0,300.39995,1172.1863,0.0,0.0,0.0,0.055370644450546146,0.0,0.0,-0.11980003477084289,-0.13029983893209288,-0.1062155021376539,0.5412035674176334,0.1262097434459319,-0.01799366713858668
5461,3.0,301.08738,1139.6842,0.0,0.0,0.0,0.055380785594218405,0.0,0.0,-0.0909411540741931,-0.12445547315029888,-0.13103891368753387,0.5233122152343945,0.11872994134023289,-0.01971532091350068
5462,3.0,300.6446,1004.2427,0.0,0.0,0.0,0.055390926737890665,0.0,0.0,-0.051989125998177246,-0.12422077402963588,-0.1290548180042189,0.5210196659556375,0.12441496341130089,-0.025319745018614274
5463,3.0,299.27109,917.04715,0.0,0.0,0.0,0.05540106788156293,0.0,0.0,-0.02038855670394388,-0.11776427346492889,-0.14060660881679188,0.5005270575856745,0.15810535698378386,-0.05174785291086545
5464,3.0,299.46039,1181.4042,0.0,0.0,0.0,0.05541120902523519,0.0,0.0,-0.08137601030868692,-0.14084020349484586,-0.1369011532010919,0.5148672822759445,0.12215731046598788,-0.03212697197293527
5465,3.0,299.38709,1366.3684,0.0,0.0,0.0,0.05542135016890745,0.0,0.0,-0.14136089245623387,-0.13916274768929388,-0.1348182352355239,0.5297495856372135,0.12051324125123089,-0.03090277536111647
5466,3.0,299.99773,1226.8705,0.0,0.0,0.0,0.05543149131257971,0.0,0.0,-0.12444255421152388,-0.12057309393463789,-0.12792233876495188,0.5538914446398295,0.13411708643132586,-0.007199789224663873
5467,3.0,300.39113,1054.7544,0.0,0.0,0.0,0.05544163245625197,0.0,0.0,-0.07324483530995243,-0.1363523161519259,-0.11102186411950489,0.5710485654031054,0.14064602424568187,-0.03521330340653247
5468,3.0,299.82362,1269.7629,0.0,0.0,0.0,0.05545177359992423,0.0,0.0,-0.10395354287941591,-0.12931174783207589,-0.15271094517389686,0.5350196209973255,0.12230762611832288,-0.016279484056659983
5469,3.0,300.61634,1415.7051,0.0,0.0,0.0,0.05546191474359649,0.0,0.0,-0.10623637508971388,-0.13688149614915185,-0.18722111887228582,0.5239730366846125,0.10807295169096989,-0.031265068000621975
5470,3.0,301.06115,1236.0815,0.0,0.0,0.0,0.05547205588726875,0.0,0.0,-0.11420065259822688,-0.14141259860883687,-0.12012465983788088,0.5118243807681335,0.12098856700564188,-0.003452028694763707
5471,3.0,300.64858,986.6666,0.0,0.0,0.0,0.05548219703094101,0.0,0.0,-0.11324137833105388,-0.08344970668509483,-0.1032309233055989,0.5415511122019335,0.14365825467296586,-0.010837990567626389
5472,3.0,300.10701,1097.3256,0.0,0.0,0.0,0.05549233817461328,0.0,0.0,-0.11091384152634388,-0.11476694794661588,-0.10787878257430689,0.5249065034717385,0.10634317165025389,-0.006181806030796754
5473,3.0,300.23867,1256.2094,0.0,0.0,0.0,0.05550247931828554,0.0,0.0,-0.089061857835471,-0.13222623002221287,-0.16056819307434686,0.5458346979271905,0.12611245117132988,-0.025268343854291372
5474,3.0,300.28351000000004,1371.7221,0.0,0.0,0.0,0.0555126204619578,0.0,0.0,-0.08607116707881282,-0.14085608112391287,-0.19004203754818882,0.5415973974665015,0.12797731771537788,-0.039209087599885666
5475,3.0,299.23516,1235.0729,0.0,0.0,0.0,0.05552276160563006,0.0,0.0,-0.04479226587690246,-0.17565208254301082,-0.15498696834352285,0.5470646214285745,0.15744180989079684,-0.058389946443389046
5476,3.0,299.72,1084.4936,0.0,0.0,0.0,0.05553290274930232,0.0,0.0,-0.07514142164838093,-0.13619277992368087,-0.11832478315524689,0.5145370336708516,0.12734564747053687,-0.04470892301642716
5477,3.0,299.81949,1022.0022,0.0,0.0,0.0,0.055543043892974577,0.0,0.0,-0.0949234701472171,-0.1022553357118159,-0.1134843354400319,0.5196828344362024,0.1142801724660749,-0.02272096825488498
5478,3.0,300.33527999999995,1194.2941,0.0,0.0,0.0,0.05555318503664684,0.0,0.0,-0.09549369589274401,-0.11871911982916489,-0.14882276003516287,0.5152049377392686,0.13186897830195488,-0.01033178702966799
5479,3.0,299.6547,1184.6736,0.0,0.0,0.0,0.0555633261803191,0.0,0.0,-0.08889758770275882,-0.11971107141206289,-0.15150254310463684,0.5318462230091355,0.12846013138802787,-0.007001795190198383
5480,3.0,299.91436,928.2142699999999,0.0,0.0,0.0,0.05557346732399136,0.0,0.0,-0.03987778402988086,-0.1057533081045389,-0.13652287654125886,0.5324532104815405,0.11867280416709389,-0.05237021848003815
5481,3.0,300.63382,1084.8089,0.0,0.0,0.0,0.05558360846766362,0.0,0.0,-0.08465406284670551,-0.1083624068470369,-0.13673834417502387,0.5134369683022835,0.13183415289601785,-0.02635580945786587
5482,3.0,301.83537,1274.2974,0.0,0.0,0.0,0.05559374961133588,0.0,0.0,-0.1101497090959299,-0.12255975314070588,-0.15464511802478484,0.5385049378962995,0.15585783653947086,-0.02371531212126908
5483,3.0,301.26986,1220.479,0.0,0.0,0.0,0.05560389075500815,0.0,0.0,-0.12893352183474788,-0.13526777377488988,-0.10679384502973188,0.5364643028574044,0.14199333277115087,-0.0006404968387146164
5484,3.0,300.38212999999996,1156.1111,0.0,0.0,0.0,0.05561403189868041,0.0,0.0,-0.09168472158057751,-0.1189470909691639,-0.14079708970309085,0.5122026979579705,0.13291228139992087,-0.019229341847538283
5485,3.0,300.31131,1235.5397,0.0,0.0,0.0,0.05562417304235267,0.0,0.0,-0.09616161313341232,-0.11530405155962388,-0.16410755673365485,0.5297832458055355,0.12098011649980789,0.005004079399039185
5486,3.0,300.14718999999997,1195.5196,0.0,0.0,0.0,0.05563431418602493,0.0,0.0,-0.06349651011186765,-0.1284461282716459,-0.17146547498482484,0.5258148315238835,0.16483075386002885,-0.024740966428993275
5487,3.0,300.31802999999996,1299.3287,0.0,0.0,0.0,0.05564445532969719,0.0,0.0,-0.09369527221075341,-0.13931372195419386,-0.16195448133116283,0.5380536363017594,0.13970945691324987,-0.02127024641095988
5488,3.0,299.90272000000004,1367.5474,0.0,0.0,0.0,0.055654596473369455,0.0,0.0,-0.12328372033715589,-0.14837485282845786,-0.14404168877580786,0.5385575965039965,0.10864821430274389,-0.04151648808535836
5489,3.0,299.36261,1239.6703,0.0,0.0,0.0,0.055664737617041715,0.0,0.0,-0.13307764381624088,-0.1060077250721479,-0.13774344774421987,0.5242430273062585,0.11787769668112288,-0.009335575439374562
5490,3.0,300.05267000000003,1105.3799,0.0,0.0,0.0,0.055674878760713975,0.0,0.0,-0.08554457086934182,-0.11799441296014189,-0.1324689135536639,0.5678345158209035,0.13244446382875086,-0.028803642354198175
5491,3.0,300.13066000000003,1142.1565,0.0,0.0,0.0,0.055685019904386235,0.0,0.0,-0.06782251656581123,-0.13871443518254886,-0.14065010764358488,0.5352625173112975,0.1193564034795599,-0.020372780399886877
5492,3.0,299.99391,1253.9631,0.0,0.0,0.0,0.055695161048058495,0.0,0.0,-0.0884715697379641,-0.14967840921460887,-0.14302348388281885,0.5178694308647335,0.13284852770362887,-0.06025345523230304
5493,3.0,300.77546,1115.3563,0.0,0.0,0.0,0.05570530219173076,0.0,0.0,-0.07313122970874043,-0.14455381577385085,-0.12135542433684789,0.5229267039688474,0.1304547243423789,-0.03971709472302206
5494,3.0,300.83969,900.7710199999999,0.0,0.0,0.0,0.05571544333540302,0.0,0.0,-0.0957156736584015,-0.10495223257547891,-0.07314398956724973,0.5271867620267825,0.15470091770779185,-0.04167516305101836
5495,3.0,300.90713,1071.2186,0.0,0.0,0.0,0.05572558447907528,0.0,0.0,-0.08457161569931862,-0.1131098989980779,-0.12794219846691188,0.5315642760363094,0.13784213830395986,-0.012507077940602488
5496,3.0,301.54882000000003,1224.3262,0.0,0.0,0.0,0.05573572562274754,0.0,0.0,-0.07981339221646852,-0.13590177449496088,-0.15644944287535786,0.5283893784379715,0.12841396771347188,-0.013443865148306188
5497,3.0,299.29715,1248.3814,0.0,0.0,0.0,0.0557458667664198,0.0,0.0,-0.08508312562805073,-0.11290290213514888,-0.18149075385924282,0.5489485472070035,0.1166533561877899,0.01310852800121099
5498,3.0,299.65962,1302.5206,0.0,0.0,0.0,0.055756007910092074,0.0,0.0,-0.08862158749476973,-0.14021293075543886,-0.16709920805140782,0.5520044689785994,0.13273077790950788,-0.01986266976954288
5499,3.0,299.64648,1272.5576,0.0,0.0,0.0,0.055766149053764334,0.0,0.0,-0.10899921426988489,-0.13530045109061486,-0.14252608954122983,0.5545998888447474,0.1151200656064659,-0.02097836452090338
5500,3.0,299.81186,1254.8283,0.0,0.0,0.0,0.055776290197436594,0.0,0.0,-0.12686198266780288,-0.14639764724582285,-0.10817683009122189,0.5319472643091074,0.12223610079376389,-0.035765158927746364
5501,3.0,299.01491,1229.7198,0.0,0.0,0.0,0.05578643134110885,0.0,0.0,-0.11953303323699188,-0.13607938710498987,-0.11819168262211088,0.5510534932297454,0.12434778492967088,-0.0040465596757393455
5502,3.0,299.52378999999996,1147.018,0.0,0.0,0.0,0.05579657248478111,0.0,0.0,-0.09068801684146041,-0.1037438507712209,-0.15423295828160785,0.5399332051047585,0.14829373202545187,-0.00044660240402122554
5503,3.0,299.02733,971.0800199999999,0.0,0.0,0.0,0.05580671362845338,0.0,0.0,-0.05248475221834176,-0.1234812838416539,-0.11921804417840488,0.5308853883368085,0.13270320737428687,-0.007646147982566053
5504,3.0,300.39634,1162.2418,0.0,0.0,0.0,0.05581685477212564,0.0,0.0,-0.061985460370238644,-0.15205937469709185,-0.13924764791517286,0.5067816579354556,0.11595115360348789,-0.04853194705448025
5505,3.0,300.44374,1345.933,0.0,0.0,0.0,0.0558269959157979,0.0,0.0,-0.12919298478785488,-0.13231141395811985,-0.14762562530701484,0.5333891698639125,0.12065301910252589,-0.038802305174989365
5506,3.0,300.31436,1307.0182,0.0,0.0,0.0,0.05583713705947016,0.0,0.0,-0.13012789039012287,-0.15155083460440286,-0.11562217156101988,0.5290337548390665,0.15216145964466685,-0.03287975296247897
5507,3.0,299.49349,1177.3519,0.0,0.0,0.0,0.05584727820314242,0.0,0.0,-0.10426764027791491,-0.12105498554969689,-0.13256294316294387,0.5506386889038075,0.14447923043398986,-0.04215365926499226
5508,3.0,300.02777000000003,1001.8566,0.0,0.0,0.0,0.055857419346814687,0.0,0.0,-0.028540204420948873,-0.12133241342707687,-0.15466678131192285,0.5303053634495645,0.13378124468568087,-0.024980940529676875
5509,3.0,299.65081000000004,863.2643800000001,0.0,0.0,0.0,0.055867560490486946,0.0,0.0,-0.028593083917167673,-0.1134463385612819,-0.12037139636973188,0.5403004880010065,0.12449781687197788,-0.022662236226088577
5510,3.0,299.49796000000003,1029.0893,0.0,0.0,0.0,0.055877701634159206,0.0,0.0,-0.040470025673580566,-0.1067224716926879,-0.16562495955341086,0.5367397244995865,0.10815237023380789,-0.01038727260514399
5511,3.0,299.17093,1153.7932,0.0,0.0,0.0,0.055887842777831466,0.0,0.0,-0.1289001960389589,-0.10477680858566592,-0.11704731795917088,0.5354765562624214,0.10309326314701289,-0.04338312579058116
5512,3.0,299.17291,1107.5922,0.0,0.0,0.0,0.055897983921503726,0.0,0.0,-0.10872725794304489,-0.11119855467194291,-0.1167545494752769,0.5122270260928715,0.11541287462036388,-0.023398948082296374
5513,3.0,299.83567999999997,1221.6274,0.0,0.0,0.0,0.05590812506517599,0.0,0.0,-0.1069860687062029,-0.14176120730574188,-0.12259694955187687,0.5447352709061855,0.1214097345422079,-0.005913813943647994
5514,3.0,300.59375,1486.6978,0.0,0.0,0.0,0.05591826620884825,0.0,0.0,-0.12327961667425087,-0.15809275215253984,-0.17054663952914284,0.5390587297384545,0.16657431410210483,0.003433460278731147
5515,3.0,299.51943,1599.9267,0.0,0.0,0.0,0.05592840735252051,0.0,0.0,-0.13022453418466087,-0.15421874238270486,-0.2018945001954358,0.5375642972984654,0.14724836189728185,-0.00042448370149327956
5516,3.0,300.09241000000003,1460.6555,0.0,0.0,0.0,0.05593854849619277,0.0,0.0,-0.1181492375754219,-0.14905264621785086,-0.17680092577139284,0.5270765508134055,0.13268783637026987,-0.030853510128004368
5517,3.0,300.79231,1146.337,0.0,0.0,0.0,0.05594868963986503,0.0,0.0,-0.12357519186092189,-0.11492031348175188,-0.10996232875493689,0.5210522014163486,0.12661064598049787,-0.02248460943055818
5518,3.0,299.94879,943.15485,0.0,0.0,0.0,0.0559588307835373,0.0,0.0,-0.11865588289042389,-0.07537519769820283,-0.09266444627451882,0.5292911102319655,0.15862261102733285,-0.0037049807053781266
5519,3.0,300.10531000000003,1037.4444,0.0,0.0,0.0,0.05596897192720956,0.0,0.0,-0.06928352188500124,-0.11368729956756289,-0.13238636406801688,0.5094490590887075,0.14391061474287187,-0.01959096168897738
5520,3.0,299.63203,1125.6167,0.0,0.0,0.0,0.05597911307088182,0.0,0.0,-0.062386272725545734,-0.11432382328038289,-0.16544927211857183,0.5282733613015216,0.14291981826508787,-0.026319036585236676
5521,3.0,298.37216,1117.4729,0.0,0.0,0.0,0.05598925421455408,0.0,0.0,-0.034335261399876464,-0.13736961925232588,-0.16797896245073285,0.5240766820373415,0.13273245990467386,-0.019796649432777178
5522,3.0,299.25662,1036.9554,0.0,0.0,0.0,0.05599939535822634,0.0,0.0,-0.04817783336978196,-0.15145462650740785,-0.1155760889464719,0.5492262587944114,0.13426432180335687,-0.05021533037311725
5523,3.0,299.45673,1122.9903,0.0,0.0,0.0,0.0560095365018986,0.0,0.0,-0.14087871713114689,-0.10457714765346089,-0.09590512812234922,0.5196371469891935,0.09799006853511681,-0.037090556933052965
5524,3.0,300.69992,1451.9702,0.0,0.0,0.0,0.05601967764557086,0.0,0.0,-0.14347272857965587,-0.17331252859211482,-0.12457743806483589,0.5300740587167365,0.10716286058365089,-0.05660509625973804
5525,3.0,301.77483,1243.9707,0.0,0.0,0.0,0.05602981878924312,0.0,0.0,-0.09909078947649949,-0.12736842533278486,-0.15167683225433787,0.5269228306407345,0.1158642066124069,-0.016362031515806785
5526,3.0,300.12233,762.93807,0.0,0.0,0.0,0.05603995993291538,0.0,0.0,-0.023120431974308978,-0.07443592498800383,-0.13435776372757888,0.5422080225067655,0.14450387267642187,-0.02260315969225818
5527,3.0,300.44753,871.6905199999999,0.0,0.0,0.0,0.05605010107658764,0.0,0.0,-0.008602560223506592,-0.1023548875341409,-0.15401470421006785,0.5225932230959355,0.15797317850823886,-0.019038714039974782
5528,3.0,300.51547,1112.9196,0.0,0.0,0.0,0.056060242220259904,0.0,0.0,-0.1112653987810399,-0.07965743985382723,-0.14737695346747287,0.5192016824937165,0.13953555279858687,-0.028755024587899976
5529,3.0,299.17285,1221.1231,0.0,0.0,0.0,0.056070383363932164,0.0,0.0,-0.14872761585077285,-0.1094251947444259,-0.1130381203609939,0.5423151027773335,0.13967215917706885,0.0006229657678694343
5530,3.0,299.60247000000004,1169.1294,0.0,0.0,0.0,0.05608052450760442,0.0,0.0,-0.12232763780779789,-0.11130435824738488,-0.12175414838369887,0.5542531141305235,0.13763442203345988,-0.014976121201278088
5531,3.0,299.72132999999997,1088.9752,0.0,0.0,0.0,0.05609066565127668,0.0,0.0,-0.08789732848229091,-0.09984564154924759,-0.14327830615046788,0.5681998836744624,0.14238099212690986,-0.012658055245252788
5532,3.0,298.30177000000003,1206.4334,0.0,0.0,0.0,0.05610080679494894,0.0,0.0,-0.07380573510155893,-0.14056746696542885,-0.15235242689101386,0.5465676121220235,0.09958852832312251,-0.013520784003147487
5533,3.0,299.44334,1547.9085,0.0,0.0,0.0,0.05611094793862121,0.0,0.0,-0.07929937652023912,-0.16855841991792084,-0.22266771804809277,0.5543479036773785,0.09126743783164482,-0.031827099592590176
5534,3.0,298.48192,1325.1786,0.0,0.0,0.0,0.05612108908229347,0.0,0.0,-0.13909614676022086,-0.11363025358693288,-0.15009481447570486,0.5401689377405234,0.07983649533199863,0.0072851249454358525
5535,3.0,298.72319,921.6015199999999,0.0,0.0,0.0,0.05613123022596573,0.0,0.0,-0.1054628700958749,-0.1127736823498959,-0.061907294204524246,0.5517272437512395,0.11661035385354587,-0.051535279119386046
5536,3.0,299.17863,940.91789,0.0,0.0,0.0,0.05614137136963799,0.0,0.0,-0.07928563887538333,-0.09647094015044051,-0.1102589678542129,0.5242180810887965,0.12936045476438288,-0.00986633691735664
5537,3.0,299.69607,1201.9457,0.0,0.0,0.0,0.05615151251331025,0.0,0.0,-0.09437282343337251,-0.13328367809157488,-0.1377049746379229,0.5123435397218705,0.14987110911862686,-0.027480173577081973
5538,3.0,299.8207,1324.0288,0.0,0.0,0.0,0.056161653656982516,0.0,0.0,-0.025793360406856477,-0.17631702792113582,-0.20036130080662082,0.5321156563432264,0.17065425682226384,-0.020597989420113278
5539,3.0,300.12526,1045.7636,0.0,0.0,0.0,0.056171794800654776,0.0,0.0,-0.02100980668475648,-0.14210642161481185,-0.15476980858209086,0.5232931357350115,0.14485702073377488,-0.04454286247078825
5540,3.0,300.79031000000003,1007.0295,0.0,0.0,0.0,0.056181935944327036,0.0,0.0,-0.05839668354330395,-0.15055020960064885,-0.09716492831618181,0.5450593386856685,0.12086919601136088,-0.04966407672246275
5541,3.0,300.55755,1201.8192,0.0,0.0,0.0,0.056192077087999295,0.0,0.0,-0.13265679038720588,-0.13409678089932187,-0.09856945507479781,0.5285561594044315,0.0999054972724049,-0.017249010388344782
5542,3.0,299.90922,1429.2992,0.0,0.0,0.0,0.056202218231671555,0.0,0.0,-0.12106080160527088,-0.14480227483087185,-0.16860819076283284,0.5572354942098615,0.09465580290805041,-0.025403040256334875
5543,3.0,299.93202,1381.1068,0.0,0.0,0.0,0.05621235937534382,0.0,0.0,-0.1172467661088549,-0.14587763716200186,-0.15669756755984585,0.5517197457004995,0.12561315191955288,-0.014037337890877384
5544,3.0,299.30931,1097.6927,0.0,0.0,0.0,0.05622250051901608,0.0,0.0,-0.044443815247013053,-0.11841307776896089,-0.17081428954305786,0.5463740610879214,0.1162060670636459,-0.040613089494949864
5545,3.0,298.62958,961.8852400000001,0.0,0.0,0.0,0.05623264166268834,0.0,0.0,-0.07127444383423993,-0.1107769615703349,-0.1103376973869829,0.5377774851195055,0.1335420973970789,-0.011394866743085789
5546,3.0,299.56765,1287.0804,0.0,0.0,0.0,0.0562427828063606,0.0,0.0,-0.13371341772398687,-0.12257719117492688,-0.13494969430349787,0.5403599657818765,0.14410232166179188,-0.009328341846910662
5547,3.0,300.24232,1531.6229,0.0,0.0,0.0,0.05625292395003286,0.0,0.0,-0.14761382094334985,-0.15423435656674586,-0.16372693946609082,0.5464879706641634,0.15880756970058685,-0.005164801636526235
5548,3.0,300.44809,1149.3936,0.0,0.0,0.0,0.05626306509370513,0.0,0.0,-0.09313850343980459,-0.12278910230084089,-0.13345933512891087,0.5248641394850575,0.12340231112885988,-0.028680721944816873
5549,3.0,300.52053,943.4645199999999,0.0,0.0,0.0,0.05627320623737739,0.0,0.0,-0.05311511942355415,-0.09841894690494381,-0.13525558437618687,0.5107638118884635,0.1336835471110389,-0.021301557865550082
5550,3.0,299.85809,1228.5103,0.0,0.0,0.0,0.05628334738104964,0.0,0.0,-0.06487390507255593,-0.12403571403137187,-0.18452684632638183,0.5192504704860315,0.1099618829248929,-0.006397465979430733
5551,3.0,300.09425,1371.9303,0.0,0.0,0.0,0.05629348852472191,0.0,0.0,-0.11140400126221889,-0.14740951932568686,-0.15821902338000185,0.5400044669842915,0.14645549369403185,-0.044197007787655056
5552,3.0,300.33207000000004,1365.9311,0.0,0.0,0.0,0.05630362966839417,0.0,0.0,-0.12625087126749088,-0.14958101561499687,-0.13937705008544388,0.5394904756060644,0.12639551271926588,-0.007197132584226683
5553,3.0,299.76493,1029.8317,0.0,0.0,0.0,0.056313770812066434,0.0,0.0,-0.08248247029863602,-0.13301154951221789,-0.09754908790609541,0.5526473255045444,0.1318983422898529,-0.04181762500182826
5554,3.0,299.28668999999996,904.2634099999999,0.0,0.0,0.0,0.056323911955738694,0.0,0.0,-0.06168179336826904,-0.08814060172530011,-0.12505110208908288,0.5564587468157025,0.13631491709073487,-0.017498621510729482
5555,3.0,299.78581,1183.2757,0.0,0.0,0.0,0.056334053099410954,0.0,0.0,-0.06919933802694293,-0.12129170103805889,-0.16919520707576685,0.5475370999502044,0.15033948397735186,-0.03701464828856136
5556,3.0,299.42739,1325.665,0.0,0.0,0.0,0.056344194243083214,0.0,0.0,-0.059366404419007944,-0.17259804541660084,-0.17100460830934083,0.5419621067074955,0.12596332102161187,-0.046267242901721364
5557,3.0,299.57132,1172.1341,0.0,0.0,0.0,0.05635433538675547,0.0,0.0,-0.1104138532644989,-0.12485226188945887,-0.12103337292506389,0.5055890423027536,0.1186963318344159,-0.026304563320808272
5558,3.0,299.28598999999997,1023.2817,0.0,0.0,0.0,0.05636447653042775,0.0,0.0,-0.08746823429019261,-0.12109262779091189,-0.1024912102025949,0.5345285594688615,0.1162510553680859,-0.03259891651176257
5559,3.0,300.01723,1255.4731,0.0,0.0,0.0,0.05637461767410001,0.0,0.0,-0.1129901429687589,-0.13438380425514887,-0.13425851588028387,0.5391192815644306,0.14004528852639386,-0.013465823291223289
5560,3.0,299.87235,1385.662,0.0,0.0,0.0,0.05638475881777227,0.0,0.0,-0.09165191051583932,-0.15121542855630085,-0.17833930286821884,0.5636129511342675,0.11768661797726489,-0.03305094359337417
5561,3.0,300.11576,1112.4411,0.0,0.0,0.0,0.056394899961444526,0.0,0.0,-0.05645452526837785,-0.13460618225459586,-0.14709359807700786,0.5379794663944395,0.1103175134449909,-0.004899570655899975
5562,3.0,300.04551000000004,1014.2201,0.0,0.0,0.0,0.05640504110511678,0.0,0.0,-0.04443427448407146,-0.11089612991459588,-0.15296718599168585,0.5505060848632205,0.11253704792154189,-0.013472974810429089
5563,3.0,300.96672,1062.5162,0.0,0.0,0.0,0.05641518224878905,0.0,0.0,-0.13093712258248788,-0.1088527489679299,-0.08318852931281863,0.5520306006986785,0.13774260674663688,-0.013510776131909787
5564,3.0,299.94815,1203.6105,0.0,0.0,0.0,0.05642532339246131,0.0,0.0,-0.1036327782952589,-0.12850486637994288,-0.1337298830381119,0.5366865997968435,0.11265986396616288,-0.02810310453981047
5565,3.0,299.69371,1511.9345,0.0,0.0,0.0,0.05643546453613357,0.0,0.0,-0.16179057799498686,-0.14340960309842585,-0.15439016403462286,0.5592866974472994,0.1111779350324079,-0.013867388491354686
5566,3.0,299.6395,1491.5493,0.0,0.0,0.0,0.05644560567980583,0.0,0.0,-0.12136951864573889,-0.14029097127814086,-0.1917332735551008,0.5528486177694105,0.12005439094344587,0.003946402335154586
5567,3.0,299.84061,1250.6342,0.0,0.0,0.0,0.05645574682347809,0.0,0.0,-0.08536972139233552,-0.13365548008326888,-0.16113638320042287,0.5509261175596745,0.14318147997091188,-0.03319247740709247
5568,3.0,298.70642999999995,1104.5746,0.0,0.0,0.0,0.05646588796715036,0.0,0.0,-0.03784460043222126,-0.13575670747814386,-0.16216180243412384,0.5343662469353425,0.13349871002779687,-0.02600323186031918
5569,3.0,298.96054,1272.3737,0.0,0.0,0.0,0.05647602911082262,0.0,0.0,-0.1275252156532589,-0.13796193486328287,-0.12128268311216887,0.5133656152302415,0.14871695645972086,-0.02893311342547597
5570,3.0,300.46084,1219.6595,0.0,0.0,0.0,0.05648617025449488,0.0,0.0,-0.0932628282138245,-0.12951563401719787,-0.14796757695076285,0.5204908811259504,0.15342162866153586,-0.01994353320702348
5571,3.0,300.75288,895.1188599999999,0.0,0.0,0.0,0.05649631139816714,0.0,0.0,-0.06902001707724534,-0.11680409740516688,-0.08626966986615352,0.5324252853087845,0.14501887730474886,-0.02800608888248577
5572,3.0,300.45968,913.62356,0.0,0.0,0.0,0.0565064525418394,0.0,0.0,-0.01927293794634088,-0.11985289602855989,-0.13859291609805585,0.5118950752276105,0.1194954720557849,-0.043747582732300255
5573,3.0,300.18385,1197.7662,0.0,0.0,0.0,0.05651659368551166,0.0,0.0,-0.06545881585178213,-0.15023244423678786,-0.14839974838341485,0.5294085661835575,0.0914557179387266,-0.047936152955929956
5574,3.0,300.28475,1353.8075,0.0,0.0,0.0,0.056526734829183925,0.0,0.0,-0.0948140948651726,-0.14768997682086588,-0.16901960070093583,0.5384511849784945,0.10784437260091091,-0.03996276531576786
5575,3.0,300.99675,1402.3942,0.0,0.0,0.0,0.056536875972856185,0.0,0.0,-0.15566754817069084,-0.13824872517158687,-0.13237653554204687,0.5594132929147935,0.14359812841203184,-0.04031826613985306
5576,3.0,299.97837999999996,1087.0556,0.0,0.0,0.0,0.056547017116528445,0.0,0.0,-0.07147946688597413,-0.13432015188386687,-0.12463814187832688,0.5392647032187825,0.13583946974631186,-0.04869724158304355
5577,3.0,298.46738,950.85856,0.0,0.0,0.0,0.056557158260200704,0.0,0.0,-0.07524650277650163,-0.1046506792132179,-0.10914008643128789,0.5458379605925124,0.14054770858847887,-0.011164436445094092
5578,3.0,299.56324,1323.481,0.0,0.0,0.0,0.056567299403872964,0.0,0.0,-0.0874026658629715,-0.1159789470537309,-0.1989235597097268,0.5411695728767785,0.14861648257980484,-0.0009706382723445391
5579,3.0,300.26002,1396.6995,0.0,0.0,0.0,0.056577440547545224,0.0,0.0,-0.1002102494652316,-0.1259548097207719,-0.19839673045273282,0.5616261602056865,0.15842036630737286,-0.006318157374228584
5580,3.0,300.56564,1059.027,0.0,0.0,0.0,0.056587581691217484,0.0,0.0,-0.08091509094419773,-0.10669950131292089,-0.13430315967968987,0.5262239616492614,0.1086855829664319,0.007594491479217953
5581,3.0,300.2762,1092.92,0.0,0.0,0.0,0.056597722834889744,0.0,0.0,-0.1057587087275719,-0.11275034720009289,-0.1137113338599349,0.5216720369000215,0.10961368966052888,-0.016936883761290284
5582,3.0,299.32344,1433.4056,0.0,0.0,0.0,0.056607863978562004,0.0,0.0,-0.13767101049457087,-0.13125225349608888,-0.16679624627150783,0.5093930060931755,0.12693324454733587,0.003741695518776596
5583,3.0,300.17885,1540.3954,0.0,0.0,0.0,0.05661800512223427,0.0,0.0,-0.15665963147610185,-0.13338732344430387,-0.17819478300645583,0.5518583988441834,0.13467071615346488,-0.006751722937693174
5584,3.0,301.17404,1366.8456,0.0,0.0,0.0,0.05662814626590653,0.0,0.0,-0.08715739651726533,-0.1313107585568629,-0.19701877111173882,0.5556324616241545,0.12782778226561986,-0.015638987390197884
5585,3.0,300.52974,986.95019,0.0,0.0,0.0,0.05663828740957879,0.0,0.0,-0.06466755466319074,-0.08460374282023933,-0.15073692119657586,0.5540973471926505,0.11993018674618788,-0.007459231608793843
5586,3.0,299.91764,990.1700400000001,0.0,0.0,0.0,0.05664842855325105,0.0,0.0,-0.08649066579246412,-0.10140268575266591,-0.11309361606897088,0.5541996955852515,0.15036788537765486,-0.016463760812596685
5587,3.0,299.91888,1368.0464,0.0,0.0,0.0,0.05665856969692331,0.0,0.0,-0.13220167897228988,-0.13387887133281587,-0.14977140530878685,0.5471362886081474,0.14575197388459987,-0.03412289127166717
5588,3.0,299.61647999999997,1310.4722,0.0,0.0,0.0,0.056668710840595576,0.0,0.0,-0.11529633059386188,-0.14253633349974085,-0.14051816221556288,0.5436296123970655,0.11177132468847088,-0.04369241835710596
5589,3.0,300.27797000000004,862.79847,0.0,0.0,0.0,0.056678851984267836,0.0,0.0,-0.03539258990572667,-0.12646402869102788,-0.1004125701789491,0.5452108601056225,0.11721678403839589,-0.03826709228666796
5590,3.0,300.40637000000004,757.3875099999999,0.0,0.0,0.0,0.056688993127940096,0.0,0.0,0.014428207222953186,-0.1034489139321129,-0.14120617929846488,0.5364711929580845,0.14987773577428087,-0.052062888578957044
5591,3.0,299.80804,1274.3783,0.0,0.0,0.0,0.056699134271612356,0.0,0.0,-0.08661492166547723,-0.15516113590321187,-0.14560313757741086,0.5514850364473355,0.11049358591486788,-0.028223308425673672
5592,3.0,299.51498,1560.2109,0.0,0.0,0.0,0.056709275415284616,0.0,0.0,-0.15970609962426485,-0.16056453524148584,-0.15399451013557483,0.5164950989590975,0.1113484548917369,-0.046794515962259156
5593,3.0,298.99335,1244.6017,0.0,0.0,0.0,0.05671941655895688,0.0,0.0,-0.13024842662201888,-0.13145554186365188,-0.1166238706098799,0.5445243426328685,0.09701181508032071,-0.03304420548020917
5594,3.0,298.54936000000004,860.44725,0.0,0.0,0.0,0.05672955770262914,0.0,0.0,-0.06893415021077093,-0.11423111089623289,-0.07838921448541313,0.5424166000398505,0.1300871678686039,-0.041199855535109166
5595,3.0,299.48463,1134.5346,0.0,0.0,0.0,0.0567396988463014,0.0,0.0,-0.08821946500708332,-0.11387402129599088,-0.14277670682096386,0.5452108195756185,0.13623931850077386,-0.02066913984213528
5596,3.0,300.00959,1285.0135,0.0,0.0,0.0,0.05674983998997366,0.0,0.0,-0.06332958627714354,-0.13867381398603987,-0.18860862302922182,0.5588124558704956,0.1082758550234949,-0.025278375030281377
5597,3.0,299.55726,1190.6068,0.0,0.0,0.0,0.05675998113364592,0.0,0.0,-0.08402868387173541,-0.12115148748922089,-0.15673457145349784,0.5627525092818485,0.1030138446041749,-0.0038523124374936365
5598,3.0,299.88838,992.58741,0.0,0.0,0.0,0.05677012227731819,0.0,0.0,-0.07173576140601844,-0.1007160000803953,-0.1292700323254589,0.5594636109147594,0.15049279884998285,-0.016601402732680882
5599,3.0,299.76982000000004,956.85821,0.0,0.0,0.0,0.05678026342099045,0.0,0.0,-0.08300895809034632,-0.1147548497404219,-0.0930971932332276,0.5547500423770665,0.1184956272546079,-0.037367098216595465
5600,3.0,299.31824,1437.0874,0.0,0.0,0.0,0.05679040456466271,0.0,0.0,-0.14201801554358687,-0.16774411134255485,-0.12707654850897887,0.5297904905437505,0.14033783409526585,-0.04905049400515686
5601,3.0,299.79525,1597.3325,0.0,0.0,0.0,0.05680054570833497,0.0,0.0,-0.1294139645021639,-0.16938708624720383,-0.18674815399060782,0.5332267256078804,0.15367628880916884,-0.009123364898056012
5602,3.0,299.49239,987.7409,0.0,0.0,0.0,0.05681068685200723,0.0,0.0,-0.03343827060310037,-0.12441730401903188,-0.14239299914059486,0.5188552522845264,0.17068919368571184,-0.013531482910953385
5603,3.0,300.06126,712.3924,0.0,0.0,0.0,0.056820827995679495,0.0,0.0,-0.039939587219730364,-0.08846682164799552,-0.08814309229404592,0.5264092546950485,0.13441791025351488,-0.007004072571123143
5604,3.0,300.74799,1223.5723,0.0,0.0,0.0,0.056830969139351754,0.0,0.0,-0.11234064965465888,-0.11848176599323987,-0.14111300081926886,0.5179979211099145,0.11088897636888988,-0.014895179743539787
5605,3.0,300.40387000000004,1633.6660000000002,0.0,0.0,0.0,0.056841110283024014,0.0,0.0,-0.16287864648237085,-0.17017894120035384,-0.16353607354475386,0.5582024387802914,0.10638861591723889,-0.026600212474736575
5606,3.0,301.10117,1391.1472,0.0,0.0,0.0,0.056851251426696274,0.0,0.0,-0.13813150226751786,-0.14364824376197785,-0.14109427595742086,0.5694388251017365,0.14208234679243587,-0.040192550173445855
5607,3.0,301.64609,1106.3172,0.0,0.0,0.0,0.056861392570368534,0.0,0.0,-0.04956096231278615,-0.14211473026563187,-0.14461711350759787,0.5751980880076315,0.14869863689791288,-0.041320330971999164
5608,3.0,299.91918,1003.3604,0.0,0.0,0.0,0.0568715337140408,0.0,0.0,-0.03301625801595097,-0.12041322333385988,-0.15156702634100086,0.5257572079906965,0.14252446834106988,-0.039279811443615566
5609,3.0,299.8967,1166.2072,0.0,0.0,0.0,0.05688167485771306,0.0,0.0,-0.07874774391404722,-0.1127965919346569,-0.16295352566476085,0.5251464714929215,0.13954835014734987,-0.018530006761019284
5610,3.0,299.73323,1354.5463,0.0,0.0,0.0,0.05689181600138532,0.0,0.0,-0.09181551190348551,-0.15696668678640585,-0.16296604943599685,0.5202619575308575,0.15299836369726286,-0.02777296131272787
5611,3.0,299.62376,1098.3269,0.0,0.0,0.0,0.05690195714505758,0.0,0.0,-0.0991384993707081,-0.1266342851053309,-0.10809115979526689,0.5257889733813316,0.13774428874180286,-0.026024288210647274
5612,3.0,299.61017000000004,958.64639,0.0,0.0,0.0,0.05691209828872984,0.0,0.0,-0.07980762378364922,-0.1072794856701609,-0.10431746178533191,0.5057951069755906,0.12392581692552589,-0.042246401033395165
5613,3.0,298.92481000000004,1260.6637,0.0,0.0,0.0,0.056922239432402114,0.0,0.0,-0.08139025457859272,-0.11827798113312787,-0.18354204828918982,0.5291690135949155,0.11129307064127089,-0.022424394003615376
5614,3.0,299.90416,1594.58,0.0,0.0,0.0,0.056932380576074366,0.0,0.0,-0.12383601256916289,-0.14650702759411788,-0.21436945304161778,0.5525785866177605,0.14411591947813387,0.008287163939704403
5615,3.0,301.37968,1468.543,0.0,0.0,0.0,0.056942521719746626,0.0,0.0,-0.1145773891179079,-0.13861518733525385,-0.1932078260281278,0.5730159424597705,0.14937438352210386,0.001105951338398899
5616,3.0,300.59634,1048.2484,0.0,0.0,0.0,0.056952662863418886,0.0,0.0,-0.0965407338305786,-0.1097408424155779,-0.1123597595515449,0.5295174905693075,0.13966949432930587,-0.02027434315267188
5617,3.0,299.82462000000004,1116.6028,0.0,0.0,0.0,0.056962804007091146,0.0,0.0,-0.11977807764117589,-0.1023346934596479,-0.11730660865976089,0.5652481442781485,0.13356527042686586,-0.008082802641610511
5618,3.0,300.1906,1408.5816,0.0,0.0,0.0,0.05697294515076342,0.0,0.0,-0.14012115056138086,-0.1301847337207329,-0.15786773970283285,0.5455407338081785,0.14598363325496286,-0.034221633507162265
5619,3.0,300.05457,1302.4495,0.0,0.0,0.0,0.05698308629443568,0.0,0.0,-0.05120708639874595,-0.15321094356824286,-0.19149409586899582,0.5541813152284374,0.12338630177727988,-0.04198594205543986
5620,3.0,300.09599,877.89266,0.0,0.0,0.0,0.05699322743810794,0.0,0.0,-0.035335012982044264,-0.09712845131258181,-0.13439398741865385,0.5363132880625006,0.08775248640699611,-0.034543265433404864
5621,3.0,299.02714,738.7809,0.0,0.0,0.0,0.0570033685817802,0.0,0.0,-0.026985752111286374,-0.07913598588861373,-0.11844921026752689,0.5331091683312785,0.0948903804387014,-0.009594429125196431
5622,3.0,299.67026,1086.3737,0.0,0.0,0.0,0.05701350972545246,0.0,0.0,-0.09254038190577461,-0.12130787250965488,-0.1163822205935309,0.5479395122274194,0.12887223033619888,-0.028207797593142875
5623,3.0,300.26853,1515.9865,0.0,0.0,0.0,0.057023650869124726,0.0,0.0,-0.14446338320242585,-0.17794173392648183,-0.13841690442318488,0.5376608701654965,0.13406876453405686,-0.02895876891800797
5624,3.0,299.5554,1364.148,0.0,0.0,0.0,0.057033792012796986,0.0,0.0,-0.11158806827538491,-0.16597396341785484,-0.13710490766370087,0.5317643220035525,0.13574898651238188,-0.04875559668280275
5625,3.0,299.25838,899.18619,0.0,0.0,0.0,0.057043933156469245,0.0,0.0,-0.032520387602512364,-0.1144663774369519,-0.12634338100162087,0.5301524133469695,0.12089558104396489,-0.04254068128643836
5626,3.0,299.40224,932.46229,0.0,0.0,0.0,0.057054074300141505,0.0,0.0,-0.05396882822905866,-0.1007626055319949,-0.12871381881556487,0.5705001944489855,0.13717872293348587,-0.02755224403019477
5627,3.0,300.03836,1397.6489,0.0,0.0,0.0,0.057064215443813765,0.0,0.0,-0.1019192406536459,-0.15064392510239785,-0.17228719041842183,0.5548123065957115,0.13092130574842686,-0.02248944263353518
5628,3.0,299.85082,1272.3291,0.0,0.0,0.0,0.057074356587486025,0.0,0.0,-0.10603434315227489,-0.13926109374399986,-0.14146084957859886,0.5814686875764914,0.12670810037511587,-0.02923855665487087
5629,3.0,300.07747,931.2081400000001,0.0,0.0,0.0,0.057084497731158285,0.0,0.0,-0.1046401819421819,-0.09579205751719001,-0.08263177979362171,0.5481467522703725,0.1386004546787999,-0.01905546711712818
5630,3.0,300.89164,907.5599599999999,0.0,0.0,0.0,0.05709463887483055,0.0,0.0,-0.06531865093894894,-0.1025392179923329,-0.1080176991630169,0.5490344505504815,0.1391347110590269,-0.052031775721386446
5631,3.0,299.57977999999997,1211.9166,0.0,0.0,0.0,0.05710478001850281,0.0,0.0,-0.06793464788812772,-0.14185064689206886,-0.15860709816830185,0.5276828695407445,0.13330876616405088,-0.042700010811662956
5632,3.0,299.32209,1391.9908,0.0,0.0,0.0,0.05711492116217507,0.0,0.0,-0.1116765959366219,-0.12602423761762388,-0.18542962176797884,0.5201536309626665,0.09730197444520722,-0.03448968375486676
5633,3.0,300.01679,1360.7825,0.0,0.0,0.0,0.05712506230584733,0.0,0.0,-0.11676507714381588,-0.13472640437896086,-0.16215242987069883,0.5481675644274264,0.1068650359817579,0.0030359165669216373
5634,3.0,299.8339,933.3566800000001,0.0,0.0,0.0,0.05713520344951959,0.0,0.0,-0.08999757099806872,-0.08156413640175351,-0.1121554174038779,0.5537761367784495,0.13222478107456986,-0.01167593016182459
5635,3.0,299.43408,930.0667900000001,0.0,0.0,0.0,0.05714534459319185,0.0,0.0,-0.08220613369161373,-0.10161569118868789,-0.0988952534854516,0.5702476418615605,0.17113006893672283,-0.00931015046124031
5636,3.0,299.49807999999996,1461.0152,0.0,0.0,0.0,0.05715548573686411,0.0,0.0,-0.1101905734724629,-0.14203809816056887,-0.1918834574849228,0.5340954963761214,0.15687802740265586,-0.035105015341845264
5637,3.0,298.27456,1640.5104,0.0,0.0,0.0,0.05716562688053637,0.0,0.0,-0.12135678209198189,-0.16403322470631884,-0.2132841811245098,0.5495200810584094,0.16292475949442184,-0.017008183131076982
5638,3.0,299.93975,1317.5997,0.0,0.0,0.0,0.05717576802420864,0.0,0.0,-0.10666491908700791,-0.14484158893475188,-0.14901089018122984,0.5581416843042956,0.13084915220880586,-0.026905187582585272
5639,3.0,300.25736,827.5962599999999,0.0,0.0,0.0,0.0571859091678809,0.0,0.0,-0.038199874288284065,-0.10017434292143791,-0.11319438379141589,0.5623134173510134,0.12348031112155788,-0.03415833273366496
5640,3.0,299.33576,1040.0361,0.0,0.0,0.0,0.05719605031155316,0.0,0.0,-0.06917039656433664,-0.14555181645984586,-0.1014228088996519,0.5585360919057205,0.1046314375938189,-0.03118823932503957
5641,3.0,300.0435,1368.5371,0.0,0.0,0.0,0.057206191455225416,0.0,0.0,-0.10572736890197888,-0.14958004289490084,-0.16069368409923185,0.5486925799667415,0.13601736606636886,-0.025550318184870077
5642,3.0,300.67831,1255.8793,0.0,0.0,0.0,0.057216332598897676,0.0,0.0,-0.06651034654056014,-0.15608368998676084,-0.15916189312805584,0.5449361578710115,0.14316805440708685,-0.02328264419606808
5643,3.0,299.70589,834.4989999999999,0.0,0.0,0.0,0.05722647374256994,0.0,0.0,-0.023862346869780275,-0.12759762250540488,-0.1022068922245349,0.5472133564107534,0.14304075979702385,-0.04891551490633545
5644,3.0,300.05571000000003,956.2316300000001,0.0,0.0,0.0,0.0572366148862422,0.0,0.0,-0.06512388704447723,-0.10472285301784091,-0.1208238024068809,0.5318676127187465,0.12670454386726487,-0.011442449981031888
5645,3.0,300.68517,1543.1169,0.0,0.0,0.0,0.05724675602991446,0.0,0.0,-0.14134269448443787,-0.15345678844000585,-0.1742695129140618,0.5261158275985895,0.13075576094708888,-0.01275282756685609
5646,3.0,300.72334,1693.8633,0.0,0.0,0.0,0.05725689717358672,0.0,0.0,-0.18189244672888683,-0.1430773887881389,-0.18992232204887383,0.5498781231137455,0.14199900697171086,0.005513567995146795
5647,3.0,300.46522999999996,1159.688,0.0,0.0,0.0,0.05726703831725898,0.0,0.0,-0.0961764075981224,-0.1064123563670819,-0.14992743569168585,0.5501729282303405,0.15573398697974786,-0.010140545192543891
5648,3.0,299.84769,938.1428800000001,0.0,0.0,0.0,0.05727717946093125,0.0,0.0,-0.03215810002925737,-0.12458158225774488,-0.12843232780528388,0.5610198921408525,0.13239581769144987,-0.032422709279622264
5649,3.0,300.05593999999996,1424.4288,0.0,0.0,0.0,0.05728732060460351,0.0,0.0,-0.1079656383728789,-0.13808447733037688,-0.18694067150960783,0.5529750105868845,0.13699127166498587,-0.017648670678288184
5650,3.0,300.32358999999997,1582.5161,0.0,0.0,0.0,0.05729746174827577,0.0,0.0,-0.13295132192627387,-0.16040701538093985,-0.18768703153326782,0.5562886119914114,0.13345030707051989,-0.030284919768138872
5651,3.0,299.20542,1141.4171,0.0,0.0,0.0,0.05730760289194803,0.0,0.0,-0.08288011928713093,-0.14574138542105486,-0.1183407925068269,0.5589222212538284,0.12060297468008689,-0.029541251949994574
5652,3.0,299.26998,831.61388,0.0,0.0,0.0,0.05731774403562029,0.0,0.0,-0.057153133854575155,-0.09795423494533032,-0.09768248430826061,0.5475132683078524,0.12829131378886688,-0.017859204797316282
5653,3.0,300.03616,968.3339599999999,0.0,0.0,0.0,0.057327885179292555,0.0,0.0,-0.04692447035383466,-0.13546715099706685,-0.11195772217686689,0.5330572595286555,0.14331324301391585,-0.02274239241499938
5654,3.0,300.71013999999997,1344.5243,0.0,0.0,0.0,0.057338026322964815,0.0,0.0,-0.07578235806538643,-0.14433110340187089,-0.18858833776221984,0.5414645705108925,0.13508707075205587,-0.02118634423642938
5655,3.0,300.69301,1483.1383,0.0,0.0,0.0,0.057348167466637075,0.0,0.0,-0.13171893622714687,-0.14181375445592787,-0.17730433881857582,0.5337282438773765,0.14469036135732685,-0.027552110281181572
5656,3.0,299.96586,1127.2604,0.0,0.0,0.0,0.057358308610309335,0.0,0.0,-0.06598483349544604,-0.14530325607781486,-0.13137093548030188,0.5650983453833645,0.1345808712670979,-0.04307035068346266
5657,3.0,299.57331,917.1987,0.0,0.0,0.0,0.057368449753981594,0.0,0.0,-0.07091342181035984,-0.10531124735091091,-0.10258083217393989,0.5610150386728735,0.13398535378582488,-0.045598736962744954
5658,3.0,300.33841,1392.4544,0.0,0.0,0.0,0.05737859089765386,0.0,0.0,-0.1150334935179219,-0.16923746973743783,-0.1390003844932699,0.5599982421975235,0.12294072504580489,-0.04216599558495976
5659,3.0,300.55627000000004,1463.7539,0.0,0.0,0.0,0.05738873204132612,0.0,0.0,-0.13942940471811086,-0.13382853306784787,-0.17168669787915783,0.5392904904338275,0.13469581435844188,-0.051076528110110854
5660,3.0,299.74778,1016.9361,0.0,0.0,0.0,0.05739887318499838,0.0,0.0,-0.040886594067942664,-0.12627584788245588,-0.14196073651543387,0.5492637186506085,0.12476272097812188,-0.031148851253902272
5661,3.0,298.90673,847.3554,0.0,0.0,0.0,0.05740901432867064,0.0,0.0,-0.04236170990802526,-0.11798622589933387,-0.0972269493548028,0.5458029933315616,0.13367326262252388,-0.02208748631886518
5662,3.0,299.32279,1023.8915,0.0,0.0,0.0,0.0574191554723429,0.0,0.0,-0.07949488718003452,-0.10116391134010072,-0.13057866509461089,0.5614757837583455,0.1259192243772599,-0.011608986754217789
5663,3.0,299.62485,1368.2468,0.0,0.0,0.0,0.05742929661601517,0.0,0.0,-0.12895286477915688,-0.14530036831502985,-0.14165960871821487,0.5538912217248075,0.14977999766963487,-0.02079174006448498
5664,3.0,300.05337000000003,1330.5455,0.0,0.0,0.0,0.05743943775968743,0.0,0.0,-0.13909484980009287,-0.13062107974379686,-0.13473669899997687,0.5614966364454035,0.14493738159920586,-0.01066288271184459
5665,3.0,300.99001,1206.6325,0.0,0.0,0.0,0.05744957890335969,0.0,0.0,-0.08341438174685852,-0.13394832962717088,-0.14942344509194586,0.5501227216878855,0.15574228549806687,-0.006978637156512863
5666,3.0,300.37976000000003,1198.8016,0.0,0.0,0.0,0.05745972004703195,0.0,0.0,-0.07791638841899884,-0.14036362131031085,-0.14612574158148786,0.5331267887505176,0.12686600527069988,-0.03082058355275477
5667,3.0,300.11498,1393.0966,0.0,0.0,0.0,0.057469861190704206,0.0,0.0,-0.1001267353654894,-0.13605617354519886,-0.18728366680095881,0.5168019009568765,0.13864949598363988,-0.02367516107280648
5668,3.0,300.9051,1472.0749,0.0,0.0,0.0,0.05748000233437647,0.0,0.0,-0.13280809902463886,-0.14378849784081987,-0.17087742515678886,0.5194418632974206,0.12554029923736287,-0.031047180725618174
5669,3.0,300.19887,1031.3183,0.0,0.0,0.0,0.05749014347804873,0.0,0.0,-0.08482199587852922,-0.11574604138574489,-0.11292695669252291,0.5611733083384934,0.13598856949852686,-0.022798702776056775
5670,3.0,300.1202,765.9607,0.0,0.0,0.0,0.05750028462172099,0.0,0.0,-0.06232661661265814,-0.0922134922247631,-0.07829281792389951,0.5837389453530485,0.12588024464591288,-0.039502059747049754
5671,3.0,299.8823,1093.4803,0.0,0.0,0.0,0.05751042576539325,0.0,0.0,-0.06326108347763285,-0.13726616641711586,-0.13186345608890987,0.5763906732428304,0.1318944919394729,-0.04481046182219826
5672,3.0,299.12827000000004,1556.9254,0.0,0.0,0.0,0.05752056690906551,0.0,0.0,-0.10261152351946891,-0.17123075559915985,-0.19942415592163182,0.5774936770366884,0.1194374533550589,-0.025994522975709675
5673,3.0,300.15097000000003,1413.1347,0.0,0.0,0.0,0.057530708052737786,0.0,0.0,-0.09969965348808972,-0.15618816620457185,-0.17366984110737885,0.5505080607009154,0.13210592683783987,-0.025791203197393576
5674,3.0,301.19016,1285.4628,0.0,0.0,0.0,0.057540849196410046,0.0,0.0,-0.08488009361276301,-0.16813797178892584,-0.13773053893794587,0.5583685611341865,0.12356814977272688,-0.015677060262705385
5675,3.0,301.03188,1232.0483,0.0,0.0,0.0,0.0575509903400823,0.0,0.0,-0.12315667903961788,-0.12947979536116086,-0.12187544455316988,0.5222676151763005,0.13900091138332188,-0.027824125376527373
5676,3.0,301.00797,1384.8784,0.0,0.0,0.0,0.05756113148375456,0.0,0.0,-0.14919808813720484,-0.1244773694849599,-0.14729299556418685,0.5303550937644724,0.15014272094043285,-0.007196514299015663
5677,3.0,300.722,1433.0041,0.0,0.0,0.0,0.05757127262742682,0.0,0.0,-0.12657070366155587,-0.13726054287906087,-0.17176621774700582,0.5227363953350654,0.13628020314230888,-0.017156217957436885
5678,3.0,300.15532,1192.5287,0.0,0.0,0.0,0.05758141377109909,0.0,0.0,-0.08267240605638122,-0.11840828509598789,-0.16141826937824286,0.5550819729773255,0.15020924080949788,-0.019438880954968183
5679,3.0,300.68514,915.4472400000001,0.0,0.0,0.0,0.05759155491477135,0.0,0.0,-0.03818732315929536,-0.1110581486055859,-0.12902762237153487,0.5594878985196564,0.14246843561053985,-0.04343947769489266
5680,3.0,300.1524,1085.9443,0.0,0.0,0.0,0.05760169605844361,0.0,0.0,-0.07797038249032763,-0.0994293568649135,-0.15270022498783883,0.5760973677363834,0.15081732259201086,-0.022649862415867375
5681,3.0,299.96547000000004,1468.2374,0.0,0.0,0.0,0.05761183720211587,0.0,0.0,-0.15472395901506586,-0.14168967184868186,-0.14989385658337184,0.5574799711939895,0.14894801801252486,-0.01933328104279628
5682,3.0,299.66348999999997,1300.0051,0.0,0.0,0.0,0.05762197834578813,0.0,0.0,-0.1097939671183209,-0.13447421656157188,-0.15090089546025887,0.5712415287521495,0.1088344294061219,-0.014220861801989788
5683,3.0,299.78153,1062.6401,0.0,0.0,0.0,0.05763211948946039,0.0,0.0,-0.051853280570520355,-0.15072916983331086,-0.12043362005837288,0.5549174616910895,0.12114011882309889,-0.02644491365840977
5684,3.0,299.81442999999996,1199.0483,0.0,0.0,0.0,0.05764226063313265,0.0,0.0,-0.06383399332267464,-0.14161981838678786,-0.15902692821473585,0.5350198945748526,0.11260687098593289,-0.02204748725791758
5685,3.0,300.32068,1556.5774,0.0,0.0,0.0,0.057652401776804904,0.0,0.0,-0.1244943515566359,-0.15596649748019487,-0.1926998128254908,0.5412826718529405,0.12963086081856987,-0.013346598204956686
5686,3.0,300.54463,1512.4571,0.0,0.0,0.0,0.05766254292047718,0.0,0.0,-0.1072963866818289,-0.17333503287683585,-0.1791177727875478,0.5226567336122036,0.14007132905396388,-0.029863095645508073
5687,3.0,300.60554,1067.3181,0.0,0.0,0.0,0.05767268406414944,0.0,0.0,-0.08797301725151081,-0.12289517945380989,-0.11356985374847188,0.5535444672755855,0.15717450438191585,-0.015884685340696383
5688,3.0,301.54705,978.3452599999999,0.0,0.0,0.0,0.0576828252078217,0.0,0.0,-0.06271945468967824,-0.11279641968213988,-0.12187666045328988,0.5813620835334704,0.15035171390605886,-0.020000527511898382
5689,3.0,301.96943,1256.111,0.0,0.0,0.0,0.05769296635149396,0.0,0.0,-0.09148553586266941,-0.14425368096172983,-0.14608716715018086,0.5649170749404744,0.12495769056236389,-0.03802304390733226
5690,3.0,301.19197,1481.4746,0.0,0.0,0.0,0.05770310749516622,0.0,0.0,-0.1082282221362939,-0.14421680879059084,-0.19788623478735082,0.5467757742225675,0.1036869871756089,-0.036502279123744465
5691,3.0,300.33397,1390.6408,0.0,0.0,0.0,0.05771324863883848,0.0,0.0,-0.07822394528810234,-0.18390078948709482,-0.16059535830952784,0.5314458169671186,0.1104581829563739,-0.053440174108634546
5692,3.0,299.52047999999996,948.99064,0.0,0.0,0.0,0.05772338978251074,0.0,0.0,-0.06835419118478343,-0.11519900792175689,-0.10491625206442791,0.5575698768753624,0.15145390709983686,-0.03348200855691697
5693,3.0,300.21181,1000.8726,0.0,0.0,0.0,0.057733530926183003,0.0,0.0,-0.08406482244980203,-0.10680987464631389,-0.1133655622633099,0.5654820327987314,0.14444577291568786,-0.006346968431547014
5694,3.0,300.16818,1508.3585,0.0,0.0,0.0,0.05774367206985526,0.0,0.0,-0.15966164834237787,-0.14478686329685087,-0.15405478838402384,0.5354958080143215,0.13996337738830988,-0.00955049480351045
5695,3.0,299.87824,1475.7605,0.0,0.0,0.0,0.05775381321352752,0.0,0.0,-0.09423271323604472,-0.15085034441276987,-0.20351128258499981,0.5443155117872586,0.11514176942360789,-0.008891457078768492
5696,3.0,300.07419,1085.6978,0.0,0.0,0.0,0.05776395435719978,0.0,0.0,-0.07510553536958922,-0.1136856175723969,-0.14123387142369787,0.5466243946576276,0.1157125737349419,-0.012309944054146888
5697,3.0,299.88815,1073.3386,0.0,0.0,0.0,0.05777409550087204,0.0,0.0,-0.054361866929598546,-0.12417713334782887,-0.14772913893723086,0.5770606646064534,0.13132786221855086,-0.029329161478812867
5698,3.0,298.21033,1144.5607,0.0,0.0,0.0,0.05778423664454431,0.0,0.0,-0.12741902704277888,-0.10773626894774191,-0.11276256699629889,0.5568083383652044,0.12161484675995089,-0.03235835371277087
5699,3.0,299.79187,1374.2078,0.0,0.0,0.0,0.05779437778821657,0.0,0.0,-0.11941424992776889,-0.16962141046532983,-0.12868918670563387,0.5601977916722175,0.13254986210415287,-0.04957949364386505
5700,3.0,299.52353,1172.7835,0.0,0.0,0.0,0.057804518931888836,0.0,0.0,-0.1051433315443389,-0.11927627566165187,-0.13207730252251487,0.5403806259514154,0.14747308050445987,-0.030975935058086768
5701,3.0,299.19625,831.24455,0.0,0.0,0.0,0.05781466007556109,0.0,0.0,-0.03304725840276047,-0.11335508525727589,-0.1062752433635499,0.5646796400445415,0.15875217531761987,-0.04465816526591776
5702,3.0,300.95529,869.0411,0.0,0.0,0.0,0.05782480121923335,0.0,0.0,-0.03274734143941097,-0.11728938340806089,-0.11413006959626089,0.5395002534695296,0.12959361374489387,-0.06382976705650753
5703,3.0,301.2697,1249.6066,0.0,0.0,0.0,0.057834942362905616,0.0,0.0,-0.08200426387419071,-0.13958573907603988,-0.15825919874646685,0.5577833990689355,0.10704201024422388,-0.045698882549628554
5704,3.0,300.53776,1450.9486,0.0,0.0,0.0,0.057845083506577875,0.0,0.0,-0.1344180521085289,-0.15926495079572683,-0.14736914130920187,0.5432354783731674,0.13900593710381787,-0.02274411494016938
5705,3.0,300.64667000000003,1170.1157,0.0,0.0,0.0,0.057855224650250135,0.0,0.0,-0.099648517795293,-0.12463240688276088,-0.13140502121366587,0.5612223192458304,0.13865445077662888,0.004223007656103406
5706,3.0,299.80565,1076.2853,0.0,0.0,0.0,0.057865365793922395,0.0,0.0,-0.06494538378761035,-0.11511770473373288,-0.14710076175521486,0.5660286508301784,0.1280985530898429,-0.007120534321717023
5707,3.0,299.22872,1263.0185,0.0,0.0,0.0,0.057875506937594655,0.0,0.0,-0.07876910525265542,-0.12433897978630189,-0.18081800645534782,0.5430780497051305,0.11459899161003988,-0.004934871377458886
5708,3.0,299.39659,1474.0935,0.0,0.0,0.0,0.05788564808126692,0.0,0.0,-0.09352999693394201,-0.14951774827875286,-0.2050398716858598,0.5404932993625355,0.14016693933339985,-0.022370816378077682
5709,3.0,300.19209,1285.7914,0.0,0.0,0.0,0.05789578922493918,0.0,0.0,-0.1103880559169529,-0.11812176836521088,-0.16233865510657783,0.5623224758069075,0.13867557704121386,-0.039096646223038566
5710,3.0,299.98587000000003,1191.2561,0.0,0.0,0.0,0.05790593036861144,0.0,0.0,-0.14191944657385885,-0.11485802899810489,-0.1053346331632189,0.5566377881083725,0.15308238239555486,-0.03591389188342516
5711,3.0,301.16452999999996,1240.2919,0.0,0.0,0.0,0.0579160715122837,0.0,0.0,-0.1132384196407619,-0.12199839232030389,-0.14178096568269186,0.5643860001655615,0.11663959625143189,-0.04119670331404806
5712,3.0,300.83712,1324.1142,0.0,0.0,0.0,0.05792621265595596,0.0,0.0,-0.11956920626556189,-0.11949189528293189,-0.16343656225243286,0.5416334894350635,0.15147561091697884,-0.0026839176365070472
5713,3.0,300.63334,1398.981,0.0,0.0,0.0,0.05793635379962823,0.0,0.0,-0.09482345830934671,-0.14137368980499687,-0.18905814130358584,0.5407341387788045,0.15551939074106885,-0.026292630274380578
5714,3.0,300.10475,1192.3231,0.0,0.0,0.0,0.05794649494330049,0.0,0.0,-0.06878475661602694,-0.13281216215753985,-0.16083952118612485,0.5316842752456525,0.12826812049407788,-0.01886141351097658
5715,3.0,299.82768,978.37105,0.0,0.0,0.0,0.05795663608697275,0.0,0.0,-0.06640182137534953,-0.12358919497730388,-0.1074093539354779,0.5476398029803404,0.09151689088701391,-0.04784006442244675
5716,3.0,300.19884,1130.9855,0.0,0.0,0.0,0.05796677723064501,0.0,0.0,-0.1038739115540569,-0.12202095740003087,-0.1178964722054759,0.5424798268460904,0.12249227068404589,-0.02125404656836108
5717,3.0,300.0385,1411.1906,0.0,0.0,0.0,0.05797691837431727,0.0,0.0,-0.1027801283361089,-0.15449171195964487,-0.17169486467496384,0.5703286208095524,0.13686914463043287,-0.02481176018698008
5718,3.0,300.33701,1193.9582,0.0,0.0,0.0,0.057987059517989534,0.0,0.0,-0.09281725148234951,-0.11709460634133789,-0.15302162791955884,0.5395163033511134,0.15867063908207285,-0.019633700578195377
5719,3.0,300.45356,1097.455,0.0,0.0,0.0,0.057997200661661794,0.0,0.0,-0.030774763369982673,-0.12751888284013388,-0.17530527743128385,0.5664827591274955,0.13129665411547087,-0.05237642565015075
5720,3.0,300.2789,1257.9722,0.0,0.0,0.0,0.05800734180533405,0.0,0.0,-0.07749671745283052,-0.14722061910954387,-0.15767479661879086,0.5470630306259175,0.13322927669370588,-0.03557927819690136
5721,3.0,299.18115,1288.4863,0.0,0.0,0.0,0.05801748294900631,0.0,0.0,-0.10318669493873389,-0.14496841744976885,-0.14351254930858587,0.5712240096579204,0.12395818013371988,-0.06376148514551865
5722,3.0,300.88471,1268.6967,0.0,0.0,0.0,0.05802762409267857,0.0,0.0,-0.12568010748616087,-0.14686323566677287,-0.1131087742904669,0.5384466354855455,0.0985092457273556,-0.060538534161188144
5723,3.0,299.76395,1064.925,0.0,0.0,0.0,0.05803776523635084,0.0,0.0,-0.08972238442990993,-0.11127361623935089,-0.12271459802098789,0.5500821916838855,0.09167132742750561,-0.02913056344596277
5724,3.0,299.69351,920.82461,0.0,0.0,0.0,0.0580479063800231,0.0,0.0,-0.08644930087038173,-0.08174262851286933,-0.1117157580529869,0.5557828583364974,0.14888902659170286,0.007695484649810203
5725,3.0,299.52017,1153.8147,0.0,0.0,0.0,0.05805804752369536,0.0,0.0,-0.04175548034669506,-0.12407589953033787,-0.18489947918315783,0.5729848559467025,0.17658992657056882,0.019181786980594983
5726,3.0,301.01552000000004,1600.5236,0.0,0.0,0.0,0.05806818866736762,0.0,0.0,-0.13310939907437488,-0.16384369627511386,-0.1895660937112168,0.5324632011275265,0.15634351770990385,-0.001043309076141589
5727,3.0,301.33928,1572.3246,0.0,0.0,0.0,0.05807832981103988,0.0,0.0,-0.1285859871829489,-0.16246516951406384,-0.18689625062522383,0.5493455993911895,0.11707106854151489,-0.010608512724728689
5728,3.0,301.03842000000003,1240.3591,0.0,0.0,0.0,0.058088470954712146,0.0,0.0,-0.1142092348265739,-0.12047241740470188,-0.14235653226949585,0.5615744743180855,0.14418859990780686,-0.029264614407692572
5729,3.0,301.56005,1308.9659,0.0,0.0,0.0,0.058098612098384406,0.0,0.0,-0.09526442981911722,-0.13899446711268587,-0.16363406496192487,0.5965955793793994,0.13178051143572386,-0.027695929987125476
5730,3.0,300.45511,1387.5486,0.0,0.0,0.0,0.058108753242056665,0.0,0.0,-0.11159416804098689,-0.14504235430956586,-0.16514360496090486,0.5530533145546125,0.12580700692868488,-0.033139345611598765
5731,3.0,300.13312,1269.422,0.0,0.0,0.0,0.058118894385728925,0.0,0.0,-0.06501039492727644,-0.14999881916123087,-0.17086336124540083,0.5377042474022774,0.1014612110784419,-0.04514286966325436
5732,3.0,300.63234,1084.2535,0.0,0.0,0.0,0.058129035529401185,0.0,0.0,-0.096307264795537,-0.12931436201733387,-0.1039643542579829,0.5500372641744515,0.14913138588312186,-0.03490628963948257
5733,3.0,299.01105,899.1692300000001,0.0,0.0,0.0,0.05813917667307346,0.0,0.0,-0.03802969792073896,-0.13851962771832288,-0.09677566802526481,0.5799158007382335,0.15088487597617786,-0.05681782913148315
5734,3.0,297.85298,1159.9317,0.0,0.0,0.0,0.05814931781674572,0.0,0.0,-0.09120720923245072,-0.15208472621459385,-0.1092983459644069,0.5590722227986324,0.13751508143668187,-0.043888397138447555
5735,3.0,299.0713,1426.9201,0.0,0.0,0.0,0.05815945896041798,0.0,0.0,-0.11589151370260188,-0.15791471397746887,-0.15994185252503185,0.5560114779565605,0.10420750388447991,-0.02436086997198068
5736,3.0,299.42008,1150.0645,0.0,0.0,0.0,0.05816960010409024,0.0,0.0,-0.07251528814520172,-0.1004046425101667,-0.17667094604856484,0.5602998563547904,0.14619267688309387,0.005581083382435045
5737,3.0,299.72015,1053.8234,0.0,0.0,0.0,0.05817974124776249,0.0,0.0,-0.014743585369578588,-0.13862010159823887,-0.16697230860888385,0.5776290675150505,0.14703065498079587,-0.02105243918271398
5738,3.0,300.2379,1275.9272,0.0,0.0,0.0,0.05818988239143475,0.0,0.0,-0.08398173492835193,-0.13967637429748486,-0.16419189967197884,0.5456023090167554,0.13997417863437586,-0.043410914174573656
5739,3.0,299.56722,1548.6922,0.0,0.0,0.0,0.05820002353510701,0.0,0.0,-0.13006675087908887,-0.15571391449526684,-0.18498309258140982,0.5492054770348604,0.1218463136127949,-0.03208134532093227
5740,3.0,300.10764,1475.5498,0.0,0.0,0.0,0.05821016467877927,0.0,0.0,-0.16739642470324084,-0.14832216382325786,-0.13281169606249388,0.5428919460592635,0.13366708179691386,-0.04032793153255696
5741,3.0,300.00942000000003,1191.5492,0.0,0.0,0.0,0.05822030582245153,0.0,0.0,-0.13029887634449788,-0.11607094003030989,-0.11583138744166789,0.5751725743701135,0.13926583575446785,-0.02171587177843968
5742,3.0,300.39898,1108.9543,0.0,0.0,0.0,0.058230446966123804,0.0,0.0,-0.09176637839288641,-0.11908849002061887,-0.1262395431313729,0.5850278501427535,0.11147956945467688,-0.026638527514017973
5743,3.0,299.77929,1225.8348,0.0,0.0,0.0,0.058240588109796064,0.0,0.0,-0.07742093951760183,-0.13503218299413888,-0.16017005671255385,0.5503535907231705,0.12481996960877187,-0.008319012416847602
5744,3.0,301.09403,1372.4515,0.0,0.0,0.0,0.058250729253468324,0.0,0.0,-0.11345752484238589,-0.13389448551685687,-0.16983899579180384,0.5567063446101385,0.15925393676713984,-0.0009135334624137332
5745,3.0,301.29818,1341.8110000000001,0.0,0.0,0.0,0.058260870397140584,0.0,0.0,-0.07916378744485753,-0.14520232623535387,-0.18351092124611781,0.5714946082296265,0.16451588639145384,-0.02060032698809398
5746,3.0,300.19748,1257.8105,0.0,0.0,0.0,0.058271011540812837,0.0,0.0,-0.1014644433462609,-0.14518212202835987,-0.13569642922969485,0.5515154339503354,0.14189355803380388,-0.02039867299294228
5747,3.0,299.04422999999997,1197.0656,0.0,0.0,0.0,0.058281152684485096,0.0,0.0,-0.08062683142324872,-0.1258155384945269,-0.15743568986019285,0.5615802903736594,0.1121339871642629,-0.01827363016771688
5748,3.0,299.57562,1308.2811,0.0,0.0,0.0,0.05829129382815737,0.0,0.0,-0.1016564339752089,-0.15411321238478987,-0.14191515039343486,0.5595779156585404,0.12540009582102588,-0.030076136545283575
5749,3.0,300.45766000000003,1276.1938,0.0,0.0,0.0,0.05830143497182963,0.0,0.0,-0.08564642074289361,-0.12545833743677387,-0.17682630768639782,0.5672707232002615,0.13130253096605088,-0.040788400000751665
5750,3.0,299.98503999999997,902.36552,0.0,0.0,0.0,0.05831157611550189,0.0,0.0,-0.07626270143429263,-0.13043826916075488,-0.06759561237816754,0.5425996842004194,0.1152153313808679,-0.07814165418123084
5751,3.0,299.69531,889.70095,0.0,0.0,0.0,0.05832171725917415,0.0,0.0,-0.03711975272143436,-0.12676871299609788,-0.1065584062364959,0.5405620382493195,0.14669211798988485,-0.07008330248043344
5752,3.0,300.16911,1276.5952,0.0,0.0,0.0,0.05833185840284641,0.0,0.0,-0.14754299476135985,-0.12711810189557987,-0.1133919675609159,0.5381448389432605,0.16326281012528485,-0.03260850489745887
5753,3.0,300.47197,1321.3656,0.0,0.0,0.0,0.058341999546518676,0.0,0.0,-0.0995078330851585,-0.13456771928079986,-0.16758661174701084,0.5413894785459815,0.15930686895236384,-0.026641511535562473
5754,3.0,300.17859,1192.9761,0.0,0.0,0.0,0.058352140690190936,0.0,0.0,-0.07780041890530352,-0.13442688764940086,-0.15040764531157885,0.5380544975643445,0.11139355465368789,-0.01066891256318969
5755,3.0,300.56698,1236.503,0.0,0.0,0.0,0.058362281833863196,0.0,0.0,-0.06485190943938514,-0.12613914017896388,-0.18487498892824084,0.5751971254200364,0.0978929454732815,0.006866861484981463
5756,3.0,300.72336,1412.9629,0.0,0.0,0.0,0.058372422977535456,0.0,0.0,-0.1210854539802039,-0.15248835439192884,-0.15593162141175287,0.5740012167245094,0.12617866706536487,-0.031539297047436264
5757,3.0,300.03241,1516.2198,0.0,0.0,0.0,0.058382564121207715,0.0,0.0,-0.1166416835466379,-0.14139846376994186,-0.2028528017425128,0.5821355074673015,0.13760956700850688,-0.025637269228951477
5758,3.0,301.08014,1281.3775,0.0,0.0,0.0,0.05839270526487998,0.0,0.0,-0.14877209753016285,-0.1011919165596146,-0.13954275700679786,0.5537308343664785,0.1066955800350339,-0.042957408761066164
5759,3.0,300.13542,1024.26,0.0,0.0,0.0,0.05840284640855224,0.0,0.0,-0.05563809697380265,-0.11858522896095089,-0.13712614538579687,0.5388123275791364,0.14264816591327786,-0.015342234806910684
5760,3.0,299.72227999999996,998.2515599999999,0.0,0.0,0.0,0.0584129875522245,0.0,0.0,-0.07935160145689334,-0.0999513843296836,-0.12414056515171988,0.5752773849604574,0.14675509148359986,-0.01921205985383268
5761,3.0,300.23345,1394.257,0.0,0.0,0.0,0.05842312869589676,0.0,0.0,-0.1060387203927069,-0.14229815893123485,-0.17548243407876785,0.5621354602359504,0.14141106860118588,-0.0003055284943908147
5762,3.0,299.58497,1520.3371,0.0,0.0,0.0,0.05843326983956902,0.0,0.0,-0.15083250107850885,-0.15740507957467184,-0.15390694506193284,0.5410387825538705,0.1269358080700889,-0.03837064340713767
5763,3.0,299.19586,1296.372,0.0,0.0,0.0,0.05844341098324129,0.0,0.0,-0.10002318931127022,-0.1165716375672249,-0.17746990388491585,0.5339343997427225,0.13260340223943687,-0.010503524815617189
5764,3.0,300.44039,1146.7624,0.0,0.0,0.0,0.05845355212691355,0.0,0.0,-0.09733146711586792,-0.14507431221771988,-0.1061813657417849,0.5568685659511484,0.16330594418204183,-0.040909971774249855
5765,3.0,299.86847,1189.975,0.0,0.0,0.0,0.05846369327058581,0.0,0.0,-0.05954366036500174,-0.12715807461202489,-0.17502095945322382,0.5702522318845135,0.13808569323049688,-0.02141384725488218
5766,3.0,299.53867,1365.7735,0.0,0.0,0.0,0.05847383441425807,0.0,0.0,-0.09748485190275581,-0.15220626556408884,-0.16546993228811083,0.5804463182255915,0.12050012979493688,-0.05323772471215435
5767,3.0,299.08628999999996,1071.3499,0.0,0.0,0.0,0.05848397555793033,0.0,0.0,-0.04770119342999125,-0.13467066549095988,-0.14329175197929486,0.5495197872158805,0.12022820386559988,-0.027575332960223475
5768,3.0,299.57858999999996,786.63402,0.0,0.0,0.0,0.058494116701602594,0.0,0.0,-0.040270414390630456,-0.1111064198403499,-0.08774026154453961,0.5705328818972114,0.13121198693711486,-0.04673051705944296
5769,3.0,300.12753,991.54435,0.0,0.0,0.0,0.058504257845274854,0.0,0.0,-0.06094061510562044,-0.13680754915685386,-0.10365655927510589,0.5460508951010274,0.13770831836325287,-0.05530422093335165
5770,3.0,300.82569,1336.0833,0.0,0.0,0.0,0.058514398988947114,0.0,0.0,-0.13454673487122887,-0.14892951606569885,-0.12265972039557188,0.5675054121884235,0.12048243844819088,-0.03977204530244526
5771,3.0,300.33859,1415.8496,0.0,0.0,0.0,0.058524540132619374,0.0,0.0,-0.08495161792407192,-0.16576877014010383,-0.17966252643881084,0.5653739696755665,0.13014180231399589,-0.028179704220870273
5772,3.0,301.02795,1239.2442,0.0,0.0,0.0,0.058534681276291634,0.0,0.0,-0.09050358201850811,-0.14461161155955488,-0.14158411145326386,0.5848286249080914,0.14889686914747685,0.00942881126852622
5773,3.0,300.17585,1206.0105,0.0,0.0,0.0,0.0585448224199639,0.0,0.0,-0.07716133572273093,-0.14510946186368887,-0.14432626006639288,0.5901754240957795,0.15163349554756086,-0.02524699264818418
5774,3.0,300.15737,1538.8063,0.0,0.0,0.0,0.05855496356363616,0.0,0.0,-0.15124745739196185,-0.14213927118305386,-0.17437196263167284,0.5510985017991875,0.11030370284612791,-0.007869248429334353
5775,3.0,299.91573999999997,1751.8132,0.0,0.0,0.0,0.05856510470730842,0.0,0.0,-0.17559369907224884,-0.17561424778427684,-0.18129951303536884,0.5363826855618495,0.14330039500264785,-0.019947508187165782
5776,3.0,299.63888,1336.2036,0.0,0.0,0.0,0.05857524585098068,0.0,0.0,-0.12747597169839886,-0.11937891789678189,-0.15931763980092684,0.5352476731973325,0.14759469078146184,0.0063381198197487235
5777,3.0,299.16632000000004,1051.3378,0.0,0.0,0.0,0.05858538699465294,0.0,0.0,-0.029415978773881073,-0.13835375867695288,-0.15181071299005086,0.5356154019236246,0.16501810380351883,-0.037844731141484164
5778,3.0,300.03529,1131.0079,0.0,0.0,0.0,0.058595528138325206,0.0,0.0,-0.08803916627103922,-0.12899195596801488,-0.12676704113343287,0.5672273256984784,0.12525666013686987,-0.005260477675893724
5779,3.0,299.46314,1248.292,0.0,0.0,0.0,0.058605669281997466,0.0,0.0,-0.08841943903356923,-0.13561627101428386,-0.15541388100815584,0.5930168610862074,0.14238638261744188,-0.016978320624129784
5780,3.0,300.53177999999997,1492.3628,0.0,0.0,0.0,0.058615810425669726,0.0,0.0,-0.1309712488458559,-0.18040512730459984,-0.14226466088292886,0.5824694848327625,0.15613638912446187,-0.030822132812157677
5781,3.0,300.92568,1207.7004,0.0,0.0,0.0,0.058625951569341986,0.0,0.0,-0.08408902494169063,-0.14304724459766385,-0.13997449274190688,0.5639190235919744,0.13683165437673286,-0.048620172767187456
5782,3.0,300.06587,969.4689300000001,0.0,0.0,0.0,0.058636092713014246,0.0,0.0,-0.06225409830300114,-0.13769552101448984,-0.09474472371032622,0.5499913436799194,0.08922256436758151,-0.05477122199649875
5783,3.0,300.23989,1251.5221,0.0,0.0,0.0,0.05864623385668651,0.0,0.0,-0.04004592275147486,-0.16384076798232486,-0.17654477614611283,0.5767325438265705,0.1136618568575519,-0.04877436916740545
5784,3.0,300.29294,1472.5667,0.0,0.0,0.0,0.05865637500035877,0.0,0.0,-0.12001417504697688,-0.15060121661068285,-0.17700810501933983,0.5769602109915395,0.1321870071108419,-0.0031682352762804765
5785,3.0,298.67395,1181.3454,0.0,0.0,0.0,0.05866651614403103,0.0,0.0,-0.05248238526610815,-0.16056829439935685,-0.14604883589889786,0.5489856828231685,0.14531369255384485,-0.04502594465471475
5786,3.0,298.88671,893.82474,0.0,0.0,0.0,0.05867665728770329,0.0,0.0,-0.08106488477273123,-0.10488739470157991,-0.08574812673493122,0.5324684396305435,0.11752409266122488,-0.03473027391161117
5787,3.0,299.5813,980.9096099999999,0.0,0.0,0.0,0.05868679843137555,0.0,0.0,-0.06439072662986993,-0.1107868610238119,-0.12299443743360589,0.5421258276586535,0.16485270085719483,-0.05179717893898355
5788,3.0,300.82166,1377.9515,0.0,0.0,0.0,0.058696939575047825,0.0,0.0,-0.13092745617653387,-0.13816597303591988,-0.14976941933859084,0.5583421659690815,0.15281962637962285,-0.024566886008812877
5789,3.0,300.05476,1361.3005,0.0,0.0,0.0,0.05870708071872008,0.0,0.0,-0.07453525186880663,-0.14997444036382485,-0.1892916751866338,0.5643876517632245,0.15243093350876186,-0.028017632840875075
5790,3.0,300.71316,1080.3641,0.0,0.0,0.0,0.05871722186239234,0.0,0.0,-0.09454812583317351,-0.11051837001231389,-0.12333721994243588,0.5383819394666606,0.09550204406031791,0.002413242361768478
5791,3.0,300.97222,1185.5781,0.0,0.0,0.0,0.0587273630060646,0.0,0.0,-0.08798549846624261,-0.1288658772580719,-0.14353476988327887,0.5770474518251495,0.14285249792844387,0.0041069141205958655
5792,3.0,301.09965,1398.6862,0.0,0.0,0.0,0.05873750414973686,0.0,0.0,-0.1823145363230438,-0.10937222202919789,-0.13347891112084287,0.5926636015713435,0.14680583504860786,0.010367638857956291
5793,3.0,299.55203,1553.2523,0.0,0.0,0.0,0.05874764529340912,0.0,0.0,-0.12817963336284488,-0.16509748181635284,-0.17887277904586882,0.5623552848451455,0.13096927300816089,-0.03472160961000607
5794,3.0,299.86491,1496.7967,0.0,0.0,0.0,0.05875778643708138,0.0,0.0,-0.12685352202946787,-0.14917772181019487,-0.17895755768173582,0.5555100812770765,0.0965198912760216,-0.03526662467979486
5795,3.0,298.29404,1152.562,0.0,0.0,0.0,0.05876792758075364,0.0,0.0,-0.05279687985864635,-0.12271990745151189,-0.17483329540220283,0.5564886883561574,0.1259423062145379,-0.014493747279171486
5796,3.0,299.12062000000003,1043.454,0.0,0.0,0.0,0.0587780687244259,0.0,0.0,-0.06266316054062243,-0.11902636765698787,-0.13549441755725786,0.5967657749986964,0.14943972802105285,-0.012442102264689888
5797,3.0,299.78763,1121.2085,0.0,0.0,0.0,0.05878820986809816,0.0,0.0,-0.04231134833830496,-0.12907781878148886,-0.16943023043646183,0.5614920666874524,0.15035025482591485,-0.014880609207101787
5798,3.0,299.76922,1064.9638,0.0,0.0,0.0,0.058798351011770424,0.0,0.0,-0.08583873865162392,-0.12952019364264786,-0.10836347075964188,0.5378297890896675,0.14394245106101386,-0.04247633078583746
5799,3.0,299.88354,924.39734,0.0,0.0,0.0,0.05880849215544268,0.0,0.0,-0.03408869002779177,-0.12828517349326088,-0.11861984158436688,0.5013779546221515,0.16383271264402982,-0.07493905027215843
5800,3.0,300.99649,1073.5667,0.0,0.0,0.0,0.05881863329911494,0.0,0.0,-0.08866168484097701,-0.13033893012095088,-0.1073368660233239,0.5580888129140774,0.15340792952018384,-0.07284786722552473
5801,3.0,299.99009,1226.5094,0.0,0.0,0.0,0.0588287744427872,0.0,0.0,-0.07611629490084343,-0.14770949201779185,-0.14900243967539586,0.5629187430932544,0.12361477954232888,-0.08037344999724193
5802,3.0,299.72062,1374.2309,0.0,0.0,0.0,0.05883891558645946,0.0,0.0,-0.1140461319579769,-0.15028062427904285,-0.15340512281740687,0.5741075674550055,0.09711477142298172,-0.027523451515353178
5803,3.0,299.97395,1424.8689,0.0,0.0,0.0,0.05884905673013174,0.0,0.0,-0.1041705506533329,-0.15561628784813186,-0.17333772812210183,0.5650315519367725,0.12382571794814687,-0.011190425296908989
5804,3.0,299.58765,1279.038,0.0,0.0,0.0,0.058859197873803996,0.0,0.0,-0.15167587979924388,-0.09906110226181959,-0.13805864958532788,0.5783170440679485,0.14227444887889487,0.03027844104699947
5805,3.0,299.50563,1200.0609,0.0,0.0,0.0,0.058869339017476256,0.0,0.0,-0.06356029015266224,-0.14875605778107986,-0.15247219305283385,0.5513349437100225,0.14173193451035287,-0.042785649696864866
5806,3.0,299.6498,1222.5932,0.0,0.0,0.0,0.058879480161148516,0.0,0.0,-0.12240242579767889,-0.10260876747919691,-0.14662663163592188,0.5625848467878015,0.1128031881928079,0.006224782425838194
5807,3.0,299.05487,1277.7356,0.0,0.0,0.0,0.058889621304820776,0.0,0.0,-0.08576062922791511,-0.12354272732771789,-0.17909637294543582,0.5505708518096125,0.14174697114183687,-0.04250974777413546
5808,3.0,299.80512999999996,1140.3882,0.0,0.0,0.0,0.05889976244849304,0.0,0.0,-0.11909943312169889,-0.09847248906672801,-0.12907760599896786,0.5842539297163734,0.14347648773752686,0.016631926891943385
5809,3.0,300.53022000000004,1008.4828,0.0,0.0,0.0,0.0589099035921653,0.0,0.0,-0.06509761853563474,-0.11474907421485189,-0.1267068946074969,0.5781004618590735,0.13017334478960887,-0.028135812253038475
5810,3.0,300.2489,1158.8414,0.0,0.0,0.0,0.05892004473583756,0.0,0.0,-0.1165651223690819,-0.12220685839587789,-0.1134868685652819,0.5868698780295475,0.15244817902546384,-0.026036592106611574
5811,3.0,300.2441,1478.7124,0.0,0.0,0.0,0.05893018587950982,0.0,0.0,-0.1025530893862019,-0.16287342824435586,-0.18406512852081383,0.5633804406338204,0.16120586175977983,-0.06661610755949793
5812,3.0,300.0062,1530.0335,0.0,0.0,0.0,0.05894032702318208,0.0,0.0,-0.13817724037703186,-0.17122096760319386,-0.15569376095077786,0.5675024737631335,0.15415490762640485,-0.03379035069484797
5813,3.0,300.08068,1243.0642,0.0,0.0,0.0,0.05895046816685435,0.0,0.0,-0.07294057656992442,-0.15596069155712183,-0.14895921442612983,0.5222161826012245,0.12947697852588286,-0.05512242360040965
5814,3.0,300.60651,1147.7012,0.0,0.0,0.0,0.05896060931052661,0.0,0.0,-0.08832917567491091,-0.12445060954981887,-0.13609272147630586,0.5513308907096225,0.10486476882684691,-0.01037654228658499
5815,3.0,299.19243,1075.933,0.0,0.0,0.0,0.05897075045419887,0.0,0.0,-0.06294627072456324,-0.1255960786553679,-0.13851440948030788,0.5781452475134935,0.12047904406035588,-0.008124224305698513
5816,3.0,298.43102999999996,1253.9757,0.0,0.0,0.0,0.05898089159787113,0.0,0.0,-0.0944000910068136,-0.14089719881297086,-0.14588002843223785,0.5601715687596295,0.12456280673339187,-0.017230736422791285
5817,3.0,299.11933999999997,1285.4602,0.0,0.0,0.0,0.05899103274154339,0.0,0.0,-0.04467007196784286,-0.16297917102479184,-0.1830985588529208,0.5657170966894305,0.11878170828784189,-0.04640746253005995
5818,3.0,298.86814,1019.3046,0.0,0.0,0.0,0.059001173885215655,0.0,0.0,-0.052796236444832854,-0.14266246287218887,-0.1143844460338659,0.5488278893850955,0.13103747487239187,-0.07431448088401822
5819,3.0,299.76985,1158.1036,0.0,0.0,0.0,0.059011315028887915,0.0,0.0,-0.047428033362032454,-0.14546705808898086,-0.15913948003584386,0.5892955481064425,0.15730023858682485,-0.07228487101946134
5820,3.0,300.51328,1507.3287,0.0,0.0,0.0,0.059021456172560174,0.0,0.0,-0.17015907136589284,-0.14721298933629087,-0.14081821596767585,0.5697235686448385,0.13117270323073787,-0.006351419841886334
5821,3.0,299.97595,1481.7217,0.0,0.0,0.0,0.059031597316232434,0.0,0.0,-0.14026742334581685,-0.15406319835985385,-0.15607577650347984,0.5659033928528164,0.1046911281572099,-0.03101729187416837
5822,3.0,300.11555,1222.5216,0.0,0.0,0.0,0.059041738459904694,0.0,0.0,-0.12395336719574487,-0.09841470442677511,-0.14924795017462586,0.5230699775329875,0.1008661191622109,0.012911402220756187
5823,3.0,300.70484,1156.3318,0.0,0.0,0.0,0.05905187960357696,0.0,0.0,-0.054096187687128046,-0.1357635367838179,-0.16163627013725784,0.5715293424430545,0.12742395143826488,-0.026895375268616874
5824,3.0,300.95669,1333.7297,0.0,0.0,0.0,0.05906202074724922,0.0,0.0,-0.1200532054408289,-0.13405867256306087,-0.15130864756550086,0.5601311502131404,0.15201533884774585,0.012195677813869689
5825,3.0,301.30069,1496.5038,0.0,0.0,0.0,0.05907216189092148,0.0,0.0,-0.09032110276824881,-0.15157525393181284,-0.2130034196543008,0.5666373709602545,0.14408832867791085,-0.01798561281354178
5826,3.0,300.90565,1254.5397,0.0,0.0,0.0,0.05908230303459374,0.0,0.0,-0.12938590760689486,-0.12692270674629588,-0.12504011845799887,0.5622209380143864,0.13373085575820787,-0.020087506926982582
5827,3.0,301.13948999999997,973.66725,0.0,0.0,0.0,0.059092444178266,0.0,0.0,-0.05266921237254655,-0.11809212066728488,-0.12520919950218587,0.5860405328226974,0.15434789124045087,-0.024962023150309876
5828,3.0,300.29229,1034.1432,0.0,0.0,0.0,0.05910258532193827,0.0,0.0,-0.06623458241984434,-0.11866865997418488,-0.1294504719032669,0.6012618696674265,0.14823378814953586,-0.038301546843068364
5829,3.0,300.38642000000004,1383.5528,0.0,0.0,0.0,0.05911272646561053,0.0,0.0,-0.056943263414362545,-0.18796741810093984,-0.17565481831828084,0.5580163452669255,0.1130938288514919,-0.056964157644674655
5830,3.0,299.23284,1450.8665,0.0,0.0,0.0,0.059122867609282787,0.0,0.0,-0.0964721145073064,-0.17991501823122982,-0.16464005005870783,0.5535513472437645,0.1077910047181439,-0.07573927264463423
5831,3.0,298.93093,1129.3976,0.0,0.0,0.0,0.059133008752955046,0.0,0.0,-0.03868618063402876,-0.14857922537362786,-0.15604328157277284,0.5363376871249085,0.1374857985087919,-0.02938506957958057
5832,3.0,299.4202,1142.0747,0.0,0.0,0.0,0.059143149896627306,0.0,0.0,-0.12646524459114789,-0.13848920995032085,-0.08220773158702142,0.5763800037192774,0.15693528616580685,-0.01910398862466688
5833,3.0,300.09597,1389.8839,0.0,0.0,0.0,0.05915329104029957,0.0,0.0,-0.12174334713763289,-0.12732530140852888,-0.17342135165285483,0.5490945970764175,0.11280285382027488,0.0054563901906787855
5834,3.0,299.61244,1317.1565,0.0,0.0,0.0,0.05916343218397183,0.0,0.0,-0.1174920232955599,-0.14880317391072984,-0.13408747926340386,0.5685462328236445,0.14102107877019687,-0.04476140633185686
5835,3.0,300.53461,1129.0076,0.0,0.0,0.0,0.05917357332764409,0.0,0.0,-0.03630679480845167,-0.12367525030829689,-0.1832080810562298,0.5661294286851244,0.15045436627368985,-0.015388085387185786
5836,3.0,300.29103,1247.1936,0.0,0.0,0.0,0.05918371447131635,0.0,0.0,-0.07310663812881343,-0.14012365328912788,-0.16588543575661785,0.5931212663765114,0.16859971999199683,-0.04070749096701656
5837,3.0,301.04315,1404.6848,0.0,0.0,0.0,0.05919385561498861,0.0,0.0,-0.07749968830212373,-0.16166486405507982,-0.1878245599693408,0.5652048683663775,0.13879406650790788,-0.04199378258471366
5838,3.0,300.5621,1397.5607,0.0,0.0,0.0,0.05920399675866088,0.0,0.0,-0.14609926535637485,-0.14885353244069985,-0.12987076804474687,0.5614329232791155,0.13724116953714888,-0.022674708321569478
5839,3.0,299.60986,1314.6126,0.0,0.0,0.0,0.05921413790233314,0.0,0.0,-0.11111851804654388,-0.14860137502081386,-0.13988953172102186,0.5618466839574505,0.15446882263988584,-0.011976754997263687
5840,3.0,299.07819,1212.3016,0.0,0.0,0.0,0.0592242790460054,0.0,0.0,-0.14648370257681584,-0.1159693110452799,-0.10605638134194989,0.5638955668521594,0.16255174160260785,-0.004601665196648996
5841,3.0,300.94858,1230.0735,0.0,0.0,0.0,0.05923442018967766,0.0,0.0,-0.07536964103465443,-0.12566914412007887,-0.17287284897622185,0.5476848926097905,0.1148228590871339,-0.013512829989862488
5842,3.0,299.36097,1346.8377,0.0,0.0,0.0,0.05924456133334992,0.0,0.0,-0.1015191385866589,-0.15012739046641987,-0.15775848094454983,0.5369127774841654,0.12308795028533488,-0.025701738279814076
5843,3.0,298.91641,1410.9102,0.0,0.0,0.0,0.05925470247702218,0.0,0.0,-0.0948365961101433,-0.13893670172448486,-0.1951081765906778,0.5791757329976945,0.15070176141810585,0.0025204913384781276
5844,3.0,298.99484,1292.8146,0.0,0.0,0.0,0.05926484362069444,0.0,0.0,-0.15543077188732285,-0.1034859279582659,-0.1340666367088469,0.5553907305477975,0.15895016438715986,0.0027435791196201774
5845,3.0,299.44335,1276.5327,0.0,0.0,0.0,0.059274984764366705,0.0,0.0,-0.09580492883321032,-0.14558389595801188,-0.14664522477525685,0.5651150437450124,0.12888193727215688,-0.03918717910622346
5846,3.0,299.99683,1222.8695,0.0,0.0,0.0,0.059285125908038964,0.0,0.0,-0.0981043732788978,-0.14985616367965188,-0.12376124484428389,0.5682774581021185,0.1254491877883709,-0.05661873967233454
5847,3.0,300.05413,1188.0177,0.0,0.0,0.0,0.059295267051711224,0.0,0.0,-0.04154102494977996,-0.16014118921720483,-0.15944551196354687,0.5964306830581254,0.16231849142958785,-0.06696623106530245
5848,3.0,299.23803,1212.8434,0.0,0.0,0.0,0.059305408195383484,0.0,0.0,-0.05754225127722804,-0.16160901370956784,-0.14952282466175387,0.5737926391914244,0.16005786966148186,-0.06850479257364664
5849,3.0,300.48706,1151.1539,0.0,0.0,0.0,0.059315549339055744,0.0,0.0,-0.07923063965995533,-0.1296807431209929,-0.14101066255916886,0.5522551470533394,0.10372181258154589,-0.03562343360975916
5850,3.0,300.83294,1096.2027,0.0,0.0,0.0,0.05932569048272801,0.0,0.0,-0.08188582405675163,-0.14445080876868488,-0.1068816330183959,0.5507662064288924,0.1138674453028419,-0.03655036696024037
5851,3.0,300.01889,1096.3841,0.0,0.0,0.0,0.059335831626400264,0.0,0.0,-0.1043058296741839,-0.1132845022553099,-0.11568305775952889,0.5918432438928805,0.14370187508977086,0.005728124413096864
5852,3.0,300.37807999999995,1313.5008,0.0,0.0,0.0,0.05934597277007252,0.0,0.0,-0.12954503853509988,-0.13748283981849985,-0.13224357686392488,0.5506761386275034,0.15749685976872982,-0.0018240767427223582
5853,3.0,300.11732,1465.244,0.0,0.0,0.0,0.05935611391374479,0.0,0.0,-0.1067620391090929,-0.15346067932038984,-0.1851748704278368,0.5306185691879755,0.100031202093061,-0.02643179409611497
5854,3.0,299.66317999999995,1395.3676,0.0,0.0,0.0,0.05936625505741705,0.0,0.0,-0.09661352977076301,-0.13730583515853087,-0.19023755428748482,0.5195522771608175,0.1090630794236879,-0.04271211003110705
5855,3.0,300.12694,1319.1131,0.0,0.0,0.0,0.05937639620108931,0.0,0.0,-0.09347423170143841,-0.1165887108314099,-0.19091450667929483,0.5933931619083455,0.15966692737539884,-0.010712231031464889
5856,3.0,299.0824,1267.2146,0.0,0.0,0.0,0.05938653734476157,0.0,0.0,-0.10732434225208791,-0.12735070358853587,-0.15052654007831287,0.5748115938894874,0.15728203048252784,-0.025345844314690075
5857,3.0,300.16679,1362.9649,0.0,0.0,0.0,0.05939667848843383,0.0,0.0,-0.12899953507876286,-0.12026663644189288,-0.16504112484579084,0.5856727433013995,0.1060490656762279,-0.02142483595221668
5858,3.0,300.22761,1291.6026,0.0,0.0,0.0,0.0594068196321061,0.0,0.0,-0.12254874924461988,-0.14956644507855885,-0.12049974475989889,0.5447822249158194,0.11133586019299391,-0.05455921967807575
5859,3.0,299.55627000000004,1116.7148,0.0,0.0,0.0,0.05941696077577836,0.0,0.0,-0.03473418708349737,-0.13046766354615588,-0.17425154798978884,0.6050767866914294,0.15026701633019984,-0.011630727048363388
5860,3.0,299.70309,1207.3634,0.0,0.0,0.0,0.059427101919450616,0.0,0.0,-0.0898732897938031,-0.13041509613096788,-0.14671995197013188,0.5618382334516164,0.14548760680100886,-0.00938521608164871
5861,3.0,301.85535,1400.622,0.0,0.0,0.0,0.059437243063122876,0.0,0.0,-0.09288443705673022,-0.15228482284434186,-0.18058483734233582,0.5576003554383704,0.1063538006438029,-0.003918037918480236
5862,3.0,300.28151,1251.0908,0.0,0.0,0.0,0.059447384206795136,0.0,0.0,-0.09446937502215141,-0.13674736210091387,-0.14908363140590886,0.5505997902324685,0.13569466617452086,-0.013681147043474088
5863,3.0,301.44183,1299.7265,0.0,0.0,0.0,0.05945752535046741,0.0,0.0,-0.09373413845808923,-0.14732970561530986,-0.15402054053064385,0.5697144595264395,0.15804221123755186,-0.0035526702675712563
5864,3.0,301.07622000000003,1322.4053,0.0,0.0,0.0,0.05946766649413967,0.0,0.0,-0.1121965046954329,-0.14293835060941687,-0.14684332530230787,0.5770456077099675,0.14962960095729186,-0.034997457830480166
5865,3.0,300.57655,1321.2022,0.0,0.0,0.0,0.05947780763781193,0.0,0.0,-0.07850666030450412,-0.15291321015885886,-0.17019259981170184,0.5341800622294675,0.10925554628018289,-0.06071177763678594
5866,3.0,300.68031,1400.6307,0.0,0.0,0.0,0.05948794878148419,0.0,0.0,-0.11815427342841887,-0.15884122986890886,-0.14876126588659386,0.5596954324051384,0.13705511655378685,-0.09298859207425951
5867,3.0,300.4081,1306.0884,0.0,0.0,0.0,0.05949808992515645,0.0,0.0,-0.09225556743516561,-0.14556168551581988,-0.15920102484691787,0.5655784435457465,0.16635378021783984,-0.02863711368701307
5868,3.0,299.83215,956.22591,0.0,0.0,0.0,0.059508231068828715,0.0,0.0,-0.05164374956909125,-0.12195060744558789,-0.11707444266434788,0.5727722558107204,0.15889217608393685,-0.03935807082833916
5869,3.0,299.83964,990.8572199999999,0.0,0.0,0.0,0.059518372212500975,0.0,0.0,-0.06788059808804343,-0.1085987069028579,-0.1247165471710649,0.5796806355225244,0.1056846502777629,0.022528308880870977
5870,3.0,299.47567000000004,1341.6653,0.0,0.0,0.0,0.059528513356173235,0.0,0.0,-0.09925622586007682,-0.14404261083339887,-0.16453391211073284,0.5798644086931615,0.12761904261251888,-0.023263683246946776
5871,3.0,299.71839,1420.2957,0.0,0.0,0.0,0.059538654499845495,0.0,0.0,-0.09989032283890731,-0.13426519319844288,-0.19757890589951985,0.5972718832911454,0.15023265701930885,0.03502495541169397
5872,3.0,300.39552000000003,1427.2358,0.0,0.0,0.0,0.059548795643517755,0.0,0.0,-0.11648497428617188,-0.15186917752082085,-0.16548988318257982,0.5656049096383584,0.13791411959106387,-0.015693257065553884
5873,3.0,300.87227,1483.766,0.0,0.0,0.0,0.05955893678719002,0.0,0.0,-0.12559137717490387,-0.14942952459254585,-0.17600692272803084,0.5438516560239794,0.1258296632009209,-0.01888777422557818
5874,3.0,300.8897,1450.2883,0.0,0.0,0.0,0.05956907793086228,0.0,0.0,-0.1416226858845709,-0.16321330272539886,-0.13601543075867786,0.5561795862806515,0.1335945938847599,-0.03205900315622726
5875,3.0,301.55017999999995,1293.637,0.0,0.0,0.0,0.05957921907453454,0.0,0.0,-0.12385737188127087,-0.14843361120175685,-0.12094236280108188,0.5831494060473654,0.16853103176771783,-0.01047046854435479
5876,3.0,299.93292,1250.616,0.0,0.0,0.0,0.0595893602182068,0.0,0.0,-0.1045910899748369,-0.14617508686135786,-0.12938984914978388,0.5698750596672895,0.14339939966991885,-0.027301709836968977
5877,3.0,300.37747,1308.002,0.0,0.0,0.0,0.05959950136187906,0.0,0.0,-0.12258626989582289,-0.13543139340103788,-0.13958228389319885,0.5516861969896885,0.10515576412306589,-0.06355204938959894
5878,3.0,300.15977999999996,922.46869,0.0,0.0,0.0,0.05960964250555133,0.0,0.0,-0.07411162314774772,-0.1161907568546349,-0.0901050656879276,0.5758792960498614,0.1339228869171599,-0.05972389121328915
5879,3.0,300.07447,930.9925099999999,0.0,0.0,0.0,0.05961978364922359,0.0,0.0,-0.027406707878581477,-0.13030207821481388,-0.12528969209012988,0.5959047555937204,0.15760935079483185,-0.056798917831616745
5880,3.0,299.79652999999996,1344.8062,0.0,0.0,0.0,0.05962992479289585,0.0,0.0,-0.08993480319412402,-0.15813335308404686,-0.16071935985676586,0.5927803685128674,0.14137221045985088,-0.007723258139026233
5881,3.0,300.22843,1487.9716,0.0,0.0,0.0,0.05964006593656811,0.0,0.0,-0.1053353323057879,-0.17408222376557783,-0.17288864554528083,0.5618556613533365,0.1044579185141939,-0.02997602034265287
5882,3.0,298.66722000000004,1267.2397,0.0,0.0,0.0,0.05965020708024037,0.0,0.0,-0.08826893795646593,-0.14738374224314285,-0.14955654562508186,0.5741851621476635,0.12129265349315288,-0.025890916126484476
5883,3.0,299.7795,1274.6799,0.0,0.0,0.0,0.05966034822391263,0.0,0.0,-0.0999327101303406,-0.15859580042968685,-0.12894233711061787,0.5763113864225055,0.15070830701375185,-0.02042180650597538
5884,3.0,299.83831000000004,1458.6789,0.0,0.0,0.0,0.05967048936758489,0.0,0.0,-0.1294117353519439,-0.14566015316053785,-0.16833008400788585,0.5535495537910875,0.11542222691878688,-0.030792529697236073
5885,3.0,300.50375,1675.4143,0.0,0.0,0.0,0.05968063051125715,0.0,0.0,-0.15322848292747385,-0.17282337197383885,-0.1832322774686178,0.5407348885838784,0.11406340787218189,-0.05614062444039825
5886,3.0,300.74599,1456.4416,0.0,0.0,0.0,0.05969077165492941,0.0,0.0,-0.13876248350229087,-0.14537822645271387,-0.15858116909824285,0.5402136828649395,0.13779299567410988,-0.030793029229535366
5887,3.0,300.02999,926.7327,0.0,0.0,0.0,0.05970091279860167,0.0,0.0,-0.07173847387653613,-0.07608847003984733,-0.13387665231509688,0.6104722624139215,0.18286099223447483,0.00913464824851959
5888,3.0,300.04295,1111.4228,0.0,0.0,0.0,0.05971105394227394,0.0,0.0,-0.07253913295980502,-0.12198567603154889,-0.14331997099457985,0.5768429171599635,0.13063302596247586,0.013660007606637789
5889,3.0,300.98351,1610.8192,0.0,0.0,0.0,0.0597211950859462,0.0,0.0,-0.13836042586261085,-0.15118888140368084,-0.2000995175107848,0.5830225471348455,0.0998511769345439,-0.013243730015054385
5890,3.0,300.20267,1591.2642,0.0,0.0,0.0,0.05973133622961846,0.0,0.0,-0.12467133595160289,-0.14981854170343886,-0.2092147052778838,0.5558797047810554,0.09963298872426041,-0.017864541585592985
5891,3.0,299.63984,1184.6939,0.0,0.0,0.0,0.05974147737329072,0.0,0.0,-0.05752360950188825,-0.15620867438659586,-0.14638507281208185,0.5812215761421035,0.14805689494707786,-0.04804843018626086
5892,3.0,299.43233,1148.4059,0.0,0.0,0.0,0.05975161851696298,0.0,0.0,-0.06354936529008404,-0.1238130624543979,-0.16172429117344483,0.5591837613696404,0.1082841130118099,-0.015112492505736885
5893,3.0,299.23335,1492.7071,0.0,0.0,0.0,0.059761759660635246,0.0,0.0,-0.1109244502548909,-0.17771907221700683,-0.16510217316431583,0.5459941936254314,0.12208895661424188,-0.03751786679172517
5894,3.0,300.77988,1463.9472,0.0,0.0,0.0,0.059771900804307505,0.0,0.0,-0.1259959071448279,-0.14646016477699286,-0.17254731198409384,0.5556381155597125,0.13843501120247187,-0.022797593267197276
5895,3.0,301.04749,816.61356,0.0,0.0,0.0,0.059782041947979765,0.0,0.0,-0.05456004851665754,-0.08343278743492502,-0.11023729443457389,0.5749055728362624,0.16123953206060285,-0.05331364551564715
5896,3.0,299.77156,576.5740599999999,0.0,0.0,0.0,0.059792183091652025,0.0,0.0,-0.01911262860826958,-0.06511856849470234,-0.0910329190694996,0.5588363280428515,0.13872337204843088,-0.04132684414364196
5897,3.0,300.4187,1179.0474,0.0,0.0,0.0,0.059802324235324285,0.0,0.0,-0.08076444091932973,-0.1267023957770529,-0.15093413006353887,0.5566392370560155,0.13233062518001587,-0.07267005095222563
5898,3.0,300.40693999999996,1505.8747,0.0,0.0,0.0,0.059812465378996545,0.0,0.0,-0.12493931020554988,-0.14130702808091786,-0.1915019789547738,0.5957397883449395,0.12920333007137588,-0.028749147737319975
5899,3.0,300.46107,1340.4979999999998,0.0,0.0,0.0,0.059822606522668804,0.0,0.0,-0.08845259662984162,-0.16314741107139585,-0.15587792928895386,0.5825396625346885,0.16970344319342584,-0.02105581431879708
5900,3.0,300.24256,1111.5974,0.0,0.0,0.0,0.059832747666341064,0.0,0.0,-0.07076783702274173,-0.1136783728341819,-0.15345165126199886,0.5880605076920534,0.12337011004068188,0.0100964638482684
5901,3.0,299.98351,1314.2573,0.0,0.0,0.0,0.05984288881001333,0.0,0.0,-0.10296055778141591,-0.15279759832244885,-0.14374323595885286,0.5611481898685144,0.12984866906006587,-0.018254645913843282
5902,3.0,299.98222999999996,1753.3258,0.0,0.0,0.0,0.05985302995368559,0.0,0.0,-0.13190973122097688,-0.1925837652915378,-0.2084737458772568,0.5812151521364695,0.14926719179402484,-0.022502859078109276
5903,3.0,300.41991,1682.2691,0.0,0.0,0.0,0.05986317109735785,0.0,0.0,-0.15856164376881585,-0.14782648187433786,-0.2049796947624208,0.5645774537719565,0.16053344872841785,-0.004011639226942966
5904,3.0,300.26181,1125.8245,0.0,0.0,0.0,0.05987331224103011,0.0,0.0,-0.07138367016851974,-0.13286584414783786,-0.13797300968687587,0.5722103984977693,0.1200800059059739,-0.014404020943066186
5905,3.0,300.85904,920.6856,0.0,0.0,0.0,0.05988345338470237,0.0,0.0,-0.07109022584680903,-0.10830123693849988,-0.1004739731350091,0.5515580512495415,0.1235080843067989,-0.02832117521308237
5906,3.0,300.57145,1304.914,0.0,0.0,0.0,0.05989359452837463,0.0,0.0,-0.12015506747338188,-0.10479986002544091,-0.17170635493109784,0.5947083200081414,0.1314547515285739,-0.016128714468280184
5907,3.0,301.03525,1593.8745,0.0,0.0,0.0,0.05990373567204689,0.0,0.0,-0.15603062607902385,-0.16334873373376485,-0.16511869927344686,0.5555199908630545,0.16984864193275584,-0.044105563992630256
5908,3.0,300.66037,1372.023,0.0,0.0,0.0,0.05991387681571916,0.0,0.0,-0.09624284539392931,-0.13911805322738285,-0.18169982788487682,0.5784318149067754,0.14781773752597488,-0.012854348134125388
5909,3.0,299.26877,1079.913,0.0,0.0,0.0,0.05992401795939142,0.0,0.0,-0.06759812726491574,-0.13810766049266487,-0.12256077652330688,0.5440509724511505,0.14064351138543388,-0.05777037541799215
5910,3.0,299.17216,1303.2732,0.0,0.0,0.0,0.059934159103063676,0.0,0.0,-0.08550176611886733,-0.16423082874082084,-0.14642989899650585,0.6112276504959725,0.15351548601829884,-0.026046326400322277
5911,3.0,300.42262999999997,1471.2963,0.0,0.0,0.0,0.059944300246735936,0.0,0.0,-0.09548661935404561,-0.15891269439846184,-0.19283802013913082,0.5873652357384355,0.14460818677421688,-0.03938570215856617
5912,3.0,299.38302000000004,1256.0008,0.0,0.0,0.0,0.059954441390408196,0.0,0.0,-0.0925569384124086,-0.16097505351950084,-0.12826089602086488,0.5710617984494115,0.09130357438321123,0.002045127688513388
5913,3.0,299.4512,1001.3077,0.0,0.0,0.0,0.05996458253408046,0.0,0.0,-0.07569772939053424,-0.13051930890375288,-0.098155503905444,0.5509648845085005,0.09619624602183031,-0.04852748166128955
5914,3.0,300.14558,1058.2866,0.0,0.0,0.0,0.05997472367775272,0.0,0.0,-0.07828434411331323,-0.12487836321203488,-0.11852998656549889,0.5592680637779605,0.14706826682450785,-0.02273321743534388
5915,3.0,299.46756,1407.2816,0.0,0.0,0.0,0.05998486482142498,0.0,0.0,-0.1217722551629859,-0.16857420635447884,-0.1374320151934839,0.5636668459070865,0.18633518364735083,-0.04883829308971425
5916,3.0,300.27539,1761.3462,0.0,0.0,0.0,0.05999500596509724,0.0,0.0,-0.15131197102582886,-0.15726752074109585,-0.2268257823509618,0.5512621518228386,0.14575446647984586,0.006251772976701954
5917,3.0,300.92228,1480.2817,0.0,0.0,0.0,0.0600051471087695,0.0,0.0,-0.11244231916969288,-0.17789108155398284,-0.15963527344227485,0.5479087296893814,0.1240508621203669,-0.05090735891316515
5918,3.0,299.65337999999997,1071.7982,0.0,0.0,0.0,0.060015288252441776,0.0,0.0,-0.07965650867698533,-0.1124178086497739,-0.13372557672518687,0.6015866669869814,0.12455306939993087,-0.014754515298407288
5919,3.0,301.15385,1388.5331,0.0,0.0,0.0,0.060025429396114036,0.0,0.0,-0.12822382119970588,-0.1215527041313179,-0.17230286539746884,0.6007747395493503,0.15576733304053886,-0.040467400342571465
5920,3.0,301.45106,1696.559,0.0,0.0,0.0,0.060035570539786295,0.0,0.0,-0.12856438469081688,-0.17957669402283982,-0.20757048407561182,0.5952303768571645,0.1077778527318459,-0.00897456689172079
5921,3.0,300.47112000000004,1225.4244,0.0,0.0,0.0,0.06004571168345855,0.0,0.0,-0.1046156815547639,-0.13704125529241887,-0.13084149203804987,0.5819936625858024,0.0949385614942065,-0.02652078683914787
5922,3.0,300.36087000000003,1017.3610000000001,0.0,0.0,0.0,0.06005585282713081,0.0,0.0,-0.04930402235242815,-0.12456578568868588,-0.13538252434871487,0.5674008143806004,0.11742310202375789,-0.012007762476823888
5923,3.0,300.04804,1122.3438,0.0,0.0,0.0,0.06006599397080308,0.0,0.0,-0.0910111645898526,-0.13031794571137986,-0.11983537693433088,0.5813210671694224,0.14392298652659286,-0.004935790496624595
5924,3.0,298.78303,1213.7413,0.0,0.0,0.0,0.06007613511447534,0.0,0.0,-0.08348338002566813,-0.1075454739539119,-0.17791817586165684,0.5529796310073405,0.1263812258928559,0.0012796658739681888
5925,3.0,299.84362000000004,1556.8753,0.0,0.0,0.0,0.0600862762581476,0.0,0.0,-0.12144173298036587,-0.18504294526481682,-0.16676653777857584,0.5484554085158344,0.13335875992398488,-0.049316691018428456
5926,3.0,299.96657999999996,1447.5069,0.0,0.0,0.0,0.06009641740181986,0.0,0.0,-0.10814504443558491,-0.15663843428400986,-0.17522246450061083,0.5669871651597765,0.14856683332490486,-0.045417898164397556
5927,3.0,300.63577999999995,1102.7631,0.0,0.0,0.0,0.06010655854549212,0.0,0.0,-0.09339897862976151,-0.1198203605678489,-0.12199311328728288,0.5799539698695004,0.1908221489326798,-0.057625226327917035
5928,3.0,300.85553,1246.8026,0.0,0.0,0.0,0.06011669968916439,0.0,0.0,-0.07646075839158933,-0.14801617242555887,-0.15451994110743084,0.5593871105322095,0.12815321793273787,-0.03216872598305607
5929,3.0,300.64364,1430.1342,0.0,0.0,0.0,0.06012684083283665,0.0,0.0,-0.11257046490983988,-0.13655424676435488,-0.18560037467483081,0.5711398389721135,0.13218897281603587,-0.028967071489327374
5930,3.0,299.59229,1322.17,0.0,0.0,0.0,0.06013698197650891,0.0,0.0,-0.09098551821657151,-0.14257390481344887,-0.16834723833207885,0.5549489839017006,0.13778878055369387,-0.01277824494561459
5931,3.0,299.43452,1072.6466,0.0,0.0,0.0,0.06014712312018117,0.0,0.0,-0.054398729981486656,-0.13858586387735988,-0.1330731956483019,0.5856775967693785,0.1452465647347199,-0.03344280996354837
5932,3.0,298.83961,1027.5516,0.0,0.0,0.0,0.06015726426385343,0.0,0.0,-0.05034596161575955,-0.1277034260808469,-0.13430063668694087,0.5670212508931404,0.1133274032645439,-0.026514021368230174
5933,3.0,299.45714,1362.2623,0.0,0.0,0.0,0.060167405407525694,0.0,0.0,-0.09035056909440692,-0.17144003227481383,-0.15230311200864685,0.5752169040619884,0.1040998865913589,-0.027253703060481076
5934,3.0,299.89144,1481.5643,0.0,0.0,0.0,0.060177546551197954,0.0,0.0,-0.1142307461261969,-0.14335569819310587,-0.19277210822012583,0.5971772153343025,0.13921101892405788,-0.03822834965584437
5935,3.0,300.77058,1316.1371,0.0,0.0,0.0,0.060187687694870214,0.0,0.0,-0.1040470557311449,-0.13450977150758087,-0.16151599735038785,0.5756652874962405,0.16577058385778284,-0.003456225070052857
5936,3.0,300.44701000000003,1076.0694,0.0,0.0,0.0,0.06019782883854247,0.0,0.0,-0.07432108626142013,-0.09510322274145731,-0.15767392522370485,0.6047071023924444,0.16610934376371583,-0.010766799615600389
5937,3.0,301.07953,1322.4544,0.0,0.0,0.0,0.06020796998221473,0.0,0.0,-0.0938515326014251,-0.13265562514959087,-0.17548597032161684,0.5369854781788405,0.15751319336034186,-0.01878369114880598
5938,3.0,301.22711,1631.2692,0.0,0.0,0.0,0.060218111125887,0.0,0.0,-0.16375418576127984,-0.16059340273683487,-0.17151750537745986,0.5714740595175984,0.16142115714102784,-0.04582421449424786
5939,3.0,300.56268,1491.1139,0.0,0.0,0.0,0.06022825226955926,0.0,0.0,-0.14139574825967385,-0.12652686032972887,-0.18533878389651381,0.5474676619208515,0.14377064437405787,-0.021724398278031184
5940,3.0,299.71268,1025.8261,0.0,0.0,0.0,0.06023839341323152,0.0,0.0,-0.06450846730474004,-0.12400708971604689,-0.12330996351474588,0.5602320192605954,0.12792294671501186,-0.03948904454951526
5941,3.0,299.63939,1107.8129,0.0,0.0,0.0,0.06024853455690378,0.0,0.0,-0.07866969325884422,-0.11662537022002789,-0.14145240920526586,0.5851632000911114,0.10436918820293689,-0.017235648659276084
5942,3.0,300.36282,1509.0649,0.0,0.0,0.0,0.06025867570057604,0.0,0.0,-0.1175543483092109,-0.16378653883697286,-0.17737717123576383,0.6059741412449915,0.11907484154177189,-0.03127013729087227
5943,3.0,300.42087999999995,1273.6979,0.0,0.0,0.0,0.060268816844248306,0.0,0.0,-0.08360688508035712,-0.15668225735083485,-0.14688320682624384,0.6124353230251603,0.13401834520908087,-0.02197910807491908
5944,3.0,298.93335,951.8019,0.0,0.0,0.0,0.060278957987920566,0.0,0.0,-0.042373437264682665,-0.12981545472178788,-0.11713511608033589,0.6004292820602565,0.1190037012522509,-0.04265345095631786
5945,3.0,298.90218,1016.3939999999999,0.0,0.0,0.0,0.060289099131592826,0.0,0.0,-0.08162174270968882,-0.10799845754361789,-0.11933819537526288,0.5649499245087164,0.13148727685678388,-0.04353010481033686
5946,3.0,298.57693,1393.9214,0.0,0.0,0.0,0.060299240275265086,0.0,0.0,-0.10308483290618091,-0.14389443313877487,-0.17673803333768584,0.5639837601408635,0.15240667630136787,-0.055894096638067846
5947,3.0,298.34573,1463.0467,0.0,0.0,0.0,0.060309381418937345,0.0,0.0,-0.14477300203548285,-0.1333680108973979,-0.16658866172352085,0.5561306361683205,0.15571618417549085,-0.026183907525400476
5948,3.0,299.30811,1260.5669,0.0,0.0,0.0,0.06031952256260961,0.0,0.0,-0.07571117319286103,-0.1283494743446069,-0.17912022485278983,0.5423310513339075,0.16110501297732685,-0.04267375446182166
5949,3.0,299.54354,1084.7016,0.0,0.0,0.0,0.06032966370628187,0.0,0.0,-0.101258025049139,-0.1005144636222552,-0.12794971678265388,0.5571466017785884,0.1330927615077329,-0.027465759081159374
5950,3.0,299.32876,1324.3613,0.0,0.0,0.0,0.06033980484995413,0.0,0.0,-0.11798453377166689,-0.14719931045994084,-0.13738893179923187,0.5840416031579184,0.16648874513115983,-0.04812658925922455
5951,3.0,300.40161,1709.4032,0.0,0.0,0.0,0.06034994599362639,0.0,0.0,-0.16169220154277786,-0.16422916701065685,-0.1936945407136628,0.5905711691873364,0.1142657843146549,-0.01170902797634109
5952,3.0,301.14161,1470.4238,0.0,0.0,0.0,0.06036008713729865,0.0,0.0,-0.11147351021907889,-0.14243871698510688,-0.1930599117785298,0.5953752310914604,0.1000534155750033,-0.0021191206823659276
5953,3.0,300.17025,1164.2017,0.0,0.0,0.0,0.06037022828097091,0.0,0.0,-0.08188818695598482,-0.15286080486368686,-0.11913925385062887,0.5895114311727485,0.1020261790691999,0.0025032772325292276
5954,3.0,299.30694,1277.3266,0.0,0.0,0.0,0.06038036942464317,0.0,0.0,-0.07672518424368613,-0.12469912940184588,-0.18685107993576583,0.5855373730880394,0.12617610354261188,-0.013647478769151289
5955,3.0,299.56336,1686.9174,0.0,0.0,0.0,0.06039051056831543,0.0,0.0,-0.15653360342866388,-0.17278413892996683,-0.18346303504639183,0.5857224736163075,0.12226625511673989,0.005071594178377375
5956,3.0,299.83059,1481.8459,0.0,0.0,0.0,0.06040065171198769,0.0,0.0,-0.12506976615592488,-0.15988915338733084,-0.16548522223211987,0.5468084414057915,0.13591815874907787,-0.031229165509828672
5957,3.0,299.21229,1087.9889,0.0,0.0,0.0,0.06041079285565996,0.0,0.0,-0.09529376340951222,-0.1108609498711239,-0.12456673814377987,0.5906297755731205,0.16845659841537183,-0.039063158307233566
5958,3.0,299.00986,1060.328,0.0,0.0,0.0,0.06042093399933222,0.0,0.0,-0.07773507541960463,-0.12828296460804287,-0.11629518240994088,0.5606591649727515,0.17475904443487483,-0.04631584749576826
5959,3.0,299.31157,1184.19,0.0,0.0,0.0,0.06043107514300448,0.0,0.0,-0.100656762439799,-0.1098083350047389,-0.14949909434441186,0.5950384976857275,0.14317883538815088,-0.03164032517515697
5960,3.0,299.10741,1363.2754,0.0,0.0,0.0,0.06044121628667674,0.0,0.0,-0.06553796081709315,-0.16012331548544084,-0.1887404164697288,0.5492543967496885,0.12458894858597187,-0.06920693740269294
5961,3.0,300.40348,1416.6224,0.0,0.0,0.0,0.060451357430349,0.0,0.0,-0.10591809296830192,-0.16551354257241485,-0.15918621113045583,0.5705365295975715,0.1355727620549899,-0.013772510791740989
5962,3.0,299.90381,1143.8727,0.0,0.0,0.0,0.06046149857402126,0.0,0.0,-0.04808970594233446,-0.15686894868175988,-0.14275008874083686,0.5612621399747605,0.16312302214148883,-0.058990543347413354
5963,3.0,300.5253,1142.2774,0.0,0.0,0.0,0.06047163971769352,0.0,0.0,-0.07516921915162433,-0.13792847734498087,-0.13412612462221787,0.5557948045551765,0.12768898726692188,-0.01913135144361738
5964,3.0,300.13842999999997,1424.4241,0.0,0.0,0.0,0.06048178086136578,0.0,0.0,-0.098767172593311,-0.17565388612818883,-0.15856830082197285,0.5688421727803514,0.13940960581115688,-0.050799287683999356
5965,3.0,300.69167000000004,1506.6949,0.0,0.0,0.0,0.06049192200503804,0.0,0.0,-0.12075799181288589,-0.15566917950335185,-0.18157045611210884,0.5986870694408134,0.11867108164192387,0.027287315606048374
5966,3.0,299.45747,1214.8303,0.0,0.0,0.0,0.0605020631487103,0.0,0.0,-0.05871221367744434,-0.16694108024080184,-0.14362479715466386,0.6034229193482055,0.1755515782655918,-0.06030686972457464
5967,3.0,299.56282999999996,1213.7867,0.0,0.0,0.0,0.06051220429238256,0.0,0.0,-0.11931367472284289,-0.1105415633071029,-0.13910560038365385,0.5888384000588255,0.1284400893010499,0.018213866650318683
5968,3.0,299.63632,1503.227,0.0,0.0,0.0,0.06052234543605483,0.0,0.0,-0.12939064961736288,-0.14990763678473185,-0.17764519615221583,0.5572677459605445,0.15544321459855084,-0.038653021011256165
5969,3.0,300.65722999999997,1623.3629999999998,0.0,0.0,0.0,0.06053248657972709,0.0,0.0,-0.13392039432191385,-0.18256312710257783,-0.17697828506889682,0.5635084343864525,0.14718691841121784,-0.006958399816240593
5970,3.0,299.82272,1460.3108,0.0,0.0,0.0,0.06054262772339935,0.0,0.0,-0.12606891181453286,-0.15534319668117985,-0.16248592087611186,0.5736563063904694,0.15916589546595084,-0.05043143432794505
5971,3.0,301.33794,1537.4397,0.0,0.0,0.0,0.06055276886707161,0.0,0.0,-0.13243693538050788,-0.15546676253087485,-0.17943958101930785,0.5585350685231194,0.11589527286047288,-0.025205058279545577
5972,3.0,302.01106,1150.3584,0.0,0.0,0.0,0.06056291001074387,0.0,0.0,-0.057892243060519544,-0.15315220545994584,-0.13863579684228788,0.5530357144003755,0.12722055161319087,-0.05900043570813965
5973,3.0,301.5343,1076.4232,0.0,0.0,0.0,0.060573051154416135,0.0,0.0,-0.08833567466105231,-0.12306494950806487,-0.11580516452907991,0.5921512617907795,0.13211915988414588,-0.0069174778871019145
5974,3.0,300.19866,1394.8544,0.0,0.0,0.0,0.060583192298088395,0.0,0.0,-0.07504611331747472,-0.19130479035281284,-0.15764999225634285,0.5962017189330284,0.16610316293810584,-0.03864654938286746
5975,3.0,300.44454,1279.56,0.0,0.0,0.0,0.060593333441760655,0.0,0.0,-0.1061393361276369,-0.13633103789982587,-0.14648393562433887,0.5993208269808604,0.12601457121166987,0.002164182751413208
5976,3.0,299.60527,950.64585,0.0,0.0,0.0,0.060603474585432915,0.0,0.0,-0.024020023784091776,-0.14149661730712887,-0.12345596272165489,0.5682075843752225,0.1125815194684309,-0.05682119616156545
5977,3.0,299.57475,1191.4702,0.0,0.0,0.0,0.060613615729105175,0.0,0.0,-0.07536910502535153,-0.1385210766659659,-0.14828700404478787,0.5848380886640254,0.1051061553981699,-0.023333730239609878
5978,3.0,300.06307999999996,1458.7277,0.0,0.0,0.0,0.06062375687277745,0.0,0.0,-0.08648056064921682,-0.17527881133867182,-0.18165742336819182,0.6120402973411745,0.16005029055073386,-0.06857812148338363
5979,3.0,299.92216,1473.9734,0.0,0.0,0.0,0.06063389801644971,0.0,0.0,-0.15370833790983185,-0.14895631653084385,-0.14538644391102487,0.5766294760263985,0.11887504888705389,-0.017924856311045585
5980,3.0,299.51545,1366.5945,0.0,0.0,0.0,0.06064403916012197,0.0,0.0,-0.09840969694478091,-0.15832119952008583,-0.15867969753796685,0.5447635608489775,0.14973611380780386,-0.06212355521311754
5981,3.0,299.61466,1236.8399,0.0,0.0,0.0,0.06065418030379423,0.0,0.0,-0.13105044447367187,-0.11209954679336388,-0.13281845444066087,0.5462437976550655,0.15282913066556086,0.0064637983972272335
5982,3.0,299.27156,1266.3552,0.0,0.0,0.0,0.06066432144746649,0.0,0.0,-0.07649986072619844,-0.14790481623956886,-0.16053568801113885,0.5767056217714135,0.18251306241513682,-0.042404097199458556
5983,3.0,299.25424,1483.148,0.0,0.0,0.0,0.060674462591138754,0.0,0.0,-0.11066548379433289,-0.16352090519075685,-0.17665355867684882,0.6062939331090524,0.12718302082948688,0.0003586667341551506
5984,3.0,299.39428,1482.3145,0.0,0.0,0.0,0.060684603734811014,0.0,0.0,-0.0984841627211301,-0.16417553568286383,-0.1879269083619418,0.5645792472246334,0.13047909300728386,-0.023483049867096577
5985,3.0,300.29072,1149.9997,0.0,0.0,0.0,0.060694744878483274,0.0,0.0,-0.1098350848073789,-0.11917860848451288,-0.12055748988309789,0.5844190185551664,0.12860152030698188,-0.015807490881827885
5986,3.0,300.30652000000003,1049.1833,0.0,0.0,0.0,0.060704886022155534,0.0,0.0,-0.04433041837532166,-0.12873082115224288,-0.14586429265818487,0.5643061661901825,0.15037428911828685,-0.04118591118723296
5987,3.0,300.58912999999995,1434.8671,0.0,0.0,0.0,0.060715027165827794,0.0,0.0,-0.15416182812458787,-0.13520063582326386,-0.14680131595316187,0.6005924862538634,0.13518169817889486,-0.02479501217607718
5988,3.0,300.29413999999997,1480.7892,0.0,0.0,0.0,0.06072516830950006,0.0,0.0,-0.09304882472645401,-0.16691320573055085,-0.19016090191741983,0.5785416816151185,0.12742491402585987,-0.03742167085373136
5989,3.0,300.73166000000003,1178.2142,0.0,0.0,0.0,0.06073530945317232,0.0,0.0,-0.06828063733352424,-0.13948616698871286,-0.15038089550893885,0.5936931447329514,0.13703125451393186,-0.04944692000078105
5990,3.0,298.73915,1175.7612,0.0,0.0,0.0,0.06074545059684458,0.0,0.0,-0.06993913421645515,-0.13557254927246887,-0.15189037471291286,0.5771332741086194,0.14083809593463786,-0.042806365595159365
5991,3.0,299.28303999999997,1437.2176,0.0,0.0,0.0,0.06075559174051684,0.0,0.0,-0.14681823722983184,-0.13506118221200086,-0.15499883350219384,0.5902680554199214,0.14517370192002885,-0.034148554870199965
5992,3.0,299.83662000000004,1400.0366,0.0,0.0,0.0,0.0607657328841891,0.0,0.0,-0.1059170898507029,-0.14771907736373788,-0.17194001040415782,0.5697281080052864,0.13328011145122287,-0.031326416241176575
5993,3.0,299.78537,1368.8907,0.0,0.0,0.0,0.06077587402786137,0.0,0.0,-0.13251094316781187,-0.12717787351897888,-0.15641978504493084,0.5623865740082334,0.12580052212804488,-0.008691116357071402
5994,3.0,300.16987,1225.0937,0.0,0.0,0.0,0.060786015171533626,0.0,0.0,-0.04972862278033295,-0.15163041526725685,-0.17103884603021985,0.5557352558467995,0.15677760418524486,-0.03483857920155007
5995,3.0,300.53387999999995,1140.9669999999999,0.0,0.0,0.0,0.060796156315205886,0.0,0.0,-0.06621862474401945,-0.13665993888228586,-0.14394690936145388,0.5664748253792125,0.14697217018502387,-0.02881048888512387
5996,3.0,299.77499,1583.6014,0.0,0.0,0.0,0.060806297458878146,0.0,0.0,-0.10884240368440891,-0.19385397561689782,-0.17867891390423585,0.5919396343748935,0.15049558528775783,-0.04390509043384506
5997,3.0,299.83303,1579.058,0.0,0.0,0.0,0.060816438602550406,0.0,0.0,-0.15197652123641486,-0.14615190369906988,-0.18186576785375383,0.5947630760435454,0.14548401989565485,-0.02211345591892818
5998,3.0,299.63552000000004,1142.5207,0.0,0.0,0.0,0.06082657974622267,0.0,0.0,-0.07702026395105822,-0.13761310325135587,-0.13266438976295586,0.5744216547210035,0.1327998916988289,-0.061986746184615533
5999,3.0,300.20299,1151.3963,0.0,0.0,0.0,0.06083672088989493,0.0,0.0,-0.11317153500166088,-0.1273515648511209,-0.1094726351141079,0.5918101612771154,0.13423685259314586,-0.035045030935925266
6000,3.0,299.75978,1433.5797,0.0,0.0,0.0,0.06084686203356719,0.0,0.0,-0.0995382518664106,-0.13431596716095387,-0.2019182001152748,0.5619070939284124,0.13420608018760888,-0.04179623427896716
6001,3.0,301.84207000000004,1525.5601,0.0,0.0,0.0,0.06085700317723945,0.0,0.0,-0.12889671045861487,-0.15018600698470486,-0.18464945972098284,0.6058750453852114,0.14861392918955288,-0.01892745512599438
6002,3.0,301.92894,1379.5376,0.0,0.0,0.0,0.06086714432091171,0.0,0.0,-0.1015879382684489,-0.14853025499629485,-0.16922677994888286,0.5505873069912365,0.14479456399761087,-0.02066848325607048
6003,3.0,301.15333,1401.2539,0.0,0.0,0.0,0.06087728546458398,0.0,0.0,-0.12878548599513787,-0.14173595711324988,-0.15542475318172885,0.5618008546554275,0.14776174532544886,-0.0013035567914510386
6004,3.0,300.89112,1406.2416,0.0,0.0,0.0,0.06088742660825624,0.0,0.0,-0.12052162082955788,-0.15637277024029084,-0.15056795160989986,0.5522401914818634,0.13548045497087988,-0.013174383178210387
6005,3.0,300.72132,1542.4703,0.0,0.0,0.0,0.0608975677519285,0.0,0.0,-0.13434630386894789,-0.16189115319991285,-0.17263501891274985,0.5691924938699254,0.13015930114322288,-0.027435955342717974
6006,3.0,299.45097999999996,1736.8588,0.0,0.0,0.0,0.06090770889560076,0.0,0.0,-0.0969465070583753,-0.2042826800186308,-0.2267325329442588,0.5966650275412534,0.14492265907525287,-0.03414599540044737
6007,3.0,299.83267,1361.3697,0.0,0.0,0.0,0.06091785003927302,0.0,0.0,-0.08671762672211342,-0.17190070643277883,-0.15520407744244985,0.5735114724211754,0.15315529587275087,-0.04533887377584846
6008,3.0,300.24789,835.13748,0.0,0.0,0.0,0.06092799118294528,0.0,0.0,-0.028113147874801674,-0.09409466905567082,-0.13165312563315187,0.6079320241482193,0.15734935081917187,-0.036162596146970365
6009,3.0,300.16742999999997,1129.1428,0.0,0.0,0.0,0.06093813232661754,0.0,0.0,-0.08707154282304222,-0.13981850288901188,-0.1163411738319799,0.5721849557877584,0.15096576373166085,-0.04052475637773206
6010,3.0,299.83361,1426.2179999999998,0.0,0.0,0.0,0.0609482734702898,0.0,0.0,-0.12957356152541488,-0.13823849134557686,-0.16572260646554782,0.5939150059748475,0.14969312160606085,-0.02061356814040078
6011,3.0,300.07291000000004,1337.8854,0.0,0.0,0.0,0.06095841461396206,0.0,0.0,-0.1159617724645359,-0.14083597824192887,-0.14988599376259587,0.5624134555333865,0.12558775987204687,-0.04092551705728406
6012,3.0,301.02672,1291.1962,0.0,0.0,0.0,0.06096855575763432,0.0,0.0,-0.050008086277163855,-0.16189967463325383,-0.18058365183971883,0.5612006154286885,0.12692050799357887,-0.05775750106222154
6013,3.0,300.63806,1393.1509,0.0,0.0,0.0,0.060978696901306584,0.0,0.0,-0.1049166370994659,-0.14169082695379587,-0.17687562256876485,0.5641410874838905,0.13978382947058987,-0.03428103428102467
6014,3.0,299.67607000000004,1426.8424,0.0,0.0,0.0,0.060988838044978844,0.0,0.0,-0.08490705113167352,-0.14866259559185585,-0.20015480043624082,0.6033483036108415,0.13682125843070686,-0.014154444271184886
6015,3.0,298.98812000000004,1468.6765,0.0,0.0,0.0,0.0609989791886511,0.0,0.0,-0.14945775374033188,-0.15795533517397783,-0.13902788410098388,0.5834873350882165,0.16547649814875884,-0.017911156156443484
6016,3.0,298.89352,1478.3809,0.0,0.0,0.0,0.06100912033232336,0.0,0.0,-0.12758027566369287,-0.16022375896785385,-0.16158686406238185,0.5696910534491295,0.1174319071671269,0.003757812680167236
6017,3.0,300.2724,1251.6996,0.0,0.0,0.0,0.06101926147599562,0.0,0.0,-0.10307705114541289,-0.14044965637630188,-0.13695871593927286,0.5531258632617725,0.13602159131928587,-0.03615131766010726
6018,3.0,300.49745,1166.6389,0.0,0.0,0.0,0.06102940261966789,0.0,0.0,-0.04218346806968416,-0.14717620835766088,-0.16526943035832284,0.5654660234471515,0.13391922908429887,-0.035124987514566365
6019,3.0,300.69837,1362.4293,0.0,0.0,0.0,0.06103954376334015,0.0,0.0,-0.11507958626497089,-0.14287235763040387,-0.15619255357750486,0.5979137366994914,0.14292095310519987,-0.05055344179898625
6020,3.0,300.53753,1382.2158,0.0,0.0,0.0,0.06104968490701241,0.0,0.0,-0.10067941465903459,-0.14300061482806187,-0.17647904661212585,0.5879878880573864,0.12948216636639487,-0.02160829602857278
6021,3.0,300.99554,1117.2953,0.0,0.0,0.0,0.06105982605068467,0.0,0.0,-0.10632174141063891,-0.12849314307628587,-0.10481498784943391,0.5699838624630275,0.13291541234272986,-0.04962428031153516
6022,3.0,300.76151,1223.2822,0.0,0.0,0.0,0.06106996719435693,0.0,0.0,-0.08980114841318332,-0.11858953527387589,-0.16345655367690584,0.5918737933833954,0.12293855669059088,-0.008489602595733541
6023,3.0,299.27256,1412.5984,0.0,0.0,0.0,0.061080108338029196,0.0,0.0,-0.1051632520413049,-0.16193020385876686,-0.16230118511787983,0.5713837485361855,0.16028900214179284,-0.05601952788119694
6024,3.0,299.33213,1439.8811,0.0,0.0,0.0,0.061090249481701456,0.0,0.0,-0.07428925399627853,-0.17195041648268483,-0.19144823616946982,0.6121586145553515,0.13516078469683088,-0.03820978590076226
6025,3.0,299.88142,1342.8432,0.0,0.0,0.0,0.061100390625373716,0.0,0.0,-0.10400732619472391,-0.16087107379423884,-0.14331239188383185,0.5650698831880554,0.14216106619270488,-0.06361439061525154
6026,3.0,298.80487,1193.8106,0.0,0.0,0.0,0.061110531769045975,0.0,0.0,-0.07077764427045964,-0.14059687148333086,-0.15151408402327587,0.5640537959877755,0.13173704300643388,-0.01898685995285718
6027,3.0,298.7507,997.24941,0.0,0.0,0.0,0.061120672912718235,0.0,0.0,-0.08923995072604742,-0.11798516198672888,-0.0959138106624561,0.5702211251064435,0.14194303503618685,-0.018763701750833185
6028,3.0,300.0065,1252.0201,0.0,0.0,0.0,0.0611308140563905,0.0,0.0,-0.08136555154115473,-0.13443564213026488,-0.16478164162768183,0.6050605949548314,0.12434421828931888,-0.005842842664243675
6029,3.0,299.55132000000003,1537.8735,0.0,0.0,0.0,0.06114095520006276,0.0,0.0,-0.11656919563448388,-0.17503297659940983,-0.17587297106481084,0.5918228066383634,0.14213639355276986,-0.041342350923172365
6030,3.0,299.68796000000003,1320.7938,0.0,0.0,0.0,0.06115109634373502,0.0,0.0,-0.08852829755806273,-0.14658151160896885,-0.16637853391778284,0.5839223334886475,0.12959597461762687,-0.034931249029195865
6031,3.0,300.76873,1218.0765,0.0,0.0,0.0,0.06116123748740728,0.0,0.0,-0.0991281490209366,-0.13260380753947687,-0.13853287089712987,0.5725269783590134,0.15985522977398287,-0.05854006045895414
6032,3.0,301.07971000000003,1546.274,0.0,0.0,0.0,0.06117137863107954,0.0,0.0,-0.13758412429849587,-0.14790925427500687,-0.18453529683221584,0.5918998237784644,0.14879131888455988,-0.024053773118422578
6033,3.0,300.6266,1658.3189,0.0,0.0,0.0,0.061181519774751815,0.0,0.0,-0.16994414075468084,-0.15004617847090487,-0.18409722828398184,0.5771063925834664,0.15892594770976987,-0.025439255841409075
6034,3.0,300.85837999999995,1374.8492,0.0,0.0,0.0,0.061191660918424075,0.0,0.0,-0.0985435290444891,-0.14207514258422485,-0.17730114708076083,0.5514285072242564,0.13864492622568886,-0.030585526754806473
6035,3.0,300.41254,1190.1699,0.0,0.0,0.0,0.06120180206209633,0.0,0.0,-0.07419485049771163,-0.1277738368302959,-0.15981326095484083,0.5491016391646125,0.14984018472557484,-0.025830730083794575
6036,3.0,300.40223,1241.3538,0.0,0.0,0.0,0.06121194320576859,0.0,0.0,-0.06767058579281685,-0.15279703090239286,-0.15687292062215186,0.5964858038635654,0.15067576142053984,-0.024664008057398077
6037,3.0,300.82908,1230.0983,0.0,0.0,0.0,0.06122208434944085,0.0,0.0,-0.08608766886994142,-0.14733326212316086,-0.14049824171859687,0.5948189871840635,0.13635878068756388,-0.026662664144650076
6038,3.0,299.84606,1078.5597,0.0,0.0,0.0,0.06123222549311312,0.0,0.0,-0.07245695837669504,-0.12031401601656888,-0.13508423365177588,0.6051778887864074,0.13003989975143887,-0.03195018414848767
6039,3.0,299.21238,1068.2255,0.0,0.0,0.0,0.06124236663678538,0.0,0.0,-0.0985708543731859,-0.11887143158419688,-0.1072716127168839,0.5606092218753225,0.1204910105440369,-0.012534584641067187
6040,3.0,299.74467000000004,1127.7697,0.0,0.0,0.0,0.06125250778045764,0.0,0.0,-0.049002306870151155,-0.12692179482120589,-0.16688971859323284,0.5853534783273904,0.12531895475301788,-0.047691740819808356
6041,3.0,299.65635,1576.7283,0.0,0.0,0.0,0.0612626489241299,0.0,0.0,-0.11816772938974689,-0.17387327132995584,-0.18724503157464584,0.5850149109389765,0.14538631218851186,-0.03094581214586387
6042,3.0,300.29278,1689.2647,0.0,0.0,0.0,0.06127279006780216,0.0,0.0,-0.13496469040497788,-0.16867763892468682,-0.2098519686632768,0.5955878920224484,0.12976277584908888,-0.05330426788597165
6043,3.0,299.90811,1331.1055,0.0,0.0,0.0,0.06128293121147443,0.0,0.0,-0.1243914560089809,-0.12901356859264787,-0.15121781982653687,0.5661216063943525,0.12820069883242388,-0.034270431631978265
6044,3.0,299.89955,1105.1539,0.0,0.0,0.0,0.06129307235514669,0.0,0.0,-0.08539279107061232,-0.1150580952303499,-0.13548829752665387,0.5787984695879614,0.14959887921425988,-0.03251003319974047
6045,3.0,299.99062000000004,1431.5788,0.0,0.0,0.0,0.06130321349881895,0.0,0.0,-0.13181933917955588,-0.14782423245911586,-0.15552063703869187,0.5911501301619755,0.16528585514244384,-0.006944962904014473
6046,3.0,300.29542999999995,1444.2946,0.0,0.0,0.0,0.06131335464249121,0.0,0.0,-0.07983778519937593,-0.16160180950135686,-0.1975898996631048,0.5975111015072544,0.15082202407247486,-0.009316538699145782
6047,3.0,299.71396,1117.0122,0.0,0.0,0.0,0.061323495786163466,0.0,0.0,-0.06331389103309454,-0.14120720268106587,-0.13502273950320687,0.5543742481799785,0.15620666815139783,-0.03194626591035097
6048,3.0,299.59665,1213.9159,0.0,0.0,0.0,0.06133363692983573,0.0,0.0,-0.06783781056282064,-0.14017443738413987,-0.16098786100076484,0.5699800121126475,0.14969841077158286,-0.031090303636624073
6049,3.0,299.86352999999997,1441.2278,0.0,0.0,0.0,0.06134377807350799,0.0,0.0,-0.13362642007040088,-0.14595383356952185,-0.15851701010191085,0.5763902375452875,0.14898115129079487,-0.04513050091928365
6050,3.0,300.56599,1529.0112,0.0,0.0,0.0,0.061353919217180246,0.0,0.0,-0.1237022939534659,-0.17135880001429682,-0.16972011115757085,0.5822369641998144,0.13165002508784587,-0.02387218856800158
6051,3.0,301.2192,1540.7856,0.0,0.0,0.0,0.06136406036085251,0.0,0.0,-0.14133481139865986,-0.14823887466503785,-0.17878667305237084,0.5856235601415454,0.1097621611976819,-0.024717485371175876
6052,3.0,301.00161,1454.2386,0.0,0.0,0.0,0.06137420150452477,0.0,0.0,-0.08537762170336523,-0.17032945950270884,-0.18634514389583381,0.5696777089453124,0.13993303054781486,-0.014283284087650385
6053,3.0,300.0365,1135.7132,0.0,0.0,0.0,0.06138434264819704,0.0,0.0,-0.08866363737391972,-0.13366281601399288,-0.12290198849448189,0.5905126539940615,0.14491028729153185,-0.048216186912567155
6054,3.0,299.41664,1249.2788,0.0,0.0,0.0,0.0613944837918693,0.0,0.0,-0.07510061300060343,-0.14354754696703986,-0.16110139567446985,0.6110849240868864,0.13040840868030787,-0.04028883122444806
6055,3.0,299.8682,1419.0565,0.0,0.0,0.0,0.06140462493554156,0.0,0.0,-0.13224765012932688,-0.15512243988189287,-0.14398764201547384,0.6193885694513924,0.13493315806186587,-0.026743370528365177
6056,3.0,300.23302,1186.6806,0.0,0.0,0.0,0.06141476607921382,0.0,0.0,-0.07698242007307332,-0.13854547572837386,-0.14519338936947188,0.6012589109771345,0.13769782109221687,-0.027429320581063173
6057,3.0,299.40373999999997,1172.5043,0.0,0.0,0.0,0.06142490722288608,0.0,0.0,-0.11176287418263689,-0.12875566604469488,-0.11589348954029689,0.5593942944754184,0.15771357370011785,-0.023781631366814274
6058,3.0,299.48967999999996,1434.3459,0.0,0.0,0.0,0.06143504836655834,0.0,0.0,-0.07838007294301093,-0.17510072250109585,-0.18252455267127082,0.5361596590823385,0.14785711242486085,-0.05209289091441805
6059,3.0,300.83199,1397.1347,0.0,0.0,0.0,0.061445189510230605,0.0,0.0,-0.12984771660497188,-0.14516487651165785,-0.14968146922991085,0.5630497259336814,0.15180849397233184,-0.02066100141733208
6060,3.0,302.04112000000003,1389.8132,0.0,0.0,0.0,0.061455330653902865,0.0,0.0,-0.08557660679775352,-0.16990323584814385,-0.16698868273049983,0.6041880852937214,0.15949428982336084,-0.05145454233816795
6061,3.0,301.23208999999997,1406.8847,0.0,0.0,0.0,0.061465471797575125,0.0,0.0,-0.15037823066117587,-0.13974077647384087,-0.13753883201902586,0.6093868993043045,0.15662728853290986,-0.018718820850903786
6062,3.0,300.34968,1128.883,0.0,0.0,0.0,0.061475612941247385,0.0,0.0,-0.06414193117381574,-0.12064937140216588,-0.15836094932150885,0.6007710006564814,0.10548301350786289,-0.024376632090536275
6063,3.0,299.98537999999996,1252.5866,0.0,0.0,0.0,0.061485754084919644,0.0,0.0,-0.08947234470273291,-0.1422274847367599,-0.14905523000560586,0.6002160739742145,0.12034995599761589,-0.016760195235352483
6064,3.0,299.04835,1577.1173,0.0,0.0,0.0,0.061495895228591904,0.0,0.0,-0.1035124143158799,-0.16225184997051084,-0.2136400041621268,0.5989769805594255,0.13292894936406588,-0.021298184755967182
6065,3.0,298.8628,1315.3811,0.0,0.0,0.0,0.061506036372264164,0.0,0.0,-0.1268301564821619,-0.12510568587196988,-0.14790716697980086,0.5963588740235385,0.15866242162376185,-0.03310306416526807
6066,3.0,299.71885,1030.6027,0.0,0.0,0.0,0.061516177515936424,0.0,0.0,-0.03590757122930136,-0.14544900197219887,-0.1319208972370789,0.5655896906218565,0.15294094281409584,-0.046099071756124155
6067,3.0,300.13435,1246.1809,0.0,0.0,0.0,0.061526318659608684,0.0,0.0,-0.1152508559293739,-0.12026377907661089,-0.14329323132444086,0.5750275478833005,0.15779796730094686,-0.013953623167615385
6068,3.0,300.42458999999997,1508.4876,0.0,0.0,0.0,0.06153645980328095,0.0,0.0,-0.1027738056554849,-0.16872506916186783,-0.18704368864727483,0.5855044221947874,0.17104241267057183,-0.00979327803877129
6069,3.0,300.69514,1293.3222,0.0,0.0,0.0,0.06154660094695321,0.0,0.0,-0.09490448589334351,-0.14139022604662888,-0.15684294868419385,0.5849781907553524,0.14965458770475784,-0.005765928470352834
6070,3.0,299.52454,983.0494,0.0,0.0,0.0,0.06155674209062547,0.0,0.0,-0.048448910195535155,-0.1093168377787319,-0.14105671477621387,0.5641435800791365,0.12452988623764288,-0.03365181711467576
6071,3.0,299.02672,1238.4224,0.0,0.0,0.0,0.06156688323429773,0.0,0.0,-0.12124716869616389,-0.12745162329849588,-0.12775068406551088,0.5634478521629736,0.12217662301289388,-0.012329038752281387
6072,3.0,299.43237999999997,1463.5598,0.0,0.0,0.0,0.06157702437796999,0.0,0.0,-0.0976396542265336,-0.16608991975929885,-0.18115604695370985,0.5967516705573044,0.15605374844630585,-0.05809548988482844
6073,3.0,298.02102,1630.4859,0.0,0.0,0.0,0.061587165521642256,0.0,0.0,-0.14339155711414486,-0.18576250482333181,-0.16647292829709884,0.6044589067804494,0.15017583395370088,-0.01975144226631558
6074,3.0,298.05811,1501.309,0.0,0.0,0.0,0.061597306665314516,0.0,0.0,-0.0935262387893211,-0.16957089994784483,-0.1932633318686058,0.5938515055910805,0.1306966682012569,-0.07516289951075063
6075,3.0,299.62375,1106.7499,0.0,0.0,0.0,0.061607447808986776,0.0,0.0,-0.06617299099926574,-0.12476936789877788,-0.14548198326295386,0.5802105653248244,0.1195906365051769,0.006218256993869183
6076,3.0,299.95845,906.89394,0.0,0.0,0.0,0.061617588952659036,0.0,0.0,-0.03445482085867607,-0.1267921697359129,-0.11442612101047889,0.5805633790096445,0.12468456899790888,-0.06978348380234364
6077,3.0,300.28587999999996,1503.6017,0.0,0.0,0.0,0.061627730096331296,0.0,0.0,-0.15100866474089486,-0.16142881731178385,-0.14461987968037085,0.5988689883637675,0.13847384907880486,0.002354391782710378
6078,3.0,299.96283,1374.8342,0.0,0.0,0.0,0.06163787124000356,0.0,0.0,-0.0840084198829855,-0.17731034739166882,-0.15659649586237084,0.5829992727800485,0.13230524326501086,-0.06062902550111894
6079,3.0,299.34205,972.65705,0.0,0.0,0.0,0.06164801238367582,0.0,0.0,-0.05747379306072174,-0.12923527784702887,-0.1089543880854609,0.5861636123123444,0.16641780749165883,-0.00965450178520014
6080,3.0,299.75626,1377.204,0.0,0.0,0.0,0.06165815352734808,0.0,0.0,-0.06019663723294554,-0.17036807446401983,-0.18807091146615382,0.5799020610668775,0.16444256761421785,-0.04620410222173986
6081,3.0,299.91712,1613.2693,0.0,0.0,0.0,0.06166829467102034,0.0,0.0,-0.12645156571479788,-0.14525928102347488,-0.21868272699480482,0.5808470282426385,0.16488200405008685,-0.0015119962185474085
6082,3.0,299.33652,1347.6918,0.0,0.0,0.0,0.0616784358146926,0.0,0.0,-0.09963713595691971,-0.13723409705145087,-0.17279343043338385,0.5696535631954295,0.13057680071442687,-0.03437909662570267
6083,3.0,300.77734,1278.4714,0.0,0.0,0.0,0.06168857695836487,0.0,0.0,-0.11819252361969389,-0.11214624749047289,-0.15828460092647387,0.6075960810775645,0.12365831889912589,-0.026216186633836177
6084,3.0,300.43582999999995,1294.6688,0.0,0.0,0.0,0.06169871810203713,0.0,0.0,-0.1201621399590799,-0.12812750164519987,-0.14525735584828486,0.5912216352215325,0.14755924729296385,-0.04083628113422716
6085,3.0,300.94802000000004,1340.3697,0.0,0.0,0.0,0.06170885924570939,0.0,0.0,-0.1176754114311589,-0.13245569063985888,-0.15730780756507184,0.6192626325964634,0.12795929199609887,-0.05164734559369615
6086,3.0,299.99818999999997,1455.1848,0.0,0.0,0.0,0.06171900038938165,0.0,0.0,-0.08777452358342101,-0.17240305556735683,-0.1821622752305168,0.5839643225727914,0.12835185548234188,-0.038470637006506256
6087,3.0,299.04892,1264.4223,0.0,0.0,0.0,0.06172914153305391,0.0,0.0,-0.08145613711334482,-0.13274097120551387,-0.17015568711055884,0.6035099170017914,0.12205408054579987,-0.009318757514214761
6088,3.0,300.03227000000004,1077.3395,0.0,0.0,0.0,0.061739282676726175,0.0,0.0,-0.07482883297928083,-0.12844321011135787,-0.12421227286129688,0.5950409497509694,0.13601210729834987,-0.02809027679354447
6089,3.0,299.60485,1102.5446,0.0,0.0,0.0,0.061749423820398434,0.0,0.0,-0.0875448248520015,-0.13098246552446288,-0.1166187334318729,0.5938718009905835,0.11831978783225389,-0.03124228405887337
6090,3.0,299.11135,1375.0736,0.0,0.0,0.0,0.061759564964070694,0.0,0.0,-0.10384614850131689,-0.15223110032403986,-0.16191078998685085,0.5682027613047465,0.12792121405734086,-0.06598908914586604
6091,3.0,300.90963,1488.0904,0.0,0.0,0.0,0.061769706107742954,0.0,0.0,-0.12660168884961387,-0.16077469344472686,-0.16496596195337285,0.5887279963279295,0.15060762035131486,-0.022580914799562774
6092,3.0,301.32093,1193.6931,0.0,0.0,0.0,0.061779847251415214,0.0,0.0,-0.025069945431710976,-0.14502466296281988,-0.19275829762126281,0.5763870660724745,0.17250129016455185,-0.06850518976768584
6093,3.0,300.85106,1325.0555,0.0,0.0,0.0,0.06178998839508749,0.0,0.0,-0.0925692240698711,-0.14167266951200386,-0.16854189380878984,0.5635964756876414,0.16049418528704285,-0.005747293281138684
6094,3.0,300.41537999999997,1382.3396,0.0,0.0,0.0,0.06180012953875975,0.0,0.0,-0.1114003434293579,-0.14311874965722085,-0.16567761816110785,0.5461430704626244,0.15715219261471383,-0.032824310956757266
6095,3.0,300.10299,1355.8854,0.0,0.0,0.0,0.06181027068243201,0.0,0.0,-0.14643697148220386,-0.13118990821743587,-0.13452843557442287,0.5978467304703785,0.14223366556236988,-0.0024343039809970974
6096,3.0,300.03168,1480.9475,0.0,0.0,0.0,0.06182041182610426,0.0,0.0,-0.12798439020107588,-0.15892669751484387,-0.16325995276000282,0.6354195944510314,0.14318990007924284,-0.03930090832394766
6097,3.0,299.6379,1294.519,0.0,0.0,0.0,0.06183055296977652,0.0,0.0,-0.12099912507168388,-0.12525714649691788,-0.14724518029196784,0.6173541152381075,0.1115000675041999,-0.016849881041453782
6098,3.0,300.46646,1175.8272,0.0,0.0,0.0,0.061840694113448794,0.0,0.0,-0.044178256581304455,-0.15476802526191485,-0.15847583161784684,0.5795317282878285,0.1129041079027679,-0.03599375828280736
6099,3.0,300.08047999999997,1246.8672,0.0,0.0,0.0,0.06185083525712105,0.0,0.0,-0.08154764778287622,-0.12862476426427588,-0.16884408551861385,0.5652700304803084,0.12221238060892288,-0.012750013771328388
6100,3.0,299.30331,1479.0845,0.0,0.0,0.0,0.06186097640079331,0.0,0.0,-0.12583989702693088,-0.16436809373186784,-0.15939675436873485,0.5896776649841544,0.16013570753416387,0.015542536113178884
6101,3.0,300.08231,1260.4861,0.0,0.0,0.0,0.06187111754446557,0.0,0.0,-0.11032057346029289,-0.13780787018557789,-0.13502786654871288,0.5998366928717724,0.1262496452348699,-0.03447131150405357
6102,3.0,299.87734,1190.6869,0.0,0.0,0.0,0.06188125868813783,0.0,0.0,-0.1075420896985779,-0.13136146159186687,-0.12303552472516088,0.5785114664971365,0.13196544984397587,-0.03011756834187257
6103,3.0,299.13049,1513.763,0.0,0.0,0.0,0.0618913998318101,0.0,0.0,-0.0992353508815166,-0.16017870986840785,-0.20073209968071581,0.5848212079173595,0.11286105490601889,-0.04127501032152636
6104,3.0,300.20755,1462.6021,0.0,0.0,0.0,0.06190154097548236,0.0,0.0,-0.1004870947238041,-0.15373305107977087,-0.1903743633159868,0.5970128155055774,0.16737731480635484,-0.04785145436682086
6105,3.0,299.94212999999996,1285.4755,0.0,0.0,0.0,0.06191168211915462,0.0,0.0,-0.08827899243720823,-0.15283221094586485,-0.14964125333344186,0.6043410151313144,0.14422658665405585,-0.02472904351506658
6106,3.0,300.13111000000004,1249.1976,0.0,0.0,0.0,0.06192182326282688,0.0,0.0,-0.10077333686380399,-0.14998046920191985,-0.12897106275095288,0.5751756951804214,0.16134625769363584,-0.03267853770462057
6107,3.0,300.83299,1202.0711,0.0,0.0,0.0,0.06193196440649914,0.0,0.0,-0.08998964839553682,-0.15238230763646288,-0.12302763150688188,0.5623387992660185,0.15235663187892887,-0.018036396908553784
6108,3.0,299.88719,1074.339,0.0,0.0,0.0,0.061942105550171406,0.0,0.0,-0.07048099098568222,-0.15415373225628884,-0.1019375095529489,0.5975412659627314,0.15405735190677686,-0.05275443481195735
6109,3.0,300.27162000000004,1439.7021,0.0,0.0,0.0,0.061952246693843666,0.0,0.0,-0.07755768572459763,-0.17484659937601582,-0.1852292110306998,0.6068193336834055,0.11626609199956987,-0.026912455625552573
6110,3.0,300.61773,1405.7756,0.0,0.0,0.0,0.061962387837515925,0.0,0.0,-0.08345725438508972,-0.16116682123342685,-0.18269661267075182,0.5842533825613194,0.1084745432356039,-0.04752322314267696
6111,3.0,300.61667,1261.8941,0.0,0.0,0.0,0.061972528981188185,0.0,0.0,-0.07400031458451242,-0.13561333258899388,-0.17397065479706683,0.5766975866981204,0.12454805381193589,-0.006770395110535973
6112,3.0,300.42236,1351.8376,0.0,0.0,0.0,0.061982670124860445,0.0,0.0,-0.12334333997303987,-0.13126123089197486,-0.15632031428261386,0.5782136925577485,0.16016169739922886,-0.032958359891986866
6113,3.0,299.31215,1632.4594,0.0,0.0,0.0,0.061992811268532705,0.0,0.0,-0.16737067801819983,-0.14471614857237186,-0.18414006849820985,0.6058904163892284,0.15415813989422383,0.006587243670160333
6114,3.0,298.95586000000003,1453.0555,0.0,0.0,0.0,0.062002952412204965,0.0,0.0,-0.13793691771831387,-0.14691803223218086,-0.15683764938617084,0.6026734385142374,0.12429713255717188,-0.025419727472231774
6115,3.0,299.34918999999996,1094.7618,0.0,0.0,0.0,0.06201309355587723,0.0,0.0,-0.05828255307854015,-0.12707800758912288,-0.14741968222418986,0.5782889162451725,0.13880318575880785,-0.03057778045779197
6116,3.0,299.01737,1160.1426,0.0,0.0,0.0,0.06202323469954949,0.0,0.0,-0.08419618323251632,-0.12706066074741088,-0.14139755184485187,0.5641247336272766,0.16031669426702586,-0.02514638096625458
6117,3.0,300.15673,1205.9694,0.0,0.0,0.0,0.06203337584322175,0.0,0.0,-0.07129179270245213,-0.14036120977507285,-0.15493157396055585,0.5887655473766354,0.14772010074633887,-0.028682629894755177
6118,3.0,300.32178999999996,1234.68,0.0,0.0,0.0,0.06204351698689401,0.0,0.0,-0.11957835591396489,-0.14900491200563984,-0.1067286322532959,0.5740067389375545,0.13546610734946388,-0.024162075368611178
6119,3.0,300.76575,1432.7083,0.0,0.0,0.0,0.06205365813056627,0.0,0.0,-0.13597563029474985,-0.14324016741670387,-0.15629175076229485,0.6154691154145724,0.14613832614772984,-0.029318044098715676
6120,3.0,301.03587999999996,1349.4274,0.0,0.0,0.0,0.06206379927423853,0.0,0.0,-0.1037310432899569,-0.15919191572851885,-0.14726926524684486,0.5929049881426665,0.14863468055160087,-0.027628509338721574
6121,3.0,301.03733,1287.5202,0.0,0.0,0.0,0.06207394041791079,0.0,0.0,-0.04899471458715186,-0.15156030849283786,-0.1908189571948648,0.6005185899240705,0.14308972004185586,-0.05732303056509265
6122,3.0,300.03667,1449.5359,0.0,0.0,0.0,0.06208408156158305,0.0,0.0,-0.1033777939075939,-0.13211129706336988,-0.20513361758511178,0.5882482528030825,0.11597486365582788,-0.012915124901623588
6123,3.0,299.91708,1407.5948,0.0,0.0,0.0,0.06209422270525532,0.0,0.0,-0.0893107272587825,-0.16277611570475187,-0.17578683467380984,0.6056070508662624,0.12915397465900488,-0.04267669086061146
6124,3.0,300.39437999999996,1044.2647,0.0,0.0,0.0,0.06210436384892758,0.0,0.0,-0.07035711508145663,-0.12886883594836387,-0.11820442930836889,0.5800210976886255,0.14313875121419486,-0.03237134661880317
6125,3.0,299.71887000000004,1175.5147,0.0,0.0,0.0,0.06211450499259984,0.0,0.0,-0.12689910815146688,-0.12714916814364588,-0.10327885003532891,0.5840408938828484,0.13795899643799286,-0.04069183422647136
6126,3.0,298.68761,1397.9836,0.0,0.0,0.0,0.062124646136272096,0.0,0.0,-0.1116770113691629,-0.17048810407086584,-0.14278697104447685,0.5811836400583594,0.12674116272587888,-0.038314659312612465
6127,3.0,298.28452999999996,1350.6664,0.0,0.0,0.0,0.062134787279944356,0.0,0.0,-0.07295340938244094,-0.16446732131416084,-0.17314811863088883,0.5894195091236765,0.16772550807071884,-0.04579978503433686
6128,3.0,298.58059,1459.5361,0.0,0.0,0.0,0.06214492842361662,0.0,0.0,-0.05973459113434515,-0.19265034595560881,-0.1912775845876278,0.5841611869347204,0.17398302658078785,-0.013740756546857089
6129,3.0,298.31806,1395.5097,0.0,0.0,0.0,0.06215506956728888,0.0,0.0,-0.093461632949695,-0.14352080729690087,-0.18721766368944484,0.5686591088847844,0.16996740497697682,-0.010880753774846789
6130,3.0,300.23345,1301.0112,0.0,0.0,0.0,0.06216521071096114,0.0,0.0,-0.12107307206398189,-0.1045137789922069,-0.16988806749414684,0.5502685587747784,0.12111797930841389,-0.005353694962568555
6131,3.0,298.97002000000003,1271.0954,0.0,0.0,0.0,0.0621753518546334,0.0,0.0,-0.1173889250978849,-0.13212985980520187,-0.13686246731227386,0.5921540786260575,0.12906934801065287,-0.02069091357353418
6132,3.0,299.02761,1450.594,0.0,0.0,0.0,0.06218549299830566,0.0,0.0,-0.1164254559752979,-0.14836656444263985,-0.17615233424988183,0.6081019664549915,0.13201180603605087,-0.019554714693150083
6133,3.0,300.08716,1381.2506,0.0,0.0,0.0,0.06219563414197793,0.0,0.0,-0.1022056155294089,-0.13011434323628587,-0.18754573380682282,0.5934521431966664,0.14505929585123786,-0.03714320540824897
6134,3.0,300.34384,1287.2362,0.0,0.0,0.0,0.06220577528565019,0.0,0.0,-0.08316053118605542,-0.14323263896846086,-0.16489447715881786,0.5968558124025825,0.11170142056407191,-0.03574293531330307
6135,3.0,299.53652999999997,1252.4644,0.0,0.0,0.0,0.06221591642932245,0.0,0.0,-0.07947761329232972,-0.11977627405599788,-0.18146401418910382,0.5944801360856214,0.14298206221873086,-0.04125940221698596
6136,3.0,300.39796,1272.4284,0.0,0.0,0.0,0.06222605757299471,0.0,0.0,-0.09676339351355341,-0.16507006326864684,-0.12495299921440088,0.6134598100687694,0.13960828389076485,-0.026132929899619378
6137,3.0,300.24395,1194.6012,0.0,0.0,0.0,0.06223619871666697,0.0,0.0,-0.10141898894677491,-0.13162662914303686,-0.13008331751822388,0.5992620382100584,0.1288315078146799,-0.06768313692180553
6138,3.0,300.99553,1314.2215,0.0,0.0,0.0,0.062246339860339235,0.0,0.0,-0.1055070579327359,-0.1331488347682669,-0.16083463732064285,0.5938554066039654,0.11750535766687588,-0.028465138800540475
6139,3.0,300.48692,1132.7037,0.0,0.0,0.0,0.062256481004011495,0.0,0.0,-0.04760429733617836,-0.15194136145794485,-0.14476798644748787,0.5850723014246405,0.13878251545676787,-0.059583275404161445
6140,3.0,299.0811,907.72996,0.0,0.0,0.0,0.062266622147683755,0.0,0.0,-0.03654369166858157,-0.1034165405914179,-0.13596700753639887,0.5977085028917365,0.15002191113100988,-0.03311393836534127
6141,3.0,298.87253,1445.0301,0.0,0.0,0.0,0.062276763291356015,0.0,0.0,-0.09642701373210531,-0.16745295392631984,-0.17537311452547882,0.5683958158462995,0.15268769108410185,-0.024912024324125377
6142,3.0,298.61851,1765.1814,0.0,0.0,0.0,0.062286904435028274,0.0,0.0,-0.20011441228725482,-0.15975858597944487,-0.17669808088624284,0.5957725568531734,0.12711483923025788,-0.015975998426458284
6143,3.0,299.41747000000004,1415.1935,0.0,0.0,0.0,0.06229704557870054,0.0,0.0,-0.11705427898735789,-0.14593381174754586,-0.16719539588340082,0.5812059518255615,0.15691616613641984,-0.019240026569842784
6144,3.0,300.44631,1321.4511,0.0,0.0,0.0,0.0623071867223728,0.0,0.0,-0.08551232013190893,-0.1868737159429998,-0.12930211182362486,0.6331592969229574,0.15860273106037084,-0.06325030756281934
6145,3.0,299.62477,1411.9193,0.0,0.0,0.0,0.06231732786604506,0.0,0.0,-0.07920203155663193,-0.14650517334643484,-0.2034810066720118,0.5970513696718824,0.15582388252861987,-0.024294898271219775
6146,3.0,300.41745,1350.4005,0.0,0.0,0.0,0.06232746900971732,0.0,0.0,-0.10501853966202289,-0.13726785854478288,-0.16820163429270885,0.5861523551037335,0.1295087439165179,-0.053834195661771445
6147,3.0,300.82884,1301.2858,0.0,0.0,0.0,0.06233761015338958,0.0,0.0,-0.0938625294047604,-0.14201853230113787,-0.15967733345392585,0.5684252000991995,0.13998326748777287,-0.035705342721342966
6148,3.0,300.64234,1231.1112,0.0,0.0,0.0,0.06234775129706185,0.0,0.0,-0.12362022069536588,-0.11916757419092389,-0.1314392589345449,0.5917238425010964,0.11913773397547889,-0.03158114427656627
6149,3.0,299.73004,1190.343,0.0,0.0,0.0,0.06235789244073411,0.0,0.0,-0.07401351520681522,-0.14442089762573287,-0.14340014947499286,0.5923957590399095,0.12364412326522489,-0.02110148656705458
6150,3.0,299.97162000000003,1445.119,0.0,0.0,0.0,0.06236803358440637,0.0,0.0,-0.1070526291052719,-0.15251279398434084,-0.17971465815645585,0.6049237251313234,0.10791767111314489,-0.030150165610839677
6151,3.0,298.43242999999995,1604.1129,0.0,0.0,0.0,0.06237817472807863,0.0,0.0,-0.1071137483513039,-0.15233992338477984,-0.2281565951648028,0.6022503458024814,0.14590855142255285,-0.015046855177508986
6152,3.0,299.66605,1394.1007,0.0,0.0,0.0,0.062388315871750886,0.0,0.0,-0.08399865620502192,-0.16884546353874985,-0.17092769249424983,0.6149398644898395,0.14662791846354886,-0.029851278109591768
6153,3.0,299.32531,1150.0175,0.0,0.0,0.0,0.06239845701542316,0.0,0.0,-0.07280772833606335,-0.1279756863827169,-0.14879319339724487,0.5912223546291034,0.16683076770241484,-0.03588650474647226
6154,3.0,299.88597000000004,1320.5664,0.0,0.0,0.0,0.06240859815909542,0.0,0.0,-0.15768339911213985,-0.12314292923576088,-0.1205928827090909,0.5979703064525744,0.14458948217737086,-0.018674748524554183
6155,3.0,298.86122,1417.2498,0.0,0.0,0.0,0.06241873930276768,0.0,0.0,-0.11396357233982889,-0.15209302473291286,-0.16475196353225285,0.5995113078671593,0.1804719106186908,-0.05431356732383175
6156,3.0,299.64313,1088.7324,0.0,0.0,0.0,0.06242888044643994,0.0,0.0,-0.09242799017818241,-0.1047344749964879,-0.13378500384355188,0.5972430461932994,0.16253480006093585,-0.04551442644842416
6157,3.0,300.13642999999996,1143.8802,0.0,0.0,0.0,0.0624390215901122,0.0,0.0,-0.04055922511963386,-0.16130930446248884,-0.14584246725103087,0.6002903756040474,0.14560948052303685,-0.05605298337299875
6158,3.0,300.25518,1391.0335,0.0,0.0,0.0,0.062449162733784466,0.0,0.0,-0.1120154166375609,-0.12114876184645187,-0.1896752511444898,0.5842044020514855,0.12993181636327186,-0.00957652641447957
6159,3.0,299.55082999999996,1402.3704,0.0,0.0,0.0,0.062459303877456726,0.0,0.0,-0.0992179685760511,-0.15021600932016585,-0.17685159840889383,0.5884679760872675,0.14640171037872385,-0.03993223203725446
6160,3.0,300.19982999999996,1424.9955,0.0,0.0,0.0,0.062469445021128986,0.0,0.0,-0.14061615363273386,-0.14108796340929786,-0.15145891255533087,0.6017427277673835,0.13172703209544587,0.016509471564357985
6161,3.0,300.26358999999997,1467.2313,0.0,0.0,0.0,0.062479586164801246,0.0,0.0,-0.08503488783054002,-0.16230801442355383,-0.19865877719359482,0.5891374405608384,0.16363108600663084,-0.020186800370532082
6162,3.0,300.77522999999997,1311.8831,0.0,0.0,0.0,0.062489727308473506,0.0,0.0,-0.08974575403021633,-0.14203877703813586,-0.16699516753113985,0.5830829165758035,0.11975773157916789,0.004185326506084566
6163,3.0,301.10729,1366.569,0.0,0.0,0.0,0.06249986845214577,0.0,0.0,-0.08331476608977721,-0.14402639883179888,-0.18806169089024383,0.6040248203051084,0.15143769509823685,-0.04789479715309845
6164,3.0,299.80562000000003,1698.0365,0.0,0.0,0.0,0.06251000959581803,0.0,0.0,-0.1284458344291169,-0.18757041657925883,-0.20014445515271984,0.5821478387210184,0.14976597428825086,-0.02101231954500448
6165,3.0,299.36978,1439.6892,0.0,0.0,0.0,0.06252015073949029,0.0,0.0,-0.1301367056659929,-0.15168950801308886,-0.15580335408159385,0.6024460145292924,0.14730792073815988,-0.049849326198495456
6166,3.0,299.44105,1304.1446,0.0,0.0,0.0,0.06253029188316254,0.0,0.0,-0.12217238762747587,-0.14690383659827985,-0.12735115955108087,0.5858684018957094,0.12564826103551788,-0.04540043175917375
6167,3.0,299.2063,1318.9683,0.0,0.0,0.0,0.0625404330268348,0.0,0.0,-0.0968952072190624,-0.15639485909247086,-0.14764335718376487,0.6106519825841584,0.16041550641677785,-0.05924178073620854
6168,3.0,299.36477,1375.9672,0.0,0.0,0.0,0.06255057417050706,0.0,0.0,-0.11868878312117088,-0.13924886381529286,-0.16032203409505286,0.6053545996038474,0.15939694688625383,-0.026091651103795476
6169,3.0,299.03503,1258.887,0.0,0.0,0.0,0.06256071531417932,0.0,0.0,-0.04136571951022867,-0.16744372321790885,-0.17386076782372184,0.5989518620894464,0.15264507378489586,-0.04981312783867295
6170,3.0,300.29585,1404.0698,0.0,0.0,0.0,0.06257085645785158,0.0,0.0,-0.0989506367226675,-0.16042982364069083,-0.16742171542573683,0.5835960264264435,0.13136881778759288,-0.011176647122049188
6171,3.0,300.87527,1359.6136,0.0,0.0,0.0,0.06258099760152386,0.0,0.0,-0.1080425643204709,-0.14466768482008888,-0.16057834584034886,0.5818605823176685,0.14995295946170487,-0.037602427578820666
6172,3.0,300.59022000000004,1226.4681,0.0,0.0,0.0,0.06259113874519612,0.0,0.0,-0.1158729205632669,-0.14426296233264585,-0.1126797945956299,0.6196370285084134,0.14157603584996686,-0.02941659482994187
6173,3.0,299.84283999999997,1358.8306,0.0,0.0,0.0,0.06260127988886838,0.0,0.0,-0.06088305642043985,-0.17221304077610383,-0.17995448432262484,0.6167515556686395,0.10380163642442389,-0.06208069270738734
6174,3.0,300.38389,1612.3512,0.0,0.0,0.0,0.06261142103254064,0.0,0.0,-0.15527420448187088,-0.15691007650331884,-0.17793023353784682,0.6324905417244564,0.10614860736605189,-0.018275274672629183
6175,3.0,299.91501,1430.5958,0.0,0.0,0.0,0.0626215621762129,0.0,0.0,-0.057694428269996746,-0.18671992484282182,-0.1904510359510538,0.6224898544299654,0.12296642106834088,-0.07199022093013163
6176,3.0,300.12655,1159.0527,0.0,0.0,0.0,0.06263170331988516,0.0,0.0,-0.1019702881936839,-0.11293585302840088,-0.13741693803199587,0.6460847508961004,0.16548498918459686,-0.030946746362456073
6177,3.0,299.51376,1204.5384,0.0,0.0,0.0,0.06264184446355742,0.0,0.0,-0.10132784710027991,-0.12740479087887388,-0.13741695829699788,0.5909447241017034,0.16195972996668084,-0.04346924292983025
6178,3.0,299.45372000000003,1254.1781,0.0,0.0,0.0,0.06265198560722968,0.0,0.0,-0.1283884946059579,-0.1301440517292179,-0.12270626910516587,0.5816308278574934,0.16123372613752984,-0.029464099034380173
6179,3.0,300.17386,1382.0072,0.0,0.0,0.0,0.06266212675090194,0.0,0.0,-0.08440137347051702,-0.14910370389038985,-0.1865905936000578,0.5321552744221365,0.16648970771875485,-0.04248256531370276
6180,3.0,299.5178,1494.9153,0.0,0.0,0.0,0.0626722678945742,0.0,0.0,-0.1205914236289469,-0.15725975924532984,-0.17656573015818083,0.5719212169192295,0.16527696893906685,-0.021637161497421578
6181,3.0,298.87237000000005,1405.0585,0.0,0.0,0.0,0.06268240903824646,0.0,0.0,-0.04262080505134596,-0.15714000321601085,-0.22734188128939678,0.5541275319131295,0.12830454683517287,-0.02178998798350438
6182,3.0,299.98917,1468.2998,0.0,0.0,0.0,0.06269255018191872,0.0,0.0,-0.1094512859345009,-0.17008797160637584,-0.16678720808061584,0.6233384817862184,0.13643515948010188,-0.03033394182122697
6183,3.0,300.72988,1643.7551,0.0,0.0,0.0,0.06270269132559099,0.0,0.0,-0.11694431095400488,-0.18250784417712182,-0.20020836083652682,0.6231646384665614,0.14058120663678486,-0.006727150812168093
6184,3.0,300.61185,1567.3183,0.0,0.0,0.0,0.06271283246926324,0.0,0.0,-0.14510910722615386,-0.16291601514605886,-0.16840051502233683,0.6385597071734365,0.16164402150052284,-0.025611030104361877
6185,3.0,300.30498,1141.4012,0.0,0.0,0.0,0.06272297361293551,0.0,0.0,-0.04407520094013366,-0.14906992213205586,-0.15381233790009585,0.6142848084326905,0.12495583631468088,-0.04296786347559796
6186,3.0,300.7361,1107.0976,0.0,0.0,0.0,0.06273311475660778,0.0,0.0,-0.07432788516959113,-0.12860139871696988,-0.13360075444536787,0.5951793597146295,0.14562614848718186,-0.05500108994068494
6187,3.0,300.35224,1492.618,0.0,0.0,0.0,0.06274325590028003,0.0,0.0,-0.07378415084792872,-0.16784350104486384,-0.2120909474092468,0.5900213188880704,0.16342405874619884,-0.03684605056467207
6188,3.0,300.3346,1362.5189,0.0,0.0,0.0,0.0627533970439523,0.0,0.0,-0.13300121436119786,-0.14907507957506486,-0.13209544983180588,0.5578523203407375,0.18208178264257283,-0.05218018342378315
6189,3.0,299.77053,1124.0177,0.0,0.0,0.0,0.06276353818762455,0.0,0.0,-0.08061176034126133,-0.11490430413017189,-0.14615725365959786,0.5769673746697465,0.15996207699702786,-0.029354680182581375
6190,3.0,300.06901,1274.7896,0.0,0.0,0.0,0.06277367933129682,0.0,0.0,-0.11586076156206689,-0.13729639166759888,-0.13434705367402186,0.5665413148507745,0.15144908402936086,-0.025174820870061378
6191,3.0,300.4594,1423.1424,0.0,0.0,0.0,0.06278382047496908,0.0,0.0,-0.07134086440479513,-0.17442910993731284,-0.18682979155116483,0.6219038716321333,0.15369458810597486,-0.034551102922928366
6192,3.0,299.87417,1569.0584,0.0,0.0,0.0,0.06279396161864134,0.0,0.0,-0.1328017358140109,-0.14532508148496887,-0.19882774678027082,0.5601958968945304,0.14514003161920586,-0.016811292424645383
6193,3.0,300.32942,1860.7925,0.0,0.0,0.0,0.0628041027623136,0.0,0.0,-0.1209311765199779,-0.2016898642052398,-0.24301341528605677,0.6006986545993414,0.14134829775749086,-0.027769432162629577
6194,3.0,300.26726,1378.6417,0.0,0.0,0.0,0.06281424390598585,0.0,0.0,-0.15427497776325486,-0.12458025490011389,-0.14021742958588285,0.5667423740681174,0.13401759540400687,0.0006393849993798864
6195,3.0,299.93896,1029.0338,0.0,0.0,0.0,0.06282438504965812,0.0,0.0,-0.06072440070653174,-0.12726256096233687,-0.12481363679564687,0.6193590534759795,0.15997643475094483,-0.03869897089004107
6196,3.0,301.10332999999997,1410.9938,0.0,0.0,0.0,0.0628345261933304,0.0,0.0,-0.13965741638811388,-0.14211097110776086,-0.14713849518893887,0.5729927592974825,0.16218820773172982,-0.005872147377010824
6197,3.0,300.26451000000003,1400.7422,0.0,0.0,0.0,0.06284466733700264,0.0,0.0,-0.0994273820404686,-0.1304984967466989,-0.1958647603078468,0.6123357914678375,0.11437004774994489,-0.04125529348783046
6198,3.0,299.03245,1120.9877,0.0,0.0,0.0,0.06285480848067491,0.0,0.0,-0.07186419794894414,-0.13151225347174889,-0.13737580007793587,0.5853668633612114,0.12196723487972888,-0.05670115844871864
6199,3.0,300.1092,1191.0805,0.0,0.0,0.0,0.06286494962434716,0.0,0.0,-0.04296467883053366,-0.15846934681720687,-0.16062469189992284,0.6405854575683624,0.15691210300351885,-0.06390617320679824
6200,3.0,300.48634,1404.1924,0.0,0.0,0.0,0.06287509076801943,0.0,0.0,-0.12974612814994588,-0.16744884013091385,-0.12964445863491186,0.6265462188202974,0.15275649076589184,-0.028922040628383175
6201,3.0,301.3698,1436.9134,0.0,0.0,0.0,0.0628852319116917,0.0,0.0,-0.09671141277017331,-0.16484940779436985,-0.17522496722835784,0.5936053567442874,0.14547545793230987,-0.04254831713919196
6202,3.0,301.90735,1553.8355,0.0,0.0,0.0,0.06289537305536395,0.0,0.0,-0.12103435577766089,-0.17203921772144884,-0.17925362936095585,0.5724008692515674,0.15319682899434986,-0.013323466718423787
6203,3.0,300.15767,1339.4275,0.0,0.0,0.0,0.06290551419903621,0.0,0.0,-0.06999003280872843,-0.14893486602622685,-0.18822762072661983,0.5883664686922495,0.13745279695303486,-0.01911594092284648
6204,3.0,299.00615,1235.6983,0.0,0.0,0.0,0.06291565534270847,0.0,0.0,-0.08648141583230123,-0.15129755247690585,-0.13784246254399188,0.5916451737633325,0.15731152619293884,-0.028641849617980473
6205,3.0,300.03395,1359.7274,0.0,0.0,0.0,0.06292579648638073,0.0,0.0,-0.0932623175357741,-0.14368806449090785,-0.17637280733914082,0.6013352087096645,0.11629434141235788,-0.033067202204478764
6206,3.0,299.55787000000004,1660.9983,0.0,0.0,0.0,0.06293593763005301,0.0,0.0,-0.1912141956613718,-0.16616464695417385,-0.14752316545690286,0.6141636034557284,0.12293596277033489,-0.026547248878759474
6207,3.0,299.4232,1416.6070000000002,0.0,0.0,0.0,0.06294607877372525,0.0,0.0,-0.1140554943889009,-0.14074963920090786,-0.17580802173340082,0.6219416354633605,0.12725843703442988,-0.03371315724922957
6208,3.0,299.08984,1034.3269,0.0,0.0,0.0,0.06295621991739753,0.0,0.0,-0.08915443647060782,-0.1139164562101789,-0.11133866689577089,0.6370615155755764,0.14458149776658286,-0.042840429037021156
6209,3.0,300.35199,1391.1968,0.0,0.0,0.0,0.06296636106106977,0.0,0.0,-0.08057285052417122,-0.14325848697851187,-0.19905773428796883,0.5741289875621194,0.1237687530275249,-0.03212758904224617
6210,3.0,302.01347999999996,1678.9858,0.0,0.0,0.0,0.06297650220474205,0.0,0.0,-0.15096563200914787,-0.14153195947061686,-0.2178721775773098,0.5790650252917685,0.14864148959227286,-0.03216508436219667
6211,3.0,301.14825,1399.2669,0.0,0.0,0.0,0.0629866433484143,0.0,0.0,-0.09907743078718109,-0.15118562887085985,-0.17507913014146484,0.5561163594744115,0.14972738972444286,-0.035982449398441266
6212,3.0,300.22381,1172.9899,0.0,0.0,0.0,0.06299678449208657,0.0,0.0,-0.13521534821471587,-0.11309432534404089,-0.1082499664834399,0.6074998932455714,0.16727275752853582,-0.010372244079660791
6213,3.0,299.35256,1242.2809,0.0,0.0,0.0,0.06300692563575883,0.0,0.0,-0.057901817260714444,-0.15634099471715485,-0.16337956693430786,0.5618120004065275,0.11230545947868589,-0.031006453137848673
6214,3.0,300.32998,1326.1357,0.0,0.0,0.0,0.06301706677943109,0.0,0.0,-0.12170257395360888,-0.14029954337398687,-0.14111001173147386,0.5928411229888635,0.14477737927591486,-0.012618048078304387
6215,3.0,299.7123,1583.8247,0.0,0.0,0.0,0.06302720792310335,0.0,0.0,-0.08110002225969902,-0.18058144295450082,-0.2197616964962908,0.6015492780582914,0.14964106081592285,-0.03585706172506646
6216,3.0,299.53815,1536.6097,0.0,0.0,0.0,0.0630373490667756,0.0,0.0,-0.12226582955169787,-0.17569274426952383,-0.16913239570206784,0.6253196694417463,0.18505295617580483,-0.03306483829199547
6217,3.0,299.55579,1153.7062,0.0,0.0,0.0,0.06304749021044787,0.0,0.0,-0.04961697477831415,-0.14649044068998085,-0.15459045318188983,0.6006140279509894,0.12512955804432588,-0.06604977674735543
6218,3.0,300.50782000000004,1267.3462,0.0,0.0,0.0,0.06305763135412014,0.0,0.0,-0.12882755613928987,-0.13199694165708387,-0.12441709123651089,0.6021672896917845,0.12215732059848888,-0.05120223799701745
6219,3.0,300.25217000000004,1609.0193,0.0,0.0,0.0,0.06306777249779238,0.0,0.0,-0.11164174013318189,-0.15695730409047984,-0.2205026558969178,0.6169020030434874,0.14243852446758787,-0.038456369431848166
6220,3.0,300.18727,1349.4832,0.0,0.0,0.0,0.06307791364146466,0.0,0.0,-0.11703261570021989,-0.13439041064580087,-0.15878616985847485,0.5868996979799904,0.15948622435256485,-0.025228922345900774
6221,3.0,299.3258,1081.9224,0.0,0.0,0.0,0.06308805478513692,0.0,0.0,-0.004443933870807126,-0.15187895538428586,-0.17255450605980382,0.6062506673297824,0.13362027977479488,-0.06051843431895444
6222,3.0,299.77374,1419.8189,0.0,0.0,0.0,0.06309819592880918,0.0,0.0,-0.1146905184915729,-0.14251691962782487,-0.17438206473516984,0.5731908699570344,0.14282158366789285,-0.018509584705253785
6223,3.0,300.92956000000004,1668.4213,0.0,0.0,0.0,0.06310833707248144,0.0,0.0,-0.12668841292567287,-0.18057996360935483,-0.1998900483176118,0.6483665901213004,0.16764034439981382,-0.017990595977533583
6224,3.0,300.25252,1485.3067,0.0,0.0,0.0,0.0631184782161537,0.0,0.0,-0.16148642057996884,-0.13883782877972686,-0.15117190946450584,0.5702934306335795,0.18285826659170581,-0.006109374657998334
6225,3.0,300.09127,1356.3786,0.0,0.0,0.0,0.06312861935982596,0.0,0.0,-0.0955330718048801,-0.13744921004768088,-0.17932293566779584,0.5976923516851425,0.14828549430213886,-0.03136888053961747
6226,3.0,300.28337999999997,1347.0762,0.0,0.0,0.0,0.06313876050349822,0.0,0.0,-0.13992405315192888,-0.12982457397268787,-0.13972890118266887,0.5572770577289634,0.13356088305393288,0.014910774675828884
6227,3.0,299.87335,1569.3287,0.0,0.0,0.0,0.06314890164717048,0.0,0.0,-0.08478085387146882,-0.16841127573839884,-0.22384461817174378,0.6080864941259644,0.16585877714648684,-0.04494800545702276
6228,3.0,300.15805,1717.015,0.0,0.0,0.0,0.06315904279084274,0.0,0.0,-0.16076603015637184,-0.16250698634569083,-0.19865665950088582,0.5848000107252674,0.15749196577074684,-0.014969535075628084
6229,3.0,299.9326,1351.5055,0.0,0.0,0.0,0.063169183934515,0.0,0.0,-0.07804438521138113,-0.16598734845167584,-0.16679218313860683,0.6079265728626815,0.1054887079734249,-0.08166446437365511
6230,3.0,299.45296,1086.7902,0.0,0.0,0.0,0.06317932507818726,0.0,0.0,-0.08393242815198572,-0.1148624366360399,-0.13156222696668088,0.6032439489830425,0.12674999826675087,-0.025021207088650875
6231,3.0,299.34413,1327.4811,0.0,0.0,0.0,0.06318946622185953,0.0,0.0,-0.08048564211456442,-0.16165020232613284,-0.16138527795498686,0.6385196533969835,0.15416037917694486,-0.06094548681210125
6232,3.0,300.45886,1659.7262,0.0,0.0,0.0,0.06319960736553178,0.0,0.0,-0.17460206159688185,-0.15066938807741084,-0.1792438616299918,0.5976480422582694,0.14550747663546987,-0.006909809610345114
6233,3.0,300.89243999999997,1400.6951,0.0,0.0,0.0,0.06320974850920405,0.0,0.0,-0.03771860784853676,-0.17670128275655883,-0.2113564322792558,0.5709851562118474,0.1276756934256099,-0.07061683540008903
6234,3.0,300.59952999999996,1185.1745,0.0,0.0,0.0,0.0632198896528763,0.0,0.0,-0.08447411976144652,-0.15525813433528485,-0.1205312163080049,0.5670550934464805,0.14421206678012288,-0.029219554162495474
6235,3.0,300.23818,1388.2897,0.0,0.0,0.0,0.06323003079654857,0.0,0.0,-0.07524378625298353,-0.14997157286604185,-0.1967900400341648,0.6129203253180264,0.16106552662092982,-0.039727517013550664
6236,3.0,299.45929,1570.2521,0.0,0.0,0.0,0.06324017194022083,0.0,0.0,-0.14280286893854585,-0.1732101801995138,-0.16130439019950385,0.5967536767925024,0.16081689531139184,-0.0017602544493985882
6237,3.0,299.52125,1379.5279999999998,0.0,0.0,0.0,0.06325031308389309,0.0,0.0,-0.08910815525904023,-0.15915162890454285,-0.17108229419450785,0.5954044025618395,0.11909315097107888,-0.03927272578566626
6238,3.0,299.71622,1349.3595,0.0,0.0,0.0,0.06326045422756535,0.0,0.0,-0.1097068580072239,-0.14154088620399785,-0.15892385028206285,0.6054549721587534,0.14160918939323888,-0.005403549603263825
6239,3.0,299.0345,1234.8345,0.0,0.0,0.0,0.06327059537123761,0.0,0.0,-0.07179294822841234,-0.14293399363398687,-0.16063190624063484,0.6297795606844034,0.16320710163478683,-0.042751090775704166
6240,3.0,298.03382999999997,1330.7685,0.0,0.0,0.0,0.06328073651490987,0.0,0.0,-0.13545798108366186,-0.13459226019822187,-0.13447016356117186,0.6407830514703634,0.15130669199280786,-0.03464300166724807
6241,3.0,298.97141,1568.675,0.0,0.0,0.0,0.06329087765858214,0.0,0.0,-0.1234801895315459,-0.16894870359143885,-0.18440913706226483,0.5778209466864874,0.1149624444209099,-0.058178152854486645
6242,3.0,300.19046000000003,1393.3934,0.0,0.0,0.0,0.06330101880225439,0.0,0.0,-0.12157290833831189,-0.15179920246891485,-0.15018467962707385,0.5848508657477864,0.14299320796983087,-0.03236201661188237
6243,3.0,300.43613,1089.5255,0.0,0.0,0.0,0.06331115994592666,0.0,0.0,-0.07526360643818963,-0.1135162021556769,-0.14240873491464787,0.5662429633588295,0.17203921772144884,-0.022805496617977275
6244,3.0,300.17627000000005,1278.5749,0.0,0.0,0.0,0.06332130108959891,0.0,0.0,-0.11684381680908688,-0.13561706134936188,-0.13619396542629786,0.6148792923988614,0.16772074579524882,-0.012578432025894589
6245,3.0,300.43709,1507.9768,0.0,0.0,0.0,0.06333144223327118,0.0,0.0,-0.0990446663319475,-0.16486559953096785,-0.1944770332358888,0.5917032633915654,0.11493714356591289,-0.023951308202060078
6246,3.0,300.11705,1287.5173,0.0,0.0,0.0,0.06334158337694346,0.0,0.0,-0.10957181203389589,-0.14420429515185587,-0.13759699257476588,0.6282206146105473,0.11529546933127689,-0.029673817487077772
6247,3.0,300.02817999999996,1345.6838,0.0,0.0,0.0,0.0633517245206157,0.0,0.0,-0.04972718700494125,-0.17768697245383883,-0.18164011705648384,0.6252174223741555,0.14616860206071786,-0.040168733729845356
6248,3.0,299.06181000000004,1531.6703,0.0,0.0,0.0,0.06336186566428798,0.0,0.0,-0.14197339200918288,-0.16707372481139285,-0.15654239843953185,0.6336622742725974,0.15008924160015485,-0.032715576048775966
6249,3.0,299.34087999999997,1583.5276,0.0,0.0,0.0,0.06337200680796022,0.0,0.0,-0.0977111673920914,-0.18300785270396883,-0.2006338245535168,0.5871368998284004,0.12480954326524288,-0.01802017578770288
6250,3.0,299.57597999999996,1516.354,0.0,0.0,0.0,0.0633821479516325,0.0,0.0,-0.12407722688796889,-0.18266042950968084,-0.15419609624296984,0.5743885315752345,0.14652947108383285,-0.04571492432521176
6251,3.0,300.44545,1421.2244,0.0,0.0,0.0,0.06339228909530475,0.0,0.0,-0.07819604848634912,-0.15793771475473883,-0.19588297854464481,0.5695363301588594,0.1921955689132258,-0.02619229419647818
6252,3.0,299.78902999999997,1263.0118,0.0,0.0,0.0,0.06340243023897701,0.0,0.0,-0.13076681550567987,-0.14425081346394686,-0.1089064208257269,0.5865816489061014,0.16736806383294184,-0.06639358669178684
6253,3.0,300.92024,1301.0399,0.0,0.0,0.0,0.06341257138264927,0.0,0.0,-0.062325701647817845,-0.15155704582751586,-0.18160089414511282,0.5979519463607624,0.15229568488541387,-0.045629181075249554
6254,3.0,300.80396,1461.3392,0.0,0.0,0.0,0.06342271252632152,0.0,0.0,-0.12883670578769288,-0.15460082886291385,-0.16077309250956884,0.6222890181276445,0.12797664897031186,-0.025681203753287477
6255,3.0,300.9661,1588.5118,0.0,0.0,0.0,0.0634328536699938,0.0,0.0,-0.08803400477502982,-0.18058919431776582,-0.2142447219543078,0.6306448357397993,0.15901574193363185,0.007287949886714653
6256,3.0,300.13307000000003,1475.0541,0.0,0.0,0.0,0.06344299481366607,0.0,0.0,-0.12785336683064488,-0.13811642510602984,-0.18240982236244782,0.6045152333535084,0.1290269232289659,-0.016303224506502983
6257,3.0,300.22247999999996,1502.0005,0.0,0.0,0.0,0.06345313595733831,0.0,0.0,-0.08176249328107982,-0.1723148724111538,-0.2024932702095298,0.5903604334315384,0.12214032839431188,-0.013935131353290385
6258,3.0,300.55006000000003,1515.0743,0.0,0.0,0.0,0.06346327710101059,0.0,0.0,-0.1420441877936699,-0.14507997628577887,-0.17342060184778083,0.6053227835507075,0.13158712252163787,-0.024744700255611776
6259,3.0,299.73593999999997,1497.1428,0.0,0.0,0.0,0.06347341824468283,0.0,0.0,-0.08920853997294742,-0.15674987153000786,-0.2091356109750778,0.6129235575858454,0.18362761726013482,-0.008242742143395312
6260,3.0,299.81018,1441.4041,0.0,0.0,0.0,0.0634835593883551,0.0,0.0,-0.15688525187586885,-0.13480475900919386,-0.14646083352205885,0.5790587228761465,0.13727414069540286,-0.03448787206368797
6261,3.0,299.39574,1336.2212,0.0,0.0,0.0,0.06349370053202737,0.0,0.0,-0.1036230814918019,-0.11889461474648488,-0.18366017298584783,0.5855595328677264,0.14408462018254486,-0.027929908686967368
6262,3.0,299.44256,1192.17,0.0,0.0,0.0,0.06350384167569963,0.0,0.0,-0.09582269110746332,-0.12365476239127489,-0.14291246206936187,0.6062494716946645,0.14569450233892786,-0.04563384101245946
6263,3.0,299.33792,1214.3519999999999,0.0,0.0,0.0,0.06351398281937189,0.0,0.0,-0.06602126794254184,-0.14928182312546887,-0.15382958341679784,0.6343739710103364,0.1944833052540078,-0.04712591764596596
6264,3.0,300.54253,1653.1116,0.0,0.0,0.0,0.06352412396304415,0.0,0.0,-0.14304378941482285,-0.17889718824077783,-0.1805636908127488,0.5993104614323375,0.14022361041149287,-0.026029157890627874
6265,3.0,299.99357000000003,1473.2343,0.0,0.0,0.0,0.0635342651067164,0.0,0.0,-0.11244754754020889,-0.17875834257957482,-0.15662054028724387,0.5911006328945905,0.13758954518653088,-0.053670954991160855
6266,3.0,300.01475,1081.8235,0.0,0.0,0.0,0.06354440625038868,0.0,0.0,-0.07085440100528494,-0.14606015390251487,-0.11193279622440691,0.5876895872279465,0.1215034297789549,-0.02507132851809748
6267,3.0,300.49929,1259.2438,0.0,0.0,0.0,0.06355454739406093,0.0,0.0,-0.06503214636717314,-0.15201737548044686,-0.16572915206119385,0.6237666812784783,0.15717191046165988,-0.033732127317601765
6268,3.0,300.04902000000004,1565.771,0.0,0.0,0.0,0.0635646885377332,0.0,0.0,-0.1081046765516009,-0.17754365835969482,-0.19030696191933483,0.5947277338800574,0.11645406002562089,-0.02191136115998298
6269,3.0,299.9101,1443.6681,0.0,0.0,0.0,0.06357482968140545,0.0,0.0,-0.11277548593507389,-0.14774157151595788,-0.17832200668901182,0.5979920609322215,0.13619985240937885,-0.04001166071259346
6270,3.0,300.33068,1352.2727,0.0,0.0,0.0,0.06358497082507772,0.0,0.0,-0.1096438743810079,-0.14608425912239387,-0.15532899091477784,0.6290599200658804,0.13809860203677088,-0.03435113801569337
6271,3.0,299.71832,1214.7443,0.0,0.0,0.0,0.06359511196874998,0.0,0.0,-0.09128254437738571,-0.13948235716833685,-0.13848704159510689,0.6234279112400444,0.16935068017111085,-0.03540561827551247
6272,3.0,299.18541,1399.955,0.0,0.0,0.0,0.06360525311242224,0.0,0.0,-0.12173005329632089,-0.15212641132370786,-0.15169490863612187,0.6102612632130974,0.13686092717212187,-0.03080906999186847
6273,3.0,299.87442999999996,1749.1029999999998,0.0,0.0,0.0,0.0636153942560945,0.0,0.0,-0.13944260736691386,-0.18728546025363582,-0.2049555591450388,0.5742492603489895,0.14042596658896386,-0.03312647429557847
6274,3.0,298.97597,1412.5948,0.0,0.0,0.0,0.06362553539976676,0.0,0.0,-0.12896041349240187,-0.14347118843950385,-0.15696195490843887,0.6113873792417365,0.14671832063747087,-0.025309141356317774
6275,3.0,298.67847,1067.5257,0.0,0.0,0.0,0.06363567654343902,0.0,0.0,-0.06248992111802503,-0.12915798712940088,-0.13285323931659387,0.6106511010565714,0.17645246906200282,-0.017890734100677985
6276,3.0,299.19701000000003,1318.059,0.0,0.0,0.0,0.06364581768711128,0.0,0.0,-0.1115925164433239,-0.14513497550120685,-0.14392951185723687,0.6288401967816954,0.15125680969038488,-0.021700159309138982
6277,3.0,298.49307999999996,1482.5405,0.0,0.0,0.0,0.06365595883078354,0.0,0.0,-0.1189093676679409,-0.15563191216467384,-0.17611402326360084,0.5884083260538805,0.15259415796737086,-0.039646545158309364
6278,3.0,299.30089,1393.7706,0.0,0.0,0.0,0.0636660999744558,0.0,0.0,-0.12020943847374789,-0.15613948966976784,-0.14732254193710287,0.6054475551680214,0.13235692915261185,-0.050094195310412155
6279,3.0,300.32491,1131.0382,0.0,0.0,0.0,0.06367624111812806,0.0,0.0,-0.045322206824953554,-0.13259044277065787,-0.16589473739253585,0.6073656984023273,0.15731414037819685,-0.05149245410390955
6280,3.0,300.04149,1061.1101,0.0,0.0,0.0,0.06368638226180032,0.0,0.0,-0.06983479985365813,-0.13532099980264287,-0.1173951768510019,0.6205482341908425,0.12200836270128788,-0.06352991696766465
6281,3.0,300.16945,1362.9160000000002,0.0,0.0,0.0,0.06369652340547259,0.0,0.0,-0.0937725142923766,-0.15754858618633485,-0.16297133860151886,0.6104142437131954,0.12044857562984888,-0.05613771641261124
6282,3.0,300.68273999999997,1490.2009,0.0,0.0,0.0,0.06370666454914484,0.0,0.0,-0.13537100369507787,-0.15798846845224784,-0.15962440126870187,0.6216144468735694,0.1377761959874519,-0.050546764480827254
6283,3.0,299.31026,1267.6496,0.0,0.0,0.0,0.06371680569281711,0.0,0.0,-0.08342213007037322,-0.13992591753211286,-0.16198579075925285,0.5948367798558194,0.15276774797450285,-0.029413978618183675
6284,3.0,299.72145,1181.7904,0.0,0.0,0.0,0.06372694683648937,0.0,0.0,-0.09849378251757951,-0.14225531871700686,-0.11848564674112289,0.6088242921862795,0.12822944473776088,-0.06251025907403224
6285,3.0,299.8088,1323.6828,0.0,0.0,0.0,0.06373708798016163,0.0,0.0,-0.05651241224659085,-0.15160780965752585,-0.19424629592311682,0.5776957089741275,0.14484767856785286,-0.02762121596450177
6286,3.0,298.86364,1424.0939,0.0,0.0,0.0,0.06374722912383389,0.0,0.0,-0.14606203854770086,-0.1311124148497879,-0.15571452244532685,0.6078562431732404,0.17777487190001384,-0.03432403458876847
6287,3.0,298.54005,1540.1041,0.0,0.0,0.0,0.06375737026750615,0.0,0.0,-0.10883853306902691,-0.14579029500338186,-0.21352436192821378,0.5940141423646315,0.18595405975473683,0.01186580208481349
6288,3.0,298.75268,1272.2592,0.0,0.0,0.0,0.06376751141117841,0.0,0.0,-0.1134179979559849,-0.13623919691076186,-0.13707782348852784,0.5901436485726435,0.17552347070781782,-0.029972288542534576
6289,3.0,299.40795,1278.267,0.0,0.0,0.0,0.06377765255485067,0.0,0.0,-0.07513993521048423,-0.13313938114483387,-0.18028192622494082,0.5881517407310575,0.12999978517997987,-0.002054340361072608
6290,3.0,300.48281000000003,1587.1147,0.0,0.0,0.0,0.06378779369852293,0.0,0.0,-0.13988966344353487,-0.15223686571710887,-0.19031669925279582,0.6200917447557904,0.13940372896057687,-0.028051492619466774
6291,3.0,299.92479,1640.2447,0.0,0.0,0.0,0.0637979348421952,0.0,0.0,-0.09673648463064771,-0.15888405995063584,-0.24297287514955573,0.6372976433788804,0.14873761662925988,-0.014315122432292588
6292,3.0,299.21311000000003,1459.3341,0.0,0.0,0.0,0.06380807598586745,0.0,0.0,-0.12344349974542489,-0.15243553366421583,-0.16772209341788183,0.6479682308444854,0.13166555821187886,-0.018521173246647482
6293,3.0,300.32678,1342.5812,0.0,0.0,0.0,0.06381821712953972,0.0,0.0,-0.07854604330939093,-0.14337695618020388,-0.18618817119034184,0.6364038554656705,0.15336589990603586,-0.04140480157983576
6294,3.0,301.22146000000004,1266.4291,0.0,0.0,0.0,0.06382835827321197,0.0,0.0,-0.09909769882893141,-0.13397508956231186,-0.15189003020787886,0.6211807353007655,0.15818899064703784,-0.004652527717218736
6295,3.0,300.34805,1334.7156,0.0,0.0,0.0,0.06383849941688424,0.0,0.0,-0.09697669887160501,-0.15295475341295886,-0.15578874301515186,0.6060541981353924,0.17175737207363284,-0.04071911294566356
6296,3.0,299.08637999999996,1563.6312,0.0,0.0,0.0,0.06384864056055652,0.0,0.0,-0.14164157286643486,-0.15645113500302485,-0.17721212292697483,0.5628165973506735,0.14850725421902486,-0.03439668259443827
6297,3.0,298.8885,1324.1379,0.0,0.0,0.0,0.06385878170422876,0.0,0.0,-0.060131022196219845,-0.18287959550631083,-0.15949424929335684,0.5949834174102915,0.14620870649967585,-0.08914919188809023
6298,3.0,299.05287000000004,1108.8421,0.0,0.0,0.0,0.06386892284790102,0.0,0.0,-0.05380667274930515,-0.15575864948718185,-0.12749500053527688,0.6005029858725304,0.13184471096205988,-0.03952731500579226
6299,3.0,299.6484,1412.4898,0.0,0.0,0.0,0.06387906399157328,0.0,0.0,-0.07306493984744813,-0.17578925634154882,-0.18050742503469583,0.6375706636183254,0.15106983464943186,-0.07087118853294173
6300,3.0,299.18152000000003,1628.5586,0.0,0.0,0.0,0.06388920513524554,0.0,0.0,-0.13579994285991087,-0.1773023629808808,-0.18193884345096584,0.6049618334675844,0.12722191950082587,-0.01303187360464579
6301,3.0,299.52081,1362.9954,0.0,0.0,0.0,0.06389934627891782,0.0,0.0,-0.10386464031564191,-0.16109063495840784,-0.14936130246331286,0.6109458656431624,0.13117275389324287,-0.04836890498088925
6302,3.0,300.16107999999997,1185.0885,0.0,0.0,0.0,0.06390948742259006,0.0,0.0,-0.07955194126666533,-0.12993574777365988,-0.15074962735282985,0.6030716154060345,0.16335142897903085,-0.01141040290686909
6303,3.0,299.67382000000003,1367.4286,0.0,0.0,0.0,0.06391962856626233,0.0,0.0,-0.100590475618257,-0.15466230274648085,-0.16041137235636987,0.6351414674310824,0.15820551675616884,-0.02606313115323077
6304,3.0,299.9877,1657.4087,0.0,0.0,0.0,0.06392976970993458,0.0,0.0,-0.15367624827916485,-0.15883806852859686,-0.19129653236449784,0.6025724377442694,0.14605661765966585,-0.0074919063913935924
6305,3.0,299.94989,1649.6153,0.0,0.0,0.0,0.06393991085360685,0.0,0.0,-0.12870291624448887,-0.17288531195245185,-0.1998536422415188,0.5973729752536224,0.11734305526585789,-0.06024813364277785
6306,3.0,300.12933,1436.4302,0.0,0.0,0.0,0.06395005199727913,0.0,0.0,-0.12203544687646088,-0.15980217599874685,-0.15480129026269784,0.5942502093729295,0.12915990217208986,0.019206663283800083
6307,3.0,300.15227999999996,1190.1383,0.0,0.0,0.0,0.06396019314095137,0.0,0.0,-0.08026956855723963,-0.14549124436886787,-0.13601150948079085,0.6011857441874134,0.13450239504685288,-0.03159806960623667
6308,3.0,299.55293,1478.0864,0.0,0.0,0.0,0.06397033428462365,0.0,0.0,-0.1123181960324429,-0.15665573046321685,-0.18032745155193383,0.6030001812739845,0.17465003898911685,-0.004663195416921556
6309,3.0,298.7765,1652.4564,0.0,0.0,0.0,0.0639804754282959,0.0,0.0,-0.12990820763594188,-0.17553760554671283,-0.19685968071353782,0.5955418600704054,0.16731223375243182,-0.044749999162231054
6310,3.0,299.29717999999997,1218.5182,0.0,0.0,0.0,0.06399061657196817,0.0,0.0,-0.07939187105561762,-0.13892172588800686,-0.15208550641717086,0.6158586492830164,0.1912627100761598,-0.0096054854063126
6311,3.0,299.58852,956.15218,0.0,0.0,0.0,0.06400075771564043,0.0,0.0,-0.016387543126824583,-0.13480855869706887,-0.13945028780267188,0.6336789422367424,0.17818714310070183,-0.05083614769613715
6312,3.0,299.3088,1312.8408,0.0,0.0,0.0,0.06401089885931269,0.0,0.0,-0.11900522112740089,-0.14992730396917286,-0.13013831673365187,0.6413654270978394,0.15351778609602584,-0.009020277238182052
6313,3.0,299.84799,1567.7520000000002,0.0,0.0,0.0,0.06402104000298495,0.0,0.0,-0.11431107659412489,-0.17595758758066182,-0.18628877679277084,0.6152844201863444,0.11847222117729789,-0.05994169844153504
6314,3.0,300.64817999999997,1374.547,0.0,0.0,0.0,0.0640311811466572,0.0,0.0,-0.1009307543860899,-0.17018154525311083,-0.14671566592220886,0.5964522551527544,0.15037839278119186,-0.04554495060768666
6315,3.0,300.64738,1143.0269,0.0,0.0,0.0,0.06404132229032947,0.0,0.0,-0.047459016523590254,-0.16221291076916783,-0.13777970183279786,0.6095832367761814,0.14392015955881385,-0.06460347064736614
6316,3.0,300.0577,1273.4355,0.0,0.0,0.0,0.06405146343400174,0.0,0.0,-0.09741681823804141,-0.13334267964489788,-0.15633310149887586,0.6016616576268824,0.15457395747026184,-0.04858547401751295
6317,3.0,300.05627000000004,1481.2217,0.0,0.0,0.0,0.06406160457767399,0.0,0.0,-0.11256318977412189,-0.15590764791438685,-0.18178357300564182,0.5962595248512335,0.13308025800149886,-0.04326572556774466
6318,3.0,299.44428999999997,1550.681,0.0,0.0,0.0,0.06407174572134626,0.0,0.0,-0.15254016186954183,-0.17026782349912584,-0.14856031812676188,0.6124261835092585,0.16124560142870184,-0.03849620434627956
6319,3.0,299.27009,1303.4263,0.0,0.0,0.0,0.0640818868650185,0.0,0.0,-0.06827990779345224,-0.14791576947314986,-0.18001337441843682,0.5793358062484925,0.16429350839200685,-0.020776903043270678
6320,3.0,299.1303,983.81306,0.0,0.0,0.0,0.06409202800869078,0.0,0.0,-0.05393214857543865,-0.12579769516026587,-0.1193247596789369,0.5954700510358184,0.17113526690973585,-0.03252107053307977
6321,3.0,299.74376,1349.8972,0.0,0.0,0.0,0.06410216915236304,0.0,0.0,-0.0978772299642305,-0.13687091781810787,-0.17558689003157682,0.5931212562440105,0.12739898495580088,-0.024147602104182774
6322,3.0,299.70513,1774.0675,0.0,0.0,0.0,0.0641123102960353,0.0,0.0,-0.14427260847359785,-0.17288079285700583,-0.22211881007141981,0.6210737867527104,0.17614122902878585,-0.009432032086619092
6323,3.0,299.19536,1463.9671,0.0,0.0,0.0,0.06412245143970756,0.0,0.0,-0.11666162430860588,-0.14175502648013188,-0.18659280248527582,0.6057025902181914,0.14172379811204985,-0.00994679758792249
6324,3.0,299.59987,1165.3401,0.0,0.0,0.0,0.06413259258337982,0.0,0.0,-0.10140221965761989,-0.1023836030419749,-0.15044846915810786,0.5981281201556494,0.14295805832386185,-0.027910822094833674
6325,3.0,299.62176,1395.8043,0.0,0.0,0.0,0.06414273372705208,0.0,0.0,-0.08212155162626612,-0.13664353436316687,-0.2055245700036958,0.5991946570784085,0.13704238000002986,-0.03433609935770917
6326,3.0,300.2821,1494.5936,0.0,0.0,0.0,0.06415287487072434,0.0,0.0,-0.12789807142505688,-0.15221230453468484,-0.17420874830556482,0.6079527755102674,0.16743043950909783,-0.02847866366287527
6327,3.0,300.59227999999996,1346.5916,0.0,0.0,0.0,0.0641630160143966,0.0,0.0,-0.06798523845237064,-0.15505667995040284,-0.18628829043272283,0.6196431485390174,0.15711170314071785,-0.03466335178225646
6328,3.0,301.30496,1118.4375,0.0,0.0,0.0,0.06417315715806886,0.0,0.0,-0.06561937242287784,-0.1220900813218529,-0.15226762799014484,0.5922265057432055,0.14600039241161686,-0.021924876903066878
6329,3.0,300.46873999999997,1192.9917,0.0,0.0,0.0,0.06418329830174112,0.0,0.0,-0.08678864238187212,-0.13066522705065386,-0.14518581025872385,0.6241881527900743,0.13874680852324386,-0.02141710789370398
6330,3.0,299.88923,1290.6155,0.0,0.0,0.0,0.06419343944541339,0.0,0.0,-0.1007895579846549,-0.14396903874363787,-0.14755629873517287,0.6023493606022534,0.14891011232628387,-0.031558996655880474
6331,3.0,300.06627000000003,1625.6897,0.0,0.0,0.0,0.06420358058908565,0.0,0.0,-0.10554947258192189,-0.20092069592182882,-0.18769891695694083,0.6287405031043564,0.13714067539223085,-0.07136749565717343
6332,3.0,299.15108,1626.7820000000002,0.0,0.0,0.0,0.06421372173275791,0.0,0.0,-0.13405117451232088,-0.17318046157408085,-0.18726946103455683,0.5915309703445614,0.11649927124508289,-0.05555552418340335
6333,3.0,298.39198,1319.7926,0.0,0.0,0.0,0.06422386287643017,0.0,0.0,-0.09579446702592782,-0.14399257654346087,-0.16139695059613884,0.6489005830565013,0.13118516620696788,-0.07905571013619113
6334,3.0,299.31252,1225.3207,0.0,0.0,0.0,0.06423400402010243,0.0,0.0,-0.1013470076596709,-0.13659702618357686,-0.13452286269887287,0.6095156631270124,0.16056644015167384,-0.033964100795495764
6335,3.0,299.79976,1314.984,0.0,0.0,0.0,0.06424414516377469,0.0,0.0,-0.11668909351881689,-0.12828900357863887,-0.15474421388456486,0.6334421254233704,0.13832973451708186,-0.016578456670916286
6336,3.0,299.07617999999997,1366.7583,0.0,0.0,0.0,0.06425428630744695,0.0,0.0,-0.10996878315807389,-0.14790242496933284,-0.15758918711784187,0.5635296113135425,0.13821591613334888,-0.0007579671885905373
6337,3.0,300.31142,1348.7239,0.0,0.0,0.0,0.06426442745111921,0.0,0.0,-0.08583330459133762,-0.14294934437300186,-0.18119572582762583,0.5842294901239614,0.15377538466894886,-0.04102105438271286
6338,3.0,299.65701,1463.8349,0.0,0.0,0.0,0.06427456859479147,0.0,0.0,-0.12730028426355988,-0.13723711653674886,-0.18043183657723583,0.5806699627876635,0.16395623796372086,-0.013603834034343888
6339,3.0,299.40997999999996,1610.1479,0.0,0.0,0.0,0.06428470973846373,0.0,0.0,-0.11129113533357989,-0.16773588375174284,-0.21041774725411483,0.6089699164906515,0.1376193448719719,-0.04881834219524525
6340,3.0,300.38611000000003,1738.8993,0.0,0.0,0.0,0.06429485088213599,0.0,0.0,-0.1353386100893809,-0.18088911634736582,-0.2123542303152308,0.5987882525957994,0.11910743779748889,-0.02232133937569468
6341,3.0,300.67642,1669.2531,0.0,0.0,0.0,0.06430499202580826,0.0,0.0,-0.16169255618031286,-0.16711934133089484,-0.17859935350638384,0.6285832872188404,0.12877246573135287,-0.03252027310525107
6342,3.0,300.3904,1380.4344,0.0,0.0,0.0,0.06431513316948051,0.0,0.0,-0.11004962025105189,-0.14110200705568388,-0.16846595071379483,0.6329134013886895,0.17632495153691785,-0.029804442650219472
6343,3.0,300.95934,1088.6805,0.0,0.0,0.0,0.06432527431315278,0.0,0.0,-0.06535034337557674,-0.12709286183558888,-0.13848849054274986,0.6287504633528395,0.16060147834013186,-0.029148984332780768
6344,3.0,301.64806,1287.4302,0.0,0.0,0.0,0.06433541545682503,0.0,0.0,-0.08853218945169682,-0.16033087976842583,-0.14248357356703387,0.6278868094976034,0.15077185806002386,-0.04282257050400866
6345,3.0,300.0507,1627.0046,0.0,0.0,0.0,0.0643455566004973,0.0,0.0,-0.11681518236126089,-0.1896612176306048,-0.18809237210327182,0.6049539402493054,0.13692853121879386,-0.026117637929110177
6346,3.0,299.15941000000004,1480.2239,0.0,0.0,0.0,0.06435569774416956,0.0,0.0,-0.13804987483946188,-0.15837660403555384,-0.15352461540169987,0.6329939446391384,0.14788270712238688,-0.03858530652032326
6347,3.0,299.08299,1252.5257,0.0,0.0,0.0,0.06436583888784182,0.0,0.0,-0.10132327024957821,-0.13406539041122387,-0.14534787961221887,0.5845851409090614,0.13822871348211185,-0.000948575045259568
6348,3.0,299.66713,1499.1081,0.0,0.0,0.0,0.06437598003151408,0.0,0.0,-0.08026746910303242,-0.16930760690935986,-0.2061163688571018,0.6085104886303094,0.12819219766408488,-0.030521437672731373
6349,3.0,299.95078,1685.3536,0.0,0.0,0.0,0.06438612117518634,0.0,0.0,-0.1000070624226786,-0.2014764332041758,-0.2108219023215018,0.5867430191170274,0.15820226422334785,-0.03356066716217997
6350,3.0,299.62596,1595.6226,0.0,0.0,0.0,0.0643962623188586,0.0,0.0,-0.12695683300966387,-0.18339552219222882,-0.17467707250178482,0.6226071989240464,0.19300556104316582,-0.05873458725290245
6351,3.0,300.97292000000004,1384.4104,0.0,0.0,0.0,0.06440640346253088,0.0,0.0,-0.09024097191059051,-0.15318479158316184,-0.17740043545805984,0.5783909606627434,0.15227863188623086,-0.04761980918195925
6352,3.0,301.27859,1122.7109,0.0,0.0,0.0,0.06441654460620312,0.0,0.0,-0.101016121720265,-0.14075364153880288,-0.09950632638225981,0.6093057075737914,0.1344152960682569,-0.058869332290950746
6353,3.0,301.19261,1154.4743,0.0,0.0,0.0,0.0644266857498754,0.0,0.0,-0.08788216418129433,-0.1214956480181869,-0.14155355183024787,0.5932900333131674,0.12049731295965888,-0.029104779270668072
6354,3.0,300.55292000000003,1435.9206,0.0,0.0,0.0,0.06443682689354764,0.0,0.0,-0.12031898094205888,-0.1344244761141629,-0.18174054027389483,0.6172104566389294,0.14649078519501488,-0.019108058850318584
6355,3.0,299.94197,1577.5051,0.0,0.0,0.0,0.06444696803721991,0.0,0.0,-0.13079563233852387,-0.14270322592371187,-0.2060232917029158,0.5848489912351014,0.12520312000158587,-0.005388594133112835
6356,3.0,299.10931,1322.2143,0.0,0.0,0.0,0.06445710918089219,0.0,0.0,-0.09575437677247121,-0.14153404676582287,-0.16463170087788384,0.6328977872046484,0.13356838110467287,-0.027234241565810377
6357,3.0,300.43216,1523.7942,0.0,0.0,0.0,0.06446725032456443,0.0,0.0,-0.0976318552405139,-0.18200267820726582,-0.18356086434354685,0.6379688303776214,0.14879687149510787,-0.018032011562120982
6358,3.0,299.15687,1755.5241,0.0,0.0,0.0,0.06447739146823671,0.0,0.0,-0.19506033092095582,-0.16725877467715583,-0.17131639549761182,0.6520082515107044,0.15974399517800486,-0.024582486007352477
6359,3.0,299.53522000000004,1655.05,0.0,0.0,0.0,0.06448753261190895,0.0,0.0,-0.14809024100786886,-0.15637484740299587,-0.1986287951231358,0.6102801907249654,0.1286130105631159,0.0036036507304526367
6360,3.0,300.78042,1189.5377,0.0,0.0,0.0,0.06449767375558121,0.0,0.0,-0.07054845824359073,-0.1377260907700069,-0.15331519687103184,0.5655131801068054,0.15255844090134588,-0.04459312372874866
6361,3.0,301.33276,1040.8474,0.0,0.0,0.0,0.06450781489925349,0.0,0.0,-0.032150643521771466,-0.14043400166225686,-0.14380698965514485,0.5956001016861534,0.17024389053176384,-0.02090119336678718
6362,3.0,300.42233,1191.1746,0.0,0.0,0.0,0.06451795604292573,0.0,0.0,-0.04647065792554686,-0.16245710404326785,-0.15315957178817285,0.5980213641251134,0.19443365599910784,-0.059845122534753735
6363,3.0,300.02659,1517.435,0.0,0.0,0.0,0.06452809718659801,0.0,0.0,-0.1055781678247539,-0.18754323107907583,-0.16814095074421984,0.6032353464896935,0.17599033582389384,-0.04242316352659026
6364,3.0,298.54103,1525.3344,0.0,0.0,0.0,0.06453823833027025,0.0,0.0,-0.14805779673966685,-0.15991452516983484,-0.15569123795802883,0.6197905055010604,0.13296322761494886,-0.054503280166554945
6365,3.0,298.59466000000003,1223.0859,0.0,0.0,0.0,0.06454837947394253,0.0,0.0,-0.061571567969390645,-0.16410985681138185,-0.14610614532455388,0.6502219929094144,0.15088464292865486,-0.043917826987602056
6366,3.0,299.71328,1203.1768,0.0,0.0,0.0,0.0645585206176148,0.0,0.0,-0.06167413015776274,-0.15415303311371986,-0.1499085284448199,0.6549014757137434,0.14422526942892586,-0.02403334194340618
6367,3.0,299.70721000000003,1616.8423,0.0,0.0,0.0,0.06456866176128705,0.0,0.0,-0.11309149837626188,-0.16481625425109783,-0.21357192388790783,0.6487559416047264,0.12480708106749988,-0.015891406228609684
6368,3.0,299.88173,1791.0374,0.0,0.0,0.0,0.06457880290495932,0.0,0.0,-0.13355306076316087,-0.18268740222734284,-0.2281901742731168,0.5767245796807844,0.11895417358736289,-0.018364539979938983
6369,3.0,300.69262000000003,1353.875,0.0,0.0,0.0,0.06458894404863157,0.0,0.0,-0.1092616663107869,-0.14331073015366785,-0.15897179727679484,0.6115972334699474,0.14006353716069486,-0.03572596438737817
6370,3.0,300.62439,1246.9128,0.0,0.0,0.0,0.06459908519230384,0.0,0.0,-0.13368532029871388,-0.13012194261203588,-0.11522308274413288,0.5936007971188374,0.15014735149338984,-0.01935285703472828
6371,3.0,301.07899,1537.0632,0.0,0.0,0.0,0.0646092263359761,0.0,0.0,-0.1291604695921459,-0.16058995768649484,-0.17747840505325482,0.6012809289018074,0.14888682783898585,-0.04569063266731436
6372,3.0,299.52079,1607.4666,0.0,0.0,0.0,0.06461936747964836,0.0,0.0,-0.14602749685179187,-0.16357857938644885,-0.17902364185325784,0.6075643359519314,0.13907064325520388,-0.017885701287431284
6373,3.0,299.39737,1470.7291,0.0,0.0,0.0,0.06462950862332062,0.0,0.0,-0.08004912383898342,-0.18470308091627483,-0.18231272260536482,0.6108560714193004,0.17630878006532183,-0.037943147110447065
6374,3.0,300.32294,1214.3413,0.0,0.0,0.0,0.06463964976699288,0.0,0.0,-0.05706808366768135,-0.15460594577591885,-0.15745540770713884,0.6290722006570925,0.18323085891847782,-0.025894846523622377
6375,3.0,301.37515,1265.4229,0.0,0.0,0.0,0.06464979091066514,0.0,0.0,-0.09627541429189361,-0.1431383965766599,-0.14524313994938187,0.6267038298733524,0.14234299524815985,-0.03078390592563497
6376,3.0,299.31243,1615.9493,0.0,0.0,0.0,0.06465993205433741,0.0,0.0,-0.13684191860024586,-0.16228081879086986,-0.1920854894223618,0.6259326046922384,0.13238180444256686,-0.00989520309548051
6377,3.0,299.25481,1599.7636,0.0,0.0,0.0,0.06467007319800966,0.0,0.0,-0.1094833856976689,-0.16933873395243182,-0.2074660686528068,0.6073003843008814,0.14226611996307287,-0.034267454703184465
6378,3.0,297.93952,1305.7512,0.0,0.0,0.0,0.06468021434168193,0.0,0.0,-0.07095201448016863,-0.15839776069764186,-0.16756597184247385,0.6300881054723544,0.13904734863540488,-0.0033148639141515964
6379,3.0,298.83406,1125.673,0.0,0.0,0.0,0.06469035548535418,0.0,0.0,-0.062032809547411645,-0.13195672576061487,-0.14818695572991386,0.6008556678348375,0.1177323155567749,-0.06301016019636865
6380,3.0,299.68492000000003,1390.0411,0.0,0.0,0.0,0.06470049662902645,0.0,0.0,-0.08796525676899491,-0.16917020006329883,-0.16540233837393983,0.6665964691629493,0.1398236501995199,-0.04408838839018516
6381,3.0,300.54812000000004,1404.7757,0.0,0.0,0.0,0.06471063777269871,0.0,0.0,-0.13170099156787587,-0.16602071477746885,-0.12929501907292487,0.6158339462455784,0.16088821798593086,-0.05389204818948105
6382,3.0,299.53482,1205.5623,0.0,0.0,0.0,0.06472077891637097,0.0,0.0,-0.07363040635725533,-0.14914409203937584,-0.14368634196573785,0.6588234223458094,0.18221668676088681,-0.044119411068496865
6383,3.0,300.74376,1143.4346,0.0,0.0,0.0,0.06473092006004323,0.0,0.0,-0.06614286302079235,-0.13102342109350487,-0.15040929690924185,0.5895522550192774,0.16665577941014484,-0.03536548850530197
6384,3.0,300.54015,1363.3494,0.0,0.0,0.0,0.06474106120371549,0.0,0.0,-0.0963731290917873,-0.14942016216162185,-0.16863087743257185,0.6324744614453693,0.16043498108369983,-0.021566743655221876
6385,3.0,300.09713999999997,1795.3385,0.0,0.0,0.0,0.06475120234738775,0.0,0.0,-0.13256700629584486,-0.17725542923624885,-0.23591565913056278,0.5791754492876665,0.15181099670007886,-0.01120099957495259
6386,3.0,300.52242,1940.0784,0.0,0.0,0.0,0.06476134349106001,0.0,0.0,-0.15759489171590485,-0.18866740166752283,-0.24347310659142476,0.6017605609691434,0.14334796709484288,-0.01976260422941718
6387,3.0,299.93863999999996,1661.1891,0.0,0.0,0.0,0.06477148463473227,0.0,0.0,-0.16219852261774784,-0.16190740573151682,-0.18085406802640683,0.5719208622816945,0.11593649187454089,-0.00047955512112340547
6388,3.0,299.38546,1357.099,0.0,0.0,0.0,0.06478162577840453,0.0,0.0,-0.09791640322634661,-0.14220547694458788,-0.17240231589478383,0.6230166330244544,0.12499250583579988,-0.04702487431949375
6389,3.0,299.3333,1345.9379999999999,0.0,0.0,0.0,0.06479176692207679,0.0,0.0,-0.08397688551337333,-0.16052382285246783,-0.16463083961529884,0.6373649637155244,0.14196272248562986,-0.03615303106602637
6390,3.0,299.58787,1408.8227,0.0,0.0,0.0,0.06480190806574905,0.0,0.0,-0.09278014119743701,-0.16124662481130286,-0.1742201473691898,0.6521047737152305,0.14913476000595485,-0.04256023397361806
6391,3.0,300.38167999999996,1350.2137,0.0,0.0,0.0,0.06481204920942132,0.0,0.0,-0.07329643203154462,-0.18630348918422282,-0.15083133584089387,0.6204113238373304,0.12077606819466988,-0.061128786794941534
6392,3.0,299.80017000000004,1028.1028,0.0,0.0,0.0,0.06482219035309357,0.0,0.0,-0.07989154217018132,-0.12368968912222188,-0.10893634210117989,0.6260151643103864,0.1319161248291079,-0.058943912564561246
6393,3.0,300.65159,1170.2629,0.0,0.0,0.0,0.06483233149676584,0.0,0.0,-0.09333125096657731,-0.1422099757750319,-0.12018946731427688,0.6308212932447144,0.15132886190499586,-0.029488379546526472
6394,3.0,300.71087,1407.0661,0.0,0.0,0.0,0.06484247264043809,0.0,0.0,-0.08107650877787843,-0.15221137234459287,-0.19442506363825982,0.6168169204325904,0.17989430739918583,-0.04090152430816616
6395,3.0,301.34234,1628.8985,0.0,0.0,0.0,0.06485261378411036,0.0,0.0,-0.1005000521660829,-0.1947923060045038,-0.1998521122338678,0.5979093695915605,0.15887735223497385,-0.024456172223386273
6396,3.0,300.57451000000003,1555.558,0.0,0.0,0.0,0.06486275492778262,0.0,0.0,-0.1134188288210669,-0.17162674387074084,-0.18780522715743284,0.5811886961763585,0.14306353765927188,-0.028915907425527874
6397,3.0,300.78177,1402.8047,0.0,0.0,0.0,0.06487289607145488,0.0,0.0,-0.1150235231369379,-0.13853062148190787,-0.17286345614779486,0.6079496952299634,0.16042886105309584,-0.026691545825500474
6398,3.0,299.25725,1360.5952,0.0,0.0,0.0,0.06488303721512714,0.0,0.0,-0.14042502426637085,-0.15692762599505086,-0.11623432660893487,0.6117215795222194,0.15904787209430285,-0.041229336046768664
6399,3.0,299.44308,1585.1928,0.0,0.0,0.0,0.0648931783587994,0.0,0.0,-0.15239886414309686,-0.16184741119309584,-0.16761276373209183,0.6456364991843614,0.14053159791188888,-0.03103873933903507
6400,3.0,300.08521,1584.2579,0.0,0.0,0.0,0.06490331950247166,0.0,0.0,-0.11086796156181589,-0.15751857371837283,-0.21318830740004782,0.6170749749680584,0.13092747644153588,-0.04011570731236206
6401,3.0,299.95353,1187.7356,0.0,0.0,0.0,0.06491346064614394,0.0,0.0,-0.07939995983116592,-0.12671821261111388,-0.15492378206728685,0.6503694917264714,0.16070902470574583,-0.016129359908593884
6402,3.0,300.35155,1158.7732,0.0,0.0,0.0,0.06492360178981618,0.0,0.0,-0.05748103881218685,-0.13429507394389187,-0.16046202472886884,0.6206926729925973,0.13918688330667586,-0.013658378300476986
6403,3.0,299.83853999999997,1465.271,0.0,0.0,0.0,0.06493374293348846,0.0,0.0,-0.12550534210891287,-0.16277353191699684,-0.15712692215721988,0.6366604813184974,0.14416892259086486,-0.04845855532323705
6404,3.0,299.11096000000003,1574.8754,0.0,0.0,0.0,0.0649438840771607,0.0,0.0,-0.14463435902429986,-0.16020318999082384,-0.17388523781363685,0.5994957139481204,0.12240569859550188,-0.03458372450989787
6405,3.0,299.84351000000004,1374.0253,0.0,0.0,0.0,0.06495402522083298,0.0,0.0,-0.1122264158383849,-0.14657337521066588,-0.15886961100420985,0.6141059089950344,0.14355105281238587,-0.06522926910787764
6406,3.0,300.12994,1403.1919,0.0,0.0,0.0,0.06496416636450524,0.0,0.0,-0.05663551605424025,-0.16169172531523085,-0.2082080717010368,0.6072904037873964,0.15971154077730185,-0.018311545986458882
6407,3.0,300.8253,1476.3084,0.0,0.0,0.0,0.0649743075081775,0.0,0.0,-0.0913158235636701,-0.16144212128559685,-0.1960029574889858,0.6055265684108193,0.14974947857662285,-0.04605094744262466
6408,3.0,300.82915,1652.7169,0.0,0.0,0.0,0.06498444865184975,0.0,0.0,-0.1121878819370819,-0.18662194355815181,-0.2035748336312718,0.5885137445942844,0.14405944091755987,-0.009205843456196012
6409,3.0,300.95339,1588.4492,0.0,0.0,0.0,0.06499458979552201,0.0,0.0,-0.16890225620685484,-0.16518046699954286,-0.14876617001707784,0.5992926282305774,0.15490072049501086,-0.04637229160583886
6410,3.0,300.25637,1257.6459,0.0,0.0,0.0,0.06500473093919427,0.0,0.0,-0.13139790819796388,-0.13648678457269686,-0.11440826754371689,0.6293519083471973,0.14695697143352385,-0.036526559635890764
6411,3.0,300.2705,1215.1396,0.0,0.0,0.0,0.06501487208286655,0.0,0.0,-0.09479132004267492,-0.16650439984520485,-0.10807636634380689,0.6269466248623143,0.1125020198655849,-0.08400873601701672
6412,3.0,299.98596000000003,1348.8242,0.0,0.0,0.0,0.0650250132265388,0.0,0.0,-0.03916302930334006,-0.17122661140625084,-0.19961923696338482,0.6530353628720724,0.14114655966258086,-0.03136234608972257
6413,3.0,299.24413,1469.9719,0.0,0.0,0.0,0.06503515437021107,0.0,0.0,-0.08806735184907091,-0.15760358540176286,-0.20116381515082282,0.6315165550658314,0.14870427056846885,-0.015656144754141184
6414,3.0,298.88804,1394.806,0.0,0.0,0.0,0.06504529551388331,0.0,0.0,-0.06629172567248393,-0.16162474948362085,-0.1960697104055738,0.6340834823391674,0.17953430977115684,-0.006650135799892304
6415,3.0,300.38641,1291.1943,0.0,0.0,0.0,0.06505543665755559,0.0,0.0,-0.1366769310864629,-0.12513369210473388,-0.13068020288713186,0.6005368284258704,0.15584800801350085,-0.02244203164810608
6416,3.0,300.78836,1433.8821,0.0,0.0,0.0,0.06506557780122786,0.0,0.0,-0.11818428589638087,-0.16597100472756285,-0.15170906374001886,0.6210166090495673,0.13900237046346586,-0.04240871559341436
6417,3.0,299.95985,1524.2079999999999,0.0,0.0,0.0,0.06507571894490011,0.0,0.0,-0.14167924550515287,-0.14677996677355484,-0.17486196024753184,0.6267067379011394,0.15393277280698187,-0.027067745322628477
6418,3.0,300.61382000000003,1565.4839,0.0,0.0,0.0,0.06508586008857238,0.0,0.0,-0.10730320585500189,-0.15761626116051386,-0.21094853831899982,0.6016901603521955,0.14726856610427586,-0.03547153931376837
6419,3.0,300.00468,1473.0002,0.0,0.0,0.0,0.06509600123224463,0.0,0.0,-0.11431206957922288,-0.14294968887803586,-0.19049352152774682,0.5978565893938514,0.12698537626498088,-0.0016951001374933584
6420,3.0,300.67306,1245.954,0.0,0.0,0.0,0.06510614237591689,0.0,0.0,-0.08172928704880263,-0.13629357804362888,-0.16071605666143984,0.5986587794980215,0.13701798093762185,-0.029043443189114674
6421,3.0,300.51524,1234.1607,0.0,0.0,0.0,0.06511628351958916,0.0,0.0,-0.1327925456356039,-0.12611674735175388,-0.11624475295246389,0.6435463466130795,0.17139345316771684,-0.00994912390882708
6422,3.0,299.93658999999997,1455.7842,0.0,0.0,0.0,0.0651264246632614,0.0,0.0,-0.13698637766700286,-0.16595134767562283,-0.13958431039339886,0.6426438548815104,0.16981008776645085,-0.06563518723043864
6423,3.0,299.225,1457.3236,0.0,0.0,0.0,0.06513656580693368,0.0,0.0,-0.09026237580570291,-0.17179138687948983,-0.1809362122120138,0.6193043177055774,0.12942743059599288,-0.06526440760809554
6424,3.0,300.03918,1206.9629,0.0,0.0,0.0,0.06514670695060593,0.0,0.0,-0.04711794336767895,-0.15105511212547887,-0.16871351811072782,0.6254640778459984,0.13903924263460485,-0.07132952512292602
6425,3.0,299.64428,1213.0485,0.0,0.0,0.0,0.0651568480942782,0.0,0.0,-0.03969353767144716,-0.15394633009331987,-0.17509657830818684,0.6221590890673214,0.16236894115206685,-0.016581701097736483
6426,3.0,299.04707,1363.3401,0.0,0.0,0.0,0.06516698923795047,0.0,0.0,-0.0901101724684316,-0.14925712008803085,-0.17505406233399085,0.6093686506700035,0.17126189277473286,-0.037005586792917065
6427,3.0,299.71575,1640.213,0.0,0.0,0.0,0.06517713038162272,0.0,0.0,-0.15399514848313783,-0.17579377543699481,-0.16879486182875586,0.5631019893738395,0.14620423806673488,-0.016799370523968786
6428,3.0,299.99367,1566.4779999999998,0.0,0.0,0.0,0.06518727152529499,0.0,0.0,-0.13144387935500088,-0.18273215748425983,-0.16199417033757982,0.5843964332104374,0.14912155735715188,-0.06902061286830413
6429,3.0,299.91279,1596.8293,0.0,0.0,0.0,0.06519741266896724,0.0,0.0,-0.11410024964581789,-0.1844148315278268,-0.1868811633312348,0.6324845128863614,0.16208740961178186,-0.03561679884810437
6430,3.0,300.88967,1553.8982,0.0,0.0,0.0,0.06520755381263951,0.0,0.0,-0.10469329651242391,-0.19108734688135282,-0.17656561870066984,0.6326950054621354,0.14827635478623688,-0.07283880370338022
6431,3.0,300.1016,1474.5970000000002,0.0,0.0,0.0,0.06521769495631177,0.0,0.0,-0.11432049982005489,-0.15803535153437484,-0.17588482609098083,0.6311052261877363,0.12173357940666887,-0.008480002456336082
6432,3.0,299.48394,1247.1931,0.0,0.0,0.0,0.06522783609998403,0.0,0.0,-0.1010850744028201,-0.1321813937052879,-0.14584910403918586,0.6181885672254613,0.11644380593460889,-0.03003216858369427
6433,3.0,300.45609,1187.6027,0.0,0.0,0.0,0.06523797724365629,0.0,0.0,-0.0997587421809213,-0.12444148016641789,-0.13680133793374086,0.6703719707580624,0.16490036414189885,0.022512797035090078
6434,3.0,299.90387999999996,1338.3087,0.0,0.0,0.0,0.06524811838732855,0.0,0.0,-0.06736286781694743,-0.16696610751827184,-0.17248345696279183,0.6272073645105474,0.15216796471030886,-0.04869364961143905
6435,3.0,299.94088,1766.7505,0.0,0.0,0.0,0.06525825953100081,0.0,0.0,-0.1127540759604609,-0.16903163811212382,-0.25526230190242777,0.6119114727234604,0.15240690934889087,0.006689845679261363
6436,3.0,300.10232,1913.2967,0.0,0.0,0.0,0.06526840067467307,0.0,0.0,-0.13066388956052188,-0.2171915977501418,-0.2337389243382358,0.5876910057780864,0.16088708314581884,-0.04374102295115286
6437,3.0,298.39226,1559.6736,0.0,0.0,0.0,0.06527854181834533,0.0,0.0,-0.1179737629231039,-0.14955000002943586,-0.20657806639766782,0.6147268894513204,0.1945003582531908,0.0019377462800156682
6438,3.0,299.20123,1441.2803,0.0,0.0,0.0,0.06528868296201759,0.0,0.0,-0.11784291180518988,-0.16494718642901984,-0.15532313432919986,0.6037010463681544,0.16570735705154283,-0.03900161349615956
6439,3.0,300.12805,1519.5199,0.0,0.0,0.0,0.06529882410568985,0.0,0.0,-0.16040195926294085,-0.14722349673982785,-0.15427063092032586,0.5992279018141894,0.12975100188292688,-0.026896782673005774
6440,3.0,298.95311,1397.461,0.0,0.0,0.0,0.06530896524936211,0.0,0.0,-0.08088837255231082,-0.17728922112708384,-0.16661564457368386,0.6123251523417874,0.12659154621611288,-0.07615399692381433
6441,3.0,300.60163,1305.6680000000001,0.0,0.0,0.0,0.06531910639303438,0.0,0.0,-0.08688403075953623,-0.15125211834242186,-0.15875430314282984,0.6321815409739604,0.14168653077337187,-0.08540585895715201
6442,3.0,300.74433999999997,1128.2783,0.0,0.0,0.0,0.06532924753670664,0.0,0.0,-0.05087849547081655,-0.14385342690722785,-0.14823650365980384,0.6384664273692304,0.14716006728356787,-0.06349666615238303
6443,3.0,300.68852999999996,1010.5831,0.0,0.0,0.0,0.0653393886803789,0.0,0.0,-0.06062870734058754,-0.1163830311936109,-0.13018028555279387,0.6237808262498744,0.1255452641628529,-0.039738442889378965
6444,3.0,300.85374,1281.3343,0.0,0.0,0.0,0.06534952982405116,0.0,0.0,-0.1049029784881179,-0.13679536989065186,-0.14779528390375887,0.6387324561829854,0.15518565655563185,-0.01799192738816498
6445,3.0,300.30475,1734.8762,0.0,0.0,0.0,0.06535967096772342,0.0,0.0,-0.14672551471318085,-0.17648548075026083,-0.2041480596103448,0.6460044406931744,0.17527051282035283,-0.014285750338393787
6446,3.0,299.73031000000003,1690.0762,0.0,0.0,0.0,0.06536981211139568,0.0,0.0,-0.08222023002700493,-0.1914507794272208,-0.24006993387805778,0.6222246767462944,0.16686189474548685,-0.045267774016331454
6447,3.0,300.13611000000003,1585.1623,0.0,0.0,0.0,0.06537995325506794,0.0,0.0,-0.09696917447636241,-0.18338760870894782,-0.2014929795783088,0.6218286986072143,0.13142499237313687,-0.026341533777206976
6448,3.0,299.20956,1579.9260000000002,0.0,0.0,0.0,0.0653900943987402,0.0,0.0,-0.12553677312701486,-0.14932738898246586,-0.2053938911382988,0.5995522127736964,0.14559545714165284,-0.019667539078534982
6449,3.0,299.18376,1515.914,0.0,0.0,0.0,0.06540023554241246,0.0,0.0,-0.13937755671049387,-0.15791534219253084,-0.16350710472439484,0.6016264471859074,0.16485127217455384,-0.02341800529017718
6450,3.0,300.65963,1371.6701,0.0,0.0,0.0,0.06541037668608474,0.0,0.0,-0.15582144059587885,-0.13731063796400486,-0.12382137110521788,0.5736234973522315,0.16018090862112483,-0.021669684799131377
6451,3.0,299.64292,1260.3979,0.0,0.0,0.0,0.065420517829757,0.0,0.0,-0.1148179448241489,-0.1315630476992619,-0.13674850707352687,0.5828872681139945,0.14795357383438087,-0.029401120474414674
6452,3.0,299.71341,1403.2758,0.0,0.0,0.0,0.06543065897342924,0.0,0.0,-0.08695888866367411,-0.17340015446076282,-0.16620177243783785,0.6218466736639884,0.16537376472111984,-0.056964159671174845
6453,3.0,299.66468,1335.4312,0.0,0.0,0.0,0.06544080011710152,0.0,0.0,-0.08336476795571202,-0.14884567975242485,-0.17372731265305083,0.6458522707931564,0.17734940818302383,-0.04661150272919715
6454,3.0,300.44094,1535.7476,0.0,0.0,0.0,0.06545094126077376,0.0,0.0,-0.07091130614415103,-0.19533191234525882,-0.20058570530626782,0.6726875613440934,0.15403525292209586,-0.038234576077708866
6455,3.0,300.39804,1545.58,0.0,0.0,0.0,0.06546108240444604,0.0,0.0,-0.1052768779075189,-0.17478061652950383,-0.18976023243037682,0.6207792045511374,0.1291328179969169,-0.030922329061546266
6456,3.0,300.34677999999997,1418.9329,0.0,0.0,0.0,0.0654712235481183,0.0,0.0,-0.11813806142681889,-0.15481030818858785,-0.15837181136258086,0.6561996314768613,0.13459733658122286,-0.017334524643784384
6457,3.0,300.26204,1486.1852,0.0,0.0,0.0,0.06548136469179056,0.0,0.0,-0.1043180494703899,-0.16477772034979485,-0.18266744120037282,0.6030759419839614,0.15088045820574186,-0.04570828855030686
6458,3.0,300.18175,1496.1926,0.0,0.0,0.0,0.06549150583546282,0.0,0.0,-0.08012751291971983,-0.17682237627600983,-0.19785531039429882,0.6120743222795324,0.15819226344486087,-0.03336920139678377
6459,3.0,299.52103,1256.1979,0.0,0.0,0.0,0.06550164697913508,0.0,0.0,-0.07910531886108713,-0.13621938787130686,-0.16652808963254284,0.5770298010084074,0.14226839977579786,-0.04694095289321136
6460,3.0,299.09154,1143.4419,0.0,0.0,0.0,0.06551178812280734,0.0,0.0,-0.06309567850480864,-0.13152159563767088,-0.15296051880602785,0.5883961265226765,0.16171080481461383,-0.042602493595538755
6461,3.0,298.67588,1268.7672,0.0,0.0,0.0,0.06552192926647961,0.0,0.0,-0.12987492237015688,-0.14764911244433285,-0.10814950273602489,0.5936765983588185,0.17826264036565284,-0.04358012998102396
6462,3.0,298.95993,1301.3435,0.0,0.0,0.0,0.06553207041015185,0.0,0.0,-0.15650741091357884,-0.12405461114573688,-0.11501389726098789,0.6410896305531204,0.16705334835188185,-0.050252756792060954
6463,3.0,299.28802,1429.6525,0.0,0.0,0.0,0.06554221155382413,0.0,0.0,-0.0901511280374736,-0.1815181014794418,-0.16290942902040884,0.6335733007813164,0.14094049498974387,-0.06023460067444224
6464,3.0,299.10759,1534.0107,0.0,0.0,0.0,0.06555235269749637,0.0,0.0,-0.11696676457622089,-0.15731229626301485,-0.19202188771358483,0.6453634688124155,0.12860027400935886,-0.03981939954586876
6465,3.0,299.54933,1731.047,0.0,0.0,0.0,0.06556249384116865,0.0,0.0,-0.10203500447757091,-0.18366774196409483,-0.24049233757974578,0.6507719445336904,0.13710357017356886,-0.02932277800318287
6466,3.0,300.20717,1548.4654,0.0,0.0,0.0,0.06557263498484091,0.0,0.0,-0.08940841064792311,-0.14111149107661988,-0.24017489645591678,0.6538606753435243,0.13844092858305587,-0.006561681193987514
6467,3.0,300.43654,1396.5389,0.0,0.0,0.0,0.06558277612851317,0.0,0.0,-0.10644545924784891,-0.13707317267056887,-0.18099431197274782,0.6248848736913354,0.1178314316815569,0.00018043025590707985
6468,3.0,299.94109,1326.1426,0.0,0.0,0.0,0.06559291727218543,0.0,0.0,-0.12905843530707586,-0.10938064213752889,-0.16467514904217184,0.5948984462569055,0.13398713710600088,-0.008596563809414792
6469,3.0,300.36066,1369.9986,0.0,0.0,0.0,0.06560305841585769,0.0,0.0,-0.1095278268470549,-0.16079587037181686,-0.14612166831608586,0.6074031987885284,0.15365561850712886,-0.04726690126487996
6470,3.0,299.99056,1473.1931,0.0,0.0,0.0,0.06561319955952995,0.0,0.0,-0.09470031295844322,-0.16533609208240183,-0.18777750463469683,0.5948594057305524,0.16481305238078184,-0.032789901996611366
6471,3.0,300.56337,1438.9404,0.0,0.0,0.0,0.06562334070320222,0.0,0.0,-0.07663521371430673,-0.17401725416916583,-0.18674948134823882,0.6170801425435684,0.16042132247235186,-0.07180732523408123
6472,3.0,299.02511,1459.0238,0.0,0.0,0.0,0.06563348184687447,0.0,0.0,-0.07404167950659483,-0.17718920320971282,-0.19227592977865682,0.5991348246600035,0.15902283468433184,-0.037536817608345464
6473,3.0,299.03022999999996,1477.3576,0.0,0.0,0.0,0.06564362299054674,0.0,0.0,-0.14556897078403885,-0.15567571496649685,-0.14783512489769085,0.6285517751407304,0.18556510343884983,-0.040850557828136166
6474,3.0,298.49626,1588.9089,0.0,0.0,0.0,0.06565376413421899,0.0,0.0,-0.15206377220252587,-0.16822056180457684,-0.16270429653766386,0.6112679373199484,0.15533216238759084,-0.030288929198784575
6475,3.0,299.36035,1458.5712,0.0,0.0,0.0,0.06566390527789126,0.0,0.0,-0.0936816358909076,-0.16896177451772884,-0.18072582096124984,0.6495390927395174,0.14178125952522086,-0.05349027324657896
6476,3.0,300.2092,1295.1678,0.0,0.0,0.0,0.06567404642156353,0.0,0.0,-0.07895476610822873,-0.13793426300305187,-0.17680962958975183,0.6284143581621684,0.1117241274988129,-0.012799364117448886
6477,3.0,301.0241,1426.3719,0.0,0.0,0.0,0.06568418756523578,0.0,0.0,-0.046879650248911255,-0.17301727764547584,-0.21368452637152077,0.6394941669456604,0.13428379647027888,-0.039389531230694066
6478,3.0,300.48163999999997,1486.3595,0.0,0.0,0.0,0.06569432870890805,0.0,0.0,-0.1095705961337759,-0.15174561167112585,-0.1904999657983828,0.6057631116466644,0.14086093459189186,-0.01020249935665829
6479,3.0,300.30098,1516.4972,0.0,0.0,0.0,0.0657044698525803,0.0,0.0,-0.1271573552044539,-0.16927694596133383,-0.16454299083162885,0.6225769230110584,0.13439600378635286,-0.038762440876305065
6480,3.0,299.99154,1551.9695,0.0,0.0,0.0,0.06571461099625257,0.0,0.0,-0.15541337438310585,-0.15879297889914684,-0.15755362203933185,0.6097755009826564,0.15081412072169487,-0.02300018147894118
6481,3.0,300.09959,1440.1119,0.0,0.0,0.0,0.06572475213992483,0.0,0.0,-0.10747170934663189,-0.18007970176998284,-0.15020666715424386,0.6338829804093794,0.15689952856977785,-0.06615589747007873
6482,3.0,300.60137000000003,1483.8652,0.0,0.0,0.0,0.06573489328359708,0.0,0.0,-0.12707611281143588,-0.15526640245610085,-0.16871545341841884,0.6404949236719274,0.16383643127189684,-0.04270873489502396
6483,3.0,299.99466,1457.4109,0.0,0.0,0.0,0.06574503442726935,0.0,0.0,-0.08878008919466261,-0.14770239926709186,-0.2065340305483218,0.6176342991557594,0.15067014801498585,-0.05452300105325125
6484,3.0,299.82477,1315.8428,0.0,0.0,0.0,0.0657551755709416,0.0,0.0,-0.0994520739321555,-0.1249801441845799,-0.1755511223030468,0.6511894643698964,0.15419876109073286,0.005150341240374104
6485,3.0,299.26075,1191.8414,0.0,0.0,0.0,0.06576531671461387,0.0,0.0,-0.11721523376574289,-0.11738429454492788,-0.12769049700957089,0.6339447785329784,0.17622090088414882,-0.014748532056566786
6486,3.0,300.10200000000003,1521.6559,0.0,0.0,0.0,0.06577545785828613,0.0,0.0,-0.12406804684206289,-0.15819532346016285,-0.1802820174174498,0.6452674836304424,0.17751175111404585,0.004984317070413796
6487,3.0,299.69965,1619.6755,0.0,0.0,0.0,0.06578559900195839,0.0,0.0,-0.1151587818927869,-0.1899441373235268,-0.18723798948645082,0.6129540969438594,0.13622642995950188,-0.03496923476219476
6488,3.0,299.26507999999995,1591.0919,0.0,0.0,0.0,0.06579574014563067,0.0,0.0,-0.08748987325932822,-0.19123044819297583,-0.20493188962270278,0.6477154350770364,0.12499505922605188,-0.03193896139038007
6489,3.0,299.90182000000004,1508.9621,0.0,0.0,0.0,0.06580588128930291,0.0,0.0,-0.06559032254251083,-0.20733386991225983,-0.1857626162808428,0.6423371846062443,0.14132498287268985,-0.07662431519623113
6490,3.0,300.67766,1325.0507,0.0,0.0,0.0,0.06581602243297519,0.0,0.0,-0.098282889708016,-0.16314184832834686,-0.14135757912840685,0.6589224979405873,0.13862603924382486,-0.04711045342293975
6491,3.0,300.49563,1055.8053,0.0,0.0,0.0,0.06582616357664745,0.0,0.0,-0.0891161031928246,-0.1155728769436549,-0.11624946456542888,0.6019342624337864,0.12774299349725188,-0.04347869959301355
6492,3.0,300.24978,1127.3213,0.0,0.0,0.0,0.0658363047203197,0.0,0.0,-0.08729281941963052,-0.14197457751179987,-0.1134101148702069,0.6182032086894064,0.14400768410245188,-0.05191110776697745
6493,3.0,299.04483999999997,1265.2684,0.0,0.0,0.0,0.06584644586399196,0.0,0.0,-0.08699666566715242,-0.13423536311549886,-0.16337796599914983,0.6055085426915404,0.17809540343664784,-0.05953266153516624
6494,3.0,298.47619,1404.2601,0.0,0.0,0.0,0.06585658700766422,0.0,0.0,-0.08317452619643663,-0.15981299750981487,-0.18387246914679983,0.6479503571127214,0.18377820648999682,-0.058359237872608355
6495,3.0,299.36972000000003,1709.5198,0.0,0.0,0.0,0.06586672815133648,0.0,0.0,-0.09458023775534272,-0.18830637052439184,-0.23676472218435876,0.6091984550507065,0.17336788244507784,-0.03038829559634127
6496,3.0,298.35781000000003,1692.5515,0.0,0.0,0.0,0.06587686929500874,0.0,0.0,-0.15756026895998787,-0.15291658428169186,-0.2040165296148638,0.6199973402439733,0.14683724580170787,0.0033605562247610767
6497,3.0,298.9574,1655.6737,0.0,0.0,0.0,0.065887010438681,0.0,0.0,-0.12757909016107588,-0.2025763567177298,-0.17312801574890482,0.6292646168510824,0.14808623866997386,0.00013438491883025885
6498,3.0,299.42024,1618.4339,0.0,0.0,0.0,0.06589715158235326,0.0,0.0,-0.15587596358375985,-0.14726725901164686,-0.18882027071010982,0.6386521966425645,0.14375935676794385,0.007039097789979864
6499,3.0,300.50281,1616.1866,0.0,0.0,0.0,0.06590729272602552,0.0,0.0,-0.12841467698854186,-0.15994341293018585,-0.2029222600368678,0.6379285942161504,0.12320210304160088,-0.016742455252601682
6500,3.0,300.42298999999997,1486.8115,0.0,0.0,0.0,0.06591743386969778,0.0,0.0,-0.1091687512766169,-0.14381880415131088,-0.1989660047564158,0.6135266136478624,0.11523980137078288,-0.04478188208987766
6501,3.0,300.14062,1247.5415,0.0,0.0,0.0,0.06592757501337006,0.0,0.0,-0.07745345876631123,-0.11706261803568088,-0.1847054012590038,0.6324662845170623,0.14425650792950886,-0.043603931225872965
6502,3.0,299.54697000000004,1239.6335,0.0,0.0,0.0,0.0659377161570423,0.0,0.0,-0.1221032029106479,-0.13605039801962887,-0.1186640395537289,0.6121503666995375,0.16863554851553283,-0.04131433861090776
6503,3.0,299.87372999999997,1464.7088,0.0,0.0,0.0,0.06594785730071458,0.0,0.0,-0.12604604275977588,-0.14303805441925688,-0.1761508042422308,0.6359076567591994,0.18041812730338283,-0.01921965720308248
6504,3.0,299.626,1424.07,0.0,0.0,0.0,0.06595799844438682,0.0,0.0,-0.12354338594028287,-0.15631499471958887,-0.15302332004722585,0.5815776119622414,0.16308889587812087,-0.02935805329216427
6505,3.0,301.03182000000004,1598.287,0.0,0.0,0.0,0.0659681395880591,0.0,0.0,-0.06770435336564944,-0.2051653120482398,-0.2129696581609688,0.6243556936941094,0.18342706466784184,-0.04159328737668786
6506,3.0,301.01628999999997,1612.6501,0.0,0.0,0.0,0.06597828073173136,0.0,0.0,-0.09486629447057432,-0.18037984671460483,-0.21495920512982178,0.6261489639860914,0.17517170067060084,-0.06430915189081914
6507,3.0,300.31426,1536.8147,0.0,0.0,0.0,0.06598842187540362,0.0,0.0,-0.08779323425976761,-0.19165524316489982,-0.1877048039400218,0.6502384176935354,0.15992870053873384,-0.027424276622065376
6508,3.0,300.18664,1469.5207,0.0,0.0,0.0,0.06599856301907588,0.0,0.0,-0.12994392470196686,-0.17098143527955384,-0.14577221862159784,0.6328272042026823,0.14221272168280286,-0.05427415392144194
6509,3.0,299.69667000000004,1319.6462,0.0,0.0,0.0,0.06600870416274814,0.0,0.0,-0.09397007070412391,-0.14853263613402984,-0.15863679652873286,0.6362780503332544,0.15603153800411385,-0.027392939836222676
6510,3.0,299.20448999999996,1235.4754,0.0,0.0,0.0,0.0660188453064204,0.0,0.0,-0.0931597056981471,-0.16601560799696485,-0.11637836011064989,0.6261358930598014,0.13436073255037187,-0.06432800239567953
6511,3.0,299.36884,1269.2348,0.0,0.0,0.0,0.06602898645009267,0.0,0.0,-0.07793730798056342,-0.11891163734816487,-0.18896674614456582,0.6252986647671734,0.13757151946725188,-0.025167195149808776
6512,3.0,299.16901,1442.9143,0.0,0.0,0.0,0.06603912759376492,0.0,0.0,-0.07497118448582983,-0.16105101687949785,-0.2025877152513508,0.6005906117411784,0.14156979422935087,-0.05268656326725895
6513,3.0,300.13947,1544.2331,0.0,0.0,0.0,0.06604926873743719,0.0,0.0,-0.1173101145051069,-0.16673378953534385,-0.18536439885904182,0.6366820432806254,0.18315569602605983,-0.03773680075408226
6514,3.0,299.61175,1661.0406,0.0,0.0,0.0,0.06605940988110943,0.0,0.0,-0.14619210946303784,-0.16825998736596784,-0.19046275925471082,0.6067472409387904,0.17387676704280083,-0.019396419696277582
6515,3.0,299.88982999999996,1621.7779999999998,0.0,0.0,0.0,0.06606955102478171,0.0,0.0,-0.14038767586768486,-0.17492300856605683,-0.17766933176959784,0.6207049941138134,0.15841851205968985,-0.001135222309937719
6516,3.0,300.43408999999997,1557.5236,0.0,0.0,0.0,0.06607969216845397,0.0,0.0,-0.15201140743735786,-0.14559100897371385,-0.17584587675713684,0.6188098516567775,0.13244761503656186,0.015131515263114285
6517,3.0,300.56315,1529.4559,0.0,0.0,0.0,0.06608983331212623,0.0,0.0,-0.08758121978234341,-0.16949495685284985,-0.2078402416497348,0.6485943484787784,0.16743045977409984,-0.03681463474532156
6518,3.0,300.11612,1395.2032,0.0,0.0,0.0,0.06609997445579849,0.0,0.0,-0.07391842776443083,-0.16098456793793983,-0.18920393786047482,0.6532270393934894,0.14488855307688686,-0.04420830653952016
6519,3.0,300.46124,1257.013,0.0,0.0,0.0,0.06611011559947075,0.0,0.0,-0.08991208308713172,-0.12126167843759589,-0.17092681096666285,0.6502735673395044,0.1128517431375999,-0.05240172549189765
6520,3.0,299.85325,1249.3086,0.0,0.0,0.0,0.06612025674314301,0.0,0.0,-0.09983022494897609,-0.14934326661153285,-0.13058511949774787,0.6571480437029624,0.12804451646200987,-0.058915530416010144
6521,3.0,299.62543,1330.0557,0.0,0.0,0.0,0.06613039788681528,0.0,0.0,-0.1059292488519029,-0.15405608534415186,-0.14431838711311587,0.6326296710956874,0.15525551001752586,-0.055068912849378544
6522,3.0,299.92765,1367.5345,0.0,0.0,0.0,0.06614053903048753,0.0,0.0,-0.1108516482352059,-0.14873433369893588,-0.15611034859689185,0.6732949034540334,0.15643169073360585,-0.032928813519070864
6523,3.0,300.15783999999996,1431.871,0.0,0.0,0.0,0.0661506801741598,0.0,0.0,-0.07184350332890173,-0.17488656195995983,-0.18852295273326683,0.5918815244816584,0.12149104786273289,-0.04324848511729316
6524,3.0,300.00641,1676.5745,0.0,0.0,0.0,0.06616082131783205,0.0,0.0,-0.11506985906401089,-0.16870639496252485,-0.2258605400406998,0.6415097949720874,0.14888591591389586,-0.029708174771468573
6525,3.0,300.87251000000003,1898.9243,0.0,0.0,0.0,0.06617096246150432,0.0,0.0,-0.16217833867575585,-0.2025691322445168,-0.21247810013995583,0.6011572313295994,0.16259006272138984,-0.035883857123960965
6526,3.0,300.67792000000003,1667.7915,0.0,0.0,0.0,0.06618110360517658,0.0,0.0,-0.1255321223090559,-0.21519660962825182,-0.16623824944143784,0.6424559577829664,0.17000150084284185,-0.05598738961452515
6527,3.0,300.27452999999997,1383.0103,0.0,0.0,0.0,0.06619124474884884,0.0,0.0,-0.11537166573879688,-0.13688357331185688,-0.16814534824965385,0.5967329355629555,0.14880625419103385,-0.012945870962657988
6528,3.0,300.42146,1374.9253,0.0,0.0,0.0,0.0662013858925211,0.0,0.0,-0.1026834845415709,-0.16613450276369884,-0.14912499227499085,0.6197021804898435,0.14156854793172788,-0.03205836683516447
6529,3.0,299.72823,1191.1866,0.0,0.0,0.0,0.06621152703619336,0.0,0.0,-0.048657105733332456,-0.12961123416413287,-0.18382264763938283,0.6338494418310694,0.15287325770741586,-0.03770552577649566
6530,3.0,299.1796,1253.8646,0.0,0.0,0.0,0.06622166817986562,0.0,0.0,-0.06566537904366834,-0.14881821054221384,-0.16665994386805583,0.6311187125465674,0.1179523833459939,-0.04433034238156416
6531,3.0,300.04503,1340.067,0.0,0.0,0.0,0.0662318093235379,0.0,0.0,-0.09898630211293741,-0.13561920943957387,-0.17274137977574683,0.6503482540043753,0.10901875986431389,-0.05750694660399374
6532,3.0,300.15553,1388.4813,0.0,0.0,0.0,0.06624195046721014,0.0,0.0,-0.13981094404326588,-0.12544369597282887,-0.15680901493834484,0.6197386878909463,0.13735996297887287,-0.04493368721985966
6533,3.0,300.35873,1611.2123,0.0,0.0,0.0,0.06625209161088241,0.0,0.0,-0.16431930573955286,-0.15584446163815086,-0.16960452971866385,0.6477537257983155,0.17420579974777384,-0.031022126090395473
6534,3.0,299.8521,1676.0259,0.0,0.0,0.0,0.06626223275455466,0.0,0.0,-0.15525953262042286,-0.15458428248878084,-0.1996262081240728,0.6151114685267755,0.16490284660464385,-0.0045870108644277255
6535,3.0,299.8108,1439.4249,0.0,0.0,0.0,0.06627237389822693,0.0,0.0,-0.05879695887605804,-0.14170959234564787,-0.23704265668678876,0.6097491463475555,0.15982241060324384,-0.00011634843883519688
6536,3.0,300.28256,1339.6351,0.0,0.0,0.0,0.0662825150418992,0.0,0.0,-0.06784328515311093,-0.17467875449695083,-0.16469359019399185,0.6141497016643565,0.17602685335749785,-0.03139936822187637
6537,3.0,300.36373,1454.3878,0.0,0.0,0.0,0.06629265618557145,0.0,0.0,-0.07146101560165313,-0.16979240655220584,-0.20084414487677382,0.6250506110101924,0.17324224956517884,-0.03897966548574346
6538,3.0,300.09642,1239.3296,0.0,0.0,0.0,0.06630279732924373,0.0,0.0,-0.11204769878574689,-0.16160792953196085,-0.10306962402217991,0.6317814997019794,0.16164316023793784,-0.08008027722655801
6539,3.0,300.45677,1223.0717,0.0,0.0,0.0,0.06631293847291597,0.0,0.0,-0.09917006920407381,-0.15057761801585384,-0.12203557859897389,0.6319178223704334,0.12893793960518388,-0.05376898592508575
6540,3.0,300.7372,1214.6736,0.0,0.0,0.0,0.06632307961658825,0.0,0.0,-0.08730660772699131,-0.13361496021176988,-0.14830885984944486,0.6536715420798583,0.14794849745137986,-0.06350582289353675
6541,3.0,300.50496,1406.2910000000002,0.0,0.0,0.0,0.0663332207602605,0.0,0.0,-0.056806283146593646,-0.17763215562342885,-0.19303891723645783,0.6483840990830283,0.16852149708427683,-0.037657298111485965
6542,3.0,300.943,1469.1911,0.0,0.0,0.0,0.06634336190393277,0.0,0.0,-0.1014461136519519,-0.14077165712558087,-0.2043796379206998,0.6240466625461104,0.15102582919758886,-0.04827350647072416
6543,3.0,299.79816,1557.6681,0.0,0.0,0.0,0.06635350304760501,0.0,0.0,-0.098388662885955,-0.16426761985195185,-0.2108359155703848,0.6298297874918604,0.13939841953005286,-0.023316302337889876
6544,3.0,299.36409,1576.3807,0.0,0.0,0.0,0.06636364419127727,0.0,0.0,-0.15693452622823187,-0.15431050231176086,-0.16793534203392785,0.6005861635732395,0.14259834440586086,-0.03651626602812487
6545,3.0,298.97,1596.8664,0.0,0.0,0.0,0.06637378533494954,0.0,0.0,-0.17710621802652282,-0.14680497378602286,-0.16149632003344583,0.6514494947430594,0.17013911033892284,0.0012959803151532988
6546,3.0,298.99225,1524.6323,0.0,0.0,0.0,0.0663839264786218,0.0,0.0,-0.13806197304565587,-0.14607112740109784,-0.17931705881721582,0.5788241149479925,0.15325814075790084,-0.01794676379145768
6547,3.0,298.73021,1435.4279,0.0,0.0,0.0,0.06639406762229406,0.0,0.0,-0.0978650192872754,-0.13006661915657589,-0.2084026055877358,0.6128461655432075,0.15292721327524086,-0.013318174513151487
6548,3.0,299.87937999999997,1434.8266,0.0,0.0,0.0,0.06640420876596632,0.0,0.0,-0.06511668688926664,-0.16500009834924184,-0.2060346806340398,0.6285353706216114,0.16138239019220185,-0.03213306261928637
6549,3.0,299.77901,1300.8457,0.0,0.0,0.0,0.06641434990963858,0.0,0.0,-0.06809510009446314,-0.16006937005011684,-0.16726014256479085,0.6548618880323364,0.18459547375565483,-0.05890970726768544
6550,3.0,300.64763,1468.6773,0.0,0.0,0.0,0.06642449105331084,0.0,0.0,-0.14439335748801488,-0.14740751309048886,-0.15464033548431286,0.6285543893259884,0.14799074998054987,-0.03786809770204026
6551,3.0,300.35887,1443.9495,0.0,0.0,0.0,0.06643463219698312,0.0,0.0,-0.14084067972239286,-0.14927859085764986,-0.14880531186844087,0.5962211530699465,0.11507622227463889,-0.05413954060590666
6552,3.0,300.25935,1382.1757,0.0,0.0,0.0,0.06644477334065536,0.0,0.0,-0.09659048846348901,-0.16281869247395386,-0.16073771994857786,0.6284127977570144,0.15891512619870185,-0.03893879908271026
6553,3.0,300.9149,1529.3915,0.0,0.0,0.0,0.06645491448432764,0.0,0.0,-0.10449243994510089,-0.17130970804695184,-0.18909466896969082,0.6338850170420803,0.17215469783534584,-0.04454611703010945
6554,3.0,300.34788,1543.1187,0.0,0.0,0.0,0.0664650556279999,0.0,0.0,-0.09312365527283921,-0.17988529960579683,-0.19606061141967582,0.6575821707083074,0.15813391037160185,-0.04383349418177905
6555,3.0,299.39511,1371.2088,0.0,0.0,0.0,0.06647519677167216,0.0,0.0,-0.08423631604247712,-0.15849739357997483,-0.17407952852031183,0.6326277256554954,0.13453063432713985,-0.06190230496103185
6556,3.0,300.3137,1376.4516,0.0,0.0,0.0,0.06648533791534442,0.0,0.0,-0.11430864479388489,-0.15123810509353885,-0.15286016651612386,0.6707744944927884,0.16413487395635085,-0.027442300314844178
6557,3.0,299.52917,1378.5777,0.0,0.0,0.0,0.06649547905901668,0.0,0.0,-0.11090686023315488,-0.16342822320410985,-0.14471812441006685,0.6654430359116144,0.17026597938394383,-0.04274378017623266
6558,3.0,299.90878,1420.1448,0.0,0.0,0.0,0.06650562020268894,0.0,0.0,-0.0987138675320502,-0.15683481228589083,-0.17613988140615283,0.6009549764771384,0.14578731604808787,-0.014677374541794087
6559,3.0,300.06909,1384.6323,0.0,0.0,0.0,0.0665157613463612,0.0,0.0,-0.1033001992149359,-0.14974053157823985,-0.16785292427079385,0.5823999758759024,0.13470649401449586,-0.049147433668724046
6560,3.0,299.05076,1465.6426,0.0,0.0,0.0,0.06652590249003346,0.0,0.0,-0.07704565295881392,-0.16859968959449384,-0.19987341075096984,0.5975908544226254,0.16058588442109287,-0.03734378333179446
6561,3.0,299.01237000000003,1471.2489,0.0,0.0,0.0,0.06653604363370573,0.0,0.0,-0.09742398191624842,-0.17450181063198783,-0.17529715116548183,0.6301401763949934,0.17681038952732683,-0.053945032050460154
6562,3.0,299.89972,1495.8366,0.0,0.0,0.0,0.06654618477737798,0.0,0.0,-0.12083620458810489,-0.15242506679068285,-0.18143571411381082,0.6403844591460254,0.14357484392473388,-0.007275405951801663
6563,3.0,299.67807999999997,1495.5292,0.0,0.0,0.0,0.06655632592105025,0.0,0.0,-0.13558210422091188,-0.13577594909754287,-0.1832454801174208,0.6495736040379234,0.12169778128063588,-0.013368112544329987
6564,3.0,300.85598,1515.3782,0.0,0.0,0.0,0.0665664670647225,0.0,0.0,-0.12317266812619589,-0.15640214436068986,-0.1810623111869588,0.6620339154201603,0.16249662079716784,-0.006035649770122254
6565,3.0,301.07066000000003,1589.2506,0.0,0.0,0.0,0.06657660820839477,0.0,0.0,-0.11876419932611389,-0.17075425447463283,-0.1935740551442718,0.6614042210130143,0.16650651753791385,-0.03370420214484576
6566,3.0,300.48719,1846.1709,0.0,0.0,0.0,0.06658674935206703,0.0,0.0,-0.12342209990331289,-0.21203208771093782,-0.2257356569658748,0.6362693971774004,0.15391375410260486,-0.036039716267593065
6567,3.0,299.97966,1739.3664,0.0,0.0,0.0,0.06659689049573929,0.0,0.0,-0.14868598140416386,-0.19106945288458682,-0.18896853959724283,0.5894709619637545,0.13115223557871786,-0.030415869171312573
6568,3.0,300.10889,1425.4176,0.0,0.0,0.0,0.06660703163941155,0.0,0.0,-0.08881625006423141,-0.18409649874390982,-0.16037862411313783,0.6046106308504234,0.16555704139920785,-0.03400001949829067
6569,3.0,299.98277,1175.6391,0.0,0.0,0.0,0.06661717278308381,0.0,0.0,-0.046027135052024555,-0.16132559752409684,-0.15001221432755285,0.5923604371414234,0.17249220131115484,-0.01929696514596218
6570,3.0,299.82191,1196.6549,0.0,0.0,0.0,0.06662731392675607,0.0,0.0,-0.05569182456035515,-0.15071351511926587,-0.15734787147402585,0.6161859594628193,0.14552122643932686,-0.05299126885058105
6571,3.0,300.49457,1406.1311,0.0,0.0,0.0,0.06663745507042834,0.0,0.0,-0.062104775635764144,-0.18163035945802083,-0.18369361023914782,0.6315079525724824,0.14117670385305586,-0.05379668818281974
6572,3.0,299.8498,1344.2875,0.0,0.0,0.0,0.06664759621410059,0.0,0.0,-0.06871149863379693,-0.17815398955742984,-0.16176433481739685,0.6659634006329703,0.17123447422702684,-0.08138486814106113
6573,3.0,300.63362,1480.5769,0.0,0.0,0.0,0.06665773735777286,0.0,0.0,-0.11589676233811988,-0.18600356715462282,-0.14815806796956285,0.6812155605457414,0.19078533755654684,-0.06040655225616254
6574,3.0,301.20157,1613.5358,0.0,0.0,0.0,0.06666787850144511,0.0,0.0,-0.13467296556868688,-0.17916820224502483,-0.17663341526486084,0.6606065297392884,0.14233402798477487,-0.04139528614814666
6575,3.0,300.29689,1600.1849,0.0,0.0,0.0,0.06667801964511738,0.0,0.0,-0.13063164794233986,-0.17344239685743182,-0.1823421879182728,0.6477711537000354,0.13638598645274885,-0.006775883379702624
6576,3.0,299.87594,1634.9776,0.0,0.0,0.0,0.06668816078878964,0.0,0.0,-0.13117885365884485,-0.16430326599046985,-0.2015102453600128,0.6247447209375034,0.14104289404484985,-0.0097699419770432
6577,3.0,300.02277000000004,1537.1589999999999,0.0,0.0,0.0,0.0666983019324619,0.0,0.0,-0.0987595033033041,-0.16125760844238685,-0.2072408535530798,0.6356173099430444,0.15499769866208185,-0.03259734293435727
6578,3.0,299.24882,1214.2146,0.0,0.0,0.0,0.06670844307613416,0.0,0.0,-0.1093467691866859,-0.1199384143369999,-0.13980573593775186,0.6159972720291974,0.12616784555429686,-0.04155753383365926
6579,3.0,300.10771,1411.7283,0.0,0.0,0.0,0.06671858421980642,0.0,0.0,-0.11886653758621389,-0.15080906460369586,-0.15945455015443885,0.6228040024909693,0.13368730626890987,-0.030427270261437767
6580,3.0,299.47992999999997,1453.2369,0.0,0.0,0.0,0.06672872536347868,0.0,0.0,-0.12247375860471889,-0.15191792498313186,-0.16735605681925683,0.6434026474838974,0.16190416333119684,-0.015785628997670286
6581,3.0,298.75084,1426.5721,0.0,0.0,0.0,0.06673886650715095,0.0,0.0,-0.08835037793325341,-0.15689506013683685,-0.18839687402332383,0.6454633246097704,0.17633830617323581,0.005831247232749295
6582,3.0,299.60256,1560.2816,0.0,0.0,0.0,0.0667490076508232,0.0,0.0,-0.1032597401384429,-0.15352017736626183,-0.2175067387962438,0.6186222281357604,0.1307895325729219,-0.006157642549037004
6583,3.0,298.91513,1562.2032,0.0,0.0,0.0,0.06675914879449547,0.0,0.0,-0.09391518193295682,-0.17209917172986583,-0.20885642004252378,0.6303967414528144,0.12866882037862387,-0.03527275686940007
6584,3.0,298.96311000000003,1575.4708,0.0,0.0,0.0,0.06676928993816772,0.0,0.0,-0.13214480524417688,-0.1880648117005518,-0.15869417688189585,0.6375695997057205,0.16158037926174185,-0.06003757621899745
6585,3.0,300.6647,1608.4855,0.0,0.0,0.0,0.06677943108184,0.0,0.0,-0.15693927837120086,-0.17514078641004985,-0.15685937346831486,0.6715797446122603,0.17329921448580082,-0.05841762438312064
6586,3.0,300.60452000000004,1388.2149,0.0,0.0,0.0,0.06678957222551225,0.0,0.0,-0.1214254095212549,-0.15126027500572686,-0.14929698134696487,0.6126764056214534,0.14660821074910385,-0.038322848399920666
6587,3.0,301.06802999999996,1023.9192,0.0,0.0,0.0,0.06679971336918451,0.0,0.0,-0.04066454841452846,-0.1288837408573349,-0.14169756506696085,0.6114986037052134,0.13824166281838987,-0.03494230662753717
6588,3.0,300.9111,1094.7795,0.0,0.0,0.0,0.06680985451285677,0.0,0.0,-0.017300688169944983,-0.13668583755484187,-0.17879910563109783,0.6236497116869344,0.14282460315319087,-0.03333459991911887
6589,3.0,299.66457,1359.5839999999998,0.0,0.0,0.0,0.06681999565652903,0.0,0.0,-0.05965790938002725,-0.18022928788224582,-0.17339240309749784,0.6493653000823654,0.15330628027015186,-0.062459255103748536
6590,3.0,299.87882,1578.145,0.0,0.0,0.0,0.06683013680020129,0.0,0.0,-0.11393841333984589,-0.18241749266570484,-0.18336075758129783,0.6162269048993604,0.12223010235317187,-0.033582945492128674
6591,3.0,299.51448999999997,1592.1781,0.0,0.0,0.0,0.06684027794387357,0.0,0.0,-0.14056721365290387,-0.1944235336306088,-0.14899162829682885,0.6030098578124394,0.13090878197719089,-0.06845309959329494
6592,3.0,298.9406,1493.1742,0.0,0.0,0.0,0.06685041908754581,0.0,0.0,-0.11137181030654189,-0.16963472457164383,-0.17288112722953883,0.6354910083180795,0.18989324177100383,-0.006349616864658394
6593,3.0,299.16985,1494.9482,0.0,0.0,0.0,0.06686056023121809,0.0,0.0,-0.1058868139377149,-0.15838803349668185,-0.1901520866415498,0.6328486040447945,0.1947020152880928,-0.017011503551654684
6594,3.0,300.59366,1630.467,0.0,0.0,0.0,0.06687070137489033,0.0,0.0,-0.1054761842021889,-0.15698643503085485,-0.23315862587346478,0.6478229206476444,0.15917614955696285,0.013150540390107287
6595,3.0,300.90741,1557.1998,0.0,0.0,0.0,0.0668808425185626,0.0,0.0,-0.15537122317894586,-0.12310796197480989,-0.1948706808997388,0.6269304027282134,0.13339831720788886,-0.03794514118664387
6596,3.0,300.88337,1456.4544,0.0,0.0,0.0,0.06689098366223487,0.0,0.0,-0.1357134315663729,-0.14752189889427786,-0.15949042934047983,0.6731387818786254,0.15956854079068886,-0.033139262525090564
6597,3.0,300.48837000000003,1258.5196,0.0,0.0,0.0,0.06690112480590713,0.0,0.0,-0.15051924467759284,-0.1102580559291229,-0.12178123255887187,0.6610552475460734,0.15752933443443487,-0.05612245585285515
6598,3.0,300.23784,1484.6619,0.0,0.0,0.0,0.06691126594957938,0.0,0.0,-0.12010509397844989,-0.14880257609317085,-0.18239246538823484,0.6063460648266974,0.14480547670118785,-0.030963314014841176
6599,3.0,299.71177,1670.0099,0.0,0.0,0.0,0.06692140709325164,0.0,0.0,-0.1101259281160829,-0.17417637496486985,-0.22333900637184378,0.5897567187569565,0.12969290212219287,-0.02010227099418968
6600,3.0,300.02877,1429.7505,0.0,0.0,0.0,0.06693154823692392,0.0,0.0,-0.051152024361811745,-0.15357429505410286,-0.2298821296875998,0.6025725390692795,0.17725448691365583,-0.016098643231812385
6601,3.0,299.75137,1227.3273,0.0,0.0,0.0,0.06694168938059618,0.0,0.0,-0.059493384921539945,-0.16891332089794683,-0.14467013688533087,0.6413172166580814,0.17059553897896884,-0.023600985085985876
6602,3.0,300.36848,1535.1798,0.0,0.0,0.0,0.06695183052426844,0.0,0.0,-0.10882023377222089,-0.1899843228224928,-0.16785177929818085,0.6672179359792834,0.12673124300739988,-0.03425002173521397
6603,3.0,300.58212000000003,1711.8511,0.0,0.0,0.0,0.0669619716679407,0.0,0.0,-0.19214766244849782,-0.17682739186400484,-0.15138493516552984,0.6592655945569484,0.1267929702034919,-0.04197685522854306
6604,3.0,301.02682999999996,1686.3113,0.0,0.0,0.0,0.06697211281161294,0.0,0.0,-0.12213880851916187,-0.2146084990052098,-0.17584920021746483,0.6793430946259433,0.15626258942441687,-0.05236678457544925
6605,3.0,301.54661,1491.8677,0.0,0.0,0.0,0.0669822539552852,0.0,0.0,-0.1121968188029639,-0.16853087978020284,-0.17276284041286483,0.6462011125375844,0.17199868771744883,-0.04044277329889096
6606,3.0,301.10769,1395.4252,0.0,0.0,0.0,0.06699239509895748,0.0,0.0,-0.06760987488657513,-0.16920795376202485,-0.18735660054315684,0.6201702817710414,0.15809328917509285,-0.023753888579076277
6607,3.0,300.52904,1470.2404,0.0,0.0,0.0,0.06700253624262972,0.0,0.0,-0.1012544705677882,-0.17086263170532884,-0.17479926033134383,0.6145225675686554,0.13562354615000186,-0.05072172946834495
6608,3.0,299.91455,1505.8969,0.0,0.0,0.0,0.067012677386302,0.0,0.0,-0.14705154819785787,-0.14315741528103684,-0.16754608174301083,0.6418179547250004,0.16135951100494386,-0.06543289083472353
6609,3.0,299.89308,1395.3934,0.0,0.0,0.0,0.06702281852997424,0.0,0.0,-0.1252762361288019,-0.16345262226651786,-0.13543590236398287,0.6628701912576944,0.13703906667220286,-0.04746033780172066
6610,3.0,300.73446,1152.5098,0.0,0.0,0.0,0.06703295967364652,0.0,0.0,-0.07177062936845963,-0.1111792826550409,-0.16738429609954386,0.6282311017490824,0.1148023205076069,-0.036786215106516765
6611,3.0,299.97902,1317.2707,0.0,0.0,0.0,0.06704310081731879,0.0,0.0,-0.05269680418601966,-0.14214887679400187,-0.2055717266633498,0.6589379500046124,0.14085999226929888,0.01118037486916709
6612,3.0,299.5962,1566.9318,0.0,0.0,0.0,0.06705324196099104,0.0,0.0,-0.09424920996092281,-0.17586406459643183,-0.2061948754748498,0.6494581036590243,0.18042800649185783,-0.02099558369310278
6613,3.0,300.60818,1683.4398,0.0,0.0,0.0,0.06706338310466331,0.0,0.0,-0.14122845053566285,-0.14821859953053684,-0.2222766035094928,0.6642306821669643,0.18061086773740484,0.016562839447124986
6614,3.0,299.7466,1486.4247,0.0,0.0,0.0,0.06707352424833556,0.0,0.0,-0.16397248036282386,-0.16483147326759984,-0.12303204927731788,0.6175050287080014,0.11958903557001889,-0.050359952573140354
6615,3.0,298.84105,1354.2523,0.0,0.0,0.0,0.06708366539200783,0.0,0.0,-0.14326163818632287,-0.1305204336113639,-0.13787681172238186,0.6638679892936693,0.12997411955494687,-0.04369339411695226
6616,3.0,298.79294,1477.8651,0.0,0.0,0.0,0.06709380653568009,0.0,0.0,-0.11289506971187589,-0.17296307889762683,-0.16337593949894985,0.6380245895306244,0.16438686925622084,-0.08125504445874852
6617,3.0,298.53314,1490.5739,0.0,0.0,0.0,0.06710394767935235,0.0,0.0,-0.1050142232165969,-0.16608006083582583,-0.18200297204979482,0.6724086743865693,0.15576832602563684,-0.05117940237951375
6618,3.0,299.31885,1360.2278,0.0,0.0,0.0,0.06711408882302461,0.0,0.0,-0.08163060763481372,-0.13056638450339886,-0.2012783022796218,0.5964220501672735,0.14023422927254087,-0.055527866508673744
6619,3.0,300.45378,1274.2592,0.0,0.0,0.0,0.06712422996669687,0.0,0.0,-0.08100813668763063,-0.14696048741137085,-0.15937437167402585,0.6391113407928785,0.15479291068437087,-0.02718225575617977
6620,3.0,299.69563999999997,1213.0117,0.0,0.0,0.0,0.06713437111036913,0.0,0.0,-0.07682514440580143,-0.16717336782622683,-0.12472675059957189,0.6440555757158364,0.17612190634937883,-0.056813715336077146
6621,3.0,300.71614,1605.5725,0.0,0.0,0.0,0.0671445122540414,0.0,0.0,-0.12469318162375888,-0.16994159749692983,-0.19341916973398582,0.6361767658532583,0.17161158564924484,-0.026168506123880476
6622,3.0,299.87416,1796.2367,0.0,0.0,0.0,0.06715465339771365,0.0,0.0,-0.1022943559731669,-0.2142539931927228,-0.22946275560371077,0.6108596785896564,0.12316578815801688,-0.039925580050347964
6623,3.0,300.18161000000003,1456.1294,0.0,0.0,0.0,0.06716479454138592,0.0,0.0,-0.07744924871214572,-0.16854065764366785,-0.1966370797990688,0.6171964231250444,0.12633398817319388,-0.028745676342477374
6624,3.0,299.63316000000003,1239.8484,0.0,0.0,0.0,0.06717493568505817,0.0,0.0,-0.030464434248605576,-0.15747353475142786,-0.1889449713999168,0.6404446259369634,0.18144345534457482,-0.03535557891932396
6625,3.0,300.33532,1408.5731,0.0,0.0,0.0,0.06718507682873044,0.0,0.0,-0.10622328389842191,-0.17117982964913384,-0.15076795704713886,0.6774661501407033,0.16873049004990284,-0.026921070277902772
6626,3.0,300.1464,1491.3633,0.0,0.0,0.0,0.0671952179724027,0.0,0.0,-0.13930924338875186,-0.11894613851406988,-0.1950818320880778,0.6596467488470654,0.14481813219493686,-0.02361420901304098
6627,3.0,300.42093,1557.2196,0.0,0.0,0.0,0.06720535911607496,0.0,0.0,-0.15631052628664785,-0.16302013672633484,-0.15402520148110385,0.6603260418466064,0.14085371011867887,-0.06694938882214023
6628,3.0,300.38785,1464.6395,0.0,0.0,0.0,0.06721550025974722,0.0,0.0,-0.09897441060976381,-0.15057379806297685,-0.1956656262656938,0.6643703485607483,0.16063658745609685,-0.03196853714754897
6629,3.0,299.46474,1373.856,0.0,0.0,0.0,0.06722564140341948,0.0,0.0,-0.10993301542954391,-0.12244450607433188,-0.1852404074443048,0.6413547069117814,0.17006912515451586,-0.02964774250900437
6630,3.0,299.47899,1647.8745,0.0,0.0,0.0,0.06723578254709174,0.0,0.0,-0.11806374966448488,-0.15230496625632983,-0.2305439745204188,0.6112457268777565,0.12360838593419787,-0.007991944201168482
6631,3.0,298.84187000000003,1668.4079,0.0,0.0,0.0,0.06724592369076401,0.0,0.0,-0.18217623781689482,-0.14541156238100386,-0.17956652099183584,0.6093561674287714,0.14825077022121186,0.0016395658246875484
6632,3.0,299.05272,1459.8389,0.0,0.0,0.0,0.06725606483443626,0.0,0.0,-0.10189358516111391,-0.17567969360823582,-0.16618129465331682,0.6320747038834164,0.18497643552825282,-0.005609006832665875
6633,3.0,300.001,1268.9161,0.0,0.0,0.0,0.06726620597810853,0.0,0.0,-0.08825558332014792,-0.14873724172672284,-0.14872598451811186,0.6468359947852423,0.18215615519991282,-0.013507089928045987
6634,3.0,300.72411,1451.2606,0.0,0.0,0.0,0.06727634712178078,0.0,0.0,-0.04863402693580476,-0.16046380804904486,-0.2320491575439688,0.6506716226412894,0.14539548210191686,-0.014685580854353985
6635,3.0,300.02796,1533.4291,0.0,0.0,0.0,0.06728648826545305,0.0,0.0,-0.1022743341511909,-0.17998734402336783,-0.18386247850081383,0.6493180319652003,0.14238756812005887,-0.04620541539386946
6636,3.0,301.113,1614.3649,0.0,0.0,0.0,0.06729662940912531,0.0,0.0,-0.1020307386946499,-0.18734014536153282,-0.2013557449847648,0.6643856587697593,0.18274228998525982,-0.062415492831929535
6637,3.0,300.06363999999996,1330.5695,0.0,0.0,0.0,0.06730677055279757,0.0,0.0,-0.1317963586672879,-0.15529969785438685,-0.11736385729041088,0.6616732693120674,0.16823633810863384,-0.06298399402578624
6638,3.0,299.72503,1145.1715,0.0,0.0,0.0,0.06731691169646983,0.0,0.0,-0.09239328129600691,-0.13309550741550388,-0.12261474222363287,0.6329633242211165,0.12891681334059887,-0.06810345738128792
6639,3.0,299.83442,1388.819,0.0,0.0,0.0,0.0673270528401421,0.0,0.0,-0.10772391742902289,-0.14779028858076587,-0.16665208104727983,0.6194424338267084,0.14210577313474787,-0.04799619714360586
6640,3.0,299.32993999999997,1511.5962,0.0,0.0,0.0,0.06733719398381435,0.0,0.0,-0.08070784279524393,-0.18394780429173482,-0.1948318430234058,0.6394878442650365,0.15994196398254285,-0.06839111604492763
6641,3.0,298.97312,1402.5793,0.0,0.0,0.0,0.06734733512748663,0.0,0.0,-0.07926649047499353,-0.17470919252995484,-0.17237340786943084,0.6331863101706233,0.15723997047087684,-0.03176077224104417
6642,3.0,300.18507999999997,1365.5477,0.0,0.0,0.0,0.06735747627115887,0.0,0.0,-0.09508456678061611,-0.15963500999724883,-0.16037282832256583,0.6150321715739494,0.12840109943720188,-0.032861741428701366
6643,3.0,299.82311,1588.8725,0.0,0.0,0.0,0.06736761741483115,0.0,0.0,-0.14697174461998186,-0.18256440379770383,-0.15344141743598885,0.6526547658695104,0.14106316917935086,-0.017542415193301585
6644,3.0,300.03421000000003,1800.7579999999998,0.0,0.0,0.0,0.06737775855850339,0.0,0.0,-0.17342554650826883,-0.17753235048857882,-0.1964275700758918,0.6579802462750944,0.19803850601237882,-0.0068714452257838425
6645,3.0,300.35055,1682.4303,0.0,0.0,0.0,0.06738789970217567,0.0,0.0,-0.12035762630087288,-0.17682178859095182,-0.21423737589108277,0.6501616032034544,0.1930230294748898,-0.005053205107612515
6646,3.0,299.45928,1335.714,0.0,0.0,0.0,0.06739804084584794,0.0,0.0,-0.07398050655830753,-0.13967641482748888,-0.19236677778262282,0.6153618831564894,0.13114044134755387,-0.014884934771778687
6647,3.0,298.9413,1341.3938,0.0,0.0,0.0,0.06740818198952019,0.0,0.0,-0.1036194540564439,-0.12502763521676688,-0.17910311105860083,0.6133028069657744,0.14453010572151087,-0.02931316124648377
6648,3.0,299.92442,1529.7037,0.0,0.0,0.0,0.06741832313319245,0.0,0.0,-0.12732268722327086,-0.16769196949240883,-0.16997706125042983,0.6474704717328604,0.17303986299020485,-0.04913192587594355
6649,3.0,299.55595,1454.4357,0.0,0.0,0.0,0.0674284642768647,0.0,0.0,-0.16971301840687084,-0.14197560089440087,-0.13042351623929888,0.6663479290459203,0.16477999003001884,-0.034729175548502765
6650,3.0,300.01426000000004,1282.3116,0.0,0.0,0.0,0.06743860542053697,0.0,0.0,-0.10793980049532889,-0.13480606610182286,-0.14704485061469688,0.6458638117117954,0.12922663482367588,-0.05485453141972075
6651,3.0,299.47132999999997,1249.5473,0.0,0.0,0.0,0.06744874656420922,0.0,0.0,-0.05077624435022515,-0.16444329715428982,-0.16461164865840486,0.6532542451586744,0.14322982213318286,-0.04096151378033666
6652,3.0,298.90262,1560.9945,0.0,0.0,0.0,0.06745888770788148,0.0,0.0,-0.062294167278205644,-0.17835225220449683,-0.23385693757738277,0.6459546191857574,0.17422456513962584,-0.05445291859683465
6653,3.0,298.72983,1687.2638,0.0,0.0,0.0,0.06746902885155374,0.0,0.0,-0.12025840885108088,-0.1972334382779248,-0.1953942170939078,0.6311270921248944,0.17632783929970283,-0.03287768086602447
6654,3.0,300.04456,1300.1024,0.0,0.0,0.0,0.067479169995226,0.0,0.0,-0.10021610402430942,-0.13599611821177188,-0.15898643874073984,0.5971445886810824,0.13492683538124187,-0.051462507497204046
6655,3.0,300.22335,1157.6973,0.0,0.0,0.0,0.06748931113889826,0.0,0.0,-0.11614548484016687,-0.14180709740277087,-0.0939584781097298,0.6292363573057934,0.14549822566205686,-0.018766625990621785
6656,3.0,300.06593,1245.6373,0.0,0.0,0.0,0.06749945228257054,0.0,0.0,-0.07907336905893393,-0.13123296121418487,-0.16833629523099883,0.6440031400231614,0.17360709052868584,-0.03747704699819657
6657,3.0,299.42262,1673.9068,0.0,0.0,0.0,0.0675095934262428,0.0,0.0,-0.1176104215697449,-0.17738954301948484,-0.21382591529047482,0.6530256559361144,0.17839928727413884,-0.01946766435055888
6658,3.0,300.04294,1682.1996,0.0,0.0,0.0,0.06751973456991506,0.0,0.0,-0.1008029450449761,-0.15152936383478385,-0.2590143670227278,0.6357503699461764,0.12499881838392288,-0.009043458069994821
6659,3.0,300.83546,1468.4951,0.0,0.0,0.0,0.06752987571358732,0.0,0.0,-0.1088954675921459,-0.15537324967914587,-0.18211712480606082,0.6456133058895724,0.1433498821375319,-0.049529285074909855
6660,3.0,300.7674,1351.57,0.0,0.0,0.0,0.06754001685725958,0.0,0.0,-0.10232437857362991,-0.13756947270204986,-0.17094970028642184,0.6621565794772664,0.16948621250448684,-0.021281931211113082
6661,3.0,300.41289,1507.3513,0.0,0.0,0.0,0.06755015800093185,0.0,0.0,-0.16771916512509283,-0.15951982372588083,-0.13095815765456387,0.6691873800661524,0.17117455061611284,-0.05314856478285494
6662,3.0,299.57186,1691.4437,0.0,0.0,0.0,0.0675602991446041,0.0,0.0,-0.12100199256946688,-0.15545570797228384,-0.23769892864405778,0.6236193851114413,0.13441797104852088,0.002172550373389028
6663,3.0,299.62892999999997,1443.3883,0.0,0.0,0.0,0.06757044028827637,0.0,0.0,-0.0923205066340746,-0.15370799340479785,-0.1927255088480268,0.6165177684730664,0.1287117416528599,-0.04698512147832045
6664,3.0,299.65809,1238.8656,0.0,0.0,0.0,0.06758058143194862,0.0,0.0,-0.02561599300335168,-0.15457675404053783,-0.19639147810732982,0.6608937050826303,0.16682109116395985,-0.0017810507997510284
6665,3.0,298.90893,1197.1076,0.0,0.0,0.0,0.06759072257562089,0.0,0.0,-0.08577256632734323,-0.12094017418086589,-0.15717808115476883,0.6264211837579574,0.16662717535982183,-0.05218007500602245
6666,3.0,300.12404,1448.3328,0.0,0.0,0.0,0.06760086371929315,0.0,0.0,-0.1210527867969799,-0.14640732378427784,-0.17279689574872584,0.6808581061754634,0.13927510699288287,0.001062420594227749
6667,3.0,300.49971,1587.1033,0.0,0.0,0.0,0.0676110048629654,0.0,0.0,-0.1771122164671148,-0.15549323875598786,-0.14983431800749586,0.6409915276784384,0.14734292852911485,-0.049088610447418655
6668,3.0,300.24637,1570.4503,0.0,0.0,0.0,0.06762114600663767,0.0,0.0,-0.10011862835143931,-0.17778924991893283,-0.1994698129711378,0.6803674600795403,0.17485233437158185,-0.029048651294628674
6669,3.0,300.91337000000004,1203.077,0.0,0.0,0.0,0.06763128715030992,0.0,0.0,-0.08727217647534322,-0.14258926568496486,-0.1358439381792529,0.6303057414613333,0.17533427664914583,-0.056978185079059045
6670,3.0,301.31395,1288.164,0.0,0.0,0.0,0.06764142829398219,0.0,0.0,-0.036686440369169765,-0.15708484188056687,-0.1977984062686828,0.6364749349601855,0.15264447596733685,-0.03955198764572726
6671,3.0,301.20889,1569.2073,0.0,0.0,0.0,0.06765156943765446,0.0,0.0,-0.12109475561612189,-0.17032489987725882,-0.1855801704678368,0.6194399918939675,0.16120566924226085,-0.05116527969961995
6672,3.0,300.34165,1522.0442,0.0,0.0,0.0,0.06766171058132671,0.0,0.0,-0.13356287915662984,-0.17358662287666585,-0.15551391919052884,0.6559092947932074,0.17047234803181083,-0.03735964069585947
6673,3.0,298.89083,1225.0175,0.0,0.0,0.0,0.06767185172499898,0.0,0.0,-0.1080626874674569,-0.14155645985803486,-0.1227555941200339,0.6424448728268723,0.17236732836883084,-0.056143999576481356
6674,3.0,300.43781,1255.8824,0.0,0.0,0.0,0.06768199286867123,0.0,0.0,-0.06217336962778384,-0.15050351903604087,-0.16908000053939684,0.6554640423017644,0.11624488467497687,-0.026954252192177574
6675,3.0,299.88071,1544.8191,0.0,0.0,0.0,0.0676921340123435,0.0,0.0,-0.11896234038316889,-0.17258334315764984,-0.17804075885875484,0.6585372906500704,0.13663529663985388,-0.03356685812029097
6676,3.0,298.96637000000004,1762.2029,0.0,0.0,0.0,0.06770227515601576,0.0,0.0,-0.11452983729071489,-0.18721528255170983,-0.23392057981616377,0.6561351583729984,0.15330051487708285,-0.014859329941751686
6677,3.0,299.932,1612.6889,0.0,0.0,0.0,0.06771241629968802,0.0,0.0,-0.13465621654453389,-0.19005654728962082,-0.16550439292401184,0.6403541629680354,0.16898034739206186,-0.03608444923300787
6678,3.0,299.55163999999996,1319.7063,0.0,0.0,0.0,0.06772255744336028,0.0,0.0,-0.1151473929616629,-0.13774087408896588,-0.14826949508305987,0.6293966129416094,0.14371786417634885,-0.013845242897169086
6679,3.0,300.59629,1506.852,0.0,0.0,0.0,0.06773269858703254,0.0,0.0,-0.12901365978515686,-0.17224875784212884,-0.15678297441077485,0.6402622003889593,0.16010588758372085,-0.05801995208987344
6680,3.0,300.41504,1705.8220000000001,0.0,0.0,0.0,0.0677428397307048,0.0,0.0,-0.12895101053147387,-0.19168514417535082,-0.1978911389178348,0.6692069965880884,0.18584453755142782,-0.04685091650257545
6681,3.0,300.04132000000004,1538.7964,0.0,0.0,0.0,0.06775298087437708,0.0,0.0,-0.10907804512766489,-0.15938208250728683,-0.19929555421893982,0.6490959984707874,0.17195724578835883,-0.03337497084285317
6682,3.0,301.34626000000003,1226.1751,0.0,0.0,0.0,0.06776312201804932,0.0,0.0,-0.04269323520824426,-0.15957853143667486,-0.17045484920258383,0.6417441495877164,0.14134911849007187,-0.048581594282880045
6683,3.0,300.91991,1209.18,0.0,0.0,0.0,0.0677732631617216,0.0,0.0,-0.07767044830172642,-0.14555577826773686,-0.14433428500718487,0.6406560811003323,0.16896969813351084,-0.03927459725860096
6684,3.0,299.60872,1547.8963,0.0,0.0,0.0,0.06778340430539384,0.0,0.0,-0.13225999151554488,-0.18127236806518982,-0.15698947478115485,0.6372932965359513,0.17376382005415383,-0.04412435471573476
6685,3.0,300.10426,1796.3933,0.0,0.0,0.0,0.06779354544906611,0.0,0.0,-0.14516427869409887,-0.22204660586929378,-0.17884783282840683,0.6168487972807364,0.16121399815808285,-0.04064319112892066
6686,3.0,299.35478,1388.9054,0.0,0.0,0.0,0.06780368659273837,0.0,0.0,-0.10602327846118291,-0.14093156825636285,-0.17523772404711685,0.6049708817909774,0.1192158960881929,-0.053384768579916454
6687,3.0,300.25667000000004,1185.7929,0.0,0.0,0.0,0.06781382773641063,0.0,0.0,-0.05116000775934965,-0.15600655125664786,-0.15328487029553886,0.6504528011496934,0.16900995455998383,-0.02647587351521527
6688,3.0,300.32061,1439.1987,0.0,0.0,0.0,0.0678239688800829,0.0,0.0,-0.08433508968872531,-0.17616929605655585,-0.17697608631617984,0.6660476422462843,0.17316146313470585,-0.04376372076664296
6689,3.0,299.2094,1645.2919,0.0,0.0,0.0,0.06783411002375515,0.0,0.0,-0.15102604198010985,-0.15533128086000383,-0.19377031155614083,0.6963076168102114,0.16768074268130084,-0.02184992983292018
6690,3.0,300.31196,1606.6411,0.0,0.0,0.0,0.06784425116742741,0.0,0.0,-0.14410607068716186,-0.16717902176178484,-0.17709369425528684,0.6531953044003573,0.12132906970174688,-0.04520842086522375
6691,3.0,301.16505,1431.9479999999999,0.0,0.0,0.0,0.06785439231109969,0.0,0.0,-0.07929289678584962,-0.16803018224328783,-0.18795336432205284,0.6742800763937623,0.16362629333365786,-0.035613441950523066
6692,3.0,300.39799,1175.5339999999999,0.0,0.0,0.0,0.06786453345477193,0.0,0.0,-0.06147280141589315,-0.13763695515870988,-0.15822323850041783,0.6519010800476274,0.16351803769297385,-0.04033000464226156
6693,3.0,300.74934,1519.3616,0.0,0.0,0.0,0.0678746745984442,0.0,0.0,-0.11691014416063289,-0.15563128394961184,-0.18930655983060282,0.6043315513753804,0.1842366211002388,-0.024531989675368876
6694,3.0,300.69744,1719.454,0.0,0.0,0.0,0.06788481574211645,0.0,0.0,-0.14945077244714286,-0.15100962732848985,-0.2222106713254858,0.5739351832154924,0.15734151839589886,-0.009309935348244081
6695,3.0,300.05944,1529.5667,0.0,0.0,0.0,0.06789495688578873,0.0,0.0,-0.13383107632559887,-0.18248969686783084,-0.14862930019356987,0.6059888739014454,0.17898855300229483,-0.02856449202584587
6696,3.0,301.00323,1455.1135,0.0,0.0,0.0,0.06790509802946099,0.0,0.0,-0.1225697336541909,-0.16968447515155385,-0.15006396101015987,0.6280018032514524,0.18886717405723882,-0.02101033154830828
6697,3.0,300.83211,1579.3817,0.0,0.0,0.0,0.06791523917313325,0.0,0.0,-0.12312898691438488,-0.15233838324462787,-0.20462524974493979,0.6647987507030283,0.13997574917203087,-0.034434673393687665
6698,3.0,299.65803,1645.1227,0.0,0.0,0.0,0.0679253803168055,0.0,0.0,-0.12702679792906887,-0.16830237161765085,-0.20474706267196183,0.6777920620353683,0.1069504732301899,-0.01919857653475198
6699,3.0,300.14687999999995,1564.7028,0.0,0.0,0.0,0.06793552146047777,0.0,0.0,-0.0992904098787005,-0.14716483969153887,-0.2291753269478438,0.6873106044022753,0.14826240233235988,-0.02706211671832297
6700,3.0,300.29517000000004,1439.8859,0.0,0.0,0.0,0.06794566260415003,0.0,0.0,-0.07741235627600472,-0.18974097054597583,-0.17053603080059584,0.6758125867725093,0.16409216546463584,-0.03897294459783017
6701,3.0,300.34458,1294.6112,0.0,0.0,0.0,0.06795580374782229,0.0,0.0,-0.11781246363968488,-0.1199338952415539,-0.15578310934459585,0.6300064375142944,0.15578841877511987,-0.038847309691430965
6702,3.0,299.7801,1464.5086,0.0,0.0,0.0,0.06796594489149455,0.0,0.0,-0.0986840648068589,-0.17159549523765683,-0.17489447544324083,0.6278030339793355,0.15188583535246486,-0.05325944068829754
6703,3.0,299.28072000000003,1426.1012,0.0,0.0,0.0,0.06797608603516682,0.0,0.0,-0.11048729363174689,-0.16526915678079585,-0.15774270464049284,0.6255050638125433,0.17058289361772083,-0.04747516469043395
6704,3.0,298.21542,1342.2682,0.0,0.0,0.0,0.06798622717883906,0.0,0.0,-0.08195782763535783,-0.14941566333117787,-0.17664253451576084,0.6541028421174244,0.18539641756220182,-0.04104617183944176
6705,3.0,299.81656,1299.5814,0.0,0.0,0.0,0.06799636832251134,0.0,0.0,-0.09582796912723422,-0.15378771592266585,-0.14542460290979087,0.6214342099457814,0.15388210016948087,-0.03371104664927126
6706,3.0,300.3107,1439.3603,0.0,0.0,0.0,0.0680065094661836,0.0,0.0,-0.0953747312117531,-0.16538912559263585,-0.17676571533041782,0.6458664866920594,0.13450830229493588,-0.03381240104352417
6707,3.0,300.02231,1642.3258,0.0,0.0,0.0,0.06801665060985586,0.0,0.0,-0.15828031487855085,-0.17051615083363383,-0.17042955848008784,0.6402588465311284,0.16557616142859485,-0.03527628905924867
6708,3.0,299.44032000000004,1614.4513,0.0,0.0,0.0,0.06802679175352812,0.0,0.0,-0.099807314350965,-0.1957965381786138,-0.1951490308347098,0.6823957233347143,0.1935603965329238,-0.04347048314795266
6709,3.0,300.57814,1445.0977,0.0,0.0,0.0,0.06803693289720038,0.0,0.0,-0.12497006234608489,-0.13348653076159486,-0.18081703373525182,0.6529747806485934,0.1327593211648249,-0.03141156066032967
6710,3.0,300.61322,1381.2889,0.0,0.0,0.0,0.06804707404087264,0.0,0.0,-0.07813363025368893,-0.12878017656461388,-0.21296351786536283,0.6395025161264845,0.12931268002216786,-0.02451359614630358
6711,3.0,300.51457999999997,1455.6328,0.0,0.0,0.0,0.0680572151845449,0.0,0.0,-0.1008240743493114,-0.15171809179840987,-0.18993384270251082,0.6455657236648763,0.14322418846262686,-0.031151274948141468
6712,3.0,299.4071,1458.4854,0.0,0.0,0.0,0.06806735632821716,0.0,0.0,-0.11345428244206589,-0.15040620649643688,-0.17948264414855783,0.6703414314000483,0.15161383849562088,-0.022412532897944776
6713,3.0,299.02886,1479.3186,0.0,0.0,0.0,0.06807749747188942,0.0,0.0,-0.12276731742369087,-0.16611012396629285,-0.16079848455707485,0.6673388673787184,0.14522104096470087,-0.03191917666892747
6714,3.0,300.11003999999997,1434.7234,0.0,0.0,0.0,0.06808763861556168,0.0,0.0,-0.09459840330313551,-0.17090175329168983,-0.17061993804137685,0.6322965448603104,0.13128187079651188,-0.05116877237271466
6715,3.0,299.99867,1361.025,0.0,0.0,0.0,0.06809777975923394,0.0,0.0,-0.1014582625206509,-0.15142109806159887,-0.16083826475600085,0.6754903935057114,0.17729687116533882,-0.017500956038959882
6716,3.0,299.6346,1489.4491,0.0,0.0,0.0,0.06810792090290621,0.0,0.0,-0.08334254940751921,-0.18693240338879183,-0.18248038509941183,0.6337773288214524,0.18658547668705283,-0.056810566154766345
6717,3.0,299.52293,1542.8418,0.0,0.0,0.0,0.06811806204657846,0.0,0.0,-0.12098278134757089,-0.16080260848498185,-0.1871999824751998,0.6550811654864773,0.14930882624063385,-0.018849523021053083
6718,3.0,299.63998,1372.0193,0.0,0.0,0.0,0.06812820319025073,0.0,0.0,-0.1053789425900919,-0.15818942634458086,-0.15349125920840784,0.6157721278569774,0.13465380500929586,-0.05838412734806474
6719,3.0,299.03477999999996,1355.6003,0.0,0.0,0.0,0.06813834433392298,0.0,0.0,-0.08827538324035202,-0.16770605366879884,-0.15608719583210687,0.6600134440582553,0.17917129265782983,-0.041416125662953364
6720,3.0,300.25147000000004,1353.3312,0.0,0.0,0.0,0.06814848547759525,0.0,0.0,-0.07092247114700292,-0.14682875476586987,-0.19362767633956382,0.6663113709823124,0.1767766584314978,-0.06518373060863335
6721,3.0,300.98346000000004,1329.7251,0.0,0.0,0.0,0.06815862662126752,0.0,0.0,-0.06312722300692185,-0.16262933629526583,-0.17844665671631382,0.6527149731904524,0.15288311663088885,-0.034020103128522765
6722,3.0,300.24902000000003,1345.3357,0.0,0.0,0.0,0.06816876776493977,0.0,0.0,-0.07091579484209404,-0.13385862659581788,-0.20417403934290881,0.6403359649962393,0.13928618181647587,-0.04313773992111346
6723,3.0,299.77857,1552.7092,0.0,0.0,0.0,0.06817890890861204,0.0,0.0,-0.11653916290151989,-0.16331674542810784,-0.19212890718914682,0.6622746433789183,0.13653930132537984,-0.019006725734317782
6724,3.0,299.26142000000004,1547.5003,0.0,0.0,0.0,0.06818905005228429,0.0,0.0,-0.12317694404161789,-0.18376847928903683,-0.16345602678685386,0.6396918216426675,0.15043974507474686,-0.04489911107344726
6725,3.0,300.33211,1702.8399,0.0,0.0,0.0,0.06819919119595656,0.0,0.0,-0.13752383591754586,-0.16316105955024285,-0.2169359040874068,0.6411545697520294,0.13454786971134086,-0.017887758185134283
6726,3.0,299.88363,1623.7122,0.0,0.0,0.0,0.06820933233962882,0.0,0.0,-0.13360765467854888,-0.18382629533974285,-0.17613400455557282,0.6246816258537764,0.13122102512800687,-0.05312344732612605
6727,3.0,299.25897000000003,1525.8552,0.0,0.0,0.0,0.06821947348330107,0.0,0.0,-0.1106056615084289,-0.16440774220828083,-0.18880846634644483,0.6558875099160574,0.1843966234235298,-0.024071886990460273
6728,3.0,298.70762,1561.4313,0.0,0.0,0.0,0.06822961462697334,0.0,0.0,-0.11311056774314389,-0.16560445137138685,-0.19592109701340682,0.6401739767027524,0.19195781990976182,-0.04480378045103886
6729,3.0,299.23665,1656.7349,0.0,0.0,0.0,0.06823975577064559,0.0,0.0,-0.14548660368340988,-0.1880487922164708,-0.17007064502966585,0.6490287085316464,0.17184249521453385,0.005424864737667464
6730,3.0,299.72191000000004,1524.736,0.0,0.0,0.0,0.06824989691431786,0.0,0.0,-0.13412969126256988,-0.14993961495788785,-0.17941236512162181,0.6362378648342883,0.15467705566793685,-0.037759573550079764
6731,3.0,300.68068,1406.8706,0.0,0.0,0.0,0.06826003805799014,0.0,0.0,-0.0971147501447296,-0.16436124416119186,-0.16617752536294483,0.6724878193518804,0.17871071982487483,-0.02989505558016227
6732,3.0,299.89844,1435.8095,0.0,0.0,0.0,0.06827017920166238,0.0,0.0,-0.07919681737161734,-0.16227919759070986,-0.1949742249274578,0.6482659541213684,0.17644529525129482,-0.06394862230648764
6733,3.0,300.6234,1413.6089,0.0,0.0,0.0,0.06828032034533466,0.0,0.0,-0.09854781711891232,-0.12711446432772086,-0.2040395202596328,0.6394794748192103,0.14317084084486187,-0.026200875411575078
6734,3.0,301.39819,1430.4313,0.0,0.0,0.0,0.0682904614890069,0.0,0.0,-0.06398530905285835,-0.18058970094281582,-0.19024038125526382,0.6422217247573494,0.13406211761340087,-0.06349249156197102
6735,3.0,300.23947999999996,1402.2422,0.0,0.0,0.0,0.06830060263267917,0.0,0.0,-0.12096285071810389,-0.14649939782086485,-0.15878437640579784,0.6536444781696873,0.13826703460089387,-0.046682620727215955
6736,3.0,299.74612,1456.0095,0.0,0.0,0.0,0.06831074377635143,0.0,0.0,-0.090879466394855,-0.17738130529617183,-0.17432977089750884,0.6847846833604864,0.16876084702289884,-0.03687880995365517
6737,3.0,300.49429,1382.2573,0.0,0.0,0.0,0.0683208849200237,0.0,0.0,-0.10994831550605388,-0.18708184764604083,-0.12314153095062289,0.6428749569643184,0.13831165813529786,-0.060222334268731643
6738,3.0,300.50916,1533.6794,0.0,0.0,0.0,0.06833102606369595,0.0,0.0,-0.11636392129672488,-0.16233237295595784,-0.18750392710769684,0.6723808809363264,0.17330004535088284,-0.016951674172999986
6739,3.0,300.42161,1696.3873,0.0,0.0,0.0,0.06834116720736821,0.0,0.0,-0.13426891182630987,-0.19525363877503382,-0.18613681967527382,0.6386271896300963,0.16838221572553086,-0.06302167375725494
6740,3.0,300.54631,1419.8179,0.0,0.0,0.0,0.06835130835104047,0.0,0.0,-0.09252821378532372,-0.15486337209632484,-0.18419759070638683,0.6572263476706903,0.1971337952630908,-0.008032125951109113
6741,3.0,300.22172,1427.4125,0.0,0.0,0.0,0.06836144949471275,0.0,0.0,-0.14199799372161087,-0.1182905960968729,-0.17360915755888984,0.6057188427497954,0.14183988617600687,-0.018081413583996585
6742,3.0,299.25637,1813.7197,0.0,0.0,0.0,0.068371590638385,0.0,0.0,-0.15701310377348685,-0.18808700187774183,-0.2062253945678618,0.6081808378427754,0.15272345881263186,-0.017833482430277683
6743,3.0,299.42283,1747.6879,0.0,0.0,0.0,0.06838173178205727,0.0,0.0,-0.15543834086556985,-0.17281620829563185,-0.2029989326719348,0.6311968949242833,0.15645301964821084,-0.02939615960192507
6744,3.0,299.19869,1464.1809,0.0,0.0,0.0,0.06839187292572951,0.0,0.0,-0.08995372361324132,-0.17351362833946185,-0.18160706483822184,0.6611095172214294,0.18086627769011182,-0.027950769480026172
6745,3.0,299.67819,1419.7065,0.0,0.0,0.0,0.06840201406940179,0.0,0.0,-0.09207774913536632,-0.16092647830970686,-0.17855111266912282,0.6487911419132004,0.14384168333856887,-0.027821575026025676
6746,3.0,300.37543999999997,1426.6609,0.0,0.0,0.0,0.06841215521307405,0.0,0.0,-0.09408371278233951,-0.13332424862557887,-0.20626133454890883,0.6747143047241173,0.13110478507653486,-0.016249550622205785
6747,3.0,299.97359,1420.5207,0.0,0.0,0.0,0.0684222963567463,0.0,0.0,-0.1024132304748989,-0.18252758228906985,-0.14686202989915387,0.6704452186077914,0.15565168067412485,-0.04739203663897986
6748,3.0,300.20277000000004,1473.9572,0.0,0.0,0.0,0.06843243750041857,0.0,0.0,-0.10578245930991591,-0.14780714906242987,-0.19445657571636984,0.6727941856521163,0.15446772832977784,-0.03180675657033247
6749,3.0,300.43904,1229.0230000000001,0.0,0.0,0.0,0.06844257864409083,0.0,0.0,-0.08996799422764973,-0.13143694872431688,-0.15218736844972386,0.6462440439443214,0.1123929029623159,-0.03731769923447017
6750,3.0,300.18048999999996,1354.2909,0.0,0.0,0.0,0.06845271978776309,0.0,0.0,-0.07600838883144392,-0.17615270915241882,-0.15950949870736186,0.6188732912455384,0.14914001877397387,-0.06413699259282835
6751,3.0,300.16791,1635.5088,0.0,0.0,0.0,0.06846286093143536,0.0,0.0,-0.11341300263299188,-0.17605982451575183,-0.20768100939651982,0.6572451535925464,0.18134729791008483,-0.055004307009752444
6752,3.0,299.2337,1610.6665,0.0,0.0,0.0,0.0684730020751076,0.0,0.0,-0.13291281842247388,-0.1816245636674488,-0.17506502570007282,0.6445587759804984,0.19421862406288581,-0.04429864082568546
6753,3.0,299.20806,1389.2457,0.0,0.0,0.0,0.06848314321877988,0.0,0.0,-0.1109324144006769,-0.14092395874811187,-0.17043964031858286,0.6567970032058174,0.16082065446926286,-0.018531043315871586
6754,3.0,300.18719,1291.7176,0.0,0.0,0.0,0.06849328436245213,0.0,0.0,-0.0895784887302085,-0.14775201812448888,-0.15531940556883186,0.6359257230084824,0.16175441509891786,-0.017505053622364285
6755,3.0,300.9154,1460.3696,0.0,0.0,0.0,0.0685034255061244,0.0,0.0,-0.0883162486301351,-0.17637736696459083,-0.17922226927036083,0.6829620490806063,0.17238370249044682,-0.04732283976315066
6756,3.0,300.69676,1427.5145,0.0,0.0,0.0,0.06851356664979666,0.0,0.0,-0.0887255915380341,-0.13366651437685786,-0.2115366489420418,0.6504901191508764,0.15436915936004986,-0.017661960466599784
6757,3.0,300.47967,1360.1166,0.0,0.0,0.0,0.06852370779346892,0.0,0.0,-0.07155558831298672,-0.15945412458939684,-0.1824317693596138,0.6554955442473733,0.08850563824607642,-0.046501414119082256
6758,3.0,300.77066,1553.7738,0.0,0.0,0.0,0.06853384893714118,0.0,0.0,-0.13986813187890987,-0.15765019490636284,-0.17479011068294084,0.6256356008229264,0.1166553421579859,-0.03046652053056147
6759,3.0,300.4074,1658.8332,0.0,0.0,0.0,0.06854399008081344,0.0,0.0,-0.15136532877609485,-0.17360704999868182,-0.17927150309271986,0.6656242658245004,0.18437616590401082,-0.04341665220988996
6760,3.0,299.94948,1537.3383,0.0,0.0,0.0,0.0685541312244857,0.0,0.0,-0.13537209800518588,-0.15803965784729984,-0.17390070001016283,0.6403008964102784,0.18333397738115484,-0.043110589884683956
6761,3.0,299.83111,1589.953,0.0,0.0,0.0,0.06856427236815796,0.0,0.0,-0.13881788801775888,-0.1288218718062289,-0.2156662611821028,0.6453949200955194,0.13839581868860387,-0.01831492314904218
6762,3.0,299.32997,1468.599,0.0,0.0,0.0,0.06857441351183022,0.0,0.0,-0.1054637009609569,-0.16095385632740886,-0.17999985766210283,0.6516385672117193,0.16570594863390384,-0.03703828336039396
6763,3.0,298.99685,1342.7676,0.0,0.0,0.0,0.06858455465550248,0.0,0.0,-0.07003416694333414,-0.16002597254833384,-0.17810767389535884,0.6657538807772924,0.1898589736526218,-0.047917832380871855
6764,3.0,300.26465,1380.5055,0.0,0.0,0.0,0.06859469579917474,0.0,0.0,-0.1002016196141299,-0.13505628821401788,-0.18438128281701582,0.6496440958473804,0.16913909328522883,-0.02776915655860237
6765,3.0,300.06027,1461.6622,0.0,0.0,0.0,0.068604836942847,0.0,0.0,-0.12159137988763488,-0.14869986293053386,-0.17401755814419584,0.6069441458307234,0.12487112860632088,-0.01833501792502538
6766,3.0,299.19572999999997,1505.3220000000001,0.0,0.0,0.0,0.06861497808651927,0.0,0.0,-0.1009284411361116,-0.16371075786199385,-0.19294110820430482,0.6381580953638004,0.15062905059092985,-0.052998702053314646
6767,3.0,299.94625,1432.9541,0.0,0.0,0.0,0.06862511923019152,0.0,0.0,-0.1021787846667609,-0.16726752915801985,-0.16613594157884085,0.6650005901229483,0.17896107365958283,-0.05206443479860965
6768,3.0,300.75954,1476.1243,0.0,0.0,0.0,0.06863526037386379,0.0,0.0,-0.08462594414318042,-0.18683912358458582,-0.17723985558221184,0.6745587100387613,0.18286039441691584,-0.05849550075930644
6769,3.0,301.61618,1499.7488,0.0,0.0,0.0,0.06864540151753605,0.0,0.0,-0.12235309065030987,-0.14634367141299587,-0.18718943454165882,0.6516542624557684,0.14050388552165388,-0.04041897712029246
6770,3.0,300.99596,1539.3087,0.0,0.0,0.0,0.06865554266120831,0.0,0.0,-0.1192526466693199,-0.18041679994575183,-0.16824196164668884,0.6860766785629963,0.17575344808301482,-0.04004832314096176
6771,3.0,300.30675,1488.2111,0.0,0.0,0.0,0.06866568380488057,0.0,0.0,-0.13643759128034189,-0.15200563191178784,-0.16393578044420185,0.6749442010393063,0.1868389310670668,-0.05791469870923575
6772,3.0,298.4856,1443.4126,0.0,0.0,0.0,0.06867582494855283,0.0,0.0,-0.1039696535560059,-0.15564915768137585,-0.1791425670174948,0.6821386415193423,0.17252541564943283,-0.025054980740984077
6773,3.0,299.48642,1562.7917,0.0,0.0,0.0,0.06868596609222509,0.0,0.0,-0.12297744522942888,-0.16649585814686185,-0.18557635051495983,0.6163426484582835,0.12432937417535388,-0.03274396630332787
6774,3.0,299.8655,1632.5168,0.0,0.0,0.0,0.06869610723589735,0.0,0.0,-0.0993813592076765,-0.15587455516612087,-0.24098841469620477,0.6440315414234643,0.14574234800864985,-0.027473358456909375
6775,3.0,299.66044,1476.9765,0.0,0.0,0.0,0.06870624837956961,0.0,0.0,-0.1021390146003359,-0.17286341561779084,-0.17396154567866784,0.6379600860292585,0.14927760800505285,-0.057368582236588236
6776,3.0,299.16618,1366.3147,0.0,0.0,0.0,0.06871638952324188,0.0,0.0,-0.10724768988202289,-0.15767529311133985,-0.15040255879607686,0.6494814185438254,0.17302270866601185,-0.017071832462608683
6777,3.0,300.72402,1502.8562,0.0,0.0,0.0,0.06872653066691413,0.0,0.0,-0.16040334741557785,-0.13870712964932788,-0.15772029154828085,0.6081379267010404,0.14528379154339388,-0.028823563864414273
6778,3.0,300.9643,1604.2989,0.0,0.0,0.0,0.0687366718105864,0.0,0.0,-0.15642522619796786,-0.16066911278430684,-0.17057245714169084,0.6545153564981363,0.16442212022719985,-0.022056324825289776
6779,3.0,301.35744,1560.4416,0.0,0.0,0.0,0.06874681295425865,0.0,0.0,-0.11284231991166989,-0.18672387651821182,-0.17476908574336583,0.6538037002904015,0.19275360627329982,-0.04460733152165086
6780,3.0,300.94198,1535.336,0.0,0.0,0.0,0.06875695409793092,0.0,0.0,-0.07836592999811512,-0.17829094044094582,-0.2100469281150178,0.6797941327754573,0.18170025344991883,-0.05013095298428986
6781,3.0,299.90884,1619.6962,0.0,0.0,0.0,0.0687670952416032,0.0,0.0,-0.12830088900231187,-0.15644009057693486,-0.2076062214066388,0.6618030058548713,0.1342521931996599,-0.042613512690376255
6782,3.0,300.14215,1690.7708,0.0,0.0,0.0,0.06877723638527544,0.0,0.0,-0.15017452686107186,-0.16689034680829484,-0.19688724111625783,0.6388866525832033,0.14020571641472687,-0.043692222799836665
6783,3.0,299.38214,1553.2356,0.0,0.0,0.0,0.06878737752894772,0.0,0.0,-0.13047134164401888,-0.17219496439431983,-0.16947853206872884,0.6618819279051603,0.17501805142543683,-0.05690591400242645
6784,3.0,299.17686000000003,1342.1996,0.0,0.0,0.0,0.06879751867261996,0.0,0.0,-0.07790048748517953,-0.18009922709940984,-0.14999543490589687,0.6584461082735714,0.16527602661647384,-0.05980791193808135
6785,3.0,299.90567999999996,1229.9934,0.0,0.0,0.0,0.06880765981629224,0.0,0.0,-0.050689365246900854,-0.13052320991663788,-0.19267469435551182,0.6628932730949724,0.14266181439212489,-0.03739245885334836
6786,3.0,299.55777,1331.6547,0.0,0.0,0.0,0.0688178009599645,0.0,0.0,-0.04564942783874775,-0.1790978522905818,-0.18004248509380985,0.6492380054723024,0.12843296615284688,-0.06493460078004615
6787,3.0,299.27879,1404.7981,0.0,0.0,0.0,0.06882794210363676,0.0,0.0,-0.1052702715168669,-0.14617672832651987,-0.1755765447480558,0.6732284342474734,0.17569525712977183,-0.007339541440731342
6788,3.0,300.78157000000004,1471.4674,0.0,0.0,0.0,0.06883808324730901,0.0,0.0,-0.11960857103194689,-0.16625639675072884,-0.16142437927634584,0.6345516038853674,0.16680411922478483,-0.02693926115694808
6789,3.0,300.57802999999996,1498.3934,0.0,0.0,0.0,0.06884822439098126,0.0,0.0,-0.13679156007027585,-0.15165589850727185,-0.16702672013925385,0.6538619723036524,0.14663897302213985,0.0007419252711523234
6790,3.0,300.75268,1769.3987,0.0,0.0,0.0,0.06885836553465353,0.0,0.0,-0.15561065417757583,-0.14897594318528085,-0.23326643568410477,0.6448822864724264,0.15668602664120684,-0.014706172122886186
6791,3.0,301.91007,1962.2361,0.0,0.0,0.0,0.06886850667832581,0.0,0.0,-0.12884415317592787,-0.2226929682405848,-0.2449336559480698,0.6502696967241224,0.18505592499859783,-0.028161243817298374
6792,3.0,300.09711,1701.7031,0.0,0.0,0.0,0.06887864782199805,0.0,0.0,-0.1090654301639199,-0.17417133911187285,-0.23403849173030078,0.6566980492010513,0.17506403271497484,-0.05106854369932285
6793,3.0,300.37112,1673.9464,0.0,0.0,0.0,0.06888878896567033,0.0,0.0,-0.13861714290794686,-0.16952015638283682,-0.2007006180001088,0.6552083385065284,0.15166617286328585,-0.01991651286660678
6794,3.0,300.47854,1555.6153,0.0,0.0,0.0,0.06889893010934257,0.0,0.0,-0.14115478725339287,-0.17054762238173984,-0.16116579785082585,0.6509073451445534,0.14924270153910787,-0.03484402238108726
6795,3.0,299.55091,1484.3391,0.0,0.0,0.0,0.06890907125301485,0.0,0.0,-0.14556336751098586,-0.14469598489538185,-0.16094267004630486,0.6443379989162094,0.15729430094123886,-0.026787173330188176
6796,3.0,299.98131,1420.7879,0.0,0.0,0.0,0.06891921239668711,0.0,0.0,-0.08858041610345642,-0.17449227594854685,-0.16881135754038384,0.6280293940516753,0.14052794007902789,-0.05254844917262816
6797,3.0,299.80671,1397.1993,0.0,0.0,0.0,0.06892935354035937,0.0,0.0,-0.05088498128470665,-0.17034756628199582,-0.2034811485270258,0.6222742348086854,0.12032103783976189,-0.02716938950640997
6798,3.0,298.81852000000003,1281.608,0.0,0.0,0.0,0.06893949468403163,0.0,0.0,-0.06319552214316243,-0.13898622938937288,-0.18739508378195482,0.6604450278058493,0.13895901349168685,-0.04017695118815636
6799,3.0,300.65365,1468.6315,0.0,0.0,0.0,0.06894963582770389,0.0,0.0,-0.1049947485496749,-0.19586601673797083,-0.14556652885129787,0.6840248268454944,0.19042526900101084,-0.04024908243627517
6800,3.0,300.22934,1427.9562,0.0,0.0,0.0,0.06895977697137615,0.0,0.0,-0.11746405759279989,-0.15616646238742984,-0.16043250875345585,0.6697813270097703,0.17409068440391284,-0.05461784328911145
6801,3.0,299.562,1410.8174,0.0,0.0,0.0,0.06896991811504842,0.0,0.0,-0.1162153585670629,-0.15884227351651184,-0.15379562940594688,0.6633223743798214,0.16493623319543882,-0.03193965141369817
6802,3.0,299.56879,1513.5710000000001,0.0,0.0,0.0,0.06898005925872067,0.0,0.0,-0.07678126763672112,-0.18244945057385883,-0.20085706381554883,0.6770386599235133,0.16033346355618083,-0.06305977398751514
6803,3.0,299.80604,1571.9647,0.0,0.0,0.0,0.06899020040239294,0.0,0.0,-0.0947283435092096,-0.15342810332967485,-0.22968156696280578,0.6651313399158524,0.17664263584077083,-0.05074502814114436
6804,3.0,300.58232999999996,1532.3547,0.0,0.0,0.0,0.06900034154606519,0.0,0.0,-0.08853675414339732,-0.1868700378451368,-0.1903907779676068,0.6448461337088585,0.17086972445602885,-0.06776659326629203
6805,3.0,301.54032,1459.2792,0.0,0.0,0.0,0.06901048268973746,0.0,0.0,-0.13865573760425587,-0.14453521250201484,-0.16039349862460586,0.6207741686981404,0.15518137050770886,-0.013983999392363288
6806,3.0,299.72497999999996,1602.8779,0.0,0.0,0.0,0.06902062383340972,0.0,0.0,-0.13935802124856586,-0.17859456083341083,-0.16928226552435882,0.6398870344069334,0.15489431675437884,-0.012094540255138187
6807,3.0,300.72971,1658.5828,0.0,0.0,0.0,0.06903076497708198,0.0,0.0,-0.15688671095601286,-0.17743926320189182,-0.16984180249458083,0.6407839937929564,0.17232730498988083,-0.016198517267669185
6808,3.0,300.21027999999995,1508.0619,0.0,0.0,0.0,0.06904090612075424,0.0,0.0,-0.07943758991337972,-0.15704876004450585,-0.22192681944247178,0.6683302920715644,0.15343570270542486,-0.030423465507312265
6809,3.0,298.7715,1584.7139,0.0,0.0,0.0,0.0690510472644265,0.0,0.0,-0.0913838379766326,-0.17705785559924983,-0.2132717688107848,0.6457727306603064,0.12057469486979587,-0.03614831742656117
6810,3.0,298.62597999999997,1785.4006,0.0,0.0,0.0,0.06906118840809876,0.0,0.0,-0.12132612114395588,-0.1987193898145768,-0.2226716899884848,0.6734733165316413,0.15021652607771685,-0.02840480684983617
6811,3.0,298.73982,1686.5377,0.0,0.0,0.0,0.06907132955177102,0.0,0.0,-0.14639502292806386,-0.17473026813203485,-0.1915400467610308,0.6715692980037294,0.15838344347372885,-0.04266156404986856
6812,3.0,300.37599,1593.9009,0.0,0.0,0.0,0.06908147069544328,0.0,0.0,-0.12586674815458088,-0.1925305493962858,-0.16610875607865785,0.6549204640206174,0.15650551613589184,-0.03489197140231946
6813,3.0,300.37214,1428.5526,0.0,0.0,0.0,0.06909161183911554,0.0,0.0,-0.12169810552066788,-0.13142621840575788,-0.18111999551515184,0.6265151525722314,0.15095826568092086,-0.03455149403746696
6814,3.0,299.81568,1326.7017,0.0,0.0,0.0,0.0691017529827878,0.0,0.0,-0.04861400106082835,-0.15253922967944986,-0.20213096237127282,0.6304751670105544,0.16846939576413486,-0.04627461632269905
6815,3.0,299.92736,1451.5557,0.0,0.0,0.0,0.06911189412646007,0.0,0.0,-0.08231103547446672,-0.17960489277312283,-0.17932075718008084,0.6639626876480154,0.18799901123905782,-0.06202401048354324
6816,3.0,300.9068,1519.3408,0.0,0.0,0.0,0.06912203527013233,0.0,0.0,-0.0955519334554916,-0.18888933383692583,-0.17740038479555484,0.6699356956625054,0.16216748676718484,-0.05887990150274385
6817,3.0,300.13636,1405.0673,0.0,0.0,0.0,0.06913217641380459,0.0,0.0,-0.1101905836049639,-0.18030807821002182,-0.13660670272203188,0.6742706531678324,0.15802396260325086,-0.04369888491924416
6818,3.0,300.63338999999996,1378.7579999999998,0.0,0.0,0.0,0.06914231755747685,0.0,0.0,-0.1119408920927059,-0.15782192053331087,-0.14934520191922385,0.6501491503597254,0.15659411472463586,-0.04973826689478475
6819,3.0,298.86997,1459.3556,0.0,0.0,0.0,0.06915245870114911,0.0,0.0,-0.1171088222402409,-0.15352293340653383,-0.17297591677639385,0.6678164830783554,0.16846789615398683,-0.03978824818479436
6820,3.0,299.86951,1682.4345,0.0,0.0,0.0,0.06916259984482137,0.0,0.0,-0.08587872656682041,-0.19706697141899582,-0.2284723644259668,0.6360950472326934,0.14842990270639086,-0.05240928332439354
6821,3.0,300.13615,1662.8428,0.0,0.0,0.0,0.06917274098849363,0.0,0.0,-0.12435916372829389,-0.13502773482619987,-0.24607577119578775,0.6646508060559274,0.14967338349411285,-0.02175658822045808
6822,3.0,299.29786,1519.5357,0.0,0.0,0.0,0.06918288213216589,0.0,0.0,-0.11512296350175188,-0.15332385002688584,-0.1934541065974338,0.6642864413199674,0.1390049441187199,-0.024284618848955275
6823,3.0,299.9987,1452.915,0.0,0.0,0.0,0.06919302327583815,0.0,0.0,-0.16422991681573085,-0.12482681917944788,-0.15259315484977184,0.6747764574852514,0.16161660295281685,-0.01052102364484419
6824,3.0,300.29707,1462.8829,0.0,0.0,0.0,0.06920316441951041,0.0,0.0,-0.13925290668319185,-0.12481036399782389,-0.18061659260046983,0.6544851413801545,0.15159637006389684,-0.018540502005555085
6825,3.0,300.57835,1562.2687,0.0,0.0,0.0,0.06921330556318267,0.0,0.0,-0.1121678803801079,-0.16468570710821384,-0.1980370773297378,0.6498723810949104,0.16558117701658984,-0.021358560276425777
6826,3.0,301.29316,1618.8005,0.0,0.0,0.0,0.06922344670685494,0.0,0.0,-0.06880319067509623,-0.17592806147274784,-0.24734368144342075,0.6448029996521014,0.18000579530768884,-0.04248721613166176
6827,3.0,300.20765,1561.3287,0.0,0.0,0.0,0.06923358785052719,0.0,0.0,-0.08656387108568891,-0.2027660877989548,-0.18527498967021783,0.6497553203108574,0.18261830870302384,-0.056497654258884346
6828,3.0,299.89669,1536.2227,0.0,0.0,0.0,0.06924372899419946,0.0,0.0,-0.11883168178277388,-0.19090818399867082,-0.15723345527273386,0.6259127449902784,0.17077510716169084,-0.058190332120688644
6829,3.0,299.89442,1642.5401,0.0,0.0,0.0,0.06925387013787171,0.0,0.0,-0.15874811218471885,-0.17263575858532285,-0.16790731553616184,0.6414308019942914,0.14011704689847587,-0.038893924262281464
6830,3.0,300.41533,1504.1937,0.0,0.0,0.0,0.06926401128154398,0.0,0.0,-0.11528652233289388,-0.17047166915424386,-0.17147915386117485,0.6659344622101143,0.16760035141836685,-0.02186657145256258
6831,3.0,300.05245,1432.2775,0.0,0.0,0.0,0.06927415242521624,0.0,0.0,-0.06811910804233252,-0.1839335478628278,-0.18332392594016284,0.6797031023864734,0.15717978341493685,-0.05036828351546255
6832,3.0,298.73011,1504.9846,0.0,0.0,0.0,0.0692842935688885,0.0,0.0,-0.07022188368336034,-0.15746102111269283,-0.2297948280589838,0.6888287671596063,0.14118657290902983,-0.05015996740090335
6833,3.0,298.75934,1665.9347,0.0,0.0,0.0,0.06929443471256076,0.0,0.0,-0.12774808001275387,-0.18522724532550583,-0.1934272352047818,0.6793293650870883,0.13240393382475088,-0.04926149219273075
6834,3.0,299.35736,1722.7071,0.0,0.0,0.0,0.06930457585623302,0.0,0.0,-0.16837121182944484,-0.16708476923748283,-0.18820397146928583,0.6676001643145064,0.1782031828497848,-0.03347323989055157
6835,3.0,299.9903,1574.8545,0.0,0.0,0.0,0.06931471699990528,0.0,0.0,-0.14204846370909188,-0.16801970523725385,-0.16864827493678886,0.6586748697486483,0.16711330236029884,-0.05301983642390045
6836,3.0,300.92585,1510.3949,0.0,0.0,0.0,0.06932485814357756,0.0,0.0,-0.12724532557813586,-0.15964626720585984,-0.17223073212284984,0.6327781426328404,0.16332836740675485,-0.02951880136752887
6837,3.0,300.77836,1512.2279999999998,0.0,0.0,0.0,0.0693349992872498,0.0,0.0,-0.08125885427912452,-0.17019217424665986,-0.20822852922055582,0.6190963785200555,0.13900177264590685,-0.027435578413680772
6838,3.0,299.48176,1558.5602,0.0,0.0,0.0,0.06934514043092208,0.0,0.0,-0.08833407980539491,-0.16642102962697683,-0.21900828425193478,0.6657013741571104,0.15444320767735784,-0.01924565922714868
6839,3.0,301.04098,1653.9011,0.0,0.0,0.0,0.06935528157459432,0.0,0.0,-0.13183372733097587,-0.18072956998661982,-0.19018133917193683,0.6527384400627684,0.15899937794451685,-0.02317306829050378
6840,3.0,300.06127000000004,1407.5264,0.0,0.0,0.0,0.0693654227182666,0.0,0.0,-0.12419308190440288,-0.15739462283363986,-0.14626516479524784,0.6608064845140224,0.15484122244913887,-0.017961001981862883
6841,3.0,298.92328,1279.5514,0.0,0.0,0.0,0.06937556386193887,0.0,0.0,-0.12347430254846489,-0.13052263236408088,-0.13495475042149688,0.6377400891675464,0.15522719980973185,-0.035068072243199265
6842,3.0,299.05875,1656.1541,0.0,0.0,0.0,0.06938570500561111,0.0,0.0,-0.13574592649707987,-0.15698912014361985,-0.2106944253264208,0.6604578960821194,0.17864896223127982,-0.02981529455879047
6843,3.0,299.36402000000004,1807.864,0.0,0.0,0.0,0.06939584614928339,0.0,0.0,-0.1282455351493489,-0.18448392505214584,-0.23681605343442477,0.6499075814033843,0.15247877917848388,-0.05881714079154985
6844,3.0,300.21091,1614.7247,0.0,0.0,0.0,0.06940598729295563,0.0,0.0,-0.09230763025180382,-0.18016045780295284,-0.2183679101887348,0.6620553659247773,0.13314619018550589,-0.05404988013105785
6845,3.0,300.94885,1318.7143,0.0,0.0,0.0,0.06941612843662791,0.0,0.0,-0.10461424273962189,-0.13169274371206188,-0.16454924258474585,0.6660026843393474,0.12355034696846988,-0.04937947706087495
6846,3.0,300.53918999999996,1290.4592,0.0,0.0,0.0,0.06942626958030017,0.0,0.0,-0.10086049258440559,-0.13961963229188487,-0.15178725625023584,0.6705701624776224,0.15419468782533086,-0.043968432750596455
6847,3.0,299.47323,1539.2366,0.0,0.0,0.0,0.06943641072397243,0.0,0.0,-0.13954159176918288,-0.16464663618435785,-0.16370127384105784,0.6664256757260933,0.17194021305417784,-0.05316457109468466
6848,3.0,300.18525,1695.8119,0.0,0.0,0.0,0.06944655186764469,0.0,0.0,-0.1059991327112999,-0.19869448412711882,-0.2107908563384378,0.6680569577245883,0.1760480505495898,-0.023560212915211976
6849,3.0,299.82507999999996,1572.3434,0.0,0.0,0.0,0.06945669301131695,0.0,0.0,-0.05132774219415375,-0.22231185448047178,-0.2043135436166768,0.6616715771844004,0.17005006592013483,-0.04138744764537306
6850,3.0,300.13457,1496.5088,0.0,0.0,0.0,0.06946683415498921,0.0,0.0,-0.07973586845131751,-0.17375691982097283,-0.20140852518247382,0.6468492075665464,0.17940807907369882,-0.01735308333261598
6851,3.0,298.80984,1611.4518,0.0,0.0,0.0,0.06947697529866148,0.0,0.0,-0.13395107553494187,-0.18720981100116985,-0.16868021257994084,0.6530376426847974,0.14794554889358885,-0.05132304780644045
6852,3.0,299.61115,1775.2788,0.0,0.0,0.0,0.06948711644233373,0.0,0.0,-0.16379570875037786,-0.17479831800875084,-0.2010463895967338,0.6351654713259514,0.13839767293628685,-0.03089488011633727
6853,3.0,300.13147999999995,1521.3329,0.0,0.0,0.0,0.069497257586006,0.0,0.0,-0.12647573172968288,-0.15339526389393385,-0.18257620816136882,0.6592600723439034,0.13922464713790286,-0.03237048332971797
6854,3.0,301.08491000000004,1294.6456,0.0,0.0,0.0,0.06950739872967825,0.0,0.0,-0.07458922567513343,-0.12145397304157389,-0.19749673131640982,0.6591217839702553,0.17273702280031683,-0.02840966639731577
6855,3.0,301.00915,1583.9170000000001,0.0,0.0,0.0,0.06951753987335052,0.0,0.0,-0.1048485162952429,-0.15826383943192485,-0.21835885173284078,0.6626871172296264,0.15802669837852085,-0.047395227363544755
6856,3.0,300.8177,1818.957,0.0,0.0,0.0,0.06952768101702278,0.0,0.0,-0.15716065325304887,-0.17468024397459783,-0.2210766012835618,0.6504335797952964,0.15121903572665685,-0.029729253413298868
6857,3.0,300.39164,1669.0367,0.0,0.0,0.0,0.06953782216069504,0.0,0.0,-0.14837866264883384,-0.17075413288462082,-0.18821268542014583,0.6683553598790384,0.15146519470595085,-0.038205359011075364
6858,3.0,300.8475,1627.59,0.0,0.0,0.0,0.0695479633043673,0.0,0.0,-0.14239267490056287,-0.17490101090638582,-0.17745302313824984,0.6669386741192224,0.15501592703138084,-0.01120342428244189
6859,3.0,299.93507,1527.0556,0.0,0.0,0.0,0.06955810444803956,0.0,0.0,-0.1132914328859939,-0.17828107138497185,-0.17261427768320284,0.6427612196405934,0.16142087343099984,-0.03212587259657677
6860,3.0,299.33125,1509.7867,0.0,0.0,0.0,0.06956824559171182,0.0,0.0,-0.07489964700226964,-0.19081728533219983,-0.1932205119193798,0.6299645497551604,0.15671241167381086,-0.03422419601666517
6861,3.0,299.28026,1531.6479,0.0,0.0,0.0,0.06957838673538409,0.0,0.0,-0.08371584290336043,-0.17885685075429683,-0.20301003789303082,0.6570053882213833,0.17499505064816684,-0.04469981187152796
6862,3.0,299.88481,1460.5623,0.0,0.0,0.0,0.06958852787905634,0.0,0.0,-0.11359384751083987,-0.17317950911898683,-0.15720111232954184,0.6653694030268473,0.1976524374592768,-0.035291715792021165
6863,3.0,300.53969,1470.2004,0.0,0.0,0.0,0.06959866902272861,0.0,0.0,-0.11828814403163089,-0.17012779233530584,-0.15848825406407285,0.6680910637229543,0.15849019950426485,-0.05577370327443594
6864,3.0,299.53589,1584.7911,0.0,0.0,0.0,0.06960881016640086,0.0,0.0,-0.12685690628480187,-0.18522833963561383,-0.16965168637831782,0.6665732049406534,0.15440513987110085,-0.05470333322654865
6865,3.0,299.1315,1643.8495,0.0,0.0,0.0,0.06961895131007313,0.0,0.0,-0.10225432246171591,-0.1885223853132108,-0.2089124933030578,0.6715016027645483,0.16854992888208284,-0.043352119324271056
6866,3.0,301.47092000000004,1585.5944,0.0,0.0,0.0,0.06962909245374539,0.0,0.0,-0.08124645209790052,-0.17140550071140584,-0.2293291383130238,0.6833060778870593,0.18338403193609482,-0.04100107917024146
6867,3.0,301.84802,1490.6427,0.0,0.0,0.0,0.06963923359741765,0.0,0.0,-0.08094807527470302,-0.17921329187447482,-0.19295677305085082,0.6541503534146134,0.14624215388547687,-0.054055870465649046
6868,3.0,300.60917,1493.0695,0.0,0.0,0.0,0.06964937474108991,0.0,0.0,-0.12996984363952488,-0.15755973193743486,-0.16632627047762485,0.6579834278804084,0.14849802351061386,-0.03217344570202187
6869,3.0,300.45239,1592.3412,0.0,0.0,0.0,0.06965951588476217,0.0,0.0,-0.14800624257457887,-0.16383668458442183,-0.17218902674873382,0.6534816792761204,0.15395505417668087,-0.02976952402527327
6870,3.0,299.8528,1631.1249,0.0,0.0,0.0,0.06966965702843443,0.0,0.0,-0.13861288725752688,-0.18022552872437483,-0.17698281429684384,0.6603197495634854,0.17408185899554185,-0.009043448849418911
6871,3.0,300.24607000000003,1735.4926,0.0,0.0,0.0,0.06967979817210669,0.0,0.0,-0.1121880541895989,-0.18965919113040483,-0.2256991900947758,0.6282372927071934,0.1345162461757199,-0.017772808001039583
6872,3.0,300.01923,1678.2369,0.0,0.0,0.0,0.06968993931577895,0.0,0.0,-0.0863838641656736,-0.1909264630304748,-0.23283178178870778,0.6344740497227134,0.15893914022607183,-0.025961706844720975
6873,3.0,299.31477,1440.5638,0.0,0.0,0.0,0.06970008045945121,0.0,0.0,-0.08234722775478863,-0.16853761789336785,-0.1870105756340068,0.6615396317563783,0.16935264587630483,-0.027617644257899275
6874,3.0,299.39408,1464.3594,0.0,0.0,0.0,0.06971022160312347,0.0,0.0,-0.13252346693904787,-0.15777918164409285,-0.15482605409514186,0.6851678438858014,0.18748309468564084,-0.05513109398151535
6875,3.0,300.77198,1540.2187,0.0,0.0,0.0,0.06972036274679573,0.0,0.0,-0.15050463361115085,-0.15627683572082285,-0.16140655620708683,0.6828553842425794,0.14517547510770387,-0.058577315638630945
6876,3.0,300.80022,1387.6456,0.0,0.0,0.0,0.069730503890468,0.0,0.0,-0.1021403824879709,-0.16573461347923282,-0.15393460678966286,0.6929345376248143,0.15232775425107886,-0.07074397295638653
6877,3.0,300.47885,1306.9574,0.0,0.0,0.0,0.06974064503414025,0.0,0.0,-0.04139277126139846,-0.17131933392290183,-0.1845703046231708,0.6675596444430074,0.16326131051513684,-0.04855152101991205
6878,3.0,300.68945,1564.0266,0.0,0.0,0.0,0.06975078617781252,0.0,0.0,-0.050439961840786654,-0.19619226300516882,-0.22879282503509377,0.6725586455338703,0.15918288767012784,-0.038139783491103564
6879,3.0,300.84031,1674.971,0.0,0.0,0.0,0.06976092732148477,0.0,0.0,-0.12229899322747088,-0.17237052010664583,-0.21447986690501478,0.6420242625778614,0.14025118094671385,-0.035879086742490164
6880,3.0,300.64696000000004,1523.4842,0.0,0.0,0.0,0.06977106846515704,0.0,0.0,-0.12741281581966588,-0.1919889976153388,-0.14369933183201988,0.6555799682457054,0.15729851606165485,-0.041170803628241964
6881,3.0,300.83814,1448.8623,0.0,0.0,0.0,0.0697812096088293,0.0,0.0,-0.13598062561774288,-0.15997068962287786,-0.14446663573524685,0.6674435766440524,0.16419535485481987,-0.01276098423016109
6882,3.0,300.389,1534.9786,0.0,0.0,0.0,0.06979135075250156,0.0,0.0,-0.0956227778759834,-0.18558834739614383,-0.18538402551347882,0.6620123433255314,0.1772978844154388,-0.035618058317978665
6883,3.0,300.4571,1734.3188,0.0,0.0,0.0,0.06980149189617382,0.0,0.0,-0.1158490382584099,-0.18506304814680083,-0.2262775127218518,0.6429695641261554,0.13749527239722686,-0.02933893123627707
6884,3.0,299.73951,1676.4061,0.0,0.0,0.0,0.06981163303984608,0.0,0.0,-0.08999149453721901,-0.16408867988429185,-0.2555054312639228,0.6603559935195623,0.14816039844479287,-0.05047171203267015
6885,3.0,300.1793,1403.2067,0.0,0.0,0.0,0.06982177418351834,0.0,0.0,-0.12552258762561488,-0.1366579326470879,-0.16435929872099983,0.6689634416615514,0.17021999809440583,-0.034080032818937366
6886,3.0,299.70164,1363.0413,0.0,0.0,0.0,0.06983191532719062,0.0,0.0,-0.12863195833998586,-0.1276155468996739,-0.15808303508408086,0.6605954346506934,0.16241451714156485,-0.055096471225598354
6887,3.0,299.85847,1714.1974,0.0,0.0,0.0,0.06984205647086286,0.0,0.0,-0.18601895842364183,-0.15812599688832085,-0.17692824064645785,0.6663470779158364,0.13890965807931585,-0.03813662316404167
6888,3.0,299.18688,1730.3268,0.0,0.0,0.0,0.06985219761453514,0.0,0.0,-0.14456168872712785,-0.17727481271066184,-0.2041396395020138,0.6628319815964233,0.16577742329595785,-0.02659057849278577
6889,3.0,300.78835,1497.1127,0.0,0.0,0.0,0.06986233875820738,0.0,0.0,-0.07168954301595704,-0.16996971518720483,-0.21342563083846983,0.6763605422940884,0.18238376156987582,-0.007274316606619153
6890,3.0,300.16900000000004,1427.3870000000002,0.0,0.0,0.0,0.06987247990187966,0.0,0.0,-0.037421407408705365,-0.1974013743494988,-0.1990672385739068,0.6374704329184334,0.16103073161249587,-0.0024540899183498176
6891,3.0,300.76425,1698.9424,0.0,0.0,0.0,0.06988262104555193,0.0,0.0,-0.12751153677690888,-0.17354565717512285,-0.2153788831887408,0.6458680572297143,0.13847904705181788,-0.016751600848004287
6892,3.0,300.3413,1780.0469,0.0,0.0,0.0,0.06989276218922418,0.0,0.0,-0.16618391897107584,-0.1969164227191378,-0.17798946813869285,0.6685535110685943,0.14468138396144087,-0.03720278350087886
6893,3.0,300.7945,1512.8411,0.0,0.0,0.0,0.06990290333289643,0.0,0.0,-0.14226429611289285,-0.17784032785647383,-0.13976129478836588,0.6655495183646234,0.17329121994251181,-0.05522443863372775
6894,3.0,300.83524,1363.4369,0.0,0.0,0.0,0.0699130444765687,0.0,0.0,-0.09496148425121881,-0.15808156587143585,-0.16140772144470183,0.6460794414655764,0.16140727561465784,-0.06595304480005874
6895,3.0,300.2416,1405.3467,0.0,0.0,0.0,0.06992318562024095,0.0,0.0,-0.060659501024376644,-0.16921977839069183,-0.1973110329705828,0.6284802396836704,0.15381073696493786,-0.06087602243824564
6896,3.0,299.66109,1493.3186,0.0,0.0,0.0,0.06993332676391323,0.0,0.0,-0.06875521632261153,-0.17846767152338783,-0.2067086743355578,0.6554774678655894,0.1744054708124798,-0.06569698738053784
6897,3.0,299.75186,1489.5724,0.0,0.0,0.0,0.06994346790758547,0.0,0.0,-0.1146886034488839,-0.15232939571624085,-0.18577480567954582,0.6890705387659674,0.17184800729507785,-0.027532691343015076
6898,3.0,299.54502,1409.2745,0.0,0.0,0.0,0.06995360905125775,0.0,0.0,-0.1130172980714389,-0.16688498671526583,-0.14848196349652887,0.6867007089020833,0.16505849195250485,-0.05532301874920686
6899,3.0,300.4422,1543.7617,0.0,0.0,0.0,0.06996375019493,0.0,0.0,-0.14811315059262986,-0.16959853127807184,-0.15155331706714786,0.6769234027246384,0.13653608932256286,-0.024375764748450678
6900,3.0,300.26557,1819.7318,0.0,0.0,0.0,0.06997389133860227,0.0,0.0,-0.14101800862239386,-0.18828917567019482,-0.2238458543368658,0.6680573731571294,0.14792001499106885,-0.04111428352441386
6901,3.0,299.77835,1822.5552,0.0,0.0,0.0,0.06998403248227454,0.0,0.0,-0.12099188033346889,-0.19943724711292382,-0.2335821542827638,0.6597183450991314,0.17638384163272983,-0.014288263198641788
6902,3.0,300.95505,1519.6979999999999,0.0,0.0,0.0,0.06999417362594679,0.0,0.0,-0.08103135430042202,-0.16925637698430385,-0.2116625250019648,0.6445942397339984,0.16373514679190085,-0.03706409185369106
6903,3.0,301.17491,1467.5832,0.0,0.0,0.0,0.07000431476961906,0.0,0.0,-0.10739637420169688,-0.16404109765959585,-0.17467115512120085,0.6312785628823434,0.14979054560317587,-0.007376279558882114
6904,3.0,300.45067,1593.838,0.0,0.0,0.0,0.0700144559132913,0.0,0.0,-0.14603026302456487,-0.17227708831492483,-0.16617959239314886,0.6513899359021814,0.15974468418807283,-0.03749641223410776
6905,3.0,301.30505,1620.4103,0.0,0.0,0.0,0.07002459705696358,0.0,0.0,-0.14951988623646387,-0.16370611717653585,-0.17933827627430984,0.6562312854099853,0.17633310820022285,-0.031578713489576374
6906,3.0,299.5551,1446.8037,0.0,0.0,0.0,0.07003473820063584,0.0,0.0,-0.08662388386261172,-0.16477478192450484,-0.18839353029799383,0.6701637579950134,0.17083234565983982,-0.07235498387338093
6907,3.0,300.19651,1511.2864,0.0,0.0,0.0,0.0700448793443081,0.0,0.0,-0.07614211960614213,-0.16860377299239684,-0.21464742807405182,0.6672667037065964,0.14770861049020487,-0.055667281616432945
6908,3.0,300.05393,1463.6703,0.0,0.0,0.0,0.07005502048798036,0.0,0.0,-0.08948040510727841,-0.16562900242130985,-0.18980982089027082,0.6490396820302294,0.16229296765956883,-0.04806226915612666
6909,3.0,300.75622999999996,1549.5071,0.0,0.0,0.0,0.07006516163165262,0.0,0.0,-0.13509021182736586,-0.15494057162144384,-0.18098068375890283,0.6610702031175494,0.15604196434764286,-0.025745215828354977
6910,3.0,300.13302999999996,1844.8035,0.0,0.0,0.0,0.07007530277532488,0.0,0.0,-0.16004179951489586,-0.1977475309811618,-0.20298487889304778,0.6777564260293514,0.15007225952847886,-0.03236725815464967
6911,3.0,300.14569,1787.0905,0.0,0.0,0.0,0.07008544391899715,0.0,0.0,-0.15309322417162485,-0.2018213638032178,-0.18831629024287083,0.6491133655775014,0.13635696696988486,-0.012450121125981288
6912,3.0,298.58293,1478.0146,0.0,0.0,0.0,0.0700955850626694,0.0,0.0,-0.05608762234091735,-0.18341682070933082,-0.2097750933781898,0.6814833220171673,0.17595787129068982,-0.035095115888368264
6913,3.0,299.84332,1594.9428,0.0,0.0,0.0,0.07010572620634167,0.0,0.0,-0.09072831785093782,-0.18061188098750483,-0.2134825754940898,0.6597977535094683,0.19048804997720684,-0.030198054850315972
6914,3.0,300.93888,1630.5352,0.0,0.0,0.0,0.07011586735001392,0.0,0.0,-0.08959869395045261,-0.1909186407397028,-0.2151246587386508,0.6600477121766374,0.17874952730370483,-0.04506994909330766
6915,3.0,300.77454,1408.8597,0.0,0.0,0.0,0.07012600849368619,0.0,0.0,-0.10553482098547591,-0.17754620161744583,-0.14517713683786787,0.6558646509938013,0.16291891304134484,-0.07931957363448243
6916,3.0,300.41165,1325.3585,0.0,0.0,0.0,0.07013614963735845,0.0,0.0,-0.1265613209656299,-0.15113684087854484,-0.12517771782157888,0.6687119732517334,0.17460758380992683,-0.05259740333795955
6917,3.0,300.31413,1429.5235,0.0,0.0,0.0,0.07014629078103071,0.0,0.0,-0.13703422333672485,-0.15399623266074486,-0.14350897253573286,0.6752961534615414,0.15958651584746286,-0.05729747538432054
6918,3.0,300.38522,1542.3224,0.0,0.0,0.0,0.07015643192470297,0.0,0.0,-0.09663075299596281,-0.16571978963026984,-0.2064769643026898,0.6610872662492333,0.13531655163470385,-0.05137144671071705
6919,3.0,300.38532000000004,1599.8395,0.0,0.0,0.0,0.07016657306837523,0.0,0.0,-0.0874884384971866,-0.1782797338948398,-0.2205430947084088,0.6569565293015615,0.13750919445360088,-0.05301604382877615
6920,3.0,300.15519,1671.4655,0.0,0.0,0.0,0.07017671421204749,0.0,0.0,-0.11815450647594189,-0.18616048919760983,-0.2037687697004118,0.6596303747254494,0.16354046091768684,-0.01238942541849109
6921,3.0,300.29836,1603.6283,0.0,0.0,0.0,0.07018685535571975,0.0,0.0,-0.13511104424942186,-0.16289789823427087,-0.1894540282501568,0.6706462474276313,0.16462847874256584,-0.016709497266598983
6922,3.0,300.1767,1753.7528,0.0,0.0,0.0,0.07019699649939201,0.0,0.0,-0.16278976418359883,-0.19304624303468082,-0.17726105277430382,0.6493784520686634,0.16533545373483885,-0.007528311150261463
6923,3.0,300.34123,1840.5739999999998,0.0,0.0,0.0,0.07020713764306427,0.0,0.0,-0.13038108132511086,-0.2098443490225248,-0.2192631166520848,0.6685231034330934,0.16986315167418783,-0.03718080711945996
6924,3.0,299.36464,1600.6147,0.0,0.0,0.0,0.07021727878673653,0.0,0.0,-0.08800745255615933,-0.17797087499935782,-0.2205685880809248,0.6756542157818793,0.17658744410782384,-0.024401366538727376
6925,3.0,300.4635,1387.1286,0.0,0.0,0.0,0.07022741993040879,0.0,0.0,-0.08231377631598723,-0.15707017001911885,-0.18226850437100084,0.6677328088850973,0.16145739096460385,-0.05654368215792694
6926,3.0,300.34569,1512.2811,0.0,0.0,0.0,0.07023756107408106,0.0,0.0,-0.11322980701491188,-0.16789903728284483,-0.17856685857567683,0.6304493899280104,0.14726022705595285,-0.058108223398835146
6927,3.0,300.84087,1577.1532,0.0,0.0,0.0,0.07024770221775332,0.0,0.0,-0.15056895472749887,-0.15420058494091285,-0.17464566174868484,0.6600966521564674,0.16054060227412384,-0.05377246542592916
6928,3.0,299.79615,1351.4084,0.0,0.0,0.0,0.07025784336142558,0.0,0.0,-0.13222639214222887,-0.14376547679854787,-0.13480253999147487,0.6545156604731664,0.18156641324420983,-0.03345166070317186
6929,3.0,299.60569,1347.3231,0.0,0.0,0.0,0.07026798450509784,0.0,0.0,-0.08791948927522801,-0.13587744636005988,-0.1857556552526558,0.6761443957827564,0.16187210409803285,-0.01099189413856549
6930,3.0,299.37425,1533.0692,0.0,0.0,0.0,0.0702781256487701,0.0,0.0,-0.08550628926731373,-0.16335224971161186,-0.21715621505664978,0.6718047469294665,0.14222524545403886,-0.02972943681156697
6931,3.0,299.09199,1749.4155,0.0,0.0,0.0,0.07028826679244236,0.0,0.0,-0.09801329324065891,-0.1970837508406518,-0.23668157488115277,0.6660244388189944,0.14088250668652086,-0.03654115753008146
6932,3.0,299.58111,1883.8945,0.0,0.0,0.0,0.07029840793611462,0.0,0.0,-0.14857055195277186,-0.20546432215274982,-0.21862202318131382,0.6754388494731244,0.14449151102520186,-0.037409796575809465
6933,3.0,299.16814,1706.5975,0.0,0.0,0.0,0.07030854907978688,0.0,0.0,-0.15628505317913385,-0.18407545353933283,-0.17840252967445883,0.6765231486701364,0.15126992114667884,-0.014558798948841588
6934,3.0,299.80362,1390.7658,0.0,0.0,0.0,0.07031869022345914,0.0,0.0,-0.11379261678295688,-0.15430876965408985,-0.15465667920842585,0.6731453274742714,0.16288253736275485,-0.050689324716896855
6935,3.0,300.02201,1371.6148,0.0,0.0,0.0,0.0703288313671314,0.0,0.0,-0.06298544601317953,-0.16598542327648583,-0.18796578676827883,0.6757420240355454,0.17907470965829783,-0.03285674205270797
6936,3.0,299.95151,1307.8264,0.0,0.0,0.0,0.07033897251080368,0.0,0.0,-0.06261671011628814,-0.15188091095697884,-0.18304895012802483,0.6837439032552692,0.1967170150994578,-0.04452953417897286
6937,3.0,299.91532,1229.1746,0.0,0.0,0.0,0.07034911365447592,0.0,0.0,-0.07861547323274312,-0.10957534827674491,-0.18544754616224782,0.6516694206772644,0.15741897123354284,-0.034310272625910264
6938,3.0,300.08727000000005,1480.5736,0.0,0.0,0.0,0.0703592547981482,0.0,0.0,-0.1223193595544809,-0.17383205231588783,-0.15390599260683885,0.6415862852221365,0.16203915864201987,-0.06912321963968064
6939,3.0,299.05081,1932.5491,0.0,0.0,0.0,0.07036939594182044,0.0,0.0,-0.18321091815650983,-0.19920373349487783,-0.2050320189975848,0.6382703432098784,0.15349926388419785,-0.03875956729902146
6940,3.0,300.32552000000004,2034.0569,0.0,0.0,0.0,0.07037953708549272,0.0,0.0,-0.19541525216598382,-0.2033306606221738,-0.2195566045435498,0.6562692924212364,0.17950592863585585,-0.024551838231577774
6941,3.0,300.30099,1653.6681,0.0,0.0,0.0,0.07038967822916498,0.0,0.0,-0.0948526581507285,-0.19333379328055983,-0.21448735482325382,0.6585481121611384,0.15733363531012085,-0.00883578648382423
6942,3.0,299.59978,1450.5083,0.0,0.0,0.0,0.07039981937283724,0.0,0.0,-0.05720100080254925,-0.18019647884400783,-0.2035208274009418,0.6900707483371803,0.14738308363057787,-0.016753799600721285
6943,3.0,300.13498,1472.5376,0.0,0.0,0.0,0.0704099605165095,0.0,0.0,-0.060043700302601845,-0.16807151271486684,-0.2194994268404068,0.6830168963085194,0.14866770237235988,-0.05291270245107715
6944,3.0,300.13854,1411.9469,0.0,0.0,0.0,0.07042010166018176,0.0,0.0,-0.0950083450418436,-0.18175658002297784,-0.15243168331383583,0.7020880262456933,0.16832944566032285,-0.039521920462259864
6945,3.0,298.86523,1327.9409,0.0,0.0,0.0,0.07043024280385402,0.0,0.0,-0.12356826123023787,-0.13939857151756788,-0.14069403203541989,0.6706151102520583,0.14686899092734085,-0.05439593746421104
6946,3.0,299.52794,1351.7965,0.0,0.0,0.0,0.07044038394752629,0.0,0.0,-0.11359738375368889,-0.13950145693272187,-0.15781355108748485,0.6620734828365654,0.18777415077686582,-0.04511038182529805
6947,3.0,299.62065,1308.0128,0.0,0.0,0.0,0.07045052509119853,0.0,0.0,-0.05364485468183495,-0.15944934204892483,-0.18450902325712282,0.6453126239223974,0.19563193569986884,-0.052736797167466654
6948,3.0,300.23162,1606.2626,0.0,0.0,0.0,0.07046066623487081,0.0,0.0,-0.09701521453440622,-0.16764456965273086,-0.22360395100799177,0.6524907510758234,0.21159062477486879,-0.026704204358999777
6949,3.0,299.91265,2049.1858,0.0,0.0,0.0,0.07047080737854305,0.0,0.0,-0.15853717377890086,-0.2179667543416438,-0.24639739704252975,0.6230965987223464,0.17124979456853884,-0.020980231940837677
6950,3.0,299.76429,1954.368,0.0,0.0,0.0,0.07048094852221534,0.0,0.0,-0.18417319164397883,-0.2218982153921488,-0.1880076542624108,0.6558826665805795,0.12832323116701688,-0.038138226125699864
6951,3.0,299.11399,1634.5996,0.0,0.0,0.0,0.0704910896658876,0.0,0.0,-0.14022025655366185,-0.19007009444345782,-0.16658710131836685,0.6796733128335334,0.1123186621274889,-0.03269696467093917
6952,3.0,300.18205,1608.6473,0.0,0.0,0.0,0.07050123080955985,0.0,0.0,-0.12526247619244388,-0.1847617582295658,-0.17896436672240784,0.7197757962188404,0.1316486875977139,-0.040107800921831756
6953,3.0,300.87498999999997,1477.5186,0.0,0.0,0.0,0.07051137195323212,0.0,0.0,-0.08768065812065723,-0.15773410214714387,-0.20371399340000582,0.7062572666971653,0.14980169135427585,-0.02246473250334648
6954,3.0,300.37601,1295.3765,0.0,0.0,0.0,0.07052151309690437,0.0,0.0,-0.05012935407563205,-0.15344335274367985,-0.19018939451023184,0.6663662080777244,0.17022423347982385,-0.04467765107859086
6955,3.0,299.79811,1275.0976,0.0,0.0,0.0,0.07053165424057663,0.0,0.0,-0.06842984955650033,-0.13350835616874887,-0.18565960927567682,0.6703893175997744,0.17087325056637684,-0.055349272059297856
6956,3.0,301.00734,1566.8494,0.0,0.0,0.0,0.0705417953842489,0.0,0.0,-0.13293842325250088,-0.16907626164652784,-0.17426839833895183,0.6398827280940084,0.18218806244556182,-0.025781398989425976
6957,3.0,301.07811,1602.4844,0.0,0.0,0.0,0.07055193652792115,0.0,0.0,-0.16685375834718383,-0.15967450648614687,-0.16058699899620285,0.6484288340749433,0.15878350501071187,-0.05470410734962504
6958,3.0,300.27588,1817.3198,0.0,0.0,0.0,0.07056207767159342,0.0,0.0,-0.15279331227452586,-0.18624758817620582,-0.21337894027386178,0.6406921730688944,0.14612912583682186,-0.036091299816933965
6959,3.0,299.94631,1770.0154,0.0,0.0,0.0,0.07057221881526567,0.0,0.0,-0.13184834852991886,-0.17256312881815483,-0.23362900696738778,0.6496279041107824,0.16710024156650985,-0.04934235461696125
6960,3.0,299.26534,1545.1475,0.0,0.0,0.0,0.07058235995893794,0.0,0.0,-0.07330814925570102,-0.18164518330698382,-0.2147329362499908,0.6443184533217804,0.17464437492105783,-0.02412679906637968
6961,3.0,299.57652,1687.246,0.0,0.0,0.0,0.07059250110261021,0.0,0.0,-0.1136785856167029,-0.2001218799404918,-0.1990801777776838,0.6671943576494563,0.17788837617621583,-0.035835860479974065
6962,3.0,300.34712,1704.5905,0.0,0.0,0.0,0.07060264224628246,0.0,0.0,-0.17191242973643583,-0.17804042448622184,-0.16820009415255682,0.6570968340429084,0.17314554497563484,-0.02961944547346167
6963,3.0,300.20495,1346.7473,0.0,0.0,0.0,0.07061278338995473,0.0,0.0,-0.11280853815333589,-0.16092823123237984,-0.13564077140170186,0.7041389356406024,0.15064591107259384,-0.04882559909246145
6964,3.0,301.09984,1087.4877,0.0,0.0,0.0,0.07062292453362698,0.0,0.0,-0.05734740226974794,-0.1195947705655849,-0.15362693339679784,0.7003870225078173,0.13640879471249986,-0.04890593057363955
6965,3.0,300.3652,1354.2985,0.0,0.0,0.0,0.07063306567729925,0.0,0.0,-0.048272730321147546,-0.17095673224211586,-0.19244347068269183,0.6921113023160673,0.14204831172157686,-0.04261083771011226
6966,3.0,299.85418,1541.0742,0.0,0.0,0.0,0.07064320682097151,0.0,0.0,-0.07524355928496113,-0.16790455949588984,-0.2252999695553758,0.6773339108701524,0.16336606031047485,-0.08181220130448563
6967,3.0,299.78026,1632.8039999999999,0.0,0.0,0.0,0.07065334796464377,0.0,0.0,-0.10878574273881689,-0.18485870599913382,-0.2026871961461688,0.6752006039771113,0.17940510011840483,-0.05723956003510475
6968,3.0,299.58735,1461.9820000000002,0.0,0.0,0.0,0.07066348910831603,0.0,0.0,-0.13590774253804988,-0.15701398530107386,-0.15148428433783487,0.6646517585110214,0.18177834463512582,-0.07071347514162664
6969,3.0,298.88322999999997,1533.0758,0.0,0.0,0.0,0.07067363025198829,0.0,0.0,-0.13026828632397888,-0.16191039481931185,-0.17383807102148185,0.6662135518176584,0.17056214225567284,-0.007075636095210913
6970,3.0,299.36952,1694.1729,0.0,0.0,0.0,0.07068377139566055,0.0,0.0,-0.11719856580159788,-0.19345797721281582,-0.2043297150882728,0.6618390572934294,0.16149470896578685,-0.04008246257658107
6971,3.0,299.27394,1724.8289,0.0,0.0,0.0,0.07069391253933281,0.0,0.0,-0.1260900380791179,-0.14776352864562486,-0.25045134989762374,0.6730931450941213,0.15055747460386587,0.0012795495528567088
6972,3.0,300.43891,1737.5488,0.0,0.0,0.0,0.07070405368300507,0.0,0.0,-0.1055381140483009,-0.18780981718038584,-0.2348235173777768,0.6441277292554574,0.15466059035381186,-0.012238069158303388
6973,3.0,300.59898,1478.5539,0.0,0.0,0.0,0.07071419482667735,0.0,0.0,-0.1036983153117269,-0.16451335326620384,-0.18123178739868484,0.6549954850580214,0.16448000720541286,-0.02759706008211777
6974,3.0,299.89245,1448.247,0.0,0.0,0.0,0.07072433597034959,0.0,0.0,-0.1308717679510379,-0.16906423436784085,-0.14029493308603186,0.6614252662175915,0.17063882502324085,-0.03302832075839147
6975,3.0,300.04413999999997,1625.2178,0.0,0.0,0.0,0.07073447711402187,0.0,0.0,-0.1134792185270269,-0.18294437258520382,-0.19760202826680182,0.6892856821597003,0.17377257453501785,-0.04071268792677946
6976,3.0,299.72782,1578.6202,0.0,0.0,0.0,0.07074461825769413,0.0,0.0,-0.09910318355172272,-0.18194696971676783,-0.1988109572261138,0.7116768476395363,0.15354661306137085,-0.024203482847197776
6977,3.0,299.32527999999996,1431.8023,0.0,0.0,0.0,0.07075475940136638,0.0,0.0,-0.06256565852324973,-0.14605279770678886,-0.2266136685750278,0.7132991421096443,0.14456849776779987,-0.06384601654836124
6978,3.0,299.31183,1626.6067,0.0,0.0,0.0,0.07076490054503864,0.0,0.0,-0.1083769064559679,-0.1963954095177178,-0.1896754943245138,0.6984837436524783,0.15406153662968985,-0.05070201567439935
6979,3.0,299.60537,1661.5336,0.0,0.0,0.0,0.0707750416887109,0.0,0.0,-0.13525451033108085,-0.16553523625705585,-0.2042749691853698,0.6484536890998964,0.16179328337275384,-0.057695745495126745
6980,3.0,300.5362,1535.0238,0.0,0.0,0.0,0.07078518283238316,0.0,0.0,-0.15985655713161384,-0.15391350079007984,-0.15283883760151887,0.6382829581736233,0.18342783473791782,-0.02119029287206908
6981,3.0,300.79775,1632.6877,0.0,0.0,0.0,0.07079532397605542,0.0,0.0,-0.11309682807178788,-0.18945216386997282,-0.19374730064636983,0.6324423616822014,0.16656018939571082,-0.025558283343906175
6982,3.0,301.00973,1501.3429999999998,0.0,0.0,0.0,0.07080546511972768,0.0,0.0,-0.09268940465098201,-0.16770780659147186,-0.19597357323608583,0.6606426521053533,0.14992945205938485,-0.02178535540404718
6983,3.0,300.60492999999997,1421.52,0.0,0.0,0.0,0.07081560626339994,0.0,0.0,-0.054770183415146244,-0.1842277247643608,-0.19310868963834382,0.6770185671740304,0.1321020764874599,-0.03388055528500047
6984,3.0,300.46943999999996,1770.7403,0.0,0.0,0.0,0.0708257474070722,0.0,0.0,-0.13544586261246586,-0.19414167785029182,-0.20867329535195078,0.7032217821800864,0.13545444484081287,-0.04966025170333525
6985,3.0,299.51142000000004,1775.9049,0.0,0.0,0.0,0.07083588855074446,0.0,0.0,-0.15672630333268184,-0.1907565713862078,-0.1923478604032558,0.6883905567563584,0.17441205693812983,-0.034191104281649266
6986,3.0,300.01284,1455.368,0.0,0.0,0.0,0.07084602969441674,0.0,0.0,-0.09428438493814431,-0.2006999897850468,-0.14741115065834787,0.6990878129645953,0.19300291646040482,-0.08890397219163891
6987,3.0,299.67604,1477.6132,0.0,0.0,0.0,0.07085617083808898,0.0,0.0,-0.1093091066804689,-0.15299085551402186,-0.18685754447140382,0.6701780346889225,0.19353217751763882,-0.03655973344416476
6988,3.0,300.29425,1711.9119,0.0,0.0,0.0,0.07086631198176126,0.0,0.0,-0.12425106007512489,-0.15983603881708885,-0.2362913621351418,0.6593857356213054,0.18070686305187883,-0.02102092001185328
6989,3.0,300.43482,1533.8827,0.0,0.0,0.0,0.0708764531254335,0.0,0.0,-0.12081960755146688,-0.14309215184209587,-0.2023502702229168,0.6585746390487563,0.14706627072181086,-0.02040875077843688
6990,3.0,300.43895,1636.5663,0.0,0.0,0.0,0.07088659426910578,0.0,0.0,-0.14319871535511286,-0.16912653911648984,-0.18515004580038683,0.6552862067767133,0.13710112824082785,-0.03020659249565857
6991,3.0,299.97031,1719.9443,0.0,0.0,0.0,0.07089673541277804,0.0,0.0,-0.17421844510902185,-0.1760691362841708,-0.17253254893013684,0.6574921637019244,0.14313960234427886,-0.036853902239696965
6992,3.0,300.47154,1728.7111,0.0,0.0,0.0,0.0709068765564503,0.0,0.0,-0.15582185602841986,-0.19836493466459482,-0.17129822792331884,0.6467503244892874,0.14654227856509686,-0.028810850615409573
6993,3.0,301.20279,1783.6651,0.0,0.0,0.0,0.07091701770012256,0.0,0.0,-0.12387399931541188,-0.2064085395234368,-0.21190710331110277,0.6671753794750833,0.18139769697005884,-0.05716316807031545
6994,3.0,301.41796,1783.7227,0.0,0.0,0.0,0.07092715884379482,0.0,0.0,-0.08979524015185023,-0.2296299520027118,-0.22278198226186977,0.6661213460585583,0.17154667684783884,-0.032398695252252266
6995,3.0,302.05885,1401.5264,0.0,0.0,0.0,0.07093729998746708,0.0,0.0,-0.033301090725061766,-0.1862219732136778,-0.2065059533880508,0.6873790697115323,0.15652226516004486,-0.06816835908994323
6996,3.0,300.63232,1034.4995,0.0,0.0,0.0,0.07094744113113935,0.0,0.0,-0.06700137260527064,-0.1069102066712159,-0.14055044436374886,0.6765990107051233,0.14291414406452788,-0.04348106755849726
6997,3.0,300.90484,1508.6351,0.0,0.0,0.0,0.0709575822748116,0.0,0.0,-0.12285030260688089,-0.16096853832135785,-0.17476855885331383,0.6862123628838873,0.16080866772057983,-0.06259194729709423
6998,3.0,300.82995,1704.9778,0.0,0.0,0.0,0.07096772341848387,0.0,0.0,-0.14535332076525587,-0.16624873657997283,-0.2066686408241068,0.6706003775956043,0.18080584745414782,-0.02908580818904577
6999,3.0,300.745,1557.7783,0.0,0.0,0.0,0.07097786456215611,0.0,0.0,-0.095614100402127,-0.18394826025427982,-0.1939633458326918,0.6799557360339064,0.18311931021496883,-0.04193404743831826
7000,3.0,299.40344,1685.7747,0.0,0.0,0.0,0.07098800570582839,0.0,0.0,-0.12130830820719789,-0.15399930280854787,-0.23712578372499277,0.6760391089648654,0.1815360765362158,-0.015458181015853686
7001,3.0,300.25889,1885.8657,0.0,0.0,0.0,0.07099814684950065,0.0,0.0,-0.14384596938649186,-0.1782483434067418,-0.25116175980773575,0.6830991418191363,0.16662006234411986,-0.0032566238182787466
7002,3.0,299.40906,1605.3779,0.0,0.0,0.0,0.07100828799317291,0.0,0.0,-0.14074104684005986,-0.15959777305607387,-0.18765597541770282,0.6680770099440674,0.14960158459202685,-0.05263816132323205
7003,3.0,300.74119,1669.7875,0.0,0.0,0.0,0.07101842913684517,0.0,0.0,-0.14584390606617284,-0.17225476641522186,-0.18947502279222883,0.6583837629949184,0.13766897386186988,-0.03195092888731117
7004,3.0,299.83628999999996,1547.0172,0.0,0.0,0.0,0.07102857028051743,0.0,0.0,-0.1211677805508289,-0.17906625915246382,-0.17002054994472182,0.6642433579257154,0.15336410645335885,-0.05015735220239525
7005,3.0,299.55885,1083.1101,0.0,0.0,0.0,0.07103871142418969,0.0,0.0,-0.05462244141806524,-0.11762668423384989,-0.15698929239613685,0.6640237258340395,0.1904061388391228,-0.03689824713032346
7006,3.0,298.58642000000003,1218.5045,0.0,0.0,0.0,0.07104885256786196,0.0,0.0,-0.038563422344663464,-0.15363979154056687,-0.17819173312365486,0.6615321337056383,0.17163655213170884,-0.05235326883236535
7007,3.0,298.53243,1547.6442,0.0,0.0,0.0,0.07105899371153421,0.0,0.0,-0.06956284352681814,-0.18353284797828182,-0.2173495127782268,0.6709481554274274,0.17228241801045083,-0.024451524445177578
7008,3.0,299.37248,1684.8395,0.0,0.0,0.0,0.07106913485520648,0.0,0.0,-0.14303304896376284,-0.17206688958167982,-0.19704919901224183,0.6843142313390563,0.16087048610918087,-0.02817314950597337
7009,3.0,299.31407,1632.8926,0.0,0.0,0.0,0.07107927599887873,0.0,0.0,-0.12602383231758388,-0.19229483702552283,-0.17803990772867082,0.6856326014416693,0.16494222150352983,-0.04400135831259595
7010,3.0,300.29539,1801.2476,0.0,0.0,0.0,0.071089417142551,0.0,0.0,-0.16690251594199584,-0.19205417999427182,-0.18857758717865883,0.6716950727386424,0.17325661745159682,-0.03828384029757086
7011,3.0,300.10258,1778.7106,0.0,0.0,0.0,0.07109955828622327,0.0,0.0,-0.1144094935763379,-0.1909610655213898,-0.2353130387660888,0.6521655788537314,0.17381327679153483,-0.052652858515932544
7012,3.0,300.46468,1588.9152,0.0,0.0,0.0,0.07110969942989552,0.0,0.0,-0.09129864593472482,-0.18242776702171884,-0.20926413161776178,0.6696444166562584,0.16535343892411383,-0.05090026920221545
7013,3.0,300.0799,1590.3191,0.0,0.0,0.0,0.0711198405735678,0.0,0.0,-0.09306609557440851,-0.17989831986958182,-0.21045287663508183,0.6710114632936753,0.15581043669979286,-0.055272720000992745
7014,3.0,300.9383,1281.2769,0.0,0.0,0.0,0.07112998171724004,0.0,0.0,-0.1033437892342379,-0.14233792899765987,-0.14379446588390887,0.6708194118697214,0.14961995481633986,-0.04767962437511255
7015,3.0,300.28413,1053.7623,0.0,0.0,0.0,0.07114012286091231,0.0,0.0,-0.05079278261835735,-0.16037847212562284,-0.10914616593188789,0.6755962173461554,0.15246793740241388,-0.07737826547639023
7016,3.0,299.3074,1537.0296,0.0,0.0,0.0,0.07115026400458457,0.0,0.0,-0.12324684816601687,-0.16375029488089585,-0.18022147572397484,0.6956315256809863,0.14401897170856587,-0.01954550830274148
7017,3.0,300.31386000000003,1983.5967,0.0,0.0,0.0,0.07116040514825682,0.0,0.0,-0.16047280570993286,-0.2005555915132958,-0.24193546916717176,0.6870075514298664,0.16028911359930384,-0.024470037537754678
7018,3.0,300.25746000000004,1585.8167,0.0,0.0,0.0,0.0711705462919291,0.0,0.0,-0.07593249741220402,-0.17499666171582584,-0.2311195107097198,0.7081006422065923,0.16956135513190285,-0.028601459442494273
7019,3.0,299.65397,1476.5004,0.0,0.0,0.0,0.07118068743560134,0.0,0.0,-0.096137940571326,-0.16419527379481183,-0.18848605016462483,0.6703838156517313,0.17954347968456183,-0.028833805796425076
7020,3.0,299.64575,1982.5134,0.0,0.0,0.0,0.07119082857927361,0.0,0.0,-0.17131956697042483,-0.20422380005531982,-0.2270912133471578,0.6683615305721473,0.17709846666325785,-0.030214072307896765
7021,3.0,299.45932,1891.4392,0.0,0.0,0.0,0.07120096972294589,0.0,0.0,-0.2013472134189228,-0.17315571800663884,-0.20044735613761383,0.6446519037971894,0.18072656063382284,-0.03475968045601337
7022,3.0,299.80286,1521.7556,0.0,0.0,0.0,0.07121111086661813,0.0,0.0,-0.12137334873111688,-0.17577620568026084,-0.16542614975128983,0.6583081846699593,0.17929323730736482,-0.07131795785978443
7023,3.0,300.85899,1219.1122,0.0,0.0,0.0,0.0712212520102904,0.0,0.0,-0.08411776780727732,-0.1257579757563459,-0.16070391792524186,0.6383749308852004,0.17480840997974684,-0.052550503030580856
7024,3.0,300.59254,1194.4278,0.0,0.0,0.0,0.07123139315396265,0.0,0.0,-0.02361426575504658,-0.13892803843612986,-0.20053392822615781,0.6774938625309384,0.17081982188860384,-0.05657616695613294
7025,3.0,300.75299,1489.7283,0.0,0.0,0.0,0.07124153429763493,0.0,0.0,-0.08068565261805392,-0.1932559959378818,-0.17889855612841282,0.6672523459526793,0.16958586565182185,-0.049898254019324254
7026,3.0,300.65898,1684.8483,0.0,0.0,0.0,0.07125167544130719,0.0,0.0,-0.13129548887785586,-0.16975583835609684,-0.21110050556899781,0.6954260790907103,0.14475883679908486,-0.03541844196877807
7027,3.0,299.08018,1451.0759,0.0,0.0,0.0,0.07126181658497945,0.0,0.0,-0.1060725933435499,-0.17101997931335786,-0.16399827771036984,0.6870619933577394,0.14720586618808787,-0.05421328900118504
7028,3.0,300.24534,1442.5147,0.0,0.0,0.0,0.0712719577286517,0.0,0.0,-0.08884711163577722,-0.17309670632081484,-0.17654463429109882,0.6691360386835853,0.13539102551705387,-0.02357553528322418
7029,3.0,299.66444,1864.3181,0.0,0.0,0.0,0.07128209887232397,0.0,0.0,-0.1194898789152329,-0.19860253168054381,-0.24861374991376675,0.6898115386965983,0.14912186133218186,-0.041475784815591256
7030,3.0,299.63527,2094.3177,0.0,0.0,0.0,0.07129224001599622,0.0,0.0,-0.15879620103446485,-0.2101473108024248,-0.2676767839826418,0.6807440243467043,0.14628683821488686,-0.005771390597666905
7031,3.0,299.79702000000003,1494.8698,0.0,0.0,0.0,0.07130238115966848,0.0,0.0,-0.09248026679059172,-0.16230319135307786,-0.1996196422634248,0.6952185350727274,0.18806930039849482,-0.046237332772019454
7032,3.0,299.16213,1225.1664,0.0,0.0,0.0,0.07131252230334074,0.0,0.0,-0.0979173951981945,-0.13354051672692285,-0.14096206708437287,0.6709859293911554,0.17867617812896583,-0.013466827422072388
7033,3.0,299.96479,1652.0108,0.0,0.0,0.0,0.071322663447013,0.0,0.0,-0.12802132316722087,-0.18269778804086784,-0.19145091114973384,0.6683293497489714,0.2052288630945118,-0.05719501046795804
7034,3.0,300.05565,1673.4832,0.0,0.0,0.0,0.07133280459068526,0.0,0.0,-0.15107226644967187,-0.15481277038633084,-0.2028120488234908,0.6645497951534584,0.16860540432505783,-0.03149065293663547
7035,3.0,300.02425,1458.81,0.0,0.0,0.0,0.07134294573435752,0.0,0.0,-0.048284229696532455,-0.18250742874458084,-0.2126501398744348,0.6649236945728594,0.16542456908113384,-0.054276047685878855
7036,3.0,300.48969,1555.9161,0.0,0.0,0.0,0.0713530868780298,0.0,0.0,-0.10589853724137188,-0.14929979818224287,-0.2177613178838688,0.6729118949162334,0.14452005428051887,-0.02403621754718998
7037,3.0,300.30686000000003,1619.1621,0.0,0.0,0.0,0.07136322802170204,0.0,0.0,-0.1032541166003879,-0.17675281665664483,-0.21217792479783082,0.6746104161913643,0.14962548716188584,-0.01086797871758599
7038,3.0,299.72635,1692.3474,0.0,0.0,0.0,0.07137336916537432,0.0,0.0,-0.15989020716743485,-0.17949831912760483,-0.17504283552288283,0.6802519597006413,0.13009179842156088,-0.039922697353813465
7039,3.0,299.93795,1991.5870000000002,0.0,0.0,0.0,0.07138351030904658,0.0,0.0,-0.18905661129593482,-0.1963780728085068,-0.21995804410066877,0.6815647974577084,0.18655998331453683,-0.017135904319432085
7040,3.0,298.81889,1699.5325,0.0,0.0,0.0,0.07139365145271884,0.0,0.0,-0.14882110843749985,-0.1866971571130748,-0.18109716699039882,0.6773456139088073,0.16641434217631684,-0.04258858977766655
7041,3.0,299.25834,1381.7807,0.0,0.0,0.0,0.0714037925963911,0.0,0.0,-0.05401008473338035,-0.18703553198396983,-0.17898121707157083,0.6860400698368834,0.17374947243273783,-0.06577218776320953
7042,3.0,298.72156,1575.8683,0.0,0.0,0.0,0.07141393374006336,0.0,0.0,-0.0922539148242525,-0.17106677120297584,-0.21570392368831984,0.6737284731718233,0.15652231582254986,-0.06733334170903343
7043,3.0,298.84146,1626.7085,0.0,0.0,0.0,0.07142407488373562,0.0,0.0,-0.1050575903208769,-0.1954043799924108,-0.19401680490796783,0.6795213557160363,0.16359545000061385,-0.06311287639875593
7044,3.0,299.84031,1334.9299,0.0,0.0,0.0,0.07143421602740788,0.0,0.0,-0.0944096307565051,-0.14488198721623888,-0.16649375058665386,0.6688232889077194,0.15885595239286185,-0.05522228851701554
7045,3.0,300.01591,1255.4428,0.0,0.0,0.0,0.07144435717108014,0.0,0.0,-0.08552955956911032,-0.13836109460767687,-0.15773261266949684,0.6596890925687443,0.1763650357108738,-0.054849972807520846
7046,3.0,299.63703,1506.2261,0.0,0.0,0.0,0.07145449831475241,0.0,0.0,-0.10929999756206989,-0.17467908886948383,-0.17387604763522982,0.6554363501765313,0.16191617034488184,-0.03652377623786607
7047,3.0,300.63943,1689.7768,0.0,0.0,0.0,0.07146463945842466,0.0,0.0,-0.08722228100066892,-0.17512167651316382,-0.2513060060919718,0.6698358094676473,0.16167672921375084,-0.053695262861059856
7048,3.0,300.08158,1800.4598,0.0,0.0,0.0,0.07147478060209693,0.0,0.0,-0.1244737825796059,-0.2022367760792158,-0.22058428332497382,0.6889095738550813,0.15516114603571285,-0.029385388753362073
7049,3.0,300.40381,1893.5012,0.0,0.0,0.0,0.07148492174576918,0.0,0.0,-0.14460428576133186,-0.2139498357777048,-0.21702296253599881,0.6970035068463903,0.15453490681140783,-0.04833444839798866
7050,3.0,300.41122,1635.872,0.0,0.0,0.0,0.07149506288944145,0.0,0.0,-0.15635430882346885,-0.16428020441819385,-0.17662971690199583,0.7143199611878913,0.15693873121614685,-0.03685342905190026
7051,3.0,300.13282999999996,1363.9154,0.0,0.0,0.0,0.07150520403311371,0.0,0.0,-0.11857088133953489,-0.16160136367131284,-0.13442396948911287,0.6648628387718534,0.15649440078229485,-0.05248616570223125
7052,3.0,300.02842000000004,1550.1019,0.0,0.0,0.0,0.07151534517678597,0.0,0.0,-0.14770510464485884,-0.12242871963777388,-0.2010584675379258,0.6833823350895853,0.16339740013606785,-0.008659696282070483
7053,3.0,299.35287999999997,1635.2123,0.0,0.0,0.0,0.07152548632045823,0.0,0.0,-0.11417942500863189,-0.17173519202894383,-0.21114910104379378,0.6708400720392603,0.17719482674776785,-0.04864326473696645
7054,3.0,298.64935,1370.4059,0.0,0.0,0.0,0.07153562746413049,0.0,0.0,-0.06386857453533754,-0.15328009788756786,-0.1994205082212718,0.7008097099195334,0.16537457532119984,-0.05417542283169795
7055,3.0,299.41492,1609.9701,0.0,0.0,0.0,0.07154576860780275,0.0,0.0,-0.11673450738829888,-0.15846039981882384,-0.21419578197447778,0.6715192535812904,0.15922193832898185,-0.046871837077390156
7056,3.0,299.38755,1881.0781,0.0,0.0,0.0,0.07155590975147502,0.0,0.0,-0.16255941190586484,-0.18770064961461183,-0.22154072049186682,0.6624520432064264,0.15484408994692184,-0.038114259721084565
7057,3.0,299.92744,1725.6965,0.0,0.0,0.0,0.07156605089514727,0.0,0.0,-0.14573721083064287,-0.17288830104024683,-0.20594313348750481,0.6721023384838364,0.18041503689057783,-0.038817147262454166
7058,3.0,300.83631,1589.5801,0.0,0.0,0.0,0.07157619203881954,0.0,0.0,-0.10091241962553041,-0.17656794917589982,-0.20571230498222381,0.6607633099272614,0.17487326811864784,-0.04178595890970306
7059,3.0,301.336,1413.5661,0.0,0.0,0.0,0.07158633318249179,0.0,0.0,-0.06731261973123834,-0.16578293537650185,-0.1965932263347408,0.6681565500769173,0.16918760770001684,-0.04583372485968646
7060,3.0,300.69121,1415.4963,0.0,0.0,0.0,0.07159647432616406,0.0,0.0,-0.07746965658240983,-0.14907159399472086,-0.2037342989320098,0.6375944952606774,0.14275911679922787,-0.03065390492455487
7061,3.0,300.36598,1590.0284,0.0,0.0,0.0,0.07160661546983632,0.0,0.0,-0.1093434355938569,-0.18821693093806482,-0.1857685640589298,0.6708436792096163,0.14978038270467287,-0.06613526567154253
7062,3.0,299.34684,1614.6657,0.0,0.0,0.0,0.07161675661350858,0.0,0.0,-0.11779548156800888,-0.1940340301596678,-0.17898852260479184,0.6800092153741844,0.15568144996206285,-0.02719345419628497
7063,3.0,299.57412999999997,1364.5817,0.0,0.0,0.0,0.07162689775718084,0.0,0.0,-0.09195327034733122,-0.14858400791409987,-0.17426149810577082,0.7141554093716513,0.16248321549834485,-0.057267067748819546
7064,3.0,299.91606,1548.6147,0.0,0.0,0.0,0.0716370389008531,0.0,0.0,-0.09666432602477622,-0.16819479485453384,-0.20588108205138078,0.6934336443590723,0.15181068259254785,-0.031151726857686073
7065,3.0,299.1945,1819.6571,0.0,0.0,0.0,0.07164718004452536,0.0,0.0,-0.13301175216223787,-0.16361383035742785,-0.2565047491750478,0.6970182496353453,0.15371581569556986,-0.05686768204965324
7066,3.0,299.64961,1815.749,0.0,0.0,0.0,0.07165732118819763,0.0,0.0,-0.15366121164768085,-0.18779990759440782,-0.21048124763788179,0.6677224230715724,0.1904096041544648,-0.031815080419903975
7067,3.0,300.89785,1554.0792,0.0,0.0,0.0,0.07166746233186988,0.0,0.0,-0.11026226091703789,-0.17326234231466184,-0.18887668847567782,0.6833703280759004,0.16688938422069982,-0.04996938417634425
7068,3.0,300.12505,1616.8136,0.0,0.0,0.0,0.07167760347554215,0.0,0.0,-0.16875153525447983,-0.14334133030668786,-0.17937808687073883,0.6589142500847733,0.16369937906337084,0.01073179486439569
7069,3.0,300.87562,1855.9794,0.0,0.0,0.0,0.0716877446192144,0.0,0.0,-0.13892819042364485,-0.20709188552337782,-0.21815130771485777,0.6695426154187113,0.17837250707399582,-0.010907199602456789
7070,3.0,300.41504,1758.8533,0.0,0.0,0.0,0.07169788576288667,0.0,0.0,-0.13732927163334385,-0.16553926899245383,-0.2317789440073008,0.6726772768555783,0.17350190503580484,-0.007174947574612192
7071,3.0,299.5103,1725.3395,0.0,0.0,0.0,0.07170802690655895,0.0,0.0,-0.0977888553037586,-0.21317618892885182,-0.21349506886782277,0.6874184547429193,0.17368432045130783,-0.03514470536151237
7072,3.0,299.89455,1645.9338,0.0,0.0,0.0,0.07171816805023119,0.0,0.0,-0.13776883979172588,-0.18293226424650882,-0.1796216620622778,0.6950091976020674,0.14528005265052485,-0.054145191501714346
7073,3.0,300.14378,1492.2797,0.0,0.0,0.0,0.07172830919390347,0.0,0.0,-0.11334526686380689,-0.15401857482544987,-0.18625193501913484,0.7103593489320094,0.14617310089116187,-0.05639954429145165
7074,3.0,299.6682,1555.0171,0.0,0.0,0.0,0.07173845033757571,0.0,0.0,-0.13231129236810787,-0.18866219356200883,-0.15171288369289587,0.6835202384281953,0.17648368729758382,-0.07538219216364313
7075,3.0,299.94857,1680.0509,0.0,0.0,0.0,0.07174859148124799,0.0,0.0,-0.10479874545033091,-0.19394336454071984,-0.2119514127379758,0.6884109636133724,0.15388960835272186,-0.026322320528810773
7076,3.0,299.16452999999996,1473.3992,0.0,0.0,0.0,0.07175873262492025,0.0,0.0,-0.08878804827419812,-0.17108512116228683,-0.18800337834698883,0.6459989488776323,0.1502758316060699,-0.06189993699554814
7077,3.0,299.25624,1463.236,0.0,0.0,0.0,0.07176887376859249,0.0,0.0,-0.08531799193498023,-0.17411408034872183,-0.1853551276206268,0.6612820230509544,0.14506950941224586,-0.03029336520772237
7078,3.0,299.8563,1601.8527,0.0,0.0,0.0,0.07177901491226477,0.0,0.0,-0.1130879520009119,-0.1986202736897948,-0.17521499684737382,0.6706175217872964,0.17145202915599783,-0.06554878030166095
7079,3.0,299.69146,1590.1127,0.0,0.0,0.0,0.07178915605593701,0.0,0.0,-0.1090814091179969,-0.18477855791622383,-0.18949457851915882,0.6778589872044734,0.15546659027835785,-0.026324955992320875
7080,3.0,299.17374,1554.2207,0.0,0.0,0.0,0.07179929719960929,0.0,0.0,-0.1162601239564809,-0.18857010939292082,-0.16761406069221987,0.6909039134969074,0.16733150576933384,-0.05262354215078925
7081,3.0,300.07223,1623.1568,0.0,0.0,0.0,0.07180943834328155,0.0,0.0,-0.1099875384174249,-0.17037258342696485,-0.21303899486531178,0.6923711503042124,0.17398181068066784,-0.016796850570970086
7082,3.0,300.53362999999996,1500.5706,0.0,0.0,0.0,0.0718195794869538,0.0,0.0,-0.1044610595895039,-0.17771279006638682,-0.17396213336372582,0.6894641560323144,0.2060992753279148,-0.056869631542845654
7083,3.0,300.71982,1635.1016,0.0,0.0,0.0,0.07182972063062606,0.0,0.0,-0.1140072028891349,-0.1944531002685268,-0.18856974462288484,0.6860059435735153,0.16703407633497983,-0.03681385656924476
7084,3.0,300.37837,1714.3770000000002,0.0,0.0,0.0,0.07183986177429832,0.0,0.0,-0.14552778216747386,-0.1841717832263398,-0.19142823461249583,0.6650996961152293,0.15620193627343085,-0.04055607087207257
7085,3.0,299.75941,1644.1459,0.0,0.0,0.0,0.0718500029179706,0.0,0.0,-0.11911335517807288,-0.19013243972211083,-0.1905335145091938,0.6946891524254813,0.15258880800684285,-0.03855725367805467
7086,3.0,300.44151,1539.2288,0.0,0.0,0.0,0.07186014406164286,0.0,0.0,-0.1253283475814449,-0.15084682843492284,-0.1917119345079948,0.6869966995212954,0.17837805968454384,-0.023527769660260076
7087,3.0,300.70409,1669.7537,0.0,0.0,0.0,0.07187028520531512,0.0,0.0,-0.0984764549276194,-0.17928311493886584,-0.22980386624987578,0.6829448136964054,0.15176094214513886,-0.009786811577958101
7088,3.0,299.26998,1610.6236,0.0,0.0,0.0,0.07188042634898738,0.0,0.0,-0.12395537343094289,-0.15211272231485684,-0.2135212613829078,0.6766353357212084,0.15175510582456286,-0.024520211656206478
7089,3.0,298.61958,1662.8323,0.0,0.0,0.0,0.07189056749265964,0.0,0.0,-0.11146222261296489,-0.17994465579665483,-0.21405261986784882,0.6751490295470213,0.15943595701510382,-0.02145069308151858
7090,3.0,299.35597,1794.408,0.0,0.0,0.0,0.0719007086363319,0.0,0.0,-0.14468778770207286,-0.2031192763863118,-0.1976481514113538,0.6908368566052894,0.16758950964229685,-0.057819853433625244
7091,3.0,298.63072,1763.319,0.0,0.0,0.0,0.07191084978000416,0.0,0.0,-0.14261224619723287,-0.17848752109284682,-0.2149051786344898,0.6576614271311294,0.15640204303567984,-0.040176096005071965
7092,3.0,300.12307000000004,1737.8066,0.0,0.0,0.0,0.07192099092367642,0.0,0.0,-0.1135537329393809,-0.2159946758045148,-0.1987014147578028,0.6601534042945684,0.16665690411775583,-0.056945112595795044
7093,3.0,299.06399,1557.0213,0.0,0.0,0.0,0.07193113206734868,0.0,0.0,-0.10244525931055991,-0.17498001401668284,-0.1958703433158978,0.6691021454677403,0.17351402350700085,-0.03397709876777857
7094,3.0,299.944,1783.0033,0.0,0.0,0.0,0.07194127321102094,0.0,0.0,-0.12259720286440189,-0.22623644569529877,-0.19315482291539682,0.6759579577643564,0.2034250347364878,-0.042034643921496355
7095,3.0,300.43322,1506.4338,0.0,0.0,0.0,0.0719514143546932,0.0,0.0,-0.11610473192114489,-0.14880723704363086,-0.19300629058323782,0.6775687214483264,0.15306425535126586,-0.032267570556811266
7096,3.0,299.71091,1365.229,0.0,0.0,0.0,0.07196155549836547,0.0,0.0,-0.06460046636081963,-0.17160854589894484,-0.17878653119735682,0.6925487527817403,0.16302383508919985,-0.06186422499577364
7097,3.0,299.97906,1667.5941,0.0,0.0,0.0,0.07197169664203772,0.0,0.0,-0.10625140158869689,-0.17308284505944685,-0.22757273005967976,0.7121210767483783,0.17414104293388283,-0.03350553622423897
7098,3.0,299.67727,1731.7577,0.0,0.0,0.0,0.07198183778570999,0.0,0.0,-0.1078866960575879,-0.1942899872674288,-0.22423442561771478,0.6876200611153163,0.17509157285269283,-0.04477907133410026
7099,3.0,299.41445,1480.7805,0.0,0.0,0.0,0.07199197892938224,0.0,0.0,-0.08995961870232311,-0.14852287853556687,-0.2116377915670238,0.6850218953413973,0.15733868129561884,-0.039296802634542466
7100,3.0,300.5345,1632.8728,0.0,0.0,0.0,0.07200212007305451,0.0,0.0,-0.1372704727300409,-0.16473316774289784,-0.19434891789324482,0.6406923959839164,0.15476611021922587,-0.021297445083394182
7101,3.0,300.02332,1871.2604,0.0,0.0,0.0,0.07201226121672677,0.0,0.0,-0.14667135649533586,-0.2207540331142268,-0.2013910567507498,0.6785780502704394,0.16204099262470084,-0.05052853712477836
7102,3.0,299.15896000000004,1814.2185,0.0,0.0,0.0,0.07202240236039903,0.0,0.0,-0.15583573755478985,-0.1855208244094798,-0.21012056099978482,0.6678557465197303,0.15688625499346787,-0.05768168361023895
7103,3.0,300.57245,1954.4253,0.0,0.0,0.0,0.07203254350407129,0.0,0.0,-0.15948643713508584,-0.20248937932914582,-0.23212067273602677,0.6985680764583013,0.15962113860337984,-0.03676858252827656
7104,3.0,299.41444,1630.2637,0.0,0.0,0.0,0.07204268464774355,0.0,0.0,-0.1215367454422429,-0.15430700659891586,-0.2197157050742518,0.6759768346137193,0.18143631193136983,-0.03534810214683606
7105,3.0,300.8463,1360.2962,0.0,0.0,0.0,0.07205282579141581,0.0,0.0,-0.0923294516059574,-0.12327188557598788,-0.1978947562206918,0.6998719976144884,0.21560389563844778,-0.02126431991112498
7106,3.0,300.96689,1427.0806,0.0,0.0,0.0,0.07206296693508808,0.0,0.0,-0.09574309119285741,-0.16632576385257483,-0.17172800808573482,0.6879332769862284,0.1961106254446118,-0.042512233276630756
7107,3.0,299.49187,1519.1862,0.0,0.0,0.0,0.07207310807876033,0.0,0.0,-0.12214230423200689,-0.15017126419574986,-0.18948112255783084,0.6801719940027493,0.15631945302002884,-0.02892918100183787
7108,3.0,299.76959,1648.1344,0.0,0.0,0.0,0.0720832492224326,0.0,0.0,-0.12771836138732087,-0.19019658858594182,-0.18307676384326985,0.6776653855078664,0.13614303947627185,-0.08192502265012022
7109,3.0,299.86269,1724.328,0.0,0.0,0.0,0.07209339036610485,0.0,0.0,-0.1095696943411869,-0.2025064221958278,-0.21207653899282478,0.6749923810815613,0.16527738437160786,-0.05057885816449466
7110,3.0,299.50632,1701.6257,0.0,0.0,0.0,0.07210353150977712,0.0,0.0,-0.1035858344181259,-0.21025616426066782,-0.2034097245274768,0.6887482948366643,0.1708337642099798,-0.08244488986567712
7111,3.0,300.20103,1612.7491,0.0,0.0,0.0,0.07211367265344938,0.0,0.0,-0.1204951243394429,-0.15863742474379486,-0.21110290697173478,0.6817569704716743,0.16457797835758184,-0.00921960349387902
7112,3.0,300.03801,1450.4645,0.0,0.0,0.0,0.07212381379712164,0.0,0.0,-0.097008008299695,-0.17120570805668783,-0.17269127455830185,0.6698594789899834,0.16322012189857182,-0.061380704074553843
7113,3.0,298.3206,1451.9165,0.0,0.0,0.0,0.0721339549407939,0.0,0.0,-0.1032310448956109,-0.17373611779641984,-0.16437917868796184,0.6993213265826413,0.17033226620548583,-0.03445411867635676
7114,3.0,299.77358,1525.1569,0.0,0.0,0.0,0.07214409608446616,0.0,0.0,-0.13363102022585485,-0.16483902198084482,-0.16513956209300584,0.6949332950370763,0.16125353517698485,-0.08190838913647863
7115,3.0,299.82931,1462.7578,0.0,0.0,0.0,0.07215423722813842,0.0,0.0,-0.09295646394008872,-0.15325326702491987,-0.1984321232787258,0.6933252772608773,0.16011388212700986,-0.04316974646527226
7116,3.0,301.10401,1553.3433,0.0,0.0,0.0,0.0721643783718107,0.0,0.0,-0.10574317560353891,-0.15436095203423986,-0.2120734283150178,0.6949216933234313,0.15141423835842185,-0.05376366636206075
7117,3.0,300.8256,1799.2486,0.0,0.0,0.0,0.07217451951548294,0.0,0.0,-0.13106176247728887,-0.1864653761526998,-0.2293995186649698,0.6759376218348493,0.20432148749746082,-0.03292042380824287
7118,3.0,300.45276,1628.2516,0.0,0.0,0.0,0.07218466065915521,0.0,0.0,-0.10285818912381291,-0.16438006021554885,-0.22770956948568477,0.6705224586629144,0.17685422272665283,-0.032073670964674866
7119,3.0,300.15823,1718.2008,0.0,0.0,0.0,0.07219480180282746,0.0,0.0,-0.1277530145407409,-0.18446574734535182,-0.21007137783993082,0.6796779839164944,0.16799675512248885,-0.03694560947974777
7120,3.0,301.20893,1948.1795,0.0,0.0,0.0,0.07220494294649973,0.0,0.0,-0.17910667769895283,-0.18192527603212683,-0.23116596822680477,0.6885766401372233,0.16072522657484484,-0.03116799154829127
7121,3.0,300.00498,1690.5291,0.0,0.0,0.0,0.072215084090172,0.0,0.0,-0.11351617175817388,-0.18975249119961282,-0.2106099607980848,0.6937878056665254,0.16790068888050783,-0.05969542496497974
7122,3.0,299.38302000000004,1449.5478,0.0,0.0,0.0,0.07222522523384425,0.0,0.0,-0.0946392058714124,-0.16963159362883484,-0.17635553142493585,0.6817118504447214,0.1378117205359579,-0.026610932660794576
7123,3.0,299.29784,1490.97,0.0,0.0,0.0,0.07223536637751651,0.0,0.0,-0.1310506673886939,-0.13142999782863088,-0.19073699539427583,0.6518927004693004,0.15037349878320885,-0.01868436426800318
7124,3.0,298.3921,1547.1579,0.0,0.0,0.0,0.07224550752118877,0.0,0.0,-0.0967322684969816,-0.15569138994554385,-0.21787370758496077,0.6774365125752784,0.14925543809286484,-0.014227792432673787
7125,3.0,299.61574,1686.4749,0.0,0.0,0.0,0.07225564866486103,0.0,0.0,-0.13612035280653287,-0.17987146874193183,-0.1966544266407808,0.6643320578394692,0.1850829281137628,-0.050205786570425355
7126,3.0,299.89127,1827.7352,0.0,0.0,0.0,0.0722657898085333,0.0,0.0,-0.1193230067562639,-0.19309691567218182,-0.24316594995611077,0.6949738655710804,0.16986131769150684,-0.04463193728707925
7127,3.0,299.65792000000005,1644.3401,0.0,0.0,0.0,0.07227593095220555,0.0,0.0,-0.11357811173678689,-0.17077372914155484,-0.2154865004818618,0.6903919182213774,0.16554822612333786,-0.05210765903462555
7128,3.0,300.71027000000004,1684.3979,0.0,0.0,0.0,0.07228607209587783,0.0,0.0,-0.095795918000071,-0.1979124475674378,-0.21830654776267877,0.7116510300269884,0.16451663619652784,-0.04686108446732895
7129,3.0,300.39193,1724.0652,0.0,0.0,0.0,0.07229621323955007,0.0,0.0,-0.13415590404265687,-0.1836311535029838,-0.20628570321381381,0.6875231842732553,0.17134416868285285,-0.039435148763446164
7130,3.0,300.05778,1582.8447,0.0,0.0,0.0,0.07230635438322235,0.0,0.0,-0.07665491838900143,-0.18716558263430483,-0.21732477934328578,0.6777897112951364,0.14472845956108688,-0.03687909974318376
7131,3.0,301.31448,1458.3517,0.0,0.0,0.0,0.07231649552689462,0.0,0.0,-0.12270446551998788,-0.16115332474209484,-0.15944469123096586,0.6526558500471173,0.17086659351321984,-0.04044661858302046
7132,3.0,300.53467,1588.3556,0.0,0.0,0.0,0.07232663667056687,0.0,0.0,-0.10544076097869291,-0.17650992034267282,-0.2008697699718028,0.6576258519201185,0.17530076846833884,-0.04018752445294986
7133,3.0,299.65734,1687.3526,0.0,0.0,0.0,0.07233677781423914,0.0,0.0,-0.13711248677444887,-0.19185556270966983,-0.18394500772145883,0.6627859800418834,0.1878485030692038,-0.07454708055047403
7134,3.0,299.42277,1527.9844,0.0,0.0,0.0,0.07234691895791139,0.0,0.0,-0.0925677649897271,-0.16227016953231885,-0.2096311713339858,0.6780247042583284,0.15740852462501184,-0.031937708000006365
7135,3.0,299.90124,1525.3352,0.0,0.0,0.0,0.07235706010158366,0.0,0.0,-0.10527322007465789,-0.1769437839029918,-0.18144679906990485,0.6856061150840553,0.17916472679718184,-0.05650446735255674
7136,3.0,299.7556,1789.8769,0.0,0.0,0.0,0.07236720124525592,0.0,0.0,-0.1151469369991179,-0.17815359438989084,-0.25077735298479775,0.6931096475070964,0.16385113353084785,-0.017132274857573883
7137,3.0,300.10026,1719.3504,0.0,0.0,0.0,0.07237734238892818,0.0,0.0,-0.12807665675518187,-0.17814928807696584,-0.21641364458836382,0.6956797158557424,0.18566301379601283,-0.04838351199433086
7138,3.0,299.33665,1471.3798,0.0,0.0,0.0,0.07238748353260042,0.0,0.0,-0.09747599812338201,-0.15978732175228086,-0.18999939998398083,0.6806186245143283,0.16095940893795685,-0.02494470467960068
7139,3.0,300.41276,1639.2409,0.0,0.0,0.0,0.07239762467627268,0.0,0.0,-0.12614802638234088,-0.17423889249603983,-0.19790139300884682,0.6937283177531544,0.17339457145271184,-0.04511007278401755
7140,3.0,300.48669,1650.1909,0.0,0.0,0.0,0.07240776581994494,0.0,0.0,-0.13663554995237887,-0.16998733560644383,-0.1949939529069048,0.6695699934364134,0.14623045084682185,-0.025241563654148376
7141,3.0,300.87512000000004,1508.3388,0.0,0.0,0.0,0.07241790696361722,0.0,0.0,-0.1140229082656849,-0.17367431967282082,-0.17080010404165782,0.6634922052290824,0.14635362152897785,-0.05345968930556055
7142,3.0,300.68093999999996,1699.9884,0.0,0.0,0.0,0.07242804810728948,0.0,0.0,-0.13070979992255288,-0.17622875357242385,-0.2098154815271758,0.6850772593268614,0.13134702277794189,-0.023485549555093275
7143,3.0,300.416,1660.6466,0.0,0.0,0.0,0.07243818925096174,0.0,0.0,-0.12313773126274788,-0.18801818193094982,-0.1936391868606998,0.6835952392005974,0.17750551962593084,-0.03033843659867057
7144,3.0,299.73171,1537.4632,0.0,0.0,0.0,0.072448330394634,0.0,0.0,-0.1021843575423109,-0.18160507886802582,-0.18356097580105782,0.7061881326428423,0.18617838319437582,-0.05415795237347375
7145,3.0,299.82907,1652.1332,0.0,0.0,0.0,0.07245847153830626,0.0,0.0,-0.10874406776220388,-0.16942581266602583,-0.22403737887076777,0.6791790089047494,0.1974266346744918,-0.05305122083249785
7146,3.0,299.86827,1624.7497,0.0,0.0,0.0,0.07246861268197853,0.0,0.0,-0.12552132106298988,-0.16522953870188584,-0.2031324891676158,0.6746521215654804,0.15803505769184586,-0.04297967290551346
7147,3.0,300.22573,1532.2644,0.0,0.0,0.0,0.07247875382565078,0.0,0.0,-0.07457882364960683,-0.2035025382366368,-0.18768875405843782,0.6699346013523974,0.15042740368852886,-0.036078113380132566
7148,3.0,300.25316000000004,1502.7815,0.0,0.0,0.0,0.07248889496932305,0.0,0.0,-0.11180539015683288,-0.17882663563631482,-0.16617603588529783,0.6793407641507133,0.14715197141526887,-0.033334739747632666
7149,3.0,299.85814,1559.9821,0.0,0.0,0.0,0.0724990361129953,0.0,0.0,-0.10861334836680289,-0.1793511850805838,-0.18623107219957583,0.6714149090859923,0.18287417461827582,-0.05376440198163335
7150,3.0,299.40349,1489.511,0.0,0.0,0.0,0.07250917725666757,0.0,0.0,-0.1146288723554889,-0.16075864356314284,-0.1773866147266958,0.7063580850821153,0.16325277894929485,-0.04791063323891136
7151,3.0,300.27281,1623.0449,0.0,0.0,0.0,0.07251931840033983,0.0,0.0,-0.1015309024203199,-0.2051603572552508,-0.18667385236077483,0.6920629398887943,0.1965334445788408,-0.06157233297321615
7152,3.0,299.22202999999996,1775.9818,0.0,0.0,0.0,0.07252945954401209,0.0,0.0,-0.15401559587015584,-0.17821543304349383,-0.20762309202080378,0.7012825734762014,0.17582310902738985,-0.03554054468532867
7153,3.0,299.1923,1677.7658,0.0,0.0,0.0,0.07253960068768435,0.0,0.0,-0.11611300004196087,-0.17599209887906783,-0.2178938104669448,0.6773025203820544,0.16901922579839884,-0.05187648906406086
7154,3.0,300.0646,1639.8296,0.0,0.0,0.0,0.07254974183135661,0.0,0.0,-0.13143674607429687,-0.16154881652112685,-0.2054816791269628,0.6578045385752535,0.14260097885612086,-0.013166040076886988
7155,3.0,301.30619,1812.7482,0.0,0.0,0.0,0.07255988297502887,0.0,0.0,-0.13948597447119387,-0.17407917388277686,-0.23746504012347475,0.6566770951889834,0.17039731686190582,-0.012342493700359287
7156,3.0,300.4676,1767.6243,0.0,0.0,0.0,0.07257002411870114,0.0,0.0,-0.1285772732320889,-0.17923026381364984,-0.22950610244298875,0.6964272309845163,0.16819376133943184,-0.01924906881373518
7157,3.0,300.92123,1615.0976,0.0,0.0,0.0,0.07258016526237339,0.0,0.0,-0.12800878926348389,-0.15677310535480085,-0.2061674569271438,0.6767718711721833,0.17653842306798584,-0.04168518409450736
7158,3.0,300.26115,1691.1828,0.0,0.0,0.0,0.07259030640604566,0.0,0.0,-0.12936366676719988,-0.17558913944679885,-0.20912453615148477,0.6947940238108313,0.16644593531443486,-0.026341846871487877
7159,3.0,300.94338,1800.96,0.0,0.0,0.0,0.07260044754971791,0.0,0.0,-0.14165010443227685,-0.1919722485911858,-0.2138244967403348,0.6746965424498643,0.16461447562618384,-0.03237215113938257
7160,3.0,299.75466,1703.1167,0.0,0.0,0.0,0.07261058869339018,0.0,0.0,-0.12215584125334288,-0.1902815597393278,-0.20526753885082882,0.7087587582790433,0.16517904844940284,-0.027819064192277875
7161,3.0,298.93594,1510.7502,0.0,0.0,0.0,0.07262072983706244,0.0,0.0,-0.08992809851821232,-0.17407403670476984,-0.1952281960650228,0.6929958797858684,0.15954523603838885,-0.07182583528690803
7162,3.0,298.30821000000003,1495.8857,0.0,0.0,0.0,0.0726308709807347,0.0,0.0,-0.08168574769200562,-0.16279257088637586,-0.21023357891593877,0.6975322511460733,0.14763223169766684,-0.03674249640445206
7163,3.0,300.48507,1642.5838,0.0,0.0,0.0,0.07264101212440696,0.0,0.0,-0.10942672475207689,-0.17394789719982082,-0.2159298176656138,0.6458327049337254,0.16115682045493984,-0.05104399771565036
7164,3.0,300.06165,1737.6007,0.0,0.0,0.0,0.07265115326807922,0.0,0.0,-0.1191851540801589,-0.18763347113298182,-0.2213685895648788,0.6527220659411525,0.16549618559820187,-0.04126391421968126
7165,3.0,300.33066,1740.1805,0.0,0.0,0.0,0.07266129441175148,0.0,0.0,-0.13909472821008087,-0.17928236513379184,-0.21059431621654082,0.6680537761192743,0.17453900704315883,-0.04846996147961275
7166,3.0,300.01259,1538.4976,0.0,0.0,0.0,0.07267143555542376,0.0,0.0,-0.09806960461496642,-0.16969768793285786,-0.1998975767658548,0.6740722790632544,0.18042808755186582,-0.026453436105000873
7167,3.0,300.8139,1574.2595,0.0,0.0,0.0,0.072681576699096,0.0,0.0,-0.10868456971633189,-0.17758208080348684,-0.1922689180879648,0.7027955889230243,0.15852912857310686,-0.04045178210553006
7168,3.0,299.76416,1910.8855,0.0,0.0,0.0,0.07269171784276827,0.0,0.0,-0.13667038549081686,-0.1982751911032378,-0.24591590059500978,0.7093377699161874,0.18358290253322182,-0.025418968547906876
7169,3.0,299.70661,1844.5041,0.0,0.0,0.0,0.07270185898644052,0.0,0.0,-0.14648678285711988,-0.2155343157540808,-0.1986620905214218,0.6943822085726883,0.1918310420572498,-0.05536744875284175
7170,3.0,299.06945,1480.5978,0.0,0.0,0.0,0.0727120001301128,0.0,0.0,-0.09729007078303241,-0.16228037296082584,-0.1904943118628248,0.6849649506857773,0.16283267532533385,-0.04542044851489926
7171,3.0,300.1198,1532.9095,0.0,0.0,0.0,0.07272214127378505,0.0,0.0,-0.12479864069416688,-0.15717590266705386,-0.1839916678885638,0.6667949648575393,0.14687818110574788,-0.03266561268634497
7172,3.0,299.75432,1743.8759,0.0,0.0,0.0,0.07273228241745731,0.0,0.0,-0.13804397772387986,-0.16823419001842185,-0.22381657140897576,0.6602014120843064,0.14970713485494386,-0.03319827015791417
7173,3.0,299.48811,1646.7747,0.0,0.0,0.0,0.07274242356112957,0.0,0.0,-0.12619408873188687,-0.14851839997012486,-0.2258659102662298,0.7108182397697983,0.15821836476743684,-0.02357619896203968
7174,3.0,298.96747999999997,1610.2854,0.0,0.0,0.0,0.07275256470480183,0.0,0.0,-0.09747980997025821,-0.1953544368949818,-0.1966523089480718,0.7105230192206624,0.16681867962872185,-0.04999527879589986
7175,3.0,299.43054,1644.4601,0.0,0.0,0.0,0.0727627058484741,0.0,0.0,-0.11533735709041087,-0.17578113007574683,-0.2087563109326438,0.7280928975446743,0.16468498770064285,-0.04023467199335296
7176,3.0,300.23381,1639.009,0.0,0.0,0.0,0.07277284699214637,0.0,0.0,-0.11410895346417689,-0.2111280862367198,-0.17298078037687384,0.6891063064944973,0.16253378681083583,-0.06672239749498793
7177,3.0,300.22061,1588.6032,0.0,0.0,0.0,0.07278298813581861,0.0,0.0,-0.11807871536846189,-0.2116447525952108,-0.15317224754692385,0.6830434839911433,0.18459257586036884,-0.07549343891862234
7178,3.0,299.59993,1516.6085,0.0,0.0,0.0,0.07279312927949089,0.0,0.0,-0.1153507826542359,-0.16330954121989685,-0.18235078027912083,0.6740761496786364,0.16875345029716882,-0.04652163960432836
7179,3.0,300.00063,1366.6605,0.0,0.0,0.0,0.07280327042316313,0.0,0.0,-0.05878314422419465,-0.18059558792589683,-0.17605192116497184,0.6917279695382353,0.14403582205772886,-0.06642162129555364
7180,3.0,300.08012,1388.7752,0.0,0.0,0.0,0.0728134115668354,0.0,0.0,-0.08618266005356633,-0.16214935972289585,-0.17382097749229483,0.6883914686814484,0.15182745188170285,-0.04460331702475466
7181,3.0,300.00347999999997,1757.2709,0.0,0.0,0.0,0.07282355271050767,0.0,0.0,-0.1117305109744429,-0.1964081663364768,-0.2260278073672078,0.7212256355219283,0.16044095925928983,-0.05660338285381895
7182,3.0,300.32616,1920.1529,0.0,0.0,0.0,0.07283369385417993,0.0,0.0,-0.15865555178808383,-0.2308353751166778,-0.19418759834482383,0.7030231142329794,0.17627155325664784,-0.043915558320628156
7183,3.0,299.07017,1727.8648,0.0,0.0,0.0,0.07284383499785219,0.0,0.0,-0.15373554367501685,-0.15790316292632886,-0.2135890478145978,0.6893775332812653,0.16663646686323885,-0.03144639417226747
7184,3.0,298.23536,1611.1185,0.0,0.0,0.0,0.07285397614152445,0.0,0.0,-0.1167328152606319,-0.1915211496466658,-0.18148581933125585,0.7022723263063823,0.18237837107934385,-0.03399527444807236
7185,3.0,298.81705,1627.8121,0.0,0.0,0.0,0.0728641172851967,0.0,0.0,-0.1065345948591459,-0.1894653259887718,-0.1988143009514438,0.6989884029972844,0.18410555719980382,-0.020119411132881283
7186,3.0,299.70052000000004,1505.8643,0.0,0.0,0.0,0.07287425842886897,0.0,0.0,-0.0956477615836991,-0.15225022035342684,-0.20984715572530183,0.6912158425401923,0.17473671240267083,-0.057935855371323744
7187,3.0,299.37207,1561.4897,0.0,0.0,0.0,0.07288439957254123,0.0,0.0,-0.10657467903310189,-0.17343259872896485,-0.19464661077262482,0.6836260521361384,0.13738206196355385,-0.016130274873434186
7188,3.0,298.86019,1488.0566,0.0,0.0,0.0,0.0728945407162135,0.0,0.0,-0.12615261640529388,-0.14743548892574987,-0.17874395442815483,0.6797887625499274,0.15760710137960984,-0.05270859841718366
7189,3.0,299.47516,1598.6557,0.0,0.0,0.0,0.07290468185988574,0.0,0.0,-0.14301097024408388,-0.15818655884679783,-0.1847538954087898,0.6992454848126564,0.17338557379182382,-0.023797352955365874
7190,3.0,300.8365,1894.9723,0.0,0.0,0.0,0.07291482300355802,0.0,0.0,-0.13191021758102486,-0.21024061087163282,-0.23387343328901078,0.6963830938101603,0.1979986954159498,-0.05496436975706095
7191,3.0,300.58859,1943.6389,0.0,0.0,0.0,0.07292496414723028,0.0,0.0,-0.16042973244818184,-0.16656670459385384,-0.26382127615963274,0.7063817039419463,0.16681394775075484,-0.005499187949727594
7192,3.0,300.37554,1750.6264,0.0,0.0,0.0,0.07293510529090254,0.0,0.0,-0.1065074397564659,-0.20648022696801183,-0.21915903560181282,0.6964908630907963,0.17550364140336083,-0.04104796630536886
7193,3.0,300.41804,1670.8343,0.0,0.0,0.0,0.0729452464345748,0.0,0.0,-0.10446532537242491,-0.1902567452443788,-0.2131698561157268,0.7038624500858154,0.16740192665128384,-0.03537111609635737
7194,3.0,300.1387,1713.2607,0.0,0.0,0.0,0.07295538757824706,0.0,0.0,-0.13677881338401787,-0.17794560454186384,-0.2060640446219378,0.6791381141307133,0.16925398571406783,-0.02132790439465028
7195,3.0,300.12351,1498.8267,0.0,0.0,0.0,0.07296552872191932,0.0,0.0,-0.11282359504982188,-0.17042399573703884,-0.17235829017793883,0.6574791231731374,0.13872608755869886,-0.04550862255185136
7196,3.0,299.81415,1397.7920000000001,0.0,0.0,0.0,0.07297566986559159,0.0,0.0,-0.08580183101673142,-0.14281829060506787,-0.1962737485782108,0.6616803114002624,0.16156711581793284,-0.03553968240949357
7197,3.0,299.22668,1515.7377,0.0,0.0,0.0,0.07298581100926384,0.0,0.0,-0.08440974088984282,-0.18515009646289182,-0.19118657446364584,0.6850821735898464,0.17531680821742182,-0.07334809866739372
7198,3.0,298.47738,1577.406,0.0,0.0,0.0,0.07299595215293611,0.0,0.0,-0.07858779022676102,-0.18171091284097082,-0.21919332398519678,0.6826140685987634,0.20286541670625782,-0.06065152167983914
7199,3.0,300.26773,1840.4687,0.0,0.0,0.0,0.07300609329660837,0.0,0.0,-0.13935567050833386,-0.20041082847150882,-0.21969003944921878,0.6881834788334213,0.15090848470350784,-0.05575607576244625
7200,3.0,301.14594,1944.1705,0.0,0.0,0.0,0.07301623444028063,0.0,0.0,-0.16244190529176783,-0.2000244255458738,-0.22851295522497278,0.6748729087622704,0.16085264277491987,-0.03963678553334616
7201,3.0,301.12208,1627.7186,0.0,0.0,0.0,0.07302637558395289,0.0,0.0,-0.15180536302952286,-0.15317807373499887,-0.18980237350203583,0.6859317230036903,0.1738259322852838,-0.03413020491088897
7202,3.0,300.08237,1488.9416,0.0,0.0,0.0,0.07303651672762514,0.0,0.0,-0.08755271604378032,-0.17073623888785483,-0.1943121065171118,0.6946064914823233,0.17745625540606882,-0.022194278826404776
7203,3.0,300.31883999999997,1791.7565,0.0,0.0,0.0,0.07304665787129741,0.0,0.0,-0.14498186327859586,-0.1855356685234448,-0.21413169390565281,0.6964809737698203,0.15698575615328786,-0.006815674623054714
7204,3.0,299.80831,1931.5714,0.0,0.0,0.0,0.07305679901496966,0.0,0.0,-0.1283069482379099,-0.18620539644204182,-0.27263714984719173,0.6878568171336824,0.16154434808818585,-0.01802054055773888
7205,3.0,300.53399,1567.5807,0.0,0.0,0.0,0.07306694015864193,0.0,0.0,-0.1298850447386559,-0.17135970180688584,-0.17526063363187783,0.7219816822165442,0.16299187718104582,-0.028671997861455873
7206,3.0,299.69452,1506.6992,0.0,0.0,0.0,0.0730770813023142,0.0,0.0,-0.11273446957102588,-0.17138435418181885,-0.17388011076813084,0.6971165652925483,0.18461365146244882,-0.03008883560878687
7207,3.0,299.78887000000003,1588.3314,0.0,0.0,0.0,0.07308722244598645,0.0,0.0,-0.1385943143831939,-0.16473338052541883,-0.17948539005632883,0.7113723558519853,0.14367055552917984,-0.03970491444356996
7208,3.0,299.33361,1640.2239,0.0,0.0,0.0,0.07309736358965872,0.0,0.0,-0.1028653224045169,-0.18691993028006082,-0.20880183625963677,0.6875414430400574,0.14978412159754187,-0.04737803554909805
7209,3.0,299.75415,1713.754,0.0,0.0,0.0,0.07310750473333097,0.0,0.0,-0.11954725926839589,-0.18165784893323383,-0.21973332549349078,0.7022830464924403,0.17889745168580384,-0.07738924505447384
7210,3.0,299.55207,1504.2055,0.0,0.0,0.0,0.07311764587700324,0.0,0.0,-0.09178329764305622,-0.17981726999408285,-0.18564034739127583,0.6848039857748913,0.17592051275950282,-0.06009252071892004
7211,3.0,299.35622,1208.8986,0.0,0.0,0.0,0.0731277870206755,0.0,0.0,-0.08568210133191502,-0.13940045616275387,-0.14239243172053886,0.6901298816130164,0.13650465830446085,-0.05972228723838084
7212,3.0,300.40741,1684.993,0.0,0.0,0.0,0.07313792816434776,0.0,0.0,-0.15705847711296483,-0.17359098998459685,-0.18154633062722783,0.6651280468530274,0.13657116804102487,-0.022415132897701376
7213,3.0,300.28405,1997.6702,0.0,0.0,0.0,0.07314806930802002,0.0,0.0,-0.16000229289349685,-0.23893607661865476,-0.2083034894629538,0.7157527778892994,0.16099703091416986,-0.04029863340591546
7214,3.0,300.24422000000004,1622.1562,0.0,0.0,0.0,0.07315821045169228,0.0,0.0,-0.11192047510319089,-0.17240348113239884,-0.2087710030590938,0.6961084929005593,0.19170863131266883,-0.014517378298003687
7215,3.0,300.17412,1370.5944,0.0,0.0,0.0,0.07316835159536454,0.0,0.0,-0.024549896844386177,-0.20456045240104478,-0.18751613677140183,0.6993439017948693,0.16744235533027382,-0.050837851982805354
7216,3.0,300.07752,1617.3467,0.0,0.0,0.0,0.07317849273903682,0.0,0.0,-0.09629544421987041,-0.18989976710164783,-0.2054377952651318,0.6893541677339593,0.17268776871295582,-0.06090755376810753
7217,3.0,300.50774,1873.7928,0.0,0.0,0.0,0.07318863388270906,0.0,0.0,-0.16466078115575383,-0.20268973940391982,-0.20223571216661082,0.7068179993025053,0.19153028916256784,-0.04485779276086946
7218,3.0,300.32142999999996,1585.9434,0.0,0.0,0.0,0.07319877502638134,0.0,0.0,-0.16227196298499585,-0.17093645710761485,-0.14887878263319185,0.6927895719330074,0.18640192643143783,-0.04373430510298986
7219,3.0,299.91735,1475.8744,0.0,0.0,0.0,0.07320891617005358,0.0,0.0,-0.1144901584167989,-0.14687703613313485,-0.18726177046629783,0.6768341049933253,0.14848237892906987,-0.009017455437978562
7220,3.0,298.94962000000004,1517.3717,0.0,0.0,0.0,0.07321905731372585,0.0,0.0,-0.1043903347325239,-0.14785168140432484,-0.20900109189180177,0.6854242265586044,0.16997537925526385,-0.03956769606202756
7221,3.0,298.85778,1830.2091,0.0,0.0,0.0,0.07322919845739811,0.0,0.0,-0.1142024359184029,-0.18359941850985184,-0.25853601165051776,0.7155687615386384,0.19047052075047682,-0.028418026723890873
7222,3.0,298.25802999999996,1943.6906,0.0,0.0,0.0,0.07323933960107037,0.0,0.0,-0.15876375676626284,-0.19325321963260783,-0.23881643204684674,0.7183340021215463,0.19614463011796782,-0.042206774848484355
7223,3.0,300.0759,1608.024,0.0,0.0,0.0,0.07324948074474263,0.0,0.0,-0.14778252708499987,-0.16053067242314384,-0.18048593400007482,0.6995076328785284,0.14969361809860987,-0.009260430988108382
7224,3.0,299.88171,1161.254,0.0,0.0,0.0,0.0732596218884149,0.0,0.0,-0.07375635942418593,-0.14911951059194986,-0.13011634947148387,0.6845781323276013,0.16331465813290183,-0.05308073984766115
7225,3.0,300.027,1438.2862,0.0,0.0,0.0,0.07326976303208715,0.0,0.0,-0.07844905197006863,-0.17384157686682783,-0.1849124690494398,0.7104970496205993,0.19045279900622783,-0.017467117538620285
7226,3.0,299.79344,1945.1161,0.0,0.0,0.0,0.07327990417575943,0.0,0.0,-0.12333172812689389,-0.2178176748544308,-0.25011732186965774,0.6973450126600943,0.1913102416383508,-0.04766126023030016
7227,3.0,299.66012,1875.9502,0.0,0.0,0.0,0.07329004531943167,0.0,0.0,-0.09918025844707941,-0.1980508170010938,-0.2730109378090817,0.6561856283604794,0.15098928126648187,-0.04269009311968416
7228,3.0,300.71177,1540.2198,0.0,0.0,0.0,0.07330018646310395,0.0,0.0,-0.08958897485549341,-0.18104344447009685,-0.1975559355197528,0.6663596523495774,0.15384016174784185,-0.08115533862240833
7229,3.0,300.61205,1557.2747,0.0,0.0,0.0,0.0733103276067762,0.0,0.0,-0.13780290526008787,-0.15835587293850784,-0.17721383531964383,0.6800957671977264,0.2029576731278628,-0.07546772060458413
7230,3.0,300.00795,1726.0058,0.0,0.0,0.0,0.07332046875044847,0.0,0.0,-0.16180316256122884,-0.14083005072884386,-0.2220294515451008,0.6862185639744993,0.1905078590166618,-0.033450247219282365
7231,3.0,300.05107999999996,1637.7571,0.0,0.0,0.0,0.07333060989412073,0.0,0.0,-0.12578176686869388,-0.16957153829540783,-0.2024839685736118,0.6841989640076803,0.14467833407863986,-0.045019561179084754
7232,3.0,300.25057000000004,1404.4476,0.0,0.0,0.0,0.07334075103779299,0.0,0.0,-0.07025012296364734,-0.14310711754607286,-0.21355976488670778,0.6796724211734454,0.16026035756146584,-0.015711349659339485
7233,3.0,299.9637,1435.8041,0.0,0.0,0.0,0.07335089218146525,0.0,0.0,-0.04322949579716905,-0.1890218466850038,-0.2041972529026998,0.7071492003626924,0.16953835435463283,-0.042423942715917165
7234,3.0,299.78992,1610.0492,0.0,0.0,0.0,0.0733610333251375,0.0,0.0,-0.10422331058603991,-0.19107869372549882,-0.1941127698249388,0.7200150346999513,0.15234522268280284,-0.03171039445932227
7235,3.0,299.21139,1898.6152,0.0,0.0,0.0,0.07337117446880977,0.0,0.0,-0.18163447325342683,-0.1926672165697738,-0.2028299326877558,0.6849677573885543,0.14092503279321786,-0.04276804954262786
7236,3.0,299.40574,1923.3926,0.0,0.0,0.0,0.07338131561248204,0.0,0.0,-0.16670524628002684,-0.21448952317846778,-0.2034685639607838,0.7041153674432763,0.15492066125697884,-0.04023685149431806
7237,3.0,300.54364,1561.8035,0.0,0.0,0.0,0.07339145675615429,0.0,0.0,-0.12927065040801985,-0.15733155814741587,-0.1881470572111688,0.7077402798085273,0.2139705162122458,-0.03965227610087496
7238,3.0,299.89763999999997,1642.0998,0.0,0.0,0.0,0.07340159789982656,0.0,0.0,-0.09136350204712561,-0.18108764243945882,-0.22670617830915782,0.7074773920700824,0.1928751456227948,-0.019502623505509083
7239,3.0,300.08724,1749.4689,0.0,0.0,0.0,0.0734117390434988,0.0,0.0,-0.12030060058524489,-0.16124036292568486,-0.2502538978506368,0.6927583030349214,0.16027053059246985,-0.026288643135237075
7240,3.0,299.7206,1619.9634,0.0,0.0,0.0,0.07342188018717108,0.0,0.0,-0.12039892637494888,-0.16362985997400986,-0.2083996266324418,0.6915650186571534,0.14249752602091087,-0.035828840683281266
7241,3.0,300.50493,1301.5082,0.0,0.0,0.0,0.07343202133084334,0.0,0.0,-0.11490428386516989,-0.14712804858040787,-0.13359365156216688,0.6999206133542863,0.16179460059788384,-0.06906441364362693
7242,3.0,301.27271,1389.0802,0.0,0.0,0.0,0.0734421624745156,0.0,0.0,-0.11528284423503088,-0.16266056466334786,-0.14430228656902688,0.6907845526351274,0.16304369479115985,-0.02858380254625167
7243,3.0,300.63646,1501.1023,0.0,0.0,0.0,0.07345230361818786,0.0,0.0,-0.12125920610735189,-0.15695241009249686,-0.17808599034321881,0.6810454662514543,0.16526118250250885,-0.05317462050917645
7244,3.0,299.59861,1749.4661,0.0,0.0,0.0,0.07346244476186012,0.0,0.0,-0.08212698872630271,-0.2178614877887548,-0.2318055215574238,0.6951679232302324,0.18212819962965382,-0.04193496240315856
7245,3.0,299.89392000000004,1929.1403,0.0,0.0,0.0,0.07347258590553238,0.0,0.0,-0.099631961288659,-0.22906347426930476,-0.25771503588949374,0.7089663529595314,0.19257247768542382,-0.06697465522663383
7246,3.0,299.67867,1628.9922,0.0,0.0,0.0,0.07348272704920464,0.0,0.0,-0.12781462014682088,-0.15897167568678286,-0.2083866570311618,0.7382102909856834,0.16102357806678982,-0.026286757476800975
7247,3.0,299.72893,1497.4018,0.0,0.0,0.0,0.0734928681928769,0.0,0.0,-0.1232600102848159,-0.17113692863989985,-0.16077582828483883,0.6847705282565894,0.13664053514287086,-0.06734182767862094
7248,3.0,299.65139,1638.2658,0.0,0.0,0.0,0.07350300933654916,0.0,0.0,-0.17453102263237083,-0.13766904478937686,-0.18579184854622782,0.7060238544041294,0.14405870124498688,-0.02167020662293288
7249,3.0,298.68211,1756.2838,0.0,0.0,0.0,0.07351315048022142,0.0,0.0,-0.14655264411361987,-0.17984626921194483,-0.20746750746794881,0.6774444665885633,0.2027802935653568,-0.05950475865391244
7250,3.0,300.39207000000005,1564.8144,0.0,0.0,0.0,0.07352329162389368,0.0,0.0,-0.1053314414254039,-0.16668530551805885,-0.2036477572409688,0.6716892566830683,0.2101427511769748,-0.04753929430251305
7251,3.0,301.12153,1432.2509,0.0,0.0,0.0,0.07353343276756595,0.0,0.0,-0.07882622925354313,-0.15125083151479485,-0.2052914312881868,0.6493012221460414,0.17683938874518884,-0.04567155924743196
7252,3.0,300.93507999999997,1683.3529999999998,0.0,0.0,0.0,0.0735435739112382,0.0,0.0,-0.14849474058028986,-0.1906599377241708,-0.17254261050362982,0.6947004096340924,0.16215680711113084,-0.04406923087054446
7253,3.0,299.79516,1933.2751,0.0,0.0,0.0,0.07355371505491047,0.0,0.0,-0.14840581775151385,-0.21059502549161077,-0.2286665031451268,0.7098147574007623,0.1867677097175378,-0.03429955142660217
7254,3.0,299.60797,1893.1515,0.0,0.0,0.0,0.07356385619858273,0.0,0.0,-0.17010622024067684,-0.1950060713781008,-0.21035848225576578,0.7415671277719773,0.15899294380638185,-0.04441010137643575
7255,3.0,299.58601,1748.4281,0.0,0.0,0.0,0.07357399734225499,0.0,0.0,-0.1085808331710939,-0.1793175958397688,-0.24358006527198078,0.6860697580648133,0.17779757883475483,-0.00931827064754171
7256,3.0,300.85663999999997,1467.6836,0.0,0.0,0.0,0.07358413848592726,0.0,0.0,-0.059511434958821344,-0.16271070027829584,-0.22391704528889178,0.7177166491006183,0.14284639816284186,-0.04400327234203486
7257,3.0,300.11621,1489.9001,0.0,0.0,0.0,0.07359427962959951,0.0,0.0,-0.07160229508959634,-0.17279580143861784,-0.20849433511928878,0.6952282825386894,0.19644694341780383,-0.029138507326746773
7258,3.0,299.89391,1741.0620000000001,0.0,0.0,0.0,0.07360442077327178,0.0,0.0,-0.15210938872202787,-0.16944712131562883,-0.2076828433792008,0.6901266290801953,0.17978162385556481,-0.01181956849600059
7259,3.0,299.00333,1649.2304,0.0,0.0,0.0,0.07361456191694403,0.0,0.0,-0.14143924708646688,-0.17065973850530486,-0.18922586459263882,0.6709129753839553,0.15898997498358886,-0.031614211693579766
7260,3.0,299.48807999999997,1465.8802,0.0,0.0,0.0,0.0736247030606163,0.0,0.0,-0.13196311936874588,-0.16660863288299183,-0.14701923565216884,0.6812145067656373,0.17376755894702284,-0.04128229964274576
7261,3.0,299.47067999999996,1757.9235,0.0,0.0,0.0,0.07363484420428856,0.0,0.0,-0.1049214095074369,-0.1920139134352978,-0.23742953583997078,0.6912742462759563,0.22318383725152977,-0.06787396129988843
7262,3.0,299.1674,1836.4683,0.0,0.0,0.0,0.07364498534796081,0.0,0.0,-0.11178206513953089,-0.2234520749505028,-0.2230063766290158,0.7023589591899323,0.18646096851476482,-0.06034069707916315
7263,3.0,299.40058999999997,1655.6613,0.0,0.0,0.0,0.07365512649163308,0.0,0.0,-0.1023646552651049,-0.18817143600857483,-0.21274360206365878,0.6504838167352543,0.17093804791027184,-0.07558296767095814
7264,3.0,300.39158,1490.0192,0.0,0.0,0.0,0.07366526763530533,0.0,0.0,-0.11844849085995589,-0.15728441162026285,-0.17719571840785583,0.6921354987284553,0.12743440817929688,-0.036113663259891064
7265,3.0,300.81819,1432.7899,0.0,0.0,0.0,0.0736754087789776,0.0,0.0,-0.08450084220633382,-0.16676730784865185,-0.18426421190046183,0.6928062601621544,0.15762151992853285,-0.04504916530725645
7266,3.0,300.85157000000004,1716.3397,0.0,0.0,0.0,0.07368554992264988,0.0,0.0,-0.13921895267234086,-0.1781089404579838,-0.2043965186673658,0.7092366272912053,0.14486056710912484,-0.006314037701972004
7267,3.0,299.218,2038.2939999999999,0.0,0.0,0.0,0.07369569106632212,0.0,0.0,-0.1059109698200989,-0.22177756770274176,-0.29190194227597877,0.6983915378933784,0.15802919097376686,-0.014874331109482185
7268,3.0,299.20699,1990.7781,0.0,0.0,0.0,0.0737058322099944,0.0,0.0,-0.13667254371352985,-0.21733163904646277,-0.2511426397783487,0.6937900246842443,0.16995928884367584,-0.03246362330541017
7269,3.0,300.63974,1670.6588,0.0,0.0,0.0,0.07371597335366664,0.0,0.0,-0.13208935006620387,-0.17132617336107683,-0.2044230252899818,0.7089979055676454,0.2007412189316158,-0.03925075143074756
7270,3.0,300.65098,1579.3104,0.0,0.0,0.0,0.07372611449733892,0.0,0.0,-0.14983223071228985,-0.17541434367204783,-0.15482435183497384,0.7110179209670053,0.16046562176672383,-0.043819631907160955
7271,3.0,300.48238,1764.4605,0.0,0.0,0.0,0.07373625564101118,0.0,0.0,-0.16938882903737584,-0.17575616359328283,-0.1912069407906558,0.6895702534502853,0.15620463151869685,-0.02378668545831308
7272,3.0,300.05801,1760.4335,0.0,0.0,0.0,0.07374639678468344,0.0,0.0,-0.14733060740789886,-0.17322473047094983,-0.21457248809665577,0.7001684036662413,0.13037751468475886,-0.04257341027791846
7273,3.0,299.84309,1516.9975,0.0,0.0,0.0,0.0737565379283557,0.0,0.0,-0.08192112265048533,-0.17639231240356584,-0.20281592957137382,0.6951803051464543,0.18301300001447682,-0.05315786439227274
7274,3.0,299.9116,1452.361,0.0,0.0,0.0,0.07376667907202795,0.0,0.0,-0.05656728176600604,-0.17177357394273185,-0.2131406137178408,0.7042217992337804,0.16670304752730983,-0.05399922674530875
7275,3.0,299.05542,1609.4603,0.0,0.0,0.0,0.07377682021570021,0.0,0.0,-0.12705849239219688,-0.17781583760155684,-0.18436143324755683,0.6777157339053353,0.18215485823978483,-0.056657878483947245
7276,3.0,298.82636,1750.6485,0.0,0.0,0.0,0.07378696135937249,0.0,0.0,-0.13307145285812985,-0.22041724904598878,-0.17866471827033484,0.7005744433788144,0.2060011217907278,-0.056120001761112946
7277,3.0,299.55177000000003,1663.3186,0.0,0.0,0.0,0.07379710250304473,0.0,0.0,-0.14540175412003586,-0.17903184917906784,-0.18117370790295284,0.7050399074970213,0.20957640516608078,-0.03825390787636676
7278,3.0,300.43048,1503.7220000000002,0.0,0.0,0.0,0.07380724364671701,0.0,0.0,-0.09222381420353182,-0.1847330528542328,-0.18013708212314583,0.7306518606722243,0.17878668318487184,-0.03670193904269937
7279,3.0,300.55522,1440.2508,0.0,0.0,0.0,0.07381738479038925,0.0,0.0,-0.04179450972729696,-0.17162201199277383,-0.22438376854995376,0.6882888163138173,0.14052055348579887,-0.04863500776190155
7280,3.0,300.25563999999997,1623.4183,0.0,0.0,0.0,0.07382752593406153,0.0,0.0,-0.08572095542024961,-0.19368468179018983,-0.21407298619485882,0.7133337040705553,0.13553026634579587,-0.047007847664813356
7281,3.0,299.36037000000005,1787.8123,0.0,0.0,0.0,0.07383766707773379,0.0,0.0,-0.13095441876169486,-0.2048873268833048,-0.2076085417493678,0.6801342403040234,0.17180867292619584,-0.06706053830510984
7282,3.0,300.36211000000003,1649.7772,0.0,0.0,0.0,0.07384780822140605,0.0,0.0,-0.15411812664777486,-0.17777934033295484,-0.16959360688258582,0.6939477269298083,0.15662005392719583,-0.057011846260631154
7283,3.0,299.60953,1629.7153,0.0,0.0,0.0,0.07385794936507831,0.0,0.0,-0.14326977458462586,-0.1852567613009188,-0.16686623145591484,0.6989292697214483,0.1824511224365238,-0.03923323436301876
7284,3.0,300.5216,1686.7461,0.0,0.0,0.0,0.07386809050875057,0.0,0.0,-0.12796580719424186,-0.18208470080286082,-0.2026781883527798,0.7128100260213723,0.2028349482757508,-0.05381067610045025
7285,3.0,299.96336,1685.0572,0.0,0.0,0.0,0.07387823165242283,0.0,0.0,-0.08547479441445542,-0.17951910088715584,-0.24722143281885578,0.7159678807530283,0.17739801379032083,-0.03281972903980507
7286,3.0,300.01239,1653.3755,0.0,0.0,0.0,0.0738883727960951,0.0,0.0,-0.12490784878994489,-0.15719665402910185,-0.2204803542622168,0.6913551137664373,0.15781772567789684,-0.027571129998808678
7287,3.0,299.04846000000003,1669.0772,0.0,0.0,0.0,0.07389851393976735,0.0,0.0,-0.14596685383330685,-0.15830857442383986,-0.20308236368516883,0.6959509021125063,0.15130107858725386,0.00026217592011724874
7288,3.0,298.94485,1712.401,0.0,0.0,0.0,0.07390865508343962,0.0,0.0,-0.16230992946624284,-0.17262120831388683,-0.18559600756689984,0.6888601272502013,0.17511223302223183,-0.033785100032829765
7289,3.0,297.58312,1981.5279999999998,0.0,0.0,0.0,0.07391879622711187,0.0,0.0,-0.1858997596818778,-0.2045498842025018,-0.2118853994939608,0.6840127083742984,0.1930114885562508,-0.0025699519262095075
7290,3.0,299.36132000000003,2123.1919,0.0,0.0,0.0,0.07392893737078414,0.0,0.0,-0.17006687573929383,-0.21319143834285678,-0.26213900741610574,0.7040424134360763,0.1848704495677928,-0.02317016634221738
7291,3.0,299.87221,1751.2187,0.0,0.0,0.0,0.0739390785144564,0.0,0.0,-0.08815648746036792,-0.19328845033858483,-0.25088180893760675,0.6922504519523003,0.15233436064173086,-0.022420769608007683
7292,3.0,300.3883,1377.7967,0.0,0.0,0.0,0.07394921965812866,0.0,0.0,-0.07430337870267252,-0.15903856032588387,-0.18547385013484383,0.7091443911346023,0.16934679942322783,-0.05763198673258424
7293,3.0,300.15447,1482.0813,0.0,0.0,0.0,0.07395936080180092,0.0,0.0,-0.08667228783313882,-0.18292928529121483,-0.18091414362483582,0.7123600315194614,0.15312233484699786,-0.07088827598262813
7294,3.0,300.65932000000004,1604.5488,0.0,0.0,0.0,0.07396950194547318,0.0,0.0,-0.14345168337507888,-0.17594715110463183,-0.16834393513675286,0.6906234762667304,0.17062053585893586,-0.061220059350699435
7295,3.0,300.54955,1464.3528,0.0,0.0,0.0,0.07397964308914544,0.0,0.0,-0.12204370486477588,-0.14185032265203687,-0.18123265879377082,0.6982829580126624,0.16405134161810683,-0.06292327704004394
7296,3.0,300.3451,1416.4677,0.0,0.0,0.0,0.0739897842328177,0.0,0.0,-0.06869592801951024,-0.18220206556194385,-0.17967283119232783,0.6779261150235983,0.1940754720887578,-0.053925591834041546
7297,3.0,299.99259,1374.6723,0.0,0.0,0.0,0.07399992537648996,0.0,0.0,-0.04248704590564496,-0.16652161496440385,-0.2088574130276218,0.7005437824307884,0.19279740907512283,-0.05388154585219455
7298,3.0,300.52669,1776.971,0.0,0.0,0.0,0.07401006652016222,0.0,0.0,-0.14179138189371987,-0.17940482654087783,-0.2189586147320328,0.6861587214235934,0.15790897898190284,-6.532885031445555e-05
7299,3.0,300.16535,2092.5723,0.0,0.0,0.0,0.07402020766383448,0.0,0.0,-0.18910397060560882,-0.20653026125794982,-0.24045549580610975,0.7135421296161254,0.14251298821743685,-0.018810471348948983
7300,3.0,299.80449,1998.6418,0.0,0.0,0.0,0.07403034880750674,0.0,0.0,-0.20287459675216382,-0.18315109587060582,-0.22151152875648578,0.7047106924070303,0.16768310355403382,-0.0013021442194866288
7301,3.0,299.62782999999996,1647.767,0.0,0.0,0.0,0.07404048995117901,0.0,0.0,-0.11989927248563688,-0.2004709851299458,-0.18050978590742883,0.7337997247578942,0.16863772700324786,-0.04815574553085205
7302,3.0,299.14901000000003,1614.3232,0.0,0.0,0.0,0.07405063109485127,0.0,0.0,-0.09385869729288222,-0.16267281485705684,-0.2341824441720078,0.6689592265411354,0.16551972339802484,-0.023441713316016976
7303,3.0,300.0281,1845.5314,0.0,0.0,0.0,0.07406077223852353,0.0,0.0,-0.13688253979675488,-0.16467604070225986,-0.25943688218192673,0.6993660109120514,0.13127565957339887,-0.039519146183486065
7304,3.0,300.08445,1762.1878,0.0,0.0,0.0,0.07407091338219579,0.0,0.0,-0.15152912065475987,-0.17604304509409582,-0.2080889236217778,0.6715675754785594,0.16393386540151283,-0.03130973003852977
7305,3.0,299.67235,1517.3107,0.0,0.0,0.0,0.07408105452586805,0.0,0.0,-0.12827435198219286,-0.15568200724961787,-0.17726820632000984,0.7039418382311503,0.14547132387190187,-0.048004738841948856
7306,3.0,300.39185,1593.0064,0.0,0.0,0.0,0.07409119566954031,0.0,0.0,-0.15549755520141384,-0.16467454109211183,-0.16406205167166385,0.6827820857303454,0.15734271403101685,-0.023300521980832475
7307,3.0,301.13847000000004,1724.9089,0.0,0.0,0.0,0.07410133681321257,0.0,0.0,-0.11972000827794488,-0.1754936710223768,-0.22911555532444478,0.7075465463894074,0.14248750497742185,-0.04248082151028066
7308,3.0,300.90076,1900.2036,0.0,0.0,0.0,0.07411147795688483,0.0,0.0,-0.10922219008689091,-0.2165122743530978,-0.25187997174361776,0.7306567141402034,0.2134714297429898,-0.037685626557781765
7309,3.0,300.67797,1967.6568,0.0,0.0,0.0,0.07412161910055709,0.0,0.0,-0.1053281787600819,-0.25383288972135576,-0.2389574764607668,0.7207691359543753,0.20013512311929882,-0.05030470713793805
7310,3.0,299.58038999999997,1664.7137,0.0,0.0,0.0,0.07413176024422935,0.0,0.0,-0.1199050986737119,-0.18436573956048183,-0.20176055866471682,0.6930938914680413,0.18380722597286084,-0.039238145586253464
7311,3.0,299.70738,1477.4651,0.0,0.0,0.0,0.07414190138790162,0.0,0.0,-0.11469038676905989,-0.18152585284270684,-0.15289624835218485,0.7072138558515734,0.12103145788237488,-0.04553312597901966
7312,3.0,299.55171,1631.5893,0.0,0.0,0.0,0.07415204253157387,0.0,0.0,-0.14385682129506286,-0.19174891813664482,-0.16035666698347084,0.6840729663577453,0.16455493705030785,-0.06589824012864993
7313,3.0,299.41127,1576.9625,0.0,0.0,0.0,0.07416218367524614,0.0,0.0,-0.095601759015909,-0.18746500817135583,-0.19629046720486082,0.7096296974024983,0.16915613615191083,-0.07669267816722802
7314,3.0,299.83587,1307.2166,0.0,0.0,0.0,0.07417232481891839,0.0,0.0,-0.028635128730067173,-0.19077018946755184,-0.17795588903037884,0.6743101192592273,0.18823121776447482,-0.059068566644863645
7315,3.0,299.584,1423.0118,0.0,0.0,0.0,0.07418246596259066,0.0,0.0,-0.07812243890633443,-0.15860017767011886,-0.19583744308515083,0.7049175474149453,0.17446438117329385,-0.049575944228764754
7316,3.0,300.17766,1896.5266,0.0,0.0,0.0,0.07419260710626294,0.0,0.0,-0.16331100030004086,-0.19289794375004482,-0.2202877759482108,0.7069549197885183,0.2046880205886348,-0.02955518920512007
7317,3.0,300.54603,2011.1556,0.0,0.0,0.0,0.07420274824993518,0.0,0.0,-0.16877039183884085,-0.23236376156751778,-0.21020694057080982,0.7155010359019544,0.16206081179665685,-0.04328517490341416
7318,3.0,299.69202,1832.4338,0.0,0.0,0.0,0.07421288939360746,0.0,0.0,-0.15082526647279487,-0.17572864372056685,-0.23046019900215076,0.7099625095303443,0.14178855492594086,-0.00958217639836218
7319,3.0,300.12566,1839.414,0.0,0.0,0.0,0.0742230305372797,0.0,0.0,-0.10757384495671189,-0.1904800149039138,-0.2610820558392927,0.7245013312402143,0.11398360429430589,-0.01977919316005438
7320,3.0,300.34474,1862.2731,0.0,0.0,0.0,0.07423317168095198,0.0,0.0,-0.12703764983763988,-0.18929548500700982,-0.24975139672854377,0.7114404057287014,0.1989695815292688,-0.027942249059935274
7321,3.0,300.07036,1757.6721,0.0,0.0,0.0,0.07424331282462424,0.0,0.0,-0.12412069531725888,-0.17597375905225782,-0.23419396482564478,0.6878238257104263,0.18723109938577082,-0.029485777520269676
7322,3.0,300.03934,1613.3933,0.0,0.0,0.0,0.0742534539682965,0.0,0.0,-0.12872628179179488,-0.18484603024038282,-0.17685895460461987,0.6649727865402043,0.21833167636515877,-0.05267803271466705
7323,3.0,299.44111000000004,1512.1757,0.0,0.0,0.0,0.07426359511196876,0.0,0.0,-0.12546840914276788,-0.15964612535084585,-0.17454912941165784,0.6773830636325033,0.17073832618306084,-0.03673663272612337
7324,3.0,299.44057000000004,1463.4137,0.0,0.0,0.0,0.074273736255641,0.0,0.0,-0.1157208621207599,-0.17916574004728184,-0.14995462119186884,0.7010577028815083,0.18804522557611883,-0.058936894794368644
7325,3.0,300.12171,1610.3745,0.0,0.0,0.0,0.07428387739931328,0.0,0.0,-0.07334732049131694,-0.19381162176271782,-0.2223547048272008,0.7199198499855574,0.14591747815593387,-0.05619292131780955
7326,3.0,298.78342000000004,1795.5925,0.0,0.0,0.0,0.07429401854298555,0.0,0.0,-0.10788676698509489,-0.19361049161786784,-0.24431801531981076,0.7189311306704783,0.14398231231994785,-0.04670768549493966
7327,3.0,298.40431,1798.2444,0.0,0.0,0.0,0.0743041596866578,0.0,0.0,-0.09890047476321691,-0.21195427010325782,-0.23576666070335775,0.7039037096298874,0.13466709885060787,-0.03679913505854186
7328,3.0,298.45333,1691.8343,0.0,0.0,0.0,0.07431430083033007,0.0,0.0,-0.11917645026179989,-0.2009796265476448,-0.1941193052880838,0.6952906683473463,0.18185153168984883,-0.07435316069333563
7329,3.0,299.79163,1696.3064,0.0,0.0,0.0,0.07432444197400231,0.0,0.0,-0.13171748727950386,-0.17535195786339083,-0.20856534368629678,0.7198210277033044,0.17741438791193684,-0.047315641634440256
7330,3.0,300.19948999999997,1573.0898,0.0,0.0,0.0,0.07433458311767459,0.0,0.0,-0.08608437479386631,-0.19706279682858382,-0.19503284144574282,0.6860910768469173,0.17080509936465083,-0.04683677659742996
7331,3.0,300.48747000000003,1479.0703,0.0,0.0,0.0,0.07434472426134685,0.0,0.0,-0.06556527196028854,-0.15023246450178984,-0.23380269829952977,0.7288661188284853,0.14143665316621087,-0.027758549856555573
7332,3.0,300.10956,1509.7266,0.0,0.0,0.0,0.07435486540501911,0.0,0.0,-0.07533016987700893,-0.17836494822824983,-0.2052240602890378,0.7087544519661183,0.17650356726454583,-0.037526656736342666
7333,3.0,299.31651,1568.5459,0.0,0.0,0.0,0.07436500654869137,0.0,0.0,-0.0994897982466286,-0.18261382000508083,-0.19469516571741682,0.7045338802645803,0.18669145251501182,-0.05459852263620465
7334,3.0,299.33285,1729.3355,0.0,0.0,0.0,0.07437514769236363,0.0,0.0,-0.13994039687604187,-0.18778292552273182,-0.1979514779612898,0.6697067720674124,0.18232165947124684,-0.04924608369846005
7335,3.0,299.99638,1894.1806,0.0,0.0,0.0,0.07438528883603589,0.0,0.0,-0.19991892594546182,-0.18281784804521684,-0.19304682058723782,0.6688561486084624,0.15550937983008084,-0.03693812865425947
7336,3.0,299.34737,1891.4389,0.0,0.0,0.0,0.07439542997970816,0.0,0.0,-0.15255845103384685,-0.19336729132886582,-0.22902444387545282,0.6845695906292584,0.1961694142154138,-0.03315858925749797
7337,3.0,300.48052,1734.5910000000001,0.0,0.0,0.0,0.0744055711233804,0.0,0.0,-0.11957041203318088,-0.16740172400126385,-0.24030022536078574,0.7399687054742253,0.15914895392427883,-0.02923715431673247
7338,3.0,300.35725,1530.4412,0.0,0.0,0.0,0.07441571226705268,0.0,0.0,-0.08667147115355822,-0.16572472415825684,-0.21281972754367182,0.7113989131371062,0.1380536339973329,-0.02867477517997997
7339,3.0,300.1571,1638.6714,0.0,0.0,0.0,0.07442585341072493,0.0,0.0,-0.1160947716726619,-0.15349160371344187,-0.2285288125890378,0.7141398965126203,0.1132677532311569,-0.038000926684149464
7340,3.0,300.81872000000004,1805.0115,0.0,0.0,0.0,0.0744359945543972,0.0,0.0,-0.13755526693564787,-0.2022118602592568,-0.20891129766793978,0.7002850490177533,0.16733967256513982,-0.06860285795807494
7341,3.0,300.02332,1678.3983,0.0,0.0,0.0,0.07444613569806946,0.0,0.0,-0.15861833511191084,-0.19145218784485982,-0.16012064050517685,0.7182626591820054,0.20124644569647782,-0.08157553546537852
7342,3.0,298.03705,1470.5913,0.0,0.0,0.0,0.07445627684174172,0.0,0.0,-0.07112429435492133,-0.18189974212960683,-0.1939989818387088,0.6798795598913884,0.1943665079149808,-0.07128153455843973
7343,3.0,299.52917,1489.9571,0.0,0.0,0.0,0.07446641798541398,0.0,0.0,-0.07379690665343763,-0.1919183031558618,-0.18719453118966184,0.6602131556529653,0.1875986761245478,-0.04925595376768416
7344,3.0,299.67174,1646.6162,0.0,0.0,0.0,0.07447655912908624,0.0,0.0,-0.09482973742021641,-0.1892512059776398,-0.2164492704618798,0.6689224658275074,0.19303167249824282,-0.037053915782936764
7345,3.0,300.39609,1811.0,0.0,0.0,0.0,0.0744867002727585,0.0,0.0,-0.12769118601963889,-0.19228372167192584,-0.23052387163843477,0.6968662215903414,0.18149230413189582,-0.03006847536127747
7346,3.0,300.59812,1727.1105,0.0,0.0,0.0,0.07449684141643077,0.0,0.0,-0.15457584211544784,-0.1857480356119038,-0.1846745781909618,0.6913002260085204,0.15676012562101985,-0.041031580024751664
7347,3.0,300.2441,1778.6186,0.0,0.0,0.0,0.07450698256010302,0.0,0.0,-0.16614121047936084,-0.16340616474943284,-0.2111082569322628,0.7083045081267123,0.16213368474384884,-0.02951624493752657
7348,3.0,300.58217,2089.1789,0.0,0.0,0.0,0.07451712370377529,0.0,0.0,-0.15138416509545385,-0.2135149488347848,-0.27015912513762974,0.7342963692944093,0.19927803512471082,-0.049581752178337955
7349,3.0,300.93462,2038.1865,0.0,0.0,0.0,0.07452726484744754,0.0,0.0,-0.15802394233824885,-0.17856787182577682,-0.28296597818656777,0.7139769557640394,0.18485320405109082,-0.00018614134890322084
7350,3.0,299.41362999999996,1655.0988,0.0,0.0,0.0,0.07453740599111981,0.0,0.0,-0.12586079024399288,-0.15827613015563785,-0.2189717768508318,0.7213471647389224,0.14478170585384187,-0.03812092994649286
7351,3.0,299.8874,1548.1913,0.0,0.0,0.0,0.07454754713479207,0.0,0.0,-0.1162005752481039,-0.15458062465591987,-0.1998302969592148,0.6789156449387573,0.14775482482726585,-0.021513763847243184
7352,3.0,300.31452,1605.1276,0.0,0.0,0.0,0.07455768827846433,0.0,0.0,-0.14200869364266686,-0.17410686600800984,-0.17180316084565184,0.7208571265930592,0.16970831692640684,-0.05869910931390104
7353,3.0,299.6517,1615.6178,0.0,0.0,0.0,0.07456782942213659,0.0,0.0,-0.12445842170808988,-0.1902932729104838,-0.17635577460495985,0.7076864356982133,0.18183746777846083,-0.04735905838797516
7354,3.0,300.37731,1551.3643,0.0,0.0,0.0,0.07457797056580885,0.0,0.0,-0.08739380803059732,-0.18844200418277782,-0.19574019134055282,0.6938736380824964,0.17990617255785682,-0.06518827402208173
7355,3.0,300.68336,1583.9015,0.0,0.0,0.0,0.07458811170948111,0.0,0.0,-0.093817516782318,-0.1762769437471798,-0.2113720363307958,0.6899656540368083,0.1871945919846678,-0.02939302561936577
7356,3.0,300.00234,1586.6279,0.0,0.0,0.0,0.07459825285315337,0.0,0.0,-0.10083313584495572,-0.1863904159103018,-0.19507170971957882,0.7012579514987713,0.17532512700074282,-0.05422601643569115
7357,3.0,300.02981,1886.0514,0.0,0.0,0.0,0.07460839399682563,0.0,0.0,-0.13996275930574886,-0.2118718726051258,-0.22147789898566678,0.6952587307041943,0.17720267943604281,-0.03528715312682087
7358,3.0,300.53877,1882.4174,0.0,0.0,0.0,0.07461853514049789,0.0,0.0,-0.18366787368660784,-0.19255600223879782,-0.1959839995796148,0.6945437105061273,0.13523621103427488,-0.038672647665693165
7359,3.0,300.4399,1680.4097,0.0,0.0,0.0,0.07462867628417015,0.0,0.0,-0.1269510676165949,-0.18272329154588482,-0.2011282399398118,0.6787651367689034,0.17203778903880781,-0.05448283987228764
7360,3.0,300.19237000000004,1596.5271,0.0,0.0,0.0,0.07463881742784241,0.0,0.0,-0.07863575242024452,-0.18540267944781985,-0.2212659371972478,0.7268253419345763,0.17018874946132184,-0.07956795365799563
7361,3.0,301.31622999999996,1711.9011,0.0,0.0,0.0,0.07464895857151468,0.0,0.0,-0.11627085427503989,-0.16907954457685181,-0.23502476911263878,0.7134479885493343,0.19643726687934882,-0.05244072852799695
7362,3.0,301.10058,1752.2482,0.0,0.0,0.0,0.07465909971518693,0.0,0.0,-0.12250369001267288,-0.19775464399686382,-0.2123813550204078,0.7221571062063573,0.15253033334357186,-0.053919847719224645
7363,3.0,301.02622,1540.1792,0.0,0.0,0.0,0.0746692408588592,0.0,0.0,-0.1363416162308699,-0.16151348449013983,-0.17032090767186484,0.7044568631244794,0.15704217391885586,-0.026261717027079676
7364,3.0,301.27215,1589.1388,0.0,0.0,0.0,0.07467938200253145,0.0,0.0,-0.12917593178867187,-0.1847953778678838,-0.16908720474760783,0.7231498379918323,0.14643299954181185,-0.044716639929188756
7365,3.0,300.27374,1813.7664,0.0,0.0,0.0,0.07468952314620372,0.0,0.0,-0.13500649710410387,-0.19293983150917882,-0.22339335710720779,0.6768165048390884,0.17679239420555085,-0.02113271797488688
7366,3.0,298.32198,1898.8638,0.0,0.0,0.0,0.07469966428987598,0.0,0.0,-0.11235706430627888,-0.19351084860303383,-0.2713392575290997,0.6738522518040394,0.16235615393580485,-0.028804175323750774
7367,3.0,300.47842,1903.4237,0.0,0.0,0.0,0.07470980543354824,0.0,0.0,-0.14531542521151586,-0.18282868982128683,-0.25044916127740774,0.6587296764465574,0.2168594543673618,-0.0003183256709012977
7368,3.0,300.70464,1817.0106,0.0,0.0,0.0,0.0747199465772205,0.0,0.0,-0.1164629664939999,-0.19509172140905381,-0.24077116374226376,0.7019887885308993,0.18479620873296582,-0.03624047353640626
7369,3.0,300.5211,1758.5822,0.0,0.0,0.0,0.07473008772089276,0.0,0.0,-0.15913415034031786,-0.18822891768674782,-0.18720199884289881,0.6988929751028663,0.19392493352140083,-0.03227242098503997
7370,3.0,299.90988,1791.6553,0.0,0.0,0.0,0.07474022886456502,0.0,0.0,-0.15334416569139087,-0.18419827971645483,-0.2070760078943108,0.7059101677429094,0.12984951005764886,-0.05891749713445424
7371,3.0,299.98206,1785.5547,0.0,0.0,0.0,0.0747503700082373,0.0,0.0,-0.11209542286545689,-0.20264685865968782,-0.22802177210649677,0.7012015438657043,0.15388978060523884,-0.06376456643907275
7372,3.0,300.68927,1415.6731,0.0,0.0,0.0,0.07476051115190954,0.0,0.0,-0.05149703500761165,-0.18392940366991883,-0.1949028414579128,0.7112711828295003,0.16525150596405386,-0.08280576800804301
7373,3.0,301.58351,1264.6166,0.0,0.0,0.0,0.07477065229558182,0.0,0.0,-0.053630007528119646,-0.17312639454874482,-0.15765547393938384,0.7018964003867814,0.19755756685241382,-0.07772866458622193
7374,3.0,300.88979,1416.1059,0.0,0.0,0.0,0.07478079343925406,0.0,0.0,-0.0957442128607181,-0.16824379562936986,-0.16647281683958784,0.6956857750913403,0.16826788058424685,-0.058720186942481246
7375,3.0,299.75198,1676.5149,0.0,0.0,0.0,0.07479093458292634,0.0,0.0,-0.16048876439900783,-0.18476330850221884,-0.16436659412171983,0.6938161868018263,0.2030394120134298,-0.04895579970381125
7376,3.0,299.14763999999997,1635.1118,0.0,0.0,0.0,0.07480107572659861,0.0,0.0,-0.12672855789463489,-0.2012266771870268,-0.16907792337669184,0.7474568060982433,0.17502040216566883,-0.04308191186710366
7377,3.0,300.28417,1672.7732,0.0,0.0,0.0,0.07481121687027086,0.0,0.0,-0.07580262408063652,-0.19405802392203583,-0.23862063159752278,0.6840157379920974,0.17677994136182182,-0.05527383558935285
7378,3.0,300.31125,1777.1627,0.0,0.0,0.0,0.07482135801394313,0.0,0.0,-0.1113202764064559,-0.18593350091020783,-0.24295930773071678,0.7126742201104693,0.12844028181856887,-0.03151310250585107
7379,3.0,299.35294,1873.1419,0.0,0.0,0.0,0.07483149915761537,0.0,0.0,-0.13686257876978486,-0.17775528577558083,-0.25477052096639274,0.6924210934016414,0.1884093775295578,-0.025924593520058176
7380,3.0,299.57237000000003,1926.2358,0.0,0.0,0.0,0.07484164030128765,0.0,0.0,-0.16643616758347082,-0.1944104728368198,-0.22468095480428377,0.7203175709148093,0.18684900277306082,-0.045564943045409756
7381,3.0,299.45105,1685.2627,0.0,0.0,0.0,0.07485178144495991,0.0,0.0,-0.16194851328807383,-0.16376502753734984,-0.18656423896495683,0.6986011692065673,0.19292475434769082,-0.039412770121737564
7382,3.0,299.57178,1337.4162,0.0,0.0,0.0,0.07486192258863217,0.0,0.0,-0.08659837225159392,-0.15230108550844687,-0.16764168188994583,0.6878224679552923,0.14045165247899885,-0.06030257658390094
7383,3.0,300.607,1440.8578,0.0,0.0,0.0,0.07487206373230443,0.0,0.0,-0.07699137821720742,-0.15359798484144085,-0.2073954248558348,0.7166599812338333,0.18528155553086584,-0.03299629496248077
7384,3.0,300.27932000000004,1671.3193,0.0,0.0,0.0,0.07488220487597667,0.0,0.0,-0.0976261455762004,-0.18676733481500082,-0.22364585903212778,0.7147738567026873,0.16700406386701785,-0.04310415068029846
7385,3.0,299.60373,1822.6323,0.0,0.0,0.0,0.07489234601964895,0.0,0.0,-0.11794327422759487,-0.2102423333968028,-0.2258491004470708,0.7037253370822834,0.1887967126452848,-0.02335535603649418
7386,3.0,300.28481,1851.1168,0.0,0.0,0.0,0.07490248716332122,0.0,0.0,-0.14985384333692284,-0.1900480359887808,-0.2227914257528018,0.6920057115231464,0.13970636650044485,-0.028846148195893172
7387,3.0,299.93736,1876.3703,0.0,0.0,0.0,0.07491262830699347,0.0,0.0,-0.18014197612112884,-0.20038082613604782,-0.1898468957114298,0.6823155853843054,0.2020242671357428,-0.03438246568228517
7388,3.0,301.60374,2097.2639,0.0,0.0,0.0,0.07492276945066574,0.0,0.0,-0.15494275010915884,-0.23077962609617578,-0.2517934807150818,0.6861017058404664,0.18085940785443383,-0.04795641390492955
7389,3.0,299.99814,2035.0907,0.0,0.0,0.0,0.07493291059433799,0.0,0.0,-0.1182224144976439,-0.23409019788290375,-0.26630413407217174,0.6865209887318463,0.18126744366970382,-0.05750544598059565
7390,3.0,299.97802,1736.6301,0.0,0.0,0.0,0.07494305173801026,0.0,0.0,-0.09610353059793,-0.1981816377215048,-0.23360701944021778,0.6886499791794614,0.1292993152533489,-0.035641784582320264
7391,3.0,299.93221,1398.3374,0.0,0.0,0.0,0.07495319288168252,0.0,0.0,-0.07285082490256663,-0.15178624300013585,-0.2004225821726688,0.7214433525709153,0.17066330514565684,-0.06417582844266115
7392,3.0,299.60868,1365.6296,0.0,0.0,0.0,0.07496333402535478,0.0,0.0,-0.1051556627980559,-0.16764953457822085,-0.14231210125261085,0.7270554915622902,0.1956127650079768,-0.05973792270067395
7393,3.0,299.4713,1637.8557,0.0,0.0,0.0,0.07497347516902704,0.0,0.0,-0.13953592770112386,-0.2005122142765148,-0.15781909356553186,0.7120160837730163,0.19650322946085882,-0.08370957696474202
7394,3.0,299.97836,1657.6909,0.0,0.0,0.0,0.0749836163126993,0.0,0.0,-0.12268473754054089,-0.16954338007512884,-0.2116685133100558,0.7124965467054343,0.14734802517711787,-0.044690437281602755
7395,3.0,299.63475,1524.7869,0.0,0.0,0.0,0.07499375745637156,0.0,0.0,-0.07917497068621122,-0.18430150963664282,-0.20002067652050382,0.6802865925890593,0.17664736771873785,-0.059683877966840146
7396,3.0,299.70074,1749.1660000000002,0.0,0.0,0.0,0.07500389860004383,0.0,0.0,-0.10889589315718791,-0.16732129220832584,-0.2554856019594658,0.7011501214231294,0.15785407095898385,-0.006018380543367915
7397,3.0,299.23647,1985.4227,0.0,0.0,0.0,0.07501403974371608,0.0,0.0,-0.15711548256359084,-0.20499451861138382,-0.24140890335520376,0.6902866212709854,0.15493694418608586,-0.017033544781079983
7398,3.0,299.28437,2023.2967,0.0,0.0,0.0,0.07502418088738835,0.0,0.0,-0.17709826401323783,-0.2064654335165518,-0.23146798768411178,0.6801836261138974,0.12484847233408489,-0.004963793183013245
7399,3.0,300.29114,1867.7413,0.0,0.0,0.0,0.0750343220310606,0.0,0.0,-0.18240707645467683,-0.16519292997577284,-0.22014671126928878,0.7065162534227254,0.1871910253443158,-0.04147498333476216
7400,3.0,300.18357000000003,1763.4825,0.0,0.0,0.0,0.07504446317473286,0.0,0.0,-0.12131906892325989,-0.2129954149785108,-0.2017401518077028,0.7084936109928753,0.20167620559389182,-0.04774089560865955
7401,3.0,300.55722000000003,1590.5417,0.0,0.0,0.0,0.07505460431840513,0.0,0.0,-0.08278737042597734,-0.17411038198585685,-0.2265872126149168,0.7252306078671883,0.18129833766525283,-0.06984024911269593
7402,3.0,299.74111,1637.6973,0.0,0.0,0.0,0.07506474546207739,0.0,0.0,-0.08363639294976932,-0.1834487583524828,-0.2307339386491668,0.7173972929341004,0.15184387666582386,-0.03911453312705386
7403,3.0,300.05359,1675.9287,0.0,0.0,0.0,0.07507488660574965,0.0,0.0,-0.11261423731415991,-0.2109088189150798,-0.18591741049861982,0.7209054890203324,0.16507433918406883,-0.06931432164829093
7404,3.0,301.2122,1623.8253,0.0,0.0,0.0,0.07508502774942191,0.0,0.0,-0.14887166961748985,-0.17589102718159283,-0.16883965761567685,0.7274402428902623,0.17637577616193384,-0.03154819844956477
7405,3.0,299.73171,1589.5489,0.0,0.0,0.0,0.07509516889309417,0.0,0.0,-0.1317503165827439,-0.2031763122344408,-0.14825653561428087,0.6881311748632594,0.17498106779678682,-0.07841145025885762
7406,3.0,299.13251,1869.9446,0.0,0.0,0.0,0.07510531003676643,0.0,0.0,-0.11910773164001788,-0.2158174178320208,-0.23349131641129878,0.6792249597967843,0.18202506090197482,-0.03432655150201686
7407,3.0,300.10462,2055.1478,0.0,0.0,0.0,0.07511545118043869,0.0,0.0,-0.11479732518461389,-0.22982728245968678,-0.28008900651513274,0.7009915680474813,0.2064371638387618,-0.05060866696918655
7408,3.0,299.82056,1937.8084,0.0,0.0,0.0,0.07512559232411095,0.0,0.0,-0.11986980717272888,-0.2070719954239148,-0.26210357406010876,0.7072678722144043,0.19963060562950682,-0.02888325848080568
7409,3.0,300.2313,1714.8988,0.0,0.0,0.0,0.07513573346778321,0.0,0.0,-0.1157987101259429,-0.18172821915267884,-0.22375949503084278,0.7221661139997463,0.14602432537897886,-0.05066836969157875
7410,3.0,300.25256,1468.486,0.0,0.0,0.0,0.07514587461145547,0.0,0.0,-0.13019678126442188,-0.16009784237792685,-0.15608845226223084,0.7183356233217063,0.14542570735239987,-0.03541327540651817
7411,3.0,299.64301,1548.3469,0.0,0.0,0.0,0.07515601575512774,0.0,0.0,-0.11623961577445689,-0.19217589159628382,-0.16224328800716584,0.7459091071004973,0.16608472178628583,-0.09445836403331472
7412,3.0,300.16909,1731.7301,0.0,0.0,0.0,0.0751661568988,0.0,0.0,-0.14271885024025385,-0.17414616997938884,-0.2095376787472588,0.7311126361551994,0.19658465423889482,-0.05969805738873954
7413,3.0,299.8679,1585.9379999999999,0.0,0.0,0.0,0.07517629804247226,0.0,0.0,-0.09140463696143532,-0.18807007046857083,-0.2026108578836348,0.6974932815472273,0.16838033108034484,-0.06953082685015834
7414,3.0,299.50279,1429.8827,0.0,0.0,0.0,0.07518643918614452,0.0,0.0,-0.08773841641610751,-0.14374258747878885,-0.20316763881358482,0.6909274208992273,0.16472087701918484,-0.016194537221276385
7415,3.0,299.28874,1660.3543,0.0,0.0,0.0,0.07519658032981678,0.0,0.0,-0.0977139487636159,-0.19589976809880183,-0.2110925414232118,0.7261511151855353,0.16497098767386884,-0.027594582685623273
7416,3.0,298.46459,1949.0887,0.0,0.0,0.0,0.07520672147348904,0.0,0.0,-0.19090594471594982,-0.2150583111221028,-0.18651004021710782,0.7309624420928763,0.18846922008046382,-0.01899079136324518
7417,3.0,299.38596,2012.935,0.0,0.0,0.0,0.0752168626171613,0.0,0.0,-0.16533682162247385,-0.2025906840741438,-0.24395448144893278,0.7413101776791183,0.14560785932287687,-0.036573932117816066
7418,3.0,299.70897,1796.3355,0.0,0.0,0.0,0.07522700376083356,0.0,0.0,-0.13697497860337787,-0.19503313528827182,-0.2140330236109148,0.6754508564868094,0.18594957105679383,-0.03854072858217376
7419,3.0,298.77224,1544.0545,0.0,0.0,0.0,0.07523714490450582,0.0,0.0,-0.05736117639160735,-0.18966220048320184,-0.22233064013732576,0.7168882563488623,0.1990714638268238,-0.06392788614319114
7420,3.0,300.07467,1591.749,0.0,0.0,0.0,0.07524728604817808,0.0,0.0,-0.07756156849898084,-0.17698169972173383,-0.22930868079350478,0.6999759266772453,0.22820466374954676,-0.04684769031425705
7421,3.0,300.10265,1729.7403,0.0,0.0,0.0,0.07525742719185036,0.0,0.0,-0.1040577252546979,-0.2221114944056978,-0.1996286500568138,0.7179532632639704,0.17637420562427883,-0.07971256065926723
7422,3.0,300.30124,1597.4856,0.0,0.0,0.0,0.0752675683355226,0.0,0.0,-0.13526227182684689,-0.17227456532217583,-0.17805889603554484,0.7183212149052843,0.14873773821927186,-0.04238313204163946
7423,3.0,300.38159,1371.5879,0.0,0.0,0.0,0.07527770947919488,0.0,0.0,-0.07891032293234253,-0.1877800377599468,-0.15023810830484685,0.7545677547700392,0.14754077574364086,-0.09089320809271122
7424,3.0,300.15988,1626.4638,0.0,0.0,0.0,0.07528785062286712,0.0,0.0,-0.1023839171495059,-0.2043412458744108,-0.18767922950749782,0.7231157623909693,0.17285360735682284,-0.06191450753198614
7425,3.0,299.87685,2124.6416,0.0,0.0,0.0,0.0752979917665394,0.0,0.0,-0.13477916431166787,-0.24087439366245175,-0.2701844361251277,0.7458015911323863,0.15075237326060084,-0.03605294526089867
7426,3.0,300.55638,2081.5184,0.0,0.0,0.0,0.07530813291021167,0.0,0.0,-0.15102531244003786,-0.22404199929122381,-0.25766230635428977,0.6763214916352344,0.18667415633580484,-0.015927879179209285
7427,3.0,301.21792,1812.5014,0.0,0.0,0.0,0.07531827405388392,0.0,0.0,-0.13973180921045586,-0.2033216933587888,-0.2079016547382958,0.7269847768378114,0.16946949387783683,-0.009165467770186241
7428,3.0,300.15039,1763.0179,0.0,0.0,0.0,0.07532841519755618,0.0,0.0,-0.15209567944817487,-0.18577856483741684,-0.19803918488994582,0.6888156253058093,0.17744416733237584,-0.016566289563715485
7429,3.0,299.39621,1890.9687,0.0,0.0,0.0,0.07533855634122844,0.0,0.0,-0.15544918264163984,-0.18885139775318183,-0.23050667678423778,0.7059133189507204,0.12023186169846088,-0.03439979833849577
7430,3.0,299.26566,1965.0717,0.0,0.0,0.0,0.0753486974849007,0.0,0.0,-0.14201477314326688,-0.18572956406258082,-0.26958840188630373,0.6907292494446693,0.14763097526754287,-0.02845886475592127
7431,3.0,299.54033,1763.985,0.0,0.0,0.0,0.07535883862857297,0.0,0.0,-0.1046944009550329,-0.19463523197400182,-0.23687776036551478,0.7246854691808874,0.17428862281094784,-0.07628227337322423
7432,3.0,299.44346,1580.7187,0.0,0.0,0.0,0.07536897977224521,0.0,0.0,-0.09581026866123732,-0.19865316378804082,-0.18603558585778282,0.7274379630775374,0.2201297697276168,-0.051555031416835456
7433,3.0,300.10002000000003,1580.8366,0.0,0.0,0.0,0.07537912091591749,0.0,0.0,-0.13815881949021389,-0.17467426579900783,-0.16770177775337686,0.7228669689614153,0.1861125624678798,-0.05302456830186745
7434,3.0,300.73054,1869.5723,0.0,0.0,0.0,0.07538926205958973,0.0,0.0,-0.16919300832304984,-0.2199945109717678,-0.17911577668485085,0.7233606345426363,0.17963761061885183,-0.049811419499004354
7435,3.0,300.44082000000003,1791.5454,0.0,0.0,0.0,0.07539940320326201,0.0,0.0,-0.11692431952953188,-0.2011064955926658,-0.22655424145666278,0.7456747423523673,0.13610252973727388,-0.05157622658242725
7436,3.0,300.7991,1542.2226,0.0,0.0,0.0,0.07540954434693428,0.0,0.0,-0.08309891950047484,-0.17722457577070383,-0.2084736546847478,0.6937191985022543,0.15059892666545685,-0.050596461358481955
7437,3.0,299.64825,1621.7459,0.0,0.0,0.0,0.07541968549060653,0.0,0.0,-0.07803539970949433,-0.17505191424377883,-0.23988295883710478,0.7105242756507864,0.13099352008305387,-0.06313151108134503
7438,3.0,300.42343,1884.5881,0.0,0.0,0.0,0.0754298266342788,0.0,0.0,-0.14613375638977888,-0.18803626844523483,-0.23869768926762777,0.7055877211635863,0.17735392727846985,-0.04010107902066836
7439,3.0,299.84916,1808.8772,0.0,0.0,0.0,0.07543996777795105,0.0,0.0,-0.15749943342398384,-0.2194073832013228,-0.17294668451100884,0.7146619229641403,0.2023731494101748,-0.05280725655292045
7440,3.0,300.22832999999997,1783.0918,0.0,0.0,0.0,0.07545010892162332,0.0,0.0,-0.14877778186322385,-0.19796499471762383,-0.1952726068169058,0.7128790992806894,0.2060269596682778,-0.06390382854606684
7441,3.0,300.04438999999996,1644.9889,0.0,0.0,0.0,0.07546025006529558,0.0,0.0,-0.1078892595803409,-0.17554721115766084,-0.21659907948916476,0.7070516851730683,0.16259888812976087,-0.03949602888245456
7442,3.0,299.83885,1573.9246,0.0,0.0,0.0,0.07547039120896784,0.0,0.0,-0.07676298759166703,-0.17874793650104784,-0.22292285442327278,0.7063738715186734,0.17258939226074682,-0.04767609522501425
7443,3.0,299.31368,1716.4277,0.0,0.0,0.0,0.0754805323526401,0.0,0.0,-0.10187952124972591,-0.15833404753135383,-0.26153757255424875,0.7185976295325643,0.15756592289554586,-0.03788392466860226
7444,3.0,300.27943,1728.9834,0.0,0.0,0.0,0.07549067349631236,0.0,0.0,-0.14188422600038286,-0.1985527912331348,-0.18513077378348483,0.6851038571419863,0.18508487355395484,-0.044045292836931954
7445,3.0,298.66424,1629.1429999999998,0.0,0.0,0.0,0.07550081463998462,0.0,0.0,-0.15970055714621784,-0.15389690375344187,-0.18162132126712882,0.7033698990797044,0.13182812405792288,-0.005869802513629405
7446,3.0,298.96421000000004,1731.1447,0.0,0.0,0.0,0.0755109557836569,0.0,0.0,-0.17467555262663484,-0.16173488976949085,-0.18981430958821383,0.7219693408303263,0.1975609612402488,-0.03293895108632137
7447,3.0,298.91222999999997,1940.346,0.0,0.0,0.0,0.07552109692732914,0.0,0.0,-0.13591663887392788,-0.20774571554790577,-0.24615437913854576,0.7184724728802123,0.17885270656138783,-0.016564442408783183
7448,3.0,298.84177,1968.6646,0.0,0.0,0.0,0.07553123807100141,0.0,0.0,-0.1166075572832699,-0.2037225857608538,-0.27809473780081373,0.7275058204367343,0.17602008484682982,-0.04889025255484225
7449,3.0,299.88011,1862.4236,0.0,0.0,0.0,0.07554137921467366,0.0,0.0,-0.08563217849948801,-0.19406268487249584,-0.28643539719147276,0.7111018890027924,0.14833207340923588,-0.03814347070821746
7450,3.0,300.61582999999996,1645.9119,0.0,0.0,0.0,0.07555152035834593,0.0,0.0,-0.13652867233183086,-0.1915335822253928,-0.17225386462263284,0.7306009752522022,0.17119733861086184,-0.06448648484382054
7451,3.0,299.32607,1505.6027,0.0,0.0,0.0,0.0755616615020182,0.0,0.0,-0.13626546035335385,-0.15299053127398984,-0.16840963427323682,0.7142428933852852,0.18175301338262584,-0.035721330794670866
7452,3.0,300.49979,1518.6467,0.0,0.0,0.0,0.07557180264569045,0.0,0.0,-0.14471190305445286,-0.17892128332815582,-0.13799749994179286,0.6681917909153954,0.18478413079177383,-0.08635093556392381
7453,3.0,300.70982000000004,1558.8412,0.0,0.0,0.0,0.07558194378936271,0.0,0.0,-0.08670074496219732,-0.1769546256790618,-0.21019342381447578,0.7117289489596783,0.17226490904872283,-0.03874838709741806
7454,3.0,299.89553,1555.6266,0.0,0.0,0.0,0.07559208493303497,0.0,0.0,-0.08904590117289622,-0.16834791720964584,-0.2154778169285048,0.7111195398195342,0.19975059470634882,-0.06066564537298304
7455,3.0,299.76793,1764.4851,0.0,0.0,0.0,0.07560222607670723,0.0,0.0,-0.08371773768104741,-0.2141223010772258,-0.23851938764753075,0.7536449879039693,0.20004756817815783,-0.04444134696976946
7456,3.0,300.22171000000003,1766.9228,0.0,0.0,0.0,0.07561236722037949,0.0,0.0,-0.15019530862062286,-0.17479517693344085,-0.21210993571612077,0.7211124250882553,0.14632159269331685,-0.06154920148668323
7457,3.0,299.43709,1847.1767,0.0,0.0,0.0,0.07562250836405175,0.0,0.0,-0.15776622217531386,-0.2005881168415058,-0.2031412436484798,0.7218687554928993,0.14428514237733486,-0.030417666676989974
7458,3.0,299.0037,1936.6126,0.0,0.0,0.0,0.07563264950772403,0.0,0.0,-0.18712454600525483,-0.2018607589671058,-0.1996965682110168,0.7078083904802492,0.18002356771444283,-0.05087561986703275
7459,3.0,298.63457,1774.2956,0.0,0.0,0.0,0.07564279065139627,0.0,0.0,-0.11502307730689389,-0.18905718884849182,-0.23526129208348176,0.7091830668909193,0.1932135711561948,-0.02276470114245108
7460,3.0,299.71824,1478.3505,0.0,0.0,0.0,0.07565293179506855,0.0,0.0,-0.06263308322465404,-0.16688140994241282,-0.21986715556669878,0.6892706961907213,0.17691439965009184,-0.06837140225098202
7461,3.0,300.21685,1664.1934,0.0,0.0,0.0,0.0756630729387408,0.0,0.0,-0.08893591895404182,-0.16350589895677584,-0.2534314197667338,0.6964019909245253,0.16478032440255186,-0.010290034032797291
7462,3.0,300.24417,1769.9723,0.0,0.0,0.0,0.07567321408241307,0.0,0.0,-0.15260811042124786,-0.1885336425218218,-0.19688561991609782,0.7122448148505903,0.18051998933593583,-0.04110588469433496
7463,3.0,299.9017,1736.2003,0.0,0.0,0.0,0.07568335522608532,0.0,0.0,-0.16130592020715484,-0.1814296143482088,-0.1850259935906438,0.7187881914788713,0.17881042363471483,-0.021798889385632878
7464,3.0,300.13021000000003,1759.2969,0.0,0.0,0.0,0.07569349636975758,0.0,0.0,-0.15694220666398984,-0.17633113236252784,-0.2015089990623898,0.7034731593973953,0.16520649739461185,-0.05904478769151685
7465,3.0,301.13729,1799.6366,0.0,0.0,0.0,0.07570363751342984,0.0,0.0,-0.0971344325279221,-0.2086972688493168,-0.24121290025585979,0.6836159702976433,0.18258839756007184,-0.041289808839236865
7466,3.0,300.70267,1797.4623,0.0,0.0,0.0,0.0757137786571021,0.0,0.0,-0.07849808314240762,-0.2048522988273478,-0.2630332614243618,0.7071890920191294,0.20990718066122582,-0.07257532929312734
7467,3.0,299.02616,1784.7066,0.0,0.0,0.0,0.07572391980077436,0.0,0.0,-0.12085067379953288,-0.18755374861511384,-0.23410181986155076,0.7032500417253753,0.2135719846829138,-0.042628322353837865
7468,3.0,299.41253,1829.0264,0.0,0.0,0.0,0.07573406094444662,0.0,0.0,-0.13601371836600887,-0.22180245312519778,-0.1981621833195848,0.6993220865202163,0.12437977323532788,-0.07446757790787772
7469,3.0,299.5797,1645.3687,0.0,0.0,0.0,0.07574420208811888,0.0,0.0,-0.14921203045858086,-0.15665219422036786,-0.1942867853971128,0.7105464556954754,0.12070587022774189,-0.027163916942619874
7470,3.0,300.51268,1640.4501,0.0,0.0,0.0,0.07575434323179114,0.0,0.0,-0.12236522938650787,-0.1982558076288248,-0.17803482121316883,0.7358662888668484,0.15783939909753586,-0.04570449798168275
7471,3.0,301.53028,1857.0388,0.0,0.0,0.0,0.07576448437546342,0.0,0.0,-0.11052887741585089,-0.19694110549157381,-0.2570234319012377,0.7248647232560783,0.19504432156937582,-0.04295941499626416
7472,3.0,301.5181,1807.6161,0.0,0.0,0.0,0.07577462551913566,0.0,0.0,-0.1072375573810229,-0.2018362889771908,-0.24039632200026978,0.7165166164771843,0.18225707490987283,-0.06177021261174535
7473,3.0,301.32504,1700.9805,0.0,0.0,0.0,0.07578476666280794,0.0,0.0,-0.12157242197826387,-0.1914522689048678,-0.2040308873687808,0.6782200690101093,0.2005532407730638,-0.027300885051387575
7474,3.0,300.41547,1759.5910000000001,0.0,0.0,0.0,0.07579490780648018,0.0,0.0,-0.15264836684772085,-0.1989131840287028,-0.18331019640130783,0.7280390331693584,0.19957994312450683,-0.04860297487324016
7475,3.0,299.88698,1771.99,0.0,0.0,0.0,0.07580504895015246,0.0,0.0,-0.16701997189358783,-0.18039226916083084,-0.1912284622227798,0.6911316921193873,0.18569061472873682,-0.04688739755917586
7476,3.0,300.43449,1697.0613,0.0,0.0,0.0,0.07581519009382472,0.0,0.0,-0.14638508294458286,-0.18071239539742484,-0.18876679136983182,0.7109174470870893,0.12818226781310488,-0.06952765436409523
7477,3.0,299.13075,1596.1353,0.0,0.0,0.0,0.07582533123749698,0.0,0.0,-0.07577014941493153,-0.17924113598722283,-0.2301739963789048,0.7051503213604183,0.15029484017794584,-0.04878390689059675
7478,3.0,299.4506,1571.2562,0.0,0.0,0.0,0.07583547238116924,0.0,0.0,-0.0878229275539481,-0.18096023637188483,-0.2088394785008518,0.7547366331642062,0.19479851722761682,-0.06318078543370803
7479,3.0,300.06851,1804.0666,0.0,0.0,0.0,0.0758456135248415,0.0,0.0,-0.11645725176343588,-0.17719175659996483,-0.25474218036109575,0.7418932119191594,0.2147711459112618,-0.02354462608892368
7480,3.0,300.59823,1941.8088,0.0,0.0,0.0,0.07585575466851376,0.0,0.0,-0.15828258455877486,-0.2050888319306918,-0.22688998187729778,0.7047820252140704,0.16168197784926883,-0.050642599701785446
7481,3.0,300.59893,1776.8062,0.0,0.0,0.0,0.07586589581218603,0.0,0.0,-0.15693163846544683,-0.18132362838774882,-0.2018494409634888,0.6964615295004014,0.17462034062868584,-0.001718427687920608
7482,3.0,300.31001000000003,1639.6167,0.0,0.0,0.0,0.07587603695585828,0.0,0.0,-0.1026135196221659,-0.17605593363536784,-0.21973307218096577,0.7342599024233103,0.17068587022538384,-0.04211674555059916
7483,3.0,300.47791,1900.6637,0.0,0.0,0.0,0.07588617809953055,0.0,0.0,-0.1035649513335649,-0.2111276302741748,-0.26306172361967073,0.7086409476899163,0.17373674601148184,-0.03552709075050087
7484,3.0,301.1382,1956.3015,0.0,0.0,0.0,0.0758963192432028,0.0,0.0,-0.14091185040941687,-0.19904459243417183,-0.25471036430795574,0.6937278313931063,0.13993838050834287,-0.07863628538979713
7485,3.0,300.42817,1747.9952,0.0,0.0,0.0,0.07590646038687507,0.0,0.0,-0.13526132950425387,-0.18206521600343784,-0.2140203377196628,0.6911834185369924,0.17524135148247483,-0.029385521489125172
7486,3.0,301.12768,1674.8392,0.0,0.0,0.0,0.07591660153054734,0.0,0.0,-0.14855676161891088,-0.19357037704640884,-0.16698215739985584,0.7612909934235713,0.21124554218831182,-0.05753249165226485
7487,3.0,300.93158999999997,1807.3275,0.0,0.0,0.0,0.07592674267421959,0.0,0.0,-0.15910142236208785,-0.17578159617079284,-0.21449940236694282,0.7339410630143434,0.19052533758088683,-0.020992266312275378
7488,3.0,300.23747000000003,1855.4679999999998,0.0,0.0,0.0,0.07593688381789185,0.0,0.0,-0.11457497758266989,-0.2202794368998878,-0.22916151634898077,0.7067471832530163,0.12850699420515288,-0.06172514628704764
7489,3.0,300.54445,1833.2816,0.0,0.0,0.0,0.07594702496156411,0.0,0.0,-0.08544738194625001,-0.18283320891673283,-0.28899122937621374,0.6740472821832874,0.16600365164578484,-0.027530513868550172
7490,3.0,298.79573,1639.3083,0.0,0.0,0.0,0.07595716610523637,0.0,0.0,-0.10410587489944989,-0.18056509923038783,-0.2136378256744118,0.7046633128323543,0.18896794177968382,-0.05506022017677065
7491,3.0,299.86274,1669.4656,0.0,0.0,0.0,0.07596730724890864,0.0,0.0,-0.1077018691068469,-0.19922598446707382,-0.2005480022700468,0.6881336573260043,0.2274254237601418,-0.03308586323157047
7492,3.0,300.77204,1730.1313,0.0,0.0,0.0,0.07597744839258089,0.0,0.0,-0.18281878023530881,-0.16261167534602286,-0.18048626837260784,0.6728420819843434,0.15966973407817586,-0.04098344152575076
7493,3.0,300.64512,1749.9898,0.0,0.0,0.0,0.07598758953625316,0.0,0.0,-0.15279923978761084,-0.17660603724715881,-0.20254792491992382,0.7021679210160783,0.18019837362169483,-0.04391784826585416
7494,3.0,299.87941,1705.8787,0.0,0.0,0.0,0.07599773067992541,0.0,0.0,-0.12135098630140989,-0.16625834219092084,-0.23093521064903078,0.7254854605323403,0.16257463092236685,-0.04076770538070926
7495,3.0,299.70272,1713.059,0.0,0.0,0.0,0.07600787182359768,0.0,0.0,-0.07906007724412213,-0.20605797525383882,-0.2356091104453088,0.7625633923691473,0.1805814834845048,-0.06170022540083814
7496,3.0,300.1899,1760.7419,0.0,0.0,0.0,0.07601801296726995,0.0,0.0,-0.13751682422685388,-0.1944073013640068,-0.2032974564163968,0.7200386332947804,0.12825317505510286,-0.04695692880753805
7497,3.0,300.63558,1708.9194,0.0,0.0,0.0,0.0760281541109422,0.0,0.0,-0.14644252409275185,-0.17621897570895884,-0.19680732608087081,0.7238258683260513,0.18419126802576283,-0.05357827705751425
7498,3.0,300.18087,1572.6707,0.0,0.0,0.0,0.07603829525461447,0.0,0.0,-0.15950608405452485,-0.15865029302006484,-0.15989625627053186,0.7101474074085923,0.19822536959582082,-0.018674554993785085
7499,3.0,300.48681,1630.4247,0.0,0.0,0.0,0.07604843639828672,0.0,0.0,-0.1251471987285669,-0.17381898138959784,-0.1966422068445748,0.6933818267489584,0.2144667757137228,-0.06425684285440664
7500,3.0,300.09467,1785.8384,0.0,0.0,0.0,0.076058577541959,0.0,0.0,-0.09462628287963701,-0.18937605865496182,-0.25884794069380274,0.6889235871039643,0.16461766736399883,-0.03383925115792407
7501,3.0,300.14691,1899.4154,0.0,0.0,0.0,0.07606871868563125,0.0,0.0,-0.08901346501069501,-0.21557451138554778,-0.27278687781446875,0.6977463508922034,0.17514471782043783,-0.061805504112728345
7502,3.0,300.82049,1980.8155,0.0,0.0,0.0,0.07607885982930351,0.0,0.0,-0.11241463717696089,-0.21700832107205378,-0.27269547252294773,0.7437695788518423,0.18091103294702882,-0.031047397561139573
7503,3.0,299.40039,1781.6471,0.0,0.0,0.0,0.07608900097297577,0.0,0.0,-0.14108643340164687,-0.19831781853494482,-0.2021719888678218,0.7034676169193483,0.17896862237282782,-0.06143823033573124
7504,3.0,298.90915,1852.0129,0.0,0.0,0.0,0.07609914211664803,0.0,0.0,-0.17740041519305785,-0.2007993592223538,-0.18476590242247481,0.7025292460017383,0.14910066414008985,-0.02050166986560728
7505,3.0,299.55261,1864.6178,0.0,0.0,0.0,0.07610928326032029,0.0,0.0,-0.15132103961422386,-0.18333410910366782,-0.23214211310814278,0.6960427532340713,0.17634024148092683,-0.04972235582846445
7506,3.0,298.96431,1681.8699,0.0,0.0,0.0,0.07611942440399257,0.0,0.0,-0.10037914812440059,-0.18789530509132282,-0.22297198692062178,0.7188753005899683,0.19443398023913983,-0.022822113919617276
7507,3.0,300.6967,1531.1185,0.0,0.0,0.0,0.07612956554766481,0.0,0.0,-0.06545918974106903,-0.1891968552422758,-0.2107657480009598,0.7116744462367993,0.18574677918177981,-0.06585191028107754
7508,3.0,301.42509,1623.1086,0.0,0.0,0.0,0.07613970669133709,0.0,0.0,-0.09842704682624322,-0.19180302569198482,-0.2031543956347778,0.7376423035096273,0.13223150905523387,-0.049593545396251854
7509,3.0,300.05304,1641.5064,0.0,0.0,0.0,0.07614984783500933,0.0,0.0,-0.13481010896972187,-0.1968667734642378,-0.16730007475123185,0.7153997514219583,0.14800714436716786,-0.07042989784938973
7510,3.0,300.93886000000003,1866.6741,0.0,0.0,0.0,0.0761599889786816,0.0,0.0,-0.17622912847496083,-0.18568315720800083,-0.2055100298647608,0.7613603199954133,0.17068671122296686,-0.028623125769382574
7511,3.0,301.05486,1956.4449,0.0,0.0,0.0,0.07617013012235387,0.0,0.0,-0.12209148973949188,-0.2354143637760888,-0.23720454365526578,0.6964646097807053,0.19477952892074282,-0.07152664887688064
7512,3.0,300.3279,1620.1886,0.0,0.0,0.0,0.07618027126602613,0.0,0.0,-0.0912455901329886,-0.16815722354082582,-0.23309405144459175,0.6945169505709863,0.18358189941562283,-0.03312380235506477
7513,3.0,299.81878,1637.3067,0.0,0.0,0.0,0.07619041240969839,0.0,0.0,-0.05585028167724365,-0.2049023229847848,-0.23694776581492377,0.6906006274769754,0.19141869992905483,-0.06602922195582683
7514,3.0,299.24531,1817.3218,0.0,0.0,0.0,0.07620055355337065,0.0,0.0,-0.13900719353394186,-0.1995305167846288,-0.21388272822358181,0.7464742372112713,0.2180798533178058,-0.015460395980572287
7515,3.0,299.45277000000004,1763.1461,0.0,0.0,0.0,0.0762106946970429,0.0,0.0,-0.15854582693475486,-0.1988740320448388,-0.17853251952978785,0.6999998089821023,0.18020250768210283,-0.03358270433860487
7516,3.0,300.9948,1565.058,0.0,0.0,0.0,0.07622083584071516,0.0,0.0,-0.15315994669070987,-0.17423007722016984,-0.14834852859085987,0.7178971596059333,0.14570142283711085,-0.016043161709336787
7517,3.0,299.76437999999996,1600.7343,0.0,0.0,0.0,0.07623097698438742,0.0,0.0,-0.10480994186393591,-0.1811436346399848,-0.20062966009560582,0.7018726396719364,0.14791864710343386,-0.056544939601301046
7518,3.0,299.19465,1904.4074,0.0,0.0,0.0,0.07624111812805968,0.0,0.0,-0.13434558446137687,-0.1972522036697768,-0.24729449828356675,0.7659741543257632,0.2009885228835228,-0.03465571187650247
7519,3.0,300.42626,2190.6416,0.0,0.0,0.0,0.07625125927173194,0.0,0.0,-0.11853269194326589,-0.26569039835410074,-0.28167726591438175,0.7342550894853352,0.16967702776331883,-0.07884724203411693
7520,3.0,300.05356,1961.8915,0.0,0.0,0.0,0.0762614004154042,0.0,0.0,-0.16124430446857385,-0.1945890682994458,-0.24053265480122477,0.7227639112937443,0.14934051057126085,-0.028054236500737573
7521,3.0,299.86593999999997,1523.3049,0.0,0.0,0.0,0.07627154155907648,0.0,0.0,-0.10920141845984088,-0.1959430440105728,-0.15790220033873384,0.6930869101748524,0.13893689424200387,-0.05799517305867794
7522,3.0,300.57829,1685.4004,0.0,0.0,0.0,0.07628168270274872,0.0,0.0,-0.14392316891161086,-0.17617984399009684,-0.1922166343828048,0.6988890842224823,0.17256202437554582,-0.025711802893057377
7523,3.0,300.34308,2024.4797,0.0,0.0,0.0,0.076291823846421,0.0,0.0,-0.12101922795366789,-0.23022179138612178,-0.26415024806959975,0.7172050895226314,0.15676966030446085,-0.04428806148139136
7524,3.0,300.56757999999996,1972.1508,0.0,0.0,0.0,0.07630196499009324,0.0,0.0,-0.13797062854914086,-0.2153487288657648,-0.24616523104711674,0.6833437707907793,0.17117820844897386,-0.038869257701847064
7525,3.0,300.78705,1621.6558,0.0,0.0,0.0,0.07631210613376552,0.0,0.0,-0.07704276620927902,-0.1971674554314128,-0.21873264982723178,0.7308553516898073,0.20479038924623783,-0.06653287919628394
7526,3.0,300.39853999999997,1559.4454,0.0,0.0,0.0,0.07632224727743778,0.0,0.0,-0.13623449543029786,-0.18164436257440283,-0.15615362450866285,0.7293264788789193,0.2113865967347328,-0.032162572515198766
7527,3.0,300.14878999999996,1945.8844,0.0,0.0,0.0,0.07633238842111004,0.0,0.0,-0.16232722564544985,-0.21835791954274877,-0.2108151034133308,0.7513680832067563,0.17878818279501985,-0.06182678743107885
7528,3.0,299.42614,2101.913,0.0,0.0,0.0,0.0763425295647823,0.0,0.0,-0.19661188026908183,-0.1861370831202998,-0.25618010384300777,0.7049485528680053,0.12095928407775189,-0.029401683841470273
7529,3.0,299.35578,1782.6875,0.0,0.0,0.0,0.07635267070845456,0.0,0.0,-0.09862786894306282,-0.2131445451282288,-0.2301200610760818,0.7181779818711482,0.13615932240537887,-0.06450927587831984
7530,3.0,300.3904,1556.6133,0.0,0.0,0.0,0.07636281185212682,0.0,0.0,-0.07870700720702682,-0.17940573846596783,-0.2150588278796538,0.7058397671259613,0.1912472782771368,-0.058458822118936535
7531,3.0,299.92885,1617.6873,0.0,0.0,0.0,0.07637295299579909,0.0,0.0,-0.08544518420678311,-0.17457580828679084,-0.2317155652135458,0.7322354185910093,0.16324659812368486,-0.05549584172601315
7532,3.0,300.2861,1919.4999,0.0,0.0,0.0,0.07638309413947134,0.0,0.0,-0.18102550994332683,-0.19219914568607882,-0.21025537392558977,0.7016662507590673,0.17954984289518983,-0.01789911773200538
7533,3.0,300.18421,2023.7786,0.0,0.0,0.0,0.07639323528314361,0.0,0.0,-0.18807496446655383,-0.19109741858734683,-0.23600578772695777,0.7438676107990173,0.16587871790845482,-0.016204082037218386
7534,3.0,300.31052,1645.1656,0.0,0.0,0.0,0.07640337642681586,0.0,0.0,-0.12737526477095987,-0.17123348124192883,-0.2014805064695778,0.7460349223654144,0.21103914314294178,0.003242183383153587
7535,3.0,300.62817,1285.4103,0.0,0.0,0.0,0.07641351757048813,0.0,0.0,-0.03932483825155936,-0.14703134399086384,-0.2043764461828848,0.7449011968285243,0.15647571645045086,-0.056456884114610646
7536,3.0,300.7213,1843.1268,0.0,0.0,0.0,0.07642365871416039,0.0,0.0,-0.09009332211926861,-0.1904376407847318,-0.2797335685125537,0.6997791940378294,0.14056217779990687,-0.037482112235446466
7537,3.0,299.0037,2112.952,0.0,0.0,0.0,0.07643379985783265,0.0,0.0,-0.15528844064577585,-0.24518167930754778,-0.24181451750273475,0.7018465383493603,0.15664631736978785,-0.08584381503462492
7538,3.0,299.13462999999996,1825.25,0.0,0.0,0.0,0.07644394100150491,0.0,0.0,-0.16696956270111285,-0.19355635366502483,-0.1943045071413618,0.7003188713060913,0.23815228713630077,-0.03038934025719437
7539,3.0,300.43793999999997,1498.2157,0.0,0.0,0.0,0.07645408214517717,0.0,0.0,-0.11335783116504689,-0.17454085115834084,-0.16752148003058284,0.7138974054986884,0.18760466443263882,-0.06759790333664363
7540,3.0,300.21513999999996,1621.1488,0.0,0.0,0.0,0.07646422328884943,0.0,0.0,-0.1105223520852069,-0.18240792758476085,-0.1998584653119948,0.6892712636107774,0.16005378626357886,-0.02115465990580238
7541,3.0,299.9958,1943.6952,0.0,0.0,0.0,0.0764743644325217,0.0,0.0,-0.1088477536449369,-0.1983855239066268,-0.2836015291792917,0.7347496163291413,0.14678565110661584,-0.07130308436156653
7542,3.0,301.30015,2238.2915,0.0,0.0,0.0,0.07648450557619395,0.0,0.0,-0.13107581625617587,-0.2568501053391318,-0.29245880426593673,0.7708249371919982,0.1989066384330568,-0.03742023609158976
7543,3.0,300.63462999999996,1703.9579999999999,0.0,0.0,0.0,0.07649464671986622,0.0,0.0,-0.1127065950607749,-0.19355688055507683,-0.2116972085528878,0.7443792311720103,0.17027204875204285,-0.06261692796505965
7544,3.0,300.05824,1292.5327,0.0,0.0,0.0,0.07650478786353847,0.0,0.0,-0.1067501435529189,-0.15081050341883787,-0.13533702941922487,0.6960333806706464,0.14793342028989187,-0.017828131456499585
7545,3.0,300.51734,1656.2175,0.0,0.0,0.0,0.07651492900721074,0.0,0.0,-0.14013045219729886,-0.19534415240646683,-0.16797415964525886,0.6816225324484063,0.14876014117898287,-0.04813016603207755
7546,3.0,299.48466,2100.6301,0.0,0.0,0.0,0.07652507015088302,0.0,0.0,-0.18178468758075184,-0.1976682948233418,-0.25908611526230874,0.7228817320153723,0.2220381756284618,-0.025127172784108875
7547,3.0,299.65004,1793.6686,0.0,0.0,0.0,0.07653521129455526,0.0,0.0,-0.08792746659326532,-0.2236519081352248,-0.23365109581956778,0.7130941210844103,0.15818569758421286,-0.06587928019277874
7548,3.0,299.53961,1512.0806,0.0,0.0,0.0,0.07654535243822753,0.0,0.0,-0.06765973287099573,-0.1880708912011518,-0.2039041095162688,0.7179433435454914,0.14895651918086386,-0.06907848160801534
7549,3.0,299.54917,1700.4018,0.0,0.0,0.0,0.07655549358189978,0.0,0.0,-0.13404790171449787,-0.19060920429166384,-0.19222256189588982,0.7354688820451274,0.14550096143732685,-0.061545616607829444
7550,3.0,300.18106,1996.6054,0.0,0.0,0.0,0.07656563472557204,0.0,0.0,-0.21768534439137077,-0.2045850743784748,-0.18464776759331583,0.7660763912608533,0.23038746790997278,-0.04170225229244186
7551,3.0,299.83586,1922.2205,0.0,0.0,0.0,0.07657577586924431,0.0,0.0,-0.16338630504747284,-0.2020799148312348,-0.21884083454040879,0.7523820324493253,0.19347584081207883,-0.026588022062783472
7552,3.0,300.18178,1610.6116,0.0,0.0,0.0,0.07658591701291656,0.0,0.0,-0.12790172925791787,-0.16003558829178285,-0.20164838174614583,0.6853146739577923,0.18548817749125782,-0.028088228001842273
7553,3.0,300.87232,1551.4232,0.0,0.0,0.0,0.07659605815658883,0.0,0.0,-0.03396866447394617,-0.1900926291256818,-0.24753260192456578,0.6909346859024443,0.15343105188746584,-0.051505989098745354
7554,3.0,300.18242000000004,1760.0739,0.0,0.0,0.0,0.07660619930026108,0.0,0.0,-0.11681469600121289,-0.20116593284353182,-0.2170378978424728,0.7016913894940484,0.1811599783640978,-0.05152330047670386
7555,3.0,300.47756,2042.9696,0.0,0.0,0.0,0.07661634044393335,0.0,0.0,-0.14848194323152686,-0.2364669989074758,-0.23606281344258578,0.7257166031451523,0.14148469135345187,-0.051864517514129356
7556,3.0,300.04175,1921.1471,0.0,0.0,0.0,0.07662648158760563,0.0,0.0,-0.2017789491540318,-0.21037106682200782,-0.17183073138087282,0.6858607954966903,0.13147540156561188,-0.04659029033835366
7557,3.0,299.13034,1489.4539,0.0,0.0,0.0,0.07663662273127787,0.0,0.0,-0.09049790781794811,-0.19096424712670382,-0.17129465115046583,0.7586623896166482,0.16375641491149986,-0.05672163927298994
7558,3.0,299.52752000000004,1431.4207,0.0,0.0,0.0,0.07664676387495015,0.0,0.0,-0.0936474589650346,-0.17904467692533382,-0.16242402142750284,0.7480216018364844,0.2146384506781658,-0.05739630273282404
7559,3.0,299.74826,1948.8702,0.0,0.0,0.0,0.07665690501862239,0.0,0.0,-0.07871048569462014,-0.2325106524345148,-0.2811867515409717,0.7726822246252983,0.16662377083948585,-0.05288451687304545
7560,3.0,297.82671,1943.3051,0.0,0.0,0.0,0.07666704616229467,0.0,0.0,-0.15320080093474187,-0.21415777496322683,-0.2233576400411828,0.7247513000398843,0.15072857201575185,-0.07302522044352813
7561,3.0,298.15537,1621.8791,0.0,0.0,0.0,0.07667718730596693,0.0,0.0,-0.11296421389869989,-0.18473523134194783,-0.19531130283822482,0.7109138703142364,0.16536134227489382,-0.048746309232386154
7562,3.0,298.52698,1631.5785,0.0,0.0,0.0,0.07668732844963919,0.0,0.0,-0.15547061288125485,-0.16985076975796584,-0.17063773071313285,0.6894931856476794,0.2101020793179608,-0.03791753214791906
7563,3.0,298.45597000000004,1874.2278,0.0,0.0,0.0,0.07669746959331145,0.0,0.0,-0.12328994169276988,-0.1998808480067038,-0.24654767216486076,0.6935840512039163,0.19432756871363782,-0.02307013018634458
7564,3.0,298.97832999999997,2086.0735,0.0,0.0,0.0,0.0767076107369837,0.0,0.0,-0.15050192823338387,-0.2201984984818998,-0.26341382802942076,0.6815903921552344,0.18162210146970584,-0.041051981815515164
7565,3.0,299.86669,1988.6971,0.0,0.0,0.0,0.07671775188065597,0.0,0.0,-0.09553443057326422,-0.22288276011681576,-0.28609706285058173,0.7358423964294902,0.18804871115646282,-0.032756646115079266
7566,3.0,300.38182,1549.8921,0.0,0.0,0.0,0.07672789302432824,0.0,0.0,-0.09077837037937761,-0.18968328621778283,-0.19066685822235382,0.7316229393030623,0.1987334841234678,-0.05954809232093915
7567,3.0,299.76527000000004,1456.5281,0.0,0.0,0.0,0.07673803416800049,0.0,0.0,-0.1104529849833609,-0.16646831800914383,-0.16582684963583583,0.7471973634101383,0.15109112303403285,-0.04338408128542546
7568,3.0,300.31256,1857.9742,0.0,0.0,0.0,0.07674817531167276,0.0,0.0,-0.16529698062854184,-0.2055117422574298,-0.1939690504307548,0.7209790003150873,0.1253500311335849,-0.029656476724866373
7569,3.0,300.13513,1915.2322,0.0,0.0,0.0,0.076758316455345,0.0,0.0,-0.15182320636378385,-0.17269484119865383,-0.2576647178895278,0.7422691581037623,0.16301099721043286,-0.03440251384876376
7570,3.0,300.5446,1594.1789999999999,0.0,0.0,0.0,0.07676845759901728,0.0,0.0,-0.0852457563221011,-0.17369126121449283,-0.22565360397277678,0.7354906567897763,0.1909580257710898,-0.03150042066759947
7571,3.0,300.65955,1603.6685,0.0,0.0,0.0,0.07677859874268954,0.0,0.0,-0.07015844105484903,-0.17983371504320583,-0.23748303544525076,0.7112861080034732,0.17702888677889084,-0.04325965214664526
7572,3.0,300.44435,2067.8037,0.0,0.0,0.0,0.0767887398863618,0.0,0.0,-0.15741575923072584,-0.2065952004568588,-0.2645497320540257,0.7073391746239412,0.18142842884559182,-0.03473307250838737
7573,3.0,299.85668,2215.3564,0.0,0.0,0.0,0.07679888103003406,0.0,0.0,-0.17776987657702084,-0.23943381546527776,-0.25620932597589174,0.7405004388617032,0.21521156519972778,-0.06522926606812735
7574,3.0,298.89521,1698.8951,0.0,0.0,0.0,0.07680902217370632,0.0,0.0,-0.12921356389738586,-0.19524051718623883,-0.1919675977732268,0.7437408836090103,0.2177674075169698,-0.017913328564657882
7575,3.0,299.85906,1298.0431,0.0,0.0,0.0,0.07681916331737858,0.0,0.0,-0.05100471400927336,-0.16017235679028086,-0.18339560325223683,0.7182002733733484,0.16128011272710785,-0.04355056334310596
7576,3.0,298.95927,1342.63,0.0,0.0,0.0,0.07682930446105085,0.0,0.0,-0.05906157420592354,-0.16495286062957984,-0.18411154550789482,0.7121132443251053,0.14486040498910888,-0.048158474213371355
7577,3.0,299.25436,1595.2791,0.0,0.0,0.0,0.0768394456047231,0.0,0.0,-0.07320276719230062,-0.1969251772000018,-0.21479707498132078,0.7308939261211143,0.16833539343840986,-0.07401894825385143
7578,3.0,299.69794,1791.273,0.0,0.0,0.0,0.07684958674839537,0.0,0.0,-0.15194948772374686,-0.2058534304561518,-0.1866993457332908,0.7478163477637273,0.18400215502709882,-0.07506086319918043
7579,3.0,300.69832,1704.8762,0.0,0.0,0.0,0.07685972789206762,0.0,0.0,-0.15033553230196187,-0.17442647548705284,-0.19347777611976982,0.7157615729001674,0.16409815377272685,-0.06772419482910763
7580,3.0,300.02115,1570.8309,0.0,0.0,0.0,0.07686986903573989,0.0,0.0,-0.13687580168358987,-0.18234753787880084,-0.15827004052253685,0.7300103517689124,0.13146795417737686,-0.06681614846049043
7581,3.0,300.30015,1853.2361,0.0,0.0,0.0,0.07688001017941215,0.0,0.0,-0.12806580484661087,-0.18325972641382685,-0.25201196783414476,0.7251651924407323,0.1907228909528838,-0.03358194237452967
7582,3.0,299.22037,2130.0747,0.0,0.0,0.0,0.07689015132308441,0.0,0.0,-0.13817424115673588,-0.22793468326040178,-0.2813805964176027,0.7590552165479173,0.20341075804257883,-0.03393251677662867
7583,3.0,299.96002999999996,1794.2129,0.0,0.0,0.0,0.07690029246675667,0.0,0.0,-0.1065910531547179,-0.19324952126974282,-0.24555533554692477,0.7245443538394604,0.18486469430722482,-0.035717780366320465
7584,3.0,301.33351,1529.3322,0.0,0.0,0.0,0.07691043361042893,0.0,0.0,-0.12805141669519088,-0.16639909276231182,-0.17042830204996384,0.7042967290786752,0.16091555547362885,-0.05680186030990715
7585,3.0,301.64119,1630.7971,0.0,0.0,0.0,0.07692057475410119,0.0,0.0,-0.11803936073457788,-0.18113856838948483,-0.19654367840485082,0.6905028387098243,0.17740827801383383,-0.04918035923072355
7586,3.0,300.40109,1889.1392,0.0,0.0,0.0,0.07693071589777346,0.0,0.0,-0.15964708793844085,-0.2063530742129628,-0.20825096257776982,0.7115933456987954,0.18779067688599682,-0.060292069180363936
7587,3.0,299.20931,2070.9692,0.0,0.0,0.0,0.07694085704144571,0.0,0.0,-0.12728747678229588,-0.2299030836996678,-0.2723323743496127,0.6940492444573273,0.17547515894304985,-0.01060738700386759
7588,3.0,299.42392,1872.1660000000002,0.0,0.0,0.0,0.07695099818511798,0.0,0.0,-0.12983743211645687,-0.2090097653126578,-0.2302445084533638,0.7389698029956413,0.14024817159391686,-0.06942133909735274
7589,3.0,299.87292,1567.6436,0.0,0.0,0.0,0.07696113932879023,0.0,0.0,-0.07283371313487784,-0.20257173629727382,-0.2011190497614048,0.7540022598892293,0.20432067689738082,-0.041346720057603564
7590,3.0,299.09344,1591.8503,0.0,0.0,0.0,0.0769712804724625,0.0,0.0,-0.14746678822133885,-0.18147135011982782,-0.15494461448934285,0.7656074287170702,0.2010757434521308,-0.08312043485309822
7591,3.0,300.00881,1979.5396,0.0,0.0,0.0,0.07698142161613475,0.0,0.0,-0.13826957785864485,-0.21949721795518878,-0.24396383374735575,0.7553487882121213,0.18163437192841683,-0.033141678113328965
7592,3.0,298.56113,1744.6605,0.0,0.0,0.0,0.07699156275980702,0.0,0.0,-0.16578745447194784,-0.16405125042559784,-0.2004945127972678,0.7078557193924203,0.13349602491503187,-0.058438747607955345
7593,3.0,299.2774,1630.2268,0.0,0.0,0.0,0.07700170390347928,0.0,0.0,-0.036727177076190165,-0.19011526513291582,-0.26870579012169676,0.7137175130759343,0.17686651345036583,-0.03415214481530427
7594,3.0,299.84285,1617.2197,0.0,0.0,0.0,0.07701184504715154,0.0,0.0,-0.08172666273104362,-0.17583119476318784,-0.23403653615760778,0.7110003917402754,0.1944596053341688,-0.05245522205742736
7595,3.0,301.5291,2003.9819,0.0,0.0,0.0,0.0770219861908238,0.0,0.0,-0.10039990151294881,-0.2275965313045288,-0.28116403447372973,0.7074888316637112,0.2048777921998638,-0.04166093296661396
7596,3.0,300.98755,2081.3121,0.0,0.0,0.0,0.07703212733449606,0.0,0.0,-0.20037687446065783,-0.2132717992082878,-0.21901822423541578,0.7080892938054724,0.14529129972663488,-0.05364130121373425
7597,3.0,301.08877,1904.6018,0.0,0.0,0.0,0.07704226847816832,0.0,0.0,-0.15211345185492886,-0.2148319307847608,-0.2120059965208628,0.7017859763908832,0.1921217029809358,-0.054838140072853044
7598,3.0,298.632,1561.1145,0.0,0.0,0.0,0.07705240962184058,0.0,0.0,-0.11938571680495288,-0.19323118144293283,-0.16192292872304886,0.7346533474371403,0.19093913878922583,-0.05266802990967985
7599,3.0,300.20114,1611.0614,0.0,0.0,0.0,0.07706255076551284,0.0,0.0,-0.07142731794307744,-0.18574416499652183,-0.23255093925849077,0.6960573136380084,0.18134892924274582,-0.040191944249886064
7600,3.0,299.41947000000005,1911.8443,0.0,0.0,0.0,0.07707269190918511,0.0,0.0,-0.1104939709499059,-0.23157266655194278,-0.23908627068097776,0.7114563137552714,0.14684592935506485,-0.06214298935003554
7601,3.0,299.83572999999996,2028.5519,0.0,0.0,0.0,0.07708283305285736,0.0,0.0,-0.15470562932075685,-0.2071627725003738,-0.2547607127054248,0.7194908905557224,0.17559219946210083,-0.05741779782044544
7602,3.0,298.9856,1760.8065,0.0,0.0,0.0,0.07709297419652962,0.0,0.0,-0.13390605683299886,-0.19697991297040382,-0.2043552287257908,0.7551421459867274,0.17664489538849384,-0.08210235560312162
7603,3.0,299.59082,1727.7607,0.0,0.0,0.0,0.07710311534020188,0.0,0.0,-0.10604263153809289,-0.2080930272846828,-0.2110604720575468,0.7192639326658233,0.16674445905889684,-0.03972667297621736
7604,3.0,300.50473,2039.8511,0.0,0.0,0.0,0.07711325648387415,0.0,0.0,-0.14579627317897187,-0.22260689264458977,-0.25166063349447076,0.7376660135619673,0.15436191462183485,-0.05295442910344524
7605,3.0,300.5511,2035.8901,0.0,0.0,0.0,0.0771233976275464,0.0,0.0,-0.11876834351902288,-0.2275426061342068,-0.27254880457097275,0.7385482706890394,0.2142327352056248,-0.028237238588048472
7606,3.0,300.51572000000004,1769.1096,0.0,0.0,0.0,0.07713353877121867,0.0,0.0,-0.0899365317987946,-0.22464839907857082,-0.22318019968367078,0.7488379571770523,0.2022915118496178,-0.02985936485863987
7607,3.0,301.19464,1558.7759,0.0,0.0,0.0,0.07714367991489092,0.0,0.0,-0.09148385589400361,-0.2069721193615578,-0.17537298280296582,0.7032939965147134,0.18634768715358482,-0.045365207132697365
7608,3.0,302.31821,1634.2215,0.0,0.0,0.0,0.0771538210585632,0.0,0.0,-0.1344741253690629,-0.1942804525839878,-0.16800796166859483,0.6934780855084584,0.12419749967483888,-0.03754001035941056
7609,3.0,301.52381,1988.7411,0.0,0.0,0.0,0.07716396220223544,0.0,0.0,-0.17117199722586082,-0.22293924880989077,-0.21041638949898078,0.7178663365378913,0.17084206272829883,-0.06700963262008584
7610,3.0,300.42496,2114.8181,0.0,0.0,0.0,0.07717410334590771,0.0,0.0,-0.18590289062468682,-0.19903248409547683,-0.25791653080437976,0.7271190831385663,0.1926425337973378,-0.01882441569682518
7611,3.0,299.79912,1683.2069,0.0,0.0,0.0,0.07718424448957997,0.0,0.0,-0.1044642614598199,-0.18052148894608383,-0.2266671073853018,0.7401944271990023,0.17028726776854483,-0.06541013323747753
7612,3.0,299.88153,1556.7241,0.0,0.0,0.0,0.07719438563325223,0.0,0.0,-0.0961760245895846,-0.15890965464816184,-0.2181195828542268,0.7427427917305063,0.16753660785457583,-0.016703812933537985
7613,3.0,299.69563,1987.5901,0.0,0.0,0.0,0.07720452677692449,0.0,0.0,-0.15117338880965187,-0.2153825308891008,-0.23762183044394874,0.7301945505045914,0.21302554903648477,-0.06884690431091044
7614,3.0,299.74428,2115.1417,0.0,0.0,0.0,0.07721466792059675,0.0,0.0,-0.17580926803102384,-0.2287840908192318,-0.23835690286149477,0.7547668077521843,0.18505987667398782,-0.01710219146210488
7615,3.0,299.11276000000004,1556.1729,0.0,0.0,0.0,0.07722480906426901,0.0,0.0,-0.0957490632889468,-0.18388316906785582,-0.19340547059263383,0.6835861604797013,0.17934185304716282,-0.05723334779874165
7616,3.0,299.57425,1439.2368,0.0,0.0,0.0,0.07723495020794129,0.0,0.0,-0.07123686846753152,-0.1849300185411718,-0.18132516852790082,0.7081091839049353,0.17876477671770982,-0.04682644043315986
7617,3.0,299.4163,1569.6354,0.0,0.0,0.0,0.07724509135161353,0.0,0.0,-0.08817005893220732,-0.16343407978968785,-0.22552584326766778,0.6959028740577664,0.17745459367590483,-0.04779961851820505
7618,3.0,298.94308,1743.6423,0.0,0.0,0.0,0.0772552324952858,0.0,0.0,-0.13919308439728786,-0.1844853537347868,-0.2063452823196938,0.7226352183985433,0.16820762260079983,-0.04578337240921705
7619,3.0,299.01187999999996,1808.8056,0.0,0.0,0.0,0.07726537363895805,0.0,0.0,-0.15219441053791885,-0.19134716447199482,-0.2062901513817528,0.7165570451561744,0.14833543739956787,-0.06772506926394394
7620,3.0,300.26462000000004,1710.2387,0.0,0.0,0.0,0.07727551478263033,0.0,0.0,-0.13777833394516287,-0.1807890680324918,-0.2013024480295048,0.7522838282496332,0.12904906274365088,-0.0873827514455061
7621,3.0,300.22905,1678.6828,0.0,0.0,0.0,0.0772856559263026,0.0,0.0,-0.1050440229020379,-0.2075774552362998,-0.19765616621964482,0.7299037375933903,0.18776440331090383,-0.06584218611986785
7622,3.0,300.07355,1934.2991,0.0,0.0,0.0,0.07729579706997484,0.0,0.0,-0.14804839377873885,-0.1945358118741898,-0.24539442129854377,0.7650667483312092,0.18000108369472384,-0.07121541694966443
7623,3.0,299.74462,2108.6326,0.0,0.0,0.0,0.07730593821364712,0.0,0.0,-0.14181627744867686,-0.21625632737783781,-0.2828990631499637,0.7450932279874762,0.2012451791338528,-0.027621299051009972
7624,3.0,301.26047,1815.8627,0.0,0.0,0.0,0.07731607935731936,0.0,0.0,-0.12380389254099289,-0.19902735704997082,-0.22914567924991777,0.7348456116436153,0.1989718613419938,-0.018726954209456484
7625,3.0,299.7772,1667.0717,0.0,0.0,0.0,0.07732622050099164,0.0,0.0,-0.1063151654174899,-0.18791825520608782,-0.2125147595285738,0.7215920571555913,0.1885846596643568,-0.030481279531518073
7626,3.0,299.72073,1853.1718,0.0,0.0,0.0,0.0773363616446639,0.0,0.0,-0.14401374333804987,-0.18897426446030782,-0.2303299558342968,0.7110008477028203,0.17612055872674584,-0.02958821001262897
7627,3.0,299.56282999999996,2081.3687,0.0,0.0,0.0,0.07734650278833616,0.0,0.0,-0.12897336282867988,-0.2123983370920838,-0.2913124232352977,0.7087394355996364,0.15083933038418287,-0.03705231484777876
7628,3.0,299.78635,1776.2778,0.0,0.0,0.0,0.07735664393200842,0.0,0.0,-0.1013351323684989,-0.1803967375937718,-0.25821221744856176,0.7121727018409733,0.13848165110457486,-0.04556490758165626
7629,3.0,299.53684,1482.5032,0.0,0.0,0.0,0.07736678507568068,0.0,0.0,-0.07959915466832493,-0.18970526361245182,-0.18133954654681983,0.7211388709158653,0.15408219679922885,-0.07298889036119263
7630,3.0,299.58743,1560.0347,0.0,0.0,0.0,0.07737692621935294,0.0,0.0,-0.15011360013255887,-0.15088636545382486,-0.17321162914715682,0.7372750814083853,0.17943960128430983,-0.03846678969587656
7631,3.0,298.33235,1735.3195,0.0,0.0,0.0,0.07738706736302521,0.0,0.0,-0.14461794437267983,-0.19376063501768584,-0.18911521768171882,0.7257643069598603,0.17148259891151482,-0.06850984869164564
7632,3.0,299.04174,1961.9311,0.0,0.0,0.0,0.07739720850669746,0.0,0.0,-0.15615588405638586,-0.2314456961819118,-0.20877649487463582,0.7186244603952123,0.18502514246055982,-0.07088854753365494
7633,3.0,301.09177999999997,1841.251,0.0,0.0,0.0,0.07740734965036973,0.0,0.0,-0.12281663230605788,-0.1917273663070178,-0.24515031921695274,0.7224899487317062,0.20155319703175179,-0.046746878008807655
7634,3.0,300.99092,1676.4511,0.0,0.0,0.0,0.07741749079404198,0.0,0.0,-0.09917681846298991,-0.20313677521553883,-0.2072856696050028,0.7346201634963653,0.19672164565241482,-0.06053174133251774
7635,3.0,299.67553,1769.0957,0.0,0.0,0.0,0.07742763193771425,0.0,0.0,-0.11979438083528487,-0.17808070117769684,-0.23988581620238675,0.7471919019920993,0.1974096728678178,-0.036232268237096465
7636,3.0,300.06593,1940.4858,0.0,0.0,0.0,0.07743777308138651,0.0,0.0,-0.15805543415135687,-0.2075734123684008,-0.22423039288231678,0.7421462711316342,0.19665128556547082,-0.038175927135420666
7637,3.0,299.52102,1876.0835,0.0,0.0,0.0,0.07744791422505877,0.0,0.0,-0.1168456811892709,-0.2529492039116428,-0.2004876429615898,0.7544373697471712,0.19758343512746682,-0.06154276532204803
7638,3.0,300.12838,1573.2518,0.0,0.0,0.0,0.07745805536873103,0.0,0.0,-0.08544555404306961,-0.1762648962034908,-0.2165188098162428,0.7196222179011833,0.1888707508300918,-0.05586564761501015
7639,3.0,301.09447,1594.9928,0.0,0.0,0.0,0.07746819651240329,0.0,0.0,-0.07546294009061233,-0.2257304691253628,-0.18364458919930982,0.6953104469892983,0.16886607304578385,-0.07126773611857794
7640,3.0,300.38374,1793.342,0.0,0.0,0.0,0.07747833765607555,0.0,0.0,-0.1069148878866779,-0.1956675717058858,-0.24254872865769578,0.7056272379174864,0.16875770594758885,-0.04161315822439896
7641,3.0,299.51408,1920.4712,0.0,0.0,0.0,0.07748847879974782,0.0,0.0,-0.17312796508639985,-0.20319496616878183,-0.2074523796439558,0.7270798500946943,0.18192895412998983,-0.06854671174353373
7642,3.0,300.72391,1845.7651,0.0,0.0,0.0,0.07749861994342007,0.0,0.0,-0.15879951436229184,-0.21202056705730082,-0.19024642022585983,0.7423681526385323,0.17581462812405282,-0.04938115297654036
7643,3.0,300.90483,1723.6163,0.0,0.0,0.0,0.07750876108709234,0.0,0.0,-0.14270317526120685,-0.17514749412571184,-0.2060856369815688,0.7407009509239924,0.14657371971569985,-0.06794052879170814
7644,3.0,300.9794,2017.9182,0.0,0.0,0.0,0.07751890223076459,0.0,0.0,-0.13204765482458888,-0.23190386761212975,-0.24944521281332577,0.7553335894606213,0.19372596159926384,-0.02180961463794138
7645,3.0,298.93262999999996,2023.9263,0.0,0.0,0.0,0.07752904337443686,0.0,0.0,-0.1126506433902529,-0.2211192895102748,-0.2814531248597607,0.7636955777658853,0.1922878253348308,-0.05058233259908755
7646,3.0,298.60319,2025.3637,0.0,0.0,0.0,0.07753918451810912,0.0,0.0,-0.1208945576613639,-0.2177804581782578,-0.27698495536378676,0.7348818555996923,0.2026899724514428,-0.014037282162121885
7647,3.0,299.60145,1762.5054,0.0,0.0,0.0,0.07754932566178138,0.0,0.0,-0.13091014986482588,-0.2025175071519218,-0.2023299849559148,0.7026381906524903,0.17988935260619682,-0.04626135794514055
7648,3.0,299.73483,1685.0782,0.0,0.0,0.0,0.07755946680545364,0.0,0.0,-0.14838397207935786,-0.19249060707734383,-0.17134710710814283,0.7025062958869733,0.2035695748632528,-0.03076612946588057
7649,3.0,299.68003999999996,1889.0766,0.0,0.0,0.0,0.0775696079491259,0.0,0.0,-0.15701730876140185,-0.21697313089608078,-0.2002416866323158,0.7101068166095863,0.1968885279438848,-0.06133049550559865
7650,3.0,300.68023999999997,1954.8602,0.0,0.0,0.0,0.07757974909279816,0.0,0.0,-0.14692886387574985,-0.21663174667238877,-0.23066808752516776,0.7005490614638092,0.18230625806972683,-0.055857082611914854
7651,3.0,299.1305,1630.4034,0.0,0.0,0.0,0.07758989023647044,0.0,0.0,-0.07054726666147314,-0.1928711230198978,-0.23218352463972977,0.7412075151789863,0.14871737189226186,-0.06514796693310373
7652,3.0,300.00687999999997,1674.8035,0.0,0.0,0.0,0.07760003138014268,0.0,0.0,-0.1038033082870889,-0.18440463823182082,-0.2208905077701958,0.7607817035258083,0.16938304337930482,-0.039186883237194256
7653,3.0,299.77754,1848.0808,0.0,0.0,0.0,0.07761017252381495,0.0,0.0,-0.14747324262447586,-0.2044368966838508,-0.20986026718159578,0.7921610053427042,0.16682965312730483,-0.03855899241522626
7654,3.0,298.71718,1874.2091,0.0,0.0,0.0,0.0776203136674872,0.0,0.0,-0.15576980537078283,-0.22213828473834177,-0.1918046671571468,0.7667280630626683,0.16107626707198983,-0.05272647113569754
7655,3.0,299.1596,1977.6942,0.0,0.0,0.0,0.07763045481115947,0.0,0.0,-0.13439770604652088,-0.23974019189801477,-0.22703177609629177,0.7324127474910103,0.15321865440150384,-0.05844116420944385
7656,3.0,299.90999,1956.3768,0.0,0.0,0.0,0.07764059595483173,0.0,0.0,-0.12926482421994487,-0.2171777668862768,-0.24824711549758277,0.7132394211487504,0.20899311761351483,-0.05041061305164015
7657,3.0,299.06169,1953.5832,0.0,0.0,0.0,0.077650737098504,0.0,0.0,-0.09012879397876941,-0.24082531182760777,-0.2628864110873687,0.7124951889503003,0.19581393568283081,-0.05582271316852286
7658,3.0,300.4589,1890.9874,0.0,0.0,0.0,0.07766087824217625,0.0,0.0,-0.12010162866310788,-0.2032866855678338,-0.25142462728117876,0.7080841768924673,0.1959736441635928,-0.04050537796956956
7659,3.0,300.39635,1627.8827,0.0,0.0,0.0,0.07767101938584851,0.0,0.0,-0.11238388503642588,-0.16886816034098984,-0.21358365732406578,0.7150520647826444,0.13843451470992285,-0.04229204592389996
7660,3.0,300.04716,1432.5781,0.0,0.0,0.0,0.07768116052952077,0.0,0.0,-0.1097920419431309,-0.15740766336242684,-0.16826825548678384,0.7328736445639973,0.16989239407207385,-0.03553234749201967
7661,3.0,299.84462,1532.7778,0.0,0.0,0.0,0.07769130167319305,0.0,0.0,-0.12752788050102187,-0.14628490290719584,-0.19211339433011582,0.7417912080315924,0.17526519325732784,-0.043209889407734056
7662,3.0,300.78474,1916.2233,0.0,0.0,0.0,0.0777014428168653,0.0,0.0,-0.14820863928205386,-0.2042822544535888,-0.2299931515010568,0.6998018401775644,0.18892045074749683,-0.05917714348582935
7663,3.0,301.39522999999997,2035.3629,0.0,0.0,0.0,0.07771158396053757,0.0,0.0,-0.13286639130289188,-0.20937326878603282,-0.27645984863196277,0.7232974989289053,0.16907632244153384,-0.039385655549061566
7664,3.0,300.51377,2025.7233,0.0,0.0,0.0,0.07772172510420981,0.0,0.0,-0.14759967597195386,-0.2089280162945898,-0.25924159849015377,0.7196577424496893,0.2128362435203018,-0.029803669540393173
7665,3.0,299.44541,2105.0044,0.0,0.0,0.0,0.07773186624788209,0.0,0.0,-0.17515697814664782,-0.21421345305622178,-0.2504983545697627,0.7826589688199262,0.2031098126303778,-0.017992312423202983
7666,3.0,299.52485,2112.9563,0.0,0.0,0.0,0.07774200739155436,0.0,0.0,-0.17738837778186983,-0.21159011814981882,-0.2533074688820008,0.7464324305121454,0.15384856159117086,-0.05162439750543135
7667,3.0,299.587,1925.2321,0.0,0.0,0.0,0.0777521485352266,0.0,0.0,-0.13331016444918886,-0.2223820828449028,-0.2295302380603708,0.7459785856598543,0.14568662938565086,-0.06255433849313254
7668,3.0,299.15632,1624.8989,0.0,0.0,0.0,0.07776228967889888,0.0,0.0,-0.09017440745852111,-0.17162474776804384,-0.2321295488069028,0.7252681589158944,0.18367660790246984,-0.06555178560145754
7669,3.0,298.97317999999996,1526.9207,0.0,0.0,0.0,0.07777243082257113,0.0,0.0,-0.05961933190896994,-0.19222875285400082,-0.2122976909596508,0.7245744372349293,0.2032321625799528,-0.06581169033160814
7670,3.0,298.34628,1382.5569,0.0,0.0,0.0,0.0777825719662434,0.0,0.0,-0.08142819066233672,-0.15916565228592683,-0.17966894031194383,0.6880565287283923,0.20904375985351278,-0.05196479077052554
7671,3.0,299.26268,1620.565,0.0,0.0,0.0,0.07779271310991566,0.0,0.0,-0.09669499203905271,-0.19694879605983281,-0.19896751449906483,0.7084302625966233,0.1836360171034638,-0.06297928342607134
7672,3.0,300.36534,1913.6322,0.0,0.0,0.0,0.07780285425358792,0.0,0.0,-0.15145051271200186,-0.2336916562210708,-0.19655423647089282,0.7218954343680323,0.20596203060186982,-0.04882977976237405
7673,3.0,300.53291,2011.8838,0.0,0.0,0.0,0.07781299539726018,0.0,0.0,-0.16661724550884183,-0.2148748013964918,-0.2300703814236788,0.7426006530064783,0.19842967121348382,-0.07349379389927273
7674,3.0,300.32099,2141.8991,0.0,0.0,0.0,0.07782313654093242,0.0,0.0,-0.15855114649777982,-0.23889609376970874,-0.25363660291198376,0.7483536844242583,0.14694291765463685,-0.061767033032931545
7675,3.0,299.85582999999997,2016.2609,0.0,0.0,0.0,0.0778332776846047,0.0,0.0,-0.12306644911821289,-0.2215983440250538,-0.2682281744220597,0.7613706754114353,0.14918797590120686,-0.06552790329660053
7676,3.0,300.46617000000003,1857.8859,0.0,0.0,0.0,0.07784341882827697,0.0,0.0,-0.13757831837542286,-0.18321453545936683,-0.24395807848678777,0.7656958651857982,0.1879563736748498,-0.017688880495256583
7677,3.0,299.81444,1795.267,0.0,0.0,0.0,0.07785355997194922,0.0,0.0,-0.12117028327857589,-0.1910942775120368,-0.23345177939239678,0.7690674244960453,0.18540215255776785,-0.018614177446826283
7678,3.0,299.33685,1721.2461,0.0,0.0,0.0,0.07786370111562149,0.0,0.0,-0.14514479389467586,-0.17708631779455883,-0.2009847130631468,0.7039707259915013,0.15799325099271985,-0.025783063759340273
7679,3.0,298.43924,1551.1132,0.0,0.0,0.0,0.07787384225929374,0.0,0.0,-0.1043039450289979,-0.15796322839225685,-0.2092325080821408,0.6982927257436263,0.14739840397208984,-0.050449020296680656
7680,3.0,299.20306,1797.4034,0.0,0.0,0.0,0.07788398340296601,0.0,0.0,-0.12016932390228889,-0.2191372912546668,-0.2070591271476448,0.7088642781444574,0.18842667370876484,-0.06618978663292334
7681,3.0,300.15775,2006.6994,0.0,0.0,0.0,0.07789412454663827,0.0,0.0,-0.14828738907982586,-0.2027814284054688,-0.2589177029631878,0.7252410038132143,0.19967479346636782,-0.06485786532347294
7682,3.0,300.43467000000004,1918.1503,0.0,0.0,0.0,0.07790426569031053,0.0,0.0,-0.15534128163849084,-0.2116231298380768,-0.2161053835104408,0.7307738458517633,0.17876210173744583,-0.06648255005056684
7683,3.0,300.29235,1622.9447,0.0,0.0,0.0,0.07791440683398279,0.0,0.0,-0.1070770383001809,-0.1977383205377528,-0.18851929490040584,0.7416671862193523,0.16527791126165986,-0.04959342887249035
7684,3.0,299.88667999999996,1696.7461,0.0,0.0,0.0,0.07792454797765505,0.0,0.0,-0.11844481276209289,-0.17984095978142084,-0.2174826639738678,0.7866549435042982,0.18732120771716382,-0.035885983935920865
7685,3.0,300.33736,2053.4958,0.0,0.0,0.0,0.07793468912132731,0.0,0.0,-0.13297871007647688,-0.2374457377090698,-0.25378698949182577,0.7629614071409282,0.1871623908964898,-0.037754170900546564
7686,3.0,300.37609,1934.7173,0.0,0.0,0.0,0.07794483026499958,0.0,0.0,-0.12943244618398786,-0.19549297858115483,-0.26318032454387574,0.7477570625003763,0.17687012062072183,-0.05752069640785074
7687,3.0,299.22578,1697.4503,0.0,0.0,0.0,0.07795497140867183,0.0,0.0,-0.0978439528044463,-0.19542782659972482,-0.2227107203823368,0.7194256777792863,0.17165246015827884,-0.07468731943056453
7688,3.0,299.43292,1767.7792,0.0,0.0,0.0,0.0779651125523441,0.0,0.0,-0.13363355335110488,-0.1959356270198408,-0.2077915752474318,0.7177108127800422,0.20060423765059682,-0.046273516946340555
7689,3.0,299.36462,1878.631,0.0,0.0,0.0,0.07797525369601635,0.0,0.0,-0.14011306482558286,-0.2032454868187678,-0.2276983528070778,0.7162596663843254,0.19698067290797883,-0.028852362458756473
7690,3.0,299.60527,2060.9933,0.0,0.0,0.0,0.07798539483968862,0.0,0.0,-0.18213376237270282,-0.21910589063406782,-0.22525083705802681,0.7021192242162724,0.14617951476429486,-0.03801544858458266
7691,3.0,299.77988,1850.7095,0.0,0.0,0.0,0.07799553598336088,0.0,0.0,-0.1309490384036639,-0.1974932660010678,-0.2341271815115538,0.7265622920761153,0.15476204708632485,-0.05065637281039475
7692,3.0,299.99601,1553.4637,0.0,0.0,0.0,0.07800567712703314,0.0,0.0,-0.07194574634349234,-0.17099528640842085,-0.22927313597999677,0.7641928606499633,0.17081889983101284,-0.05525638539613065
7693,3.0,300.15297999999996,1689.7167,0.0,0.0,0.0,0.0780158182707054,0.0,0.0,-0.08934912639782222,-0.2119486668302048,-0.21233388425322278,0.7724573742956072,0.17879295520299082,-0.06532173425900324
7694,3.0,300.82826,2054.341,0.0,0.0,0.0,0.07802595941437766,0.0,0.0,-0.16856896785146183,-0.1899856907101278,-0.26591370854363977,0.7482314256671923,0.16703826105789282,-0.03576403422013536
7695,3.0,300.36068,1997.2287,0.0,0.0,0.0,0.07803610055804992,0.0,0.0,-0.16157809944901683,-0.2149031217367868,-0.2306264125485548,0.7137336541500273,0.17294086845543483,-0.02987261209044727
7696,3.0,299.48784,1675.2932,0.0,0.0,0.0,0.0780462417017222,0.0,0.0,-0.12622444570488286,-0.17776252038129484,-0.2052603447751188,0.7375106620566353,0.21368852870941582,-0.02162804528627188
7697,3.0,299.86492999999996,1764.2842,0.0,0.0,0.0,0.07805638284539444,0.0,0.0,-0.1103032874135869,-0.19477074404237582,-0.23122430103506175,0.7329837747173663,0.21866457968551378,-0.049274440515758654
7698,3.0,300.03342000000004,2069.8376,0.0,0.0,0.0,0.07806652398906672,0.0,0.0,-0.13739930748025586,-0.2203744290967628,-0.2714052201106097,0.7408001075787783,0.17926169483175183,-0.06939047549930674
7699,3.0,300.08295,1917.2951,0.0,0.0,0.0,0.07807666513273896,0.0,0.0,-0.14950695716518786,-0.20406873226001582,-0.22923415624864976,0.7206087891260503,0.17408603358595381,-0.08444721999779171
7700,3.0,299.50157,1517.8349,0.0,0.0,0.0,0.07808680627641124,0.0,0.0,-0.10037584999532509,-0.1855721151295418,-0.17543594616417982,0.7667715314919582,0.1908509961630268,-0.06888081373875703
7701,3.0,300.08946000000003,1504.2496,0.0,0.0,0.0,0.07809694742008348,0.0,0.0,-0.1129974890319839,-0.18484640514291983,-0.15941042311258385,0.7534636465335722,0.1966341717712818,-0.04930194417647305
7702,3.0,299.75327000000004,1803.6132,0.0,0.0,0.0,0.07810708856375576,0.0,0.0,-0.14754962141701386,-0.1993374115805708,-0.20136635371331182,0.7462904843056363,0.16044486027217483,-0.034965106781287364
7703,3.0,301.45732000000004,2069.0987,0.0,0.0,0.0,0.078117229707428,0.0,0.0,-0.14855812950654587,-0.2253716063374458,-0.25502459342896777,0.7318338067813732,0.17438965397841882,-0.05598681206196815
7704,3.0,300.31279,1988.4719,0.0,0.0,0.0,0.07812737085110028,0.0,0.0,-0.1102227948256429,-0.2310877250540828,-0.26313526531192877,0.7071202923373394,0.18605398647959884,-0.045021218856248366
7705,3.0,301.19135,1912.8293,0.0,0.0,0.0,0.07813751199477252,0.0,0.0,-0.1028416224846779,-0.22120978287670578,-0.2574009384909947,0.7429062695016403,0.2134511140784848,-0.05078013827035945
7706,3.0,301.15441,2065.1487,0.0,0.0,0.0,0.0781476531384448,0.0,0.0,-0.15008813715754585,-0.2258868237482938,-0.25177867713112073,0.7111050300781023,0.15487137677211485,-0.05374068281004245
7707,3.0,300.22404,2214.7246,0.0,0.0,0.0,0.07815779428211705,0.0,0.0,-0.19641759969490782,-0.23103795420917078,-0.24576543295515976,0.7479402277209533,0.17138339159422383,-0.03146867452871637
7708,3.0,299.76809,2057.3254,0.0,0.0,0.0,0.07816793542578931,0.0,0.0,-0.17157396367303185,-0.2158280772230728,-0.2379734991561558,0.7479298013774243,0.17151686702989685,-0.033897196904642865
7709,3.0,300.41001,1693.7906,0.0,0.0,0.0,0.07817807656946157,0.0,0.0,-0.08410594013886002,-0.2053195287134598,-0.2254445806096478,0.7514713840544512,0.2083835362208538,-0.05245526562718165
7710,3.0,298.60226,1598.9141,0.0,0.0,0.0,0.07818821771313383,0.0,0.0,-0.07511894776116293,-0.18350396021793083,-0.2274070636683298,0.7273852842048383,0.18114388795250982,-0.06330405237462354
7711,3.0,299.07703,1905.3576,0.0,0.0,0.0,0.0781983588568061,0.0,0.0,-0.12680320402950188,-0.21289112114571782,-0.2394868185780088,0.7337461846226103,0.17890872915941683,-0.051725514799160856
7712,3.0,300.89301,2087.4333,0.0,0.0,0.0,0.07820850000047835,0.0,0.0,-0.14596141268026985,-0.2483326642035258,-0.24023351297420178,0.7272009030841413,0.1961304750140708,-0.04641447523400205
7713,3.0,300.42228,2009.7335,0.0,0.0,0.0,0.07821864114415061,0.0,0.0,-0.16494940544673883,-0.22026800743875982,-0.22569140833400778,0.6982881154556714,0.1859526310720958,-0.027530211920020375
7714,3.0,300.11906,1896.4791,0.0,0.0,0.0,0.07822878228782287,0.0,0.0,-0.14750472430508285,-0.2084484652872618,-0.22052909159202677,0.7371434906178983,0.15819986282061083,-0.05100734440653295
7715,3.0,299.99371,1976.1374,0.0,0.0,0.0,0.07823892343149513,0.0,0.0,-0.14127879893313186,-0.2051642785331378,-0.25425334798285176,0.7339775501504443,0.15071224855664087,-0.03856759186882496
7716,3.0,299.47002000000003,2008.8674,0.0,0.0,0.0,0.0782490645751674,0.0,0.0,-0.11107783605502888,-0.22325904067395178,-0.27630864131953975,0.7849197020455433,0.1911956227870388,-0.05486279143453595
7717,3.0,300.11912,1904.8162,0.0,0.0,0.0,0.07825920571883965,0.0,0.0,-0.11694952919201988,-0.19996186748469982,-0.26210517499526675,0.7490236656553803,0.1904158863050848,-0.03861736575348726
7718,3.0,301.26932,1581.5312,0.0,0.0,0.0,0.07826934686251193,0.0,0.0,-0.09447294267575351,-0.1926919905347188,-0.1935810465699618,0.7582609297945273,0.17418900006111582,-0.05583043616078505
7719,3.0,301.56341000000003,1338.9791,0.0,0.0,0.0,0.07827948800618417,0.0,0.0,-0.1016426639063499,-0.14398295066751085,-0.16139058738551085,0.7393464483228133,0.1991171006113278,-0.04432000115104355
7720,3.0,300.20047,1657.7242,0.0,0.0,0.0,0.07828962914985645,0.0,0.0,-0.14446595685767985,-0.18107864477857083,-0.1783621516579738,0.7555446697214533,0.1967926542194228,-0.06160541660223123
7721,3.0,300.56691,2081.6402,0.0,0.0,0.0,0.0782997702935287,0.0,0.0,-0.13890167366852785,-0.24181967494574377,-0.2520452936299337,0.7207780930852593,0.22373721366114377,-0.04550415715866066
7722,3.0,300.29661,1947.5075,0.0,0.0,0.0,0.07830991143720097,0.0,0.0,-0.12242816235021887,-0.22164481167463979,-0.24792068684536678,0.6971254717609273,0.17715851186418383,-0.06192969513773504
7723,3.0,299.54572,1947.418,0.0,0.0,0.0,0.07832005258087323,0.0,0.0,-0.1180704979101509,-0.2432220130841438,-0.2306739339782448,0.7190021392374863,0.19519245873399582,-0.05801427383631304
7724,3.0,298.65738999999996,2046.4411,0.0,0.0,0.0,0.07833019372454549,0.0,0.0,-0.14489330521985586,-0.24223783312951278,-0.23493586654886478,0.7498239609818632,0.2007346024084628,-0.051767938567597746
7725,3.0,299.4226,2118.7142,0.0,0.0,0.0,0.07834033486821775,0.0,0.0,-0.18779430432135483,-0.2162171652614728,-0.24002473279109676,0.7375310689136493,0.17608636153587082,-0.02043464337149228
7726,3.0,299.957,1892.5329,0.0,0.0,0.0,0.07835047601189002,0.0,0.0,-0.15217991092898786,-0.1909717553099448,-0.2321310686820528,0.7642040975935722,0.13848873372277387,-0.042767635123336964
7727,3.0,300.45625,1591.6207,0.0,0.0,0.0,0.07836061715556226,0.0,0.0,-0.08886114920266261,-0.17333809289213783,-0.22161369476406878,0.7350717893309373,0.16633023228551586,-0.027598875826296974
7728,3.0,300.81877000000003,1469.924,0.0,0.0,0.0,0.07837075829923454,0.0,0.0,-0.051166433791483855,-0.18420997262260883,-0.21144377443787582,0.8009054448982132,0.1922419960328078,-0.07006359983223893
7729,3.0,300.95775,1880.6251,0.0,0.0,0.0,0.07838089944290678,0.0,0.0,-0.14560801131039186,-0.19585538774442182,-0.23019967213643877,0.7285592864332032,0.18383696486329582,-0.04859067300377605
7730,3.0,299.78301,2253.752,0.0,0.0,0.0,0.07839104058657906,0.0,0.0,-0.18307668278326183,-0.24943562746737974,-0.25257200129691576,0.7123283269238324,0.17703845185983483,-0.07711870322477343
7731,3.0,300.04045,1993.8995,0.0,0.0,0.0,0.07840118173025133,0.0,0.0,-0.17880127398631182,-0.2227046104842338,-0.20458978599143982,0.7223141802368592,0.18118946394200783,-0.056463147013478744
7732,3.0,299.87645,1533.4606,0.0,0.0,0.0,0.07841132287392358,0.0,0.0,-0.0957743712366945,-0.20848552997591982,-0.16187381649070184,0.7489135051045083,0.2374041437924648,-0.07765503879420563
7733,3.0,299.39907999999997,1632.2306,0.0,0.0,0.0,0.07842146401759585,0.0,0.0,-0.0907273127068386,-0.19215370141909383,-0.2132763385687358,0.7489411668322383,0.20751661970029578,-0.03185329109442507
7734,3.0,299.25241,2021.168,0.0,0.0,0.0,0.0784316051612681,0.0,0.0,-0.1138569682968079,-0.24074771713494977,-0.25977991800328176,0.7156868659702943,0.15069360475480087,-0.045974023521532854
7735,3.0,300.25111,2047.5439999999999,0.0,0.0,0.0,0.07844174630494036,0.0,0.0,-0.14272335920319887,-0.2074482455835478,-0.2722306541720737,0.7236242011586482,0.18113446472657982,-0.018839397612803784
7736,3.0,299.91806,1729.5732,0.0,0.0,0.0,0.07845188744861263,0.0,0.0,-0.11973710180713187,-0.1947193013347988,-0.2112906723477658,0.7569683063769553,0.1876649730785908,-0.04292921305053346
7737,3.0,300.48627,1579.9404,0.0,0.0,0.0,0.07846202859228488,0.0,0.0,-0.13786739862895286,-0.15427750075600385,-0.1881175412357558,0.7555440212413893,0.19020252623152784,-0.02874369543853187
7738,3.0,299.76085,1980.9309,0.0,0.0,0.0,0.07847216973595715,0.0,0.0,-0.14836970551794987,-0.1961729707232648,-0.25761084338171075,0.7446123698875192,0.1358289015477689,-0.06208284789035004
7739,3.0,300.03626,2381.1511,0.0,0.0,0.0,0.0784823108796294,0.0,0.0,-0.19020435008170783,-0.2515578190068238,-0.2820483079685007,0.7803438139314383,0.15985212922867684,-0.07073235604399003
7740,3.0,299.20551,2021.7635,0.0,0.0,0.0,0.07849245202330167,0.0,0.0,-0.1250737988913229,-0.2325812455689818,-0.25691056597259876,0.7631318662052513,0.2086870958183128,-0.08256477761750912
7741,3.0,300.32561,1540.2335,0.0,0.0,0.0,0.07850259316697394,0.0,0.0,-0.094917450428373,-0.18669724830558382,-0.18657782664879782,0.7564256805509023,0.18112507189815283,-0.047412458694745356
7742,3.0,300.90899,1627.7392,0.0,0.0,0.0,0.07851273431064619,0.0,0.0,-0.11546402348541188,-0.18508149943112182,-0.19424654923564183,0.6972546712811784,0.16429601111975384,-0.05759298673623524
7743,3.0,300.98931,2061.2643,0.0,0.0,0.0,0.07852287545431846,0.0,0.0,-0.18418543170518684,-0.21067724060472479,-0.23171020512051677,0.6975149043043614,0.18848678983719783,-0.007929397995020654
7744,3.0,300.53598,2005.8203,0.0,0.0,0.0,0.07853301659799071,0.0,0.0,-0.12133346720718088,-0.23310412315058576,-0.25528170564184277,0.7331187092331833,0.2147067437349058,-0.03676912461708007
7745,3.0,301.95944,1702.2246,0.0,0.0,0.0,0.07854315774166298,0.0,0.0,-0.100193078929037,-0.16341475711028083,-0.2538259489581708,0.7182574713414933,0.2042550081583998,-0.003166109578895687
7746,3.0,300.1855,1762.0742,0.0,0.0,0.0,0.07855329888533524,0.0,0.0,-0.06804938326320123,-0.22291583260007977,-0.24466132471869276,0.7308719183289423,0.16420174846295085,-0.06447279279521924
7747,3.0,300.56164,2150.5761,0.0,0.0,0.0,0.0785634400290075,0.0,0.0,-0.16913317590464486,-0.22024149068364282,-0.26434675779399375,0.7308691521561692,0.1765383622729798,-0.04804017422444605
7748,3.0,300.56201,2369.6428,0.0,0.0,0.0,0.07857358117267976,0.0,0.0,-0.2075899790075358,-0.25287077835390276,-0.2598514838578448,0.7489664271572313,0.21253170107024583,-0.06772781111871452
7749,3.0,300.47559,1909.0205,0.0,0.0,0.0,0.07858372231635202,0.0,0.0,-0.16208832153687186,-0.18646695682285583,-0.23173928539838676,0.7714852621496673,0.16674699218414685,-0.04051131865490586
7750,3.0,299.79523,1332.3543,0.0,0.0,0.0,0.07859386346002428,0.0,0.0,-0.07518999888467513,-0.14009784580908088,-0.18971460577837382,0.7475578777957183,0.15541474227074087,-0.06470040017843234
7751,3.0,300.56132,1636.4493,0.0,0.0,0.0,0.07860400460369656,0.0,0.0,-0.08649667639205733,-0.20501202757311182,-0.20593103528131082,0.7734606337496213,0.17654880888151084,-0.06165767598938885
7752,3.0,299.41636,2089.936,0.0,0.0,0.0,0.0786141457473688,0.0,0.0,-0.12422303357735887,-0.24193079808421078,-0.26913451650400877,0.7490397965969723,0.18272755732880583,-0.06419493124679644
7753,3.0,299.09007,1969.1202,0.0,0.0,0.0,0.07862428689104108,0.0,0.0,-0.15777811773148784,-0.2042456355949748,-0.23653962867464376,0.7157532743818483,0.17320048339605684,-0.04583784676109325
7754,3.0,299.06926,1547.2404,0.0,0.0,0.0,0.07863442803471332,0.0,0.0,-0.1132726168316369,-0.1928151916143778,-0.16423464869369783,0.7075898121686773,0.15054659229779185,-0.04070339743661256
7755,3.0,299.83001,1664.9567,0.0,0.0,0.0,0.0786445691783856,0.0,0.0,-0.12624244102665888,-0.18412649094686984,-0.1957363308576718,0.7299003432055553,0.18834869398106882,-0.039111364693991166
7756,3.0,299.28185,2022.74,0.0,0.0,0.0,0.07865471032205786,0.0,0.0,-0.13645040889410687,-0.2132179145679698,-0.2651941388526238,0.7520639935079373,0.23548082285014776,-0.03826876921558347
7757,3.0,300.89082,2209.8942,0.0,0.0,0.0,0.07866485146573012,0.0,0.0,-0.15688817003615685,-0.23874036736183973,-0.2761241284763297,0.7568416298494532,0.17976001123093183,-0.04807265294315145
7758,3.0,300.96858,1922.0864,0.0,0.0,0.0,0.07867499260940237,0.0,0.0,-0.12589199834707288,-0.19412556717370183,-0.26424870558181673,0.7133737781120103,0.15894361879151384,-0.06673999967572514
7759,3.0,300.58636,1556.336,0.0,0.0,0.0,0.07868513375307463,0.0,0.0,-0.12520629147439888,-0.18226271871292982,-0.16561826197024984,0.7488436415101133,0.16721520492285583,-0.08705083503074852
7760,3.0,301.22681,1616.2724,0.0,0.0,0.0,0.0786952748967469,0.0,0.0,-0.13438160550243186,-0.18644014622520982,-0.17048470968303084,0.7636555543869352,0.19146828838894883,-0.08134679932155402
7761,3.0,301.07423,2045.9554,0.0,0.0,0.0,0.07870541604041917,0.0,0.0,-0.17891107989964883,-0.2078778230959438,-0.23513044096556776,0.7593776732597413,0.15791714577770885,-0.03703108725818376
7762,3.0,300.23625,2207.5184,0.0,0.0,0.0,0.07871555718409141,0.0,0.0,-0.16409186148960586,-0.2349754643627728,-0.27196314601317273,0.7494255814400463,0.14111836091229787,-0.05034582786674636
7763,3.0,299.89102,1784.9786,0.0,0.0,0.0,0.07872569832776369,0.0,0.0,-0.1120009474261329,-0.19498342523836582,-0.2356045508198588,0.7639733602808003,0.17168030427102682,-0.035562568689502264
7764,3.0,299.66052,1628.6321,0.0,0.0,0.0,0.07873583947143593,0.0,0.0,-0.07317470219103082,-0.2178742547400148,-0.20401454364466778,0.7464628482801473,0.2120299598857278,-0.06133183299573065
7765,3.0,299.95172,1924.0381,0.0,0.0,0.0,0.07874598061510821,0.0,0.0,-0.15676740075673784,-0.2157435924297348,-0.21234854598216982,0.7233540788144893,0.1887901771821398,-0.04779003418550916
7766,3.0,299.47207000000003,2172.9047,0.0,0.0,0.0,0.07875612175878047,0.0,0.0,-0.1975876401153818,-0.20353217580206182,-0.25938896558469776,0.6895689666226584,0.18632581108392582,-0.03124826730071387
7767,3.0,300.36857000000003,1897.8473,0.0,0.0,0.0,0.07876626290245273,0.0,0.0,-0.15759645212105886,-0.2231004569008008,-0.19620128093105882,0.7143318770090673,0.2045103877136038,-0.05747633935822304
7768,3.0,299.75879,1501.3536,0.0,0.0,0.0,0.07877640404612499,0.0,0.0,-0.07154714489990344,-0.16830725548313286,-0.21651960015132077,0.7521228228087432,0.23122235559486978,-0.053916536417897856
7769,3.0,300.02022999999997,1736.9205,0.0,0.0,0.0,0.07878654518979725,0.0,0.0,-0.08395649689486112,-0.2069827584876078,-0.23704121787164675,0.7562613111196803,0.16458997523876584,-0.04549538443929486
7770,3.0,299.36188,2168.0153,0.0,0.0,0.0,0.0787966863334695,0.0,0.0,-0.13769647346958386,-0.2363165616651288,-0.2850094807232457,0.7381878170984653,0.15383275488961085,-0.053631569959773855
7771,3.0,301.24351,2118.3591,0.0,0.0,0.0,0.07880682747714178,0.0,0.0,-0.1826623242873678,-0.2085664886589098,-0.25269946815949573,0.7495012002950093,0.16124844866148286,-0.05749292828886025
7772,3.0,300.5823,1599.4648,0.0,0.0,0.0,0.07881696862081403,0.0,0.0,-0.10961695232585089,-0.20041886354480182,-0.17616152442828883,0.7770155406654633,0.2223070111449938,-0.04865137884376725
7773,3.0,300.96815,1515.4823,0.0,0.0,0.0,0.0788271097644863,0.0,0.0,-0.07986674490048402,-0.1995874107777438,-0.18121462294199084,0.7669044800375794,0.17648922977563083,-0.04036675724988876
7774,3.0,300.16367,1918.1772,0.0,0.0,0.0,0.07883725090815855,0.0,0.0,-0.12213316471610489,-0.22143657864658878,-0.23950821842012077,0.7290776347868603,0.16405565806353284,-0.030794322136662968
7775,3.0,300.69878,2299.3184,0.0,0.0,0.0,0.07884739205183082,0.0,0.0,-0.15511692780134886,-0.26768256964071274,-0.27613588217748974,0.7309434639185033,0.17907162937799384,-0.05480957351278374
7776,3.0,299.18237,2037.6599,0.0,0.0,0.0,0.0788575331955031,0.0,0.0,-0.12984912502261087,-0.2197855484036448,-0.26976305580604076,0.7019512070846904,0.2089668643034238,-0.054136776459633856
7777,3.0,299.20305,1589.8212,0.0,0.0,0.0,0.07886767433917534,0.0,0.0,-0.12031792716195489,-0.17410499149532482,-0.18884300804235382,0.7199562459291493,0.19190087525414182,-0.05094168883980325
7778,3.0,299.48115,1779.5642,0.0,0.0,0.0,0.0788778154828476,0.0,0.0,-0.13035982333801288,-0.19958407718491483,-0.2109991805589978,0.6943168539412383,0.17111389746512684,-0.06349508345572684
7779,3.0,300.19046000000003,2227.2158,0.0,0.0,0.0,0.07888795662651986,0.0,0.0,-0.19775535327193383,-0.2054262948764968,-0.27383636173804476,0.7478357717681443,0.18308966251704284,-0.05682375056506754
7780,3.0,300.04991,2031.8143,0.0,0.0,0.0,0.07889809777019212,0.0,0.0,-0.13832384753400087,-0.2263521993867228,-0.25294476587620474,0.7698585600416243,0.22305805238411577,-0.05331277513381125
7781,3.0,300.63313999999997,1516.9765,0.0,0.0,0.0,0.07890823891386439,0.0,0.0,-0.06445815133127424,-0.18461350960743483,-0.21205131919783582,0.7691021688419742,0.1930505797451088,-0.03732046946024357
7782,3.0,299.88827000000003,1618.8999,0.0,0.0,0.0,0.07891838005753664,0.0,0.0,-0.07684983325773803,-0.2044234609875248,-0.21083186256998482,0.7602239802732653,0.16358951235502783,-0.04811496120107696
7783,3.0,299.99877999999995,2164.4396,0.0,0.0,0.0,0.07892852120120891,0.0,0.0,-0.16328940794040986,-0.2557524616383028,-0.2388937227644748,0.7413110794717073,0.16503631190781584,-0.04907997856981675
7784,3.0,300.65732,2393.5393,0.0,0.0,0.0,0.07893866234488116,0.0,0.0,-0.1966665653769788,-0.2502768580979028,-0.28063273678379475,0.7493055214356973,0.19663133467100183,-0.03873562622565867
7785,3.0,299.06171,1862.3715,0.0,0.0,0.0,0.07894880348855343,0.0,0.0,-0.12808804568630588,-0.21376928474238582,-0.22425711228745376,0.7277161204949892,0.16593811462931685,-0.04909581972188015
7786,3.0,299.2278,1428.8010000000002,0.0,0.0,0.0,0.0789589446322257,0.0,0.0,-0.08198427346296783,-0.16326416788041884,-0.18907137434989182,0.7300421779545533,0.16458574998584885,-0.04338913942992466
7787,3.0,299.57547999999997,1674.4889,0.0,0.0,0.0,0.07896908577589795,0.0,0.0,-0.08824500194935361,-0.17769669965479884,-0.24306110896826377,0.7287240307669622,0.18234047552560384,-0.06229751201678574
7788,3.0,299.18671,1992.7216,0.0,0.0,0.0,0.07897922691957023,0.0,0.0,-0.15156541527334186,-0.2166061519748628,-0.2375660408934428,0.7489056220187302,0.21465725660002177,-0.04224698466545276
7789,3.0,299.74442,1922.1827,0.0,0.0,0.0,0.07898936806324247,0.0,0.0,-0.16176395991485987,-0.1955082583926628,-0.22702332559045776,0.7380542504702833,0.18260787222699382,-0.06721873299022244
7790,3.0,300.77032,1551.1641,0.0,0.0,0.0,0.07899950920691474,0.0,0.0,-0.08971595535802541,-0.19304044724410882,-0.18875875629653882,0.7136892636631463,0.15107833581777086,-0.05105446256268316
7791,3.0,300.39797999999996,1607.6977,0.0,0.0,0.0,0.079009650350587,0.0,0.0,-0.08944378624866442,-0.21480732907233277,-0.18444883620118283,0.7608638882414193,0.1996865978300328,-0.06549596767994874
7792,3.0,300.93663,2299.8172,0.0,0.0,0.0,0.07901979149425926,0.0,0.0,-0.17234210857384183,-0.23415466085426576,-0.29259022280390673,0.7624542855983794,0.20305273625224482,-0.03435175407175417
7793,3.0,300.30357999999995,2230.173,0.0,0.0,0.0,0.07902993263793152,0.0,0.0,-0.16862170751916683,-0.23783175559966677,-0.27146342119635375,0.7726652222886203,0.19483604801132082,-0.029279417991653574
7794,3.0,299.76521,1661.8492,0.0,0.0,0.0,0.07904007378160378,0.0,0.0,-0.1108432787893799,-0.18272817541136682,-0.21158920622472882,0.7294091094245744,0.15609874688324685,-0.035559360739685665
7795,3.0,299.7375,1476.28,0.0,0.0,0.0,0.07905021492527604,0.0,0.0,-0.1047321242562559,-0.15816521979969184,-0.18585492336495282,0.7625752980578222,0.16146865830571586,-0.041956305503264964
7796,3.0,298.88794,1766.4515,0.0,0.0,0.0,0.07906035606894832,0.0,0.0,-0.12186082335422689,-0.1990918909488398,-0.2160044232704768,0.7560150204178733,0.19476591083939881,-0.06415333429044115
7797,3.0,299.23387,1970.6565,0.0,0.0,0.0,0.07907049721262056,0.0,0.0,-0.16772938881860186,-0.18028122708237182,-0.25101975280622074,0.7323804754753253,0.18023286465509883,-0.04440898376157546
7798,3.0,300.87096,1831.9896,0.0,0.0,0.0,0.07908063835629284,0.0,0.0,-0.13363076691332987,-0.19959518240601082,-0.2236531443003468,0.7343769429423613,0.16251883123935987,-0.05832731340170764
7799,3.0,300.91155,1597.3132,0.0,0.0,0.0,0.07909077949996508,0.0,0.0,-0.10453404399420689,-0.18581022890304183,-0.19519904485964581,0.7282012038478634,0.1989111980585068,-0.059487772529236045
7800,3.0,301.45198,1759.6256,0.0,0.0,0.0,0.07910092064363733,0.0,0.0,-0.15393577202727785,-0.1717896238243158,-0.2091568385646728,0.7639634912248262,0.2039529380385878,-0.053669003471468246
7801,3.0,301.29237,2321.5927,0.0,0.0,0.0,0.07911106178730962,0.0,0.0,-0.2033868960027238,-0.24781145848458677,-0.2545078460104687,0.7323007630899583,0.17789498256686784,-0.06907204746988034
7802,3.0,300.0525,2510.8201,0.0,0.0,0.0,0.07912120293098188,0.0,0.0,-0.2029957611991218,-0.25674367354862776,-0.3034872007393547,0.7392459136478913,0.15350219217698685,-0.03450692724506857
7803,3.0,299.75012000000004,1899.1999,0.0,0.0,0.0,0.07913134407465414,0.0,0.0,-0.1175098159673159,-0.2123594992157508,-0.24744005166043176,0.7653382993580092,0.17083888112298484,-0.04920905447355555
7804,3.0,299.14783,1566.4884,0.0,0.0,0.0,0.0791414852183264,0.0,0.0,-0.07737098831417202,-0.2034596676249058,-0.1953427135913248,0.7858239264347833,0.20803958847440882,-0.03520471915168527
7805,3.0,298.85299,1846.34,0.0,0.0,0.0,0.07915162636199866,0.0,0.0,-0.14110106473309086,-0.18061555908536783,-0.23952461280673876,0.7718710672577432,0.18627993111939783,-0.04719658069468986
7806,3.0,299.69012999999995,1970.4512,0.0,0.0,0.0,0.07916176750567092,0.0,0.0,-0.15922926412720484,-0.21067017825152778,-0.22906853038730376,0.7402972720841523,0.14126774437454087,-0.03760138393121766
7807,3.0,300.01369,1761.2951,0.0,0.0,0.0,0.07917190864934318,0.0,0.0,-0.1086374029241769,-0.21509553793077676,-0.2116568001388998,0.7221874125168484,0.18281194079713384,-0.08083553054634572
7808,3.0,300.68611,1547.6476,0.0,0.0,0.0,0.07918204979301545,0.0,0.0,-0.089804043268719,-0.16769835296803884,-0.21294381015091782,0.7386089542375284,0.19313845892628181,-0.07044400229078172
7809,3.0,300.19716,1708.6194,0.0,0.0,0.0,0.0791921909366877,0.0,0.0,-0.10312378224002491,-0.2097145719497168,-0.20653925891883781,0.7310316470747062,0.18641683134040882,-0.07143789526087134
7810,3.0,299.7431,2164.4573,0.0,0.0,0.0,0.07920233208035997,0.0,0.0,-0.18053789346520283,-0.2008663147889618,-0.2765367745795547,0.7367328203523683,0.17066632463095482,-0.06629267103482724
7811,3.0,299.91837000000004,2470.3507,0.0,0.0,0.0,0.07921247322403221,0.0,0.0,-0.2091521269517078,-0.2733833477508357,-0.2683894635729777,0.7311245519763753,0.2051612995778438,-0.039955694856570065
7812,3.0,299.60402,2016.4108,0.0,0.0,0.0,0.07922261436770449,0.0,0.0,-0.17342507028072185,-0.23001535181074778,-0.2094981214633548,0.7260411370196813,0.21983485315351078,-0.05996575907840964
7813,3.0,299.63432,1668.6189,0.0,0.0,0.0,0.07923275551137673,0.0,0.0,-0.11182485469125389,-0.16222094584246086,-0.23317267965235178,0.7194160417708353,0.2032695717736448,-0.015069534754497285
7814,3.0,300.32993999999997,1922.6279,0.0,0.0,0.0,0.07924289665504901,0.0,0.0,-0.1275409007648069,-0.22376137967602877,-0.23312860327300178,0.7381642792986424,0.14701193011894786,-0.05181873887461136
7815,3.0,299.83952999999997,2118.2977,0.0,0.0,0.0,0.07925303779872125,0.0,0.0,-0.14462718521359189,-0.20937008718071878,-0.28991235477712174,0.7532513503726203,0.16315871894251183,-0.018038057625467684
7816,3.0,299.6982,1845.7314,0.0,0.0,0.0,0.07926317894239353,0.0,0.0,-0.1282343995307499,-0.18784019441838384,-0.24498165360530674,0.7743347646108913,0.17144276805008382,-0.04638555504964786
7817,3.0,299.77882999999997,1522.0496,0.0,0.0,0.0,0.07927332008606577,0.0,0.0,-0.08655954146801162,-0.1915200756015598,-0.18458544257966483,0.7434399685943123,0.17025558343791783,-0.05485942845745404
7818,3.0,299.57691,1646.3983,0.0,0.0,0.0,0.07928346122973805,0.0,0.0,-0.12881439402049089,-0.15459190212953283,-0.21705766635192378,0.7293501686662572,0.15188684860256485,-0.05548084359803295
7819,3.0,299.02022999999997,2254.2081,0.0,0.0,0.0,0.07929360237341031,0.0,0.0,-0.15780918397955385,-0.27655013934837375,-0.25086366162831575,0.7397055238932513,0.19554225293351782,-0.08200032638430212
7820,3.0,299.39236,2256.3402,0.0,0.0,0.0,0.07930374351708257,0.0,0.0,-0.17418064074779083,-0.2495110234073208,-0.26217942596259475,0.7484660437278473,0.2301049839145938,-0.04261621300189276
7821,3.0,298.76854,1758.4806,0.0,0.0,0.0,0.07931388466075483,0.0,0.0,-0.11959309870291988,-0.2056780875263468,-0.20926300691015082,0.7556658645659143,0.21307837989669878,-0.055132312921385644
7822,3.0,299.94709,1609.6538,0.0,0.0,0.0,0.07932402580442709,0.0,0.0,-0.1087757824903339,-0.19498055774058282,-0.18553823204619782,0.7486404747325622,0.16642857834022184,-0.03161941473284327
7823,3.0,300.90882,1829.4764,0.0,0.0,0.0,0.07933416694809935,0.0,0.0,-0.13928726599408287,-0.1887160275398218,-0.22811185004038678,0.7598659990129353,0.1817448060568158,-0.05747835572592204
7824,3.0,300.39615,2012.1069,0.0,0.0,0.0,0.0793443080917716,0.0,0.0,-0.15649437038479186,-0.23067582875593176,-0.2244600561499828,0.7544741811233043,0.17390561427314785,-0.044380023047217255
7825,3.0,300.02371,1994.1237,0.0,0.0,0.0,0.07935444923544387,0.0,0.0,-0.13468410118728585,-0.23608149777442974,-0.23539820243699378,0.7361735569596733,0.17877091701331582,-0.05378986596989645
7826,3.0,299.79388,1644.5576,0.0,0.0,0.0,0.07936459037911614,0.0,0.0,-0.09888073969101922,-0.18360367416027182,-0.21742004511768778,0.7398644521714363,0.17057519291696083,-0.04954638367034736
7827,3.0,299.6862,1590.5699,0.0,0.0,0.0,0.07937473152278839,0.0,0.0,-0.06663900093225734,-0.21801598816400278,-0.1988385378938358,0.7616613566001232,0.1943727698005988,-0.060579656916496645
7828,3.0,300.63788,2033.2679999999998,0.0,0.0,0.0,0.07938487266646066,0.0,0.0,-0.14001750520865186,-0.21910807925428377,-0.2589371168351038,0.7829851644246192,0.1995215596537448,-0.06659476648589174
7829,3.0,299.17003,1991.2704,0.0,0.0,0.0,0.0793950138101329,0.0,0.0,-0.15766170542749885,-0.20159326094070582,-0.24604150307740577,0.7465029527191053,0.18371308490606986,-0.046322243130399454
7830,3.0,299.7405,1777.799,0.0,0.0,0.0,0.07940515495380518,0.0,0.0,-0.1278570043985039,-0.21662966950968382,-0.19591983045078182,0.7362945187566112,0.15040457516377587,-0.060708295096192244
7831,3.0,301.26927,1786.85,0.0,0.0,0.0,0.07941529609747744,0.0,0.0,-0.14177102569921088,-0.17227603453482082,-0.22911071198896676,0.7263239655200944,0.1988171481842248,-0.04329521722515526
7832,3.0,300.37807000000004,1977.5009,0.0,0.0,0.0,0.0794254372411497,0.0,0.0,-0.12784228187455088,-0.23340521041780077,-0.2398634132426758,0.7510362437990064,0.2078972369678598,-0.04746581441851116
7833,3.0,300.32899,2111.4118,0.0,0.0,0.0,0.07943557838482196,0.0,0.0,-0.16559644669559684,-0.2172402337549418,-0.25897978479681477,0.7462142777656153,0.18690117502070983,-0.02297978475442818
7834,3.0,300.3367,1964.6203,0.0,0.0,0.0,0.07944571952849422,0.0,0.0,-0.15776106473230483,-0.17793238162805883,-0.26150205813824373,0.7499350841203303,0.15919921112923885,-0.01133366542379569
7835,3.0,299.00953,1638.0526,0.0,0.0,0.0,0.07945586067216648,0.0,0.0,-0.09917980552428472,-0.21115048919643079,-0.18759679147936184,0.7501479173038353,0.17094350932831084,-0.04993262852896675
7836,3.0,299.29215,1728.5958,0.0,0.0,0.0,0.07946600181583875,0.0,0.0,-0.10672519733545689,-0.18989030334571383,-0.22883446961420378,0.7837097598361312,0.2052688358109568,-0.04420857201104637
7837,3.0,299.24801,2012.8517,0.0,0.0,0.0,0.079476142959511,0.0,0.0,-0.13375287368288086,-0.24839386450956577,-0.22970991770060376,0.7604754486830833,0.20827338580248284,-0.07202400572821593
7838,3.0,299.54593,2074.7306,0.0,0.0,0.0,0.07948628410318327,0.0,0.0,-0.14401762408593285,-0.25004808649032473,-0.2366005858006598,0.7619509333462022,0.1907985199403478,-0.06554289534508013
7839,3.0,300.7432,1895.2404,0.0,0.0,0.0,0.07949642524685552,0.0,0.0,-0.1124078787987939,-0.21350828164912677,-0.2501895969992907,0.7374101881767192,0.18894177966210182,-0.07275447697705784
7840,3.0,300.36574,1571.0149,0.0,0.0,0.0,0.07950656639052779,0.0,0.0,-0.09205588218495822,-0.1996201792859778,-0.18587322266175882,0.7685877417662043,0.18695437065095982,-0.05775474907494994
7841,3.0,299.93348,1885.5941,0.0,0.0,0.0,0.07951670753420005,0.0,0.0,-0.1252661745553089,-0.19580321549677282,-0.25210413306324075,0.7243904715467733,0.16570077092589286,-0.04221163946221446
7842,3.0,300.43788,2204.0457,0.0,0.0,0.0,0.07952684867787231,0.0,0.0,-0.1756082189461818,-0.2144304709626398,-0.2799361678700487,0.7353565936690453,0.17555538808596782,-0.025140673328441273
7843,3.0,299.48166000000003,1863.6456,0.0,0.0,0.0,0.07953698982154457,0.0,0.0,-0.1135500041790129,-0.2151991326210008,-0.23775258023685278,0.6998978962870444,0.2009605470482618,-0.044667647260353556
7844,3.0,298.65549,1576.5002,0.0,0.0,0.0,0.07954713096521683,0.0,0.0,-0.0984110567264151,-0.15427169483293085,-0.22653394605715976,0.7333651215250022,0.2311934070395128,-0.042361201256475065
7845,3.0,299.4628,1723.0563,0.0,0.0,0.0,0.07955727210888909,0.0,0.0,-0.1026576669290229,-0.1992408691110428,-0.2218675544441228,0.7255230723760523,0.2069080718227368,-0.05725979261310154
7846,3.0,299.62317,1978.6237,0.0,0.0,0.0,0.07956741325256136,0.0,0.0,-0.15939383620844685,-0.2156293890109638,-0.22642896321429878,0.7529539310707672,0.16826176055364284,-0.05644253446669444
7847,3.0,300.06347,2213.0767,0.0,0.0,0.0,0.07957755439623361,0.0,0.0,-0.16829036460396585,-0.23239203124530777,-0.27203767055802774,0.7560300671818583,0.17529452684772284,-0.06177048618927235
7848,3.0,300.5631,1966.6957,0.0,0.0,0.0,0.07958769553990588,0.0,0.0,-0.14392526633931788,-0.22935621235569575,-0.2245448854483548,0.7671313163374662,0.17268732288291183,-0.06715779714245854
7849,3.0,299.27653,1523.8458,0.0,0.0,0.0,0.07959783668357813,0.0,0.0,-0.08205293939574462,-0.16936956715297483,-0.21178857331440482,0.7618273978940103,0.15584878821607784,-0.06191715414124734
7850,3.0,299.8599,1742.9148,0.0,0.0,0.0,0.0796079778272504,0.0,0.0,-0.1004344796858614,-0.20132237865897182,-0.2280457253388608,0.7348018088417922,0.16155480482921786,-0.04750179999581266
7851,3.0,299.53436,1977.9034,0.0,0.0,0.0,0.07961811897092268,0.0,0.0,-0.12775065366800786,-0.22793914156084177,-0.2455434501232518,0.7445379162701713,0.18553426010580581,-0.04403785963419836
7852,3.0,299.97215,1771.7766,0.0,0.0,0.0,0.07962826011459492,0.0,0.0,-0.15982043476554886,-0.16445619582806284,-0.21429920441218478,0.7496527825099693,0.2235469151598628,-0.02209233776034398
7853,3.0,300.97691000000003,1631.3985,0.0,0.0,0.0,0.0796384012582672,0.0,0.0,-0.098377172629821,-0.2078932751599688,-0.18963395107041384,0.7424378642454122,0.20754487924558482,-0.06660837747448503
7854,3.0,301.66721,1809.1112,0.0,0.0,0.0,0.07964854240193944,0.0,0.0,-0.15394186166037885,-0.18496306062693282,-0.2110196988735228,0.7496725915494243,0.17778672692618383,-0.05256576865658746
7855,3.0,301.08505,2091.6939,0.0,0.0,0.0,0.07965868354561172,0.0,0.0,-0.13509265376010687,-0.24266023683120078,-0.25806982541200874,0.7354248056657773,0.18189414898905484,-0.08057208349384551
7856,3.0,301.14648,2118.1264,0.0,0.0,0.0,0.07966882468928398,0.0,0.0,-0.15022124782318286,-0.2311321054084628,-0.26250419288464677,0.7509599865964803,0.1826832175044298,-0.06439500254529193
7857,3.0,299.64802000000003,1888.7577,0.0,0.0,0.0,0.07967896583295622,0.0,0.0,-0.1169022610748549,-0.19891554490143581,-0.2583173826764408,0.7499119820180502,0.16921319226504183,-0.06804144140891744
7858,3.0,299.22933,1585.9254,0.0,0.0,0.0,0.0796891069766285,0.0,0.0,-0.0985154995069728,-0.19023151531688884,-0.19333471533815083,0.7458260509898003,0.17224462378172084,-0.040188021958748966
7859,3.0,299.65398999999996,1555.5002,0.0,0.0,0.0,0.07969924812030074,0.0,0.0,-0.1019604495352129,-0.18391589704608582,-0.18695688351120782,0.7609207417045303,0.18896467911436182,-0.06815980928559943
7860,3.0,299.06326,1891.3686,0.0,0.0,0.0,0.07970938926397302,0.0,0.0,-0.15216991015050085,-0.19435470355131582,-0.22840422335674176,0.7692146801330783,0.17773569965114783,-0.01998453842532038
7861,3.0,299.3332,1864.9578,0.0,0.0,0.0,0.07971953040764529,0.0,0.0,-0.14729462689684786,-0.18904683343246984,-0.23055914287441578,0.7538954531961883,0.18192980526007382,-0.04196855873672426
7862,3.0,300.48567,1836.2968,0.0,0.0,0.0,0.07972967155131754,0.0,0.0,-0.12487553624425589,-0.2103715025195508,-0.22294133610509678,0.7478779938998114,0.17949018272930184,-0.013770213753764287
7863,3.0,300.21379,2045.6683,0.0,0.0,0.0,0.07973981269498981,0.0,0.0,-0.17526862817516684,-0.2260783381496948,-0.2204851165376868,0.7500476764714423,0.17911472290474684,-0.05030939747265095
7864,3.0,300.85446,2440.4971,0.0,0.0,0.0,0.07974995383866205,0.0,0.0,-0.19534420306897182,-0.25831690644889377,-0.2881890798020477,0.7568091349187464,0.19925786131521983,-0.04779069482457436
7865,3.0,301.09776,2360.2782,0.0,0.0,0.0,0.07976009498233433,0.0,0.0,-0.2039439403776998,-0.24620226533827178,-0.26731944106987476,0.7213501234292143,0.1978305769593578,-0.06523926178036384
7866,3.0,300.63867999999997,1978.1012,0.0,0.0,0.0,0.07977023612600659,0.0,0.0,-0.14098061969370387,-0.23656386561703577,-0.22374887616979477,0.7347235454040683,0.1982180539300988,-0.07037639013810892
7867,3.0,299.93095,1618.6287,0.0,0.0,0.0,0.07978037726967885,0.0,0.0,-0.07822349743155813,-0.1888511241756548,-0.22494807792814678,0.7205843191361353,0.19148127825523084,-0.06571008971758094
7868,3.0,300.28323,1577.5262,0.0,0.0,0.0,0.07979051841335111,0.0,0.0,-0.09008571261101761,-0.1823535565843948,-0.20708930173562282,0.7664405432142922,0.20296124990071582,-0.04546603261039805
7869,3.0,299.41865,1646.4148,0.0,0.0,0.0,0.07980065955702337,0.0,0.0,-0.1013718626846239,-0.18485334590610483,-0.2142437694992138,0.7681572523287182,0.17483414653228682,-0.05267433333855195
7870,3.0,299.42405,1777.5093,0.0,0.0,0.0,0.07981080070069563,0.0,0.0,-0.1252077606870439,-0.17636011131538784,-0.23875057079034678,0.7745633234359482,0.16629473813451284,-0.04441345827401705
7871,3.0,298.55428,1778.5074,0.0,0.0,0.0,0.0798209418443679,0.0,0.0,-0.11438233847365789,-0.2031806388123678,-0.22305887311669678,0.7434550356232993,0.15316872143657587,-0.045183062254971054
7872,3.0,298.29848,1778.2116,0.0,0.0,0.0,0.07983108298804015,0.0,0.0,-0.11944841672114088,-0.19997511066350682,-0.2211083970716998,0.7509074191812922,0.17869984765130184,-0.06258055329971975
7873,3.0,299.28682000000003,2158.5141,0.0,0.0,0.0,0.07984122413171242,0.0,0.0,-0.15711368911091386,-0.23228788940002976,-0.2667327996594777,0.7462001733242233,0.1958699380158578,-0.05731949938849415
7874,3.0,299.87613999999996,2284.4388,0.0,0.0,0.0,0.07985136527538467,0.0,0.0,-0.18532082910474185,-0.2477559931741128,-0.26133552035180774,0.7410415752101093,0.19772056839600083,-0.054742546005418655
7875,3.0,299.39711,1968.9861,0.0,0.0,0.0,0.07986150641905694,0.0,0.0,-0.13664508463581987,-0.21825021105711878,-0.24362730299164276,0.7374277883309562,0.1912906757789198,-0.05831301948254694
7876,3.0,299.92822,1693.3997,0.0,0.0,0.0,0.0798716475627292,0.0,0.0,-0.0975759785504993,-0.2035305444694008,-0.21364471577509178,0.7275592085845033,0.19505199187263284,-0.06019219919750754
7877,3.0,300.70504,1796.6658,0.0,0.0,0.0,0.07988178870640146,0.0,0.0,-0.12458742871082189,-0.19528023659015883,-0.22627387515399278,0.7443906707656394,0.19891436953131983,-0.04448484782306266
7878,3.0,300.3417,1930.4405,0.0,0.0,0.0,0.07989192985007372,0.0,0.0,-0.14510658423340486,-0.18696177750919082,-0.25473735729061975,0.7392599674267782,0.19318520015339483,-0.061894025694464734
7879,3.0,300.11069,1767.401,0.0,0.0,0.0,0.07990207099374598,0.0,0.0,-0.1013363482686189,-0.2035757556888628,-0.23233365790704674,0.7567760320379794,0.17984637053695482,-0.05213655388772725
7880,3.0,299.34766,1695.845,0.0,0.0,0.0,0.07991221213741824,0.0,0.0,-0.12036588428918787,-0.16968576197918084,-0.2254428682169788,0.7441956809163953,0.17487241698856382,-0.048946926672685555
7881,3.0,298.97312999999997,1822.9006,0.0,0.0,0.0,0.07992235328109051,0.0,0.0,-0.12068914146859087,-0.17869733479105382,-0.25472977817987175,0.7765446630789913,0.15725659790501786,-0.02154390297146768
7882,3.0,300.10055,1967.1279,0.0,0.0,0.0,0.07993249442476276,0.0,0.0,-0.14011189958796788,-0.22286077258964576,-0.23498508010622177,0.7685879646812263,0.15623331662902787,-0.06743038067111043
7883,3.0,298.93859,1937.6684,0.0,0.0,0.0,0.07994263556843503,0.0,0.0,-0.13814102681845788,-0.19208833665514283,-0.25877343641394973,0.7576511052218423,0.15007429616117984,-0.040549439150168065
7884,3.0,299.55593,1850.1226,0.0,0.0,0.0,0.07995277671210728,0.0,0.0,-0.13848006030191787,-0.22265899396473177,-0.2012520287045288,0.7408322681369524,0.16257544152244685,-0.07891907538670634
7885,3.0,299.91898,1747.8874,0.0,0.0,0.0,0.07996291785577955,0.0,0.0,-0.1027943645000139,-0.20684383176639679,-0.2216759285852108,0.7383826549601943,0.20235044247543382,-0.044328881274919955
7886,3.0,301.22587999999996,1926.8449,0.0,0.0,0.0,0.07997305899945181,0.0,0.0,-0.15444778756780986,-0.19787177570842382,-0.2333931730066128,0.7215394998729043,0.23330753310816077,-0.06361387588420074
7887,3.0,300.25293,1936.2432,0.0,0.0,0.0,0.07998320014312407,0.0,0.0,-0.1271253972962999,-0.1996493710213588,-0.2617948164896367,0.7467293634539502,0.19228333663688782,-0.047006874944717364
7888,3.0,300.55688,1675.0555,0.0,0.0,0.0,0.07999334128679633,0.0,0.0,-0.08992443460585071,-0.19322048152187682,-0.22603011757743577,0.7243284707731543,0.19353280573270082,-0.06639286120471524
7889,3.0,300.1657,1758.9357,0.0,0.0,0.0,0.08000348243046859,0.0,0.0,-0.12706026557987188,-0.1931597473108828,-0.21445252941731677,0.7763257098648823,0.1843127871102558,-0.04600966763355066
7890,3.0,300.96635,1979.5538,0.0,0.0,0.0,0.08001362357414085,0.0,0.0,-0.15585461440415285,-0.22196143206588778,-0.22391887927157278,0.7576412260333673,0.17863036909194482,-0.055939034280002846
7891,3.0,299.91103,2031.1269,0.0,0.0,0.0,0.08002376471781313,0.0,0.0,-0.14832456522599485,-0.21059837934944178,-0.25848891578586974,0.7706708522492912,0.18091662608758083,-0.03324711185248447
7892,3.0,299.46013,1881.0612,0.0,0.0,0.0,0.08003390586148537,0.0,0.0,-0.14631147032481787,-0.21602908577791077,-0.2094550684666058,0.7410795112938533,0.17134724896315684,-0.058500455552295445
7893,3.0,299.46262,1868.4938,0.0,0.0,0.0,0.08004404700515765,0.0,0.0,-0.12505657363962286,-0.2066753789372718,-0.2362435063329188,0.7470490539930013,0.20721137810767082,-0.04722299105854636
7894,3.0,299.7591,1888.4695,0.0,0.0,0.0,0.08005418814882989,0.0,0.0,-0.1367983589784469,-0.21559714739278182,-0.2216520564128548,0.7243211449749313,0.1946641096018518,-0.06693810222927635
7895,3.0,299.53803999999997,1835.453,0.0,0.0,0.0,0.08006432929250216,0.0,0.0,-0.1227611872605859,-0.2054884983001358,-0.22968217491286577,0.7619304656941823,0.16779211913229283,-0.07074823468630713
7896,3.0,300.48461000000003,1861.5552,0.0,0.0,0.0,0.08007447043617444,0.0,0.0,-0.13095379054663286,-0.21959294982463676,-0.2153195675278868,0.7386102511976563,0.1913324216830398,-0.058008687788511745
7897,3.0,299.94822999999997,1760.5365,0.0,0.0,0.0,0.08008461157984668,0.0,0.0,-0.09478553843760432,-0.2118230947453118,-0.2285505062736788,0.7556188294962722,0.2000341324818318,-0.05138430586773615
7898,3.0,299.81645,1835.8122,0.0,0.0,0.0,0.08009475272351896,0.0,0.0,-0.12246883420923288,-0.2264160949380288,-0.20915614955460482,0.7418629968011773,0.2105953294666408,-0.05791956534946604
7899,3.0,300.1134,1919.4099,0.0,0.0,0.0,0.0801048938671912,0.0,0.0,-0.13406630233631386,-0.18533033339067984,-0.26405604620780276,0.7334631534721774,0.18428003886702382,-0.03808445294289286
7900,3.0,300.76773,1827.6108,0.0,0.0,0.0,0.08011503501086346,0.0,0.0,-0.1081650561250599,-0.2331742805875098,-0.2142087211782548,0.7440784377473243,0.19372856565202082,-0.06702634415398513
7901,3.0,299.85014,1799.7102,0.0,0.0,0.0,0.08012517615453574,0.0,0.0,-0.12596371618915086,-0.1988354981435358,-0.2222677578361198,0.7506743817907933,0.19270131243563882,-0.03817492503107176
7902,3.0,299.5399,2019.4419,0.0,0.0,0.0,0.08013531729820798,0.0,0.0,-0.14490119843813487,-0.22535014570032777,-0.24360855786479277,0.7538760595892743,0.1994310156248088,-0.07020692304563383
7903,3.0,299.04219,2050.9484,0.0,0.0,0.0,0.08014545844188026,0.0,0.0,-0.17281548888806084,-0.21825114324721082,-0.2323704794156808,0.7463224118162873,0.15468416868363885,-0.024411592258736577
7904,3.0,299.21648999999996,1861.0706,0.0,0.0,0.0,0.0801555995855525,0.0,0.0,-0.14159484177182285,-0.18142472035022583,-0.24269941921256777,0.7323586500681714,0.17124276261284482,-0.041785627576920364
7905,3.0,299.3547,1876.84,0.0,0.0,0.0,0.08016574072922478,0.0,0.0,-0.12140122324136789,-0.2130986246336968,-0.23601265756263579,0.7757257746131733,0.17450888311768584,-0.039757295420739566
7906,3.0,300.01885,2024.622,0.0,0.0,0.0,0.08017588187289705,0.0,0.0,-0.12645213313485387,-0.2371034719577908,-0.25187893822851576,0.7807224958913113,0.19896220506854082,-0.05004174441898566
7907,3.0,299.48562000000004,1983.9472,0.0,0.0,0.0,0.0801860230165693,0.0,0.0,-0.14025397751698984,-0.1973299300849478,-0.2654865121689787,0.7809060461469263,0.18322158768006283,-0.02956628328046497
7908,3.0,298.90536000000003,1792.5856,0.0,0.0,0.0,0.08019616416024157,0.0,0.0,-0.11975429666132889,-0.2139718334373758,-0.2111751213063618,0.7477225309369683,0.1961028234188418,-0.05627421133358225
7909,3.0,300.25216,1766.9495,0.0,0.0,0.0,0.08020630530391382,0.0,0.0,-0.12164675400559988,-0.1832212634400308,-0.2322405098253538,0.7355990644179753,0.19640587639125082,-0.047378168284861154
7910,3.0,300.34067000000005,1805.961,0.0,0.0,0.0,0.08021644644758609,0.0,0.0,-0.1339009601849959,-0.2111511984715008,-0.2039148803648318,0.7373767813209223,0.1942168610077118,-0.06341012648784224
7911,3.0,299.56686,1842.1607,0.0,0.0,0.0,0.08022658759125835,0.0,0.0,-0.12026406278663888,-0.2052651171830898,-0.23444167407759178,0.7203437532973933,0.17601144182347683,-0.07542502629837053
7912,3.0,300.70523,1946.154,0.0,0.0,0.0,0.08023672873493061,0.0,0.0,-0.18079060817264384,-0.19122357835729784,-0.21956803400467778,0.7344155579036723,0.17608226800546684,-0.05486310756856715
7913,3.0,300.21697,1858.3538,0.0,0.0,0.0,0.08024686987860287,0.0,0.0,-0.1042767291313119,-0.24360457579189979,-0.2170118370499008,0.7480195854687853,0.17849880869896081,-0.07560658855728933
7914,3.0,300.0782,1763.4728,0.0,0.0,0.0,0.08025701102227513,0.0,0.0,-0.1195739381435289,-0.19318129914050983,-0.2232964498676438,0.7802039550201353,0.20171649241786782,-0.04114735600767786
7915,3.0,300.73585,1966.9737,0.0,0.0,0.0,0.08026715216594739,0.0,0.0,-0.12196635335214187,-0.22539931872768076,-0.2505452275193888,0.7893005293828972,0.17279688561622483,-0.056818935600592355
7916,3.0,299.96032,1945.8542,0.0,0.0,0.0,0.08027729330961965,0.0,0.0,-0.14427751260408186,-0.19540167461464383,-0.25181188133689775,0.7610962467543513,0.16556421520991585,-0.03695672382009467
7917,3.0,298.59238,1809.0322,0.0,0.0,0.0,0.08028743445329191,0.0,0.0,-0.1154624732127589,-0.1821403484983528,-0.2522978056873547,0.7605095445489483,0.17538015661367384,-0.04291487961461886
7918,3.0,299.3502,1791.7781,0.0,0.0,0.0,0.08029757559696415,0.0,0.0,-0.14399878776657388,-0.19077021986505482,-0.20988678393671278,0.7405269758818224,0.19086958930236184,-0.045314647979207555
7919,3.0,298.97949,1794.6798,0.0,0.0,0.0,0.08030771674063643,0.0,0.0,-0.1137570213069439,-0.19198187446713583,-0.2397989502713138,0.7334282470062323,0.1999024099688318,-0.05266191697182655
7920,3.0,299.72141,1900.0921,0.0,0.0,0.0,0.0803178578843087,0.0,0.0,-0.14834972422597786,-0.19130591506042383,-0.23792492394636178,0.7038948132940093,0.1876730385493868,-0.06348345945057964
7921,3.0,299.73282,2063.2931,0.0,0.0,0.0,0.08032799902798095,0.0,0.0,-0.15079732103503685,-0.23004403692107878,-0.24634824428017874,0.7115938624563463,0.17231270405593985,-0.056072596855184446
7922,3.0,300.19622999999996,1924.6814,0.0,0.0,0.0,0.08033814017165322,0.0,0.0,-0.14576051558294287,-0.2002443616125798,-0.2390502192424198,0.7414993109427843,0.1853439312070218,-0.06276986996165385
7923,3.0,299.85778,1713.9086,0.0,0.0,0.0,0.08034828131532547,0.0,0.0,-0.1048977197200989,-0.21046583610386083,-0.2056218521457968,0.7846830270871853,0.18215938746773183,-0.05342196904408785
7924,3.0,299.93242999999995,1790.5811,0.0,0.0,0.0,0.08035842245899774,0.0,0.0,-0.13284342092312487,-0.2066888146335978,-0.2047596979007088,0.7991580748357613,0.16147368402621184,-0.06279001742664224
7925,3.0,300.52154,2003.2919,0.0,0.0,0.0,0.08036856360266999,0.0,0.0,-0.1356762554202039,-0.20954177227766277,-0.26373268770338976,0.7864247837440833,0.16653878955359883,-0.052999273526371043
7926,3.0,300.67721,1997.4473,0.0,0.0,0.0,0.08037870474634226,0.0,0.0,-0.13649362401087187,-0.2384733860929908,-0.23220708270455478,0.7792496760759552,0.1872277353954388,-0.04051732013524816
7927,3.0,299.86246,1823.713,0.0,0.0,0.0,0.08038884589001451,0.0,0.0,-0.11373571265734088,-0.18857383815328882,-0.25205366307575977,0.7518899374057593,0.20547111092841983,-0.03658844287249817
7928,3.0,299.54052,1765.4876,0.0,0.0,0.0,0.08039898703368678,0.0,0.0,-0.11772690480124089,-0.18200744048273582,-0.23692981102315178,0.7414921776620803,0.2061192160898828,-0.00958767226690458
7929,3.0,299.87192000000005,1875.1509,0.0,0.0,0.0,0.08040912817735903,0.0,0.0,-0.12253635719589688,-0.2149041045893838,-0.23255859942924678,0.7302601179185624,0.1945046037711098,-0.06927702188560973
7930,3.0,299.1327,1985.4985,0.0,0.0,0.0,0.0804192693210313,0.0,0.0,-0.16180109553102484,-0.18327265548510283,-0.25846819482132477,0.7454695490746163,0.18834718423841984,-0.02062824202834898
7931,3.0,298.17001,2065.5822,0.0,0.0,0.0,0.08042941046470356,0.0,0.0,-0.14479305425496186,-0.24438111040353774,-0.23871124655396578,0.7424161300307672,0.18901618261694483,-0.10482581949300292
7932,3.0,298.23192,1915.8573,0.0,0.0,0.0,0.08043955160837582,0.0,0.0,-0.15380721085458984,-0.18386852760391084,-0.24469705191721877,0.7486918262476303,0.15222288286572885,-0.026887706991860078
7933,3.0,298.52197,1690.2467,0.0,0.0,0.0,0.08044969275204808,0.0,0.0,-0.1143290111208949,-0.18225433913460282,-0.21720944108440282,0.7573422260613583,0.17141573453741585,-0.07197277681641003
7934,3.0,299.02761,1815.0211,0.0,0.0,0.0,0.08045983389572034,0.0,0.0,-0.12854103940851289,-0.2004472649451048,-0.22273277883701378,0.7639026556888223,0.19440325849610782,-0.03748040186927767
7935,3.0,299.25411,1852.8189,0.0,0.0,0.0,0.0804699750393926,0.0,0.0,-0.13783591694834585,-0.1935609132904748,-0.2318138606057468,0.7817134139591072,0.21885587117189279,-0.05917402064902114
7936,3.0,300.48206,1808.2064,0.0,0.0,0.0,0.08048011618306487,0.0,0.0,-0.13355087214294487,-0.2074611442573208,-0.20863756815342482,0.7589146787590473,0.19301557195415384,-0.04422095696701866
7937,3.0,299.87908999999996,1811.771,0.0,0.0,0.0,0.08049025732673712,0.0,0.0,-0.11385692776680388,-0.21564767817526878,-0.22122852800355577,0.7418457208869723,0.17477452689640283,-0.07807065675997392
7938,3.0,300.14725,1931.5039,0.0,0.0,0.0,0.08050039847040939,0.0,0.0,-0.14965753626254885,-0.18724619681226082,-0.25022523300530775,0.7641287624486373,0.17342250675796883,-0.03289776956250707
7939,3.0,300.41305,1902.8128,0.0,0.0,0.0,0.08051053961408164,0.0,0.0,-0.11478746626114089,-0.23257311930317975,-0.23104698226756176,0.7535010354622623,0.1829347061792498,-0.05329461465226895
7940,3.0,300.48747000000003,1854.7791,0.0,0.0,0.0,0.08052068075775391,0.0,0.0,-0.12309602588863189,-0.18775945865041582,-0.25295103789432377,0.7590348806184103,0.18166885282931983,-0.03351052344123117
7941,3.0,300.5224,1712.4788,0.0,0.0,0.0,0.08053082190142617,0.0,0.0,-0.1036797930998989,-0.18956383416349382,-0.2273071572084698,0.7382699004890663,0.16068885089625487,-0.054510174320235354
7942,3.0,299.66607,1705.8639,0.0,0.0,0.0,0.08054096304509843,0.0,0.0,-0.09712782512402,-0.21323292080195078,-0.2081792953981968,0.7742257996951373,0.1863160433529618,-0.04117308952046756
7943,3.0,299.00048,1864.3545,0.0,0.0,0.0,0.08055110418877069,0.0,0.0,-0.11523139139495289,-0.2080821449786088,-0.24340368882707375,0.7526191025752222,0.18564373164660983,-0.07183648353220894
7944,3.0,298.1337,1859.0792,0.0,0.0,0.0,0.08056124533244295,0.0,0.0,-0.14274510355034487,-0.2143949362816328,-0.2079736157603978,0.7482013118742202,0.18090360582379583,-0.050752715669653045
7945,3.0,299.65105,1756.0105,0.0,0.0,0.0,0.08057138647611521,0.0,0.0,-0.11956878070051988,-0.19306413703144681,-0.2211504064208458,0.7293692684306423,0.18847078048561783,-0.07484521622014773
7946,3.0,299.49433,1829.3308,0.0,0.0,0.0,0.08058152761978749,0.0,0.0,-0.12508644425257087,-0.19668699249899482,-0.2342974683233598,0.7701874610240842,0.1946190908999088,-0.032557624543687366
7947,3.0,299.99872,1969.8101,0.0,0.0,0.0,0.08059166876345973,0.0,0.0,-0.1207547798100689,-0.2397884023377728,-0.23822990209396078,0.7742828862057712,0.1877671289536728,-0.06950162396902623
7948,3.0,300.35986,2127.3556,0.0,0.0,0.0,0.080601809907132,0.0,0.0,-0.16240834644845586,-0.22113845006966582,-0.26311617568004475,0.7612578601453013,0.16380114990341485,-0.044544437061443655
7949,3.0,301.43764,2003.6693,0.0,0.0,0.0,0.08061195105080425,0.0,0.0,-0.14117124243501686,-0.2209075709018798,-0.24698661210818076,0.7469904374747163,0.16548791747738584,-0.04484696517030086
7950,3.0,300.41539,1804.7497,0.0,0.0,0.0,0.08062209219447652,0.0,0.0,-0.15184562958849684,-0.19764974221401083,-0.19910346226498182,0.7606133621541943,0.16622071008220685,-0.026719592588268472
7951,3.0,300.11823,2030.2798,0.0,0.0,0.0,0.08063223333814878,0.0,0.0,-0.13568135206820686,-0.1989778091200808,-0.28249519179260474,0.7490254287105543,0.19991208650728678,-0.029755301033619574
7952,3.0,300.03577,2133.2416,0.0,0.0,0.0,0.08064237448182104,0.0,0.0,-0.14125460252074387,-0.23842273372049178,-0.26877484311601174,0.7403249135468803,0.17487744270905983,-0.050850765855329855
7953,3.0,299.3345,1849.4023,0.0,0.0,0.0,0.0806525156254933,0.0,0.0,-0.1033858087158849,-0.2046147018113988,-0.25417161922978576,0.7184676498097363,0.1782018048296488,-0.03902633071909896
7954,3.0,298.45444,1640.6879999999999,0.0,0.0,0.0,0.08066265676916556,0.0,0.0,-0.10827370693328289,-0.18037943128206382,-0.21007504580529282,0.7480401443133143,0.2046140026688298,-0.07070257662355102
7955,3.0,299.43043,1802.4255,0.0,0.0,0.0,0.08067279791283782,0.0,0.0,-0.12371046074927189,-0.2312584678284338,-0.19292342699005982,0.7582752976809453,0.21028048226306778,-0.06752089734229373
7956,3.0,300.91542000000004,1943.8742,0.0,0.0,0.0,0.0806829390565101,0.0,0.0,-0.16809574965725882,-0.21973756087890878,-0.2030558975925568,0.7834003841830983,0.1948533543230288,-0.0862779440664701
7957,3.0,301.22646000000003,1845.9155,0.0,0.0,0.0,0.08069308020018234,0.0,0.0,-0.11494496585668489,-0.23710906509834279,-0.20905819866743783,0.7504018580438973,0.18778918740834982,-0.07699556395337052
7958,3.0,300.5381,1685.1717,0.0,0.0,0.0,0.08070322134385462,0.0,0.0,-0.1059502737914779,-0.2064622924412418,-0.1998375619624318,0.7902620125352883,0.1989048044503758,-0.046838693666619156
7959,3.0,300.89983,1860.4671,0.0,0.0,0.0,0.08071336248752686,0.0,0.0,-0.11543260259981089,-0.21273658024046582,-0.23736635969623576,0.7711980969388262,0.17967440172998284,-0.04939910270206185
7960,3.0,300.16641,2213.0689,0.0,0.0,0.0,0.08072350363119914,0.0,0.0,-0.13743009001829387,-0.2616238508002638,-0.27366373431850777,0.7744234847896473,0.17257207581653783,-0.015457376495274287
7961,3.0,300.21026,2187.6033,0.0,0.0,0.0,0.0807336447748714,0.0,0.0,-0.15427026615028985,-0.22162519515270376,-0.28908131744260473,0.7427035384216323,0.17699764827830783,-0.028556171216024672
7962,3.0,299.68201,2048.9708,0.0,0.0,0.0,0.08074378591854366,0.0,0.0,-0.17878570033227484,-0.19709963860221982,-0.24695062146462876,0.7487663507924853,0.1899335893899858,-0.01040531250992439
7963,3.0,300.26988,1962.3792,0.0,0.0,0.0,0.08075392706221592,0.0,0.0,-0.13828163553483488,-0.2082725042748958,-0.24996012624914377,0.7290579473374172,0.20106733347630082,-0.057762537928468645
7964,3.0,300.03471,1835.007,0.0,0.0,0.0,0.08076406820588818,0.0,0.0,-0.14857682397089084,-0.19142831567250382,-0.2177911682318148,0.7484491427161793,0.1922988393634178,-0.03901055137529167
7965,3.0,301.22118,1770.5593,0.0,0.0,0.0,0.08077420934956044,0.0,0.0,-0.10402036672351091,-0.2167938768208898,-0.2173915930548798,0.7660426804300263,0.19506778844169181,-0.0932722068567501
7966,3.0,301.04308,1761.9154,0.0,0.0,0.0,0.08078435049323271,0.0,0.0,-0.12690330300688088,-0.18363362583322781,-0.22504135773235276,0.7798989363425323,0.2137904211394718,-0.042732723591141455
7967,3.0,300.52314,1660.0641,0.0,0.0,0.0,0.08079449163690496,0.0,0.0,-0.1170617365080939,-0.1872068725758798,-0.20034943564794983,0.7510479265726593,0.1976819534346898,-0.05157504107981025
7968,3.0,299.42006000000003,1765.6446,0.0,0.0,0.0,0.08080463278057723,0.0,0.0,-0.14406764824336987,-0.18665462087387683,-0.2059896011370908,0.7589648549039992,0.17331581152243883,-0.04743683445240105
7969,3.0,298.93747,2090.8164,0.0,0.0,0.0,0.08081477392424948,0.0,0.0,-0.14847725188356384,-0.21909324527281981,-0.2679855010231097,0.7362968188343383,0.19336960153909383,-0.045690072340009054
7970,3.0,299.7054,2144.4452,0.0,0.0,0.0,0.08082491506792175,0.0,0.0,-0.17484617381097384,-0.2153852261343668,-0.26162639405801474,0.7685102483985563,0.18088490122694983,-0.03526443403307867
7971,3.0,299.1732,1981.5076,0.0,0.0,0.0,0.08083505621159402,0.0,0.0,-0.1117301766019099,-0.20919002250544783,-0.2814086229153687,0.7582231963608033,0.16816833889442284,-0.04659528768784686
7972,3.0,299.54632000000004,1967.7811,0.0,0.0,0.0,0.08084519735526627,0.0,0.0,-0.12696262880023587,-0.21425520909284276,-0.2569384911453548,0.7638219401858563,0.15992004738287982,-0.04428898252573226
7973,3.0,299.48907,1883.4771,0.0,0.0,0.0,0.08085533849893854,0.0,0.0,-0.13832571191418486,-0.2062411404744158,-0.2279631454557108,0.7595366218029284,0.16309114529334284,-0.06596477215671613
7974,3.0,300.7783,1833.6382,0.0,0.0,0.0,0.08086547964261079,0.0,0.0,-0.13482533811872485,-0.20680996894805478,-0.2157449299198668,0.7603153855647863,0.2175669461171858,-0.053855827538156355
7975,3.0,301.66632000000004,1801.3018,0.0,0.0,0.0,0.08087562078628306,0.0,0.0,-0.1260250076876999,-0.21119844632366377,-0.21032732481519079,0.7279565343462163,0.1984501186005018,-0.07983568574516872
7976,3.0,301.41112999999996,1858.3414,0.0,0.0,0.0,0.08088576192995532,0.0,0.0,-0.13525401383853186,-0.2039406675798768,-0.2256947013968328,0.7511645617916702,0.1782030105972678,-0.06207877057194764
7977,3.0,299.52391,1719.7342,0.0,0.0,0.0,0.08089590307362758,0.0,0.0,-0.08210029161266792,-0.2014172290008328,-0.2392387242910238,0.7242600054638973,0.19759274689588582,-0.08628544009070992
7978,3.0,299.49511,1787.2595,0.0,0.0,0.0,0.08090604421729984,0.0,0.0,-0.13951681780423786,-0.20545893166221782,-0.19830651066382882,0.7704067688757282,0.18986211472793182,-0.047250560580517256
7979,3.0,299.62349,1975.4795,0.0,0.0,0.0,0.0809161853609721,0.0,0.0,-0.16113419458020686,-0.18296341155458282,-0.25639884427459575,0.7680484799304832,0.15531528164092484,-0.03713408818384917
7980,3.0,299.37607,1979.2773,0.0,0.0,0.0,0.08092632650464436,0.0,0.0,-0.16083959211363186,-0.1919765549041108,-0.24883472962807576,0.7581970646407243,0.17450625879992684,-0.03321731419354367
7981,3.0,299.67412,1885.5041,0.0,0.0,0.0,0.08093646764831663,0.0,0.0,-0.09599455453642491,-0.21856710502589377,-0.2585845058003038,0.7919693186887863,0.17710670438657083,-0.04071533250954046
7982,3.0,300.49905,2010.0938,0.0,0.0,0.0,0.08094660879198888,0.0,0.0,-0.13992786297230486,-0.1998202961807278,-0.2712701640047807,0.7789380510077002,0.2027314650430378,-0.026102639801129975
7983,3.0,300.84125,2106.7623,0.0,0.0,0.0,0.08095674993566115,0.0,0.0,-0.14838853170480787,-0.21190133791803378,-0.28011327385502777,0.7615423605083793,0.19714410001660782,-0.03874292061312856
7984,3.0,301.61717000000004,1843.1884,0.0,0.0,0.0,0.0809668910793334,0.0,0.0,-0.17649283694598683,-0.17890142362619582,-0.20488899874596983,0.7615461095337492,0.17430786443034682,-0.04363705842464236
7985,3.0,300.16546,1705.0938,0.0,0.0,0.0,0.08097703222300567,0.0,0.0,-0.1269850013624439,-0.2005525720279978,-0.19076836561737182,0.7287103113606084,0.2068109214031488,-0.050554529016343545
7986,3.0,301.32085,1893.9657,0.0,0.0,0.0,0.08098717336667793,0.0,0.0,-0.14553619214330388,-0.2173519040484628,-0.2128301741522028,0.7576463024163683,0.20301237850076181,-0.06727944085671383
7987,3.0,299.96333,2011.6056,0.0,0.0,0.0,0.0809973145103502,0.0,0.0,-0.14938783948343187,-0.2203798297197958,-0.24171021353744077,0.7709514515994843,0.19837901884098483,-0.053287197661536945
7988,3.0,299.19448,1973.3516,0.0,0.0,0.0,0.08100745565402245,0.0,0.0,-0.14429037074785087,-0.21034232091667082,-0.2452169404110278,0.7783742279895552,0.17867643144149084,-0.08021454299730901
7989,3.0,299.26914,1890.9643,0.0,0.0,0.0,0.08101759679769471,0.0,0.0,-0.13251477325318986,-0.20754301486540083,-0.23474815183533876,0.7956309208401583,0.17199667134974983,-0.038875596594472664
7990,3.0,300.13676,1842.691,0.0,0.0,0.0,0.08102773794136697,0.0,0.0,-0.13438422982019088,-0.20906236312534882,-0.2166854489276888,0.7717324850415662,0.18506863115485184,-0.056336132060443356
7991,3.0,299.95952,1974.9203,0.0,0.0,0.0,0.08103787908503925,0.0,0.0,-0.14410568565212384,-0.2024084915736628,-0.2538123004793238,0.7755079967691803,0.17066357872318386,-0.03982000344292836
7992,3.0,300.74181,2182.0699,0.0,0.0,0.0,0.08104802022871149,0.0,0.0,-0.16219508769990884,-0.22060078916910278,-0.28049887631308373,0.7502878268776433,0.16779726644280082,-0.05176912204371455
7993,3.0,299.75881,1823.7111,0.0,0.0,0.0,0.08105816137238377,0.0,0.0,-0.09587152976228332,-0.21399868456502577,-0.2444924260595238,0.7390351373620893,0.18776612583607383,-0.05212839317142186
7994,3.0,300.54657000000003,1460.1452,0.0,0.0,0.0,0.08106830251605601,0.0,0.0,-0.060173491560911244,-0.1991050226701358,-0.18456916978305882,0.7324990156045244,0.2080779906531988,-0.08344880590575592
7995,3.0,300.87224,1736.4911,0.0,0.0,0.0,0.08107844365972829,0.0,0.0,-0.1091458416918559,-0.19905800786549582,-0.2196460643948788,0.7398921240316673,0.21091865757355083,-0.05839667847705344
7996,3.0,299.76583,2016.9078,0.0,0.0,0.0,0.08108858480340055,0.0,0.0,-0.19297115106976984,-0.2083927770617658,-0.21172566061569578,0.7664993319850942,0.19687932763297683,-0.05251646390672145
7997,3.0,299.03328999999997,1873.9678,0.0,0.0,0.0,0.0810987259470728,0.0,0.0,-0.12919399803795487,-0.2032693083286188,-0.23717610172495876,0.7846799062768772,0.2068236782219078,-0.059343527258250144
7998,3.0,299.39751,1749.9603,0.0,0.0,0.0,0.08110886709074507,0.0,0.0,-0.12890781567971088,-0.1909118316990308,-0.21212459744506781,0.7759334604861703,0.22490147855604778,-0.03666296539085297
7999,3.0,299.47729,1985.4878,0.0,0.0,0.0,0.08111900823441733,0.0,0.0,-0.1108136513564559,-0.22784337929389076,-0.26488168291928677,0.7667527559676053,0.17095938695737783,-0.02072584537073168
8000,3.0,299.80498,2175.5774,0.0,0.0,0.0,0.08112914937808959,0.0,0.0,-0.18804318894341782,-0.2014922196407338,-0.2717857968481697,0.7492024941655294,0.15047690095591387,-0.03734251474266926
8001,3.0,300.52622,2247.3397,0.0,0.0,0.0,0.08113929052176186,0.0,0.0,-0.18790537679731684,-0.2057141896274098,-0.28951556603796175,0.7585489765329553,0.14770844837018887,-0.03726240820301336
8002,3.0,301.41915,1810.2459,0.0,0.0,0.0,0.0811494316654341,0.0,0.0,-0.16248405649592784,-0.17620126409721082,-0.21158424129923878,0.7930297558459433,0.18155135634772385,-0.04404160055356755
8003,3.0,300.58227999999997,1482.1423,0.0,0.0,0.0,0.08115957280910638,0.0,0.0,-0.06118914711664864,-0.18949837820703383,-0.1998467116108348,0.7545751210982662,0.1867301384038298,-0.05696962412896415
8004,3.0,300.34507,1665.3779,0.0,0.0,0.0,0.08116971395277862,0.0,0.0,-0.1112502405595439,-0.20565854193191782,-0.18932451462237482,0.7789447080608572,0.2049533502598208,-0.08474884327430962
8005,3.0,300.00917999999996,1939.8105,0.0,0.0,0.0,0.0811798550964509,0.0,0.0,-0.1082541917363569,-0.21926396778216878,-0.26213578528078774,0.7796558880410452,0.2247032260414818,-0.061620141152684445
8006,3.0,300.35132000000004,1876.5675,0.0,0.0,0.0,0.08118999624012316,0.0,0.0,-0.0963857470952826,-0.2389011904177118,-0.2351427316892808,0.7528923761271923,0.23618987500512578,-0.07257989601132803
8007,3.0,299.8773,1641.4634,0.0,0.0,0.0,0.08120013738379542,0.0,0.0,-0.0922866944782376,-0.1923260653936048,-0.2143511233473088,0.7342595781832784,0.18217997670976382,-0.06384325442858864
8008,3.0,299.41642,1903.1109,0.0,0.0,0.0,0.08121027852746768,0.0,0.0,-0.16496065252284886,-0.2120581181060068,-0.20147941215946982,0.6972501420532313,0.16190761851403784,-0.05317926828738515
8009,3.0,299.60441000000003,2095.0236,0.0,0.0,0.0,0.08122041967113994,0.0,0.0,-0.16723917842022185,-0.19486635432181182,-0.27472932891867374,0.7527330121514643,0.16570211854852585,-0.03243274957486317
8010,3.0,299.26506,2039.4128,0.0,0.0,0.0,0.0812305608148122,0.0,0.0,-0.16668902414592585,-0.2073402331228878,-0.2459012996610688,0.7603129233670433,0.17664465220846987,-0.05245620288352416
8011,3.0,299.12472,1896.5710000000001,0.0,0.0,0.0,0.08124070195848447,0.0,0.0,-0.09510396950678102,-0.22107569949097278,-0.2603305485051247,0.7890638442920382,0.15279553129224485,-0.04629902754410825
8012,3.0,299.02353,1802.654,0.0,0.0,0.0,0.08125084310215672,0.0,0.0,-0.11732527272660288,-0.2057492379483688,-0.22488730318714878,0.7712301561719902,0.15490757006568687,-0.04979583672571645
8013,3.0,299.16219,1831.3501,0.0,0.0,0.0,0.08126098424582899,0.0,0.0,-0.13926770013465187,-0.18888997218448883,-0.2285270292688618,0.7986492814305473,0.17125595512914685,-0.04917952329939105
8014,3.0,299.35412,1956.2939,0.0,0.0,0.0,0.08127112538950124,0.0,0.0,-0.16824989539497184,-0.2020857004893058,-0.22432891118953976,0.7964304562290662,0.2100631907791228,-0.05179808782432325
8015,3.0,299.7141,1980.5671,0.0,0.0,0.0,0.08128126653317351,0.0,0.0,-0.11478161980806388,-0.22970269322739076,-0.25755863060405776,0.7788494017564512,0.18617720782425984,-0.057463535929959446
8016,3.0,299.41061,1629.8872,0.0,0.0,0.0,0.08129140767684578,0.0,0.0,-0.1081945417029699,-0.18797821934700581,-0.1992722595991408,0.7328882049679343,0.1996955346959148,-0.05031662397236415
8017,3.0,300.22526,1783.6469,0.0,0.0,0.0,0.08130154882051803,0.0,0.0,-0.08964940407820732,-0.2144211287967178,-0.23811358098248075,0.7377708140198103,0.1966549332658308,-0.04415796827455216
8018,3.0,301.10902999999996,2035.6716,0.0,0.0,0.0,0.0813116899641903,0.0,0.0,-0.16909933335130484,-0.21104012599553879,-0.23865388646580477,0.7403793352097513,0.1993474528890618,-0.024993290021895678
8019,3.0,300.52569,2071.9722,0.0,0.0,0.0,0.08132183110786255,0.0,0.0,-0.16398656453921384,-0.2196743948676748,-0.24616684211477577,0.7721343602962283,0.17095415858686186,-0.03615991306070557
8020,3.0,300.01766000000003,1939.1802,0.0,0.0,0.0,0.08133197225153482,0.0,0.0,-0.15360138936177686,-0.22637283929125981,-0.2094881409498698,0.7547273720582923,0.16922340582604983,-0.07725872020309202
8021,3.0,299.87113,1924.6195,0.0,0.0,0.0,0.08134211339520707,0.0,0.0,-0.1198425811425419,-0.22430381298456276,-0.24088987612397975,0.7869349855669362,0.1968479979398848,-0.06502852399806563
8022,3.0,299.40071,1968.9872,0.0,0.0,0.0,0.08135225453887933,0.0,0.0,-0.13573492260099387,-0.22746149546370176,-0.23532653525742078,0.7688630722158772,0.19883286369327582,-0.08540348288566751
8023,3.0,298.98573999999996,2011.2267,0.0,0.0,0.0,0.0813623956825516,0.0,0.0,-0.10515494339048491,-0.24158123693221176,-0.26462651614660376,0.7811812752715893,0.1967536542230738,-0.08810577429286291
8024,3.0,298.33827,1932.2791,0.0,0.0,0.0,0.08137253682622385,0.0,0.0,-0.14902982782559884,-0.22747286412982376,-0.2108619054354498,0.7549759527053252,0.17876684374791382,-0.07498274870922113
8025,3.0,299.37146,1529.5398,0.0,0.0,0.0,0.08138267796989612,0.0,0.0,-0.09818396306100272,-0.17405879742326585,-0.19269914408042482,0.7962355981023352,0.18601854299110082,-0.06991745573056564
8026,3.0,300.51316,1465.9912,0.0,0.0,0.0,0.08139281911356837,0.0,0.0,-0.10745797980777691,-0.1726359207053388,-0.16553079822161784,0.7630822068178503,0.1949514673302118,-0.05036429536306895
8027,3.0,301.5329,1804.5152,0.0,0.0,0.0,0.08140296025724064,0.0,0.0,-0.1119856676146249,-0.19458779160431983,-0.24195411296901176,0.7957852084328852,0.16810092736526985,-0.031750098664490765
8028,3.0,300.30491,2086.9429,0.0,0.0,0.0,0.08141310140091289,0.0,0.0,-0.15850230784295985,-0.2167880708978168,-0.2590881518950098,0.7677088891594682,0.20534328942830482,-0.01112452047065469
8029,3.0,300.5275,2105.8376,0.0,0.0,0.0,0.08142324254458516,0.0,0.0,-0.1109976677071169,-0.24864300244415374,-0.2804813876163577,0.7640079121092103,0.2177620778214438,-0.03477800103107147
8030,3.0,298.73291,2074.1639,0.0,0.0,0.0,0.08143338368825741,0.0,0.0,-0.18515703722607682,-0.21027059294209177,-0.23506641369174877,0.7359558905731913,0.2182510013921968,-0.027951157554814473
8031,3.0,298.69558,2264.5203,0.0,0.0,0.0,0.08144352483192968,0.0,0.0,-0.15737037575874685,-0.23641571831991479,-0.29457154218194775,0.7199589513069163,0.17607467876221783,-0.05749936344024535
8032,3.0,298.30797,2018.4538,0.0,0.0,0.0,0.08145366597560193,0.0,0.0,-0.14976358301801487,-0.2105707176217118,-0.25322525376888677,0.7321672876542853,0.17518040448895983,-0.07068427631349494
8033,3.0,299.70495,1751.2861,0.0,0.0,0.0,0.0814638071192742,0.0,0.0,-0.08417027848045971,-0.21435275467996984,-0.23382421973165377,0.7818651886915863,0.17353263691133783,-0.07156402260681913
8034,3.0,299.62102999999996,1535.2474,0.0,0.0,0.0,0.08147394826294647,0.0,0.0,-0.08712213541378533,-0.18213059089988984,-0.19742414207924583,0.7766199475614213,0.18995446234204583,-0.05252625088943736
8035,3.0,300.42772,1628.5247,0.0,0.0,0.0,0.08148408940661872,0.0,0.0,-0.0916687740372536,-0.17765825694600484,-0.22570382064773276,0.7802495512746352,0.16445838444827884,-0.045930194375207255
8036,3.0,299.22278,1928.4143,0.0,0.0,0.0,0.081494230550291,0.0,0.0,-0.1729352145198768,-0.2049601187704888,-0.2082944614045628,0.7894717585172962,0.1883539426165868,-0.03515573256235067
8037,3.0,300.74034,2178.3472,0.0,0.0,0.0,0.08150437169396324,0.0,0.0,-0.14729050296894086,-0.24879768520441978,-0.2660749875620567,0.7964041117264663,0.2006744761475288,-0.036177782739469165
8038,3.0,299.90457999999995,2159.2854,0.0,0.0,0.0,0.08151451283763551,0.0,0.0,-0.15884831248710785,-0.25052674583756473,-0.24699378591888876,0.7825557692972412,0.19497344472488082,-0.04388324881468946
8039,3.0,300.28103,2029.3657,0.0,0.0,0.0,0.08152465398130776,0.0,0.0,-0.13367782224797387,-0.2196723582349738,-0.26352632918802377,0.7514061611455143,0.17106124898993083,-0.031143165907591173
8040,3.0,300.01117999999997,1996.3283,0.0,0.0,0.0,0.08153479512498003,0.0,0.0,-0.13655668869709586,-0.2067394264760928,-0.26353784984166073,0.7343740045170712,0.16446847641927484,-0.04858145749411655
8041,3.0,300.34861,1932.1088,0.0,0.0,0.0,0.0815449362686523,0.0,0.0,-0.1153828114898969,-0.21971069961875778,-0.2522193193346088,0.7387582262422603,0.17925359896345283,-0.04025866271597066
8042,3.0,300.04155,1715.7932,0.0,0.0,0.0,0.08155507741232454,0.0,0.0,-0.14078973350736487,-0.1871410923793878,-0.19362746355704283,0.7398998145999263,0.18228796890542184,-0.07561510897738022
8043,3.0,300.48286,1617.5929999999998,0.0,0.0,0.0,0.08156521855599681,0.0,0.0,-0.0932417890887481,-0.17807517896465183,-0.22039092480839081,0.7650861014081193,0.17291209215259482,-0.04366270885092386
8044,3.0,299.09993,1736.8186,0.0,0.0,0.0,0.08157535969966906,0.0,0.0,-0.12723276127689587,-0.20937643012634483,-0.1913402946363168,0.7794396706022062,0.2082813094182648,-0.06572014521157334
8045,3.0,299.41147,2007.1835,0.0,0.0,0.0,0.08158550084334133,0.0,0.0,-0.12183706263938189,-0.24088052382555675,-0.24741609842806775,0.8009345454410852,0.2022272109982718,-0.05051048810074705
8046,3.0,299.19729,2115.584,0.0,0.0,0.0,0.0815956419870136,0.0,0.0,-0.14255478478406186,-0.25067643327483774,-0.24985348167611876,0.7898975566068193,0.19344629443916284,-0.06373770213917145
8047,3.0,299.25885,2063.7774,0.0,0.0,0.0,0.08160578313068585,0.0,0.0,-0.16313934560059984,-0.2274199116795978,-0.23677753979812374,0.7696873511722272,0.16700381055449284,-0.03243161980100167
8048,3.0,300.379,1861.5297,0.0,0.0,0.0,0.08161592427435813,0.0,0.0,-0.17847118750123483,-0.1898772222869228,-0.1975101264827318,0.7402431746613133,0.17049656470920085,-0.06067902635380364
8049,3.0,300.35514,1905.9578,0.0,0.0,0.0,0.08162606541803037,0.0,0.0,-0.1162092993314649,-0.2115671579025528,-0.2515871120672148,0.7482453882535703,0.18254453396324283,-0.029439787111480768
8050,3.0,300.48212,1967.2004,0.0,0.0,0.0,0.08163620656170265,0.0,0.0,-0.14856949817266787,-0.2149351607049488,-0.23447515186089576,0.7448680939477573,0.19007772421671082,-0.047645517363496454
8051,3.0,300.90713999999997,2014.5047,0.0,0.0,0.0,0.0816463477053749,0.0,0.0,-0.11927919382193988,-0.2160427747867618,-0.27703717827394075,0.7665266188102873,0.17724979556569284,-0.028630349229345473
8052,3.0,300.20849,1956.8984,0.0,0.0,0.0,0.08165648884904717,0.0,0.0,-0.12862863487965787,-0.21983861231138177,-0.24638100265591176,0.7572539213151432,0.17787636916253083,-0.05510669086610694
8053,3.0,300.02206,1908.2374,0.0,0.0,0.0,0.08166662999271943,0.0,0.0,-0.14216173493777087,-0.21280528872974683,-0.22508949724460378,0.7867181905755403,0.2052194196035798,-0.06415403140650994
8054,3.0,299.89542,1887.6043,0.0,0.0,0.0,0.08167677113639168,0.0,0.0,-0.15143253765522785,-0.2274684564918888,-0.19488357957351182,0.7684514596277543,0.19169615820393782,-0.09257803731924091
8055,3.0,299.55806,1797.555,0.0,0.0,0.0,0.08168691228006394,0.0,0.0,-0.11604664229291188,-0.21460678661254082,-0.21575840614619682,0.7708574827852103,0.17920956311410682,-0.08485888020866941
8056,3.0,300.02371,1880.3731,0.0,0.0,0.0,0.08169705342373622,0.0,0.0,-0.14954001951595086,-0.2165486196341848,-0.2054978303335568,0.7621750946658252,0.2033227066088888,-0.056872449391373744
8057,3.0,300.07012000000003,1766.4203,0.0,0.0,0.0,0.08170719456740846,0.0,0.0,-0.09200201173014161,-0.2128281983145078,-0.23211746073320977,0.7848569919968542,0.22865648210163778,-0.045416601204269554
8058,3.0,300.16787999999997,1563.9565,0.0,0.0,0.0,0.08171733571108074,0.0,0.0,-0.0982026230748443,-0.1824871536100798,-0.1947139615067718,0.7740638215341513,0.2183340575028938,-0.05075512416514075
8059,3.0,299.53154,1937.7711,0.0,0.0,0.0,0.08172747685475298,0.0,0.0,-0.14752984277506187,-0.1940105024923458,-0.24749370325322678,0.7640913735199473,0.16710790173726583,-0.01928970622224578
8060,3.0,298.84022000000004,2373.8613,0.0,0.0,0.0,0.08173761799842526,0.0,0.0,-0.20758279506432678,-0.22821039874511279,-0.2858013762063997,0.7733772736638943,0.15149344411873886,-0.03049884827500197
8061,3.0,299.99291,2197.8098,0.0,0.0,0.0,0.08174775914209752,0.0,0.0,-0.16756716747759184,-0.24545147741167478,-0.2550606550000268,0.7573309485877453,0.17571934208464882,-0.05117377276195815
8062,3.0,299.94932,1983.1858,0.0,0.0,0.0,0.08175790028576978,0.0,0.0,-0.13221896501899588,-0.2126653690234378,-0.25795463914064076,0.7675160676654382,0.18376862114405082,-0.04123801149412486
8063,3.0,300.38802999999996,1891.1811,0.0,0.0,0.0,0.08176804142944204,0.0,0.0,-0.08567517576748152,-0.21571609282202078,-0.2734805589654297,0.7421802960699924,0.18108288016398882,-0.04771753107460366
8064,3.0,300.13852,1870.1891,0.0,0.0,0.0,0.0817781825731143,0.0,0.0,-0.12892697623910188,-0.1990094123906998,-0.24055437888336875,0.7588364761163293,0.17897860288631284,-0.04126502372854076
8065,3.0,300.5178,1926.4721,0.0,0.0,0.0,0.08178832371678656,0.0,0.0,-0.15176510660304987,-0.2043541648131858,-0.22948014297542677,0.7712110766726072,0.19040198451371282,-0.05174925322250365
8066,3.0,300.20146,1747.9984,0.0,0.0,0.0,0.08179846486045883,0.0,0.0,-0.12864747119901687,-0.2048351039731508,-0.19786528077528281,0.7886840376245543,0.1949450635895798,-0.07355511376882452
8067,3.0,300.22741,1551.1915,0.0,0.0,0.0,0.08180860600413108,0.0,0.0,-0.10040778763847709,-0.16464545068174083,-0.2064702464545268,0.7689828991727033,0.17210456222039783,-0.07642312020337473
8068,3.0,299.67861,1822.7672,0.0,0.0,0.0,0.08181874714780335,0.0,0.0,-0.13002853108531687,-0.2008291893052978,-0.2232179939124008,0.7837150287366513,0.17374689877748384,-0.06101861104531804
8069,3.0,299.42267000000004,2217.268,0.0,0.0,0.0,0.0818288882914756,0.0,0.0,-0.14962431179176988,-0.22856036519715178,-0.29580943996161874,0.7633434024286283,0.20205964982923483,-0.06868990728741603
8070,3.0,299.45734,2205.1579,0.0,0.0,0.0,0.08183902943514787,0.0,0.0,-0.16457480688476883,-0.22868557251200877,-0.2770525695429597,0.7802875076233813,0.2043547018357388,-0.023631983446295177
8071,3.0,299.88492,1879.1132,0.0,0.0,0.0,0.08184917057882013,0.0,0.0,-0.10441288967974989,-0.2065404849514588,-0.26025011671218673,0.7276821968816414,0.16004782835299083,-0.04734754381383875
8072,3.0,299.73554,1958.8942,0.0,0.0,0.0,0.08185931172249239,0.0,0.0,-0.1183234355326139,-0.2217196300620238,-0.25541184748468676,0.7566653648620573,0.15458842668168984,-0.05233817951187616
8073,3.0,300.48012,2042.1965,0.0,0.0,0.0,0.08186945286616465,0.0,0.0,-0.13377820493538087,-0.21274031913333483,-0.2742582182846787,0.7812949619328092,0.1904480873932628,-0.036410764401212665
8074,3.0,301.54202000000004,1827.9442,0.0,0.0,0.0,0.08187959400983691,0.0,0.0,-0.12517995710429988,-0.2015240964888798,-0.22894535970514776,0.7930579545962262,0.2139296923657168,-0.05488810647503435
8075,3.0,300.70493,1636.1674,0.0,0.0,0.0,0.08188973515350917,0.0,0.0,-0.08228604163425002,-0.1977421303581288,-0.21732585338839178,0.7723377094587972,0.2023132865942668,-0.05686438088082745
8076,3.0,300.25947,1652.5481,0.0,0.0,0.0,0.08189987629718144,0.0,0.0,-0.14452923432642487,-0.17759935671769184,-0.18020476722982584,0.7802041678026562,0.18820402213179083,-0.06645547702114493
8077,3.0,300.08155,2014.3072,0.0,0.0,0.0,0.08191001744085369,0.0,0.0,-0.13845011876146288,-0.24470520858052378,-0.22914377433972977,0.7716845076493313,0.21196749301706277,-0.06968258334413553
8078,3.0,299.97258,2240.4682,0.0,0.0,0.0,0.08192015858452596,0.0,0.0,-0.19241165462955181,-0.21477982946461877,-0.27385490421487474,0.7683070208259993,0.18772977042248581,-0.06860021438856403
8079,3.0,299.54458,2117.6761,0.0,0.0,0.0,0.08193029972819821,0.0,0.0,-0.15891247148343984,-0.21029795069479182,-0.27451022371704975,0.7669444426215233,0.14853428773169286,-0.058431911209530646
8080,3.0,299.97035,1776.0996,0.0,0.0,0.0,0.08194044087187048,0.0,0.0,-0.12240047022498587,-0.1876500884346218,-0.22983937053337974,0.7712054126045482,0.14606905023839287,-0.037818114074607265
8081,3.0,300.52168,1931.2071,0.0,0.0,0.0,0.08195058201554276,0.0,0.0,-0.12611630152170988,-0.19150270849484582,-0.26941971600965575,0.7749466156837762,0.1931190450543658,-0.03562893049155167
8082,3.0,299.77234,2254.1784,0.0,0.0,0.0,0.081960723159215,0.0,0.0,-0.18989655509883083,-0.23063547100444878,-0.26468191052957074,0.7812591030117703,0.2024701883722518,-0.006373574960622874
8083,3.0,299.42451,1939.5071,0.0,0.0,0.0,0.08197086430288728,0.0,0.0,-0.1012015951245698,-0.21771313784161378,-0.27064701519328077,0.7333529118612973,0.19646648901223282,-0.05064768317753715
8084,3.0,299.7669,1707.4769,0.0,0.0,0.0,0.08198100544655952,0.0,0.0,-0.1159790990412459,-0.20439034797425681,-0.19866090501880482,0.7529907323143993,0.18850749053674082,-0.06188441096426585
8085,3.0,299.48124,1922.1237,0.0,0.0,0.0,0.08199114659023178,0.0,0.0,-0.1123521804407969,-0.24657301354986175,-0.22535241538055176,0.7598057308969873,0.20572923639139482,-0.0985860500849356
8086,3.0,300.13903,2023.7215,0.0,0.0,0.0,0.08200128773390405,0.0,0.0,-0.16390412651107783,-0.2288150456097868,-0.22244164168578082,0.7899962066365552,0.19365131546439682,-0.06827513133248085
8087,3.0,301.4092,2010.0522,0.0,0.0,0.0,0.0820114288775763,0.0,0.0,-0.14546202223598387,-0.2242741247566328,-0.24126952067144777,0.7634917625082703,0.16299916244926485,-0.07374220938653943
8088,3.0,300.5814,1887.3564,0.0,0.0,0.0,0.08202157002124857,0.0,0.0,-0.15723194553008485,-0.1976687913158908,-0.2188084915972168,0.7641176977575453,0.17103776185261282,-0.047969850614505656
8089,3.0,300.61658,1718.3052,0.0,0.0,0.0,0.08203171116492082,0.0,0.0,-0.1031894813765089,-0.18795437757215283,-0.2311780056379928,0.7705826893580903,0.21893700210739978,-0.04908978379103445
8090,3.0,300.77454,1847.4791,0.0,0.0,0.0,0.0820418523085931,0.0,0.0,-0.13725502066601586,-0.19233165853415682,-0.23200082551419876,0.7858443130267952,0.18993188712981782,-0.02329076640886968
8091,3.0,299.62806,2156.3727,0.0,0.0,0.0,0.08205199345226537,0.0,0.0,-0.14755796046533687,-0.2210695794603688,-0.28685590611547374,0.7709303455999013,0.18901671963949784,-0.03461174594141337
8092,3.0,299.59967,2239.3395,0.0,0.0,0.0,0.08206213459593761,0.0,0.0,-0.15761414346780486,-0.24288541140092376,-0.2802037368239557,0.7708026051597943,0.17727415409809683,-0.03230557655481217
8093,3.0,300.1734,1773.6377,0.0,0.0,0.0,0.08207227573960989,0.0,0.0,-0.11114440658659891,-0.1982675207999808,-0.2297296355475498,0.7847130699526502,0.2153923492825698,-0.044796595494579754
8094,3.0,299.75539,1715.158,0.0,0.0,0.0,0.08208241688328213,0.0,0.0,-0.11336150926290992,-0.2014820466097298,-0.20652163849959881,0.7394007483956723,0.18186397440107682,-0.05255791191531205
8095,3.0,299.96412999999995,2124.8214,0.0,0.0,0.0,0.08209255802695441,0.0,0.0,-0.1301946230417089,-0.23079080224477877,-0.28490722352315373,0.7220903431572683,0.17118776339741684,-0.06899663025168723
8096,3.0,300.61496,2086.9032,0.0,0.0,0.0,0.08210269917062667,0.0,0.0,-0.16874102785094283,-0.2182484986644498,-0.24737695657670478,0.7347370013653963,0.18270500238157983,-0.05126523175573445
8097,3.0,300.8634,1808.9229999999998,0.0,0.0,0.0,0.08211284031429893,0.0,0.0,-0.1022463076534249,-0.20797581451311478,-0.23964530102614975,0.7783548951776472,0.2174289110560628,-0.08558563282964432
8098,3.0,300.14318,1856.7813,0.0,0.0,0.0,0.08212298145797119,0.0,0.0,-0.13421887753637185,-0.19242509032587782,-0.23777118350868875,0.8170153007556322,0.2024004463678688,-0.03617529825022397
8099,3.0,301.03438,1958.2753,0.0,0.0,0.0,0.08213312260164345,0.0,0.0,-0.15000077473392384,-0.1946032538008458,-0.2506627746634898,0.7622972115678773,0.15268933254926387,-0.04571914856487866
8100,3.0,300.89826,2218.3902,0.0,0.0,0.0,0.0821432637453157,0.0,0.0,-0.16838626872593085,-0.23410193131906176,-0.27184703768421375,0.7794312099638713,0.15731100943538787,-0.029947602730348268
8101,3.0,299.62518,2315.4108,0.0,0.0,0.0,0.08215340488898798,0.0,0.0,-0.16298676026804085,-0.24658227465577578,-0.29425804260100774,0.7440215741517123,0.22373037422296876,-0.02284639949801408
8102,3.0,298.76353,1867.6878,0.0,0.0,0.0,0.08216354603266023,0.0,0.0,-0.13215581927276387,-0.19331740902644282,-0.24225722673642675,0.7831539009637722,0.2238253562873428,-0.019895227521756084
8103,3.0,299.37497,1631.5518,0.0,0.0,0.0,0.0821736871763325,0.0,0.0,-0.07670822952976282,-0.20912348237138081,-0.2101192944371598,0.7286073246204443,0.16452423557227783,-0.06490442416556794
8104,3.0,300.10721,1883.2947,0.0,0.0,0.0,0.08218382832000475,0.0,0.0,-0.13185847089841787,-0.20719041396310178,-0.23342567806982079,0.7674853965849113,0.17260417557970584,-0.09045813977802332
8105,3.0,299.80573,2021.1553,0.0,0.0,0.0,0.08219396946367702,0.0,0.0,-0.15138172316271287,-0.2282257292191258,-0.2347732905703198,0.7901853702977243,0.2047175264315468,-0.06746850623262314
8106,3.0,300.19522,1588.9385,0.0,0.0,0.0,0.08220411060734928,0.0,0.0,-0.08501159321074102,-0.19113208187326783,-0.2068539642673968,0.7824737061716422,0.19134095324888184,-0.08133408911229963
8107,3.0,299.86891,1503.4356,0.0,0.0,0.0,0.08221425175102154,0.0,0.0,-0.08229105620899492,-0.16951172614200483,-0.2052041093945688,0.7366924524683843,0.19989018004012482,-0.06629273790933385
8108,3.0,300.49748,2035.2175,0.0,0.0,0.0,0.0822243928946938,0.0,0.0,-0.14743669469336887,-0.22747159756719879,-0.24374701849095778,0.7464060150820383,0.21877723283163178,-0.059619676414003946
8109,3.0,300.86728,2332.7288,0.0,0.0,0.0,0.08223453403836606,0.0,0.0,-0.16337927309177883,-0.24866670236399277,-0.29704532137359074,0.7812268917910913,0.25791854717207874,-0.03857177355198766
8110,3.0,299.65452,2260.2405,0.0,0.0,0.0,0.08224467518203832,0.0,0.0,-0.18946502201374182,-0.2472134180105648,-0.2503782337704078,0.7731973913736413,0.2052991218564458,-0.03596482695270207
8111,3.0,301.03587999999996,2166.8255,0.0,0.0,0.0,0.08225481632571059,0.0,0.0,-0.16332191300361784,-0.2128332746975088,-0.28250564853363674,0.7745255900022242,0.13759113598918787,-0.022096165819221775
8112,3.0,301.66809,2049.3789,0.0,0.0,0.0,0.08226495746938284,0.0,0.0,-0.13513892889217388,-0.21682869209432581,-0.2709924017548678,0.7609253215949823,0.14327134512228087,-0.044088453238191556
8113,3.0,300.58772,2048.6934,0.0,0.0,0.0,0.08227509861305511,0.0,0.0,-0.13084291058818986,-0.24181651360543177,-0.25009220339967875,0.7906159813252223,0.17373928926923282,-0.057023639478545045
8114,3.0,299.44909,2116.3924,0.0,0.0,0.0,0.08228523975672736,0.0,0.0,-0.14924062437640287,-0.2291442404347758,-0.26494557847059275,0.7875796456780592,0.17597591727497083,-0.04589057629629725
8115,3.0,299.55064,1708.6038,0.0,0.0,0.0,0.08229538090039963,0.0,0.0,-0.0986673552994598,-0.21554516766265178,-0.20516037752025282,0.7473940555195503,0.17652830069948683,-0.07847244284862713
8116,3.0,299.07223999999997,1402.0744,0.0,0.0,0.0,0.08230552204407189,0.0,0.0,-0.07159939516781014,-0.18874055832474282,-0.16585566646867983,0.7489046999611393,0.21142455308347882,-0.08027077837785902
8117,3.0,299.95376,1814.7258,0.0,0.0,0.0,0.08231566318774415,0.0,0.0,-0.1119941181204589,-0.2125153776111348,-0.22712183376517978,0.7689327534252542,0.23832340481318878,-0.06479893267115673
8118,3.0,299.60336,2200.5029,0.0,0.0,0.0,0.08232580433141641,0.0,0.0,-0.15486597614908187,-0.23638231146411776,-0.27764965756188775,0.7643943758298513,0.2164204232315328,-0.03917252750977746
8119,3.0,300.72433,2083.4273,0.0,0.0,0.0,0.08233594547508867,0.0,0.0,-0.15583679133489384,-0.2272080816136918,-0.2502650132042338,0.7567657982119692,0.16063628348106684,-0.043425666082779556
8120,3.0,301.07029,2028.8646,0.0,0.0,0.0,0.08234608661876093,0.0,0.0,-0.1260617987988309,-0.23216947086084277,-0.25849291812376474,0.7657853858321332,0.17862780556919183,-0.04227793945600775
8121,3.0,299.5715,2148.4702,0.0,0.0,0.0,0.0823562277624332,0.0,0.0,-0.16962745956842684,-0.2335670973862778,-0.24988673654440074,0.8094700933559782,0.23027017407839678,-0.05627268740543185
8122,3.0,299.04353,2176.6679999999997,0.0,0.0,0.0,0.08236636890610545,0.0,0.0,-0.1842098206350938,-0.2116911797147928,-0.26575172025015276,0.7857418025141782,0.1934135157984278,-0.035505725358892265
8123,3.0,299.14772,2146.5119,0.0,0.0,0.0,0.08237651004977772,0.0,0.0,-0.14404624840125788,-0.23946803292115476,-0.26897174800794477,0.7805691506211773,0.15048944499215186,-0.06695595873578865
8124,3.0,298.73132999999996,1823.7302,0.0,0.0,0.0,0.08238665119344997,0.0,0.0,-0.11790698974151388,-0.1995777443717898,-0.2368837081436018,0.7580282267765613,0.17243887395839183,-0.05460075887917536
8125,3.0,299.31246,1511.6779999999999,0.0,0.0,0.0,0.08239679233712224,0.0,0.0,-0.08089489686970472,-0.19305448075799383,-0.18556299587864183,0.7845609811126403,0.2039382661771398,-0.07947288546736313
8126,3.0,299.24192,1681.0778,0.0,0.0,0.0,0.08240693348079452,0.0,0.0,-0.08371806800058001,-0.21069202392368377,-0.2165955837763198,0.7472270212405653,0.1813292215283008,-0.07050222060177742
8127,3.0,299.38371,1990.6267,0.0,0.0,0.0,0.08241707462446676,0.0,0.0,-0.15618902746715685,-0.2009001168122978,-0.24801167670434673,0.7650463718716982,0.17765450792063484,-0.042724312602061366
8128,3.0,300.11767000000003,2138.3556,0.0,0.0,0.0,0.08242721576813902,0.0,0.0,-0.14737618339739686,-0.24376859058558678,-0.2588619438101848,0.7584581690589933,0.2034707627135008,-0.03804508007050706
8129,3.0,300.11222999999995,1975.7522,0.0,0.0,0.0,0.08243735691181128,0.0,0.0,-0.11608206551640787,-0.21415181705263878,-0.27034544156601775,0.8010540582903802,0.22784238630879278,-0.04485117522446636
8130,3.0,300.36755,2144.0436,0.0,0.0,0.0,0.08244749805548354,0.0,0.0,-0.15921912149370385,-0.2186833146798628,-0.27383330172274273,0.7632828303376502,0.21348180542401382,-0.029605548748340173
8131,3.0,300.86458999999996,2414.56,0.0,0.0,0.0,0.0824576391991558,0.0,0.0,-0.1968655069016128,-0.25128046205695076,-0.28581999974323774,0.7662735089353073,0.16742274894083886,-0.046902411899157656
8132,3.0,299.85038,2237.8251,0.0,0.0,0.0,0.08246778034282806,0.0,0.0,-0.17463524553765683,-0.2123942334291788,-0.2932134628079157,0.7726651614936143,0.17747060302748482,-0.05604122156583795
8133,3.0,299.56138,1989.9170000000001,0.0,0.0,0.0,0.08247792148650032,0.0,0.0,-0.15609128936251085,-0.2225492995089058,-0.22624450103359375,0.8063457062751253,0.2204856434277388,-0.04914213437070105
8134,3.0,300.21072999999996,1753.5873,0.0,0.0,0.0,0.08248806263017258,0.0,0.0,-0.11783804820470989,-0.1960525662138818,-0.2191561478390278,0.7859851345256933,0.2039221960305538,-0.048353728520891454
8135,3.0,300.11373,1685.9639,0.0,0.0,0.0,0.08249820377384486,0.0,0.0,-0.08370372747191471,-0.2099778649882018,-0.2188093325947998,0.7648103453934043,0.16378672122199084,-0.06822819758784884
8136,3.0,299.9478,1959.7265,0.0,0.0,0.0,0.0825083449175171,0.0,0.0,-0.13456349402788287,-0.23283823619184477,-0.22830620154206777,0.7501632680428503,0.18328349726117282,-0.06979417865714914
8137,3.0,299.19793,2044.1705,0.0,0.0,0.0,0.08251848606118938,0.0,0.0,-0.13903723639940688,-0.2147269175443968,-0.2676126351188107,0.7877187649167893,0.2040905475346688,-0.08321624170305363
8138,3.0,299.50676,1756.0581,0.0,0.0,0.0,0.08252862720486162,0.0,0.0,-0.10540088958725789,-0.2240203765340898,-0.2043765475078948,0.7668444247041523,0.1913331208256088,-0.08469185504893532
8139,3.0,300.06868,1635.1174,0.0,0.0,0.0,0.0825387683485339,0.0,0.0,-0.1195897347125879,-0.16250460520795584,-0.2149405207979778,0.7619255311661953,0.17141763944760383,-0.05883435489749874
8140,3.0,299.92266,2053.0501,0.0,0.0,0.0,0.08254890949220614,0.0,0.0,-0.15581534083027687,-0.1988672432691688,-0.2693933917720578,0.7728211310815073,0.1922499804435958,-0.02041240557154758
8141,3.0,299.41587999999996,2235.7889999999998,0.0,0.0,0.0,0.08255905063587841,0.0,0.0,-0.14649607436053685,-0.23620743462935878,-0.2969205193587737,0.7885356978099143,0.2274445843195328,-0.029680337751471268
8142,3.0,300.16145,2073.0547,0.0,0.0,0.0,0.08256919177955066,0.0,0.0,-0.15499824581713587,-0.2063001217627368,-0.2688584970442678,0.7664388814841283,0.2001943374551428,-0.03262043186438597
8143,3.0,299.97579,1978.9606,0.0,0.0,0.0,0.08257933292322293,0.0,0.0,-0.13254095563577387,-0.2136185840550128,-0.25539507819553176,0.7581209999557172,0.16705272013681985,-0.06716507531792684
8144,3.0,299.86478,1927.2388,0.0,0.0,0.0,0.08258947406689518,0.0,0.0,-0.14757601658211886,-0.20934689388592978,-0.2289095514466138,0.7690358313579273,0.1962944898077578,-0.07644189876747802
8145,3.0,299.35855,1880.2391,0.0,0.0,0.0,0.08259961521056745,0.0,0.0,-0.14356515725377786,-0.2161585791406908,-0.2118220004352038,0.8188554642622422,0.19823907886967382,-0.07288107953730254
8146,3.0,299.03087999999997,1962.6456,0.0,0.0,0.0,0.08260975635423971,0.0,0.0,-0.13789440174411788,-0.23112680611043976,-0.22757403715230878,0.7738419400272533,0.18496502633212683,-0.053520462020058356
8147,3.0,298.71464,1757.2626,0.0,0.0,0.0,0.08261989749791197,0.0,0.0,-0.10309564428474789,-0.20142879018447382,-0.22963950695115476,0.7840255898923012,0.15778996262515685,-0.036493503364628366
8148,3.0,299.04311,1572.7515,0.0,0.0,0.0,0.08263003864158423,0.0,0.0,-0.08406509805382921,-0.17530882380663382,-0.21870326557433178,0.7583066983015443,0.17993715774591482,-0.04890664086195966
8149,3.0,299.0746,2028.6660000000002,0.0,0.0,0.0,0.08264017978525649,0.0,0.0,-0.14052647086638287,-0.2127245833592818,-0.26341275398431474,0.7849546287764902,0.2152324685492908,-0.04521586217395816
8150,3.0,300.05152999999996,2380.3665,0.0,0.0,0.0,0.08265032092892875,0.0,0.0,-0.17673775976015885,-0.23368678248808974,-0.3131474157352437,0.7665423343193383,0.21616264227359178,-0.04252009407090656
8151,3.0,299.56152000000003,2038.8429,0.0,0.0,0.0,0.08266046207260103,0.0,0.0,-0.16174159748515285,-0.21596632506671679,-0.2420493990084158,0.7604606349666212,0.17675226950159084,-0.06065489580267214
8152,3.0,300.17655,1900.2596,0.0,0.0,0.0,0.08267060321627327,0.0,0.0,-0.11078357809348789,-0.2148092339825208,-0.2520386467092778,0.7618513612588753,0.1917315510299308,-0.04769956513708055
8153,3.0,300.89571,2124.5105,0.0,0.0,0.0,0.08268074435994555,0.0,0.0,-0.16643500234585584,-0.22253591447508478,-0.25682722615187376,0.7821898745536302,0.21091615484580378,-0.05694760823079134
8154,3.0,300.29246,1909.0571,0.0,0.0,0.0,0.08269088550361779,0.0,0.0,-0.13219272184140587,-0.21454815996175478,-0.2335648175735528,0.7773587690043372,0.16703809893787686,-0.05806981818029485
8155,3.0,299.70099,1688.4222,0.0,0.0,0.0,0.08270102664729007,0.0,0.0,-0.10607078975837189,-0.19150719719278883,-0.2156602120790058,0.7909720272778612,0.14094848953303288,-0.09311307390204492
8156,3.0,300.1113,1853.2922,0.0,0.0,0.0,0.08271116779096234,0.0,0.0,-0.13088080614192987,-0.2125519458072438,-0.21992180014459176,0.7607018492854273,0.16739146991025183,-0.08013741946594753
8157,3.0,299.92193,1804.6814,0.0,0.0,0.0,0.08272130893463459,0.0,0.0,-0.13460155170163887,-0.2125923846187348,-0.2013841362525668,0.8053423961586063,0.1896937024288108,-0.08207597057051763
8158,3.0,300.79657000000003,2057.4169,0.0,0.0,0.0,0.08273145007830686,0.0,0.0,-0.14376710813120885,-0.22688960697476077,-0.25474663866153574,0.7525105632245103,0.1938834206648038,-0.020853857361865482
8159,3.0,298.89436,2294.5753,0.0,0.0,0.0,0.0827415912219791,0.0,0.0,-0.16653378409810485,-0.2396098068751468,-0.2913500148140077,0.7751943350682243,0.18608223589238684,-0.015630030259313882
8160,3.0,298.74582999999996,2120.9022,0.0,0.0,0.0,0.08275173236565138,0.0,0.0,-0.15148765846066786,-0.21004766778759082,-0.28316599375630774,0.7502326250121953,0.2031401189408688,0.0004018116124232186
8161,3.0,299.96412000000004,1955.1843,0.0,0.0,0.0,0.08276187350932364,0.0,0.0,-0.13839519047354187,-0.20919918228635181,-0.2467328334881348,0.7768516170642853,0.24508112436762378,-0.026467733063911873
8162,3.0,301.0109,2127.069,0.0,0.0,0.0,0.0827720146529959,0.0,0.0,-0.18201695490117484,-0.2085362836734288,-0.2560226346449668,0.7529782085431632,0.18675507448879083,-0.05508438517840554
8163,3.0,300.26228,2152.0066,0.0,0.0,0.0,0.08278215579666816,0.0,0.0,-0.17050423501245782,-0.2245798324443038,-0.2590722033384358,0.7846170645056753,0.16468825036596485,-0.06395977211058804
8164,3.0,300.41339,1849.8259,0.0,0.0,0.0,0.0827922969403404,0.0,0.0,-0.11747756421663288,-0.21665052219674177,-0.22817279703390175,0.7749777325943472,0.17495658767437083,-0.08123716262098372
8165,3.0,299.49617,1720.0101,0.0,0.0,0.0,0.08280243808401268,0.0,0.0,-0.11989457100517288,-0.2033249560241108,-0.19962060485101982,0.8017663021831732,0.19155673499017783,-0.06418768144233095
8166,3.0,300.09379,1864.1709,0.0,0.0,0.0,0.08281257922768495,0.0,0.0,-0.1185962936520429,-0.2169155276278958,-0.23114957384018678,0.7698665545849133,0.19287705053298282,-0.05345768003061225
8167,3.0,299.37342,1756.9701,0.0,0.0,0.0,0.0828227203713572,0.0,0.0,-0.0992340113648844,-0.2155125815394358,-0.21932845101853282,0.7696486348859063,0.17755283840560082,-0.045293917895411664
8168,3.0,299.35921,1871.8709,0.0,0.0,0.0,0.08283286151502947,0.0,0.0,-0.08902483266356692,-0.25199864359532975,-0.2279785468572308,0.7891328466238483,0.19049080601747884,-0.07317653009421123
8169,3.0,298.96193,2140.9306,0.0,0.0,0.0,0.08284300265870172,0.0,0.0,-0.14246072477727886,-0.25545967288940674,-0.25286903556373075,0.7853576591362662,0.2044506566202088,-0.04391922628599016
8170,3.0,299.49197000000004,1984.9959,0.0,0.0,0.0,0.08285314380237399,0.0,0.0,-0.13878323486433886,-0.21303996758540783,-0.2515659959351308,0.7635107508151443,0.18389946212946384,-0.05344715540182354
8171,3.0,300.12786,1903.1345,0.0,0.0,0.0,0.08286328494604625,0.0,0.0,-0.13787399488710386,-0.19755849904250583,-0.24307286266942377,0.7500211394513233,0.16800457741326083,-0.035439688810124964
8172,3.0,300.93268,2108.1412,0.0,0.0,0.0,0.08287342608971851,0.0,0.0,-0.15245472462110987,-0.22745165680523077,-0.26091590308789475,0.7616524805292473,0.1944621789894228,-0.06836326686592914
8173,3.0,299.92861,2081.564,0.0,0.0,0.0,0.08288356723339077,0.0,0.0,-0.16221709549208085,-0.21446337119338676,-0.25606300252895076,0.7921219749488523,0.2293461406497018,-0.05298451452541446
8174,3.0,300.3729,1901.9318,0.0,0.0,0.0,0.08289370837706303,0.0,0.0,-0.14977863991450086,-0.1937942546560038,-0.2345668813924488,0.7735878169021733,0.1987160460892468,-0.08171135961478333
8175,3.0,300.01835,1809.9867,0.0,0.0,0.0,0.08290384952073529,0.0,0.0,-0.1195321821069079,-0.19197445747640382,-0.2386841218487888,0.7639767445361343,0.17088128563966984,-0.08155871956671892
8176,3.0,301.21625,1851.1821,0.0,0.0,0.0,0.08291399066440756,0.0,0.0,-0.12358075460397087,-0.2000483179832318,-0.23908406179575978,0.7806443641761003,0.18168279515069582,-0.04866701835906075
8177,3.0,300.61102,1925.0455,0.0,0.0,0.0,0.08292413180807981,0.0,0.0,-0.14450088358862687,-0.22598331555531678,-0.2146815644699208,0.8021770636412122,0.20668650442336983,-0.039864254101295564
8178,3.0,298.83102,2088.7928,0.0,0.0,0.0,0.08293427295175208,0.0,0.0,-0.15696861196159584,-0.2221541319699058,-0.2558180999797807,0.7926493108308963,0.17534589862779282,-0.026020592887532577
8179,3.0,299.05459,2191.5331,0.0,0.0,0.0,0.08294441409542433,0.0,0.0,-0.16624061031417084,-0.23287675996064677,-0.2670539796761757,0.7492901605641813,0.17910678915646383,-0.03298669036478287
8180,3.0,299.54194,2033.2667,0.0,0.0,0.0,0.0829545552390966,0.0,0.0,-0.09813637475680609,-0.25053240990562375,-0.26939352349457074,0.7819306142505432,0.17322146780562783,-0.04587837575184316
8181,3.0,300.63889,2269.7412,0.0,0.0,0.0,0.08296469638276886,0.0,0.0,-0.13437091571387688,-0.2633385435469907,-0.2922351799688667,0.7763777098600143,0.20151392345787583,-0.05117105117218954
8182,3.0,300.89169,2354.9172,0.0,0.0,0.0,0.08297483752644112,0.0,0.0,-0.17600170449001584,-0.22327507029053376,-0.3165592416044647,0.7974482456895142,0.18576958744153083,-0.03184484970784197
8183,3.0,300.80987000000005,1921.1617,0.0,0.0,0.0,0.08298497867011338,0.0,0.0,-0.16132880952691384,-0.1932434519016438,-0.2294129239637928,0.7544937773802383,0.16569273585259983,-0.05549963634763765
8184,3.0,300.67071,1585.9008,0.0,0.0,0.0,0.08299511981378564,0.0,0.0,-0.07040675825685602,-0.20199047524490782,-0.2096770006360088,0.7653749486141262,0.21355251001599182,-0.09262412094703901
8185,3.0,300.62812,1813.5429,0.0,0.0,0.0,0.0830052609574579,0.0,0.0,-0.1176102087872239,-0.2105488820820568,-0.22311265643200479,0.7691279864545223,0.24561664731047575,-0.08314995082851122
8186,3.0,299.8872,2099.5148,0.0,0.0,0.0,0.08301540210113018,0.0,0.0,-0.12637169120941488,-0.23774767610636877,-0.27408071713216076,0.7826382681203833,0.17259453957125484,-0.07802274725549563
8187,3.0,298.64662999999996,1915.8842,0.0,0.0,0.0,0.08302554324480242,0.0,0.0,-0.11622271476278889,-0.22069709859110778,-0.24546113368512776,0.7673669577807223,0.17539922598055582,-0.06646841521167184
8188,3.0,299.26461,1735.2368,0.0,0.0,0.0,0.0830356843884747,0.0,0.0,-0.09200094579103642,-0.2086554824151928,-0.22681222506462378,0.7758119110041742,0.16203168085628186,-0.04578276344590696
8189,3.0,300.42644,1856.3899,0.0,0.0,0.0,0.08304582553214694,0.0,0.0,-0.12090298790219588,-0.2082352369362178,-0.23515796083828377,0.7967913151196803,0.21362469395311579,-0.03235038450073437
8190,3.0,299.73992000000004,2138.0567,0.0,0.0,0.0,0.08305596667581921,0.0,0.0,-0.14250997886463987,-0.22890617732378077,-0.27849969333577973,0.7674879499751633,0.18116650369474183,-0.04161167482625256
8191,3.0,300.1708,2336.1376,0.0,0.0,0.0,0.08306610781949147,0.0,0.0,-0.1932645882987298,-0.2368833028435618,-0.27997961603433674,0.8051475988268811,0.2024505009228088,-0.056759839815010045
8192,3.0,301.12708,2246.4814,0.0,0.0,0.0,0.08307624896316373,0.0,0.0,-0.16039173556943184,-0.23416589779787478,-0.2883165973271327,0.7686837573456803,0.19689198312672582,-0.04366671017556875
8193,3.0,301.02329,1795.6317,0.0,0.0,0.0,0.083086390106836,0.0,0.0,-0.1128466768870999,-0.2136518693207978,-0.2193286536685528,0.7478962020041082,0.2339037598645038,-0.07736064708365142
8194,3.0,300.9468,1843.4734,0.0,0.0,0.0,0.08309653125050825,0.0,0.0,-0.12979656773992387,-0.18610079863421883,-0.2444725156950588,0.7421126008308112,0.15489583662952885,-0.04177237325236226
8195,3.0,301.33732000000003,2083.144,0.0,0.0,0.0,0.08310667239418051,0.0,0.0,-0.1940585305470858,-0.18736134255362483,-0.25180389692610977,0.7747063639525652,0.19200490564190884,-0.045696771949670256
8196,3.0,301.29202000000004,1957.8346,0.0,0.0,0.0,0.08311681353785279,0.0,0.0,-0.14557429034706387,-0.22957557086984479,-0.2199829903181308,0.8007009912930353,0.1929246428901798,-0.05678964861970194
8197,3.0,302.56282999999996,1717.8307,0.0,0.0,0.0,0.08312695468152503,0.0,0.0,-0.1147234795173259,-0.2017824651318788,-0.2056716939182158,0.7798216152274012,0.2223733587615418,-0.07052339955536764
8198,3.0,301.55795,1945.7387,0.0,0.0,0.0,0.08313709582519731,0.0,0.0,-0.1065306533162569,-0.2313739986048358,-0.25355131765106675,0.7761585438633842,0.17724488130270782,-0.053090351538109745
8199,3.0,301.13849,2279.6862,0.0,0.0,0.0,0.08314723696886955,0.0,0.0,-0.16175384767886183,-0.25897776842911574,-0.27223606492760777,0.7829942634105173,0.1863498352437968,-0.03569059283963726
8200,3.0,300.5553,2097.0504,0.0,0.0,0.0,0.08315737811254183,0.0,0.0,-0.12600569514079388,-0.23644364349267077,-0.27500160948554575,0.8009812866681982,0.17201647025670383,-0.040673344438646564
8201,3.0,300.78657000000004,1993.4435,0.0,0.0,0.0,0.0831675192562141,0.0,0.0,-0.1323950577538749,-0.23725340257508779,-0.2363085873868418,0.7769633785503153,0.2071188481085388,-0.033281444818872866
8202,3.0,300.30778,1943.9502,0.0,0.0,0.0,0.08317766039988635,0.0,0.0,-0.1258958385649519,-0.2204553472497488,-0.2445611345488048,0.7479001334144963,0.17324131737508686,-0.054384414784073846
8203,3.0,299.66558,1940.0325,0.0,0.0,0.0,0.08318780154355862,0.0,0.0,-0.15371978763596184,-0.21731883156519877,-0.2186828384523158,0.7587916094019013,0.19634430118267382,-0.07082858744573735
8204,3.0,299.4111,2033.4356,0.0,0.0,0.0,0.08319794268723087,0.0,0.0,-0.13398063204035887,-0.23423420098711578,-0.24989881448559276,0.7808540664167962,0.2040029824610268,-0.094568132456398
8205,3.0,299.02941,1878.6806,0.0,0.0,0.0,0.08320808383090314,0.0,0.0,-0.14660532298631887,-0.20022592046075982,-0.22424075843083977,0.7735870974946022,0.22160455524816677,-0.05970157539308674
8206,3.0,299.15306,1759.6641,0.0,0.0,0.0,0.0832182249745754,0.0,0.0,-0.10715289020266688,-0.20650575073803082,-0.22123531677922578,0.7808113883225842,0.15849216520945883,-0.06210741920527504
8207,3.0,300.1177,2067.2201,0.0,0.0,0.0,0.08322836611824765,0.0,0.0,-0.1791254025608008,-0.1971095279231958,-0.2521483715626067,0.7803118864207873,0.1874696488568138,-0.01971040462401548
8208,3.0,300.50022,2359.9073,0.0,0.0,0.0,0.08323850726191992,0.0,0.0,-0.1969307095455478,-0.23710900430333678,-0.28331318859833476,0.8112510425267442,0.17768916107405483,-0.03668955712647736
8209,3.0,300.5029,2299.8793,0.0,0.0,0.0,0.08324864840559217,0.0,0.0,-0.17771455312156081,-0.25007926419590176,-0.2713120618964157,0.7774762857509353,0.2060822628587358,-0.04132654523486246
8210,3.0,300.38281,2173.7483,0.0,0.0,0.0,0.08325878954926444,0.0,0.0,-0.14069096188761687,-0.23383394693261375,-0.2862402857522167,0.7695732288134642,0.18354948554492384,-0.04309161069706086
8211,3.0,300.42326,2202.4251,0.0,0.0,0.0,0.08326893069293671,0.0,0.0,-0.18742793335019683,-0.2339889336679098,-0.24806537895964675,0.7619027229064443,0.1952408718237738,-0.023889097685670376
8212,3.0,300.13697,1843.351,0.0,0.0,0.0,0.08327907183660896,0.0,0.0,-0.11144946579420588,-0.1966202598474088,-0.2522629397514138,0.8176423708450191,0.18800906268004983,-0.03841603903811786
8213,3.0,300.29119,1566.1546,0.0,0.0,0.0,0.08328921298028123,0.0,0.0,-0.1028158555346349,-0.16534901102117686,-0.2079070249638258,0.7879800922500803,0.18845836817189282,-0.04024773481364216
8214,3.0,299.12835,1749.1146,0.0,0.0,0.0,0.08329935412395348,0.0,0.0,-0.1042571024768749,-0.1969837430557818,-0.23044632760828176,0.8075946079508822,0.14525626153817686,-0.04578610514473675
8215,3.0,299.9836,1955.6019,0.0,0.0,0.0,0.08330949526762575,0.0,0.0,-0.17005986404860185,-0.19676830581951985,-0.22762597635243478,0.7678938073027183,0.18422449249654183,-0.08465858700840201
8216,3.0,299.43746,1945.726,0.0,0.0,0.0,0.08331963641129801,0.0,0.0,-0.12174792702808489,-0.22785600439013678,-0.24184817767105676,0.7620902552349522,0.2271568922186398,-0.1010133717594936
8217,3.0,299.55244,2128.1431,0.0,0.0,0.0,0.08332977755497027,0.0,0.0,-0.16538937890516084,-0.24632584132046778,-0.2351871525736648,0.7528827198537392,0.23081039850171278,-0.07749206460837132
8218,3.0,299.77513999999996,2141.9105,0.0,0.0,0.0,0.08333991869864253,0.0,0.0,-0.12603026645571888,-0.21242794426000577,-0.3126291079115907,0.7551056487181254,0.1809426463501488,-0.04052779106178156
8219,3.0,300.75237999999996,2001.3931,0.0,0.0,0.0,0.08335005984231479,0.0,0.0,-0.13822192470644187,-0.2253004255179208,-0.24485116725742878,0.7483296602643873,0.1967030322480778,-0.03449569030145957
8220,3.0,300.5747,2012.7019,0.0,0.0,0.0,0.08336020098598705,0.0,0.0,-0.12255955049068588,-0.19204775598863782,-0.29720382408673374,0.7896895768912933,0.19122218007215983,-0.015794946845589884
8221,3.0,300.49947000000003,1913.9671,0.0,0.0,0.0,0.08337034212965933,0.0,0.0,-0.12929949763836687,-0.2010230747119328,-0.2514756241587118,0.7881686986236942,0.18718320305354383,-0.050578226909682354
8222,3.0,300.30307999999997,1899.7746,0.0,0.0,0.0,0.08338048327333157,0.0,0.0,-0.1023364058523169,-0.2322566306344448,-0.24289100454147575,0.7724848536383192,0.15121333112859386,-0.061545400785558146
8223,3.0,301.08971,2097.928,0.0,0.0,0.0,0.08339062441700384,0.0,0.0,-0.17984805253212083,-0.20981089150422283,-0.24805878270149578,0.7942857198748973,0.18975479127733982,-0.05809600664237944
8224,3.0,301.84985,2205.2773,0.0,0.0,0.0,0.08340076556067609,0.0,0.0,-0.15388660913242586,-0.25036725013932376,-0.26609537415406875,0.7950187860572452,0.23174999545194377,-0.057259891911611356
8225,3.0,301.15202999999997,1802.9169,0.0,0.0,0.0,0.08341090670434836,0.0,0.0,-0.13680965671706188,-0.18677575492333182,-0.22445630712461279,0.7905485900610713,0.21467757226452677,-0.041009025077525664
8226,3.0,299.49744,1866.6111,0.0,0.0,0.0,0.08342104784802062,0.0,0.0,-0.11672717145757489,-0.2048759176871788,-0.24580007597607875,0.7712942645058173,0.16955523510129883,-0.03884667438361826
8227,3.0,299.73827,2383.6062,0.0,0.0,0.0,0.08343118899169288,0.0,0.0,-0.1958788140867338,-0.27249312647797774,-0.25618481545597277,0.7675135345401882,0.17327010381042782,-0.04433693965296526
8228,3.0,300.20097000000004,2288.221,0.0,0.0,0.0,0.08344133013536514,0.0,0.0,-0.1901534038666798,-0.22102692163115878,-0.2843817317562917,0.7664665128143553,0.2035192872607898,-0.031988910567309674
8229,3.0,299.22767000000005,1956.9657,0.0,0.0,0.0,0.0834514712790374,0.0,0.0,-0.15831962898243085,-0.2278683559088558,-0.20868073260768483,0.7739173562321963,0.20000283318624282,-0.061891206832686535
8230,3.0,298.93154,2009.9475,0.0,0.0,0.0,0.08346161242270966,0.0,0.0,-0.1086797061158519,-0.22973510709808975,-0.27255904852948376,0.7663638705792253,0.18634576197839484,-0.024494978688966176
8231,3.0,300.04623,2044.6455,0.0,0.0,0.0,0.08347175356638194,0.0,0.0,-0.14871252855678385,-0.2221422668112348,-0.25066637170134476,0.8064258948880393,0.2008616741035038,-0.051215788190604745
8232,3.0,301.25891,1897.6522,0.0,0.0,0.0,0.08348189471005418,0.0,0.0,-0.09038011952032332,-0.22796605348349777,-0.25849270534124374,0.8026486809002573,0.1974259152669208,-0.06874674757827573
8233,3.0,300.40486,1762.4838,0.0,0.0,0.0,0.08349203585372646,0.0,0.0,-0.12718750952742988,-0.20568516001204482,-0.2028783964400388,0.7957001764844933,0.1895467203693048,-0.0917965904711181
8234,3.0,300.5014,1717.5441,0.0,0.0,0.0,0.0835021769973987,0.0,0.0,-0.1030604237112719,-0.2023246451278878,-0.21670547074966479,0.7543412832401882,0.16326369165287186,-0.08250000661811673
8235,3.0,300.64301,1954.0841,0.0,0.0,0.0,0.08351231814107098,0.0,0.0,-0.13046482644587587,-0.24588313208677576,-0.21764481438737077,0.7890227873979863,0.18366644500396684,-0.0921902735987216
8236,3.0,300.6021,2358.1174,0.0,0.0,0.0,0.08352245928474322,0.0,0.0,-0.17571403265412483,-0.24365597796947275,-0.29743879678492374,0.7956732442968353,0.22928749373391377,-0.058351199759565035
8237,3.0,298.98892,2244.1704,0.0,0.0,0.0,0.0835326004284155,0.0,0.0,-0.17934963480793084,-0.2496815331341488,-0.25314060685553275,0.7991728986847242,0.19742307816664081,-0.03675169874186027
8238,3.0,299.51665,1792.2337,0.0,0.0,0.0,0.08354274157208776,0.0,0.0,-0.10641333921967891,-0.18648221636936183,-0.2518987371354698,0.7775137050771284,0.17297722386902284,-0.034401211822385265
8239,3.0,298.74194,2048.8342,0.0,0.0,0.0,0.08355288271576002,0.0,0.0,-0.13850459108683888,-0.23580136451928277,-0.24848849193640477,0.7780507884251343,0.1865687276628998,-0.03173711589095947
8240,3.0,300.18559,2403.5813,0.0,0.0,0.0,0.08356302385943228,0.0,0.0,-0.18301144974182382,-0.2815586244601727,-0.26605861344044074,0.7839692531867413,0.1947787588506668,-0.06897931380747824
8241,3.0,300.21211,2095.7214,0.0,0.0,0.0,0.08357316500310454,0.0,0.0,-0.17197156301227184,-0.19495654371321283,-0.27011887884365776,0.7889129206896432,0.17933357479384585,-0.05290213627903436
8242,3.0,300.03799,1683.8145,0.0,0.0,0.0,0.0835833061467768,0.0,0.0,-0.09968448614734281,-0.1979907616676668,-0.21416231432367477,0.7766025297922022,0.1979277577764488,-0.058357036080141034
8243,3.0,300.05059,1723.171,0.0,0.0,0.0,0.08359344729044905,0.0,0.0,-0.1294562676938389,-0.1900427974857638,-0.2043018811080258,0.7952562108206772,0.1887879885619238,-0.055645261665259745
8244,3.0,300.78504,2040.2671,0.0,0.0,0.0,0.08360358843412131,0.0,0.0,-0.14574433397884587,-0.2058391638947438,-0.2686067651894237,0.7981214693209562,0.2137252995555448,-0.04008466538229846
8245,3.0,300.14697,2156.7041,0.0,0.0,0.0,0.08361372957779357,0.0,0.0,-0.15927955172966785,-0.25227633491773577,-0.24402829671871776,0.7830208814906443,0.18438353223223783,-0.07040899652632693
8246,3.0,300.22733,2061.6398,0.0,0.0,0.0,0.08362387072146583,0.0,0.0,-0.13090247956156886,-0.2120508531027898,-0.28373368738983473,0.7789416581780563,0.16856476286354685,-0.023770647735730278
8247,3.0,301.12061,1864.5013,0.0,0.0,0.0,0.08363401186513811,0.0,0.0,-0.1127935521843569,-0.22506699295988278,-0.22890130359079977,0.7561410991278162,0.16870208864959985,-0.06253214527619223
8248,3.0,300.42801000000003,2016.0583,0.0,0.0,0.0,0.08364415300881035,0.0,0.0,-0.12789518366227187,-0.23284945287045178,-0.2520867456915248,0.7740857178688123,0.21456984351389483,-0.04983200772778625
8249,3.0,299.70324,2195.2593,0.0,0.0,0.0,0.08365429415248263,0.0,0.0,-0.17863292248219684,-0.2148762503441348,-0.2737948286164458,0.7829451106481663,0.18184421602412684,-0.053771720687105645
8250,3.0,300.67725,2024.4844,0.0,0.0,0.0,0.08366443529615487,0.0,0.0,-0.12946472833217387,-0.22578950107618878,-0.26013848694866976,0.7592072749904243,0.2011675743086938,-0.02809346346510897
8251,3.0,299.94726,1731.7201,0.0,0.0,0.0,0.08367457643982715,0.0,0.0,-0.0996458539607801,-0.1952513184323048,-0.23150248885001676,0.7574949431164303,0.18284151756755282,-0.06347701011369314
8252,3.0,298.95279,1894.0373,0.0,0.0,0.0,0.0836847175834994,0.0,0.0,-0.10666664161217788,-0.21766962888231978,-0.2514037745941208,0.7846709187484903,0.2131370774749918,-0.07382545801475543
8253,3.0,299.28738,2127.2759,0.0,0.0,0.0,0.08369485872717167,0.0,0.0,-0.14582385384669386,-0.24882064545168575,-0.25199426635489774,0.7886190680281423,0.18821356694773284,-0.06869646909506363
8254,3.0,300.04677000000004,1981.0914,0.0,0.0,0.0,0.08370499987084391,0.0,0.0,-0.13872567212615788,-0.18756000036823084,-0.27591663512085174,0.8086845509509512,0.18753354440811984,-0.048700268161092256
8255,3.0,300.92357000000004,1945.1469,0.0,0.0,0.0,0.08371514101451619,0.0,0.0,-0.16463904694110884,-0.22072907676426376,-0.2059079635765338,0.8017920995307192,0.18831189273743681,-0.062203716468278845
8256,3.0,300.98806,2061.4182,0.0,0.0,0.0,0.08372528215818845,0.0,0.0,-0.16903924762037484,-0.2050237306117668,-0.25255669108790474,0.7795279956134233,0.2171072446793168,-0.021946094360160876
8257,3.0,300.25568,2004.4494,0.0,0.0,0.0,0.0837354233018607,0.0,0.0,-0.16576347084208085,-0.19412009562316182,-0.24941898990073777,0.7702533121480832,0.17028940572625584,-0.029640234325763373
8258,3.0,300.32694,2173.2817,0.0,0.0,0.0,0.08374556444553297,0.0,0.0,-0.13834115384570886,-0.24979199766005075,-0.2724902083176898,0.7519146911057023,0.15976638800521487,-0.03984935527182516
8259,3.0,299.59777,2359.3171,0.0,0.0,0.0,0.08375570558920523,0.0,0.0,-0.18391268504326883,-0.2219131912286268,-0.3113475998476157,0.7940290838895692,0.18428607783761985,-0.05360718913586765
8260,3.0,298.84685,2148.195,0.0,0.0,0.0,0.08376584673287749,0.0,0.0,-0.13033258717532487,-0.2423995478454728,-0.2802654944175507,0.7646463204672163,0.22613905209568677,-0.05584155860713275
8261,3.0,299.41508,1731.473,0.0,0.0,0.0,0.08377598787654976,0.0,0.0,-0.12304486689108289,-0.20140484708461082,-0.2018748431434958,0.8024099895742003,0.2227853665172038,-0.07144741474556084
8262,3.0,299.28361,1848.5504,0.0,0.0,0.0,0.083786129020222,0.0,0.0,-0.12933216482159088,-0.1764636958731108,-0.25611730260180976,0.7709474999240943,0.21667481993413976,-0.03832432166556606
8263,3.0,300.65516,2064.6835,0.0,0.0,0.0,0.08379627016389428,0.0,0.0,-0.15013877939754386,-0.23303113874588277,-0.24444232084207876,0.8107803979877952,0.1885813767340328,-0.056349039853467245
8264,3.0,300.7965,2004.9527,0.0,0.0,0.0,0.08380641130756653,0.0,0.0,-0.14009344830364687,-0.2154502666582858,-0.25391185230164875,0.7918991916493653,0.17706604266005782,-0.07110893044365503
8265,3.0,300.39656,1950.9846,0.0,0.0,0.0,0.0838165524512388,0.0,0.0,-0.1095160731458949,-0.23228012790426375,-0.25125439113187775,0.7895645316964522,0.16178099264904083,-0.07336383241494653
8266,3.0,300.92343,1827.7712,0.0,0.0,0.0,0.08382669359491107,0.0,0.0,-0.11530431500464988,-0.2016941502531628,-0.23859834009532277,0.7666646538714103,0.17091301050030083,-0.06527565873720594
8267,3.0,299.21846,1954.6854,0.0,0.0,0.0,0.08383683473858332,0.0,0.0,-0.15979009805755484,-0.2058214421504948,-0.22856402303001278,0.7944782475263983,0.17965121856769484,-0.05207057914721605
8268,3.0,299.43433,2158.1551,0.0,0.0,0.0,0.08384697588225558,0.0,0.0,-0.16855006060459582,-0.25117893439693073,-0.2362962662656258,0.7697460183530173,0.24936249107516176,-0.06030161906255644
8269,3.0,298.94388,2115.6519,0.0,0.0,0.0,0.08385711702592784,0.0,0.0,-0.16535471561923984,-0.2205027977519318,-0.2572478364008847,0.7962217368409673,0.2044044625481498,-0.026467998535438075
8270,3.0,298.46823,1751.7025,0.0,0.0,0.0,0.0838672581696001,0.0,0.0,-0.07423288993296584,-0.2010607980131558,-0.2571801208967018,0.7720952691073703,0.1979070976069098,-0.060540582952890346
8271,3.0,298.39579,1832.4326,0.0,0.0,0.0,0.08387739931327237,0.0,0.0,-0.09070650460278501,-0.2266493653760508,-0.23965788559239176,0.7988618815665293,0.17727506602318682,-0.07008845587044203
8272,3.0,299.15165,2129.7697,0.0,0.0,0.0,0.08388754045694462,0.0,0.0,-0.14257389468094786,-0.21343824580221482,-0.29138467809992874,0.8031815389953463,0.17202311717735985,-0.05016375898277755
8273,3.0,299.31424,2008.7013,0.0,0.0,0.0,0.08389768160061689,0.0,0.0,-0.17465516603462283,-0.2159542775230278,-0.2199856045033888,0.8082134605819582,0.16804116587437185,-0.04773264369984515
8274,3.0,300.6924,1870.3306,0.0,0.0,0.0,0.08390782274428914,0.0,0.0,-0.11931723123069389,-0.2182038649975448,-0.23101270401667878,0.7726437515190012,0.18275986987449483,-0.05217589737586015
8275,3.0,299.52121,1917.9736,0.0,0.0,0.0,0.08391796388796141,0.0,0.0,-0.16163395992702984,-0.18797661841184782,-0.23340551439283078,0.7737043507961743,0.1902125675400188,-0.03380862972665197
8276,3.0,299.56732999999997,2191.8437,0.0,0.0,0.0,0.08392810503163368,0.0,0.0,-0.15625560813122785,-0.25982418690015074,-0.25018595943143174,0.7694781048940762,0.22287786611883278,-0.06129835318592645
8277,3.0,299.55993,2133.2704,0.0,0.0,0.0,0.08393824617530593,0.0,0.0,-0.13542324687023388,-0.22369017859150178,-0.28934750837637574,0.7851655266523042,0.1996524107716588,-0.05361628710851555
8278,3.0,300.4259,1929.1705,0.0,0.0,0.0,0.0839483873189782,0.0,0.0,-0.11572492525366089,-0.21693563050987977,-0.25375910484907377,0.8037259380090742,0.18211792527363982,-0.04510758221527175
8279,3.0,300.89921,1800.7514,0.0,0.0,0.0,0.08395852846265045,0.0,0.0,-0.1023167893303809,-0.21070044403201482,-0.2343662376076468,0.7620851788519513,0.1806368069399648,-0.07210859691281443
8280,3.0,300.53314,1914.9095,0.0,0.0,0.0,0.08396866960632272,0.0,0.0,-0.15933321345496385,-0.19339638173923682,-0.22935506738308278,0.8039601203721862,0.1963146636172488,-0.06330653179761823
8281,3.0,300.35044,2056.8131,0.0,0.0,0.0,0.08397881074999498,0.0,0.0,-0.16694637953882482,-0.22839331065316476,-0.22988013358490278,0.7739416539695942,0.17777071757460383,-0.07405045323921072
8282,3.0,299.48118999999997,1958.9782,0.0,0.0,0.0,0.08398895189366724,0.0,0.0,-0.0990816357750961,-0.23745981175295877,-0.25893901161279076,0.8075643725678983,0.2096365516920168,-0.06390197328513374
8283,3.0,299.59671000000003,1921.9565,0.0,0.0,0.0,0.0839990930373395,0.0,0.0,-0.07439963746217253,-0.24625046564552877,-0.26357668771799375,0.7872760455505963,0.18544346276434484,-0.08247146133629951
8284,3.0,299.59148999999996,2081.888,0.0,0.0,0.0,0.08400923418101176,0.0,0.0,-0.12422844433289287,-0.24294176837148576,-0.2656717646847618,0.8022506762609772,0.2009877122834428,-0.07012979546127193
8285,3.0,299.69217000000003,2262.0282,0.0,0.0,0.0,0.08401937532468402,0.0,0.0,-0.1968358389386848,-0.21859145342579678,-0.2721727975913637,0.7993827529129353,0.18783303074017682,-0.02876023066691377
8286,3.0,299.14932000000005,2152.493,0.0,0.0,0.0,0.0840295164683563,0.0,0.0,-0.16338066124441586,-0.23970879127741576,-0.2512146919929598,0.7940860184126882,0.18130841950374782,-0.042953981949227955
8287,3.0,300.40217,2082.4272,0.0,0.0,0.0,0.08403965761202854,0.0,0.0,-0.16351891922056083,-0.24578717730230576,-0.2236997538049468,0.7804967539015323,0.20471037288584082,-0.040543579524839765
8288,3.0,300.47707,2178.5679999999998,0.0,0.0,0.0,0.08404979875570082,0.0,0.0,-0.12520308960408288,-0.24192585342372278,-0.2951013402617347,0.7587621846189972,0.23725059587231076,-0.06530184415954024
8289,3.0,301.70891,2092.8402,0.0,0.0,0.0,0.08405993989937306,0.0,0.0,-0.14728218418561986,-0.22573734909354182,-0.26315164956604575,0.7627170416143113,0.21262676419462778,-0.053143277643833156
8290,3.0,300.17926,1892.453,0.0,0.0,0.0,0.08407008104304534,0.0,0.0,-0.0970846971467636,-0.20083245197061983,-0.27734131542395674,0.7958245326692662,0.19096823933209783,-0.06992316336837893
8291,3.0,299.59375,1914.632,0.0,0.0,0.0,0.0840802221867176,0.0,0.0,-0.14454631772311086,-0.2055870875348658,-0.23186691438098278,0.7969968630349662,0.1882445622682918,-0.03400435620871867
8292,3.0,299.74772,1990.1843,0.0,0.0,0.0,0.08409036333038986,0.0,0.0,-0.16150411192671485,-0.22427433753915377,-0.21918788283215979,0.8204761983271962,0.17666120871510382,-0.08271915032324452
8293,3.0,299.1865,1954.9045,0.0,0.0,0.0,0.08410050447406212,0.0,0.0,-0.17278640861019084,-0.1925026039585278,-0.22895315159841678,0.8018598352999042,0.2053733525587718,-0.04391868115743636
8294,3.0,299.1729,1956.5053,0.0,0.0,0.0,0.08411064561773438,0.0,0.0,-0.1051986144697949,-0.2390745271123188,-0.25045562581304576,0.7919993412892493,0.1935993053367638,-0.09263854354896241
8295,3.0,298.7004,1969.5079999999998,0.0,0.0,0.0,0.08412078676140664,0.0,0.0,-0.1071598309658519,-0.2372664633688768,-0.25425496918301177,0.7844127831530142,0.19100140300787083,-0.05191624291848425
8296,3.0,299.27007000000003,1912.3735,0.0,0.0,0.0,0.08413092790507891,0.0,0.0,-0.10965064289167589,-0.22825247902176576,-0.24341069038526475,0.7726456361641874,0.19927029389394682,-0.07978846727725862
8297,3.0,301.04862,2052.9209,0.0,0.0,0.0,0.08414106904875115,0.0,0.0,-0.18165918642336584,-0.19291607079433382,-0.24946143494742673,0.7761461720796633,0.1825765830639058,-0.023809316399296575
8298,3.0,300.92656,1974.2209,0.0,0.0,0.0,0.08415121019242343,0.0,0.0,-0.15998931315971585,-0.20819925642516682,-0.23192528771924376,0.7623825778888023,0.15987986188391384,-0.047073745398316956
8299,3.0,299.97407000000004,1859.6237,0.0,0.0,0.0,0.08416135133609567,0.0,0.0,-0.12200796753374889,-0.21312745159904178,-0.23014374073091878,0.7907387365748373,0.1991037257100078,-0.04565995348078655
8300,3.0,300.51457,2258.8576,0.0,0.0,0.0,0.08417149247976795,0.0,0.0,-0.13255775532243186,-0.2594123108670018,-0.29466623040379275,0.8012034620176253,0.22067954909937582,-0.09187161860127283
8301,3.0,300.32212000000004,2372.1073,0.0,0.0,0.0,0.08418163362344021,0.0,0.0,-0.16031812294966685,-0.23897213818971377,-0.32177111640883665,0.8121381936517993,0.2521997838726807,-0.03873520268711686
8302,3.0,300.58502999999996,1910.8267,0.0,0.0,0.0,0.08419177476711247,0.0,0.0,-0.12501695556071288,-0.2069011817220568,-0.2489254661745308,0.7607011704078603,0.1866786956962528,-0.06397500328609124
8303,3.0,300.5897,1831.0432,0.0,0.0,0.0,0.08420191591078473,0.0,0.0,-0.12144702214588789,-0.20203461241926382,-0.23310975682114177,0.7782597104632533,0.16143204957960283,-0.027129904163263073
8304,3.0,299.96094,2074.2089,0.0,0.0,0.0,0.08421205705445699,0.0,0.0,-0.18798038770221984,-0.2004072516986558,-0.24212008333539178,0.7860146505011063,0.15199976519370884,-0.04386708038284375
8305,3.0,299.95316,2312.6584,0.0,0.0,0.0,0.08422219819812925,0.0,0.0,-0.17791635201147682,-0.24433134969112677,-0.28074270481714775,0.7843620294555053,0.17303948808766784,-0.033012161445796676
8306,3.0,299.20367000000005,2065.5088,0.0,0.0,0.0,0.08423233934180152,0.0,0.0,-0.14105073660062387,-0.21760201470314677,-0.26921032787649074,0.7799833400758622,0.18340189553535782,-0.06426799569825735
8307,3.0,299.1034,1851.5546,0.0,0.0,0.0,0.08424248048547377,0.0,0.0,-0.09351017978848622,-0.2137807142035138,-0.25553547412938776,0.7703901211765852,0.19987980435910083,-0.050547626756662356
8308,3.0,299.0137,1941.4468,0.0,0.0,0.0,0.08425262162914604,0.0,0.0,-0.1155033274567909,-0.23582042375366377,-0.23882757779794678,0.8040479286258522,0.21132795995144582,-0.08139553969111434
8309,3.0,299.40958,2132.4249,0.0,0.0,0.0,0.08426276277281829,0.0,0.0,-0.18564223203646182,-0.20161461012031281,-0.2609470807934718,0.7949053324435482,0.1972662169186598,-0.05191536240414735
8310,3.0,299.30777,2059.4075,0.0,0.0,0.0,0.08427290391649056,0.0,0.0,-0.16267135577691283,-0.22291531584252877,-0.24042178497528277,0.7969324608586102,0.17744851417530483,-0.06311069993754113
8311,3.0,300.15779,1685.3524,0.0,0.0,0.0,0.08428304506016282,0.0,0.0,-0.096076638940276,-0.18900930264876584,-0.22721909564227877,0.7571065744856013,0.1986071419684988,-0.05477499939287154
8312,3.0,299.4514,1572.0248,0.0,0.0,0.0,0.08429318620383508,0.0,0.0,-0.04589833880531336,-0.2035445678507848,-0.22841338313764578,0.7880924920836733,0.1966075334261528,-0.09352934136112732
8313,3.0,300.5618,2086.3962,0.0,0.0,0.0,0.08430332734750734,0.0,0.0,-0.13389900461230286,-0.2346157200472688,-0.26569761269481273,0.7753450762856012,0.2299875988905088,-0.05830151301441135
8314,3.0,300.32405,2234.0754,0.0,0.0,0.0,0.0843134684911796,0.0,0.0,-0.16783609418663284,-0.22198837438604677,-0.28927866816458175,0.7709540049897362,0.19272380658785881,-0.06433248501412193
8315,3.0,299.34769,1803.8909,0.0,0.0,0.0,0.08432360963485186,0.0,0.0,-0.15747529780660185,-0.19948918631304982,-0.19137332658957681,0.7720359939765203,0.17273952552806382,-0.04389999277259196
8316,3.0,299.40688,1857.8008,0.0,0.0,0.0,0.08433375077852413,0.0,0.0,-0.13817423102423487,-0.21015808165098782,-0.21639274123880078,0.8099613372694603,0.16753151120657284,-0.04684702258244116
8317,3.0,300.10747000000003,2192.4949,0.0,0.0,0.0,0.08434389192219638,0.0,0.0,-0.16640970149085885,-0.22814599656875678,-0.27190801507523177,0.8139050485136743,0.20136547218572481,-0.023156680996636477
8318,3.0,298.90871,2251.1052,0.0,0.0,0.0,0.08435403306586865,0.0,0.0,-0.14746104309327185,-0.24055393305332476,-0.29626478442405774,0.8218903509617622,0.18500179717825582,-0.04190512320096366
8319,3.0,299.1597,2089.9459,0.0,0.0,0.0,0.0843641742095409,0.0,0.0,-0.13386286198123587,-0.20974351037257283,-0.29168501556206977,0.7696661843776382,0.21233853507118178,-0.03420531815405207
8320,3.0,298.99829,1893.2173,0.0,0.0,0.0,0.08437431535321317,0.0,0.0,-0.13178589179375488,-0.2054342691547838,-0.23827062461547974,0.7674113887976073,0.2075430553954048,-0.05635849955640085
8321,3.0,299.40589,1850.5822,0.0,0.0,0.0,0.08438445649688545,0.0,0.0,-0.14298115029364086,-0.20023619481677382,-0.21931344478455178,0.7555890804733363,0.1961334134393608,-0.03847430902486867
8322,3.0,299.81972,2037.6657,0.0,0.0,0.0,0.08439459764055769,0.0,0.0,-0.16856304033837685,-0.20872406931446177,-0.24211238263463178,0.7852693645225522,0.19780345225418083,-0.03998082244579996
8323,3.0,300.06048,2250.1351,0.0,0.0,0.0,0.08440473878422997,0.0,0.0,-0.15280272536795486,-0.2547032411597528,-0.2764789078663437,0.7912923662969762,0.1923968409130898,-0.040080405678878064
8324,3.0,299.83054,1933.1371,0.0,0.0,0.0,0.08441487992790221,0.0,0.0,-0.09520169139942541,-0.2327971286352878,-0.2596265929981498,0.8074848121700463,0.18585641284259982,-0.06442463808421674
8325,3.0,300.32612,1811.6718,0.0,0.0,0.0,0.08442502107157449,0.0,0.0,-0.07984391130948053,-0.23408665150755378,-0.2367724330176198,0.7696086317719583,0.1878114282480448,-0.07254965860184384
8326,3.0,298.97411,2021.0386,0.0,0.0,0.0,0.08443516221524675,0.0,0.0,-0.12994208058678489,-0.24689813510944877,-0.23750504323742277,0.7979799993419943,0.17427893613999182,-0.06690933707218744
8327,3.0,300.5633,2117.029,0.0,0.0,0.0,0.084445303358919,0.0,0.0,-0.17242167910419484,-0.2223486050615988,-0.24875367975257678,0.7704376730037783,0.19709049908631782,-0.05004757466006105
8328,3.0,299.74271,1877.4527,0.0,0.0,0.0,0.08445544450259126,0.0,0.0,-0.13921192071664687,-0.2194594946539658,-0.21202732543546782,0.7913113140738463,0.1953848445304828,-0.07861291984249112
8329,3.0,300.71108,1806.7397,0.0,0.0,0.0,0.08446558564626352,0.0,0.0,-0.0991966092639431,-0.2120869856013558,-0.2379201515383908,0.7881370142930673,0.2022991618878728,-0.06578814746553463
8330,3.0,300.8435,1736.68,0.0,0.0,0.0,0.08447572678993578,0.0,0.0,-0.0946214608224111,-0.20311459517084982,-0.23017129100113778,0.7855184720596373,0.16892494287659385,-0.07291515108516514
8331,3.0,300.20637,1867.8917,0.0,0.0,0.0,0.08448586793360806,0.0,0.0,-0.09508016522218171,-0.2123258998424348,-0.2603863785856348,0.8120943503199722,0.18670039951339482,-0.06753954519713415
8332,3.0,299.17215,2187.1131,0.0,0.0,0.0,0.0844960090772803,0.0,0.0,-0.16989644707247384,-0.22917242905255777,-0.2657589041933618,0.7956417322187253,0.1960353814921858,-0.07055213228845333
8333,3.0,300.38229,2174.4265,0.0,0.0,0.0,0.08450615022095258,0.0,0.0,-0.17311493469011385,-0.23193891593308877,-0.25591752007959273,0.7907487576183262,0.22360232980783176,-0.043315900699446554
8334,3.0,299.26018999999997,1969.6388,0.0,0.0,0.0,0.08451629136462482,0.0,0.0,-0.17826766608614883,-0.2094446015930728,-0.2110087557724428,0.7688954962190773,0.1919655915380288,-0.05330835229712475
8335,3.0,298.96702,2149.9894,0.0,0.0,0.0,0.0845264325082971,0.0,0.0,-0.15607733690863385,-0.2115776957035928,-0.28588805975245474,0.7788455007435663,0.20151837162581482,-0.017385192215034883
8336,3.0,299.04452000000003,2375.5787,0.0,0.0,0.0,0.08453657365196936,0.0,0.0,-0.19123209979063882,-0.2415255284417138,-0.28935896823500673,0.7848702959706673,0.18387318855437085,-0.031960956010300766
8337,3.0,300.30989,2268.4531,0.0,0.0,0.0,0.08454671479564162,0.0,0.0,-0.14770177105202986,-0.22734728191242978,-0.3145040360291317,0.7828343421472342,0.17436752459623484,-0.02930359920529007
8338,3.0,299.4939,1873.5512,0.0,0.0,0.0,0.08455685593931388,0.0,0.0,-0.14029096114563985,-0.2052137758005228,-0.22400803514787182,0.7859423145764673,0.16399833850537585,-0.024944278101308576
8339,3.0,299.8207,1823.1582,0.0,0.0,0.0,0.08456699708298614,0.0,0.0,-0.12176432141470288,-0.2034912810280258,-0.22893896609701678,0.7952374555613263,0.2022237254179278,-0.044780399704981357
8340,3.0,300.83752999999996,2064.9073,0.0,0.0,0.0,0.0845771382266584,0.0,0.0,-0.16517952467694982,-0.2096231869231978,-0.25287755699707176,0.8061519323260012,0.22809783679150378,-0.033752006271313674
8341,3.0,299.73056,2156.5542,0.0,0.0,0.0,0.08458727937033067,0.0,0.0,-0.13608775655081587,-0.27109836745032573,-0.24835250364048378,0.7964294429789662,0.21702005450821177,-0.09817062261018611
8342,3.0,299.17042000000004,1903.1322,0.0,0.0,0.0,0.08459742051400292,0.0,0.0,-0.1218559597537469,-0.21241422485365183,-0.24423447284906574,0.7902665518957362,0.2047086604931718,-0.07715811865366343
8343,3.0,300.90817999999996,1796.8454,0.0,0.0,0.0,0.08460756165767519,0.0,0.0,-0.08287813534343512,-0.21983189446321877,-0.24348610659020775,0.7736989299081393,0.17743248455872282,-0.0996155253587869
8344,3.0,300.29528999999997,1870.5134,0.0,0.0,0.0,0.08461770280134744,0.0,0.0,-0.1116547603969669,-0.2253174379870998,-0.2316171786288358,0.7865674392256623,0.16423569234130087,-0.062406658304307645
8345,3.0,300.94652,2097.1071,0.0,0.0,0.0,0.08462784394501971,0.0,0.0,-0.15097090090966786,-0.2207175561106268,-0.26577973661541776,0.7661599843941033,0.1823751996065308,-0.053544692882949746
8346,3.0,301.31949,2133.1532,0.0,0.0,0.0,0.08463798508869196,0.0,0.0,-0.15860236629033486,-0.2532562693544478,-0.2365666621873118,0.7854901213218393,0.2026111111961598,-0.026357203690003477
8347,3.0,300.4039,1743.1565,0.0,0.0,0.0,0.08464812623236423,0.0,0.0,-0.1016868517432109,-0.2061249206879458,-0.22206428708353879,0.7837088175135383,0.22666607387019977,-0.03930019195612697
8348,3.0,299.7948,2029.7727,0.0,0.0,0.0,0.08465826737603648,0.0,0.0,-0.12893020850692088,-0.23120820049097277,-0.2568618286427887,0.7855856201437643,0.2195747822503438,-0.04645480866748266
8349,3.0,300.21125,2528.8525,0.0,0.0,0.0,0.08466840851970875,0.0,0.0,-0.17533751904946585,-0.29235526023821773,-0.3010152352653907,0.7990096032986082,0.19102503200020282,-0.04524133325497196
8350,3.0,299.25582,2444.9617,0.0,0.0,0.0,0.08467854966338101,0.0,0.0,-0.1878500938718608,-0.2622647821510188,-0.2930924300834707,0.8159499392029892,0.15663342882851586,-0.04469005933931546
8351,3.0,298.94136000000003,2069.935,0.0,0.0,0.0,0.08468869080705327,0.0,0.0,-0.14294627422519887,-0.23822211020069176,-0.24804016929715877,0.7996075728451232,0.17957675481784582,-0.05926541378154094
8352,3.0,298.55449,1761.3086,0.0,0.0,0.0,0.08469883195072553,0.0,0.0,-0.1297881577640939,-0.18303609198425583,-0.22256960504090978,0.8063912518671202,0.20792018708262477,-0.043545538635860054
8353,3.0,300.83538,1800.8248,0.0,0.0,0.0,0.08470897309439779,0.0,0.0,-0.12976136743144986,-0.17092717573669886,-0.2467172294365948,0.7635112675726953,0.2070399260582498,-0.06133990657252744
8354,3.0,300.61753,2091.4852,0.0,0.0,0.0,0.08471911423807005,0.0,0.0,-0.15361177517530183,-0.2224431210309268,-0.25970437007582575,0.7889756307383323,0.21757655172813378,-0.06153404833143774
8355,3.0,300.61289,2006.8394,0.0,0.0,0.0,0.08472925538174231,0.0,0.0,-0.15627219503536485,-0.19841073356911482,-0.2553461382157018,0.7926104526895612,0.1870801352533718,-0.06834690490331434
8356,3.0,301.24361,1990.8707,0.0,0.0,0.0,0.08473939652541457,0.0,0.0,-0.15178051813707086,-0.21590012943768377,-0.23749432305136478,0.7982605986921872,0.18088154736911882,-0.028691155381096577
8357,3.0,300.57549,2162.8452,0.0,0.0,0.0,0.08474953766908683,0.0,0.0,-0.14153077396799987,-0.25775822060875575,-0.25816195011110077,0.7769114393501892,0.17052076112158882,-0.06887621257005294
8358,3.0,299.64153,2434.0877,0.0,0.0,0.0,0.08475967881275909,0.0,0.0,-0.18943476636575582,-0.24778366503434376,-0.3026834400975297,0.7914277162453341,0.1993836259176318,-0.0011615148328075887
8359,3.0,300.17984,2350.9793,0.0,0.0,0.0,0.08476981995643136,0.0,0.0,-0.13184414354200386,-0.2853902398458237,-0.29740460972654975,0.8037070510272102,0.2077219447005598,-0.08039214344833684
8360,3.0,300.08692,1810.0404,0.0,0.0,0.0,0.0847799611001036,0.0,0.0,-0.10851285422188489,-0.1977255738514948,-0.24396864668533078,0.7880777999572233,0.2319922939483568,-0.05761653973480975
8361,3.0,299.97814,1496.0302,0.0,0.0,0.0,0.08479010224377588,0.0,0.0,-0.07970757445552512,-0.17022789131268481,-0.2048203510516948,0.7654716126736663,0.1972542099049748,-0.09386830493033041
8362,3.0,300.93189,1693.4576,0.0,0.0,0.0,0.08480024338744813,0.0,0.0,-0.12693474415748388,-0.19236695003513982,-0.19546712043860281,0.7765358782006243,0.18103564244432682,-0.0911693379967131
8363,3.0,299.75211,1812.8678,0.0,0.0,0.0,0.0848103845311204,0.0,0.0,-0.1064220126405349,-0.2113174829454118,-0.23332704830508677,0.8061119798745582,0.16965713766385584,-0.0967144656927246
8364,3.0,299.04116,1795.9762,0.0,0.0,0.0,0.08482052567479265,0.0,0.0,-0.12500781604481087,-0.1938154923780998,-0.22710861085137476,0.8208298124795952,0.18126362371682683,-0.05772854946711424
8365,3.0,298.85485,1938.6121,0.0,0.0,0.0,0.08483066681846492,0.0,0.0,-0.1001496702815029,-0.2146177702436248,-0.2745222205982338,0.7827212127735692,0.19472158114752383,-0.03381903073892847
8366,3.0,298.90817999999996,2172.4737,0.0,0.0,0.0,0.08484080796213718,0.0,0.0,-0.16953549698935083,-0.21208296299845877,-0.2787593082764017,0.7561443415281363,0.2089350887802878,-0.04646819066155336
8367,3.0,297.93748,2576.4891,0.0,0.0,0.0,0.08485094910580944,0.0,0.0,-0.2012666803009748,-0.28603038086150073,-0.29589129030469674,0.7774701555878302,0.1954069131176608,-0.04713216635933266
8368,3.0,299.50178999999997,2669.3765,0.0,0.0,0.0,0.0848610902494817,0.0,0.0,-0.2350378299064278,-0.2707452801879787,-0.3056406814418867,0.7841535937774342,0.22051617265325182,-0.036543438356056564
8369,3.0,300.00718,1988.7184,0.0,0.0,0.0,0.08487123139315396,0.0,0.0,-0.15980741450176386,-0.1817406719964078,-0.26297265893588073,0.8041593050768443,0.17316048028210884,-0.02938999802806697
8370,3.0,299.59665,1504.9453,0.0,0.0,0.0,0.08488137253682622,0.0,0.0,-0.09155122587990251,-0.15310092487238486,-0.2128136581755728,0.7903121886802402,0.2024450395047698,-0.012283164867253988
8371,3.0,299.67708,1767.1244,0.0,0.0,0.0,0.08489151368049849,0.0,0.0,-0.0944472324677161,-0.17236738916383684,-0.27034706276617776,0.7981873711074603,0.21842635445450279,-0.04390522823585866
8372,3.0,299.25411,1998.8904,0.0,0.0,0.0,0.08490165482417074,0.0,0.0,-0.13753936904157887,-0.2129069683772818,-0.25716643188785077,0.8019181478431592,0.2281613777052748,-0.06310041950202654
8373,3.0,299.95038999999997,1952.9617,0.0,0.0,0.0,0.08491179596784301,0.0,0.0,-0.1261086210859519,-0.22996102134038576,-0.23758194892001278,0.7943422085679722,0.18968379284283282,-0.0904121716607366
8374,3.0,299.85691,1876.4523,0.0,0.0,0.0,0.08492193711151526,0.0,0.0,-0.15604914829085184,-0.20465875792574678,-0.2096867278369688,0.7601860745870244,0.19375559916468882,-0.07886646034876363
8375,3.0,299.95018999999996,1981.129,0.0,0.0,0.0,0.08493207825518753,0.0,0.0,-0.14407339337143688,-0.24591484681490577,-0.2122255070225268,0.7941871813026723,0.18162133139962983,-0.1029777526356129
8376,3.0,301.20283,2225.8588,0.0,0.0,0.0,0.08494221939885979,0.0,0.0,-0.15933468266760883,-0.23508046747063577,-0.28219035550001975,0.7911421823671543,0.19053009985635683,-0.057524790951504846
8377,3.0,300.7893,2364.549,0.0,0.0,0.0,0.08495236054253205,0.0,0.0,-0.11933137620208988,-0.27011273854805173,-0.32931973846132767,0.7874061265984342,0.16398254193631684,-0.037669646590454665
8378,3.0,300.16505,2087.9737,0.0,0.0,0.0,0.08496250168620431,0.0,0.0,-0.13303790414731886,-0.23248947550742477,-0.2691644884419667,0.7802418809713783,0.16944817509573284,-0.03948671914053576
8379,3.0,300.34263,1854.6128,0.0,0.0,0.0,0.08497264282987657,0.0,0.0,-0.09280627393076611,-0.2277690877965588,-0.24318060155255677,0.7884483455187933,0.2219543089176848,-0.05425767847481595
8380,3.0,298.93721,1837.3805,0.0,0.0,0.0,0.08498278397354883,0.0,0.0,-0.12082247504924988,-0.22348114509587177,-0.2142141724637928,0.8048803135830023,0.2327858815591778,-0.06070347405221644
8381,3.0,298.85337000000004,2122.1255,0.0,0.0,0.0,0.0849929251172211,0.0,0.0,-0.17237977108005884,-0.21265488188490278,-0.26003849942880175,0.8151333913449023,0.2024900886042158,-0.05638468295223494
8382,3.0,299.7775,2199.8012,0.0,0.0,0.0,0.08500306626089335,0.0,0.0,-0.16736631091026885,-0.23408917450030275,-0.2672291402209628,0.8270274985712592,0.2108094697427748,-0.05102274884780325
8383,3.0,299.85534,2043.9416,0.0,0.0,0.0,0.08501320740456562,0.0,0.0,-0.14109947393043387,-0.23270832739652378,-0.24749941798379077,0.7889772114084882,0.18813847498282182,-0.08514887542703972
8384,3.0,299.82854,2286.0009,0.0,0.0,0.0,0.08502334854823787,0.0,0.0,-0.16596277713675084,-0.24525980089025776,-0.28366460399801674,0.7905878231049432,0.18952636417479582,-0.06470499628088594
8385,3.0,301.28059,2395.3395,0.0,0.0,0.0,0.08503348969191014,0.0,0.0,-0.2014029523069238,-0.25042702176272275,-0.2762934324355387,0.7607254276152543,0.14794688638372086,-0.05215993868678516
8386,3.0,300.88685,2357.9816,0.0,0.0,0.0,0.08504363083558242,0.0,0.0,-0.2073770242340188,-0.2477367211572108,-0.2616537923407187,0.8070320413628612,0.1933831385604298,-0.03770761509820186
8387,3.0,300.38298,2057.7322,0.0,0.0,0.0,0.08505377197925466,0.0,0.0,-0.17237255673934684,-0.2109055765147598,-0.24222106384035777,0.8032913246436812,0.2011359507730728,-0.04045344687544436
8388,3.0,299.71603,1692.9896,0.0,0.0,0.0,0.08506391312292694,0.0,0.0,-0.10715617313299089,-0.19327671690242682,-0.2141936845467708,0.7918088401379483,0.22279886300853577,-0.04160328714192476
8389,3.0,299.51685,1701.4504,0.0,0.0,0.0,0.08507405426659918,0.0,0.0,-0.08713374624668123,-0.1742184856390258,-0.25584620753755477,0.7821620405733832,0.15780608343424785,-0.03330394099759307
8390,3.0,298.57824,2133.9803,0.0,0.0,0.0,0.08508419541027146,0.0,0.0,-0.14121591663192587,-0.23722200195448875,-0.27023880712549375,0.7888301888189783,0.17337077020786285,-0.05599501128177735
8391,3.0,299.02932000000004,2279.79,0.0,0.0,0.0,0.08509433655394372,0.0,0.0,-0.15125086191229786,-0.2706772100462607,-0.2710711515526398,0.8159283164458553,0.1961606597345498,-0.07393764810557772
8392,3.0,299.94305,1911.129,0.0,0.0,0.0,0.08510447769761596,0.0,0.0,-0.12167455758834388,-0.22354290268946678,-0.2357180449635598,0.8029839856233493,0.1995893460854348,-0.07116931305686433
8393,3.0,299.6508,1874.0626,0.0,0.0,0.0,0.08511461884128824,0.0,0.0,-0.0922806180173879,-0.2366729318577998,-0.24071466491668778,0.8034118000805712,0.17437401952937584,-0.07998132828804252
8394,3.0,300.74757999999997,2307.7358,0.0,0.0,0.0,0.08512475998496048,0.0,0.0,-0.17766665678933383,-0.2503586679109767,-0.2734687343367628,0.7975591155154562,0.19411734971539082,-0.04827719672758835
8395,3.0,301.00464,2407.3942,0.0,0.0,0.0,0.08513490112863276,0.0,0.0,-0.17893772837727884,-0.26783993751374374,-0.28501006840830373,0.8094648143229572,0.1993985308266028,-0.07395187211048153
8396,3.0,300.45302999999996,1971.6935,0.0,0.0,0.0,0.08514504227230503,0.0,0.0,-0.14272216356808087,-0.2292266987279138,-0.22739673864981078,0.7986264934357982,0.1933762484597498,-0.057346099230119345
8397,3.0,300.07837,1699.5528,0.0,0.0,0.0,0.08515518341597728,0.0,0.0,-0.13000864098585388,-0.17878075567178683,-0.2078322268414438,0.7757407301846493,0.1882316939920218,-0.03966930883505596
8398,3.0,300.31562,1713.8151,0.0,0.0,0.0,0.08516532455964955,0.0,0.0,-0.11999213685730188,-0.17898335502928184,-0.2219815146828698,0.7926504760685112,0.2002069017563828,-0.047907231758325654
8399,3.0,299.16168999999996,1984.4955,0.0,0.0,0.0,0.0851754657033218,0.0,0.0,-0.13986770631386786,-0.22487598518353177,-0.23849337751746377,0.7910461667876783,0.21478382167001278,-0.03835138760223726
8400,3.0,299.33957999999996,2309.6859,0.0,0.0,0.0,0.08518560684699407,0.0,0.0,-0.16339190832052583,-0.24942313409364678,-0.2892718185939057,0.7759254456778794,0.24101697821652376,-0.06416518526361074
8401,3.0,299.10323,2078.6219,0.0,0.0,0.0,0.08519574799066633,0.0,0.0,-0.13591579787634486,-0.21855838094253277,-0.27737498572477975,0.7862588437752063,0.18172032593439982,-0.025915281751639176
8402,3.0,299.0598,1882.9316,0.0,0.0,0.0,0.08520588913433859,0.0,0.0,-0.1263255579323619,-0.2240666212686538,-0.22197200026443079,0.7965533330686932,0.17747447364286684,-0.07194067806649214
8403,3.0,299.55716,2176.4579,0.0,0.0,0.0,0.08521603027801085,0.0,0.0,-0.17001225142640283,-0.22977645783467077,-0.2618001360526618,0.8094562928896162,0.18372643954238782,-0.053060826443445855
8404,3.0,299.80287999999996,2237.8881,0.0,0.0,0.0,0.08522617142168311,0.0,0.0,-0.17254970325432983,-0.25457505488960175,-0.2531373340577098,0.8209508857340442,0.17886147117475285,-0.07493655261066193
8405,3.0,299.84763,1875.355,0.0,0.0,0.0,0.08523631256535537,0.0,0.0,-0.11065579712337689,-0.2080396087394108,-0.2513656763903607,0.7907502065659692,0.18240768440473681,-0.04698836590514066
8406,3.0,299.95512,1715.899,0.0,0.0,0.0,0.08524645370902764,0.0,0.0,-0.1015971385793569,-0.1949725733297948,-0.22502074822531878,0.7684208696072353,0.19092419335025082,-0.06590142578696434
8407,3.0,299.25651,1847.5398,0.0,0.0,0.0,0.08525659485269989,0.0,0.0,-0.1123086613490019,-0.2123112077159848,-0.2369860869337058,0.7768213411512972,0.20745798291700882,-0.06127106433423324
8408,3.0,299.46647,1912.3631,0.0,0.0,0.0,0.08526673599637216,0.0,0.0,-0.14682750846824685,-0.21281449917315579,-0.22166862305198978,0.7463907251380294,0.21608068047300277,-0.07332968284682623
8409,3.0,300.01505,2164.4537,0.0,0.0,0.0,0.08527687714004441,0.0,0.0,-0.13870701819181688,-0.25403546881384875,-0.26519741165044675,0.7799783244878672,0.18204259012870483,-0.07518648999957883
8410,3.0,299.89738,2169.7937,0.0,0.0,0.0,0.08528701828371668,0.0,0.0,-0.14454348062283087,-0.2264398961828778,-0.28857972824560174,0.7821971395568472,0.17482306157619285,-0.07587882352790684
8411,3.0,300.36041,2066.7687,0.0,0.0,0.0,0.08529715942738894,0.0,0.0,-0.10347497472468489,-0.2324897592174528,-0.2922813335109217,0.8134158817628971,0.2024991166626068,-0.04534273223222925
8412,3.0,301.73042000000004,2127.1242,0.0,0.0,0.0,0.0853073005710612,0.0,0.0,-0.12889165434061586,-0.2604772569871037,-0.2572237311810058,0.8324411925305493,0.22056166758274176,-0.04338721526798475
8413,3.0,300.66443,2226.471,0.0,0.0,0.0,0.08531744171473346,0.0,0.0,-0.16858448071049284,-0.22147496056037677,-0.2867321376157587,0.7960727992087683,0.2003502462480298,-0.011677073107937388
8414,3.0,299.94217000000003,2160.8706,0.0,0.0,0.0,0.08532758285840572,0.0,0.0,-0.1830233756955008,-0.21558464388654777,-0.2582426757465678,0.8113957954360302,0.19431875343776783,-0.030546403141945268
8415,3.0,300.25262999999995,1839.7683,0.0,0.0,0.0,0.08533772400207798,0.0,0.0,-0.13924912726031885,-0.19115749418577582,-0.22883701287195476,0.7928749818931682,0.17848506902760483,-0.055420469090824445
8416,3.0,299.22819,1821.1957,0.0,0.0,0.0,0.08534786514575025,0.0,0.0,-0.13693692092962187,-0.19451678303731182,-0.22214432370893777,0.8276191251721482,0.2004393210643208,-0.07635382098928542
8417,3.0,299.32583,2183.8066,0.0,0.0,0.0,0.0853580062894225,0.0,0.0,-0.16174586326807383,-0.2227733797685208,-0.27930343371260274,0.7797503533478682,0.1801383588182718,-0.04189850363806036
8418,3.0,298.81674,2342.8602,0.0,0.0,0.0,0.08536814743309477,0.0,0.0,-0.17915698556641785,-0.24498901993353375,-0.28802500421335475,0.8004669507849372,0.17307884272155183,-0.06324746742278904
8419,3.0,298.31295,2154.0068,0.0,0.0,0.0,0.08537828857676702,0.0,0.0,-0.15827640373316484,-0.23645695759898475,-0.26003094058305576,0.7858697861343092,0.20898689625790082,-0.05136983159005765
8420,3.0,300.13549,1976.0213,0.0,0.0,0.0,0.0853884297204393,0.0,0.0,-0.13991846001137687,-0.24115733362037578,-0.21958534031638582,0.7957356909004982,0.22372064702200878,-0.06489122050351484
8421,3.0,300.48912,1854.1169,0.0,0.0,0.0,0.08539857086411155,0.0,0.0,-0.10374110486344991,-0.2058367827570088,-0.25402735268054777,0.7796479745577642,0.19993322290437282,-0.06198180355062773
8422,3.0,301.15017,2093.5585,0.0,0.0,0.0,0.08540871200778381,0.0,0.0,-0.12520630160689988,-0.24515327790724475,-0.2660299181976088,0.7998355743826252,0.17597048625443484,-0.06808189744566014
8423,3.0,300.4954,2120.0014,0.0,0.0,0.0,0.08541885315145607,0.0,0.0,-0.13251238198295387,-0.2337245260543148,-0.27819058112777273,0.8085714215772862,0.2157777389581048,-0.05194696567476635
8424,3.0,299.80228,1877.6332,0.0,0.0,0.0,0.08542899429512833,0.0,0.0,-0.1108366926637299,-0.2321805963469408,-0.22773631928832477,0.8100396817671922,0.2054424866130948,-0.051521273976503856
8425,3.0,298.7577,1818.5254,0.0,0.0,0.0,0.08543913543880059,0.0,0.0,-0.13760483513053987,-0.19360746200006881,-0.22157400575765177,0.7812360921019993,0.2069494326918188,-0.06534476442052614
8426,3.0,298.87791,2127.8532,0.0,0.0,0.0,0.08544927658247287,0.0,0.0,-0.17070771589753983,-0.23588619381765477,-0.24022032045789976,0.7693861828450043,0.18052241100367483,-0.05361054704669904
8427,3.0,298.8378,2405.4711,0.0,0.0,0.0,0.08545941772614511,0.0,0.0,-0.16458247718802585,-0.28019613744820576,-0.2864245351504007,0.7846169226506613,0.18901444995927383,-0.1097185711783799
8428,3.0,298.64467,2131.369,0.0,0.0,0.0,0.08546955886981739,0.0,0.0,-0.13642804646439988,-0.2341995579661968,-0.27725536141797374,0.8235580795663543,0.2050618186830258,-0.06730812292729453
8429,3.0,298.38186,1724.6137,0.0,0.0,0.0,0.08547970001348963,0.0,0.0,-0.09246268386160642,-0.19400195066150183,-0.23777486160655179,0.8039259231813112,0.1847153311099838,-0.06717310937796973
8430,3.0,299.49935,1863.8681,0.0,0.0,0.0,0.0854898411571619,0.0,0.0,-0.11767498586611688,-0.20410568549116279,-0.24478866999126075,0.8071462650466342,0.16776202560432282,-0.025919162499522176
8431,3.0,299.99984,2126.5448,0.0,0.0,0.0,0.08549998230083418,0.0,0.0,-0.16074219851401986,-0.2061551966009338,-0.27951911412888875,0.7893069229910282,0.2070386189656208,-0.04034215047121026
8432,3.0,300.19621,2304.7775,0.0,0.0,0.0,0.08551012344450643,0.0,0.0,-0.18252296186861383,-0.2518059842213158,-0.26626586361589477,0.7972284818753252,0.2001851574092368,-0.03569982456129837
8433,3.0,300.09783999999996,2267.029,0.0,0.0,0.0,0.0855202645881787,0.0,0.0,-0.15278864119156485,-0.2348961167474418,-0.30143544021436175,0.7863337229575962,0.2153849930868438,-0.044598421000271456
8434,3.0,299.34272000000004,2088.7064,0.0,0.0,0.0,0.08553040573185094,0.0,0.0,-0.14195629847999588,-0.23878113041336277,-0.2541771617078328,0.7853381135418372,0.2001888253745988,-0.06635057321179173
8435,3.0,300.22472999999997,2152.0481,0.0,0.0,0.0,0.0855405468755232,0.0,0.0,-0.13612375732686885,-0.24982531332333877,-0.26821981510873477,0.8170943545284343,0.2148271279792868,-0.05546410774613124
8436,3.0,302.24506,2211.0281,0.0,0.0,0.0,0.08555068801919548,0.0,0.0,-0.19452994515611083,-0.20273204259559482,-0.2748353351441357,0.8101999070055051,0.20661698533400882,-0.03651970601221437
8437,3.0,301.16193,1823.4785,0.0,0.0,0.0,0.08556082916286772,0.0,0.0,-0.11612812786595388,-0.2066346766807548,-0.2315291373276468,0.8106992873172901,0.1876021009098858,-0.046506076082792364
8438,3.0,300.67402000000004,1716.7853,0.0,0.0,0.0,0.08557097030654,0.0,0.0,-0.10395941972999591,-0.1933236405145578,-0.2245768028265048,0.7722001708902233,0.15474273453941886,-0.06444617775484254
8439,3.0,300.19063,2067.1846,0.0,0.0,0.0,0.08558111145021224,0.0,0.0,-0.1287808453096799,-0.21583240380099977,-0.2837592516898577,0.7813844623141423,0.18355187681515983,-0.08346675157827702
8440,3.0,299.05188,2196.1116,0.0,0.0,0.0,0.08559125259388452,0.0,0.0,-0.15023874665240985,-0.25596448422172774,-0.26135984848670873,0.7854019381656362,0.19352259217169282,-0.07790589520096322
8441,3.0,299.29695,2153.7423,0.0,0.0,0.0,0.08560139373755679,0.0,0.0,-0.13442228749394688,-0.2228158349477108,-0.2974457780781127,0.7881614538854793,0.19111973035454882,-0.06917458230049973
8442,3.0,300.10875,2010.7219,0.0,0.0,0.0,0.08561153488122904,0.0,0.0,-0.1372128390643529,-0.22671796240782077,-0.24727844840198276,0.7986228254704363,0.2100955843848198,-0.039535916485891165
8443,3.0,299.06519,1909.9172,0.0,0.0,0.0,0.08562167602490131,0.0,0.0,-0.11272828874541589,-0.22371302738125678,-0.24412581190834173,0.8138835169490491,0.2103371432086598,-0.051042808160032954
8444,3.0,300.7462,2134.5157,0.0,0.0,0.0,0.08563181716857356,0.0,0.0,-0.15045111374086886,-0.23030326682666277,-0.2680851035079398,0.8265437527085172,0.2100661596019158,-0.04352179514626676
8445,3.0,300.31842,2252.1922,0.0,0.0,0.0,0.08564195831224583,0.0,0.0,-0.14610161609660685,-0.25936159769949674,-0.27914697776466174,0.8132112559052023,0.18661635041759983,-0.03966854079148016
8446,3.0,300.11686000000003,2006.0,0.0,0.0,0.0,0.08565209945591809,0.0,0.0,-0.15406884216291084,-0.19958108809711983,-0.25612396978746776,0.7917272836373992,0.2026508306000798,-0.04902061832595836
8447,3.0,300.09391,1883.2411,0.0,0.0,0.0,0.08566224059959035,0.0,0.0,-0.12617891024538888,-0.2110984790687978,-0.23518086029054378,0.7872155646521273,0.19781458787277978,-0.057022505651683146
8448,3.0,300.42592,2134.4651,0.0,0.0,0.0,0.08567238174326261,0.0,0.0,-0.19153392673042682,-0.2074425916479898,-0.24984756429553476,0.7797902551368062,0.18501757348231282,-0.04215872146249186
8449,3.0,299.09443999999996,2342.8854,0.0,0.0,0.0,0.08568252288693487,0.0,0.0,-0.18717095285983482,-0.2291836963936698,-0.29582400036555573,0.7653251372392103,0.18120265645830985,-0.057169859573975856
8450,3.0,299.99939,2160.288,0.0,0.0,0.0,0.08569266403060713,0.0,0.0,-0.14898057373823784,-0.24079976779258674,-0.26689326807781477,0.7978518536018473,0.17426620971873583,-0.06350893863759423
8451,3.0,299.56722,1826.4581,0.0,0.0,0.0,0.0857028051742794,0.0,0.0,-0.1006505350046844,-0.2133089044269498,-0.24123820111085678,0.8068561208804993,0.22799988590433679,-0.07432295570785463
8452,3.0,299.77047999999996,1848.6098,0.0,0.0,0.0,0.08571294631795165,0.0,0.0,-0.09799886253273471,-0.21432824416005078,-0.24960411069400776,0.8231982339258402,0.2202811492925568,-0.05569973703038605
8453,3.0,300.10303999999996,1970.3616,0.0,0.0,0.0,0.08572308746162392,0.0,0.0,-0.1183637426215919,-0.24504319841638078,-0.2355337955653758,0.8170072960798422,0.2031760285244128,-0.06298337290347494
8454,3.0,300.78949,2110.1662,0.0,0.0,0.0,0.08573322860529617,0.0,0.0,-0.15377995442689985,-0.2273037324231318,-0.26035414709995375,0.7983903858974962,0.21482602353667782,-0.04263432484743025
8455,3.0,299.59801,2150.3387,0.0,0.0,0.0,0.08574336974896844,0.0,0.0,-0.13627058739885986,-0.26053723126052275,-0.25684144205077675,0.7812014186835773,0.2061449121124188,-0.06054756019307894
8456,3.0,299.97291,1802.0469,0.0,0.0,0.0,0.08575351089264069,0.0,0.0,-0.1036339739303769,-0.21422894565025077,-0.2299143409082788,0.7860744221245053,0.2228380555224038,-0.06022331610807854
8457,3.0,300.19318,1799.7855,0.0,0.0,0.0,0.08576365203631296,0.0,0.0,-0.10428620301974689,-0.20540476331187182,-0.23739888502444575,0.7699583854414763,0.19622744304864081,-0.06974383735243084
8458,3.0,300.01296,2278.0098,0.0,0.0,0.0,0.08577379317998521,0.0,0.0,-0.15829493607749384,-0.24933379583232973,-0.2848293552529687,0.8168201183888691,0.18359841539225283,-0.06620073277375364
8459,3.0,300.55896,2297.7972,0.0,0.0,0.0,0.08578393432365748,0.0,0.0,-0.18245703981710784,-0.2339958136360888,-0.28202012948321975,0.8072138285633021,0.20506113980545881,-0.05779542296046415
8460,3.0,300.97505,1953.0347,0.0,0.0,0.0,0.08579407546732973,0.0,0.0,-0.14300125317562487,-0.2069355207679458,-0.24373701771247078,0.8141962464599132,0.20711388318304882,-0.04542599403269655
8461,3.0,300.89282000000003,1912.4333,0.0,0.0,0.0,0.085804216611002,0.0,0.0,-0.10642167826800189,-0.22894508612762077,-0.24596519521237478,0.8076459088034452,0.18658514231451984,-0.05258321682330945
8462,3.0,301.37219,2393.7394,0.0,0.0,0.0,0.08581435775467426,0.0,0.0,-0.18501493903205282,-0.24073864854655475,-0.3018834183485737,0.7923384862302203,0.20862362583204883,-0.033738743840754766
8463,3.0,301.47542000000004,2376.9366,0.0,0.0,0.0,0.08582449889834652,0.0,0.0,-0.17536782535995682,-0.24617283042286678,-0.3009887387752757,0.8049508965849682,0.2275787386327728,-0.05485353944787285
8464,3.0,299.71112999999997,2144.4843,0.0,0.0,0.0,0.08583464004201878,0.0,0.0,-0.15208853603496986,-0.2164828698351958,-0.28329826342436176,0.7834764488681052,0.21687653776404778,-0.02298726760641668
8465,3.0,300.16415,1926.0020000000002,0.0,0.0,0.0,0.08584478118569104,0.0,0.0,-0.1131401951760679,-0.2266026646789418,-0.24571364574254875,0.7923890068802063,0.19896651138146582,-0.05869935249392504
8466,3.0,299.7871,1850.3183,0.0,0.0,0.0,0.0858549223293633,0.0,0.0,-0.12185829022897689,-0.2021857488041798,-0.23840653185139277,0.7664347170262172,0.18500906218147284,-0.017066108612793784
8467,3.0,299.59766,2099.0967,0.0,0.0,0.0,0.08586506347303556,0.0,0.0,-0.11207519839346089,-0.26679460791557774,-0.2592031659138608,0.8097922562252732,0.19905267816996983,-0.08757891970461641
8468,3.0,300.59191,2217.8311,0.0,0.0,0.0,0.08587520461670782,0.0,0.0,-0.17955099800030383,-0.23719437062426177,-0.2574199065328668,0.7971481615398982,0.17882241038339783,-0.047903113909919255
8469,3.0,300.01986,1889.4617,0.0,0.0,0.0,0.08588534576038008,0.0,0.0,-0.10677255664513088,-0.24113684570335375,-0.2264397847253668,0.8103274549280932,0.16931130527222485,-0.12412932820811087
8470,3.0,299.48287,1841.7603,0.0,0.0,0.0,0.08589548690405234,0.0,0.0,-0.11957645100377688,-0.21125369885161682,-0.22901898245741378,0.8059328879193832,0.19227266711333482,-0.06967885863676793
8471,3.0,299.19116,2174.0415,0.0,0.0,0.0,0.08590562804772461,0.0,0.0,-0.13454713003876786,-0.2598476740374688,-0.26645954637250974,0.8066746984500942,0.2123970907944608,-0.09838086288668522
8472,3.0,298.63059,2232.3579,0.0,0.0,0.0,0.08591576919139686,0.0,0.0,-0.17221752947404684,-0.22200374539006382,-0.2843597948916267,0.7833914473172162,0.20055678714841382,-0.03212103838034967
8473,3.0,298.88712999999996,2097.1738,0.0,0.0,0.0,0.08592591033506913,0.0,0.0,-0.1164834746760239,-0.25481508370579076,-0.26618992052089974,0.7966544047661682,0.19937182155396682,-0.055276909790156245
8474,3.0,299.94304,1973.2751,0.0,0.0,0.0,0.08593605147874138,0.0,0.0,-0.14984761184880785,-0.2100508696579068,-0.23992788634653875,0.7976405504259932,0.2241385518932528,-0.03122302420097257
8475,3.0,299.52369,2112.6448,0.0,0.0,0.0,0.08594619262241365,0.0,0.0,-0.15318962478613887,-0.2212425007224348,-0.26775915108327075,0.8081033101635873,0.2121578523133498,-0.03358686271701526
8476,3.0,300.14654,2342.3302,0.0,0.0,0.0,0.08595633376608591,0.0,0.0,-0.1978371225550038,-0.22913950855680876,-0.2850332819680947,0.8003708845429562,0.18297030165526282,-0.03666042719935247
8477,3.0,300.36421,2278.2508,0.0,0.0,0.0,0.08596647490975817,0.0,0.0,-0.1825423656080288,-0.2322148543328218,-0.2777741252041717,0.7990581582434003,0.18343161416079082,-0.038421084010365765
8478,3.0,300.80383,2082.1373,0.0,0.0,0.0,0.08597661605343043,0.0,0.0,-0.14778799863553985,-0.21914382671781177,-0.2659859127457657,0.8018224058412102,0.1863793917492138,-0.03703590019615876
8479,3.0,300.5191,1949.1485,0.0,0.0,0.0,0.08598675719710269,0.0,0.0,-0.1188911798286459,-0.2121499894925738,-0.26145132470573673,0.7923039850643152,0.18600537073980083,-0.05149174381558945
8480,3.0,299.53024,2128.4404,0.0,0.0,0.0,0.08599689834077495,0.0,0.0,-0.16597864463331682,-0.21015258983544582,-0.27086148984194774,0.7830817170266482,0.17353408585898084,-0.04772117978821375
8481,3.0,298.61722000000003,2092.9339999999997,0.0,0.0,0.0,0.08600703948444723,0.0,0.0,-0.13269586131106187,-0.2395618092179098,-0.26394199477654673,0.8236904708244203,0.1979877219173668,-0.06561277717797694
8482,3.0,299.72814,1934.0422,0.0,0.0,0.0,0.08601718062811947,0.0,0.0,-0.12464300547880687,-0.2128242365066168,-0.2504332937808417,0.8241516110774312,0.21915726241413777,-0.053421784632569656
8483,3.0,300.71136,1947.2764,0.0,0.0,0.0,0.08602732177179175,0.0,0.0,-0.12026991937221689,-0.24858734461616078,-0.22306613811991377,0.8249982828609912,0.21109780019123078,-0.09235542931202122
8484,3.0,299.28218,1987.1912,0.0,0.0,0.0,0.08603746291546399,0.0,0.0,-0.13466160703506586,-0.2280083364101708,-0.24138655105799775,0.7726800765350863,0.2032755904792388,-0.04516191471213395
8485,3.0,299.15821,2214.4889,0.0,0.0,0.0,0.08604760405913627,0.0,0.0,-0.14638434327200986,-0.26344570487756674,-0.2633192816625898,0.7872947197499394,0.20735130794648082,-0.08550999269642923
8486,3.0,300.04185,2118.3697,0.0,0.0,0.0,0.08605774520280852,0.0,0.0,-0.15429788734801586,-0.24786976089534074,-0.24176383473273275,0.7955906137511802,0.22394982392962678,-0.04500573335497005
8487,3.0,300.1291,1984.2687,0.0,0.0,0.0,0.08606788634648078,0.0,0.0,-0.11239064341459289,-0.24722273991148475,-0.24355474415198175,0.8016202928437632,0.17415502578526285,-0.088224143182795
8488,3.0,301.00997,2117.7538,0.0,0.0,0.0,0.08607802749015304,0.0,0.0,-0.14621961920325285,-0.2264735867487028,-0.2710510588031568,0.8158286835635222,0.16811047218121183,-0.04413907116018716
8489,3.0,300.96336,2098.5483,0.0,0.0,0.0,0.0860881686338253,0.0,0.0,-0.13955739847074286,-0.24368933416276475,-0.25465953968293975,0.8139060313662713,0.16271514844623483,-0.06540747041621474
8490,3.0,301.05072,2057.0953,0.0,0.0,0.0,0.08609830977749756,0.0,0.0,-0.12465410056740188,-0.22798235667760677,-0.2726691482853497,0.8422844207595002,0.21255496529254178,-0.03681753973335826
8491,3.0,301.6243,1952.7376,0.0,0.0,0.0,0.08610845092116984,0.0,0.0,-0.13152474684548188,-0.21304140640054978,-0.24901730716359477,0.8178805352810242,0.2173059936864318,-0.038055405089026065
8492,3.0,301.77979,1956.4689,0.0,0.0,0.0,0.08611859206484208,0.0,0.0,-0.13191712794670687,-0.20869198981629583,-0.25410856467606274,0.8042686043651313,0.22601576995601982,-0.046034956329546455
8493,3.0,301.08214,2131.3005,0.0,0.0,0.0,0.08612873320851436,0.0,0.0,-0.16611500783177485,-0.21599898211743981,-0.26574815360980075,0.7920463662263902,0.21700543330926877,-0.06295942473736144
8494,3.0,300.52355,2373.1303,0.0,0.0,0.0,0.0861388743521866,0.0,0.0,-0.1912773312751028,-0.23956128232785778,-0.2905337202684457,0.8020090465096302,0.21218565589609378,-0.04240261785431256
8495,3.0,299.36136,2214.2285,0.0,0.0,0.0,0.08614901549585888,0.0,0.0,-0.18093237199413484,-0.20916687987316382,-0.2829709228470557,0.7998243374390163,0.18205171951210583,-0.043665376738437164
8496,3.0,299.90603,2198.5796,0.0,0.0,0.0,0.08615915663953114,0.0,0.0,-0.15551750609588283,-0.23757310324663974,-0.2752226803923637,0.7870151133848442,0.16725993991477084,-0.04164757427729556
8497,3.0,300.05631,2145.5062,0.0,0.0,0.0,0.0861692977832034,0.0,0.0,-0.17675174261153884,-0.21326974231058482,-0.2621588367205628,0.8008932048370052,0.2127963214663618,-0.03238016594767357
8498,3.0,299.33797000000004,2226.3811,0.0,0.0,0.0,0.08617943892687566,0.0,0.0,-0.17064909937925485,-0.25858400930775477,-0.24753115297692277,0.8089969562217832,0.20883623610053179,-0.06385639020288503
8499,3.0,300.40991,2187.6247,0.0,0.0,0.0,0.08618958007054792,0.0,0.0,-0.13549664670747788,-0.2665999929688707,-0.26288665426739277,0.8269605632696532,0.19922777791975083,-0.06925235431192524
8500,3.0,300.3375,2028.2401,0.0,0.0,0.0,0.08619972121422018,0.0,0.0,-0.13857501196878885,-0.23755710402756078,-0.24040223938085375,0.8059027741264112,0.18188706637085583,-0.08509643568136432
8501,3.0,300.49884,1963.3827,0.0,0.0,0.0,0.08620986235789245,0.0,0.0,-0.10410847895220691,-0.24596726224257878,-0.24674358407169578,0.8038544890492613,0.16587816062089983,-0.08879951421232972
8502,3.0,301.06772,1961.6677,0.0,0.0,0.0,0.0862200035015647,0.0,0.0,-0.12038627088119988,-0.23336055648589377,-0.2425511705904368,0.8079960475080012,0.2020772094534678,-0.07803288482274613
8503,3.0,300.90906,1979.3809,0.0,0.0,0.0,0.08623014464523697,0.0,0.0,-0.13901921068012787,-0.22570353693770479,-0.23695962084109376,0.7951566083358472,0.2022007753031628,-0.052703870592217046
8504,3.0,299.48151,2035.2689,0.0,0.0,0.0,0.08624028578890922,0.0,0.0,-0.13046130033552786,-0.23410449484181478,-0.25410511962572274,0.8019502577388282,0.20875212620973083,-0.07161996819784053
8505,3.0,300.06264,2221.027,0.0,0.0,0.0,0.08625042693258149,0.0,0.0,-0.15617964477123086,-0.24824603131997577,-0.2707110627321017,0.8036796426120052,0.2207970658459738,-0.06094289795809574
8506,3.0,299.4327,2174.6804,0.0,0.0,0.0,0.08626056807625376,0.0,0.0,-0.15339073466598685,-0.24283162808561576,-0.26482619734381074,0.8080612197544332,0.2333192057493128,-0.06039112349688985
8507,3.0,299.1065,2269.6026,0.0,0.0,0.0,0.08627070921992601,0.0,0.0,-0.14655623101897386,-0.2349101705263288,-0.30843613714277673,0.8060986151057393,0.19434605039546182,-0.03207436200124307
8508,3.0,299.53127,2286.5394,0.0,0.0,0.0,0.08628085036359828,0.0,0.0,-0.17857655537913383,-0.23560149080455678,-0.28087283652749073,0.8101274494908542,0.17558475207386584,-0.04744897825484955
8509,3.0,299.29059,2216.2670000000003,0.0,0.0,0.0,0.08629099150727053,0.0,0.0,-0.17603888063618484,-0.2209551835240788,-0.2766957535202447,0.8126151102088672,0.18225534225220183,0.0026034504811405573
8510,3.0,300.38982999999996,2245.8311,0.0,0.0,0.0,0.0863011326509428,0.0,0.0,-0.17608906691363785,-0.22914235578958977,-0.2774451431617037,0.8165609492782913,0.2010157185162068,-0.046179305965292655
8511,3.0,300.01968,2179.9534,0.0,0.0,0.0,0.08631127379461506,0.0,0.0,-0.15675728852073983,-0.2250116695044228,-0.28088243200593777,0.8077896788601342,0.19751273053548882,-0.01978244062662488
8512,3.0,300.03339,2014.9853,0.0,0.0,0.0,0.08632141493828732,0.0,0.0,-0.13784284757902984,-0.20790325567345383,-0.26675911376457473,0.7976391116108513,0.16604858928771987,-0.07359473184773453
8513,3.0,299.76982000000004,2127.8897,0.0,0.0,0.0,0.08633155608195958,0.0,0.0,-0.13375097890519386,-0.22757284151719076,-0.28550151497180576,0.8180330294210743,0.19423816965731483,-0.03778955866028907
8514,3.0,299.49866000000003,2076.2992,0.0,0.0,0.0,0.08634169722563183,0.0,0.0,-0.17823047980747883,-0.2199628570386438,-0.23294976463035175,0.8124930642343222,0.2066303602353288,-0.07003112719303413
8515,3.0,298.5965,1900.0087,0.0,0.0,0.0,0.0863518383693041,0.0,0.0,-0.12483456041021188,-0.2053940633908158,-0.24732656764923178,0.8084243888552752,0.2058186658452208,-0.046267863010782555
8516,3.0,298.73455,2017.9194,0.0,0.0,0.0,0.08636197951297638,0.0,0.0,-0.13137430960313487,-0.2431562936826578,-0.23886648660178678,0.7802335317905543,0.1951829341830558,-0.09001280217357192
8517,3.0,298.83919,2282.1916,0.0,0.0,0.0,0.08637212065664862,0.0,0.0,-0.15457397773526385,-0.25397510950539176,-0.28518018296759273,0.7930511759530573,0.23708431139839978,-0.08068543274278223
8518,3.0,299.3958,2104.556,0.0,0.0,0.0,0.0863822618003209,0.0,0.0,-0.11762680582386188,-0.25397465354284676,-0.26813101386997074,0.8067156945491403,0.2518911377597198,-0.07695721243708553
8519,3.0,300.82011,1856.3038,0.0,0.0,0.0,0.08639240294399314,0.0,0.0,-0.09524875484007021,-0.22765398258519876,-0.24136725877609375,0.7809715426333903,0.1933282913325168,-0.06530667330951684
8520,3.0,300.69118,1918.5668,0.0,0.0,0.0,0.08640254408766541,0.0,0.0,-0.12303537273764588,-0.21861443393806482,-0.24154660404379374,0.7963780610663953,0.15753911229789985,-0.05768529584684544
8521,3.0,300.26035,2083.9427,0.0,0.0,0.0,0.08641268523133767,0.0,0.0,-0.15716120040810286,-0.22931717182934278,-0.2469881725133348,0.8029904704239893,0.16834196943155882,-0.04594734869940025
8522,3.0,299.54132000000004,2131.7405,0.0,0.0,0.0,0.08642282637500993,0.0,0.0,-0.14679421306996088,-0.23740456935750678,-0.26379711014474777,0.8592470684310831,0.20898525479273883,-0.05739299751099785
8523,3.0,299.54395,2148.077,0.0,0.0,0.0,0.0864329675186822,0.0,0.0,-0.15670276553285886,-0.21778215030592482,-0.27847685467852573,0.8190630184127262,0.1881595708499038,-0.05923362001990314
8524,3.0,299.85542999999996,2093.3182,0.0,0.0,0.0,0.08644310866235445,0.0,0.0,-0.13447201780885487,-0.23034142582542877,-0.2715030190102617,0.8238942556845322,0.1973731755992158,-0.07275110386747492
8525,3.0,298.89387999999997,2135.5820000000003,0.0,0.0,0.0,0.08645324980602671,0.0,0.0,-0.16766620254236583,-0.22738650482380077,-0.25411090528379376,0.8072370725205962,0.2196815585458818,-0.04672339289798986
8526,3.0,299.11961,2357.605,0.0,0.0,0.0,0.08646339094969899,0.0,0.0,-0.2077623936445518,-0.24643056071830277,-0.26246009624029476,0.8419142703654691,0.23283233907626277,-0.04294682536377166
8527,3.0,298.81028,2062.7224,0.0,0.0,0.0,0.08647353209337123,0.0,0.0,-0.18666080169948682,-0.19631268777955382,-0.24404261394263077,0.7858883792736442,0.18611995919360982,-0.02618250113426168
8528,3.0,300.51134,1954.8954,0.0,0.0,0.0,0.0864836732370435,0.0,0.0,-0.13172338439508585,-0.19024284345300682,-0.2722731701462697,0.7789932528731482,0.16164150864027485,-0.03252976320568767
8529,3.0,301.7399,2184.2917,0.0,0.0,0.0,0.08649381438071575,0.0,0.0,-0.14796517554802585,-0.2255292072579998,-0.2904757522302247,0.7910579103563372,0.21276754516352178,-0.04974928294987195
8530,3.0,300.19126,2282.1989,0.0,0.0,0.0,0.08650395552438803,0.0,0.0,-0.12314516851848187,-0.26383376953336574,-0.3067525410416187,0.7943817253218722,0.22295964553440378,-0.048633149461218154
8531,3.0,300.27996,2160.2462,0.0,0.0,0.0,0.08651409666806029,0.0,0.0,-0.15445267143329183,-0.23792059736843477,-0.26428763465065874,0.7979293773669982,0.2058850134617688,-0.06869009271218433
8532,3.0,299.82785,2093.3733,0.0,0.0,0.0,0.08652423781173255,0.0,0.0,-0.14331223989631686,-0.24943664071747976,-0.24358435131990377,0.7796634468867912,0.17352801649088181,-0.05612950402055074
8533,3.0,300.11031,1921.9733,0.0,0.0,0.0,0.0865343789554048,0.0,0.0,-0.15308546267585885,-0.22022117501913777,-0.2109252538317018,0.8312479486827852,0.19867876861806782,-0.0955533013431266
8534,3.0,299.1551,1883.1753,0.0,0.0,0.0,0.08654452009907707,0.0,0.0,-0.1016628073183379,-0.24410600286888676,-0.2266694479930328,0.8325458207358752,0.1973352597804738,-0.07693353784849903
8535,3.0,299.49487999999997,1913.5859,0.0,0.0,0.0,0.08655466124274933,0.0,0.0,-0.10036897002714609,-0.23273201718386177,-0.24858133604306776,0.8196357073692462,0.16998984846669185,-0.10758360255517489
8536,3.0,298.92836,1897.5665,0.0,0.0,0.0,0.0865648023864216,0.0,0.0,-0.07678320395766222,-0.23295958302382075,-0.26707005995526273,0.8093747667865703,0.16611102575888184,-0.08400847966474143
8537,3.0,300.18079,1963.2613,0.0,0.0,0.0,0.08657494353009385,0.0,0.0,-0.14557761380739187,-0.2049933432412678,-0.24621147578168076,0.8248370342400773,0.23394638729621076,-0.05081041620984765
8538,3.0,300.28104,1990.2278,0.0,0.0,0.0,0.08658508467376612,0.0,0.0,-0.15980611754163584,-0.21380668380357679,-0.23136675386662078,0.8257061697783542,0.23509798656486477,-0.038255976933070965
8539,3.0,300.76101,2338.0379,0.0,0.0,0.0,0.08659522581743836,0.0,0.0,-0.18612723432932782,-0.24337361556410578,-0.2812043010327037,0.8062253422957463,0.18359905373981583,-0.004795755077154176
8540,3.0,300.57126,2494.2823,0.0,0.0,0.0,0.08660536696111064,0.0,0.0,-0.1952500012071748,-0.2460401655872738,-0.3169093701765197,0.7768650223631083,0.16451881468424284,-0.03209927478145177
8541,3.0,301.02678,2456.411,0.0,0.0,0.0,0.0866155081047829,0.0,0.0,-0.15936725865832385,-0.2599168891517997,-0.3274034798722077,0.8042296043687822,0.1856172351564948,-0.017247569546702583
8542,3.0,301.61142,2310.1556,0.0,0.0,0.0,0.08662564924845516,0.0,0.0,-0.14951843728882086,-0.2658590943632497,-0.2868520760300957,0.8034027213596753,0.21287452410907978,-0.08162270023103332
8543,3.0,300.20352,2103.4718,0.0,0.0,0.0,0.08663579039212742,0.0,0.0,-0.16211105886911584,-0.2362936926103718,-0.24099814189716476,0.7839327559181393,0.20447477197258881,-0.017862641741655482
8544,3.0,299.95214,2027.0874,0.0,0.0,0.0,0.08664593153579968,0.0,0.0,-0.1767829101846148,-0.2144883883383558,-0.2249126648371518,0.7982276680639372,0.17016356006383582,-0.055597045146001146
8545,3.0,299.99185,2105.1493,0.0,0.0,0.0,0.08665607267947194,0.0,0.0,-0.16803798426905783,-0.2216707914072038,-0.25020403581321576,0.8411164473692302,0.23357559855461676,-0.04282440043368926
8546,3.0,299.68467000000004,1895.2538,0.0,0.0,0.0,0.08666621382314421,0.0,0.0,-0.1148231225321599,-0.2066037522877028,-0.25468297615775276,0.8332502322053952,0.2216903572666348,-0.07562432955329022
8547,3.0,299.98791,1755.1494,0.0,0.0,0.0,0.08667635496681646,0.0,0.0,-0.055667521756706646,-0.22036119605045681,-0.25749286054006676,0.8329014309909712,0.16682672483451585,-0.09446671929363931
8548,3.0,300.06425,2110.5534,0.0,0.0,0.0,0.08668649611048873,0.0,0.0,-0.1183195851822339,-0.24564865588113477,-0.27758730215073374,0.7779598796261622,0.15107526566996785,-0.08234327506614852
8549,3.0,299.4963,2414.2307,0.0,0.0,0.0,0.08669663725416098,0.0,0.0,-0.18160691285070682,-0.27290473906610074,-0.2793541874101117,0.8036852560175591,0.22349626278736376,-0.06694586473829243
8550,3.0,299.98625,2337.9749,0.0,0.0,0.0,0.08670677839783324,0.0,0.0,-0.1932874877509898,-0.26253801517298475,-0.2548604975752728,0.8088898759512153,0.2308073283539098,-0.04883737103212325
8551,3.0,300.86446,2024.1637,0.0,0.0,0.0,0.08671691954150552,0.0,0.0,-0.11789007859734489,-0.24564247505552475,-0.25176267791204177,0.7607327838109803,0.2104674066415158,-0.06313035090998054
8552,3.0,299.47601000000003,1818.2545,0.0,0.0,0.0,0.08672706068517777,0.0,0.0,-0.09179239865545441,-0.2331629119213878,-0.22774866067454277,0.7782040627677613,0.18232259166133882,-0.06870902833005313
8553,3.0,299.65826,2128.1858,0.0,0.0,0.0,0.08673720182885004,0.0,0.0,-0.11173784690516689,-0.24694072201115178,-0.2882367937492567,0.8151167639107613,0.19649503226754983,-0.06892951459156343
8554,3.0,299.04834,2245.7957,0.0,0.0,0.0,0.08674734297252229,0.0,0.0,-0.14911229625123787,-0.25410338696805174,-0.27945012192957974,0.8685648555556772,0.2243463086937568,-0.08545922481341883
8555,3.0,299.56012000000004,1903.0699,0.0,0.0,0.0,0.08675748411619456,0.0,0.0,-0.14003820590819488,-0.2091797886794378,-0.2292677252244628,0.8231658099226402,0.16656082774327383,-0.05143715496645195
8556,3.0,299.49093999999997,1704.3047,0.0,0.0,0.0,0.08676762525986682,0.0,0.0,-0.12541974274046488,-0.17001859437202885,-0.22262773519914678,0.8226794093446362,0.18867889192365683,-0.03806785185325446
8557,3.0,300.27777000000003,2038.7818,0.0,0.0,0.0,0.08677776640353907,0.0,0.0,-0.15365869878743285,-0.20981540046716782,-0.25626465956385275,0.7989704513147443,0.21264653270407882,-0.041337542038197755
8558,3.0,301.19505,2369.2751,0.0,0.0,0.0,0.08678790754721134,0.0,0.0,-0.17436242794823184,-0.23179107261099777,-0.3140469791740237,0.8198036130433172,0.2252856421989618,-0.04728847234625886
8559,3.0,300.67283,2400.0338,0.0,0.0,0.0,0.08679804869088359,0.0,0.0,-0.1966449527523458,-0.23894298698433677,-0.2939624167518317,0.7822475994118272,0.17277987314704585,-0.06382862816339514
8560,3.0,300.02214,2157.2902,0.0,0.0,0.0,0.08680818983455586,0.0,0.0,-0.13959546627699987,-0.24087468750498076,-0.2752921792167228,0.7940751158416122,0.16549814117089484,-0.04561994834033836
8561,3.0,299.6288,1968.9567,0.0,0.0,0.0,0.08681833097822811,0.0,0.0,-0.19874906791000582,-0.19126224398111383,-0.2085023600600808,0.8113692280184083,0.2215566183859358,-0.03730483501120057
8562,3.0,301.08539,2320.5672,0.0,0.0,0.0,0.08682847212190038,0.0,0.0,-0.17546737718228184,-0.24331675196849378,-0.2866103449537387,0.8195777798610292,0.24721375238309776,-0.016953285240658984
8563,3.0,300.47375,2140.3274,0.0,0.0,0.0,0.08683861326557263,0.0,0.0,-0.14099576778269887,-0.23107805864812878,-0.2785322591939937,0.8154062595968322,0.2214384126292698,-0.045117843399034456
8564,3.0,300.04141,1766.2064,0.0,0.0,0.0,0.0868487544092449,0.0,0.0,-0.03847335555652456,-0.23473719860175776,-0.26367209534740976,0.7915322228606483,0.18609689762133383,-0.06692573044555533
8565,3.0,298.77853999999996,1739.3438,0.0,0.0,0.0,0.08685889555291718,0.0,0.0,-0.08551992153415912,-0.2192272374660438,-0.2239699470766128,0.8272163582573981,0.21296258567527077,-0.1026116552419819
8566,3.0,299.64556,2219.8785,0.0,0.0,0.0,0.08686903669658942,0.0,0.0,-0.16808119938582283,-0.24773691367472975,-0.25896954083830376,0.7791563050792403,0.2020314916089558,-0.08840285212943222
8567,3.0,298.95831,2196.6838,0.0,0.0,0.0,0.0868791778402617,0.0,0.0,-0.17388745683135584,-0.24311306843339175,-0.25073650887326676,0.8054821942749032,0.16804784319253083,-0.09325972158901791
8568,3.0,300.06916,1981.4739,0.0,0.0,0.0,0.08688931898393394,0.0,0.0,-0.1285817315325289,-0.2187081899698178,-0.25502866669436974,0.7845473326337933,0.17601680191650582,-0.05470026307874565
8569,3.0,299.56843,2037.2389,0.0,0.0,0.0,0.08689946012760622,0.0,0.0,-0.12600379023060587,-0.2209052201616478,-0.27236072508741077,0.8301148716259592,0.23689525919474178,-0.04609167908339455
8570,3.0,299.29697999999996,2308.9712,0.0,0.0,0.0,0.08690960127127846,0.0,0.0,-0.13472943399675988,-0.2627166815631177,-0.30442348436175876,0.8178750130679793,0.2283248048139038,-0.05330574824436775
8571,3.0,299.80176,2468.1985,0.0,0.0,0.0,0.08691974241495073,0.0,0.0,-0.1954785600322318,-0.24416718290992476,-0.3106249802737987,0.8131702192761523,0.18790995668776883,-0.03960673658838056
8572,3.0,299.8751,2352.5727,0.0,0.0,0.0,0.08692988355862298,0.0,0.0,-0.18417224932138582,-0.24186274820749476,-0.28908836966330076,0.7928599655266863,0.16529247166559685,-0.01921066258194478
8573,3.0,299.98318,2111.6872,0.0,0.0,0.0,0.08694002470229525,0.0,0.0,-0.1801304858649948,-0.23606411040271377,-0.2257055938354078,0.8139862909066922,0.19054402191273084,-0.021539015052985278
8574,3.0,300.67427999999995,2091.9412,0.0,0.0,0.0,0.08695016584596751,0.0,0.0,-0.14980539984964183,-0.1941168633553428,-0.29197563595575177,0.8004967504703783,0.21553887537953081,-0.024502877986745775
8575,3.0,299.62297,2248.1949,0.0,0.0,0.0,0.08696030698963976,0.0,0.0,-0.17445963916282584,-0.23675904798379876,-0.2721764047617197,0.7912029064456473,0.18430916980739884,-0.037808944161202264
8576,3.0,299.87453,2247.3041,0.0,0.0,0.0,0.08697044813331203,0.0,0.0,-0.1267515282744019,-0.24653009227562578,-0.30984271066659475,0.7982973290083122,0.1871064797559718,-0.06359266349335724
8577,3.0,300.35781000000003,2007.0576,0.0,0.0,0.0,0.08698058927698428,0.0,0.0,-0.15400024513114086,-0.21775581593582582,-0.23833933310476077,0.8458530774791992,0.21676038890508478,-0.06388809885151443
8578,3.0,300.62971,1955.2245,0.0,0.0,0.0,0.08699073042065655,0.0,0.0,-0.15048388224910286,-0.23496205906394976,-0.2088934847311818,0.8610808585945642,0.21535593307397577,-0.094530885382722
8579,3.0,299.48388,2071.4296,0.0,0.0,0.0,0.0870008715643288,0.0,0.0,-0.16594650434014485,-0.2020258072758948,-0.26169056318684775,0.8193053777041452,0.17647003881873685,-0.06145928972580964
8580,3.0,298.53782,2055.8593,0.0,0.0,0.0,0.08701101270800107,0.0,0.0,-0.1238108535691799,-0.23871219900905977,-0.26240683981503876,0.7912832571785772,0.18046361210037182,-0.061360349906545035
8581,3.0,298.34265,2094.1533,0.0,0.0,0.0,0.08702115385167335,0.0,0.0,-0.0918609673162216,-0.2547370735805918,-0.2899722581230337,0.8023741509181632,0.2011799156949118,-0.04745604060804655
8582,3.0,300.10551,2180.8962,0.0,0.0,0.0,0.08703129499534559,0.0,0.0,-0.12319517241091688,-0.25598819427406777,-0.28375461100439975,0.8008292788881962,0.21685528990945077,-0.05700184750864434
8583,3.0,299.17547,1918.1018,0.0,0.0,0.0,0.08704143613901787,0.0,0.0,-0.1255654278398429,-0.2391292628827208,-0.2183603614754898,0.7849693006379382,0.19948022918216582,-0.08046096542162902
8584,3.0,300.18093999999996,1881.6252,0.0,0.0,0.0,0.08705157728269011,0.0,0.0,-0.15271459287425684,-0.21126956634818278,-0.2079829072638148,0.7816988738201723,0.1931581970382298,-0.06314099206253074
8585,3.0,300.2104,2235.2716,0.0,0.0,0.0,0.08706171842636239,0.0,0.0,-0.16042811124802187,-0.2565317016277077,-0.2625069387924177,0.8309815145689903,0.2126438779888168,-0.07307713025940123
8586,3.0,300.25892000000005,2178.0927,0.0,0.0,0.0,0.08707185957003465,0.0,0.0,-0.15881884717419986,-0.2391685161915948,-0.2640984405919867,0.8563737343275072,0.21547607413833278,-0.05524361439187025
8587,3.0,300.96315,2028.3851,0.0,0.0,0.0,0.0870820007137069,0.0,0.0,-0.10956531710075489,-0.21631634218126078,-0.29069676234203673,0.8293323892362342,0.17083377434248084,-0.045503126683308956
8588,3.0,301.02635,2156.3466,0.0,0.0,0.0,0.08709214185737917,0.0,0.0,-0.1342591947578509,-0.23294204366458976,-0.2882742941354577,0.8104426108019582,0.16819275822183283,-0.05888135754313754
8589,3.0,301.17915,2395.9569,0.0,0.0,0.0,0.08710228300105143,0.0,0.0,-0.2071612627577248,-0.23777358491142578,-0.2833762228870557,0.7945247962359923,0.20607391367791178,-0.05209137002601795
8590,3.0,301.14454,2396.2003,0.0,0.0,0.0,0.08711242414472369,0.0,0.0,-0.20841658843911579,-0.23592540659652478,-0.28404305291036674,0.8280234322270502,0.19969925332378183,-0.05121740837751465
8591,3.0,300.64063,2209.0387,0.0,0.0,0.0,0.08712256528839596,0.0,0.0,-0.1932235314046778,-0.23540231623239977,-0.24286676759908374,0.7923483755511963,0.1888677212122928,-0.03744974092125166
8592,3.0,300.08934,1924.6421,0.0,0.0,0.0,0.0871327064320682,0.0,0.0,-0.1023557487967259,-0.1968740688649578,-0.28581333255757974,0.8029860627860542,0.2089721939989498,-0.03312186198112326
8593,3.0,299.22756,2006.6155,0.0,0.0,0.0,0.08714284757574048,0.0,0.0,-0.10403722720517489,-0.24046402737195177,-0.2654597623663387,0.8190367853676372,0.2100394300642778,-0.03671899508163267
8594,3.0,298.76333999999997,2364.0288,0.0,0.0,0.0,0.08715298871941272,0.0,0.0,-0.13668670894992788,-0.27679041134458676,-0.3051286051063487,0.8319869829082222,0.23318877006393976,-0.06530542194564334
8595,3.0,299.10989,2188.5588,0.0,0.0,0.0,0.087163129863085,0.0,0.0,-0.17422607488227482,-0.23106509917934978,-0.25997603256013674,0.8209872614126342,0.2004583093711948,-0.05576568846614495
8596,3.0,299.40634,1644.9523,0.0,0.0,0.0,0.08717327100675726,0.0,0.0,-0.1074974458991719,-0.19427561938101082,-0.19825135946088582,0.8282664501310343,0.1923400178474818,-0.08615049341589172
8597,3.0,300.42197999999996,1803.6143,0.0,0.0,0.0,0.08718341215042952,0.0,0.0,-0.12655009415452187,-0.21451759020623778,-0.2071860265901688,0.7831057107890163,0.2157830889186328,-0.09087820185873022
8598,3.0,301.62854,2219.1539,0.0,0.0,0.0,0.08719355329410178,0.0,0.0,-0.14537466994486287,-0.24270137478526077,-0.2864913285969927,0.7950526894055913,0.18120516931855782,-0.07593088026504442
8599,3.0,299.95525,2134.79,0.0,0.0,0.0,0.08720369443777404,0.0,0.0,-0.12709590158588888,-0.22856618125272576,-0.2932607714550847,0.8153889938151282,0.16892823593941883,-0.09241594972724411
8600,3.0,300.21727999999996,1949.9875,0.0,0.0,0.0,0.0872138355814463,0.0,0.0,-0.1146786026703969,-0.2140888536914248,-0.26398006258280377,0.8220774678577293,0.18496600918472383,-0.057854322175527044
8601,3.0,299.83936,1923.6989999999998,0.0,0.0,0.0,0.08722397672511857,0.0,0.0,-0.12246221768607987,-0.23493802477157777,-0.22735622891081278,0.8656848036039381,0.21064817045935577,-0.08137461607654933
8602,3.0,300.0126,2430.2211,0.0,0.0,0.0,0.08723411786879082,0.0,0.0,-0.1970764047774268,-0.26961574950650274,-0.27203437749520276,0.8103187713747362,0.22478080046913776,-0.015733597591785185
8603,3.0,299.74494,2565.2744,0.0,0.0,0.0,0.08724425901246309,0.0,0.0,-0.2186674775807998,-0.24229330857248776,-0.31881858667744467,0.8074212813887762,0.22617584320681777,-0.04383894344081686
8604,3.0,299.71566,2199.6654,0.0,0.0,0.0,0.08725440015613534,0.0,0.0,-0.14483345253644886,-0.2238190944017248,-0.2999908090167877,0.7997709594237482,0.2088479492716878,-0.0018233869220542784
8605,3.0,300.04157999999995,1847.1968,0.0,0.0,0.0,0.08726454129980761,0.0,0.0,-0.0975823144033746,-0.1985505012879088,-0.26536887383236873,0.7905751473461923,0.21975068246770377,-0.04462133767778316
8606,3.0,300.36863999999997,1920.7888,0.0,0.0,0.0,0.08727468244347987,0.0,0.0,-0.11964866533840389,-0.19167184020153782,-0.27255132756372175,0.7892649845693893,0.17930361298838882,-0.04054237375722076
8607,3.0,299.64712000000003,2316.4739,0.0,0.0,0.0,0.08728482358715213,0.0,0.0,-0.2063604000111858,-0.2281605367076918,-0.26962930679284075,0.7795443089400332,0.16934174330522883,-0.06760078096692763
8608,3.0,300.6317,2443.1041,0.0,0.0,0.0,0.08729496473082439,0.0,0.0,-0.22753334502829278,-0.22966016712069376,-0.28544911980913473,0.8119748273381762,0.19923971400592883,-0.05069086789679915
8609,3.0,300.20171,2064.7162,0.0,0.0,0.0,0.08730510587449665,0.0,0.0,-0.15052842472349884,-0.23838089662386278,-0.23871283735662277,0.8292197563551182,0.23452643244845675,-0.07099407753156993
8610,3.0,300.49284,2001.6381,0.0,0.0,0.0,0.08731524701816891,0.0,0.0,-0.099393411817616,-0.25188685171179676,-0.2571677288479788,0.8328211005230433,0.20867809815742477,-0.08134199854258022
8611,3.0,300.20907,2310.8132,0.0,0.0,0.0,0.08732538816184118,0.0,0.0,-0.13702110174792986,-0.26165557566089476,-0.3037528242530697,0.7999057216870482,0.16881423517066785,-0.04465898397199855
8612,3.0,299.68735,2288.7792,0.0,0.0,0.0,0.08733552930551343,0.0,0.0,-0.14208691655038688,-0.27035438856440075,-0.28329042086858774,0.8180279631705742,0.18712654210795182,-0.06686246209606124
8613,3.0,299.3683,1961.8955,0.0,0.0,0.0,0.0873456704491857,0.0,0.0,-0.11954101764777988,-0.2382763596110458,-0.23854987634303979,0.8043875599268713,0.21989198019414882,-0.06457822146812423
8614,3.0,300.52877,1770.6157,0.0,0.0,0.0,0.08735581159285795,0.0,0.0,-0.1032745234574019,-0.2106548275125128,-0.22429360955605576,0.8119410962423472,0.19798399315699883,-0.08910674886790142
8615,3.0,299.42828,1847.6498,0.0,0.0,0.0,0.08736595273653022,0.0,0.0,-0.1081394512950329,-0.21602926816292878,-0.23747067379403078,0.7831288230237973,0.1996693928433348,-0.07481680874034413
8616,3.0,299.06627000000003,2217.3055,0.0,0.0,0.0,0.0873760938802025,0.0,0.0,-0.14832567980110486,-0.24319149399113174,-0.28248832195692675,0.7892722901026102,0.2153844256667878,-0.07623232318304453
8617,3.0,299.22923,2299.3256,0.0,0.0,0.0,0.08738623502387474,0.0,0.0,-0.15846779654455387,-0.2522207885472537,-0.2882489932804607,0.8101186950099902,0.23675476193587575,-0.06358090371269665
8618,3.0,299.31126,2115.4165,0.0,0.0,0.0,0.087396376167547,0.0,0.0,-0.16154189602294386,-0.2327591621540408,-0.24873274600551076,0.8303825723023793,0.2140463985122348,-0.036404536966098064
8619,3.0,300.43754,2093.2796,0.0,0.0,0.0,0.08740651731121926,0.0,0.0,-0.15084882453761989,-0.22300959876433377,-0.26244630590643375,0.8418047177646572,0.16922397324610583,-0.04916627708083375
8620,3.0,300.11035,2345.1328,0.0,0.0,0.0,0.08741665845489152,0.0,0.0,-0.18676731454999881,-0.23406691339560576,-0.2920275751558777,0.8204042879675992,0.19100201095793082,-0.011628934608936489
8621,3.0,299.78345,2624.0578,0.0,0.0,0.0,0.0874267995985638,0.0,0.0,-0.2069030866322448,-0.2637284928479757,-0.32701645886401165,0.8046385419766412,0.1934582913203468,-0.03047968568911077
8622,3.0,300.00597,2225.2784,0.0,0.0,0.0,0.08743694074223604,0.0,0.0,-0.15001169757000185,-0.23671568087951878,-0.2897017000813317,0.7993776359999302,0.17206529877902282,-0.04237069237016176
8623,3.0,300.90376000000003,1874.7162,0.0,0.0,0.0,0.08744708188590831,0.0,0.0,-0.11449331975711088,-0.2163258869972028,-0.23904770638217177,0.7919524379421202,0.17817433561943782,-0.04866686434504555
8624,3.0,302.04202999999995,2040.1855,0.0,0.0,0.0,0.08745722302958056,0.0,0.0,-0.16961000126920384,-0.20978770834193478,-0.24076775922192775,0.8459957937557842,0.2100090730912818,-0.04293381016623716
8625,3.0,301.42006000000003,2347.025,0.0,0.0,0.0,0.08746736417325283,0.0,0.0,-0.16726690094295785,-0.2816074833799947,-0.2645626003302957,0.8250539812189882,0.2304042574641298,-0.049633125984908155
8626,3.0,300.56327999999996,2205.3684,0.0,0.0,0.0,0.08747750531692511,0.0,0.0,-0.14327092968973987,-0.2562354576959707,-0.27087052803283973,0.8024453520026903,0.2198633862763268,-0.08368450814401791
8627,3.0,299.27179,2073.7944,0.0,0.0,0.0,0.08748764646059735,0.0,0.0,-0.1158986571158069,-0.23629193968769877,-0.27819112828282677,0.8176559382638583,0.18034986464414585,-0.06404982066022515
8628,3.0,300.67591,2033.0376,0.0,0.0,0.0,0.08749778760426963,0.0,0.0,-0.0979881514659276,-0.2584162049586938,-0.26158830598675575,0.8334826008508281,0.2090030677294968,-0.08708210595533472
8629,3.0,300.21789,2036.1515,0.0,0.0,0.0,0.08750792874794187,0.0,0.0,-0.13076648113314687,-0.23998623941979777,-0.24818648261159879,0.8212787835989052,0.21288295434991178,-0.06691549054004474
8630,3.0,299.71169,2300.2903,0.0,0.0,0.0,0.08751806989161415,0.0,0.0,-0.16446758475918682,-0.2751888581040257,-0.25957435995549477,0.8075618293101472,0.17380570781328783,-0.08531266325270433
8631,3.0,299.13552000000004,2234.2832,0.0,0.0,0.0,0.08752821103528641,0.0,0.0,-0.16372637204603485,-0.25157247060326976,-0.2638674702316917,0.8094769125291512,0.18012534868698782,-0.053318915429417246
8632,3.0,300.74765,1974.957,0.0,0.0,0.0,0.08753835217895867,0.0,0.0,-0.09475403142574482,-0.25213731700401576,-0.25344626388069874,0.8460264445713092,0.20787122683779283,-0.04598304448717316
8633,3.0,300.53671,1907.5946,0.0,0.0,0.0,0.08754849332263093,0.0,0.0,-0.09170060630239521,-0.2284489279511538,-0.25971158441653774,0.8433172671164342,0.2066000539248378,-0.06226599081942485
8634,3.0,300.77915,2389.3641,0.0,0.0,0.0,0.08755863446630319,0.0,0.0,-0.14637603462118987,-0.2608713099509938,-0.3190596895387397,0.8009442929070473,0.19016541088036482,-0.04107735663776946
8635,3.0,300.32042,2437.6801,0.0,0.0,0.0,0.08756877560997545,0.0,0.0,-0.19453158662127282,-0.26751616357678976,-0.27894613132983975,0.8149537319696712,0.17637751895210585,-0.06898154599744853
8636,3.0,299.67904,2266.0821,0.0,0.0,0.0,0.08757891675364772,0.0,0.0,-0.18508762959422684,-0.22994451549625677,-0.2738002393719797,0.8192370238523992,0.20407159975779882,-0.013810588730498988
8637,3.0,300.09621,2181.798,0.0,0.0,0.0,0.08758905789731997,0.0,0.0,-0.17528185108897185,-0.2336951418014148,-0.2542351398785548,0.8446033044083562,0.2280744712441978,-0.055269353984160545
8638,3.0,300.49361,2154.8181,0.0,0.0,0.0,0.08759919904099224,0.0,0.0,-0.13436503886329687,-0.2262744527065498,-0.2943713948896947,0.7586429048172253,0.18941737899403982,-0.03150757218680526
8639,3.0,299.7483,2296.6657,0.0,0.0,0.0,0.08760934018466449,0.0,0.0,-0.13844474853593286,-0.23130443898547076,-0.3283798578010687,0.7753840762819503,0.16967828419344283,-0.05906830421308774
8640,3.0,299.51415,2465.5203,0.0,0.0,0.0,0.08761948132833676,0.0,0.0,-0.16781898039244383,-0.2579403320492288,-0.32369729471643566,0.8146849876456482,0.1955675740535168,-0.02797845349925837
8641,3.0,300.56841000000003,2325.6774,0.0,0.0,0.0,0.08762962247200902,0.0,0.0,-0.18461498895258083,-0.26196827477425577,-0.26036458357598374,0.8457584804498631,0.22328396662641178,-0.05955029613990665
8642,3.0,299.68768,1988.0341,0.0,0.0,0.0,0.08763976361568128,0.0,0.0,-0.14291131709674887,-0.2260888354207308,-0.23531258280354378,0.8179461330924982,0.17396184965369782,-0.07914519329227243
8643,3.0,301.34746,2162.3215,0.0,0.0,0.0,0.08764990475935354,0.0,0.0,-0.15698520899823384,-0.2605765352319018,-0.23972998846950777,0.8064021848356993,0.18454247064292384,-0.07675884339875802
8644,3.0,300.96963,2269.1988,0.0,0.0,0.0,0.0876600459030258,0.0,0.0,-0.10441380160483989,-0.27170140324734077,-0.3136645684537827,0.8133546409268533,0.2162194349416968,-0.07724049183379303
8645,3.0,300.14591,1917.2356,0.0,0.0,0.0,0.08767018704669806,0.0,0.0,-0.07048152800823523,-0.24138679423802178,-0.2709234196880597,0.8374416527015561,0.21927375577813482,-0.07136852410602493
8646,3.0,300.78542999999996,1811.4954,0.0,0.0,0.0,0.08768032819037033,0.0,0.0,-0.07071981200775203,-0.25518557860485575,-0.22474396882800277,0.7927652165098352,0.1994071535849538,-0.08858954244710711
8647,3.0,300.84172,2123.1311,0.0,0.0,0.0,0.08769046933404258,0.0,0.0,-0.17123114063419784,-0.22011132857579677,-0.25403637060643774,0.8016181346210502,0.16065288051770485,-0.058607035277314035
8648,3.0,299.12235,2309.147,0.0,0.0,0.0,0.08770061047771485,0.0,0.0,-0.18049655286112282,-0.2739918854958937,-0.24743459024239278,0.8227644818230322,0.2135060626314078,-0.07958099317353251
8649,3.0,299.37914,2375.781,0.0,0.0,0.0,0.0877107516213871,0.0,0.0,-0.19948384648502282,-0.24519329115369376,-0.27750097324221373,0.8250176359379012,0.23396131247018376,-0.06057474265351165
8650,3.0,299.65337999999997,2298.2382,0.0,0.0,0.0,0.08772089276505937,0.0,0.0,-0.15135912768548285,-0.23199927524154576,-0.3152486127326157,0.8123769457728622,0.20330163100680881,-0.08717308872156401
8651,3.0,300.24765,2061.9882,0.0,0.0,0.0,0.08773103390873163,0.0,0.0,-0.13302180360322985,-0.2187149787454878,-0.27505613247342675,0.7724382846637233,0.1780960823142148,-0.04839288658425605
8652,3.0,301.20837,2187.9207,0.0,0.0,0.0,0.08774117505240389,0.0,0.0,-0.1865656271175938,-0.20290697009285882,-0.27560066320966775,0.8069600398107553,0.20858531484576778,-0.051415069154022254
8653,3.0,299.7437,2504.6403,0.0,0.0,0.0,0.08775131619607615,0.0,0.0,-0.23637894747378577,-0.24823839141422177,-0.2767307613111997,0.8474746728067382,0.2073106766174708,-0.025249201533402175
8654,3.0,299.16049,2020.5979,0.0,0.0,0.0,0.08776145733974841,0.0,0.0,-0.19092491275782184,-0.2082076967984998,-0.21507867744911283,0.8275783722531262,0.17897653585610881,-0.06728776470628535
8655,3.0,299.34322000000003,1819.4714,0.0,0.0,0.0,0.08777159848342067,0.0,0.0,-0.11536930486606388,-0.1928784082881168,-0.24482615011245978,0.8220398864115203,0.17051839011635483,-0.04419201753091256
8656,3.0,300.13731,2092.2227,0.0,0.0,0.0,0.08778173962709294,0.0,0.0,-0.11021338173221389,-0.2531743075538588,-0.27259575858060675,0.8243573008477312,0.21566582548455981,-0.08042674289950151
8657,3.0,299.46971,2272.952,0.0,0.0,0.0,0.08779188077076519,0.0,0.0,-0.13472721497904086,-0.2513574082695447,-0.3048360291399737,0.8374825170780893,0.23648813530456178,-0.03215455365390737
8658,3.0,299.64803,2238.3238,0.0,0.0,0.0,0.08780202191443746,0.0,0.0,-0.15687607182996285,-0.23680980168130777,-0.28670866061094175,0.8202871461235383,0.1929360926163098,-0.06557890828013434
8659,3.0,300.94417999999996,2265.5474,0.0,0.0,0.0,0.08781216305810971,0.0,0.0,-0.17780390151537884,-0.2583463008342948,-0.25251962639924674,0.7881272262971013,0.17155051706571783,-0.05359601906676524
8660,3.0,300.92652999999996,2090.6071,0.0,0.0,0.0,0.08782230420178198,0.0,0.0,-0.15886836470658686,-0.23454935216571876,-0.2420746390684068,0.8106241649548762,0.1951841196856728,-0.08879421592755682
8661,3.0,301.12994,2080.9482,0.0,0.0,0.0,0.08783244534545424,0.0,0.0,-0.13983305316044786,-0.24117664616728177,-0.2515465820632148,0.8123023503005002,0.2068840273978638,-0.07956567080552034
8662,3.0,299.94321,2246.1943,0.0,0.0,0.0,0.0878425864891265,0.0,0.0,-0.11747680427905789,-0.2744224255958847,-0.29088775998588673,0.8130520540494902,0.2017113653723618,-0.1000784185344709
8663,3.0,299.06122,2104.6598,0.0,0.0,0.0,0.08785272763279876,0.0,0.0,-0.14050213259898087,-0.2164200077989918,-0.28284189557932177,0.7980660344079853,0.17390915051599684,-0.039793898067351965
8664,3.0,299.35022999999995,1736.8211,0.0,0.0,0.0,0.08786286877647102,0.0,0.0,-0.08565574365706373,-0.22935403386798078,-0.2129404562930868,0.8228283976393402,0.22849180869538577,-0.06404478683372834
8665,3.0,299.64425,1716.5235,0.0,0.0,0.0,0.08787300992014328,0.0,0.0,-0.11333325985012188,-0.21261627705609282,-0.1958307455019898,0.8649827327421492,0.22880528801132377,-0.03307632449512907
8666,3.0,299.84604,2279.8601,0.0,0.0,0.0,0.08788315106381556,0.0,0.0,-0.16728216048946384,-0.2523929802692477,-0.27334540153459075,0.8559980718529321,0.21524551921057877,-0.06466990135042235
8667,3.0,300.46222,2648.9639,0.0,0.0,0.0,0.0878932922074878,0.0,0.0,-0.2134616518795248,-0.2711833993987177,-0.32057384995817567,0.8222873524834432,0.17452454796423184,-0.04660112400842286
8668,3.0,299.41393999999997,2295.9027,0.0,0.0,0.0,0.08790343335116008,0.0,0.0,-0.13357336629516486,-0.24017221134315178,-0.32415150433876266,0.8086810653706072,0.18186342724602284,-0.04981708660681366
8669,3.0,299.38347000000005,2130.4941,0.0,0.0,0.0,0.08791357449483232,0.0,0.0,-0.15481580000412984,-0.2161703227093498,-0.2766308751163417,0.8134456105208312,0.2070018582519928,-0.02839682953179887
8670,3.0,299.96372,2233.0327,0.0,0.0,0.0,0.0879237156385046,0.0,0.0,-0.17924809701540984,-0.2040311710788088,-0.2955069240117627,0.7822166142237692,0.1901526033991008,-0.03157573656078257
8671,3.0,299.38495,2242.9202,0.0,0.0,0.0,0.08793385678217684,0.0,0.0,-0.2163846859005058,-0.20841255570371778,-0.2569944732133797,0.8296475201498351,0.18253468517227084,-0.027831716646276573
8672,3.0,299.65618,2232.9286,0.0,0.0,0.0,0.08794399792584912,0.0,0.0,-0.17050939245546684,-0.23247818790131078,-0.27576696794858074,0.8203103900808323,0.2211592419617178,-0.044678384671663254
8673,3.0,299.52918,1951.7627,0.0,0.0,0.0,0.08795413906952136,0.0,0.0,-0.1035075000528949,-0.2173790895486458,-0.27240051541883775,0.8638905605918603,0.23197762208690878,-0.06687589880563734
8674,3.0,299.71927,1749.7675,0.0,0.0,0.0,0.08796428021319364,0.0,0.0,-0.05481461240553105,-0.23365509815746274,-0.24341590862327978,0.8082039258985173,0.21126614156284482,-0.06814517288790493
8675,3.0,300.23325,2304.1062,0.0,0.0,0.0,0.08797442135686588,0.0,0.0,-0.15457946955080584,-0.2845664067195177,-0.26124486486536075,0.7904723328585452,0.1873631866688068,-0.0867502949185875
8676,3.0,300.12494,2740.6123,0.0,0.0,0.0,0.08798456250053815,0.0,0.0,-0.2026166536742068,-0.3058729487623097,-0.3245881036743517,0.8052288817499031,0.20368637220227978,-0.04933350286408766
8677,3.0,300.61818,2190.8862,0.0,0.0,0.0,0.08799470364421043,0.0,0.0,-0.16463555122826384,-0.26750550418573776,-0.2338336226925818,0.8153571980269902,0.2191641626473188,-0.07355662249822344
8678,3.0,301.22393999999997,1825.6376,0.0,0.0,0.0,0.08800484478788267,0.0,0.0,-0.07865136863078573,-0.24984632813041274,-0.22645054544142876,0.8024721524678352,0.1863799186392658,-0.08088500248247822
8679,3.0,300.87662,2080.6420000000003,0.0,0.0,0.0,0.08801498593155495,0.0,0.0,-0.12139951084869888,-0.23196089332775777,-0.2791028101928027,0.8138545987911953,0.15337487730192184,-0.07747315229525482
8680,3.0,300.07583999999997,2364.3664,0.0,0.0,0.0,0.0880251270752272,0.0,0.0,-0.16299718661156987,-0.24535358731951376,-0.3103575734399077,0.8187815983299522,0.1948548235356738,-0.07237493476784992
8681,3.0,299.21488999999997,2210.6171,0.0,0.0,0.0,0.08803526821889945,0.0,0.0,-0.16507665952679784,-0.23166444674600079,-0.27523130315071476,0.8457181429633821,0.2149063742696078,-0.04589611674784405
8682,3.0,299.58499,1845.1979999999999,0.0,0.0,0.0,0.08804540936257171,0.0,0.0,-0.12057466447229288,-0.2125902263960218,-0.22772920627262278,0.8376481226744332,0.2073115074825528,-0.05269734627482315
8683,3.0,299.77431,1896.6269,0.0,0.0,0.0,0.08805555050624397,0.0,0.0,-0.14631789433045186,-0.21012734977545483,-0.22008197472039978,0.8155473242757543,0.1980403197300578,-0.025811642478410772
8684,3.0,299.89723,2424.3967,0.0,0.0,0.0,0.08806569164991623,0.0,0.0,-0.14886105075644185,-0.27043377670973573,-0.3176612422807237,0.8309764584509912,0.2241016999871158,-0.06997508433000313
8685,3.0,299.10943,2665.7148,0.0,0.0,0.0,0.0880758327935885,0.0,0.0,-0.19063030015874582,-0.2869995748471527,-0.3326808714280457,0.8261999265520842,0.22120397695363278,-0.030557040241495075
8686,3.0,300.23639,2289.895,0.0,0.0,0.0,0.08808597393726077,0.0,0.0,-0.15811333126207086,-0.24835417550314876,-0.2896033844241287,0.8047486822625112,0.2012112453880038,-0.06021149958541235
8687,3.0,300.76788,1695.8187,0.0,0.0,0.0,0.08809611508093301,0.0,0.0,-0.1163033897357509,-0.20117288373921782,-0.1980102768645928,0.7920617980254132,0.15688700479854184,-0.035890811059397267
8688,3.0,301.03501,1810.1586,0.0,0.0,0.0,0.08810625622460529,0.0,0.0,-0.15299508076693885,-0.1969959121894828,-0.2002520116508348,0.8232548036789232,0.2056891522174388,-0.044601370571312554
8689,3.0,300.28636,2385.6079999999997,0.0,0.0,0.0,0.08811639736827753,0.0,0.0,-0.2177850785987138,-0.21186679622212481,-0.2955133784148997,0.8410004707627843,0.21973952658410278,-0.032064585151028176
8690,3.0,300.04706,2248.1066,0.0,0.0,0.0,0.0881265385119498,0.0,0.0,-0.12821609010144286,-0.2553435949579507,-0.2998085658538017,0.8363018780615691,0.21447409137944481,-0.06252188206592935
8691,3.0,299.80674,1718.0103,0.0,0.0,0.0,0.08813667965562208,0.0,0.0,-0.04983015651985355,-0.22193829956610475,-0.25046376221134875,0.8117388717873892,0.18979493624630184,-0.1068369486889859
8692,3.0,299.59406,1893.5109,0.0,0.0,0.0,0.08814682079929433,0.0,0.0,-0.10057659307863691,-0.22136657319717978,-0.25363685622450877,0.8342350606400901,0.20865603970274782,-0.06847723318417673
8693,3.0,299.78339,2417.8696,0.0,0.0,0.0,0.0881569619429666,0.0,0.0,-0.17160857629644785,-0.2844012165557147,-0.27896220147642575,0.8130329644176062,0.2237684217642238,-0.09111037899989431
8694,3.0,299.4579,2430.6938,0.0,0.0,0.0,0.08816710308663885,0.0,0.0,-0.2081465066249608,-0.2581789423152777,-0.27254478196807574,0.8178714160301243,0.2084360935035408,-0.07857956668894943
8695,3.0,299.31909,2236.7256,0.0,0.0,0.0,0.08817724423031112,0.0,0.0,-0.15683486294839585,-0.25788265785353676,-0.26519122069233575,0.8038940463331652,0.18562343624710684,-0.08142127624365433
8696,3.0,299.55871,1917.2139,0.0,0.0,0.0,0.08818738537398338,0.0,0.0,-0.07947526559184802,-0.2333326009156348,-0.26997729740718474,0.8265971712537892,0.2172895486373088,-0.06159638955709034
8697,3.0,299.45864,2015.4765,0.0,0.0,0.0,0.08819752651765564,0.0,0.0,-0.09596197145295922,-0.23498312453352876,-0.2817094467375577,0.8115369817049642,0.21570677092110077,-0.03990255596832566
8698,3.0,300.57886,2542.0824,0.0,0.0,0.0,0.0882076676613279,0.0,0.0,-0.1974542356072158,-0.25564652634034774,-0.31962882198740866,0.8040065778892712,0.2009974496169038,-0.044171053386343556
8699,3.0,300.01612,2561.3527,0.0,0.0,0.0,0.08821780880500014,0.0,0.0,-0.23426154860731477,-0.25078907628845476,-0.2935366287948097,0.8024142148271173,0.2072372970452288,-0.025899974582378475
8700,3.0,299.39718,1788.4315,0.0,0.0,0.0,0.08822794994867243,0.0,0.0,-0.14394066774083789,-0.1923913896275518,-0.20730647162955582,0.8322102424352562,0.2225970438536178,-0.05321415347507805
8701,3.0,299.82777000000004,1829.2986,0.0,0.0,0.0,0.08823809109234469,0.0,0.0,-0.14623067376184387,-0.17004247667688582,-0.23978796664022975,0.8289244750109762,0.2382781226662198,-0.03017218353551267
8702,3.0,300.98228,2647.1653,0.0,0.0,0.0,0.08824823223601694,0.0,0.0,-0.17321123397961785,-0.27975728869739475,-0.35170361867294464,0.8177113731768293,0.18915217091286582,-0.059853932744373235
8703,3.0,300.22774,2530.8714,0.0,0.0,0.0,0.08825837337968921,0.0,0.0,-0.17471483633301185,-0.24449497944977577,-0.3501119040908547,0.8181900933190752,0.17171398470435084,-0.05983368496762495
8704,3.0,300.37182,2154.1945,0.0,0.0,0.0,0.08826851452336146,0.0,0.0,-0.1124972474576139,-0.25377798169843674,-0.28854608834228174,0.8388397757195403,0.18304835231046582,-0.06634194133418984
8705,3.0,299.15381,1860.5676,0.0,0.0,0.0,0.08827865566703373,0.0,0.0,-0.13498222976420887,-0.2107522819071308,-0.21983157022318678,0.8381989355612941,0.2117406567171758,-0.054654900885018745
8706,3.0,298.93502,1856.8727,0.0,0.0,0.0,0.08828879681070599,0.0,0.0,-0.14380656409010287,-0.20436827938707883,-0.21626807094649678,0.8012711572568062,0.19118697976368582,-0.06683099460095564
8707,3.0,299.93859,2249.1951,0.0,0.0,0.0,0.08829893795437825,0.0,0.0,-0.16429405554706086,-0.24671676334154877,-0.2726883189772418,0.8015459608164271,0.2020941408626388,-0.0915030671158996
8708,3.0,299.24757999999997,2080.1419,0.0,0.0,0.0,0.08830907909805051,0.0,0.0,-0.09829014153898172,-0.24621134405916775,-0.2878096986996057,0.8041250065609592,0.2052942481234648,-0.05513670029431865
8709,3.0,299.5599,1619.6903,0.0,0.0,0.0,0.08831922024172277,0.0,0.0,-0.05782306746294245,-0.2072820016396408,-0.2272403434968758,0.8233057904239552,0.21448406176042878,-0.08163270708902093
8710,3.0,300.80158,1745.6072,0.0,0.0,0.0,0.08832936138539503,0.0,0.0,-0.07158873172375772,-0.2050959145488908,-0.2539363526890668,0.7940830901198992,0.1967251818952638,-0.07265078400157414
8711,3.0,300.65143,2418.6479999999997,0.0,0.0,0.0,0.0883395025290673,0.0,0.0,-0.1959235085486448,-0.2560558489832448,-0.2832292509600507,0.7925313482542543,0.1841470396588978,-0.10043212489262901
8712,3.0,300.53145,2599.0415,0.0,0.0,0.0,0.08834964367273955,0.0,0.0,-0.23216597514799775,-0.2604574074176448,-0.2974203455006027,0.8400862151975541,0.2006346959486028,-0.057337815910551856
8713,3.0,299.66753,2056.487,0.0,0.0,0.0,0.08835978481641182,0.0,0.0,-0.13713804094197088,-0.24986425252468175,-0.23811840405295678,0.8345155181352693,0.23037425512866877,-0.08075330834048101
8714,3.0,299.35125,1827.485,0.0,0.0,0.0,0.08836992596008407,0.0,0.0,-0.09733460109842722,-0.19051954179031483,-0.2676556577180567,0.8200011157528092,0.1969659909140298,-0.04222987796401446
8715,3.0,300.04964,2303.2929,0.0,0.0,0.0,0.08838006710375634,0.0,0.0,-0.15620190587592783,-0.22588212226782978,-0.3180595002325287,0.7871760377657262,0.2033102638976608,-0.03456861999065717
8716,3.0,299.89678,2411.8764,0.0,0.0,0.0,0.0883902082474286,0.0,0.0,-0.15190633340198784,-0.24038066728622476,-0.3408631902255777,0.8280013839048742,0.19938123464739582,-0.03193510496049947
8717,3.0,299.01124,2226.6718,0.0,0.0,0.0,0.08840034939110086,0.0,0.0,-0.19910505306763882,-0.20979982681313078,-0.26794774732438376,0.8340424620610822,0.20763617307959478,-0.001018260824394519
8718,3.0,301.13568,2274.8928,0.0,0.0,0.0,0.08841049053477312,0.0,0.0,-0.19128978411883182,-0.22520915194891275,-0.27501167105903873,0.8294699683348122,0.1901778535915928,-0.03413342400645667
8719,3.0,299.55391000000003,2006.8895,0.0,0.0,0.0,0.08842063167844538,0.0,0.0,-0.14312617678045386,-0.23213839448027576,-0.23477972470845476,0.8033466379666402,0.17328748104964284,-0.05280252568820355
8720,3.0,300.75618,2312.1292,0.0,0.0,0.0,0.08843077282211764,0.0,0.0,-0.13815964022279487,-0.2640568770728848,-0.30061301550569475,0.8410142610966452,0.19284713939003081,-0.07520961844636143
8721,3.0,300.6687,2622.6949,0.0,0.0,0.0,0.08844091396578992,0.0,0.0,-0.17106767299556483,-0.2979599822388607,-0.32820610567392067,0.8426811284386522,0.2337885837256368,-0.050555413583680854
8722,3.0,300.46263999999996,2034.8526,0.0,0.0,0.0,0.08845105510946216,0.0,0.0,-0.10049976237655431,-0.24852518172252575,-0.26951944008449774,0.8523982880901612,0.1884749854735328,-0.0887232813278061
8723,3.0,299.94506,1701.3578,0.0,0.0,0.0,0.08846119625313444,0.0,0.0,-0.12321861901823089,-0.2044929091493788,-0.18945876012812382,0.8179982850751453,0.1945766154557168,-0.08066658021142162
8724,3.0,300.63956,2223.7754,0.0,0.0,0.0,0.08847133739680668,0.0,0.0,-0.17545033431559984,-0.25178297331154476,-0.24873887616861579,0.8168866382579342,0.20881127975056882,-0.07796951008199152
8725,3.0,298.57071,2377.422,0.0,0.0,0.0,0.08848147854047896,0.0,0.0,-0.16586323544692685,-0.2692543535933357,-0.28755931446739474,0.8301859105904702,0.21701109737732782,-0.08558227694531312
8726,3.0,299.55118,2125.7646,0.0,0.0,0.0,0.08849161968415122,0.0,0.0,-0.11565395721665689,-0.25706174288751876,-0.27346365795376176,0.8114103457074662,0.2037449887205648,-0.08340623318955433
8727,3.0,299.45609,1990.8395,0.0,0.0,0.0,0.08850176082782348,0.0,0.0,-0.0976073903168494,-0.2500398386345108,-0.25751825258757277,0.7801848045932452,0.1874453207219128,-0.07846062531271082
8728,3.0,297.99366000000003,1919.3166,0.0,0.0,0.0,0.08851190197149574,0.0,0.0,-0.1132270915046439,-0.21347308134065282,-0.25672415835170176,0.8244483008392122,0.2053472208386928,-0.04652948216010236
8729,3.0,298.58052000000004,2128.3127,0.0,0.0,0.0,0.088522043115168,0.0,0.0,-0.16752641455856987,-0.24606560829728477,-0.23336188384352477,0.8169204605462722,0.2130552879269198,-0.05256427512594005
8730,3.0,299.40563,2399.125,0.0,0.0,0.0,0.08853218425884025,0.0,0.0,-0.19416381736497682,-0.2639138568212697,-0.27119641966250274,0.8673890294771321,0.17280336028436383,-0.05545198623518495
8731,3.0,299.44462000000004,2316.366,0.0,0.0,0.0,0.08854232540251253,0.0,0.0,-0.17977619283502883,-0.2372692599391528,-0.2870719715667977,0.8238193967671442,0.18538766308133783,-0.05690219942755985
8732,3.0,300.36896,2043.0726,0.0,0.0,0.0,0.08855246654618477,0.0,0.0,-0.13655811737973686,-0.2240899260209538,-0.26039501147648675,0.8458507267389672,0.22874234491511178,-0.06883830181756144
8733,3.0,301.13461,2359.5993,0.0,0.0,0.0,0.08856260768985705,0.0,0.0,-0.16784765537027382,-0.23533377999563576,-0.31407784277206974,0.8216419729647493,0.2411572018978628,-0.033915581314457266
8734,3.0,300.91254,2566.0726,0.0,0.0,0.0,0.0885727488335293,0.0,0.0,-0.2049553564950188,-0.24876551451374476,-0.32630112455841365,0.8242543749025733,0.23734867848199076,-0.02088760466969608
8735,3.0,299.6788,2141.3674,0.0,0.0,0.0,0.08858288997720157,0.0,0.0,-0.16776657509727183,-0.21441565724617778,-0.26873999744507276,0.8036232755089422,0.21236750389154083,-0.02174385673295158
8736,3.0,299.42364,1817.1539,0.0,0.0,0.0,0.08859303112087384,0.0,0.0,-0.10041457236114672,-0.20753025804664182,-0.24442457883282775,0.8229170266255872,0.2069288839797908,-0.05608484198264295
8737,3.0,298.79235,1998.5172,0.0,0.0,0.0,0.08860317226454609,0.0,0.0,-0.09011719530487472,-0.25713383563213377,-0.2602482827295058,0.8026802639058742,0.2096892102997138,-0.07010912313273174
8738,3.0,298.95585,2073.5733,0.0,0.0,0.0,0.08861331340821836,0.0,0.0,-0.1131883144233169,-0.26208082659536375,-0.2550453751885188,0.8224863852005861,0.17434198056121383,-0.09435577550044
8739,3.0,299.61981000000003,1999.5575,0.0,0.0,0.0,0.08862345455189061,0.0,0.0,-0.11037105358027488,-0.24991998128018175,-0.24752451618876775,0.8177850364590992,0.1840138783307558,-0.10123955552631621
8740,3.0,299.98477,2152.2102,0.0,0.0,0.0,0.08863359569556288,0.0,0.0,-0.16774034205218283,-0.24882149658176977,-0.23765633160985378,0.8257506818552472,0.2082835790984888,-0.07560056073244444
8741,3.0,300.03547000000003,2092.5048,0.0,0.0,0.0,0.08864373683923514,0.0,0.0,-0.14528983051398986,-0.22750186334768577,-0.26327751549346773,0.8339952446064222,0.2149390313203308,-0.07333550802165113
8742,3.0,300.86773999999997,2116.5122,0.0,0.0,0.0,0.08865387798290739,0.0,0.0,-0.1109314011505769,-0.26147260295783675,-0.27096285538195175,0.8158782720234162,0.1984227608478018,-0.07966603829417583
8743,3.0,301.03812,2378.1366,0.0,0.0,0.0,0.08866401912657966,0.0,0.0,-0.13648430210995188,-0.27791597008567076,-0.30849386200097373,0.8008546101406963,0.17054877748685385,-0.09325969524451531
8744,3.0,299.59209,2311.4197,0.0,0.0,0.0,0.0886741602702519,0.0,0.0,-0.16536573978032784,-0.2076250881235008,-0.3296230650112637,0.8342623677302852,0.20302437538194582,-0.03336975159158807
8745,3.0,298.82777000000004,1965.7609,0.0,0.0,0.0,0.08868430141392418,0.0,0.0,-0.1188792538749689,-0.2166042166671718,-0.26205875800818573,0.8234620943843812,0.22704420867501882,-0.07910932930498292
8746,3.0,299.15468,1956.4442,0.0,0.0,0.0,0.08869444255759645,0.0,0.0,-0.14790360033944885,-0.1992925955286478,-0.2475139783877278,0.8275537502756962,0.2207875818250378,-0.008378356651354422
8747,3.0,299.47562999999997,2305.5203,0.0,0.0,0.0,0.0887045837012687,0.0,0.0,-0.17565864840365883,-0.23755692164254277,-0.2876050424444077,0.7907943437403252,0.2018561993416558,-0.07595974776039342
8748,3.0,299.79127,2486.6968,0.0,0.0,0.0,0.08871472484494097,0.0,0.0,-0.18718154132337983,-0.27509414961717876,-0.29361804344034476,0.8251275330437472,0.2196477261250428,-0.031507845764332264
8749,3.0,300.51748,2416.6732,0.0,0.0,0.0,0.08872486598861322,0.0,0.0,-0.18005357004990383,-0.2594768143683678,-0.29507791391942273,0.8421668837479002,0.18262645523382784,-0.09486081380078341
8750,3.0,300.70697,2384.7988,0.0,0.0,0.0,0.08873500713228549,0.0,0.0,-0.17510780511929483,-0.25285572145741675,-0.29695577032975273,0.8404218745581812,0.17866272216763782,-0.04113753457445856
8751,3.0,300.23216,2072.1027,0.0,0.0,0.0,0.08874514827595775,0.0,0.0,-0.14143780827132485,-0.23781067999758676,-0.25061899212666877,0.8352469428524553,0.1806320446644948,-0.06551424265875234
8752,3.0,300.73251,2153.4301,0.0,0.0,0.0,0.08875528941963001,0.0,0.0,-0.17001482508165683,-0.2130654204279198,-0.27150874387332674,0.8312375426042582,0.21913065446651178,-0.02245193211483318
8753,3.0,300.20277999999996,2384.8931,0.0,0.0,0.0,0.08876543056330227,0.0,0.0,-0.17040790532545083,-0.26484560108322575,-0.2896944553431167,0.8288307189792232,0.23404073101302178,-0.05256367122888045
8754,3.0,300.65977000000004,2169.9748,0.0,0.0,0.0,0.08877557170697453,0.0,0.0,-0.11369458483578189,-0.23952252551153277,-0.30640102431692673,0.8169822080073662,0.2078562206038118,-0.06294491702242964
8755,3.0,299.84077,1919.2583,0.0,0.0,0.0,0.08878571285064679,0.0,0.0,-0.07700633784168384,-0.2436500504563878,-0.26275021000892673,0.8297530096177462,0.20207219386547282,-0.09708597080213931
8756,3.0,299.93449,2193.2777,0.0,0.0,0.0,0.08879585399431907,0.0,0.0,-0.11663277707825889,-0.2641304491626457,-0.2859384284149257,0.8304198295085562,0.22232258479903078,-0.08413341745507183
8757,3.0,300.44959,2313.7383,0.0,0.0,0.0,0.08880599513799131,0.0,0.0,-0.16217101287753286,-0.25461084288313374,-0.2865368235264827,0.8357522000148201,0.1941404822151738,-0.060496405248530345
8758,3.0,300.34958,2074.0088,0.0,0.0,0.0,0.08881613628166359,0.0,0.0,-0.13753072601822586,-0.2575974583478897,-0.23531870283414777,0.8086305548531222,0.2119713636324448,-0.06493959812953934
8759,3.0,300.29522000000003,1998.6118,0.0,0.0,0.0,0.08882627742533583,0.0,0.0,-0.1286048032373059,-0.25345407603896974,-0.2254692228520798,0.8238470787598762,0.1866054478465238,-0.08547553408702842
8760,3.0,299.57493999999997,2106.7785,0.0,0.0,0.0,0.0888364185690081,0.0,0.0,-0.14978074747470885,-0.25135622276692776,-0.23927108749921777,0.8291788818460842,0.22428083247229477,-0.055482544844950854
8761,3.0,298.81812,2140.3832,0.0,0.0,0.0,0.08884655971268036,0.0,0.0,-0.14741752400147687,-0.2525636622485928,-0.2506418510489248,0.8515083302623292,0.20864572481672977,-0.1025227425457069
8762,3.0,299.66787999999997,2093.0892,0.0,0.0,0.0,0.08885670085635262,0.0,0.0,-0.15805928450173687,-0.2068682308288048,-0.27131933703213373,0.8395514927222811,0.19938813488057683,-0.045756577010322555
8763,3.0,300.92422999999997,2153.7475,0.0,0.0,0.0,0.08886684200002488,0.0,0.0,-0.14942215826431887,-0.2308545559410708,-0.27440873658703374,0.8541783253358373,0.17098386707979382,-0.05368946301748745
8764,3.0,299.72508,2050.4823,0.0,0.0,0.0,0.08887698314369714,0.0,0.0,-0.13410062111720086,-0.20906024543263982,-0.2801345318421257,0.8392127632138513,0.22712340430283479,-0.007345790863373112
8765,3.0,300.34052,2311.1237,0.0,0.0,0.0,0.0888871242873694,0.0,0.0,-0.14817049041578886,-0.25424943683746576,-0.3001039485229537,0.8334953678020882,0.2154454334553088,-0.04608718126620066
8766,3.0,299.80322,2629.7194,0.0,0.0,0.0,0.08889726543104168,0.0,0.0,-0.19897722143502283,-0.28246220036934877,-0.3179296117022096,0.7952257525226712,0.22864961226595978,-0.03769476506043366
8767,3.0,299.37156,2369.2561,0.0,0.0,0.0,0.08890740657471392,0.0,0.0,-0.16966101841173883,-0.25997560699509475,-0.2905580686683487,0.8158791028884982,0.19245179959851383,-0.06642287063292693
8768,3.0,300.33862999999997,1967.6264,0.0,0.0,0.0,0.0889175477183862,0.0,0.0,-0.14128598287634087,-0.21982961465049378,-0.23699367617695474,0.8253949905401432,0.20422293879273481,-0.06803953143247893
8769,3.0,300.65013,2132.9427,0.0,0.0,0.0,0.08892768886205844,0.0,0.0,-0.15920687129999483,-0.23217122378351576,-0.25698323626977077,0.8358529272072611,0.2021663450647648,-0.043774948591001055
8770,3.0,300.25271000000004,2254.9264,0.0,0.0,0.0,0.08893783000573072,0.0,0.0,-0.17985820529812283,-0.23678282896364578,-0.2688002858260227,0.8254674277897922,0.1878126948106698,-0.060967152125739436
8771,3.0,300.81381,2149.0986,0.0,0.0,0.0,0.08894797114940298,0.0,0.0,-0.1135556682470719,-0.2545265911373188,-0.2851900418910657,0.8461709543005711,0.18293485816676483,-0.055845312698753244
8772,3.0,301.26554,2234.9657,0.0,0.0,0.0,0.08895811229307524,0.0,0.0,-0.13483921964509485,-0.26985472454258774,-0.2746798215187877,0.8470920594364773,0.2037255647161478,-0.08595600917844762
8773,3.0,300.14673,2359.7870000000003,0.0,0.0,0.0,0.0889682534367475,0.0,0.0,-0.13551992106227487,-0.27817662867389575,-0.3036197845149397,0.8532464696163702,0.20516154275786783,-0.058604939876107244
8774,3.0,300.5158,2361.9359,0.0,0.0,0.0,0.08897839458041976,0.0,0.0,-0.16812094918724585,-0.27797238785123873,-0.27187620915459276,0.8239876874762532,0.20572987473895782,-0.08019805944468221
8775,3.0,299.74902000000003,2352.4612,0.0,0.0,0.0,0.08898853572409202,0.0,0.0,-0.16742962890901786,-0.2401019728462198,-0.3075578418235957,0.8373537836528843,0.19194039200804183,-0.034861767430088564
8776,3.0,300.22758,2372.4793,0.0,0.0,0.0,0.08899867686776428,0.0,0.0,-0.18203806090075783,-0.2621859411607378,-0.2769504541978817,0.8069341411381992,0.2091700716109788,-0.052884772212070656
8777,3.0,301.56425,2084.8645,0.0,0.0,0.0,0.08900881801143654,0.0,0.0,-0.12155216710876489,-0.2281522685868758,-0.2840423132377937,0.8149658504408672,0.20511217721299582,-0.05831112065185954
8778,3.0,300.87563,1940.7517,0.0,0.0,0.0,0.08901895915510881,0.0,0.0,-0.12778817431921088,-0.2107015282096218,-0.25145034356871676,0.8045706643524423,0.21896628503528978,-0.07299658295595184
8779,3.0,300.46797000000004,2144.3194,0.0,0.0,0.0,0.08902910029878106,0.0,0.0,-0.15308964739877184,-0.2345148307348118,-0.26421508594349874,0.8179460824299932,0.2018845906094578,-0.07294696612505502
8780,3.0,301.37928999999997,2253.229,0.0,0.0,0.0,0.08903924144245333,0.0,0.0,-0.2043808132908158,-0.2240637233733678,-0.25648081620768576,0.8455989948841232,0.22468016446920577,-0.08265338228575372
8781,3.0,300.82448,2258.4719,0.0,0.0,0.0,0.08904938258612558,0.0,0.0,-0.16266515468630086,-0.26397852244265174,-0.25987537629520274,0.8521993364330263,0.18873798466948882,-0.05892026938672784
8782,3.0,300.10636,2287.0411,0.0,0.0,0.0,0.08905952372979785,0.0,0.0,-0.16761890402769786,-0.24876463298615778,-0.27881984996987674,0.8285558140945922,0.1811496026830738,-0.03984022588842417
8783,3.0,299.66229,2301.8241,0.0,0.0,0.0,0.0890696648734701,0.0,0.0,-0.13940040550024885,-0.23925397370502877,-0.3210426807794457,0.8515145212204401,0.19018440931973982,-0.02186076654273968
8784,3.0,298.70946000000004,2205.4521,0.0,0.0,0.0,0.08907980601714237,0.0,0.0,-0.1274000995309109,-0.24825657925351677,-0.2947456894766347,0.8313023703456561,0.2176448650498758,-0.05499641581797365
8785,3.0,299.69664,2370.8977,0.0,0.0,0.0,0.08908994716081461,0.0,0.0,-0.16051256564385685,-0.25752954019368673,-0.3026516037793877,0.8614820043091541,0.2046220174771208,-0.04660630475618416
8786,3.0,301.22851,2229.5011,0.0,0.0,0.0,0.08910008830448689,0.0,0.0,-0.18227743110438183,-0.24066372883416076,-0.2547715038189897,0.8070448083141212,0.20990340123835283,-0.06671872952962593
8787,3.0,300.11126,1918.3917,0.0,0.0,0.0,0.08911022944815913,0.0,0.0,-0.15000773576211085,-0.2064783524553268,-0.2266571066068148,0.8232089135818943,0.19916359865841682,-0.05079602400542725
8788,3.0,300.60576000000003,2189.298,0.0,0.0,0.0,0.08912037059183141,0.0,0.0,-0.14377445419443388,-0.2504751207449698,-0.27124235028953575,0.8183038306428002,0.22561310436627977,-0.07922899008879253
8789,3.0,300.53031,2469.4033,0.0,0.0,0.0,0.08913051173550367,0.0,0.0,-0.16281225833581883,-0.2886585185733777,-0.29916617542290275,0.8271836809416733,0.21526433526493577,-0.06952796948487633
8790,3.0,300.46112999999997,2145.5602,0.0,0.0,0.0,0.08914065287917593,0.0,0.0,-0.0947832596381294,-0.2698586964829797,-0.28755475484194476,0.8029263114276572,0.2118494291154108,-0.0977796874168538
8791,3.0,300.2844,1957.9611,0.0,0.0,0.0,0.08915079402284819,0.0,0.0,-0.12133017414435589,-0.2137912824020568,-0.2600498275649198,0.8130202582613523,0.2248411597775948,-0.06179090013903704
8792,3.0,300.02382,2207.4501,0.0,0.0,0.0,0.08916093516652045,0.0,0.0,-0.17006921634702485,-0.24490398798514176,-0.25603650603883576,0.8225784491046723,0.2249732369281298,-0.08806207889555051
8793,3.0,299.12581,2228.5754,0.0,0.0,0.0,0.0891710763101927,0.0,0.0,-0.18316433904941282,-0.22668067480414078,-0.26758626021870774,0.8541921663322032,0.19134904911718081,-0.04518935149834175
8794,3.0,299.05182,2166.8894,0.0,0.0,0.0,0.08918121745386497,0.0,0.0,-0.13408041691020686,-0.23805819673201478,-0.2865416567294597,0.8560333126914103,0.17875962940720183,-0.05954769107389954
8795,3.0,298.4461,2201.2444,0.0,0.0,0.0,0.08919135859753723,0.0,0.0,-0.13196259247869388,-0.22962383197210776,-0.30753690807652967,0.8408490304028382,0.16485899314031585,-0.029836244517858074
8796,3.0,300.49562000000003,2322.3014,0.0,0.0,0.0,0.0892014997412095,0.0,0.0,-0.14048164468195887,-0.26383921068640276,-0.3016007621006777,0.8397747522493152,0.2165203195588918,-0.05569130982930435
8797,3.0,301.33232000000004,2347.1052,0.0,0.0,0.0,0.08921164088488175,0.0,0.0,-0.16786379644436683,-0.26563499383863276,-0.2799625934326567,0.8183804120853582,0.1993501886643318,-0.07000521433497674
8798,3.0,300.49442999999997,2456.3711,0.0,0.0,0.0,0.08922178202855402,0.0,0.0,-0.20917416514138282,-0.2821941551878947,-0.25530717874935677,0.8231451193555982,0.23273103433126477,-0.05759242539567985
8799,3.0,300.93415,2351.4621,0.0,0.0,0.0,0.08923192317222627,0.0,0.0,-0.1912613725860278,-0.2459174711326648,-0.2776069389376717,0.7937418173537183,0.23271419411460278,-0.06680259117415244
8800,3.0,300.34771,2015.8701,0.0,0.0,0.0,0.08924206431589854,0.0,0.0,-0.13193895335386085,-0.23529486105929479,-0.24554036984294778,0.8019770784689753,0.2186500294140778,-0.07769644931254252
8801,3.0,299.73351,2136.6957,0.0,0.0,0.0,0.08925220545957081,0.0,0.0,-0.11561393383770689,-0.2377484360439438,-0.2961397797592207,0.8079268323936702,0.1881639784878388,-0.07933019148228032
8802,3.0,299.93826,2228.8738,0.0,0.0,0.0,0.08926234660324306,0.0,0.0,-0.15040575053389185,-0.23593514392998577,-0.2911810756248347,0.8339950824864062,0.18020739154758483,-0.06115504719778324
8803,3.0,299.78281,2044.5502,0.0,0.0,0.0,0.08927248774691532,0.0,0.0,-0.11001312298244989,-0.23859272668976877,-0.27288636884178774,0.8635263478434152,0.19212630313638981,-0.049942035542895155
8804,3.0,299.54982,2090.9736,0.0,0.0,0.0,0.08928262889058758,0.0,0.0,-0.15682353481227784,-0.2149809190794648,-0.2637992987649638,0.8388276977783482,0.2167377934278548,-0.06635896798887023
8805,3.0,298.97265,2230.9185,0.0,0.0,0.0,0.08929277003425984,0.0,0.0,-0.1383898303805129,-0.26035450173748875,-0.27939918584705276,0.8401458145684362,0.2103752110149168,-0.057872275954048945
8806,3.0,298.71488999999997,2111.9491,0.0,0.0,0.0,0.08930291117793211,0.0,0.0,-0.12122515077149089,-0.2502859469512998,-0.27046869330818174,0.8421232126685901,0.2002801090761078,-0.06596670746440714
8807,3.0,299.48876,2190.2848,0.0,0.0,0.0,0.08931305232160436,0.0,0.0,-0.1032988819898059,-0.2651088434592057,-0.29738415220703074,0.8524556583108232,0.21268072989495376,-0.03654461372617256
8808,3.0,299.74735,2359.9722,0.0,0.0,0.0,0.08932319346527663,0.0,0.0,-0.17000355774054485,-0.28637910101591674,-0.26098997167020477,0.8412146414364212,0.2107533863497398,-0.08154379236624572
8809,3.0,299.29511,2190.5171,0.0,0.0,0.0,0.08933333460894888,0.0,0.0,-0.16762268345057085,-0.21455533377246278,-0.28368447383247775,0.8178276334933032,0.1995324216948168,-0.03677088868550416
8810,3.0,299.0165,2033.3208,0.0,0.0,0.0,0.08934347575262115,0.0,0.0,-0.15137328278937984,-0.23568357419515779,-0.2310218941950858,0.8077878347449522,0.19208559074737183,-0.09081377435112171
8811,3.0,299.50917999999996,2232.1887,0.0,0.0,0.0,0.08935361689629343,0.0,0.0,-0.16026120869154983,-0.2314325441956138,-0.2868358640284957,0.8099295718788252,0.2024956513472648,-0.0029988760949410274
8812,3.0,300.47961000000004,2294.0206,0.0,0.0,0.0,0.08936375803996567,0.0,0.0,-0.15633296977636285,-0.23843711173941076,-0.3025548991898437,0.8116295015715952,0.2327374988669028,-0.06928770255491384
8813,3.0,300.63486,2134.5757,0.0,0.0,0.0,0.08937389918363794,0.0,0.0,-0.13119278584771987,-0.2306447321103628,-0.28702018435418675,0.8253797512586393,0.20994946358789882,-0.03046843253350017
8814,3.0,299.43779,2262.2374,0.0,0.0,0.0,0.08938404032731019,0.0,0.0,-0.16001618455236782,-0.23879489034972076,-0.2888526167625337,0.8377886199332992,0.19777035950591482,-0.06244367435696085
8815,3.0,300.21774,2467.1899,0.0,0.0,0.0,0.08939418147098246,0.0,0.0,-0.18843136505672783,-0.26285906346716975,-0.2986736953442987,0.8664876421881722,0.18698714929169483,-0.03532304953811356
8816,3.0,299.89331,2335.35,0.0,0.0,0.0,0.08940432261465472,0.0,0.0,-0.14554592947676487,-0.28710018044958174,-0.2772419865166537,0.8665926756935382,0.1897760593969388,-0.07311764101164933
8817,3.0,300.56649,2414.2434,0.0,0.0,0.0,0.08941446375832698,0.0,0.0,-0.16337169398103085,-0.26198135583304677,-0.3085166803932257,0.8328979352781263,0.1963110260493898,-0.06950653012601044
8818,3.0,300.16495,2296.3525,0.0,0.0,0.0,0.08942460490199924,0.0,0.0,-0.15100103496764186,-0.2655241544101938,-0.28150862056773773,0.8080189672252632,0.19683748040384683,-0.07882845536401283
8819,3.0,300.57237000000003,1948.7442,0.0,0.0,0.0,0.0894347460456715,0.0,0.0,-0.10699070939166089,-0.2408592151759538,-0.2445196520897108,0.8207906604957312,0.24005983177456075,-0.07412970662228242
8820,3.0,300.76209,1853.0407,0.0,0.0,0.0,0.08944488718934376,0.0,0.0,-0.1072280429625839,-0.2235120897539258,-0.23253797978971177,0.8265701681386243,0.23519552201949076,-0.06760991946957953
8821,3.0,301.01645,2209.8143,0.0,0.0,0.0,0.08945502833301604,0.0,0.0,-0.15133533657313486,-0.2555672901825278,-0.26482574138126574,0.8464162114872762,0.2066766151023938,-0.07654290055069612
8822,3.0,300.51715,2088.8426,0.0,0.0,0.0,0.08946516947668828,0.0,0.0,-0.13112166582320087,-0.2104114752359958,-0.2934228306760787,0.8334996031875063,0.17420947784563684,-0.061614318004359736
8823,3.0,300.8159,2009.7887,0.0,0.0,0.0,0.08947531062036056,0.0,0.0,-0.10232123749831991,-0.24105747782302075,-0.2675468751873208,0.8240352089059432,0.19519563020680883,-0.04737016462232125
8824,3.0,299.7658,2421.2587,0.0,0.0,0.0,0.0894854517640328,0.0,0.0,-0.17155220919338485,-0.25362887181372074,-0.3108210948306537,0.8400500117714812,0.2103531525602398,-0.06658669898859552
8825,3.0,299.3818,2632.3679,0.0,0.0,0.0,0.08949559290770508,0.0,0.0,-0.21864335209591879,-0.2631853299993697,-0.3183454191457467,0.8279404673088622,0.2339336000799488,-0.04298483946777336
8826,3.0,299.76738,2384.257,0.0,0.0,0.0,0.08950573405137734,0.0,0.0,-0.18793567297530683,-0.28515669583027475,-0.25166222429712776,0.8439615219275172,0.21092606443178177,-0.06688022943656473
8827,3.0,300.62784,2118.5599,0.0,0.0,0.0,0.0895158751950496,0.0,0.0,-0.16165274558388384,-0.21185292482825582,-0.27048365901215876,0.8370446815773782,0.21315287404405078,-0.03141627328654477
8828,3.0,299.31961,2018.3634,0.0,0.0,0.0,0.08952601633872186,0.0,0.0,-0.1256003039082849,-0.23546926166650678,-0.25246250949110977,0.8722465808540352,0.2022747425604628,-0.05499893881072265
8829,3.0,300.45146,2066.4888,0.0,0.0,0.0,0.08953615748239412,0.0,0.0,-0.1116189318734309,-0.24759889887860878,-0.2689431743551247,0.8309157141074962,0.19439868873815683,-0.05444189342249655
8830,3.0,300.0136,2255.094,0.0,0.0,0.0,0.08954629862606638,0.0,0.0,-0.14515185624787286,-0.2197338827810458,-0.3206065272739007,0.8488082416608511,0.18431982919845083,-0.03750479991843557
8831,3.0,300.17635,2202.8172,0.0,0.0,0.0,0.08955643976973865,0.0,0.0,-0.16084752586191484,-0.24643746095148378,-0.2623164477736178,0.7989217342499363,0.2176507317679548,-0.05938983380107024
8832,3.0,301.37731,2195.8919,0.0,0.0,0.0,0.0895665809134109,0.0,0.0,-0.16418202048350386,-0.23976626282308774,-0.26354802287266477,0.8223530921499312,0.22255338290680876,-0.055270796852302954
8833,3.0,300.79828,2278.955,0.0,0.0,0.0,0.08957672205708317,0.0,0.0,-0.15669404144949786,-0.26103283214943473,-0.2750185307622157,0.7946866629394672,0.21246618431877975,-0.08332079391462212
8834,3.0,299.7912,2600.1114,0.0,0.0,0.0,0.08958686320075541,0.0,0.0,-0.19967422604631183,-0.26842461321894673,-0.32227009142058166,0.8094051946870733,0.1847384534772658,-0.058232528921103144
8835,3.0,301.91784,2394.1343,0.0,0.0,0.0,0.08959700434442769,0.0,0.0,-0.14533779777372385,-0.26295683196931874,-0.3194624260559867,0.8266287137294023,0.19005984035244583,-0.058563391555756746
8836,3.0,300.47778999999997,1869.3845,0.0,0.0,0.0,0.08960714548809995,0.0,0.0,-0.09076050171386411,-0.2510056382323278,-0.2264800614168418,0.8474360983754312,0.20077675361262282,-0.07633889682856253
8837,3.0,300.29117,2151.7654,0.0,0.0,0.0,0.08961728663177221,0.0,0.0,-0.13017995118026088,-0.2621265748373788,-0.26177642600032175,0.8548312839652792,0.2265244721687248,-0.07314103796970843
8838,3.0,300.67317,2255.065,0.0,0.0,0.0,0.08962742777544447,0.0,0.0,-0.19009780683369282,-0.2419172711953758,-0.25346836286537977,0.8491192587790461,0.2071307233997108,-0.06101701618966064
8839,3.0,300.25198,2036.3663,0.0,0.0,0.0,0.08963756891911673,0.0,0.0,-0.1259352033313369,-0.25251721486400874,-0.24055207880564175,0.8421281573290782,0.23504365609450278,-0.07419570365429583
8840,3.0,299.70074,2016.043,0.0,0.0,0.0,0.08964771006278899,0.0,0.0,-0.11888025699256789,-0.2131763409163668,-0.2807701334973547,0.8436596240602222,0.20376255847729882,-0.054863377093093746
8841,3.0,300.18265,2151.6341,0.0,0.0,0.0,0.08965785120646126,0.0,0.0,-0.0948296330554561,-0.25315955463240275,-0.3060538544351637,0.8159125300092972,0.19803229478926582,-0.04489988215677336
8842,3.0,299.4751,2155.5866,0.0,0.0,0.0,0.08966799235013351,0.0,0.0,-0.13844856848880988,-0.2111846357248008,-0.3056112870564857,0.8148959868464721,0.18177337970963584,-0.05494273990717624
8843,3.0,300.62136,2544.5457,0.0,0.0,0.0,0.08967813349380578,0.0,0.0,-0.2177206156273518,-0.24760496824670775,-0.3081527614873097,0.8151874583702382,0.2113623597923408,-0.01973591826153348
8844,3.0,299.93419,2661.1775,0.0,0.0,0.0,0.08968827463747803,0.0,0.0,-0.2130397649353878,-0.3010843693197137,-0.29480737614272273,0.8478680266280593,0.22333137659859081,-0.06023241509397653
8845,3.0,300.93433,2252.4094,0.0,0.0,0.0,0.0896984157811503,0.0,0.0,-0.17224708597946384,-0.2511782555193638,-0.26125087343845377,0.8246938012059412,0.23681609396442876,-0.05190826256069665
8846,3.0,300.95723,2114.8902,0.0,0.0,0.0,0.08970855692482256,0.0,0.0,-0.13667257411103287,-0.2296275404674738,-0.27657369741319876,0.8305029464142591,0.2130247688339078,-0.08265081065699993
8847,3.0,301.26322000000005,2359.1523,0.0,0.0,0.0,0.08971869806849482,0.0,0.0,-0.16630740376076283,-0.24941974983831275,-0.3013962274354917,0.8138094078367353,0.2187014011941478,-0.039370879322853256
8848,3.0,300.46398999999997,2139.7183,0.0,0.0,0.0,0.08972883921216708,0.0,0.0,-0.14089698603044987,-0.23513060308558376,-0.27439334531801474,0.8488940335468181,0.19614257322026482,-0.05462473237654135
8849,3.0,300.00513,1848.088,0.0,0.0,0.0,0.08973898035583934,0.0,0.0,-0.1000753534529184,-0.24200110750864975,-0.21969612908231978,0.8386901794747762,0.18583305742779482,-0.09122838413304052
8850,3.0,299.13542,2091.3057,0.0,0.0,0.0,0.0897491214995116,0.0,0.0,-0.16156213062744085,-0.22099081953009578,-0.25315176273913376,0.8385013603186412,0.17043666136328883,-0.08278899973213812
8851,3.0,300.65139,2285.3091,0.0,0.0,0.0,0.08975926264318387,0.0,0.0,-0.15709762909682884,-0.24680088336485076,-0.29077838977009274,0.8257782726554702,0.2034781898367338,-0.08172198658183212
8852,3.0,300.35386,2180.2089,0.0,0.0,0.0,0.08976940378685612,0.0,0.0,-0.11532267509646188,-0.2707708546205027,-0.27663554619930275,0.8448405569192712,0.21778071149078282,-0.06817550756939873
8853,3.0,300.13552000000004,2313.1304,0.0,0.0,0.0,0.0897795449305284,0.0,0.0,-0.1100032640589769,-0.2704994049187127,-0.32263121375622167,0.8190626131126861,0.2204174212985058,-0.07456021531152032
8854,3.0,299.64297,2394.1371,0.0,0.0,0.0,0.08978968607420064,0.0,0.0,-0.17723084778882284,-0.2677216709620717,-0.2828053881782187,0.8145616345784742,0.19503812047876382,-0.026328192313140274
8855,3.0,300.20009,2184.9827,0.0,0.0,0.0,0.08979982721787291,0.0,0.0,-0.16086104261824885,-0.24521909863374078,-0.25810005066249175,0.8243583242303322,0.20292751880488683,-0.07872550814060272
8856,3.0,300.27603999999997,2261.8621,0.0,0.0,0.0,0.08980996836154519,0.0,0.0,-0.2011222313667188,-0.2183215742616618,-0.26810579407498175,0.8375262692174071,0.1935626358156448,-0.040165989848574564
8857,3.0,300.68327999999997,2347.1472,0.0,0.0,0.0,0.08982010950521743,0.0,0.0,-0.15068299602625385,-0.27715595145066274,-0.2856351930574987,0.8259523388901493,0.18467298738830482,-0.09207978070181681
8858,3.0,300.82182,2156.3688,0.0,0.0,0.0,0.0898302506488897,0.0,0.0,-0.13897770795603187,-0.23433133114170177,-0.28217322144082874,0.8465607718790431,0.19083554409900183,-0.03925681877234636
8859,3.0,300.71637999999996,2148.0728,0.0,0.0,0.0,0.08984039179256195,0.0,0.0,-0.12924005025499988,-0.2340574496396718,-0.2896629736625097,0.8477071225121793,0.2047542466151708,-0.07295744211783893
8860,3.0,300.80877000000004,2423.3452,0.0,0.0,0.0,0.08985053293623423,0.0,0.0,-0.18924995968001682,-0.25466382573086277,-0.2927226647244777,0.8759690692039162,0.2085574302030158,-0.02117076348964168
8861,3.0,301.38748,2204.7635,0.0,0.0,0.0,0.08986067407990649,0.0,0.0,-0.15386200741999786,-0.2397155699205848,-0.27661546358232075,0.8611093106573723,0.17655152439177882,-0.07694543543117323
8862,3.0,301.32762,2280.8368,0.0,0.0,0.0,0.08987081522357875,0.0,0.0,-0.15636696431721786,-0.2774785601500017,-0.25947191023788374,0.8557474545731982,0.16673654557561585,-0.07492288994631352
8863,3.0,300.72205,2474.3662,0.0,0.0,0.0,0.089880956367251,0.0,0.0,-0.15742680365681583,-0.26820267091704275,-0.3265160653021267,0.8243485261018653,0.2064947975044498,-0.06960396222912624
8864,3.0,300.20416,2307.0105,0.0,0.0,0.0,0.08989109751092325,0.0,0.0,-0.14470801217406887,-0.24400794052420877,-0.31255762311703567,0.8062242986481433,0.22674983925596678,-0.06627409816049423
8865,3.0,300.37121,2017.5494,0.0,0.0,0.0,0.08990123865459552,0.0,0.0,-0.10775770931985788,-0.24673091844544578,-0.2587960014936767,0.8101783247783753,0.23542597562223477,-0.06338636475974714
8866,3.0,299.78979,2275.5551,0.0,0.0,0.0,0.0899113797982678,0.0,0.0,-0.14808853874770087,-0.2562418918341058,-0.2873814992073457,0.8217566728760692,0.2247609002371738,-0.05199698780570316
8867,3.0,299.18827000000005,2384.7184,0.0,0.0,0.0,0.08992152094194004,0.0,0.0,-0.17156474309712183,-0.2732377842414697,-0.28009231984295974,0.8625877033482782,0.2016033529117018,-0.056945325378316036
8868,3.0,298.70044,2119.9509,0.0,0.0,0.0,0.08993166208561232,0.0,0.0,-0.15708352465543685,-0.24730827848492673,-0.24002034541816378,0.8525318851158461,0.17917348127804583,-0.1112432896638579
8869,3.0,299.49874,2194.3057,0.0,0.0,0.0,0.08994180322928456,0.0,0.0,-0.1086416687070979,-0.2728253509207657,-0.2855471213588067,0.8489812439829253,0.17089874393889284,-0.09168155720051521
8870,3.0,300.78918999999996,2184.6561,0.0,0.0,0.0,0.08995194437295684,0.0,0.0,-0.11770284011136589,-0.25633387467818375,-0.2900441786151317,0.8569936103411843,0.18119894796294383,-0.0924818211162451
8871,3.0,300.84387000000004,2058.7214,0.0,0.0,0.0,0.0899620855166291,0.0,0.0,-0.12230432292299688,-0.23115022232025076,-0.2723453338183917,0.8454182614637861,0.2286762303460868,-0.06286074025712204
8872,3.0,300.13109,2168.4468,0.0,0.0,0.0,0.08997222666030136,0.0,0.0,-0.15945487439447087,-0.22945900657834079,-0.27023980011059173,0.8270366684846643,0.2387924180194768,-0.050846218388881044
8873,3.0,301.18183999999997,2454.3898,0.0,0.0,0.0,0.08998236780397362,0.0,0.0,-0.20578766039216081,-0.25781288545165076,-0.2824726469778797,0.8126971935994682,0.21748257278135882,-0.043041023172568256
8874,3.0,300.53899,2188.0287,0.0,0.0,0.0,0.08999250894764588,0.0,0.0,-0.17064191543604582,-0.23213149424709478,-0.26233269017272076,0.8272433816375652,0.21064710654675078,-0.031350364407290075
8875,3.0,300.53135,2298.527,0.0,0.0,0.0,0.09000265009131814,0.0,0.0,-0.1311952277804609,-0.2746630015671277,-0.2928365844332207,0.8488813172580632,0.2028763294098348,-0.04917675408686775
8876,3.0,299.93528,2650.8390000000004,0.0,0.0,0.0,0.09001279123499041,0.0,0.0,-0.20698549426287782,-0.25963480032395975,-0.3391685800958327,0.8458701912733882,0.2135066097864618,-0.03325677319218797
8877,3.0,299.24523999999997,2451.6915,0.0,0.0,0.0,0.09002293237866266,0.0,0.0,-0.16795114873548783,-0.26078951027042074,-0.3165123585223377,0.8382737032861731,0.2207127938351568,-0.04883037150043246
8878,3.0,299.46966000000003,2094.248,0.0,0.0,0.0,0.09003307352233493,0.0,0.0,-0.14295485645354586,-0.24885071871465378,-0.24479351332673874,0.8506717909797691,0.20774212864255182,-0.05699260666773235
8879,3.0,300.08418,2182.2624,0.0,0.0,0.0,0.09004321466600718,0.0,0.0,-0.1406100741321339,-0.24872302893705175,-0.27402017543868573,0.8520407729248772,0.2124950214166258,-0.054123703506843646
8880,3.0,299.42165,2061.9506,0.0,0.0,0.0,0.09005335580967945,0.0,0.0,-0.13602139880176686,-0.24579073381015676,-0.24496935274909273,0.8248072142896342,0.2147887865955028,-0.100714355575483
8881,3.0,299.20939,1873.0769,0.0,0.0,0.0,0.09006349695335171,0.0,0.0,-0.06925825041425714,-0.24477179937709578,-0.25533855910495373,0.8302570002174863,0.1905556540238788,-0.08126536441101702
8882,3.0,300.00985,2057.4854,0.0,0.0,0.0,0.09007363809702397,0.0,0.0,-0.11938935437281188,-0.24149500934870174,-0.26453983260054875,0.8156317989365912,0.19110825023091582,-0.08964211880998832
8883,3.0,300.1234,2184.7453,0.0,0.0,0.0,0.09008377924069623,0.0,0.0,-0.1183462032623609,-0.26438226207749776,-0.2813795527699997,0.8550130002382132,0.19513849303366984,-0.06619686013187144
8884,3.0,299.78308,2191.8468,0.0,0.0,0.0,0.09009392038436849,0.0,0.0,-0.15289198256926387,-0.2665628269552028,-0.24681188726093675,0.8377780213372531,0.2234290741732328,-0.09201122723980111
8885,3.0,299.97864,2386.8315,0.0,0.0,0.0,0.09010406152804075,0.0,0.0,-0.18012998937244581,-0.26286005645226773,-0.2825471411252317,0.8257002017352653,0.19803237584927383,-0.07620614485346093
8886,3.0,299.63794,2535.7525,0.0,0.0,0.0,0.09011420267171301,0.0,0.0,-0.2051038482971738,-0.27296998224003977,-0.29273160159035966,0.8469484109698002,0.2012393225482748,-0.06123174415085265
8887,3.0,299.44226000000003,2170.1301,0.0,0.0,0.0,0.09012434381538527,0.0,0.0,-0.12133249448708489,-0.2369189489820798,-0.3014139289147387,0.8456194726686441,0.2043537696456468,-0.06400647990044775
8888,3.0,300.6904,2089.3319,0.0,0.0,0.0,0.09013448495905753,0.0,0.0,-0.1339649469288109,-0.24040918014403875,-0.26073061004210774,0.8593099811297923,0.2164480140317558,-0.035500643909640764
8889,3.0,300.89075,2245.5576,0.0,0.0,0.0,0.09014462610272979,0.0,0.0,-0.15817293063295285,-0.2191726334181548,-0.3052478646431187,0.7982963562882163,0.17608620954835585,-0.05586808448150065
8890,3.0,299.76963,2118.4684,0.0,0.0,0.0,0.09015476724640206,0.0,0.0,-0.16706552761808383,-0.2204455693862838,-0.25645039843968376,0.8122818522509772,0.19580166522411982,-0.03150092526614927
8891,3.0,300.21734,2204.5229999999997,0.0,0.0,0.0,0.09016490839007431,0.0,0.0,-0.15603002826146486,-0.2511803124170668,-0.2629096145146588,0.8376070353828782,0.1935293505498598,-0.07066323212216803
8892,3.0,299.49425,2459.4391,0.0,0.0,0.0,0.09017504953374658,0.0,0.0,-0.17692374181601384,-0.26159357488727575,-0.30909076763488375,0.8602418773792632,0.2223864398203328,-0.028776958412814677
8893,3.0,299.09609,2317.2593,0.0,0.0,0.0,0.09018519067741883,0.0,0.0,-0.1293767174284879,-0.27321829944204673,-0.3017939382322427,0.8551398996807372,0.17247008206147185,-0.07870403027823301
8894,3.0,299.90986000000004,2292.9711,0.0,0.0,0.0,0.0901953318210911,0.0,0.0,-0.13852725749157588,-0.2570034607417668,-0.30147522041328767,0.8593310567318722,0.18528550720625583,-0.05045395279816745
8895,3.0,299.25237000000004,2459.2558,0.0,0.0,0.0,0.09020547296476335,0.0,0.0,-0.15964066393280685,-0.26784756728699677,-0.3200641344953707,0.8780066138300062,0.20861713089890782,-0.06034161305725354
8896,3.0,299.98602999999997,2271.9133,0.0,0.0,0.0,0.09021561410843562,0.0,0.0,-0.15717012714148385,-0.26438839224060273,-0.2690463840103108,0.8425044784162182,0.22247468377154178,-0.06019521564305524
8897,3.0,299.21837999999997,1978.4538,0.0,0.0,0.0,0.09022575525210787,0.0,0.0,-0.11832111518988488,-0.23042984202915479,-0.25264959598957376,0.8175436296227743,0.20755393770147879,-0.07649097046982102
8898,3.0,299.82036,2160.862,0.0,0.0,0.0,0.09023589639578014,0.0,0.0,-0.12039528880708987,-0.2611659630800737,-0.27528683938869575,0.7851201229153233,0.2173386406046538,-0.07004959063635634
8899,3.0,300.33763,2306.3452,0.0,0.0,0.0,0.09024603753945239,0.0,0.0,-0.13303602963463387,-0.27628361404206975,-0.2917517178161527,0.8537171952153273,0.21554250281488876,-0.06231949447770524
8900,3.0,301.9005,2171.198,0.0,0.0,0.0,0.09025617868312466,0.0,0.0,-0.11486576009636788,-0.26424084276104076,-0.2808833844610317,0.8317569244730172,0.2134692816527778,-0.09021268399429873
8901,3.0,300.98897,2172.0846,0.0,0.0,0.0,0.09026631982679692,0.0,0.0,-0.12862139014144286,-0.26903407302159577,-0.26260401828449875,0.8406242510006543,0.17415475220773582,-0.08792531039705251
8902,3.0,301.30615,2305.0415,0.0,0.0,0.0,0.09027646097046918,0.0,0.0,-0.1762676522437628,-0.24704914990435278,-0.2773582670981298,0.8318077896280371,0.19621241654965782,-0.08553699783809442
8903,3.0,299.50093,2235.593,0.0,0.0,0.0,0.09028660211414144,0.0,0.0,-0.16892910733450484,-0.23551898184891376,-0.27511634992686973,0.8574370896449522,0.2139292364031718,-0.07656749618362352
8904,3.0,299.54098,2251.8278,0.0,0.0,0.0,0.0902967432578137,0.0,0.0,-0.13900977732169686,-0.26772703105510076,-0.27776260455053475,0.8511418782311633,0.2335152696436628,-0.05208203697934686
8905,3.0,298.82058,2357.5098,0.0,0.0,0.0,0.09030688440148596,0.0,0.0,-0.14755720052776186,-0.23549299198384877,-0.33357390953618166,0.8270719295881442,0.2011566514726158,-0.03262734223006797
8906,3.0,299.22022999999996,2196.577,0.0,0.0,0.0,0.09031702554515823,0.0,0.0,-0.13759013287158886,-0.23903011636043578,-0.2910843102402847,0.8229171887456033,0.2248046422439908,-0.03417590958314967
8907,3.0,299.28236,2184.5903,0.0,0.0,0.0,0.09032716668883048,0.0,0.0,-0.14421673786308384,-0.23686094041385475,-0.2829832237032697,0.8531263589495162,0.2203531305796608,-0.04747449189236755
8908,3.0,299.73735,2403.8101,0.0,0.0,0.0,0.09033730783250275,0.0,0.0,-0.2172136460723178,-0.24055771247619775,-0.27292690897828875,0.8360271454294551,0.2126665241285518,-0.057751844086913244
8909,3.0,300.70749,2352.5562,0.0,0.0,0.0,0.090347448976175,0.0,0.0,-0.16533808818509885,-0.2838354784948807,-0.26594475452670374,0.8676138696743222,0.18241237575269983,-0.07462275614744264
8910,3.0,300.76291000000003,2105.1321,0.0,0.0,0.0,0.09035759011984727,0.0,0.0,-0.15093194144332286,-0.2400816673142158,-0.24889398449392378,0.8343292017068813,0.2106810909551048,-0.06328483203347664
8911,3.0,300.7545,2323.8676,0.0,0.0,0.0,0.09036773126351953,0.0,0.0,-0.12220360586305687,-0.27456084569204575,-0.3096332820034257,0.8601752663176893,0.2150625870375248,-0.06480757062825923
8912,3.0,300.21467,2302.8416,0.0,0.0,0.0,0.09037787240719179,0.0,0.0,-0.13586364589369787,-0.27229212805564074,-0.29185057049590873,0.8409620179214892,0.21129593111578482,-0.06339210279506344
8913,3.0,300.00096,2135.8782,0.0,0.0,0.0,0.09038801355086405,0.0,0.0,-0.1075585144826989,-0.24716773056355576,-0.2945274050075917,0.8469381872762911,0.18834603926580681,-0.07749159446032493
8914,3.0,300.03983999999997,2239.5363,0.0,0.0,0.0,0.09039815469453631,0.0,0.0,-0.16994986561774583,-0.2655794879981548,-0.24523376036268774,0.8253403966247552,0.2058960578878588,-0.07891489775654402
8915,3.0,299.50368,2148.2152,0.0,0.0,0.0,0.09040829583820857,0.0,0.0,-0.16293438537037183,-0.2184738252216878,-0.2715955895393978,0.8559454132452352,0.2119824688535408,-0.06512795625687885
8916,3.0,298.69522,1971.9971,0.0,0.0,0.0,0.09041843698188085,0.0,0.0,-0.1189071587827229,-0.2399622355249288,-0.24056848332476075,0.8455824079799862,0.2189056926793098,-0.08839077418824022
8917,3.0,299.66938999999996,2071.1547,0.0,0.0,0.0,0.09042857812555309,0.0,0.0,-0.10967141451872589,-0.25583776716422174,-0.26407012025169174,0.8309028154337232,0.18995116927922082,-0.08044349293690463
8918,3.0,299.63049,2373.7086,0.0,0.0,0.0,0.09043871926922536,0.0,0.0,-0.15178497643751085,-0.2599603981110937,-0.30980277848015375,0.8506326997909113,0.2162052798377998,-0.061649282225560445
8919,3.0,300.71337,2331.6206,0.0,0.0,0.0,0.09044886041289761,0.0,0.0,-0.16144579938345985,-0.25785568513587476,-0.2894529471817817,0.8381048248920061,0.1998565604018068,-0.05166382914632295
8920,3.0,300.60431,2343.8579,0.0,0.0,0.0,0.09045900155656988,0.0,0.0,-0.17882759822390984,-0.26458529713253576,-0.26906139024429176,0.8409549150382882,0.2043475685550348,-0.08426127340569022
8921,3.0,299.87854,2443.9689,0.0,0.0,0.0,0.09046914270024216,0.0,0.0,-0.18412435298915883,-0.24912383014660777,-0.3096573365607997,0.7998099898176003,0.18078466039455682,-0.052994455522145545
8922,3.0,301.32007000000004,2431.2968,0.0,0.0,0.0,0.0904792838439144,0.0,0.0,-0.17477953235189683,-0.2727374514745907,-0.29153652375991473,0.8195133270221683,0.20767894236631582,-0.06439013894481194
8923,3.0,299.78166,2235.6639,0.0,0.0,0.0,0.09048942498758668,0.0,0.0,-0.16495112797190886,-0.2096247777258548,-0.3050100953746527,0.8322310241948071,0.2266129390349558,-0.021107101999108778
8924,3.0,298.7035,2242.6555,0.0,0.0,0.0,0.09049956613125892,0.0,0.0,-0.15910165540961085,-0.2294438584893458,-0.29316575899320774,0.8420082594447451,0.2215808958583318,-0.04182938478248886
8925,3.0,299.30282,2129.8994,0.0,0.0,0.0,0.09050970727493118,0.0,0.0,-0.14132902574058887,-0.2245162915305328,-0.2815909066083587,0.851291778450957,0.18493317988148383,-0.04963912847850055
8926,3.0,299.55023,1899.432,0.0,0.0,0.0,0.09051984841860346,0.0,0.0,-0.13255186833935087,-0.2111181766507418,-0.2337098339278648,0.8431791104652993,0.19391173087259783,-0.06503481830768684
8927,3.0,299.42575,2253.1773,0.0,0.0,0.0,0.0905299895622757,0.0,0.0,-0.15637066268008284,-0.2621935304039868,-0.26634544427874873,0.8707329169271483,0.20240683997599979,-0.08938632584874351
8928,3.0,300.11197000000004,2431.1038,0.0,0.0,0.0,0.09054013070594798,0.0,0.0,-0.19008100714703483,-0.24768682872228678,-0.3012270045362907,0.8427423287446922,0.2062377764840838,-0.08404589088493362
8929,3.0,300.26707999999996,2092.3843,0.0,0.0,0.0,0.09055027184962022,0.0,0.0,-0.11623648483164789,-0.24411870902514077,-0.2756773966397407,0.8293033697533702,0.2175077115163398,-0.1034412233638539
8930,3.0,300.0848,1960.5882,0.0,0.0,0.0,0.0905604129932925,0.0,0.0,-0.08601109755988441,-0.24670020683491478,-0.2632585677165977,0.8179596397163312,0.2223529113745238,-0.07377052466058392
8931,3.0,301.6156,2251.3989,0.0,0.0,0.0,0.09057055413696477,0.0,0.0,-0.14316289696407786,-0.24514304408123477,-0.29606309699165273,0.8295487080000832,0.24431559365207176,-0.04537600331251286
8932,3.0,300.91783,2189.5627,0.0,0.0,0.0,0.09058069528063702,0.0,0.0,-0.14793143431969585,-0.2578229064951398,-0.25981803647204377,0.8282512412470332,0.2228077086819088,-0.06890060555296033
8933,3.0,299.46567999999996,2078.3617,0.0,0.0,0.0,0.09059083642430929,0.0,0.0,-0.13397362034966687,-0.24817995728095477,-0.24961648247772875,0.8429686786845312,0.1869999162429548,-0.06966693977584164
8934,3.0,299.71918999999997,2062.1555,0.0,0.0,0.0,0.09060097756798154,0.0,0.0,-0.14687036894747685,-0.22468651754733276,-0.2552868934823547,0.8352624354464842,0.2068981622367588,-0.07123861328420374
8935,3.0,300.12037999999995,2081.5676,0.0,0.0,0.0,0.09061111871165381,0.0,0.0,-0.14009679202897687,-0.23995628774684177,-0.25269148374870776,0.8525689802020072,0.2043270097105058,-0.03905572713100016
8936,3.0,299.40859,2434.4129,0.0,0.0,0.0,0.09062125985532607,0.0,0.0,-0.18740673615810483,-0.24892506087449073,-0.3036689372772907,0.8569088925003232,0.2126490860943308,-0.07348677714233022
8937,3.0,300.18775,2641.2567,0.0,0.0,0.0,0.09063140099899833,0.0,0.0,-0.2083080186909008,-0.26267180471618873,-0.33189625108060966,0.8337861199182832,0.2121746621325088,-0.03540114882932137
8938,3.0,299.90379,2355.5994,0.0,0.0,0.0,0.09064154214267059,0.0,0.0,-0.15018702023480485,-0.27752303169689074,-0.2883333463512857,0.8318542066151181,0.2106304588476078,-0.08452229676395122
8939,3.0,299.12633999999997,2233.1557,0.0,0.0,0.0,0.09065168328634285,0.0,0.0,-0.14690825436871585,-0.2359152234330198,-0.29600009310043474,0.8333598861312173,0.21279132614336876,-0.04629870938357686
8940,3.0,300.38092,2630.3982,0.0,0.0,0.0,0.09066182443001511,0.0,0.0,-0.21426920207672379,-0.26725471465348677,-0.3180514347617327,0.8372768982352962,0.1883392606226378,-0.06041367236461524
8941,3.0,300.42662,2520.8846,0.0,0.0,0.0,0.09067196557368738,0.0,0.0,-0.18138404849121184,-0.25395778292868176,-0.3309441506241447,0.8269576552418663,0.22452792364168078,-0.03215141663159777
8942,3.0,300.51812,1949.0351,0.0,0.0,0.0,0.09068210671735963,0.0,0.0,-0.1130005794447889,-0.22447883167433577,-0.2549785817419268,0.8343124020202232,0.23389886586652076,-0.03945850417825116
8943,3.0,301.12117,2099.6329,0.0,0.0,0.0,0.0906922478610319,0.0,0.0,-0.11278441266845489,-0.26294936431608174,-0.26250220691445075,0.8270057846216162,0.24445629356095777,-0.03325564949782707
8944,3.0,300.69534,2469.718,0.0,0.0,0.0,0.09070238900470415,0.0,0.0,-0.18741958416937282,-0.2699297354474907,-0.29338328352467574,0.8197949092249582,0.1975950976361178,-0.05159425939445695
8945,3.0,300.61467000000005,2398.4575,0.0,0.0,0.0,0.09071253014837642,0.0,0.0,-0.16841434588620185,-0.28958504459731876,-0.2710718202977057,0.8253983747954773,0.1880208974412178,-0.09122890899659232
8946,3.0,300.44164,2294.2417,0.0,0.0,0.0,0.09072267129204868,0.0,0.0,-0.15831466405694083,-0.2646480173137258,-0.27442949808158273,0.8660107053661023,0.1929659733617588,-0.08399154926882052
8947,3.0,299.63112,2141.3753,0.0,0.0,0.0,0.09073281243572094,0.0,0.0,-0.10468234327884289,-0.24862767197014074,-0.2976145956772737,0.8579459945076772,0.2144810220101288,-0.09160511457322092
8948,3.0,300.2473,2116.6538,0.0,0.0,0.0,0.0907429535793932,0.0,0.0,-0.13479400842563288,-0.25617123790463275,-0.2524446357593458,0.8657145526268741,0.17765514626819784,-0.0992542429296311
8949,3.0,300.48486,2399.1982,0.0,0.0,0.0,0.09075309472306546,0.0,0.0,-0.17709133338255384,-0.2566220632716258,-0.29558294816676567,0.8426476709203501,0.2159093196160908,-0.08639957156872383
8950,3.0,299.60409,2372.2448,0.0,0.0,0.0,0.09076323586673772,0.0,0.0,-0.15885809035057286,-0.27027769566433174,-0.29196740836493973,0.8588281503097392,0.2261583646425928,-0.05224204538213845
8951,3.0,301.05933,2002.7251,0.0,0.0,0.0,0.09077337701041,0.0,0.0,-0.12951510712714587,-0.23338761026356378,-0.24587571509604378,0.8440343138147012,0.23542919775755275,-0.044026714896348455
8952,3.0,300.12299,1926.8574,0.0,0.0,0.0,0.09078351815408224,0.0,0.0,-0.11253105961345089,-0.2170794917590778,-0.2561059744656917,0.8251152828500382,0.2034175569507498,-0.05116527159361915
8953,3.0,298.4176,2375.2876,0.0,0.0,0.0,0.09079365929775451,0.0,0.0,-0.18735216250771883,-0.24272986737807276,-0.29194608958283574,0.7989588293360973,0.2049584469078238,-0.039350074258549965
8954,3.0,298.9346,2496.4807,0.0,0.0,0.0,0.09080380044142676,0.0,0.0,-0.17958529651618882,-0.25073350965297075,-0.3285489793752597,0.8306022955865642,0.1951588492281788,-0.054075022919039255
8955,3.0,299.78162000000003,2279.8516,0.0,0.0,0.0,0.09081394158509903,0.0,0.0,-0.15211136455972285,-0.27667855866604774,-0.26422803527977673,0.8178015220382262,0.2306917266500008,-0.06555338045711494
8956,3.0,299.45082,2366.6955,0.0,0.0,0.0,0.0908240827287713,0.0,0.0,-0.15383694974502485,-0.2723726206435847,-0.2932067652247547,0.8306286704866673,0.17715064904340783,-0.0879810097682996
8957,3.0,300.18486,2449.7621,0.0,0.0,0.0,0.09083422387244355,0.0,0.0,-0.2201296582701058,-0.24647872049555578,-0.27805811894219973,0.8367789567386532,0.2164748246294018,-0.06746537832956444
8958,3.0,299.69856,2157.7852,0.0,0.0,0.0,0.09084436501611581,0.0,0.0,-0.1304151062634689,-0.2503281589504658,-0.2751695658221217,0.8713238139879651,0.2034646528153978,-0.06846928423714224
8959,3.0,298.91727000000003,2034.1077,0.0,0.0,0.0,0.09085450615978807,0.0,0.0,-0.11956910494055188,-0.22685188367353776,-0.27189697064914176,0.8633469316482082,0.22143434949636878,-0.07180432804028543
8960,3.0,299.83596,2142.1971,0.0,0.0,0.0,0.09086464730346033,0.0,0.0,-0.12535320260639787,-0.2383344897692828,-0.2874867252302307,0.8466403322768952,0.17907089983792185,-0.056036340740106244
8961,3.0,300.27035,1970.1738,0.0,0.0,0.0,0.0908747884471326,0.0,0.0,-0.11267773769792688,-0.24066773117205575,-0.24553818122273177,0.8312138122869162,0.2179035579329068,-0.08837766070544602
8962,3.0,300.05552,2184.0994,0.0,0.0,0.0,0.09088492959080485,0.0,0.0,-0.12696400682037187,-0.24572366678603774,-0.2912240171640727,0.8562012082329802,0.22167836038545077,-0.045047354629327754
8963,3.0,299.83701,2465.3084,0.0,0.0,0.0,0.09089507073447713,0.0,0.0,-0.15066233585671485,-0.28473126251078773,-0.3139985964817487,0.8196243184381222,0.23569167006345676,-0.05354760597698724
8964,3.0,299.50878,2274.5254,0.0,0.0,0.0,0.09090521187814937,0.0,0.0,-0.1218464048053039,-0.2685639148426947,-0.3009886070527627,0.8404748979359142,0.1972973642267338,-0.05847802624808184
8965,3.0,298.99343,2124.6673,0.0,0.0,0.0,0.09091535302182165,0.0,0.0,-0.12652233110178188,-0.2403765636233198,-0.27894691153241674,0.8252042462088183,0.20792675294327279,-0.07362615779958603
8966,3.0,299.02398,2265.718,0.0,0.0,0.0,0.09092549416549392,0.0,0.0,-0.16167511814609187,-0.24446634500194978,-0.28258024400599874,0.8651070787944212,0.21849220557850177,-0.06886843992853584
8967,3.0,299.13622000000004,2191.8346,0.0,0.0,0.0,0.09093563530916617,0.0,0.0,-0.15332427559192785,-0.24428144712370176,-0.2686572757069087,0.8434833894703293,0.21466820983360277,-0.08356586061030832
8968,3.0,299.10947999999996,2166.3317,0.0,0.0,0.0,0.09094577645283843,0.0,0.0,-0.15066103889658686,-0.24668091455301078,-0.26116877991535176,0.8264678501435262,0.18484194684247982,-0.07744646430087092
8969,3.0,298.33325,2247.2695,0.0,0.0,0.0,0.09095591759651069,0.0,0.0,-0.15701318483349486,-0.24386027958713577,-0.28224035939245473,0.8430574697907942,0.2134377391771648,-0.05063208723199795
8970,3.0,299.15786,2098.5926,0.0,0.0,0.0,0.09096605874018295,0.0,0.0,-0.14080824558669186,-0.1941886419924268,-0.30292287109615973,0.8634590781692763,0.22686300915963578,-0.030032834289009974
8971,3.0,300.95021,2143.714,0.0,0.0,0.0,0.09097619988385522,0.0,0.0,-0.12083467458045388,-0.23848980074461076,-0.2923110521363547,0.8567168714738722,0.2216066830733768,-0.05293164820144695
8972,3.0,300.14482999999996,2573.8022,0.0,0.0,0.0,0.09098634102752746,0.0,0.0,-0.18620804102480282,-0.2659218550744437,-0.3302417048598187,0.8407314832587371,0.15236610576736387,-0.04676241417259096
8973,3.0,299.4868,2570.5239,0.0,0.0,0.0,0.09099648217119974,0.0,0.0,-0.2046298904303978,-0.25391083905154876,-0.3228343602687707,0.8356632265235392,0.19458294826884182,-0.07466240158410534
8974,3.0,300.19892000000004,2164.6028,0.0,0.0,0.0,0.09100662331487198,0.0,0.0,-0.17615226332237482,-0.22967073531923676,-0.25216221255897275,0.8637554132935222,0.20645437895796082,-0.06195199170618554
8975,3.0,300.89601,2026.6991,0.0,0.0,0.0,0.09101676445854426,0.0,0.0,-0.12690187432423988,-0.2171791955689178,-0.27198485996281574,0.8184457464518062,0.22905497310096576,-0.05791837782034885
8976,3.0,300.28952999999996,2239.6845,0.0,0.0,0.0,0.09102690560221653,0.0,0.0,-0.1223770742801769,-0.2657430468292968,-0.29268804196856074,0.7974016361849142,0.20074043872903882,-0.052982467760212454
8977,3.0,299.21426,2125.9749,0.0,0.0,0.0,0.09103704674588878,0.0,0.0,-0.12346620668016588,-0.2565771864246968,-0.2661999010343848,0.8320455791615053,0.22162209460739776,-0.07791811398391914
8978,3.0,299.01945,2096.5595,0.0,0.0,0.0,0.09104718788956105,0.0,0.0,-0.13828234480990487,-0.23571202625796578,-0.26330736584141373,0.8516985477036022,0.23477908636089176,-0.062067853815370236
8979,3.0,300.53854,2341.8304,0.0,0.0,0.0,0.0910573290332333,0.0,0.0,-0.17162682493074885,-0.2698568523677977,-0.2703743090613667,0.8497490545112022,0.2139405848042918,-0.08177066210338602
8980,3.0,299.65578999999997,2139.6766,0.0,0.0,0.0,0.09106747017690557,0.0,0.0,-0.14994045595547087,-0.2268827878015878,-0.2735850047857378,0.8477370133901293,0.16810447374061985,-0.09268093388014602
8981,3.0,300.49917999999997,2219.5896,0.0,0.0,0.0,0.09107761132057783,0.0,0.0,-0.1292566168941349,-0.27682598655559776,-0.26861723206295673,0.8736127763613681,0.19954198677576082,-0.08165730981469901
8982,3.0,300.64905,2474.0596,0.0,0.0,0.0,0.09108775246425009,0.0,0.0,-0.14915044511750286,-0.26291115465481074,-0.33999073122697265,0.8631928568380023,0.23003712655539676,-0.04045179223803106
8983,3.0,300.14954,2211.8978,0.0,0.0,0.0,0.09109789360792235,0.0,0.0,-0.14602566286911087,-0.23890541567062876,-0.28743062157219373,0.8505868704888881,0.23702531997757775,-0.04637814312516636
8984,3.0,300.37816000000004,2046.425,0.0,0.0,0.0,0.09110803475159461,0.0,0.0,-0.1087476850650609,-0.26009076286895977,-0.2532236528337287,0.8069775791699862,0.1902791482040898,-0.057392369295935844
8985,3.0,300.21212,2408.8833,0.0,0.0,0.0,0.09111817589526687,0.0,0.0,-0.2035563316844458,-0.26040692729766274,-0.2682771042693888,0.8284489972690502,0.2060928006597758,-0.07093398166813893
8986,3.0,299.49458,2482.6861,0.0,0.0,0.0,0.09112831703893914,0.0,0.0,-0.2104899919862448,-0.2515452243080808,-0.29263935530125573,0.8461917157951202,0.22051576735321177,-0.05270069911940405
8987,3.0,299.84751,2302.2913,0.0,0.0,0.0,0.09113845818261139,0.0,0.0,-0.15540708209998486,-0.25532367446098475,-0.2891083104252687,0.8717943166719001,0.2129201710260848,-0.07184484588528423
8988,3.0,299.85697000000005,2272.5842,0.0,0.0,0.0,0.09114859932628366,0.0,0.0,-0.1274779272710919,-0.2218699254493568,-0.34146099765207666,0.8543786043506032,0.18154468916206581,-0.02311585715010748
8989,3.0,298.67336,2427.9849,0.0,0.0,0.0,0.09115874046995591,0.0,0.0,-0.15704587228172084,-0.26205731919304376,-0.31894360147478273,0.8671568026867131,0.2142248318548448,-0.04100242577962436
8990,3.0,299.56686,2383.2764,0.0,0.0,0.0,0.09116888161362818,0.0,0.0,-0.16637117772205684,-0.2520873131115808,-0.30599801422215267,0.8749281067136813,0.21406520443409077,-0.024463671287376376
8991,3.0,299.41882000000004,2277.4678,0.0,0.0,0.0,0.09117902275730043,0.0,0.0,-0.1830177926874498,-0.2551905739278488,-0.2540849863462358,0.8513350746277302,0.1923782275087528,-0.08679964019845751
8992,3.0,300.33166,2342.1533,0.0,0.0,0.0,0.0911891639009727,0.0,0.0,-0.18854580152302183,-0.25380466057356976,-0.2696056575355067,0.8254938026898953,0.1873222614972678,-0.08494292322496383
8993,3.0,300.81908,2103.2229,0.0,0.0,0.0,0.09119930504464496,0.0,0.0,-0.12993666983125088,-0.25498527932508774,-0.25440530510034876,0.8407310678261961,0.2042296262433948,-0.1139206915955969
8994,3.0,300.50126,2096.8082,0.0,0.0,0.0,0.09120944618831722,0.0,0.0,-0.1065775566633859,-0.26212721318494175,-0.26867256565091774,0.8503823662212052,0.23286553314953878,-0.05671261121459894
8995,3.0,300.00802000000004,2315.9859,0.0,0.0,0.0,0.09121958733198948,0.0,0.0,-0.14799688014365486,-0.23640862556921477,-0.3195963878517077,0.8439625351776172,0.2181906319512388,-0.06769465149594193
8996,3.0,299.73237,2275.728,0.0,0.0,0.0,0.09122972847566174,0.0,0.0,-0.14688431126885285,-0.24851183721870876,-0.29636834871677875,0.8320168231236672,0.20302707062721181,-0.033668659357837964
8997,3.0,299.41091,2084.1735,0.0,0.0,0.0,0.091239869619334,0.0,0.0,-0.14036102739005488,-0.25779509277989476,-0.2353805820177548,0.8535058819069722,0.2038344080418898,-0.1012534664369391
8998,3.0,300.62617,2491.126,0.0,0.0,0.0,0.09125001076300626,0.0,0.0,-0.18810679065219482,-0.25769524711504077,-0.3114380628165437,0.8761760255368412,0.2175914262396018,-0.05854603762129404
8999,3.0,300.41084,2533.0478,0.0,0.0,0.0,0.09126015190667852,0.0,0.0,-0.16149776898108884,-0.2878862902746647,-0.3205992318731807,0.8879536393992012,0.18111162606932585,-0.09474190687504822
9000,3.0,298.85348,2186.2368,0.0,0.0,0.0,0.09127029305035078,0.0,0.0,-0.1185298649754869,-0.24266302326897574,-0.3033685288876427,0.8398783976020442,0.2042461624850268,-0.06899101076663264
9001,3.0,299.52331000000004,2188.1535,0.0,0.0,0.0,0.09128043419402304,0.0,0.0,-0.11358765655272889,-0.2540561897783937,-0.29750017947598173,0.8555441864706371,0.2085947482041988,-0.05656959400273424
9002,3.0,299.3526,2277.1926,0.0,0.0,0.0,0.0912905753376953,0.0,0.0,-0.15444279224481686,-0.24303788527597178,-0.2947290012474877,0.8241409719513813,0.25680583644226274,-0.024173751049513477
9003,3.0,298.58443,2105.2270000000003,0.0,0.0,0.0,0.09130071648136756,0.0,0.0,-0.17110906426214983,-0.2131654383452908,-0.25566192774186774,0.8456249239541821,0.2191797565663578,-0.057242369777632036
9004,3.0,298.51355,2415.1925,0.0,0.0,0.0,0.09131085762503983,0.0,0.0,-0.1908565082435708,-0.25447205801693673,-0.2888296463827667,0.8357086099955182,0.2016811198568768,-0.06117625654887644
9005,3.0,298.69881000000004,2547.6087,0.0,0.0,0.0,0.09132099876871208,0.0,0.0,-0.19305146127269582,-0.2730836283712557,-0.30827435149930965,0.8561183345073011,0.1922246694560978,-0.06656772892022333
9006,3.0,299.22327,2251.5926,0.0,0.0,0.0,0.09133113991238435,0.0,0.0,-0.13725991466399887,-0.24093424634585878,-0.3062337873879217,0.8604396131362781,0.2237041918403848,-0.04634053634770486
9007,3.0,300.08607,2121.3447,0.0,0.0,0.0,0.0913412810560566,0.0,0.0,-0.12198402443388588,-0.25236067785605976,-0.27049109626789275,0.8726918536104802,0.18377354553953681,-0.05305841693470805
9008,3.0,299.7461,2264.5538,0.0,0.0,0.0,0.09135142219972887,0.0,0.0,-0.16354643909327685,-0.2207419146430308,-0.3040794454228047,0.8384811054491422,0.20779165630743981,-0.03354486350037027
9009,3.0,299.53289,2219.7548,0.0,0.0,0.0,0.09136156334340112,0.0,0.0,-0.17074634099135183,-0.2702590518624918,-0.23374464920130075,0.8611547650568582,0.2081080132536618,-0.07532137689264114
9010,3.0,300.14034,2018.1897,0.0,0.0,0.0,0.0913717044870734,0.0,0.0,-0.1090168144241219,-0.24757928235667276,-0.2568831676898948,0.8415051301075901,0.23780525910955175,-0.10215362566677791
9011,3.0,299.64701,2289.4453,0.0,0.0,0.0,0.09138184563074565,0.0,0.0,-0.14739969079971688,-0.2622958990615898,-0.28623860375705074,0.8662663686313342,0.1884401398025938,-0.10099867152704281
9012,3.0,300.51862,2529.9858,0.0,0.0,0.0,0.09139198677441791,0.0,0.0,-0.14999084488294387,-0.2937170278426137,-0.3253446367290157,0.8311165200123142,0.1994600553726748,-0.10817431723097391
9013,3.0,300.20477,2224.0286,0.0,0.0,0.0,0.09140212791809017,0.0,0.0,-0.1277958142249649,-0.26715366322101375,-0.28109968295987875,0.8557678512977112,0.2053975084411558,-0.07761347730160383
9014,3.0,300.16684,2025.162,0.0,0.0,0.0,0.09141226906176243,0.0,0.0,-0.12893989517787688,-0.24390013071356878,-0.24275865381341374,0.8429367005113751,0.2617553807957448,-0.05694731641476254
9015,3.0,300.08671,2187.3542,0.0,0.0,0.0,0.09142241020543469,0.0,0.0,-0.15184341057077785,-0.25335517269670876,-0.2597024752981388,0.8525649981291142,0.22209343828891578,-0.024959951053855373
9016,3.0,299.51027999999997,2127.6463,0.0,0.0,0.0,0.09143255134910697,0.0,0.0,-0.14240133818891787,-0.24073251838344975,-0.2636174811670198,0.8282852864503932,0.22802770975208275,-0.08790125482642841
9017,3.0,299.43613,2465.5626,0.0,0.0,0.0,0.09144269249277921,0.0,0.0,-0.15779040845520084,-0.2815905621033247,-0.3100884744783497,0.8595811572540552,0.1927593108713628,-0.06592489164603023
9018,3.0,299.62278,2471.8608,0.0,0.0,0.0,0.09145283363645149,0.0,0.0,-0.17015837222332383,-0.2555257469284277,-0.3256998619490737,0.8364294969116641,0.2101438353545818,-0.06914418479749973
9019,3.0,298.09157000000005,2103.9653,0.0,0.0,0.0,0.09146297478012373,0.0,0.0,-0.11607714112092189,-0.23485046983043678,-0.28862530423509974,0.8763298976970271,0.17784030759147185,-0.039453092409467067
9020,3.0,299.91796,2437.0149,0.0,0.0,0.0,0.091473115923796,0.0,0.0,-0.1979955847381428,-0.26396381005119973,-0.2788322926811047,0.8357029763249623,0.1988301988455128,-0.05093898650178655
9021,3.0,300.42728999999997,2867.0705,0.0,0.0,0.0,0.09148325706746827,0.0,0.0,-0.23884936267509677,-0.27684742692771375,-0.35582105164680367,0.8727017327989551,0.2069272121171258,-0.031056274645265673
9022,3.0,299.44345,2369.1293,0.0,0.0,0.0,0.09149339821114053,0.0,0.0,-0.15258524136649088,-0.27994654355107274,-0.2876243549913137,0.8509327636755253,0.24852091593960476,-0.06374696324508544
9023,3.0,299.64527000000004,1975.557,0.0,0.0,0.0,0.09150353935481279,0.0,0.0,-0.09551088264094021,-0.23695147431028976,-0.26805765456273073,0.8521719077528191,0.20237481114033878,-0.07746696539014422
9024,3.0,300.69067,2239.4362,0.0,0.0,0.0,0.09151368049848504,0.0,0.0,-0.13595998571320586,-0.24433675031415977,-0.3004359297857177,0.8506426397743921,0.17769488593711985,-0.06832019867042864
9025,3.0,299.62472,2240.9177,0.0,0.0,0.0,0.0915238216421573,0.0,0.0,-0.15720919806533984,-0.2471708919038678,-0.2768029351158227,0.8564680172493122,0.18008879062337982,-0.06466164032235704
9026,3.0,300.35778999999997,2196.5446,0.0,0.0,0.0,0.09153396278582958,0.0,0.0,-0.16397653336322385,-0.23789371584328176,-0.26582447160733275,0.8485051785559411,0.22090962779958276,-0.03228276728181107
9027,3.0,298.71275,2384.5389999999998,0.0,0.0,0.0,0.09154410392950182,0.0,0.0,-0.15759850901876185,-0.2858817674693337,-0.2813600477055747,0.8348138493622121,0.22466147000486078,-0.057352271949728535
9028,3.0,298.61823,2368.544,0.0,0.0,0.0,0.0915542450731741,0.0,0.0,-0.13494951191847987,-0.28402281830586973,-0.30100590323196974,0.8044521039582412,0.2301891343353988,-0.08859591882998641
9029,3.0,298.49753,2412.4291,0.0,0.0,0.0,0.09156438621684634,0.0,0.0,-0.14428395687471787,-0.2777954845162797,-0.31123875652187366,0.8358073005552583,0.21696005996979079,-0.08733007561255741
9030,3.0,299.58701,2516.6396,0.0,0.0,0.0,0.09157452736051862,0.0,0.0,-0.14693585530143985,-0.2963496542524337,-0.3217100883553137,0.8396794662099112,0.2304186152180468,-0.09594164565595321
9031,3.0,299.13428,2237.1493,0.0,0.0,0.0,0.09158466850419088,0.0,0.0,-0.15714253634126085,-0.2448210534644568,-0.2780739256437597,0.8690279513813811,0.1916604512704138,-0.048305347855116657
9032,3.0,300.11197000000004,1904.9269,0.0,0.0,0.0,0.09159480964786314,0.0,0.0,-0.12034341040196987,-0.2283218562561128,-0.2303849449172238,0.8602837651383971,0.19521742521645982,-0.07461129426231143
9033,3.0,299.49326,2097.9765,0.0,0.0,0.0,0.0916049507915354,0.0,0.0,-0.15134820484940484,-0.23874081319188378,-0.24764347175050777,0.8673075844340942,0.2092941136882208,-0.053404173332581545
9034,3.0,300.39025,2480.7211,0.0,0.0,0.0,0.09161509193520766,0.0,0.0,-0.17241182018072185,-0.26759928048249276,-0.3140661701309177,0.8529633270084261,0.2238960710118218,-0.05354664034964195
9035,3.0,300.01017,2372.2798,0.0,0.0,0.0,0.09162523307887992,0.0,0.0,-0.15317976586266585,-0.26558018714072373,-0.3023538703700037,0.8421002321563221,0.20753887067249183,-0.06216241943395314
9036,3.0,300.61127,2462.5847,0.0,0.0,0.0,0.09163537422255219,0.0,0.0,-0.13698071359894387,-0.2877744679936287,-0.3238090663349667,0.8374607119359373,0.2041842326389148,-0.06968096214397553
9037,3.0,300.11149,2495.8255,0.0,0.0,0.0,0.09164551536622444,0.0,0.0,-0.2256374122361788,-0.22935109544269078,-0.3036801134258937,0.8389525808531731,0.19481888355462681,-0.03401101731487607
9038,3.0,300.62292,2467.5716,0.0,0.0,0.0,0.09165565650989671,0.0,0.0,-0.20190283924375882,-0.2629999660260757,-0.28517733573481174,0.8460423222003762,0.2187795227768578,-0.02421069009515908
9039,3.0,299.62073,2313.5839,0.0,0.0,0.0,0.09166579765356896,0.0,0.0,-0.17842562164423784,-0.24528763487050476,-0.27955846876277274,0.8282172264411762,0.2142504670823748,-0.06352330551076214
9040,3.0,299.14858,2428.7358,0.0,0.0,0.0,0.09167593879724123,0.0,0.0,-0.14589586553130088,-0.2870482108519527,-0.3053309714163207,0.8563548980081481,0.2446053730481708,-0.03424314987303577
9041,3.0,299.51217,2238.5601,0.0,0.0,0.0,0.0916860799409135,0.0,0.0,-0.12954474469257088,-0.24632768543564978,-0.3045939434260817,0.8615177213751792,0.24347880105698677,-0.07703786613179542
9042,3.0,299.3173,1984.6932,0.0,0.0,0.0,0.09169622108458575,0.0,0.0,-0.09088118588027472,-0.2257073872880848,-0.2867086099484367,0.8939240230959322,0.2032506746592798,-0.05746396554800185
9043,3.0,299.46195,2226.8409,0.0,0.0,0.0,0.09170636222825802,0.0,0.0,-0.15801819721018184,-0.27210127226680475,-0.24678454977323874,0.8489419197465442,0.17036115396583681,-0.08126830486280721
9044,3.0,300.94604,2338.2517,0.0,0.0,0.0,0.09171650337193027,0.0,0.0,-0.18679808695553582,-0.25963816431429176,-0.26433387938522274,0.8674123544944341,0.15698358779807384,-0.0925342608619205
9045,3.0,300.56824,2117.8070000000002,0.0,0.0,0.0,0.09172664451560254,0.0,0.0,-0.14503996303932987,-0.25693076004709176,-0.24178973340528875,0.8523162857595681,0.2011708268415148,-0.0894384129833841
9046,3.0,300.81153,2056.2836,0.0,0.0,0.0,0.0917367856592748,0.0,0.0,-0.13171787231454185,-0.23691705420439277,-0.25642395261207374,0.8418731121464071,0.23093107658862275,-0.1024466879932009
9047,3.0,301.10925,2330.6884,0.0,0.0,0.0,0.09174692680294706,0.0,0.0,-0.13529932638300388,-0.26285258879903073,-0.3103191611286167,0.8334353327336633,0.24950223852895376,-0.06684533816937124
9048,3.0,299.80679,2142.4599,0.0,0.0,0.0,0.09175706794661932,0.0,0.0,-0.11485441169524788,-0.26176405421660076,-0.2746358565969487,0.8085655447267062,0.2189822741218678,-0.1081915728801769
9049,3.0,299.30616000000003,2309.9561,0.0,0.0,0.0,0.09176720909029157,0.0,0.0,-0.17702484391099185,-0.2325037015388288,-0.29264041921386075,0.8590230185689711,0.22859289052536177,-0.03881198070019426
9050,3.0,300.04781,2508.284,0.0,0.0,0.0,0.09177735023396384,0.0,0.0,-0.2066098317883028,-0.2503277536504258,-0.3055180984447887,0.8567043781001393,0.20116408872834982,-0.05014448392612525
9051,3.0,299.62259,2110.3484,0.0,0.0,0.0,0.09178749137763612,0.0,0.0,-0.13734572681496787,-0.23383495005021276,-0.2703125413352707,0.8438462241986382,0.20773359707670982,-0.03023998212620387
9052,3.0,299.56171,2155.6043,0.0,0.0,0.0,0.09179763252130836,0.0,0.0,-0.12427161891965388,-0.25300917818506174,-0.27796907452341174,0.8539094087592972,0.20267325382479282,-0.05889228949846644
9053,3.0,300.16389,2537.8898,0.0,0.0,0.0,0.09180777366498064,0.0,0.0,-0.16599857526278383,-0.24032698529592678,-0.36512956753298265,0.8633358466921142,0.2251522376907958,-0.02211581679166118
9054,3.0,299.87989,2473.9923,0.0,0.0,0.0,0.09181791480865288,0.0,0.0,-0.18919807114239584,-0.24245989702142876,-0.3203739255809447,0.8664291877899032,0.19764599318864082,-0.04141894452473156
9055,3.0,299.71125,2171.1710000000003,0.0,0.0,0.0,0.09182805595232515,0.0,0.0,-0.16274927470960285,-0.24030782473653578,-0.25692468054649176,0.8428473622500582,0.19000986685751384,-0.06193560137256794
9056,3.0,299.69591,2365.4143,0.0,0.0,0.0,0.09183819709599741,0.0,0.0,-0.1886658108648658,-0.25630049821988976,-0.2740605635876717,0.8481822658815723,0.16293263244769884,-0.07792778748262383
9057,3.0,299.80294,2483.0303,0.0,0.0,0.0,0.09184833823966967,0.0,0.0,-0.18844365578044084,-0.26175263488797373,-0.3045829091324927,0.8412378245987091,0.22773438398063378,-0.07212575022375733
9058,3.0,300.03222,2255.3181,0.0,0.0,0.0,0.09185847938334193,0.0,0.0,-0.14980673733977384,-0.24783265567667875,-0.28792098395808874,0.8425513209683412,0.21568482392393482,-0.09134514702156411
9059,3.0,300.63882,2272.9589,0.0,0.0,0.0,0.0918686205270142,0.0,0.0,-0.08759010294597011,-0.27973225128742374,-0.3236003976093727,0.8241280834101091,0.25768669528419674,-0.07636109511175333
9060,3.0,300.88878,2121.831,0.0,0.0,0.0,0.09187876167068645,0.0,0.0,-0.1164474941649729,-0.23495344643809976,-0.2935827215418587,0.8135525185388822,0.23750098010452178,-0.08312752861704832
9061,3.0,300.27962,2082.6484,0.0,0.0,0.0,0.09188890281435873,0.0,0.0,-0.1159761099534509,-0.25341530909014376,-0.26368169082585674,0.8443984151056352,0.24973436399436275,-0.062344817624204435
9062,3.0,299.28222,2357.1938,0.0,0.0,0.0,0.09189904395803097,0.0,0.0,-0.17406311386869183,-0.23898585759606777,-0.3034790947385547,0.8512713209314381,0.17488496102480183,-0.07220628131520514
9063,3.0,298.82481,2573.0331,0.0,0.0,0.0,0.09190918510170325,0.0,0.0,-0.2040448195576558,-0.27277630961592575,-0.3053166947224117,0.8477866626450292,0.18720617343331084,-0.05682307574050095
9064,3.0,298.51355,2159.6406,0.0,0.0,0.0,0.0919193262453755,0.0,0.0,-0.1133450338162839,-0.25502938610194076,-0.28810238612349176,0.8626078974227712,0.16080090622481383,-0.0923261149733781
9065,3.0,299.69795,2233.405,0.0,0.0,0.0,0.09192946738904777,0.0,0.0,-0.12916292165738788,-0.26317196523055075,-0.28656447512171174,0.8329276640360603,0.2181752406822198,-0.06858319280013414
9066,3.0,299.69173,2584.5576,0.0,0.0,0.0,0.09193960853272003,0.0,0.0,-0.19718284670043182,-0.2700292568723127,-0.31842889068898467,0.8243645050559422,0.2076267093236608,-0.04917545408698946
9067,3.0,299.39164,2491.1949,0.0,0.0,0.0,0.09194974967639229,0.0,0.0,-0.2254266258178758,-0.24977840997620976,-0.2820560086692607,0.8166951035915312,0.22775433487510277,-0.04798592481409205
9068,3.0,300.18459,2164.3957,0.0,0.0,0.0,0.09195989082006455,0.0,0.0,-0.14342778080521987,-0.24811782478482278,-0.26637662198432577,0.8603935811842351,0.2450253652146208,-0.06531369310620963
9069,3.0,301.13989,2146.0076,0.0,0.0,0.0,0.0919700319637368,0.0,0.0,-0.18250413568175583,-0.19650051395059082,-0.27332808509038176,0.8403003554736882,0.24015701259165176,-0.044408665601044055
9070,3.0,300.32962000000003,2527.3315,0.0,0.0,0.0,0.09198017310740907,0.0,0.0,-0.14757636108715286,-0.26614440532640776,-0.35452491225138466,0.8750689282125792,0.1980802519164988,-0.05138236144079425
9071,3.0,300.03873,2415.8557,0.0,0.0,0.0,0.09199031425108134,0.0,0.0,-0.16858561555060483,-0.2517088945967338,-0.31406528860333066,0.8361947775259992,0.2135894125846338,-0.07853181829123701
9072,3.0,299.25081,2418.1018,0.0,0.0,0.0,0.09200045539475359,0.0,0.0,-0.15454329652223586,-0.2621379435035008,-0.3183613271723167,0.8971596650377651,0.2141757905500048,-0.056701714723023544
9073,3.0,299.28497999999996,2402.0023,0.0,0.0,0.0,0.09201059653842586,0.0,0.0,-0.16946261390965783,-0.27217471263405274,-0.2885113946588577,0.8336247801048602,0.2413532860572148,-0.04363414330410466
9074,3.0,299.98879,2136.5632,0.0,0.0,0.0,0.0920207376820981,0.0,0.0,-0.14205220260196086,-0.2683558540671608,-0.23905380614777377,0.8353615921012701,0.1922619570597778,-0.07184689163723613
9075,3.0,299.973,2315.8722,0.0,0.0,0.0,0.09203087882577038,0.0,0.0,-0.17634821575921383,-0.26816624457594773,-0.25945287126850475,0.8254583895989002,0.2106847893179698,-0.09291728155872171
9076,3.0,300.91693,2394.8073,0.0,0.0,0.0,0.09204101996944264,0.0,0.0,-0.1344297044846789,-0.2922499632878257,-0.3012819632217147,0.8802315185320871,0.19755832678998883,-0.11568367584208987
9077,3.0,301.27814,2008.7866,0.0,0.0,0.0,0.0920511611131149,0.0,0.0,-0.1002763123585015,-0.25213842144662474,-0.25820621900796975,0.8446540885033682,0.2213294781110188,-0.1058248638266009
9078,3.0,301.02687000000003,2088.0683,0.0,0.0,0.0,0.09206130225678716,0.0,0.0,-0.14965751599754684,-0.23663498564155475,-0.24842810223044476,0.8477765200115281,0.19840598142614582,-0.0914864295492576
9079,3.0,301.25671,2516.7999,0.0,0.0,0.0,0.09207144340045942,0.0,0.0,-0.19656516943947183,-0.2727291732212737,-0.29574998244575074,0.8280336964505632,0.23968303445987377,-0.05942012592605985
9080,3.0,300.3015,2397.3313,0.0,0.0,0.0,0.09208158454413168,0.0,0.0,-0.19498985937650082,-0.24030479511873679,-0.2934341892096997,0.8549382325133342,0.24187287057599377,-0.05575012494460895
9081,3.0,299.50226000000004,2260.3834,0.0,0.0,0.0,0.09209172568780395,0.0,0.0,-0.13304694233821085,-0.25816731020412975,-0.2958858592841607,0.8607819700800662,0.24596460752731675,-0.04598885547649666
9082,3.0,299.70731,2510.0111,0.0,0.0,0.0,0.0921018668314762,0.0,0.0,-0.15541872434363385,-0.2791207447195727,-0.3284412202271247,0.8442132639148623,0.17746343934927783,-0.05329551847135815
9083,3.0,299.65549,2519.3011,0.0,0.0,0.0,0.09211200797514847,0.0,0.0,-0.18827850614664182,-0.25853848398076174,-0.3189876474566297,0.8565705480269311,0.17809238395134983,-0.04782466302092676
9084,3.0,300.38433,2442.3926,0.0,0.0,0.0,0.09212214911882072,0.0,0.0,-0.18235536016957282,-0.26531247633180277,-0.29475851722290075,0.8602655469015992,0.18783728639059682,-0.06752610950080815
9085,3.0,300.22536,2404.3389,0.0,0.0,0.0,0.09213229026249299,0.0,0.0,-0.17750717122359383,-0.26208232620551175,-0.2912695019610617,0.8778634821208803,0.21233641737847278,-0.014102455421803986
9086,3.0,299.51606,2201.3633,0.0,0.0,0.0,0.09214243140616526,0.0,0.0,-0.16094710808174284,-0.2307980368504928,-0.27741433022616274,0.8554946081432443,0.19769130573311283,-0.05308577671390825
9087,3.0,300.20274,2169.0341,0.0,0.0,0.0,0.09215257254983751,0.0,0.0,-0.13260684728977687,-0.24698244765026978,-0.27974291067847573,0.8519410691150372,0.22822951877449976,-0.05958352365043594
9088,3.0,300.77367000000004,2501.5436,0.0,0.0,0.0,0.09216271369350978,0.0,0.0,-0.17191422318911284,-0.27090706583144575,-0.3175855119682497,0.8365411266751812,0.2127768974619448,-0.10212013775097291
9089,3.0,300.29408,2642.7646,0.0,0.0,0.0,0.09217285483718203,0.0,0.0,-0.18778942045587282,-0.26498804378228374,-0.35055699446228167,0.8539962442928671,0.21394685682241082,-0.05119672996947385
9090,3.0,300.49977,2318.4434,0.0,0.0,0.0,0.0921829959808543,0.0,0.0,-0.1356550683606129,-0.27500861104373675,-0.2940852226639517,0.8400311146571162,0.17929120067466384,-0.1021900621403739
9091,3.0,300.58732000000003,2246.1235,0.0,0.0,0.0,0.09219313712452656,0.0,0.0,-0.13571551886157887,-0.2620874025885127,-0.28496254697861373,0.8506138026765461,0.21781723915688778,-0.05163614006084025
9092,3.0,301.25821,2472.3813,0.0,0.0,0.0,0.09220327826819881,0.0,0.0,-0.16019835678784683,-0.26948420937852074,-0.3218596035400697,0.8327882610873021,0.24118757913586078,-0.05970548248547235
9093,3.0,299.76839,2366.7608,0.0,0.0,0.0,0.09221341941187108,0.0,0.0,-0.13919966039043685,-0.26823126483486476,-0.3120052599575217,0.8375030049951113,0.23674568321497977,-0.04539059107420255
9094,3.0,299.29695,2144.3083,0.0,0.0,0.0,0.09222356055554333,0.0,0.0,-0.12152277272336387,-0.24442871289323578,-0.2858647043376497,0.8306509822538691,0.2037030097689218,-0.07070915768295054
9095,3.0,300.31537000000003,2386.5551,0.0,0.0,0.0,0.0922337016992156,0.0,0.0,-0.16989380248971284,-0.29083817152599273,-0.26472118410344675,0.8543765677179023,0.18906317715658283,-0.08975132589251622
9096,3.0,300.40835,2351.8652,0.0,0.0,0.0,0.09224384284288788,0.0,0.0,-0.17439210604366082,-0.25008911298687375,-0.29042707569542076,0.8657417583920591,0.19471816649468682,-0.08535921398879852
9097,3.0,300.08628999999996,2331.4039,0.0,0.0,0.0,0.09225398398656012,0.0,0.0,-0.17566077622886883,-0.2508829133802158,-0.28214489096803275,0.8777798383251252,0.19714080695378283,-0.06716616152203403
9098,3.0,299.56747,2448.8079,0.0,0.0,0.0,0.0922641251302324,0.0,0.0,-0.17438105148506983,-0.24919016763065477,-0.32080524588351267,0.8588036093923171,0.20171705983792382,-0.05377744656342075
9099,3.0,299.27513999999996,2382.8682,0.0,0.0,0.0,0.09227426627390464,0.0,0.0,-0.13997979203992986,-0.26106751570035774,-0.3232851045757557,0.8855672935586871,0.2158360515013598,-0.06024512530323094
9100,3.0,301.15992,2317.1868,0.0,0.0,0.0,0.09228440741757692,0.0,0.0,-0.14603240098227585,-0.24893092759256977,-0.30940360860325866,0.8676391401318161,0.24288562418344478,-0.04524449966153446
9101,3.0,300.75417999999996,2468.8104,0.0,0.0,0.0,0.09229454856124916,0.0,0.0,-0.1970413665889688,-0.2655391809091767,-0.2878761577736647,0.8611740978687662,0.2163740467744558,-0.04092617769634926
9102,3.0,300.2228,2471.1847,0.0,0.0,0.0,0.09230468970492144,0.0,0.0,-0.19249430544020882,-0.25689228694079475,-0.3017918509370367,0.8220308380881272,0.1986516439128908,-0.04837696538543475
9103,3.0,300.41286,2219.14,0.0,0.0,0.0,0.09231483084859368,0.0,0.0,-0.15485236820023884,-0.2705736761510427,-0.24913709359041677,0.8367000144233623,0.2098603381091028,-0.07534173815340063
9104,3.0,300.30473,2293.5544,0.0,0.0,0.0,0.09232497199226596,0.0,0.0,-0.13863656691236387,-0.28011324345752475,-0.2784334470442417,0.8544788553154973,0.24272274422986978,-0.06617699029741043
9105,3.0,300.04907000000003,2481.7035,0.0,0.0,0.0,0.09233511313593822,0.0,0.0,-0.16497775618453683,-0.26809370600128873,-0.3213044134127767,0.8415855517680272,0.2137873915216728,-0.06468498357816084
9106,3.0,300.55105,2604.3181,0.0,0.0,0.0,0.09234525427961048,0.0,0.0,-0.17052205808171686,-0.3169399601970387,-0.3041856644307877,0.8384804468365773,0.1996064092171188,-0.08159932455122633
9107,3.0,299.49719,2375.2394,0.0,0.0,0.0,0.09235539542328274,0.0,0.0,-0.17377611077786684,-0.27870772371381075,-0.26952963338050373,0.8771953348724392,0.17426379818349783,-0.10636321373723188
9108,3.0,300.65963,2375.6968,0.0,0.0,0.0,0.092365536566955,0.0,0.0,-0.15688639684848185,-0.2870391422635577,-0.27822696693886373,0.8994158183729303,0.2074248901687428,-0.08251212407606262
9109,3.0,299.78463999999997,2215.1182,0.0,0.0,0.0,0.09237567771062725,0.0,0.0,-0.14365337080748386,-0.2520981143576468,-0.27758912600091373,0.8943101727090421,0.18970033921696583,-0.07459325739728133
9110,3.0,298.87227,2159.0137,0.0,0.0,0.0,0.0923858188542995,0.0,0.0,-0.1176882391774249,-0.22648175354450878,-0.31211626150597666,0.8609517705318243,0.2278344322955078,-0.040803335307225665
9111,3.0,298.79147,2316.9242,0.0,0.0,0.0,0.09239595999797177,0.0,0.0,-0.12010117270056288,-0.28771062310482776,-0.29647531752983575,0.8373625989287542,0.22997313981158177,-0.09142451692839731
9112,3.0,298.81402,2271.0913,0.0,0.0,0.0,0.09240610114164402,0.0,0.0,-0.14918095407801388,-0.2445010386853738,-0.29667305328685073,0.8491840662554422,0.24400675502159178,-0.024526886947865274
9113,3.0,297.92641000000003,2259.1929,0.0,0.0,0.0,0.0924162422853163,0.0,0.0,-0.16790994998642184,-0.26567307177739075,-0.25315521792197476,0.8440786739040793,0.2248481512032848,-0.06771392857909443
9114,3.0,299.02299,2583.6376,0.0,0.0,0.0,0.09242638342898854,0.0,0.0,-0.2245172541181278,-0.2554412520025887,-0.3054028311134127,0.8275344782587942,0.20357156083344882,-0.04082142080826056
9115,3.0,299.3526,2504.8774,0.0,0.0,0.0,0.09243652457266081,0.0,0.0,-0.19510604876546783,-0.26714191965235473,-0.2991722143934987,0.8544491265575632,0.1866009287510778,-0.09177571751905811
9116,3.0,299.70849,2190.1899,0.0,0.0,0.0,0.09244666571633309,0.0,0.0,-0.1326541255394429,-0.2521561938533788,-0.28095273129787574,0.8708294188666721,0.22141880623983476,-0.05221917126113095
9117,3.0,300.28477000000004,2175.0651,0.0,0.0,0.0,0.09245680686000533,0.0,0.0,-0.11771730932279388,-0.24530299574202077,-0.2981451739596377,0.9160898417535281,0.20142865846196079,-0.05686678734981494
9118,3.0,299.17315,2251.4267,0.0,0.0,0.0,0.09246694800367761,0.0,0.0,-0.16551439370249885,-0.2295875170885238,-0.2892755980167787,0.8457644282279502,0.20221430219199782,-0.028983319967930972
9119,3.0,299.68824,2160.9014,0.0,0.0,0.0,0.09247708914734985,0.0,0.0,-0.13816489899081388,-0.26055640195241475,-0.2581387770813138,0.8700879021784901,0.2182742352169898,-0.08169363888378443
9120,3.0,300.16586,2204.2877,0.0,0.0,0.0,0.09248723029102213,0.0,0.0,-0.14651456617486186,-0.2558734740977458,-0.2676603895960238,0.8424534511411822,0.2356411798109738,-0.07140311950418923
9121,3.0,300.04495,2326.4139,0.0,0.0,0.0,0.09249737143469439,0.0,0.0,-0.14979025176064684,-0.2612047604264027,-0.2961767228578667,0.8809233454353651,0.2008686959266968,-0.06449590806975053
9122,3.0,299.44511,2459.8432,0.0,0.0,0.0,0.09250751257836665,0.0,0.0,-0.13818483975278187,-0.27703846510156777,-0.33250760566094567,0.8286280790917242,0.19847336255779582,-0.08537019458013223
9123,3.0,301.65687,2598.9172,0.0,0.0,0.0,0.0925176537220389,0.0,0.0,-0.15750387145942185,-0.3021270644676197,-0.3303750080429747,0.8536397727751862,0.18744459118184081,-0.08080884964471252
9124,3.0,301.01968999999997,2455.1493,0.0,0.0,0.0,0.09252779486571117,0.0,0.0,-0.15384213758553686,-0.29800132284294073,-0.2944606318260017,0.8208807890921263,0.2275282787777928,-0.09022273644854083
9125,3.0,301.31678,2226.5121,0.0,0.0,0.0,0.09253793600938343,0.0,0.0,-0.14033949582542984,-0.2642970274790858,-0.2721675692208477,0.8700224158245271,0.2065716626570358,-0.054507672605738446
9126,3.0,300.92062000000004,2205.3787,0.0,0.0,0.0,0.0925480771530557,0.0,0.0,-0.16626940688201283,-0.23889853570244976,-0.26521212404189876,0.8429103256112722,0.23246155033466878,-0.07835055696759793
9127,3.0,300.02595,2408.4641,0.0,0.0,0.0,0.09255821829672795,0.0,0.0,-0.17532273573050683,-0.2670435432001457,-0.2897466579882687,0.8647762019742662,0.2105174206664518,-0.059035859944885735
9128,3.0,299.53227999999996,2347.0503,0.0,0.0,0.0,0.09256835944040022,0.0,0.0,-0.14214384094100488,-0.2472801607946518,-0.3240206937508527,0.8414736990894881,0.2360905866278268,-0.05759577824026074
9129,3.0,300.60692,2311.1415,0.0,0.0,0.0,0.09257850058407247,0.0,0.0,-0.12442050588934789,-0.25872864062702877,-0.3193801501478667,0.8732297678235682,0.19174219015598082,-0.04596467730261046
9130,3.0,299.60549,2371.569,0.0,0.0,0.0,0.09258864172774474,0.0,0.0,-0.17253875002074884,-0.2316878122933068,-0.31667119560801366,0.8529388671510122,0.19391680725559882,-0.02973618505723297
9131,3.0,300.19871,2680.3759999999997,0.0,0.0,0.0,0.092598782871417,0.0,0.0,-0.19329871456209782,-0.2960096683138797,-0.32545900226780267,0.8731508761707821,0.1915759664770758,-0.04773527511035486
9132,3.0,300.05336,2521.8857,0.0,0.0,0.0,0.09260892401508926,0.0,0.0,-0.2133170610902548,-0.2667153514927557,-0.2865578788635607,0.8433714759967842,0.23888004388812478,-0.061081864196060646
9133,3.0,299.33912999999995,2375.6135,0.0,0.0,0.0,0.09261906515876152,0.0,0.0,-0.15462519752781884,-0.2710007712006937,-0.2965012162023917,0.8683734728767892,0.22217573446203776,-0.06837353716894273
9134,3.0,300.40745,2326.9076,0.0,0.0,0.0,0.09262920630243378,0.0,0.0,-0.17396259945877182,-0.25875638341476676,-0.27460281451118773,0.8496101683199951,0.21409042422907978,-0.05940495149256224
9135,3.0,301.13587,2207.5984,0.0,0.0,0.0,0.09263934744610604,0.0,0.0,-0.15088974970915886,-0.24666886700932178,-0.2734961832819717,0.8799598864452792,0.1920372181875978,-0.0902863857800725
9136,3.0,300.59422,2265.0223,0.0,0.0,0.0,0.09264948858977831,0.0,0.0,-0.17304829323103682,-0.25452511179217274,-0.26093681656995876,0.8602499327175582,0.21089241439596082,-0.06819558512013023
9137,3.0,300.68315,2324.8075,0.0,0.0,0.0,0.09265962973345056,0.0,0.0,-0.14786716386585286,-0.2546001429620778,-0.30421612272879367,0.8570992011341051,0.1909377202390858,-0.05069191255765225
9138,3.0,300.40426,2304.1509,0.0,0.0,0.0,0.09266977087712283,0.0,0.0,-0.14351806138912984,-0.25374761459293976,-0.30313866296995673,0.8511572796326833,0.20286604492131982,-0.05066172986367345
9139,3.0,300.36135,2347.7662,0.0,0.0,0.0,0.09267991202079508,0.0,0.0,-0.11947701063896289,-0.2862331423390117,-0.3079521582325117,0.8641908372589953,0.2118693901423808,-0.06385751693699623
9140,3.0,299.95807,2488.0325,0.0,0.0,0.0,0.09269005316446735,0.0,0.0,-0.14541348755619388,-0.28558703328024576,-0.3252992431245357,0.8656481543478212,0.23067941566128577,-0.061075756324457844
9141,3.0,298.99505,2455.9476,0.0,0.0,0.0,0.09270019430813961,0.0,0.0,-0.15962910274916586,-0.28701779308395076,-0.2998998596878117,0.8660290249279102,0.20187480261349183,-0.07206681757144114
9142,3.0,298.85437,2392.6214,0.0,0.0,0.0,0.09271033545181187,0.0,0.0,-0.16944671601558883,-0.28043599401187774,-0.27741444168367374,0.8594367285848011,0.2139159121643568,-0.07212593362202543
9143,3.0,300.72028,2339.5816,0.0,0.0,0.0,0.09272047659548413,0.0,0.0,-0.18889185682967483,-0.26853492575733373,-0.25374759432793775,0.8732705308750912,0.20626345224161782,-0.09636768287249982
9144,3.0,299.96446000000003,2329.6659,0.0,0.0,0.0,0.09273061773915639,0.0,0.0,-0.17049249144379883,-0.26266538071055473,-0.27500237955562173,0.8806546416413462,0.2434951447810998,-0.07372149551474513
9145,3.0,300.43681000000004,2205.1194,0.0,0.0,0.0,0.09274075888282865,0.0,0.0,-0.12040484375553288,-0.26573715984621576,-0.2841592422993337,0.8552999729315351,0.2135166105649488,-0.06380000283482004
9146,3.0,300.80203,2419.4153,0.0,0.0,0.0,0.09275090002650092,0.0,0.0,-0.16415881705621385,-0.2507607964781638,-0.3205222451305827,0.8434095235380392,0.2052551771996088,-0.035868284483174064
9147,3.0,300.50608,2447.3332,0.0,0.0,0.0,0.09276104117017317,0.0,0.0,-0.17220437748774883,-0.25569272041240676,-0.3160310748573387,0.8308692667229123,0.19195116285660482,-0.07137125177529413
9148,3.0,299.71367000000004,2208.4770000000003,0.0,0.0,0.0,0.09277118231384544,0.0,0.0,-0.16256561299647684,-0.23831168150953178,-0.27044457795580173,0.8582678331369402,0.1978653213052868,-0.04889478380928945
9149,3.0,300.05369,2333.2175,0.0,0.0,0.0,0.09278132345751769,0.0,0.0,-0.15661765252445883,-0.25628599861095874,-0.2963361982911057,0.8357869443607493,0.20736490576282282,-0.07589189040119643
9150,3.0,299.02684,2612.4805,0.0,0.0,0.0,0.09279146460118996,0.0,0.0,-0.20238970591680883,-0.26333897924453376,-0.3284001430680707,0.8539758171708511,0.19531159668075382,-0.047953334637875655
9151,3.0,299.17577,2580.9141,0.0,0.0,0.0,0.09280160574486224,0.0,0.0,-0.16051649705424487,-0.2860381727547698,-0.3379787610334067,0.8681518852124201,0.23614177602287875,-0.07688646022235283
9152,3.0,298.98157000000003,2378.3652,0.0,0.0,0.0,0.09281174688853448,0.0,0.0,-0.14258732024477286,-0.28213649112470374,-0.2982398115189777,0.8691463496555661,0.23371355255573176,-0.04740020140828566
9153,3.0,298.59809,2236.4855,0.0,0.0,0.0,0.09282188803220674,0.0,0.0,-0.13858934945770388,-0.25824491502928876,-0.28300150273507374,0.8994665619379382,0.20801198754168482,-0.06152333929113084
9154,3.0,299.10115,2304.4701,0.0,0.0,0.0,0.092832029175879,0.0,0.0,-0.16124321015846585,-0.25604519972469375,-0.28321295789844275,0.8486823656009281,0.19858958234426582,-0.06479469728573874
9155,3.0,300.39067,2354.8774,0.0,0.0,0.0,0.09284217031955126,0.0,0.0,-0.17333330021916485,-0.26997261619172275,-0.27251802203293474,0.8527232880597362,0.2274400753565878,-0.10714277796666889
9156,3.0,299.91834,2192.9011,0.0,0.0,0.0,0.09285231146322354,0.0,0.0,-0.15604142732508985,-0.23526717906656278,-0.27527857126787975,0.8442090893244503,0.23505805437842378,-0.07828992408161392
9157,3.0,300.22612000000004,1930.6470000000002,0.0,0.0,0.0,0.09286245260689578,0.0,0.0,-0.0938604745335576,-0.2373199021791508,-0.25568811012445175,0.8141518762380342,0.2581720623470987,-0.07006662843678783
9158,3.0,300.63752,2148.9793,0.0,0.0,0.0,0.09287259375056806,0.0,0.0,-0.1172367957278709,-0.24362423284383977,-0.29237502874766874,0.8250810653941612,0.2316790071499378,-0.055460247263250245
9159,3.0,300.23674,2729.7243,0.0,0.0,0.0,0.0928827348942403,0.0,0.0,-0.18996801962838383,-0.3008135984954907,-0.33898641799285467,0.8304898856204702,0.22373984811140382,-0.061664521507064446
9160,3.0,299.62404,2709.1136,0.0,0.0,0.0,0.09289287603791258,0.0,0.0,-0.1967647290466668,-0.29578026849123973,-0.3309578801629997,0.8613852591896062,0.1907226781703628,-0.07230872596656564
9161,3.0,300.88477,2321.9508,0.0,0.0,0.0,0.09290301718158485,0.0,0.0,-0.13392765932513087,-0.26888595612197774,-0.3030014587739157,0.8773951680571612,0.16036220946151786,-0.04512724230696205
9162,3.0,299.83223,2176.8387,0.0,0.0,0.0,0.0929131583252571,0.0,0.0,-0.14066799150784987,-0.24741092072005677,-0.27362568677725274,0.8843657917226081,0.16741726725779785,-0.06528683893880935
9163,3.0,299.49557000000004,2589.9026,0.0,0.0,0.0,0.09292329946892937,0.0,0.0,-0.16846962881165783,-0.2917646570199297,-0.3270314448329907,0.8825424279026561,0.2027373520261188,-0.05265989655112715
9164,3.0,298.79629,2431.0474,0.0,0.0,0.0,0.09293344061260161,0.0,0.0,-0.19891425807380883,-0.25613356526591474,-0.2839298931391987,0.8827036157285642,0.21444874999444377,-0.05501237349379855
9165,3.0,298.83428,2022.295,0.0,0.0,0.0,0.09294358175627389,0.0,0.0,-0.13131977648275286,-0.23858415459392276,-0.24482325221717377,0.8398198216137631,0.24013898687237276,-0.07254288401167523
9166,3.0,299.68055,2051.5591,0.0,0.0,0.0,0.09295372289994615,0.0,0.0,-0.15898791808588586,-0.2204958265912438,-0.24413900442464376,0.8380119706528422,0.2146833680550988,-0.07701776021006113
9167,3.0,299.86663,2514.7967,0.0,0.0,0.0,0.09296386404361841,0.0,0.0,-0.17481141933254385,-0.29057813102032876,-0.2990458418410267,0.8095281019242032,0.23297760874309978,-0.08327035635114433
9168,3.0,298.67021,2719.9781,0.0,0.0,0.0,0.09297400518729067,0.0,0.0,-0.2182680645238808,-0.29635959423591474,-0.3121777556545457,0.8123700354071802,0.2086345182706238,-0.07264123411938163
9169,3.0,300.55838,2688.032,0.0,0.0,0.0,0.09298414633096293,0.0,0.0,-0.17967505021004682,-0.2736617584808127,-0.3637577991500997,0.8350500582255241,0.21236775720406578,-0.04889947009100195
9170,3.0,299.85317000000003,2279.2842,0.0,0.0,0.0,0.09299428747463519,0.0,0.0,-0.14334198891925287,-0.25236918915689976,-0.2971343049973727,0.8489480397771483,0.18468144802663983,-0.04447433332677496
9171,3.0,300.02705,2126.172,0.0,0.0,0.0,0.09300442861830746,0.0,0.0,-0.11331410942323189,-0.24409039881734676,-0.2888986791120797,0.8797126635533803,0.2129905513780308,-0.08408655869094722
9172,3.0,300.28963,2611.1768,0.0,0.0,0.0,0.0930145697619797,0.0,0.0,-0.18294891194565183,-0.2849282687277307,-0.32585536544192073,0.9009148813658762,0.19820868136667383,-0.054456608853698844
9173,3.0,299.2655,2464.7767,0.0,0.0,0.0,0.09302471090565198,0.0,0.0,-0.15948927423536585,-0.28717606274957075,-0.30256523434086374,0.8793862855636692,0.2122951679669018,-0.06943079474728593
9174,3.0,299.86584,2032.869,0.0,0.0,0.0,0.09303485204932423,0.0,0.0,-0.12076847895142089,-0.23246547161255576,-0.2647074646970927,0.8837752189018231,0.19352807385473383,-0.07272726513237222
9175,3.0,299.81928999999997,1972.4738,0.0,0.0,0.0,0.0930449931929965,0.0,0.0,-0.13382894850038887,-0.2318781918545958,-0.2338756421742288,0.8402653071527293,0.23442474266842075,-0.1010909309883981
9176,3.0,299.63604,2331.8618,0.0,0.0,0.0,0.09305513433666876,0.0,0.0,-0.15870009426247983,-0.2657567054406447,-0.28437098117273074,0.8602917495491853,0.2167889017628988,-0.06350215594142485
9177,3.0,300.2671,2612.3693,0.0,0.0,0.0,0.09306527548034102,0.0,0.0,-0.1906380616545118,-0.26778141218796775,-0.3356755523635977,0.8122993105502002,0.24231842704246678,-0.08403674731603121
9178,3.0,300.65946,2644.2419,0.0,0.0,0.0,0.09307541662401328,0.0,0.0,-0.2045013799202148,-0.2825749345754747,-0.3167071963840667,0.8325040748317553,0.2081843008536908,-0.05882030314511195
9179,3.0,299.42701,2539.4212,0.0,0.0,0.0,0.09308555776768554,0.0,0.0,-0.18024446636874383,-0.27179307198388775,-0.3198831072325047,0.8378647150158092,0.21698805607005378,-0.06814363984050364
9180,3.0,301.25137,2280.1939,0.0,0.0,0.0,0.0930956989113578,0.0,0.0,-0.14537445716234187,-0.22400234068230981,-0.3237452113136647,0.8661680935041352,0.2000556741789578,-0.03567939439953207
9181,3.0,300.59577,2283.7574,0.0,0.0,0.0,0.09310584005503007,0.0,0.0,-0.15257626397060486,-0.2523604752060397,-0.2892684951335778,0.8589730653390413,0.21939296465239977,-0.04255782953113076
9182,3.0,299.84455,2614.7527,0.0,0.0,0.0,0.09311598119870232,0.0,0.0,-0.18097764400860283,-0.26843060152703774,-0.3454112950219407,0.8745478744811551,0.1919990591888318,-0.02861546762512677
9183,3.0,299.68962999999997,2321.112,0.0,0.0,0.0,0.09312612234237459,0.0,0.0,-0.17490240919152383,-0.24999256038484477,-0.28066511012448975,0.8454359730755342,0.20941431554758383,-0.07655749743163673
9184,3.0,299.03967,1884.4439,0.0,0.0,0.0,0.09313626348604684,0.0,0.0,-0.09893841591321141,-0.23646377677215777,-0.23742171354919875,0.8824748643859882,0.1976359924101538,-0.08113554376845472
9185,3.0,299.99234,2047.1574,0.0,0.0,0.0,0.09314640462971911,0.0,0.0,-0.12007500045047989,-0.22899524200757077,-0.2732144997541717,0.8322252790667403,0.23446235451213276,-0.09368740229722672
9186,3.0,300.00571,2475.5651,0.0,0.0,0.0,0.09315654577339137,0.0,0.0,-0.15015917612205684,-0.2901403867121267,-0.3122104025727677,0.8883121272845811,0.18927712491519783,-0.09427556763577409
9187,3.0,299.17147,2416.0593,0.0,0.0,0.0,0.09316668691706363,0.0,0.0,-0.16447761593517685,-0.26930461079829576,-0.3006394613333047,0.8609296006196362,0.1982614109018778,-0.1011941416568342
9188,3.0,299.25857,2265.578,0.0,0.0,0.0,0.09317682806073589,0.0,0.0,-0.13048165653003688,-0.26519870861057476,-0.2929987855092287,0.8806808645539341,0.2121641547289718,-0.08788247930207542
9189,3.0,300.20846,2227.1139,0.0,0.0,0.0,0.09318696920440815,0.0,0.0,-0.13376644110171987,-0.25615271569280473,-0.2870678476388907,0.8413395346437471,0.2372433612665968,-0.04849105734669475
9190,3.0,301.26546,2300.1455,0.0,0.0,0.0,0.09319711034808041,0.0,0.0,-0.15392932775664184,-0.24899712322160275,-0.2962603463886197,0.8320963024615112,0.2239167514463628,-0.03668384442241356
9191,3.0,300.38194,2571.9758,0.0,0.0,0.0,0.09320725149175269,0.0,0.0,-0.14990737333970586,-0.2935878688523667,-0.3383211889047017,0.8014179974612983,0.25057522985484976,-0.03581576469074076
9192,3.0,299.62171,2392.4708,0.0,0.0,0.0,0.09321739263542493,0.0,0.0,-0.17319095884511684,-0.24090302811027775,-0.3131573962487287,0.8376660673337043,0.2108951907012348,-0.04538868008451395
9193,3.0,300.01817,2187.6693,0.0,0.0,0.0,0.0932275337790972,0.0,0.0,-0.1253380950474069,-0.23508892810897078,-0.3045698280737017,0.8541612723366541,0.22026878764133678,-0.03967626378374236
9194,3.0,301.24127000000004,2360.0762,0.0,0.0,0.0,0.09323767492276945,0.0,0.0,-0.16944723277313983,-0.28061664637220674,-0.2673403646844398,0.8706308319795731,0.18886816704233683,-0.09124542902622272
9195,3.0,299.47007,2674.3706,0.0,0.0,0.0,0.09324781606644172,0.0,0.0,-0.2068528699572888,-0.2818143890504147,-0.3242746446234157,0.9122001367396442,0.20523670565028582,-0.060543230575401646
9196,3.0,299.8514,2586.2052,0.0,0.0,0.0,0.09325795721011398,0.0,0.0,-0.2242585612350968,-0.26466152393755876,-0.29722171808349973,0.8966877336711893,0.18457103416324283,-0.09044416807239442
9197,3.0,298.92959,2262.3091,0.0,0.0,0.0,0.09326809835378624,0.0,0.0,-0.12664038487093288,-0.26556919337713875,-0.2954759084262017,0.906726691421957,0.22601736075867676,-0.05107329584229186
9198,3.0,299.61789,2185.7002,0.0,0.0,0.0,0.0932782394974585,0.0,0.0,-0.16262587097992384,-0.21760794221623178,-0.28416447066984973,0.8536079263245432,0.19272256029023582,-0.06775137121003973
9199,3.0,299.9689,2532.3368,0.0,0.0,0.0,0.09328838064113076,0.0,0.0,-0.15995801386412686,-0.2850251860997957,-0.3247839345211787,0.8360984681039941,0.1961122871747758,-0.03425327528128507
9200,3.0,300.12875,2507.6448,0.0,0.0,0.0,0.09329852178480302,0.0,0.0,-0.18414397964359583,-0.2892487266241267,-0.2888686970416207,0.8201242053749572,0.20194602396302083,-0.06824709470221385
9201,3.0,300.33667,2497.9274,0.0,0.0,0.0,0.0933086629284753,0.0,0.0,-0.15616686768746985,-0.2715567820605677,-0.3315839066047837,0.8224118302582283,0.23958376634757678,-0.03110107955143757
9202,3.0,301.49575,2467.4903,0.0,0.0,0.0,0.09331880407214754,0.0,0.0,-0.14325501153066886,-0.3235883399331827,-0.2832120865033567,0.8320233281893092,0.25415182032283173,-0.09963552792901101
9203,3.0,300.30085,2115.0749,0.0,0.0,0.0,0.09332894521581982,0.0,0.0,-0.09578562236580491,-0.25192894212095074,-0.2952154018254917,0.8516494760012592,0.2582550880602928,-0.07581700412605573
9204,3.0,300.12494,2160.7338,0.0,0.0,0.0,0.09333908635949206,0.0,0.0,-0.13146648496473187,-0.27230637435204674,-0.25303624209523273,0.8939908773375301,0.2228326548993708,-0.12037329114741889
9205,3.0,300.84482,2452.0516,0.0,0.0,0.0,0.09334922750316434,0.0,0.0,-0.16572802735358286,-0.27607612068659176,-0.3035583106313727,0.9170035501637043,0.19543553743298583,-0.08539944204426872
9206,3.0,298.98872,2092.0803,0.0,0.0,0.0,0.09335936864683658,0.0,0.0,-0.14711646713176485,-0.25598974454672074,-0.23283395014392175,0.9088135104004101,0.16683717144304683,-0.12465528607001888
9207,3.0,299.43497,2174.8564,0.0,0.0,0.0,0.09336950979050886,0.0,0.0,-0.1294460642653319,-0.2670875689169907,-0.26456839612086774,0.8817650320284331,0.17310714279684483,-0.08595753209334792
9208,3.0,299.13768999999996,2483.3886,0.0,0.0,0.0,0.09337965093418113,0.0,0.0,-0.16910986101984385,-0.26739518151484976,-0.3183830715194627,0.8487520062803011,0.2257588198631608,-0.06479816665408114
9209,3.0,299.71494,2684.2233,0.0,0.0,0.0,0.09338979207785338,0.0,0.0,-0.18688245015886182,-0.2717738303644887,-0.35728058775334864,0.8431832039957032,0.24354678000619576,-0.015427568703832486
9210,3.0,300.23393,2637.0198,0.0,0.0,0.0,0.09339993322152565,0.0,0.0,-0.17359951141793784,-0.3020724097572257,-0.3259162415079287,0.8321427701110973,0.23949768061908078,-0.03943027300396496
9211,3.0,300.67501,2463.4366,0.0,0.0,0.0,0.0934100743651979,0.0,0.0,-0.18117544056062382,-0.25121107469010273,-0.3164366788723687,0.8314598902062023,0.23471322510439174,-0.026531140228669675
9212,3.0,299.60738,2468.5458,0.0,0.0,0.0,0.09342021550887017,0.0,0.0,-0.1851923084620578,-0.26537476081544975,-0.2998092244663667,0.868539260858151,0.2165023850321218,-0.046221902999496654
9213,3.0,301.08162000000004,2524.6119,0.0,0.0,0.0,0.09343035665254242,0.0,0.0,-0.2024761057528358,-0.25157069741559474,-0.3133721850049267,0.8817841013953152,0.19840482632103182,-0.05456392014528964
9214,3.0,300.70189,2375.141,0.0,0.0,0.0,0.09344049779621467,0.0,0.0,-0.13884525590295987,-0.26800717444274874,-0.31513111625101975,0.8723381583980732,0.2207817049744578,-0.06795230377112023
9215,3.0,299.60524,2204.7057,0.0,0.0,0.0,0.09345063893988693,0.0,0.0,-0.13979302978149785,-0.26146902618498374,-0.26891341519968776,0.8528818110378813,0.2034136964678688,-0.06866743238694793
9216,3.0,298.44127000000003,2185.1147,0.0,0.0,0.0,0.0934607800835592,0.0,0.0,-0.12760565757869788,-0.23923663699581776,-0.2973780220439257,0.8630970439085461,0.24215582066641878,-0.07941677471657542
9217,3.0,298.44067,2359.8197,0.0,0.0,0.0,0.09347092122723147,0.0,0.0,-0.17802445566464584,-0.2501489758027818,-0.28915282250216173,0.8612406278703321,0.2163650491135678,-0.06817738309533383
9218,3.0,299.70376,2601.8043,0.0,0.0,0.0,0.09348106237090371,0.0,0.0,-0.18555753446060283,-0.2929795033598257,-0.3123464921936987,0.8893820484626741,0.2071593679800378,-0.09081624972111602
9219,3.0,299.6095,2439.375,0.0,0.0,0.0,0.09349120351457599,0.0,0.0,-0.16451996978935685,-0.2734458754145067,-0.3035432537348867,0.8736632666138512,0.2022985032753078,-0.07355196256101353
9220,3.0,300.69977,2343.0278,0.0,0.0,0.0,0.09350134465824823,0.0,0.0,-0.12675693902993587,-0.28385754708205874,-0.3016074495513377,0.8629926994132482,0.2223496081791978,-0.07055803244378563
9221,3.0,300.32285,2505.2225,0.0,0.0,0.0,0.09351148580192051,0.0,0.0,-0.15026143332214886,-0.2768704378374848,-0.33439321343454065,0.8414015759473702,0.1991985355218648,-0.04504872859646336
9222,3.0,300.2907,2479.7369,0.0,0.0,0.0,0.09352162694559275,0.0,0.0,-0.15100777308080685,-0.2962018413278457,-0.3065684841609537,0.8247366718176723,0.23412992741932476,-0.08169631589054863
9223,3.0,300.7627,2308.6847,0.0,0.0,0.0,0.09353176808926503,0.0,0.0,-0.13889584748045286,-0.2769360761789627,-0.2859505671511237,0.8482686859826013,0.2202131399458448,-0.09005239086822901
9224,3.0,300.3818,2217.9317,0.0,0.0,0.0,0.09354190923293727,0.0,0.0,-0.17013844159385685,-0.24767534859865378,-0.2563820547204388,0.8446284228783352,0.24738159726216277,-0.07859345024181963
9225,3.0,299.70681,2216.7038,0.0,0.0,0.0,0.09355205037660955,0.0,0.0,-0.16228165978845285,-0.23129845067737975,-0.28024250377278176,0.8807694732751792,0.20554939463114583,-0.06988455347331844
9226,3.0,299.23857000000004,2297.6477,0.0,0.0,0.0,0.09356219152028182,0.0,0.0,-0.14876468053943084,-0.25112259769137074,-0.2985402401736277,0.8687100745600091,0.2108464837689278,-0.06929699405833084
9227,3.0,299.21697,2371.535,0.0,0.0,0.0,0.09357233266395407,0.0,0.0,-0.15337767387219786,-0.24728976640559977,-0.3202199926257527,0.9044644889836951,0.1923488533883538,-0.04700259598954505
9228,3.0,299.72825,2431.935,0.0,0.0,0.0,0.09358247380762634,0.0,0.0,-0.15725041707940784,-0.26303578441711073,-0.3189613029540297,0.8831668432767812,0.21781557742672378,-0.03631194211895967
9229,3.0,300.51552000000004,2547.9843,0.0,0.0,0.0,0.09359261495129859,0.0,0.0,-0.1806679643805398,-0.25921931712045476,-0.3346363022660317,0.8924259632205852,0.18121170478170281,-0.02389100462235858
9230,3.0,299.82741,2717.2911,0.0,0.0,0.0,0.09360275609497086,0.0,0.0,-0.22756783606169678,-0.2810801171004477,-0.31734067021408574,0.8450404205014962,0.1906262370258448,-0.05838176748858185
9231,3.0,300.90923,2734.3568,0.0,0.0,0.0,0.09361289723864312,0.0,0.0,-0.20025254867338782,-0.2909067888227647,-0.3400168426820497,0.8743216765288312,0.16556288785228485,-0.054169584484621745
9232,3.0,300.76661,2225.7588,0.0,0.0,0.0,0.09362303838231537,0.0,0.0,-0.14812200639850387,-0.25453939861858277,-0.27391369298567675,0.8630751070438811,0.24221283624954576,-0.0934559232853815
9233,3.0,300.60225,1972.7124,0.0,0.0,0.0,0.09363317952598764,0.0,0.0,-0.1032615031936169,-0.23658093888122078,-0.25981286889653377,0.8813518793001582,0.2429931908140608,-0.06056007383181395
9234,3.0,300.43977,2068.062,0.0,0.0,0.0,0.09364332066965989,0.0,0.0,-0.11831762960954088,-0.24446869574218175,-0.26585287300763577,0.8468494772300361,0.24899018245841778,-0.09583379227555891
9235,3.0,299.12322,2121.9274,0.0,0.0,0.0,0.09365346181333216,0.0,0.0,-0.13171451845671087,-0.26220288270240977,-0.25109553378119975,0.8773086263661202,0.21835534588749478,-0.09211186222648302
9236,3.0,298.76357,2027.7194,0.0,0.0,0.0,0.09366360295700443,0.0,0.0,-0.12399451528230589,-0.2537442100726038,-0.2386373502241728,0.8766147324326382,0.23342311454706777,-0.0997350351683316
9237,3.0,298.70758,2299.6589,0.0,0.0,0.0,0.09367374410067668,0.0,0.0,-0.14043998997034784,-0.2639184265792207,-0.2946804564351967,0.8923104121791812,0.18391240133324083,-0.06209603027415104
9238,3.0,299.07478,2469.02,0.0,0.0,0.0,0.09368388524434895,0.0,0.0,-0.15346697160351086,-0.28094411867202573,-0.3161093484275637,0.8421922555304041,0.18574761004686183,-0.07894967756622652
9239,3.0,299.5009,2612.8665,0.0,0.0,0.0,0.0936940263880212,0.0,0.0,-0.17463024008216285,-0.29734339928800874,-0.3222725130883207,0.8792774625029292,0.18054912027631084,-0.05605650948334675
9240,3.0,300.89362,2770.2781,0.0,0.0,0.0,0.09370416753169347,0.0,0.0,-0.2009945314566158,-0.29695363237204175,-0.3441472047271847,0.8605383543585231,0.24768032365664475,-0.03686236693103237
9241,3.0,300.1633,2463.9104,0.0,0.0,0.0,0.09371430867536573,0.0,0.0,-0.18202283175175482,-0.28059737435530474,-0.2863470417827527,0.8926801674056731,0.2157014209605728,-0.048754715155215754
9242,3.0,300.32309,2253.1473,0.0,0.0,0.0,0.09372444981903799,0.0,0.0,-0.14870390579843284,-0.2500366063666917,-0.2861599958142927,0.8578570311488972,0.2291290923457808,-0.05835766226870284
9243,3.0,300.49784,2372.1497,0.0,0.0,0.0,0.09373459096271025,0.0,0.0,-0.14651330974473786,-0.2812920687563657,-0.2932688977208867,0.893471647456286,0.21125805582704676,-0.08951955101164182
9244,3.0,299.2864,2379.3883,0.0,0.0,0.0,0.09374473210638251,0.0,0.0,-0.18038642270775382,-0.23676083130397477,-0.3061273758624197,0.8813517779751482,0.24568513288473476,-0.04096739975016756
9245,3.0,299.86062999999996,2270.4477,0.0,0.0,0.0,0.09375487325005477,0.0,0.0,-0.15756433209288886,-0.24777885209636877,-0.28481622353167274,0.8690101283121221,0.2008211440995038,-0.06554142714568524
9246,3.0,299.59159,2287.1664,0.0,0.0,0.0,0.09376501439372704,0.0,0.0,-0.17160811020140185,-0.24683973137368476,-0.2767936537449067,0.8269435811979773,0.20928722358754082,-0.03944326590999726
9247,3.0,299.15664,2545.0471,0.0,0.0,0.0,0.09377515553739929,0.0,0.0,-0.18433467331241582,-0.26566849188693875,-0.3236276033745577,0.8477996119813073,0.19779229637057982,-0.07121158585103635
9248,3.0,298.67054,2758.3346,0.0,0.0,0.0,0.09378529668107156,0.0,0.0,-0.1937988548114578,-0.27601044181510975,-0.3686555461584697,0.8514468867762651,0.2237605285459448,-0.026445152785433374
9249,3.0,298.68498999999997,2490.5778,0.0,0.0,0.0,0.09379543782474381,0.0,0.0,-0.14211936081858886,-0.26466757304065575,-0.35028651748058764,0.8811733041025342,0.19276841998976182,-0.06579119430858534
9250,3.0,299.30962999999997,2249.0084,0.0,0.0,0.0,0.09380557896841608,0.0,0.0,-0.1168343935831569,-0.25565977965165576,-0.3111482428904407,0.8845341533592243,0.19292135995985582,-0.03448316146397307
9251,3.0,300.59487,2145.6037,0.0,0.0,0.0,0.09381572011208834,0.0,0.0,-0.12823179547799288,-0.26618416526033173,-0.25779398833728573,0.912182921620445,0.2162130919960708,-0.1076872884379079
9252,3.0,299.61282,2124.1482,0.0,0.0,0.0,0.0938258612557606,0.0,0.0,-0.13613212677269487,-0.24099662202201477,-0.26855925389223473,0.9117262295353731,0.23586673941573477,-0.06677179749036334
9253,3.0,299.61617,2238.6522,0.0,0.0,0.0,0.09383600239943286,0.0,0.0,-0.16446229559366485,-0.27146315775132773,-0.24456890617707175,0.8608319537074992,0.21525201414371983,-0.12596844806711788
9254,3.0,300.58306,2289.8063,0.0,0.0,0.0,0.09384614354310512,0.0,0.0,-0.12349307807281788,-0.2869392054061947,-0.28561164512517473,0.8332166024345763,0.2238569291604588,-0.09065635176258532
9255,3.0,300.11071,2221.7732,0.0,0.0,0.0,0.09385628468677738,0.0,0.0,-0.13678786170741086,-0.26388522237344375,-0.2746904910423408,0.8348472055555042,0.23497082367731476,-0.1068179502496109
9256,3.0,300.08086000000003,2515.2187,0.0,0.0,0.0,0.09386642583044966,0.0,0.0,-0.15981540904505284,-0.27761196465816773,-0.3271363060858397,0.8560557257836222,0.25626913812929475,-0.041629614419273056
9257,3.0,299.69496000000004,2518.8016,0.0,0.0,0.0,0.0938765669741219,0.0,0.0,-0.2040441102825858,-0.23737916717749977,-0.3242295245964627,0.8261778073024012,0.19472975807583082,-0.04882014882017355
9258,3.0,300.19057999999995,2520.4123,0.0,0.0,0.0,0.09388670811779418,0.0,0.0,-0.1916956211813848,-0.25657046857653376,-0.3178763046144487,0.8561297842334311,0.19342655632721484,-0.044862873196870864
9259,3.0,300.06419,2485.1844,0.0,0.0,0.0,0.09389684926146642,0.0,0.0,-0.17449217462353683,-0.2748564310112177,-0.3060854070432777,0.8783144696078893,0.2106208633691608,-0.06702171765402853
9260,3.0,299.33914,2445.7087,0.0,0.0,0.0,0.0939069904051387,0.0,0.0,-0.14595726848736087,-0.2614301984411518,-0.33604689839274665,0.8961463642752601,0.2157839096512138,-0.04332137427648676
9261,3.0,299.56811,2461.9041,0.0,0.0,0.0,0.09391713154881096,0.0,0.0,-0.15233255705655285,-0.26923868874678974,-0.32678612685127967,0.8880663128103211,0.1980600274445028,-0.06372222474389394
9262,3.0,300.52485,2392.7988,0.0,0.0,0.0,0.09392727269248322,0.0,0.0,-0.17270197447935784,-0.26117990540144975,-0.2934692071331557,0.8502535010734872,0.1980465410856718,-0.06628446066926694
9263,3.0,300.86578,2357.8625,0.0,0.0,0.0,0.09393741383615548,0.0,0.0,-0.15749134768818585,-0.2744659649526817,-0.28477401153250675,0.8738901130462391,0.23791708139058776,-0.0992256003758043
9264,3.0,300.36547,2389.0694,0.0,0.0,0.0,0.09394755497982774,0.0,0.0,-0.20559053258520582,-0.2566301794049267,-0.2639967305469487,0.8724600017225981,0.2156272814507558,-0.05594207403030285
9265,3.0,300.40637999999996,2457.8347,0.0,0.0,0.0,0.0939576961235,0.0,0.0,-0.17364439839736784,-0.28979779672081574,-0.28367819168185776,0.8640988746799192,0.2137848685289238,-0.08680573489780902
9266,3.0,300.31765,2523.0774,0.0,0.0,0.0,0.09396783726717227,0.0,0.0,-0.16186661228249086,-0.27921724665909675,-0.3258686694157337,0.8443998640532783,0.19437253675307584,-0.050671534071641045
9267,3.0,301.09797000000003,2491.74,0.0,0.0,0.0,0.09397797841084451,0.0,0.0,-0.13786606113882088,-0.2933182430007567,-0.3262424573776237,0.8688221400210692,0.25571737278733975,-0.06549386214624094
9268,3.0,299.79436,2320.9587,0.0,0.0,0.0,0.09398811955451679,0.0,0.0,-0.16163530754966285,-0.2458118600747418,-0.29806631270435474,0.8670528938889581,0.24046820196236374,-0.02045423050917538
9269,3.0,299.91752,2414.3261,0.0,0.0,0.0,0.09399826069818903,0.0,0.0,-0.17065563484239984,-0.27667541759073777,-0.28656378611164374,0.8508507005499263,0.20286715949642978,-0.05055606003724465
9270,3.0,300.16557,2493.8652,0.0,0.0,0.0,0.09400840184186131,0.0,0.0,-0.19590761065457582,-0.2786362287867547,-0.28352891967712573,0.8636901295895792,0.18857598624350083,-0.06473230742408134
9271,3.0,299.37029,2419.8043,0.0,0.0,0.0,0.09401854298553358,0.0,0.0,-0.15573531433737886,-0.2874011967892897,-0.2924235836924607,0.8728895488374911,0.2222454562014188,-0.09558315270432272
9272,3.0,299.28635,2371.2986,0.0,0.0,0.0,0.09402868412920583,0.0,0.0,-0.12764669420774788,-0.2696494198073257,-0.3235194591913847,0.9126493814364811,0.2083221737947978,-0.092591717208841
9273,3.0,299.64484,2352.0469,0.0,0.0,0.0,0.0940388252728781,0.0,0.0,-0.12105484369468289,-0.28561982205348174,-0.30828885110824067,0.8806923852075712,0.2063325153684338,-0.06772142865633464
9274,3.0,299.30553,2155.5281,0.0,0.0,0.0,0.09404896641655035,0.0,0.0,-0.13732285776021086,-0.25500262616679975,-0.2629012552013338,0.8807435847351243,0.2059630438519698,-0.07185477877601452
9275,3.0,300.40257,2187.8822,0.0,0.0,0.0,0.09405910756022261,0.0,0.0,-0.15300094748501786,-0.25430110246006477,-0.25775950743638276,0.8852552631903922,0.24487399578218175,-0.04816687608320055
9276,3.0,300.34895,2374.9458,0.0,0.0,0.0,0.09406924870389488,0.0,0.0,-0.2098448455150738,-0.23292186985509877,-0.27915751556570173,0.8610865023976211,0.21438188562034483,-0.047170330424349156
9277,3.0,300.22717,2450.0798,0.0,0.0,0.0,0.09407938984756713,0.0,0.0,-0.17613195779037083,-0.25345662942922176,-0.3151744934878007,0.8506768876277722,0.19504925609736282,-0.045437166128299164
9278,3.0,301.22822,2751.2054,0.0,0.0,0.0,0.0940895309912394,0.0,0.0,-0.15538289582009784,-0.32195733151221473,-0.3589575065363476,0.8219507913302272,0.18576782438635683,-0.058561256637796044
9279,3.0,300.98652999999996,2750.3159,0.0,0.0,0.0,0.09409967213491165,0.0,0.0,-0.15774107330783185,-0.2919634870870527,-0.3863228079495926,0.8717167523767452,0.2505683093566668,-0.041082146270992166
9280,3.0,299.50243,2695.1131,0.0,0.0,0.0,0.09410981327858392,0.0,0.0,-0.18411344028558183,-0.29582630044328273,-0.33930734469702767,0.8731179759400352,0.2142569924130188,-0.02882073183038477
9281,3.0,300.75185,2578.7091,0.0,0.0,0.0,0.0941199544222562,0.0,0.0,-0.2005383358640928,-0.2810674616066987,-0.30225738869548174,0.8728528083888651,0.2158605924187818,-0.08845326233515731
9282,3.0,300.55945,2413.6768,0.0,0.0,0.0,0.09413009556592844,0.0,0.0,-0.18876403532955982,-0.28344993683183073,-0.26148350552891275,0.8838025969195252,0.17969658177467182,-0.07638810126666863
9283,3.0,299.63295,2147.5031,0.0,0.0,0.0,0.09414023670960071,0.0,0.0,-0.12260431588010387,-0.27985914059744676,-0.25032385263754076,0.8795099223408711,0.23166935087648477,-0.13332666016081687
9284,3.0,299.14622,2130.4615,0.0,0.0,0.0,0.09415037785327296,0.0,0.0,-0.09172116312042401,-0.25878871622545774,-0.2970972200437127,0.900173901700247,0.23445704508160875,-0.07899769042221502
9285,3.0,299.74757,2247.3288,0.0,0.0,0.0,0.09416051899694523,0.0,0.0,-0.12293471647271187,-0.2536358531069098,-0.30656127995274274,0.8486926906194471,0.22709966385299177,-0.09538217049398731
9286,3.0,300.22076,2398.8559,0.0,0.0,0.0,0.0941706601406175,0.0,0.0,-0.15510519436519085,-0.2691912382446068,-0.30489587169087967,0.8885726744152951,0.20912147613618282,-0.06156103016835064
9287,3.0,299.87057999999996,2527.8092,0.0,0.0,0.0,0.09418080128428975,0.0,0.0,-0.18483967716225583,-0.2921467840301427,-0.29140440607937573,0.8402278979590372,0.24265537323072076,-0.06909214123261344
9288,3.0,298.98951,2572.913,0.0,0.0,0.0,0.09419094242796201,0.0,0.0,-0.1934069904677838,-0.26661542476789374,-0.3220789012592127,0.8938228095434432,0.2078192065776588,-0.031439434157330574
9289,3.0,298.7385,2698.5047,0.0,0.0,0.0,0.09420108357163427,0.0,0.0,-0.18780725365763282,-0.2938252429532937,-0.3386455606592147,0.8104267737028953,0.19230652993167682,-0.06413430342706294
9290,3.0,299.9798,2553.0333,0.0,0.0,0.0,0.09421122471530653,0.0,0.0,-0.14231063203996586,-0.2657997077748887,-0.3679480138786416,0.8702165444111862,0.1934646342659728,-0.07557471373564352
9291,3.0,300.05586,2083.5952,0.0,0.0,0.0,0.0942213658589788,0.0,0.0,-0.11907508472179588,-0.22623249401990878,-0.28805334481865175,0.857023703869154,0.24545180165170677,-0.059496977906394535
9292,3.0,300.46111,2058.1484,0.0,0.0,0.0,0.09423150700265105,0.0,0.0,-0.12045059199754787,-0.24717792385956178,-0.25799720577734175,0.9035806410539661,0.2439946162853938,-0.04438418142562766
9293,3.0,301.14016000000004,2324.3628,0.0,0.0,0.0,0.09424164814632333,0.0,0.0,-0.20855226262750579,-0.24153574200272176,-0.25646024723065575,0.8676875734865962,0.2179059796006458,-0.049118304754849254
9294,3.0,300.8158,2494.1833,0.0,0.0,0.0,0.09425178928999557,0.0,0.0,-0.18830093950385582,-0.2971439815358277,-0.27272453253581574,0.875229082523385,0.18740806351573583,-0.08456031289445312
9295,3.0,300.20761,2385.3767,0.0,0.0,0.0,0.09426193043366785,0.0,0.0,-0.15473499330865487,-0.2726177461077767,-0.2977422145273687,0.8708664126278232,0.2253720724324918,-0.07278688476825623
9296,3.0,300.50112,2520.3747,0.0,0.0,0.0,0.0942720715773401,0.0,0.0,-0.13255551603971086,-0.28993327839168676,-0.3436421806123427,0.882700707700777,0.21099820783890177,-0.07107807697811003
9297,3.0,300.17222999999996,2565.4643,0.0,0.0,0.0,0.09428221272101237,0.0,0.0,-0.15682712171763186,-0.28147119110904373,-0.3415387544647507,0.8672294628513841,0.2206953760659378,-0.045206546352538755
9298,3.0,299.64986,2535.5323,0.0,0.0,0.0,0.09429235386468462,0.0,0.0,-0.17248871573081084,-0.27963507047033276,-0.31861473088982567,0.8906072502185921,0.1911049571680908,-0.041401346396994755
9299,3.0,299.57122000000004,2359.9697,0.0,0.0,0.0,0.09430249500835688,0.0,0.0,-0.1770315313616518,-0.26181589209171674,-0.2785244267707207,0.8772580550536293,0.23874976019026675,-0.05319870951705385
9300,3.0,299.30079,2146.7581,0.0,0.0,0.0,0.09431263615202913,0.0,0.0,-0.15160720170746586,-0.24635733313357575,-0.25459631287669976,0.8746606796147882,0.21724637405054778,-0.07188656139190122
9301,3.0,299.91202000000004,2317.529,0.0,0.0,0.0,0.09432277729570142,0.0,0.0,-0.12887731685170087,-0.27188735490569277,-0.3037062654109747,0.8369608351316032,0.20446468000159282,-0.1155442627608309
9302,3.0,300.31005,2397.8088,0.0,0.0,0.0,0.09433291843937366,0.0,0.0,-0.14647513048096988,-0.2881330470715177,-0.29426583449427673,0.8411948729269701,0.2026642561639048,-0.10795278022910991
9303,3.0,299.13198,2234.2042,0.0,0.0,0.0,0.09434305958304594,0.0,0.0,-0.12116953347350189,-0.27990055212903375,-0.27807219298608876,0.8544868295937843,0.26118883213483074,-0.08687395702704201
9304,3.0,300.34907999999996,2094.4411,0.0,0.0,0.0,0.09435320072671818,0.0,0.0,-0.14770830651517486,-0.24180216598401577,-0.2471473135740408,0.8960271756659971,0.23675317113321875,-0.06668909905695164
9305,3.0,301.17836,2296.9163,0.0,0.0,0.0,0.09436334187039046,0.0,0.0,-0.16061222892369284,-0.26068932010053275,-0.27690364204326173,0.8911973670768322,0.22304361357019079,-0.049285388683089154
9306,3.0,301.6002,2513.0223,0.0,0.0,0.0,0.09437348301406272,0.0,0.0,-0.18873104390630382,-0.2706955701380727,-0.3044694149887917,0.8873978413218482,0.18502021806507382,-0.07873254009629672
9307,3.0,301.08617999999996,2682.7567,0.0,0.0,0.0,0.09438362415773498,0.0,0.0,-0.16696175054284185,-0.28144817006677175,-0.36708112775558666,0.8905069587236942,0.23224247553054778,-0.04830823865765195
9308,3.0,300.09353,2513.0431,0.0,0.0,0.0,0.09439376530140724,0.0,0.0,-0.15632168217024883,-0.2821322861367887,-0.3254483631417527,0.8768211416105091,0.1959351913222978,-0.08000823413119793
9309,3.0,299.61255,2516.104,0.0,0.0,0.0,0.0944039064450795,0.0,0.0,-0.18388296641783583,-0.24657670178022575,-0.3343731308175587,0.8727239837711512,0.19054571404039783,-0.04675704293381086
9310,3.0,299.76784,2651.6623,0.0,0.0,0.0,0.09441404758875176,0.0,0.0,-0.21378560820149678,-0.2799091444898817,-0.3123443846334907,0.8454860580279773,0.2082382462890148,-0.07472966517874373
9311,3.0,299.41979,2444.7504,0.0,0.0,0.0,0.09442418873242403,0.0,0.0,-0.2011843739953518,-0.25361745248509376,-0.2883412395695647,0.8749354730419081,0.25264349622397175,-0.018014113512354584
9312,3.0,299.0056,2292.0284,0.0,0.0,0.0,0.09443432987609628,0.0,0.0,-0.16270089201732785,-0.25485092236182777,-0.2791675974041967,0.8605710215417472,0.24084594159964376,-0.07538576994974623
9313,3.0,299.8879,2253.1153,0.0,0.0,0.0,0.09444447101976855,0.0,0.0,-0.13504423053782785,-0.24311664520624476,-0.3067298949018837,0.8521292904536132,0.2026568493056738,-0.06752875307031904
9314,3.0,300.55092,2421.2644,0.0,0.0,0.0,0.0944546121634408,0.0,0.0,-0.13728414147388987,-0.2784264556185517,-0.32029332153548973,0.8857484018815611,0.19289102325186183,-0.09008243170719382
9315,3.0,300.9923,2564.1834,0.0,0.0,0.0,0.09446475330711307,0.0,0.0,-0.17380570781328783,-0.27748056638519975,-0.3281614720070157,0.8942148056096302,0.23445823058422577,-0.06247735377703474
9316,3.0,300.37617,2622.6439,0.0,0.0,0.0,0.09447489445078532,0.0,0.0,-0.2017553708242048,-0.28080088563788974,-0.3146620017197217,0.8904882034643432,0.2383681803351078,-0.056508530485457745
9317,3.0,300.13251,2533.0054,0.0,0.0,0.0,0.09448503559445759,0.0,0.0,-0.17735521410609684,-0.29093804758834974,-0.30167712062821367,0.8500955455153981,0.21372392153540878,-0.06669278728731565
9318,3.0,300.11463,2548.8123,0.0,0.0,0.0,0.09449517673812984,0.0,0.0,-0.15867413479491785,-0.29122774592444073,-0.3248734349025117,0.8574101371922923,0.2171455151355938,-0.07863865943478143
9319,3.0,300.7671,2567.255,0.0,0.0,0.0,0.09450531788180211,0.0,0.0,-0.13553159370342685,-0.3010316904470147,-0.3438181314922077,0.8641764288425732,0.23042648817132377,-0.0999251999205994
9320,3.0,300.13333,2353.219,0.0,0.0,0.0,0.09451545902547437,0.0,0.0,-0.14274054392489485,-0.26565472181807975,-0.30692454024609367,0.8538508834335211,0.21365382489349077,-0.08781335234050311
9321,3.0,300.02951,2327.1886,0.0,0.0,0.0,0.09452560016914663,0.0,0.0,-0.15461573377188484,-0.26788415574810776,-0.28490733498066473,0.8437479997339442,0.17946822559963482,-0.09697986223841722
9322,3.0,300.01115,2283.4012,0.0,0.0,0.0,0.09453574131281889,0.0,0.0,-0.1821106197404188,-0.24815480841347276,-0.26383152011814376,0.8693739458930282,0.19672742117798483,-0.06545109083301973
9323,3.0,299.68107000000003,2292.4548,0.0,0.0,0.0,0.09454588245649115,0.0,0.0,-0.17258294799011084,-0.24155652376227277,-0.2827095347187587,0.8844250871184602,0.23675963566885674,-0.04726681209887115
9324,3.0,299.66749,2564.9914,0.0,0.0,0.0,0.09455602360016341,0.0,0.0,-0.16779470292004783,-0.2784763581859767,-0.33342226652621565,0.8798855544179432,0.24557638075150176,-0.05608250948091274
9325,3.0,300.68722,2644.3228,0.0,0.0,0.0,0.09456616474383567,0.0,0.0,-0.16613174672342684,-0.28204285668296275,-0.35563348892079266,0.8418166234533322,0.2089053802873558,-0.051956161932673946
9326,3.0,299.40932000000004,2711.2062,0.0,0.0,0.0,0.09457630588750793,0.0,0.0,-0.18960253018481282,-0.2959520751781957,-0.3385843603531747,0.8843555680290991,0.2186735266838968,-0.07412428573424742
9327,3.0,299.35825,2700.3655,0.0,0.0,0.0,0.09458644703118019,0.0,0.0,-0.2115020768486298,-0.2760413662081618,-0.33330025094917365,0.9130919488151591,0.2135877711194718,-0.03385426752440607
9328,3.0,299.38882,2416.5738,0.0,0.0,0.0,0.09459658817485245,0.0,0.0,-0.20444975482761982,-0.2483843298261248,-0.2817440086984687,0.9152812580412271,0.2157226080201638,-0.04821413406786455
9329,3.0,300.10087000000004,2357.257,0.0,0.0,0.0,0.09460672931852471,0.0,0.0,-0.16811734201688983,-0.24823909055679075,-0.30019083471902874,0.8679598540534682,0.16939504026048885,-0.029979630552759172
9330,3.0,300.12045,2438.4225,0.0,0.0,0.0,0.09461687046219697,0.0,0.0,-0.13697205031058887,-0.2900510889808137,-0.3141964234312727,0.8674844168415461,0.21322423724859377,-0.07637702846957584
9331,3.0,299.88155,2219.3586,0.0,0.0,0.0,0.09462701160586924,0.0,0.0,-0.11806271614938289,-0.23678909084926375,-0.3197778001496117,0.8612762334788462,0.2295984500571028,-0.06482634108636173
9332,3.0,300.08127,2143.6731,0.0,0.0,0.0,0.09463715274954149,0.0,0.0,-0.12193447650399589,-0.27348071095294474,-0.2562078972932508,0.8572768238766352,0.23419542390578876,-0.09769670122041371
9333,3.0,300.17346000000003,2257.3835,0.0,0.0,0.0,0.09464729389321376,0.0,0.0,-0.14987567887657785,-0.27265428390638274,-0.2636582543510438,0.8452067353729102,0.18981309368809382,-0.08349774892533622
9334,3.0,299.84932000000003,2423.3754,0.0,0.0,0.0,0.094657435036886,0.0,0.0,-0.2049480509617978,-0.26804243554622875,-0.26365512340823477,0.8668894161178241,0.23846052794922176,-0.08189419552907783
9335,3.0,299.35764,2560.3067,0.0,0.0,0.0,0.09466757618055828,0.0,0.0,-0.15678538594601285,-0.3121846761527287,-0.3092992337104577,0.9042909699040702,0.2298474056066728,-0.059838973119896846
9336,3.0,298.80045,2355.5651,0.0,0.0,0.0,0.09467771732423055,0.0,0.0,-0.14789450135355087,-0.26262447580401777,-0.3055139846493827,0.8804172371429161,0.21599365242191382,-0.07664601800012302
9337,3.0,299.75287000000003,2519.5558,0.0,0.0,0.0,0.0946878584679028,0.0,0.0,-0.1234288582814799,-0.2990555487769847,-0.34339764283320867,0.8895047631822852,0.19007446155138882,-0.08287424243655092
9338,3.0,301.06613,2479.3624,0.0,0.0,0.0,0.09469799961157506,0.0,0.0,-0.17468951521301285,-0.27911728953673176,-0.2998574349061247,0.8529747159395501,0.2310339721362778,-0.08566232268996302
9339,3.0,300.25948999999997,2425.5168,0.0,0.0,0.0,0.09470814075524732,0.0,0.0,-0.16692213246393184,-0.27258425819197174,-0.29779013112459773,0.8997537474137811,0.23474099828963277,-0.06423109414286544
9340,3.0,299.58569,2172.6416,0.0,0.0,0.0,0.09471828189891958,0.0,0.0,-0.17380159401788184,-0.24814525346502975,-0.23848195818883675,0.8358219116217002,0.21319517723572579,-0.04910146656468745
9341,3.0,301.06737999999996,2226.0287,0.0,0.0,0.0,0.09472842304259185,0.0,0.0,-0.13071772353833488,-0.2595962968201598,-0.28634312050486577,0.8613596340945772,0.18802654124427481,-0.04285561056326946
9342,3.0,299.54329,2479.0583,0.0,0.0,0.0,0.0947385641862641,0.0,0.0,-0.15449140798461483,-0.2780247728814087,-0.3210556605132267,0.8525812101307142,0.23621436526004277,-0.08183972219045171
9343,3.0,299.08971,2641.2877,0.0,0.0,0.0,0.09474870532993637,0.0,0.0,-0.17206232995622983,-0.29519557252103473,-0.33562761550136666,0.8912305712826092,0.24085262905030377,-0.06453510666311914
9344,3.0,299.57117,2727.8093,0.0,0.0,0.0,0.09475884647360862,0.0,0.0,-0.1955164555859718,-0.3019228236449627,-0.3317466244383427,0.8688860862348802,0.22069483904338477,-0.08072285206897521
9345,3.0,300.50057999999996,2600.1516,0.0,0.0,0.0,0.09476898761728089,0.0,0.0,-0.20907931479952183,-0.2872842575952487,-0.29401759835227775,0.8953581570224702,0.1940228337460628,-0.06300044211465954
9346,3.0,301.37845,2571.4067,0.0,0.0,0.0,0.09477912876095317,0.0,0.0,-0.1965253892405458,-0.2825829595162667,-0.3025350800178877,0.8869595397260912,0.24805011941314076,-0.06714800205374184
9347,3.0,301.71801,2427.6795,0.0,0.0,0.0,0.09478926990462541,0.0,0.0,-0.15982961481145486,-0.2368883994915648,-0.34123593453986467,0.9174605158263032,0.2144766852997008,-0.01685624526533188
9348,3.0,300.29003,2211.688,0.0,0.0,0.0,0.09479941104829769,0.0,0.0,-0.1103859787542479,-0.24184728601096878,-0.3200646613854227,0.8441276848114162,0.2140979020148178,-0.07218403743575984
9349,3.0,300.48816,2193.0048,0.0,0.0,0.0,0.09480955219196993,0.0,0.0,-0.1011319858559499,-0.24717777187204673,-0.31830893200964566,0.8547616432859062,0.1954479092167068,-0.07509716085751272
9350,3.0,300.28387999999995,2280.0593,0.0,0.0,0.0,0.0948196933356422,0.0,0.0,-0.11802345270800789,-0.2631641024097747,-0.31189353900149575,0.8841307683619132,0.2345770138934488,-0.08836088027053991
9351,3.0,299.7108,2313.0572,0.0,0.0,0.0,0.09482983447931446,0.0,0.0,-0.16364846324584584,-0.28857477345261273,-0.25088838493075577,0.9010987051990182,0.25705299853915575,-0.08332187707897902
9352,3.0,300.25005,2433.7547,0.0,0.0,0.0,0.09483997562298672,0.0,0.0,-0.1965269496456998,-0.24828041089586875,-0.2949932974035717,0.8710669854851181,0.2060314888962248,-0.048692205730046546
9353,3.0,300.57526,2560.859,0.0,0.0,0.0,0.09485011676665898,0.0,0.0,-0.17579487987960382,-0.30082378165899576,-0.30181853994467067,0.8800255855817631,0.18784306191616681,-0.08346883684698284
9354,3.0,300.24291,2456.1239,0.0,0.0,0.0,0.09486025791033124,0.0,0.0,-0.16519738827621283,-0.2655684638370668,-0.3158345043379387,0.8506039741505761,0.23879935878266179,-0.04861275982945586
9355,3.0,300.24728,2504.8286,0.0,0.0,0.0,0.0948703990540035,0.0,0.0,-0.15749627208367184,-0.27660756023154076,-0.32730150638214367,0.915178889383624,0.2511201962886338,-0.08467357399063112
9356,3.0,299.31613,2635.8559,0.0,0.0,0.0,0.09488054019767578,0.0,0.0,-0.19599192319539682,-0.28519929286447876,-0.3200431703508017,0.8523034782783042,0.2042927213271218,-0.052311177409961246
9357,3.0,298.63372999999996,2603.2209,0.0,0.0,0.0,0.09489068134134802,0.0,0.0,-0.19899092057637482,-0.25925741532421476,-0.3330658355385387,0.8587439390939282,0.19286267251406383,-0.07105261501634713
9358,3.0,298.56132,2489.0837,0.0,0.0,0.0,0.0949008224850203,0.0,0.0,-0.17762770745548984,-0.27349115756147574,-0.3055004273630447,0.8853445913192081,0.20882106774653478,-0.033951404771742764
9359,3.0,299.4659,2360.8992,0.0,0.0,0.0,0.09491096362869254,0.0,0.0,-0.15049893914558884,-0.25397769329314673,-0.3131777625757387,0.9012586264623011,0.2155432627524638,-0.06943360043681283
9360,3.0,299.73385,2457.1906,0.0,0.0,0.0,0.09492110477236482,0.0,0.0,-0.16378187788651286,-0.25280393424480574,-0.33033877421939867,0.8831105268362232,0.18373609581584083,-0.04361157518462736
9361,3.0,300.40176,2460.7039999999997,0.0,0.0,0.0,0.09493124591603708,0.0,0.0,-0.14307104584251285,-0.28439168187227376,-0.3205298546388337,0.8633538116163872,0.18017160355405282,-0.0959237202484341
9362,3.0,300.84812999999997,2478.7916,0.0,0.0,0.0,0.09494138705970934,0.0,0.0,-0.17045160680226384,-0.2995583944041117,-0.2834807598998727,0.8853405788488121,0.25810531956301175,-0.08412957723719282
9363,3.0,300.01091,2403.4576,0.0,0.0,0.0,0.0949515282033816,0.0,0.0,-0.15915458759483486,-0.28848574929882675,-0.2829507389050637,0.8749811300914141,0.2523041790304838,-0.03425210497741957
9364,3.0,300.62915,2473.2416,0.0,0.0,0.0,0.09496166934705386,0.0,0.0,-0.15684718406961184,-0.2953124914500737,-0.2996440241700627,0.8680261408750102,0.2079189407850018,-0.06479994490800664
9365,3.0,300.6794,2606.4258,0.0,0.0,0.0,0.09497181049072612,0.0,0.0,-0.17042108770925182,-0.27039870812377476,-0.35146855478224565,0.8497375946525711,0.1953088609054838,-0.02976900118822167
9366,3.0,299.12413,2496.5017,0.0,0.0,0.0,0.09498195163439839,0.0,0.0,-0.16299501825635584,-0.2651114069819588,-0.3307677539142357,0.8799610922128981,0.23450631943397177,-0.062072326301311646
9367,3.0,299.00465,2554.8194,0.0,0.0,0.0,0.09499209277807064,0.0,0.0,-0.16040071296531785,-0.2920597863765567,-0.3241408044177067,0.8915544262795713,0.24354667868118574,-0.06161002385043594
9368,3.0,300.2612,2547.7399,0.0,0.0,0.0,0.09500223392174291,0.0,0.0,-0.2059799853936418,-0.25193382598643277,-0.3165354910221207,0.8676894581317821,0.20999024690442378,-0.07902104381051983
9369,3.0,299.81345,2473.677,0.0,0.0,0.0,0.09501237506541516,0.0,0.0,-0.17078850232801285,-0.2913805136420177,-0.2897670040502767,0.8731209447628282,0.1886919324524438,-0.07429998026183714
9370,3.0,301.0809,2317.7682,0.0,0.0,0.0,0.09502251620908743,0.0,0.0,-0.16677652842456184,-0.25069657668682577,-0.28707056314915874,0.8848028774182451,0.2072087537899118,-0.07450981219854592
9371,3.0,301.24428,2107.6413,0.0,0.0,0.0,0.09503265735275969,0.0,0.0,-0.1202186793146599,-0.2347258400681368,-0.2857258181464427,0.910833039439722,0.2266702079306078,-0.05475305036920535
9372,3.0,300.52702999999997,2253.9047,0.0,0.0,0.0,0.09504279849643195,0.0,0.0,-0.16878385793266984,-0.25892232338364374,-0.25742457761582777,0.8704119800904743,0.17858619138758483,-0.059530583359211145
9373,3.0,300.58549,2520.2963,0.0,0.0,0.0,0.09505293964010421,0.0,0.0,-0.14441239645739384,-0.27746104105577274,-0.34423369575572066,0.8808373914293821,0.1980970820006598,-0.08059317125492671
9374,3.0,300.2217,2594.8702,0.0,0.0,0.0,0.09506308078377647,0.0,0.0,-0.22452453938634678,-0.2884472052650227,-0.2758040022397357,0.8795244928773092,0.25384998325054275,-0.06794475708437543
9375,3.0,299.89862,2647.0401,0.0,0.0,0.0,0.09507322192744873,0.0,0.0,-0.17997714059486083,-0.2842802243612737,-0.3403767288525677,0.884474361470823,0.27419442405838274,-0.05107691010539855
9376,3.0,299.80699,2439.9027,0.0,0.0,0.0,0.095083363071121,0.0,0.0,-0.16996754683199083,-0.2515730785533298,-0.32012886091175874,0.8457606184075742,0.2155092074166028,-0.037104650228693865
9377,3.0,299.70532000000003,2370.8104,0.0,0.0,0.0,0.09509350421479325,0.0,0.0,-0.14164327512660285,-0.26119322964026476,-0.31783064756494267,0.8648927257357661,0.21208246650590978,-0.06332267489821145
9378,3.0,299.0585,2494.5279,0.0,0.0,0.0,0.09510364535846552,0.0,0.0,-0.17314214045529883,-0.24236159149672679,-0.34277045115380966,0.8745820615395293,0.2071675145108418,-0.07298608973791623
9379,3.0,299.31569,2564.4912,0.0,0.0,0.0,0.09511378650213777,0.0,0.0,-0.14801122776507086,-0.3082934006011897,-0.32323666108847465,0.8973440157609591,0.20333154214976082,-0.09836637239700509
9380,3.0,299.73586,2321.6521,0.0,0.0,0.0,0.09512392764581004,0.0,0.0,-0.16301067297040084,-0.27626111988984975,-0.2664524637543107,0.8629775310592511,0.18972590351698884,-0.1103783287159929
9381,3.0,299.70991000000004,2297.1102,0.0,0.0,0.0,0.0951340687894823,0.0,0.0,-0.13729206508967187,-0.2832003631996997,-0.2777717238014347,0.9004653326940091,0.2179139538789328,-0.09173423911296451
9382,3.0,298.99433999999997,2413.001,0.0,0.0,0.0,0.09514420993315456,0.0,0.0,-0.14956773190618586,-0.2945571337655257,-0.2893671958258187,0.90130147680903,0.23777569247163377,-0.07759734939976214
9383,3.0,300.02579,2471.1764,0.0,0.0,0.0,0.09515435107682682,0.0,0.0,-0.15244195766984983,-0.2729069682163207,-0.32582699443912067,0.9012302959895051,0.25154762571081773,-0.038742468703583964
9384,3.0,300.30826,2479.9915,0.0,0.0,0.0,0.09516449222049908,0.0,0.0,-0.14967278567655387,-0.2897030071739607,-0.3144797180267317,0.8611420285031012,0.18800996447263882,-0.061675292355627444
9385,3.0,300.37368,2556.959,0.0,0.0,0.0,0.09517463336417134,0.0,0.0,-0.16651250584600485,-0.2960619722840417,-0.3146772106037227,0.8618736356053052,0.21095378695451777,-0.06712480267945224
9386,3.0,300.37487000000004,2681.5832,0.0,0.0,0.0,0.09518477450784361,0.0,0.0,-0.2170931503704258,-0.2779670682882137,-0.3200741150088557,0.8666268222219081,0.23031042037236876,-0.07359331329759453
9387,3.0,299.85375,2502.7542,0.0,0.0,0.0,0.09519491565151586,0.0,0.0,-0.15981249088476485,-0.27451645520516477,-0.3264458369376957,0.8832205759295843,0.25606230338638175,-0.06511462695181335
9388,3.0,299.8012,2485.9478,0.0,0.0,0.0,0.09520505679518813,0.0,0.0,-0.17782771289272883,-0.24990507637121073,-0.32793326781949367,0.8480271676887652,0.2111504081364228,-0.03373670112855317
9389,3.0,299.30565,2300.68,0.0,0.0,0.0,0.09521519793886038,0.0,0.0,-0.12986343211402288,-0.24199741927828575,-0.3274884003630887,0.8540565934688232,0.22173237674828178,-0.07634869293052933
9390,3.0,297.56672000000003,2284.1038,0.0,0.0,0.0,0.09522533908253265,0.0,0.0,-0.14837600793357186,-0.27041330905771577,-0.27552120413682574,0.8851774050527081,0.22542395083761177,-0.07941190604984492
9391,3.0,299.17267000000004,2518.6382,0.0,0.0,0.0,0.09523548022620493,0.0,0.0,-0.19098923387416983,-0.2821635550348747,-0.29245033349510074,0.8949524212849271,0.23729339555653475,-0.09189802389887881
9392,3.0,299.37301,2466.4214,0.0,0.0,0.0,0.09524562136987717,0.0,0.0,-0.2040857548616958,-0.27757890230740473,-0.26806585175603975,0.8904506726806392,0.18185007260970482,-0.08833154465364472
9393,3.0,299.55141000000003,2266.6359,0.0,0.0,0.0,0.09525576251354945,0.0,0.0,-0.12804440500449887,-0.27021342521048874,-0.2907428753540877,0.8659071512058821,0.19559235815096282,-0.08588623272356123
9394,3.0,300.62171,2298.7818,0.0,0.0,0.0,0.09526590365722169,0.0,0.0,-0.14285803027398986,-0.24625966595643678,-0.3096545805205277,0.8969842309154512,0.2256337544033178,-0.03135659589540507
9395,3.0,301.32928,2514.9423,0.0,0.0,0.0,0.09527604480089397,0.0,0.0,-0.13935190121796187,-0.2830586196432107,-0.34206913009709466,0.8852180870442231,0.23349161025382775,-0.032881581878909466
9396,3.0,300.43509,2556.7582,0.0,0.0,0.0,0.09528618594456623,0.0,0.0,-0.16770982295917083,-0.2660447724440747,-0.34343605514449965,0.9068797631145642,0.21186908616735078,-0.04045238802908986
9397,3.0,299.77256,2582.534,0.0,0.0,0.0,0.09529632708823849,0.0,0.0,-0.18733058028058883,-0.2927979492069077,-0.3048973307710237,0.8521467690178383,0.21882328504867676,-0.09051251989764021
9398,3.0,298.89417000000003,2453.0348,0.0,0.0,0.0,0.09530646823191075,0.0,0.0,-0.17371375536671282,-0.2831976983519367,-0.28874986306989275,0.8899838886245712,0.23503960309410277,-0.11756205914247189
9399,3.0,299.59691000000004,2211.0823,0.0,0.0,0.0,0.09531660937558299,0.0,0.0,-0.12708003408932286,-0.24613219909385675,-0.29890156515928773,0.8653044497814002,0.24013674758965178,-0.08213065567841461
9400,3.0,300.32107,2364.1718,0.0,0.0,0.0,0.09532675051925527,0.0,0.0,-0.16006920793010085,-0.2715712512719957,-0.28700872449555576,0.8787884274746651,0.19716770874393783,-0.08015596700902802
9401,3.0,300.47617,2619.1753,0.0,0.0,0.0,0.09533689166292754,0.0,0.0,-0.15783459629206187,-0.2854863567503097,-0.35284294748288764,0.8447028359656793,0.2010818938802378,-0.03639739659264336
9402,3.0,300.95318,2498.1821,0.0,0.0,0.0,0.09534703280659979,0.0,0.0,-0.1921504387537718,-0.29714186384311875,-0.27009268632857275,0.8921672602050531,0.24136016602539379,-0.04728788060820045
9403,3.0,299.56268,2430.0244,0.0,0.0,0.0,0.09535717395027206,0.0,0.0,-0.17250055049197882,-0.26625298520712376,-0.2999131940591277,0.8788521913034582,0.24907669375195576,-0.03281523628886167
9404,3.0,299.56817,2659.113,0.0,0.0,0.0,0.0953673150939443,0.0,0.0,-0.20921586038299778,-0.27807523273638873,-0.3210128709615037,0.9020110558540602,0.18401015970288884,-0.06647642698021253
9405,3.0,298.86225,2666.1475,0.0,0.0,0.0,0.09537745623761658,0.0,0.0,-0.17048659432821683,-0.3030425764629737,-0.33691308537323267,0.8723608450678122,0.1910916329292758,-0.05936691509705835
9406,3.0,299.00677,2610.3538,0.0,0.0,0.0,0.09538759738128884,0.0,0.0,-0.18142220748997784,-0.2805871202642927,-0.3314730469113427,0.8997341004943422,0.2184029889071968,-0.06256496647343145
9407,3.0,299.77815,2546.5907,0.0,0.0,0.0,0.0953977385249611,0.0,0.0,-0.14021456208809985,-0.27473815432704474,-0.3591472781475767,0.8698061375906823,0.22702277843540378,-0.062334880680473735
9408,3.0,300.17446,2262.6686,0.0,0.0,0.0,0.09540787966863336,0.0,0.0,-0.18127160812761484,-0.25369583751282976,-0.2528273099246128,0.8573632845076682,0.1938854370325028,-0.07546751390156373
9409,3.0,300.08179,2135.4714,0.0,0.0,0.0,0.09541802081230562,0.0,0.0,-0.14453392567438786,-0.24280178787017076,-0.2617942794670837,0.8530851298029472,0.21840183380208278,-0.10966203182279989
9410,3.0,300.98688,2325.5683,0.0,0.0,0.0,0.09542816195597788,0.0,0.0,-0.19035492917906882,-0.26836106217267475,-0.24819869227530378,0.8734786119156271,0.2328753819405108,-0.10355969256554591
9411,3.0,300.36028,2378.8779,0.0,0.0,0.0,0.09543830309965015,0.0,0.0,-0.14900306789045786,-0.26835769818234273,-0.3057587149460357,0.8594500629561173,0.2211353191268568,-0.07055341607633003
9412,3.0,299.78603,2228.0099,0.0,0.0,0.0,0.0954484442433224,0.0,0.0,-0.15742178806882084,-0.2271618875416328,-0.2926756904498417,0.8734689252446711,0.18810046797157082,-0.05114134571900785
9413,3.0,299.73639,2512.9702,0.0,0.0,0.0,0.09545858538699467,0.0,0.0,-0.12293136261488088,-0.3136983400796157,-0.3272504791071077,0.8973614335301782,0.22784356167890876,-0.03729556275953547
9414,3.0,298.8611,2643.4590000000003,0.0,0.0,0.0,0.09546872653066692,0.0,0.0,-0.2008492719222798,-0.29709167756566573,-0.3056045793408237,0.9227318886765471,0.27537268193716774,-0.02009516811098868
9415,3.0,299.25704,2594.9429999999998,0.0,0.0,0.0,0.09547886767433919,0.0,0.0,-0.16909775268114885,-0.2921154543370507,-0.32758465912258866,0.911892493744282,0.25991154932377275,-0.043824866357177555
9416,3.0,299.76642000000004,2704.6314,0.0,0.0,0.0,0.09548900881801145,0.0,0.0,-0.2003266071231968,-0.30466872128346173,-0.3171450724147817,0.8745197466583792,0.20907293132389182,-0.06369867579831985
9417,3.0,299.65827,2542.2824,0.0,0.0,0.0,0.09549914996168371,0.0,0.0,-0.15764429779078085,-0.25790774592601273,-0.3572383048266757,0.8677697987322112,0.2127383331631388,-0.07938930753286463
9418,3.0,300.62501000000003,2423.8588,0.0,0.0,0.0,0.09550929110535597,0.0,0.0,-0.14978806314043086,-0.27666341057705274,-0.3103410777282797,0.8717172488692941,0.23195686059235976,-0.07511158751243652
9419,3.0,301.64363,2284.1915,0.0,0.0,0.0,0.09551943224902823,0.0,0.0,-0.14240040599882586,-0.24386449470755178,-0.30807226889936573,0.8761981751840271,0.23590646895215578,-0.060865824075989144
9420,3.0,301.14251,2327.069,0.0,0.0,0.0,0.09552957339270049,0.0,0.0,-0.20240842064615583,-0.23426891493554178,-0.2706935335053718,0.8512188143112562,0.2139979246274508,-0.05885728576051185
9421,3.0,300.95919,2441.2781,0.0,0.0,0.0,0.09553971453637276,0.0,0.0,-0.17427620036472183,-0.27741896077911976,-0.2903924225420007,0.8568730538442862,0.2242813390973448,-0.09016570060041182
9422,3.0,300.04832999999996,2626.8623,0.0,0.0,0.0,0.09554985568004501,0.0,0.0,-0.18854066434501482,-0.2899659962374157,-0.3199938858659377,0.8881375746898542,0.2522028945504878,-0.05406689057373665
9423,3.0,298.95577000000003,2806.0503,0.0,0.0,0.0,0.09555999682371728,0.0,0.0,-0.15458900423424685,-0.3245590132639807,-0.37382120662578067,0.8877529449518942,0.22699302941246777,-0.08137983634106452
9424,3.0,299.85546,2786.7745,0.0,0.0,0.0,0.09557013796738953,0.0,0.0,-0.17633225707013883,-0.2954678834854097,-0.3753097216851856,0.8788098881117833,0.16516186372770686,-0.03575611263085356
9425,3.0,300.3343,2550.8044,0.0,0.0,0.0,0.0955802791110618,0.0,0.0,-0.16253039242300082,-0.27585226334199875,-0.3369981882491317,0.8758350668781911,0.19280625474849583,-0.056971230130372655
9426,3.0,300.46725,2337.5683,0.0,0.0,0.0,0.09559042025473405,0.0,0.0,-0.1982625052119858,-0.25485328323456075,-0.25744661580550277,0.9036837595166431,0.23510791641584478,-0.05092539273844495
9427,3.0,300.73373,2311.8847,0.0,0.0,0.0,0.09560056139840632,0.0,0.0,-0.15935444104455884,-0.24256346131414977,-0.3008373186803317,0.8919576187593632,0.2353971385243888,-0.06887720352865073
9428,3.0,300.2388,2350.4339999999997,0.0,0.0,0.0,0.09561070254207857,0.0,0.0,-0.16679630706651383,-0.25910173957885074,-0.2885751990176547,0.8730212814829922,0.2307300376362818,-0.08177472827603732
9429,3.0,300.12666,2495.2728,0.0,0.0,0.0,0.09562084368575084,0.0,0.0,-0.14193465545785988,-0.28371987679097177,-0.33284609198935167,0.8586682797089611,0.2242520966994588,-0.12011011969894589
9430,3.0,300.96144,2575.4082,0.0,0.0,0.0,0.09563098482942309,0.0,0.0,-0.16354575008320885,-0.2816417008358717,-0.3376723440706657,0.9024328212081852,0.2380303830167698,-0.06777255219013013
9431,3.0,301.40676,2378.416,0.0,0.0,0.0,0.09564112597309536,0.0,0.0,-0.15759266256568485,-0.28048812572952275,-0.2848982866572717,0.8804741514010331,0.21336610239509482,-0.07441939989212293
9432,3.0,300.92924,2431.8769,0.0,0.0,0.0,0.09565126711676762,0.0,0.0,-0.20371507757761279,-0.2536884407870998,-0.2818263251365927,0.8971484888891622,0.1990829135529538,-0.030369244467961073
9433,3.0,300.31881,2579.9647,0.0,0.0,0.0,0.09566140826043988,0.0,0.0,-0.17747453443787284,-0.2953626270650217,-0.3114076855785457,0.8768869623370051,0.2002881745469038,-0.06365833527208853
9434,3.0,299.80663,2584.5261,0.0,0.0,0.0,0.09567154940411214,0.0,0.0,-0.17501444425508084,-0.28361821740843873,-0.3269987371197627,0.9000654231445412,0.2620508242599027,-0.02900853267016927
9435,3.0,299.4265,2454.2554,0.0,0.0,0.0,0.0956816905477844,0.0,0.0,-0.10128741132853922,-0.2864573340561377,-0.35828761649773466,0.8644295285850523,0.22283689028478879,-0.08702927914812111
9436,3.0,299.93786,2348.1155,0.0,0.0,0.0,0.09569183169145666,0.0,0.0,-0.13659357100073585,-0.28225505151890473,-0.29491986716882473,0.8707259153689572,0.2088628541806588,-0.05563157164315865
9437,3.0,301.00832,2431.0432,0.0,0.0,0.0,0.09570197283512892,0.0,0.0,-0.17558748784913583,-0.2723308848719658,-0.2910580467976927,0.8746234426736131,0.21721219712467482,-0.09581994317319209
9438,3.0,299.97104,2347.7197,0.0,0.0,0.0,0.09571211397880118,0.0,0.0,-0.19866670080937682,-0.2562536961977707,-0.25872775909944173,0.9201485467515911,0.25229271917185275,-0.06164941090832314
9439,3.0,298.98037999999997,2206.2739,0.0,0.0,0.0,0.09572225512247344,0.0,0.0,-0.1311625200672329,-0.26490016460111077,-0.27458950040487373,0.8731003453882951,0.21898438168207582,-0.10018238103448121
9440,3.0,299.55927,2393.0534,0.0,0.0,0.0,0.0957323962661457,0.0,0.0,-0.16104245491615285,-0.24563786476756977,-0.3207481492403777,0.8457642661079342,0.2064618466111978,-0.07708031725798502
9441,3.0,298.27924,2538.9775,0.0,0.0,0.0,0.09574253740981797,0.0,0.0,-0.10326389446385291,-0.31926414314391766,-0.34925773425655465,0.8674585890964971,0.2145867445255628,-0.0977876779071424
9442,3.0,298.9025,2498.0084,0.0,0.0,0.0,0.09575267855349022,0.0,0.0,-0.17809909166701182,-0.28188639060252074,-0.29934669606071873,0.8850557137156982,0.25737655969358875,-0.06978929377841703
9443,3.0,299.21519,2508.8729,0.0,0.0,0.0,0.0957628196971625,0.0,0.0,-0.19497292796732982,-0.26850835833971176,-0.2991534287366447,0.888237562209722,0.22957079846187375,-0.03697663114480936
9444,3.0,299.40911,2470.8994,0.0,0.0,0.0,0.09577296084083474,0.0,0.0,-0.2076876765821778,-0.2888946565091827,-0.25450940641562275,0.8714319176411341,0.20452273923232278,-0.04998974949010416
9445,3.0,299.53024,2433.1279,0.0,0.0,0.0,0.09578310198450701,0.0,0.0,-0.15584224262043186,-0.27891320070158976,-0.30485468307431474,0.909882104220872,0.22639072315552478,-0.05441219708856575
9446,3.0,300.23037999999997,2599.7876,0.0,0.0,0.0,0.09579324312817927,0.0,0.0,-0.16527886371675385,-0.3123653183805567,-0.3126263214738157,0.8951017743496672,0.25833623926080174,-0.05674113623141415
9447,3.0,300.27848,2507.2224,0.0,0.0,0.0,0.09580338427185153,0.0,0.0,-0.1072845519206609,-0.2962432325944307,-0.35860522987408067,0.8966647734239233,0.23065141956102278,-0.08250166328203022
9448,3.0,300.38232,2288.1429,0.0,0.0,0.0,0.09581352541552379,0.0,0.0,-0.15674639608216484,-0.24866538513886277,-0.2901265355832597,0.8484022019482782,0.2064416829342078,-0.08459610595423563
9449,3.0,300.08565,2219.4817,0.0,0.0,0.0,0.09582366655919605,0.0,0.0,-0.14266443870988385,-0.25436849372421577,-0.2776340839078507,0.8955912957379792,0.21561888160742676,-0.08917537224417402
9450,3.0,299.74851,2476.0576,0.0,0.0,0.0,0.09583380770286834,0.0,0.0,-0.21251712040130682,-0.2546631367207947,-0.28547942611962573,0.8942113706917912,0.25559334084259877,-0.05324437669906085
9451,3.0,299.22089,2632.4185,0.0,0.0,0.0,0.09584394884654059,0.0,0.0,-0.16993952033422483,-0.2963906402189787,-0.3338593420893517,0.9098624370364312,0.2214277329732158,-0.06639863369053493
9452,3.0,298.5773,2574.3622,0.0,0.0,0.0,0.09585408999021283,0.0,0.0,-0.17760137308539084,-0.27394204372347475,-0.33099838990199765,0.8441731088133992,0.2001480420580738,-0.03993273359605396
9453,3.0,299.47532,2559.6479,0.0,0.0,0.0,0.0958642311338851,0.0,0.0,-0.1193456832935019,-0.29608192317851073,-0.36264145085242466,0.9002174309245432,0.2199994556322558,-0.06580396632609585
9454,3.0,299.51071,2419.1584,0.0,0.0,0.0,0.09587437227755735,0.0,0.0,-0.17010447745050483,-0.2752715291796847,-0.28998775071706273,0.8813426384592461,0.25596473753425275,-0.01945624299543168
9455,3.0,299.83987,2628.0885,0.0,0.0,0.0,0.09588451342122963,0.0,0.0,-0.2017453700457178,-0.30640056835438173,-0.29072734223005475,0.8963703634748672,0.2181555431002758,-0.036492484035027764
9456,3.0,301.01358999999997,2861.4474,0.0,0.0,0.0,0.0958946545649019,0.0,0.0,-0.2290376769217588,-0.3135431810918027,-0.3272276911123587,0.8577877045770551,0.18893860818928884,-0.059971146529191346
9457,3.0,301.16286,2480.7169,0.0,0.0,0.0,0.09590479570857414,0.0,0.0,-0.16777525865062884,-0.28473681512133575,-0.3015639101945407,0.8970755551469641,0.19042908895388783,-0.08771572265361782
9458,3.0,300.74147,2161.9485,0.0,0.0,0.0,0.09591493685224642,0.0,0.0,-0.10064527927641571,-0.25816938736683476,-0.2983636813437027,0.9080172072793211,0.22663392344452676,-0.09976713695799981
9459,3.0,300.04741,2316.0077,0.0,0.0,0.0,0.09592507799591866,0.0,0.0,-0.10593883419784891,-0.26112687189121575,-0.3369427938661647,0.8915513257342652,0.19391483141790383,-0.06584273834117235
9460,3.0,299.47164,2436.2468,0.0,0.0,0.0,0.09593521913959092,0.0,0.0,-0.15487843912531185,-0.27198789971311577,-0.3136918451464747,0.8908735728748761,0.2110270044067438,-0.08771745632453891
9461,3.0,299.2828,2439.8671,0.0,0.0,0.0,0.0959453602832632,0.0,0.0,-0.2015960575109818,-0.2520056046235168,-0.28805700265151274,0.8938290916940631,0.2194396754820098,-0.04625264196778036
9462,3.0,300.07,2420.8434,0.0,0.0,0.0,0.09595550142693544,0.0,0.0,-0.1994268207693948,-0.26559788861997075,-0.2708512357509358,0.8908264972752302,0.2765656724724067,-0.06675114441357503
9463,3.0,299.70082,2547.2757,0.0,0.0,0.0,0.09596564257060772,0.0,0.0,-0.2086895174860518,-0.26306763086775375,-0.3025510792369667,0.8582715618973082,0.22170248587033178,-0.02324838621018708
9464,3.0,299.4124,2818.7029,0.0,0.0,0.0,0.09597578371427996,0.0,0.0,-0.18322253000265581,-0.3352419117183007,-0.33835083660262766,0.8698916052366171,0.2245550686118598,-0.07679605399543042
9465,3.0,299.38146,2773.0971,0.0,0.0,0.0,0.09598592485795224,0.0,0.0,-0.16611180596145883,-0.3046364492677767,-0.37220399867117465,0.8644124451883661,0.2154506010308188,-0.045586232443260856
9466,3.0,300.28101000000004,2515.96,0.0,0.0,0.0,0.09599606600162451,0.0,0.0,-0.18538779480385081,-0.27799282510575574,-0.3014083965691927,0.8899099720297761,0.24442562248043076,-0.05451229809244495
9467,3.0,300.2914,2154.5578,0.0,0.0,0.0,0.09600620714529676,0.0,0.0,-0.12718755005743387,-0.2489180187862958,-0.27882620304800376,0.9021878274665062,0.2065734257122098,-0.06621874734728153
9468,3.0,299.41078,2221.186,0.0,0.0,0.0,0.09601634828896903,0.0,0.0,-0.15712087305412284,-0.24900308113219075,-0.26906111666676474,0.9109691391931541,0.2023541611033008,-0.08810467896950482
9469,3.0,299.78303,2573.4320000000002,0.0,0.0,0.0,0.09602648943264128,0.0,0.0,-0.15986967872040883,-0.2873830089499947,-0.3350063817325557,0.9301738560235121,0.1968326168033668,-0.09517118243891441
9470,3.0,300.36976,2470.1274,0.0,0.0,0.0,0.09603663057631355,0.0,0.0,-0.14159652376698886,-0.2874903222680857,-0.32177020448374666,0.9161704964614882,0.22251295422781878,-0.07816734412426622
9471,3.0,300.28365,2279.5489,0.0,0.0,0.0,0.09604677171998581,0.0,0.0,-0.11979406672775389,-0.26599405927656977,-0.3071377989946407,0.8721244335544801,0.2156913391220778,-0.06775782865292704
9472,3.0,300.94472,2511.6588,0.0,0.0,0.0,0.09605691286365807,0.0,0.0,-0.17478748636518182,-0.2894185980033917,-0.2992754848436907,0.8330553031511572,0.21991434262385579,-0.03456641009218907
9473,3.0,301.04214,2802.2265,0.0,0.0,0.0,0.09606705400733033,0.0,0.0,-0.1977562550645228,-0.3187993247930437,-0.33525130454672764,0.8430563653481853,0.24810271722583177,-0.03660874232500157
9474,3.0,300.13797,2854.3278,0.0,0.0,0.0,0.09607719515100259,0.0,0.0,-0.23979135089556378,-0.30607126207188173,-0.3217817555348867,0.8604293083827612,0.25200645575360076,-0.05210018327538775
9475,3.0,299.81774,2691.6808,0.0,0.0,0.0,0.09608733629467485,0.0,0.0,-0.1969623736111728,-0.29257603730250675,-0.3286653308842427,0.8874126145083062,0.20146014014256783,-0.06346315797157603
9476,3.0,300.08137999999997,2221.8683,0.0,0.0,0.0,0.09609747743834712,0.0,0.0,-0.0997406070306315,-0.26811173172056774,-0.30754013021184773,0.8991353406127491,0.19368752902297082,-0.12059739167203588
9477,3.0,299.65347,2185.4439,0.0,0.0,0.0,0.09610761858201937,0.0,0.0,-0.11397211403817188,-0.2401869338671048,-0.31016132716053973,0.9172871183366901,0.20502407511680082,-0.06689767355028634
9478,3.0,299.91255,2523.2849,0.0,0.0,0.0,0.09611775972569164,0.0,0.0,-0.16450307891018984,-0.27659953529074877,-0.32591297884260667,0.9293520088674021,0.2290093565814638,-0.09329531706503091
9479,3.0,299.61129,2484.4573,0.0,0.0,0.0,0.09612790086936389,0.0,0.0,-0.1840277294596228,-0.2383880603020698,-0.3327971722745237,0.9225977546283092,0.2098648470720478,-0.03773543387969736
9480,3.0,299.66166,2198.5737,0.0,0.0,0.0,0.09613804201303616,0.0,0.0,-0.15104974189994885,-0.25497231985630875,-0.26228943452595177,0.8699602833283951,0.23953152317242077,-0.09265851673493361
9481,3.0,300.96556,2321.0029,0.0,0.0,0.0,0.09614818315670842,0.0,0.0,-0.15480617412817985,-0.25779177945206777,-0.29292897257733874,0.8725600500374723,0.2392959931866758,-0.05799257305892135
9482,3.0,300.28197,2811.2997,0.0,0.0,0.0,0.09615832430038068,0.0,0.0,-0.1942527705912558,-0.3069024311289117,-0.3534097190588237,0.8637407616970763,0.2383190073077548,-0.07909198752952142
9483,3.0,300.4455,2860.9253,0.0,0.0,0.0,0.09616846544405294,0.0,0.0,-0.2205698749085518,-0.3126024087714557,-0.33647754995024864,0.8819220655289312,0.23212930562687878,-0.06899671840444593
9484,3.0,299.59796,2473.4522,0.0,0.0,0.0,0.0961786065877252,0.0,0.0,-0.16581408268457584,-0.2777014549069997,-0.3083521792394907,0.8808421841023552,0.2112389459301608,-0.06102292141124345
9485,3.0,300.99037000000004,2221.8609,0.0,0.0,0.0,0.09618874773139746,0.0,0.0,-0.12127195279360989,-0.26673147230184674,-0.28738679850536875,0.9126004617216531,0.2219357664408548,-0.05645373797305015
9486,3.0,300.28182000000004,2309.2903,0.0,0.0,0.0,0.09619888887506974,0.0,0.0,-0.14375060228707984,-0.2669134824173097,-0.29130251364931975,0.9020247955254161,0.2225053041895638,-0.05129794656171315
9487,3.0,299.24823,2582.1796,0.0,0.0,0.0,0.09620903001874198,0.0,0.0,-0.15247632711324186,-0.2814712620365507,-0.35097052209309365,0.9157983398322592,0.2110367113427018,-0.09825047279756671
9488,3.0,299.38088999999997,2584.8734,0.0,0.0,0.0,0.09621917116241425,0.0,0.0,-0.15637354031036685,-0.2971166541806307,-0.33224677482020365,0.8679608977010712,0.2047441546441748,-0.10635477336389888
9489,3.0,299.73712,2089.2173,0.0,0.0,0.0,0.0962293123060865,0.0,0.0,-0.14381715255364788,-0.2393103408080918,-0.25194237781727674,0.8959109862770303,0.2195804361859018,-0.09510644892977571
9490,3.0,300.04918,1936.8817,0.0,0.0,0.0,0.09623945344975877,0.0,0.0,-0.1210004726943169,-0.2220503244971608,-0.24571287567247277,0.8884846229816051,0.2205407237031748,-0.07809339510546802
9491,3.0,299.86724,2528.7683,0.0,0.0,0.0,0.09624959459343103,0.0,0.0,-0.2016222196285638,-0.2896274288490017,-0.27743278151048373,0.8777149700537232,0.2178327418834178,-0.06428918275784834
9492,3.0,299.91967,2831.9757,0.0,0.0,0.0,0.0962597357371033,0.0,0.0,-0.22097209466824777,-0.2889131179260047,-0.35096469590501866,0.8998234894181643,0.2235467631723478,-0.05423953521852535
9493,3.0,300.74176,2662.2064,0.0,0.0,0.0,0.09626987688077555,0.0,0.0,-0.15831928447739685,-0.31637199298598473,-0.3345529827103087,0.8957831039819091,0.2277871743108438,-0.056645472249722856
9494,3.0,301.11466,2594.2892,0.0,0.0,0.0,0.09628001802444781,0.0,0.0,-0.14680762850128487,-0.3062469191092177,-0.33554459992067365,0.8985623578137002,0.22951489745385675,-0.0842985336516175
9495,3.0,300.28035,2793.9083,0.0,0.0,0.0,0.09629015916812007,0.0,0.0,-0.2187350208324658,-0.28869953493742573,-0.34184378327485465,0.8728960437706321,0.2217538880479048,-0.054433063961125155
9496,3.0,301.15885,2850.3671,0.0,0.0,0.0,0.09630030031179235,0.0,0.0,-0.20883591186049982,-0.33421439505689265,-0.3233901178161197,0.8759128034258632,0.22786964273648277,-0.08058383719500553
9497,3.0,300.39931,2569.6576,0.0,0.0,0.0,0.0963104414554646,0.0,0.0,-0.1975505652942228,-0.2733662440891477,-0.3101949265338557,0.8692837868991301,0.2244770686191618,-0.06237386041182074
9498,3.0,300.26554,2169.4771,0.0,0.0,0.0,0.09632058259913687,0.0,0.0,-0.10826735385515589,-0.2502351628562878,-0.3009643397128677,0.9023488633048992,0.21961469417178278,-0.08245673475934612
9499,3.0,300.03353,1945.1109,0.0,0.0,0.0,0.09633072374280911,0.0,0.0,-0.05126209574667495,-0.26021678078389676,-0.2797862575177537,0.9001126709967041,0.2272028431106748,-0.0972500474040824
9500,3.0,299.32566,2288.1814,0.0,0.0,0.0,0.09634086488648139,0.0,0.0,-0.14212598747424285,-0.2637495076550498,-0.2896745247136497,0.9134279729458221,0.2260245548343868,-0.08315890998589542
9501,3.0,299.53307,2858.4566,0.0,0.0,0.0,0.09635100603015366,0.0,0.0,-0.2379725872310658,-0.3066443765934437,-0.32428246691418766,0.8972411202133042,0.2106711408391228,-0.06867682724187513
9502,3.0,299.52705,2956.5377,0.0,0.0,0.0,0.0963611471738259,0.0,0.0,-0.25383884763194375,-0.3120188172438597,-0.3328559813103277,0.9023336949509021,0.2108709942888468,-0.04335987271403626
9503,3.0,298.50761,2482.2278,0.0,0.0,0.0,0.09637128831749817,0.0,0.0,-0.19429261158518782,-0.24714068691838675,-0.31310198160075964,0.8755044129730581,0.2238836992281008,-0.04079574809047686
9504,3.0,299.50538,2571.6922,0.0,0.0,0.0,0.09638142946117043,0.0,0.0,-0.15614402903021585,-0.3146774436512457,-0.3109087510968047,0.8818627600005782,0.22548359073849777,-0.04847064339693005
9505,3.0,300.61914,2793.328,0.0,0.0,0.0,0.09639157060484269,0.0,0.0,-0.16262480706731886,-0.2883667126770787,-0.3981104529879426,0.8608121041380401,0.24280004507999875,-0.05239434193841895
9506,3.0,300.61617,2575.9558,0.0,0.0,0.0,0.09640171174851496,0.0,0.0,-0.16457210150700186,-0.2896310765493617,-0.32882305339480866,0.8711378015346073,0.22225281239714478,-0.06366670877091495
9507,3.0,300.20911,2217.0274,0.0,0.0,0.0,0.0964118528921872,0.0,0.0,-0.15042720103850885,-0.26441230494296275,-0.25908147457685077,0.8620564360558461,0.21805104661746277,-0.09448931679736951
9508,3.0,300.50712999999996,2001.7048,0.0,0.0,0.0,0.09642199403585948,0.0,0.0,-0.14155423070781487,-0.2239803328901378,-0.24293372316569176,0.9052607617072811,0.22619907703161077,-0.07184458548000852
9509,3.0,300.21975,2170.3137,0.0,0.0,0.0,0.09643213517953172,0.0,0.0,-0.12134000267032588,-0.2782464720032887,-0.26013469739329576,0.906597066336664,0.2268149000448878,-0.08912244208545023
9510,3.0,300.20432999999997,2655.9316,0.0,0.0,0.0,0.096442276323204,0.0,0.0,-0.1412276602005849,-0.2964331257956717,-0.36967611192419164,0.928693659747428,0.1990135059211038,-0.06481357312185164
9511,3.0,299.58961,2774.8909,0.0,0.0,0.0,0.09645241746687627,0.0,0.0,-0.16141482432790283,-0.3084012813393367,-0.37368143890698663,0.8834223646869992,0.21898427022456476,-0.07095575033328734
9512,3.0,299.4168,2499.6358,0.0,0.0,0.0,0.09646255861054852,0.0,0.0,-0.15375101600404384,-0.3008214410512647,-0.3052544203712657,0.8980182222449982,0.21389883890017178,-0.05800245832689695
9513,3.0,299.28679,2529.3868,0.0,0.0,0.0,0.09647269975422079,0.0,0.0,-0.18627451023136282,-0.2820816033667867,-0.3005143046809527,0.8778559739376393,0.24133358847527075,-0.05233731216979055
9514,3.0,299.2209,2798.4371,0.0,0.0,0.0,0.09648284089789304,0.0,0.0,-0.22675329443880776,-0.3087545003241967,-0.3151472167951087,0.8792810291432811,0.22549850577996983,-0.038932193705308364
9515,3.0,299.40436,2766.8487,0.0,0.0,0.0,0.09649298204156531,0.0,0.0,-0.2111158461755118,-0.2962864071811917,-0.33365067336375764,0.8812599268535831,0.24038969534461577,-0.06109962748356375
9516,3.0,300.97261000000003,2437.4485,0.0,0.0,0.0,0.09650312318523757,0.0,0.0,-0.14647721777617587,-0.26059565526128875,-0.3338505977409887,0.8667014480917732,0.22972512658460478,-0.06585908713153585
9517,3.0,301.1397,2243.2641,0.0,0.0,0.0,0.09651326432890983,0.0,0.0,-0.11988162166889489,-0.26230154286464674,-0.2997131176943817,0.8693392826071072,0.2262011440618148,-0.07810600500296251
9518,3.0,299.06507,2314.3077,0.0,0.0,0.0,0.09652340547258209,0.0,0.0,-0.16987134886749686,-0.2194876123442408,-0.3141327913249927,0.8775627494912002,0.1974600010002848,-0.058840305715336036
9519,3.0,299.83687000000003,2566.0558,0.0,0.0,0.0,0.09653354661625435,0.0,0.0,-0.1912535705602578,-0.2844180669048777,-0.3043452614540387,0.8902188106602562,0.2118804750984748,-0.10500550926573689
9520,3.0,299.47115,2706.4652,0.0,0.0,0.0,0.09654368775992661,0.0,0.0,-0.2211535272311538,-0.2962168475618267,-0.3053274554384737,0.8937367339474481,0.2059150461947328,-0.07395984638876853
9521,3.0,300.94504,2535.7841,0.0,0.0,0.0,0.09655382890359888,0.0,0.0,-0.16774949170058584,-0.2764155088075867,-0.3266500574953507,0.9142335878353302,0.2236419985492468,-0.08043717126953072
9522,3.0,300.95697,2319.6014,0.0,0.0,0.0,0.09656397004727113,0.0,0.0,-0.12973502292884986,-0.28916386692825174,-0.2862020051634387,0.894776024575018,0.2105924315713548,-0.07485332728719822
9523,3.0,299.68919,2551.5473,0.0,0.0,0.0,0.0965741111909434,0.0,0.0,-0.15800269448365184,-0.27434168982791673,-0.3432622827523497,0.8957292598715952,0.2287889138897078,-0.05979186813599794
9524,3.0,300.4776,2825.7538,0.0,0.0,0.0,0.09658425233461565,0.0,0.0,-0.2072661544080768,-0.2940194829974637,-0.35767293845707065,0.8771449560774672,0.22336111548902576,-0.04397004888450596
9525,3.0,300.29964,2467.2707,0.0,0.0,0.0,0.09659439347828792,0.0,0.0,-0.14082358619320587,-0.3005420373361897,-0.3086230615212247,0.8776426949240902,0.2466368584386628,-0.07070152689644743
9526,3.0,299.1198,2098.1972,0.0,0.0,0.0,0.09660453462196018,0.0,0.0,-0.13175465329317188,-0.2246820896443958,-0.2813628138783477,0.8616422396799682,0.23259321205266276,-0.06798098077545044
9527,3.0,299.43089,2419.1025,0.0,0.0,0.0,0.09661467576563244,0.0,0.0,-0.12989621075475788,-0.2929984815341987,-0.31245208298661975,0.8607180643962592,0.24283954156889678,-0.08938392951225702
9528,3.0,299.00306,2553.7503,0.0,0.0,0.0,0.0966248169093047,0.0,0.0,-0.15668601650870584,-0.2836297785920797,-0.3359605289542227,0.8736192510295072,0.23896200568871379,-0.10762574362683389
9529,3.0,299.58519,2413.6566,0.0,0.0,0.0,0.09663495805297696,0.0,0.0,-0.16076953600171787,-0.2723051787169287,-0.3006166226760507,0.8716814507432611,0.2254191784296408,-0.088726806424904
9530,3.0,300.43031,2419.5815,0.0,0.0,0.0,0.09664509919664922,0.0,0.0,-0.18409003420827183,-0.27550669439539377,-0.27589562031377773,0.8960749504082121,0.2056553501941028,-0.09690498609577751
9531,3.0,299.84359,2304.1415,0.0,0.0,0.0,0.09665524034032148,0.0,0.0,-0.16671168041816184,-0.24181204517249077,-0.29187776612859273,0.9025037081851812,0.2148419011657448,-0.06332314504625784
9532,3.0,301.19257999999996,2500.9144,0.0,0.0,0.0,0.09666538148399374,0.0,0.0,-0.2079093554390558,-0.26609810992933874,-0.28620806439903673,0.9293584024755331,0.21482851613192377,-0.06219975466038784
9533,3.0,301.58702999999997,2884.5193,0.0,0.0,0.0,0.096675522627666,0.0,0.0,-0.18852190908566382,-0.3079673164540077,-0.3803326253459076,0.9204141803978072,0.21052280102448281,-0.040012756035951565
9534,3.0,299.6616,2603.4523,0.0,0.0,0.0,0.09668566377133826,0.0,0.0,-0.17970900422089783,-0.24202190953320277,-0.36965358737446863,0.8927499803375631,0.2094864589547038,-0.03763773934480567
9535,3.0,299.56478,2295.2929999999997,0.0,0.0,0.0,0.09669580491501054,0.0,0.0,-0.13162370085024785,-0.27379877015933474,-0.29228928752420674,0.8698656457690552,0.2025732055099188,-0.07353564619465322
9536,3.0,300.07322,2538.687,0.0,0.0,0.0,0.09670594605868278,0.0,0.0,-0.18396033819547183,-0.25729473974801376,-0.3304423790421237,0.8700472100544742,0.21903860069492678,-0.06367839154456795
9537,3.0,299.94265,2789.4015,0.0,0.0,0.0,0.09671608720235506,0.0,0.0,-0.19295345972302383,-0.3138862067806567,-0.3410687280083627,0.8462394702723331,0.24964224942777177,-0.08353033808830251
9538,3.0,300.01657,2486.6354,0.0,0.0,0.0,0.0967262283460273,0.0,0.0,-0.17595402094030982,-0.2795905583934397,-0.3003304808478107,0.8621884017488701,0.24748344916221476,-0.07192800129449103
9539,3.0,299.67137,2146.4615,0.0,0.0,0.0,0.09673636948969958,0.0,0.0,-0.10582364792648091,-0.2394864538079728,-0.3071605971218907,0.8523317074260901,0.2329892611192498,-0.08309379448146902
9540,3.0,300.42387,2205.4467,0.0,0.0,0.0,0.09674651063337182,0.0,0.0,-0.1301371616285379,-0.26917788360828876,-0.27108567142657275,0.8930607238782312,0.2146638427256718,-0.08024061696213233
9541,3.0,301.92566,2651.4779,0.0,0.0,0.0,0.0967566517770441,0.0,0.0,-0.1843969679285638,-0.28599318445032973,-0.33559291168544164,0.9319456352808732,0.19387077530355581,-0.07155450210887952
9542,3.0,300.9477,2911.9518,0.0,0.0,0.0,0.09676679292071634,0.0,0.0,-0.22397726274233476,-0.3086011449215617,-0.35258221796715566,0.9200411118434882,0.21165276740350178,-0.06784255257328864
9543,3.0,299.46583,2701.5264,0.0,0.0,0.0,0.09677693406438861,0.0,0.0,-0.21126427718266078,-0.28055569937869174,-0.3293765817919377,0.9320125097874732,0.19608606426218783,-0.07887602542970763
9544,3.0,300.19903999999997,2403.507,0.0,0.0,0.0,0.09678707520806087,0.0,0.0,-0.14267161252059185,-0.2663364364853597,-0.32159805329175667,0.9209243315581551,0.22297766112118178,-0.07011846529865373
9545,3.0,299.72844,2438.4922,0.0,0.0,0.0,0.09679721635173313,0.0,0.0,-0.10802564304380091,-0.3086165260580797,-0.32459858068038566,0.9017888906371341,0.2234810437708618,-0.07508901027370833
9546,3.0,299.87703,2798.7684,0.0,0.0,0.0,0.0968073574954054,0.0,0.0,-0.18924326209685582,-0.3130834087264267,-0.34842903752976867,0.871446386852562,0.22224220366859782,-0.06165866390823634
9547,3.0,300.4751,2698.0531,0.0,0.0,0.0,0.09681749863907765,0.0,0.0,-0.2064810375680918,-0.28293690804119875,-0.33072284666980367,0.8631836159970901,0.22197165575939679,-0.06728187367020394
9548,3.0,300.32015,2292.1458,0.0,0.0,0.0,0.09682763978274991,0.0,0.0,-0.15489259422920887,-0.27273463463931275,-0.2691278493183507,0.8487569914707932,0.24847705234277576,-0.1016947956239949
9549,3.0,299.18691,2288.4026,0.0,0.0,0.0,0.09683778092642217,0.0,0.0,-0.16779871539044383,-0.24737655127666475,-0.28044197218746775,0.8859819256321082,0.24727068690621679,-0.05161158799766716
9550,3.0,300.41631,2641.8206,0.0,0.0,0.0,0.09684792207009443,0.0,0.0,-0.17943384602374182,-0.2908465207068167,-0.3327671294090587,0.8850405757592041,0.2286020503062658,-0.06271096568034044
9551,3.0,300.39643,2810.5411,0.0,0.0,0.0,0.0968580632137667,0.0,0.0,-0.1976323143122908,-0.28460457585078475,-0.3720974250256567,0.9208808124663601,0.2104574362605318,-0.056654691812382744
9552,3.0,301.86911000000003,2749.2466,0.0,0.0,0.0,0.09686820435743895,0.0,0.0,-0.2211852318267828,-0.27484835540792074,-0.3396687203451927,0.9092807402865221,0.1887729721954418,-0.03261955033679897
9553,3.0,302.32521,2445.7776,0.0,0.0,0.0,0.09687834550111123,0.0,0.0,-0.16324610163113584,-0.3062862332130977,-0.27392298448909375,0.9277951095587482,0.19648306578386882,-0.0889759808364956
9554,3.0,301.08494,2271.8559,0.0,0.0,0.0,0.09688848664478347,0.0,0.0,-0.15535475786482084,-0.2634338498513968,-0.27179883737695676,0.9001046663209142,0.21522002583806282,-0.05658056344831685
9555,3.0,300.22303999999997,2717.8024,0.0,0.0,0.0,0.09689862778845575,0.0,0.0,-0.2084373803311678,-0.3133790548406047,-0.3043276309022987,0.9059796626532313,0.2134120026246248,-0.0989290403100361
9556,3.0,300.25467000000003,2785.4894,0.0,0.0,0.0,0.096908768932128,0.0,0.0,-0.1839530022647478,-0.3108796404214317,-0.35188659137600264,0.8883632052221221,0.22960360750011177,-0.07277609466794133
9557,3.0,300.47628,2215.2551,0.0,0.0,0.0,0.09691891007580027,0.0,0.0,-0.1048364991490569,-0.2532750651438027,-0.3152706509222907,0.8837336655152223,0.24623412192141575,-0.08985616789361332
9558,3.0,300.25841,2072.3538,0.0,0.0,0.0,0.09692905121947253,0.0,0.0,-0.11178361541218389,-0.2685067878020567,-0.24965339517887178,0.8761769577269332,0.22853707057735276,-0.06567798995441293
9559,3.0,299.60792000000004,2516.6997,0.0,0.0,0.0,0.09693919236314479,0.0,0.0,-0.16612510993527185,-0.25956603103967274,-0.3393227460985477,0.8914657972933242,0.2087485697018798,-0.07002602041253013
9560,3.0,299.68311,2854.486,0.0,0.0,0.0,0.09694933350681705,0.0,0.0,-0.23723266134554075,-0.3031931758253367,-0.3272666505787037,0.8792512902528462,0.2251918051072008,-0.06437535765235314
9561,3.0,299.68264,2631.7686,0.0,0.0,0.0,0.09695947465048932,0.0,0.0,-0.17018823270377084,-0.30770212863783575,-0.32210155753144865,0.8829037427558151,0.2192195266327828,-0.06735775090394244
9562,3.0,299.88957999999997,2485.9141,0.0,0.0,0.0,0.09696961579416156,0.0,0.0,-0.15181082444756186,-0.26686189785471875,-0.33698308069014066,0.8894612339579893,0.24828377488620076,-0.06527544088843443
9563,3.0,299.62633,2489.3946,0.0,0.0,0.0,0.09697975693783384,0.0,0.0,-0.15630850991894885,-0.27769706753406675,-0.3227082308963227,0.8851026981228353,0.22666306451740278,-0.04074913351962636
9564,3.0,299.23206,2763.4525,0.0,0.0,0.0,0.09698989808150608,0.0,0.0,-0.19572281410133782,-0.2990820452670997,-0.34521567695763467,0.9189128578571382,0.2074631403600178,-0.07382308802277153
9565,3.0,299.2473,2924.2689,0.0,0.0,0.0,0.09700003922517836,0.0,0.0,-0.22612131008643577,-0.28323318237043876,-0.37955022401619065,0.8998148261298091,0.19671412733667282,-0.046813782912910655
9566,3.0,299.84339,2372.4938,0.0,0.0,0.0,0.09701018036885062,0.0,0.0,-0.16740882688446485,-0.2728873719593868,-0.2808826751859617,0.9097298127308422,0.22385166025993877,-0.0959477575805564
9567,3.0,300.97185,2075.3255,0.0,0.0,0.0,0.09702032151252288,0.0,0.0,-0.12009169881212789,-0.22084828563852876,-0.2899071466716077,0.9126481250063572,0.20665491128525182,-0.06423603475035303
9568,3.0,300.65987,2438.9201,0.0,0.0,0.0,0.09703046265619514,0.0,0.0,-0.14169885189458786,-0.26502521992845274,-0.33464674887456264,0.8933001954068652,0.23906726210910176,-0.08307851061696062
9569,3.0,299.46672,2667.9961,0.0,0.0,0.0,0.0970406037998674,0.0,0.0,-0.1842467839987418,-0.2926087754132377,-0.3341486148604007,0.900780342017598,0.21438649590829978,-0.04957950681611635
9570,3.0,300.00432,2407.0009,0.0,0.0,0.0,0.09705074494353966,0.0,0.0,-0.16093300364035085,-0.26631187530293576,-0.3044232817117387,0.8747795845140233,0.24612345474549374,-0.05473652932632485
9571,3.0,300.38071,2367.1443,0.0,0.0,0.0,0.09706088608721193,0.0,0.0,-0.15297977055792786,-0.2825639205468877,-0.28400906850201274,0.8599549148184422,0.22880384919618177,-0.06099890333087304
9572,3.0,299.81273999999996,2727.4364,0.0,0.0,0.0,0.09707102723088418,0.0,0.0,-0.2189774814488948,-0.2915668098054037,-0.3185282601262917,0.8837059531249871,0.21890883375461978,-0.06984023087419414
9573,3.0,299.72192,2999.1412,0.0,0.0,0.0,0.09708116837455645,0.0,0.0,-0.1996217194261298,-0.32466402650434467,-0.3873782801812596,0.9065298979875351,0.2116648250796918,-0.07447048492241463
9574,3.0,299.01102000000003,2743.3345,0.0,0.0,0.0,0.0970913095182287,0.0,0.0,-0.16941628811508583,-0.3329644902635367,-0.3315243984264107,0.9044205544593591,0.23222816843913577,-0.09198519988448242
9575,3.0,299.27296,2403.0871,0.0,0.0,0.0,0.09710145066190097,0.0,0.0,-0.15075950654130485,-0.26619303119870674,-0.3135259355751007,0.9207812809090371,0.20847223613460777,-0.06813683991908254
9576,3.0,300.16687,2158.0606,0.0,0.0,0.0,0.09711159180557324,0.0,0.0,-0.12818306828068388,-0.24354424688094575,-0.2842692305976887,0.9091853123921041,0.2211749574707688,-0.07931130754016663
9577,3.0,300.59313,2322.4007,0.0,0.0,0.0,0.09712173294924549,0.0,0.0,-0.15623203993390186,-0.26311815151773976,-0.28660165126788073,0.9005092672183451,0.2132723767608448,-0.08469158045815822
9578,3.0,300.72677999999996,2572.901,0.0,0.0,0.0,0.09713187409291776,0.0,0.0,-0.1729750453813078,-0.26937515327025774,-0.3397474600104637,0.9096816833510921,0.2248790654638358,-0.059298626093318735
9579,3.0,300.07819,2426.155,0.0,0.0,0.0,0.09714201523659001,0.0,0.0,-0.12783148062848487,-0.28354677314388776,-0.3261122851372767,0.8908279158253701,0.2094845337795138,-0.07625559145834093
9580,3.0,301.54434,2466.4323,0.0,0.0,0.0,0.09715215638026228,0.0,0.0,-0.14923348096319786,-0.27534837406726875,-0.3251519874875027,0.8747168339353302,0.23530340275763778,-0.08197406800796063
9581,3.0,301.20254,2794.6358,0.0,0.0,0.0,0.09716229752393454,0.0,0.0,-0.2192181384801458,-0.28142773281225475,-0.3488536298516727,0.8673121643245462,0.2232445613300228,-0.03618127946556426
9582,3.0,300.17593,2941.4935,0.0,0.0,0.0,0.09717243866760679,0.0,0.0,-0.22078274862206076,-0.3319807764039517,-0.34137704988129164,0.8754074956009931,0.24807138753273975,-0.056017186260215845
9583,3.0,300.30175,2729.6013,0.0,0.0,0.0,0.09718257981127906,0.0,0.0,-0.22946346487878078,-0.28734376577362175,-0.3129234064031357,0.8844651307624122,0.23662348525291976,-0.03973869518865386
9584,3.0,300.04024,2434.5909,0.0,0.0,0.0,0.09719272095495131,0.0,0.0,-0.17624651584667683,-0.2708196730103207,-0.2929886631407297,0.8985879119812222,0.2213805864460628,-0.07840326319804963
9585,3.0,298.86462,2275.5612,0.0,0.0,0.0,0.09720286209862358,0.0,0.0,-0.1343632454106199,-0.25494180076329676,-0.3024087277304177,0.9000359780966352,0.2010265400272748,-0.08051913307011972
9586,3.0,299.84252999999995,2312.1346,0.0,0.0,0.0,0.09721300324229586,0.0,0.0,-0.1272126077324069,-0.2544280728300957,-0.3211904937040337,0.900760431653133,0.1991023780873748,-0.08851188594619301
9587,3.0,300.00057000000004,2303.877,0.0,0.0,0.0,0.0972231443859681,0.0,0.0,-0.13668754994751087,-0.2720711382088307,-0.29156238190246675,0.9280385732927762,0.1979000757837168,-0.08133623112301101
9588,3.0,300.61557,2473.6878,0.0,0.0,0.0,0.09723328552964038,0.0,0.0,-0.15605947330937087,-0.2832449056740957,-0.3126349340996657,0.8968818723903491,0.2298087298503558,-0.07806496736066242
9589,3.0,301.52488,2455.6287,0.0,0.0,0.0,0.09724342667331262,0.0,0.0,-0.1879576098399718,-0.2665633943752588,-0.2919287832711277,0.9048344164627042,0.2359704455634698,-0.07319485370901964
9590,3.0,299.64531,2440.3677,0.0,0.0,0.0,0.0972535678169849,0.0,0.0,-0.14413372228239085,-0.3181139421604017,-0.27956317024323674,0.8959378779346843,0.22952602293995478,-0.07983194482579953
9591,3.0,300.0043,2735.6109,0.0,0.0,0.0,0.09726370896065716,0.0,0.0,-0.14786602902574086,-0.3174520264000757,-0.36623933983750867,0.890131650886654,0.22658484160968279,-0.08548214351743072
9592,3.0,299.86498,2761.5833,0.0,0.0,0.0,0.09727385010432942,0.0,0.0,-0.15536062458289984,-0.34318505282972767,-0.3409066789198697,0.8752443218048891,0.2126902443133928,-0.07706624524059622
9593,3.0,299.99514,2425.6724,0.0,0.0,0.0,0.09728399124800167,0.0,0.0,-0.14439007455769087,-0.2874929871158487,-0.3054607788866317,0.8733084973563382,0.2013376584704798,-0.09405001107076341
9594,3.0,300.49505,2411.7724,0.0,0.0,0.0,0.09729413239167393,0.0,0.0,-0.16770789778398085,-0.26224909703947075,-0.3031615725547177,0.8576821340491361,0.2283951649008478,-0.05494136594004065
9595,3.0,300.41692,2450.063,0.0,0.0,0.0,0.0973042735353462,0.0,0.0,-0.18931536497397183,-0.26877474179100175,-0.28666787729441673,0.8902517007585021,0.23689307057452577,-0.06856849966043403
9596,3.0,300.43154,2464.9328,0.0,0.0,0.0,0.09731441467901847,0.0,0.0,-0.15959222044552585,-0.2679594908930427,-0.3217263206219157,0.9181521704770641,0.26830426950456976,-0.06275855601103725
9597,3.0,300.56607,2623.8735,0.0,0.0,0.0,0.09732455582269071,0.0,0.0,-0.1285324369151639,-0.29390474255613974,-0.37515482614239865,0.9037440478975932,0.23599256481315278,-0.07891449346975413
9598,3.0,300.28469,2746.1526,0.0,0.0,0.0,0.09733469696636299,0.0,0.0,-0.16130195839926384,-0.31043222970727574,-0.36302765112803964,0.919232984093732,0.2135602816442588,-0.07599686919105703
9599,3.0,300.6256,2649.7096,0.0,0.0,0.0,0.09734483811003523,0.0,0.0,-0.16279281406639987,-0.2947107627456877,-0.34794197833919965,0.8980935573899331,0.2021124502919458,-0.062464571627023235
9600,3.0,300.35839,2638.6782,0.0,0.0,0.0,0.09735497925370751,0.0,0.0,-0.19745447878723982,-0.3079309103779147,-0.2967068958401907,0.91324414911268,0.22378486681334678,-0.07941046926120313
9601,3.0,300.05512999999996,2694.6048,0.0,0.0,0.0,0.09736512039737977,0.0,0.0,-0.2280302530098338,-0.28054105791474676,-0.31052127412606373,0.8803336136121631,0.20219640819523182,-0.03352016046293226
9602,3.0,300.40625,2604.5255,0.0,0.0,0.0,0.09737526154105203,0.0,0.0,-0.16643310756816884,-0.2911905393807687,-0.3340870801818277,0.8740840795128821,0.22010240184241578,-0.07393492854230933
9603,3.0,300.0412,2503.4563,0.0,0.0,0.0,0.09738540268472429,0.0,0.0,-0.14588512508024087,-0.2885489963700687,-0.32655409257837964,0.8540881258119353,0.22855345483146977,-0.05532373207727724
9604,3.0,299.51982000000004,2576.0758,0.0,0.0,0.0,0.09739554382839655,0.0,0.0,-0.15021143956221486,-0.27102482575806774,-0.36182645326699064,0.8853483099470751,0.2254886265914948,-0.06401010328280535
9605,3.0,299.06052999999997,2713.3233,0.0,0.0,0.0,0.0974056849720688,0.0,0.0,-0.18648571208220682,-0.2900737148555467,-0.34822309444694366,0.8736044879755501,0.2202325132877568,-0.07230836018327952
9606,3.0,299.3371,2612.2722,0.0,0.0,0.0,0.09741582611574108,0.0,0.0,-0.20580105555848283,-0.2716198062167878,-0.3166446484553937,0.9108676925931422,0.23586555391311778,-0.06652679564268353
9607,3.0,299.77661,2396.1992,0.0,0.0,0.0,0.09742596725941333,0.0,0.0,-0.18436468578037782,-0.24824560575493373,-0.29577443217066374,0.8984183445769871,0.23074367598262777,-0.07393341879966034
9608,3.0,299.34227000000004,2340.865,0.0,0.0,0.0,0.0974361084030856,0.0,0.0,-0.09958402442642801,-0.3042403596711857,-0.30774012551658575,0.9404118768889261,0.24127905535488875,-0.09558901030315081
9609,3.0,300.23918,2360.4317,0.0,0.0,0.0,0.09744624954675785,0.0,0.0,-0.0996497184966615,-0.28580453754671176,-0.3320580265915757,0.9168068783192942,0.21386920133474682,-0.09552397889848271
9610,3.0,300.38084,2453.3877,0.0,0.0,0.0,0.09745639069043012,0.0,0.0,-0.13361156582393485,-0.2894873267576747,-0.3226697172600217,0.9217851989756162,0.1883445903181638,-0.08948447229317982
9611,3.0,300.22866,2498.048,0.0,0.0,0.0,0.09746653183410238,0.0,0.0,-0.18446305210008582,-0.28177825655184874,-0.2931029172220057,0.8836202119015251,0.2007275501877668,-0.09054927858476801
9612,3.0,299.9697,2276.51,0.0,0.0,0.0,0.09747667297777464,0.0,0.0,-0.19836178345678382,-0.24754001891529775,-0.24610040330571875,0.8876954227437173,0.2191007838535638,-0.06771693286564094
9613,3.0,299.73217,2406.071,0.0,0.0,0.0,0.0974868141214469,0.0,0.0,-0.17496856429055282,-0.2903983095250817,-0.2660186204589937,0.8916637458328601,0.24073647005883977,-0.08096007620888741
9614,3.0,300.64309,2731.5190000000002,0.0,0.0,0.0,0.09749695526511916,0.0,0.0,-0.19371992262866783,-0.26080615796956375,-0.37578748937233764,0.8784309731043871,0.25515548507688574,-0.05542441367346374
9615,3.0,300.23527,2789.8151,0.0,0.0,0.0,0.09750709640879142,0.0,0.0,-0.1897694530062868,-0.2919809859162797,-0.3662836695293836,0.8895628325455162,0.23863679293661777,-0.08025785437283352
9616,3.0,299.79656,2653.2075,0.0,0.0,0.0,0.09751723755246369,0.0,0.0,-0.17044182893879883,-0.2837796889443747,-0.35228732165805166,0.8866406091246152,0.2121415187217378,-0.061966851018902036
9617,3.0,299.94081,2479.2388,0.0,0.0,0.0,0.09752737869613594,0.0,0.0,-0.2066549416827548,-0.2530118835628288,-0.29395985322907875,0.9123424274511871,0.2107878368531398,-0.06820689603099653
9618,3.0,299.41107,2541.6589,0.0,0.0,0.0,0.09753751983980821,0.0,0.0,-0.20804275994722182,-0.27691000525388976,-0.2876480751761547,0.9245106289620951,0.20335569803214482,-0.05419782477815885
9619,3.0,300.48676,2601.4766,0.0,0.0,0.0,0.09754766098348046,0.0,0.0,-0.19605425834154883,-0.2912059103847857,-0.30352376893546373,0.9285064415264512,0.2378948202858908,-0.07513107433835972
9620,3.0,300.53825,2664.9781,0.0,0.0,0.0,0.09755780212715273,0.0,0.0,-0.15721512557842485,-0.3011713163107947,-0.35170035600762267,0.8783663784105121,0.23014777346631676,-0.051411710229940746
9621,3.0,300.08605,2364.2814,0.0,0.0,0.0,0.097567943270825,0.0,0.0,-0.1203499458651149,-0.2983140118238007,-0.3000185720695277,0.8900176399854022,0.24245808330374977,-0.10045487742362451
9622,3.0,299.63202,2336.79,0.0,0.0,0.0,0.09757808441449725,0.0,0.0,-0.12588635454401587,-0.25927554236850375,-0.3251639235736807,0.8949240908121312,0.23388920959306775,-0.03389206985913686
9623,3.0,299.5518,2591.9088,0.0,0.0,0.0,0.09758822555816953,0.0,0.0,-0.2172221675056588,-0.2872164914285607,-0.2834368861705427,0.8936349631074041,0.2304682036779408,-0.09988903499803022
9624,3.0,299.71177,2738.3208,0.0,0.0,0.0,0.09759836670184177,0.0,0.0,-0.22990956850030778,-0.2628919434329147,-0.3395796252638997,0.8660926975641942,0.2015844861948398,-0.03392717897510187
9625,3.0,300.37219,2516.885,0.0,0.0,0.0,0.09760850784551403,0.0,0.0,-0.15726148177049984,-0.2892163634159327,-0.31859235832761773,0.8732785963458871,0.22358422302854478,-0.12135802838960487
9626,3.0,299.06723,2399.2687,0.0,0.0,0.0,0.0976186489891863,0.0,0.0,-0.11933201454965289,-0.27285966970165276,-0.33712607054425264,0.8891810095103332,0.25134441840326277,-0.061418991756082536
9627,3.0,299.0566,2601.0222,0.0,0.0,0.0,0.09762879013285855,0.0,0.0,-0.16583052773369883,-0.2850187823591637,-0.3397964810503017,0.8873265490448121,0.2649862807271098,-0.08864316161589891
9628,3.0,299.58166,2708.3434,0.0,0.0,0.0,0.09763893127653082,0.0,0.0,-0.18626372925029883,-0.2898431903252957,-0.3471618568222077,0.9007759141146612,0.2458338476019118,-0.04719747742102836
9629,3.0,299.93279,2453.0604,0.0,0.0,0.0,0.09764907242020307,0.0,0.0,-0.17412080832938584,-0.29336438641031076,-0.2781838936771127,0.9023684392968311,0.2181694550241488,-0.07706298561502453
9630,3.0,300.57684,2361.8175,0.0,0.0,0.0,0.09765921356387534,0.0,0.0,-0.14233372400974487,-0.26233200116265276,-0.3132678202446267,0.9389901046136081,0.2181878151159608,-0.05703102505852394
9631,3.0,300.43217000000004,2501.9409,0.0,0.0,0.0,0.09766935470754762,0.0,0.0,-0.13932950839075187,-0.3029462265109647,-0.3182518353665107,0.9148806898791941,0.1930946054619538,-0.08101097074816033
9632,3.0,300.14617999999996,2681.7691,0.0,0.0,0.0,0.09767949585121986,0.0,0.0,-0.16943187190162384,-0.27135897537604575,-0.37439998521540163,0.8905162198296082,0.1944598789116958,-0.05520764705307054
9633,3.0,300.83662999999996,2949.1133,0.0,0.0,0.0,0.09768963699489214,0.0,0.0,-0.2011429421987628,-0.3135337376008707,-0.3817801240412646,0.8692598944617721,0.2044880759464018,-0.05146559588350885
9634,3.0,300.01288,2680.5756,0.0,0.0,0.0,0.09769977813856438,0.0,0.0,-0.17653117832977083,-0.29474080561115273,-0.34355608475134564,0.8804357694872451,0.24968623461461276,-0.04758431401770616
9635,3.0,299.74282999999997,2420.8388,0.0,0.0,0.0,0.09770991928223666,0.0,0.0,-0.20073206928321283,-0.2453085888825728,-0.28983386842437575,0.8726806470643742,0.2507723576618048,-0.03960177774239117
9636,3.0,299.12765,2687.6032,0.0,0.0,0.0,0.09772006042590892,0.0,0.0,-0.19149856430193682,-0.2982658925765517,-0.32719979633710566,0.8946230339424192,0.22756072304599476,-0.07201716122379043
9637,3.0,299.02614,2797.6047,0.0,0.0,0.0,0.09773020156958118,0.0,0.0,-0.17721814163256883,-0.3137771202748907,-0.35940671070318064,0.8800357788777692,0.23681230440905476,-0.0899772289890611
9638,3.0,299.11973,2555.9805,0.0,0.0,0.0,0.09774034271325344,0.0,0.0,-0.1315981872127299,-0.3123743059089437,-0.3329817459127397,0.919702392467559,0.23775854827994178,-0.07747128690182073
9639,3.0,299.07074,2361.9414,0.0,0.0,0.0,0.0977504838569257,0.0,0.0,-0.13405062735726686,-0.2977912456997077,-0.2861293348662667,0.9059810812033712,0.2444753426628378,-0.0932113257244916
9640,3.0,299.43483,2355.2874,0.0,0.0,0.0,0.09776062500059796,0.0,0.0,-0.19102716995791383,-0.2419553187366308,-0.28296605924657575,0.8989057888025942,0.24157362742396077,-0.06498755019052184
9641,3.0,299.84251,2588.1868,0.0,0.0,0.0,0.09777076614427022,0.0,0.0,-0.2023704338999068,-0.3138434678914387,-0.27053025838425776,0.9029407229533112,0.20038944889439883,-0.08326840077845132
9642,3.0,300.2603,2697.4949,0.0,0.0,0.0,0.09778090728794248,0.0,0.0,-0.16825332018030983,-0.3184991291859167,-0.3332186437861197,0.9084692890764381,0.20156009726493282,-0.06659227895689623
9643,3.0,299.88614,2629.4873,0.0,0.0,0.0,0.09779104843161474,0.0,0.0,-0.1349725025632489,-0.31988247901744266,-0.34444349932142665,0.9061979775197772,0.20417353271785882,-0.08902128730146701
9644,3.0,299.48881,2504.5460000000003,0.0,0.0,0.0,0.097801189575287,0.0,0.0,-0.1169792275524509,-0.3046333183249677,-0.33970689960896067,0.9081541480303361,0.18904620521740784,-0.08264885508430692
9645,3.0,300.1069,2536.2201,0.0,0.0,0.0,0.09781133071895924,0.0,0.0,-0.16391842346998886,-0.2925519624801307,-0.3144771950339827,0.8819298168921961,0.22493350739170878,-0.08259234308647963
9646,3.0,300.03526,2761.2631,0.0,0.0,0.0,0.09782147186263151,0.0,0.0,-0.2018173918628258,-0.3127228943408467,-0.32481473732421867,0.9020881945841732,0.24850343737537978,-0.07331632719725813
9647,3.0,299.89928,2671.3647,0.0,0.0,0.0,0.09783161300630379,0.0,0.0,-0.23160652937028478,-0.3003056967503647,-0.2801159285702898,0.9159048830802742,0.26887815409620774,-0.05156910951372485
9648,3.0,300.00209,2470.2244,0.0,0.0,0.0,0.09784175414997603,0.0,0.0,-0.14699116862439887,-0.28567403093383176,-0.31822134667100166,0.8675634098193422,0.24722412806412178,-0.0957076325056079
9649,3.0,300.40764,2599.1707,0.0,0.0,0.0,0.09785189529364831,0.0,0.0,-0.18115621920622682,-0.29393708549933173,-0.3149896766695607,0.8726169541630882,0.22918470964376977,-0.06991833725815264
9650,3.0,300.4953,2861.1287,0.0,0.0,0.0,0.09786203643732055,0.0,0.0,-0.18872243128045382,-0.3002303920029327,-0.38075886926547464,0.8844366888321052,0.22278314749948477,-0.06071161045051945
9651,3.0,300.39732999999995,2716.7562,0.0,0.0,0.0,0.09787217758099283,0.0,0.0,-0.20706466962569178,-0.2980398972742477,-0.32072148049774574,0.9355851181825621,0.2339717793437168,-0.05568033531747124
9652,3.0,300.17807999999997,2448.5826,0.0,0.0,0.0,0.09788231872466507,0.0,0.0,-0.1848092289967508,-0.2766710302178047,-0.2828277303429237,0.9189392428897422,0.2065957476119128,-0.06360275749085344
9653,3.0,299.12055,2431.1498,0.0,0.0,0.0,0.09789245986833735,0.0,0.0,-0.2077074045616248,-0.24772706488375773,-0.28357437407661173,0.9171567738438261,0.21576840692468383,-0.059618855681422944
9654,3.0,299.53529,2540.8608,0.0,0.0,0.0,0.0979026010120096,0.0,0.0,-0.15389963952871186,-0.29328358984733677,-0.3251750186622757,0.912847107060995,0.23018942817792779,-0.07089303319184763
9655,3.0,300.14007999999995,2549.6408,0.0,0.0,0.0,0.09791274215568187,0.0,0.0,-0.14250737481188286,-0.2923305673332807,-0.3401892066565607,0.9244658939701801,0.24224614178033277,-0.06729684545368153
9656,3.0,299.70492,2533.3102,0.0,0.0,0.0,0.09792288329935413,0.0,0.0,-0.13463767406770388,-0.3006286398222367,-0.3347967301543647,0.9079996273900862,0.19678408212357681,-0.08180424627795052
9657,3.0,300.47087,2332.9767,0.0,0.0,0.0,0.09793302444302639,0.0,0.0,-0.15904329220385086,-0.24647203304489576,-0.3036513269905527,0.8897541240318951,0.21628196260536778,-0.08474299175498212
9658,3.0,301.22941000000003,2413.4599,0.0,0.0,0.0,0.09794316558669865,0.0,0.0,-0.17096030901496884,-0.2840618993622267,-0.27860933712910074,0.8631999495887023,0.24880710843034975,-0.06947865764225963
9659,3.0,300.58479,2804.9569,0.0,0.0,0.0,0.0979533067303709,0.0,0.0,-0.2040428639849628,-0.3177731050917637,-0.3308208988819807,0.9066834357751881,0.28006442506770673,-0.07322199057319784
9660,3.0,300.90308999999996,2869.2594,0.0,0.0,0.0,0.09796344787404317,0.0,0.0,-0.1694532109487298,-0.3116810604555257,-0.3910489509210266,0.8834588518231002,0.26523279434393876,-0.06713952824315553
9661,3.0,300.07251,2565.7947,0.0,0.0,0.0,0.09797358901771544,0.0,0.0,-0.15023800697983686,-0.29602387408028175,-0.3336756195812197,0.896029607466237,0.24039016143966174,-0.05883173361949005
9662,3.0,298.64385,2347.9452,0.0,0.0,0.0,0.09798373016138769,0.0,0.0,-0.11003989305009189,-0.26767928671038876,-0.3359975429803757,0.9037905155471793,0.2005773662579448,-0.07232122339329904
9663,3.0,299.29534,2458.1402,0.0,0.0,0.0,0.09799387130505996,0.0,0.0,-0.18260525804173583,-0.24857756675269577,-0.3160304263772747,0.8922608237192872,0.18066089189484183,-0.04738165994470575
9664,3.0,299.62933,2626.4719,0.0,0.0,0.0,0.0980040124487322,0.0,0.0,-0.18232923858199482,-0.2909875853857387,-0.3250650506289227,0.9119303589005191,0.16478080063009884,-0.06269274744354243
9665,3.0,299.39328,2621.6366,0.0,0.0,0.0,0.09801415359240448,0.0,0.0,-0.2063239736700908,-0.2643210111089528,-0.32626707935505367,0.8857334665750871,0.19865906090362281,-0.037833488118374566
9666,3.0,300.12859,2638.3108,0.0,0.0,0.0,0.09802429473607674,0.0,0.0,-0.15494022711640987,-0.30000121509531474,-0.3470391725000997,0.9046155037785992,0.26490768291685274,-0.07551025684378213
9667,3.0,299.87683,2589.3801,0.0,0.0,0.0,0.098034435879749,0.0,0.0,-0.1758769328727018,-0.2753023725127287,-0.3359275780609707,0.8894016953821132,0.2553704359530998,-0.05980032978758305
9668,3.0,299.70047,2650.5731,0.0,0.0,0.0,0.09804457702342126,0.0,0.0,-0.1828555004189328,-0.2857666318604707,-0.33708590531028865,0.9024368134135792,0.23583294752489975,-0.08530760409495501
9669,3.0,300.31404,2764.8567,0.0,0.0,0.0,0.09805471816709352,0.0,0.0,-0.2290693308548828,-0.2827792463256387,-0.3285988110151777,0.8952116613230121,0.19889544201945183,-0.058652990222349446
9670,3.0,300.88562,2462.5542,0.0,0.0,0.0,0.09806485931076578,0.0,0.0,-0.19429113224004183,-0.25712977249923274,-0.2971340922148517,0.9193540370831792,0.2342033373890698,-0.07193438274362084
9671,3.0,299.9569,2322.2951,0.0,0.0,0.0,0.09807500045443805,0.0,0.0,-0.13034862692440788,-0.28335206700467175,-0.29221902876227274,0.8751687536124313,0.2411229135144788,-0.07619979988133473
9672,3.0,299.35531000000003,2481.6066,0.0,0.0,0.0,0.0980851415981103,0.0,0.0,-0.14715674382323984,-0.2759109710527928,-0.33127871567466366,0.892064405187402,0.24624919908290374,-0.07576814824598403
9673,3.0,299.93191,2653.4842,0.0,0.0,0.0,0.09809528274178257,0.0,0.0,-0.15957438724376585,-0.3073110748942417,-0.33970747716151767,0.8794450642019701,0.23334125407148879,-0.07963317758018272
9674,3.0,300.7287,2484.6543,0.0,0.0,0.0,0.09810542388545482,0.0,0.0,-0.1498821839422199,-0.2947550113775547,-0.31063568019485466,0.9125758498767242,0.2258667309988108,-0.07360471438771973
9675,3.0,300.33691,2304.3543,0.0,0.0,0.0,0.09811556502912709,0.0,0.0,-0.15035223066360986,-0.2754751519197807,-0.27463877475723675,0.9348978205072311,0.2169866476524148,-0.09378936058853922
9676,3.0,300.39266000000003,2333.3812,0.0,0.0,0.0,0.09812570617279935,0.0,0.0,-0.15868456113844687,-0.26560256983543273,-0.2850024791650547,0.9324487443530262,0.1785137744029378,-0.08490224427319912
9677,3.0,299.53524,2599.2705,0.0,0.0,0.0,0.09813584731647161,0.0,0.0,-0.16706513245054483,-0.3002267037725687,-0.3228214818599997,0.945794757912675,0.1909260982604388,-0.1015393833236569
9678,3.0,299.18255,2846.8971,0.0,0.0,0.0,0.09814598846014387,0.0,0.0,-0.19408697247739282,-0.29112892364218773,-0.3801697251273306,0.9189090075067582,0.24354428741094974,-0.07432702694675643
9679,3.0,300.13349,2685.6409999999996,0.0,0.0,0.0,0.09815612960381613,0.0,0.0,-0.17546257437680784,-0.2928674176337637,-0.34803781153365765,0.9104068664476621,0.26046285870318275,-0.06437689272625463
9680,3.0,300.835,2377.6847,0.0,0.0,0.0,0.09816627074748839,0.0,0.0,-0.14771951306128084,-0.26946330602895774,-0.3055739487903007,0.8481837148292152,0.23692078296476077,-0.05749439243525475
9681,3.0,300.8539,2572.5341,0.0,0.0,0.0,0.09817641189116066,0.0,0.0,-0.22860259746131978,-0.25205512215590375,-0.30132842073879973,0.8701708366991753,0.2101797753356288,-0.05057214132958175
9682,3.0,301.16882999999996,3096.9702,0.0,0.0,0.0,0.09818655303483291,0.0,0.0,-0.24592396606580574,-0.3284453238900297,-0.36703230936576864,0.8953206769012713,0.23492091097738876,-0.040985604814714256
9683,3.0,300.5865,2858.259,0.0,0.0,0.0,0.09819669417850518,0.0,0.0,-0.2050741398042418,-0.3147720001505777,-0.3489932050529477,0.9133045894811452,0.2358223286638518,-0.05611843324995815
9684,3.0,300.16384,2575.5729,0.0,0.0,0.0,0.09820683532217743,0.0,0.0,-0.13518360308908287,-0.29898008190953673,-0.34874614428106465,0.8827356445642252,0.21183015709850878,-0.08593169826879832
9685,3.0,300.62436,2478.7922,0.0,0.0,0.0,0.0982169764658497,0.0,0.0,-0.13590770200804586,-0.28119712722199575,-0.33638609399622266,0.9088435937958791,0.2130807812994358,-0.08183876365585713
9686,3.0,300.55447000000004,2537.7025,0.0,0.0,0.0,0.09822711760952196,0.0,0.0,-0.14710975941610285,-0.2886844577759377,-0.33560398650903467,0.9012510980140581,0.24393306134181877,-0.0867171677198181
9687,3.0,299.55997,2626.1396,0.0,0.0,0.0,0.09823725875319422,0.0,0.0,-0.20303861154585082,-0.2905157958741767,-0.3047264562741597,0.9252860489986231,0.22479023382756877,-0.1086935369797169
9688,3.0,299.94911,2572.901,0.0,0.0,0.0,0.09824739989686648,0.0,0.0,-0.17113847891255285,-0.26463706408014476,-0.3463221055368307,0.8897371723577222,0.1909757069853348,-0.07084689788829443
9689,3.0,300.34777,2331.1926,0.0,0.0,0.0,0.09825754104053874,0.0,0.0,-0.14455061390353485,-0.2754248744498188,-0.2886488420349227,0.9130176674503282,0.1983280726259568,-0.10672158003259989
9690,3.0,299.68261,2408.1644,0.0,0.0,0.0,0.098267682184211,0.0,0.0,-0.12348330020935289,-0.2542431850843488,-0.35429536044122967,0.9297788708695301,0.22773946036363477,-0.04424769157090716
9691,3.0,300.16872,2880.0144,0.0,0.0,0.0,0.09827782332788328,0.0,0.0,-0.18806323103039582,-0.33598345880398567,-0.3514057839385507,0.9009258447319582,0.25453706814335275,-0.08528669567914152
9692,3.0,298.51613,2930.4126,0.0,0.0,0.0,0.09828796447155552,0.0,0.0,-0.2192953380052648,-0.3169721004902107,-0.35450483976690367,0.8943168297621991,0.24248596794650176,-0.02971747438088637
9693,3.0,299.5986,2640.198,0.0,0.0,0.0,0.0982981056152278,0.0,0.0,-0.2002389103270418,-0.2945566575379787,-0.3077586781259167,0.9049951989885721,0.22905216639818882,-0.07410469049056354
9694,3.0,299.11519,2508.7576,0.0,0.0,0.0,0.09830824675890004,0.0,0.0,-0.16130557570212084,-0.30053620101561374,-0.3007578900049927,0.9119418491566531,0.25732356671335876,-0.05941881478043044
9695,3.0,299.51998,2474.0768,0.0,0.0,0.0,0.09831838790257232,0.0,0.0,-0.15993988681983784,-0.26932256559006773,-0.32279512722489867,0.8978764077610022,0.2033521313917928,-0.0941658073186916
9696,3.0,299.88316000000003,2457.7537,0.0,0.0,0.0,0.09832852904624459,0.0,0.0,-0.13830352173699487,-0.2658523967800887,-0.3429398361730267,0.8928461276395521,0.16556809595779884,-0.097624581118046
9697,3.0,300.49388999999996,2383.399,0.0,0.0,0.0,0.09833867018991684,0.0,0.0,-0.12827587185734288,-0.2634851709689618,-0.3327327498331657,0.9114790370409771,0.18206183174810384,-0.06902180141067144
9698,3.0,300.09173,2376.2694,0.0,0.0,0.0,0.09834881133358911,0.0,0.0,-0.16960804569651083,-0.25554001348983574,-0.29717849283423375,0.9549558965718091,0.24734701503624976,-0.033304010911849966
9699,3.0,300.84647,2465.0669,0.0,0.0,0.0,0.09835895247726135,0.0,0.0,-0.19060461426871084,-0.27751490543108875,-0.2811992550472057,0.9130819277716702,0.25011736239966176,-0.044529802690249365
9700,3.0,300.07966,2751.9743,0.0,0.0,0.0,0.09836909362093363,0.0,0.0,-0.20629499471723078,-0.2942524697254577,-0.3359840059590397,0.8954913994106201,0.22677983145892677,-0.04805283073144516
9701,3.0,299.69761,2927.8728,0.0,0.0,0.0,0.09837923476460589,0.0,0.0,-0.24338722351294875,-0.29695914445258575,-0.34965386438314966,0.9038632263743552,0.2189977059208908,-0.04037491897944426
9702,3.0,299.61523,2647.2776,0.0,0.0,0.0,0.09838937590827815,0.0,0.0,-0.16078058042780785,-0.3047114297751767,-0.3392142776753427,0.9407819867529532,0.23864881008280378,-0.06578582509630543
9703,3.0,299.89445,2502.6033,0.0,0.0,0.0,0.09839951705195041,0.0,0.0,-0.15807126111791883,-0.29151210443250475,-0.3111455375126737,0.8857720916688991,0.2127897454732128,-0.09144907000482051
9704,3.0,299.73663999999997,2651.4011,0.0,0.0,0.0,0.09840965819562267,0.0,0.0,-0.18247498447637883,-0.30402811417273873,-0.3194566403979157,0.8728944327029731,0.20487289820188082,-0.08024482093679722
9705,3.0,298.5695,2590.2228,0.0,0.0,0.0,0.09841979933929493,0.0,0.0,-0.1843364870300948,-0.3024346264029737,-0.3005919399036147,0.8707412255779681,0.22260370090677475,-0.09098203060972732
9706,3.0,299.58399,2343.81,0.0,0.0,0.0,0.0984299404829672,0.0,0.0,-0.13253714581539788,-0.26783184164544477,-0.3120907276034567,0.9193916286618892,0.3029401672753667,-0.07954836246731213
9707,3.0,300.38102000000003,2403.4434,0.0,0.0,0.0,0.09844008162663945,0.0,0.0,-0.15011993294568388,-0.2982317764456847,-0.2822350600944317,0.91466908272831,0.2329318301035818,-0.1013718829496259
9708,3.0,300.38467,2480.9229,0.0,0.0,0.0,0.09845022277031172,0.0,0.0,-0.13356218001406087,-0.2876217002760517,-0.3329547427975747,0.9075895245446122,0.2001550740137678,-0.08516892967301892
9709,3.0,300.36683,2648.716,0.0,0.0,0.0,0.09846036391398397,0.0,0.0,-0.18186816925649082,-0.2976316689414587,-0.3256436873635297,0.905943611214673,0.18662196382315382,-0.08585013670199883
9710,3.0,299.61093999999997,2787.5822,0.0,0.0,0.0,0.09847050505765624,0.0,0.0,-0.1877713542065898,-0.31501500792206066,-0.3445690106113137,0.9477783165734371,0.22831801603823382,-0.04882917485206436
9711,3.0,300.37203,2710.4234,0.0,0.0,0.0,0.0984806462013285,0.0,0.0,-0.21411245228625378,-0.27441566721771776,-0.33537292495623067,0.9224510866763341,0.2207537899342028,-0.06155431941293835
9712,3.0,300.64588,2569.9692,0.0,0.0,0.0,0.09849078734500076,0.0,0.0,-0.17063989906834684,-0.2884805209283107,-0.3220860345399167,0.8724064007923082,0.23573125774486375,-0.06162691574285303
9713,3.0,300.79906,2650.6298,0.0,0.0,0.0,0.09850092848867302,0.0,0.0,-0.2068750702669798,-0.2745348254294777,-0.3243153874099367,0.9053841451719582,0.2585206609115027,-0.04787174976632386
9714,3.0,298.97624,2705.2364,0.0,0.0,0.0,0.09851106963234528,0.0,0.0,-0.16821111831364483,-0.2993771746237267,-0.3547360431747217,0.895213120403156,0.2723961989734117,-0.06691929934717064
9715,3.0,298.5091,2524.7989,0.0,0.0,0.0,0.09852121077601754,0.0,0.0,-0.16900285167678283,-0.28401230076983175,-0.3144606891898537,0.9296117150005332,0.23347990721517278,-0.07422185158637642
9716,3.0,298.77497,2502.3733,0.0,0.0,0.0,0.09853135191968981,0.0,0.0,-0.15156324691812784,-0.2738168465411187,-0.3352789054794517,0.8900505908786541,0.18051570328801284,-0.08583500381175532
9717,3.0,299.01311,2567.6364,0.0,0.0,0.0,0.09854149306336206,0.0,0.0,-0.19503846498379782,-0.28465953453620874,-0.3007993521990847,0.9135569394185502,0.21954810337521077,-0.07167851378861853
9718,3.0,299.19649,2570.1301,0.0,0.0,0.0,0.09855163420703433,0.0,0.0,-0.16963560609923084,-0.2769153045519127,-0.3347044636002587,0.913125102358431,0.26553610062887273,-0.05315620367535885
9719,3.0,300.02212000000003,2514.3992,0.0,0.0,0.0,0.09856177535070658,0.0,0.0,-0.17754427644225582,-0.2881184765350797,-0.29865182940714075,0.9093280691986931,0.24664420450188776,-0.0902384783020944
9720,3.0,299.93535,2556.2257,0.0,0.0,0.0,0.09857191649437885,0.0,0.0,-0.14332135914721686,-0.3084087895225777,-0.3252986351744757,0.8915999313415622,0.2166580911749888,-0.08290901616673282
9721,3.0,299.77125,2640.3612,0.0,0.0,0.0,0.09858205763805111,0.0,0.0,-0.1969972902096188,-0.27908478447352375,-0.3265218104301937,0.9003832290384062,0.2097770286858808,-0.07897977008094642
9722,3.0,300.0788,2748.1246,0.0,0.0,0.0,0.09859219878172337,0.0,0.0,-0.17423086755524783,-0.3084864754077447,-0.3526439147657447,0.92695382826572,0.22887181801288975,-0.06432675407155634
9723,3.0,299.82596,2723.0597,0.0,0.0,0.0,0.09860233992539563,0.0,0.0,-0.19947287298643981,-0.2898428255552597,-0.33842643519258864,0.9122207462466781,0.19384938559394482,-0.06241556679918684
9724,3.0,300.26481,2709.6139,0.0,0.0,0.0,0.09861248106906789,0.0,0.0,-0.15134979565206186,-0.2959033885108907,-0.37640179251046463,0.9023066310407312,0.2037674626077828,-0.05170165883880645
9725,3.0,300.58096,2544.3248,0.0,0.0,0.0,0.09862262221274015,0.0,0.0,-0.14349562803191587,-0.29279837477194975,-0.3371172046058777,0.8890422955716432,0.2203003199844488,-0.07400386805261312
9726,3.0,301.29458,2610.994,0.0,0.0,0.0,0.09863276335641243,0.0,0.0,-0.15316171987838487,-0.27720965370596273,-0.3633056058954717,0.8886652044144272,0.27052003469074876,-0.07675228057786032
9727,3.0,300.96898999999996,2709.0473,0.0,0.0,0.0,0.09864290450008467,0.0,0.0,-0.21195211188054483,-0.28427361797062173,-0.3272569943052507,0.8791356277539312,0.23017099715860878,-0.08203854820457433
9728,3.0,300.23303,2432.9965,0.0,0.0,0.0,0.09865304564375695,0.0,0.0,-0.16479370943637286,-0.27175334244746674,-0.3030231220610537,0.9001286904807853,0.18423537480261584,-0.09653616103287731
9729,3.0,300.0926,2449.4629,0.0,0.0,0.0,0.09866318678742919,0.0,0.0,-0.18956326674343782,-0.2517766202334178,-0.30323567153453074,0.9237104349606221,0.2217247064450248,-0.03693196606715126
9730,3.0,299.20228,2683.2188,0.0,0.0,0.0,0.09867332793110146,0.0,0.0,-0.16969796151038485,-0.3047656589205287,-0.3411678745306477,0.9434741112086452,0.24424570979267476,-0.06607601891169534
9731,3.0,299.07158,2737.3341,0.0,0.0,0.0,0.09868346907477372,0.0,0.0,-0.1928966670549188,-0.30455134639187775,-0.3346332118532267,0.9174086374211831,0.22906634176708776,-0.037413290262154265
9732,3.0,299.84589,2669.8661,0.0,0.0,0.0,0.09869361021844598,0.0,0.0,-0.15509979374215785,-0.3114508702978077,-0.3450219536710157,0.8981467124901792,0.2112536785866148,-0.10394041115811989
9733,3.0,299.90979,2651.1834,0.0,0.0,0.0,0.09870375136211824,0.0,0.0,-0.21003454619879583,-0.28376733742565574,-0.3120916699260497,0.9094698127551821,0.2114014003186938,-0.05041035365961455
9734,3.0,299.90292,2522.6926,0.0,0.0,0.0,0.0987138925057905,0.0,0.0,-0.16491620124096185,-0.27008656629796873,-0.3318328114918487,0.9187596747070201,0.24663624035610177,-0.10018276708276931
9735,3.0,301.55248,2342.8933,0.0,0.0,0.0,0.09872403364946276,0.0,0.0,-0.16914857730616484,-0.25747209904551777,-0.28556039493511676,0.8943462342801012,0.23113801265654577,-0.07199611500596333
9736,3.0,300.75543,2203.6185,0.0,0.0,0.0,0.09873417479313504,0.0,0.0,-0.0993349543795967,-0.25342587728868676,-0.3170841659512707,0.9009182048262042,0.2113406053126938,-0.1113835133451969
9737,3.0,300.13208,2409.5658,0.0,0.0,0.0,0.09874431593680728,0.0,0.0,-0.13868005560665586,-0.2610492265360528,-0.33271857446426667,0.8899469455259251,0.24294081591639177,-0.05336883015584345
9738,3.0,299.46938,2527.2597,0.0,0.0,0.0,0.09875445708047956,0.0,0.0,-0.12762078540269087,-0.3223992098808247,-0.3182038377092737,0.9117060759908842,0.25321204098758276,-0.1081006539487039
9739,3.0,298.84745,2736.0086,0.0,0.0,0.0,0.0987645982241518,0.0,0.0,-0.22630302635936977,-0.3038835841784747,-0.30149168572741275,0.8859381430952872,0.23405431869686277,-0.07765191190439702
9740,3.0,299.05737,2827.3126,0.0,0.0,0.0,0.09877473936782408,0.0,0.0,-0.2107846147178218,-0.3241696921780577,-0.3244781356409987,0.9061023571078403,0.2105682655564698,-0.10836048167184689
9741,3.0,299.35345,2716.3193,0.0,0.0,0.0,0.09878488051149635,0.0,0.0,-0.20729541707096483,-0.3010044137543227,-0.3173934200142917,0.9385285894580601,0.21898083530672577,-0.04889597539140705
9742,3.0,300.5408,2625.2211,0.0,0.0,0.0,0.0987950216551686,0.0,0.0,-0.16883279791249983,-0.27729912368979276,-0.35186975115934066,0.9376892232077211,0.2123626909535658,-0.058077662762569045
9743,3.0,300.5399,2719.7996,0.0,0.0,0.0,0.09880516279884087,0.0,0.0,-0.18517792031063782,-0.29078837028357774,-0.3507848845422727,0.9126992130763991,0.2255866078761648,-0.04578696032782116
9744,3.0,300.42101,2476.8187,0.0,0.0,0.0,0.09881530394251312,0.0,0.0,-0.15395519603169486,-0.25747929312122775,-0.34145652921913566,0.8828120436217652,0.2088975377315818,-0.07992688028066892
9745,3.0,300.28013,2499.6929999999998,0.0,0.0,0.0,0.09882544508618539,0.0,0.0,-0.18264569685322682,-0.27846515163987073,-0.2987333960401907,0.9020815577960181,0.2564833898629397,-0.05918215704732415
9746,3.0,300.00049,2788.2114,0.0,0.0,0.0,0.09883558622985764,0.0,0.0,-0.18263195718187084,-0.31489496818271373,-0.3500197185967566,0.8854829202228601,0.2713514469278027,-0.08196603698766801
9747,3.0,298.76896,2768.2561,0.0,0.0,0.0,0.09884572737352991,0.0,0.0,-0.2122550027329378,-0.2894792207568747,-0.3397465075553697,0.8825891995272722,0.23602503947885778,-0.06909496009439163
9748,3.0,299.15367000000003,2468.2665,0.0,0.0,0.0,0.09885586851720217,0.0,0.0,-0.11593250980164789,-0.2987321801400707,-0.3356266833112747,0.8859976614061612,0.18798915231558483,-0.09267766513532341
9749,3.0,298.51498,2335.0942,0.0,0.0,0.0,0.09886600966087442,0.0,0.0,-0.12719925309608887,-0.25759351680500076,-0.3250175393317337,0.9072024326089091,0.22121410945463277,-0.03797254048259796
9750,3.0,299.26031,2506.3646,0.0,0.0,0.0,0.09887615080454669,0.0,0.0,-0.12939747892303688,-0.29539472682818974,-0.3370800487247107,0.9319734996586231,0.2221900922159548,-0.05792323736782845
9751,3.0,300.16526,2480.8769,0.0,0.0,0.0,0.09888629194821894,0.0,0.0,-0.1968322419008298,-0.27716370281392777,-0.2801286853890487,0.9200492989042962,0.25408514846625174,-0.06633126978413664
9752,3.0,300.39549,2488.9464,0.0,0.0,0.0,0.09889643309189121,0.0,0.0,-0.16002028821527284,-0.2936882211422707,-0.3028690573833487,0.9260999218764462,0.25671990270128175,-0.09117683604745311
9753,3.0,300.74702,2381.5279,0.0,0.0,0.0,0.09890657423556345,0.0,0.0,-0.18705063954296083,-0.2689010535484677,-0.26797331162440674,0.9389970048467892,0.26910015719311775,-0.07251955696787303
9754,3.0,299.93806,2430.9592,0.0,0.0,0.0,0.09891671537923573,0.0,0.0,-0.11434852631782089,-0.29443742839871173,-0.3301649511647437,0.9174965672648611,0.23194374913606577,-0.08911951683241151
9755,3.0,299.3783,2811.3451,0.0,0.0,0.0,0.09892685652290797,0.0,0.0,-0.2010556709676498,-0.2949254096468717,-0.35859763049833066,0.8932729187141731,0.2072590515248758,-0.07065550811665573
9756,3.0,299.78212,2848.2979,0.0,0.0,0.0,0.09893699766658025,0.0,0.0,-0.17245137746462585,-0.3121268803670247,-0.3812331817697856,0.8611620401925761,0.18853103846906483,-0.06376071811519295
9757,3.0,299.21427,2372.6829,0.0,0.0,0.0,0.0989471388102525,0.0,0.0,-0.15031536862497186,-0.27600851663991977,-0.2949124704430947,0.8905172330797082,0.2518000060457258,-0.04846210879133775
9758,3.0,299.79485,2331.5977,0.0,0.0,0.0,0.09895727995392477,0.0,0.0,-0.12214832293760088,-0.2767108712117367,-0.3098883069210947,0.8669687839981572,0.24750977339981275,-0.052885870575179045
9759,3.0,300.03039,2733.5851,0.0,0.0,0.0,0.09896742109759704,0.0,0.0,-0.23861069161404178,-0.29001473356722574,-0.3023161875987847,0.8893106143306242,0.24843846777896778,-0.06219597118451444
9760,3.0,300.76551,2868.8859,0.0,0.0,0.0,0.09897756224126929,0.0,0.0,-0.18911195501639683,-0.3063031342247657,-0.37665458827791365,0.8861173667729751,0.1965467586851548,-0.04004661277479296
9761,3.0,300.34997000000004,2685.5498,0.0,0.0,0.0,0.09898770338494156,0.0,0.0,-0.1874564462080108,-0.3097687434092947,-0.3191148711391857,0.9394749853164621,0.20355226855154482,-0.049356059837813854
9762,3.0,301.54397,2742.2597,0.0,0.0,0.0,0.09899784452861381,0.0,0.0,-0.17249296124872981,-0.2985679626963637,-0.36251753036519463,0.924229543251854,0.19254642702535282,-0.05352929148142974
9763,3.0,300.6666,2820.5885,0.0,0.0,0.0,0.09900798567228608,0.0,0.0,-0.20611427142939479,-0.3137016331424407,-0.3375725693333187,0.9259059148797991,0.19889656672706282,-0.08552200477636474
9764,3.0,300.66995,2723.2623,0.0,0.0,0.0,0.09901812681595833,0.0,0.0,-0.16053284077835786,-0.32222543748867466,-0.34504544080833366,0.9050307843320842,0.2445303824082698,-0.12105931212762389
9765,3.0,300.10024,2601.2886,0.0,0.0,0.0,0.0990282679596306,0.0,0.0,-0.19423223201172882,-0.2877648218526767,-0.3087297263592517,0.8981016127282281,0.25570817247643174,-0.08359708796514022
9766,3.0,300.48769,2252.6912,0.0,0.0,0.0,0.09903840910330286,0.0,0.0,-0.09135834561736672,-0.28517170206425574,-0.30823182539261273,0.8964815980708452,0.23894217638425674,-0.1045244789132629
9767,3.0,299.25458,2009.4962,0.0,0.0,0.0,0.0990485502469751,0.0,0.0,-0.13260191276178987,-0.23620162870628578,-0.24203313634431076,0.8794305747255401,0.2019913061099898,-0.07767845905701702
9768,3.0,300.78038,2466.7869,0.0,0.0,0.0,0.09905869139064738,0.0,0.0,-0.13602955546507187,-0.29060896422087173,-0.3232031123776637,0.9183234198764652,0.2112327853695528,-0.07979938504708613
9769,3.0,300.07985,2756.7503,0.0,0.0,0.0,0.09906883253431963,0.0,0.0,-0.19038680602721483,-0.3078807544979647,-0.3397156946198287,0.9111405811100741,0.2298068350726688,-0.04762322991429686
9770,3.0,299.32998,2597.5231,0.0,0.0,0.0,0.0990789736779919,0.0,0.0,-0.14621577898537386,-0.3031219848733107,-0.34024440852200866,0.9116995810577432,0.22462266252603078,-0.07763487815696593
9771,3.0,299.49817,2678.2894,0.0,0.0,0.0,0.09908911482166417,0.0,0.0,-0.21577981612080982,-0.30203628739116073,-0.29631699720171073,0.8895797132921822,0.2267626264722288,-0.07705351780609013
9772,3.0,301.03574,2960.9403,0.0,0.0,0.0,0.09909925596533642,0.0,0.0,-0.2226706463408818,-0.3098009546299737,-0.36758030541735165,0.8961900353545701,0.24492722180993476,-0.08158939773999663
9773,3.0,300.56095,2785.5021,0.0,0.0,0.0,0.09910939710900869,0.0,0.0,-0.21775619083836278,-0.3041549426877557,-0.3248119407539427,0.9286592903040362,0.24824361978473777,-0.05790834056485824
9774,3.0,301.38978,2463.7501,0.0,0.0,0.0,0.09911953825268094,0.0,0.0,-0.14602382888642984,-0.26199631140452273,-0.3408983804015507,0.9276872490856032,0.2222605434954078,-0.06552651717046373
9775,3.0,300.17482,2424.6874,0.0,0.0,0.0,0.09912967939635321,0.0,0.0,-0.14304996010793186,-0.26906950637759275,-0.3249249586700967,0.9246524535785922,0.2259557754175988,-0.08138551662112513
9776,3.0,300.24594,2171.0202,0.0,0.0,0.0,0.09913982054002547,0.0,0.0,-0.10119636270105341,-0.23900931433588277,-0.3197302584549197,0.908696591471371,0.23910978821579879,-0.06308722293272415
9777,3.0,300.35156,2417.7736,0.0,0.0,0.0,0.09914996168369773,0.0,0.0,-0.14603149918968686,-0.2748985923478787,-0.31401271105564166,0.9239132774981412,0.25355154056608875,-0.07558650695355743
9778,3.0,300.44637,2929.2047,0.0,0.0,0.0,0.09916010282736999,0.0,0.0,-0.2066543033351918,-0.3120890354757897,-0.37166173761515764,0.8754095221011932,0.23432010433059378,-0.05435742990741065
9779,3.0,298.91365,2756.5933,0.0,0.0,0.0,0.09917024397104225,0.0,0.0,-0.23799310554559078,-0.3084833545974367,-0.2914590810547717,0.8875332925952161,0.2131368748249718,-0.07838273880402402
9780,3.0,299.94917999999996,2692.6799,0.0,0.0,0.0,0.09918038511471451,0.0,0.0,-0.15783233674433886,-0.3135985552097677,-0.34707658169379163,0.8885339682614751,0.23013477346753378,-0.07182322819440072
9781,3.0,300.7112,2847.762,0.0,0.0,0.0,0.09919052625838679,0.0,0.0,-0.19211608957538182,-0.3260202516306937,-0.34751217791178163,0.9019484369978801,0.22557329376985077,-0.06572124458793184
9782,3.0,300.09981,2861.0309,0.0,0.0,0.0,0.09920066740205903,0.0,0.0,-0.14383838014324285,-0.33374633430569867,-0.39209724934198564,0.8969233244519402,0.22678863660229578,-0.05856203076087245
9783,3.0,300.25768999999997,2578.1548,0.0,0.0,0.0,0.0992108085457313,0.0,0.0,-0.16406092696405283,-0.2965046713852327,-0.3231290741928567,0.9135094179888601,0.23643371364169077,-0.0998951104456298
9784,3.0,299.88667999999996,2275.2701,0.0,0.0,0.0,0.09922094968940355,0.0,0.0,-0.10835064301337591,-0.28248158384376176,-0.30079307004846473,0.9157021013377612,0.24689638218677576,-0.08068208699095201
9785,3.0,299.4324,2155.0692,0.0,0.0,0.0,0.09923109083307582,0.0,0.0,-0.16998610957382285,-0.24019569848046976,-0.2449054268002838,0.9319164435454922,0.26225856079540477,-0.07616341609674393
9786,3.0,299.61519,2456.4944,0.0,0.0,0.0,0.09924123197674808,0.0,0.0,-0.12155474076401888,-0.28811852719758474,-0.3370396808407267,0.9075341909566511,0.2100456311548898,-0.06563096907027234
9787,3.0,297.78175,2705.4709999999995,0.0,0.0,0.0,0.09925137312042034,0.0,0.0,-0.1991074544703758,-0.3049164811979137,-0.3183717028533407,0.9223184319732421,0.2056924655452658,-0.09179951572415682
9788,3.0,298.51482000000004,2773.7573,0.0,0.0,0.0,0.0992615142640926,0.0,0.0,-0.15724465168633886,-0.28965877880709573,-0.3962495279867836,0.911504185908459,0.1972665208936898,-0.04908532042434395
9789,3.0,299.67572,2447.1649,0.0,0.0,0.0,0.09927165540776486,0.0,0.0,-0.14471182199444488,-0.29499255773099875,-0.3041726441670027,0.9184043177644491,0.22460102963639578,-0.06641834444473023
9790,3.0,299.71727000000004,2585.7802,0.0,0.0,0.0,0.09928179655143712,0.0,0.0,-0.16965698567634083,-0.27794497943603375,-0.33841065888853167,0.8767921423926472,0.2190587745044178,-0.036673773729669665
9791,3.0,299.38357,3063.2551,0.0,0.0,0.0,0.0992919376951094,0.0,0.0,-0.27831182663473875,-0.31399781627917167,-0.3388434180062417,0.9017011431784742,0.24271790089439174,-0.06829341745703553
9792,3.0,299.62072,2722.5515,0.0,0.0,0.0,0.09930207883878164,0.0,0.0,-0.1961903175649768,-0.29805392065563174,-0.3333434356684357,0.8999471971228731,0.2572193742055758,-0.057470604362657045
9793,3.0,299.54855,2167.4975,0.0,0.0,0.0,0.09931221998245392,0.0,0.0,-0.13774463324683686,-0.25418502452860875,-0.26693546994447975,0.9280881313551671,0.24712984514231676,-0.06918726717850164
9794,3.0,300.47782,2371.1364,0.0,0.0,0.0,0.09932236112612616,0.0,0.0,-0.10401585776056589,-0.2581890545512757,-0.35856135614475065,0.9219061303750511,0.21219823032983479,-0.06599244300369704
9795,3.0,299.32203,2743.2664,0.0,0.0,0.0,0.09933250226979844,0.0,0.0,-0.19017833995164082,-0.2939617378742647,-0.34974441854458665,0.9136102769038141,0.18073044138170583,-0.1023749296211189
9796,3.0,299.75982999999997,2755.1168,0.0,0.0,0.0,0.0993426434134707,0.0,0.0,-0.17220137826745285,-0.3103257573867677,-0.35495957627928265,0.9241391714754352,0.1954840923777778,-0.08135332667869821
9797,3.0,300.26552999999996,2479.5188,0.0,0.0,0.0,0.09935278455714296,0.0,0.0,-0.19206940914327483,-0.28320110287227274,-0.27844127946751474,0.9090080240221072,0.2193468212428458,-0.08208821367147592
9798,3.0,300.40578999999997,2467.3397,0.0,0.0,0.0,0.09936292570081522,0.0,0.0,-0.15846190956147285,-0.2879830049967097,-0.30356474476950773,0.891171296151759,0.23630971209445276,-0.08022612647245222
9799,3.0,300.13857,2638.9640000000004,0.0,0.0,0.0,0.09937306684448748,0.0,0.0,-0.2114234790383728,-0.3101741143768017,-0.2805815879187467,0.8915778424893821,0.2169307466443978,-0.08552699807285752
9800,3.0,299.15031,2907.4214,0.0,0.0,0.0,0.09938320798815974,0.0,0.0,-0.16595134767562283,-0.34262420876687666,-0.37520795084514164,0.9087623108728571,0.23890008597510276,-0.0931522522304115
9801,3.0,298.42683999999997,2854.1218,0.0,0.0,0.0,0.09939334913183201,0.0,0.0,-0.19480402930816082,-0.3126192591206187,-0.36015848148237467,0.9346997199801801,0.21238007832528183,-0.046406266894941955
9802,3.0,298.94846,2404.6731,0.0,0.0,0.0,0.09940349027550426,0.0,0.0,-0.12209534008987188,-0.27636508948261074,-0.33250013800770867,0.9080893405539401,0.22546271778643776,-0.08235016719332873
9803,3.0,299.46002000000004,2377.7251,0.0,0.0,0.0,0.09941363141917653,0.0,0.0,-0.18012200496165784,-0.2660906017460978,-0.27655644176399574,0.9099443785720182,0.23776268234034975,-0.06336421308606094
9804,3.0,300.4024,2692.7867,0.0,0.0,0.0,0.09942377256284878,0.0,0.0,-0.19849606949253681,-0.2860360955920647,-0.3340077325664967,0.9323087739842121,0.2582566585979478,-0.08297560189705432
9805,3.0,300.05459,2660.258,0.0,0.0,0.0,0.09943391370652105,0.0,0.0,-0.22076935345573878,-0.29061977559943875,-0.2972628763025617,0.9302909168075651,0.27497529538044874,-0.06764652515594223
9806,3.0,300.2487,2433.9757,0.0,0.0,0.0,0.09944405485019332,0.0,0.0,-0.13289600860331488,-0.28830688025867374,-0.3186649475647817,0.919563516408853,0.25711648879042176,-0.09336226655213832
9807,3.0,299.96862000000004,2507.1904,0.0,0.0,0.0,0.09945419599386557,0.0,0.0,-0.17512126108062284,-0.2869325179555347,-0.3000694980195537,0.8996449243530412,0.20787352691551983,-0.07318443141849103
9808,3.0,300.18907,2627.198,0.0,0.0,0.0,0.09946433713753784,0.0,0.0,-0.16435536731061184,-0.2998239469903197,-0.33442327656500764,0.9158937778591781,0.18433641610258783,-0.07325064224627553
9809,3.0,299.22143,2673.9704,0.0,0.0,0.0,0.09947447828121009,0.0,0.0,-0.17878117110432784,-0.29468388122053474,-0.33935517010174765,0.9184508360765401,0.19217475675617182,-0.04755119289843736
9810,3.0,299.49602000000004,2804.4782,0.0,0.0,0.0,0.09948461942488235,0.0,0.0,-0.18363440603580483,-0.3020822180181937,-0.36677474119034864,0.907645182372605,0.2143170173489428,-0.059592640874835734
9811,3.0,299.52898999999996,2693.8192,0.0,0.0,0.0,0.09949476056855462,0.0,0.0,-0.19997947777143782,-0.2916450327131237,-0.32722927178251465,0.9087067037073691,0.2384302419037328,-0.07181560551389843
9812,3.0,300.96439,2429.9553,0.0,0.0,0.0,0.09950490171222687,0.0,0.0,-0.12851887962882586,-0.2870282700899847,-0.3230985854973477,0.8918543888391752,0.25783113408595176,-0.0918055324032506
9813,3.0,301.05847,2572.4362,0.0,0.0,0.0,0.09951504285589914,0.0,0.0,-0.17040147118731586,-0.2952267806241147,-0.31632812938915567,0.9193753254677801,0.2433652359857788,-0.06862761875076863
9814,3.0,301.15011,2791.7148,0.0,0.0,0.0,0.09952518399957139,0.0,0.0,-0.17224869704712284,-0.2970437812334387,-0.3793191118008817,0.9015370169272761,0.22855149925877677,-0.07055990695647063
9815,3.0,300.51534,2598.6620000000003,0.0,0.0,0.0,0.09953532514324366,0.0,0.0,-0.18342715586035083,-0.2981802020155947,-0.30832100153391373,0.9312131770485851,0.22677617362606578,-0.08707208491184572
9816,3.0,300.21911,2367.3036,0.0,0.0,0.0,0.09954546628691593,0.0,0.0,-0.11798052130127087,-0.2739061645374337,-0.32771448685790167,0.9214446658820081,0.2386012278581078,-0.0997178696983875
9817,3.0,299.99796000000003,2420.3801,0.0,0.0,0.0,0.09955560743058818,0.0,0.0,-0.17468634374019984,-0.2697615663283937,-0.2912871933078077,0.9304456198328331,0.2491751107341688,-0.08861487572610732
9818,3.0,300.12657,2771.9923,0.0,0.0,0.0,0.09956574857426045,0.0,0.0,-0.16295148903205986,-0.3167189804827297,-0.36294598316997967,0.8989152221610252,0.2215111741189508,-0.09843945913996821
9819,3.0,300.00229,2954.0871,0.0,0.0,0.0,0.0995758897179327,0.0,0.0,-0.24192790018892477,-0.31249621002847466,-0.34354460462771264,0.8907292252656301,0.2097941830100738,-0.07604360535191952
9820,3.0,300.58335,2812.3025,0.0,0.0,0.0,0.09958603086160497,0.0,0.0,-0.17642441216673382,-0.3134699636395767,-0.3649753407352616,0.9167062929818671,0.21866437703549377,-0.05411944481667335
9821,3.0,300.05627000000004,2391.5264,0.0,0.0,0.0,0.09959617200527723,0.0,0.0,-0.17090312117932482,-0.24368618295495376,-0.3123750050515127,0.9287494796954371,0.2269869397793668,-0.03324724965449807
9822,3.0,300.09266,2359.6153,0.0,0.0,0.0,0.0996063131489495,0.0,0.0,-0.1093561214851089,-0.26380221692525174,-0.3441057931955977,0.9462527165603721,0.23165591518015877,-0.017065157170949884
9823,3.0,299.44908,2843.4091,0.0,0.0,0.0,0.09961645429262175,0.0,0.0,-0.21219073227909482,-0.3022886778585697,-0.34984595633710763,0.9045171273263902,0.23929276091885676,-0.07632241530243593
9824,3.0,299.66078999999996,2932.5245,0.0,0.0,0.0,0.09962659543629401,0.0,0.0,-0.2195662506845018,-0.29814713966483175,-0.3737008223813996,0.9227984186781132,0.23665592952112177,-0.06715654679183514
9825,3.0,300.19012999999995,2445.4304,0.0,0.0,0.0,0.09963673657996627,0.0,0.0,-0.19973633827744183,-0.27258471415451674,-0.27102871663845174,0.9061709541396101,0.23477890397587375,-0.10510740169579291
9826,3.0,300.95167000000004,2608.8151,0.0,0.0,0.0,0.09964687772363855,0.0,0.0,-0.16640591193548485,-0.2909400943535517,-0.3356686217329137,0.9225408606351941,0.2095021744637548,-0.06361171259523724
9827,3.0,300.82284,2986.4738,0.0,0.0,0.0,0.09965701886731079,0.0,0.0,-0.20363238623695182,-0.3282199264052847,-0.3759611401744756,0.9291261452876112,0.19978488308973283,-0.08166345922955592
9828,3.0,300.30865,2999.2262,0.0,0.0,0.0,0.09966716001098307,0.0,0.0,-0.15770516372428783,-0.3558118006733907,-0.39817291985660763,0.9323392626797211,0.19103381687856985,-0.05297743697346595
9829,3.0,300.12692000000004,2667.1588,0.0,0.0,0.0,0.09967730115465531,0.0,0.0,-0.17070721940499084,-0.2917735837533107,-0.34826886295396065,0.9226347585219612,0.23757190761152178,-0.08614226075882922
9830,3.0,299.77284,2344.594,0.0,0.0,0.0,0.09968744229832759,0.0,0.0,-0.12185335570098987,-0.2932668610881857,-0.29757782483114475,0.8877438560984972,0.23305657132339277,-0.07027502459810493
9831,3.0,299.35354,2323.8624,0.0,0.0,0.0,0.09969758344199985,0.0,0.0,-0.16595180363816786,-0.2852968891141107,-0.2551474297385908,0.8775020862077131,0.26312535572595075,-0.0922261679835141
9832,3.0,300.13115,2702.5897,0.0,0.0,0.0,0.0997077245856721,0.0,0.0,-0.18911060739376384,-0.30044161411877873,-0.3319675534901467,0.8793523619503212,0.24997560871067176,-0.06643735706960664
9833,3.0,299.0876,2730.4628,0.0,0.0,0.0,0.09971786572934437,0.0,0.0,-0.2012094114053228,-0.30081664837829175,-0.3279664517602687,0.9240758737416882,0.2231910313272398,-0.06563936182085063
9834,3.0,299.88391,2426.669,0.0,0.0,0.0,0.09972800687301663,0.0,0.0,-0.1254673249651609,-0.26376278123135977,-0.3484166556135467,0.944962676930555,0.22337325422522378,-0.05857912631655965
9835,3.0,299.95267,2432.4652,0.0,0.0,0.0,0.09973814801668889,0.0,0.0,-0.13399963047973387,-0.29020988553648575,-0.31519917626023675,0.9192518710755961,0.2070178980010758,-0.07695767042613072
9836,3.0,299.75754,3054.6367,0.0,0.0,0.0,0.09974828916036116,0.0,0.0,-0.22492685033855178,-0.3358349771343317,-0.36777145504871667,0.9443653355991021,0.22146505097439878,-0.0884121628846011
9837,3.0,300.19032999999996,3248.6651,0.0,0.0,0.0,0.0997584303040334,0.0,0.0,-0.2903085558312237,-0.3239361177650057,-0.3732683875037216,0.9056272745334532,0.24960919720950978,-0.08292244071730771
9838,3.0,300.6003,2566.2833,0.0,0.0,0.0,0.09976857144770568,0.0,0.0,-0.17395307490783185,-0.3129573908114897,-0.29317556725417576,0.9453864890498822,0.2578841675961857,-0.07570687194618653
9839,3.0,300.53677000000005,2217.9109,0.0,0.0,0.0,0.09977871259137792,0.0,0.0,-0.13249308970104987,-0.27263159723664376,-0.26906483529463177,0.9123716191865682,0.2325485783857578,-0.06643239822361723
9840,3.0,301.61762000000004,2420.0094,0.0,0.0,0.0,0.0997888537350502,0.0,0.0,-0.12997504161253787,-0.26776614250896075,-0.33788126610878466,0.9322923795975941,0.2126327018402138,-0.054026495331999956
9841,3.0,300.26647,2586.1986,0.0,0.0,0.0,0.09979899487872246,0.0,0.0,-0.13542317594272688,-0.30541185917180375,-0.34530476190642667,0.9134738427778492,0.1902008746338648,-0.07209594141906543
9842,3.0,299.94451000000004,2798.9544,0.0,0.0,0.0,0.09980913602239472,0.0,0.0,-0.18880907429650481,-0.30214442144183273,-0.35985876210279466,0.9309015621128311,0.20454330820935282,-0.07076280724924533
9843,3.0,300.39914,2734.3159,0.0,0.0,0.0,0.09981927716606698,0.0,0.0,-0.17532430626816184,-0.33483917520105366,-0.3210002863952617,0.9102586988855391,0.24164203193821177,-0.08687842140698261
9844,3.0,300.09382999999997,2507.8878,0.0,0.0,0.0,0.09982941830973924,0.0,0.0,-0.16776683854229785,-0.2986070133552177,-0.29596142747661874,0.9109141399777261,0.2442995944329928,-0.09338101573198872
9845,3.0,299.95403,2842.6933,0.0,0.0,0.0,0.0998395594534115,0.0,0.0,-0.2182625524433368,-0.27849491079530775,-0.36735031790965367,0.9165059025095901,0.2598459413797978,-0.07526026473935983
9846,3.0,299.05593,3017.3943,0.0,0.0,0.0,0.09984970059708377,0.0,0.0,-0.2003796305009298,-0.32972469399629367,-0.38710820849960564,0.9170675065100162,0.23143172346303278,-0.07149618551262414
9847,3.0,297.99995,2529.6613,0.0,0.0,0.0,0.09985984174075602,0.0,0.0,-0.15241854146003886,-0.26978380716808875,-0.3467515107967096,0.9084728151867861,0.2185179117335388,-0.06365480612199023
9848,3.0,299.69863,2312.9524,0.0,0.0,0.0,0.09986998288442829,0.0,0.0,-0.13369832029749687,-0.26322673139845576,-0.3061547234826187,0.9136458419823241,0.2109284658345188,-0.07825831067849393
9849,3.0,300.44807000000003,2591.8641,0.0,0.0,0.0,0.09988012402810054,0.0,0.0,-0.17866234726510083,-0.2966883128333567,-0.31251130745496475,0.9194440744870651,0.24030928381667974,-0.06571999221080824
9850,3.0,300.40836,2825.0531,0.0,0.0,0.0,0.0998902651717728,0.0,0.0,-0.1997723694509978,-0.3108673091677147,-0.34810592220537967,0.934492560997235,0.24686173916585677,-0.06568704638380674
9851,3.0,300.63899,2762.8477,0.0,0.0,0.0,0.09990040631544508,0.0,0.0,-0.17667480653144585,-0.34697409144617664,-0.3161878145153077,0.9260220029437561,0.24105294859507376,-0.08396640344108883
9852,3.0,300.3415,2617.9875,0.0,0.0,0.0,0.09991054745911733,0.0,0.0,-0.12483076072233688,-0.30491504238277173,-0.36605700548201364,0.9105428142135792,0.2423090848765448,-0.08218413299219242
9853,3.0,299.92161,2580.6824,0.0,0.0,0.0,0.09992068860278959,0.0,0.0,-0.14781322856302984,-0.30279825146636075,-0.33385151979857963,0.9101763621824133,0.2332451270345018,-0.06583550170895813
9854,3.0,300.33952999999997,2688.4207,0.0,0.0,0.0,0.09993082974646185,0.0,0.0,-0.16023374961383985,-0.3047080556523437,-0.3522709475364357,0.9052700126806941,0.21841520870340278,-0.07811039136264543
9855,3.0,298.45613,2706.6048,0.0,0.0,0.0,0.09994097089013411,0.0,0.0,-0.20525490362208182,-0.27293862214944475,-0.3445467495066167,0.8988489657369862,0.2373601079431188,-0.08343147020979502
9856,3.0,299.60366,2675.9459,0.0,0.0,0.0,0.09995111203380637,0.0,0.0,-0.18941163386597282,-0.3062476385167887,-0.3177614527156137,0.9145371980952942,0.2328632634693148,-0.06977896977314813
9857,3.0,300.21265,2361.4928,0.0,0.0,0.0,0.09996125317747863,0.0,0.0,-0.15812941154115787,-0.2673899024818287,-0.2923155408342977,0.9136113306839182,0.2510047972347447,-0.07903772494691612
9858,3.0,299.89117999999996,2567.1679,0.0,0.0,0.0,0.09997139432115089,0.0,0.0,-0.16827586499503483,-0.26071644480570977,-0.35136262961679166,0.9177704386343901,0.2339893794979538,-0.04967066690111315
9859,3.0,300.03397,3000.4241,0.0,0.0,0.0,0.09998153546482315,0.0,0.0,-0.24133511848292175,-0.32762033565860965,-0.3430985516686907,0.912354039297333,0.21563088862111177,-0.07043240766988743
9860,3.0,299.82845,2800.8,0.0,0.0,0.0,0.09999167660849541,0.0,0.0,-0.18830628946438382,-0.3047420197956957,-0.3583249648964207,0.9227440375452461,0.2165962525213858,-0.04806227827537755
9861,3.0,301.17577,2557.304,0.0,0.0,0.0,0.10000181775216767,0.0,0.0,-0.15874160711907684,-0.3151062004310607,-0.3035087424364807,0.9406531824002411,0.20886389782826179,-0.07873350065739151
9862,3.0,301.35868999999997,2738.0119,0.0,0.0,0.0,0.10001195889583994,0.0,0.0,-0.15768999537029085,-0.3406568722402157,-0.33394039196485065,0.923296826269802,0.2092350006773868,-0.07224501280027763
9863,3.0,300.75749,2567.9512,0.0,0.0,0.0,0.10002210003951219,0.0,0.0,-0.17359519497251183,-0.24851676161419475,-0.3584810763393277,0.921693895009105,0.2272330886261598,-0.07869683620252302
9864,3.0,300.11982,2571.3427,0.0,0.0,0.0,0.10003224118318446,0.0,0.0,-0.13700628803146786,-0.3125948499257097,-0.33202282628310165,0.9085847387928321,0.25770431570343577,-0.1022599054697669
9865,3.0,300.07847000000004,2628.1342,0.0,0.0,0.0,0.10004238232685671,0.0,0.0,-0.1965665069296038,-0.2780610978974937,-0.3242595573294267,0.9020346341838872,0.25448871584858074,-0.05724418045556074
9866,3.0,299.86553,2401.0099,0.0,0.0,0.0,0.10005252347052898,0.0,0.0,-0.14685241415570485,-0.26184793105987875,-0.3211467111672127,0.9085696920288471,0.2454370892602548,-0.0857185489512621
9867,3.0,300.50806,2454.5105,0.0,0.0,0.0,0.10006266461420123,0.0,0.0,-0.17812739174230482,-0.29305594294736975,-0.27492656818313976,0.9092811557190631,0.2230129627546658,-0.08628290493895972
9868,3.0,300.18226,2979.7917,0.0,0.0,0.0,0.1000728057578735,0.0,0.0,-0.22438513643758876,-0.30138134279152273,-0.38001578203963765,0.9299452566684511,0.2391453228968058,-0.07304128755036383
9869,3.0,300.48662,3035.8423,0.0,0.0,0.0,0.10008294690154575,0.0,0.0,-0.2048651671036178,-0.35219001925094867,-0.3657650779957026,0.9257022921397031,0.2300391733205988,-0.06509585852021103
9870,3.0,300.38813999999996,2547.8528,0.0,0.0,0.0,0.10009308804521802,0.0,0.0,-0.14897396734758583,-0.30190761476096173,-0.3236020390745347,0.9267891953894721,0.2272238680502498,-0.08484401076345191
9871,3.0,298.96727999999996,2429.3319,0.0,0.0,0.0,0.10010322918889028,0.0,0.0,-0.16174812281579684,-0.24474613375206275,-0.3319619806145967,0.9198053285452181,0.21304172050808082,-0.06202860557274674
9872,3.0,298.5471,2635.2139,0.0,0.0,0.0,0.10011337033256254,0.0,0.0,-0.18583100053009183,-0.2993764754811577,-0.3158317482976667,0.9108858500349342,0.22916759584958077,-0.08591228338363222
9873,3.0,299.03623999999996,2786.8999,0.0,0.0,0.0,0.1001235114762348,0.0,0.0,-0.2058942543026808,-0.2830378074861567,-0.35821593918566064,0.9171507044757271,0.2175590427664058,-0.049463518050669154
9874,3.0,298.95169,2529.8151,0.0,0.0,0.0,0.10013365261990706,0.0,0.0,-0.15970716353686987,-0.26622055107142273,-0.34307291644116067,0.9148642752275741,0.22457172644350376,-0.07738088878089913
9875,3.0,300.15465,2591.5129,0.0,0.0,0.0,0.10014379376357932,0.0,0.0,-0.15833685423413085,-0.28928280222498975,-0.3401355550637657,0.8949207166892981,0.22428050823226275,-0.04549510782201756
9876,3.0,300.80818,2607.6587,0.0,0.0,0.0,0.1001539349072516,0.0,0.0,-0.1858368773806718,-0.25719776158094276,-0.34962850273314666,0.8893254483120882,0.24928344743486078,-0.06585073997721204
9877,3.0,299.97719,2835.1695,0.0,0.0,0.0,0.10016407605092384,0.0,0.0,-0.19483400124611883,-0.3135425630092417,-0.3534441594297226,0.9145350905350862,0.25882408878644875,-0.06711221203370964
9878,3.0,300.09063,3132.5726,0.0,0.0,0.0,0.10017421719459611,0.0,0.0,-0.22646405206526177,-0.3424040193876457,-0.3833557887417706,0.9050555481645282,0.22965275012996178,-0.08764631502176783
9879,3.0,300.18515,2667.8487,0.0,0.0,0.0,0.10018435833826836,0.0,0.0,-0.19884648177461983,-0.2705972139508658,-0.3415156726274727,0.9378818724492342,0.2134778537486238,-0.04631309550849666
9880,3.0,300.47529,2233.4231,0.0,0.0,0.0,0.10019449948194063,0.0,0.0,-0.11839667324984189,-0.2875489387863707,-0.27295924178897973,0.9159859126907711,0.22959059736882775,-0.1079080148396919
9881,3.0,301.40215,2652.2157,0.0,0.0,0.0,0.1002046406256129,0.0,0.0,-0.17176867994474884,-0.28226629859501473,-0.3521723583017057,0.9563229837392301,0.24295641996793177,-0.016982690771811085
9882,3.0,300.50176,2842.0545,0.0,0.0,0.0,0.10021478176928515,0.0,0.0,-0.17934872288284084,-0.32074993256055373,-0.36381494645573964,0.9146440959808442,0.23139344287425476,-0.08303261140068072
9883,3.0,300.09139,2517.2960000000003,0.0,0.0,0.0,0.10022492291295743,0.0,0.0,-0.15960058989135184,-0.2827503281677847,-0.3228442090597427,0.9145637047179102,0.2197082272885138,-0.06994507996804193
9884,3.0,300.28414,2364.2882,0.0,0.0,0.0,0.10023506405662967,0.0,0.0,-0.14187666715463687,-0.2650427390226818,-0.3117651703463267,0.8921393755623012,0.23331724004411877,-0.09769955554594541
9885,3.0,299.61838,2547.1874,0.0,0.0,0.0,0.10024520520030195,0.0,0.0,-0.17041265746841985,-0.2942765952103387,-0.3095921136518627,0.9118759372376481,0.23778390992994475,-0.060878131011703744
9886,3.0,299.51832,2709.3054,0.0,0.0,0.0,0.1002553463439742,0.0,0.0,-0.15975461403905283,-0.30552044918502075,-0.35828611688758666,0.9046834016678001,0.22631204428525978,-0.08758315509003442
9887,3.0,299.73902000000004,2896.4983,0.0,0.0,0.0,0.10026548748764647,0.0,0.0,-0.2028685375165658,-0.3085348074375147,-0.36905982281586863,0.9187985429808561,0.21092772616194577,-0.05357185913138086
9888,3.0,299.20231,2730.0371,0.0,0.0,0.0,0.10027562863131873,0.0,0.0,-0.1966916230519518,-0.2961455552847907,-0.3370259310368697,0.8958701219004972,0.23421205133992978,-0.07917404356236972
9889,3.0,300.29191000000003,2500.949,0.0,0.0,0.0,0.10028576977499098,0.0,0.0,-0.1886811413388788,-0.2448497081772848,-0.3266951876548047,0.9173901658718602,0.22659212687790178,-0.07525791602562802
9890,3.0,300.56888,2611.2836,0.0,0.0,0.0,0.10029591091866324,0.0,0.0,-0.1950972740196018,-0.3001672462567007,-0.2985004903722047,0.9120992879571911,0.2426550489906888,-0.08082952805275333
9891,3.0,300.03163,2880.72,0.0,0.0,0.0,0.10030605206233552,0.0,0.0,-0.23522320401222277,-0.2986626103882047,-0.34178114415367267,0.9184042671019441,0.2273959280497308,-0.08235151481596172
9892,3.0,300.72926,2716.7491,0.0,0.0,0.0,0.10031619320600776,0.0,0.0,-0.16718822207269282,-0.3114633636715407,-0.3471723034307387,0.9313015831198102,0.23791173143005975,-0.049176152216308354
9893,3.0,301.16028,2270.8769,0.0,0.0,0.0,0.10032633434968004,0.0,0.0,-0.12500055104159388,-0.27725338558027873,-0.2880359371819337,0.9063437436791631,0.2249252595358948,-0.0896296963637623
9894,3.0,300.737,2514.341,0.0,0.0,0.0,0.10033647549335228,0.0,0.0,-0.13502535368846488,-0.2856629865077417,-0.34360855084152364,0.8962506986380572,0.2069240001143088,-0.07041683705560073
9895,3.0,300.41611,2779.2074,0.0,0.0,0.0,0.10034661663702456,0.0,0.0,-0.1985543111082848,-0.3126805607516687,-0.3335748011962697,0.9053334826669582,0.1988811045305368,-0.09729751209176682
9896,3.0,300.72801,2752.1632,0.0,0.0,0.0,0.10035675778069682,0.0,0.0,-0.1867145647497928,-0.3302569948038277,-0.3196173215987737,0.9097262663554921,0.24777406955589676,-0.11079784465489591
9897,3.0,300.21664,2582.8902,0.0,0.0,0.0,0.10036689892436908,0.0,0.0,-0.19961537648050381,-0.2716917571063887,-0.3138269924448127,0.9417590739568841,0.24948409121966278,-0.07707615989282472
9898,3.0,299.49773,2425.4804,0.0,0.0,0.0,0.10037704006804134,0.0,0.0,-0.13877913120143387,-0.2927908564562077,-0.3057154795642687,0.9171907075896751,0.25164948774337076,-0.08238683772769782
9899,3.0,299.62722,2434.3272,0.0,0.0,0.0,0.1003871812117136,0.0,0.0,-0.15304785083214686,-0.26431106099297075,-0.3226157819571987,0.9385050719232392,0.21520382396896381,-0.05798423705034864
9900,3.0,300.39157,2787.803,0.0,0.0,0.0,0.10039732235538587,0.0,0.0,-0.16773899442954984,-0.2980927585319647,-0.38159074759757466,0.943533051966962,0.2260921994110628,-0.08478139494702222
9901,3.0,299.04632000000004,2901.8039,0.0,0.0,0.0,0.10040746349905813,0.0,0.0,-0.2047624134109768,-0.3293396285607907,-0.34797388558484865,0.9512868267672001,0.2353356342433188,-0.06044303837901344
9902,3.0,299.27244,2540.2244,0.0,0.0,0.0,0.10041760464273038,0.0,0.0,-0.17496758143795582,-0.28112253174963375,-0.3160746648766407,0.9328997926350411,0.23494953529271378,-0.10219446977830891
9903,3.0,299.2562,2486.2068,0.0,0.0,0.0,0.10042774578640265,0.0,0.0,-0.16730934598964683,-0.30101689699555473,-0.2874185334985007,0.9036224578855931,0.22969911645453775,-0.08223343976855862
9904,3.0,299.40607,2848.982,0.0,0.0,0.0,0.1004378869300749,0.0,0.0,-0.18606623667330782,-0.3196169466962367,-0.3603362055499147,0.911447818805396,0.26300067530114574,-0.06314018146245073
9905,3.0,300.62126,2849.7253,0.0,0.0,0.0,0.10044802807374717,0.0,0.0,-0.18625111428655383,-0.2827924895044457,-0.3972017399007596,0.9041092434986352,0.23512037939207478,-0.04081505050488186
9906,3.0,301.06641,2524.1678,0.0,0.0,0.0,0.10045816921741943,0.0,0.0,-0.13014180231399589,-0.3045179699335837,-0.33262419021745165,0.8956016004914962,0.2200065281179538,-0.057757494982720946
9907,3.0,300.45025,2569.0399,0.0,0.0,0.0,0.10046831036109169,0.0,0.0,-0.15804658847798383,-0.2698716660842597,-0.3530057261114527,0.9096637792218252,0.1967220712174568,-0.05232545005086986
9908,3.0,300.63423,2773.2528,0.0,0.0,0.0,0.10047845150476395,0.0,0.0,-0.2072349159074938,-0.3008333568724407,-0.3349313302976487,0.920265333958117,0.2351145532039998,-0.07544539870488112
9909,3.0,299.66052,2965.9262,0.0,0.0,0.0,0.10048859264843621,0.0,0.0,-0.2049209262566208,-0.3392358599024727,-0.35741072959619263,0.9308060227609021,0.24298569276332077,-0.1026877705894939
9910,3.0,300.27941,3092.9328,0.0,0.0,0.0,0.10049873379210847,0.0,0.0,-0.21703322675951178,-0.33072719351273266,-0.39241392039573864,0.9127856230449272,0.2356894307807358,-0.07416805611206723
9911,3.0,299.86228,2647.9992,0.0,0.0,0.0,0.10050887493578074,0.0,0.0,-0.14685520059347987,-0.3154140764739457,-0.34265636932505067,0.904948842796497,0.22534569753238876,-0.08589690528686451
9912,3.0,300.72971,2248.5452,0.0,0.0,0.0,0.10051901607945299,0.0,0.0,-0.08177456716927142,-0.2744350912221347,-0.3272919210361977,0.9286050206286801,0.22616648077589377,-0.07506356351069693
9913,3.0,300.14675,2602.7470000000003,0.0,0.0,0.0,0.10052915722312526,0.0,0.0,-0.14720880461337787,-0.3144863953448907,-0.32947489744914066,0.9617780284351012,0.24361301616523276,-0.07107930301073104
9914,3.0,299.68256,2851.047,0.0,0.0,0.0,0.10053929836679751,0.0,0.0,-0.1988273212152288,-0.3312707819263807,-0.33654900434730073,0.9241293226844632,0.21762547144296182,-0.07330752408038933
9915,3.0,299.27648,2598.0694,0.0,0.0,0.0,0.10054943951046978,0.0,0.0,-0.15807073422786685,-0.2943113598212697,-0.3373661196254437,0.9296781740745922,0.2260859679229478,-0.08512498298968173
9916,3.0,300.6878,2425.0525,0.0,0.0,0.0,0.10055958065414204,0.0,0.0,-0.13433067955240588,-0.28340014572191674,-0.3194245912972527,0.8978000087034621,0.24313624146317878,-0.06449675413358404
9917,3.0,299.40542999999997,2628.5794,0.0,0.0,0.0,0.1005697217978143,0.0,0.0,-0.16447517400243583,-0.27662174573294074,-0.35792557210450365,0.915330147358552,0.23549948691698977,-0.04989396189190065
9918,3.0,300.08386,2913.4349,0.0,0.0,0.0,0.10057986294148656,0.0,0.0,-0.17398519493600184,-0.3119159622262087,-0.3997103039683356,0.8893911778460751,0.19908949967860382,-0.04913788176003135
9919,3.0,299.94248999999996,2929.0711,0.0,0.0,0.0,0.10059000408515882,0.0,0.0,-0.22553707007877577,-0.3057663041892847,-0.3590610809615697,0.9416518619638031,0.2080145510644378,-0.07418589336682763
9920,3.0,298.95544,2836.9521,0.0,0.0,0.0,0.10060014522883108,0.0,0.0,-0.22674276677026878,-0.2740584458949627,-0.36156138704083063,0.949219685105689,0.22076739788304578,-0.052478237020198756
9921,3.0,299.16053999999997,2553.9137,0.0,0.0,0.0,0.10061028637250335,0.0,0.0,-0.2015759647614988,-0.28111335170372775,-0.2936366669771827,0.9395636953627171,0.2402639510072058,-0.1109593263233329
9922,3.0,299.28932000000003,2631.7957,0.0,0.0,0.0,0.1006204275161756,0.0,0.0,-0.2055966120858058,-0.28359663518130873,-0.3108069194617547,0.9095511159432061,0.23096582093455176,-0.056206199960370046
9923,3.0,299.33808,2864.8831,0.0,0.0,0.0,0.10063056865984787,0.0,0.0,-0.20885917608279578,-0.2893924865483147,-0.37260127377038266,0.921041483534717,0.25804260951432273,-0.0909940933521678
9924,3.0,300.8891,2812.0673,0.0,0.0,0.0,0.10064070980352012,0.0,0.0,-0.16587956903853884,-0.3169847965139637,-0.3719338560620136,0.9235089197807341,0.26172464892021174,-0.03185157566200577
9925,3.0,300.98318,2338.0113,0.0,0.0,0.0,0.1006508509471924,0.0,0.0,-0.13141654186730287,-0.27956777039869074,-0.29971273265934373,0.9275813644501532,0.2262507629192118,-0.10577316780649888
9926,3.0,300.79787999999996,2595.3675,0.0,0.0,0.0,0.10066099209086467,0.0,0.0,-0.14021076240022487,-0.31196372683592266,-0.3367524244373767,0.9024204190269611,0.1862398266804398,-0.07721096572587902
9927,3.0,300.35411,2933.9376,0.0,0.0,0.0,0.10067113323453691,0.0,0.0,-0.2075902627175638,-0.3423368915685207,-0.3419166055595417,0.9020925110295991,0.1913247209822798,-0.13683928414998586
9928,3.0,300.09472999999997,2751.5244,0.0,0.0,0.0,0.10068127437820919,0.0,0.0,-0.20759356591288977,-0.2944478952722447,-0.3343532407180957,0.9362176496899881,0.2103557059504918,-0.06948022817991464
9929,3.0,300.16386,2502.9536,0.0,0.0,0.0,0.10069141552188143,0.0,0.0,-0.13212586759980788,-0.3326790171803627,-0.29603050073593573,0.9083588245505362,0.26102058195572575,-0.12182322164301589
9930,3.0,300.26592,2410.8495,0.0,0.0,0.0,0.10070155666555371,0.0,0.0,-0.15712047788658384,-0.24969978176844973,-0.3260177894329507,0.9189049342413562,0.24612056698270876,-0.06582767333868553
9931,3.0,298.8378,2561.9828,0.0,0.0,0.0,0.10071169780922597,0.0,0.0,-0.17748887192678783,-0.30038836782602374,-0.30090156886917274,0.9402941574923082,0.26625082698441077,-0.08838468658163942
9932,3.0,299.83747,2862.9832,0.0,0.0,0.0,0.10072183895289821,0.0,0.0,-0.20372082270567982,-0.31822217753608373,-0.3483324140002326,0.970686361194285,0.25056315191365774,-0.07477734062244894
9933,3.0,300.06934,2847.3118,0.0,0.0,0.0,0.10073198009657049,0.0,0.0,-0.2161269252075668,-0.29448863805876574,-0.35489613669052167,0.9438354868568101,0.2402341107917608,-0.06708842193461173
9934,3.0,299.70568,2358.4912,0.0,0.0,0.0,0.10074212124024273,0.0,0.0,-0.15445412038093484,-0.2660663850687078,-0.2964019176925917,0.9187410917001861,0.19514706512951582,-0.07821876048734062
9935,3.0,300.35026,2451.8538,0.0,0.0,0.0,0.100752262383915,0.0,0.0,-0.13672598252380386,-0.26203381179072377,-0.3465425482285867,0.8985281707553261,0.22677871688381676,-0.07228405028688034
9936,3.0,300.94546,3051.4296,0.0,0.0,0.0,0.10076240352758728,0.0,0.0,-0.2282209466786538,-0.30802013718172067,-0.3913173203425126,0.9380279831136541,0.2533873231223817,-0.02985888356484237
9937,3.0,300.89646,2922.9566,0.0,0.0,0.0,0.10077254467125953,0.0,0.0,-0.19659435104235182,-0.3264520076308047,-0.36545946150054065,0.9138937640167921,0.2491812003672698,-0.04414839914060776
9938,3.0,301.19541,2512.9571,0.0,0.0,0.0,0.1007826858149318,0.0,0.0,-0.12402357529517388,-0.29073342173065475,-0.34911922296788467,0.9267270122308351,0.1983450952276368,-0.06449579661223953
9939,3.0,300.32769,2555.1689,0.0,0.0,0.0,0.10079282695860405,0.0,0.0,-0.17647801309702382,-0.2740162541607988,-0.3262132656422427,0.91352096904,0.2244027061943228,-0.07294660540801944
9940,3.0,299.93057999999996,3012.9401,0.0,0.0,0.0,0.10080296810227632,0.0,0.0,-0.22856746808035278,-0.31732905836793973,-0.36996204096991064,0.945977983928258,0.22920193489546978,-0.07536462544665942
9941,3.0,300.32738,2945.5818,0.0,0.0,0.0,0.10081310924594858,0.0,0.0,-0.19347817128730882,-0.3043570151551987,-0.3975481295799456,0.9330196601218711,0.2427372843688048,-0.0934606612428491
9942,3.0,300.4643,2530.7929999999997,0.0,0.0,0.0,0.10082325038962084,0.0,0.0,-0.1924712236029308,-0.2862795390610907,-0.2905471154347677,0.929444579396538,0.21499278423813578,-0.08761594791627082
9943,3.0,299.75147999999996,2465.0612,0.0,0.0,0.0,0.1008333915332931,0.0,0.0,-0.14313085799591585,-0.2779462966611637,-0.3282398874322547,0.9137723158598061,0.25781948170980173,-0.08562032448656812
9944,3.0,298.85595,2442.8706,0.0,0.0,0.0,0.10084353267696536,0.0,0.0,-0.14799229012070186,-0.28998614978190473,-0.3045932240185107,0.9292514336624761,0.24411952975772175,-0.08683557511325402
9945,3.0,299.11231000000004,2782.0957,0.0,0.0,0.0,0.10085367382063762,0.0,0.0,-0.16565614739148884,-0.3445550074949317,-0.33547645885144867,0.9161372415932062,0.2319444077486308,-0.09219177422211973
9946,3.0,300.06337,2979.8502,0.0,0.0,0.0,0.10086381496430989,0.0,0.0,-0.18789703774899383,-0.3094022711131267,-0.40850075521088564,0.9263758501436781,0.18315983008646783,-0.08134997890036783
9947,3.0,300.06224,2675.696,0.0,0.0,0.0,0.10087395610798214,0.0,0.0,-0.12871942208861786,-0.3460955326819697,-0.3385298171002917,0.895307119614933,0.2242063281924418,-0.08930006178822991
9948,3.0,300.55605,2483.35,0.0,0.0,0.0,0.10088409725165441,0.0,0.0,-0.16197130128282286,-0.26890523827138074,-0.3239998511962957,0.9139199970618812,0.2364757229908368,-0.06754186250011285
9949,3.0,300.13546,2894.68,0.0,0.0,0.0,0.10089423839532666,0.0,0.0,-0.2025936832944398,-0.29600570650598873,-0.3813110601724716,0.9050391233804072,0.23757725757204975,-0.06220470945337684
9950,3.0,301.17537999999996,2998.6985,0.0,0.0,0.0,0.10090437953899893,0.0,0.0,-0.21863455708505078,-0.32835646185625966,-0.36453845768964466,0.9325180202623631,0.21792817991033678,-0.07045606604647234
9951,3.0,301.43619,2599.9221,0.0,0.0,0.0,0.10091452068267119,0.0,0.0,-0.2096164589425338,-0.2529464782688738,-0.32774847126625567,0.9566077171498312,0.22687210814553377,-0.059428134654850244
9952,3.0,300.13866,2533.9587,0.0,0.0,0.0,0.10092466182634345,0.0,0.0,-0.16874617516145082,-0.2725978661408147,-0.3289161305489947,0.957159208914259,0.2028152304288048,-0.07673338751649572
9953,3.0,299.69458,2750.8614,0.0,0.0,0.0,0.10093480297001571,0.0,0.0,-0.2074528761365048,-0.2888195037492657,-0.3399208068375717,0.9403773757230212,0.2043395436142428,-0.06443476146596584
9954,3.0,299.48911,2876.4027,0.0,0.0,0.0,0.10094494411368797,0.0,0.0,-0.2091685821333318,-0.30868787913012175,-0.35649812562862565,0.9485607989631621,0.1928837987786488,-0.06699549474144052
9955,3.0,299.84679,2909.3307,0.0,0.0,0.0,0.10095508525736023,0.0,0.0,-0.1997608183998578,-0.3309298131352297,-0.3536732654098337,0.940647822307212,0.2592068338792228,-0.07103408571176843
9956,3.0,299.99174,2670.462,0.0,0.0,0.0,0.1009652264010325,0.0,0.0,-0.18128775933420885,-0.2912279384419597,-0.3392380586551897,0.9269859685588921,0.27893130748087674,-0.04698444361400356
9957,3.0,300.43816,2285.743,0.0,0.0,0.0,0.10097536754470475,0.0,0.0,-0.13122581780097986,-0.28010616083932577,-0.28347683862198575,0.8982878075666041,0.26053032089484074,-0.07385997741916223
9958,3.0,300.14069,2543.724,0.0,0.0,0.0,0.10098550868837702,0.0,0.0,-0.1281986723322239,-0.3248025783230187,-0.3202273285564767,0.9101627643660711,0.2089070622825218,-0.08440552678267692
9959,3.0,300.82326,2784.6569,0.0,0.0,0.0,0.10099564983204927,0.0,0.0,-0.19713620679832883,-0.2896744740511447,-0.35965547373523166,0.9297330314350062,0.1991222479218358,-0.08664766990870922
9960,3.0,300.71072000000004,2580.9853,0.0,0.0,0.0,0.10100579097572154,0.0,0.0,-0.15720038278946985,-0.3222872862747787,-0.3050674149328097,0.9682343972772951,0.2107346108253868,-0.09241580077947942
9961,3.0,300.97582,2402.0071,0.0,0.0,0.0,0.10101593211939379,0.0,0.0,-0.14221597421562387,-0.2912341699300747,-0.29670004626951474,0.9257536639197731,0.24723186929488578,-0.0999397471522851
9962,3.0,299.81484,2681.7363,0.0,0.0,0.0,0.10102607326306606,0.0,0.0,-0.1966859285863898,-0.3043810089175667,-0.3141139347406317,0.946898258199082,0.24495063801974576,-0.0874722254823365
9963,3.0,299.71576,2995.7767,0.0,0.0,0.0,0.10103621440673832,0.0,0.0,-0.19286091959139082,-0.35751087923607666,-0.36026951342833263,0.9142474288316962,0.26151196772422175,-0.09432495445889821
9964,3.0,300.10595,2868.0846,0.0,0.0,0.0,0.10104635555041058,0.0,0.0,-0.1909118316990308,-0.3135221358872257,-0.36739213474128063,0.9348040543429771,0.25621902277934877,-0.09169654519599442
9965,3.0,300.09058999999996,2707.9863,0.0,0.0,0.0,0.10105649669408284,0.0,0.0,-0.1907616275042068,-0.3037881461515557,-0.3286104532588267,0.9210949122124902,0.23137274217471177,-0.04988905066866595
9966,3.0,300.35049,2425.0092,0.0,0.0,0.0,0.1010666378377551,0.0,0.0,-0.15199313853805485,-0.2734438387818058,-0.31170524673541267,0.9137190898320532,0.20957961716889778,-0.0886570198375166
9967,3.0,300.34039,2535.511,0.0,0.0,0.0,0.10107677898142736,0.0,0.0,-0.15150325237970685,-0.25818830474620175,-0.36104045489941866,0.9242598698273471,0.21390315534559778,-0.028164529787372678
9968,3.0,299.84902,2886.3251,0.0,0.0,0.0,0.10108692012509962,0.0,0.0,-0.1984135808018958,-0.3286017494404677,-0.35035543875238967,0.9216133112286521,0.22799304646616178,-0.06468523689068584
9969,3.0,300.10556,2863.1290000000004,0.0,0.0,0.0,0.10109706126877188,0.0,0.0,-0.21193750081410279,-0.28072317948772074,-0.37765906363204765,0.9184478571212461,0.25894860709123774,-0.012628494686835388
9970,3.0,300.69007999999997,2503.8124,0.0,0.0,0.0,0.10110720241244414,0.0,0.0,-0.16613792754903686,-0.2826544544433227,-0.3123040674120117,0.9062627444661692,0.24431561391707374,-0.08067169003167592
9971,3.0,301.00237999999996,2650.3151,0.0,0.0,0.0,0.1011173435561164,0.0,0.0,-0.1839313592426118,-0.2770982772549707,-0.34459997553436966,0.9217523392748731,0.2294987361147618,-0.037499567494919166
9972,3.0,301.60829,3140.8696,0.0,0.0,0.0,0.10112748469978866,0.0,0.0,-0.23264499926527377,-0.3098183116041867,-0.41228260988412563,0.9449514399869461,0.2314389276712438,-0.08734250920453451
9973,3.0,301.01203,2938.2202,0.0,0.0,0.0,0.10113762584346092,0.0,0.0,-0.1937333481924928,-0.3114756239977507,-0.3879366215163636,0.9526992467440952,0.2264299258018938,-0.056364308519224145
9974,3.0,300.26335,2420.7947,0.0,0.0,0.0,0.1011477669871332,0.0,0.0,-0.15047430703565787,-0.2806873104341807,-0.3046995139540007,0.944265317681731,0.2324631614023278,-0.1136868942675229
9975,3.0,300.75777999999997,2422.0712,0.0,0.0,0.0,0.10115790813080544,0.0,0.0,-0.13517415959815088,-0.2652272214683888,-0.3358477947480967,0.9085741908592911,0.2237373859136608,-0.07098064487499423
9976,3.0,299.80597,2470.4197,0.0,0.0,0.0,0.10116804927447771,0.0,0.0,-0.14932100550683586,-0.3024162359136587,-0.2992086508670947,0.9271773715027821,0.2455868881550388,-0.11728984950310689
9977,3.0,299.56042,2640.5814,0.0,0.0,0.0,0.10117819041814996,0.0,0.0,-0.18457991023411882,-0.2833608620155397,-0.3347300481652837,0.903048238921422,0.23119573751474276,-0.04277731166179196
9978,3.0,300.47128,2690.6864,0.0,0.0,0.0,0.10118833156182223,0.0,0.0,-0.16102053831648983,-0.31757995935770167,-0.33930098148639964,0.9366557182382221,0.23774015779062677,-0.09525417572810521
9979,3.0,300.51642000000004,2507.6802,0.0,0.0,0.0,0.10119847270549448,0.0,0.0,-0.14230593055950186,-0.27404697590383076,-0.34591925756207265,0.9013640652677072,0.2091062976496848,-0.04100112375324586
9980,3.0,300.65719,2573.4719,0.0,0.0,0.0,0.10120861384916675,0.0,0.0,-0.15880548240538084,-0.28764137759299374,-0.3358243278757807,0.9190463738228152,0.23648045486880379,-0.09316673157434051
9981,3.0,299.95446,3197.4822,0.0,0.0,0.0,0.10121875499283901,0.0,0.0,-0.21013872857407778,-0.35250319459185664,-0.40931282450353057,0.9127301881319562,0.23271267423945277,-0.06536049208857835
9982,3.0,299.12171,2968.3887,0.0,0.0,0.0,0.10122889613651127,0.0,0.0,-0.2256680934492068,-0.3029688523856977,-0.37367909829925566,0.9260243030214831,0.24956712706535777,-0.1011978977749549
9983,3.0,298.84674,2421.4766,0.0,0.0,0.0,0.10123903728018353,0.0,0.0,-0.16034874336768884,-0.24801524334469877,-0.3277044252844087,0.9340612204296651,0.2231449385801908,-0.07455668818792223
9984,3.0,298.45937999999995,2307.7682,0.0,0.0,0.0,0.10124917842385579,0.0,0.0,-0.12639108481632888,-0.26431336107069775,-0.3107994720735197,0.9379676542027001,0.2260335727602768,-0.0933338469133335
9985,3.0,299.67812999999995,2574.3579,0.0,0.0,0.0,0.10125931956752805,0.0,0.0,-0.1946592156038688,-0.24849273745432376,-0.33938856682504365,0.9403733429876231,0.22770916418564477,-0.04328202166910296
9986,3.0,299.79415,2749.0863,0.0,0.0,0.0,0.10126946071120033,0.0,0.0,-0.1972536323524178,-0.3209275046405787,-0.3174724433895907,0.9194959528921851,0.2060630415043388,-0.07419626296835102
9987,3.0,299.47904,2687.9104,0.0,0.0,0.0,0.10127960185487257,0.0,0.0,-0.18721287101647183,-0.28949190664812674,-0.34035286681271265,0.920701517861165,0.2205074283048888,-0.05791062949683414
9988,3.0,299.86444,2649.1585,0.0,0.0,0.0,0.10128974299854485,0.0,0.0,-0.18880363314346782,-0.30083222203232873,-0.3156421590714557,0.8978829432241472,0.23942548654945578,-0.06517876973614374
9989,3.0,301.30037999999996,2708.3477,0.0,0.0,0.0,0.10129988414221709,0.0,0.0,-0.17339798610554885,-0.31374128161885373,-0.3361308056335277,0.9258870785604401,0.2349585126885998,-0.059724217479821345
9990,3.0,300.13062,3009.5937,0.0,0.0,0.0,0.10131002528588937,0.0,0.0,-0.2120071414934758,-0.34571036592145665,-0.35712382783037766,0.904832663540031,0.2288255428808228,-0.09568663695028581
9991,3.0,300.25559,3075.6409999999996,0.0,0.0,0.0,0.10132016642956164,0.0,0.0,-0.23052124732067578,-0.3387017048472557,-0.36569512320879866,0.9474565691366832,0.2008974418320338,-0.07006626974625244
9992,3.0,298.68029,2461.6316,0.0,0.0,0.0,0.10133030757323389,0.0,0.0,-0.15831950739241885,-0.3014774799610107,-0.28847755210551773,0.958640742680475,0.23189528538378276,-0.09537411008944181
9993,3.0,299.15727999999996,2210.6418,0.0,0.0,0.0,0.10134044871690616,0.0,0.0,-0.08518077456668792,-0.27412349655138274,-0.3126756464886837,0.953907993318389,0.22797025847141275,-0.09173219032126231
9994,3.0,300.01718,2631.5114,0.0,0.0,0.0,0.1013505898605784,0.0,0.0,-0.1810003104133398,-0.3150824701137187,-0.3038309762332827,0.925166100451785,0.27278145692643374,-0.1021696552833599
9995,3.0,300.25433,2868.1346,0.0,0.0,0.0,0.10136073100425066,0.0,0.0,-0.18707294117766182,-0.3276530332393367,-0.35711532666203866,0.9144352347377311,0.25604510853218476,-0.07061376829203633
9996,3.0,300.07856,2524.745,0.0,0.0,0.0,0.10137087214792294,0.0,0.0,-0.17270326130698482,-0.28619755699549976,-0.3085586390798667,0.9041345544861331,0.27149373763934576,-0.08300928537012862
9997,3.0,301.00957999999997,2550.5858,0.0,0.0,0.0,0.10138101329159518,0.0,0.0,-0.16348384050209885,-0.29111632894344475,-0.3207142154945287,0.9137580695634001,0.22819991160657777,-0.04204130705415396
9998,3.0,300.52907999999996,2822.8068,0.0,0.0,0.0,0.10139115443526746,0.0,0.0,-0.2007771285151598,-0.31190955848557667,-0.34537608458096564,0.896324250462816,0.2137510259755838,-0.057353984342397545
9999,3.0,300.50309,3111.0956,0.0,0.0,0.0,0.1014012955789397,0.0,0.0,-0.20382734568869282,-0.35937232099478666,-0.3824957217918886,0.9257454768589651,0.1841632820580008,-0.06550449215304004
10000,3.0,300.08337,3119.3232,0.0,0.0,0.0,0.10141143672261198,0.0,0.0,-0.2286260643336358,-0.3276431236533587,-0.39192717531270066,0.9331206203618352,0.2068764786846188,-0.05179214105948635
10001,3.0,298.60942,2819.2268,0.0,0.0,0.0,0.10142157786628425,0.0,0.0,-0.17143448979676684,-0.3171176741320777,-0.3684223973104596,0.9440127954918092,0.23622539955363175,-0.05949202007365524
10002,3.0,298.85982,2559.8177,0.0,0.0,0.0,0.1014317190099565,0.0,0.0,-0.17382375379756884,-0.3044788990097277,-0.29981799921223273,0.9246730630856261,0.2657034186178857,-0.06652483297723984
10003,3.0,299.744,2622.3491,0.0,0.0,0.0,0.10144186015362877,0.0,0.0,-0.1889465824675758,-0.2755700630566477,-0.33261200081874864,0.9342301494863371,0.23609677758593778,-0.049426679316783455
10004,3.0,299.63487000000003,2703.6394,0.0,0.0,0.0,0.10145200129730102,0.0,0.0,-0.2043873386214598,-0.27790436837202576,-0.3395471505981947,0.9555336416463281,0.2548946643686448,-0.06087501628089635
10005,3.0,300.58838,2611.5911,0.0,0.0,0.0,0.10146214244097329,0.0,0.0,-0.14759460972145386,-0.28410826568680275,-0.3621556075619757,0.9260156599981301,0.2215360190114028,-0.06037657626520414
10006,3.0,300.43664,2624.8518,0.0,0.0,0.0,0.10147228358464555,0.0,0.0,-0.16145779626464385,-0.3123577392698087,-0.3240738589835997,0.9167212992158481,0.23499377379207978,-0.1107496950101439
10007,3.0,300.22943,2855.8125,0.0,0.0,0.0,0.10148242472831781,0.0,0.0,-0.17130735730671984,-0.3287014532503077,-0.36808687980484667,0.8751502719306071,0.22297422620334278,-0.08243213406016822
10008,3.0,300.39598,2971.0464,0.0,0.0,0.0,0.10149256587199007,0.0,0.0,-0.2295519114800098,-0.3230957990595727,-0.3504762080318086,0.9220084078401451,0.26217921318007376,-0.07042270782668013
10009,3.0,300.26018999999997,2857.756,0.0,0.0,0.0,0.10150270701566233,0.0,0.0,-0.19054157997998983,-0.32266242185930166,-0.3554824639933877,0.9309492355300361,0.2209639481374438,-0.05263570520498965
10010,3.0,298.73766,2478.5865,0.0,0.0,0.0,0.10151284815933459,0.0,0.0,-0.14978690803531686,-0.2944144985489487,-0.3092270092433297,0.9244385564824821,0.23888734942134576,-0.07968890937543302
10011,3.0,299.50487000000004,2421.7255,0.0,0.0,0.0,0.10152298930300686,0.0,0.0,-0.13058934475066486,-0.2742134224977577,-0.3313413041333407,0.9362973722078561,0.19695792544323382,-0.07598683396206664
10012,3.0,299.77446000000003,2501.0695,0.0,0.0,0.0,0.10153313044667911,0.0,0.0,-0.14746885525154285,-0.2856992101988167,-0.3270946209767257,0.9370575225653771,0.22544263516945579,-0.07329020966268053
10013,3.0,300.18339,2775.9936,0.0,0.0,0.0,0.10154327159035138,0.0,0.0,-0.17365939449884785,-0.3018099982463277,-0.36836336535963365,0.9522170815515091,0.23260419568374677,-0.07607989085125064
10014,3.0,299.89695,2753.6037,0.0,0.0,0.0,0.10155341273402363,0.0,0.0,-0.2284376504775408,-0.2688616989145837,-0.33972741792348565,0.9083080100580212,0.24133881684578679,-0.07176167933032634
10015,3.0,299.11523,2520.3384,0.0,0.0,0.0,0.1015635538776959,0.0,0.0,-0.18032241569893684,-0.2834801012873077,-0.30231743389640775,0.9381866479468131,0.2269448797677158,-0.1064318107690019
10016,3.0,299.29472999999996,2642.0446,0.0,0.0,0.0,0.10157369502136816,0.0,0.0,-0.2056401007800978,-0.2699489162718837,-0.3275265593618547,0.9128121499325451,0.2353752219247258,-0.06570827802640214
10017,3.0,300.04546,3111.388,0.0,0.0,0.0,0.10158383616504042,0.0,0.0,-0.24770241250882477,-0.3125062412044647,-0.38557559679584863,0.9602026575771241,0.19765295421682783,-0.09181681089011373
10018,3.0,299.81991,3041.2511,0.0,0.0,0.0,0.10159397730871268,0.0,0.0,-0.2040038842536158,-0.3511837909741417,-0.36927671913227467,0.9082195229267882,0.2076224840707438,-0.07494987279647652
10019,3.0,299.44144,2487.3451,0.0,0.0,0.0,0.10160411845238494,0.0,0.0,-0.14109994002547985,-0.27499646217503776,-0.3399943890598337,0.9178415282614061,0.21767010510986678,-0.08583479710873493
10020,3.0,299.98035,2348.8779999999997,0.0,0.0,0.0,0.1016142595960572,0.0,0.0,-0.15565695970714585,-0.2468319901429208,-0.3115113005337717,0.8879328373746482,0.25896173881253376,-0.04295398397572816
10021,3.0,300.26481,2474.8031,0.0,0.0,0.0,0.10162440073972948,0.0,0.0,-0.13844812265876588,-0.2779546863719917,-0.33587551727083265,0.9086800754947412,0.23286536089702178,-0.08294656113593822
10022,3.0,301.12131,2826.1108,0.0,0.0,0.0,0.10163454188340172,0.0,0.0,-0.1965729309352378,-0.2941912795519187,-0.36830290472616667,0.8989288402423691,0.23473327732387078,-0.07498602353354433
10023,3.0,300.81877000000003,2953.6619,0.0,0.0,0.0,0.101644683027074,0.0,0.0,-0.2039573254115208,-0.3373271398940967,-0.3565549892242377,0.9250121269665891,0.2105646482536128,-0.11884480337156889
10024,3.0,299.5559,2742.5115,0.0,0.0,0.0,0.10165482417074624,0.0,0.0,-0.17950303074056984,-0.30961837709445467,-0.3445336076528197,0.9413302259845601,0.2246962042182888,-0.07818685830794213
10025,3.0,300.43455,2571.2542,0.0,0.0,0.0,0.10166496531441852,0.0,0.0,-0.16200775802142084,-0.2989940647609167,-0.3205952396677867,0.945206373712106,0.2361978290184108,-0.1070468333146999
10026,3.0,300.59539,2914.8729,0.0,0.0,0.0,0.10167510645809077,0.0,0.0,-0.21385589736093383,-0.3160059665198607,-0.3561866930778897,0.9490012689141331,0.23217855971423979,-0.07363795709700052
10027,3.0,300.368,2976.9955,0.0,0.0,0.0,0.10168524760176303,0.0,0.0,-0.2040012700683578,-0.3282797182936857,-0.37265131819282166,0.960701044903811,0.24815290350328478,-0.10051829877388371
10028,3.0,300.32058,2552.8332,0.0,0.0,0.0,0.1016953887454353,0.0,0.0,-0.15804459237528687,-0.2901691731474677,-0.3277837728997397,0.9214712332996302,0.25584858867528976,-0.05033676839760225
10029,3.0,299.46331000000004,2295.5989,0.0,0.0,0.0,0.10170552988910755,0.0,0.0,-0.14281941531267886,-0.25568566819171074,-0.29929967112357775,0.9465267196524141,0.24420755079390877,-0.08688519498390111
10030,3.0,298.61253999999997,2527.2001,0.0,0.0,0.0,0.10171567103277981,0.0,0.0,-0.16287062154157883,-0.27050230281399873,-0.3348327917254237,0.9010984214889902,0.23199120977074977,-0.059332423050404245
10031,3.0,299.58276,2719.7742,0.0,0.0,0.0,0.10172581217645209,0.0,0.0,-0.18451540673275282,-0.3073220382603237,-0.3349060091776497,0.9365409372668941,0.23613460221217075,-0.07696603784545653
10032,3.0,299.97362999999996,2701.717,0.0,0.0,0.0,0.10173595332012433,0.0,0.0,-0.1848891744296408,-0.27319815603005876,-0.36316715540180766,0.9211665895245641,0.22837107994597078,-0.03999528051147686
10033,3.0,300.38003,2734.5053,0.0,0.0,0.0,0.10174609446379661,0.0,0.0,-0.16696223690288983,-0.3183558961517807,-0.34590320768048866,0.9260602936650352,0.2252776476556728,-0.06945283800321143
10034,3.0,300.9269,2939.0182,0.0,0.0,0.0,0.10175623560746885,0.0,0.0,-0.2175319991212368,-0.32320100481745573,-0.35265515170935363,0.9169719266280831,0.22049528956869077,-0.07527361633592752
10035,3.0,300.73366,3105.9859,0.0,0.0,0.0,0.10176637675114113,0.0,0.0,-0.22382008738682277,-0.3291130455734287,-0.3912090241718246,0.9493888168123811,0.23662817660088276,-0.07712025552392662
10036,3.0,301.10041,3076.2062,0.0,0.0,0.0,0.10177651789481339,0.0,0.0,-0.2325826134566168,-0.3285475000301137,-0.3739597685769556,0.9561477117369321,0.25489000341818474,-0.06454470822106674
10037,3.0,301.01454,2596.5609,0.0,0.0,0.0,0.10178665903848565,0.0,0.0,-0.16760732257905483,-0.27594420565607275,-0.34573816950420067,0.9261412523480252,0.23349276535894178,-0.06513308228913474
10038,3.0,300.61163999999997,2320.0398,0.0,0.0,0.0,0.1017968001821579,0.0,0.0,-0.1185783996552769,-0.26520543659123874,-0.32145033155967767,0.9394630694952861,0.2271896505943728,-0.06454739029408144
10039,3.0,299.89716,2766.0239,0.0,0.0,0.0,0.10180694132583017,0.0,0.0,-0.15711237188578386,-0.3305897967991727,-0.35310001916575867,0.926241452650414,0.2166941324810458,-0.07595408875858493
10040,3.0,299.71303,2963.7266,0.0,0.0,0.0,0.10181708246950243,0.0,0.0,-0.20245117980037583,-0.3253601495880467,-0.37308757302337664,0.9430456584038601,0.24280018693501276,-0.05612235351459505
10041,3.0,299.24913,2508.5594,0.0,0.0,0.0,0.1018272236131747,0.0,0.0,-0.13317531099337987,-0.3190052273458647,-0.31035888053253674,0.9115363565991342,0.2378788717293168,-0.09411375260805421
10042,3.0,299.77704,2419.8281,0.0,0.0,0.0,0.10183736475684695,0.0,0.0,-0.13463388451232985,-0.3025099818129107,-0.2984234529671017,0.9071701200632201,0.23284393065740677,-0.1048179566722269
10043,3.0,299.90143,2754.7863,0.0,0.0,0.0,0.10184750590051922,0.0,0.0,-0.17288213034713784,-0.3253288198949547,-0.3391752878114947,0.8980195192051261,0.25930000222591776,-0.09513762156910222
10044,3.0,300.01566,3027.6453,0.0,0.0,0.0,0.10185764704419147,0.0,0.0,-0.2108112429304498,-0.3471268287662507,-0.36239048906765664,0.9318866134625481,0.24921819412842075,-0.06570866204819004
10045,3.0,300.84037,3107.461,0.0,0.0,0.0,0.10186778818786374,0.0,0.0,-0.2180824573705628,-0.34624052877127964,-0.38026757468948763,0.929796450758765,0.23068362064920075,-0.06317514467040133
10046,3.0,300.3515,2663.6438,0.0,0.0,0.0,0.10187792933153601,0.0,0.0,-0.19352408164933982,-0.28810787793903375,-0.3280492342934387,0.9580717723518222,0.22467185581838578,-0.06408980249592104
10047,3.0,300.04455,2333.9253,0.0,0.0,0.0,0.10188807047520826,0.0,0.0,-0.1263047255103059,-0.2802684835053457,-0.3028817939371057,0.983162509675585,0.23705276892278676,-0.08298630688436083
10048,3.0,300.54899,2694.4895,0.0,0.0,0.0,0.10189821161888053,0.0,0.0,-0.1846641315824308,-0.2964874056035287,-0.3379059894112247,0.964308488837338,0.2414106968078808,-0.06671474948323314
10049,3.0,299.72025,3068.0206,0.0,0.0,0.0,0.10190835276255278,0.0,0.0,-0.2037420198977718,-0.3494227926978447,-0.37943683119749966,0.955611894951551,0.22296512721744477,-0.06503882165883193
10050,3.0,299.66255,2694.1241,0.0,0.0,0.0,0.10191849390622502,0.0,0.0,-0.16665037878711184,-0.29501501135321473,-0.35728107411339666,0.9115086442088991,0.21230114614249182,-0.06343515477856233
10051,3.0,299.08682000000005,2254.9687,0.0,0.0,0.0,0.10192863504989731,0.0,0.0,-0.09819693367553281,-0.2971438396808137,-0.2901133937294627,0.8978072635741782,0.24332840434464376,-0.08215124593369671
10052,3.0,299.32088999999996,2621.6389,0.0,0.0,0.0,0.10193877619356957,0.0,0.0,-0.15749676857622086,-0.3041697462717167,-0.33524626869373064,0.9159092299232032,0.24024485124282077,-0.06347023248377424
10053,3.0,299.83471000000003,3164.4994,0.0,0.0,0.0,0.10194891733724183,0.0,0.0,-0.2260958268464208,-0.3353456685285407,-0.40048730467501964,0.9194365156413191,0.24273055638814078,-0.08445048063661352
10054,3.0,299.66571,3049.2639,0.0,0.0,0.0,0.10195905848091409,0.0,0.0,-0.2259496047244898,-0.3295160860657057,-0.37143439469022066,0.8987972595843831,0.2206686769258028,-0.06821797592084003
10055,3.0,299.59522000000004,2595.2648,0.0,0.0,0.0,0.10196919962458635,0.0,0.0,-0.17505584565416682,-0.2862122997844547,-0.3276275499993217,0.9468628451080872,0.2271578041437298,-0.08859149396679973
10056,3.0,300.72702999999996,2470.7824,0.0,0.0,0.0,0.10197934076825863,0.0,0.0,-0.15425763092154285,-0.2769121229465987,-0.3198864104278307,0.9257715984465431,0.24051050515403874,-0.06491327085219104
10057,3.0,300.40216000000004,2639.5181,0.0,0.0,0.0,0.10198948191193087,0.0,0.0,-0.17052048754406182,-0.3014467987479827,-0.3303802972084967,0.9637559230278041,0.24433551414903779,-0.08380665544357292
10058,3.0,300.02367999999996,3003.098,0.0,0.0,0.0,0.10199962305560314,0.0,0.0,-0.20833364378592978,-0.3160691122660927,-0.3884640485909166,0.9495778386185361,0.22151104239643776,-0.06509753544912653
10059,3.0,300.23118,2694.8518,0.0,0.0,0.0,0.10200976419927539,0.0,0.0,-0.16907208705611584,-0.3060578567730587,-0.3440377027888777,0.9581375221508112,0.2511623170952908,-0.11354396520841689
10060,3.0,299.32921,2191.8393,0.0,0.0,0.0,0.10201990534294766,0.0,0.0,-0.1060595528147629,-0.27167221151195975,-0.2885326627784567,0.9382786510558931,0.22790062792454077,-0.08264914183408523
10061,3.0,299.79855,2474.9997,0.0,0.0,0.0,0.10203004648661992,0.0,0.0,-0.14957884725978285,-0.2846517933054447,-0.3181074877572647,0.9079333709660471,0.2383684843101378,-0.1098875711625589
10062,3.0,301.11087000000003,3286.9802,0.0,0.0,0.0,0.10204018763029218,0.0,0.0,-0.2273714377948138,-0.36686092824385463,-0.4049275287332356,0.9035047790189793,0.2277577191304368,-0.05102880200390065
10063,3.0,301.07403,3183.8854,0.0,0.0,0.0,0.10205032877396444,0.0,0.0,-0.2312504732851448,-0.33253429466857964,-0.4040368717628346,0.93101756911678,0.22852823503648076,-0.05671046312438695
10064,3.0,300.45655,2504.8828,0.0,0.0,0.0,0.1020604699176367,0.0,0.0,-0.15703169691282187,-0.27818021557924977,-0.32620989151940966,0.9487576126625862,0.2443979607527008,-0.057284612174301044
10065,3.0,300.73454,2456.8595,0.0,0.0,0.0,0.10207061106130896,0.0,0.0,-0.15575275237159986,-0.27264915686087676,-0.3184220411183087,0.9432570426397221,0.2291110666265018,-0.08052450734865012
10066,3.0,301.0812,2976.5429,0.0,0.0,0.0,0.10208075220498124,0.0,0.0,-0.22619575357128277,-0.3114410721693407,-0.3671578814506617,0.9431886989204771,0.22092981174157478,-0.06105654611581194
10067,3.0,299.58955,3186.8003,0.0,0.0,0.0,0.10209089334865348,0.0,0.0,-0.2522215079548248,-0.34033625964357367,-0.37614992893310767,0.9355391267605232,0.23576492804568674,-0.09817022541614691
10068,3.0,299.45186,2880.0136,0.0,0.0,0.0,0.10210103449232576,0.0,0.0,-0.2047530712450548,-0.30281889137089774,-0.36788026797695567,0.960439058957955,0.25352035272801077,-0.06738548761217984
10069,3.0,299.03235,2483.5170000000003,0.0,0.0,0.0,0.102111175635998,0.0,0.0,-0.15336708540865285,-0.29414500441985175,-0.3074150647520047,0.9282552669591622,0.2595640349369758,-0.0868709821247484
10070,3.0,300.23204,2564.73,0.0,0.0,0.0,0.10212131677967028,0.0,0.0,-0.14687091610253086,-0.3045936394510517,-0.3281493130058157,0.9491867747424411,0.24247290715271275,-0.0975867321738106
10071,3.0,300.0296,2946.4331,0.0,0.0,0.0,0.10213145792334252,0.0,0.0,-0.20470904552820982,-0.3044579348651587,-0.3864751095721236,0.9176585758233502,0.24055340616327275,-0.07594512352170013
10072,3.0,300.61652999999995,3023.6882,0.0,0.0,0.0,0.1021415990670148,0.0,0.0,-0.2089482205015838,-0.3397311669488557,-0.37044631372270465,0.945279793814352,0.2199973582045488,-0.08434775227522502
10073,3.0,299.86447000000004,2391.4111,0.0,0.0,0.0,0.10215174021068704,0.0,0.0,-0.12461270930081687,-0.26956157102365574,-0.33275496027535767,0.9106416466283331,0.2143337663730958,-0.06467948770961844
10074,3.0,300.73121000000003,2282.2411,0.0,0.0,0.0,0.10216188135435932,0.0,0.0,-0.12844340262887688,-0.2797489800465747,-0.2855519342967817,0.9269337659137402,0.2268164199200378,-0.07249099952705464
10075,3.0,299.86646,2863.5228,0.0,0.0,0.0,0.10217202249803158,0.0,0.0,-0.17445739988010484,-0.3192500285700247,-0.37673199045305267,0.9058145231519331,0.23054045854257177,-0.06290588865507785
10076,3.0,299.1804,3156.8742,0.0,0.0,0.0,0.10218216364170384,0.0,0.0,-0.24108729777346377,-0.33544873632871264,-0.3830748955490486,0.9563731092216771,0.24579894113596676,-0.08416151589359493
10077,3.0,299.36637,2819.0041,0.0,0.0,0.0,0.1021923047853761,0.0,0.0,-0.17808339642296284,-0.3385467282444607,-0.3402767210676977,0.9300131342926502,0.25860197423202774,-0.0979674051701301
10078,3.0,301.46057,2560.2286,0.0,0.0,0.0,0.10220244592904836,0.0,0.0,-0.17418873661608983,-0.3134251374551527,-0.29063170155311574,0.97056380859469,0.2606596420051038,-0.10496080467132489
10079,3.0,300.60387000000003,2627.006,0.0,0.0,0.0,0.10221258707272061,0.0,0.0,-0.17045141428474483,-0.28122518411726477,-0.34686762925816966,0.9302618162646931,0.24659308603434277,-0.07040692037687203
10080,3.0,301.19777999999997,2746.2333,0.0,0.0,0.0,0.10222272821639287,0.0,0.0,-0.2150494857137318,-0.3091846756541517,-0.31055218838661475,0.9566276275142962,0.2235673929443838,-0.06870665327181873
10081,3.0,300.07099999999997,2770.6805,0.0,0.0,0.0,0.10223286936006513,0.0,0.0,-0.17138117257650484,-0.2914169703806157,-0.37941955528329463,0.9450212022563311,0.2139351841812588,-0.05364959567905286
10082,3.0,299.28142,2456.4939,0.0,0.0,0.0,0.1022430105037374,0.0,0.0,-0.14506790847708786,-0.27461923929530874,-0.3270256490424187,0.920981651116312,0.21423415375576482,-0.08361070401998402
10083,3.0,299.02114,2555.5735,0.0,0.0,0.0,0.10225315164740965,0.0,0.0,-0.13041463003592188,-0.3113672467670547,-0.3350486747917297,0.923260724168739,0.2138649760818298,-0.07137772441693294
10084,3.0,299.83055,3112.7419,0.0,0.0,0.0,0.10226329279108191,0.0,0.0,-0.23015357938938977,-0.3154220000897277,-0.40062023295563864,0.9092837800368222,0.22727317280011577,-0.06745319906336243
10085,3.0,298.98342,3316.7517,0.0,0.0,0.0,0.10227343393475417,0.0,0.0,-0.24034668287787078,-0.36933891242341266,-0.3985240920762656,0.9344050871161022,0.2567573726899798,-0.048072634704649654
10086,3.0,299.81247,2777.3438,0.0,0.0,0.0,0.10228357507842645,0.0,0.0,-0.2001885720620738,-0.3109800940363457,-0.33307450895939467,0.9500974332698161,0.26112275809580976,-0.06678420169808753
10087,3.0,300.35401,2371.1086,0.0,0.0,0.0,0.1022937162220987,0.0,0.0,-0.12681836225099788,-0.2866931882819147,-0.3072462572853447,0.9407674466140182,0.26814996164684074,-0.07290971297187843
10088,3.0,301.18093,2599.9767,0.0,0.0,0.0,0.10230385736577097,0.0,0.0,-0.16219988037288186,-0.3198183909486177,-0.30830974432530267,0.946592145211371,0.23836168540196678,-0.11414361675009789
10089,3.0,300.41777,2867.8637,0.0,0.0,0.0,0.10231399850944321,0.0,0.0,-0.2015925010031308,-0.2967850579529047,-0.3733813952873747,0.938757330668135,0.2254679258919518,-0.11825060311542589
10090,3.0,299.73037,2749.2719,0.0,0.0,0.0,0.10232413965311549,0.0,0.0,-0.17564698589500782,-0.32766147361266973,-0.33240154877297867,0.9367156317166351,0.20568011402654682,-0.1158038067739459
10091,3.0,299.18036,2417.7059,0.0,0.0,0.0,0.10233428079678775,0.0,0.0,-0.14840715524164586,-0.2657845090233888,-0.3207305490861407,0.939569622875802,0.2117941461899548,-0.08373411990866422
10092,3.0,299.97892,2611.6262,0.0,0.0,0.0,0.10234442194046,0.0,0.0,-0.16715996252740384,-0.27788299892741675,-0.3488262113039666,0.923107419428609,0.2175862080015868,-0.05713346261713374
10093,3.0,300.89907,3080.5261,0.0,0.0,0.0,0.10235456308413227,0.0,0.0,-0.1981134257247728,-0.3262098611219067,-0.4120797166841016,0.9368164906315891,0.21474003913319178,-0.07618136075601492
10094,3.0,300.69642000000005,3257.5254,0.0,0.0,0.0,0.10236470422780453,0.0,0.0,-0.2293622006637868,-0.3304567469285417,-0.4303874335984326,0.9238073725976892,0.23051775160783078,-0.03969936385952216
10095,3.0,299.45297,2904.4493,0.0,0.0,0.0,0.10237484537147679,0.0,0.0,-0.19277203729261883,-0.33179869536098167,-0.3583093405798787,0.9308151825418062,0.23508294993338077,-0.07841355579256543
10096,3.0,298.97031,2569.298,0.0,0.0,0.0,0.10238498651514906,0.0,0.0,-0.17137725129861783,-0.2880169083450557,-0.32160826685276467,0.9292119270410771,0.25226122735874473,-0.07105257549959323
10097,3.0,298.6052,2592.9731,0.0,0.0,0.0,0.1023951276588213,0.0,0.0,-0.1946291322083998,-0.27718119151065373,-0.3163887521426387,0.930009213014763,0.25541029721203373,-0.08033533254173002
10098,3.0,298.74432,2812.6424,0.0,0.0,0.0,0.10240526880249358,0.0,0.0,-0.2090383187004758,-0.3041353059008177,-0.34179943331797763,0.9487774419670432,0.24190262973143076,-0.05236500429502354
10099,3.0,298.57633,2600.8722,0.0,0.0,0.0,0.10241540994616583,0.0,0.0,-0.16617213487241284,-0.28376486509541177,-0.3406632050533407,0.9313799377500431,0.24363717204761676,-0.0904258657358381
10100,3.0,299.38321,2574.5422,0.0,0.0,0.0,0.1024255510898381,0.0,0.0,-0.16891207460032384,-0.2760926265307207,-0.3375918413502207,0.9429990792967631,0.2283552732444108,-0.08655392096970692
10101,3.0,298.98652000000004,2730.692,0.0,0.0,0.0,0.10243569223351036,0.0,0.0,-0.16462283493950886,-0.3125440354331947,-0.35289530211555464,0.9330061028355332,0.2138270703955888,-0.1119966107157049
10102,3.0,299.48413999999997,2828.847,0.0,0.0,0.0,0.10244583337718262,0.0,0.0,-0.19185182381680083,-0.2993282751739007,-0.36871874256720666,0.940363494196651,0.23634263259020177,-0.08730907093798441
10103,3.0,299.79526,2876.2724,0.0,0.0,0.0,0.10245597452085488,0.0,0.0,-0.19037611623865983,-0.2969155645657847,-0.38702329814122566,0.9403689353496881,0.2106228088093528,-0.06713612878907003
10104,3.0,299.89409,2833.4641,0.0,0.0,0.0,0.10246611566452714,0.0,0.0,-0.18545224764271181,-0.3132505341979207,-0.36259956309329067,0.9508016420893161,0.22880152885345278,-0.053802040169847944
10105,3.0,300.01649,2499.7745,0.0,0.0,0.0,0.1024762568081994,0.0,0.0,-0.15840368821072684,-0.2508893272533487,-0.35057599290165664,0.8996302018290881,0.24122136089419477,-0.04651623898129536
10106,3.0,300.44022,2521.2142,0.0,0.0,0.0,0.10248639795187167,0.0,0.0,-0.15706083798569784,-0.3062814405401247,-0.30304386329060073,0.9333510942295811,0.24233903654950076,-0.07691630854379863
10107,3.0,300.33153,2888.6327,0.0,0.0,0.0,0.10249653909554392,0.0,0.0,-0.18703889597430182,-0.33891864169366565,-0.35211466384101164,0.9029043574072221,0.23699108225669877,-0.08350785508183362
10108,3.0,299.78767999999997,2964.0106,0.0,0.0,0.0,0.10250668023921619,0.0,0.0,-0.2190220948507978,-0.33342770767925267,-0.34853540852526665,0.9225348723271031,0.26032222972180374,-0.1091744153446759
10109,3.0,299.60536,2713.3540000000003,0.0,0.0,0.0,0.10251682138288844,0.0,0.0,-0.18048911560538883,-0.3096961744371327,-0.3346065735080977,0.9263862967522091,0.2347834737338248,-0.09407110187159491
10110,3.0,299.66021,2647.3297,0.0,0.0,0.0,0.10252696252656071,0.0,0.0,-0.1911514146851758,-0.2702689310509667,-0.34330177924124766,0.941410495657482,0.26659546374092374,-0.07726777865898601
10111,3.0,299.01822000000004,2932.2164,0.0,0.0,0.0,0.10253710367023298,0.0,0.0,-0.18578393506294683,-0.31660233513121766,-0.38893430809482765,0.9403945908422202,0.23820461137146476,-0.07229214615517933
10112,3.0,299.81073,2955.6308,0.0,0.0,0.0,0.10254724481390523,0.0,0.0,-0.1991061271127448,-0.3202552233317297,-0.37907661065444864,0.940540346869105,0.24085756357829077,-0.08496162782180981
10113,3.0,299.70541000000003,2662.4922,0.0,0.0,0.0,0.1025573859575775,0.0,0.0,-0.15061143017169087,-0.29216176999912175,-0.36655794619895266,0.925191776209319,0.2238133695386598,-0.07426068946270943
10114,3.0,300.52802,2429.2234,0.0,0.0,0.0,0.10256752710124975,0.0,0.0,-0.14080826585169387,-0.2921633911992817,-0.30545158870822475,0.9320253780637432,0.24003338594695076,-0.08839109437527182
10115,3.0,300.703,2523.8875,0.0,0.0,0.0,0.10257766824492202,0.0,0.0,-0.15359244236339387,-0.2759409125932477,-0.3376654134399817,0.9326009953130521,0.22813550943022176,-0.04779694860419156
10116,3.0,301.03147,2778.176,0.0,0.0,0.0,0.10258780938859428,0.0,0.0,-0.18100098929090683,-0.31847757735628973,-0.3450175764305837,0.9287188896749182,0.2256055353880328,-0.06511695641379324
10117,3.0,300.61388,2920.2257,0.0,0.0,0.0,0.10259795053226653,0.0,0.0,-0.2078935386049948,-0.3079401917488307,-0.37184196441044465,0.9366097977436901,0.2161869197459878,-0.05401970351657965
10118,3.0,299.75357,2741.4692,0.0,0.0,0.0,0.1026080916759388,0.0,0.0,-0.1937458820962298,-0.3125253207038477,-0.3270669795139977,0.9350014050649542,0.2405247818479478,-0.08984236945375151
10119,3.0,299.84201,2749.5178,0.0,0.0,0.0,0.10261823281961105,0.0,0.0,-0.16385202519093583,-0.3340974862603547,-0.33783524428924266,0.9243428854080401,0.23396146445769875,-0.1025734861107149
10120,3.0,299.95096,2950.6791,0.0,0.0,0.0,0.10262837396328332,0.0,0.0,-0.2037725187257818,-0.3328736321270697,-0.3602866170900207,0.9042904328815171,0.2502443732996968,-0.11634488232734588
10121,3.0,300.13288,2873.558,0.0,0.0,0.0,0.1026385151069556,0.0,0.0,-0.18206743502115683,-0.3287177564444167,-0.36270467765866465,0.9503255361323282,0.23711167928360077,-0.06789819317602994
10122,3.0,300.39007000000004,2540.4254,0.0,0.0,0.0,0.10264865625062784,0.0,0.0,-0.15225226711862885,-0.2916628760473847,-0.3283107338792467,0.9445874400210221,0.25343528024961476,-0.06262403895426144
10123,3.0,300.26187000000004,2478.2433,0.0,0.0,0.0,0.10265879739430012,0.0,0.0,-0.14467057258287386,-0.2847551042856407,-0.32389839446378266,0.9516958251700651,0.2370780900427858,-0.06557426354167593
10124,3.0,298.95722,2729.7139,0.0,0.0,0.0,0.10266893853797236,0.0,0.0,-0.15593086147417784,-0.3202986714960177,-0.35353534180622165,0.924163509742837,0.23330021744243878,-0.06267290192708384
10125,3.0,299.59462,2845.6957,0.0,0.0,0.0,0.10267907968164464,0.0,0.0,-0.18404641379146683,-0.3272095944655727,-0.3537644376538317,0.935004890645298,0.23188763534552778,-0.09059065465260151
10126,3.0,299.26005,2731.7039,0.0,0.0,0.0,0.1026892208253169,0.0,0.0,-0.19144670616181883,-0.3086317754720847,-0.3302912831872117,0.933456299987464,0.2384677828199378,-0.08444479630355252
10127,3.0,299.1486,2629.6026,0.0,0.0,0.0,0.10269936196898916,0.0,0.0,-0.17859414540086985,-0.2947288087299687,-0.32601056495973774,0.9473751950211521,0.21979298565937877,-0.08687217269361591
10128,3.0,299.96837,2672.4174,0.0,0.0,0.0,0.10270950311266142,0.0,0.0,-0.18349397970444584,-0.29437452583250373,-0.3344796538005717,0.9151148621098052,0.2253791550506908,-0.06475342254291523
10129,3.0,299.98446,2718.7036,0.0,0.0,0.0,0.10271964425633368,0.0,0.0,-0.18679713450044183,-0.2945659186438927,-0.3450549450942717,0.9542504819846901,0.23564935673928078,-0.07344271393523152
10130,3.0,300.37433,2851.4978,0.0,0.0,0.0,0.10272978540000594,0.0,0.0,-0.1925269928884348,-0.31509641243509473,-0.35916071384390263,0.9396260102438672,0.2581751730249058,-0.06099589803107645
10131,3.0,301.14027000000004,2719.0065,0.0,0.0,0.0,0.10273992654367821,0.0,0.0,-0.18490077614328582,-0.3051109745546087,-0.33649832157729864,0.9434386474551452,0.24319043007852675,-0.0962923558335656
10132,3.0,300.69532999999996,2620.0683,0.0,0.0,0.0,0.10275006768735045,0.0,0.0,-0.15722415363681583,-0.3009604690974857,-0.3382507274927477,0.9193134969466782,0.23450443478878577,-0.07808287452967973
10133,3.0,300.23509,2773.4876,0.0,0.0,0.0,0.10276020883102273,0.0,0.0,-0.17653810896045483,-0.3101070777501857,-0.3564257897039867,0.946234954286119,0.24736453413047876,-0.07561412916453351
10134,3.0,300.33366,2940.218,0.0,0.0,0.0,0.10277034997469497,0.0,0.0,-0.17862974087688283,-0.3332789625645727,-0.38184417158008566,0.9376535264066982,0.26998750083569173,-0.06798439644153753
10135,3.0,299.28317999999996,2754.5734,0.0,0.0,0.0,0.10278049111836725,0.0,0.0,-0.17655347996447185,-0.3056040220532687,-0.35516400961945865,0.9153442416674431,0.22878812355462977,-0.08511053201675552
10136,3.0,299.73902999999996,2677.7813,0.0,0.0,0.0,0.10279063226203951,0.0,0.0,-0.14823183257684286,-0.3324408324793557,-0.33330599607724065,0.8991159976683402,0.22718002471842277,-0.1032301836330259
10137,3.0,299.53841,2730.7114,0.0,0.0,0.0,0.10280077340571177,0.0,0.0,-0.17832114542642685,-0.3305037819981837,-0.3212431320467287,0.9085261324070482,0.2362814829466668,-0.0994895500003541
10138,3.0,299.61446,2898.5101,0.0,0.0,0.0,0.10281091454938403,0.0,0.0,-0.18429489311348982,-0.3347796467576787,-0.36200014459913266,0.9386276853178401,0.2642737227267858,-0.09470381880378921
10139,3.0,300.42537999999996,2905.3235,0.0,0.0,0.0,0.10282105569305629,0.0,0.0,-0.2149823781596088,-0.32257784587345467,-0.3455855841716417,0.9452709177434762,0.2304481109284578,-0.09038357368991423
10140,3.0,300.18142,2629.1088,0.0,0.0,0.0,0.10283119683672855,0.0,0.0,-0.16827092033454685,-0.27559150342876376,-0.35532101272245364,0.9609534049737172,0.23012721462178778,-0.08619384228166992
10141,3.0,299.83904,2518.6964,0.0,0.0,0.0,0.10284133798040082,0.0,0.0,-0.16763868266964982,-0.28385093055890576,-0.31413119038983467,0.954474126546762,0.21732521504082877,-0.07209066745229493
10142,3.0,299.9981,2695.0171,0.0,0.0,0.0,0.10285147912407307,0.0,0.0,-0.17055584997255185,-0.29534445949072874,-0.35331757409472964,0.9680367324477871,0.24489619609187277,-0.07700238616629383
10143,3.0,300.94019,2853.5613,0.0,0.0,0.0,0.10286162026774534,0.0,0.0,-0.21716709736272377,-0.3019098236461797,-0.3483344708979357,0.9287622365141962,0.2199127416886978,-0.07737449314626793
10144,3.0,300.35717999999997,2739.7319,0.0,0.0,0.0,0.10287176141141759,0.0,0.0,-0.17407704605756683,-0.2977147757146607,-0.36101824445722663,0.9333926780136851,0.23830079920345779,-0.07809831848770392
10145,3.0,299.72115,2624.1949,0.0,0.0,0.0,0.10288190255508986,0.0,0.0,-0.17322195416567585,-0.2956158180000097,-0.32885194115515964,0.913334500624097,0.24174726809359778,-0.06441143746191394
10146,3.0,298.79686,2726.7637,0.0,0.0,0.0,0.10289204369876212,0.0,0.0,-0.18373332964306782,-0.2906438098918107,-0.35449094810803267,0.9215410563640212,0.25062127193939376,-0.06313612440905034
10147,3.0,299.00596,3003.1521,0.0,0.0,0.0,0.10290218484243438,0.0,0.0,-0.23018579061006877,-0.3172215727973317,-0.36547589641716266,0.9119882053487282,0.2147101178577388,-0.07095494074645743
10148,3.0,299.84598,2913.7164,0.0,0.0,0.0,0.10291232598610664,0.0,0.0,-0.21583133988839479,-0.3062173423387987,-0.3636483478742976,0.9289912816993012,0.2181335049106008,-0.08093666709182713
10149,3.0,299.79053,2611.6907,0.0,0.0,0.0,0.1029224671297789,0.0,0.0,-0.17363889644932481,-0.2918127762671787,-0.3284370861667167,0.9480138769566852,0.24295294452008875,-0.08350333193338723
10150,3.0,299.59803,2569.1456,0.0,0.0,0.0,0.10293260827345116,0.0,0.0,-0.14369296862139186,-0.29492758813458675,-0.34233555407838867,0.9543171639737712,0.24919377480101074,-0.08952463043439311
10151,3.0,300.27862000000005,2716.9572,0.0,0.0,0.0,0.10294274941712343,0.0,0.0,-0.18973665410054982,-0.28781835185545973,-0.34833213029020466,0.9426953474467871,0.2148932425483118,-0.08379599199952051
10152,3.0,300.7011,2792.8896,0.0,0.0,0.0,0.10295289056079568,0.0,0.0,-0.15377981257188586,-0.3047830158947417,-0.3904058714800596,0.9415654317302732,0.19584041190794382,-0.08364678889579533
10153,3.0,300.02156,2618.8839,0.0,0.0,0.0,0.10296303170446795,0.0,0.0,-0.15947070136103283,-0.3148413469874217,-0.3217632637205617,0.9588720271483011,0.21976295292641482,-0.07788185989534113
10154,3.0,300.02479,2663.5008,0.0,0.0,0.0,0.1029731728481402,0.0,0.0,-0.16043704811390386,-0.3085847910649477,-0.3406159166711737,0.9407585604106412,0.25900866242466475,-0.08265714043037463
10155,3.0,299.12612,2938.8419,0.0,0.0,0.0,0.10298331399181247,0.0,0.0,-0.2109608290427128,-0.3388351600179267,-0.34353857578961766,0.9375067267322101,0.23847616239826477,-0.07741414668893143
10156,3.0,298.63928,3075.0305,0.0,0.0,0.0,0.10299345513548475,0.0,0.0,-0.2115273979686288,-0.33880815690276167,-0.3843969437495246,0.913894868459401,0.2444259771179658,-0.07810764748137462
10157,3.0,298.92625,3005.8307,0.0,0.0,0.0,0.10300359627915699,0.0,0.0,-0.2109563808747738,-0.3324678659920237,-0.3702732404731236,0.936716259931697,0.25488773373796075,-0.059725416154689646
10158,3.0,298.64861,2666.4297,0.0,0.0,0.0,0.10301373742282927,0.0,0.0,-0.16284241265879484,-0.3136676791315897,-0.3340179359950037,0.9314691240238451,0.24983659079695178,-0.08838185454760993
10159,3.0,299.69466,2472.9141,0.0,0.0,0.0,0.10302387856650151,0.0,0.0,-0.17402532977246285,-0.27507394541018476,-0.3026048625522747,0.945946877150188,0.21218567616109577,-0.07104075897692703
10160,3.0,300.58123,2443.5444,0.0,0.0,0.0,0.10303401971017377,0.0,0.0,-0.17567542782531484,-0.26076187894019376,-0.30633917553082274,0.9493667076951992,0.21920753988409977,-0.08518038041239902
10161,3.0,300.12096,2516.9014,0.0,0.0,0.0,0.10304416085384605,0.0,0.0,-0.16231537061927984,-0.2822055238540167,-0.3205542942312457,0.9779445553706131,0.23644088745239877,-0.07452963137050193
10162,3.0,300.26249,2730.717,0.0,0.0,0.0,0.10305430199751829,0.0,0.0,-0.16909864434123684,-0.30290450087184667,-0.35806664691592666,0.953611455544123,0.24412459600822178,-0.07982175051654343
10163,3.0,300.30195,2835.7746,0.0,0.0,0.0,0.10306444314119056,0.0,0.0,-0.17538526339417781,-0.3177587270728447,-0.36886068877371564,0.9432519561242201,0.23233465089214478,-0.10131548342255972
10164,3.0,299.99082999999996,2960.8757,0.0,0.0,0.0,0.10307458428486281,0.0,0.0,-0.19765340004687182,-0.3165875720772607,-0.38579130760963765,0.9002527122930253,0.20947395544846983,-0.06841899764792934
10165,3.0,300.19811,3076.7466,0.0,0.0,0.0,0.10308472542853508,0.0,0.0,-0.2255712571371498,-0.3370604828652797,-0.37262241016746867,0.947064603467999,0.22507304206297976,-0.08132577336872891
10166,3.0,300.2244,3075.518,0.0,0.0,0.0,0.10309486657220736,0.0,0.0,-0.21249598400422076,-0.34068160567515665,-0.38170308663616165,0.9391996548667891,0.22709636065766578,-0.058594626003339347
10167,3.0,299.22317000000004,2742.6579,0.0,0.0,0.0,0.1031050077158796,0.0,0.0,-0.17964290991687482,-0.3123339177599577,-0.34172269988790466,0.95804692745937,0.2285140799325838,-0.07660204497228323
10168,3.0,299.08665,2524.84,0.0,0.0,0.0,0.10311514885955188,0.0,0.0,-0.14070779197177785,-0.2988417327408827,-0.32793877990003767,0.9223500757738651,0.23699082894417375,-0.06105593512600165
10169,3.0,298.31217000000004,2578.923,0.0,0.0,0.0,0.10312529000322412,0.0,0.0,-0.16771292350447684,-0.29146836242568774,-0.3247469103625247,0.9284957922679001,0.2663355144277687,-0.08156303094589443
10170,3.0,298.64081,2673.7834,0.0,0.0,0.0,0.1031354311468964,0.0,0.0,-0.15630338287344284,-0.30692976861660964,-0.34953024787094966,0.959262381749326,0.25183794212946975,-0.06871839684047773
10171,3.0,298.88128,2716.0025,0.0,0.0,0.0,0.10314557229056866,0.0,0.0,-0.1998347147296508,-0.3102460855314047,-0.3155161310240177,0.9479260889680211,0.2321958558934468,-0.09068500647541332
10172,3.0,299.66107,2725.6964,0.0,0.0,0.0,0.10315571343424092,0.0,0.0,-0.17456627360334984,-0.3031377713098687,-0.35083957978267066,0.9691537190930252,0.23905572119046278,-0.08259697769243701
10173,3.0,299.6135,2816.7549,0.0,0.0,0.0,0.10316585457791318,0.0,0.0,-0.19486882665205582,-0.3211159894241807,-0.34023834928641067,0.9223738770187141,0.23288439986640078,-0.08400726376462142
10174,3.0,300.39606000000003,2986.4731,0.0,0.0,0.0,0.10317599572158544,0.0,0.0,-0.16746880115788382,-0.34367303407788763,-0.3966714149309206,0.9519323785384112,0.24420853364650577,-0.08901999844733982
10175,3.0,300.2963,2940.8066,0.0,0.0,0.0,0.1031861368652577,0.0,0.0,-0.17901565744246983,-0.3330533320323047,-0.38186278498442267,0.913053617563876,0.22457159472099078,-0.08446791461783412
10176,3.0,300.93037000000004,2694.4754,0.0,0.0,0.0,0.10319627800892996,0.0,0.0,-0.14520267074038787,-0.3192429966143307,-0.3546075833270437,0.9429985625392121,0.23278448327403978,-0.07229980733918542
10177,3.0,300.41541,2383.8796,0.0,0.0,0.0,0.10320641915260222,0.0,0.0,-0.15949364134329685,-0.26483393857457477,-0.30031230314101676,0.949729208050975,0.24528930673316976,-0.07524151555950943
10178,3.0,300.51845,2406.2897,0.0,0.0,0.0,0.10321656029627449,0.0,0.0,-0.14976618707077186,-0.2583125697384657,-0.3233732269369527,0.9593690972498581,0.23145998300832177,-0.05904823071535664
10179,3.0,299.6482,2653.0798,0.0,0.0,0.0,0.10322670143994674,0.0,0.0,-0.17620624928770282,-0.3034894298895747,-0.3267743528851177,0.959409262483822,0.22014208071633182,-0.08545869994986702
10180,3.0,299.7144,2933.4703,0.0,0.0,0.0,0.10323684258361901,0.0,0.0,-0.1949537268779348,-0.3147074155892037,-0.3820405901119706,0.9501375073112712,0.23287678022564876,-0.06424177785191984
10181,3.0,299.13857,2966.8074,0.0,0.0,0.0,0.10324698372729126,0.0,0.0,-0.20009419794775982,-0.3391764327841077,-0.36256472755485264,0.9336255836816711,0.2584556710500887,-0.10175943084787391
10182,3.0,299.6825,2909.4615,0.0,0.0,0.0,0.10325712487096353,0.0,0.0,-0.19079982703297682,-0.3302898139745667,-0.3633139956062997,0.9175120902563931,0.2301069090897838,-0.06725384818568803
10183,3.0,299.78607999999997,2810.9051,0.0,0.0,0.0,0.10326726601463578,0.0,0.0,-0.19296493984665683,-0.3128775771011127,-0.34860244515188266,0.9167123218199622,0.24841229552888477,-0.07961077056747132
10184,3.0,299.57059,2972.5471,0.0,0.0,0.0,0.10327740715830805,0.0,0.0,-0.1999091480819968,-0.3166295206314007,-0.38704142518551465,0.9696623402457221,0.2195505250429498,-0.06677979406015254
10185,3.0,299.58951,3047.236,0.0,0.0,0.0,0.1032875483019803,0.0,0.0,-0.2069510234944758,-0.3200017284217117,-0.3993309127333926,0.958892474535319,0.2299757945268438,-0.05706139115077085
10186,3.0,300.37653,2741.2205,0.0,0.0,0.0,0.10329768944565257,0.0,0.0,-0.17367125965751884,-0.2887439355568077,-0.37084740877478967,0.968096787781214,0.2364925125449938,-0.08049597929208463
10187,3.0,299.25766,2498.2905,0.0,0.0,0.0,0.10330783058932483,0.0,0.0,-0.12474160484603788,-0.29660134557727375,-0.33807498939540365,0.9280527486616752,0.2246623413999468,-0.06068946586958394
10188,3.0,299.43972,2687.8044,0.0,0.0,0.0,0.10331797173299709,0.0,0.0,-0.17265384509960785,-0.3173778970227597,-0.3269936708692627,0.9504318463328202,0.24964667733070878,-0.06957326480409663
10189,3.0,300.5315,2952.6146,0.0,0.0,0.0,0.10332811287666935,0.0,0.0,-0.2135110174243968,-0.34035220820014767,-0.3436578758563917,0.9272130379063022,0.24894370467633076,-0.07292072396071513
10190,3.0,301.05163,2669.4628,0.0,0.0,0.0,0.10333825402034161,0.0,0.0,-0.17443175452007384,-0.3084470701113557,-0.3285711999499527,0.9431749896466242,0.23575447130465477,-0.08881243315110472
10191,3.0,300.38115,2514.524,0.0,0.0,0.0,0.10334839516401387,0.0,0.0,-0.16088355703547086,-0.2997160257221687,-0.3037529154455787,0.9217304226752101,0.2397659183180538,-0.08507982851222533
10192,3.0,299.90295,2699.915,0.0,0.0,0.0,0.10335853630768613,0.0,0.0,-0.15399063952019285,-0.32312665252511774,-0.34358943081213666,0.928860734556417,0.22440493534454278,-0.11519783255164089
10193,3.0,299.42742000000004,2953.2774,0.0,0.0,0.0,0.10336867745135839,0.0,0.0,-0.2048821289102918,-0.3133233159526037,-0.37951714140042564,0.9624718818385791,0.24377450796617076,-0.0952820634106075
10194,3.0,298.84161,2897.4387,0.0,0.0,0.0,0.10337881859503065,0.0,0.0,-0.18508289771625983,-0.3235071988651747,-0.37215890904172466,0.9523689170789941,0.23067029641038578,-0.098504315252369
10195,3.0,299.41926,2587.3286,0.0,0.0,0.0,0.1033889597387029,0.0,0.0,-0.14851525889481487,-0.27437476231118074,-0.3635932574663607,0.970950606687864,0.2420337949568758,-0.06719617905624654
10196,3.0,299.74305,2446.4504,0.0,0.0,0.0,0.10339910088237518,0.0,0.0,-0.13138404693659586,-0.2746537100637107,-0.33762205646820265,0.9594277340331451,0.2215790112131458,-0.07820299836878503
10197,3.0,300.06712000000005,2739.9606,0.0,0.0,0.0,0.10340924202604743,0.0,0.0,-0.1842691058984448,-0.3027827892698347,-0.3458277306805397,0.9710185451070691,0.24336025079528675,-0.06452247751387274
10198,3.0,299.61176,2971.8344,0.0,0.0,0.0,0.1034193831697197,0.0,0.0,-0.2134976019930728,-0.3279397526201337,-0.36192608614932364,0.962504680744316,0.2127893807031768,-0.07686403598438972
10199,3.0,300.66802,2799.7804,0.0,0.0,0.0,0.10342952431339195,0.0,0.0,-0.2128952856036288,-0.3175290638051787,-0.3206389816746037,0.9238639727482751,0.23405908097233277,-0.059962321120820346
10200,3.0,300.01849,2587.0294,0.0,0.0,0.0,0.10343966545706423,0.0,0.0,-0.17377239214999984,-0.3101473544416607,-0.3024725928842207,0.9159116110609381,0.22780326472243176,-0.08455218460215091
10201,3.0,300.06666,2838.8881,0.0,0.0,0.0,0.10344980660073648,0.0,0.0,-0.2031737892416918,-0.3058897585814687,-0.3538875475409817,0.9356562179420792,0.24816834543480876,-0.06331399742435503
10202,3.0,300.27969,3090.7375,0.0,0.0,0.0,0.10345994774440874,0.0,0.0,-0.21001788836715182,-0.33687256550173367,-0.39261656028323766,0.9605200987009531,0.25401895283721876,-0.07662848877339302
10203,3.0,299.94957999999997,2899.5698,0.0,0.0,0.0,0.103470088888081,0.0,0.0,-0.20271486800639982,-0.2881585100465307,-0.39052342875666163,0.96209030198342,0.25869213322592577,-0.06186214074031794
10204,3.0,298.63565,2589.4798,0.0,0.0,0.0,0.10348023003175326,0.0,0.0,-0.14007871564719288,-0.28608796386468377,-0.36097052037751665,0.9433468165985821,0.23643876975968978,-0.1011313343361356
10205,3.0,299.98956,2610.4641,0.0,0.0,0.0,0.10349037117542552,0.0,0.0,-0.17863440182734283,-0.28635247280328874,-0.3285290386132917,0.9320879361249171,0.24148551519526476,-0.10085794628690431
10206,3.0,298.67336,2675.1641,0.0,0.0,0.0,0.10350051231909779,0.0,0.0,-0.16594481221247784,-0.2914281161317157,-0.35581015920822867,0.9291675162891941,0.20586042188184178,-0.08523837479512261
10207,3.0,298.26004,2802.2197,0.0,0.0,0.0,0.10351065346277004,0.0,0.0,-0.18188740074338883,-0.33548770592755867,-0.3344297107031427,0.9341402742024671,0.22772110027182277,-0.07226737826973492
10208,3.0,299.01822999999996,2826.3743,0.0,0.0,0.0,0.10352079460644231,0.0,0.0,-0.17588225243572683,-0.31909989530270766,-0.36416506489529366,0.9300690758306711,0.2281680752884358,-0.05488007342824154
10209,3.0,300.04117,2758.3697,0.0,0.0,0.0,0.10353093575011456,0.0,0.0,-0.17081401596553084,-0.34058992680610867,-0.32707158980195267,0.950793850196047,0.25378616875924476,-0.08035843160425972
10210,3.0,299.72745,2874.8763,0.0,0.0,0.0,0.10354107689378683,0.0,0.0,-0.18419140988077684,-0.3444823068002567,-0.34521690299025565,0.9315048714873732,0.24064443655225676,-0.08012748150896673
10211,3.0,301.07541000000003,3002.7815,0.0,0.0,0.0,0.10355121803745909,0.0,0.0,-0.22715662877361376,-0.3134967438397197,-0.37211722393261065,0.9473319697718862,0.22734261082946877,-0.07530105413538543
10212,3.0,299.52882999999997,2875.2582,0.0,0.0,0.0,0.10356135918113135,0.0,0.0,-0.17649779173897584,-0.33901944994611466,-0.35848945591765463,0.9440892553443552,0.2233874498591248,-0.09000256834756191
10213,3.0,299.72843,2653.4734,0.0,0.0,0.0,0.10357150032480361,0.0,0.0,-0.15698437813315186,-0.2838448611908067,-0.36576041704524265,0.9446449723617001,0.23944844679672178,-0.08637216315351882
10214,3.0,300.46882999999997,2598.5218,0.0,0.0,0.0,0.10358164146847587,0.0,0.0,-0.15625881000154385,-0.28182558546401976,-0.35180133651258866,0.9750834815932471,0.23439711133819377,-0.07971283525004433
10215,3.0,300.41787,2583.758,0.0,0.0,0.0,0.10359178261214813,0.0,0.0,-0.15330524675504986,-0.2844999577779597,-0.34759271102972966,0.940017955647549,0.25014245047213773,-0.059860220974493845
10216,3.0,298.60596,2701.1832,0.0,0.0,0.0,0.1036019237558204,0.0,0.0,-0.18420583856220082,-0.2785653316772578,-0.35832108414853764,0.969637931050813,0.24797535168826176,-0.08325708581458463
10217,3.0,298.57094,2933.2871,0.0,0.0,0.0,0.10361206489949265,0.0,0.0,-0.22571105525344679,-0.31708505761135874,-0.34884991122380565,0.9341894269648182,0.2409866719060328,-0.08124022770253622
10218,3.0,299.12275,2841.9846,0.0,0.0,0.0,0.10362220604316492,0.0,0.0,-0.1960246106436228,-0.32491332655894867,-0.3429544067094647,0.9422910505243861,0.23953411709267675,-0.09542904749661373
10219,3.0,300.55827,2855.0671,0.0,0.0,0.0,0.10363234718683717,0.0,0.0,-0.2171653343075498,-0.3049643066026337,-0.3457394563318277,0.9506813693024461,0.2294604453934828,-0.07104564385565913
10220,3.0,299.87,2968.8811,0.0,0.0,0.0,0.10364248833050944,0.0,0.0,-0.2020130707221378,-0.3515097433988107,-0.34894289718548266,0.96385153330724,0.26264014065056374,-0.08238573429833893
10221,3.0,299.88527999999997,2904.757,0.0,0.0,0.0,0.1036526294741817,0.0,0.0,-0.1938943333683808,-0.3256692516635527,-0.36341001118577565,0.943518228117999,0.26055286570956576,-0.05995263850286474
10222,3.0,299.78744,2667.5339,0.0,0.0,0.0,0.10366277061785396,0.0,0.0,-0.15707621912221587,-0.3069452814756407,-0.3468422068131607,0.9134617141741522,0.2225717531311218,-0.08596794121162522
10223,3.0,300.54526,2597.6023,0.0,0.0,0.0,0.10367291176152622,0.0,0.0,-0.14895755269596586,-0.2916304621766857,-0.3490182323304177,0.9168773701287511,0.2207042318718118,-0.06915656671372172
10224,3.0,299.66161,2754.2706,0.0,0.0,0.0,0.10368305290519848,0.0,0.0,-0.15445144540067085,-0.29356409800502076,-0.3892139347249246,0.9353135772882631,0.2227731771185008,-0.08095623700425852
10225,3.0,299.91925,2826.677,0.0,0.0,0.0,0.10369319404887074,0.0,0.0,-0.17305033999623884,-0.32648597177415667,-0.3597029242374147,0.964788374217199,0.24973065549899676,-0.09773653410834492
10226,3.0,299.95748,2731.8833,0.0,0.0,0.0,0.10370333519254302,0.0,0.0,-0.17644773718403584,-0.29988538034388273,-0.35409120067858063,0.960400960754195,0.24441346347923076,-0.08547970259793983
10227,3.0,299.33455,2648.053,0.0,0.0,0.0,0.10371347633621526,0.0,0.0,-0.17496164379236984,-0.2928043326825377,-0.3371760136416817,0.956848120868557,0.2214368218266128,-0.07797175544421313
10228,3.0,300.8791,2774.5449,0.0,0.0,0.0,0.10372361747988754,0.0,0.0,-0.1951403168838498,-0.31269687407827873,-0.33555516811921665,0.9279116535852502,0.2385659160921228,-0.09322917007200272
10229,3.0,301.31392999999997,3049.7946,0.0,0.0,0.0,0.10373375862355978,0.0,0.0,-0.2145325457777138,-0.33887299477666066,-0.37365586447446264,0.9167706343632172,0.23646611737988876,-0.07905930920054632
10230,3.0,299.83799,3057.0491,0.0,0.0,0.0,0.10374389976723206,0.0,0.0,-0.21780382372556378,-0.35905576139854467,-0.35240701689236464,0.9377038342741632,0.22512300542541078,-0.09472075629246081
10231,3.0,300.70416,2777.7017,0.0,0.0,0.0,0.10375404091090433,0.0,0.0,-0.1948617845638608,-0.3020502702425407,-0.34743990278214865,0.9327370241389772,0.2092995649737588,-0.05255704457322644
10232,3.0,299.48238,2594.1259,0.0,0.0,0.0,0.10376418205457658,0.0,0.0,-0.14233757436012487,-0.29510949692503974,-0.35110243712361267,0.960467835260795,0.2354382156834428,-0.07626750525301673
10233,3.0,298.73115,2895.1044,0.0,0.0,0.0,0.10377432319824885,0.0,0.0,-0.1986348746237358,-0.3260868322947647,-0.3553177297921296,0.95247222805919,0.24349568180365277,-0.05914784333268765
10234,3.0,300.07262000000003,2972.7219,0.0,0.0,0.0,0.1037844643419211,0.0,0.0,-0.21014511204970782,-0.2945435663466867,-0.3989445402052606,0.939099120191867,0.26878316189933277,-0.06194850916559184
10235,3.0,299.90279,2601.9515,0.0,0.0,0.0,0.10379460548559337,0.0,0.0,-0.16611549419182284,-0.2937339795167867,-0.3310788216949357,0.954045521754462,0.24881908504653177,-0.07346335991926913
10236,3.0,298.89337,2433.9568,0.0,0.0,0.0,0.10380474662926563,0.0,0.0,-0.13426812149123188,-0.2828102821762017,-0.3227836876312697,0.938258710293925,0.2494153725978808,-0.1128983729072019
10237,3.0,300.35892,2848.1647,0.0,0.0,0.0,0.10381488777293789,0.0,0.0,-0.19274860081780582,-0.3117182568666967,-0.36130409244293765,0.9624801398268942,0.25676352311808676,-0.10681429241674989
10238,3.0,300.57718,2935.2601,0.0,0.0,0.0,0.10382502891661015,0.0,0.0,-0.17692813932144782,-0.35341669021951166,-0.36190094741434264,0.9322524879411571,0.2285063792318238,-0.10355274166985991
10239,3.0,300.75786,2721.2019,0.0,0.0,0.0,0.1038351700602824,0.0,0.0,-0.20144566079863882,-0.28346534836585174,-0.3422664402890677,0.9562284272398981,0.2185093903001978,-0.08237849867937483
10240,3.0,300.37289,2680.1152,0.0,0.0,0.0,0.10384531120395467,0.0,0.0,-0.17722202238045184,-0.3010777629290617,-0.3363883130139417,0.9321615588771831,0.2089910607158118,-0.07266781166950463
10241,3.0,299.62895,2733.7288,0.0,0.0,0.0,0.10385545234762694,0.0,0.0,-0.16552177016322683,-0.3214498755971327,-0.3440136583640047,0.9444075678632702,0.23025776176467178,-0.08248774021240612
10242,3.0,300.35486000000003,3028.4689,0.0,0.0,0.0,0.10386559349129919,0.0,0.0,-0.1980844670369148,-0.3284497112629627,-0.39404475656418964,0.951529550828655,0.24827544597037873,-0.05316171372940265
10243,3.0,299.35495,3115.6543,0.0,0.0,0.0,0.10387573463497146,0.0,0.0,-0.20362819138153782,-0.35314298096999863,-0.39030994709309264,0.9442080183885762,0.2363850371068868,-0.06922517995749333
10244,3.0,300.20732999999996,2762.8321,0.0,0.0,0.0,0.10388587577864371,0.0,0.0,-0.16333278517719085,-0.29923191508939073,-0.37726727021588063,0.9492626367774281,0.2516265680261088,-0.07996739812566772
10245,3.0,300.42321,2661.9642,0.0,0.0,0.0,0.10389601692231598,0.0,0.0,-0.18698111032109882,-0.2914057435695077,-0.3307837936633187,0.922578117841371,0.24663916864889074,-0.08111417939009623
10246,3.0,300.18852999999996,2844.3749,0.0,0.0,0.0,0.10390615806598824,0.0,0.0,-0.16747634987112886,-0.3288989863573027,-0.3682435890653127,0.9282157400727611,0.26924262015717776,-0.08438695593484412
10247,3.0,301.30463,2919.9271,0.0,0.0,0.0,0.1039162992096605,0.0,0.0,-0.21651755338611878,-0.3038505826227177,-0.36721677154647364,0.9287465919326521,0.23523892965377477,-0.06820727194678364
10248,3.0,301.9795,2899.8242,0.0,0.0,0.0,0.10392644035333276,0.0,0.0,-0.17874448131820683,-0.32643534979916067,-0.37629430693985666,0.9544978467316032,0.2290702427799728,-0.08271090854693113
10249,3.0,300.31469,2891.0429999999997,0.0,0.0,0.0,0.10393658149700502,0.0,0.0,-0.21440421765254877,-0.31712460476276166,-0.3472760703734797,0.9622872372728561,0.22770146348488476,-0.07765632156883223
10250,3.0,300.1033,2942.8237,0.0,0.0,0.0,0.10394672264067728,0.0,0.0,-0.18117980766855482,-0.3227400672144647,-0.39062504760919065,0.952012242911293,0.23215340071425675,-0.06317851676673414
10251,3.0,299.85969,2968.1108,0.0,0.0,0.0,0.10395686378434955,0.0,0.0,-0.22268069778187377,-0.32476892828719767,-0.35478193327175067,0.9273938017241422,0.22101819754779778,-0.05295547376429836
10252,3.0,298.83589,2968.1827,0.0,0.0,0.0,0.1039670049280218,0.0,0.0,-0.1903894607424768,-0.3090984582031427,-0.4027655164648616,0.9134781592232751,0.22501320964457477,-0.053107065098509244
10253,3.0,299.84795,2846.7792,0.0,0.0,0.0,0.10397714607169407,0.0,0.0,-0.18550624374054084,-0.3273852312379067,-0.35245830761242664,0.9352779514147471,0.26473498456980876,-0.07000680919063414
10254,3.0,299.69998,2599.6995,0.0,0.0,0.0,0.10398728721536632,0.0,0.0,-0.12663390007029288,-0.3202200736857607,-0.3433897597474307,0.940484597848603,0.26292631287630674,-0.08760088088728382
10255,3.0,299.86367,2717.5176,0.0,0.0,0.0,0.1039974283590386,0.0,0.0,-0.16049432714205686,-0.31590655655254973,-0.34965660015841965,0.952130691847983,0.25677819497953475,-0.1135850626324729
10256,3.0,299.6293,3008.1061,0.0,0.0,0.0,0.10400756950271085,0.0,0.0,-0.2133775723862268,-0.3394631521649047,-0.3615484073070496,0.9443201851746461,0.22452637336902778,-0.11608924945961689
10257,3.0,300.68796000000003,2880.1025,0.0,0.0,0.0,0.10401771064638311,0.0,0.0,-0.22203923954106677,-0.3013751518334117,-0.35206485246609565,0.9708222886952,0.21452830025979477,-0.1083160506549619
10258,3.0,300.49339,2588.8835,0.0,0.0,0.0,0.10402785179005537,0.0,0.0,-0.16795259768313084,-0.2803276877086887,-0.33867565418718465,0.9692704759020482,0.23396169750522178,-0.093806634476244
10259,3.0,300.25505,2838.1651,0.0,0.0,0.0,0.10403799293372763,0.0,0.0,-0.17936050698150383,-0.3124916200055217,-0.37087920456292767,0.9480493204451832,0.2015705033434598,-0.057209724885910244
10260,3.0,300.27017,3076.7501,0.0,0.0,0.0,0.10404813407739989,0.0,0.0,-0.20841693294414979,-0.2938155157523337,-0.4330227451210176,0.932662327341605,0.21200280478304778,-0.05100672835047215
10261,3.0,301.03441000000004,3052.7653,0.0,0.0,0.0,0.10405827522107217,0.0,0.0,-0.2128332949625108,-0.34507990144423467,-0.37005122724371264,0.9331394060186892,0.2202282475048358,-0.06422789632554984
10262,3.0,300.78871000000004,2786.0771,0.0,0.0,0.0,0.10406841636474441,0.0,0.0,-0.18662958346390582,-0.30180985639131375,-0.3584584403320937,0.9431980512189001,0.22830419530686977,-0.06492638534823535
10263,3.0,299.46024,2636.3124,0.0,0.0,0.0,0.10407855750841669,0.0,0.0,-0.17463112160974983,-0.3084910046356917,-0.3182510247664307,0.9520380402588391,0.22765272615507479,-0.051334056768776955
10264,3.0,300.04323999999997,2715.6595,0.0,0.0,0.0,0.10408869865208893,0.0,0.0,-0.17703974881996284,-0.3083428472060697,-0.3401100718237507,0.9266765017133501,0.23665980013650378,-0.08035760783192843
10265,3.0,299.82185,3041.489,0.0,0.0,0.0,0.1040988397957612,0.0,0.0,-0.21250885228049082,-0.32762288904886167,-0.38440497882281766,0.9690447744422731,0.24780273440122577,-0.08537750011335322
10266,3.0,299.24574,3052.4228,0.0,0.0,0.0,0.10410898093943347,0.0,0.0,-0.2050743120567588,-0.3408331068301087,-0.3819528933158156,0.963160010378992,0.26284169636045573,-0.0976093266377905
10267,3.0,300.50185,2560.0967,0.0,0.0,0.0,0.10411912208310573,0.0,0.0,-0.15864058608410683,-0.28760824431472376,-0.3319566509190707,0.9664766616663202,0.25038200306077973,-0.10681990582230388
10268,3.0,299.675,2517.0244,0.0,0.0,0.0,0.10412926322677798,0.0,0.0,-0.17949618116989383,-0.2816444264786407,-0.3039719699846977,0.9464755505223642,0.22494646686048778,-0.10347138781933089
10269,3.0,299.65685,2960.1576,0.0,0.0,0.0,0.10413940437045024,0.0,0.0,-0.2118035390183818,-0.31308597224917967,-0.37492448399716566,0.9495518487534711,0.2514676600129258,-0.07441683231636953
10270,3.0,300.45899,2985.5101,0.0,0.0,0.0,0.1041495455141225,0.0,0.0,-0.22153234091353977,-0.30583204385577273,-0.38015614757599064,0.9362287650435851,0.2331267591578198,-0.05590000591265105
10271,3.0,301.35731,2691.6457,0.0,0.0,0.0,0.10415968665779478,0.0,0.0,-0.14576228877061786,-0.3319915776500177,-0.34043921598623467,0.9291357711635612,0.24238616281165176,-0.07626675443469264
10272,3.0,300.10667,2683.8097,0.0,0.0,0.0,0.10416982780146702,0.0,0.0,-0.15351549615079985,-0.3182490691937377,-0.34404655859475164,0.9321598667495161,0.24875043735225677,-0.06755280965419323
10273,3.0,300.12264,2936.123,0.0,0.0,0.0,0.1041799689451393,0.0,0.0,-0.2037500651035658,-0.3343505657378317,-0.3544074259022897,0.962225591136772,0.24866783720410476,-0.08147625722058051
10274,3.0,299.70649,2925.7309,0.0,0.0,0.0,0.10419011008881154,0.0,0.0,-0.2061032270033048,-0.3192446988744987,-0.3640012020891217,0.973177679745159,0.24744294955571777,-0.07522397924002873
10275,3.0,299.80412,2802.6527,0.0,0.0,0.0,0.10420025123248382,0.0,0.0,-0.18400894380276883,-0.3134884453214007,-0.35443906970291267,0.9692430573543421,0.23069134161496277,-0.0884440954615026
10276,3.0,300.12857,2671.4495,0.0,0.0,0.0,0.10421039237615609,0.0,0.0,-0.15425981954175885,-0.2828172330718877,-0.37497688929233763,0.9611438250650101,0.2051695069036538,-0.07649633562910052
10277,3.0,300.38967,2692.7497,0.0,0.0,0.0,0.10422053351982834,0.0,0.0,-0.16272411570961987,-0.3079132190311687,-0.3478913360992017,0.956942150477837,0.2332955767569808,-0.11195049770365388
10278,3.0,299.50723,2927.4661,0.0,0.0,0.0,0.10423067466350061,0.0,0.0,-0.18207130563653884,-0.3034254330132587,-0.4043798467891836,0.979393351026098,0.25588920987179875,-0.08811375059765011
10279,3.0,298.66373,3066.9770000000003,0.0,0.0,0.0,0.10424081580717286,0.0,0.0,-0.23336686903401677,-0.3347852804282347,-0.3641322862545586,0.963338838889141,0.24194003892512275,-0.08323568698572271
10280,3.0,298.7644,2721.3956,0.0,0.0,0.0,0.10425095695084513,0.0,0.0,-0.18600556325731984,-0.2895952074958217,-0.35163554853122664,0.9493509415236432,0.23380458294471576,-0.053558722343834346
10281,3.0,297.36638,2499.5053,0.0,0.0,0.0,0.10426109809451739,0.0,0.0,-0.17754835984015885,-0.27087203777548874,-0.3113668110695117,0.9522894580061521,0.22995238844953378,-0.06973289627785104
10282,3.0,298.40626000000003,2896.1748,0.0,0.0,0.0,0.10427123923818964,0.0,0.0,-0.1931368478586228,-0.3270690262791997,-0.3601589475774207,0.932371200322873,0.23316002415860276,-0.04217660330025666
10283,3.0,297.96281,2969.798,0.0,0.0,0.0,0.10428138038186191,0.0,0.0,-0.2065003805125008,-0.2998091434063587,-0.3964349122250796,0.958343840136173,0.23199477641110178,-0.06855744206209273
10284,3.0,299.08126,2903.3958,0.0,0.0,0.0,0.10429152152553416,0.0,0.0,-0.15789606004312784,-0.34564667302017066,-0.3790171126085766,0.9470324327773241,0.2205443410060318,-0.08801191896260012
10285,3.0,299.33394,2719.6054,0.0,0.0,0.0,0.10430166266920643,0.0,0.0,-0.18963861202087381,-0.29145617302698473,-0.3455973480053027,0.966234261844897,0.25613817555386975,-0.1025391369323249
10286,3.0,299.06467999999995,2772.2287,0.0,0.0,0.0,0.10431180381287868,0.0,0.0,-0.17634204506610482,-0.30902532181092474,-0.3573209353723307,0.967539419166206,0.24566088580984174,-0.08749063319690323
10287,3.0,299.87179,2805.5495,0.0,0.0,0.0,0.10432194495655095,0.0,0.0,-0.17893294583680683,-0.3300710127479727,-0.3438130449767057,0.952400925649653,0.23688283674851576,-0.12010010878795789
10288,3.0,300.4853,2988.6734,0.0,0.0,0.0,0.1043320861002232,0.0,0.0,-0.18490829445902784,-0.3090830264041197,-0.4144907655620536,0.9636612246734582,0.20589018103727882,-0.07075791426451243
10289,3.0,299.36242000000004,2902.3174,0.0,0.0,0.0,0.10434222724389547,0.0,0.0,-0.1936782780495578,-0.34423677603602465,-0.3443169545164377,0.954833242647204,0.2376558351173048,-0.11336434636318989
10290,3.0,300.23433,2524.1152,0.0,0.0,0.0,0.10435236838756774,0.0,0.0,-0.15552601739672284,-0.28052676095583573,-0.3312152254233977,0.9611542210110361,0.25023795942656374,-0.06931112585747554
10291,3.0,301.09139,2739.6682,0.0,0.0,0.0,0.10436250953123999,0.0,0.0,-0.19150354949242882,-0.32315373670029074,-0.3181334472248267,0.9415561604918582,0.23424154705034075,-0.07492846991461422
10292,3.0,300.30891,3161.2591,0.0,0.0,0.0,0.10437265067491226,0.0,0.0,-0.2308801607710978,-0.35412824510223667,-0.3759354238869376,0.925275967160128,0.2038776839536608,-0.05471924226636875
10293,3.0,300.69858999999997,3186.6229,0.0,0.0,0.0,0.10438279181858451,0.0,0.0,-0.22779656713927077,-0.35881590483487263,-0.38204131965204263,0.9367842287484051,0.24104875373965975,-0.07644885574266463
10294,3.0,299.58207999999996,2852.2703,0.0,0.0,0.0,0.10439293296225678,0.0,0.0,-0.17358040152105184,-0.32133645238093866,-0.3721021163736197,0.9618462910943381,0.2143163384713758,-0.05618291040682154
10295,3.0,299.44822,2739.7155,0.0,0.0,0.0,0.10440307410592903,0.0,0.0,-0.16304313750360486,-0.3158072276452467,-0.35395474628761364,0.9712649675313891,0.24671958017682674,-0.07090611830363903
10296,3.0,298.26522,2948.9459,0.0,0.0,0.0,0.1044132152496013,0.0,0.0,-0.18997481853655482,-0.3309851771206937,-0.37544592276362765,0.961699440757345,0.23489032095686976,-0.08279636302061481
10297,3.0,299.1414,2987.7721,0.0,0.0,0.0,0.10442335639327355,0.0,0.0,-0.2043385607616458,-0.3336116429699057,-0.37025792013161163,0.9678027527346951,0.2687575975993097,-0.08016614105328213
10298,3.0,299.77583,2893.8703,0.0,0.0,0.0,0.10443349753694582,0.0,0.0,-0.21401387318402482,-0.3349509366870837,-0.33069952165250166,0.964406713302032,0.26947447204505975,-0.0983234561890196
10299,3.0,300.2165,2611.5991,0.0,0.0,0.0,0.10444363868061807,0.0,0.0,-0.17094717729367281,-0.27584731868151074,-0.34706640866278765,0.9524783379572931,0.25275241047722075,-0.04399710772842646
10300,3.0,299.07131,2589.5523,0.0,0.0,0.0,0.10445377982429034,0.0,0.0,-0.16602835468322286,-0.3250830763482017,-0.2960478171801447,0.9508009024167431,0.2552718365858687,-0.1020017597417899
10301,3.0,300.35315,3229.8514,0.0,0.0,0.0,0.1044639209679626,0.0,0.0,-0.21339684440312878,-0.36827013621793264,-0.4001271854569786,0.9554963236451451,0.25735884808184073,-0.02823148332748047
10302,3.0,300.4097,3273.1786,0.0,0.0,0.0,0.10447406211163485,0.0,0.0,-0.2576165277147717,-0.3523592826801537,-0.38498875273543165,0.9444391306038851,0.23068107739144977,-0.10009328595318821
10303,3.0,300.69622000000004,2803.7919,0.0,0.0,0.0,0.10448420325530712,0.0,0.0,-0.18987274372148083,-0.3310925005712857,-0.3313174826234897,0.9345903092343821,0.22163211565088678,-0.047205377732058046
10304,3.0,300.04122,2583.8096,0.0,0.0,0.0,0.10449434439897937,0.0,0.0,-0.16924846350102285,-0.2898551466764757,-0.32630999049678866,0.9597389436688591,0.2214692559623138,-0.10491675868947789
10305,3.0,299.77083999999996,2949.2698,0.0,0.0,0.0,0.10450448554265164,0.0,0.0,-0.17895053585854281,-0.3443737167870397,-0.37318013342001166,0.9645244630961531,0.24497082196173778,-0.060418785224619846
10306,3.0,299.11148,2909.2273,0.0,0.0,0.0,0.10451462668632391,0.0,0.0,-0.19461898957489882,-0.3101836287952407,-0.3795298475566796,0.9600032803549471,0.23807132845331075,-0.1015478439619919
10307,3.0,298.64195,2780.8147,0.0,0.0,0.0,0.10452476782999616,0.0,0.0,-0.15856357907650684,-0.3123018179967897,-0.37443282465114264,0.975248377914521,0.24995832266396575,-0.09406326843507182
10308,3.0,299.73446,2550.9377,0.0,0.0,0.0,0.10453490897366843,0.0,0.0,-0.15999694293296884,-0.3002810342429307,-0.3151433968422317,0.9550651451975911,0.2345610957343778,-0.12113501204259487
10309,3.0,300.61065,2748.4362,0.0,0.0,0.0,0.10454505011734068,0.0,0.0,-0.17941225366411084,-0.3155296072503477,-0.34051412556612765,0.9521113286385721,0.26440600252734076,-0.08380450634011082
10310,3.0,300.7885,3088.687,0.0,0.0,0.0,0.10455519126101295,0.0,0.0,-0.22599238414371178,-0.3495927451371177,-0.36329858407227866,0.9218388809659142,0.2177768307428998,-0.09002232875101211
10311,3.0,300.45895,3323.7179,0.0,0.0,0.0,0.10456533240468521,0.0,0.0,-0.2582065939105067,-0.33998014276342764,-0.41214051169010163,0.922618617447868,0.2517940380026368,-0.03769779265173246
10312,3.0,299.88737000000003,2928.4363,0.0,0.0,0.0,0.10457547354835747,0.0,0.0,-0.1996241410938688,-0.3129309551163807,-0.3776164159353386,0.9461907664492581,0.25840366092245576,-0.05230666034101545
10313,3.0,299.96564,2551.545,0.0,0.0,0.0,0.10458561469202973,0.0,0.0,-0.12580403810589186,-0.3054726035152987,-0.34432932630015867,0.9452670876580981,0.26159806358521875,-0.06517764198878244
10314,3.0,301.64797999999996,2998.8179,0.0,0.0,0.0,0.10459575583570199,0.0,0.0,-0.2032089692851638,-0.34160744268902965,-0.36674935927534363,0.9552503673158711,0.2148576572047998,-0.1117192335008299
10315,3.0,300.39894,3145.5624,0.0,0.0,0.0,0.10460589697937425,0.0,0.0,-0.2374594773804258,-0.3146008216786837,-0.4041121157152606,0.9701216769135551,0.2223744834691528,-0.08404941800853172
10316,3.0,299.56288,2667.8908,0.0,0.0,0.0,0.10461603812304653,0.0,0.0,-0.15768789794258384,-0.3114472428624497,-0.3418370654266917,1.001084836914381,0.2041853370815238,-0.1082788035812859
10317,3.0,299.68164,2379.5243,0.0,0.0,0.0,0.10462617926671877,0.0,0.0,-0.13297504211111488,-0.2664428784083647,-0.3238980600912497,0.975830510361973,0.23965679128228376,-0.054658356067859744
10318,3.0,300.7036,2713.8834,0.0,0.0,0.0,0.10463632041039105,0.0,0.0,-0.15748566335512484,-0.2929829180126627,-0.37448418629871166,0.952617041763482,0.23437426254843877,-0.0914268555096281
10319,3.0,300.17822,2958.2206,0.0,0.0,0.0,0.10464646155406329,0.0,0.0,-0.20775006239083482,-0.3260637504574867,-0.3654113929157966,0.937054401755069,0.26059750950897176,-0.06938111914788334
10320,3.0,299.72979,3165.7406,0.0,0.0,0.0,0.10465660269773557,0.0,0.0,-0.24115560096270477,-0.3477351435962867,-0.3734153594307267,0.9495327185915832,0.25933888063225474,-0.08346662086901413
10321,3.0,300.0001,3007.8438,0.0,0.0,0.0,0.10466674384140782,0.0,0.0,-0.22656212454244076,-0.3314752963265647,-0.35627198847130764,0.9571644778147792,0.23726829735155777,-0.08914637099981182
10322,3.0,299.80062000000004,2674.8136,0.0,0.0,0.0,0.10467688498508008,0.0,0.0,-0.17201688568924484,-0.30998843629597667,-0.3310712121866847,0.944799726049473,0.2206004547965698,-0.08068946446493012
10323,3.0,298.97716,2635.8081,0.0,0.0,0.0,0.10468702612875234,0.0,0.0,-0.16666171705573085,-0.2961459099223257,-0.33841222942618665,0.9621813526374061,0.2303384975326398,-0.08455766020569132
10324,3.0,299.98548999999997,2934.0114,0.0,0.0,0.0,0.1046971672724246,0.0,0.0,-0.17190724189592382,-0.31406162063796866,-0.4058973205364466,0.9712531226377201,0.23932641095467777,-0.06822871333214973
10325,3.0,300.72654,2655.5835,0.0,0.0,0.0,0.10470730841609686,0.0,0.0,-0.15738560490774986,-0.29020274212328073,-0.35964273718147466,0.967697607771818,0.26567292992237673,-0.0907839837849316
10326,3.0,300.52844,2221.1007,0.0,0.0,0.0,0.10471744955976914,0.0,0.0,-0.1270524838191039,-0.27132260982995676,-0.27678406839896075,0.930193361087937,0.24064652384746274,-0.10593781081524789
10327,3.0,300.67167,2678.4136,0.0,0.0,0.0,0.10472759070344138,0.0,0.0,-0.18573606912822282,-0.2824353289766967,-0.3459994461749867,0.9429379093882262,0.24015938359688577,-0.1006669689080563
10328,3.0,301.00003,3230.0922,0.0,0.0,0.0,0.10473773184711366,0.0,0.0,-0.25879536314611373,-0.3359223294254527,-0.3871496909586996,0.97916346484341,0.2512666210605848,-0.06946657767456745
10329,3.0,300.13296,3218.5769,0.0,0.0,0.0,0.1047478729907859,0.0,0.0,-0.2363386099873048,-0.33967543819335566,-0.4023529514216446,0.997056529419318,0.25249408236422577,-0.04970113938462055
10330,3.0,300.64656,3051.1671,0.0,0.0,0.0,0.10475801413445818,0.0,0.0,-0.17921510559215384,-0.3368203729890827,-0.4114431321762756,0.9646106197521561,0.23022417252385677,-0.07336324472988853
10331,3.0,300.49177000000003,2980.8445,0.0,0.0,0.0,0.10476815527813044,0.0,0.0,-0.21048290936804578,-0.3209129746341447,-0.37470640217814266,0.9469258186018021,0.24516925686132177,-0.04667768721247905
10332,3.0,299.82977,3029.3385,0.0,0.0,0.0,0.1047782964218027,0.0,0.0,-0.2159118628738418,-0.3491256571060197,-0.3558057414377927,0.9582617668780731,0.2541809411307058,-0.10173340045280489
10333,3.0,299.17287999999996,2972.5086,0.0,0.0,0.0,0.10478843756547496,0.0,0.0,-0.20322903163714381,-0.3271382819235347,-0.3732010671670777,0.9727574646636871,0.27151206733365474,-0.05920010069334504
10334,3.0,299.70741,2678.1754,0.0,0.0,0.0,0.10479857870914722,0.0,0.0,-0.18697377439037483,-0.30267506051920273,-0.3244496126506837,0.9428209296641811,0.23594609716356676,-0.10725915987315489
10335,3.0,299.03424,2255.4678,0.0,0.0,0.0,0.10480871985281948,0.0,0.0,-0.1110771977074659,-0.26531530329958175,-0.3092133810294847,0.9514122164670751,0.23648996928724275,-0.049784230959071044
10336,3.0,298.60087999999996,2336.1267,0.0,0.0,0.0,0.10481886099649175,0.0,0.0,-0.09641821466823691,-0.3051701584929497,-0.3085358206876147,0.9451768273391901,0.25690300712685277,-0.11960353517894988
10337,3.0,298.34757,3064.7321,0.0,0.0,0.0,0.104829002140164,0.0,0.0,-0.2015034464518418,-0.3383006604576757,-0.39179794539494667,0.9681085313498731,0.25647796897490477,-0.06565103040900223
10338,3.0,298.89347000000004,3211.613,0.0,0.0,0.0,0.10483914328383627,0.0,0.0,-0.23637609010850374,-0.35399010871610365,-0.3858839693312826,0.9655842112432421,0.2142489877372288,-0.11976993111037189
10339,3.0,299.81006,2881.3534,0.0,0.0,0.0,0.10484928442750852,0.0,0.0,-0.1897306049974528,-0.3394017694738467,-0.34672711173430165,0.967929682574722,0.22892731372086678,-0.0991652745046006
10340,3.0,300.40336,2754.4125,0.0,0.0,0.0,0.10485942557118079,0.0,0.0,-0.21957646424550978,-0.28336810675375473,-0.33432806145311067,0.9628538365962751,0.24940219021407975,-0.08132796502869523
10341,3.0,300.37475,3083.1439,0.0,0.0,0.0,0.10486956671485306,0.0,0.0,-0.2152908216225498,-0.32079891307038766,-0.4011090146713776,0.9702782848490111,0.23363744734072076,-0.052890154596601846
10342,3.0,299.42836,3135.2059,0.0,0.0,0.0,0.10487970785852531,0.0,0.0,-0.19014004923036182,-0.3424885649759897,-0.4203956933023246,0.9460209659975001,0.2228128559924168,-0.07561751240661743
10343,3.0,299.92939,2966.1479,0.0,0.0,0.0,0.10488984900219757,0.0,0.0,-0.18838292156944683,-0.3136350322133677,-0.3996169329716206,0.932672905672649,0.2369485460175008,-0.03149419120598467
10344,3.0,300.97719,2582.6641,0.0,0.0,0.0,0.10489999014586983,0.0,0.0,-0.15339032936594688,-0.31456405083255473,-0.31711102721142165,0.9337929219356861,0.2832043554050937,-0.07614181056486163
10345,3.0,300.41842,2514.1608,0.0,0.0,0.0,0.10491013128954209,0.0,0.0,-0.15716335863081585,-0.2973622964023737,-0.30971643943913274,0.941235254052687,0.24551786555822677,-0.06357800480416054
10346,3.0,298.58297999999996,2919.6029,0.0,0.0,0.0,0.10492027243321436,0.0,0.0,-0.2317507148595148,-0.3015830606214307,-0.3541526036346407,0.9419415602998941,0.22610784399260678,-0.09117909964817651
10347,3.0,299.78102,3287.5804,0.0,0.0,0.0,0.10493041357688661,0.0,0.0,-0.21960691241101482,-0.3550799503911627,-0.4246554879152336,0.948939085755496,0.23477423289291277,-0.06224984670558154
10348,3.0,299.89018,2872.0089,0.0,0.0,0.0,0.10494055472055888,0.0,0.0,-0.17934223808220082,-0.3133776261579637,-0.3802991272976017,0.9496959937126971,0.24238386273392476,-0.07790844960446533
10349,3.0,300.03213999999997,2695.9022,0.0,0.0,0.0,0.10495069586423113,0.0,0.0,-0.15650076399292287,-0.30761782622951567,-0.3553683720321276,0.952431860175206,0.2400598013770578,-0.08102745024778672
10350,3.0,300.32267,3029.9419,0.0,0.0,0.0,0.10496083700790339,0.0,0.0,-0.2127792887321808,-0.32986501900264265,-0.3783823722159326,0.9538709995572382,0.21395722237093381,-0.07798049168657534
10351,3.0,301.21804,2983.6325,0.0,0.0,0.0,0.10497097815157568,0.0,0.0,-0.2177088619261918,-0.3266336833737347,-0.36260724352904866,0.9781708141179432,0.2221151117085548,-0.07980106704225214
10352,3.0,300.9937,2833.2928,0.0,0.0,0.0,0.10498111929524792,0.0,0.0,-0.18577823046488381,-0.3282037448011877,-0.34726829874521264,0.9719821155546662,0.24907903435968676,-0.07153175464413453
10353,3.0,300.67666,2574.7053,0.0,0.0,0.0,0.1049912604389202,0.0,0.0,-0.1285857541354259,-0.2943963715046597,-0.3596640053010736,0.9347577488134071,0.2382159496400838,-0.1041388865877079
10354,3.0,299.91337000000004,2490.8163,0.0,0.0,0.0,0.10500140158259244,0.0,0.0,-0.10981689696808389,-0.31401617637098367,-0.33331289631042166,0.9228245605306932,0.22567673647255976,-0.08115036660416763
10355,3.0,300.1534,2904.6902,0.0,0.0,0.0,0.10501154272626471,0.0,0.0,-0.18038326136744184,-0.3468509612940247,-0.3557190781567397,0.9113890300345943,0.26056945261370273,-0.12042972917798889
10356,3.0,299.50905,3288.1432,0.0,0.0,0.0,0.10502168386993697,0.0,0.0,-0.23367234367416476,-0.36055203795371565,-0.40528904623641465,0.959062599227109,0.25406899725965776,-0.06103258781719744
10357,3.0,299.24927,2918.2875,0.0,0.0,0.0,0.10503182501360923,0.0,0.0,-0.24076462827911876,-0.3200125803302827,-0.32630931161922166,0.9541874882259731,0.2170004683837788,-0.1035072163428669
10358,3.0,298.97906,2666.9209,0.0,0.0,0.0,0.1050419661572815,0.0,0.0,-0.16387599868830185,-0.26815443007978174,-0.37864692168454167,0.9480440718096651,0.2107957706014228,-0.05078629275146685
10359,3.0,298.51158,3020.8683,0.0,0.0,0.0,0.10505210730095375,0.0,0.0,-0.20276819535916282,-0.3212884040611967,-0.3942119529631906,0.988219985429719,0.21635508886508478,-0.07983424996977702
10360,3.0,298.63709,3412.9097,0.0,0.0,0.0,0.10506224844462601,0.0,0.0,-0.24275036542759576,-0.3419850404712957,-0.4527039326783996,0.9750557185405072,0.27646969742293476,-0.01990239727946368
10361,3.0,299.63559,3013.6407,0.0,0.0,0.0,0.10507238958829829,0.0,0.0,-0.2241344077003438,-0.3193633099312047,-0.37257381469267264,0.9603764097042721,0.2563242994647387,-0.1000036933660961
10362,3.0,299.20365,2496.7075,0.0,0.0,0.0,0.10508253073197053,0.0,0.0,-0.15979262105030387,-0.26288558022228675,-0.3362585258086327,0.9286446691050932,0.2255700716345328,-0.07390311654216973
10363,3.0,300.78634,2620.1239,0.0,0.0,0.0,0.1050926718756428,0.0,0.0,-0.19766287393530682,-0.2938528945485227,-0.3049364624898857,0.924372178468431,0.26351307587671574,-0.09613387743842501
10364,3.0,300.92997,2999.946,0.0,0.0,0.0,0.10510281301931505,0.0,0.0,-0.17992700497991282,-0.3362340456862167,-0.3957476449472516,0.9392841497926281,0.24965074046360974,-0.05559237102328985
10365,3.0,301.43762000000004,3205.3501,0.0,0.0,0.0,0.10511295416298733,0.0,0.0,-0.2028203270768078,-0.36327662694261165,-0.4082494286560816,0.954667079763305,0.23846251391941778,-0.1065147452896869
10366,3.0,299.98562000000004,2957.1955,0.0,0.0,0.0,0.10512309530665959,0.0,0.0,-0.18521280651158084,-0.3108948898354367,-0.4028059046138476,0.9218288497899242,0.22995623879991378,-0.06678750691991374
10367,3.0,300.61231000000004,2389.8582,0.0,0.0,0.0,0.10513323645033185,0.0,0.0,-0.1123102926816629,-0.2990431668607627,-0.3151037483658187,0.966118447358467,0.24751346163017676,-0.12237895892536288
10368,3.0,299.54922,2633.8518,0.0,0.0,0.0,0.1051433775940041,0.0,0.0,-0.16746454550746384,-0.2971307890195257,-0.3360298555260647,0.9622106760953001,0.2596957067874708,-0.06814977810960944
10369,3.0,300.07907,3316.567,0.0,0.0,0.0,0.10515351873767637,0.0,0.0,-0.25144342307053374,-0.3390623205578457,-0.41764780969362963,0.960366479853292,0.24741061674502676,-0.09817310912593151
10370,3.0,299.12535,3039.8335,0.0,0.0,0.0,0.10516365988134863,0.0,0.0,-0.18920794019836984,-0.34867015052356465,-0.38615538863556964,0.93724996915687,0.2314418863615358,-0.06286205950875223
10371,3.0,299.5468,2328.7428,0.0,0.0,0.0,0.1051738010250209,0.0,0.0,-0.08787751944283591,-0.2843973155428297,-0.3356048275066177,0.9641416065458681,0.26911013770660275,-0.09127222037211681
10372,3.0,298.95018999999996,2467.8352,0.0,0.0,0.0,0.10518394216869315,0.0,0.0,-0.13947510229762086,-0.28509596161928075,-0.3255892353031557,0.9670063077585921,0.26517571796580575,-0.07090582547436014
10373,3.0,299.4492,3093.9547,0.0,0.0,0.0,0.10519408331236542,0.0,0.0,-0.20630006096773082,-0.3597617028757157,-0.37442320890769365,0.942329320980663,0.22646390007774678,-0.11285994033090889
10374,3.0,300.23555,3215.0566,0.0,0.0,0.0,0.10520422445603766,0.0,0.0,-0.2769579117186177,-0.3169681285498187,-0.3833708760357596,0.9528434018358221,0.20939211523789278,-0.07919229118342062
10375,3.0,300.53946,2948.8920000000003,0.0,0.0,0.0,0.10521436559970994,0.0,0.0,-0.1852889623890968,-0.35068025633694666,-0.3604203255732166,0.9525177837836862,0.24825166499053175,-0.08774952569020392
10376,3.0,300.72357999999997,2710.5142,0.0,0.0,0.0,0.1052245067433822,0.0,0.0,-0.16049774179489384,-0.2871029871523587,-0.37632791644567365,0.9671655704093101,0.2708836090916308,-0.036544413102652766
10377,3.0,300.28528,2900.3329,0.0,0.0,0.0,0.10523464788705446,0.0,0.0,-0.15341527558340884,-0.3152451170197707,-0.4129683978168076,0.9504222103243691,0.2500698814999758,-0.05689164034826774
10378,3.0,299.86175,3291.9892,0.0,0.0,0.0,0.10524478903072672,0.0,0.0,-0.2664577934498368,-0.33271248483116567,-0.4015122476811736,0.927432467347958,0.23935188406219177,-0.05949362202206334
10379,3.0,299.90549,3238.1008,0.0,0.0,0.0,0.10525493017439898,0.0,0.0,-0.22374855192976276,-0.33970391052116566,-0.4208493253720946,0.9739765159914981,0.24739185135317476,-0.06254392532185483
10380,3.0,300.55665,2654.7559,0.0,0.0,0.0,0.10526507131807124,0.0,0.0,-0.21449558241406577,-0.29834733761958976,-0.2941365843115207,0.9859161992073531,0.24247300847772277,-0.06342596358690523
10381,3.0,300.21664,2603.548,0.0,0.0,0.0,0.10527521246174351,0.0,0.0,-0.14671253497939987,-0.3095274885604847,-0.3351735679990557,0.971258817103282,0.21815920093313682,-0.0998365587753512
10382,3.0,299.20747,3174.6516,0.0,0.0,0.0,0.10528535360541576,0.0,0.0,-0.2351640606038858,-0.3406087631254677,-0.38924200175269463,0.9736973554564471,0.20515289973451478,-0.07695781126789464
10383,3.0,299.30134,3100.2844,0.0,0.0,0.0,0.10529549474908803,0.0,0.0,-0.18280389559133983,-0.3740736274906927,-0.38553152041649863,0.9728127577216441,0.2371240611998228,-0.11777586504607288
10384,3.0,299.41965,2537.9131,0.0,0.0,0.0,0.10530563589276028,0.0,0.0,-0.14705861055105485,-0.2997894762219177,-0.3246141442019217,0.9568873235149261,0.25937713082352976,-0.08767067862042233
10385,3.0,299.78083,2461.029,0.0,0.0,0.0,0.10531577703643255,0.0,0.0,-0.11522811859712989,-0.3155499938423597,-0.3173132719313817,0.9346969031449021,0.23342304361956076,-0.1251312096419889
10386,3.0,298.91899,2916.6041,0.0,0.0,0.0,0.10532591818010481,0.0,0.0,-0.2161762198249318,-0.3288176325067737,-0.34158096646391667,0.9334397130833271,0.23654705579787677,-0.047344710766559155
10387,3.0,299.65967,3175.7658,0.0,0.0,0.0,0.10533605932377707,0.0,0.0,-0.18650222805883684,-0.3540545615549647,-0.4247967248466726,0.9502886943586921,0.24618479690654774,-0.09027672849336942
10388,3.0,299.21387000000004,3085.3494,0.0,0.0,0.0,0.10534620046744933,0.0,0.0,-0.18031300260550784,-0.34163250036400267,-0.4159236734559706,0.9698286348521341,0.25158586576959174,-0.03267140341066647
10389,3.0,299.58291,2721.6005,0.0,0.0,0.0,0.10535634161112159,0.0,0.0,-0.15185778858969687,-0.31630815822968467,-0.35913264681613266,0.9474850515969941,0.2048796464475468,-0.10077486687145501
10390,3.0,300.87637,2790.7667,0.0,0.0,0.0,0.10536648275479385,0.0,0.0,-0.18523668881643782,-0.3154104389060867,-0.34767626363297566,0.9638286743849841,0.20461177351860982,-0.07380920852290172
10391,3.0,302.3415,3121.5890000000004,0.0,0.0,0.0,0.10537662389846611,0.0,0.0,-0.2544199364317927,-0.35590526286261465,-0.3385599207607627,0.9679999514691572,0.24330536303736977,-0.12032476660012988
10392,3.0,299.65215,3120.0504,0.0,0.0,0.0,0.10538676504213837,0.0,0.0,-0.2703302022845137,-0.31143785003402275,-0.3666493514904736,0.9951383253900061,0.26387418807985474,-0.04714883837647805
10393,3.0,300.37502,2686.2995,0.0,0.0,0.0,0.10539690618581064,0.0,0.0,-0.15279184306188087,-0.3108987705833197,-0.35287736758878463,0.9622665669708161,0.26602440611706474,-0.08767923247776652
10394,3.0,299.71013,2579.3108,0.0,0.0,0.0,0.10540704732948289,0.0,0.0,-0.15093335999346286,-0.27909407597694075,-0.3540186519714207,0.9357972724885001,0.24101833597165778,-0.055959841370806354
10395,3.0,299.32581,3061.2732,0.0,0.0,0.0,0.10541718847315516,0.0,0.0,-0.19511204720605982,-0.31494411081256374,-0.4204944649220726,0.9529046426718661,0.25776021671145277,-0.07821927927139183
10396,3.0,299.6297,3424.2896,0.0,0.0,0.0,0.10542732961682741,0.0,0.0,-0.24715836813263176,-0.3610018095406047,-0.43273837648045255,0.964519103003124,0.2691625227367727,-0.05211456737380735
10397,3.0,299.44341000000003,3140.1686,0.0,0.0,0.0,0.10543747076049968,0.0,0.0,-0.23111063463884376,-0.3485462401688357,-0.3748759594498767,0.966089883838148,0.2367371212516348,-0.08130357812528842
10398,3.0,299.62964,2932.298,0.0,0.0,0.0,0.10544761190417193,0.0,0.0,-0.22150031207787876,-0.31316632298210967,-0.35667874759145163,0.9383118653941711,0.2219545014352038,-0.026743194222847773
10399,3.0,301.32656000000003,2910.993,0.0,0.0,0.0,0.1054577530478442,0.0,0.0,-0.16416214051654185,-0.3251564052579387,-0.3955506285978076,0.9401094521315793,0.24698026916255478,-0.07937014190722312
10400,3.0,301.2822,2907.6588,0.0,0.0,0.0,0.10546789419151648,0.0,0.0,-0.17812433172700282,-0.3256023670244517,-0.3801289823408096,0.9641458014012821,0.25835328212748376,-0.04329127061601576
10401,3.0,300.90423,2920.302,0.0,0.0,0.0,0.10547803533518872,0.0,0.0,-0.15032405217832887,-0.33871321536839166,-0.3986616407773406,0.9408967069292752,0.24687452638211874,-0.11982332939064189
10402,3.0,300.36287000000004,2788.7261,0.0,0.0,0.0,0.105488176478861,0.0,0.0,-0.18101518492480784,-0.3275639482905447,-0.3391239565614287,0.960718432275527,0.23691358888905076,-0.10621141873975092
10403,3.0,299.08306,2499.4464,0.0,0.0,0.0,0.10549831762253324,0.0,0.0,-0.16311235261793583,-0.2919955159227137,-0.3046614360152427,0.9587786561515861,0.24489505111925977,-0.13364640136237288
10404,3.0,300.16356,2811.4440000000004,0.0,0.0,0.0,0.10550845876620552,0.0,0.0,-0.2121496855175438,-0.3217365443154247,-0.3207225241453487,0.976965664581504,0.2643089635652638,-0.1000478041959495
10405,3.0,300.19649,3129.3766,0.0,0.0,0.0,0.10551859990987776,0.0,0.0,-0.17358194166120383,-0.3333287739394887,-0.4443416302656045,0.968911785366648,0.2172050638439708,-0.07222641155494183
10406,3.0,299.55459,2923.9569,0.0,0.0,0.0,0.10552874105355002,0.0,0.0,-0.18530571141324984,-0.3250997443123467,-0.37840444080311064,0.9606871735099421,0.2234860086963518,-0.07225879604138792
10407,3.0,300.07462000000004,2826.3181,0.0,0.0,0.0,0.10553888219722228,0.0,0.0,-0.13890377109623486,-0.3158859267805137,-0.4043404516252956,0.944270363667229,0.24782043588047278,-0.05786743261857094
10408,3.0,300.29599,2935.2627,0.0,0.0,0.0,0.10554902334089454,0.0,0.0,-0.2402039767337868,-0.30594365335428775,-0.3460989473348067,0.9725153485522922,0.24848033527309976,-0.060883185103202536
10409,3.0,301.28757,3160.4625,0.0,0.0,0.0,0.1055591644845668,0.0,0.0,-0.24663138688812278,-0.3293284828096907,-0.3847418034210596,0.942741166616309,0.25178796863453773,-0.05057107235072625
10410,3.0,302.32481,3312.2855,0.0,0.0,0.0,0.10556930562823906,0.0,0.0,-0.2857282600791837,-0.3291261570297227,-0.3919976772546586,0.9615862201911711,0.2212816628387998,-0.08158397381221133
10411,3.0,300.8041,2982.5769,0.0,0.0,0.0,0.10557944677191133,0.0,0.0,-0.17835560606232784,-0.33185240774878266,-0.39642088884369564,0.9590897948597931,0.24757074065832976,-0.06221753517314264
10412,3.0,299.33322999999996,2486.2113,0.0,0.0,0.0,0.10558958791558358,0.0,0.0,-0.16124179160832583,-0.2733875831362537,-0.32111676962675767,0.9489197934735921,0.26293053812922373,-0.0942391210296771
10413,3.0,299.8349,2703.2614,0.0,0.0,0.0,0.10559972905925585,0.0,0.0,-0.12726765761033987,-0.31178230440551774,-0.38267401327948464,0.979732161594536,0.2217235513399108,-0.08537265069837462
10414,3.0,299.83232000000004,2890.2125,0.0,0.0,0.0,0.1056098702029281,0.0,0.0,-0.23368785653319576,-0.3209438990271967,-0.3239206859659827,0.977452176617019,0.2220154686937208,-0.10651997366020288
10415,3.0,299.68026000000003,2805.8824,0.0,0.0,0.0,0.10562001134660037,0.0,0.0,-0.19190093604914782,-0.3034630347244697,-0.3575542058103527,0.996936854450007,0.24132738738465878,-0.1013743451473689
10416,3.0,299.8108,2606.5042,0.0,0.0,0.0,0.10563015249027265,0.0,0.0,-0.17575786585345082,-0.3008705026211067,-0.3156838340480687,0.9884340345133441,0.2217116760487388,-0.10082709282135931
10417,3.0,299.66337000000004,2745.6391,0.0,0.0,0.0,0.10564029363394489,0.0,0.0,-0.14384708396160187,-0.2998472517426197,-0.3909113920874506,0.947156910552109,0.20892769205455783,-0.07462142575006132
10418,3.0,300.34315,3207.5171,0.0,0.0,0.0,0.10565043477761717,0.0,0.0,-0.21330128478619778,-0.35775446456011667,-0.40394936748419863,0.9466274164473522,0.22020806356284378,-0.07039048242049974
10419,3.0,299.92559,3310.7298,0.0,0.0,0.0,0.10566057592128941,0.0,0.0,-0.19271910510739482,-0.3919264153751256,-0.4217336900593746,0.9575518129305061,0.2635773058005547,-0.07279428554698664
10420,3.0,299.7942,2966.7347,0.0,0.0,0.0,0.10567071706496169,0.0,0.0,-0.2244137303554108,-0.34461065519042366,-0.3327888737562047,0.9545553993372831,0.27287362215552974,-0.07384166900310533
10421,3.0,300.37978,2756.2997,0.0,0.0,0.0,0.10568085820863395,0.0,0.0,-0.19171798361109182,-0.3011128213825217,-0.34501548913537766,0.9276045273474391,0.2310645621567968,-0.08570232985691142
10422,3.0,301.35231,2882.5206,0.0,0.0,0.0,0.1056909993523062,0.0,0.0,-0.1812051389210548,-0.33140277801690765,-0.3636063486576527,0.9357465187909911,0.2318965316814058,-0.10352982195259791
10423,3.0,301.01171,3055.2375,0.0,0.0,0.0,0.10570114049597847,0.0,0.0,-0.18733482579850783,-0.3260489671385277,-0.41533210765008755,0.9763094635517421,0.25023279185105374,-0.09556104460039082
10424,3.0,300.21967,3008.1587,0.0,0.0,0.0,0.10571128163965071,0.0,0.0,-0.19133931178371982,-0.32090305491566573,-0.4021627643778746,1.0102304120519792,0.2443345414289418,-0.07304773790050044
10425,3.0,299.54458999999997,2509.4302,0.0,0.0,0.0,0.10572142278332299,0.0,0.0,-0.13175906093110687,-0.27735028268734174,-0.3536947767094567,0.9834762017740442,0.22221571731098377,-0.08369654150220551
10426,3.0,299.24137,2655.3886,0.0,0.0,0.0,0.10573156392699526,0.0,0.0,-0.18631764428811984,-0.30056686196363974,-0.32028732309489766,0.9871363347127711,0.22312154263538178,-0.05827164037496314
10427,3.0,299.418,3323.6602,0.0,0.0,0.0,0.1057417050706675,0.0,0.0,-0.25666046545041576,-0.35238578930276965,-0.40126344411911863,0.9655072852956501,0.24008991517002973,-0.06928601650674744
10428,3.0,298.43298,3424.2678,0.0,0.0,0.0,0.10575184621433978,0.0,0.0,-0.25062168737193474,-0.37761956714314965,-0.41265064258544765,0.949216665620391,0.24207880352631778,-0.038000051236063065
10429,3.0,299.36612,2916.6749,0.0,0.0,0.0,0.10576198735801202,0.0,0.0,-0.17101710168307382,-0.3234506493770937,-0.39212860943258065,0.9355971454612491,0.24499833170195276,-0.07730723157812973
10430,3.0,300.5877,2886.8552,0.0,0.0,0.0,0.1057721285016843,0.0,0.0,-0.17360406091088684,-0.33585918367922063,-0.3680686413030467,0.9257483443567481,0.27181926449897276,-0.052100033314372955
10431,3.0,300.76029,2926.9378,0.0,0.0,0.0,0.10578226964535656,0.0,0.0,-0.18206887383629883,-0.3260943404780057,-0.3815527912488286,0.9618127221185251,0.2800174203955677,-0.08074535635369623
10432,3.0,300.24741,2875.8583,0.0,0.0,0.0,0.10579241078902882,0.0,0.0,-0.21398324263350177,-0.3176164262288007,-0.34258942389094366,0.9690626279090351,0.23640366064372476,-0.08062671388623713
10433,3.0,301.03758,2885.3121,0.0,0.0,0.0,0.10580255193270108,0.0,0.0,-0.16476369696841087,-0.32720761862787767,-0.3850915064280726,0.9818122829898281,0.2129470829487408,-0.0994037986443911
10434,3.0,300.27004,2796.4761,0.0,0.0,0.0,0.10581269307637334,0.0,0.0,-0.17316061200462182,-0.32627051427289266,-0.3506277801142677,0.970596414982908,0.2165275440321048,-0.10792886752674989
10435,3.0,298.66222,2601.4053,0.0,0.0,0.0,0.1058228342200456,0.0,0.0,-0.098213157836134,-0.3335618721249937,-0.35898721502927966,0.9487443897487811,0.24726613741326775,-0.1034483363795559
10436,3.0,298.68323,2997.5536,0.0,0.0,0.0,0.10583297536371787,0.0,0.0,-0.18980075230187582,-0.35320179000580265,-0.36817891331142966,0.9548719082710201,0.24087822374782977,-0.1033502233723729
10437,3.0,299.08793,3315.6643,0.0,0.0,0.0,0.10584311650739012,0.0,0.0,-0.2297444695290138,-0.36383033772475865,-0.4143043478086556,0.9612875444591941,0.24586361688984978,-0.07195463862636993
10438,3.0,299.53691000000003,2914.7162,0.0,0.0,0.0,0.10585325765106239,0.0,0.0,-0.23871071966391377,-0.33376309346235267,-0.3135271413427197,0.968642372297559,0.2534135460349698,-0.08109266707722312
10439,3.0,299.63277,2680.1524,0.0,0.0,0.0,0.10586339879473464,0.0,0.0,-0.13536969660244885,-0.3166076344292407,-0.36272209542788364,0.9615756114626242,0.2521338314236718,-0.04483642128976025
10440,3.0,299.48334,2991.0063,0.0,0.0,0.0,0.10587353993840691,0.0,0.0,-0.2110296591220058,-0.3242692642653847,-0.37389231651779864,0.9727835355887601,0.2312213828747738,-0.053396858680109655
10441,3.0,299.26236,3078.8534,0.0,0.0,0.0,0.10588368108207917,0.0,0.0,-0.15999625392290084,-0.3352138649555327,-0.4406844458846686,0.95460917252009,0.2199934166616598,-0.05078772650035836
10442,3.0,300.46677999999997,2828.9191,0.0,0.0,0.0,0.10589382222575143,0.0,0.0,-0.1850428034098028,-0.3203563456917097,-0.3545216191885596,0.972775510647968,0.2526238087745288,-0.1078673125831749
10443,3.0,300.56187,2842.5526,0.0,0.0,0.0,0.10590396336942369,0.0,0.0,-0.1916699656888528,-0.3260302220116777,-0.3463648342935477,0.9794462426813181,0.25809786204227575,-0.08356373582484862
10444,3.0,299.8558,2855.4808,0.0,0.0,0.0,0.10591410451309595,0.0,0.0,-0.23775182029927777,-0.3188149592420867,-0.3114280924355597,0.9528204922510611,0.24987758689599776,-0.11048714164423189
10445,3.0,299.77661,2915.7221,0.0,0.0,0.0,0.10592424565676821,0.0,0.0,-0.16615323775804783,-0.3398399494795917,-0.38031353571402365,0.958930562606578,0.24053564388901977,-0.07087087746516103
10446,3.0,299.76987,3043.8664,0.0,0.0,0.0,0.10593438680044048,0.0,0.0,-0.2145575021276768,-0.33331585500071365,-0.37738601299509966,0.9739777521566201,0.25783894624422277,-0.0894696251394645
10447,3.0,298.62722,2822.5675,0.0,0.0,0.0,0.10594452794411273,0.0,0.0,-0.1054067360403349,-0.3387364795906877,-0.4138468147260006,0.9799434445053881,0.27223944918294174,-0.04024495242886756
10448,3.0,299.27789,2495.2318,0.0,0.0,0.0,0.105954669087785,0.0,0.0,-0.14966033283282487,-0.29779359643993975,-0.31103424212168973,0.957414922841996,0.2161470888845568,-0.09348381096788382
10449,3.0,299.42186,2949.1402,0.0,0.0,0.0,0.10596481023145725,0.0,0.0,-0.21316526609277378,-0.31751265928605965,-0.36578705539037165,0.9555786603482711,0.2013160357133458,-0.06844341393558903
10450,3.0,299.34463999999997,3218.7003,0.0,0.0,0.0,0.10597495137512952,0.0,0.0,-0.26311695588262174,-0.34839435397884566,-0.36689321039204065,0.960908183621754,0.23551356096087878,-0.11090772149573988
10451,3.0,299.43367,2879.6183,0.0,0.0,0.0,0.10598509251880178,0.0,0.0,-0.15599462530297084,-0.3438833544011447,-0.37545407942693265,0.98321170296794,0.25261160924332476,-0.08357981914368592
10452,3.0,300.46977999999996,2533.3025,0.0,0.0,0.0,0.10599523366247404,0.0,0.0,-0.14078611620450787,-0.28724984762185274,-0.3420247294777127,0.9464209667394771,0.2512997239413518,-0.08594302843141652
10453,3.0,299.1324,2736.8563,0.0,0.0,0.0,0.1060053748061463,0.0,0.0,-0.12526573885776587,-0.3032612966295597,-0.4034089404108626,0.948980943117127,0.24492370583208775,-0.08471533509350263
10454,3.0,299.74232,2922.9517,0.0,0.0,0.0,0.10601551594981856,0.0,0.0,-0.2087285478799038,-0.30658720902280173,-0.37318857379334464,0.9804160547495311,0.25944999363822074,-0.08359832919651272
10455,3.0,299.96563,2898.8917,0.0,0.0,0.0,0.10602565709349082,0.0,0.0,-0.22498777706706477,-0.3241418278003077,-0.3320611068718797,0.995460245079277,0.2717443042565747,-0.1025922515025669
10456,3.0,300.62228,2896.265,0.0,0.0,0.0,0.1060357982371631,0.0,0.0,-0.23767348593404677,-0.30604340782663275,-0.33667535663477066,0.990385655530954,0.22660510661168276,-0.07133363182558133
10457,3.0,300.93195,2739.3888,0.0,0.0,0.0,0.10604593938083534,0.0,0.0,-0.18127812332575782,-0.27784168872083975,-0.37358599074756665,0.9592292484710561,0.22470120967378276,-0.08642004327374422
10458,3.0,299.85029,2800.2723,0.0,0.0,0.0,0.10605608052450761,0.0,0.0,-0.16697824625446986,-0.3125740681661587,-0.37166054198003967,0.953768448514617,0.25000347308842175,-0.06617277720349464
10459,3.0,299.96346,3162.988,0.0,0.0,0.0,0.10606622166817986,0.0,0.0,-0.15985694216665183,-0.35851486823016265,-0.4430975617928246,0.9635676611592241,0.25291039643281277,-0.08662271051899591
10460,3.0,299.82236,3110.6464,0.0,0.0,0.0,0.10607636281185213,0.0,0.0,-0.21408955283399378,-0.3359496365156477,-0.3955196636747516,0.964357438949669,0.2266648275725768,-0.05709345443693525
10461,3.0,298.64099,2599.1688,0.0,0.0,0.0,0.10608650395552441,0.0,0.0,-0.18353658687115082,-0.29582239943039773,-0.3107234479185167,0.956143354761502,0.21906529983506176,-0.1009876980284598
10462,3.0,298.98649,2750.7305,0.0,0.0,0.0,0.10609664509919665,0.0,0.0,-0.19195312856179883,-0.3154882666462677,-0.3287120011838487,0.973210772493425,0.25721596968523974,-0.08422849679145542
10463,3.0,299.50004,2930.0647,0.0,0.0,0.0,0.10610678624286893,0.0,0.0,-0.20550095114386482,-0.3286358351738317,-0.35652969850174165,0.9559299034954362,0.2705449910407117,-0.09490127186402632
10464,3.0,298.52518,2825.6417,0.0,0.0,0.0,0.10611692738654117,0.0,0.0,-0.16449774921466384,-0.3216235162667697,-0.37280324491281563,0.9411019204720281,0.26005994993341874,-0.07623287844409933
10465,3.0,299.96893,2759.01,0.0,0.0,0.0,0.10612706853021345,0.0,0.0,-0.15435711181636086,-0.3060866938709047,-0.3782263620980357,0.940078365618511,0.25254500831425175,-0.09786521281804451
10466,3.0,300.4967,2938.224,0.0,0.0,0.0,0.10613720967388571,0.0,0.0,-0.2086622103958568,-0.3260587146044897,-0.35842579341387165,0.9520252125125731,0.25169320948518575,-0.05849404877191315
10467,3.0,300.27631,2865.4189,0.0,0.0,0.0,0.10614735081755795,0.0,0.0,-0.2144917219311848,-0.3103434183360107,-0.34618066595537167,0.9662113623926372,0.24424889139798875,-0.1003479937235759
10468,3.0,299.64094,3064.7066,0.0,0.0,0.0,0.10615749196123023,0.0,0.0,-0.2232254716981388,-0.34011516847175366,-0.36825364050630466,0.9695795374475501,0.20006803583017782,-0.07813237382356493
10469,3.0,299.44789,3145.922,0.0,0.0,0.0,0.10616763310490247,0.0,0.0,-0.2186160348732228,-0.32253321220654974,-0.41513250751288855,0.9762162040125381,0.21029488054698878,-0.09525032639097532
10470,3.0,299.1688,2792.9469,0.0,0.0,0.0,0.10617777424857475,0.0,0.0,-0.14998974044033486,-0.3237352409326807,-0.37526113634289066,0.972958483351026,0.24412387660065074,-0.07857981696172413
10471,3.0,299.59841,2534.3843,0.0,0.0,0.0,0.10618791539224702,0.0,0.0,-0.1166486344423239,-0.3195877144308517,-0.3341531846183517,0.9743701636553481,0.2767304168061657,-0.08831640973690101
10472,3.0,299.89318,2814.5409,0.0,0.0,0.0,0.10619805653591927,0.0,0.0,-0.2048657041261708,-0.3094207021324457,-0.3412637583876107,0.9597368563736531,0.24136156431053174,-0.05221617001433475
10473,3.0,299.8126,2965.5252,0.0,0.0,0.0,0.10620819767959154,0.0,0.0,-0.2164754933744678,-0.3204830323517127,-0.3644870859095746,0.9725746439481441,0.22965276026246276,-0.07486446087929702
10474,3.0,300.16732,2849.4687,0.0,0.0,0.0,0.10621833882326379,0.0,0.0,-0.21052389533459082,-0.3121140931507627,-0.3435293349487057,0.9696763636271061,0.22908429655885978,-0.0966757494064036
10475,3.0,301.70819,2895.7562,0.0,0.0,0.0,0.10622847996693606,0.0,0.0,-0.1878852232528278,-0.3094751845903227,-0.38287718005703564,0.942856748055216,0.23335880356322075,-0.1124037346058849
10476,3.0,300.66691000000003,2947.059,0.0,0.0,0.0,0.10623862111060832,0.0,0.0,-0.17675020247138684,-0.3292471289591617,-0.38983501650622066,0.934715850921772,0.2383124718446098,-0.09166528744365951
10477,3.0,299.26351,3087.9777,0.0,0.0,0.0,0.10624876225428058,0.0,0.0,-0.1825680312330618,-0.3452103472621087,-0.41088975576666165,0.9468846603827401,0.25248197402553074,-0.08675050364810812
10478,3.0,299.45387999999997,3150.8649,0.0,0.0,0.0,0.10625890339795284,0.0,0.0,-0.24149443179614477,-0.3333841683224557,-0.38290564225234464,0.9897988722655432,0.28908271572774275,-0.05905791941281285
10479,3.0,299.38211,2870.4343,0.0,0.0,0.0,0.1062690445416251,0.0,0.0,-0.17397489018248483,-0.3304617321190337,-0.36810374028651066,0.9988372354100601,0.2680898860484117,-0.04784332100826816
10480,3.0,299.90704,2373.2232,0.0,0.0,0.0,0.10627918568529736,0.0,0.0,-0.13651277443776186,-0.28314383397662074,-0.3017439951348137,0.9876405887575371,0.22417430948928177,-0.09769878547586941
10481,3.0,300.32723,2673.5367,0.0,0.0,0.0,0.10628932682896963,0.0,0.0,-0.11502886296496488,-0.32149325283391367,-0.37616628278972164,0.9708132099743041,0.19561278527297882,-0.08070757023096702
10482,3.0,299.39808999999997,3168.3698,0.0,0.0,0.0,0.10629946797264188,0.0,0.0,-0.23110714905849977,-0.34552902455105966,-0.3864691415290346,0.979135164768117,0.2240965222791048,-0.08578808627912492
10483,3.0,300.19836000000004,3077.6177,0.0,0.0,0.0,0.10630960911631415,0.0,0.0,-0.2103146997189448,-0.35112586346592467,-0.37407835936865963,0.986349019120069,0.24870095021737273,-0.08254163397197502
10484,3.0,299.41886,2711.2024,0.0,0.0,0.0,0.1063197502599864,0.0,0.0,-0.2306811787164598,-0.2918096554568707,-0.30164698657023975,0.9588877223923501,0.2629739964260127,-0.08188515024543512
10485,3.0,299.6878,2988.8511,0.0,0.0,0.0,0.10632989140365867,0.0,0.0,-0.20152232330120481,-0.3379368631417717,-0.3690768960800537,0.9397857592546331,0.2527312538151328,-0.08375214360144302
10486,3.0,300.35042000000004,3352.5763,0.0,0.0,0.0,0.10634003254733093,0.0,0.0,-0.26484005860517873,-0.3282672046549507,-0.42599222824215954,0.946710513088053,0.27356899543415775,-0.07745641948310342
10487,3.0,300.19003,3283.4321,0.0,0.0,0.0,0.10635017369100319,0.0,0.0,-0.1943555445488988,-0.37015382894883864,-0.4335719976027246,0.951470569540334,0.24916435001810677,-0.1069032152455259
10488,3.0,299.53111,2851.2708,0.0,0.0,0.0,0.10636031483467545,0.0,0.0,-0.15632764008083685,-0.3106743660836727,-0.39971311067111265,0.9370929660538752,0.22451245131265382,-0.05771980309225104
10489,3.0,300.42985,2381.9872,0.0,0.0,0.0,0.10637045597834771,0.0,0.0,-0.10241943156551091,-0.3013852438044077,-0.3202599450771957,0.9540066737456282,0.2048974289868018,-0.09879147742345971
10490,3.0,300.14965,2568.4573,0.0,0.0,0.0,0.10638059712201997,0.0,0.0,-0.18371265934102782,-0.28442026565759476,-0.31261398008759766,0.990013681286743,0.23350159076731278,-0.049709170404913156
10491,3.0,301.30336,3124.1608,0.0,0.0,0.0,0.10639073826569224,0.0,0.0,-0.21151050708946179,-0.35788220500022366,-0.38027414055013564,0.996412092223217,0.23605458585177377,-0.12320485908187288
10492,3.0,299.82971000000003,2962.1104,0.0,0.0,0.0,0.10640087940936449,0.0,0.0,-0.19901811620905882,-0.3300083634942897,-0.37138111799996265,0.9796364803875931,0.24065761893605775,-0.062300005625281846
10493,3.0,299.7038,2469.0011,0.0,0.0,0.0,0.10641102055303676,0.0,0.0,-0.0952193949051726,-0.3169019227882847,-0.3383933627093247,0.942851033324652,0.24464568013714877,-0.15621773284248985
10494,3.0,299.77987,2823.2492,0.0,0.0,0.0,0.10642116169670901,0.0,0.0,-0.18564388363412482,-0.2969898357981147,-0.37556354083523563,0.9460056760534912,0.27291596587720873,-0.06846334253855584
10495,3.0,299.52643,3255.9018,0.0,0.0,0.0,0.10643130284038128,0.0,0.0,-0.2510264807868848,-0.3474108427692807,-0.39127552377588765,0.9588191152280792,0.28193048724687275,-0.11524586060638088
10496,3.0,299.76396,3136.8335,0.0,0.0,0.0,0.10644144398405354,0.0,0.0,-0.24888295020033477,-0.3346062087380617,-0.37002989832910765,0.9578314192956011,0.2681316420850327,-0.06238761832167854
10497,3.0,299.53731,2615.6003,0.0,0.0,0.0,0.1064515851277258,0.0,0.0,-0.15114291024664384,-0.30387895362551776,-0.3400553056558457,0.9646197896655612,0.24426834579990875,-0.1184526553178669
10498,3.0,299.54145,2682.5556,0.0,0.0,0.0,0.10646172627139806,0.0,0.0,-0.15157439266922787,-0.2904445745246477,-0.37341096192529266,0.96591319328571,0.27867370890795373,-0.03280154626676057
10499,3.0,301.01126,2927.2301,0.0,0.0,0.0,0.10647186741507032,0.0,0.0,-0.14949523386153085,-0.33651570894901467,-0.4037939146538566,0.9824382790341091,0.24293067328289075,-0.11335502446226987
10500,3.0,299.53215,3086.1,0.0,0.0,0.0,0.10648200855874258,0.0,0.0,-0.1889571405336178,-0.34749546941763265,-0.4016447402642496,0.970172724453593,0.22914757402760477,-0.049242754158631455
10501,3.0,299.01016,2947.7814,0.0,0.0,0.0,0.10649214970241484,0.0,0.0,-0.20735565478940982,-0.3435382718145877,-0.34515801289444364,0.9780059887241761,0.2278977908242608,-0.09709311522859441
10502,3.0,301.24487,2863.9945,0.0,0.0,0.0,0.1065022908460871,0.0,0.0,-0.20316340342816683,-0.3127942676778907,-0.3546251429512767,1.0042000034193241,0.26293608060727075,-0.025016791344715076
10503,3.0,300.42343999999997,2711.3203,0.0,0.0,0.0,0.10651243198975936,0.0,0.0,-0.1906161551873498,-0.3082703390289137,-0.32528718544834573,0.960110978708076,0.2508490201643708,-0.10882661724785091
10504,3.0,300.33305,3213.4868,0.0,0.0,0.0,0.10652257313343162,0.0,0.0,-0.23186710689850176,-0.3196874385056937,-0.42526520103040755,0.94611408368169,0.24586442748992976,-0.041756054859501755
10505,3.0,299.98278999999997,3311.7764,0.0,0.0,0.0,0.1065327142771039,0.0,0.0,-0.1877473300467188,-0.35984970364690066,-0.4591002968496716,0.945244755625894,0.23901037824848778,-0.09658679415362441
10506,3.0,299.62862,2888.5856,0.0,0.0,0.0,0.10654285542077614,0.0,0.0,-0.18291621436492483,-0.3126938140629767,-0.38244787612216663,0.960596599083503,0.2559799362857528,-0.06898190671448413
10507,3.0,299.06846,2959.5759,0.0,0.0,0.0,0.10655299656444842,0.0,0.0,-0.2218382005887258,-0.3212901063213647,-0.3565088660796857,0.9635413369216261,0.2173412446574108,-0.1041045576743199
10508,3.0,299.07517,3107.567,0.0,0.0,0.0,0.10656313770812066,0.0,0.0,-0.26234574083400874,-0.3148896992821937,-0.36738732180330563,0.959624264022541,0.2192234681756718,-0.07291677633832554
10509,3.0,298.34168,2884.2203,0.0,0.0,0.0,0.10657327885179294,0.0,0.0,-0.18794062776829581,-0.33811784987463367,-0.35067246444367767,0.9712992255172701,0.23058320756429077,-0.09681308633820772
10510,3.0,299.67305,2892.6011,0.0,0.0,0.0,0.10658341999546518,0.0,0.0,-0.17282860034435485,-0.3271204081917707,-0.37932947734940464,0.9679099748602771,0.26881797717276873,-0.06487327685749394
10511,3.0,300.14685,2846.3390000000004,0.0,0.0,0.0,0.10659356113913745,0.0,0.0,-0.1257903896270449,-0.3383321624032847,-0.4010934308848397,0.9537016550680252,0.2711304064184878,-0.09316094895601981
10512,3.0,300.41321,2659.6728,0.0,0.0,0.0,0.1066037022828097,0.0,0.0,-0.17529619871038785,-0.3014015166010137,-0.3317764038587817,0.941799897803413,0.24195888537698276,-0.09756554106121922
10513,3.0,299.67246,2928.9354,0.0,0.0,0.0,0.10661384342648197,0.0,0.0,-0.19053055581890183,-0.3294632856029947,-0.37032938466116466,0.9772146910585812,0.2214417867521028,-0.0989474145873495
10514,3.0,299.66715,3227.7741,0.0,0.0,0.0,0.10662398457015423,0.0,0.0,-0.25455408061253176,-0.34381666227956265,-0.3827919758561267,1.01079348526505,0.22135147577068978,-0.08958166222952173
10515,3.0,299.37088,3010.067,0.0,0.0,0.0,0.1066341257138265,0.0,0.0,-0.19649817334285982,-0.33833741103880266,-0.38014962224534665,1.0206408475544089,0.2140363572037438,-0.08331124403242962
10516,3.0,300.37077,2727.8796,0.0,0.0,0.0,0.10664426685749875,0.0,0.0,-0.15895496719263386,-0.2954116481048597,-0.37484066794889365,0.978940276243883,0.25291394280816276,-0.0912532705687466
10517,3.0,300.22643999999997,2976.5486,0.0,0.0,0.0,0.10665440800117101,0.0,0.0,-0.16420185992046185,-0.3368886863108247,-0.4037059037501706,0.945656631659043,0.27515355647054174,-0.07155375838330613
10518,3.0,300.59777,3113.5517,0.0,0.0,0.0,0.10666454914484327,0.0,0.0,-0.2555398817673228,-0.3221108692998677,-0.3687912203468596,0.9471783306592231,0.3009716148485857,-0.05927952024943314
10519,3.0,300.66476,3015.2607,0.0,0.0,0.0,0.10667469028851553,0.0,0.0,-0.2308624390268488,-0.3296364601775857,-0.35606506253588566,0.94911705300306,0.26224793180185574,-0.07565051902862492
10520,3.0,300.79716,2884.2458,0.0,0.0,0.0,0.1066848314321878,0.0,0.0,-0.2284038991167098,-0.3182198571933547,-0.3301149574048097,0.963655935507936,0.22299631505552278,-0.0950867503345816
10521,3.0,300.09787,2754.0223,0.0,0.0,0.0,0.10669497257586007,0.0,0.0,-0.17601240441107183,-0.3102866763304107,-0.3508549406541867,0.9630699729751061,0.21745246912088778,-0.08806109300320322
10522,3.0,299.11797,2889.3727,0.0,0.0,0.0,0.10670511371953231,0.0,0.0,-0.16008095149875984,-0.3254203873064917,-0.39279583462343065,0.990335175410972,0.24295003649230176,-0.09263942102354901
10523,3.0,299.6191,3259.4019,0.0,0.0,0.0,0.10671525486320459,0.0,0.0,-0.19296437242660083,-0.3538524384250166,-0.44395996935043763,0.9912154263028461,0.2235960375247108,-0.0984220423839993
10524,3.0,300.60604,3083.7667,0.0,0.0,0.0,0.10672539600687683,0.0,0.0,-0.2246326734370188,-0.3312813906549277,-0.38147402118605467,0.975324300744514,0.23552298418680875,-0.08306702137407672
10525,3.0,299.869,2575.2565,0.0,0.0,0.0,0.1067355371505491,0.0,0.0,-0.12781821718467587,-0.3097272913477037,-0.34526817344531563,0.9905224341619531,0.24701866120884375,-0.07940248991666563
10526,3.0,300.39498,2777.5085,0.0,0.0,0.0,0.10674567829422138,0.0,0.0,-0.17618967251606685,-0.31296195043693975,-0.35514160665974764,0.972677407773286,0.24527644858940076,-0.06894405878349884
10527,3.0,300.17247000000003,3270.1524,0.0,0.0,0.0,0.10675581943789363,0.0,0.0,-0.21727342782821782,-0.35718031652345267,-0.4195909295429006,0.9668284621010401,0.2539991437977638,-0.09998265930727021
10528,3.0,300.57414,3124.4835,0.0,0.0,0.0,0.10676596058156589,0.0,0.0,-0.1928108650364508,-0.3662854832470626,-0.3906686274959916,0.919694185141749,0.23865267056568476,-0.0999647379527515
10529,3.0,301.17251,2738.9894,0.0,0.0,0.0,0.10677610172523815,0.0,0.0,-0.17958069636073482,-0.32328719187096167,-0.3297164866704837,0.9386627437713001,0.2549868498627428,-0.11924190621825989
10530,3.0,300.59836,2918.5305,0.0,0.0,0.0,0.1067862428689104,0.0,0.0,-0.2062419105444918,-0.3191077581234837,-0.3618107377579397,0.9485567459627621,0.27514646371984175,-0.062196471730063846
10531,3.0,300.34781,3065.1828,0.0,0.0,0.0,0.10679638401258268,0.0,0.0,-0.2136435100074728,-0.3443261953573497,-0.37376932822066067,0.9681359093675752,0.23955176790941876,-0.09382455279101241
10532,3.0,301.08724,3085.32,0.0,0.0,0.0,0.10680652515625493,0.0,0.0,-0.2020277527160868,-0.3414680296077707,-0.39436445723574165,1.011779043239817,0.20995884628382483,-0.06824043967555703
10533,3.0,300.71518,2979.4181,0.0,0.0,0.0,0.1068166662999272,0.0,0.0,-0.18541278155131682,-0.3164779586814427,-0.4037779762297836,1.0067677210277381,0.2284903192177388,-0.07996783078346043
10534,3.0,301.57995,2796.9096,0.0,0.0,0.0,0.10682680744359944,0.0,0.0,-0.1103764542033079,-0.3347282445801057,-0.4050859909163746,1.003464475039233,0.24823427761881578,-0.06190040613034444
10535,3.0,300.02463,2873.4374,0.0,0.0,0.0,0.10683694858727172,0.0,0.0,-0.19766230651525082,-0.3219242590289507,-0.35386665432391967,0.9779892093025201,0.23220393149674376,-0.07605501758779583
10536,3.0,300.24277,3367.9221,0.0,0.0,0.0,0.10684708973094399,0.0,0.0,-0.24854108974909575,-0.36478336023881464,-0.4104397511322496,0.9614295210632061,0.24775489886400479,-0.07413471714402693
10537,3.0,299.89833,3097.4836,0.0,0.0,0.0,0.10685723087461624,0.0,0.0,-0.2459856527318938,-0.3159031317672117,-0.37966888573540164,0.9642511388816781,0.24527870813712377,-0.043524829830316254
10538,3.0,299.39243999999997,2547.2021,0.0,0.0,0.0,0.10686737201828851,0.0,0.0,-0.13274944197634989,-0.30967065066711374,-0.33186575225259973,0.9778540721366831,0.2564668536213077,-0.07984986010081763
10539,3.0,298.65072999999995,2760.9883,0.0,0.0,0.0,0.10687751316196076,0.0,0.0,-0.15000738112457584,-0.3171896858166847,-0.3720744242483866,0.9563246252043921,0.24568960131767578,-0.08729251139160012
10540,3.0,300.22424,3225.4372,0.0,0.0,0.0,0.10688765430563303,0.0,0.0,-0.2033977783087978,-0.37502226263181565,-0.4020323286925016,0.9609879973321311,0.22187527540988478,-0.11376802520302991
10541,3.0,299.957,3007.8417,0.0,0.0,0.0,0.10689779544930529,0.0,0.0,-0.23443835061726379,-0.3210949340871027,-0.3587754862883837,0.9784261734081451,0.24248625165652976,-0.09514637199696581
10542,3.0,300.42112000000003,2757.2049,0.0,0.0,0.0,0.10690793659297755,0.0,0.0,-0.16935650635918584,-0.3288278562002827,-0.3399370796341777,0.97505341846278,0.25369936362317774,-0.11463725193381588
10543,3.0,300.13445,2833.2261,0.0,0.0,0.0,0.10691807773664981,0.0,0.0,-0.18110376324854982,-0.3220866728874797,-0.35803953234325064,0.968219431573318,0.21965534576579476,-0.07914699485095021
10544,3.0,300.42045,2837.9608,0.0,0.0,0.0,0.10692821888032207,0.0,0.0,-0.14676213357179485,-0.3297002544038817,-0.38620684147564766,0.9607276731164391,0.2171436710204118,-0.0938053669003689
10545,3.0,299.68584,2999.4763,0.0,0.0,0.0,0.10693836002399433,0.0,0.0,-0.14646392393486385,-0.35020856815039464,-0.4150933859265276,0.9765218407727021,0.2302229566237368,-0.08244289072322983
10546,3.0,300.37366000000003,3043.5181,0.0,0.0,0.0,0.1069485011676666,0.0,0.0,-0.18091781159019782,-0.3532488960029517,-0.39098680829239363,0.9994727053427761,0.2631164391250707,-0.07634302480946993
10547,3.0,299.95511,2863.7007,0.0,0.0,0.0,0.10695864231133885,0.0,0.0,-0.21106578148807079,-0.3438710738099327,-0.3155566610280177,0.9627199457280612,0.2336380552907808,-0.06277006450567303
10548,3.0,298.83218,2796.1786,0.0,0.0,0.0,0.10696878345501112,0.0,0.0,-0.19637419206062381,-0.34621530897629066,-0.3073789727834427,0.9705123456221111,0.23849940635555875,-0.13365961414367689
10549,3.0,299.84029,3269.0591,0.0,0.0,0.0,0.10697892459868337,0.0,0.0,-0.2508618884406408,-0.33948905083746067,-0.4033613987161706,0.961161546809259,0.24838884892157076,-0.042014815630289463
10550,3.0,300.87732,3267.9421,0.0,0.0,0.0,0.10698906574235564,0.0,0.0,-0.22078028642431777,-0.36083280955642566,-0.41175970190501865,0.9826390241439211,0.2787727642377297,-0.08967551249353402
10551,3.0,299.72562,2870.487,0.0,0.0,0.0,0.1069992068860279,0.0,0.0,-0.13786329496604788,-0.32119275325175667,-0.4135003338543056,0.9521843130432751,0.24377620009383777,-0.03982512238243356
10552,3.0,301.31473,2925.9363,0.0,0.0,0.0,0.10700934802970016,0.0,0.0,-0.17911902921767184,-0.3393605909897827,-0.37093195436313364,0.943022211796546,0.25703741475261777,-0.1171359064154139
10553,3.0,301.1819,3193.5626,0.0,0.0,0.0,0.10701948917337242,0.0,0.0,-0.24045996423905078,-0.3287678211318577,-0.40153550177096864,0.9785205272574571,0.25224518760966175,-0.03134595575610497
10554,3.0,300.6479,2968.6152,0.0,0.0,0.0,0.10702963031704468,0.0,0.0,-0.2213029410908998,-0.32541708411116566,-0.35566487940889063,1.002648950563747,0.24895250981969974,-0.11507689101970488
10555,3.0,300.60211,2954.9762,0.0,0.0,0.0,0.10703977146071694,0.0,0.0,-0.1926278315383868,-0.3344824706358497,-0.3711286667375477,1.0019204034768452,0.21917170122806282,-0.04513818034179155
10556,3.0,299.70383,2861.3488,0.0,0.0,0.0,0.10704991260438922,0.0,0.0,-0.13760130902019185,-0.3357842133043217,-0.3963930751284506,0.979723376716169,0.2131082099796428,-0.12125793954472688
10557,3.0,299.73318,2799.3044,0.0,0.0,0.0,0.10706005374806146,0.0,0.0,-0.13698182817405388,-0.3378697150576447,-0.37606708560493163,0.985573761203557,0.25419515702960876,-0.06739171606054453
10558,3.0,300.36674,2831.24,0.0,0.0,0.0,0.10707019489173374,0.0,0.0,-0.1799199324942148,-0.3253115541132507,-0.3553947671972327,0.960497847728757,0.24712310702915175,-0.1122662061698119
10559,3.0,300.79937,3069.6826,0.0,0.0,0.0,0.10708033603540598,0.0,0.0,-0.25137855479913174,-0.3208959418999637,-0.36083236372638167,0.9641388606380972,0.24181973574074975,-0.07828479298310752
10560,3.0,300.33981,2880.6494,0.0,0.0,0.0,0.10709047717907826,0.0,0.0,-0.18879710781282383,-0.33925715841957466,-0.34759121141958166,0.9388443384542221,0.2275397589014258,-0.13806469868842486
10561,3.0,300.24859,2832.8866,0.0,0.0,0.0,0.10710061832275052,0.0,0.0,-0.17556871232478283,-0.32978173997692367,-0.35577634705239164,0.9767185227496131,0.2545334508404957,-0.08214366884944892
10562,3.0,299.40569,3099.05,0.0,0.0,0.0,0.10711075946642278,0.0,0.0,-0.17127930041145084,-0.3463605685106267,-0.4243939579319226,0.958229484729887,0.26748978867668677,-0.09088838907523561
10563,3.0,300.06192000000004,3074.8024,0.0,0.0,0.0,0.10712090061009504,0.0,0.0,-0.19241641690502181,-0.3229845745960957,-0.4192621501504526,0.97649993430554,0.24623670570917078,-0.051132859749420355
10564,3.0,298.93531,2827.9959,0.0,0.0,0.0,0.1071310417537673,0.0,0.0,-0.17158649757676883,-0.33617916806080067,-0.35187447290480667,0.985041359071013,0.24779736417569576,-0.09113522389234632
10565,3.0,300.19543999999996,2883.2787,0.0,0.0,0.0,0.10714118289743955,0.0,0.0,-0.23638138940652678,-0.2905694373344707,-0.3494939025898627,0.981078821639941,0.2549351943726448,-0.04435875898061866
10566,3.0,300.84562999999997,3075.1247,0.0,0.0,0.0,0.10715132404111183,0.0,0.0,-0.2183026467497938,-0.34375263500574366,-0.37270585131320366,0.9989874497373851,0.23849022630965275,-0.08262885960683351
10567,3.0,300.85137000000003,3164.848,0.0,0.0,0.0,0.10716146518478407,0.0,0.0,-0.22940069403508578,-0.3423315821379967,-0.39030248957235664,0.9704915334650571,0.1928044916933218,-0.06643025621290584
10568,3.0,300.64248,3177.4341,0.0,0.0,0.0,0.10717160632845635,0.0,0.0,-0.16050130843524585,-0.3554669815318596,-0.44989232577091554,0.9746098986290082,0.2220900236360788,-0.1132617953205689
10569,3.0,300.79837000000003,2914.1609,0.0,0.0,0.0,0.1071817474721286,0.0,0.0,-0.18165503209795583,-0.3228516463154767,-0.3813254584563926,0.980699318947487,0.25953427578153876,-0.050670488397537856
10570,3.0,300.16958,2625.9979,0.0,0.0,0.0,0.10719188861580087,0.0,0.0,-0.15444677431770984,-0.2898078481618077,-0.3539831679529187,0.9765969428701141,0.3021492242473067,-0.07013415446320213
10571,3.0,299.98106,3033.8912,0.0,0.0,0.0,0.10720202975947313,0.0,0.0,-0.25858095942495374,-0.2927258057997877,-0.37092040331199366,0.933127429402507,0.25570800022391477,-0.05240716664493465
10572,3.0,300.13275,3307.3544,0.0,0.0,0.0,0.10721217090314539,0.0,0.0,-0.22670869116940578,-0.3701930518602096,-0.40845142006351665,0.957893602454238,0.23674031298944978,-0.0944142765082136
10573,3.0,300.67427000000004,3027.8337,0.0,0.0,0.0,0.10722231204681765,0.0,0.0,-0.2001939118901008,-0.33456563820405766,-0.3856262896983516,0.9683029132490572,0.24873301958303778,-0.09115751032829582
10574,3.0,300.24582999999996,2795.1261,0.0,0.0,0.0,0.10723245319048991,0.0,0.0,-0.1102454612303799,-0.3355051338292787,-0.4038979349091226,0.9772149342386051,0.2486503991698838,-0.11313427779548388
10575,3.0,299.12865,2959.4995,0.0,0.0,0.0,0.10724259433416217,0.0,0.0,-0.20185837782937083,-0.33712174396632566,-0.3606338275017877,0.9557343867561402,0.2260159827385408,-0.08518429358428523
10576,3.0,300.04801000000003,3112.0874,0.0,0.0,0.0,0.10725273547783444,0.0,0.0,-0.2256694816018438,-0.34793844209635066,-0.37238892694692566,0.949944412239714,0.2341296234442948,-0.0978298463365541
10577,3.0,299.92249,2897.5639,0.0,0.0,0.0,0.10726287662150669,0.0,0.0,-0.2110866240426278,-0.3504040342271857,-0.31929643542460473,0.990055021890823,0.24864972029231674,-0.08100481728030302
10578,3.0,299.62284,2738.3248,0.0,0.0,0.0,0.10727301776517896,0.0,0.0,-0.17696825389290682,-0.31582439210194074,-0.33958971723489567,1.003594323039548,0.25306461309803274,-0.07628385910963073
10579,3.0,301.2922,2802.9551,0.0,0.0,0.0,0.1072831589088512,0.0,0.0,-0.16162566140871085,-0.3174273942901447,-0.37297529477979563,0.966423486301072,0.23671895367734175,-0.06873467875633464
10580,3.0,300.15461,2897.8373,0.0,0.0,0.0,0.10729330005252348,0.0,0.0,-0.14814863461113187,-0.35304614465794165,-0.3796754009335446,0.9752119110434221,0.23213107881455375,-0.12850085390954688
10581,3.0,299.62914,3228.4295,0.0,0.0,0.0,0.10730344119619575,0.0,0.0,-0.23471766313982975,-0.32713079400529566,-0.41951348683775763,0.985387941267718,0.27889675565246674,-0.05634794858310954
10582,3.0,300.44847000000004,3106.4320000000002,0.0,0.0,0.0,0.107313582339868,0.0,0.0,-0.1997865245548948,-0.35925878632108166,-0.38523244951698266,0.9909662275732521,0.26542218092012976,-0.07816245316603351
10583,3.0,299.63004,2741.6089,0.0,0.0,0.0,0.10732372348354027,0.0,0.0,-0.1989731481696208,-0.3052593954292567,-0.32914809389438765,0.9379767329235962,0.26171963333221676,-0.06382498350278544
10584,3.0,299.4317,3070.5507,0.0,0.0,0.0,0.10733386462721252,0.0,0.0,-0.21780794765347078,-0.35427374781659665,-0.36128903554645164,0.9300870508874451,0.25229434037201276,-0.0990859258760195
10585,3.0,300.31914,3187.192,0.0,0.0,0.0,0.10734400577088479,0.0,0.0,-0.19574857091887982,-0.3678837636898007,-0.40519443907457764,0.9596621190462771,0.2631298950863988,-0.08499435377353962
10586,3.0,299.78719,2672.7979,0.0,0.0,0.0,0.10735414691455705,0.0,0.0,-0.12168677738454987,-0.3124770190715807,-0.3783000355128066,0.991738476136967,0.2577544817158867,-0.0994933263834768
10587,3.0,299.98745,2651.9723,0.0,0.0,0.0,0.10736428805822931,0.0,0.0,-0.17681002475729082,-0.3127248195160367,-0.3165985151783407,0.9914029181013501,0.2196631680565668,-0.08576926515851742
10588,3.0,301.01133,2877.3798,0.0,0.0,0.0,0.10737442920190157,0.0,0.0,-0.18962833766485984,-0.32026012746221366,-0.3647631458993197,0.992294152624308,0.2093733701110428,-0.09326465105075442
10589,3.0,300.8029,2986.575,0.0,0.0,0.0,0.10738457034557382,0.0,0.0,-0.2220604671306618,-0.3188446981325217,-0.36693904982656467,0.990286731923691,0.23045050219869379,-0.06982793103123022
10590,3.0,301.14007999999995,2985.5093,0.0,0.0,0.0,0.10739471148924609,0.0,0.0,-0.17566566009435083,-0.33822666280287267,-0.3936279460030536,0.986932033095108,0.22626441139805878,-0.07672070669149424
10591,3.0,299.99905,3071.5213,0.0,0.0,0.0,0.10740485263291837,0.0,0.0,-0.17580774815587383,-0.33599710728283266,-0.42186091374193063,0.975936597647443,0.23816489196754478,-0.05994904754451035
10592,3.0,300.68945,3024.2647,0.0,0.0,0.0,0.10741499377659061,0.0,0.0,-0.18466388840240683,-0.33276735232408067,-0.4018697121839526,0.9529510292614441,0.26426075312550573,-0.09268593933564001
10593,3.0,300.63184,2977.3459999999995,0.0,0.0,0.0,0.10742513492026289,0.0,0.0,-0.2152161045601758,-0.33547254770606266,-0.35435019753664165,0.9738263827241811,0.2798884843203427,-0.08014143902909422
10594,3.0,299.30241,3030.8868,0.0,0.0,0.0,0.10743527606393513,0.0,0.0,-0.22827103163109677,-0.3281303854939477,-0.3649124888315587,0.9512430644953812,0.28273154251093074,-0.05830292649830085
10595,3.0,300.44157,2976.1545,0.0,0.0,0.0,0.1074454172076074,0.0,0.0,-0.2403499658081948,-0.33852712185502565,-0.32579956575891367,0.9655800873153352,0.25350938936192874,-0.08143984405173682
10596,3.0,299.5018,2839.953,0.0,0.0,0.0,0.10745555835127966,0.0,0.0,-0.16732277155347183,-0.33698317188264965,-0.35896883467246565,0.970486446949555,0.23494450957221777,-0.08106129280112671
10597,3.0,299.11257,3054.4627,0.0,0.0,0.0,0.10746569949495192,0.0,0.0,-0.17515480979143383,-0.3687067355535216,-0.3846188556539257,1.012760163179146,0.26191779465427373,-0.1129133892736839
10598,3.0,300.54819,3120.9789,0.0,0.0,0.0,0.10747584063862418,0.0,0.0,-0.17644396789366384,-0.35746922452446567,-0.41478647247123757,1.008626031843639,0.2302709137509698,-0.05824524824960845
10599,3.0,300.06495,2738.3656,0.0,0.0,0.0,0.10748598178229644,0.0,0.0,-0.1872424376543898,-0.32296132050630066,-0.3221910072502767,0.9949716761460591,0.22920309000058378,-0.1057941724810719
10600,3.0,299.89182,2908.2848,0.0,0.0,0.0,0.10749612292596869,0.0,0.0,-0.17808824989094182,-0.3298435482330237,-0.37611417133707864,0.966653139436237,0.22235831199755682,-0.055198124528630745
10601,3.0,301.05211,3149.1605,0.0,0.0,0.0,0.10750626406964098,0.0,0.0,-0.2551266783765428,-0.33785126377332364,-0.3642882051799467,0.964487834105038,0.25529625591327876,-0.09112552404913901
10602,3.0,299.97645,2932.1507,0.0,0.0,0.0,0.10751640521331322,0.0,0.0,-0.13693476270690888,-0.3408708402638327,-0.4134950041587796,0.944960184335309,0.26299029962012177,-0.02981347070861047
10603,3.0,300.21519,2862.1409,0.0,0.0,0.0,0.1075265463569855,0.0,0.0,-0.16578616764432083,-0.33674363955900966,-0.36748954860589467,0.9542563284377671,0.25132378863122673,-0.11516564159596387
10604,3.0,301.23742000000004,3214.8519,0.0,0.0,0.0,0.10753668750065774,0.0,0.0,-0.2082876827613938,-0.34231496483635665,-0.4266320551503056,0.967831721555054,0.2698682210339198,-0.06354771977192164
10605,3.0,300.04941,3015.0209999999997,0.0,0.0,0.0,0.10754682864433002,0.0,0.0,-0.22902259976027076,-0.33908197760978565,-0.3483865316880737,0.9828214294269231,0.2646794685968297,-0.10483205098111789
10606,3.0,300.84954,3031.1437,0.0,0.0,0.0,0.10755696978800228,0.0,0.0,-0.21957183369255276,-0.3400131747166877,-0.36180698873256967,1.004527080551604,0.26725398511341475,-0.060590215995788746
10607,3.0,300.94219,3033.5762,0.0,0.0,0.0,0.10756711093167454,0.0,0.0,-0.23602218211357576,-0.3229315208208597,-0.36317771346784966,0.9633261327328871,0.23400867177985776,-0.08260518299174682
10608,3.0,300.18796000000003,2750.8897,0.0,0.0,0.0,0.1075772520753468,0.0,0.0,-0.14285163666585887,-0.3062414475586777,-0.38710869485965366,0.959476917192999,0.24291899050923776,-0.07581730708783563
10609,3.0,301.00397000000004,2924.5777,0.0,0.0,0.0,0.10758739321901906,0.0,0.0,-0.15547335878902585,-0.34953799923421464,-0.38398723607158963,0.9770978835870532,0.23857265420528778,-0.1017600590629359
10610,3.0,299.80949,3171.1895,0.0,0.0,0.0,0.10759753436269132,0.0,0.0,-0.2081659204968768,-0.33729758338867966,-0.4184989296451286,0.9941642982013771,0.26402915455014875,-0.06145174202581474
10611,3.0,299.22889,3137.8638,0.0,0.0,0.0,0.10760767550636358,0.0,0.0,-0.21708150812677682,-0.36224531059332865,-0.37450542402080766,0.986899902934437,0.22868105341656278,-0.1087667037694379
10612,3.0,299.88822000000005,2957.1966,0.0,0.0,0.0,0.10761781665003584,0.0,0.0,-0.20176159217981882,-0.33288797974848566,-0.36426434314009165,0.970269044008099,0.2445466653373768,-0.06736764529116894
10613,3.0,299.61517000000003,2967.0524,0.0,0.0,0.0,0.1076279577937081,0.0,0.0,-0.1982171825350128,-0.33760968468448166,-0.36608298521457766,0.9521073060356752,0.2485141980914418,-0.0960284528185204
10614,3.0,298.91443,3077.8719,0.0,0.0,0.0,0.10763809893738036,0.0,0.0,-0.16283124664269283,-0.3399851684839237,-0.43277978801203965,0.9826536656078662,0.26336045001415276,-0.05507670980889805
10615,3.0,300.01518,2964.3277,0.0,0.0,0.0,0.10764824008105262,0.0,0.0,-0.15732867038463083,-0.3347560076328457,-0.4089969133873526,0.9644482362911301,0.25354897704333573,-0.1154366859977139
10616,3.0,299.56129,2872.1998,0.0,0.0,0.0,0.10765838122472488,0.0,0.0,-0.18189727993186383,-0.31454511318818573,-0.37663461711844265,0.9667401370898232,0.2518531510134708,-0.07978700414411422
10617,3.0,299.45954,2929.4073,0.0,0.0,0.0,0.10766852236839715,0.0,0.0,-0.2068799541324618,-0.3202177634755327,-0.36336893402672166,0.9642654155755872,0.25317214933114573,-0.1136220563936239
10618,3.0,300.90712,2847.0240000000003,0.0,0.0,0.0,0.1076786635120694,0.0,0.0,-0.2055360805248318,-0.30040269518243773,-0.35948544023595064,0.983448155011276,0.26490438985402776,-0.07358587705511063
10619,3.0,301.21026,3123.8961,0.0,0.0,0.0,0.10768880465574167,0.0,0.0,-0.2146633057031188,-0.3424958502442087,-0.39242725476705465,0.969955503897155,0.2378836846672918,-0.0949225430233756
10620,3.0,301.16152,3257.2283,0.0,0.0,0.0,0.10769894579941391,0.0,0.0,-0.1960415420527938,-0.3638446346836697,-0.43022989347288454,0.967156613278426,0.24175780589463777,-0.08198616824065483
10621,3.0,301.09394,2892.4941,0.0,0.0,0.0,0.10770908694308619,0.0,0.0,-0.17050406275994082,-0.3243742977707507,-0.38436763042413163,0.99585848276608,0.24925703200475374,-0.06967813821594684
10622,3.0,301.19579,3007.4393,0.0,0.0,0.0,0.10771922808675843,0.0,0.0,-0.18133293002366682,-0.34609913985232565,-0.3867543714321846,0.997841403079279,0.2649776579687588,-0.061597558847705736
10623,3.0,299.14455,3225.8542,0.0,0.0,0.0,0.10772936923043071,0.0,0.0,-0.23194786293147177,-0.3561228481890886,-0.39250841610006465,0.9978013594353271,0.23333366482823978,-0.06358590612844034
10624,3.0,300.47303999999997,2999.5309,0.0,0.0,0.0,0.10773951037410295,0.0,0.0,-0.22380352074768778,-0.30118909885004974,-0.3867898655831876,0.981312993870552,0.2326931691750278,-0.07287857174330503
10625,3.0,300.07013,2717.974,0.0,0.0,0.0,0.10774965151777523,0.0,0.0,-0.18142029244728883,-0.30273463962508274,-0.34204128598434663,0.9851565656073831,0.2555970290729628,-0.09358112452073791
10626,3.0,299.66718,2748.6897,0.0,0.0,0.0,0.10775979266144749,0.0,0.0,-0.12709127103293189,-0.2988349743627157,-0.40960678862254263,0.9886939939590002,0.2681095127028488,-0.08141446720298233
10627,3.0,299.36841,2976.7983,0.0,0.0,0.0,0.10776993380511975,0.0,0.0,-0.20159168027054983,-0.3220945255757547,-0.3811861365676426,0.9771965032192861,0.2570211419560118,-0.09904863523258921
10628,3.0,300.61465,3189.5822,0.0,0.0,0.0,0.107780074948792,0.0,0.0,-0.20829654869976882,-0.3621821141845916,-0.39907468204810465,0.9538565404783111,0.2438581416294248,-0.10732454490210791
10629,3.0,299.76887999999997,3111.2833,0.0,0.0,0.0,0.10779021609246427,0.0,0.0,-0.24899203670610076,-0.35124587280776864,-0.34551452494212864,0.9815753749839471,0.2531697276634068,-0.0988615142836218
10630,3.0,299.32932999999997,2912.9554,0.0,0.0,0.0,0.10780035723613653,0.0,0.0,-0.19936130401792881,-0.32879322331186467,-0.35731116764136667,0.961628928682886,0.26427595187700575,-0.06229687873547324
10631,3.0,299.29152,2930.0004,0.0,0.0,0.0,0.1078104983798088,0.0,0.0,-0.16807227265244185,-0.36238983045509165,-0.36018486651497866,0.9649052424837331,0.2241960133064238,-0.10900418932787591
10632,3.0,300.45218,3203.7769,0.0,0.0,0.0,0.10782063952348105,0.0,0.0,-0.18593403793276084,-0.34989121821907465,-0.4380429332714716,0.9607032233915261,0.21536326900469976,-0.061593796650084444
10633,3.0,301.46136,3081.8304,0.0,0.0,0.0,0.10783078066715332,0.0,0.0,-0.2018579117343248,-0.3447780441069437,-0.39016353245364266,0.988805157627471,0.25441118195092877,-0.07620839933493342
10634,3.0,301.17152999999996,2523.2448,0.0,0.0,0.0,0.10784092181082557,0.0,0.0,-0.12930680317158788,-0.2885746923926047,-0.3491219080806497,1.001530423778357,0.27378127133010777,-0.04875996987023436
10635,3.0,300.17291,2527.9339999999997,0.0,0.0,0.0,0.10785106295449784,0.0,0.0,-0.16430735952087383,-0.28199741241597776,-0.3221240516836687,0.9857001540210311,0.25382893804596574,-0.09329816531106201
10636,3.0,300.34274,3213.0859,0.0,0.0,0.0,0.1078612040981701,0.0,0.0,-0.23590787736979477,-0.34425320082014566,-0.39653680465513563,0.9504974340117932,0.2309184514923768,-0.0928131741639471
10637,3.0,299.48803,3347.5325,0.0,0.0,0.0,0.10787134524184236,0.0,0.0,-0.2319942799185528,-0.3585999508410596,-0.42697206135386157,0.98505926320028,0.2518835586489718,-0.10124289418539571
10638,3.0,299.65715,3052.5137,0.0,0.0,0.0,0.10788148638551462,0.0,0.0,-0.17201723019427884,-0.3669752329876357,-0.38889550061599765,0.9527408507932011,0.26616098209804373,-0.07384176323536464
10639,3.0,299.43419,2908.8583,0.0,0.0,0.0,0.10789162752918688,0.0,0.0,-0.19505230598016382,-0.3225789503160637,-0.3665890225795197,0.9646077522543731,0.23423517370721178,-0.09599640169135722
10640,3.0,299.19035,3011.7852,0.0,0.0,0.0,0.10790176867285914,0.0,0.0,-0.20183401929696682,-0.3197332171452117,-0.39394026008137667,0.973892456763202,0.24367355785870778,-0.07352253777810953
10641,3.0,299.31015,3104.9195,0.0,0.0,0.0,0.10791190981653141,0.0,0.0,-0.23739282578884777,-0.36094324368482467,-0.34548194895141365,1.010551369153655,0.2717902551486097,-0.08213970501505771
10642,3.0,300.39358,3197.4722,0.0,0.0,0.0,0.10792205096020366,0.0,0.0,-0.2185710060387788,-0.34043207257302965,-0.4129486394398576,1.0189273403102992,0.26664562975337475,-0.04190434198513656
10643,3.0,299.73476,2742.2134,0.0,0.0,0.0,0.10793219210387593,0.0,0.0,-0.15270116731043187,-0.3045864960378467,-0.37627673718312266,0.9710391951441071,0.2242043219572438,-0.08056575676022112
10644,3.0,300.97528,2600.5016,0.0,0.0,0.0,0.10794233324754818,0.0,0.0,-0.1115936715484379,-0.3342353794664637,-0.34465850086014566,0.9554010984007472,0.2118465616176278,-0.10548002442006792
10645,3.0,299.92241,3100.9429999999998,0.0,0.0,0.0,0.10795247439122045,0.0,0.0,-0.21241992945171478,-0.33037797686576764,-0.39981133513580663,0.978726024510238,0.24531024048023575,-0.07820739486096892
10646,3.0,299.97148,3384.6957,0.0,0.0,0.0,0.10796261553489273,0.0,0.0,-0.24881650125877677,-0.37228494722166366,-0.4077615082029276,0.998480865217389,0.2901018832083267,-0.10228671606741291
10647,3.0,300.10962,2953.2312,0.0,0.0,0.0,0.10797275667856497,0.0,0.0,-0.2181993357695978,-0.3374955217957147,-0.34201369518412367,0.9546584164749501,0.24981559625487976,-0.1004042047861235
10648,3.0,300.13119,2614.1405,0.0,0.0,0.0,0.10798289782223724,0.0,0.0,-0.15627569074820988,-0.3062675286162517,-0.33209020741475165,0.95083562649767,0.25901665696795373,-0.11971873158281889
10649,3.0,300.0571,2940.8231,0.0,0.0,0.0,0.10799303896590949,0.0,0.0,-0.16943823511225184,-0.34554486165012266,-0.37895370341731865,0.957236844136921,0.25720660725431577,-0.06151020959633504
10650,3.0,300.72651,3139.3235,0.0,0.0,0.0,0.10800318010958178,0.0,0.0,-0.21321939391311578,-0.32983804628498065,-0.4112185047616066,0.998831936112037,0.25972159532752576,-0.07234532456017764
10651,3.0,299.67287999999996,3093.4165,0.0,0.0,0.0,0.10801332125325402,0.0,0.0,-0.19582663170658382,-0.3416472127554547,-0.4028475289279556,0.9632020095956371,0.23164954183702977,-0.04929472274301036
10652,3.0,300.0749,2802.8418,0.0,0.0,0.0,0.10802346239692627,0.0,0.0,-0.17528995708977183,-0.3212856378884237,-0.3554183252620577,1.0000783147950452,0.22734057419676781,-0.0902266749516795
10653,3.0,299.51205,2612.9347,0.0,0.0,0.0,0.10803360354059854,0.0,0.0,-0.17384163766183383,-0.2934539881166537,-0.32697127804205267,0.9977525511780101,0.24578226303932077,-0.05720678443412004
10654,3.0,299.40538,2905.2102,0.0,0.0,0.0,0.10804374468427079,0.0,0.0,-0.18089495266794184,-0.33243926194170065,-0.36977713295916165,1.002471682458752,0.24546040414505577,-0.10028255803211791
10655,3.0,300.601,3499.6663,0.0,0.0,0.0,0.10805388582794306,0.0,0.0,-0.24614973845308774,-0.35465837755455665,-0.46300307278984554,0.980926854389943,0.2144791778949468,-0.07037437377040993
10656,3.0,300.36122,3141.0028,0.0,0.0,0.0,0.10806402697161534,0.0,0.0,-0.19512644548998082,-0.3490133079349317,-0.4106466669351706,0.9687395632471512,0.25527113744329977,-0.1050229270349559
10657,3.0,300.07009,2539.8384,0.0,0.0,0.0,0.10807416811528758,0.0,0.0,-0.14373363034790487,-0.3073524154983217,-0.3209614181214257,0.975764020890411,0.26486106327975173,-0.08362204431510321
10658,3.0,299.91774,2825.8934,0.0,0.0,0.0,0.10808430925895986,0.0,0.0,-0.18067059883079983,-0.31481499235232074,-0.3635154297261797,0.9917238346730219,0.2795422466286718,-0.08328000249209633
10659,3.0,300.55942000000005,3226.7627,0.0,0.0,0.0,0.1080944504026321,0.0,0.0,-0.24160881759993375,-0.35049255175592164,-0.3887539191795246,0.972947428792435,0.25257923590262976,-0.08350168641522482
10660,3.0,301.07885,3112.5169,0.0,0.0,0.0,0.10810459154630438,0.0,0.0,-0.1863703231608188,-0.36526502893885165,-0.39449205582083463,0.968331780744406,0.2499837045789708,-0.1046165225523469
10661,3.0,300.74012999999997,2652.2197,0.0,0.0,0.0,0.10811473268997664,0.0,0.0,-0.14430908547719787,-0.3008210357512247,-0.36107845177816866,0.9782184774026471,0.2580700179295278,-0.05847664417494544
10662,3.0,299.47739,2683.382,0.0,0.0,0.0,0.1081248738336489,0.0,0.0,-0.14736741878403187,-0.3205290035087497,-0.34778469152617664,0.980922791257042,0.26212446727717076,-0.08029679256092642
10663,3.0,299.13749,3193.9188,0.0,0.0,0.0,0.10813501497732116,0.0,0.0,-0.21065538480006782,-0.34802129555702765,-0.4121948725579666,0.9780182389178851,0.2164490576793588,-0.08924215353176482
10664,3.0,299.80125,3377.3070000000002,0.0,0.0,0.0,0.10814515612099342,0.0,0.0,-0.24437247751268576,-0.3838647341344996,-0.3983797951295246,0.9871027150744531,0.24508472140547877,-0.11375676799441889
10665,3.0,301.09836,3080.968,0.0,0.0,0.0,0.10815529726466568,0.0,0.0,-0.2098475610253418,-0.3621580190972136,-0.36453174997398263,0.994225265459894,0.25553135020148077,-0.08213846682343552
10666,3.0,300.96815,2642.2213,0.0,0.0,0.0,0.10816543840833795,0.0,0.0,-0.13467464756385286,-0.3001928409542267,-0.36830181041605864,0.9710565622508212,0.2401208294305808,-0.08318597085631613
10667,3.0,300.8245,2887.093,0.0,0.0,0.0,0.1081755795520102,0.0,0.0,-0.18493728354438885,-0.3155065659430737,-0.37716034193282766,0.9634716861097521,0.22092223263082678,-0.07897599572432393
10668,3.0,301.36091,3458.0608,0.0,0.0,0.0,0.10818572069568247,0.0,0.0,-0.2545738389894817,-0.34955849728373767,-0.4470317890161026,0.949284188607055,0.2422007887058568,-0.06865043916952084
10669,3.0,301.4113,3195.1925,0.0,0.0,0.0,0.10819586183935472,0.0,0.0,-0.2422392010171478,-0.3337859625171097,-0.39523358264151764,0.975369876734012,0.27079569951295474,-0.07282139404016202
10670,3.0,300.89853999999997,2619.6381,0.0,0.0,0.0,0.10820600298302699,0.0,0.0,-0.19020118874139583,-0.28646257255915475,-0.31964078847108973,0.9801207835378901,0.25285628887747275,-0.06334357216827385
10671,3.0,300.38866,2859.9322,0.0,0.0,0.0,0.10821614412669925,0.0,0.0,-0.19152536476708182,-0.30751145523401774,-0.3703111461593646,0.9738292198244611,0.25150403569151575,-0.06979073360680914
10672,3.0,300.05924,3358.4629,0.0,0.0,0.0,0.10822628527037151,0.0,0.0,-0.2151418130628438,-0.3929748353860966,-0.4127722021999446,0.9836119063599371,0.26049290156864774,-0.09348458002470972
10673,3.0,299.76262,3304.0245,0.0,0.0,0.0,0.10823642641404377,0.0,0.0,-0.2051803284147218,-0.35542881240059265,-0.4437318056929196,0.983313879108024,0.2827635308165877,-0.07623403354921333
10674,3.0,300.77914,3049.6765,0.0,0.0,0.0,0.10824656755771603,0.0,0.0,-0.20630343509056379,-0.3320692128726797,-0.38865285761455065,0.9655512502174891,0.25898398978472975,-0.08593794799541511
10675,3.0,301.06046000000003,2705.966,0.0,0.0,0.0,0.10825670870138829,0.0,0.0,-0.16018975429449786,-0.3093619032291427,-0.3529944385053387,0.9757171580732861,0.2319413072033248,-0.1028509139880949
10676,3.0,299.8498,2850.7422,0.0,0.0,0.0,0.10826684984506056,0.0,0.0,-0.1962739714932328,-0.34946655496966367,-0.3208139193043687,1.003512077528931,0.23952220127150076,-0.1029930223146199
10677,3.0,299.32022,3180.9453,0.0,0.0,0.0,0.10827699098873281,0.0,0.0,-0.21059862252946582,-0.35977303101183367,-0.3965562894545586,1.010028471307049,0.26207581100736876,-0.07057512495972253
10678,3.0,299.18037999999996,3046.183,0.0,0.0,0.0,0.10828713213240508,0.0,0.0,-0.19186901867099782,-0.3363942101295237,-0.3977003298774666,1.001262510319416,0.23991403521767174,-0.07078071543151274
10679,3.0,298.48926,2493.8859,0.0,0.0,0.0,0.10829727327607733,0.0,0.0,-0.12972777819063488,-0.2757331355277417,-0.35261812755069966,0.978556173395975,0.2279482000167358,-0.05799026487519354
10680,3.0,299.06792,2650.2982,0.0,0.0,0.0,0.1083074144197496,0.0,0.0,-0.13311155729708787,-0.31817787824171173,-0.3543350291826447,0.985807943566669,0.24978200701406478,-0.11882582519719588
10681,3.0,300.59443,3404.3936,0.0,0.0,0.0,0.10831755556342186,0.0,0.0,-0.25055110436996875,-0.36367174381910666,-0.4206277985027316,0.985581330181804,0.27586864759611573,-0.06855821618516914
10682,3.0,299.72868,3459.1814,0.0,0.0,0.0,0.10832769670709412,0.0,0.0,-0.26091534580033976,-0.36533471014822866,-0.4252547240243736,0.971131603553227,0.24116606783623776,-0.09542002349122311
10683,3.0,299.63343,3104.5848,0.0,0.0,0.0,0.10833783785076638,0.0,0.0,-0.2149468333461008,-0.34329751345832665,-0.3854719109131156,0.9605374455426652,0.2183957441689818,-0.07249578308077673
10684,3.0,299.88142999999997,2735.5886,0.0,0.0,0.0,0.10834797899443864,0.0,0.0,-0.16674571548902084,-0.29731255595496475,-0.36749236544117264,0.9735379914807191,0.23680852498618177,-0.08542671265746012
10685,3.0,299.70408,2806.672,0.0,0.0,0.0,0.1083581201381109,0.0,0.0,-0.16950834188667083,-0.33080935796334165,-0.35284048528514467,0.9839627543395629,0.25322042056590977,-0.058898016388031646
10686,3.0,299.29049,3116.2295,0.0,0.0,0.0,0.10836826128178317,0.0,0.0,-0.19033333681943782,-0.3339456304678677,-0.42297698846207865,0.9869008756545331,0.25285421171476774,-0.0985304733169506
10687,3.0,299.51015,3276.9914,0.0,0.0,0.0,0.10837840242545542,0.0,0.0,-0.2355198127139958,-0.36056153210715264,-0.4000422143035926,0.963839931593595,0.2484298450206168,-0.08309902285198502
10688,3.0,299.72541,2731.2423,0.0,0.0,0.0,0.1083885435691277,0.0,0.0,-0.17274399396100484,-0.3424688369965427,-0.31501663925472173,0.9975948084024421,0.25318714543262577,-0.10987208870103089
10689,3.0,300.1119,2667.7725,0.0,0.0,0.0,0.10839868471279994,0.0,0.0,-0.15140855402536085,-0.3083612072978817,-0.35116647452993266,0.9932552608741622,0.26294397382554974,-0.060795553155053944
10690,3.0,300.82952,3363.7647,0.0,0.0,0.0,0.10840882585647221,0.0,0.0,-0.23483036694845277,-0.37299561044430063,-0.4146745083351876,0.9867943830690231,0.2348382804317338,-0.057372151916690546
10691,3.0,301.35672,3609.9,0.0,0.0,0.0,0.10841896700014449,0.0,0.0,-0.23872012262484177,-0.3711662583162576,-0.48743307985589956,0.972716397637134,0.2203808328373948,-0.05926109530961474
10692,3.0,299.98591,2934.0925,0.0,0.0,0.0,0.10842910814381673,0.0,0.0,-0.16004115103483182,-0.34491527870048766,-0.38693442597495464,0.9797671491204891,0.24747778509415574,-0.1121096792943639
10693,3.0,300.65525,2619.8369,0.0,0.0,0.0,0.10843924928748899,0.0,0.0,-0.13673710800990185,-0.34218585650861466,-0.3174420458865907,0.984192214957209,0.28332662429466077,-0.1031512818477389
10694,3.0,300.23037999999997,2919.5549,0.0,0.0,0.0,0.10844939043116125,0.0,0.0,-0.2090868432477648,-0.3336923483403707,-0.34469257646100865,0.9665823132542471,0.2612618064070328,-0.11541678576574989
10695,3.0,300.01475,3078.8715,0.0,0.0,0.0,0.10845953157483351,0.0,0.0,-0.2160906407214858,-0.3441997924073747,-0.37560962344978366,0.9740422353929842,0.25827500855725877,-0.11584231027774589
10696,3.0,299.96432000000004,2947.2443,0.0,0.0,0.0,0.10846967271850579,0.0,0.0,-0.19213626338487283,-0.35116116509940865,-0.35259123589304564,0.983919741872818,0.2460068803214888,-0.08737806212404332
10697,3.0,300.67146,2559.3869,0.0,0.0,0.0,0.10847981386217803,0.0,0.0,-0.12915400505650787,-0.2990082603948177,-0.3498274442577807,0.99108708804518,0.2746428480226387,-0.06409343702402973
10698,3.0,299.9113,2629.7328,0.0,0.0,0.0,0.1084899550058503,0.0,0.0,-0.1096696717285539,-0.32659400449981874,-0.3631094508086127,0.9702519910089161,0.23444525085044476,-0.07267655095161712
10699,3.0,300.66443,3372.9995,0.0,0.0,0.0,0.10850009614952255,0.0,0.0,-0.24138790881313177,-0.36752968344235565,-0.4163900116819946,0.972083470962169,0.24844119342173673,-0.08246295814146032
10700,3.0,299.01749,3553.5364,0.0,0.0,0.0,0.10851023729319483,0.0,0.0,-0.26464577803100475,-0.37111664959136165,-0.4444239061737246,0.9908251628943301,0.24824815914518575,-0.07411769555559702
10701,3.0,300.2079,2986.2411,0.0,0.0,0.0,0.1085203784368671,0.0,0.0,-0.21617532816484378,-0.34165453855367767,-0.3499128511087096,1.006952081883433,0.26066967318109374,-0.07308051755448552
10702,3.0,299.29471,2666.0287,0.0,0.0,0.0,0.10853051958053934,0.0,0.0,-0.15121962341171485,-0.28823525360910474,-0.37095126691003966,0.9859131898545561,0.2463796955632828,-0.05566343531905336
10703,3.0,299.49726,3182.9696,0.0,0.0,0.0,0.10854066072421162,0.0,0.0,-0.1901874288050378,-0.36481441635437967,-0.4125414344896696,0.9894449744031161,0.22828726389769877,-0.08417064325049571
10704,3.0,299.62044,3394.7487,0.0,0.0,0.0,0.10855080186788386,0.0,0.0,-0.20721143890267682,-0.37224277575250164,-0.4524646131372806,0.9881705084273361,0.23307914653562078,-0.0852788389378661
10705,3.0,301.10688,3209.9977,0.0,0.0,0.0,0.10856094301155614,0.0,0.0,-0.2260454784489518,-0.3689793200954236,-0.3807343486130546,0.990638056130864,0.26611409901591676,-0.08630400789879242
10706,3.0,300.30087000000003,2885.6512,0.0,0.0,0.0,0.1085710841552284,0.0,0.0,-0.18138089728340082,-0.34722694800863163,-0.34855805466500167,0.9668083592190561,0.24415753676897278,-0.08565838114707401
10707,3.0,300.86444,2843.4677,0.0,0.0,0.0,0.10858122529890066,0.0,0.0,-0.22125627079129376,-0.31358456222588665,-0.3295023362618487,0.9572609594893011,0.2617319443209317,-0.0979185097733045
10708,3.0,300.93576,3142.6361,0.0,0.0,0.0,0.10859136644257292,0.0,0.0,-0.20910654082970878,-0.36467547950066764,-0.3815008925787066,0.960310710567788,0.24726324965048277,-0.08474833158300912
10709,3.0,299.73996,3120.6429,0.0,0.0,0.0,0.10860150758624518,0.0,0.0,-0.18716833867457683,-0.35471385299753166,-0.4067153477396796,1.023501961861779,0.27477041621022874,-0.07989715557573533
10710,3.0,299.75484,2953.3684,0.0,0.0,0.0,0.10861164872991744,0.0,0.0,-0.16164744628586084,-0.3348944175965057,-0.40120838410868465,1.003402717445638,0.23200550672966078,-0.06987637147876093
10711,3.0,300.15292999999997,2773.9034,0.0,0.0,0.0,0.10862178987358971,0.0,0.0,-0.14902721364034086,-0.3362231633801427,-0.35794699221161763,1.0176740512616091,0.23669367308734676,-0.08560008684232082
10712,3.0,299.20997,2982.6607,0.0,0.0,0.0,0.10863193101726196,0.0,0.0,-0.1983135426195228,-0.3408686820411197,-0.36747216123417864,0.9851076965550601,0.21824399983400578,-0.098064767358989
10713,3.0,300.48806,3310.3163,0.0,0.0,0.0,0.10864207216093423,0.0,0.0,-0.26530817001887774,-0.3305420119244567,-0.41040331465865365,0.984802931189982,0.2628281289416168,-0.052569496403705354
10714,3.0,300.03364,3106.6252,0.0,0.0,0.0,0.10865221330460648,0.0,0.0,-0.2159994583449868,-0.34207192666737063,-0.3862650830913956,0.9657903063135821,0.24198460166452077,-0.08220294600679913
10715,3.0,299.3924,2835.2312,0.0,0.0,0.0,0.10866235444827875,0.0,0.0,-0.14966907718118785,-0.3266593692637697,-0.38551103249947666,0.97049186783759,0.24032106791534275,-0.1004226864679475
10716,3.0,300.12363999999997,2879.0515,0.0,0.0,0.0,0.108672495591951,0.0,0.0,-0.16612898055065384,-0.3365020706026687,-0.37252871493072165,1.002397857056466,0.23988928151772876,-0.08572795191219011
10717,3.0,300.48212,3020.0017,0.0,0.0,0.0,0.10868263673562327,0.0,0.0,-0.1986860640187878,-0.3419339625337547,-0.37738507067250665,0.990538423248531,0.25042687990770873,-0.07931361977689483
10718,3.0,299.94632,2992.5521,0.0,0.0,0.0,0.10869277787929553,0.0,0.0,-0.21833926560840777,-0.3235407070459817,-0.36778115185217364,1.017254971020249,0.23919758633696375,-0.08291658007872932
10719,3.0,300.92134,3002.3244,0.0,0.0,0.0,0.10870291902296779,0.0,0.0,-0.21919465134282778,-0.33753000269661765,-0.35590700565278666,0.9848801712451051,0.24005048960863876,-0.09445884330061201
10720,3.0,301.33882,2902.6336,0.0,0.0,0.0,0.10871306016664005,0.0,0.0,-0.19662380622275882,-0.31363119199548867,-0.3720731374207596,0.9976563329485141,0.26801094373312073,-0.08400454318810292
10721,3.0,301.75998,3101.7756,0.0,0.0,0.0,0.10872320131031231,0.0,0.0,-0.2003110030716568,-0.33910010465407464,-0.40345123347003664,0.9630438108575241,0.2738259151295137,-0.08136132628823772
10722,3.0,299.88469,3375.2634,0.0,0.0,0.0,0.10873334245398457,0.0,0.0,-0.23556335207079276,-0.35779877398698967,-0.4326336570826176,0.9519831018384171,0.24245665462110877,-0.08415914995461142
10723,3.0,298.93767,3295.4199,0.0,0.0,0.0,0.10874348359765683,0.0,0.0,-0.2124030081750448,-0.36343311328805566,-0.4258892313694946,0.955738105384007,0.2168236765063308,-0.09303353579569511
10724,3.0,300.25767,2882.9085,0.0,0.0,0.0,0.10875362474132909,0.0,0.0,-0.17932156778016084,-0.31783002948238165,-0.37918060051221164,0.9830104613655791,0.22568106305048677,-0.09760309818942581
10725,3.0,300.3861,2819.9779,0.0,0.0,0.0,0.10876376588500135,0.0,0.0,-0.17764553052474882,-0.31225012197668767,-0.3673072041178987,0.9999882469936561,0.2621634368760168,-0.06134270618255375
10726,3.0,300.01713,3000.8393,0.0,0.0,0.0,0.10877390702867361,0.0,0.0,-0.19007479592392182,-0.3216798023098247,-0.4004256078764306,0.9997508526277271,0.2501765564705038,-0.07603470901604152
10727,3.0,300.69836000000004,3108.804,0.0,0.0,0.0,0.10878404817234587,0.0,0.0,-0.18034166745083682,-0.3718864460898346,-0.39277068575594865,1.003015463389919,0.27219052946811373,-0.11695201165476489
10728,3.0,299.71792,2951.3842,0.0,0.0,0.0,0.10879418931601813,0.0,0.0,-0.18751336046612782,-0.34865617780468566,-0.36097754220070966,0.9816752814438071,0.2574864770644367,-0.10086186857804141
10729,3.0,300.98576,2782.0138,0.0,0.0,0.0,0.1088043304596904,0.0,0.0,-0.1967647695766708,-0.2930640185506667,-0.35583391992307367,1.002227894484692,0.2588925439632047,-0.0989604307981341
10730,3.0,301.51658,2947.4723,0.0,0.0,0.0,0.10881447160336265,0.0,0.0,-0.2187684074232608,-0.3055406533920147,-0.37164893013389366,0.9605113340875882,0.2241536290547408,-0.06289201118170824
10731,3.0,300.32911,3170.0962,0.0,0.0,0.0,0.10882461274703492,0.0,0.0,-0.22710290625331178,-0.34649447964384267,-0.3900327016007306,0.9690480776375991,0.23227748332150275,-0.08906892728141873
10732,3.0,299.93503,3396.9605,0.0,0.0,0.0,0.10883475389070717,0.0,0.0,-0.20809499298987683,-0.3641232176661636,-0.46037294910777254,0.9642077515123961,0.25171364673970276,-0.04464029052090366
10733,3.0,299.35081,3076.4752,0.0,0.0,0.0,0.10884489503437944,0.0,0.0,-0.2135129831295908,-0.33195349971125965,-0.3897051583734046,1.002204944369927,0.28108748342867473,-0.0879549986249825
10734,3.0,299.19452,2780.6316,0.0,0.0,0.0,0.10885503617805169,0.0,0.0,-0.16016698656475087,-0.2950352864877157,-0.3900402908439796,0.9926324970977001,0.2942856739312347,-0.05872192263990254
10735,3.0,299.71709,3008.5762,0.0,0.0,0.0,0.10886517732172396,0.0,0.0,-0.1999194832330168,-0.35752304836977766,-0.35708950904949066,1.004824368130944,0.2759070700399077,-0.12039441741200388
10736,3.0,299.52029,2996.8287,0.0,0.0,0.0,0.10887531846539622,0.0,0.0,-0.1886978700980298,-0.29853335007294773,-0.42372987381638255,0.995805043955806,0.22845365982912078,-0.05799178373709344
10737,3.0,299.58192,2853.2853,0.0,0.0,0.0,0.10888545960906848,0.0,0.0,-0.16163758736238784,-0.3355688267305647,-0.3701210705731056,1.008894806565165,0.23790275403417374,-0.099534841266574
10738,3.0,300.64521,2916.367,0.0,0.0,0.0,0.10889560075274074,0.0,0.0,-0.15817421746057986,-0.3276440355784487,-0.4006845034094816,0.996643893448594,0.2229041802239298,-0.052723778930181854
10739,3.0,300.89457999999996,3074.9932,0.0,0.0,0.0,0.108905741896413,0.0,0.0,-0.20851337408866777,-0.36751828437873063,-0.35868948161989567,0.981205812274974,0.2364562685889168,-0.12191534634210789
10740,3.0,300.92075,3232.9104,0.0,0.0,0.0,0.10891588304008526,0.0,0.0,-0.20982880576599078,-0.37863742753110463,-0.3942578126627166,0.9500109929037851,0.24737296437131076,-0.07645264023178813
10741,3.0,299.38007000000005,3260.0179,0.0,0.0,0.0,0.10892602418375753,0.0,0.0,-0.25061657045892977,-0.3626279543610927,-0.37771952426551464,0.9951326714544481,0.2633350174366427,-0.08628924484483542
10742,3.0,298.87706000000003,3314.259,0.0,0.0,0.0,0.10893616532742978,0.0,0.0,-0.23818269477180176,-0.3499631995061787,-0.41930606440978657,0.9732558013278692,0.2581412088815538,-0.050709382002626355
10743,3.0,299.23418,3014.8404,0.0,0.0,0.0,0.10894630647110205,0.0,0.0,-0.16503812562549486,-0.36424400721058464,-0.3871540783316326,0.9881106760089311,0.24612043526019578,-0.1127971086922079
10744,3.0,299.23485,2843.5022,0.0,0.0,0.0,0.1089564476147743,0.0,0.0,-0.14405344247696786,-0.3249801504030437,-0.3953200736700536,1.006899737383267,0.2574836500966578,-0.06162492977265704
10745,3.0,298.48922000000005,2878.7234,0.0,0.0,0.0,0.10896658875844657,0.0,0.0,-0.16961539175973583,-0.32709336454660165,-0.37835127557036363,1.003783182725687,0.2688087869943618,-0.09029696309786642
10746,3.0,299.38043,3031.4469,0.0,0.0,0.0,0.10897672990211883,0.0,0.0,-0.19836094245920083,-0.34565850778133866,-0.37746473239536865,0.988387374346239,0.26186059668612877,-0.0878534517132106
10747,3.0,300.44454,2790.192,0.0,0.0,0.0,0.10898687104579109,0.0,0.0,-0.1970706292518568,-0.3253589539529287,-0.32571911370097373,0.9760366560948182,0.25091719163109877,-0.1348215080333469
10748,3.0,300.23398,2893.4009,0.0,0.0,0.0,0.10899701218946335,0.0,0.0,-0.1920579290196418,-0.35174422973695263,-0.33571945649043067,0.982211240084202,0.26881783531775477,-0.09746793873208659
10749,3.0,300.50948999999997,3116.5479,0.0,0.0,0.0,0.10900715333313561,0.0,0.0,-0.2023598555688628,-0.34898113724425667,-0.3960117485858166,0.9953722443080921,0.24020753324163774,-0.08544791896880302
10750,3.0,300.47232,3225.1469,0.0,0.0,0.0,0.10901729447680787,0.0,0.0,-0.2001174723025568,-0.37590450962638666,-0.40434215388546363,1.0067863445645762,0.22325900014394778,-0.05203760494921175
10751,3.0,299.4892,3271.4819,0.0,0.0,0.0,0.10902743562048015,0.0,0.0,-0.2075370772198148,-0.37831362319664763,-0.4085981184129946,0.9826567965506751,0.2237371022036328,-0.08025691407674072
10752,3.0,299.46487,3171.877,0.0,0.0,0.0,0.10903757676415239,0.0,0.0,-0.19153989477351582,-0.35331911423488166,-0.41931238709041063,0.9936388266995171,0.24919253863588878,-0.05793881000861535
10753,3.0,299.67006000000003,3037.405,0.0,0.0,0.0,0.10904771790782467,0.0,0.0,-0.22335890660380778,-0.3391652262380017,-0.36077115328784065,0.975626137816803,0.24852813028031676,-0.05239396906238215
10754,3.0,299.39731,3075.8553,0.0,0.0,0.0,0.10905785905149691,0.0,0.0,-0.21970209712540878,-0.3171882470015427,-0.3980928832312086,0.9931758828613281,0.2549004500267158,-0.07652145612557973
10755,3.0,299.18687,2991.7829,0.0,0.0,0.0,0.10906800019516918,0.0,0.0,-0.1878209629314858,-0.33609211974470965,-0.38551422423729165,0.992741614000969,0.24587417495589176,-0.1032600339809719
10756,3.0,299.12712,2615.7191,0.0,0.0,0.0,0.10907814133884144,0.0,0.0,-0.13149539299008486,-0.3129598935392367,-0.3506580256297527,1.006256343834769,0.2888967742018917,-0.1086626227191659
10757,3.0,299.94517,2739.4816,0.0,0.0,0.0,0.1090882824825137,0.0,0.0,-0.14757210543673285,-0.3060773111749787,-0.3790845849327356,0.9762630566971621,0.2608311244520278,-0.07936495913296163
10758,3.0,300.44917000000004,3117.1266,0.0,0.0,0.0,0.10909842362618596,0.0,0.0,-0.2031575468425888,-0.3629654173068977,-0.3814056875993106,0.9848303396051871,0.26123169261406076,-0.10708538748100489
10759,3.0,300.54852,3302.6282,0.0,0.0,0.0,0.10910856476985822,0.0,0.0,-0.23568675580047177,-0.38161578500754567,-0.38661395523332664,0.9545804164822521,0.25310743304725875,-0.1053871701809039
10760,3.0,300.41438999999997,3173.5551,0.0,0.0,0.0,0.10911870591353048,0.0,0.0,-0.2075945994279918,-0.35382894115519764,-0.40325796614596265,0.9742614115221151,0.28547536298672477,-0.07896000461124572
10761,3.0,300.2154,3016.9199,0.0,0.0,0.0,0.10912884705720276,0.0,0.0,-0.2025352694261748,-0.3396209760004807,-0.3749120716834406,0.9710936066744771,0.26347797689325175,-0.05632558919315285
10762,3.0,301.23308,2933.7225,0.0,0.0,0.0,0.109138988200875,0.0,0.0,-0.18697683440567683,-0.3194992070346167,-0.38530234350888065,0.9834333818248181,0.22444664071865877,-0.058628034885636546
10763,3.0,301.66835,3056.9611,0.0,0.0,0.0,0.10914912934454728,0.0,0.0,-0.17035758732548484,-0.3501607832756787,-0.40872148161266963,1.006160135737774,0.20801132892911983,-0.07958264375794542
10764,3.0,299.32039,2955.6815,0.0,0.0,0.0,0.10915927048821952,0.0,0.0,-0.17435142405214585,-0.3265905189194747,-0.39751142966132363,0.992456870457867,0.24563162314695378,-0.07606897105492293
10765,3.0,298.94775,2834.7478,0.0,0.0,0.0,0.1091694116318918,0.0,0.0,-0.19212068973083582,-0.2987069806100837,-0.3708648772065137,1.009136152606484,0.24309266157637777,-0.08646139299707511
10766,3.0,298.89687000000004,2965.5598,0.0,0.0,0.0,0.10917955277556407,0.0,0.0,-0.1921196866132368,-0.3366048040303077,-0.37273163852824864,0.9671942757846431,0.2649186868129388,-0.13206140462844587
10767,3.0,300.16812000000004,3263.7233,0.0,0.0,0.0,0.10918969391923632,0.0,0.0,-0.2530850098225458,-0.35354070189925063,-0.38546467630740167,0.9944210253792141,0.29318736148533975,-0.1132962154264659
10768,3.0,300.82795,3233.6802,0.0,0.0,0.0,0.10919983506290859,0.0,0.0,-0.23031679371549776,-0.35189380571671464,-0.4007474465056936,0.9806516657952841,0.2909841606004007,-0.08117542427914062
10769,3.0,300.84008,2993.6887,0.0,0.0,0.0,0.10920997620658084,0.0,0.0,-0.2202103535080698,-0.3146325364068137,-0.3751637326107776,0.993047048111113,0.2534137486849897,-0.04393441186523886
10770,3.0,299.9972,3066.1846,0.0,0.0,0.0,0.10922011735025311,0.0,0.0,-0.2169139976202448,-0.31085584930908366,-0.40427371897370956,0.96273331049688,0.21503273668957879,-0.05535439707830365
10771,3.0,299.52808,3144.1893,0.0,0.0,0.0,0.10923025849392537,0.0,0.0,-0.2038853441244168,-0.34954517304492266,-0.4023245196238386,0.981432851224881,0.21471328933055178,-0.06079960210245354
10772,3.0,299.21244,3062.405,0.0,0.0,0.0,0.10924039963759763,0.0,0.0,-0.1890462457474118,-0.34036965636686967,-0.4014787496328676,0.994560387797968,0.25137479564126075,-0.06275389607382735
10773,3.0,299.74773999999996,3005.9776,0.0,0.0,0.0,0.10925054078126989,0.0,0.0,-0.20191500837745982,-0.3277938851357377,-0.3840332173611276,0.996256497537861,0.25481029103281777,-0.05407099119689135
10774,3.0,298.56336,2948.5563,0.0,0.0,0.0,0.10926068192494214,0.0,0.0,-0.17640524147484185,-0.36987902538921763,-0.35000323301762964,0.969602426767309,0.27555106461727275,-0.10935385180488488
10775,3.0,298.99591000000004,2869.3438,0.0,0.0,0.0,0.10927082306861441,0.0,0.0,-0.16989076273941284,-0.31967382042434966,-0.38264427438904963,1.0042970930439061,0.26781630852141175,-0.12846937222893987
10776,3.0,299.41355,3062.7151,0.0,0.0,0.0,0.10928096421228668,0.0,0.0,-0.18620175887418283,-0.37445045520288267,-0.37033672059188866,1.004802208351257,0.2499253920357158,-0.1080023686890039
10777,3.0,300.42185,3053.6488,0.0,0.0,0.0,0.10929110535595893,0.0,0.0,-0.1994788612945308,-0.34341772545019067,-0.38533640897724264,0.999925861184999,0.22559969906745678,-0.09573268106133001
10778,3.0,300.52387000000004,2875.7743,0.0,0.0,0.0,0.1093012464996312,0.0,0.0,-0.17753109405845482,-0.3141954304461747,-0.3824370546110986,0.981432223009819,0.2216467267173288,-0.11501822383891488
10779,3.0,301.06157,3004.1277,0.0,0.0,0.0,0.10931138764330345,0.0,0.0,-0.1956291087320898,-0.36091229902677063,-0.35663841010497066,0.9719530656742991,0.25274397010388777,-0.1096252711091719
10780,3.0,300.37085,3009.9240000000004,0.0,0.0,0.0,0.10932152878697572,0.0,0.0,-0.2132472076283608,-0.3186796599562337,-0.3830148807456257,0.999573027235177,0.28264863838774873,-0.055210803327132046
10781,3.0,300.39836,3138.2402,0.0,0.0,0.0,0.10933166993064798,0.0,0.0,-0.22440363838441477,-0.3190574806535217,-0.4104855500367696,0.9803164623972022,0.2488860304806388,-0.024673393793074375
10782,3.0,299.19518999999997,3200.9029,0.0,0.0,0.0,0.10934181107432024,0.0,0.0,-0.22772225537693677,-0.3465666129184617,-0.39870570702418967,0.9758120185476481,0.23152280451452179,-0.06407778129673464
10783,3.0,299.015,3182.1387,0.0,0.0,0.0,0.1093519522179925,0.0,0.0,-0.19614135732014482,-0.3478057164657517,-0.4233436431432646,0.9844861182812151,0.2252816702585698,-0.05453387525332445
10784,3.0,299.77,3156.739,0.0,0.0,0.0,0.10936209336166476,0.0,0.0,-0.17459914343659383,-0.3778372639271346,-0.4071334349959416,1.009484589050872,0.2560247320726738,-0.09266476544830031
10785,3.0,300.51485,3074.824,0.0,0.0,0.0,0.10937223450533702,0.0,0.0,-0.2119025132881498,-0.3213001678948577,-0.4014670465942126,0.980221379007818,0.25199682987765076,-0.041091397244405165
10786,3.0,300.9707,3044.9217,0.0,0.0,0.0,0.1093823756490093,0.0,0.0,-0.2004426343921478,-0.3613975039696567,-0.36374001661084465,0.9989274349339621,0.2813632901058947,-0.12038663565123588
10787,3.0,300.45333999999997,3031.8858,0.0,0.0,0.0,0.10939251679268154,0.0,0.0,-0.2310871576340268,-0.33967647170845766,-0.3508539578015897,0.9800913486224851,0.28269458927978375,-0.08589620513104541
10788,3.0,301.43786,2889.5624,0.0,0.0,0.0,0.10940265793635381,0.0,0.0,-0.1951971298169568,-0.3295050315071147,-0.35365263563779764,1.026393372347139,0.2808742956076347,-0.1012337870934969
10789,3.0,301.48384,3022.6247,0.0,0.0,0.0,0.10941279908002606,0.0,0.0,-0.18428042390206184,-0.3343220224825147,-0.4001999773441626,0.990668098996329,0.21802528979992078,-0.05012203334365955
10790,3.0,300.86417,3088.2942,0.0,0.0,0.0,0.10942294022369833,0.0,0.0,-0.18316498752947682,-0.3511955446753017,-0.4044037898890466,1.013785197377809,0.2147833251774638,-0.1018677270185619
10791,3.0,299.79686,3117.9777,0.0,0.0,0.0,0.1094330813673706,0.0,0.0,-0.1869585959038768,-0.35346932856220664,-0.4073594302982456,1.005915081201089,0.2387472675950208,-0.06507090419674824
10792,3.0,300.20242,3180.4784,0.0,0.0,0.0,0.10944322251104285,0.0,0.0,-0.18085780691927583,-0.3854752343734436,-0.40045297576163164,0.994804033917014,0.2713967797372767,-0.09288021889656391
10793,3.0,299.99261,3106.9189,0.0,0.0,0.0,0.10945336365471511,0.0,0.0,-0.2227424452429678,-0.3237437015710157,-0.3979396392860846,0.9620006800120751,0.26462955589690373,-0.04611875413931666
10794,3.0,299.4602,2951.8454,0.0,0.0,0.0,0.10946350479838737,0.0,0.0,-0.17477148714610283,-0.35835967884484665,-0.36415610776440965,0.9369632295110711,0.24529890221161677,-0.12497424706899787
10795,3.0,300.0582,2921.2544,0.0,0.0,0.0,0.10947364594205963,0.0,0.0,-0.15045841927408984,-0.35344996535279566,-0.38408000925074565,0.9808014849550701,0.25663207418261375,-0.12012751720316288
10796,3.0,301.04556,2753.1496,0.0,0.0,0.0,0.1094837870857319,0.0,0.0,-0.16220434880582285,-0.3200922825831487,-0.3545920907330147,1.014439655617399,0.26525276550340976,-0.11196793573787489
10797,3.0,299.7429,2653.0111,0.0,0.0,0.0,0.10949392822940415,0.0,0.0,-0.15848366404111985,-0.3090267403610647,-0.3389387243106477,1.0143703493105591,0.24347525468163678,-0.08063687070523952
10798,3.0,300.19237000000004,2960.1385,0.0,0.0,0.0,0.10950406937307643,0.0,0.0,-0.2047138584661848,-0.3179233092865877,-0.37717101145638066,1.000495996751267,0.2326145713647708,-0.10881343486404989
10799,3.0,300.48215,3418.1414,0.0,0.0,0.0,0.10951421051674867,0.0,0.0,-0.27364027757869275,-0.36198636439777265,-0.4034029825002746,1.001315635022159,0.26849685795107675,-0.05401716836482944
10800,3.0,299.28011000000004,3348.5958,0.0,0.0,0.0,0.10952435166042095,0.0,0.0,-0.25078721190827075,-0.35028232262517367,-0.4168199742294286,0.9878731296554871,0.28167653637430967,-0.08338780824973592
10801,3.0,299.68702,3228.8911,0.0,0.0,0.0,0.1095344928040932,0.0,0.0,-0.2121187915219948,-0.3177631245782787,-0.45162034275645757,0.9875254835461771,0.25690824562986975,-0.02805450703851427
10802,3.0,299.26211,3211.9078,0.0,0.0,0.0,0.10954463394776547,0.0,0.0,-0.19698179761558982,-0.38119295574081563,-0.39816501650582764,0.95204342061687,0.2290233698303468,-0.0907180870646781
10803,3.0,299.12387,3113.0973,0.0,0.0,0.0,0.10955477509143773,0.0,0.0,-0.20582687317103082,-0.3130458678102217,-0.42743109404666463,0.9945771266896202,0.23889122003672775,-0.04965889698795155
10804,3.0,299.87845,3008.6433,0.0,0.0,0.0,0.10956491623510999,0.0,0.0,-0.1972213704692338,-0.33707557015926864,-0.3802554967482956,1.010278024674178,0.23916840473408374,-0.1014047527828699
10805,3.0,300.22144,2674.4607,0.0,0.0,0.0,0.10957505737878225,0.0,0.0,-0.19890005230740682,-0.2774949646691207,-0.3365742444072917,1.003705111805482,0.24203530469952475,-0.05601941845018614
10806,3.0,299.80232,2666.9287,0.0,0.0,0.0,0.10958519852245452,0.0,0.0,-0.15963072394932587,-0.31934957025984867,-0.3316994576461877,0.9848880239333802,0.24113685583585479,-0.14156972330184386
10807,3.0,300.11419,2951.9191,0.0,0.0,0.0,0.10959533966612676,0.0,0.0,-0.17756902000969785,-0.3457506122154287,-0.3739900850199476,0.994488578763381,0.29176069521203873,-0.11967426003592989
10808,3.0,301.08904,3274.0506,0.0,0.0,0.0,0.10960548080979904,0.0,0.0,-0.23069228393755578,-0.35629184817326764,-0.4082455073781946,1.034303714552829,0.2926530747076097,-0.09277346894552851
10809,3.0,301.58628999999996,3212.3913,0.0,0.0,0.0,0.10961562195347128,0.0,0.0,-0.19962555964400883,-0.33646898798690367,-0.44039219415832553,1.016141611810369,0.2606359927477698,-0.06599223326092633
10810,3.0,300.54274,2999.7063,0.0,0.0,0.0,0.10962576309714356,0.0,0.0,-0.2013950388236428,-0.34846611235092767,-0.36197465122661665,0.9766071665636231,0.2112515304964028,-0.09368611546959972
10811,3.0,299.9316,3074.8017,0.0,0.0,0.0,0.10963590424081583,0.0,0.0,-0.20897634832435982,-0.3258719624785587,-0.3998146383311326,0.9743455923404231,0.2222587601752318,-0.09252481635773842
10812,3.0,299.56221,3158.3599,0.0,0.0,0.0,0.10964604538448808,0.0,0.0,-0.2065659681914738,-0.34719131200261466,-0.4063052752917086,0.9822577077337881,0.24684549676675377,-0.09849161213586531
10813,3.0,299.77844,3025.9486,0.0,0.0,0.0,0.10965618652816035,0.0,0.0,-0.17017671205013385,-0.34553174006132764,-0.40410437448449665,0.9735838005177402,0.2586729827990358,-0.08232372541871913
10814,3.0,299.01367,2644.2035,0.0,0.0,0.0,0.1096663276718326,0.0,0.0,-0.13358527198383988,-0.3241999883560477,-0.3459865778987167,0.970248353441057,0.24246095080153277,-0.1062380570848799
10815,3.0,299.24422000000004,2718.2348,0.0,0.0,0.0,0.10967646881550487,0.0,0.0,-0.13086836343070188,-0.34018819340646067,-0.3552189480398807,0.981441403055725,0.2764857878345227,-0.0989948042945265
10816,3.0,300.25433,3097.3284,0.0,0.0,0.0,0.10968660995917713,0.0,0.0,-0.23090999085404176,-0.33560357107649363,-0.3749969313793156,1.030912771768169,0.24546942207094577,-0.08156354263719492
10817,3.0,300.16865,3400.3331,0.0,0.0,0.0,0.10969675110284938,0.0,0.0,-0.27270651694903775,-0.36093257416127167,-0.3999772548396816,1.013441097643849,0.24017474446840179,-0.07180934666803074
10818,3.0,299.9521,3242.6587,0.0,0.0,0.0,0.10970689224652165,0.0,0.0,-0.22880200508099977,-0.36006006450016165,-0.39682519589859766,0.9912088300446951,0.23757896996471878,-0.12982495900772587
10819,3.0,300.41092000000003,3191.2673,0.0,0.0,0.0,0.1097170333901939,0.0,0.0,-0.2139056580733448,-0.3492372666045347,-0.4069226485776386,0.991900707610478,0.27969877350411976,-0.07716210275305663
10820,3.0,299.53053,3253.546,0.0,0.0,0.0,0.10972717453386617,0.0,0.0,-0.2112431711830778,-0.34456422807084164,-0.4331893437024596,0.9869582560076962,0.30034670298191174,-0.08886955005924173
10821,3.0,300.23836,3364.7112,0.0,0.0,0.0,0.10973731567753844,0.0,0.0,-0.2322973835534668,-0.33219229236232667,-0.45829852217804257,0.9842654324094351,0.2675025556279467,-0.020378489050950282
10822,3.0,300.86491,3180.9183,0.0,0.0,0.0,0.10974745682121069,0.0,0.0,-0.20814046765436478,-0.37039324981496763,-0.3883860080682146,0.978799008914941,0.2234806080733188,-0.07673849024399933
10823,3.0,298.79847,2713.2343,0.0,0.0,0.0,0.10975759796488296,0.0,0.0,-0.14430882203217188,-0.33670372763757067,-0.3437429179372847,0.955930014952947,0.24072469609267777,-0.08505100154688032
10824,3.0,298.91977,2850.0086,0.0,0.0,0.0,0.10976773910855521,0.0,0.0,-0.15076460318930787,-0.3520199756191667,-0.3635468810092836,1.001202688033512,0.24163554713757177,-0.1064300983763329
10825,3.0,298.7798,3226.7087,0.0,0.0,0.0,0.10977788025222748,0.0,0.0,-0.1955528819270668,-0.3784925834293096,-0.4067934186598846,0.9738661223931031,0.24241912383740477,-0.0892524309275291
10826,3.0,298.74657,3219.3767,0.0,0.0,0.0,0.10978802139589973,0.0,0.0,-0.17507639436619485,-0.38488967714065364,-0.4186440574569516,0.996649304204128,0.2208187899281178,-0.11437137510757588
10827,3.0,300.34705,3099.3327,0.0,0.0,0.0,0.109798162539572,0.0,0.0,-0.19829854651804282,-0.3630334469186116,-0.3807877468933246,1.0129870906715421,0.2528391649507828,-0.10226601536786989
10828,3.0,300.71214,3009.0498,0.0,0.0,0.0,0.10980830368324425,0.0,0.0,-0.23011476177805876,-0.31948305582802267,-0.36507818562041167,1.0232762097394992,0.26407726366489676,-0.05637291911857394
10829,3.0,300.06172000000004,3179.3319,0.0,0.0,0.0,0.10981844482691652,0.0,0.0,-0.2170979531758998,-0.36157736599490764,-0.3877621905116487,1.010625417470963,0.23227680444393575,-0.0902378308352805
10830,3.0,301.10467,3416.55,0.0,0.0,0.0,0.10982858597058877,0.0,0.0,-0.23437168889318477,-0.36805826562202265,-0.43611593423129164,0.9779048866291982,0.2312056167032178,-0.06989927701052152
10831,3.0,300.33369,3241.0162,0.0,0.0,0.0,0.10983872711426104,0.0,0.0,-0.17371572107190686,-0.4031338227437106,-0.40833845280986764,0.9917405735646742,0.29388579477926974,-0.1268051899996979
10832,3.0,299.71542,2899.8895,0.0,0.0,0.0,0.1098488682579333,0.0,0.0,-0.15209685481829086,-0.34390272774305664,-0.3854944151978366,0.9807772480126782,0.28513817361844673,-0.047290540389712955
10833,3.0,300.17821000000004,2942.2789,0.0,0.0,0.0,0.10985900940160556,0.0,0.0,-0.19149552455163682,-0.3354247932288497,-0.36745899911537966,0.980147188835496,0.2942630379240007,-0.1023795804390779
10834,3.0,299.79781,3159.7434,0.0,0.0,0.0,0.10986915054527782,0.0,0.0,-0.2399366509599038,-0.35431011336268564,-0.36623633048471166,0.967480802647921,0.23593860924532778,-0.043276300859038365
10835,3.0,299.46671000000003,3124.64,0.0,0.0,0.0,0.10987929168895007,0.0,0.0,-0.2046504695399288,-0.39052928534223963,-0.3546327828570307,0.996152132777561,0.25488190754988577,-0.13814427935127888
10836,3.0,300.28696,3036.5679,0.0,0.0,0.0,0.10988943283262234,0.0,0.0,-0.19729097061860282,-0.34212131247724464,-0.38362854553618964,0.9921132976139592,0.23035717173198278,-0.044449118598036456
10837,3.0,298.63828,3082.7678,0.0,0.0,0.0,0.10989957397629459,0.0,0.0,-0.17403142953806483,-0.36001325234554166,-0.40303975260442665,0.991798683457909,0.2247809119266488,-0.0983613922727636
10838,3.0,299.15313,3328.5338,0.0,0.0,0.0,0.10990971511996686,0.0,0.0,-0.2055732870685038,-0.3521696630564397,-0.45404820145356856,0.9667290926637331,0.2220989402369588,-0.06759660435001542
10839,3.0,300.37878,3217.3953,0.0,0.0,0.0,0.1099198562636391,0.0,0.0,-0.22647613000645378,-0.3694222015816327,-0.38210950125127163,1.016768003022189,0.27021915007355374,-0.0996981518514415
10840,3.0,299.90632,3242.3872,0.0,0.0,0.0,0.10992999740731138,0.0,0.0,-0.25010522366346377,-0.3300028412812447,-0.40549666118190464,1.028174564697929,0.2646254927640027,-0.047116361684272856
10841,3.0,300.46075,3164.3335,0.0,0.0,0.0,0.10994013855098365,0.0,0.0,-0.24284520563695577,-0.33997937269335166,-0.37905381252719866,1.010721149340411,0.2647497070937618,-0.07826588066999102
10842,3.0,299.6508,2954.2016,0.0,0.0,0.0,0.1099502796946559,0.0,0.0,-0.17093535266500584,-0.3431666015454067,-0.38390156577563467,0.9842732344352051,0.2191255274210058,-0.07521388220278223
10843,3.0,299.75649,2941.4743,0.0,0.0,0.0,0.10996042083832817,0.0,0.0,-0.13852567682141986,-0.3588628487120057,-0.3967462029208016,0.9833587154249491,0.26100214080390577,-0.1034931828289819
10844,3.0,300.39682,3044.7912,0.0,0.0,0.0,0.10997056198200042,0.0,0.0,-0.17741401300939982,-0.35046273180547866,-0.39766377181385865,0.984140812779636,0.26872080648817875,-0.07232100250477723
10845,3.0,300.74169,2826.2696,0.0,0.0,0.0,0.1099807031256727,0.0,0.0,-0.19817674372352181,-0.3219050478070547,-0.33903359491751067,0.981367121690894,0.26607926347747873,-0.08702089349029352
10846,3.0,299.55807000000004,2910.9766,0.0,0.0,0.0,0.10999084426934495,0.0,0.0,-0.2077145783723328,-0.3261283654163637,-0.35102124539309965,0.9383997952378491,0.22874304405768076,-0.09228995511705941
10847,3.0,300.49741,3187.8171,0.0,0.0,0.0,0.11000098541301721,0.0,0.0,-0.2134498373833588,-0.37841080401373867,-0.37715616734241564,0.992664161163325,0.27919259428416376,-0.12268709841327387
10848,3.0,299.41116,3086.5686,0.0,0.0,0.0,0.11001112655668947,0.0,0.0,-0.2050988327091788,-0.3230982105948107,-0.41004274961056864,1.011045399504912,0.2515412625001897,-0.06204479629609464
10849,3.0,299.59713999999997,3088.657,0.0,0.0,0.0,0.11002126770036173,0.0,0.0,-0.15347336521164184,-0.34956843726721865,-0.4358328118883496,1.025876716121149,0.2331888308589458,-0.09542226885344472
10850,3.0,298.75133999999997,3063.3965,0.0,0.0,0.0,0.11003140884403399,0.0,0.0,-0.21327110006571878,-0.31039948146404367,-0.40752546145963164,1.0018844634957982,0.2138403541043998,-0.05494172159082575
10851,3.0,298.82061,3077.2354,0.0,0.0,0.0,0.11004154998770627,0.0,0.0,-0.2132872208748098,-0.33805592002852164,-0.38405958212872965,1.003567117274363,0.25644870631201677,-0.1098344363273149
10852,3.0,300.0692,3132.0309,0.0,0.0,0.0,0.11005169113137851,0.0,0.0,-0.25514072202292876,-0.3157938730089287,-0.38112457149156664,1.0070841286364651,0.26068063654717577,-0.060506064561733644
10853,3.0,299.45793,3084.6946,0.0,0.0,0.0,0.11006183227505079,0.0,0.0,-0.22668169818674178,-0.3338896281348407,-0.37709881738675566,0.981302729647039,0.27641306687484574,-0.10242230919579491
10854,3.0,300.05626,2870.6220000000003,0.0,0.0,0.0,0.11007197341872303,0.0,0.0,-0.17694667166577685,-0.3237283609645017,-0.3719223759383806,0.9902276290453581,0.22858119761920778,-0.11257043451233689
10855,3.0,300.66757,2757.0805,0.0,0.0,0.0,0.1100821145623953,0.0,0.0,-0.0940131500453755,-0.33965729088406466,-0.4044131725849726,0.9555613743015651,0.2404616158367138,-0.1185501299774869
10856,3.0,300.06201,2921.1153,0.0,0.0,0.0,0.11009225570606757,0.0,0.0,-0.18481779096009585,-0.30722965011620573,-0.3958986597421556,0.9947474337664282,0.2516944253853058,-0.07039464079891014
10857,3.0,299.60675,3286.9689,0.0,0.0,0.0,0.11010239684973983,0.0,0.0,-0.23671497160444877,-0.3506818876696077,-0.4117596208450106,0.9761898493774371,0.23743033630754978,-0.06447752062018584
10858,3.0,299.69651,3158.4776,0.0,0.0,0.0,0.11011253799341209,0.0,0.0,-0.24547772058926476,-0.33707395909160964,-0.37754664353345263,0.998241474748763,0.26507516302588174,-0.08626813479225202
10859,3.0,298.96936,3047.8362,0.0,0.0,0.0,0.11012267913708434,0.0,0.0,-0.2083878324012778,-0.35656816147553766,-0.36151011658577065,0.992088949214056,0.27185072591457776,-0.09411977334014841
10860,3.0,299.34905,3240.5372,0.0,0.0,0.0,0.1101328202807566,0.0,0.0,-0.19725442268749582,-0.3525857339450027,-0.4352022562186186,1.015822742003899,0.2848463069271417,-0.07129290727756213
10861,3.0,300.70292,3286.2073,0.0,0.0,0.0,0.11014296142442888,0.0,0.0,-0.2055317843444078,-0.3403709634594987,-0.4530222249323126,0.988891111633454,0.25664599623898776,-0.07007967504507544
10862,3.0,300.69147000000004,3279.3587,0.0,0.0,0.0,0.11015310256810112,0.0,0.0,-0.22207767211735976,-0.36236952492308766,-0.4123959621728126,1.008620702148113,0.21511943036813483,-0.08461807828265412
10863,3.0,301.00057999999996,2984.2655,0.0,0.0,0.0,0.1101632437117734,0.0,0.0,-0.1858267043496678,-0.33548068410436566,-0.38583478617142863,1.002913104864817,0.24152982462213776,-0.0950771295248821
10864,3.0,300.67213,2760.9236,0.0,0.0,0.0,0.11017338485544564,0.0,0.0,-0.1845817138192968,-0.3222481342909147,-0.33242197589499467,1.009805961585089,0.26631975838871375,-0.0949215956345321
10865,3.0,301.08341,2982.7115,0.0,0.0,0.0,0.11018352599911792,0.0,0.0,-0.19329274651900882,-0.3489331801170237,-0.36444389105781166,0.991880432475977,0.26462324334878073,-0.1087022610630779
10866,3.0,299.70538,3142.6603,0.0,0.0,0.0,0.11019366714279018,0.0,0.0,-0.2103666389190708,-0.3448278757468617,-0.4000957240413736,0.9713482870871122,0.26880331544382174,-0.09621621211505081
10867,3.0,299.57313999999997,2892.778,0.0,0.0,0.0,0.11020380828646244,0.0,0.0,-0.13587058665688287,-0.34818385127057067,-0.3952778312733846,0.9965312403024761,0.2802507516285957,-0.10094824612256621
10868,3.0,298.96801,2765.454,0.0,0.0,0.0,0.1102139494301347,0.0,0.0,-0.17747010653493583,-0.29667733933477375,-0.3664815167439096,0.9938007339329961,0.26312809150122074,-0.03238382783353497
10869,3.0,298.8481,3209.9368,0.0,0.0,0.0,0.11022409057380696,0.0,0.0,-0.2110936762633238,-0.3475902285669847,-0.41705673024779455,0.995873519397564,0.23555159836963277,-0.08599231696928092
10870,3.0,300.61071,3543.025,0.0,0.0,0.0,0.11023423171747922,0.0,0.0,-0.28581322110006874,-0.38026498076923165,-0.4109129389289496,0.971569327596427,0.21971077054626478,-0.06457084095439584
10871,3.0,300.52214,3261.4099,0.0,0.0,0.0,0.11024437286115149,0.0,0.0,-0.23574784464900075,-0.36796617132043363,-0.38767315622536164,1.017574144801749,0.27052020694326573,-0.12815379548529487
10872,3.0,300.17724,3083.3654,0.0,0.0,0.0,0.11025451400482374,0.0,0.0,-0.18237406476641885,-0.34866186213774664,-0.4062301731942966,1.0228292651203892,0.29877404763420273,-0.07349386887978013
10873,3.0,300.13025,3191.1859,0.0,0.0,0.0,0.11026465514849601,0.0,0.0,-0.2013172009509608,-0.3414953974929717,-0.4272282211116426,1.021092655773999,0.25855067337946475,-0.09163277427445071
10874,3.0,299.83272999999997,3173.8358,0.0,0.0,0.0,0.11027479629216826,0.0,0.0,-0.2085904114937708,-0.34335408321140964,-0.4128223479473936,0.9769773676201591,0.21061650639373078,-0.08142631817615192
10875,3.0,300.12147000000004,2988.6072,0.0,0.0,0.0,0.11028493743584053,0.0,0.0,-0.18067622236885483,-0.3481983407470007,-0.37958741029486065,1.011071105659949,0.20913260162228078,-0.11287737836512989
10876,3.0,300.77063,2795.8095,0.0,0.0,0.0,0.1102950785795128,0.0,0.0,-0.19320196944254983,-0.3187543871511087,-0.3378999200431257,0.9937040597409551,0.24031202972445076,-0.07565207132777813
10877,3.0,300.07934,2766.2670000000003,0.0,0.0,0.0,0.11030521972318505,0.0,0.0,-0.17015985156846986,-0.3250574411206717,-0.34565878135886563,0.9920876826514311,0.23015704470473178,-0.09231337639312091
10878,3.0,301.12857,3305.905,0.0,0.0,0.0,0.11031536086685731,0.0,0.0,-0.2038337595618258,-0.3947302101243386,-0.4063486018659846,0.9417189188554211,0.25858187135004373,-0.08635769292884073
10879,3.0,301.43669,3441.4466,0.0,0.0,0.0,0.11032550201052957,0.0,0.0,-0.23659223661983578,-0.37203987241997666,-0.43748172443858463,0.970793603584869,0.3012125555898647,-0.06889633571703893
10880,3.0,300.38504,3212.5015,0.0,0.0,0.0,0.11033564315420183,0.0,0.0,-0.2296994913570748,-0.3447725725564037,-0.4020481961890676,0.9925360863506851,0.3002678214616267,-0.07650519751447513
10881,3.0,300.43425,3129.8172,0.0,0.0,0.0,0.1103457842978741,0.0,0.0,-0.18087229639570582,-0.34113789246018866,-0.4293760985411215,1.0093754316175991,0.24028221990650878,-0.07537329278801483
10882,3.0,300.17852,3246.4839,0.0,0.0,0.0,0.11035592544154635,0.0,0.0,-0.2533786395690248,-0.35347636051790066,-0.3799950610750927,1.004950021275845,0.21806464443380483,-0.1045416940324619
10883,3.0,299.51296,3303.9570000000003,0.0,0.0,0.0,0.11036606658521862,0.0,0.0,-0.1967336526660998,-0.37382348643850566,-0.43376329922160456,1.028227253703129,0.24495858190052974,-0.09115960978250301
10884,3.0,299.37223,3108.426,0.0,0.0,0.0,0.11037620772889087,0.0,0.0,-0.2253749804602788,-0.3340770692708397,-0.38543181660665865,0.996910327562389,0.27750813692042076,-0.0997587340749205
10885,3.0,299.30264,2947.6188,0.0,0.0,0.0,0.11038634887256314,0.0,0.0,-0.16744691495572384,-0.3328516648649017,-0.3957039130729356,0.998379590869894,0.24841482865413478,-0.06215070322304684
10886,3.0,299.54154,2804.7635,0.0,0.0,0.0,0.11039649001623542,0.0,0.0,-0.16710506463698582,-0.32579183466065065,-0.3596811494927657,0.986009033181515,0.2374517057521588,-0.09726754116705891
10887,3.0,300.75991,3123.9829999999997,0.0,0.0,0.0,0.11040663115990766,0.0,0.0,-0.15891433586362386,-0.3801902738393586,-0.4105082063090056,0.9872138179479181,0.2469757601996098,-0.09830488534118681
10888,3.0,300.31854,3289.897,0.0,0.0,0.0,0.11041677230357994,0.0,0.0,-0.24660185064770773,-0.3647052791861087,-0.38873939930559165,0.997408421046547,0.2304598646296178,-0.07614240534267033
10889,3.0,299.73186,3178.5472,0.0,0.0,0.0,0.11042691344725218,0.0,0.0,-0.19051079744195182,-0.3478278255829337,-0.4278603473190286,0.9919724659825601,0.2198979583697388,-0.07889036190537253
10890,3.0,299.59001,3122.6163,0.0,0.0,0.0,0.11043705459092445,0.0,0.0,-0.2123249271223388,-0.37024899339823064,-0.36662346295041864,1.001142642832586,0.24768172194178276,-0.1165654972716189
10891,3.0,300.52166,3372.0423,0.0,0.0,0.0,0.11044719573459671,0.0,0.0,-0.21920598961144677,-0.37573368579202765,-0.43007698390029364,0.9848077643929591,0.27913948984642273,-0.07285621741959883
10892,3.0,300.34697,3432.0893,0.0,0.0,0.0,0.11045733687826897,0.0,0.0,-0.25289659596645075,-0.37803062244371766,-0.4123422092550076,1.011447284892075,0.3174740544572497,-0.10163572314316491
10893,3.0,299.72584,3120.7839,0.0,0.0,0.0,0.11046747802194123,0.0,0.0,-0.1977763782115088,-0.3265958790125037,-0.4242681122695026,0.977386578805545,0.26132522573079175,-0.07653665690357993
10894,3.0,300.49827,2777.3431,0.0,0.0,0.0,0.1104776191656135,0.0,0.0,-0.17327045844796282,-0.3343156998018907,-0.3366567938929387,1.027971104077849,0.24803596430924374,-0.13202864625271288
10895,3.0,301.61034,2857.0668,0.0,0.0,0.0,0.11048776030928575,0.0,0.0,-0.12910712197438087,-0.3452831594142947,-0.3940866747208266,1.005499891840113,0.25389795051027675,-0.08630034398643083
10896,3.0,301.4184,3098.1345,0.0,0.0,0.0,0.11049790145295803,0.0,0.0,-0.2097642009396148,-0.3524269373893307,-0.3795643993850896,1.002786387807311,0.25912837792397975,-0.095155361551853
10897,3.0,300.59282,3358.0265,0.0,0.0,0.0,0.11050804259663027,0.0,0.0,-0.21477030491367882,-0.36842216426293667,-0.43756374703417955,0.9579370100885222,0.23075435563868177,-0.05109599568428216
10898,3.0,300.65906,3311.2158,0.0,0.0,0.0,0.11051818374030255,0.0,0.0,-0.21153484535686382,-0.39057658385690763,-0.4044154827952006,0.985800688695953,0.24971637880508776,-0.08540366324418533
10899,3.0,299.51497,3033.6713,0.0,0.0,0.0,0.1105283248839748,0.0,0.0,-0.18395802798524383,-0.34277024850378973,-0.39543203780610364,1.001297467447866,0.27363983174864875,-0.07468856370168733
10900,3.0,299.97251,3187.8426,0.0,0.0,0.0,0.11053846602764707,0.0,0.0,-0.22075094270142176,-0.3643141747800096,-0.38395945275384763,1.021863232475049,0.25430788110323377,-0.07527513418457733
10901,3.0,300.40069,3409.2314,0.0,0.0,0.0,0.11054860717131933,0.0,0.0,-0.24439999738540175,-0.3449631750327147,-0.44695804467382455,0.995195229515622,0.25538472277950974,-0.05547327360653585
10902,3.0,300.33145,3164.2138,0.0,0.0,0.0,0.11055874831499159,0.0,0.0,-0.24285734437315376,-0.3333046788521107,-0.3856799716886496,1.01184523886885,0.2629276199689357,-0.08110163636710832
10903,3.0,299.86078,2787.1895,0.0,0.0,0.0,0.11056888945866385,0.0,0.0,-0.13802528325953486,-0.3451604142971807,-0.36405031432146867,1.031111571437789,0.29364762021076374,-0.0931126848140065
10904,3.0,299.55645,2820.1492,0.0,0.0,0.0,0.1105790306023361,0.0,0.0,-0.17979079376896984,-0.3055585271237787,-0.3719056269142276,0.9974850936816141,0.29154581526333173,-0.09231583251136331
10905,3.0,298.96873,3135.9633,0.0,0.0,0.0,0.11058917174600837,0.0,0.0,-0.19906708658639183,-0.35400471978254566,-0.4001827318274606,0.976676888303004,0.23481443865688076,-0.12387461739797288
10906,3.0,298.68085,3088.2209,0.0,0.0,0.0,0.11059931288968064,0.0,0.0,-0.20031675833222481,-0.36125848605593663,-0.37716679633596467,0.9656345393757091,0.21781841452700382,-0.11786906379027089
10907,3.0,298.39147,2927.9914,0.0,0.0,0.0,0.11060945403335289,0.0,0.0,-0.14525916956596385,-0.34936790493992764,-0.39540919914884964,1.0104928134303761,0.24141536789084175,-0.10416791620307289
10908,3.0,298.65172,3037.1256,0.0,0.0,0.0,0.11061959517702516,0.0,0.0,-0.2022436155173908,-0.3638207827763157,-0.35714595721256165,1.004630280074289,0.23248724635720477,-0.05150235153088636
10909,3.0,298.54301,3106.77,0.0,0.0,0.0,0.1106297363206974,0.0,0.0,-0.18550303173772384,-0.3310423345588347,-0.4278351275240396,0.98731019829743,0.2240317654652138,-0.08384028420114183
10910,3.0,300.19864,3434.8759,0.0,0.0,0.0,0.11063987746436968,0.0,0.0,-0.26294323415297677,-0.37913801361050864,-0.40203525698529063,0.9740075011795561,0.24517326933171776,-0.06907542969871414
10911,3.0,300.62116000000003,3302.8004,0.0,0.0,0.0,0.11065001860804194,0.0,0.0,-0.24142966484975278,-0.34126690959542166,-0.42127229649383857,1.010500574926142,0.27337741010524974,-0.07317025604959203
10912,3.0,299.67429,2892.7891,0.0,0.0,0.0,0.1106601597517142,0.0,0.0,-0.19027181227336581,-0.3296328023447247,-0.35943103883808164,1.008737134717104,0.26046801614619175,-0.06760614612620713
10913,3.0,298.5615,2900.6498,0.0,0.0,0.0,0.11067030089538646,0.0,0.0,-0.19773558476248282,-0.2996217731978667,-0.38436776214664464,1.007315169924267,0.2514863038147658,-0.09180147231009991
10914,3.0,300.32022,3291.7946,0.0,0.0,0.0,0.11068044203905872,0.0,0.0,-0.25062653070741275,-0.33401007317422765,-0.4159867381421946,0.9938848944863021,0.24060001566787276,-0.0980751987687685
10915,3.0,300.18211,3157.8262,0.0,0.0,0.0,0.11069058318273098,0.0,0.0,-0.19456897554996283,-0.3622793355316867,-0.40305199266563463,0.9913086757095491,0.2527328547502908,-0.1070726103972439
10916,3.0,300.70437999999996,2859.5763,0.0,0.0,0.0,0.11070072432640325,0.0,0.0,-0.15991858830273584,-0.33038684280414266,-0.3789343503404086,1.002592431473169,0.2572424357778517,-0.1206153565963089
10917,3.0,299.45063,2897.937,0.0,0.0,0.0,0.1107108654700755,0.0,0.0,-0.17812532471210082,-0.3241173578103927,-0.37865780399061566,0.994928562354304,0.24342184626886576,-0.08056110087601163
10918,3.0,300.65064,3282.9770000000003,0.0,0.0,0.0,0.11072100661374777,0.0,0.0,-0.2186486209964388,-0.3895658668821576,-0.3897285441857126,1.007530688220537,0.25548370718177876,-0.08059871575947393
10919,3.0,300.95022,3382.1259999999997,0.0,0.0,0.0,0.11073114775742002,0.0,0.0,-0.23779499488603878,-0.36456522775728667,-0.42572161953795257,0.9951331882119991,0.26696057828195774,-0.042615613157833555
10920,3.0,299.78751,3252.4793,0.0,0.0,0.0,0.11074128890109229,0.0,0.0,-0.22855645405176575,-0.34921949419778064,-0.4108965344098306,1.0308359674105891,0.23111122232390177,-0.02871519473971907
10921,3.0,298.62912,3211.1158,0.0,0.0,0.0,0.11075143004476455,0.0,0.0,-0.19014882397622782,-0.3661796695391197,-0.41977053825562666,0.98291056503822,0.22921805570456077,-0.06375361928499235
10922,3.0,299.05644,3210.1238,0.0,0.0,0.0,0.11076157118843681,0.0,0.0,-0.24206486120494178,-0.34189772871017865,-0.3918348986260936,1.002617762725669,0.24932787845174575,-0.08936325313071641
10923,3.0,298.61905,3314.3451,0.0,0.0,0.0,0.11077171233210907,0.0,0.0,-0.1984267327881938,-0.39053642875544464,-0.41851497952671257,0.988536474098454,0.2588232376563648,-0.11975169260857188
10924,3.0,299.70631000000003,3173.5587,0.0,0.0,0.0,0.11078185347578133,0.0,0.0,-0.2199507892299528,-0.3477797671306907,-0.39695203454611566,1.003518967629611,0.27262351150084574,-0.1013458018920519
10925,3.0,299.58252000000005,2831.7743,0.0,0.0,0.0,0.11079199461945359,0.0,0.0,-0.14868107727367985,-0.3410571060297157,-0.37105050462483363,1.002480801709652,0.27195448272481776,-0.12469384023632388
10926,3.0,299.94847999999996,2642.5114,0.0,0.0,0.0,0.11080213576312586,0.0,0.0,-0.15490813748574286,-0.2980607296963037,-0.35028860477579365,1.0258903949974991,0.2589056554194988,-0.10102405141554759
10927,3.0,300.74726,3021.2326,0.0,0.0,0.0,0.11081227690679811,0.0,0.0,-0.17772582046267282,-0.33984476241756667,-0.4008086974742386,0.9955990806079791,0.26367138607233975,-0.08846602422016682
10928,3.0,300.75721,3235.5131,0.0,0.0,0.0,0.11082241805047038,0.0,0.0,-0.2078779649509578,-0.37338957221568164,-0.4022476646037536,0.999890559551515,0.23684884220766075,-0.06785122396764444
10929,3.0,299.89905,3175.3258,0.0,0.0,0.0,0.11083255919414263,0.0,0.0,-0.18448437088218983,-0.37694797484436865,-0.40378739945571357,0.9844838688659929,0.24257686661297279,-0.08683057269751032
10930,3.0,300.58063,3418.7008,0.0,0.0,0.0,0.1108427003378149,0.0,0.0,-0.24148106702732575,-0.3991796648909656,-0.3985389361902306,1.0100999459691031,0.2623001141820058,-0.06843563724107153
10931,3.0,299.94225,3379.4616,0.0,0.0,0.0,0.11085284148148715,0.0,0.0,-0.2563251303298208,-0.3673657091786726,-0.4035811118678546,1.011591298128788,0.27797457647145474,-0.05308735941056445
10932,3.0,299.32116,3274.1859999999997,0.0,0.0,0.0,0.11086298262515942,0.0,0.0,-0.2131698155857228,-0.3525381922503107,-0.4295627898720466,1.026301065263029,0.24875064000227676,-0.06344243194078054
10933,3.0,299.40746,3295.4496,0.0,0.0,0.0,0.1108731237688317,0.0,0.0,-0.2106500652370428,-0.3572313336659877,-0.4338529718554546,0.9945217424391539,0.25101872942361975,-0.07884870820701163
10934,3.0,299.98299,3049.1945,0.0,0.0,0.0,0.11088326491250394,0.0,0.0,-0.2058142379422838,-0.33509152513845863,-0.38597323666509264,1.016635267259089,0.2537737057830148,-0.11146392487313289
10935,3.0,299.60414,2688.5726,0.0,0.0,0.0,0.11089340605617622,0.0,0.0,-0.15028842630481284,-0.3076868792238307,-0.3592836210810327,1.012853949608402,0.25838595944320875,-0.11997765751337287
10936,3.0,301.29456,2836.6994,0.0,0.0,0.0,0.11090354719984846,0.0,0.0,-0.19002176241368782,-0.3202595195121537,-0.35200449315763865,1.021647308878739,0.24909984651674077,-0.1047785919058419
10937,3.0,300.39374,3075.3526,0.0,0.0,0.0,0.11091368834352074,0.0,0.0,-0.1828787747737298,-0.35418785460561963,-0.3977637897312296,0.993707433863788,0.24508147900515875,-0.1110127955311099
10938,3.0,300.653,3099.1755,0.0,0.0,0.0,0.11092382948719298,0.0,0.0,-0.1868609692567418,-0.35976586733362664,-0.39544513912989665,1.002325561661831,0.26059953600917174,-0.07243440140296883
10939,3.0,299.97663,3095.795,0.0,0.0,0.0,0.11093397063086524,0.0,0.0,-0.17780543152302983,-0.3560690142112756,-0.4071699221320426,0.975448768386798,0.26808410039034075,-0.08377622450331962
10940,3.0,299.72763,3333.861,0.0,0.0,0.0,0.1109441117745375,0.0,0.0,-0.2308663805697378,-0.36732682063983463,-0.41521728614875564,0.992348412167163,0.22406526351351982,-0.04596219382661536
10941,3.0,299.86224,3285.0873,0.0,0.0,0.0,0.11095425291820976,0.0,0.0,-0.2085128573311168,-0.3794026644041276,-0.41066899896737463,0.998192139601394,0.23146007420083076,-0.1091126982810849
10942,3.0,300.71609,3237.8208,0.0,0.0,0.0,0.11096439406188202,0.0,0.0,-0.2293501024575928,-0.35254649076862965,-0.4023200917209016,0.9905354341607362,0.24077993848812979,-0.05928980777769845
10943,3.0,299.45637999999997,3088.2065,0.0,0.0,0.0,0.11097453520555428,0.0,0.0,-0.2191341299143548,-0.3194417962839507,-0.4001617474178896,1.0036430401043561,0.24762437198612275,-0.10847750192589589
10944,3.0,300.11683,2879.1053,0.0,0.0,0.0,0.11098467634922655,0.0,0.0,-0.18438164758705183,-0.3066958800960267,-0.38409858212507864,0.995792510052069,0.2556411155848138,-0.06921686016092223
10945,3.0,300.42079,2822.5843,0.0,0.0,0.0,0.1109948174928988,0.0,0.0,-0.14757492227201086,-0.3299329878193507,-0.3804872473111676,0.9895267234211841,0.2631576480066377,-0.14317335370510986
10946,3.0,300.65499,3033.5989,0.0,0.0,0.0,0.11100495863657107,0.0,0.0,-0.15885352059262184,-0.3665745533680917,-0.3967102528072536,1.012498704123342,0.26747502562272973,-0.1122136083571209
10947,3.0,299.61433999999997,3110.1907,0.0,0.0,0.0,0.11101509978024332,0.0,0.0,-0.2060338497689578,-0.35576297215107167,-0.38362349955069164,0.9927652125957981,0.2783307034841017,-0.1106839857411589
10948,3.0,299.26722,3254.5724,0.0,0.0,0.0,0.1110252409239156,0.0,0.0,-0.23837154432543975,-0.3438218197225717,-0.4071153788791596,1.019600847651769,0.23413854004517476,-0.07730912432931651
10949,3.0,298.96554,3260.8125,0.0,0.0,0.0,0.11103538206758784,0.0,0.0,-0.1973972504215918,-0.3783556122807917,-0.41545270467698964,1.008763408292197,0.24012842880633078,-0.05158490304303354
10950,3.0,301.01955,3383.3763,0.0,0.0,0.0,0.11104552321126013,0.0,0.0,-0.2072227265087908,-0.38853392231781264,-0.43270525333468357,0.9961949932567911,0.2509624433805648,-0.04165993896826586
10951,3.0,299.78036000000003,3316.2239,0.0,0.0,0.0,0.11105566435493239,0.0,0.0,-0.19569875954396382,-0.36661138500922663,-0.4457391048035246,0.991705960941258,0.24818676632162676,-0.034805702275555364
10952,3.0,300.1374,3319.4316,0.0,0.0,0.0,0.11106580549860463,0.0,0.0,-0.22369489020446678,-0.35014169364379466,-0.4351877262121846,0.9795196323860611,0.25353143768410474,-0.06399605254366864
10953,3.0,300.10177000000004,3238.3334,0.0,0.0,0.0,0.11107594664227691,0.0,0.0,-0.22323354730143577,-0.36684410829219466,-0.3942948165563686,1.0158377381053791,0.26110733642928774,-0.08785469497108332
10954,3.0,299.73503999999997,2934.3278,0.0,0.0,0.0,0.11108608778594915,0.0,0.0,-0.2136193946550928,-0.3295473752287937,-0.34879563141594866,1.0024982093463701,0.2368507471178488,-0.11298711335095989
10955,3.0,300.53946,2936.5232,0.0,0.0,0.0,0.11109622892962143,0.0,0.0,-0.1970267757875288,-0.3395788653263247,-0.35602409683434266,1.004455312047021,0.25167498111588676,-0.12331700560294089
10956,3.0,299.44911,3017.7659,0.0,0.0,0.0,0.11110637007329369,0.0,0.0,-0.21696550112282778,-0.30039616985179374,-0.39996380901085465,1.003161300476812,0.2359036318518758,-0.08909417544741052
10957,3.0,299.66276,3074.8112,0.0,0.0,0.0,0.11111651121696595,0.0,0.0,-0.17168354667134683,-0.35774182933136967,-0.40524045076161863,1.004864280052383,0.25110502793463674,-0.1091577676455329
10958,3.0,299.58859,3093.6072,0.0,0.0,0.0,0.1111266523606382,0.0,0.0,-0.18611561235068083,-0.36826392499481964,-0.38599979395021367,0.99910453078644,0.26229699337169776,-0.08510405025586583
10959,3.0,300.09109,3223.9251,0.0,0.0,0.0,0.11113679350431045,0.0,0.0,-0.2022361174666508,-0.36694740913988966,-0.4108092125162126,1.014180972866869,0.25836676848631474,-0.06793472084213494
10960,3.0,298.75428999999997,3312.5934,0.0,0.0,0.0,0.11114693464798273,0.0,0.0,-0.2637983057798658,-0.3481951490091857,-0.39495222335374963,0.9788225771122671,0.2646978286886417,-0.04969673579968595
10961,3.0,299.12064,3378.0447,0.0,0.0,0.0,0.111157075791655,0.0,0.0,-0.21912462562841678,-0.36255158570105567,-0.44516503782686856,0.974671159730054,0.2335002836746838,-0.06831816913047833
10962,3.0,298.92362,3180.5705,0.0,0.0,0.0,0.11116721693532725,0.0,0.0,-0.2019868174120468,-0.37863673852103663,-0.3861904572215306,0.995202058821296,0.2711492934003517,-0.0913960577728386
10963,3.0,300.26378,3006.2318,0.0,0.0,0.0,0.11117735807899952,0.0,0.0,-0.15560209221423085,-0.36405785290221265,-0.39415944634300865,1.004334968332644,0.26201001054587475,-0.08666876780229142
10964,3.0,300.27533,2915.99,0.0,0.0,0.0,0.11118749922267177,0.0,0.0,-0.1890256970353838,-0.34396914628711167,-0.35339331453970463,1.0054993244200572,0.26643352610994175,-0.12563313321152486
10965,3.0,299.61133,3063.2289,0.0,0.0,0.0,0.11119764036634404,0.0,0.0,-0.19627404242073979,-0.36705938340844063,-0.36781167094518563,0.9710877602214001,0.2646286034418098,-0.11822494762289387
10966,3.0,299.86652000000004,3032.4005,0.0,0.0,0.0,0.1112077815100163,0.0,0.0,-0.2172364745970708,-0.3465573923425517,-0.3579801761523927,1.035054026251879,0.24691194570831176,-0.13352582460047288
10967,3.0,299.92928,2896.7219,0.0,0.0,0.0,0.11121792265368856,0.0,0.0,-0.15180103645159584,-0.34051175456089366,-0.3882183253091656,0.99299615255859,0.24909042329081074,-0.08142126408465312
10968,3.0,300.20466,3208.1907,0.0,0.0,0.0,0.11122806379736082,0.0,0.0,-0.1996882291626938,-0.3675034807947697,-0.4080181644532576,1.00044242621848,0.24577496763860077,-0.08575926235353022
10969,3.0,301.20858,3629.2377,0.0,0.0,0.0,0.11123820494103308,0.0,0.0,-0.24156316055042779,-0.3683491798582337,-0.4932853084584695,0.989203415579276,0.2512882944802237,-0.04410008940233996
10970,3.0,300.84085,3654.6352,0.0,0.0,0.0,0.11124834608470534,0.0,0.0,-0.25960736151125174,-0.4063832043568996,-0.4449272989559056,0.9866653152712851,0.26298284209938577,-0.05453977743515695
10971,3.0,299.21851000000004,3305.6375,0.0,0.0,0.0,0.11125848722837761,0.0,0.0,-0.23306063445629377,-0.37548531792751566,-0.3962853159803156,1.0008550216592,0.28123214514545175,-0.05835357279129925
10972,3.0,299.08317999999997,3174.1,0.0,0.0,0.0,0.11126862837204986,0.0,0.0,-0.21529233136519876,-0.33628429275867566,-0.4132705287316256,0.9944729443143381,0.2515368143322508,-0.04942677050929246
10973,3.0,299.94466,3169.0425,0.0,0.0,0.0,0.11127876951572213,0.0,0.0,-0.2032015928244358,-0.38078709841326064,-0.37932107750607563,0.980174830298224,0.26397323327712974,-0.10185762491506489
10974,3.0,298.93737000000004,3108.0438,0.0,0.0,0.0,0.11128891065939438,0.0,0.0,-0.2039675491050298,-0.33996401182183567,-0.4008361261544456,0.994142756504251,0.24707246478915376,-0.09953890237297482
10975,3.0,299.97116,2925.1893,0.0,0.0,0.0,0.11129905180306665,0.0,0.0,-0.16665863677542683,-0.3468813689295257,-0.37564449951822565,1.002967222552658,0.2560990944975127,-0.13205262988257987
10976,3.0,299.20545,2703.2861,0.0,0.0,0.0,0.11130919294673891,0.0,0.0,-0.15443296371884685,-0.3201937190506597,-0.3471047905765757,1.001410343509006,0.24861455038134575,-0.1028946053324069
10977,3.0,300.53002999999995,2968.7248,0.0,0.0,0.0,0.11131933409041117,0.0,0.0,-0.2005792914331348,-0.3247831239210987,-0.37705578465500866,1.009542972521634,0.22993801043061476,-0.12253220287048688
10978,3.0,301.33897,3470.2085,0.0,0.0,0.0,0.11132947523408343,0.0,0.0,-0.24322389772932976,-0.3856693528276017,-0.4259634924693236,1.001967823581525,0.2550206113560748,-0.07184346583864804
10979,3.0,301.66247000000004,3398.3512,0.0,0.0,0.0,0.11133961637775569,0.0,0.0,-0.2227197383082268,-0.37762549465623463,-0.4326686851385746,1.006545991508355,0.25237297871227377,-0.07377652614092622
10980,3.0,300.17465,3252.1031,0.0,0.0,0.0,0.11134975752142795,0.0,0.0,-0.17708680415460684,-0.38798904707653764,-0.4234822861544476,1.009909657600323,0.22539887289763677,-0.02878473004108167
10981,3.0,300.20822000000004,3328.0786,0.0,0.0,0.0,0.11135989866510022,0.0,0.0,-0.19507896459029483,-0.3952337346290326,-0.42134007279302765,1.001853569500249,0.2507030513549648,-0.07410293756789053
10982,3.0,300.36625,3630.7582,0.0,0.0,0.0,0.11137003980877247,0.0,0.0,-0.2649328621818377,-0.3700486333234566,-0.4686783575274525,0.9980804997053762,0.2743990093860737,-0.049851344592694656
10983,3.0,299.95623,3437.0832,0.0,0.0,0.0,0.11138018095244474,0.0,0.0,-0.2550473408937127,-0.3893527195911216,-0.4003874083476606,1.0127012426858308,0.25614887547492576,-0.10879839823256589
10984,3.0,299.07382,2909.5948,0.0,0.0,0.0,0.11139032209611699,0.0,0.0,-0.16515282553681485,-0.3452802615190087,-0.3740110795620197,1.007817326541326,0.25765962124152475,-0.10583558401265891
10985,3.0,300.02041,2748.1294,0.0,0.0,0.0,0.11140046323978926,0.0,0.0,-0.15976020717960485,-0.3210129114915077,-0.3545895880052677,0.996303471812497,0.26926106130899774,-0.12380436876853988
10986,3.0,300.42812999999995,2943.522,0.0,0.0,0.0,0.11141060438346152,0.0,0.0,-0.17729326399498282,-0.35611945380125365,-0.3613444704594227,0.9894066026218291,0.2568247538216298,-0.1061382620825309
10987,3.0,300.02947,2971.9944,0.0,0.0,0.0,0.11142074552713378,0.0,0.0,-0.18295514343376681,-0.3246420491096757,-0.3958149044888896,1.0014170309596662,0.24693021460761477,-0.1082689649228149
10988,3.0,301.08646,3152.2527,0.0,0.0,0.0,0.11143088667080604,0.0,0.0,-0.2229866891795728,-0.3494618940192037,-0.38575754611630564,1.0090744355428931,0.2303441210706948,-0.07090589437536693
10989,3.0,300.76854,3197.0354,0.0,0.0,0.0,0.1114410278144783,0.0,0.0,-0.1838352727356288,-0.37901272523564367,-0.4089709336547886,1.033370105910689,0.2342717216383188,-0.09130437789054051
10990,3.0,300.14082,3351.0913,0.0,0.0,0.0,0.11145116895815056,0.0,0.0,-0.25056926181176076,-0.3444050971426367,-0.4236737194958406,1.033572553280669,0.24685319746751377,-0.06857490948056663
10991,3.0,300.1396,3679.6761,0.0,0.0,0.0,0.11146131010182284,0.0,0.0,-0.23104274688214377,-0.4174790528894746,-0.4700078429836625,0.984173611685373,0.24830785984107778,-0.061269016555781146
10992,3.0,299.30913,3503.3339,0.0,0.0,0.0,0.11147145124549508,0.0,0.0,-0.23927958866755678,-0.3850738454788296,-0.4405725932061296,0.984477688040383,0.2585742821067948,-0.07137552465096583
10993,3.0,300.03193,3059.4016,0.0,0.0,0.0,0.11148159238916736,0.0,0.0,-0.17173220294114885,-0.3399245355979397,-0.4183249546029586,0.9596119530338261,0.28726799493114374,-0.08392556540905842
10994,3.0,300.31568,2777.1706,0.0,0.0,0.0,0.1114917335328396,0.0,0.0,-0.2076184006728408,-0.31511521835695067,-0.3214568872878247,0.9933976123807111,0.2920831823213657,-0.10798502184729189
10995,3.0,300.71636,2792.5168,0.0,0.0,0.0,0.11150187467651188,0.0,0.0,-0.1827038776739688,-0.3116582116657707,-0.3544932684507617,0.996384025195447,0.26835379716945773,-0.1010188767472869
10996,3.0,299.92337000000003,2888.0271,0.0,0.0,0.0,0.11151201582018415,0.0,0.0,-0.20216528115215981,-0.33789329338747165,-0.3378295295586787,0.9895963033055512,0.24895996734043577,-0.1169479282568619
10997,3.0,300.09085,3143.0507,0.0,0.0,0.0,0.1115221569638564,0.0,0.0,-0.18312412315294382,-0.37941202683505165,-0.3928727605710226,1.0143092503295292,0.22874296299767277,-0.10935694221768989
10998,3.0,300.39677,3180.5722,0.0,0.0,0.0,0.11153229810752867,0.0,0.0,-0.2027329139906808,-0.3471782714738277,-0.4169033343151556,1.029809342409269,0.2594920637823727,-0.07314227008183002
10999,3.0,300.34202,3285.4502,0.0,0.0,0.0,0.11154243925120091,0.0,0.0,-0.2014265103717488,-0.36530919651071064,-0.43195910609354465,0.998368830153832,0.2424973872751288,-0.06945113169004304
11000,3.0,300.36961,3504.261,0.0,0.0,0.0,0.11155258039487319,0.0,0.0,-0.24144868355412977,-0.3748836196206326,-0.44887552929556557,1.022831494270609,0.24882005776662777,-0.06514209818852454
11001,3.0,300.40783999999996,3511.5035,0.0,0.0,0.0,0.11156272153854545,0.0,0.0,-0.2297738740469158,-0.3997935019340466,-0.4378420057766416,1.007466316441684,0.25804252845431475,-0.08006689928548771
11002,3.0,300.16617,3081.7514,0.0,0.0,0.0,0.1115728626822177,0.0,0.0,-0.2192691657551818,-0.3512725212853987,-0.36623378722696065,1.0100399210331792,0.26568923311648573,-0.09021692343271712
11003,3.0,299.42151,2858.4043,0.0,0.0,0.0,0.11158300382588997,0.0,0.0,-0.1969768732201038,-0.31133395136876874,-0.36057270825575566,0.9948914571356421,0.2510560879548068,-0.07696719700357092
11004,3.0,299.32337,2952.7692,0.0,0.0,0.0,0.11159314496956221,0.0,0.0,-0.19288692972145782,-0.32657204737015166,-0.3781091391939666,0.9842469000651062,0.25442812349260074,-0.1001367787004806
11005,3.0,300.15142000000003,3018.8124,0.0,0.0,0.0,0.11160328611323449,0.0,0.0,-0.18670912359675582,-0.33938743198493165,-0.39154702414018266,0.9853094447824711,0.27751358820595873,-0.09958186417721482
11006,3.0,300.715,3175.8003,0.0,0.0,0.0,0.11161342725690676,0.0,0.0,-0.2135923712749258,-0.3496375611890407,-0.40213403873753967,0.9847317706354591,0.2744010966812797,-0.1013334098433289
11007,3.0,300.52328,3313.3557,0.0,0.0,0.0,0.111623568400579,0.0,0.0,-0.2294413354965968,-0.36622367499096264,-0.41151237768810955,1.031760659451849,0.2775450293565617,-0.08136701670079932
11008,3.0,301.1073,3327.6006,0.0,0.0,0.0,0.11163370954425128,0.0,0.0,-0.2241311146375188,-0.36433490587705564,-0.4230414716984426,0.9916319024914491,0.24315570599759978,-0.07204982232751383
11009,3.0,300.31674,3372.6548,0.0,0.0,0.0,0.11164385068792353,0.0,0.0,-0.2359266630266488,-0.37380371792905465,-0.41547247318644065,1.011704508562461,0.24508488352549476,-0.07840945820916102
11010,3.0,299.80357999999995,3587.6031,0.0,0.0,0.0,0.1116539918315958,0.0,0.0,-0.2278714159241578,-0.3901858847508486,-0.4724844694080865,0.992237420751209,0.22428634455283877,-0.05339281074596015
11011,3.0,300.52689,3375.8378,0.0,0.0,0.0,0.11166413297526806,0.0,0.0,-0.24024434461777075,-0.35967485720964465,-0.42625120483521856,1.0231601926030491,0.25755780987147675,-0.057589534593144545
11012,3.0,298.27988,2902.4729,0.0,0.0,0.0,0.11167427411894032,0.0,0.0,-0.14488450007648687,-0.34700123641635566,-0.39039356049134466,1.0175405048984292,0.2275404175139908,-0.08337855119682232
11013,3.0,298.24815,2840.1164,0.0,0.0,0.0,0.11168441526261258,0.0,0.0,-0.17699965451350583,-0.34554049454219166,-0.3407842985727917,1.036308328550669,0.26433182248751974,-0.12935483122632788
11014,3.0,299.15857,3065.1847,0.0,0.0,0.0,0.11169455640628484,0.0,0.0,-0.1967621756564148,-0.3590314535286456,-0.37594599208548063,0.9948147034405671,0.25801324552642474,-0.09704839543543091
11015,3.0,299.64954,3010.7692,0.0,0.0,0.0,0.1117046975499571,0.0,0.0,-0.20625924725370282,-0.35515101975317664,-0.3537884010186967,1.0150353453511891,0.25569415922754873,-0.11807530071562489
11016,3.0,300.24685,3092.9844,0.0,0.0,0.0,0.11171483869362937,0.0,0.0,-0.2002865938767478,-0.3494545378234777,-0.3904488839468046,0.9861068219486661,0.27305056602049277,-0.08890550017278971
11017,3.0,300.94223,3217.8263,0.0,0.0,0.0,0.11172497983730162,0.0,0.0,-0.2004390474867938,-0.3688487222900346,-0.4088510864329606,0.990070686737369,0.2655892354641168,-0.09284042147238622
11018,3.0,300.26225,3233.4343,0.0,0.0,0.0,0.11173512098097389,0.0,0.0,-0.18266957915808382,-0.3868797206020556,-0.4133339987178896,1.007800861227201,0.25883890250291075,-0.08578787450985402
11019,3.0,300.43543999999997,3450.7061,0.0,0.0,0.0,0.11174526212464614,0.0,0.0,-0.23684086792937376,-0.37259663308492463,-0.43949098925438357,0.992188541566385,0.2528957752338698,-0.06887508279619144
11020,3.0,300.71512,3578.8544,0.0,0.0,0.0,0.11175540326831841,0.0,0.0,-0.2537209559828088,-0.4122021274286826,-0.4219592901941397,1.0224025855032792,0.2340601448849378,-0.07339990918475703
11021,3.0,299.68034,3058.5673,0.0,0.0,0.0,0.11176554441199067,0.0,0.0,-0.1986462230248558,-0.3224167492400557,-0.4086651246421076,1.0320597708813688,0.23561187661808178,-0.06830244652867663
11022,3.0,299.54053,2912.8544,0.0,0.0,0.0,0.11177568555566293,0.0,0.0,-0.17277577961664184,-0.3382654905467047,-0.3743937435947856,1.0268830761204688,0.26098464197467874,-0.10458173767641389
11023,3.0,299.44782000000004,3255.7478,0.0,0.0,0.0,0.11178582669933519,0.0,0.0,-0.2350322063683728,-0.3341554745635777,-0.42047834411298163,1.028115390892089,0.2584300155575568,-0.06587632150248673
11024,3.0,299.8038,3304.4041,0.0,0.0,0.0,0.11179596784300745,0.0,0.0,-0.22726873476467777,-0.35222879633227566,-0.4249588144651696,1.007772875259439,0.2732106696687937,-0.12612907860547087
11025,3.0,300.8683,3119.3278,0.0,0.0,0.0,0.11180610898667971,0.0,0.0,-0.2039808226813398,-0.36120825924847966,-0.3830086999200156,0.9991569259491111,0.25845093917212175,-0.08433575235429072
11026,3.0,301.38915,3118.9658,0.0,0.0,0.0,0.11181625013035199,0.0,0.0,-0.1911238441499548,-0.37304066967624766,-0.38392319866526964,1.0042327313975539,0.25542999479397777,-0.11579014816259789
11027,3.0,300.73461000000003,3212.0783,0.0,0.0,0.0,0.11182639127402423,0.0,0.0,-0.21734386897516983,-0.35553674380124467,-0.4035109949609346,0.980440615931955,0.26817707621951675,-0.05152024147465195
11028,3.0,300.43302,3363.2068,0.0,0.0,0.0,0.1118365324176965,0.0,0.0,-0.2215391195567088,-0.37299850833958664,-0.4277932397649056,0.995562056449325,0.25573415220899576,-0.10387266525643389
11029,3.0,300.02846,3468.7064,0.0,0.0,0.0,0.11184667356136875,0.0,0.0,-0.2204551648647308,-0.3863604603233086,-0.4475845169456526,1.012420805455654,0.22516915896746578,-0.06354523325617624
11030,3.0,299.05882,3094.03,0.0,0.0,0.0,0.11185681470504102,0.0,0.0,-0.17345419108859583,-0.3711136199735626,-0.39594006114124164,1.0331420233131792,0.2559149666893408,-0.1062048022165979
11031,3.0,300.10542000000004,3038.6403,0.0,0.0,0.0,0.11186695584871328,0.0,0.0,-0.18035250922690685,-0.3837508853532636,-0.3595673817715377,1.028454525700559,0.24613941343456877,-0.07955957306641852
11032,3.0,299.37359,3130.4699,0.0,0.0,0.0,0.11187709699238554,0.0,0.0,-0.2010247060445938,-0.35355750158590865,-0.39700248426859464,1.028630121942889,0.2650962386279618,-0.1174642805078219
11033,3.0,299.42525,3214.5193,0.0,0.0,0.0,0.1118872381360578,0.0,0.0,-0.2024589615611438,-0.3592580365160077,-0.4154166025759266,1.0096277410249999,0.25555026758084776,-0.099811955036423
11034,3.0,299.64416,2936.2203,0.0,0.0,0.0,0.11189737927973006,0.0,0.0,-0.17322722306619584,-0.33598030759617464,-0.3833301332492386,1.0213245887218891,0.2727642114097317,-0.1028230496103449
11035,3.0,300.04651,2829.2842,0.0,0.0,0.0,0.11190752042340232,0.0,0.0,-0.15509811174699187,-0.32368683797540365,-0.38124678971862863,1.021151728254829,0.2636772831879217,-0.1031708173096669
11036,3.0,300.16385,3159.6193,0.0,0.0,0.0,0.1119176615670746,0.0,0.0,-0.20768289404170578,-0.3632198950695127,-0.38954257226235867,0.990514753726195,0.27263772739974873,-0.12038680790375288
11037,3.0,301.26727,3593.7184,0.0,0.0,0.0,0.11192780271074684,0.0,0.0,-0.27259540394307175,-0.39741414751922266,-0.4223911069892566,0.9827604419034041,0.25570821300643576,-0.0923118636107216
11038,3.0,300.64857,3576.4552,0.0,0.0,0.0,0.11193794385441912,0.0,0.0,-0.23890056220264977,-0.3761238884055377,-0.4721286261054676,0.9949390596253401,0.25457306891940573,-0.07134912745936063
11039,3.0,301.35211,3398.67,0.0,0.0,0.0,0.11194808499809136,0.0,0.0,-0.2149006899365468,-0.36557454644689863,-0.45263557882665356,1.015492625121319,0.2720834086675417,-0.030143822665213673
11040,3.0,300.97900000000004,3153.2156,0.0,0.0,0.0,0.11195822614176364,0.0,0.0,-0.17095024744147583,-0.35371043142350167,-0.4338381277414896,0.9752114854783801,0.2534742295834587,-0.051496774602335954
11041,3.0,299.84258,3078.0498,0.0,0.0,0.0,0.11196836728543588,0.0,0.0,-0.18990474215963882,-0.3454522100609787,-0.4002933280758756,1.013754597224789,0.2330229314200728,-0.07909349321917002
11042,3.0,299.85135,3320.6775,0.0,0.0,0.0,0.11197850842910816,0.0,0.0,-0.2196264174754398,-0.3714956051287617,-0.41828102007862256,1.007526412305115,0.23467720406333678,-0.09833442056835172
11043,3.0,299.9132,3178.197,0.0,0.0,0.0,0.1119886495727804,0.0,0.0,-0.2241142034933498,-0.36797463195876867,-0.3740037031012916,1.077358636477019,0.2584288300549398,-0.1048780728006599
11044,3.0,299.41196,2825.3005,0.0,0.0,0.0,0.11199879071645268,0.0,0.0,-0.14148119564060688,-0.3490754201660617,-0.36826417830734465,1.025509412959899,0.25683824018046075,-0.12923137683414387
11045,3.0,299.0011,2835.0623,0.0,0.0,0.0,0.11200893186012494,0.0,0.0,-0.16599176622211184,-0.3222978342083197,-0.37349854726393666,1.020388649604519,0.25316978845841276,-0.10907585650744889
11046,3.0,299.37699,3259.5935,0.0,0.0,0.0,0.1120190730037972,0.0,0.0,-0.1917883639630378,-0.3684320535839126,-0.4306146042708526,1.002135526605576,0.26682703191877777,-0.08170044184495583
11047,3.0,300.38811,3379.4927,0.0,0.0,0.0,0.11202921414746946,0.0,0.0,-0.22238442345263376,-0.3739774497912007,-0.43091953175594655,0.991295837830782,0.2684768057315977,-0.1077748636440509
11048,3.0,299.056,3309.5640000000003,0.0,0.0,0.0,0.11203935529114172,0.0,0.0,-0.22061211730522082,-0.38347474430351064,-0.40193796471068866,0.9964056986150861,0.26468329868220775,-0.07039998569318763
11049,3.0,300.00678,3075.3309,0.0,0.0,0.0,0.11204949643481397,0.0,0.0,-0.22532660790050477,-0.35036897577372567,-0.35912821891319563,0.979883429701965,0.24092082078203375,-0.09726458146351681
11050,3.0,299.45125,3010.663,0.0,0.0,0.0,0.11205963757848623,0.0,0.0,-0.1916409968684938,-0.3145173197379427,-0.4090080692709536,0.9995954504598901,0.26395245151757873,-0.01997386687526718
11051,3.0,300.3411,3148.678,0.0,0.0,0.0,0.1120697787221585,0.0,0.0,-0.1884557134566308,-0.35313502695671367,-0.4155287592294956,1.018438953762099,0.2576860772016357,-0.08311014428508262
11052,3.0,300.94853,3188.4749,0.0,0.0,0.0,0.11207991986583075,0.0,0.0,-0.16637629463506184,-0.37103357321566266,-0.4318068753985206,1.039621757702679,0.2570353781199168,-0.05163786866551085
11053,3.0,301.15495,2919.6442,0.0,0.0,0.0,0.11209006100950301,0.0,0.0,-0.17058048208248283,-0.3492476524180596,-0.3676707987837826,1.025498976483869,0.2174081698265158,-0.14248331012200788
11054,3.0,299.88286,2986.9249,0.0,0.0,0.0,0.11210020215317527,0.0,0.0,-0.20118716043312682,-0.34674447884101567,-0.36001893667860263,1.0455534251130891,0.23629319611782276,-0.10934358758137189
11055,3.0,300.47335,3259.7265,0.0,0.0,0.0,0.11211034329684753,0.0,0.0,-0.2749730662302287,-0.34598089356565565,-0.3699214907009087,1.027199412801689,0.2618107853112127,-0.1291515327262639
11056,3.0,300.534,3343.4391,0.0,0.0,0.0,0.11212048444051981,0.0,0.0,-0.21986524052400977,-0.37934058257050063,-0.41711618776366255,1.009537723886116,0.27280590665134674,-0.1032972405246439
11057,3.0,300.33847000000003,3043.8188,0.0,0.0,0.0,0.11213062558419205,0.0,0.0,-0.1936517612944408,-0.33540423438432065,-0.3961889153658016,0.975307359202842,0.2702846668250197,-0.08463610298868302
11058,3.0,299.09899,3028.0942,0.0,0.0,0.0,0.11214076672786433,0.0,0.0,-0.16882382051661385,-0.3227267429756497,-0.4289144516630606,1.005416298706863,0.25777740143314876,-0.05990534708094744
11059,3.0,299.31584,3332.7806,0.0,0.0,0.0,0.11215090787153657,0.0,0.0,-0.23835098548091077,-0.37377755581147265,-0.4009535213110316,0.9860423691098051,0.26154742134522074,-0.04352004931634446
11060,3.0,299.68977,3411.9355,0.0,0.0,0.0,0.11216104901520885,0.0,0.0,-0.22068748284765877,-0.39908528064415066,-0.4173704426112556,1.022255968213809,0.24481735510159178,-0.08503044168910123
11061,3.0,300.95999,3241.0073,0.0,0.0,0.0,0.11217119015888112,0.0,0.0,-0.23109552707985276,-0.36533376782563565,-0.38875600647473063,1.018593879702389,0.22801515558334381,-0.08376062450478002
11062,3.0,301.00055,3102.1257,0.0,0.0,0.0,0.11218133130255337,0.0,0.0,-0.17168888649937383,-0.3476350952814126,-0.4236447810729846,1.029353582514289,0.25868631717035173,-0.0936914188206231
11063,3.0,300.52164,3075.1731,0.0,0.0,0.0,0.11219147244622563,0.0,0.0,-0.2061237757153328,-0.3260295633991127,-0.4026225063457476,0.9959998818175351,0.26305727545173174,-0.0970977153840484
11064,3.0,299.8556,3101.2633,0.0,0.0,0.0,0.11220161358989789,0.0,0.0,-0.17201787867434282,-0.33507093589642667,-0.43561780021712954,1.0111002467328252,0.2776341041728527,-0.1160248979457659
11065,3.0,300.54112000000003,3124.7124,0.0,0.0,0.0,0.11221175473357015,0.0,0.0,-0.2164356219830328,-0.35520429644343465,-0.37819463723740465,0.991299171423611,0.26962168715208873,-0.1092359804207519
11066,3.0,299.89887999999996,2910.6653,0.0,0.0,0.0,0.11222189587724242,0.0,0.0,-0.18324909742027784,-0.3188610722541377,-0.3826594022130426,1.034236029446149,0.24721307350553076,-0.07802772130023652
11067,3.0,300.34985,2914.2267,0.0,0.0,0.0,0.11223203702091467,0.0,0.0,-0.21029079714908583,-0.3363264743603387,-0.3392348669173747,1.0336775259910291,0.24768717322732078,-0.09820328168740931
11068,3.0,299.27446000000003,3219.208,0.0,0.0,0.0,0.11224217816458694,0.0,0.0,-0.1975641935080678,-0.34217724388276466,-0.43881741098540655,0.9894475176608669,0.25850719481767376,-0.06284188164626084
11069,3.0,299.20877,3483.4492,0.0,0.0,0.0,0.11225231930825919,0.0,0.0,-0.2236561941831478,-0.37924095982066863,-0.4559844210696586,0.998530899507327,0.2503152805416948,-0.07131711483570123
11070,3.0,299.17298,3358.2745,0.0,0.0,0.0,0.11226246045193146,0.0,0.0,-0.1840674792610458,-0.36275080080321664,-0.4740133219539725,0.9798993073310321,0.2726601708894637,-0.04464495349786386
11071,3.0,299.93177000000003,3308.4949,0.0,0.0,0.0,0.11227260159560373,0.0,0.0,-0.21957322184518976,-0.3633499254548456,-0.42277666891730853,1.009418281964328,0.2732498419176597,-0.07237921676277252
11072,3.0,300.35041,3257.7411,0.0,0.0,0.0,0.11228274273927598,0.0,0.0,-0.2051357859403258,-0.3622055506594047,-0.42293060187250064,0.9971092386895201,0.23993005470175277,-0.09012763178090472
11073,3.0,300.72026,3004.4278,0.0,0.0,0.0,0.11229288388294825,0.0,0.0,-0.1996538191892978,-0.3386059324478037,-0.3750112587357296,1.006742460702745,0.24940808732966174,-0.12330936569718687
11074,3.0,300.00486,3121.3213,0.0,0.0,0.0,0.1123030250266205,0.0,0.0,-0.1789002583885808,-0.3504550817672237,-0.4194484057838346,1.022500566787949,0.24429642296017978,-0.0921349025205069
11075,3.0,301.28425,3105.7774,0.0,0.0,0.0,0.11231316617029277,0.0,0.0,-0.2060961139876028,-0.3518925391540897,-0.3860901251966286,1.063644397698529,0.2621374672759538,-0.1012471913790698
11076,3.0,300.29715,2970.6186,0.0,0.0,0.0,0.11232330731396503,0.0,0.0,-0.15983000997899385,-0.3537460471645167,-0.3894178209100466,1.0429009390013089,0.25697840306679376,-0.11073045339074489
11077,3.0,300.64329,3222.2578,0.0,0.0,0.0,0.11233344845763729,0.0,0.0,-0.2163854762355838,-0.38646760138888264,-0.3766328439307676,1.020315898247339,0.24636674622700475,-0.10247426866092291
11078,3.0,300.0948,3483.8940000000002,0.0,0.0,0.0,0.11234358960130955,0.0,0.0,-0.25568131121628074,-0.37665217674267565,-0.4266832850753616,1.007215993004479,0.2559084413586968,-0.06874725015032535
11079,3.0,299.09562,3379.3423,0.0,0.0,0.0,0.11235373074498181,0.0,0.0,-0.2541300962406878,-0.3622633971076136,-0.4108421735419656,1.000833976454623,0.2534522420562888,-0.08250671433377872
11080,3.0,299.4864,3260.0545,0.0,0.0,0.0,0.11236387188865407,0.0,0.0,-0.18461770446284884,-0.35491538844242165,-0.4514420917988656,0.998382215187653,0.24384018683765277,-0.06743691714750553
11081,3.0,299.92525,3127.9504,0.0,0.0,0.0,0.11237401303232634,0.0,0.0,-0.18954330571646782,-0.35615805863006367,-0.4051174523319796,0.9815346119324241,0.2581017326576578,-0.0927218043361796
11082,3.0,299.02393,3065.0984,0.0,0.0,0.0,0.11238415417599859,0.0,0.0,-0.16237357170502387,-0.3305519823054407,-0.43878781394998556,0.9990017568287971,0.2653445659624698,-0.07045729613209373
11083,3.0,300.06271,3097.3520000000003,0.0,0.0,0.0,0.11239429531967086,0.0,0.0,-0.21116320548518577,-0.3603263466264417,-0.3700281048764306,1.012589967559849,0.2650330219542228,-0.1064540617411979
11084,3.0,299.28306000000003,3129.6758,0.0,0.0,0.0,0.11240443646334311,0.0,0.0,-0.18300268512845883,-0.3725472574075516,-0.39579335265926263,1.0453912037720792,0.24332420948922975,-0.1012078641029385
11085,3.0,299.71301,3132.1293,0.0,0.0,0.0,0.11241457760701538,0.0,0.0,-0.2047551281427578,-0.36178523425292264,-0.3855487254031966,1.0228870203760891,0.24337788134702676,-0.1204911929290549
11086,3.0,300.53059,3133.4615,0.0,0.0,0.0,0.11242471875068764,0.0,0.0,-0.15125570524777585,-0.36486600091697063,-0.43637232703659556,1.026914993498619,0.2581315627406017,-0.09001978549326112
11087,3.0,300.7297,3235.6365,0.0,0.0,0.0,0.1124348598943599,0.0,0.0,-0.2340583210347578,-0.35336843924974964,-0.3961259621370886,1.0077975478993741,0.25014822599770775,-0.1064126502096109
11088,3.0,300.41693,3435.2069,0.0,0.0,0.0,0.11244500103803216,0.0,0.0,-0.21875032090897578,-0.38728184916924263,-0.43818496053798855,0.991170002300863,0.2514861112972468,-0.08691186473978323
11089,3.0,300.24086,3278.4519,0.0,0.0,0.0,0.11245514218170442,0.0,0.0,-0.23508073091566178,-0.38823917799622365,-0.37324758547916864,0.990762625098158,0.25246110107347075,-0.09450678928209391
11090,3.0,300.43955,3111.0502,0.0,0.0,0.0,0.11246528332537668,0.0,0.0,-0.1845439601205708,-0.34033681693112866,-0.4208008109573066,1.002407543727422,0.27197476799181974,-0.06780969692554603
11091,3.0,299.74679,3092.7914,0.0,0.0,0.0,0.11247542446904896,0.0,0.0,-0.1961616121896438,-0.3409303991047107,-0.4030393574368876,0.991387232989802,0.2708129956921617,-0.058437013937034245
11092,3.0,298.78117000000003,3150.2419,0.0,0.0,0.0,0.1124855656127212,0.0,0.0,-0.15112603963247886,-0.3825195635667416,-0.42394928299303664,1.0343579234331792,0.24682429957466176,-0.09630596175590841
11093,3.0,298.99722,3287.052,0.0,0.0,0.0,0.11249570675639348,0.0,0.0,-0.2140124445013838,-0.37039132463977764,-0.4147779611703976,1.0260900052671988,0.25789520188977477,-0.0892018221247844
11094,3.0,299.97502000000003,3269.9204,0.0,0.0,0.0,0.11250584790006572,0.0,0.0,-0.17595102172001384,-0.4035056753979096,-0.4145174647021886,1.038806800647249,0.27242308049856473,-0.11647396025758489
11095,3.0,300.27625,3163.278,0.0,0.0,0.0,0.112515989043738,0.0,0.0,-0.23699602691718677,-0.3582611402726217,-0.36630033749352864,1.0004180879510782,0.24890230327724475,-0.07729082300601033
11096,3.0,300.36821000000003,3214.1137,0.0,0.0,0.0,0.11252613018741026,0.0,0.0,-0.21868804655782978,-0.35422826301960764,-0.40409399880347263,0.9925344246205211,0.23836977113776478,-0.1189566256526049
11097,3.0,299.08985,3340.1361,0.0,0.0,0.0,0.11253627133108252,0.0,0.0,-0.2361252093837438,-0.37098844305620865,-0.4082043187616296,1.0010769234311,0.24618441187150975,-0.07666193615919402
11098,3.0,300.26364,3062.3926,0.0,0.0,0.0,0.11254641247475478,0.0,0.0,-0.14147644349763785,-0.34137352377094365,-0.44804091518819555,1.028294938809809,0.26597510136719876,-0.08259885321837213
11099,3.0,301.32523,3176.0671,0.0,0.0,0.0,0.11255655361842704,0.0,0.0,-0.18136684350451382,-0.36622136478073464,-0.41785689385176455,1.022140660352429,0.2523467557996858,-0.06292694500540594
11100,3.0,301.07345,3401.7407,0.0,0.0,0.0,0.11256669476209928,0.0,0.0,-0.21575084730045077,-0.39604451709405064,-0.4222488770727196,1.008281263364613,0.27323154262085375,-0.1099459850308239
11101,3.0,300.48215,3281.9908,0.0,0.0,0.0,0.11257683590577157,0.0,0.0,-0.25126816120073675,-0.3432722328683317,-0.40310285782065464,1.011959614540138,0.27425158149652373,-0.06804864663037853
11102,3.0,300.09187000000003,3048.4747,0.0,0.0,0.0,0.11258697704944381,0.0,0.0,-0.18468184319417882,-0.3653991325895867,-0.3765792227354756,1.005492778824411,0.27303869072932074,-0.10307134654734991
11103,3.0,299.89794,3061.6612,0.0,0.0,0.0,0.11259711819311609,0.0,0.0,-0.18246083950498282,-0.3281912108974507,-0.4200164945849006,1.0087060786015392,0.2516512609310458,-0.06512010255535373
11104,3.0,300.18354,3336.0764,0.0,0.0,0.0,0.11260725933678833,0.0,0.0,-0.19456826627489282,-0.38132335089618463,-0.43819229646871255,0.9844175719119501,0.2288807447462708,-0.11481251380361289
11105,3.0,299.4862,3375.8907,0.0,0.0,0.0,0.11261740048046061,0.0,0.0,-0.2184069000525828,-0.36811680108029965,-0.43966277567633755,1.0035750408901452,0.23292825333072878,-0.09554983197478421
11106,3.0,299.88236,3216.4834,0.0,0.0,0.0,0.11262754162413287,0.0,0.0,-0.22062718433420778,-0.37316113498063663,-0.38394231869465667,1.01142058575194,0.25182656333084674,-0.09801537952261481
11107,3.0,299.80186000000003,3176.8583,0.0,0.0,0.0,0.11263768276780513,0.0,0.0,-0.23812940794904278,-0.3656055316349566,-0.36195066759674965,1.047751265904999,0.26695280665369076,-0.08055434857734521
11108,3.0,299.75684,3346.5925,0.0,0.0,0.0,0.11264782391147739,0.0,0.0,-0.23050746711931577,-0.37133082026499864,-0.41544225806845864,1.019459093962779,0.28442887828344476,-0.10583731667032992
11109,3.0,300.20943,3310.8012,0.0,0.0,0.0,0.11265796505514965,0.0,0.0,-0.24489272064402975,-0.3372593433299057,-0.4242488199875986,1.024841883794019,0.2810245504649637,-0.07788360775176363
11110,3.0,301.32948999999996,3237.6065,0.0,0.0,0.0,0.11266810619882191,0.0,0.0,-0.16370217563364686,-0.36372866820972466,-0.45672068912232255,1.0032200588501112,0.27554704201437574,-0.06883716799069953
11111,3.0,300.17525,3091.0072,0.0,0.0,0.0,0.11267824734249418,0.0,0.0,-0.18537061008215483,-0.3284148351945207,-0.4258035610735396,0.995394079847747,0.24884533835662276,-0.07325609454506363
11112,3.0,300.72559,3136.3874,0.0,0.0,0.0,0.11268838848616643,0.0,0.0,-0.17589189857667883,-0.36626450896999263,-0.4112270363274486,0.9669316312262222,0.21608566566349477,-0.12004622414763988
11113,3.0,300.39846,3207.2456,0.0,0.0,0.0,0.1126985296298387,0.0,0.0,-0.26308567685203477,-0.3225454927977617,-0.3892914179600716,0.983124370941821,0.2286007229486348,-0.09830542641674021
11114,3.0,299.9808,3045.3155,0.0,0.0,0.0,0.11270867077351095,0.0,0.0,-0.18822111566097782,-0.3223365504946407,-0.41514220431634563,0.9936815959862381,0.25701202270511175,-0.08275090760787872
11115,3.0,299.80039,2946.4034,0.0,0.0,0.0,0.11271881191718322,0.0,0.0,-0.18823558487240583,-0.3534019372980557,-0.35399553973663966,1.0260562640388688,0.26319901900822074,-0.07501180568233883
11116,3.0,299.51794,3319.9619,0.0,0.0,0.0,0.1127289530608555,0.0,0.0,-0.16588187924876685,-0.3849622461128156,-0.45834140292227454,1.042504859537219,0.26434908826922376,-0.0983670887648258
11117,3.0,299.01532000000003,3526.7506,0.0,0.0,0.0,0.11273909420452774,0.0,0.0,-0.27433582310983773,-0.37139548588638066,-0.4263128205737996,1.051750766699719,0.2632358303843537,-0.06908539197369734
11118,3.0,300.02214,3482.2132,0.0,0.0,0.0,0.11274923534820001,0.0,0.0,-0.23646104099688778,-0.3820674615046227,-0.43997736956738553,1.049189979721989,0.25785326346813575,-0.07745993343445022
11119,3.0,300.55413,3332.5734,0.0,0.0,0.0,0.11275937649187226,0.0,0.0,-0.27742303404452173,-0.3346540544077837,-0.40094200065739466,1.008176726351796,0.2566905589783858,-0.06536164415394204
11120,3.0,300.31655,3181.8649,0.0,0.0,0.0,0.11276951763554453,0.0,0.0,-0.17868953276528382,-0.36673042163097463,-0.42178752403718756,0.9927563770549261,0.2504380053938068,-0.11905839649264888
11121,3.0,300.32791000000003,3117.3902,0.0,0.0,0.0,0.1127796587792168,0.0,0.0,-0.20195477844388482,-0.3471624343747647,-0.3984915768805566,0.988451259765044,0.2532406653029078,-0.09332603070206211
11122,3.0,300.9256,3043.2221,0.0,0.0,0.0,0.11278979992288905,0.0,0.0,-0.15125745817044886,-0.3311478037617437,-0.4426582672119696,0.9919419772870511,0.27929055530383173,-0.1017200052864829
11123,3.0,299.64772999999997,2912.7815,0.0,0.0,0.0,0.11279994106656131,0.0,0.0,-0.17012648524267684,-0.3522448056838557,-0.3630415529194117,0.9972055582440261,0.26811775042616176,-0.07142622565946963
11124,3.0,299.28837999999996,2998.0767,0.0,0.0,0.0,0.11281008221023356,0.0,0.0,-0.15838694931907485,-0.36499197830190366,-0.3879615170713206,1.0146131240345189,0.2584732712043258,-0.1257863062291419
11125,3.0,299.61212,3462.204,0.0,0.0,0.0,0.11282022335390583,0.0,0.0,-0.25650652236272276,-0.3883756323871906,-0.40754141001620564,1.035162747987609,0.23963854264798276,-0.08203173815065222
11126,3.0,300.62172999999996,3654.8804,0.0,0.0,0.0,0.1128303644975781,0.0,0.0,-0.23942621608952777,-0.4078910927582166,-0.46367506025616556,1.036839980878139,0.23418967877772176,-0.09051476525986181
11127,3.0,300.63247,3480.0686,0.0,0.0,0.0,0.11284050564125035,0.0,0.0,-0.2417100919474288,-0.3686156848995356,-0.44752818024009255,1.009847606164199,0.23111262060903978,-0.07038120611583423
11128,3.0,301.00676,3377.6112,0.0,0.0,0.0,0.11285064678492263,0.0,0.0,-0.2028743738371418,-0.40377364965185664,-0.4200614626243386,0.9957222715551372,0.2522260878452768,-0.1065313321938239
11129,3.0,301.12115,3275.1937,0.0,0.0,0.0,0.11286078792859487,0.0,0.0,-0.24679750924201774,-0.3432919405827767,-0.4054876331235136,1.0257593817595692,0.25419901751248974,-0.07024216489736194
11130,3.0,300.6911,2973.8678,0.0,0.0,0.0,0.11287092907226715,0.0,0.0,-0.21030926869840882,-0.3065146096531367,-0.38715769563448965,1.0399468083347592,0.26363348038609874,-0.08417581183925582
11131,3.0,300.15779,2854.1831,0.0,0.0,0.0,0.1128810702159394,0.0,0.0,-0.1943783933386538,-0.30273271444989275,-0.3704892856594456,1.026793403486619,0.23933814439083576,-0.09064469026718441
11132,3.0,299.55191,3059.8121,0.0,0.0,0.0,0.11289121135961167,0.0,0.0,-0.16095955079297083,-0.33920930261735166,-0.42993760121653757,1.0198872934550391,0.2741682011457947,-0.12064306898654388
11133,3.0,299.35171,3284.0156,0.0,0.0,0.0,0.11290135250328392,0.0,0.0,-0.1877224040942588,-0.3725441669947467,-0.43799215930896057,1.010731241311407,0.2600075953007518,-0.0981258450617669
11134,3.0,299.17274,3297.4787,0.0,0.0,0.0,0.11291149364695618,0.0,0.0,-0.20294846268445382,-0.37006788507535665,-0.42933482886454855,1.020535773519039,0.26619641545404077,-0.09259446716961241
11135,3.0,300.24182,3570.1425,0.0,0.0,0.0,0.11292163479062844,0.0,0.0,-0.2660838332354297,-0.4030547993684116,-0.4160955206729306,0.99653736033308,0.26142658113829476,-0.051557411541320354
11136,3.0,300.14685,3510.3151,0.0,0.0,0.0,0.11293177593430072,0.0,0.0,-0.26361263783154176,-0.3997751519747356,-0.4036603581581756,1.013341393834009,0.2779888126353597,-0.0899106888549941
11137,3.0,300.83269,3233.3798,0.0,0.0,0.0,0.11294191707797296,0.0,0.0,-0.22442632505415377,-0.37719806523405064,-0.38124233141818864,1.031430339919249,0.2513879374950578,-0.05826406329071535
11138,3.0,300.89547000000005,3108.3344,0.0,0.0,0.0,0.11295205822164524,0.0,0.0,-0.16292915699985583,-0.34721336032479067,-0.43471351503288364,1.0545449051754792,0.23968941793550377,-0.08072592221677821
11139,3.0,300.16776,3248.1364,0.0,0.0,0.0,0.11296219936531748,0.0,0.0,-0.2044549629331338,-0.3540368094132127,-0.42886059742024557,1.063252979184899,0.2345711471753698,-0.07015874502987904
11140,3.0,299.56217000000004,3230.9551,0.0,0.0,0.0,0.11297234050898976,0.0,0.0,-0.17915166600339283,-0.3841738463425066,-0.41880417123775365,1.042141609376369,0.2745861566795437,-0.1063989713332609
11141,3.0,300.3623,3118.1781,0.0,0.0,0.0,0.11298248165266202,0.0,0.0,-0.2317562066750568,-0.3351571533474357,-0.38093493160285063,1.0343442445568292,0.28342585187695374,-0.09676409164287231
11142,3.0,300.56751,3134.7579,0.0,0.0,0.0,0.11299262279633428,0.0,0.0,-0.1960165553053278,-0.35367194818470366,-0.4031996130727036,0.989358858277117,0.27437474204617873,-0.09234082331182972
11143,3.0,299.95074,3141.4734,0.0,0.0,0.0,0.11300276394000654,0.0,0.0,-0.20432251088006181,-0.34857800555947066,-0.4020289545696686,0.9838449133529331,0.2599453614796098,-0.11930757495724088
11144,3.0,300.6991,3415.4278,0.0,0.0,0.0,0.1130129050836788,0.0,0.0,-0.17090774159978084,-0.4028394634571596,-0.46445755277839157,0.9738923351731902,0.23936771102875376,-0.1115805702246449
11145,3.0,300.1276,3414.3286,0.0,0.0,0.0,0.11302304622735106,0.0,0.0,-0.2193363037068078,-0.3908811263069636,-0.4276531984685846,1.017175329562389,0.24094870542478578,-0.08924345657139342
11146,3.0,299.46871,3166.5209999999997,0.0,0.0,0.0,0.11303318737102332,0.0,0.0,-0.18543326946833882,-0.37559487052832763,-0.40151518610646364,1.008127644516952,0.2574908340398667,-0.06663806164941463
11147,3.0,298.97238,3175.6986,0.0,0.0,0.0,0.11304332851469558,0.0,0.0,-0.24314208791625574,-0.35958876134864765,-0.3626022380735547,1.049205887748559,0.26096341438508375,-0.06927271658593484
11148,3.0,298.40056,3469.9545,0.0,0.0,0.0,0.11305346965836785,0.0,0.0,-0.23650382041610976,-0.39322730691351365,-0.42504838577400955,1.0435084837612691,0.2996286632985467,-0.06264792328561865
11149,3.0,299.42347,3519.8496,0.0,0.0,0.0,0.1130636108020401,0.0,0.0,-0.2546996643868998,-0.3753209484962936,-0.43992575460729155,1.049756690502919,0.2833089633454177,-0.07171978853144204
11150,3.0,299.35341,3078.3755,0.0,0.0,0.0,0.11307375194571237,0.0,0.0,-0.14608691383765585,-0.3344961393796987,-0.4551662418789105,1.0141237242362189,0.24687152716182276,-0.092119157627203
11151,3.0,299.98955,3065.4216,0.0,0.0,0.0,0.11308389308938462,0.0,0.0,-0.17151241886195784,-0.3546399566677387,-0.4056592371604496,1.019519281018719,0.2392701147791218,-0.10680118096045589
11152,3.0,301.35216,3182.4251,0.0,0.0,0.0,0.11309403423305689,0.0,0.0,-0.2027116256060798,-0.35043803890054165,-0.4142280906061296,1.003080372191325,0.2493560772020288,-0.1226639963109939
11153,3.0,300.69412,3190.6825,0.0,0.0,0.0,0.11310417537672914,0.0,0.0,-0.24764631898328876,-0.35930149481279666,-0.36293998472938765,1.018713747189219,0.2598954285146817,-0.08509570006179172
11154,3.0,299.52047999999996,3233.4278,0.0,0.0,0.0,0.11311431652040141,0.0,0.0,-0.2197033130255288,-0.36889659835725963,-0.3942814011250446,0.9848365812258031,0.27242977808172575,-0.08863009170285902
11155,3.0,300.49652000000003,3529.9134,0.0,0.0,0.0,0.11312445766407365,0.0,0.0,-0.24848630331618876,-0.39023337578303563,-0.43428585256317653,1.031525686753659,0.27154349835175673,-0.07514730559171162
11156,3.0,300.0949,3528.7468,0.0,0.0,0.0,0.11313459880774593,0.0,0.0,-0.19044292995025383,-0.4313526759086946,-0.4508553186659555,1.0034550720783049,0.2721409207432178,-0.08614705951130282
11157,3.0,299.81322,3528.2219,0.0,0.0,0.0,0.11314473995141817,0.0,0.0,-0.23353168429528276,-0.38928798304223267,-0.4496717006941416,1.045203955153599,0.24484221012654478,-0.06630235061303254
11158,3.0,300.75753,3558.9959,0.0,0.0,0.0,0.11315488109509045,0.0,0.0,-0.2574426438651108,-0.3877504368104886,-0.4366527946642756,1.032643098963939,0.22082954051167877,-0.06725848380489553
11159,3.0,299.62434,3046.9638,0.0,0.0,0.0,0.11316502223876271,0.0,0.0,-0.21730183936102176,-0.3267237410426227,-0.3821753321102686,1.004912368902129,0.24274836932489877,-0.1026883582745519
11160,3.0,300.33939,3022.3979999999997,0.0,0.0,0.0,0.11317516338243497,0.0,0.0,-0.2010834644178928,-0.33671261384094764,-0.3809374444630987,1.017397940609359,0.25440164726748776,-0.09903439400243372
11161,3.0,300.94928,3103.715,0.0,0.0,0.0,0.11318530452610723,0.0,0.0,-0.17901719758262183,-0.3422096678859647,-0.42222499476786257,1.006598751441062,0.26490862523944575,-0.11427515687807989
11162,3.0,299.86787000000004,3005.0567,0.0,0.0,0.0,0.11319544566977949,0.0,0.0,-0.15302491084988284,-0.35176019855852864,-0.40867710125828965,1.030754400777539,0.2745886796722927,-0.1098906311778609
11163,3.0,299.27287,3122.844,0.0,0.0,0.0,0.11320558681345175,0.0,0.0,-0.16853200448781386,-0.37795275417353263,-0.40278183992397265,1.00984852822179,0.24631378364427775,-0.11683588306080389
11164,3.0,299.92736,3356.56,0.0,0.0,0.0,0.11321572795712401,0.0,0.0,-0.2393049908475638,-0.38041911637444364,-0.40058629920978966,1.029198048623939,0.27197980384481674,-0.09465986502770131
11165,3.0,299.70761,3388.4352,0.0,0.0,0.0,0.11322586910079627,0.0,0.0,-0.25628265488562874,-0.36598242014215265,-0.4077346165452736,1.004573001046136,0.26232541503700274,-0.059485309318242946
11166,3.0,300.16719,3333.18,0.0,0.0,0.0,0.11323601024446854,0.0,0.0,-0.25103306691253474,-0.36677047540742763,-0.3953999380429356,0.990774925954372,0.24991435774212675,-0.05464350283464385
11167,3.0,300.71886,3462.2978,0.0,0.0,0.0,0.11324615138814079,0.0,0.0,-0.21898039960918278,-0.38436752909912164,-0.44910415904812956,0.9730438496719511,0.2632303284363108,-0.052893677667199546
11168,3.0,300.99615,3345.7393,0.0,0.0,0.0,0.11325629253181306,0.0,0.0,-0.18418684012282582,-0.37882429111454663,-0.45401007285230555,1.003169720585143,0.27642608713863076,-0.08200810611856992
11169,3.0,300.93941,3112.3335,0.0,0.0,0.0,0.1132664336754853,0.0,0.0,-0.16636410523635883,-0.37255395499071264,-0.4071535986729316,1.022713551958969,0.2703593332248887,-0.07930842484363212
11170,3.0,301.02886,3053.712,0.0,0.0,0.0,0.11327657481915758,0.0,0.0,-0.17553090796355184,-0.3354346318873207,-0.4172866569604866,1.0684139685692489,0.23094607269010278,-0.11215340103617889
11171,3.0,299.56632,3219.8602,0.0,0.0,0.0,0.11328671596282984,0.0,0.0,-0.2256385065462868,-0.36538690266087964,-0.3877316714186366,1.071180546642289,0.22999379998112077,-0.11367440089378988
11172,3.0,299.20172,3197.7545,0.0,0.0,0.0,0.1132968571065021,0.0,0.0,-0.2074795144816338,-0.36668409583640266,-0.3978739198845986,1.046690595700319,0.24390397093144778,-0.12296330025803288
11173,3.0,299.24246,3182.2619,0.0,0.0,0.0,0.11330699825017436,0.0,0.0,-0.1964684243199238,-0.36341662770892863,-0.4074431146240046,1.0143606221095989,0.26830852515498976,-0.0920732361194209
11174,3.0,299.37307999999996,3289.312,0.0,0.0,0.0,0.11331713939384662,0.0,0.0,-0.18166607652404584,-0.3700130682449467,-0.4481895589778656,0.978014023797469,0.25793153703836075,-0.08229082721447233
11175,3.0,299.30125,3249.3189,0.0,0.0,0.0,0.11332728053751888,0.0,0.0,-0.21666523458819378,-0.3451149396326927,-0.42593164601868055,0.9605103309699891,0.27792360999142474,-0.06493606289994044
11176,3.0,300.66713,3411.6488,0.0,0.0,0.0,0.11333742168119115,0.0,0.0,-0.23459364132758978,-0.3724038825184017,-0.43005854274847355,0.984907427672795,0.27731915564426973,-0.06731112721384103
11177,3.0,299.36552,3342.0454,0.0,0.0,0.0,0.1133475628248634,0.0,0.0,-0.25468523570547574,-0.3500114707409427,-0.4112016544124436,0.9793848701227611,0.27820975181966473,-0.07042015950267863
11178,3.0,298.78015,3202.098,0.0,0.0,0.0,0.11335770396853567,0.0,0.0,-0.21604992833246778,-0.36111552659932766,-0.39619237054864265,1.0168412610044189,0.2568817086097508,-0.05827268604906635
11179,3.0,299.92579,3221.994,0.0,0.0,0.0,0.11336784511220792,0.0,0.0,-0.18156919968198482,-0.38354664453060666,-0.4142898785972276,1.030548305707199,0.26053161785496876,-0.11853403956589888
11180,3.0,300.38007999999996,3244.6058,0.0,0.0,0.0,0.11337798625588019,0.0,0.0,-0.18417184402134584,-0.36650165002339663,-0.4356056412159296,1.057994109840889,0.2776071213226898,-0.10606256216755991
11181,3.0,301.24721,3240.7689,0.0,0.0,0.0,0.11338812739955247,0.0,0.0,-0.18181710145145083,-0.3923697528238796,-0.4109259591927346,1.060889877301679,0.27617569277391874,-0.1023035157540709
11182,3.0,301.21946,3081.9406,0.0,0.0,0.0,0.11339826854322471,0.0,0.0,-0.20365872060705079,-0.3229189159896157,-0.41025533961404964,1.025276466761909,0.22440794469733977,-0.0990198741285007
11183,3.0,300.92006000000003,3110.4901,0.0,0.0,0.0,0.11340840968689699,0.0,0.0,-0.2218607758009538,-0.3408682868735807,-0.38278223852266563,1.018081580451829,0.21985596928559478,-0.1074369447357009
11184,3.0,299.41105,3226.1027,0.0,0.0,0.0,0.11341855083056923,0.0,0.0,-0.24056769298968278,-0.33520451265710965,-0.40488244923628663,1.010504080771488,0.23411276296263078,-0.08696535522581232
11185,3.0,300.24685,3434.9252,0.0,0.0,0.0,0.11342869197424149,0.0,0.0,-0.22237761441196177,-0.38920102591865063,-0.43255284025464164,1.047362177866599,0.2696168640816128,-0.08246365931052951
11186,3.0,299.55297,3375.5686,0.0,0.0,0.0,0.11343883311791376,0.0,0.0,-0.21290493174458078,-0.37763622497479366,-0.4355474097326826,1.0066945846355202,0.26736976920234173,-0.07208208117094754
11187,3.0,299.59232000000003,3270.6601,0.0,0.0,0.0,0.11344897426158601,0.0,0.0,-0.19915229078730082,-0.3739047693615276,-0.4211419418684736,1.013147356439859,0.28664326544948776,-0.07823488534943203
11188,3.0,299.56885,3298.4753,0.0,0.0,0.0,0.11345911540525828,0.0,0.0,-0.21045629128791882,-0.37424826114542764,-0.4179495657059106,1.008401222043952,0.2868527346426607,-0.06360454790378015
11189,3.0,299.79517000000004,3235.2778,0.0,0.0,0.0,0.11346925654893053,0.0,0.0,-0.2250871769018748,-0.34467158191893665,-0.4136848973600206,1.028374377617649,0.29275414640508474,-0.07030642015245343
11190,3.0,300.98057,3255.4713,0.0,0.0,0.0,0.1134793976926028,0.0,0.0,-0.22403414660294876,-0.35907136545008467,-0.4064764740286046,1.020971369737029,0.24896054489299277,-0.08617490058430051
11191,3.0,301.43959,3065.8862,0.0,0.0,0.0,0.11348953883627508,0.0,0.0,-0.17235128861974783,-0.34364142067476766,-0.4159601403270696,1.000909585177085,0.2314758099748838,-0.13107309061340688
11192,3.0,300.90497,3044.1415,0.0,0.0,0.0,0.11349967997994732,0.0,0.0,-0.18703060758848383,-0.3465923393385007,-0.39172006699226064,1.033165936015539,0.2480586915089868,-0.13481221652992986
11193,3.0,300.19276,3333.2004,0.0,0.0,0.0,0.1135098211236196,0.0,0.0,-0.2166882758954678,-0.35529779916266263,-0.44122361652788056,1.025488540007839,0.2436999631563138,-0.10907623140998589
11194,3.0,299.81307999999996,3307.6262,0.0,0.0,0.0,0.11351996226729184,0.0,0.0,-0.22027405654185678,-0.38700169564909365,-0.3981600110503336,1.036963192090299,0.24463612518870578,-0.1128387735363199
11195,3.0,300.91618,3164.9261,0.0,0.0,0.0,0.11353010341096412,0.0,0.0,-0.2138499597153478,-0.35841050346986264,-0.38979804301007165,0.9992855175193021,0.23167062757161075,-0.0945221552198604
11196,3.0,300.67775,3362.9943,0.0,0.0,0.0,0.11354024455463638,0.0,0.0,-0.2298161367085868,-0.3886258241018826,-0.40382432228935766,1.0476703072220088,0.2397488551863698,-0.0949704089580996
11197,3.0,299.35382000000004,3353.7944,0.0,0.0,0.0,0.11355038569830864,0.0,0.0,-0.21492597052654178,-0.3760120863895037,-0.42853168630528465,1.002187931900748,0.25541461365745977,-0.06742332135766374
11198,3.0,300.00905,3385.7097,0.0,0.0,0.0,0.1135605268419809,0.0,0.0,-0.19703949207628382,-0.3888847804299396,-0.4432469452550676,1.008119457456144,0.25268952817601475,-0.08349718049203013
11199,3.0,301.10705,3400.93,0.0,0.0,0.0,0.11357066798565316,0.0,0.0,-0.19494537769711082,-0.3781750511129716,-0.4606773598353156,0.965137124769118,0.2728456969827737,-0.06951961827755214
11200,3.0,300.05966,3194.6978,0.0,0.0,0.0,0.11358080912932542,0.0,0.0,-0.2059770267033498,-0.33820137208037665,-0.4269299608122066,0.994913039362772,0.3059849230308607,-0.07211839706778164
11201,3.0,300.78732,3223.5851,0.0,0.0,0.0,0.11359095027299769,0.0,0.0,-0.22591427269350278,-0.35118911053716667,-0.4027859942493826,1.021917745330429,0.3025618602180307,-0.05473301942797845
11202,3.0,298.93609,3239.2870000000003,0.0,0.0,0.0,0.11360109141666994,0.0,0.0,-0.21115730836960378,-0.3529002062460387,-0.4206048585204676,1.0275254766838688,0.26974695526195175,-0.09564717896489161
11203,3.0,299.89788,3520.2344,0.0,0.0,0.0,0.11361123256034221,0.0,0.0,-0.2294504952775008,-0.38926405007487064,-0.4513487917296576,1.0113511071925831,0.23216376626277976,-0.09549795964916481
11204,3.0,299.73269,3467.527,0.0,0.0,0.0,0.11362137370401446,0.0,0.0,-0.2200445959242108,-0.38968265408868363,-0.4443143839704155,1.049178732645879,0.2231015512109088,-0.1148811513653869
11205,3.0,299.28123999999997,3285.5546,0.0,0.0,0.0,0.11363151484768673,0.0,0.0,-0.2182672437912998,-0.3591036475982707,-0.4213556768445676,1.018056857149389,0.23510158360271977,-0.08744931083132501
11206,3.0,299.31857,3198.0892,0.0,0.0,0.0,0.11364165599135899,0.0,0.0,-0.22223895113577677,-0.3442860807858907,-0.40561422859100765,1.021909943304659,0.2350430076144388,-0.08673109686894281
11207,3.0,300.88603,3175.2455,0.0,0.0,0.0,0.11365179713503125,0.0,0.0,-0.2082281543180188,-0.3583313889020547,-0.3986358028997906,0.9935572904639701,0.24617313439789676,-0.07141105426572233
11208,3.0,300.08734,3098.3995,0.0,0.0,0.0,0.11366193827870351,0.0,0.0,-0.19205567960441983,-0.35319505189263767,-0.3965853393349256,1.0021817206776351,0.28807687248597375,-0.08785939442504712
11209,3.0,301.46356000000003,3318.4136,0.0,0.0,0.0,0.11367207942237577,0.0,0.0,-0.2038627283821848,-0.38067900489259265,-0.4241731504701306,1.0184931626424492,0.2678082227856137,-0.07933823364832401
11210,3.0,300.4368,3240.8251,0.0,0.0,0.0,0.11368222056604803,0.0,0.0,-0.16904083842303186,-0.3924821729224746,-0.42360689565174564,1.0253541830445791,0.2627064477371077,-0.11860525078292689
11211,3.0,299.35784,3140.6889,0.0,0.0,0.0,0.1136923617097203,0.0,0.0,-0.16108175888753185,-0.39365999510371663,-0.3999492587394186,1.0305776899600991,0.2612875226945708,-0.11373147727192288
11212,3.0,300.61152000000004,3531.8252,0.0,0.0,0.0,0.11370250285339255,0.0,0.0,-0.24952845130904078,-0.4102095913720346,-0.41384861831117864,1.0174817363926292,0.2769400886493587,-0.1018100528228699
11213,3.0,300.70746,3515.1334,0.0,0.0,0.0,0.11371264399706482,0.0,0.0,-0.27283653720186973,-0.3777703387580296,-0.41790591489160256,1.0239739337583589,0.28110813346571273,-0.056020317203024854
11214,3.0,299.41606,3159.4413,0.0,0.0,0.0,0.11372278514073707,0.0,0.0,-0.20845636863804182,-0.3589117278968297,-0.39302317754836763,0.989375921408801,0.24679499638176977,-0.07875640010965151
11215,3.0,299.41471,3291.5877,0.0,0.0,0.0,0.11373292628440934,0.0,0.0,-0.2136655380646468,-0.38759237992738965,-0.3993025518630936,1.0165360700742991,0.24821796429220577,-0.08605251618422212
11216,3.0,298.19329,3539.2988,0.0,0.0,0.0,0.1137430674280816,0.0,0.0,-0.2307329355315678,-0.38133127451196663,-0.4637942387329276,1.004133949645305,0.24224192665991678,-0.09068693266385341
11217,3.0,298.99327999999997,3283.8298,0.0,0.0,0.0,0.11375320857175386,0.0,0.0,-0.22324468292003477,-0.3601453396285777,-0.4148122495537816,1.0404997389143291,0.23631782822775377,-0.09163436001085723
11218,3.0,300.70623,3015.488,0.0,0.0,0.0,0.11376334971542612,0.0,0.0,-0.21352187946546877,-0.3328763476373377,-0.3702348382943336,1.0279527642510389,0.24867109986942676,-0.0916346761448884
11219,3.0,300.73123,2941.3484,0.0,0.0,0.0,0.11377349085909838,0.0,0.0,-0.17203818420634684,-0.3545055794394767,-0.36755271461712863,1.042360167422939,0.26201232075610276,-0.0876852420641096
11220,3.0,300.14861,3129.9223,0.0,0.0,0.0,0.11378363200277064,0.0,0.0,-0.18615174484924682,-0.3668795213831897,-0.3983869689402326,1.0227825542907791,0.28441128826170875,-0.08261723256193602
11221,3.0,300.85564,3592.3990000000003,0.0,0.0,0.0,0.11379377314644291,0.0,0.0,-0.2158495175951888,-0.4119656855178476,-0.4641843805514316,1.00812792822698,0.25825386202767175,-0.1040550097444299
11222,3.0,300.00453999999996,3541.1978,0.0,0.0,0.0,0.11380391429011516,0.0,0.0,-0.21801455948136178,-0.3896690664048426,-0.46875209173722954,1.002972623175691,0.24779196355266275,-0.09455346971420091
11223,3.0,300.57597999999996,3040.9832,0.0,0.0,0.0,0.11381405543378743,0.0,0.0,-0.1846603521595578,-0.36544639057425066,-0.37427620658318567,0.9907736188617431,0.23640875729172775,-0.1206596254931779
11224,3.0,300.63507999999996,2939.9856,0.0,0.0,0.0,0.11382419657745968,0.0,0.0,-0.19142733281990681,-0.3334228238137707,-0.36883204419338866,1.0200204345181791,0.27087710402598875,-0.07600342795895433
11225,3.0,299.64752000000004,3458.4145,0.0,0.0,0.0,0.11383433772113195,0.0,0.0,-0.25530362224150577,-0.3608083902290157,-0.4351596389194126,1.0170612376011292,0.24982907248120978,-0.06093707582302114
11226,3.0,300.42107000000004,3517.4943,0.0,0.0,0.0,0.11384447886480423,0.0,0.0,-0.25720350670900977,-0.37121010164808466,-0.44081682701023356,1.023651517576539,0.27422338274624075,-0.06538722466596664
11227,3.0,300.53555,2975.0741,0.0,0.0,0.0,0.11385462000847647,0.0,0.0,-0.15832291191275485,-0.35484859499582966,-0.3911767420236386,1.038799201271499,0.25432904789782274,-0.08815499798272092
11228,3.0,299.79016,2974.8613,0.0,0.0,0.0,0.11386476115214873,0.0,0.0,-0.12281063386546587,-0.37827508929534465,-0.40319782975252766,1.042171094954279,0.2791558842330407,-0.11185591080681889
11229,3.0,300.2471,3421.4190000000003,0.0,0.0,0.0,0.11387490229582099,0.0,0.0,-0.24096187767608576,-0.37671220167859965,-0.42235187394538454,1.015963989067839,0.27232336655622374,-0.1049491421626739
11230,3.0,300.6356,3660.4692,0.0,0.0,0.0,0.11388504343949325,0.0,0.0,-0.25988847761899575,-0.3987476150483256,-0.45405516248175554,1.000306468320062,0.23950935326023276,-0.12781032396639688
11231,3.0,299.98146,3347.4878,0.0,0.0,0.0,0.11389518458316553,0.0,0.0,-0.2441401595297578,-0.37711209096306564,-0.3963004438043086,1.012675019773243,0.24339930145414077,-0.09282342420195872
11232,3.0,300.57606,3101.9755,0.0,0.0,0.0,0.11390532572683777,0.0,0.0,-0.17588255641075684,-0.34923554407936463,-0.41780499518164266,1.025557643664659,0.2826432174997137,-0.08041364968170933
11233,3.0,300.30888,2997.7911,0.0,0.0,0.0,0.11391546687051005,0.0,0.0,-0.17181671813198982,-0.3423654854863427,-0.3970714359378996,1.029422787496119,0.2644108661278207,-0.047304011549792455
11234,3.0,300.61345,3293.8402,0.0,0.0,0.0,0.11392560801418229,0.0,0.0,-0.18143119501836483,-0.36449676244802964,-0.45531722627631155,1.0059713267141401,0.2531390667153808,-0.09361872927169922
11235,3.0,300.44481,3506.9508,0.0,0.0,0.0,0.11393574915785457,0.0,0.0,-0.25606657930180377,-0.3724230126802897,-0.4375358927889306,1.013348689234729,0.2439744830059068,-0.07244503748926853
11236,3.0,299.83969,3219.1773,0.0,0.0,0.0,0.11394589030152684,0.0,0.0,-0.19852471407286382,-0.3674555844625427,-0.4125692076749106,1.0142463274983191,0.26663015742434776,-0.08864375639370761
11237,3.0,299.39417000000003,3268.4946,0.0,0.0,0.0,0.11395603144519909,0.0,0.0,-0.2119450393948468,-0.37532187055388466,-0.4062738341411056,1.001189576577218,0.2633655567946568,-0.07332291433615823
11238,3.0,299.27887000000004,3605.91,0.0,0.0,0.0,0.11396617258887136,0.0,0.0,-0.24287658599255274,-0.38704895363375763,-0.4661810709334896,0.99905305768136,0.26313754512465376,-0.08604543457927323
11239,3.0,299.81977,3668.31,0.0,0.0,0.0,0.1139763137325436,0.0,0.0,-0.23146942649925378,-0.4228175738238456,-0.46078764197619954,0.9969249791588349,0.26840721571472975,-0.10834786670810188
11240,3.0,300.70316,3139.6413,0.0,0.0,0.0,0.11398645487621588,0.0,0.0,-0.17125977508202384,-0.36803832486005467,-0.4150744381496576,1.008786206419447,0.29259979801735175,-0.09614032373556121
11241,3.0,300.54573999999997,2899.8909,0.0,0.0,0.0,0.11399659601988814,0.0,0.0,-0.17630649012009583,-0.34040076314493967,-0.36478718019169165,1.0394287335586292,0.2693257167978787,-0.1101892157173289
11242,3.0,301.14846,3014.7644,0.0,0.0,0.0,0.1140067371635604,0.0,0.0,-0.19302697101777883,-0.3411337077372757,-0.38225243031037764,1.023546139566139,0.25991710193432077,-0.07725136198086584
11243,3.0,300.19661,3203.3274,0.0,0.0,0.0,0.11401687830723266,0.0,0.0,-0.2184643006707478,-0.3516613661437747,-0.4036058655677976,1.056977718665579,0.24181423379270678,-0.08086690786219242
11244,3.0,300.03301,3370.3962,0.0,0.0,0.0,0.11402701945090492,0.0,0.0,-0.2160283663703398,-0.38025671264841565,-0.4282311968556286,1.025713076229999,0.26900926865914776,-0.052714380022254245
11245,3.0,299.86266,3455.2719,0.0,0.0,0.0,0.11403716059457718,0.0,0.0,-0.2181146179287368,-0.37197834787390466,-0.4602234136580145,1.0541865186151091,0.2637690329844768,-0.07775074735890133
11246,3.0,299.33383,3408.4997,0.0,0.0,0.0,0.11404730173824945,0.0,0.0,-0.2021824253438518,-0.38490710504237363,-0.44900926817626463,0.9894535667639641,0.23568513460031176,-0.0972261965099785
11247,3.0,299.14461,3456.9765,0.0,0.0,0.0,0.1140574428819217,0.0,0.0,-0.23179838827671978,-0.3914887419944306,-0.42754741515814465,1.015570949354049,0.2415888768379658,-0.10938092584755689
11248,3.0,299.08774,3573.6902,0.0,0.0,0.0,0.11406758402559397,0.0,0.0,-0.23861711561967577,-0.3967589496070596,-0.45093651039646854,0.992750530601849,0.25837262507189274,-0.0958139477723504
11249,3.0,299.50588999999997,3118.4389,0.0,0.0,0.0,0.11407772516926622,0.0,0.0,-0.2148426915008228,-0.35599286846626066,-0.37709198808108163,1.036271750222059,0.2634384297418488,-0.07246266500125823
11250,3.0,300.62296000000003,2852.3184,0.0,0.0,0.0,0.11408786631293849,0.0,0.0,-0.15893414490307886,-0.3368223488267777,-0.37127708761219563,1.020277901368589,0.26668857129261275,-0.12102763792949789
11251,3.0,300.55829,2932.6134,0.0,0.0,0.0,0.11409800745661075,0.0,0.0,-0.17551523298450483,-0.34037032511193566,-0.37555567801445966,1.0610911087715391,0.2997034816859307,-0.0888507117133825
11252,3.0,299.69802999999996,3184.2982,0.0,0.0,0.0,0.11410814860028301,0.0,0.0,-0.18571527723617082,-0.3791206363712936,-0.40311122726648063,1.034003589873209,0.29611768077453976,-0.1016590785579699
11253,3.0,298.80511,3496.3874,0.0,0.0,0.0,0.11411828974395527,0.0,0.0,-0.24602066052284877,-0.37727752430689265,-0.4395162698443786,1.008265578253065,0.2807909557869097,-0.08289900626899492
11254,3.0,299.25187,3630.6114,0.0,0.0,0.0,0.11412843088762753,0.0,0.0,-0.25629097366894976,-0.3931395493223526,-0.4541846963745396,0.9801614655294051,0.23387613866677778,-0.10032848055315009
11255,3.0,301.15421000000003,3492.6115,0.0,0.0,0.0,0.11413857203129979,0.0,0.0,-0.25558287396906576,-0.3756156117578746,-0.4304681794989016,0.9960244733974621,0.2242338278001558,-0.08019840293646613
11256,3.0,302.71285,3460.1344,0.0,0.0,0.0,0.11414871317497205,0.0,0.0,-0.2188086131872288,-0.3759715665180046,-0.4570142682062966,1.019453217112199,0.2289662529222098,-0.07775939342200462
11257,3.0,300.76147000000003,3545.8254,0.0,0.0,0.0,0.11415885431864431,0.0,0.0,-0.2319865589527908,-0.4068711450750556,-0.43898467831191457,1.030761493528239,0.2191083730968128,-0.09238384591107572
11258,3.0,300.05377000000004,3412.3721,0.0,0.0,0.0,0.11416899546231657,0.0,0.0,-0.2102984573198418,-0.3974740913951386,-0.4295033728861826,1.042759590612359,0.2328397763319968,-0.0895216261478466
11259,3.0,299.60826000000003,3010.6046,0.0,0.0,0.0,0.11417913660598883,0.0,0.0,-0.16871643627101585,-0.37618556493912464,-0.3702466325254976,1.038302202097449,0.27586626645838075,-0.11716733743351589
11260,3.0,299.95013,2864.8439,0.0,0.0,0.0,0.1141892777496611,0.0,0.0,-0.15216058824958087,-0.35118782370953966,-0.36749259848869564,1.057932808209839,0.3060789830376437,-0.1048050782634559
11261,3.0,300.3053,3261.8014,0.0,0.0,0.0,0.11419941889333335,0.0,0.0,-0.2087157606636418,-0.36817730224377065,-0.4146131155116286,1.029661711869699,0.27011440027821576,-0.08232327249592442
11262,3.0,300.34609,3250.9774,0.0,0.0,0.0,0.11420956003700562,0.0,0.0,-0.2002244512481148,-0.35579870948209863,-0.4321928020966086,1.012777510020858,0.24044171560474975,-0.1151486696567889
11263,3.0,299.04317000000003,3270.9179,0.0,0.0,0.0,0.11421970118067787,0.0,0.0,-0.2057587827643108,-0.34783960968159666,-0.4406789642016276,0.9943032755850931,0.24334582211386277,-0.10708514430098089
11264,3.0,299.99998999999997,3350.7322,0.0,0.0,0.0,0.11422984232435014,0.0,0.0,-0.21717105917061477,-0.3456049879110567,-0.4557628739352936,1.002259619345323,0.27442113876825774,-0.0992170607039615
11265,3.0,300.09929,3482.8052,0.0,0.0,0.0,0.11423998346802239,0.0,0.0,-0.21177915008847478,-0.39669958328370064,-0.4502070817819796,0.9974690336675291,0.2848170543967547,-0.05833510630822674
11266,3.0,300.22587000000004,3661.8329,0.0,0.0,0.0,0.11425012461169466,0.0,0.0,-0.22838701837004377,-0.41362972589207564,-0.4710890213703665,1.030813675908389,0.2837313467821037,-0.09021044572482782
11267,3.0,298.33641,3514.5035,0.0,0.0,0.0,0.11426026575536691,0.0,0.0,-0.24117962512257576,-0.38067909608510164,-0.4464625755074255,1.0415844231463791,0.26878222970924076,-0.04020747636066896
11268,3.0,297.63421,3069.9224,0.0,0.0,0.0,0.11427040689903918,0.0,0.0,-0.18271351368241984,-0.36256715935509265,-0.3878990806001586,1.045817072789109,0.2505670225290398,-0.10707262052974491
11269,3.0,299.57939,2860.6123,0.0,0.0,0.0,0.11428054804271143,0.0,0.0,-0.17935167144063183,-0.30001610987178473,-0.39018692839845165,1.0415045790384991,0.23501009725119076,-0.05571550320194204
11270,3.0,300.56167,3202.4955,0.0,0.0,0.0,0.1142906891863837,0.0,0.0,-0.2054192426558008,-0.3812484615812936,-0.3868109513177686,1.0218938326280689,0.22679279092770577,-0.12473543415292887
11271,3.0,299.94638,3402.0551,0.0,0.0,0.0,0.11430083033005596,0.0,0.0,-0.22827280481877177,-0.3686837550412536,-0.43718323109162555,0.9965300041373542,0.26210539791028875,-0.07964947672129133
11272,3.0,300.6354,3169.7616,0.0,0.0,0.0,0.11431097147372822,0.0,0.0,-0.18826070334238482,-0.3644911997049806,-0.4107764642729806,1.004324531856614,0.28070321846075075,-0.1071700850568639
11273,3.0,299.25451,3035.2725,0.0,0.0,0.0,0.11432111261740048,0.0,0.0,-0.18238387302738684,-0.34682299559126467,-0.39344018062702263,1.014445025842929,0.2786781469433917,-0.09593476366127401
11274,3.0,301.38252,3429.0443,0.0,0.0,0.0,0.11433125376107274,0.0,0.0,-0.23808190678435479,-0.3580207669513987,-0.4462411600955735,1.032694369418999,0.28096111087620274,-0.0978073369855826
11275,3.0,301.2537,3616.0303,0.0,0.0,0.0,0.114341394904745,0.0,0.0,-0.24424506131261078,-0.39547198012504564,-0.45946586735325057,1.035414135337419,0.27445384648148574,-0.09656275378175182
11276,3.0,300.41101000000003,3378.792,0.0,0.0,0.0,0.11435153604841727,0.0,0.0,-0.2170927754678888,-0.3631629402813917,-0.4468126838144786,1.038155787457999,0.2822967771580227,-0.07006013249039673
11277,3.0,299.27608,3180.2692,0.0,0.0,0.0,0.11436167719208952,0.0,0.0,-0.17290639768703284,-0.3610463317499986,-0.4327697061735446,1.017976709066479,0.26842204969619377,-0.07239080125116583
11278,3.0,300.04284,3068.3278,0.0,0.0,0.0,0.1143718183357618,0.0,0.0,-0.18496685018230682,-0.3679841565097086,-0.3797440384953186,0.980212006444393,0.25708659791247174,-0.07243698924372423
11279,3.0,299.73332999999997,3225.5601,0.0,0.0,0.0,0.11438195947943404,0.0,0.0,-0.21288526456013981,-0.3508051900742767,-0.41679926339738466,1.002228492302251,0.2660478729893807,-0.08204071048028772
11280,3.0,299.8064,3401.6353,0.0,0.0,0.0,0.11439210062310631,0.0,0.0,-0.24709981240935278,-0.37393527832203866,-0.4129770915026656,1.014469445170339,0.25861012076283174,-0.07925046491141192
11281,3.0,298.56892999999997,3208.9668,0.0,0.0,0.0,0.11440224176677857,0.0,0.0,-0.23075964480420377,-0.3674958712865186,-0.37719027334078165,1.052787422877029,0.2578262299554678,-0.1072107670483789
11282,3.0,299.96828,3234.3341,0.0,0.0,0.0,0.11441238291045083,0.0,0.0,-0.20262191244222583,-0.37431082933910265,-0.4062240632961936,1.050483089499609,0.2348624261816168,-0.13236134692304785
11283,3.0,299.94455,3505.0541,0.0,0.0,0.0,0.11442252405412309,0.0,0.0,-0.23392882767197776,-0.40240718056699665,-0.42911293722514965,1.065220406904069,0.27576340130822874,-0.11048547991406789
11284,3.0,300.1815,3501.4814,0.0,0.0,0.0,0.11443266519779535,0.0,0.0,-0.22662700294634378,-0.37526857359862464,-0.4624673269319715,1.033348928983599,0.25271142451067574,-0.10354276115637491
11285,3.0,300.38807,3192.2371,0.0,0.0,0.0,0.11444280634146761,0.0,0.0,-0.1969430509317658,-0.3423815860304317,-0.43103572114491356,1.021046451569439,0.2673737715402368,-0.05726235512260444
11286,3.0,300.44433,3073.4334,0.0,0.0,0.0,0.11445294748513989,0.0,0.0,-0.18335714027844083,-0.3524979155588357,-0.3983919642632256,0.9740331161420841,0.2463514056204908,-0.1108161540842029
11287,3.0,299.74391,2951.9947,0.0,0.0,0.0,0.11446308862881213,0.0,0.0,-0.2076764497710698,-0.29745682250420274,-0.39219939508456664,1.007020699180205,0.26455368372941573,-0.06713111928057564
11288,3.0,300.39441,3224.9803,0.0,0.0,0.0,0.1144732297724844,0.0,0.0,-0.1932915103538868,-0.39625225362955263,-0.3907697194584686,1.018886202356239,0.2659979602894547,-0.12239391449683888
11289,3.0,298.94,3441.1237,0.0,0.0,0.0,0.11448337091615665,0.0,0.0,-0.23236535237017478,-0.3871158382728586,-0.4265344690331746,1.016944409864599,0.2560684335494868,-0.08987975331619101
11290,3.0,298.88511,3278.1609,0.0,0.0,0.0,0.11449351205982893,0.0,0.0,-0.1951730955245848,-0.37529440134367364,-0.42601156105406757,1.039097603425949,0.24141047389285875,-0.10942472864937991
11291,3.0,299.93214,3190.025,0.0,0.0,0.0,0.11450365320350119,0.0,0.0,-0.19686718889677882,-0.3767384448561897,-0.39608232145528166,1.040844547923359,0.2594087543591508,-0.1009723807266981
11292,3.0,300.79062000000005,3327.5605,0.0,0.0,0.0,0.11451379434717344,0.0,0.0,-0.22477922993148278,-0.3455690074000057,-0.44114707561532657,1.073173609588989,0.26694725404314273,-0.08143873656937752
11293,3.0,300.35796,3653.6205,0.0,0.0,0.0,0.1145239354908457,0.0,0.0,-0.28252392756544076,-0.37943498708231765,-0.4486504763158546,1.028650386944889,0.24963403196946077,-0.08586508011447361
11294,3.0,300.8757,3612.5956,0.0,0.0,0.0,0.11453407663451796,0.0,0.0,-0.26872558902865074,-0.37355428615193764,-0.4558589908397796,1.018873840705019,0.2388985458349508,-0.08731966649428011
11295,3.0,300.36992000000004,3184.397,0.0,0.0,0.0,0.11454421777819022,0.0,0.0,-0.2142241732422798,-0.3154352432685347,-0.4383177469635936,1.0126281164261142,0.24978890724724576,-0.08039914703302802
11296,3.0,300.45628,3160.7865,0.0,0.0,0.0,0.1145543589218625,0.0,0.0,-0.17935590682604982,-0.35876807943015265,-0.42267617477239056,1.027031010635069,0.2926628424385737,-0.04308067570198166
11297,3.0,300.88226000000003,3354.9081,0.0,0.0,0.0,0.11456450006553474,0.0,0.0,-0.17657411986900884,-0.36875458122324367,-0.4744796095174916,1.020616225576979,0.29115531880729273,-0.07042470899562764
11298,3.0,300.12505,3421.9704,0.0,0.0,0.0,0.11457464120920702,0.0,0.0,-0.2255590373409438,-0.3732210079290456,-0.4414135097291216,1.0200772778487892,0.26357326293265576,-0.07770308508744742
11299,3.0,299.6929,3413.5271,0.0,0.0,0.0,0.11458478235287926,0.0,0.0,-0.21164256397499479,-0.3999880459532466,-0.42599638256756966,1.028896404069169,0.27902221627984874,-0.0955027350968861
11300,3.0,299.83156,3271.6884,0.0,0.0,0.0,0.11459492349655154,0.0,0.0,-0.2274282709929228,-0.3842634885788537,-0.38281980983637365,1.045201422028349,0.2835576959799657,-0.0949536579074464
11301,3.0,298.70256,3200.4516,0.0,0.0,0.0,0.11460506464022381,0.0,0.0,-0.1909143546917798,-0.3906045596921686,-0.39133844660709766,1.006379707034444,0.27157255836462474,-0.1153107694077869
11302,3.0,299.69357,3541.9575,0.0,0.0,0.0,0.11461520578389606,0.0,0.0,-0.2340716858035768,-0.4001842517026106,-0.44241068968253555,1.0202483144656689,0.24703526837798276,-0.11790863120667588
11303,3.0,300.05325,3455.175,0.0,0.0,0.0,0.11462534692756833,0.0,0.0,-0.2011368525656618,-0.35613935403321767,-0.4930107278138705,1.0038701094517661,0.2594722446104168,-0.07360540542428794
11304,3.0,300.15721,3014.5673,0.0,0.0,0.0,0.11463548807124058,0.0,0.0,-0.17317129166067585,-0.3612474416298467,-0.3819344420314946,1.050411351392529,0.26479284115051877,-0.09493436967854281
11305,3.0,301.58603999999997,3130.9397,0.0,0.0,0.0,0.11464562921491285,0.0,0.0,-0.1970070376755808,-0.3352475859188607,-0.4194728656412486,1.028704393175219,0.2430425563589328,-0.07429465360606143
11306,3.0,300.6067,3417.7731,0.0,0.0,0.0,0.11465577035858511,0.0,0.0,-0.26316173140454074,-0.37752961079927166,-0.39822633840187965,1.069430157094539,0.25891389314281177,-0.10369352263875391
11307,3.0,300.10347,3597.7796,0.0,0.0,0.0,0.11466591150225737,0.0,0.0,-0.26907535283066975,-0.40800848791480265,-0.41655133123041554,1.036492436093839,0.2772171821542057,-0.09713319433629991
11308,3.0,301.04409,3681.1656,0.0,0.0,0.0,0.11467605264592963,0.0,0.0,-0.25524370876309277,-0.4042445576358316,-0.45949414716354153,1.0664300248734488,0.29513948912799975,-0.08812816914657311
11309,3.0,299.78459,3304.5483,0.0,0.0,0.0,0.11468619378960188,0.0,0.0,-0.18792991771473883,-0.4054664055339186,-0.41110384538029066,0.988832920680211,0.25521911718316576,-0.11553225574714589
11310,3.0,299.77169,3167.6424,0.0,0.0,0.0,0.11469633493327415,0.0,0.0,-0.18703052652847582,-0.35546013196118365,-0.4203935350796116,1.017629468257209,0.2444789397006928,-0.090952349474548
11311,3.0,299.14344,3297.3983,0.0,0.0,0.0,0.11470647607694642,0.0,0.0,-0.21655917770022678,-0.37116831521396065,-0.41459926438276157,1.0325594045056792,0.25641251301844475,-0.0908408301552919
11312,3.0,299.52945,3272.8457,0.0,0.0,0.0,0.11471661722061867,0.0,0.0,-0.23171190738068476,-0.36863024530347266,-0.39452122729121364,1.0522490830988989,0.28161357301309575,-0.054236422514218154
11313,3.0,299.95432,2973.283,0.0,0.0,0.0,0.11472675836429094,0.0,0.0,-0.18255220426649985,-0.3250196468919417,-0.39623193796504763,1.058875536102879,0.26647113795365374,-0.1026601392592669
11314,3.0,300.24992000000003,3048.5488,0.0,0.0,0.0,0.11473689950796319,0.0,0.0,-0.1951097369958318,-0.3557962776818587,-0.37577670839127364,1.030570698534409,0.25099058133584173,-0.0954088980051251
11315,3.0,298.50257,3496.8799,0.0,0.0,0.0,0.11474704065163546,0.0,0.0,-0.2086994574695328,-0.4036287244900536,-0.45063600068181053,1.070404701040719,0.2790204430921737,-0.08784881812050332
11316,3.0,300.32122999999996,3817.8013,0.0,0.0,0.0,0.11475718179530772,0.0,0.0,-0.26425217089715874,-0.4088312976585076,-0.48743281641087355,1.0387935270709392,0.2672881012442817,-0.06984429502034523
11317,3.0,300.00158999999996,3405.9759,0.0,0.0,0.0,0.11476732293897998,0.0,0.0,-0.2093423038629768,-0.39583308219568364,-0.4301562403231156,1.020817558371849,0.2373879925858708,-0.12237124809210188
11318,3.0,301.72912,3128.1596,0.0,0.0,0.0,0.11477746408265224,0.0,0.0,-0.2043917158618918,-0.34634270491136365,-0.4001479773490306,0.9784027571983341,0.2220569714178168,-0.09875031413814721
11319,3.0,301.22582,3104.1973,0.0,0.0,0.0,0.1147876052263245,0.0,0.0,-0.18817281402871083,-0.35965498737518364,-0.39577066598952365,1.028283995708729,0.2592951082279348,-0.11922215797381089
11320,3.0,300.69035,3260.7019,0.0,0.0,0.0,0.11479774636999676,0.0,0.0,-0.2048235833195138,-0.3707161219593327,-0.41563224246220865,1.013956841944749,0.26824606841882576,-0.08750331604840492
11321,3.0,300.05444,3288.1839,0.0,0.0,0.0,0.11480788751366904,0.0,0.0,-0.1952927603613948,-0.35960223757497767,-0.44463080171164354,1.051730299047699,0.26099257572296175,-0.0935191916348756
11322,3.0,299.44543999999996,3162.1336,0.0,0.0,0.0,0.11481802865734128,0.0,0.0,-0.17129722480571985,-0.3747217123871536,-0.4151907187311336,1.039493784215049,0.26117244788071375,-0.06670340006886304
11323,3.0,300.11821000000003,3139.1107,0.0,0.0,0.0,0.11482816980101355,0.0,0.0,-0.1971461873118138,-0.3605524229887537,-0.3965126487727516,1.076286313896189,0.27692800057566574,-0.06124660549006934
11324,3.0,299.32752999999997,3494.4485,0.0,0.0,0.0,0.1148383109446858,0.0,0.0,-0.23591161626266377,-0.38022475474026163,-0.4460886963530266,1.050502239926499,0.2561560290206318,-0.06396200430055834
11325,3.0,298.77236,3762.4002,0.0,0.0,0.0,0.11484845208835807,0.0,0.0,-0.2877149800802577,-0.41732914253717956,-0.43863159104956756,1.024419155852299,0.22439328296839278,-0.10622258475585289
11326,3.0,299.45613,3595.2034,0.0,0.0,0.0,0.11485859323203033,0.0,0.0,-0.25703383797976476,-0.3725189269347557,-0.4632992964565805,0.9672781222304181,0.25069738728690577,-0.11153179236483089
11327,3.0,300.76723,3156.9261,0.0,0.0,0.0,0.1148687343757026,0.0,0.0,-0.18481188371201282,-0.36126228574381164,-0.4135525364994576,1.031472592448419,0.2774409483062898,-0.1086007435355589
11328,3.0,300.48233999999997,2888.8043,0.0,0.0,0.0,0.11487887551937485,0.0,0.0,-0.15842377082770884,-0.3244513554408557,-0.3952492576205646,1.035470168067949,0.2998016757531217,-0.0967488402023671
11329,3.0,301.26193,3085.0014,0.0,0.0,0.0,0.11488901666304711,0.0,0.0,-0.15605392069882285,-0.35250383293941967,-0.4292056394767986,1.0619541952067189,0.26372084280972075,-0.0972109470959735
11330,3.0,300.12115,3204.2221,0.0,0.0,0.0,0.11489915780671937,0.0,0.0,-0.2009733950595298,-0.37981487480980963,-0.3932152492373236,1.0546005326059689,0.27293721373180574,-0.11747681441155888
11331,3.0,300.05827,3288.9213,0.0,0.0,0.0,0.11490929895039165,0.0,0.0,-0.1971906284611998,-0.3539582014704547,-0.4486011209034836,1.069939720569829,0.2842273529710557,-0.09358080433370632
11332,3.0,300.31095,3298.1865,0.0,0.0,0.0,0.1149194400940639,0.0,0.0,-0.21963145332843678,-0.38184519496268665,-0.4010896919919706,1.034819661503749,0.27282741795096976,-0.1026569677864539
11333,3.0,299.44529,3318.9895,0.0,0.0,0.0,0.11492958123773617,0.0,0.0,-0.2007866733311018,-0.36225665899444864,-0.4458465903741326,1.001770979484598,0.2258533155674868,-0.08961331616264573
11334,3.0,299.38192999999995,3649.8393,0.0,0.0,0.0,0.11493972238140841,0.0,0.0,-0.2598483630475368,-0.3950841383842686,-0.4545275092808726,0.9944375717533471,0.26212012043424177,-0.06860276372581563
11335,3.0,299.73298,3840.41,0.0,0.0,0.0,0.11494986352508069,0.0,0.0,-0.25026692824692276,-0.44577404166697254,-0.4713477649159025,1.014512102999549,0.2791141079314177,-0.05525896310438505
11336,3.0,299.57943,3392.2685,0.0,0.0,0.0,0.11496000466875295,0.0,0.0,-0.21627340064202277,-0.36882356329005167,-0.4460679551234796,1.0364213059368188,0.28393365229706974,-0.07106346591166804
11337,3.0,300.77123,3161.4877,0.0,0.0,0.0,0.1149701458124252,0.0,0.0,-0.1850355688040888,-0.36623088933167464,-0.4097468603163666,1.011948752499066,0.2398695434057808,-0.1020718563837079
11338,3.0,300.69346,3373.4739,0.0,0.0,0.0,0.11498028695609747,0.0,0.0,-0.21963743150402681,-0.3865857260855406,-0.4192286723671486,1.0332875260275391,0.2849873108110577,-0.12811702463916588
11339,3.0,300.07763,3473.3027,0.0,0.0,0.0,0.11499042809976973,0.0,0.0,-0.25836450893859175,-0.3642933524904547,-0.43313944113503455,1.022215944834859,0.2707685748077777,-0.1073493289995539
11340,3.0,300.52024,3289.2066,0.0,0.0,0.0,0.11500056924344199,0.0,0.0,-0.20125392348221582,-0.38147860107650666,-0.41710415035247467,1.012680308938765,0.29290054077953276,-0.1139183915178699
11341,3.0,300.1712,3059.893,0.0,0.0,0.0,0.11501071038711426,0.0,0.0,-0.19045629471907283,-0.34088549186027867,-0.3987892697599366,0.964755585443963,0.23368182769510076,-0.09186009288138532
11342,3.0,299.15512,3194.3374,0.0,0.0,0.0,0.1150208515307865,0.0,0.0,-0.17431349810090285,-0.3841772913928467,-0.4125080175013716,1.018822164949919,0.26214353664405277,-0.09971713509206499
11343,3.0,300.54757,3630.5694,0.0,0.0,0.0,0.11503099267445878,0.0,0.0,-0.24569254987546676,-0.40753475296304864,-0.45037513944356555,1.0428962780508488,0.2385860088416058,-0.07189654393188644
11344,3.0,299.06189,3682.6412,0.0,0.0,0.0,0.11504113381813103,0.0,0.0,-0.24644329727205977,-0.41496430799628864,-0.45802335384838555,1.077352050351369,0.24524084298088675,-0.0916763632805026
11345,3.0,298.63288,3422.0523,0.0,0.0,0.0,0.1150512749618033,0.0,0.0,-0.2380594531621388,-0.38384508721506067,-0.4183139101768686,1.070599954334989,0.2064514709301738,-0.08712807812562182
11346,3.0,301.02293,3235.7919,0.0,0.0,0.0,0.11506141610547557,0.0,0.0,-0.2163852938505658,-0.36988997862279865,-0.3973246572703906,1.068466657574449,0.27125935262621376,-0.08616721204254173
11347,3.0,300.22449,3354.0229999999997,0.0,0.0,0.0,0.11507155724914782,0.0,0.0,-0.2233871154865918,-0.3735841668973866,-0.42256795966171057,1.052320922530989,0.28986774137521876,-0.06895738606206414
11348,3.0,300.88995,3526.0839,0.0,0.0,0.0,0.11508169839282009,0.0,0.0,-0.24709527304890477,-0.3764664581318466,-0.44827972810426453,0.982245021842536,0.28611980018282573,-0.08785794243765382
11349,3.0,301.6868,3315.5592,0.0,0.0,0.0,0.11509183953649234,0.0,0.0,-0.2223186736536448,-0.3438201985224117,-0.44170832497821755,0.9838186195128381,0.25375152573832577,-0.08293628779317433
11350,3.0,299.8215,2911.0768,0.0,0.0,0.0,0.11510198068016458,0.0,0.0,-0.17167816631331584,-0.3413687412304717,-0.3718477602010167,0.9751005953874362,0.26264946255148375,-0.11275956777600289
11351,3.0,299.17702,3134.8901,0.0,0.0,0.0,0.11511212182383687,0.0,0.0,-0.2081727802000538,-0.36211281801025264,-0.38264271398389565,1.041867018599269,0.28501538797132875,-0.09472560064118891
11352,3.0,299.9012,3528.6032,0.0,0.0,0.0,0.11512226296750912,0.0,0.0,-0.24587948438641577,-0.40366781567891163,-0.4230599736452686,1.036359599005729,0.26069784153387376,-0.08623752551998111
11353,3.0,298.50585,3437.6886,0.0,0.0,0.0,0.11513240411118139,0.0,0.0,-0.2053593798398928,-0.4057433369187496,-0.43386876842451355,1.078953086834379,0.23677437845781177,-0.08923185587099851
11354,3.0,299.31113999999997,3296.8253,0.0,0.0,0.0,0.11514254525485364,0.0,0.0,-0.17623706222324384,-0.37766869964049865,-0.4482468076085156,1.047752279155099,0.2553735466309068,-0.07015483591099324
11355,3.0,300.10447999999997,3227.0666,0.0,0.0,0.0,0.11515268639852591,0.0,0.0,-0.17932316871531884,-0.35937036542209366,-0.44225413240958455,1.0511400808644489,0.26527306090291275,-0.07886517656088693
11356,3.0,299.96375,3396.6329,0.0,0.0,0.0,0.11516282754219818,0.0,0.0,-0.24318068261256476,-0.36019673167364963,-0.42911417339027164,0.988536686880975,0.23513326793334677,-0.1018889647406579
11357,3.0,299.89988999999997,3666.0781,0.0,0.0,0.0,0.11517296868587043,0.0,0.0,-0.28091386302403976,-0.37890295985231065,-0.4545793674209906,1.019200208562229,0.2226989565486758,-0.08244862977179622
11358,3.0,300.36052,3478.2064,0.0,0.0,0.0,0.1151831098295427,0.0,0.0,-0.25187212918784374,-0.4020729194915076,-0.4033428359743386,0.999157716284189,0.26718642159674677,-0.12621220564367489
11359,3.0,301.63772,3051.9865,0.0,0.0,0.0,0.11519325097321495,0.0,0.0,-0.16703411686498384,-0.3523370621054607,-0.40835649879414865,1.0306542916676589,0.28311685112645774,-0.08643072090329801
11360,3.0,301.35764,2963.4554,0.0,0.0,0.0,0.11520339211688722,0.0,0.0,-0.13245937887022288,-0.37664255086672566,-0.39171450424921167,0.997700308002854,0.2916814185242147,-0.11781076137951689
11361,3.0,299.38282999999996,3217.9251,0.0,0.0,0.0,0.11521353326055947,0.0,0.0,-0.18096746084509782,-0.35878464606928767,-0.4384167617633655,1.035121812683569,0.3014824043564967,-0.07966651553497292
11362,3.0,299.59144,3412.8615,0.0,0.0,0.0,0.11522367440423174,0.0,0.0,-0.22692037938029777,-0.39215598745028263,-0.4183482897527616,1.030981267474929,0.3105404752154587,-0.10064653064028921
11363,3.0,300.29142,3212.5485,0.0,0.0,0.0,0.115233815547904,0.0,0.0,-0.20023326652398482,-0.37830386559818463,-0.3979974046742856,1.0302780719055291,0.3025271057396007,-0.07278367884493983
11364,3.0,300.28731,3168.1332,0.0,0.0,0.0,0.11524395669157626,0.0,0.0,-0.2060195122800428,-0.35262337618621764,-0.40439051631273665,1.0090838283713202,0.24888582783061877,-0.09108520074815941
11365,3.0,299.68282,3454.2128,0.0,0.0,0.0,0.11525409783524852,0.0,0.0,-0.22542948318315778,-0.38425078242259963,-0.44031415363562354,1.0142618302248492,0.2261893194331478,-0.06402601637562584
11366,3.0,299.18297,3637.9595,0.0,0.0,0.0,0.11526423897892078,0.0,0.0,-0.2318987405666238,-0.39526641194475765,-0.4786836956399026,1.045096145342959,0.25796479190664273,-0.07614147011282803
11367,3.0,299.22032,3478.6853,0.0,0.0,0.0,0.11527438012259304,0.0,0.0,-0.2115927323350768,-0.3835231067307836,-0.4623176192296965,1.051534032503329,0.2625317532873667,-0.08363508383064013
11368,3.0,299.6615,3094.3136,0.0,0.0,0.0,0.1152845212662653,0.0,0.0,-0.20649897209486182,-0.34702380149608264,-0.3870712856659616,1.081970140332139,0.2607916482281318,-0.1132608935279799
11369,3.0,300.22505,2971.7968,0.0,0.0,0.0,0.11529466240993756,0.0,0.0,-0.1981720726405608,-0.3243330888891837,-0.3808468599041586,1.020950496784969,0.2718286066648948,-0.11734282221833488
11370,3.0,300.12975,3212.5926,0.0,0.0,0.0,0.11530480355360981,0.0,0.0,-0.22708225621627376,-0.3672451932117787,-0.3822204724022236,1.057985091914999,0.2888887391285987,-0.10425851089451389
11371,3.0,300.25077000000005,3378.5921,0.0,0.0,0.0,0.11531494469728208,0.0,0.0,-0.21950695528864977,-0.3823305620255886,-0.4251701176410236,0.9751162197039781,0.2986164872436527,-0.0998456192577454
11372,3.0,300.76963,3283.0084,0.0,0.0,0.0,0.11532508584095436,0.0,0.0,-0.1958840424572498,-0.38325113013894163,-0.4188174144165606,0.992318409831702,0.28611854375270174,-0.0890065657907641
11373,3.0,300.65405,3259.4866,0.0,0.0,0.0,0.1153352269846266,0.0,0.0,-0.18536534118163484,-0.3747863982735376,-0.4306508076969256,0.9546887430504432,0.2719336401702607,-0.07271152327881863
11374,3.0,300.45507000000003,3540.0957,0.0,0.0,0.0,0.11534536812829888,0.0,0.0,-0.23844812576799776,-0.42035850702365457,-0.4172940638187176,1.0536964095417392,0.27866286713188376,-0.08362818562395932
11375,3.0,300.61692,3809.9249,0.0,0.0,0.0,0.11535550927197112,0.0,0.0,-0.25938582450938774,-0.42816834495192563,-0.47056786631393255,1.055680657212569,0.25343976894755776,-0.06679733443263364
11376,3.0,299.80831,3482.4645,0.0,0.0,0.0,0.1153656504156434,0.0,0.0,-0.23115088093281577,-0.4092792656602186,-0.4181520840033976,1.1037894679855387,0.2125771656022328,-0.10269692023789691
11377,3.0,299.29761,3058.9352,0.0,0.0,0.0,0.11537579155931564,0.0,0.0,-0.18667085314047882,-0.34645223724717367,-0.3967168389329036,1.057348264227149,0.2334603717532448,-0.08562966766574023
11378,3.0,299.60675,3042.7894,0.0,0.0,0.0,0.11538593270298791,0.0,0.0,-0.17594544884446384,-0.35142804504324765,-0.39755850526096964,1.057187157461249,0.25017472248782274,-0.11601742016002789
11379,3.0,300.37646,3243.0858,0.0,0.0,0.0,0.11539607384666016,0.0,0.0,-0.19467112129254383,-0.3687062694584757,-0.42243970246405266,1.002571497726103,0.2712088623737307,-0.10129685076647081
11380,3.0,300.34969,3372.0508,0.0,0.0,0.0,0.11540621499033243,0.0,0.0,-0.2197298399131468,-0.37471583553657367,-0.43057355750930154,0.991588160484632,0.24486408619620376,-0.1061487998835709
11381,3.0,300.01622000000003,3289.1554,0.0,0.0,0.0,0.1154163561340047,0.0,0.0,-0.21289401904100377,-0.37581015577707466,-0.4111169264390816,0.977129740170197,0.26714531404018976,-0.100913479485135
11382,3.0,300.20535,3230.7106,0.0,0.0,0.0,0.11542649727767695,0.0,0.0,-0.2150260897689228,-0.36778440438499466,-0.3992448574023996,1.0155443008764191,0.27685165218063074,-0.08650886680401042
11383,3.0,300.4724,3356.2419,0.0,0.0,0.0,0.11543663842134921,0.0,0.0,-0.1929985696174758,-0.38569384308251864,-0.4415213195397616,1.031517479427849,0.2950000557817387,-0.08006490318279072
11384,3.0,300.66306000000003,3671.4726,0.0,0.0,0.0,0.11544677956502147,0.0,0.0,-0.24522228023905476,-0.4012665750619276,-0.4695471485606955,1.043976503982459,0.25894505058338674,-0.058124745454965744
11385,3.0,300.04053999999996,3583.462,0.0,0.0,0.0,0.11545692070869373,0.0,0.0,-0.22147069477745582,-0.37947076494334864,-0.4883415092330546,1.065003368732649,0.28992880995874576,-0.06962621725432264
11386,3.0,299.39563,3245.1417,0.0,0.0,0.0,0.11546706185236601,0.0,0.0,-0.21417527379245377,-0.3556580906332206,-0.4166086913185766,1.058667921157389,0.2571261754613777,-0.04670719305539105
11387,3.0,298.94931,3193.9286,0.0,0.0,0.0,0.11547720299603825,0.0,0.0,-0.1965250143380088,-0.34395541674825664,-0.4303941109165916,1.040754166014439,0.26173040418077975,-0.09000093498840071
11388,3.0,299.13358,3347.6628,0.0,0.0,0.0,0.11548734413971053,0.0,0.0,-0.26143279236140776,-0.33813712189153566,-0.4180359858069396,1.000107121495388,0.19399956952376682,-0.06901001325900803
11389,3.0,299.35715,3338.6071,0.0,0.0,0.0,0.11549748528338277,0.0,0.0,-0.2145746159218658,-0.3752338697826996,-0.4250447076761466,1.016345376405479,0.24865079433742276,-0.11642638816538989
11390,3.0,300.45198999999997,3244.4789,0.0,0.0,0.0,0.11550762642705505,0.0,0.0,-0.22423701953797076,-0.36809294917294566,-0.3939106022509496,1.0204100291816292,0.26764102638661275,-0.11200653043418389
11391,3.0,300.58398,3115.0152,0.0,0.0,0.0,0.1155177675707273,0.0,0.0,-0.17411801175910985,-0.37889527941655265,-0.39387355782729366,1.031666731167579,0.3129320494264887,-0.10927446365954989
11392,3.0,300.29823,3241.763,0.0,0.0,0.0,0.11552790871439957,0.0,0.0,-0.1982584826090888,-0.38591513690435864,-0.4012413755319406,1.0139169198908091,0.2926363054184547,-0.11221410484966989
11393,3.0,300.37707,3463.8109999999997,0.0,0.0,0.0,0.11553804985807183,0.0,0.0,-0.2167978082312778,-0.3816386337973007,-0.4544756207432516,1.0288274017373589,0.3078489384448247,-0.08121333807138242
11394,3.0,299.9943,3437.7555,0.0,0.0,0.0,0.11554819100174409,0.0,0.0,-0.21672279732637478,-0.37950155761388765,-0.44876745603989954,1.042022856464649,0.2785512171033647,-0.07832940942476083
11395,3.0,300.11068,3233.8808,0.0,0.0,0.0,0.11555833214541635,0.0,0.0,-0.1975963743312438,-0.36092463028048766,-0.4244979883196896,0.9925307971851631,0.25969675043507373,-0.1020376591928329
11396,3.0,300.35452000000004,3207.0299,0.0,0.0,0.0,0.11556847328908862,0.0,0.0,-0.19772592848902978,-0.3513751837855307,-0.4257558977888356,1.014817293929669,0.2123445639092768,-0.09186265640413831
11397,3.0,300.4307,3485.7129999999997,0.0,0.0,0.0,0.11557861443276086,0.0,0.0,-0.2225961825910328,-0.4078073172399486,-0.42916621391540755,1.016786849474049,0.24486261698355877,-0.1112492171769429
11398,3.0,299.51076,3600.4837,0.0,0.0,0.0,0.11558875557643314,0.0,0.0,-0.2390917928940228,-0.39943575372123963,-0.45592960423924855,1.069884295789359,0.2768900847569237,-0.07955207805542883
11399,3.0,299.49102999999997,3314.6698,0.0,0.0,0.0,0.11559889672010538,0.0,0.0,-0.20173944253263282,-0.3963021156669736,-0.40953530382798764,1.058157141781979,0.27062846258394974,-0.1085834169588489
11400,3.0,298.39369,3119.4120000000003,0.0,0.0,0.0,0.11560903786377767,0.0,0.0,-0.18943442186072182,-0.37506853776388266,-0.38372040679025565,1.066508247781169,0.24437871913330175,-0.07845306241396442
11401,3.0,298.34652,3341.4282,0.0,0.0,0.0,0.11561917900744992,0.0,0.0,-0.21160283443857378,-0.36531357375114265,-0.4387943392806296,1.029170589546229,0.27690294290069273,-0.097111967759955
11402,3.0,298.90106000000003,3537.7221,0.0,0.0,0.0,0.11562932015112218,0.0,0.0,-0.25541652870014875,-0.39481531300023764,-0.4251473499112766,1.060752885888159,0.26292934249410577,-0.07462353938976993
11403,3.0,299.47685,3272.7818,0.0,0.0,0.0,0.11563946129479444,0.0,0.0,-0.2295328826431318,-0.35427443682666465,-0.4110366162361556,1.0066422097378511,0.2956345529943587,-0.1019322305199279
11404,3.0,299.16478,3035.6539,0.0,0.0,0.0,0.1156496024384667,0.0,0.0,-0.18979896898169982,-0.32247840550864065,-0.4104856006992746,0.995760653468925,0.25402038151985973,-0.06565331832772804
11405,3.0,299.51477,3192.243,0.0,0.0,0.0,0.11565974358213896,0.0,0.0,-0.1884275349713498,-0.3790806636548486,-0.4028539630660906,0.993901177415409,0.2701039739346867,-0.09875075591519081
11406,3.0,300.43883999999997,3673.748,0.0,0.0,0.0,0.11566988472581123,0.0,0.0,-0.2527707199065277,-0.38299370381853565,-0.4809632449198765,1.048781335956659,0.28767799645160774,-0.06646363773745034
11407,3.0,299.98652000000004,3705.034,0.0,0.0,0.0,0.11568002586948348,0.0,0.0,-0.23275550432117978,-0.44351915489443255,-0.4499631519529056,1.043917431501629,0.26069048533814776,-0.1176099453421979
11408,3.0,299.3867,3287.2722,0.0,0.0,0.0,0.11569016701315575,0.0,0.0,-0.1996106750000398,-0.38772865193333866,-0.4119093285472856,1.074928660087199,0.2228727694708298,-0.0887038573233891
11409,3.0,299.79879,3121.4101,0.0,0.0,0.0,0.115700308156828,0.0,0.0,-0.16935628344416384,-0.37351196269526066,-0.4059624927828786,1.036292623174119,0.25262557182970274,-0.1356478945499049
11410,3.0,300.49784,3394.8826,0.0,0.0,0.0,0.11571044930050027,0.0,0.0,-0.20804166563711382,-0.42034536516985765,-0.4035725093745056,1.076293609296909,0.26844518219597674,-0.0997515308799596
11411,3.0,301.54534,3394.7757,0.0,0.0,0.0,0.11572059044417254,0.0,0.0,-0.22538663283642876,-0.3773652717655526,-0.42917513051628764,1.0334431612428991,0.2709390136070987,-0.1027228594404569
11412,3.0,301.47709,3144.1278,0.0,0.0,0.0,0.11573073158784479,0.0,0.0,-0.1885723892056458,-0.3577358916857836,-0.4094280513049026,1.028163216296809,0.25050647070306375,-0.08151744279739523
11413,3.0,300.66197,2960.4133,0.0,0.0,0.0,0.11574087273151705,0.0,0.0,-0.16006734354991686,-0.3372508421615667,-0.4025735461009156,0.9960926448641899,0.2306226533906838,-0.1045506612958469
11414,3.0,299.85525,3414.3674,0.0,0.0,0.0,0.11575101387518931,0.0,0.0,-0.23029776487861978,-0.3741827747914646,-0.4334018830434356,1.021593505298429,0.2602713443017817,-0.07416019937079184
11415,3.0,300.6908,3925.4513,0.0,0.0,0.0,0.11576115501886157,0.0,0.0,-0.26830847449248474,-0.45040329766384457,-0.4745274045247086,1.030565834933929,0.26084908937630075,-0.1041653020178149
11416,3.0,299.36598,3691.8863,0.0,0.0,0.0,0.11577129616253384,0.0,0.0,-0.26882848457630576,-0.38836634088377364,-0.4650464132065076,1.0296160142901891,0.24889564622408777,-0.06487441473735624
11417,3.0,299.24974,3376.4107,0.0,0.0,0.0,0.11578143730620609,0.0,0.0,-0.2043488959126658,-0.39993442475795465,-0.4220612130216986,1.060975598260139,0.2636311397783678,-0.08449029832579322
11418,3.0,300.02897,3299.2725,0.0,0.0,0.0,0.11579157844987836,0.0,0.0,-0.20753486833459678,-0.3720145411674766,-0.4233470375310996,1.0487253032261292,0.2580786204228767,-0.06801986627453813
11419,3.0,299.5082,3250.8135,0.0,0.0,0.0,0.11580171959355061,0.0,0.0,-0.20965546907138377,-0.3455901539295927,-0.43292050818592764,1.075050250099199,0.26333231205887575,-0.08430546630880172
11420,3.0,300.02414,3314.0166,0.0,0.0,0.0,0.11581186073722288,0.0,0.0,-0.2329464310375228,-0.3499869196910197,-0.4244449548094556,1.0419672290341588,0.23416354705764275,-0.08791408763894491
11421,3.0,300.96943,3114.8038,0.0,0.0,0.0,0.11582200188089516,0.0,0.0,-0.17464925878653983,-0.35527308599272367,-0.41690022363734863,1.052045825128839,0.25209022113936774,-0.1175393927377349
11422,3.0,300.73105,2977.4867,0.0,0.0,0.0,0.1158321430245674,0.0,0.0,-0.19572569173162183,-0.3458781196080127,-0.3634777976174656,1.033070183881089,0.27868403392647273,-0.11576544512515989
11423,3.0,301.16909,3394.4942,0.0,0.0,0.0,0.11584228416823968,0.0,0.0,-0.19596198165494183,-0.4146400780967896,-0.4212394063955926,1.050897914090549,0.29976185502419167,-0.13263974752052388
11424,3.0,300.01799,3556.9867,0.0,0.0,0.0,0.11585242531191192,0.0,0.0,-0.24648206422088578,-0.3797415155025696,-0.4550115489861436,1.01212702372166,0.27715634661820177,-0.08109565109876762
11425,3.0,299.32597000000004,3464.2183,0.0,0.0,0.0,0.1158625664555842,0.0,0.0,-0.2106697121564818,-0.42244764634483656,-0.4199184930352286,1.016359967206919,0.2574365440995087,-0.09266033855861341
11426,3.0,300.17181,3295.4458,0.0,0.0,0.0,0.11587270759925646,0.0,0.0,-0.1969094718234518,-0.38118186065222065,-0.4236419237077026,1.001216316247357,0.2807614094139937,-0.08672924464776002
11427,3.0,299.03732,3169.9402,0.0,0.0,0.0,0.11588284874292872,0.0,0.0,-0.18897666586304482,-0.3683732749456117,-0.4062327164520476,1.030104400838389,0.26366854897205977,-0.10138630149854891
11428,3.0,298.77623,3400.5192,0.0,0.0,0.0,0.11589298988660098,0.0,0.0,-0.22551502175659977,-0.37951256150997364,-0.4286453527015026,1.021943785857999,0.23676007136639976,-0.09620784773547532
11429,3.0,300.44174,3573.5073,0.0,0.0,0.0,0.11590313103027323,0.0,0.0,-0.23683565982385976,-0.3728248068749436,-0.4765965118914136,1.042285997515619,0.23509488601955877,-0.09376591094147492
11430,3.0,299.18152000000003,3225.9731,0.0,0.0,0.0,0.1159132721739455,0.0,0.0,-0.1962005209934838,-0.37868173695797763,-0.4057330119002306,1.0573768378799688,0.26521842645752075,-0.1079466703310069
11431,3.0,299.74155,2934.0721,0.0,0.0,0.0,0.11592341331761777,0.0,0.0,-0.16117198880893685,-0.33775570415639267,-0.39295696165433264,1.067392815118469,0.26451457227555575,-0.09619175428413701
11432,3.0,299.47996,3134.8298,0.0,0.0,0.0,0.11593355446129001,0.0,0.0,-0.18424021813809383,-0.34832937424993266,-0.4203403799793656,1.0312231302737989,0.26735572555595577,-0.1037604984703639
11433,3.0,299.63061,3735.2852,0.0,0.0,0.0,0.11594369560496229,0.0,0.0,-0.2527710644115618,-0.4434577519383726,-0.4392046245111215,1.055171397712309,0.25655286842229674,-0.08067097163735501
11434,3.0,300.322,3766.6886,0.0,0.0,0.0,0.11595383674863453,0.0,0.0,-0.2625081445600368,-0.4066727709704776,-0.4757983545226415,1.035356684056749,0.28546599042329973,-0.08210537610166972
11435,3.0,301.11752,3380.6828,0.0,0.0,0.0,0.11596397789230681,0.0,0.0,-0.20717889330946482,-0.40574391447130664,-0.41472036803471357,1.0299736915754891,0.2675227497024398,-0.08838390840556261
11436,3.0,300.61331,3333.2568,0.0,0.0,0.0,0.11597411903597907,0.0,0.0,-0.2064359479386418,-0.3832168620205596,-0.42357402581850156,1.018590029352009,0.25309526391355774,-0.07065540172539524
11437,3.0,300.70032000000003,3712.1525,0.0,0.0,0.0,0.11598426017965133,0.0,0.0,-0.25634031894881976,-0.3816781809487036,-0.49038316765455053,1.027370246768549,0.26154293264727774,-0.05579272805831354
11438,3.0,300.55365,3734.7146,0.0,0.0,0.0,0.11599440132332359,0.0,0.0,-0.23179053558844478,-0.43275107250420564,-0.4707183947487885,1.0494289040955689,0.2832816461227217,-0.09100876724011601
11439,3.0,300.39036,3324.6972,0.0,0.0,0.0,0.11600454246699585,0.0,0.0,-0.21873046120701578,-0.36420890822712065,-0.42768556167677857,1.049839067736049,0.24036567118474475,-0.10111522669929592
11440,3.0,300.12112,3045.7155,0.0,0.0,0.0,0.1160146836106681,0.0,0.0,-0.18364358608171083,-0.3595192726567897,-0.3826585916129626,1.0313104724324191,0.23856909769743678,-0.12214048038182689
11441,3.0,300.24248,2913.2864,0.0,0.0,0.0,0.11602482475434038,0.0,0.0,-0.16964092566225583,-0.34250588142019867,-0.3734195036236357,1.048528327406689,0.24392425619844973,-0.13521000838668887
11442,3.0,299.49456000000004,3320.2772,0.0,0.0,0.0,0.11603496589801263,0.0,0.0,-0.2236078317558748,-0.37545346134437163,-0.4102200683780686,1.045783230235769,0.29074718166701274,-0.10405550623697889
11443,3.0,299.76762,3468.9937,0.0,0.0,0.0,0.1160451070416849,0.0,0.0,-0.19678052561572582,-0.41601677087515865,-0.4416901776689266,1.037330393926539,0.26193480712345274,-0.12023017970329489
11444,3.0,299.96407,3026.1406,0.0,0.0,0.0,0.11605524818535715,0.0,0.0,-0.15408063639407485,-0.34883927209775567,-0.4169512914423886,1.009474750392401,0.27138165191328373,-0.0877070472062616
11445,3.0,300.00792,3021.8781,0.0,0.0,0.0,0.11606538932902942,0.0,0.0,-0.15858818078893483,-0.36508886527646567,-0.39489845017094266,1.018287168897119,0.25017420573027177,-0.09169223483006901
11446,3.0,299.22695,3595.4856,0.0,0.0,0.0,0.11607553047270168,0.0,0.0,-0.25716504373521376,-0.4025656934126406,-0.4332071059767126,1.047539091334059,0.2828229275374497,-0.07981664474928951
11447,3.0,299.37359,3846.5595,0.0,0.0,0.0,0.11608567161637394,0.0,0.0,-0.2868587330832527,-0.3982866369153306,-0.4841126694107005,1.032165047566759,0.25467588340705277,-0.08078363795572432
11448,3.0,299.97915,3428.1351,0.0,0.0,0.0,0.1160958127600462,0.0,0.0,-0.22339913263277777,-0.40056639897782564,-0.4181019281234476,1.0330303631521591,0.24073844589653476,-0.08571449088461161
11449,3.0,300.71917,3051.2576,0.0,0.0,0.0,0.11610595390371846,0.0,0.0,-0.16894628192369981,-0.3257401386405487,-0.4328196999334786,1.0352385390950891,0.25282615481949877,-0.07591988751470952
11450,3.0,300.45684,3290.9817,0.0,0.0,0.0,0.11611609504739072,0.0,0.0,-0.19430628032903682,-0.3701114446971556,-0.4359585258282566,1.021024160067239,0.2871396972034817,-0.07992300459903642
11451,3.0,300.52505,3486.1342,0.0,0.0,0.0,0.11612623619106299,0.0,0.0,-0.23779400190094074,-0.3920342961132726,-0.4298694500148116,1.0490841964115492,0.25065281441500675,-0.09204614687799742
11452,3.0,300.34712,3612.6958,0.0,0.0,0.0,0.11613637733473524,0.0,0.0,-0.26155045096301976,-0.3631375887638897,-0.4734812744589635,1.043843160269299,0.25077103030417375,-0.08837629585756132
11453,3.0,299.79283,3372.1825,0.0,0.0,0.0,0.11614651847840751,0.0,0.0,-0.24424972226307076,-0.3667092751013877,-0.4141002691060146,1.077052533621809,0.23967321606640477,-0.07972518271576291
11454,3.0,298.94706,3199.6901,0.0,0.0,0.0,0.11615665962207976,0.0,0.0,-0.2109124463504378,-0.36647910520867166,-0.3952343425790926,1.061481210060039,0.27816319297756975,-0.07409570296217653
11455,3.0,300.13653,3674.2861,0.0,0.0,0.0,0.11616680076575203,0.0,0.0,-0.23574841206905675,-0.4067007772032416,-0.4744420280712826,1.044874344896069,0.2743126095500467,-0.07202303098161973
11456,3.0,300.48863,3850.5623,0.0,0.0,0.0,0.11617694190942429,0.0,0.0,-0.24721110780033675,-0.4323453367666626,-0.49091832582736655,1.018276529771069,0.26653984644293477,-0.09054273298912201
11457,3.0,300.02586,3370.586,0.0,0.0,0.0,0.11618708305309655,0.0,0.0,-0.20109458990399082,-0.3859317440734976,-0.43754765662259165,1.031544026580469,0.28779825910597673,-0.07503589266371603
11458,3.0,299.65834,3083.0938,0.0,0.0,0.0,0.11619722419676881,0.0,0.0,-0.17586731712925285,-0.3835520350211386,-0.37776416806492064,1.002046796294319,0.3140365933604987,-0.1073688948589849
11459,3.0,301.31433,3350.2391,0.0,0.0,0.0,0.11620736534044107,0.0,0.0,-0.2129001796016118,-0.40001760245866363,-0.4054712488693966,1.033427253216329,0.27645002010599273,-0.11796483618972288
11460,3.0,300.74001,3484.9117,0.0,0.0,0.0,0.11621750648411333,0.0,0.0,-0.2363060542615918,-0.38038213274579363,-0.4426379414149636,1.020787870143919,0.2519154861596228,-0.12077327162439389
11461,3.0,301.01071,3377.4545,0.0,0.0,0.0,0.1162276476277856,0.0,0.0,-0.17470191739423685,-0.4170253093621936,-0.4349345960722026,1.060091436222879,0.24773079364412579,-0.13917256608276288
11462,3.0,299.55942000000005,3154.5325,0.0,0.0,0.0,0.11623778877145785,0.0,0.0,-0.17837963022219883,-0.35595803292782263,-0.4245614380409516,1.065258302457809,0.26066693740582375,-0.10667700716070089
11463,3.0,299.11452,3257.6046,0.0,0.0,0.0,0.11624792991513012,0.0,0.0,-0.19448928342959781,-0.39972641464492564,-0.3960147579386136,1.0737440693952889,0.24058328690872174,-0.12519725328350687
11464,3.0,299.93012000000004,3488.4355,0.0,0.0,0.0,0.11625807105880237,0.0,0.0,-0.2278476957393168,-0.4086893919820026,-0.42386019804424463,1.0555222862219389,0.23692957797562877,-0.1113990059392259
11465,3.0,300.73582000000005,3552.218,0.0,0.0,0.0,0.11626821220247464,0.0,0.0,-0.25408116639335876,-0.40336224984625463,-0.42234216700942656,1.0754792601915388,0.26134668636790975,-0.08272388625421193
11466,3.0,299.56891,3315.7173,0.0,0.0,0.0,0.11627835334614692,0.0,0.0,-0.2006913264966918,-0.3900659969990166,-0.41713794224330963,1.049909893918039,0.2889815832352617,-0.07445100924224252
11467,3.0,299.79019,3138.4258,0.0,0.0,0.0,0.11628849448981916,0.0,0.0,-0.17833197706999585,-0.35911250340414463,-0.4165585962336326,1.043025264788579,0.2780749692913628,-0.08289147275450143
11468,3.0,299.37737999999996,3361.2413,0.0,0.0,0.0,0.11629863563349144,0.0,0.0,-0.21668215586486378,-0.35741706240931764,-0.44763420673055654,1.007424661730073,0.2765653077023707,-0.060227172537959145
11469,3.0,299.60017,3622.6963,0.0,0.0,0.0,0.11630877677716368,0.0,0.0,-0.2294159333165898,-0.4017150699536906,-0.47007820307060655,1.0544869472697591,0.2824137062195627,-0.06851169483332785
11470,3.0,299.53522000000004,3469.0816,0.0,0.0,0.0,0.11631891792083596,0.0,0.0,-0.2365347245441598,-0.35996602475838063,-0.45801344426240753,1.0388810718795791,0.3037666753819367,-0.07531624376763453
11471,3.0,299.69931,3150.4656,0.0,0.0,0.0,0.1163290590645082,0.0,0.0,-0.18696269956678183,-0.38064525353176165,-0.39005493230792465,1.028962569300699,0.2946210394493327,-0.1002940523412523
11472,3.0,300.58341,3203.3581,0.0,0.0,0.0,0.11633920020818048,0.0,0.0,-0.1954602100729208,-0.3613714026470806,-0.4169092719607416,1.033251859624019,0.24667784440520774,-0.1047102684515989
11473,3.0,300.76344,3391.9404,0.0,0.0,0.0,0.11634934135185272,0.0,0.0,-0.1911336524109228,-0.38094089964593963,-0.4589906530563506,1.047372918317659,0.24992328447550777,-0.1008466161242861
11474,3.0,300.38441,3425.448,0.0,0.0,0.0,0.11635948249552498,0.0,0.0,-0.2095009079011298,-0.4002249438266266,-0.4315248169681836,1.070277132853129,0.25492620684425776,-0.08667976967187722
11475,3.0,300.37293,3352.7779,0.0,0.0,0.0,0.11636962363919726,0.0,0.0,-0.20566540163509478,-0.37288543976092764,-0.4406099416048156,1.053001421298149,0.24147876694959874,-0.0972608608091496
11476,3.0,300.05631,3191.0264,0.0,0.0,0.0,0.1163797647828695,0.0,0.0,-0.20241137933644782,-0.36986826467315564,-0.3977126915286866,1.029130059542229,0.25305709478229077,-0.08606384026733972
11477,3.0,300.43406,3217.2262,0.0,0.0,0.0,0.11638990592654178,0.0,0.0,-0.19508708072359582,-0.37509855023184463,-0.4077708098388456,1.026954510252519,0.2601324479780738,-0.10906160007854189
11478,3.0,299.60567000000003,3670.1944,0.0,0.0,0.0,0.11640004707021402,0.0,0.0,-0.22669779873083076,-0.39114614187061864,-0.49780351224438146,1.049168296169849,0.2877160237278607,-0.06114583067487364
11479,3.0,299.03559,3577.3448,0.0,0.0,0.0,0.1164101882138863,0.0,0.0,-0.2351861798535688,-0.4107344650563356,-0.44150285812293955,0.9924379226809971,0.2686298571592028,-0.12141020063725388
11480,3.0,299.02788,3293.0378,0.0,0.0,0.0,0.11642032935755854,0.0,0.0,-0.2034414797856108,-0.34749318960490766,-0.45006659465561455,1.021415781230889,0.24401798183269977,-0.07882414195833712
11481,3.0,299.74573,3169.7606,0.0,0.0,0.0,0.11643047050123081,0.0,0.0,-0.19248199445149383,-0.3455800923560997,-0.42546597653772256,0.99088707247544,0.25958473563651874,-0.12635136541240888
11482,3.0,300.63473,3377.3204,0.0,0.0,0.0,0.11644061164490306,0.0,0.0,-0.2332316609406728,-0.3563316283721937,-0.4370577805967446,1.0591337122283588,0.27211470796313075,-0.07374111608968152
11483,3.0,300.02871,3542.2356,0.0,0.0,0.0,0.11645075278857533,0.0,0.0,-0.24932459552142175,-0.37265152084284164,-0.45477503614780157,1.030704447547609,0.26536679666966373,-0.098259301245688
11484,3.0,299.4301,3313.6085,0.0,0.0,0.0,0.11646089393224761,0.0,0.0,-0.1991953539165508,-0.37947064335333663,-0.42858822566086463,1.039628850453379,0.28762052490593576,-0.08537858530421032
11485,3.0,300.59907999999996,3113.2258,0.0,0.0,0.0,0.11647103507591985,0.0,0.0,-0.18789315700111084,-0.3397464264953617,-0.4187033325878016,1.039626418653139,0.28390325479406975,-0.07352991322558744
11486,3.0,300.3268,3325.3193,0.0,0.0,0.0,0.11648117621959213,0.0,0.0,-0.20410523966111882,-0.34966647934689465,-0.45704231496906456,1.067519370055959,0.26831375352550574,-0.05557349620042705
11487,3.0,300.02484,3681.6949,0.0,0.0,0.0,0.11649131736326437,0.0,0.0,-0.24688662458831276,-0.4085230568455866,-0.4637336261119455,1.049409449693649,0.25029985887517275,-0.06335524683592604
11488,3.0,299.30863,3571.2938,0.0,0.0,0.0,0.11650145850693665,0.0,0.0,-0.26149338471738776,-0.3572913484694107,-0.46679939667451353,1.048966558074939,0.2144073587278588,-0.06854846973245723
11489,3.0,298.77107,3186.2638,0.0,0.0,0.0,0.1165115996506089,0.0,0.0,-0.19235364606132682,-0.3575362206210777,-0.41865477764300957,1.0476430507943189,0.2577385128943107,-0.08999881628244161
11490,3.0,298.28334,3216.1627,0.0,0.0,0.0,0.11652174079428117,0.0,0.0,-0.17679458282576685,-0.3834757271561076,-0.41736283310300465,1.024652406025319,0.27785380719203573,-0.1122839481790629
11491,3.0,300.12055,3602.9790000000003,0.0,0.0,0.0,0.11653188193795343,0.0,0.0,-0.25234600599461177,-0.3913302798112916,-0.45153935367596454,1.0309723508740491,0.28862401740747273,-0.11347805328941189
11492,3.0,300.06377000000003,3638.9045,0.0,0.0,0.0,0.11654202308162567,0.0,0.0,-0.23752930044481677,-0.42051270342387265,-0.44809409055344357,1.008175571246682,0.2803222870856557,-0.12237429797490287
11493,3.0,300.32015,3193.7834,0.0,0.0,0.0,0.11655216422529795,0.0,0.0,-0.2067924194563228,-0.3883206027742596,-0.37571737246541764,1.036860245880139,0.3143767008890647,-0.1196985780383299
11494,3.0,299.46311000000003,2903.7211,0.0,0.0,0.0,0.11656230536897019,0.0,0.0,-0.16149082821790386,-0.35884075985982566,-0.3623271305389037,1.033072007731269,0.2824592315465557,-0.09219124429231741
11495,3.0,300.17346000000003,3412.1762,0.0,0.0,0.0,0.11657244651264247,0.0,0.0,-0.18411759461099184,-0.4255412002251466,-0.4275575577916456,1.038642654131049,0.27892808534555874,-0.10734700865682488
11496,3.0,299.89567999999997,3871.8383,0.0,0.0,0.0,0.11658258765631474,0.0,0.0,-0.25521184204744773,-0.4310125683801286,-0.4907177428375705,1.026608080043329,0.23540441366010675,-0.088484011435942
11497,3.0,299.94801,3740.4357,0.0,0.0,0.0,0.11659272879998699,0.0,0.0,-0.2241764170494898,-0.4324184630263796,-0.4804041639121996,1.046022863884419,0.24623641186664177,-0.07800796494978673
11498,3.0,300.08805,3321.9603,0.0,0.0,0.0,0.11660286994365926,0.0,0.0,-0.19682724657783682,-0.3925582578724836,-0.42040747740098755,1.036686270837969,0.24750738212957676,-0.07068023141909573
11499,3.0,300.57112,3289.5734,0.0,0.0,0.0,0.1166130110873315,0.0,0.0,-0.2064796494154548,-0.37988872047709765,-0.41357979292714764,1.030762202803309,0.25413821237398876,-0.07762959101794412
11500,3.0,300.7789,3706.9874,0.0,0.0,0.0,0.11662315223100378,0.0,0.0,-0.28698758809846975,-0.3994805393756596,-0.44036348878299253,1.0334864270221689,0.23573857341058577,-0.10533709536096189
11501,3.0,300.15563,3784.0377,0.0,0.0,0.0,0.11663329337467604,0.0,0.0,-0.24904794784661877,-0.41272362699015064,-0.4884813985418605,1.049022286830439,0.2990755503339587,-0.08541464079576873
11502,3.0,299.64858,3096.0254,0.0,0.0,0.0,0.1166434345183483,0.0,0.0,-0.19128360329322183,-0.3570838551139327,-0.39274695543860666,1.052246651298659,0.29605981406132875,-0.1020674487457729
11503,3.0,299.51833999999997,2902.4351,0.0,0.0,0.0,0.11665357566202056,0.0,0.0,-0.14571049142550588,-0.3530793691287207,-0.38347794617382663,1.042257119887769,0.30284278380825574,-0.09742418861926881
11504,3.0,300.02946000000003,3496.728,0.0,0.0,0.0,0.11666371680569282,0.0,0.0,-0.2306562122339958,-0.3891586315344666,-0.44310313466837453,1.027955905326349,0.27289588326022673,-0.10942070604648291
11505,3.0,300.02602,3742.8590000000004,0.0,0.0,0.0,0.11667385794936508,0.0,0.0,-0.28630017896562776,-0.4068718239526226,-0.4445636738925186,1.032827510482139,0.29615358022558275,-0.06345955586747054
11506,3.0,299.8349,3563.6789,0.0,0.0,0.0,0.11668399909303735,0.0,0.0,-0.22993113046243577,-0.4149688473567366,-0.4383694125861926,1.059535465893009,0.26768225553318176,-0.07945749318509401
11507,3.0,300.31298,3208.6312,0.0,0.0,0.0,0.1166941402367096,0.0,0.0,-0.17108121001690085,-0.36129445643448665,-0.4429680886950466,1.037438913012249,0.26343353574386574,-0.07232175838935184
11508,3.0,301.57964,3253.6899,0.0,0.0,0.0,0.11670428138038187,0.0,0.0,-0.16237673304533584,-0.3964527555593406,-0.43021099635851956,1.0597262608868392,0.25175163348595175,-0.08218053595433743
11509,3.0,301.23299,3514.3517,0.0,0.0,0.0,0.11671442252405412,0.0,0.0,-0.2065222667146608,-0.3913374637545006,-0.47041542283638754,1.0262785711108091,0.28175815366986473,-0.07917174348464273
11510,3.0,300.97623,3405.1603,0.0,0.0,0.0,0.11672456366772639,0.0,0.0,-0.2103487651873068,-0.3803154406242117,-0.44441950866829055,1.0694119185927389,0.26098055857677577,-0.09391948317963131
11511,3.0,300.00933,3065.7088,0.0,0.0,0.0,0.11673470481139865,0.0,0.0,-0.1993656204633548,-0.3637689955637047,-0.36876430842420366,1.006609532422126,0.24493264269796977,-0.1106033715632029
11512,3.0,299.14502999999996,3007.2444,0.0,0.0,0.0,0.11674484595507091,0.0,0.0,-0.16063269657571286,-0.34437224757439466,-0.4091222625572236,1.0751755891365689,0.23086721143481978,-0.12656026718552588
11513,3.0,299.10126,3497.2476,0.0,0.0,0.0,0.11675498709874317,0.0,0.0,-0.22884037686228678,-0.39185675443075063,-0.4423788128343896,1.035029302949439,0.2650904934998948,-0.11306634950877989
11514,3.0,299.6228,3675.6112,0.0,0.0,0.0,0.11676512824241543,0.0,0.0,-0.2291045716933608,-0.4029537985984436,-0.48523564436402955,1.071696392268199,0.26603847002845277,-0.08069986851695692
11515,3.0,300.14295,3453.3135,0.0,0.0,0.0,0.11677526938608769,0.0,0.0,-0.2167243070690238,-0.3618102513978917,-0.47118651629498853,1.010384709777207,0.26158048369598375,-0.08294791382482171
11516,3.0,299.61427000000003,3373.3647,0.0,0.0,0.0,0.11678541052975996,0.0,0.0,-0.2060723735377598,-0.37863801521616264,-0.44070823699701656,1.029816435159969,0.26947835279294274,-0.07057469027542963
11517,3.0,299.54618,3584.2959,0.0,0.0,0.0,0.11679555167343221,0.0,0.0,-0.2776215804016168,-0.36944080485346864,-0.44247405834378956,1.00839299445314,0.3098743848647207,-0.04142895340921936
11518,3.0,301.02082,3772.0273,0.0,0.0,0.0,0.11680569281710448,0.0,0.0,-0.2583659376212328,-0.4101536700990156,-0.47808251409057057,1.0382542753677189,0.28740422640708874,-0.06499688222394284
11519,3.0,300.67147,3584.5915,0.0,0.0,0.0,0.11681583396077673,0.0,0.0,-0.2646815254945328,-0.3641953002782777,-0.46074948297743357,1.009737850913367,0.25935062420091376,-0.07245062657682012
11520,3.0,300.58105,3272.4698,0.0,0.0,0.0,0.116825975104449,0.0,0.0,-0.18519512529733584,-0.3668013086079706,-0.44275268185628763,1.040819621970899,0.22699023284219177,-0.09987591948873581
11521,3.0,300.81786,3055.4819,0.0,0.0,0.0,0.11683611624812126,0.0,0.0,-0.16930636061173684,-0.3539366901708317,-0.40554717169938964,1.070159190541489,0.2574387225872238,-0.09129044671491561
11522,3.0,300.63707,3219.0036,0.0,0.0,0.0,0.11684625739179352,0.0,0.0,-0.19421610107013682,-0.36481653404708864,-0.4194640706303806,1.052237836022789,0.26645050818161775,-0.11981010647683689
11523,3.0,300.1922,3611.4769,0.0,0.0,0.0,0.11685639853546578,0.0,0.0,-0.28082015765479174,-0.3845551323551366,-0.4324235191443786,1.0659159017727091,0.24871688864144578,-0.1083393655397629
11524,3.0,300.58392000000003,3498.6729,0.0,0.0,0.0,0.11686653967913804,0.0,0.0,-0.23377884639217578,-0.39193400461837463,-0.43779636899213764,1.0656566110721188,0.25568834317197475,-0.1295644524070159
11525,3.0,298.70962000000003,3072.9842,0.0,0.0,0.0,0.1168766808228103,0.0,0.0,-0.1956137985230788,-0.34535095597848564,-0.39314572001546166,1.087042065032699,0.2999248970977827,-0.08646970874064581
11526,3.0,299.49855,3285.4171,0.0,0.0,0.0,0.11688682196648258,0.0,0.0,-0.1840749063842788,-0.38778149292605363,-0.4268283723571806,1.0512576178760489,0.2869371789059947,-0.09282436449805151
11527,3.0,299.32734,3609.3218,0.0,0.0,0.0,0.11689696311015482,0.0,0.0,-0.2241130281232338,-0.3874058811139836,-0.4856247931974355,1.029179404822099,0.2853257971394637,-0.06039745225701444
11528,3.0,299.42985,3346.3691,0.0,0.0,0.0,0.1169071042538271,0.0,0.0,-0.22098587486960777,-0.3734195948161447,-0.42280718801032063,0.995938286343956,0.25695659792464176,-0.08936780465016561
11529,3.0,299.28326,3208.9629999999997,0.0,0.0,0.0,0.11691724539749934,0.0,0.0,-0.2044613970712688,-0.3768660434412826,-0.39411717354883663,1.0502877348803292,0.26864254305045476,-0.07717151787298583
11530,3.0,300.12613,3283.7374,0.0,0.0,0.0,0.11692738654117162,0.0,0.0,-0.2140795824530098,-0.3729589713206846,-0.41113562090342665,1.028652210795069,0.27405135314426277,-0.10009050154191342
11531,3.0,299.41356,3389.2864,0.0,0.0,0.0,0.11693752768484389,0.0,0.0,-0.22754920239235776,-0.37550570451952764,-0.4272035180742046,1.038436660385719,0.24123344896788776,-0.1080334653345729
11532,3.0,299.93727,3590.3656,0.0,0.0,0.0,0.11694766882851614,0.0,0.0,-0.2414471434139778,-0.3875550011312006,-0.4623793464257886,1.033794860352609,0.24912166179139378,-0.12613040596310188
11533,3.0,300.00234,3475.9051,0.0,0.0,0.0,0.11695780997218841,0.0,0.0,-0.24032957921618278,-0.3611236224676267,-0.4551351452333416,1.055889994683229,0.28540943080271775,-0.08334436413844833
11534,3.0,300.76417000000004,3132.211,0.0,0.0,0.0,0.11696795111586065,0.0,0.0,-0.1932848431682288,-0.3677618393052677,-0.3910672502178326,1.045940993276339,0.28718776578822575,-0.10811301559992391
11535,3.0,301.03803,3361.3091,0.0,0.0,0.0,0.11697809225953291,0.0,0.0,-0.2408325869633258,-0.3462258163798277,-0.4346956311686186,1.0617190198585091,0.2650844849268017,-0.07824606048478493
11536,3.0,300.11017999999996,3709.3577,0.0,0.0,0.0,0.11698823340320519,0.0,0.0,-0.25408288891852876,-0.4047003276633126,-0.46876890155638856,1.027521525008479,0.25722765245889273,-0.09425475953172051
11537,3.0,298.6858,3377.8021,0.0,0.0,0.0,0.11699837454687743,0.0,0.0,-0.21592119490726278,-0.37346902115602265,-0.4373772786182766,1.066363758316909,0.2627608693999787,-0.06735043219847014
11538,3.0,299.26808,3097.7483,0.0,0.0,0.0,0.11700851569054971,0.0,0.0,-0.15413878681731386,-0.35929862731501366,-0.4282007284251216,1.030963738248199,0.2908263266323237,-0.1020377807828449
11539,3.0,299.32679,3377.111,0.0,0.0,0.0,0.11701865683422195,0.0,0.0,-0.19616077119206082,-0.3933253692581916,-0.4370712669555756,1.0317098956218391,0.2363759685184918,-0.07352113341347093
11540,3.0,299.3608,3590.2018,0.0,0.0,0.0,0.11702879797789423,0.0,0.0,-0.23001024503024375,-0.4060069035347616,-0.4553145310310455,1.021664939430479,0.2644367141378718,-0.11373540868231088
11541,3.0,300.14126,3441.6513,0.0,0.0,0.0,0.1170389391215665,0.0,0.0,-0.22306208511951378,-0.4004503717088746,-0.4226636104711506,1.0504322243445892,0.27322555431276274,-0.0901048934354106
11542,3.0,300.62056,3221.4116,0.0,0.0,0.0,0.11704908026523875,0.0,0.0,-0.17607806301755183,-0.37288151848304063,-0.43026910625175463,1.057257983643239,0.2866502771401797,-0.11403078121896189
11543,3.0,300.79393999999996,3288.0379,0.0,0.0,0.0,0.11705922140891102,0.0,0.0,-0.2058489113607058,-0.3501778869373667,-0.4434546209955636,1.0304594436734291,0.23509673013474078,-0.08187511704294492
11544,3.0,301.56677,3406.1903,0.0,0.0,0.0,0.11706936255258327,0.0,0.0,-0.1948427151969788,-0.3873990518083096,-0.45315504175542054,1.044513019910409,0.26818136226743977,-0.10814950273602489
11545,3.0,300.93695,3646.4931,0.0,0.0,0.0,0.11707950369625554,0.0,0.0,-0.2610102265397038,-0.3960442840465276,-0.45138832874855955,1.046965490452449,0.2736347249681447,-0.08522827674462602
11546,3.0,299.38766,3484.1090000000004,0.0,0.0,0.0,0.1170896448399278,0.0,0.0,-0.2274922172067338,-0.38211632042444466,-0.4494736001670906,1.052565521105129,0.2853010333070197,-0.09025310862028832
11547,3.0,299.77391,3181.4251,0.0,0.0,0.0,0.11709978598360006,0.0,0.0,-0.19803965098499182,-0.38789318348457663,-0.3811409456131826,1.045415116474439,0.24247469047288878,-0.1173527925993189
11548,3.0,299.83952999999997,3297.2331,0.0,0.0,0.0,0.11710992712727232,0.0,0.0,-0.1944139685496648,-0.37171372747778864,-0.43614885472704057,1.0421137449986189,0.27847696613603673,-0.10540106183977489
11549,3.0,299.52675,3626.3477,0.0,0.0,0.0,0.11712006827094458,0.0,0.0,-0.2515949039604838,-0.4066359595943446,-0.44408827721060057,1.063319752366489,0.24491111113334477,-0.08942033558835001
11550,3.0,300.48977,3292.2907,0.0,0.0,0.0,0.11713020941461684,0.0,0.0,-0.17728104419877683,-0.39168837252913263,-0.4318047374408096,1.044579286466949,0.25803358145593175,-0.08752815182160602
11551,3.0,299.98476,3088.6228,0.0,0.0,0.0,0.11714035055828911,0.0,0.0,-0.17972544927002082,-0.35869588536052766,-0.40044287365813463,1.045896207621919,0.2208708709832578,-0.0980348085932823
11552,3.0,299.9628,3483.7494,0.0,0.0,0.0,0.11715049170196136,0.0,0.0,-0.2046415022765438,-0.4116280807170286,-0.4427032251189066,1.0272904026606688,0.26417575157461676,-0.100375646332055
11553,3.0,300.41253,3652.8881,0.0,0.0,0.0,0.11716063284563363,0.0,0.0,-0.26074259679079076,-0.3892062846866696,-0.4604378781741805,1.068869424489199,0.26536409129189675,-0.08580626297266883
11554,3.0,300.7311,3478.7713,0.0,0.0,0.0,0.11717077398930588,0.0,0.0,-0.1931690996093058,-0.4100111564724506,-0.45427936433138255,1.050863362262139,0.3038119575289057,-0.08372481624624602
11555,3.0,300.59921,3379.7551,0.0,0.0,0.0,0.11718091513297815,0.0,0.0,-0.2017317620968748,-0.3989369914920156,-0.4266924245912636,1.0698449816854791,0.2594531651110337,-0.09327786281880832
11556,3.0,300.94566000000003,3408.0563,0.0,0.0,0.0,0.11719105627665041,0.0,0.0,-0.19475931458124782,-0.3814067413794146,-0.4597979702060266,1.059244460464289,0.2934416467304357,-0.08197408320671212
11557,3.0,299.395,3255.3533,0.0,0.0,0.0,0.11720119742032267,0.0,0.0,-0.21767695468054277,-0.3985671450730146,-0.37330201727454065,1.070543718954439,0.28082676404544377,-0.1054293821800699
11558,3.0,299.50324,3443.1277,0.0,0.0,0.0,0.11721133856399493,0.0,0.0,-0.23912032601683877,-0.39681056456715363,-0.4106939654498386,1.0533986153373491,0.2834906694858507,-0.1002535963045096
11559,3.0,299.49902000000003,3446.3856,0.0,0.0,0.0,0.11722147970766719,0.0,0.0,-0.2372959996092918,-0.3998493218820556,-0.4104698345277186,1.0591823482331588,0.23198287072242676,-0.12184007199217889
11560,3.0,299.58196,3141.1359,0.0,0.0,0.0,0.11723162085133945,0.0,0.0,-0.15918893677322485,-0.40714815751989464,-0.3884897952759576,1.0422210481842091,0.24730854192995277,-0.11357587245406589
11561,3.0,300.04533,3468.4057,0.0,0.0,0.0,0.11724176199501173,0.0,0.0,-0.1964432146574358,-0.4138413330429596,-0.44402417900927454,1.054876035308159,0.24613913985704178,-0.11845016272262088
11562,3.0,300.28842000000003,3776.8152,0.0,0.0,0.0,0.11725190313868397,0.0,0.0,-0.22593549015059677,-0.4234879198250036,-0.4986340936163535,1.0428834097745792,0.27109887407537575,-0.06684075219941864
11563,3.0,300.4828,3404.0482,0.0,0.0,0.0,0.11726204428235625,0.0,0.0,-0.22753181502064176,-0.3889598014673436,-0.41825404736096056,1.054652917636139,0.23839658173541076,-0.1013418198191589
11564,3.0,301.34044,3332.6994,0.0,0.0,0.0,0.11727218542602849,0.0,0.0,-0.21148157879910678,-0.35978267715278567,-0.4417931441440886,1.051991616248489,0.2734476992646867,-0.05001470887981745
11565,3.0,300.16852,3532.1048,0.0,0.0,0.0,0.11728232656970076,0.0,0.0,-0.23870759885360576,-0.4012627348440486,-0.43370132884548857,1.0799096962537889,0.3021059179380327,-0.08977541287389341
11566,3.0,299.81865,3558.3311,0.0,0.0,0.0,0.11729246771337302,0.0,0.0,-0.2135040057337048,-0.3931048961689326,-0.47503490096979456,1.039238951814899,0.3058634140788687,-0.08539783198985983
11567,3.0,300.32603,3532.0097,0.0,0.0,0.0,0.11730260885704528,0.0,0.0,-0.2211581780491128,-0.4114408827610536,-0.44104369370762353,1.049560626608569,0.25859234835607775,-0.1266734877516999
11568,3.0,299.4957,3504.1754,0.0,0.0,0.0,0.11731275000071754,0.0,0.0,-0.22490071861847277,-0.4055125286784706,-0.4347685851758186,1.0071548230959422,0.27203365808763175,-0.1079182081356979
11569,3.0,299.1549,3266.4463,0.0,0.0,0.0,0.1173228911443898,0.0,0.0,-0.24271039271115077,-0.3536923347767157,-0.3965153744155206,1.0692740152541291,0.25954826876541975,-0.08876626035729782
11570,3.0,300.39085,3183.7013,0.0,0.0,0.0,0.11733303228806206,0.0,0.0,-0.22439367813593178,-0.35201863812903467,-0.39135337178107066,1.026255063708489,0.2677604683084007,-0.11123388670292991
11571,3.0,299.36276000000004,3469.6225,0.0,0.0,0.0,0.11734317343173434,0.0,0.0,-0.23817648354868876,-0.39102943572410065,-0.4254726741208836,1.049495069327099,0.2223463455138758,-0.09458188631325541
11572,3.0,299.35983,3451.3907,0.0,0.0,0.0,0.11735331457540658,0.0,0.0,-0.2019116747846308,-0.36773007391463264,-0.4794948428749566,1.044227790007259,0.25351389832487375,-0.08979674685474892
11573,3.0,299.75157,3235.2467,0.0,0.0,0.0,0.11736345571907886,0.0,0.0,-0.13598515484568988,-0.39407405975708165,-0.4533749980871286,1.091612734908789,0.26627538816683477,-0.07806180602035043
11574,3.0,300.18018,3334.5094,0.0,0.0,0.0,0.1173735968627511,0.0,0.0,-0.17400300787275985,-0.37034430983513766,-0.46926027719238356,1.069406041742159,0.26833786887788574,-0.07664904255167151
11575,3.0,300.92194,3638.2493,0.0,0.0,0.0,0.11738373800642338,0.0,0.0,-0.2536623597295258,-0.3947944400481776,-0.4574801504697756,1.0558441957787088,0.23294910601778676,-0.08225667359335162
11576,3.0,300.71763,3591.1304,0.0,0.0,0.0,0.11739387915009565,0.0,0.0,-0.26833214401482075,-0.3962558709324096,-0.42702594599417953,1.0323603008610291,0.29094636637167076,-0.100938020402557
11577,3.0,300.28605,3490.5122,0.0,0.0,0.0,0.1174040202937679,0.0,0.0,-0.23940199941213777,-0.40280523586878164,-0.41882130529694456,1.0621057774216789,0.3157445378615597,-0.10465811646895189
11578,3.0,300.48568,3512.5567,0.0,0.0,0.0,0.11741416143744016,0.0,0.0,-0.22883779307453178,-0.40013262661001564,-0.43875911870715356,1.037963573914029,0.3120327595652357,-0.1067827600736379
11579,3.0,301.15266,3472.0891,0.0,0.0,0.0,0.11742430258111242,0.0,0.0,-0.1971176136589938,-0.4060577484247796,-0.45225301611889757,1.020413474231969,0.27536695707410275,-0.11505592687513588
11580,3.0,299.72611,3325.9949,0.0,0.0,0.0,0.11743444372478468,0.0,0.0,-0.21413497683597676,-0.37422880674350767,-0.42265562606036255,1.029534650307159,0.26965293578517274,-0.08451491625022282
11581,3.0,300.25158999999996,3455.6198,0.0,0.0,0.0,0.11744458486845694,0.0,0.0,-0.2245024201366638,-0.38257797743500666,-0.44334173480192257,1.051741647448819,0.2640217476919178,-0.08389180290247633
11582,3.0,299.54749,3354.6344,0.0,0.0,0.0,0.1174547260121292,0.0,0.0,-0.2298051328125008,-0.37050568004606366,-0.4194142795204666,1.055929308787109,0.24975008963591477,-0.06872565171119373
11583,3.0,298.26599,3365.1259,0.0,0.0,0.0,0.11746486715580146,0.0,0.0,-0.22177305873979677,-0.3780715982777616,-0.4230695893887176,1.0561037904543291,0.2171625985322798,-0.10459584211780591
11584,3.0,298.58788,3735.1145,0.0,0.0,0.0,0.11747500829947372,0.0,0.0,-0.2628880626850318,-0.4156301652995036,-0.4568633142063986,1.074978005367069,0.25622749355018476,-0.09282145951001482
11585,3.0,298.68541,3603.4513,0.0,0.0,0.0,0.11748514944314598,0.0,0.0,-0.2295146340088308,-0.3922955322540546,-0.47354905075815257,1.0730721832539791,0.2743143422077177,-0.08125469083446363
11586,3.0,299.30658999999997,3324.8979,0.0,0.0,0.0,0.11749529058681824,0.0,0.0,-0.1976179362933718,-0.4098810855571136,-0.4031869069164496,1.078329735372859,0.3004410061687187,-0.10058281848725131
11587,3.0,300.39187000000004,3413.0252,0.0,0.0,0.0,0.11750543173049051,0.0,0.0,-0.23162092765420578,-0.3801568771160626,-0.4256966226579856,1.054879480358499,0.25867415816915174,-0.10121856807699489
11588,3.0,300.09918,3412.8289,0.0,0.0,0.0,0.11751557287416275,0.0,0.0,-0.24355675038717975,-0.3912046266663906,-0.40265339020879565,1.065603820741909,0.2881785723985107,-0.1018590738627079
11589,3.0,299.88707999999997,3268.9481,0.0,0.0,0.0,0.11752571401783503,0.0,0.0,-0.2056031678139528,-0.3918975782772796,-0.3961778608072106,1.0370762708014591,0.28887665105490573,-0.09988365463999921
11590,3.0,300.50932,3380.8636,0.0,0.0,0.0,0.11753585516150727,0.0,0.0,-0.1988833032832538,-0.4062671162929426,-0.42254768452720953,1.0326063179853089,0.27940721078784475,-0.1076346906252169
11591,3.0,299.64624,3466.4038,0.0,0.0,0.0,0.11754599630517955,0.0,0.0,-0.19428032086147481,-0.4135005466368266,-0.4459193214663105,0.9929731011188151,0.27017177049887775,-0.08401728176836012
11592,3.0,300.52346,3329.6174,0.0,0.0,0.0,0.1175561374488518,0.0,0.0,-0.2098196865150908,-0.37210540943644466,-0.4301954733669876,1.035324361378559,0.26922929591836275,-0.07274360480348484
11593,3.0,300.40861,3364.3635,0.0,0.0,0.0,0.11756627859252407,0.0,0.0,-0.2179671089791788,-0.3866319201575997,-0.41808345657412466,1.0554852012682792,0.29012605935571273,-0.08442207720981032
11594,3.0,299.49339,3741.5593,0.0,0.0,0.0,0.11757641973619631,0.0,0.0,-0.27158941884628873,-0.4195621735050626,-0.4461890182454276,1.0569182408847089,0.2538932084998088,-0.07634680929859342
11595,3.0,298.95216,3635.2525,0.0,0.0,0.0,0.11758656087986859,0.0,0.0,-0.24418852195703078,-0.4069613445989576,-0.45387611105658454,1.074281193273299,0.2372698982867158,-0.10775561189215088
11596,3.0,299.2702,3428.9336,0.0,0.0,0.0,0.11759670202354085,0.0,0.0,-0.21694631016593383,-0.39143953856957464,-0.43392433505999756,1.086349305939329,0.24985626811389378,-0.08540694718775942
11597,3.0,299.03876,3445.3298,0.0,0.0,0.0,0.11760684316721311,0.0,0.0,-0.2176445509423448,-0.39114226112273565,-0.4385074273823136,1.074332869028399,0.2895960991559097,-0.0971042397014423
11598,3.0,299.53135,3500.6263,0.0,0.0,0.0,0.11761698431088537,0.0,0.0,-0.23109205163200977,-0.3856202912577596,-0.44739063153901754,1.039893207404469,0.26039549783653476,-0.06802339339813623
11599,3.0,299.96366,3337.8631,0.0,0.0,0.0,0.11762712545455763,0.0,0.0,-0.2148678201033028,-0.38242382156479265,-0.4173353942902966,0.9993858090141999,0.25767142560518974,-0.11780812692925689
11600,3.0,299.93412,3456.9455,0.0,0.0,0.0,0.11763726659822989,0.0,0.0,-0.22193095350287978,-0.3969033884088146,-0.43199077015916965,1.0229522736825292,0.27678054228861276,-0.07347817667548143
11601,3.0,300.7166,3412.437,0.0,0.0,0.0,0.11764740774190216,0.0,0.0,-0.2063546042206138,-0.3884062021427076,-0.4425348330847876,1.034545881326729,0.3005539328923637,-0.10093911167291471
11602,3.0,300.82482999999996,3294.0969,0.0,0.0,0.0,0.1176575488855744,0.0,0.0,-0.17275851383493784,-0.4067662128946996,-0.42179848740326964,1.0372463954932492,0.28134940857952473,-0.10330676507558391
11603,3.0,300.46111,3302.2502,0.0,0.0,0.0,0.11766769002924668,0.0,0.0,-0.18322462743036283,-0.3823368239112066,-0.4382401421384346,1.022148361053189,0.2631274734186598,-0.0972162362614955
11604,3.0,299.70563,3418.347,0.0,0.0,0.0,0.11767783117291893,0.0,0.0,-0.21925418991870377,-0.38108597679525763,-0.43875195502894654,1.078533094667929,0.2876327852321457,-0.07885479986661283
11605,3.0,300.01108999999997,3396.7829,0.0,0.0,0.0,0.1176879723165912,0.0,0.0,-0.21672470223656282,-0.3930628665547846,-0.4227496252721396,1.096646156105549,0.3040404454264557,-0.07580418752554083
11606,3.0,300.08501,3235.7099,0.0,0.0,0.0,0.11769811346026347,0.0,0.0,-0.20699711624152478,-0.37003962553006764,-0.4065382721522036,1.074704833140109,0.24480668557803875,-0.1139071748392629
11607,3.0,299.58411,3340.8042,0.0,0.0,0.0,0.11770825460393572,0.0,0.0,-0.2017395337251418,-0.39420820393782063,-0.4195733192561626,1.0497154512238491,0.21574068440194782,-0.1029800425808389
11608,3.0,299.69819,3418.2722,0.0,0.0,0.0,0.11771839574760799,0.0,0.0,-0.2258117419158838,-0.37198192464675767,-0.44127572798052356,1.0725726509546791,0.25495270333437275,-0.10321695058671991
11609,3.0,298.9334,3197.1323,0.0,0.0,0.0,0.11772853689128024,0.0,0.0,-0.16631641155415183,-0.36474599157512666,-0.44078597354468857,1.0778680986272988,0.2907086578982107,-0.08701060089577772
11610,3.0,299.48925,3240.9797,0.0,0.0,0.0,0.11773867803495251,0.0,0.0,-0.21996162087352178,-0.36095849309882966,-0.4042567774320376,1.046573767963789,0.2611768453861477,-0.1045143261472609
11611,3.0,300.03362999999996,3414.9904,0.0,0.0,0.0,0.11774881917862477,0.0,0.0,-0.20019842085304582,-0.38106107110779963,-0.45681231732886557,1.011218543682,0.2670905782697877,-0.09575501106703381
11612,3.0,300.1963,3358.2422,0.0,0.0,0.0,0.11775896032229703,0.0,0.0,-0.2287778694636178,-0.4038474345241386,-0.38819645937200764,1.050015677228479,0.2988503048367287,-0.11106249544851489
11613,3.0,299.71994,3438.3933,0.0,0.0,0.0,0.11776910146596929,0.0,0.0,-0.2125164921862448,-0.36882927802061566,-0.4638399160474355,1.0487341185019992,0.3102638275406557,-0.07471050664585292
11614,3.0,299.72907000000004,3553.4051,0.0,0.0,0.0,0.11777924260964155,0.0,0.0,-0.2461660923097018,-0.38949107889227663,-0.4444892608051746,1.045231110256279,0.25085574814503475,-0.0896140436762175
11615,3.0,299.844,3384.0969,0.0,0.0,0.0,0.11778938375331381,0.0,0.0,-0.19164501947139082,-0.3782094408213656,-0.4588265065401505,1.010884606846543,0.24928970932047875,-0.08397397039283562
11616,3.0,300.98247000000003,3498.2165,0.0,0.0,0.0,0.11779952489698609,0.0,0.0,-0.24487156398194176,-0.3777968555131466,-0.44070205617140656,1.063773992386319,0.2913124029702957,-0.06392400032905764
11617,3.0,299.92179,3664.4775,0.0,0.0,0.0,0.11780966604065833,0.0,0.0,-0.2290679730997488,-0.4089286000656106,-0.4759130746989635,1.056897975882709,0.2998550335033877,-0.09641543734971281
11618,3.0,299.58633,3421.7166,0.0,0.0,0.0,0.1178198071843306,0.0,0.0,-0.23651195681441278,-0.3887976510538407,-0.4148067982682436,1.047897883194469,0.2519157090746448,-0.12225450141557988
11619,3.0,299.46663,3330.0177,0.0,0.0,0.0,0.11782994832800285,0.0,0.0,-0.18703400197631884,-0.3847191674138256,-0.4404890811328876,1.034792303751049,0.23898070015305875,-0.13912738526080387
11620,3.0,298.33881,3391.975,0.0,0.0,0.0,0.11784008947167512,0.0,0.0,-0.20241053833886483,-0.3898544405106376,-0.4388107336672476,1.071403664314309,0.26025465607263476,-0.12007201136268487
11621,3.0,298.91337999999996,3367.1691,0.0,0.0,0.0,0.11785023061534738,0.0,0.0,-0.19472794435815183,-0.37408093302391365,-0.45472645080550655,1.052243814198379,0.27475645362385076,-0.09132249784207883
11622,3.0,299.16694,3345.059,0.0,0.0,0.0,0.11786037175901964,0.0,0.0,-0.19916118712317882,-0.39668562069732266,-0.4209676121887686,1.035092327105659,0.25343105499669777,-0.1042502225086959
11623,3.0,298.97586,3447.9451,0.0,0.0,0.0,0.1178705129026919,0.0,0.0,-0.2053358521725708,-0.3973865263214966,-0.44536682658428356,1.003184726819124,0.2587831737474108,-0.09438446567702151
11624,3.0,300.16536,3419.4437,0.0,0.0,0.0,0.11788065404636416,0.0,0.0,-0.24170247230667677,-0.36718163203300563,-0.4305413969511276,1.057429628210179,0.3071191045302957,-0.08882508763160361
11625,3.0,300.29477,3383.5575,0.0,0.0,0.0,0.11789079519003642,0.0,0.0,-0.2020032928586728,-0.4082246141611326,-0.41828908554941857,1.0412343452368291,0.3220987609611727,-0.10149556025683192
11626,3.0,300.34652,3521.7782,0.0,0.0,0.0,0.1179009363337087,0.0,0.0,-0.2356776264170708,-0.37266723635189264,-0.4621877610968806,1.062415325327229,0.2666537053566717,-0.09355170480408441
11627,3.0,300.37077999999997,3629.534,0.0,0.0,0.0,0.11791107747738094,0.0,0.0,-0.2412282509948748,-0.4041577119697606,-0.4579017537038846,1.028685040098309,0.26026933806658376,-0.09397907951076301
11628,3.0,300.19424,3485.3117,0.0,0.0,0.0,0.11792121862105322,0.0,0.0,-0.2213377158343318,-0.4092652524113356,-0.42884477045368363,1.074757218170279,0.2942938812570447,-0.08185366552507782
11629,3.0,300.3475,3496.1885,0.0,0.0,0.0,0.11793135976472546,0.0,0.0,-0.22115567532136576,-0.3768169514739376,-0.4647813875103516,1.058569433247669,0.3096131993864437,-0.07838871900611423
11630,3.0,299.80134,3536.4794,0.0,0.0,0.0,0.11794150090839774,0.0,0.0,-0.23332684565506676,-0.4092644722087586,-0.43241012397805656,1.031646364840569,0.25408599959633577,-0.11299409464414889
11631,3.0,299.54392,3214.4047,0.0,0.0,0.0,0.11795164205207,0.0,0.0,-0.18146915136711084,-0.36109452192475466,-0.43453507155777255,1.008023654659189,0.2599462632721988,-0.11394827226331888
11632,3.0,299.8618,3283.1834,0.0,0.0,0.0,0.11796178319574226,0.0,0.0,-0.2019429842127208,-0.37129927778938565,-0.4247635206408956,1.042268366963879,0.25315386016684077,-0.07325638534784233
11633,3.0,300.69829,3438.9525,0.0,0.0,0.0,0.11797192433941452,0.0,0.0,-0.2117560986486998,-0.3909920569279116,-0.44260754391196355,1.050203229821989,0.2806129378768407,-0.07470795021585062
11634,3.0,300.88876,3465.8071,0.0,0.0,0.0,0.11798206548308678,0.0,0.0,-0.2205266699242878,-0.3913517404484096,-0.44164040682401456,1.038050105472569,0.24012353480834778,-0.06094589819164184
11635,3.0,300.84264,3634.0988,0.0,0.0,0.0,0.11799220662675904,0.0,0.0,-0.2253627100015678,-0.43080699006733963,-0.4485056018165566,1.0425996997465792,0.25263787268591675,-0.1052396713638469
11636,3.0,300.4513,3894.8142,0.0,0.0,0.0,0.11800234777043131,0.0,0.0,-0.2863456333651137,-0.43330330394120664,-0.4642773158506036,1.0641796977263591,0.2790033394304857,-0.07230697811014314
11637,3.0,300.98165,3667.0290000000005,0.0,0.0,0.0,0.11801248891410356,0.0,0.0,-0.2123289193277328,-0.41904546661656755,-0.4833108542090675,1.0720212402502591,0.2920750965855677,-0.08667087333599922
11638,3.0,300.01189,3402.3565,0.0,0.0,0.0,0.11802263005777583,0.0,0.0,-0.22275556683176279,-0.39431282201064566,-0.4171630303157856,1.035624992683229,0.23640868636422074,-0.1010424104941095
11639,3.0,300.6341,3464.4877,0.0,0.0,0.0,0.11803277120144808,0.0,0.0,-0.22948991070639077,-0.36381183577793264,-0.4598160060578066,1.0042077953125932,0.2523862117585797,-0.07732113944900232
11640,3.0,300.21153,3248.0118,0.0,0.0,0.0,0.11804291234512035,0.0,0.0,-0.2328839236388538,-0.33985744830881864,-0.4145731225301816,1.036676239661979,0.2811612986984597,-0.07988552549108752
11641,3.0,300.27097000000003,3089.9342,0.0,0.0,0.0,0.11805305348879261,0.0,0.0,-0.17983864957119283,-0.36768866238304565,-0.3917355190562856,1.050308101207339,0.28590905429452673,-0.09423648860591731
11642,3.0,300.06015,3388.9345,0.0,0.0,0.0,0.11806319463246487,0.0,0.0,-0.21497322851120582,-0.38276481062094564,-0.4324134170408816,1.050448335021179,0.27276756526756274,-0.11895732479517389
11643,3.0,299.69367,3636.4422,0.0,0.0,0.0,0.11807333577613713,0.0,0.0,-0.20081686818408181,-0.4440429342686256,-0.46052782438555756,1.045707743103319,0.27009299030360273,-0.11507822850983689
11644,3.0,299.21043,3532.9865,0.0,0.0,0.0,0.11808347691980939,0.0,0.0,-0.22960795434304077,-0.3959089239656686,-0.4484227787533826,1.0771461579310488,0.28705161537228874,-0.09347250917626841
11645,3.0,300.48807,3593.9685,0.0,0.0,0.0,0.11809361806348165,0.0,0.0,-0.2245925183355558,-0.40647251222071357,-0.4614116520502846,1.067796595283319,0.28127322230450574,-0.06157223975420694
11646,3.0,300.57461,3467.2516,0.0,0.0,0.0,0.11810375920715392,0.0,0.0,-0.24756313115007877,-0.40006020962536865,-0.40633456835209963,1.041624953150379,0.2379158046954618,-0.08376648716985861
11647,3.0,301.53616,3147.3793,0.0,0.0,0.0,0.11811390035082617,0.0,0.0,-0.19189680198873982,-0.35867391809835963,-0.40615401731678064,1.034305031777959,0.24530290454951176,-0.09835172688005972
11648,3.0,301.14797999999996,3215.282,0.0,0.0,0.0,0.11812404149449844,0.0,0.0,-0.2100205228174118,-0.37855482738295265,-0.3887900820755936,1.053977991744529,0.2991976571035097,-0.13659839407121188
11649,3.0,300.47786,3514.4892,0.0,0.0,0.0,0.11813418263817069,0.0,0.0,-0.2119031921657168,-0.3986288114741006,-0.4577849462323566,1.060953306757939,0.29458824054359567,-0.11388032371161289
11650,3.0,298.31456000000003,3375.118,0.0,0.0,0.0,0.11814432378184296,0.0,0.0,-0.2274046926630958,-0.38378671387679963,-0.4147601887636436,1.0831180513704288,0.2796108740579447,-0.13337710988329587
11651,3.0,298.48765,3346.8102,0.0,0.0,0.0,0.11815446492551523,0.0,0.0,-0.18571511511615482,-0.40307911737081165,-0.4285524984623386,1.040545537818849,0.2976096408842847,-0.10066341138695521
11652,3.0,299.16652999999997,3497.5934,0.0,0.0,0.0,0.11816460606918748,0.0,0.0,-0.24098268983313975,-0.3755474402911467,-0.4466509184360135,1.064794841862069,0.32024433089315474,-0.09235174412140751
11653,3.0,299.39291000000003,3534.0788,0.0,0.0,0.0,0.11817474721285975,0.0,0.0,-0.2152270375287548,-0.40658420277923657,-0.45246047907687253,1.022988345386089,0.27599507081109276,-0.07015119226363364
11654,3.0,299.59362000000004,3464.1825,0.0,0.0,0.0,0.118184888356532,0.0,0.0,-0.2226886213976558,-0.3804888583788266,-0.44984748945399056,1.034562599953379,0.2369579287134268,-0.12200240479069988
11655,3.0,301.11881,3621.1859999999997,0.0,0.0,0.0,0.11819502950020427,0.0,0.0,-0.2020966334578848,-0.39632806500203466,-0.5023254245256595,1.031141664965759,0.2296422325939238,-0.08607741376567933
11656,3.0,299.4472,3565.4476,0.0,0.0,0.0,0.11820517064387653,0.0,0.0,-0.23150776788303778,-0.40454593874557565,-0.4477533142798116,1.069838902184879,0.26497515524101173,-0.08544590868060462
11657,3.0,299.87543999999997,3574.6044,0.0,0.0,0.0,0.1182153117875488,0.0,0.0,-0.23098640004408277,-0.3806697640516806,-0.4749343156323675,1.061551326966959,0.25643660810582275,-0.06082718682317594
11658,3.0,300.89061,3547.1062,0.0,0.0,0.0,0.11822545293122105,0.0,0.0,-0.24814500015250476,-0.4079888815253676,-0.4220978420128136,1.064448310327869,0.2540678826845478,-0.08498231433585142
11659,3.0,301.02052000000003,3356.485,0.0,0.0,0.0,0.1182355940748933,0.0,0.0,-0.2022572335987348,-0.3843813903604897,-0.4336490147428255,1.0778343573989688,0.2838098736648537,-0.1021184658883079
11660,3.0,299.64472,3244.5428,0.0,0.0,0.0,0.11824573521856557,0.0,0.0,-0.17137721076861384,-0.3894502753107496,-0.4254325088869196,1.0648522931427389,0.3166599789294067,-0.13454232723329387
11661,3.0,299.65029,3466.5026,0.0,0.0,0.0,0.11825587636223785,0.0,0.0,-0.20762819880130778,-0.3920127341511446,-0.45408928874512355,1.061739082210489,0.28322612001724173,-0.1292919590576229
11662,3.0,299.78362999999996,3484.0956,0.0,0.0,0.0,0.11826601750591009,0.0,0.0,-0.24581240722979578,-0.36460706485391564,-0.44865858231665456,1.0100943122985468,0.26143690615681375,-0.1099952391181849
11663,3.0,299.45385,3215.6859999999997,0.0,0.0,0.0,0.11827615864958237,0.0,0.0,-0.17801198255591483,-0.37239087238711766,-0.42708539337754664,1.0420575096180689,0.26899446507518676,-0.08253036156461252
11664,3.0,299.34477999999996,3311.6102,0.0,0.0,0.0,0.11828629979325461,0.0,0.0,-0.2279857409329408,-0.37408125726394564,-0.40457979143141665,1.034571516554259,0.30002612078277274,-0.07043040447443973
11665,3.0,299.41592,3742.1466,0.0,0.0,0.0,0.11829644093692689,0.0,0.0,-0.2381019590038338,-0.4035463269919216,-0.49587083900364154,1.060392675477609,0.27703264904599373,-0.05799364102452674
11666,3.0,299.40193999999997,3699.5153,0.0,0.0,0.0,0.11830658208059915,0.0,0.0,-0.2247886531574128,-0.40626826126555565,-0.4935033700124905,1.0418801908505688,0.24957574982370875,-0.1075079431702079
11667,3.0,299.68044,3555.7290000000003,0.0,0.0,0.0,0.1183167232242714,0.0,0.0,-0.20200304967864882,-0.4111858882408876,-0.46766389152733256,1.107790792630439,0.2476923002728268,-0.09138397679189632
11668,3.0,301.17753,3460.7267,0.0,0.0,0.0,0.11832686436794367,0.0,0.0,-0.2431585937603848,-0.3659203788385297,-0.44289552985538555,1.0886403657404389,0.25952690945331175,-0.08904570662887701
11669,3.0,300.4704,3268.7108,0.0,0.0,0.0,0.11833700551161593,0.0,0.0,-0.2018319725317648,-0.36583016918212663,-0.4259443116449306,1.084342158816239,0.2402232690156908,-0.094981427039687
11670,3.0,299.55967000000004,3381.0456,0.0,0.0,0.0,0.11834714665528819,0.0,0.0,-0.26162780247565376,-0.3503316273750397,-0.41579398757567165,1.013581432782699,0.22485002571596982,-0.1011913491395586
11671,3.0,300.25392999999997,3659.7684,0.0,0.0,0.0,0.11835728779896046,0.0,0.0,-0.22084952180365078,-0.4103530675861946,-0.48127561979320554,1.0333790225115689,0.27936440097111975,-0.11898114630502489
11672,3.0,300.92246,3483.6091,0.0,0.0,0.0,0.1183674289426327,0.0,0.0,-0.2030991532393258,-0.39206938496423566,-0.4637616424772105,1.039539684444579,0.30007877939046973,-0.0961623862432386
11673,3.0,300.19016,3259.5837,0.0,0.0,0.0,0.11837757008630498,0.0,0.0,-0.1903510079011818,-0.37120840952041767,-0.42927264570591156,1.074031021823609,0.26848387821729575,-0.1076721200839109
11674,3.0,299.42033,3535.8832,0.0,0.0,0.0,0.11838771122997722,0.0,0.0,-0.25426125133363175,-0.38307180513624367,-0.4374871351941186,1.047490556654269,0.26908629593174976,-0.05674545369009025
11675,3.0,299.60276,3627.1365,0.0,0.0,0.0,0.1183978523736495,0.0,0.0,-0.24921231727784074,-0.39075910059742064,-0.4625875186588335,1.067190773048529,0.27711176361380174,-0.07982560390667372
11676,3.0,299.25397000000004,3472.8735,0.0,0.0,0.0,0.11840799351732176,0.0,0.0,-0.21565909750389578,-0.4104368836344666,-0.42957082494533966,1.054279433649279,0.2735291949702297,-0.05770313006185554
11677,3.0,299.85478,3396.0341,0.0,0.0,0.0,0.11841813466099402,0.0,0.0,-0.17925232226832682,-0.4085070778915096,-0.4445501774011866,1.0449236901759391,0.2592361168071127,-0.1042208787857999
11678,3.0,299.34795,3537.2842,0.0,0.0,0.0,0.11842827580466628,0.0,0.0,-0.23277474594057876,-0.3944322841974356,-0.4480390609405126,1.035781337173659,0.25131790164814577,-0.09821389041595631
11679,3.0,299.72229,3521.4257,0.0,0.0,0.0,0.11843841694833854,0.0,0.0,-0.23492435602772876,-0.4145516010980576,-0.42094950540948156,1.053924796114279,0.23676337456172578,-0.12726341209242087
11680,3.0,299.67796,3461.2654,0.0,0.0,0.0,0.1184485580920108,0.0,0.0,-0.26668934136268874,-0.38019013198434465,-0.4052588007209296,1.0847374276802488,0.2835357895128037,-0.1012854729810979
11681,3.0,299.96936,3483.7815,0.0,0.0,0.0,0.11845869923568307,0.0,0.0,-0.25198081039356973,-0.37685630610782167,-0.43014547960705357,1.089183974419089,0.2309059175886398,-0.07673950552059952
11682,3.0,300.33299999999997,3301.2557,0.0,0.0,0.0,0.11846884037935532,0.0,0.0,-0.20343828804779582,-0.3768279553700236,-0.4232330468948496,1.064546696912579,0.25886590561807576,-0.10809243649039289
11683,3.0,299.99262000000004,3528.4928,0.0,0.0,0.0,0.11847898152302759,0.0,0.0,-0.18860837984919782,-0.40650165329358967,-0.47746367159199554,1.041757891563499,0.26554777327002477,-0.0965956945425028
11684,3.0,300.13289,3865.6469,0.0,0.0,0.0,0.11848912266669984,0.0,0.0,-0.2673032797307797,-0.4182660442421446,-0.4894908084239815,1.038266029068879,0.2937853816943597,-0.09882670407643632
11685,3.0,301.03095,3860.6493,0.0,0.0,0.0,0.11849926381037211,0.0,0.0,-0.2574894762847328,-0.43072033691878764,-0.48533117358345756,1.015564869853449,0.2832565884477487,-0.05652338473192374
11686,3.0,299.86105,3505.228,0.0,0.0,0.0,0.11850940495404436,0.0,0.0,-0.2437717620583998,-0.4109511384577196,-0.4107788758082186,1.033744907122679,0.2831669563439027,-0.06981265324622243
11687,3.0,299.80802,3565.6632,0.0,0.0,0.0,0.11851954609771663,0.0,0.0,-0.23828060512896476,-0.4265137885986336,-0.41907817432979555,1.050371530663599,0.25974555869239074,-0.049545238697734355
11688,3.0,299.61064,3645.4496,0.0,0.0,0.0,0.11852968724138888,0.0,0.0,-0.24521994976382477,-0.4099011276440916,-0.45300457411557055,1.079599337748159,0.29722968222928575,-0.09188002959035291
11689,3.0,299.17829,3494.8704,0.0,0.0,0.0,0.11853982838506115,0.0,0.0,-0.18364639278448783,-0.42253307346076757,-0.45617388870585757,1.083997755107249,0.2589499547138707,-0.11019876053327089
11690,3.0,299.35958,3295.4523,0.0,0.0,0.0,0.11854996952873341,0.0,0.0,-0.2068592027704138,-0.39698139853401365,-0.39789460031913965,1.096530240294109,0.25552864482371374,-0.1323843882303219
11691,3.0,300.24331,3156.0156,0.0,0.0,0.0,0.11856011067240567,0.0,0.0,-0.18787987329229983,-0.36410259802662864,-0.4073674552390376,1.0766321361553188,0.26532204141274673,-0.1167784216476329
11692,3.0,300.4032,3260.8797,0.0,0.0,0.0,0.11857025181607793,0.0,0.0,-0.20841859467431378,-0.3887954725661256,-0.39401194752595164,1.068326930385659,0.2862068586314177,-0.1196112054822069
11693,3.0,300.70902,3771.2188,0.0,0.0,0.0,0.11858039295975019,0.0,0.0,-0.25581829249729976,-0.4011989912802576,-0.48933904382400356,1.0389082269822592,0.25527259652344375,-0.08722703314363792
11694,3.0,300.68697000000003,3885.8398,0.0,0.0,0.0,0.11859053410342245,0.0,0.0,-0.23917553801478775,-0.43226002110824263,-0.5097627005246615,1.0141134904102092,0.26065718993986176,-0.09551162737976371
11695,3.0,301.68012999999996,3394.5024,0.0,0.0,0.0,0.11860067524709471,0.0,0.0,-0.15445378600840187,-0.4112281914325626,-0.4661619914341066,1.048378569041909,0.26485275462893176,-0.09347814284682442
11696,3.0,300.55958,3256.4287,0.0,0.0,0.0,0.11861081639076697,0.0,0.0,-0.1971652566786958,-0.37515506932242265,-0.41755269590674254,1.056872340655179,0.3169757887205747,-0.07994217833067872
11697,3.0,299.81702,3667.0736,0.0,0.0,0.0,0.11862095753443923,0.0,0.0,-0.24126469760097177,-0.42259480065685956,-0.4508392991818746,1.079180865456859,0.28783787718488674,-0.060773821980159244
11698,3.0,300.60558,3670.5901,0.0,0.0,0.0,0.11863109867811149,0.0,0.0,-0.2803799207513437,-0.4126438842072806,-0.4227439308065776,1.069695527295729,0.27181028710308675,-0.06366951142069154
11699,3.0,299.82579,3317.0007,0.0,0.0,0.0,0.11864123982178376,0.0,0.0,-0.1986551396257358,-0.38652727168727163,-0.4231029759795126,1.085487536729279,0.25778153549355676,-0.08592917020979882
11700,3.0,299.39432999999997,3336.3336,0.0,0.0,0.0,0.11865138096545602,0.0,0.0,-0.2045243502999818,-0.3706679925795826,-0.4389697632704425,1.048229418627189,0.26598172802285275,-0.09145747896740042
11701,3.0,299.58619,3529.9184,0.0,0.0,0.0,0.11866152210912828,0.0,0.0,-0.20896176765542082,-0.3917165408819126,-0.4723287328677166,1.053581912280439,0.2418562938043578,-0.1312398918448689
11702,3.0,299.70161,3702.4994,0.0,0.0,0.0,0.11867166325280053,0.0,0.0,-0.25914648470326673,-0.3957266301401776,-0.47059426147903755,1.025259545485239,0.24463849619393974,-0.1114531641570709
11703,3.0,300.17852,3910.6566,0.0,0.0,0.0,0.1186818043964728,0.0,0.0,-0.2685153700304037,-0.43404293598420257,-0.4861836310250885,1.069416478218189,0.27607975825445075,-0.1075175589136569
11704,3.0,299.94102999999996,3391.87,0.0,0.0,0.0,0.11869194554014505,0.0,0.0,-0.22642813234921677,-0.35572027379185767,-0.4488953687325236,1.063924054726129,0.2997221964152777,-0.06493270194935874
11705,3.0,300.12807999999995,3055.0325,0.0,0.0,0.0,0.11870208668381732,0.0,0.0,-0.17339692219294384,-0.36498701337641365,-0.39026965013661563,1.0714980992236292,0.28811591301232675,-0.07551231982098572
11706,3.0,301.00198,3532.5116,0.0,0.0,0.0,0.11871222782748958,0.0,0.0,-0.2015873739576248,-0.3999919267011296,-0.4722160290590935,1.047268046932309,0.27342797128523977,-0.06814595309048194
11707,3.0,300.65538,3665.9821,0.0,0.0,0.0,0.11872236897116184,0.0,0.0,-0.24652741729536176,-0.40963102556493464,-0.45820857596666553,1.079869875524859,0.2667119469724198,-0.1031454353946619
11708,3.0,300.65066,3483.8439,0.0,0.0,0.0,0.1187325101148341,0.0,0.0,-0.2234697865622508,-0.4145113852015886,-0.4210203923864776,1.0648736727198491,0.25645015525965975,-0.09911542462618081
11709,3.0,300.45724,3291.8762,0.0,0.0,0.0,0.11874265125850636,0.0,0.0,-0.22185960043083777,-0.37606700454492364,-0.4027215515430226,1.064765862909209,0.2596627660267198,-0.10851427277202491
11710,3.0,300.6498,3560.9714,0.0,0.0,0.0,0.11875279240217862,0.0,0.0,-0.24255062343538278,-0.4062533563565846,-0.43364241848467455,1.046872879393309,0.2528802623748388,-0.09746614831915991
11711,3.0,300.983,3476.5785,0.0,0.0,0.0,0.1187629335458509,0.0,0.0,-0.2221824725752028,-0.38476217988057065,-0.44984840137908055,1.0847672172331888,0.26388626602104676,-0.1030518820129289
11712,3.0,299.99074,3462.2177,0.0,0.0,0.0,0.11877307468952314,0.0,0.0,-0.19711936658166682,-0.37790734030405065,-0.47740102233831255,1.084894582770759,0.27373206790525173,-0.1088122898914369
11713,3.0,299.35707,3534.3669,0.0,0.0,0.0,0.11878321583319541,0.0,0.0,-0.24938253316213976,-0.38464474419398065,-0.44033200710238557,1.086988565427419,0.25572854893594277,-0.1064542542587169
11714,3.0,299.62547,3466.8924,0.0,0.0,0.0,0.11879335697686766,0.0,0.0,-0.23942393627680278,-0.37036091700427665,-0.4440638781481926,1.0495148277040491,0.26546241708160073,-0.12083261768275089
11715,3.0,299.64004,3522.6777,0.0,0.0,0.0,0.11880349812053993,0.0,0.0,-0.24641959735222077,-0.4045674601776996,-0.4198190121404106,1.031677775593669,0.26999823115425076,-0.1011190608376743
11716,3.0,299.94,3798.7544,0.0,0.0,0.0,0.1188136392642122,0.0,0.0,-0.2671848307940898,-0.41856023127617864,-0.46898143076486354,1.044043885114109,0.28063960661947274,-0.06181356451727385
11717,3.0,299.93294,3681.0748,0.0,0.0,0.0,0.11882378040788445,0.0,0.0,-0.2513685236231417,-0.40567069701908065,-0.4619155919875196,1.0114591804482491,0.27340042101502077,-0.05873761281770105
11718,3.0,300.98089,3350.8952,0.0,0.0,0.0,0.11883392155155673,0.0,0.0,-0.1953966691591498,-0.36956298255052666,-0.4536288172371785,1.076872377754029,0.25600825662604776,-0.07609797128603503
11719,3.0,301.305,3589.3275,0.0,0.0,0.0,0.11884406269522897,0.0,0.0,-0.23225167584145576,-0.42361774756031656,-0.43519650095805057,1.050744406700399,0.2566993843867567,-0.08995476726084431
11720,3.0,300.42003,3737.5761,0.0,0.0,0.0,0.11885420383890123,0.0,0.0,-0.23561807770869378,-0.4225326782932286,-0.47797905112285954,1.106469210525009,0.26281002216232974,-0.1032683122342889
11721,3.0,300.62158999999997,3644.9757,0.0,0.0,0.0,0.1188643449825735,0.0,0.0,-0.2327465775877988,-0.4134592161652476,-0.4617757938712226,1.054749176395639,0.25282446269183173,-0.1043187688779609
11722,3.0,300.26401,3480.2856,0.0,0.0,0.0,0.11887448612624575,0.0,0.0,-0.2120483909050468,-0.4123448133077646,-0.4335267053232546,1.0835593217889792,0.26257407674404376,-0.1017582048152529
11723,3.0,299.10212,3283.3291,0.0,0.0,0.0,0.11888462726991803,0.0,0.0,-0.1959280276440908,-0.3612041657180757,-0.44091785817770457,1.0424744620342188,0.2858112249973717,-0.0903624605975805
11724,3.0,298.9886,3331.9153,0.0,0.0,0.0,0.11889476841359027,0.0,0.0,-0.19114527438956982,-0.39375596002068763,-0.42791781886470054,1.054639137434779,0.3010351152323527,-0.10211800992576289
11725,3.0,299.6887,3590.5064,0.0,0.0,0.0,0.11890490955726254,0.0,0.0,-0.25383093414866276,-0.38520611514688363,-0.4523872210946425,1.025168555626259,0.2758725688740027,-0.09478271045657521
11726,3.0,300.54217,3709.4385,0.0,0.0,0.0,0.11891505070093482,0.0,0.0,-0.24578475563456678,-0.4258125486019266,-0.45597939534916254,1.034913893763049,0.27714106680669376,-0.11952851414154589
11727,3.0,300.97438,3342.8151,0.0,0.0,0.0,0.11892519184460706,0.0,0.0,-0.18708643766899383,-0.4064952090229536,-0.42255068374750565,1.048675552646219,0.2751136952116077,-0.08725093976649732
11728,3.0,300.89912999999996,3428.9104,0.0,0.0,0.0,0.11893533298827934,0.0,0.0,-0.18159800638232781,-0.4293550229390416,-0.43135012251844257,1.084817474438149,0.2825143118219917,-0.08582187006395911
11729,3.0,300.83276,3818.1953,0.0,0.0,0.0,0.11894547413195158,0.0,0.0,-0.24244565072502278,-0.4290085724648496,-0.48918179754098456,1.074706859640309,0.26284554671083576,-0.06234904389037153
11730,3.0,300.31061,3716.2652,0.0,0.0,0.0,0.11895561527562386,0.0,0.0,-0.24952844117653977,-0.4114149638234956,-0.4687084409229215,1.0917005836924591,0.23716263563112977,-0.08237848854687382
11731,3.0,300.64239,3399.962,0.0,0.0,0.0,0.11896575641929612,0.0,0.0,-0.24105992988826278,-0.3785997042298816,-0.41384392696321565,1.066984272678149,0.26385356844031976,-0.0934972882074639
11732,3.0,300.22222999999997,3402.0135,0.0,0.0,0.0,0.11897589756296838,0.0,0.0,-0.1969480969172638,-0.38176930253019664,-0.4554097461429425,1.051971452571499,0.26810394995979975,-0.10526003769085691
11733,3.0,299.90541,3617.423,0.0,0.0,0.0,0.11898603870664064,0.0,0.0,-0.25225430686056177,-0.39065970076261064,-0.4566922471920156,1.0226744405051091,0.27622056962084773,-0.09556493852052511
11734,3.0,299.86607000000004,3622.1834,0.0,0.0,0.0,0.1189961798503129,0.0,0.0,-0.23194116534831077,-0.37094914921733063,-0.4981629829823585,1.030623590189629,0.2740520725518337,-0.08571838987099642
11735,3.0,299.65725,3520.0581,0.0,0.0,0.0,0.11900632099398516,0.0,0.0,-0.25017575600292474,-0.39038020585502664,-0.42945379455878957,1.040533378817649,0.3210475038499217,-0.07343015773999233
11736,3.0,299.4879,3278.3256,0.0,0.0,0.0,0.11901646213765743,0.0,0.0,-0.2245770257415268,-0.3610978859150866,-0.4108542210856546,1.0622276714087089,0.3073402058346167,-0.07941820441246653
11737,3.0,300.29036,3459.1076,0.0,0.0,0.0,0.11902660328132968,0.0,0.0,-0.23404806694374578,-0.4030228110627546,-0.4144114483442256,1.0490845003865792,0.2883377134592167,-0.1136540345667799
11738,3.0,300.43183,3897.7443,0.0,0.0,0.0,0.11903674442500195,0.0,0.0,-0.23694755303240278,-0.4581927490001036,-0.4896766486248225,1.053472683919659,0.22800650242748977,-0.12066674864138087
11739,3.0,300.27898,3843.1746,0.0,0.0,0.0,0.1190468855686742,0.0,0.0,-0.26679242942786274,-0.42305124956190765,-0.4783854353404665,1.069127195314639,0.25196618919462677,-0.0998895740470834
11740,3.0,299.82124,3290.4495,0.0,0.0,0.0,0.11905702671234647,0.0,0.0,-0.15845776536856385,-0.3898120866564576,-0.4519446334509626,1.0481125908906588,0.24998419093901875,-0.10553786073577591
11741,3.0,300.40578,3011.4339,0.0,0.0,0.0,0.11906716785601873,0.0,0.0,-0.17221074069837683,-0.33908592928517567,-0.4041040198469616,1.059219939811869,0.25918087441166077,-0.09280724867736231
11742,3.0,300.34991,3433.8818,0.0,0.0,0.0,0.11907730899969099,0.0,0.0,-0.22500994697925278,-0.37029293805506763,-0.4485114482696335,1.052554679329059,0.2428633934762508,-0.09108568508170721
11743,3.0,299.8517,3650.09,0.0,0.0,0.0,0.11908745014336325,0.0,0.0,-0.25383208925377676,-0.39305601698410864,-0.4626481008823126,1.090653997664169,0.28647104332999074,-0.1112379397033299
11744,3.0,298.9485,3396.1292,0.0,0.0,0.0,0.11909759128703551,0.0,0.0,-0.18242956047439582,-0.39062276779646565,-0.45928615731551453,1.078332167173099,0.2797853354601627,-0.12651348542840887
11745,3.0,299.72235,3202.5375,0.0,0.0,0.0,0.11910773243070777,0.0,0.0,-0.1989727428695808,-0.3571916953220757,-0.4173270045794686,1.065110469268219,0.3040569918005887,-0.10585605166467892
11746,3.0,299.42506000000003,3526.1841,0.0,0.0,0.0,0.11911787357438004,0.0,0.0,-0.19460869495388283,-0.39909301174241363,-0.4781702007542245,1.0398584529260388,0.26213297857801077,-0.11480953484831888
11747,3.0,300.08475,3968.6243,0.0,0.0,0.0,0.11912801471805229,0.0,0.0,-0.3351480746265397,-0.39840122536913963,-0.47281338052304756,1.045349356542949,0.29530232855157074,-0.07717175598675932
11748,3.0,300.88142999999997,4052.528,0.0,0.0,0.0,0.11913815586172456,0.0,0.0,-0.3291065506402877,-0.42658117986278465,-0.4761795898727666,1.058896510379949,0.2885414983193287,-0.06821379119792703
11749,3.0,300.75244,3700.7224,0.0,0.0,0.0,0.11914829700539681,0.0,0.0,-0.2730276361707297,-0.3975552729931506,-0.45434430353029154,1.0409837684870988,0.26752604276526476,-0.06554972363750403
11750,3.0,299.78995,3259.8583,0.0,0.0,0.0,0.11915843814906908,0.0,0.0,-0.1793202505550308,-0.3847208696739936,-0.42687438404422157,1.053180462590819,0.24146856352109175,-0.08774220799798173
11751,3.0,299.63937999999996,3588.6869,0.0,0.0,0.0,0.11916857929274134,0.0,0.0,-0.23729580709177275,-0.3807001818196826,-0.47287520904414954,1.032289474679039,0.2601204004343848,-0.08303028193870082
11752,3.0,299.37485,3616.5373,0.0,0.0,0.0,0.1191787204364136,0.0,0.0,-0.2166898160356198,-0.38391184013164864,-0.4987353983613515,1.068029034856259,0.27014342989358076,-0.0881666473191206
11753,3.0,298.99454,3122.4736,0.0,0.0,0.0,0.11918886158008586,0.0,0.0,-0.21827659608972277,-0.3391896658304137,-0.3916877544465716,1.0514428399943292,0.27219273835333174,-0.09523145764761311
11754,3.0,299.68781,2975.6638,0.0,0.0,0.0,0.11919900272375812,0.0,0.0,-0.18753110247537882,-0.33541719385309965,-0.3815791762814327,1.0840012001575887,0.2658092627233318,-0.11749780895363089
11755,3.0,299.16912,3472.7793,0.0,0.0,0.0,0.11920914386743038,0.0,0.0,-0.24278058054557777,-0.38024477656223765,-0.4326128246605616,1.0635254421367888,0.27526902645193774,-0.1194875788375059
11756,3.0,299.82569,3906.4335,0.0,0.0,0.0,0.11921928501110265,0.0,0.0,-0.26072000131356077,-0.4381288568799516,-0.4886093720294905,1.0682725188552888,0.27871413758694374,-0.14229526103594886
11757,3.0,300.10784,3683.1245,0.0,0.0,0.0,0.1192294261547749,0.0,0.0,-0.2199301290604138,-0.42306629632589254,-0.47658145499492754,1.044360120470319,0.27996240091513774,-0.1076245885217199
11758,3.0,300.13101,3387.3028,0.0,0.0,0.0,0.11923956729844717,0.0,0.0,-0.14726891060930986,-0.42271046315577465,-0.4596760863514976,1.044449691779159,0.26150787419381777,-0.1291010728712839
11759,3.0,300.16686,3346.809,0.0,0.0,0.0,0.11924970844211942,0.0,0.0,-0.24221192432445576,-0.36762548623931063,-0.4075089556155026,1.0659965564806688,0.3013487870658097,-0.06466265762545743
11760,3.0,300.32852,3483.3785,0.0,0.0,0.0,0.1192598495857917,0.0,0.0,-0.21027980338550079,-0.3980673797261916,-0.45051291105966257,1.0633696042714091,0.3005553717075057,-0.0959864181381219
11761,3.0,300.03935,3612.0078,0.0,0.0,0.0,0.11926999072946397,0.0,0.0,-0.25132681824902575,-0.39385678853813866,-0.4527765725780685,1.047045131910309,0.27891212665648374,-0.05045299325032275
11762,3.0,300.7282,3539.159,0.0,0.0,0.0,0.11928013187313621,0.0,0.0,-0.2090750996791058,-0.3899166641992786,-0.4768242094538856,1.039690861359499,0.23239311542291477,-0.1047437766324059
11763,3.0,301.44491,3453.9663,0.0,0.0,0.0,0.11929027301680847,0.0,0.0,-0.19918322531285382,-0.3969886838022326,-0.45374761067890257,1.043737782258899,0.24848144984820975,-0.08663407209236722
11764,3.0,302.55447999999996,3727.1552,0.0,0.0,0.0,0.11930041416048073,0.0,0.0,-0.2152622277047278,-0.4105001205732076,-0.5071997755892205,1.068319331009909,0.2697546863602147,-0.09383214608726181
11765,3.0,301.88665,4139.3911,0.0,0.0,0.0,0.119310555304153,0.0,0.0,-0.3427510372818937,-0.4272974666234766,-0.4882230400313625,1.051770221101639,0.27337764315277274,-0.058299133903176543
11766,3.0,300.33882,3906.1408,0.0,0.0,0.0,0.11932069644782527,0.0,0.0,-0.28541531778579876,-0.40842706153111263,-0.49352687741481055,1.0858996255449491,0.28278789948149274,-0.09805358817063571
11767,3.0,300.86112,3584.0498,0.0,0.0,0.0,0.11933083759149751,0.0,0.0,-0.2672908775495557,-0.40213201223733963,-0.42003873542459563,1.098276576841459,0.3119748523220207,-0.08518254167486232
11768,3.0,300.1436,3255.4643,0.0,0.0,0.0,0.11934097873516979,0.0,0.0,-0.19565848285248882,-0.38193851529689665,-0.4119828601070426,1.0921046678323387,0.3022184292291367,-0.10724905776965789
11769,3.0,299.51081,3276.9793,0.0,0.0,0.0,0.11935111987884203,0.0,0.0,-0.17845220932686184,-0.37334243582102966,-0.4443252561439886,1.034489949921209,0.27305015058795173,-0.09228025223410181
11770,3.0,299.02407999999997,3445.2416,0.0,0.0,0.0,0.1193612610225143,0.0,0.0,-0.17225487787273283,-0.3998553608526516,-0.4751571799918626,1.015630021834879,0.23720428021023976,-0.1037904096133159
11771,3.0,299.4728,3461.9908,0.0,0.0,0.0,0.11937140216618658,0.0,0.0,-0.2306702660128828,-0.3933840972339876,-0.42830439404285253,1.054810680676709,0.24321824379377177,-0.08158548152836012
11772,3.0,299.14865,3255.0989,0.0,0.0,0.0,0.11938154330985883,0.0,0.0,-0.16506077176522985,-0.4036286029000416,-0.4207794212476956,1.041827299195349,0.2592633124397967,-0.12840402772999088
11773,3.0,300.77527000000003,3446.8977,0.0,0.0,0.0,0.1193916844535311,0.0,0.0,-0.23719042908137275,-0.40221167396020163,-0.4083687185903546,1.0523077502796891,0.25270078538462576,-0.1097429905057899
11774,3.0,300.0962,3911.0787,0.0,0.0,0.0,0.11940182559720335,0.0,0.0,-0.23134866735233578,-0.4602737519229826,-0.4972478560220426,1.047046449135439,0.27023726698534173,-0.12904226383547987
11775,3.0,300.94362,3938.3791,0.0,0.0,0.0,0.11941196674087562,0.0,0.0,-0.23588036762957978,-0.46631256039896657,-0.4949759669128245,1.096092718900929,0.3142392433804987,-0.09810165979513
11776,3.0,301.37228999999996,3370.1248,0.0,0.0,0.0,0.11942210788454788,0.0,0.0,-0.18992723631185882,-0.3979033953300076,-0.4366031555418766,1.096041043145829,0.30653260497491275,-0.1039357400751589
11777,3.0,300.06494,3131.5255,0.0,0.0,0.0,0.11943224902822014,0.0,0.0,-0.21509364315308976,-0.3458919504718777,-0.3909199540507956,1.0792813798667789,0.25962490087048273,-0.07634672823858543
11778,3.0,298.95727999999997,3361.4058,0.0,0.0,0.0,0.1194423901718924,0.0,0.0,-0.22212043127157977,-0.37053346336380566,-0.4291295241292866,1.031977900273289,0.25151022664962674,-0.09868816137701321
11779,3.0,299.95696,3635.1923,0.0,0.0,0.0,0.11945253131556466,0.0,0.0,-0.2642264140796167,-0.3952023137434316,-0.44557897075772057,1.061781638714689,0.2752526624628227,-0.07808161404655532
11780,3.0,299.69624,3654.6420000000003,0.0,0.0,0.0,0.11946267245923692,0.0,0.0,-0.2192442702002248,-0.4081420950729886,-0.4835335564485465,1.026493481457019,0.28682331999225774,-0.097640843782151
11781,3.0,299.36335,3553.3804,0.0,0.0,0.0,0.11947281360290919,0.0,0.0,-0.22293135559161179,-0.3970312301739316,-0.46017631779336654,1.027406521122129,0.2577643507718607,-0.08057481622936521
11782,3.0,299.82202,3556.6863,0.0,0.0,0.0,0.11948295474658144,0.0,0.0,-0.2217598560909938,-0.40258085163413665,-0.45680311701795756,1.017661284310349,0.26743403965618473,-0.06655508659872564
11783,3.0,300.33688,3842.7,0.0,0.0,0.0,0.11949309589025371,0.0,0.0,-0.2664043039770578,-0.43675124204399157,-0.46492930175994956,1.080579454569889,0.2831372579834717,-0.08350892507393921
11784,3.0,301.01706,3876.5699,0.0,0.0,0.0,0.11950323703392596,0.0,0.0,-0.2607066973397478,-0.4215777913989886,-0.49609597304336056,1.0865965389637289,0.2918209835929887,-0.07130091600635254
11785,3.0,300.91724,3260.1196,0.0,0.0,0.0,0.11951337817759823,0.0,0.0,-0.21490058861153677,-0.36716701083406267,-0.4089273335029856,1.084180748075309,0.26150129820066875,-0.1057135279056129
11786,3.0,300.06446,3119.7393,0.0,0.0,0.0,0.11952351932127049,0.0,0.0,-0.15823334060391483,-0.37303342493803265,-0.4170560716352296,1.048191016448399,0.27770898335524274,-0.11894553056400989
11787,3.0,299.05647,3518.58,0.0,0.0,0.0,0.11953366046494275,0.0,0.0,-0.2304628537174128,-0.4105463349102686,-0.42855127242971763,1.062894997924569,0.3084036219470677,-0.1322212144342179
11788,3.0,298.45102,3515.1216,0.0,0.0,0.0,0.11954380160861501,0.0,0.0,-0.2168760716690018,-0.4054684826966236,-0.4461646293155206,1.0517162148713088,0.2954758577636967,-0.09108544899443391
11789,3.0,298.17536,3310.4021,0.0,0.0,0.0,0.11955394275228727,0.0,0.0,-0.2231130718645458,-0.37989377659509665,-0.40327272919991963,1.056024858271539,0.24047158621769776,-0.1228972971465189
11790,3.0,299.11692,3455.3379999999997,0.0,0.0,0.0,0.11956408389595953,0.0,0.0,-0.21502086139840682,-0.40702088317483365,-0.42829472763689863,1.065071053839329,0.24540315551440575,-0.0947800486485625
11791,3.0,298.6518,3659.6316,0.0,0.0,0.0,0.1195742250396318,0.0,0.0,-0.23331631798652777,-0.42746697323270555,-0.45165334431221454,1.0861733043969592,0.26395790280311676,-0.11694618546668988
11792,3.0,300.12321000000003,3907.7740000000003,0.0,0.0,0.0,0.11958436618330405,0.0,0.0,-0.2289868016342378,-0.4477454818565386,-0.5111334151274405,1.069413134492859,0.2850088423756827,-0.0978416790712219
11793,3.0,299.95354,3859.6148,0.0,0.0,0.0,0.11959450732697632,0.0,0.0,-0.25835875367802374,-0.4251649703305156,-0.4897028006099035,1.031609887836969,0.25447385146961377,-0.08087727341071542
11794,3.0,300.55413,3512.2361,0.0,0.0,0.0,0.11960464847064857,0.0,0.0,-0.2347972336701828,-0.38099761125403664,-0.45183721880786154,1.0520026606745791,0.2805647274370827,-0.06827269953224084
11795,3.0,300.30962999999997,3283.4759,0.0,0.0,0.0,0.11961478961432084,0.0,0.0,-0.22362826901039182,-0.37403789015966565,-0.4004285057717166,1.071770156875479,0.29054425806948575,-0.05899314841342044
11796,3.0,300.44725,3420.7342,0.0,0.0,0.0,0.11962493075799309,0.0,0.0,-0.2213799784960028,-0.38097246238655463,-0.43746533005196664,1.1060427335579188,0.3031703067705797,-0.08529556567051692
11797,3.0,299.46486,3655.5976,0.0,0.0,0.0,0.11963507190166536,0.0,0.0,-0.2456821539294408,-0.3911923460751786,-0.4743358799908066,1.080379742975179,0.24296560001383777,-0.08662803413502132
11798,3.0,300.1861,3634.7243,0.0,0.0,0.0,0.11964521304533761,0.0,0.0,-0.2099023170607458,-0.4053230711747726,-0.4896400500312106,1.058570142522739,0.25151390474748975,-0.10939644883908889
11799,3.0,299.11275,3500.8898,0.0,0.0,0.0,0.11965535418900988,0.0,0.0,-0.23103334392121577,-0.37974214371763165,-0.45340758421034455,1.0716747087160592,0.2778059311248107,-0.11459596199224088
11800,3.0,298.82453,3773.2504,0.0,0.0,0.0,0.11966549533268213,0.0,0.0,-0.25811762041922576,-0.3940159194663436,-0.49484037378444257,1.0521810940171892,0.2880894570522157,-0.08239274497578082
11801,3.0,300.20378999999997,3752.7865,0.0,0.0,0.0,0.1196756364763544,0.0,0.0,-0.26775192661005776,-0.4083467310631846,-0.46465473124785156,1.053881631660019,0.26855394446171077,-0.09388526977675472
11802,3.0,300.89603,3594.7575,0.0,0.0,0.0,0.11968577762002666,0.0,0.0,-0.22404207021873077,-0.4163091644565156,-0.4523653044949795,1.042696566456139,0.28350033589180473,-0.06394970749734473
11803,3.0,301.65668,3473.8957,0.0,0.0,0.0,0.11969591876369892,0.0,0.0,-0.19409376125306282,-0.4299126347340736,-0.4319711739022356,1.074308044400949,0.2836989734414087,-0.1103257309033019
11804,3.0,300.74993,3329.3381,0.0,0.0,0.0,0.11970605990737118,0.0,0.0,-0.17508105531665483,-0.39460640109461964,-0.4423481822838666,1.054547742275759,0.26905665836632475,-0.09145339354299721
11805,3.0,300.40157999999997,3318.2792,0.0,0.0,0.0,0.11971620105104344,0.0,0.0,-0.1918998316065388,-0.3883097812631916,-0.42846439636614364,1.053624266134619,0.21919903871576082,-0.14940303823493184
11806,3.0,300.63833999999997,3475.4595,0.0,0.0,0.0,0.1197263421947157,0.0,0.0,-0.21945055778808378,-0.3921791402150676,-0.44482321790563356,1.0686690036194189,0.23710116174756277,-0.08351271665581342
11807,3.0,299.34202999999997,3371.0872,0.0,0.0,0.0,0.11973648333838796,0.0,0.0,-0.2035840339421798,-0.4083998253684246,-0.41274247344201065,1.099689756755929,0.28134568995165776,-0.12327839064162989
11808,3.0,299.10422,3293.752,0.0,0.0,0.0,0.11974662448206022,0.0,0.0,-0.21035567555298879,-0.3497574388083717,-0.44110525878369955,1.1036887509255988,0.27785536759718976,-0.07304582893731203
11809,3.0,298.98555,3585.8186,0.0,0.0,0.0,0.11975676562573248,0.0,0.0,-0.2160808831230228,-0.39851841787570563,-0.47540001551082856,1.0672113420255591,0.23540946977810576,-0.11358807198526989
11810,3.0,299.54412,3800.8623,0.0,0.0,0.0,0.11976690676940474,0.0,0.0,-0.24263783387148977,-0.3916077786161786,-0.5211216293132005,1.054558077426779,0.24903391433273378,-0.08100045219887222
11811,3.0,300.21837,3845.8944,0.0,0.0,0.0,0.11977704791307701,0.0,0.0,-0.2668224722933278,-0.4003234520013486,-0.5019099311896535,1.064401802148279,0.28123556993078974,-0.08081719578578622
11812,3.0,300.70123,3653.0034,0.0,0.0,0.0,0.11978718905674926,0.0,0.0,-0.2608307799469938,-0.38524310890803465,-0.4643479393825736,1.052826939630929,0.2915601831497497,-0.06091974620656084
11813,3.0,299.51311,3461.1029,0.0,0.0,0.0,0.11979733020042153,0.0,0.0,-0.27659740746553874,-0.3533093667689197,-0.4221820734936266,1.056683774811569,0.2768827386936987,-0.05766909600424665
11814,3.0,301.28386,3714.8698,0.0,0.0,0.0,0.11980747134409378,0.0,0.0,-0.25689393853845777,-0.4336228424927426,-0.4387108880023936,1.056153034409189,0.26679968429857875,-0.08779197276339311
11815,3.0,300.69854,3759.2471,0.0,0.0,0.0,0.11981761248776605,0.0,0.0,-0.24324419312883278,-0.44095083946845953,-0.4585222072701186,1.0912656967495389,0.30019072326151774,-0.0964262233970273
11816,3.0,300.21821,3553.7882,0.0,0.0,0.0,0.11982775363143831,0.0,0.0,-0.2053000945765418,-0.4215073603845376,-0.45345542988006654,1.0504337442197391,0.27451729620274773,-0.1121881656471099
11817,3.0,299.95081,3232.5979,0.0,0.0,0.0,0.11983789477511057,0.0,0.0,-0.1941985313134028,-0.3767726015170606,-0.4116579209324736,1.069141178166019,0.24878938668610076,-0.11282768858022589
11818,3.0,300.30761,3354.9852,0.0,0.0,0.0,0.11984803591878283,0.0,0.0,-0.1876946207765168,-0.3919408541890506,-0.4401962518539876,1.0578625899779088,0.25890501707193575,-0.1153601349526589
11819,3.0,299.47764,3601.0711,0.0,0.0,0.0,0.11985817706245509,0.0,0.0,-0.2405654942369658,-0.40346729348412164,-0.45060289780104357,1.1030555709381091,0.28927300409652273,-0.11338498626772689
11820,3.0,299.71889,3742.4309999999996,0.0,0.0,0.0,0.11986831820612735,0.0,0.0,-0.24355126870413876,-0.4100630652750736,-0.48399125165121754,1.0853434525650592,0.27956743602615775,-0.1000841960865411
11821,3.0,300.0922,3490.1614,0.0,0.0,0.0,0.11987845934979963,0.0,0.0,-0.2048908428611518,-0.39788277569047265,-0.45814830785071753,1.0527246013708291,0.23765274470449976,-0.12230720055328088
11822,3.0,300.2801,3366.6496,0.0,0.0,0.0,0.11988860049347187,0.0,0.0,-0.18571483140612682,-0.39887157606555956,-0.43879099555529955,1.065536946235309,0.26877149939068173,-0.09407186991517072
11823,3.0,299.38112,3640.1959,0.0,0.0,0.0,0.11989874163714415,0.0,0.0,-0.2180681198816478,-0.4305954437114616,-0.4578651044477675,1.060942262331849,0.2713324890184317,-0.1043329341143589
11824,3.0,299.00673,3749.5801,0.0,0.0,0.0,0.11990888278081639,0.0,0.0,-0.25259921719460177,-0.4354545352285166,-0.45172496082928254,1.064136330622079,0.2793658093887587,-0.07901267031169343
11825,3.0,299.58814,3718.0277,0.0,0.0,0.0,0.11991902392448867,0.0,0.0,-0.2855561291521957,-0.41952556477894964,-0.4251058877171846,1.024163208877039,0.2549544765220478,-0.0928240463375201
11826,3.0,300.39957000000004,3495.1778,0.0,0.0,0.0,0.11992916506816093,0.0,0.0,-0.21866171218773078,-0.4065227795581746,-0.4372622949969286,1.0693533527369592,0.3018168984795087,-0.0873078570643646
11827,3.0,300.93278,3500.8468,0.0,0.0,0.0,0.11993930621183319,0.0,0.0,-0.2110703715110238,-0.4329522735765626,-0.42014735583531565,1.0567074848639089,0.30643982166325573,-0.09176140738789582
11828,3.0,301.11014,3771.4757,0.0,0.0,0.0,0.11994944735550545,0.0,0.0,-0.26140832237149275,-0.39672498546370766,-0.48830113121656954,1.0783001484699388,0.2955300565115457,-0.0929764492850611
11829,3.0,301.16822,3797.2696,0.0,0.0,0.0,0.1199595884991777,0.0,0.0,-0.26665753544204973,-0.38318251284216964,-0.5044350922938675,1.0574933616414688,0.22925316482052577,-0.08298994749197011
11830,3.0,299.9814,3248.2128,0.0,0.0,0.0,0.11996972964284996,0.0,0.0,-0.19013995803785283,-0.36074236685249966,-0.4364932483035296,1.106388251842019,0.2503012368953088,-0.1092462243792629
11831,3.0,301.22201,3124.488,0.0,0.0,0.0,0.11997987078652224,0.0,0.0,-0.17239894177195084,-0.3619059427373357,-0.4154614692903546,1.109484845472629,0.2787468250351698,-0.08900515433337482
11832,3.0,300.2876,3422.6431,0.0,0.0,0.0,0.11999001193019448,0.0,0.0,-0.2046640673562708,-0.40955022900196064,-0.42618375277606163,1.0798693688998091,0.2536386294121838,-0.13769719287715487
11833,3.0,299.80298999999997,3648.0619,0.0,0.0,0.0,0.12000015307386676,0.0,0.0,-0.22714381115984877,-0.4058796393222016,-0.4758962952773076,1.034417502539059,0.26194208225917076,-0.0975488700573239
11834,3.0,299.91272999999995,3605.7864,0.0,0.0,0.0,0.120010294217539,0.0,0.0,-0.22834786638617977,-0.4331227022433826,-0.4345984706165296,1.0507057005465792,0.3026687378385787,-0.12172582804340389
11835,3.0,299.26878,3413.6192,0.0,0.0,0.0,0.12002043536121128,0.0,0.0,-0.1961103417345838,-0.4254474543258946,-0.4160972128005976,1.046612778092639,0.3182659398079027,-0.08422413171002463
11836,3.0,298.35299,3542.9440000000004,0.0,0.0,0.0,0.12003057650488355,0.0,0.0,-0.2059957414326968,-0.42893958026554063,-0.4420311768575806,1.041592934447219,0.28868549129103976,-0.1122506527807769
11837,3.0,300.35025,3911.0481,0.0,0.0,0.0,0.1200407176485558,0.0,0.0,-0.28121215372097874,-0.4258846210815396,-0.48176417859392257,1.045854968342849,0.2381356900996628,-0.08229184046457232
11838,3.0,300.54776,3871.4148,0.0,0.0,0.0,0.12005085879222807,0.0,0.0,-0.24817558004052276,-0.4352443162302696,-0.49339353370165057,1.0782692443418889,0.27494184799464777,-0.1036537424398279
11839,3.0,299.39551,3473.4993,0.0,0.0,0.0,0.12006099993590032,0.0,0.0,-0.2145187554438528,-0.3834659898226467,-0.45787230865597855,1.0789853081875591,0.2765898891497967,-0.08530447112564582
11840,3.0,300.11631,3291.5152,0.0,0.0,0.0,0.12007114107957259,0.0,0.0,-0.18155203522529081,-0.3677231230189466,-0.4512632632887165,1.078553359669929,0.2573759416110278,-0.09417138222074183
11841,3.0,300.33741000000003,3649.5091,0.0,0.0,0.0,0.12008128222324485,0.0,0.0,-0.24440815404870675,-0.3889826502570986,-0.4759688338519666,1.043346465070279,0.25047344888230477,-0.0914399315021686
11842,3.0,301.00755,3845.2503,0.0,0.0,0.0,0.1200914233669171,0.0,0.0,-0.25113614484520774,-0.4262256608001976,-0.49149827978710353,1.069558231907179,0.27447599612867174,-0.10915084714734989
11843,3.0,300.00548,3512.2642,0.0,0.0,0.0,0.12010156451058937,0.0,0.0,-0.23008847807046479,-0.4265797511801436,-0.4109723863123166,1.0722218637700591,0.2782101571197047,-0.10737792291737588
11844,3.0,299.46532,3302.3552,0.0,0.0,0.0,0.12011170565426162,0.0,0.0,-0.17364418561484682,-0.3874526020760946,-0.4427367231672126,1.085476897603229,0.2542117135362428,-0.11589822141826388
11845,3.0,299.25344,3613.8112,0.0,0.0,0.0,0.12012184679793389,0.0,0.0,-0.23549341754889075,-0.4136751397615576,-0.4493398106238866,1.063259261335519,0.25131419315277975,-0.07951686660120372
11846,3.0,299.24527,3789.1444,0.0,0.0,0.0,0.12013198794160616,0.0,0.0,-0.24338857113558177,-0.4145991022627456,-0.49381758900100153,1.072753617422539,0.2902718153825977,-0.07192347611954443
11847,3.0,299.97771,3725.9256,0.0,0.0,0.0,0.12014212908527841,0.0,0.0,-0.24276825942436178,-0.41103541046853664,-0.47878468627736953,1.073365721807949,0.3227565831910947,-0.053682895130339255
11848,3.0,300.78646000000003,3581.8105,0.0,0.0,0.0,0.12015227022895068,0.0,0.0,-0.23296430476928678,-0.3961834438152616,-0.45963320560726556,1.054173447688819,0.27270468296635675,-0.07383298544974833
11849,3.0,299.70052000000004,3523.2003,0.0,0.0,0.0,0.12016241137262293,0.0,0.0,-0.2502230545175928,-0.36769592738626267,-0.4530459248521515,1.047044726610269,0.25872091966126676,-0.09363530401683501
11850,3.0,299.82138,3758.2004,0.0,0.0,0.0,0.1201725525162952,0.0,0.0,-0.2305072746017968,-0.4214599301473566,-0.49043186445435655,1.0489577427990688,0.2755034925250777,-0.12134384288820489
11851,3.0,301.80851,3811.7906,0.0,0.0,0.0,0.12018269365996746,0.0,0.0,-0.27094159739485374,-0.4163376469168266,-0.47140990754453554,1.060241397237679,0.2942808305957567,-0.1209400728558559
11852,3.0,299.20981,3431.1046,0.0,0.0,0.0,0.12019283480363972,0.0,0.0,-0.19885105153257082,-0.3970435918251516,-0.4470754803604146,1.047603230065389,0.25722736874886476,-0.12277785522473088
11853,3.0,299.48802,3277.407,0.0,0.0,0.0,0.12020297594731198,0.0,0.0,-0.20171441525516282,-0.37588313004927665,-0.4186523357102686,1.060373018425669,0.25937600611591877,-0.11493678892837789
11854,3.0,300.31791,3520.2369,0.0,0.0,0.0,0.12021311709098424,0.0,0.0,-0.20629787234751482,-0.42323635009017563,-0.44052988471441457,1.107094081861679,0.2673343662438477,-0.09861020495406951
11855,3.0,299.3693,3602.8436,0.0,0.0,0.0,0.1202232582346565,0.0,0.0,-0.2257451511193118,-0.40560644683023966,-0.46382288331325455,1.1232948363855688,0.27878740570167476,-0.08636826822013442
11856,3.0,298.94504,3610.6962,0.0,0.0,0.0,0.12023339937832878,0.0,0.0,-0.2058168622600428,-0.42065086007500757,-0.4710937532483336,1.0947645506698491,0.23217394942628475,-0.08145259985724572
11857,3.0,299.05562000000003,3494.8201,0.0,0.0,0.0,0.12024354052200102,0.0,0.0,-0.23341958843671978,-0.3564479292186717,-0.4724705372192115,1.067498497103899,0.22188286465313378,-0.06531081648917574
11858,3.0,298.22155,3562.2485,0.0,0.0,0.0,0.1202536816656733,0.0,0.0,-0.2034075460397618,-0.3982973773663906,-0.48112966111630057,1.051306051230829,0.26934195919698173,-0.08643591684981082
11859,3.0,299.16332,3809.1536,0.0,0.0,0.0,0.12026382280934554,0.0,0.0,-0.22858509863209278,-0.4343381869308416,-0.49496430440417355,1.022514043014279,0.33060905868357365,-0.08962353985615472
11860,3.0,300.36839,3833.6376,0.0,0.0,0.0,0.12027396395301782,0.0,0.0,-0.28533832091069977,-0.4033015156352606,-0.4766902780556675,1.0351204954584392,0.3194103956633517,-0.0998318258841341
11861,3.0,300.02644,3692.5159999999996,0.0,0.0,0.0,0.12028410509669007,0.0,0.0,-0.2521204869198547,-0.4203566527759716,-0.44995553231215357,1.023736123959889,0.29053734770380374,-0.11613914189454089
11862,3.0,299.15029,3269.2402,0.0,0.0,0.0,0.12029424624036233,0.0,0.0,-0.2059928739349138,-0.38205188785058564,-0.4057226159542046,1.079955495158309,0.27553788223347175,-0.12954531211262688
11863,3.0,299.48607999999996,3271.1689,0.0,0.0,0.0,0.1203043873840346,0.0,0.0,-0.19324102010140382,-0.3880304484756236,-0.4130821959355386,1.085344668465179,0.28766483433280876,-0.1018931291985689
11864,3.0,299.87448,3570.3815,0.0,0.0,0.0,0.12031452852770685,0.0,0.0,-0.21094608625375777,-0.4108009646603986,-0.4635597929247896,1.107400083391879,0.24939799535866575,-0.11760129218634388
11865,3.0,299.74256,3663.2364,0.0,0.0,0.0,0.12032466967137911,0.0,0.0,-0.2224649869680848,-0.4048822465862666,-0.48618516103273957,1.086888861617579,0.23967933609700875,-0.07244298971081643
11866,3.0,299.81028,3476.5476,0.0,0.0,0.0,0.12033481081505139,0.0,0.0,-0.2173965073178648,-0.4034511017475236,-0.43593605194103857,1.110722226494749,0.25964433500740075,-0.1014494472447809
11867,3.0,300.39914,3421.2221,0.0,0.0,0.0,0.12034495195872363,0.0,0.0,-0.19369883689408682,-0.3944293761696486,-0.4518378875529276,1.077452362111269,0.3145052924592557,-0.07550837219859613
11868,3.0,301.0972,3630.9038,0.0,0.0,0.0,0.12035509310239591,0.0,0.0,-0.23422913473661577,-0.4028651189496916,-0.46660982771330456,1.0527670565500191,0.2919351870117597,-0.08318943414515792
11869,3.0,300.9483,3817.7168,0.0,0.0,0.0,0.12036523424606815,0.0,0.0,-0.26268042747453973,-0.4069214833400236,-0.4908886578644385,1.024984549408099,0.27800156945411875,-0.08983888691315782
11870,3.0,299.82934,3667.3864,0.0,0.0,0.0,0.12037537538974043,0.0,0.0,-0.2297092489555378,-0.40753174361025163,-0.47755288826330056,1.043880650522999,0.2895181599582177,-0.0978920902901971
11871,3.0,299.3302,3224.5604,0.0,0.0,0.0,0.12038551653341269,0.0,0.0,-0.18387537717458682,-0.3947464018609366,-0.4015640551587866,1.055126814707909,0.3068420718204547,-0.11633084881346088
11872,3.0,298.87737000000004,3179.6682,0.0,0.0,0.0,0.12039565767708495,0.0,0.0,-0.18463900297995084,-0.38413702483387263,-0.39776371880372263,1.068230874276179,0.25940071928585773,-0.12863990222076988
11873,3.0,299.50617,3665.317,0.0,0.0,0.0,0.1204057988207572,0.0,0.0,-0.25240357886529374,-0.40169619310432764,-0.4600650629323865,1.062389892749719,0.2537887728120018,-0.1036901485159209
11874,3.0,299.8553,3592.6493,0.0,0.0,0.0,0.12041593996442947,0.0,0.0,-0.23671162787911879,-0.3910955908231296,-0.46426847017723055,1.085698191425069,0.26412703450980873,-0.0923767420146246
11875,3.0,299.06296000000003,3258.5158,0.0,0.0,0.0,0.12042608110810173,0.0,0.0,-0.18475824225171883,-0.37751406754273764,-0.4282351383985176,1.107537581430449,0.28789043446757373,-0.07638583361294483
11876,3.0,300.08811000000003,3522.258,0.0,0.0,0.0,0.120436222251774,0.0,0.0,-0.1994155838257858,-0.38312085657358463,-0.48814204081836854,1.094546296598309,0.26945446035558474,-0.06912975307632543
11877,3.0,301.12915,3995.8204,0.0,0.0,0.0,0.12044636339544625,0.0,0.0,-0.2676483015223307,-0.43726527395222264,-0.5097160403575565,1.062300828065929,0.24787935637378775,-0.06962357064506144
11878,3.0,300.75792,3928.2212,0.0,0.0,0.0,0.12045650453911852,0.0,0.0,-0.26272087641853176,-0.41964393265563155,-0.5117163480424715,1.0605260191907688,0.26321979063527073,-0.09715116635332359
11879,3.0,299.36133,3689.0308,0.0,0.0,0.0,0.12046664568279077,0.0,0.0,-0.24607107984782475,-0.42189225356752363,-0.45340990455307356,1.059154787830439,0.3068263259139007,-0.1149027234600159
11880,3.0,299.47283,3521.5732,0.0,0.0,0.0,0.12047678682646304,0.0,0.0,-0.2152369167172298,-0.39501747666018966,-0.46021594600477755,1.048602699964029,0.2893107172652447,-0.11144805737656689
11881,3.0,299.84753,3282.0724,0.0,0.0,0.0,0.12048692797013531,0.0,0.0,-0.20172532795873982,-0.36444813657573066,-0.43149459171770055,1.022667753054449,0.2757483038817387,-0.11584426585043887
11882,3.0,300.53097,3405.4188,0.0,0.0,0.0,0.12049706911380756,0.0,0.0,-0.20857704672495178,-0.37345616301225365,-0.45312906202285663,1.037029762621869,0.27439220034540174,-0.09493363608547041
11883,3.0,300.32434,3560.5511,0.0,0.0,0.0,0.12050721025747983,0.0,0.0,-0.22493201791406178,-0.4040539956895246,-0.4533326138354456,1.0583156140976189,0.2958716129877547,-0.10044317438496951
11884,3.0,299.18001,3448.7171,0.0,0.0,0.0,0.12051735140115208,0.0,0.0,-0.22068524356493782,-0.38968123553854367,-0.4379573946980296,1.0688547323627489,0.26936556792431177,-0.09002728962350172
11885,3.0,298.98846000000003,3458.1635,0.0,0.0,0.0,0.12052749254482434,0.0,0.0,-0.21726983079036283,-0.3815105285871576,-0.4524149942798836,1.057105590828199,0.25697872730682575,-0.1137995170161379
11886,3.0,300.00946,3894.3898,0.0,0.0,0.0,0.12053763368849661,0.0,0.0,-0.27527327196985674,-0.4241488628652336,-0.4843751214516025,1.069210079172819,0.25849509661147974,-0.07956731429718251
11887,3.0,300.20155,3912.0697,0.0,0.0,0.0,0.12054777483216886,0.0,0.0,-0.24657303381486373,-0.4225000921700126,-0.5200983885672145,1.0978333812477188,0.28681876036680776,-0.08873590541080201
11888,3.0,299.50822,3579.6822,0.0,0.0,0.0,0.12055791597584113,0.0,0.0,-0.2270809491236448,-0.40872311294533065,-0.45232993193398857,1.089488658724159,0.26393047412290976,-0.07464411545955063
11889,3.0,300.12241,3499.4144,0.0,0.0,0.0,0.12056805711951338,0.0,0.0,-0.22235697450742478,-0.3913728768454956,-0.45000473573700955,1.0744368284886592,0.2527949365839178,-0.0985006533665076
11890,3.0,300.17177000000004,3419.555,0.0,0.0,0.0,0.12057819826318565,0.0,0.0,-0.2117877019193188,-0.38952495184311964,-0.4381466799492105,1.058243065390459,0.25920711758925075,-0.11034057501726689
11891,3.0,299.98789,3281.1061,0.0,0.0,0.0,0.12058833940685793,0.0,0.0,-0.1971716401543258,-0.37703221645768265,-0.42317045843617257,1.061401771252199,0.2853343185728047,-0.12474598208646988
11892,3.0,301.17477,3296.7146,0.0,0.0,0.0,0.12059848055053017,0.0,0.0,-0.2060688980899168,-0.38676028881276864,-0.4092897224012506,1.055437173213539,0.2952879302676497,-0.12388588473908488
11893,3.0,300.39286,3241.0537,0.0,0.0,0.0,0.12060862169420244,0.0,0.0,-0.1927888572442788,-0.3538523269675056,-0.43855823174232755,1.042976527458769,0.2971840454447817,-0.0934887323236195
11894,3.0,298.80532999999997,3279.2679,0.0,0.0,0.0,0.12061876283787469,0.0,0.0,-0.20231038869898083,-0.37880340802998563,-0.41570177168407063,1.0561056143045089,0.2911580343175607,-0.09422907262843541
11895,3.0,299.0186,3750.0515,0.0,0.0,0.0,0.12062890398154696,0.0,0.0,-0.24712020913386576,-0.4316711809451286,-0.4611306372675506,1.0788804368022091,0.27811716102552675,-0.08277090511185232
11896,3.0,299.73359,4006.0607,0.0,0.0,0.0,0.12063904512521922,0.0,0.0,-0.26235893335031074,-0.44018607882298355,-0.5151974092910255,1.076267366119319,0.2720216612064477,-0.11970359362632488
11897,3.0,299.10799,3859.6714,0.0,0.0,0.0,0.12064918626889148,0.0,0.0,-0.24620818271885578,-0.42457155027694954,-0.5024639763443335,1.0597658789657491,0.23496527106676676,-0.07214757259116103
11898,3.0,299.95408,3680.7503,0.0,0.0,0.0,0.12065932741256374,0.0,0.0,-0.23449709885806178,-0.4178172352428506,-0.46654183863159454,1.0656729243987288,0.26523714118686775,-0.1109743629548169
11899,3.0,299.28507,3656.8763,0.0,0.0,0.0,0.120669468556236,0.0,0.0,-0.23536225232344576,-0.41106891864934364,-0.46516789176099654,1.0679510145985591,0.3010378712726247,-0.07076866383482334
11900,3.0,300.23098999999996,3568.8787,0.0,0.0,0.0,0.12067960969990826,0.0,0.0,-0.2578097038463367,-0.38996549272159764,-0.43707481333092557,1.061364280998499,0.28530965606537073,-0.08926701970246892
11901,3.0,300.5374,3371.3766,0.0,0.0,0.0,0.12068975084358052,0.0,0.0,-0.19417257184584083,-0.39580039474745765,-0.43484133653299856,1.044869582620599,0.25628821762867776,-0.08399432557409452
11902,3.0,300.15266,3162.0434,0.0,0.0,0.0,0.12069989198725278,0.0,0.0,-0.15830002259299586,-0.3794938163831236,-0.4233883882676806,1.048357898739869,0.25632392456220177,-0.1117410183779799
11903,3.0,299.0198,3388.2704,0.0,0.0,0.0,0.12071003313092506,0.0,0.0,-0.1946030308858238,-0.40422221547112663,-0.4311243501311606,1.0833168510400488,0.26546039058140075,-0.10955749480998289
11904,3.0,300.16787,3692.0485,0.0,0.0,0.0,0.1207201742745973,0.0,0.0,-0.2222678996911338,-0.43041030265318964,-0.4696123410721295,1.077987966114129,0.27042348208871975,-0.11899434895382789
11905,3.0,299.97992999999997,3905.9549,0.0,0.0,0.0,0.12073031541826958,0.0,0.0,-0.26739517138234875,-0.4371860783244066,-0.4827314980668896,1.0584857387894089,0.26746609888934875,-0.0981337879293008
11906,3.0,300.16468,3801.6482,0.0,0.0,0.0,0.12074045656194182,0.0,0.0,-0.26315843834171576,-0.4245119610385686,-0.4679357262641606,1.081618441222429,0.27882316329770374,-0.07321892549164534
11907,3.0,298.99427000000003,3493.0938,0.0,0.0,0.0,0.1207505977056141,0.0,0.0,-0.22005679545541476,-0.41796349789478565,-0.4237929992976126,1.072381045360769,0.2958420058198327,-0.07826742587639353
11908,3.0,299.684,3644.7949,0.0,0.0,0.0,0.12076073884928634,0.0,0.0,-0.22160302524051576,-0.41958373546719063,-0.4667398884961405,1.079136485102479,0.2934084830546627,-0.07973537803826912
11909,3.0,298.90881,3700.2448,0.0,0.0,0.0,0.12077087999295862,0.0,0.0,-0.2318965114164038,-0.40891787987955264,-0.48396762265888554,1.057978100489309,0.2580222837173167,-0.07613982966091613
11910,3.0,299.35705,3496.8232,0.0,0.0,0.0,0.12078102113663086,0.0,0.0,-0.1787815054768608,-0.4144592737489456,-0.4697061680313896,1.078224965312519,0.26996389210836175,-0.10990810974208588
11911,3.0,299.152,3212.3289,0.0,0.0,0.0,0.12079116228030314,0.0,0.0,-0.18668176584405582,-0.3872303456666596,-0.40255567236915163,1.0756773505860888,0.2881448818326857,-0.11348146794224888
11912,3.0,300.82695,3471.2516,0.0,0.0,0.0,0.12080130342397538,0.0,0.0,-0.22250270013680679,-0.4032151259317346,-0.4294559933115066,1.087415042394509,0.30669521135096073,-0.0996468895023823
11913,3.0,300.31531,3644.1212,0.0,0.0,0.0,0.12081144456764766,0.0,0.0,-0.24719005246325876,-0.3959453503067636,-0.46458642805861056,1.059470516561599,0.2740699260185957,-0.1096547465545809
11914,3.0,300.81313,3856.4051,0.0,0.0,0.0,0.12082158571131991,0.0,0.0,-0.24939692131355978,-0.43001461835663857,-0.49283930616195254,1.0613744134994991,0.27651341916474975,-0.08256671393845022
11915,3.0,300.57414,3783.9054,0.0,0.0,0.0,0.12083172685499217,0.0,0.0,-0.23729878604706678,-0.4323547397275906,-0.48055924184000454,1.077578714398739,0.26901121409933976,-0.1162662034570809
11916,3.0,300.51891,3583.567,0.0,0.0,0.0,0.12084186799866443,0.0,0.0,-0.22469273890294678,-0.38952363461798967,-0.4750985229435735,1.085630607643399,0.27462589634846574,-0.061537366725515234
11917,3.0,300.38677,3557.6352,0.0,0.0,0.0,0.1208520091423367,0.0,0.0,-0.24735851542488477,-0.39997433667939364,-0.4340994044122756,1.0900553695050887,0.2714278763828457,-0.097957291920882
11918,3.0,299.71481,3808.8932,0.0,0.0,0.0,0.12086215028600895,0.0,0.0,-0.27643959376246374,-0.4191572888976036,-0.4622115420767276,1.085786648158799,0.2840652633525587,-0.05292494352553525
11919,3.0,299.74087000000003,3771.0273,0.0,0.0,0.0,0.12087229142968121,0.0,0.0,-0.23920063621976478,-0.43624164817119854,-0.4708558421248535,1.074747794944349,0.3026797822646687,-0.11862581975995688
11920,3.0,299.16398,3547.9822,0.0,0.0,0.0,0.12088243257335347,0.0,0.0,-0.2052626651178478,-0.41453857070177164,-0.45869676999734654,1.056148272133719,0.2855575679673377,-0.1037191477337829
11921,3.0,299.92212,3314.1505,0.0,0.0,0.0,0.12089257371702575,0.0,0.0,-0.15994320014766483,-0.39797126282170564,-0.44950454482514457,1.0900805994325788,0.24766490199012275,-0.14475502697870885
11922,3.0,300.18388,3556.342,0.0,0.0,0.0,0.120902714860698,0.0,0.0,-0.2123225358521028,-0.40269113377502064,-0.46602547624813356,1.0684835788511189,0.2725068154868287,-0.10716032745840089
11923,3.0,300.24113,3697.7199,0.0,0.0,0.0,0.12091285600437027,0.0,0.0,-0.2582050031078497,-0.4200638234970716,-0.44574569092917454,1.084893974820699,0.2555492948607518,-0.12696064283003988
11924,3.0,300.94795,3536.5194,0.0,0.0,0.0,0.12092299714804251,0.0,0.0,-0.23920833692052476,-0.3987600780245556,-0.4370451757655006,1.052359527359799,0.27319617005986274,-0.08802128038027401
11925,3.0,300.37584,3423.2661,0.0,0.0,0.0,0.12093313829171479,0.0,0.0,-0.23647227794049677,-0.3767314432979986,-0.42738368407448557,1.050936620244369,0.26675369287653977,-0.09228935831275051
11926,3.0,299.56349,3625.5172,0.0,0.0,0.0,0.12094327943538705,0.0,0.0,-0.23067918261376277,-0.40963757116058064,-0.46174992559616956,1.0589986459900291,0.29007166809034474,-0.10728346774305389
11927,3.0,299.51755,3889.4179999999997,0.0,0.0,0.0,0.1209534205790593,0.0,0.0,-0.24952820812901674,-0.4270012834867456,-0.5057564616167766,1.088430217669699,0.26809503335891977,-0.09458658171421881
11928,3.0,301.12886000000003,3942.2952,0.0,0.0,0.0,0.12096356172273157,0.0,0.0,-0.26512135709794077,-0.4314230055981356,-0.5018149491252796,1.082167521451619,0.2959024664532997,-0.09022325523259202
11929,3.0,299.43432,3440.8246,0.0,0.0,0.0,0.12097370286640383,0.0,0.0,-0.23892561987762276,-0.37923419131000063,-0.4277649396896126,1.1117725615484089,0.25301029276017173,-0.08093080543999863
11930,3.0,300.369,3263.8,0.0,0.0,0.0,0.12098384401007609,0.0,0.0,-0.2030967923665928,-0.38188154024377363,-0.4071353601711316,1.081808628266199,0.26853748928008675,-0.10027294026216871
11931,3.0,299.86076,3643.6988,0.0,0.0,0.0,0.12099398515374836,0.0,0.0,-0.24018566730447977,-0.4064215153431806,-0.46098627952580357,1.0899287132425888,0.27004940028430074,-0.08986697116617952
11932,3.0,300.61545,3687.0693,0.0,0.0,0.0,0.1210041262974206,0.0,0.0,-0.24196582614016776,-0.39668963316771866,-0.4821215417716916,1.037609746979109,0.2809320103333307,-0.12112274158388389
11933,3.0,300.13077000000004,3379.6295,0.0,0.0,0.0,0.12101426744109288,0.0,0.0,-0.16772091804776584,-0.39634733701893665,-0.4632547337171826,1.058566596147389,0.28610352738621975,-0.12211088334640588
11934,3.0,300.30647999999997,3229.8522,0.0,0.0,0.0,0.12102440858476513,0.0,0.0,-0.17841080792777583,-0.3729476229195646,-0.4304359885432246,1.055957173164859,0.3013701666429197,-0.09129091888946222
11935,3.0,299.33412999999996,3568.1492,0.0,0.0,0.0,0.1210345497284374,0.0,0.0,-0.2286412630851358,-0.4080453803509436,-0.4479416065458946,1.109903621738959,0.27877288582774173,-0.09723633509047909
11936,3.0,300.25481,3917.4669,0.0,0.0,0.0,0.12104469087210966,0.0,0.0,-0.30596587392898067,-0.41348943128322957,-0.47135680310679456,1.081520561262769,0.2862198586302007,-0.09062620351910992
11937,3.0,300.0256,3843.0929,0.0,0.0,0.0,0.12105483201578192,0.0,0.0,-0.2707193511179197,-0.4186591548834416,-0.4788257634364235,1.084351480717159,0.24992765158343874,-0.1067566182210579
11938,3.0,300.2019,3504.4606,0.0,0.0,0.0,0.12106497315945418,0.0,0.0,-0.2112468898109448,-0.3887537975895127,-0.4652678387508606,1.085651784570489,0.27281740703998175,-0.0967149672515241
11939,3.0,300.48016,3443.6323,0.0,0.0,0.0,0.12107511430312644,0.0,0.0,-0.17715372932371184,-0.4028097752292296,-0.4668147372810275,1.079692860732389,0.27139037599664473,-0.1084794574985889
11940,3.0,300.67352,3737.2699,0.0,0.0,0.0,0.1210852554467987,0.0,0.0,-0.24532416253660977,-0.41762679488655563,-0.47308575228242855,1.0830809664167689,0.2962134227764887,-0.09191655522995772
11941,3.0,300.20201000000003,3758.2588,0.0,0.0,0.0,0.12109539659047097,0.0,0.0,-0.26944211896936676,-0.39501209630215867,-0.4779626162062376,1.0475537834605089,0.2583666671613048,-0.08576249766109952
11942,3.0,299.58631,3337.9686,0.0,0.0,0.0,0.12110553773414322,0.0,0.0,-0.2054622956525498,-0.38479697488900466,-0.42439983478250254,1.059514187640909,0.28566058510500475,-0.09902757786901101
11943,3.0,299.2184,3124.2892,0.0,0.0,0.0,0.12111567887781549,0.0,0.0,-0.17754334425216384,-0.36530625808542067,-0.4068563009610906,1.059027523617879,0.25730481145400774,-0.10950769356756791
11944,3.0,299.95714,3632.0079,0.0,0.0,0.0,0.12112582002148774,0.0,0.0,-0.1980303898790778,-0.41591999535810764,-0.4900893149930496,1.085665970071889,0.27424691041356275,-0.10977941684688489
11945,3.0,299.38409,3958.3418,0.0,0.0,0.0,0.12113596116516001,0.0,0.0,-0.25882135301117876,-0.4394685761621716,-0.5049471280994016,1.0705570938557591,0.25576590746712974,-0.098275503114787
11946,3.0,299.43625,3895.5178,0.0,0.0,0.0,0.12114610230883227,0.0,0.0,-0.24593772600216374,-0.43550480256597757,-0.5026976115523916,1.088379656489709,0.27672802553592973,-0.08096178252205583
11947,3.0,300.01967,3763.9338,0.0,0.0,0.0,0.12115624345250453,0.0,0.0,-0.26688497969199676,-0.42841739169400456,-0.4488395082545106,1.074691154263759,0.2951611929451417,-0.07930265843731302
11948,3.0,300.39337,3818.2372,0.0,0.0,0.0,0.12116638459617679,0.0,0.0,-0.2584927560037487,-0.42581869903003355,-0.4763373326483345,1.078163258381429,0.28660262398797676,-0.07259868065493193
11949,3.0,299.69985,3781.7155,0.0,0.0,0.0,0.12117652573984905,0.0,0.0,-0.25340045484367774,-0.42251391290137663,-0.4736327249514105,1.074310577526199,0.26347706496816176,-0.11030387509864488
11950,3.0,300.74568,3674.4589,0.0,0.0,0.0,0.12118666688352131,0.0,0.0,-0.2012398494383268,-0.4146397437242566,-0.5010641611986826,1.082928066976679,0.27287699627836276,-0.0964869758465231
11951,3.0,300.41943,3148.8403,0.0,0.0,0.0,0.12119680802719358,0.0,0.0,-0.19328969663620782,-0.36039829751604263,-0.4034808305054576,1.0766691197839688,0.25971243554662177,-0.13587044480186886
11952,3.0,300.41445,3008.1225,0.0,0.0,0.0,0.12120694917086583,0.0,0.0,-0.16579106164230384,-0.37201713508773265,-0.37658593045113764,1.1167146889111592,0.25939950338573775,-0.08401701427033371
11953,3.0,300.27625,3457.0194,0.0,0.0,0.0,0.1212170903145381,0.0,0.0,-0.26587466801728676,-0.38438361951070965,-0.4005892984300856,1.088864395337549,0.25490690442985275,-0.12217104000484288
11954,3.0,299.14614,3829.4279,0.0,0.0,0.0,0.12122723145821035,0.0,0.0,-0.2795528958872227,-0.41728736623555657,-0.4672101885300556,1.103524908384429,0.26274905490381273,-0.07857323894207492
11955,3.0,299.2752,3793.5337,0.0,0.0,0.0,0.12123737260188262,0.0,0.0,-0.2497220124756438,-0.4455487252422356,-0.4578687926781315,1.060446276407899,0.2650425059751587,-0.11945386800667888
11956,3.0,300.12063,3668.2702,0.0,0.0,0.0,0.1212475137455549,0.0,0.0,-0.2051678857034938,-0.4080400810529206,-0.5018545672041895,1.054827703278389,0.27598630619772774,-0.08438442078309392
11957,3.0,300.77527000000003,3729.3035,0.0,0.0,0.0,0.12125765488922714,0.0,0.0,-0.2413345409303648,-0.4390998544507816,-0.45318073777795653,1.072426236315229,0.2858606513372497,-0.09302367889872232
11958,3.0,300.28531,3781.3201,0.0,0.0,0.0,0.12126779603289942,0.0,0.0,-0.23793743758509678,-0.43741484993198465,-0.47407461345252155,1.098941370232069,0.2826271574856287,-0.08502373093368892
11959,3.0,300.56872000000004,3667.2695,0.0,0.0,0.0,0.12127793717657166,0.0,0.0,-0.2751820895933577,-0.39724904854792864,-0.44232720800679654,1.1178602694742188,0.2800881553850487,-0.06984693149710544
11960,3.0,300.87307999999996,3434.3639,0.0,0.0,0.0,0.12128807832024394,0.0,0.0,-0.2185600528051978,-0.3964086285174856,-0.4289921780782316,1.0719483875680689,0.25107200611387775,-0.09131272403161422
11961,3.0,301.12339,3191.6092,0.0,0.0,0.0,0.1212982194639162,0.0,0.0,-0.17062295752667483,-0.37707872463727266,-0.42246783028682855,1.069210687122879,0.2771906856640907,-0.09381581046914961
11962,3.0,300.541,3507.0543,0.0,0.0,0.0,0.12130836060758846,0.0,0.0,-0.16548104764170785,-0.41545270467698964,-0.4851231736029295,1.070670172566919,0.25933820175468775,-0.13365533822825487
11963,3.0,299.45287,3990.9491,0.0,0.0,0.0,0.12131850175126072,0.0,0.0,-0.2551573899870737,-0.46294581402669455,-0.49504566838720354,1.080918792028379,0.2808119705939837,-0.1096477855263939
11964,3.0,299.07658,4020.3736,0.0,0.0,0.0,0.12132864289493298,0.0,0.0,-0.2745556274540307,-0.45677133136232057,-0.49076622685485555,1.060185161857129,0.24342698344687277,-0.1092600045806229
11965,3.0,300.1132,3785.728,0.0,0.0,0.0,0.12133878403860524,0.0,0.0,-0.28464322120959873,-0.43120267436389065,-0.4349208867983496,1.060521054265279,0.2862536099910317,-0.08137262200035252
11966,3.0,301.1389,3750.9494,0.0,0.0,0.0,0.12134892518227751,0.0,0.0,-0.24824953716532178,-0.4334795283985986,-0.4584658908295606,1.0782413799641388,0.2924224691173507,-0.07459077088153593
11967,3.0,300.53469,3893.4716,0.0,0.0,0.0,0.12135906632594975,0.0,0.0,-0.21843233263009282,-0.4373889005969236,-0.5276969131871305,1.096439959710199,0.3131672146421977,-0.07401896345260293
11968,3.0,300.70859,3788.7206,0.0,0.0,0.0,0.12136920746962203,0.0,0.0,-0.2049048561100348,-0.43475813856728757,-0.5120134735017956,1.077300577246289,0.28646019142141976,-0.0916697366248486
11969,3.0,300.53822,3457.7574,0.0,0.0,0.0,0.12137934861329427,0.0,0.0,-0.18468747686473483,-0.3976757585625416,-0.4687086739704446,1.0734605620173092,0.27132683508287375,-0.11151434419810889
11970,3.0,300.58158,3178.0619,0.0,0.0,0.0,0.12138948975696655,0.0,0.0,-0.19331098502080882,-0.3598019086396837,-0.4129385576013626,1.100641907874899,0.2780952849558677,-0.11485879906818089
11971,3.0,300.84157000000005,3462.0029,0.0,0.0,0.0,0.12139963090063881,0.0,0.0,-0.23868882332925276,-0.3952320222363636,-0.41844161008697156,1.0504842040747189,0.30829897347673973,-0.1027928750223669
11972,3.0,299.68245,3750.4843,0.0,0.0,0.0,0.12140977204431107,0.0,0.0,-0.26069415330350976,-0.4057037695023446,-0.47365565480117355,1.064153251898749,0.26313490054189276,-0.1010849163358045
11973,3.0,299.34663,3768.9932,0.0,0.0,0.0,0.12141991318798333,0.0,0.0,-0.22727859368815076,-0.43912567206332953,-0.47927553502331255,1.023866022622709,0.28477051581966173,-0.11014452125541789
11974,3.0,299.20022,3558.7053,0.0,0.0,0.0,0.12143005433165559,0.0,0.0,-0.19550491466733283,-0.40734326895915063,-0.4789093565696736,1.072988691445739,0.2993647623100017,-0.1053068802429799
11975,3.0,298.99293,3662.6927,0.0,0.0,0.0,0.12144019547532785,0.0,0.0,-0.2186034503069808,-0.43465269976188153,-0.4601109631619166,1.108018469927909,0.30198375037347575,-0.07069287982009403
11976,3.0,299.81982,3952.2732,0.0,0.0,0.0,0.12145033661900012,0.0,0.0,-0.2918330412691787,-0.4239855776116186,-0.48557376592239954,1.1131954686638388,0.26396663701897877,-0.07500617809128342
11977,3.0,300.79904,3896.7512,0.0,0.0,0.0,0.12146047776267237,0.0,0.0,-0.31203916330586773,-0.4050709542848906,-0.46740494533177657,1.070875457037179,0.25024833510758776,-0.07196461812660483
11978,3.0,300.63567,3478.8466,0.0,0.0,0.0,0.12147061890634464,0.0,0.0,-0.20606246395178182,-0.38563073786629065,-0.4657892977823246,1.080708441307619,0.25243098728049873,-0.07570860561710763
11979,3.0,300.85594,3363.2278,0.0,0.0,0.0,0.12148076005001689,0.0,0.0,-0.18017084361647784,-0.39876880210791665,-0.4433976358099396,1.030618017314079,0.3087810170793137,-0.11200475724650891
11980,3.0,301.06604,3694.2959,0.0,0.0,0.0,0.12149090119368916,0.0,0.0,-0.18178940932621782,-0.42376773897261955,-0.5174165587325384,1.075604497903899,0.26431763698611976,-0.1092521113623439
11981,3.0,299.59737,3853.8884,0.0,0.0,0.0,0.12150104233736142,0.0,0.0,-0.24125650040766275,-0.45428439005187854,-0.4759449414146085,1.038311017373319,0.28135901419047277,-0.14662941807369687
11982,3.0,299.85736,3657.9509,0.0,0.0,0.0,0.12151118348103368,0.0,0.0,-0.23670127246309675,-0.4197210409882416,-0.45550342111468756,1.0980435293184592,0.3089797964839317,-0.10579875237152389
11983,3.0,300.66348,3289.2775,0.0,0.0,0.0,0.12152132462470594,0.0,0.0,-0.2284423924880088,-0.3869649146704636,-0.38445091958235167,1.087823483509819,0.27743348065305273,-0.12782363807271088
11984,3.0,300.74442,3436.2247,0.0,0.0,0.0,0.1215314657683782,0.0,0.0,-0.18607140424881782,-0.4138483447336516,-0.44460675728677057,1.092473997493789,0.2649664615551538,-0.08760054448825061
11985,3.0,300.89572999999996,3885.0003,0.0,0.0,0.0,0.12154160691205046,0.0,0.0,-0.25718775066995475,-0.42720044792640155,-0.49655488414615157,1.059046268744729,0.26820254932703075,-0.09968048482269791
11986,3.0,299.59107,3804.7435,0.0,0.0,0.0,0.12155174805572273,0.0,0.0,-0.2192418789299888,-0.43683437921469653,-0.5004707715426195,1.090565743580459,0.27846888040023876,-0.07165024917707902
11987,3.0,299.80971,3475.9362,0.0,0.0,0.0,0.12156188919939498,0.0,0.0,-0.2159288449455178,-0.3919784862977646,-0.4486904895623036,1.054434663564599,0.28286334608393876,-0.1076231193090749
11988,3.0,300.64615,3610.8279,0.0,0.0,0.0,0.12157203034306725,0.0,0.0,-0.24227749173842678,-0.39578595593353266,-0.4595380614228755,1.0857169365519188,0.26209505262676774,-0.06711571990555583
11989,3.0,300.02172,3781.1369,0.0,0.0,0.0,0.1215821714867395,0.0,0.0,-0.28957870165169275,-0.4282321290457206,-0.43156037191419255,1.062817078991879,0.2812201279992657,-0.11764845897849888
11990,3.0,298.55386,3840.0005,0.0,0.0,0.0,0.12159231263041177,0.0,0.0,-0.2653571505287117,-0.4145467172325756,-0.4873603892937255,1.0960748856991689,0.27861416019957674,-0.0990679771637481
11991,3.0,299.38446,3700.0539,0.0,0.0,0.0,0.12160245377408403,0.0,0.0,-0.2289447314900858,-0.4158461395583186,-0.47993312420571155,1.0802911849164387,0.2940031798033547,-0.1125304111333869
11992,3.0,300.45799999999997,3396.9096,0.0,0.0,0.0,0.12161259491775629,0.0,0.0,-0.1776900426016418,-0.39648561526008363,-0.45840003970556154,1.073269260398429,0.2733623329437618,-0.1038859692302469
11993,3.0,301.29222000000004,3339.8514,0.0,0.0,0.0,0.12162273606142855,0.0,0.0,-0.18180834697058684,-0.40351927321425163,-0.42990381945820355,1.088501347826719,0.2728985886379937,-0.11283360596080991
11994,3.0,300.54552,3524.2562,0.0,0.0,0.0,0.12163287720510081,0.0,0.0,-0.22163093014826982,-0.4086083319740026,-0.44104661186791155,1.0856614104464388,0.26130979393176873,-0.10016933138644331
11995,3.0,299.61567,3772.732,0.0,0.0,0.0,0.12164301834877307,0.0,0.0,-0.2638400415514847,-0.3991165090122326,-0.48385977231824157,1.087717193574329,0.27250629872927773,-0.09131657235549401
11996,3.0,300.13198,3653.2683,0.0,0.0,0.0,0.12165315949244535,0.0,0.0,-0.25230823203088376,-0.3935036506132866,-0.46469044831387657,1.040546449743939,0.26435591757489774,-0.08594457262456892
11997,3.0,300.43976000000004,3513.8887,0.0,0.0,0.0,0.12166330063611759,0.0,0.0,-0.19446254375945882,-0.4120038445166136,-0.46166803472308754,1.072950897217009,0.2843723287953637,-0.09018888984220041
11998,3.0,300.11728,3789.5896,0.0,0.0,0.0,0.12167344177978986,0.0,0.0,-0.2120710370447818,-0.41779324148048264,-0.5220763338224225,1.088523234028879,0.2944625266036887,-0.08522543964434602
11999,3.0,299.55645,3967.7644,0.0,0.0,0.0,0.12168358292346211,0.0,0.0,-0.26146970506255074,-0.4348465041085086,-0.5097850933518715,1.0971099206763189,0.3034484641880317,-0.08303999799390972
12000,3.0,300.2329,3818.7917,0.0,0.0,0.0,0.12169372406713438,0.0,0.0,-0.25690633058718076,-0.4296235139505396,-0.4742874770335296,1.058639347504569,0.28407323763084574,-0.08282507346219832
12001,3.0,300.52826,3526.5189,0.0,0.0,0.0,0.12170386521080666,0.0,0.0,-0.23296669603952277,-0.39796803055388663,-0.4410389618296566,1.082200350754859,0.28645611815601774,-0.08664133000283351
12002,3.0,299.72517,3263.3948,0.0,0.0,0.0,0.1217140063544789,0.0,0.0,-0.20417167847017578,-0.40011940369621063,-0.38769943993295564,1.0542075942171891,0.29399094987464774,-0.09837271128963071
12003,3.0,300.62953,3541.6956,0.0,0.0,0.0,0.12172414749815118,0.0,0.0,-0.2104775999375218,-0.4027262732884886,-0.46338315303485655,1.087215533449819,0.2910107989455297,-0.1072012019674349
12004,3.0,300.07244,3692.3537,0.0,0.0,0.0,0.12173428864182342,0.0,0.0,-0.23890183889777575,-0.4085310716538776,-0.4749503959114545,1.052389823537789,0.25177589069334577,-0.11203503315949688
12005,3.0,298.44646,3552.1466,0.0,0.0,0.0,0.1217444297854957,0.0,0.0,-0.2094152173401728,-0.4066734802455476,-0.46367518184617756,1.068086790111959,0.25979493436976375,-0.11377980930169289
12006,3.0,298.1955,3378.5168,0.0,0.0,0.0,0.12175457092916796,0.0,0.0,-0.19583225524463882,-0.37731655470074466,-0.45383593569011954,1.0867924002080591,0.25896481909283775,-0.1065717102103089
12007,3.0,298.72983999999997,3582.3437,0.0,0.0,0.0,0.1217647120728402,0.0,0.0,-0.22526421195934676,-0.4044282092164566,-0.45925059223700454,1.095942555236109,0.2682091557176828,-0.0868602021569345
12008,3.0,299.14197,3819.6241,0.0,0.0,0.0,0.12177485321651248,0.0,0.0,-0.26564758853737575,-0.41199303313804664,-0.48342972871079953,1.0791825879820292,0.2845525251931477,-0.09727994233503282
12009,3.0,300.11524,3854.7658,0.0,0.0,0.0,0.12178499436018472,0.0,0.0,-0.2640223252444748,-0.42796223974908454,-0.4797679847044135,1.0664441090498389,0.27206658871588174,-0.08543426035745501
12010,3.0,299.61044,3527.4779,0.0,0.0,0.0,0.121795135503857,0.0,0.0,-0.2020255843608728,-0.4195852756073426,-0.45065433037611957,1.0661665798474491,0.30316483522003973,-0.11852591330009689
12011,3.0,300.2828,3487.5731,0.0,0.0,0.0,0.12180527664752924,0.0,0.0,-0.2289237268155128,-0.3818743968305686,-0.4493370241861116,1.070572900557319,0.2854943208960957,-0.08851831907107792
12012,3.0,299.95533,3631.4704,0.0,0.0,0.0,0.12181541779120152,0.0,0.0,-0.22738942298408876,-0.3951336559166556,-0.4813532448833665,1.0809339907798792,0.2735924825714757,-0.1069938707319729
12013,3.0,299.3233,3672.8122,0.0,0.0,0.0,0.12182555893487376,0.0,0.0,-0.2688228002432448,-0.37861325138371865,-0.4690071571849026,1.0589253880077991,0.23077266506798877,-0.09389565559027971
12014,3.0,299.9403,3626.7304,0.0,0.0,0.0,0.12183570007854604,0.0,0.0,-0.24452126315736977,-0.38385503733104265,-0.4740591715209975,1.072497974422309,0.2809502994976358,-0.0971388938681124
12015,3.0,300.50146,3498.6249,0.0,0.0,0.0,0.12184584122221831,0.0,0.0,-0.2232164537722488,-0.3932269826734816,-0.4470511826230166,1.079504092238759,0.26316186312705375,-0.0953390800069846
12016,3.0,300.27454,3625.0862,0.0,0.0,0.0,0.12185598236589056,0.0,0.0,-0.22560407630788878,-0.4119467478734786,-0.46438485208371655,1.0936918227889791,0.29972607716316074,-0.09347182320595071
12017,3.0,298.87047,3897.2924,0.0,0.0,0.0,0.12186612350956283,0.0,0.0,-0.27086517807231175,-0.4299339231186746,-0.4838804628852836,1.059810259320129,0.28855228943289374,-0.09051096962498723
12018,3.0,299.40805,3775.6618,0.0,0.0,0.0,0.12187626465323508,0.0,0.0,-0.2252870506166008,-0.44080227673879757,-0.4816175714369535,1.082414551825999,0.2863731937678337,-0.09883679604743231
12019,3.0,299.56776,3392.9598,0.0,0.0,0.0,0.12188640579690735,0.0,0.0,-0.21815745814296478,-0.37093464960839967,-0.44228293910992755,1.062247835085699,0.27251907581303875,-0.1043331874268839
12020,3.0,300.0335,3359.1211,0.0,0.0,0.0,0.1218965469405796,0.0,0.0,-0.21440833144795482,-0.37816845485482065,-0.4285121609758576,1.066383415368849,0.26760359692791874,-0.1017931416787009
12021,3.0,298.99557999999996,3520.382,0.0,0.0,0.0,0.12190668808425187,0.0,0.0,-0.2166836554750118,-0.40738333286810463,-0.44604123571834264,1.0702408584995489,0.24101317852864879,-0.1191487378715649
12022,3.0,299.1981,3736.2729,0.0,0.0,0.0,0.12191682922792411,0.0,0.0,-0.24517337065672776,-0.4060408778106146,-0.48451939813334155,1.072591598731549,0.2987178730486587,-0.10860226341070889
12023,3.0,300.41092000000003,3844.0162,0.0,0.0,0.0,0.12192697037159639,0.0,0.0,-0.25419043528414276,-0.42549007162510066,-0.48880443280624153,1.063517032160959,0.27328706872633374,-0.11386775941037289
12024,3.0,300.41288,3660.3919,0.0,0.0,0.0,0.12193711151526863,0.0,0.0,-0.2064604888560638,-0.4166406897567346,-0.48956654886895656,1.0776253239033389,0.27822179936335373,-0.10657613811324589
12025,3.0,299.7644,3443.593,0.0,0.0,0.0,0.12194725265894091,0.0,0.0,-0.24364115412050977,-0.3844046849802886,-0.4187204463819906,1.070132744713879,0.27170748274794077,-0.1049506519053229
12026,3.0,300.38223,3764.0357,0.0,0.0,0.0,0.12195739380261317,0.0,0.0,-0.23370025871441977,-0.43622337927189553,-0.4742492369747555,1.0780293067182092,0.28303935775880973,-0.0994025158697645
12027,3.0,300.91821,3963.9313,0.0,0.0,0.0,0.12196753494628541,0.0,0.0,-0.2818951754808877,-0.4096299109898246,-0.5134110392322245,1.084823047313699,0.2821030538714038,-0.06603948111308934
12028,3.0,300.5356,3773.4093,0.0,0.0,0.0,0.12197767608995769,0.0,0.0,-0.24863061039543075,-0.4345622266604526,-0.4638293782463956,1.042074532219749,0.29341620402042473,-0.1159505557859289
12029,3.0,300.30017000000004,3549.0024,0.0,0.0,0.0,0.12198781723362993,0.0,0.0,-0.22381306556362976,-0.38881906102845365,-0.4661759945504885,1.0843685033188388,0.28278196183590676,-0.08141809767809062
12030,3.0,299.35577,3575.8299,0.0,0.0,0.0,0.1219979583773022,0.0,0.0,-0.2217054648256258,-0.41556312867288764,-0.4496944177613836,1.0476266361426991,0.3073394053670377,-0.1215050712441169
12031,3.0,299.47027,3719.204,0.0,0.0,0.0,0.12200809952097448,0.0,0.0,-0.2617556037107668,-0.40260379161640064,-0.4661857622814526,1.093244878169869,0.29677629333953975,-0.07216716884809503
12032,3.0,299.70249,3687.6711,0.0,0.0,0.0,0.12201824066464673,0.0,0.0,-0.24408170513148877,-0.39386900833434463,-0.48300921978679856,1.068964062048539,0.27596097494522775,-0.08398115534929472
12033,3.0,297.98506000000003,3345.4174,0.0,0.0,0.0,0.122028381808319,0.0,0.0,-0.18339885578505782,-0.3899514997377166,-0.44357298887224555,1.109624673986429,0.26875876283692474,-0.07902815074672123
12034,3.0,299.66822,3414.0469,0.0,0.0,0.0,0.12203852295199125,0.0,0.0,-0.20755711930679277,-0.3973292168958406,-0.4328986726462726,1.078470070511709,0.2879012965086457,-0.09232268208203931
12035,3.0,300.68868,3800.3235,0.0,0.0,0.0,0.12204866409566352,0.0,0.0,-0.2235086041735818,-0.4328700685959496,-0.4988247872851735,1.1051441833692388,0.2848827636657397,-0.08346038938089913
12036,3.0,299.3765,3855.3287,0.0,0.0,0.0,0.12205880523933578,0.0,0.0,-0.2512529421842348,-0.44452019533072756,-0.4761505095948966,1.0525410004527092,0.28177979669200076,-0.11601372179716289
12037,3.0,300.41475,3703.975,0.0,0.0,0.0,0.12206894638300804,0.0,0.0,-0.25986458518163774,-0.39820599233987164,-0.46784532409023855,1.077569291172809,0.25662438361435475,-0.08705959863086342
12038,3.0,301.36175,3430.9,0.0,0.0,0.0,0.1220790875266803,0.0,0.0,-0.1915417084911948,-0.4091939094717946,-0.44217231246400956,1.046298670561639,0.2916946313055187,-0.11251998478985789
12039,3.0,300.62432,3684.3802,0.0,0.0,0.0,0.12208922867035256,0.0,0.0,-0.22611228202804481,-0.4290220081611755,-0.46482528150468355,1.091136912661829,0.26975338940008675,-0.09781478842681801
12040,3.0,301.18324,3950.6537,0.0,0.0,0.0,0.12209936981402482,0.0,0.0,-0.28280271319795475,-0.43383563514624357,-0.4842617286329115,1.058178724009109,0.27892617030286976,-0.13034227384628086
12041,3.0,300.58814,3777.1775,0.0,0.0,0.0,0.12210951095769709,0.0,0.0,-0.24509196614369377,-0.44196111061316556,-0.46111456712096455,1.0790207719410592,0.2771486661824437,-0.1098462406909799
12042,3.0,299.23989,3454.2705,0.0,0.0,0.0,0.12211965210136934,0.0,0.0,-0.21528809597978077,-0.3987579400668446,-0.4359659529514896,1.0663457224651292,0.30381521006172674,-0.12733763266224588
12043,3.0,300.42044,3499.0943,0.0,0.0,0.0,0.12212979324504161,0.0,0.0,-0.2209341585845038,-0.38577730449325565,-0.4569258317375686,1.090911363189569,0.2982297702104867,-0.06360024665710563
12044,3.0,299.59745,3721.4502,0.0,0.0,0.0,0.12213993438871386,0.0,0.0,-0.2252220303576838,-0.4394629931541205,-0.4665429228092015,1.092342376305799,0.2764706397455277,-0.10301956946723989
12045,3.0,299.34031,3922.8504,0.0,0.0,0.0,0.12215007553238613,0.0,0.0,-0.25915936311203774,-0.4133022535922566,-0.5199869614537175,1.076655238257599,0.25796585581924775,-0.05445366536215835
12046,3.0,300.48773,3801.1767,0.0,0.0,0.0,0.12216021667605839,0.0,0.0,-0.23780710322473375,-0.4406153219628466,-0.47704037623021955,1.080045167792159,0.2747494925956638,-0.1083211067729609
12047,3.0,299.57274,3451.2848,0.0,0.0,0.0,0.12217035781973065,0.0,0.0,-0.18749558805937383,-0.4111541532477556,-0.4504546491789126,1.075843320952469,0.2595482383679168,-0.08487461496947232
12048,3.0,299.36655,3664.6475,0.0,0.0,0.0,0.12218049896340291,0.0,0.0,-0.23718191778053277,-0.4254191643831026,-0.45136025158828863,1.0920722438291388,0.2817280297443917,-0.1203933636318999
12049,3.0,299.29055,4005.8295,0.0,0.0,0.0,0.12219064010707517,0.0,0.0,-0.28495826093069077,-0.43996565639622953,-0.49274822511046357,1.0732688550983889,0.26948859675145376,-0.0930917247224379
12050,3.0,299.50445,3710.8232,0.0,0.0,0.0,0.12220078125074743,0.0,0.0,-0.2339871503477338,-0.42432920111803163,-0.4696812319464285,1.101756482984899,0.30714426353027874,-0.09260786436243461
12051,3.0,300.02229,3227.5351,0.0,0.0,0.0,0.1222109223944197,0.0,0.0,-0.18795005099422582,-0.35483494651698266,-0.43830509146984453,1.0677560652793188,0.2842595135292297,-0.098687551400453
12052,3.0,300.26,3348.0421,0.0,0.0,0.0,0.12222106353809195,0.0,0.0,-0.17485324629667184,-0.4030410799620576,-0.4398268613975316,1.096486366564779,0.2808116260889497,-0.1146071685383469
12053,3.0,299.96466000000004,3790.2169,0.0,0.0,0.0,0.12223120468176422,0.0,0.0,-0.24325412297981275,-0.4310329853696436,-0.47784417740204854,1.061875161698919,0.26713921427458776,-0.11872340587708789
12054,3.0,300.29571,4005.1826,0.0,0.0,0.0,0.12224134582543647,0.0,0.0,-0.26500422538638074,-0.45787882385412154,-0.4945924618824755,1.0875320727810591,0.29195904905161474,-0.1115387432605169
12055,3.0,300.33723,3819.4951,0.0,0.0,0.0,0.12225148696910874,0.0,0.0,-0.24028763066204276,-0.4413108370964886,-0.4794326597163196,1.069502300501659,0.2848875664712137,-0.09406436375842991
12056,3.0,299.64422,3579.2222,0.0,0.0,0.0,0.122261628112781,0.0,0.0,-0.20155580108450882,-0.42646251814357355,-0.4599758665260836,1.0870930315127292,0.26791722823137176,-0.08090186600389253
12057,3.0,300.57995,3653.6865,0.0,0.0,0.0,0.12227176925645326,0.0,0.0,-0.2260482446217248,-0.4119808133418406,-0.4726004054845286,1.087271870155379,0.27249405866806975,-0.05974408832753244
12058,3.0,301.69308,3851.7324,0.0,0.0,0.0,0.12228191040012552,0.0,0.0,-0.23822070178305277,-0.42558579336204766,-0.5070239766968705,1.0692192997487289,0.2630004219886207,-0.1165721239272729
12059,3.0,301.2767,3744.8505,0.0,0.0,0.0,0.12229205154379778,0.0,0.0,-0.24809764084283079,-0.4036647961936136,-0.48657860604656955,1.075565183800019,0.27707299666497576,-0.08546711499194751
12060,3.0,300.05208999999996,3425.6152,0.0,0.0,0.0,0.12230219268747004,0.0,0.0,-0.2204167120234358,-0.40443799721242263,-0.4164467840850976,1.063638318197929,0.27508466559624273,-0.15529324345124984
12061,3.0,300.11352999999997,3457.3081,0.0,0.0,0.0,0.12231233383114232,0.0,0.0,-0.22200607586529378,-0.3857009257007176,-0.44322831158572856,1.086812563885049,0.27811895447820373,-0.09820784840561
12062,3.0,299.35817000000003,3835.5595,0.0,0.0,0.0,0.12232247497481456,0.0,0.0,-0.2748862408291597,-0.4135067274624366,-0.4775213660526896,1.101401136174829,0.28715664887765474,-0.1159955339578679
12063,3.0,299.50059,3961.445,0.0,0.0,0.0,0.12233261611848684,0.0,0.0,-0.26302316945336573,-0.4252870669675656,-0.5158701262974175,1.094483576417119,0.3056622130065117,-0.06710729675747454
12064,3.0,299.80728,3626.9215,0.0,0.0,0.0,0.12234275726215908,0.0,0.0,-0.2034069380897018,-0.4233471084586066,-0.47573951508933454,1.085850584240109,0.2586524644845108,-0.09798540251840632
12065,3.0,299.55728,3559.0015,0.0,0.0,0.0,0.12235289840583136,0.0,0.0,-0.2211270307410388,-0.4072512962475736,-0.4534692607439316,1.079208121884549,0.28812000654273073,-0.08844016202461441
12066,3.0,299.6934,3792.1941,0.0,0.0,0.0,0.12236303954950363,0.0,0.0,-0.2308355473691948,-0.4495147583861526,-0.4723820095579745,1.076083562551179,0.2737385324408898,-0.09078092072987931
12067,3.0,300.17914,3888.0241,0.0,0.0,0.0,0.12237318069317588,0.0,0.0,-0.2517371440095218,-0.43986435165123156,-0.49026074677746856,1.0851223613932388,0.2866064135433507,-0.0924331901776956
12068,3.0,300.08817,3712.1676,0.0,0.0,0.0,0.12238332183684815,0.0,0.0,-0.23387263282143178,-0.4321439735742896,-0.46238966131180653,1.0515223801271791,0.25121751896073874,-0.09110048359941772
12069,3.0,300.81389,3455.9040000000005,0.0,0.0,0.0,0.1223934629805204,0.0,0.0,-0.18913403373607582,-0.4077994037566676,-0.45357508458437557,1.082599064669209,0.2657664630391078,-0.11718691342544788
12070,3.0,299.69836000000004,3328.4506,0.0,0.0,0.0,0.12240360412419266,0.0,0.0,-0.1815542643755108,-0.3802678583995156,-0.4499437482134906,1.0769825180398989,0.25634273048405776,-0.1286853262227529
12071,3.0,300.50702,3764.2184,0.0,0.0,0.0,0.12241374526786493,0.0,0.0,-0.2395166993234578,-0.4284734446895366,-0.47623823678855454,1.085300288110799,0.29231899601713873,-0.13442068655878886
12072,3.0,300.23999,3816.9344,0.0,0.0,0.0,0.12242388641153717,0.0,0.0,-0.2660052050276698,-0.4106771860281826,-0.4835703576921785,1.0849475757509888,0.2651861139118317,-0.13130668529146086
12073,3.0,299.22837000000004,3481.7324,0.0,0.0,0.0,0.12243402755520945,0.0,0.0,-0.22343553870887078,-0.40366125995076463,-0.43126290194983463,1.088365673638329,0.2997910974220777,-0.1168432189915279
12074,3.0,298.97222999999997,3316.5618,0.0,0.0,0.0,0.1224441686988817,0.0,0.0,-0.2220515099997778,-0.3670204340745966,-0.4190800184449776,1.0850531564114092,0.28525873011534475,-0.09932206077207421
12075,3.0,300.03615,3778.1721,0.0,0.0,0.0,0.12245430984255397,0.0,0.0,-0.24107321359707376,-0.4122550190839026,-0.49514175489418655,1.0905563203545292,0.30050301707483873,-0.07102541431741263
12076,3.0,298.83898,3961.7768,0.0,0.0,0.0,0.12246445098622624,0.0,0.0,-0.26185301757538076,-0.4388741225935036,-0.5035540814644185,1.067916969395199,0.24758572662730877,-0.08711361398044433
12077,3.0,300.76952,3896.4621,0.0,0.0,0.0,0.12247459212989849,0.0,0.0,-0.2761592477247958,-0.42152395742117554,-0.48674397859539054,1.052981966896229,0.26925703870610074,-0.07402239735719184
12078,3.0,300.68327999999997,3618.5651,0.0,0.0,0.0,0.12248473327357076,0.0,0.0,-0.22948293954570276,-0.3933417636448096,-0.47712871137393753,1.0726365870359889,0.25923996715749276,-0.08227874116727953
12079,3.0,300.24089,3498.8323,0.0,0.0,0.0,0.12249487441724301,0.0,0.0,-0.23227315674357576,-0.3815592152544626,-0.44972527122692857,1.065810625087319,0.2944667822541087,-0.06896376953769413
12080,3.0,300.64631,3776.4051,0.0,0.0,0.0,0.12250501556091528,0.0,0.0,-0.2529551719547318,-0.40891608642687566,-0.48606158505054353,1.0866266324916989,0.26991326000086474,-0.0894232648943891
12081,3.0,300.74135,3935.8502,0.0,0.0,0.0,0.12251515670458754,0.0,0.0,-0.27927002685680574,-0.4135647258981606,-0.5035654197330375,1.056277258871449,0.2980505465327987,-0.10627107890563892
12082,3.0,300.38897000000003,3621.28,0.0,0.0,0.0,0.1225252978482598,0.0,0.0,-0.2268859288768978,-0.41912749934466365,-0.45476527854933857,1.117746177512959,0.28784356151794777,-0.11601898056518188
12083,3.0,301.01844,3120.7037,0.0,0.0,0.0,0.12253543899193206,0.0,0.0,-0.17315767357933182,-0.3637805972773497,-0.41167770970692663,1.106125718741109,0.2918648370573167,-0.13459138880313587
12084,3.0,301.02393,3461.6274,0.0,0.0,0.0,0.12254558013560432,0.0,0.0,-0.1989605838683808,-0.4017567449303036,-0.4515309437001346,1.1300848279556888,0.25690507415705677,-0.10951324617811589
12085,3.0,300.79276,3961.184,0.0,0.0,0.0,0.12255572127927658,0.0,0.0,-0.2750695783022537,-0.4232959697260596,-0.5057354670747045,1.077174832908879,0.2832371745758327,-0.1020463224811879
12086,3.0,300.53323,3812.8391,0.0,0.0,0.0,0.12256586242294885,0.0,0.0,-0.23706654912414676,-0.44687244530537656,-0.47506888537814856,1.0930748548030889,0.27630069743875574,-0.08493395190857841
12087,3.0,299.9361,3477.9916,0.0,0.0,0.0,0.1225760035666211,0.0,0.0,-0.19678489272365682,-0.4075339119654656,-0.4529038063931256,1.0478746797671792,0.3016077940563717,-0.1063790103062909
12088,3.0,299.62615,3570.9598,0.0,0.0,0.0,0.12258614471029337,0.0,0.0,-0.22883652651190678,-0.4087850427914426,-0.44786103289794255,1.067323508811629,0.26639859937899474,-0.0922528600308984
12089,3.0,300.36769,3899.4991,0.0,0.0,0.0,0.12259628585396562,0.0,0.0,-0.25254537308428776,-0.4607945016793766,-0.4720104710113065,1.040808881519839,0.2790098850261317,-0.12146219049988488
12090,3.0,300.52563,4019.5063,0.0,0.0,0.0,0.1226064269976379,0.0,0.0,-0.26639353312849473,-0.4485959533279736,-0.5068400515387185,1.097957504384969,0.2614382132494428,-0.09868082038003871
12091,3.0,299.63763,3536.4497,0.0,0.0,0.0,0.12261656814131015,0.0,0.0,-0.22680244720115877,-0.41295238846522764,-0.4352375477196016,1.097492929214119,0.2983928224165787,-0.10540797220545689
12092,3.0,298.88954,3133.5313,0.0,0.0,0.0,0.12262670928498241,0.0,0.0,-0.18604679240388883,-0.34783622542626264,-0.4186322632257876,1.093752921770009,0.30121541295514676,-0.09429314853825922
12093,3.0,300.52177,3537.3341,0.0,0.0,0.0,0.12263685042865467,0.0,0.0,-0.2426417450168758,-0.4098276062168356,-0.42279187780130956,1.0844419639510887,0.3151612604414947,-0.1281053823955169
12094,3.0,300.94885,3974.8565,0.0,0.0,0.0,0.12264699157232693,0.0,0.0,-0.2939573403688307,-0.4416065136081696,-0.4726932495911916,1.086451441549409,0.29493216802503874,-0.09459910953845521
12095,3.0,300.93469,3856.9008,0.0,0.0,0.0,0.12265713271599919,0.0,0.0,-0.2603406607411227,-0.43925151772574955,-0.4728093477876496,1.0873499917380889,0.28162068602879775,-0.1129022739200869
12096,3.0,300.35426,3436.0964,0.0,0.0,0.0,0.12266727385967147,0.0,0.0,-0.1831450467675088,-0.3950673285651096,-0.4662751309402725,1.093971885116619,0.2360744759512368,-0.08953060253048252
12097,3.0,300.57763,3560.9683,0.0,0.0,0.0,0.12267741500334371,0.0,0.0,-0.2077123390896118,-0.39876342174988566,-0.47596967484954955,1.094794137572769,0.26619590882899075,-0.0850787463611185
12098,3.0,300.22886,4103.4992,0.0,0.0,0.0,0.12268755614701599,0.0,0.0,-0.24329786498662978,-0.4568292082080325,-0.5472341989653104,1.1044114008969188,0.2411135308185528,-0.05771718890699304
12099,3.0,299.6491,3948.6885,0.0,0.0,0.0,0.12269769729068823,0.0,0.0,-0.25102885179211876,-0.45698181380559355,-0.49229202951794054,1.089786756903579,0.2888858918958177,-0.09132485162206111
12100,3.0,298.56089,3615.9489,0.0,0.0,0.0,0.12270783843436049,0.0,0.0,-0.24154544893867977,-0.4114931968637166,-0.44611951942106853,1.0506203848881588,0.28241305773949876,-0.1078337436073619
12101,3.0,299.93012999999996,3595.8592,0.0,0.0,0.0,0.12271797957803277,0.0,0.0,-0.22381793929661076,-0.4263543638278996,-0.4428791050712646,1.0536312575603088,0.30187512996275573,-0.12742712291107788
12102,3.0,299.03392,3682.2651,0.0,0.0,0.0,0.12272812072170503,0.0,0.0,-0.23893066586312078,-0.41787875978892264,-0.4625072185884086,1.0682919732572091,0.2864490862003237,-0.11400203531362489
12103,3.0,299.93251000000004,3799.0209,0.0,0.0,0.0,0.12273826186537728,0.0,0.0,-0.24320971222792973,-0.42092941265999856,-0.4906683570276965,1.087455471073499,0.2999974559374437,-0.0931537710923114
12104,3.0,300.24965,3740.1893,0.0,0.0,0.0,0.12274840300904954,0.0,0.0,-0.24207861100879877,-0.4180014542435316,-0.4768440894208475,1.104450005725729,0.2633982543753837,-0.09300989059136151
12105,3.0,300.06607,3342.1696,0.0,0.0,0.0,0.1227585441527218,0.0,0.0,-0.17208060898803385,-0.4129983494897636,-0.4308571662122916,1.099714480058369,0.3019644175615677,-0.1103100863217579
12106,3.0,299.93244,3414.8505,0.0,0.0,0.0,0.12276868529639408,0.0,0.0,-0.2150588988071608,-0.39607644460470165,-0.42689394990365265,1.1021601618247387,0.26882027725049573,-0.1016476389643409
12107,3.0,300.65164,4011.5721,0.0,0.0,0.0,0.12277882644006632,0.0,0.0,-0.2550630766677658,-0.47097021779614157,-0.4933844549807545,1.106844619687059,0.2779186450659347,-0.0987465914572798
12108,3.0,300.27956,4002.026,0.0,0.0,0.0,0.1227889675837386,0.0,0.0,-0.2827403375217987,-0.4151481926244366,-0.5186274533970445,1.0773126349224789,0.22802159985397974,-0.0887953386086676
12109,3.0,300.31087,3651.1858,0.0,0.0,0.0,0.12279910872741084,0.0,0.0,-0.2121409006391768,-0.42411166645406256,-0.47361675612983456,1.080159665053459,0.2313979721022018,-0.09170711035478711
12110,3.0,300.84114,3434.1767,0.0,0.0,0.0,0.12280924987108312,0.0,0.0,-0.20757864073891683,-0.3982589853201016,-0.4380663393487816,1.057597321101729,0.2591141924225797,-0.08278088157233691
12111,3.0,301.05172999999996,3660.3364,0.0,0.0,0.0,0.12281939101475539,0.0,0.0,-0.2289874805118048,-0.42489072405844963,-0.45877267256233756,1.065219393653969,0.2900885184395077,-0.09590452827829
12112,3.0,301.04348,3914.4665,0.0,0.0,0.0,0.12282953215842764,0.0,0.0,-0.2911881278455307,-0.42407156201510465,-0.47464038191085856,1.0488187248853489,0.29993311455609367,-0.11999040419963088
12113,3.0,300.54613,3835.5846,0.0,0.0,0.0,0.1228396733020999,0.0,0.0,-0.25112871772197476,-0.4421935096561016,-0.4725997164744606,1.078021302042419,0.3267278953680327,-0.1291344797270809
12114,3.0,300.4781,3396.2396,0.0,0.0,0.0,0.12284981444577216,0.0,0.0,-0.2052014850768098,-0.4009773833508866,-0.4261931658694906,1.112530573948219,0.3333501332515967,-0.09775178048259961
12115,3.0,299.60053,3394.0336,0.0,0.0,0.0,0.12285995558944442,0.0,0.0,-0.17802534732473385,-0.37158427464501265,-0.4820918434112606,1.106777441205429,0.29084059319373173,-0.08205561640250883
12116,3.0,300.26153999999997,4060.5577,0.0,0.0,0.0,0.12287009673311668,0.0,0.0,-0.26242886787221276,-0.4406707568758176,-0.5312085239261994,1.0958891569558389,0.24430478227350477,-0.07385436907985872
12117,3.0,299.77348,4128.3287,0.0,0.0,0.0,0.12288023787678894,0.0,0.0,-0.29146675135802874,-0.43512320244581654,-0.5283188866285145,1.078332775123159,0.2365727011579078,-0.08926271845579441
12118,3.0,299.81858,3617.0315,0.0,0.0,0.0,0.12289037902046121,0.0,0.0,-0.2274157674866888,-0.4218332722792026,-0.45023822909005357,1.080476508359729,0.2682057106673428,-0.08203730190695133
12119,3.0,299.51717,3386.1058,0.0,0.0,0.0,0.12290052016413346,0.0,0.0,-0.22790935200790177,-0.38744101049495067,-0.4139412597678216,1.074288488674019,0.2734991521047648,-0.11668189944310689
12120,3.0,299.78565,3752.2476,0.0,0.0,0.0,0.12291066130780573,0.0,0.0,-0.2605082725726648,-0.40959107311349163,-0.4704902310912705,1.0750462984238092,0.2831987217345377,-0.06678109811303123
12121,3.0,298.42372,3730.4093,0.0,0.0,0.0,0.12292080245147798,0.0,0.0,-0.24424383527998975,-0.4270830730348176,-0.4626243604324696,1.097134340003729,0.2930450403762937,-0.11696527509857389
12122,3.0,298.85767999999996,3527.9681,0.0,0.0,0.0,0.12293094359515025,0.0,0.0,-0.1870944423447838,-0.40404790605642366,-0.4812718606353345,1.093820606876689,0.3169770046206947,-0.07893876992890002
12123,3.0,298.92503,3337.0233,0.0,0.0,0.0,0.1229410847388225,0.0,0.0,-0.1908675222721578,-0.4043388101601336,-0.41916542529590656,1.077635051104299,0.29945838661924173,-0.12752524605076188
12124,3.0,299.99793,3620.3145,0.0,0.0,0.0,0.12295122588249477,0.0,0.0,-0.2062899487317328,-0.4114858508004916,-0.4827094193472105,1.0847609350825689,0.2880546823087837,-0.0996342704856369
12125,3.0,299.88448,4027.4875,0.0,0.0,0.0,0.12296136702616701,0.0,0.0,-0.29190131406091674,-0.4479005091218386,-0.4844538003218676,1.0692171719235188,0.28463171068846277,-0.14025082630917884
12126,3.0,300.95887,4124.65,0.0,0.0,0.0,0.12297150816983929,0.0,0.0,-0.2799365731700887,-0.44421480175058753,-0.5296392427013236,1.084112049718529,0.3079945424841947,-0.08244903811158652
12127,3.0,300.19937000000004,3538.073,0.0,0.0,0.0,0.12298164931351153,0.0,0.0,-0.19572298635385482,-0.41663083083326163,-0.4631320392625736,1.081244551935529,0.27479257598991574,-0.1110243567147509
12128,3.0,300.99499,3253.0269,0.0,0.0,0.0,0.12299179045718381,0.0,0.0,-0.15953670447254684,-0.37437002340994463,-0.45493220137081253,1.067766197780319,0.28527624920957373,-0.07062443781558934
12129,3.0,299.89065,3612.9101,0.0,0.0,0.0,0.12300193160085608,0.0,0.0,-0.2222380594756888,-0.43671879777578965,-0.43927758865082256,1.089198261245499,0.25522898623913975,-0.12058690453350089
12130,3.0,299.80812000000003,3925.9657,0.0,0.0,0.0,0.12301207274452833,0.0,0.0,-0.2835676764934507,-0.42440206393272256,-0.4854257908777955,1.070368426687139,0.2850961744018017,-0.07976097678879551
12131,3.0,298.81876,3552.349,0.0,0.0,0.0,0.12302221388820059,0.0,0.0,-0.24580257870382577,-0.3902717678293246,-0.4437510574448196,1.089157528591479,0.25898900537272473,-0.13136155278437586
12132,3.0,299.87377999999995,3372.2178,0.0,0.0,0.0,0.12303235503187285,0.0,0.0,-0.2021754541831638,-0.38851533931097865,-0.4343791931623886,1.070163952816959,0.2745945261253698,-0.0861113302862766
12133,3.0,300.64205,3684.5017,0.0,0.0,0.0,0.12304249617554511,0.0,0.0,-0.2130170681331478,-0.4057251288144526,-0.5012543077124485,1.103347082991879,0.2815578442575957,-0.12764403949248587
12134,3.0,301.60507,4159.9879,0.0,0.0,0.0,0.12305263731921737,0.0,0.0,-0.27010852342763575,-0.45001991422350757,-0.5444040191834935,1.079610584824269,0.28665755227589773,-0.04882349862500416
12135,3.0,300.9086,3960.2136,0.0,0.0,0.0,0.12306277846288963,0.0,0.0,-0.2582625151835258,-0.4353135313446006,-0.5102300013382804,1.089519968152249,0.27483552766165475,-0.10106725133356109
12136,3.0,300.5932,3578.8019,0.0,0.0,0.0,0.1230729196065619,0.0,0.0,-0.23142764006512978,-0.38964977412293866,-0.46678900072848756,1.061098910797309,0.2776728913866807,-0.06154527108954534
12137,3.0,300.68435,3407.0934,0.0,0.0,0.0,0.12308306075023415,0.0,0.0,-0.2019307542840138,-0.41850016581025057,-0.41524039838353655,1.108362367011849,0.27957022246393276,-0.11399553024798288
12138,3.0,300.11629,3753.8249,0.0,0.0,0.0,0.12309320189390642,0.0,0.0,-0.25935577151142175,-0.42181727306012357,-0.45989599202070053,1.0697293698490689,0.28729966912926974,-0.07654972681661983
12139,3.0,299.6255,3987.4889,0.0,0.0,0.0,0.12310334303757867,0.0,0.0,-0.24189028834521276,-0.45665747244858357,-0.5135493174733715,1.093654535185299,0.26790339736750673,-0.09396263446164001
12140,3.0,300.38584,3711.2261,0.0,0.0,0.0,0.12311348418125094,0.0,0.0,-0.24716084046287579,-0.4123326036440596,-0.4686266311098476,1.059272020867009,0.26739653926998375,-0.08858819279797392
12141,3.0,300.14372000000003,3296.5107,0.0,0.0,0.0,0.12312362532492321,0.0,0.0,-0.15799919877080684,-0.4075954770415416,-0.4364622732479726,1.081246274460699,0.26159448681236575,-0.11463694795878589
12142,3.0,300.72373999999996,3609.5893,0.0,0.0,0.0,0.12313376646859546,0.0,0.0,-0.24050110219311077,-0.40235796700963966,-0.4543659262874255,1.0819515978553091,0.2656377802764078,-0.1126533994305249
12143,3.0,301.46974,4189.3966,0.0,0.0,0.0,0.12314390761226773,0.0,0.0,-0.29462256945698373,-0.4515063723852095,-0.5273430254572046,1.0907281675714888,0.26315455759383277,-0.1146067328408039
12144,3.0,301.05411000000004,3942.2143,0.0,0.0,0.0,0.12315404875593998,0.0,0.0,-0.2496395947125098,-0.4682094861761786,-0.48048561908773857,1.0877099994986188,0.28392302330352076,-0.1244045066702689
12145,3.0,299.98736,3435.3928,0.0,0.0,0.0,0.12316418989961225,0.0,0.0,-0.17471401560043084,-0.4239872190767806,-0.44557238463207055,1.0965787749738989,0.2893065629398347,-0.11985713141397789
12146,3.0,299.67272,3259.7857,0.0,0.0,0.0,0.12317433104328451,0.0,0.0,-0.1957266239217138,-0.35462474778373765,-0.4405420943781196,1.0862810128825888,0.3139012130146377,-0.07999314278420852
12147,3.0,298.97027,3722.5032,0.0,0.0,0.0,0.12318447218695677,0.0,0.0,-0.22736886413955978,-0.4357225297474656,-0.4684566178755685,1.0937960862242688,0.25583304541875573,-0.08829275541331652
12148,3.0,299.86082999999996,3970.1144,0.0,0.0,0.0,0.12319461333062903,0.0,0.0,-0.28402047769813876,-0.4199027167311716,-0.5028924494141205,1.073852487155989,0.28264925647030975,-0.08672936421127182
12149,3.0,300.22187,3761.7041,0.0,0.0,0.0,0.12320475447430128,0.0,0.0,-0.2500512782281398,-0.4260876865340806,-0.4673251417539005,1.100440271104999,0.25029173260937077,-0.1219585715913739
12150,3.0,300.21103999999997,3497.4021,0.0,0.0,0.0,0.12321489561797357,0.0,0.0,-0.19826124878186183,-0.41443525972157563,-0.4504263997661246,1.086987957477359,0.2721162481032828,-0.1074464490216389
12151,3.0,300.76628,3777.0907,0.0,0.0,0.0,0.12322503676164583,0.0,0.0,-0.24244762656271776,-0.4152120273807366,-0.4904816150342665,1.099879437174649,0.27274678350801174,-0.10750670700508588
12152,3.0,301.05126,4197.7089,0.0,0.0,0.0,0.12323517790531807,0.0,0.0,-0.3057268786278937,-0.4553410579186635,-0.5149307522622085,1.089909258840669,0.3144368474150007,-0.08709445443430341
12153,3.0,301.20105,3952.1264,0.0,0.0,0.0,0.12324531904899035,0.0,0.0,-0.26360134009292674,-0.45634201729495055,-0.48140437348341253,1.1235397389347388,0.3073587179139437,-0.10485198161058491
12154,3.0,301.24437,3329.0993,0.0,0.0,0.0,0.12325546019266259,0.0,0.0,-0.22150186235053176,-0.37310770630286366,-0.4173534808045816,1.106843302461929,0.2963135926813747,-0.0894429665293335
12155,3.0,300.55438,3280.1781,0.0,0.0,0.0,0.12326560133633487,0.0,0.0,-0.18463456494451283,-0.38860463704229165,-0.4238530343660376,1.092878790908739,0.26943034500320473,-0.1132120548731599
12156,3.0,300.759,3848.9286,0.0,0.0,0.0,0.12327574248000712,0.0,0.0,-0.23959644210632774,-0.42831705966910255,-0.5020646848774265,1.074389104408949,0.2726939729127998,-0.0914231774117651
12157,3.0,300.37106,4002.2881,0.0,0.0,0.0,0.12328588362367938,0.0,0.0,-0.27283372036659176,-0.4327755222291186,-0.5109864026704315,1.056913073309199,0.26109494438056474,-0.1124034002333519
12158,3.0,299.64853,3661.8261,0.0,0.0,0.0,0.12329602476735164,0.0,0.0,-0.23446497882989178,-0.4037963565865976,-0.4748423733182935,1.055686534063149,0.26534144515216174,-0.07806307258297543
12159,3.0,299.35576000000003,3425.7736,0.0,0.0,0.0,0.1233061659110239,0.0,0.0,-0.2137101210690468,-0.3972911389570826,-0.4303483829395786,1.069920468817929,0.2673360077090097,-0.10870919169376189
12160,3.0,300.13462000000004,3842.7470000000003,0.0,0.0,0.0,0.12331630705469616,0.0,0.0,-0.2586515221619178,-0.44298536460925153,-0.4664622579687406,1.106117106115259,0.2962653315791117,-0.1025516708360619
12161,3.0,300.25052,4252.9524,0.0,0.0,0.0,0.12332644819836844,0.0,0.0,-0.2843266920108597,-0.4842636132780975,-0.5242010179571125,1.090001869899809,0.2766288384836407,-0.14013091829234486
12162,3.0,300.80477,3895.5256,0.0,0.0,0.0,0.12333658934204068,0.0,0.0,-0.2303666760179208,-0.44263656339482754,-0.5111392919780205,1.122875553494189,0.27529468194446977,-0.09271811002631501
12163,3.0,301.04017000000005,3047.1431,0.0,0.0,0.0,0.12334673048571296,0.0,0.0,-0.16480477412746483,-0.3451504337836957,-0.41630019719313066,1.0734302658393189,0.27606564368055775,-0.11449055358433789
12164,3.0,301.65387999999996,3161.8990000000003,0.0,0.0,0.0,0.1233568716293852,0.0,0.0,-0.16019801228281286,-0.37518375443275365,-0.4257565867989036,1.079753858388409,0.31230639788724174,-0.07503478011510623
12165,3.0,301.25255,3882.5492,0.0,0.0,0.0,0.12336701277305748,0.0,0.0,-0.2760975103962027,-0.4260985587076536,-0.47800192017761656,1.060375348900899,0.2926008821949587,-0.08784487657761432
12166,3.0,300.55156,4153.5224,0.0,0.0,0.0,0.12337715391672974,0.0,0.0,-0.3061084584830527,-0.4425834589570866,-0.5138751685730305,1.063157632350489,0.29339650643848075,-0.05811071396758095
12167,3.0,299.77269,3728.6474,0.0,0.0,0.0,0.123387295060402,0.0,0.0,-0.2162201138192638,-0.4227123174034576,-0.49448327405169956,1.0837568042334689,0.26875645262669673,-0.09921503015076111
12168,3.0,299.76097000000004,3462.8738,0.0,0.0,0.0,0.12339743620407426,0.0,0.0,-0.17887305262339584,-0.4298852567163716,-0.44386885790144553,1.1021949163031688,0.27480716679135575,-0.10162341215444991
12169,3.0,300.67395,3724.5313,0.0,0.0,0.0,0.12340757734774652,0.0,0.0,-0.2214793580658108,-0.4359598025233826,-0.4747253429317435,1.1093790621621888,0.25467697771716075,-0.11156579703818689
12170,3.0,301.19945,4083.3881,0.0,0.0,0.0,0.12341771849141878,0.0,0.0,-0.27997112499849874,-0.4466422551476586,-0.5146346400529845,1.114248539492769,0.23256536793991478,-0.11176746420558989
12171,3.0,299.99394,3836.9606,0.0,0.0,0.0,0.12342785963509105,0.0,0.0,-0.2781267463714727,-0.4116541111120976,-0.4765593458777455,1.0935765149275989,0.26023090549029076,-0.09461929348044722
12172,3.0,299.70351,3215.8017,0.0,0.0,0.0,0.1234380007787633,0.0,0.0,-0.1982526868185168,-0.37784784225817863,-0.4014228891548546,1.0761895485116388,0.2860028609887847,-0.1304600540379049
12173,3.0,298.80302,3103.7397,0.0,0.0,0.0,0.12344814192243557,0.0,0.0,-0.13032178592925886,-0.38671161227796463,-0.4264259803449676,1.064016463135249,0.2915561200168487,-0.1125096597713389
12174,3.0,298.79823,3726.054,0.0,0.0,0.0,0.12345828306610782,0.0,0.0,-0.24478619766101678,-0.4081130958551266,-0.47972809304797653,1.039519520767589,0.2747173523024918,-0.11055082441301689
12175,3.0,299.52134,4113.6683,0.0,0.0,0.0,0.12346842420978009,0.0,0.0,-0.2653547187284718,-0.4265813521153016,-0.5585163841912755,1.081643468499899,0.2947937479288777,-0.07240614793718042
12176,3.0,300.67809,3598.3917,0.0,0.0,0.0,0.12347856535345235,0.0,0.0,-0.20776345755715683,-0.43684334647808165,-0.4492144209240116,1.085693834449639,0.29678015382242073,-0.1060433002831589
12177,3.0,300.32645,3369.0466,0.0,0.0,0.0,0.12348870649712461,0.0,0.0,-0.19959781685627082,-0.4089409718493316,-0.4155672526007946,1.093268486897199,0.2929668377335757,-0.08688717386134641
12178,3.0,300.63718,3968.9814,0.0,0.0,0.0,0.12349884764079687,0.0,0.0,-0.2860580020592267,-0.4551282652651626,-0.46528498294255255,1.095300154672709,0.26195523424546874,-0.12410976234867988
12179,3.0,300.00856,4403.5811,0.0,0.0,0.0,0.12350898878446913,0.0,0.0,-0.28929623792131576,-0.4859910831085855,-0.5632913759500304,1.066982955453019,0.27646011207698873,-0.09664173561379671
12180,3.0,300.40935,3993.0918,0.0,0.0,0.0,0.12351912992814139,0.0,0.0,-0.2577344294964078,-0.47042841270266955,-0.48563737776367755,1.0865696878360789,0.2610686100104658,-0.12129799332117988
12181,3.0,300.14788,3471.3694,0.0,0.0,0.0,0.12352927107181366,0.0,0.0,-0.17458157367985985,-0.4263559546305566,-0.4542720993281656,1.0652360109556092,0.2637975965047958,-0.09790212450593741
12182,3.0,300.48533,3343.8667,0.0,0.0,0.0,0.12353941221548591,0.0,0.0,-0.2172719890130758,-0.37480539671291263,-0.4243746048550126,1.0866478094187888,0.25151192890979474,-0.10921931245660689
12183,3.0,300.53135,3791.7154,0.0,0.0,0.0,0.12354955335915818,0.0,0.0,-0.25805793998833576,-0.4230309541624046,-0.4714979083157206,1.094078479027139,0.28743767379288976,-0.07409476165283363
12184,3.0,301.10438999999997,4032.6329,0.0,0.0,0.0,0.12355969450283043,0.0,0.0,-0.3059337235033077,-0.4472694974895626,-0.47261647563111453,1.105453832599799,0.3141304304522597,-0.10694868991001391
12185,3.0,301.00895,3604.1240000000003,0.0,0.0,0.0,0.1235698356465027,0.0,0.0,-0.18461228357481382,-0.4227744904295936,-0.48817692701931154,1.093860528930629,0.3190529919555787,-0.08569949478313162
12186,3.0,300.55506,3214.2201,0.0,0.0,0.0,0.12357997679017498,0.0,0.0,-0.16901884076336085,-0.3933088634140626,-0.4147149471466786,1.101244791684399,0.2781842280496457,-0.0998606629819801
12187,3.0,299.95746,3764.1291,0.0,0.0,0.0,0.12359011793384722,0.0,0.0,-0.23063660584456078,-0.4088237388127616,-0.5047409114390495,1.082624294596699,0.2734293797028787,-0.08697917393067611
12188,3.0,299.61151,4238.0453,0.0,0.0,0.0,0.1236002590775195,0.0,0.0,-0.3083003008343707,-0.4723607617033776,-0.5075988745386085,1.113633598007079,0.2525472374644718,-0.1029844400862729
12189,3.0,300.14748,3902.0802,0.0,0.0,0.0,0.12361040022119174,0.0,0.0,-0.2681290278997747,-0.42914753971606456,-0.4888583681090645,1.072858387482879,0.27632812611896274,-0.09707911717846292
12190,3.0,299.26048,3401.3085,0.0,0.0,0.0,0.12362054136486401,0.0,0.0,-0.2041922677122078,-0.4020727168414876,-0.4276478586405576,1.078872533451429,0.2659796204626448,-0.12307290352134988
12191,3.0,299.15403,3309.7201,0.0,0.0,0.0,0.12363068250853627,0.0,0.0,-0.16605406083825985,-0.4044597314270676,-0.4355584642912736,1.042844804945769,0.3048877251600757,-0.11686453777363189
12192,3.0,300.50065,3594.6095,0.0,0.0,0.0,0.12364082365220852,0.0,0.0,-0.2076786890537908,-0.4216954297355986,-0.46329741181139455,1.0934595858660592,0.3063314039025557,-0.1087192431347539
12193,3.0,300.14522999999997,3721.8665,0.0,0.0,0.0,0.1236509647958808,0.0,0.0,-0.2187780434317118,-0.4365895678580356,-0.4759868697037466,1.075110234505119,0.3115637058289437,-0.12342238361334089
12194,3.0,300.30205,3579.2409,0.0,0.0,0.0,0.12366110593955304,0.0,0.0,-0.23615398568658375,-0.4147211178397876,-0.43712477669335653,1.1116547205617788,0.26130825379161676,-0.10407706819910689
12195,3.0,300.78258,3300.9289,0.0,0.0,0.0,0.12367124708322531,0.0,0.0,-0.19147646531725582,-0.39126393219474365,-0.4206595841583686,1.078253538965339,0.2631595022543208,-0.12657276055925887
12196,3.0,300.47483,3755.6809999999996,0.0,0.0,0.0,0.12368138822689759,0.0,0.0,-0.2170261238763108,-0.45024614257333456,-0.4743609883282845,1.112862717330999,0.26389417950432775,-0.1051376877412819
12197,3.0,300.30627000000004,4385.7859,0.0,0.0,0.0,0.12369152937056983,0.0,0.0,-0.2768195828149657,-0.4910706375823985,-0.5652791801287114,1.0684491283477189,0.2968443736137587,-0.11432070247007488
12198,3.0,300.28087999999997,4152.3038,0.0,0.0,0.0,0.1237016705142421,0.0,0.0,-0.26047935441481074,-0.46662382069718555,-0.5350935173271185,1.0856198671923387,0.27405166725179375,-0.06362573091037074
12199,3.0,299.82781,3373.8238,0.0,0.0,0.0,0.12371181165791435,0.0,0.0,-0.17658856881543483,-0.39883200864915463,-0.4501376032226226,1.058096549425999,0.2901081248289427,-0.0995385001126851
12200,3.0,300.40837,3433.8286,0.0,0.0,0.0,0.12372195280158663,0.0,0.0,-0.21703330781951982,-0.39529874475544863,-0.4314660889923876,1.110224720695649,0.28025386230640276,-0.058935518800732854
12201,3.0,299.98498,3912.6975,0.0,0.0,0.0,0.12373209394525889,0.0,0.0,-0.2655256337553398,-0.42092055685412466,-0.5029161594664605,1.078303086895229,0.30251040737795276,-0.07098338672976484
12202,3.0,299.18919,3946.9398,0.0,0.0,0.0,0.12374223508893115,0.0,0.0,-0.24883430406303375,-0.4557322231197685,-0.4952046067978896,1.088150560642099,0.2674679734020337,-0.08629905107930323
12203,3.0,299.07825,3567.1937,0.0,0.0,0.0,0.1237523762326034,0.0,0.0,-0.2140292644530438,-0.4096406818383876,-0.4606678859468806,1.047566550411769,0.27893348596859174,-0.1099083630546109
12204,3.0,299.62994,3535.9036,0.0,0.0,0.0,0.12376251737627567,0.0,0.0,-0.2097840201115708,-0.4188686646066186,-0.4461737181689176,1.0598338680474588,0.27334559405210973,-0.1035632085433929
12205,3.0,300.8301,3693.4238,0.0,0.0,0.0,0.12377265851994793,0.0,0.0,-0.24694969940703773,-0.4120799801291276,-0.4636789308715476,1.072983523870229,0.2946556926027527,-0.10582843046695291
12206,3.0,300.77049,4083.755,0.0,0.0,0.0,0.1237827996636202,0.0,0.0,-0.2925784184402417,-0.4341085033981736,-0.5146726267992334,1.108523068477709,0.25718858153503676,-0.10451200580453189
12207,3.0,300.35807,3987.4884,0.0,0.0,0.0,0.12379294080729245,0.0,0.0,-0.27418764541521373,-0.4402931793585536,-0.4976160711083826,1.104551837360779,0.2550878405002098,-0.1072630203560359
12208,3.0,300.12322,3228.097,0.0,0.0,0.0,0.12380308195096472,0.0,0.0,-0.18013220839016483,-0.3444340355654927,-0.45669463846225156,1.1254120224695188,0.25666683879354474,-0.12014490457487889
12209,3.0,300.23064,3175.9516,0.0,0.0,0.0,0.12381322309463696,0.0,0.0,-0.14181416988846887,-0.40071237791973263,-0.4228834452128466,1.097400419479989,0.2863643784919637,-0.12067988036267689
12210,3.0,300.61144,3828.2589,0.0,0.0,0.0,0.12382336423830924,0.0,0.0,-0.2515108751296907,-0.4161573289290306,-0.49602690991654447,1.0844304128999491,0.2677848775033097,-0.09160376999033822
12211,3.0,299.89738,4037.2139,0.0,0.0,0.0,0.1238335053819815,0.0,0.0,-0.2829471823972127,-0.4519116116302036,-0.4923534223414995,1.058425349083449,0.2868374852286557,-0.08212257602211721
12212,3.0,299.9993,3583.0357,0.0,0.0,0.0,0.12384364652565376,0.0,0.0,-0.26097306052603575,-0.40806964769083864,-0.4201106863141966,1.087394980042529,0.27084669639048775,-0.08345538291215501
12213,3.0,299.72900000000004,3483.0598,0.0,0.0,0.0,0.12385378766932602,0.0,0.0,-0.1991030265674388,-0.40221783452080956,-0.4574423461085446,1.0952421967669888,0.28214179042272675,-0.09420568681612741
12214,3.0,299.13756,3742.7945,0.0,0.0,0.0,0.12386392881299828,0.0,0.0,-0.2511161432882338,-0.4258083942765166,-0.4607915227240826,1.1007103022566491,0.2396736112339438,-0.10583731667032992
12215,3.0,299.68287000000004,4125.9527,0.0,0.0,0.0,0.12387406995667054,0.0,0.0,-0.24460387343802276,-0.46783565768428453,-0.5417470849037744,1.0937645741461592,0.2782533317064657,-0.1042814508767779
12216,3.0,299.28700000000003,3962.8294,0.0,0.0,0.0,0.12388421110034281,0.0,0.0,-0.2820705589406967,-0.4370102287695516,-0.4855203980396326,1.103884510844919,0.2884180439271447,-0.11722159697637088
12217,3.0,299.07389,3478.2568,0.0,0.0,0.0,0.12389435224401506,0.0,0.0,-0.2217160735541728,-0.39187951202799665,-0.4437076092805316,1.091297512802679,0.31587428453686467,-0.07523727004159042
12218,3.0,300.00869,3291.9526,0.0,0.0,0.0,0.12390449338768733,0.0,0.0,-0.21502622149143577,-0.36274907827804664,-0.42289608044159355,1.085344567140169,0.2918765806259757,-0.0921401025200201
12219,3.0,300.04871,3712.4640000000004,0.0,0.0,0.0,0.12391463453135958,0.0,0.0,-0.2046299410929028,-0.4279851493338456,-0.4958812552146696,1.0716618404397888,0.27836176973216775,-0.08802600009923982
12220,3.0,300.35486000000003,4077.2902,0.0,0.0,0.0,0.12392477567503185,0.0,0.0,-0.2676540567828988,-0.43621829275639357,-0.5355220714569134,1.076430803360449,0.2525689716791168,-0.11284461998939688
12221,3.0,300.09033,3636.0232,0.0,0.0,0.0,0.12393491681870411,0.0,0.0,-0.2031115250230468,-0.4130865123809646,-0.48906224416168553,1.077411122832199,0.2571229431935588,-0.10587432056398191
12222,3.0,298.95471000000003,3356.0657,0.0,0.0,0.0,0.12394505796237637,0.0,0.0,-0.16580936093910983,-0.42053468081854156,-0.4338161199493176,1.084211550878349,0.25363030049636176,-0.12988253187840787
12223,3.0,300.31926,3801.6057,0.0,0.0,0.0,0.12395519910604863,0.0,0.0,-0.2584377162583168,-0.43118629010977355,-0.46596919020507854,1.1043520244410592,0.29009543893769074,-0.08506353747711752
12224,3.0,300.09181,4045.7876,0.0,0.0,0.0,0.12396534024972089,0.0,0.0,-0.28205029393869674,-0.4548668872693666,-0.4929012360080645,1.1064717436502591,0.32187547103663566,-0.0982099620453186
12225,3.0,300.37239,3678.0633,0.0,0.0,0.0,0.12397548139339315,0.0,0.0,-0.23811878908799478,-0.41825052125061263,-0.46167008148828964,1.103621977744009,0.31095054766342967,-0.0934798623322441
12226,3.0,299.97552,3459.0663,0.0,0.0,0.0,0.12398562253706541,0.0,0.0,-0.2254289866906088,-0.37784603867300065,-0.4481947468183776,1.076989306815569,0.26801679018619773,-0.09278983192139341
12227,3.0,299.64934,3595.5007,0.0,0.0,0.0,0.12399576368073767,0.0,0.0,-0.2198450261845148,-0.4165489500926806,-0.4565484568703246,1.081756749861079,0.2815007780119637,-0.1079981940985919
12228,3.0,298.5167,3840.4978,0.0,0.0,0.0,0.12400590482440993,0.0,0.0,-0.26530807882636875,-0.4200579061164876,-0.48204945915957753,1.080555339217509,0.2838563615794417,-0.1051375458862679
12229,3.0,299.7328,3952.3358,0.0,0.0,0.0,0.12401604596808219,0.0,0.0,-0.2941548329458217,-0.42439384647441164,-0.48286270382233853,1.080544396116429,0.2804565021939017,-0.11155663725728289
12230,3.0,299.02417,3753.1171,0.0,0.0,0.0,0.12402618711175446,0.0,0.0,-0.24591449217737074,-0.4056910633460906,-0.4892483376750515,1.083102042018849,0.3020566131881667,-0.08657846594012931
12231,3.0,300.11431,3494.6451,0.0,0.0,0.0,0.12403632825542671,0.0,0.0,-0.20825475213314382,-0.4007289850888716,-0.45330111188983657,1.105985586252279,0.30625861201537175,-0.11848603177616088
12232,3.0,300.12968,3694.4936,0.0,0.0,0.0,0.12404646939909898,0.0,0.0,-0.19730062689205582,-0.4472910999816946,-0.47844208615355754,1.097867730426109,0.3009091783774237,-0.09904994232521822
12233,3.0,300.42607999999996,3881.6090000000004,0.0,0.0,0.0,0.12405661054277123,0.0,0.0,-0.23998422305209877,-0.4490089236712306,-0.4909190654999396,1.090624208111229,0.25476219205057077,-0.12024500355225788
12234,3.0,300.49117,3789.2098,0.0,0.0,0.0,0.1240667516864435,0.0,0.0,-0.24623788107928676,-0.41026570516257266,-0.4953215662569325,1.087949734472279,0.25893034832443573,-0.07456806394679492
12235,3.0,300.39029,3567.6325,0.0,0.0,0.0,0.12407689283011575,0.0,0.0,-0.24614491538261177,-0.41788991567252365,-0.4204363752938396,1.092830965504019,0.27589988609669874,-0.11049521724752889
12236,3.0,299.52527000000003,3870.5267,0.0,0.0,0.0,0.12408703397378802,0.0,0.0,-0.23758388422770377,-0.4385078225498526,-0.5004517832357455,1.0825798129173092,0.3104967534736437,-0.09109947845531852
12237,3.0,300.1152,4046.2651,0.0,0.0,0.0,0.12409717511746027,0.0,0.0,-0.2616069700535978,-0.46027483610058956,-0.5080817591387655,1.064274740585739,0.27420693769711774,-0.11831575509685589
12238,3.0,300.07827000000003,3970.1312,0.0,0.0,0.0,0.12410731626113254,0.0,0.0,-0.24558034255939276,-0.4570399236988285,-0.5042004742332125,1.068451864122989,0.27620072005138874,-0.1117668663880309
12239,3.0,300.31645,3786.3314,0.0,0.0,0.0,0.12411745740480479,0.0,0.0,-0.2322013274439868,-0.4182093630315506,-0.5005395104294036,1.094411027709959,0.26479877879610475,-0.10624500798056588
12240,3.0,300.92842,3546.035,0.0,0.0,0.0,0.12412759854847706,0.0,0.0,-0.21933419614659977,-0.4292307579467776,-0.42934115154517266,1.107710137922479,0.27062661846876773,-0.1101711190705429
12241,3.0,300.2417,3363.7068,0.0,0.0,0.0,0.12413773969214932,0.0,0.0,-0.18957603369469783,-0.37431917851992663,-0.4585876733590795,1.107188922071039,0.24997839514844677,-0.1065039237786189
12242,3.0,299.87793,3682.3289,0.0,0.0,0.0,0.12414788083582158,0.0,0.0,-0.2233286002933168,-0.4104827635989946,-0.48552468408755556,1.0902766633269292,0.27470465627873875,-0.07098669397809122
12243,3.0,300.21815,3882.4847,0.0,0.0,0.0,0.12415802197949384,0.0,0.0,-0.24498552422068878,-0.4444156887154136,-0.49077721048593953,1.102996498457279,0.29440658506566775,-0.08123907563717252
12244,3.0,298.93587,3695.6354,0.0,0.0,0.0,0.1241681631231661,0.0,0.0,-0.22178688960366177,-0.43455018924926453,-0.4670437925986336,1.089974005522059,0.2981738084074637,-0.0971492432046338
12245,3.0,299.43642,3766.735,0.0,0.0,0.0,0.12417830426683836,0.0,0.0,-0.22941955061944677,-0.45133371456816956,-0.4642400991744306,1.0922353770952389,0.2559408045668908,-0.1078317475046649
12246,3.0,300.22817000000003,3925.6573,0.0,0.0,0.0,0.12418844541051063,0.0,0.0,-0.28551049236769177,-0.42452502183235763,-0.48326627120466753,1.095291947346899,0.27576962266384275,-0.09167594582146142
12247,3.0,300.55357000000004,3965.6113,0.0,0.0,0.0,0.12419858655418288,0.0,0.0,-0.24450338942560573,-0.4514296389551366,-0.5095137753725946,1.116531898593119,0.2949331508776357,-0.08930511385322851
12248,3.0,300.39673999999997,3596.3946,0.0,0.0,0.0,0.12420872769785515,0.0,0.0,-0.2044767174127808,-0.4377013565302606,-0.45103607235129456,1.087920654194409,0.3086817185695137,-0.11326788495366989
12249,3.0,300.14965,3423.7165,0.0,0.0,0.0,0.1242188688415274,0.0,0.0,-0.19415345181645383,-0.38901177106497264,-0.45755909278506657,1.096132134329819,0.28189867119373274,-0.09081262937850872
12250,3.0,300.82905,3520.8084,0.0,0.0,0.0,0.12422900998519967,0.0,0.0,-0.22941524430652177,-0.3961117462381856,-0.44471085860204457,1.0708493151845988,0.3004939788839467,-0.11884087196118087
12251,3.0,300.36733,3855.7281,0.0,0.0,0.0,0.12423915112887195,0.0,0.0,-0.25880045979411676,-0.4324694497714116,-0.4807751654363146,1.099060832418859,0.27418839522028776,-0.08689558181067623
12252,3.0,299.60677999999996,4121.1296,0.0,0.0,0.0,0.12424929227254419,0.0,0.0,-0.28228317934168073,-0.4777438960396515,-0.49269341841255454,1.084060171313409,0.28525008709199173,-0.1187684752415359
12253,3.0,299.95336000000003,3880.1205,0.0,0.0,0.0,0.12425943341621645,0.0,0.0,-0.1996998004788358,-0.4706463526666786,-0.5091135922455996,1.097806327470049,0.23593246894972178,-0.1048384445892489
12254,3.0,299.53912,3650.1047,0.0,0.0,0.0,0.12426957455988871,0.0,0.0,-0.1867843472841798,-0.4364729833015296,-0.4862833550999305,1.1080927411602388,0.2722146853504977,-0.0963740136591246
12255,3.0,299.83855,3934.2323,0.0,0.0,0.0,0.12427971570356097,0.0,0.0,-0.23889090592919676,-0.4325213079115296,-0.5244961675787415,1.1139141669597687,0.2959462996526257,-0.08870964602121041
12256,3.0,300.66927000000004,3965.7379,0.0,0.0,0.0,0.12428985684723325,0.0,0.0,-0.25144505440319476,-0.46795348853841356,-0.4860867744480295,1.091295384977469,0.3017605313764457,-0.1134462473687729
12257,3.0,300.39647,3332.3622,0.0,0.0,0.0,0.12429999799090549,0.0,0.0,-0.21462380921422078,-0.3719220111683446,-0.4264090894658006,1.090814597805019,0.2841491908583417,-0.1039690962684509
12258,3.0,300.92227,3340.1787,0.0,0.0,0.0,0.12431013913457777,0.0,0.0,-0.20102072397170082,-0.38496499202058665,-0.4293452248105746,1.074824092676879,0.3102299140598087,-0.1136726682361189
12259,3.0,301.92637,3833.4231,0.0,0.0,0.0,0.12432028027825001,0.0,0.0,-0.26202789441013974,-0.42736035905718356,-0.4758766483578685,1.1161588199062988,0.29404445961242875,-0.1076842790851109
12260,3.0,300.29954,3987.7999,0.0,0.0,0.0,0.12433042142192229,0.0,0.0,-0.26554426742467874,-0.43716414145974153,-0.5094831853520755,1.077353975526559,0.27385216843960475,-0.09887047040125571
12261,3.0,299.97469,3972.1155,0.0,0.0,0.0,0.12434056256559456,0.0,0.0,-0.26357412419524073,-0.4696835320241556,-0.4741662619240665,1.088363545813119,0.24468492331352173,-0.12994075322915388
12262,3.0,300.20236,3809.3657,0.0,0.0,0.0,0.1243507037092668,0.0,0.0,-0.27007065827139876,-0.39400034581230664,-0.4938810488547645,1.0857394307041388,0.2838026593241417,-0.06647669245173873
12263,3.0,299.7221,3650.4613,0.0,0.0,0.0,0.12436084485293908,0.0,0.0,-0.26401559726381074,-0.43056727535868156,-0.4150662004263446,1.124725950826809,0.2989376976578537,-0.12753672617439488
12264,3.0,299.86762999999996,3891.2794,0.0,0.0,0.0,0.12437098599661132,0.0,0.0,-0.2239738278244958,-0.4482833251421196,-0.5105946295192665,1.108460753596559,0.3011216873208967,-0.09073480974432852
12265,3.0,299.74979,3960.4825,0.0,0.0,0.0,0.1243811271402836,0.0,0.0,-0.2365243792606388,-0.4450901485119776,-0.5222732488468566,1.100169328028259,0.25635120125489375,-0.11820527030595189
12266,3.0,299.45065,3544.0774,0.0,0.0,0.0,0.12439126828395586,0.0,0.0,-0.15914522516391086,-0.4176066008120626,-0.5005592080113475,1.106666794294509,0.2982759237525417,-0.06597932141490204
12267,3.0,300.65386,3308.7501,0.0,0.0,0.0,0.12440140942762812,0.0,0.0,-0.17628458365293384,-0.37846366527145564,-0.4510291518531116,1.115760207316959,0.28199994554122776,-0.10575067365427888
12268,3.0,301.18098,3807.8391,0.0,0.0,0.0,0.12441155057130038,0.0,0.0,-0.25627404225977873,-0.42190213275599864,-0.4793118397743955,1.087298012007959,0.28775179145639074,-0.08812581941959122
12269,3.0,301.08024,4138.8719,0.0,0.0,0.0,0.12442169171497264,0.0,0.0,-0.3298016300763867,-0.4356670847019936,-0.4926450053227765,1.062082472669379,0.24893590265056073,-0.1185636163363179
12270,3.0,300.30461,4116.2778,0.0,0.0,0.0,0.1244318328586449,0.0,0.0,-0.28691536363134174,-0.45704708737703553,-0.5072832268674565,1.075555152624029,0.29891156593777474,-0.10543061834519189
12271,3.0,300.36,3855.0295,0.0,0.0,0.0,0.12444197400231717,0.0,0.0,-0.25269642840919576,-0.4453036403080476,-0.4738326290636396,1.089225618998199,0.2937184362602527,-0.12327018331581988
12272,3.0,299.96243,3690.7011,0.0,0.0,0.0,0.12445211514598942,0.0,0.0,-0.2015157169105528,-0.43058439928537157,-0.4897808613976075,1.1020321883371091,0.3015484378655137,-0.09851003910218391
12273,3.0,299.65929,3619.6128,0.0,0.0,0.0,0.12446225628966169,0.0,0.0,-0.21660837099258182,-0.4110321478032146,-0.4726313805400856,1.0874867805015889,0.25438015623286675,-0.1004109631642905
12274,3.0,298.87724,3858.9443,0.0,0.0,0.0,0.12447239743333394,0.0,0.0,-0.25096947533625874,-0.44137298985762263,-0.48068025429944755,1.108361961711809,0.2639146471563477,-0.08679649101714672
12275,3.0,299.39216,3811.3191,0.0,0.0,0.0,0.12448253857700621,0.0,0.0,-0.25585490122341276,-0.41724453615382956,-0.48544641051733056,1.112484572393679,0.2912598355551077,-0.08334505821476682
12276,3.0,299.6359,3558.3938,0.0,0.0,0.0,0.12449267972067847,0.0,0.0,-0.18663705111714282,-0.4270325422523306,-0.4679932687373396,1.1069428036217488,0.28661762008945674,-0.09753819344102022
12277,3.0,300.14415,3671.4168,0.0,0.0,0.0,0.12450282086435073,0.0,0.0,-0.21339786778572978,-0.43031473290375755,-0.4723064312330155,1.1082396624247388,0.28058887318696574,-0.10461240875694089
12278,3.0,299.68834,4051.4549,0.0,0.0,0.0,0.12451296200802299,0.0,0.0,-0.25969327498723077,-0.4275883504621846,-0.5442595094542315,1.078369454776779,0.2873779021694907,-0.08588392859283382
12279,3.0,300.26815,3953.3613,0.0,0.0,0.0,0.12452310315169525,0.0,0.0,-0.24636709073203877,-0.4472423525193836,-0.5081136866494166,1.101159374700969,0.2774866965483047,-0.11703634446058789
12280,3.0,300.33059,3404.9963,0.0,0.0,0.0,0.12453324429536751,0.0,0.0,-0.24859791281470378,-0.36995709630942264,-0.4164788534507626,1.082690662478249,0.2839768978113377,-0.1205334251932229
12281,3.0,301.04579,3535.2112,0.0,0.0,0.0,0.12454338543903978,0.0,0.0,-0.2287665919900048,-0.4060465216136716,-0.43980282710515956,1.0841826732504989,0.2906835394282317,-0.13082019352094787
12282,3.0,301.50525,3799.1464,0.0,0.0,0.0,0.12455352658271203,0.0,0.0,-0.26631778255101873,-0.42416141703397253,-0.46436645146190053,1.071139611338249,0.3058838209358827,-0.1208984992042529
12283,3.0,301.06638,3966.2279,0.0,0.0,0.0,0.1245636677263843,0.0,0.0,-0.25037723065280876,-0.45742605304693656,-0.4978309510570895,1.080893663425899,0.3178185493587487,-0.1084508737132679
12284,3.0,300.90949,3824.4268,0.0,0.0,0.0,0.12457380887005655,0.0,0.0,-0.2259158938936628,-0.43945920359874663,-0.4971551639028945,1.1049463969497189,0.29368067242902574,-0.11213990454484689
12285,3.0,300.71004,3613.2633,0.0,0.0,0.0,0.12458395001372882,0.0,0.0,-0.19141483944617382,-0.4184593622287236,-0.4884676284730015,1.106540543332049,0.24842021914466675,-0.07400033687601462
12286,3.0,300.17167,3699.9921,0.0,0.0,0.0,0.12459409115740108,0.0,0.0,-0.2241134030257708,-0.43395495547801954,-0.4666368409609706,1.1153991863063288,0.22667414947349682,-0.094092158221923
12287,3.0,299.60434,4068.159,0.0,0.0,0.0,0.12460423230107334,0.0,0.0,-0.26755790948090974,-0.4528922350769836,-0.5161685993793745,1.1179997940129889,0.25181517439972273,-0.09973402394473181
12288,3.0,299.73017999999996,3947.5846,0.0,0.0,0.0,0.1246143734447456,0.0,0.0,-0.2585326881901897,-0.4578451028907935,-0.4835893561315535,1.091597840132319,0.2756887551733618,-0.1263257301848789
12289,3.0,299.41556,3441.7222,0.0,0.0,0.0,0.12462451458841786,0.0,0.0,-0.2218776261501168,-0.3823107833836366,-0.44200920959541257,1.095714472638599,0.3015822500213507,-0.0947562261254614
12290,3.0,299.82728,3487.5058,0.0,0.0,0.0,0.12463465573209012,0.0,0.0,-0.18769845086189482,-0.41001361867019365,-0.4624026106480846,1.068218613949969,0.29187368273068975,-0.13674071518025785
12291,3.0,299.35571,3961.2545,0.0,0.0,0.0,0.1246447968757624,0.0,0.0,-0.2865078344411217,-0.43535764825395457,-0.4822569626475565,1.078840818723299,0.32385397357939866,-0.08245149828282931
12292,3.0,299.91343,4138.1853,0.0,0.0,0.0,0.12465493801943464,0.0,0.0,-0.3023357838557187,-0.44078692599978253,-0.5147822908575564,1.077251333291429,0.28000289038913373,-0.11660157910767989
12293,3.0,300.48552,3899.5858,0.0,0.0,0.0,0.12466507916310691,0.0,0.0,-0.25572498229559076,-0.4333722961405156,-0.4962794219739655,1.0887477702510389,0.2847295095881147,-0.09838906210649441
12294,3.0,300.68397999999996,3515.3452,0.0,0.0,0.0,0.12467522030677916,0.0,0.0,-0.19986126188227082,-0.4078338137300636,-0.4608820667530186,1.1113289606546288,0.25166715882511476,-0.10719604452442591
12295,3.0,300.64862,3623.1734,0.0,0.0,0.0,0.12468536145045143,0.0,0.0,-0.2021314689963228,-0.4373925381647826,-0.46183024593159655,1.105871696941039,0.3086588495147567,-0.1068110905464339
12296,3.0,300.19142,3944.0628,0.0,0.0,0.0,0.1246955025941237,0.0,0.0,-0.23547166306924378,-0.46568373738690655,-0.4977411973632315,1.104669779672419,0.2746023180186387,-0.10672641323557691
12297,3.0,299.7437,3977.7342,0.0,0.0,0.0,0.12470564373779595,0.0,0.0,-0.2944739864623197,-0.4231956174361556,-0.49146228914355156,1.097618166926479,0.28263559785896175,-0.08250956764606032
12298,3.0,300.08493,3521.0303,0.0,0.0,0.0,0.12471578488146821,0.0,0.0,-0.21730783780161378,-0.4082716492307746,-0.4447258141735206,1.1103439802324189,0.25631847327666374,-0.07591126070335813
12299,3.0,299.44597999999996,3327.1935,0.0,0.0,0.0,0.12472592602514047,0.0,0.0,-0.16436430417649384,-0.41153287573763264,-0.43548657419667863,1.111326630179399,0.2897409533902057,-0.12593405835872387
12300,3.0,299.08367000000004,3834.7595,0.0,0.0,0.0,0.12473606716881273,0.0,0.0,-0.23932944057247676,-0.4210455513864606,-0.5052961623613486,1.113652647108959,0.27404516218615177,-0.09170025166486022
12301,3.0,299.51375,4222.4544,0.0,0.0,0.0,0.12474620831248501,0.0,0.0,-0.3023638711484907,-0.4392420944998196,-0.5419147271328194,1.0557480383442188,0.2844992586353907,-0.12360195179606287
12302,3.0,299.46783999999997,3748.4138,0.0,0.0,0.0,0.12475634945615725,0.0,0.0,-0.22876837531018077,-0.4143004163982676,-0.4963554055989645,1.085454099475979,0.26488005158662575,-0.1004816961272713
12303,3.0,300.68727,3335.4426,0.0,0.0,0.0,0.12476649059982953,0.0,0.0,-0.2175214917176998,-0.38303021121963865,-0.4133395614609386,1.073569689053079,0.29987711222306673,-0.10798122215941691
12304,3.0,299.82515,3529.7091,0.0,0.0,0.0,0.12477663174350177,0.0,0.0,-0.18551690313159283,-0.41830571298355956,-0.46912081344861956,1.1029199980747288,0.2787460752300957,-0.09290067236308251
12305,3.0,299.46535,3783.3984,0.0,0.0,0.0,0.12478677288717405,0.0,0.0,-0.2450552054300658,-0.4104844962566656,-0.49451896072022156,1.111409716687599,0.27165788415554576,-0.09894705792331432
12306,3.0,300.03983999999997,3886.1731,0.0,0.0,0.0,0.12479691403084632,0.0,0.0,-0.23573317278755276,-0.4421800840922766,-0.5033863277778625,1.1160972143002188,0.2557388942194637,-0.0921617232506539
12307,3.0,300.16494,3561.0979,0.0,0.0,0.0,0.12480705517451857,0.0,0.0,-0.2028959763292738,-0.4147575644458846,-0.4648313204752796,1.1041690314729988,0.3028322662722177,-0.1195276731439629
12308,3.0,300.09317999999996,3515.8111,0.0,0.0,0.0,0.12481719631819084,0.0,0.0,-0.19266970916501983,-0.4204991562700356,-0.45554990902927556,1.118197681757519,0.27490967730397275,-0.1049905840917639
12309,3.0,300.47662,3964.7967,0.0,0.0,0.0,0.12482733746186309,0.0,0.0,-0.30253078383746373,-0.44036217155786256,-0.46230624043107355,1.074632284432949,0.2934176327030657,-0.08134395006227284
12310,3.0,300.07046,4265.3293,0.0,0.0,0.0,0.12483747860553536,0.0,0.0,-0.2979184085872577,-0.4463558498743926,-0.5522793333332264,1.0946543090589689,0.2691383263243848,-0.08820850772050191
12311,3.0,299.96497999999997,3839.4937,0.0,0.0,0.0,0.12484761974920762,0.0,0.0,-0.23929744213431878,-0.4311899378101336,-0.4966228428303585,1.0728213025292188,0.3035828616812957,-0.1037231602041789
12312,3.0,299.83924,3435.2126,0.0,0.0,0.0,0.12485776089287988,0.0,0.0,-0.16056161708119784,-0.4247742509594546,-0.45888298510072456,1.085603959165769,0.27042253976612673,-0.12413917699908289
12313,3.0,298.91393,3743.6489,0.0,0.0,0.0,0.12486790203655214,0.0,0.0,-0.22611381203569578,-0.4053873922911206,-0.5064745722276486,1.086156180470269,0.28864297531684374,-0.1012764611347085
12314,3.0,298.09713,3999.5877,0.0,0.0,0.0,0.1248780431802244,0.0,0.0,-0.2979308107684817,-0.4236141809199646,-0.49422978927418254,1.1024534977286888,0.2876047182043757,-0.08984596041210591
12315,3.0,298.64041000000003,3761.2261,0.0,0.0,0.0,0.12488818432389666,0.0,0.0,-0.2456406005428398,-0.4424455353534746,-0.4552326806879676,1.0962684164682688,0.32259916465555866,-0.09186206263957973
12316,3.0,299.44021000000004,3474.8259999999996,0.0,0.0,0.0,0.12489832546756893,0.0,0.0,-0.2033785569544008,-0.41113627951599163,-0.44174550112438654,1.1208065981149988,0.2884957399448127,-0.1069551747106539
12317,3.0,299.90974,3597.8259,0.0,0.0,0.0,0.12490846661124118,0.0,0.0,-0.2063304179407268,-0.4324450000464986,-0.4548738077675496,1.113612725055019,0.3034503589657187,-0.08788060377614032
12318,3.0,300.42152000000004,3859.7186,0.0,0.0,0.0,0.12491860775491345,0.0,0.0,-0.24391967630799774,-0.4331194497105616,-0.49621896134049853,1.1062639260547489,0.26896530373730876,-0.1125874773790189
12319,3.0,299.96907999999996,4074.9846,0.0,0.0,0.0,0.1249287488985857,0.0,0.0,-0.26317556226840577,-0.45250801063906354,-0.5230099931270675,1.097358065625809,0.2790896683390057,-0.11263242515345488
12320,3.0,299.36227,3805.1445,0.0,0.0,0.0,0.12493889004225797,0.0,0.0,-0.25998998501401377,-0.4275053044839886,-0.46917361391133056,1.098914417779409,0.2369145717416478,-0.1044043885114109
12321,3.0,300.57748,3515.5323,0.0,0.0,0.0,0.12494903118593023,0.0,0.0,-0.21255993021803177,-0.39674300105048566,-0.45933111522245157,1.108527830753179,0.2855026700769197,-0.08526572342857172
12322,3.0,300.26114,3598.9817,0.0,0.0,0.0,0.12495917232960249,0.0,0.0,-0.23489369507970276,-0.4093904191961886,-0.4497164559510585,1.1107322576707388,0.2969451717337067,-0.11138386798273191
12323,3.0,300.35017,4154.4553,0.0,0.0,0.0,0.12496931347327475,0.0,0.0,-0.27463144895901376,-0.4740689392519616,-0.5141502862401824,1.1000192656884489,0.33085983808332364,-0.08385062543166243
12324,3.0,300.28249,4012.7364,0.0,0.0,0.0,0.12497945461694701,0.0,0.0,-0.23891504154657878,-0.4487033375735716,-0.5321532783194395,1.069716298922779,0.2921908198794887,-0.1104471689277869
12325,3.0,299.24065,3576.1829,0.0,0.0,0.0,0.12498959576061927,0.0,0.0,-0.2100411627219488,-0.4028970160628396,-0.47413212552819756,1.079926617530459,0.29424856871257277,-0.08318270008499332
12326,3.0,299.25757000000004,3594.5908,0.0,0.0,0.0,0.12499973690429154,0.0,0.0,-0.25591536185687974,-0.4038562700650106,-0.4328942143458326,1.098831837896259,0.27859441195512774,-0.09795949776634971
12327,3.0,300.23874,3910.2947,0.0,0.0,0.0,0.1250098780479638,0.0,0.0,-0.26313469789187277,-0.4407552416691556,-0.4847420193128125,1.0886378326151889,0.3015533217309957,-0.08349721595578362
12328,3.0,298.83591,3963.9691,0.0,0.0,0.0,0.12502001919163605,0.0,0.0,-0.26752328672499276,-0.44793415915765955,-0.4894901700764185,1.1150444474463188,0.26181439248156874,-0.11729584794369888
12329,3.0,299.26704,3968.8433,0.0,0.0,0.0,0.1250301603353083,0.0,0.0,-0.23973836804783477,-0.4516785337097005,-0.5150123594252626,1.109838571082539,0.28675962709097175,-0.08725573851897092
12330,3.0,299.29655,3666.3832,0.0,0.0,0.0,0.12504030147898057,0.0,0.0,-0.19358930455827683,-0.4225438544418316,-0.49835577407888554,1.122739068705719,0.27113029496097674,-0.11843799358891989
12331,3.0,299.49111,3528.5592,0.0,0.0,0.0,0.12505044262265283,0.0,0.0,-0.20091598430886382,-0.41440840859392564,-0.45726948564148456,1.133517313994449,0.2745530740637787,-0.09536704165674423
12332,3.0,299.81671,3869.9133,0.0,0.0,0.0,0.1250605837663251,0.0,0.0,-0.27287695574835874,-0.4056921981862026,-0.4977878473978355,1.0879571311980092,0.24688114290527177,-0.09432987378813372
12333,3.0,300.57176,3997.9917,0.0,0.0,0.0,0.12507072490999738,0.0,0.0,-0.2765698267978167,-0.4184179506971366,-0.5203018491872945,1.1005475742905888,0.26894563655286774,-0.0996539640145805
12334,3.0,300.60745,3568.8942,0.0,0.0,0.0,0.1250808660536696,0.0,0.0,-0.2248206819930738,-0.4126555365834306,-0.44737851306782156,1.0870587836593488,0.3040187112118107,-0.1147550726554439
12335,3.0,300.56217999999996,3446.8252,0.0,0.0,0.0,0.1250910071973419,0.0,0.0,-0.17956054281624584,-0.40287283991545364,-0.4653154007105546,1.0663233296379189,0.3147786572037347,-0.11821315339172989
12336,3.0,300.11067,3914.9061,0.0,0.0,0.0,0.12510114834101413,0.0,0.0,-0.2206721827711488,-0.45766054951757956,-0.5117009466409514,1.076754739417419,0.28669371517196673,-0.0905896728132546
12337,3.0,300.3289,4107.9218,0.0,0.0,0.0,0.12511128948468642,0.0,0.0,-0.27887195129001874,-0.44222273178898563,-0.5276109591811475,1.078228410362859,0.26869599199322974,-0.07406527506167353
12338,3.0,300.59656,3956.4081,0.0,0.0,0.0,0.12512143062835865,0.0,0.0,-0.27226493242295674,-0.4633235637964756,-0.4670607544053076,1.133489348291689,0.27146134403364874,-0.10059428442538292
12339,3.0,300.22386,3868.6722,0.0,0.0,0.0,0.12513157177203094,0.0,0.0,-0.24215455410379375,-0.44440083446894757,-0.4894243493499225,1.126042061381699,0.27294064864964473,-0.10666869850988091
12340,3.0,299.44309,3914.8014,0.0,0.0,0.0,0.12514171291570317,0.0,0.0,-0.24829034074684878,-0.4275593208468196,-0.5141522215478735,1.113455468639499,0.2782864649847357,-0.10256227956460891
12341,3.0,298.97792999999996,4017.9770000000003,0.0,0.0,0.0,0.12515185405937546,0.0,0.0,-0.23432285023836477,-0.4431941447923566,-0.5438477043485895,1.088193623771349,0.2788951040548037,-0.08385428529102362
12342,3.0,299.59331000000003,4080.5240000000003,0.0,0.0,0.0,0.12516199520304772,0.0,0.0,-0.2640366728658908,-0.4449799474311016,-0.5313607850187265,1.091195579842619,0.30683993386274366,-0.08342550925945673
12343,3.0,300.18494,3590.0368,0.0,0.0,0.0,0.12517213634671998,0.0,0.0,-0.2364167721000188,-0.37393105306912167,-0.4809337289444635,1.091214730269509,0.28891145619584074,-0.06540126527260234
12344,3.0,300.00275,3335.6225,0.0,0.0,0.0,0.12518227749039224,0.0,0.0,-0.19993694153223981,-0.3754580209698216,-0.43855097687161154,1.0854879420293189,0.25568396593154274,-0.1029423496771189
12345,3.0,300.18618,3839.1695,0.0,0.0,0.0,0.1251924186340645,0.0,0.0,-0.25321384457276075,-0.4231009900093166,-0.4906968293555065,1.080811792817819,0.26031259371335275,-0.092196650994851
12346,3.0,300.22235,4222.7078,0.0,0.0,0.0,0.12520255977773675,0.0,0.0,-0.30245573240255674,-0.4908488574005105,-0.49029314038316557,1.090718136395499,0.2858611579622997,-0.14407781114187287
12347,3.0,300.50832,3902.2048,0.0,0.0,0.0,0.12521270092140901,0.0,0.0,-0.2229028629987998,-0.4760446452244486,-0.4872253027903935,1.096943848984929,0.3039652825340377,-0.12062352339211488
12348,3.0,300.25652,3403.3768,0.0,0.0,0.0,0.12522284206508127,0.0,0.0,-0.2000641652147958,-0.4004888042851676,-0.4339886055138406,1.0935035609203991,0.2915703561807537,-0.12790339098808187
12349,3.0,299.85715,3633.8345,0.0,0.0,0.0,0.12523298320875353,0.0,0.0,-0.2256452041294478,-0.4264453030243746,-0.45250445413121254,1.116985834637919,0.26668098204936375,-0.07392044717188014
12350,3.0,298.65786,3943.4307,0.0,0.0,0.0,0.1252431243524258,0.0,0.0,-0.26138707451689575,-0.44814005157797954,-0.4891773595055465,1.1269073769670988,0.2949144462807897,-0.12354117705506489
12351,3.0,299.38923,4003.2269,0.0,0.0,0.0,0.12525326549609805,0.0,0.0,-0.2506353054532788,-0.44863915831223755,-0.5176065633912905,1.1417055907025688,0.24211731716261878,-0.10123261374988109
12352,3.0,298.87816000000004,3613.3721,0.0,0.0,0.0,0.1252634066397703,0.0,0.0,-0.2059090680191428,-0.4052021600403396,-0.4872636644391795,1.105585352462779,0.25611590431667175,-0.10767264697396291
12353,3.0,299.4185,3372.1908,0.0,0.0,0.0,0.12527354778344257,0.0,0.0,-0.15217065995557486,-0.4002878159953316,-0.4726033337773175,1.096865828727229,0.25945494843120975,-0.09670036226458271
12354,3.0,300.33249,3756.7545,0.0,0.0,0.0,0.12528368892711483,0.0,0.0,-0.2536580331515988,-0.43382872478056156,-0.4544728140404745,1.0810024864866388,0.3211760346251067,-0.1059808435469949
12355,3.0,299.96639,4164.7921,0.0,0.0,0.0,0.1252938300707871,0.0,0.0,-0.3101253162519857,-0.4581329064491975,-0.4977345909725795,1.088599025136359,0.3009522516391747,-0.0901721023145436
12356,3.0,299.9443,3832.665,0.0,0.0,0.0,0.12530397121445935,0.0,0.0,-0.2909190896789787,-0.4054698505842586,-0.4686455180917115,1.0692035943721792,0.3052899550522727,-0.1079682930881409
12357,3.0,300.36951,3434.2341,0.0,0.0,0.0,0.1253141123581316,0.0,0.0,-0.2064526463002898,-0.3947301898593366,-0.4427385774148956,1.109008111300579,0.2877123658949997,-0.10144854545219191
12358,3.0,300.78841,3615.6445,0.0,0.0,0.0,0.12532425350180387,0.0,0.0,-0.23572489453423578,-0.4238465495653976,-0.4394942012572005,1.089023678253269,0.3076381722915237,-0.13385015582498186
12359,3.0,300.72251,4088.8958,0.0,0.0,0.0,0.12533439464547613,0.0,0.0,-0.24731088253768377,-0.4494419462339666,-0.5461694048327235,1.116937502608149,0.2875977977061927,-0.09562153664461091
12360,3.0,300.27586,4085.364,0.0,0.0,0.0,0.1253445357891484,0.0,0.0,-0.3058187094844567,-0.44236274268780357,-0.4936671922886585,1.071650897338709,0.2689677558025507,-0.08077748752761733
12361,3.0,299.21331000000004,3683.2326,0.0,0.0,0.0,0.12535467693282068,0.0,0.0,-0.22527803269071078,-0.42550824933189463,-0.46882444792687056,1.1195288897388989,0.27063523109461773,-0.06299951296431784
12362,3.0,300.55027,3662.4328,0.0,0.0,0.0,0.1253648180764929,0.0,0.0,-0.23582942141455177,-0.41993711657206656,-0.4575215822663645,1.1044000524957989,0.3010072305896007,-0.0944988930240646
12363,3.0,300.27836,3908.9949,0.0,0.0,0.0,0.1253749592201652,0.0,0.0,-0.21511373590257282,-0.45403672132993556,-0.5190863948973385,1.114718890189189,0.2909911216285877,-0.10630952161443288
12364,3.0,299.58702,4106.016,0.0,0.0,0.0,0.12538510036383743,0.0,0.0,-0.25502153341366574,-0.4418469983869036,-0.5512578252449115,1.0713826900372387,0.26397957622275575,-0.10614175779537591
12365,3.0,299.67835,3894.0729,0.0,0.0,0.0,0.12539524150750972,0.0,0.0,-0.21954046346945683,-0.42466067575574556,-0.5394997975069845,1.0860641773611888,0.26317998003884174,-0.1217090080917439
12366,3.0,298.90522000000004,3394.9533,0.0,0.0,0.0,0.12540538265118198,0.0,0.0,-0.2156494108329398,-0.39457162635118764,-0.42176000416447157,1.0742798760481689,0.3042913058862137,-0.11869117439140688
12367,3.0,299.8627,3573.1121,0.0,0.0,0.0,0.12541552379485424,0.0,0.0,-0.2229528871562368,-0.4206736480697566,-0.44251031243236755,1.100853879795819,0.2966030275724397,-0.13206003674081088
12368,3.0,300.54769,3920.5978,0.0,0.0,0.0,0.12542566493852647,0.0,0.0,-0.26797836774240574,-0.4275743372133016,-0.4962111390497266,1.0888308567592389,0.30544456688503174,-0.08461885037923032
12369,3.0,300.66857999999996,3911.2517,0.0,0.0,0.0,0.12543580608219876,0.0,0.0,-0.24668280933069778,-0.44189484405662555,-0.5003451994577266,1.104722063377579,0.27883872681923977,-0.11413487240173491
12370,3.0,299.53403,3713.7884,0.0,0.0,0.0,0.12544594722587102,0.0,0.0,-0.2022553996160538,-0.4212117750653656,-0.5054317656222316,1.1237986243352889,0.2940961961625347,-0.10643011864133489
12371,3.0,300.99885,3706.2994,0.0,0.0,0.0,0.12545608836954328,0.0,0.0,-0.2145774530221458,-0.4411130202794656,-0.47093198786986856,1.110411969314129,0.26019629286687473,-0.13688271204927188
12372,3.0,300.29438999999996,3886.2407,0.0,0.0,0.0,0.12546622951321557,0.0,0.0,-0.26492985282904075,-0.4261519975179276,-0.4902382830227515,1.103763630107989,0.2580595003934898,-0.05722278973269964
12373,3.0,300.97181,4129.0848,0.0,0.0,0.0,0.1254763706568878,0.0,0.0,-0.29008393854905573,-0.4429313077164166,-0.5221234195545695,1.095844675276449,0.2656046368656368,-0.08747966983082123
12374,3.0,299.30908999999997,4140.8552,0.0,0.0,0.0,0.12548651180056006,0.0,0.0,-0.27818967933518374,-0.4742135503062336,-0.5063133641367384,1.089626562062769,0.3071685308701737,-0.0853154628627306
12375,3.0,299.18081,3634.9809,0.0,0.0,0.0,0.12549665294423232,0.0,0.0,-0.2154069096865068,-0.40089935296068563,-0.48863714521473156,1.099772843264129,0.2921385057768257,-0.0892447758230236
12376,3.0,299.48062999999996,3470.067,0.0,0.0,0.0,0.1255067940879046,0.0,0.0,-0.16778818772190485,-0.39837026044608365,-0.48865528239152156,1.093594044154329,0.28025945544695474,-0.0946295262932071
12377,3.0,300.22624,3892.4579,0.0,0.0,0.0,0.12551693523157686,0.0,0.0,-0.2669688058727698,-0.4170788393649766,-0.49916237182099055,1.089918884716619,0.25823951440625575,-0.09568876376224571
12378,3.0,300.29714,4228.6446,0.0,0.0,0.0,0.1255270763752491,0.0,0.0,-0.34293999829304267,-0.4303775949399615,-0.5120847556463305,1.0962343712649092,0.29023583487154675,-0.1008638363097356
12379,3.0,299.34552,3732.0368,0.0,0.0,0.0,0.12553721751892136,0.0,0.0,-0.24939961655882575,-0.44454142292032256,-0.44050494862945355,1.098268774815689,0.30072939741218074,-0.14025463612955488
12380,3.0,299.41681,3554.5807,0.0,0.0,0.0,0.12554735866259364,0.0,0.0,-0.21660035618429077,-0.43099765333865664,-0.43290575526447156,1.1175413996677488,0.2889124491809387,-0.11043382442396989
12381,3.0,300.99102999999997,3959.9689,0.0,0.0,0.0,0.1255574998062659,0.0,0.0,-0.22398389953048978,-0.4799498934948666,-0.4997978518862075,1.098523911190869,0.2921112797466387,-0.12417532976265089
12382,3.0,301.04034,4093.9053,0.0,0.0,0.0,0.12556764094993816,0.0,0.0,-0.22698599745677378,-0.4987980982775395,-0.5186608805178434,1.0964432021105188,0.2857323029470827,-0.10936873644885388
12383,3.0,300.34118,3737.1535,0.0,0.0,0.0,0.1255777820936104,0.0,0.0,-0.2194801142935008,-0.4442145991005676,-0.47230664401553657,1.1034199356740688,0.25564096359729876,-0.13026264252092187
12384,3.0,299.93584,3520.5274,0.0,0.0,0.0,0.12558792323728268,0.0,0.0,-0.22288312488685177,-0.4106042320209826,-0.43666506512298664,1.099261354613649,0.24614689122030675,-0.09313391037710132
12385,3.0,300.47562999999997,3623.8844,0.0,0.0,0.0,0.12559806438095494,0.0,0.0,-0.20071829921435383,-0.4412523826982196,-0.45959968729395756,1.1100015016986189,0.24854036020902376,-0.11838774651646088
12386,3.0,300.17499,3919.6844,0.0,0.0,0.0,0.1256082055246272,0.0,0.0,-0.29384539649778274,-0.4160352525569826,-0.4816055441582665,1.112685094588469,0.3012886912023787,-0.09524175328187921
12387,3.0,299.9608,4129.8403,0.0,0.0,0.0,0.12561834666829946,0.0,0.0,-0.25758927128708176,-0.4671153685856976,-0.5306636689499264,1.1011946358044489,0.3165484910209037,-0.11340732843243188
12388,3.0,299.40207000000004,3742.9198,0.0,0.0,0.0,0.1256284878119717,0.0,0.0,-0.24945666253945575,-0.41221652571260364,-0.47608098037303453,1.087894411016819,0.30301484380773674,-0.09073194123329542
12389,3.0,299.83441,3769.7613,0.0,0.0,0.0,0.12563862895564398,0.0,0.0,-0.23651612127232377,-0.4261996912001346,-0.48319748165537857,1.090194792718849,0.3070027834188157,-0.08841073116220982
12390,3.0,299.92400000000004,4219.7237,0.0,0.0,0.0,0.12564877009931624,0.0,0.0,-0.3131407688145877,-0.4647496423847185,-0.5048002169674025,1.091348884582749,0.28669668399475967,-0.09186066638094191
12391,3.0,300.69766,4285.3122,0.0,0.0,0.0,0.1256589112429885,0.0,0.0,-0.3002288721277827,-0.4641657468820926,-0.5382332956769905,1.103959187377289,0.2866517868828287,-0.08535482560261543
12392,3.0,300.08457000000004,3729.0401,0.0,0.0,0.0,0.1256690523866608,0.0,0.0,-0.23426875281552578,-0.4313478427057176,-0.4679184706149575,1.1003393513950388,0.27158337987569275,-0.1026068119065039
12393,3.0,299.22078999999997,3528.0687,0.0,0.0,0.0,0.12567919353033302,0.0,0.0,-0.15821912470501184,-0.4291021866415886,-0.4851234877104605,1.1396988488795188,0.2861117955070357,-0.09424820279032341
12394,3.0,299.62379,3864.8469,0.0,0.0,0.0,0.12568933467400528,0.0,0.0,-0.23548471373053176,-0.43601983759180757,-0.5033123909180655,1.109935437792099,0.2881308584513017,-0.09349970886195282
12395,3.0,300.55776000000003,3870.6059,0.0,0.0,0.0,0.12569947581767754,0.0,0.0,-0.24604191850994678,-0.43682243299601764,-0.49370320319721256,1.093283786973709,0.2898722503381637,-0.09231811131083822
12396,3.0,299.68907,3741.8766,0.0,0.0,0.0,0.12570961696134983,0.0,0.0,-0.2324385495573988,-0.4174955891311066,-0.4875029029202905,1.0843279733148388,0.25379328177494676,-0.09372514282370141
12397,3.0,299.93106,3708.2775,0.0,0.0,0.0,0.1257197581050221,0.0,0.0,-0.21126710415043978,-0.4312080952519256,-0.4847485750409595,1.077164497757859,0.28058487084907074,-0.1113896941708069
12398,3.0,298.87216,3653.357,0.0,0.0,0.0,0.12572989924869432,0.0,0.0,-0.2122240276773808,-0.42487615352201163,-0.4734291224763165,1.105074471762359,0.2932718462786777,-0.1113965133439799
12399,3.0,298.86452,3943.0179,0.0,0.0,0.0,0.12574004039236658,0.0,0.0,-0.23601859520822177,-0.44726764324187956,-0.5152927358604334,1.088489594125559,0.3130256028082217,-0.13414438338901988
12400,3.0,300.32991,4131.5511,0.0,0.0,0.0,0.12575018153603887,0.0,0.0,-0.28150232828461674,-0.44834679512838355,-0.5260392461560315,1.084440342750929,0.29111115123543374,-0.07744778861875164
12401,3.0,300.30138999999997,3583.6775,0.0,0.0,0.0,0.12576032267971113,0.0,0.0,-0.19816641870500282,-0.41993082428894557,-0.4712512224463745,1.102790403386939,0.3012143186450387,-0.11965641670166888
12402,3.0,300.14928,3376.8223,0.0,0.0,0.0,0.1257704638233834,0.0,0.0,-0.18624289682824283,-0.39430940735780867,-0.44591734562861557,1.139323743692499,0.2949753426117997,-0.08797912714961381
12403,3.0,299.69153,3773.1467,0.0,0.0,0.0,0.12578060496705562,0.0,0.0,-0.23322508494752375,-0.4488728239177986,-0.46484446232907656,1.132589784852909,0.27902267224239374,-0.11744019555294488
12404,3.0,299.7261,3937.8031,0.0,0.0,0.0,0.1257907461107279,0.0,0.0,-0.27021961616859974,-0.4097504066917166,-0.5170237925962755,1.104636747719159,0.2508646748784158,-0.07931356708788963
12405,3.0,301.17578,3911.8591,0.0,0.0,0.0,0.12580088725440017,0.0,0.0,-0.2336185806238588,-0.4476931373563726,-0.5077957692980406,1.079499431288299,0.28367697578173773,-0.11450883261614189
12406,3.0,301.64807,3951.7470000000003,0.0,0.0,0.0,0.12581102839807243,0.0,0.0,-0.2865775764455047,-0.4201347611365726,-0.49452008542783255,1.090807505054319,0.2966624648233057,-0.07706942177965972
12407,3.0,301.58391,4042.2738,0.0,0.0,0.0,0.12582116954174472,0.0,0.0,-0.29733995423766874,-0.41534946462430056,-0.5160608807612435,1.072473859069929,0.3099663677087987,-0.09003979920923631
12408,3.0,301.60897,4200.745,0.0,0.0,0.0,0.12583131068541695,0.0,0.0,-0.3084947029985567,-0.4328057272145996,-0.5356211571841925,1.090504137974379,0.2609679537455317,-0.06225058435165434
12409,3.0,301.48577,4172.7285,0.0,0.0,0.0,0.1258414518290892,0.0,0.0,-0.2927352999532247,-0.4454880416937466,-0.5301819394548836,1.100430645229049,0.27856558498978273,-0.08787469146180682
12410,3.0,301.27096,3920.6357,0.0,0.0,0.0,0.12585159297276147,0.0,0.0,-0.24622457710547377,-0.43895907348188756,-0.5065916938067075,1.154599502200099,0.2797286441170677,-0.0948529925232615
12411,3.0,300.84576,3538.8303,0.0,0.0,0.0,0.12586173411643373,0.0,0.0,-0.19375238716187182,-0.43237490340458057,-0.4495887459084546,1.1051418528940091,0.2767948899100287,-0.15585814051450086
12412,3.0,299.3892,3589.7821,0.0,0.0,0.0,0.12587187526010601,0.0,0.0,-0.22761735359408378,-0.41811912297764464,-0.4454676449692335,1.1246246258168089,0.2629300517691758,-0.1103335329290719
12413,3.0,300.21108,3888.8337,0.0,0.0,0.0,0.12588201640377825,0.0,0.0,-0.22704949784054076,-0.45689067195909855,-0.49816816069036957,1.0689442023465792,0.2825903967720007,-0.11273762077883691
12414,3.0,300.91936,3797.3487,0.0,0.0,0.0,0.1258921575474505,0.0,0.0,-0.22855949380206578,-0.4636353712497486,-0.46210433008364654,1.108174105143269,0.2769392881817797,-0.0943258755032391
12415,3.0,299.8918,3629.4777,0.0,0.0,0.0,0.12590229869112277,0.0,0.0,-0.19870815287096782,-0.4393108536516056,-0.46525159635175756,1.065834639114689,0.2981065995283307,-0.12192006808757389
12416,3.0,299.86309,3966.7544,0.0,0.0,0.0,0.12591243983479505,0.0,0.0,-0.24721375238309776,-0.46875003483952654,-0.4898305005200065,1.127174165718429,0.26808378628280977,-0.1006182599492491
12417,3.0,298.74022,4032.446,0.0,0.0,0.0,0.1259225809784673,0.0,0.0,-0.2557665559471938,-0.47093149137731954,-0.49906482623386356,1.107904479291659,0.2956567431715487,-0.1256824379613909
12418,3.0,299.28249,3907.4468,0.0,0.0,0.0,0.12593272212213955,0.0,0.0,-0.30070596093736773,-0.4186052398456206,-0.4684550574704146,1.146912277666429,0.28540239884702373,-0.11093825072125289
12419,3.0,299.9094,3867.2118,0.0,0.0,0.0,0.1259428632658118,0.0,0.0,-0.23993523240976378,-0.44595768311509654,-0.4896428972639915,1.114179638485969,0.29921012007973974,-0.1103579826539849
12420,3.0,300.6509,3518.9231,0.0,0.0,0.0,0.1259530044094841,0.0,0.0,-0.23660242991584174,-0.38975341947566766,-0.44330889536618157,1.1172423895632388,0.2835032743170947,-0.07131149433739652
12421,3.0,300.12602000000004,3532.9327,0.0,0.0,0.0,0.12596314555315635,0.0,0.0,-0.18382464374207982,-0.40689288942220164,-0.4832057801736976,1.108925126117389,0.3019454495196957,-0.08858925671057892
12422,3.0,301.32981,4039.3137,0.0,0.0,0.0,0.1259732866968286,0.0,0.0,-0.27037527164896175,-0.4439047877499916,-0.5135704538704575,1.112509700996159,0.29251048002103675,-0.06973572932513063
12423,3.0,301.12155,4128.7998,0.0,0.0,0.0,0.12598342784050084,0.0,0.0,-0.26904885634055475,-0.45946481357314656,-0.5265383832877926,1.074702300014859,0.28705838388295674,-0.08877537352869723
12424,3.0,300.72351000000003,3843.3786,0.0,0.0,0.0,0.12599356898417313,0.0,0.0,-0.25630732752556373,-0.44511150782408554,-0.46687227975420653,1.0998422508959789,0.26831890083601373,-0.09063357390033731
12425,3.0,299.10353,3939.1975,0.0,0.0,0.0,0.1260037101278454,0.0,0.0,-0.2269898275421518,-0.44698458169394356,-0.5234432791348295,1.1065346664814688,0.29444677056463375,-0.07705469621595643
12426,3.0,299.47352,4131.3024,0.0,0.0,0.0,0.12601385127151765,0.0,0.0,-0.2719801280848487,-0.4791281273987646,-0.5047045154954575,1.1254740333756388,0.2892997741641647,-0.08743795027120382
12427,3.0,300.4719,4022.7101,0.0,0.0,0.0,0.12602399241518994,0.0,0.0,-0.22993431206774978,-0.44538807443888057,-0.5474810368221715,1.103869818718469,0.2947352428681037,-0.09560541076926941
12428,3.0,300.28487,3704.7607,0.0,0.0,0.0,0.12603413355886217,0.0,0.0,-0.2125403643586008,-0.4308161599807446,-0.4827982003209726,1.094456421314439,0.27174775943941576,-0.12636396011115186
12429,3.0,300.06427,3529.0258,0.0,0.0,0.0,0.12604427470253443,0.0,0.0,-0.22615244726200875,-0.3959170198339676,-0.45066624619729556,1.087677068870369,0.28910704386264374,-0.11642225410498189
12430,3.0,300.55183,3670.1678,0.0,0.0,0.0,0.1260544158462067,0.0,0.0,-0.2549597960850728,-0.4099615274825526,-0.4507180536749085,1.077206142336969,0.2686884939424898,-0.14058795488245088
12431,3.0,299.54229,3909.5036,0.0,0.0,0.0,0.12606455698987898,0.0,0.0,-0.22092769404886578,-0.4647120001435036,-0.5027517697702365,1.070829050182599,0.28979595260563373,-0.11779285725024989
12432,3.0,299.26956,4008.6916,0.0,0.0,0.0,0.1260746981335512,0.0,0.0,-0.26069081971068075,-0.4523989646633016,-0.5054523548642635,1.0857422678044188,0.2879509761610487,-0.09488776524019331
12433,3.0,299.91826000000003,3834.4932,0.0,0.0,0.0,0.12608483927722347,0.0,0.0,-0.18163533451601183,-0.4626793191178935,-0.5212755420033905,1.1055794756121988,0.33421853924980166,-0.09201836558675561
12434,3.0,300.03529,3704.8548,0.0,0.0,0.0,0.12609498042089573,0.0,0.0,-0.18832676724890482,-0.44216425712571455,-0.4956923246010235,1.1155493499711489,0.28034020134742377,-0.098240849961367
12435,3.0,299.56422000000003,3941.1601,0.0,0.0,0.0,0.12610512156456802,0.0,0.0,-0.25438417883576375,-0.4345220208964846,-0.5091080497675525,1.1261054908379589,0.2810511280150867,-0.10440208843368391
12436,3.0,299.65315,3984.5701,0.0,0.0,0.0,0.12611526270824028,0.0,0.0,-0.28056477809958774,-0.44027770702952657,-0.4903673204229866,1.115671041308159,0.2389929503467678,-0.0988827489659675
12437,3.0,299.70237000000003,3741.1358,0.0,0.0,0.0,0.12612540385191254,0.0,0.0,-0.22742698416529578,-0.4196115593149366,-0.4901733235588406,1.1096346038374092,0.26055109252189074,-0.11731366088045687
12438,3.0,299.47927999999996,3814.6468,0.0,0.0,0.0,0.12613554499558477,0.0,0.0,-0.27282282792801676,-0.4144222090602876,-0.4723123486135995,1.095486592691109,0.27431453472523676,-0.08207520252694182
12439,3.0,299.81163,3868.1258,0.0,0.0,0.0,0.12614568613925706,0.0,0.0,-0.24225370062607876,-0.4342051471927116,-0.4993548082799825,1.1191648289779688,0.2873270674119737,-0.09012215617736433
12440,3.0,299.24104,3761.4347,0.0,0.0,0.0,0.12615582728292932,0.0,0.0,-0.2538997236979518,-0.41633542789910755,-0.47314708431098157,1.125733222751219,0.2956310268840107,-0.0999411160531702
12441,3.0,299.67863,3870.8799,0.0,0.0,0.0,0.12616596842660158,0.0,0.0,-0.26511945218775274,-0.42941687172514564,-0.4821145098159975,1.114864291578539,0.29565010638339373,-0.09469910111132361
12442,3.0,300.2742,3981.0103,0.0,0.0,0.0,0.12617610957027384,0.0,0.0,-0.28129088325374874,-0.4283429482091576,-0.5004938939099015,1.121958460828679,0.26499607885557674,-0.1021457831110039
12443,3.0,300.46176,3858.7948,0.0,0.0,0.0,0.1261862507139461,0.0,0.0,-0.2531352872925077,-0.42032805885814956,-0.4995139290756865,1.102452889778629,0.2757233171342727,-0.1031947198795259
12444,3.0,301.17801000000003,3874.4445,0.0,0.0,0.0,0.12619639185761836,0.0,0.0,-0.23575021565423476,-0.4573323071476846,-0.4846518603189145,1.110388968536859,0.2902278301957567,-0.11537718795184188
12445,3.0,301.69454,3927.1125,0.0,0.0,0.0,0.12620653300129062,0.0,0.0,-0.2204017665844608,-0.45652474681798455,-0.5168176265984284,1.093345392579789,0.28765576574441376,-0.11792846051113288
12446,3.0,301.65076,3750.0313,0.0,0.0,0.0,0.12621667414496288,0.0,0.0,-0.21992030053444378,-0.4371801710763236,-0.48281540530767053,1.096093022875959,0.29863096658758176,-0.11288478522336089
12447,3.0,300.50146,3639.2981,0.0,0.0,0.0,0.12622681528863514,0.0,0.0,-0.2229891108473118,-0.4138546876792776,-0.46941196073235353,1.098015867590729,0.27245476482919173,-0.11988046656378087
12448,3.0,300.56502,3925.6557,0.0,0.0,0.0,0.1262369564323074,0.0,0.0,-0.24376150796738777,-0.4421458463713976,-0.5073939447058835,1.141538303111059,0.2777001579468717,-0.11203195287919289
12449,3.0,300.22605,3918.6568,0.0,0.0,0.0,0.12624709757597966,0.0,0.0,-0.26034022504357973,-0.4383712161713706,-0.49246237712475255,1.104641003369579,0.2768282359708198,-0.10153898815611791
12450,3.0,300.67952,3826.2619,0.0,0.0,0.0,0.12625723871965192,0.0,0.0,-0.24853026823802776,-0.4413788363106996,-0.47317895102662655,1.1252136280999387,0.2761085244247898,-0.1144773914655389
12451,3.0,299.87448,3954.3796,0.0,0.0,0.0,0.12626737986332418,0.0,0.0,-0.27227369703632176,-0.4209272848347886,-0.5088316655377756,1.097346717224689,0.2887941015692587,-0.094108826186068
12452,3.0,299.16327,3888.2786,0.0,0.0,0.0,0.12627752100699643,0.0,0.0,-0.27072774082874773,-0.42570237791855364,-0.48550947520355453,1.105943333723109,0.3097923622691257,-0.1070202051020719
12453,3.0,298.68797,3829.5336,0.0,0.0,0.0,0.1262876621506687,0.0,0.0,-0.22671677690520378,-0.4295953152002566,-0.5077705089730475,1.085989602153829,0.2929518314995947,-0.11407628628095288
12454,3.0,299.48757,4007.1853,0.0,0.0,0.0,0.12629780329434095,0.0,0.0,-0.2564694678065657,-0.4323620655258136,-0.5292527485831795,1.0777401251396688,0.29898616141013673,-0.09007459624417051
12455,3.0,299.70782,3976.653,0.0,0.0,0.0,0.12630794443801321,0.0,0.0,-0.27369100087869874,-0.4163736882228836,-0.5187385461380085,1.077721278687809,0.29375178232104376,-0.092868162233624
12456,3.0,299.72716,3692.5067,0.0,0.0,0.0,0.12631808558168547,0.0,0.0,-0.21329006810759082,-0.41945430289941665,-0.48968546390069256,1.115757370216679,0.3045901741357097,-0.08798856962729572
12457,3.0,300.84868,3726.8544,0.0,0.0,0.0,0.12632822672535776,0.0,0.0,-0.21775825786856678,-0.44154115897671964,-0.47357126120034454,1.1328193873255687,0.3086317856045857,-0.11462514359512088
12458,3.0,300.52518,3987.3996,0.0,0.0,0.0,0.12633836786903,0.0,0.0,-0.27618685879002075,-0.4527254439780226,-0.48315762039644455,1.112978227842399,0.30058509033293873,-0.07792728389732413
12459,3.0,300.46572000000003,3987.2655,0.0,0.0,0.0,0.12634850901270225,0.0,0.0,-0.2381584578294098,-0.43546939960748365,-0.5384013026760716,1.116702124609919,0.2604668610410778,-0.09785004142429721
12460,3.0,299.81221,3835.3251,0.0,0.0,0.0,0.1263586501563745,0.0,0.0,-0.22468636555981777,-0.4473447211769866,-0.4938119654629466,1.079706134308699,0.2586401433632947,-0.12135177663648788
12461,3.0,299.76622000000003,3855.3472,0.0,0.0,0.0,0.1263687913000468,0.0,0.0,-0.23425956263711875,-0.42788865752682265,-0.5097810606164735,1.107063177733629,0.24977848090371677,-0.11536018561516388
12462,3.0,299.79749,3910.485,0.0,0.0,0.0,0.12637893244371906,0.0,0.0,-0.2605759779443467,-0.4406159197804056,-0.4874978873322955,1.083031823786919,0.25977813468310573,-0.1275742366930969
12463,3.0,300.03357,3927.8387,0.0,0.0,0.0,0.1263890735873913,0.0,0.0,-0.25189776441537376,-0.4535756925344355,-0.48849142971785053,1.112907604310429,0.2715816776155247,-0.1039449201210649
12464,3.0,298.85456,3885.9656,0.0,0.0,0.0,0.12639921473106355,0.0,0.0,-0.2797932185459407,-0.41861838169941756,-0.48282489946110757,1.082977108281519,0.3099804518851887,-0.1029147082143909
12465,3.0,299.43108,3857.5219,0.0,0.0,0.0,0.12640935587473584,0.0,0.0,-0.19910246927988381,-0.4764334191553175,-0.4970544468429545,1.1396022861449888,0.3021480286121887,-0.0906429647022641
12466,3.0,299.63072,3677.3809,0.0,0.0,0.0,0.1264194970184081,0.0,0.0,-0.2161671816340398,-0.4286985179342496,-0.47296627996313756,1.084112758993599,0.3016289101884557,-0.0969574531992056
12467,3.0,298.77648,3889.8099,0.0,0.0,0.0,0.12642963816208036,0.0,0.0,-0.22980236663972778,-0.4305713283590816,-0.5220313961804874,1.1165873233735888,0.27618258287459874,-0.09559529650677122
12468,3.0,299.95543,4087.6338,0.0,0.0,0.0,0.1264397793057526,0.0,0.0,-0.2897364748247637,-0.4540912949803215,-0.4987108473114285,1.0781837260334488,0.28788127468666974,-0.0987864810872166
12469,3.0,300.16049,3718.9983,0.0,0.0,0.0,0.12644992044942488,0.0,0.0,-0.23895441644546475,-0.42426746378943864,-0.46726074971004555,1.136662644954869,0.2759241737015957,-0.11748159695203088
12470,3.0,300.34413,3710.4995,0.0,0.0,0.0,0.12646006159309714,0.0,0.0,-0.2563965948593737,-0.42132211800125563,-0.4501804839668545,1.098598891698269,0.2926402874913477,-0.1091022314075519
12471,3.0,301.06782999999996,4098.6215,0.0,0.0,0.0,0.1264702027367694,0.0,0.0,-0.24139322837615676,-0.4791684952827486,-0.5253168494972364,1.121515873184999,0.27300389572088674,-0.12039789285984688
12472,3.0,300.20061,4038.5,0.0,0.0,0.0,0.12648034388044166,0.0,0.0,-0.2827167997219757,-0.44008123783513664,-0.5048051210978866,1.0804928216863388,0.2842257520358977,-0.09471492503813532
12473,3.0,300.47373,3780.4913,0.0,0.0,0.0,0.12649048502411392,0.0,0.0,-0.1940605570472858,-0.4635233057886886,-0.49159111376126546,1.1329477661132388,0.28905446631495474,-0.12299275543843989
12474,3.0,299.76979,3620.3187,0.0,0.0,0.0,0.12650062616778618,0.0,0.0,-0.2292314610033838,-0.4110863566835646,-0.46016866775511156,1.114769957994229,0.27634120717775373,-0.05858822124945724
12475,3.0,299.0161,3643.8279,0.0,0.0,0.0,0.12651076731145844,0.0,0.0,-0.2254900654066368,-0.4180568486264986,-0.4640857913167015,1.1339714526892688,0.2682943193885877,-0.1034864143183139
12476,3.0,299.11635,4064.8207,0.0,0.0,0.0,0.1265209084551307,0.0,0.0,-0.2767141237445577,-0.47002522022287757,-0.4888646502596845,1.0950490712979288,0.2890253455070807,-0.09868671952212091
12477,3.0,299.2796,4083.0490000000004,0.0,0.0,0.0,0.12653104959880299,0.0,0.0,-0.25293020547226774,-0.46398460816171555,-0.5242301387649865,1.099488930586109,0.26553890733164975,-0.13082848190676588
12478,3.0,298.95252999999997,3824.0088,0.0,0.0,0.0,0.12654119074247522,0.0,0.0,-0.2248759243885258,-0.45162652358206756,-0.48590074172966957,1.085185081574429,0.2937917550374887,-0.11168834963778189
12479,3.0,301.03266,3717.7199,0.0,0.0,0.0,0.12655133188614748,0.0,0.0,-0.1981616361645308,-0.43108921061769256,-0.5008431612193716,1.098440216732609,0.25987482914014876,-0.12659138409609688
12480,3.0,300.47874,3928.0253,0.0,0.0,0.0,0.12656147302981974,0.0,0.0,-0.2660718870167507,-0.4348935493106516,-0.49305616194835455,1.1229792089794188,0.2838287910442207,-0.0972791428807039
12481,3.0,299.81682,4000.5820000000003,0.0,0.0,0.0,0.12657161417349203,0.0,0.0,-0.27776052738782975,-0.4542438397828766,-0.48407266629675255,1.115865180027319,0.25558138449141876,-0.12367146075292289
12482,3.0,300.55725,3835.8417,0.0,0.0,0.0,0.12658175531716429,0.0,0.0,-0.2265557106693078,-0.43372715659053757,-0.5057172285729046,1.115737814489749,0.2963299161404857,-0.09920069468834632
12483,3.0,300.7981,3719.0983,0.0,0.0,0.0,0.12659189646083652,0.0,0.0,-0.21990615556304777,-0.43072343746409353,-0.47988344455330856,1.081187201979869,0.2742428979431667,-0.10328022805546491
12484,3.0,300.62982,4031.2921,0.0,0.0,0.0,0.12660203760450878,0.0,0.0,-0.2645735535638768,-0.43167114041512455,-0.5291674430572605,1.0786052380750488,0.3203025421113997,-0.07522614962174293
12485,3.0,299.32899,4120.6426,0.0,0.0,0.0,0.12661217874818106,0.0,0.0,-0.2610942148404928,-0.4537627790328996,-0.5377154742133855,1.0841932110515389,0.29023285591625275,-0.08014701697089471
12486,3.0,299.2196,3916.423,0.0,0.0,0.0,0.12662231989185332,0.0,0.0,-0.27599582061616673,-0.4224185154044616,-0.49208045276455953,1.094787956747159,0.3094278759431537,-0.05738343141680374
12487,3.0,299.62637,3851.7743,0.0,0.0,0.0,0.12663246103552558,0.0,0.0,-0.24681197845344577,-0.41799926562331563,-0.5060319744514675,1.1195738780433389,0.25306947669851276,-0.09129444499981022
12488,3.0,300.9435,3919.7592,0.0,0.0,0.0,0.12664260217919782,0.0,0.0,-0.2419431090729258,-0.4555521989745016,-0.49401362249784847,1.116477993687799,0.27538131482801975,-0.0935214380103473
12489,3.0,300.50306,3953.1929999999998,0.0,0.0,0.0,0.1266527433228701,0.0,0.0,-0.2337662618259338,-0.4619349551969306,-0.5059707234829225,1.1221336517709688,0.2656830218933728,-0.15396545012270685
12490,3.0,299.88051,4090.3308,0.0,0.0,0.0,0.12666288446654236,0.0,0.0,-0.26848576286248177,-0.4517979047039815,-0.5230747499409585,1.0954997649424092,0.2990302073919837,-0.0941560041239741
12491,3.0,300.46609,3778.6123,0.0,0.0,0.0,0.12667302561021462,0.0,0.0,-0.2083130444113968,-0.4415549189130775,-0.4987358137938925,1.096441682235369,0.29526530439291676,-0.12395678184858187
12492,3.0,301.05374,3709.2711,0.0,0.0,0.0,0.1266831667538869,0.0,0.0,-0.25407620146786875,-0.4211953705462466,-0.4522542218865166,1.097238704764029,0.33488900684097167,-0.06899300686932963
12493,3.0,300.6582,3969.4261,0.0,0.0,0.0,0.12669330789755914,0.0,0.0,-0.2367005125255218,-0.4581772766710765,-0.5117286387661845,1.120903262174539,0.29032336954768573,-0.1135074780723159
12494,3.0,300.16808,4089.5458,0.0,0.0,0.0,0.1267034490412314,0.0,0.0,-0.25631172503099775,-0.46989327479485554,-0.5169148175480205,1.1106917276667387,0.28934808592893274,-0.0946410813973475
12495,3.0,300.42201,3842.2456,0.0,0.0,0.0,0.12671359018490366,0.0,0.0,-0.2099955563349478,-0.4466524281786625,-0.5112987471462574,1.0971670679819592,0.25737839367626975,-0.11836176678389689
12496,3.0,299.02114,3774.9491,0.0,0.0,0.0,0.12672373132857595,0.0,0.0,-0.23993492843473377,-0.42810510801318463,-0.47945022947305355,1.098947145757639,0.27210106961678476,-0.11799829370802489
12497,3.0,299.3866,3931.342,0.0,0.0,0.0,0.1267338724722482,0.0,0.0,-0.25090806224769774,-0.4481704186834766,-0.4959513214590845,1.1062563266789989,0.28323130785775374,-0.1054645115610369
12498,3.0,300.4754,3863.8302,0.0,0.0,0.0,0.12674401361592044,0.0,0.0,-0.29018772575679874,-0.41883888518617957,-0.4654812798844256,1.1037674804583688,0.2912840826300007,-0.0963745486551774
12499,3.0,300.22002000000003,3769.1303,0.0,0.0,0.0,0.1267541547595927,0.0,0.0,-0.2023536848757538,-0.44902505461282255,-0.4943427565278315,1.1309073843868689,0.2632264274234257,-0.0969236815733726
12500,3.0,300.12813,3908.3887,0.0,0.0,0.0,0.126764295903265,0.0,0.0,-0.26073435906747777,-0.42625407233300155,-0.5010641409336805,1.099014932189329,0.27632278629093576,-0.1041709458208719
12501,3.0,298.83736,4146.8825,0.0,0.0,0.0,0.12677443704693725,0.0,0.0,-0.2604909358634538,-0.4595253046041165,-0.5405325020089046,1.129505147573479,0.2957451391102727,-0.10898445121592788
12502,3.0,298.26873,4099.2926,0.0,0.0,0.0,0.1267845781906095,0.0,0.0,-0.30515769551671973,-0.42845059589978157,-0.5124743097797766,1.086586102487699,0.2951468554562267,-0.09912654909902871
12503,3.0,299.35436,4038.7698,0.0,0.0,0.0,0.12679471933428174,0.0,0.0,-0.26212755768997575,-0.4437233146570816,-0.5218342987710355,1.107002382727629,0.3101598174178907,-0.08820009673142182
12504,3.0,299.25941,3824.8424,0.0,0.0,0.0,0.12680486047795403,0.0,0.0,-0.2592408182875768,-0.4364867331053866,-0.46692902175980655,1.076074949925329,0.29337320168618075,-0.0979367948846091
12505,3.0,299.07227,3957.7668,0.0,0.0,0.0,0.1268150016216263,0.0,0.0,-0.22407955033992977,-0.4761550894853485,-0.5028276520702255,1.1179283598809389,0.2929688642337757,-0.12336234854491589
12506,3.0,299.42829,4125.3276,0.0,0.0,0.0,0.12682514276529855,0.0,0.0,-0.29474475728654276,-0.4600775563061196,-0.4991742572446636,1.091159406814049,0.26762035608457274,-0.1074786298448149
12507,3.0,299.97572,3788.5773,0.0,0.0,0.0,0.1268352839089708,0.0,0.0,-0.20382512667097383,-0.4519888212878236,-0.49581894033351953,1.099898992901579,0.2623889660832747,-0.12089896529929889
12508,3.0,299.61352999999997,3501.8024,0.0,0.0,0.0,0.12684542505264304,0.0,0.0,-0.18708372215872582,-0.4237645674998066,-0.45361219993553853,1.104648400095309,0.26513038515633175,-0.1113339755478079
12509,3.0,299.86809,3824.7577,0.0,0.0,0.0,0.12685556619631533,0.0,0.0,-0.24261704197943776,-0.4403301021921976,-0.4796837025610955,1.114712912013599,0.2929933544886927,-0.12400398917074089
12510,3.0,299.39709,4122.6446,0.0,0.0,0.0,0.1268657073399876,0.0,0.0,-0.2972664530754147,-0.4393326790587596,-0.5165818838301626,1.136994585687629,0.2836653031405857,-0.08286154438629771
12511,3.0,300.36813,4093.8422,0.0,0.0,0.0,0.12687584848365985,0.0,0.0,-0.24818301729625677,-0.4430525532233826,-0.5531902249081245,1.121697650252939,0.27311651846950175,-0.0993100790896417
12512,3.0,301.3321,3927.573,0.0,0.0,0.0,0.12688598962733214,0.0,0.0,-0.24250612149099077,-0.4303621732734396,-0.5210158257377585,1.135470454887209,0.25489950770412273,-0.09883412613341881
12513,3.0,301.18478999999996,3889.6940000000004,0.0,0.0,0.0,0.12689613077100437,0.0,0.0,-0.24075524558319278,-0.4263444643744226,-0.5152701302507026,1.107399982066869,0.2906547225953877,-0.1076704380887449
12514,3.0,300.79382999999996,3961.1963,0.0,0.0,0.0,0.12690627191467663,0.0,0.0,-0.27665712842643275,-0.4267296007374326,-0.5007180450970236,1.106963372598779,0.27308936336682177,-0.094210759146128
12515,3.0,300.03871000000004,4068.8802,0.0,0.0,0.0,0.1269164130583489,0.0,0.0,-0.3056482605526347,-0.43149188633993363,-0.4996978542338385,1.078608885775409,0.2970087633099827,-0.09142474693617002
12516,3.0,299.79105,4137.0251,0.0,0.0,0.0,0.12692655420202117,0.0,0.0,-0.26927969497833676,-0.47598848077140554,-0.5122841430010086,1.091484457446129,0.2788975865175487,-0.09390952799739881
12517,3.0,299.85142,3745.9571,0.0,0.0,0.0,0.12693669534569343,0.0,0.0,-0.21581373973415782,-0.4383959090763076,-0.4844677527757445,1.0855277627582491,0.3103170940984127,-0.08715754647828011
12518,3.0,300.18212,3626.5961,0.0,0.0,0.0,0.12694683648936567,0.0,0.0,-0.2069187109487868,-0.4202412233245796,-0.4752347442870175,1.1103805585610291,0.2825811660635898,-0.09260186693509272
12519,3.0,299.17803,3838.9266,0.0,0.0,0.0,0.12695697763303793,0.0,0.0,-0.22976739937877677,-0.4112806473902396,-0.5258897715012795,1.089487645474059,0.2867090659109817,-0.08953020938944373
12520,3.0,298.88709,3927.4198,0.0,0.0,0.0,0.1269671187767102,0.0,0.0,-0.2494662174878988,-0.44306682991729157,-0.5013045041224026,1.127036667679859,0.28649014309437576,-0.09636618934185241
12521,3.0,299.59251,3732.7337,0.0,0.0,0.0,0.12697725992038247,0.0,0.0,-0.2443624463366958,-0.41985437456890057,-0.47044102766641455,1.100929670903299,0.3014067044415257,-0.11367208055106089
12522,3.0,299.94603,3776.7927,0.0,0.0,0.0,0.12698740106405473,0.0,0.0,-0.23241049266212976,-0.4341820957529366,-0.4814580858712135,1.1510107729959187,0.2589916296904838,-0.1061053821167859
12523,3.0,300.38987000000003,3962.6739,0.0,0.0,0.0,0.12699754220772697,0.0,0.0,-0.25773271710373874,-0.43616812674394256,-0.5106530636525335,1.090499780998949,0.26536064624155675,-0.1114810994623279
12524,3.0,300.39257000000003,4186.4015,0.0,0.0,0.0,0.12700768335139925,0.0,0.0,-0.2783196995880157,-0.47576661952950955,-0.5184752024370185,1.146875496687799,0.26043343392027873,-0.10410845868720489
12525,3.0,300.67637,4116.5071,0.0,0.0,0.0,0.1270178244950715,0.0,0.0,-0.24850066107010577,-0.4919402493482225,-0.5108744790643855,1.097222188787399,0.2924123568813527,-0.13724646883517186
12526,3.0,300.85294,3841.1484,0.0,0.0,0.0,0.12702796563874377,0.0,0.0,-0.2630664149676337,-0.4415548682505726,-0.4629919067737435,1.1267555921021188,0.2917403896800347,-0.09445118718285642
12527,3.0,301.07804,3657.3938,0.0,0.0,0.0,0.12703810678241606,0.0,0.0,-0.2219909176437978,-0.42104786159668856,-0.4687176311013285,1.086056780635459,0.3069521513113187,-0.09985412650558499
12528,3.0,300.33617000000004,3828.125,0.0,0.0,0.0,0.1270482479260883,0.0,0.0,-0.2309998661379118,-0.45095970369125754,-0.4816948418895795,1.1065799587609388,0.28329635851417373,-0.10440071041354791
12529,3.0,298.96887000000004,4000.8891,0.0,0.0,0.0,0.12705838906976055,0.0,0.0,-0.23991245454751578,-0.44438632472751555,-0.5318716049241405,1.096825197398219,0.30606335872110174,-0.07770504775289114
12530,3.0,299.65909,3873.4778,0.0,0.0,0.0,0.1270685302134328,0.0,0.0,-0.23971811317833577,-0.43981221993358655,-0.49791020747991155,1.093132711383799,0.26030192418979975,-0.10748222688266991
12531,3.0,300.73882000000003,3783.02,0.0,0.0,0.0,0.1270786713571051,0.0,0.0,-0.2236599533410188,-0.3989930748850506,-0.5272905998970304,1.090011191800729,0.28584109561031973,-0.053792323101388956
12532,3.0,300.08092,4052.8439,0.0,0.0,0.0,0.12708881250077736,0.0,0.0,-0.2934554269317957,-0.44716906413965063,-0.4913388550163695,1.094533732297069,0.2687389031349648,-0.09767489101201123
12533,3.0,299.19941,4408.0845,0.0,0.0,0.0,0.1270989536444496,0.0,0.0,-0.30428249061034374,-0.4897204412941445,-0.5459446659605435,1.1064977841778292,0.2892485543716097,-0.07851855484742802
12534,3.0,299.67388,4217.5737,0.0,0.0,0.0,0.12710909478812185,0.0,0.0,-0.29625435808052875,-0.4780776606225916,-0.5077050631490886,1.1288428873081189,0.23851496987709478,-0.1301017485375429
12535,3.0,299.42471,3737.0858,0.0,0.0,0.0,0.1271192359317941,0.0,0.0,-0.23232546071373777,-0.41363006026460863,-0.4900252471892265,1.128128343337599,0.2789792240781057,-0.08618808195485142
12536,3.0,300.78857,3748.8205,0.0,0.0,0.0,0.1271293770754664,0.0,0.0,-0.21213585465367882,-0.45372769018193654,-0.4736842892489995,1.128718257545819,0.27025938623502477,-0.13032544376211988
12537,3.0,300.3426,3801.7433,0.0,0.0,0.0,0.12713951821913866,0.0,0.0,-0.2100912780718948,-0.45645899701899556,-0.48908476871140855,1.103856342492139,0.32834357331498765,-0.10510427075298388
12538,3.0,300.01754,3768.0674,0.0,0.0,0.0,0.1271496593628109,0.0,0.0,-0.2278157783611668,-0.45459182026471956,-0.4629908023311346,1.085348214840529,0.30463686470031776,-0.14390005667682987
12539,3.0,300.69036,3884.7667,0.0,0.0,0.0,0.12715980050648315,0.0,0.0,-0.23568324995512577,-0.4334851519366536,-0.5117036621512195,1.069461466522629,0.31161507760901375,-0.09853235998863681
12540,3.0,300.30529,3705.2987,0.0,0.0,0.0,0.12716994165015544,0.0,0.0,-0.2338608791202718,-0.42738108002172853,-0.46507633448196056,1.101534783863019,0.2854523216794507,-0.13074584122860988
12541,3.0,301.13189,3973.9818,0.0,0.0,0.0,0.1271800827938277,0.0,0.0,-0.2082284684255498,-0.48422476526926356,-0.5155380133121406,1.107300582232059,0.2942840223335717,-0.11072148612735991
12542,3.0,301.35197999999997,4193.1557,0.0,0.0,0.0,0.12719022393749996,0.0,0.0,-0.2533371976399348,-0.45263315715891456,-0.5686442546383185,1.148515239324629,0.25263165133030274,-0.0920726960571176
12543,3.0,299.71122,4085.7778,0.0,0.0,0.0,0.1272003650811722,0.0,0.0,-0.24825632594099178,-0.4609670277739036,-0.5327510654809365,1.124898102018799,0.2867167362142387,-0.06802106494940643
12544,3.0,299.61322,3956.1425,0.0,0.0,0.0,0.12721050622484448,0.0,0.0,-0.28798586236199175,-0.42851129971327256,-0.4860713629140085,1.126164867293819,0.26022958826516074,-0.0875574104314936
12545,3.0,299.81254,4010.3731,0.0,0.0,0.0,0.12722064736851674,0.0,0.0,-0.27625232487898177,-0.44539380943444656,-0.49740712880526156,1.112732717343169,0.30135471457889473,-0.094749179984266
12546,3.0,298.95698,3904.7364,0.0,0.0,0.0,0.127230788512189,0.0,0.0,-0.27576241845563176,-0.44519086557191756,-0.46598907017204055,1.107497152751459,0.26478646780738974,-0.12183924112709689
12547,3.0,300.55259,3803.3486,0.0,0.0,0.0,0.12724092965586126,0.0,0.0,-0.2335458900616848,-0.4105158664797616,-0.5120612482440106,1.1064345573715888,0.2987310959624637,-0.1085969843776879
12548,3.0,300.58828,3862.6337,0.0,0.0,0.0,0.12725107079953352,0.0,0.0,-0.2326116633369838,-0.44221635844585655,-0.49931617305366954,1.100658221201509,0.2669425120326747,-0.12116258257781588
12549,3.0,300.09046,3854.9440000000004,0.0,0.0,0.0,0.12726121194320578,0.0,0.0,-0.23262914190120876,-0.43133639297958765,-0.5078411730350215,1.0938591103804889,0.30246982671144773,-0.10615761515944089
12550,3.0,300.60244,3981.1612,0.0,0.0,0.0,0.12727135308687804,0.0,0.0,-0.25056167256851175,-0.4631415638135135,-0.4964703486903085,1.098592812197669,0.28751226926525175,-0.08548252348621822
12551,3.0,300.66731,4093.3225,0.0,0.0,0.0,0.1272814942305503,0.0,0.0,-0.2805149768571727,-0.46242537837783154,-0.5013274643696686,1.0751041550045188,0.2988271622044447,-0.07569215854148444
12552,3.0,300.45202,4275.0076,0.0,0.0,0.0,0.12729163537422256,0.0,0.0,-0.2912984302514167,-0.48833015069943353,-0.5198669926418775,1.1160851566240289,0.27652475743336874,-0.08343253108264972
12553,3.0,300.35958999999997,4098.2236,0.0,0.0,0.0,0.12730177651789482,0.0,0.0,-0.25261707066136374,-0.45754410681608754,-0.5355964541467545,1.086620856966129,0.2913085728849177,-0.09488187927036242
12554,3.0,300.08083,3739.4557,0.0,0.0,0.0,0.12731191766156708,0.0,0.0,-0.18812882884186982,-0.46183359978942756,-0.4867387299598725,1.145802160856869,0.2907922408989597,-0.11463487079608088
12555,3.0,299.73521,3692.7485,0.0,0.0,0.0,0.12732205880523934,0.0,0.0,-0.22839221634305676,-0.41702538028970054,-0.47708572930469556,1.111144042511379,0.2932414589081787,-0.08688712725184182
12556,3.0,300.19247,3798.3101,0.0,0.0,0.0,0.1273321999489116,0.0,0.0,-0.24041943423505074,-0.45996999980800457,-0.45420200268624755,1.1509893934188091,0.28077014362985575,-0.12472748013964388
12557,3.0,300.08041000000003,3765.9887,0.0,0.0,0.0,0.12734234109258388,0.0,0.0,-0.2624251188468427,-0.4296490478530596,-0.4526923714947586,1.111738313695029,0.26022299200700977,-0.13725335893585186
12558,3.0,300.21424,3671.8317,0.0,0.0,0.0,0.12735248223625611,0.0,0.0,-0.22951989277684978,-0.41549124871079357,-0.47113401980730757,1.142345559465729,0.2819459291783967,-0.12213567757635288
12559,3.0,299.66163,3743.1027,0.0,0.0,0.0,0.1273626233799284,0.0,0.0,-0.19255984245667682,-0.45529854194446756,-0.48995139138943755,1.1279445397694592,0.2699152662360627,-0.12298746627291789
12560,3.0,300.58906,3945.1763,0.0,0.0,0.0,0.12737276452360063,0.0,0.0,-0.24177325795866278,-0.42598689854663363,-0.5314749175099905,1.121341087542749,0.2919618861518947,-0.07846301151669632
12561,3.0,300.77137999999997,4202.8649,0.0,0.0,0.0,0.12738290566727292,0.0,0.0,-0.3116673511816727,-0.4374725646576806,-0.5284260682240925,1.073574755303579,0.28695592403284476,-0.06349338119555885
12562,3.0,301.6454,4248.064,0.0,0.0,0.0,0.12739304681094518,0.0,0.0,-0.2994423975326637,-0.45767936557193656,-0.5341836187373185,1.084697100326269,0.27834675336568576,-0.05024282896758116
12563,3.0,300.26257000000004,3982.5742,0.0,0.0,0.0,0.12740318795461744,0.0,0.0,-0.28466253375650474,-0.42363907647492155,-0.5023015016907985,1.090129640737419,0.3082298394224167,-0.06114117580391424
12564,3.0,299.94122999999996,3992.8706,0.0,0.0,0.0,0.12741332909828967,0.0,0.0,-0.2655802479357297,-0.46370503219412357,-0.48444767015876256,1.1219491389277592,0.3020423668917607,-0.10851357362945589
12565,3.0,299.50333,4146.6903,0.0,0.0,0.0,0.12742347024196196,0.0,0.0,-0.27197053260640175,-0.44705928862381655,-0.5414604769804885,1.1337663708690289,0.28535389456473675,-0.1226280157999429
12566,3.0,300.05146,3889.6692,0.0,0.0,0.0,0.12743361138563422,0.0,0.0,-0.24374033104029774,-0.44193074350766853,-0.4966912372121085,1.128860720509879,0.3004507536346807,-0.12590274893063388
12567,3.0,299.34493,3651.5714,0.0,0.0,0.0,0.12744375252930648,0.0,0.0,-0.22091218118983477,-0.4217335988668656,-0.46734074580544055,1.1352100496115092,0.27933315233803574,-0.1116652779330049
12568,3.0,300.95117999999997,3658.4859,0.0,0.0,0.0,0.12745389367297874,0.0,0.0,-0.2151590788445478,-0.4155816711497176,-0.48134761121281056,1.1162396772642789,0.27327489959263274,-0.1217792465886759
12569,3.0,300.11301000000003,3730.4958,0.0,0.0,0.0,0.127464034816651,0.0,0.0,-0.24401054457696578,-0.44101302262709663,-0.44895402578081256,1.089427154443089,0.24845370706047176,-0.13447473331912288
12570,3.0,300.07193,3992.4899,0.0,0.0,0.0,0.12747417596032326,0.0,0.0,-0.25939017135231673,-0.44305417442354256,-0.5111728812188355,1.090732017921869,0.27064372213045573,-0.10411343374519591
12571,3.0,300.81697,4018.1311,0.0,0.0,0.0,0.12748431710399552,0.0,0.0,-0.23233095252927977,-0.4516880987906446,-0.5373924703465075,1.093951822764639,0.28518961632602374,-0.1019144682456749
12572,3.0,301.33325,3859.0916,0.0,0.0,0.0,0.12749445824766778,0.0,0.0,-0.22467215979341582,-0.45663527213889255,-0.49176004281793756,1.1059125309200688,0.3097784908752567,-0.09622717953413322
12573,3.0,301.14571,4011.4244,0.0,0.0,0.0,0.12750459939134,0.0,0.0,-0.25608357150598077,-0.4400564740026926,-0.5232328270890595,1.107137347640949,0.2777938531836187,-0.09248739500504521
12574,3.0,300.43832000000003,4263.5991,0.0,0.0,0.0,0.1275147405350123,0.0,0.0,-0.29462546735226974,-0.46426768997465356,-0.5371345171360494,1.104236513929659,0.2864595226763537,-0.08200095459936413
12575,3.0,299.1508,4004.0031,0.0,0.0,0.0,0.12752488167868456,0.0,0.0,-0.2592489344208777,-0.43719775096555863,-0.5206702871886565,1.1416009219672387,0.2906324614906907,-0.08647627865429423
12576,3.0,299.86782999999997,3599.7171,0.0,0.0,0.0,0.12753502282235682,0.0,0.0,-0.2162595900431598,-0.4149946447042826,-0.4629698685840686,1.105309748435579,0.2981663508867277,-0.12133769246009789
12577,3.0,300.75571,3593.1998,0.0,0.0,0.0,0.1275451639660291,0.0,0.0,-0.18191777798138684,-0.43142553872338557,-0.4788996901637196,1.138067110918479,0.2910000686269707,-0.13319224240255087
12578,3.0,299.96846,3727.0994,0.0,0.0,0.0,0.12755530510970134,0.0,0.0,-0.27175793247041974,-0.3692790293425027,-0.4919082002475595,1.1160500981705688,0.2943238734600047,-0.08820681153983452
12579,3.0,299.60911,3929.0736,0.0,0.0,0.0,0.1275654462533736,0.0,0.0,-0.2642957305189577,-0.4355964611700236,-0.4944480737432256,1.135373182877609,0.3045235934716387,-0.09307160056220182
12580,3.0,299.58885,4035.1071,0.0,0.0,0.0,0.12757558739704586,0.0,0.0,-0.2779366099902077,-0.4395586439635606,-0.5090765579544445,1.0994776835099989,0.3077830873208257,-0.06928125929752793
12581,3.0,299.97402,4064.7652,0.0,0.0,0.0,0.12758572854071815,0.0,0.0,-0.27812767856156473,-0.44541320304136056,-0.5120462420100295,1.1131454141088988,0.26016387899617577,-0.1112053839776169
12582,3.0,300.61197999999996,3965.1952,0.0,0.0,0.0,0.1275958696843904,0.0,0.0,-0.2262902087456048,-0.44399643622153656,-0.5350336849087135,1.103890894320549,0.27736049624834974,-0.097634217126497
12583,3.0,301.25383999999997,4088.6833,0.0,0.0,0.0,0.12760601082806264,0.0,0.0,-0.2445296731331998,-0.44514134803953054,-0.5531865974727666,1.1457783494795188,0.2773735469096377,-0.1092565493977819
12584,3.0,300.68627000000004,4187.1041,0.0,0.0,0.0,0.1276161519717349,0.0,0.0,-0.26141624598727475,-0.4906812455689685,-0.5206775825893766,1.1180579545687288,0.30570307738304475,-0.09621955178738041
12585,3.0,300.8444,3809.2357,0.0,0.0,0.0,0.12762629311540719,0.0,0.0,-0.2430487979795488,-0.4433339429086535,-0.4715297750313655,1.1009055555509188,0.27365209207485874,-0.10986695152302389
12586,3.0,300.42422,3600.6633,0.0,0.0,0.0,0.12763643425907945,0.0,0.0,-0.21687750035164277,-0.4130138420837926,-0.46462041246696456,1.104607363466259,0.2990252627314957,-0.08916873646926911
12587,3.0,299.91312999999997,3844.1326,0.0,0.0,0.0,0.1276465754027517,0.0,0.0,-0.2298403027234718,-0.46462819422773255,-0.47405183559027353,1.1187329817853489,0.27908566600111073,-0.12278489731292588
12588,3.0,299.80658,4098.6497,0.0,0.0,0.0,0.12765671654642394,0.0,0.0,-0.2033800666970498,-0.5039934368402795,-0.5385136721121615,1.1196558499764289,0.3217084975526567,-0.14668825750700384
12589,3.0,300.38096,4026.0471,0.0,0.0,0.0,0.12766685769009622,0.0,0.0,-0.2468650018311788,-0.48961093935583755,-0.4873418468168955,1.132403346834509,0.2784388375347738,-0.14424437932581188
12590,3.0,300.56026,3934.3075,0.0,0.0,0.0,0.12767699883376848,0.0,0.0,-0.25934753378810876,-0.45591666503547157,-0.48066704151814355,1.129296620702899,0.29721691527802574,-0.12146054903472288
12591,3.0,300.29411,3872.2761,0.0,0.0,0.0,0.12768713997744074,0.0,0.0,-0.2851351743981507,-0.4146116868289876,-0.4773283925711445,1.124969232175819,0.29621955293959373,-0.07088792134509314
12592,3.0,301.02644,4067.3516,0.0,0.0,0.0,0.12769728112111303,0.0,0.0,-0.28085549981827973,-0.4846664308553525,-0.4708513838244135,1.1070571995580387,0.30923729373184466,-0.09229785238833882
12593,3.0,299.57651,4268.1494,0.0,0.0,0.0,0.12770742226478526,0.0,0.0,-0.2788781118506267,-0.4749226835212196,-0.5436100566701355,1.110018017675249,0.2633384523544817,-0.0957177163706031
12594,3.0,300.31888,4193.3512,0.0,0.0,0.0,0.12771756340845752,0.0,0.0,-0.23181169225053277,-0.4715536472037215,-0.5713087376312825,1.1146018598026388,0.28592810339640673,-0.06979962284993643
12595,3.0,299.93677,3764.9294,0.0,0.0,0.0,0.12772770455212978,0.0,0.0,-0.2147072503599558,-0.46262570805510256,-0.4671115587653215,1.132718568940619,0.2802421694002487,-0.1171805299498179
12596,3.0,299.11537000000004,3680.2195,0.0,0.0,0.0,0.12773784569580204,0.0,0.0,-0.19752816233451181,-0.44054075688798755,-0.48062592382908553,1.147297718004469,0.3361161743020837,-0.08304651521855293
12597,3.0,299.28667,4051.6492,0.0,0.0,0.0,0.12774798683947433,0.0,0.0,-0.29815124332773674,-0.4830152384923926,-0.4504337052993455,1.115752303966179,0.3030286949366037,-0.11501601495369689
12598,3.0,300.02272,3945.8125,0.0,0.0,0.0,0.12775812798314656,0.0,0.0,-0.26971552424384976,-0.4419510794371756,-0.4877618592483475,1.1432473520547288,0.30854254866827874,-0.08665675673560601
12599,3.0,299.65635,3653.3807,0.0,0.0,0.0,0.12776826912681882,0.0,0.0,-0.2265775563414638,-0.4316486057329006,-0.4523103458095556,1.1154077989321791,0.2796778904195587,-0.14237926960173986
12600,3.0,300.93392,3945.0018,0.0,0.0,0.0,0.12777841027049108,0.0,0.0,-0.2012937239461438,-0.47118862385519655,-0.5266996825712115,1.1139364584619689,0.2944442881018887,-0.1274514915759829
12601,3.0,300.57433,4215.5787,0.0,0.0,0.0,0.12778855141416337,0.0,0.0,-0.27839822647076573,-0.46243950308422554,-0.5405929221123674,1.110841992656569,0.2630210618931577,-0.13281160486998486
12602,3.0,299.79531000000003,4154.8174,0.0,0.0,0.0,0.12779869255783563,0.0,0.0,-0.26164570660492076,-0.45928458677785955,-0.5420304402942395,1.1125473938998791,0.28062320210035374,-0.07832102478018332
12603,3.0,301.723,4114.8941,0.0,0.0,0.0,0.12780883370150786,0.0,0.0,-0.3113532841806767,-0.45275093735053856,-0.4867208258306055,1.1329474621382092,0.28286904054950074,-0.06632819558333324
12604,3.0,301.06774,3850.5897,0.0,0.0,0.0,0.12781897484518012,0.0,0.0,-0.2365549084861518,-0.4350589826544786,-0.49886923856706056,1.093325735527849,0.3100307597526537,-0.09508074378798882
12605,3.0,300.2662,3758.2035,0.0,0.0,0.0,0.1278291159888524,0.0,0.0,-0.2056414078727268,-0.45880349563037953,-0.4779551080229965,1.1219311030759789,0.28474004738915476,-0.1177651549925159
12606,3.0,300.04539,4044.6220000000003,0.0,0.0,0.0,0.12783925713252467,0.0,0.0,-0.2234317187559938,-0.4582114434644486,-0.5478209315682165,1.0806351833253889,0.27962135106397873,-0.1246032860748869
12607,3.0,299.07692000000003,3929.0401,0.0,0.0,0.0,0.12784939827619693,0.0,0.0,-0.2589663693654908,-0.4201943098449496,-0.5151694131907625,1.1297299877706688,0.2700976613865637,-0.10597632445154889
12608,3.0,300.29372,3748.4498,0.0,0.0,0.0,0.12785953941986916,0.0,0.0,-0.21196824282213678,-0.45384987801149557,-0.4736170195748606,1.105031509958119,0.28031350220728873,-0.12328372033715589
12609,3.0,300.81396,3850.2939,0.0,0.0,0.0,0.12786968056354145,0.0,0.0,-0.2686174347129768,-0.4290892778353146,-0.47268649121302453,1.1299799565703388,0.26045812682521574,-0.07715232590284173
12610,3.0,299.54346,4182.9529,0.0,0.0,0.0,0.1278798217072137,0.0,0.0,-0.2995560943263847,-0.4432089078463136,-0.5287482513583895,1.130514851298129,0.2688161127925847,-0.06458841780388053
12611,3.0,300.4191,4539.8359,0.0,0.0,0.0,0.12788996285088597,0.0,0.0,-0.32099404477464566,-0.4871579317912445,-0.5718447671991844,1.130334999405379,0.2664709657011367,-0.096562137725691
12612,3.0,301.04127,4346.9997,0.0,0.0,0.0,0.12790010399455826,0.0,0.0,-0.28209831186093576,-0.4864013886040795,-0.5528796536199735,1.110117214860039,0.3155409049889627,-0.0970499578670851
12613,3.0,300.38181000000003,4014.0305,0.0,0.0,0.0,0.1279102451382305,0.0,0.0,-0.27378482783795877,-0.45471579141445456,-0.4916644224060005,1.1342520216419592,0.3147687172202537,-0.0990325995365066
12614,3.0,301.34435,3838.6613,0.0,0.0,0.0,0.12792038628190275,0.0,0.0,-0.24852297283730773,-0.4232619245226996,-0.4950722965998315,1.112038235724629,0.3105548127043737,-0.06582299516297384
12615,3.0,300.75093,3713.1678,0.0,0.0,0.0,0.127930527425575,0.0,0.0,-0.2635171694071197,-0.42706726633325753,-0.4381258576596556,1.114608141953259,0.3077256664376587,-0.09277774688745072
12616,3.0,300.55074,3719.1396,0.0,0.0,0.0,0.1279406685692473,0.0,0.0,-0.22471567888521077,-0.4137987866712606,-0.4920110957952145,1.095943467161199,0.28872643672758075,-0.12275468219494388
12617,3.0,301.1238,3707.5359,0.0,0.0,0.0,0.12795080971291956,0.0,0.0,-0.17885555379416881,-0.46000902006935557,-0.4881337524325506,1.124916441845609,0.2755827692129017,-0.15368229738226186
12618,3.0,300.85325,3501.2036,0.0,0.0,0.0,0.1279609508565918,0.0,0.0,-0.16570287848610085,-0.4179871674171216,-0.4805884234428845,1.119379435349149,0.2590686468305848,-0.15156175744048087
12619,3.0,300.5355,3993.7095,0.0,0.0,0.0,0.12797109200026405,0.0,0.0,-0.26697743876362173,-0.4476715348642406,-0.4993389813134205,1.1736591418811388,0.2717529371474267,-0.12652521886456689
12620,3.0,299.42196,4369.3928,0.0,0.0,0.0,0.12798123314393633,0.0,0.0,-0.3142698334010177,-0.47446920343896454,-0.5394472908868024,1.140424234626109,0.2586826390724888,-0.1159762822059679
12621,3.0,299.79991,4169.8778,0.0,0.0,0.0,0.1279913742876086,0.0,0.0,-0.31312789040581673,-0.4551159644089486,-0.4992948846690685,1.1458206020086887,0.2534785966913898,-0.056096926003335545
12622,3.0,299.47496,3977.7407,0.0,0.0,0.0,0.12800151543128085,0.0,0.0,-0.24181806387808477,-0.4417169578690696,-0.5255988268675654,1.1101012055084591,0.2647762339813797,-0.0991290153497721
12623,3.0,299.23476,4184.6899,0.0,0.0,0.0,0.1280116565749531,0.0,0.0,-0.26427436107434876,-0.44877077950022753,-0.5589961074511205,1.1089608938459188,0.29257371695977774,-0.08683780831647442
12624,3.0,299.68457,4147.5734,0.0,0.0,0.0,0.12802179771862537,0.0,0.0,-0.26729691652015175,-0.48298330084924057,-0.5104785313228085,1.104453450776069,0.3301802107112497,-0.14714187944427287
12625,3.0,300.46461,3935.873,0.0,0.0,0.0,0.12803193886229763,0.0,0.0,-0.27684181352215975,-0.43588326161082863,-0.48368204825070155,1.083095658543219,0.3238418753732047,-0.10688388243361789
12626,3.0,300.53405,3748.6343,0.0,0.0,0.0,0.1280420800059699,0.0,0.0,-0.23687582505782379,-0.4282727097122256,-0.4743426788989775,1.109431143217329,0.3314718107462207,-0.10417721783899091
12627,3.0,301.15752000000003,3714.5373,0.0,0.0,0.0,0.12805222114964215,0.0,0.0,-0.26275049371895476,-0.4052294671305346,-0.46114662635412856,1.111355203832219,0.28780326456147076,-0.08258511861326663
12628,3.0,300.41974,3970.965,0.0,0.0,0.0,0.1280623622933144,0.0,0.0,-0.2103832866182138,-0.43781687717416157,-0.5588740209465715,1.1386283501488688,0.2841963475179957,-0.11308271349789491
12629,3.0,300.42634,4293.9557,0.0,0.0,0.0,0.12807250343698667,0.0,0.0,-0.28693353120563475,-0.4548927251469166,-0.5634290665061193,1.1175144472150889,0.26340217565327073,-0.10278267159385991
12630,3.0,300.44552000000004,4107.2232,0.0,0.0,0.0,0.12808264458065893,0.0,0.0,-0.2630110104521658,-0.4335769523957136,-0.5519053224563145,1.138330859919509,0.26639192206083573,-0.11998985704457688
12631,3.0,300.31675,3880.7515,0.0,0.0,0.0,0.1280927857243312,0.0,0.0,-0.26395338370767074,-0.42800944707124355,-0.48768873298863047,1.126326278034749,0.2920697871550437,-0.08779230206967562
12632,3.0,299.83476,3973.9717,0.0,0.0,0.0,0.12810292686800348,0.0,0.0,-0.2712144048517777,-0.4516025399522005,-0.48517122192267154,1.1373779995254687,0.29491574324091774,-0.1078878207651989
12633,3.0,299.24978,4053.1382,0.0,0.0,0.0,0.1281130680116757,0.0,0.0,-0.29742191603825774,-0.43914020206976356,-0.49549069796362455,1.1142074015387091,0.3083777536720147,-0.06232648286364494
12634,3.0,299.53398,3864.1152,0.0,0.0,0.0,0.12812320915534797,0.0,0.0,-0.2019818727515588,-0.4522784081664036,-0.5203342529254925,1.123064625962849,0.2907419532964967,-0.12031869723203088
12635,3.0,299.2915,3709.5869,0.0,0.0,0.0,0.12813335029902023,0.0,0.0,-0.1917932579610208,-0.43205582081558963,-0.5037727205709965,1.1096805040669389,0.3041364508734307,-0.11846374027396088
12636,3.0,298.72853,3749.8190000000004,0.0,0.0,0.0,0.12814349144269252,0.0,0.0,-0.2001481737805868,-0.4585417933945516,-0.48116139610943254,1.1274692241475488,0.28138982712601374,-0.16602573036546384
12637,3.0,299.77949,3971.5478,0.0,0.0,0.0,0.12815363258636478,0.0,0.0,-0.2553532208339008,-0.46313887870074855,-0.48875927224928456,1.099044620417259,0.3110448609827377,-0.1177510910811279
12638,3.0,300.38119,4067.4135,0.0,0.0,0.0,0.128163773730037,0.0,0.0,-0.2952081976172807,-0.4431170465922476,-0.49806688634287455,1.100254643686679,0.3058542036354597,-0.09364572326761332
12639,3.0,300.67086,3971.553,0.0,0.0,0.0,0.12817391487370927,0.0,0.0,-0.2858255827512887,-0.4430994363055095,-0.4783279232647905,1.106099374238509,0.2968828568525567,-0.05768603551941845
12640,3.0,300.14232000000004,3795.9178,0.0,0.0,0.0,0.12818405601738156,0.0,0.0,-0.18034586230625083,-0.4497962493964336,-0.5237221154298486,1.122301445987529,0.26920658898362176,-0.09136326292010201
12641,3.0,300.61402999999996,4021.0056,0.0,0.0,0.0,0.12819419716105382,0.0,0.0,-0.27104185849224877,-0.43257694547452064,-0.5186664939233975,1.1480391131026388,0.25708626353993874,-0.07662340023139083
12642,3.0,300.4115,4402.4,0.0,0.0,0.0,0.12820433830472608,0.0,0.0,-0.26422126676910873,-0.4887310127039955,-0.5852673925988945,1.1487770631504688,0.2499808370811878,-0.10236894131302791
12643,3.0,300.88532999999995,4201.6567,0.0,0.0,0.0,0.1282144794483983,0.0,0.0,-0.30364947274286974,-0.46767858365378256,-0.5058706853005496,1.1517796271717988,0.28411287597475776,-0.1100743739509949
12644,3.0,300.53157999999996,3837.8218,0.0,0.0,0.0,0.1282246205920706,0.0,0.0,-0.2319490079040848,-0.46183123891669453,-0.4728217499688735,1.130343308056199,0.28074445773982076,-0.11906183141048789
12645,3.0,300.64378,3971.9461,0.0,0.0,0.0,0.12823476173574286,0.0,0.0,-0.27087419599820173,-0.4594169071084186,-0.47708132166676054,1.1043016659110887,0.3043283300448677,-0.08156922393050563
12646,3.0,299.83442,4132.8267,0.0,0.0,0.0,0.12824490287941512,0.0,0.0,-0.2340760427790068,-0.47853870968309353,-0.5436613676551996,1.082222135632009,0.28691309395111775,-0.1076345183726999
12647,3.0,300.25352999999996,4138.4416,0.0,0.0,0.0,0.12825504402308738,0.0,0.0,-0.2736314825678247,-0.4808748692461545,-0.5034765779642695,1.1071451496667188,0.3072117763844417,-0.0926645810367821
12648,3.0,299.65337999999997,3948.0966,0.0,0.0,0.0,0.12826518516675964,0.0,0.0,-0.2211149325348448,-0.46859305200153356,-0.5104147978915184,1.110721314569659,0.2831829454304807,-0.13542937703333888
12649,3.0,299.39684,3831.4105,0.0,0.0,0.0,0.1282753263104319,0.0,0.0,-0.24344478625112975,-0.4570109244809666,-0.4641974008152166,1.119154392501939,0.3197536645322297,-0.08189517027567401
12650,3.0,299.8361,4089.4994,0.0,0.0,0.0,0.12828546745410416,0.0,0.0,-0.28286215044882074,-0.47891484838521553,-0.4813287140984456,1.113614954205239,0.2876707821108957,-0.07628658880540014
12651,3.0,300.27317,4528.2328,0.0,0.0,0.0,0.12829560859777644,0.0,0.0,-0.31238100349210474,-0.5093134152978206,-0.5547752723045565,1.106538516831849,0.3067246563988667,-0.06962018436322723
12652,3.0,299.91827,4221.3772,0.0,0.0,0.0,0.12830574974144868,0.0,0.0,-0.25566297138947075,-0.49673586074651255,-0.5307944086103294,1.115589981300159,0.26860884235212873,-0.1124214664826349
12653,3.0,300.72686,3759.2011,0.0,0.0,0.0,0.12831589088512094,0.0,0.0,-0.2182462087192238,-0.44694938138546964,-0.4775076669113375,1.1230577358621687,0.27418179896213674,-0.13454620798117686
12654,3.0,300.95675,3840.9418,0.0,0.0,0.0,0.1283260320287932,0.0,0.0,-0.18611697010581482,-0.4746066609475305,-0.5068267678299074,1.1407264871309388,0.2404731871528558,-0.13743877357165085
12655,3.0,300.80314,4019.4352,0.0,0.0,0.0,0.12833617317246546,0.0,0.0,-0.27638967093003675,-0.46336340479040755,-0.48205486991511154,1.1381291218245988,0.2786019201383687,-0.12844437534897288
12656,3.0,300.78455,3838.6974,0.0,0.0,0.0,0.12834631431613772,0.0,0.0,-0.23469750959534078,-0.44473937145985853,-0.48743128640322253,1.1376817719054488,0.28288957912902774,-0.1006024714861909
12657,3.0,300.21911,3718.5993,0.0,0.0,0.0,0.12835645545980998,0.0,0.0,-0.2179916093665968,-0.44115326657343756,-0.4712164578354435,1.117995335712549,0.2979311046110107,-0.07536865412905702
12658,3.0,299.82293,3881.844,0.0,0.0,0.0,0.12836659660348224,0.0,0.0,-0.2163136368034938,-0.44966212548069656,-0.5140078942036296,1.1156779314088388,0.3004702789641077,-0.051946680951488244
12659,3.0,300.36324,4250.1218,0.0,0.0,0.0,0.1283767377471545,0.0,0.0,-0.29836185749352273,-0.4718196253549715,-0.5217493985451565,1.106399802893159,0.3199263426142717,-0.07789350315224022
12660,3.0,300.49966,4481.2373,0.0,0.0,0.0,0.12838687889082678,0.0,0.0,-0.2892707952113047,-0.5218119566063305,-0.5511015010194835,1.103475461779549,0.3087908760027867,-0.13269175764815688
12661,3.0,300.1977,4336.7397,0.0,0.0,0.0,0.12839702003449902,0.0,0.0,-0.3141990882790357,-0.4690537565570016,-0.5350077558386545,1.085170794748019,0.3082374590631687,-0.08218906954667962
12662,3.0,300.03294,3936.4273,0.0,0.0,0.0,0.1284071611781713,0.0,0.0,-0.22585769280791881,-0.4504623397471716,-0.5202555841877285,1.1045286339334888,0.2866019755079127,-0.10867781133816488
12663,3.0,298.35895,3724.2248,0.0,0.0,0.0,0.12841730232184353,0.0,0.0,-0.22350426746315377,-0.4069422853645766,-0.5016247924790126,1.0913470607325688,0.2977788435184837,-0.09363077276238782
12664,3.0,298.07095,3848.2259,0.0,0.0,0.0,0.12842744346551582,0.0,0.0,-0.23214281225071176,-0.4264627917211006,-0.5111589692949625,1.1259987956024289,0.2945594946382587,-0.1136124102526719
12665,3.0,299.12571,3724.0195,0.0,0.0,0.0,0.12843758460918805,0.0,0.0,-0.22787750555725877,-0.41698692744840565,-0.48714451635992057,1.127403160241029,0.28908465103543374,-0.10248848455982591
12666,3.0,299.46965,3504.9484,0.0,0.0,0.0,0.12844772575286034,0.0,0.0,-0.17084880084146384,-0.41123451411318657,-0.48333348008380056,1.1323748745066988,0.29941925490037974,-0.14243329609707187
12667,3.0,299.91919,3906.9958,0.0,0.0,0.0,0.1284578668965326,0.0,0.0,-0.24300218847494878,-0.45505426761035955,-0.48957271956206555,1.116513153466269,0.28562589142158074,-0.09620152606810141
12668,3.0,299.45973,4301.3975,0.0,0.0,0.0,0.12846800804020486,0.0,0.0,-0.2521408025843598,-0.4944461688330375,-0.5609304626870264,1.1117657727727388,0.2808883088565177,-0.08942005795782261
12669,3.0,299.81569,4221.5036,0.0,0.0,0.0,0.12847814918387712,0.0,0.0,-0.29257360550226674,-0.4476538536499956,-0.5430042344353455,1.088062306558389,0.27489983864550177,-0.08889511942551521
12670,3.0,300.93802999999997,4100.6412,0.0,0.0,0.0,0.12848829032754938,0.0,0.0,-0.26057214785896876,-0.4603800215934706,-0.5255403522042945,1.0918166008289092,0.25014935070531874,-0.08341729788064632
12671,3.0,301.11523,4049.0302,0.0,0.0,0.0,0.12849843147122164,0.0,0.0,-0.27677671220323474,-0.45642027060017354,-0.4976071038449975,1.096678478783739,0.27708814475397076,-0.13911330108441386
12672,3.0,299.17326,3876.5484,0.0,0.0,0.0,0.1285085726148939,0.0,0.0,-0.24947040221081176,-0.4307448373062056,-0.49815867666943353,1.119554727616449,0.3032553488514727,-0.12891950858586487
12673,3.0,299.78935,3837.2538,0.0,0.0,0.0,0.12851871375856616,0.0,0.0,-0.24571234878242076,-0.4492244419675006,-0.47149254822269154,1.1295224741501888,0.3031547128515407,-0.1266934994411749
12674,3.0,301.09348,3841.4977,0.0,0.0,0.0,0.12852885490223842,0.0,0.0,-0.21062515954958483,-0.41552294317392163,-0.5415712657464226,1.134583151774639,0.3118385296535667,-0.08445925740897971
12675,3.0,300.78577,3765.3168,0.0,0.0,0.0,0.12853899604591068,0.0,0.0,-0.23275090416572577,-0.43292548324391855,-0.47888588969735757,1.118645436976709,0.30575667831333475,-0.1011521495329399
12676,3.0,300.12259,3827.5381,0.0,0.0,0.0,0.12854913718958294,0.0,0.0,-0.23362548085703974,-0.44442099814593755,-0.4854295297706645,1.115507604067029,0.2931182071660147,-0.1179794371236639
12677,3.0,301.32507999999996,4258.8236,0.0,0.0,0.0,0.12855927833325523,0.0,0.0,-0.3027086598925187,-0.45513727305855156,-0.5367300783586345,1.114920121659049,0.2799758771414677,-0.098965820275416
12678,3.0,300.95517,4293.9375,0.0,0.0,0.0,0.12856941947692746,0.0,0.0,-0.28796632690006374,-0.49580857478499657,-0.5214748786955635,1.1273380082595987,0.27887136360496073,-0.13994015369601787
12679,3.0,300.12956,4009.478,0.0,0.0,0.0,0.12857956062059972,0.0,0.0,-0.2613710854303178,-0.4516119631781306,-0.5057981467258905,1.108206123846429,0.2712175053970837,-0.0913826676727671
12680,3.0,299.87745,4063.6464,0.0,0.0,0.0,0.12858970176427198,0.0,0.0,-0.23918870013358678,-0.4532448359792825,-0.5428135103690225,1.108461462871629,0.28595818679187573,-0.08897122058752581
12681,3.0,298.7191,3861.9681,0.0,0.0,0.0,0.12859984290794427,0.0,0.0,-0.25315016180397576,-0.4110709147520406,-0.5097208026330265,1.121206527929469,0.2676912633265707,-0.05145454639116835
12682,3.0,299.52416,3803.0715,0.0,0.0,0.0,0.12860998405161653,0.0,0.0,-0.2194715523301558,-0.43552477372544857,-0.5010424573815405,1.113302163899369,0.2912280701644727,-0.11816562182953888
12683,3.0,300.69437,3990.1297,0.0,0.0,0.0,0.12862012519528876,0.0,0.0,-0.24123536401057674,-0.4680444176023876,-0.5036200136484256,1.1287343682224091,0.28637566609807774,-0.13706199652196588
12684,3.0,299.30322,4067.3521,0.0,0.0,0.0,0.12863026633896102,0.0,0.0,-0.26535761662375773,-0.47726605742499256,-0.4937498025693115,1.0805426735912589,0.3004697115440517,-0.15146485020091685
12685,3.0,299.80071,3900.0874,0.0,0.0,0.0,0.1286404074826333,0.0,0.0,-0.2385377781368458,-0.45722368673696456,-0.48976773980881255,1.117748102688149,0.28700272605496374,-0.12192841726839788
12686,3.0,300.83333999999996,4009.5146,0.0,0.0,0.0,0.12865054862630557,0.0,0.0,-0.23957503213171477,-0.4612268757620485,-0.5179903926616715,1.085705081525749,0.2916411924952447,-0.09110352942921832
12687,3.0,300.6137,4132.4559,0.0,0.0,0.0,0.12866068976997783,0.0,0.0,-0.26319396289022173,-0.4747518799518626,-0.5182175734665926,1.131621117757309,0.2936243661209687,-0.08539423292550462
12688,3.0,301.25541,4029.0989,0.0,0.0,0.0,0.12867083091365006,0.0,0.0,-0.26861923829815476,-0.45346298872581253,-0.5026632319764985,1.109654767514399,0.27910612352062975,-0.0852662989546285
12689,3.0,300.74115,4035.2294,0.0,0.0,0.0,0.12868097205732235,0.0,0.0,-0.24979095401244775,-0.49016934148594754,-0.4866486722909845,1.141212239228879,0.27385294864218174,-0.1114873309504429
12690,3.0,299.87217999999996,4016.6562,0.0,0.0,0.0,0.1286911132009946,0.0,0.0,-0.27264587393055273,-0.4437081057730806,-0.5046092091910516,1.141852410642059,0.29365612137910274,-0.1025312538465469
12691,3.0,301.07878,4093.0594,0.0,0.0,0.0,0.12870125434466687,0.0,0.0,-0.2318481692541328,-0.4928753677330115,-0.5194643067871355,1.132087820753369,0.26485181230633875,-0.1175448642882749
12692,3.0,301.18665,3851.9233,0.0,0.0,0.0,0.12871139548833913,0.0,0.0,-0.22669393824794978,-0.4364219458939926,-0.5077726266657565,1.090935377216939,0.27399992056918676,-0.0933524562646701
12693,3.0,300.87306,3739.3497,0.0,0.0,0.0,0.12872153663201136,0.0,0.0,-0.2479692113926558,-0.3836616889469606,-0.5050380267658725,1.0972727499673889,0.26812623132949875,-0.08266682406158032
12694,3.0,300.27581000000004,3817.9391,0.0,0.0,0.0,0.12873167777568365,0.0,0.0,-0.2435075874923278,-0.42599802403273157,-0.4910525510681135,1.1325189586709188,0.2966901062860337,-0.12010247979319187
12695,3.0,299.94121,3855.3741,0.0,0.0,0.0,0.1287418189193559,0.0,0.0,-0.2321550320469178,-0.4453302279906716,-0.4944521976711325,1.131278335248479,0.28857632372526576,-0.13739653117498188
12696,3.0,299.30675,4161.5347,0.0,0.0,0.0,0.12875196006302816,0.0,0.0,-0.26730892353383673,-0.4858120722134186,-0.5118816496637855,1.135597921749789,0.3172905548641397,-0.1320697031467649
12697,3.0,300.65899,4302.3263,0.0,0.0,0.0,0.12876210120670045,0.0,0.0,-0.3010341729097597,-0.4789252139337385,-0.5278403894012905,1.1144255542852388,0.2921761480180407,-0.07858929388990943
12698,3.0,299.53564,3979.9155,0.0,0.0,0.0,0.12877224235037268,0.0,0.0,-0.23644614622041776,-0.4506355143217626,-0.5227132628352825,1.117908702828999,0.3290720697393847,-0.05157694092374775
12699,3.0,299.6424,3941.2602,0.0,0.0,0.0,0.12878238349404494,0.0,0.0,-0.2604236459243128,-0.4372635615595536,-0.5003574699164375,1.095110271603969,0.2854860527752797,-0.061124309242749635
12700,3.0,299.94352000000003,4187.7728,0.0,0.0,0.0,0.1287925246377172,0.0,0.0,-0.25696763221823077,-0.46409938913304355,-0.5519113310294075,1.095131549856069,0.3002443951193147,-0.07754071479867274
12701,3.0,300.49304,4007.7848,0.0,0.0,0.0,0.1288026657813895,0.0,0.0,-0.2756928689687677,-0.4428850224518486,-0.49968862352542753,1.088325954234409,0.2550358506375788,-0.11987339407808288
12702,3.0,300.91997000000003,4017.6743,0.0,0.0,0.0,0.12881280692506175,0.0,0.0,-0.2522219436523678,-0.4634871935551245,-0.5055635185327345,1.1123051258009689,0.2641244507220537,-0.14416100910758387
12703,3.0,300.70673999999997,4113.5412,0.0,0.0,0.0,0.12882294806873398,0.0,0.0,-0.2683747917115297,-0.4785181508385645,-0.5035208569936396,1.1093274877320989,0.24146254481549775,-0.14848389880421986
12704,3.0,300.60299,3947.2690000000002,0.0,0.0,0.0,0.12883308921240624,0.0,0.0,-0.2318327881176148,-0.45274287187974255,-0.5152955425632105,1.1269398009702989,0.27907285851984676,-0.10234123905529391
12705,3.0,301.21161,3967.8702,0.0,0.0,0.0,0.12884323035607853,0.0,0.0,-0.24118230010283978,-0.45090795700865055,-0.5140432059696145,1.1209506822792188,0.27540572402292873,-0.1056191537912989
12706,3.0,300.8975,4101.7359,0.0,0.0,0.0,0.1288533714997508,0.0,0.0,-0.25414908454756174,-0.45807786670376555,-0.5345983318707476,1.118865514898429,0.3183583482170227,-0.08880484593435592
12707,3.0,299.34362999999996,4130.6459,0.0,0.0,0.0,0.12886351264342305,0.0,0.0,-0.25957985177103676,-0.4891967429799595,-0.5068366267533805,1.1115963573560188,0.27971168231039373,-0.12984590288729286
12708,3.0,299.20797999999996,4072.3716,0.0,0.0,0.0,0.12887365378709528,0.0,0.0,-0.25321743147811476,-0.4527412202820795,-0.5319406477859545,1.1209483518039889,0.2923543077831237,-0.11378945544264489
12709,3.0,299.69056,4088.1044,0.0,0.0,0.0,0.12888379493076757,0.0,0.0,-0.26603672723828076,-0.4556620048878386,-0.5209829255070115,1.1184543380078489,0.27846584064993873,-0.1053828638679789
12710,3.0,300.16655,3961.3235,0.0,0.0,0.0,0.12889393607443983,0.0,0.0,-0.24848610066616877,-0.43261131491791255,-0.5230460141681225,1.1009231861026592,0.3066476797887697,-0.060909369512286746
12711,3.0,300.86725,3745.4341,0.0,0.0,0.0,0.1289040772181121,0.0,0.0,-0.23461505130220278,-0.42088097930521856,-0.4830224021705996,1.1095492881789888,0.28207808738893975,-0.10959045583573589
12712,3.0,300.40224,3964.2977,0.0,0.0,0.0,0.12891421836178438,0.0,0.0,-0.2328405970645778,-0.45639999546567256,-0.5158069197561794,1.1159073312314791,0.2825313850861767,-0.09256634846608731
12713,3.0,300.8039,4177.871,0.0,0.0,0.0,0.1289243595054566,0.0,0.0,-0.27795817195233574,-0.47602647765015554,-0.5159838129586375,1.136880899026409,0.2760189531159497,-0.12922649296866187
12714,3.0,301.13512000000003,3948.3137,0.0,0.0,0.0,0.12893450064912887,0.0,0.0,-0.23047592464370278,-0.47102446720649555,-0.4986883835567115,1.123588881564589,0.3093291144559067,-0.12836723661885988
12715,3.0,301.40171000000004,3774.2973,0.0,0.0,0.0,0.12894464179280113,0.0,0.0,-0.23457641607588978,-0.4485350873944666,-0.4641806315260616,1.1356195039769188,0.29049418324954374,-0.12837941588506188
12716,3.0,299.79873,3927.9105,0.0,0.0,0.0,0.12895478293647342,0.0,0.0,-0.24552818044424476,-0.43792084676692256,-0.5105376848636465,1.131057953351729,0.30583585367614874,-0.07432522133507823
12717,3.0,299.52796,3856.5613,0.0,0.0,0.0,0.12896492408014568,0.0,0.0,-0.2363950176203718,-0.42527326650120356,-0.5106300628752635,1.1593429312182388,0.29256028126345174,-0.045368058418478754
12718,3.0,300.11592,3983.2288,0.0,0.0,0.0,0.1289750652238179,0.0,0.0,-0.2514985033459698,-0.4396255387351626,-0.5196780518957305,1.1346030114765988,0.29485147278707474,-0.08563573095433862
12719,3.0,300.14887999999996,4245.403,0.0,0.0,0.0,0.12898520636749017,0.0,0.0,-0.2818637748602887,-0.4686715687517825,-0.5399611708075185,1.1170045797647687,0.25246783918663573,-0.10899655955462288
12720,3.0,300.46862999999996,4078.8523,0.0,0.0,0.0,0.12899534751116243,0.0,0.0,-0.25669418641374375,-0.47822782428741156,-0.5049472395569126,1.1001712532034489,0.28356316753050576,-0.1310511942787459
12721,3.0,299.44235,3923.5264,0.0,0.0,0.0,0.12900548865483472,0.0,0.0,-0.2217062348957018,-0.46942713921885154,-0.5015206810312376,1.105218657251589,0.2958098756591617,-0.11555798216718488
12722,3.0,299.48591,4029.5658,0.0,0.0,0.0,0.12901562979850698,0.0,0.0,-0.24798508902172278,-0.47126613748784657,-0.5056361584324035,1.088098884886999,0.3195447222291087,-0.11697058452909788
12723,3.0,300.38597999999996,3991.8071,0.0,0.0,0.0,0.1290257709421792,0.0,0.0,-0.23925409529504077,-0.46029263890484656,-0.5138629386443235,1.100839694294419,0.2933089008348347,-0.1182189187847989
12724,3.0,301.13775,3790.2202,0.0,0.0,0.0,0.12903591208585147,0.0,0.0,-0.21764891805027578,-0.4437494666421626,-0.4907339244416675,1.101590309968499,0.2998430670197067,-0.1239829439661639
12725,3.0,300.44158999999996,3850.1948,0.0,0.0,0.0,0.12904605322952376,0.0,0.0,-0.2298246986719318,-0.44573883122599756,-0.4947995702029155,1.1610735623890387,0.28596246270729775,-0.14169666327437186
12726,3.0,300.38367,4079.8123,0.0,0.0,0.0,0.12905619437319601,0.0,0.0,-0.2290483363128108,-0.47902345866343454,-0.5320892814431235,1.1270023185014688,0.2799214757435987,-0.12996299406884887
12727,3.0,300.44558,4095.6490000000003,0.0,0.0,0.0,0.12906633551686827,0.0,0.0,-0.24630437055084875,-0.47627043787673257,-0.5224002192168875,1.121175522476409,0.2602987729819887,-0.13906131122178286
12728,3.0,300.32093,4198.776,0.0,0.0,0.0,0.1290764766605405,0.0,0.0,-0.25462970959999576,-0.47366659790225357,-0.5480267530610294,1.127265358227429,0.2830619431035387,-0.07597281969993352
12729,3.0,300.3913,4290.0275,0.0,0.0,0.0,0.1290866178042128,0.0,0.0,-0.2883673510246417,-0.46833500759856656,-0.5473588591251135,1.1230690842632889,0.30618685364328974,-0.06537962326371644
12730,3.0,298.54643,4024.6078,0.0,0.0,0.0,0.12909675894788505,0.0,0.0,-0.2581333865907817,-0.4592790139023095,-0.5059678762501415,1.121527322911129,0.30508310004435774,-0.0887309850683164
12731,3.0,299.11085,4086.0528,0.0,0.0,0.0,0.12910690009155731,0.0,0.0,-0.28266335077920074,-0.4697509131558056,-0.48964377879157855,1.0981213469261388,0.27420089872652176,-0.1273898353073979
12732,3.0,299.5946,4131.4905,0.0,0.0,0.0,0.1291170412352296,0.0,0.0,-0.24502012671160378,-0.4733341708094455,-0.5375156612936656,1.1205823658678689,0.2989927576682877,-0.1215522684337749
12733,3.0,300.12973999999997,3759.5883,0.0,0.0,0.0,0.12912718237890183,0.0,0.0,-0.2060845224064588,-0.4403760024217276,-0.49636044145196156,1.119891227974659,0.3017418369121007,-0.09308719650774101
12734,3.0,299.55306,3624.4503,0.0,0.0,0.0,0.1291373235225741,0.0,0.0,-0.18797661841184782,-0.44222166787638056,-0.47154408212277754,1.1332618736442388,0.30694808817841773,-0.1043941850829039
12735,3.0,300.14333,4005.8462,0.0,0.0,0.0,0.12914746466624635,0.0,0.0,-0.26560538667071076,-0.4420363140355876,-0.5100355181140865,1.114619085054339,0.26503707495462275,-0.08789682996324172
12736,3.0,299.32074,4028.2851,0.0,0.0,0.0,0.12915760580991864,0.0,0.0,-0.26246283201556475,-0.4540904843802416,-0.5079447575927446,1.154064303497279,0.30136004427442076,-0.10052541786908631
12737,3.0,300.68147,3986.5987,0.0,0.0,0.0,0.1291677469535909,0.0,0.0,-0.2614231158229528,-0.4576847155324646,-0.49271862807504246,1.156874856624659,0.2930743537016867,-0.11783529216443789
12738,3.0,301.30035,4346.7731,0.0,0.0,0.0,0.12917788809726313,0.0,0.0,-0.25284036058590076,-0.5182049585028475,-0.5502651745194445,1.142449113625949,0.29128138738473475,-0.13123306253919487
12739,3.0,300.73476,4224.8905,0.0,0.0,0.0,0.1291880292409354,0.0,0.0,-0.26301262151982474,-0.4961398974351955,-0.5251087076616945,1.113661361059819,0.26713681287185076,-0.11834589928733089
12740,3.0,300.17242000000005,3902.5689,0.0,0.0,0.0,0.12919817038460768,0.0,0.0,-0.22511605452972477,-0.4568284685354595,-0.5043389855218825,1.1381845466050688,0.2930455064713397,-0.07532900463939393
12741,3.0,300.33479,3866.6198,0.0,0.0,0.0,0.12920831152827994,0.0,0.0,-0.25701552855045773,-0.4367284337842406,-0.4816119175013956,1.131175085063289,0.31403054425740173,-0.08013993536594584
12742,3.0,299.90817999999996,3779.5338,0.0,0.0,0.0,0.1292184526719522,0.0,0.0,-0.23123542652115978,-0.4329420093530496,-0.48470646436680354,1.108977308497539,0.28789208606523675,-0.10663925346197489
12743,3.0,299.51795,3687.4476,0.0,0.0,0.0,0.12922859381562443,0.0,0.0,-0.2180088447507978,-0.4524776941960716,-0.4504054558865576,1.099595321846609,0.26300069556614775,-0.16527546932891884
12744,3.0,298.551,3913.7282,0.0,0.0,0.0,0.12923873495929672,0.0,0.0,-0.2183324160377318,-0.4497160303860166,-0.5216272005830965,1.108379389613529,0.2853013575470517,-0.13209719262197786
12745,3.0,298.78812999999997,4253.1373,0.0,0.0,0.0,0.12924887610296898,0.0,0.0,-0.2738629088906647,-0.4726985995517196,-0.5462860400517344,1.1262177589490387,0.30437416947939167,-0.1026920667699179
12746,3.0,299.53075,4242.5126,0.0,0.0,0.0,0.12925901724664124,0.0,0.0,-0.25234140583915776,-0.4878897516759695,-0.5493867474777505,1.122481500530299,0.28523023752253274,-0.08851279077853233
12747,3.0,300.33692,4123.5653,0.0,0.0,0.0,0.1292691583903135,0.0,0.0,-0.27184847649935573,-0.4627995108447555,-0.5188129085628476,1.1361595662802189,0.30088881205041373,-0.08440448921457451
12748,3.0,299.99992000000003,4186.5136,0.0,0.0,0.0,0.12927929953398576,0.0,0.0,-0.29840341088012373,-0.47416249263369453,-0.5000297037740896,1.168571511804029,0.2865474626525327,-0.07728715605389842
12749,3.0,300.867,4149.4691,0.0,0.0,0.0,0.12928944067765802,0.0,0.0,-0.2879418062476437,-0.44605710321490855,-0.5273360846940195,1.1736115191264387,0.3175069749529987,-0.07592613825457642
12750,3.0,299.39955,4047.9881,0.0,0.0,0.0,0.12929958182133028,0.0,0.0,-0.24772861515641076,-0.48597747515974254,-0.49678122395348956,1.1028866621464388,0.26195683518062673,-0.15080988533627684
12751,3.0,299.97319,3846.4065,0.0,0.0,0.0,0.12930972296500254,0.0,0.0,-0.23970504225204578,-0.42534510593329355,-0.5041613931768555,1.0964489776360888,0.25052769829265875,-0.12197991063847988
12752,3.0,299.79639,3720.0491,0.0,0.0,0.0,0.12931986410867483,0.0,0.0,-0.2003943631573838,-0.4348530598366556,-0.49555461377993254,1.1117710416732591,0.25888949408040374,-0.12641057974825287
12753,3.0,299.29777,3810.3816,0.0,0.0,0.0,0.12933000525234706,0.0,0.0,-0.25720072027123475,-0.4115254992769046,-0.4895346416233075,1.1613236325137188,0.3186341042317377,-0.08900969369382282
12754,3.0,299.65938,4023.8204,0.0,0.0,0.0,0.12934014639601932,0.0,0.0,-0.2501078783787258,-0.45268335356886863,-0.5203497151220186,1.1230315940095887,0.3068526704165007,-0.13230277093476686
12755,3.0,300.94336,4091.2328,0.0,0.0,0.0,0.12935028753969158,0.0,0.0,-0.2550857228075008,-0.4871640315568465,-0.5013828790176375,1.1209453120536887,0.3173142649164797,-0.1071733173246829
12756,3.0,300.27148,4053.927,0.0,0.0,0.0,0.12936042868336387,0.0,0.0,-0.23608154843693477,-0.4452287813906596,-0.5509822617477155,1.1425700956878888,0.30402995828792073,-0.1237439587975779
12757,3.0,302.22694,4383.9036,0.0,0.0,0.0,0.1293705698270361,0.0,0.0,-0.3187995983705707,-0.48837831047668656,-0.5254193093473485,1.1472965021043489,0.3199591009900047,-0.06995656819767572
12758,3.0,301.5948,4188.4089,0.0,0.0,0.0,0.12938071097070836,0.0,0.0,-0.28173190035977375,-0.45598345848206356,-0.5354563621879286,1.131243074144999,0.26967405191725674,-0.1098503240888829
12759,3.0,300.68721,3971.0692,0.0,0.0,0.0,0.12939085211438062,0.0,0.0,-0.29594418195991673,-0.42188036814385066,-0.4892813493633095,1.1121802933886489,0.25324644082847775,-0.08523963325174681
12760,3.0,301.56145,3905.3042,0.0,0.0,0.0,0.1294009932580529,0.0,0.0,-0.2600116989636567,-0.4162801855036556,-0.5108230870193136,1.1312484443705288,0.28237069375281776,-0.10577186071386989
12761,3.0,299.83623,3999.9732,0.0,0.0,0.0,0.12941113440172516,0.0,0.0,-0.2558913275645078,-0.4141401911599546,-0.5458604648772335,1.1433057152604889,0.30364716253264173,-0.08608346185552623
12762,3.0,299.53495,4027.8940000000002,0.0,0.0,0.0,0.12942127554539742,0.0,0.0,-0.2331666204167538,-0.47519524779811956,-0.5160173312719455,1.1392963859397989,0.26210406042015677,-0.16051683142677783
12763,3.0,299.72707,3997.4194,0.0,0.0,0.0,0.12943141668906966,0.0,0.0,-0.23688422490115277,-0.4534566761776896,-0.5247747708262376,1.112152732985929,0.25788061108833477,-0.13114834469833386
12764,3.0,300.07439,3990.58,0.0,0.0,0.0,0.12944155783274194,0.0,0.0,-0.23243291588684276,-0.47212102672971756,-0.5084827427333395,1.1358733231269689,0.2762072352495317,-0.1103591782891029
12765,3.0,300.69991,3908.577,0.0,0.0,0.0,0.1294516989764142,0.0,0.0,-0.27337215133723075,-0.4304188038215286,-0.4843188658060505,1.138870922222809,0.31046357966536975,-0.07705414602115213
12766,3.0,299.67244,3877.6824,0.0,0.0,0.0,0.12946184012008646,0.0,0.0,-0.22003790847355081,-0.4507476000478246,-0.5079331153490955,1.1388852090492187,0.27127886782313976,-0.11332297536160688
12767,3.0,300.23037,3974.238,0.0,0.0,0.0,0.12947198126375872,0.0,0.0,-0.25667121603397675,-0.44668404158178254,-0.5047138373963775,1.110952842217509,0.29717778355916374,-0.1076742175116179
12768,3.0,300.42148,4053.3888,0.0,0.0,0.0,0.12948212240743098,0.0,0.0,-0.2404676750723118,-0.45463377895136053,-0.5370275381904915,1.109407838465029,0.2975896899898157,-0.1192325336548349
12769,3.0,300.16654,4149.5846,0.0,0.0,0.0,0.12949226355110324,0.0,0.0,-0.28280038272272473,-0.45255954453914954,-0.5260101861431634,1.113820036025479,0.33293204599533466,-0.1032974837046679
12770,3.0,298.96556,4281.7186,0.0,0.0,0.0,0.1295024046947755,0.0,0.0,-0.26268531134002177,-0.49528727787354854,-0.5435629608054875,1.1215184063102488,0.2907863640483797,-0.11779326255028989
12771,3.0,298.82473999999996,4182.0943,0.0,0.0,0.0,0.12951254583844776,0.0,0.0,-0.3079516516074617,-0.4577937007132206,-0.5055068981171466,1.125896254692309,0.2935156950477437,-0.08919911573376732
12772,3.0,298.83579,3953.2685,0.0,0.0,0.0,0.12952268698212002,0.0,0.0,-0.2175978806427388,-0.46385181160360955,-0.5202452287717064,1.129429457791009,0.28325347776994175,-0.11984447592022889
12773,3.0,300.81145,3924.1724,0.0,0.0,0.0,0.12953282812579228,0.0,0.0,-0.25213513851630076,-0.4479041466896976,-0.4928111479416736,1.1086048377607791,0.30183404267120073,-0.1043907096350609
12774,3.0,300.60384,3936.5003,0.0,0.0,0.0,0.12954296926946454,0.0,0.0,-0.22907219835266576,-0.4535663402360126,-0.5139592480663284,1.125242708377809,0.2661244645644398,-0.13288181296941387
12775,3.0,301.1643,3842.6105,0.0,0.0,0.0,0.1295531104131368,0.0,0.0,-0.24483671831100276,-0.44129209196963853,-0.4819288317351726,1.105674011846529,0.2693296380757657,-0.13056124732539187
12776,3.0,300.66553,3808.5962,0.0,0.0,0.0,0.12956325155680906,0.0,0.0,-0.20879272714123778,-0.44758400018810157,-0.5013414168235455,1.153628808604299,0.28524039028853476,-0.11247160209758289
12777,3.0,300.13165,4087.6768,0.0,0.0,0.0,0.12957339270048135,0.0,0.0,-0.26981892641655475,-0.45370674630236957,-0.5190260051913784,1.153422916183979,0.2837026616717727,-0.1027631158669299
12778,3.0,299.7399,4329.9518,0.0,0.0,0.0,0.12958353384415358,0.0,0.0,-0.2553284468689557,-0.4924435002753896,-0.5684252608942055,1.1577539524114189,0.27821887107056475,-0.1027124229644269
12779,3.0,300.07431,4175.9863,0.0,0.0,0.0,0.12959367498782584,0.0,0.0,-0.27353934773623173,-0.48013594647822855,-0.5157202564751265,1.133847836177069,0.31590496574989274,-0.14120639208098587
12780,3.0,300.21501,4124.2301,0.0,0.0,0.0,0.1296038161314981,0.0,0.0,-0.25408161222340275,-0.4822692432387686,-0.5173120926472284,1.136300914669169,0.32009047899797066,-0.07628366760536183
12781,3.0,301.24337,4076.2041,0.0,0.0,0.0,0.12961395727517036,0.0,0.0,-0.2762419694629597,-0.4726402768759636,-0.49018201724469856,1.128778545926769,0.3567297140714817,-0.12237112650208987
12782,3.0,300.76038,4015.882,0.0,0.0,0.0,0.12962409841884265,0.0,0.0,-0.25226114629873675,-0.4686796342225785,-0.4997870607726425,1.0950314407461887,0.2981984810473987,-0.095256868946871
12783,3.0,301.23400000000004,3968.9781,0.0,0.0,0.0,0.12963423956251488,0.0,0.0,-0.2612575304916107,-0.4459474695540886,-0.4992652268386415,1.1314127935367488,0.2908152822062337,-0.1079971504509889
12784,3.0,300.79998,3880.5294,0.0,0.0,0.0,0.12964438070618714,0.0,0.0,-0.2040114025693578,-0.44461646422272855,-0.5309561638562935,1.136206479759849,0.2668074052643407,-0.09521327183481831
12785,3.0,299.79298,3833.7128,0.0,0.0,0.0,0.1296545218498594,0.0,0.0,-0.22572803732512278,-0.44559871900216963,-0.49402618679908855,1.174915977305179,0.27319806483754977,-0.1069492775950719
12786,3.0,299.60809,4204.7495,0.0,0.0,0.0,0.1296646629935317,0.0,0.0,-0.2611488898158888,-0.48277815823399456,-0.5342117972225995,1.1321469945592089,0.26180213215535875,-0.13338219639879786
12787,3.0,299.74366000000003,4554.3529,0.0,0.0,0.0,0.12967480413720395,0.0,0.0,-0.3163591044447127,-0.5145958731041586,-0.5534545717267135,1.129267439100019,0.3163502689038407,-0.1046634157669749
12788,3.0,299.93362,4302.9375,0.0,0.0,0.0,0.12968494528087618,0.0,0.0,-0.27480144192829076,-0.48175783564829655,-0.5514262679415355,1.117618811975389,0.29621697928433977,-0.1116469077086919
12789,3.0,299.27815,4105.5626,0.0,0.0,0.0,0.12969508642454844,0.0,0.0,-0.24517426231681574,-0.4819255893348526,-0.5208886527177076,1.1446455358677188,0.3033188087052357,-0.07299026230182802
12790,3.0,299.7369,4060.0627,0.0,0.0,0.0,0.12970522756822073,0.0,0.0,-0.22285852317442378,-0.46003010580393655,-0.5512690621885205,1.1049588599259488,0.28602433175840375,-0.12382196892277689
12791,3.0,299.97893999999997,4001.5948,0.0,0.0,0.0,0.129715368711893,0.0,0.0,-0.25127344023375775,-0.4688234549417726,-0.49628800420231256,1.1205756784172092,0.2861759950333717,-0.08338349788381053
12792,3.0,299.86235,3893.7872,0.0,0.0,0.0,0.12972550985556525,0.0,0.0,-0.23227720974397575,-0.4527333169312996,-0.4986035542583395,1.1059883220275488,0.2971644086578437,-0.1196870979146969
12793,3.0,299.5537,3988.313,0.0,0.0,0.0,0.12973565099923748,0.0,0.0,-0.26383577576856376,-0.4515461120541316,-0.4969656658691925,1.138464608932709,0.3142468427562487,-0.08676350972639173
12794,3.0,299.74619,3965.9791,0.0,0.0,0.0,0.12974579214290977,0.0,0.0,-0.23174263925621777,-0.4829881340522176,-0.4908278425934366,1.116815405971099,0.2950422475159027,-0.13650473936446886
12795,3.0,301.58213,4126.8412,0.0,0.0,0.0,0.12975593328658203,0.0,0.0,-0.26722432728298773,-0.4803204593214385,-0.5069118909708085,1.115769123917839,0.28736097076031974,-0.12033490923363088
12796,3.0,301.72463,4193.5909,0.0,0.0,0.0,0.12976607443025429,0.0,0.0,-0.2373069224453698,-0.4795035162958125,-0.5579364808940435,1.121068624590859,0.2730150820019907,-0.1001306384048746
12797,3.0,300.71024,4124.8626,0.0,0.0,0.0,0.12977621557392657,0.0,0.0,-0.28227954177382175,-0.4768087979198645,-0.49476688275468955,1.1417610154830387,0.28335689007514775,-0.10692005546218791
12798,3.0,299.68835,4081.8224,0.0,0.0,0.0,0.1297863567175988,0.0,0.0,-0.2540995974126778,-0.47238762296352854,-0.5142848559859635,1.156074389045659,0.27507334759262575,-0.10602465648131891
12799,3.0,300.81076,4132.4504,0.0,0.0,0.0,0.12979649786127107,0.0,0.0,-0.28735675563990376,-0.46325358874456957,-0.5055513899290375,1.130915895687709,0.28217425495593074,-0.1032799240804349
12800,3.0,299.90342999999996,4101.4465,0.0,0.0,0.0,0.12980663900494332,0.0,0.0,-0.2653470484252147,-0.46385987707440557,-0.5175303973812735,1.1437592460052488,0.3200373644277287,-0.07956171609038001
12801,3.0,299.69036,4022.0587,0.0,0.0,0.0,0.1298167801486156,0.0,0.0,-0.23966608278570076,-0.43768948123908863,-0.5452498601019714,1.1430544292356888,0.3037010370404587,-0.08666166086609002
12802,3.0,298.95318,4056.2044,0.0,0.0,0.0,0.12982692129228787,0.0,0.0,-0.2276464744019578,-0.4660526414833146,-0.5392857382908585,1.130094251181619,0.2994349096144247,-0.10080593514602121
12803,3.0,299.77209,4113.2515,0.0,0.0,0.0,0.1298370624359601,0.0,0.0,-0.27070398011390273,-0.4459561531074456,-0.5336656047561945,1.124936402872579,0.2807515707555227,-0.09767710395022959
12804,3.0,300.03022999999996,3992.252,0.0,0.0,0.0,0.12984720357963236,0.0,0.0,-0.25440104944992875,-0.44087726737869853,-0.5182665945064305,1.098117901875799,0.2951025764268567,-0.09151197054452832
12805,3.0,300.73771,4123.6397,0.0,0.0,0.0,0.12985734472330465,0.0,0.0,-0.27748433567557174,-0.47109026766798956,-0.5049088981731286,1.061913259902679,0.30504822397591574,-0.1033210924319979
12806,3.0,300.54892,4176.5584,0.0,0.0,0.0,0.1298674858669769,0.0,0.0,-0.26475908978968776,-0.4746809524448625,-0.5301294227022004,1.096999071115379,0.3064918723208927,-0.1048310985260239
12807,3.0,299.83698,4009.3931,0.0,0.0,0.0,0.12987762701064917,0.0,0.0,-0.24243065462354277,-0.4706708935841006,-0.5056538295141475,1.122483324380479,0.2991403274128517,-0.13677126467077286
12808,3.0,300.32325,3940.7266,0.0,0.0,0.0,0.1298877681543214,0.0,0.0,-0.21835394760235682,-0.44971533124344754,-0.5298132076109925,1.156803827792649,0.30607171803442673,-0.08941121127119951
12809,3.0,299.68323,3954.8264,0.0,0.0,0.0,0.1298979092979937,0.0,0.0,-0.28668603473620874,-0.4346515750542706,-0.48083087392681256,1.166880397387129,0.28147409913683075,-0.0997972102209678
12810,3.0,299.57646,4051.3136,0.0,0.0,0.0,0.12990805044166595,0.0,0.0,-0.24395854458183375,-0.4660280093733835,-0.5215116292766905,1.1375185373143388,0.2807533034131937,-0.09919963989499221
12811,3.0,299.34819,4063.6654,0.0,0.0,0.0,0.1299181915853382,0.0,0.0,-0.2940586248488267,-0.44666524579242756,-0.49452893110120555,1.164228113925369,0.25620711709067373,-0.11586735782021788
12812,3.0,299.8775,4184.62,0.0,0.0,0.0,0.12992833272901047,0.0,0.0,-0.25183678702435575,-0.47616093593842557,-0.5440222670758175,1.1210020540592887,0.3012807675865967,-0.08786504430760472
12813,3.0,299.50414,3952.1529,0.0,0.0,0.0,0.12993847387268273,0.0,0.0,-0.24183462038471876,-0.4472703080896425,-0.5122508577352235,1.1112108156929688,0.2872439403737697,-0.1310246673911279
12814,3.0,300.35749,4057.0683,0.0,0.0,0.0,0.129948615016355,0.0,0.0,-0.25391072759403777,-0.46407481781811855,-0.5152619026598905,1.0821030787452592,0.29778594640168476,-0.12019957955027488
12815,3.0,300.29154,4193.222,0.0,0.0,0.0,0.12995875616002725,0.0,0.0,-0.3025809701149167,-0.46549879897865454,-0.5065549938880856,1.111929007363849,0.2821811349241097,-0.13320605300141386
12816,3.0,300.18126,4008.6941,0.0,0.0,0.0,0.1299688973036995,0.0,0.0,-0.2509449952138428,-0.45675924328862755,-0.5108386606733505,1.131213183267049,0.3090507239909317,-0.10194464283365291
12817,3.0,300.13176,3859.4854,0.0,0.0,0.0,0.1299790384473718,0.0,0.0,-0.22939402684942775,-0.4458616776681216,-0.49793148573201157,1.142835263239059,0.3124895833728207,-0.1053221499219869
12818,3.0,300.48155,4019.4851,0.0,0.0,0.0,0.12998917959104403,0.0,0.0,-0.23980872813477877,-0.44569145165132157,-0.5363229342034525,1.087271971480389,0.29364970750596975,-0.093027435016843
12819,3.0,300.43377999999996,4134.5746,0.0,0.0,0.0,0.1299993207347163,0.0,0.0,-0.24215710749404576,-0.4701141329191525,-0.5445361773940365,1.1420430029858688,0.2930488704616717,-0.10527395974723089
12820,3.0,300.93345,3931.8926,0.0,0.0,0.0,0.13000946187838855,0.0,0.0,-0.23750844775775878,-0.4415225455723826,-0.5161661675791345,1.148503890923509,0.3008551417495907,-0.08155185074429103
12821,3.0,300.97362000000004,3955.9439,0.0,0.0,0.0,0.13001960302206084,0.0,0.0,-0.25294919377914177,-0.46155934338486054,-0.4879996487818155,1.1852327884983689,0.2955276247113057,-0.0974107103664386
12822,3.0,300.39218,4167.6308,0.0,0.0,0.0,0.1300297441657331,0.0,0.0,-0.28512098889675075,-0.4590637185210616,-0.5226709900411105,1.105558906635169,0.28696509394624975,-0.11777187284067889
12823,3.0,300.03242,4226.3407,0.0,0.0,0.0,0.13003988530940533,0.0,0.0,-0.29612350696261475,-0.47434728918693253,-0.5142312347906716,1.1383203221184688,0.2705895335151077,-0.1230261420292349
12824,3.0,299.65362000000005,3976.6998,0.0,0.0,0.0,0.1300500264530776,0.0,0.0,-0.2400796610790178,-0.44734258321927556,-0.5213951967076995,1.1095082515499388,0.28311834060410473,-0.1029539311257619
12825,3.0,299.80748,3968.5696,0.0,0.0,0.0,0.13006016759674988,0.0,0.0,-0.23688244158097677,-0.4569271185651955,-0.5125365030709146,1.156114817724649,0.2950462194562947,-0.10272102545777591
12826,3.0,300.22462,3992.0932,0.0,0.0,0.0,0.13007030874042214,0.0,0.0,-0.24615327469593676,-0.4584786172508165,-0.5088647481535404,1.105354331439979,0.27991027932999374,-0.12075976500056089
12827,3.0,300.31856,4059.5256,0.0,0.0,0.0,0.1300804498840944,0.0,0.0,-0.27504394307472374,-0.4511786771703686,-0.5077717856681735,1.100966046581889,0.3015861712992377,-0.09663941121806731
12828,3.0,300.53352,4010.6182,0.0,0.0,0.0,0.13009059102776663,0.0,0.0,-0.25720696189185077,-0.4532417253014756,-0.5086791004702185,1.096043272296049,0.3247343257962827,-0.0966135854995185
12829,3.0,300.57516,3825.6696,0.0,0.0,0.0,0.13010073217143892,0.0,0.0,-0.22484440217791477,-0.42743025304908155,-0.5106333559380886,1.1312652643221888,0.28778556308222375,-0.07043278662542485
12830,3.0,300.71308999999997,3972.9996,0.0,0.0,0.0,0.13011087331511118,0.0,0.0,-0.23606824446312177,-0.45288118051839255,-0.5187432476184726,1.1092964822790388,0.2972345052997617,-0.12160868619934287
12831,3.0,300.14423,4345.1195,0.0,0.0,0.0,0.13012101445878343,0.0,0.0,-0.25334520231572477,-0.4921251269614685,-0.5753375010888905,1.1451370634912288,0.2727958856078577,-0.11313835106088589
12832,3.0,298.92469,4271.0429,0.0,0.0,0.0,0.13013115560245572,0.0,0.0,-0.2955792599364017,-0.4815360149364046,-0.5211751086534785,1.1491356523608591,0.28850076566530874,-0.12937915936122887
12833,3.0,298.74251,4076.6804,0.0,0.0,0.0,0.13014129674612795,0.0,0.0,-0.25933775592464375,-0.4653914349980586,-0.5144798559677085,1.133722801114729,0.2948043363924227,-0.11293996682380689
12834,3.0,299.1501,4029.9809999999998,0.0,0.0,0.0,0.13015143788980021,0.0,0.0,-0.27114338615226874,-0.4624555630983106,-0.49141465625635056,1.132128148107349,0.28617615715338773,-0.12552824156117287
12835,3.0,300.84794,4052.0709,0.0,0.0,0.0,0.13016157903347247,0.0,0.0,-0.26148199578626374,-0.46104687188178356,-0.5091994955890775,1.100005688137109,0.2923982321749587,-0.1086525510131719
12836,3.0,300.61872999999997,3857.2002,0.0,0.0,0.0,0.13017172017714476,0.0,0.0,-0.2111649482753578,-0.4442452600485936,-0.5170823381870535,1.1106411664867488,0.29722407895623276,-0.0981073289294395
12837,3.0,300.98175,3902.4361,0.0,0.0,0.0,0.13018186132081702,0.0,0.0,-0.21419348189675078,-0.4461592185599866,-0.5258904199813434,1.1235787490635887,0.27409538899360875,-0.1005243164662276
12838,3.0,300.08584,4031.518,0.0,0.0,0.0,0.13019200246448925,0.0,0.0,-0.24503592328066276,-0.45235515172897756,-0.5280897299858985,1.143654475944909,0.28380810047717875,-0.07941240558214423
12839,3.0,300.60183,4198.8493,0.0,0.0,0.0,0.1302021436081615,0.0,0.0,-0.2787236013428777,-0.47854358341607456,-0.5190781369090235,1.1399987709091188,0.2998373421566417,-0.11830275509807288
12840,3.0,299.69061,4244.0456,0.0,0.0,0.0,0.13021228475183377,0.0,0.0,-0.2819133937176857,-0.47679170439067753,-0.5313787803405025,1.1438891446680688,0.3095454433522567,-0.08995804512491783
12841,3.0,301.03503,4305.8329,0.0,0.0,0.0,0.13022242589550606,0.0,0.0,-0.2948370947681557,-0.4837593389683295,-0.5302692714810024,1.108700387245209,0.2985082518679707,-0.11337698159193689
12842,3.0,299.97463,4256.9151,0.0,0.0,0.0,0.13023256703917832,0.0,0.0,-0.25096388219570676,-0.4913879267187125,-0.5516440761830315,1.1279542669704188,0.2975605185194367,-0.11684589397179189
12843,3.0,299.51119,4065.7666,0.0,0.0,0.0,0.13024270818285055,0.0,0.0,-0.25357357875576375,-0.4530958476845786,-0.5292220977676545,1.1174132235300989,0.2894751576239737,-0.11866799122911889
12844,3.0,300.8693,3974.9065,0.0,0.0,0.0,0.1302528493265228,0.0,0.0,-0.25753023933625574,-0.45842100385013057,-0.49232105913330554,1.155861809174679,0.30159098423721276,-0.11109865834458389
12845,3.0,300.37447000000003,3790.1222,0.0,0.0,0.0,0.1302629904701951,0.0,0.0,-0.24449109870189276,-0.4078411091307836,-0.4997703016159885,1.132043845699029,0.2853465788990147,-0.08335919001391151
12846,3.0,300.24426,3897.0229999999997,0.0,0.0,0.0,0.13027313161386736,0.0,0.0,-0.25180433262365276,-0.44053957138537053,-0.4922537894591665,1.123757182406199,0.2668239516384738,-0.12444980908223988
12847,3.0,299.17548,4090.3729,0.0,0.0,0.0,0.13028327275753962,0.0,0.0,-0.25964797257525973,-0.47132130895579155,-0.5124019535901355,1.102050122863879,0.28639728885521176,-0.1069819245132939
12848,3.0,299.8171,4261.4297,0.0,0.0,0.0,0.13029341390121185,0.0,0.0,-0.23571097247786177,-0.5013624822931245,-0.5582947661294035,1.123147712471049,0.29593213441622773,-0.13113161593918288
12849,3.0,299.71628,4273.1998,0.0,0.0,0.0,0.13030355504488414,0.0,0.0,-0.25966225940166976,-0.48125051145572756,-0.5580332462785935,1.146152948041489,0.28054375316001273,-0.12939542202533388
12850,3.0,300.03316,4320.1759999999995,0.0,0.0,0.0,0.13031369618855637,0.0,0.0,-0.2664372244728067,-0.4910549626033516,-0.5557334623941225,1.1271059739866989,0.2806324328087647,-0.11330521308735389
12851,3.0,298.95617999999996,4131.8271,0.0,0.0,0.0,0.13032383733222866,0.0,0.0,-0.2690127542394917,-0.4643894319741686,-0.5225700703311505,1.142164289022839,0.29908786132267373,-0.0990975944641711
12852,3.0,301.09513,3994.3140000000003,0.0,0.0,0.0,0.13033397847590095,0.0,0.0,-0.26719553071514573,-0.4512986865122126,-0.49567752101706253,1.133716721614129,0.30894520412551774,-0.07696715140731641
12853,3.0,300.85915,3970.3281,0.0,0.0,0.0,0.13034411961957318,0.0,0.0,-0.25607270946490873,-0.44374156329138253,-0.5070663102860485,1.140512995334869,0.3167538261536687,-0.0918196267121416
12854,3.0,300.64029,4068.3347,0.0,0.0,0.0,0.13035426076324544,0.0,0.0,-0.25670855430016176,-0.4439232795643166,-0.5360403184855604,1.1274420690448688,0.28287901093048473,-0.11203749535723989
12855,3.0,299.50212999999997,4256.9784,0.0,0.0,0.0,0.1303644019069177,0.0,0.0,-0.28716110717809473,-0.46888226397757654,-0.5379717555611785,1.1327142119651887,0.2833508511045517,-0.1162740764103579
12856,3.0,299.06192999999996,4041.4736,0.0,0.0,0.0,0.13037454305058999,0.0,0.0,-0.2574431910201648,-0.4489744529028286,-0.5220894250137145,1.1314501824654388,0.28311698284897074,-0.09950642568076959
12857,3.0,299.45277999999996,3930.1116,0.0,0.0,0.0,0.13038468419426225,0.0,0.0,-0.23202911545699076,-0.4420042548024236,-0.5206224111214316,1.143310173560929,0.2921557310285257,-0.09471971365810791
12858,3.0,299.70078,3967.4742,0.0,0.0,0.0,0.13039482533793448,0.0,0.0,-0.25937629995844774,-0.4332487910858266,-0.5133880080574516,1.113812233999709,0.27317307809008373,-0.0893410649800266
12859,3.0,299.5414,4053.6693,0.0,0.0,0.0,0.13040496648160674,0.0,0.0,-0.23917662219239477,-0.46226158649916654,-0.5307760181210145,1.1085335049537388,0.3099205181417737,-0.11421024807667389
12860,3.0,299.78195,4072.3504,0.0,0.0,0.0,0.13041510762527903,0.0,0.0,-0.24528537532278177,-0.48206174988329054,-0.5105457199369395,1.116284969543749,0.2837190864558937,-0.12742665681603188
12861,3.0,299.71879,3828.0915,0.0,0.0,0.0,0.13042524876895129,0.0,0.0,-0.2176744620852968,-0.44588711024563155,-0.5000826562243155,1.1449471804224889,0.2883384024692847,-0.12249663779197688
12862,3.0,299.40258,3880.1875,0.0,0.0,0.0,0.13043538991262354,0.0,0.0,-0.2132645139400688,-0.4677214542655136,-0.49849415364504246,1.1422083654021888,0.28532205824659473,-0.12949881406553787
12863,3.0,299.60447999999997,4222.5252,0.0,0.0,0.0,0.13044553105629578,0.0,0.0,-0.27638337864691576,-0.4885762286187196,-0.5185826170801194,1.1527562989431888,0.30074108018583373,-0.1065048661012119
12864,3.0,300.02096,4240.2037,0.0,0.0,0.0,0.13045567219996806,0.0,0.0,-0.2839765431738027,-0.4726205590290175,-0.5323189447107896,1.129841445281669,0.3033530362936137,-0.09853874447751691
12865,3.0,301.00099,4023.9733,0.0,0.0,0.0,0.13046581334364032,0.0,0.0,-0.2194095008940318,-0.47172145155278256,-0.5320564521398835,1.1168603942755388,0.3091298588237417,-0.1294218374554409
12866,3.0,300.60615,3963.9723,0.0,0.0,0.0,0.13047595448731258,0.0,0.0,-0.2328221255152548,-0.4459523635520716,-0.5261740894793395,1.133136838581899,0.2687596544970128,-0.1349882889998069
12867,3.0,300.01808,4137.0821,0.0,0.0,0.0,0.13048609563098484,0.0,0.0,-0.27219343749590075,-0.48166197205633554,-0.5037142560402266,1.0972958520696687,0.29536329581008774,-0.13795380859748088
12868,3.0,300.14653,4314.4723,0.0,0.0,0.0,0.1304962367746571,0.0,0.0,-0.28738728486541676,-0.4804477741965036,-0.5436567978972485,1.112018781322709,0.28757749217418876,-0.11692068196167289
12869,3.0,299.45609,4132.4438,0.0,0.0,0.0,0.13050637791832936,0.0,0.0,-0.2756803654625337,-0.4683181572494036,-0.5121611952338745,1.113816489650129,0.2849215711445698,-0.09253417878866242
12870,3.0,298.27423,3859.9546,0.0,0.0,0.0,0.13051651906200162,0.0,0.0,-0.2272149413168688,-0.43195126353777064,-0.5141636104789975,1.1240394738840591,0.3000102431537057,-0.06332668331560704
12871,3.0,299.02725,4059.5827,0.0,0.0,0.0,0.13052666020567388,0.0,0.0,-0.2232157242321768,-0.4723471942845386,-0.5384488646357655,1.1202297548330689,0.3049524110464597,-0.09909101543127181
12872,3.0,299.48729,4259.3212,0.0,0.0,0.0,0.13053680134934614,0.0,0.0,-0.2787686099123197,-0.46608033360854756,-0.5498783460287675,1.159564123715069,0.3019998610500657,-0.1042117595348999
12873,3.0,299.8878,4204.9927,0.0,0.0,0.0,0.1305469424930184,0.0,0.0,-0.26503021525144577,-0.4656866758121965,-0.5474959012011386,1.124259349155759,0.3198153106683137,-0.12949614921777486
12874,3.0,300.70495,3998.0867,0.0,0.0,0.0,0.13055708363669066,0.0,0.0,-0.23641490771983475,-0.4710835295548246,-0.5078200771679395,1.172981682864279,0.29210139042566274,-0.1055684406237939
12875,3.0,300.876,4044.8588,0.0,0.0,0.0,0.13056722478036292,0.0,0.0,-0.26234045166848674,-0.4689005936718856,-0.4982950297353905,1.1383736190737288,0.29327645656663276,-0.1143621443991649
12876,3.0,300.54625,4266.9627,0.0,0.0,0.0,0.13057736592403518,0.0,0.0,-0.27709693976483873,-0.46847978077285457,-0.5514734043361875,1.1489116227637488,0.3084782984794377,-0.08400475597062393
12877,3.0,300.94468,4079.5895,0.0,0.0,0.0,0.13058750706770744,0.0,0.0,-0.23604826317114974,-0.47438214499037257,-0.5296629324886616,1.115101493426949,0.2970279542668767,-0.11136555855342489
12878,3.0,300.99341,3870.2767,0.0,0.0,0.0,0.1305976482113797,0.0,0.0,-0.2121159341567128,-0.46360295737904955,-0.5007486047200395,1.1499139297626688,0.2845576927686577,-0.12358270004416289
12879,3.0,300.44762000000003,4032.3408,0.0,0.0,0.0,0.13060778935505196,0.0,0.0,-0.2585204278639797,-0.46800486031848354,-0.4992056274677595,1.105785165382499,0.2934635531975977,-0.13778696683601488
12880,3.0,300.00276,4264.0381,0.0,0.0,0.0,0.13061793049872422,0.0,0.0,-0.28685133635752275,-0.49391586412820054,-0.5153939088829185,1.1495042727472387,0.27745425228010273,-0.11177701915403289
12881,3.0,298.47922,3982.7929,0.0,0.0,0.0,0.13062807164239648,0.0,0.0,-0.27884876812773074,-0.44766007500560956,-0.4841607582604466,1.117069731746199,0.2959237447053997,-0.10001528089423972
12882,3.0,299.5364,3994.4666,0.0,0.0,0.0,0.13063821278606877,0.0,0.0,-0.2290502716205018,-0.4566951248222995,-0.5284726979936945,1.1325865424525887,0.2938594300116677,-0.07809937530755823
12883,3.0,299.85882000000004,4165.6116,0.0,0.0,0.0,0.130648353929741,0.0,0.0,-0.23675740651863678,-0.4787783433317435,-0.5507061510954654,1.1208325373175592,0.2967113541406307,-0.11727480273912189
12884,3.0,300.52398999999997,4036.4131,0.0,0.0,0.0,0.1306584950734133,0.0,0.0,-0.24310419236251576,-0.4561468146631855,-0.5277177962716916,1.151012596846099,0.28900973132303975,-0.13073286149482888
12885,3.0,300.12007,4014.6279,0.0,0.0,0.0,0.13066863621708552,0.0,0.0,-0.23511454307149876,-0.47150704783162256,-0.5137250353057135,1.136557368269479,0.29403101378360175,-0.14528241352325788
12886,3.0,299.93262999999996,4126.5404,0.0,0.0,0.0,0.1306787773607578,0.0,0.0,-0.26717523531564275,-0.4665720334845746,-0.5206179933509955,1.1487413967469489,0.28067232446520174,-0.11699176145618788
12887,3.0,299.97923,4119.7939,0.0,0.0,0.0,0.13068891850443007,0.0,0.0,-0.2793572271604117,-0.45584171492557457,-0.5171155322603295,1.154967109336379,0.28641206204166975,-0.11827337084517288
12888,3.0,301.3996,4168.6115,0.0,0.0,0.0,0.13069905964810233,0.0,0.0,-0.2829712572195887,-0.45555472196725055,-0.5286278164515036,1.128283978552959,0.26567128845721477,-0.0972117485768026
12889,3.0,300.77969,4201.6317,0.0,0.0,0.0,0.13070920079177456,0.0,0.0,-0.26715482845862876,-0.46124794123162755,-0.5487883422336925,1.135201436985659,0.27642099049062774,-0.08065191138972393
12890,3.0,300.56105,4158.5488,0.0,0.0,0.0,0.13071934193544685,0.0,0.0,-0.26179410721456675,-0.4695347463794715,-0.5327661426424245,1.1283760829870488,0.26747346521757576,-0.0930625350135571
12891,3.0,300.15862999999996,4079.5781,0.0,0.0,0.0,0.1307294830791191,0.0,0.0,-0.23120270867543077,-0.4902972947085756,-0.5185898820833366,1.1494103444629689,0.3115516380202527,-0.10692656052782991
12892,3.0,301.0031,4236.3775,0.0,0.0,0.0,0.13073962422279137,0.0,0.0,-0.27704718918492877,-0.46761876136787855,-0.5430870271010165,1.134753580441459,0.2974138404349607,-0.0935150058987125
12893,3.0,300.71977000000004,4150.8231,0.0,0.0,0.0,0.1307497653664636,0.0,0.0,-0.2574899322472778,-0.4709645942580865,-0.5332920498418274,1.142232886054609,0.32379752541632767,-0.10646727452250189
12894,3.0,300.77061000000003,4032.0035,0.0,0.0,0.0,0.1307599065101359,0.0,0.0,-0.2433890169656258,-0.4710718265161696,-0.5111675312583075,1.1301329573354388,0.2929282329047657,-0.1136915957479869
12895,3.0,299.52956,4153.0622,0.0,0.0,0.0,0.13077004765380815,0.0,0.0,-0.2740288691245438,-0.45073729529430756,-0.5376610626830155,1.167373647535809,0.2969734920740017,-0.13124127999750587
12896,3.0,300.41107999999997,4263.4762,0.0,0.0,0.0,0.1307801887974804,0.0,0.0,-0.28613901140472175,-0.47645275196722553,-0.5333985525598385,1.135837251423409,0.2789965607873167,-0.13479157662539287
12897,3.0,299.97954,3966.9344,0.0,0.0,0.0,0.1307903299411527,0.0,0.0,-0.24065119493042375,-0.45503967680891955,-0.5101581315086875,1.169408659036649,0.2825114544567097,-0.1386315614568699
12898,3.0,300.25054,4061.7605,0.0,0.0,0.0,0.13080047108482493,0.0,0.0,-0.2750270015330517,-0.4550125521037426,-0.5046342060710185,1.143817507885999,0.26158602617403076,-0.08800165676558731
12899,3.0,299.13462000000004,4278.0223,0.0,0.0,0.0,0.1308106122284972,0.0,0.0,-0.2890812465150977,-0.49350709877285853,-0.5178236116952115,1.118995514886259,0.2950721789238567,-0.08116399481801263
12900,3.0,298.45305,3980.243,0.0,0.0,0.0,0.13082075337216947,0.0,0.0,-0.26283368155216474,-0.44700305324326656,-0.5000577606693586,1.103067223314259,0.28680484844293475,-0.07092747457599673
12901,3.0,299.13687999999996,4075.2703,0.0,0.0,0.0,0.1308308945158417,0.0,0.0,-0.22571004200334677,-0.4984571092213866,-0.5146132807408765,1.1098304650817388,0.2970488069539347,-0.1013927761666879
12902,3.0,299.57282000000004,4204.16,0.0,0.0,0.0,0.130841035659514,0.0,0.0,-0.23117684040037778,-0.49164901087197954,-0.5551337905874395,1.1430544292356888,0.29599159193209573,-0.12533372793947586
12903,3.0,300.19049,4072.4579,0.0,0.0,0.0,0.13085117680318623,0.0,0.0,-0.2215530821430868,-0.4785863121727915,-0.5377861281428584,1.1599871556318189,0.2981851770735857,-0.13945824181595687
12904,3.0,300.58191,4020.13,0.0,0.0,0.0,0.13086131794685849,0.0,0.0,-0.24678662693594375,-0.4646314568930546,-0.5106010535249005,1.170854364279329,0.2962470829448107,-0.13135788481901386
12905,3.0,300.82362,4034.7926,0.0,0.0,0.0,0.13087145909053075,0.0,0.0,-0.26255507830466873,-0.4494665074163906,-0.5144546159077176,1.1462873050047488,0.3064379775480737,-0.09912417910704481
12906,3.0,299.65939,3913.8234,0.0,0.0,0.0,0.13088160023420303,0.0,0.0,-0.24956424943507377,-0.4477919089761206,-0.4923484270185065,1.1447343979014888,0.3080770615723387,-0.1153806228696809
12907,3.0,300.60977,4021.2451,0.0,0.0,0.0,0.1308917413778753,0.0,0.0,-0.26451730805082574,-0.44414965990165856,-0.5136911420898685,1.1317838457233689,0.2999979017674877,-0.10710194398763889
12908,3.0,300.00732999999997,4314.8189,0.0,0.0,0.0,0.13090188252154752,0.0,0.0,-0.28993049195391174,-0.48591070197815256,-0.5357560106400016,1.130958857491949,0.3026567814873987,-0.12098884058316889
12909,3.0,299.51204,4312.4791,0.0,0.0,0.0,0.13091202366521978,0.0,0.0,-0.27260205086372774,-0.48467584394878155,-0.5536080689843625,1.1275129965518689,0.27961270804062577,-0.09398117389871972
12910,3.0,299.30801,4102.8125,0.0,0.0,0.0,0.13092216480889207,0.0,0.0,-0.24010788009430278,-0.4717095458641075,-0.5353351166809625,1.139830267417489,0.27654084784495675,-0.08079531667637692
12911,3.0,298.59574,4039.8552,0.0,0.0,0.0,0.13093230595256433,0.0,0.0,-0.2373606753631748,-0.46145089522665755,-0.5292035350258225,1.1257593646037989,0.2995413312724277,-0.07815269658082064
12912,3.0,299.56417000000005,4273.3423,0.0,0.0,0.0,0.1309424470962366,0.0,0.0,-0.28187950050184074,-0.4833045112634415,-0.5338053420774855,1.140752122358469,0.3058495933475047,-0.07881726097690803
12913,3.0,300.30881,4164.0709,0.0,0.0,0.0,0.13095258823990882,0.0,0.0,-0.25785368903317774,-0.47540784793410157,-0.5325120397823465,1.1351198703526089,0.3141175013809837,-0.12932250854813787
12914,3.0,299.97295,3968.8839,0.0,0.0,0.0,0.1309627293835811,0.0,0.0,-0.24265962888114076,-0.47022375644747155,-0.4935582071079025,1.1439050526946388,0.3025548485273387,-0.14074234380018788
12915,3.0,299.40887999999995,3880.4498,0.0,0.0,0.0,0.13097287052725337,0.0,0.0,-0.2284621407324578,-0.4621391960195876,-0.48895850761644755,1.162668519371449,0.28695185076744273,-0.15587112024828184
12916,3.0,300.15233,3872.8026,0.0,0.0,0.0,0.13098301167092563,0.0,0.0,-0.24897313959173578,-0.4398740585871896,-0.4883881086051536,1.1473236572070291,0.29002681150841775,-0.1062632160848629
12917,3.0,300.37612,4002.5355,0.0,0.0,0.0,0.13099315281459792,0.0,0.0,-0.2421538448287238,-0.45570914128249057,-0.5188078625773495,1.1366217096508289,0.27882257561264573,-0.11319840639431289
12918,3.0,300.89385,4118.8484,0.0,0.0,0.0,0.13100329395827015,0.0,0.0,-0.27719612681712774,-0.45303144550822255,-0.5217995037626014,1.1156904957100788,0.2701440479761417,-0.091228875559339
12919,3.0,300.87417999999997,4206.1089,0.0,0.0,0.0,0.1310134351019424,0.0,0.0,-0.25356626309004177,-0.49293137006603854,-0.5320544256396834,1.0906864216673688,0.28700056783225075,-0.11627389402533987
12920,3.0,300.96757,4331.9082,0.0,0.0,0.0,0.13102357624561467,0.0,0.0,-0.2771117737463027,-0.48849799557849855,-0.5511821455949425,1.1393866665237091,0.28576522344283173,-0.1051619348161749
12921,3.0,300.13955,4468.9576,0.0,0.0,0.0,0.13103371738928696,0.0,0.0,-0.27780722808493874,-0.5159411855269306,-0.5647031170493585,1.141194710002149,0.2960114212365527,-0.0921470787469586
12922,3.0,299.06237999999996,4245.1447,0.0,0.0,0.0,0.13104385853295922,0.0,0.0,-0.2665910358379867,-0.4770891439575326,-0.5467378077413204,1.1363090206699689,0.30732584808069974,-0.08200887720189602
12923,3.0,299.52168,3968.8758,0.0,0.0,0.0,0.13105399967663145,0.0,0.0,-0.24180838733962975,-0.4470519830905955,-0.5175787496760454,1.136190673058289,0.2851341307505477,-0.08432115648660021
12924,3.0,298.91606,4046.8051,0.0,0.0,0.0,0.1310641408203037,0.0,0.0,-0.25635559876032776,-0.47792105268713553,-0.49585104009668757,1.130258499022829,0.3155968870569877,-0.1076076875100519
12925,3.0,299.69363,4261.5858,0.0,0.0,0.0,0.131074281963976,0.0,0.0,-0.2890993836918877,-0.47829887338442356,-0.5280174143262615,1.158110008496559,0.3153747421050637,-0.11853524533351788
12926,3.0,300.20862,4278.0474,0.0,0.0,0.0,0.13108442310764826,0.0,0.0,-0.3026147822707537,-0.4874711881921605,-0.5103336162935065,1.128612271585359,0.30425505179763573,-0.14685964876141888
12927,3.0,300.0879,4014.533,0.0,0.0,0.0,0.13109456425132052,0.0,0.0,-0.23668425999391776,-0.47016139090381653,-0.5134721382132545,1.146635863039149,0.2876123783751317,-0.12784624368244188
12928,3.0,299.96636,3962.2005,0.0,0.0,0.0,0.13110470539499275,0.0,0.0,-0.2435076482873338,-0.42593123058613963,-0.5349711471125416,1.130076114004829,0.2797854773151767,-0.08898397234003431
12929,3.0,300.9188,4267.1114,0.0,0.0,0.0,0.13111484653866504,0.0,0.0,-0.24821279671669577,-0.4820978114543496,-0.5667846975247945,1.1478383882578291,0.2915348518972497,-0.08473151163134912
12930,3.0,299.46488999999997,4377.1536,0.0,0.0,0.0,0.1311249876823373,0.0,0.0,-0.2978953166174787,-0.48380586741292153,-0.5488442229767074,1.105400130344499,0.25905803810203776,-0.08841161167654672
12931,3.0,299.70389,4308.4617,0.0,0.0,0.0,0.13113512882600956,0.0,0.0,-0.26474927139621873,-0.4951275997902896,-0.5497879033248415,1.136363128225309,0.26262676574924376,-0.1093110014581559
12932,3.0,298.65285,3993.0763,0.0,0.0,0.0,0.13114526996968182,0.0,0.0,-0.25176196863697176,-0.4961980883884385,-0.46583544119187853,1.118386652901169,0.2939507137131767,-0.11494870474955389
12933,3.0,298.76222,3923.792,0.0,0.0,0.0,0.13115541111335408,0.0,0.0,-0.22312022541025178,-0.46842873323281653,-0.5011858221381895,1.1634338271719789,0.3043545225599527,-0.11533237189991889
12934,3.0,298.81538,4092.6386,0.0,0.0,0.0,0.13116555225702634,0.0,0.0,-0.2542320393332488,-0.47262571647202656,-0.5172021854088815,1.119604680846379,0.31923803168884074,-0.1055442948739109
12935,3.0,299.29907000000003,4141.9209,0.0,0.0,0.0,0.1311756934006986,0.0,0.0,-0.22883066992632878,-0.4658788082961585,-0.5643310414801375,1.128241726023789,0.2744977100783147,-0.09975752628080131
12936,3.0,299.52225,3983.8323,0.0,0.0,0.0,0.13118583454437086,0.0,0.0,-0.25986039032622377,-0.4345430661010616,-0.5165820966126835,1.127001811876419,0.2900258590533237,-0.13658669103255686
12937,3.0,300.01302000000004,4074.9059,0.0,0.0,0.0,0.13119597568804314,0.0,0.0,-0.24398028892897974,-0.45459917646044556,-0.5400901778102505,1.1621370696939988,0.2842456725328637,-0.13765987487597187
12938,3.0,300.20011,4314.9921,0.0,0.0,0.0,0.13120611683171537,0.0,0.0,-0.3041034999801787,-0.48928855357152057,-0.5182577994955625,1.1551235551518189,0.28383159774699773,-0.14533428179587687
12939,3.0,300.40205,4533.7428,0.0,0.0,0.0,0.13121625797538763,0.0,0.0,-0.28978113888917173,-0.5061618731142875,-0.5822015815063225,1.1328559656541788,0.27239729328351975,-0.08572368815576932
12940,3.0,300.32567,4307.9147,0.0,0.0,0.0,0.1312263991190599,0.0,0.0,-0.2666651854803047,-0.49831940853279655,-0.5445139061568385,1.119402841426459,0.3182880083950807,-0.07637767796288993
12941,3.0,300.35101000000003,3957.0489,0.0,0.0,0.0,0.13123654026273218,0.0,0.0,-0.2197182078019988,-0.4373000689606566,-0.5458257914588115,1.1517085983397888,0.32198887398782766,-0.02661030647223277
12942,3.0,299.82392000000004,3983.913,0.0,0.0,0.0,0.13124668140640444,0.0,0.0,-0.23490833654364776,-0.4832140178970106,-0.49288772938423153,1.100374511173509,0.32461810600981267,-0.07796662535895682
12943,3.0,300.0102,4261.4946,0.0,0.0,0.0,0.13125682255007667,0.0,0.0,-0.2815686151061587,-0.47407921360797556,-0.5397401201657025,1.127749489125209,0.2725315387892687,-0.0940151674263246
12944,3.0,299.61964,4323.9284,0.0,0.0,0.0,0.13126696369374893,0.0,0.0,-0.3120319692301577,-0.4776166419595926,-0.5247176640506015,1.1328077349494188,0.28737832773453276,-0.13804891225186686
12945,3.0,299.52482000000003,4055.2688,0.0,0.0,0.0,0.13127710483742122,0.0,0.0,-0.24374790001854477,-0.4775517939531926,-0.5114007611663255,1.1515817394272687,0.29735330887398675,-0.13930339693567487
12946,3.0,298.74547,3900.4608,0.0,0.0,0.0,0.13128724598109348,0.0,0.0,-0.23596827720825578,-0.4444573434270246,-0.5052170477935405,1.1650764069090889,0.3023999833820547,-0.13392961489782387
12947,3.0,299.182,4093.7298,0.0,0.0,0.0,0.13129738712476574,0.0,0.0,-0.23975218877919877,-0.45588561905240754,-0.5487538410677875,1.1296026222330988,0.26704000695729674,-0.1144018942005879
12948,3.0,299.83316,4149.37,0.0,0.0,0.0,0.13130752826843797,0.0,0.0,-0.27121866050219773,-0.4653654147354906,-0.5247207949934105,1.158920811226579,0.3004049142001567,-0.11494965720464789
12949,3.0,300.40517,4040.0556,0.0,0.0,0.0,0.13131766941211026,0.0,0.0,-0.24614164258478877,-0.45810033045848253,-0.5238340491683955,1.144169916270779,0.2840567317867167,-0.1286766021393919
12950,3.0,300.86104,3865.1283,0.0,0.0,0.0,0.13132781055578252,0.0,0.0,-0.2270008111732358,-0.4716356090043105,-0.47626605050379955,1.154630406328149,0.31920839412341573,-0.12096893021870389
12951,3.0,299.51873,3951.362,0.0,0.0,0.0,0.13133795169945478,0.0,0.0,-0.22058284450983182,-0.47661611828084854,-0.5039164197001785,1.090134099037859,0.27691615568199673,-0.11987969649370489
12952,3.0,299.43966,4255.3885,0.0,0.0,0.0,0.13134809284312707,0.0,0.0,-0.2781438196356577,-0.4628958101342595,-0.5524922171792365,1.1087005898952291,0.3064001529218407,-0.07450007385183484
12953,3.0,299.99767,4283.9275,0.0,0.0,0.0,0.1313582339867993,0.0,0.0,-0.2847512640677617,-0.47380108658802655,-0.5436546295420345,1.1015771377171988,0.31430039302403373,-0.07913578627834403
12954,3.0,299.94186,4029.6454,0.0,0.0,0.0,0.13136837513047156,0.0,0.0,-0.24243715968918478,-0.45913319708041855,-0.5233412043197555,1.1294168934897688,0.2997239797354537,-0.08744473499387341
12955,3.0,299.97102,3940.8172,0.0,0.0,0.0,0.13137851627414382,0.0,0.0,-0.2371735382022058,-0.4496104801230996,-0.5111260082692094,1.1485497911530387,0.26243726771554177,-0.13574312992680387
12956,3.0,301.83957000000004,4375.8957,0.0,0.0,0.0,0.1313886574178161,0.0,0.0,-0.3158485378518237,-0.4712316565869436,-0.5430828525106044,1.153267888918679,0.26599198211386477,-0.14007796584211887
12957,3.0,300.84201,4421.2783,0.0,0.0,0.0,0.13139879856148837,0.0,0.0,-0.3013419881576387,-0.4644067585508786,-0.5782094673048315,1.182721346800509,0.2870946278390337,-0.11279620689961889
12958,3.0,301.04607000000004,4057.0282,0.0,0.0,0.0,0.1314089397051606,0.0,0.0,-0.26579944432986274,-0.4520205360159536,-0.5154152985925294,1.1526322771309487,0.28118494795579374,-0.1238229011128689
12959,3.0,301.12905,3922.2802,0.0,0.0,0.0,0.13141908084883286,0.0,0.0,-0.23203190189476577,-0.42731405352761365,-0.5329292759085245,1.1241304637430387,0.3043991258293547,-0.06629890454944244
12960,3.0,300.46405,4134.8587,0.0,0.0,0.0,0.13142922199250515,0.0,0.0,-0.2699515507221437,-0.4494021255050366,-0.5375401312835806,1.101164035651429,0.3138252091246367,-0.08243406024860832
12961,3.0,299.40956,4371.6921,0.0,0.0,0.0,0.1314393631361774,0.0,0.0,-0.27089168469492775,-0.4903237405361855,-0.5676698221496495,1.151229736342529,0.3148942082451387,-0.07485294022566003
12962,3.0,299.74217000000004,4272.2779,0.0,0.0,0.0,0.13144950427984967,0.0,0.0,-0.2765868088694928,-0.49446583601747857,-0.5276131680663655,1.108698968695069,0.2956562770765027,-0.12247141799698787
12963,3.0,299.25652,3976.0407,0.0,0.0,0.0,0.1314596454235219,0.0,0.0,-0.22760981501333977,-0.4693045866192565,-0.5117026894311235,1.1230313913595689,0.2687458540306507,-0.12047705809015989
12964,3.0,299.96541,3758.2301,0.0,0.0,0.0,0.13146978656719416,0.0,0.0,-0.2313311279931048,-0.4423735439338696,-0.46870341520242553,1.1270308921542886,0.28703421786807176,-0.11712127508396988
12965,3.0,300.16562999999996,3991.5029999999997,0.0,0.0,0.0,0.13147992771086645,0.0,0.0,-0.24546000897751674,-0.4333645143797476,-0.5344927208128245,1.152863906103809,0.2967335139203177,-0.09886245153996431
12966,3.0,300.18973,4202.7,0.0,0.0,0.0,0.1314900688545387,0.0,0.0,-0.27115601124851474,-0.4719299378933586,-0.5344299094391255,1.1464724257980188,0.28221819961276773,-0.1202004408128599
12967,3.0,299.82722,4077.3609,0.0,0.0,0.0,0.13150020999821097,0.0,0.0,-0.24611995903264877,-0.4721682847143815,-0.5211276682837965,1.145377406414949,0.2840656585200977,-0.13846256147269087
12968,3.0,300.24174,3955.7971,0.0,0.0,0.0,0.1315103511418832,0.0,0.0,-0.24127820422480478,-0.46482496739715257,-0.49636039078945654,1.130446963541429,0.28684477049687473,-0.16006666467234984
12969,3.0,300.33977000000004,4279.2784,0.0,0.0,0.0,0.13152049228555548,0.0,0.0,-0.27567533974203773,-0.4713023003839155,-0.5538161398923975,1.147907289264629,0.2920783896483927,-0.10957084944630091
12970,3.0,300.42005,4313.4775,0.0,0.0,0.0,0.13153063342922774,0.0,0.0,-0.2907583578156157,-0.47352524951330355,-0.5469058248729024,1.114076692275809,0.2747115058494147,-0.10130761756203341
12971,3.0,300.04657000000003,4189.0853,0.0,0.0,0.0,0.1315407745729,0.0,0.0,-0.26686060089459074,-0.47209576640472456,-0.5344209827057445,1.1212244624562389,0.28751142826766873,-0.07134447461490143
12972,3.0,299.97333,4179.3085,0.0,0.0,0.0,0.13155091571657226,0.0,0.0,-0.2737822136527008,-0.4750515790664406,-0.5215716339476125,1.117048149519069,0.3123971850962017,-0.08960449176752482
12973,3.0,300.21268,4185.2391,0.0,0.0,0.0,0.13156105686024452,0.0,0.0,-0.24895389797233677,-0.4834625478815386,-0.5397917351257965,1.1367777501662288,0.3195231096044757,-0.07963704920881483
12974,3.0,300.34789,4283.3719,0.0,0.0,0.0,0.13157119800391678,0.0,0.0,-0.2685663973054398,-0.49505391624301753,-0.5384177781226975,1.1453828779654889,0.28879197374404875,-0.14647559657601586
12975,3.0,299.36652999999995,4474.7815,0.0,0.0,0.0,0.13158133914758904,0.0,0.0,-0.2935020364363957,-0.4834599742262845,-0.5832598300432634,1.1261255531899388,0.2711832575437037,-0.10658149820627491
12976,3.0,299.61654,4284.5217,0.0,0.0,0.0,0.13159148029126133,0.0,0.0,-0.2775348664580587,-0.49435335512387757,-0.5304993805787125,1.153518668318429,0.29952071163289273,-0.13301788232534287
12977,3.0,299.79658,3868.2994,0.0,0.0,0.0,0.13160162143493356,0.0,0.0,-0.25127895231430175,-0.4112628648509846,-0.5133245988661934,1.125537158856869,0.3291071889878507,-0.09030669536507692
12978,3.0,299.9299,3979.8848,0.0,0.0,0.0,0.13161176257860582,0.0,0.0,-0.2529536824770848,-0.4789383557875355,-0.4778935632119225,1.147908809139779,0.3111587097639737,-0.11812903336842788
12979,3.0,300.20063999999996,4286.4427,0.0,0.0,0.0,0.13162190372227808,0.0,0.0,-0.28114148965900476,-0.4965968630977945,-0.5252331854364796,1.1284682887461488,0.2906616937560757,-0.11907132556392488
12980,3.0,299.00867999999997,4072.9149,0.0,0.0,0.0,0.13163204486595037,0.0,0.0,-0.2365305094237438,-0.48297476928339855,-0.5185591502078035,1.1622372801288887,0.31363051311792167,-0.14014048337328885
12981,3.0,298.8382,3837.7945,0.0,0.0,0.0,0.1316421860096226,0.0,0.0,-0.2001884707370638,-0.4661772104506086,-0.5002280170836616,1.1417067052776788,0.28269403199222876,-0.13907120054275887
12982,3.0,300.264,4003.625,0.0,0.0,0.0,0.1316523271532949,0.0,0.0,-0.24350620947219176,-0.43945292144812664,-0.5340428985634305,1.1549396502586688,0.26859261008552676,-0.1014042664228219
12983,3.0,297.83009,4107.8764,0.0,0.0,0.0,0.13166246829696712,0.0,0.0,-0.2686284487415637,-0.46391125898697655,-0.5161521441977505,1.121955927703429,0.28107294328973975,-0.12013594744399489
12984,3.0,298.57147000000003,4135.0201,0.0,0.0,0.0,0.1316726094406394,0.0,0.0,-0.2577005565455648,-0.4875805888054575,-0.5116617034645785,1.1602610371338489,0.29998673575138574,-0.10362182506167791
12985,3.0,298.70742,4196.9534,0.0,0.0,0.0,0.13168275058431164,0.0,0.0,-0.25759898835554074,-0.47944009697205353,-0.5387299402135055,1.1130071054702488,0.3312134826332257,-0.12369323549757189
12986,3.0,299.06941,4068.3237,0.0,0.0,0.0,0.13169289172798393,0.0,0.0,-0.2255826055382698,-0.4806103400425475,-0.5304758731763924,1.1286238226364989,0.2781624431724957,-0.1106469919800079
12987,3.0,299.67535,3988.1072,0.0,0.0,0.0,0.1317030328716562,0.0,0.0,-0.23153582477830678,-0.45081190089917056,-0.5299372800857375,1.1255545867585888,0.2713865763087697,-0.1210312349673529
12988,3.0,300.40053,4173.2344,0.0,0.0,0.0,0.13171317401532845,0.0,0.0,-0.2700503730043967,-0.45719898369952655,-0.5413096952331075,1.151216057466179,0.3021844650857847,-0.07933130403089013
12989,3.0,299.15595,4183.9357,0.0,0.0,0.0,0.1317233151590007,0.0,0.0,-0.2890862013080867,-0.45657007962745855,-0.5261556989900245,1.1544403206093887,0.29988816678165775,-0.08300862979731392
12990,3.0,300.66657999999995,4186.9121,0.0,0.0,0.0,0.13173345630267297,0.0,0.0,-0.26885048223597674,-0.46882777138719856,-0.5350384674491855,1.140487157457319,0.28396933896559173,-0.0986910349542968
12991,3.0,299.55723,4144.7397,0.0,0.0,0.0,0.13174359744634523,0.0,0.0,-0.24205796097176077,-0.48088608592476156,-0.5369533176206666,1.1158024598461291,0.3120293550448997,-0.1191900582106429
12992,3.0,299.71272999999997,4300.251,0.0,0.0,0.0,0.1317537385900175,0.0,0.0,-0.24490123194486976,-0.4996163889257985,-0.5626513058618604,1.155800000918579,0.30548058792608673,-0.1135966846111199
12993,3.0,300.40095,4242.309,0.0,0.0,0.0,0.13176387973368975,0.0,0.0,-0.24724574068875477,-0.4769102546523775,-0.5654000203356374,1.154946033734299,0.3124693589008247,-0.09552336182917182
12994,3.0,300.30053,3974.4199,0.0,0.0,0.0,0.131774020877362,0.0,0.0,-0.22980056305454977,-0.4713315833118055,-0.5069922721012415,1.129879644810439,0.25388425136892473,-0.1028501540505199
12995,3.0,299.64016000000004,3921.1761,0.0,0.0,0.0,0.13178416202103427,0.0,0.0,-0.24982912314371478,-0.43254353861872363,-0.5095669608703435,1.135494468914579,0.26448147952728973,-0.09378062738592731
12996,3.0,299.50915,4092.8931,0.0,0.0,0.0,0.13179430316470653,0.0,0.0,-0.24353374960990976,-0.4904751302336265,-0.5101284331482565,1.1595388937875788,0.2818462861635627,-0.1193875305226319
12997,3.0,298.32081,4147.8692,0.0,0.0,0.0,0.1318044443083788,0.0,0.0,-0.2328091863114778,-0.5118302170887096,-0.5162092509733865,1.1628926502935688,0.3096192687545427,-0.13789638771431387
12998,3.0,299.37997,4273.1584,0.0,0.0,0.0,0.13181458545205105,0.0,0.0,-0.26464234311316576,-0.4822287233672695,-0.5520623863543155,1.149435270415429,0.2786437369699957,-0.1120388125823699
12999,3.0,298.95129,4025.9562,0.0,0.0,0.0,0.1318247265957233,0.0,0.0,-0.2189886373324958,-0.4805438201734825,-0.5242576890352055,1.144465278674929,0.3129890751421167,-0.1284610939756229
13000,3.0,300.53575,3967.9956,0.0,0.0,0.0,0.13183486773939557,0.0,0.0,-0.2530117822378187,-0.4545358989917006,-0.4986238800553455,1.147310180980699,0.31577108501417966,-0.0920298750946415
13001,3.0,301.00621,4259.2458,0.0,0.0,0.0,0.13184500888306783,0.0,0.0,-0.28156946623624274,-0.4773531868010915,-0.5357817370600405,1.1445930495125387,0.31657378174339973,-0.1019087535151109
13002,3.0,301.01856000000004,4322.0013,0.0,0.0,0.0,0.13185515002674011,0.0,0.0,-0.3046652154381157,-0.48107836026373757,-0.5280368991256845,1.1249287021718188,0.27154433934933975,-0.1075772393445469
13003,3.0,299.41321,4183.1873,0.0,0.0,0.0,0.13186529117041235,0.0,0.0,-0.2587205143612267,-0.4648503290471556,-0.5480136314722345,1.115619365553059,0.2963384173088247,-0.12018625531145988
13004,3.0,300.2149,4110.726,0.0,0.0,0.0,0.1318754323140846,0.0,0.0,-0.2385686012048878,-0.47664703254139956,-0.5343424355579924,1.1488427217569488,0.3077796625354877,-0.12387251997026587
13005,3.0,299.22699,4049.921,0.0,0.0,0.0,0.13188557345775687,0.0,0.0,-0.2291111172890068,-0.46672784095245157,-0.5352358992311705,1.1450103059037189,0.3115900300665417,-0.0946995631533692
13006,3.0,299.46637999999996,4130.46,0.0,0.0,0.0,0.13189571460142915,0.0,0.0,-0.28102786379279077,-0.46478282632549356,-0.5097460325605165,1.1457111709978889,0.26387813975524477,-0.09879099714291231
13007,3.0,298.76644,4220.7342,0.0,0.0,0.0,0.1319058557451014,0.0,0.0,-0.2985677397813417,-0.4755895946045386,-0.5088404706811445,1.157877872898649,0.26817683303949275,-0.08861556068317492
13008,3.0,299.5711,4118.596,0.0,0.0,0.0,0.13191599688877365,0.0,0.0,-0.26094985709874574,-0.46466825813668655,-0.5263322274224466,1.163353881739089,0.3042754890521527,-0.12504012859049987
13009,3.0,300.09299,4024.3072,0.0,0.0,0.0,0.1319261380324459,0.0,0.0,-0.2291980034850818,-0.49005248335191454,-0.5040384251447195,1.1440515686590988,0.2974049542315837,-0.1139306011815749
13010,3.0,301.08476,4183.2031,0.0,0.0,0.0,0.1319362791761182,0.0,0.0,-0.23180892607775977,-0.47975694027832355,-0.5600234315950094,1.1376240166497489,0.27663420870917077,-0.13729989751294486
13011,3.0,299.95479,4445.5894,0.0,0.0,0.0,0.13194642031979045,0.0,0.0,-0.2795991608867887,-0.4951779481877585,-0.5765710621581335,1.136589994922699,0.3052893977647177,-0.1055994156793509
13012,3.0,300.31506,4243.3605,0.0,0.0,0.0,0.1319565614634627,0.0,0.0,-0.27645444800892977,-0.48699287334995456,-0.5264283139294296,1.161357981692109,0.3137034367276187,-0.11146856555859089
13013,3.0,299.37877000000003,3943.0506,0.0,0.0,0.0,0.13196670260713494,0.0,0.0,-0.25128086735699073,-0.4596021292266986,-0.4877059177103265,1.115817455947609,0.3107822974843247,-0.1147736151322739
13014,3.0,300.28247999999996,4156.3607,0.0,0.0,0.0,0.13197684375080723,0.0,0.0,-0.28092034782467973,-0.4709237298815535,-0.5115857705020845,1.108158095791689,0.27472747467099073,-0.1157799447340909
13015,3.0,299.21191,4321.9501,0.0,0.0,0.0,0.1319869848944795,0.0,0.0,-0.28631970429505477,-0.49347326635201955,-0.5339719406589275,1.115089841050799,0.2815145480808227,-0.14090472726121386
13016,3.0,300.47902,4214.1254,0.0,0.0,0.0,0.13199712603815175,0.0,0.0,-0.24496723505638374,-0.48042255440151455,-0.5555991155633635,1.136846448523009,0.31476113810950573,-0.11716451046573688
13017,3.0,300.43045,4033.9901,0.0,0.0,0.0,0.13200726718182404,0.0,0.0,-0.23369638809903778,-0.4544631375020196,-0.5380727360661445,1.1160128105668887,0.2902973594176187,-0.1153947475760749
13018,3.0,301.12278,4082.1042,0.0,0.0,0.0,0.13201740832549627,0.0,0.0,-0.26824911830162673,-0.4488104887716466,-0.5237981193198494,1.137177274680659,0.2630722614207108,-0.08341331986075372
13019,3.0,300.52355,4251.8152,0.0,0.0,0.0,0.13202754946916853,0.0,0.0,-0.2763182266654857,-0.4722289277328665,-0.5438984985761025,1.1647506470019389,0.2717430883564548,-0.08921811113339201
13020,3.0,301.38896,4510.1839,0.0,0.0,0.0,0.1320376906128408,0.0,0.0,-0.2971792629043097,-0.5079766243083895,-0.5658273990953164,1.1873177532291388,0.29871332355570973,-0.09203282669218282
13021,3.0,300.53435,4337.0317,0.0,0.0,0.0,0.13204783175651308,0.0,0.0,-0.2907790179851547,-0.4758978860799646,-0.5516724370533305,1.164169041444539,0.28473596399125173,-0.1255260529409569
13022,3.0,299.86533,4021.1251,0.0,0.0,0.0,0.13205797290018534,0.0,0.0,-0.2167296367645498,-0.45949479564360557,-0.5460971904980965,1.1173875883025688,0.2743589961396247,-0.13881417952239286
13023,3.0,299.41931,4148.1693,0.0,0.0,0.0,0.13206811404385757,0.0,0.0,-0.2660037155500228,-0.4641071404963086,-0.5308290414987474,1.1338241261247288,0.3167547684762617,-0.12093610091546388
13024,3.0,300.09976,4395.2084,0.0,0.0,0.0,0.13207825518752983,0.0,0.0,-0.31518561897389874,-0.46819862413510654,-0.5526493621372455,1.1430977963399689,0.3332884161880057,-0.0966040467630771
13025,3.0,299.56262000000004,4066.9256,0.0,0.0,0.0,0.1320883963312021,0.0,0.0,-0.24531306744801476,-0.48240300238446954,-0.5085277513027815,1.146711958121659,0.3034646863221327,-0.08835446943715723
13026,3.0,299.0492,3806.5501,0.0,0.0,0.0,0.13209853747487438,0.0,0.0,-0.20839412468439877,-0.4591352438456206,-0.4895668123139825,1.113190503738349,0.2820729400784317,-0.1100462663932209
13027,3.0,299.94151,4056.4898,0.0,0.0,0.0,0.13210867861854664,0.0,0.0,-0.22816596772822778,-0.48039316001611354,-0.5245124910378525,1.149432635965169,0.2945929217590577,-0.12346040075709289
13028,3.0,299.99138,4251.2696,0.0,0.0,0.0,0.13211881976221887,0.0,0.0,-0.24750205243405077,-0.4994700046838515,-0.5453077470801845,1.163895058617499,0.30786488700139875,-0.1338087240283929
13029,3.0,300.56667000000004,4167.6252,0.0,0.0,0.0,0.13212896090589113,0.0,0.0,-0.24720573757480677,-0.48722836280569554,-0.5324198948182526,1.165283717879549,0.2708151944448787,-0.13415200302977187
13030,3.0,301.2344,4192.1644,0.0,0.0,0.0,0.13213910204956342,0.0,0.0,-0.2878812442891667,-0.4809772277712565,-0.5054548271945075,1.149050235377429,0.24844451688206473,-0.09213986643274681
13031,3.0,300.74056,4146.075,0.0,0.0,0.0,0.13214924319323568,0.0,0.0,-0.25767783947832273,-0.47574410511228754,-0.5268813279166384,1.164627435789779,0.28330257986978774,-0.10470671194374791
13032,3.0,300.32947,4175.9943,0.0,0.0,0.0,0.13215938433690794,0.0,0.0,-0.27485592438616774,-0.45931063743793055,-0.5352314307982295,1.1584624168813387,0.3075632931091337,-0.08458702824658972
13033,3.0,299.2429,4373.8461,0.0,0.0,0.0,0.13216952548058017,0.0,0.0,-0.26005043551497975,-0.49292877614578257,-0.5765607979346205,1.130839091330129,0.29230332103809176,-0.13052825590213588
13034,3.0,298.68195,4267.3898,0.0,0.0,0.0,0.13217966662425246,0.0,0.0,-0.26792178785682175,-0.4780441321767825,-0.5512140224430885,1.106265952554949,0.3036539411758107,-0.10414996141130091
13035,3.0,299.32648,4064.8705,0.0,0.0,0.0,0.13218980776792472,0.0,0.0,-0.2601445056542637,-0.4803412410809896,-0.49513338544836055,1.144166167245409,0.3106176747405777,-0.1262716124970379
13036,3.0,299.72155,4103.9586,0.0,0.0,0.0,0.13219994891159698,0.0,0.0,-0.28556723437329173,-0.4606126232864266,-0.5013210910265395,1.1406976095030887,0.3244682159225197,-0.09083561901002761
13037,3.0,299.72651,4087.0909,0.0,0.0,0.0,0.13221009005526926,0.0,0.0,-0.26511247089456375,-0.4485312066465836,-0.5287299013990785,1.145410134393179,0.29480084067957774,-0.1058595575100249
13038,3.0,299.98942,3954.5571,0.0,0.0,0.0,0.1322202311989415,0.0,0.0,-0.2238013219949708,-0.46029537468011655,-0.5179899063016236,1.1558893695773989,0.2583098238306948,-0.12332713810394089
13039,3.0,299.54826,4111.6473,0.0,0.0,0.0,0.13223037234261376,0.0,0.0,-0.2242116781529698,-0.4724995364370736,-0.5531268866443735,1.1686329147600887,0.2777394517857497,-0.12039218826178388
13040,3.0,300.63842,4374.6206,0.0,0.0,0.0,0.13224051348628602,0.0,0.0,-0.2614786317959317,-0.5197608040313975,-0.5485360024287884,1.1686892514656488,0.3002924738365597,-0.1235007382435739
13041,3.0,301.07176,4262.6957,0.0,0.0,0.0,0.1322506546299583,0.0,0.0,-0.28011716473541176,-0.4885929675103715,-0.5270429311750875,1.157859735721859,0.29912942484177574,-0.10048084601043741
13042,3.0,300.44347,4274.9642,0.0,0.0,0.0,0.13226079577363056,0.0,0.0,-0.27744955079963873,-0.49609262931803055,-0.5259401806937545,1.1681962039669889,0.3024659966260697,-0.09300611319498872
13043,3.0,300.87857,4305.7398,0.0,0.0,0.0,0.1322709369173028,0.0,0.0,-0.27177507666211176,-0.5024191704249116,-0.5346431479226705,1.1705685264261187,0.3168588900565377,-0.08216787742083811
13044,3.0,300.84472999999997,4206.7091,0.0,0.0,0.0,0.13228107806097505,0.0,0.0,-0.2619902116389208,-0.47933507359918853,-0.5374092396356626,1.136782613766709,0.3250287256128377,-0.11348374775497388
13045,3.0,300.65422,4092.9031,0.0,0.0,0.0,0.13229121920464734,0.0,0.0,-0.22922550309279577,-0.47065863325789054,-0.5442562062589055,1.111182039390129,0.2939151486346667,-0.13206006713831386
13046,3.0,300.63209,4154.8788,0.0,0.0,0.0,0.1323013603483196,0.0,0.0,-0.26765884945587176,-0.45949797724891955,-0.5358225913040725,1.1059150640453188,0.2886423673667837,-0.14062382393599085
13047,3.0,300.0661,4140.4137,0.0,0.0,0.0,0.13231150149199186,0.0,0.0,-0.26390326835772476,-0.4813195644500425,-0.5133595559946434,1.130165786638679,0.2816482666965197,-0.12933581252195087
13048,3.0,299.91138,4053.8107,0.0,0.0,0.0,0.1323216426356641,0.0,0.0,-0.27803270662969176,-0.4554021163696896,-0.49882240614743856,1.146365122612429,0.29367861553132274,-0.1083136695172269
13049,3.0,299.41572,4259.109,0.0,0.0,0.0,0.13233178377933638,0.0,0.0,-0.28160411938966273,-0.47465934995273057,-0.5383993268383765,1.1317569945957189,0.28512325857697474,-0.09958062395909241
13050,3.0,299.99832000000004,4350.9594,0.0,0.0,0.0,0.13234192492300864,0.0,0.0,-0.27899826304748476,-0.4706539013799236,-0.5729308497163725,1.135957828185309,0.28232517855832573,-0.07110807728707083
13051,3.0,300.2606,4497.7879,0.0,0.0,0.0,0.1323520660666809,0.0,0.0,-0.2676202040970578,-0.5201957922993274,-0.5793992154397504,1.160359119743529,0.29693413744011776,-0.11425535797112589
13052,3.0,299.34011,4376.2636,0.0,0.0,0.0,0.13236220721035316,0.0,0.0,-0.27866638310973074,-0.48982841322480053,-0.5617800526308744,1.1643385581862689,0.31142119220237874,-0.08857292109246673
13053,3.0,300.04389,4247.7825,0.0,0.0,0.0,0.13237234835402542,0.0,0.0,-0.2592556218715378,-0.48356510905666056,-0.5483990819427755,1.1491411239113989,0.29041778419200376,-0.1107691088820599
13054,3.0,300.90975,4139.8142,0.0,0.0,0.0,0.13238248949769768,0.0,0.0,-0.24950692987691675,-0.4794188896474606,-0.5294743362475485,1.1301943602914988,0.2843783373684567,-0.09230693516223522
13055,3.0,300.69727,4029.633,0.0,0.0,0.0,0.13239263064136994,0.0,0.0,-0.23429569513568477,-0.46179496456311453,-0.5288171624976905,1.1379023564522188,0.27995014058892775,-0.1166978378671799
13056,3.0,300.96087,4097.9831,0.0,0.0,0.0,0.1324027717850422,0.0,0.0,-0.2402459354204278,-0.4803258194144675,-0.5251127707945955,1.142549222735829,0.3074875020016537,-0.1087408962893909
13057,3.0,301.65992,4044.5391,0.0,0.0,0.0,0.1324129129287145,0.0,0.0,-0.24501441198103974,-0.45373553273771056,-0.5306889495399215,1.131199605715709,0.2991601263198057,-0.13163899079425687
13058,3.0,301.04176,4144.5551,0.0,0.0,0.0,0.13242305407238672,0.0,0.0,-0.2666726733985438,-0.47975036428517454,-0.5134182231754335,1.128130673812829,0.29787473750794774,-0.12882070656861389
13059,3.0,299.84334,4295.7315,0.0,0.0,0.0,0.13243319521605898,0.0,0.0,-0.28437062653519574,-0.49852029549762256,-0.5229041895516254,1.1368103768194489,0.3060029386176387,-0.0990531897917887
13060,3.0,300.71696000000003,4405.3043,0.0,0.0,0.0,0.13244333635973124,0.0,0.0,-0.2917043179764747,-0.5001256686910606,-0.5472725200840926,1.1589286132523489,0.3147044670314127,-0.08304632472753412
13061,3.0,299.11822,4248.3466,0.0,0.0,0.0,0.13245347750340353,0.0,0.0,-0.27152057863449475,-0.48060958010497257,-0.5392611264459296,1.1646795168449189,0.2884010213254647,-0.06600676732036073
13062,3.0,299.13543,4317.1896,0.0,0.0,0.0,0.1324636186470758,0.0,0.0,-0.25969944568033976,-0.4721114211187696,-0.5805069815090784,1.120199965280129,0.27803426703484574,-0.07362697346591653
13063,3.0,299.66581,4329.1847,0.0,0.0,0.0,0.13247375979074802,0.0,0.0,-0.27644452829045074,-0.4620257018758866,-0.5774938188917025,1.162189454724169,0.3031914533001667,-0.0910237359838433
13064,3.0,300.17634,4209.6194,0.0,0.0,0.0,0.13248390093442028,0.0,0.0,-0.25932958912883775,-0.4857949077567245,-0.5344946865180186,1.1446449279176591,0.31023133260994873,-0.11107126006187991
13065,3.0,300.47145,4216.9106,0.0,0.0,0.0,0.13249404207809257,0.0,0.0,-0.2734350032409338,-0.4784077167101655,-0.5299927960587164,1.1516766809616388,0.3001265237351817,-0.11400331200875088
13066,3.0,300.90826,4212.9843,0.0,0.0,0.0,0.13250418322176483,0.0,0.0,-0.27384781146417475,-0.47284264318593555,-0.5339515844644185,1.136640758752709,0.28055597295621876,-0.12063220694547189
13067,3.0,300.15709,4008.4234,0.0,0.0,0.0,0.1325143243654371,0.0,0.0,-0.24380661786183974,-0.4721895123039766,-0.5024644931018846,1.136175676956809,0.3100977761142677,-0.13072712649926288
13068,3.0,300.28418,4122.7648,0.0,0.0,0.0,0.13252446550910932,0.0,0.0,-0.2637879402313428,-0.46932847905661457,-0.5201011344749855,1.1471148263614188,0.2959643152394037,-0.14055147787885086
13069,3.0,299.3815,4279.4073,0.0,0.0,0.0,0.1325346066527816,0.0,0.0,-0.27386592837596274,-0.4898702300564275,-0.5370968039673275,1.143879822767149,0.2812777616649537,-0.12149004474513389
13070,3.0,298.62307999999996,4048.634,0.0,0.0,0.0,0.13254474779645387,0.0,0.0,-0.2504838954908358,-0.4778910807491776,-0.5023086552365045,1.131314812252079,0.28329304518634674,-0.12148776493240888
13071,3.0,298.69478,4150.0265,0.0,0.0,0.0,0.13255488894012613,0.0,0.0,-0.25623089807052074,-0.48221245057066353,-0.5230610913296105,1.144431132146559,0.29397922657099074,-0.08842516490988432
13072,3.0,299.1698,4365.0740000000005,0.0,0.0,0.0,0.1325650300837984,0.0,0.0,-0.27415987222997273,-0.4989030203253945,-0.5538105974143505,1.1393721770472791,0.3074505690355087,-0.10117634391882771
13073,3.0,300.25832,4257.413,0.0,0.0,0.0,0.13257517122747065,0.0,0.0,-0.25407738697048576,-0.4855535819804075,-0.5545162855789965,1.153500733791659,0.3108349256945187,-0.07720486596027702
13074,3.0,300.15922,4180.5333,0.0,0.0,0.0,0.1325853123711429,0.0,0.0,-0.23679353901720276,-0.4825185331608715,-0.5514656529729225,1.1407358090318591,0.30551238371422473,-0.11663858300133188
13075,3.0,299.78144,4241.2444,0.0,0.0,0.0,0.13259545351481516,0.0,0.0,-0.2727554873263707,-0.46336419512548555,-0.5531126910104724,1.156331146620999,0.3020533505228447,-0.1035032241374729
13076,3.0,299.56651,4059.8085,0.0,0.0,0.0,0.13260559465848745,0.0,0.0,-0.25461593953113676,-0.44751355904114953,-0.5319509018769666,1.160057373863749,0.29870563298745073,-0.13487390319601786
13077,3.0,300.02079,4131.9697,0.0,0.0,0.0,0.1326157358021597,0.0,0.0,-0.25983612298632874,-0.4552118685309136,-0.5409676219993474,1.116710534585749,0.2889380337459637,-0.12092222952159488
13078,3.0,300.28877,4167.9035,0.0,0.0,0.0,0.13262587694583194,0.0,0.0,-0.2653471396177237,-0.4491795043255656,-0.5524119576388155,1.125816106609399,0.27891996921225776,-0.1261013864802379
13079,3.0,300.27952,4096.0788,0.0,0.0,0.0,0.1326360180895042,0.0,0.0,-0.25463134093265677,-0.46737357510868055,-0.5231007600710256,1.126323744909499,0.3347441526066757,-0.09143527865770941
13080,3.0,301.44132,4072.4609,0.0,0.0,0.0,0.1326461592331765,0.0,0.0,-0.26546797982464976,-0.46414917011045653,-0.5083092844487205,1.133622793329859,0.32790941591213973,-0.10941246832316989
13081,3.0,301.35328,4364.4245,0.0,0.0,0.0,0.13265630037684875,0.0,0.0,-0.2930460738913957,-0.47225301268774356,-0.5613769817410944,1.1577797902889688,0.2925799585803937,-0.07088572157912602
13082,3.0,300.90608,4483.2877,0.0,0.0,0.0,0.132666441520521,0.0,0.0,-0.27902093958472274,-0.5225025574769875,-0.5612840261769205,1.1483621372345187,0.28211054178964273,-0.1048777181631249
13083,3.0,300.13936,4374.5542,0.0,0.0,0.0,0.13267658266419324,0.0,0.0,-0.25012181056760074,-0.5122803331806325,-0.5673530801683895,1.168510919448049,0.3007477271064897,-0.10787948171687589
13084,3.0,300.34823,4312.0958,0.0,0.0,0.0,0.13268672380786553,0.0,0.0,-0.26555340694058077,-0.47991604080902556,-0.5653000125507675,1.169452735415999,0.28605161858359673,-0.12185279841343488
13085,3.0,299.58671,4210.5992,0.0,0.0,0.0,0.1326968649515378,0.0,0.0,-0.26299671349325476,-0.47012549145277355,-0.5467948131919464,1.1336836896608689,0.29085246848490376,-0.0981660102957309
13086,3.0,300.09731,4154.2428,0.0,0.0,0.0,0.13270700609521002,0.0,0.0,-0.2581888215037528,-0.46262079379211757,-0.5419764644614125,1.129128725161329,0.28169854416648177,-0.11145019533427789
13087,3.0,298.88442000000003,4143.1113,0.0,0.0,0.0,0.1327171472388823,0.0,0.0,-0.28353672170289573,-0.4618939489653836,-0.5139717110425586,1.1197006356308488,0.31648259936690065,-0.1118469840734379
13088,3.0,299.7112,4231.6726,0.0,0.0,0.0,0.13272728838255454,0.0,0.0,-0.26696392200728775,-0.48426266082300357,-0.5350962328373865,1.1405421769377488,0.3075551263133277,-0.13179494011714787
13089,3.0,301.07525,4103.4117,0.0,0.0,0.0,0.13273742952622683,0.0,0.0,-0.26531147321420373,-0.47573723527660955,-0.5062859962515375,1.1420078432073988,0.27866098248669774,-0.12097309467661488
13090,3.0,300.95517,4062.1142,0.0,0.0,0.0,0.1327475706698991,0.0,0.0,-0.2189706926732248,-0.4894079549633045,-0.5264026280393945,1.151589946753079,0.28139414357143977,-0.12417495486011389
13091,3.0,300.8919,4347.1421,0.0,0.0,0.0,0.13275771181357135,0.0,0.0,-0.2915993857961187,-0.5009215057171035,-0.5289017587485395,1.157531949314509,0.3235596750878537,-0.0984293641292219
13092,3.0,299.81867,4375.0494,0.0,0.0,0.0,0.1327678529572436,0.0,0.0,-0.2783418593677027,-0.5006257278804125,-0.5509381955008664,1.1715919090271187,0.3057852519661547,-0.09856113629147681
13093,3.0,299.88997,4163.4501,0.0,0.0,0.0,0.13277799410091587,0.0,0.0,-0.27770219457957274,-0.48104551069549556,-0.5068371739084345,1.1677035617683689,0.3086908884829187,-0.097452328601046
13094,3.0,300.24039,4199.9701,0.0,0.0,0.0,0.13278813524458813,0.0,0.0,-0.2312325387583748,-0.47063253193531457,-0.5748209664529125,1.164779220654759,0.27910070263259473,-0.08568984458917922
13095,3.0,299.67507,4264.475,0.0,0.0,0.0,0.1327982763882604,0.0,0.0,-0.26026383611854076,-0.4916263545997435,-0.5444037354734654,1.1568836719005289,0.31999453434600167,-0.12417191510981387
13096,3.0,300.17345,4236.5201,0.0,0.0,0.0,0.13280841753193265,0.0,0.0,-0.25402823420813475,-0.4843166265233295,-0.5494514536291365,1.144252698803949,0.29146995322834474,-0.09201539068446202
13097,3.0,300.12633999999997,4178.9318,0.0,0.0,0.0,0.1328185586756049,0.0,0.0,-0.2875524446317167,-0.4684703170169206,-0.5142681373593135,1.1453115451584488,0.2996037576110887,-0.1287993067265019
13098,3.0,299.41199,4052.7883,0.0,0.0,0.0,0.13282869981927717,0.0,0.0,-0.27376163454316976,-0.4720836378010275,-0.4861011727319505,1.148527297000819,0.29913721673504473,-0.0971020693197281
13099,3.0,300.7906,4164.1717,0.0,0.0,0.0,0.13283884096294943,0.0,0.0,-0.26564106320673175,-0.49538826851101553,-0.5047748958474035,1.1576890030800089,0.3468086581023497,-0.13807759736219788
13100,3.0,300.06966,4301.9117,0.0,0.0,0.0,0.1328489821066217,0.0,0.0,-0.26765467486545974,-0.4992176952764505,-0.5408013780554405,1.139501265110019,0.3070493625259127,-0.09885713096368921
13101,3.0,299.43962999999997,4308.7475,0.0,0.0,0.0,0.13285912325029395,0.0,0.0,-0.26116854686782875,-0.5008888081363766,-0.5476942854382174,1.1340400497210388,0.28639378300986573,-0.12658641917060687
13102,3.0,299.54446,4070.6695,0.0,0.0,0.0,0.13286926439396624,0.0,0.0,-0.22747826475285676,-0.4683208119646655,-0.5415827864000594,1.138489838860199,0.25665378813225675,-0.0932830891628241
13103,3.0,299.54017999999996,3982.4028,0.0,0.0,0.0,0.13287940553763847,0.0,0.0,-0.2217825934232378,-0.48633436210996456,-0.5024340449363796,1.1609841937302188,0.3051591545968637,-0.12203650065656489
13104,3.0,300.27803,4524.7266,0.0,0.0,0.0,0.13288954668131073,0.0,0.0,-0.3086263849815527,-0.4992169150738735,-0.5675606140538715,1.1601069217936388,0.28928462607516975,-0.09238523001071232
13105,3.0,300.28382999999997,4467.7671,0.0,0.0,0.0,0.132899687824983,0.0,0.0,-0.3042470673868477,-0.5060946439701525,-0.5477479268985115,1.1506412406844488,0.3017862071339797,-0.10762032273879889
13106,3.0,299.20795,3969.5309,0.0,0.0,0.0,0.13290982896865527,0.0,0.0,-0.2242773367594498,-0.45326184844846157,-0.5290990790730136,1.1700902723789188,0.2960874960540607,-0.13164709679505687
13107,3.0,300.71657000000005,4112.8495,0.0,0.0,0.0,0.13291997011232753,0.0,0.0,-0.23344197113142875,-0.4680143342069185,-0.5487472346771355,1.1637279736760089,0.33304085892357366,-0.09833167466058072
13108,3.0,301.10882000000004,4344.5979,0.0,0.0,0.0,0.1329301112559998,0.0,0.0,-0.2698118640633577,-0.49186412386820955,-0.5589732991913694,1.1354925437393888,0.3050836573319127,-0.12874688116632788
13109,3.0,300.68756,4296.6396,0.0,0.0,0.0,0.13294025239967203,0.0,0.0,-0.2935185524130257,-0.4724478708144746,-0.5401047280816865,1.1135316650470188,0.2805300844161637,-0.08798207469415473
13110,3.0,300.04347,4171.4546,0.0,0.0,0.0,0.13295039354334431,0.0,0.0,-0.3022242250197087,-0.45905030308973754,-0.5067435090691905,1.1419435018260489,0.2871784134898027,-0.1103945305850919
13111,3.0,298.61547,4118.2006,0.0,0.0,0.0,0.13296053468701657,0.0,0.0,-0.2544162583339298,-0.5006382111216445,-0.49677567134294154,1.1382043049820187,0.3454168577649897,-0.0958798262541021
13112,3.0,299.62604,4200.3321,0.0,0.0,0.0,0.13297067583068883,0.0,0.0,-0.26129769572557476,-0.4703676480941726,-0.5451307221552134,1.1737858994686488,0.3296625209701577,-0.08306410422703883
13113,3.0,300.04843,4569.8207,0.0,0.0,0.0,0.13298081697436107,0.0,0.0,-0.26907227255036575,-0.5138785730933665,-0.6061605184683855,1.144686876471799,0.28911008361294377,-0.08697091999536151
13114,3.0,299.29611,4382.5993,0.0,0.0,0.0,0.13299095811803335,0.0,0.0,-0.27664827262055874,-0.48207799228239356,-0.5734744989250264,1.1650149026280188,0.2763455438881818,-0.09411848245952101
13115,3.0,299.64602,4047.9707,0.0,0.0,0.0,0.1330010992617056,0.0,0.0,-0.2239381816859778,-0.47618649010594755,-0.5303573533121956,1.184758486126559,0.28972748729637676,-0.11623980829197589
13116,3.0,300.67181,3949.5381,0.0,0.0,0.0,0.13301124040537787,0.0,0.0,-0.24422841361346775,-0.46719138260819953,-0.48914117634447557,1.1594614814799389,0.2706079746669277,-0.11573264621942288
13117,3.0,300.63633,4361.1737,0.0,0.0,0.0,0.13302138154905013,0.0,0.0,-0.2932981299862717,-0.48345492824078656,-0.5489348379331505,1.1080162407776888,0.27094275249996774,-0.12708920400272788
13118,3.0,300.38112,4535.7789,0.0,0.0,0.0,0.1330315226927224,0.0,0.0,-0.3029575647795837,-0.5036660861304726,-0.5721398560258074,1.114060784249239,0.2870460222317367,-0.1155048675969429
13119,3.0,300.01658,4065.4581,0.0,0.0,0.0,0.13304166383639465,0.0,0.0,-0.2319549151521678,-0.46954250787523755,-0.5343003248838365,1.1233624201672388,0.32943898786559667,-0.1059805395719649
13120,3.0,300.02041,3948.1648,0.0,0.0,0.0,0.1330518049800669,0.0,0.0,-0.23326722601918276,-0.44707227849009856,-0.5198039988831605,1.151710016889929,0.30837871625960966,-0.0917642515809265
13121,3.0,300.55535,4358.5417,0.0,0.0,0.0,0.13306194612373917,0.0,0.0,-0.2890364101981727,-0.48970245610486957,-0.5461489675782065,1.148508349223949,0.2818317156271247,-0.09149796134864571
13122,3.0,300.50215,4491.2695,0.0,0.0,0.0,0.13307208726741146,0.0,0.0,-0.31119745644779767,-0.5019708173881625,-0.5520654970321225,1.1722389705409788,0.28311558456383273,-0.1086446375298909
13123,3.0,300.60483999999997,4337.6644,0.0,0.0,0.0,0.1330822284110837,0.0,0.0,-0.28648769102913374,-0.4906250203209196,-0.5414289547698775,1.1566909517315092,0.3170042813133867,-0.09565769447442941
13124,3.0,299.70123,4179.706,0.0,0.0,0.0,0.13309236955475595,0.0,0.0,-0.23788177975710376,-0.48352832807803053,-0.5491161590385455,1.129314453904659,0.30088986583051774,-0.12021251875405188
13125,3.0,299.45752000000005,3991.1441,0.0,0.0,0.0,0.1331025106984282,0.0,0.0,-0.2396575917498628,-0.44831757299549957,-0.5252329827864595,1.0931675671872387,0.29357529441862573,-0.1073234607245009
13126,3.0,300.1673,4224.4121,0.0,0.0,0.0,0.1331126518421005,0.0,0.0,-0.2571894022676178,-0.47718890856237856,-0.5497374941323665,1.1521625343845887,0.29004597206780874,-0.12970970180885089
13127,3.0,301.45922,4352.2,0.0,0.0,0.0,0.13312279298577276,0.0,0.0,-0.3099458291292717,-0.48300415353629855,-0.5300101327679275,1.153932074359229,0.3220996323562587,-0.12281022856542588
13128,3.0,299.99832999999995,3975.9224,0.0,0.0,0.0,0.133132934129445,0.0,0.0,-0.24257197261498975,-0.4695462265031045,-0.4964629215670755,1.1962489449105789,0.2805284530835027,-0.12047025918198889
13129,3.0,299.56905,3904.3168,0.0,0.0,0.0,0.13314307527311725,0.0,0.0,-0.24003429787204075,-0.46088824757862856,-0.4858922709588335,1.1645661341587288,0.27336661899168474,-0.12777436372034787
13130,3.0,300.35744,4364.1314,0.0,0.0,0.0,0.13315321641678954,0.0,0.0,-0.27739346740660376,-0.49171579418607053,-0.5574777015137654,1.162758293330309,0.2908412214087937,-0.08640899276815361
13131,3.0,300.25224,4388.0433,0.0,0.0,0.0,0.1331633575604618,0.0,0.0,-0.27923631602597876,-0.49983684175005555,-0.5547824258502625,1.149103025707639,0.31668089241147074,-0.1053365786034109
13132,3.0,300.06036,4131.6891,0.0,0.0,0.0,0.13317349870413406,0.0,0.0,-0.2388556346932158,-0.4770955274331626,-0.5399791559967935,1.125732817451179,0.3149980258503847,-0.07421985751017963
13133,3.0,299.41132999999996,4066.9401,0.0,0.0,0.0,0.1331836398478063,0.0,0.0,-0.24879589175174277,-0.4705370128483876,-0.5169153444380725,1.1197520074109188,0.3080627038184217,-0.1283047697501949
13134,3.0,297.8513,4235.8923,0.0,0.0,0.0,0.13319378099147858,0.0,0.0,-0.25546825511775373,-0.5052183346211675,-0.5269188992303465,1.135597921749789,0.2917378160247807,-0.11506705236123388
13135,3.0,299.31448,4389.7694,0.0,0.0,0.0,0.13320392213515084,0.0,0.0,-0.26311592236751974,-0.5228615925174215,-0.5484027701731395,1.161734910729309,0.3181334066948227,-0.14448107454917186
13136,3.0,299.25852000000003,4182.4584,0.0,0.0,0.0,0.1332140632788231,0.0,0.0,-0.25115406923947675,-0.5014851564827315,-0.5187236918915425,1.163770530180209,0.3050297524265927,-0.1287818686922809
13137,3.0,298.59986000000004,3866.5498,0.0,0.0,0.0,0.13322420442249538,0.0,0.0,-0.2041370050517538,-0.4645910890090706,-0.5066065075231695,1.154467577037079,0.2952151789104697,-0.13614367782383485
13138,3.0,299.26194,3991.8613,0.0,0.0,0.0,0.13323434556616762,0.0,0.0,-0.22275843432954578,-0.4721919745017196,-0.5184757293270704,1.1668577005848888,0.29394444169505773,-0.12485581839730989
13139,3.0,300.3564,4425.356,0.0,0.0,0.0,0.13324448670983988,0.0,0.0,-0.27537062503946474,-0.5084256967527095,-0.5614014112010054,1.1777869201385187,0.2941526949881107,-0.08690196731280642
13140,3.0,299.71909,4572.9927,0.0,0.0,0.0,0.13325462785351214,0.0,0.0,-0.2961620813939217,-0.5049008327023325,-0.5890126689435244,1.1392074225810187,0.2973494483911057,-0.1120227627007859
13141,3.0,300.20204,4285.1402,0.0,0.0,0.0,0.13326476899718442,0.0,0.0,-0.26307967841144275,-0.47731930371774756,-0.5621766387200144,1.1113815483348188,0.27003888274826277,-0.09211426970872061
13142,3.0,299.1621,4114.8104,0.0,0.0,0.0,0.13327491014085668,0.0,0.0,-0.25579715610021375,-0.4821702588364995,-0.5128322099800985,1.112218188942389,0.3107066684968607,-0.11757864604660889
13143,3.0,299.87052,4434.1564,0.0,0.0,0.0,0.13328505128452892,0.0,0.0,-0.2817685597483917,-0.48897317947789554,-0.5771310854884034,1.1526915522617989,0.34359041366473364,-0.07045437493205543
13144,3.0,299.56388,4613.6772,0.0,0.0,0.0,0.13329519242820118,0.0,0.0,-0.30740806319381375,-0.5275303652681935,-0.5675042469508085,1.1617618631819688,0.33802230039020364,-0.1101238205558749
13145,3.0,300.89592999999996,4385.9141,0.0,0.0,0.0,0.13330533357187346,0.0,0.0,-0.2702808570046437,-0.5203278694498624,-0.5425996335379145,1.1696628834867389,0.2907842970181757,-0.0976979556240375
13146,3.0,300.93307000000004,4105.7832,0.0,0.0,0.0,0.13331547471554572,0.0,0.0,-0.23932905553743877,-0.4825387677653685,-0.5261877582231885,1.1904319774114889,0.29098465709294974,-0.12457471242206687
13147,3.0,300.62096,4090.9566,0.0,0.0,0.0,0.13332561585921798,0.0,0.0,-0.22337772265816477,-0.4930025002230586,-0.5271684221999725,1.1885421646499787,0.27936073300575776,-0.12866623659086887
13148,3.0,300.86475,4359.2922,0.0,0.0,0.0,0.13333575700289022,0.0,0.0,-0.28024784360080873,-0.4898978309891516,-0.5549703026838045,1.157789314839909,0.2945992140421787,-0.11609774049545489
13149,3.0,300.27808,4504.8523,0.0,0.0,0.0,0.13334589814656247,0.0,0.0,-0.2730856954014597,-0.5171586663170865,-0.5791182614520224,1.1408099789391788,0.27742936685764674,-0.1114887292355809
13150,3.0,299.80331,4196.0577,0.0,0.0,0.0,0.13335603929023476,0.0,0.0,-0.2772428072492347,-0.46347689893410854,-0.5347770590558865,1.143468848526589,0.3165388955424567,-0.09564312799099181
13151,3.0,299.39187000000004,4136.4862,0.0,0.0,0.0,0.13336618043390702,0.0,0.0,-0.24479346266423377,-0.4747056250847976,-0.5378894289905535,1.167961737893849,0.3252455611342377,-0.08577722626455311
13152,3.0,300.11602999999997,4381.4654,0.0,0.0,0.0,0.13337632157757928,0.0,0.0,-0.2700498055843407,-0.5127332053128275,-0.5490730553792914,1.161463562352529,0.3216342668503307,-0.11279469715696988
13153,3.0,299.08312,4512.1092,0.0,0.0,0.0,0.13338646272125151,0.0,0.0,-0.2806481483178157,-0.5231089066018295,-0.5678114542486274,1.1701068896805589,0.27258385289193177,-0.1103400886572189
13154,3.0,300.3315,4123.1888,0.0,0.0,0.0,0.1333966038649238,0.0,0.0,-0.26355900650374875,-0.47524505917303556,-0.5145423734988784,1.178466709630609,0.29485687341010774,-0.12234975705748088
13155,3.0,300.00633999999997,3854.8048,0.0,0.0,0.0,0.13340674500859606,0.0,0.0,-0.23011030347761877,-0.4614517970192465,-0.4802023042272775,1.1518426513280189,0.29653967917618773,-0.10747924792737588
13156,3.0,300.26617000000005,4068.8253,0.0,0.0,0.0,0.13341688615226832,0.0,0.0,-0.28312457209221975,-0.4520978976610886,-0.5015988127464486,1.1507164238418688,0.2998859984264437,-0.11752003966082489
13157,3.0,300.74809,4503.6354,0.0,0.0,0.0,0.1334270272959406,0.0,0.0,-0.29112346222414875,-0.5060302721912995,-0.5718389612761114,1.147275831802309,0.2782005413762557,-0.1148274795075899
13158,3.0,301.09467,4599.2549,0.0,0.0,0.0,0.13343716843961284,0.0,0.0,-0.28294346376934576,-0.5208488522537795,-0.5942663403145214,1.1515771798018188,0.3026350168752507,-0.1084342766766299
13159,3.0,299.42343,4248.4176,0.0,0.0,0.0,0.1334473095832851,0.0,0.0,-0.26936232552399175,-0.4557314023871875,-0.5663191293688464,1.189307168475479,0.2880329176966357,-0.0985057388687595
13160,3.0,299.98961,4283.514,0.0,0.0,0.0,0.13345745072695736,0.0,0.0,-0.25426816169931377,-0.4928359928341255,-0.5549771218569775,1.149941186190359,0.2907245963222837,-0.1114401337607849
13161,3.0,299.90224,4294.5868,0.0,0.0,0.0,0.13346759187062965,0.0,0.0,-0.28105880845084474,-0.4735025932410675,-0.5508857395431895,1.175957395757959,0.2810640469538617,-0.09506617223830072
13162,3.0,300.10907000000003,4367.5476,0.0,0.0,0.0,0.1334777330143019,0.0,0.0,-0.28784866829845174,-0.5021258547859636,-0.5376508896520116,1.1574441005308387,0.3031489981209767,-0.0958371836236436
13163,3.0,299.56272,4107.2319,0.0,0.0,0.0,0.13348787415797414,0.0,0.0,-0.27519914259254075,-0.4518793497470196,-0.5214174476798955,1.1781327423976489,0.32086891851979665,-0.11719914335415489
13164,3.0,298.5019,3739.0086,0.0,0.0,0.0,0.1334980153016464,0.0,0.0,-0.23362533900202578,-0.42674492107894463,-0.4761950014067875,1.133337766076729,0.3030457985982917,-0.1255717910504709
13165,3.0,299.36602999999997,3838.5667,0.0,0.0,0.0,0.1335081564453187,0.0,0.0,-0.23702892714793378,-0.44909252693698154,-0.48070698383708554,1.1416135875934887,0.27462659549103474,-0.16383719120947185
13166,3.0,300.53497999999996,4298.2274,0.0,0.0,0.0,0.13351829758899095,0.0,0.0,-0.26074713615123873,-0.47484494697354757,-0.5709617096045335,1.135152294355809,0.29029880836526173,-0.11451941094718589
13167,3.0,300.42195,4372.103,0.0,0.0,0.0,0.1335284387326632,0.0,0.0,-0.26245861689514877,-0.5075456181133525,-0.5590059157120885,1.175671557904749,0.28775489200169674,-0.13647937771446586
13168,3.0,301.00811,4233.5972,0.0,0.0,0.0,0.13353857987633544,0.0,0.0,-0.25510051625896074,-0.4856609256960015,-0.5461464141879545,1.1615332739594089,0.30467456773653867,-0.1034276154150109
13169,3.0,300.88011,4270.4211,0.0,0.0,0.0,0.13354872102000773,0.0,0.0,-0.24647169867236277,-0.4871970635101065,-0.5644326096701615,1.172188814661029,0.27994046405047274,-0.13120520829394589
13170,3.0,300.13632,4342.2533,0.0,0.0,0.0,0.13355886216368,0.0,0.0,-0.27231419664281875,-0.4836523093602666,-0.5639700711320125,1.172058915998209,0.3287865459937057,-0.0953672280947626
13171,3.0,300.08479,4418.3952,0.0,0.0,0.0,0.13356900330735225,0.0,0.0,-0.2978049752385627,-0.47942597226565953,-0.5658508558351315,1.173042680520299,0.31161512827151866,-0.1029240503803129
13172,3.0,299.27574,4259.2662,0.0,0.0,0.0,0.1335791444510245,0.0,0.0,-0.2888933392840527,-0.45428525131446357,-0.5515319904569694,1.1458981156413388,0.3035130487494057,-0.09347464713397942
13173,3.0,299.27558,3978.4438,0.0,0.0,0.0,0.13358928559469677,0.0,0.0,-0.2863701033550287,-0.4272749623387556,-0.4957025280295305,1.118844033996309,0.2808937094795507,-0.09935801493862259
13174,3.0,300.41441000000003,4178.8175,0.0,0.0,0.0,0.13359942673836903,0.0,0.0,-0.2654723975950858,-0.46199349065520756,-0.5427902866767305,1.1470958785845489,0.3209312536659487,-0.09201411196283582
13175,3.0,299.4141,4364.0234,0.0,0.0,0.0,0.13360956788204129,0.0,0.0,-0.2762315431194307,-0.48296442399987755,-0.5673581666838914,1.171412766409439,0.3042657010561867,-0.11169166296560888
13176,3.0,299.55671,4512.7408,0.0,0.0,0.0,0.13361970902571355,0.0,0.0,-0.2762393654102028,-0.5016568719771785,-0.5938642725423404,1.1469928310493789,0.3066406883630797,-0.0935270696544031
13177,3.0,298.93332999999996,4213.2992,0.0,0.0,0.0,0.13362985016938583,0.0,0.0,-0.2550413931156258,-0.46930259051655954,-0.5563937670867894,1.153399307456649,0.27226366586033174,-0.10450815545415189
13178,3.0,299.31991,4037.083,0.0,0.0,0.0,0.13363999131305807,0.0,0.0,-0.22471095713974476,-0.4725168326162805,-0.5299446261489625,1.1511597207606188,0.3175544862501877,-0.09828943429041191
13179,3.0,299.44532000000004,4163.3045,0.0,0.0,0.0,0.13365013245673033,0.0,0.0,-0.2531096824624807,-0.46887477605933753,-0.5435561517648155,1.172868908128149,0.2860448906029327,-0.087806268709054
13180,3.0,300.60258,4270.7759,0.0,0.0,0.0,0.13366027360040258,0.0,0.0,-0.24361615724054275,-0.4909731325252756,-0.5636199324274564,1.1511080450055189,0.27241027301730075,-0.1039395600280359
13181,3.0,300.68491,4268.7652,0.0,0.0,0.0,0.13367041474407487,0.0,0.0,-0.26398029563032677,-0.4880496729392525,-0.5455680510308745,1.1291722949156289,0.27417222374869177,-0.1130640190335499
13182,3.0,301.46411,4111.116,0.0,0.0,0.0,0.13368055588774713,0.0,0.0,-0.2538128678993798,-0.47435808030049753,-0.5215056511011005,1.150887764433779,0.3403296127229177,-0.1275849568791549
13183,3.0,299.95987,4070.1821,0.0,0.0,0.0,0.13369069703141936,0.0,0.0,-0.23587954689699878,-0.48747243448978356,-0.5138817546986805,1.147195177094349,0.3127480736058317,-0.11988439797416887
13184,3.0,300.3725,4238.3116,0.0,0.0,0.0,0.13370083817509162,0.0,0.0,-0.2706546044365297,-0.48667879621645754,-0.5310075052388604,1.1448685522147288,0.30355612201115667,-0.14021740932088086
13185,3.0,300.08045,4498.9025,0.0,0.0,0.0,0.1337109793187639,0.0,0.0,-0.29547589829370074,-0.5241568605177545,-0.5479212635931184,1.1580331028139688,0.27828562398715273,-0.11581220661727488
13186,3.0,300.00041,4314.6768,0.0,0.0,0.0,0.13372112046243617,0.0,0.0,-0.27026635739571275,-0.4916826406427986,-0.5496050015492905,1.1645584334579688,0.3139836611752747,-0.11238039945608189
13187,3.0,299.39207000000005,4138.6622,0.0,0.0,0.0,0.13373126160610843,0.0,0.0,-0.2349950504872058,-0.5036744961063025,-0.5193804198113565,1.1572417544858689,0.2974545224264757,-0.11155558347717891
13188,3.0,299.8444,4219.9183,0.0,0.0,0.0,0.13374140274978066,0.0,0.0,-0.25144386890057774,-0.48166293464393056,-0.5496429984280405,1.120500089959749,0.27341443426390377,-0.09348879311862551
13189,3.0,299.57268,4499.6826,0.0,0.0,0.0,0.13375154389345295,0.0,0.0,-0.2831460833918427,-0.5106589709006165,-0.5739860990330174,1.129752380597879,0.2821703235455427,-0.10285693269368891
13190,3.0,300.40289,4478.5589,0.0,0.0,0.0,0.1337616850371252,0.0,0.0,-0.2915690997506297,-0.5125774586399565,-0.5572235277261804,1.141092371742049,0.33059805478748766,-0.07272385757228593
13191,3.0,299.92973,4219.5142,0.0,0.0,0.0,0.13377182618079747,0.0,0.0,-0.2571170055479728,-0.5004393202595155,-0.5250706195904355,1.187135064236109,0.3096592009409837,-0.0977869696453225
13192,3.0,300.59616,4199.9174,0.0,0.0,0.0,0.13378196732446973,0.0,0.0,-0.24595227627359978,-0.47803544862342556,-0.5526822927654955,1.175300809693159,0.2721106954927347,-0.09530108110173441
13193,3.0,301.00054,4307.5508,0.0,0.0,0.0,0.133792108468142,0.0,0.0,-0.28508881820607573,-0.5036218071011026,-0.5206772786143464,1.1858997097141888,0.2912907599481597,-0.13875863315191087
13194,3.0,301.10325,4373.9213,0.0,0.0,0.0,0.13380224961181425,0.0,0.0,-0.29296799283868974,-0.4836531402253485,-0.5529417253210994,1.177309071391359,0.3198140643706907,-0.1110263021549429
13195,3.0,300.46958,4213.9013,0.0,0.0,0.0,0.1338123907554865,0.0,0.0,-0.28187110065851173,-0.49491903238970547,-0.5041306309038196,1.1378166354937589,0.32437014344534065,-0.14648712736215386
13196,3.0,299.53799,4057.1018,0.0,0.0,0.0,0.13382253189915877,0.0,0.0,-0.2332163102016578,-0.4729910437955816,-0.5270502772383124,1.099812765318069,0.2864243831628857,-0.11697297579933388
13197,3.0,299.44513,4160.2195,0.0,0.0,0.0,0.13383267304283103,0.0,0.0,-0.25565351776603773,-0.4801678131938735,-0.5287815264916735,1.135539761194049,0.2950614587377987,-0.13087703685155788
13198,3.0,299.80616000000003,4601.0259,0.0,0.0,0.0,0.1338428141865033,0.0,0.0,-0.25859431406127176,-0.5478389876849985,-0.5921636842370055,1.1589938665587889,0.3288454968845237,-0.08968153221237811
13199,3.0,299.61795,4403.7917,0.0,0.0,0.0,0.13385295533017555,0.0,0.0,-0.2607814346671237,-0.5198903480566825,-0.5579709212649425,1.1676617145392387,0.3180803427870857,-0.11642535465028789
13200,3.0,300.24253999999996,3923.599,0.0,0.0,0.0,0.13386309647384784,0.0,0.0,-0.19301370757396982,-0.4797238171325546,-0.5199385990264446,1.148016517625409,0.26851464049033175,-0.11147008543374089
13201,3.0,300.17632000000003,3813.3499,0.0,0.0,0.0,0.13387323761752007,0.0,0.0,-0.21640865939787182,-0.4605540371656446,-0.4822004638219805,1.151873150156029,0.3030919622728477,-0.13982336648949187
13202,3.0,300.99163,4221.6178,0.0,0.0,0.0,0.13388337876119236,0.0,0.0,-0.2723290204917817,-0.46339567680609256,-0.5475417102381595,1.180178595674559,0.3076931917719537,-0.08598147417996083
13203,3.0,299.14987,4315.397,0.0,0.0,0.0,0.1338935199048646,0.0,0.0,-0.2914483406037117,-0.48961038206828256,-0.5307142098649145,1.1602653941092789,0.2990364084825957,-0.1275073216564929
13204,3.0,298.92422999999997,4307.0847,0.0,0.0,0.0,0.13390366104853688,0.0,0.0,-0.25963570211654874,-0.48830459653191155,-0.5613059022465795,1.129143417287779,0.2572723671858057,-0.10455797696156889
13205,3.0,299.37894,4256.4078,0.0,0.0,0.0,0.1339138021922091,0.0,0.0,-0.28498735134106173,-0.47391105462137956,-0.5349432827347914,1.1402028394792592,0.2892220781464967,-0.13155758628122288
13206,3.0,299.3549,4423.8324,0.0,0.0,0.0,0.1339239433358814,0.0,0.0,-0.27525566168311877,-0.4858734245069735,-0.5836054901823774,1.1590647940657888,0.3173333140183597,-0.08313285932582443
13207,3.0,299.18151,4505.4249,0.0,0.0,0.0,0.13393408447955366,0.0,0.0,-0.31093876356476674,-0.48512679090578653,-0.5734711045371914,1.1352539233408387,0.3293513113344437,-0.1010384871897223
13208,3.0,299.83734,4388.1589,0.0,0.0,0.0,0.1339442256232259,0.0,0.0,-0.27606688997818074,-0.4695580713967735,-0.5882657820298125,1.137664141353709,0.3113867416989787,-0.06328234653098135
13209,3.0,300.53706,3999.1116,0.0,0.0,0.0,0.13395436676689815,0.0,0.0,-0.22847892015411378,-0.4663789080155145,-0.5207722505462196,1.1330318658715388,0.3190991556301347,-0.10734120273375189
13210,3.0,300.91556,3851.5882,0.0,0.0,0.0,0.1339645079105704,0.0,0.0,-0.2002207427527488,-0.4423224761288296,-0.5282434096285655,1.169256874171669,0.32372361895403373,-0.08098345188869442
13211,3.0,299.88777999999996,4250.1144,0.0,0.0,0.0,0.1339746490542427,0.0,0.0,-0.25810406313288775,-0.49937722137219454,-0.5344473677383484,1.1386403065000488,0.28410048392603476,-0.12906937840815585
13212,3.0,299.43962999999997,4296.1266,0.0,0.0,0.0,0.13398479019791495,0.0,0.0,-0.26515723628398175,-0.47638564441310255,-0.5643723415542135,1.1651726656685888,0.25632299237210976,-0.13653662634511587
13213,3.0,299.61151,4082.5437,0.0,0.0,0.0,0.13399493134158721,0.0,0.0,-0.24829126280443975,-0.48774827156450656,-0.5049518194473646,1.1474221451167488,0.2969201140587337,-0.13551376050166686
13214,3.0,299.28882000000004,4022.0384,0.0,0.0,0.0,0.13400507248525945,0.0,0.0,-0.25520581320935276,-0.4744708753016295,-0.49292254465766755,1.1883359682546288,0.3181811713045367,-0.14359446044666987
13215,3.0,299.88442000000003,4343.4028,0.0,0.0,0.0,0.13401521362893173,0.0,0.0,-0.2855834362423907,-0.4744752120120575,-0.5602273481776344,1.1379436970562988,0.3136098934783867,-0.11296979690675088
13216,3.0,301.02768,4356.7699,0.0,0.0,0.0,0.134025354772604,0.0,0.0,-0.2733514303726857,-0.5086592407682585,-0.5423385899146514,1.143029097983189,0.29140498363193273,-0.14019275694594788
13217,3.0,301.01523,4207.0637,0.0,0.0,0.0,0.13403549591627625,0.0,0.0,-0.24664242118171179,-0.4828620857397775,-0.5493378074979205,1.1557043501091389,0.3038861780987307,-0.0989480468554119
13218,3.0,301.52002999999996,4030.0797,0.0,0.0,0.0,0.13404563705994849,0.0,0.0,-0.22393006555267678,-0.46625974980375456,-0.5348537823534585,1.1823576913396188,0.2991825900745227,-0.11703840135829088
13219,3.0,300.63285,4145.6512,0.0,0.0,0.0,0.13405577820362077,0.0,0.0,-0.26982361776451774,-0.46373510545709157,-0.5266157348004264,1.1348693949278887,0.2843884800019577,-0.07796613089290802
13220,3.0,300.19854,4443.1225,0.0,0.0,0.0,0.13406591934729303,0.0,0.0,-0.2961129894265767,-0.4914565845454885,-0.5630287313916095,1.1320168932463688,0.25911379725504075,-0.11385307741642389
13221,3.0,299.61571000000004,4613.2682,0.0,0.0,0.0,0.1340760604909653,0.0,0.0,-0.30877717686143474,-0.5157973546752356,-0.5777437978238734,1.141477305455039,0.3166806998939517,-0.08001963522132313
13222,3.0,300.31609,4444.6032,0.0,0.0,0.0,0.13408620163463758,0.0,0.0,-0.2862885671194817,-0.5119467712477126,-0.5528130729559024,1.175467995959659,0.31982546343431567,-0.11954387501306188
13223,3.0,299.94295,4137.8099,0.0,0.0,0.0,0.1340963427783098,0.0,0.0,-0.25393768004669776,-0.4646080609482455,-0.5392451576243535,1.1587828065629588,0.3156766703698617,-0.1115144860531229
13224,3.0,300.78265,4261.7313,0.0,0.0,0.0,0.13410648392198207,0.0,0.0,-0.27418012709947176,-0.4901010686942095,-0.5311787039757565,1.131081866054089,0.27652467637336076,-0.13410713631534388
13225,3.0,300.67519,4405.7052,0.0,0.0,0.0,0.13411662506565433,0.0,0.0,-0.30162042928511873,-0.48335569052599253,-0.5542482707950455,1.157337810595349,0.29595717182619874,-0.1021958781959479
13226,3.0,299.62026000000003,4192.984,0.0,0.0,0.0,0.13412676620932662,0.0,0.0,-0.27967690756696173,-0.4604437246272576,-0.5344418049952995,1.160918332473719,0.2864333706912727,-0.09149424069427851
13227,3.0,298.57338,4004.7711,0.0,0.0,0.0,0.13413690735299888,0.0,0.0,-0.2252971223225948,-0.4610749186445516,-0.5309783540334835,1.128497672999049,0.28816145860432174,-0.11776214563971889
13228,3.0,299.7609,4065.4998,0.0,0.0,0.0,0.1341470484966711,0.0,0.0,-0.2609611852348637,-0.43613120391029864,-0.5387180345248306,1.1268705959884688,0.24355574726958076,-0.10283578616410191
13229,3.0,299.27566,4295.5718,0.0,0.0,0.0,0.13415718964034337,0.0,0.0,-0.24966321357234078,-0.49701944918450053,-0.5590639242803135,1.1523490737279989,0.3105704876834207,-0.14270074346096687
13230,3.0,299.29687,4518.998,0.0,0.0,0.0,0.13416733078401566,0.0,0.0,-0.3007078962450587,-0.5061133080369945,-0.5668413584703864,1.1908902704317188,0.3020045827955317,-0.08940705897228972
13231,3.0,299.89473,4488.1985,0.0,0.0,0.0,0.13417747192768792,0.0,0.0,-0.28993557846941376,-0.5109492366567635,-0.5634154686897774,1.169128799359029,0.2981629159688887,-0.10505223022784789
13232,3.0,300.26651,4182.194,0.0,0.0,0.0,0.13418761307136018,0.0,0.0,-0.24283988607393076,-0.5013657044284425,-0.5270769459809446,1.1377310158603091,0.27204977889672277,-0.0998200093614679
13233,3.0,300.53674,4188.361,0.0,0.0,0.0,0.1341977542150324,0.0,0.0,-0.2520154534144887,-0.4895440749817385,-0.5315976322296015,1.172811558172489,0.3300143315373787,-0.12040991000603288
13234,3.0,300.66947000000005,4437.9452,0.0,0.0,0.0,0.1342078953587047,0.0,0.0,-0.2742489065162597,-0.5060597273717065,-0.5687159015528895,1.174139321103529,0.3239975105885647,-0.08502996748805441
13235,3.0,300.30642,4242.6853,0.0,0.0,0.0,0.13421803650237696,0.0,0.0,-0.28474531628967475,-0.4651113524054165,-0.5398137125204655,1.1530845919755888,0.3089103381895767,-0.13413965151105287
13236,3.0,300.38972,4034.3131,0.0,0.0,0.0,0.13422817764604922,0.0,0.0,-0.23733940724357575,-0.46816062725635654,-0.5208303908369576,1.1189025998520887,0.2631448911878787,-0.1120130557648279
13237,3.0,298.74442,3909.0312,0.0,0.0,0.0,0.13423831878972148,0.0,0.0,-0.24841418017407074,-0.4263767262576066,-0.5134569698592575,1.1348035336713889,0.29318531472013776,-0.11114187346134889
13238,3.0,300.26274,4277.0514,0.0,0.0,0.0,0.13424845993339374,0.0,0.0,-0.2528483449966888,-0.4751328214594585,-0.5721356611703934,1.1854031158401788,0.30917143247534473,-0.08942035889310232
13239,3.0,299.94147000000004,4444.4088,0.0,0.0,0.0,0.134258601077066,0.0,0.0,-0.2985218395518117,-0.4773302974813326,-0.5751371511466175,1.1507762055977688,0.2859641852324677,-0.08275024798206362
13240,3.0,299.68492000000003,4470.1177,0.0,0.0,0.0,0.13426874222073826,0.0,0.0,-0.25546159806459673,-0.5277090012608235,-0.5756335727681104,1.1523764314806988,0.2735602713507967,-0.11533103440978688
13241,3.0,299.26133,4131.3247,0.0,0.0,0.0,0.13427888336441052,0.0,0.0,-0.26490715602680076,-0.46714803576892155,-0.5237643679590185,1.142189214975299,0.32291036415877167,-0.1106775820005269
13242,3.0,299.12638,4151.5735,0.0,0.0,0.0,0.1342890245080828,0.0,0.0,-0.24688388881304274,-0.5060341732041845,-0.5090566070599755,1.184084674810059,0.3345008813901667,-0.1162162704921529
13243,3.0,298.11654,4352.7111,0.0,0.0,0.0,0.13429916565175504,0.0,0.0,-0.27374225106875677,-0.5129051538547975,-0.5364681025452795,1.145170602069539,0.29878210297249774,-0.11427645383820789
13244,3.0,301.06172000000004,4432.3388,0.0,0.0,0.0,0.1343093067954273,0.0,0.0,-0.2841111331845857,-0.48816028945266954,-0.5750488970629074,1.156561255718709,0.28527062567151873,-0.09473243399986332
13245,3.0,300.04573999999997,4067.8894,0.0,0.0,0.0,0.13431944793909956,0.0,0.0,-0.21971931224460778,-0.4974979160142215,-0.5193195842753524,1.1528412093015687,0.30584971493751667,-0.09516106513666592
13246,3.0,299.37503,3700.5871,0.0,0.0,0.0,0.13432958908277184,0.0,0.0,-0.19402104029338582,-0.4358127191388666,-0.49505232544036054,1.197263512235709,0.3100956989515627,-0.10692812093298389
13247,3.0,300.5576,4385.1646,0.0,0.0,0.0,0.1343397302264441,0.0,0.0,-0.26599403901156776,-0.5089679679412276,-0.5580185541521434,1.157096657071549,0.2931600341301427,-0.13367016207721788
13248,3.0,300.98721,4681.7151,0.0,0.0,0.0,0.13434987137011634,0.0,0.0,-0.3147798629713537,-0.5382486160185025,-0.5700959887190934,1.1660602727561888,0.27486926888998475,-0.14439344868052387
13249,3.0,299.53988,4339.0154,0.0,0.0,0.0,0.1343600125137886,0.0,0.0,-0.2773805180703257,-0.5035313643971765,-0.5380404640504595,1.1600629467392989,0.3125554851593247,-0.10515439623543091
13250,3.0,300.36278,4086.0289,0.0,0.0,0.0,0.13437015365746088,0.0,0.0,-0.24240251666826576,-0.5027954205845445,-0.4968528303380565,1.1617397743297888,0.3366717798619177,-0.0982781993733031
13251,3.0,299.30582999999996,4117.4859,0.0,0.0,0.0,0.13438029480113314,0.0,0.0,-0.25450190836488273,-0.4722897531363695,-0.5248212384758235,1.157852642971159,0.2695950488069597,-0.07366026785095242
13252,3.0,299.08474,4350.2772,0.0,0.0,0.0,0.1343904359448054,0.0,0.0,-0.24271367564147478,-0.5258757177223925,-0.5537862388819464,1.153010016768229,0.2846502936952967,-0.12454452770158787
13253,3.0,299.29277,4491.6982,0.0,0.0,0.0,0.13440057708847764,0.0,0.0,-0.27610061094150873,-0.5201442583992415,-0.5691192257551945,1.1649498519715988,0.2956990666282257,-0.1018349078478229
13254,3.0,299.32572999999996,4163.7969,0.0,0.0,0.0,0.13441071823214992,0.0,0.0,-0.24613666752679775,-0.4913140607864226,-0.5282395491456845,1.1754230076552188,0.3323281286707327,-0.14481638940476485
13255,3.0,299.5146,4000.5511,0.0,0.0,0.0,0.13442085937582218,0.0,0.0,-0.2448579560330988,-0.46932078848835557,-0.5018888859850765,1.1341190832288388,0.2895846088997757,-0.09348925718717131
13256,3.0,300.35423,4321.6476,0.0,0.0,0.0,0.13443100051949444,0.0,0.0,-0.27782045099874375,-0.4935035827950115,-0.5423489048006694,1.154132393903999,0.28190697984455276,-0.13220116221473888
13257,3.0,299.66218,4511.7899,0.0,0.0,0.0,0.13444114166316673,0.0,0.0,-0.2906411957065527,-0.49417242918602156,-0.5866578655786234,1.155438574607909,0.29095342872486774,-0.07512640021564843
13258,3.0,300.42042999999995,4350.8022,0.0,0.0,0.0,0.13445128280683896,0.0,0.0,-0.24466953204450276,-0.5234500375129965,-0.5544156698440664,1.151358419105229,0.3087106468598687,-0.13845503302444787
13259,3.0,299.62895,4236.5055,0.0,0.0,0.0,0.13446142395051122,0.0,0.0,-0.24185196722643074,-0.4819068847380065,-0.5640330344932264,1.136176082256849,0.26571658073668475,-0.12466220656820189
13260,3.0,299.3288,4346.3494,0.0,0.0,0.0,0.13447156509418348,0.0,0.0,-0.2776534572497627,-0.5201998959622325,-0.5233283360434855,1.1237123967517788,0.2917383631798347,-0.14251804433543586
13261,3.0,300.14113,4490.9649,0.0,0.0,0.0,0.13448170623785577,0.0,0.0,-0.29015017470809273,-0.5352547760805335,-0.5397362394178195,1.1781281827721988,0.33602408000049466,-0.1071443991668289
13262,3.0,299.92555,4320.9715,0.0,0.0,0.0,0.13449184738152803,0.0,0.0,-0.2985554693226307,-0.47851479698073357,-0.5363971750382796,1.163365838090269,0.3523924058259226,-0.06632390548240984
13263,3.0,299.88739,4083.1989,0.0,0.0,0.0,0.13450198852520026,0.0,0.0,-0.23815935962199877,-0.4864788921042285,-0.5165522563972385,1.157844030345309,0.28888531434326076,-0.10059530071523322
13264,3.0,300.52299,3951.3173,0.0,0.0,0.0,0.13451212966887252,0.0,0.0,-0.19246222594204282,-0.4545557080311556,-0.5540838608338194,1.1480836961070389,0.25493383661751073,-0.08989135908283641
13265,3.0,300.4583,4195.5074,0.0,0.0,0.0,0.1345222708125448,0.0,0.0,-0.2133854656045058,-0.5015223022313975,-0.5604217098118165,1.2015438859581489,0.27768109871249075,-0.14047507882131088
13266,3.0,301.16766,4707.2771,0.0,0.0,0.0,0.13453241195621707,0.0,0.0,-0.31029641366387173,-0.5320795846396665,-0.5885187095197745,1.180165119448229,0.3052923564550097,-0.10842479265569391
13267,3.0,300.87138,4548.8507,0.0,0.0,0.0,0.13454255309988933,0.0,0.0,-0.32991404004248065,-0.4784633340081545,-0.5743596539473845,1.159710437029509,0.28020094025367975,-0.12503083708708287
13268,3.0,299.3921,4076.4433,0.0,0.0,0.0,0.13455269424356156,0.0,0.0,-0.26547208348755474,-0.48345721818601256,-0.49020767273723054,1.1272112506720888,0.2881393697521417,-0.1144223517201069
13269,3.0,299.41406,4143.6676,0.0,0.0,0.0,0.13456283538723382,0.0,0.0,-0.26506242647212475,-0.4548690758895826,-0.5396399907908205,1.1767651587376788,0.3086510272239847,-0.1082405229925079
13270,3.0,300.84474,4578.5561,0.0,0.0,0.0,0.1345729765309061,0.0,0.0,-0.2846213755374427,-0.5111736107589075,-0.5959717415578314,1.154038465619729,0.3410462135911407,-0.1061204390132719
13271,3.0,299.56731,4406.5878,0.0,0.0,0.0,0.13458311767457837,0.0,0.0,-0.2660703975391038,-0.5007766920128116,-0.5726455691507174,1.1672080824694688,0.27056662393034675,-0.13270670308713187
13272,3.0,299.6169,4123.03,0.0,0.0,0.0,0.13459325881825063,0.0,0.0,-0.24637751707556774,-0.4642107959815386,-0.5427098447512915,1.1449809216508189,0.30027532964486775,-0.1108735243048649
13273,3.0,299.74233,3967.9576,0.0,0.0,0.0,0.13460339996192286,0.0,0.0,-0.23090405320845578,-0.45914111056369955,-0.5161148565940705,1.168675268614269,0.31881954926503975,-0.1060719347309849
13274,3.0,300.40718,4204.9774,0.0,0.0,0.0,0.13461354110559515,0.0,0.0,-0.25949911600306874,-0.4725082503879335,-0.5462007649233185,1.1771429996999687,0.3226351552991107,-0.06927962695161684
13275,3.0,300.54528,4606.5115,0.0,0.0,0.0,0.1346236822492674,0.0,0.0,-0.29212352994034774,-0.5068702261266965,-0.6012707153407995,1.136048514069259,0.2768235142253538,-0.1165968877597169
13276,3.0,300.32482000000005,4689.6701,0.0,0.0,0.0,0.13463382339293967,0.0,0.0,-0.28708963251604075,-0.5293808639258235,-0.6090721230282384,1.149919806613249,0.2894766977641257,-0.12010972453140688
13277,3.0,299.7219,4134.0001,0.0,0.0,0.0,0.13464396453661195,0.0,0.0,-0.2296235685270818,-0.4858651665186585,-0.5411440896367635,1.190284954821979,0.29708236579724673,-0.14477135043781988
13278,3.0,300.92784,4019.5398,0.0,0.0,0.0,0.1346541056802842,0.0,0.0,-0.2233431302997508,-0.49419434578568455,-0.5043022552057574,1.1807719549331188,0.3298912115177277,-0.13130222699102087
13279,3.0,300.74291,4455.844,0.0,0.0,0.0,0.13466424682395645,0.0,0.0,-0.29451722184408674,-0.5070013710871395,-0.5529467206440924,1.1568548955976887,0.26132289525556174,-0.13411273958839687
13280,3.0,299.32259,4518.2276,0.0,0.0,0.0,0.1346743879676287,0.0,0.0,-0.34071653240610367,-0.4813062098137246,-0.5514056179044975,1.163295822508359,0.27891604793437075,-0.09156507599551941
13281,3.0,299.79193,4110.1936,0.0,0.0,0.0,0.134684529111301,0.0,0.0,-0.22164950302260278,-0.5095201385832225,-0.5182265812599816,1.159659369224469,0.3035180947349037,-0.12798423821356086
13282,3.0,300.2047,4090.8438,0.0,0.0,0.0,0.13469467025497325,0.0,0.0,-0.23538241600043577,-0.46097285396197857,-0.5471590867353975,1.170100810179959,0.32758927954304473,-0.08807742051531461
13283,3.0,299.81281,4523.2212,0.0,0.0,0.0,0.13470481139864549,0.0,0.0,-0.28470864676855573,-0.5123304991930835,-0.5779071540049955,1.1490977568071188,0.27722611902008776,-0.12478360406268288
13284,3.0,300.30439,4692.1759999999995,0.0,0.0,0.0,0.13471495254231775,0.0,0.0,-0.3136231163921917,-0.5244737342215274,-0.5882074796190584,1.151971030115689,0.30755561267337567,-0.11551192995013988
13285,3.0,299.3283,4376.2586,0.0,0.0,0.0,0.13472509368599003,0.0,0.0,-0.27293838910192175,-0.48435493750961056,-0.5729800227437254,1.170577544352009,0.3083610958403707,-0.09069990125188332
13286,3.0,299.84924,4003.3498,0.0,0.0,0.0,0.1347352348296623,0.0,0.0,-0.23729023421622278,-0.46533552385754057,-0.5142926276142306,1.1500081620219689,0.3165344575070187,-0.1058525863493369
13287,3.0,300.69776,3978.5089,0.0,0.0,0.0,0.13474537597333455,0.0,0.0,-0.19323474808328484,-0.47174669161277355,-0.5443859326692085,1.143486175103299,0.2695598079684817,-0.14242331558358687
13288,3.0,299.65292,4278.7887,0.0,0.0,0.0,0.13475551711700678,0.0,0.0,-0.2693772912279687,-0.4804242566616826,-0.5508433755565084,1.1532574524426489,0.28518241211781276,-0.12352618095358489
13289,3.0,299.60904,4423.2779,0.0,0.0,0.0,0.13476565826067907,0.0,0.0,-0.26420912803291074,-0.5375664352561764,-0.5427904487967464,1.2022224595501187,0.2999823889084567,-0.1260492952925969
13290,3.0,300.57687000000004,4002.3685,0.0,0.0,0.0,0.13477579940435133,0.0,0.0,-0.25029320182201575,-0.44586957088640056,-0.5204573020176365,1.1738379805237888,0.3166356305295037,-0.08514002063441582
13291,3.0,299.98932,3854.9832,0.0,0.0,0.0,0.1347859405480236,0.0,0.0,-0.21996966607931578,-0.4855082390384326,-0.4663407186192456,1.1620850899638688,0.2629823557393377,-0.11976703321508587
13292,3.0,300.98929,4526.0087,0.0,0.0,0.0,0.13479608169169588,0.0,0.0,-0.30557817404321774,-0.5060592207466564,-0.5641562153078835,1.1562028691583388,0.2846342134162097,-0.08836531425297751
13293,3.0,300.07674,4859.4918,0.0,0.0,0.0,0.1348062228353681,0.0,0.0,-0.3043988319868257,-0.5482986181953605,-0.6244667155075664,1.188599717255659,0.33611808934477266,-0.1079543608992659
13294,3.0,299.38691,4452.1088,0.0,0.0,0.0,0.13481636397904037,0.0,0.0,-0.25459352643892474,-0.5507536522601535,-0.5479827172116835,1.1724290562597388,0.3367455039391937,-0.11368463471979989
13295,3.0,299.72236000000004,4168.9892,0.0,0.0,0.0,0.13482650512271263,0.0,0.0,-0.23628858582986778,-0.4966067118887665,-0.5343732991560385,1.158390172149209,0.3067605558499097,-0.12564327584502588
13296,3.0,299.38897000000003,4182.4761,0.0,0.0,0.0,0.1348366462663849,0.0,0.0,-0.25481130428291776,-0.4842180271560986,-0.5323389564002645,1.126846683286109,0.30387580241770673,-0.11905348222966389
13297,3.0,299.11547,4215.759,0.0,0.0,0.0,0.13484678741005715,0.0,0.0,-0.2541524789353967,-0.4876656004888475,-0.5396673890735245,1.1797371226059887,0.31705140757553774,-0.13352037331493488
13298,3.0,299.19752,4394.6066,0.0,0.0,0.0,0.1348569285537294,0.0,0.0,-0.26404922703462974,-0.46188001677650853,-0.6099214393945595,1.154131887278949,0.28140865331287174,-0.08859897175253773
13299,3.0,298.93972,4135.5857,0.0,0.0,0.0,0.13486706969740167,0.0,0.0,-0.2235967164022778,-0.47948868231434855,-0.5540293885084435,1.140775933735819,0.26072441908399674,-0.14920730871311486
13300,3.0,299.58628999999996,4026.296,0.0,0.0,0.0,0.13487721084107393,0.0,0.0,-0.24781237040967677,-0.45013799839016155,-0.5259430785890404,1.152332659076379,0.2772277604852497,-0.0977760407297439
13301,3.0,300.02844,4463.2269,0.0,0.0,0.0,0.1348873519847462,0.0,0.0,-0.3023021946149037,-0.5167546936347175,-0.5376526425746845,1.192651907055579,0.3441368594436637,-0.11844268493688288
13302,3.0,299.63777999999996,4848.3978,0.0,0.0,0.0,0.13489749312841845,0.0,0.0,-0.3456075716988117,-0.5379925373207295,-0.5901917475548905,1.171084777352069,0.3158284147048377,-0.05676205984597915
13303,3.0,300.12571,4695.3019,0.0,0.0,0.0,0.1349076342720907,0.0,0.0,-0.3105467776310807,-0.5126885412484196,-0.6040192170320554,1.1480394170776689,0.27493448166642076,-0.099464552107137
13304,3.0,301.04044,4213.8531,0.0,0.0,0.0,0.13491777541576297,0.0,0.0,-0.21801909884180978,-0.5017381245026975,-0.5611489092760854,1.1326554434593887,0.28545570593478475,-0.1041969154209349
13305,3.0,300.87766,4037.829,0.0,0.0,0.0,0.13492791655943526,0.0,0.0,-0.2181974207269088,-0.4620631718645845,-0.5471385886858744,1.1746713787310388,0.33228709204168266,-0.13622642995950188
13306,3.0,300.68532000000005,4276.0189,0.0,0.0,0.0,0.1349380577031075,0.0,0.0,-0.25850511765496875,-0.48615424677218855,-0.5551436089809085,1.1686159934834188,0.3182332016971717,-0.1035636847709399
13307,3.0,299.93809,4195.5249,0.0,0.0,0.0,0.13494819884677978,0.0,0.0,-0.26791894062404076,-0.4962410907226825,-0.5111747658640216,1.1486435167872888,0.3074776532106817,-0.18038492309760584
13308,3.0,299.13274,4055.5561,0.0,0.0,0.0,0.134958339990452,0.0,0.0,-0.27178860355094675,-0.46451981699703654,-0.4964793767486995,1.1563471559725789,0.3175374231185037,-0.12177140403290188
13309,3.0,298.58414,4034.2709999999997,0.0,0.0,0.0,0.1349684811341243,0.0,0.0,-0.23976093312756175,-0.4810306260515265,-0.5055260789415396,1.1815779953876688,0.3366315639654487,-0.12619188997916986
13310,3.0,299.56321,4247.2891,0.0,0.0,0.0,0.13497862227779653,0.0,0.0,-0.24526745092851274,-0.48754384835683157,-0.5582585424383285,1.1827944021327188,0.3034295873386687,-0.0978433489073867
13311,3.0,299.51024,4507.8121,0.0,0.0,0.0,0.13498876342146882,0.0,0.0,-0.27680838640136074,-0.5196944969448535,-0.5737594451181485,1.170601051754329,0.2530807541721257,-0.1108565928956939
13312,3.0,299.6036,4512.5431,0.0,0.0,0.0,0.13499890456514108,0.0,0.0,-0.2728202238752597,-0.5348436701174605,-0.5640365099410695,1.179142648772319,0.24894453554141274,-0.1062350173345799
13313,3.0,299.52052000000003,4094.9899,0.0,0.0,0.0,0.13500904570881334,0.0,0.0,-0.2582319859580128,-0.46076819770678057,-0.5257744940374025,1.173722166037359,0.33541814630819367,-0.10673759951668091
13314,3.0,299.88506,4239.0693,0.0,0.0,0.0,0.1350191868524856,0.0,0.0,-0.27080132305100973,-0.4782210861742465,-0.5395488185468226,1.157221286833849,0.3108694775229287,-0.09042874133962192
13315,3.0,299.84841,4607.2619,0.0,0.0,0.0,0.13502932799615786,0.0,0.0,-0.2972006526139207,-0.5153537841789586,-0.5879381273449754,1.1257639242292488,0.2855399576805997,-0.1160641917846439
13316,3.0,300.28947999999997,4395.2876,0.0,0.0,0.0,0.13503946913983012,0.0,0.0,-0.28469467404967674,-0.4561093446744876,-0.5952536714769634,1.1573696266484887,0.3037872747564697,-0.1003618012826886
13317,3.0,299.77602,3818.0806,0.0,0.0,0.0,0.13504961028350237,0.0,0.0,-0.21036116736853078,-0.4559740757861376,-0.4942659217727486,1.169827030002939,0.3269671338491437,-0.11449528546230488
13318,3.0,300.47337000000005,3956.9168,0.0,0.0,0.0,0.13505975142717463,0.0,0.0,-0.23847656769830478,-0.4417957279318436,-0.5225315972248534,1.1721915504362987,0.29599967766789376,-0.1014221806845899
13319,3.0,300.42779,4441.4735,0.0,0.0,0.0,0.1350698925708469,0.0,0.0,-0.29284966549201175,-0.4990426461891745,-0.5582047287255175,1.124747127753899,0.28723610795049676,-0.12531774898539888
13320,3.0,299.62158,4615.3346,0.0,0.0,0.0,0.13508003371451915,0.0,0.0,-0.3191152460417227,-0.5276809747630575,-0.5561502425577555,1.164618113888859,0.29247017293205874,-0.11854220636170489
13321,3.0,299.23469,4464.0316,0.0,0.0,0.0,0.13509017485819141,0.0,0.0,-0.26529315365239575,-0.5027848321209996,-0.5888761436250505,1.142098529091349,0.34556174239678866,-0.09459065396637072
13322,3.0,299.09274,3986.5422,0.0,0.0,0.0,0.1351003160018637,0.0,0.0,-0.23826126218455576,-0.4624911180443195,-0.5110568944798886,1.1582283561082387,0.2917516671536477,-0.1176497052761219
13323,3.0,299.94083,4186.4127,0.0,0.0,0.0,0.13511045714553593,0.0,0.0,-0.23952088404637076,-0.4971028903302356,-0.5359411516982735,1.1341788649847389,0.25089450496135973,-0.11952363027606387
13324,3.0,299.70746,4451.5709,0.0,0.0,0.0,0.1351205982892082,0.0,0.0,-0.2696284151327527,-0.4922727372360365,-0.5912652657708384,1.1963897866744788,0.2986340772653887,-0.11844574495218488
13325,3.0,299.23897999999997,4239.3798,0.0,0.0,0.0,0.13513073943288045,0.0,0.0,-0.25380522799362576,-0.5103400605641426,-0.5245203031961235,1.1850679327070988,0.3471451381955577,-0.09678386927157422
13326,3.0,299.86413999999996,3827.3359,0.0,0.0,0.0,0.13514088057655274,0.0,0.0,-0.2232831762913338,-0.4325010226445276,-0.5076303562192155,1.167749158022869,0.30717144903046173,-0.11853028040802788
13327,3.0,300.54151,4030.9921,0.0,0.0,0.0,0.135151021720225,0.0,0.0,-0.24543944000048676,-0.4614491929664896,-0.5184323115602855,1.107098236187089,0.2923043342881917,-0.14631064959223686
13328,3.0,300.518,4554.6528,0.0,0.0,0.0,0.13516116286389723,0.0,0.0,-0.3050204811881777,-0.5064091669336934,-0.5730710835302125,1.1502595493717789,0.2817001552341407,-0.14444792100589984
13329,3.0,300.09782,4553.0112,0.0,0.0,0.0,0.1351713040075695,0.0,0.0,-0.3121568725699847,-0.48663638156727157,-0.5852084518405773,1.188269397723059,0.3390177071559427,-0.1067333134687579
13330,3.0,299.63799,4248.1985,0.0,0.0,0.0,0.13518144515124178,0.0,0.0,-0.24622492161050777,-0.49884431261460055,-0.5462770221258445,1.156984794260509,0.2829381036763167,-0.11508360886786789
13331,3.0,300.00725,4305.2358,0.0,0.0,0.0,0.13519158629491404,0.0,0.0,-0.27552476064467674,-0.4753782103686765,-0.5577812104487194,1.1386199401730388,0.27838923894237877,-0.0916533412249805
13332,3.0,299.98775,4572.2071,0.0,0.0,0.0,0.1352017274385863,0.0,0.0,-0.2927290988626127,-0.5057579713594256,-0.5913497201666734,1.141049308612799,0.28431758289246073,-0.09043040813603642
13333,3.0,299.59332,4635.362,0.0,0.0,0.0,0.13521186858225853,0.0,0.0,-0.2801686986354977,-0.5331263226554714,-0.5957393019848914,1.162584115638119,0.3501060981677817,-0.09119672209391572
13334,3.0,300.12991,4406.9936,0.0,0.0,0.0,0.1352220097259308,0.0,0.0,-0.28402111604570174,-0.48927520906770355,-0.5663196967889025,1.1543329160987887,0.3029908399128677,-0.07901767171418703
13335,3.0,300.65462,4091.5514,0.0,0.0,0.0,0.13523215086960308,0.0,0.0,-0.24855720042568577,-0.4782239536720295,-0.5169483054638255,1.122991671955649,0.3106240582162077,-0.13248246070750086
13336,3.0,301.03744,4209.1179999999995,0.0,0.0,0.0,0.13524229201327534,0.0,0.0,-0.24031299231204578,-0.5053542215920785,-0.5337995564194145,1.164205721098159,0.2993048690965907,-0.1172032571495609
13337,3.0,301.40169,4560.4515,0.0,0.0,0.0,0.1352524331569476,0.0,0.0,-0.3068141466476987,-0.49901004993345754,-0.5804391748123864,1.1794319316758688,0.32960451240193267,-0.1009171504902473
13338,3.0,301.199,4616.1914,0.0,0.0,0.0,0.13526257430061983,0.0,0.0,-0.30474436040342673,-0.5293160361844256,-0.5691465328453895,1.1562961894925488,0.28118012488531774,-0.1035967775192059
13339,3.0,301.11039,4119.1414,0.0,0.0,0.0,0.13527271544429212,0.0,0.0,-0.23567308705662277,-0.46426196511158857,-0.5521810886035305,1.1384415068304288,0.26447034390869073,-0.13870098935372188
13340,3.0,300.9593,4033.7574,0.0,0.0,0.0,0.13528285658796438,0.0,0.0,-0.24832370707264176,-0.47893052336426256,-0.49890730637331754,1.160462572578739,0.2887501062499167,-0.11648123539330289
13341,3.0,300.31657,4374.581,0.0,0.0,0.0,0.13529299773163664,0.0,0.0,-0.26212636205485773,-0.5290831507814414,-0.5385538778761295,1.1858964673138688,0.34420139334253264,-0.12009211424466887
13342,3.0,299.97681,4490.9426,0.0,0.0,0.0,0.13530313887530893,0.0,0.0,-0.3049136238326317,-0.5169008954916465,-0.5433199023714994,1.1861043862343887,0.3000975650473237,-0.1019719397913469
13343,3.0,300.0904,4322.8116,0.0,0.0,0.0,0.13531328001898116,0.0,0.0,-0.28099326130187574,-0.5285262077314755,-0.5045073268934965,1.1567073663831289,0.32107487173512267,-0.1053389394761439
13344,3.0,299.7636,4041.8853,0.0,0.0,0.0,0.13532342116265342,0.0,0.0,-0.23630533485402075,-0.47184944530541456,-0.5204774150321215,1.1574005307765387,0.3063272090471417,-0.10392427008402691
13345,3.0,299.92085,4116.0654,0.0,0.0,0.0,0.13533356230632568,0.0,0.0,-0.21421682717905477,-0.5003645322696345,-0.5365997541307724,1.1777774969125887,0.34954759471266167,-0.08693110838568242
13346,3.0,300.11524,4499.3227,0.0,0.0,0.0,0.13534370344999797,0.0,0.0,-0.28064489578499474,-0.5428978330423444,-0.5441390137523395,1.169643733059849,0.28810659111140674,-0.12446858460659288
13347,3.0,299.87841000000003,4576.0262,0.0,0.0,0.0,0.13535384459367023,0.0,0.0,-0.3078927412466477,-0.5040309980214865,-0.5790739621576504,1.1616473659206688,0.28487910583287873,-0.1254057497565839
13348,3.0,301.05433,4360.8286,0.0,0.0,0.0,0.13536398573734246,0.0,0.0,-0.28960300952159174,-0.5032481812592284,-0.5327318238615375,1.1661112392362187,0.2942653886642327,-0.12486667030588088
13349,3.0,301.27939,3993.3261,0.0,0.0,0.0,0.13537412688101472,0.0,0.0,-0.24373083688686076,-0.44976635851848357,-0.5203742256419375,1.1686801322147489,0.2987173866886107,-0.0979466173310785
13350,3.0,300.64418,4159.5127,0.0,0.0,0.0,0.135384268024687,0.0,0.0,-0.25014315974720774,-0.4602366669693226,-0.5540081507863475,1.1581141628219689,0.2785267572459507,-0.09189122296420761
13351,3.0,299.74564,4540.7487,0.0,0.0,0.0,0.13539440916835926,0.0,0.0,-0.28558859368539974,-0.5118584766339985,-0.5828271621180625,1.122920845773659,0.25979690007495776,-0.1237708301902299
13352,3.0,299.31094,4422.4281,0.0,0.0,0.0,0.13540455031203152,0.0,0.0,-0.26951473860403374,-0.5062689837823585,-0.5685239919839495,1.1819678940261489,0.30237885711746976,-0.12188451314156488
13353,3.0,299.56195,4118.2006,0.0,0.0,0.0,0.13541469145570376,0.0,0.0,-0.25429695826715576,-0.5001305626890435,-0.4974026299748175,1.1585478338647688,0.33304191270367767,-0.11445193862302688
13354,3.0,300.2833,4231.1776,0.0,0.0,0.0,0.13542483259937604,0.0,0.0,-0.27772078771890774,-0.5009487722772945,-0.5075027778991246,1.158069883792599,0.3068279876440647,-0.09957830665611371
13355,3.0,299.95337,4582.0535,0.0,0.0,0.0,0.1354349737430483,0.0,0.0,-0.3080760888522427,-0.5083504831977865,-0.5764032578090724,1.110535484501319,0.2809424468093607,-0.09960999605299121
13356,3.0,299.87467999999996,4661.3989,0.0,0.0,0.0,0.13544511488672056,0.0,0.0,-0.2997797186234547,-0.5313377639764545,-0.5858313777370555,1.136357454024749,0.3241785277189297,-0.0933480668652369
13357,3.0,299.76597000000004,4332.9289,0.0,0.0,0.0,0.13545525603039282,0.0,0.0,-0.24303230226792077,-0.4853304237783835,-0.5887394561865604,1.1731697420828389,0.3158347981804677,-0.09213196510846701
13358,3.0,299.94281,3953.3965,0.0,0.0,0.0,0.13546539717406508,0.0,0.0,-0.21969733484993878,-0.45727062048159656,-0.5247658744903595,1.1574577794071887,0.27561904356648176,-0.13812241341412088
13359,3.0,300.03762,4271.7554,0.0,0.0,0.0,0.13547553831773734,0.0,0.0,-0.26684923222846874,-0.49410067081393955,-0.5375570728252526,1.1673629070847489,0.28469653842986076,-0.14004963536932286
13360,3.0,299.98331,4455.1391,0.0,0.0,0.0,0.1354856794614096,0.0,0.0,-0.3351040691746967,-0.4689877433129866,-0.5501592392214895,1.1880699901033789,0.2933051416769637,-0.12465441467493289
13361,3.0,298.66621000000004,4207.7613,0.0,0.0,0.0,0.13549582060508186,0.0,0.0,-0.25429634018459474,-0.48194330094660054,-0.5428147262691425,1.1897686025710188,0.3308745504747757,-0.09337129055752891
13362,3.0,299.49847,3972.1387,0.0,0.0,0.0,0.13550596174875415,0.0,0.0,-0.2173239484782038,-0.4647833532155456,-0.5253236686704095,1.155637880902579,0.28096225584881573,-0.1100104378696849
13363,3.0,299.61327,4154.838,0.0,0.0,0.0,0.13551610289242638,0.0,0.0,-0.2068649377659798,-0.48555291323534155,-0.5705491546938175,1.1561820975312889,0.26033551343061473,-0.10560615379251591
13364,3.0,300.89762,4615.3723,0.0,0.0,0.0,0.13552624403609864,0.0,0.0,-0.28570165213155774,-0.5517350559095106,-0.5655212253125995,1.1825910428376487,0.3064777780120017,-0.13645236446679987
13365,3.0,300.54446,4685.5227,0.0,0.0,0.0,0.1355363851797709,0.0,0.0,-0.3220208825584867,-0.5086630607211354,-0.5935979498860564,1.1960051569365189,0.3084028417444907,-0.09050846183098972
13366,3.0,300.63867,4350.0731,0.0,0.0,0.0,0.1355465263234432,0.0,0.0,-0.3103910613557127,-0.4977456050011665,-0.5141769347178125,1.145060360458659,0.30903632570701073,-0.12117015155606288
13367,3.0,299.65659,4117.4252,0.0,0.0,0.0,0.13555666746711545,0.0,0.0,-0.2679863318881917,-0.43805570022273155,-0.5455524165818315,1.1162505190403489,0.2910775518621177,-0.1080178004880269
13368,3.0,300.16643,4389.4262,0.0,0.0,0.0,0.13556680861078768,0.0,0.0,-0.2829879150512328,-0.48413737244813854,-0.5671506631959125,1.1523832202563689,0.34001406637677567,-0.11629256822468288
13369,3.0,299.94919,4444.8059,0.0,0.0,0.0,0.13557694975445994,0.0,0.0,-0.2633282387934738,-0.4807549814943226,-0.6070267865088795,1.1677486513978188,0.32769234734321667,-0.0986948802384263
13370,3.0,300.32496000000003,4329.8581,0.0,0.0,0.0,0.13558709089813223,0.0,0.0,-0.26367767835546074,-0.4864357479149705,-0.5660553094403095,1.165142470815609,0.2884408116568917,-0.12742272540564387
13371,3.0,299.8186,4148.5348,0.0,0.0,0.0,0.1355972320418045,0.0,0.0,-0.25808461886346873,-0.47845474164730656,-0.5245116297752674,1.158279525238289,0.2625373768254217,-0.14350289303513286
13372,3.0,300.36588,4372.0602,0.0,0.0,0.0,0.13560737318547675,0.0,0.0,-0.3069455651856687,-0.5022020106634795,-0.5198495546076565,1.171060864649709,0.2988074038274947,-0.12105011181671588
13373,3.0,299.83892000000003,4554.0597,0.0,0.0,0.0,0.13561751432914898,0.0,0.0,-0.3019938018144677,-0.4987909852618375,-0.5835356569854855,1.179394542747179,0.3226435956724437,-0.08228103516550593
13374,3.0,299.82268,4333.1858,0.0,0.0,0.0,0.13562765547282127,0.0,0.0,-0.25980775198352873,-0.5154586859618115,-0.5419138253402305,1.135859948225649,0.3063011989170747,-0.11074678698235689
13375,3.0,300.06357,4183.496,0.0,0.0,0.0,0.13563779661649353,0.0,0.0,-0.2136518085257918,-0.4893188700145125,-0.5687076536970754,1.1796303260454488,0.2990031333493117,-0.1034136426961319
13376,3.0,299.80346000000003,4305.9834,0.0,0.0,0.0,0.1356479377601658,0.0,0.0,-0.25594564790236873,-0.5136887204221294,-0.5392770547375015,1.1686562195123888,0.3138324335978497,-0.13261508501308988
13377,3.0,298.67545,4504.8571,0.0,0.0,0.0,0.13565807890383808,0.0,0.0,-0.28063617170163374,-0.5040020798636325,-0.5847258205529454,1.2065115472234187,0.29678950612084376,-0.08321992486716713
13378,3.0,299.17627999999996,4501.2585,0.0,0.0,0.0,0.1356682200475103,0.0,0.0,-0.3225260586608437,-0.48219392835883557,-0.5635502208205765,1.151437756588059,0.2961205888023267,-0.12895534724190189
13379,3.0,299.43036,4235.5927,0.0,0.0,0.0,0.13567836119118257,0.0,0.0,-0.27341921680437575,-0.4594502936992136,-0.5546448974141894,1.134222637389059,0.28858433853355675,-0.10434874081591888
13380,3.0,300.19077000000004,4061.5188,0.0,0.0,0.0,0.13568850233485483,0.0,0.0,-0.24454734421494378,-0.45727747005227254,-0.5327754746758455,1.156664505903899,0.3443947923891197,-0.14296681280472587
13381,3.0,300.43158999999997,4450.5627,0.0,0.0,0.0,0.13569864347852711,0.0,0.0,-0.2912605650951797,-0.49333253604563054,-0.5682668291085694,1.1539458545605887,0.3253791784249247,-0.10401310172029389
13382,3.0,300.97559,4692.2305,0.0,0.0,0.0,0.13570878462219937,0.0,0.0,-0.30869373571569975,-0.5489904349661375,-0.5686367160575744,1.1623848093434488,0.3069323017418597,-0.14157616757247984
13383,3.0,300.02803,4532.3542,0.0,0.0,0.0,0.1357189257658716,0.0,0.0,-0.29386989688520077,-0.5144293657152256,-0.5694232210501965,1.1751171074500288,0.25493964254058377,-0.12162525283847789
13384,3.0,300.34684,4221.1585,0.0,0.0,0.0,0.13572906690954387,0.0,0.0,-0.2818260920890697,-0.48070313348670557,-0.5205975358314765,1.2053170266805289,0.3011187894256107,-0.11941606364544788
13385,3.0,299.7283,4125.8716,0.0,0.0,0.0,0.13573920805321615,0.0,0.0,-0.2384730719854598,-0.4517911463258146,-0.5638977250748725,1.216650735674079,0.2884296659057917,-0.06973995356479754
13386,3.0,300.5109,4471.1346,0.0,0.0,0.0,0.1357493491968884,0.0,0.0,-0.28340242553464173,-0.5015329616224495,-0.5741778870119454,1.1463420205101489,0.3046468958763077,-0.11686693917636888
13387,3.0,300.13039,4461.5042,0.0,0.0,0.0,0.13575949034056067,0.0,0.0,-0.25941074032934675,-0.4912192611070665,-0.6055558817362124,1.150821193902209,0.28992329787820176,-0.1067515823680609
13388,3.0,299.36874,4198.0158,0.0,0.0,0.0,0.1357696314842329,0.0,0.0,-0.25625713111560977,-0.4983814903664235,-0.5214533572634396,1.163814099934509,0.33589757572550966,-0.13962754577516587
13389,3.0,299.19997,4219.0399,0.0,0.0,0.0,0.1357797726279052,0.0,0.0,-0.26447087079874276,-0.4761960450543905,-0.5418158744530636,1.174651924329119,0.3224712924929387,-0.08847631478818242
13390,3.0,300.06031,4356.4535,0.0,0.0,0.0,0.13578991377157745,0.0,0.0,-0.29670381555988673,-0.49162622287723057,-0.5359230347864855,1.1412952244120689,0.3036131375942837,-0.12002921167846088
13391,3.0,300.24872999999997,4446.7545,0.0,0.0,0.0,0.1358000549152497,0.0,0.0,-0.27617975590681976,-0.5206020650594235,-0.5549205115738906,1.152999073667149,0.2857448875133247,-0.12425927753343588
13392,3.0,302.34094,4451.7298,0.0,0.0,0.0,0.13581019605892197,0.0,0.0,-0.2808481334900527,-0.5292224220076864,-0.5431441440091535,1.1819479329991789,0.32585475749186066,-0.12855618749750788
13393,3.0,300.83291,4179.8131,0.0,0.0,0.0,0.1358203372025942,0.0,0.0,-0.22811510257320777,-0.5100621057967105,-0.5323816142294745,1.2032383441003789,0.30447547422438975,-0.1187714237993269
13394,3.0,300.15031,4206.3929,0.0,0.0,0.0,0.1358304783462665,0.0,0.0,-0.2520361237165288,-0.5038122373248966,-0.5227900469278606,1.174065151196209,0.3057675808844107,-0.12891739089315588
13395,3.0,300.52179,4558.6501,0.0,0.0,0.0,0.13584061948993875,0.0,0.0,-0.30595076636998975,-0.5079757123832995,-0.5717893221537125,1.1539245763084887,0.25978988838426575,-0.11610928141409389
13396,3.0,299.4987,4521.3953,0.0,0.0,0.0,0.135850760633611,0.0,0.0,-0.2854192187986837,-0.5142751085200016,-0.5746969345081715,1.193727776011759,0.31120882511391973,-0.0927104762000616
13397,3.0,298.69563,4254.1614,0.0,0.0,0.0,0.1358609017772833,0.0,0.0,-0.2276066638055288,-0.48635407995691055,-0.5791981055599025,1.189201587815059,0.28554932011152373,-0.08503930965397642
13398,3.0,298.79609,4295.1822,0.0,0.0,0.0,0.13587104292095553,0.0,0.0,-0.24052245137271777,-0.5056056292068905,-0.5595000676533575,1.160767256883809,0.2732482207174997,-0.1033174751291409
13399,3.0,298.32257999999996,4613.0774,0.0,0.0,0.0,0.1358811840646278,0.0,0.0,-0.2831674224389487,-0.5398168130657715,-0.5792761156851014,1.1359510394096388,0.2922048939233777,-0.14206939745615788
13400,3.0,299.27682000000004,4632.0186,0.0,0.0,0.0,0.13589132520830005,0.0,0.0,-0.3442537479751997,-0.5283944953509765,-0.5353697394368795,1.1720855644758388,0.34516654446028566,-0.0980950067949734
13401,3.0,300.38997,4268.1093,0.0,0.0,0.0,0.13590146635197234,0.0,0.0,-0.2990848114398727,-0.5088317567302846,-0.4894820944731216,1.190752367093109,0.3329122268233787,-0.100444243363825
13402,3.0,301.01885,4114.2566,0.0,0.0,0.0,0.13591160749564457,0.0,0.0,-0.25789310446206776,-0.4699408164895476,-0.5227973524610815,1.146654709491009,0.31099391476770966,-0.09371739652668691
13403,3.0,299.93921,4261.9493,0.0,0.0,0.0,0.13592174863931683,0.0,0.0,-0.24518033168491477,-0.4903628317250435,-0.5599830130485205,1.1609220814990888,0.26966025145089473,-0.12929918353083586
13404,3.0,298.80431,4511.6438,0.0,0.0,0.0,0.1359318897829891,0.0,0.0,-0.27283994172220577,-0.5133903993276875,-0.5851967184044193,1.184662733992109,0.3036574470211567,-0.13045734866013786
13405,3.0,298.5495,4475.1687,0.0,0.0,0.0,0.13594203092666138,0.0,0.0,-0.2632012785559437,-0.5063199502623885,-0.5908183110192274,1.2036453666655489,0.3095651409342007,-0.1284356310006099
13406,3.0,299.5294,4430.9745,0.0,0.0,0.0,0.13595217207033364,0.0,0.0,-0.2945864977534237,-0.5302768809892535,-0.5220422379565576,1.197528375811849,0.2920011495932697,-0.12576339664438088
13407,3.0,300.11983,4320.6689,0.0,0.0,0.0,0.1359623132140059,0.0,0.0,-0.2982142066889507,-0.49948137334997356,-0.5156798683261404,1.1613317385145188,0.3003446359517077,-0.11235374084595089
13408,3.0,300.8784,4382.6985,0.0,0.0,0.0,0.13597245435767813,0.0,0.0,-0.26267097385110677,-0.5125431398590695,-0.5570168044407785,1.1867306761211989,0.3340822267138487,-0.09497964169301082
13409,3.0,300.41205,4515.8496,0.0,0.0,0.0,0.13598259550135042,0.0,0.0,-0.26648332735235675,-0.5149651115730995,-0.5912570685775295,1.1575687302931388,0.2978512807681327,-0.10873427976623791
13410,3.0,301.58029,4392.6155,0.0,0.0,0.0,0.13599273664502268,0.0,0.0,-0.23423242779944078,-0.5024072039412305,-0.5986058067827935,1.135120174327639,0.2817209065961887,-0.10919058681627189
13411,3.0,302.04717,4188.4445,0.0,0.0,0.0,0.13600287778869494,0.0,0.0,-0.2265337231421378,-0.5152053430393085,-0.5314434662268864,1.1514730176915389,0.26832479795159575,-0.16939392568537884
13412,3.0,300.95691,4362.5621,0.0,0.0,0.0,0.1360130189323672,0.0,0.0,-0.31024798030909173,-0.48551236296633954,-0.5303495918164295,1.1672127434199289,0.3222282036614477,-0.11758689390242287
13413,3.0,300.93408,4657.7808,0.0,0.0,0.0,0.13602316007603946,0.0,0.0,-0.35669072420763365,-0.5055308918795145,-0.5536274321937735,1.1660138659016088,0.3213298966527917,-0.11131270742820888
13414,3.0,299.4631,4542.1996,0.0,0.0,0.0,0.13603330121971172,0.0,0.0,-0.3083916959933907,-0.4970129035888546,-0.5753106702262425,1.1555788084217489,0.2867154392541107,-0.09621445919237781
13415,3.0,299.9064,4387.0659,0.0,0.0,0.0,0.13604344236338398,0.0,0.0,-0.24263475359118575,-0.5098336280316614,-0.5810901170741295,1.1548743969522288,0.3026435991035977,-0.1169756507795979
13416,3.0,299.16511,4535.7837,0.0,0.0,0.0,0.13605358350705624,0.0,0.0,-0.2379345295573098,-0.5300190696338094,-0.6108113870898904,1.1774932802595388,0.3342621495341057,-0.092958189505009
13417,3.0,299.68901,4525.187,0.0,0.0,0.0,0.1360637246507285,0.0,0.0,-0.2823662658498807,-0.5207730408812975,-0.5724045574819314,1.175819999044399,0.3017810192934677,-0.13710025684574187
13418,3.0,299.97362000000004,4297.5304,0.0,0.0,0.0,0.13607386579440076,0.0,0.0,-0.3271026459175177,-0.48109234311511756,-0.49814693310077457,1.165437833219759,0.2733043446405387,-0.1014852352383129
13419,3.0,301.24093999999997,4132.8017,0.0,0.0,0.0,0.13608400693807302,0.0,0.0,-0.26632580749181073,-0.4890267398781815,-0.5009159835040585,1.173115127902449,0.2810738957448337,-0.1340582571305199
13420,3.0,299.56244,4169.401,0.0,0.0,0.0,0.13609414808174528,0.0,0.0,-0.2655222191025028,-0.4708568047124485,-0.5310147803745785,1.1836728899694189,0.3134352091611467,-0.08947627611312091
13421,3.0,301.22886,4425.6642,0.0,0.0,0.0,0.13610428922541754,0.0,0.0,-0.23902314519974777,-0.5001838089817985,-0.6060844537833785,1.1730081286918888,0.3074327257012477,-0.12502350115635888
13422,3.0,300.76993,4611.6391,0.0,0.0,0.0,0.1361144303690898,0.0,0.0,-0.26160956397385376,-0.5315843991832955,-0.6086291604820214,1.1594536794541688,0.28483326639835477,-0.12117106348115288
13423,3.0,300.28691000000003,4477.8595,0.0,0.0,0.0,0.13612457151276205,0.0,0.0,-0.2835818113323457,-0.5010384043811404,-0.5765372702672985,1.1679489709425888,0.3073788511934307,-0.14203875677313388
13424,3.0,299.1087,4253.1395,0.0,0.0,0.0,0.13613471265643431,0.0,0.0,-0.2941006645954757,-0.4969562325107616,-0.5017912998679456,1.2071236516088288,0.3440948804920207,-0.10710856051079189
13425,3.0,300.02057,4321.2737,0.0,0.0,0.0,0.13614485380010657,0.0,0.0,-0.29272453923716274,-0.4967401062644315,-0.5240946469616146,1.1543041397959488,0.3197243613393377,-0.10299157336697691
13426,3.0,299.61589,4492.1028,0.0,0.0,0.0,0.13615499494377883,0.0,0.0,-0.27755399661994673,-0.4848229678633016,-0.6031101290423354,1.150708925791129,0.2921982976652267,-0.08494335790925672
13427,3.0,299.72192,4292.6891,0.0,0.0,0.0,0.13616513608745112,0.0,0.0,-0.22228465884778778,-0.5160957365646834,-0.5664898924081995,1.126073573459809,0.3080809017902177,-0.13262920971948386
13428,3.0,299.70567,4075.6597,0.0,0.0,0.0,0.13617527723112335,0.0,0.0,-0.2122195997744438,-0.45931222824058754,-0.5673669515622585,1.1849393512694089,0.3087595260446927,-0.1006356848112188
13429,3.0,299.65319,4451.4723,0.0,0.0,0.0,0.1361854183747956,0.0,0.0,-0.2898745504158907,-0.5171087738821625,-0.5461531117711155,1.1838533498122288,0.27446349262243774,-0.14399761239645786
13430,3.0,300.145,4644.1733,0.0,0.0,0.0,0.13619555951846787,0.0,0.0,-0.35453565270244464,-0.5070609501930194,-0.5501161254297345,1.1769089389268688,0.25627866268023475,-0.1032925390441799
13431,3.0,300.64132,4464.9447,0.0,0.0,0.0,0.13620570066214016,0.0,0.0,-0.2946882077984617,-0.5033617159329334,-0.5591817652669435,1.1660827669084088,0.2854609951003067,-0.12480677709246989
13432,3.0,300.59175,4484.1191,0.0,0.0,0.0,0.13621584180581242,0.0,0.0,-0.29140167030410574,-0.5005905883669445,-0.5710679691425204,1.179278221635699,0.33856687165644866,-0.07103861899271584
13433,3.0,300.42825,4365.3089,0.0,0.0,0.0,0.13622598294948465,0.0,0.0,-0.2426444301296408,-0.49002965482716154,-0.5942708188799635,1.151051606974949,0.3403180920692807,-0.1153149743957019
13434,3.0,301.16002000000003,4373.458,0.0,0.0,0.0,0.1362361240931569,0.0,0.0,-0.27646659687762876,-0.4875296020604255,-0.5654258379481855,1.152425168810509,0.28970033219369673,-0.0921475752395076
13435,3.0,300.55677000000003,4426.6097,0.0,0.0,0.0,0.1362462652368292,0.0,0.0,-0.30047310593188675,-0.5085280856753145,-0.5365776247485885,1.1506149975068591,0.2902376688542277,-0.16107577057944084
13436,3.0,300.0395,4346.0636,0.0,0.0,0.0,0.13625640638050146,0.0,0.0,-0.31102620704839673,-0.4838409765288866,-0.5262276093496215,1.1935401220932387,0.3017625680091467,-0.08284172318784153
13437,3.0,300.13695,4234.0466,0.0,0.0,0.0,0.13626654752417372,0.0,0.0,-0.25783731491156175,-0.5054158677281626,-0.5237912697491736,1.1894355472631488,0.2657156080165887,-0.15852723379541986
13438,3.0,299.51479,4300.8422,0.0,0.0,0.0,0.13627668866784595,0.0,0.0,-0.22502536864577477,-0.5081193203199725,-0.5742039376720164,1.1762610668129287,0.27790699268978475,-0.08999256250282442
13439,3.0,299.24297,4356.0024,0.0,0.0,0.0,0.13628682981151824,0.0,0.0,-0.23380857515010978,-0.5295170650042654,-0.5607903301981965,1.1697869052989789,0.3137595707831587,-0.15562353258634687
13440,3.0,298.9378,4506.4278,0.0,0.0,0.0,0.1362969709551905,0.0,0.0,-0.26232187879415375,-0.5302228544939215,-0.5772967924097575,1.1812412923794389,0.34235483622779167,-0.07922795860019073
13441,3.0,299.4857,4388.0972,0.0,0.0,0.0,0.13630711209886276,0.0,0.0,-0.3364215982797267,-0.48469501464067355,-0.5127553650925145,1.1569560179576688,0.3264400918096287,-0.1414538986829129
13442,3.0,298.80946,4302.7186,0.0,0.0,0.0,0.13631725324253505,0.0,0.0,-0.2922587177686897,-0.46901634736330955,-0.5466439402520565,1.163531909781659,0.28217114427812373,-0.08079524372236972
13443,3.0,300.10457,4258.3974,0.0,0.0,0.0,0.13632739438620728,0.0,0.0,-0.27815419531668173,-0.4869509146633135,-0.5293413573044246,1.1790436542375489,0.28471486812416974,-0.11180868321965788
13444,3.0,299.75678,4371.9882,0.0,0.0,0.0,0.13633753552987954,0.0,0.0,-0.24659770645479875,-0.47635429445500854,-0.6060232332123364,1.1882345419196187,0.2930709694463527,-0.06528994759011614
13445,3.0,300.02959,4643.1351,0.0,0.0,0.0,0.1363476766735518,0.0,0.0,-0.29455026392984773,-0.5204796441823415,-0.5963672130718615,1.183019242329909,0.30047000538658075,-0.13273338196226486
13446,3.0,300.22844,4549.2337,0.0,0.0,0.0,0.1363578178172241,0.0,0.0,-0.3007157691983357,-0.5087291043626535,-0.5734085768735204,1.1697745436477591,0.28370180040918774,-0.11416365883707588
13447,3.0,300.66201,4181.8817,0.0,0.0,0.0,0.13636795896089635,0.0,0.0,-0.29043486758868975,-0.4939325827548505,-0.4868201547379085,1.1917256951391688,0.3212037470153417,-0.15234167630745285
13448,3.0,300.68674,4321.9227,0.0,0.0,0.0,0.13637810010456858,0.0,0.0,-0.2824859509516927,-0.49167565934960944,-0.5395949619563765,1.163254279254259,0.3186838750766497,-0.1089973600222019
13449,3.0,299.66809,4459.2691,0.0,0.0,0.0,0.13638824124824084,0.0,0.0,-0.2725088926495337,-0.5052432909711305,-0.5777542849624084,1.1751311916264189,0.2916263078512757,-0.10999218923538388
13450,3.0,299.17488,4274.3884,0.0,0.0,0.0,0.13639838239191313,0.0,0.0,-0.2204585997825698,-0.4933708571644126,-0.5854778851746685,1.148942222916769,0.27957562308696576,-0.08539026301161283
13451,3.0,299.09047999999996,4121.1618,0.0,0.0,0.0,0.13640852353558539,0.0,0.0,-0.1968552933406048,-0.49798299936709556,-0.5578919992146535,1.1711624936347387,0.3078085401633377,-0.13159476242739188
13452,3.0,299.04864,4343.0348,0.0,0.0,0.0,0.13641866467925765,0.0,0.0,-0.2670533007986088,-0.5091996577090935,-0.5439211649808394,1.1827322899015889,0.3031563239191997,-0.08300657188636082
13453,3.0,299.97578,4461.523,0.0,0.0,0.0,0.13642880582292988,0.0,0.0,-0.3242445308304437,-0.5024294143834226,-0.5295176526893235,1.1431302203431688,0.3164908269577127,-0.13591833100159487
13454,3.0,300.13109,4447.9926,0.0,0.0,0.0,0.13643894696660214,0.0,0.0,-0.3113355320389247,-0.4869445109226816,-0.5537986410631704,1.1517780059716387,0.3024719950666617,-0.11747725010910189
13455,3.0,299.52409,4205.2481,0.0,0.0,0.0,0.13644908811027442,0.0,0.0,-0.2519523279332587,-0.47406633519920455,-0.5522717440899775,1.171767809244479,0.3078428488117237,-0.13612220705421585
13456,3.0,301.09841,4097.3755,0.0,0.0,0.0,0.13645922925394668,0.0,0.0,-0.2065324701431678,-0.46022329206800255,-0.5787440985875955,1.1778040440652089,0.2906736602397567,-0.1185066210181929
13457,3.0,301.371,4300.724,0.0,0.0,0.0,0.13646937039761894,0.0,0.0,-0.2388973400673318,-0.4909757467105335,-0.5774396302763545,1.1637934296324688,0.27570357902232473,-0.14056773041045487
13458,3.0,299.63282000000004,4482.3413,0.0,0.0,0.0,0.13647951154129118,0.0,0.0,-0.3095823053908947,-0.4829413016325956,-0.5699962241142474,1.161262736182709,0.2872835483201787,-0.11844068883418589
13459,3.0,298.95862999999997,4431.8166,0.0,0.0,0.0,0.13648965268496346,0.0,0.0,-0.3053196838102067,-0.48857715067631047,-0.5532647494529795,1.1551055193000388,0.3213908031163027,-0.10625106721616391
13460,3.0,297.65217,4295.1327,0.0,0.0,0.0,0.13649979382863572,0.0,0.0,-0.27426812787065674,-0.4922279414491156,-0.5391170321492085,1.200083893889059,0.3274516700469637,-0.09421736553678
13461,3.0,298.81192999999996,4479.0287,0.0,0.0,0.0,0.13650993497230798,0.0,0.0,-0.2763931767753828,-0.5013863139354765,-0.5837334028750015,1.1663000077298489,0.3185050465665007,-0.05761463279812155
13462,3.0,300.50684,4690.3774,0.0,0.0,0.0,0.13652007611598027,0.0,0.0,-0.28779596916075073,-0.5251812968988585,-0.6127803549492125,1.174380778602359,0.3017088049588407,-0.09165655626754782
13463,3.0,299.65785,4434.6111,0.0,0.0,0.0,0.1365302172596525,0.0,0.0,-0.25208312838866775,-0.5064842487661034,-0.5894436650060605,1.156136298626769,0.29305332876211176,-0.08674640606470373
13464,3.0,299.78542000000004,4263.0661,0.0,0.0,0.0,0.13654035840332476,0.0,0.0,-0.2829082533283708,-0.47792874325539453,-0.5350286591882175,1.170920833485889,0.31255180706146174,-0.12816871052676687
13465,3.0,300.4964,4414.1006,0.0,0.0,0.0,0.13655049954699702,0.0,0.0,-0.30787908263529973,-0.4987384887741565,-0.5351588010310615,1.148190999292629,0.28996766810008073,-0.12969916400781087
13466,3.0,299.13712999999996,4363.1365,0.0,0.0,0.0,0.1365606406906693,0.0,0.0,-0.28635512751855074,-0.5062233267328524,-0.5337060840976895,1.164184848146099,0.3274884104955897,-0.16494659874396184
13467,3.0,299.38114,4370.6088,0.0,0.0,0.0,0.13657078183434157,0.0,0.0,-0.2737873204332047,-0.5061386291569936,-0.5486300016405654,1.154649455430029,0.3131434843248557,-0.14516891937955687
13468,3.0,299.75146,4273.8817,0.0,0.0,0.0,0.1365809229780138,0.0,0.0,-0.2244264669091678,-0.49932439051198046,-0.5754024706853025,1.203600884986159,0.3001337482083947,-0.12941516013728188
13469,3.0,299.93825,4103.6754,0.0,0.0,0.0,0.13659106412168606,0.0,0.0,-0.24293128123295074,-0.47277889962214453,-0.5317046821026665,1.1926221175026388,0.27205502753224076,-0.1138768887937739
13470,3.0,300.22154,4355.4966,0.0,0.0,0.0,0.13660120526535835,0.0,0.0,-0.27337179669969575,-0.5175911518572694,-0.5329992813579334,1.2001770115732489,0.2866998352025707,-0.12442773036256088
13471,3.0,301.22747999999996,4587.5267,0.0,0.0,0.0,0.1366113464090306,0.0,0.0,-0.3013770567435997,-0.5191456193656835,-0.5739708901490165,1.1761095859229789,0.3306722449598097,-0.1084784341159879
13472,3.0,300.74273999999997,4530.402,0.0,0.0,0.0,0.13662148755270287,0.0,0.0,-0.2730729487152017,-0.5286832412319735,-0.5753728837823825,1.145492916926349,0.33182393542097266,-0.0984666253883993
13473,3.0,299.67046,4438.7435,0.0,0.0,0.0,0.1366316286963751,0.0,0.0,-0.26029342302146075,-0.5226697741409906,-0.5663040116773544,1.141513883783649,0.3279517089713137,-0.1039400666530859
13474,3.0,299.0953,4439.7738,0.0,0.0,0.0,0.1366417698400474,0.0,0.0,-0.26396858245917076,-0.5063186634347615,-0.5792931281542805,1.136636097802249,0.3244200460127657,-0.0974869645292143
13475,3.0,299.54233999999997,4392.1508,0.0,0.0,0.0,0.13665191098371965,0.0,0.0,-0.29432403558002074,-0.4993582533303225,-0.5414218721516785,1.1839723053739688,0.3305559846433357,-0.1078828761047109
13476,3.0,299.60685,4405.4076,0.0,0.0,0.0,0.1366620521273919,0.0,0.0,-0.3128439473302937,-0.46547642641644654,-0.5608135234929855,1.1612633441327689,0.27254687939578276,-0.12128490212988789
13477,3.0,299.62952,4351.5902,0.0,0.0,0.0,0.1366721932710642,0.0,0.0,-0.2871536091273547,-0.47404614112471155,-0.5615750113406385,1.187789623800709,0.26921365133681874,-0.10824351208030289
13478,3.0,299.71372,4209.7171,0.0,0.0,0.0,0.13668233441473643,0.0,0.0,-0.24276068031361375,-0.48027198543665456,-0.5566162058812425,1.1866374571119989,0.29023904687436375,-0.11911519929325488
13479,3.0,299.305,4291.0597,0.0,0.0,0.0,0.1366924755584087,0.0,0.0,-0.22835456396934078,-0.49504462473960054,-0.5809758123303485,1.205785654851779,0.3178103825629427,-0.09563367031455841
13480,3.0,300.15803999999997,4481.0379,0.0,0.0,0.0,0.13670261670208095,0.0,0.0,-0.25857199216156873,-0.5189218937436034,-0.5846297543109644,1.1752527816384188,0.2932563739496507,-0.09476030547036401
13481,3.0,300.87874,4443.6906,0.0,0.0,0.0,0.1367127578457532,0.0,0.0,-0.3109984845256607,-0.4978025091267825,-0.5419699999257745,1.1574131964027887,0.2772396155114198,-0.08379200790012732
13482,3.0,300.2512,4427.462,0.0,0.0,0.0,0.1367228989894255,0.0,0.0,-0.2881740026405597,-0.5207546909219865,-0.5369092007113125,1.154907124930459,0.30231003717067767,-0.1073167935388429
13483,3.0,300.24978,4530.018,0.0,0.0,0.0,0.13673304013309773,0.0,0.0,-0.2820425729729348,-0.5306665972427155,-0.5643031872348885,1.1585114581861788,0.32347163378666466,-0.11294756619955688
13484,3.0,300.52925,4552.6634,0.0,0.0,0.0,0.13674318127677,0.0,0.0,-0.24417867316605876,-0.5315675589666335,-0.6081497614622084,1.139587188718499,0.2932139390354627,-0.12451152614583089
13485,3.0,300.73045,4288.1166,0.0,0.0,0.0,0.13675332242044225,0.0,0.0,-0.23626399424994077,-0.4893515979927425,-0.5778648001508155,1.1501424176602189,0.2913991777088597,-0.13277203745357988
13486,3.0,301.12579,4239.3712,0.0,0.0,0.0,0.13676346356411453,0.0,0.0,-0.24695560665512076,-0.5068316415628885,-0.5348757394831255,1.1878054305022687,0.3185960364254807,-0.14704705949991487
13487,3.0,300.31419,4169.0365,0.0,0.0,0.0,0.1367736047077868,0.0,0.0,-0.28970438519409675,-0.4645692230719126,-0.5130093970250855,1.2164245782517589,0.3303293307284667,-0.10525858874321391
13488,3.0,299.0757,4073.7497,0.0,0.0,0.0,0.13678374585145903,0.0,0.0,-0.24708990282337479,-0.48473134978925947,-0.5064969346573556,1.1703912076586187,0.2986876579306767,-0.14946535311608183
13489,3.0,299.25197000000003,4380.9867,0.0,0.0,0.0,0.1367938869951313,0.0,0.0,-0.26444531663122073,-0.49029364700821554,-0.5769715999226634,1.180957785001459,0.2762595088221907,-0.09694691641141572
13490,3.0,299.10985,4759.5519,0.0,0.0,0.0,0.13680402813880357,0.0,0.0,-0.2819192908332677,-0.5377826628275165,-0.6270829779282714,1.151241591368699,0.29425492179069973,-0.12592363201519488
13491,3.0,299.71283,4663.5036,0.0,0.0,0.0,0.13681416928247583,0.0,0.0,-0.2934175415105567,-0.5153388387399835,-0.6088322765970674,1.174440763008279,0.30654809756894175,-0.06429397239107104
13492,3.0,300.64468999999997,4480.7715,0.0,0.0,0.0,0.1368243104261481,0.0,0.0,-0.3035810479636167,-0.48563072071052055,-0.5728308824615065,1.1725232885190386,0.2822605433344467,-0.08926674612494191
13493,3.0,300.64315,4678.0704,0.0,0.0,0.0,0.13683445156982033,0.0,0.0,-0.35382394583220467,-0.5092129515504056,-0.5589797130645026,1.1724264218094789,0.2926321105630407,-0.04516788984797366
13494,3.0,300.60312999999996,4554.1389,0.0,0.0,0.0,0.1368445927134926,0.0,0.0,-0.3095790832555767,-0.5242393998709005,-0.5505260256251885,1.2037823580790687,0.33504230144860064,-0.12375149737832189
13495,3.0,301.22702000000004,4324.957,0.0,0.0,0.0,0.13685473385716487,0.0,0.0,-0.26917583684308677,-0.5187248976591615,-0.5267781993214605,1.1804002947964387,0.3194222709545237,-0.08547046986302861
13496,3.0,299.88608,4194.5331,0.0,0.0,0.0,0.13686487500083713,0.0,0.0,-0.2139436346870928,-0.49995354789657354,-0.5611361524573264,1.1803314951146489,0.2998578098086617,-0.15698716457092685
13497,3.0,299.1567,4152.6892,0.0,0.0,0.0,0.13687501614450942,0.0,0.0,-0.2341056803444318,-0.46099014000868455,-0.5672180139300594,1.1561789564559788,0.28830412421840174,-0.1084609656842639
13498,3.0,300.28488,4157.9347,0.0,0.0,0.0,0.13688515728818165,0.0,0.0,-0.2553710439031598,-0.4959199816334915,-0.5126172996338885,1.1916586179825488,0.33611156401412867,-0.16824229601922183
13499,3.0,299.53862999999996,4376.9249,0.0,0.0,0.0,0.1368952984318539,0.0,0.0,-0.3155962385769237,-0.4842943958161355,-0.5305852636571885,1.1555949190983388,0.3181103957850517,-0.11253497075883691
13500,3.0,299.45721000000003,4395.9339,0.0,0.0,0.0,0.13690543957552617,0.0,0.0,-0.2849862772959557,-0.5092459227086595,-0.5420219391259005,1.1595048485842188,0.3000235065975147,-0.15225050406345483
13501,3.0,300.5463,4358.3382,0.0,0.0,0.0,0.13691558071919846,0.0,0.0,-0.2553023151488768,-0.49986324704766155,-0.5696604330311075,1.146909643216169,0.2855926872158037,-0.09389399487336582
13502,3.0,300.53022000000004,4415.228,0.0,0.0,0.0,0.13692572186287072,0.0,0.0,-0.23296399066175577,-0.5415283748696895,-0.5676266982253935,1.2080152103718187,0.3213624321135027,-0.12869609707131588
13503,3.0,300.91917,4464.2476,0.0,0.0,0.0,0.13693586300654295,0.0,0.0,-0.2524611618684767,-0.5161224255723175,-0.5884362005641315,1.198911867498389,0.31348255833831973,-0.08259692905643222
13504,3.0,300.47853,4272.3766,0.0,0.0,0.0,0.1369460041502152,0.0,0.0,-0.26979251098644774,-0.5144493672721996,-0.5144539268976496,1.186784277051489,0.28927586146180473,-0.14126377243414887
13505,3.0,299.92775,4353.3003,0.0,0.0,0.0,0.1369561452938875,0.0,0.0,-0.3095543498206357,-0.46753298974691354,-0.5462072598564595,1.170831971452119,0.2859474666058177,-0.09773584915127731
13506,3.0,300.1791,4642.4363,0.0,0.0,0.0,0.13696628643755976,0.0,0.0,-0.3157581559429037,-0.5342172789056404,-0.5612092888495445,1.1615775529887788,0.3289538133202137,-0.16680438266981085
13507,3.0,301.08803,4414.9368,0.0,0.0,0.0,0.13697642758123202,0.0,0.0,-0.2871390588559187,-0.48565332632025154,-0.5692381509194314,1.162110826516409,0.3231650547039077,-0.1179663357998709
13508,3.0,300.40272999999996,4281.275,0.0,0.0,0.0,0.13698656872490425,0.0,0.0,-0.25021090564889376,-0.46455339610535057,-0.5866363948090044,1.1233415472151789,0.2964416269640107,-0.12622667485510286
13509,3.0,300.69964,4568.9211,0.0,0.0,0.0,0.13699670986857654,0.0,0.0,-0.2946997487171007,-0.4767655220080936,-0.6173726678474385,1.1588550512950888,0.29153766873252773,-0.07830311659791593
13510,3.0,301.01571,4672.6276,0.0,0.0,0.0,0.1370068510122488,0.0,0.0,-0.3275670285708487,-0.4873715857073306,-0.6054235006106474,1.1939447128581688,0.31442468841380067,-0.07814813999512094
13511,3.0,301.51146,4599.759,0.0,0.0,0.0,0.13701699215592106,0.0,0.0,-0.3228902916742907,-0.5124223199171455,-0.5628992582938315,1.189350434254749,0.3188486194104087,-0.09024146637663932
13512,3.0,300.36852000000005,4401.3086,0.0,0.0,0.0,0.13702713329959332,0.0,0.0,-0.27861658186731575,-0.48255972177743656,-0.5767115999470034,1.150752292895409,0.28667914463552874,-0.10734638044176291
13513,3.0,299.89333,4381.8654,0.0,0.0,0.0,0.13703727444326558,0.0,0.0,-0.25011663285958974,-0.5039753503259945,-0.5778857035003785,1.1606967346768489,0.29159173575786373,-0.0964735654814496
13514,3.0,300.07363,4302.6613,0.0,0.0,0.0,0.13704741558693784,0.0,0.0,-0.21991772687918978,-0.5071114303130014,-0.5808724506876475,1.177218790807449,0.3123550338920417,-0.11850258828279489
13515,3.0,300.96662000000003,4326.1946,0.0,0.0,0.0,0.1370575567306101,0.0,0.0,-0.24652058798968776,-0.4854475554899435,-0.5830869695762034,1.1960147828124688,0.3076705456322187,-0.11458923401157689
13516,3.0,299.68589,4121.6859,0.0,0.0,0.0,0.13706769787428236,0.0,0.0,-0.24373972309023775,-0.4760044698579835,-0.5331454021548545,1.1581766803531388,0.26622588076694875,-0.11339309226852688
13517,3.0,299.81301,3925.0443,0.0,0.0,0.0,0.13707783901795462,0.0,0.0,-0.25267344789692775,-0.4396200570521216,-0.5008219640272795,1.158299688915279,0.28344110129095873,-0.12734063188254188
13518,3.0,300.01852,4404.945,0.0,0.0,0.0,0.13708798016162688,0.0,0.0,-0.2903039151457657,-0.5128011133345295,-0.5358882499105525,1.156720741284449,0.3353095461624757,-0.14881086447898884
13519,3.0,299.39749,4651.8657,0.0,0.0,0.0,0.13709812130529914,0.0,0.0,-0.3045633128755587,-0.5207085475124326,-0.5887791553254784,1.187333762580719,0.3361278976057407,-0.12205948116883288
13520,3.0,300.0398,4345.7526,0.0,0.0,0.0,0.1371082624489714,0.0,0.0,-0.2516527504086927,-0.49327526714997855,-0.5760722593989054,1.1506156054569188,0.2992030678590437,-0.13354517767738286
13521,3.0,300.32396,4119.8552,0.0,0.0,0.0,0.13711840359264366,0.0,0.0,-0.23935946317293977,-0.4695433083428165,-0.5434303364998985,1.1715043642184788,0.27204775239652274,-0.08436674868809982
13522,3.0,300.58738999999997,4424.7419,0.0,0.0,0.0,0.13712854473631592,0.0,0.0,-0.26719351434744676,-0.5304119776250865,-0.5474055395572205,1.1891753446374689,0.29658207356037175,-0.09278972654338301
13523,3.0,301.12609,4680.43,0.0,0.0,0.0,0.13713868587998818,0.0,0.0,-0.3128545864563437,-0.5223114281106245,-0.5875678452284314,1.2067527007472187,0.28349218936100073,-0.08103676910895642
13524,3.0,300.78277,4521.2483,0.0,0.0,0.0,0.13714882702366044,0.0,0.0,-0.29016225264928475,-0.5140634405741115,-0.5701209045390525,1.1707018701392788,0.2888680282965547,-0.13007067215697588
13525,3.0,300.2743,4358.1923,0.0,0.0,0.0,0.1371589681673327,0.0,0.0,-0.23671349225930277,-0.5045872520613846,-0.5834808806850795,1.1722150578386188,0.28470900140609073,-0.11749316826817288
13526,3.0,300.21192,4316.6407,0.0,0.0,0.0,0.13716910931100496,0.0,0.0,-0.2534920627852188,-0.49004229005590855,-0.5686166537055944,1.179125220870599,0.3404455690643617,-0.1279142732941559
13527,3.0,299.32772,4544.0451,0.0,0.0,0.0,0.13717925045467724,0.0,0.0,-0.2927147411086957,-0.5267372437524185,-0.5618242708652385,1.1701280666076488,0.2975004631860097,-0.12313363773234388
13528,3.0,299.70682,4692.2856,0.0,0.0,0.0,0.13718939159834947,0.0,0.0,-0.35550709610331865,-0.49637233700813554,-0.5744582330496135,1.169253631771349,0.28005983504475374,-0.1029925562195739
13529,3.0,299.49352000000005,4510.9882,0.0,0.0,0.0,0.13719953274202176,0.0,0.0,-0.30947869043566867,-0.5172455423806606,-0.5445035507408165,1.1554795099119488,0.26505011548340973,-0.10675113653801689
13530,3.0,300.23456,4262.9604,0.0,0.0,0.0,0.137209673885694,0.0,0.0,-0.28057063468516574,-0.4909945728973915,-0.5242683180287545,1.1849615414465988,0.3316351871923447,-0.11135528419741089
13531,3.0,300.08415,4543.8814,0.0,0.0,0.0,0.13721981502936628,0.0,0.0,-0.25414633863979075,-0.5321920959307705,-0.5948880604433804,1.177593592019439,0.3236153025183437,-0.1064789775611569
13532,3.0,300.37739,4631.8899,0.0,0.0,0.0,0.13722995617303854,0.0,0.0,-0.29748633847961575,-0.5203922817587195,-0.5901002409383593,1.1759845508606388,0.3208137571843527,-0.11132913221232989
13533,3.0,299.89632,4478.8279999999995,0.0,0.0,0.0,0.1372400973167108,0.0,0.0,-0.2668561729916537,-0.5120932061521646,-0.5825024965210205,1.166216211946579,0.3004415533237727,-0.11069508082975389
13534,3.0,300.31915,4363.861,0.0,0.0,0.0,0.13725023846038303,0.0,0.0,-0.27177782256988275,-0.5332185081495694,-0.5215084476713765,1.180402118646619,0.3187533637685077,-0.11718424857768488
13535,3.0,299.20975,4219.1681,0.0,0.0,0.0,0.13726037960405532,0.0,0.0,-0.24269140440427678,-0.5086692111492425,-0.5311611443515235,1.1886081272314888,0.2879524859036977,-0.11791928046522689
13536,3.0,299.35798,4321.3837,0.0,0.0,0.0,0.13727052074772758,0.0,0.0,-0.24994523147267378,-0.5113088492497545,-0.5523386489940805,1.1679092515386689,0.27142477583753977,-0.13768200425815585
13537,3.0,299.43276000000003,4450.1338,0.0,0.0,0.0,0.13728066189139984,0.0,0.0,-0.25472982884237677,-0.5145250469221685,-0.5834746694619665,1.161040226460749,0.27034242208071974,-0.14003677722555385
13538,3.0,301.3538,4436.4455,0.0,0.0,0.0,0.1372908030350721,0.0,0.0,-0.28731622563590375,-0.4999395143826885,-0.5613129038047705,1.1564821208858989,0.35052987988960566,-0.11668849570125789
13539,3.0,301.25704,4300.2062,0.0,0.0,0.0,0.13730094417874436,0.0,0.0,-0.2944419778916607,-0.4892320243484415,-0.5234813064110825,1.1786871928523688,0.3464232380293117,-0.10345766841297689
13540,3.0,300.28693,4462.6993,0.0,0.0,0.0,0.13731108532241662,0.0,0.0,-0.3078310444480587,-0.5129256924343245,-0.5357924167160945,1.1624516838500487,0.3283812054237017,-0.09970650305876572
13541,3.0,300.46213,4800.3929,0.0,0.0,0.0,0.13732122646608888,0.0,0.0,-0.3277751096113847,-0.5222528115923395,-0.6091716444530604,1.1837918455311591,0.28113023245039376,-0.08983476501175101
13542,3.0,301.66051,4795.4889,0.0,0.0,0.0,0.13733136760976114,0.0,0.0,-0.3007115135479157,-0.5436508095891575,-0.6133465692375935,1.182468844875589,0.32054008846484366,-0.07820288488477384
13543,3.0,301.00057999999996,4429.3701,0.0,0.0,0.0,0.1373415087534334,0.0,0.0,-0.25580533302852076,-0.5060402932347885,-0.5845722726327914,1.1758237480697689,0.2908466524293297,-0.11128886565335591
13544,3.0,300.61231000000004,4272.3561,0.0,0.0,0.0,0.13735164989710566,0.0,0.0,-0.26072439881899473,-0.4721741109024566,-0.5657910538142296,1.1546526978303489,0.28215623936915274,-0.08415571301027222
13545,3.0,300.02041,4298.8047,0.0,0.0,0.0,0.13736179104077792,0.0,0.0,-0.28215070702360673,-0.48776082573324553,-0.5368177650222885,1.1465428466799688,0.2680951752139337,-0.12308537663008089
13546,3.0,299.81673,4396.0364,0.0,0.0,0.0,0.13737193218445018,0.0,0.0,-0.3001525136002467,-0.47292708744926953,-0.5632057056540755,1.194577284895599,0.3138904421660747,-0.08539598990117801
13547,3.0,300.08804,4406.5342,0.0,0.0,0.0,0.13738207332812247,0.0,0.0,-0.28812622789834474,-0.4977581895674085,-0.5535919481752715,1.2073427162804489,0.2949494642042457,-0.11992787653595989
13548,3.0,300.08526,4243.5986,0.0,0.0,0.0,0.1373922144717947,0.0,0.0,-0.24718762066301875,-0.4835417029793505,-0.5592186982330885,1.186873848360329,0.27858429971912974,-0.09201562879823551
13549,3.0,300.26052999999996,4292.9454,0.0,0.0,0.0,0.13740235561546696,0.0,0.0,-0.23118785442896475,-0.5007844737735795,-0.5729758785508164,1.177131245998809,0.27345950362835175,-0.15073781285666385
13550,3.0,299.39466,4643.6353,0.0,0.0,0.0,0.13741249675913922,0.0,0.0,-0.31270138304122375,-0.5318054295601095,-0.5670423771577254,1.1779956496591188,0.3251587863956737,-0.1067871677115729
13551,3.0,299.81906000000004,4712.1184,0.0,0.0,0.0,0.1374226379028115,0.0,0.0,-0.32723768175834467,-0.5439313785418475,-0.5611972717033584,1.181192048424579,0.3339742345181907,-0.13866545467271488
13552,3.0,299.56026,4238.4627,0.0,0.0,0.0,0.13743277904648377,0.0,0.0,-0.2827911114843097,-0.4909939750798325,-0.5146017600872396,1.1487981387525488,0.3255162002359477,-0.1109220488521539
13553,3.0,300.8991,4029.5807,0.0,0.0,0.0,0.137442920190156,0.0,0.0,-0.21917525773591376,-0.49014662441870555,-0.5155700117502986,1.159344248443369,0.2950834766624717,-0.14985545440458187
13554,3.0,300.95087,4455.9672,0.0,0.0,0.0,0.13745306133382826,0.0,0.0,-0.2447169724141848,-0.5073168465057746,-0.6024689646440575,1.1674803427713387,0.3201364400225067,-0.0903106227224645
13555,3.0,300.67068,4495.0362,0.0,0.0,0.0,0.13746320247750055,0.0,0.0,-0.22962656774737777,-0.5254416717770555,-0.6113105039566494,1.188444183365309,0.29992766327055576,-0.13893135176395688
13556,3.0,299.83187999999996,4337.0008,0.0,0.0,0.0,0.1374733436211728,0.0,0.0,-0.2698548056025957,-0.5097785578887265,-0.5387065746661994,1.1803615886426189,0.2769679023646037,-0.12965371974082587
13557,3.0,300.31633,4277.5016,0.0,0.0,0.0,0.13748348476484507,0.0,0.0,-0.27750395219750773,-0.4909601629239955,-0.5317895620635436,1.1883936221853189,0.28155157223947674,-0.12035418125053289
13558,3.0,299.51679,4401.2377,0.0,0.0,0.0,0.1374936259085173,0.0,0.0,-0.3220994803687437,-0.5088375829183595,-0.5069292986075266,1.197771049210799,0.31725110903774667,-0.1112734642518359
13559,3.0,299.12864,4504.2773,0.0,0.0,0.0,0.13750376705218958,0.0,0.0,-0.28892489189216675,-0.5162421309391315,-0.5640208146970205,1.205462732044909,0.3113589178512327,-0.1064004405459059
13560,3.0,298.88845,4605.6388,0.0,0.0,0.0,0.13751390819586184,0.0,0.0,-0.2900264062083777,-0.4975587920802295,-0.6124139839780545,1.1887741989228788,0.2964334500357037,-0.08811145761267382
13561,3.0,299.07183,4508.069,0.0,0.0,0.0,0.1375240493395341,0.0,0.0,-0.23848249521138978,-0.5225586307375215,-0.6092992633031554,1.1952691320638789,0.2865851656887537,-0.1082778713911939
13562,3.0,298.59533,4340.9351,0.0,0.0,0.0,0.1375341904832064,0.0,0.0,-0.29568683669951873,-0.46561694394031455,-0.5582321067432194,1.196105570021429,0.3227053228685357,-0.09307523205056022
13563,3.0,297.76948,4747.0594,0.0,0.0,0.0,0.13754433162687862,0.0,0.0,-0.3081700981965207,-0.5485470063248745,-0.5862704088728844,1.1812075511511089,0.3253626725807957,-0.12531411141753987
13564,3.0,299.22373,4825.6337,0.0,0.0,0.0,0.13755447277055088,0.0,0.0,-0.3639338310899726,-0.5299498849169815,-0.5729884529845575,1.141796681886559,0.3153857054711457,-0.1097496475589469
13565,3.0,299.90651,4227.999,0.0,0.0,0.0,0.13756461391422314,0.0,0.0,-0.2282577479222858,-0.5078914809024865,-0.5490568940401964,1.157515737312909,0.3045088709476857,-0.14681344455685885
13566,3.0,300.19077000000004,3796.5694,0.0,0.0,0.0,0.13757475505789543,0.0,0.0,-0.18120988093152282,-0.4519637332153476,-0.5208886932477115,1.1810549556860488,0.3402297974555667,-0.1194565429869429
13567,3.0,300.17177000000004,4209.3156,0.0,0.0,0.0,0.1375848962015677,0.0,0.0,-0.21241729500145481,-0.49924365474401255,-0.5678658759114985,1.1657780826033388,0.31182279387951367,-0.12866413916316188
13568,3.0,300.47929,4526.5107,0.0,0.0,0.0,0.13759503734523992,0.0,0.0,-0.3063521957946077,-0.5101004978429995,-0.5594935423227134,1.1715359776215988,0.27970450849968576,-0.13174534152475287
13569,3.0,300.87113,4412.7883,0.0,0.0,0.0,0.13760517848891218,0.0,0.0,-0.2828216001798188,-0.5163234543921575,-0.5422323911716704,1.1657070537713288,0.2901770866307487,-0.15630529791613185
13570,3.0,300.22425,4331.375,0.0,0.0,0.0,0.13761531963258447,0.0,0.0,-0.2817296509445517,-0.5008101090011096,-0.5340900856205875,1.2184996131315489,0.3199741376214887,-0.11967732005123188
13571,3.0,298.82857,4473.2303,0.0,0.0,0.0,0.13762546077625673,0.0,0.0,-0.26214869408706176,-0.5131216144736606,-0.5844799959461844,1.207924524487869,0.31953896696854067,-0.10197658047680491
13572,3.0,299.53666,4746.6198,0.0,0.0,0.0,0.137635601919929,0.0,0.0,-0.28154618174894475,-0.5161439166069385,-0.6451638078802103,1.1778845974481589,0.3080482447394947,-0.09136841732336072
13573,3.0,299.21693,4677.7164,0.0,0.0,0.0,0.13764574306360122,0.0,0.0,-0.2947847401354887,-0.49123831020894654,-0.6358859428095565,1.160897662171679,0.28402997185157575,-0.0858948240711591
13574,3.0,298.94259,4301.7011,0.0,0.0,0.0,0.1376558842072735,0.0,0.0,-0.27210101895427974,-0.48014514678913656,-0.5553635551801155,1.190885710806269,0.3127907213025407,-0.07880710821090602
13575,3.0,298.70044,4025.6445,0.0,0.0,0.0,0.13766602535094577,0.0,0.0,-0.2674198845522877,-0.44483040184884254,-0.5114451415207055,1.1629759394517887,0.3109066840666007,-0.09101629366185882
13576,3.0,299.77869,4547.37,0.0,0.0,0.0,0.13767616649461803,0.0,0.0,-0.3148259658509037,-0.5164008160372925,-0.5510601401504015,1.140932784851299,0.2821115449072417,-0.09382621958742692
13577,3.0,300.37958,4724.8507,0.0,0.0,0.0,0.1376863076382903,0.0,0.0,-0.31529852543254167,-0.5148619221829155,-0.6060761856625624,1.132565162875479,0.30039018154370273,-0.11624616137010288
13578,3.0,301.25192999999996,4314.184,0.0,0.0,0.0,0.13769644878196252,0.0,0.0,-0.2357742195491038,-0.48886749749246555,-0.5867625039164505,1.1982302541561187,0.3157927179038147,-0.10315155542526591
13579,3.0,299.92819,4170.1551,0.0,0.0,0.0,0.1377065899256348,0.0,0.0,-0.2347993007003868,-0.5032823379200996,-0.5295413627416635,1.2084252726872888,0.32283554577138773,-0.15077796795812684
13580,3.0,299.91472000000005,4675.7486,0.0,0.0,0.0,0.13771673106930707,0.0,0.0,-0.32973605252991467,-0.5052897991507206,-0.5862849794093224,1.1863012607288188,0.2896570258844227,-0.1036712412690549
13581,3.0,299.56327999999996,4657.0944,0.0,0.0,0.0,0.13772687221297933,0.0,0.0,-0.3207172755098307,-0.5305591218046085,-0.5643640227708924,1.1974012129242988,0.27975737988990373,-0.15951689543309183
13582,3.0,299.80301000000003,4333.6997,0.0,0.0,0.0,0.13773701335665162,0.0,0.0,-0.2757953490838817,-0.4916838565429186,-0.5498572704266875,1.1909487349624888,0.2972142909602667,-0.07491266726605463
13583,3.0,300.19124,4152.5279,0.0,0.0,0.0,0.13774715450032385,0.0,0.0,-0.19635324818105682,-0.4832294091660295,-0.5826821254987484,1.1911931308866088,0.3210762497552587,-0.12329922306368589
13584,3.0,299.95664,4217.2406,0.0,0.0,0.0,0.1377572956439961,0.0,0.0,-0.2165975494815138,-0.5130001460516725,-0.5523381423690306,1.148103049183949,0.2788101329014177,-0.0986233397151158
13585,3.0,300.32545,4390.1896,0.0,0.0,0.0,0.13776743678766837,0.0,0.0,-0.27298247561377276,-0.4860853457653885,-0.5754402041190264,1.1325402369230189,0.3028610932375627,-0.14000509289492688
13586,3.0,300.53949,4724.7843,0.0,0.0,0.0,0.13777757793134066,0.0,0.0,-0.3281246302333797,-0.5572849813447455,-0.5508068478904035,1.146810750006409,0.30122983150406973,-0.13097076248580786
13587,3.0,299.98907,4374.4429,0.0,0.0,0.0,0.13778771907501292,0.0,0.0,-0.3008158175132097,-0.5005933950697216,-0.5283121890453535,1.1722603501180888,0.31906456327172067,-0.12748212212650586
13588,3.0,300.55523999999997,4135.6559,0.0,0.0,0.0,0.13779786021868515,0.0,0.0,-0.26457003758602976,-0.47951994107993356,-0.5130461374737114,1.176851487646199,0.27602365459641376,-0.13823062852480086
13589,3.0,301.58765,4484.5201,0.0,0.0,0.0,0.1378080013623574,0.0,0.0,-0.25241151261357675,-0.5109513948794765,-0.5998192447050504,1.185309694180959,0.2916084949145177,-0.1067547031783689
13590,3.0,300.74886000000004,4722.7021,0.0,0.0,0.0,0.1378181425060297,0.0,0.0,-0.3039968047446487,-0.49805076553378347,-0.6335359422501294,1.193708726909879,0.30632319657674567,-0.08114763589514812
13591,3.0,300.32992,4654.2845,0.0,0.0,0.0,0.13782828364970195,0.0,0.0,-0.29903381456233974,-0.5129527158144915,-0.6027997300067014,1.2015152109803189,0.3309404826587827,-0.06066207366638054
13592,3.0,300.1199,4576.0584,0.0,0.0,0.0,0.13783842479337421,0.0,0.0,-0.31769588530164267,-0.5247312416019415,-0.5485803422531644,1.1604885117812989,0.3176152508586847,-0.11228400897406889
13593,3.0,299.6011,4587.2377,0.0,0.0,0.0,0.13784856593704645,0.0,0.0,-0.31812618222160965,-0.5063558902434355,-0.5699236652745865,1.171787466296419,0.3222303314866577,-0.07247539040926414
13594,3.0,300.00268,4647.6990000000005,0.0,0.0,0.0,0.13785870708071873,0.0,0.0,-0.2944889926963007,-0.5478874311722794,-0.5704080393523905,1.1655715822329589,0.3149801521186207,-0.11196333558242089
13595,3.0,300.47716,4630.8043,0.0,0.0,0.0,0.137868848224391,0.0,0.0,-0.2368004291178828,-0.5461143144247864,-0.6247341426064594,1.1667125018455589,0.3238877148077287,-0.1024217215107369
13596,3.0,299.84422,4328.0822,0.0,0.0,0.0,0.13787898936806325,0.0,0.0,-0.23511374260391982,-0.5136560025764004,-0.5668591815396455,1.1747459539383989,0.27661267714454574,-0.13622307610167086
13597,3.0,300.46903,4027.1877,0.0,0.0,0.0,0.13788913051173554,0.0,0.0,-0.2017595960771218,-0.5054844546274315,-0.5169204613510775,1.186812040104229,0.3207336597639477,-0.13912333226040388
13598,3.0,300.68385,3925.6127,0.0,0.0,0.0,0.13789927165540777,0.0,0.0,-0.2556839456665408,-0.45634955587569453,-0.4812547265761436,1.208357283605579,0.3318022012063277,-0.14752838369491786
13599,3.0,300.61552,4437.1572,0.0,0.0,0.0,0.13790941279908003,0.0,0.0,-0.29319230614582775,-0.5297961951418135,-0.5257964916970735,1.193627869551899,0.31627718317412773,-0.13016727542150988
13600,3.0,300.01361,4406.089,0.0,0.0,0.0,0.1379195539427523,0.0,0.0,-0.28388894770265777,-0.4847214199382795,-0.5707306885817334,1.1693840370592188,0.3080235822320607,-0.1291939372429489
13601,3.0,299.74232,4349.2208,0.0,0.0,0.0,0.13792969508642455,0.0,0.0,-0.2081367186289948,-0.49980356661677156,-0.6141142176458544,1.1695727042278388,0.3112123309592657,-0.08077601223547172
13602,3.0,299.34189,4654.8501,0.0,0.0,0.0,0.13793983623009684,0.0,0.0,-0.2721504250291557,-0.5438743832237225,-0.5989333905401234,1.2115278444934887,0.33338378328741763,-0.0989406450634314
13603,3.0,299.97758,5014.0352,0.0,0.0,0.0,0.13794997737376907,0.0,0.0,-0.3137329527030317,-0.5590201518759935,-0.6513883754970273,1.154595550524709,0.33442349948002964,-0.06814781645741584
13604,3.0,299.94426,4811.7091,0.0,0.0,0.0,0.13796011851744133,0.0,0.0,-0.3360389342469607,-0.5568206392214184,-0.5697798648203944,1.180538806085109,0.2954341625220817,-0.12870829660251987
13605,3.0,300.5529,4450.4599,0.0,0.0,0.0,0.1379702596611136,0.0,0.0,-0.3063579307901737,-0.5044358015689375,-0.5420349492571844,1.1443344680870189,0.3153974490398047,-0.1021551759394309
13606,3.0,300.86544,4195.5904,0.0,0.0,0.0,0.13798040080478588,0.0,0.0,-0.24571285540747076,-0.47522577702363256,-0.5544160751441065,1.206088920606709,0.31590161189206173,-0.11140996930530789
13607,3.0,300.58768,4140.6929,0.0,0.0,0.0,0.13799054194845814,0.0,0.0,-0.2136441787525388,-0.47388001877081654,-0.5711430408424295,1.1612258538790687,0.2858402748777387,-0.12426853863934988
13608,3.0,299.8369,4465.8302,0.0,0.0,0.0,0.13800068309213037,0.0,0.0,-0.27405571011969276,-0.49671357937681354,-0.5867315795233984,1.1652476461759886,0.27416253707773575,-0.1287349754776529
13609,3.0,300.54256000000004,4534.8719,0.0,0.0,0.0,0.13801082423580263,0.0,0.0,-0.3027085484350077,-0.5028078430307705,-0.5729714303828775,1.183164137094209,0.3202700167831897,-0.11738779025777288
13610,3.0,299.37346,4462.5182,0.0,0.0,0.0,0.13802096537947492,0.0,0.0,-0.31873605745679967,-0.5179678275819445,-0.5197902288143015,1.2026622100935187,0.3367826192903567,-0.1021485898137809
13611,3.0,299.68382,4659.192,0.0,0.0,0.0,0.13803110652314718,0.0,0.0,-0.3076092642661707,-0.5388492605452815,-0.5698194930318055,1.190213014064879,0.3326224778247827,-0.1135778888217649
13612,3.0,300.91792999999996,4868.5282,0.0,0.0,0.0,0.13804124766681944,0.0,0.0,-0.3052072535791107,-0.5433031330823445,-0.6314006189893895,1.1785379411126389,0.2891391436258117,-0.08344974924159901
13613,3.0,300.53857999999997,4635.3871,0.0,0.0,0.0,0.13805138881049167,0.0,0.0,-0.2408933211743198,-0.5377602598678055,-0.6303883416094854,1.1824643865751487,0.30330706513657674,-0.1170924785161279
13614,3.0,300.49124,4276.4665,0.0,0.0,0.0,0.13806152995416396,0.0,0.0,-0.2188131322826748,-0.5048633627136345,-0.5762625477676855,1.189025687597699,0.2768042928709567,-0.1002024646647133
13615,3.0,301.53295,4213.4792,0.0,0.0,0.0,0.13807167109783622,0.0,0.0,-0.2260942765737678,-0.4996495120715675,-0.5550486877115405,1.164592073361289,0.2751250334802267,-0.15246237465936485
13616,3.0,299.44763,4311.8676,0.0,0.0,0.0,0.13808181224150848,0.0,0.0,-0.2964958054468577,-0.4998269625615805,-0.5143773251900895,1.1601098602189288,0.27737142921692876,-0.11618466722153388
13617,3.0,299.43636000000004,4296.6776,0.0,0.0,0.0,0.13809195338518074,0.0,0.0,-0.2746156219924517,-0.4985703804500655,-0.5328967100503105,1.178900684648439,0.3300392169598347,-0.13793946097606488
13618,3.0,299.93008,4271.7252,0.0,0.0,0.0,0.138102094528853,0.0,0.0,-0.2654347249563678,-0.4897730188418335,-0.5432900621560545,1.1692994306758688,0.3474829456463967,-0.11285461063538288
13619,3.0,299.33112,4255.8695,0.0,0.0,0.0,0.13811223567252526,0.0,0.0,-0.24913667815787577,-0.4828627240873405,-0.5616786566933675,1.1690178484730789,0.2989301894746127,-0.10849076536970488
13620,3.0,299.44006,4485.7207,0.0,0.0,0.0,0.13812237681619752,0.0,0.0,-0.26689619637060374,-0.5238566142481225,-0.5727942737353934,1.1835573794580188,0.2769429561471417,-0.12945118117833687
13621,3.0,300.60037,4837.4167,0.0,0.0,0.0,0.1381325179598698,0.0,0.0,-0.3256495946116127,-0.5312146034267995,-0.6135896985990884,1.2204273214467989,0.2980789074030977,-0.1086301885834649
13622,3.0,299.68656,4767.963,0.0,0.0,0.0,0.13814265910354204,0.0,0.0,-0.3437732546452787,-0.5280288539198905,-0.5775395772662184,1.1998850942194388,0.2866455857922167,-0.10754101565347189
13623,3.0,299.76581,4406.1611,0.0,0.0,0.0,0.1381528002472143,0.0,0.0,-0.27151771113671175,-0.5025617448464825,-0.5652835067066384,1.1724893446406888,0.2958905911621277,-0.1024962967180969
13624,3.0,300.08941,4272.7053,0.0,0.0,0.0,0.13816294139088656,0.0,0.0,-0.23571675813593276,-0.49005099387426754,-0.5730279697384575,1.1534290970095888,0.2957221180680007,-0.1161492034680339
13625,3.0,300.37296000000003,4464.6839,0.0,0.0,0.0,0.13817308253455884,0.0,0.0,-0.2398440297682628,-0.5065585402634355,-0.6107498524113174,1.195524268439059,0.33512048382631665,-0.06081136492286444
13626,3.0,300.26931,4468.8868,0.0,0.0,0.0,0.13818322367823108,0.0,0.0,-0.26370891685604375,-0.5250038869388495,-0.5697172155667114,1.165438035869779,0.32825805500654764,-0.13508869195221587
13627,3.0,299.86391000000003,4266.5726,0.0,0.0,0.0,0.13819336482190336,0.0,0.0,-0.26779152442396575,-0.49008925419804356,-0.5390507554601676,1.157377631324279,0.31168058422797873,-0.10688959716418191
13628,3.0,300.83311000000003,4168.374,0.0,0.0,0.0,0.1382035059655756,0.0,0.0,-0.28763209622207775,-0.5073175456483435,-0.4721319698307976,1.142473228978329,0.3098748408272657,-0.16057094911461886
13629,3.0,301.20406,4364.9629,0.0,0.0,0.0,0.13821364710924788,0.0,0.0,-0.25135800608710374,-0.5151299876293716,-0.5603517448924115,1.1838804035898989,0.3301951561502247,-0.12075474941256588
13630,3.0,300.27251,4500.2718,0.0,0.0,0.0,0.13822378825292014,0.0,0.0,-0.26876623049016174,-0.5274913044768385,-0.5717127103136515,1.195282101665159,0.3200611454075757,-0.14183582304310588
13631,3.0,299.27111,4607.0279,0.0,0.0,0.0,0.1382339293965924,0.0,0.0,-0.25025097969034876,-0.5355697246091164,-0.6146007398138704,1.1617049185263488,0.28818211877386074,-0.10380091701685291
13632,3.0,299.04365,4437.4339,0.0,0.0,0.0,0.13824407054026466,0.0,0.0,-0.25988057426821576,-0.5082868916215105,-0.5807016471182904,1.198797268912079,0.30643228308251175,-0.12666714480607388
13633,3.0,299.46772000000004,4388.182,0.0,0.0,0.0,0.13825421168393692,0.0,0.0,-0.25649230646381976,-0.5297391187636805,-0.5476663400004594,1.2284757696411188,0.3164771886113667,-0.10430944697704089
13634,3.0,299.4721,4455.9978,0.0,0.0,0.0,0.13826435282760918,0.0,0.0,-0.3171943366346437,-0.5073938129833705,-0.5299239254494195,1.2487034840374387,0.3268490699474917,-0.10453161219396691
13635,3.0,299.59121,4609.6099,0.0,0.0,0.0,0.13827449397128144,0.0,0.0,-0.2792628429135967,-0.5130197119111035,-0.6089237629485964,1.181521152057059,0.28600627564162173,-0.09787440502295171
13636,3.0,298.79737,4383.1562,0.0,0.0,0.0,0.1382846351149537,0.0,0.0,-0.27342326980477577,-0.5009656327589586,-0.5579811348259505,1.143842839138499,0.2993215370607357,-0.12825047980983686
13637,3.0,299.68372,4398.2038,0.0,0.0,0.0,0.13829477625862596,0.0,0.0,-0.25615974764849875,-0.49356921100398854,-0.5872151936636274,1.153595067375969,0.3123803752770427,-0.09294804484500781
13638,3.0,300.55776000000003,4579.6171,0.0,0.0,0.0,0.13830491740229822,0.0,0.0,-0.2943717495272297,-0.5366384197545885,-0.5610790862116944,1.157961770006929,0.3414882540797667,-0.13432881517222187
13639,3.0,301.27319,4520.0278,0.0,0.0,0.0,0.13831505854597048,0.0,0.0,-0.3151209837500197,-0.49571536590829757,-0.5631392465800165,1.151474740216709,0.28386040444734073,-0.1139698646229499
13640,3.0,299.81239,4424.469,0.0,0.0,0.0,0.13832519968964274,0.0,0.0,-0.3147695886153397,-0.4994120569106325,-0.5307464616155975,1.153456657412309,0.2897346915045877,-0.13134264553750988
13641,3.0,300.28865,4492.1179,0.0,0.0,0.0,0.138335340833315,0.0,0.0,-0.27081889280774374,-0.5145226860494355,-0.5801500945588565,1.1730126883173388,0.3229587063210427,-0.12040136830768988
13642,3.0,299.43113,4517.6709,0.0,0.0,0.0,0.13834548197698726,0.0,0.0,-0.27036912122085477,-0.5018594409371705,-0.6010305649345984,1.2053444857582387,0.3181179951608017,-0.10167845189988191
13643,3.0,299.95339,4311.3937,0.0,0.0,0.0,0.13835562312065952,0.0,0.0,-0.22019726231677778,-0.5084878495138435,-0.5818709174686885,1.198285577611579,0.29880333056209274,-0.12146805721796387
13644,3.0,300.11877000000004,4436.0542,0.0,0.0,0.0,0.13836576426433178,0.0,0.0,-0.28430932490414573,-0.5088494987395354,-0.5552908950154445,1.1804747686787889,0.2904186353220877,-0.1120894649548689
13645,3.0,299.31491,4458.4271,0.0,0.0,0.0,0.13837590540800404,0.0,0.0,-0.31315221854071773,-0.4913355822185465,-0.5507627309810494,1.1913746039795188,0.30038846915103373,-0.12245917793577989
13646,3.0,298.4691,4352.7474,0.0,0.0,0.0,0.1383860465516763,0.0,0.0,-0.2910095019854017,-0.5083866055638515,-0.5237304038156665,1.1735429220946687,0.2792825607605427,-0.1272573832543259
13647,3.0,299.77515,4481.1434,0.0,0.0,0.0,0.1383961876953486,0.0,0.0,-0.2538647361719988,-0.4970064998482225,-0.6112844532965784,1.1591861814277689,0.24407501768082876,-0.12954275872237486
13648,3.0,300.37116000000003,4577.5662,0.0,0.0,0.0,0.13840632883902082,0.0,0.0,-0.27997770099164776,-0.5025054790684295,-0.6089826631769094,1.1610788312895588,0.27422563216146273,-0.10051238645955021
13649,3.0,299.89307,4378.2995,0.0,0.0,0.0,0.13841646998269308,0.0,0.0,-0.22939154438668277,-0.5185896085058095,-0.5829125689689915,1.169981651968199,0.3282696161901887,-0.1138266214563129
13650,3.0,299.22539,4401.782,0.0,0.0,0.0,0.13842661112636537,0.0,0.0,-0.29151199297499375,-0.4738829267986035,-0.5726368855973605,1.179262516259149,0.3426426499186967,-0.07873125124216952
13651,3.0,298.88882,4544.0788,0.0,0.0,0.0,0.13843675227003763,0.0,0.0,-0.32241505711238866,-0.5271782304609405,-0.5316932019790335,1.1675771081558888,0.3287064789708037,-0.11558862285020889
13652,3.0,300.20485,4615.0838,0.0,0.0,0.0,0.1384468934137099,0.0,0.0,-0.29868519573293373,-0.5156966680127986,-0.5884883626792795,1.172814395272769,0.3166433818927687,-0.0904214925484065
13653,3.0,300.70822999999996,4535.6177,0.0,0.0,0.0,0.13845703455738212,0.0,0.0,-0.26909704651531074,-0.5048128319311476,-0.6048046479795715,1.1866827493914687,0.2957347431642467,-0.13433795468812387
13654,3.0,299.91854,4511.1576,0.0,0.0,0.0,0.13846717570105438,0.0,0.0,-0.26037242613175776,-0.5345847847169105,-0.5763220458135575,1.1772661095871189,0.2864809934459727,-0.12292587079933888
13655,3.0,299.9609,4416.3577,0.0,0.0,0.0,0.13847731684472667,0.0,0.0,-0.2577187139873568,-0.4985401349345805,-0.5862036052937915,1.199936060699469,0.26284371272815477,-0.1221181787471259
13656,3.0,300.22415,4515.6715,0.0,0.0,0.0,0.13848745798839893,0.0,0.0,-0.2973482730209897,-0.5413666601537296,-0.5339364363754235,1.180945524675249,0.2941436770622207,-0.12601097417381488
13657,3.0,300.88409,4515.4658,0.0,0.0,0.0,0.1384975991320712,0.0,0.0,-0.2963042809129557,-0.5371776005303015,-0.5391069705757155,1.205110323660129,0.31585696809265573,-0.13355765078611387
13658,3.0,301.60938,4451.0693,0.0,0.0,0.0,0.13850774027574342,0.0,0.0,-0.27554867334703675,-0.5162881324936714,-0.5611771181588694,1.1859506761942187,0.32383530951255673,-0.11077654613779388
13659,3.0,301.00536,4380.0757,0.0,0.0,0.0,0.1385178814194157,0.0,0.0,-0.2223342979701868,-0.5432871541282674,-0.5658121902113155,1.1820762104618388,0.30458050772975576,-0.12821583678891788
13660,3.0,300.50784,4512.2027,0.0,0.0,0.0,0.13852802256308797,0.0,0.0,-0.25677074759129975,-0.5188678469832695,-0.5959583565240104,1.1767865383147889,0.3085477770387947,-0.10950663978746389
13661,3.0,300.31874,4740.1509,0.0,0.0,0.0,0.13853816370676023,0.0,0.0,-0.2835826016674237,-0.5435235656415994,-0.6137813345905014,1.1860571687797288,0.3270659561313967,-0.10539541803671791
13662,3.0,299.92826,4430.3736,0.0,0.0,0.0,0.13854830485043249,0.0,0.0,-0.3156194318717127,-0.5057551443916466,-0.5253483615753465,1.1668129149304687,0.33182510065858767,-0.1185772141526599
13663,3.0,299.47863,4455.0378,0.0,0.0,0.0,0.13855844599410475,0.0,0.0,-0.2768993559953387,-0.5220112831660025,-0.5553096198772924,1.1534121757329188,0.3139114164431447,-0.12365654571145088
13664,3.0,299.8164,4670.4134,0.0,0.0,0.0,0.138568587137777,0.0,0.0,-0.29340360932168175,-0.5517050029115445,-0.5745804411441744,1.184117605438309,0.3097742250923357,-0.12895465823183386
13665,3.0,299.77833,4651.3566,0.0,0.0,0.0,0.13857872828144926,0.0,0.0,-0.25867245590898374,-0.5391621420436605,-0.6160616742055535,1.214008990013359,0.3130191990675897,-0.10946692038354389
13666,3.0,299.68404,4440.6299,0.0,0.0,0.0,0.13858886942512152,0.0,0.0,-0.25757976700114377,-0.5015415337182956,-0.5907193164844575,1.2252070248185187,0.2953881609675417,-0.10455129964340991
13667,3.0,300.25158999999996,4397.9539,0.0,0.0,0.0,0.1385990105687938,0.0,0.0,-0.2517439327851918,-0.5159444684572545,-0.5691797674486694,1.188203435141549,0.27824810333594974,-0.11578605463219388
13668,3.0,300.91727000000003,4406.668,0.0,0.0,0.0,0.13860915171246604,0.0,0.0,-0.3050921078377467,-0.5031203901566165,-0.5313045293731745,1.1824904271027188,0.27353573043337476,-0.0966399766116231
13669,3.0,300.95554,4594.0627,0.0,0.0,0.0,0.1386192928561383,0.0,0.0,-0.30003368976101974,-0.5301143556732135,-0.5663323016201465,1.1719401630864887,0.3129148140422877,-0.12189292311739487
13670,3.0,301.06665,4800.686,0.0,0.0,0.0,0.13862943399981056,0.0,0.0,-0.3188448703850387,-0.5403983476956645,-0.6000454629223764,1.2024816489256989,0.3231979751996567,-0.0996674361879101
13671,3.0,301.38136000000003,4618.891,0.0,0.0,0.0,0.13863957514348285,0.0,0.0,-0.27117361140275176,-0.5188381790203415,-0.6140157297361345,1.1694177782875488,0.32427086520054266,-0.1068266540679699
13672,3.0,301.0388,4461.5525,0.0,0.0,0.0,0.1386497162871551,0.0,0.0,-0.2361895203675908,-0.5462539098910635,-0.5737571247754194,1.168262166548499,0.3084301184371827,-0.13096912102064587
13673,3.0,299.93125,4445.0893,0.0,0.0,0.0,0.13865985743082734,0.0,0.0,-0.27138431676104674,-0.5253102735040875,-0.5545015731875444,1.184303536831659,0.3048089449648007,-0.11948049621930687
13674,3.0,300.04356,4525.7515,0.0,0.0,0.0,0.1386699985744996,0.0,0.0,-0.3001465151596547,-0.5221103587607805,-0.5534585841971094,1.190594097427489,0.3058396229665207,-0.12104092163830887
13675,3.0,299.34634,4433.6588,0.0,0.0,0.0,0.1386801397181719,0.0,0.0,-0.2567246649767518,-0.5567512721195724,-0.5342456499084405,1.178590832767859,0.2859458859356617,-0.15625595263626185
13676,3.0,300.61505,4351.2474,0.0,0.0,0.0,0.13869028086184415,0.0,0.0,-0.24938668748754977,-0.5106792257701155,-0.5626046254297535,1.1695294384485688,0.2976731412680517,-0.12494244114835888
13677,3.0,299.77047000000005,4274.681,0.0,0.0,0.0,0.1387004220055164,0.0,0.0,-0.22796213220561076,-0.5164878846183855,-0.5549462683914325,1.1679612312687988,0.3247055393609417,-0.11884709331679488
13678,3.0,299.96404,4324.6192,0.0,0.0,0.0,0.13871056314918864,0.0,0.0,-0.25907361175607474,-0.4875611141385356,-0.5679415150314634,1.1904595378142089,0.30545726290878467,-0.09075107139518342
13679,3.0,298.75547,4589.4494,0.0,0.0,0.0,0.13872070429286093,0.0,0.0,-0.3218971849862787,-0.5049522247474045,-0.5682286194472985,1.179638432046249,0.3000813733107257,-0.12113344150493988
13680,3.0,299.98942999999997,4625.924,0.0,0.0,0.0,0.1387308454365332,0.0,0.0,-0.32699614319950665,-0.5199289224879895,-0.5592403007252205,1.190872943855009,0.28079190824200373,-0.1038401905907289
13681,3.0,300.1974,4486.4574,0.0,0.0,0.0,0.13874098658020545,0.0,0.0,-0.27910008455003377,-0.5303510002340684,-0.5543199481071194,1.199380596994649,0.32520623689785666,-0.1345383958229059
13682,3.0,300.14104,4532.4469,0.0,0.0,0.0,0.13875112772387774,0.0,0.0,-0.25849351594132375,-0.5126674352488365,-0.6065897312107454,1.196241244209819,0.30523865419970964,-0.10412886554421891
13683,3.0,300.44167999999996,4612.7807,0.0,0.0,0.0,0.13876126886754997,0.0,0.0,-0.28365587991465574,-0.5115041633390306,-0.6070101084122335,1.179366678369429,0.3163003663364157,-0.12010005812545288
13684,3.0,300.6535,4541.3083,0.0,0.0,0.0,0.13877141001122223,0.0,0.0,-0.25030443876562475,-0.5113996567237165,-0.6187402312424064,1.1615390494849789,0.3062827881627577,-0.08759366148032133
13685,3.0,301.3728,4312.5816,0.0,0.0,0.0,0.1387815511548945,0.0,0.0,-0.3020098212985487,-0.4971363377160365,-0.5117709622228614,1.2002113607516387,0.3336458806907847,-0.11533138904732189
13686,3.0,300.15308,4322.9801,0.0,0.0,0.0,0.13879169229856678,0.0,0.0,-0.27262090744808876,-0.4998387567927446,-0.5416183514785695,1.167865580459359,0.3085815081346237,-0.10445439240384591
13687,3.0,300.36818,4431.5875,0.0,0.0,0.0,0.13880183344223904,0.0,0.0,-0.3011716912133317,-0.5090964480539075,-0.5368237938603835,1.1789914718573988,0.29937242248075774,-0.12441238975604689
13688,3.0,299.63907,4536.2645,0.0,0.0,0.0,0.13881197458591127,0.0,0.0,-0.24824139063451775,-0.5396544701347495,-0.5910152564411645,1.1778945272991388,0.2868175039366837,-0.1287287135920349
13689,3.0,299.626,4534.1649,0.0,0.0,0.0,0.13882211572958353,0.0,0.0,-0.26380897530341874,-0.5163285003776554,-0.5981354256888705,1.2021963176975388,0.3451643355750677,-0.11746525322791788
13690,3.0,299.61126,4491.1851,0.0,0.0,0.0,0.13883225687325582,0.0,0.0,-0.2693346941937647,-0.5104522273502126,-0.5854212140965754,1.1876114944331289,0.3131406168270727,-0.11808325472890989
13691,3.0,300.3264,4575.9043,0.0,0.0,0.0,0.13884239801692808,0.0,0.0,-0.3217359971603707,-0.5085334660333455,-0.5606911735434105,1.181123958017859,0.3064192425537247,-0.1158506999885739
13692,3.0,299.70482000000004,4723.7635,0.0,0.0,0.0,0.13885253916060034,0.0,0.0,-0.3202002747788067,-0.5240444606841614,-0.5916614060299344,1.178583537367139,0.30181695927451474,-0.11736412073543688
13693,3.0,299.92929,4705.1043,0.0,0.0,0.0,0.13886268030427257,0.0,0.0,-0.29065524948543975,-0.5376215357966145,-0.6019574557285755,1.1940381345173887,0.3194455858393247,-0.1179499819432569
13694,3.0,300.75237999999996,4365.3581,0.0,0.0,0.0,0.13887282144794486,0.0,0.0,-0.24228835377949878,-0.5007846358935955,-0.5838868798676484,1.1851904346441888,0.29805023242526774,-0.11804651428028388
13695,3.0,300.51052999999996,4235.6495,0.0,0.0,0.0,0.13888296259161712,0.0,0.0,-0.22117598085336979,-0.4864057962420146,-0.5799499067365994,1.1646568200426788,0.29841306715357674,-0.13682817892888985
13696,3.0,300.79837000000003,4406.3957,0.0,0.0,0.0,0.13889310373528937,0.0,0.0,-0.2818215628611227,-0.4893432994744235,-0.5682693926313225,1.1963595918214989,0.3076932930969637,-0.11629679347759989
13697,3.0,300.33684,4351.6929,0.0,0.0,0.0,0.13890324487896163,0.0,0.0,-0.28213191123425174,-0.5262044565848365,-0.5144696018766965,1.2053268552064988,0.3600315516423477,-0.12504838657881487
13698,3.0,299.73318,4311.8473,0.0,0.0,0.0,0.1389133860226339,0.0,0.0,-0.27770508234235775,-0.49333390393326554,-0.5396549159647935,1.2272781080229187,0.2999843850111537,-0.11559230094807188
13699,3.0,299.7033,4651.0299,0.0,0.0,0.0,0.13892352716630615,0.0,0.0,-0.3062901747559867,-0.5205833908600805,-0.5869234080323305,1.1904112057844387,0.28417743013862873,-0.10981975433336591
13700,3.0,298.72848999999997,4672.3094,0.0,0.0,0.0,0.13893366830997841,0.0,0.0,-0.2870579887154177,-0.5128917080259705,-0.6203157034253933,1.1881012995314688,0.28107604383504575,-0.1145357040087939
13701,3.0,299.23057,4665.6387,0.0,0.0,0.0,0.13894380945365067,0.0,0.0,-0.2775808477475967,-0.5174012991860325,-0.6232555168680304,1.1821854388226187,0.33216267506190367,-0.10164832797440891
13702,3.0,299.38636,4804.8271,0.0,0.0,0.0,0.13895395059732296,0.0,0.0,-0.3180227293863997,-0.5214772294357956,-0.6210475131776174,1.169005689471879,0.3167109454094367,-0.08959381717772132
13703,3.0,299.35305,4636.5482,0.0,0.0,0.0,0.1389640917409952,0.0,0.0,-0.3296156581530327,-0.5013853412153805,-0.5783938788230315,1.170990139792729,0.3075773266230187,-0.09445693433742361
13704,3.0,299.3961,4482.0046,0.0,0.0,0.0,0.13897423288466745,0.0,0.0,-0.2990794614793447,-0.5016274471942745,-0.5617105740715175,1.1652792595791088,0.29652904005013775,-0.1080871878548749
13705,3.0,300.49942000000004,4495.1094,0.0,0.0,0.0,0.1389843740283397,0.0,0.0,-0.27122030196735974,-0.5040461258454795,-0.5911345970379424,1.2105455998465489,0.3073011653082637,-0.09423244067176781
13706,3.0,299.41816,4317.6025,0.0,0.0,0.0,0.138994515172012,0.0,0.0,-0.21820803958795681,-0.5073138776829815,-0.5869214321946354,1.2028828959652988,0.26472095105592375,-0.11866250954607789
13707,3.0,300.86447000000004,4398.1558,0.0,0.0,0.0,0.13900465631568426,0.0,0.0,-0.24007996505404774,-0.5202798819251265,-0.5765696942704984,1.1890245730225888,0.26149294901984477,-0.12860841040766188
13708,3.0,299.16475,4584.2399,0.0,0.0,0.0,0.1390147974593565,0.0,0.0,-0.30034462581920673,-0.5336847247855815,-0.5594651206574085,1.2002103475015387,0.27876335114430073,-0.12820240109259187
13709,3.0,300.3547,4647.8796,0.0,0.0,0.0,0.13902493860302875,0.0,0.0,-0.3320187935477037,-0.5430205376294545,-0.5377999995367275,1.194388921702009,0.3315338216523407,-0.14531631687160387
13710,3.0,300.36032,4554.323,0.0,0.0,0.0,0.13903507974670104,0.0,0.0,-0.2711033931708217,-0.5412893998336045,-0.5720076775502625,1.1902417903677187,0.3157142011535657,-0.13564409486202986
13711,3.0,299.85706,4414.4864,0.0,0.0,0.0,0.1390452208903733,0.0,0.0,-0.26946012442364375,-0.49958978097817247,-0.5728437406052755,1.153369416578699,0.28758457479238775,-0.13692582584102686
13712,3.0,299.36722000000003,4556.4798,0.0,0.0,0.0,0.13905536203404556,0.0,0.0,-0.25226054848117774,-0.5076127357999765,-0.6251827996182384,1.1691535226614689,0.3043251585720547,-0.10772446458407689
13713,3.0,299.29073999999997,4433.9325,0.0,0.0,0.0,0.1390655031777178,0.0,0.0,-0.2732362542338187,-0.5019267511413136,-0.5726417694628425,1.1708032964742887,0.30937099208253976,-0.1076178605410559
13714,3.0,298.13017,4331.0737,0.0,0.0,0.0,0.13907564432139008,0.0,0.0,-0.25283197087507275,-0.4895200812193705,-0.5741862057952665,1.209117626480619,0.2979876439665907,-0.07679114986494642
13715,3.0,299.21084,4668.6668,0.0,0.0,0.0,0.13908578546506234,0.0,0.0,-0.32526215817087567,-0.5194862639168025,-0.5744097186348255,1.185312936581279,0.28840331127069074,-0.12591648860198987
13716,3.0,298.03728,4534.0451,0.0,0.0,0.0,0.1390959266087346,0.0,0.0,-0.28034185294508673,-0.5117962022828525,-0.5860984400659125,1.199360331992649,0.30195789223092373,-0.10834950817326389
13717,3.0,299.14714,4342.4312,0.0,0.0,0.0,0.1391060677524069,0.0,0.0,-0.2622791601699378,-0.5076275596489396,-0.5500839243415565,1.2006823193981189,0.3364302717005827,-0.13282152458846386
13718,3.0,300.5774,4608.9392,0.0,0.0,0.0,0.13911620889607912,0.0,0.0,-0.24667397378982575,-0.5351309163883095,-0.6191975616750415,1.2042759122027789,0.2946696349241287,-0.10778654641770391
13719,3.0,300.18515,4624.8177,0.0,0.0,0.0,0.13912635003975138,0.0,0.0,-0.2989113024927487,-0.5428970224422645,-0.5640207741670165,1.1999963490804189,0.2870096668181487,-0.12542351203083688
13720,3.0,299.61408,4652.806,0.0,0.0,0.0,0.13913649118342364,0.0,0.0,-0.3220389082777657,-0.5218018849003365,-0.5704960705210784,1.1940600207195489,0.28968116150180473,-0.12611469045405088
13721,3.0,299.91983,4590.4091,0.0,0.0,0.0,0.13914663232709593,0.0,0.0,-0.3115731999823807,-0.5218794998579964,-0.5619170339118935,1.2038900665646988,0.3469952886382687,-0.11754815735109987
13722,3.0,299.89713,4475.9145,0.0,0.0,0.0,0.13915677347076819,0.0,0.0,-0.26349130113206676,-0.5356172865688105,-0.5614576567140565,1.1652756118787488,0.3116254228925347,-0.1265740169893829
13723,3.0,301.31235,4507.66,0.0,0.0,0.0,0.13916691461444042,0.0,0.0,-0.2734904178889027,-0.4915713452518145,-0.6051543307215824,1.159643461197899,0.3129495786532187,-0.1101233645933299
13724,3.0,301.42076000000003,4667.2259,0.0,0.0,0.0,0.13917705575811268,0.0,0.0,-0.26661197971755374,-0.5244277225344864,-0.6276804307172354,1.140550789563599,0.31626912783583266,-0.11603203122646988
13725,3.0,299.40117999999995,4427.7985,0.0,0.0,0.0,0.13918719690178494,0.0,0.0,-0.26185042365512473,-0.5160006531752995,-0.5680890949085284,1.1693617455570189,0.3316818676244517,-0.10449750619560089
13726,3.0,299.69672,4332.6990000000005,0.0,0.0,0.0,0.13919733804545723,0.0,0.0,-0.2352168104040918,-0.5371276776978745,-0.5446878305365035,1.1715442862724188,0.30212332557475075,-0.13144864163047087
13727,3.0,298.83303,4640.6975,0.0,0.0,0.0,0.13920747918912946,0.0,0.0,-0.3044388047032707,-0.5503850521387754,-0.5558323049413775,1.182074791911699,0.28284084179921776,-0.15107480970742285
13728,3.0,300.00345,4720.7634,0.0,0.0,0.0,0.13921762033280172,0.0,0.0,-0.2910970974565467,-0.5402574552692594,-0.6036396332795934,1.2087694737462589,0.2942105313038187,-0.13913194488625386
13729,3.0,300.49714,4495.4714,0.0,0.0,0.0,0.13922776147647398,0.0,0.0,-0.27795871910738973,-0.5272015858757455,-0.5613507385635044,1.1999798331037888,0.3238048106845467,-0.12582033116749988
13730,3.0,300.27134,4412.9663,0.0,0.0,0.0,0.13923790262014626,0.0,0.0,-0.2296869169233338,-0.5324601309797234,-0.5792845053959296,1.1914538401373387,0.3035733675278587,-0.1269639865553699
13731,3.0,299.03272000000004,4673.1822,0.0,0.0,0.0,0.13924804376381852,0.0,0.0,-0.3131989597678307,-0.5173979047981976,-0.5899338247419355,1.199621142568389,0.27161941104924875,-0.1017196101189439
13732,3.0,299.83198,4833.0819,0.0,0.0,0.0,0.13925818490749078,0.0,0.0,-0.33387223063062366,-0.5308038521012615,-0.6044601429455715,1.1787199208305987,0.2988587249450597,-0.11361952326837388
13733,3.0,299.7102,4747.523,0.0,0.0,0.0,0.13926832605116302,0.0,0.0,-0.3313023547994967,-0.5209988639310845,-0.5908272174876065,1.180176569174359,0.3221166144279347,-0.08259586007757673
13734,3.0,299.74871,4391.4463,0.0,0.0,0.0,0.1392784671948353,0.0,0.0,-0.26094607767587275,-0.49877669843542755,-0.5751672345420865,1.158592011569129,0.32095669637595964,-0.10463990836465491
13735,3.0,300.48947999999996,4490.6467,0.0,0.0,0.0,0.13928860833850756,0.0,0.0,-0.26451421763802074,-0.5107268282598135,-0.5898034093215645,1.1633144663101989,0.3350327566326587,-0.09134612784766091
13736,3.0,301.39296,4701.9029,0.0,0.0,0.0,0.13929874948217982,0.0,0.0,-0.27072241113322176,-0.5415836476626446,-0.6169550264212204,1.1904226555105688,0.33101001188064466,-0.12600724541344688
13737,3.0,301.40581000000003,4812.5601,0.0,0.0,0.0,0.13930889062585208,0.0,0.0,-0.31138757256406074,-0.5590803389319334,-0.5924301892783074,1.2095338696216988,0.33100658709530667,-0.0969470359749275
13738,3.0,301.48838,4565.0048,0.0,0.0,0.0,0.13931903176952434,0.0,0.0,-0.26064134270829775,-0.5522697479872805,-0.5747363600695624,1.188438813139779,0.2878636745324327,-0.15312621559488085
13739,3.0,301.63695,4288.5709,0.0,0.0,0.0,0.1393291729131966,0.0,0.0,-0.26855756176456774,-0.49262931007872757,-0.5424315961413305,1.191387370930779,0.2602320909929078,-0.12346723006276687
13740,3.0,300.29842,4446.5807,0.0,0.0,0.0,0.13933931405686886,0.0,0.0,-0.25492562929170076,-0.5332861527262455,-0.5634377095294725,1.1911250404798888,0.26876901692793675,-0.16952433097324884
13741,3.0,299.91857999999996,4504.6529,0.0,0.0,0.0,0.13934945520054112,0.0,0.0,-0.3023459568867227,-0.48826176645018454,-0.5786942669476774,1.1811425004946887,0.29942371320081973,-0.1001152197781029
13742,3.0,299.14402,4378.474,0.0,0.0,0.0,0.13935959634421338,0.0,0.0,-0.25100874891013475,-0.5188685765233415,-0.5610694502032435,1.1512229475668592,0.3058437164969247,-0.13453943947050886
13743,3.0,299.54127,4354.8703,0.0,0.0,0.0,0.13936973748788564,0.0,0.0,-0.2891100633479417,-0.5002029898061915,-0.5344587668019735,1.135729846912809,0.2989744989014857,-0.1087100630888479
13744,3.0,300.34591,4448.3866,0.0,0.0,0.0,0.1393798786315579,0.0,0.0,-0.26112446035597775,-0.5055994889112845,-0.5854745009193345,1.1778994922246289,0.3192300067480487,-0.1136544094693169
13745,3.0,299.9071,4578.8237,0.0,0.0,0.0,0.13939001977523016,0.0,0.0,-0.3034681516374747,-0.5300014796120736,-0.5583784403226615,1.1744033740795887,0.32579534050599673,-0.0938021974540561
13746,3.0,299.4965,4745.2047,0.0,0.0,0.0,0.13940016091890242,0.0,0.0,-0.29039709362496174,-0.5307215356631375,-0.6213051016180394,1.1593509358940288,0.32463967810444166,-0.1127188047244799
13747,3.0,299.28434,4636.2291,0.0,0.0,0.0,0.1394103020625747,0.0,0.0,-0.31072226241589973,-0.5090399593608326,-0.5895356478501385,1.1618834531939688,0.2901653633270917,-0.1011235029261127
13748,3.0,299.35365,4409.7845,0.0,0.0,0.0,0.13942044320624694,0.0,0.0,-0.26447851070449674,-0.5263972578138645,-0.5495886172951735,1.170988011967519,0.3094826117135557,-0.12467622994958587
13749,3.0,300.13426,4511.8183,0.0,0.0,0.0,0.1394305843499192,0.0,0.0,-0.3172839991359927,-0.49406168095009156,-0.5601344331434644,1.216673027176279,0.2992028449440217,-0.11383012730165888
13750,3.0,300.05138,4500.5886,0.0,0.0,0.0,0.13944072549359146,0.0,0.0,-0.27864913759302873,-0.5106277627975365,-0.5787896644445925,1.1963110571417088,0.3037929793545327,-0.1121043901288419
13751,3.0,299.80147,4440.2234,0.0,0.0,0.0,0.13945086663726375,0.0,0.0,-0.2799346682599007,-0.4933052086904335,-0.5764771642713664,1.188723232442849,0.28576673318548074,-0.07779744805601033
13752,3.0,299.97924,4409.6087,0.0,0.0,0.0,0.139461007780936,0.0,0.0,-0.23471910195497175,-0.5003212462253624,-0.6053705886904254,1.210547221046709,0.29309496320872075,-0.0982740572068943
13753,3.0,300.28484,4440.6586,0.0,0.0,0.0,0.13947114892460827,0.0,0.0,-0.26971502775130074,-0.5070189104463705,-0.5731154030895864,1.223858996885479,0.3154799275979447,-0.08350923918147021
13754,3.0,300.62321000000003,4633.105,0.0,0.0,0.0,0.1394812900682805,0.0,0.0,-0.2801524258388917,-0.5321033149570085,-0.5960924905722484,1.1920153833427591,0.3129115311119637,-0.11933453754240188
13755,3.0,300.66346,4768.8343,0.0,0.0,0.0,0.1394914312119528,0.0,0.0,-0.3278968212133967,-0.5363951384055785,-0.5853145897885524,1.178033038587809,0.30749147394204573,-0.10381493026573589
13756,3.0,299.51052999999996,4578.5822,0.0,0.0,0.0,0.13950157235562505,0.0,0.0,-0.25361262941461776,-0.5651718465456185,-0.5729901653772265,1.1624625256261187,0.3463138374160147,-0.15741514114816485
13757,3.0,300.03512,4360.1927,0.0,0.0,0.0,0.1395117134992973,0.0,0.0,-0.26345336504832273,-0.49911194236351347,-0.5628243892439424,1.1902926555227389,0.3347461487093727,-0.0885651079209456
13758,3.0,299.49674,4414.5515,0.0,0.0,0.0,0.13952185464296954,0.0,0.0,-0.2237592417183178,-0.5308173587250945,-0.5873368242056314,1.1694648944171988,0.3106912974928437,-0.16291088810055285
13759,3.0,299.16027,4596.8035,0.0,0.0,0.0,0.13953199578664183,0.0,0.0,-0.31897906522828273,-0.5005401690419685,-0.5777942576788535,1.1841508400415888,0.2849618377035437,-0.08755100061136102
13760,3.0,299.51185,4565.7851,0.0,0.0,0.0,0.1395421369303141,0.0,0.0,-0.27263651149962875,-0.5349734269252665,-0.5802747344536574,1.1754842079612589,0.3121763067069027,-0.13949462762704787
13761,3.0,299.13038,4327.1367,0.0,0.0,0.0,0.13955227807398635,0.0,0.0,-0.29033864935919373,-0.4984786407860115,-0.5265242180513945,1.232751077113059,0.3039759317925887,-0.09187662709651712
13762,3.0,299.80441,4457.1721,0.0,0.0,0.0,0.1395624192176586,0.0,0.0,-0.2826403500019307,-0.5039340502519185,-0.5682946124263114,1.1904775736659887,0.3072609798092977,-0.14091751447747586
13763,3.0,299.43109,4936.1709,0.0,0.0,0.0,0.13957256036133084,0.0,0.0,-0.32677679481785865,-0.5420766141012965,-0.6316192884934704,1.1917329905398888,0.2889780571249137,-0.07845657129906072
13764,3.0,300.21617000000003,4794.613,0.0,0.0,0.0,0.13958270150500313,0.0,0.0,-0.2723549698268427,-0.5412086843306385,-0.6438789662234063,1.157007997687799,0.3170172407821657,-0.14723480461094385
13765,3.0,300.8657,4546.1436,0.0,0.0,0.0,0.13959284264867539,0.0,0.0,-0.26496988634049173,-0.5322724466637005,-0.5846718143226154,1.211796659745019,0.2941026708306737,-0.1022414744504479
13766,3.0,301.18012999999996,4415.4731,0.0,0.0,0.0,0.13960298379234765,0.0,0.0,-0.2677908759439017,-0.5186289023446875,-0.5557737897481024,1.182237925177799,0.3048723744210607,-0.12882682659921788
13767,3.0,299.73991,4546.6397,0.0,0.0,0.0,0.13961312493601993,0.0,0.0,-0.3172226975049427,-0.5152025768665355,-0.5496396749677125,1.2147872674151687,0.3067807803219057,-0.0973058987628445
13768,3.0,299.9488,4577.2154,0.0,0.0,0.0,0.13962326607969217,0.0,0.0,-0.27688240432116573,-0.5439021361439615,-0.5705746480663334,1.185269873452029,0.3487966345335477,-0.12859299887364087
13769,3.0,299.66177000000005,4274.0369,0.0,0.0,0.0,0.13963340722336443,0.0,0.0,-0.23664269647481578,-0.4874607922461346,-0.5750969859126535,1.2026779154700689,0.3255558183148577,-0.1064074927666019
13770,3.0,299.92172,4052.8877,0.0,0.0,0.0,0.13964354836703669,0.0,0.0,-0.17199761367234284,-0.49059260645022057,-0.5693864198065645,1.1839162726434387,0.2941944814222347,-0.12647851816745787
13771,3.0,299.97475,4285.1322,0.0,0.0,0.0,0.13965368951070897,0.0,0.0,-0.25929378087030375,-0.48451320717523055,-0.5587661807384284,1.1738078869958188,0.25093914876076573,-0.11307076727921588
13772,3.0,299.14156,4578.3837,0.0,0.0,0.0,0.13966383065438123,0.0,0.0,-0.2881860501842487,-0.5089369016931615,-0.5945913909466014,1.197766996210399,0.30656687309329467,-0.1037475187365829
13773,3.0,300.16739,4467.8372,0.0,0.0,0.0,0.13967397179805346,0.0,0.0,-0.30396122953363774,-0.5088865431631915,-0.5452631640757845,1.2192832607588888,0.30542274147787773,-0.11230642206628089
13774,3.0,300.52007000000003,4408.8609,0.0,0.0,0.0,0.13968411294172572,0.0,0.0,-0.2504124208287818,-0.5184304066500975,-0.5713407968644465,1.1968075496907091,0.3210826534958907,-0.13858975475774388
13775,3.0,300.27189,4688.2822,0.0,0.0,0.0,0.139694254085398,0.0,0.0,-0.2981946914920247,-0.5264726638863064,-0.6004533771476345,1.1945399972919188,0.3126155607577537,-0.1176477598359299
13776,3.0,300.05245,4843.8795,0.0,0.0,0.0,0.13970439522907027,0.0,0.0,-0.29059897357488573,-0.5659241442148645,-0.6158952782741314,1.1875274959998388,0.34925418788120466,-0.13770374860530185
13777,3.0,300.47345,4599.5413,0.0,0.0,0.0,0.13971453637274253,0.0,0.0,-0.3091839866440837,-0.5050322816378056,-0.5839294262393474,1.2131485380284388,0.34200053306532463,-0.1097461518461019
13778,3.0,300.83689,4335.9321,0.0,0.0,0.0,0.13972467751641476,0.0,0.0,-0.2633200922626698,-0.5177972266626075,-0.5368977813826855,1.1685574276276387,0.3060318770404947,-0.12514189943054388
13779,3.0,300.36496,4189.75,0.0,0.0,0.0,0.13973481866008705,0.0,0.0,-0.27564850887938974,-0.4712749831612196,-0.5266558797693885,1.162392206069179,0.28810329804858176,-0.11075524762069189
13780,3.0,300.22692,4581.7127,0.0,0.0,0.0,0.1397449598037593,0.0,0.0,-0.2806827406762297,-0.5294534126329835,-0.5825901122571675,1.144888817216729,0.31233875096293473,-0.1159176960851859
13781,3.0,299.55492999999996,4701.5792,0.0,0.0,0.0,0.13975510094743157,0.0,0.0,-0.2928163295637217,-0.5377885903406014,-0.5985577584630514,1.202549435357389,0.30411226459354374,-0.1084573889114109
13782,3.0,299.17935,4562.5972,0.0,0.0,0.0,0.13976524209110386,0.0,0.0,-0.25558054349383574,-0.5120062490285825,-0.6193288282254964,1.1955588202674687,0.2966465770617377,-0.1136452699534149
13783,3.0,298.97317000000004,4524.3252,0.0,0.0,0.0,0.1397753832347761,0.0,0.0,-0.28924767284402275,-0.5300220992516085,-0.5560121264366245,1.208776667821969,0.27020745716739974,-0.1252354832097799
13784,3.0,300.5845,4714.2335,0.0,0.0,0.0,0.13978552437844835,0.0,0.0,-0.3088000155186887,-0.5188644424629335,-0.6053448217403824,1.2139777819102788,0.3212441250318267,-0.1016435454339369
13785,3.0,299.94856,4857.657,0.0,0.0,0.0,0.1397956655221206,0.0,0.0,-0.3358925297400117,-0.5461824048315065,-0.5945315078656914,1.2176620605988888,0.3307083065308687,-0.10652739065093489
13786,3.0,300.15218,4470.2878,0.0,0.0,0.0,0.13980580666579287,0.0,0.0,-0.2306476705356528,-0.5201906145913165,-0.6080175931191645,1.198623496519929,0.3341458588201287,-0.1139672099076879
13787,3.0,299.83797999999996,4267.2458,0.0,0.0,0.0,0.13981594780946516,0.0,0.0,-0.24273136698822076,-0.4937601174553295,-0.5606446856288225,1.1609565320024888,0.3087023990040547,-0.14200961570025786
13788,3.0,299.88707999999997,4538.5266,0.0,0.0,0.0,0.1398260889531374,0.0,0.0,-0.26721396173446477,-0.5167320069649786,-0.5956528008238544,1.175541456591909,0.33253865164400964,-0.10001186624140271
13789,3.0,300.54674,4697.793,0.0,0.0,0.0,0.13983623009680965,0.0,0.0,-0.34010986917373065,-0.5405478628804204,-0.5473540157896355,1.1910059835931388,0.34230739585810965,-0.11973162012409089
13790,3.0,301.03817999999995,4599.2593,0.0,0.0,0.0,0.1398463712404819,0.0,0.0,-0.2898337569668647,-0.5376649839609025,-0.5705612427675105,1.218280345809909,0.3079195315792917,-0.09372375669756461
13791,3.0,301.42668,4535.7434,0.0,0.0,0.0,0.1398565123841542,0.0,0.0,-0.28174348180841674,-0.5225724413363845,-0.5744368129424995,1.209318148675409,0.2941056903159717,-0.1044259302085369
13792,3.0,300.66539,4549.0417,0.0,0.0,0.0,0.13986665352782646,0.0,0.0,-0.27176222865084376,-0.5148968387813615,-0.5961360197965444,1.2043540337854888,0.3021816685155087,-0.10405104793653891
13793,3.0,300.57421,4720.3075,0.0,0.0,0.0,0.1398767946714987,0.0,0.0,-0.2818157164080457,-0.5503622438790244,-0.6026776637671545,1.2024875257762788,0.3242685549903147,-0.1026650332572499
13794,3.0,299.70052999999996,4780.710999999999,0.0,0.0,0.0,0.13988693581517095,0.0,0.0,-0.3153089315110687,-0.5376569488876094,-0.6002508993801514,1.173622360902509,0.3026406201483037,-0.11942684462651189
13795,3.0,300.16922999999997,4610.6254,0.0,0.0,0.0,0.13989707695884324,0.0,0.0,-0.3127595537294647,-0.5258832056406315,-0.5628722450461655,1.185130247588249,0.3105091961848717,-0.1085905806370559
13796,3.0,299.67237,4416.349,0.0,0.0,0.0,0.1399072181025155,0.0,0.0,-0.2871072326702777,-0.5141404577142125,-0.5412121192484775,1.165586173034399,0.3091789305260847,-0.13964570321695785
13797,3.0,300.17451,4418.2846,0.0,0.0,0.0,0.13991735924618776,0.0,0.0,-0.27037955769688476,-0.5112540020218415,-0.5614146239823095,1.173640903379339,0.3430829374846497,-0.13216019651319588
13798,3.0,299.28446,4621.6399,0.0,0.0,0.0,0.13992750038986,0.0,0.0,-0.25675479903472576,-0.5275342054860724,-0.6205741328633984,1.187165563064119,0.30344582973777173,-0.12093505726786088
13799,3.0,299.1744,4643.2788,0.0,0.0,0.0,0.13993764153353228,0.0,0.0,-0.2562443945618528,-0.5575155970675055,-0.5976808107665035,1.2086550778099687,0.2938223653230097,-0.14644857319584886
13800,3.0,299.32772,4478.923,0.0,0.0,0.0,0.13994778267720454,0.0,0.0,-0.28741388268054174,-0.5100476061877796,-0.5640192745568684,1.2158689118969188,0.2977587305039987,-0.07944719653757783
13801,3.0,300.27297000000004,4555.1051,0.0,0.0,0.0,0.1399579238208768,0.0,0.0,-0.3059878715886517,-0.5438483730936555,-0.5348019647433445,1.1830335291563188,0.3137864421758107,-0.13374030938164086
13802,3.0,300.86511,4628.0456,0.0,0.0,0.0,0.13996806496454908,0.0,0.0,-0.3007295696646977,-0.5411326601756355,-0.5649480803935345,1.1892166852415489,0.28948790431023175,-0.07711962224261414
13803,3.0,300.6471,4626.4632,0.0,0.0,0.0,0.13997820610822131,0.0,0.0,-0.2749755892229777,-0.5524176419718765,-0.5789360689515415,1.149371435659129,0.3071140180147937,-0.14135159082031587
13804,3.0,301.14766000000003,4848.6048,0.0,0.0,0.0,0.13998834725189357,0.0,0.0,-0.2819631037675917,-0.5439134338825765,-0.6479782417554735,1.194179888206379,0.2879518070261307,-0.1026670394924479
13805,3.0,300.26586000000003,4663.5154,0.0,0.0,0.0,0.13999848839556583,0.0,0.0,-0.2722813065445727,-0.5309260399308204,-0.6143848770125664,1.1814121263462989,0.3072337335141087,-0.14505284144810085
13806,3.0,299.30011,4298.8787,0.0,0.0,0.0,0.14000862953923812,0.0,0.0,-0.2728282589485528,-0.4839902384011175,-0.5499332844491894,1.204300736830229,0.28940316620436873,-0.11417477419067289
13807,3.0,299.30151,4532.0963,0.0,0.0,0.0,0.14001877068291038,0.0,0.0,-0.3069810796016737,-0.5109612132729455,-0.5597018260132693,1.210478421364919,0.3059136003563217,-0.1165116328963029
13808,3.0,299.87075,4608.3724,0.0,0.0,0.0,0.1400289118265826,0.0,0.0,-0.31630165316404274,-0.49969301089836055,-0.5848354643462664,1.2301046705018788,0.28670775881835275,-0.08617780658558731
13809,3.0,300.06066,4478.3635,0.0,0.0,0.0,0.14003905297025487,0.0,0.0,-0.24758910075014176,-0.5208083627797835,-0.5929132359984804,1.183580076260259,0.34559572680514267,-0.10516679841665491
13810,3.0,299.57616,4519.5482,0.0,0.0,0.0,0.14004919411392716,0.0,0.0,-0.25368094273635977,-0.5079647996797225,-0.6121840572653624,1.1918541752518488,0.3011312017393357,-0.08140958232425022
13811,3.0,298.72028,4718.0763,0.0,0.0,0.0,0.14005933525759942,0.0,0.0,-0.3082621013056007,-0.5344145283026075,-0.5915007450940785,1.165913250166679,0.3309608489857927,-0.0989178013399269
13812,3.0,299.8936,4927.8952,0.0,0.0,0.0,0.14006947640127168,0.0,0.0,-0.33946997133807766,-0.5366707930952835,-0.6218163470884953,1.187251486672599,0.29036573353436673,-0.07026303480967164
13813,3.0,301.15907000000004,4760.7104,0.0,0.0,0.0,0.1400796175449439,0.0,0.0,-0.33968118332142266,-0.5399366400225974,-0.5675192734497915,1.1735220491426088,0.31875548146121674,-0.12349786061328988
13814,3.0,299.63284,4438.9895,0.0,0.0,0.0,0.1400897586886162,0.0,0.0,-0.26559963141014276,-0.5104374845612575,-0.5733048504607835,1.194315663719779,0.2974318357567367,-0.1112261150746629
13815,3.0,300.18517,4198.8484,0.0,0.0,0.0,0.14009989983228846,0.0,0.0,-0.21834759452422978,-0.49531528410631254,-0.5626821897249085,1.1821368028178187,0.3116360924160877,-0.16822219313723782
13816,3.0,299.92584,4472.8817,0.0,0.0,0.0,0.14011004097596072,0.0,0.0,-0.24262180425490779,-0.5188380878278325,-0.5981844568612095,1.208851749654379,0.2958926683248327,-0.12273086068509288
13817,3.0,300.57887999999997,4613.6123,0.0,0.0,0.0,0.14012018211963298,0.0,0.0,-0.29897496499653176,-0.5237114763037984,-0.5797365061330384,1.177907699550439,0.3170606180189467,-0.17079117730827684
13818,3.0,301.31435,4294.2253,0.0,0.0,0.0,0.14013032326330524,0.0,0.0,-0.25957378240293777,-0.5028375211261995,-0.5429259608651205,1.1941881968571988,0.28918142655248474,-0.1124063082611389
13819,3.0,301.15337,4200.2593,0.0,0.0,0.0,0.1401404644069775,0.0,0.0,-0.24184942396867976,-0.5348270224183175,-0.5000975003382805,1.1748973335033388,0.3069058863117527,-0.14180766482282686
13820,3.0,300.77348,4768.3708,0.0,0.0,0.0,0.14015060555064976,0.0,0.0,-0.3053940563675467,-0.5359470589463565,-0.6081245315347183,1.2044054055655589,0.30546496360954467,-0.0953995305079506
13821,3.0,301.53966,5108.4395,0.0,0.0,0.0,0.14016074669432202,0.0,0.0,-0.3102658033783507,-0.5888803688779675,-0.6536918881418664,1.1683591345830688,0.34931637103984164,-0.13688041197154488
13822,3.0,299.6794,4641.1696,0.0,0.0,0.0,0.1401708878379943,0.0,0.0,-0.2714222832422938,-0.5236199392897645,-0.6157574458630284,1.1732684326425789,0.3423751012297917,-0.09333780568147422
13823,3.0,300.8516,4386.5261,0.0,0.0,0.0,0.14018102898166654,0.0,0.0,-0.24721851465856776,-0.5212284765362455,-0.5649474116484684,1.172624816179059,0.3577386578585567,-0.12522323301607088
13824,3.0,300.30024,4467.4298,0.0,0.0,0.0,0.1401911701253388,0.0,0.0,-0.3261767177111357,-0.48928524024369346,-0.5425251495230635,1.1860195772010187,0.3164384925900477,-0.10264030995480991
13825,3.0,299.60802,4633.4208,0.0,0.0,0.0,0.14020131126901106,0.0,0.0,-0.3356370589922987,-0.4886738856633575,-0.5841332921594674,1.203391344865479,0.3135259457076017,-0.12397080522996588
13826,3.0,299.1081,4697.5943,0.0,0.0,0.0,0.14021145241268335,0.0,0.0,-0.3221059854343857,-0.5076912930802295,-0.5981540998882134,1.2086701752364588,0.2740718106637817,-0.11645838660354789
13827,3.0,299.4366,4411.1406,0.0,0.0,0.0,0.1402215935563556,0.0,0.0,-0.23091491524952779,-0.49246211367972653,-0.6174995571574614,1.1916178853285289,0.3065244989741127,-0.11890003563451988
13828,3.0,299.64016000000004,4354.7907,0.0,0.0,0.0,0.14023173470002784,0.0,0.0,-0.2357573590674398,-0.49831089723195654,-0.5896793875093245,1.2245030186490387,0.29002396427563676,-0.09337981503062022
13829,3.0,300.28702999999996,4851.319,0.0,0.0,0.0,0.1402418758437001,0.0,0.0,-0.3206604321792207,-0.5242166929361595,-0.6298027235816894,1.1841116272627188,0.33904962453409265,-0.1217400338098059
13830,3.0,299.72072000000003,5089.8137,0.0,0.0,0.0,0.14025201698737239,0.0,0.0,-0.37697759214479165,-0.5409165440618064,-0.6292821359453115,1.2084367224134187,0.30535650531884073,-0.09070809641869211
13831,3.0,300.62546000000003,4583.259,0.0,0.0,0.0,0.14026215813104465,0.0,0.0,-0.28212817234138277,-0.5275121774288986,-0.5835559523849884,1.169642010534679,0.32764400518094566,-0.09040580237060801
13832,3.0,301.4618,4381.8545,0.0,0.0,0.0,0.1402722992747169,0.0,0.0,-0.25752005617275076,-0.5165026274073404,-0.5579516593805415,1.2023721165898889,0.3079215378144897,-0.1118411274878599
13833,3.0,300.25394,4588.5099,0.0,0.0,0.0,0.14028244041838914,0.0,0.0,-0.26238041425243075,-0.5259316187304095,-0.6064804015249554,1.1731589003067688,0.3058887858613727,-0.12928387332182487
13834,3.0,300.3317,4779.6418,0.0,0.0,0.0,0.14029258156206142,0.0,0.0,-0.3000199906196677,-0.5606249475168744,-0.5922468315402114,1.178322017516329,0.2860622374446447,-0.12199156301462988
13835,3.0,299.33879,4604.6181,0.0,0.0,0.0,0.14030272270573368,0.0,0.0,-0.26538461973892274,-0.5417330513898896,-0.5925712539572295,1.1725755722241988,0.2943999280125107,-0.15068601551155184
13836,3.0,300.14181,4346.7689,0.0,0.0,0.0,0.14031286384940594,0.0,0.0,-0.28938904149797473,-0.4985916485696646,-0.5333285268454275,1.2133701358253088,0.2975131186797587,-0.13236466025087487
13837,3.0,299.83035,4348.2026,0.0,0.0,0.0,0.1403230049930782,0.0,0.0,-0.2691311018511718,-0.5078509914284906,-0.5447629225014144,1.2164462618038987,0.31790824225760067,-0.14366297641843187
13838,3.0,300.40934,4505.1342,0.0,0.0,0.0,0.14033314613675046,0.0,0.0,-0.2825969626326487,-0.4997990779188285,-0.5870522731800484,1.2150233546884688,0.3146364272871977,-0.12730164201869387
13839,3.0,300.03713999999997,4741.1319,0.0,0.0,0.0,0.14034328728042272,0.0,0.0,-0.27369098061369673,-0.5476341085147785,-0.6198606224079805,1.1880949160558387,0.3257502204790437,-0.1096735727414389
13840,3.0,300.71718,4616.3348,0.0,0.0,0.0,0.14035342842409498,0.0,0.0,-0.2741429610858037,-0.5282534104070524,-0.6008541378271864,1.182923287545439,0.3116378048087567,-0.08732689198074323
13841,3.0,300.366,4497.0443,0.0,0.0,0.0,0.14036356956776724,0.0,0.0,-0.2831202252492907,-0.5167921838884175,-0.5670767668661194,1.197177791277249,0.3101589257578027,-0.10649669930540591
13842,3.0,298.96767,4653.846,0.0,0.0,0.0,0.1403737107114395,0.0,0.0,-0.3209728273175517,-0.5201811204378795,-0.5734990398424484,1.183820520508989,0.28472035993971173,-0.1034765351298389
13843,3.0,298.74037000000004,4875.4177,0.0,0.0,0.0,0.14038385185511176,0.0,0.0,-0.3372083869823767,-0.5381215544559625,-0.6066753001816905,1.1988363803659388,0.2752048269256017,-0.07954743433022052
13844,3.0,299.32334,4817.6331,0.0,0.0,0.0,0.14039399299878402,0.0,0.0,-0.3132982278801277,-0.5322740374663575,-0.6188678906225055,1.2156237053727188,0.2923603062237157,-0.0983940320982349
13845,3.0,300.25065,4615.1722,0.0,0.0,0.0,0.1404041341424563,0.0,0.0,-0.29515564033459374,-0.5327896500447445,-0.5749518175708265,1.2178268150651488,0.31605745988994266,-0.11019152592755689
13846,3.0,299.90427999999997,4457.4432,0.0,0.0,0.0,0.14041427528612854,0.0,0.0,-0.25395359820576874,-0.5190128937350845,-0.5819849486349424,1.1934922966885189,0.3243334637917207,-0.11446247642406689
13847,3.0,299.60447999999997,4433.983,0.0,0.0,0.0,0.1404244164298008,0.0,0.0,-0.2813134787309787,-0.5079297310937615,-0.5585769056197485,1.1873422738815589,0.3157739525119627,-0.1202235530476409
13848,3.0,300.10845,4679.694,0.0,0.0,0.0,0.14043455757347306,0.0,0.0,-0.3018525142205237,-0.5483477810902125,-0.5723098084650805,1.210312147023509,0.3131110907191587,-0.13367403269259986
13849,3.0,300.53075,4625.9711,0.0,0.0,0.0,0.14044469871714532,0.0,0.0,-0.30018719715116976,-0.5206106371552696,-0.5853818797276935,1.2089302765371288,0.3015962227402297,-0.1273862382695429
13850,3.0,300.99163,4380.1127,0.0,0.0,0.0,0.14045483986081758,0.0,0.0,-0.23373065621741979,-0.5406132276443715,-0.5571010055240885,1.195273793014339,0.3034511493007967,-0.14825945377456884
13851,3.0,300.4635,4290.1419,0.0,0.0,0.0,0.14046498100448984,0.0,0.0,-0.22392357061953577,-0.5198582482935145,-0.5603142039762065,1.1792797415108487,0.29035878263868076,-0.12995472594803287
13852,3.0,300.98082999999997,4767.7628,0.0,0.0,0.0,0.14047512214816213,0.0,0.0,-0.29049991824510973,-0.5502559134135305,-0.6085250186367434,1.1763453692212489,0.3163951660157717,-0.1070043376055059
13853,3.0,299.46424,4829.6234,0.0,0.0,0.0,0.14048526329183436,0.0,0.0,-0.31498379981898067,-0.5546443705241375,-0.5984567576930834,1.2059289284159187,0.3200601321574757,-0.11590803981173288
13854,3.0,300.34956,4514.5219,0.0,0.0,0.0,0.14049540443550665,0.0,0.0,-0.29135314575681676,-0.5172509835336976,-0.5636978006976414,1.2163883038981789,0.3412156594053637,-0.10670686764114791
13855,3.0,299.74719,4365.1197,0.0,0.0,0.0,0.14050554557917888,0.0,0.0,-0.24171105453502376,-0.5078927981276166,-0.5772835492309504,1.204133955863769,0.32595681204193266,-0.0899844889260276
13856,3.0,299.38986,4546.6583,0.0,0.0,0.0,0.14051568672285117,0.0,0.0,-0.2829090740609517,-0.5121853409837575,-0.5869761882300394,1.2031476582164289,0.3292306839100387,-0.1016308696751859
13857,3.0,298.86503999999996,4707.4283,0.0,0.0,0.0,0.14052582786652343,0.0,0.0,-0.3032093067669287,-0.5035285171643955,-0.6242028246515223,1.191690738010719,0.3146937873753587,-0.1169210568642099
13858,3.0,300.05555,4518.4317,0.0,0.0,0.0,0.1405359690101957,0.0,0.0,-0.30163745188679875,-0.49483426388633955,-0.5770187059198125,1.1864480806683089,0.2967366853931307,-0.12870033245673387
13859,3.0,298.85141,4288.4429,0.0,0.0,0.0,0.14054611015386792,0.0,0.0,-0.26620003275689774,-0.4640738045680186,-0.5733057218558694,1.181085454514059,0.2751475073674447,-0.0989854499696033
13860,3.0,299.58043,4457.9943,0.0,0.0,0.0,0.1405562512975402,0.0,0.0,-0.30108808794758074,-0.4934588782005996,-0.5605719849341474,1.1929578072607687,0.32829792639798266,-0.11519332358869588
13861,3.0,299.30683999999997,4865.0433,0.0,0.0,0.0,0.14056639244121247,0.0,0.0,-0.32077916482593866,-0.5390270251428254,-0.6190454829675325,1.223755442725259,0.3061384101560087,-0.09185401946028592
13862,3.0,299.71872,4863.2505,0.0,0.0,0.0,0.14057653358488473,0.0,0.0,-0.3002048277029097,-0.5397446696586515,-0.6383572192734523,1.2264891914950589,0.31985468556719965,-0.1044106199995259
13863,3.0,300.53603,4604.9301,0.0,0.0,0.0,0.14058667472855696,0.0,0.0,-0.25337748446391073,-0.5354437573566845,-0.6109625133423054,1.1914709640640289,0.2878913159951607,-0.08117261757636363
13864,3.0,300.69657,4524.3127,0.0,0.0,0.0,0.14059681587222925,0.0,0.0,-0.25172799436111876,-0.5344006670412395,-0.5891494273095214,1.1923630294520688,0.31601054641031273,-0.1119097245196299
13865,3.0,299.96081000000004,4695.2129,0.0,0.0,0.0,0.1406069570159015,0.0,0.0,-0.32013977361533574,-0.5254766795680105,-0.5816110289505395,1.182449491798679,0.3094392851392797,-0.1028744821854209
13866,3.0,300.92758,4642.3,0.0,0.0,0.0,0.14061709815957377,0.0,0.0,-0.30098752287515573,-0.5440955858530535,-0.5660601831732904,1.164302081182669,0.32942609932432465,-0.15022332498588786
13867,3.0,300.21429,4329.5515,0.0,0.0,0.0,0.14062723930324605,0.0,0.0,-0.25528325591449574,-0.48733755063647155,-0.5734547608130784,1.1805547141116788,0.2941457440924247,-0.12188585063169688
13868,3.0,300.53586,4353.191,0.0,0.0,0.0,0.1406373804469183,0.0,0.0,-0.23714666680955376,-0.5290136722220845,-0.5571010156565895,1.1651688153182092,0.3388891155857517,-0.16717779572916386
13869,3.0,299.83602,4674.7727,0.0,0.0,0.0,0.14064752159059055,0.0,0.0,-0.2882036402059847,-0.5300450594988745,-0.6027654618883194,1.2150436196904688,0.3069418566903027,-0.13172059795731086
13870,3.0,299.67592,4771.84,0.0,0.0,0.0,0.1406576627342628,0.0,0.0,-0.30201733961429067,-0.5543103830261754,-0.5941924845147324,1.2173318423912987,0.3266117363765687,-0.14794109059314886
13871,3.0,299.70375,4734.6252,0.0,0.0,0.0,0.1406678038779351,0.0,0.0,-0.3051091000419237,-0.5514074822846815,-0.5826912650146505,1.223639425588809,0.29015087385066174,-0.08341542944746193
13872,3.0,300.73219,4723.8974,0.0,0.0,0.0,0.14067794502160735,0.0,0.0,-0.2919159352598597,-0.5375054274676555,-0.6065255012869064,1.1854308788929189,0.3131486215028627,-0.10681990582230388
13873,3.0,299.68847,4720.7024,0.0,0.0,0.0,0.14068808616527959,0.0,0.0,-0.27478537178170476,-0.5572137498627154,-0.6029765218841494,1.2098216326500988,0.30696073353966574,-0.07535917720087172
13874,3.0,301.14754,4613.8186,0.0,0.0,0.0,0.14069822730895185,0.0,0.0,-0.27682104189510975,-0.5218405707891545,-0.6038240346652924,1.180427551224129,0.3246000296280287,-0.10489802369512889
13875,3.0,300.81753,4785.0070000000005,0.0,0.0,0.0,0.14070836845262413,0.0,0.0,-0.3066992542188597,-0.5278954088817205,-0.6199279934071295,1.1972992799642388,0.2730055878485537,-0.07797386503092132
13876,3.0,301.66243,4641.1241,0.0,0.0,0.0,0.1407185095962964,0.0,0.0,-0.3027196536561037,-0.5300707656539115,-0.5779954283537074,1.1733886041044388,0.3150583952913427,-0.12668456257529287
13877,3.0,300.74775,4496.1122,0.0,0.0,0.0,0.14072865073996865,0.0,0.0,-0.29107929465228977,-0.5171317138644265,-0.5584948526266504,1.2201030814147988,0.3182418751180277,-0.1182906670243799
13878,3.0,299.9783,4514.4103,0.0,0.0,0.0,0.14073879188364088,0.0,0.0,-0.27390229392205173,-0.5429348065384935,-0.5554309160467635,1.1821282915169788,0.3436136880195307,-0.15304115324898585
13879,3.0,300.22544,4626.899,0.0,0.0,0.0,0.14074893302731317,0.0,0.0,-0.2831293242351887,-0.5362351360822875,-0.5870972817494904,1.198961111453249,0.3088807715516587,-0.1070191006594629
13880,3.0,300.11996,4643.937,0.0,0.0,0.0,0.14075907417098543,0.0,0.0,-0.2918423530375977,-0.5356052896876266,-0.5841932360353835,1.176987769784649,0.32261619738973973,-0.1297511437379409
13881,3.0,299.69417000000004,4582.4793,0.0,0.0,0.0,0.1407692153146577,0.0,0.0,-0.2790993144799577,-0.5380270790166385,-0.5758328891952814,1.1913403561261389,0.2950549030096517,-0.11695365311992689
13882,3.0,300.67124,4524.6964,0.0,0.0,0.0,0.14077935645832995,0.0,0.0,-0.27207129019634574,-0.5427311635333955,-0.5605922702011494,1.1928878930038687,0.29085380597503574,-0.1074374209632479
13883,3.0,299.41979,4397.7931,0.0,0.0,0.0,0.1407894976020022,0.0,0.0,-0.25530109924875677,-0.5067354841283985,-0.5747826959966355,1.1957810260143988,0.26748684011889573,-0.09074167856675641
13884,3.0,298.90165,4735.3584,0.0,0.0,0.0,0.14079963874567447,0.0,0.0,-0.2645975067962407,-0.5727860866745854,-0.6020471182299244,1.200987003703189,0.3050208560907147,-0.1094441222562939
13885,3.0,300.32725,4935.139,0.0,0.0,0.0,0.14080977988934673,0.0,0.0,-0.3071168652475747,-0.5606038820472954,-0.6324382681517974,1.2033872918650788,0.3125515942789407,-0.1015560614203029
13886,3.0,300.9798,4436.2858,0.0,0.0,0.0,0.140819921033019,0.0,0.0,-0.2385632309793578,-0.5540065701161915,-0.5559503080480235,1.199192740426109,0.35148546592641466,-0.13843489974496087
13887,3.0,300.22042000000005,4118.8364,0.0,0.0,0.0,0.14083006217669128,0.0,0.0,-0.23053719587724977,-0.4888373735669926,-0.5326488589433495,1.1940438087179488,0.3069417148352887,-0.11568402034712388
13888,3.0,301.48865,4734.7916,0.0,0.0,0.0,0.1408402033203635,0.0,0.0,-0.3194302249678087,-0.5316034381526745,-0.5882247757982655,1.180428564474229,0.3272695586064907,-0.11594914736828989
13889,3.0,300.50516,4816.9718,0.0,0.0,0.0,0.14085034446403577,0.0,0.0,-0.3274377986530947,-0.5387403057620285,-0.5980610429990294,1.1716286900057489,0.3207964002101397,-0.11625597976357188
13890,3.0,301.24832999999995,4706.4029,0.0,0.0,0.0,0.14086048560770803,0.0,0.0,-0.2940295952334617,-0.5437204604010314,-0.5928789070850924,1.189213949466279,0.3224664896874647,-0.1264102757732229
13891,3.0,299.6143,4639.3031,0.0,0.0,0.0,0.14087062675138032,0.0,0.0,-0.25941697181746176,-0.5388029246182084,-0.6120123924334204,1.193652592854339,0.2917380490723037,-0.09100799413028972
13892,3.0,298.74124,4740.7328,0.0,0.0,0.0,0.14088076789505258,0.0,0.0,-0.2954300183291727,-0.5312392861992355,-0.6143950905735744,1.2097065274387389,0.3254073265127027,-0.09137858022186372
13893,3.0,298.40823,4992.1027,0.0,0.0,0.0,0.1408909090387248,0.0,0.0,-0.3413793600915197,-0.5704501398940455,-0.6056450781425153,1.2114046332813289,0.29784159409717675,-0.10452479302079391
13894,3.0,299.60936,4819.6475,0.0,0.0,0.0,0.14090105018239707,0.0,0.0,-0.3335859976098747,-0.5554963618707225,-0.5759701339213265,1.2218128396335388,0.2914619890825587,-0.10801621981787089
13895,3.0,299.73728,4492.6396,0.0,0.0,0.0,0.14091119132606936,0.0,0.0,-0.27411564386310777,-0.5052090025877465,-0.5863256208708335,1.2211137983895488,0.28147837505225276,-0.08633592325044222
13896,3.0,300.08511,4289.3892,0.0,0.0,0.0,0.14092133246974162,0.0,0.0,-0.23450885255922177,-0.5067115916910405,-0.5626467766339135,1.2084686397915687,0.3289919824514807,-0.11463494172358789
13897,3.0,299.98745,4625.2358,0.0,0.0,0.0,0.14093147361341388,0.0,0.0,-0.2812961217567657,-0.5399203773584925,-0.5847397020793155,1.193010800240999,0.3250212883571037,-0.12620287361025387
13898,3.0,300.1551,4866.7788,0.0,0.0,0.0,0.1409416147570861,0.0,0.0,-0.3298023292189557,-0.5433858244230054,-0.6061910882239024,1.169398121235609,0.32581919241335067,-0.14219514179356788
13899,3.0,299.89763999999997,4364.9671,0.0,0.0,0.0,0.1409517559007584,0.0,0.0,-0.29669330815634976,-0.48266993299081357,-0.5474777741568495,1.1658125331067388,0.2963492894823977,-0.12025704096344587
13900,3.0,299.93019,4246.1628,0.0,0.0,0.0,0.14096189704443068,0.0,0.0,-0.25475194809205975,-0.5067882440611056,-0.5291872824942185,1.2065548130026886,0.3245104583191887,-0.1441474518212459
13901,3.0,301.37138,4831.9166,0.0,0.0,0.0,0.14097203818810292,0.0,0.0,-0.2964657321838897,-0.5498268729236875,-0.6224893984674205,1.2019860683017887,0.3237722448263327,-0.11745392509179989
13902,3.0,301.04224,4843.8939,0.0,0.0,0.0,0.1409821793317752,0.0,0.0,-0.3020677589392667,-0.5601314237906674,-0.6102236007068804,1.2012047511496788,0.29699748583636976,-0.15360174399931184
13903,3.0,300.75678999999997,4537.019,0.0,0.0,0.0,0.14099232047544744,0.0,0.0,-0.27148054512304376,-0.5161342805984875,-0.5915256609140375,1.1995302540344188,0.2922099297763747,-0.10833850427717788
13904,3.0,301.18447000000003,4357.403,0.0,0.0,0.0,0.1410024616191197,0.0,0.0,-0.2895497024338307,-0.4917036554498725,-0.5432883497633855,1.194834447770979,0.3163830475445757,-0.1157875643748429
13905,3.0,301.17056,4492.7276,0.0,0.0,0.0,0.14101260276279196,0.0,0.0,-0.27633353687449674,-0.5224831132075686,-0.5668603569097614,1.211347384650679,0.3373528967116387,-0.09297115505328861
13906,3.0,301.29641000000004,4834.3668,0.0,0.0,0.0,0.14102274390646424,0.0,0.0,-0.3303106970591277,-0.5330831379362095,-0.6061329580656655,1.172466141213399,0.3246032416308457,-0.12889897000633788
13907,3.0,300.39354,4890.5169,0.0,0.0,0.0,0.1410328850501365,0.0,0.0,-0.2899397530598257,-0.5524980737648144,-0.6441572047008663,1.1779446831790887,0.3046871421702797,-0.1095357301978349
13908,3.0,298.92487,4439.6947,0.0,0.0,0.0,0.14104302619380873,0.0,0.0,-0.2703326442172547,-0.48378643327600357,-0.5954372521300815,1.2042385232740889,0.29253386583334473,-0.12197207821520689
13909,3.0,299.65461,4363.0246,0.0,0.0,0.0,0.141053167337481,0.0,0.0,-0.23479836851029479,-0.5077930841852756,-0.5836590809801665,1.2073241738036187,0.3316874911625067,-0.14348344876571387
13910,3.0,300.2309,4619.7406,0.0,0.0,0.0,0.14106330848115325,0.0,0.0,-0.32916878446142966,-0.49986529381286354,-0.5752517092029235,1.196296365015259,0.2841030474487877,-0.1145709347147709
13911,3.0,300.03389,4767.3045,0.0,0.0,0.0,0.14107344962482554,0.0,0.0,-0.3091481783855497,-0.5123684048793244,-0.6276249248767574,1.181076031288129,0.3080040163726297,-0.10615289341397491
13912,3.0,300.87244,4579.6792,0.0,0.0,0.0,0.1410835907684978,0.0,0.0,-0.30447713595455367,-0.4948501921779115,-0.5927807839454085,1.1805302947842689,0.30227137154686173,-0.08329107326268892
13913,3.0,300.24782000000005,4617.4722,0.0,0.0,0.0,0.14109373191217003,0.0,0.0,-0.24555515316190676,-0.5323193297458275,-0.6257217574789294,1.180931440498859,0.3296852684349027,-0.1298925630543979
13914,3.0,299.97809,4742.4385,0.0,0.0,0.0,0.1411038730558423,0.0,0.0,-0.29122424007909475,-0.5342797153768025,-0.6160789298547564,1.1858016271045089,0.3123489037289367,-0.11248016406092788
13915,3.0,301.36899,4821.772,0.0,0.0,0.0,0.14111401419951458,0.0,0.0,-0.2931802383371367,-0.5531506068292145,-0.6193674330543064,1.189025282297659,0.3130291998460767,-0.13725320694833687
13916,3.0,300.67401,4688.275,0.0,0.0,0.0,0.14112415534318684,0.0,0.0,-0.3067012097915527,-0.5229004303937546,-0.5955168733229395,1.2194487245002188,0.2975113961545887,-0.09753767769671931
13917,3.0,300.92298999999997,4450.8683,0.0,0.0,0.0,0.1411342964868591,0.0,0.0,-0.25286282434061774,-0.5175706031452415,-0.5825194076651895,1.1973361622678789,0.3349798649774387,-0.13753137449828987
13918,3.0,301.1253,4495.6685,0.0,0.0,0.0,0.14114443763053133,0.0,0.0,-0.25897938962927575,-0.5288589387993136,-0.5787326285964635,1.195880628499229,0.29657234635941176,-0.13230093695208586
13919,3.0,300.02434,4369.8575,0.0,0.0,0.0,0.14115457877420362,0.0,0.0,-0.24685432217512474,-0.4910956445948666,-0.5903775776232304,1.188281252749229,0.3245574224613237,-0.13161818876970388
13920,3.0,299.79557,4551.9425,0.0,0.0,0.0,0.14116471991787588,0.0,0.0,-0.24858450751588076,-0.5240763071348045,-0.6110160332125874,1.1868094056539689,0.3067510718289737,-0.12534246215533787
13921,3.0,300.108,4536.8672,0.0,0.0,0.0,0.14117486106154814,0.0,0.0,-0.29071882079671374,-0.5146969650666355,-0.5736785472301644,1.1801704896737588,0.3116387268663477,-0.15693442490322185
13922,3.0,299.07534,4502.5556,0.0,0.0,0.0,0.14118500220522043,0.0,0.0,-0.3030582818395237,-0.5040783269336575,-0.5615278749459864,1.1825231550809487,0.2770400964342287,-0.12512704518407788
13923,3.0,300.08333,4921.7274,0.0,0.0,0.0,0.14119514334889266,0.0,0.0,-0.33814503537481666,-0.5685680177007945,-0.5893691911237104,1.1910175346442788,0.31032994210968073,-0.11528880214561889
13924,3.0,300.12107000000003,5118.7896,0.0,0.0,0.0,0.14120528449256492,0.0,0.0,-0.3446915125484037,-0.5393589861405874,-0.6719337437996974,1.2304648809124288,0.32883891075887367,-0.05866591422737494
13925,3.0,299.41809,4943.8377,0.0,0.0,0.0,0.14121542563623718,0.0,0.0,-0.28463868184915075,-0.6111697736502604,-0.6069947475407174,1.199019879959049,0.3434781252886517,-0.13894669237047086
13926,3.0,300.70657,4632.8754,0.0,0.0,0.0,0.14122556677990947,0.0,0.0,-0.2526072927978988,-0.5339297387922625,-0.6217413969785984,1.2169924036077988,0.31108600906929873,-0.09093288392687691
13927,3.0,300.84667,4285.7947,0.0,0.0,0.0,0.14123570792358173,0.0,0.0,-0.26155086639556074,-0.5102712811473545,-0.5309524148309236,1.2027883597309688,0.30673043192443666,-0.11967079472058789
13928,3.0,301.64375,4304.5444,0.0,0.0,0.0,0.14124584906725396,0.0,0.0,-0.25914619086073776,-0.5020143466124585,-0.5473134553881325,1.2313066890955089,0.3005601339829757,-0.08274678773297213
13929,3.0,301.35322,4549.0627,0.0,0.0,0.0,0.14125599021092622,0.0,0.0,-0.28788539861457674,-0.5145128575234655,-0.5804032145663374,1.175408214203759,0.3065456252386977,-0.13662230677357187
13930,3.0,299.79737,4616.5526,0.0,0.0,0.0,0.1412661313545985,0.0,0.0,-0.28709223656879773,-0.5300601670578655,-0.5861643215874145,1.1763319943199289,0.2950488336415527,-0.0983867772275189
13931,3.0,299.08532,4475.9890000000005,0.0,0.0,0.0,0.14127627249827077,0.0,0.0,-0.2504466180196568,-0.5365413605275096,-0.5736009120075024,1.167241418397759,0.3337070202018187,-0.17522811843616884
13932,3.0,299.52045,4641.1919,0.0,0.0,0.0,0.14128641364194303,0.0,0.0,-0.2767674612298217,-0.5393491880121205,-0.5946898079288144,1.2116058647511887,0.3154073383607807,-0.1108409179166469
13933,3.0,299.10117,4936.8026,0.0,0.0,0.0,0.14129655478561526,0.0,0.0,-0.3286408304968247,-0.5884489269853874,-0.5835749508243634,1.2261490434364888,0.3146543212839637,-0.15772345288859285
13934,3.0,300.51274,5028.6315,0.0,0.0,0.0,0.14130669592928755,0.0,0.0,-0.3503851979078267,-0.5612205764556584,-0.6169726468404594,1.226593556255359,0.26843041914201976,-0.0993623567153011
13935,3.0,299.52111,4391.1625,0.0,0.0,0.0,0.1413168370729598,0.0,0.0,-0.2556801257136637,-0.5201774930025215,-0.5589461238236875,1.220363284040479,0.3074995394128417,-0.09599862577532672
13936,3.0,299.092,4230.2703,0.0,0.0,0.0,0.14132697821663207,0.0,0.0,-0.2382594788643798,-0.5061500586181216,-0.5414870038681064,1.218703377726659,0.3020446467044857,-0.06771271369222452
13937,3.0,300.84297000000004,4470.6925,0.0,0.0,0.0,0.14133711936030433,0.0,0.0,-0.26508010768636975,-0.4978928606381995,-0.5960059184837044,1.186969904469809,0.3320258761659027,-0.1088789009530109
13938,3.0,300.36745,4728.5838,0.0,0.0,0.0,0.14134726050397659,0.0,0.0,-0.29818042493061675,-0.5468861779534635,-0.5923047894459315,1.1698315896283888,0.2980500905702537,-0.12409444200716788
13939,3.0,300.26844,4756.4896,0.0,0.0,0.0,0.14135740164764884,0.0,0.0,-0.2919717450753677,-0.5442338640942005,-0.6096484698176194,1.1618249886631988,0.3074467693476337,-0.12416486288911789
13940,3.0,300.92199,4628.2009,0.0,0.0,0.0,0.1413675427913211,0.0,0.0,-0.2939995625004977,-0.5069281029724085,-0.6059298318181184,1.181068431912379,0.3117727899870787,-0.11475768684070191
13941,3.0,301.13739,4695.7145,0.0,0.0,0.0,0.14137768393499336,0.0,0.0,-0.27926094813590974,-0.5719479059268634,-0.5761710918136594,1.1716798591357989,0.2905187140344647,-0.11905412057722689
13942,3.0,301.11537999999996,5009.4655,0.0,0.0,0.0,0.14138782507866562,0.0,0.0,-0.3475611280241127,-0.5108222662867326,-0.6643690313356183,1.193478415162149,0.2959983300452607,-0.08213425271626963
13943,3.0,301.08486,5202.5032,0.0,0.0,0.0,0.14139796622233788,0.0,0.0,-0.3353677168507167,-0.5743697560508815,-0.6716936035259974,1.173494894039929,0.3347234113771287,-0.08675502071705392
13944,3.0,299.43775,4568.9503,0.0,0.0,0.0,0.14140810736601014,0.0,0.0,-0.2992819392468277,-0.5047716331820815,-0.5847932320820984,1.2209343517968387,0.32063263872897774,-0.07869501133909293
13945,3.0,299.58788,4284.91,0.0,0.0,0.0,0.1414182485096824,0.0,0.0,-0.24151296414047377,-0.48877031667537457,-0.5722223649814504,1.203794821055299,0.3100042328650357,-0.0997186944839689
13946,3.0,299.9894,4720.0853,0.0,0.0,0.0,0.1414283896533547,0.0,0.0,-0.29262321422716275,-0.5507394160962484,-0.5914254606116485,1.2121320455281188,0.28640774559624377,-0.1109252912524739
13947,3.0,299.65642,4779.7585,0.0,0.0,0.0,0.14143853079702692,0.0,0.0,-0.3056321498760447,-0.5131695310708895,-0.6341255626158203,1.2194202521724091,0.29603626612900474,-0.11989169337488889
13948,3.0,299.24682,4459.4878,0.0,0.0,0.0,0.14144867194069918,0.0,0.0,-0.25339978609861175,-0.5316317280954664,-0.5705414337280554,1.2024910721516289,0.3072465815253767,-0.13118591601204185
13949,3.0,299.64525,4323.2324,0.0,0.0,0.0,0.14145881308437144,0.0,0.0,-0.23995109990632976,-0.5351873138888755,-0.5390162745592645,1.1815220639821489,0.3326316173406847,-0.16607928063324884
13950,3.0,299.61048,4528.273,0.0,0.0,0.0,0.14146895422804373,0.0,0.0,-0.29284277539133174,-0.5129814211898245,-0.5706577244420324,1.1941821173565987,0.3323702190798867,-0.14073824013728287
13951,3.0,299.52747,4860.5223,0.0,0.0,0.0,0.14147909537171596,0.0,0.0,-0.30516059341200574,-0.5891162332362454,-0.5832005954424174,1.181645173869299,0.3548338319418727,-0.1382963884562909
13952,3.0,300.07575,4906.5377,0.0,0.0,0.0,0.14148923651538825,0.0,0.0,-0.3269002694750447,-0.5462074726389805,-0.6183572024396045,1.194305936518819,0.3219367118726797,-0.1027660846897229
13953,3.0,300.615,4417.6397,0.0,0.0,0.0,0.14149937765906048,0.0,0.0,-0.27401181612536074,-0.4886969269706315,-0.5801434172406975,1.1848994292154686,0.2829048184105317,-0.09858869162794631
13954,3.0,301.29307,4250.7671,0.0,0.0,0.0,0.14150951880273277,0.0,0.0,-0.23962169229881977,-0.48130493311859857,-0.5712004414605945,1.1865472778530988,0.2994801714963917,-0.10988898971269889
13955,3.0,300.93143,4692.9069,0.0,0.0,0.0,0.141519659946405,0.0,0.0,-0.3074161083996077,-0.5004345782490476,-0.6186758391985514,1.2184921150808088,0.3271099210532357,-0.10285190697319291
13956,3.0,301.04977,5138.3343,0.0,0.0,0.0,0.1415298010900773,0.0,0.0,-0.32565930154757067,-0.5952369629828145,-0.6410290685946434,1.2109881874902289,0.33088726676353064,-0.11836128042384889
13957,3.0,301.20735,4839.154,0.0,0.0,0.0,0.14153994223374955,0.0,0.0,-0.31682831016851976,-0.5616413488246855,-0.5925123131989125,1.176747224210909,0.3149629369994217,-0.14718651311117786
13958,3.0,300.66804,4479.8877,0.0,0.0,0.0,0.1415500833774218,0.0,0.0,-0.2897585839419457,-0.5066443929444084,-0.5653710312502764,1.2228276096086887,0.3137040852076827,-0.13469767873862587
13959,3.0,299.7775,4771.6665,0.0,0.0,0.0,0.14156022452109407,0.0,0.0,-0.3049076456570417,-0.5583596546658074,-0.5872001468996424,1.2221221848890687,0.29596416325188873,-0.14023438126005586
13960,3.0,300.25307000000004,4792.726,0.0,0.0,0.0,0.14157036566476633,0.0,0.0,-0.3034926418923917,-0.49742088874161955,-0.6559554989977673,1.2042524048004588,0.2937887659496937,-0.1081793834814739
13961,3.0,299.59546,4537.9519,0.0,0.0,0.0,0.1415805068084386,0.0,0.0,-0.27049612198838874,-0.5334947302593305,-0.5754332025608354,1.1700895631038488,0.26353972435434575,-0.14281863511010187
13962,3.0,299.98351,4474.7341,0.0,0.0,0.0,0.14159064795211085,0.0,0.0,-0.26698196799156876,-0.5292277314382106,-0.5639977227272415,1.179604285517879,0.3266291541457877,-0.1106743396002069
13963,3.0,299.78629,4360.417,0.0,0.0,0.0,0.1416007890957831,0.0,0.0,-0.27340593309556477,-0.48169414274701056,-0.5703578125449335,1.1924620239868389,0.34730206023854465,-0.1029413769570229
13964,3.0,299.24048,4612.1365,0.0,0.0,0.0,0.14161093023945537,0.0,0.0,-0.26220121083974474,-0.5690671244350525,-0.5707059956767965,1.193710246785029,0.33097419348960966,-0.11445063153039789
13965,3.0,300.05437,4897.0427,0.0,0.0,0.0,0.14162107138312763,0.0,0.0,-0.2964871624235047,-0.5446665826819065,-0.6474249666708694,1.1808646673172687,0.2928142118710127,-0.13056814755857288
13966,3.0,300.06867,4761.4387,0.0,0.0,0.0,0.1416312125267999,0.0,0.0,-0.28918531743286874,-0.5505000965551295,-0.6076730576876614,1.2115632069219788,0.31532436331009167,-0.11807844179093488
13967,3.0,299.9233,4319.4481,0.0,0.0,0.0,0.14164135367047218,0.0,0.0,-0.24779311865777678,-0.5188671681057025,-0.5463440790174625,1.2113673456776488,0.30222397170718374,-0.14489349773737487
13968,3.0,299.73716,4523.1925,0.0,0.0,0.0,0.1416514948141444,0.0,0.0,-0.27861861850001673,-0.5184559506851185,-0.5778629965656374,1.214666082703209,0.3023042109826027,-0.13758099335568688
13969,3.0,299.52046,4929.0901,0.0,0.0,0.0,0.14166163595781667,0.0,0.0,-0.3370127486530687,-0.5742706196610975,-0.5870369528385364,1.171577622200709,0.27404845524897675,-0.12387703906571189
13970,3.0,298.96416,4769.8161,0.0,0.0,0.0,0.14167177710148893,0.0,0.0,-0.3271241369521387,-0.5237145059215975,-0.5990663492182454,1.2097301361660688,0.3306489300750087,-0.1129128218536279
13971,3.0,299.93073,4267.4603,0.0,0.0,0.0,0.1416819182451612,0.0,0.0,-0.27280107344836974,-0.47053503701069255,-0.5538652521247445,1.217591538391929,0.3072649517496897,-0.08540106324442873
13972,3.0,299.62673,4270.5949,0.0,0.0,0.0,0.14169205938883347,0.0,0.0,-0.21310037755636982,-0.5053054437322645,-0.5797484118217134,1.2103821626054188,0.30882224622588267,-0.1005029693131208
13973,3.0,300.86028,4884.292,0.0,0.0,0.0,0.1417022005325057,0.0,0.0,-0.3194361524808937,-0.5222470056692665,-0.6430196288135964,1.220881054841579,0.26441222388295477,-0.0910872475133614
13974,3.0,300.18456000000003,5219.2007,0.0,0.0,0.0,0.14171234167617797,0.0,0.0,-0.33486603646120466,-0.5912446765288064,-0.6603959662360074,1.2166624893752387,0.3107311790167797,-0.11335588572485489
13975,3.0,300.11377999999996,4908.2017,0.0,0.0,0.0,0.14172248281985023,0.0,0.0,-0.3164121278224457,-0.5464052995885045,-0.6291533315925995,1.2161808916027088,0.3178879063280937,-0.08548010283172933
13976,3.0,300.48517999999996,4417.923,0.0,0.0,0.0,0.1417326239635225,0.0,0.0,-0.24239938572545677,-0.5036083612722755,-0.5969305497299584,1.1928839413284789,0.3266376451816257,-0.11870904812317089
13977,3.0,300.95083999999997,4638.2763,0.0,0.0,0.0,0.14174276510719477,0.0,0.0,-0.24565904169465977,-0.5545521546325365,-0.6097089709810903,1.1840807231346688,0.3094697029072817,-0.1106546318857619
13978,3.0,300.42675,5107.1075,0.0,0.0,0.0,0.141752906250867,0.0,0.0,-0.3246167685196807,-0.5741401738432235,-0.6536762131628193,1.1876796861648589,0.3352699078185637,-0.13184460963704986
13979,3.0,300.20422,4830.92,0.0,0.0,0.0,0.14176304739453927,0.0,0.0,-0.3421975088847647,-0.5292414609770656,-0.5970400820657684,1.2251988174927089,0.2961130096915787,-0.10744600319159489
13980,3.0,299.23894,4039.2141,0.0,0.0,0.0,0.14177318853821155,0.0,0.0,-0.2390654585239238,-0.5065601310660925,-0.4821946376339055,1.1948157026441288,0.2891553758924137,-0.17265378430460182
13981,3.0,299.97347,4182.5608,0.0,0.0,0.0,0.1417833296818838,0.0,0.0,-0.24107678023742576,-0.4936228018017776,-0.5366944727501205,1.216550221264159,0.27612898194430874,-0.1218235560155489
13982,3.0,299.55486,4937.8116,0.0,0.0,0.0,0.14179347082555607,0.0,0.0,-0.2946129942435387,-0.5677559889381535,-0.6386024561951553,1.2062623890238289,0.3236581123350687,-0.14340922819588886
13983,3.0,299.15845,5047.4629,0.0,0.0,0.0,0.1418036119692283,0.0,0.0,-0.3013922858926027,-0.5625349340878755,-0.6703754563384063,1.2220095114779488,0.3272477230668357,-0.08102793559458463
13984,3.0,298.76153,4731.4828,0.0,0.0,0.0,0.1418137531129006,0.0,0.0,-0.2618259739302118,-0.5626956456862364,-0.6137309861930323,1.1815845815133188,0.34391712602697766,-0.14662107902537386
13985,3.0,300.02395,4648.5376,0.0,0.0,0.0,0.14182389425657285,0.0,0.0,-0.2958349029366317,-0.5436701322685644,-0.5735343212109305,1.2047037063949988,0.3117596582657827,-0.11956175887732688
13986,3.0,300.18937,4731.6897,0.0,0.0,0.0,0.1418340354002451,0.0,0.0,-0.31671771392010467,-0.5542223923874915,-0.5673754020680924,1.193935998907309,0.33797092861013367,-0.15438648593675988
13987,3.0,300.56887,4908.9815,0.0,0.0,0.0,0.1418441765439174,0.0,0.0,-0.3368048601300517,-0.5386612013267215,-0.6167417372751705,1.2244493163937389,0.3047196674984897,-0.09371721312841882
13988,3.0,299.645,4679.557,0.0,0.0,0.0,0.14185431768758963,0.0,0.0,-0.2890835769903277,-0.5164108066832785,-0.6169740856556014,1.1920612835722888,0.3107643325600517,-0.12411377481907589
13989,3.0,300.13784,4365.1813,0.0,0.0,0.0,0.1418644588312619,0.0,0.0,-0.22651774418806075,-0.4869613308743415,-0.6134270415605354,1.188262811597409,0.29992649803294075,-0.08811824334859351
13990,3.0,299.67252,4338.9791,0.0,0.0,0.0,0.14187459997493415,0.0,0.0,-0.24701411171589477,-0.5035644470129416,-0.5683627332305344,1.198274938485529,0.3369699692338467,-0.12549262582015788
13991,3.0,299.73443,4971.9794,0.0,0.0,0.0,0.14188474111860644,0.0,0.0,-0.37351513416807364,-0.5252315439713175,-0.6126108990024883,1.229939004110529,0.3139238186243687,-0.08950507369421301
13992,3.0,299.78741,5122.6775,0.0,0.0,0.0,0.1418948822622787,0.0,0.0,-0.38519097719038964,-0.5717392068037664,-0.6002358526161664,1.1826531550687789,0.3266273708256117,-0.14423483450986987
13993,3.0,300.07437000000004,4547.6078,0.0,0.0,0.0,0.14190502340595093,0.0,0.0,-0.27963555683038077,-0.5083444239621885,-0.5943792366406634,1.1887620399216787,0.27226123406009173,-0.1244275479775429
13994,3.0,299.31701,4347.2679,0.0,0.0,0.0,0.1419151645496232,0.0,0.0,-0.21113917119281378,-0.5176823544987704,-0.5926393544964504,1.2059077514888288,0.3106486396636337,-0.12366085202437588
13995,3.0,298.82111000000003,4690.7096,0.0,0.0,0.0,0.14192530569329548,0.0,0.0,-0.25278101452754376,-0.5166149157834226,-0.6564626509378193,1.2256094877582386,0.31638140607941373,-0.09114731095278922
13996,3.0,299.02624,4752.9652,0.0,0.0,0.0,0.14193544683696774,0.0,0.0,-0.2720061584799177,-0.5397852097951525,-0.6329913608513834,1.2201779605971887,0.3160956796837147,-0.13028051625268589
13997,3.0,298.99369,4455.0975,0.0,0.0,0.0,0.14194558798064,0.0,0.0,-0.2986197296439727,-0.5147106642079875,-0.5409080023634635,1.197453293979439,0.2997937622698407,-0.13732135815006288
13998,3.0,299.51022,4330.6074,0.0,0.0,0.0,0.14195572912431223,0.0,0.0,-0.2790811773031677,-0.5060437078876255,-0.5312716392749285,1.1962468170853688,0.35222065993397267,-0.17396336952884783
13999,3.0,299.35093,4410.9197,0.0,0.0,0.0,0.14196587026798452,0.0,0.0,-0.2845847465463277,-0.5013591183027926,-0.5548655934184704,1.2248878510370187,0.3183738813410557,-0.13899845931807986
14000,3.0,299.88202,4692.7509,0.0,0.0,0.0,0.14197601141165678,0.0,0.0,-0.25547549985596874,-0.5479385800373274,-0.6230650055842284,1.2020215320552887,0.3347044737327597,-0.15104650963212984
14001,3.0,299.62397999999996,4867.1488,0.0,0.0,0.0,0.14198615255532904,0.0,0.0,-0.29528343143720576,-0.5292730237176805,-0.6549352574720774,1.173926031957479,0.2857425773030967,-0.1159208675579989
14002,3.0,300.39527000000004,4721.8546,0.0,0.0,0.0,0.1419962936990013,0.0,0.0,-0.26842813932929477,-0.5420467130908455,-0.6248510615354984,1.1977494669836688,0.33216061816420067,-0.12057062160439388
14003,3.0,300.10174,4504.0853,0.0,0.0,0.0,0.14200643484267356,0.0,0.0,-0.3034704314501997,-0.5034611461652465,-0.5621978865746114,1.200542592209329,0.3234171107987837,-0.1027393754170869
14004,3.0,299.73006000000004,4636.1082,0.0,0.0,0.0,0.14201657598634582,0.0,0.0,-0.2933274230466627,-0.5144944163716455,-0.6014392998924375,1.2123334796479988,0.3082310755875387,-0.1095449102437409
14005,3.0,299.3717,4820.5856,0.0,0.0,0.0,0.14202671713001808,0.0,0.0,-0.3317103602172637,-0.5205956511862905,-0.6130316308415115,1.1903533492037288,0.24508662631566674,-0.1129586410231499
14006,3.0,300.01632,4664.2833,0.0,0.0,0.0,0.14203685827369034,0.0,0.0,-0.2351131245213588,-0.5307263080711084,-0.6519862234535304,1.200885273393149,0.29327915181189873,-0.08237794139181984
14007,3.0,299.08173,4556.5396,0.0,0.0,0.0,0.14204699941736262,0.0,0.0,-0.2509418034760278,-0.5185086092928155,-0.6156238488373434,1.233205013157859,0.30396510014901973,-0.1034237447996289
14008,3.0,299.78549,4761.8364,0.0,0.0,0.0,0.14205714056103486,0.0,0.0,-0.2973714764482797,-0.5327557568288995,-0.6173521191354104,1.2042135973216288,0.3207470549302697,-0.09119970510221011
14009,3.0,298.88085,4855.2158,0.0,0.0,0.0,0.14206728170470712,0.0,0.0,-0.3505612602452027,-0.5478816049842045,-0.5774215133645664,1.1944460690076488,0.3051276830487577,-0.1328351325373069
14010,3.0,298.72164,4941.8922,0.0,0.0,0.0,0.14207742284837938,0.0,0.0,-0.3414407225175757,-0.5697780409702144,-0.5909930662639744,1.1772102795066088,0.3498025487028237,-0.12489935775410688
14011,3.0,300.32152,4932.023,0.0,0.0,0.0,0.14208756399205166,0.0,0.0,-0.31286271272214566,-0.5759699616688094,-0.6103791751272344,1.2123714765267488,0.36253762311467763,-0.12775041048798386
14012,3.0,301.14993,4415.7487,0.0,0.0,0.0,0.14209770513572392,0.0,0.0,-0.2213704944750668,-0.5317194856866275,-0.5891873735257664,1.1757781518152688,0.3159139634107807,-0.14954764928920386
14013,3.0,300.07912999999996,4186.4623,0.0,0.0,0.0,0.14210784627939615,0.0,0.0,-0.18646034029970282,-0.5116008577960734,-0.5745188051405914,1.2044145248164588,0.28298978956391774,-0.12090015080191589
14014,3.0,299.9858,4568.1853,0.0,0.0,0.0,0.14211798742306841,0.0,0.0,-0.25894957981133376,-0.5516382195974534,-0.5780264743367715,1.214457555832629,0.28736556078327274,-0.12100506271726987
14015,3.0,300.01295,4714.6947,0.0,0.0,0.0,0.1421281285667407,0.0,0.0,-0.3150225262378027,-0.5535491079610435,-0.5645778388069944,1.255055143614299,0.3177862570780617,-0.11849713699725688
14016,3.0,299.78407999999996,4557.1673,0.0,0.0,0.0,0.14213826971041296,0.0,0.0,-0.2906944723968107,-0.5399603500749375,-0.5546102645257714,1.190026272071449,0.3122181843335357,-0.17241054348559584
14017,3.0,299.88672,4755.4475,0.0,0.0,0.0,0.14214841085408522,0.0,0.0,-0.3152642066516547,-0.5528292038974945,-0.5774438960592755,1.204232139798459,0.29935971632450376,-0.13768030199798786
14018,3.0,298.96848,5004.6241,0.0,0.0,0.0,0.14215855199775745,0.0,0.0,-0.28336104440055776,-0.5747183546152854,-0.6632013720528794,1.1875817048801887,0.3318410897451657,-0.10971951350097288
14019,3.0,299.90841,4935.0341,0.0,0.0,0.0,0.14216869314142974,0.0,0.0,-0.3200961329335287,-0.5691197019827414,-0.6109113036822514,1.2297091989878488,0.34032189175715566,-0.09955045747711522
14020,3.0,299.67028999999997,4761.5154,0.0,0.0,0.0,0.142178834285102,0.0,0.0,-0.31193051249764475,-0.5238073804257635,-0.6116439037695534,1.1979209089005889,0.3007643342756287,-0.08801995504914321
14021,3.0,300.26518,4492.1021,0.0,0.0,0.0,0.14218897542877426,0.0,0.0,-0.3241002642812057,-0.5054959043535615,-0.5358906817107926,1.196131205248959,0.2884996916202027,-0.1086643857743399
14022,3.0,300.35975,4428.2814,0.0,0.0,0.0,0.14219911657244655,0.0,0.0,-0.2779715671186577,-0.5113608999073915,-0.5567545043873915,1.2082188736419188,0.32399295096311465,-0.1137276674515469
14023,3.0,300.55338,4864.4804,0.0,0.0,0.0,0.14220925771611878,0.0,0.0,-0.3125238210936997,-0.5605090925004405,-0.6056476821952724,1.2056935504176887,0.34690642660449866,-0.1176947543755679
14024,3.0,300.53173,4937.9755,0.0,0.0,0.0,0.14221939885979104,0.0,0.0,-0.28859520057462873,-0.5703643074780744,-0.6420617426990604,1.1653561652616988,0.3201099637973937,-0.1178381900597239
14025,3.0,300.42782,4538.4078,0.0,0.0,0.0,0.1422295400034633,0.0,0.0,-0.2772417129391267,-0.5175104464868046,-0.5848104978638025,1.194802530392829,0.2919297255937207,-0.11988485393671389
14026,3.0,300.19789,4518.0173,0.0,0.0,0.0,0.1422396811471356,0.0,0.0,-0.2721075240199218,-0.5281196816588545,-0.5731372284967404,1.2155177194122588,0.30629748028920767,-0.1122838063240489
14027,3.0,299.5765,5052.2082,0.0,0.0,0.0,0.14224982229080785,0.0,0.0,-0.34565538697103065,-0.5857292826569794,-0.6043604594007335,1.2235290826529188,0.3127562910641427,-0.1054839051679509
14028,3.0,299.49391,5098.5027,0.0,0.0,0.0,0.14225996343448008,0.0,0.0,-0.3338741862033167,-0.5524094549110684,-0.6635338802056954,1.1994542602769187,0.26830484705712676,-0.1228100664454099
14029,3.0,299.84314,4637.9751,0.0,0.0,0.0,0.14227010457815234,0.0,0.0,-0.26939340190455874,-0.5489345035606176,-0.5915007045640744,1.190214837915059,0.29707687398170474,-0.12055143064749989
14030,3.0,299.8898,4374.0245,0.0,0.0,0.0,0.14228024572182463,0.0,0.0,-0.2089831269675288,-0.5120322388936476,-0.6085788830120594,1.1972663493359887,0.3336328401619977,-0.10331423272882091
14031,3.0,300.74447000000004,4527.9306,0.0,0.0,0.0,0.1422903868654969,0.0,0.0,-0.29742768143132675,-0.5179573201784075,-0.5609928383631825,1.2097871821466988,0.35010220728739766,-0.09381957469327111
14032,3.0,301.27603999999997,4725.9175,0.0,0.0,0.0,0.14230052800916915,0.0,0.0,-0.3035453005000887,-0.5339237099541675,-0.5990918932532664,1.188479647118809,0.32433918865478567,-0.1031241368775599
14033,3.0,300.39856000000003,4740.6758,0.0,0.0,0.0,0.14231066915284138,0.0,0.0,-0.35186790704415866,-0.5127723775616935,-0.5764067737869194,1.1877929675260388,0.2999488807276497,-0.13498326327931087
14034,3.0,299.80739,4659.2513,0.0,0.0,0.0,0.14232081029651364,0.0,0.0,-0.2785340830441737,-0.5209463573109024,-0.6168156336049634,1.1985616882638288,0.3102000231818587,-0.11889952900946987
14035,3.0,299.69229,4520.367,0.0,0.0,0.0,0.14233095144018593,0.0,0.0,-0.2617000066777797,-0.5269957542504315,-0.5853829436402985,1.188535375874309,0.32552156032897667,-0.15437019287515186
14036,3.0,299.68694,4772.1014,0.0,0.0,0.0,0.1423410925838582,0.0,0.0,-0.25137218145600276,-0.5374721118043675,-0.6617553831001713,1.1888796782582889,0.2888010828624477,-0.11787295467065488
14037,3.0,300.2152,4986.0886,0.0,0.0,0.0,0.14235123372753045,0.0,0.0,-0.37479939827232067,-0.5369235685977305,-0.6039234750301065,1.1767197651331989,0.2966736207069067,-0.10991939734819989
14038,3.0,299.66848,4696.6802,0.0,0.0,0.0,0.14236137487120268,0.0,0.0,-0.3197994330392467,-0.5030917253112875,-0.6047823260798684,1.2308175932722387,0.3162430974407637,-0.07285876777010052
14039,3.0,299.37119,4528.3501,0.0,0.0,0.0,0.14237151601487497,0.0,0.0,-0.3219754180264997,-0.4877186846615865,-0.5668112649424164,1.223138373414359,0.2976710843703487,-0.09495990763406321
14040,3.0,299.27847,4708.7656,0.0,0.0,0.0,0.14238165715854723,0.0,0.0,-0.26734704200259873,-0.5357949093113406,-0.6282052132090273,1.1938848297772588,0.28253299615383576,-0.09747295128033132
14041,3.0,298.97059,4774.1365,0.0,0.0,0.0,0.14239179830221949,0.0,0.0,-0.2744565011967477,-0.5287614540071924,-0.6480003204751524,1.1861507930889688,0.3152708941023147,-0.1115605585351699
14042,3.0,299.01232999999996,4622.331,0.0,0.0,0.0,0.14240193944589177,0.0,0.0,-0.23742607052462877,-0.5367074930139054,-0.6309396408563944,1.2040606978815387,0.32952059502865066,-0.11549593073106089
14043,3.0,299.3717,4462.6095,0.0,0.0,0.0,0.142412080589564,0.0,0.0,-0.3016304097986037,-0.5115090472045125,-0.5433823996376675,1.2196445857445488,0.3760394238772017,-0.13205561897037488
14044,3.0,299.68007,4479.7468,0.0,0.0,0.0,0.14242222173323626,0.0,0.0,-0.2770103676762947,-0.5298776705823545,-0.5548431397962544,1.2006816101230489,0.3280559116115977,-0.16149733328354585
14045,3.0,300.05756,4640.4463,0.0,0.0,0.0,0.14243236287690852,0.0,0.0,-0.33842521929246866,-0.5438246630413155,-0.5283299107896025,1.2201608366704988,0.3212826690656307,-0.16323468230250884
14046,3.0,300.12001000000004,4753.5279,0.0,0.0,0.0,0.1424425040205808,0.0,0.0,-0.2819144171002867,-0.5336660607187395,-0.6293732980568084,1.212849831898959,0.3173358572761107,-0.13772716481511285
14047,3.0,300.08914,4657.2315,0.0,0.0,0.0,0.14245264516425304,0.0,0.0,-0.26128275028659975,-0.5388322480761025,-0.6155671068317434,1.2136450305774387,0.3195527674349027,-0.12437164696952589
14048,3.0,300.05589,4522.2978,0.0,0.0,0.0,0.1424627863079253,0.0,0.0,-0.22555853071589377,-0.5150474381437246,-0.6340596304318135,1.202319630234709,0.2993108675371827,-0.1034120620259759
14049,3.0,300.10671,4709.09,0.0,0.0,0.0,0.14247292745159756,0.0,0.0,-0.3180786506594187,-0.5459981149033185,-0.5673690185924625,1.1777214641820588,0.33282791428255765,-0.10009442889930101
14050,3.0,299.40971,4924.5669,0.0,0.0,0.0,0.14248306859526982,0.0,0.0,-0.3382823611608697,-0.5307710734605265,-0.6278919264106084,1.211325093148479,0.3345968564396387,-0.07912827302885252
14051,3.0,299.99679,4855.1535,0.0,0.0,0.0,0.1424932097389421,0.0,0.0,-0.35559018261151865,-0.5471902137784694,-0.5730650141621134,1.215263900262209,0.3514504784004617,-0.0974132282929371
14052,3.0,299.80752,4644.5176,0.0,0.0,0.0,0.14250335088261437,0.0,0.0,-0.23916100800835377,-0.5610566427219795,-0.6115997159326924,1.213695085132379,0.3211079948808917,-0.13017468227974086
14053,3.0,299.56397000000004,4605.2061,0.0,0.0,0.0,0.1425134920262866,0.0,0.0,-0.23638964739484175,-0.5366916964448465,-0.6267863286964944,1.219753206155269,0.3074633562517707,-0.13480748465196288
14054,3.0,299.36786,4699.3503,0.0,0.0,0.0,0.1425236331699589,0.0,0.0,-0.2392004740997488,-0.5547952839940314,-0.6344894004617283,1.2125376495431488,0.2996839867540067,-0.14043825731267687
14055,3.0,299.42262,4596.8112,0.0,0.0,0.0,0.14253377431363115,0.0,0.0,-0.3047778077892277,-0.5178720045199875,-0.5746660202476205,1.210716028513369,0.3284939092323247,-0.14125076230286485
14056,3.0,298.40628,4556.6563,0.0,0.0,0.0,0.1425439154573034,0.0,0.0,-0.3109975827330717,-0.5284215491286465,-0.5456905934979686,1.193223684087009,0.3087710770958327,-0.15554526914862285
14057,3.0,299.46272,4620.2954,0.0,0.0,0.0,0.14255405660097567,0.0,0.0,-0.32121464958641766,-0.5381863011373526,-0.5450534719675895,1.1968919534240388,0.3293134664432087,-0.11721893212860789
14058,3.0,299.67511,4599.0611,0.0,0.0,0.0,0.14256419774464793,0.0,0.0,-0.2452572880300098,-0.5414380942857795,-0.6113043737935444,1.1939239412311187,0.3061386938660367,-0.11998168011626988
14059,3.0,300.04225,4879.7916,0.0,0.0,0.0,0.1425743388883202,0.0,0.0,-0.2851853201455997,-0.5492302712648075,-0.6489192065933393,1.2251636577142386,0.3050983899883667,-0.08222196673767633
14060,3.0,300.71602,5024.7696,0.0,0.0,0.0,0.14258448003199245,0.0,0.0,-0.2735343929432428,-0.5681900247509895,-0.6856800722088544,1.212478678387329,0.26223579306565775,-0.1023840387395179
14061,3.0,299.99253,4748.1267,0.0,0.0,0.0,0.1425946211756647,0.0,0.0,-0.2849288564127887,-0.5679082297656785,-0.5904748698978325,1.2258402048060089,0.3035406598146307,-0.08902445370802951
14062,3.0,300.1587,4768.8241,0.0,0.0,0.0,0.14260476231933697,0.0,0.0,-0.30039472090415076,-0.5685817573721504,-0.5806269705859204,1.2203641959655687,0.3303887578468317,-0.1078432276282979
14063,3.0,300.52088,4952.7273,0.0,0.0,0.0,0.14261490346300923,0.0,0.0,-0.35242541751418066,-0.5744326788820915,-0.5786473433355465,1.211592591174879,0.3728978014121477,-0.1022366007174669
14064,3.0,299.72242,4773.7536,0.0,0.0,0.0,0.1426250446066815,0.0,0.0,-0.26805486812495577,-0.5627171063233545,-0.6203299091917954,1.1901530296589589,0.3440928134618167,-0.15230605043393686
14065,3.0,300.30487999999997,4520.827,0.0,0.0,0.0,0.14263518575035375,0.0,0.0,-0.24688481087063377,-0.5288257953885425,-0.5985079065581314,1.1884875504695886,0.3124520019266117,-0.14779023791826085
14066,3.0,299.52063,4399.3951,0.0,0.0,0.0,0.142645326894026,0.0,0.0,-0.2216587843935188,-0.5005135306968396,-0.6151339525464945,1.1913614317282188,0.2794533440648977,-0.13389210437912188
14067,3.0,299.4846,4697.0724,0.0,0.0,0.0,0.14265546803769827,0.0,0.0,-0.32460594700861267,-0.5335840583881465,-0.5696027183054114,1.218904406546499,0.28726251324810276,-0.12541393681739188
14068,3.0,300.81698,4964.8191,0.0,0.0,0.0,0.14266560918137053,0.0,0.0,-0.36413820363514265,-0.5508895696285674,-0.5941532717358624,1.2308961201549888,0.26870716814183276,-0.10927356186696088
14069,3.0,300.52209,4940.6469,0.0,0.0,0.0,0.1426757503250428,0.0,0.0,-0.3452683254328307,-0.5671821144790165,-0.5893828396025574,1.2148497849463387,0.29681403690576474,-0.09645680328504531
14070,3.0,300.56721,4800.7025,0.0,0.0,0.0,0.14268589146871505,0.0,0.0,-0.26171247978651074,-0.5711699628975865,-0.6264112336419755,1.211005514066939,0.33023430813408866,-0.09431246209841532
14071,3.0,301.62846,4832.438,0.0,0.0,0.0,0.1426960326123873,0.0,0.0,-0.27919305024670876,-0.5694408414694354,-0.6203065841744935,1.2042565591258687,0.3372094711599837,-0.08810904202443541
14072,3.0,300.73906,5024.9816,0.0,0.0,0.0,0.1427061737560596,0.0,0.0,-0.27979526531114274,-0.5898355496147364,-0.6578381176835674,1.1893009876498688,0.3205239372582497,-0.12333257925697787
14073,3.0,300.67492999999996,4882.2601,0.0,0.0,0.0,0.14271631489973183,0.0,0.0,-0.3467933276283367,-0.5500754637032215,-0.5872163791662445,1.1853219545071687,0.30260674719746067,-0.11758551588228687
14074,3.0,300.01408,4406.992,0.0,0.0,0.0,0.1427264560434041,0.0,0.0,-0.26288147655938177,-0.5281716917864875,-0.5485623570638894,1.2022748445802887,0.3114653091117327,-0.13258098914722488
14075,3.0,299.46779,4259.3767,0.0,0.0,0.0,0.14273659718707635,0.0,0.0,-0.26439153331591275,-0.5016419164057025,-0.5287107003096835,1.1981887109020188,0.34906398057243265,-0.13370065077272686
14076,3.0,300.46985,4702.0896,0.0,0.0,0.0,0.14274673833074863,0.0,0.0,-0.2557307780861628,-0.5356484136118824,-0.6379386456571423,1.1981534497985389,0.3174475579671347,-0.13499978938844187
14077,3.0,299.59951,4704.9937,0.0,0.0,0.0,0.1427568794744209,0.0,0.0,-0.28407691572870875,-0.5254654223593994,-0.6206582528867004,1.171578838100829,0.30539094568973973,-0.1188042835000699
14078,3.0,299.80998999999997,4657.4945,0.0,0.0,0.0,0.14276702061809315,0.0,0.0,-0.24836036646125978,-0.5416032236545765,-0.6257984402464974,1.2137355138113688,0.2987018940945817,-0.1031256162227059
14079,3.0,300.02165,4820.4436,0.0,0.0,0.0,0.1427771617617654,0.0,0.0,-0.3259428697205567,-0.5378208420912844,-0.6015307761114654,1.224510212724749,0.27741249624348174,-0.09910105167351231
14080,3.0,300.00482,5030.1603,0.0,0.0,0.0,0.14278730290543767,0.0,0.0,-0.34544647506541265,-0.5778463792639975,-0.6057502737678974,1.2311254186526186,0.27248839460001073,-0.11361156925508889
14081,3.0,300.72888,4950.1882,0.0,0.0,0.0,0.14279744404910993,0.0,0.0,-0.3172557395907037,-0.5608014759492964,-0.6266763809281434,1.2032210175236688,0.2973748708361147,-0.1286498016742469
14082,3.0,300.53038,4833.5739,0.0,0.0,0.0,0.1428075851927822,0.0,0.0,-0.2656601325736137,-0.5665042906921204,-0.6371213378614804,1.202198952147799,0.3362179350096267,-0.11785037945842688
14083,3.0,301.02795,4609.6803,0.0,0.0,0.0,0.14281772633645443,0.0,0.0,-0.24445628342845674,-0.5320296212772355,-0.6247418027772154,1.206644688286559,0.37866614303893864,-0.11665260638271589
14084,3.0,300.74875,4555.8083,0.0,0.0,0.0,0.1428278674801267,0.0,0.0,-0.28118980142377276,-0.5186650247107526,-0.5849971486647234,1.192925788557609,0.3671708105219377,-0.12126668389308988
14085,3.0,300.66559,4708.5529,0.0,0.0,0.0,0.14283800862379897,0.0,0.0,-0.3257372914077677,-0.5161906882315545,-0.5893545192622625,1.2176889117265386,0.3203156333026917,-0.10444987330839989
14086,3.0,300.23749,4645.3279999999995,0.0,0.0,0.0,0.14284814976747123,0.0,0.0,-0.3214157594662657,-0.5070053531600326,-0.5836426055335404,1.2080693179271589,0.3128286168562807,-0.1071255932449729
14087,3.0,299.83105,4634.2301,0.0,0.0,0.0,0.14285829091114352,0.0,0.0,-0.26803805830579674,-0.5230943360653915,-0.6175578595682154,1.2136880937066887,0.31039030141813767,-0.11603501018176389
14088,3.0,299.30325,4864.8815,0.0,0.0,0.0,0.14286843205481575,0.0,0.0,-0.2806281974233467,-0.5461441141102275,-0.6520301782428684,1.1935102312152888,0.2952161718955677,-0.14335231393777187
14089,3.0,301.13703,5153.4042,0.0,0.0,0.0,0.142878573198488,0.0,0.0,-0.3148518543909587,-0.5901716142754034,-0.6614827377632634,1.1896964591638988,0.29915205071650874,-0.11538101803721988
14090,3.0,299.60434,4955.7882,0.0,0.0,0.0,0.14288871434216027,0.0,0.0,-0.3168706437576977,-0.5863350339642625,-0.6032301991791854,1.191525476919409,0.2846119219140097,-0.12637368731211188
14091,3.0,300.22778,4831.8139,0.0,0.0,0.0,0.14289885548583256,0.0,0.0,-0.33086322233865767,-0.5515994425161265,-0.5862881204846325,1.2340329398145689,0.29728301971454973,-0.09279082693299161
14092,3.0,299.69456,4710.4931,0.0,0.0,0.0,0.14290899662950482,0.0,0.0,-0.2988650273606817,-0.5562177047494135,-0.5767895492771964,1.2070869719552089,0.2933851479048597,-0.14371197719326786
14093,3.0,299.00453999999996,4260.2595,0.0,0.0,0.0,0.14291913777317705,0.0,0.0,-0.2221857555055268,-0.5124503970774165,-0.5603763466048395,1.220850657338579,0.28571600988547474,-0.12798117819825888
14094,3.0,299.04177000000004,4135.6606,0.0,0.0,0.0,0.1429292789168493,0.0,0.0,-0.18908183109092383,-0.5117662303448944,-0.5562894833864975,1.2071846492648488,0.3280492038959357,-0.15362067151117983
14095,3.0,299.09868,4525.1138,0.0,0.0,0.0,0.14293942006052157,0.0,0.0,-0.24980155260849377,-0.5219030781878236,-0.6038169621795945,1.1959130525024289,0.3671763226024817,-0.12356584969499988
14096,3.0,299.15107,4681.7817,0.0,0.0,0.0,0.14294956120419386,0.0,0.0,-0.30846298827042673,-0.5401664755427805,-0.5745152587652415,1.1854436458441788,0.3585498557561157,-0.14397386181411387
14097,3.0,300.46004,4866.9388,0.0,0.0,0.0,0.14295970234786612,0.0,0.0,-0.3425129640383977,-0.5579243928203504,-0.5789905108794144,1.1970928809188688,0.3458234750301197,-0.1269840793048529
14098,3.0,300.66676,4928.0329,0.0,0.0,0.0,0.14296984349153835,0.0,0.0,-0.3425094885905547,-0.5481718099453454,-0.6073176500825854,1.200139116019509,0.31075903326202875,-0.12384416923246787
14099,3.0,300.3361,5028.4009,0.0,0.0,0.0,0.1429799846352106,0.0,0.0,-0.29117117617135774,-0.5704197119935425,-0.6669174262646254,1.2470459081988488,0.2757550521274047,-0.09508869678802372
14100,3.0,300.85926,5167.3078,0.0,0.0,0.0,0.1429901257788829,0.0,0.0,-0.3319534287837527,-0.5796154024810865,-0.6591637021268923,1.224058100530129,0.27349021523888273,-0.11917419071407688
14101,3.0,300.34082,4914.0309,0.0,0.0,0.0,0.14300026692255516,0.0,0.0,-0.29153513560727773,-0.5471045130850114,-0.6551030212911344,1.2462575996210488,0.28953966112533974,-0.0975300053669621
14102,3.0,299.91913,4336.2545,0.0,0.0,0.0,0.14301040806622742,0.0,0.0,-0.27309866500273977,-0.5101435407072475,-0.5348708961476475,1.2140801201703788,0.3189918220470417,-0.1036980417341999
14103,3.0,299.848,4205.6696,0.0,0.0,0.0,0.14302054920989965,0.0,0.0,-0.2504433148243308,-0.49700747256831856,-0.5309677453049365,1.2313749821522488,0.33243513801379365,-0.1055283463173369
14104,3.0,298.35607000000005,4607.7695,0.0,0.0,0.0,0.14303069035357194,0.0,0.0,-0.2902170086846887,-0.5224131989506685,-0.5880166643602265,1.2055071123992886,0.3399984724577367,-0.13299196338778485
14105,3.0,300.20939,4854.9376,0.0,0.0,0.0,0.1430408314972442,0.0,0.0,-0.28657286483253974,-0.5535391983750655,-0.6356677292680204,1.2024742521999687,0.2988987483240097,-0.13879885918088086
14106,3.0,299.7786,4660.227,0.0,0.0,0.0,0.14305097264091646,0.0,0.0,-0.24931978258344678,-0.5309605208317235,-0.6363123488491395,1.1928415874742988,0.30566309453409873,-0.14149514809448385
14107,3.0,300.1975,4696.9948,0.0,0.0,0.0,0.14306111378458874,0.0,0.0,-0.2656824342083147,-0.5446336115236525,-0.6174530996403764,1.186554978553859,0.3081319695952577,-0.13919850528532288
14108,3.0,300.03505,5058.3459,0.0,0.0,0.0,0.14307125492826098,0.0,0.0,-0.3522843933652627,-0.5781578624772384,-0.6071686009928754,1.2215433151069388,0.33939235638041765,-0.13427578166198786
14109,3.0,301.38183,5184.6212,0.0,0.0,0.0,0.14308139607193324,0.0,0.0,-0.3725929347220596,-0.5812257608650164,-0.6221766892215583,1.193076864147519,0.3055280282957687,-0.11923126709220988
14110,3.0,300.77743,4852.7393,0.0,0.0,0.0,0.1430915372156055,0.0,0.0,-0.3047420907232027,-0.5928781066175135,-0.5774913870914625,1.2194624033765689,0.33992544752302967,-0.12879035972811886
14111,3.0,300.46632999999997,4466.8737,0.0,0.0,0.0,0.14310167835927778,0.0,0.0,-0.24729182330330277,-0.5102783941630565,-0.6002478494973504,1.2008051253102388,0.2802622621497317,-0.1114159272158959
14112,3.0,300.31789,4406.932,0.0,0.0,0.0,0.14311181950295004,0.0,0.0,-0.2197572280633498,-0.5390166798593046,-0.5808233789853045,1.237627849844359,0.29145176538904977,-0.12573764995933986
14113,3.0,299.62377000000004,4562.8005,0.0,0.0,0.0,0.14312196064662228,0.0,0.0,-0.24778160813664077,-0.5356429825913465,-0.6035528281435265,1.1925368018442186,0.2787249894955147,-0.12562313243303788
14114,3.0,299.72056000000003,4767.9981,0.0,0.0,0.0,0.14313210179029454,0.0,0.0,-0.3139106869030727,-0.5362948063806765,-0.5991468823361934,1.2214336814461189,0.3107654674001637,-0.09366879902539073
14115,3.0,298.75453,4725.3273,0.0,0.0,0.0,0.14314224293396682,0.0,0.0,-0.29803337194360374,-0.5454094469927215,-0.5929386888409924,1.1908026242980687,0.33962215137059665,-0.12154290600285089
14116,3.0,299.04829,4774.9363,0.0,0.0,0.0,0.14315238407763908,0.0,0.0,-0.3156167467589477,-0.5340263015267924,-0.6018183466223465,1.2218439464116089,0.35959116275138464,-0.1077312330947449
14117,3.0,299.39,5069.4602,0.0,0.0,0.0,0.14316252522131134,0.0,0.0,-0.32905972835316666,-0.5622541320876625,-0.6496754660704764,1.236772160134909,0.3295146472505637,-0.10414183514549889
14118,3.0,299.58984,5161.9191,0.0,0.0,0.0,0.14317266636498358,0.0,0.0,-0.3550596347266577,-0.5568854466978145,-0.6571494318555994,1.2173490676429988,0.32602752676641167,-0.0994822748646361
14119,3.0,299.81273,4851.4617,0.0,0.0,0.0,0.14318280750865586,0.0,0.0,-0.3314376642178507,-0.5080282595334855,-0.6352572717850113,1.2436458461632889,0.2795649738284147,-0.1064208980654249
14120,3.0,299.68191,4554.2344,0.0,0.0,0.0,0.14319294865232812,0.0,0.0,-0.33403892040457467,-0.5157870296567165,-0.5345475781732385,1.2087289437422588,0.2895662386754627,-0.11436600488204589
14121,3.0,299.42377,4371.2774,0.0,0.0,0.0,0.14320308979600038,0.0,0.0,-0.26099359910556275,-0.5223944740888204,-0.5453711056089374,1.2058720850853089,0.3069627093773607,-0.12149373297549788
14122,3.0,299.50543999999996,4489.9823,0.0,0.0,0.0,0.14321323093967264,0.0,0.0,-0.27514677782737273,-0.5142096525635415,-0.5754860840835544,1.207858764556379,0.32521568038878873,-0.12842164814922988
14123,3.0,299.43813,4755.5486,0.0,0.0,0.0,0.1432233720833449,0.0,0.0,-0.26258208141983375,-0.5611536208890504,-0.6218323159100714,1.205472560570879,0.31485349585612066,-0.1323057498900609
14124,3.0,299.73213,4631.3355,0.0,0.0,0.0,0.14323351322701716,0.0,0.0,-0.26449773205889376,-0.5374362022208236,-0.6058764132728465,1.205525553551109,0.3226804678435827,-0.13373370299098886
14125,3.0,300.96439,4427.3955,0.0,0.0,0.0,0.14324365437068942,0.0,0.0,-0.23887762222038575,-0.5196022911857535,-0.5873377766607255,1.2235900803089386,0.28280778958095576,-0.14227012230096786
14126,3.0,300.58013,4575.2951,0.0,0.0,0.0,0.14325379551436168,0.0,0.0,-0.29424922732513775,-0.5288909777674755,-0.5676352399237364,1.2117492396403389,0.3073653952321027,-0.13738845557168486
14127,3.0,300.02977999999996,5083.1024,0.0,0.0,0.0,0.14326393665803397,0.0,0.0,-0.3286807120207607,-0.5506451838369485,-0.6658103188078623,1.204047120330199,0.2941259553179717,-0.12252891994016288
14128,3.0,300.25012999999996,5068.0587,0.0,0.0,0.0,0.1432740778017062,0.0,0.0,-0.36615216993140565,-0.5479304031090205,-0.6264807223338333,1.190341595502569,0.32622470523587166,-0.13220564078018088
14129,3.0,300.03988,4702.4992,0.0,0.0,0.0,0.14328421894537846,0.0,0.0,-0.29277171616181874,-0.5296315723980665,-0.6070390569675904,1.1846368961145588,0.33226323000182767,-0.1163529477981419
14130,3.0,299.45977999999997,4519.0189,0.0,0.0,0.0,0.14329436008905072,0.0,0.0,-0.3099719507168497,-0.49090704835375354,-0.5727898964949614,1.188171821738429,0.3328010631549077,-0.1082772431761319
14131,3.0,299.06995,4846.0417,0.0,0.0,0.0,0.143304501232723,0.0,0.0,-0.3090787403561967,-0.5553568373319525,-0.6086400934506004,1.204338733708979,0.2985347787555887,-0.0974977981992835
14132,3.0,300.23716,5126.6399,0.0,0.0,0.0,0.14331464237639527,0.0,0.0,-0.3704546426385266,-0.5706749091637285,-0.6172409554669395,1.1982271130808089,0.3023835180679297,-0.09797296892642922
14133,3.0,299.94099,4832.3098,0.0,0.0,0.0,0.1433247835200675,0.0,0.0,-0.2724295754317057,-0.5614957245203135,-0.6349762164722734,1.221261530254129,0.29986014028389174,-0.10430360052396391
14134,3.0,300.37503,4368.3776,0.0,0.0,0.0,0.14333492466373976,0.0,0.0,-0.2413712611139888,-0.5143776595626225,-0.5721288014672165,1.215270486387859,0.3202422841279527,-0.1094302609949259
14135,3.0,300.51713,4412.9022,0.0,0.0,0.0,0.14334506580741205,0.0,0.0,-0.21928505351674982,-0.5081074348962995,-0.6140195902190154,1.1980799891662888,0.3128457509154717,-0.12321021917490188
14136,3.0,301.06338999999997,4964.8516,0.0,0.0,0.0,0.1433552069510843,0.0,0.0,-0.3306388583690147,-0.5661693912690684,-0.6123826644174634,1.1992991316866088,0.32529277858889766,-0.11249521082491289
14137,3.0,301.64617000000004,5002.2628,0.0,0.0,0.0,0.14336534809475657,0.0,0.0,-0.3185146825749517,-0.5622194485367394,-0.6398288434536904,1.219369083042359,0.3089226593107927,-0.13253189717987987
14138,3.0,301.03037,4546.4465,0.0,0.0,0.0,0.1433754892384288,0.0,0.0,-0.2910646329233427,-0.5356880519557945,-0.5552535364842575,1.2128921857531387,0.3381457547823877,-0.11896100289303688
14139,3.0,300.3235,4531.9771,0.0,0.0,0.0,0.1433856303821011,0.0,0.0,-0.23694848522249476,-0.5367180105499434,-0.6039413690268723,1.203578593483959,0.30014307010931474,-0.15360578686721085
14140,3.0,299.42109,4924.5859,0.0,0.0,0.0,0.14339577152577335,0.0,0.0,-0.31887632166814267,-0.5574965378331245,-0.6205782973213093,1.208730159642379,0.32621624459753673,-0.1134885910904519
14141,3.0,299.72476,4883.6133,0.0,0.0,0.0,0.1434059126694456,0.0,0.0,-0.2984405363637877,-0.5521215297626525,-0.6339344332494574,1.1938014392940288,0.3006731113691257,-0.13083059959947488
14142,3.0,299.29895,4488.9217,0.0,0.0,0.0,0.1434160538131179,0.0,0.0,-0.2816463313888287,-0.5341807411070345,-0.5486930257967855,1.2266410776850487,0.3280055024191227,-0.09492468706058721
14143,3.0,300.00439,4366.4874,0.0,0.0,0.0,0.14342619495679013,0.0,0.0,-0.2578100483513707,-0.5345965586830725,-0.5348965313751775,1.184809148631559,0.3201646185077877,-0.14152308339974085
14144,3.0,299.41935,4637.3196,0.0,0.0,0.0,0.14343633610046239,0.0,0.0,-0.2957408530623497,-0.5604080512004685,-0.5534804805317705,1.204099910660409,0.31991593653574474,-0.1173558931446249
14145,3.0,300.32692000000003,5030.9625,0.0,0.0,0.0,0.14344647724413465,0.0,0.0,-0.31030388131710873,-0.5873235303643194,-0.6316595651849454,1.2161912267537287,0.2997410327346367,-0.14164124862640287
14146,3.0,299.77502999999996,4916.6541,0.0,0.0,0.0,0.14345661838780693,0.0,0.0,-0.3024083122978767,-0.5489863211707314,-0.6431454440785134,1.2237658792012887,0.3169721410202147,-0.08999646148920923
14147,3.0,299.83434,4631.3619,0.0,0.0,0.0,0.1434667595314792,0.0,0.0,-0.24418851182452977,-0.5508540146825585,-0.6127758459862674,1.213198389933359,0.3162089711773957,-0.12390753789372189
14148,3.0,300.75431000000003,4764.3387,0.0,0.0,0.0,0.14347690067515143,0.0,0.0,-0.3073719002977447,-0.5385199542627814,-0.6023481447021334,1.2194095117213488,0.3531413800348407,-0.07909765666383092
14149,3.0,300.85643999999996,5041.5321,0.0,0.0,0.0,0.14348704181882369,0.0,0.0,-0.3333571246772867,-0.5724678754806805,-0.6266748813179954,1.1998476039657386,0.32627501310333673,-0.09499234683601472
14150,3.0,301.66991,4960.3392,0.0,0.0,0.0,0.14349718296249597,0.0,0.0,-0.3459453690171497,-0.5410380428812974,-0.6208358452317274,1.2117463012150487,0.3148101186193397,-0.07824759859843672
14151,3.0,302.05817,4573.2139,0.0,0.0,0.0,0.14350732410616823,0.0,0.0,-0.26212326150955173,-0.5417309336971805,-0.5862886575071855,1.1858366855579687,0.30455808450504274,-0.12699606605353586
14152,3.0,301.2692,4485.4393,0.0,0.0,0.0,0.1435174652498405,0.0,0.0,-0.25790019721276775,-0.5423769009009325,-0.5631844375344764,1.2260243123491787,0.28832466279792873,-0.11266345087151688
14153,3.0,301.42225,4877.606,0.0,0.0,0.0,0.14352760639351272,0.0,0.0,-0.2949114369279927,-0.5617770432780774,-0.6259819499721084,1.2264528158164687,0.28110987625588474,-0.14200551203735287
14154,3.0,300.65595,4981.3957,0.0,0.0,0.0,0.14353774753718498,0.0,0.0,-0.3375175599853897,-0.5716784320627685,-0.6050239254337124,1.2397615519049388,0.3051637142223137,-0.12944439240266686
14155,3.0,300.4095,4692.4171,0.0,0.0,0.0,0.14354788868085727,0.0,0.0,-0.2743670413454188,-0.5808373213066804,-0.5711732458279105,1.2243256998815386,0.32436545209737766,-0.15863352373090986
14156,3.0,300.52447,4683.0838,0.0,0.0,0.0,0.14355802982452953,0.0,0.0,-0.2903389026717187,-0.5528527315648165,-0.5803489043609774,1.211849247425209,0.3464003791070556,-0.13202825108517388
14157,3.0,300.02509,4729.6514,0.0,0.0,0.0,0.1435681709682018,0.0,0.0,-0.26260534564212973,-0.5649208037008425,-0.6101697869940693,1.2065573461279389,0.3226963961351547,-0.1382599519826949
14158,3.0,299.87822,4886.4767,0.0,0.0,0.0,0.14357831211187402,0.0,0.0,-0.29451754608411873,-0.5417243678365324,-0.6491249976886494,1.188809966651409,0.28456774420964975,-0.1047043510710149
14159,3.0,299.77227,4824.0763,0.0,0.0,0.0,0.1435884532555463,0.0,0.0,-0.27218720600778573,-0.5458753900512066,-0.6483361419557954,1.2001916023746888,0.2989624614902977,-0.12559649408790888
14160,3.0,299.01596,4561.2317,0.0,0.0,0.0,0.14359859439921857,0.0,0.0,-0.2822595098193447,-0.5134426627678456,-0.5907983702572595,1.1889582051410388,0.2988778753719497,-0.1064424904250559
14161,3.0,300.24162,4633.7022,0.0,0.0,0.0,0.14360873554289083,0.0,0.0,-0.2932178704458507,-0.5295562980481375,-0.5857556068945775,1.1904992572181288,0.35687556129087566,-0.10903337093075588
14162,3.0,300.54983,4883.1536,0.0,0.0,0.0,0.1436188766865631,0.0,0.0,-0.36000983769270467,-0.5289676706675445,-0.5953792536943574,1.1991986172766889,0.3314591451199707,-0.0971711020490411
14163,3.0,300.67255,4986.4387,0.0,0.0,0.0,0.14362901783023535,0.0,0.0,-0.3053553198162237,-0.5701067089051515,-0.6402908145717834,1.214493526211179,0.3282144041922397,-0.12478973422578789
14164,3.0,301.58398,4672.7858,0.0,0.0,0.0,0.1436391589739076,0.0,0.0,-0.2947400760710807,-0.5333966679146525,-0.5922734597528395,1.2255881081811288,0.3071135215222447,-0.1332110584569079
14165,3.0,300.22186,4504.413,0.0,0.0,0.0,0.14364930011757987,0.0,0.0,-0.24325103256700778,-0.5253716460626445,-0.6006064083102374,1.2292490821174387,0.2825388122094097,-0.14096610995227188
14166,3.0,300.85472000000004,4833.1193,0.0,0.0,0.0,0.14365944126125213,0.0,0.0,-0.3264058034262447,-0.5114869482198314,-0.6312548325650015,1.2253153412542088,0.29826463614642773,-0.09535756574180901
14167,3.0,299.89059,4844.0086,0.0,0.0,0.0,0.1436695824049244,0.0,0.0,-0.29330865765481073,-0.5506669180515934,-0.6284820837988524,1.203243916975929,0.32418977479503974,-0.1126086036436039
14168,3.0,299.45082,4684.198,0.0,0.0,0.0,0.14367972354859665,0.0,0.0,-0.3044387945707697,-0.5302117391403245,-0.5892286735998424,1.2425610606062287,0.3223480306182737,-0.06978765737950553
14169,3.0,298.9221,4618.2915,0.0,0.0,0.0,0.1436898646922689,0.0,0.0,-0.2703309115595837,-0.5120167260346165,-0.6214976495345425,1.201967019199909,0.3509644831224977,-0.1042532318614929
14170,3.0,298.38966,4754.1199,0.0,0.0,0.0,0.1437000058359412,0.0,0.0,-0.2956398826898847,-0.5392173945716134,-0.6102764416995954,1.2269587315913988,0.32604321187795965,-0.08443634681096862
14171,3.0,299.53517999999997,4857.0035,0.0,0.0,0.0,0.14371014697961343,0.0,0.0,-0.30933304586629473,-0.5561788770055816,-0.6108958718832285,1.1936583683799091,0.3004715556592337,-0.15171687589828986
14172,3.0,301.31435,5021.284000000001,0.0,0.0,0.0,0.14372028812328572,0.0,0.0,-0.3425957161740647,-0.5637971093399425,-0.6199521290245115,1.1929156560566088,0.3007839811950677,-0.12424774674729788
14173,3.0,300.54382000000004,4663.2859,0.0,0.0,0.0,0.14373042926695795,0.0,0.0,-0.2939088766165477,-0.5596643357595694,-0.5639492488424575,1.197447417128859,0.32426825101528467,-0.13539149161209987
14174,3.0,300.29492999999997,4313.1768,0.0,0.0,0.0,0.14374057041063024,0.0,0.0,-0.25892670062407575,-0.49214978946890253,-0.5600215672148255,1.1860339653524388,0.33851361523119267,-0.13227020507655288
14175,3.0,300.54893,4611.0958,0.0,0.0,0.0,0.14375071155430247,0.0,0.0,-0.27858446183914576,-0.5397433119035175,-0.5833302002627085,1.183378642140379,0.31703988692190066,-0.15470217413791584
14176,3.0,299.75472,4885.5599,0.0,0.0,0.0,0.14376085269797476,0.0,0.0,-0.29865675380262674,-0.5494009127141485,-0.6370305506525203,1.2173398470670886,0.2629383097574908,-0.13318506859184287
14177,3.0,299.98159,4683.4412,0.0,0.0,0.0,0.14377099384164702,0.0,0.0,-0.26725238417825675,-0.5382550298916354,-0.6181417854683444,1.2334239765044688,0.2842736382356237,-0.1159254981109559
14178,3.0,299.19324,4616.6344,0.0,0.0,0.0,0.14378113498531928,0.0,0.0,-0.2906885651487277,-0.5372850253059035,-0.5753679999169005,1.2489269056844887,0.2983112152535247,-0.09996290295682041
14179,3.0,299.48134,4800.7509,0.0,0.0,0.0,0.1437912761289915,0.0,0.0,-0.3162464918285987,-0.5342136413377815,-0.6088482555511444,1.2038823658639386,0.3050114125997827,-0.1022806365668129
14180,3.0,299.49714,4964.4868,0.0,0.0,0.0,0.1438014172726638,0.0,0.0,-0.3565073563370367,-0.5421758416835896,-0.6103968056789745,1.197015772586259,0.3191839038684987,-0.0983724255531025
14181,3.0,300.28963,5052.0664,0.0,0.0,0.0,0.14381155841633605,0.0,0.0,-0.3310463672942327,-0.5606389303682544,-0.6440167479720044,1.1856208632866687,0.34905453708150064,-0.0949120447390895
14182,3.0,300.21283999999997,4864.2781,0.0,0.0,0.0,0.14382169956000831,0.0,0.0,-0.3267797839056537,-0.5373677267790655,-0.6144715808236234,1.212286464843359,0.3489104529172806,-0.08266845640749142
14183,3.0,300.67669,4501.2278,0.0,0.0,0.0,0.14383184070368057,0.0,0.0,-0.2707683214952527,-0.5230667452651685,-0.5744257786489104,1.175121363100449,0.3436794986135257,-0.14219208177826587
14184,3.0,300.11307,4461.7327,0.0,0.0,0.0,0.14384198184735283,0.0,0.0,-0.3001317318406957,-0.5006080365336665,-0.5555155426951155,1.219299675410509,0.3130212458327917,-0.12860734649505687
14185,3.0,300.14079,4774.4632,0.0,0.0,0.0,0.1438521229910251,0.0,0.0,-0.2991519493914987,-0.5397848956876214,-0.6123807595072754,1.248155518383359,0.3061568209103257,-0.1254064590316539
14186,3.0,299.06385,4692.1038,0.0,0.0,0.0,0.14386226413469735,0.0,0.0,-0.27343554026348676,-0.5424173295799225,-0.6104295032597014,1.271918259728559,0.3020276747653107,-0.12054885699224589
14187,3.0,299.3467,4474.2592,0.0,0.0,0.0,0.14387240527836961,0.0,0.0,-0.21931734579743678,-0.5405150437096815,-0.6002306951731574,1.2415555112069887,0.30256594361593375,-0.13622896308475188
14188,3.0,299.80746,4734.9073,0.0,0.0,0.0,0.14388254642204187,0.0,0.0,-0.27824390848053576,-0.5575164785950925,-0.6035332116215905,1.2110653971478489,0.29672527619700473,-0.13631822028606086
14189,3.0,300.57263,5007.109,0.0,0.0,0.0,0.14389268756571413,0.0,0.0,-0.3084640825805347,-0.5768344261241254,-0.6367376099161094,1.2213225279101487,0.32399766257607965,-0.0986241685536976
14190,3.0,300.64706,4968.8011,0.0,0.0,0.0,0.1439028287093864,0.0,0.0,-0.3436657082796647,-0.5739751255344345,-0.5927506296224324,1.2124762465870886,0.3209775693280197,-0.11122736137228588
14191,3.0,301.31003,4915.9086,0.0,0.0,0.0,0.14391296985305865,0.0,0.0,-0.29098638975062074,-0.5841074340169154,-0.6192196403947204,1.1932615796407489,0.3238241232314527,-0.10926711759632489
14192,3.0,300.22311,4783.8963,0.0,0.0,0.0,0.14392311099673094,0.0,0.0,-0.3098155454314137,-0.5469300922127975,-0.5974393735326754,1.180496857530969,0.2996851823891247,-0.13904061052223987
14193,3.0,298.97664,4786.7689,0.0,0.0,0.0,0.14393325214040317,0.0,0.0,-0.25913800379992974,-0.5430811705154385,-0.6528390557976984,1.2067804637999588,0.3298141335826207,-0.10529849053215191
14194,3.0,299.9102,4868.5128,0.0,0.0,0.0,0.14394339328407543,0.0,0.0,-0.3195089747655807,-0.5713897267117755,-0.5890076128255254,1.217977485355019,0.3455832435639107,-0.14562556080212385
14195,3.0,299.06708,4694.4011,0.0,0.0,0.0,0.1439535344277477,0.0,0.0,-0.28029955988591276,-0.5356264159522115,-0.6110547292339064,1.198780854260459,0.33832192857727467,-0.1116545374819449
14196,3.0,299.20175,4594.5439,0.0,0.0,0.0,0.14396367557141998,0.0,0.0,-0.3117537814152027,-0.5241677428238285,-0.5607051057322855,1.195339451620819,0.3157946937415097,-0.13113081547160388
14197,3.0,300.01851,4700.7559,0.0,0.0,0.0,0.14397381671509224,0.0,0.0,-0.2997366048316997,-0.5231824077640835,-0.6059933929968914,1.208710097290399,0.30647308666403866,-0.1024922031876929
14198,3.0,300.76456,4813.7136,0.0,0.0,0.0,0.14398395785876447,0.0,0.0,-0.31219537607378467,-0.5361997432562945,-0.6148536065088265,1.2241428082384886,0.2959184352748757,-0.10724000944626491
14199,3.0,300.97461,4981.894,0.0,0.0,0.0,0.14399409900243673,0.0,0.0,-0.28326778486135373,-0.5973076915496796,-0.6337959118282864,1.226624359058399,0.2953292708717297,-0.1116008352266449
14200,3.0,300.3672,4943.8862,0.0,0.0,0.0,0.14400424014610902,0.0,0.0,-0.3163037100617457,-0.5665169461858695,-0.6199972794489674,1.2173990208729288,0.2886539184179237,-0.11504484191904188
14201,3.0,298.98984,4869.6042,0.0,0.0,0.0,0.14401438128978128,0.0,0.0,-0.30842971313714274,-0.5595029554161425,-0.6123054243623404,1.2258619896831588,0.3256196226736547,-0.10801056588231289
14202,3.0,300.51597000000004,4736.7741,0.0,0.0,0.0,0.14402452243345354,0.0,0.0,-0.3206115529943967,-0.5363561181442276,-0.5828933678795964,1.2236345619883289,0.3384537118852807,-0.1095136312131539
14203,3.0,300.40631,4625.465999999999,0.0,0.0,0.0,0.14403466357712577,0.0,0.0,-0.2725909659076337,-0.5385219199679755,-0.5949132802383694,1.2157248277326989,0.33189143814263466,-0.12581676452714788
14204,3.0,299.6292,4651.2562,0.0,0.0,0.0,0.14404480472079806,0.0,0.0,-0.2811395340863117,-0.5392669323690025,-0.5934592866098714,1.2014887651527089,0.3082084395803047,-0.14902913881553087
14205,3.0,300.17482,4694.805,0.0,0.0,0.0,0.14405494586447032,0.0,0.0,-0.2684295376144327,-0.5263043934421995,-0.6323695799275184,1.2008649070661388,0.29773780688943374,-0.12263749982087888
14206,3.0,300.4776,4507.1201,0.0,0.0,0.0,0.14406508700814258,0.0,0.0,-0.26399643670441975,-0.5310789799009146,-0.5749765408732664,1.212106815600629,0.3186571556715127,-0.13665451799425085
14207,3.0,300.11235,4550.444,0.0,0.0,0.0,0.14407522815181487,0.0,0.0,-0.2567294677822258,-0.5461703268903145,-0.5803215466082774,1.2062548909730888,0.32313234699067966,-0.12074208378631587
14208,3.0,300.87883,4803.1028,0.0,0.0,0.0,0.1440853692954871,0.0,0.0,-0.3121768437294557,-0.5620528195577944,-0.5857936645683335,1.2110075405671388,0.30477666281661475,-0.10817142946818889
14209,3.0,300.00492,4958.3820000000005,0.0,0.0,0.0,0.14409551043915936,0.0,0.0,-0.3337962064756207,-0.5721112215779814,-0.6013168992803574,1.2165622789403487,0.3010886148376327,-0.1020527870168259
14210,3.0,299.43403,5006.2469,0.0,0.0,0.0,0.14410565158283162,0.0,0.0,-0.3145644561325947,-0.5740605323853635,-0.6331490428319454,1.2321107030498588,0.3182071611696017,-0.11608405148660389
14211,3.0,300.7316,4938.1132,0.0,0.0,0.0,0.1441157927265039,0.0,0.0,-0.27778540267778473,-0.5659671870791124,-0.6573105183564973,1.2463935777844688,0.28925440082468673,-0.12056622409895988
14212,3.0,299.76735,4925.0679,0.0,0.0,0.0,0.14412593387017616,0.0,0.0,-0.2909686376088687,-0.5683013809369795,-0.6378276542411885,1.2069849376701387,0.2985125885783987,-0.13248797278804486
14213,3.0,298.98587000000003,4911.929,0.0,0.0,0.0,0.1441360750138484,0.0,0.0,-0.3307699627994537,-0.5316583157780905,-0.6306754865553245,1.199513940707809,0.31689562037266267,-0.1026125975645749
14214,3.0,298.39346,4855.3367,0.0,0.0,0.0,0.14414621615752066,0.0,0.0,-0.3474971514127987,-0.5164080405105055,-0.6119959169867945,1.193390566378479,0.3241277841539217,-0.08993916624905461
14215,3.0,300.17019,4519.6084,0.0,0.0,0.0,0.14415635730119292,0.0,0.0,-0.2927283895875427,-0.4950178242744555,-0.5861019053812545,1.1966269885228888,0.3242829127442317,-0.09621590408702041
14216,3.0,300.57335,4511.4024,0.0,0.0,0.0,0.1441664984448652,0.0,0.0,-0.25236078931357075,-0.5335820926829524,-0.5854107978855474,1.2063392947064189,0.3113505889354107,-0.10109929131497322
14217,3.0,301.18467999999996,4778.65,0.0,0.0,0.0,0.14417663958853746,0.0,0.0,-0.2622546597825198,-0.5614124657595965,-0.6289231515673824,1.2306408824547987,0.29881035238528575,-0.12417079040220287
14218,3.0,300.5905,4896.6396,0.0,0.0,0.0,0.1441867807322097,0.0,0.0,-0.31381716391884273,-0.5492461488938745,-0.6253928463639684,1.244733367495619,0.3287075428834087,-0.1160392658321839
14219,3.0,301.14761,4808.225,0.0,0.0,0.0,0.14419692187588196,0.0,0.0,-0.28011900885059376,-0.5702264649344705,-0.6112348547041834,1.2275714439268688,0.31387525354707574,-0.12508370847730088
14220,3.0,301.18958,4644.1488,0.0,0.0,0.0,0.14420706301955424,0.0,0.0,-0.30255937775528574,-0.5583879446085994,-0.5507579687055796,1.2317365097879287,0.31250632226447267,-0.13496290708480188
14221,3.0,301.15935,4805.135,0.0,0.0,0.0,0.1442172041632265,0.0,0.0,-0.3023641244610157,-0.5528713044391494,-0.6054056268788834,1.207568975027779,0.3240769696614067,-0.1067336174437879
14222,3.0,300.25956,4923.3636,0.0,0.0,0.0,0.14422734530689876,0.0,0.0,-0.3105114253350917,-0.5749493959030875,-0.6111187767727274,1.2277241407169388,0.3178136857582687,-0.14267777308119986
14223,3.0,299.45276,4701.7795,0.0,0.0,0.0,0.144237486450571,0.0,0.0,-0.25501486622800773,-0.5307786525712744,-0.6434300457666015,1.203532693254429,0.3046281710144597,-0.14344115570653987
14224,3.0,299.18009,4441.0476,0.0,0.0,0.0,0.14424762759424328,0.0,0.0,-0.2559036588182248,-0.5146879876707495,-0.5793759410849534,1.199026567409709,0.3169136764894447,-0.15459620844245783
14225,3.0,299.5217,4571.7284,0.0,0.0,0.0,0.14425776873791554,0.0,0.0,-0.2606454058411988,-0.5341116779802184,-0.5949341937204334,1.2129619986850289,0.32672881742562365,-0.10011781673810921
14226,3.0,299.5585,4728.2959,0.0,0.0,0.0,0.1442679098815878,0.0,0.0,-0.3254744745968297,-0.5248230825910055,-0.5869863308635404,1.2190236660832687,0.3692330176554617,-0.0948548427179441
14227,3.0,299.57158,4940.0991,0.0,0.0,0.0,0.1442780510252601,0.0,0.0,-0.3341510365281397,-0.5467387399314125,-0.6207769956659194,1.2119457088347287,0.32938514375528266,-0.08554085528122511
14228,3.0,300.71975,4997.3542,0.0,0.0,0.0,0.14428819216893232,0.0,0.0,-0.2995800779562517,-0.5708701016629925,-0.6486207233788814,1.2120618272961887,0.30012206543474174,-0.12499431955347888
14229,3.0,300.27036,5033.8374,0.0,0.0,0.0,0.14429833331260458,0.0,0.0,-0.3021869779460327,-0.5732627701841304,-0.6547111366824584,1.2283364477523688,0.29276125942078673,-0.1141314881464009
14230,3.0,300.70038999999997,5257.5949,0.0,0.0,0.0,0.14430847445627684,0.0,0.0,-0.3476011210055596,-0.6068165573781313,-0.6437598890716544,1.2357016614042589,0.3114156598568327,-0.12874767150140587
14231,3.0,300.25757000000004,5148.3266,0.0,0.0,0.0,0.14431861559994913,0.0,0.0,-0.3424877645084107,-0.5685101712525855,-0.6539648070563013,1.2318306407222188,0.28630040188064976,-0.1054970672867499
14232,3.0,300.40587,4659.0254,0.0,0.0,0.0,0.1443287567436214,0.0,0.0,-0.3173097052910297,-0.5314026930428625,-0.5675149975343694,1.2190714914879888,0.31993509709513573,-0.1114440854361749
14233,3.0,300.12723,4501.6557,0.0,0.0,0.0,0.14433889788729362,0.0,0.0,-0.26169202226699173,-0.5205349575053005,-0.5861639466848775,1.238935955723459,0.3275342296651117,-0.08757146218388041
14234,3.0,300.28907999999996,4670.5186,0.0,0.0,0.0,0.14434903903096588,0.0,0.0,-0.2913172159082707,-0.5194547518386925,-0.6089490536710924,1.210296644296979,0.3498187201744197,-0.1145752714251989
14235,3.0,299.22421,4715.7044,0.0,0.0,0.0,0.14435918017463817,0.0,0.0,-0.2823790631986437,-0.5421153303876175,-0.6089619928748693,1.199777081758779,0.3136272605851007,-0.13062741255692187
14236,3.0,299.56606,4716.1279,0.0,0.0,0.0,0.14436932131831043,0.0,0.0,-0.2937594830218037,-0.5511646163682125,-0.5886610103638185,1.1985006906078088,0.3177547044699477,-0.15551166977530687
14237,3.0,300.00771000000003,4926.9479,0.0,0.0,0.0,0.1443794624619827,0.0,0.0,-0.31056478308535773,-0.5811861630511084,-0.6059181693094674,1.2155430506647589,0.3200276068292657,-0.12823995214129788
14238,3.0,300.02406,4923.7512,0.0,0.0,0.0,0.14438960360565492,0.0,0.0,-0.3219219994812277,-0.5864418609223054,-0.5883335583290015,1.2336623942529987,0.3300554796239397,-0.13090618805693488
14239,3.0,299.79983,4711.657999999999,0.0,0.0,0.0,0.1443997447493272,0.0,0.0,-0.29231486195673073,-0.5408888722015754,-0.5990226376089315,1.241886033389609,0.2987981731190837,-0.13300591584166185
14240,3.0,299.07439,4556.6765,0.0,0.0,0.0,0.14440988589299947,0.0,0.0,-0.2320510016591508,-0.5574840849893954,-0.5955807992717485,1.2366349660713687,0.30298108231440474,-0.13194125343158786
14241,3.0,298.4936,4461.3104,0.0,0.0,0.0,0.14442002703667173,0.0,0.0,-0.24426602545717976,-0.5127490424118905,-0.5991119049427414,1.2500176694171388,0.2955759162110717,-0.11648246142592389
14242,3.0,298.6868,4610.8825,0.0,0.0,0.0,0.144430168180344,0.0,0.0,-0.25577584745061077,-0.5391169510892005,-0.6067003375916614,1.2359706793058087,0.3300430166477097,-0.1256792360910749
14243,3.0,299.60996,4802.5142,0.0,0.0,0.0,0.14444030932401625,0.0,0.0,-0.3367076489154577,-0.5319391887058105,-0.5911975705316574,1.2095029654936489,0.29645529570785967,-0.11982857802615988
14244,3.0,299.15937,4838.8477,0.0,0.0,0.0,0.1444504504676885,0.0,0.0,-0.3407359260130177,-0.5199998398624884,-0.6101530987649224,1.1819115573205887,0.3116537837628337,-0.10137220718965789
14245,3.0,299.4511,4858.3114,0.0,0.0,0.0,0.14446059161136077,0.0,0.0,-0.3120833612752297,-0.5365981835931175,-0.6281237985634924,1.1830340357813687,0.3340576655314247,-0.09255641658860711
14246,3.0,300.32312,4945.4815,0.0,0.0,0.0,0.14447073275503303,0.0,0.0,-0.3126157735402747,-0.5561968621948565,-0.6344902313268104,1.1839567013224288,0.3546826955569567,-0.09326206017024871
14247,3.0,300.78173,5069.837,0.0,0.0,0.0,0.14448087389870531,0.0,0.0,-0.3170894145867887,-0.5613323075441855,-0.6626821219066334,1.203240775900619,0.3236530359520677,-0.1055709230865389
14248,3.0,301.59716000000003,4926.2678,0.0,0.0,0.0,0.14449101504237755,0.0,0.0,-0.3086387770302757,-0.5707978366658605,-0.6180257885968964,1.2272484197949889,0.28875831357572673,-0.10684222772200691
14249,3.0,300.19976,4659.0371,0.0,0.0,0.0,0.1445011561860498,0.0,0.0,-0.3060804218527857,-0.5099507698757225,-0.6001997403826024,1.2507521744146288,0.28256937183242575,-0.08391243267451233
14250,3.0,299.53862999999996,4824.115,0.0,0.0,0.0,0.14451129732972207,0.0,0.0,-0.3198099911052887,-0.5414256718395535,-0.6051748287711054,1.2482473188424188,0.3066565254621427,-0.10238221488933791
14251,3.0,299.80177000000003,4746.4586,0.0,0.0,0.0,0.14452143847339435,0.0,0.0,-0.28317939905513073,-0.5550401865432015,-0.6045853097304243,1.2350763847675488,0.28518213854028573,-0.13218388630053388
14252,3.0,299.27352,4618.6974,0.0,0.0,0.0,0.1445315796170666,0.0,0.0,-0.27483595322669674,-0.5260433599514375,-0.6030893675477864,1.217021889185709,0.3100214277192327,-0.12890487725442087
14253,3.0,300.14981,4723.5835,0.0,0.0,0.0,0.14454172076073885,0.0,0.0,-0.27256243278481773,-0.5624065350352035,-0.6008824682999825,1.2006940730992788,0.33658613996346565,-0.13883617718206387
14254,3.0,299.92847,4691.8007,0.0,0.0,0.0,0.1445518619044111,0.0,0.0,-0.26674011532519976,-0.5499977372880505,-0.6094524160557705,1.2163614527705289,0.3478420516143376,-0.12504554947853488
14255,3.0,299.43903,4645.1851,0.0,0.0,0.0,0.1445620030480834,0.0,0.0,-0.3107322834593887,-0.5262681494861224,-0.5750198573150415,1.1743109656704687,0.3355975726359017,-0.13268582000257087
14256,3.0,300.54318,4885.4986,0.0,0.0,0.0,0.14457214419175565,0.0,0.0,-0.3073873928917737,-0.5593384137324034,-0.6183437768757795,1.1953174640936488,0.3159794497647437,-0.1264459117792399
14257,3.0,300.93395,4778.6511,0.0,0.0,0.0,0.1445822853354279,0.0,0.0,-0.2951972646487017,-0.5253942212748725,-0.6319991255584574,1.2069383281655386,0.29985338190572475,-0.1144125130616359
14258,3.0,300.65651,4869.6211,0.0,0.0,0.0,0.14459242647910014,0.0,0.0,-0.29455668793548173,-0.5816453072014225,-0.6040412349567283,1.215854625070509,0.3346791120827567,-0.1074464692866409
14259,3.0,301.07776,5169.9424,0.0,0.0,0.0,0.14460256762277243,0.0,0.0,-0.31285138458602774,-0.5976585800593094,-0.6610234416254344,1.2193147728369989,0.31500114666069273,-0.11598675921200188
14260,3.0,301.18356,4963.1033,0.0,0.0,0.0,0.1446127087664447,0.0,0.0,-0.3213954235367587,-0.5447540565630394,-0.6425100045433004,1.2330720747447386,0.3070070390692357,-0.1085525026982979
14261,3.0,300.41336,4711.5494,0.0,0.0,0.0,0.14462284991011695,0.0,0.0,-0.3047498015564637,-0.5429021596202716,-0.5845414090347454,1.211439894384809,0.29787245769522275,-0.09188865032220372
14262,3.0,300.39267,4763.3937,0.0,0.0,0.0,0.14463299105378924,0.0,0.0,-0.32224093008270366,-0.5159681481120916,-0.6097436747970154,1.226824273303129,0.2950513667668027,-0.1135096666925319
14263,3.0,299.70005,4905.7307,0.0,0.0,0.0,0.14464313219746147,0.0,0.0,-0.3008354036376427,-0.5540462084601034,-0.6363380347391744,1.2266296279589188,0.27840212748365073,-0.1227887071333019
14264,3.0,299.87188,4893.7609999999995,0.0,0.0,0.0,0.14465327334113373,0.0,0.0,-0.3195623325158467,-0.5531601820426595,-0.6148586220968214,1.2056372137121287,0.2991961473608607,-0.13335893217650188
14265,3.0,299.93847,4785.6789,0.0,0.0,0.0,0.144663414484806,0.0,0.0,-0.2853421307310757,-0.5288081141742975,-0.6405766524249934,1.2231375628142789,0.3393366884199237,-0.09918674932721999
14266,3.0,300.05702,4689.758,0.0,0.0,0.0,0.14467355562847828,0.0,0.0,-0.3057100992062377,-0.5349510543630586,-0.5849081650409415,1.2013543068644388,0.36388257076741365,-0.11522188710901489
14267,3.0,299.54112000000003,4806.2682,0.0,0.0,0.0,0.1446836967721505,0.0,0.0,-0.29456647593144775,-0.5586004130220685,-0.6078186414620295,1.1922826787191387,0.3425145548410547,-0.0980973889459585
14268,3.0,300.05811,4942.4612,0.0,0.0,0.0,0.14469383791582277,0.0,0.0,-0.33107808202236266,-0.5306694039454924,-0.6406373157084804,1.1852306606731589,0.3014379936046137,-0.12170250302610189
14269,3.0,301.43082000000004,4852.6861,0.0,0.0,0.0,0.14470397905949503,0.0,0.0,-0.3023698594565817,-0.5526475382870655,-0.6200779949519334,1.2162887014133488,0.3005766702246077,-0.1201988905402069
14270,3.0,300.94162,4729.4507,0.0,0.0,0.0,0.14471412020316732,0.0,0.0,-0.2832353912556567,-0.5301979792039665,-0.6242015479563964,1.2315030569648888,0.3152941380596087,-0.1135103658351009
14271,3.0,300.83952,4787.9507,0.0,0.0,0.0,0.14472426134683955,0.0,0.0,-0.24565588035434777,-0.5960030003234165,-0.6137585668607544,1.2329892922115688,0.3082061597675797,-0.14622359114364486
14272,3.0,300.55829,4864.1064,0.0,0.0,0.0,0.14473440249051184,0.0,0.0,-0.3132054547009717,-0.5556393922548385,-0.6097220419073803,1.2257104074681988,0.3099918205513107,-0.12156451862748388
14273,3.0,301.19786,4840.6356,0.0,0.0,0.0,0.14474454363418407,0.0,0.0,-0.3219485263688457,-0.5510082921427845,-0.5984755433499375,1.2247176250202187,0.3200659684780517,-0.11422323794295589
14274,3.0,299.55112,4560.0491,0.0,0.0,0.0,0.14475468477785636,0.0,0.0,-0.2858626069099427,-0.5328872969568814,-0.5673911682396484,1.2242647022255189,0.3160918597308377,-0.13264817776135587
14275,3.0,299.38506,4570.4826,0.0,0.0,0.0,0.14476482592152862,0.0,0.0,-0.27079308532769675,-0.5360142779579905,-0.5825052018987875,1.2087241814667886,0.3067892916227457,-0.14811499470781184
14276,3.0,299.38953,4825.1305,0.0,0.0,0.0,0.14477496706520085,0.0,0.0,-0.2934066693369837,-0.5562970624972454,-0.6170154363921825,1.2076894504646687,0.2886661280816287,-0.1285655195309289
14277,3.0,300.72968,4820.5891,0.0,0.0,0.0,0.14478510820887314,0.0,0.0,-0.29437779863032676,-0.5486458083421255,-0.6223150890527175,1.1959982668358387,0.32083459973890965,-0.11236569719713088
14278,3.0,299.3829,4780.585999999999,0.0,0.0,0.0,0.14479524935254537,0.0,0.0,-0.3255982025665407,-0.5095651471526644,-0.6180154129158725,1.1888334740537287,0.3224080251566947,-0.08376904765286133
14279,3.0,299.78672,4768.5155,0.0,0.0,0.0,0.14480539049621766,0.0,0.0,-0.2915958394207687,-0.5597994931904084,-0.5981143095567865,1.1717956736222288,0.3071434833277017,-0.11638639518394288
14280,3.0,299.63687000000004,4879.7584,0.0,0.0,0.0,0.1448155316398899,0.0,0.0,-0.3278319022794897,-0.5470758989021874,-0.6084168947185724,1.188013045447759,0.30722359088060774,-0.09732648597837631
14281,3.0,300.47245,5105.746,0.0,0.0,0.0,0.14482567278356218,0.0,0.0,-0.32275920750885373,-0.5775429412565505,-0.6517171548894755,1.2329943584620688,0.31446064865984974,-0.12107043761372188
14282,3.0,300.92999,5119.8593,0.0,0.0,0.0,0.14483581392723444,0.0,0.0,-0.32368320040754467,-0.5704540611719324,-0.6621721126012994,1.252190280281559,0.3063460251014987,-0.09052988497785401
14283,3.0,300.04974,4727.1775,0.0,0.0,0.0,0.1448459550709067,0.0,0.0,-0.27973500732769574,-0.5420909211927085,-0.6151179938574194,1.216654788674479,0.3172801690506147,-0.14898131341081086
14284,3.0,300.21972,4628.5205,0.0,0.0,0.0,0.14485609621457896,0.0,0.0,-0.29195333432105075,-0.5397062573473604,-0.5752950560422014,1.2064061692130188,0.3009137278703727,-0.0974889626584115
14285,3.0,300.33558,4704.2108,0.0,0.0,0.0,0.14486623735825122,0.0,0.0,-0.29638463164588574,-0.5362581165945555,-0.5973198809483825,1.2050392948281188,0.3229417850443727,-0.12006758345974788
14286,3.0,300.3589,4784.2919,0.0,0.0,0.0,0.14487637850192348,0.0,0.0,-0.3233710281842357,-0.5392077889606655,-0.5917264566863545,1.2217819355054886,0.3228408045394067,-0.09019209069926631
14287,3.0,299.70242,4643.3229,0.0,0.0,0.0,0.14488651964559573,0.0,0.0,-0.2750693959172357,-0.5603874518259355,-0.5759973498190125,1.206345272882009,0.3194037690076977,-0.15387522020130187
14288,3.0,299.65283999999997,4702.1991,0.0,0.0,0.0,0.144896660789268,0.0,0.0,-0.26651986515096276,-0.5492618542704244,-0.6135694031995854,1.2081403467591687,0.3141565013773327,-0.12137459502873989
14289,3.0,300.09128,4840.8805,0.0,0.0,0.0,0.14490680193294025,0.0,0.0,-0.29755059880095774,-0.5480683672426365,-0.6258878291703194,1.220349098539079,0.3222938420029257,-0.1138944788155099
14290,3.0,298.21484,4909.3399,0.0,0.0,0.0,0.14491694307661251,0.0,0.0,-0.3195659802162067,-0.5474641763405075,-0.6252865665609795,1.229329027550329,0.31244068392299473,-0.09822801410910022
14291,3.0,297.86169,4893.8164,0.0,0.0,0.0,0.14492708422028477,0.0,0.0,-0.29404880645535775,-0.5651496462359274,-0.6283995343132054,1.1965850399687488,0.3246367092816487,-0.12021636910443188
14292,3.0,298.1877,4869.9981,0.0,0.0,0.0,0.14493722536395706,0.0,0.0,-0.3053527765584727,-0.5552864265825035,-0.6197186154064654,1.209480775316459,0.31464219268026666,-0.12911828799048286
14293,3.0,299.57934,4764.0458,0.0,0.0,0.0,0.1449473665076293,0.0,0.0,-0.26919784463525875,-0.5550180571610175,-0.6239350733125973,1.2128783042267688,0.3387579199628037,-0.1143395489219349
14294,3.0,299.84112999999996,4682.2934,0.0,0.0,0.0,0.14495750765130155,0.0,0.0,-0.28529429519385474,-0.5332594941161145,-0.6047464671588295,1.2415054566520487,0.3133971818848937,-0.12703866308773987
14295,3.0,299.97731,4647.831,0.0,0.0,0.0,0.1449676487949738,0.0,0.0,-0.3045575272174877,-0.5161698051469935,-0.5920972352954474,1.2158461137696688,0.3043294851499817,-0.11497106717926088
14296,3.0,299.55804,4655.621,0.0,0.0,0.0,0.1449777899386461,0.0,0.0,-0.3004951441215617,-0.5307915917750514,-0.5839057871145145,1.222017921453779,0.2999049360708127,-0.11323741652316288
14297,3.0,300.42985,4728.9184,0.0,0.0,0.0,0.14498793108231836,0.0,0.0,-0.2811871973710157,-0.5543499403100796,-0.6019359950914575,1.217968771404159,0.3216603681729067,-0.11770429919150989
14298,3.0,299.54831,4978.4982,0.0,0.0,0.0,0.1449980722259906,0.0,0.0,-0.3147916268050147,-0.5598520200755924,-0.6386954826868364,1.2250199788500589,0.3287185467794947,-0.1078795425118819
14299,3.0,300.67455,5107.4225,0.0,0.0,0.0,0.14500821336966285,0.0,0.0,-0.30825912235030667,-0.5935665897954614,-0.6507031853819043,1.1929808080380386,0.3347787956275947,-0.14750388330749986
14300,3.0,300.39025,4825.9538,0.0,0.0,0.0,0.14501835451333514,0.0,0.0,-0.2916545775290657,-0.5633573385315405,-0.6119575350730064,1.1968671287965889,0.3141195481461857,-0.12143859190505588
14301,3.0,299.52342000000004,4817.2422,0.0,0.0,0.0,0.1450284956570074,0.0,0.0,-0.2990769384865957,-0.5505952711370224,-0.6146491225061455,1.210368585054079,0.3231565231380657,-0.09707853455965541
14302,3.0,300.15612999999996,4817.7661,0.0,0.0,0.0,0.14503863680067966,0.0,0.0,-0.30068395314519575,-0.5346602921143625,-0.6291363596534244,1.2182875398856188,0.3195813005577187,-0.11343530426769288
14303,3.0,301.09072000000003,4616.2959,0.0,0.0,0.0,0.1450487779443519,0.0,0.0,-0.24679827931209378,-0.5415285775197094,-0.6149118278595724,1.214371632224149,0.3003015424249547,-0.12833265439294686
14304,3.0,301.00739,4711.2582,0.0,0.0,0.0,0.14505891908802418,0.0,0.0,-0.26484595572076075,-0.5426069998661415,-0.6246519072283434,1.214308405417909,0.2970880906603117,-0.1281843044458059
14305,3.0,301.31657,4805.5986,0.0,0.0,0.0,0.14506906023169644,0.0,0.0,-0.26496181073719477,-0.5644735956367064,-0.6313465722290554,1.2436689482655687,0.33360009191876566,-0.12653709415573888
14306,3.0,299.87259,4613.2981,0.0,0.0,0.0,0.1450792013753687,0.0,0.0,-0.2913215830162017,-0.5265493770513775,-0.5844564682788624,1.2380566572866787,0.3326508994900877,-0.13763907285141888
14307,3.0,299.77211,5003.112,0.0,0.0,0.0,0.14508934251904096,0.0,0.0,-0.3414065557242037,-0.5899055347991434,-0.5895090399025125,1.203743145300199,0.3401852853786737,-0.12983844536655686
14308,3.0,300.48291,5313.1605,0.0,0.0,0.0,0.14509948366271322,0.0,0.0,-0.37846198327628966,-0.5967716518492765,-0.6398344872567474,1.1977007296538589,0.3054648926820377,-0.12727066696313688
14309,3.0,300.31666,4958.7702,0.0,0.0,0.0,0.14510962480638548,0.0,0.0,-0.31062699664149773,-0.5687388010051495,-0.6279765125289564,1.209022887596269,0.3322368956317287,-0.10893900694894289
14310,3.0,299.61041,4729.3111,0.0,0.0,0.0,0.14511976595005774,0.0,0.0,-0.27048536127232675,-0.5405994575755125,-0.6265076646539924,1.2207059652242989,0.30418090215531773,-0.13732220928014685
14311,3.0,300.37732,4949.2758,0.0,0.0,0.0,0.14512990709373,0.0,0.0,-0.2997002291531097,-0.5418906624429445,-0.6628653681872183,1.207451741991209,0.28684757719965176,-0.12592131167246587
14312,3.0,300.6357,4950.5793,0.0,0.0,0.0,0.14514004823740229,0.0,0.0,-0.32370638356983267,-0.5397852705901586,-0.6413608269423854,1.207648413835619,0.2899228520481577,-0.1080545915991579
14313,3.0,301.87842,4696.725,0.0,0.0,0.0,0.14515018938107452,0.0,0.0,-0.3206141063846487,-0.5154274373287275,-0.5916455689308714,1.220983697076709,0.34322268493844166,-0.0991342366275374
14314,3.0,300.73685,4634.5186,0.0,0.0,0.0,0.14516033052474678,0.0,0.0,-0.2638354717935337,-0.5278861984383114,-0.6170562703712124,1.2270739381277689,0.3413343717870797,-0.10059458333416241
14315,3.0,300.95522,4782.5978,0.0,0.0,0.0,0.14517047166841904,0.0,0.0,-0.2860511220910477,-0.5772464541447895,-0.5904927334970954,1.195636840525169,0.32677230611991565,-0.14936101875328486
14316,3.0,300.06563,4957.0472,0.0,0.0,0.0,0.14518061281209133,0.0,0.0,-0.2780788297742437,-0.5899548800790134,-0.6387848716106583,1.2033211266335488,0.3194994907446447,-0.13194868055482087
14317,3.0,300.06813999999997,5116.5755,0.0,0.0,0.0,0.14519075395576359,0.0,0.0,-0.3397806642162407,-0.5887111865087704,-0.6268193403847524,1.2088646179306488,0.33293928060104866,-0.13908455517907686
14318,3.0,300.55989,5081.9412,0.0,0.0,0.0,0.14520089509943582,0.0,0.0,-0.3361953901949017,-0.5874144290307904,-0.6211733993700415,1.220337344837919,0.3339966070803987,-0.11608700004439489
14319,3.0,301.02936,4756.3998,0.0,0.0,0.0,0.14521103624310808,0.0,0.0,-0.3232056151054107,-0.5324741442286065,-0.5901470125629754,1.218280447134919,0.3035563043961747,-0.1133924843184669
14320,3.0,300.22247999999996,4883.3092,0.0,0.0,0.0,0.14522117738678036,0.0,0.0,-0.30499336661550175,-0.5521379342817715,-0.6272727495395004,1.198316988364679,0.30002634369779474,-0.11745222283163188
14321,3.0,299.55818999999997,5123.5023,0.0,0.0,0.0,0.14523131853045262,0.0,0.0,-0.3443540192050957,-0.5568153905859005,-0.6562473656890724,1.235602768194499,0.3233941404190167,-0.0935652560109218
14322,3.0,299.4817,4823.943,0.0,0.0,0.0,0.14524145967412488,0.0,0.0,-0.2686151346352498,-0.5486771886977224,-0.6490659049428174,1.2095140099197388,0.3184241993410217,-0.13050596439993586
14323,3.0,299.00939,4590.1986,0.0,0.0,0.0,0.14525160081779712,0.0,0.0,-0.2508251074620108,-0.5522994463477114,-0.5921812134637354,1.2315710460465987,0.2965218358419267,-0.12902454209123088
14324,3.0,298.90622,4816.5268,0.0,0.0,0.0,0.1452617419614694,0.0,0.0,-0.31023078545489474,-0.5469910493388135,-0.6068820538645955,1.2201443206938687,0.3125244999712667,-0.1286550199122619
14325,3.0,298.90769,4824.4675,0.0,0.0,0.0,0.14527188310514166,0.0,0.0,-0.3194239022871847,-0.5667609773399535,-0.5803327734193855,1.2532728366883987,0.3330887755208027,-0.1039356286176479
14326,3.0,299.94827999999995,4734.8087,0.0,0.0,0.0,0.14528202424881392,0.0,0.0,-0.2713691281420477,-0.5680126857184874,-0.5998818027662245,1.2450711850789589,0.3113655141093837,-0.12806280562631486
14327,3.0,300.43695,4868.3653,0.0,0.0,0.0,0.1452921653924862,0.0,0.0,-0.3165998222709697,-0.5725519448414774,-0.5907097210060104,1.2286608904343888,0.2797209738138107,-0.13890722627907587
14328,3.0,300.31082999999995,4798.7137,0.0,0.0,0.0,0.14530230653615844,0.0,0.0,-0.26342680776320176,-0.5654548878285525,-0.6298074351946544,1.2265396513500388,0.3026310044048547,-0.13519786965049085
14329,3.0,300.62427,4804.5734,0.0,0.0,0.0,0.1453124476798307,0.0,0.0,-0.3317386906900597,-0.5346414760600056,-0.5940901867846364,1.2151636898273188,0.32877978761553867,-0.10777543106410689
14330,3.0,299.50439,4978.9201,0.0,0.0,0.0,0.14532258882350296,0.0,0.0,-0.3263739671081027,-0.5463401273420725,-0.6407532923149264,1.195472592683959,0.33838294649829664,-0.09005360068884842
14331,3.0,300.00927,4900.9647,0.0,0.0,0.0,0.14533272996717525,0.0,0.0,-0.3397486455130807,-0.5489441598340705,-0.6010780863642884,1.1740899758236591,0.3046524890168597,-0.1114815351598709
14332,3.0,300.03922,4653.3945,0.0,0.0,0.0,0.1453428711108475,0.0,0.0,-0.27433462747471976,-0.5288226644457336,-0.6113584306863795,1.2236431746141787,0.3347342328881967,-0.1167297653778309
14333,3.0,299.76326,4684.8681,0.0,0.0,0.0,0.14535301225451974,0.0,0.0,-0.29355316503644174,-0.5534072934770475,-0.5771224627300524,1.2440794158810788,0.3354398703903377,-0.1376532684853199
14334,3.0,299.1975,4800.4562,0.0,0.0,0.0,0.145363153398192,0.0,0.0,-0.2636421538069547,-0.5636531265007325,-0.6319235472334984,1.2454220735885886,0.3184975181182577,-0.14188736707569288
14335,3.0,299.87534,4859.4564,0.0,0.0,0.0,0.1453732945418643,0.0,0.0,-0.3143941997182917,-0.5593707364105934,-0.6033884789773064,1.2389542955502688,0.27102046878263775,-0.1364459201961639
14336,3.0,298.42545,4762.7042,0.0,0.0,0.0,0.14538343568553655,0.0,0.0,-0.2775019560948107,-0.5566546181925335,-0.6135865777887805,1.2327413499120987,0.29702431669901774,-0.12586717371962286
14337,3.0,298.12876,4702.8194,0.0,0.0,0.0,0.1453935768292088,0.0,0.0,-0.30852198982374973,-0.5309583626090105,-0.5900593157668205,1.2551256658212588,0.3244470187304277,-0.07931066007335272
14338,3.0,298.50206000000003,4777.3644,0.0,0.0,0.0,0.14540371797288104,0.0,0.0,-0.2957972100329117,-0.5365197276378745,-0.6198825592726455,1.2118830899785489,0.3303267672057137,-0.1080279735190309
14339,3.0,299.07641,5025.5713,0.0,0.0,0.0,0.1454138591165533,0.0,0.0,-0.3296347072549127,-0.5695856247762245,-0.6284278546535004,1.2137778676655488,0.30613765021843375,-0.12619545661952186
14340,3.0,299.61773999999997,5153.7316,0.0,0.0,0.0,0.1454240002602256,0.0,0.0,-0.3125913542128647,-0.5785201703154955,-0.6754942134585884,1.1904331933116088,0.3185929865426797,-0.1370893948046699
14341,3.0,300.13765,4942.3444,0.0,0.0,0.0,0.14543414140389785,0.0,0.0,-0.3171732103700587,-0.5753936351444305,-0.6097824518783425,1.2525497814170388,0.3178247200518577,-0.12149946797106387
14342,3.0,300.17582000000004,4657.7046,0.0,0.0,0.0,0.1454442825475701,0.0,0.0,-0.26908284074890876,-0.5359880854429055,-0.6107549794568233,1.2091201596058687,0.30937148857508867,-0.13779848748965187
14343,3.0,300.4979,4663.1241,0.0,0.0,0.0,0.14545442369124234,0.0,0.0,-0.3022592530756657,-0.5307596034693945,-0.5844544316461615,1.2114318897090188,0.2660182962189618,-0.13047603299198188
14344,3.0,300.25775,4695.7779,0.0,0.0,0.0,0.14546456483491463,0.0,0.0,-0.27883431918130475,-0.5442529233285814,-0.6043119956484504,1.2204802131020187,0.3080645378011027,-0.1330006064111379
14345,3.0,299.49054,4745.7142,0.0,0.0,0.0,0.1454747059785869,0.0,0.0,-0.2873073293000257,-0.5626935583910305,-0.5925777286253684,1.2416113412874987,0.3218629979279047,-0.12725698808678687
14346,3.0,300.11032,4760.0653,0.0,0.0,0.0,0.14548484712225915,0.0,0.0,-0.25674525421878375,-0.5718245224621865,-0.6183712156884874,1.2161637676760186,0.33724111496060666,-0.15323244473536485
14347,3.0,300.15159,4966.2809,0.0,0.0,0.0,0.14549498826593144,0.0,0.0,-0.35130268574087564,-0.5396300710723415,-0.6186926186202074,1.2038348444342488,0.29029135084452573,-0.1065339869090859
14348,3.0,300.54405,5080.2856,0.0,0.0,0.0,0.14550512940960367,0.0,0.0,-0.3211011655752177,-0.5700194579390404,-0.6531593340218074,1.208508967145549,0.3103964721112467,-0.12991203772131987
14349,3.0,299.72454,5072.4554,0.0,0.0,0.0,0.14551527055327593,0.0,0.0,-0.3570743102979907,-0.5669429367929114,-0.6178825251652574,1.2475766486012287,0.3142647671505177,-0.08183231431897062
14350,3.0,298.87392,4974.0326,0.0,0.0,0.0,0.1455254116969482,0.0,0.0,-0.28199541631328073,-0.5707494134435814,-0.6592368891816154,1.2072187957932188,0.32704275270410665,-0.1081240296285109
14351,3.0,298.16761,4813.0813,0.0,0.0,0.0,0.14553555284062047,0.0,0.0,-0.3061050944927207,-0.5526290464727405,-0.6043223814619755,1.2158107513411789,0.30367680009806675,-0.1066004257181429
14352,3.0,298.79053,4849.6588,0.0,0.0,0.0,0.14554569398429273,0.0,0.0,-0.2667068908544208,-0.5524647175715225,-0.6550035707938193,1.2034061383169388,0.3404859774783497,-0.14723366977083185
14353,3.0,300.37824,4821.4133,0.0,0.0,0.0,0.14555583512796497,0.0,0.0,-0.3214551039676487,-0.5534862560573405,-0.5906479026174094,1.2352059794553387,0.3517905960615287,-0.11282276418473988
14354,3.0,299.87234,4536.4485,0.0,0.0,0.0,0.14556597627163723,0.0,0.0,-0.23668621556661076,-0.5490079844578694,-0.5932728789889744,1.2113184056978188,0.3090692360702587,-0.15012199997588785
14355,3.0,299.85929,4516.6016,0.0,0.0,0.0,0.14557611741530951,0.0,0.0,-0.2990432681857727,-0.5240227163370156,-0.5498681223352584,1.2388083875358689,0.3190372967115297,-0.1015838244730429
14356,3.0,300.13696,4814.6968,0.0,0.0,0.0,0.14558625855898177,0.0,0.0,-0.29232923997564975,-0.5512586257124905,-0.6199597486652634,1.2575873569392089,0.3102786007271137,-0.12250250451005588
14357,3.0,300.06453999999997,4974.0376,0.0,0.0,0.0,0.14559639970265403,0.0,0.0,-0.3028114237176607,-0.5802074039845124,-0.6289644009789535,1.2772627487060186,0.3123369777752597,-0.1167170085590719
14358,3.0,300.8894,5049.0004,0.0,0.0,0.0,0.14560654084632627,0.0,0.0,-0.29635445705790775,-0.5771974533699534,-0.6612181274996484,1.228358840579579,0.30986012843581373,-0.13979697132438687
14359,3.0,300.50591000000003,5068.1129,0.0,0.0,0.0,0.14561668198999855,0.0,0.0,-0.34952114888505165,-0.5708553588740375,-0.6202032630617964,1.212811024420129,0.2674592797161757,-0.13482650335633986
14360,3.0,298.70931,4937.9228,0.0,0.0,0.0,0.1456268231336708,0.0,0.0,-0.3067484373787137,-0.5407450109523775,-0.6535117728040903,1.2419259554435487,0.32245205087353973,-0.09986771216292581
14361,3.0,298.97997999999995,4874.7802,0.0,0.0,0.0,0.14563696427734307,0.0,0.0,-0.3307647445614387,-0.5515973349559186,-0.5994493881535484,1.225178755140729,0.32811804410772966,-0.1093360895306319
14362,3.0,299.61269,4733.2053,0.0,0.0,0.0,0.14564710542101533,0.0,0.0,-0.2420845689193868,-0.5633045887313345,-0.6333870856779383,1.2439904525222987,0.3259927722879817,-0.0973977184736564
14363,3.0,300.05931,4659.7573,0.0,0.0,0.0,0.1456572465646876,0.0,0.0,-0.2816592908576077,-0.5231607343444444,-0.6116298398581654,1.175773186889779,0.3105317409995967,-0.14216602098569386
14364,3.0,300.68109,4794.3872,0.0,0.0,0.0,0.14566738770835985,0.0,0.0,-0.2594554550562598,-0.5784819403892225,-0.6194365873736314,1.2415819570345987,0.3513214004702227,-0.13956105630360388
14365,3.0,299.92686000000003,4875.6322,0.0,0.0,0.0,0.1456775288520321,0.0,0.0,-0.34424265288660466,-0.5571214529111065,-0.5807063283337525,1.2329788557355386,0.3293902100057827,-0.14014070628831088
14366,3.0,300.78997000000004,5039.2417,0.0,0.0,0.0,0.14568766999570437,0.0,0.0,-0.3030932794979777,-0.5790366137589644,-0.6496737435453064,1.2269490043904387,0.3135630610587647,-0.12079772134930687
14367,3.0,300.38115,5104.8997,0.0,0.0,0.0,0.14569781113937666,0.0,0.0,-0.3591986904576507,-0.5742883920678514,-0.6182749569289874,1.220044414234009,0.27525880275842873,-0.10760333053462189
14368,3.0,299.89238,5031.3489,0.0,0.0,0.0,0.1457079522830489,0.0,0.0,-0.2979920718695277,-0.5483227132827385,-0.6830896577982003,1.237002674532659,0.3056033735732047,-0.10076786024701351
14369,3.0,299.91931,5010.8298,0.0,0.0,0.0,0.14571809342672115,0.0,0.0,-0.3172755688951607,-0.5806864179692874,-0.6252051417829434,1.247670678210509,0.31667121587301567,-0.1050753019326249
14370,3.0,299.98546,4838.2369,0.0,0.0,0.0,0.1457282345703934,0.0,0.0,-0.2611831680667718,-0.5513989304538375,-0.6581210981714953,1.2109193878084388,0.3042359824307537,-0.13554663033491088
14371,3.0,299.44414,4601.1136,0.0,0.0,0.0,0.1457383757140657,0.0,0.0,-0.28281106237877873,-0.5344730029658785,-0.5813395893812505,1.233495511961529,0.32015685701202173,-0.13051803220862687
14372,3.0,300.3984,4749.0474,0.0,0.0,0.0,0.14574851685773793,0.0,0.0,-0.27180577814014173,-0.5513910473680594,-0.6203950206432214,1.238076111688599,0.3529750651634267,-0.12309060500059689
14373,3.0,299.94824,4768.7898,0.0,0.0,0.0,0.1457586580014102,0.0,0.0,-0.3124186153358167,-0.5661355791132314,-0.5710388382021455,1.2614276761432188,0.36412442343378265,-0.12532518624113287
14374,3.0,300.17225,4676.587,0.0,0.0,0.0,0.14576879914508245,0.0,0.0,-0.2130320541021268,-0.5839014402715854,-0.6246321691163954,1.211171889733359,0.3109109802470247,-0.13332136086279386
14375,3.0,298.86674,4914.6299,0.0,0.0,0.0,0.14577894028875474,0.0,0.0,-0.3014820294539597,-0.5924078572461033,-0.6000348845913325,1.213815459244259,0.2960459730649627,-0.14839272656022187
14376,3.0,298.78481,5191.1518,0.0,0.0,0.0,0.145789081432427,0.0,0.0,-0.3095447644746897,-0.5845483801954334,-0.6838873896019304,1.2243984512387187,0.3167160825874437,-0.1119750386210759
14377,3.0,298.72775,5062.1056,0.0,0.0,0.0,0.14579922257609926,0.0,0.0,-0.3468021327717057,-0.5944952436446125,-0.5974563150743474,1.2631561794888089,0.3235379611382107,-0.1286173168760409
14378,3.0,299.55502,4755.7354,0.0,0.0,0.0,0.1458093637197715,0.0,0.0,-0.2803425115576517,-0.5432447293465804,-0.6220375801153294,1.2318615448502688,0.2989520351467687,-0.0923645617351725
14379,3.0,300.0586,4751.0892,0.0,0.0,0.0,0.14581950486344378,0.0,0.0,-0.3234844311354277,-0.5420255665612584,-0.5787024945384894,1.228802036173319,0.28317113093431473,-0.10752882625476888
14380,3.0,299.02407999999997,4817.6265,0.0,0.0,0.0,0.14582964600711604,0.0,0.0,-0.26320952641175777,-0.5607627393979735,-0.6404659041890634,1.244337794656579,0.35010804360797365,-0.0992156634320736
14381,3.0,298.85618,4882.3929,0.0,0.0,0.0,0.1458397871507883,0.0,0.0,-0.33781331755707866,-0.5408166578669485,-0.6054955426927574,1.2493144738477389,0.34459046111593067,-0.10952793830456589
14382,3.0,300.48571,4826.701,0.0,0.0,0.0,0.14584992829446056,0.0,0.0,-0.25940015186580173,-0.5782376660551144,-0.6295587532226113,1.2147629494127687,0.2913948409984317,-0.14840810769673984
14383,3.0,300.5418,4647.9237,0.0,0.0,0.0,0.14586006943813282,0.0,0.0,-0.30463132222227074,-0.5305395154151734,-0.5776819186402665,1.200511992056309,0.2929559047649967,-0.13982174528933186
14384,3.0,300.76642000000004,4930.4832,0.0,0.0,0.0,0.14587021058180508,0.0,0.0,-0.29614246487198576,-0.5631295700415615,-0.6394717335884463,1.2205210470810488,0.31768912692347573,-0.14363498031816888
14385,3.0,299.17616,5174.679,0.0,0.0,0.0,0.14588035172547734,0.0,0.0,-0.34848215210001066,-0.6021074167433754,-0.6223836455544834,1.2476828372117088,0.34170623457377963,-0.1136859114149259
14386,3.0,298.90526,4902.2913,0.0,0.0,0.0,0.1458904928691496,0.0,0.0,-0.2664722119987597,-0.5593958143505684,-0.6643061186369094,1.229990882515649,0.2899288302237477,-0.11987541044578187
14387,3.0,299.63082,4708.7384,0.0,0.0,0.0,0.14590063401282186,0.0,0.0,-0.2850875111134467,-0.5728591926693004,-0.5733921926194034,1.208595600029099,0.3083033912471757,-0.11611329388448988
14388,3.0,299.61498,4791.4069,0.0,0.0,0.0,0.14591077515649412,0.0,0.0,-0.2662057272224597,-0.5799732722839054,-0.6102890667958415,1.2224771263990988,0.3357850543019047,-0.12914028565015387
14389,3.0,299.16665,4954.2316,0.0,0.0,0.0,0.14592091630016638,0.0,0.0,-0.3415001192384377,-0.5716272122702134,-0.5928353575957944,1.232875402900329,0.35424608608886665,-0.11822859532325389
14390,3.0,299.84299,4761.9545,0.0,0.0,0.0,0.14593105744383864,0.0,0.0,-0.2741571769847067,-0.5640044811054085,-0.6093536241710205,1.2334737270843787,0.3089504426285347,-0.1292196535304869
14391,3.0,299.48117,4571.8747,0.0,0.0,0.0,0.1459411985875109,0.0,0.0,-0.2743344957522067,-0.5217565216933594,-0.5936447417756745,1.1947188359345688,0.3020813770206107,-0.11622373814538989
14392,3.0,300.69669,4800.6501,0.0,0.0,0.0,0.14595133973118318,0.0,0.0,-0.2678066117179548,-0.5549056573274245,-0.6365654789891214,1.2499508962355488,0.33554568409828067,-0.12289153175344988
14393,3.0,300.81566000000004,5046.1896,0.0,0.0,0.0,0.14596148087485541,0.0,0.0,-0.36398700645522064,-0.5566258824196975,-0.6133027259057664,1.2355302194873388,0.34238353147062367,-0.13549636299744985
14394,3.0,299.9696,4994.3649,0.0,0.0,0.0,0.14597162201852767,0.0,0.0,-0.29616724896943175,-0.5559236291728905,-0.6660713421661234,1.2527753308892988,0.30013093137311675,-0.13369916129507986
14395,3.0,299.84711,4987.5158,0.0,0.0,0.0,0.14598176316219993,0.0,0.0,-0.3325239493850587,-0.5761094051475715,-0.6074469103978425,1.204428912967879,0.30374908536020073,-0.13010838532569788
14396,3.0,299.57426,4985.2399,0.0,0.0,0.0,0.14599190430587222,0.0,0.0,-0.2715135365462997,-0.5697959450994814,-0.6740789766464154,1.251873335650279,0.3451329349544687,-0.1028352086115449
14397,3.0,299.80735,5008.9791,0.0,0.0,0.0,0.14600204544954448,0.0,0.0,-0.33791593952720667,-0.5681618260007065,-0.6165267863989564,1.2310676633969186,0.35131007233410466,-0.08388855036965533
14398,3.0,299.64339,4927.8839,0.0,0.0,0.0,0.14601218659321674,0.0,0.0,-0.28709068629614476,-0.5415053943574214,-0.6693575959504513,1.2089766833917088,0.31550115518753974,-0.09717244156567331
14399,3.0,298.9988,4856.633,0.0,0.0,0.0,0.14602232773688897,0.0,0.0,-0.3389063509699527,-0.5274899669867065,-0.6098988337848285,1.2117490369903188,0.2977268333908507,-0.0917953796372486
14400,3.0,298.85972999999996,5033.9045,0.0,0.0,0.0,0.14603246888056126,0.0,0.0,-0.29092680051223974,-0.5971144850206115,-0.6421399960042834,1.2359129240501088,0.3258742625562857,-0.13581282126868185
14401,3.0,298.99264,5139.9219,0.0,0.0,0.0,0.14604261002423352,0.0,0.0,-0.35421897151619064,-0.5879051156567174,-0.6202838164447464,1.241615394287899,0.3449825686396287,-0.14203490642275388
14402,3.0,300.23997,4989.1513,0.0,0.0,0.0,0.14605275116790578,0.0,0.0,-0.2810277320702777,-0.5708837805393424,-0.6646659136149183,1.223428061617949,0.2718319199927217,-0.15737867427706584
14403,3.0,300.02337,4730.5033,0.0,0.0,0.0,0.146062892311578,0.0,0.0,-0.2843236015980547,-0.5403194965728825,-0.6133118046266623,1.2048173930562187,0.3046348382001177,-0.1307797141794529
14404,3.0,300.22936,4817.9695,0.0,0.0,0.0,0.14607303345525027,0.0,0.0,-0.25855066324696374,-0.5532241789189755,-0.6527675811356444,1.2375439527360788,0.33044847880772565,-0.1224131662487389
14405,3.0,300.82226,5017.4029,0.0,0.0,0.0,0.14608317459892256,0.0,0.0,-0.3365808609304447,-0.5719180555789175,-0.6166662704077224,1.2242894255279588,0.3578793678999437,-0.1065374319594259
14406,3.0,301.23291,4950.0021,0.0,0.0,0.0,0.14609331574259482,0.0,0.0,-0.29561067068950175,-0.5587892119132015,-0.6502771643773594,1.1795359924611388,0.2917384847698467,-0.11752215735353388
14407,3.0,300.65089,4904.4876,0.0,0.0,0.0,0.14610345688626708,0.0,0.0,-0.3157002284346867,-0.5592751261311574,-0.6158664006462814,1.183829335784859,0.2867180331743667,-0.0977885209312256
14408,3.0,300.71862999999996,5072.4414,0.0,0.0,0.0,0.1461135980299393,0.0,0.0,-0.2850939553840827,-0.5889655325488725,-0.6678360489377864,1.2457013253161489,0.3213876316434897,-0.1000695100395917
14409,3.0,299.79443,5316.6618,0.0,0.0,0.0,0.1461237391736116,0.0,0.0,-0.38507485872892966,-0.5991715955061324,-0.6318859860522914,1.240453804373259,0.34354865762811265,-0.09366190588496041
14410,3.0,300.12327,5215.2381,0.0,0.0,0.0,0.14613388031728386,0.0,0.0,-0.3456432684998347,-0.5841424823378745,-0.6555163969344313,1.2162741106119088,0.26027598498723975,-0.13171087075635088
14411,3.0,299.83026,4830.5248,0.0,0.0,0.0,0.14614402146095612,0.0,0.0,-0.3293879605905607,-0.5475796361894025,-0.5913913140832785,1.216154040475059,0.2949490893017087,-0.12882538778407587
14412,3.0,299.99802,4731.3782,0.0,0.0,0.0,0.1461541626046284,0.0,0.0,-0.26971055931835974,-0.5506820458755864,-0.6178282352248994,1.2512226264360589,0.33914653177365667,-0.13235672650259186
14413,3.0,299.52699,4875.1606,0.0,0.0,0.0,0.14616430374830064,0.0,0.0,-0.3083815837573927,-0.5783755187312194,-0.5951699770187034,1.256082376565679,0.37109404398163065,-0.13231916532138488
14414,3.0,300.28115,4811.2309,0.0,0.0,0.0,0.1461744448919729,0.0,0.0,-0.26394169080151675,-0.5389471405049415,-0.6596052157254664,1.2043868630887289,0.2943149771241267,-0.1348573264243819
14415,3.0,300.0482,4762.6415,0.0,0.0,0.0,0.14618458603564516,0.0,0.0,-0.3120601071854347,-0.5396711583638965,-0.5959928272924124,1.2094966833430287,0.2976770625459387,-0.0923106882406056
14416,3.0,300.17731000000003,4805.5933,0.0,0.0,0.0,0.14619472717931745,0.0,0.0,-0.28766008218983974,-0.5562120001513505,-0.6169082953266084,1.235553220264609,0.3239784614866847,-0.11982347124565587
14417,3.0,301.26588,5019.3769,0.0,0.0,0.0,0.1462048683229897,0.0,0.0,-0.3355104837898067,-0.5942096793689294,-0.5960450907325704,1.2440217619503886,0.34034956361738666,-0.1042780970189469
14418,3.0,301.62387,5048.6011,0.0,0.0,0.0,0.14621500946666194,0.0,0.0,-0.3012118564472957,-0.5940234946630545,-0.6394133298526824,1.211019091618279,0.2748952486225487,-0.14136849183198386
14419,3.0,300.51423,4992.3005,0.0,0.0,0.0,0.1462251506103342,0.0,0.0,-0.33522264983389966,-0.5817078652625964,-0.6006041791600174,1.204118858437279,0.3020821572231877,-0.11087154846716989
14420,3.0,300.65628,4857.7582,0.0,0.0,0.0,0.14623529175400649,0.0,0.0,-0.25932500923838575,-0.5815038169574585,-0.6358083683819004,1.2214784671005388,0.35050637248728567,-0.14804578972598184
14421,3.0,300.19194,4739.2989,0.0,0.0,0.0,0.14624543289767875,0.0,0.0,-0.31238488423998767,-0.5529432857262535,-0.5753003452077234,1.2404497513728587,0.3277561010395087,-0.12220644296333688
14422,3.0,299.66163,4802.7307,0.0,0.0,0.0,0.146255574041351,0.0,0.0,-0.27058983749013776,-0.5511829663275235,-0.6381374149292594,1.2083640723812488,0.2880402536273597,-0.14702941881567386
14423,3.0,299.99377000000004,4938.872,0.0,0.0,0.0,0.14626571518502324,0.0,0.0,-0.3368590690104017,-0.5455280073869224,-0.6189066981013355,1.192459794836619,0.3076761083752677,-0.10418387489214789
14424,3.0,300.64718999999997,4923.775,0.0,0.0,0.0,0.14627585632869552,0.0,0.0,-0.27790380095196976,-0.5662098908755655,-0.6525909615107134,1.2288746862054887,0.36186538233583265,-0.12614107548665487
14425,3.0,300.95652,4896.9547,0.0,0.0,0.0,0.14628599747236778,0.0,0.0,-0.3100251058170957,-0.5582355517935594,-0.6202912942304843,1.2315264630421987,0.35970174886729867,-0.09435915367627341
14426,3.0,301.1924,4802.6353,0.0,0.0,0.0,0.14629613861604004,0.0,0.0,-0.24276542232408174,-0.5656429065171085,-0.6514728805553673,1.2209069940441388,0.3105657558054537,-0.11812631785815988
14427,3.0,299.23004,4843.8523,0.0,0.0,0.0,0.1463062797597123,0.0,0.0,-0.3458063815009327,-0.5258681487441456,-0.6007356078304884,1.2199727774519389,0.2895930188756057,-0.07447269786063303
14428,3.0,298.9279,5206.8874,0.0,0.0,0.0,0.14631642090338456,0.0,0.0,-0.33390060163342367,-0.6022646123638894,-0.6465985598893094,1.2404067895686188,0.3288212802071337,-0.1217385645971609
14429,3.0,299.23887,5112.1418,0.0,0.0,0.0,0.14632656204705682,0.0,0.0,-0.3754374925227956,-0.5826862696916574,-0.5958396948047994,1.2142154903837388,0.3175360856283717,-0.11890013695952989
14430,3.0,299.47556000000003,4747.749,0.0,0.0,0.0,0.14633670319072908,0.0,0.0,-0.26812466079184377,-0.5588310591423314,-0.6162414450382954,1.200459809676159,0.3011811144392617,-0.1350189398153319
14431,3.0,299.72625,4721.5999,0.0,0.0,0.0,0.14634684433440134,0.0,0.0,-0.28389955643120474,-0.5472454055114165,-0.6041034890428724,1.2083102688009388,0.31258679458741473,-0.12380749971134888
14432,3.0,300.37926,5020.8791,0.0,0.0,0.0,0.14635698547807363,0.0,0.0,-0.2899488317807217,-0.5840224628635294,-0.6522505905371214,1.227049620125369,0.3574553531305966,-0.13328267497397586
14433,3.0,300.18306,5000.7932,0.0,0.0,0.0,0.14636712662174586,0.0,0.0,-0.3466541577271017,-0.5510312422575495,-0.6224308630091434,1.2254884043712888,0.33974211004993565,-0.11027052903785389
14434,3.0,299.73062999999996,4664.0924,0.0,0.0,0.0,0.14637726776541812,0.0,0.0,-0.26245380395717377,-0.5464184515748025,-0.6088953818132954,1.201660511044659,0.2955629668747937,-0.13244037029834688
14435,3.0,300.59933,4665.8066,0.0,0.0,0.0,0.14638740890909038,0.0,0.0,-0.29677591843700274,-0.5175976163929075,-0.6039151562467855,1.2179379686011187,0.2951463994936817,-0.09325581348338222
14436,3.0,300.59134,4940.4189,0.0,0.0,0.0,0.14639755005276267,0.0,0.0,-0.25318930365533876,-0.5901282573036245,-0.6584464122486013,1.2359910456328187,0.3435520317509457,-0.12813720858115787
14437,3.0,299.86462,5270.7572,0.0,0.0,0.0,0.14640769119643493,0.0,0.0,-0.3470894601025627,-0.6008216327639784,-0.6542674749936723,1.2350022148602289,0.32181035958520965,-0.10595981860741989
14438,3.0,298.82091,5099.3809,0.0,0.0,0.0,0.14641783234010716,0.0,0.0,-0.3119917938636927,-0.5631505949811364,-0.6749420732140964,1.190819241599709,0.2955599676544977,-0.1112076637903419
14439,3.0,299.31496,4618.5503,0.0,0.0,0.0,0.14642797348377942,0.0,0.0,-0.3423860038008677,-0.5163653725487946,-0.5451725795168445,1.2209567446240488,0.28373738575269974,-0.09490283125593021
14440,3.0,298.51396,4832.1347,0.0,0.0,0.0,0.1464381146274517,0.0,0.0,-0.2943464689372347,-0.5448939762693485,-0.6296078451899565,1.224953104343459,0.3401789120355447,-0.11300347734007489
14441,3.0,299.45729,5212.7464,0.0,0.0,0.0,0.14644825577112397,0.0,0.0,-0.3686737846602697,-0.5808738793702884,-0.6349970792918324,1.2402902658071189,0.34701961677316967,-0.12315441949189487
14442,3.0,299.20565,4980.8151,0.0,0.0,0.0,0.14645839691479623,0.0,0.0,-0.27121143602898473,-0.5727232955658884,-0.6701086878520784,1.201177393396979,0.3022539335126407,-0.13573119384062587
14443,3.0,299.79576000000003,4546.0754,0.0,0.0,0.0,0.14646853805846846,0.0,0.0,-0.25498720450027773,-0.5026512046978115,-0.6242550070316724,1.2314154108312387,0.3035134337844437,-0.11891692651368689
14444,3.0,300.76044,4642.2285,0.0,0.0,0.0,0.14647867920214075,0.0,0.0,-0.25463838302085173,-0.5579628760591484,-0.5985202783418524,1.2268594330815987,0.35698679588685367,-0.13086248658012187
14445,3.0,300.42451,4951.2454,0.0,0.0,0.0,0.146488820345813,0.0,0.0,-0.34611327469122066,-0.5486002222201265,-0.6103414619585125,1.2456574515868186,0.3236184739911567,-0.10992759454150891
14446,3.0,299.25976,5110.054,0.0,0.0,0.0,0.14649896148948527,0.0,0.0,-0.3405861575157367,-0.5696947518119945,-0.6430479187563883,1.2027830908304489,0.3021514027350217,-0.11351855289590888
14447,3.0,300.18895,5042.7196,0.0,0.0,0.0,0.14650910263315756,0.0,0.0,-0.3348173092638957,-0.5730742854005284,-0.6249692571596634,1.2142924973913387,0.2960187166372727,-0.1188919397662209
14448,3.0,300.09477000000004,4905.1887,0.0,0.0,0.0,0.1465192437768298,0.0,0.0,-0.2771112569887517,-0.5659511270650275,-0.6479924981843804,1.2486122915284388,0.3258970910810387,-0.11763143637681889
14449,3.0,300.15345,4817.1742,0.0,0.0,0.0,0.14652938492050205,0.0,0.0,-0.27085276575858674,-0.5854471836966384,-0.6080007123724984,1.237033578660709,0.3216321795551247,-0.12058622565593388
14450,3.0,300.48098999999996,4966.3235,0.0,0.0,0.0,0.1465395260641743,0.0,0.0,-0.3117248429923467,-0.5673135532819885,-0.6305999284953674,1.198727152005159,0.29450026003741275,-0.12228720912880787
14451,3.0,300.79573999999997,4919.8876,0.0,0.0,0.0,0.1465496672078466,0.0,0.0,-0.34061476156605963,-0.5567032237998305,-0.5982049954407365,1.2423765477630189,0.3090691043477457,-0.1042456831482479
14452,3.0,300.36012999999997,4670.2311,0.0,0.0,0.0,0.14655980835151886,0.0,0.0,-0.26433026208236576,-0.5602194346943535,-0.5950839318202115,1.2282214438660186,0.3814868894623246,-0.13223919962349287
14453,3.0,301.2411,4833.3666,0.0,0.0,0.0,0.1465699494951911,0.0,0.0,-0.3153698379745797,-0.5471241498719495,-0.6067287693894674,1.2334133373784186,0.33608743852924766,-0.12681718688088187
14454,3.0,300.37273,5010.1709,0.0,0.0,0.0,0.14658009063886335,0.0,0.0,-0.2776318851551337,-0.5549834749351045,-0.6903514895423873,1.214731133359629,0.3194853964357537,-0.12755279632098088
14455,3.0,300.1916,5139.0969,0.0,0.0,0.0,0.14659023178253563,0.0,0.0,-0.31982464270173466,-0.5798563938848704,-0.6624760876312994,1.231360087375779,0.3139554016299857,-0.08776810059103711
14456,3.0,299.39301,5029.1178,0.0,0.0,0.0,0.1466003729262079,0.0,0.0,-0.3106281010841067,-0.5619488094350296,-0.6561493033443944,1.247484240192109,0.3393720103184097,-0.10567750686455789
14457,3.0,300.12557999999996,4906.435,0.0,0.0,0.0,0.14661051406988015,0.0,0.0,-0.3260351565396647,-0.5771094728637705,-0.5882890969146135,1.2291736963099988,0.3058376369963247,-0.10669253015223291
14458,3.0,299.3538,4895.8328,0.0,0.0,0.0,0.1466206552135524,0.0,0.0,-0.3019383871664987,-0.5628321811372115,-0.6234403438187714,1.2140288497153187,0.30001188461886774,-0.14134199534186886
14459,3.0,300.29121000000004,4954.5697,0.0,0.0,0.0,0.14663079635722467,0.0,0.0,-0.33440427812563267,-0.5470493213520645,-0.6246118939818944,1.2438849731868886,0.28682837611025674,-0.10696567198168988
14460,3.0,300.71337,4946.9273,0.0,0.0,0.0,0.14664093750089693,0.0,0.0,-0.27103892006695873,-0.6056263836781705,-0.6270770706801884,1.2452004757917188,0.35828116209459765,-0.12719196782786987
14461,3.0,300.23621,4830.8447,0.0,0.0,0.0,0.1466510786445692,0.0,0.0,-0.28949492613342476,-0.5512532656194615,-0.6277079607224524,1.227965496890759,0.33339278094830566,-0.1086555502334679
14462,3.0,300.6266,4787.0391,0.0,0.0,0.0,0.14666121978824145,0.0,0.0,-0.2866120269489047,-0.5432795952825215,-0.6252487318022454,1.1987619064835886,0.31167586248251267,-0.12330395494165287
14463,3.0,301.03044,5039.543,0.0,0.0,0.0,0.14667136093191369,0.0,0.0,-0.31407288797908073,-0.5717587625306965,-0.6460635841015114,1.2060465667525289,0.33444465614211766,-0.12518213559201488
14464,3.0,300.30992000000003,5141.8323,0.0,0.0,0.0,0.14668150207558597,0.0,0.0,-0.3195556146676837,-0.5550048443797135,-0.6884281888650724,1.2160224192870688,0.3656287350622467,-0.0974288130927252
14465,3.0,300.36759,5031.5515,0.0,0.0,0.0,0.14669164321925823,0.0,0.0,-0.3171481121650817,-0.5954675381755704,-0.6168503576858905,1.205339622157759,0.3273821813551057,-0.13351904595730388
14466,3.0,299.24745,4843.7071,0.0,0.0,0.0,0.1467017843629305,0.0,0.0,-0.2708674173550327,-0.5554444632006005,-0.6460541406105795,1.204372170962279,0.3072737062305537,-0.12551113789948487
14467,3.0,299.32909,4715.0997,0.0,0.0,0.0,0.14671192550660278,0.0,0.0,-0.2967329465002617,-0.5462241507356265,-0.5903154755246015,1.2581866943733588,0.3026374790729937,-0.1116940846333479
14468,3.0,300.14932999999996,4875.5939,0.0,0.0,0.0,0.146722066650275,0.0,0.0,-0.2925142594439097,-0.5815408107186094,-0.6080037217252954,1.2792871210808088,0.33020412341360966,-0.09919084083112381
14469,3.0,300.02365,4934.1669,0.0,0.0,0.0,0.14673220779394727,0.0,0.0,-0.3175163171189207,-0.5672221885204715,-0.6151250258131133,1.2566324700449687,0.2937826965815947,-0.13494178082021688
14470,3.0,299.05244,4928.8035,0.0,0.0,0.0,0.14674234893761953,0.0,0.0,-0.29047366493501875,-0.5793253191099574,-0.6284342279966294,1.2204016862192688,0.28226221519711175,-0.12881474865802586
14471,3.0,300.0132,4993.6332,0.0,0.0,0.0,0.14675249008129182,0.0,0.0,-0.3273477409842067,-0.5669718042882604,-0.6236202362415254,1.232086891672509,0.3134875029988077,-0.12733905121238587
14472,3.0,300.7918,4966.5528,0.0,0.0,0.0,0.14676263122496408,0.0,0.0,-0.3023089935230747,-0.5631562489166945,-0.6442427736718114,1.2387314818532789,0.37043646493173266,-0.11215845715417788
14473,3.0,300.69729,4937.4495,0.0,0.0,0.0,0.1467727723686363,0.0,0.0,-0.3286532225455477,-0.5623593378455455,-0.6098487792298884,1.194283037066559,0.3303099168565507,-0.11338736740546189
14474,3.0,300.17242999999996,4939.5445,0.0,0.0,0.0,0.14678291351230857,0.0,0.0,-0.3030267697614137,-0.5359132771880225,-0.6625581608893993,1.1939269809814188,0.3221148311077587,-0.10160112065224991
14475,3.0,300.36319,4760.1037,0.0,0.0,0.0,0.14679305465598086,0.0,0.0,-0.27305337272326974,-0.5578462104426345,-0.6160530818447054,1.2039266448933088,0.3086965525509777,-0.1142614577367279
14476,3.0,299.76445,4906.476,0.0,0.0,0.0,0.14680319579965312,0.0,0.0,-0.2845961456099527,-0.5813843243731655,-0.6254657193111605,1.2549324390271888,0.3303229371203357,-0.12232251076229188
14477,3.0,301.21001,5117.0108,0.0,0.0,0.0,0.14681333694332538,0.0,0.0,-0.33483287278543167,-0.5848847083011264,-0.6357259303537645,1.2498502805006189,0.3101597971528887,-0.13859932997118887
14478,3.0,300.38313,5131.8118,0.0,0.0,0.0,0.1468234780869976,0.0,0.0,-0.3088111004747827,-0.6013457161132014,-0.6497858191388673,1.2208478202382989,0.2885218412673887,-0.14562667537723387
14479,3.0,299.81796,4903.7489,0.0,0.0,0.0,0.1468336192306699,0.0,0.0,-0.3322266922032217,-0.5519771112258995,-0.6064134054283434,1.236783305886009,0.3201528749391287,-0.11288177587056389
14480,3.0,300.60027,5005.0514,0.0,0.0,0.0,0.14684376037434216,0.0,0.0,-0.3213560790353757,-0.5554767250837844,-0.6445778250823784,1.2241993475940687,0.3394858489671447,-0.11442393239026288
14481,3.0,300.73278999999997,5060.1059,0.0,0.0,0.0,0.14685390151801442,0.0,0.0,-0.31865099511090467,-0.5838664527456324,-0.6356283847666374,1.2103653426537588,0.2982440671693977,-0.12912744777138688
14482,3.0,299.39763999999997,4886.3729,0.0,0.0,0.0,0.14686404266168668,0.0,0.0,-0.3025461143114767,-0.5402385074923896,-0.6425507371973204,1.2181124502683387,0.2810395769639467,-0.1086669290320909
14483,3.0,300.07874,4866.7595,0.0,0.0,0.0,0.14687418380535894,0.0,0.0,-0.27391804996110675,-0.5754808050505335,-0.6299744998711424,1.2178249912149688,0.3267084207011107,-0.1185433513343179
14484,3.0,299.78828,4948.0296,0.0,0.0,0.0,0.1468843249490312,0.0,0.0,-0.29486708697111574,-0.5750412672896544,-0.6341691019726174,1.2438152615800089,0.3726193400196657,-0.11835866623859087
14485,3.0,299.78357,5021.3296,0.0,0.0,0.0,0.14689446609270346,0.0,0.0,-0.3175169959964877,-0.5754737122998335,-0.6333680973710644,1.2304723789631686,0.3183772757288907,-0.12822305112962987
14486,3.0,299.72333,4981.0032,0.0,0.0,0.0,0.14690460723637572,0.0,0.0,-0.31600318008208567,-0.5726970523882984,-0.6254003849447124,1.2136587094537887,0.30457296914901166,-0.13192325810981187
14487,3.0,299.2241,4810.8704,0.0,0.0,0.0,0.14691474838004798,0.0,0.0,-0.2857309654569507,-0.5562540702955024,-0.6203994384136574,1.2197663784065687,0.3216722839940827,-0.1278699638672829
14488,3.0,299.40134,4704.6926,0.0,0.0,0.0,0.14692488952372024,0.0,0.0,-0.27618077928942075,-0.5474070189023665,-0.6065212861664904,1.254159734500929,0.32262216543282873,-0.14039050283546387
14489,3.0,300.35226,4911.460999999999,0.0,0.0,0.0,0.1469350306673925,0.0,0.0,-0.28001212109754475,-0.5779286247746145,-0.6350207488141684,1.2151111021471288,0.3018783622305747,-0.13627913922970386
14490,3.0,300.11862,4911.5324,0.0,0.0,0.0,0.14694517181106476,0.0,0.0,-0.3240776890689777,-0.5483272019806814,-0.6205783277188124,1.2400869065120488,0.28515882365548473,-0.12733508940449487
14491,3.0,300.76718,4898.7689,0.0,0.0,0.0,0.14695531295473702,0.0,0.0,-0.30412843606513973,-0.5671759336534065,-0.6177990536220194,1.250820264821349,0.31596483869830166,-0.1130672513013689
14492,3.0,299.98588,4879.4985,0.0,0.0,0.0,0.14696545409840928,0.0,0.0,-0.3067831006646347,-0.5413717973317365,-0.6350908049260824,1.263324379005409,0.3536114470212327,-0.1211906496055859
14493,3.0,300.16716,5103.4485,0.0,0.0,0.0,0.14697559524208154,0.0,0.0,-0.3304884616566717,-0.5707853331596264,-0.6500471160746554,1.2280996512039988,0.3278534845066197,-0.1138088085195549
14494,3.0,300.24009,5287.0984,0.0,0.0,0.0,0.1469857363857538,0.0,0.0,-0.3345230411698537,-0.5861026045238235,-0.6865202490592733,1.2303882792048688,0.2962303541856597,-0.1125528039605969
14495,3.0,300.01027999999997,5195.3898,0.0,0.0,0.0,0.14699587752942606,0.0,0.0,-0.3140421257060447,-0.5829350428562095,-0.6822916118869394,1.2369924407066488,0.35262490619386866,-0.0952263346551075
14496,3.0,299.49617,5084.7415,0.0,0.0,0.0,0.14700601867309832,0.0,0.0,-0.33002839544876666,-0.5787759146407354,-0.6368301297827403,1.2336497286267487,0.3289635202561717,-0.1056439581537469
14497,3.0,299.68127999999996,4927.0855,0.0,0.0,0.0,0.1470161598167706,0.0,0.0,-0.3149677296723947,-0.5576212182579295,-0.6251220147447394,1.2077196453176489,0.2967230369142837,-0.12593119086094087
14498,3.0,298.50768999999997,4941.3691,0.0,0.0,0.0,0.14702630096044284,0.0,0.0,-0.3477563711858817,-0.5500753421132095,-0.6042210969819795,1.207225787218909,0.28807628480091574,-0.12363710144203187
14499,3.0,299.55714,4997.5831,0.0,0.0,0.0,0.14703644210411512,0.0,0.0,-0.3221481265060447,-0.5855117074630064,-0.6114806387809404,1.2629619394446387,0.32907260676193767,-0.13351827588722787
14500,3.0,300.47648,4948.923,0.0,0.0,0.0,0.14704658324778735,0.0,0.0,-0.28556564357063474,-0.5714096978712465,-0.6473736759508073,1.2792357493007387,0.3233523134548887,-0.11664382150434889
14501,3.0,300.87327,4796.2486,0.0,0.0,0.0,0.14705672439145964,0.0,0.0,-0.26030879402547774,-0.5646693758210285,-0.6329616320934495,1.2129107282299687,0.3230026915078837,-0.13526383223200086
14502,3.0,300.42623,4881.1871,0.0,0.0,0.0,0.1470668655351319,0.0,0.0,-0.2943334182759467,-0.5383005146886245,-0.6511250621935404,1.2430243185519487,0.2808418918694367,-0.0944811864785671
14503,3.0,300.85123,5058.9335,0.0,0.0,0.0,0.14707700667880416,0.0,0.0,-0.29697739308688675,-0.5836350770852975,-0.6571770023908203,1.2418702266880488,0.34540834646414964,-0.1100126872849069
14504,3.0,299.93785,5016.7577,0.0,0.0,0.0,0.1470871478224764,0.0,0.0,-0.3158695526588977,-0.5869372084986925,-0.6221623213351405,1.2538988226001788,0.3287248795926197,-0.1106292905007609
14505,3.0,299.57851,4964.2009,0.0,0.0,0.0,0.14709728896614868,0.0,0.0,-0.3167289204662107,-0.5816509915344835,-0.6106132055028314,1.2273723402822188,0.3056761654603887,-0.15150835916021085
14506,3.0,299.09857,4968.9628,0.0,0.0,0.0,0.14710743010982094,0.0,0.0,-0.30329430831781773,-0.5709592879367945,-0.6361870199442704,1.2254899242464388,0.3069288060290147,-0.12725572152416187
14507,3.0,298.72749,4877.4159,0.0,0.0,0.0,0.1471175712534932,0.0,0.0,-0.3160701255161927,-0.5637796105107155,-0.6027629186305684,1.2112593332169888,0.3511318720390177,-0.14095757838642983
14508,3.0,299.30026000000004,4917.646,0.0,0.0,0.0,0.14712771239716546,0.0,0.0,-0.3158666142336077,-0.5483429985497406,-0.6306319775960304,1.2569058449219488,0.3266136412867567,-0.10289507142745291
14509,3.0,299.8481,4886.7065,0.0,0.0,0.0,0.14713785354083772,0.0,0.0,-0.3110483972255867,-0.5670195790304754,-0.6073687786826315,1.2005536366354188,0.32888687801860766,-0.12449804991950088
14510,3.0,299.23148,4873.7753,0.0,0.0,0.0,0.14714799468450998,0.0,0.0,-0.31517203129005766,-0.5343949421781745,-0.6319390296950264,1.2439865008469089,0.28717793726225577,-0.1168182423765629
14511,3.0,300.4821,4984.7478,0.0,0.0,0.0,0.14715813582818224,0.0,0.0,-0.3195762343072187,-0.5488493196247104,-0.6468133283805053,1.226903002835899,0.3194396887237427,-0.12119974859148389
14512,3.0,300.21922,5174.3696,0.0,0.0,0.0,0.14716827697185453,0.0,0.0,-0.2997389150419277,-0.6030341656823385,-0.6701060534018183,1.2272502436451689,0.3310752651870847,-0.13405035377973987
14513,3.0,299.94762000000003,4958.8698,0.0,0.0,0.0,0.14717841811552676,0.0,0.0,-0.28434456574262373,-0.5565370609159315,-0.6664909695625374,1.2082454207945388,0.30389370654697373,-0.1173685689033759
14514,3.0,299.66061,5006.3646,0.0,0.0,0.0,0.14718855925919902,0.0,0.0,-0.2962473970523417,-0.5812047055279385,-0.6443577370281575,1.2296075700028188,0.3099645539911197,-0.10436328095485391
14515,3.0,300.2718,5088.3059,0.0,0.0,0.0,0.14719870040287128,0.0,0.0,-0.3115645265615247,-0.5896591934348314,-0.6454942186053193,1.2500394542942885,0.34518422567453066,-0.09536800424433922
14516,3.0,300.48217,5012.2677,0.0,0.0,0.0,0.14720884154654357,0.0,0.0,-0.3350510052669597,-0.5659904918314125,-0.6225627273771575,1.2726319930989987,0.3297782442640787,-0.1056555294698889
14517,3.0,300.91114,5116.39,0.0,0.0,0.0,0.14721898269021583,0.0,0.0,-0.3260129562299737,-0.6189198602201345,-0.6103219974240914,1.2416205618634089,0.3018785446155927,-0.14123607017641487
14518,3.0,300.01977,5098.1483,0.0,0.0,0.0,0.14722912383388806,0.0,0.0,-0.3269562211455667,-0.5734906602641214,-0.6492629010272594,1.2382868677093988,0.2937263396110327,-0.14533663253610885
14519,3.0,300.73996,4882.9298,0.0,0.0,0.0,0.14723926497756032,0.0,0.0,-0.2998324278936567,-0.5708309294141264,-0.6136253852676103,1.2330745065449789,0.3340453748077117,-0.13277198679107488
14520,3.0,301.16626,4828.6846,0.0,0.0,0.0,0.1472494061212326,0.0,0.0,-0.28215076781861276,-0.5788054711461524,-0.6068433173132725,1.228756338593809,0.32893257559811767,-0.12757008236768688
14521,3.0,301.45997,5014.2086,0.0,0.0,0.0,0.14725954726490487,0.0,0.0,-0.2970340236349757,-0.5799317188973044,-0.6472284670789764,1.2114547891612788,0.3318482331583707,-0.1039330144323899
14522,3.0,300.00067,4844.1474,0.0,0.0,0.0,0.14726968840857713,0.0,0.0,-0.29557508534598975,-0.5780331009924254,-0.5988916649010054,1.2301990040861888,0.3049259044238437,-0.10685967588872891
14523,3.0,300.60921,4981.9091,0.0,0.0,0.0,0.14727982955224936,0.0,0.0,-0.28653002461831173,-0.5842236335383834,-0.6436223099730765,1.2434144198404489,0.3301711218578527,-0.094850707644286
14524,3.0,299.6969,5255.4579,0.0,0.0,0.0,0.14728997069592162,0.0,0.0,-0.34394165681189864,-0.5887750516625735,-0.6648112846067653,1.232512152739479,0.3313296922871947,-0.12431966723939587
14525,3.0,299.76211,5320.2542,0.0,0.0,0.0,0.1473001118395939,0.0,0.0,-0.34980582150064665,-0.6187134307772614,-0.6487051777747164,1.210702856262069,0.3221497679712067,-0.11307057476169688
14526,3.0,299.56322,5176.5452,0.0,0.0,0.0,0.14731025298326617,0.0,0.0,-0.3373580541546477,-0.5722505434667314,-0.6639318949774764,1.228177772786709,0.2969365692403577,-0.11745843405474489
14527,3.0,300.13622999999995,5040.7489,0.0,0.0,0.0,0.14732039412693843,0.0,0.0,-0.30734416764250766,-0.5814741591270315,-0.6434434713304263,1.2478977475579187,0.3450502942763127,-0.09180308743075931
14528,3.0,299.04695,4863.0947,0.0,0.0,0.0,0.14733053527061066,0.0,0.0,-0.3188358220616457,-0.5717287297977325,-0.5876948054659614,1.2576669983970687,0.3199230698164487,-0.12991632376924286
14529,3.0,299.91087999999996,4817.5762,0.0,0.0,0.0,0.14734067641428295,0.0,0.0,-0.2766441993551567,-0.5422573272566314,-0.6455213534429973,1.2150146407376088,0.29954331724262373,-0.11545528926954989
14530,3.0,299.84426,4981.4005,0.0,0.0,0.0,0.1473508175579552,0.0,0.0,-0.3045110697004027,-0.5964061320082025,-0.6133041647209084,1.207615381882359,0.31582606396460566,-0.13672543536874987
14531,3.0,300.70157,5073.5683,0.0,0.0,0.0,0.14736095870162746,0.0,0.0,-0.32228560427961267,-0.5606208033239655,-0.6593316787284703,1.2682326638148187,0.3259995711961527,-0.10678006482837189
14532,3.0,301.01108999999997,5054.5015,0.0,0.0,0.0,0.14737109984529975,0.0,0.0,-0.3098205508869077,-0.5879178218129715,-0.6387038825301654,1.2482842011460589,0.34549800896549865,-0.11696418078846589
14533,3.0,300.99447999999995,5179.4302,0.0,0.0,0.0,0.14738124098897198,0.0,0.0,-0.3079191060142497,-0.6190106879590984,-0.6474876463220554,1.220086464113159,0.3154092838009727,-0.1245340101655499
14534,3.0,301.00909,5326.7775,0.0,0.0,0.0,0.14739138213264424,0.0,0.0,-0.34397552976274165,-0.5708119613722544,-0.7044198693633283,1.2127001748591888,0.3062227936243367,-0.09743045455788721
14535,3.0,300.39744,5071.3236,0.0,0.0,0.0,0.1474015232763165,0.0,0.0,-0.28066246554172875,-0.6120896527535454,-0.6488036352869334,1.2220346400804287,0.3332622236729207,-0.1207514664822419
14536,3.0,300.04632000000004,4867.3682,0.0,0.0,0.0,0.1474116644199888,0.0,0.0,-0.3061013454673507,-0.5534047299542945,-0.6200523090618985,1.2447274906450387,0.3262345438943427,-0.11421157543430488
14537,3.0,299.52626000000004,4962.447,0.0,0.0,0.0,0.14742180556366105,0.0,0.0,-0.3194211563794137,-0.5664398885157644,-0.6225989308032304,1.2205965342134988,0.30283258037974875,-0.13183666575626588
14538,3.0,299.30064,4764.7324,0.0,0.0,0.0,0.14743194670733328,0.0,0.0,-0.2805176721024387,-0.5762531853367614,-0.5915888066602694,1.2207415303028089,0.3172585969559857,-0.12413195252586988
14539,3.0,300.10736,4775.65,0.0,0.0,0.0,0.14744208785100554,0.0,0.0,-0.28188936955781474,-0.5611834712369965,-0.6086055010921865,1.2642688294236186,0.34067170622167964,-0.13872444609353685
14540,3.0,300.74922999999995,4967.5545,0.0,0.0,0.0,0.14745222899467783,0.0,0.0,-0.2955135607999177,-0.5821283944515995,-0.6323705729126164,1.2479651286895688,0.3431531759815817,-0.13106173207978586
14541,3.0,299.80849,4894.5298,0.0,0.0,0.0,0.1474623701383501,0.0,0.0,-0.2906294724028957,-0.5767941798301535,-0.6203911905578433,1.2137224428850788,0.3360365429767247,-0.14252562344618386
14542,3.0,300.52267,5035.589,0.0,0.0,0.0,0.14747251128202235,0.0,0.0,-0.3157175448788957,-0.5555923369201945,-0.6593834152785764,1.193825554646409,0.3246830046787177,-0.1046288335410619
14543,3.0,300.68382,5379.9609,0.0,0.0,0.0,0.14748265242569458,0.0,0.0,-0.37210043437845364,-0.5986572900203745,-0.6646160617099983,1.2094202842854886,0.3165006858811857,-0.1124523098156789
14544,3.0,299.05444,5316.405,0.0,0.0,0.0,0.14749279356936687,0.0,0.0,-0.3593100263786386,-0.5653578691314775,-0.6913864535920303,1.214668311853429,0.3245499953380907,-0.1058973010762499
14545,3.0,298.93606,4890.7688,0.0,0.0,0.0,0.14750293471303913,0.0,0.0,-0.3191584104959827,-0.5373813448604096,-0.6301318474791714,1.2260498462516989,0.28303224474310773,-0.1087741410251719
14546,3.0,299.86269,4942.8867,0.0,0.0,0.0,0.1475130758567114,0.0,0.0,-0.2944954470994377,-0.5589854075300645,-0.6490332580245954,1.219563525736549,0.31669771236313066,-0.11383546712968588
14547,3.0,298.96446000000003,5069.9027,0.0,0.0,0.0,0.14752321700038365,0.0,0.0,-0.3267950130546567,-0.5538259278883635,-0.6605028843865594,1.239894692968079,0.3497063102083257,-0.08018644253228571
14548,3.0,299.26347000000004,5037.1989,0.0,0.0,0.0,0.1475333581440559,0.0,0.0,-0.31631861497071667,-0.5817736251940865,-0.6330904364461615,1.2359204221008486,0.3242885058847837,-0.1265540356974109
14549,3.0,300.26626,4913.9943,0.0,0.0,0.0,0.14754349928772817,0.0,0.0,-0.31177022646432573,-0.5662179968763654,-0.6157433414216364,1.233221326484469,0.2966127243758967,-0.15204402395807687
14550,3.0,300.31583,4899.4644,0.0,0.0,0.0,0.14755364043140043,0.0,0.0,-0.3014221869030537,-0.5744730062360714,-0.6134196448348054,1.2237101504457888,0.29540817265701674,-0.14031946387095287
14551,3.0,300.67869,4964.195,0.0,0.0,0.0,0.1475637815750727,0.0,0.0,-0.3051817196765907,-0.5847912765094054,-0.6190183278648524,1.256416546448659,0.29487658112455273,-0.13736022642389886
14552,3.0,300.65235,5019.3274,0.0,0.0,0.0,0.14757392271874498,0.0,0.0,-0.30975626016806274,-0.5638002402827514,-0.6521936965440064,1.2215618575837688,0.3221953946232097,-0.13303007172404588
14553,3.0,300.03354,5033.4288,0.0,0.0,0.0,0.1475840638624172,0.0,0.0,-0.29889979197161276,-0.5639451147820495,-0.6671917535966994,1.2213103689089488,0.2976605465693087,-0.12128739472513389
14554,3.0,300.50522,4887.6453,0.0,0.0,0.0,0.14759420500608947,0.0,0.0,-0.3071127311871667,-0.5595212445804474,-0.6190881407967423,1.2164482883040988,0.3191673068318607,-0.10264078618235689
14555,3.0,299.90225,4833.8733,0.0,0.0,0.0,0.14760434614976173,0.0,0.0,-0.2833050522000317,-0.5736650507388324,-0.6124066784448334,1.2224018419166687,0.34640411799992465,-0.1096424456983669
14556,3.0,298.785,5225.1683,0.0,0.0,0.0,0.14761448729343402,0.0,0.0,-0.34723724262964767,-0.6002483561224005,-0.6408350818629984,1.2114929886900487,0.3254655275984467,-0.11533447946012688
14557,3.0,298.87764,5360.1372,0.0,0.0,0.0,0.14762462843710628,0.0,0.0,-0.36235060754372067,-0.5943915577618795,-0.6726057110010154,1.224179994517159,0.2975064210965977,-0.1075808769124059
14558,3.0,297.68392,4786.9091,0.0,0.0,0.0,0.1476347695807785,0.0,0.0,-0.25704312948318175,-0.5690766185884895,-0.6289810993406014,1.2214681319495189,0.3371040931495837,-0.1094433927162219
14559,3.0,298.49377000000004,4777.9796,0.0,0.0,0.0,0.14764491072445077,0.0,0.0,-0.2688277449037328,-0.5604492499495344,-0.6231094872636184,1.2700237860165888,0.3237994708565197,-0.09299278490317331
14560,3.0,299.24856,5061.9716,0.0,0.0,0.0,0.14765505186812306,0.0,0.0,-0.33278385816820966,-0.5559302760935465,-0.6499988448398913,1.2049306744173989,0.33880893710533866,-0.089086763522929
14561,3.0,299.18219,4988.7921,0.0,0.0,0.0,0.14766519301179531,0.0,0.0,-0.3196125593233037,-0.5950044626148684,-0.6018511961905885,1.2074797076939687,0.28191804453564473,-0.12257595500980487
14562,3.0,299.96645,5021.3587,0.0,0.0,0.0,0.14767533415546757,0.0,0.0,-0.3461701180218307,-0.5603463949318834,-0.6198511687845475,1.2153970413253488,0.2916459446382137,-0.1112205219341109
14563,3.0,299.99807999999996,5040.2812,0.0,0.0,0.0,0.1476854752991398,0.0,0.0,-0.31855275038120867,-0.5831062111956025,-0.6304606674016234,1.2676876365860288,0.3089303701440537,-0.1086634130542439
14564,3.0,299.26134,4962.9608,0.0,0.0,0.0,0.1476956164428121,0.0,0.0,-0.29254432257437674,-0.5859974088984414,-0.6300744367285054,1.2185253496840889,0.3151485948152447,-0.12707454227378087
14565,3.0,300.76148,5179.3189,0.0,0.0,0.0,0.14770575758648435,0.0,0.0,-0.3272509958646587,-0.5854267160446185,-0.6617058959652874,1.2123726924268687,0.28151079905545273,-0.11931763653073389
14566,3.0,301.01499,5351.2833,0.0,0.0,0.0,0.14771589873015661,0.0,0.0,-0.33591066691680166,-0.5970510960943554,-0.6936947386448403,1.1841399982655187,0.31957039798664266,-0.1012076249759149
14567,3.0,299.56245,5140.2529,0.0,0.0,0.0,0.1477260398738289,0.0,0.0,-0.3188332686713937,-0.5822419696553084,-0.6614333114233854,1.2384305465735788,0.3268986482748847,-0.1005614297908904
14568,3.0,300.1269,4825.0481,0.0,0.0,0.0,0.14773618101750113,0.0,0.0,-0.30220053523237067,-0.5581625065938505,-0.6063310991227204,1.238995433504329,0.3249587302959297,-0.11250778525865389
14569,3.0,300.82776,4927.8692,0.0,0.0,0.0,0.1477463221611734,0.0,0.0,-0.28432451352314475,-0.5860109459197774,-0.6276137284631524,1.2319268994817187,0.28911233302816575,-0.13531906449495187
14570,3.0,300.46258,5037.0592,0.0,0.0,0.0,0.14775646330484565,0.0,0.0,-0.30929551508259073,-0.5623032544525105,-0.6595414518966733,1.221417976069569,0.3365476364596657,-0.10432551712362689
14571,3.0,300.36977,4814.7224,0.0,0.0,0.0,0.14776660444851794,0.0,0.0,-0.27656359530970176,-0.5953650276629534,-0.5916267427440134,1.2458241312282687,0.3314010554917377,-0.13537439808291288
14572,3.0,300.2545,4827.8384,0.0,0.0,0.0,0.1477767455921902,0.0,0.0,-0.27481065237169977,-0.5824698293377965,-0.6102618508981554,1.2305986299256289,0.3372830128522417,-0.1199704431726609
14573,3.0,299.33717,4971.2278,0.0,0.0,0.0,0.14778688673586243,0.0,0.0,-0.3198617073903927,-0.5789124196942075,-0.6123549925572324,1.2332049118328487,0.2849455142444327,-0.14512638314035886
14574,3.0,299.12633,5099.2423,0.0,0.0,0.0,0.1477970278795347,0.0,0.0,-0.32310297287028067,-0.5966462722819025,-0.6302930961000854,1.2202433152286387,0.2874699356760737,-0.13461068108503987
14575,3.0,299.59063,5207.5225,0.0,0.0,0.0,0.14780716902320698,0.0,0.0,-0.3221616837923827,-0.5687929288254915,-0.6920022056778004,1.2227469549007288,0.3076731395524747,-0.14917767114768987
14576,3.0,300.19642999999996,5171.1518,0.0,0.0,0.0,0.14781731016687924,0.0,0.0,-0.32174001976326766,-0.5761509585341724,-0.6740100553746133,1.2250101503240889,0.32829083364728273,-0.11090117590009388
14577,3.0,299.74518,4860.3029,0.0,0.0,0.0,0.1478274513105515,0.0,0.0,-0.2830904052988477,-0.5746858698170795,-0.6196344447206583,1.2175415851619988,0.3206376036544677,-0.1255509484959139
14578,3.0,300.22873,4775.3101,0.0,0.0,0.0,0.14783759245422373,0.0,0.0,-0.2630760307110827,-0.5367586824089575,-0.6517403177867613,1.2102219677646089,0.3528749965835507,-0.07124254266809153
14579,3.0,300.1448,5100.7127,0.0,0.0,0.0,0.14784773359789602,0.0,0.0,-0.33984097286219267,-0.5848008517228505,-0.6258474714188365,1.227369705831959,0.33942084897322966,-0.08467462979723532
14580,3.0,300.40117999999995,5175.1624,0.0,0.0,0.0,0.14785787474156828,0.0,0.0,-0.3398259666282117,-0.5797080338052284,-0.6535861554939314,1.2554808099813088,0.31006130924316866,-0.08817241575193992
14581,3.0,301.01378,4828.4363,0.0,0.0,0.0,0.14786801588524054,0.0,0.0,-0.26840126793664276,-0.5711776129358415,-0.6281451781406024,1.248080943175999,0.2736294256701218,-0.12942364104061888
14582,3.0,300.47769,4886.5676,0.0,0.0,0.0,0.1478781570289128,0.0,0.0,-0.29100438507239673,-0.5733290772706745,-0.6210610805964564,1.2547337406825787,0.2931117831603807,-0.12434655889704987
14583,3.0,300.49212,5204.8427,0.0,0.0,0.0,0.14788829817258506,0.0,0.0,-0.3188637168368987,-0.5697212280371075,-0.6935572608712723,1.2291301265556989,0.3017347340288997,-0.1301277485351089
14584,3.0,300.26001,5291.009,0.0,0.0,0.0,0.14789843931625732,0.0,0.0,-0.3333809664521397,-0.6036796769235454,-0.6712739862620843,1.2100240800200788,0.3248239072376237,-0.13006648743406288
14585,3.0,299.81991,5028.8026,0.0,0.0,0.0,0.14790858045992958,0.0,0.0,-0.3257949250734557,-0.5737519166699054,-0.6290835895882164,1.2120386238688987,0.3341677754197917,-0.12078929110847489
14586,3.0,299.94318,4726.2535,0.0,0.0,0.0,0.14791872160360184,0.0,0.0,-0.3071510624384497,-0.5457051741669076,-0.5838068027122454,1.2313794404526888,0.35647474994881867,-0.1049186534671649
14587,3.0,299.83954,4836.1005,0.0,0.0,0.0,0.1479288627472741,0.0,0.0,-0.28636970818748975,-0.5589465797862325,-0.6247375167292923,1.2231998776954287,0.34480930287252864,-0.1132180837112549
14588,3.0,300.52519,5210.5096,0.0,0.0,0.0,0.14793900389094636,0.0,0.0,-0.3376321889692027,-0.5774109451660234,-0.6688216879725614,1.2087054363399388,0.3121194836412947,-0.1066402667120749
14589,3.0,301.72872,5190.896,0.0,0.0,0.0,0.14794914503461862,0.0,0.0,-0.2916852283445907,-0.6088421253880394,-0.6773754135942484,1.2190851703643388,0.3008380076903997,-0.13536726480220887
14590,3.0,301.2065,4861.9739,0.0,0.0,0.0,0.14795928617829088,0.0,0.0,-0.27870631529617174,-0.5782984002661085,-0.6209139364169345,1.231437601008429,0.3525461969261007,-0.11705190798212388
14591,3.0,301.05002,4880.4788,0.0,0.0,0.0,0.14796942732196317,0.0,0.0,-0.28757856621929473,-0.5663437209487735,-0.6296214126087954,1.2624070836898789,0.3272270223672927,-0.12558521661429586
14592,3.0,301.2228,5341.0852,0.0,0.0,0.0,0.1479795684656354,0.0,0.0,-0.3536913823216217,-0.6211213791099074,-0.6487437623385244,1.243743320822909,0.3198168812059687,-0.12435410761029489
14593,3.0,300.39333,5310.7258,0.0,0.0,0.0,0.14798970960930766,0.0,0.0,-0.3248468472198877,-0.6007531775872225,-0.6887279994371613,1.2428241003321887,0.30153847761703073,-0.13156952236740088
14594,3.0,299.3151,4892.5082,0.0,0.0,0.0,0.14799985075297992,0.0,0.0,-0.2830943063117327,-0.5525900768738945,-0.6515159335521163,1.2808129744063987,0.3102867168604147,-0.12156366749739989
14595,3.0,299.33825,4959.8788,0.0,0.0,0.0,0.1480099918966522,0.0,0.0,-0.27696198498401975,-0.5842775080462005,-0.6464398038636414,1.2477640998697288,0.3264050840186737,-0.1159894037947629
14596,3.0,300.44356,5084.1071,0.0,0.0,0.0,0.14802013304032444,0.0,0.0,-0.34712014131559066,-0.5543876230812984,-0.6439338337163214,1.2160064099354888,0.3044441850613017,-0.10525590363044891
14597,3.0,300.35376,5183.1202,0.0,0.0,0.0,0.14803027418399672,0.0,0.0,-0.35826730083322966,-0.6033163051726834,-0.6139555021501905,1.2159094419009187,0.3090492243807837,-0.1181595119314359
14598,3.0,300.45256,5239.8485,0.0,0.0,0.0,0.14804041532766896,0.0,0.0,-0.3413913873702067,-0.6030721422960864,-0.6483195753166604,1.2435494860787788,0.3555855520585617,-0.1063678138926859
14599,3.0,300.55391000000003,4974.0929,0.0,0.0,0.0,0.14805055647134124,0.0,0.0,-0.2919292493661737,-0.5863909755022835,-0.6336798338968305,1.2568815269195488,0.34789551068961366,-0.1065758037407129
14600,3.0,299.72438,4895.7984,0.0,0.0,0.0,0.14806069761501348,0.0,0.0,-0.26090065367388976,-0.5953194820709584,-0.6319803297691023,1.2255119117736089,0.30403930045384275,-0.14126302262907486
14601,3.0,300.92172,5261.1762,0.0,0.0,0.0,0.14807083875868576,0.0,0.0,-0.3305107734238737,-0.5926154721915934,-0.6761399577473184,1.229664413333429,0.3155957319518737,-0.14283923448463487
14602,3.0,300.93334,5150.9439,0.0,0.0,0.0,0.14808097990235802,0.0,0.0,-0.3227698365024027,-0.6128784071613894,-0.6301100828670234,1.2615555483058387,0.3250220989571837,-0.1277586988738019
14603,3.0,300.55786,4675.4896,0.0,0.0,0.0,0.14809112104603028,0.0,0.0,-0.28328075446263373,-0.5461646526897544,-0.5917866944047994,1.2699489068341987,0.3260988697059527,-0.13699577049542985
14604,3.0,300.03558,4775.594,0.0,0.0,0.0,0.14810126218970254,0.0,0.0,-0.2762503287762847,-0.5543523721103194,-0.6210586386637155,1.2340002118363387,0.30871656424045274,-0.1167238986597519
14605,3.0,299.93608,5072.4482,0.0,0.0,0.0,0.1481114033333748,0.0,0.0,-0.3160331621525447,-0.5794260361698975,-0.6464383853135014,1.2232343281988287,0.3049371312349517,-0.13473997179779987
14606,3.0,299.50835,5212.1283,0.0,0.0,0.0,0.14812154447704706,0.0,0.0,-0.3219408661980897,-0.5843814675064605,-0.6780345327842984,1.2331243584498988,0.3270265609675087,-0.0908399202567021
14607,3.0,299.50202,5103.6948,0.0,0.0,0.0,0.14813168562071932,0.0,0.0,-0.3236726930040077,-0.5722714670812965,-0.6554515995905364,1.2235990982348288,0.30368858419672967,-0.13932855593565788
14608,3.0,299.70497,4960.8966,0.0,0.0,0.0,0.14814182676439158,0.0,0.0,-0.3429009881641927,-0.5638934592919514,-0.6011942352232514,1.229237024441249,0.2946042701601777,-0.1101633879722799
14609,3.0,300.19277999999997,4931.907,0.0,0.0,0.0,0.14815196790806384,0.0,0.0,-0.3229609050737597,-0.5684164658833375,-0.6077992174576125,1.2375897516405987,0.3161833055523627,-0.1299690127744429
14610,3.0,301.06405,5051.9439,0.0,0.0,0.0,0.1481621090517361,0.0,0.0,-0.32545358137976765,-0.5613913293625105,-0.6488198675535354,1.2674456724621488,0.35606999706387266,-0.1106472452925329
14611,3.0,300.72791,5146.9686,0.0,0.0,0.0,0.14817225019540836,0.0,0.0,-0.3077262338577147,-0.5932438088436054,-0.6635799020252373,1.2429062749152988,0.3445937035162507,-0.09767808781607672
14612,3.0,301.64783,4963.8213,0.0,0.0,0.0,0.14818239133908062,0.0,0.0,-0.2906802261004047,-0.5499302446988895,-0.6682672577828433,1.2337642258880488,0.3126165638753527,-0.10039339746055691
14613,3.0,301.52334,4873.4928,0.0,0.0,0.0,0.14819253248275288,0.0,0.0,-0.2873745584441607,-0.5450684984665725,-0.6489770631740494,1.2111096761772189,0.3168178534274877,-0.11304229495140589
14614,3.0,299.78373999999997,5037.4757,0.0,0.0,0.0,0.14820267362642514,0.0,0.0,-0.3368906114860147,-0.5575518916860874,-0.6368243035946654,1.2435116918500488,0.2907383055961367,-0.11041483611709589
14615,3.0,299.76305,5308.609,0.0,0.0,0.0,0.1482128147700974,0.0,0.0,-0.3466060080823497,-0.5923190053448345,-0.6747595666060844,1.2535573573164789,0.30042271700441375,-0.1025121642146629
14616,3.0,300.43482,5141.7079,0.0,0.0,0.0,0.14822295591376966,0.0,0.0,-0.3264409226747107,-0.5797084391052685,-0.6568014513737563,1.239699946298859,0.2843060318413207,-0.14346268727116487
14617,3.0,299.08045,4750.2787,0.0,0.0,0.0,0.14823309705744195,0.0,0.0,-0.2907703749618017,-0.5456489286538565,-0.6075468168577024,1.2533590642719088,0.3231321646056617,-0.1137672551329539
14618,3.0,300.19397999999995,4747.6976,0.0,0.0,0.0,0.14824323820111418,0.0,0.0,-0.27328814277143976,-0.5624969372091254,-0.6073964505428624,1.2455274515989887,0.3453496488858567,-0.15461986783229284
14619,3.0,299.2852,4827.2545,0.0,0.0,0.0,0.14825337934478644,0.0,0.0,-0.29039871482512175,-0.5391571163231644,-0.6378089901743463,1.2148045939918788,0.3393960040807777,-0.10640724958657789
14620,3.0,299.35207,5094.7913,0.0,0.0,0.0,0.1482635204884587,0.0,0.0,-0.33022282801045566,-0.6033141368174694,-0.6151523633008114,1.2485120810935488,0.30534128630233875,-0.17031274087605883
14621,3.0,299.93306,5146.7549,0.0,0.0,0.0,0.148273661632131,0.0,0.0,-0.3269824339256537,-0.5776297362601165,-0.6598728049443754,1.1985804333906789,0.3386615092157887,-0.13650621870961485
14622,3.0,301.18166,4803.7005,0.0,0.0,0.0,0.14828380277580325,0.0,0.0,-0.2831831784780037,-0.5711254001581885,-0.6058964350948224,1.255825213690299,0.34747389732300366,-0.15285590073320288
14623,3.0,300.43724,4886.4285,0.0,0.0,0.0,0.14829394391947548,0.0,0.0,-0.27531093447607374,-0.5777528258822644,-0.6322884996545164,1.211673347207849,0.3235798995598497,-0.12400553944339389
14624,3.0,300.9802,5155.4808,0.0,0.0,0.0,0.14830408506314774,0.0,0.0,-0.30900891729180574,-0.5777502015645055,-0.6803783119881114,1.246216360341979,0.3184776584162977,-0.11199262864281188
14625,3.0,300.33338,5170.1804,0.0,0.0,0.0,0.14831422620682003,0.0,0.0,-0.3288505226050197,-0.5809859752288514,-0.6617692544940403,1.244352790758059,0.3253956133415467,-0.11945285475657888
14626,3.0,300.86246,5001.681,0.0,0.0,0.0,0.1483243673504923,0.0,0.0,-0.3316190967807567,-0.5705185545407975,-0.6182484807038744,1.2750548767381187,0.32600638023682466,-0.11966374249989188
14627,3.0,299.65407000000005,5002.9431,0.0,0.0,0.0,0.14833450849416455,0.0,0.0,-0.3244402603522607,-0.5633717064179584,-0.6329578222730734,1.244691216291459,0.31003750799831975,-0.11304716868438688
14628,3.0,299.0264,5134.5752,0.0,0.0,0.0,0.14834464963783678,0.0,0.0,-0.34872659868663564,-0.5744015315740174,-0.6376545201966014,1.235035956088559,0.27706104031379575,-0.13670073233131189
14629,3.0,298.79052,5217.0041,0.0,0.0,0.0,0.14835479078150907,0.0,0.0,-0.3315286743418327,-0.5818940702334734,-0.6724162230998143,1.2627248389212389,0.33629565129229666,-0.11163386717990491
14630,3.0,299.98009,5001.6326,0.0,0.0,0.0,0.14836493192518133,0.0,0.0,-0.2908383640435117,-0.5847090512637905,-0.6448240043266743,1.233909120652349,0.3504376336005017,-0.12769791400030286
14631,3.0,300.52397,4822.9388,0.0,0.0,0.0,0.14837507306885359,0.0,0.0,-0.2802550579415207,-0.5712478311677714,-0.6145500773088705,1.2365533994383189,0.3393877156949596,-0.1031718812222719
14632,3.0,300.43792,5015.4176,0.0,0.0,0.0,0.14838521421252587,0.0,0.0,-0.30749926583531473,-0.5790677509345374,-0.6379946986526743,1.2193502365904987,0.29783011397354375,-0.15325576975266683
14633,3.0,299.5655,5336.6325,0.0,0.0,0.0,0.1483953553561981,0.0,0.0,-0.3360737697853987,-0.6223402480527004,-0.6637889963158734,1.219138264669579,0.3250830459506987,-0.1092895712185409
14634,3.0,300.08949,5127.5345,0.0,0.0,0.0,0.14840549649987037,0.0,0.0,-0.3200309505545957,-0.5973267710490624,-0.6412847318598754,1.2630724850305488,0.3008199921036217,-0.14479190928234886
14635,3.0,300.00248999999997,4817.5843,0.0,0.0,0.0,0.14841563764354263,0.0,0.0,-0.26821245891300877,-0.5668037972891795,-0.6294090860503404,1.245157817962509,0.30195908786604175,-0.10057138801287321
14636,3.0,299.81009,4910.4672,0.0,0.0,0.0,0.1484257787872149,0.0,0.0,-0.2817027998169017,-0.5850091252809055,-0.6259474994687084,1.2304733922132687,0.3139586845603097,-0.15901023998558886
14637,3.0,299.14822000000004,5154.8665,0.0,0.0,0.0,0.14843591993088717,0.0,0.0,-0.3396524475485867,-0.5884017196632284,-0.6388965317716784,1.2444051757882288,0.3320326446765707,-0.1024477924358099
14638,3.0,299.38338,5168.7386,0.0,0.0,0.0,0.1484460610745594,0.0,0.0,-0.3382081203260427,-0.5983543687704784,-0.6346050021656374,1.260704114246809,0.3546244640737096,-0.13540458280339185
14639,3.0,300.23576,5032.3241,0.0,0.0,0.0,0.14845620221823166,0.0,0.0,-0.3228116128040257,-0.5776721813068054,-0.6292170751563905,1.2310017008154088,0.3214349200256567,-0.14481424131455287
14640,3.0,300.90682999999996,4959.0629,0.0,0.0,0.0,0.14846634336190395,0.0,0.0,-0.3196913091210757,-0.5452668827036515,-0.6424731019746585,1.2614810744234886,0.2889488957870357,-0.13623807220315087
14641,3.0,301.07549,5143.0033,0.0,0.0,0.0,0.1484764845055762,0.0,0.0,-0.3067784194491727,-0.5844456974302994,-0.6721204553956244,1.243101629534579,0.33990701650371064,-0.10285951648144391
14642,3.0,300.64072999999996,5109.4547,0.0,0.0,0.0,0.14848662564924847,0.0,0.0,-0.32539404280389167,-0.5890417593538955,-0.6387108435583524,1.2418067972317886,0.3245552338411077,-0.09240307030522302
14643,3.0,299.43765,5076.755999999999,0.0,0.0,0.0,0.1484967667929207,0.0,0.0,-0.3321767389732917,-0.5506466935795974,-0.6603836147172883,1.235475200006909,0.3187970145828157,-0.08263389039358002
14644,3.0,299.3884,5009.5663,0.0,0.0,0.0,0.148506907936593,0.0,0.0,-0.3112282187208337,-0.5904435807347445,-0.6211112871389114,1.2200795740124788,0.31750226334003373,-0.1061430040929989
14645,3.0,300.17907,4955.1026,0.0,0.0,0.0,0.14851704908026525,0.0,0.0,-0.31186437766361774,-0.5700522872422805,-0.6243108067146795,1.253888386124149,0.3307394943689467,-0.1049414515944149
14646,3.0,299.56472,5003.6787,0.0,0.0,0.0,0.1485271902239375,0.0,0.0,-0.3202217151509227,-0.5827319166086624,-0.6180397511832745,1.2562328442055288,0.32384663764867466,-0.12407735861048187
14647,3.0,299.22389,5043.8229,0.0,0.0,0.0,0.14853733136760977,0.0,0.0,-0.30577501814014474,-0.5786289123162275,-0.6487922868858134,1.221945778046659,0.3117497284148027,-0.13898130499388686
14648,3.0,299.57371,4980.6118,0.0,0.0,0.0,0.148547472511282,0.0,0.0,-0.3092740848429757,-0.5614340074567225,-0.6432735391561554,1.242434910968779,0.2943672101667817,-0.15340908462529784
14649,3.0,300.35426,4904.595,0.0,0.0,0.0,0.1485576136549543,0.0,0.0,-0.2962486230849627,-0.5785575896416885,-0.6160682096686984,1.2396468519936188,0.3301627625445277,-0.12699228663066287
14650,3.0,301.11163,5015.5328,0.0,0.0,0.0,0.14856775479862658,0.0,0.0,-0.3049372629574647,-0.5891586478854315,-0.6305008225030864,1.244512073673779,0.32890306975520567,-0.14673129023875087
14651,3.0,300.3236,4994.3619,0.0,0.0,0.0,0.1485778959422988,0.0,0.0,-0.3302314710338087,-0.5605983193042464,-0.6273315281778015,1.222331826334759,0.3094259609004647,-0.13748806818901585
14652,3.0,299.85587000000004,4836.8553,0.0,0.0,0.0,0.1485880370859711,0.0,0.0,-0.2902672253596447,-0.5641736938721085,-0.6158423055589034,1.2527149411833387,0.31164277986674765,-0.15041920649521986
14653,3.0,299.42642,4890.3623,0.0,0.0,0.0,0.14859817822964333,0.0,0.0,-0.27684157034213575,-0.5891187562289945,-0.6205877104147384,1.2523763129999188,0.33974282945750667,-0.10499900420009489
14654,3.0,299.92607999999996,5017.6711,0.0,0.0,0.0,0.1486083193733156,0.0,0.0,-0.29078531026827575,-0.5894767577543265,-0.6449846551300294,1.2552258762561488,0.3300642037073007,-0.10658405159652691
14655,3.0,299.93645,5205.7399,0.0,0.0,0.0,0.14861846051698785,0.0,0.0,-0.3220792457642467,-0.6154838480710264,-0.6448518484394223,1.2143130663683688,0.30599057696641874,-0.12056856470669089
14656,3.0,299.57906,5328.9333,0.0,0.0,0.0,0.14862860166066014,0.0,0.0,-0.3591149048068817,-0.5915316796196315,-0.6692160651764834,1.2058399650571388,0.3117425140740907,-0.12428806396877688
14657,3.0,299.61787999999996,5217.4857,0.0,0.0,0.0,0.1486387428043324,0.0,0.0,-0.34095768592990366,-0.5968393065584534,-0.6481883796937123,1.2663827731072488,0.3261518728186837,-0.14097536092568488
14658,3.0,299.93212,4985.7719,0.0,0.0,0.0,0.14864888394800463,0.0,0.0,-0.30778444507595965,-0.5613593917193586,-0.6464063159478364,1.2566490873466087,0.31863302005413074,-0.12302977959709388
14659,3.0,299.13292,5002.8331,0.0,0.0,0.0,0.1486590250916769,0.0,0.0,-0.3199538016919817,-0.5461247002383114,-0.6546578295946973,1.2362987696881889,0.31580195874472666,-0.12473432971031988
14660,3.0,299.50953,5117.9651,0.0,0.0,0.0,0.14866916623534918,0.0,0.0,-0.33880608987255767,-0.5812813882955065,-0.6356461166433874,1.2370875848910388,0.31163949693642373,-0.11591169764459389
14661,3.0,298.61597,4998.2507,0.0,0.0,0.0,0.14867930737902144,0.0,0.0,-0.3248427739544857,-0.5564306088604255,-0.6380700439301104,1.2491305689545886,0.3528442849730197,-0.10035792762755631
14662,3.0,299.09278,5040.2103,0.0,0.0,0.0,0.1486894485226937,0.0,0.0,-0.3113614509764827,-0.5834500778820395,-0.6372865482902853,1.2311043430505386,0.35191613774891867,-0.1078738581788209
14663,3.0,300.15513,5153.0761,0.0,0.0,0.0,0.14869958966636593,0.0,0.0,-0.3208975934976267,-0.5922504893730725,-0.6532583792190824,1.2326323242013386,0.30360984453145873,-0.1207988359244169
14664,3.0,300.04854,5003.9249,0.0,0.0,0.0,0.14870973081003822,0.0,0.0,-0.30337674634595374,-0.5696501080125884,-0.6480413571042024,1.2120283900428888,0.3048190369357967,-0.15117344960465784
14665,3.0,300.28834,4995.1117,0.0,0.0,0.0,0.14871987195371048,0.0,0.0,-0.28613753205957576,-0.5884430703998094,-0.6438086365339654,1.2570444575356288,0.3115893106589707,-0.12216879058962088
14666,3.0,300.5625,5194.7453,0.0,0.0,0.0,0.14873001309738274,0.0,0.0,-0.3045730806065227,-0.6088930006755604,-0.6656067872602754,1.2717131779083188,0.2988027530095357,-0.13178984346914488
14667,3.0,300.10042000000004,4944.6496,0.0,0.0,0.0,0.14874015424105502,0.0,0.0,-0.2782755522811587,-0.5846505360705154,-0.6401239120153114,1.2621007781846487,0.2955607782545777,-0.14750371105498286
14668,3.0,300.55906,4804.9314,0.0,0.0,0.0,0.14875029538472725,0.0,0.0,-0.2942769498478737,-0.5644498450543625,-0.6018523715607044,1.2482972720723489,0.3203660627601687,-0.15966443478015285
14669,3.0,300.1786,4956.9389,0.0,0.0,0.0,0.14876043652839951,0.0,0.0,-0.2997225409203117,-0.5741822845173795,-0.6328808253979744,1.267361674028859,0.3542564617698906,-0.14536074788848885
14670,3.0,298.97033,4943.3748,0.0,0.0,0.0,0.14877057767207177,0.0,0.0,-0.30333344003667967,-0.5800773432016765,-0.6192517300253875,1.235238302133529,0.36192021943124464,-0.13675941977710387
14671,3.0,298.88293,4995.7095,0.0,0.0,0.0,0.14878071881574403,0.0,0.0,-0.29867126354405876,-0.5900564077390335,-0.6298432637181903,1.2220120446031988,0.33631977677717767,-0.14684104548958285
14672,3.0,299.56019,5171.3859,0.0,0.0,0.0,0.14879085995941632,0.0,0.0,-0.35289194825772363,-0.5779135374806255,-0.6411666882232254,1.216779621086799,0.33046042502640466,-0.1147225473272339
14673,3.0,299.53166,5129.7243,0.0,0.0,0.0,0.14880100110308855,0.0,0.0,-0.3245070335338507,-0.5725717944109365,-0.6622292700394403,1.223730820747829,0.34308228900458565,-0.10579129485078789
14674,3.0,300.37124,5203.3817,0.0,0.0,0.0,0.1488111422467608,0.0,0.0,-0.3482959167316307,-0.5825741535680924,-0.6508280380592264,1.2246960427930889,0.33629727249245667,-0.08133803065518862
14675,3.0,300.05457,5302.5806,0.0,0.0,0.0,0.14882128339043307,0.0,0.0,-0.3140031257096957,-0.6024473418869234,-0.6954016091007953,1.2409421909214589,0.28937342731393373,-0.1054003019021999
14676,3.0,300.5842,5232.6833,0.0,0.0,0.0,0.14883142453410536,0.0,0.0,-0.32096628172190567,-0.6009256935492484,-0.6687130776943424,1.242923500166999,0.3100810169576137,-0.10279210495229091
14677,3.0,300.2094,5008.2257,0.0,0.0,0.0,0.14884156567777762,0.0,0.0,-0.29108639753549076,-0.5605216061391755,-0.6707675537296034,1.2857144704401386,0.2919524730584657,-0.1041457564233859
14678,3.0,300.04744,4949.9487,0.0,0.0,0.0,0.14885170682144985,0.0,0.0,-0.32923237603770567,-0.5418753015714285,-0.6335531168393244,1.2535058842113989,0.3097955641394417,-0.10380180867694089
14679,3.0,299.69802000000004,4827.9669,0.0,0.0,0.0,0.1488618479651221,0.0,0.0,-0.2967151740935077,-0.5453075950926695,-0.6255586039478274,1.218330400364849,0.29252334829730675,-0.11780624228407088
14680,3.0,300.53787,4824.8858,0.0,0.0,0.0,0.1488719891087944,0.0,0.0,-0.30325726389416174,-0.5546314009228575,-0.6087561308520524,1.231348232349609,0.3048652411403567,-0.13296365317999087
14681,3.0,299.76607,5132.4544,0.0,0.0,0.0,0.14888213025246666,0.0,0.0,-0.3192811252155937,-0.5604090239205645,-0.6804478310774723,1.2543430314440187,0.33645222883024967,-0.12902945635421587
14682,3.0,299.93921,5288.7685,0.0,0.0,0.0,0.14889227139613892,0.0,0.0,-0.3256840552475137,-0.6056744623954153,-0.6762950458076243,1.2379638435775189,0.35479019126006567,-0.14144494155202886
14683,3.0,300.09667,5084.7803,0.0,0.0,0.0,0.14890241253981115,0.0,0.0,-0.2870753862196347,-0.6100754635422604,-0.6484953843415114,1.2462895169991988,0.29799296352961574,-0.13805412035738088
14684,3.0,299.47036,5078.584,0.0,0.0,0.0,0.14891255368348344,0.0,0.0,-0.3175626023834887,-0.5912879220430745,-0.6349122094634564,1.2317828153174988,0.3157790491599657,-0.12319747248864388
14685,3.0,298.71288,5022.5461,0.0,0.0,0.0,0.1489226948271557,0.0,0.0,-0.3018600831987707,-0.5827569236211304,-0.6421116047364813,1.2548297967920587,0.3248076952360237,-0.12480260250205788
14686,3.0,299.12424,4872.7422,0.0,0.0,0.0,0.14893283597082796,0.0,0.0,-0.3135712278545707,-0.5525232428972985,-0.6150974755428944,1.2338835867498288,0.3194979404719917,-0.11197141118571789
14687,3.0,298.99595,4842.8701,0.0,0.0,0.0,0.14894297711450025,0.0,0.0,-0.25596578118185576,-0.5835134262782915,-0.6326323866059553,1.2187985219110489,0.3100135243684527,-0.15333560372804586
14688,3.0,299.24511,4853.964,0.0,0.0,0.0,0.14895311825817248,0.0,0.0,-0.2875441967759027,-0.5661712252517495,-0.6217684102262644,1.2227309455491489,0.3266652967768547,-0.13593959912119388
14689,3.0,299.85388,4944.3458,0.0,0.0,0.0,0.14896325940184474,0.0,0.0,-0.29561454130488374,-0.5678467660146125,-0.6394963454333754,1.2593373411869186,0.3338464839455827,-0.12163868853480388
14690,3.0,299.41983,5167.686,0.0,0.0,0.0,0.148973400545517,0.0,0.0,-0.36726214488595166,-0.5737195534617114,-0.6298658186654164,1.2479982619678387,0.31657618314613667,-0.1019927722134029
14691,3.0,300.53997000000004,5520.3442,0.0,0.0,0.0,0.14898354168918929,0.0,0.0,-0.36154144627886264,-0.6319579166768904,-0.6845474511145734,1.2417204683232688,0.2808264398054117,-0.13517686497591785
14692,3.0,300.16848999999996,5292.7409,0.0,0.0,0.0,0.14899368283286155,0.0,0.0,-0.35602004383394265,-0.5967698279990965,-0.6560711918941854,1.2515513247684988,0.31821100138748065,-0.1109785679427319
14693,3.0,300.18688,5048.0119,0.0,0.0,0.0,0.14900382397653378,0.0,0.0,-0.26506244673712676,-0.6021969475222114,-0.6672101643510164,1.2704822816868386,0.3331900600007987,-0.13076891293338688
14694,3.0,299.96508,5117.8526,0.0,0.0,0.0,0.14901396512020604,0.0,0.0,-0.3175310295103727,-0.5746587349794015,-0.6635096331308024,1.256701776351809,0.35123829369702064,-0.0946534004920633
14695,3.0,299.6968,5023.3886,0.0,0.0,0.0,0.14902410626387833,0.0,0.0,-0.3029635328226727,-0.5719405294661354,-0.6520806380978483,1.228404842134119,0.3159259501594637,-0.11287118740701889
14696,3.0,299.33521,4919.41,0.0,0.0,0.0,0.14903424740755059,0.0,0.0,-0.3078737529397737,-0.5644569682025654,-0.6230470710574584,1.195428212329579,0.34512431219611767,-0.1041636200226489
14697,3.0,299.45685,4984.4551,0.0,0.0,0.0,0.14904438855122285,0.0,0.0,-0.3288991788748217,-0.5531135117430535,-0.6331371878057753,1.216207844055369,0.3431605220448067,-0.11716074117536489
14698,3.0,299.51606,5096.6505,0.0,0.0,0.0,0.14905452969489508,0.0,0.0,-0.3334626242776987,-0.5895045005420645,-0.6262873638172504,1.236395737722759,0.3366499240572607,-0.12597475048273987
14699,3.0,299.24967000000004,4964.1517,0.0,0.0,0.0,0.14906467083856736,0.0,0.0,-0.2729206166951677,-0.5894673649258995,-0.6465901803109824,1.2581108019408687,0.3008606538301347,-0.16246810793935385
14700,3.0,299.72366,5234.5498,0.0,0.0,0.0,0.14907481198223962,0.0,0.0,-0.3266841330962137,-0.6159082782729144,-0.6485800211223643,1.2765155780822788,0.3161162081307407,-0.1224320532306029
14701,3.0,300.49481000000003,5257.9545,0.0,0.0,0.0,0.14908495312591188,0.0,0.0,-0.3242289571764067,-0.6098772616901995,-0.6641806580095274,1.2893787881017789,0.33136074840275964,-0.12330791674954389
14702,3.0,300.50552000000005,4896.9693,0.0,0.0,0.0,0.14909509426958414,0.0,0.0,-0.32679035210419666,-0.5604164814413005,-0.6013495563310804,1.235022783837259,0.3257296211045107,-0.08529884454784051
14703,3.0,300.58916,5015.334,0.0,0.0,0.0,0.1491052354132564,0.0,0.0,-0.30277551413411674,-0.5957587766518134,-0.6260020021915874,1.2336370630004987,0.3045269270644677,-0.15177998111451785
14704,3.0,300.1641,5264.198,0.0,0.0,0.0,0.14911537655692866,0.0,0.0,-0.3324509548478547,-0.6118555210529384,-0.6558782690751455,1.214737314185239,0.32762553363162267,-0.1126103261687739
14705,3.0,299.27267,4996.6532,0.0,0.0,0.0,0.14912551770060092,0.0,0.0,-0.25998401697092477,-0.5909450686067373,-0.6679287207919323,1.234994818134499,0.35336142755905764,-0.14559712900431787
14706,3.0,300.699,5020.7285,0.0,0.0,0.0,0.14913565884427318,0.0,0.0,-0.3238479954038087,-0.5641135980086774,-0.6382144928643664,1.201177393396979,0.3276624058027617,-0.09154344411913451
14707,3.0,299.66306000000003,5012.4347,0.0,0.0,0.0,0.14914579998794544,0.0,0.0,-0.30623712098075073,-0.5652670211275115,-0.6521508563297783,1.207755717021209,0.3160815448448197,-0.13545471841833986
14708,3.0,298.89025,4968.4343,0.0,0.0,0.0,0.1491559411316177,0.0,0.0,-0.3081044395900407,-0.5601209467846334,-0.6420545688883523,1.2309290507832387,0.34988917145387266,-0.0937842021322801
14709,3.0,299.49429,5406.0718,0.0,0.0,0.0,0.14916608227528996,0.0,0.0,-0.32765523199205365,-0.6279256372414355,-0.6877299784861644,1.2572021192511886,0.3354826802070627,-0.1250793616343719
14710,3.0,298.98400000000004,5504.3552,0.0,0.0,0.0,0.14917622341896222,0.0,0.0,-0.37254330573216166,-0.5926171643192604,-0.7080260568667314,1.2435816061069487,0.3173541160429127,-0.1057135481706149
14711,3.0,299.6728,5159.7171,0.0,0.0,0.0,0.14918636456263448,0.0,0.0,-0.3199964595211917,-0.5843255968959464,-0.6641031038468733,1.2210749909107188,0.2960516776630257,-0.13603553364066187
14712,3.0,299.76302000000004,4899.0897,0.0,0.0,0.0,0.14919650570630674,0.0,0.0,-0.3008063436247747,-0.5640759456349614,-0.6243186492704534,1.2671480809077789,0.3073034856509927,-0.11761702796039689
14713,3.0,298.84095,5013.7303,0.0,0.0,0.0,0.149206646849979,0.0,0.0,-0.3019810348632077,-0.5633239722057475,-0.6587438214179534,1.2562481442820388,0.3248700202496747,-0.08910341020882191
14714,3.0,299.88604,5278.7809,0.0,0.0,0.0,0.14921678799365126,0.0,0.0,-0.3624508179786107,-0.5810203244072414,-0.6611464501875743,1.2546334289226788,0.3236198013487877,-0.09692311111356632
14715,3.0,300.67724,5020.5932,0.0,0.0,0.0,0.14922692913732352,0.0,0.0,-0.32057420459571073,-0.5536135506674035,-0.6519472031921795,1.2160124894360886,0.29883305932002674,-0.12256454581367889
14716,3.0,300.67595,4858.6744,0.0,0.0,0.0,0.14923707028099578,0.0,0.0,-0.29414120473197675,-0.5760839827025624,-0.6066905090656914,1.252108713648509,0.3293462856139477,-0.14461372925226387
14717,3.0,301.46542999999997,5120.1532,0.0,0.0,0.0,0.14924721142466807,0.0,0.0,-0.29331936770836775,-0.6080370069910804,-0.6550423377426454,1.2529433277558788,0.33637264816739565,-0.1144779690180959
14718,3.0,300.4358,5149.7212,0.0,0.0,0.0,0.1492573525683403,0.0,0.0,-0.3430229328137277,-0.5748927349574955,-0.6474709783579105,1.223070992282709,0.2945099061783647,-0.13055000024928187
14719,3.0,300.25122999999996,5083.1936,0.0,0.0,0.0,0.14926749371201256,0.0,0.0,-0.3217387532006427,-0.5781105234325664,-0.6453146402900963,1.185877823512029,0.3172433374094797,-0.1342272368496969
14720,3.0,300.4048,4941.2699,0.0,0.0,0.0,0.14927763485568482,0.0,0.0,-0.3186070605865687,-0.5555740578883905,-0.6278415476156364,1.220578903661759,0.3337391503624897,-0.10575883031758389
14721,3.0,299.75113,4721.5197,0.0,0.0,0.0,0.1492877759993571,0.0,0.0,-0.25106203573289376,-0.5703657158957134,-0.6137963509569835,1.2520981758474687,0.3499808503229207,-0.12790779862601687
14722,3.0,299.88633,4900.356,0.0,0.0,0.0,0.14929791714302937,0.0,0.0,-0.2970851826325247,-0.5802738427935694,-0.6122268468170854,1.2362254103809487,0.30251401454830873,-0.14154475681937986
14723,3.0,299.27194,5248.1354,0.0,0.0,0.0,0.14930805828670163,0.0,0.0,-0.3350459390164596,-0.5781822108771415,-0.6820739455004573,1.2363382864420887,0.2784287050337737,-0.15015322834396988
14724,3.0,298.48733,4946.3533,0.0,0.0,0.0,0.14931819943037386,0.0,0.0,-0.3406592027154457,-0.5546433268765345,-0.6082653732986184,1.2472695324959187,0.2850733256120467,-0.12460360018241788
14725,3.0,300.35642,4692.9356,0.0,0.0,0.0,0.14932834057404615,0.0,0.0,-0.2512035867718638,-0.5580278051255565,-0.6173038377681453,1.2410931651863588,0.3161134926204727,-0.12941246489201588
14726,3.0,301.14529,5148.0218,0.0,0.0,0.0,0.1493384817177184,0.0,0.0,-0.3203751921435697,-0.5779107307778484,-0.6665841480417334,1.2427808345529188,0.27588000612973673,-0.094505321082699
14727,3.0,300.18206000000004,5449.8082,0.0,0.0,0.0,0.14934862286139067,0.0,0.0,-0.35238743076793166,-0.6206475529656444,-0.6835706172231673,1.201731337226649,0.3204795670363707,-0.12472618317951589
14728,3.0,299.82984,5100.3843,0.0,0.0,0.0,0.1493587640050629,0.0,0.0,-0.3301931600475277,-0.5697769162626035,-0.6504193942938964,1.2285581468742488,0.3413402993001647,-0.11271558258916188
14729,3.0,300.20161,4975.4193,0.0,0.0,0.0,0.1493689051487352,0.0,0.0,-0.2875596184424247,-0.5879693658455585,-0.6368742669570965,1.2360819341667886,0.3465309059849377,-0.11226793882748289
14730,3.0,300.42915,5096.7503,0.0,0.0,0.0,0.14937904629240745,0.0,0.0,-0.3346581580706887,-0.5746234434784185,-0.6400032440609024,1.240740756801579,0.3226519245882657,-0.11622982777849088
14731,3.0,300.10331,5100.8017,0.0,0.0,0.0,0.1493891874360797,0.0,0.0,-0.30637508511436673,-0.5682534846047524,-0.6758877800624303,1.2381602114468988,0.3266328829061557,-0.12664976756685886
14732,3.0,298.95687999999996,5138.1987,0.0,0.0,0.0,0.14939932857975197,0.0,0.0,-0.3349788213298357,-0.5993403827077904,-0.6275648898083325,1.2640476369267886,0.33857111717436766,-0.11632408030279288
14733,3.0,299.36999,4973.106,0.0,0.0,0.0,0.14940946972342423,0.0,0.0,-0.3130814632862347,-0.5571621146376194,-0.6414564777518253,1.2511418704030888,0.3547035583765157,-0.10668987543697091
14734,3.0,300.25692999999995,4746.9339,0.0,0.0,0.0,0.1494196108670965,0.0,0.0,-0.2502956640197588,-0.5876517119392084,-0.6050019987015485,1.2465219565721388,0.3071188106877667,-0.13840319514933186
14735,3.0,300.13975,4976.2756,0.0,0.0,0.0,0.14942975201076875,0.0,0.0,-0.3081938589113657,-0.5876257828691495,-0.6168438830177514,1.2327589804638386,0.3241343601470707,-0.13403316905804388
14736,3.0,299.31543,5387.3984,0.0,0.0,0.0,0.149439893154441,0.0,0.0,-0.36546017077561066,-0.5757158790737334,-0.6964585302801053,1.241131060740099,0.3300743767383047,-0.0989566209777581
14737,3.0,299.49403,5278.5899,0.0,0.0,0.0,0.1494500342981133,0.0,0.0,-0.33582391244323967,-0.6106630371427494,-0.6580725837567074,1.221129098466059,0.33249963138265864,-0.1073153040611959
14738,3.0,300.77974,4922.6055,0.0,0.0,0.0,0.14946017544178553,0.0,0.0,-0.2893676720533657,-0.5651953539479384,-0.6417861184068584,1.229024748545299,0.27791058972763977,-0.13093203606698586
14739,3.0,300.61762000000004,5106.2251,0.0,0.0,0.0,0.14947031658545779,0.0,0.0,-0.29213592198907073,-0.5942845484188185,-0.6657444575513624,1.2387791046079788,0.3160008090768517,-0.13233503281795087
14740,3.0,299.303,5275.8374,0.0,0.0,0.0,0.14948045772913005,0.0,0.0,-0.32065840567902065,-0.6207960143702964,-0.6622684017583024,1.2389413259489888,0.3166211309205727,-0.12150315620142789
14741,3.0,300.06705,5009.157,0.0,0.0,0.0,0.14949059887280233,0.0,0.0,-0.3183595438521407,-0.5689850410444515,-0.6353140745856174,1.232222160560859,0.3371198491886387,-0.12907374551608689
14742,3.0,300.83441,4890.2348,0.0,0.0,0.0,0.1495007400164746,0.0,0.0,-0.2820243142061327,-0.5730384872744955,-0.6314464685564144,1.2152467763355188,0.2994541714988257,-0.13783390058064685
14743,3.0,300.39146,4808.4658,0.0,0.0,0.0,0.14951088116014682,0.0,0.0,-0.2629336285420288,-0.5701990463867644,-0.6285208608801794,1.2298816541548687,0.33711059821522565,-0.1130875365683709
14744,3.0,298.77947,4839.4216,0.0,0.0,0.0,0.14952102230381908,0.0,0.0,-0.28991238517462475,-0.5767328072715965,-0.6044181335964255,1.258185883773279,0.3237639159105107,-0.12936059661939686
14745,3.0,299.10067000000004,5226.6296,0.0,0.0,0.0,0.14953116344749137,0.0,0.0,-0.3440863894561827,-0.5901717156004135,-0.6545067844022904,1.220530976932029,0.34352646745092263,-0.1034272101149709
14746,3.0,300.01043,5372.993,0.0,0.0,0.0,0.14954130459116363,0.0,0.0,-0.36239812897341067,-0.5940461002727854,-0.6768114689860913,1.228505559194059,0.3059501381549277,-0.12689847993640488
14747,3.0,300.13039,4985.4756,0.0,0.0,0.0,0.1495514457348359,0.0,0.0,-0.3139763151120497,-0.5750987894978314,-0.6263849803318844,1.2458839129841688,0.33602727173830965,-0.1027586170364859
14748,3.0,299.72069,4924.2199,0.0,0.0,0.0,0.14956158687850812,0.0,0.0,-0.2749189080123838,-0.5648984919336404,-0.6570224716180694,1.2725021957611886,0.33706264108799266,-0.1047998093629359
14749,3.0,300.14318,5251.9675,0.0,0.0,0.0,0.1495717280221804,0.0,0.0,-0.3495257997030107,-0.5674300973084905,-0.6795110914925234,1.2432563528248488,0.3145499767886657,-0.08262744612294401
14750,3.0,300.42629,4853.7376,0.0,0.0,0.0,0.14958186916585267,0.0,0.0,-0.2835729048639667,-0.5412983670969895,-0.6505437707436713,1.230539760094819,0.27986093405012374,-0.14312022900236684
14751,3.0,300.09485,4661.2332,0.0,0.0,0.0,0.14959201030952493,0.0,0.0,-0.27346821757921175,-0.5383756573160404,-0.6050546269117424,1.2301602979323687,0.29412923824829573,-0.12274697136168289
14752,3.0,299.01137,4847.5546,0.0,0.0,0.0,0.14960215145319722,0.0,0.0,-0.2905004350026607,-0.5677411448241885,-0.6152939751347875,1.2673865999813188,0.3191212748798177,-0.14762812803476186
14753,3.0,299.03452999999996,5082.5844,0.0,0.0,0.0,0.14961229259686945,0.0,0.0,-0.3304512956430037,-0.5748514956784254,-0.6396759440136004,1.234178341203919,0.3357210878230917,-0.11811736072727588
14754,3.0,299.66607,5179.0454,0.0,0.0,0.0,0.1496224337405417,0.0,0.0,-0.32092314766514873,-0.5853981018617944,-0.6679792515744193,1.2234176251419187,0.3251573881105357,-0.15781033908466785
14755,3.0,299.39917,5250.514,0.0,0.0,0.0,0.14963257488421397,0.0,0.0,-0.3395074717242787,-0.5958117392345404,-0.6607059295740983,1.2276077182804488,0.3316684420606267,-0.09957485147327272
14756,3.0,298.55827,4944.1606,0.0,0.0,0.0,0.14964271602788626,0.0,0.0,-0.2879738452158057,-0.5706652326252735,-0.6442622990012383,1.2548706307710886,0.33149187309820066,-0.12786951803723887
14757,3.0,300.25795,4865.6106,0.0,0.0,0.0,0.14965285717155852,0.0,0.0,-0.29090632272771877,-0.5604967207167194,-0.6276210745263775,1.2444341547410886,0.3286024384505357,-0.1037791524047049
14758,3.0,300.73748,5186.1202,0.0,0.0,0.0,0.14966299831523075,0.0,0.0,-0.35170972857104765,-0.5806671864823895,-0.6440741181926664,1.2159918191340489,0.2823587981966437,-0.1277198913949719
14759,3.0,300.46019,5312.925,0.0,0.0,0.0,0.149673139458903,0.0,0.0,-0.34085978570524167,-0.5885500088153635,-0.6855867518746444,1.2278868686829987,0.3314727328038117,-0.10524228554910489
14760,3.0,298.63122999999996,4807.6109,0.0,0.0,0.0,0.1496832806025753,0.0,0.0,-0.25816133202853975,-0.5782470386185394,-0.6249852969087465,1.2423709748874687,0.3170583078087187,-0.13534039340955686
14761,3.0,299.76265,4766.7967,0.0,0.0,0.0,0.14969342174624756,0.0,0.0,-0.27586797885104974,-0.5398878115002785,-0.6332313896675724,1.2571978636007688,0.3327965237944597,-0.12459674047924088
14762,3.0,300.82717,5236.4345,0.0,0.0,0.0,0.14970356288991982,0.0,0.0,-0.3257719648261897,-0.5770314019435655,-0.6889419674607784,1.236079806341579,0.29966261730939775,-0.1296145677569619
14763,3.0,301.10123,5187.4973,0.0,0.0,0.0,0.14971370403359205,0.0,0.0,-0.3463942894739547,-0.5848089881211535,-0.6456663799298104,1.2502814184181688,0.3081167303137537,-0.14481212362184387
14764,3.0,299.3677,4971.3361,0.0,0.0,0.0,0.14972384517726434,0.0,0.0,-0.30038731404591973,-0.5634485513055424,-0.6473261747861193,1.2727938091399686,0.32308998300399866,-0.14037612481654488
14765,3.0,299.88005,5184.6399,0.0,0.0,0.0,0.1497339863209366,0.0,0.0,-0.3337524442038017,-0.5912487092642045,-0.6509999156736894,1.240698909572449,0.3331079158151917,-0.11489969384221689
14766,3.0,300.11624,5023.3193,0.0,0.0,0.0,0.14974412746460886,0.0,0.0,-0.3059908404114447,-0.5692747799105464,-0.6516980044625854,1.229248778142409,0.32504705530714667,-0.13100343980153287
14767,3.0,299.42049,5052.3573,0.0,0.0,0.0,0.14975426860828112,0.0,0.0,-0.3168697217001067,-0.5671902407448184,-0.6517305095257934,1.2113205335230288,0.3335205213884127,-0.08181023965229202
14768,3.0,299.25782999999996,5161.6821,0.0,0.0,0.0,0.14976440975195335,0.0,0.0,-0.28674185468421776,-0.6042862692284114,-0.6779943371528313,1.2414253085691387,0.36524320353169765,-0.09774336544051909
14769,3.0,299.11875,4978.0845,0.0,0.0,0.0,0.14977455089562564,0.0,0.0,-0.3114168858894537,-0.5749176507774545,-0.6268788586956264,1.2414982625763387,0.35268851803514667,-0.0911163480562334
14770,3.0,300.45277000000004,5100.9017,0.0,0.0,0.0,0.1497846920392979,0.0,0.0,-0.3049446698156957,-0.5943570363309725,-0.6512450411378814,1.235884249072279,0.30522659652351974,-0.14526829894936485
14771,3.0,300.72353,5449.9722,0.0,0.0,0.0,0.14979483318297016,0.0,0.0,-0.36994533247576167,-0.6249792984681544,-0.6617308320502484,1.2668463350279988,0.2978471163102217,-0.12899716407352887
14772,3.0,300.54737,5120.6905,0.0,0.0,0.0,0.14980497432664244,0.0,0.0,-0.30834305998859074,-0.5844678572099865,-0.6637511210271354,1.2574756967781888,0.30471460124798977,-0.15235573008633985
14773,3.0,300.90878,4806.0572,0.0,0.0,0.0,0.14981511547031467,0.0,0.0,-0.27668033185372276,-0.5676534277630315,-0.6165876320674614,1.2589377153474788,0.3137772215999007,-0.13647008621104886
14774,3.0,299.8622,5205.9399,0.0,0.0,0.0,0.14982525661398693,0.0,0.0,-0.3237510982967457,-0.5956235584259684,-0.6631010805579813,1.2183242195392388,0.2877965163158047,-0.14114984259290486
14775,3.0,298.65145,5356.1819,0.0,0.0,0.0,0.1498353977576592,0.0,0.0,-0.39957166095715263,-0.5732900468768225,-0.6552838560364813,1.2445595951034687,0.3027248313641147,-0.1029346591088599
14776,3.0,298.89821,5004.3308,0.0,0.0,0.0,0.14984553890133148,0.0,0.0,-0.2998741028702697,-0.5907421855392144,-0.6305753065179375,1.2403538979133988,0.3252080202180327,-0.13301251209981285
14777,3.0,298.68944,4974.8477,0.0,0.0,0.0,0.14985568004500374,0.0,0.0,-0.2889206463742477,-0.5960773931457584,-0.6272314292004224,1.254853506844399,0.3355817456693397,-0.1116843675648889
14778,3.0,298.73424,5191.035,0.0,0.0,0.0,0.14986582118867597,0.0,0.0,-0.2934140863277157,-0.6051738459185084,-0.6793570673448224,1.2354023473247189,0.3214517298448157,-0.11402169236556488
14779,3.0,299.47201,5229.3636,0.0,0.0,0.0,0.14987596233234823,0.0,0.0,-0.3176121199158757,-0.6081941924790933,-0.6637896346634364,1.243765511000099,0.3158185557813647,-0.1010345780708365
14780,3.0,299.50337,5248.7423,0.0,0.0,0.0,0.14988610347602052,0.0,0.0,-0.3138816268902047,-0.6200553285471964,-0.6615496527998673,1.2524157284288089,0.3468416697906077,-0.11274288967935689
14781,3.0,300.72246,5251.1905,0.0,0.0,0.0,0.14989624461969278,0.0,0.0,-0.3660199813233596,-0.5870580892356224,-0.6431526989492294,1.2388547943904489,0.32986262773240665,-0.1070873835837019
14782,3.0,301.35391,5069.4709,0.0,0.0,0.0,0.14990638576336504,0.0,0.0,-0.3154906680490047,-0.5935723146585264,-0.6319295963365954,1.2365772108156687,0.2973706557156987,-0.15551673602580685
14783,3.0,299.70763999999997,4999.7786,0.0,0.0,0.0,0.14991652690703727,0.0,0.0,-0.3122748351466267,-0.5713949753472934,-0.6361380495669374,1.2298672660034489,0.2897297671091017,-0.14714732059730987
14784,3.0,299.35084,5244.8314,0.0,0.0,0.0,0.14992666805070956,0.0,0.0,-0.3117293620877927,-0.6006153654411214,-0.6819530546310264,1.2649812455689289,0.3206653667072077,-0.15511238844090083
14785,3.0,299.52058999999997,4948.4798,0.0,0.0,0.0,0.14993680919438182,0.0,0.0,-0.26398499711079076,-0.5726444748406094,-0.6675848034429904,1.272802827065859,0.32043497389946973,-0.1034324587504889
14786,3.0,300.44767,4633.9555,0.0,0.0,0.0,0.14994695033805408,0.0,0.0,-0.26479598222582873,-0.5782209575609655,-0.5655898020793675,1.2520359622913289,0.32355211624210767,-0.13440257977950187
14787,3.0,299.90274,5129.1828,0.0,0.0,0.0,0.14995709148172637,0.0,0.0,-0.36429162996528464,-0.5667485954237315,-0.6281032701164664,1.2499034761308687,0.3190124923490817,-0.07675958712433142
14788,3.0,299.49835,5295.9632,0.0,0.0,0.0,0.1499672326253986,0.0,0.0,-0.34790809525585564,-0.5925703015021354,-0.6693621758409034,1.265399008585159,0.3490668075402117,-0.12149932611604988
14789,3.0,298.78486000000004,5150.5986,0.0,0.0,0.0,0.14997737376907086,0.0,0.0,-0.3058426728493217,-0.6159783951798344,-0.6438323060563014,1.2725082752617887,0.3305760773928187,-0.1042445280431339
14790,3.0,299.06278,5279.3421,0.0,0.0,0.0,0.14998751491274312,0.0,0.0,-0.29789263150471373,-0.6115728344075394,-0.6953226971830073,1.2467370695683688,0.32864362706710065,-0.12950900736154386
14791,3.0,299.0149,5344.6022,0.0,0.0,0.0,0.1499976560564154,0.0,0.0,-0.3436798329860587,-0.5814383711334995,-0.6995073998310053,1.2337515602617988,0.3070236361058737,-0.09196923004965632
14792,3.0,299.3407,5123.4688,0.0,0.0,0.0,0.15000779720008767,0.0,0.0,-0.32238223794164966,-0.5853596287554974,-0.6496647154869154,1.2426617776661688,0.3214906690461587,-0.1277742927928409
14793,3.0,299.94933,5110.8436,0.0,0.0,0.0,0.1500179383437599,0.0,0.0,-0.33468192891803467,-0.5709532489661985,-0.6479336486185724,1.2479972487177386,0.3211556277680927,-0.11334400030118189
14794,3.0,300.12577999999996,4956.3075,0.0,0.0,0.0,0.15002807948743216,0.0,0.0,-0.2982005886076067,-0.5781570417446574,-0.6302361007819605,1.239358987640209,0.35234152040590067,-0.14501797551215986
14795,3.0,300.65622,4705.7897,0.0,0.0,0.0,0.15003822063110442,0.0,0.0,-0.2801036175815747,-0.5382128178924694,-0.6121261297571454,1.254505556760059,0.32700527258290774,-0.14870846542388286
14796,3.0,300.63175,4848.8258,0.0,0.0,0.0,0.1500483617747767,0.0,0.0,-0.26709557359278074,-0.5805379059021304,-0.6262884885248614,1.245526033048849,0.37199174304022664,-0.15494971113734585
14797,3.0,300.86028999999996,5344.2621,0.0,0.0,0.0,0.15005850291844897,0.0,0.0,-0.3136418716515427,-0.6191373340890974,-0.6917430365672224,1.2628389308824988,0.3378910338397487,-0.1030698064071979
14798,3.0,299.56394,5383.3682,0.0,0.0,0.0,0.1500686440621212,0.0,0.0,-0.3374261850913717,-0.6134923657944824,-0.6854909693426913,1.2490188074685589,0.2971961031209717,-0.11232128644524789
14799,3.0,300.08904,5211.8464,0.0,0.0,0.0,0.15007878520579346,0.0,0.0,-0.34652098626645866,-0.5777099451380324,-0.6600402546559013,1.257210630552029,0.2871695880814317,-0.1094440411962859
14800,3.0,299.83322000000004,5298.9181,0.0,0.0,0.0,0.15008892634946572,0.0,0.0,-0.34418171602559067,-0.6003039024928825,-0.6662531496315663,1.2377199542784487,0.33048105479844064,-0.11556804374067789
14801,3.0,299.95738,5277.0622,0.0,0.0,0.0,0.150099067493138,0.0,0.0,-0.3417474231903447,-0.5943333161461314,-0.6680144012203884,1.2750192103345988,0.3276664385381597,-0.11337993014972789
14802,3.0,299.14234,5040.0039,0.0,0.0,0.0,0.15010920863681027,0.0,0.0,-0.25951725317985874,-0.6030940284982464,-0.6694240550245104,1.2154142665770489,0.32492331720493467,-0.13720920149649388
14803,3.0,298.15995,5049.8315,0.0,0.0,0.0,0.1501193497804825,0.0,0.0,-0.3151982136726417,-0.5589682532058715,-0.6608562249614314,1.2589842235270687,0.3155174279841457,-0.10256213770959491
14804,3.0,298.81467999999995,5003.2099,0.0,0.0,0.0,0.15012949092415478,0.0,0.0,-0.3175654394837687,-0.5611507635237685,-0.6421346764412584,1.236357436868979,0.3458060369958987,-0.1057276222145039
14805,3.0,299.76122000000004,4803.1305,0.0,0.0,0.0,0.15013963206782704,0.0,0.0,-0.30170871376633174,-0.5690648547548285,-0.5892581591777525,1.2647860935996686,0.34289027811063566,-0.12888085309454986
14806,3.0,299.84337999999997,5162.1704,0.0,0.0,0.0,0.1501497732114993,0.0,0.0,-0.3130853440341177,-0.5845033412284885,-0.6715822169425044,1.241725939873809,0.3115853387185787,-0.14258522281706587
14807,3.0,299.63099,5488.6236,0.0,0.0,0.0,0.15015991435517156,0.0,0.0,-0.3777906341575326,-0.6187366342045515,-0.6718772348416203,1.2601203808641988,0.2982465800296457,-0.13975041248229186
14808,3.0,300.82212000000004,5180.0352,0.0,0.0,0.0,0.15017005549884382,0.0,0.0,-0.28299417693685075,-0.6151093812315693,-0.6764977870201333,1.2484831021406888,0.34109463681341967,-0.14386418762328987
14809,3.0,301.34272999999996,4972.0844,0.0,0.0,0.0,0.15018019664251608,0.0,0.0,-0.3255473272790197,-0.5632751538159295,-0.6225670235575814,1.2550580820395887,0.2970690314259307,-0.10919969593467091
14810,3.0,300.09358,5074.2454,0.0,0.0,0.0,0.15019033778618834,0.0,0.0,-0.3174537185277427,-0.5690738017532115,-0.6559163875439074,1.2409527287224988,0.30150947839916875,-0.1026627534445249
14811,3.0,298.70355,4959.9494,0.0,0.0,0.0,0.1502004789298606,0.0,0.0,-0.3077629641738397,-0.5565077374580374,-0.6434300761641044,1.2732646664614387,0.2957695179076787,-0.1105039413308899
14812,3.0,299.59313,4957.3844,0.0,0.0,0.0,0.15021062007353286,0.0,0.0,-0.2833016679446977,-0.5856735235039765,-0.6379458903953573,1.2524944579615789,0.33006206574958974,-0.13480531629674886
14813,3.0,299.85205,4966.11,0.0,0.0,0.0,0.15022076121720512,0.0,0.0,-0.3043446129739747,-0.5742367365777535,-0.6309920765490693,1.2546839901026687,0.3352121728278657,-0.15845198984299386
14814,3.0,300.04551000000004,4918.2492,0.0,0.0,0.0,0.15023090236087738,0.0,0.0,-0.2779178344658548,-0.5746868729346785,-0.6424202305844403,1.2190368383345689,0.32573218462726367,-0.15804723695804784
14815,3.0,300.9175,5114.9629,0.0,0.0,0.0,0.15024104350454967,0.0,0.0,-0.34244723450441067,-0.5947472490769835,-0.6176265173949914,1.2525082381629389,0.3193009950500547,-0.12859075959091987
14816,3.0,300.60354,5453.3143,0.0,0.0,0.0,0.1502511846482219,0.0,0.0,-0.36785015418398365,-0.6071854716070404,-0.6826357521509033,1.2549940446332688,0.35486191923464466,-0.08371358031588712
14817,3.0,300.45132,5248.7823,0.0,0.0,0.0,0.1502613257918942,0.0,0.0,-0.34885292057660267,-0.5763929327905535,-0.6702529138713124,1.2607262030989888,0.3403429673592357,-0.1024309319541459
14818,3.0,300.80231000000003,4926.1552,0.0,0.0,0.0,0.15027146693556642,0.0,0.0,-0.27247095656578973,-0.5672830240564755,-0.6576741940823895,1.2295828467003789,0.2982254233675577,-0.09395654178878872
14819,3.0,300.00202,5212.8519,0.0,0.0,0.0,0.1502816080792387,0.0,0.0,-0.3067149697279107,-0.6065806423573484,-0.6712811904702953,1.2569304668993788,0.32626513391486167,-0.10404870732880789
14820,3.0,299.58352,5589.8307,0.0,0.0,0.0,0.15029174922291094,0.0,0.0,-0.34823227449284966,-0.6375369933175024,-0.7133996767845663,1.2732373087087387,0.33833668149873064,-0.0910222900759506
14821,3.0,300.02462,5183.2333,0.0,0.0,0.0,0.15030189036658323,0.0,0.0,-0.37057793491069463,-0.5768154783472554,-0.6281801048715494,1.2404647474743387,0.3083120849330337,-0.11450783963104388
14822,3.0,300.50998,4799.9446,0.0,0.0,0.0,0.1503120315102555,0.0,0.0,-0.29223567646141574,-0.5384356011919565,-0.6283920261299645,1.2338763926741187,0.2975247001284017,-0.0979068280129016
14823,3.0,300.27541,4916.6894,0.0,0.0,0.0,0.15032217265392775,0.0,0.0,-0.3057586642835307,-0.5646173150308905,-0.6241748386837604,1.2240095658503387,0.3089466530731607,-0.12426777870177488
14824,3.0,300.3412,5058.9344,0.0,0.0,0.0,0.1503323137976,0.0,0.0,-0.27011118827539876,-0.6029165678757324,-0.6647619697243984,1.2827766531001987,0.3394648037625677,-0.13926433614431988
14825,3.0,300.05653,5202.7686,0.0,0.0,0.0,0.15034245494127227,0.0,0.0,-0.2980435044446037,-0.6193118157563174,-0.6641564109346344,1.223758178500529,0.3070971068706247,-0.17500546685919482
14826,3.0,298.44982999999996,5212.0178,0.0,0.0,0.0,0.15035259608494453,0.0,0.0,-0.3099958431542077,-0.5898999619235935,-0.6844274519052304,1.2402997903580588,0.2952478460936937,-0.14387389455924787
14827,3.0,298.9984,4894.9693,0.0,0.0,0.0,0.1503627372286168,0.0,0.0,-0.31087450324342475,-0.5755893241362434,-0.6014846023044084,1.2442323153211687,0.3203448757005777,-0.1161759634031749
14828,3.0,300.5534,4878.5954,0.0,0.0,0.0,0.15037287837228905,0.0,0.0,-0.2824218628828677,-0.5780005553992135,-0.6225487749232804,1.255837170041479,0.35247405351898065,-0.09826457723895872
14829,3.0,300.5506,5361.8828,0.0,0.0,0.0,0.15038301951596128,0.0,0.0,-0.34991165547359165,-0.6062906907087324,-0.6736761185391563,1.2446669996140687,0.3223192847129367,-0.10089766569082431
14830,3.0,300.78257,5359.2323,0.0,0.0,0.0,0.15039316065963357,0.0,0.0,-0.3144838723521417,-0.6115363168739355,-0.7030526200758913,1.2051021163343187,0.3080612244732757,-0.11913592025779988
14831,3.0,301.10625,5044.9947,0.0,0.0,0.0,0.15040330180330583,0.0,0.0,-0.2941994260827227,-0.6002120919013214,-0.6391409074307964,1.2394088395451288,0.33814091144690966,-0.14160975681329488
14832,3.0,300.06842,5207.7691,0.0,0.0,0.0,0.1504134429469781,0.0,0.0,-0.3076347880361897,-0.5979971373152224,-0.6773998329216584,1.247909298609059,0.3278576388320297,-0.1087489617601869
14833,3.0,300.498,5238.8717,0.0,0.0,0.0,0.15042358409065032,0.0,0.0,-0.36017108631361866,-0.5908252720474144,-0.6414898339451174,1.2763883138697187,0.3136573642455717,-0.12802737227031788
14834,3.0,300.71557,5009.1199,0.0,0.0,0.0,0.1504337252343226,0.0,0.0,-0.3152056610608767,-0.5465531935731004,-0.6608885273746193,1.2617750182774987,0.3004698230015627,-0.0915536789583946
14835,3.0,298.91834,5033.2253,0.0,0.0,0.0,0.15044386637799487,0.0,0.0,-0.34370062487811065,-0.5659996718773185,-0.6202745249413295,1.2869398951110789,0.3328867638483657,-0.13527284002538986
14836,3.0,299.83828,5216.6974,0.0,0.0,0.0,0.15045400752166713,0.0,0.0,-0.32015980556981266,-0.5880250642035554,-0.6775608687600513,1.2673822430058888,0.3449179739457537,-0.10745100864708891
14837,3.0,299.8547,5036.0223,0.0,0.0,0.0,0.15046414866533941,0.0,0.0,-0.2988511660993137,-0.5915945112583325,-0.6403793624980224,1.2340006171363789,0.30721814972757067,-0.16508749117036686
14838,3.0,299.65851000000004,5229.79,0.0,0.0,0.0,0.15047428980901165,0.0,0.0,-0.3374349598372377,-0.5802394936151795,-0.6720511186912814,1.211907509305959,0.2837547832569167,-0.09586735517187131
14839,3.0,299.97691000000003,5512.4429,0.0,0.0,0.0,0.1504844309526839,0.0,0.0,-0.3932811915538316,-0.6044769527647305,-0.6778868617147243,1.220584476537309,0.3352434923884567,-0.12008971284193187
14840,3.0,301.17532,5046.9953,0.0,0.0,0.0,0.15049457209635617,0.0,0.0,-0.3203818998592317,-0.5718361343083325,-0.6419425034272924,1.250923616331549,0.3207661445621537,-0.08403636329424333
14841,3.0,300.49209,4848.2778,0.0,0.0,0.0,0.15050471324002845,0.0,0.0,-0.2793466488293677,-0.5796945271813955,-0.6147142238250703,1.2446986130171886,0.29898616141013673,-0.13774977042484388
14842,3.0,299.72404,5219.4386,0.0,0.0,0.0,0.1505148543837007,0.0,0.0,-0.29327813856179874,-0.5835183405412765,-0.7097825360475823,1.2150148433876289,0.2800273299815457,-0.12793965520916087
14843,3.0,299.64448,5169.8427,0.0,0.0,0.0,0.15052499552737295,0.0,0.0,-0.3051300135239877,-0.6096867098763934,-0.6566863765598994,1.2592209187504289,0.33271073190849265,-0.16584271713240184
14844,3.0,299.26155,4882.33,0.0,0.0,0.0,0.1505351366710452,0.0,0.0,-0.3030626388149537,-0.5485060507558325,-0.6325376983841104,1.2655516040502186,0.3355065827769217,-0.14980498441710086
14845,3.0,299.39454,4759.6184,0.0,0.0,0.0,0.1505452778147175,0.0,0.0,-0.3179017473244597,-0.5449347697183744,-0.5839686187532155,1.2671958049874887,0.3301765528783887,-0.13317426734577686
14846,3.0,298.70155,4850.9456,0.0,0.0,0.0,0.15055541895838975,0.0,0.0,-0.2907925752714927,-0.5440723114982565,-0.6397014475186173,1.2493842867796288,0.2959826246687107,-0.11957923744155188
14847,3.0,299.37664,5141.0089,0.0,0.0,0.0,0.150565560102062,0.0,0.0,-0.3285744828802767,-0.5698923862439994,-0.6642714553509884,1.2661212532564385,0.3383187469719607,-0.1259235408226859
14848,3.0,299.30745,5508.3544,0.0,0.0,0.0,0.15057570124573424,0.0,0.0,-0.3154054334505927,-0.6358235266033965,-0.7231732542016432,1.2598485258623686,0.3519482679095897,-0.1161415736947809
14849,3.0,300.47632999999996,5272.3476,0.0,0.0,0.0,0.15058584238940653,0.0,0.0,-0.3407390873533297,-0.5957578039317174,-0.6661651387278803,1.242167716917409,0.3167642524971977,-0.13257571011420388
14850,3.0,300.18445,4882.3553,0.0,0.0,0.0,0.1505959835330788,0.0,0.0,-0.3066973391761707,-0.5504947161970984,-0.6269220434148884,1.2297742496442687,0.3026904315232197,-0.08634796775438092
14851,3.0,300.65549,5103.5854,0.0,0.0,0.0,0.15060612467675105,0.0,0.0,-0.33917379833384764,-0.5909588488080975,-0.6212298880631164,1.2226566743168188,0.35059601472363267,-0.0874809495656975
14852,3.0,299.84667,5434.1567,0.0,0.0,0.0,0.15061626582042334,0.0,0.0,-0.35154378860217067,-0.6032892412625124,-0.6970149059100152,1.262956265244079,0.34701548271276167,-0.06864959209243723
14853,3.0,300.00469,5093.1632,0.0,0.0,0.0,0.15062640696409557,0.0,0.0,-0.2971698194133777,-0.5858315398570714,-0.6651930671119444,1.2247971651530687,0.3183049195392497,-0.1280054759356569
14854,3.0,299.79487,4828.7088,0.0,0.0,0.0,0.15063654810776783,0.0,0.0,-0.24042821911341777,-0.5723911825806115,-0.6549875209122354,1.2304876790396788,0.29712233851369174,-0.14196898437124786
14855,3.0,300.86742000000004,5200.7104,0.0,0.0,0.0,0.1506466892514401,0.0,0.0,-0.3304324086611397,-0.5840110536674034,-0.6664426375327673,1.2586996015739789,0.32647543397311674,-0.15996002009932483
14856,3.0,301.05022,5199.599,0.0,0.0,0.0,0.15065683039511235,0.0,0.0,-0.3434457722129587,-0.5909941403090804,-0.6461083596234304,1.2746009406933188,0.3393685348705667,-0.13571979477700089
14857,3.0,301.29141,5140.811,0.0,0.0,0.0,0.15066697153878464,0.0,0.0,-0.32477464301776166,-0.6083671846686663,-0.6295363502629004,1.2560149954340287,0.3287890487214527,-0.14239655564844586
14858,3.0,300.8918,4969.6791,0.0,0.0,0.0,0.15067711268245687,0.0,0.0,-0.2943701992545767,-0.5832653319913064,-0.6330228222669885,1.2465187141718188,0.2956676558751257,-0.11278212272322888
14859,3.0,300.25626,4995.1233,0.0,0.0,0.0,0.15068725382612913,0.0,0.0,-0.27731434270629474,-0.6118658156739544,-0.6292125864584474,1.2185578750122987,0.3333528082318607,-0.11863937704629489
14860,3.0,300.05059,5202.2976,0.0,0.0,0.0,0.1506973949698014,0.0,0.0,-0.28692113915691175,-0.6197884790008604,-0.6746589711361564,1.251312805694959,0.3365183636642767,-0.13866084438475987
14861,3.0,299.51184,5295.2116,0.0,0.0,0.0,0.15070753611347368,0.0,0.0,-0.35161613465931063,-0.6256067535925794,-0.6323892065819554,1.2312543040653388,0.3251124302035987,-0.1122083293240999
14862,3.0,299.2442,4956.7244,0.0,0.0,0.0,0.15071767725714594,0.0,0.0,-0.3013967441930427,-0.5789830938886824,-0.6263406303750074,1.239934716347029,0.31358297142322966,-0.12591760317709988
14863,3.0,300.42548999999997,4854.2626,0.0,0.0,0.0,0.15072781840081817,0.0,0.0,-0.3153473438223597,-0.5553447999207645,-0.6048824858522535,1.2616364056638187,0.3222348809796067,-0.1116977525987099
14864,3.0,300.24807000000004,5283.3607,0.0,0.0,0.0,0.15073795954449043,0.0,0.0,-0.3330215767741707,-0.6255286421423705,-0.6474595184992795,1.2741365681724888,0.34778315138602467,-0.11976115636450588
14865,3.0,300.56372000000005,5532.7506,0.0,0.0,0.0,0.15074810068816272,0.0,0.0,-0.36819451736296965,-0.6042746675147664,-0.7093488346072794,1.2472067109897187,0.3360122148418237,-0.10067615705996309
14866,3.0,299.78104,5140.403,0.0,0.0,0.0,0.15075824183183498,0.0,0.0,-0.2941813091709347,-0.5962038872882425,-0.6721689596779113,1.247644232382899,0.31374485839170674,-0.12450449419013687
14867,3.0,300.32167000000004,5043.4245,0.0,0.0,0.0,0.15076838297550724,0.0,0.0,-0.3251669430589787,-0.5922640162619075,-0.6156441645018484,1.2464692675669387,0.3238518660191907,-0.1077586719074529
14868,3.0,301.1059,5299.1316,0.0,0.0,0.0,0.15077852411917947,0.0,0.0,-0.3562696478635767,-0.5974797312841584,-0.6570543180687124,1.2561795472502688,0.34860217157435563,-0.10155068106227191
14869,3.0,301.14759,5346.7848,0.0,0.0,0.0,0.15078866526285176,0.0,0.0,-0.3630009823854077,-0.6196156793288063,-0.6426724184018294,1.2382803829087587,0.32241780302015965,-0.1114793262746529
14870,3.0,300.81257,5207.2477,0.0,0.0,0.0,0.15079880640652402,0.0,0.0,-0.3245308651762027,-0.6046793900022094,-0.6536630206465174,1.2269781859933189,0.28053492775164174,-0.11368930580276089
14871,3.0,302.01292,5131.0244,0.0,0.0,0.0,0.15080894755019628,0.0,0.0,-0.2906231801197747,-0.6033703519330175,-0.6657097638679383,1.2588702328908188,0.3410657591855697,-0.13149773359781589
14872,3.0,300.84471,4963.3394,0.0,0.0,0.0,0.15081908869386856,0.0,0.0,-0.2772580465307387,-0.5862171220501254,-0.6452560643018154,1.2578036858355588,0.33023288958394864,-0.12521984876073688
14873,3.0,300.8811,5092.3081,0.0,0.0,0.0,0.1508292298375408,0.0,0.0,-0.3012236000159547,-0.5838368253127085,-0.6628740821380783,1.2529732186338287,0.3177595782029287,-0.14012336957909988
14874,3.0,300.36236,5199.1114,0.0,0.0,0.0,0.15083937098121306,0.0,0.0,-0.33411995001507167,-0.5726419619803614,-0.6736381419254084,1.209946363737409,0.2837066741421687,-0.11172784612667991
14875,3.0,300.3801,5240.9505,0.0,0.0,0.0,0.15084951212488532,0.0,0.0,-0.3339972150304587,-0.6072361138470385,-0.6518847768535183,1.2490520420718387,0.3242174567877717,-0.11826159687901089
14876,3.0,300.86082000000005,5151.6657,0.0,0.0,0.0,0.1508596532685576,0.0,0.0,-0.3322582954738407,-0.5840197372207605,-0.6496997030128684,1.2580105915059787,0.3436182881749847,-0.11785824227920288
14877,3.0,300.24132000000003,5097.3971,0.0,0.0,0.0,0.15086979441222986,0.0,0.0,-0.32275516464095466,-0.5841145267676154,-0.6426117551183425,1.2231933928947887,0.3419663257419487,-0.1096245517016009
14878,3.0,299.2143,5150.4474,0.0,0.0,0.0,0.1508799355559021,0.0,0.0,-0.3470030096040307,-0.5571118371676574,-0.6614925460242314,1.2485779423500487,0.3019374549764067,-0.1259180490071439
14879,3.0,300.39018,5175.2464,0.0,0.0,0.0,0.15089007669957435,0.0,0.0,-0.3197777900171107,-0.5705835038722075,-0.6827843756755714,1.2535016285609788,0.3298583112869807,-0.0967552520489999
14880,3.0,299.75764,5215.9611,0.0,0.0,0.0,0.15090021784324664,0.0,0.0,-0.2957405896173237,-0.6284208834928123,-0.6613604688736964,1.278682413421129,0.3499924723015677,-0.1258826257836479
14881,3.0,300.16877,5120.64,0.0,0.0,0.0,0.1509103589869189,0.0,0.0,-0.3433352063620467,-0.5520179249399275,-0.6611935764497254,1.2673442461271387,0.2912600584701297,-0.07398287148404092
14882,3.0,299.53459,4980.491,0.0,0.0,0.0,0.15092050013059116,0.0,0.0,-0.28834497846243373,-0.5903636758318584,-0.6352362569779374,1.2434226271662587,0.3026397791507207,-0.13839340715336587
14883,3.0,299.67256000000003,5031.0294,0.0,0.0,0.0,0.1509306412742634,0.0,0.0,-0.32794219455287466,-0.5533240043188276,-0.6480411037916775,1.2397379431776088,0.3204971570581067,-0.1004365588750666
14884,3.0,300.98034,5391.8174,0.0,0.0,0.0,0.15094078241793568,0.0,0.0,-0.36368505792542066,-0.5848970496873444,-0.6903957483067553,1.2644094685374987,0.3632606074585306,-0.13494170989270987
14885,3.0,300.90237,5266.8354,0.0,0.0,0.0,0.15095092356160794,0.0,0.0,-0.3328063219229267,-0.5925986522399335,-0.6755814644246994,1.2012494354790888,0.34820760185291466,-0.11065802627359689
14886,3.0,300.13088,4992.7653,0.0,0.0,0.0,0.1509610647052802,0.0,0.0,-0.28511110970827575,-0.5664539524271525,-0.6661108994500274,1.213250268338479,0.30084738025382474,-0.14293866471694786
14887,3.0,300.75663,5330.9295,0.0,0.0,0.0,0.15097120584895246,0.0,0.0,-0.3234054381576317,-0.5966162902114435,-0.7004477161888073,1.2492768822690288,0.3298145084851577,-0.10771589248823091
14888,3.0,299.50388,5341.3198,0.0,0.0,0.0,0.15098134699262472,0.0,0.0,-0.3192153551516027,-0.6336741799612724,-0.6707383113317174,1.2744244325258989,0.33949490742303867,-0.16461524569625985
14889,3.0,299.32885,5027.5298,0.0,0.0,0.0,0.15099148813629698,0.0,0.0,-0.3192715500021487,-0.5616671259072296,-0.6473048560040154,1.259511012254059,0.3107260519712737,-0.12852152421158689
14890,3.0,299.5454,4948.4611,0.0,0.0,0.0,0.15100162927996924,0.0,0.0,-0.3198617985829017,-0.5700337143679475,-0.6143130983754824,1.2499315431586389,0.3113411859744827,-0.1305393611232319
14891,3.0,298.85308,5175.7570000000005,0.0,0.0,0.0,0.1510117704236415,0.0,0.0,-0.2841766904660557,-0.6051853767046464,-0.6839388221770064,1.257201511301129,0.33801184364917164,-0.09787028616129521
14892,3.0,299.25507999999996,5224.0205,0.0,0.0,0.0,0.1510219115673138,0.0,0.0,-0.3071211411629967,-0.6169053569013184,-0.6639453002762994,1.2571288612689588,0.33642659360271965,-0.13212664780238487
14893,3.0,299.70951,5388.0547,0.0,0.0,0.0,0.15103205271098602,0.0,0.0,-0.3133848202336737,-0.6414670358178673,-0.6829822431550994,1.2231906571195188,0.3118797993301397,-0.09797604515373282
14894,3.0,300.69613,5171.4845,0.0,0.0,0.0,0.15104219385465828,0.0,0.0,-0.3426352633254677,-0.5879950821330964,-0.6413718207059704,1.2273989887598489,0.29084920581958174,-0.11982655152595989
14895,3.0,301.36753,4960.5664,0.0,0.0,0.0,0.15105233499833054,0.0,0.0,-0.32728108939262873,-0.5485460943997845,-0.6320611364645774,1.2504351284583386,0.31244265976068974,-0.10264074565235291
14896,3.0,300.1799,5197.6303,0.0,0.0,0.0,0.15106247614200283,0.0,0.0,-0.3445402545734757,-0.6163657201630603,-0.6190438617673724,1.2790087812783386,0.3465184126112047,-0.16511578111315886
14897,3.0,299.9024,5457.794,0.0,0.0,0.0,0.1510726172856751,0.0,0.0,-0.3675290754922957,-0.5893920196484634,-0.7021119896105583,1.2492862041699488,0.31949983524967873,-0.1157199400631689
14898,3.0,299.91002000000003,5246.6546,0.0,0.0,0.0,0.15108275842934732,0.0,0.0,-0.3042839192929847,-0.6224089261444784,-0.6681591338646724,1.2528252841192289,0.3031237175309817,-0.17649278628348183
14899,3.0,300.60979,4873.5976,0.0,0.0,0.0,0.15109289957301958,0.0,0.0,-0.27578679725303773,-0.5525275897402274,-0.6531375896746614,1.2759114783726588,0.3296340689073497,-0.1065503103681969
14900,3.0,299.85657000000003,5026.2243,0.0,0.0,0.0,0.15110304071669187,0.0,0.0,-0.2974498412110137,-0.6039375490739954,-0.6264592920942185,1.2703351577723188,0.3328755269047567,-0.15106544727649884
14901,3.0,300.34659,5184.2945,0.0,0.0,0.0,0.15111318186036413,0.0,0.0,-0.3211248654950567,-0.6024524689324294,-0.6523187316063463,1.246982884042629,0.3012076109293767,-0.1141434343650799
14902,3.0,298.98888999999997,5228.5226,0.0,0.0,0.0,0.1511233230040364,0.0,0.0,-0.3391707788485497,-0.5987695479989534,-0.6513999670781714,1.223086697659259,0.3044624235631017,-0.14329779094989087
14903,3.0,299.45591,5294.5349,0.0,0.0,0.0,0.15113346414770862,0.0,0.0,-0.3083291480647177,-0.6233798122577975,-0.6776974650060323,1.2418584729868887,0.3303607313490657,-0.1078860070475199
14904,3.0,299.03075,5205.1896,0.0,0.0,0.0,0.1511436052913809,0.0,0.0,-0.3192706178120567,-0.6248461574050145,-0.6381308895986154,1.258683186922359,0.33887470716932966,-0.13580977138588085
14905,3.0,298.50322,5091.6479,0.0,0.0,0.0,0.15115374643505317,0.0,0.0,-0.2849206288219767,-0.5822887311474234,-0.6805244530500343,1.255230739856629,0.2985199853041287,-0.11597835936867287
14906,3.0,298.7566,5193.6277,0.0,0.0,0.0,0.15116388757872543,0.0,0.0,-0.3443005601298197,-0.5926697925294544,-0.6417627933895564,1.2595893364867887,0.2922569851110187,-0.13410329609746488
14907,3.0,300.25201,5196.0864,0.0,0.0,0.0,0.1511740287223977,0.0,0.0,-0.3267086638811347,-0.5899404513975894,-0.6628313939113654,1.2803937928400289,0.3115183324894657,-0.12057386400471387
14908,3.0,299.71067999999997,4911.2673,0.0,0.0,0.0,0.15118416986606995,0.0,0.0,-0.3261679024352657,-0.5616198172600604,-0.6051148950276904,1.2592230465756387,0.33655677597556766,-0.14823568292722286
14909,3.0,299.47772000000003,5206.3751,0.0,0.0,0.0,0.1511943110097422,0.0,0.0,-0.2873062147249157,-0.6308782784303384,-0.6644235441909984,1.2530650190928887,0.32840200744825465,-0.16032744485058686
14910,3.0,301.00291,5311.2601,0.0,0.0,0.0,0.15120445215341446,0.0,0.0,-0.34159872873816965,-0.5955004688038205,-0.6773912405608103,1.2295348186456387,0.35869209580515365,-0.1043079676318949
14911,3.0,301.19567,5163.4091,0.0,0.0,0.0,0.15121459329708675,0.0,0.0,-0.28773173923691175,-0.6213878030912015,-0.6604278937466583,1.265621416982109,0.37534522596868963,-0.1066713836226459
14912,3.0,300.2323,5189.588,0.0,0.0,0.0,0.15122473444075898,0.0,0.0,-0.31510717315115666,-0.5945537183078835,-0.6678442765285985,1.261263428302009,0.3270297729703257,-0.09949202841009872
14913,3.0,299.96757,5250.5506,0.0,0.0,0.0,0.15123487558443124,0.0,0.0,-0.3290770346648747,-0.5968962005515684,-0.6700630510675744,1.2678504658770986,0.2888200509043197,-0.09555539775758351
14914,3.0,299.5218,5221.5339,0.0,0.0,0.0,0.1512450167281035,0.0,0.0,-0.3055311592385777,-0.6187180410652164,-0.6629667033297193,1.2420588938566688,0.2784748585758287,-0.13351512467941687
14915,3.0,299.40263,5338.3887,0.0,0.0,0.0,0.15125515787177576,0.0,0.0,-0.3270161548889817,-0.5970008591543975,-0.6987198410582793,1.2586544106195188,0.32796896462051667,-0.10441144073210691
14916,3.0,299.98777,5413.2182,0.0,0.0,0.0,0.15126529901544805,0.0,0.0,-0.3442267549925357,-0.6386389838612604,-0.6626174360202494,1.235695784553679,0.35417609077195866,-0.15068884247933084
14917,3.0,300.35187,4858.5688,0.0,0.0,0.0,0.15127544015912028,0.0,0.0,-0.2979531529331867,-0.5526671953390054,-0.6262632281998683,1.2294938833415987,0.3353481611237867,-0.12124512193096187
14918,3.0,300.08702999999997,4884.4854,0.0,0.0,0.0,0.15128558130279254,0.0,0.0,-0.3048758296039017,-0.5549483354216365,-0.6249374411065234,1.249410428632209,0.34329739186831465,-0.12224346712199088
14919,3.0,300.44021000000004,5433.7948,0.0,0.0,0.0,0.1512957224464648,0.0,0.0,-0.36275187484832266,-0.6089935758804864,-0.6799924967475344,1.2625489387038789,0.34050797513802067,-0.1003338710436821
14920,3.0,300.79778999999996,5443.7135,0.0,0.0,0.0,0.1513058635901371,0.0,0.0,-0.35417980939982563,-0.6018485009453224,-0.6987246539962544,1.2878851561293687,0.3240390741076667,-0.1254351846719889
14921,3.0,301.43122999999997,5090.6081,0.0,0.0,0.0,0.15131600473380932,0.0,0.0,-0.30215661084053574,-0.5992018410216174,-0.6460592879210874,1.243691138442759,0.28830357706334775,-0.15340647044003985
14922,3.0,301.88355,5022.0645,0.0,0.0,0.0,0.1513261458774816,0.0,0.0,-0.2969569659648707,-0.5979216299177704,-0.6317036010342914,1.2578546523155887,0.3278345063322467,-0.13189576863459887
14923,3.0,301.79308,5140.6805,0.0,0.0,0.0,0.15133628702115384,0.0,0.0,-0.3135151140640327,-0.5936752000736804,-0.6554481849376994,1.244320873379909,0.3483973937291457,-0.10942462732436989
14924,3.0,300.86704,5168.1071,0.0,0.0,0.0,0.15134642816482613,0.0,0.0,-0.31773939426093667,-0.6087936008407504,-0.6444425055315234,1.2563043796625886,0.3218050197571827,-0.11812611520813987
14925,3.0,299.79782,5201.8902,0.0,0.0,0.0,0.15135656930849836,0.0,0.0,-0.2933790785367607,-0.6088916023904224,-0.6789740486745214,1.2351920979289688,0.29033130329596873,-0.13788740018592685
14926,3.0,300.29591,5034.2611,0.0,0.0,0.0,0.15136671045217065,0.0,0.0,-0.28643397864133274,-0.5730447795576165,-0.6708109005688814,1.2717106447830686,0.3006911674859077,-0.12303986143558888
14927,3.0,300.20092999999997,4937.2904,0.0,0.0,0.0,0.1513768515958429,0.0,0.0,-0.2771119156013167,-0.5870708967168864,-0.6366301851405074,1.2596947144971886,0.3106310192443947,-0.15157146437643887
14928,3.0,300.15775,5174.8893,0.0,0.0,0.0,0.15138699273951517,0.0,0.0,-0.35735112009280967,-0.5648038645068014,-0.6508821557470674,1.248963990638149,0.3373855638948627,-0.11945689762447788
14929,3.0,299.62595,5262.0097,0.0,0.0,0.0,0.15139713388318743,0.0,0.0,-0.34094318632097265,-0.6019040270508024,-0.6566723430460143,1.2207665575802789,0.3272212164442197,-0.13949608670719188
14930,3.0,300.31072,5088.4404,0.0,0.0,0.0,0.1514072750268597,0.0,0.0,-0.34367183844276966,-0.5615173776749505,-0.6415696172579914,1.2444611071937488,0.33738574627988066,-0.0971131998720766
14931,3.0,299.3092,5082.9667,0.0,0.0,0.0,0.15141741617053195,0.0,0.0,-0.2854218735139457,-0.5858215593435864,-0.6738515121314664,1.257425743548259,0.34329054229763867,-0.10828049570895289
14932,3.0,299.51919,5465.295,0.0,0.0,0.0,0.1514275573142042,0.0,0.0,-0.33721931995095566,-0.6423507925550873,-0.6817430889453043,1.2612440752250988,0.29480313062480373,-0.1136845131297879
14933,3.0,299.84418,5277.7529,0.0,0.0,0.0,0.15143769845787647,0.0,0.0,-0.3163449696058177,-0.5860571805218405,-0.7019029358499264,1.2439433363926486,0.2828014669003317,-0.13824077115830188
14934,3.0,298.40418999999997,4879.9176,0.0,0.0,0.0,0.15144783960154873,0.0,0.0,-0.2961413604293767,-0.5822994715984834,-0.6049322465646645,1.246042891924859,0.3013869257995737,-0.13382410516491086
14935,3.0,299.65529,4787.7363,0.0,0.0,0.0,0.151457980745221,0.0,0.0,-0.2901929034648097,-0.5562174109068845,-0.6089419710528934,1.2681363037303088,0.3190839670111357,-0.12282827454970689
14936,3.0,300.40352,4944.5411,0.0,0.0,0.0,0.15146812188889325,0.0,0.0,-0.3130332021839717,-0.5598025734707124,-0.6301812434215464,1.231234241713359,0.32131442432376467,-0.12441708110400988
14937,3.0,300.61085,5069.624,0.0,0.0,0.0,0.15147826303256554,0.0,0.0,-0.2833752704319617,-0.6056390898344244,-0.6520247370898313,1.233454880632519,0.3047682731057867,-0.15519752171430284
14938,3.0,299.88223,5118.9305,0.0,0.0,0.0,0.15148840417623777,0.0,0.0,-0.3107911938202027,-0.5708202294930704,-0.6744156492571424,1.2491664380081289,0.34422028032439667,-0.1065089697641169
14939,3.0,300.12953999999996,5052.0122,0.0,0.0,0.0,0.15149854531991003,0.0,0.0,-0.2890919464361537,-0.6046655186083404,-0.6419280848783694,1.258499282029209,0.35316733950240264,-0.1320474927045729
14940,3.0,299.8145,5284.6295,0.0,0.0,0.0,0.1515086864635823,0.0,0.0,-0.3449969162610447,-0.6013449561756264,-0.6600535586297144,1.2524732810344887,0.33450021264510066,-0.12541431171992887
14941,3.0,299.81946,5674.3647,0.0,0.0,0.0,0.15151882760725457,0.0,0.0,-0.3850805227969886,-0.6465401156235414,-0.6932445212279074,1.2681480574314687,0.3207723557852667,-0.13078185213716387
14942,3.0,299.19853,5486.3429,0.0,0.0,0.0,0.15152896875092683,0.0,0.0,-0.3684154058847697,-0.6202116122426204,-0.6790842294903954,1.2510107558401486,0.34508642677487866,-0.092969375786113
14943,3.0,298.96656,5037.1965,0.0,0.0,0.0,0.15153910989459907,0.0,0.0,-0.2565699315539807,-0.5973318575645644,-0.6772801883498504,1.2633343088563886,0.3448050269571067,-0.12019366216969089
14944,3.0,298.61663,4980.2985,0.0,0.0,0.0,0.15154925103827133,0.0,0.0,-0.2688274814587067,-0.5992099672874194,-0.6458489169353253,1.2323338207218788,0.3320902175472527,-0.0963365011139224
14945,3.0,300.20833,5222.6208,0.0,0.0,0.0,0.15155939218194361,0.0,0.0,-0.28261962903738574,-0.6346712889871795,-0.6702554064665583,1.2236092307358288,0.3201860791449057,-0.13727668395315387
14946,3.0,300.51137,5114.0309,0.0,0.0,0.0,0.15156953332561587,0.0,0.0,-0.34839933916933763,-0.5509431806913585,-0.6551951763877294,1.2512250582362987,0.30477336975378977,-0.09628184032402781
14947,3.0,300.00451,5000.1745,0.0,0.0,0.0,0.15157967446928813,0.0,0.0,-0.31005353761490173,-0.5814608348882165,-0.6284138211396154,1.2697503098145988,0.3177530022097797,-0.12816594435399387
14948,3.0,300.12564,5180.3836,0.0,0.0,0.0,0.15158981561296037,0.0,0.0,-0.3486420936282957,-0.5748942244351425,-0.6511709421580684,1.2521904829315789,0.3136346877083337,-0.1088616959663129
14949,3.0,300.96221,5456.519,0.0,0.0,0.0,0.15159995675663265,0.0,0.0,-0.32545542549494966,-0.6025520004897524,-0.7306380804708643,1.2775919536635088,0.3318725511607707,-0.15027325795081586
14950,3.0,300.345,5502.9452,0.0,0.0,0.0,0.1516100979003049,0.0,0.0,-0.3476554210784187,-0.6406144973162284,-0.6844880037312064,1.2899338465065588,0.35861972948301163,-0.1037229879516619
14951,3.0,300.52827,5223.6654,0.0,0.0,0.0,0.15162023904397717,0.0,0.0,-0.3108581797843137,-0.5730464919502855,-0.7039591648078604,1.270355220124299,0.3634473089219567,-0.12078749765579788
14952,3.0,299.63177,4974.4017,0.0,0.0,0.0,0.15163038018764943,0.0,0.0,-0.3196884618882947,-0.5605667362986295,-0.6318386976701243,1.2393453087638588,0.32394424403080774,-0.10477979767346089
14953,3.0,300.24325,4976.0638,0.0,0.0,0.0,0.15164052133132166,0.0,0.0,-0.3035790214634167,-0.5886989768450654,-0.6203211445784305,1.2283974454083888,0.30847057751367574,-0.14486606905716787
14954,3.0,299.56561,5224.2142,0.0,0.0,0.0,0.15165066247499395,0.0,0.0,-0.34164397035513466,-0.5778684275861734,-0.6685182702301163,1.254505556760059,0.33132683492191267,-0.08809313602436561
14955,3.0,299.95499,5135.4975,0.0,0.0,0.0,0.1516608036186662,0.0,0.0,-0.2777511852219077,-0.6310686579916274,-0.6522431634138883,1.2450652069033687,0.3257229539188527,-0.14354019077131386
14956,3.0,300.0629,4814.6351,0.0,0.0,0.0,0.15167094476233847,0.0,0.0,-0.27081134409449875,-0.5715212263097534,-0.6211962785572994,1.232760905639029,0.3192176146993257,-0.12564934521312487
14957,3.0,299.60638,4956.1614,0.0,0.0,0.0,0.15168108590601076,0.0,0.0,-0.25215947678370276,-0.6054673439424745,-0.6489224793911623,1.2586180349409288,0.3221360181673497,-0.17196400416652582
14958,3.0,299.95679,5439.6759999999995,0.0,0.0,0.0,0.151691227049683,0.0,0.0,-0.3830315284447686,-0.6179797363798514,-0.6525144205981593,1.2984120140682887,0.3326943679193777,-0.11214341039019289
14959,3.0,300.81449,5386.6811,0.0,0.0,0.0,0.15170136819335525,0.0,0.0,-0.3509497099360397,-0.5860165289278284,-0.7004503101090633,1.2699815334874187,0.28991188868207574,-0.14197288538413286
14960,3.0,301.93098,5161.7604,0.0,0.0,0.0,0.1517115093370275,0.0,0.0,-0.3418907980794947,-0.5870112973460044,-0.6401441871498125,1.2601183543639987,0.28696601600384075,-0.12637852051508888
14961,3.0,301.09578,4957.1402,0.0,0.0,0.0,0.1517216504806998,0.0,0.0,-0.2810244086099497,-0.5854792429298025,-0.6403431894694525,1.2285422388476788,0.3256515096543017,-0.16036506682679985
14962,3.0,300.79438999999996,5097.3303,0.0,0.0,0.0,0.15173179162437206,0.0,0.0,-0.3133378560915387,-0.5784418055527615,-0.6576814793506084,1.258149710744709,0.3573363266413497,-0.08206885451506532
14963,3.0,300.19509,5261.0256,0.0,0.0,0.0,0.1517419327680443,0.0,0.0,-0.3066101591375667,-0.6141844156127824,-0.6784258297079163,1.2195840947135788,0.3364936200968347,-0.13355670846352088
14964,3.0,300.00886,5179.9292,0.0,0.0,0.0,0.15175207391171655,0.0,0.0,-0.35478444613199867,-0.5656065308385184,-0.6541781569973574,1.2238337669579888,0.3099102133882567,-0.07663565549135033
14965,3.0,299.31748999999996,4988.9986,0.0,0.0,0.0,0.15176221505538884,0.0,0.0,-0.3099911416737437,-0.5878146526877895,-0.6187252047434234,1.237219712704079,0.3179006935443557,-0.1429427481148509
14966,3.0,300.45266000000004,5146.276,0.0,0.0,0.0,0.1517723561990611,0.0,0.0,-0.3256467473788317,-0.5930921860986414,-0.6456004680108054,1.288790292443699,0.3215875357557187,-0.09588534036114632
14967,3.0,299.66151,5436.9825,0.0,0.0,0.0,0.15178249734273336,0.0,0.0,-0.35423082654236066,-0.6023073613856085,-0.6961687407515054,1.2691231080026988,0.29654279998649574,-0.12391056751152088
14968,3.0,299.86664,5435.1547,0.0,0.0,0.0,0.1517926384864056,0.0,0.0,-0.3318192339405087,-0.6263568018466034,-0.6939752670675263,1.227159152461179,0.3001517435301707,-0.12242667287257189
14969,3.0,300.26892999999995,4984.8084,0.0,0.0,0.0,0.15180277963007788,0.0,0.0,-0.2837655642379807,-0.5868245958825784,-0.6446671228136914,1.2492242945888385,0.3207444711425147,-0.13321905300019687
14970,3.0,299.71319,4883.2315,0.0,0.0,0.0,0.15181292077375014,0.0,0.0,-0.29920770854450174,-0.5390115528137984,-0.6461611904836444,1.268672313033209,0.35027027508148467,-0.09177362110460122
14971,3.0,300.70054,5159.4619,0.0,0.0,0.0,0.1518230619174224,0.0,0.0,-0.3261863435870857,-0.5937114541622585,-0.6484497982195123,1.249747840915509,0.3182399499428377,-0.13427959148236387
14972,3.0,300.64255,5395.5892,0.0,0.0,0.0,0.15183320306109468,0.0,0.0,-0.36735387441750467,-0.5765039140740065,-0.6962666004461633,1.2536733744529287,0.2863399388995517,-0.1234997351259749
14973,3.0,300.72078999999997,5276.635,0.0,0.0,0.0,0.15184334420476692,0.0,0.0,-0.3403623305686467,-0.6230947647396654,-0.6405081871157364,1.2592834362815988,0.3332964107312947,-0.15968304818448983
14974,3.0,300.72022000000004,5135.3367,0.0,0.0,0.0,0.15185348534843918,0.0,0.0,-0.3079023468575957,-0.6009182765585165,-0.6521934938939864,1.262357941060029,0.37004925140601763,-0.1175231098086279
14975,3.0,301.34788,5202.3199,0.0,0.0,0.0,0.15186362649211144,0.0,0.0,-0.30776936791447174,-0.5917613327547965,-0.6818446470028273,1.2363510533933488,0.3367097362106637,-0.11559941396377389
14976,3.0,299.9579,5453.1851,0.0,0.0,0.0,0.1518737676357837,0.0,0.0,-0.34350505747630966,-0.6296828358298574,-0.6844442110618844,1.2020993496629688,0.2965019862724677,-0.08832339204334011
14977,3.0,299.88804,5463.8075,0.0,0.0,0.0,0.15188390877945598,0.0,0.0,-0.3386735871569807,-0.6178572749727654,-0.7043302068619793,1.2204343128724888,0.3166897583498457,-0.12446177556592089
14978,3.0,299.64411,5027.419,0.0,0.0,0.0,0.15189404992312822,0.0,0.0,-0.3021933614216627,-0.5626167641659514,-0.6633997157599544,1.2465641077762988,0.3375473900683337,-0.1020314074397159
14979,3.0,300.28542000000004,4754.2009,0.0,0.0,0.0,0.15190419106680048,0.0,0.0,-0.25065754629297377,-0.5737655043537465,-0.6207353004243045,1.2414257138691789,0.3209578312160717,-0.15608247408664086
14980,3.0,300.80846,5128.4529,0.0,0.0,0.0,0.15191433221047274,0.0,0.0,-0.34387462018528264,-0.5622845194581615,-0.6527624844876413,1.2473541388792688,0.2988687054585447,-0.12280678351508587
14981,3.0,299.63121,5334.9314,0.0,0.0,0.0,0.15192447335414502,0.0,0.0,-0.34736164947692566,-0.6184681938555584,-0.6558560788979554,1.2991884676199188,0.3430705150384237,-0.14643873453737788
14982,3.0,300.02925,5204.3936,0.0,0.0,0.0,0.15193461449781728,0.0,0.0,-0.3462723042944157,-0.5838293981894754,-0.6519039880754144,1.2971439315681386,0.36927895841499564,-0.09629457485128459
14983,3.0,300.02898999999996,4912.2337,0.0,0.0,0.0,0.15194475564148952,0.0,0.0,-0.2762762274488408,-0.5608729708763525,-0.6560471879993164,1.2726270281735088,0.3327318885705807,-0.1251019773766039
14984,3.0,300.07965,4902.2847,0.0,0.0,0.0,0.15195489678516177,0.0,0.0,-0.29896507567555575,-0.5618754805252925,-0.6293315825501914,1.2193823566186688,0.28214867039090574,-0.13865789582696886
14985,3.0,299.20541000000003,5181.6581,0.0,0.0,0.0,0.15196503792883406,0.0,0.0,-0.30358576970908274,-0.6043956293117044,-0.6671132976414563,1.2521696099795188,0.3168437824975467,-0.1251861176649079
14986,3.0,300.03031,5318.3232,0.0,0.0,0.0,0.15197517907250632,0.0,0.0,-0.37063283280111264,-0.5893654724958434,-0.6566391591052394,1.2582651199310988,0.34206500616918767,-0.09448303869974992
14987,3.0,298.98081,5019.7041,0.0,0.0,0.0,0.15198532021617858,0.0,0.0,-0.29086739365887676,-0.5796389706784124,-0.6553583299188314,1.2451642014381386,0.3162069750746987,-0.10008083412270931
14988,3.0,299.59282,4905.5372,0.0,0.0,0.0,0.15199546135985081,0.0,0.0,-0.2920004301856987,-0.5579796250833015,-0.6411807723996154,1.2302239300386488,0.3139861436380197,-0.1060055871144369
14989,3.0,299.94551,5306.0875,0.0,0.0,0.0,0.1520056025035231,0.0,0.0,-0.2841253085534847,-0.6241447248907884,-0.7046480836833514,1.2748286179907888,0.3404709104493627,-0.12654609181662688
14990,3.0,300.31822,5461.7504,0.0,0.0,0.0,0.15201574364719536,0.0,0.0,-0.3349093731679817,-0.6297840291173443,-0.6955423292746833,1.2895455690682387,0.3577559945677677,-0.12380681070128087
14991,3.0,300.6253,5117.0502,0.0,0.0,0.0,0.15202588479086762,0.0,0.0,-0.3090382002196957,-0.5791884796839525,-0.6672287980203554,1.2500075369161388,0.3126422902953917,-0.14626068622980587
14992,3.0,300.7123,4856.0225,0.0,0.0,0.0,0.1520360259345399,0.0,0.0,-0.3214568974203257,-0.5768692920600664,-0.5777833855052805,1.2181455835466088,0.28808992314726173,-0.16394767600037585
14993,3.0,300.19953,5121.9281,0.0,0.0,0.0,0.15204616707821214,0.0,0.0,-0.34521181647475363,-0.5913406718432804,-0.6203857494048064,1.234833002093529,0.33432197182000967,-0.15049014413472087
14994,3.0,300.06278,5265.7343,0.0,0.0,0.0,0.1520563082218844,0.0,0.0,-0.3564767460515157,-0.5795819449627845,-0.6645930609327284,1.2776895296481385,0.35024528833401863,-0.10915935844818989
14995,3.0,299.92721,5295.6630000000005,0.0,0.0,0.0,0.15206644936555666,0.0,0.0,-0.2969044289471857,-0.6093450014126695,-0.7034998990675343,1.2575416593596986,0.3049148903952567,-0.11850477690301088
14996,3.0,299.81405,5264.7792,0.0,0.0,0.0,0.15207659050922895,0.0,0.0,-0.3055438451298297,-0.5880561101866194,-0.7067614498144243,1.2470965707038488,0.30239775423183474,-0.10148992658627591
14997,3.0,299.52097000000003,5247.493,0.0,0.0,0.0,0.1520867316529012,0.0,0.0,-0.2957961055903027,-0.6099535999527335,-0.6893571365567523,1.2502150505366187,0.31338855912654273,-0.12243785915367589
14998,3.0,298.93429,5432.3118,0.0,0.0,0.0,0.15209687279657344,0.0,0.0,-0.37419466021513764,-0.5855780246820514,-0.6915144574771633,1.262060957455719,0.3102124557605857,-0.10905062657995888
14999,3.0,299.12602999999996,5565.2969,0.0,0.0,0.0,0.1521070139402457,0.0,0.0,-0.39668867058012364,-0.5812941856442694,-0.7137284359120123,1.2228505090609487,0.28697393961962275,-0.1000100423912227
15000,3.0,298.93438,5211.7533,0.0,0.0,0.0,0.152117155083918,0.0,0.0,-0.3128949543403277,-0.6103008610270054,-0.6610470503527643,1.2326111472742487,0.3013030286912937,-0.11691845281145288
15001,3.0,298.79508,4765.6829,0.0,0.0,0.0,0.15212729622759025,0.0,0.0,-0.23983072579444978,-0.5775028165525905,-0.6313150601509454,1.2518012935681688,0.35140259220073566,-0.13529545576762186
15002,3.0,299.29114,5009.3956,0.0,0.0,0.0,0.1521374373712625,0.0,0.0,-0.27978336975496876,-0.5984416298690904,-0.6445061781678074,1.2748116967141188,0.3567495737734417,-0.12974315932715288
15003,3.0,300.63661,5339.411,0.0,0.0,0.0,0.15214757851493474,0.0,0.0,-0.3332832182149927,-0.6300232270684514,-0.6597411938888864,1.2653387202042088,0.3204361999320907,-0.13934918570769386
15004,3.0,300.89492,5156.4787,0.0,0.0,0.0,0.15215771965860703,0.0,0.0,-0.3406601855680427,-0.5931457161014244,-0.6336348759898934,1.265268805947309,0.3183704362907157,-0.14893498761623886
15005,3.0,299.86118999999997,5000.4964,0.0,0.0,0.0,0.1521678608022793,0.0,0.0,-0.3162895144278447,-0.5840125836750545,-0.6197239552344924,1.2655161402967186,0.34267528670441766,-0.13118627064957686
15006,3.0,299.70977999999997,5278.6407,0.0,0.0,0.0,0.15217800194595155,0.0,0.0,-0.3476811272334557,-0.5988080819002565,-0.6580857560080073,1.2583906616184886,0.33084232912159567,-0.08911754504771692
15007,3.0,299.43719,5483.7921,0.0,0.0,0.0,0.1521881430896238,0.0,0.0,-0.34083163761746366,-0.5989725323914864,-0.7271317082348123,1.2249140942146088,0.3163700779432957,-0.08145754654423393
15008,3.0,298.85517999999996,5591.5191,0.0,0.0,0.0,0.15219828423329607,0.0,0.0,-0.3268917885717077,-0.6616572599604873,-0.7111331477683773,1.2243768690115888,0.3123352552500897,-0.12043888895889289
15009,3.0,300.42877000000004,5411.0932,0.0,0.0,0.0,0.15220842537696833,0.0,0.0,-0.3015750052831357,-0.6368959707742383,-0.7063662620104223,1.2465777866526488,0.3496702182397637,-0.10207686183920191
15010,3.0,300.00829,5081.6882,0.0,0.0,0.0,0.15221856652064059,0.0,0.0,-0.3336878900399307,-0.5946488726247744,-0.6163695401159374,1.265273061597729,0.3372362209626237,-0.11544079979311989
15011,3.0,300.38124,5163.5116,0.0,0.0,0.0,0.15222870766431285,0.0,0.0,-0.31495142647828567,-0.6134576417135554,-0.6411695253235054,1.2485504832723386,0.32712671060739273,-0.1300995295198239
15012,3.0,301.86802,5290.5111,0.0,0.0,0.0,0.15223884880798513,0.0,0.0,-0.34930872100158666,-0.6071110078571914,-0.6517635212140513,1.2689492342855386,0.33114577726154365,-0.14404520475365487
15013,3.0,301.0656,4988.3358,0.0,0.0,0.0,0.15224898995165737,0.0,0.0,-0.24345100760674376,-0.6262744043484714,-0.6466041226323583,1.2849722647418886,0.3626005662108897,-0.14964998754930386
15014,3.0,300.75079,4632.0966,0.0,0.0,0.0,0.15225913109532963,0.0,0.0,-0.24145857287510578,-0.5641928442989985,-0.6023902857737924,1.237029525660309,0.34935337493349367,-0.15470104943030485
15015,3.0,300.78946,4925.3404,0.0,0.0,0.0,0.15226927223900188,0.0,0.0,-0.27875004717048774,-0.5667202649509355,-0.6517102039937893,1.234207117506759,0.2998791589882687,-0.13313590569699088
15016,3.0,300.15993,5409.7054,0.0,0.0,0.0,0.15227941338267417,0.0,0.0,-0.37587174111815264,-0.6183197020534034,-0.6502239383496063,1.2318559719747189,0.2884194928747877,-0.13328619095182287
15017,3.0,300.28702999999996,5632.2734,0.0,0.0,0.0,0.1522895545263464,0.0,0.0,-0.36435501889154065,-0.6265718641803284,-0.7211435825288303,1.2766369654442589,0.3322042993760117,-0.08755822305807381
15018,3.0,300.30144,5517.4928,0.0,0.0,0.0,0.15229969567001866,0.0,0.0,-0.35927169512735563,-0.6508868470950304,-0.6670214971823963,1.2846865282136886,0.33718762548782766,-0.10793107641196789
15019,3.0,300.16738,5323.1683,0.0,0.0,0.0,0.15230983681369092,0.0,0.0,-0.3001364738511637,-0.6128701491730744,-0.7051036307958104,1.2575191652074789,0.3348666140137617,-0.08611077502522183
15020,3.0,300.11357999999996,5296.6204,0.0,0.0,0.0,0.1523199779573632,0.0,0.0,-0.30270034110919775,-0.6298313276320123,-0.6775086661148993,1.2557861022364387,0.3197925429385667,-0.15940925787496885
15021,3.0,299.79695,5371.4698,0.0,0.0,0.0,0.15233011910103547,0.0,0.0,-0.3171379999290837,-0.6442670106142033,-0.6713876830558054,1.2939213909500988,0.33639057256166466,-0.1094065306775839
15022,3.0,300.68807000000004,5148.7243,0.0,0.0,0.0,0.15234026024470773,0.0,0.0,-0.3319835527092257,-0.5848837355810305,-0.6482163251314704,1.2786631616692288,0.3379684562798897,-0.15234294287007785
15023,3.0,301.51906,4725.6451,0.0,0.0,0.0,0.15235040138837996,0.0,0.0,-0.2949834384800987,-0.5564232931947035,-0.5850713793670494,1.2554193057002387,0.2917293857839487,-0.1141288334311389
15024,3.0,300.6376,4696.5952,0.0,0.0,0.0,0.15236054253205225,0.0,0.0,-0.2723240758312937,-0.5577608947842145,-0.5975626962023465,1.2491908573355386,0.3106799693567257,-0.18483850179213981
15025,3.0,301.02553,5390.4949,0.0,0.0,0.0,0.1523706836757245,0.0,0.0,-0.3138449877665887,-0.6265008657458214,-0.6982300055624363,1.2469488388392689,0.36064281503017465,-0.0992888332615449
15026,3.0,300.62624,5588.0059,0.0,0.0,0.0,0.15238082481939677,0.0,0.0,-0.3347697067741977,-0.6242724855958974,-0.7395720687225803,1.2789555856480888,0.3562052558197217,-0.14209298591848588
15027,3.0,300.10705,5450.3234,0.0,0.0,0.0,0.15239096596306903,0.0,0.0,-0.36155042367474866,-0.5929368244608084,-0.7022749708891433,1.2430062827001689,0.3118332100905417,-0.08966804382704692
15028,3.0,300.76076,5320.0476,0.0,0.0,0.0,0.1524011071067413,0.0,0.0,-0.3525222031637327,-0.5921546359136124,-0.6724848099990833,1.2652693125723589,0.3062257624471297,-0.12531555023268187
15029,3.0,300.29907000000003,5351.9796,0.0,0.0,0.0,0.15241124825041355,0.0,0.0,-0.38198601646158464,-0.5764334323970505,-0.6684487106107514,1.2995980233103388,0.30252391400178574,-0.0859927891438275
15030,3.0,299.86224,5262.8388,0.0,0.0,0.0,0.1524213893940858,0.0,0.0,-0.32508146528054266,-0.5908506742274214,-0.6838394628722003,1.2986981558965287,0.3092329266239137,-0.11654541465463689
15031,3.0,299.42053,5361.3722,0.0,0.0,0.0,0.15243153053775807,0.0,0.0,-0.30823432812035967,-0.6043925490314004,-0.7170964184494063,1.2545079885602988,0.2894618536501607,-0.12275866426783688
15032,3.0,299.5597,5147.5162,0.0,0.0,0.0,0.15244167168143033,0.0,0.0,-0.29578673302687775,-0.5995992174458354,-0.6693304509802723,1.2411015751621888,0.33106156604573267,-0.13719353664994785
15033,3.0,300.06665,4801.2199,0.0,0.0,0.0,0.1524518128251026,0.0,0.0,-0.2604839140402608,-0.5747863436969954,-0.6241807054018395,1.2385682472621686,0.3680507574387817,-0.13103558009470487
15034,3.0,299.85447,5015.5617,0.0,0.0,0.0,0.15246195396877485,0.0,0.0,-0.32230063077859566,-0.5877057890970454,-0.6145990983487084,1.2546858139528487,0.35734548642225367,-0.11817386968535289
15035,3.0,300.14385,5419.1357,0.0,0.0,0.0,0.1524720951124471,0.0,0.0,-0.37237787238833464,-0.5903917935221334,-0.6845122913361033,1.2600078087780888,0.2881211920453477,-0.11987627170836689
15036,3.0,301.11136,5408.7093,0.0,0.0,0.0,0.15248223625611937,0.0,0.0,-0.3299191670879867,-0.6295063884574433,-0.6846870060508464,1.2691600916313488,0.29358760540734075,-0.14134448793711485
15037,3.0,300.9205,5075.8676,0.0,0.0,0.0,0.15249237739979166,0.0,0.0,-0.28983832672481574,-0.5624987407943035,-0.6905999485994083,1.2594778789757888,0.30942508950537867,-0.12707368101119587
15038,3.0,300.34517,5343.7137,0.0,0.0,0.0,0.1525025185434639,0.0,0.0,-0.3092337676214967,-0.6085595299351495,-0.7065622347122633,1.2836303163094487,0.3178565158399957,-0.1089512774076539
15039,3.0,300.39496,5541.5903,0.0,0.0,0.0,0.15251265968713615,0.0,0.0,-0.3801906487418957,-0.5981948629397363,-0.7061195558760743,1.252453421332529,0.3117233129846957,-0.1120903566149569
15040,3.0,298.86629,5386.2505,0.0,0.0,0.0,0.1525228008308084,0.0,0.0,-0.36832367635321667,-0.6124189286385424,-0.6565430523332544,1.2717357733855488,0.35979942617693866,-0.1293308779939639
15041,3.0,299.37584,5176.4799,0.0,0.0,0.0,0.15253294197448067,0.0,0.0,-0.33932696121896366,-0.6001749664176574,-0.6340187052602744,1.2646355246348089,0.35231097091538566,-0.1069626727613939
15042,3.0,299.46086,4862.9127,0.0,0.0,0.0,0.15254308311815296,0.0,0.0,-0.2544614999508948,-0.5789171515721744,-0.6448253823468104,1.2725153680124888,0.34940836401642067,-0.12866264968551488
15043,3.0,300.07809,4943.3126,0.0,0.0,0.0,0.1525532242618252,0.0,0.0,-0.2555684756851448,-0.5825451340852285,-0.6645299759815024,1.2642881825005288,0.2938310691413687,-0.1288365639326789
15044,3.0,299.01555,5306.6198,0.0,0.0,0.0,0.15256336540549745,0.0,0.0,-0.30969035838155873,-0.6157964661243794,-0.6875930782651534,1.2808954529645387,0.3181617371676187,-0.16358581399216285
15045,3.0,300.75645,5370.908,0.0,0.0,0.0,0.1525735065491697,0.0,0.0,-0.35690240228602466,-0.5988676914036395,-0.6768518368700753,1.283740963220369,0.3260102305872047,-0.1096082890374959
15046,3.0,299.66877,5028.0052,0.0,0.0,0.0,0.152583647692842,0.0,0.0,-0.33318654402295167,-0.5913312688823524,-0.6038702186048505,1.2636920874666988,0.3215048849450617,-0.12584068736200887
15047,3.0,300.52492,5296.6669,0.0,0.0,0.0,0.15259378883651425,0.0,0.0,-0.3439721556399086,-0.5920039352262394,-0.6740783788288564,1.2417219881984187,0.30146045735933075,-0.1130492357145909
15048,3.0,299.7305,5796.2096,0.0,0.0,0.0,0.1526039299801865,0.0,0.0,-0.37243332756630765,-0.6649206750875614,-0.7245489742599163,1.2287673830198989,0.3214759769197087,-0.13684643769569185
15049,3.0,300.45276,5660.0675,0.0,0.0,0.0,0.15261407112385875,0.0,0.0,-0.33739281876557864,-0.6427892258733574,-0.7403371637405893,1.2795677913585088,0.3241681115079017,-0.1071541061027869
15050,3.0,300.5418,5212.2378,0.0,0.0,0.0,0.15262421226753103,0.0,0.0,-0.3337010217612267,-0.5870052178454045,-0.6636839121480024,1.245961325291809,0.3340901401971297,-0.13463078396702385
15051,3.0,301.3655,5181.9697,0.0,0.0,0.0,0.1526343534112033,0.0,0.0,-0.32229975938350963,-0.5927816756054964,-0.6601079600275833,1.2419364932445887,0.3115338960110017,-0.11422021845765788
15052,3.0,301.2544,5087.4449,0.0,0.0,0.0,0.15264449455487555,0.0,0.0,-0.3333686250659217,-0.6040816231057144,-0.6090059780617104,1.2395677171608088,0.3495594902688357,-0.13721955691251586
15053,3.0,301.43259,5155.5812,0.0,0.0,0.0,0.15265463569854779,0.0,0.0,-0.3030102740497857,-0.6190557167935424,-0.6451019590941064,1.2862502770930186,0.34081224401054966,-0.1001054794048916
15054,3.0,299.84026,5214.4571,0.0,0.0,0.0,0.15266477684222007,0.0,0.0,-0.2963633432612847,-0.6219742418515785,-0.6667271581608474,1.2629156339150687,0.3266519624055387,-0.14227838028928286
15055,3.0,299.86569,5252.9674,0.0,0.0,0.0,0.15267491798589233,0.0,0.0,-0.29464477989917576,-0.6025313707177165,-0.6995947723871284,1.2425798057330788,0.2710879208417948,-0.11564546618081888
15056,3.0,299.58804,5252.0509,0.0,0.0,0.0,0.1526850591295646,0.0,0.0,-0.30997964128510874,-0.6151396976745613,-0.6713730010618564,1.2448782622599188,0.3078929134991647,-0.16518099388959484
15057,3.0,299.72844,5668.8004,0.0,0.0,0.0,0.15269520027323688,0.0,0.0,-0.38158981540748266,-0.6403022541654124,-0.7012816919486143,1.2702540977643186,0.3381580455061007,-0.09027975912441852
15058,3.0,300.78247000000005,5622.5746,0.0,0.0,0.0,0.1527053414169091,0.0,0.0,-0.40045163827149965,-0.6107391524902614,-0.6979315122154773,1.268793396420159,0.34949226112470066,-0.10903989626139991
15059,3.0,301.02403,5198.1389,0.0,0.0,0.0,0.15271548256058137,0.0,0.0,-0.3109281143062157,-0.6023426427540904,-0.6668336811438603,1.2544020025998386,0.3199685546134377,-0.10206363892539691
15060,3.0,300.77484,5085.4032,0.0,0.0,0.0,0.15272562370425363,0.0,0.0,-0.2887175302592017,-0.6044634968034024,-0.6526545733519914,1.252587474320759,0.37130718114016564,-0.14523133558571685
15061,3.0,300.90695,5301.4628,0.0,0.0,0.0,0.15273576484792592,0.0,0.0,-0.3090280170561907,-0.6082032104049835,-0.6942810862127083,1.2832548058223887,0.34804414434678266,-0.10399291777830191
15062,3.0,299.59271,5084.8319,0.0,0.0,0.0,0.15274590599159818,0.0,0.0,-0.2937148189573957,-0.6012571276569584,-0.6506899726006004,1.2486586983830188,0.3262873848870577,-0.13419584636159887
15063,3.0,299.34198,5083.2641,0.0,0.0,0.0,0.1527560471352704,0.0,0.0,-0.3135552792979967,-0.5768154783472554,-0.6548146097826704,1.2460419799997686,0.2758001822868587,-0.12869782972898688
15064,3.0,298.84044,5203.8799,0.0,0.0,0.0,0.15276618827894267,0.0,0.0,-0.3418264465656437,-0.6068211980635895,-0.6332019142221634,1.2509876537378688,0.3172185634445347,-0.13561845963449987
15065,3.0,299.65322000000003,5104.2444,0.0,0.0,0.0,0.15277632942261496,0.0,0.0,-0.28395847692451975,-0.5951942848886025,-0.6724100726717074,1.2588430777881388,0.3569646867696717,-0.11149249852595289
15066,3.0,300.9963,5303.8232,0.0,0.0,0.0,0.15278647056628722,0.0,0.0,-0.3128412419525267,-0.6155854871885574,-0.6838030770611093,1.2697697642165189,0.33347269598369267,-0.1031317362533099
15067,3.0,300.65387999999996,5439.9061,0.0,0.0,0.0,0.15279661170995948,0.0,0.0,-0.3476819783635397,-0.5970791225921215,-0.7088345189890204,1.2429797355475487,0.27459553937546977,-0.13601607923874187
15068,3.0,300.63493,5372.8207,0.0,0.0,0.0,0.1528067528536317,0.0,0.0,-0.34807302197463263,-0.6136098622760784,-0.6715204390839074,1.265713622741209,0.3183542546866187,-0.12386578185710088
15069,3.0,300.55078,5143.3168,0.0,0.0,0.0,0.152816893997304,0.0,0.0,-0.3418560132035617,-0.5897976743259985,-0.6317862011824433,1.2894413056329488,0.3124697844658667,-0.14423165290455586
15070,3.0,300.35118,5258.2023,0.0,0.0,0.0,0.15282703514097626,0.0,0.0,-0.3349199413665247,-0.6017683427299114,-0.6616739177921314,1.2667687200703388,0.3282950791652017,-0.1098735579136759
15071,3.0,300.9567,5340.2166,0.0,0.0,0.0,0.15283717628464852,0.0,0.0,-0.3170839734337517,-0.6135457742072534,-0.6926627434179904,1.2312794326678187,0.2956580097341737,-0.16062860304530885
15072,3.0,301.42172,5161.7608,0.0,0.0,0.0,0.15284731742832078,0.0,0.0,-0.27860156550083376,-0.6029914774556254,-0.6874533510763634,1.2540213245372687,0.35322992796107966,-0.11290910322576089
15073,3.0,300.36625,5014.0161,0.0,0.0,0.0,0.15285745857199304,0.0,0.0,-0.27291409136452377,-0.6018143949469564,-0.6494072182390024,1.2570514489613187,0.36645220341851664,-0.14062708660131287
15074,3.0,301.50642,5324.7583,0.0,0.0,0.0,0.1528675997156653,0.0,0.0,-0.32471544894691967,-0.6095355937564795,-0.6843425111493473,1.2516270145509687,0.33083459802333265,-0.08442262233836412
15075,3.0,300.36651,5294.2749,0.0,0.0,0.0,0.15287774085933756,0.0,0.0,-0.3446906816833217,-0.6174387317539585,-0.6471979479859643,1.2470518863744389,0.2863239295479717,-0.15381000742486584
15076,3.0,300.6969,5447.1575,0.0,0.0,0.0,0.15288788200300982,0.0,0.0,-0.32160252172469767,-0.6426696522290564,-0.6915276803909683,1.2767491322303288,0.30581852709943874,-0.11872824921256588
15077,3.0,300.51779,5418.6892,0.0,0.0,0.0,0.1528980231466821,0.0,0.0,-0.3432274370814107,-0.6235714685142124,-0.6803473268000534,1.3038439465293787,0.3404867070184217,-0.12374390813507288
15078,3.0,299.81889,5110.4183,0.0,0.0,0.0,0.15290816429035434,0.0,0.0,-0.3136670306515257,-0.5744228604886225,-0.6653496649148993,1.239380772517359,0.3131453183075367,-0.0927922302843801
15079,3.0,299.65411,5015.6161,0.0,0.0,0.0,0.1529183054340266,0.0,0.0,-0.3227087881838777,-0.5624335178853664,-0.6394797585292383,1.255484255031649,0.3007983997439907,-0.15146232720816785
15080,3.0,299.55331,5372.3845,0.0,0.0,0.0,0.15292844657769886,0.0,0.0,-0.3787200378117576,-0.5837869632752875,-0.6705637384719884,1.2519812467859288,0.32923465585043066,-0.10982341216622689
15081,3.0,299.1499,5246.5243,0.0,0.0,0.0,0.15293858772137114,0.0,0.0,-0.3517196482895266,-0.6048267570967535,-0.6382659558369453,1.3169948182522686,0.3617992880318096,-0.13752417029007888
15082,3.0,299.83322000000004,4990.808,0.0,0.0,0.0,0.1529487288650434,0.0,0.0,-0.27437181375338976,-0.5720952730214075,-0.6706139247494414,1.2733935518741588,0.34342586184849366,-0.12746559601737487
15083,3.0,299.50156,5124.0807,0.0,0.0,0.0,0.15295887000871564,0.0,0.0,-0.29903103825706573,-0.5974131404875864,-0.6611484158927684,1.2613012225307387,0.3075107560914487,-0.16353208133935987
15084,3.0,300.14185,5254.6288,0.0,0.0,0.0,0.1529690111523879,0.0,0.0,-0.3081148659335697,-0.5843331861391955,-0.7048279051785984,1.249724536163209,0.33418113005610967,-0.1041103635973929
15085,3.0,300.65815,5202.5522,0.0,0.0,0.0,0.15297915229606018,0.0,0.0,-0.3256637294505077,-0.6129981125282034,-0.6427841190928534,1.2865469567222987,0.3532639731644397,-0.11379990205117589
15086,3.0,300.87829,5266.6485,0.0,0.0,0.0,0.15298929343973244,0.0,0.0,-0.3394814919917147,-0.6076764622079974,-0.6537716815872413,1.264572905778629,0.3310475325318477,-0.09404253328502542
15087,3.0,300.6923,5374.0133,0.0,0.0,0.0,0.1529994345834047,0.0,0.0,-0.3701757151509987,-0.6172254527404094,-0.6461646963289903,1.2341309210992388,0.27984403303845573,-0.14439799817347285
15088,3.0,300.34565,5272.0376,0.0,0.0,0.0,0.15300957572707694,0.0,0.0,-0.31363143517551273,-0.6152685121597744,-0.6736678301533383,1.2518772873256687,0.3009629008977257,-0.14749721612184186
15089,3.0,299.86679,5218.9425,0.0,0.0,0.0,0.15301971687074922,0.0,0.0,-0.3002052532679517,-0.6070240102036054,-0.6791989395342164,1.2924610949059787,0.3250026546877647,-0.15605899708182383
15090,3.0,300.11031,5334.8196,0.0,0.0,0.0,0.15302985801442148,0.0,0.0,-0.3392757110289057,-0.5739013811921564,-0.7084748456010233,1.2863963877574387,0.3172191105995887,-0.12699163815059888
15091,3.0,299.96435,5122.4243,0.0,0.0,0.0,0.15303999915809374,0.0,0.0,-0.2890511732521297,-0.6021441369269994,-0.6658937700860984,1.2496321277540887,0.3181847886073937,-0.15643481154391384
15092,3.0,299.92076000000003,4925.8667,0.0,0.0,0.0,0.15305014030176603,0.0,0.0,-0.3320564357889187,-0.5588003880618045,-0.6064836641902774,1.2806364662389789,0.34677444064647267,-0.1109473193096479
15093,3.0,299.51687999999996,5246.5714,0.0,0.0,0.0,0.15306028144543826,0.0,0.0,-0.3254113997781047,-0.6112222194754364,-0.6581930895911003,1.2487460405416386,0.3769785547323866,-0.1018740294341839
15094,3.0,299.97295,5342.5249,0.0,0.0,0.0,0.15307042258911052,0.0,0.0,-0.34097972411957866,-0.5989532299770814,-0.6840612025240843,1.237459346352729,0.3135260571651127,-0.09342146771573101
15095,3.0,300.382,5232.8473,0.0,0.0,0.0,0.15308056373278278,0.0,0.0,-0.2960190104798017,-0.6180504409718295,-0.6765854534187854,1.214527976714579,0.2973838786295037,-0.1329197389206569
15096,3.0,300.72792999999996,5500.6133,0.0,0.0,0.0,0.15309070487645507,0.0,0.0,-0.3531238001456056,-0.6182074136773215,-0.7007178891954713,1.2305551614963386,0.2990767054390727,-0.0965613565098639
15097,3.0,300.19351,5498.1662,0.0,0.0,0.0,0.1531008460201273,0.0,0.0,-0.37307844363997567,-0.6125042746944654,-0.6857225172555433,1.2576821971485688,0.33303074668757565,-0.11186346965256488
15098,3.0,299.30332000000004,5252.1366,0.0,0.0,0.0,0.15311098716379956,0.0,0.0,-0.35993773481558866,-0.5928669709989144,-0.6437136646020925,1.2637519705476088,0.32646161324175266,-0.1042483074660069
15099,3.0,299.06471,5328.8627,0.0,0.0,0.0,0.15312112830747182,0.0,0.0,-0.34358435442913565,-0.6201231859063934,-0.6561336688953514,1.2319539532593886,0.3124875467401197,-0.14785479208213184
15100,3.0,299.44532000000004,5290.9103,0.0,0.0,0.0,0.15313126945114408,0.0,0.0,-0.32560307629952173,-0.5734458644772004,-0.7092556561280833,1.253887372874049,0.3237135573805407,-0.1165460327371979
15101,3.0,298.4949,4954.4366,0.0,0.0,0.0,0.15314141059481634,0.0,0.0,-0.28397209500586373,-0.5772543777605714,-0.6447985616166634,1.245435651139929,0.34977404597751066,-0.15727774443460485
15102,3.0,299.22137999999995,4936.4594,0.0,0.0,0.0,0.15315155173848863,0.0,0.0,-0.26650258923675774,-0.5626035615171484,-0.6714542535873754,1.2467443649690888,0.3186489990082077,-0.1114052576923429
15103,3.0,299.11963,5093.1868,0.0,0.0,0.0,0.15316169288216086,0.0,0.0,-0.3170998611953197,-0.5794512559648864,-0.6516504830328954,1.2179906576063189,0.2961972209073897,-0.13353360636124087
15104,3.0,299.86271,5249.3065,0.0,0.0,0.0,0.15317183402583312,0.0,0.0,-0.30286873314331675,-0.6202801180818813,-0.6725092495914954,1.2557378715316787,0.30808434684055774,-0.0983070709216525
15105,3.0,300.52443999999997,5273.8137,0.0,0.0,0.0,0.15318197516950538,0.0,0.0,-0.3421318198807817,-0.6055475933503944,-0.6554282543082324,1.2560003033075788,0.3460868997911177,-0.13437488765426886
15106,3.0,300.96938,5419.3632,0.0,0.0,0.0,0.15319211631317767,0.0,0.0,-0.3342557964559787,-0.6105662109631934,-0.7025290737492214,1.2507600777654089,0.3362903013317687,-0.1013632196612709
15107,3.0,300.54962,5255.725,0.0,0.0,0.0,0.15320225745684993,0.0,0.0,-0.3320887888646117,-0.6023051930303944,-0.6632151927842433,1.2473119876751089,0.3122512669493007,-0.14872268132278588
15108,3.0,300.52474,5215.5511,0.0,0.0,0.0,0.15321239860052216,0.0,0.0,-0.3180515563517447,-0.5809828138885395,-0.6863629217162464,1.2600315188304287,0.32474573499240866,-0.1094120630231299
15109,3.0,299.54012,5374.0742,0.0,0.0,0.0,0.15322253974419442,0.0,0.0,-0.37470340295784665,-0.6125666605031224,-0.6463143229712573,1.2693142069715588,0.34618109152041365,-0.13555681349841586
15110,3.0,299.43923,5270.4973,0.0,0.0,0.0,0.1532326808878667,0.0,0.0,-0.3263735820730647,-0.5991172751682714,-0.6766087075085804,1.2444008188127988,0.3107292437090887,-0.1047814898011279
15111,3.0,299.03892,4881.8412,0.0,0.0,0.0,0.15324282203153897,0.0,0.0,-0.2918370436070737,-0.5761726015563085,-0.6159481597968504,1.2225062066769687,0.3296479099037157,-0.14235572166941587
15112,3.0,299.47869,5230.4724,0.0,0.0,0.0,0.15325296317521125,0.0,0.0,-0.2999161932794237,-0.6043553627527305,-0.6856614486720163,1.2434031727643386,0.33311523148091365,-0.11316297303831589
15113,3.0,300.00212,5484.1669,0.0,0.0,0.0,0.15326310431888346,0.0,0.0,-0.37064682578499364,-0.6037253745030554,-0.6926776179294583,1.2839657020925488,0.3370739084291047,-0.1258854527514269
15114,3.0,300.18428,5070.9655,0.0,0.0,0.0,0.15327324546255575,0.0,0.0,-0.27898147349332775,-0.5964756004350584,-0.6659897957980754,1.2690355631940589,0.3185551315189437,-0.13001046483603387
15115,3.0,301.37208,4946.9053,0.0,0.0,0.0,0.153283386606228,0.0,0.0,-0.3083766998919107,-0.5885575068661034,-0.6068014802166434,1.2719678076584486,0.3012514137311997,-0.14657430740075786
15116,3.0,301.55376,5162.1466,0.0,0.0,0.0,0.1532935277499003,0.0,0.0,-0.2848269538502317,-0.5990465503112915,-0.6852901634378734,1.2578846445185488,0.3090902103473287,-0.1018336818152019
15117,3.0,300.91763,5319.9083,0.0,0.0,0.0,0.15330366889357253,0.0,0.0,-0.33773514531186366,-0.6292701289316264,-0.6501140108462573,1.2611715265179388,0.3443408570862967,-0.11870071920734888
15118,3.0,301.33023,5437.4932,0.0,0.0,0.0,0.15331381003724479,0.0,0.0,-0.3477629573115317,-0.5903840421588685,-0.7147151489918934,1.2300794405743887,0.3281382888447277,-0.11534002193817389
15119,3.0,300.2672,5324.2923,0.0,0.0,0.0,0.15332395118091705,0.0,0.0,-0.37277354655238465,-0.5905275487705315,-0.6551508264308523,1.214111328273459,0.3160911707207697,-0.12968093563851188
15120,3.0,300.9771,5267.3238,0.0,0.0,0.0,0.15333409232458933,0.0,0.0,-0.3180925828482937,-0.6031420666854874,-0.6799002403259294,1.2600275671550387,0.3113801454408277,-0.14908140225568886
15121,3.0,300.34332,5438.7554,0.0,0.0,0.0,0.15334423346826156,0.0,0.0,-0.3740442331052916,-0.6056638637993694,-0.6735377491055003,1.2959441421247289,0.3286054478033327,-0.12496207793529689
15122,3.0,299.37071000000003,5590.0109,0.0,0.0,0.0,0.15335437461193385,0.0,0.0,-0.36246996840550066,-0.6512068517416123,-0.6855469108807123,1.286910814833209,0.3221464749083817,-0.12757653677082387
15123,3.0,299.53749,5140.0868,0.0,0.0,0.0,0.15336451575560608,0.0,0.0,-0.3180732500363857,-0.5656938223346334,-0.6786909769940843,1.2712453603371487,0.3232142175987597,-0.09059791053656761
15124,3.0,300.2618,4792.3222,0.0,0.0,0.0,0.15337465689927837,0.0,0.0,-0.2708574165765457,-0.5564970172719795,-0.6293918304011374,1.256602376516999,0.33059334317452266,-0.1275228041180209
15125,3.0,299.76372000000003,5160.8257,0.0,0.0,0.0,0.1533847980429506,0.0,0.0,-0.3185202351854997,-0.5824900335447905,-0.6677518782519793,1.2601630386934088,0.3338955556479257,-0.07850455375754622
15126,3.0,300.90696,5467.3619,0.0,0.0,0.0,0.1533949391866229,0.0,0.0,-0.3497249438776647,-0.6150952362601734,-0.6971213275680184,1.256125237044909,0.3012789234714147,-0.13381663751167389
15127,3.0,301.35059,5360.5119,0.0,0.0,0.0,0.15340508033029515,0.0,0.0,-0.3431931486980267,-0.6186087316444284,-0.6676598852754004,1.2721397562004186,0.2960991990927157,-0.10758134300745191
15128,3.0,300.80056,5386.12,0.0,0.0,0.0,0.1534152214739674,0.0,0.0,-0.3099227371594927,-0.6333726569965143,-0.6939506045600923,1.2758180567134387,0.3099153201687607,-0.12085676343263389
15129,3.0,301.47878,5458.8649,0.0,0.0,0.0,0.15342536261763964,0.0,0.0,-0.34067337808434467,-0.6219652948531954,-0.6967199386734043,1.2990005097263686,0.3422051791880217,-0.07009906155923874
15130,3.0,299.84528,5363.7332,0.0,0.0,0.0,0.15343550376131193,0.0,0.0,-0.30932155561016067,-0.6243606991496033,-0.6967587157547314,1.270379538126699,0.34753589809662266,-0.12801348061144688
15131,3.0,300.41989,5554.4181,0.0,0.0,0.0,0.1534456449049842,0.0,0.0,-0.3678481884787897,-0.6391685387610234,-0.6813876813402283,1.2607791960792187,0.3396979728755797,-0.1008683665509327
15132,3.0,299.92548999999997,5214.3263,0.0,0.0,0.0,0.15345578604865648,0.0,0.0,-0.3098929070765487,-0.6015465625480234,-0.6735855035827133,1.246765845871209,0.3419136671342517,-0.15684137814653884
15133,3.0,299.36776000000003,4880.7213,0.0,0.0,0.0,0.15346592719232868,0.0,0.0,-0.28796953890288074,-0.6006382547608804,-0.5950095997928754,1.2373412013910687,0.34320181198638167,-0.12892638855404387
15134,3.0,299.26067,4984.7745,0.0,0.0,0.0,0.15347606833600097,0.0,0.0,-0.28048234007145173,-0.5961093003914074,-0.6386553377178744,1.2380682083378187,0.32105206347537174,-0.14946289091833886
15135,3.0,300.754,5336.929,0.0,0.0,0.0,0.15348620947967323,0.0,0.0,-0.35046928753362566,-0.6051476635359244,-0.6666762018133183,1.2427415204490386,0.3102396716582717,-0.09554011895932561
15136,3.0,300.36556,5332.5452,0.0,0.0,0.0,0.15349635062334552,0.0,0.0,-0.31041063734764474,-0.6225430905902194,-0.6880068592084904,1.270017098565929,0.3368345888879857,-0.12601967799217387
15137,3.0,301.39558999999997,5517.2792,0.0,0.0,0.0,0.15350649176701775,0.0,0.0,-0.36045365136900565,-0.6360173410825244,-0.6806441280193453,1.2945434251864887,0.3259691838256537,-0.098513667550792
15138,3.0,300.73141,5579.0694,0.0,0.0,0.0,0.15351663291069,0.0,0.0,-0.3287502209776207,-0.6590256974632723,-0.7081218799286884,1.279215078998699,0.3193723481220967,-0.14492236523272387
15139,3.0,300.94162,5453.9999,0.0,0.0,0.0,0.15352677405436227,0.0,0.0,-0.3715313120622856,-0.6197781337173395,-0.6665703475753714,1.2792918833562787,0.2936729413307627,-0.12583939040188089
15140,3.0,301.26341,5443.5559,0.0,0.0,0.0,0.15353691519803456,0.0,0.0,-0.3164679781679577,-0.6311238395920734,-0.7071132603816453,1.2611559224663988,0.3062894249509127,-0.12167811409619489
15141,3.0,301.05576,5292.2039,0.0,0.0,0.0,0.1535470563417068,0.0,0.0,-0.3727442433594927,-0.5668202119407995,-0.6691333839683233,1.274020753686059,0.3156643188511427,-0.0924872186995278
15142,3.0,299.60222999999996,4922.4449,0.0,0.0,0.0,0.15355719748537908,0.0,0.0,-0.2681325945401268,-0.5854718056740684,-0.6426959460691515,1.2193473994902186,0.33324301245102467,-0.11910134816438787
15143,3.0,300.60008,4938.252,0.0,0.0,0.0,0.1535673386290513,0.0,0.0,-0.3179450435012327,-0.5863621789344414,-0.5967980875443855,1.2524052919527788,0.34308814559016365,-0.12181124502683387
15144,3.0,298.6721,5398.882,0.0,0.0,0.0,0.1535774797727236,0.0,0.0,-0.3036214158476007,-0.6581164980160413,-0.6793874141853173,1.2654826017184089,0.3680372102849446,-0.11722460632916788
15145,3.0,299.15535,5430.936,0.0,0.0,0.0,0.15358762091639583,0.0,0.0,-0.36501222303890163,-0.6303566268813554,-0.6555000937403224,1.3069578667366988,0.37136273764314864,-0.12282002669389289
15146,3.0,299.97875,5208.012,0.0,0.0,0.0,0.15359776206006812,0.0,0.0,-0.3005426756837527,-0.6015895750147684,-0.6809733532418373,1.2761412834953387,0.3204848865993957,-0.13410671075030187
15147,3.0,300.06669,5216.2481,0.0,0.0,0.0,0.15360790320374038,0.0,0.0,-0.34187985497841467,-0.6020457402097884,-0.6416835774967383,1.2818424365079988,0.3143513291065607,-0.12437571010242689
15148,3.0,299.17687,5487.1811,0.0,0.0,0.0,0.15361804434741264,0.0,0.0,-0.34636682026374366,-0.6059244109300834,-0.7156747981616033,1.2929936591585387,0.31149548369971075,-0.10847323614297488
15149,3.0,299.06932,5426.8437,0.0,0.0,0.0,0.15362818549108487,0.0,0.0,-0.35664810690842763,-0.6084308573049504,-0.6845460122994314,1.3024146559383187,0.33288659159584866,-0.13244863841916288
15150,3.0,299.77004,5205.3496,0.0,0.0,0.0,0.15363832663475716,0.0,0.0,-0.3045243838067167,-0.6097436038695084,-0.6680283030117603,1.2484180514842689,0.29801319813411276,-0.14511664580689787
15151,3.0,301.23654,5139.678,0.0,0.0,0.0,0.15364846777842942,0.0,0.0,-0.3106811953893467,-0.5846235025578475,-0.6670290762931445,1.2252101658938288,0.30783329386328073,-0.13654940342887686
15152,3.0,301.156,5004.0886,0.0,0.0,0.0,0.1536586089221017,0.0,0.0,-0.2753427910592178,-0.5838281518918524,-0.6619470596215884,1.2560407319865687,0.3361427214547037,-0.1326766196916629
15153,3.0,299.76335,5158.8378,0.0,0.0,0.0,0.1536687500657739,0.0,0.0,-0.3347006841773857,-0.5859375460825335,-0.6475196548927143,1.2846876427887988,0.35035187211203767,-0.09739061457720531
15154,3.0,299.91732,5469.3305,0.0,0.0,0.0,0.1536788912094462,0.0,0.0,-0.3445284907398147,-0.6364476278699904,-0.6815637943401093,1.279916248067899,0.3318615269996827,-0.11020765686914889
15155,3.0,299.99577,5342.5542,0.0,0.0,0.0,0.15368903235311845,0.0,0.0,-0.3409106609927627,-0.6205116862597354,-0.6625807158366254,1.2653719548074889,0.31074502001314575,-0.10596204775763989
15156,3.0,300.05617,5333.6835,0.0,0.0,0.0,0.15369917349679074,0.0,0.0,-0.31619807873882066,-0.6257315049448914,-0.6793770283717924,1.2433514970092387,0.36470603912368366,-0.13137130025033786
15157,3.0,298.91666000000004,5617.3893,0.0,0.0,0.0,0.153709314640463,0.0,0.0,-0.36524031576891264,-0.6223801295766365,-0.7199256255111273,1.2648086890768988,0.3643965216156367,-0.09451211796436981
15158,3.0,299.59904,5577.7785,0.0,0.0,0.0,0.15371945578413523,0.0,0.0,-0.34730060115840067,-0.6187087900918035,-0.7294960057531503,1.2410667193587488,0.33136620982079873,-0.12490900389505889
15159,3.0,300.28044,5173.5433,0.0,0.0,0.0,0.1537295969278075,0.0,0.0,-0.3298306394267497,-0.5699692513965854,-0.6728280890004623,1.268489117415129,0.31554752151211574,-0.1043547595215129
15160,3.0,299.77216,4926.5408,0.0,0.0,0.0,0.15373973807147978,0.0,0.0,-0.28179901804639773,-0.5726799385941095,-0.6430664105707133,1.2853237612015789,0.3364816536131537,-0.1310486510209949
15161,3.0,298.84452999999996,5146.1771,0.0,0.0,0.0,0.153749879215152,0.0,0.0,-0.3185270543586727,-0.5870695693592554,-0.6587127349048854,1.3210473120272188,0.3244226804630257,-0.10526272280362191
15162,3.0,299.64519,5314.2252,0.0,0.0,0.0,0.1537600203588243,0.0,0.0,-0.30554548659499176,-0.6347407371490335,-0.6751055307202284,1.2903528254229089,0.2958578023888917,-0.1759487216422868
15163,3.0,300.04208,5265.8163,0.0,0.0,0.0,0.15377016150249653,0.0,0.0,-0.3050499059710817,-0.6295367352979384,-0.6660900366304684,1.2621174968112987,0.3058585403458877,-0.14522128414472488
15164,3.0,300.97586,5088.1199,0.0,0.0,0.0,0.15378030264616882,0.0,0.0,-0.27784232706840273,-0.5944581688234535,-0.6743609033542394,1.259527730880709,0.3299086191544457,-0.14583040957484086
15165,3.0,300.8172,5182.2244,0.0,0.0,0.0,0.15379044378984105,0.0,0.0,-0.3320878262770167,-0.5831059072205725,-0.6600730940916424,1.2516130316995886,0.3427148237233197,-0.1106336778736939
15166,3.0,300.93932,5523.7541,0.0,0.0,0.0,0.15380058493351334,0.0,0.0,-0.35747837417286865,-0.6315802479671174,-0.6900246961201354,1.2460943650299388,0.32376905308851767,-0.13191643893663887
15167,3.0,300.58349,5686.5483,0.0,0.0,0.0,0.1538107260771856,0.0,0.0,-0.37914778134147264,-0.6441437386070374,-0.7052771802729383,1.2811047904351989,0.3198236091866327,-0.11074412213459389
15168,3.0,300.33016000000003,5291.2509,0.0,0.0,0.0,0.15382086722085786,0.0,0.0,-0.3054715598676957,-0.6253740505746134,-0.6775625203577144,1.2917025758811187,0.3584130163301107,-0.12165427232134188
15169,3.0,299.72727000000003,5119.4089,0.0,0.0,0.0,0.1538310083645301,0.0,0.0,-0.3169854753915307,-0.5895888232153864,-0.6495981854853494,1.2903150311941787,0.35650054729636466,-0.1083787303061479
15170,3.0,299.80674,5391.89,0.0,0.0,0.0,0.15384114950820238,0.0,0.0,-0.3293851336227817,-0.5989992821941265,-0.7106155086897903,1.2748242610153588,0.3176967465642277,-0.12323663460500889
15171,3.0,298.85197,5472.5471,0.0,0.0,0.0,0.15385129065187464,0.0,0.0,-0.37710405588977264,-0.6105523193043224,-0.6758612937048164,1.2610310900540789,0.30843533667519774,-0.13801225286324886
15172,3.0,299.2224,5244.621999999999,0.0,0.0,0.0,0.15386143179554693,0.0,0.0,-0.3121380159856237,-0.6064201334090075,-0.6756759803940273,1.2805960375599887,0.3150142885144897,-0.14023897128300886
15173,3.0,299.17465,5178.7355,0.0,0.0,0.0,0.15387157293921913,0.0,0.0,-0.33446247921137673,-0.6075139064944544,-0.6322299034012334,1.2658063351253588,0.3086294551293557,-0.13993209835772288
15174,3.0,299.68332999999996,5352.9651,0.0,0.0,0.0,0.15388171408289142,0.0,0.0,-0.3160471956664297,-0.6300961000156434,-0.6810244210468773,1.2566881988004686,0.2969142574731557,-0.15441587018965985
15175,3.0,299.69774,5341.3681,0.0,0.0,0.0,0.15389185522656368,0.0,0.0,-0.31144322025955273,-0.6271033341227804,-0.6850959740562084,1.2994629570720089,0.3210093853811597,-0.1153053789172549
15176,3.0,299.92756,5260.5321,0.0,0.0,0.0,0.15390199637023597,0.0,0.0,-0.2990168020931607,-0.6231521754903314,-0.6769014253299693,1.3164739063758588,0.35882408176317965,-0.11265380473056488
15177,3.0,300.30219,5072.0328,0.0,0.0,0.0,0.15391213751390823,0.0,0.0,-0.2979472760826067,-0.5705393768303524,-0.6732846696280234,1.3248169063742488,0.34633841886344063,-0.08641481895622861
15178,3.0,300.76035,5134.5411,0.0,0.0,0.0,0.15392227865758046,0.0,0.0,-0.29579120145981874,-0.6153889571991614,-0.6495921363822524,1.2956858646742386,0.3090440264077707,-0.13914951464298786
15179,3.0,300.25985,5402.4563,0.0,0.0,0.0,0.15393241980125272,0.0,0.0,-0.3362702187147867,-0.6251369399187123,-0.6808046673651894,1.2771605117709288,0.3144236548986987,-0.13786814843402687
15180,3.0,299.42352999999997,5473.0487,0.0,0.0,0.0,0.153942560944925,0.0,0.0,-0.3252646507661217,-0.6341368502219344,-0.7042686316534024,1.2724393742549889,0.3003912657213097,-0.14147807483029887
15181,3.0,299.63331,5261.1758,0.0,0.0,0.0,0.15395270208859727,0.0,0.0,-0.3183045142392097,-0.6049588139822863,-0.6760027332862754,1.2451002653568288,0.3183012819713907,-0.12044442130443889
15182,3.0,300.21288,5243.6241,0.0,0.0,0.0,0.1539628432322695,0.0,0.0,-0.31724677232731874,-0.5964235497774214,-0.6802604710014813,1.249825861173209,0.3132998389477867,-0.11816835760480889
15183,3.0,299.0944,5355.1901,0.0,0.0,0.0,0.15397298437594176,0.0,0.0,-0.3518266272350847,-0.5897970461109365,-0.6862203979571804,1.2715196471392187,0.3357434806503017,-0.11215782893911588
15184,3.0,298.61035,5557.8861,0.0,0.0,0.0,0.15398312551961404,0.0,0.0,-0.3538390635236967,-0.6498255790727914,-0.6857939412550923,1.2982913359813788,0.35060680583719767,-0.1026092031767399
15185,3.0,298.31979,5518.7595,0.0,0.0,0.0,0.1539932666632863,0.0,0.0,-0.36797713468651566,-0.6381998412679204,-0.6713881288858493,1.300598303809059,0.34962162276496767,-0.12574758994282087
15186,3.0,299.18227,5404.1582,0.0,0.0,0.0,0.15400340780695856,0.0,0.0,-0.3286089536486787,-0.6280700051156834,-0.6860501820728814,1.2807512674753088,0.3278433824031227,-0.12761795843491186
15187,3.0,299.36248,5184.6168,0.0,0.0,0.0,0.15401354895063082,0.0,0.0,-0.2978569752336947,-0.5982459307447765,-0.6798911312075303,1.2559024233479188,0.3330424902562347,-0.1206155491138279
15188,3.0,300.47233,5021.4383,0.0,0.0,0.0,0.15402369009430308,0.0,0.0,-0.2886574749257747,-0.5744054427194035,-0.6633289402404693,1.2579682376517989,0.3325047888256677,-0.1313725262829589
15189,3.0,299.92053,5354.0548,0.0,0.0,0.0,0.15403383123797534,0.0,0.0,-0.3236014513894767,-0.6023386505486964,-0.7015588563809683,1.245063788353229,0.31008793745579666,-0.11200575023160689
15190,3.0,300.0801,5420.4567,0.0,0.0,0.0,0.1540439723816476,0.0,0.0,-0.34166749802245666,-0.6213747422974124,-0.6846412476763304,1.2653875588590289,0.2959758865555457,-0.15971105441725386
15191,3.0,300.25879,5206.4192,0.0,0.0,0.0,0.15405411352531986,0.0,0.0,-0.31885838714137266,-0.6148575379192145,-0.6489055074519874,1.2718082207676988,0.3264595968740537,-0.13898822549206988
15192,3.0,301.00872999999996,5173.8988,0.0,0.0,0.0,0.15406425466899212,0.0,0.0,-0.2880322692165717,-0.6271112070760574,-0.6575925666543334,1.2873594819774887,0.3350614924054947,-0.18069911168861383
15193,3.0,300.98216,5384.9432,0.0,0.0,0.0,0.15407439581266438,0.0,0.0,-0.3336324044644547,-0.6099187036192895,-0.6933371728170514,1.2819170117153589,0.32518477626073866,-0.1041073339795939
15194,3.0,300.69182,5360.0234,0.0,0.0,0.0,0.15408453695633664,0.0,0.0,-0.3087400817752737,-0.6260369998500415,-0.6945361719253834,1.274818688139809,0.32622839346623567,-0.15145870990531085
15195,3.0,299.81181000000004,5290.3339,0.0,0.0,0.0,0.1540946781000089,0.0,0.0,-0.34371684701221167,-0.6100720691544255,-0.6543404999283794,1.2809715480470487,0.34515757719690066,-0.1013504223125079
15196,3.0,298.73974,5204.3198,0.0,0.0,0.0,0.15410481924368116,0.0,0.0,-0.3076658846817587,-0.6165506079088074,-0.6577667646115254,1.2673234745000885,0.3474995325505337,-0.12916275953737189
15197,3.0,298.6576,5309.7301,0.0,0.0,0.0,0.15411496038735345,0.0,0.0,-0.3732690157187836,-0.6047477843839594,-0.6360085764691594,1.2382798762837088,0.3279738484859987,-0.1048002653254809
15198,3.0,299.01395,5373.5284,0.0,0.0,0.0,0.15412510153102568,0.0,0.0,-0.3125066059745007,-0.6284062825588714,-0.6925055579299774,1.2603563668124889,0.3173053787131027,-0.16128540189262983
15199,3.0,300.08912000000004,5391.477,0.0,0.0,0.0,0.15413524267469794,0.0,0.0,-0.3513057761536807,-0.6005308097202764,-0.6870377868128503,1.2841274168085088,0.3327446555218407,-0.12045946806842389
15200,3.0,300.00644,5156.8761,0.0,0.0,0.0,0.15414538381837023,0.0,0.0,-0.2788655576818877,-0.6006756335570693,-0.6880203860973254,1.313166658049459,0.3352929592583387,-0.12566029844670587
15201,3.0,300.32322999999997,5140.782999999999,0.0,0.0,0.0,0.1541555249620425,0.0,0.0,-0.30570586382081977,-0.5966816347103925,-0.6602821883822784,1.2647691723229988,0.3028060737571327,-0.1145947866221249
15202,3.0,300.88788,5469.2812,0.0,0.0,0.0,0.15416566610571472,0.0,0.0,-0.35119648699789463,-0.6213050914855384,-0.6900233383650014,1.2544099059506189,0.3098900598437677,-0.12419930326001688
15203,3.0,300.28507,5559.7437,0.0,0.0,0.0,0.15417580724938698,0.0,0.0,-0.36977668712911765,-0.6441492912175854,-0.6760972897856073,1.2623702013862388,0.31753213395298174,-0.11916931698109588
15204,3.0,299.37831,5057.7755,0.0,0.0,0.0,0.15418594839305924,0.0,0.0,-0.3139022769272427,-0.5793617353185514,-0.6441734470999694,1.267501502542659,0.33471578160387566,-0.12853305499772488
15205,3.0,298.98928,5177.1103,0.0,0.0,0.0,0.15419608953673153,0.0,0.0,-0.3413859259521677,-0.5749446336276175,-0.6573816890435215,1.2228505090609487,0.3267544729181557,-0.1037394633982879
15206,3.0,298.54098999999997,5535.8642,0.0,0.0,0.0,0.15420623068040376,0.0,0.0,-0.36022927726686166,-0.6261279795765204,-0.6964072192950413,1.238157171696599,0.3200876722951937,-0.09923130396061722
15207,3.0,298.67882000000003,5523.3659,0.0,0.0,0.0,0.15421637182407605,0.0,0.0,-0.35113156806398765,-0.6441049209957064,-0.6837288463587833,1.2737388675082386,0.3565330827570757,-0.10296405349426091
15208,3.0,299.16925,5316.6315,0.0,0.0,0.0,0.1542265129677483,0.0,0.0,-0.3110974486629277,-0.6277721602487883,-0.6772536107997273,1.3067645386176185,0.33933384118714266,-0.11844379951199288
15209,3.0,299.58252000000005,5201.6814,0.0,0.0,0.0,0.15423665411142057,0.0,0.0,-0.3202412303478487,-0.6156151956814895,-0.6453248234536014,1.2663278549518289,0.3133155645893387,-0.1289581640771799
15210,3.0,299.58806,5164.0924,0.0,0.0,0.0,0.1542467952550928,0.0,0.0,-0.2911339290976817,-0.6193551119330905,-0.6592661011819984,1.240805908783009,0.3009167574881717,-0.16071606679394085
15211,3.0,300.9171,5443.7786,0.0,0.0,0.0,0.1542569363987651,0.0,0.0,-0.3658051216396546,-0.6183017371291304,-0.6706658943470704,1.267305438648309,0.3113693847247657,-0.13808446719787587
15212,3.0,300.98897999999997,5607.0849,0.0,0.0,0.0,0.15426707754243735,0.0,0.0,-0.3302179036149697,-0.6670430388795223,-0.7071528480630523,1.2824036757383888,0.31946973158920766,-0.11377178436090088
15213,3.0,299.94232999999997,5058.407999999999,0.0,0.0,0.0,0.1542772186861096,0.0,0.0,-0.31664573263300066,-0.5725885434350895,-0.6483954373516473,1.2641326486101787,0.28724468004634274,-0.10633610929705689
15214,3.0,300.09325,5071.4011,0.0,0.0,0.0,0.15428735982978184,0.0,0.0,-0.28820416709603675,-0.6156763554575254,-0.6376987789609694,1.2505394932186387,0.29854906558199873,-0.13354384018725088
15215,3.0,300.37752,5421.9983,0.0,0.0,0.0,0.15429750097345413,0.0,0.0,-0.36817464752850865,-0.6008557184973424,-0.6791217501415984,1.2788157571342886,0.3354636919001887,-0.11301249526596491
15216,3.0,299.84238,5556.1486,0.0,0.0,0.0,0.1543076421171264,0.0,0.0,-0.3630024819955557,-0.6267303668934714,-0.6991975986129303,1.3010901354075988,0.3558031880475407,-0.13130074764587488
15217,3.0,299.11773,5287.404,0.0,0.0,0.0,0.15431778326079867,0.0,0.0,-0.3346550068628777,-0.6120553947676644,-0.6605283980240774,1.2749859757313187,0.34847503908430866,-0.1094998408792929
15218,3.0,299.70374,5238.6572,0.0,0.0,0.0,0.15432792440447088,0.0,0.0,-0.3339412025649307,-0.6035662131773475,-0.6549135739199374,1.2492854948948788,0.3443729568494647,-0.1198444151252229
15219,3.0,299.66501,5471.8803,0.0,0.0,0.0,0.15433806554814317,0.0,0.0,-0.34447211350425067,-0.6391757328367333,-0.6796671218754223,1.2663635213553488,0.3493816648762857,-0.08661200755818961
15220,3.0,300.42443,5323.0284,0.0,0.0,0.0,0.15434820669181543,0.0,0.0,-0.3242105768195927,-0.6138993376971474,-0.6799577827991083,1.2341489569510187,0.3391326705122887,-0.11492360654457688
15221,3.0,299.29571,5383.5934,0.0,0.0,0.0,0.1543583478354877,0.0,0.0,-0.3252702844366777,-0.6121527579697734,-0.6990549228663494,1.2539941694345886,0.29612453034521574,-0.11600703434650289
15222,3.0,299.6607,5454.5803,0.0,0.0,0.0,0.15436848897915995,0.0,0.0,-0.3322528137907997,-0.6283625506845554,-0.6974408559870533,1.239777155956479,0.2905379961838677,-0.13576893740685086
15223,3.0,300.2,5306.2942,0.0,0.0,0.0,0.1543786301228322,0.0,0.0,-0.36016834040584766,-0.6095382484717414,-0.6432743396237344,1.2739577295298385,0.3222190945430487,-0.13886202519211485
15224,3.0,301.09689,5260.9154,0.0,0.0,0.0,0.15438877126650447,0.0,0.0,-0.3173133732563917,-0.6099668127340374,-0.6719067305520313,1.2790488046572888,0.34404266771436764,-0.1138880345448739
15225,3.0,300.17807,5465.9552,0.0,0.0,0.0,0.15439891241017675,0.0,0.0,-0.37284760500219366,-0.6263244386384094,-0.6623418522580513,1.2656065222056387,0.3179588034375907,-0.1127123199238399
15226,3.0,299.98152000000005,5207.6284,0.0,0.0,0.0,0.15440905355384899,0.0,0.0,-0.2800916916278977,-0.6234520367249253,-0.6794452606335264,1.278145593518149,0.3121852841027887,-0.14522777907786585
15227,3.0,299.45304,5012.7551,0.0,0.0,0.0,0.15441919469752127,0.0,0.0,-0.2998714582875087,-0.6030041836118795,-0.6208767501382644,1.2560393134364287,0.3308298965428687,-0.12706457189279688
15228,3.0,300.39146,5365.8459,0.0,0.0,0.0,0.1544293358411935,0.0,0.0,-0.29242348236745075,-0.6454699411329234,-0.6931897347950003,1.2678650566785388,0.32986217176986166,-0.16809831318001184
15229,3.0,299.85001,5552.1996,0.0,0.0,0.0,0.1544394769848658,0.0,0.0,-0.3790786371546486,-0.5975373852148484,-0.7111140176064894,1.2397960024083388,0.29076553162632374,-0.10548203065526589
15230,3.0,300.04617,5529.5504,0.0,0.0,0.0,0.15444961812853802,0.0,0.0,-0.3367758913096927,-0.6641266011166923,-0.6799427461676243,1.263822087454529,0.3252831121829437,-0.16176527713998984
15231,3.0,299.02965,5394.923000000001,0.0,0.0,0.0,0.1544597592722103,0.0,0.0,-0.3743894170168586,-0.5956106293546924,-0.6699218445336383,1.2868069566979587,0.34984199452921666,-0.07890850313516293
15232,3.0,298.83189,5327.1741,0.0,0.0,0.0,0.15446990041588257,0.0,0.0,-0.3302869870067877,-0.5944039903406064,-0.6946369396478284,1.2612602872266987,0.34085737417000367,-0.13887170173056987
15233,3.0,298.6826,5361.8771,0.0,0.0,0.0,0.15448004155955483,0.0,0.0,-0.35915274969811667,-0.5782635444626684,-0.6924604379030244,1.222041530181109,0.3107902616301107,-0.07698216777379843
15234,3.0,300.34875,5488.9644,0.0,0.0,0.0,0.15449018270322706,0.0,0.0,-0.3581618620278237,-0.6108148929352364,-0.6995313530633693,1.231411864455889,0.3074946656798607,-0.13762907207293187
15235,3.0,299.7934,5565.311,0.0,0.0,0.0,0.15450032384689935,0.0,0.0,-0.3684204518702677,-0.6384186222295124,-0.6848765040845484,1.2788984383424489,0.33409513552012265,-0.08786429348928061
15236,3.0,299.84506,5271.5504,0.0,0.0,0.0,0.1545104649905716,0.0,0.0,-0.3177285322198647,-0.6124429933284175,-0.6722481654382284,1.2674156802591887,0.3199704189936217,-0.11212966058633589
15237,3.0,300.08083,5125.7403,0.0,0.0,0.0,0.1545206061342439,0.0,0.0,-0.3213678631340387,-0.5689770262361605,-0.6677521822270094,1.2577437014296389,0.2961535295630777,-0.10497540560526589
15238,3.0,300.25439,5326.6998,0.0,0.0,0.0,0.1545307472779161,0.0,0.0,-0.3122363519078287,-0.6127466846483894,-0.6942007152147763,1.2484797584153589,0.3067361669200027,-0.1153330710424879
15239,3.0,300.48796,5520.2978,0.0,0.0,0.0,0.1545408884215884,0.0,0.0,-0.34335697097419465,-0.6392535403119124,-0.6954221882103263,1.2951911959754188,0.35665412561402166,-0.15487825674029385
15240,3.0,298.61328,5251.7202,0.0,0.0,0.0,0.15455102956526065,0.0,0.0,-0.3175568268579187,-0.6177220466144193,-0.6611129420067674,1.2800176744029088,0.36713918698631665,-0.13996938596140288
15241,3.0,298.29736,5064.4401,0.0,0.0,0.0,0.15456117070893294,0.0,0.0,-0.3060579783630707,-0.6012820232119155,-0.6321233297557154,1.2859520775885886,0.3025718508640167,-0.16549941786602085
15242,3.0,299.41102,5285.4094,0.0,0.0,0.0,0.1545713118526052,0.0,0.0,-0.3342467177350827,-0.6065937538136424,-0.6657920093785553,1.2593791884160488,0.3123832022448217,-0.1278909381443529
15243,3.0,300.07552000000004,5451.5762,0.0,0.0,0.0,0.15458145299627743,0.0,0.0,-0.3543042466446067,-0.6266571089112414,-0.6761816732539354,1.2541102878960488,0.3216604492329147,-0.1344284987170599
15244,3.0,300.3868,5379.4775,0.0,0.0,0.0,0.1545915941399497,0.0,0.0,-0.3009134036303407,-0.6365648305090574,-0.6977486003074252,1.2594371463217688,0.3234648855409987,-0.1171035128097169
15245,3.0,300.67322,5089.1285,0.0,0.0,0.0,0.15460173528362198,0.0,0.0,-0.3169973000201977,-0.5803829292993354,-0.6495877692743214,1.2289015373331387,0.30082279880639873,-0.10895875519339189
15246,3.0,300.49735,5157.7277,0.0,0.0,0.0,0.15461187642729424,0.0,0.0,-0.28543810578054774,-0.6130973705079994,-0.6692849357857803,1.2353838048478887,0.3263161206598937,-0.13926994954987387
15247,3.0,301.53426,5557.5025,0.0,0.0,0.0,0.1546220175709665,0.0,0.0,-0.36742933115245163,-0.6537879239863444,-0.6681247340237774,1.289957657883909,0.35590461438255067,-0.11753071931687888
15248,3.0,301.36287999999996,5537.6254,0.0,0.0,0.0,0.15463215871463873,0.0,0.0,-0.3443222335494587,-0.6304776798708024,-0.7084999235409983,1.2904574941582387,0.35533425590126066,-0.13504026872993688
15249,3.0,299.78721,5105.3099,0.0,0.0,0.0,0.15464229985831102,0.0,0.0,-0.3243138675347867,-0.5991000499165714,-0.6284727922954354,1.2961415232442088,0.30118827811746873,-0.11978689291704589
15250,3.0,300.38241,5178.0121,0.0,0.0,0.0,0.15465244100198328,0.0,0.0,-0.30153192188888367,-0.5895260118416875,-0.6829284395747893,1.2592086584242186,0.3168058565463037,-0.14823919890506987
15251,3.0,300.08966000000004,5544.9925,0.0,0.0,0.0,0.15466258214565554,0.0,0.0,-0.37960343991144263,-0.6194124112262455,-0.6865234103995853,1.2603991259667089,0.3481373937534856,-0.1143570680161639
15252,3.0,299.991,5704.3224,0.0,0.0,0.0,0.1546727232893278,0.0,0.0,-0.3553586245661656,-0.6607536941838124,-0.7178592539196923,1.251831285771129,0.3389315910299437,-0.13329565470775687
15253,3.0,300.13689,5361.3016,0.0,0.0,0.0,0.15468286443300006,0.0,0.0,-0.36400657231465167,-0.5929529655349014,-0.6727422667169923,1.2780271445814588,0.3174002493199657,-0.10998017208919789
15254,3.0,299.94329,5119.2088,0.0,0.0,0.0,0.15469300557667232,0.0,0.0,-0.28347649411695175,-0.6111078134066454,-0.6615273309001644,1.2802574093765686,0.3206676667849347,-0.096996254598535
15255,3.0,300.14575,5287.6393,0.0,0.0,0.0,0.15470314672034458,0.0,0.0,-0.32323129086294466,-0.6193818009407245,-0.6646972230430084,1.2757362874303688,0.31814182680315367,-0.12315457147940989
15256,3.0,299.74547,5489.1255,0.0,0.0,0.0,0.15471328786401684,0.0,0.0,-0.3284744244329017,-0.6301812130240434,-0.7099014612118193,1.2680958750513187,0.34102100392865264,-0.1049955084872499
15257,3.0,299.34671000000003,5334.9749,0.0,0.0,0.0,0.15472342900768912,0.0,0.0,-0.31807753608430867,-0.6382277867056784,-0.6653938223542574,1.2651093203815686,0.3151043968458827,-0.16126541046815684
15258,3.0,299.42784,5141.348,0.0,0.0,0.0,0.15473357015136135,0.0,0.0,-0.2950098944402097,-0.5879061998343245,-0.6799253283984054,1.2740945182933388,0.3555381623513847,-0.1065553462211939
15259,3.0,299.38932,5079.7570000000005,0.0,0.0,0.0,0.15474371129503361,0.0,0.0,-0.3082121683406727,-0.6140872347956914,-0.6218199035963464,1.272838290819359,0.34514072684773767,-0.15232295144560487
15260,3.0,299.51265,5276.1543,0.0,0.0,0.0,0.15475385243870587,0.0,0.0,-0.32810106203605366,-0.5973364374550164,-0.6783816520035564,1.2673371533764386,0.3392826112620867,-0.11402986929387188
15261,3.0,300.66922999999997,5463.6925,0.0,0.0,0.0,0.15476399358237816,0.0,0.0,-0.3682704503254637,-0.6027345881577724,-0.6898210733800393,1.239077506762429,0.28454688139009077,-0.13084731822612486
15262,3.0,300.38009,5254.401999999999,0.0,0.0,0.0,0.15477413472605042,0.0,0.0,-0.30582940940551273,-0.6007337333178034,-0.6906438527262414,1.2741173164205888,0.2971224195736997,-0.12520689942445887
15263,3.0,301.37707,5216.0978,0.0,0.0,0.0,0.15478427586972265,0.0,0.0,-0.3240908917177807,-0.6083137559908934,-0.6531588273967573,1.2729843001587688,0.3281327564991817,-0.15164629289632386
15264,3.0,300.2727,5438.1876,0.0,0.0,0.0,0.1547944170133949,0.0,0.0,-0.3299561000541317,-0.6107030807867013,-0.7124140478822923,1.2736442299488988,0.32378214427980967,-0.13062459572164387
15265,3.0,299.86409,5502.7439,0.0,0.0,0.0,0.1548045581570672,0.0,0.0,-0.36901017356096866,-0.6256900326182984,-0.6779965460380494,1.2600571540579588,0.3129957828577787,-0.1151533711372529
15266,3.0,300.76891,5405.7348,0.0,0.0,0.0,0.15481469930073946,0.0,0.0,-0.33219527131762067,-0.5897158543804235,-0.7212972824364993,1.2598678789392788,0.3311040718874277,-0.09441693831622631
15267,3.0,299.78485,5347.8747,0.0,0.0,0.0,0.15482484044441175,0.0,0.0,-0.34275460392224566,-0.6050558022818585,-0.6778099661646354,1.2687980573706188,0.3248228230600167,-0.12315925269487188
15268,3.0,298.94372999999996,5427.5429,0.0,0.0,0.0,0.15483498158808395,0.0,0.0,-0.34059222688383567,-0.6030312576545515,-0.7062140313153983,1.242495705974779,0.3299416815052087,-0.1126162131518549
15269,3.0,299.30215,5367.0143,0.0,0.0,0.0,0.15484512273175624,0.0,0.0,-0.3615101773807766,-0.6034126449921914,-0.6665155307449613,1.2526342864753788,0.3079136749937137,-0.14812351614115285
15270,3.0,298.915,5450.1334,0.0,0.0,0.0,0.1548552638754285,0.0,0.0,-0.3223572511941837,-0.6446348001355013,-0.6897124124393154,1.264022710974329,0.3296701000809057,-0.10991573951533888
15271,3.0,300.07153,5532.6629,0.0,0.0,0.0,0.1548654050191008,0.0,0.0,-0.38170712950406066,-0.6173366468063834,-0.6827476048294424,1.2920114145115988,0.34564207286471665,-0.14162256429455886
15272,3.0,300.43598,5381.5783,0.0,0.0,0.0,0.15487554616277302,0.0,0.0,-0.3270129530186657,-0.6104323403599814,-0.6984201318112003,1.2803346190341887,0.3449886684052307,-0.08361880090153312
15273,3.0,299.44356,5157.849,0.0,0.0,0.0,0.15488568730644528,0.0,0.0,-0.3081407646061257,-0.6074954754751355,-0.6522210644292074,1.260036585080929,0.3176663186637247,-0.14115658070606987
15274,3.0,300.52032,5408.2805,0.0,0.0,0.0,0.15489582845011754,0.0,0.0,-0.3217182754161217,-0.5946245039598693,-0.7276394579924234,1.246391145984229,0.31265452022409873,-0.08403991676234401
15275,3.0,300.20474,5498.4298,0.0,0.0,0.0,0.15490596959378983,0.0,0.0,-0.3298494656136077,-0.6676509078795144,-0.6738849797822694,1.2832005969420388,0.3147579565041917,-0.18538297173337484
15276,3.0,299.91742999999997,5270.215,0.0,0.0,0.0,0.15491611073746206,0.0,0.0,-0.3118663838988157,-0.5881867789195154,-0.7019605999131173,1.2660969352540385,0.32169930737424973,-0.11210593026899389
15277,3.0,300.18621,5275.6674,0.0,0.0,0.0,0.15492625188113435,0.0,0.0,-0.3255086413902017,-0.6342959811501394,-0.6438665235121783,1.281959770869579,0.2985424490588457,-0.14810770943959287
15278,3.0,299.66131,5258.6701,0.0,0.0,0.0,0.15493639302480658,0.0,0.0,-0.31514690268757767,-0.5883848693140654,-0.6949726192734573,1.258307372460269,0.30189290236950966,-0.09445156613839381
15279,3.0,299.64939,5392.1345,0.0,0.0,0.0,0.15494653416847887,0.0,0.0,-0.34592481017262067,-0.6082881612933674,-0.6848612546705434,1.2885288739178988,0.3281996918007877,-0.13716880321500688
15280,3.0,299.23478,5529.6035,0.0,0.0,0.0,0.1549566753121511,0.0,0.0,-0.35594876168940764,-0.6263926810326444,-0.6985199470785514,1.2795767079593887,0.3242188348079077,-0.12659047217100688
15281,3.0,300.21337,5415.8875,0.0,0.0,0.0,0.1549668164558234,0.0,0.0,-0.3469576565295547,-0.6111063543265014,-0.6882305645655683,1.2804296618935689,0.3354084596372377,-0.13054455909624488
15282,3.0,300.80203,5333.2312,0.0,0.0,0.0,0.15497695759949565,0.0,0.0,-0.33404718852539067,-0.6159953772515104,-0.6711265381075324,1.262284683077799,0.3357407955375367,-0.13224557296662187
15283,3.0,300.25431000000003,5472.0523,0.0,0.0,0.0,0.15498709874316788,0.0,0.0,-0.36534040461379064,-0.6254484636619575,-0.6725783735133174,1.2600075048030588,0.34449446580145665,-0.1209381578131669
15284,3.0,300.09179,5532.6944,0.0,0.0,0.0,0.15499723988684014,0.0,0.0,-0.3576699088392717,-0.6019005820004624,-0.7222304655135974,1.2561719478745188,0.34470312439454964,-0.11487534544231388
15285,3.0,301.03474,5362.0813,0.0,0.0,0.0,0.15500738103051243,0.0,0.0,-0.35005064298980865,-0.6083749360319314,-0.6715132348756964,1.2537703424874989,0.32030993883712966,-0.12094764183410288
15286,3.0,300.1756,5178.2773,0.0,0.0,0.0,0.15501752217418469,0.0,0.0,-0.3014267363960027,-0.5968336424903944,-0.6758066187294204,1.2649753687183487,0.33595231149591165,-0.11552924639434889
15287,3.0,300.50075,5477.975,0.0,0.0,0.0,0.15502766331785692,0.0,0.0,-0.3287385382039677,-0.6481468364396124,-0.6882822504531693,1.2745751028157688,0.3338204231530107,-0.14899172962183885
15288,3.0,299.6938,5668.145,0.0,0.0,0.0,0.15503780446152918,0.0,0.0,-0.36020458436192465,-0.6673069094705644,-0.6954630627193603,1.2940751009902687,0.3214391554110747,-0.11880568178520788
15289,3.0,299.17489,5400.2529,0.0,0.0,0.0,0.15504794560520146,0.0,0.0,-0.3346240318073207,-0.6216944733664674,-0.6852235219787964,1.2739056484746987,0.3087469516109517,-0.13127600407843287
15290,3.0,300.30134,5256.8412,0.0,0.0,0.0,0.15505808674887372,0.0,0.0,-0.2894158824931237,-0.6249525790630174,-0.6835799897865924,1.2802802075038187,0.29880839681259275,-0.12554633820795888
15291,3.0,300.29977,5213.2452,0.0,0.0,0.0,0.155068227892546,0.0,0.0,-0.3123727556362907,-0.6017050348636634,-0.6706185654348994,1.281471688296409,0.3280668952426817,-0.14890549190582786
15292,3.0,299.45437999999996,5294.0692,0.0,0.0,0.0,0.15507836903621824,0.0,0.0,-0.30957441217261567,-0.6108908157652294,-0.6887996159542294,1.2840373388746187,0.32361197905801564,-0.12381032667912789
15293,3.0,299.56099,5442.4335,0.0,0.0,0.0,0.1550885101798905,0.0,0.0,-0.3223274413762417,-0.6425964854393355,-0.6894399494874253,1.275461088703209,0.3263713326578427,-0.16088498571811186
15294,3.0,300.3413,5370.9091,0.0,0.0,0.0,0.15509865132356276,0.0,0.0,-0.3352306747746917,-0.6057444779773254,-0.6916471020477544,1.2602060004976487,0.3355410535453237,-0.1052661678539619
15295,3.0,299.49343,5351.9216,0.0,0.0,0.0,0.15510879246723505,0.0,0.0,-0.3249331963934097,-0.6324443679173993,-0.6694729544743363,1.2642092503177387,0.3265964261675577,-0.13772635421503288
15296,3.0,300.08822999999995,5653.5945,0.0,0.0,0.0,0.15511893361090728,0.0,0.0,-0.35879908488321266,-0.6171872430791384,-0.7425652297829823,1.2564358995255687,0.32015511422184967,-0.09794837734650222
15297,3.0,300.63367,5714.9408,0.0,0.0,0.0,0.15512907475457954,0.0,0.0,-0.4129924625066826,-0.6222164187579795,-0.7019904299960613,1.2681067168273887,0.31792925706467473,-0.1003290216287035
15298,3.0,301.56475,5382.8581,0.0,0.0,0.0,0.1551392158982518,0.0,0.0,-0.3020066700907377,-0.6435539257238274,-0.6906938464861753,1.2773765366922487,0.3214766051347707,-0.1276620550792639
15299,3.0,301.51215,5140.4601,0.0,0.0,0.0,0.1551493570419241,0.0,0.0,-0.3188175227648397,-0.5899236922409354,-0.6538302879730253,1.2662329134174588,0.34921162124450367,-0.12279716777163689
15300,3.0,299.70546,5379.9698,0.0,0.0,0.0,0.15515949818559632,0.0,0.0,-0.3258736748712277,-0.6315067062748594,-0.6779961002080053,1.2750248845351588,0.3311953251914337,-0.14896610452680986
15301,3.0,300.1464,5529.6807,0.0,0.0,0.0,0.15516963932926858,0.0,0.0,-0.36467112252523765,-0.6230253368428134,-0.6931884074373692,1.2649185253877386,0.3046214531662967,-0.1046943604250289
15302,3.0,300.27063,5352.6909,0.0,0.0,0.0,0.15517978047294087,0.0,0.0,-0.30583504307606874,-0.6190623231841944,-0.7021870106479623,1.2907839633404588,0.3088027918239627,-0.15100828983835787
15303,3.0,299.82403,5218.4925,0.0,0.0,0.0,0.15518992161661313,0.0,0.0,-0.3106268142564797,-0.6219737453590294,-0.6536908546267644,1.3091156841496587,0.2949395343532657,-0.12397448332782887
15304,3.0,299.70626,5371.134,0.0,0.0,0.0,0.15520006276028536,0.0,0.0,-0.30125131240618974,-0.6392888622103984,-0.6921504441674303,1.304481584817309,0.3254252306419697,-0.15450012193547485
15305,3.0,300.3256,5563.2467,0.0,0.0,0.0,0.15521020390395762,0.0,0.0,-0.36672450425039066,-0.6365859567736424,-0.6877776113733653,1.2849738859420488,0.34046410140869066,-0.1073636563559679
15306,3.0,299.73492000000005,5596.4798,0.0,0.0,0.0,0.1552203450476299,0.0,0.0,-0.35080846287209966,-0.6631799114157614,-0.6872017610765334,1.2553966088979986,0.3417212408077607,-0.14771454813579085
15307,3.0,301.34991,5438.7423,0.0,0.0,0.0,0.15523048619130217,0.0,0.0,-0.3376254407235367,-0.6174016974628034,-0.6982147257509282,1.2434627518702188,0.36512846309037367,-0.1026215749604609
15308,3.0,300.98797,5143.0211,0.0,0.0,0.0,0.1552406273349744,0.0,0.0,-0.3067669089280367,-0.6003036897103614,-0.6562794046572343,1.2426292523379587,0.34182231250523565,-0.12231340164389289
15309,3.0,300.67697000000004,5410.7674,0.0,0.0,0.0,0.1552507684786467,0.0,0.0,-0.33654543770694867,-0.6124985396988994,-0.6956942053321724,1.261570848382349,0.3187667285373267,-0.1198384470821339
15310,3.0,300.57901,5673.2644,0.0,0.0,0.0,0.15526090962231895,0.0,0.0,-0.3563971653886617,-0.6368579637629873,-0.7312755870362813,1.2684178859330988,0.30872519713130475,-0.13604984073207388
15311,3.0,300.20062,5558.2698,0.0,0.0,0.0,0.1552710507659912,0.0,0.0,-0.34906395017492964,-0.6412608090250144,-0.6992504801356493,1.3080172197162487,0.3171514254929087,-0.13770707206562985
15312,3.0,298.35787,5345.1401,0.0,0.0,0.0,0.15528119190966347,0.0,0.0,-0.3264476506553747,-0.5967111608183064,-0.7016302905130184,1.3093313037709386,0.3183601821997037,-0.14250943170958585
15313,3.0,299.64525,5486.9837,0.0,0.0,0.0,0.15529133305333573,0.0,0.0,-0.35856063673717964,-0.6138136370036895,-0.6955317509436394,1.2845005968203387,0.3030051976667847,-0.09639031381348331
15314,3.0,299.75903999999997,5378.4273,0.0,0.0,0.0,0.155301474197008,0.0,0.0,-0.3448676964757917,-0.6123863323828254,-0.6776535710117004,1.2542961179643886,0.3167579804790787,-0.13168261121106187
15315,3.0,300.32927,5445.9586,0.0,0.0,0.0,0.15531161534068025,0.0,0.0,-0.35088596637224867,-0.6232675542792184,-0.6812818980297883,1.2727943157650188,0.3323880117516427,-0.0908970452708399
15316,3.0,300.17285,5393.9932,0.0,0.0,0.0,0.1553217564843525,0.0,0.0,-0.33499435445386866,-0.6426908798186514,-0.6619540003847734,1.2886463096044887,0.33842791453773463,-0.13780804243809489
15317,3.0,300.5808,5313.1392,0.0,0.0,0.0,0.15533189762802477,0.0,0.0,-0.33633291863097464,-0.6098152406515784,-0.6689134884316214,1.275675897724409,0.3414532564213127,-0.09007054121727032
15318,3.0,299.85401,5377.5044,0.0,0.0,0.0,0.15534203877169703,0.0,0.0,-0.3279921376503037,-0.6337359172898654,-0.6728990063749614,1.245981995593849,0.3205786223661467,-0.17371390735422784
15319,3.0,299.05514,5481.6547,0.0,0.0,0.0,0.1553521799153693,0.0,0.0,-0.34539172916250965,-0.6233211856070114,-0.6975732168476163,1.2340212874384187,0.3134473681623467,-0.1067637616342629
15320,3.0,298.57995,5468.4409,0.0,0.0,0.0,0.15536232105904155,0.0,0.0,-0.3300376464221797,-0.6319774622713193,-0.7002543880697273,1.260263046478279,0.3147742799633027,-0.15509127230881684
15321,3.0,298.80953,5174.504,0.0,0.0,0.0,0.1553724622027138,0.0,0.0,-0.2989502518265927,-0.6006578003553095,-0.6733119665857173,1.2815315713773188,0.3081345736480147,-0.10960937321510289
15322,3.0,298.61354,5130.1374,0.0,0.0,0.0,0.1553826033463861,0.0,0.0,-0.2884145684793017,-0.6108963683757774,-0.6601227433465424,1.2790366456560887,0.3113448742048467,-0.1828549329988768
15323,3.0,300.32826,5491.6708,0.0,0.0,0.0,0.1553927444900583,0.0,0.0,-0.34556524824213464,-0.6391124553679883,-0.6846530723049973,1.3026692856884488,0.3200064906971817,-0.11303633704081789
15324,3.0,299.98249,5495.8405,0.0,0.0,0.0,0.1554028856337306,0.0,0.0,-0.34554759742539265,-0.6357507853787174,-0.6892998980586033,1.2712729207398688,0.3246210140375997,-0.16351116785729583
15325,3.0,299.71438,5374.9955,0.0,0.0,0.0,0.15541302677740285,0.0,0.0,-0.3463422894788227,-0.6152975417751394,-0.6722245769759004,1.2803099970567589,0.3033418094825057,-0.10172460544193691
15326,3.0,299.41544,5261.8144,0.0,0.0,0.0,0.15542316792107513,0.0,0.0,-0.31538506712358266,-0.5906842782959995,-0.6933908446748484,1.2633394764318988,0.31388122159016474,-0.11514955118437589
15327,3.0,299.90893,5371.3294,0.0,0.0,0.0,0.1554333090647474,0.0,0.0,-0.3311310952675947,-0.6320110616446354,-0.6696078585926504,1.2713668490241388,0.3177427379862667,-0.11338042664227688
15328,3.0,299.86471,5568.0709,0.0,0.0,0.0,0.15544345020841963,0.0,0.0,-0.34311122742744166,-0.6316829509972535,-0.7177603404449303,1.2912112509076288,0.33224183015971565,-0.10626794796282991
15329,3.0,300.42873,5632.7003,0.0,0.0,0.0,0.15545359135209189,0.0,0.0,-0.3853475040658376,-0.6349911315137454,-0.6918616172264254,1.2756140894683088,0.2876506994939137,-0.12253912336866989
15330,3.0,300.9705,5328.0812,0.0,0.0,0.0,0.15546373249576417,0.0,0.0,-0.34120109900142664,-0.5908292541203075,-0.6875732793581993,1.2584721269265289,0.2962073230108867,-0.12034564968469089
15331,3.0,300.58428,5219.0882,0.0,0.0,0.0,0.15547387363943643,0.0,0.0,-0.3451132171075227,-0.5764149811127295,-0.6649443040798934,1.2382009441009187,0.31251328329265965,-0.12425785898329589
15332,3.0,299.8261,5455.6611,0.0,0.0,0.0,0.15548401478310872,0.0,0.0,-0.35596107267812266,-0.6078221067773714,-0.6946015569543363,1.2525338733904687,0.35259861235377365,-0.1025521470636089
15333,3.0,300.23221,5569.9063,0.0,0.0,0.0,0.15549415592678092,0.0,0.0,-0.3816775324686396,-0.6048880485953024,-0.7065468637082464,1.2631849557916488,0.34627157475434367,-0.11711263206061688
15334,3.0,300.94263,5485.6091,0.0,0.0,0.0,0.1555042970704532,0.0,0.0,-0.3315649486954127,-0.6423640661313974,-0.6935591759139613,1.2948047423872788,0.3528996894884877,-0.1256203054652589
15335,3.0,299.08547999999996,5303.6345,0.0,0.0,0.0,0.15551443821412547,0.0,0.0,-0.3321111816918217,-0.6207880603570115,-0.6592732141977004,1.276128313894059,0.33555176359888067,-0.13091249047255687
15336,3.0,298.94572999999997,5493.4958,0.0,0.0,0.0,0.15552457935779776,0.0,0.0,-0.3280102342970897,-0.6351205336840164,-0.7067547826287663,1.3061800959599386,0.3112888110768137,-0.13142662370579788
15337,3.0,299.35242999999997,5501.5371,0.0,0.0,0.0,0.15553472050147,0.0,0.0,-0.34678140167465965,-0.6363533652131874,-0.6891951381307644,1.2666469274083187,0.2897373867498537,-0.13403885339110488
15338,3.0,299.65972,5451.6397,0.0,0.0,0.0,0.15554486164514225,0.0,0.0,-0.3135033806278747,-0.6202481703062285,-0.7234107904225864,1.2780574407594487,0.2841846444793407,-0.12577341768786987
15339,3.0,300.9206,5345.3515,0.0,0.0,0.0,0.1555550027888145,0.0,0.0,-0.3212712092069997,-0.6255907543735004,-0.6779914189925433,1.2630753221308288,0.32008667931009566,-0.13661416024276787
15340,3.0,301.16303,5274.2007,0.0,0.0,0.0,0.1555651439324868,0.0,0.0,-0.29777622933322573,-0.6284956208201884,-0.6769534557226043,1.2608072631069887,0.33986642570470466,-0.12763390699148588
15341,3.0,299.78789,5271.1767,0.0,0.0,0.0,0.15557528507615903,0.0,0.0,-0.3345223116297817,-0.6068235589363224,-0.6609602148191943,1.231772480166479,0.3260659188127007,-0.13971685363897987
15342,3.0,299.99483,5479.9367,0.0,0.0,0.0,0.15558542621983132,0.0,0.0,-0.35481198626971666,-0.6272320067529795,-0.6837199398904044,1.2456797430890187,0.3351446194436987,-0.13603682046828885
15343,3.0,300.30714,5346.6777,0.0,0.0,0.0,0.15559556736350355,0.0,0.0,-0.34702172433337763,-0.6205742139234064,-0.6576605658685444,1.260312391758149,0.3286330386035557,-0.13957231351221489
15344,3.0,299.42812999999995,5176.6337,0.0,0.0,0.0,0.15560570850717584,0.0,0.0,-0.31682801632599067,-0.5942212506850715,-0.6625181071129465,1.3016421540620788,0.34573610247399666,-0.12264783497189889
15345,3.0,299.84783999999996,5518.459,0.0,0.0,0.0,0.15561584965084807,0.0,0.0,-0.35068217137963564,-0.6394403532328494,-0.6873512255987844,1.2847496536949188,0.3221383385100787,-0.12368388319914889
15346,3.0,299.56797,5554.3103,0.0,0.0,0.0,0.15562599079452036,0.0,0.0,-0.3711139543460956,-0.6123399964557524,-0.7049176994024604,1.3255072336673788,0.33804288963223567,-0.08987236266996161
15347,3.0,299.09837999999996,5470.6933,0.0,0.0,0.0,0.15563613193819262,0.0,0.0,-0.33750857245700266,-0.6356305125918474,-0.6898150648069463,1.276933847723559,0.3423951635817717,-0.12733069189906088
15348,3.0,299.49213,5592.6763,0.0,0.0,0.0,0.15564627308186485,0.0,0.0,-0.37374942798869665,-0.6208632131169284,-0.7054213150996633,1.2650661559273089,0.3341985680903307,-0.08189840659649343
15349,3.0,298.80029,5431.8511,0.0,0.0,0.0,0.1556564142255371,0.0,0.0,-0.3435301455487857,-0.6093976498878655,-0.6982193056413804,1.2494135697075188,0.29736716000285374,-0.10692886060555688
15350,3.0,300.21296,5326.6714,0.0,0.0,0.0,0.1556665553692094,0.0,0.0,-0.3297831281295607,-0.6253241378746873,-0.6640678224783914,1.254544060263859,0.3126018413513997,-0.10872698436551789
15351,3.0,300.43104,5405.57,0.0,0.0,0.0,0.15567669651288166,0.0,0.0,-0.32310779594075667,-0.6059165582418085,-0.7141339689995353,1.2794067859176186,0.3059297009004107,-0.13026789115643989
15352,3.0,299.70205,5176.5609,0.0,0.0,0.0,0.15568683765655394,0.0,0.0,-0.30755109357792965,-0.6063071458903565,-0.6596870154060394,1.2637287671203188,0.3243357942669507,-0.12547169207309186
15353,3.0,300.33404,5015.2565,0.0,0.0,0.0,0.15569697880022615,0.0,0.0,-0.28248798758439375,-0.6003865330385374,-0.6416382345547633,1.2760611354124287,0.3175585797805917,-0.14119384804474785
15354,3.0,300.82858999999996,5291.5083,0.0,0.0,0.0,0.15570711994389844,0.0,0.0,-0.3226808427461197,-0.5930172461212454,-0.6927883155028833,1.2685224533434187,0.3180015727243117,-0.14324015728420286
15355,3.0,300.11509,5529.1269999999995,0.0,0.0,0.0,0.1557172610875707,0.0,0.0,-0.3484611372929367,-0.6460418296218644,-0.6862135990490094,1.260888019139959,0.33182243581082466,-0.15396694973285485
15356,3.0,300.59974,5451.6548,0.0,0.0,0.0,0.15572740223124298,0.0,0.0,-0.3255042438847677,-0.6171271573482083,-0.7145355402791673,1.2781387034174687,0.3494539602709206,-0.13293888934754686
15357,3.0,299.56928999999997,5404.3931,0.0,0.0,0.0,0.15573754337491522,0.0,0.0,-0.3176570778228127,-0.6372577517224434,-0.6878857352915363,1.2772465367044188,0.33752071119320065,-0.1146128022089029
15358,3.0,298.62367,5596.8316,0.0,0.0,0.0,0.15574768451858748,0.0,0.0,-0.35635442649944366,-0.6372819886648353,-0.7076606383506673,1.2837751097487387,0.3465620127630077,-0.1032818492556249
15359,3.0,299.24212,5481.6807,0.0,0.0,0.0,0.15575782566225974,0.0,0.0,-0.34618276338307863,-0.6032453472681805,-0.7168659445816603,1.2646409961853489,0.3239124381101687,-0.10386113447029591
15360,3.0,299.92455,5228.9467,0.0,0.0,0.0,0.15576796680593202,0.0,0.0,-0.3280200932205627,-0.5946182218092495,-0.6668309149710874,1.2609645195225088,0.3131704165125137,-0.12949147813481388
15361,3.0,299.66684,5373.7239,0.0,0.0,0.0,0.15577810794960426,0.0,0.0,-0.3368135943459137,-0.5893865075679194,-0.7072777716678813,1.2426746459424387,0.29022008896499274,-0.13143035246616588
15362,3.0,299.78952000000004,5477.9033,0.0,0.0,0.0,0.15578824909327654,0.0,0.0,-0.35269592489337764,-0.6199046582573263,-0.6925452469363944,1.2661838721126186,0.3186104245769007,-0.11993376351904088
15363,3.0,300.44798,5480.4849,0.0,0.0,0.0,0.15579839023694877,0.0,0.0,-0.34394330840956167,-0.6454830829867204,-0.6765041502307614,1.2709220322302388,0.3198980425389787,-0.15635075231561785
15364,3.0,300.16486000000003,5456.349,0.0,0.0,0.0,0.15580853138062106,0.0,0.0,-0.3578491831794647,-0.5994884894749074,-0.7012561783110963,1.2877725840432588,0.33824557004973865,-0.0969509835973171
15365,3.0,300.76647,5459.6188,0.0,0.0,0.0,0.1558186725242933,0.0,0.0,-0.3401050967657596,-0.6525112288603444,-0.6669714527599573,1.2753108237133788,0.33575741283917665,-0.14493473701644488
15366,3.0,300.60975,5361.9146,0.0,0.0,0.0,0.15582881366796558,0.0,0.0,-0.34049498527173866,-0.5994000530061795,-0.6899930928495163,1.285074299026959,0.36068705352954067,-0.10465924117656292
15367,3.0,299.65249,5571.1499,0.0,0.0,0.0,0.15583895481163784,0.0,0.0,-0.34788608746368366,-0.6306356455613924,-0.7149687148294183,1.2838115867523385,0.3499957248343887,-0.14684074151455287
15368,3.0,300.04332999999997,5730.981,0.0,0.0,0.0,0.1558490959553101,0.0,0.0,-0.35793483321041764,-0.6582753452342184,-0.7258649530922934,1.2705040665639888,0.32888366601579067,-0.09253183818093141
15369,3.0,300.32512,5227.7114,0.0,0.0,0.0,0.15585923709898233,0.0,0.0,-0.3174851698108467,-0.5858203941059714,-0.6857881657295224,1.272100847396579,0.3193830581756537,-0.12956744149481086
15370,3.0,299.62376,5254.9107,0.0,0.0,0.0,0.15586937824265462,0.0,0.0,-0.3049526440939827,-0.6203401632828075,-0.6720688404355304,1.246054544301009,0.3223548903214507,-0.11754917060119988
15371,3.0,299.00417000000004,5638.0387,0.0,0.0,0.0,0.15587951938632688,0.0,0.0,-0.35487762461119465,-0.6616582833430884,-0.6972870750193764,1.2444989014224788,0.3065008395842777,-0.14040775848466686
15372,3.0,298.90572000000003,5449.4825,0.0,0.0,0.0,0.15588966052999917,0.0,0.0,-0.33472481979476765,-0.6283998889507404,-0.6933818976764653,1.2520856115462287,0.3187386412445547,-0.11788214484906187
15373,3.0,298.65533,5293.3495,0.0,0.0,0.0,0.15589980167367137,0.0,0.0,-0.28454968809286774,-0.6578861356058064,-0.6666102493643093,1.260910513292179,0.30805527669518873,-0.16201308771694684
15374,3.0,299.60162,5534.6651,0.0,0.0,0.0,0.15590994281734366,0.0,0.0,-0.35181255319119564,-0.6184949436581985,-0.7120925030955584,1.3123633533701788,0.3357776271786717,-0.10917589468982189
15375,3.0,299.44617,5324.3415,0.0,0.0,0.0,0.15592008396101592,0.0,0.0,-0.3348836974104477,-0.6158554778102034,-0.6677277122370944,1.3094121611289187,0.3387960789615697,-0.12748439180672988
15376,3.0,300.74687,5310.0057,0.0,0.0,0.0,0.1559302251046882,0.0,0.0,-0.3310915481161917,-0.6109254993161525,-0.6720921046578263,1.303190704189909,0.31956868559397367,-0.10571830031358391
15377,3.0,301.11487999999997,5580.0729,0.0,0.0,0.0,0.15594036624836044,0.0,0.0,-0.38880949594750963,-0.5777037440474205,-0.7296895770522542,1.2630769433309885,0.3150734825853317,-0.10490796367860991
15378,3.0,300.10237,5666.9951,0.0,0.0,0.0,0.1559505073920327,0.0,0.0,-0.35876184794203764,-0.6601398470082304,-0.7037233105820834,1.2538437017947386,0.35124818301799665,-0.1025521673286109
15379,3.0,299.92953,5461.6991,0.0,0.0,0.0,0.15596064853570496,0.0,0.0,-0.33528301927485765,-0.6208000369731934,-0.7041370915254203,1.2610626021321887,0.35822676069672865,-0.13251697200590687
15380,3.0,300.07241,5699.933000000001,0.0,0.0,0.0,0.15597078967937725,0.0,0.0,-0.37226472274966765,-0.6477604132489754,-0.7126121585418443,1.2575842158638988,0.3454319653239807,-0.09541423985965232
15381,3.0,299.57406000000003,5635.8509,0.0,0.0,0.0,0.15598093082304948,0.0,0.0,-0.37699649939165764,-0.6655888122035013,-0.6705726449403674,1.2499898050393887,0.32661024689892165,-0.13363892357663487
15382,3.0,299.19926,5183.058,0.0,0.0,0.0,0.15599107196672177,0.0,0.0,-0.31565102500983067,-0.5936858290672296,-0.6661833468321774,1.2569966321309087,0.3333142439330547,-0.1047011998632039
15383,3.0,299.23048,5049.1984,0.0,0.0,0.0,0.156001213110394,0.0,0.0,-0.2727398630098287,-0.6214435014491984,-0.6406468807894244,1.2584272399470988,0.3145503415587017,-0.14384586806148186
15384,3.0,299.30581,5287.5377,0.0,0.0,0.0,0.1560113542540663,0.0,0.0,-0.29907042328845274,-0.5993422876179784,-0.7088667200771983,1.2735182829614686,0.30183787275657875,-0.1091966967143749
15385,3.0,300.98642,5330.8487,0.0,0.0,0.0,0.15602149539773852,0.0,0.0,-0.30003070067322474,-0.6123533105620664,-0.7080608721401673,1.2829396850412886,0.2994626118721587,-0.15433280394646184
15386,3.0,301.23887,5539.9936,0.0,0.0,0.0,0.1560316365414108,0.0,0.0,-0.34737129561787766,-0.6618564142676423,-0.6747920108742864,1.290472388934709,0.3117465062794847,-0.15031155880459585
15387,3.0,300.3833,5754.1998,0.0,0.0,0.0,0.15604177768508307,0.0,0.0,-0.39004094945654466,-0.6205490042609184,-0.7385430929810283,1.2996409851145787,0.3254954488738997,-0.1244209213218889
15388,3.0,300.31889,5619.1518,0.0,0.0,0.0,0.15605191882875533,0.0,0.0,-0.36567987379479366,-0.6539240237397764,-0.6884779191799804,1.2724349159545487,0.33125715371253567,-0.13446027424019588
15389,3.0,300.27072999999996,5552.4208,0.0,0.0,0.0,0.15606205997242756,0.0,0.0,-0.3360770729807247,-0.6339677083827414,-0.7177524776241543,1.2600294923302289,0.3140058412199637,-0.11705031717946689
15390,3.0,299.71106000000003,5851.6345,0.0,0.0,0.0,0.15607220111609985,0.0,0.0,-0.35165757658840063,-0.6620077634350794,-0.7650854427955543,1.2486660951087487,0.3500142470462167,-0.10871921273725091
15391,3.0,299.37349,5602.9194,0.0,0.0,0.0,0.1560823422597721,0.0,0.0,-0.3243525939536087,-0.6590277847584783,-0.7197672038579923,1.2551456268482288,0.35142680887812566,-0.1045457571653629
15392,3.0,299.30143,5000.8556,0.0,0.0,0.0,0.1560924834034444,0.0,0.0,-0.2977976899703437,-0.5723650711255345,-0.6499724699397884,1.248032307171199,0.3300429051901987,-0.0968151320901596
15393,3.0,299.67356,5243.151999999999,0.0,0.0,0.0,0.1561026245471166,0.0,0.0,-0.3296032762368107,-0.6112302849462324,-0.6529537354440164,1.2616195857121588,0.3274941961536607,-0.087677312368827
15394,3.0,300.33714,5612.2874,0.0,0.0,0.0,0.15611276569078888,0.0,0.0,-0.3783241407326856,-0.6370862490105174,-0.6905848410404173,1.2757882671604988,0.3293451609063367,-0.1028319054162189
15395,3.0,301.44377000000003,5424.5096,0.0,0.0,0.0,0.15612290683446114,0.0,0.0,-0.34455124833706063,-0.6014624019947175,-0.7029018180635084,1.2903249610451588,0.3278662717228817,-0.13121025427944388
15396,3.0,301.23375,5529.0262,0.0,0.0,0.0,0.15613304797813343,0.0,0.0,-0.3090576647541167,-0.6662464317834034,-0.7053818186107653,1.281467837946029,0.3215744445644267,-0.16537800010653786
15397,3.0,301.30077,5746.2339,0.0,0.0,0.0,0.1561431891218057,0.0,0.0,-0.3708806028480656,-0.6376325934644373,-0.7381984156945114,1.3082342578876687,0.3275542109570837,-0.13840916319242086
15398,3.0,300.25883,5533.5961,0.0,0.0,0.0,0.15615333026547792,0.0,0.0,-0.3570475604953507,-0.6412635549327853,-0.6837639352097463,1.3272337105127687,0.35052064918119463,-0.14147961497045086
15399,3.0,299.63516,5390.6292,0.0,0.0,0.0,0.15616347140915018,0.0,0.0,-0.33253180207333366,-0.6428010606345254,-0.6632837999485144,1.2959723104775087,0.33090693394797166,-0.13802998473999886
15400,3.0,299.3914,5278.8356,0.0,0.0,0.0,0.15617361255282247,0.0,0.0,-0.36017589925159366,-0.5751101176339495,-0.6693481828570224,1.2793122496832887,0.3114923831544047,-0.11785168655105589
15401,3.0,299.19226000000003,4963.2854,0.0,0.0,0.0,0.15618375369649473,0.0,0.0,-0.26740098743792273,-0.5907154053390714,-0.6505984355865664,1.2533294773689887,0.31858502239689374,-0.1307748505789729
15402,3.0,299.91726,5127.7014,0.0,0.0,0.0,0.15619389484016696,0.0,0.0,-0.26315920841179175,-0.6192941244095714,-0.6762398439421764,1.2619880034485187,0.34817694090488865,-0.15142783617476385
15403,3.0,299.92087000000004,5756.8038,0.0,0.0,0.0,0.15620403598383922,0.0,0.0,-0.35423769637803865,-0.6460819036633193,-0.7496049976352533,1.2670573950238289,0.3445391703958687,-0.09479056517135041
15404,3.0,300.48836,5613.9115,0.0,0.0,0.0,0.1562141771275115,0.0,0.0,-0.3643794179539486,-0.6668301955635164,-0.6752793132448793,1.2327033530333487,0.34068799928328763,-0.13177800870797687
15405,3.0,300.47283999999996,5327.0486,0.0,0.0,0.0,0.15622431827118377,0.0,0.0,-0.34006144595145166,-0.5998609906091704,-0.6793673315683354,1.275624424619329,0.3275982974689347,-0.11514747402167087
15406,3.0,300.48281000000003,5661.9294,0.0,0.0,0.0,0.156234459414856,0.0,0.0,-0.39194619401707764,-0.6316864669751004,-0.6974524880982014,1.3128326908164987,0.3224899464272797,-0.1311020796987679
15407,3.0,300.14756,5779.4234,0.0,0.0,0.0,0.1562446005585283,0.0,0.0,-0.37916568547073964,-0.6475277203635104,-0.7301069955634503,1.3180030021017688,0.33782445317567766,-0.13011383661123588
15408,3.0,299.92826,5358.4398,0.0,0.0,0.0,0.15625474170220055,0.0,0.0,-0.3133835942010527,-0.5871874103458854,-0.7282609146762563,1.2833747746342288,0.2866883550789377,-0.13802485769449288
15409,3.0,298.70925,5271.7605,0.0,0.0,0.0,0.15626488284587278,0.0,0.0,-0.3339774566535087,-0.6030381578877324,-0.6654679618640744,1.2998222555574688,0.3010030762641907,-0.1310054966992359
15410,3.0,298.6616,5476.4249,0.0,0.0,0.0,0.15627502398954504,0.0,0.0,-0.3675693116537666,-0.5844921549473845,-0.7126349566690943,1.2889398481584589,0.35234528969627266,-0.10589001580803091
15411,3.0,299.09987,5435.3056,0.0,0.0,0.0,0.15628516513321733,0.0,0.0,-0.3588367473894296,-0.6049695139033424,-0.6883909316588954,1.2707119854845088,0.3341700349675147,-0.1107179397520099
15412,3.0,300.39422,5607.3693,0.0,0.0,0.0,0.1562953062768896,0.0,0.0,-0.3488903703002987,-0.6428717145639984,-0.7127381561917794,1.2217906494563489,0.31307665034825966,-0.11970224600369189
15413,3.0,299.80006000000003,5655.9149,0.0,0.0,0.0,0.15630544742056182,0.0,0.0,-0.3391071467422697,-0.6247825050337324,-0.7553672496289433,1.2222688021785388,0.32914800270187866,-0.1061149370652289
15414,3.0,300.5406,5330.7888,0.0,0.0,0.0,0.1563155885642341,0.0,0.0,-0.29012135787524873,-0.6474739471807034,-0.6828313803477103,1.2704476285334187,0.34649378050127366,-0.1333363366992719
15415,3.0,300.8128,5349.1095,0.0,0.0,0.0,0.15632572970790637,0.0,0.0,-0.32355233915712966,-0.6175881253487023,-0.6848552764949534,1.2773833254679188,0.35525352013329264,-0.13878753104476288
15416,3.0,301.54705,5419.0659,0.0,0.0,0.0,0.15633587085157863,0.0,0.0,-0.3579617755305766,-0.5958143736848004,-0.6934845703090983,1.2834250318391887,0.3064186244711637,-0.12289708436399788
15417,3.0,299.73999,5148.7107,0.0,0.0,0.0,0.15634601199525092,0.0,0.0,-0.3161275767968627,-0.5941042405635234,-0.6548476822659344,1.2871296768548088,0.3210114017488587,-0.13841991377598187
15418,3.0,300.29066,5112.1635,0.0,0.0,0.0,0.15635615313892315,0.0,0.0,-0.30981192812855674,-0.5614462373854295,-0.6827118674984153,1.3028760900338587,0.3342626054966507,-0.14873728225672686
15419,3.0,298.78301,5589.1644,0.0,0.0,0.0,0.1563662942825954,0.0,0.0,-0.3353003458515677,-0.6239852798550524,-0.7396808005908112,1.2877406666651088,0.3324369314664707,-0.13359233433703688
15420,3.0,299.55084,5801.9154,0.0,0.0,0.0,0.15637643542626767,0.0,0.0,-0.3784197915421256,-0.6480555223406004,-0.7371620938897343,1.2648356415295587,0.3179927878459447,-0.12776714937963587
15421,3.0,299.79719,5636.889,0.0,0.0,0.0,0.15638657656993996,0.0,0.0,-0.3697278383417967,-0.6325261574654714,-0.7112195172069014,1.2748756327954287,0.3301318888139807,-0.12406939446469588
15422,3.0,299.40596,5677.5414,0.0,0.0,0.0,0.1563967177136122,0.0,0.0,-0.3710291047827216,-0.6529931002104015,-0.7018086225306183,1.2735710732916787,0.3283686816524657,-0.1105045290159479
15423,3.0,298.55986,5424.621,0.0,0.0,0.0,0.15640685885728445,0.0,0.0,-0.35613808747059267,-0.5926476226172664,-0.7001636211257692,1.2786029746132888,0.32658020403345667,-0.0953765246644301
15424,3.0,300.8938,5241.9714,0.0,0.0,0.0,0.1564170000009567,0.0,0.0,-0.2755395946261407,-0.6398693937226924,-0.6780194252253074,1.2932876030125486,0.26818659063795575,-0.11736951122596889
15425,3.0,300.11585,5420.2691,0.0,0.0,0.0,0.156427141144629,0.0,0.0,-0.29914975063878174,-0.6467361389878874,-0.7017405625214013,1.2732961785395487,0.3124200946809627,-0.11893642144561088
15426,3.0,300.56023,5645.6349,0.0,0.0,0.0,0.15643728228830123,0.0,0.0,-0.36468314980392463,-0.6284447354001664,-0.7230041427599533,1.3210667664291387,0.3562460290037457,-0.0979205879492596
15427,3.0,299.63431,5247.5219,0.0,0.0,0.0,0.15644742343197351,0.0,0.0,-0.33293045519267767,-0.6201075615898514,-0.6420776101956265,1.271848041496629,0.3537505054649567,-0.13593200987794488
15428,3.0,299.48888,5414.0121,0.0,0.0,0.0,0.15645756457564575,0.0,0.0,-0.38103940782066165,-0.5988260569570304,-0.6658590358726704,1.2810535199801387,0.34871225106521964,-0.12609103106421587
15429,3.0,300.20655,5981.4147,0.0,0.0,0.0,0.15646770571931803,0.0,0.0,-0.40937432878460056,-0.6758009546613614,-0.7330254091639753,1.2569276297990988,0.3461782949501377,-0.11160596227215089
15430,3.0,299.71907999999996,5543.5038,0.0,0.0,0.0,0.15647784686299027,0.0,0.0,-0.3214563502652717,-0.6615066808631264,-0.7021237027817143,1.3061663157585788,0.3414775034962057,-0.14473940266216687
15431,3.0,299.06487000000004,5215.4451,0.0,0.0,0.0,0.15648798800666255,0.0,0.0,-0.2742239704312987,-0.6122011001320444,-0.6989400101725083,1.2860590767991489,0.32537562191707364,-0.15036815895518185
15432,3.0,299.85075,5523.8905,0.0,0.0,0.0,0.1564981291503348,0.0,0.0,-0.3444177526363857,-0.6568679915078234,-0.6778390261775034,1.2965890758133787,0.2917377045672698,-0.1364598726500409
15433,3.0,298.81037000000003,5433.7964,0.0,0.0,0.0,0.15650827029400707,0.0,0.0,-0.34611585847897564,-0.6267939584697474,-0.6788286270201693,1.2837395446702289,0.3188516287632057,-0.12403339368864288
15434,3.0,299.06464,5276.2148,0.0,0.0,0.0,0.1565184114376793,0.0,0.0,-0.3206057774688267,-0.6457175693248624,-0.6375142154552543,1.2884356549086988,0.32715984388566266,-0.12461959940149687
15435,3.0,299.92341,5482.1535,0.0,0.0,0.0,0.1565285525813516,0.0,0.0,-0.3140974390290037,-0.6686248844056384,-0.6837154410599604,1.2646972315658989,0.34635967685053864,-0.1113469856790919
15436,3.0,300.72213,5462.946,0.0,0.0,0.0,0.15653869372502385,0.0,0.0,-0.3159263453270027,-0.6287383651466454,-0.7159344536322294,1.2557762737104687,0.32637268028047567,-0.1203621352638179
15437,3.0,301.30068,5392.938,0.0,0.0,0.0,0.15654883486869614,0.0,0.0,-0.2925779928751997,-0.6635556650828454,-0.6831848222475924,1.2785609247341387,0.3373662006854517,-0.13987374528446386
15438,3.0,299.90668,5682.5358,0.0,0.0,0.0,0.15655897601236834,0.0,0.0,-0.38690169799672464,-0.6332223818741833,-0.7072249002776634,1.2923471042697288,0.3489648847126527,-0.12899667771348086
15439,3.0,299.23402999999996,5676.1155,0.0,0.0,0.0,0.15656911715604063,0.0,0.0,-0.3930863638246036,-0.6163026250793334,-0.7160084006245273,1.2995054122511989,0.3325845518735397,-0.11214047196490289
15440,3.0,300.83847000000003,5237.7182,0.0,0.0,0.0,0.1565792582997129,0.0,0.0,-0.34129247389544465,-0.6106163364456404,-0.6402267265029584,1.2706237314007989,0.3141000430817607,-0.16995088900034683
15441,3.0,300.81035,5354.1164,0.0,0.0,0.0,0.15658939944338518,0.0,0.0,-0.3323957023199017,-0.5905412884418875,-0.7045807228167034,1.2876806822591889,0.33475579485032464,-0.10527996832032391
15442,3.0,299.44346,5744.1799,0.0,0.0,0.0,0.1565995405870574,0.0,0.0,-0.34470085471432566,-0.6629430439398845,-0.7384433689061863,1.309295232067379,0.34352673089594865,-0.13633875886558788
15443,3.0,299.33423,5395.3368,0.0,0.0,0.0,0.15660968173072967,0.0,0.0,-0.2861484244981507,-0.6529996356735464,-0.7008996156009063,1.2912603935374787,0.3430553770819296,-0.12112265039137489
15444,3.0,299.90817000000004,5089.7443,0.0,0.0,0.0,0.15661982287440193,0.0,0.0,-0.3150853274790007,-0.5818864505927215,-0.6501834083456064,1.2877064188117289,0.3205373526895737,-0.12461462434350588
15445,3.0,299.75072,5513.2264,0.0,0.0,0.0,0.15662996401807422,0.0,0.0,-0.34808957848126665,-0.6518007885527294,-0.6759928034352953,1.2696164594763888,0.3207955389475547,-0.11237811964335691
15446,3.0,299.35827,5398.1793,0.0,0.0,0.0,0.15664010516174645,0.0,0.0,-0.38724620303072466,-0.5877781858166905,-0.6658873258154624,1.2680376131705686,0.31661717924518273,-0.11265352102053688
15447,3.0,299.49563,5269.5531,0.0,0.0,0.0,0.15665024630541874,0.0,0.0,-0.2987761551944107,-0.6232743734523915,-0.6797620330122894,1.2668265766510487,0.31749146209396767,-0.11374185295294688
15448,3.0,300.26987,5665.7838,0.0,0.0,0.0,0.15666038744909097,0.0,0.0,-0.34982074667461965,-0.6478682635896194,-0.7245677903142733,1.2624983775238887,0.31627109354102667,-0.1368351602220789
15449,3.0,299.91912,5605.9144,0.0,0.0,0.0,0.15667052859276326,0.0,0.0,-0.34483251643231966,-0.6049330875622474,-0.7542924040553644,1.3048598310796387,0.3482210274167397,-0.13379061724910588
15450,3.0,299.9068,5450.7285,0.0,0.0,0.0,0.1566806697364355,0.0,0.0,-0.3427345517027667,-0.6396141053599973,-0.6745366921140884,1.3121562450497386,0.3364036130904517,-0.16874923517675286
15451,3.0,300.41344,5697.4287,0.0,0.0,0.0,0.15669081088010778,0.0,0.0,-0.37958065191669366,-0.6530302864890714,-0.6992651215995943,1.2925929187439886,0.3162165604206447,-0.16032272310512083
15452,3.0,300.52692,5676.2477,0.0,0.0,0.0,0.15670095202378004,0.0,0.0,-0.3784461765747296,-0.6451928070980725,-0.7017985913546284,1.2759895999553688,0.3110786630060737,-0.15849270223201184
15453,3.0,301.14603999999997,5258.6098,0.0,0.0,0.0,0.1567110931674523,0.0,0.0,-0.2628025342440907,-0.6671162259342454,-0.6685673115349564,1.255150490448709,0.3373484992062047,-0.16374482333035584
15454,3.0,300.2138,5318.6791,0.0,0.0,0.0,0.15672123431112453,0.0,0.0,-0.29192086978784676,-0.6210627828566244,-0.7037619762058993,1.252591223346129,0.3412816827818797,-0.1093385922583789
15455,3.0,300.18773999999996,5459.7498,0.0,0.0,0.0,0.15673137545479682,0.0,0.0,-0.3292638982483167,-0.6325913195794024,-0.6977723711547713,1.228263797720199,0.3296217883161377,-0.12431088236102888
15456,3.0,299.68405,5354.4815,0.0,0.0,0.0,0.15674151659846908,0.0,0.0,-0.32134680779696073,-0.6260811876869025,-0.6802006791130804,1.2575664839871488,0.32811220778715366,-0.11763555017222489
15457,3.0,299.52907000000005,5522.0274,0.0,0.0,0.0,0.15675165774214136,0.0,0.0,-0.3679068860570826,-0.5941498773480275,-0.7165016913032114,1.2978177428846387,0.30831619872843974,-0.0979856588706816
15458,3.0,299.34704,5891.0381,0.0,0.0,0.0,0.15676179888581357,0.0,0.0,-0.4145529487206906,-0.6618002092845954,-0.7143753150408544,1.298503409227309,0.30175542459594173,-0.10735361504747688
15459,3.0,299.28415,5694.1662,0.0,0.0,0.0,0.15677194002948586,0.0,0.0,-0.3462909987587607,-0.6147188037155225,-0.7698745389957012,1.2677979795219187,0.2859183255329417,-0.12645972237810288
15460,3.0,299.15783999999996,5487.2398,0.0,0.0,0.0,0.15678208117315812,0.0,0.0,-0.33940323868649164,-0.6165642665201554,-0.7120163776155454,1.3060670172487787,0.3109411345700007,-0.13869588257321785
15461,3.0,300.2791,5608.603,0.0,0.0,0.0,0.1567922223168304,0.0,0.0,-0.3377912287048987,-0.6421177855620914,-0.7249662610485993,1.3012085843442887,0.3643938162378697,-0.12484875604411289
15462,3.0,300.66175,5237.002,0.0,0.0,0.0,0.15680236346050266,0.0,0.0,-0.36448264787413664,-0.5819997116888995,-0.6454354804970224,1.2861104485792187,0.37252262529762065,-0.11405552478640389
15463,3.0,300.67843999999997,5024.7317,0.0,0.0,0.0,0.1568125046041749,0.0,0.0,-0.3041849044932127,-0.6104471743414454,-0.6127609005472924,1.2544627976058387,0.32294434856712567,-0.13442567174928088
15464,3.0,300.67214,5420.8992,0.0,0.0,0.0,0.15682264574784716,0.0,0.0,-0.3720853673494666,-0.6157401800813244,-0.6599924596486844,1.2456594780870187,0.3253239056319697,-0.13589877527466487
15465,3.0,299.81325,5491.7408,0.0,0.0,0.0,0.15683278689151944,0.0,0.0,-0.2804547796687317,-0.6526830760773044,-0.7362142085536852,1.2971494031186788,0.3224706136153717,-0.1156711115408499
15466,3.0,299.94037000000003,5238.0046,0.0,0.0,0.0,0.1568429280351917,0.0,0.0,-0.28551030998267374,-0.6525415351708354,-0.6541707602716273,1.2890421864185588,0.3274887550006237,-0.14228663827759788
15467,3.0,300.63819,5640.2137,0.0,0.0,0.0,0.15685306917886396,0.0,0.0,-0.3189074183137117,-0.6494707490202724,-0.7461059815949272,1.2839713762931089,0.28977523164108876,-0.12337308899597589
15468,3.0,299.66911,5690.3984,0.0,0.0,0.0,0.1568632103225362,0.0,0.0,-0.38438788529363066,-0.6688265718380434,-0.6765245773527774,1.2891051092497687,0.3183558150917727,-0.13752726070288385
15469,3.0,298.20612,5443.0628,0.0,0.0,0.0,0.15687335146620848,0.0,0.0,-0.3334054668395577,-0.6380202325551945,-0.6831294785271304,1.3085858556723686,0.3217495240492057,-0.12326528931783688
15470,3.0,298.48749,5633.0204,0.0,0.0,0.0,0.15688349260988071,0.0,0.0,-0.36930985241054465,-0.6464304819627215,-0.6965572309723463,1.291730845558909,0.31761827034398266,-0.13440374501711688
15471,3.0,299.09177999999997,5600.7942,0.0,0.0,0.0,0.156893633753553,0.0,0.0,-0.3356162974977497,-0.6297759535140475,-0.7371093238245263,1.2680158282934186,0.2952197486684207,-0.13314804443318887
15472,3.0,300.47776,5215.9014,0.0,0.0,0.0,0.15690377489722526,0.0,0.0,-0.3163216547210167,-0.5941107253641634,-0.6750714044568603,1.2638575512080288,0.3181484129288037,-0.1350947511878139
15473,3.0,300.47846,5325.4716,0.0,0.0,0.0,0.15691391604089752,0.0,0.0,-0.3104146194205377,-0.6180924908509795,-0.6903032892351304,1.3158311005124188,0.34517744703136166,-0.1155728870761559
15474,3.0,299.75215,5654.0715,0.0,0.0,0.0,0.15692405718456975,0.0,0.0,-0.3984057748620886,-0.6590759546682323,-0.6612148344368234,1.2748288206408087,0.35414485227137565,-0.11429915064044788
15475,3.0,299.97736000000003,5619.4608,0.0,0.0,0.0,0.15693419832824204,0.0,0.0,-0.37071156233388264,-0.6363831750311294,-0.7010810278988103,1.260715259997909,0.3217593424426747,-0.1060097414398469
15476,3.0,299.88507999999996,5483.3255,0.0,0.0,0.0,0.1569443394719143,0.0,0.0,-0.33280472098776864,-0.6476554912011204,-0.6863338009083724,1.2541238654473887,0.3172003249427347,-0.14334368104691986
15477,3.0,299.37422999999995,5672.3853,0.0,0.0,0.0,0.1569544806155866,0.0,0.0,-0.3175542430701637,-0.6420537278907693,-0.7646555207781243,1.282276411525829,0.3353417168531507,-0.09047885770281802
15478,3.0,300.95152,5617.9341,0.0,0.0,0.0,0.1569646217592588,0.0,0.0,-0.3327392548988077,-0.6428701136288404,-0.7321023079253723,1.2841942913151088,0.32950683509229267,-0.08720913813362181
15479,3.0,300.39641,5228.6721,0.0,0.0,0.0,0.15697476290293108,0.0,0.0,-0.28602226472819975,-0.6192078664285584,-0.6841556374334044,1.2808685005118787,0.2946373527759427,-0.13980778270295385
15480,3.0,300.89959,5575.2139,0.0,0.0,0.0,0.15698490404660334,0.0,0.0,-0.37804918518554964,-0.6300912060176603,-0.6865854314382064,1.2852644860707287,0.31361383502127566,-0.10912466476476589
15481,3.0,301.15246,5594.3624,0.0,0.0,0.0,0.15699504519027563,0.0,0.0,-0.34510972139467766,-0.6558732129571464,-0.6995635338865454,1.2994560669713286,0.3299806815015577,-0.14294876682044486
15482,3.0,300.56442999999996,5120.5237,0.0,0.0,0.0,0.1570051863339479,0.0,0.0,-0.2824713398852507,-0.6152327140337415,-0.6588072914042173,1.2801183914628487,0.3298503167436917,-0.16411783108966882
15483,3.0,300.28137000000004,5467.1648,0.0,0.0,0.0,0.15701532747762012,0.0,0.0,-0.3103162328358277,-0.6353509467567564,-0.7162143943698573,1.2760340816347588,0.30063272322013973,-0.19109675997478182
15484,3.0,300.14686,5742.9435,0.0,0.0,0.0,0.15702546862129238,0.0,0.0,-0.37618949634951265,-0.6598378579484264,-0.7096840684028644,1.2844481104651588,0.3187117698519027,-0.14272151508801686
15485,3.0,298.40352,5316.3562,0.0,0.0,0.0,0.15703560976496467,0.0,0.0,-0.3096242235475317,-0.6453977369307974,-0.6610175749073554,1.2877328646393387,0.3403275862227177,-0.15269182514450985
15486,3.0,300.71725,5453.602,0.0,0.0,0.0,0.15704575090863693,0.0,0.0,-0.3660343390772766,-0.6519318727181664,-0.6397926096301143,1.2480079891687987,0.34333896551991766,-0.11563354022714188
15487,3.0,300.65099,5698.2648,0.0,0.0,0.0,0.15705589205230922,0.0,0.0,-0.3508575548394447,-0.6575161878617954,-0.7237564606942013,1.2379439838755588,0.33627462635272165,-0.11174720933609088
15488,3.0,299.79621000000003,5459.7739,0.0,0.0,0.0,0.15706603319598142,0.0,0.0,-0.30983556725338973,-0.6323494770455343,-0.7174498907467912,1.2341961744056789,0.3425676086162907,-0.09672349577761581
15489,3.0,300.04889,5469.6882,0.0,0.0,0.0,0.1570761743396537,0.0,0.0,-0.29362202551323774,-0.6416707598829734,-0.7273558594219344,1.282778780925409,0.3363370222938797,-0.09302854148595222
15490,3.0,300.06543999999997,5696.4823,0.0,0.0,0.0,0.15708631548332597,0.0,0.0,-0.3690369334961096,-0.6169448128602124,-0.7456066418131463,1.265554035850459,0.3209513160179287,-0.09219268209420932
15491,3.0,299.89027999999996,5445.2261,0.0,0.0,0.0,0.15709645662699825,0.0,0.0,-0.35772250665196265,-0.6017733887154094,-0.6957168717369093,1.286256761893659,0.2697974657794367,-0.12483129774488988
15492,3.0,300.29057,5400.6633,0.0,0.0,0.0,0.1571065977706705,0.0,0.0,-0.3932258579658706,-0.6085045104547194,-0.6399364100843064,1.2846751798125688,0.3067825231120777,-0.14313762650658388
15493,3.0,299.01736,5647.7992,0.0,0.0,0.0,0.15711673891434275,0.0,0.0,-0.37906867690616564,-0.6169899328871654,-0.7207313214606433,1.2852829272225488,0.3454313168439167,-0.12067632385482589
15494,3.0,299.45392999999996,5517.2051,0.0,0.0,0.0,0.157126880058015,0.0,0.0,-0.3327210670595127,-0.6419542875259554,-0.7024172514681853,1.2781060767642487,0.33095285444250366,-0.13899973601320587
15495,3.0,298.74671,5151.8906,0.0,0.0,0.0,0.15713702120168727,0.0,0.0,-0.2781897603951918,-0.5986041855826334,-0.6892521638463923,1.2555383625869887,0.3109546513263347,-0.15547696595938185
15496,3.0,299.59738,5454.9016,0.0,0.0,0.0,0.15714716234535953,0.0,0.0,-0.3312926883935427,-0.6206501570184014,-0.7062110320951023,1.2949684836034387,0.3417149383921387,-0.1107300278257029
15497,3.0,299.99478999999997,5613.6077,0.0,0.0,0.0,0.1571573034890318,0.0,0.0,-0.3633625505510916,-0.6445754034146394,-0.6984586150499983,1.2953460205906988,0.3310872924657717,-0.1010775125173238
15498,3.0,299.64421,5212.1288,0.0,0.0,0.0,0.15716744463270405,0.0,0.0,-0.3248987053600057,-0.6172167793195534,-0.6422415337968044,1.2634827499960388,0.32005845016230966,-0.1015610871407989
15499,3.0,299.73078,5299.0838,0.0,0.0,0.0,0.1571775857763763,0.0,0.0,-0.2948260402095647,-0.6274315055651684,-0.6885316113027794,1.2252848424261988,0.2823222705305387,-0.13707027477528286
15500,3.0,299.80037999999996,5592.1977,0.0,0.0,0.0,0.15718772692004856,0.0,0.0,-0.3205051819988987,-0.6390311420474634,-0.7403521395770672,1.2604338804451387,0.3166470802556337,-0.11026166309947888
